# vtk DataFile Version 2.0
Wound Healing Simulation
ASCII
DATASET UNSTRUCTURED_GRID
POINTS 3012 float
69.9759 18.75 4
67.2507 60.3285 4
69.976 18.75 2
73.0099 25.446 4
71.1327 20.9142 4
68.6801 16.6661 4
67.8213 19.9263 3.97303
67.2507 60.3286 2
71.1327 54.0858 4
68.6801 58.3339 4
65.6939 62.2254 4
65.308 58.9988 3.97162
74.6784 42.3946 4
73.7221 47.2057 4
69.9759 18.75 0
73.0099 25.446 2
68.6801 16.6661 2
71.1327 20.9142 2
67.8218 19.9299 2
74.6792 32.6053 4
73.7222 27.7943 4
72.1454 23.1494 4
70.6112 26.2217 3.97307
68.8817 21.9579 3.97323
67.2507 14.6715 4
66.6325 17.9734 3.97178
65.7475 21.0427 3.96203
67.2507 60.3285 0
71.1327 54.0858 2
68.6801 58.3339 2
65.694 62.2255 2
65.3094 58.9943 2
72.1454 51.8506 4
69.9759 56.25 4
68.832 53.1143 3.97305
64.0165 64.0165 4
66.6062 57.1329 3.97286
63.8807 60.7618 3.96843
63.4781 57.7586 3.96137
60.3285 67.2507 4
74.6792 42.3947 2
73.7222 47.2057 2
74.9194 39.9526 4
74.2788 44.8158 4
72.1658 42.0859 3.97461
73.0099 49.554 4
71.2463 46.5985 3.97304
73.0099 25.446 0
71.1327 20.9142 0
68.6801 16.6661 0
67.8213 19.9263 0.026971
74.6792 32.6053 2
73.7222 27.7943 2
67.2508 14.6715 2
72.1455 23.1494 2
70.6105 26.2226 2
66.6335 17.9776 2
68.8817 21.9605 2
65.7462 21.044 2
74.9197 35.0474 4
74.2794 30.1841 4
72.1826 32.9451 3.9749
71.2756 28.4328 3.97315
69.812 24.0597 3.97316
68.3211 26.961 3.96418
66.7175 22.9482 3.96277
65.694 12.7746 4
65.3192 16.1065 3.97052
64.6646 19.2143 3.96095
63.7272 22.0979 3.96437
71.1327 54.0858 0
65.6939 62.2254 0
68.6801 58.3339 0
65.308 58.9988 0.0283811
72.1455 51.8506 2
69.9759 56.25 2
68.8322 53.1112 2
64.0165 64.0165 2
66.6073 57.1282 2
63.8815 60.757 2
63.4693 57.7566 2
62.2254 65.694 4
58.8906 65.4118 3.97991
69.765 50.9902 3.97288
67.7791 55.1679 3.97319
66.595 52.1954 3.96287
62.3315 62.4238 3.974
64.6167 56.0172 3.96199
62.1904 59.3871 3.96141
61.7009 56.6248 3.96045
58.3339 68.6801 4
60.3285 67.2508 2
73.7221 47.2057 0
74.6784 42.3946 0
74.9197 39.9526 2
74.2794 44.8159 2
72.1647 42.0855 2
73.0099 49.554 2
71.2455 46.5974 2
75 37.5 4
72.4031 39.8027 3.97563
71.7798 44.3532 3.97408
69.7943 41.7887 3.96608
70.5717 48.8145 3.97287
68.8874 46.0094 3.96558
74.6792 32.6053 0
73.7222 27.7943 0
67.2507 14.6715 0
72.1454 23.1494 0
70.6112 26.2217 0.0269314
68.8817 21.9579 0.0267663
66.6325 17.9734 0.028218
65.7475 21.0427 0.0379746
74.9197 35.0474 2
74.2794 30.1841 2
72.1815 32.9447 2
71.2746 28.4332 2
65.694 12.7745 2
65.32 16.111 2
69.8117 24.0613 2
68.325 26.9616 2
64.6588 19.2159 2
66.7188 22.9493 2
63.7262 22.0987 2
72.411 35.2255 3.97575
71.8015 30.6781 3.97427
69.833 33.2733 3.96582
68.9499 29.0457 3.96475
67.5738 24.9244 3.9634
66.0235 27.6814 3.97109
64.0165 10.9835 4
64.589 23.8888 3.96678
63.884 14.3323 3.96673
63.4826 17.4659 3.95913
62.752 20.3876 3.9621
61.8129 23.0533 3.97037
60.6802 11.1031 3.97481
57.6044 11.4829 3.96521
72.1454 51.8506 0
69.9759 56.25 0
68.832 53.1143 0.0269463
64.0165 64.0165 0
63.8807 60.7618 0.0315678
66.6062 57.1329 0.027137
63.4781 57.7586 0.0386305
62.2255 65.694 2
58.893 65.4068 2
69.7648 50.988 2
67.7799 55.1638 2
66.5958 52.1941 2
62.3333 62.4176 2
64.611 56.0153 2
62.1863 59.387 2
61.6977 56.6249 2
60.665 63.9726 3.97711
57.0211 66.7322 3.9818
57.55 63.6659 3.97229
67.457 50.1647 3.96363
65.6505 54.159 3.96225
64.3449 51.3267 3.96705
60.7658 60.9134 3.96648
62.6708 55.01 3.96332
60.5642 58.1037 3.95738
60.1201 55.6915 3.96551
56.25 69.9759 4
58.3339 68.6801 2
60.3285 67.2507 0
58.9177 9.65989 3.97706
62.2254 9.30607 4
73.0099 49.554 0
74.2788 44.8158 0
71.2463 46.5985 0.026963
72.1658 42.0859 0.0253941
74.9194 39.9526 0
75 37.5 2
72.4027 39.8027 2
71.7793 44.3523 2
69.7955 41.7885 2
70.5712 48.813 2
68.8918 46.0089 2
72.4866 37.513 3.97536
70.0345 39.658 3.96632
69.4171 43.9048 3.96588
67.4537 41.4836 3.97546
68.2259 48.0982 3.96465
66.5321 45.405 3.97429
74.9197 35.0474 0
74.2794 30.1841 0
72.1826 32.9451 0.0251028
71.2756 28.4328 0.0268463
65.694 12.7746 0
65.3192 16.1065 0.0294822
69.812 24.0597 0.0268396
68.3211 26.961 0.0358248
66.7175 22.9482 0.0372288
64.6646 19.2143 0.0390486
63.7272 22.0979 0.0356278
72.4107 35.2251 2
71.8008 30.6782 2
69.8326 33.2734 2
68.9541 29.046 2
64.0165 10.9835 2
63.8851 14.3377 2
63.4775 17.4663 2
67.5766 24.9253 2
66.0213 27.6826 2
62.753 20.3876 2
64.5872 23.8899 2
61.8105 23.0537 2
60.6822 11.1082 2
57.6032 11.475 2
70.0515 35.3955 3.96634
69.4565 31.1556 3.965
67.5239 33.6093 3.97475
66.6168 29.6597 3.97355
65.3503 25.7533 3.96885
63.8223 28.3434 3.97587
62.3367 12.66 3.97265
62.5593 24.7408 3.97322
62.1839 15.8064 3.96106
61.6707 18.7558 3.95945
60.9514 21.4585 3.96652
60.0374 23.882 3.97367
59.2375 12.8171 3.96292
55.8672 10.2663 3.97371
56.3908 13.1847 3.96472
69.765 50.9902 0.0271193
62.2254 65.694 0
58.8906 65.4118 0.0200895
67.7791 55.1679 0.0268095
66.595 52.1954 0.0371251
62.3315 62.4238 0.0259962
62.1904 59.3871 0.0385945
64.6167 56.0172 0.0380125
61.7009 56.6248 0.0395499
60.6676 63.969 2
57.0243 66.728 2
57.551 63.6705 2
67.4588 50.1636 2
65.6486 54.1573 2
64.3428 51.3259 2
60.7622 60.9141 2
62.6709 55.0104 2
60.5593 58.104 2
60.1194 55.6918 2
55.0671 67.9301 3.9849
59.2118 62.3303 3.96628
55.7953 64.8803 3.97213
56.3159 62.0369 3.97849
65.1293 49.354 3.96909
63.5282 53.2322 3.96505
62.0979 50.5476 3.97164
59.2842 59.5074 3.95771
60.8199 54.2095 3.9684
59.0836 56.9101 3.96031
58.9609 55.0621 3.96899
48.099 68.5709 3.98104
50.945 69.9306 3.98772
54.0858 71.1327 4
56.25 69.976 2
58.3339 68.6801 0
57.0543 8.33957 3.9777
60.3285 7.74928 4
58.9201 9.6655 2
62.2255 9.30602 2
70.5717 48.8145 0.0271251
71.7798 44.3532 0.025925
68.8874 46.0094 0.0344185
69.7943 41.7887 0.0339218
72.4031 39.8027 0.0243729
75 37.5 0
72.4857 37.5127 2
70.0343 39.6581 2
69.4186 43.9044 2
67.4506 41.483 2
68.2279 48.0972 2
66.5288 45.4038 2
70.1227 37.5237 3.96644
67.7011 39.5073 3.97525
67.065 43.446 3.97512
65.24 41.1824 3.97671
65.8709 47.3722 3.97152
64.3022 44.7809 3.97575
72.411 35.2255 0.0242547
71.8015 30.6781 0.0257299
69.833 33.2733 0.0341795
68.9499 29.0457 0.0352509
64.0165 10.9835 0
63.884 14.3323 0.0332702
63.4826 17.4659 0.0408686
67.5738 24.9244 0.0365965
66.0235 27.6814 0.028909
64.589 23.8888 0.0332232
62.752 20.3876 0.0378955
61.8129 23.0533 0.029635
60.6802 11.1031 0.0251862
57.6044 11.4829 0.0347922
70.0511 35.3956 2
69.4585 31.1558 2
67.5213 33.6098 2
66.6152 29.6608 2
62.3384 12.6657 2
62.1807 15.8063 2
61.6722 18.7555 2
65.3482 25.7545 2
63.82 28.3441 2
60.9498 21.4582 2
62.5572 24.7413 2
60.0369 23.8821 2
59.2359 12.8155 2
56.3897 13.1808 2
55.8674 10.2733 2
67.7437 35.5581 3.97491
67.1283 31.6495 3.97451
65.401 33.9601 3.97665
64.337 30.2647 3.97553
63.2279 26.5106 3.97512
61.8027 28.8977 3.97542
60.7655 14.2522 3.9635
60.6274 25.4885 3.97499
60.5215 17.1929 3.95697
59.9595 19.9423 3.96218
59.282 22.4219 3.96941
58.501 24.515 3.97416
54.0305 9.16419 3.96958
57.8854 14.3932 3.95909
54.7763 12.0752 3.9703
55.2792 14.7428 3.95741
67.457 50.1647 0.0363692
57.0211 66.7322 0.0181976
60.665 63.9726 0.0228893
57.55 63.6659 0.027709
65.6505 54.159 0.0377508
64.3449 51.3267 0.0329546
60.7658 60.9134 0.0335238
60.5642 58.1037 0.0426204
62.6708 55.01 0.0366787
60.1201 55.6915 0.0344857
55.0707 67.9268 2
59.2104 62.3339 2
55.797 64.8799 2
56.314 62.0376 2
65.1267 49.3529 2
63.5269 53.2319 2
62.0966 50.5471 2
59.2949 59.5143 2
60.8203 54.2098 2
59.0924 56.9129 2
58.9687 55.0639 2
53.0389 68.9979 3.98556
53.9609 66.0003 3.97301
57.8565 60.8214 3.96303
54.6634 63.1473 3.96784
55.1855 60.5548 3.97574
62.8368 48.564 3.97405
61.4378 52.4711 3.97005
59.7912 49.8694 3.97312
57.8768 58.1748 3.9577
58.9906 53.8152 3.97121
57.8 55.6711 3.96282
50.1048 67.8477 3.97868
47.4581 66.565 3.9758
46.0532 69.1514 3.98344
48.1007 68.57 2
48.799 70.7221 3.98891
50.9479 69.9289 2
51.8506 72.1454 4
54.0858 71.1327 2
56.25 69.9759 0
55.099 7.14378 3.98252
58.3339 6.31992 4
57.0579 8.34566 2
60.3286 7.74926 2
58.9177 9.65989 0.0229372
62.2254 9.30607 0
68.2259 48.0982 0.0353495
69.4171 43.9048 0.0341227
66.5321 45.405 0.0257107
67.4537 41.4836 0.0245393
70.0345 39.658 0.0336752
72.4866 37.513 0.0246424
70.1219 37.5237 2
67.6974 39.5071 2
67.0628 43.445 2
65.2379 41.1819 2
65.8683 47.371 2
64.2997 44.7801 2
67.8038 37.525 3.97507
65.4827 39.3584 3.97678
64.8463 42.9769 3.97643
63.3137 40.8897 3.9767
63.6033 46.6308 3.97538
62.3164 44.1289 3.97577
70.0515 35.3955 0.0336613
69.4565 31.1556 0.034999
67.5239 33.6093 0.0252466
66.6168 29.6597 0.0264492
62.3367 12.66 0.0273455
62.1839 15.8064 0.0389439
61.6707 18.7558 0.0405535
65.3503 25.7533 0.0311523
63.8223 28.3434 0.0241335
62.5593 24.7408 0.0267827
60.9514 21.4585 0.0334756
60.0374 23.882 0.0263285
59.2375 12.8171 0.0370767
56.3908 13.1847 0.0352846
55.8672 10.2663 0.0262877
67.7405 35.5583 2
67.1271 31.6503 2
65.398 33.9608 2
64.3348 30.2656 2
60.7627 14.252 2
60.5119 17.1948 2
59.9552 19.9421 2
63.2263 26.5111 2
61.802 28.8976 2
59.2857 22.421 2
60.6265 25.4889 2
58.4988 24.5171 2
57.8869 14.3923 2
55.274 14.7342 2
54.0337 9.16082 2
54.7702 12.0817 2
65.5825 35.6853 3.97665
64.8666 32.205 3.97609
63.8904 34.2897 3.97649
62.1214 30.7302 3.97565
61.21 27.2103 3.97522
60.2985 29.2831 3.97576
59.2561 15.7312 3.95644
58.8076 25.9918 3.97551
58.9243 18.4746 3.9591
58.3788 21.0249 3.96382
57.8231 23.2941 3.97039
57.4463 24.8847 3.97566
52.1077 8.16525 3.97171
53.0413 11.0818 3.9663
56.6218 15.8364 3.95646
53.7939 13.7639 3.97825
54.3016 16.1193 3.95927
55.0671 67.9301 0.0151043
65.1293 49.354 0.0309124
55.7953 64.8803 0.0278746
59.2118 62.3303 0.0337174
56.3159 62.0369 0.0215124
63.5282 53.2322 0.0349527
62.0979 50.5476 0.0283554
59.2842 59.5074 0.042294
59.0836 56.9101 0.0396927
60.8199 54.2095 0.0316037
58.9609 55.0621 0.0310121
53.0423 68.996 2
53.9626 65.9986 2
57.8579 60.8241 2
54.6625 63.149 2
55.1835 60.5553 2
62.8352 48.5633 2
61.4374 52.471 2
59.7924 49.8691 2
57.8816 58.178 2
58.9958 53.8161 2
57.7973 55.6699 2
52.0649 66.9874 3.97606
52.9392 64.1805 3.97346
56.5828 59.4207 3.95744
53.6447 61.5387 3.97105
54.2036 59.2416 3.96331
60.4696 47.7351 3.97444
59.2899 51.9603 3.97175
57.4344 49.422 3.97468
56.5689 56.8681 3.9616
56.6874 53.9481 3.9667
50.1066 67.8465 2
49.3295 65.8972 3.97539
47.4598 66.5619 2
46.8839 64.7005 3.97692
45.5555 67.0837 3.9788
43.9711 69.5839 3.98458
46.0554 69.1516 2
46.6059 71.3665 3.99028
48.099 68.5709 0.0189568
48.8018 70.721 2
49.554 73.0099 4
50.945 69.9306 0.0122788
51.8506 72.1455 2
54.0858 71.1327 0
53.0618 6.07422 3.9868
55.1033 7.14609 2
56.25 5.02411 4
58.3339 6.3199 2
57.0543 8.33957 0.0222963
60.3285 7.74928 0
65.8709 47.3722 0.028483
67.065 43.446 0.024876
64.3022 44.7809 0.024246
65.24 41.1824 0.023294
67.7011 39.5073 0.0247484
70.1227 37.5237 0.0335593
67.8005 37.525 2
65.4801 39.3583 2
64.8435 42.976 2
63.3137 40.8891 2
63.6014 46.6299 2
62.3157 44.1287 2
65.5928 37.5055 3.9767
63.4655 39.2503 3.97661
62.861 42.492 3.9763
61.8892 40.6511 3.97658
61.4547 45.7996 3.97549
60.8474 43.5847 3.9761
67.7437 35.5581 0.025095
67.1283 31.6495 0.0254903
65.401 33.9601 0.0233468
64.337 30.2647 0.0244681
60.7655 14.2522 0.0364979
60.5215 17.1929 0.0430279
59.9595 19.9423 0.0378199
63.2279 26.5106 0.0248787
61.8027 28.8977 0.0245793
60.6274 25.4885 0.0250092
59.282 22.4219 0.0305864
58.501 24.515 0.0258378
57.8854 14.3932 0.040907
55.2792 14.7428 0.0425895
54.0305 9.16419 0.030417
54.7763 12.0752 0.0296955
65.5798 35.6856 2
64.8643 32.2056 2
63.8902 34.2901 2
62.1209 30.7305 2
59.2656 15.7272 2
58.9243 18.4724 2
58.3782 21.025 2
61.2088 27.2105 2
60.2992 29.2833 2
57.8186 23.297 2
58.8054 25.9924 2
57.4462 24.8873 2
56.594 15.8387 2
54.2984 16.1057 2
53.7814 13.7601 2
52.1102 8.16768 2
53.0438 11.0778 2
63.6765 35.6574 3.97645
62.4482 33.1131 3.97617
60.0066 30.7437 3.97565
58.9809 28.0891 3.97546
57.8085 17.0916 3.9569
57.1399 25.9639 3.97556
57.4099 19.6424 3.9587
56.9109 22.0549 3.9641
56.6421 24.184 3.97244
50.1085 7.29457 3.98017
51.2204 10.1644 3.97035
52.1409 12.8938 3.96604
55.4168 17.0991 3.95624
52.9294 15.3622 3.96043
53.6455 17.1176 3.95776
53.0389 68.9979 0.0144423
53.9609 66.0003 0.0269938
62.8368 48.564 0.0259527
54.6634 63.1473 0.0321629
57.8565 60.8214 0.0369711
55.1855 60.5548 0.024265
61.4378 52.4711 0.0299499
59.7912 49.8694 0.026878
57.8768 58.1748 0.0423035
57.8 55.6711 0.0371772
58.9906 53.8152 0.0287928
52.0669 66.9866 2
52.939 64.1817 2
56.5812 59.4213 2
53.6434 61.5383 2
54.1988 59.2433 2
60.4694 47.7344 2
59.2924 51.9604 2
57.4359 49.4217 2
56.5656 56.8717 2
56.6852 53.947 2
51.1584 65.1057 3.97385
52.0172 62.4746 3.96926
55.3585 58.1541 3.96068
52.7664 60.031 3.9654
53.5499 58.3749 3.96161
57.5865 46.6468 3.97543
57.0436 51.5997 3.97154
55.568 49.3241 3.97358
55.1994 55.6457 3.96163
54.8621 53.1859 3.962
50.1048 67.8477 0.0213209
49.3305 65.9013 2
48.6053 64.0907 3.97822
47.4581 66.565 0.0241971
45.5566 67.0859 2
46.8841 64.7028 2
46.3675 63.0066 3.98192
45.1266 65.174 3.97889
43.6299 67.4571 3.98058
41.8589 69.8708 3.98438
43.9726 69.584 2
44.3736 71.8611 3.99065
46.0532 69.1514 0.0165617
46.6082 71.3661 2
47.2057 73.7222 4
48.799 70.7221 0.0110893
49.554 73.0099 2
51.8506 72.1454 0
50.953 5.13421 3.98926
53.0649 6.07603 2
54.0858 3.86728 4
55.099 7.14378 0.0174752
56.25 5.02406 2
58.3339 6.31992 0
63.6033 46.6308 0.0246161
64.8463 42.9769 0.0235664
62.3164 44.1289 0.0242332
63.3137 40.8897 0.0232954
65.4827 39.3584 0.0232227
67.8038 37.525 0.0249332
65.5901 37.5056 2
63.4655 39.2502 2
62.8613 42.4912 2
61.8902 40.6508 2
61.454 45.7991 2
60.8479 43.5848 2
63.5301 37.4609 3.97651
61.5936 39.3286 3.97686
60.5919 41.879 3.97673
59.5822 44.6286 3.97558
65.5825 35.6853 0.0233528
64.8666 32.205 0.0239058
63.8904 34.2897 0.0235149
62.1214 30.7302 0.0243504
59.2561 15.7312 0.0435592
58.9243 18.4746 0.0409044
58.3788 21.0249 0.0361794
61.21 27.2103 0.0247797
60.2985 29.2831 0.0242398
58.8076 25.9918 0.0244917
57.8231 23.2941 0.0296123
57.4463 24.8847 0.0243384
56.6218 15.8364 0.0435357
54.3016 16.1193 0.0407267
53.7939 13.7639 0.0217544
52.1077 8.16525 0.0282903
53.0413 11.0818 0.0336999
63.6767 35.6577 2
62.4495 33.1138 2
60.0076 30.7439 2
57.8149 17.0865 2
57.4201 19.6384 2
56.91 22.0575 2
58.9814 28.0884 2
56.6498 24.1856 2
57.1406 25.9625 2
50.1117 7.29199 2
55.4131 17.1017 2
53.6494 17.1095 2
52.9186 15.3672 2
52.1487 12.8926 2
51.2219 10.1622 2
61.6366 35.3958 3.97658
59.6182 32.8444 3.97591
57.8922 30.2506 3.97539
56.6014 27.6173 3.97586
56.4408 18.3011 3.95823
55.6564 25.373 3.97485
55.9839 20.7255 3.95818
55.5729 23.1213 3.96494
48.055 6.53444 3.98368
49.3173 9.35594 3.97478
50.4099 12.0664 3.96854
51.3216 14.6121 3.96364
54.2503 18.0793 3.96035
52.2677 17.1907 3.95404
52.0649 66.9874 0.0239411
52.9392 64.1805 0.0265422
60.4696 47.7351 0.0255592
53.6447 61.5387 0.0289546
56.5828 59.4207 0.0425627
54.2036 59.2416 0.0366877
59.2899 51.9603 0.0282459
57.4344 49.422 0.0253206
56.5689 56.8681 0.0383984
56.6874 53.9481 0.0332961
51.1583 65.1029 2
52.0169 62.4778 2
55.3555 58.1542 2
52.765 60.0328 2
53.5469 58.3774 2
57.5866 46.646 2
57.0422 51.5989 2
55.5668 49.3233 2
55.1984 55.646 2
54.8606 53.1856 2
50.3271 63.3483 3.97436
51.1883 60.8464 3.97339
54.0581 57.1527 3.96562
52.1768 58.5156 3.96435
55.7802 43.9863 3.97584
54.6871 47.6387 3.9754
54.4138 51.1547 3.9652
53.6518 54.3725 3.96436
49.3295 65.8972 0.0246132
48.604 64.0935 2
47.9386 62.4375 3.98619
45.5555 67.0837 0.0212048
46.8839 64.7005 0.0230762
43.6305 67.4571 2
46.3677 63.0113 2
45.1283 65.1698 2
45.9631 61.5345 3.99272
44.7576 63.41 3.97605
43.3552 65.4879 3.97793
41.6627 67.6752 3.97982
39.7014 70.0173 3.98376
41.8602 69.8714 2
42.1085 72.2051 3.99102
43.9711 69.5839 0.0154236
44.3754 71.8606 2
44.8159 74.2794 4
46.6059 71.3665 0.00972253
47.2057 73.7222 2
49.554 73.0099 0
48.7844 4.32448 3.98993
50.9553 5.13415 2
51.8506 2.85458 4
53.0618 6.07422 0.0131962
54.0858 3.86728 2
56.25 5.02411 0
61.4547 45.7996 0.0245068
62.861 42.492 0.0237003
60.8474 43.5847 0.023896
61.8892 40.6511 0.023418
63.4655 39.2503 0.0233871
65.5928 37.5055 0.0233005
63.5302 37.461 2
61.5942 39.3283 2
60.5936 41.8789 2
59.5832 44.6286 2
61.4181 37.448 3.97677
59.5291 39.8001 3.97679
58.1876 42.7951 3.97582
63.6765 35.6574 0.0235467
62.4482 33.1131 0.0238261
60.0066 30.7437 0.0243514
57.8085 17.0916 0.0431001
57.4099 19.6424 0.0412966
56.9109 22.0549 0.0358959
58.9809 28.0891 0.0245388
57.1399 25.9639 0.0244391
56.6421 24.184 0.027558
55.4168 17.0991 0.043756
53.6455 17.1176 0.0422421
52.9294 15.3622 0.0395717
50.1085 7.29457 0.0198283
52.1409 12.8938 0.0339577
51.2204 10.1644 0.0296474
61.6377 35.3964 2
59.6185 32.8441 2
57.8938 30.2502 2
56.4398 18.2994 2
56.008 20.7198 2
55.5809 23.124 2
56.6033 27.6179 2
55.6628 25.3758 2
48.0559 6.53541 2
49.318 9.35579 2
54.257 18.0836 2
52.2567 17.1903 2
51.3233 14.6115 2
50.414 12.0699 2
59.1574 35.1705 3.9766
57.1484 32.4068 3.97531
55.7232 29.5686 3.97555
54.6896 26.9057 3.97488
55.1018 19.3638 3.96166
54.3466 24.34 3.97199
54.5647 21.8051 3.96113
45.9616 5.88805 3.98576
43.3736 7.48304 3.9814
47.3523 8.63798 3.97709
48.5834 11.342 3.97102
49.6683 13.8241 3.9684
50.5464 16.2692 3.96022
52.9459 18.8617 3.96436
51.1852 18.2716 3.95786
51.1584 65.1057 0.0261548
52.0172 62.4746 0.0307435
57.5865 46.6468 0.0245747
52.7664 60.031 0.0345956
55.3585 58.1541 0.0393229
53.5499 58.3749 0.0383892
57.0436 51.5997 0.0284579
55.568 49.3241 0.0264249
55.1994 55.6457 0.0383661
54.8621 53.1859 0.0380045
50.3256 63.3472 2
51.1877 60.8482 2
54.0555 57.1538 2
52.1698 58.5171 2
55.7825 43.9877 2
54.6866 47.6382 2
54.4097 51.1533 2
53.6454 54.373 2
49.5537 61.7052 3.9745
54.4769 41.5956 3.9737
50.4665 59.228 3.96518
51.9437 56.3486 3.96358
53.1538 45.2738 3.97365
52.5157 49.0538 3.97031
52.145 52.6406 3.95901
48.6053 64.0907 0.0217784
47.9388 62.4364 2
47.292 60.9645 3.99224
43.6299 67.4571 0.0194151
45.1266 65.174 0.0211098
46.3675 63.0066 0.0180779
41.6639 67.6748 2
43.358 65.4882 2
45.9634 61.5401 2
44.7579 63.4084 2
45.7277 60.5802 3.99463
44.4663 61.7809 3.97871
43.1407 63.6898 3.97853
41.546 65.6263 3.97449
39.6326 67.7531 3.97875
37.5259 70.0415 3.98345
39.7024 70.0174 2
39.8162 72.4022 3.99129
41.8589 69.8708 0.0156223
42.1099 72.2054 2
42.3947 74.6792 4
44.3736 71.8611 0.009346
44.8159 74.2794 2
47.2057 73.7222 0
43.851 5.36396 3.98576
46.5707 3.64911 3.9908
48.7855 4.32528 2
49.554 1.99015 4
50.953 5.13421 0.0107396
51.8506 2.85453 2
54.0858 3.86728 0
59.5822 44.6286 0.0244159
60.5919 41.879 0.0232671
61.5936 39.3286 0.0231369
63.5301 37.4609 0.0234894
61.418 37.4482 2
59.5304 39.7986 2
58.1891 42.7956 2
59.0138 37.567 3.9773
57.1012 40.5726 3.97744
53.8769 39.6233 3.97557
61.6366 35.3958 0.0234193
59.6182 32.8444 0.0240871
57.8922 30.2506 0.0246147
56.4408 18.3011 0.0417686
55.9839 20.7255 0.04182
55.5729 23.1213 0.0350645
56.6014 27.6173 0.0241391
55.6564 25.373 0.0251493
54.2503 18.0793 0.0396468
52.2677 17.1907 0.0459623
51.3216 14.6121 0.0363644
48.055 6.53444 0.0163209
49.3173 9.35594 0.0252216
50.4099 12.0664 0.0314591
59.1588 35.1714 2
45.9622 5.88788 2
43.3736 7.48176 2
57.1482 32.4081 2
55.723 29.567 2
55.0899 19.369 2
54.6007 21.8013 2
54.3476 24.3451 2
54.6919 26.9054 2
47.3522 8.63744 2
48.5862 11.3382 2
52.9414 18.8242 2
51.1806 18.2669 2
50.5524 16.2709 2
49.6692 13.8313 2
56.4588 34.8369 3.97705
54.7556 31.7142 3.97481
53.6219 28.6895 3.97654
53.0693 25.8233 3.97406
53.6887 20.3494 3.96353
53.0914 22.9969 3.96315
41.3995 7.08479 3.98274
45.3589 8.0033 3.98564
42.8654 9.43191 3.97085
46.6584 10.6832 3.97757
47.7074 13.1549 3.9692
48.8578 15.49 3.96982
49.8903 17.8519 3.96174
51.4618 19.5619 3.98551
50.3271 63.3483 0.0256398
51.1883 60.8464 0.0266122
55.7802 43.9863 0.0241592
54.6871 47.6387 0.0246047
52.1768 58.5156 0.0356457
54.0581 57.1527 0.0343828
54.4138 51.1547 0.0348008
53.6518 54.3725 0.0356394
49.5538 61.7025 2
54.4762 41.5934 2
50.4637 59.2343 2
51.9501 56.3531 2
53.149 45.2701 2
52.5129 49.0515 2
52.1481 52.6409 2
48.7804 60.1545 3.99032
51.1742 42.4622 3.98362
49.6258 57.519 3.96368
50.2293 54.2609 3.96056
50.8195 46.9567 3.97582
50.5548 50.7044 3.95286
46.8962 43.452 3.96549
47.9386 62.4375 0.0138061
47.2937 60.9658 2
46.5644 59.7497 3.99338
41.6627 67.6752 0.0201836
43.3552 65.4879 0.02207
44.7576 63.41 0.0239471
45.9631 61.5345 0.00727585
39.6339 67.7537 2
41.5479 65.6239 2
45.7274 60.5858 2
43.1399 63.6881 2
44.4651 61.7833 2
44.585 60.234 3.99282
42.9366 62.039 3.97621
41.5965 63.7931 3.97845
39.6467 65.5918 3.97441
37.5637 67.7344 3.97725
31.6988 65.1096 3.97343
33.3936 67.4731 3.97783
35.3343 69.9527 3.9839
37.526 70.0435 2
37.5092 72.4562 3.9918
39.7014 70.0173 0.016238
39.8172 72.4021 2
39.9526 74.9197 4
42.1085 72.2051 0.00898425
42.3947 74.6792 2
44.8159 74.2794 0
41.736 4.97143 3.98765
43.8516 5.36282 2
44.3265 3.11187 3.99188
46.5717 3.64934 2
47.2057 1.27793 4
48.7844 4.32448 0.0100676
49.554 1.99013 2
51.8506 2.85458 0
58.1876 42.7951 0.0241826
59.5291 39.8001 0.0232087
61.4181 37.448 0.0232333
59.0128 37.5678 2
57.1066 40.5728 2
53.8796 39.6289 2
55.8153 37.8754 3.97729
48.1974 41.1721 3.96814
51.7485 39.2401 3.97968
39.4428 6.80888 3.9819
59.1574 35.1705 0.0234022
57.1484 32.4068 0.0246866
55.7232 29.5686 0.0244522
55.1018 19.3638 0.0383354
54.5647 21.8051 0.0388675
54.3466 24.34 0.028015
54.6896 26.9057 0.0251164
52.9459 18.8617 0.035644
51.1852 18.2716 0.0421386
50.5464 16.2692 0.0397787
45.9616 5.88805 0.0142405
49.6683 13.8241 0.0315982
47.3523 8.63798 0.0229053
48.5834 11.342 0.0289788
43.3736 7.48304 0.0186017
56.4627 34.8359 2
41.3999 7.08613 2
45.3586 8.00335 2
42.865 9.43261 2
54.7584 31.7162 2
53.6199 28.6917 2
53.6893 20.3557 2
53.0732 23.0003 2
53.0705 25.8218 2
46.6592 10.6795 2
47.7111 13.1555 2
51.4677 19.5592 2
49.8876 17.8493 2
48.8601 15.5185 2
53.6927 34.0508 3.97511
52.4263 30.7837 3.97507
51.741 27.5555 3.97484
51.5759 24.446 3.97447
52.0725 21.3149 3.9823
41.0124 9.0577 3.97679
44.7268 10.0058 3.98465
42.453 10.9189 4.00463
45.9697 12.7551 3.96558
47.625 14.6811 3.96632
48.0049 17.0863 3.96729
49.6868 19.9607 3.9856
49.5537 61.7052 0.0255011
50.4665 59.228 0.0348197
54.4769 41.5956 0.0263003
53.1538 45.2738 0.0263535
52.5157 49.0538 0.0296932
51.9437 56.3486 0.0364168
52.145 52.6406 0.0409943
48.7789 60.15 2
51.1879 42.483 2
49.6249 57.5174 2
50.2322 54.2637 2
50.8214 46.9564 2
50.5599 50.7042 2
46.9055 43.4952 2
47.8866 58.656 3.99051
48.8972 44.9958 3.98219
48.3577 55.7932 3.95447
48.6619 52.404 3.97993
48.8866 48.7722 3.96891
44.5965 39.7221 3.83109
45.1265 42.3798 3.87582
45.4383 45.4178 3.98288
42.4659 40.9603 3.6167
41.3668 41.6221 3.41463
47.292 60.9645 0.00775715
46.561 59.7558 2
45.401 58.7431 3.99566
39.6326 67.7531 0.0212482
41.546 65.6263 0.0255114
43.1407 63.6898 0.0214736
44.4663 61.7809 0.0212857
45.7277 60.5802 0.00536602
41.5976 63.7884 2
37.5646 67.737 2
39.6493 65.5924 2
44.5864 60.2371 2
42.9347 62.0418 2
41.7421 62.4473 3.97728
42.4495 59.9345 3.98778
39.8925 63.5274 3.97725
37.6415 65.4883 3.97384
35.4641 67.6446 3.97718
33.5764 65.3208 3.97426
31.9627 63.264 3.97851
29.8878 64.6971 3.97922
31.698 65.1093 2
31.3793 67.1835 3.97833
33.393 67.4748 2
33.1582 69.7462 3.98387
35.3337 69.9543 2
35.1963 72.3712 3.99197
37.5259 70.0415 0.0165532
37.5097 72.4569 2
37.5 75 4
39.8162 72.4022 0.00870894
39.9526 74.9197 2
42.3947 74.6792 0
39.6243 4.71899 3.98841
41.7363 4.97171 2
42.0631 2.71884 3.9924
43.851 5.36396 0.0142358
44.327 3.11137 2
44.8158 0.721173 4
46.5707 3.64911 0.00920314
47.2057 1.27779 2
49.554 1.99015 0
57.1012 40.5726 0.0225636
59.0138 37.567 0.0226979
53.8769 39.6233 0.0244309
48.2234 41.1869 2
55.8168 37.8732 2
51.7462 39.2205 2
52.6131 36.6171 3.97712
46.1277 40.2546 3.8873
49.119 38.4904 3.97734
37.5167 6.67757 3.98482
39.4438 6.80877 2
39.2101 8.70304 3.98005
35.9427 8.49975 3.98186
56.4588 34.8369 0.022949
54.7556 31.7142 0.0251888
53.6219 28.6895 0.0234563
53.6887 20.3494 0.0364675
53.0914 22.9969 0.0368507
53.0693 25.8233 0.025936
51.4618 19.5619 0.0144853
49.8903 17.8519 0.0382617
48.8578 15.49 0.0301775
45.3589 8.0033 0.0143556
47.7074 13.1549 0.0308016
46.6584 10.6832 0.0224288
41.3995 7.08479 0.0172607
42.8654 9.43191 0.0291483
53.6873 34.0419 2
41.0131 9.06147 2
44.725 10.0061 2
42.4557 10.9249 2
52.4186 30.7814 2
51.753 27.5547 2
52.0732 21.3194 2
51.5588 24.4473 2
45.9743 12.753 2
47.6197 14.6544 2
49.703 19.979 2
48.0012 17.0895 2
51.1487 33.0073 3.9788
50.2551 29.5234 3.97625
50.0516 26.0461 3.97051
49.6325 22.5591 3.98207
40.5574 11.6173 3.98516
43.8255 11.9188 3.96631
45.7472 15.5545 3.99046
47.3942 19.5789 3.981
45.0211 37.4874 3.83454
48.7804 60.1545 0.00968224
49.6258 57.519 0.0363168
51.1742 42.4622 0.0163777
50.8195 46.9567 0.024176
50.5548 50.7044 0.0471359
50.2293 54.2609 0.0394394
46.8962 43.452 0.0345059
47.8819 58.6608 2
48.9125 45.0085 2
48.3552 55.795 2
48.6641 52.4093 2
48.8916 48.7753 2
44.7164 39.7487 2
45.1584 42.4008 2
45.4483 45.4385 2
42.5325 41.0186 2
41.4105 41.6473 2
46.6962 57.2591 3.98561
43.1393 39.3498 3.60855
41.7523 40.5941 3.40189
47.1247 47.0097 3.98408
46.8544 54.0848 3.96026
47.0123 50.5405 3.97695
44.0549 47.0489 3.9875
43.7851 41.7374 3.83269
43.955 44.1632 3.86383
41.6212 42.2794 3.67062
40.4576 41.9054 3.35889
46.5644 59.7497 0.00662248
45.3984 58.7426 2
43.8084 57.6098 3.98338
37.5637 67.7344 0.0227494
39.6467 65.5918 0.0255901
41.5965 63.7931 0.0215529
42.9366 62.039 0.023792
44.585 60.234 0.00718203
35.4641 67.647 2
41.7398 62.4518 2
39.8919 63.5287 2
37.6431 65.4919 2
42.4515 59.9364 2
40.6121 61.588 3.98552
40.4148 58.1067 3.98703
37.8364 63.1841 3.97241
35.5728 65.4119 3.97593
33.5762 65.3203 2
31.9652 63.2647 2
33.6305 63.3125 3.9784
30.3841 62.826 3.98159
32.1345 61.9669 3.98815
26.8921 61.4293 3.98564
28.0713 64.1246 3.98172
29.8877 64.6959 2
29.4098 66.7471 3.97792
31.6988 65.1096 0.0265702
31.3786 67.1842 2
31.0163 69.4115 3.98343
33.3936 67.4731 0.0221724
33.1571 69.7475 2
32.8946 72.1455 3.99125
35.3343 69.9527 0.0161044
35.1959 72.372 2
35.0474 74.9194 4
37.5092 72.4562 0.00819938
37.5 75 2
39.9526 74.9197 0
35.6211 6.72959 3.98312
37.5243 4.6181 3.98911
39.6245 4.7185 2
39.7897 2.47535 3.99263
41.736 4.97143 0.0123522
42.0632 2.71886 2
42.3946 0.32156 4
44.3265 3.11187 0.00811836
44.8159 0.72056 2
47.2057 1.27793 0
48.1974 41.1721 0.0318576
55.8153 37.8754 0.0227069
51.7485 39.2401 0.0203233
46.1538 40.2597 2
49.1227 38.4707 2
52.6457 36.6306 2
49.9335 35.5489 3.97685
46.7632 37.7284 3.87967
44.6237 35.225 3.83315
42.5159 33.9753 3.61671
41.4062 33.311 3.41389
37.4581 8.53783 3.98387
37.5178 6.67798 2
39.4428 6.80888 0.0181034
39.2119 8.70339 2
38.972 10.1391 3.98961
35.8982 9.783 3.98076
34.1528 8.83223 3.97963
35.9443 8.49891 2
53.6927 34.0508 0.0248907
52.4263 30.7837 0.0249253
51.741 27.5555 0.0251646
52.0725 21.3149 0.0177019
51.5759 24.446 0.0255327
49.6868 19.9607 0.0144002
48.0049 17.0863 0.0327066
47.625 14.6811 0.0336759
44.7268 10.0058 0.0153486
45.9697 12.7551 0.0344244
41.0124 9.0577 0.0232083
42.453 10.9189 -0.00463375
51.1619 32.9962 2
40.5637 11.6266 2
43.828 11.9149 2
50.2676 29.5249 2
50.0525 26.0587 2
49.6151 22.5225 2
45.7315 15.4833 2
47.4051 19.6155 2
48.7423 31.5871 3.98298
48.3917 27.8191 3.97442
48.8508 24.6759 3.98062
46.9877 22.3692 3.99339
38.2971 12.7617 3.97821
42.0715 14.3707 3.98411
44.7174 18.6746 3.97963
43.522 37.476 3.62466
45.1241 37.4782 2
47.8866 58.656 0.00949249
48.3577 55.7932 0.0455267
48.8972 44.9958 0.0178087
48.8866 48.7722 0.0310921
48.6619 52.404 0.0200709
44.5965 39.7221 0.168915
45.1265 42.3798 0.124175
45.4383 45.4178 0.0171244
42.4659 40.9603 0.383299
41.3668 41.6221 0.585367
46.6939 57.2643 2
43.2253 39.3729 2
41.7692 40.6062 2
47.1329 47.011 2
46.8497 54.0887 2
47.0142 50.5522 2
44.0967 47.0552 2
43.8568 41.7846 2
44.0123 44.1971 2
41.6713 42.3584 2
40.5013 41.9265 2
45.2181 55.8202 4.00115
42.0889 39.1305 3.41169
40.3404 40.4952 3.4952
45.4036 48.6558 4.00219
45.1091 52.3314 3.98971
42.8498 48.0306 3.99014
42.7099 45.6747 3.86675
42.7814 43.4893 3.82242
40.6562 43.2187 3.63186
39.1427 42.1733 3.4331
45.401 58.7431 0.00433667
43.8045 57.6226 2
42.0285 56.173 3.99064
35.4641 67.6446 0.0228151
37.6415 65.4883 0.0261581
39.8925 63.5274 0.0227505
41.7421 62.4473 0.0227246
42.4495 59.9345 0.0122204
35.574 65.4158 2
40.6114 61.5873 2
37.8372 63.1825 2
40.4128 58.1147 2
38.8985 56.3105 3.99602
38.2414 60.2702 3.98473
35.607 63.1789 3.97226
33.5764 65.3208 0.0257372
31.9627 63.264 0.0214947
33.6334 63.315 2
30.3859 62.8268 2
32.1371 61.9675 2
28.6928 62.1635 3.97968
33.3529 61.4751 3.98259
31.0878 61.1944 3.99163
27.6183 59.527 3.98038
23.8603 58.9894 3.98608
25.068 60.7919 3.97799
26.8929 61.4319 2
26.2428 63.4527 3.97392
28.0707 64.1209 2
27.4678 66.1654 3.97573
29.8878 64.6971 0.020784
29.4086 66.7452 2
28.909 68.937 3.98245
31.3793 67.1835 0.021671
31.0148 69.4116 2
30.6177 71.7771 3.99051
33.1582 69.7462 0.0161325
32.8934 72.146 2
32.6054 74.6784 4
35.1963 72.3712 0.00802948
35.0474 74.9197 2
37.5 75 0
33.7243 6.98608 3.98169
35.4364 4.68807 3.98846
35.6224 6.7293 2
37.5156 2.38789 3.9928
37.5245 4.61779 2
39.6243 4.71899 0.011585
39.7896 2.47503 2
39.9526 0.0806499 4
42.0631 2.71884 0.00760121
42.3947 0.320817 2
44.8158 0.721173 0
43.1665 35.5971 3.61554
41.783 34.3335 3.38535
46.1277 40.2546 0.112702
49.119 38.4904 0.0226557
52.6131 36.6171 0.0228827
46.7641 37.7144 2
49.9504 35.5633 2
44.7257 35.2097 2
42.5719 33.9155 2
41.4337 33.2866 2
47.0058 34.4132 3.9333
43.8408 33.2064 3.82622
41.6763 32.6579 3.66753
40.4833 33.0383 3.35834
37.309 10.6357 3.98118
37.4601 8.53938 2
37.5167 6.67757 0.0151752
39.2101 8.70304 0.0199505
38.9778 10.1408 2
34.7558 10.3944 3.97701
35.9034 9.78014 2
32.3807 9.38065 3.97493
34.153 8.82959 2
35.9427 8.49975 0.0181411
51.1487 33.0073 0.0212037
50.2551 29.5234 0.0237466
50.0516 26.0461 0.0294914
49.6325 22.5591 0.0179297
47.3942 19.5789 0.0189996
45.7472 15.5545 0.00954014
43.8255 11.9188 0.033687
40.5574 11.6173 0.0148428
48.7601 31.5698 2
38.3004 12.7598 2
42.0796 14.3802 2
48.3887 27.8168 2
48.8495 24.6809 2
46.9765 22.3615 2
44.7302 18.7417 2
46.7004 29.8296 3.98064
46.5376 25.3855 3.97843
44.1659 21.6837 3.98351
36.5871 12.9772 3.97646
38.6701 14.8882 3.97755
41.6961 18.0003 3.98128
42.2625 37.451 3.44301
43.5965 37.4775 2
45.0211 37.4874 0.165455
46.6962 57.2591 0.0143859
46.8544 54.0848 0.0397416
47.1247 47.0097 0.0159163
47.0123 50.5405 0.0230476
43.1393 39.3498 0.39145
43.7851 41.7374 0.167313
43.955 44.1632 0.136173
44.0549 47.0489 0.0125031
41.6212 42.2794 0.329384
41.7523 40.5941 0.598105
40.4576 41.9054 0.641114
45.2159 55.8246 2
42.103 39.1385 2
40.4034 40.486 2
45.4049 48.6779 2
45.1045 52.3348 2
42.8894 48.0514 2
42.7796 45.7368 2
42.8254 43.525 2
40.7157 43.3008 2
39.1279 42.2004 2
43.5379 54.2621 4.00179
40.4248 38.977 3.52309
39.0394 40.5823 3.47084
43.1701 50.1299 4.00298
41.5191 47.1648 3.91762
41.4358 44.7652 3.82248
39.3654 43.8706 3.60549
37.5112 42.3127 3.49057
43.8084 57.6098 0.0166243
42.0355 56.1598 2
40.3362 54.7318 3.99448
35.5728 65.4119 0.0240671
37.8364 63.1841 0.0275854
40.6121 61.588 0.0144804
40.4148 58.1067 0.0129701
35.6093 63.1752 2
38.2378 60.2685 2
38.9004 56.2897 2
37.9732 54.9916 3.99543
36.9207 57.5171 3.99286
35.3652 60.8729 3.9845
33.6305 63.3125 0.0216029
30.3841 62.826 0.0184127
32.1345 61.9669 0.0118462
33.3556 61.4748 2
28.6935 62.1696 2
31.0905 61.1965 2
29.4387 60.2523 3.98223
32.3697 59.6618 3.9961
28.0997 58.3178 4.01844
27.6195 59.5264 2
25.4509 58.5147 3.97811
22.8582 58.1433 3.97184
23.4422 60.2569 3.97588
23.8614 58.9904 2
25.0693 60.7925 2
24.4513 62.7251 3.97523
26.8921 61.4293 0.0143643
26.243 63.4513 2
25.5537 65.4748 3.97493
28.0713 64.1246 0.0182837
27.4673 66.1668 2
26.8394 68.3227 3.98059
29.4098 66.7471 0.0220801
28.9077 68.9359 2
28.3731 71.2626 3.98958
31.0163 69.4115 0.0165743
30.6161 71.7768 2
30.1842 74.2788 4
32.8946 72.1455 0.00874578
32.6053 74.6792 2
35.0474 74.9194 0
31.7889 7.42671 3.97935
33.349 4.92801 3.98719
33.7249 6.98459 2
35.2462 2.46366 3.99286
35.4364 4.688 2
35.6211 6.72959 0.0168834
37.5 0 4
37.5151 2.3877 2
37.5243 4.6181 0.0108871
39.7897 2.47535 0.0073709
39.9526 0.0802889 2
42.3946 0.32156 0
42.0847 35.7687 3.38023
43.2624 35.5721 2
40.394 34.4263 3.50008
41.7894 34.3162 2
46.7632 37.7284 0.120333
49.9335 35.5489 0.0231524
44.6237 35.225 0.166848
42.5159 33.9753 0.383291
41.4062 33.311 0.58611
47.04 34.4212 2
43.9 33.1544 2
41.7263 32.5805 2
40.5206 33.0181 2
45.1569 31.8625 3.88835
42.8383 31.4494 3.81292
40.7023 31.7203 3.63283
39.1516 32.7862 3.43019
35.697 11.7938 3.97438
37.3168 10.6375 2
37.4581 8.53783 0.0161278
38.972 10.1391 0.010389
33.1025 11.2357 3.97262
34.7587 10.388 2
35.8982 9.783 0.0192411
30.4873 10.0334 3.97582
32.3807 9.38009 2
34.1528 8.83223 0.020368
48.7423 31.5871 0.0170174
48.3917 27.8191 0.025579
48.8508 24.6759 0.0193795
46.9877 22.3692 0.00660576
44.7174 18.6746 0.0203705
42.0715 14.3707 0.0158874
38.2971 12.7617 0.0217894
36.5851 12.9605 2
46.6905 29.7696 2
38.6719 14.8706 2
41.6933 18.0008 2
46.5406 25.3697 2
44.1471 21.6669 2
44.7413 27.9721 3.99436
43.4492 24.3249 4.02051
41.2509 21.0259 3.99485
35.7716 14.8167 3.98396
38.6422 17.7351 3.98709
40.4797 37.4202 3.54683
42.2821 37.4564 2
43.522 37.476 0.375338
45.2181 55.8202 -0.00115191
45.1091 52.3314 0.0102883
45.4036 48.6558 -0.00218679
42.0889 39.1305 0.588313
42.7814 43.4893 0.177577
42.7099 45.6747 0.13325
42.8498 48.0306 0.00985554
40.6562 43.2187 0.368144
40.3404 40.4952 0.5048
39.1427 42.1733 0.566903
43.5331 54.2569 2
40.4552 38.9796 2
39.0293 40.5837 2
43.1618 50.1507 2
41.5119 47.1935 2
41.4619 44.8083 2
37.5056 42.3364 2
39.3826 43.9486 2
41.6905 52.7108 4.00052
39.0498 39.0334 3.46616
37.5086 40.629 3.52393
35.8807 42.1857 3.42888
40.7015 49.2677 3.99136
39.6424 45.4508 3.78575
37.5057 44.1523 3.65103
42.0285 56.173 0.00935646
40.3384 54.7392 2
38.7028 53.487 3.99663
35.607 63.1789 0.0277354
38.2414 60.2702 0.0152655
38.8985 56.3105 0.00398015
35.3644 60.8572 2
36.9225 57.5259 2
37.9641 54.9832 2
36.3144 55.0845 3.998
34.4935 58.4426 3.99455
33.3529 61.4751 0.0174148
28.6928 62.1635 0.0203247
31.0878 61.1944 0.00837296
32.3694 59.6671 2
29.4402 60.2547 2
30.3609 57.7539 3.99214
28.1021 58.3166 2
27.0905 56.754 3.96876
27.6183 59.527 0.0196236
25.4524 58.5157 2
24.0117 56.6949 3.96015
21.5091 57.2744 3.95738
22.0477 59.5338 3.97702
22.8587 58.145 2
22.7611 61.9506 3.97294
23.4434 60.2576 2
23.8603 58.9894 0.0139168
25.068 60.7919 0.0220058
24.4518 62.7254 2
23.6901 64.6866 3.97237
26.2428 63.4527 0.0260832
25.5534 65.4764 2
24.8119 67.584 3.9789
27.4678 66.1654 0.0242713
26.8377 68.3248 2
26.1686 70.6028 3.9887
28.909 68.937 0.0175485
28.3713 71.2618 2
27.7943 73.7221 4
30.6177 71.7771 0.00949409
30.1841 74.2794 2
32.6054 74.6784 0
29.812 8.0042 3.97719
31.2543 5.3354 3.98582
31.7892 7.42569 2
32.9823 2.7019 3.99226
33.3486 4.92728 2
33.7243 6.98608 0.0183095
35.0474 0.080333 4
35.2454 2.46377 2
35.4364 4.68807 0.0115408
37.5 0 2
37.5156 2.38789 0.00720081
39.9526 0.0806499 0
40.5125 35.9043 3.54047
42.1072 35.768 2
43.1665 35.5971 0.384465
28.5486 10.7081 3.97667
39.0486 34.3822 3.46237
40.4084 34.4257 2
41.783 34.3335 0.614654
47.0058 34.4132 0.0667034
43.8408 33.2064 0.173775
41.6763 32.6579 0.332472
40.4833 33.0383 0.641657
45.188 31.847 2
42.8828 31.4092 2
40.7554 31.6398 2
39.146 32.7549 2
43.608 30.1254 3.8726
41.461 30.1671 3.8231
39.3833 31.0775 3.60726
37.5287 32.6607 3.48822
34.1023 12.959 3.97571
35.6995 11.7834 2
37.309 10.6357 0.0188225
31.1933 12.0073 3.97693
33.1058 11.2336 2
34.7558 10.3944 0.0229857
30.4851 10.0284 2
32.3807 9.38065 0.0250722
46.7004 29.8296 0.0193569
46.5376 25.3855 0.0215676
36.5871 12.9772 0.0235364
44.1659 21.6837 0.0164877
41.6961 18.0003 0.0187192
38.6701 14.8882 0.0224453
35.7722 14.8235 2
44.7379 27.9755 2
38.6468 17.7253 2
41.2369 21.0048 2
43.4408 24.3028 2
33.6247 15.9173 3.99132
42.5869 26.7882 3.976
40.7612 23.6586 3.99388
38.3684 20.5305 3.9928
35.8395 17.6126 3.98568
39.0706 37.4818 3.46727
40.4983 37.4275 2
42.2625 37.451 0.556985
43.5379 54.2621 -0.00179468
43.1701 50.1299 -0.00297661
40.4248 38.977 0.476913
41.4358 44.7652 0.177525
41.5191 47.1648 0.0823836
39.3654 43.8706 0.394512
39.0394 40.5823 0.529162
37.5112 42.3127 0.509431
41.6773 52.7046 2
39.0351 39.0241 2
37.5017 40.6275 2
40.6828 49.2748 2
35.8916 42.2111 2
39.6724 45.5198 2
37.5026 44.2358 2
39.6951 51.4758 3.99974
37.5135 39.031 3.51651
35.9931 40.6008 3.47112
34.5618 41.9292 3.36004
35.6491 43.8876 3.60438
38.6266 48.1125 3.92585
37.521 45.7463 3.82023
40.3362 54.7318 0.00551522
38.7006 53.5026 2
36.7727 52.8425 3.99718
35.3652 60.8729 0.0154984
36.9207 57.5171 0.00714334
37.9732 54.9916 0.0045661
34.4931 58.4543 2
36.3158 55.0759 2
33.2944 55.282 3.99404
32.3697 59.6618 0.00389637
29.4387 60.2523 0.0177716
30.3623 57.7496 2
28.8987 55.2607 3.99489
28.0997 58.3178 -0.0184437
27.0928 56.7531 2
25.5727 55.0234 3.95416
22.1084 55.1907 3.95998
25.4509 58.5147 0.0218902
24.0131 56.6971 2
20.3938 56.9033 3.96226
20.7257 58.6816 3.96055
21.5108 57.276 2
21.1985 61.0848 3.97138
22.048 59.5344 2
22.8582 58.1433 0.0281562
21.9079 63.796 3.97206
22.7621 61.9521 2
23.4422 60.2569 0.0241194
24.4513 62.7251 0.0247656
23.69 64.6884 2
22.8403 66.7259 3.97612
25.5537 65.4748 0.0250738
24.8101 67.5837 2
24.0131 69.8045 3.98817
26.8394 68.3227 0.0194131
26.1659 70.6029 2
25.446 73.0099 4
28.3731 71.2626 0.0104158
27.7943 73.7222 2
30.1842 74.2788 0
27.8222 8.66457 3.97774
29.1566 5.88294 3.98334
29.8111 8.00042 2
30.7279 3.09893 3.99175
31.2537 5.33422 2
31.7889 7.42671 0.0206531
32.6053 0.320823 4
32.9811 2.70179 2
33.349 4.92801 0.0128121
35.0474 0.0802903 2
35.2462 2.46366 0.00714136
37.5 0 0
39.0019 35.9351 3.47852
40.4928 35.9007 2
42.0847 35.7687 0.619773
28.5461 10.705 2
26.6302 11.4078 3.97573
29.2346 12.6579 3.98018
37.5325 34.3487 3.52432
39.0732 34.3954 2
40.394 34.4263 0.499923
45.1569 31.8625 0.111655
42.8383 31.4494 0.187076
40.7023 31.7203 0.367173
39.1516 32.7862 0.569811
43.6352 30.0964 2
41.5 30.1233 2
39.3965 30.9994 2
37.5341 32.6323 2
41.8759 28.8417 3.85697
39.6482 29.4834 3.80624
37.5236 30.8121 3.65341
35.8941 32.7931 3.43592
31.9361 14.5044 3.98292
34.1039 12.9645 2
35.697 11.7938 0.0256205
31.1945 11.9971 2
33.1025 11.2357 0.0273849
30.4873 10.0334 0.0241792
44.7413 27.9721 0.00563606
43.4492 24.3249 -0.0205138
35.7716 14.8167 0.0160446
41.2509 21.0259 0.00515382
38.6422 17.7351 0.0129094
33.6124 15.9047 2
35.8375 17.5807 2
42.6594 26.7599 2
38.3552 20.5659 2
40.7481 23.6566 2
33.5609 17.4606 3.99046
40.2049 26.149 3.96562
38.0182 23.4065 3.99691
35.5305 20.3179 3.99629
37.5264 37.476 3.53358
39.0452 37.472 2
40.4797 37.4202 0.453167
41.6905 52.7108 -0.000521434
40.7015 49.2677 0.0086411
39.0498 39.0334 0.533844
39.6424 45.4508 0.214251
37.5057 44.1523 0.348966
37.5086 40.629 0.476069
35.8807 42.1857 0.571119
39.6782 51.4705 2
37.5102 39.0313 2
35.9856 40.5846 2
38.6459 48.1759 2
34.5248 41.9496 2
35.6343 43.9605 2
37.5079 45.8055 2
37.6808 50.4385 3.99038
36.0228 39.0465 3.48055
34.6693 40.5282 3.50263
33.6427 41.6513 3.41733
34.3724 43.2425 3.62436
35.3223 45.4985 3.81071
36.9228 47.7294 3.88625
38.7028 53.487 0.00337354
36.7751 52.7911 2
34.5001 52.1584 4.00166
34.4935 58.4426 0.00545147
36.3144 55.0845 0.00200123
33.2953 55.2906 2
30.7521 53.2224 3.99925
30.3609 57.7539 0.00786108
28.8986 55.2555 2
27.2317 53.2928 3.95577
27.0905 56.754 0.0312423
25.5751 55.0257 2
23.9868 53.2924 3.95353
20.9748 53.0144 3.95892
20.211 55.6805 3.96107
22.1075 55.1921 2
24.0117 56.6949 0.03985
19.5582 57.781 3.96098
20.3896 56.9064 2
19.7382 60.1205 3.96957
20.7196 58.6855 2
21.5091 57.2744 0.0426186
20.2255 62.7917 3.97108
21.2002 61.0871 2
22.0477 59.5338 0.0229823
20.9427 65.7514 3.97335
21.908 63.8 2
22.7611 61.9506 0.0270566
23.6901 64.6866 0.0276311
22.8391 66.7251 2
21.9158 68.8717 3.98698
24.8119 67.584 0.0211008
24.0097 69.8029 2
23.1494 72.1454 4
26.1686 70.6028 0.011303
25.446 73.0099 2
27.7943 73.7221 0
25.8623 9.39541 3.97589
27.0714 6.5478 3.98164
27.82 8.66213 2
28.4904 3.64493 3.99063
29.1553 5.88103 2
29.812 8.0042 0.0228072
30.1841 0.720592 4
30.7259 3.09882 2
31.2543 5.3354 0.014184
32.6053 0.320817 2
32.9823 2.7019 0.00773948
35.0474 0.080333 0
37.5196 35.9272 3.50766
38.9823 35.9133 2
40.5125 35.9043 0.45953
24.7894 12.0874 3.97373
23.7786 14.4397 3.97991
28.5486 10.7081 0.0233321
26.6258 11.4023 2
29.2357 12.6555 2
27.3023 13.4006 3.97357
29.8049 14.2148 3.98878
35.9922 34.3822 3.47618
37.5446 34.3463 2
39.0486 34.3822 0.537628
37.5287 32.6607 0.511779
43.608 30.1254 0.127404
41.461 30.1671 0.176899
39.3833 31.0775 0.392738
41.9091 28.7655 2
39.6727 29.4181 2
37.5263 30.7339 2
35.9071 32.7667 2
39.8219 28.1098 3.85839
37.4973 29.209 3.8097
35.6731 31.0985 3.6082
34.5695 33.0565 3.3632
30.9637 16.8596 3.99767
31.9289 14.4914 2
34.1023 12.959 0.0242902
31.1933 12.0073 0.0230702
42.5869 26.7882 0.0240048
40.7612 23.6586 0.00611823
33.6247 15.9173 0.00868161
35.8395 17.6126 0.0143161
38.3684 20.5305 0.0071985
33.547 17.4726 2
35.5307 20.339 2
40.2523 26.113 2
38.0212 23.3961 2
32.9379 19.9167 3.99718
37.7046 25.7856 3.96175
35.3172 23.069 4.00774
35.9951 37.4717 3.47131
37.5108 37.4753 2
39.0706 37.4818 0.532732
39.6951 51.4758 0.000257484
38.6266 48.1125 0.0741478
37.5135 39.031 0.483492
37.521 45.7463 0.179766
35.6491 43.8876 0.395624
35.9931 40.6008 0.528877
34.5618 41.9292 0.639963
37.6568 50.4786 2
36.0572 39.0332 2
34.6162 40.5354 2
36.9249 47.7928 2
33.5995 41.6785 2
34.3097 43.3189 2
35.2979 45.5569 2
35.5723 49.6448 3.98192
34.5626 39.034 3.5358
33.2616 40.6317 3.39075
33.3869 42.3058 3.67467
33.622 44.7777 3.81156
34.5933 46.8968 3.86038
36.7727 52.8425 0.00282017
34.4814 52.185 2
32.3245 50.9839 3.99853
33.2944 55.282 0.00595796
30.7546 53.2166 2
28.8547 51.3726 3.98449
28.8987 55.2607 0.00511034
27.2339 53.2931 2
25.591 51.5237 3.95348
25.5727 55.0234 0.0458394
23.989 53.2969 2
22.5586 51.5714 3.95519
19.8724 51.3956 3.96345
19.346 54.1246 3.9617
20.9797 53.0127 2
18.6636 56.5924 3.96221
20.2092 55.6826 2
22.1084 55.1907 0.0400226
18.4211 59.0271 3.95985
19.5575 57.7833 2
20.3938 56.9033 0.0377382
18.6385 61.6938 3.97426
19.7391 60.124 2
20.7257 58.6816 0.0394531
19.1346 64.6511 3.97246
20.2262 62.7956 2
21.1985 61.0848 0.0286209
19.89 67.8073 3.98405
20.9415 65.7502 2
21.9079 63.796 0.0279391
22.8403 66.7259 0.0238781
21.9118 68.8695 2
20.9142 71.1327 4
24.0131 69.8045 0.0118321
23.1494 72.1455 2
25.446 73.0099 0
23.1117 12.8514 3.97753
23.9755 10.1817 3.97466
25.0251 7.31944 3.97927
25.8588 9.39287 2
26.2824 4.32925 3.98953
27.0692 6.54698 2
27.8222 8.66457 0.0222555
27.7943 1.27781 4
28.4875 3.6453 2
29.1566 5.88294 0.0166582
30.1841 0.720551 2
30.7279 3.09893 0.00824877
32.6053 0.320823 0
35.9867 35.9183 3.4694
37.5515 35.9377 2
39.0019 35.9351 0.521481
24.7826 12.1111 2
23.7788 14.4441 2
22.5196 15.1298 3.97842
25.376 13.9849 3.97353
24.0777 15.6958 3.99196
26.6302 11.4078 0.0242734
29.2346 12.6579 0.0198224
27.3096 13.3909 2
29.7978 14.2154 2
28.4034 15.9787 3.99108
34.6899 34.4605 3.49505
36.0017 34.3811 2
37.5325 34.3487 0.475684
35.8941 32.7931 0.564078
37.5236 30.8121 0.346594
41.8759 28.8417 0.143027
39.6482 29.4834 0.19376
39.8693 28.0556 2
37.4987 29.1546 2
35.6565 31.0176 2
34.5269 33.0379 2
37.6232 27.8387 3.86129
35.3845 29.5055 3.80556
34.3663 31.7425 3.63015
33.6521 33.3358 3.41531
30.2795 19.532 3.97853
30.9454 16.8559 2
31.9361 14.5044 0.0170784
40.2049 26.149 0.034378
38.0182 23.4065 0.00309184
33.5609 17.4606 0.00953717
35.5305 20.3179 0.00370882
32.9448 19.939 2
35.2882 23.0513 2
37.7127 25.7703 2
32.5368 22.662 4.0011
35.1891 25.6725 3.98456
34.5375 37.5045 3.55693
35.9916 37.489 2
37.5264 37.476 0.466419
37.6808 50.4385 0.00961841
36.9228 47.7294 0.11375
36.0228 39.0465 0.519447
35.3223 45.4985 0.189287
34.3724 43.2425 0.375638
34.6693 40.5282 0.497372
33.6427 41.6513 0.58267
35.5548 49.6557 2
34.5457 39.0378 2
33.247 40.6418 2
34.5354 46.9656 2
33.342 42.3844 2
33.5783 44.8258 2
33.508 48.7697 3.97275
32.9403 39.1835 3.38603
32.5256 40.9907 3.61715
32.2218 43.5169 3.81976
32.8368 45.8997 3.85803
34.5001 52.1584 -0.0016615
32.342 50.98 2
30.4308 49.5079 4.00541
30.7521 53.2224 0.000748463
28.8617 51.386 2
27.141 49.7407 3.9749
27.2317 53.2928 0.0442299
25.5937 51.5252 2
24.0337 49.9246 3.96722
23.9868 53.2924 0.0464688
22.5645 51.5682 2
21.223 50.0497 3.96644
18.6246 50.1086 3.97244
18.3908 52.5852 3.96565
19.8643 51.3962 2
17.7895 55.1814 3.96277
19.3451 54.1247 2
20.9748 53.0144 0.0410825
17.275 57.7729 3.96035
18.6636 56.5935 2
20.211 55.6805 0.0389322
17.1527 60.4903 3.96225
18.4213 59.0286 2
19.5582 57.781 0.0390185
17.419 63.424 3.96739
18.6399 61.6961 2
19.7382 60.1205 0.0304279
17.9457 66.6155 3.9819
19.1336 64.6506 2
20.2255 62.7917 0.0289197
18.75 69.9759 4
19.8861 67.8034 2
20.9427 65.7514 0.0266497
21.9158 68.8717 0.0130203
20.9142 71.1327 2
23.1494 72.1454 0
21.6105 13.687 3.97075
22.1977 11.059 3.97011
23.111 12.8501 2
23.042 8.18661 3.97599
23.9742 10.1893 2
24.1203 5.14405 3.98917
25.0215 7.31844 2
25.8623 9.39541 0.0241066
25.446 1.99014 4
26.2785 4.3304 2
27.0714 6.5478 0.018355
27.7943 1.27778 2
28.4904 3.64493 0.00937097
30.1841 0.720592 0
34.6127 35.9614 3.52414
36.0061 35.9315 2
37.5196 35.9272 0.492341
21.3602 15.9312 3.96401
24.7894 12.0874 0.0262735
23.7786 14.4397 0.0200932
25.3762 13.9594 2
22.518 15.119 2
24.083 15.7027 2
23.336 16.3374 3.96404
25.4365 16.17 3.98835
27.3023 13.4006 0.0264344
29.8049 14.2148 0.0112156
28.3951 16.0021 2
27.5163 18.959 3.97989
33.2694 34.3625 3.40545
34.6271 34.4697 2
35.9922 34.3822 0.523819
34.5695 33.0565 0.636799
35.6731 31.0985 0.391804
37.4973 29.209 0.190299
39.8219 28.1098 0.141614
37.5936 27.8016 2
33.6155 33.3107 2
35.3751 29.4386 2
34.3176 31.6646 2
35.2656 27.9294 3.87448
33.6054 30.1935 3.81581
33.391 32.6756 3.67235
29.8566 22.1456 4.00879
30.2825 19.534 2
30.9637 16.8596 0.00232801
37.7046 25.7856 0.0382516
35.3172 23.069 -0.00774404
32.9379 19.9167 0.00281849
32.5271 22.6356 2
35.2077 25.6625 2
32.1534 25.9554 4.0095
32.7607 37.4983 3.43815
34.539 37.4965 2
35.9951 37.4717 0.528695
35.5723 49.6448 0.0180841
34.5933 46.8968 0.139618
34.5626 39.034 0.4642
33.622 44.7777 0.188441
33.3869 42.3058 0.325335
33.2616 40.6317 0.609249
33.5062 48.7623 2
32.9426 39.1922 2
32.4679 41.0469 2
32.8239 45.9552 2
32.1754 43.5534 2
31.7981 47.6006 3.98802
31.8728 39.3722 3.61627
31.2069 41.7686 3.82804
31.3294 44.5401 3.86518
32.3245 50.9839 0.00147031
30.4354 49.5404 2
28.6538 47.9175 3.97473
28.8547 51.3726 0.0155107
27.1398 49.744 2
25.485 48.1773 3.97098
25.591 51.5237 0.0465174
24.0393 49.9214 2
22.5354 48.4885 3.97163
22.5586 51.5714 0.0448067
21.2248 50.0481 2
19.7672 48.8434 3.97489
17.4917 49.1291 3.97607
17.3149 51.2143 3.97123
18.626 50.1071 2
16.8126 53.7031 3.96668
18.3858 52.5857 2
19.8724 51.3956 0.0365512
16.2172 56.3561 3.96181
17.7886 55.182 2
19.346 54.1246 0.0382971
15.7958 59.1513 3.95845
17.2702 57.775 2
18.6636 56.5924 0.0377884
15.7932 62.0962 3.97103
17.1557 60.4915 2
18.4211 59.0271 0.0401491
16.0926 65.2944 3.97705
17.418 63.4281 2
18.6385 61.6938 0.0257436
16.6661 68.6801 4
17.9424 66.6111 2
19.1346 64.6511 0.0275419
18.75 69.9759 2
19.89 67.8073 0.0159523
20.9142 71.1327 0
20.2489 14.6836 3.97174
21.6104 13.6896 2
20.5428 12.0597 3.97291
21.1454 9.16047 3.97449
22.1942 11.0671 2
23.1117 12.8514 0.0224723
22.0197 6.08256 3.98782
23.0393 8.18919 2
23.9755 10.1817 0.0253352
23.1494 2.85457 4
24.1154 5.14574 2
25.0251 7.31944 0.0207318
25.446 1.99012 2
26.2824 4.32925 0.0104652
27.7943 1.27781 0
32.9266 35.8234 3.41265
34.5753 35.9612 2
35.9867 35.9183 0.530604
21.3646 15.9244 2
20.3933 17.0614 3.96266
22.1712 16.7333 3.95968
25.376 13.9849 0.0264709
22.5196 15.1298 0.0215775
24.0777 15.6958 0.00804095
25.4395 16.1687 2
23.3439 16.3331 2
24.3001 18.6222 3.97949
27.2981 21.7534 3.99271
28.4034 15.9787 0.00891824
27.5137 18.9828 2
32.5543 33.9925 3.61355
33.2556 34.3496 2
34.6899 34.4605 0.504952
33.6521 33.3358 0.584695
34.3663 31.7425 0.369852
35.3845 29.5055 0.194441
37.6232 27.8387 0.138707
35.2595 27.8834 2
33.3255 32.6003 2
33.5642 30.1461 2
33.0716 28.5661 3.88228
32.2186 31.462 3.81092
29.3007 24.6188 4.01393
29.8322 22.1548 2
30.2795 19.532 0.0214712
35.1891 25.6725 0.0154449
32.5368 22.662 -0.00109547
32.1433 25.9248 2
30.3694 27.6295 3.97788
31.5058 37.4848 3.62013
32.7575 37.4985 2
34.5375 37.5045 0.443067
33.508 48.7697 0.0272548
32.8368 45.8997 0.141975
32.9403 39.1835 0.613969
32.2218 43.5169 0.180237
32.5256 40.9907 0.382855
31.7399 47.6316 2
31.7812 39.3887 2
31.1432 41.8201 2
31.2739 44.5847 2
30.1016 46.2141 3.98571
30.4098 39.7528 3.83556
29.8917 42.8588 3.88267
30.4308 49.5079 -0.00540919
28.6517 47.9237 2
26.932 46.3411 3.97876
27.141 49.7407 0.0251006
25.4854 48.1744 2
23.8153 46.7509 3.97367
24.0337 49.9246 0.0327846
22.5356 48.4887 2
20.8095 47.3449 3.97567
21.223 50.0497 0.0335557
19.7659 48.8423 2
18.3585 47.9554 3.97659
16.7294 48.4927 3.97645
17.4905 49.1285 2
16.368 49.9931 3.97476
15.808 52.2579 3.97126
17.3162 51.2134 2
18.6246 50.1086 0.0275578
15.1749 54.8503 3.96449
16.8124 53.7029 2
18.3908 52.5852 0.0343495
14.5672 57.6715 3.95827
16.2165 56.3566 2
17.7895 55.1814 0.0372278
14.2761 60.6612 3.96423
15.7969 59.1524 2
17.275 57.7729 0.0396486
14.3375 63.8537 3.97588
15.7949 62.0976 2
17.1527 60.4903 0.0377455
14.6715 67.2507 4
16.0896 65.2901 2
17.419 63.424 0.0326107
16.6661 68.6801 2
17.9457 66.6155 0.0180989
18.75 69.9759 0
18.9807 15.8669 3.96449
20.2518 14.6776 2
18.9976 13.1821 3.97013
21.6105 13.687 0.0292468
20.54 12.0601 2
19.3477 10.2566 3.97244
19.9945 7.14819 3.98537
21.1423 9.16177 2
22.1977 11.059 0.0298906
20.9142 3.86727 4
22.0141 6.08611 2
23.042 8.18661 0.0240139
23.1494 2.85451 2
24.1203 5.14405 0.0108319
25.446 1.99014 0
31.897 35.611 3.60791
32.9236 35.8145 2
34.6127 35.9614 0.475861
21.3602 15.9312 0.0359869
22.1773 16.7264 2
20.3996 17.0598 2
19.4449 18.548 3.95913
21.8785 18.0006 3.98125
25.4365 16.17 0.0116463
23.336 16.3374 0.0359572
24.2918 18.6443 2
22.5399 20.0816 3.97441
24.8843 21.6 3.98867
26.9305 23.9107 3.98319
27.2953 21.662 2
27.5163 18.959 0.020108
31.2504 33.2171 3.82795
32.5002 33.9358 2
33.2694 34.3625 0.594552
33.391 32.6756 0.327649
33.6054 30.1935 0.184194
35.2656 27.9294 0.125522
33.033 28.529 2
32.1644 31.4104 2
31.0119 29.9366 3.90451
28.6471 26.8027 4.0028
29.2893 24.6243 2
29.8566 22.1456 -0.00879456
32.1534 25.9554 -0.00949931
30.3594 27.6058 2
29.999 37.4762 3.83456
31.4217 37.4826 2
32.7607 37.4983 0.56185
31.7981 47.6006 0.0119805
31.3294 44.5401 0.134822
31.8728 39.3722 0.383728
31.2069 41.7686 0.171963
30.104 46.2219 2
30.3143 39.7625 2
29.86 42.8859 2
28.4305 44.5461 3.96576
28.1575 40.4502 3.92478
28.6538 47.9175 0.0252665
26.9311 46.3422 2
25.1467 44.863 3.97976
25.485 48.1773 0.0290217
23.8127 46.7495 2
21.8653 45.6475 3.97727
22.5354 48.4885 0.0283699
20.8092 47.344 2
19.1195 46.516 3.97586
19.7672 48.8434 0.0251054
18.3583 47.9546 2
16.9863 47.5218 3.97566
16.7302 48.4924 2
15.7249 48.8449 3.97557
17.4917 49.1291 0.0239333
16.3694 49.9922 2
14.9152 50.8396 3.97431
14.1362 53.3175 3.96841
15.8094 52.2571 2
17.3149 51.2143 0.0287722
13.4275 56.0916 3.9609
15.1743 54.8503 2
16.8126 53.7031 0.0333159
12.8679 59.1024 3.96006
14.567 57.6723 2
16.2172 56.3561 0.0381942
12.6835 62.295 3.97143
14.2783 60.6622 2
15.7958 59.1513 0.0415538
12.7746 65.6939 4
14.3348 63.8485 2
15.7932 62.0962 0.0289685
14.6714 67.2507 2
16.0926 65.2944 0.0229527
16.6661 68.6801 0
17.797 17.2631 3.96053
18.9825 15.8626 2
17.5352 14.4406 3.96943
20.2489 14.6836 0.0282556
18.9973 13.1822 2
17.6485 11.4945 3.97279
20.5428 12.0597 0.0270945
19.3443 10.2612 2
18.0544 8.34141 3.98318
18.75 5.0241 4
19.9886 7.1529 2
21.1454 9.16047 0.0255101
20.9142 3.86727 2
22.0197 6.08256 0.0121799
23.1494 2.85457 0
30.4257 35.2433 3.83201
31.8066 35.5886 2
32.9266 35.8234 0.587354
22.1712 16.7333 0.0403233
20.3933 17.0614 0.0373374
21.882 17.9979 2
19.4382 18.5422 2
18.3241 20.1117 3.96295
21.114 19.5543 3.97009
24.3001 18.6222 0.0205102
22.5337 20.0821 2
24.8967 21.5781 2
22.7641 21.9403 3.97906
25.2306 23.2954 3.97991
26.2631 26.1828 3.9799
26.9342 23.9019 2
27.2981 21.7534 0.00729473
29.6547 32.577 3.88249
31.1694 33.178 2
32.5543 33.9925 0.386454
32.2186 31.462 0.189078
33.0716 28.5661 0.11772
30.9903 29.9213 2
28.0588 29.4044 4.0112
28.6311 26.8108 2
29.3007 24.6188 -0.0139326
30.3694 27.6295 0.0221161
28.3443 37.3878 3.87552
29.9167 37.4823 2
31.5058 37.4848 0.379865
30.1016 46.2141 0.014289
29.8917 42.8588 0.117332
30.4098 39.7528 0.164441
28.4285 44.601 2
28.1199 40.4537 2
26.5516 42.9857 3.98011
25.4566 39.4316 3.97678
26.932 46.3411 0.0212424
25.1363 44.8659 2
23.0798 43.6824 3.97502
23.8153 46.7509 0.0263301
21.8618 45.6486 2
19.926 44.7565 3.97532
20.8095 47.3449 0.0243337
19.1187 46.5168 2
17.3597 46.0249 3.97558
18.3585 47.9554 0.0234126
16.9866 47.5216 2
15.5021 47.5074 3.97535
16.7294 48.4927 0.0235471
15.7265 48.8441 2
14.2308 49.4076 3.97502
16.368 49.9931 0.0252403
14.9163 50.8389 2
13.2042 51.7673 3.97144
12.3243 54.4562 3.96329
14.137 53.3169 2
15.808 52.2579 0.0287418
11.579 57.4351 3.96025
13.4269 56.0918 2
15.1749 54.8503 0.0355146
11.1397 60.621 3.96784
12.8709 59.1018 2
14.5672 57.6715 0.0417279
10.9835 64.0165 4
12.6816 62.2896 2
14.2761 60.6612 0.0357704
12.7745 65.694 2
14.3375 63.8537 0.0241238
14.6715 67.2507 0
16.6242 18.7752 3.96117
17.792 17.2576 2
16.1466 15.8457 3.95862
18.9807 15.8669 0.035505
17.5366 14.4366 2
16.0309 12.8552 3.96623
18.9976 13.1821 0.0298701
17.6449 11.5004 2
16.2056 9.66647 3.97897
19.3477 10.2566 0.0275576
18.0493 8.34814 2
16.6661 6.31991 4
18.75 5.02404 2
19.9945 7.14819 0.0146281
20.9142 3.86727 0
28.8251 34.8789 3.88952
30.3205 35.203 2
31.897 35.611 0.392086
17.072 21.5467 3.96928
21.8785 18.0006 0.0187536
19.4449 18.548 0.0408711
21.104 19.5491 2
18.322 20.1087 2
20.1864 21.7881 3.97293
22.5399 20.0816 0.0255927
24.8843 21.6 0.0113305
22.766 21.9396 2
25.2137 23.342 2
23.573 24.842 3.97173
25.6231 28.7722 3.98433
26.2531 26.1897 2
26.9305 23.9107 0.0168073
27.5182 31.9342 3.98026
29.6119 32.5534 2
31.2504 33.2171 0.172045
31.0119 29.9366 0.0954878
28.0728 29.3724 2
28.6471 26.8027 -0.00280482
26.163 36.8666 3.96901
28.3172 37.3894 2
29.999 37.4762 0.165444
28.4305 44.5461 0.0342448
28.1575 40.4502 0.0752155
26.5282 43.0113 2
25.4231 39.4329 2
24.314 41.6918 3.97859
23.159 38.5165 3.97624
25.1467 44.863 0.0202379
23.0773 43.6846 2
20.821 42.7182 3.97491
21.8653 45.6475 0.0227333
19.9267 44.7569 2
17.7807 44.2138 3.97518
19.1195 46.516 0.024138
17.3596 46.0254 2
15.4713 45.9409 3.97528
16.9863 47.5218 0.0243376
15.5027 47.5072 2
13.7645 47.877 3.97531
15.7249 48.8449 0.0244288
14.2321 49.4068 2
12.4394 50.1533 3.9737
14.9152 50.8396 0.0256855
13.2052 51.7665 2
11.3169 52.7734 3.96546
10.3871 55.6888 3.9616
12.3242 54.4558 2
14.1362 53.3175 0.0315909
9.7054 58.8455 3.9709
11.5836 57.4336 2
13.4275 56.0916 0.0390971
9.30605 62.2254 4
11.1383 60.6155 2
12.8679 59.1024 0.0399435
10.9835 64.0165 2
12.6835 62.295 0.0285727
12.7746 65.6939 0
15.4333 20.3156 3.96466
16.6325 18.7742 2
14.8518 17.3776 3.95917
17.797 17.2631 0.0394738
16.147 15.8418 2
14.4912 14.33 3.96784
17.5352 14.4406 0.0305719
16.0315 12.8501 2
14.449 11.12 3.97626
17.6485 11.4945 0.027207
16.2013 9.67398 2
14.6715 7.74927 4
18.0544 8.34141 0.0168224
16.6661 6.31988 2
18.75 5.0241 0
26.7813 34.3993 3.97257
28.8039 34.8858 2
30.4257 35.2433 0.167985
18.3562 22.5264 3.97507
15.9762 23.0875 3.97253
17.0727 21.5452 2
21.114 19.5543 0.0299078
18.3241 20.1117 0.037049
20.1819 21.785 2
20.3346 24.6362 3.97205
22.7641 21.9403 0.0209431
25.2306 23.2954 0.0200894
23.5662 24.8393 2
22.9862 28.1281 3.97115
25.0846 31.458 3.98277
25.6299 28.7481 2
26.2631 26.1828 0.0201014
27.4857 31.8971 2
29.6547 32.577 0.117511
28.0588 29.4044 -0.0112026
23.9049 36.3295 3.97793
26.1364 36.858 2
28.3443 37.3878 0.124478
26.5516 42.9857 0.0198924
25.4566 39.4316 0.0232249
24.2892 41.6923 2
23.1548 38.5149 2
21.9628 40.5521 3.97522
21.2776 37.7935 3.97782
23.0798 43.6824 0.0249819
20.8221 42.7168 2
18.2628 41.9808 3.97574
19.926 44.7565 0.0246841
17.7808 44.214 2
15.5212 44.0711 3.97536
17.3597 46.0249 0.02442
15.4709 45.9411 2
13.4636 46.1791 3.97522
15.5021 47.5074 0.0246541
13.7654 47.8765 2
11.83 48.4566 3.97534
14.2308 49.4076 0.0249839
12.441 50.1523 2
10.4491 51.0225 3.96757
13.2042 51.7673 0.0285592
11.3175 52.7725 2
9.29477 53.8708 3.96251
8.38944 56.9805 3.97219
10.389 55.6872 2
12.3243 54.4562 0.0367097
7.74927 60.3285 4
9.70421 58.8408 2
11.579 57.4351 0.0397487
9.306 62.2255 2
11.1397 60.621 0.0321562
10.9835 64.0165 0
14.2696 21.8749 3.96853
15.4335 20.3134 2
13.5949 18.977 3.96128
16.6242 18.7752 0.0388279
14.852 17.3749 2
13.0409 15.9144 3.96502
16.1466 15.8457 0.0413839
14.4965 14.3273 2
12.7867 12.6934 3.97386
16.0309 12.8552 0.0337728
14.4456 11.1275 2
12.7746 9.30605 4
16.2056 9.66647 0.0210347
14.6715 7.74924 2
16.6661 6.31991 0
24.4545 33.9084 3.98103
26.7587 34.3961 2
28.8251 34.8789 0.11048
18.2365 24.2634 3.97311
18.3634 22.5264 2
14.7968 24.6098 3.97434
15.976 23.086 2
17.072 21.5467 0.0307174
19.8975 27.4615 3.97341
20.1864 21.7881 0.0270672
20.3333 24.6339 2
22.3745 30.9025 3.97398
23.573 24.842 0.0282667
22.9853 28.13 2
25.0412 31.4711 2
25.6231 28.7722 0.0156663
27.5182 31.9342 0.0197373
21.3819 35.9724 3.97713
23.8971 36.3264 2
26.163 36.8666 0.030994
24.314 41.6918 0.0214105
23.159 38.5165 0.0237642
21.9669 40.5517 2
21.2819 37.795 2
19.0337 38.9697 3.97715
20.821 42.7182 0.0250873
18.2626 41.9808 2
15.5032 41.8364 3.97593
17.7807 44.2138 0.0248191
15.5202 44.0712 2
13.2252 44.2975 3.97545
15.4713 45.9409 0.0247226
13.4639 46.1791 2
11.344 46.6484 3.97558
13.7645 47.877 0.0246923
11.8321 48.4555 2
9.72169 49.1874 3.96965
12.4394 50.1533 0.0262997
10.4504 51.0214 2
8.32179 51.9875 3.96327
11.3169 52.7734 0.0345378
9.29431 53.8694 2
7.19832 55.0329 3.97318
6.31991 58.3339 4
8.38818 56.976 2
10.3871 55.6888 0.0384004
7.74924 60.3285 2
9.7054 58.8455 0.0291008
9.30605 62.2254 0
13.6503 25.4957 3.97621
13.1674 23.3964 3.97236
14.2698 21.8733 2
12.4185 20.6247 3.96375
15.4333 20.3156 0.0353416
13.5941 18.9746 2
11.6809 17.5869 3.96097
14.8518 17.3776 0.0408255
13.0478 15.912 2
11.225 14.3813 3.96713
14.4912 14.33 0.0321551
12.7852 12.7014 2
10.9835 10.9835 4
14.449 11.12 0.0237422
12.7745 9.306 2
14.6715 7.74927 0
21.7441 33.5439 3.97636
24.4569 33.8894 2
26.7813 34.3993 0.0274319
16.5552 26.5961 3.97427
18.2405 24.2629 2
18.3562 22.5264 0.0249261
14.7951 24.6088 2
15.9762 23.0875 0.0274702
19.3003 30.3773 3.97453
19.8994 27.4624 2
20.3346 24.6362 0.0279519
22.3975 30.9014 2
22.9862 28.1281 0.0288503
25.0846 31.458 0.0172263
18.6175 36.012 3.97788
21.3829 35.9741 2
23.9049 36.3295 0.0220719
21.9628 40.5521 0.0247752
21.2776 37.7935 0.0221833
19.0344 38.9684 2
14.9878 39.1496 3.97698
18.2628 41.9808 0.024259
15.5023 41.8358 2
12.9153 42.2142 3.97608
15.5212 44.0711 0.0246384
13.225 44.2973 2
10.928 44.733 3.97564
13.4636 46.1791 0.0247792
11.3464 46.6475 2
9.10223 47.2742 3.97186
11.83 48.4566 0.0246622
9.72363 49.1863 2
7.48103 50.0239 3.96382
10.4491 51.0225 0.0324252
8.32008 51.9862 2
6.13883 53.0087 3.97319
9.29477 53.8708 0.0374899
7.19758 55.0289 2
5.0241 56.25 4
6.31988 58.3339 2
8.38944 56.9805 0.0278146
7.74927 60.3285 0
13.9447 26.9504 3.97507
12.2742 24.8904 3.97513
13.6492 25.4948 2
11.3425 22.3043 3.96644
13.169 23.3957 2
14.2696 21.8749 0.0314665
12.4169 20.6229 2
10.4496 19.3433 3.96192
13.5949 18.977 0.0387203
11.6945 17.5881 2
9.76601 16.1631 3.97049
13.0409 15.9144 0.0349756
11.2251 14.3866 2
9.30607 12.7746 4
12.7867 12.6934 0.0261436
10.9835 10.9835 2
12.7746 9.30605 0
18.787 33.2159 3.97576
21.7401 33.5466 2
24.4545 33.9084 0.0189725
16.1851 29.7932 3.97513
16.5551 26.5958 2
18.2365 24.2634 0.0268924
14.7968 24.6098 0.025662
19.2969 30.3775 2
19.8975 27.4615 0.0265883
22.3745 30.9025 0.0260161
15.6297 36.0468 3.97739
18.6173 36.0131 2
21.3819 35.9724 0.0228727
13.1448 37.828 3.97713
19.0337 38.9697 0.022848
14.9876 39.1494 2
12.4059 40.1079 3.97657
15.5032 41.8364 0.0240656
12.9145 42.2137 2
10.5233 42.7301 3.97612
13.2252 44.2975 0.0245513
10.93 44.7323 2
8.56521 45.2859 3.97419
11.344 46.6484 0.0244211
9.10427 47.2731 2
6.75963 47.9923 3.96456
9.72169 49.1874 0.0303466
7.47854 50.0228 2
5.21513 50.912 3.97304
8.32179 51.9875 0.036734
6.13857 53.0056 2
3.86727 54.0858 4
7.19832 55.0329 0.0268216
5.02404 56.25 2
6.31991 58.3339 0
13.4216 29.142 3.97456
11.7209 26.5822 3.97521
13.9443 26.9501 2
10.3924 24.0271 3.96917
12.2769 24.8901 2
13.6503 25.4957 0.0237892
9.31153 21.1591 3.96305
11.3427 22.3036 2
13.1674 23.3964 0.0276399
12.4185 20.6247 0.0362519
10.4592 19.3447 2
8.42178 18.0314 3.97215
11.6809 17.5869 0.0390283
9.765 16.1671 2
7.74928 14.6715 4
11.225 14.3813 0.0328651
9.30602 12.7745 2
10.9835 10.9835 0
15.1619 32.9404 3.97622
18.787 33.2158 2
21.7441 33.5439 0.023639
16.1842 29.7926 2
16.5552 26.5961 0.0257329
19.3003 30.3773 0.0254682
13.4532 36.2261 3.97671
15.6298 36.0469 2
18.6175 36.012 0.0221215
13.1439 37.8279 2
11.7207 38.3027 3.97673
14.9878 39.1496 0.0230244
12.4052 40.1079 2
10.0934 40.7278 3.97657
12.9153 42.2142 0.0239193
10.5256 42.7296 2
8.1011 43.2452 3.97498
10.928 44.733 0.0243571
8.56784 45.2848 2
6.15559 45.9 3.96483
9.10223 47.2742 0.0281403
6.75689 47.9915 2
4.42608 48.7523 3.97282
7.48103 50.0239 0.0361775
5.21525 50.9098 2
2.85457 51.8506 4
6.13883 53.0087 0.0268135
3.86727 54.0858 2
5.0241 56.25 0
12.5458 31.3281 3.97575
11.128 28.4944 3.97509
13.4209 29.1415 2
9.60424 25.849 3.9712
11.7229 26.5823 2
13.9447 26.9504 0.024925
8.28713 23.0384 3.964
10.3948 24.0274 2
12.2742 24.8904 0.0248697
7.20418 19.979 3.97323
9.31682 21.1606 2
11.3425 22.3043 0.0335558
10.4496 19.3433 0.0380804
8.4211 18.0357 2
6.31992 16.6661 4
9.76601 16.1631 0.0295086
7.74926 14.6714 2
9.30607 12.7746 0
12.5813 34.3364 3.97661
15.1615 32.9413 2
18.787 33.2159 0.0242423
16.1851 29.7932 0.0248658
11.2489 36.6234 3.97656
13.4528 36.2262 2
15.6297 36.0468 0.0226057
13.1448 37.828 0.0228727
11.7204 38.3024 2
9.66676 38.8146 3.97668
12.4059 40.1079 0.0234303
10.0951 40.7272 2
7.70257 41.1968 3.97511
10.5233 42.7301 0.0238831
8.10313 43.2443 2
5.66096 43.7645 3.96489
8.56521 45.2859 0.0258117
6.15203 45.8994 2
3.77131 46.5372 3.97278
6.75963 47.9923 0.0354446
4.42662 48.7507 2
1.99014 49.554 4
5.21513 50.912 0.02696
2.85451 51.8506 2
3.86727 54.0858 0
11.3339 32.9696 3.97638
10.4268 30.4398 3.97542
12.5451 31.3288 2
8.89909 27.7729 3.97263
11.1296 28.4946 2
13.4216 29.142 0.0254382
7.39885 24.9929 3.96454
9.60684 25.8495 2
11.7209 26.5822 0.0247869
6.12091 22.001 3.97376
8.28807 23.0395 2
10.3924 24.0271 0.0308323
5.02411 18.75 4
7.20371 19.9825 2
9.31153 21.1591 0.0369478
8.42178 18.0314 0.0278499
6.3199 16.6661 2
7.74928 14.6715 0
10.8264 35.0244 3.9763
12.5802 34.3365 2
15.1619 32.9404 0.0237753
9.3176 36.9901 3.97651
11.2487 36.6235 2
13.4532 36.2261 0.0232866
11.7207 38.3027 0.0232691
9.66864 38.8143 2
7.37124 39.1767 3.97485
10.0934 40.7278 0.0234334
7.70552 41.1962 2
5.27157 41.6116 3.96527
8.1011 43.2452 0.0250249
5.65881 43.7641 2
3.24868 44.2817 3.97365
6.15559 45.9 0.035173
3.77212 46.5362 2
1.27781 47.2057 4
4.42608 48.7523 0.0271808
1.99012 49.554 2
2.85457 51.8506 0
10.4517 33.9141 3.97601
9.69151 32.1949 3.97604
11.3341 32.97 2
8.22653 29.7261 3.97374
10.4288 30.4411 2
12.5458 31.3281 0.0242548
6.629 27.0155 3.96476
8.9023 27.7737 2
11.128 28.4944 0.0249107
5.17577 24.0935 3.97352
7.39691 24.9936 2
9.60424 25.849 0.0288034
3.86728 20.9142 4
6.12084 22.0035 2
8.28713 23.0384 0.036001
5.02406 18.75 2
7.20418 19.979 0.0267666
6.31992 16.6661 0
9.12743 35.2962 3.97642
10.8267 35.0244 2
12.5813 34.3364 0.0233851
7.14523 37.2076 3.97432
9.32003 36.99 2
11.2489 36.6234 0.0234388
9.66676 38.8146 0.0233238
7.37402 39.1764 2
4.99548 39.4664 3.9659
7.70257 41.1968 0.0248915
5.27018 41.6114 2
2.85889 42.0018 3.97418
5.66096 43.7645 0.0351095
3.2493 44.2811 2
0.720592 44.8159 4
3.77131 46.5372 0.0272164
1.27778 47.2057 2
1.99014 49.554 0
9.16444 33.7246 3.97644
10.4529 33.9143 2
7.65301 31.631 3.97387
9.69389 32.1956 2
11.3339 32.9696 0.0236239
5.96479 29.0746 3.96484
8.22915 29.7268 2
10.4268 30.4398 0.02458
4.36284 26.2466 3.9732
6.62543 27.0159 2
8.89909 27.7729 0.0273715
2.85458 23.1494 4
5.17609 24.0951 2
7.39885 24.9929 0.0354614
3.86728 20.9142 2
6.12091 22.001 0.0262385
5.02411 18.75 0
7.09343 35.314 3.97419
9.13062 35.2962 2
10.8264 35.0244 0.0237019
4.84459 37.3402 3.96651
7.14832 37.2077 2
9.3176 36.9901 0.0234916
7.37124 39.1767 0.0251524
4.9955 39.4663 2
2.60682 39.7134 3.97461
5.27157 41.6116 0.0347316
2.85981 42.0017 2
0.320823 42.3947 4
3.24868 44.2817 0.0263504
0.720551 44.8159 2
1.27781 47.2057 0
7.25709 33.4753 3.97405
9.16767 33.7249 2
10.4517 33.9141 0.0239948
5.42688 31.1371 3.96538
7.65403 31.6313 2
9.69151 32.1949 0.0239572
3.68402 28.4433 3.97335
5.96056 29.0748 2
8.22653 29.7261 0.026261
1.99015 25.446 4
4.36345 26.2476 2
6.629 27.0155 0.0352397
2.85453 23.1494 2
5.17577 24.0935 0.0264765
3.86728 20.9142 0
4.85868 35.2531 3.96646
7.09576 35.3141 2
9.12743 35.2962 0.0235847
2.4982 37.4283 3.97571
4.84494 37.3403 2
7.14523 37.2076 0.0256784
4.99548 39.4664 0.0340995
2.60774 39.714 2
0.080333 39.9526 4
2.85889 42.0018 0.0258158
0.320817 42.3947 2
0.720592 44.8159 0
5.0521 33.1926 3.96602
7.25911 33.4755 2
9.16444 33.7246 0.0235647
3.14797 30.6665 3.97409
5.42398 31.1373 2
7.65301 31.631 0.0261298
1.27793 27.7943 4
3.6849 28.444 2
5.96479 29.0746 0.0351561
1.99013 25.446 2
4.36284 26.2466 0.0268035
2.85458 23.1494 0
2.55015 35.1591 3.97559
4.85954 35.2533 2
7.09343 35.314 0.0258119
0 37.5 4
2.49849 37.4288 2
4.84459 37.3402 0.0334919
2.60682 39.7134 0.0253936
0.0802903 39.9526 2
0.320823 42.3947 0
2.76792 32.9061 3.97537
5.05267 33.1929 2
7.25709 33.4753 0.0259481
0.721173 30.1842 4
3.14895 30.667 2
5.42688 31.1371 0.0346217
1.27779 27.7943 2
3.68402 28.4433 0.0266457
1.99015 25.446 0
0.0806499 35.0474 4
2.55107 35.1595 2
4.85868 35.2531 0.0335421
0 37.5 2
2.4982 37.4283 0.0242867
0.080333 39.9526 0
0.32156 32.6054 4
2.76837 32.9065 2
5.0521 33.1926 0.0339781
0.72056 30.1841 2
3.14797 30.6665 0.0259099
1.27793 27.7943 0
0.0802889 35.0474 2
2.55015 35.1591 0.0244129
0 37.5 0
0.320817 32.6053 2
2.76792 32.9061 0.0246319
0.721173 30.1842 0
0.0806499 35.0474 0
0.32156 32.6054 0
CELLS 1910 17190
8 18 6 25 56 2 0 5 16
8 57 23 6 18 17 4 0 2
8 78 36 9 29 31 11 1 7
8 31 11 1 7 79 37 10 30
8 110 57 18 50 48 17 2 14
8 50 18 56 111 14 2 16 49
8 116 62 22 55 52 20 3 15
8 56 25 67 118 16 5 24 53
8 119 63 23 57 54 21 4 17
8 55 22 63 119 15 3 21 54
8 58 26 68 121 18 6 25 56
8 122 65 26 58 57 23 6 18
8 73 31 7 27 142 79 30 71
8 143 78 29 72 73 31 7 27
8 83 147 76 34 32 74 28 8
8 84 148 78 36 33 75 29 9
8 76 34 8 28 148 84 33 75
8 37 79 150 86 10 30 77 35
8 151 87 36 78 80 38 11 31
8 80 38 11 31 152 88 37 79
8 175 100 42 94 96 44 12 40
8 44 96 176 101 12 40 95 43
8 101 176 98 46 43 95 41 13
8 46 98 178 103 13 41 97 45
8 178 103 45 97 147 83 32 74
8 189 116 55 109 106 52 15 47
8 111 56 118 191 49 16 53 107
8 192 119 57 110 108 54 17 48
8 109 55 119 192 47 15 54 108
8 194 122 58 112 110 57 18 50
8 112 58 121 195 50 18 56 111
8 115 61 19 51 197 124 59 113
8 115 61 125 198 51 19 60 114
8 198 125 62 116 114 60 20 52
8 200 127 64 120 116 62 22 55
8 118 67 132 202 53 24 66 117
8 121 68 133 203 56 25 67 118
8 120 64 128 204 55 22 63 119
8 204 128 65 122 119 63 23 57
8 206 134 68 121 123 69 26 58
8 123 69 26 58 207 131 65 122
8 226 147 74 138 140 76 28 70
8 229 148 75 139 143 78 29 72
8 140 76 28 70 229 148 75 139
8 142 79 30 71 231 150 77 141
8 144 80 31 73 232 152 79 142
8 233 151 78 143 144 80 31 73
8 150 86 35 77 235 154 81 145
8 235 154 81 145 146 82 39 91
8 146 82 39 91 236 155 90 165
8 238 157 83 147 149 85 34 76
8 239 158 84 148 151 87 36 78
8 149 85 34 76 239 158 84 148
8 152 88 37 79 241 160 86 150
8 242 161 87 151 153 89 38 80
8 153 89 38 80 243 162 88 152
8 171 98 41 92 265 178 97 169
8 265 178 97 169 226 147 74 138
8 172 96 40 93 266 176 95 170
8 266 176 95 170 171 98 41 92
8 269 175 94 173 172 96 40 93
8 271 180 99 174 175 100 42 94
8 197 124 59 113 271 180 99 174
8 272 181 100 175 177 102 44 96
8 273 182 101 176 179 104 46 98
8 177 102 44 96 273 182 101 176
8 179 104 46 98 275 184 103 178
8 275 184 103 178 238 157 83 147
8 188 115 51 105 283 197 113 186
8 188 115 198 284 105 51 114 187
8 284 198 116 189 187 114 52 106
8 286 200 120 193 189 116 55 109
8 191 118 202 288 107 53 117 190
8 195 121 203 289 111 56 118 191
8 193 120 204 290 109 55 119 192
8 290 204 122 194 192 119 57 110
8 196 123 58 112 292 207 122 194
8 293 206 121 195 196 123 58 112
8 199 126 61 115 297 211 124 197
8 298 212 127 200 198 125 62 116
8 199 126 212 298 115 61 125 198
8 205 129 64 120 300 214 127 200
8 301 217 130 201 202 132 66 117
8 209 136 168 264 301 217 130 201
8 302 219 132 202 203 133 67 118
8 303 220 133 203 206 134 68 121
8 205 129 215 304 120 64 128 204
8 304 215 131 207 204 128 65 122
8 306 221 134 206 208 135 69 123
8 208 135 69 123 307 218 131 207
8 210 137 167 263 309 223 136 209
8 328 238 147 226 230 149 76 140
8 228 146 91 166 329 236 165 260
8 231 150 77 141 330 235 145 227
8 330 235 145 227 228 146 91 166
8 332 239 148 229 233 151 78 143
8 230 149 76 140 332 239 148 229
8 232 152 79 142 334 241 150 231
8 234 153 80 144 335 243 152 232
8 336 242 151 233 234 153 80 144
8 236 155 90 165 338 245 164 259
8 241 160 86 150 339 246 154 235
8 339 246 154 235 237 156 82 146
8 237 156 82 146 340 247 155 236
8 342 249 157 238 240 159 85 149
8 343 250 158 239 242 161 87 151
8 240 159 85 149 343 250 158 239
8 243 162 88 152 345 252 160 241
8 244 163 253 346 153 89 161 242
8 244 163 89 153 347 254 162 243
8 311 224 261 371 210 137 167 263
8 263 167 262 372 209 136 168 264
8 267 179 98 171 375 275 178 265
8 375 275 178 265 328 238 147 226
8 376 273 176 266 267 179 98 171
8 268 177 96 172 376 273 176 266
8 379 272 175 269 268 177 96 172
8 380 271 174 270 269 175 94 173
8 283 197 113 186 380 271 174 270
8 381 277 180 271 272 181 100 175
8 297 211 124 197 381 277 180 271
8 382 278 181 272 274 183 102 177
8 274 183 102 177 383 279 182 273
8 383 279 182 273 276 185 104 179
8 385 281 184 275 342 249 157 238
8 276 185 104 179 385 281 184 275
8 285 199 115 188 393 297 197 283
8 394 298 200 286 284 198 116 189
8 285 199 298 394 188 115 198 284
8 291 205 120 193 396 300 200 286
8 397 301 201 287 288 202 117 190
8 295 209 264 374 397 301 201 287
8 398 302 202 288 289 203 118 191
8 399 303 203 289 293 206 121 195
8 291 205 304 400 193 120 204 290
8 400 304 207 292 290 204 122 194
8 294 208 123 196 402 307 207 292
8 403 306 206 293 294 208 123 196
8 296 210 263 373 405 309 209 295
8 408 312 213 299 297 211 126 199
8 299 213 313 409 199 126 212 298
8 409 313 214 300 298 212 127 200
8 305 216 129 205 411 315 214 300
8 412 318 217 301 302 219 132 202
8 309 223 136 209 412 318 217 301
8 413 320 219 302 303 220 133 203
8 306 221 321 414 206 134 220 303
8 307 218 131 207 415 316 215 304
8 305 216 316 415 205 129 215 304
8 417 322 221 306 308 222 135 208
8 308 222 135 208 418 319 218 307
8 310 225 137 210 420 325 223 309
8 423 326 224 311 310 225 137 210
8 329 236 165 260 441 338 259 368
8 442 342 238 328 333 240 149 230
8 331 237 146 228 443 340 236 329
8 334 241 150 231 444 339 235 330
8 444 339 235 330 331 237 146 228
8 446 343 239 332 336 242 151 233
8 333 240 149 230 446 343 239 332
8 335 243 152 232 448 345 241 334
8 337 244 153 234 449 347 243 335
8 337 244 346 450 234 153 242 336
8 338 245 164 259 452 349 258 367
8 340 247 155 236 453 350 245 338
8 345 252 160 241 454 351 246 339
8 454 351 246 339 341 248 156 237
8 341 248 156 237 455 352 247 340
8 240 159 251 344 342 249 354 457
8 242 161 253 346 343 250 355 458
8 343 250 355 458 240 159 251 344
8 347 254 162 243 460 357 252 345
8 348 255 358 461 244 163 253 346
8 348 255 163 244 462 359 254 347
8 473 360 257 365 363 256 364 482
8 452 349 258 367 365 257 366 485
8 422 324 369 488 311 224 261 371
8 371 261 370 490 263 167 262 372
8 407 311 371 491 296 210 263 373
8 373 263 372 492 295 209 264 374
8 493 385 275 375 442 342 238 328
8 377 276 179 267 493 385 275 375
8 378 274 177 268 494 383 273 376
8 494 383 273 376 377 276 179 267
8 497 382 272 379 378 274 177 268
8 498 381 271 380 379 272 175 269
8 393 297 197 283 498 381 271 380
8 499 387 277 381 382 278 181 272
8 408 312 211 297 499 387 277 381
8 500 388 278 382 384 280 183 274
8 501 389 279 383 386 282 185 276
8 384 280 183 274 501 389 279 383
8 386 282 185 276 503 391 281 385
8 503 391 281 385 457 354 249 342
8 511 408 299 395 393 297 199 285
8 395 299 409 512 285 199 298 394
8 512 409 300 396 394 298 200 286
8 401 305 205 291 514 411 300 396
8 515 412 301 397 398 302 202 288
8 405 309 209 295 515 412 301 397
8 516 413 302 398 399 303 203 289
8 403 306 414 517 293 206 303 399
8 402 307 207 292 518 415 304 400
8 401 305 415 518 291 205 304 400
8 404 308 208 294 520 418 307 402
8 521 417 306 403 404 308 208 294
8 406 310 210 296 523 420 309 405
8 526 423 311 407 406 310 210 296
8 410 314 213 299 527 424 312 408
8 528 425 315 411 409 313 214 300
8 410 314 425 528 299 213 313 409
8 416 317 216 305 530 427 315 411
8 531 430 318 412 413 320 219 302
8 420 325 223 309 531 430 318 412
8 532 432 320 413 414 321 220 303
8 417 322 433 533 306 221 321 414
8 418 319 218 307 534 428 316 415
8 416 317 428 534 305 216 316 415
8 419 323 434 536 308 222 322 417
8 419 323 222 308 537 431 319 418
8 421 327 225 310 539 438 325 420
8 421 327 439 541 310 225 326 423
8 543 437 324 422 423 326 224 311
8 441 338 259 368 559 452 367 486
8 443 340 236 329 560 453 338 441
8 333 240 344 447 442 342 457 561
8 445 341 237 331 562 455 340 443
8 448 345 241 334 563 454 339 444
8 563 454 339 444 445 341 237 331
8 336 242 346 450 446 343 458 565
8 446 343 458 565 333 240 344 447
8 449 347 243 335 567 460 345 448
8 451 348 244 337 568 462 347 449
8 451 348 461 569 337 244 346 450
8 570 463 349 452 473 360 257 365
8 453 350 245 338 570 463 349 452
8 455 352 247 340 571 464 350 453
8 460 357 252 345 572 465 351 454
8 572 465 351 454 456 353 248 341
8 456 353 248 341 573 466 352 455
8 344 251 356 459 457 354 468 575
8 458 355 469 576 344 251 356 459
8 346 253 358 461 458 355 469 576
8 462 359 254 347 578 471 357 460
8 348 255 359 462 461 358 472 579
8 591 474 360 473 475 361 256 363
8 475 361 256 363 594 477 362 479
8 363 256 364 482 479 362 480 603
8 590 473 365 484 481 363 482 605
8 482 364 257 365 606 483 366 485
8 559 452 367 486 484 365 485 607
8 542 436 487 609 422 324 369 488
8 525 422 488 611 407 311 371 491
8 488 369 489 612 371 261 370 490
8 491 371 490 613 373 263 372 492
8 495 386 276 377 614 503 385 493
8 614 503 385 493 561 457 342 442
8 615 501 383 494 495 386 276 377
8 496 384 274 378 615 501 383 494
8 618 500 382 497 496 384 274 378
8 619 499 381 498 497 382 272 379
8 511 408 297 393 619 499 381 498
8 620 505 387 499 500 388 278 382
8 527 424 312 408 620 505 387 499
8 502 390 506 621 384 280 388 500
8 622 507 389 501 504 392 282 386
8 502 390 280 384 622 507 389 501
8 504 392 282 386 624 509 391 503
8 624 509 391 503 575 468 354 457
8 513 410 299 395 630 527 408 511
8 631 528 411 514 512 409 300 396
8 513 410 528 631 395 299 409 512
8 519 416 305 401 633 530 411 514
8 634 531 412 515 516 413 302 398
8 523 420 309 405 634 531 412 515
8 635 532 413 516 517 414 303 399
8 521 417 533 636 403 306 414 517
8 520 418 307 402 637 534 415 518
8 519 416 534 637 401 305 415 518
8 522 419 308 404 639 537 418 520
8 522 419 536 640 404 308 417 521
8 524 421 310 406 642 539 420 523
8 524 421 541 644 406 310 423 526
8 646 543 422 525 526 423 311 407
8 529 426 314 410 647 544 424 527
8 528 425 545 648 411 315 427 530
8 529 426 545 648 410 314 425 528
8 535 429 317 416 649 546 427 530
8 650 548 430 531 532 432 320 413
8 539 438 325 420 650 548 430 531
8 533 433 550 651 414 321 432 532
8 536 434 551 652 417 322 433 533
8 537 431 319 418 653 547 428 534
8 535 429 547 653 416 317 428 534
8 538 435 552 654 419 323 434 536
8 538 435 323 419 655 549 431 537
8 540 440 327 421 657 556 438 539
8 540 440 557 659 421 327 439 541
8 541 439 555 660 423 326 437 543
8 661 554 436 542 543 437 324 422
8 676 570 452 559 590 473 365 484
8 560 453 338 441 676 570 452 559
8 562 455 340 443 677 571 453 560
8 447 344 459 566 561 457 575 678
8 564 456 341 445 679 573 455 562
8 567 460 345 448 680 572 454 563
8 680 572 454 563 564 456 341 445
8 565 458 576 682 447 344 459 566
8 450 346 461 569 565 458 576 682
8 568 462 347 449 684 578 460 567
8 451 348 462 568 569 461 579 685
8 686 580 463 570 591 474 360 473
8 571 464 350 453 686 580 463 570
8 573 466 352 455 687 581 464 571
8 572 465 582 688 460 357 471 578
8 574 467 582 688 456 353 465 572
8 574 467 353 456 689 583 466 573
8 459 356 470 577 575 468 585 691
8 576 469 586 692 459 356 470 577
8 461 358 472 579 576 469 586 692
8 462 359 471 578 579 472 588 694
8 704 591 473 590 593 475 363 481
8 595 476 592 705 475 361 474 591
8 593 475 363 481 707 594 479 602
8 594 477 362 479 709 598 478 600
8 595 476 361 475 711 597 477 594
8 479 362 480 603 600 478 601 720
8 481 363 482 605 602 479 603 722
8 603 480 364 482 723 604 483 606
8 605 482 365 484 724 606 485 607
8 656 553 608 726 542 436 487 609
8 645 542 609 728 525 422 488 611
8 609 487 610 729 488 369 489 612
8 611 488 612 730 491 371 490 613
8 616 504 386 495 731 624 503 614
8 731 624 503 614 678 575 457 561
8 732 622 501 615 616 504 386 495
8 617 502 384 496 732 622 501 615
8 617 502 621 735 496 384 500 618
8 736 620 499 619 618 500 382 497
8 630 527 408 511 736 620 499 619
8 621 506 626 737 500 388 505 620
8 647 544 424 527 737 626 505 620
8 623 508 627 738 502 390 506 621
8 623 508 390 502 739 628 507 622
8 625 510 628 739 504 392 507 622
8 740 629 509 624 691 585 468 575
8 625 510 392 504 740 629 509 624
8 632 529 410 513 744 647 527 630
8 631 528 648 745 514 411 530 633
8 632 529 648 745 513 410 528 631
8 638 535 416 519 746 649 530 633
8 747 650 531 634 635 532 413 516
8 642 539 420 523 747 650 531 634
8 636 533 651 748 517 414 532 635
8 640 536 652 749 521 417 533 636
8 639 537 418 520 750 653 534 637
8 638 535 653 750 519 416 534 637
8 641 538 419 522 751 655 537 639
8 641 538 654 752 522 419 536 640
8 643 540 421 524 753 657 539 642
8 643 540 659 755 524 421 541 644
8 644 541 660 757 526 423 543 646
8 758 661 542 645 646 543 422 525
8 529 426 544 647 648 545 662 759
8 530 427 545 648 649 546 663 760
8 535 429 546 649 653 547 664 761
8 762 666 548 650 651 550 432 532
8 657 556 438 539 762 666 548 650
8 652 551 668 763 533 433 550 651
8 654 552 669 764 536 434 551 652
8 655 549 431 537 765 665 547 653
8 538 435 549 655 654 552 667 766
8 661 554 671 768 542 436 553 656
8 658 558 440 540 769 674 556 657
8 658 558 675 770 540 440 557 659
8 659 557 673 771 541 439 555 660
8 660 555 672 772 543 437 554 661
8 788 686 570 676 704 591 473 590
8 677 571 453 560 788 686 570 676
8 679 573 455 562 789 687 571 677
8 566 459 577 683 678 575 691 790
8 681 574 456 564 791 689 573 679
8 680 572 688 792 567 460 578 684
8 681 574 688 792 564 456 572 680
8 682 576 692 794 566 459 577 683
8 569 461 579 685 682 576 692 794
8 568 462 578 684 685 579 694 796
8 687 581 464 571 798 696 580 686
8 798 696 580 686 705 592 474 591
8 689 583 466 573 799 697 581 687
8 688 582 698 800 578 471 588 694
8 690 584 698 800 574 467 582 688
8 690 584 467 574 801 699 583 689
8 693 587 701 803 577 470 585 691
8 693 587 470 577 804 702 586 692
8 695 589 702 804 579 472 586 692
8 695 589 472 579 805 703 588 694
8 708 595 705 813 593 475 591 704
8 710 596 706 814 595 476 592 705
8 707 594 479 602 816 709 600 719
8 708 595 475 593 817 711 594 707
8 709 598 478 600 819 715 599 717
8 711 597 477 594 820 714 598 709
8 710 596 476 595 822 713 597 711
8 600 478 601 720 717 599 718 832
8 602 479 603 722 719 600 720 834
8 720 601 480 603 835 721 604 723
8 722 603 482 605 836 723 606 724
8 767 670 725 839 656 553 608 726
8 756 656 726 841 645 542 609 728
8 726 608 727 842 609 487 610 729
8 728 609 729 843 611 488 612 730
8 844 740 624 731 790 691 575 678
8 733 625 504 616 844 740 624 731
8 734 623 502 617 845 739 622 732
8 733 625 739 845 616 504 622 732
8 734 623 738 846 617 502 621 735
8 735 621 737 847 618 500 620 736
8 744 647 527 630 847 737 620 736
8 621 506 627 738 737 626 741 848
8 647 544 626 737 759 662 741 848
8 623 508 628 739 738 627 742 849
8 740 629 585 691 850 743 700 802
8 625 510 629 740 739 628 743 850
8 632 529 647 744 745 648 759 854
8 633 530 648 745 746 649 760 855
8 638 535 649 746 750 653 761 856
8 857 762 650 747 748 651 532 635
8 753 657 539 642 857 762 650 747
8 749 652 763 858 636 533 651 748
8 752 654 764 859 640 536 652 749
8 751 655 537 639 860 765 653 750
8 641 538 655 751 752 654 766 861
8 754 658 540 643 862 769 657 753
8 754 658 770 863 643 540 659 755
8 755 659 771 864 644 541 660 757
8 758 661 768 866 645 542 656 756
8 757 660 772 867 646 543 661 758
8 759 662 773 868 648 545 663 760
8 649 546 663 760 761 664 774 871
8 765 665 547 653 872 775 664 761
8 873 777 666 762 763 668 550 651
8 769 674 556 657 873 777 666 762
8 764 669 779 874 652 551 668 763
8 654 552 667 766 764 669 778 875
8 655 549 665 765 766 667 776 876
8 768 671 782 877 656 553 670 767
8 772 672 783 878 661 554 671 768
8 658 558 674 769 770 675 786 879
8 659 557 675 770 771 673 785 881
8 882 784 672 772 771 673 555 660
8 789 687 571 677 897 798 686 788
8 897 798 686 788 813 705 591 704
8 791 689 573 679 898 799 687 789
8 795 693 803 900 683 577 691 790
8 793 690 574 681 901 801 689 791
8 792 688 800 902 684 578 694 796
8 793 690 800 902 681 574 688 792
8 795 693 577 683 903 804 692 794
8 797 695 804 903 685 579 692 794
8 797 695 579 685 904 805 694 796
8 905 806 697 799 798 696 581 687
8 814 706 806 905 705 592 696 798
8 689 583 697 799 801 699 808 907
8 800 698 809 908 694 588 703 805
8 690 584 699 801 800 698 809 908
8 803 701 810 909 691 585 700 802
8 693 587 702 804 803 701 811 910
8 695 589 703 805 804 702 812 911
8 818 710 814 919 708 595 705 813
8 821 712 815 920 710 596 706 814
8 816 709 600 719 922 819 717 831
8 817 711 594 707 923 820 709 816
8 818 710 595 708 924 822 711 817
8 819 715 599 717 926 827 716 829
8 820 714 598 709 927 826 715 819
8 929 825 713 822 820 714 597 711
8 821 712 596 710 930 824 713 822
8 717 599 718 832 829 716 830 942
8 719 600 720 834 831 717 832 944
8 832 718 601 720 945 833 721 835
8 834 720 603 722 946 835 723 836
8 869 780 838 950 767 670 725 839
8 865 767 839 952 756 656 726 841
8 839 725 840 953 726 608 727 842
8 841 726 842 954 728 609 729 843
8 844 740 691 790 955 850 802 899
8 733 625 740 844 845 739 850 955
8 734 623 739 845 846 738 849 956
8 735 621 738 846 847 737 848 957
8 744 647 737 847 854 759 848 957
8 738 627 742 849 848 741 851 958
8 848 741 851 958 759 662 773 868
8 850 743 700 802 959 852 807 906
8 849 742 628 739 959 852 743 850
8 854 759 868 965 745 648 760 855
8 746 649 760 855 856 761 871 966
8 860 765 653 750 967 872 761 856
8 968 873 762 857 858 763 651 748
8 862 769 657 753 968 873 762 857
8 859 764 874 969 749 652 763 858
8 752 654 766 861 859 764 875 970
8 751 655 765 860 861 766 876 971
8 754 658 769 862 863 770 879 972
8 755 659 770 863 864 771 881 974
8 976 882 772 867 864 771 660 757
8 866 768 877 977 756 656 767 865
8 867 772 878 978 758 661 768 866
8 760 663 773 868 871 774 883 980
8 870 781 837 948 982 890 780 869
8 982 890 780 869 877 782 670 767
8 761 664 774 871 872 775 884 984
8 876 776 665 765 985 885 775 872
8 873 777 668 763 986 887 779 874
8 769 674 777 873 879 786 887 986
8 764 669 778 875 874 779 888 987
8 766 667 776 876 875 778 886 988
8 878 783 892 989 768 671 782 877
8 878 783 672 772 990 893 784 882
8 880 787 675 770 991 896 786 879
8 880 787 895 992 770 675 785 881
8 881 785 894 993 771 673 784 882
8 1006 905 799 898 897 798 687 789
8 919 814 905 1006 813 705 798 897
8 791 689 799 898 901 801 907 1007
8 900 803 909 1009 790 691 802 899
8 795 693 804 903 900 803 910 1010
8 902 800 908 1011 796 694 805 904
8 793 690 801 901 902 800 908 1011
8 797 695 805 904 903 804 911 1012
8 799 697 806 905 907 808 912 1013
8 920 815 912 1013 814 706 806 905
8 802 700 810 909 906 807 913 1014
8 801 699 808 907 908 809 914 1015
8 805 703 809 908 911 812 915 1016
8 803 701 811 910 909 810 916 1017
8 911 812 917 1018 804 702 811 910
8 925 821 920 1030 818 710 814 919
8 928 823 921 1031 821 712 815 920
8 922 819 717 831 1033 926 829 941
8 923 820 709 816 1034 927 819 922
8 1035 929 822 924 923 820 711 817
8 925 821 710 818 1036 930 822 924
8 1038 933 825 929 927 826 714 820
8 926 827 716 829 1039 935 828 939
8 927 826 715 819 1040 934 827 926
8 928 823 712 821 1041 931 824 930
8 1042 932 824 930 929 825 713 822
8 829 716 830 942 939 828 940 1058
8 831 717 832 944 941 829 942 1060
8 942 830 718 832 1061 943 833 945
8 944 832 720 834 1062 945 835 946
8 981 889 947 1064 870 781 837 948
8 948 837 949 1067 869 780 838 950
8 975 869 950 1069 865 767 839 952
8 950 838 951 1070 839 725 840 953
8 952 839 953 1071 841 726 842 954
8 955 850 802 899 1072 959 906 1008
8 956 849 739 845 1072 959 850 955
8 846 738 849 956 957 848 958 1073
8 957 848 958 1073 854 759 868 965
8 849 742 852 959 958 851 961 1076
8 960 853 961 1076 906 807 852 959
8 958 851 961 1076 868 773 883 980
8 960 853 807 906 1077 963 913 1014
8 855 760 868 965 966 871 980 1085
8 856 761 871 966 967 872 984 1086
8 971 876 765 860 1087 985 872 967
8 968 873 763 858 1088 986 874 969
8 862 769 873 968 972 879 986 1088
8 859 764 875 970 969 874 987 1089
8 861 766 876 971 970 875 988 1090
8 973 880 770 863 1091 991 879 972
8 973 880 992 1092 863 770 881 974
8 974 881 993 1093 864 771 882 976
8 979 870 948 1066 1094 982 869 975
8 1094 982 869 975 977 877 767 865
8 978 878 772 867 1095 990 882 976
8 978 878 989 1096 866 768 877 977
8 871 774 883 980 984 884 994 1099
8 983 891 999 1100 870 781 889 981
8 1101 1000 890 982 989 892 782 877
8 983 891 781 870 1101 1000 890 982
8 872 775 884 984 985 885 995 1103
8 876 776 885 985 988 886 996 1104
8 986 887 779 874 1105 998 888 987
8 879 786 887 986 991 896 998 1105
8 875 778 886 988 987 888 997 1106
8 990 893 1002 1107 878 783 892 989
8 1108 1003 893 990 993 894 784 882
8 880 787 896 991 992 895 1005 1109
8 993 894 785 881 1110 1004 895 992
8 898 799 905 1006 1007 907 1013 1120
8 1030 920 1013 1120 919 814 905 1006
8 901 801 907 1007 1011 908 1015 1121
8 899 802 909 1009 1008 906 1014 1122
8 900 803 910 1010 1009 909 1017 1123
8 1012 911 1018 1124 903 804 910 1010
8 904 805 908 1011 1012 911 1016 1125
8 1013 912 1020 1127 907 808 914 1015
8 1031 921 1020 1127 920 815 912 1013
8 1019 918 962 1075 1128 1021 913 1014
8 1128 1021 913 1014 1017 916 810 909
8 1015 914 1022 1129 908 809 915 1016
8 1016 915 1023 1130 911 812 917 1018
8 1018 917 1024 1131 910 811 916 1017
8 1037 928 1031 1148 925 821 920 1030
8 928 823 931 1041 1031 921 1032 1149
8 1033 926 829 941 1151 1039 939 1057
8 1034 927 819 922 1152 1040 926 1033
8 1153 1038 929 1035 1034 927 820 923
8 1154 1042 930 1036 1035 929 822 924
8 1037 928 821 925 1155 1041 930 1036
8 1039 935 828 939 1156 1047 938 1055
8 1157 1043 932 1042 1038 933 825 929
8 1038 933 826 927 1158 1045 934 1040
8 1040 934 827 926 1159 1046 935 1039
8 930 824 932 1042 1041 931 1044 1160
8 1051 936 1048 1165 1175 1052 937 1053
8 1156 1047 938 1055 1053 937 1054 1178
8 939 828 940 1058 1055 938 1056 1181
8 941 829 942 1060 1057 939 1058 1183
8 942 830 943 1061 1058 940 1059 1184
8 1060 942 832 944 1185 1061 945 1062
8 1082 964 1063 1188 981 889 947 1064
8 1097 981 1064 1190 979 870 948 1066
8 1064 947 1065 1191 948 837 949 1067
8 1066 948 1067 1193 975 869 950 1069
8 1067 949 1068 1194 950 838 951 1070
8 1069 950 1070 1195 952 839 953 1071
8 956 849 959 1072 1073 958 1076 1197
8 1074 960 1076 1197 1008 906 959 1072
8 1073 958 1076 1197 965 868 980 1085
8 1074 960 906 1008 1198 1077 1014 1122
8 1133 1026 1079 1199 1019 918 962 1075
8 1077 963 913 1014 1200 1080 962 1075
8 960 853 963 1077 1076 961 1078 1201
8 980 883 961 1076 1099 994 1078 1201
8 1210 1083 964 1082 1100 999 889 981
8 966 871 980 1085 1086 984 1099 1215
8 967 872 984 1086 1087 985 1103 1216
8 971 876 985 1087 1090 988 1104 1217
8 1088 986 874 969 1218 1105 987 1089
8 972 879 986 1088 1091 991 1105 1218
8 970 875 988 1090 1089 987 1106 1219
8 973 880 991 1091 1092 992 1109 1220
8 1093 993 881 974 1221 1110 992 1092
8 1222 1108 990 1095 1093 993 882 976
8 1223 1101 982 1094 1096 989 877 977
8 1098 983 870 979 1223 1101 982 1094
8 1095 990 1107 1224 978 878 989 1096
8 1098 983 1100 1225 979 870 981 1097
8 984 884 994 1099 1103 995 1111 1227
8 1102 1001 1115 1228 983 891 999 1100
8 1101 1000 892 989 1229 1116 1002 1107
8 1102 1001 891 983 1229 1116 1000 1101
8 985 885 995 1103 1104 996 1112 1230
8 988 886 996 1104 1106 997 1113 1231
8 1105 998 888 987 1232 1114 997 1106
8 991 896 998 1105 1109 1005 1114 1232
8 1108 1003 1117 1233 990 893 1002 1107
8 1108 1003 894 993 1233 1117 1004 1110
8 992 895 1005 1109 1110 1004 1118 1234
8 1120 1013 1127 1244 1007 907 1015 1121
8 1148 1031 1127 1244 1030 920 1013 1120
8 1121 1015 1129 1245 1011 908 1016 1125
8 1126 1019 1075 1196 1246 1128 1014 1122
8 1246 1128 1014 1122 1123 1017 909 1009
8 1124 1018 1131 1247 1010 910 1017 1123
8 1125 1016 1130 1248 1012 911 1018 1124
8 1127 1020 1137 1254 1015 914 1022 1129
8 1031 921 1032 1149 1127 1020 1137 1254
8 1134 1027 918 1019 1257 1140 1021 1128
8 1257 1140 1021 1128 1131 1024 916 1017
8 1129 1022 1141 1258 1016 915 1023 1130
8 1130 1023 1142 1259 1018 917 1024 1131
8 1261 1144 1025 1132 1133 1026 1079 1199
8 1255 1138 1025 1132 1135 1028 1144 1261
8 1133 1026 918 1019 1262 1145 1027 1134
8 1136 1029 1139 1256 1263 1146 1028 1135
8 1037 928 1041 1155 1148 1031 1149 1275
8 1041 931 1044 1160 1149 1032 1150 1276
8 1151 1039 939 1057 1278 1156 1055 1180
8 1152 1040 926 1033 1279 1159 1039 1151
8 1153 1038 927 1034 1280 1158 1040 1152
8 1281 1157 1042 1154 1153 1038 929 1035
8 1036 930 1042 1154 1155 1041 1160 1282
8 1283 1164 1046 1159 1156 1047 935 1039
8 1165 1048 1164 1283 1053 937 1047 1156
8 1157 1043 933 1038 1284 1161 1045 1158
8 1157 1043 1161 1284 1042 932 1044 1160
8 1040 934 1046 1159 1158 1045 1163 1285
8 1166 1049 1167 1292 1051 936 1048 1165
8 1166 1049 936 1051 1293 1168 1050 1172
8 1051 936 1052 1175 1172 1050 1173 1306
8 1174 1051 1165 1290 1308 1175 1053 1177
8 1053 937 1054 1178 1175 1052 1176 1309
8 1278 1156 1055 1180 1177 1053 1178 1311
8 1055 938 1056 1181 1178 1054 1179 1312
8 1057 939 1058 1183 1180 1055 1181 1314
8 1058 940 1059 1184 1181 1056 1182 1315
8 1060 942 1061 1185 1183 1058 1184 1316
8 1208 1081 1187 1321 1082 964 1063 1188
8 1209 1082 1188 1322 1097 981 1064 1190
8 1188 1063 1189 1323 1064 947 1065 1191
8 1190 1064 1191 1325 1066 948 1067 1193
8 1191 1065 1192 1326 1067 949 1068 1194
8 1067 1193 1069 950 1194 1327 1195 1070
8 1250 1133 1199 1330 1126 1019 1075 1196
8 1198 1077 1014 1122 1331 1200 1075 1196
8 1074 960 1077 1198 1197 1076 1201 1332
8 1085 980 1076 1197 1215 1099 1201 1332
8 1199 1079 1203 1333 1075 962 1080 1200
8 1132 1025 1119 1243 1199 1079 1203 1333
8 1201 1078 963 1077 1334 1202 1080 1200
8 1099 994 1078 1201 1227 1111 1202 1334
8 1343 1207 1081 1208 1210 1083 964 1082
8 1214 1084 1186 1319 1343 1207 1081 1208
8 1345 1210 1082 1209 1225 1100 981 1097
8 1346 1211 1083 1210 1228 1115 999 1100
8 1086 984 1099 1215 1216 1103 1227 1352
8 1087 985 1103 1216 1217 1104 1230 1353
8 1090 988 1104 1217 1219 1106 1231 1354
8 1218 1105 987 1089 1355 1232 1106 1219
8 1091 991 1105 1218 1220 1109 1232 1355
8 1092 992 1109 1220 1221 1110 1234 1356
8 1222 1108 1233 1357 1095 990 1107 1224
8 1222 1108 993 1093 1357 1233 1110 1221
8 1223 1101 989 1096 1358 1229 1107 1224
8 1226 1102 983 1098 1358 1229 1101 1223
8 1226 1102 1228 1359 1098 983 1100 1225
8 1103 995 1111 1227 1230 1112 1235 1360
8 1107 1002 1117 1233 1229 1116 1240 1362
8 1102 1001 1116 1229 1228 1115 1240 1362
8 1104 996 1112 1230 1231 1113 1236 1363
8 1364 1237 1114 1232 1231 1113 997 1106
8 1109 1005 1114 1232 1234 1118 1238 1365
8 1110 1004 1118 1234 1233 1117 1241 1366
8 1242 1374 1255 1138 1119 1243 1132 1025
8 1244 1127 1254 1376 1121 1015 1129 1245
8 1148 1031 1149 1275 1244 1127 1254 1376
8 1245 1129 1258 1377 1125 1016 1130 1248
8 1251 1134 1019 1126 1378 1257 1128 1246
8 1378 1257 1128 1246 1247 1131 1017 1123
8 1248 1130 1259 1379 1124 1018 1131 1247
8 1261 1381 1250 1133 1132 1249 1330 1199
8 1255 1380 1252 1135 1132 1249 1381 1261
8 1250 1133 1019 1126 1382 1262 1134 1251
8 1253 1136 1256 1385 1384 1263 1135 1252
8 1254 1137 1265 1387 1129 1022 1141 1258
8 1149 1032 1150 1276 1254 1137 1265 1387
8 1028 1135 1255 1138 1139 1256 1388 1266
8 1136 1029 1147 1264 1256 1139 1267 1389
8 1390 1268 1140 1257 1259 1142 1024 1131
8 1260 1143 1027 1134 1390 1268 1140 1257
8 1258 1141 1269 1391 1130 1023 1142 1259
8 1262 1145 1027 1134 1393 1271 1143 1260
8 1261 1144 1026 1133 1394 1272 1145 1262
8 1135 1028 1144 1261 1263 1146 1272 1394
8 1136 1029 1146 1263 1264 1147 1273 1395
8 1155 1041 1160 1282 1275 1149 1276 1405
8 1276 1150 1044 1160 1406 1277 1162 1286
8 1408 1283 1159 1279 1278 1156 1039 1151
8 1290 1165 1283 1408 1177 1053 1156 1278
8 1152 1040 1159 1279 1280 1158 1285 1409
8 1281 1157 1038 1153 1410 1284 1158 1280
8 1281 1157 1284 1410 1154 1042 1160 1282
8 1159 1046 1164 1283 1285 1163 1289 1412
8 1292 1167 1289 1412 1165 1048 1164 1283
8 1158 1045 1163 1285 1284 1161 1288 1413
8 1284 1161 1288 1413 1160 1044 1162 1286
8 1291 1166 1292 1418 1174 1051 1165 1290
8 1291 1166 1051 1174 1419 1293 1172 1305
8 1294 1169 1296 1421 1166 1049 1167 1292
8 1293 1168 1050 1172 1422 1295 1171 1303
8 1294 1169 1049 1166 1423 1297 1168 1293
8 1422 1295 1171 1303 1301 1170 1302 1435
8 1172 1050 1173 1306 1303 1171 1304 1438
8 1174 1051 1175 1308 1305 1172 1306 1440
8 1175 1052 1176 1309 1306 1173 1307 1441
8 1177 1053 1178 1311 1308 1175 1309 1443
8 1178 1054 1179 1312 1309 1176 1310 1444
8 1180 1055 1181 1314 1311 1178 1312 1446
8 1056 1181 1312 1179 1182 1315 1447 1313
8 1183 1058 1184 1316 1314 1181 1315 1448
8 1319 1186 1084 1214 1451 1317 1213 1350
8 1319 1186 1318 1453 1208 1081 1187 1321
8 1321 1187 1320 1456 1188 1063 1189 1323
8 1344 1208 1321 1457 1209 1082 1188 1322
8 1322 1188 1323 1458 1190 1064 1191 1325
8 1323 1189 1324 1459 1191 1065 1192 1326
8 1191 1325 1193 1067 1326 1460 1327 1194
8 1242 1374 1243 1119 1328 1462 1335 1204
8 1330 1199 1333 1465 1196 1075 1200 1331
8 1132 1249 1330 1199 1243 1375 1465 1333
8 1332 1201 1077 1198 1466 1334 1200 1331
8 1215 1099 1201 1332 1352 1227 1334 1466
8 1119 1243 1333 1203 1204 1335 1470 1338
8 1333 1203 1338 1470 1200 1080 1202 1334
8 1227 1111 1202 1334 1360 1235 1338 1470
8 1328 1462 1335 1204 1205 1336 1471 1339
8 1337 1206 1340 1472 1464 1329 1205 1336
8 1346 1211 1342 1479 1210 1083 1207 1343
8 1346 1211 1115 1228 1479 1342 1239 1361
8 1348 1212 1084 1214 1479 1342 1207 1343
8 1480 1343 1208 1344 1345 1210 1082 1209
8 1351 1214 1319 1454 1480 1343 1208 1344
8 1481 1346 1210 1345 1359 1228 1100 1225
8 1348 1212 1347 1483 1214 1084 1213 1350
8 1216 1103 1227 1352 1353 1230 1360 1488
8 1217 1104 1230 1353 1354 1231 1363 1489
8 1490 1364 1232 1355 1354 1231 1106 1219
8 1220 1109 1232 1355 1356 1234 1365 1491
8 1221 1110 1234 1356 1357 1233 1366 1492
8 1224 1107 1233 1357 1358 1229 1362 1493
8 1226 1102 1229 1358 1359 1228 1362 1493
8 1230 1112 1235 1360 1363 1236 1367 1496
8 1361 1239 1115 1228 1497 1371 1240 1362
8 1366 1241 1372 1498 1233 1117 1240 1362
8 1364 1237 1113 1231 1499 1368 1236 1363
8 1364 1237 1368 1499 1232 1114 1238 1365
8 1234 1118 1238 1365 1366 1241 1369 1500
8 1507 1373 1242 1374 1388 1266 1138 1255
8 1508 1374 1243 1375 1380 1255 1132 1249
8 1376 1254 1387 1509 1245 1129 1258 1377
8 1275 1149 1276 1405 1376 1254 1387 1509
8 1377 1258 1391 1510 1248 1130 1259 1379
8 1511 1390 1257 1378 1379 1259 1131 1247
8 1383 1260 1134 1251 1511 1390 1257 1378
8 1252 1135 1256 1385 1380 1255 1388 1512
8 1261 1381 1513 1394 1133 1250 1382 1262
8 1135 1252 1384 1263 1261 1381 1513 1394
8 1382 1262 1134 1251 1514 1393 1260 1383
8 1253 1136 1263 1384 1386 1264 1395 1516
8 1253 1136 1264 1386 1385 1256 1389 1517
8 1387 1265 1397 1519 1258 1141 1269 1391
8 1276 1150 1277 1406 1387 1265 1397 1519
8 1256 1139 1267 1389 1388 1266 1398 1520
8 1264 1147 1274 1396 1389 1267 1399 1521
8 1392 1270 1143 1260 1522 1400 1268 1390
8 1390 1268 1142 1259 1522 1400 1269 1391
8 1392 1270 1401 1523 1260 1143 1271 1393
8 1272 1394 1524 1402 1145 1262 1393 1271
8 1395 1273 1146 1263 1524 1402 1272 1394
8 1273 1395 1264 1147 1403 1526 1396 1274
8 1405 1276 1160 1282 1534 1406 1286 1411
8 1414 1287 1407 1535 1286 1162 1277 1406
8 1279 1159 1283 1408 1409 1285 1412 1537
8 1418 1292 1412 1537 1290 1165 1283 1408
8 1280 1158 1285 1409 1410 1284 1413 1538
8 1410 1284 1413 1538 1282 1160 1286 1411
8 1285 1163 1289 1412 1413 1288 1417 1540
8 1421 1296 1417 1540 1292 1167 1289 1412
8 1414 1287 1162 1286 1541 1416 1288 1413
8 1420 1294 1421 1545 1291 1166 1292 1418
8 1419 1293 1172 1305 1546 1422 1303 1437
8 1420 1294 1166 1291 1547 1423 1293 1419
8 1294 1169 1297 1423 1421 1296 1425 1548
8 1423 1297 1168 1293 1549 1424 1295 1422
8 1301 1170 1298 1427 1422 1295 1424 1549
8 1432 1300 1428 1554 1301 1170 1298 1427
8 1431 1299 1428 1554 1560 1430 1300 1432
8 1563 1433 1300 1432 1435 1302 1170 1301
8 1546 1422 1303 1437 1434 1301 1435 1565
8 1303 1171 1304 1438 1435 1302 1436 1566
8 1305 1172 1306 1440 1437 1303 1438 1568
8 1306 1173 1307 1441 1438 1304 1439 1569
8 1308 1175 1309 1443 1440 1306 1441 1571
8 1309 1176 1310 1444 1441 1307 1442 1572
8 1311 1178 1312 1446 1443 1309 1444 1574
8 1179 1312 1444 1310 1313 1447 1575 1445
8 1314 1181 1315 1448 1446 1312 1447 1576
8 1350 1213 1349 1486 1451 1317 1449 1579
8 1451 1317 1450 1581 1319 1186 1318 1453
8 1454 1319 1214 1351 1582 1451 1350 1487
8 1453 1318 1452 1584 1321 1187 1320 1456
8 1454 1319 1453 1585 1344 1208 1321 1457
8 1456 1320 1455 1586 1323 1189 1324 1459
8 1457 1321 1456 1587 1322 1188 1323 1458
8 1458 1323 1459 1588 1325 1191 1326 1460
8 1205 1336 1464 1329 1328 1462 1590 1461
8 1507 1373 1461 1590 1374 1242 1328 1462
8 1508 1374 1462 1591 1375 1243 1335 1467
8 1337 1206 1329 1464 1473 1341 1463 1594
8 1375 1243 1335 1467 1465 1333 1470 1596
8 1465 1333 1470 1596 1331 1200 1334 1466
8 1352 1227 1334 1466 1488 1360 1470 1596
8 1591 1462 1336 1468 1467 1335 1471 1597
8 1469 1337 1472 1598 1595 1464 1336 1468
8 1471 1339 1474 1600 1335 1204 1338 1470
8 1600 1474 1367 1496 1470 1338 1235 1360
8 1336 1205 1340 1472 1471 1339 1475 1601
8 1337 1206 1341 1473 1472 1340 1476 1602
8 1495 1370 1478 1609 1361 1239 1342 1479
8 1348 1212 1342 1479 1483 1347 1478 1609
8 1481 1346 1479 1610 1345 1210 1343 1480
8 1481 1346 1228 1359 1610 1479 1361 1494
8 1484 1348 1214 1351 1610 1479 1343 1480
8 1483 1347 1482 1612 1350 1213 1349 1486
8 1484 1348 1483 1613 1351 1214 1350 1487
8 1353 1230 1360 1488 1489 1363 1496 1616
8 1490 1364 1231 1354 1617 1499 1363 1489
8 1490 1364 1499 1617 1355 1232 1365 1491
8 1356 1234 1365 1491 1492 1366 1500 1619
8 1492 1366 1498 1620 1357 1233 1362 1493
8 1494 1361 1228 1359 1621 1497 1362 1493
8 1495 1370 1239 1361 1622 1504 1371 1497
8 1363 1236 1367 1496 1499 1368 1501 1623
8 1497 1371 1240 1362 1624 1505 1372 1498
8 1625 1503 1372 1498 1500 1369 1241 1366
8 1365 1238 1368 1499 1500 1369 1502 1626
8 1520 1398 1506 1633 1388 1266 1373 1507
8 1634 1507 1374 1508 1512 1388 1255 1380
8 1509 1387 1519 1635 1377 1258 1391 1510
8 1405 1276 1406 1534 1509 1387 1519 1635
8 1515 1392 1260 1383 1636 1522 1390 1511
8 1511 1390 1259 1379 1636 1522 1391 1510
8 1385 1256 1389 1517 1512 1388 1520 1637
8 1513 1394 1262 1382 1638 1524 1393 1514
8 1395 1516 1638 1524 1263 1384 1513 1394
8 1515 1392 1523 1639 1383 1260 1393 1514
8 1516 1395 1526 1640 1386 1264 1396 1518
8 1386 1264 1396 1518 1517 1389 1521 1641
8 1519 1397 1527 1643 1391 1269 1400 1522
8 1535 1407 1527 1643 1406 1277 1397 1519
8 1389 1267 1399 1521 1520 1398 1528 1644
8 1645 1529 1399 1521 1525 1404 1274 1396
8 1392 1270 1400 1522 1523 1401 1531 1646
8 1524 1402 1271 1393 1648 1532 1401 1523
8 1403 1526 1648 1532 1273 1395 1524 1402
8 1525 1404 1274 1396 1649 1533 1403 1526
8 1539 1414 1535 1657 1411 1286 1406 1534
8 1542 1415 1536 1658 1414 1287 1407 1535
8 1409 1285 1412 1537 1538 1413 1540 1660
8 1545 1421 1540 1660 1418 1292 1412 1537
8 1539 1414 1286 1411 1661 1541 1413 1538
8 1540 1417 1544 1663 1413 1288 1416 1541
8 1421 1296 1425 1548 1540 1417 1544 1663
8 1542 1415 1287 1414 1664 1543 1416 1541
8 1420 1294 1423 1547 1545 1421 1548 1666
8 1547 1423 1293 1419 1667 1549 1422 1546
8 1434 1301 1427 1553 1546 1422 1549 1667
8 1423 1297 1424 1549 1548 1425 1550 1668
8 1551 1426 1550 1668 1427 1298 1424 1549
8 1551 1426 1298 1427 1671 1552 1428 1554
8 1562 1432 1554 1674 1434 1301 1427 1553
8 1431 1299 1429 1558 1554 1428 1555 1675
8 1431 1299 1430 1560 1558 1429 1557 1680
8 1560 1430 1300 1432 1683 1559 1433 1563
8 1561 1431 1554 1674 1684 1560 1432 1562
8 1685 1563 1432 1562 1565 1435 1301 1434
8 1435 1302 1436 1566 1563 1433 1564 1686
8 1437 1303 1438 1568 1565 1435 1566 1688
8 1438 1304 1439 1569 1566 1436 1567 1689
8 1440 1306 1441 1571 1568 1438 1569 1691
8 1441 1307 1442 1572 1569 1439 1570 1692
8 1443 1309 1444 1574 1571 1441 1572 1694
8 1310 1444 1572 1442 1445 1575 1695 1573
8 1446 1312 1447 1576 1574 1444 1575 1696
8 1486 1349 1485 1614 1579 1449 1577 1699
8 1451 1317 1449 1579 1581 1450 1578 1701
8 1487 1350 1486 1615 1582 1451 1579 1702
8 1581 1450 1580 1704 1453 1318 1452 1584
8 1582 1451 1581 1705 1454 1319 1453 1585
8 1584 1452 1583 1706 1456 1320 1455 1586
8 1585 1453 1584 1707 1457 1321 1456 1587
8 1587 1456 1586 1708 1458 1323 1459 1588
8 1633 1506 1589 1710 1507 1373 1461 1590
8 1464 1329 1461 1590 1594 1463 1589 1710
8 1468 1336 1462 1591 1595 1464 1590 1711
8 1634 1507 1590 1711 1508 1374 1462 1591
8 1473 1341 1463 1594 1603 1477 1593 1716
8 1469 1337 1464 1595 1599 1473 1594 1717
8 1471 1597 1467 1335 1600 1718 1596 1470
8 1718 1600 1496 1616 1596 1470 1360 1488
8 1336 1468 1597 1471 1472 1598 1719 1601
8 1469 1337 1473 1599 1598 1472 1602 1720
8 1722 1604 1501 1623 1600 1474 1367 1496
8 1475 1601 1471 1339 1604 1722 1600 1474
8 1602 1476 1605 1723 1472 1340 1475 1601
8 1476 1602 1724 1606 1341 1473 1603 1477
8 1483 1347 1478 1609 1612 1482 1608 1731
8 1495 1370 1504 1622 1609 1478 1608 1731
8 1618 1495 1609 1732 1494 1361 1479 1610
8 1484 1348 1479 1610 1613 1483 1609 1732
8 1486 1349 1482 1612 1614 1485 1611 1733
8 1613 1483 1612 1734 1487 1350 1486 1615
8 1489 1363 1496 1616 1617 1499 1623 1736
8 1491 1365 1499 1617 1619 1500 1626 1737
8 1618 1495 1361 1494 1738 1622 1497 1621
8 1739 1625 1498 1620 1619 1500 1366 1492
8 1621 1497 1362 1493 1740 1624 1498 1620
8 1742 1631 1504 1622 1624 1505 1371 1497
8 1743 1628 1502 1626 1623 1501 1368 1499
8 1744 1630 1505 1624 1625 1503 1372 1498
8 1745 1629 1503 1625 1626 1502 1369 1500
8 1520 1398 1528 1644 1633 1506 1632 1751
8 1637 1520 1633 1752 1512 1388 1507 1634
8 1635 1519 1643 1753 1510 1391 1522 1636
8 1657 1535 1643 1753 1534 1406 1519 1635
8 1515 1392 1522 1636 1639 1523 1646 1754
8 1517 1389 1521 1641 1637 1520 1644 1755
8 1524 1638 1756 1648 1393 1514 1639 1523
8 1640 1526 1395 1516 1756 1648 1524 1638
8 1642 1525 1396 1518 1757 1649 1526 1640
8 1758 1645 1521 1641 1642 1525 1396 1518
8 1646 1531 1400 1522 1760 1650 1527 1643
8 1535 1407 1536 1658 1643 1527 1650 1760
8 1521 1399 1529 1645 1644 1528 1651 1761
8 1647 1530 1652 1762 1525 1404 1529 1645
8 1401 1523 1648 1532 1531 1646 1763 1655
8 1525 1404 1533 1649 1647 1530 1654 1765
8 1533 1649 1766 1656 1403 1526 1648 1532
8 1662 1542 1658 1774 1539 1414 1535 1657
8 1542 1415 1543 1664 1658 1536 1659 1775
8 1660 1540 1663 1777 1538 1413 1541 1661
8 1545 1421 1548 1666 1660 1540 1663 1777
8 1662 1542 1414 1539 1778 1664 1541 1661
8 1664 1543 1416 1541 1779 1665 1544 1663
8 1548 1425 1550 1668 1663 1544 1665 1779
8 1547 1423 1549 1667 1666 1548 1668 1781
8 1670 1551 1668 1781 1553 1427 1549 1667
8 1551 1426 1552 1671 1668 1550 1669 1782
8 1670 1551 1427 1553 1784 1671 1554 1674
8 1675 1555 1672 1785 1554 1428 1552 1671
8 1678 1556 1673 1789 1558 1429 1555 1675
8 1561 1431 1558 1681 1674 1554 1675 1790
8 1794 1677 1556 1678 1680 1557 1429 1558
8 1560 1430 1559 1683 1680 1557 1679 1797
8 1561 1431 1560 1684 1681 1558 1680 1798
8 1563 1433 1564 1686 1683 1559 1682 1800
8 1684 1560 1432 1562 1801 1683 1563 1685
8 1565 1435 1566 1688 1685 1563 1686 1802
8 1566 1436 1567 1689 1686 1564 1687 1803
8 1568 1438 1569 1691 1688 1566 1689 1805
8 1569 1439 1570 1692 1689 1567 1690 1806
8 1571 1441 1572 1694 1691 1569 1692 1808
8 1442 1572 1692 1570 1573 1695 1809 1693
8 1574 1444 1575 1696 1694 1572 1695 1810
8 1614 1485 1592 1712 1699 1577 1697 1813
8 1579 1449 1577 1699 1701 1578 1698 1815
8 1615 1486 1614 1735 1702 1579 1699 1816
8 1701 1578 1700 1818 1581 1450 1580 1704
8 1582 1451 1579 1702 1705 1581 1701 1819
8 1704 1580 1703 1820 1584 1452 1583 1706
8 1705 1581 1704 1821 1585 1453 1584 1707
8 1707 1584 1706 1822 1587 1456 1586 1708
8 1710 1589 1506 1633 1824 1709 1632 1751
8 1594 1463 1589 1710 1716 1593 1709 1824
8 1752 1633 1710 1825 1634 1507 1590 1711
8 1595 1464 1590 1711 1717 1594 1710 1825
8 1830 1714 1592 1712 1733 1611 1485 1614
8 1603 1477 1593 1716 1725 1607 1715 1834
8 1599 1473 1594 1717 1721 1603 1716 1835
8 1837 1722 1623 1736 1718 1600 1496 1616
8 1719 1601 1722 1837 1597 1471 1600 1718
8 1602 1720 1598 1472 1723 1838 1719 1601
8 1720 1602 1473 1599 1839 1724 1603 1721
8 1723 1605 1726 1840 1601 1475 1604 1722
8 1840 1726 1628 1743 1722 1604 1501 1623
8 1724 1606 1727 1841 1602 1476 1605 1723
8 1725 1607 1728 1842 1603 1477 1606 1724
8 1612 1482 1608 1731 1733 1611 1730 1849
8 1741 1627 1730 1849 1622 1504 1608 1731
8 1613 1483 1609 1732 1734 1612 1731 1850
8 1618 1495 1622 1738 1732 1609 1731 1850
8 1615 1486 1612 1734 1735 1614 1733 1851
8 1852 1743 1626 1737 1736 1623 1499 1617
8 1853 1745 1625 1739 1737 1626 1500 1619
8 1855 1742 1622 1738 1740 1624 1497 1621
8 1856 1744 1624 1740 1739 1625 1498 1620
8 1741 1627 1504 1622 1857 1746 1631 1742
8 1742 1631 1505 1624 1858 1749 1630 1744
8 1859 1747 1629 1745 1743 1628 1502 1626
8 1860 1748 1630 1744 1745 1629 1503 1625
8 1644 1528 1651 1761 1751 1632 1750 1865
8 1637 1520 1644 1755 1752 1633 1751 1866
8 1754 1646 1522 1636 1867 1760 1643 1753
8 1657 1535 1658 1774 1753 1643 1760 1867
8 1639 1523 1646 1754 1756 1648 1763 1868
8 1641 1521 1645 1758 1755 1644 1761 1869
8 1757 1649 1526 1640 1870 1766 1648 1756
8 1642 1525 1649 1757 1759 1647 1765 1871
8 1759 1647 1762 1872 1642 1525 1645 1758
8 1760 1650 1767 1874 1646 1531 1655 1763
8 1658 1536 1659 1775 1760 1650 1767 1874
8 1762 1652 1768 1875 1645 1529 1651 1761
8 1764 1653 1769 1876 1647 1530 1652 1762
8 1656 1766 1877 1773 1532 1648 1763 1655
8 1771 1879 1765 1654 1653 1764 1647 1530
8 1533 1649 1765 1654 1656 1766 1880 1772
8 1662 1542 1664 1778 1774 1658 1775 1887
8 1664 1543 1665 1779 1775 1659 1776 1888
8 1778 1664 1541 1661 1890 1779 1663 1777
8 1666 1548 1668 1781 1777 1663 1779 1890
8 1782 1669 1780 1891 1668 1550 1665 1779
8 1670 1551 1671 1784 1781 1668 1782 1893
8 1671 1552 1672 1785 1782 1669 1783 1894
8 1790 1675 1785 1896 1674 1554 1671 1784
8 1675 1555 1673 1789 1785 1672 1786 1897
8 1792 1676 1788 1903 1678 1556 1673 1789
8 1795 1678 1789 1904 1681 1558 1675 1790
8 1792 1676 1556 1678 1906 1791 1677 1794
8 1680 1557 1679 1797 1794 1677 1793 1909
8 1910 1794 1678 1795 1798 1680 1558 1681
8 1683 1559 1682 1800 1797 1679 1796 1912
8 1684 1560 1683 1801 1798 1680 1797 1913
8 1686 1564 1687 1803 1800 1682 1799 1915
8 1685 1563 1686 1802 1801 1683 1800 1916
8 1688 1566 1689 1805 1802 1686 1803 1917
8 1689 1567 1690 1806 1803 1687 1804 1918
8 1691 1569 1692 1808 1805 1689 1806 1920
8 1692 1570 1693 1809 1806 1690 1807 1921
8 1694 1572 1695 1810 1808 1692 1809 1922
8 1829 1713 1811 1926 1712 1592 1697 1813
8 1813 1697 1812 1928 1699 1577 1698 1815
8 1735 1614 1712 1828 1816 1699 1813 1929
8 1815 1698 1814 1931 1701 1578 1700 1818
8 1702 1579 1699 1816 1819 1701 1815 1932
8 1818 1700 1817 1933 1704 1580 1703 1820
8 1819 1701 1818 1934 1705 1581 1704 1821
8 1821 1704 1820 1935 1707 1584 1706 1822
8 1824 1709 1632 1751 1937 1823 1750 1865
8 1716 1593 1709 1824 1834 1715 1823 1937
8 1825 1710 1633 1752 1938 1824 1751 1866
8 1717 1594 1710 1825 1835 1716 1824 1938
8 1945 1830 1712 1828 1851 1733 1614 1735
8 1830 1714 1831 1946 1712 1592 1713 1829
8 1947 1832 1714 1830 1849 1730 1611 1733
8 1843 1729 1607 1725 1950 1833 1715 1834
8 1721 1603 1716 1835 1836 1725 1834 1951
8 1836 1725 1842 1953 1721 1603 1724 1839
8 1723 1838 1719 1601 1840 1954 1837 1722
8 1954 1840 1743 1852 1837 1722 1623 1736
8 1724 1839 1720 1602 1841 1955 1838 1723
8 1841 1727 1844 1956 1723 1605 1726 1840
8 1956 1844 1747 1859 1840 1726 1628 1743
8 1728 1842 1724 1606 1845 1957 1841 1727
8 1725 1607 1729 1843 1842 1728 1846 1958
8 1741 1627 1746 1857 1849 1730 1848 1965
8 1734 1612 1731 1850 1851 1733 1849 1966
8 1854 1741 1849 1966 1738 1622 1731 1850
8 1967 1859 1745 1853 1852 1743 1626 1737
8 1968 1860 1744 1856 1853 1745 1625 1739
8 1854 1741 1622 1738 1969 1857 1742 1855
8 1855 1742 1624 1740 1970 1858 1744 1856
8 1857 1746 1631 1742 1971 1861 1749 1858
8 1858 1749 1630 1744 1972 1863 1748 1860
8 1859 1747 1862 1973 1745 1629 1748 1860
8 1875 1768 1864 1977 1761 1651 1750 1865
8 1755 1644 1761 1869 1866 1751 1865 1978
8 1867 1760 1874 1979 1754 1646 1763 1868
8 1774 1658 1775 1887 1867 1760 1874 1979
8 1870 1766 1648 1756 1980 1877 1763 1868
8 1872 1762 1875 1981 1758 1645 1761 1869
8 1757 1649 1766 1870 1871 1765 1880 1982
8 1983 1879 1764 1873 1871 1765 1647 1759
8 1873 1764 1876 1984 1759 1647 1762 1872
8 1877 1773 1655 1763 1986 1881 1767 1874
8 1775 1659 1776 1888 1874 1767 1881 1986
8 1876 1769 1882 1987 1762 1652 1768 1875
8 1878 1770 1883 1988 1764 1653 1769 1876
8 1880 1772 1656 1766 1989 1886 1773 1877
8 1878 1770 1653 1764 1990 1884 1771 1879
8 1765 1654 1772 1880 1879 1771 1885 1991
8 1778 1664 1779 1890 1887 1775 1888 1997
8 1998 1889 1776 1888 1891 1780 1665 1779
8 1893 1782 1891 2000 1781 1668 1779 1890
8 1894 1783 1892 2001 1782 1669 1780 1891
8 1784 1671 1785 1896 1893 1782 1894 2003
8 1897 1786 1895 2004 1785 1672 1783 1894
8 1790 1675 1789 1904 1896 1785 1897 2006
8 1901 1787 1898 2007 1789 1673 1786 1897
8 1903 1788 1900 2013 1789 1673 1787 1901
8 1792 1676 1791 1906 1903 1788 1902 2016
8 1907 1792 1903 2017 1795 1678 1789 1904
8 1906 1791 1677 1794 2019 1905 1793 1909
8 1907 1792 1678 1795 2020 1906 1794 1910
8 1797 1679 1796 1912 1909 1793 1908 2022
8 1798 1680 1797 1913 1910 1794 1909 2023
8 1800 1682 1799 1915 1912 1796 1911 2025
8 1801 1683 1800 1916 1913 1797 1912 2026
8 1803 1687 1804 1918 1915 1799 1914 2028
8 1802 1686 1803 1917 1916 1800 1915 2029
8 1805 1689 1806 1920 1917 1803 1918 2030
8 1806 1690 1807 1921 1918 1804 1919 2031
8 1808 1692 1809 1922 1920 1806 1921 2032
8 1939 1826 1924 2037 1829 1713 1811 1926
8 1926 1811 1925 2039 1813 1697 1812 1928
8 1944 1829 1926 2040 1828 1712 1813 1929
8 1928 1812 1927 2042 1815 1698 1814 1931
8 1929 1813 1928 2043 1816 1699 1815 1932
8 1931 1814 1930 2044 1818 1700 1817 1933
8 1932 1815 1931 2045 1819 1701 1818 1934
8 1934 1818 1933 2046 1821 1704 1820 1935
8 2048 1936 1823 1937 1977 1864 1750 1865
8 1950 1833 1715 1834 2048 1936 1823 1937
8 1938 1824 1751 1866 2049 1937 1865 1978
8 1835 1716 1824 1938 1951 1834 1937 2049
8 1939 1826 1713 1829 2053 1942 1831 1946
8 1940 1827 1923 2035 2053 1942 1826 1939
8 1945 1830 1946 2058 1828 1712 1829 1944
8 2059 1947 1830 1945 1966 1849 1733 1851
8 1947 1832 1730 1849 2060 1948 1848 1965
8 1947 1832 1948 2060 1830 1714 1831 1946
8 1959 1847 1729 1843 2063 1949 1833 1950
8 1952 1843 1725 1836 2064 1950 1834 1951
8 1836 1725 1843 1952 1953 1842 1958 2066
8 1953 1842 1957 2067 1839 1724 1841 1955
8 1841 1955 1838 1723 1956 2068 1954 1840
8 2068 1956 1859 1967 1954 1840 1743 1852
8 1956 1844 1960 2069 1859 1747 1862 1973
8 1845 1957 1841 1727 1960 2069 1956 1844
8 1728 1842 1957 1845 1846 1958 2071 1961
8 1962 2072 1959 1847 1846 1958 1843 1729
8 1971 1861 1964 2077 1857 1746 1848 1965
8 1854 1741 1857 1969 1966 1849 1965 2078
8 1967 1859 1973 2079 1853 1745 1860 1968
8 1970 1858 1744 1856 2080 1972 1860 1968
8 1969 1857 1742 1855 2081 1971 1858 1970
8 1971 1861 1749 1858 2082 1974 1863 1972
8 1973 1862 1975 2083 1860 1748 1863 1972
8 1987 1882 1976 2086 1875 1768 1864 1977
8 1981 1875 1977 2087 1869 1761 1865 1978
8 1980 1877 1763 1868 2088 1986 1874 1979
8 1887 1775 1888 1997 1979 1874 1986 2088
8 1880 1982 2089 1989 1766 1870 1980 1877
8 1984 1876 1987 2090 1872 1762 1875 1981
8 1765 1871 1983 1879 1880 1982 2091 1991
8 1985 1878 1764 1873 2092 1990 1879 1983
8 1985 1878 1988 2093 1873 1764 1876 1984
8 2094 1992 1881 1986 1998 1889 1776 1888
8 1986 1881 1992 2094 1877 1773 1886 1989
8 1988 1883 1993 2095 1876 1769 1882 1987
8 1878 1770 1884 1990 1988 1883 1994 2096
8 1991 1885 1772 1880 2097 1996 1886 1989
8 1879 1771 1885 1991 1990 1884 1995 2098
8 2103 1998 1888 1997 2000 1891 1779 1890
8 2104 1999 1889 1998 2001 1892 1780 1891
8 2003 1894 2001 2106 1893 1782 1891 2000
8 2004 1895 2002 2107 1894 1783 1892 2001
8 2006 1897 2004 2109 1896 1785 1894 2003
8 2007 1898 2005 2110 1897 1786 1895 2004
8 2014 1901 2007 2112 1904 1789 1897 2006
8 2011 1899 2008 2113 1901 1787 1898 2007
8 2119 2010 1899 2011 2013 1900 1787 1901
8 2016 1902 2012 2122 1903 1788 1900 2013
8 2017 1903 2013 2123 1904 1789 1901 2014
8 1906 1791 1905 2019 2016 1902 2015 2125
8 1907 1792 1906 2020 2017 1903 2016 2126
8 1909 1793 1908 2022 2019 1905 2018 2128
8 2020 1906 1794 1910 2129 2019 1909 2023
8 1912 1796 1911 2025 2022 1908 2021 2131
8 1913 1797 1912 2026 2023 1909 2022 2132
8 1915 1799 1914 2028 2025 1911 2024 2134
8 1916 1800 1915 2029 2026 1912 2025 2135
8 1918 1804 1919 2031 2028 1914 2027 2136
8 1917 1803 1918 2030 2029 1915 2028 2137
8 1920 1806 1921 2032 2030 1918 2031 2138
8 1940 1827 1941 2054 2035 1923 2033 2140
8 2035 1923 2034 2143 1939 1826 1924 2037
8 2037 1924 2036 2146 1926 1811 1925 2039
8 2051 1939 2037 2147 1944 1829 1926 2040
8 2039 1925 2038 2149 1928 1812 1927 2042
8 2040 1926 2039 2150 1929 1813 1928 2043
8 2042 1927 2041 2151 1931 1814 1930 2044
8 2043 1928 2042 2152 1932 1815 1931 2045
8 2045 1931 2044 2153 1934 1818 1933 2046
8 2155 2047 1936 2048 2086 1976 1864 1977
8 2063 1949 1833 1950 2155 2047 1936 2048
8 2156 2048 1937 2049 2087 1977 1865 1978
8 2064 1950 1834 1951 2156 2048 1937 2049
8 2051 1939 1829 1944 2160 2053 1946 2058
8 2052 1940 2035 2144 2160 2053 1939 2051
8 2053 1942 1831 1946 2163 2057 1948 2060
8 2055 1943 1827 1940 2163 2057 1942 2053
8 2055 1943 2056 2164 1940 1827 1941 2054
8 2059 1947 1849 1966 2167 2060 1965 2078
8 2059 1947 2060 2167 1945 1830 1946 2058
8 2077 1964 2061 2168 1965 1848 1948 2060
8 2070 1963 1847 1959 2170 2062 1949 2063
8 2065 1959 1843 1952 2171 2063 1950 2064
8 2173 2072 1958 2066 2065 1959 1843 1952
8 1953 1842 1958 2066 2067 1957 2071 2174
8 2068 1956 2069 2175 1967 1859 1973 2079
8 2067 1957 2069 2175 1955 1841 1956 2068
8 1845 1957 2069 1960 1961 2071 2176 2073
8 2069 1960 2073 2176 1973 1862 1975 2083
8 2070 1963 2075 2177 1959 1847 1962 2072
8 1846 1958 2071 1961 1962 2072 2178 2074
8 2077 1964 1861 1971 2182 2076 1974 2082
8 2081 1971 2077 2183 1969 1857 1965 2078
8 2079 1973 2083 2184 1968 1860 1972 2080
8 2081 1971 1858 1970 2185 2082 1972 2080
8 2083 1975 2084 2186 1972 1863 1974 2082
8 2086 1976 1882 1987 2189 2085 1993 2095
8 2090 1987 2086 2190 1981 1875 1977 2087
8 2191 2094 1986 2088 2103 1998 1888 1997
8 2088 1986 2094 2191 1980 1877 1989 2089
8 1991 2091 2192 2097 1880 1982 2089 1989
8 2093 1988 2095 2193 1984 1876 1987 2090
8 1879 1983 2092 1990 1991 2091 2194 2098
8 1985 1878 1990 2092 2093 1988 2096 2195
8 2097 1996 1886 1989 2196 2099 1992 2094
8 2196 2099 1992 2094 2104 1999 1889 1998
8 1994 2096 1988 1883 2100 2197 2095 1993
8 2096 1994 1884 1990 2198 2101 1995 2098
8 1995 2098 2199 2102 1885 1991 2097 1996
8 2203 2104 1998 2103 2106 2001 1891 2000
8 2107 2002 2105 2204 2001 1892 1999 2104
8 2109 2004 2107 2206 2003 1894 2001 2106
8 2110 2005 2108 2207 2004 1895 2002 2107
8 2112 2007 2110 2209 2006 1897 2004 2109
8 2113 2008 2111 2210 2007 1898 2005 2110
8 2120 2011 2113 2212 2014 1901 2007 2112
8 2117 2009 2114 2213 2011 1899 2008 2113
8 2219 2116 2009 2117 2119 2010 1899 2011
8 2222 2118 2010 2119 2122 2012 1900 2013
8 2223 2119 2011 2120 2123 2013 1901 2014
8 2016 1902 2015 2125 2122 2012 2121 2225
8 2126 2016 2122 2226 2017 1903 2013 2123
8 2019 1905 2018 2128 2125 2015 2124 2228
8 2020 1906 2019 2129 2126 2016 2125 2229
8 2022 1908 2021 2131 2128 2018 2127 2231
8 2023 1909 2022 2132 2129 2019 2128 2232
8 2025 1911 2024 2134 2131 2021 2130 2234
8 2026 1912 2025 2135 2132 2022 2131 2235
8 1914 2028 2134 2024 2027 2136 2236 2133
8 2029 1915 2028 2137 2135 2025 2134 2237
8 2030 1918 2031 2138 2137 2028 2136 2238
8 2157 2050 2139 2240 2054 1941 2033 2140
8 2052 1940 2054 2161 2144 2035 2140 2242
8 2140 2033 2141 2243 2035 1923 2034 2143
8 2143 2034 2142 2246 2037 1924 2036 2146
8 2144 2035 2143 2247 2051 1939 2037 2147
8 2146 2036 2145 2249 2039 1925 2038 2149
8 2147 2037 2146 2250 2040 1926 2039 2150
8 2149 2038 2148 2251 2042 1927 2041 2151
8 2150 2039 2149 2252 2043 1928 2042 2152
8 2152 2042 2151 2253 2045 1931 2044 2153
8 2255 2154 2047 2155 2189 2085 1976 2086
8 2170 2062 1949 2063 2255 2154 2047 2155
8 2256 2155 2048 2156 2190 2086 1977 2087
8 2171 2063 1950 2064 2256 2155 2048 2156
8 2258 2159 2050 2157 2164 2056 1941 2054
8 2160 2053 1946 2058 2262 2163 2060 2167
8 2162 2055 1940 2052 2262 2163 2053 2160
8 2162 2055 2164 2263 2052 1940 2054 2161
8 2163 2057 1948 2060 2264 2165 2061 2168
8 2055 1943 2057 2163 2164 2056 2165 2264
8 2182 2076 2166 2268 2077 1964 2061 2168
8 2183 2077 2168 2269 2078 1965 2060 2167
8 2070 1963 2062 2170 2177 2075 2169 2271
8 2172 2070 1959 2065 2272 2170 2063 2171
8 2172 2070 2177 2273 2065 1959 2072 2173
8 2066 1958 2072 2173 2174 2071 2178 2274
8 2067 1957 2071 2174 2175 2069 2176 2275
8 2175 2069 2176 2275 2079 1973 2083 2184
8 2071 1961 2074 2178 2176 2073 2179 2276
8 2176 2073 2179 2276 2083 1975 2084 2186
8 2072 1962 2075 2177 2178 2074 2180 2277
8 2182 2076 1974 2082 2280 2181 2084 2186
8 2183 2077 1971 2081 2281 2182 2082 2185
8 2184 2083 2186 2282 2080 1972 2082 2185
8 2189 2085 1993 2095 2285 2188 2100 2197
8 2190 2086 1987 2090 2286 2189 2095 2193
8 2192 2097 1989 2089 2287 2196 2094 2191
8 2287 2196 2094 2191 2203 2104 1998 2103
8 2194 2098 1991 2091 2288 2199 2097 2192
8 2195 2096 2197 2289 2093 1988 2095 2193
8 2096 2195 2290 2198 1990 2092 2194 2098
8 2097 1996 2099 2196 2199 2102 2200 2291
8 2196 2099 1999 2104 2291 2200 2105 2204
8 2100 2197 2292 2201 1994 2096 2198 2101
8 1995 2098 2198 2101 2102 2199 2293 2202
8 2206 2107 2204 2296 2106 2001 2104 2203
8 2207 2108 2205 2297 2107 2002 2105 2204
8 2209 2110 2207 2299 2109 2004 2107 2206
8 2210 2111 2208 2300 2110 2005 2108 2207
8 2212 2113 2210 2302 2112 2007 2110 2209
8 2213 2114 2211 2303 2113 2008 2111 2210
8 2220 2117 2213 2305 2120 2011 2113 2212
8 2216 2115 2214 2306 2117 2009 2114 2213
8 2216 2115 2009 2117 2311 2217 2116 2219
8 2219 2116 2010 2119 2314 2218 2118 2222
8 2315 2219 2117 2220 2223 2119 2011 2120
8 2122 2012 2121 2225 2222 2118 2221 2317
8 2318 2222 2119 2223 2226 2122 2013 2123
8 2125 2015 2124 2228 2225 2121 2224 2320
8 2126 2016 2125 2229 2226 2122 2225 2321
8 2128 2018 2127 2231 2228 2124 2227 2323
8 2129 2019 2128 2232 2229 2125 2228 2324
8 2131 2021 2130 2234 2231 2127 2230 2326
8 2132 2022 2131 2235 2232 2128 2231 2327
8 2134 2024 2133 2236 2234 2130 2233 2328
8 2135 2025 2134 2237 2235 2131 2234 2329
8 2137 2028 2136 2238 2237 2134 2236 2330
8 2157 2050 2158 2259 2240 2139 2239 2332
8 2257 2157 2240 2334 2161 2054 2140 2242
8 2240 2139 2241 2335 2140 2033 2141 2243
8 2242 2140 2243 2337 2144 2035 2143 2247
8 2243 2141 2244 2338 2143 2034 2142 2246
8 2246 2142 2245 2341 2146 2036 2145 2249
8 2247 2143 2246 2342 2147 2037 2146 2250
8 2249 2145 2248 2343 2149 2038 2148 2251
8 2250 2146 2249 2344 2150 2039 2149 2252
8 2252 2149 2251 2345 2152 2042 2151 2253
8 2169 2271 2347 2254 2062 2170 2255 2154
8 2189 2085 2188 2285 2255 2154 2254 2347
8 2348 2255 2155 2256 2286 2189 2086 2190
8 2272 2170 2063 2171 2348 2255 2155 2256
8 2349 2258 2157 2257 2263 2164 2054 2161
8 2258 2159 2261 2351 2157 2050 2158 2259
8 2258 2159 2056 2164 2351 2261 2165 2264
8 2262 2163 2060 2167 2355 2264 2168 2269
8 2162 2055 2163 2262 2263 2164 2264 2355
8 2357 2266 2165 2264 2268 2166 2061 2168
8 2268 2166 2076 2182 2361 2267 2181 2280
8 2281 2182 2268 2362 2183 2077 2168 2269
8 2271 2169 2270 2364 2177 2075 2180 2277
8 2172 2070 2170 2272 2273 2177 2271 2365
8 2072 2173 2274 2178 2177 2273 2366 2277
8 2071 2174 2275 2176 2178 2274 2367 2276
8 2275 2176 2276 2367 2184 2083 2186 2282
8 2283 2187 2084 2186 2368 2278 2179 2276
8 2178 2074 2180 2277 2276 2179 2278 2368
8 2283 2187 2279 2370 2186 2084 2181 2280
8 2281 2182 2082 2185 2371 2280 2186 2282
8 2188 2285 2374 2284 2100 2197 2292 2201
8 2286 2189 2095 2193 2375 2285 2197 2289
8 2192 2097 2196 2287 2288 2199 2291 2376
8 2287 2196 2104 2203 2376 2291 2204 2296
8 2194 2098 2199 2288 2290 2198 2293 2377
8 2289 2197 2096 2195 2378 2292 2198 2290
8 2291 2200 2105 2204 2379 2294 2205 2297
8 2199 2102 2200 2291 2293 2202 2294 2379
8 2198 2101 2202 2293 2292 2201 2295 2380
8 2299 2207 2297 2383 2206 2107 2204 2296
8 2300 2208 2298 2384 2207 2108 2205 2297
8 2302 2210 2300 2386 2209 2110 2207 2299
8 2303 2211 2301 2387 2210 2111 2208 2300
8 2305 2213 2303 2389 2212 2113 2210 2302
8 2306 2214 2304 2390 2213 2114 2211 2303
8 2310 2216 2306 2392 2220 2117 2213 2305
8 2308 2215 2307 2393 2216 2115 2214 2306
8 2308 2215 2115 2216 2396 2309 2217 2311
8 2310 2216 2117 2220 2398 2311 2219 2315
8 2311 2217 2116 2219 2399 2312 2218 2314
8 2314 2218 2118 2222 2402 2313 2221 2317
8 2315 2219 2119 2223 2403 2314 2222 2318
8 2225 2121 2224 2320 2317 2221 2316 2405
8 2226 2122 2225 2321 2318 2222 2317 2406
8 2228 2124 2227 2323 2320 2224 2319 2408
8 2229 2125 2228 2324 2321 2225 2320 2409
8 2231 2127 2230 2326 2323 2227 2322 2411
8 2232 2128 2231 2327 2324 2228 2323 2412
8 2234 2130 2233 2328 2326 2230 2325 2413
8 2235 2131 2234 2329 2327 2231 2326 2414
8 2237 2134 2236 2330 2329 2234 2328 2415
8 2259 2158 2260 2352 2332 2239 2331 2417
8 2257 2157 2259 2350 2334 2240 2332 2419
8 2240 2139 2239 2332 2335 2241 2333 2420
8 2334 2240 2335 2422 2242 2140 2243 2337
8 2335 2241 2336 2423 2243 2141 2244 2338
8 2337 2243 2338 2425 2247 2143 2246 2342
8 2338 2244 2339 2426 2246 2142 2245 2341
8 2341 2245 2340 2428 2249 2145 2248 2343
8 2342 2246 2341 2429 2250 2146 2249 2344
8 2344 2249 2343 2430 2252 2149 2251 2345
8 2188 2285 2347 2254 2284 2374 2432 2346
8 2347 2254 2346 2432 2271 2169 2270 2364
8 2365 2271 2170 2272 2433 2347 2255 2348
8 2286 2189 2285 2375 2348 2255 2347 2433
8 2349 2258 2351 2435 2257 2157 2259 2350
8 2349 2258 2164 2263 2435 2351 2264 2355
8 2259 2158 2261 2351 2352 2260 2354 2437
8 2356 2265 2354 2437 2264 2165 2261 2351
8 2441 2357 2264 2355 2362 2268 2168 2269
8 2356 2265 2165 2264 2442 2358 2266 2357
8 2443 2359 2266 2357 2361 2267 2166 2268
8 2370 2279 2360 2446 2280 2181 2267 2361
8 2362 2268 2182 2281 2447 2361 2280 2371
8 2180 2277 2368 2278 2270 2364 2449 2363
8 2271 2365 2273 2177 2364 2450 2366 2277
8 2372 2283 2186 2282 2451 2368 2276 2367
8 2178 2274 2367 2276 2277 2366 2451 2368
8 2283 2187 2278 2368 2370 2279 2369 2452
8 2372 2283 2370 2453 2282 2186 2280 2371
8 2284 2374 2455 2373 2201 2292 2380 2295
8 2375 2285 2197 2289 2456 2374 2292 2378
8 2376 2291 2204 2296 2457 2379 2297 2383
8 2288 2199 2291 2376 2377 2293 2379 2457
8 2198 2290 2378 2292 2293 2377 2458 2380
8 2293 2202 2294 2379 2380 2295 2381 2459
8 2384 2298 2381 2459 2297 2205 2294 2379
8 2386 2300 2384 2463 2299 2207 2297 2383
8 2387 2301 2385 2464 2300 2208 2298 2384
8 2389 2303 2387 2466 2302 2210 2300 2386
8 2390 2304 2388 2467 2303 2211 2301 2387
8 2392 2306 2390 2469 2305 2213 2303 2389
8 2393 2307 2391 2470 2306 2214 2304 2390
8 2395 2308 2393 2472 2310 2216 2306 2392
8 2308 2215 2309 2396 2393 2307 2394 2473
8 2395 2308 2216 2310 2475 2396 2311 2398
8 2396 2309 2217 2311 2476 2397 2312 2399
8 2398 2311 2219 2315 2478 2399 2314 2403
8 2399 2312 2218 2314 2479 2400 2313 2402
8 2317 2221 2316 2405 2402 2313 2401 2482
8 2403 2314 2222 2318 2483 2402 2317 2406
8 2320 2224 2319 2408 2405 2316 2404 2485
8 2321 2225 2320 2409 2406 2317 2405 2486
8 2323 2227 2322 2411 2408 2319 2407 2488
8 2324 2228 2323 2412 2409 2320 2408 2489
8 2326 2230 2325 2413 2411 2322 2410 2490
8 2327 2231 2326 2414 2412 2323 2411 2491
8 2329 2234 2328 2415 2414 2326 2413 2492
8 2417 2331 2260 2352 2494 2416 2353 2438
8 2350 2259 2352 2436 2419 2332 2417 2496
8 2332 2239 2331 2417 2420 2333 2418 2497
8 2334 2240 2332 2419 2422 2335 2420 2499
8 2420 2333 2421 2500 2335 2241 2336 2423
8 2422 2335 2423 2502 2337 2243 2338 2425
8 2423 2336 2424 2503 2338 2244 2339 2426
8 2425 2338 2426 2505 2342 2246 2341 2429
8 2426 2339 2427 2506 2341 2245 2340 2428
8 2429 2341 2428 2507 2344 2249 2343 2430
8 2432 2346 2284 2374 2509 2431 2373 2455
8 2432 2346 2431 2509 2364 2270 2363 2449
8 2375 2285 2374 2456 2433 2347 2432 2510
8 2347 2433 2365 2271 2432 2510 2450 2364
8 2350 2259 2351 2435 2436 2352 2437 2514
8 2440 2356 2437 2514 2355 2264 2351 2435
8 2352 2260 2354 2437 2438 2353 2439 2516
8 2356 2265 2358 2442 2437 2354 2439 2516
8 2440 2356 2264 2355 2518 2442 2357 2441
8 2519 2443 2357 2441 2447 2361 2268 2362
8 2443 2359 2444 2520 2357 2266 2358 2442
8 2443 2359 2267 2361 2520 2444 2360 2446
8 2446 2360 2279 2370 2523 2445 2369 2452
8 2453 2370 2446 2524 2371 2280 2361 2447
8 2449 2363 2448 2525 2368 2278 2369 2452
8 2366 2277 2364 2450 2451 2368 2449 2526
8 2372 2283 2368 2451 2453 2370 2452 2527
8 2455 2373 2295 2380 2529 2454 2382 2460
8 2456 2374 2292 2378 2530 2455 2380 2458
8 2377 2293 2379 2457 2458 2380 2459 2531
8 2463 2384 2459 2531 2383 2297 2379 2457
8 2533 2461 2382 2460 2459 2381 2295 2380
8 2464 2385 2461 2533 2384 2298 2381 2459
8 2466 2387 2464 2537 2386 2300 2384 2463
8 2467 2388 2465 2538 2387 2301 2385 2464
8 2469 2390 2467 2540 2389 2303 2387 2466
8 2470 2391 2468 2541 2390 2304 2388 2467
8 2472 2393 2470 2543 2392 2306 2390 2469
8 2393 2307 2394 2473 2470 2391 2471 2544
8 2395 2308 2396 2475 2472 2393 2473 2546
8 2396 2309 2397 2476 2473 2394 2474 2547
8 2475 2396 2311 2398 2549 2476 2399 2478
8 2476 2397 2312 2399 2550 2477 2400 2479
8 2478 2399 2314 2403 2552 2479 2402 2483
8 2479 2400 2313 2402 2553 2480 2401 2482
8 2405 2316 2404 2485 2482 2401 2481 2556
8 2406 2317 2405 2486 2483 2402 2482 2557
8 2408 2319 2407 2488 2485 2404 2484 2559
8 2409 2320 2408 2489 2486 2405 2485 2560
8 2411 2322 2410 2490 2488 2407 2487 2561
8 2412 2323 2411 2491 2489 2408 2488 2562
8 2414 2326 2413 2492 2491 2411 2490 2563
8 2513 2434 2493 2565 2438 2353 2416 2494
8 2496 2417 2352 2436 2567 2494 2438 2515
8 2494 2416 2495 2568 2417 2331 2418 2497
8 2419 2332 2417 2496 2499 2420 2497 2570
8 2497 2418 2498 2571 2420 2333 2421 2500
8 2499 2420 2500 2573 2422 2335 2423 2502
8 2500 2421 2501 2574 2423 2336 2424 2503
8 2502 2423 2503 2576 2425 2338 2426 2505
8 2503 2424 2504 2577 2426 2339 2427 2506
8 2505 2426 2506 2578 2429 2341 2428 2507
8 2509 2431 2373 2455 2580 2508 2454 2529
8 2509 2431 2508 2580 2449 2363 2448 2525
8 2432 2510 2581 2509 2374 2456 2530 2455
8 2432 2510 2450 2364 2509 2581 2526 2449
8 2583 2511 2434 2513 2516 2439 2353 2438
8 2436 2352 2437 2514 2515 2438 2516 2588
8 2440 2356 2442 2518 2514 2437 2516 2588
8 2442 2358 2444 2520 2516 2439 2517 2589
8 2519 2443 2520 2591 2441 2357 2442 2518
8 2519 2443 2361 2447 2591 2520 2446 2524
8 2446 2360 2445 2523 2520 2444 2521 2592
8 2525 2448 2522 2593 2452 2369 2445 2523
8 2524 2446 2370 2453 2594 2523 2452 2527
8 2526 2449 2525 2595 2451 2368 2452 2527
8 2534 2462 2528 2597 2460 2382 2454 2529
8 2530 2455 2380 2458 2598 2529 2460 2532
8 2599 2533 2460 2532 2531 2459 2380 2458
8 2537 2464 2533 2599 2463 2384 2459 2531
8 2534 2462 2382 2460 2601 2535 2461 2533
8 2538 2465 2535 2601 2464 2385 2461 2533
8 2540 2467 2538 2604 2466 2387 2464 2537
8 2541 2468 2539 2605 2467 2388 2465 2538
8 2543 2470 2541 2607 2469 2390 2467 2540
8 2470 2391 2471 2544 2541 2468 2542 2608
8 2472 2393 2473 2546 2543 2470 2544 2610
8 2473 2394 2474 2547 2544 2471 2545 2611
8 2475 2396 2476 2549 2546 2473 2547 2613
8 2476 2397 2477 2550 2547 2474 2548 2614
8 2549 2476 2399 2478 2616 2550 2479 2552
8 2479 2400 2480 2553 2550 2477 2551 2617
8 2552 2479 2402 2483 2619 2553 2482 2557
8 2482 2401 2481 2556 2553 2480 2554 2620
8 2485 2404 2484 2559 2556 2481 2555 2623
8 2486 2405 2485 2560 2557 2482 2556 2624
8 2488 2407 2487 2561 2559 2484 2558 2625
8 2489 2408 2488 2562 2560 2485 2559 2626
8 2491 2411 2490 2563 2562 2488 2561 2627
8 2513 2434 2512 2585 2565 2493 2564 2630
8 2586 2513 2565 2632 2515 2438 2494 2567
8 2565 2493 2566 2633 2494 2416 2495 2568
8 2567 2494 2568 2635 2496 2417 2497 2570
8 2568 2495 2569 2636 2497 2418 2498 2571
8 2570 2497 2571 2638 2499 2420 2500 2573
8 2571 2498 2572 2639 2500 2421 2501 2574
8 2573 2500 2574 2641 2502 2423 2503 2576
8 2574 2501 2575 2642 2503 2424 2504 2577
8 2576 2503 2577 2643 2505 2426 2506 2578
8 2597 2528 2579 2645 2529 2454 2508 2580
8 2580 2508 2579 2645 2525 2448 2522 2593
8 2581 2509 2455 2530 2646 2580 2529 2598
8 2581 2509 2580 2646 2526 2449 2525 2595
8 2583 2511 2582 2648 2513 2434 2512 2585
8 2583 2511 2439 2516 2648 2582 2517 2589
8 2649 2583 2513 2586 2588 2516 2438 2515
8 2589 2517 2444 2520 2653 2587 2521 2592
8 2518 2442 2520 2591 2588 2516 2589 2654
8 2593 2522 2590 2655 2523 2445 2521 2592
8 2524 2446 2523 2594 2591 2520 2592 2656
8 2595 2525 2593 2657 2527 2452 2523 2594
8 2602 2536 2596 2659 2534 2462 2528 2597
8 2600 2534 2597 2660 2532 2460 2529 2598
8 2600 2534 2460 2532 2661 2601 2533 2599
8 2604 2538 2601 2661 2537 2464 2533 2599
8 2602 2536 2462 2534 2663 2603 2535 2601
8 2601 2535 2465 2538 2663 2603 2539 2605
8 2607 2541 2605 2665 2540 2467 2538 2604
8 2608 2542 2606 2666 2541 2468 2539 2605
8 2543 2470 2544 2610 2607 2541 2608 2668
8 2544 2471 2545 2611 2608 2542 2609 2669
8 2546 2473 2547 2613 2610 2544 2611 2671
8 2547 2474 2548 2614 2611 2545 2612 2672
8 2549 2476 2550 2616 2613 2547 2614 2674
8 2550 2477 2551 2617 2614 2548 2615 2675
8 2552 2479 2553 2619 2616 2550 2617 2677
8 2553 2480 2554 2620 2617 2551 2618 2678
8 2557 2482 2556 2624 2619 2553 2620 2680
8 2556 2481 2555 2623 2620 2554 2621 2681
8 2559 2484 2558 2625 2623 2555 2622 2683
8 2560 2485 2559 2626 2624 2556 2623 2684
8 2562 2488 2561 2627 2626 2559 2625 2685
8 2690 2629 2564 2630 2650 2584 2512 2585
8 2586 2513 2585 2651 2632 2565 2630 2691
8 2630 2564 2631 2692 2565 2493 2566 2633
8 2632 2565 2633 2694 2567 2494 2568 2635
8 2633 2566 2634 2695 2568 2495 2569 2636
8 2635 2568 2636 2697 2570 2497 2571 2638
8 2636 2569 2637 2698 2571 2498 2572 2639
8 2638 2571 2639 2700 2573 2500 2574 2641
8 2639 2572 2640 2701 2574 2501 2575 2642
8 2641 2574 2642 2702 2576 2503 2577 2643
8 2597 2528 2596 2659 2645 2579 2644 2704
8 2645 2579 2644 2704 2593 2522 2590 2655
8 2660 2597 2645 2705 2598 2529 2580 2646
8 2646 2580 2645 2705 2595 2525 2593 2657
8 2650 2584 2512 2585 2707 2647 2582 2648
8 2648 2582 2517 2589 2707 2647 2587 2653
8 2649 2583 2648 2708 2586 2513 2585 2651
8 2649 2583 2516 2588 2708 2648 2589 2654
8 2655 2590 2652 2710 2592 2521 2587 2653
8 2654 2589 2520 2591 2711 2653 2592 2656
8 2657 2593 2655 2712 2594 2523 2592 2656
8 2602 2536 2603 2663 2659 2596 2658 2714
8 2662 2602 2659 2715 2600 2534 2597 2660
8 2662 2602 2534 2600 2717 2663 2601 2661
8 2661 2601 2538 2604 2717 2663 2605 2665
8 2666 2606 2664 2718 2605 2539 2603 2663
8 2668 2608 2666 2720 2607 2541 2605 2665
8 2608 2542 2609 2669 2666 2606 2667 2721
8 2610 2544 2611 2671 2668 2608 2669 2723
8 2611 2545 2612 2672 2669 2609 2670 2724
8 2613 2547 2614 2674 2671 2611 2672 2726
8 2614 2548 2615 2675 2672 2612 2673 2727
8 2616 2550 2617 2677 2674 2614 2675 2729
8 2617 2551 2618 2678 2675 2615 2676 2730
8 2619 2553 2620 2680 2677 2617 2678 2732
8 2620 2554 2621 2681 2678 2618 2679 2733
8 2624 2556 2623 2684 2680 2620 2681 2735
8 2681 2621 2555 2623 2736 2682 2622 2683
8 2626 2559 2625 2685 2684 2623 2683 2737
8 2688 2628 2584 2650 2740 2686 2647 2707
8 2688 2628 2687 2742 2650 2584 2629 2690
8 2690 2629 2689 2745 2630 2564 2631 2692
8 2746 2690 2630 2691 2709 2650 2585 2651
8 2691 2630 2692 2747 2632 2565 2633 2694
8 2692 2631 2693 2748 2633 2566 2634 2695
8 2694 2633 2695 2750 2635 2568 2636 2697
8 2695 2634 2696 2751 2636 2569 2637 2698
8 2697 2636 2698 2753 2638 2571 2639 2700
8 2698 2637 2699 2754 2639 2572 2640 2701
8 2700 2639 2701 2755 2641 2574 2642 2702
8 2659 2596 2658 2714 2704 2644 2703 2757
8 2704 2644 2703 2757 2655 2590 2652 2710
8 2660 2597 2659 2715 2705 2645 2704 2758
8 2705 2645 2704 2758 2657 2593 2655 2712
8 2759 2706 2647 2707 2710 2652 2587 2653
8 2709 2650 2585 2651 2760 2707 2648 2708
8 2708 2648 2589 2654 2760 2707 2653 2711
8 2712 2655 2710 2761 2656 2592 2653 2711
8 2763 2713 2658 2714 2718 2664 2603 2663
8 2662 2602 2663 2717 2715 2659 2714 2764
8 2720 2666 2718 2767 2665 2605 2663 2717
8 2768 2719 2664 2718 2721 2667 2606 2666
8 2668 2608 2669 2723 2720 2666 2721 2770
8 2669 2609 2670 2724 2721 2667 2722 2771
8 2671 2611 2672 2726 2723 2669 2724 2773
8 2672 2612 2673 2727 2724 2670 2725 2774
8 2674 2614 2675 2729 2726 2672 2727 2776
8 2675 2615 2676 2730 2727 2673 2728 2777
8 2677 2617 2678 2732 2729 2675 2730 2779
8 2678 2618 2679 2733 2730 2676 2731 2780
8 2680 2620 2681 2735 2732 2678 2733 2782
8 2733 2679 2621 2681 2783 2734 2682 2736
8 2735 2681 2623 2684 2784 2736 2683 2737
8 2740 2686 2647 2707 2787 2738 2706 2759
8 2688 2628 2686 2740 2742 2687 2739 2789
8 2743 2688 2650 2709 2790 2740 2707 2760
8 2742 2687 2741 2792 2690 2629 2689 2745
8 2743 2688 2742 2793 2709 2650 2690 2746
8 2745 2689 2744 2795 2692 2631 2693 2748
8 2746 2690 2745 2796 2691 2630 2692 2747
8 2747 2692 2748 2797 2694 2633 2695 2750
8 2748 2693 2749 2798 2695 2634 2696 2751
8 2750 2695 2751 2800 2697 2636 2698 2753
8 2751 2696 2752 2801 2698 2637 2699 2754
8 2753 2698 2754 2802 2700 2639 2701 2755
8 2763 2713 2756 2804 2714 2658 2703 2757
8 2759 2706 2652 2710 2804 2756 2703 2757
8 2715 2659 2714 2764 2758 2704 2757 2805
8 2758 2704 2757 2805 2712 2655 2710 2761
8 2806 2759 2707 2760 2761 2710 2653 2711
8 2765 2716 2762 2808 2718 2664 2713 2763
8 2809 2763 2714 2764 2767 2718 2663 2717
8 2765 2716 2664 2718 2811 2766 2719 2768
8 2813 2768 2718 2767 2770 2721 2666 2720
8 2814 2769 2719 2768 2771 2722 2667 2721
8 2723 2669 2724 2773 2770 2721 2771 2816
8 2724 2670 2725 2774 2771 2722 2772 2817
8 2726 2672 2727 2776 2773 2724 2774 2819
8 2727 2673 2728 2777 2774 2725 2775 2820
8 2729 2675 2730 2779 2776 2727 2777 2822
8 2730 2676 2731 2780 2777 2728 2778 2823
8 2732 2678 2733 2782 2779 2730 2780 2825
8 2780 2731 2679 2733 2826 2781 2734 2783
8 2782 2733 2681 2735 2827 2783 2736 2784
8 2830 2785 2738 2787 2804 2756 2706 2759
8 2789 2739 2686 2740 2832 2786 2738 2787
8 2790 2740 2707 2760 2833 2787 2759 2806
8 2742 2687 2739 2789 2792 2741 2788 2835
8 2743 2688 2740 2790 2793 2742 2789 2836
8 2792 2741 2791 2838 2745 2689 2744 2795
8 2793 2742 2792 2839 2746 2690 2745 2796
8 2795 2744 2794 2841 2748 2693 2749 2798
8 2796 2745 2795 2842 2747 2692 2748 2797
8 2797 2748 2798 2843 2750 2695 2751 2800
8 2798 2749 2799 2844 2751 2696 2752 2801
8 2800 2751 2801 2845 2753 2698 2754 2802
8 2808 2762 2803 2847 2763 2713 2756 2804
8 2809 2763 2804 2848 2764 2714 2757 2805
8 2806 2759 2710 2761 2848 2804 2757 2805
8 2765 2716 2766 2811 2808 2762 2807 2850
8 2810 2765 2808 2851 2767 2718 2763 2809
8 2810 2765 2718 2767 2852 2811 2768 2813
8 2811 2766 2719 2768 2853 2812 2769 2814
8 2855 2814 2768 2813 2816 2771 2721 2770
8 2856 2815 2769 2814 2817 2772 2722 2771
8 2773 2724 2774 2819 2816 2771 2817 2858
8 2774 2725 2775 2820 2817 2772 2818 2859
8 2776 2727 2777 2822 2819 2774 2820 2861
8 2777 2728 2778 2823 2820 2775 2821 2862
8 2779 2730 2780 2825 2822 2777 2823 2864
8 2823 2778 2731 2780 2865 2824 2781 2826
8 2825 2780 2733 2782 2866 2826 2783 2827
8 2869 2828 2785 2830 2847 2803 2756 2804
8 2871 2829 2786 2832 2830 2785 2738 2787
8 2872 2830 2787 2833 2848 2804 2759 2806
8 2789 2739 2786 2832 2835 2788 2831 2874
8 2836 2789 2740 2790 2875 2832 2787 2833
8 2792 2741 2788 2835 2838 2791 2834 2877
8 2793 2742 2789 2836 2839 2792 2835 2878
8 2838 2791 2837 2880 2795 2744 2794 2841
8 2839 2792 2838 2881 2796 2745 2795 2842
8 2841 2794 2840 2882 2798 2749 2799 2844
8 2842 2795 2841 2883 2797 2748 2798 2843
8 2843 2798 2844 2884 2800 2751 2801 2845
8 2886 2846 2803 2847 2850 2807 2762 2808
8 2851 2808 2847 2887 2809 2763 2804 2848
8 2850 2807 2766 2811 2889 2849 2812 2853
8 2810 2765 2811 2852 2851 2808 2850 2890
8 2852 2811 2768 2813 2891 2853 2814 2855
8 2853 2812 2769 2814 2892 2854 2815 2856
8 2894 2856 2814 2855 2858 2817 2771 2816
8 2817 2772 2818 2859 2856 2815 2857 2895
8 2819 2774 2820 2861 2858 2817 2859 2897
8 2820 2775 2821 2862 2859 2818 2860 2898
8 2822 2777 2823 2864 2861 2820 2862 2900
8 2823 2778 2824 2865 2862 2821 2863 2901
8 2864 2823 2780 2825 2902 2865 2826 2866
8 2904 2867 2828 2869 2886 2846 2803 2847
8 2869 2828 2868 2906 2830 2785 2829 2871
8 2907 2869 2830 2872 2887 2847 2804 2848
8 2871 2829 2870 2909 2832 2786 2831 2874
8 2910 2871 2832 2875 2872 2830 2787 2833
8 2835 2788 2831 2874 2877 2834 2873 2912
8 2836 2789 2832 2875 2878 2835 2874 2913
8 2877 2834 2876 2915 2838 2791 2837 2880
8 2839 2792 2835 2878 2881 2838 2877 2916
8 2880 2837 2879 2917 2841 2794 2840 2882
8 2881 2838 2880 2918 2842 2795 2841 2883
8 2883 2841 2882 2919 2843 2798 2844 2884
8 2921 2885 2846 2886 2889 2849 2807 2850
8 2922 2886 2847 2887 2890 2850 2808 2851
8 2889 2849 2812 2853 2924 2888 2854 2892
8 2890 2850 2811 2852 2925 2889 2853 2891
8 2891 2853 2814 2855 2926 2892 2856 2894
8 2892 2854 2815 2856 2927 2893 2857 2895
8 2858 2817 2859 2897 2894 2856 2895 2929
8 2859 2818 2860 2898 2895 2857 2896 2930
8 2861 2820 2862 2900 2897 2859 2898 2932
8 2862 2821 2863 2901 2898 2860 2899 2933
8 2864 2823 2865 2902 2900 2862 2901 2934
8 2904 2867 2846 2886 2936 2903 2885 2921
8 2904 2867 2903 2936 2869 2828 2868 2906
8 2937 2904 2869 2907 2922 2886 2847 2887
8 2906 2868 2905 2939 2871 2829 2870 2909
8 2907 2869 2906 2940 2872 2830 2871 2910
8 2909 2870 2908 2942 2874 2831 2873 2912
8 2910 2871 2909 2943 2875 2832 2874 2913
8 2912 2873 2911 2945 2877 2834 2876 2915
8 2878 2835 2874 2913 2916 2877 2912 2946
8 2915 2876 2914 2947 2880 2837 2879 2917
8 2916 2877 2915 2948 2881 2838 2880 2918
8 2918 2880 2917 2949 2883 2841 2882 2919
8 2921 2885 2849 2889 2951 2920 2888 2924
8 2952 2921 2886 2922 2925 2889 2850 2890
8 2924 2888 2854 2892 2954 2923 2893 2927
8 2925 2889 2853 2891 2955 2924 2892 2926
8 2926 2892 2856 2894 2956 2927 2895 2929
8 2895 2857 2896 2930 2927 2893 2928 2957
8 2897 2859 2898 2932 2929 2895 2930 2959
8 2898 2860 2899 2933 2930 2896 2931 2960
8 2900 2862 2901 2934 2932 2898 2933 2961
8 2936 2903 2885 2921 2963 2935 2920 2951
8 2936 2903 2935 2963 2906 2868 2905 2939
8 2937 2904 2886 2922 2964 2936 2921 2952
8 2937 2904 2936 2964 2907 2869 2906 2940
8 2939 2905 2938 2966 2909 2870 2908 2942
8 2940 2906 2939 2967 2910 2871 2909 2943
8 2942 2908 2941 2969 2912 2873 2911 2945
8 2943 2909 2942 2970 2913 2874 2912 2946
8 2945 2911 2944 2971 2915 2876 2914 2947
8 2946 2912 2945 2972 2916 2877 2915 2948
8 2948 2915 2947 2973 2918 2880 2917 2949
8 2951 2920 2888 2924 2975 2950 2923 2954
8 2952 2921 2889 2925 2976 2951 2924 2955
8 2927 2893 2928 2957 2954 2923 2953 2978
8 2955 2924 2892 2926 2979 2954 2927 2956
8 2929 2895 2930 2959 2956 2927 2957 2980
8 2930 2896 2931 2960 2957 2928 2958 2981
8 2932 2898 2933 2961 2959 2930 2960 2982
8 2951 2920 2950 2975 2963 2935 2962 2984
8 2963 2935 2962 2984 2939 2905 2938 2966
8 2964 2936 2921 2952 2985 2963 2951 2976
8 2964 2936 2963 2985 2940 2906 2939 2967
8 2966 2938 2965 2987 2942 2908 2941 2969
8 2967 2939 2966 2988 2943 2909 2942 2970
8 2969 2941 2968 2989 2945 2911 2944 2971
8 2970 2942 2969 2990 2946 2912 2945 2972
8 2972 2945 2971 2991 2948 2915 2947 2973
8 2954 2923 2953 2978 2975 2950 2974 2993
8 2976 2951 2924 2955 2994 2975 2954 2979
8 2957 2928 2958 2981 2978 2953 2977 2995
8 2956 2927 2957 2980 2979 2954 2978 2996
8 2959 2930 2960 2982 2980 2957 2981 2997
8 2984 2962 2983 2999 2966 2938 2965 2987
8 2975 2950 2974 2993 2984 2962 2983 2999
8 2976 2951 2975 2994 2985 2963 2984 3000
8 2985 2963 2984 3000 2967 2939 2966 2988
8 2987 2965 2986 3001 2969 2941 2968 2989
8 2988 2966 2987 3002 2970 2942 2969 2990
8 2990 2969 2989 3003 2972 2945 2971 2991
8 2978 2953 2977 2995 2993 2974 2992 3004
8 2979 2954 2978 2996 2994 2975 2993 3005
8 2980 2957 2981 2997 2996 2978 2995 3006
8 2974 2993 2999 2983 2992 3004 3007 2998
8 2983 2999 2987 2965 2998 3007 3001 2986
8 3000 2984 2999 3008 2988 2966 2987 3002
8 2994 2975 2993 3005 3000 2984 2999 3008
8 3002 2987 3001 3009 2990 2969 2989 3003
8 2996 2978 2995 3006 3005 2993 3004 3010
8 3005 2993 3004 3010 3008 2999 3007 3011
8 3008 2999 3007 3011 3002 2987 3001 3009

CELL_TYPES 1910
12
12
12
12
12
12
12
12
12
12
12
12
12
12
12
12
12
12
12
12
12
12
12
12
12
12
12
12
12
12
12
12
12
12
12
12
12
12
12
12
12
12
12
12
12
12
12
12
12
12
12
12
12
12
12
12
12
12
12
12
12
12
12
12
12
12
12
12
12
12
12
12
12
12
12
12
12
12
12
12
12
12
12
12
12
12
12
12
12
12
12
12
12
12
12
12
12
12
12
12
12
12
12
12
12
12
12
12
12
12
12
12
12
12
12
12
12
12
12
12
12
12
12
12
12
12
12
12
12
12
12
12
12
12
12
12
12
12
12
12
12
12
12
12
12
12
12
12
12
12
12
12
12
12
12
12
12
12
12
12
12
12
12
12
12
12
12
12
12
12
12
12
12
12
12
12
12
12
12
12
12
12
12
12
12
12
12
12
12
12
12
12
12
12
12
12
12
12
12
12
12
12
12
12
12
12
12
12
12
12
12
12
12
12
12
12
12
12
12
12
12
12
12
12
12
12
12
12
12
12
12
12
12
12
12
12
12
12
12
12
12
12
12
12
12
12
12
12
12
12
12
12
12
12
12
12
12
12
12
12
12
12
12
12
12
12
12
12
12
12
12
12
12
12
12
12
12
12
12
12
12
12
12
12
12
12
12
12
12
12
12
12
12
12
12
12
12
12
12
12
12
12
12
12
12
12
12
12
12
12
12
12
12
12
12
12
12
12
12
12
12
12
12
12
12
12
12
12
12
12
12
12
12
12
12
12
12
12
12
12
12
12
12
12
12
12
12
12
12
12
12
12
12
12
12
12
12
12
12
12
12
12
12
12
12
12
12
12
12
12
12
12
12
12
12
12
12
12
12
12
12
12
12
12
12
12
12
12
12
12
12
12
12
12
12
12
12
12
12
12
12
12
12
12
12
12
12
12
12
12
12
12
12
12
12
12
12
12
12
12
12
12
12
12
12
12
12
12
12
12
12
12
12
12
12
12
12
12
12
12
12
12
12
12
12
12
12
12
12
12
12
12
12
12
12
12
12
12
12
12
12
12
12
12
12
12
12
12
12
12
12
12
12
12
12
12
12
12
12
12
12
12
12
12
12
12
12
12
12
12
12
12
12
12
12
12
12
12
12
12
12
12
12
12
12
12
12
12
12
12
12
12
12
12
12
12
12
12
12
12
12
12
12
12
12
12
12
12
12
12
12
12
12
12
12
12
12
12
12
12
12
12
12
12
12
12
12
12
12
12
12
12
12
12
12
12
12
12
12
12
12
12
12
12
12
12
12
12
12
12
12
12
12
12
12
12
12
12
12
12
12
12
12
12
12
12
12
12
12
12
12
12
12
12
12
12
12
12
12
12
12
12
12
12
12
12
12
12
12
12
12
12
12
12
12
12
12
12
12
12
12
12
12
12
12
12
12
12
12
12
12
12
12
12
12
12
12
12
12
12
12
12
12
12
12
12
12
12
12
12
12
12
12
12
12
12
12
12
12
12
12
12
12
12
12
12
12
12
12
12
12
12
12
12
12
12
12
12
12
12
12
12
12
12
12
12
12
12
12
12
12
12
12
12
12
12
12
12
12
12
12
12
12
12
12
12
12
12
12
12
12
12
12
12
12
12
12
12
12
12
12
12
12
12
12
12
12
12
12
12
12
12
12
12
12
12
12
12
12
12
12
12
12
12
12
12
12
12
12
12
12
12
12
12
12
12
12
12
12
12
12
12
12
12
12
12
12
12
12
12
12
12
12
12
12
12
12
12
12
12
12
12
12
12
12
12
12
12
12
12
12
12
12
12
12
12
12
12
12
12
12
12
12
12
12
12
12
12
12
12
12
12
12
12
12
12
12
12
12
12
12
12
12
12
12
12
12
12
12
12
12
12
12
12
12
12
12
12
12
12
12
12
12
12
12
12
12
12
12
12
12
12
12
12
12
12
12
12
12
12
12
12
12
12
12
12
12
12
12
12
12
12
12
12
12
12
12
12
12
12
12
12
12
12
12
12
12
12
12
12
12
12
12
12
12
12
12
12
12
12
12
12
12
12
12
12
12
12
12
12
12
12
12
12
12
12
12
12
12
12
12
12
12
12
12
12
12
12
12
12
12
12
12
12
12
12
12
12
12
12
12
12
12
12
12
12
12
12
12
12
12
12
12
12
12
12
12
12
12
12
12
12
12
12
12
12
12
12
12
12
12
12
12
12
12
12
12
12
12
12
12
12
12
12
12
12
12
12
12
12
12
12
12
12
12
12
12
12
12
12
12
12
12
12
12
12
12
12
12
12
12
12
12
12
12
12
12
12
12
12
12
12
12
12
12
12
12
12
12
12
12
12
12
12
12
12
12
12
12
12
12
12
12
12
12
12
12
12
12
12
12
12
12
12
12
12
12
12
12
12
12
12
12
12
12
12
12
12
12
12
12
12
12
12
12
12
12
12
12
12
12
12
12
12
12
12
12
12
12
12
12
12
12
12
12
12
12
12
12
12
12
12
12
12
12
12
12
12
12
12
12
12
12
12
12
12
12
12
12
12
12
12
12
12
12
12
12
12
12
12
12
12
12
12
12
12
12
12
12
12
12
12
12
12
12
12
12
12
12
12
12
12
12
12
12
12
12
12
12
12
12
12
12
12
12
12
12
12
12
12
12
12
12
12
12
12
12
12
12
12
12
12
12
12
12
12
12
12
12
12
12
12
12
12
12
12
12
12
12
12
12
12
12
12
12
12
12
12
12
12
12
12
12
12
12
12
12
12
12
12
12
12
12
12
12
12
12
12
12
12
12
12
12
12
12
12
12
12
12
12
12
12
12
12
12
12
12
12
12
12
12
12
12
12
12
12
12
12
12
12
12
12
12
12
12
12
12
12
12
12
12
12
12
12
12
12
12
12
12
12
12
12
12
12
12
12
12
12
12
12
12
12
12
12
12
12
12
12
12
12
12
12
12
12
12
12
12
12
12
12
12
12
12
12
12
12
12
12
12
12
12
12
12
12
12
12
12
12
12
12
12
12
12
12
12
12
12
12
12
12
12
12
12
12
12
12
12
12
12
12
12
12
12
12
12
12
12
12
12
12
12
12
12
12
12
12
12
12
12
12
12
12
12
12
12
12
12
12
12
12
12
12
12
12
12
12
12
12
12
12
12
12
12
12
12
12
12
12
12
12
12
12
12
12
12
12
12
12
12
12
12
12
12
12
12
12
12
12
12
12
12
12
12
12
12
12
12
12
12
12
12
12
12
12
12
12
12
12
12
12
12
12
12
12
12
12
12
12
12
12
12
12
12
12
12
12
12
12
12
12
12
12
12
12
12
12
12
12
12
12
12
12
12
12
12
12
12
12
12
12
12
12
12
12
12
12
12
12
12
12
12
12
12
12
12
12
12
12
12
12
12
12
12
12
12
12
12
12
12
12
12
12
12
12
12
12
12
12
12
12
12
12
12
12
12
12
12
12
12
12
12
12
12
12
12
12
12
12
12
12
12
12
12
12
12
12
12
12
12
12
12
12
12
12
12
12
12
12
12
12
12
12
12
12
12
12
12
12
12
12
12
12
12
12
12
12
12
12
12
12
12
12
12
12
12
12
12
12
12
12
12
12
12
12
12
12
12
12
12
12
12
12
12
12
12
12
12
12
12
12
12
12
12
12
12
12
12
12
12
12
12
12
12
12
12
12
12
12
12
12
12
12
12
12
12
12
12
12
12
12
12
12
12
12
12
12
12
12
12
12
12
12
12
12
12
12
12
12
12
12
12
12
12
12
12
12
12
12
12
12
12
12
12
12
12
12
12
12
12
12
12
12
12
12
12
12
12
12
12
12
12
12
12
12
12
12
12
12
12
12
12
12
12
12
12
12
12
12
12
12
12
12
12
12
12
12
12
12
12
12
12
12
12
12
12
12
12
12
12
12
12
12
12
12
12
12
12
12
12
12
12
12
12
12
12
12
12
12
12
12
12
12
12
12
12
12
12
12
12
12
12
12
12
12
12
12
12
12
12
12
12
12
12
12
12
12
12
12
12
12
12
12
12
12
12
12
12
12
12
12
12
12
12
12
12
12
12
12
12
12
12
12
12
12
12
12
12
12
12
12
12
12
12
12
12
12
12
12
12
12
12
12
12
12
12
12
12
12
12
12
12
12
12
12
12
12
12
12
12
12
12
12
12
12
12
12
12
12
12
12
12
12
12
12
12
12
12
12
12
12
12
12
12
12
12
12
12
12
12
12
12
12
12
12
12
12
12
12
12
12
12
12
12
12
12
12
12
12
12
12
12
12
12
12
12
12
12
12
12
12
12
12
12
12
12
12
12
12
12
12

POINT_DATA 3012
SCALARS Jp_lamdaP float 4
LOOKUP_TABLE default
0.999515 1 1 0.999515
1 1 1 1
0.99953 1 1 0.99953
0.999457 1 1 0.999457
0.999517 1 1 0.999517
0.999488 1 1 0.999488
1.00714 1.00866 1 0.998488
1 1 1 1
1 1 1 1
1 1 1 1
0.999576 1 1 0.999576
1.00311 1.00459 1 0.998527
0.999488 1 1 0.999488
0.999477 1 1 0.999477
0.999535 1 1 0.999535
0.999491 1 1 0.999491
0.999497 1 1 0.999497
0.999541 1 1 0.999541
1.00714 1.00866 1 0.998487
1 1 1 1
0.999444 1 1 0.999444
0.999491 1 1 0.999491
1.00226 1.00388 1 0.998383
1.0062 1.00774 1 0.998475
0.999478 1 1 0.999478
1.00641 1.00794 1 0.998483
1.031 1.03415 1 0.996957
1 1 1 1
0.999755 1 1 0.999755
0.999767 1 1 0.999767
1 1 1 1
1.00195 1.00342 1 0.998537
0.9995 1 1 0.9995
0.99953 1 1 0.99953
1.00762 1.00895 1 0.998682
1 1 1 1
1.00643 1.00769 1 0.998751
0.999726 1.00112 1 0.998611
1.01965 1.02283 1 0.996897
1 1 1 1
1 1 1 1
0.999741 1 1 0.999741
1 1 1 1
0.999494 1 1 0.999494
0.998535 1.00022 1 0.998312
1 1 1 1
1.00117 1.00258 1 0.998591
0.999521 1 1 0.999521
0.999559 1 1 0.999559
0.999499 1 1 0.999499
1.00716 1.00868 1 0.998491
0.999726 1 1 0.999726
0.999475 1 1 0.999475
0.999492 1 1 0.999492
0.999522 1 1 0.999522
1.00199 1.00362 1 0.998376
1.00646 1.00799 1 0.998484
1.00607 1.00761 1 0.998473
1.03124 1.03439 1 0.996947
1 1 1 1
0.999457 1 1 0.999457
0.998757 1.00009 1 0.998664
1.00024 1.00188 1 0.998365
1.00462 1.0062 1 0.998431
1.03275 1.03611 1 0.996756
1.03166 1.03492 1 0.996847
0.999527 1 1 0.999527
1.00097 1.00241 1 0.998555
1.0292 1.03228 1 0.997016
1.05135 1.05549 1 0.996085
1 1 1 1
1 1 1 1
1 1 1 1
1.00115 1.00261 1 0.998545
1 1 1 1
1 1 1 1
1.00745 1.00904 1 0.998427
0.999835 1 1 0.999835
1.0053 1.0068 1 0.998516
0.999801 1.00093 1.00009 0.998786
1.02034 1.02352 1 0.996892
1 1 1 1
1.0019 1 1.00236 0.999538
1.00607 1.00774 1 0.99834
1.00745 1.00901 1 0.998455
1.03712 1.04075 1 0.996515
0.999681 1 1.00056 0.999123
1.02696 1.03025 1 0.996805
1.01464 1.0176 1.00003 0.997062
1.03795 1.04198 1 0.996128
1 1 1 1
1 1 1 1
1 1 1 1
1 1 1 1
1 1 1 1
0.999747 1 1 0.999747
0.998932 1.00046 1 0.998477
0.999739 1 1 0.999739
1.00194 1.00348 1 0.99846
1 1 1 1
0.998351 1 1 0.998349
0.999565 1.00096 1 0.998601
1.02666 1.03033 1 0.996445
1.004 1.00539 1 0.998622
1.03481 1.03851 1 0.996438
0.999513 1 1 0.999513
0.999503 1 1 0.999503
0.999502 1 1 0.999502
0.999549 1 1 0.999549
1.00172 1.00336 1 0.998371
1.00595 1.00748 1 0.998475
1.00642 1.00794 1 0.998488
1.03156 1.03474 1 0.996936
1 1 1 1
0.999486 1 1 0.999486
0.998456 1.00007 1 0.998386
0.99995 1.0016 1 0.998355
0.999767 1 1 0.999767
1.00194 1.0033 1 0.998648
1.00438 1.00597 1 0.998427
1.0327 1.03609 1 0.996733
1.02859 1.03168 1 0.997004
1.03233 1.03557 1 0.996866
1.05114 1.05526 1 0.996095
0.998393 1.00002 1 0.998373
0.999127 1.00075 1 0.998379
1.02448 1.02782 1 0.996749
1.02943 1.03282 1 0.996717
1.03332 1.03666 1 0.996774
1.06498 1.06908 1 0.996167
1 1 1 1
1.05509 1.05921 1 0.996114
0.999511 1.00037 1.00043 0.998705
1.01969 1.02282 1 0.996941
1.04792 1.05207 1 0.996054
1.05558 1.0597 1 0.996108
1.00176 1 1.00262 0.999148
1.00669 1 1.00885 0.997858
1 1 1 1
1 1 1 1
1.00747 1.00906 1 0.998431
1 1 1 1
0.999545 1.0005 1.00034 0.9987
1.00445 1.00594 1 0.998523
1.02046 1.02365 1 0.996888
1 1 1 1
1.00191 1 1.00235 0.999563
1.00667 1.00819 1 0.998496
1.00733 1.00874 1 0.998598
1.03633 1.03996 1 0.996514
0.999995 1 1.00099 0.999003
1.02707 1.03036 1 0.996806
1.01247 1.01537 1.00008 0.997059
1.03888 1.04292 1 0.996129
1.00135 1 1.00208 0.999274
1.00186 1 1.00213 0.999731
1.00551 1.00043 1.00687 0.99822
1.03885 1.04256 1 0.996437
1.03374 1.03721 1 0.996657
1.05942 1.06367 1 0.996004
1.00783 1.00949 1.00097 0.997385
1.04602 1.05004 1 0.996167
1.02734 1.03069 1.00057 0.996187
1.04536 1.04952 1 0.996041
1 1 1 1
1 1 1 1
1 1 1 1
1.00194 1 1.0026 0.999339
1 1 1 1
1 1 1 1
1 1 1 1
1.0025 1.00418 1 0.998332
0.998953 1.0006 1 0.99835
1 1 1 1
1 1 1 1
0.998418 1.00007 1 0.998349
0.999825 1.00136 1 0.998472
1.02707 1.03073 1 0.996445
1.00443 1.0061 1 0.998335
1.03416 1.03786 1 0.996436
0.998352 1 1 0.998352
1.02455 1.02823 1 0.996426
1.02994 1.03361 1 0.996456
1.06799 1.07266 0.999399 0.996243
1.03809 1.04182 1 0.996419
1.07109 1.07531 0.999885 0.996186
1 1 1 1
0.999515 1 1 0.999515
0.998099 1.00002 1 0.998077
0.99968 1.00134 1 0.998346
1 1 1 1
1.0032 1.00446 1 0.998745
1.00415 1.00573 1 0.998426
1.03267 1.03607 1 0.996711
1.03312 1.03635 1 0.996883
1.02782 1.03092 1 0.996991
1.05081 1.05492 1 0.996104
0.998371 1 1 0.998371
0.998942 1.00057 1 0.99837
1.02449 1.02798 1 0.996605
1.02981 1.0332 1 0.996725
1 1 1 1
1.00017 1.00115 1.00022 0.998799
1.02072 1.02375 1 0.997039
1.03377 1.03712 1 0.996766
1.06519 1.06928 0.999996 0.996179
1.04807 1.05223 1 0.996052
1.05516 1.05924 1 0.996145
1.05515 1.05927 1 0.996117
1.00149 1 1.00236 0.999135
1.00563 1.00019 1.0076 0.997858
1.02368 1.02733 1 0.996448
1.02531 1.02866 1 0.996743
1.06553 1.06985 0.999698 0.996258
1.06496 1.07015 0.998945 0.996209
1.0601 1.06413 1 0.99621
1.06444 1.07072 0.997722 0.996407
1.00044 1 1.00151 0.998927
1.05815 1.06217 0.999955 0.996268
1.01123 1.01402 1.00011 0.997147
1.04245 1.04657 1 0.996065
1.05385 1.05814 1 0.995952
1.0548 1.0587 0.999907 0.996414
1.00384 1.00133 1.00497 0.997556
1.00644 1 1.00824 0.99821
1.00534 1.00247 1.00576 0.997122
1.00698 1.00862 1 0.998375
1 1 1 1
1.00168 1 1.00209 0.999587
1.00691 1.00843 1 0.998491
1.03568 1.03931 1 0.996513
1.00021 1 1.00121 0.999
1.01128 1.01422 1.00004 0.997056
1.02694 1.03023 1 0.996808
1.0405 1.04454 1 0.99613
1.00145 1 1.00216 0.999297
1.00143 1 1.00168 0.99975
1.0059 1.00004 1.00766 0.99822
1.03786 1.04158 1 0.996433
1.03299 1.03645 1 0.996659
1.05958 1.06384 1 0.995997
1.00569 1.00762 1.0007 0.997389
1.04662 1.05064 1 0.996165
1.03088 1.03435 1.00047 0.996178
1.0467 1.05085 1 0.996051
1.00119 1 1.00134 0.999845
1.00463 1.00302 1.00384 0.997768
1.00626 1 1.0076 0.998669
1.00802 1.00375 1.00673 0.997542
1.06379 1.06804 1 0.996025
1.05334 1.05749 1 0.996071
1.06079 1.06497 1 0.996073
1.01787 1.02091 1.00049 0.996541
1.04785 1.05186 1 0.99619
1.0427 1.04532 1.00158 0.995921
1.05636 1.06056 1 0.996039
0.999804 1 1.00033 0.99947
0.999943 1 1 0.999943
1 1 1 1
1 1 1 1
1 1 1 1
1.00198 1 1.00245 0.999528
1 1 1 1
1.00227 1 1.00295 0.999322
1 1 1 1
1.00524 1.00691 1 0.998336
1.0002 1.00186 1 0.998344
1.03396 1.03766 1 0.996435
1.0276 1.03126 1 0.996446
0.998561 1.00021 1 0.998351
1 1 1 1
0.998353 1 1 0.998352
1.02499 1.02866 1 0.996426
1.03035 1.03402 1 0.996455
1.06745 1.07206 0.99946 0.996242
1.03735 1.04108 1 0.996415
1.07047 1.07466 0.999915 0.996184
1.02366 1.02733 1 0.996428
1.0662 1.07071 0.999561 0.996224
1.07028 1.07483 0.999527 0.996234
1.06725 1.07658 0.994714 0.996601
1.06872 1.07289 1 0.996105
1.06754 1.07598 0.995657 0.996485
0.99837 1 1 0.998369
0.998757 1.0004 1 0.99836
1.02454 1.02818 1 0.996463
1.03014 1.03352 1 0.996732
1 1 1 1
1.00059 1.00166 1.00004 0.998895
1.02142 1.02435 1 0.997137
1.03421 1.03758 1 0.996759
1.06537 1.06945 0.999991 0.996191
1.05508 1.05913 1 0.996177
1.04857 1.05273 1 0.996051
1.05484 1.05894 1 0.996127
1.00137 1 1.00225 0.999122
1.00572 1.00063 1.00725 0.997859
1.02366 1.02731 1 0.996445
1.02575 1.02911 1 0.996736
1.065 1.06969 0.999328 0.996287
1.06622 1.07089 0.999447 0.996193
1.00003 1 1.00111 0.998917
1.01254 1.01528 1.00016 0.997146
1.04227 1.04636 1 0.996088
1.05988 1.06394 1 0.996184
1.06365 1.07036 0.997261 0.996461
1.05336 1.05765 1 0.995948
1.05832 1.06237 0.999914 0.996272
1.05488 1.05878 0.999911 0.996405
1.00471 1.00241 1.00475 0.997556
1.00658 1.00315 1.00632 0.997118
1.00747 1 1.00928 0.998211
1.06483 1.06912 0.999746 0.99624
1.06613 1.07108 0.999083 0.996285
1.06762 1.07546 0.996165 0.996527
1.06528 1.07397 0.995417 0.996482
1.05998 1.06524 0.998659 0.996406
1.05578 1.06775 0.991996 0.996768
1.00343 1.00541 1.00068 0.99736
1.05557 1.06182 0.99751 0.996589
1.02968 1.03349 1 0.996309
1.04571 1.05019 1 0.995736
1.05042 1.05462 1 0.996013
1.04767 1.05272 0.998516 0.996689
1.00802 1 1.00953 0.998513
1.00538 1.00755 1.00093 0.996916
1.00921 1.00074 1.01114 0.997354
1.0063 1.00656 1.00298 0.996777
1.03695 1.04066 1 0.996429
1.00106 1 1.00129 0.999768
1.00171 1 1.00239 0.999321
1.0072 1 1.009 0.998219
1.03235 1.03581 1 0.99666
1.05965 1.06391 1 0.995991
1.00255 1.00469 1.00048 0.997394
1.03223 1.03586 1.00033 0.996168
1.04743 1.05147 1 0.996162
1.0465 1.05064 1 0.99606
1.00063 1 1.00077 0.999858
1.00443 1.00198 1.00469 0.997774
1.00652 1 1.00786 0.998676
1.00727 1.00275 1.00698 0.997538
1.06389 1.06814 1 0.996019
1.05355 1.05771 1 0.996068
1.06028 1.06446 1 0.99607
1.01561 1.01867 1.00045 0.996546
1.04736 1.05138 1 0.996175
1.03996 1.04244 1.00173 0.995907
1.05569 1.05979 1 0.996132
0.999909 1 1 0.999909
1.00393 1 1.00492 0.999013
1.00863 1.00965 1.00191 0.997082
1.01026 1.00162 1.01072 0.997923
1.00586 1.00535 1.00322 0.997294
1.06514 1.06966 0.99959 0.996185
1.05388 1.05801 1 0.996092
1.05494 1.0593 0.999628 0.996256
1.0193 1.0212 1.00199 0.996151
1.04816 1.05212 1 0.99624
1.03339 1.0369 1.00086 0.995765
0.999594 1 1.00021 0.999384
1.00079 1 1.00199 0.998795
0.999545 1 1 0.999545
0.999535 1 1.00006 0.999472
0.999964 1 1 0.999964
0.999948 1 1 0.999948
1 1 1 1
1 1 1 1
1 1 1 1
1.00106 1 1.00133 0.999726
1 1 1 1
1.00208 1 1.00257 0.999511
1 1 1 1
1.00198 1 1.00268 0.999304
1 1 1 1
1.03643 1.04017 1 0.99641
1.03049 1.03416 1 0.996454
1.06952 1.07367 0.999948 0.996181
1.0668 1.07134 0.999523 0.996241
1.02536 1.02903 1 0.996427
0.998351 1 1 0.998351
1.02384 1.02752 1 0.996428
1.06583 1.0703 0.999593 0.996224
1.06936 1.07384 0.999598 0.996232
1.06692 1.07681 0.994174 0.996619
1.068 1.07218 1 0.9961
1.06807 1.0764 0.995768 0.996484
1.06495 1.06936 0.999661 0.996214
1.06667 1.07611 0.994584 0.996625
1.06753 1.07703 0.994595 0.996566
1.06123 1.07326 0.991931 0.996832
1.06581 1.07218 0.997706 0.99635
1.06049 1.07602 0.98871 0.996825
1.02362 1.02728 1 0.996442
1.0262 1.02957 1 0.99673
1.06452 1.06955 0.998979 0.996316
1.06754 1.07169 0.999953 0.996178
0.999647 1 1.00074 0.998907
1.01483 1.01758 1.00015 0.997147
1.04314 1.04722 1 0.996111
1.05964 1.06373 1 0.996157
1.06289 1.07004 0.996793 0.996514
1.05852 1.06261 0.999876 0.996276
1.05266 1.05695 1 0.995943
1.05496 1.05886 0.999924 0.996395
1.00542 1.00359 1.00428 0.997554
1.00612 1.00273 1.00629 0.997115
1.00762 1 1.00943 0.998211
1.06467 1.06899 0.999728 0.996233
1.06578 1.07097 0.998872 0.996283
1.06707 1.07555 0.995523 0.996574
1.06533 1.07349 0.995931 0.996456
1.00627 1.00801 1.00091 0.997359
1.02921 1.03302 1 0.996309
1.04472 1.04913 1.00003 0.995764
1.06053 1.06543 0.999038 0.99636
1.05527 1.06805 0.991184 0.996816
1.05153 1.05578 1 0.995973
1.05569 1.0619 0.99755 0.99659
1.0488 1.05363 0.998683 0.996727
1.00649 1.00812 1.00147 0.996915
1.00584 1.00562 1.0035 0.99673
1.00707 1 1.00857 0.998512
1.00847 1.00049 1.01061 0.997396
1.06689 1.07523 0.995658 0.996576
1.06887 1.07744 0.995527 0.996506
1.05635 1.06896 0.991425 0.996748
1.05422 1.07013 0.988246 0.996845
1.05538 1.06535 0.993876 0.996741
1.05487 1.07054 0.988343 0.996989
1.0138 1.01724 1 0.996622
1.0473 1.05789 0.993008 0.996959
1.03179 1.03604 1 0.995904
1.04146 1.04589 1.00018 0.995587
1.04973 1.05392 1 0.996029
1.05161 1.05677 0.998357 0.996755
1.00367 1 1.00488 0.998792
1.01243 1.00114 1.01369 0.997626
1.00978 1.01328 1 0.996543
1.00834 1.00443 1.00686 0.997044
1.00883 1.00622 1.00605 0.996571
1.00016 1 1.00029 0.999872
1.06394 1.0682 1 0.996012
1.00654 1 1.00786 0.998682
1.00423 1.00104 1.00542 0.997779
1.00622 1.00167 1.00703 0.997534
1.05372 1.05788 1 0.996065
1.05981 1.06399 1 0.996068
1.01595 1.01895 1.00051 0.996552
1.03982 1.04209 1.00193 0.995894
1.04698 1.05101 1 0.99616
1.05588 1.05988 1 0.996224
0.999917 1 1 0.999917
1.00394 1 1.00493 0.999023
1.00634 1.00793 1.00134 0.997089
1.01118 1.00144 1.01184 0.997918
1.00572 1.00485 1.00363 0.997243
1.06491 1.06938 0.999641 0.99618
1.05363 1.05776 1 0.99609
1.05464 1.05905 0.99959 0.996245
1.02039 1.02216 1.00213 0.996149
1.05148 1.05547 1 0.996222
1.03363 1.037 1.00096 0.995799
1.00073 1 1.00149 0.999248
1.00717 1 1.00888 0.998308
1.00342 1.00625 1.00049 0.996696
1.01316 1.00507 1.01051 0.997563
1.00886 1.0097 1.00203 0.997135
1.06094 1.06832 0.99665 0.996422
1.04903 1.05301 1 0.996215
1.05113 1.0568 0.99815 0.996475
1.00583 1.00604 1.00379 0.996015
1.03057 1.03493 1 0.99579
0.999856 1 1.00047 0.999386
0.999319 1 1.00062 0.9987
1.00096 1 1.0022 0.99877
1.00074 1 1.00223 0.998522
1.00035 1 1.00149 0.99886
0.999591 1 1 0.999591
0.99955 1 1 0.999548
0.999981 1 1 0.999981
0.99951 1 1.00004 0.999474
0.999969 1 1 0.999969
1 1 1 1
0.999954 1 1 0.999954
1 1 1 1
1 1 1 1
1.00005 1 1.00016 0.999888
1.00175 1 1.00204 0.999706
1 1 1 1
1 1 1 1
1.00278 1 1.00329 0.999494
1 1 1 1
1.06739 1.07158 1 0.996096
1.06875 1.07316 0.999664 0.99623
1.0687 1.07692 0.995871 0.996483
1.06667 1.07714 0.993627 0.996636
1.06542 1.06986 0.999625 0.996225
1.02399 1.02766 1 0.996428
1.06477 1.06917 0.999675 0.996215
1.06656 1.07586 0.994723 0.99662
1.06804 1.0776 0.99454 0.996567
1.06058 1.07319 0.991362 0.996861
1.06679 1.07306 0.997797 0.996345
1.06074 1.07616 0.988787 0.996847
1.0668 1.0757 0.995115 0.996595
1.05877 1.07216 0.990668 0.996812
1.06175 1.07495 0.990797 0.996896
1.06147 1.07809 0.987568 0.996981
1.0609 1.0738 0.991301 0.996658
1.06264 1.08097 0.985955 0.997047
1.06448 1.06882 0.999711 0.996225
1.0654 1.07082 0.998655 0.996281
1.06643 1.0756 0.99484 0.996622
1.06529 1.07293 0.996442 0.99643
1.00808 1.00956 1.00117 0.997358
1.02643 1.03024 1 0.996308
1.0431 1.04732 1.00018 0.995792
1.06114 1.06568 0.999424 0.996313
1.0548 1.06833 0.990439 0.996864
1.05584 1.06203 0.997579 0.996591
1.05256 1.05685 1 0.995934
1.04969 1.05433 0.998836 0.996765
1.00882 1.00975 1.00217 0.996915
1.00643 1.00623 1.00352 0.996684
1.00677 1 1.00827 0.99851
1.00754 1.00012 1.01001 0.997438
1.067 1.07532 0.995672 0.996575
1.06849 1.07701 0.995586 0.996488
1.05643 1.0692 0.991248 0.996779
1.05517 1.0702 0.989101 0.996828
1.01472 1.01791 1.00025 0.996616
1.03035 1.03452 1.00003 0.995938
1.04134 1.04556 1.00039 0.995576
1.05614 1.06539 0.994614 0.99669
1.05335 1.06953 0.987786 0.997044
1.04733 1.05152 1 0.996014
1.04848 1.05919 0.992901 0.996959
1.05169 1.05681 0.998331 0.996822
1.00873 1.01222 1 0.996546
1.00653 1.00643 1.00356 0.996557
1.00754 1.00306 1.00745 0.99704
1.00426 1 1.00551 0.998762
1.01174 1.00046 1.01365 0.997667
1.05765 1.07112 0.990599 0.996795
1.05789 1.07272 0.989329 0.996813
1.05363 1.07474 0.983286 0.997028
1.04858 1.06573 0.986828 0.997048
1.01659 1.0204 1 0.996264
1.05227 1.06349 0.9923 0.997131
1.01874 1.02287 1.00029 0.995676
1.03454 1.03877 1.00051 0.995422
1.04474 1.049 0.999906 0.996029
1.00071 1 1.00163 0.999082
1.01001 1 1.01198 0.998054
1.00758 1.00012 1.01014 0.997342
1.00695 1.01012 1.00046 0.996406
1.00924 1.00512 1.00748 0.99664
1.00916 1.00683 1.00594 0.996398
0.999926 1 1 0.999926
1.00365 1 1.00462 0.999033
1.06465 1.06906 0.999696 0.996174
1.01254 1.00121 1.01343 0.997912
1.00305 1.00523 1.00074 0.997097
1.00565 1.00456 1.0039 0.997192
1.05326 1.0574 1 0.996088
1.05447 1.05893 0.999555 0.996233
1.0201 1.0217 1.00229 0.996148
1.03264 1.03616 1.00077 0.995834
1.055 1.05902 1 0.996205
1.00021 1 1.00095 0.999253
1.00801 1 1.00972 0.998311
1.00611 1.00901 1.00046 0.996669
1.01323 1.00425 1.01141 0.997559
1.00912 1.01025 1.00176 0.997121
1.05981 1.06713 0.996707 0.996417
1.05082 1.05482 1 0.996201
1.05254 1.05806 0.998275 0.996498
1.00764 1.00843 1.00324 0.995984
1.02874 1.03307 1.00006 0.995758
1.0023 1 1.00371 0.998601
1.01209 1.0005 1.01374 0.997874
1.00484 1.00625 1.00209 0.996519
1.01504 1.01048 1.00728 0.997263
1.02084 1.02289 1.00107 0.996935
1.05143 1.06652 0.988902 0.996914
1.0521 1.05624 1 0.996078
1.05518 1.06042 0.998607 0.996451
1.00928 1.00904 1.00433 0.995928
1.01434 1.01887 1 0.995554
0.999602 1 1.00021 0.999388
0.999145 1 1.00043 0.998714
0.998719 1 1.00023 0.998487
1.00007 1 1.00132 0.998745
0.999837 1 1.00098 0.998859
1.00152 1 1.00302 0.998502
0.999741 1 1.00125 0.998496
1.00217 1 1.00373 0.998445
0.999193 1 1.00028 0.998913
0.999587 1 1 0.999587
0.999591 1 1 0.999591
0.999993 1 1 0.999993
0.999551 1 1 0.999551
0.999985 1 1 0.999985
1 1 1 1
0.999974 1 1 0.999974
1 1 1 1
1 1 1 1
0.999969 1 1 0.999969
1.0003 1 1.00043 0.999865
1 1 1 1
1.00199 1 1.0023 0.999687
1 1 1 1
1 1 1 1
1.06777 1.07396 0.997885 0.996339
1.06833 1.07794 0.994492 0.996567
1.06096 1.07628 0.98886 0.996869
1.05991 1.07306 0.990823 0.99689
1.0665 1.07563 0.994878 0.996615
1.06465 1.06902 0.999689 0.996215
1.06691 1.07558 0.995347 0.996577
1.05934 1.07226 0.991116 0.996805
1.06109 1.07429 0.990802 0.996882
1.06002 1.07742 0.986821 0.996991
1.06062 1.07333 0.991472 0.99666
1.06011 1.0793 0.985097 0.997083
1.05978 1.07228 0.991535 0.996786
1.06099 1.07917 0.98613 0.996982
1.06225 1.0809 0.985635 0.99707
1.0547 1.07726 0.981902 0.997099
1.06715 1.07545 0.995687 0.996575
1.06818 1.07664 0.995662 0.99647
1.0566 1.0695 0.991097 0.99681
1.05616 1.07034 0.989914 0.996811
1.01652 1.01966 1.0003 0.996609
1.0293 1.03346 1 0.995973
1.04124 1.04527 1.00058 0.995564
1.05671 1.06528 0.995301 0.99664
1.05177 1.06853 0.987174 0.997099
1.0495 1.06032 0.992824 0.996959
1.04545 1.04965 1 0.995999
1.05272 1.05743 0.998651 0.99689
1.0041 1.00722 1.00035 0.996549
1.0061 1.00689 1.00269 0.996543
1.00821 1.00248 1.00871 0.997035
1.00436 1 1.00563 0.998734
1.01125 1.0001 1.01346 0.997709
1.05773 1.07114 0.990652 0.996796
1.05849 1.07334 0.989321 0.996809
1.05399 1.074 0.984294 0.997021
1.01665 1.02046 1 0.996262
1.01868 1.0228 1.00026 0.995712
1.03318 1.03715 1.00076 0.99541
1.04888 1.06564 0.987195 0.997035
1.04784 1.0522 0.999703 0.996151
1.04849 1.06005 0.991977 0.997097
1.00105 1 1.00192 0.999133
1.00651 1.00808 1.00205 0.996402
1.00931 1.00536 1.00745 0.996507
1.01246 1.00684 1.00898 0.996635
1.01009 1.00202 1.01071 0.997364
1.01042 1 1.01242 0.99802
1.05982 1.07731 0.986856 0.996868
1.05799 1.08151 0.981224 0.996967
1.04705 1.07255 0.979057 0.997104
1.04337 1.06714 0.980433 0.997243
1.01053 1.01422 1.00027 0.996089
1.04381 1.05092 0.996535 0.99669
1.00805 1.01113 1.00165 0.995314
1.02186 1.02564 1.00104 0.995276
0.999479 1 1 0.999478
1.00463 1 1.00617 0.998469
1.00897 1.00008 1.01123 0.997694
1.01078 1.00248 1.01148 0.996833
1.00657 1.00498 1.00531 0.996303
1.01392 1.00563 1.01207 0.996218
1.00011 1 1.00085 0.999259
1.00871 1 1.01041 0.998315
1.05878 1.06604 0.99676 0.996412
1.01282 1.00325 1.01202 0.997555
1.00876 1.01188 1.00027 0.996641
1.00839 1.00978 1.00152 0.997107
1.0527 1.05673 1 0.996188
1.05377 1.05916 0.998384 0.996521
1.00999 1.01133 1.00273 0.995953
1.02677 1.0309 1.00027 0.995725
1.00245 1 1.00385 0.998605
1.01223 1.00026 1.01415 0.997849
1.00525 1.00675 1.00199 0.996525
1.01472 1.01079 1.00664 0.99727
1.023 1.0256 1.00048 0.99699
1.05381 1.06872 0.989051 0.996961
1.0516 1.0557 1 0.996115
1.05614 1.06114 0.998749 0.996531
1.01016 1.0097 1.00458 0.995893
1.01391 1.0185 1.00003 0.995468
1.00328 1 1.00499 0.9983
1.01164 1.00193 1.01223 0.997492
1.01394 1.01369 1.00378 0.996476
1.01904 1.02064 1.00161 0.996819
1.0518 1.08788 0.969543 0.997207
1.05167 1.06236 0.992945 0.996968
1.03708 1.04157 1 0.995694
1.01687 1.01712 1.00426 0.995518
0.99967 1 1.00094 0.998728
0.998917 1 1.00043 0.998491
0.998743 1 1.00018 0.998564
1.00014 1 1.00129 0.998857
1.00288 1 1.0044 0.998483
0.999264 1 1.00035 0.99891
0.999623 1 1.00111 0.99852
1.00279 1 1.00434 0.998453
0.998666 1 1 0.998666
1.00244 1 1.00412 0.998328
1.00139 1 1.00298 0.998412
0.998889 1 1 0.998889
0.999545 1 1 0.999545
0.999585 1 1 0.999585
0.999997 1 1 0.999997
0.999592 1 1 0.999592
0.999994 1 1 0.999994
1 1 1 1
0.999989 1 1 0.999989
1 1 1 1
1 1 1 1
0.999994 1 1 0.999994
0.999953 1 1 0.999953
1 1 1 1
1.00079 1 1.00095 0.999841
1 1 1 1
1 1 1 1
1.06025 1.07277 0.991641 0.996663
1.06055 1.07375 0.990811 0.996867
1.05768 1.07769 0.984267 0.99712
1.05852 1.07676 0.986016 0.997001
1.0599 1.07239 0.991531 0.996798
1.06701 1.07546 0.995572 0.996559
1.05951 1.07214 0.99141 0.996786
1.06077 1.07879 0.986278 0.996972
1.06076 1.08003 0.985043 0.997067
1.0554 1.0778 0.982058 0.99711
1.06195 1.07909 0.987148 0.996928
1.06153 1.08559 0.980653 0.99713
1.06242 1.08904 0.978325 0.997174
1.05778 1.07114 0.990697 0.996798
1.05901 1.07387 0.989318 0.996805
1.05443 1.07326 0.985402 0.997013
1.01929 1.02311 1 0.996261
1.01824 1.02241 1.00018 0.995747
1.03164 1.03553 1.00085 0.995398
1.04925 1.06567 0.987526 0.997021
1.04419 1.05669 0.991077 0.997063
1.05031 1.05497 0.999308 0.996273
1.00642 1.00688 1.00315 0.996396
1.00391 1.00215 1.00516 0.996616
1.01404 1.00809 1.00931 0.99663
1.00123 1 1.00205 0.999185
1.01069 1.00319 1.01011 0.997386
1.0111 1 1.01314 0.997986
1.06048 1.07769 0.987112 0.996877
1.05719 1.08127 0.980706 0.996971
1.04742 1.07247 0.979487 0.997096
1.0085 1.01237 1.00009 0.996082
1.00779 1.01104 1.0014 0.995389
1.02199 1.02582 1.0009 0.995376
1.04398 1.06697 0.981158 0.997245
1.03919 1.04725 0.995628 0.996667
0.999553 1 1 0.999553
1.00437 1 1.00591 0.998466
1.00345 1.00362 1.0035 0.996342
1.01657 1.00483 1.01535 0.996392
1.01141 1.00394 1.01059 0.996887
1.0089 1.00029 1.01098 0.997647
1.05973 1.08434 0.980194 0.997049
1.04768 1.08451 0.968888 0.99706
1.04369 1.0725 0.97578 0.997288
1.0322 1.05217 0.983738 0.997238
1.00207 1.0049 1.00133 0.99586
1.02299 1.0263 1.00102 0.995758
1.00838 1.01064 1.00264 0.995134
0.99976 1 1 0.99976
0.999189 1 1 0.999189
1.00001 1 1.00115 0.998861
1.00407 1 1.00614 0.997941
1.00977 1 1.01253 0.997273
1.0169 1.00377 1.01656 0.996575
1.00399 1.00192 1.00555 0.996536
1.03991 1.00258 1.0406 0.996764
1.00192 1 1.00331 0.998609
1.01268 1 1.01488 0.997825
1.05638 1.07102 0.989285 0.997009
1.0164 1.01279 1.0063 0.997276
1.00569 1.00702 1.00215 0.996532
1.02471 1.02771 1.00004 0.997045
1.05107 1.05513 1 0.996153
1.05703 1.06185 0.998848 0.996611
1.01067 1.01001 1.00482 0.995859
1.01329 1.01799 1 0.995382
1.00354 1 1.0053 0.998254
1.01021 1.00095 1.0118 0.997484
1.01765 1.01701 1.00415 0.996492
1.01874 1.0205 1.00143 0.99686
1.05325 1.09036 0.968648 0.997226
1.05464 1.06454 0.993769 0.996913
1.03517 1.03961 0.999986 0.99575
1.01888 1.01968 1.00377 0.995468
1.00382 1 1.00571 0.998111
1.06145 1.09703 0.970257 0.997233
1.00615 1.002 1.00706 0.997102
1.01778 1.01887 1.00268 0.996255
1.03674 1.07317 0.968619 0.997351
1.03052 1.03571 0.999153 0.995837
1.0133 1.01486 1.00323 0.995244
0.999257 1 1.00076 0.998495
0.998381 0.999522 1.0003 0.998555
0.998982 0.999222 1.00103 0.998726
0.999105 1 1.0002 0.998907
1.00272 1 1.00426 0.998461
0.99968 1 1.00114 0.998543
0.998885 1 1 0.998885
1.00156 1 1.00315 0.998419
0.998833 1 1.00014 0.998698
1.00166 1 1.00333 0.998338
0.998815 1 1 0.998815
0.999231 1 1.00071 0.998522
1.00236 1 1.00419 0.998182
0.999064 1 1.00075 0.998314
0.998797 1 1 0.998797
0.999497 1 1 0.999497
0.999541 1 1 0.999541
0.999999 1 1 0.999999
0.999582 1 1 0.999582
0.999998 1 1 0.999998
1 1 1 1
0.999996 1 1 0.999996
1 1 1 1
1 1 1 1
0.999795 1 1 0.999795
1 1 1 1
0.999989 1 1 0.999989
1 1 1 1
0.999937 1 1 0.999937
1 1 1 1
1 1 1 1
1.05611 1.07833 0.982228 0.99712
1.0593 1.07918 0.984475 0.997064
1.06062 1.07845 0.986467 0.996963
1.05921 1.07195 0.991301 0.996787
1.06167 1.0792 0.986773 0.996947
1.06157 1.08527 0.980984 0.997121
1.05934 1.08602 0.978188 0.997179
1.0611 1.08583 0.980059 0.997113
1.07378 1.10167 0.977411 0.997213
1.07854 1.10807 0.975806 0.997477
1.06123 1.07813 0.987395 0.996886
1.05618 1.08102 0.979982 0.996976
1.04786 1.07238 0.979984 0.997088
1.00694 1.01085 1.00006 0.996076
1.00872 1.01204 1.00126 0.995466
1.02404 1.02789 1.00078 0.995475
1.04483 1.06655 0.982337 0.997247
1.03463 1.0432 0.995128 0.996644
1.00493 1.00369 1.00488 0.996381
1.02185 1.00506 1.02022 0.996561
1.01334 1.00539 1.011 0.996941
0.999628 1 1 0.999628
1.00417 1 1.00572 0.998462
1.00891 1.00012 1.01121 0.997601
1.05937 1.08465 0.97957 0.997058
0.999754 1 1 0.999754
0.999146 1 1 0.999146
1.0491 1.08353 0.971072 0.997062
1.04182 1.07082 0.975594 0.997258
1.00306 1.00522 1.00192 0.995942
1.00797 1.00954 1.00332 0.995145
1.02195 1.02639 0.999931 0.995745
1.03124 1.05207 0.982947 0.99721
1.00032 1 1.00137 0.998952
1.00439 1 1.00647 0.99793
1.00421 1.0019 1.0059 0.996424
1.03407 1.00242 1.0348 0.996874
1.0142 1.0025 1.01513 0.996593
1.00884 1 1.01158 0.997291
1.07067 1.1025 0.9739 0.99716
1.0299 1.0825 0.954088 0.997189
1.02846 1.06135 0.971496 0.997434
1.0147 1.03154 0.9867 0.996927
1.0054 1.0028 1.00649 0.996138
1.00854 1.00782 1.0055 0.995236
0.99909 1 1 0.99909
0.999166 1 1 0.999166
0.999036 1.00021 1 0.99883
0.999875 1 1.00168 0.998198
1.00927 1 1.01165 0.997648
1.00753 1.00036 1.01027 0.996927
1.05902 1.00014 1.06242 0.996665
0.995528 1.00049 0.997664 0.997368
1.00425 1 1.00605 0.998208
1.0082 1 1.01075 0.997476
1.05416 1.09194 0.968064 0.997245
1.05727 1.06637 0.994588 0.996858
1.01868 1.02067 1.00115 0.996901
1.02231 1.02139 1.00441 0.996508
1.03363 1.03796 1.00003 0.995806
1.02165 1.02292 1.00335 0.995418
1.00405 1 1.00597 0.998087
1.06427 1.1008 0.969432 0.997302
1.0063 1.00117 1.00799 0.997152
1.01538 1.01652 1.00269 0.996191
1.03708 1.07287 0.969233 0.997326
1.02882 1.03407 0.998989 0.99593
1.01449 1.01578 1.00348 0.995258
1.00796 0.999409 1.01074 0.997838
1.00959 1.05704 0.957298 0.997717
1.00461 1.00221 1.00556 0.996853
1.0055 1.00603 1.00379 0.995702
1.01714 1.03546 0.985396 0.996861
1.00284 1.00514 1.00221 0.995507
0.958861 1.00292 0.959254 0.996684
0.997702 0.998701 1.00045 0.998547
0.9989 0.99803 1.00214 0.998729
1.00084 0.999543 1.00264 0.998668
0.998881 1 1 0.998881
1.00249 1 1.00407 0.998426
1.00061 1 1.00227 0.998348
0.998948 1 1.00022 0.998732
0.998796 1 1 0.998796
0.999173 1 1.00086 0.998314
0.998781 1 1 0.998781
1.00219 1 1.00401 0.998183
0.999057 1 1.00057 0.998492
0.999929 1 1.00116 0.99877
0.99872 1 1.00071 0.99801
1.00263 1 1.00449 0.998146
0.998517 1 1.00034 0.998183
0.998629 1 1 0.998629
1.0005 1 1.00213 0.998377
0.999001 1 1.00041 0.998594
0.999477 1 1 0.999477
0.999494 1 1 0.999494
0.999999 1 1 0.999999
0.999536 1 1 0.999536
0.999999 1 1 0.999999
1 1 1 1
0.999998 1 1 0.999998
1 1 1 1
1 1 1 1
0.999836 1 1 0.999836
0.999797 1 1 0.999797
1 1 1 1
0.999999 1 1 0.999999
1 1 1 1
0.999984 1 1 0.999984
1 1 1 1
1 1 1 1
1.05637 1.08321 0.977971 0.997185
1.06144 1.08489 0.981218 0.997112
1.06133 1.07926 0.986383 0.996966
1.06089 1.08564 0.980031 0.997111
1.07053 1.09846 0.9773 0.997208
1.07727 1.10676 0.975899 0.997392
1.0784 1.11166 0.97273 0.997278
0.959858 1.01605 0.949816 0.994604
1.02726 1.06408 0.967153 0.998191
0.999271 1 1 0.999271
1.05906 1.08491 0.979042 0.997068
1.0506 1.08282 0.973102 0.997064
1.03965 1.06939 0.974896 0.997228
1.00005 1.00322 1.00082 0.996021
1.00638 1.00723 1.00402 0.995153
1.01988 1.02501 0.99926 0.995732
1.02997 1.05195 0.981872 0.997182
0.998803 1.00199 1.00051 0.996316
1.02811 1.00218 1.02897 0.996992
1.01081 1.00107 1.01316 0.996611
0.999749 1 1 0.999749
1.00922 1 1.01195 0.997308
1.00048 1 1.00144 0.99904
1.00463 1 1.00673 0.997919
0.999169 1 1.00007 0.999104
1.06753 1.10286 0.970719 0.997167
0.999145 1 1 0.999145
0.999369 1 1.0002 0.999167
0.998868 1.00057 0.999503 0.998792
1.03405 1.08301 0.957484 0.997186
1.02763 1.06075 0.971316 0.997385
1.00177 1.00217 1.00344 0.996172
1.01326 1.01255 1.00535 0.995378
1.01336 1.0293 0.987571 0.996908
0.999742 1 1.00148 0.998262
1.00863 1 1.01106 0.997595
1.00655 1.00031 1.00906 0.997204
1.04783 1.00061 1.05068 0.996678
1.00746 1.00061 1.0099 0.996983
1.04267 1.09217 0.957289 0.997276
1.00749 1.06859 0.945331 0.99735
1.01989 1.04155 0.982083 0.997068
0.99499 1.0139 0.984623 0.996678
1.00243 1 1.00548 0.996966
0.998665 1 1 0.998665
0.999307 1.00038 1.00037 0.998567
1.00067 1 1.0021 0.998569
1.01081 1 1.01285 0.997985
1.01086 1 1.01334 0.997548
1.04301 0.999932 1.0461 0.997111
1.03056 1.0018 1.03142 0.997379
1.00406 1 1.00601 0.998062
1.00576 1 1.00858 0.997202
1.06589 1.10484 0.967294 0.997368
1.03794 1.07334 0.969632 0.997301
1.02736 1.03278 0.998718 0.996023
1.01168 1.01291 1.00268 0.996127
1.01513 1.01629 1.0036 0.995273
1.00817 0.999763 1.01053 0.997901
1.01093 1.05822 0.957452 0.997767
1.00162 1.00153 1.00324 0.996861
1.00425 1.00449 1.00408 0.995701
1.01505 1.03445 0.984208 0.996993
1.0036 1.00539 1.00273 0.995504
0.95996 1.00247 0.961901 0.995525
1.00805 0.998997 1.0113 0.997782
0.992759 1.02576 0.970046 0.997712
1.00097 1.00137 1.00298 0.996628
1.00433 1.00184 1.00644 0.996075
0.992234 1.00675 0.988795 0.996754
0.898111 0.973764 0.950352 0.970491
0.886425 0.961575 0.936242 0.984625
0.958489 0.980385 0.980646 0.996962
0.686382 0.816981 0.896455 0.937184
0.596958 0.761423 0.855065 0.916893
0.998944 0.997139 1.00308 0.998733
1.0016 0.998019 1.00488 0.998721
1.00283 1 1.00413 0.998703
0.998796 1 1 0.998796
0.999063 1 1.00075 0.998314
1.00141 1 1.00324 0.998184
0.999 1 1.00054 0.998461
0.998747 1 1 0.998747
1.00342 1 1.00531 0.998127
0.998667 1 1 0.998667
0.998473 1 1.00027 0.998202
0.999472 1 1.00076 0.99871
0.99936 1 1.00129 0.998072
1.00418 1 1.0061 0.998094
1.0063 0.999968 1.00803 0.998312
1.00395 1 1.00588 0.998083
0.998971 1 1.00089 0.998083
0.998605 1 1.00001 0.998596
0.999302 1 1.0011 0.998201
1.0002 1 1.00193 0.998273
1.00023 1 1.00178 0.998445
1.00035 1 1.00201 0.998339
0.998931 1 1.00021 0.998722
0.999146 1 1.00056 0.998591
0.999471 1 1 0.999471
0.999477 1 1 0.999477
1 1 1 1
0.99949 1 1 0.99949
1 1 1 1
1 1 1 1
0.999999 1 1 0.999999
1 1 1 1
1 1 1 1
0.999885 1 1 0.999885
0.999833 1 1 0.999833
1 1 1 1
0.999799 1 1 0.999799
1 1 1 1
1 1 1 1
0.999998 1 1 0.999998
1 1 1 1
1 1 1 1
1.06725 1.09525 0.977173 0.997202
1.06077 1.0855 0.980055 0.997109
1.07616 1.10482 0.976687 0.997309
0.961276 1.0158 0.951373 0.994693
1.07593 1.10941 0.972471 0.997277
1.03666 1.06675 0.973678 0.998059
1.05614 1.08363 0.977166 0.997409
0.913858 0.976046 0.951719 0.983783
0.984273 1.02009 0.969164 0.995587
0.99931 1 1 0.99931
0.999265 1 1 0.999265
0.998773 1 1 0.998773
0.998897 1 1 0.998897
1.06476 1.10264 0.968382 0.997174
1.03817 1.08268 0.961602 0.997184
1.0275 1.06019 0.971755 0.997336
1.00052 1.00126 1.00306 0.996206
1.01799 1.01794 1.00455 0.995522
1.01216 1.02721 0.988423 0.996889
1.01832 1 1.02135 0.997037
1.03759 1.00108 1.03991 0.996689
1.007 1.00037 1.00962 0.997039
0.999727 1 1.00056 0.999169
1.00654 1 1.00902 0.997543
0.999497 1 1.00117 0.998328
0.999199 1 1 0.999199
0.999085 1.00099 0.99934 0.998753
1.0416 1.09205 0.956396 0.997291
0.998688 1 1 0.998688
0.999101 1.0006 0.999854 0.998649
1.00014 0.999618 1.00174 0.998785
1.01448 1.07205 0.948817 0.997338
1.02056 1.04151 0.982765 0.997067
1.00098 1.00083 1.00321 0.99695
0.997801 1.01314 0.988065 0.996755
1.00902 1 1.01116 0.99789
1.01072 1 1.01336 0.997397
1.03602 1.00239 1.03629 0.997357
1.04261 1.00088 1.04483 0.997004
0.996333 1.0557 0.946148 0.997479
0.997462 1.04426 0.957724 0.997346
1.0087 1.01697 0.995132 0.996722
0.976389 1.00108 0.977488 0.997797
1.0039 1 1.00542 0.998491
1.00409 1 1.00591 0.998185
1.01812 0.999516 1.02048 0.998167
1.06336 1.0009 1.0652 0.997373
0.879902 0.968436 0.940423 0.96614
1.00911 1 1.01117 0.997965
0.999854 1.00091 1.00209 0.996867
1.01245 1.05927 0.957887 0.997821
1.01282 1.03302 0.983279 0.997123
1.00427 1.0055 1.0033 0.995497
1.00355 1.0034 1.00447 0.995699
0.960768 1.0033 0.963072 0.994329
1.00641 0.998657 1.00995 0.99784
0.991746 1.02651 0.968372 0.99769
1.00085 1.00148 1.00275 0.996642
1.0049 1.00276 1.00606 0.996086
0.995442 1.00786 0.990908 0.996738
0.891458 0.978206 0.943205 0.966195
0.880912 0.957176 0.937676 0.981494
0.962556 0.981038 0.984105 0.997009
0.679982 0.810377 0.893847 0.938744
0.584259 0.753486 0.850692 0.911502
1.00279 0.998658 1.0062 0.997952
0.711368 0.828378 0.911692 0.941928
0.63124 0.772425 0.890851 0.917346
0.986651 1.00563 0.983308 0.997786
1.00902 1.00153 1.01021 0.997302
1.01432 1.00562 1.01147 0.99721
0.950067 0.969508 0.982503 0.997399
0.865692 0.949628 0.941253 0.968509
0.846787 0.92692 0.932732 0.979434
0.668548 0.801141 0.88441 0.943561
0.649873 0.820682 0.867244 0.913086
1.00212 0.996548 1.00683 0.998773
1.00199 0.998608 1.00472 0.998676
1.01146 1 1.01264 0.998837
0.998705 1 1 0.998705
0.99824 1 1.00002 0.998221
1.00407 1 1.00597 0.998109
1.0004 1 1.00227 0.998134
0.998649 1 1 0.998649
0.998626 1 1.00003 0.998597
1.00475 1 1.00669 0.998069
1.00424 1 1.00617 0.998079
0.998484 1 1.00036 0.998129
1.00697 0.99987 1.00876 0.998353
1.00699 1 1.00875 0.99825
1.02162 0.999937 1.02322 0.998497
1.00235 1 1.00439 0.997969
0.998988 1 1.00083 0.998163
0.998861 1 1.00067 0.998196
1.00063 1 1.00234 0.998301
1.00035 1 1.00229 0.998068
0.999614 1 1.00125 0.998369
1.0041 1 1.00569 0.998421
1.00824 1 1.01011 0.998153
1.00059 1 1.00218 0.998419
0.999817 1 1.00137 0.998447
0.999197 1 1.00044 0.998755
1.00011 1 1.00182 0.998301
0.99892 1 1.00023 0.998689
0.99945 1 1 0.99945
0.999271 1 1.00068 0.998589
0.999473 1 1 0.999473
0.999997 1 1 0.999997
0.999477 1 1 0.999477
1 1 1 1
1 1 1 1
1 1 1 1
1 1 1 1
1 1 1 1
0.999253 1 1 0.999253
0.999899 1 1 0.999899
0.999881 1 1 0.999881
1 1 1 1
0.999829 1 1 0.999829
1 1 1 1
1 1 1 1
1 1 1 1
1 1 1 1
1 1 1 1
0.963621 1.01539 0.953993 0.994784
1.07467 1.10802 0.97255 0.997276
1.04559 1.07053 0.97874 0.997925
0.903781 0.971963 0.944016 0.984995
0.984362 1.02032 0.968824 0.995801
1.05467 1.08689 0.972925 0.997364
0.992251 1.03184 0.965291 0.996209
0.920167 0.975191 0.956401 0.986591
0.895713 0.9765 0.947435 0.96816
0.686971 0.814581 0.893629 0.943728
0.555212 0.71373 0.84936 0.915868
0.998848 1 1 0.998848
0.999307 1 1 0.999307
0.999259 1 1 0.999259
0.99878 1 1 0.99878
0.998925 1 1.00034 0.99859
0.998551 1 1 0.998551
0.998725 1 1 0.998725
0.998851 1 1 0.998851
1.04078 1.09353 0.954337 0.997304
1.02151 1.07657 0.951407 0.997326
1.02009 1.04127 0.982538 0.997067
1.00098 1.00189 1.00216 0.996935
1.00055 1.01246 0.99138 0.996832
1.04465 1.00277 1.04456 0.997333
1.04321 1.00228 1.04408 0.996899
1.01086 1 1.01365 0.997246
0.998443 1.00077 0.99894 0.99873
1.00943 1 1.01166 0.997791
0.998714 1 1 0.998714
0.998705 0.999445 1.00026 0.999002
0.994441 1.05661 0.943505 0.997514
1.00304 0.999833 1.00474 0.99848
1.0058 1 1.00752 0.998285
0.994801 1.0421 0.957178 0.997319
1.00606 1.01783 0.991524 0.99688
0.980057 1.00133 0.981053 0.997656
1.02891 1.0004 1.0307 0.997863
1.05811 1.00224 1.05848 0.997417
0.970862 1.03026 0.944826 0.997375
0.991968 1.01417 0.980726 0.997332
0.973749 1.00172 0.97459 0.99742
0.977971 0.999569 0.980362 0.997991
1.00764 1 1.0097 0.997967
1.01741 1 1.01935 0.9981
1.05417 0.999917 1.05666 0.997733
0.724602 0.837729 0.915784 0.944503
0.896038 0.976507 0.944421 0.971594
1.00414 0.998721 1.00754 0.997898
1.00056 1.00132 1.00259 0.996657
0.992314 1.02746 0.96805 0.997668
0.998333 1.00927 0.992414 0.996725
1.0057 1.0039 1.00571 0.996101
0.892354 0.973719 0.94624 0.968504
0.884799 0.966374 0.932267 0.982108
0.9641 0.98017 0.986507 0.997057
0.69092 0.81221 0.900725 0.944425
0.572629 0.746651 0.846573 0.905923
1.00281 0.999293 1.00557 0.997956
0.718329 0.837837 0.909308 0.942872
0.61137 0.75426 0.886834 0.913987
0.986592 1.0068 0.982117 0.997776
1.00881 1.00206 1.00945 0.997312
1.01225 1.00376 1.01113 0.997359
0.943962 0.963506 0.982045 0.997628
0.877597 0.963026 0.944144 0.965204
0.843739 0.922755 0.931091 0.982041
0.676933 0.801354 0.897281 0.94144
0.651361 0.829177 0.861404 0.911942
1.00469 0.999548 1.00661 0.998549
0.65601 0.784839 0.911246 0.917264
0.724191 0.861565 0.908684 0.925022
0.984364 0.99124 0.994416 0.99864
1.01562 1.00247 1.01459 0.998554
0.954993 0.956356 1.00159 0.996991
0.859769 0.913661 0.95676 0.983544
0.8198 0.906908 0.938501 0.963186
0.686103 0.795325 0.915234 0.942568
0.711279 0.884443 0.876944 0.917061
1.00224 0.998434 1.00517 0.99865
1.00924 1 1.01047 0.998787
1.00966 0.999024 1.01159 0.999074
0.998598 1 1 0.998598
0.998176 1 1 0.998176
1.0052 1 1.00714 0.998074
1.00586 1 1.00783 0.998045
1.00707 0.999681 1.00901 0.998394
0.998781 1 1.00062 0.99816
1.0056 1 1.00741 0.998204
1.00236 1 1.0044 0.997972
1.0201 0.999218 1.02237 0.998561
1.03835 0.997446 1.04195 0.999094
1.01266 1 1.01443 0.998255
1.00112 1 1.00319 0.997928
0.998583 1 1.00039 0.99819
1.00099 1 1.00267 0.998329
1.00089 1 1.00283 0.998058
1.00038 1 1.00203 0.998352
1.00204 1 1.00351 0.998536
1.0047 1 1.0064 0.998308
1.00709 1 1.00883 0.998278
1.00382 0.998793 1.00646 0.998575
0.999551 1 1.00131 0.998243
0.999883 1.00142 1.00093 0.997536
1.00643 1 1.00842 0.998024
1.00692 1 1.00878 0.998155
1.00745 1 1.0092 0.998261
1.00203 1 1.00362 0.998418
0.999264 1 1.00054 0.998726
0.999923 1 1.00148 0.99845
0.999279 1 1.00052 0.99876
0.999421 1 1 0.999421
0.998967 1 1.00031 0.998657
0.999453 1 1 0.999453
0.999987 1 1 0.999987
0.999475 1 1 0.999475
0.999995 1 1 0.999995
1 1 1 1
0.999999 1 1 0.999999
1 1 1 1
1 1 1 1
0.999249 1 1 0.999249
0.999867 1 1 0.999867
0.999256 1 1 0.999256
1 1 1 1
0.9999 1 1 0.9999
0.999877 1 1 0.999877
1 1 1 1
1 1 1 1
1 1 1 1
1 1 1 1
1 1 1 1
0.709676 0.829164 0.9124 0.938069
0.617134 0.765092 0.881428 0.915122
0.903092 0.972029 0.942665 0.985588
0.98569 1.02032 0.969916 0.996027
1.05194 1.08808 0.969383 0.99732
0.906238 0.957984 0.957532 0.987941
0.992786 1.03148 0.965956 0.996412
0.907651 0.987551 0.948617 0.968877
0.67839 0.814705 0.887012 0.938749
0.563145 0.730908 0.846239 0.910467
0.931032 0.995016 0.944139 0.991057
0.886779 0.963618 0.949615 0.969087
0.67275 0.805849 0.885444 0.942842
0.643963 0.818026 0.862137 0.913099
1.00085 1 1.00247 0.998386
0.998889 1 1 0.998889
0.999305 1 1 0.999305
0.998786 1 1 0.998786
0.998946 1 1.00027 0.998677
0.999364 1 1.00109 0.998273
0.998531 1 1 0.998527
0.99855 1 1.00022 0.998331
0.998677 1 1 0.998677
0.998804 1 1 0.998804
0.99159 1.05623 0.941106 0.997547
0.991727 1.03942 0.956703 0.997295
1.00518 1.01925 0.989123 0.997038
0.982626 1.00177 0.983329 0.997515
1.04899 1.00355 1.04794 0.99746
1.04015 1.00107 1.04158 0.997562
1.00612 1 1.00775 0.998386
1.00234 0.999542 1.00434 0.998468
0.970699 1.03074 0.944128 0.99748
1.00926 1 1.01136 0.997917
1.01725 1 1.01923 0.998055
0.985608 1.01186 0.976723 0.997272
0.971972 1.0017 0.972732 0.997526
0.977961 1.00046 0.979529 0.997937
1.04717 0.999786 1.04984 0.99767
0.964675 1.00307 0.964039 0.997602
0.96311 0.998034 0.966684 0.998265
1.01266 0.998556 1.01598 0.998168
1.01003 1 1.01222 0.99784
1.01459 1 1.01682 0.997802
1.02906 1 1.03127 0.997852
0.68502 0.799881 0.922458 0.928392
0.726872 0.836136 0.919933 0.944984
0.884483 0.973856 0.939899 0.966304
1.00199 0.998693 1.00536 0.997957
1.00859 1.0023 1.00898 0.997317
0.988485 1.00808 0.982762 0.997766
1.01063 1.00239 1.01074 0.997502
0.719956 0.833158 0.913731 0.945715
0.873012 0.959166 0.942032 0.966186
0.842283 0.919248 0.93541 0.979543
0.943332 0.960007 0.984754 0.997843
0.67412 0.806559 0.892106 0.936881
0.607477 0.751289 0.883098 0.915616
0.652251 0.827739 0.85975 0.916536
1.00464 0.999267 1.00686 0.998519
0.658201 0.785274 0.909809 0.92127
0.738467 0.875644 0.91205 0.924667
0.983326 0.989004 0.99551 0.998743
1.01564 1.00171 1.01542 0.998505
0.952095 0.954386 0.999957 0.997642
0.849774 0.918759 0.942862 0.980965
0.851271 0.922513 0.953808 0.967462
0.697361 0.809562 0.918502 0.937837
0.703928 0.876602 0.872292 0.920586
1.00787 0.997888 1.01057 0.999431
0.761738 0.882963 0.924995 0.93266
0.735399 0.879411 0.900369 0.928775
0.978695 0.962373 1.01725 0.999715
0.892269 0.916793 0.984495 0.988578
0.849584 0.899287 0.978301 0.965685
0.769316 0.873967 0.941636 0.934817
0.751733 0.923177 0.883715 0.921438
1.00831 1 1.00959 0.998738
1.01165 0.998547 1.01408 0.99906
1.02622 0.991457 1.03573 0.999354
0.998972 1 1.00082 0.998157
1.00242 1 1.00445 0.997976
1.00352 1 1.00537 0.998157
1.01914 0.99879 1.02179 0.998624
1.00178 1 1.00386 0.997929
1.01195 0.999964 1.01377 0.998245
1.04364 0.998488 1.04609 0.999173
1.04378 0.992498 1.05225 0.999446
1.04203 0.998753 1.0443 0.999068
1.00654 1 1.0084 0.998158
1.00104 1 1.003 0.998047
1.00073 1 1.0024 0.998335
0.99986 1 1.00121 0.998647
1.00647 1 1.00819 0.998301
1.0033 1 1.00501 0.998307
1.00593 0.999347 1.008 0.998603
1.00325 0.999478 1.00542 0.998364
1.01259 0.997643 1.01604 0.998962
0.99668 1.00094 0.997339 0.998404
0.999983 1.00057 1.00117 0.998252
0.998594 1.00012 1.00069 0.997786
1.00408 1.00603 1.00153 0.996534
1.00393 1.001 1.00508 0.99787
0.999306 1.00069 1.00077 0.997855
1.00652 1 1.00852 0.998025
1.01277 1 1.01473 0.998069
1.00507 1 1.00692 0.998157
1.00669 1 1.00845 0.998261
0.999981 1 1.00139 0.998592
1.00256 1 1.00415 0.998417
0.998949 1 1.00023 0.998722
0.999462 1 1.00008 0.999383
0.999053 1 1.00029 0.998765
0.999422 1 1 0.999422
0.999969 1 1 0.999969
0.999456 1 1 0.999456
0.999982 1 1 0.999982
1 1 1 1
0.999993 1 1 0.999993
1 1 1 1
1 1 1 1
0.998956 1 1 0.998956
0.999808 1 1 0.999808
0.999165 1 1 0.999165
1 1 1 1
0.999872 1 1 0.999872
0.999257 1 1 0.999257
1 1 1 1
1 1 1 1
0.9999 1 1 0.9999
1 1 1 1
1 1 1 1
1 1 1 1
0.645192 0.779448 0.899377 0.920366
0.716837 0.835869 0.910948 0.941432
0.731518 0.873832 0.905967 0.924027
0.614056 0.763936 0.879776 0.913648
0.905412 0.965869 0.951435 0.985255
0.993334 1.03194 0.965845 0.996627
0.909172 0.985501 0.951801 0.969266
0.693674 0.817631 0.898951 0.943762
0.573383 0.751182 0.843458 0.904975
0.933178 0.989452 0.952591 0.990063
0.874321 0.960058 0.94558 0.963108
0.685776 0.812853 0.896784 0.940767
0.636508 0.813438 0.859994 0.90988
0.897205 0.967487 0.939792 0.986767
0.828633 0.904893 0.951575 0.962326
0.720826 0.84253 0.915137 0.934886
0.706525 0.880601 0.877579 0.914244
1.00308 1 1.00507 0.998022
0.999979 1 1.00154 0.998439
0.99893 1 1 0.99893
0.998766 1 1 0.998766
0.998523 1 1.00066 0.997868
0.998681 1 1.00035 0.998329
0.998503 1 1 0.998503
0.998306 1 1 0.998306
0.998472 1 1.0001 0.998372
0.998629 1 1 0.998629
0.971101 1.03183 0.943429 0.997584
0.981247 1.00984 0.974402 0.997216
0.968104 1.00129 0.969154 0.997631
0.97931 1.00166 0.979755 0.997885
1.03865 1 1.04114 0.997604
1.017 1 1.01903 0.998011
1.01021 1 1.01237 0.997866
1.00963 1 1.01187 0.997786
0.963799 1.00329 0.962894 0.997659
1.01316 1 1.01542 0.997774
1.02914 1 1.03138 0.997828
0.962506 0.998749 0.965384 0.998267
1.00709 1.00015 1.00883 0.998125
0.946761 0.976429 0.971613 0.997945
0.968115 0.975271 0.993422 0.999235
1.04334 0.998525 1.04657 0.998378
1.00548 1 1.00765 0.997843
1.02471 1 1.02676 0.998006
0.774847 0.893651 0.925132 0.937226
0.682402 0.798396 0.921842 0.927183
0.718386 0.832411 0.91766 0.940455
1.00384 0.999072 1.00629 0.998493
1.01605 1.00064 1.01697 0.998455
0.978954 0.986503 0.993491 0.998849
0.655745 0.783464 0.907975 0.921812
0.832395 0.90958 0.950532 0.962769
0.854664 0.915605 0.950057 0.982512
0.941479 0.948339 0.994446 0.998311
0.707701 0.82169 0.91333 0.943005
0.746627 0.882427 0.915195 0.924509
0.706001 0.876749 0.874374 0.920943
1.0061 0.998037 1.00871 0.999376
0.76088 0.883438 0.921652 0.934487
0.734163 0.877551 0.900579 0.928963
0.980323 0.966329 1.01496 0.999525
0.905889 0.929195 0.986322 0.988438
0.818818 0.892563 0.954619 0.960989
0.74848 0.920786 0.882108 0.92151
0.786649 0.880348 0.953511 0.937131
0.998543 0.970525 1.02917 0.999711
0.747773 0.872031 0.912511 0.939723
0.769958 0.911113 0.906839 0.93189
0.704212 0.878742 0.876321 0.914489
0.944862 0.935093 1.0135 0.996992
0.895147 0.924198 1.00144 0.967175
0.841346 0.931026 0.961091 0.94026
1.01404 0.997997 1.01705 0.999045
1.02702 0.993608 1.03439 0.99927
1.03156 0.982629 1.05025 0.999566
1.00201 1 1.00409 0.997929
1.00992 0.999848 1.01186 0.998234
1.04812 0.998748 1.05022 0.999251
1.00683 1 1.00868 0.998164
1.04217 0.998786 1.0444 0.999079
1.0474 0.992557 1.05587 0.999421
1.0379 0.987197 1.0519 0.999489
1.02673 0.997448 1.03032 0.999058
1.0055 1 1.00719 0.998326
1.00267 1 1.00437 0.998306
1.00838 0.999824 1.00994 0.998633
1.01197 0.998341 1.01474 0.998933
1.00322 0.999721 1.00514 0.998372
1.0032 0.999554 1.00482 0.998828
0.997236 0.999975 0.998543 0.998716
1.00341 0.99997 1.00617 0.997282
1.00029 1.00112 1.00091 0.998267
0.999738 1.00149 1.00057 0.997676
1.00071 1.00266 1.00186 0.9962
1.01595 1.01866 1.00129 0.996054
1.00468 1.00446 1.00276 0.99746
1.00218 1.00421 1.00138 0.9966
1.01157 1 1.01378 0.997819
1.00521 1.00169 1.00564 0.997884
0.998763 1.00001 1.00058 0.99817
1.00691 1 1.0089 0.998027
1.01166 1 1.01358 0.998103
1.00476 1 1.00635 0.998417
1.00635 1 1.0081 0.99826
1.00028 1 1.00169 0.998592
0.999338 1 1.00005 0.999289
0.998909 1 1.00019 0.998718
0.999404 1 1.00002 0.999379
0.999955 1 1 0.999955
0.999423 1 1 0.999423
0.999965 1 1 0.999965
1 1 1 1
0.999977 1 1 0.999977
1 1 1 1
1 1 1 1
0.998663 1 1 0.998663
0.999573 1 1 0.999573
0.998954 1 1 0.998954
1 1 1 1
0.999749 1 1 0.999749
0.999082 1 1 0.999082
1 1 1 1
1 1 1 1
0.999877 1 1 0.999877
1 1 1 1
1 1 1 1
1 1 1 1
0.76443 0.893932 0.916641 0.932898
0.650177 0.780233 0.90158 0.924279
0.708406 0.830032 0.907306 0.940662
0.998192 1 1 0.998192
0.740576 0.876784 0.906273 0.932005
0.730704 0.873572 0.905397 0.923855
0.624299 0.776372 0.876399 0.917532
0.942736 0.993253 0.959834 0.988858
0.867422 0.94836 0.94456 0.96834
0.688564 0.827509 0.889017 0.935969
0.627797 0.79652 0.863678 0.91258
0.894765 0.963027 0.944694 0.983511
0.846405 0.916243 0.955305 0.966997
0.715544 0.828304 0.923302 0.935627
0.704719 0.877669 0.877145 0.915407
0.840637 0.912009 0.940789 0.979754
0.826815 0.888692 0.965352 0.963766
0.79795 0.888207 0.957825 0.93794
0.752071 0.92121 0.886032 0.921406
1.00145 1 1.00362 0.99784
1.00409 1 1.00612 0.99798
0.999404 1 1.00091 0.998492
0.998251 1 1.00024 0.998011
0.998741 1 1.00079 0.997947
0.998403 1 1.00002 0.998385
0.998326 1 1.00002 0.998308
0.998474 1 1.00006 0.998413
0.96322 1.00392 0.96167 0.997699
0.962851 1.00085 0.963695 0.998279
1.00938 1 1.01168 0.997731
1.00112 1.0015 1.00155 0.998081
1.03032 1 1.03258 0.997804
1.01294 1 1.01523 0.997747
1.00678 1 1.00895 0.997849
0.94866 0.975087 0.974761 0.998088
1.02212 1 1.02415 0.998017
1.03257 0.999517 1.0347 0.998423
0.968045 0.978813 0.989708 0.999283
1.00771 1 1.00966 0.998068
0.934193 0.950985 0.984732 0.997573
0.999138 0.975993 1.02425 0.999477
1.06024 0.996768 1.06523 0.998536
1.02991 0.998824 1.03297 0.998212
0.754052 0.872478 0.916107 0.94341
0.774588 0.893932 0.924975 0.936777
0.68116 0.796286 0.923838 0.925943
1.00338 0.998158 1.00591 0.999322
0.983456 0.969819 1.01473 0.999338
0.763143 0.886861 0.919091 0.93625
0.841356 0.888027 0.980088 0.966692
0.894969 0.927963 0.979424 0.984706
0.779301 0.873441 0.953863 0.935375
0.73514 0.878573 0.900593 0.929103
0.747177 0.92024 0.881025 0.921583
1.00422 0.97923 1.02586 0.999669
0.749282 0.873771 0.912547 0.939706
0.771684 0.909378 0.908413 0.93414
0.957514 0.943543 1.01568 0.999137
0.702459 0.875962 0.875898 0.91555
0.864341 0.903644 0.99219 0.964036
0.841157 0.929849 0.96255 0.939812
0.995783 0.965684 1.03147 0.999705
0.780237 0.901531 0.917608 0.943167
0.738431 0.872915 0.907218 0.932451
0.641061 0.815955 0.860256 0.913282
0.795331 0.886742 0.9569 0.937311
0.937135 0.937987 1.00616 0.992975
0.901209 0.922338 1.0184 0.959442
1.02587 0.996028 1.03079 0.999188
1.0308 0.980283 1.05202 0.999534
1.01856 0.965791 1.05508 0.999582
1.00834 1 1.01019 0.99817
1.04594 0.998543 1.04842 0.999091
1.05488 0.993395 1.06253 0.999396
1.02268 0.997839 1.02588 0.999045
1.03596 0.989191 1.04782 0.999488
1.00816 0.985744 1.02352 0.999235
1.01191 0.999086 1.01395 0.998903
1.00323 0.999816 1.00504 0.99838
1.0066 0.999718 1.00809 0.998804
1.01297 0.998547 1.0164 0.998076
0.998133 0.999104 1 0.999028
1.00021 1.00013 1.00258 0.997505
1.00517 1.00172 1.0078 0.995682
1.0055 1.00762 1.00251 0.995387
1.00086 1.00294 1.00037 0.997559
1.00106 1.00337 1.00172 0.995984
1.01827 1.0217 1.00053 0.996122
1.01245 1.01309 1.00261 0.996766
1.01463 1.01727 1.00125 0.996162
1.00822 1.001 1.00962 0.99762
1.00734 1.00657 1.00335 0.997423
0.999687 1.00175 1.00128 0.996669
1.01158 1 1.01341 0.998197
1.01083 1 1.01301 0.997848
1.00652 1.00237 1.00626 0.997897
1.01043 1 1.01232 0.998136
1.00476 1 1.00635 0.998418
1.00011 1 1.00099 0.999118
1.00051 1 1.00192 0.998592
0.999544 1 1.00026 0.999284
0.999942 1 1 0.999942
0.999376 1 1 0.999376
0.999952 1 1 0.999952
1 1 1 1
0.999961 1 1 0.999961
1 1 1 1
1 1 1 1
0.998573 1 1 0.998573
0.999384 1 1 0.999384
0.998718 1 1 0.998718
0.999999 1 1 0.999999
0.999553 1 1 0.999553
0.998951 1 1 0.998951
1 1 1 1
1 1 1 1
0.99969 1 1 0.99969
1 1 1 1
1 1 1 1
1 1 1 1
0.754911 0.875827 0.915186 0.94182
0.766148 0.892805 0.919846 0.932912
0.651228 0.779273 0.904013 0.92442
0.998233 1 1 0.998233
0.999387 1 1.00125 0.998141
0.998161 1 1 0.998161
0.771753 0.913705 0.906745 0.931509
0.737697 0.876714 0.90265 0.932181
0.728765 0.87312 0.903602 0.923711
0.901655 0.970601 0.942531 0.985608
0.815339 0.90237 0.939013 0.962237
0.715818 0.81646 0.930214 0.942507
0.711316 0.884791 0.880284 0.913269
0.844578 0.918036 0.936136 0.982746
0.842746 0.897616 0.974194 0.963741
0.783535 0.873602 0.955483 0.93869
0.749004 0.92065 0.882982 0.921379
0.857135 0.911555 0.959331 0.980162
0.869444 0.907364 0.99282 0.965138
0.841192 0.928073 0.96356 0.940663
0.715862 0.88788 0.879048 0.917197
0.998669 1 1.00065 0.998018
1.00173 1 1.00394 0.997799
1.00373 1 1.00581 0.997937
0.99812 1 1.00012 0.997997
0.998519 1 1.00049 0.998027
0.99831 1 1 0.99831
0.946167 0.96925 0.977915 0.99823
0.966759 0.978513 0.988671 0.999309
1.00753 1 1.0097 0.997854
1.02447 1.00034 1.02569 0.998466
1.02142 1 1.02344 0.998027
1.00937 0.999961 1.01135 0.998084
1.0236 0.995897 1.02962 0.99825
0.940801 0.950177 0.992443 0.997671
1.05528 0.994948 1.06204 0.998678
1.00265 0.970097 1.03426 0.999311
1.01473 0.994145 1.02233 0.998418
0.966702 0.950327 1.02001 0.997272
1.01323 0.971157 1.04412 0.999242
1.03455 0.975899 1.06138 0.998792
0.7952 0.909738 0.924559 0.945421
0.757605 0.874157 0.918232 0.943846
0.77373 0.894134 0.92418 0.936333
1.01032 0.987734 1.02325 0.999627
0.946684 0.941572 1.00792 0.997532
0.749884 0.874184 0.912864 0.939691
0.86156 0.891169 0.998479 0.968248
0.837657 0.931145 0.96092 0.936185
0.772898 0.90872 0.908319 0.936383
0.7112 0.883579 0.881069 0.913558
0.990916 0.961597 1.03074 0.99976
0.77978 0.899386 0.918417 0.944031
0.740857 0.877985 0.904758 0.932641
0.932634 0.934044 1.00989 0.988709
0.633391 0.80985 0.859236 0.910238
0.78149 0.8727 0.954975 0.937705
0.905304 0.926057 1.01219 0.965818
1.00608 0.952971 1.05745 0.998378
0.755721 0.874026 0.917813 0.942071
0.742244 0.881227 0.910981 0.924591
0.555618 0.711446 0.851994 0.916639
0.709567 0.832129 0.912309 0.934675
0.874883 0.907064 1.00015 0.96438
0.907766 0.925736 0.995124 0.985394
1.02729 0.979028 1.04982 0.999501
1.02548 0.975938 1.0512 0.999584
1.01 0.97771 1.03357 0.999481
1.0165 0.998308 1.01921 0.999032
1.03147 0.990977 1.0414 0.999487
1.01168 0.981918 1.03101 0.999319
1.00652 0.996294 1.01151 0.998767
1.01017 1 1.01141 0.998779
1.01009 0.999279 1.01302 0.997822
1.02275 1.00096 1.0258 0.996076
0.996593 1.00003 0.998828 0.997731
1.0063 1.00165 1.00895 0.995732
1.00611 1.00262 1.00871 0.994816
1.00891 1.01205 1.00191 0.994999
1.01091 1.01412 1.00108 0.995761
1.00551 1.00746 1.00275 0.995328
1.00123 1.00395 1.00153 0.995771
1.01453 1.01702 1.0011 0.996454
1.01945 1.02283 1.00048 0.996214
1.00627 1.00452 1.00464 0.997123
1.01483 1.01526 1.00274 0.99685
1.01449 1.0171 1.00117 0.996271
1.01254 1 1.01469 0.997877
1.00901 1.00214 1.00927 0.997613
1.01022 1.009 1.00383 0.997385
1.00344 1 1.00453 0.998913
1.01013 1 1.01195 0.998196
1.01014 1 1.01229 0.997876
1.00461 1 1.0062 0.998419
1.00052 1 1.00141 0.999114
0.999903 1 1 0.999903
0.999632 1 1.00035 0.999279
0.999935 1 1 0.999935
1 1 1 1
0.99995 1 1 0.99995
1 1 1 1
1 1 1 1
0.998513 1 1 0.998513
0.999346 1 1 0.999346
0.998602 1 1 0.998602
0.999989 1 1 0.999989
0.999432 1 1 0.999432
0.998773 1 1 0.998773
1 1 1 1
0.999999 1 1 0.999999
0.999532 1 1 0.999532
1 1 1 1
1 1 1 1
1 1 1 1
0.778283 0.900424 0.916791 0.942802
0.759264 0.876905 0.919336 0.941815
0.768387 0.891563 0.923764 0.932968
1.00917 1 1.01118 0.998009
1.0034 1 1.00548 0.997929
0.998275 1 1 0.998275
0.999966 1 1.00185 0.998122
0.99817 1 1 0.99817
1.00113 1 1.00301 0.998132
0.998224 1 1 0.998224
0.73952 0.885103 0.899697 0.928666
0.775061 0.912254 0.909848 0.933795
0.73936 0.874755 0.906535 0.932363
0.747372 0.920645 0.881073 0.921368
0.845873 0.920488 0.937586 0.980112
0.844267 0.894058 0.980079 0.963502
0.792721 0.888222 0.9479 0.941535
0.841574 0.912312 0.942122 0.979133
0.871499 0.902063 1.00617 0.960192
0.839245 0.927549 0.962003 0.940536
0.706232 0.879277 0.872374 0.920701
0.888454 0.924184 0.978758 0.982202
0.885993 0.911756 1.01225 0.959985
0.773451 0.876912 0.943014 0.935316
0.65217 0.824612 0.866281 0.912961
1.02837 0.999702 1.03035 0.99838
1.00038 1 1.00234 0.998046
1.0026 1 1.00486 0.997757
0.997983 1 1 0.997983
0.951218 0.95313 1.00019 0.9978
1.00441 0.967661 1.03887 0.999139
1.00902 0.99982 1.01112 0.998101
1.01762 0.995198 1.02429 0.998288
1.04388 0.989306 1.05641 0.998821
1.01539 0.997742 1.01929 0.99842
1.03813 0.975773 1.06521 0.998779
0.966468 0.949909 1.02188 0.995647
1.01258 0.962646 1.0525 0.999401
1.01203 0.980141 1.03366 0.998906
0.951981 0.925402 1.03399 0.994906
1.00098 0.950998 1.05332 0.999278
0.756567 0.872197 0.919223 0.943652
0.7924 0.907332 0.922078 0.947133
0.762085 0.875971 0.921329 0.944276
0.986167 0.955574 1.03222 0.999805
0.938404 0.937851 1.00723 0.993409
0.777594 0.896654 0.91778 0.944907
0.908861 0.931267 1.01629 0.960295
0.784592 0.881921 0.945762 0.940659
0.745332 0.880436 0.907524 0.932811
0.626313 0.79338 0.864768 0.912873
1.00661 0.954887 1.05564 0.998607
0.759112 0.878852 0.916866 0.942073
0.735321 0.87486 0.909209 0.924431
0.909822 0.926031 0.994339 0.98809
0.56465 0.730727 0.847931 0.911306
0.704069 0.818176 0.920283 0.935077
0.871033 0.903751 1.00328 0.960644
0.992493 0.958016 1.03969 0.996443
0.767492 0.897683 0.916159 0.933212
0.616525 0.761948 0.883399 0.915942
0.675699 0.808565 0.885628 0.943598
0.81973 0.873708 0.972107 0.965139
0.864227 0.901102 0.977701 0.980952
1.03375 0.981038 1.05416 0.99959
1.013 0.974706 1.03982 0.999488
0.979582 0.973497 1.007 0.999256
1.0161 0.978198 1.03937 0.999402
1.00339 0.987422 1.01731 0.998875
1.00405 1.0008 1.00562 0.997644
1.00704 1.00003 1.00947 0.997568
1.02141 1.00097 1.0246 0.995926
1.01059 1.00113 1.0145 0.995015
1.00786 1.00186 1.01025 0.995782
1.00678 1.00241 1.00969 0.994723
1.00182 1.0028 1.00448 0.994576
1.03459 1.03952 1 0.995253
1.01984 1.02384 1.00077 0.995332
1.00925 1.01217 1.00218 0.994941
1.01175 1.01562 1.00013 0.996066
1.00924 1.01272 1.00074 0.995825
1.00556 1.00723 1.00309 0.995269
1.01229 1.01468 1.00112 0.996526
1.01394 1.01648 1.00108 0.996424
1.02008 1.02342 1.00043 0.996305
1.00681 1.00126 1.00811 0.997451
1.00728 1.00544 1.00463 0.997214
1.01631 1.01651 1.00288 0.996934
1.00899 1 1.0104 0.998599
1.01152 1.00019 1.01347 0.997885
1.00982 1.00344 1.00878 0.997606
0.999889 1 1.00006 0.999833
1.00408 1 1.00517 0.998908
1.00895 1 1.01078 0.998195
1.0011 1 1.00199 0.99911
0.999891 1 1 0.999891
1 1 1 1
0.999927 1 1 0.999927
1 1 1 1
1 1 1 1
1.00905 1 1.01106 0.998012
1.00264 1 1.00432 0.998319
0.999181 1 1 0.999181
0.998928 1 1.00042 0.998508
0.999966 1 1 0.999966
0.999349 1 1 0.999349
0.998632 1 1 0.998632
1 1 1 1
0.999993 1 1 0.999993
0.999479 1 1 0.999479
1 1 1 1
1 1 1 1
1 1 1 1
0.749743 0.873519 0.913382 0.939696
0.774884 0.896846 0.915567 0.943688
0.759756 0.880159 0.916544 0.941802
1.01085 1 1.01286 0.998019
1.00582 1.00026 1.00763 0.997945
1.00034 1.00006 1.00243 0.997858
1.01134 1 1.01342 0.997952
1.00836 1.0007 1.00975 0.997925
1.00168 1 1.00359 0.998104
0.998179 1 1 0.998179
1.00073 1 1.0026 0.998136
0.998246 1 1 0.998246
1.01708 1 1.01881 0.998302
0.725612 0.864918 0.907177 0.924778
0.738337 0.881662 0.901537 0.9289
0.775759 0.911927 0.908784 0.936066
0.706962 0.879794 0.872424 0.92106
0.838202 0.929029 0.963269 0.936638
0.836971 0.907471 0.943457 0.977588
0.876264 0.904339 1.0045 0.964617
0.877815 0.924389 0.970369 0.978613
0.891925 0.922666 1.00192 0.964831
0.789559 0.879954 0.956382 0.938196
0.654019 0.833231 0.860913 0.911729
0.894107 0.91418 0.996739 0.981243
0.877909 0.900839 1.00932 0.965543
0.693987 0.800598 0.919938 0.942277
0.597296 0.76131 0.856265 0.916263
1.02597 0.999761 1.0273 0.998944
1.02855 0.999386 1.03084 0.998392
1.00307 1 1.005 0.998076
0.966392 0.94926 1.02426 0.99394
1.01369 0.956521 1.06023 0.99956
1.01652 0.99975 1.01838 0.998422
1.04452 0.975173 1.07243 0.998767
1.01547 0.984547 1.03253 0.998912
1.0074 0.959327 1.05088 0.999274
0.953893 0.931165 1.02971 0.994855
1.01251 0.987534 1.02596 0.999345
0.965004 0.950202 1.0199 0.995764
0.776227 0.894987 0.925886 0.93673
0.763011 0.876752 0.921821 0.944078
0.788806 0.904521 0.91907 0.948862
1.00821 0.963241 1.04795 0.998795
0.904947 0.923792 0.996113 0.983422
0.76533 0.883994 0.919005 0.942066
0.874015 0.907259 1.00151 0.961908
0.702376 0.804405 0.927131 0.941789
0.726125 0.869231 0.903755 0.924327
0.573383 0.749717 0.844274 0.905866
0.989929 0.956967 1.03784 0.996725
0.766795 0.892718 0.920428 0.9332
0.614792 0.762712 0.881423 0.914499
0.876694 0.913701 0.976497 0.982591
0.686598 0.813943 0.896109 0.941343
0.819956 0.885691 0.962154 0.962196
0.943851 0.943158 1.00603 0.994733
0.646931 0.78054 0.899946 0.920973
0.688949 0.815364 0.894676 0.944429
0.82692 0.906378 0.947938 0.962441
0.841029 0.902511 0.947502 0.98351
1.01347 0.972989 1.04213 0.999497
0.98294 0.969288 1.01487 0.99923
0.992532 0.988696 1.00548 0.998412
1.0002 0.976973 1.02482 0.998979
1.00297 1.00005 1.0052 0.997738
0.998418 1.00272 0.999111 0.996592
1.02008 1.00077 1.02363 0.995772
1.0095 1.00152 1.01301 0.995014
0.999746 1.003 1.00137 0.995388
1.00694 1.00207 1.01029 0.99463
1.00214 1.00385 1.0037 0.994614
1.0307 1.03536 1 0.995499
1.0608 1.06536 0.999747 0.995976
1.04594 1.05081 1.00002 0.995352
1.03483 1.03974 1 0.995285
1.02486 1.02936 1 0.995626
1.01867 1.0224 1.00107 0.995274
1.01034 1.01307 1.00244 0.994882
1.01812 1.022 1 0.996203
1.01026 1.01415 1.00002 0.996139
1.00734 1.01118 1.00032 0.995889
1.00426 1.00523 1.00208 0.996958
1.00928 1.01144 1.0013 0.996576
1.01406 1.01662 1.0011 0.996395
1.01064 1.00022 1.01232 0.998115
1.00866 1.00233 1.00888 0.997451
1.0083 1.0062 1.0048 0.997304
1.00121 1 1.00148 0.99973
1.0084 1 1.00982 0.998593
1.01086 1.0004 1.01258 0.997893
0.999971 1 1 0.999971
1.00024 1 1.00042 0.999818
1.00456 1 1.00566 0.998903
0.999879 1 1 0.999879
1 1 1 1
1 1 1 1
1.00754 1.00107 1.00863 0.997853
1.00762 1 1.00951 0.998128
1.01039 1 1.01242 0.997987
1.00021 1 1.00121 0.998999
1.00206 1 1.00375 0.998315
0.99993 1 1 0.99993
0.99925 1 1.00006 0.999186
0.998825 1 1.00032 0.998503
1 1 1 1
0.999974 1 1 0.999974
0.999351 1 1 0.999351
1 1 1 1
0.999996 1 1 0.999996
1 1 1 1
0.760138 0.885168 0.916659 0.936826
0.753616 0.876801 0.914668 0.939692
0.77572 0.892646 0.920006 0.944572
0.999915 1.00172 1.0004 0.997797
1.0091 1 1.01109 0.998029
1.00388 1 1.00592 0.997964
1.00642 1 1.00851 0.997923
1.00058 1.00028 1.00242 0.997887
1.00443 1 1.00635 0.99809
1.01324 1.00048 1.01539 0.9974
1.018 1 1.01995 0.998091
1.00087 1 1.00273 0.998139
0.998268 1 1 0.998268
1.01845 0.999955 1.02024 0.998285
1.03426 1.00103 1.03474 0.998499
0.631254 0.771922 0.891897 0.916887
0.738852 0.87821 0.910085 0.924436
0.739054 0.88085 0.903068 0.929081
0.654349 0.83155 0.858832 0.916248
0.78473 0.877162 0.954835 0.93694
0.888241 0.91424 1.01197 0.960074
0.878974 0.91984 0.975732 0.97934
0.89432 0.915824 0.993043 0.983361
0.586355 0.755736 0.851727 0.910941
0.868288 0.902276 1.00095 0.961417
0.704452 0.814834 0.922273 0.937396
0.893412 0.923579 0.981991 0.985078
0.848768 0.896407 0.979045 0.967122
0.674646 0.805899 0.888501 0.942188
0.992182 1.00059 0.992069 0.999527
1.0261 1.00014 1.02703 0.99895
1.02839 0.999891 1.03015 0.998401
0.956013 0.935072 1.02765 0.994884
1.01462 0.968496 1.04839 0.999273
1.01896 0.990647 1.02969 0.998919
1.01089 0.98669 1.0252 0.999344
0.961053 0.949038 1.01692 0.995813
0.986213 0.981077 1.008 0.997257
0.683962 0.798441 0.926544 0.924535
0.772644 0.893591 0.921048 0.938768
0.765084 0.879624 0.920917 0.944476
0.991075 0.956802 1.03904 0.996905
0.868834 0.911304 0.969412 0.983479
0.764467 0.887766 0.922691 0.933264
0.833818 0.882412 0.981536 0.962706
0.692103 0.831088 0.88903 0.936714
0.626999 0.776463 0.879362 0.918287
0.942582 0.937046 1.01117 0.994793
0.652115 0.781118 0.902726 0.924808
0.680918 0.815466 0.888807 0.939467
0.836436 0.904686 0.943703 0.979713
0.84782 0.920965 0.951904 0.967091
0.937921 0.954399 0.985155 0.997544
0.708174 0.826058 0.913514 0.938456
0.888747 0.966143 0.949273 0.969049
0.840139 0.916376 0.936072 0.979419
0.986162 0.966294 1.02137 0.999209
0.983132 0.988719 0.995845 0.998497
0.994679 1.00063 0.996623 0.99742
1.00231 0.99974 1.00475 0.997833
1.00017 1.00274 1.00088 0.996558
1.00164 1.00575 0.999428 0.996485
1.00862 1.00212 1.01153 0.995013
0.999527 1.00248 1.00167 0.995391
1.03137 1.03843 0.996751 0.996434
1.00237 1.00456 1.00319 0.994652
1.0292 1.03389 0.999962 0.995508
1.0601 1.06646 0.997406 0.996626
1.05938 1.06485 0.998135 0.996722
1.06202 1.06641 1 0.99589
1.06174 1.06635 0.999646 0.996026
1.0483 1.05295 1 0.995582
1.04396 1.04876 1 0.995422
1.03369 1.03856 1 0.995317
1.03507 1.03931 1 0.995922
1.02569 1.03004 1.00014 0.995649
1.01743 1.02081 1.00148 0.995216
1.01348 1.01701 1 0.996532
1.01615 1.02003 1 0.996201
1.00849 1.01232 1 0.996212
1.00431 1.00136 1.00531 0.997642
1.00671 1.00743 1.00234 0.99695
1.00583 1.00778 1.00145 0.996626
1.00275 1 1.00324 0.999513
1.00907 1.00076 1.0102 0.998112
1.00976 1.00346 1.00885 0.997451
1 1 1 1
1.00185 1 1.00217 0.999684
1.00747 1 1.0089 0.998587
1 1 1 1
1.00062 1 1.00082 0.999799
1 1 1 1
1.00206 1.00255 1.00185 0.997663
1.00621 1.00062 1.00778 0.997827
1.00927 1 1.01132 0.997965
1.00373 1 1.00493 0.998813
1.0089 1 1.0108 0.998125
1.01354 1 1.01561 0.997963
0.999877 1 1 0.999877
0.999832 1 1.00083 0.999004
1.00256 1 1.00426 0.998311
1 1 1 1
0.999941 1 1 0.999941
0.999191 1 1 0.999191
1 1 1 1
0.999981 1 1 0.999981
1 1 1 1
0.656034 0.784914 0.910356 0.918107
0.763782 0.888901 0.917132 0.93688
0.757697 0.88059 0.915661 0.939696
1.0031 1.00099 1.00435 0.997768
1.00845 1.00447 1.0066 0.997371
1.0126 1.00135 1.01368 0.997592
1.00668 1 1.0088 0.997894
1.00248 1.00195 1.00262 0.997916
1.00533 1 1.0071 0.99825
1.01718 1 1.01919 0.998023
1.014 1.00126 1.01524 0.997522
1.01851 1.0021 1.01888 0.99754
0.98115 1.00161 0.980583 0.998965
1.0172 1 1.01897 0.998267
1.02934 1.00033 1.03058 0.998476
0.685273 0.813469 0.899747 0.936272
0.611165 0.753619 0.887701 0.913566
0.747294 0.885498 0.913051 0.924292
0.575999 0.750033 0.848161 0.905447
0.714344 0.824469 0.919269 0.942519
0.854946 0.894786 0.992135 0.963049
0.897522 0.918506 0.996603 0.980486
0.880642 0.915355 0.97923 0.982484
0.680123 0.802406 0.90131 0.940414
0.827974 0.887344 0.96905 0.962894
0.860623 0.91896 0.951533 0.984221
0.820736 0.914515 0.931872 0.963066
0.998056 1 0.999028 0.999027
0.992782 1.00032 0.992984 0.999475
1.02679 0.999844 1.02803 0.998956
0.954163 0.945081 1.01379 0.995872
1.00848 0.984645 1.02488 0.999344
0.98785 0.983409 1.00733 0.99721
0.972223 0.98826 0.987589 0.996136
0.727084 0.839873 0.916762 0.944311
0.680415 0.795669 0.924684 0.9248
0.774925 0.895868 0.919489 0.940739
0.945716 0.943589 1.0073 0.99499
0.838969 0.901561 0.949448 0.980121
0.65324 0.780949 0.904394 0.924894
0.814669 0.904522 0.935551 0.962708
0.698069 0.820903 0.900325 0.94451
0.940124 0.958046 0.985041 0.996196
0.718676 0.835969 0.912787 0.941833
0.877487 0.962537 0.946234 0.96344
0.840309 0.917351 0.932641 0.982176
0.949851 0.979344 0.972477 0.997335
0.899767 0.977299 0.950809 0.968299
0.893995 0.966144 0.939194 0.985231
0.97386 0.987602 0.987504 0.998564
0.989479 1.00062 0.991453 0.99739
0.983446 1.00883 0.977555 0.997223
1.0013 1.00294 1.00185 0.996526
1.0009 1.0058 0.998644 0.996477
1.02537 1.0452 0.983817 0.997171
0.999267 1.00202 1.00186 0.995395
1.02926 1.03755 0.995587 0.996411
1.04597 1.06624 0.983704 0.997242
1.02866 1.03339 0.999908 0.995517
1.05849 1.06582 0.996499 0.996617
1.05174 1.06589 0.989467 0.997233
1.05377 1.06303 0.994158 0.997114
1.06021 1.06614 0.997641 0.996798
1.05815 1.06213 0.999684 0.996571
1.06281 1.06713 1 0.995952
1.06218 1.06653 0.999998 0.995915
1.06357 1.06825 0.999541 0.996076
1.05094 1.05538 1 0.995797
1.05004 1.05467 1 0.99561
1.04218 1.0469 1 0.995493
1.03234 1.03626 1 0.996221
1.03503 1.03927 1 0.99592
1.0265 1.03078 1.00017 0.995672
1.00214 1.00443 1.00044 0.997289
1.0149 1.01843 1 0.996531
1.01505 1.01893 1 0.996198
1.00233 1 1.00311 0.999214
1.00523 1.00223 1.00537 0.99764
1.00962 1.00969 1.003 0.996943
1 1 1 1
1.0031 1 1.00362 0.999488
1.00815 1.00106 1.00899 0.998109
0.999976 1 1 0.999976
1.00261 1 1.00293 0.999671
1 1 1 1
1.00099 1.0035 1 0.997496
1.00187 1.0013 1.00289 0.997679
1.00553 1 1.00774 0.997804
1.0038 1 1.00601 0.997801
1.00958 1 1.01164 0.997968
1.00721 1 1.00861 0.998611
1.00032 1 1.00052 0.9998
1.00279 1 1.00398 0.998814
1.00892 1 1.01082 0.998122
1 1 1 1
0.999892 1 1 0.999892
0.999514 1 1.0005 0.99901
1 1 1 1
0.999952 1 1 0.999952
1 1 1 1
0.711225 0.828628 0.911527 0.941624
0.658164 0.784987 0.911871 0.919471
0.764891 0.890632 0.916625 0.936936
1.00569 1.00024 1.00773 0.99774
1.01555 1.00068 1.01752 0.997386
1.00569 1.00347 1.00478 0.997438
1.00656 1.00826 1.00189 0.996433
1.01577 1.00249 1.01576 0.997518
1.01532 1 1.0174 0.997961
1.01177 1.00067 1.01349 0.997642
1.0195 1.00176 1.02011 0.997652
0.999789 1.00456 0.997951 0.997295
0.973017 1.00114 0.973392 0.998472
0.97153 1.00035 0.97345 0.997677
0.984134 1.00118 0.983962 0.998993
1.02485 1.00078 1.02563 0.998453
0.868301 0.95191 0.943581 0.966707
0.677528 0.807139 0.894824 0.938084
0.606603 0.750073 0.883723 0.915135
0.678552 0.810187 0.894936 0.935849
0.83634 0.89664 0.967616 0.963965
0.886321 0.912605 0.985868 0.985121
0.859837 0.916982 0.950857 0.986143
0.85581 0.925916 0.954619 0.968224
0.882826 0.958806 0.934548 0.985242
0.992785 1.00132 0.993247 0.998218
0.997755 1 0.99875 0.999003
0.992614 1 0.993186 0.999424
0.990944 0.987327 1.00647 0.997216
0.978758 0.990731 0.99132 0.996566
0.881838 0.966267 0.944607 0.966141
0.729602 0.838349 0.920978 0.944957
0.675579 0.790816 0.923431 0.925117
0.942985 0.964213 0.983134 0.994761
0.848169 0.928449 0.932511 0.97965
0.712132 0.831439 0.910127 0.941083
0.870151 0.950409 0.945467 0.968362
0.957538 0.980069 0.979526 0.997432
0.909526 0.987379 0.95087 0.968747
0.891473 0.96268 0.942596 0.982428
0.959991 1.00295 0.960264 0.996774
0.926934 0.991195 0.944823 0.989782
0.98821 1.00245 0.988372 0.997387
0.980129 1.00862 0.974502 0.997177
0.991752 1.04041 0.955592 0.997532
0.999809 1.00524 0.998123 0.996468
1.02779 1.04665 0.984799 0.997139
1.04101 1.07297 0.972606 0.997542
1.02685 1.03649 0.994293 0.996389
1.046 1.06635 0.983659 0.997215
1.03856 1.06519 0.977473 0.99747
1.05605 1.06436 0.995563 0.996607
1.0514 1.06563 0.989407 0.99721
1.0488 1.06684 0.985734 0.997313
1.05258 1.06277 0.993216 0.997172
1.05314 1.06121 0.995458 0.996925
1.06061 1.06701 0.99712 0.996875
1.05814 1.06205 0.999751 0.996563
1.05894 1.06286 0.99997 0.996339
1.06001 1.06433 1 0.995939
1.06256 1.0669 1 0.99594
1.06221 1.06653 1 0.995941
1.04759 1.05175 1 0.996041
1.05152 1.05596 1 0.995797
1.05205 1.05666 1 0.995637
1.01087 1.0139 1 0.997014
1.03079 1.03469 1 0.996222
1.03453 1.03877 1 0.995918
1.00035 1 1.00147 0.998876
1.00489 1.00694 1.00068 0.997291
1.01587 1.01941 1 0.996529
1 1 1 1
1.00189 1 1.0027 0.999188
1.00601 1.00342 1.00495 0.997638
1 1 1 1
1.00325 1 1.00379 0.999462
1 1 1 1
1.01441 1.01732 1.00057 0.996573
1.00193 1.00435 1.00011 0.997482
1.00145 1.00166 1.00226 0.997534
1.0023 1 1.00461 0.997697
1.00492 1.00001 1.00716 0.997765
1.00792 1.00005 1.00955 0.998334
1.01147 1 1.01352 0.99797
1.00778 1 1.00919 0.998609
1.00219 1 1.0025 0.999689
1 1 1 1
1.00009 1 1.00027 0.999814
1.00227 1 1.00346 0.998815
1 1 1 1
0.999906 1 1 0.999906
1 1 1 1
0.900709 0.976524 0.95053 0.970367
0.718458 0.837565 0.90996 0.942671
0.657718 0.785072 0.913277 0.917334
1.01832 1.00022 1.02097 0.99718
1.00336 1.00298 1.00288 0.997506
1.01314 1.00245 1.01327 0.997426
1.00741 1.00908 1.00182 0.996533
1.02463 1.02844 1.00016 0.996137
1.00153 1.00451 1 0.997036
1.02194 1.00166 1.02254 0.99776
1.00098 1.00551 0.998385 0.99711
0.980122 1.00242 0.979264 0.998455
0.996206 1.00326 0.995593 0.997362
0.971966 1.00345 0.970897 0.99766
0.992633 1.00153 0.993901 0.9972
0.972592 1.00082 0.973958 0.997781
0.98784 1.0002 0.988605 0.999022
0.895655 0.969791 0.937471 0.985156
0.878281 0.962033 0.944749 0.966333
0.688931 0.807684 0.90402 0.943531
0.837668 0.918332 0.947726 0.962474
0.871583 0.919161 0.960543 0.987189
0.884505 0.949951 0.941195 0.989282
0.970377 1.00377 0.969726 0.996916
0.99036 1.00047 0.991743 0.998137
0.997009 0.999599 0.998428 0.99898
0.9805 0.991782 0.991621 0.996979
0.918814 0.973146 0.957852 0.985716
0.895778 0.97335 0.947292 0.971511
0.719624 0.833871 0.917721 0.940365
0.955386 0.97548 0.981823 0.997534
0.89604 0.968582 0.939985 0.98417
0.909737 0.985577 0.952546 0.969035
0.954542 1.00081 0.956768 0.996864
0.929342 0.987769 0.951421 0.988888
0.957524 1.02509 0.936883 0.997017
0.974693 1.02027 0.959576 0.995577
0.975294 1.0084 0.969962 0.997124
0.988604 1.03783 0.954928 0.99753
1.00745 1.0721 0.942048 0.997506
1.03087 1.04874 0.985814 0.997107
1.04023 1.07245 0.972374 0.997519
1.04279 1.07206 0.97521 0.997421
1.04661 1.06678 0.983857 0.997189
1.03958 1.06487 0.978738 0.997451
1.05288 1.07392 0.983086 0.997274
1.05142 1.06565 0.989435 0.997187
1.04732 1.06457 0.986448 0.997306
1.05262 1.06672 0.989716 0.997035
1.05167 1.06276 0.992316 0.997229
1.05308 1.06115 0.995408 0.996971
1.05805 1.06319 0.99857 0.99659
1.05828 1.06211 0.999837 0.996555
1.05927 1.0632 0.999972 0.996328
1.06042 1.06448 1 0.996181
1.05347 1.05768 1 0.996022
1.06021 1.06455 1 0.995925
1.06225 1.0666 1 0.995927
1.02441 1.02769 1 0.996805
1.04614 1.05029 1 0.996047
1.05213 1.05658 1 0.995796
0.999724 1.00085 1.00027 0.998602
1.01305 1.01607 1.00001 0.997013
1.02944 1.03334 1 0.996223
1 1 1 1
1.00005 1.00012 1.00108 0.998857
1.00766 1.00946 1.00093 0.997292
1 1 1 1
1.00158 1 1.00242 0.999163
1 1 1 1
1.02907 1.033 1 0.996194
1.01601 1.01919 1.00028 0.996606
1.01185 1.01429 1.00066 0.99693
1.00247 1.00478 1.00023 0.997468
1.00147 1.00181 1.0022 0.997476
1.00589 1.00265 1.00527 0.99797
1.00396 1 1.00625 0.997726
1.0083 1.00011 1.00987 0.998336
1.00373 1 1.00419 0.999538
1.00806 1 1.00947 0.998608
1.00152 1 1.00182 0.9997
1 1 1 1
1 1 1 1
0.99983 1 1 0.999829
1 1 1 1
0.909955 0.9702 0.951087 0.98614
0.889376 0.974216 0.945587 0.965448
0.717418 0.830618 0.913561 0.945438
1.04519 1.04925 1.00007 0.996061
1.01012 1.00192 1.01088 0.997335
1.00854 1.01024 1.00169 0.996634
1.00192 1.00489 1 0.997045
1.02317 1.02672 1.00042 0.996117
1.00952 1.0128 0.999729 0.997027
1.0016 1.0053 0.999388 0.996926
0.983741 1.00263 0.982693 0.998436
0.994093 1.00367 0.993064 0.997375
0.965647 1.00246 0.965685 0.997507
1.01277 1.01753 0.99866 0.996657
0.99179 1.00735 0.987252 0.99727
0.992154 1.00215 0.992829 0.997176
0.974949 1.00134 0.975712 0.997884
0.964335 1.00605 0.960987 0.997453
0.888157 0.964564 0.936083 0.983659
0.87484 0.963358 0.939777 0.96631
0.882046 0.943078 0.947712 0.986886
0.973221 1.00468 0.970758 0.997869
0.990393 1.0002 0.992134 0.998045
0.974594 1.00806 0.971855 0.994799
0.905263 0.956754 0.958507 0.987141
0.883386 0.971326 0.941195 0.966287
0.953975 0.998537 0.958294 0.996952
0.937527 0.989892 0.958826 0.987771
0.961157 1.0269 0.938632 0.997173
0.979619 1.02066 0.963733 0.995912
0.990874 1.04893 0.947201 0.997312
1.05473 1.08463 0.975174 0.99719
0.984891 1.03464 0.954279 0.997526
1.01346 1.07359 0.946367 0.997487
1.03444 1.08679 0.954441 0.997272
1.0389 1.07153 0.97198 0.997496
1.03928 1.06994 0.973868 0.997417
1.05339 1.08198 0.976349 0.997156
1.04021 1.06435 0.979844 0.997431
1.05053 1.07219 0.982466 0.997288
1.05589 1.07273 0.987276 0.996984
1.04572 1.06223 0.987131 0.997299
1.05296 1.06705 0.98974 0.997033
1.05818 1.06719 0.994828 0.996717
1.05289 1.061 0.99532 0.997018
1.05851 1.0636 0.998578 0.996636
1.06274 1.06672 0.999954 0.996311
1.0596 1.06353 0.999982 0.996317
1.06019 1.06427 1 0.996171
1.05551 1.05964 1 0.996094
1.03247 1.03589 1 0.996699
1.0534 1.0576 1 0.996026
1.06038 1.06474 1 0.995911
1.00321 1.00476 1 0.998461
1.02418 1.02746 1 0.996805
1.04487 1.04901 1 0.996054
1 1 1 1
1.00063 1.00194 1.0001 0.998587
1.01525 1.01829 1 0.997012
1 1 1 1
0.999635 1.00023 1.00056 0.998839
1 1 1 1
1.04397 1.04819 1 0.995967
1.03019 1.03413 1 0.996188
1.02804 1.03165 1 0.996506
1.01786 1.02128 1.00001 0.996639
1.01341 1.01598 1.00056 0.996914
1.00892 1.00883 1.00249 0.99761
1.00113 1.00175 1.00196 0.997417
1.00543 1.0014 1.00606 0.997972
1.00233 1 1.003 0.999339
1.00837 1 1.01005 0.998337
1.00297 1 1.00342 0.999551
1 1 1 1
1.00085 1 1.00114 0.999711
1 1 1 1
1 1 1 1
0.968895 1.01057 0.961621 0.99703
0.904167 0.968779 0.949277 0.983175
0.889035 0.968559 0.94558 0.970721
1.03675 1.04028 1.00001 0.996592
1.05524 1.05963 0.999593 0.996258
1.04334 1.04726 1.00011 0.996147
1.00277 1.00574 1 0.997053
1.02143 1.02468 1.00073 0.996096
1.01205 1.01622 0.998878 0.997015
1.03522 1.04394 0.995037 0.996592
0.993454 1.00491 0.991193 0.997389
0.962312 1.00189 0.963046 0.997354
1.01395 1.02005 0.997237 0.996776
1.02503 1.04493 0.984365 0.996537
0.99444 1.02795 0.969877 0.997442
0.997854 1.00981 0.990928 0.997211
0.993124 1.0027 0.993283 0.99715
0.967472 1.00753 0.96239 0.99777
0.893916 0.968714 0.939608 0.982096
0.973348 1.00438 0.970211 0.998856
1.03378 1.06479 0.973053 0.997766
0.972432 1.00661 0.970953 0.994946
0.908119 0.966087 0.954559 0.984745
0.964066 1.02914 0.939285 0.99732
0.983856 1.02094 0.967292 0.996265
0.985494 1.0493 0.941553 0.997491
1.05218 1.08426 0.973125 0.997214
1.04884 1.09651 0.959205 0.997205
1.09078 1.12106 0.975569 0.997355
1.01941 1.07592 0.949882 0.997469
1.04068 1.08924 0.958035 0.997272
1.05602 1.09164 0.970215 0.997069
1.03586 1.06791 0.972503 0.997414
1.05328 1.0812 0.976959 0.997156
1.05598 1.07814 0.98244 0.996952
1.04825 1.07048 0.981886 0.997302
1.05662 1.07344 0.987316 0.996981
1.05882 1.07144 0.991459 0.996728
1.05333 1.0674 0.98976 0.99703
1.05891 1.06791 0.994848 0.996715
1.06577 1.07026 0.999422 0.996378
1.05897 1.064 0.998585 0.996683
1.06233 1.0663 0.999951 0.996325
1.05948 1.06361 1 0.996119
1.05996 1.06405 1 0.99616
1.05538 1.05951 1 0.996099
1.03357 1.03704 1 0.996654
1.00729 1.00887 1 0.998433
1.03178 1.0352 1 0.996699
1.05334 1.05754 1 0.99603
1 1 1 1
1.0043 1.00586 1 0.998449
1.02363 1.02691 1 0.996804
1 1 1 1
1.00135 1.00278 1 0.998572
1 1 1 1
1.05346 1.05766 1 0.996024
1.0435 1.04772 1 0.995971
1.0411 1.04504 1 0.996232
1.03046 1.03441 1 0.99618
1.02842 1.03202 1 0.99651
1.01502 1.01735 1.00041 0.997298
1.01449 1.01717 1.00046 0.996899
1.00677 1.00645 1.00271 0.997612
1.00048 1 1.00142 0.999058
1.00571 1.00049 1.00726 0.997976
1.00269 1 1.00333 0.999357
1 1 1 1
1.0025 1 1.00294 0.999564
1 1 1 1
1 1 1 1
1.00014 1.04861 0.955848 0.997832
0.966015 1.00947 0.960783 0.996015
0.906266 0.970705 0.948861 0.983934
1.04994 1.05579 0.997958 0.996491
1.03754 1.04092 0.999953 0.996806
1.06729 1.07345 0.997859 0.996397
1.05544 1.0602 0.999271 0.99624
1.04155 1.04537 1.00011 0.996233
1.05866 1.07542 0.987981 0.99639
1.01448 1.01964 0.997929 0.997003
1.03473 1.0429 0.995625 0.99653
1.04734 1.08258 0.970656 0.996693
1.01205 1.02232 0.993037 0.996895
1.02623 1.04564 0.984927 0.996459
0.995048 1.03169 0.966913 0.997483
1.00096 1.01029 0.993591 0.997149
0.971187 1.00897 0.964431 0.998051
1.07802 1.11187 0.972095 0.997388
1.03905 1.0661 0.976786 0.997791
0.971083 1.00539 0.970638 0.995096
0.981095 1.04918 0.937294 0.997667
1.0494 1.08367 0.971052 0.997239
1.04341 1.09419 0.956242 0.997229
1.09547 1.12518 0.97619 0.997348
1.07418 1.10657 0.973418 0.997235
1.04671 1.09128 0.961781 0.997272
1.05688 1.0908 0.971743 0.99708
1.05648 1.08241 0.978997 0.996991
1.05322 1.08039 0.977631 0.997157
1.05637 1.07819 0.982784 0.996932
1.05853 1.07372 0.989095 0.996718
1.05738 1.07415 0.987364 0.996977
1.05921 1.07185 0.991459 0.996724
1.06781 1.07442 0.997406 0.996426
1.05962 1.0686 0.994868 0.996712
1.06557 1.07007 0.999406 0.99638
1.06479 1.06893 1 0.996128
1.06196 1.06591 0.999949 0.996339
1.05913 1.06324 1 0.996126
1.03422 1.03775 1 0.996601
1.05522 1.05935 1 0.996105
1.03412 1.03759 1 0.996654
1.00886 1.01015 1 0.998728
0.999475 1 1 0.999475
1.00788 1.00934 1 0.998556
1.0311 1.03451 1 0.996699
1 1 1 1
1.00572 1.0073 1 0.998436
1 1 1 1
1.07071 1.07665 0.997966 0.996507
1.06079 1.06479 1 0.996234
1.05422 1.05841 1 0.996042
1.04768 1.05174 1 0.996139
1.04376 1.04797 1 0.995976
1.04163 1.04558 1 0.996226
1.01878 1.02182 1 0.997023
1.02934 1.03294 1 0.996513
1.01245 1.01461 1.00058 0.997299
0.999666 1.00081 1.00012 0.998732
1.00439 1.00396 1.00282 0.997614
1.00089 1 1.00182 0.999077
1 1 1 1
1.0027 1 1.00332 0.999376
1 1 1 1
1 1 1 1
1.06561 1.10691 0.965451 0.997132
1.00775 1.05811 0.954452 0.997857
0.963137 1.00962 0.958737 0.99502
1.06214 1.07444 0.99209 0.996437
1.04566 1.05175 0.997667 0.996536
1.03822 1.0414 0.999932 0.997019
1.06573 1.0716 0.998104 0.996411
1.05565 1.06076 0.998956 0.996221
1.065 1.09551 0.975397 0.996672
1.05467 1.07184 0.987582 0.99635
1.03451 1.04199 0.996344 0.996467
1.04408 1.07907 0.97078 0.996691
1.03128 1.04931 0.98639 0.99638
0.999749 1.04049 0.963225 0.997533
1.07163 1.09913 0.977583 0.99734
1.07996 1.11388 0.972046 0.997426
1.04377 1.06768 0.979746 0.997817
1.0388 1.09263 0.953355 0.997249
1.10071 1.12956 0.977061 0.997341
1.07489 1.10816 0.972662 0.997239
1.06306 1.08358 0.983908 0.997105
1.05764 1.0899 0.973228 0.99709
1.05704 1.08228 0.979639 0.996976
1.05983 1.07531 0.988806 0.996762
1.0568 1.07828 0.983108 0.996912
1.05908 1.07426 0.989112 0.996717
1.06849 1.0778 0.99489 0.996451
1.05965 1.07229 0.99146 0.996719
1.06739 1.07402 0.997396 0.996425
1.06827 1.07242 1 0.996127
1.06538 1.0699 0.999389 0.996382
1.06461 1.06874 1 0.996133
1.03547 1.03908 1 0.996525
1.05876 1.06287 1 0.996133
1.03546 1.03899 1 0.996602
1.008 1.00926 1 0.998745
1.03476 1.03823 1 0.996653
1.00864 1.00994 1 0.998721
0.999504 1 1 0.999504
0.99975 1 1 0.99975
1.00849 1.00981 1 0.998691
1 1 1 1
1.0629 1.07387 0.993239 0.996523
1.06465 1.06903 0.999573 0.996328
1.06891 1.07529 0.997418 0.996636
1.05698 1.06107 1 0.99614
1.06285 1.0669 0.999985 0.996223
1.05488 1.05906 0.999996 0.99606
1.04807 1.05214 1 0.996129
1.02733 1.03061 1 0.99682
1.04223 1.04618 1 0.996219
1.01965 1.02269 1 0.997024
1.0036 1.00509 1 0.998518
1.01019 1.0124 1.00052 0.9973
0.999984 1.00069 1.00054 0.998753
1 1 1 1
1.00142 1 1.00232 0.999097
1 1 1 1
1 1 1 1
1.06392 1.09425 0.975185 0.997019
1.05877 1.09936 0.965854 0.997132
1.01317 1.06411 0.954156 0.997874
1.06235 1.08317 0.984126 0.996601
1.05947 1.07184 0.991991 0.996434
1.04139 1.04768 0.997398 0.996583
1.06401 1.06965 0.998302 0.996425
1.06354 1.09346 0.975903 0.996647
1.05011 1.06765 0.987214 0.996309
1.03535 1.06948 0.971305 0.99669
1.06665 1.08599 0.984973 0.99717
1.07022 1.09735 0.977918 0.997299
1.08141 1.11541 0.971982 0.997464
1.06188 1.07745 0.988508 0.997009
1.07535 1.10961 0.9718 0.997244
1.06282 1.08344 0.983826 0.997091
1.06155 1.07572 0.989926 0.996873
1.05763 1.08212 0.980351 0.99696
1.0599 1.07542 0.988775 0.996765
1.06891 1.0789 0.994245 0.996476
1.05958 1.07475 0.989132 0.996716
1.0679 1.07719 0.994911 0.99645
1.06934 1.07365 0.999842 0.996137
1.06689 1.07353 0.997385 0.996424
1.06898 1.07313 1 0.99613
1.03522 1.0389 1 0.996454
1.06437 1.0685 1 0.996137
1.03673 1.04034 1 0.996527
1.00642 1.00771 1 0.998718
1.03674 1.04027 1 0.996603
1.00756 1.00884 1 0.998731
0.999507 1 1 0.999507
1.00838 1.00968 1 0.998718
0.999517 1 1 0.999517
1 1 1 1
1.0606 1.07431 0.99078 0.996431
1.06603 1.07234 0.997778 0.99633
1.06457 1.07522 0.993553 0.99652
1.06412 1.06818 1 0.996201
1.0656 1.07039 0.999147 0.996376
1.06726 1.07408 0.996872 0.996765
1.03717 1.04062 1 0.996686
1.05698 1.06109 1 0.996128
1.06503 1.06908 1 0.996212
1.04862 1.05271 1 0.996118
1.0281 1.03138 1 0.996821
1.00844 1.01001 1 0.998448
1.01973 1.02277 1 0.997025
1.00207 1.00354 1 0.998534
1 1 1 1
1.00002 1.00032 1.00093 0.998772
1 1 1 1
1 1 1 1
1.06234 1.08241 0.984509 0.996902
1.06438 1.09516 0.97482 0.996999
1.05527 1.09564 0.965923 0.997132
1.06212 1.08289 0.984147 0.996617
1.05654 1.069 0.991878 0.996431
1.06364 1.09306 0.976382 0.996623
1.06389 1.079 0.988961 0.997008
1.06659 1.08593 0.984989 0.997164
1.06875 1.09557 0.9782 0.997257
1.06227 1.07753 0.988771 0.99703
1.06044 1.07264 0.991769 0.996831
1.06254 1.0833 0.983708 0.997076
1.06196 1.0757 0.990362 0.996834
1.06855 1.07824 0.994424 0.996567
1.06002 1.07556 0.988744 0.996768
1.06855 1.07854 0.994237 0.996478
1.0692 1.07375 0.999616 0.996148
1.0674 1.07667 0.994923 0.99645
1.0706 1.07495 0.999811 0.996138
1.03285 1.03657 1 0.996415
1.06977 1.07392 1 0.996133
1.0359 1.03958 1 0.996457
1.00421 1.00555 1 0.998663
1.03804 1.04166 1 0.996529
1.00578 1.0071 1 0.998698
0.999481 1 1 0.999481
1.0071 1.00839 1 0.998721
0.999531 1 1 0.999531
0.999524 1 1 0.999524
1.06222 1.07608 0.990394 0.996693
1.06703 1.07511 0.996189 0.99628
1.06037 1.0752 0.989713 0.996457
1.06876 1.07295 0.999897 0.9962
1.06574 1.0718 0.998019 0.996315
1.06621 1.07653 0.993869 0.996518
1.03944 1.04298 1 0.996602
1.06402 1.06813 0.999963 0.996195
1.06649 1.07169 0.998714 0.996425
1.00961 1.01118 1 0.99845
1.03643 1.03987 1 0.996687
1.05704 1.06116 1 0.996117
1.02873 1.03201 1 0.996821
1.00705 1.0086 1 0.998459
1 1 1 1
1.0009 1.00235 1 0.998551
1 1 1 1
1 1 1 1
1.06126 1.07624 0.989149 0.996898
1.06273 1.08262 0.98469 0.996892
1.06397 1.09511 0.974516 0.996978
1.06194 1.08267 0.984165 0.996634
1.06139 1.07144 0.993807 0.996789
1.06389 1.0791 0.988854 0.997019
1.06665 1.08589 0.985077 0.997159
1.06266 1.0776 0.989053 0.997051
1.06065 1.07307 0.991555 0.99684
1.06923 1.07738 0.995876 0.996548
1.06239 1.07568 0.990817 0.996795
1.0693 1.07834 0.99509 0.996513
1.0678 1.07301 0.998918 0.996223
1.0682 1.07819 0.994234 0.99648
1.06958 1.07422 0.999531 0.99615
1.02969 1.03342 1 0.99639
1.07167 1.07606 0.999782 0.99614
1.03268 1.0364 1 0.996417
1.00163 1.00329 1 0.998349
1.03652 1.0402 1 0.996459
1.00337 1.00485 1 0.998519
1 1 1 1
1.00514 1.00647 1 0.99868
0.999512 1 1 0.999512
0.999548 1 1 0.999548
1.06136 1.07271 0.992603 0.996792
1.06738 1.07615 0.995418 0.996416
1.06259 1.0756 0.991183 0.996685
1.06952 1.07419 0.999526 0.996123
1.06649 1.07479 0.99598 0.996282
1.06017 1.07612 0.988653 0.996483
1.03808 1.04176 1 0.996474
1.06843 1.07275 0.999775 0.996201
1.06545 1.07128 0.998251 0.996301
1.00755 1.0091 1 0.998464
1.03818 1.04175 1 0.996573
1.0637 1.06783 0.999944 0.996188
1 1 1 1
1.00965 1.01121 1 0.99846
1.03565 1.0391 1 0.996688
1.00567 1.00721 1 0.998471
1 1 1 1
1 1 1 1
1.05987 1.06959 0.99409 0.996796
1.06174 1.07636 0.989485 0.996905
1.06304 1.0828 0.984821 0.996882
1.06928 1.07618 0.99709 0.996488
1.06077 1.07127 0.993372 0.9968
1.06389 1.07922 0.988734 0.99703
1.06081 1.0735 0.991302 0.99685
1.06902 1.07725 0.995799 0.996549
1.06662 1.07154 0.999149 0.996254
1.06998 1.07836 0.995754 0.99646
1.06804 1.07295 0.999226 0.996197
1.0273 1.03105 1 0.996359
1.07003 1.07476 0.999446 0.996152
1.02956 1.03329 1 0.996391
1.00015 1.00183 1 0.998327
1.03271 1.03643 1 0.996418
1.00118 1.00284 1 0.998347
1 1 1 1
1.00253 1.00418 1 0.998352
0.999731 1 1 0.999731
0.999538 1 1 0.999538
1.05848 1.06827 0.994065 0.996755
1.0687 1.07588 0.996823 0.996497
1.06101 1.07218 0.992762 0.9968
1.06927 1.07352 0.999935 0.996115
1.06829 1.0769 0.995581 0.996403
1.06291 1.07509 0.991973 0.996677
1.03402 1.03775 1 0.996402
1.06904 1.07344 0.999778 0.996118
1.066 1.07449 0.995792 0.996284
1.0046 1.00617 1 0.998441
1.03742 1.04111 1 0.996463
1.06808 1.07253 0.999646 0.996202
1 1 1 1
1.00832 1.00986 1 0.998473
1.03717 1.04077 1 0.996543
1 1 1 1
1.00971 1.01125 1 0.998471
1 1 1 1
1.06853 1.0752 0.997262 0.996528
1.05946 1.06924 0.99405 0.996782
1.06219 1.07641 0.989847 0.996911
1.06575 1.07047 0.99934 0.99625
1.06865 1.07591 0.996734 0.996508
1.06014 1.07109 0.992946 0.996811
1.06883 1.07712 0.995735 0.996549
1.06633 1.07131 0.999092 0.996254
1.02559 1.02933 1 0.996364
1.06832 1.07294 0.999524 0.99617
1.02754 1.03129 1 0.996363
0.999207 1.00091 1 0.998299
1.02932 1.03304 1 0.996393
0.999817 1.00149 1 0.998325
1 1 1 1
1.00064 1.0023 1 0.998345
1 1 1 1
0.99951 1 1 0.99951
1.06898 1.07558 0.997353 0.996503
1.05778 1.06824 0.993409 0.996773
1.068 1.07216 0.99995 0.99617
1.06904 1.07624 0.996804 0.996496
1.06066 1.07166 0.992907 0.996807
1.03061 1.03431 1 0.996414
1.06875 1.07297 0.99995 0.996112
1.06923 1.0777 0.995732 0.996389
1.00198 1.0036 1 0.998386
1.03404 1.03776 1 0.996411
1.06846 1.07263 1 0.996113
1 1 1 1
1.00544 1.007 1 0.998446
1.03681 1.0405 1 0.996452
1 1 1 1
1.00904 1.01058 1 0.998482
1 1 1 1
1.06591 1.07046 0.999482 0.996269
1.06844 1.07499 0.997382 0.996517
1.05905 1.06889 0.994015 0.996767
1.02463 1.02835 1 0.996383
1.0655 1.07026 0.999298 0.99625
1.06797 1.07561 0.996365 0.996528
1.06604 1.07107 0.999044 0.996255
1.02582 1.02957 1 0.996361
0.998611 1.00032 1 0.998292
1.02782 1.03157 1 0.996367
0.998987 1.00069 1 0.998297
1 1 1 1
0.999521 1.0012 1 0.998324
1 1 1 1
1 1 1 1
1.06741 1.0715 0.999983 0.996201
1.0684 1.07542 0.996913 0.996552
1.05713 1.06829 0.992743 0.996791
1.028 1.03169 1 0.99643
1.06784 1.07197 0.999976 0.996167
1.06932 1.07654 0.996787 0.996495
0.999952 1.00161 1 0.998345
1.03036 1.03407 1 0.996411
1.0681 1.07228 1 0.996108
1 1 1 1
1.00267 1.00429 1 0.99839
1.0341 1.03781 1 0.99642
1 1 1 1
1.00623 1.00779 1 0.998452
1 1 1 1
1.02517 1.02886 1 0.996417
1.0656 1.07024 0.999403 0.996257
1.06835 1.07482 0.997472 0.996505
0.998365 1.00004 1 0.998323
1.02483 1.02856 1 0.996379
1.06527 1.07006 0.999262 0.996251
1.02604 1.0298 1 0.996358
0.998469 1.00018 1 0.998293
1 1 1 1
0.998733 1.00044 1 0.998295
1 1 1 1
1 1 1 1
1.02597 1.02964 1 0.996435
1.06679 1.07111 0.999735 0.996231
1.06783 1.07522 0.99651 0.996602
0.998936 1.00031 1 0.998628
1.02785 1.03153 1 0.996429
1.06778 1.07189 1 0.996164
1 1 1 1
1.00051 1.00217 1 0.998346
1.0303 1.03401 1 0.996409
1 1 1 1
1.00333 1.00495 1 0.998393
1 1 1 1
0.998307 1 1 0.998307
1.02534 1.02904 1 0.996409
1.0653 1.07001 0.999346 0.996246
1 1 1 1
0.998322 1 1 0.998322
1.02499 1.02872 1 0.996376
0.998334 1.00004 1 0.998292
1 1 1 1
1 1 1 1
0.998603 1 1 0.998603
1.0264 1.03008 1 0.996435
1.06622 1.07081 0.999446 0.996261
1 1 1 1
0.999085 1.00075 1 0.998338
1.02777 1.03146 1 0.996428
1 1 1 1
1.001 1.00266 1 0.998347
1 1 1 1
0.999493 1 1 0.999493
0.998472 1 1 0.998472
1.02552 1.02922 1 0.9964
1 1 1 1
0.998323 1 1 0.998323
1 1 1 1
0.999502 1 1 0.999502
0.99853 1.00005 1 0.998476
1.0266 1.03027 1 0.996436
0.999745 1 1 0.999745
0.999417 1.00108 1 0.99834
1 1 1 1
1 1 1 1
0.998345 1 1 0.998345
1 1 1 1
0.999751 1 1 0.999751
0.998611 1.00026 1 0.99835
1 1 1 1
1 1 1 1
1 1 1 1

VECTORS lamdaE float
1.00213 1.00001 0.992878
1.00172 1.00077 0.996392
1.00161 1.0002 0.993257
1.00205 1.00013 0.992825
1.00219 0.999926 0.992881
1.00211 1.00025 0.992683
1.00323 1.00063 0.989914
1.0018 1.00081 0.996309
1.00149 1.00005 0.997046
1.001 1.00087 0.997061
1.00151 1.00123 0.992278
1.00329 1.00132 0.987927
1.00155 0.99996 0.993515
1.00128 1.00004 0.993706
1.00114 1.00041 0.993609
1.00167 1.0001 0.993237
1.00151 1.00061 0.993032
1.00174 0.999976 0.993276
1.00347 1.00052 0.989718
1.00157 1.00003 0.996634
1.00196 1.00017 0.992871
1.00215 1 0.992847
1.00323 1.00024 0.990331
1.00332 1.00034 0.990093
1.00208 1.00055 0.992387
1.00316 1.00114 0.989497
1.00529 1.00129 0.985386
1.00185 1.00081 0.996215
1.00175 0.999931 0.995079
1.00139 1.00056 0.995045
1.00179 1.00105 0.99619
1.00322 1.00145 0.987922
1.00199 0.999752 0.993061
1.00186 0.999993 0.993124
1.00364 1.00021 0.990337
1.00041 1.00167 0.997208
1.00349 1.00082 0.990058
1.00323 1.0021 0.987325
1.00515 1.00202 0.984233
1.00053 1.00025 0.997461
1.00159 0.999977 0.996624
1.00155 1.00001 0.99511
1.00149 0.999956 0.996698
1.00111 1.00004 0.993912
1.00327 0.999895 0.989586
1.00146 0.999948 0.996999
1.00362 1.00015 0.990456
1.00131 1.00003 0.993648
1.00132 1.00002 0.993658
1.00097 1.00098 0.993362
1.00369 1.00041 0.989538
1.00136 1.00004 0.995262
1.00157 1.00019 0.993288
1.00155 1.00097 0.992676
1.00176 0.99997 0.993248
1.00343 1.0002 0.990115
1.00344 1.00097 0.989305
1.00352 1.00028 0.989891
1.0053 1.00126 0.985466
1.00146 1 0.996691
1.00181 1.0001 0.993122
1.00296 0.999986 0.991432
1.00317 1.00021 0.990464
1.00331 1.00024 0.990207
1.00525 1.00001 0.98678
1.0053 1.00035 0.98625
1.0021 1.00075 0.991951
1.00307 1.00207 0.98868
1.00532 1.00195 0.984644
1.00529 0.999756 0.986201
1.0021 0.999938 0.99649
1.00164 1.00095 0.996429
1.0018 1.0005 0.996437
1.00318 1.00155 0.987921
1.00206 0.999862 0.996445
1.00199 1.00009 0.996511
1.00349 1.00016 0.988813
1.00068 1.00129 0.995171
1.00327 1.00078 0.988528
1.00303 1.00231 0.988538
1.00524 1.00187 0.984228
1.00087 1.0006 0.997061
1.00088 1.00259 0.990873
1.00362 1.00011 0.988736
1.00357 1.00022 0.988703
1.00534 1.0004 0.985667
1.00227 1.00294 0.990212
1.00533 1.00131 0.984706
1.00428 1.00314 0.984416
1.00537 1.00159 0.984156
1.00031 0.999659 0.997824
1.00038 1.00005 0.997614
1.0019 0.999968 0.99645
1.00166 0.999976 0.996592
1.00153 0.99997 0.996689
1.00141 0.999987 0.995256
1.00331 0.999887 0.990316
1.00169 0.999951 0.995048
1.0035 1.00017 0.989748
1.00148 0.999984 0.996718
1.00311 0.999756 0.989921
1.00352 1.00006 0.990719
1.00529 0.998806 0.987477
1.0036 1.00014 0.990433
1.00524 0.999247 0.987106
1.00153 0.999962 0.993555
1.00117 1.00019 0.99371
1.001 1.00137 0.99295
1.00137 0.999927 0.993646
1.00361 1.00018 0.989898
1.00372 1.00023 0.989697
1.00368 1.00083 0.989123
1.0053 1.00123 0.985542
1.00151 0.999982 0.996705
1.00143 1.0001 0.993529
1.00319 0.999894 0.990252
1.00336 1.00017 0.990246
1.00189 1.00127 0.99397
1.00339 1.00186 0.988884
1.00351 1.0002 0.989998
1.00524 0.999772 0.987055
1.00531 1.00194 0.984753
1.0053 1.00058 0.98609
1.00528 0.999754 0.986228
1.00306 0.999825 0.989937
1.00309 1.00003 0.990726
1.00518 0.998632 0.988404
1.00521 0.999284 0.987709
1.00531 0.99983 0.986834
1.00533 0.997366 0.988899
1.00109 1.00124 0.996715
1.00529 0.998778 0.987155
1.00278 1.00308 0.98684
1.00527 1.0026 0.98337
1.00529 1.00079 0.985237
1.00526 0.997013 0.988748
1.00149 1.00331 0.989001
1.00272 1.00445 0.985974
1.0021 0.999876 0.996457
1.00198 1.00015 0.996497
1.00351 1.00014 0.988791
1.00096 1.00093 0.996933
1.0025 1.00264 0.987726
1.00331 1.00069 0.988526
1.00533 1.00173 0.984215
1.00069 1.00064 0.99722
1.00084 1.00269 0.990888
1.00364 1.00016 0.989543
1.0036 1.00028 0.989458
1.00534 1.00042 0.985633
1.00174 1.00308 0.988789
1.00534 1.00131 0.984679
1.00453 1.00279 0.984382
1.00535 1.00144 0.984384
1.00127 1.00282 0.989896
1.00055 1.00231 0.991749
1.00247 1.00359 0.98767
1.00532 0.999968 0.986172
1.00535 1.00084 0.98518
1.00532 0.99847 0.987531
1.00346 1.00359 0.985272
1.00532 1.00009 0.985898
1.00531 1.00272 0.983333
1.00534 0.999789 0.985744
1.00018 0.99913 0.998168
1.0002 0.999573 0.997969
1.00029 0.999956 0.997758
1.0012 1.00308 0.989787
1.00062 1.00101 0.997075
1.00203 0.999908 0.996434
1.00175 0.999981 0.996504
1.00331 1.00022 0.989082
1.00315 0.999891 0.989675
1.00151 0.999971 0.996672
1.00146 0.99997 0.996713
1.00307 0.999795 0.989914
1.0034 1.00004 0.990009
1.00527 0.998814 0.987487
1.00344 1.0002 0.988909
1.00523 0.999258 0.987086
1.00302 0.999792 0.990003
1.00525 0.998721 0.987599
1.00528 0.998979 0.987328
1.00529 0.995539 0.990969
1.00526 0.999582 0.986692
1.00528 0.996022 0.990345
1.00147 0.99998 0.996707
1.00102 1.00015 0.993936
1.00323 0.999856 0.989238
1.00355 1.00016 0.990026
1.00104 1.00196 0.99656
1.00371 1.00142 0.989098
1.00369 1.00017 0.989791
1.00524 0.999519 0.98733
1.00531 1.00079 0.985926
1.0053 1.00189 0.984862
1.00527 0.999756 0.986256
1.00303 0.999823 0.989941
1.00326 1.00004 0.990513
1.00521 0.998562 0.98818
1.0052 0.999516 0.987402
1.00128 1.00128 0.996544
1.00293 1.00282 0.987978
1.0051 1.00288 0.983749
1.00531 0.999908 0.986791
1.00534 0.996918 0.989307
1.00529 1.00068 0.985317
1.00529 0.998968 0.987058
1.00526 0.997079 0.988746
1.00155 1.0032 0.988989
1.00287 1.00432 0.985905
1.00518 0.998864 0.987583
1.00521 0.998925 0.988066
1.00533 0.996235 0.990049
1.00531 0.99626 0.990115
1.00531 0.997829 0.988127
1.00529 0.995339 0.990824
1.002 1.00331 0.987913
1.00525 0.99588 0.989967
1.00472 1.00355 0.983568
1.00528 1.00185 0.983968
1.0053 0.998787 0.987106
1.00525 0.995712 0.990215
1.00359 1.00422 0.98464
1.0026 1.00375 0.987313
1.00407 1.00409 0.984624
1.00349 1.00016 0.988823
1.00045 1.00047 0.997387
1.00073 1.0027 0.990907
1.00345 1.00026 0.988739
1.00533 1.00043 0.985601
1.0017 1.00315 0.988665
1.00476 1.00254 0.984355
1.00535 1.00131 0.984649
1.00534 1.00127 0.984612
1.00116 1.00294 0.989936
1.00041 1.00241 0.991735
1.00233 1.00353 0.987676
1.00532 0.999991 0.98614
1.00534 1.00086 0.98515
1.00532 0.998461 0.987517
1.00369 1.00333 0.985244
1.00532 1.00021 0.985791
1.00537 1.0027 0.983252
1.00534 0.999444 0.986016
1.00036 1.00172 0.992532
1.00311 1.00393 0.986359
1.0018 1.00399 0.988078
1.00304 1.00096 0.988184
1.00533 0.997594 0.988491
1.00532 0.999377 0.986567
1.0053 0.996158 0.989613
1.00495 1.00336 0.983237
1.00529 0.997818 0.988091
1.00534 1.00145 0.984549
1.00539 0.998223 0.987259
1.00013 1.00357 0.991224
1.00027 1.00058 0.993887
1.00017 0.998513 0.998405
1.00012 0.999013 0.998263
1.00011 0.999489 0.998099
1.00086 1.00291 0.990577
1.00048 1.00067 0.99731
1.00129 1.00304 0.98971
1.0008 1.0011 0.996954
1.00341 1.00024 0.988901
1.00325 1.00004 0.989366
1.00522 0.999269 0.987073
1.00525 0.998827 0.987499
1.00306 0.999838 0.989916
1.00152 0.999955 0.996709
1.00304 0.999779 0.990006
1.00523 0.998751 0.987608
1.00525 0.998994 0.987334
1.00531 0.995501 0.990971
1.00527 0.999599 0.986659
1.00529 0.996003 0.990349
1.00519 0.998785 0.987639
1.00533 0.995515 0.990975
1.00524 0.995692 0.990824
1.00517 0.994972 0.991622
1.00535 0.996703 0.989474
1.00529 0.994901 0.991272
1.00305 0.999825 0.989951
1.00345 1.00001 0.9903
1.00524 0.998483 0.98796
1.00521 0.999736 0.987094
1.00152 1.00135 0.996325
1.00334 1.00269 0.988848
1.00491 1.00301 0.984121
1.00531 0.999975 0.986747
1.00535 0.99647 0.989712
1.00528 0.99916 0.986963
1.0053 1.00059 0.985397
1.00527 0.997139 0.988743
1.00161 1.00313 0.988976
1.00287 1.00401 0.98584
1.00519 0.998602 0.987882
1.00523 0.9989 0.988057
1.00533 0.996236 0.990101
1.00532 0.996525 0.989731
1.00209 1.00332 0.98791
1.00446 1.0036 0.983598
1.00531 1.00201 0.983783
1.00532 0.998058 0.987993
1.0053 0.995132 0.990927
1.00528 0.998571 0.987369
1.00526 0.995933 0.989941
1.00525 0.995693 0.990084
1.00353 1.0043 0.984609
1.0036 1.00378 0.984716
1.0021 1.00401 0.98734
1.00533 0.996152 0.990192
1.00532 0.996383 0.989933
1.00521 0.994958 0.991503
1.00531 0.994918 0.991201
1.00525 0.995213 0.990635
1.00529 0.994928 0.990979
1.00402 1.00392 0.984094
1.00527 0.99502 0.990696
1.00532 1.0033 0.982574
1.0053 1.00017 0.985425
1.00524 0.99724 0.98865
1.00527 0.995468 0.990334
1.00154 1.00496 0.987418
1.00493 1.00418 0.982985
1.00259 1.002 0.987605
1.00508 1.00394 0.983357
1.00531 1.00001 0.986109
1.00035 1.00251 0.991718
1.00097 1.0032 0.98998
1.00186 1.00367 0.987677
1.00534 1.00087 0.985118
1.00533 0.998453 0.987503
1.0039 1.00289 0.985219
1.00538 1.00267 0.983165
1.00532 1.00033 0.985686
1.00532 0.999115 0.986288
1.00027 1.00184 0.992547
1.0028 1.0037 0.986476
1.00167 1.00407 0.987994
1.00334 1.00103 0.988249
1.00533 0.997577 0.988483
1.00532 0.999362 0.986552
1.0053 0.996139 0.989626
1.00514 1.00335 0.983174
1.00529 0.998046 0.987825
1.0053 1.00131 0.984532
1.00539 0.998059 0.98749
1.00037 1.0011 0.993231
1.00138 1.00487 0.988228
1.00351 1.0034 0.985511
1.00322 1.00202 0.988086
1.00367 1.00039 0.9885
1.00528 0.995403 0.990442
1.0053 0.996976 0.988711
1.00531 0.995251 0.990246
1.00515 1.00302 0.983215
1.00534 0.996646 0.98897
1.00522 0.999798 0.985989
1.00045 1.00398 0.990215
1.0002 1.00496 0.989761
1.00009 1.00269 0.992117
1.0001 1.00348 0.991229
1.00017 0.999989 0.995386
1.00025 1.00047 0.994387
1.00033 0.99791 0.996851
1.00015 0.998447 0.998463
1.00009 0.998901 0.998333
1.00015 1.00273 0.991785
1.00021 1.00035 0.997702
1.00088 1.00286 0.990556
1.00052 1.00079 0.997226
1.00132 1.00299 0.989637
1.00095 1.00115 0.996838
1.00527 0.999618 0.986624
1.00522 0.999004 0.987337
1.00531 0.995998 0.990353
1.00532 0.995463 0.990973
1.00522 0.998783 0.987616
1.00304 0.99976 0.990005
1.00519 0.998782 0.987643
1.00532 0.995493 0.990978
1.00528 0.995644 0.990823
1.00517 0.994967 0.991603
1.00532 0.996699 0.98948
1.00529 0.994898 0.991294
1.00534 0.995558 0.990917
1.00517 0.994963 0.991629
1.00523 0.994957 0.991494
1.00522 0.994951 0.991442
1.0053 0.994958 0.99098
1.00527 0.994934 0.991039
1.00518 0.998326 0.988181
1.00524 0.998886 0.988051
1.00532 0.996232 0.990152
1.00532 0.996792 0.989348
1.00221 1.0033 0.987916
1.00422 1.00393 0.983644
1.00534 1.00215 0.983601
1.00532 0.998286 0.987858
1.0053 0.994923 0.991029
1.00526 0.995984 0.989915
1.00526 0.998321 0.98763
1.00525 0.995663 0.989952
1.0035 1.00457 0.984575
1.00355 1.00382 0.984807
1.00187 1.00432 0.987364
1.00533 0.995883 0.990518
1.00531 0.996402 0.989936
1.00521 0.994955 0.991517
1.00531 0.994922 0.991161
1.0039 1.00414 0.98414
1.0053 1.00336 0.982649
1.00531 1.00038 0.985155
1.00525 0.995445 0.990451
1.00528 0.994923 0.990933
1.00524 0.997114 0.98863
1.00527 0.995013 0.990669
1.00527 0.995384 0.990365
1.00449 1.00418 0.982995
1.0048 1.00402 0.983189
1.00179 1.00459 0.98749
1.0028 1.00235 0.987708
1.00521 0.994959 0.991625
1.00525 0.994949 0.991266
1.00523 0.994942 0.991443
1.00528 0.994924 0.990988
1.00528 0.994889 0.990848
1.00534 0.9949 0.990752
1.00521 1.00409 0.982203
1.0053 0.994877 0.990609
1.00529 1.00202 0.983607
1.00529 0.999333 0.986162
1.00519 0.996614 0.989121
1.00531 0.995192 0.990336
1.00131 1.00489 0.987839
1.00334 1.00321 0.986502
1.00521 1.00412 0.981963
1.0032 1.00073 0.987834
1.00462 1.00444 0.982853
1.00016 1.00194 0.992564
1.00532 0.997559 0.988475
1.00184 1.00383 0.987909
1.00252 1.00367 0.986596
1.00349 1.00088 0.988316
1.00532 0.999347 0.986536
1.0053 0.996119 0.989639
1.00528 1.00299 0.983112
1.00529 1.00123 0.984513
1.00528 0.998256 0.987559
1.00539 0.99791 0.987721
1.00032 1.00107 0.993267
1.00111 1.00493 0.988234
1.00377 1.003 0.985592
1.00285 1.00205 0.988031
1.00398 1.00022 0.987674
1.00529 0.995387 0.990463
1.0053 0.99695 0.988726
1.0053 0.995253 0.990258
1.00516 1.00319 0.983148
1.00535 0.996765 0.988764
1.00521 0.999831 0.98624
1.00095 1.00442 0.98916
1.00206 1.00512 0.98776
1.00377 1.00349 0.984587
1.00396 1.00058 0.987925
1.00485 1.00247 0.985646
1.00533 0.994869 0.990727
1.0053 0.995789 0.989616
1.00522 0.995072 0.990355
1.00489 1.00169 0.98454
1.00522 0.998371 0.987148
1.00039 1.00411 0.990203
1.00042 1.00484 0.989318
0.999752 1.005 0.989813
1.00046 1.0045 0.990322
1.00016 1.00444 0.99063
0.999971 1.00233 0.992642
0.999949 1.00287 0.992137
1.00011 0.99949 0.995873
1.00004 1.00358 0.991235
1.00019 0.999836 0.995465
1.00029 0.997427 0.997248
1.00023 1.00038 0.994875
1.0002 0.997991 0.997759
1.00013 0.998308 0.99852
0.999827 1.00163 0.993385
1.00032 1.00246 0.991825
0.999921 0.99951 0.998244
1.00039 1.00028 0.997526
1.00101 1.00269 0.990536
1.00061 1.0009 0.997134
1.00531 0.996693 0.989487
1.00532 0.995582 0.990821
1.00529 0.994896 0.991316
1.00517 0.994962 0.991585
1.00531 0.995469 0.99098
1.0052 0.998779 0.987646
1.00533 0.995553 0.990917
1.00518 0.994965 0.991629
1.00522 0.994957 0.991496
1.00522 0.994948 0.991414
1.0053 0.99494 0.991015
1.00528 0.994932 0.991049
1.00519 0.994958 0.99162
1.00523 0.994948 0.991503
1.00525 0.994951 0.991254
1.00527 0.994932 0.991345
1.00529 0.994863 0.990965
1.00531 0.994945 0.990934
1.00532 0.995626 0.990845
1.0053 0.996428 0.98994
1.00522 0.994954 0.991532
1.0053 0.994927 0.991121
1.00373 1.00425 0.984185
1.00526 1.00337 0.982717
1.00533 1.00054 0.984886
1.00525 0.995678 0.990268
1.00528 0.994919 0.990887
1.00527 0.995006 0.990642
1.00524 0.996998 0.988611
1.00527 0.995299 0.990399
1.00423 1.00456 0.983009
1.00413 1.0043 0.983022
1.00186 1.0042 0.98756
1.00285 1.00192 0.987798
1.00521 0.994958 0.991623
1.00525 0.994948 0.991304
1.00522 0.994945 0.991419
1.00528 0.994925 0.990989
1.00508 1.00423 0.982243
1.00529 1.0022 0.983461
1.00528 0.999317 0.986137
1.00528 0.994897 0.990874
1.00534 0.994895 0.990729
1.00523 0.996503 0.989131
1.00531 0.994879 0.990597
1.00528 0.995148 0.990468
1.00521 1.00421 0.982018
1.0047 1.00467 0.982713
1.00362 1.00114 0.987873
1.00108 1.00481 0.988044
1.00278 1.00345 0.986369
1.00524 0.994945 0.99144
1.00526 0.994927 0.991242
1.00533 0.994887 0.990749
1.00532 0.994884 0.990668
1.00521 1.00374 0.982335
1.0053 0.994868 0.990541
1.00521 1.00138 0.983863
1.00524 0.998768 0.986711
1.00528 0.995895 0.989362
1.00008 1.0043 0.990107
1.00195 1.00507 0.986914
1.00418 1.00379 0.986047
1.0051 1.00429 0.982349
1.00449 1.00185 0.985045
1.00457 1.00486 0.982687
1.00028 1.00108 0.993302
1.00084 1.00502 0.988241
1.00529 0.995371 0.990484
1.00226 1.00224 0.987974
1.00429 1.00305 0.985675
1.00443 1.00027 0.986856
1.00529 0.996926 0.988741
1.00529 0.995256 0.99027
1.00516 1.00326 0.983091
1.00519 0.999866 0.986494
1.00537 0.996871 0.988557
1.0008 1.00453 0.989148
1.0013 1.00512 0.987752
1.00419 1.00373 0.983936
1.00394 1.00025 0.988049
1.00459 1.00199 0.985377
1.00531 0.994866 0.990753
1.00532 0.995819 0.989593
1.00526 0.995086 0.990277
1.00498 1.0016 0.98469
1.00519 0.998512 0.987061
1.00124 1.00504 0.988515
1.00125 1.00418 0.987906
1.00444 1.00311 0.984313
1.00338 1.00179 0.985981
1.00516 1.00216 0.984903
1.00532 0.994819 0.990641
1.00532 0.996279 0.988876
1.00536 0.995297 0.989597
1.00505 1.00051 0.985738
1.00508 0.999161 0.9867
1.00031 1.00419 0.990192
1.00056 1.00498 0.989195
0.999577 1.00408 0.991102
0.999616 1.00495 0.989856
0.999851 1.00454 0.990608
0.999621 1.00479 0.990532
1.00002 1.00299 0.991917
0.999483 1.00503 0.990546
0.999845 1.0041 0.991182
0.999991 1.00224 0.992685
0.999991 1.00225 0.99264
1.00003 0.999313 0.996143
0.99991 1.00275 0.992152
1.00012 0.999435 0.995929
1.00021 0.997244 0.997558
1.00022 0.999705 0.99555
1.00024 0.997537 0.997225
1.00005 0.99805 0.998691
0.999855 1.00041 0.994591
0.999923 1.0016 0.993335
0.999799 0.998719 0.998664
1.0005 1.0023 0.991865
1.0001 0.999726 0.998038
1.00047 1.0005 0.997384
1.0053 0.994922 0.99105
1.00521 0.994958 0.991497
1.00528 0.99493 0.99106
1.00522 0.994943 0.991386
1.00519 0.994967 0.99163
1.00532 0.995551 0.990917
1.0052 0.994957 0.991641
1.00523 0.994952 0.991506
1.00524 0.994954 0.991278
1.00527 0.994929 0.99132
1.0053 0.99486 0.990971
1.0053 0.994941 0.990912
1.00524 0.994949 0.991467
1.00528 0.994927 0.991396
1.00529 0.994924 0.991196
1.00535 0.994893 0.990685
1.00521 0.994957 0.991622
1.00525 0.994943 0.991342
1.00521 0.994949 0.991395
1.00528 0.994926 0.990991
1.00492 1.00415 0.982282
1.00528 1.00243 0.983315
1.00527 0.999351 0.986112
1.00529 0.994904 0.990901
1.00534 0.994889 0.990706
1.0053 0.99488 0.990586
1.00526 0.9964 0.989138
1.00527 0.995127 0.990599
1.00508 1.00438 0.982067
1.00438 1.00445 0.982574
1.00419 1.00167 0.9879
1.00096 1.0046 0.988266
1.00243 1.0041 0.986249
1.00523 0.994945 0.991433
1.00526 0.994929 0.991243
1.00533 0.99489 0.990762
1.00519 1.00384 0.982371
1.00517 1.00165 0.98379
1.00526 0.998616 0.986719
1.00532 0.994883 0.990679
1.00528 0.995819 0.989568
1.0053 0.994872 0.99054
0.999984 1.00394 0.990378
1.00478 1.00442 0.982389
1.00435 1.00486 0.982481
1.00444 1.00246 0.985061
1.00404 1.00293 0.986048
1.00163 1.00507 0.986975
1.00528 0.994932 0.991345
1.00531 0.994907 0.991004
1.00534 0.994874 0.990614
1.0053 0.99484 0.990554
1.00491 1.00371 0.982917
1.00527 0.994992 0.990381
1.00508 1.00117 0.984551
1.00524 0.997965 0.987142
0.999923 1.00263 0.991892
1.00063 1.00511 0.989064
1.00278 1.00479 0.986774
1.00343 1.00362 0.985045
1.00449 1.00412 0.984091
1.00488 1.00482 0.982038
1.00067 1.00467 0.989135
1.00073 1.0051 0.987746
1.0053 0.994862 0.990779
1.00397 0.999847 0.988165
1.00471 1.00396 0.983275
1.00397 1.00236 0.985106
1.00534 0.995849 0.98957
1.00529 0.995095 0.9902
1.00506 1.00158 0.984838
1.00517 0.998667 0.986975
1.00092 1.00498 0.988537
1.00179 1.00415 0.987678
1.00435 1.00331 0.984211
1.00406 1.00245 0.985906
1.0051 1.00245 0.984564
1.00533 0.994816 0.990634
1.00533 0.996137 0.989145
1.00536 0.995396 0.989706
1.00507 1.00043 0.985679
1.00503 0.999489 0.986432
0.99955 1.00482 0.989235
1.00045 1.0039 0.988181
1.00487 1.00143 0.985394
1.00476 1.00187 0.985225
1.0054 0.994809 0.990416
1.00538 0.994849 0.990304
1.00525 0.997974 0.987239
1.0051 0.999882 0.985805
1.00087 1.0049 0.989073
0.999697 1.0045 0.99085
0.998393 1.00419 0.993749
0.999553 1.00481 0.990593
0.99874 1.0051 0.990741
0.999863 1.00408 0.991143
0.999588 1.00332 0.992328
0.999548 1.00508 0.990561
0.999682 1.00041 0.994999
0.99951 1.00471 0.991037
0.999434 1.00489 0.990464
1.00006 1.00394 0.991
0.999958 1.00241 0.99252
0.999955 1.00226 0.992667
0.999938 0.999297 0.996265
0.99996 1.00226 0.992642
1.00005 0.999269 0.996159
1.00012 0.997237 0.997665
1.00012 0.999354 0.995984
1.00019 0.997284 0.997538
1.00017 0.997648 0.99719
1.00002 0.999559 0.995214
0.999882 1.00054 0.994516
0.999795 0.998069 0.998866
0.999955 1.00166 0.993284
0.999867 0.998842 0.998537
1.0003 0.999693 0.997806
1.00532 0.994858 0.990976
1.00523 0.994958 0.991301
1.00529 0.994937 0.990889
1.00526 0.994925 0.991295
1.00522 0.994957 0.991509
1.00521 0.994957 0.991661
1.00524 0.994948 0.991483
1.00528 0.994929 0.991386
1.00529 0.994927 0.991156
1.00533 0.994891 0.990705
1.00528 0.99493 0.991403
1.00527 0.9949 0.991328
1.00534 0.994912 0.990879
1.00522 0.994944 0.991426
1.00527 0.994932 0.991245
1.00533 0.994895 0.990775
1.00523 1.00378 0.982416
1.00518 1.00191 0.983713
1.00528 0.998456 0.986726
1.00532 0.994881 0.99069
1.0053 0.994869 0.99054
1.00527 0.995732 0.989776
1.00459 1.00455 0.982427
1.00494 1.00463 0.982292
1.00457 1.00334 0.985094
1.00011 1.0038 0.99065
1.00399 1.00258 0.986043
1.00134 1.0051 0.98702
1.00528 0.994929 0.991359
1.00532 0.994903 0.990964
1.00534 0.994878 0.990619
1.00504 1.00355 0.982891
1.00503 1.00114 0.984586
1.00525 0.99775 0.987471
1.00531 0.994842 0.990524
1.00525 0.995015 0.990334
0.999905 1.00277 0.992092
1.00054 1.00511 0.989043
1.00422 1.00355 0.983912
1.00462 1.00465 0.98275
1.00397 1.00342 0.985132
1.00236 1.00499 0.986672
1.00529 0.994904 0.991282
1.00537 0.994867 0.990638
1.00535 0.994837 0.990522
1.00525 0.994854 0.990329
1.00416 1.00257 0.984569
1.00522 0.995735 0.989497
1.00492 1.00042 0.985629
1.00014 1.00171 0.993026
1.00021 1.00304 0.991771
0.999476 1.0046 0.990858
1.00135 1.00508 0.987884
1.00211 1.00485 0.986476
1.00401 1.0049 0.983818
1.00284 1.00382 0.986194
1.00354 1.00401 0.986215
1.00063 1.00503 0.988561
1.0025 1.0041 0.98745
1.00534 0.994817 0.990626
1.00471 1.00155 0.985834
1.00431 1.00347 0.984113
1.00519 1.00267 0.984233
1.00534 0.995981 0.989414
1.00536 0.995523 0.989815
1.00507 1.0003 0.985617
1.00496 0.999782 0.986165
1.0004 1.00466 0.988975
1.0017 1.00413 0.987736
1.00488 1.00149 0.985146
1.00488 1.00193 0.985229
1.0054 0.994806 0.990409
1.00542 0.994878 0.990267
1.00518 0.997838 0.987404
1.0051 1.00005 0.98586
0.998772 1.0049 0.991181
1.00545 0.994867 0.990492
1.00309 1.0034 0.987436
1.00496 1.00092 0.985422
1.00534 0.994687 0.990803
1.00502 0.997187 0.98733
1.00505 1.00078 0.985579
0.999612 1.00471 0.9906
0.998502 1.0035 0.993776
0.997357 1.00265 0.996482
0.999808 1.00394 0.991103
0.999507 1.0051 0.990574
0.99812 1.00453 0.992749
1.00006 1.00381 0.990983
0.99952 1.00492 0.990522
0.998387 1.00174 0.995417
0.999722 1.00458 0.990921
0.999093 0.999893 0.997469
0.998278 1.00341 0.993749
0.999429 1.00511 0.990669
1.00039 1.00473 0.989514
1.00028 1.00389 0.990556
0.999977 1.00247 0.992443
0.99991 1.00251 0.992497
0.999819 0.999412 0.996378
0.999895 1.00238 0.99265
0.999952 0.999325 0.996271
0.999994 0.997407 0.997757
1.00007 0.999222 0.99618
1.00012 0.997288 0.997661
1.00017 0.997338 0.997514
1.00008 1.00142 0.993396
1 0.999153 0.995628
0.999979 0.999679 0.995177
0.999872 0.997783 0.998962
0.999912 1.00051 0.994443
0.999832 0.998267 0.998823
0.999994 0.99903 0.99839
1.00532 0.99489 0.990725
1.00528 0.994929 0.991116
1.00527 0.994931 0.991376
1.00524 0.994948 0.991499
1.00529 0.994929 0.991398
1.00528 0.994903 0.991329
1.00533 0.994908 0.990824
1.00528 0.994902 0.991361
1.00536 0.994861 0.991222
1.00558 0.994905 0.991054
1.00528 0.994929 0.991374
1.00532 0.994899 0.990924
1.00534 0.994883 0.990624
1.00496 1.0034 0.982871
1.00491 1.00122 0.984639
1.00527 0.997518 0.987789
1.00531 0.994843 0.990492
1.00525 0.995056 0.990289
1.00375 1.00431 0.983729
1.00415 1.00456 0.98342
1.00365 1.0028 0.985215
0.999946 1.00265 0.992295
1.00022 1.00511 0.98902
1.00218 1.005 0.986568
1.00529 0.994899 0.991258
1.00016 1.00161 0.993011
1.00014 1.00293 0.991618
1.00537 0.994871 0.990647
1.00534 0.994844 0.990535
1.00441 1.00288 0.984552
1.00497 0.999979 0.986004
1.00521 0.99573 0.989434
1.00525 0.994861 0.990269
0.999745 1.00438 0.990984
1.00128 1.00508 0.987818
1.00283 1.0042 0.985958
1.00413 1.00329 0.984945
1.0038 1.0047 0.983873
1.002 1.00441 0.986593
1.00538 0.994828 0.991056
1.00539 0.994913 0.99041
1.00532 0.994822 0.99046
1.00521 0.995138 0.990053
1.00313 1.00202 0.98723
1.00501 0.998181 0.988251
1.00025 1.00282 0.991493
0.999841 1.00311 0.991958
1.00189 1.00175 0.990974
1.00066 1.0043 0.989279
1.00187 1.00504 0.987139
1.00255 1.00294 0.987155
1.002 1.004 0.985608
1.00118 1.00046 0.992626
1.00073 1.00459 0.98872
1.00303 1.00456 0.987281
1.0054 0.994801 0.990403
1.00545 0.994881 0.990229
1.00493 1.00239 0.985227
1.00488 1.00158 0.984893
1.00513 0.997703 0.987569
1.00511 1.00023 0.985919
0.999409 1.00442 0.991073
1.00545 0.994854 0.990721
1.00218 1.00364 0.988111
1.00489 1.00102 0.985374
1.00535 0.994709 0.990841
1.00511 0.997313 0.987533
1.00496 1.00058 0.985546
0.998676 1.00507 0.992859
1.00498 0.994736 0.990591
1.0021 1.00315 0.988081
1.00442 1.00219 0.984521
1.00514 0.995683 0.990246
1.00352 1.00099 0.986642
0.999196 0.994688 0.983962
0.998528 1.00332 0.993793
0.997553 1.00231 0.996492
0.997303 1.0017 0.997551
0.999993 1.00383 0.990964
0.999423 1.005 0.990583
1.00028 1.00433 0.990807
0.997743 1.00196 0.995852
1.0002 1.00399 0.990558
1.0002 1.00471 0.989737
0.998665 0.999324 0.99783
0.999387 1.00508 0.990645
0.998791 1.00356 0.993277
0.997299 1.00256 0.997009
1 1.00402 0.991047
0.999821 1.005 0.990498
1.00078 1.00438 0.989449
1.00025 1.00415 0.990092
1.0004 1.00502 0.989792
1.00005 1.00432 0.990176
0.999918 1.00248 0.992481
0.999931 1.00252 0.99243
0.9997 0.999417 0.995867
0.99991 1.00247 0.992477
0.9998 0.999435 0.99606
0.999978 0.997457 0.999081
0.99996 0.999354 0.99628
1.00001 0.997381 0.997751
1.00013 0.997328 0.99765
0.99999 1.00104 0.993834
1.00012 1.0013 0.993429
1.00006 0.998736 0.99603
1.00001 0.999178 0.995937
0.999885 0.997508 0.999062
0.999925 0.99988 0.995138
0.999862 0.997812 0.998941
0.999872 0.998299 0.998765
1.00532 0.994904 0.990768
1.00528 0.994904 0.991331
1.00529 0.994927 0.991394
1.00528 0.994897 0.991364
1.00534 0.994867 0.991176
1.00561 0.995023 0.990903
1.00543 0.994838 0.991256
1.001 0.994802 0.980555
1.00514 0.995132 0.990922
1.00018 1.00227 0.992333
1.00529 0.994893 0.991235
1.00538 0.99487 0.990655
1.00533 0.994851 0.990547
1.00452 1.00255 0.984515
1.00501 0.99959 0.986363
1.00521 0.995595 0.989355
1.00526 0.99487 0.99021
1.00331 1.00351 0.985787
1.00473 1.00332 0.983758
1.0041 1.00451 0.983915
1.00015 1.00163 0.992997
1.00254 1.00445 0.986702
0.999897 1.00431 0.991097
1.00121 1.00507 0.987758
0.999992 1.00291 0.991474
1.00539 0.994849 0.991043
1.00024 1.00271 0.99173
0.999908 1.00311 0.99203
1.00105 1.00213 0.991374
1.00539 0.994882 0.990408
1.00529 0.994833 0.990419
1.00262 1.00262 0.987338
1.00487 0.997578 0.988552
1.00523 0.995019 0.990033
1.00066 1.00419 0.989372
1.002 1.00488 0.987216
1.00211 1.00079 0.99132
1.00301 1.0048 0.985301
1.00325 1.00302 0.987166
1.00544 0.994782 0.990901
1.00534 0.994829 0.990544
1.00526 0.994882 0.990072
1.00499 0.996851 0.990336
1.00183 0.999635 0.991239
0.999909 1.00294 0.991736
1.00204 1.00172 0.990113
1.00052 1.00165 0.99166
1.00145 1.00431 0.989037
1.00143 1.00353 0.989156
1.00096 1.00292 0.989155
1.00142 0.998988 0.993709
1.00072 1.00378 0.990917
1.00112 1.00393 0.988804
1.00544 0.994864 0.990943
1.00536 0.994731 0.990869
1.00518 0.99741 0.987738
1.00482 1.00113 0.985327
1.00485 1.00037 0.985523
0.998733 1.00477 0.993576
1.00461 0.994762 0.990807
1.00211 1.00332 0.988043
1.00458 1.00217 0.9845
1.00497 0.995588 0.99056
1.00389 1.00088 0.986723
0.998986 0.994726 0.982257
0.997683 1.00484 0.993941
1.00379 0.994737 0.990807
1.00253 1.00327 0.986218
1.00307 1.00043 0.987816
1.00349 0.997588 0.990652
0.999968 0.994892 0.939163
0.994927 0.994777 0.961123
0.996181 0.99773 0.98717
0.996984 0.994784 0.849554
0.994702 0.994927 0.809277
0.998044 1.00194 0.996511
0.997267 1.00208 0.997656
0.99649 1.00343 0.997479
1.00019 1.00402 0.990562
1.00012 1.00465 0.989958
0.999473 1.0051 0.990622
0.999167 1.00383 0.992775
0.998409 0.999223 0.998181
0.999626 1.00502 0.990647
1.00033 1.0041 0.99016
1.00067 1.00452 0.989386
0.997787 1.00172 0.996738
0.999486 1.00435 0.991469
1.00019 1.00397 0.991781
0.997762 1.00409 0.99426
0.999466 1.00481 0.991208
1.0006 1.00465 0.988932
1.00017 1.00425 0.990188
1.00002 1.00484 0.989854
1.0002 1.00376 0.991278
0.9996 1.00505 0.990765
1.00012 1.005 0.989867
1.0001 1.00434 0.990399
1.00008 1.00431 0.990179
0.999888 1.00258 0.992469
0.99992 1.00251 0.99249
0.999676 0.999429 0.995928
0.99988 1.00264 0.992415
0.999684 0.999459 0.99587
0.999936 0.997444 0.999115
0.999771 0.999474 0.995746
0.999934 0.997461 0.998458
1.00004 0.997363 0.997741
0.999877 1.00077 0.994254
0.999985 1.00108 0.993839
1.00008 0.998438 0.996327
1.00017 1.00117 0.99346
1.00006 0.998707 0.996335
0.999929 0.997128 0.999151
1.00004 0.999275 0.995537
0.9999 0.997625 0.999016
0.999869 0.997943 0.998924
1.00533 0.994876 0.99113
1.00528 0.994892 0.991366
1.00565 0.994884 0.990754
1.00016 0.994787 0.98069
1.00545 0.994848 0.991203
1.00513 0.99486 0.990913
1.00548 0.994721 0.99123
0.99573 0.994881 0.962328
1.00264 0.994849 0.980673
1.00024 1.00182 0.992736
1.00022 1.00231 0.992302
0.999607 1.00372 0.991641
0.999903 1.00279 0.992145
1.00539 0.994863 0.991031
1.00539 0.99486 0.990404
1.00526 0.994831 0.990379
1.00367 1.00282 0.987442
1.00492 0.996306 0.988892
1.00523 0.99493 0.99003
1.00213 1.00015 0.989945
1.00413 1.00493 0.984997
1.00278 1.0024 0.987188
0.99994 1.003 0.992101
1.00191 1.00428 0.987318
1.0007 1.00435 0.989463
1.00018 1.00269 0.99196
1.00041 1.00233 0.991774
1.00545 0.994763 0.990891
1.00008 1.00328 0.991415
1.00184 1.00144 0.9906
0.998135 1.00227 0.994672
1.00535 0.994843 0.99049
1.00525 0.994879 0.990073
1.00306 0.998488 0.991311
1.00476 0.996422 0.990258
1.00166 1.00463 0.988355
1.00124 1.0033 0.98835
1.00119 0.999453 0.993712
1.00236 1.00301 0.988639
1.00414 0.996053 0.990692
1.00524 0.995007 0.990648
1.00492 0.9962 0.989835
1.00358 0.99589 0.993362
0.997307 1.00491 0.994118
1.00244 1.00254 0.988342
0.998567 1.00351 0.993871
0.998741 1.00372 0.993109
1.00001 0.99497 0.924439
0.998347 1.00454 0.994329
1.00181 1.00355 0.987987
1.00416 0.994739 0.991059
1.00475 0.995537 0.990867
1.00421 1.00077 0.986774
1.00462 1.00226 0.984463
0.998946 0.994764 0.980346
0.997964 1.00453 0.99407
1.0034 0.994758 0.990674
1.00256 1.00399 0.986148
1.00366 1.00027 0.987978
1.00374 0.998001 0.990426
0.999744 0.994877 0.924969
0.995462 0.994809 0.957912
0.996261 0.997253 0.987588
0.997127 0.994761 0.853981
0.994733 0.994977 0.802885
0.99822 1.00461 0.992784
0.999136 0.994813 0.859112
0.994751 0.994855 0.799533
1.00097 0.997725 0.992741
1.00137 1.00148 0.990465
1.00137 0.999943 0.992921
0.994851 0.996881 0.990947
0.997413 0.994753 0.938863
0.994879 0.994788 0.954169
0.994991 0.994749 0.875883
0.994742 0.994841 0.786937
0.996974 1.00221 0.997763
0.996532 1.00332 0.997374
0.99624 1.00515 0.996571
1.00046 1.00398 0.990224
1.00063 1.00459 0.989325
0.999068 1.00506 0.990796
0.99914 1.00463 0.99189
0.998219 1.00085 0.996484
1.0003 1.0041 0.990169
0.999858 1.00427 0.991449
0.999379 1.00491 0.990875
1.0008 1.00468 0.989068
0.997805 1.00371 0.994492
0.998756 1.00372 0.993875
0.996423 1.00504 0.995272
0.999658 1.00504 0.990083
1.0005 1.00468 0.989512
1.00026 1.00482 0.98982
0.999908 1.00336 0.991718
0.999567 1.00477 0.991117
1.00018 1.00263 0.99222
0.998784 1.00212 0.994119
0.998209 1.00474 0.992508
0.999046 1.00505 0.991054
0.999598 1.00496 0.990792
0.999949 1.00467 0.990186
0.999892 1.00498 0.989944
1.00019 1.00429 0.990305
0.999956 1.00267 0.992286
1.00015 1.0043 0.990181
0.999913 1.00251 0.992487
0.99989 0.999385 0.996361
0.999868 1.00256 0.992498
0.999741 0.999384 0.996185
0.999903 0.997391 0.997955
0.999672 0.999453 0.995869
0.999926 0.99746 0.999125
0.999921 0.997505 0.997833
1.00029 1.00198 0.992516
0.999884 1.00061 0.994437
0.99989 1.00081 0.994246
1.00003 0.998342 0.996486
0.999959 1.00116 0.993846
1.00009 0.998425 0.996322
0.999972 0.996958 0.999201
1.00006 0.99874 0.996574
0.999927 0.997305 0.998518
0.999909 0.997625 0.997708
0.999594 0.994799 0.98079
1.00547 0.994841 0.991146
1.00507 0.994891 0.990902
0.996202 0.994816 0.962694
1.00275 0.994849 0.981062
1.00548 0.994977 0.991231
1.00359 0.995106 0.985954
0.99812 0.994783 0.964053
0.999626 0.994851 0.93864
0.99686 0.994792 0.876307
0.994687 0.99484 0.807687
0.999592 1.00285 0.992373
1.00024 1.00183 0.99272
1.00032 1.00221 0.992264
0.999824 1.00321 0.991975
0.998508 1.00479 0.992885
1.00037 1.00292 0.99146
1.00016 1.00377 0.991108
1.00018 1.00257 0.99206
1.00547 0.994801 0.990873
1.00536 0.994866 0.990443
1.00528 0.994918 0.990073
1.00306 0.999026 0.991391
1.00451 0.996642 0.990161
1.00105 0.999504 0.993712
1.00375 1.003 0.988132
1.00276 1.00358 0.987539
1.00155 1.00123 0.991079
1.00181 1.00465 0.987623
1.00031 1.00353 0.991107
0.996425 1.00324 0.997506
1.00423 0.995328 0.991012
0.997585 1.00474 0.99398
1.00163 1.00265 0.990147
1.00501 0.994867 0.990615
1.00447 0.996646 0.990132
1.00308 0.995967 0.993276
0.999851 1.00363 0.992052
0.999822 1.00237 0.993283
1.00318 0.995766 0.98975
1.00331 0.998623 0.990798
1.00396 0.996911 0.991711
1.001 0.997352 0.995325
0.998855 1.00491 0.992007
0.998096 1.00498 0.992856
0.998368 1.0045 0.993601
0.999811 0.995066 0.860156
1.00022 0.994882 0.939853
0.998792 1.0041 0.99421
1.00274 1.00452 0.9861
1.00305 0.994769 0.990522
1.00405 0.998371 0.990217
1.00411 1.00017 0.988181
0.999995 0.994851 0.937111
0.99587 0.994787 0.95742
0.996329 0.997136 0.988124
0.99664 0.994809 0.873677
0.994764 0.994852 0.796077
0.998546 1.00465 0.992741
0.999835 0.994868 0.856872
0.994714 0.994832 0.793024
1.001 0.997741 0.992594
1.00136 1.00175 0.990491
1.00127 1.00001 0.993344
0.994858 0.998195 0.991789
0.997171 0.994745 0.932037
0.994869 0.994798 0.9544
0.994766 0.994772 0.875396
0.994766 0.994867 0.784906
0.99728 1.00507 0.995202
0.994747 0.994787 0.786993
0.994742 0.994768 0.789299
0.996757 1.00164 0.997205
0.99945 1.00178 0.996227
0.99489 0.999147 0.988204
0.994899 0.994824 0.957668
0.994847 0.994737 0.927826
0.994768 0.99487 0.87848
0.994851 0.994874 0.796512
0.99674 1.00306 0.997274
0.996977 1.00491 0.996165
0.996148 1.00424 0.996882
1.0004 1.00398 0.990148
1.00087 1.0047 0.989205
0.999544 1.00506 0.990541
0.999354 1.00458 0.991119
0.997624 1.00337 0.994725
1.00052 1.00472 0.989479
0.998858 1.00349 0.993338
1 1.00501 0.990097
0.996132 1.0049 0.995528
0.995742 1.00518 0.99746
0.998073 1.00471 0.993552
1.00031 1.00496 0.990253
1.00053 1.00447 0.989789
0.999704 1.00294 0.992147
0.999535 1.00457 0.991086
1.00033 1.00229 0.992127
0.998386 1.00258 0.994429
0.998458 1.00411 0.992544
0.997552 1.00511 0.993417
0.998377 1.00136 0.996121
0.99986 1.00198 0.993426
1.00362 0.999357 0.990683
0.998572 1.00472 0.991718
0.99859 1.00463 0.992525
0.999262 1.00508 0.990035
0.99924 1.00508 0.991109
1.00014 1.00488 0.989716
0.999428 1.00504 0.990817
1.00001 1.00464 0.990266
0.999986 1.00294 0.991835
1.00027 1.00431 0.990212
0.999965 1.00265 0.992296
1.00002 0.999408 0.996104
0.999917 1.0025 0.992506
0.999874 0.999373 0.995996
1.00003 0.997293 0.997789
0.999736 0.999379 0.995895
0.999957 0.997361 0.999138
0.999922 0.997442 0.999135
1.00035 1.00248 0.992232
0.99993 1.0008 0.994227
1.00022 1.00205 0.992529
1.00003 0.998265 0.996557
0.999892 1.0006 0.994428
0.999887 1.00083 0.994237
1.00004 0.998334 0.996474
0.999992 0.996872 0.999226
1.00006 0.99847 0.996843
0.999976 0.996978 0.998633
0.999944 0.99726 0.997979
0.999457 0.994895 0.843892
0.994741 0.994826 0.785909
0.996137 0.994824 0.963247
1.0024 0.994808 0.981594
1.00548 0.994789 0.991244
0.998308 0.994862 0.962506
1.00339 0.994701 0.986543
0.999866 0.994863 0.934181
0.996611 0.994738 0.854873
0.99473 0.99493 0.801655
0.997701 0.994747 0.971265
0.996876 0.994789 0.939834
0.995407 0.994769 0.875555
0.994791 0.994904 0.796627
0.999822 1.0038 0.991861
0.999813 1.00261 0.992458
1.00018 1.00195 0.992712
0.999936 1.00283 0.992315
0.998162 1.00427 0.993718
1.0003 1.00424 0.990174
0.999846 1.00363 0.991584
1.00073 1.00391 0.989727
1.00014 1.00374 0.990976
0.999768 1.00319 0.991965
1.0041 0.994782 0.991314
1.00488 0.994834 0.990577
1.00371 0.997039 0.990433
1.0024 0.995702 0.993188
1.00032 1.00231 0.993435
0.999758 1.00398 0.990285
1.00046 1.00255 0.992132
0.997739 1.00454 0.993793
1.00225 0.9954 0.990319
0.998851 1.00505 0.991762
0.997819 1.00494 0.993101
1.00305 0.998518 0.990694
1.00352 0.996775 0.991888
1.00068 0.997425 0.995739
0.99845 1.00445 0.99346
0.999679 0.995575 0.988835
1.00063 0.99954 0.994965
0.996962 1.00251 0.996777
0.998652 1.00457 0.991307
0.997413 1.0052 0.992788
0.997744 1.00487 0.994058
0.994723 0.994809 0.808898
0.999809 0.994878 0.866356
1.0001 0.994924 0.924714
0.99875 1.0049 0.992674
1.00162 1.00199 0.990471
1.001 0.997481 0.992439
1.00106 0.999893 0.993769
0.999838 0.994977 0.871719
0.996931 0.994789 0.925422
0.99488 0.994786 0.954221
0.994875 0.998957 0.992464
0.994946 0.994778 0.859475
0.99469 0.994812 0.799557
0.994817 0.995028 0.800992
0.997364 1.00453 0.994874
0.994732 0.994802 0.796658
0.994764 0.994775 0.788628
0.996842 1.00006 0.997864
0.998942 1.00173 0.996139
0.994902 0.99775 0.990064
0.995072 0.994799 0.956
0.995029 0.994763 0.939407
0.994704 0.995502 0.858786
0.995152 0.994882 0.806403
0.996478 1.004 0.998517
0.99476 0.994808 0.79723
0.99481 0.99482 0.78817
0.994851 1.00242 0.999877
0.994969 0.996737 0.965744
0.994774 0.994818 0.936337
0.994911 0.994937 0.853449
0.995814 0.994895 0.821321
0.997617 1.00404 0.995732
0.996567 1.00437 0.99708
0.995515 1.00408 0.998483
1.00036 1.00478 0.989443
1.00017 1.00503 0.990113
0.998952 1.0032 0.9928
0.996034 1.00466 0.995787
0.999756 1.00498 0.990269
0.997838 1.00485 0.993543
0.995337 1.00493 0.9977
0.994818 1.00438 0.99871
0.995526 1.00503 0.997622
0.998564 1.00513 0.993039
0.999667 1.00464 0.991048
1.00041 1.00188 0.992038
0.997909 1.00311 0.994732
0.997694 1.00501 0.993484
0.999089 1.00384 0.992502
0.997712 1.00228 0.996133
0.997939 1.00352 0.994821
0.995479 1.00513 0.99768
1.00108 0.998707 0.995349
0.999395 1.00141 0.994314
1.00199 1.0001 0.991348
1.00472 0.999909 0.987952
1.00266 1.00125 0.990278
1.00274 0.998917 0.991703
0.99923 1.0045 0.991503
0.999463 1.00513 0.989524
0.999058 1.00449 0.992544
0.999899 1.00507 0.990046
1.0005 1.00492 0.988962
0.99974 1.00489 0.991158
1.00024 1.0049 0.989708
1.00006 1.0036 0.991135
1.00013 1.00457 0.990349
1.00007 1.00298 0.99183
1.00017 0.999527 0.995793
1.00007 1.00249 0.992307
1.00002 0.99943 0.995702
1.00012 0.997378 0.997595
0.999879 0.999343 0.995697
1.00002 0.997299 0.998464
0.999971 0.997321 0.999119
1.00032 1.00332 0.991025
1.00006 1.00101 0.993836
1.00025 1.00251 0.992024
1.00004 0.998314 0.996486
0.999944 1.00073 0.994241
1.00024 1.00192 0.992545
1.00002 0.996809 0.99924
1.00002 0.99827 0.996556
0.999894 1.00064 0.994421
1.00005 0.998323 0.996463
0.999994 0.996896 0.99922
0.999968 0.996975 0.999193
0.994715 0.994768 0.786405
0.999496 0.994855 0.85724
0.99477 0.994779 0.787592
0.994751 0.994814 0.786588
0.998151 0.994871 0.961551
1.00306 0.994747 0.987126
0.999676 0.994815 0.928911
0.997587 0.994792 0.87606
0.994774 0.994848 0.795565
0.998207 0.994805 0.970172
0.997037 0.994771 0.925231
0.99487 0.994778 0.874363
0.994738 0.994867 0.789026
0.994904 0.994795 0.962307
0.995326 0.994705 0.925872
0.994824 0.99642 0.85123
0.994833 0.994883 0.799122
1.00066 1.0047 0.990227
0.999255 1.00384 0.992016
0.999995 1.00241 0.99254
0.997529 1.00377 0.994558
1.00094 1.00376 0.989485
1.00016 1.00423 0.990389
0.999314 1.00392 0.991712
1.00119 1.00334 0.989915
1.00077 1.00422 0.989719
1.00028 1.00344 0.990846
1.00201 0.994806 0.990846
1.0027 0.998333 0.990611
1.00346 0.99649 0.992064
1.00014 0.997389 0.996154
0.999813 1.00444 0.993296
0.998078 1.00487 0.993349
0.998879 1.0051 0.991523
0.999649 1.00436 0.991109
0.99942 0.996515 0.989505
0.998407 1.00513 0.992462
0.99852 1.00466 0.993971
1.00036 0.999395 0.995213
0.998298 1.00127 0.996656
0.996029 1.00092 0.98864
0.996646 1.00073 1.00009
0.994973 1.00514 0.997227
0.997832 1.00467 0.993658
0.996562 1.00517 0.99514
0.994784 0.994798 0.803906
0.99472 0.994781 0.804183
0.999826 0.995043 0.847047
0.997603 1.00462 0.994607
0.99876 1.00122 0.996058
0.997082 0.999555 0.998521
0.994706 0.994786 0.794117
0.995042 0.994718 0.927248
0.995111 0.994801 0.955615
0.994897 0.996007 0.992351
0.994769 0.994888 0.878729
0.994779 0.99478 0.788926
0.995669 0.99487 0.808235
0.996526 1.00394 0.998685
0.994772 0.994815 0.79954
0.994796 0.994819 0.789373
0.994982 1.00232 0.998844
0.99501 0.995846 0.967553
0.994825 0.994926 0.924043
0.995534 0.994893 0.816305
0.995309 0.997899 0.862337
0.994841 1.00513 1.00032
0.994786 0.994832 0.786701
0.994862 0.994839 0.802241
0.994834 0.99487 0.798903
0.994809 0.999258 0.988584
0.994894 0.995657 0.939764
0.997708 0.994884 0.874119
0.996895 1.00506 0.9973
0.99566 1.0048 0.998215
0.995166 1.00527 0.998868
0.999577 1.00496 0.990289
0.997755 1.00506 0.99353
0.994926 1.00522 0.997938
0.997967 1.00513 0.993062
0.995601 1.00508 0.997613
0.994808 1.00518 0.998619
0.994828 1.00513 0.998875
0.995408 1.00506 0.99769
0.997501 1.00497 0.993577
0.999616 1.00363 0.992457
0.997256 1.00302 0.996144
0.995528 1.00483 0.9976
0.99755 1.00382 0.994805
0.998225 1.001 0.997406
0.998201 0.998669 0.999176
1.00187 1.00029 0.990499
0.999019 1.00086 0.995138
1.00237 0.999992 0.990985
1.00441 1.00142 0.986309
1.00472 1.00265 0.984611
1.0044 0.999322 0.988916
1.00379 1.00008 0.98798
1.00169 1.00372 0.988677
1.00172 1.00163 0.990569
1.00176 0.998522 0.992695
0.999894 1.0043 0.991288
0.999957 1.00513 0.989417
1.00062 1.0051 0.988239
1.00047 1.00509 0.990062
1.0007 1.00493 0.988946
1.00029 1.00406 0.990304
1.00039 1.00478 0.989697
1.00016 1.00346 0.991122
1.00019 0.999876 0.995423
1.00005 1.00307 0.991824
1.00013 0.999598 0.995347
1.00023 0.99746 0.997368
1.00003 0.999442 0.995372
1.00011 0.997347 0.998328
1.00005 0.997295 0.99905
1.0007 1.00339 0.990146
1.00012 1.00149 0.992888
1.00044 1.00319 0.991032
1.00011 0.998437 0.996258
1.00007 1.00101 0.993651
1.00021 1.00254 0.991814
1.00004 0.996823 0.999219
1.00005 0.998284 0.9965
0.999985 1.00061 0.994255
1.00001 0.996842 0.999236
1.00001 0.998285 0.996556
0.999996 0.996887 0.999215
0.994816 0.994809 0.794146
0.994722 0.994814 0.801057
0.999437 0.994823 0.855925
1.00095 1.00319 0.990218
0.99479 0.994801 0.7938
0.99477 0.994782 0.787524
0.994788 0.994816 0.801218
0.998503 0.994826 0.969671
0.996851 0.994777 0.939572
0.995312 0.994898 0.857118
0.994704 0.994851 0.799983
0.995801 0.9948 0.959948
0.995203 0.99476 0.938085
0.994732 0.994997 0.854753
0.994851 0.994884 0.801658
0.994846 0.994796 0.954462
0.994768 0.994801 0.934379
0.996208 0.997864 0.865808
0.995474 0.9949 0.82155
0.999222 1.00436 0.991551
0.999895 1.00468 0.990378
0.999452 1.00355 0.992177
1.00118 1.00232 0.990663
1.0009 1.00408 0.989564
1.00005 1.00455 0.990603
1.00131 1.00336 0.989832
1.00081 1.00427 0.989713
0.998419 0.99734 0.990012
0.999655 0.999222 0.995378
0.999634 1.00447 0.990903
0.999748 0.999973 0.996541
0.998866 1.00442 0.993889
0.999106 1.00513 0.992122
0.998031 1.00442 0.993383
0.99562 1.00007 0.988962
0.997359 1.00508 0.994987
0.996272 1.00367 0.997463
0.995916 1.00086 1.00015
0.99706 1.00438 0.995315
0.994807 1.0011 0.986472
0.995264 1.00305 0.998626
0.995721 1.00493 0.997605
0.996763 1.00542 0.995944
0.994763 0.994812 0.791128
0.994782 0.994802 0.800657
0.994712 0.994756 0.799278
0.996538 1.00415 0.998829
0.995037 1.00146 0.997774
0.994787 0.994823 0.801647
0.994735 0.99483 0.93798
0.995168 0.995835 0.964577
0.995434 0.996539 0.860668
0.994791 0.99482 0.79032
0.994891 0.994898 0.811232
0.995041 1.0051 1.00014
0.994786 0.994829 0.786996
0.994868 0.994851 0.801633
0.99484 0.99992 0.992315
0.994857 0.994878 0.801562
0.994851 0.996712 0.932064
0.996467 0.997427 0.875928
0.995169 1.00382 0.997348
0.994839 0.994841 0.797543
0.994797 0.994812 0.795609
0.994798 0.994881 0.796237
0.996234 0.997835 0.865572
0.994878 1.00109 0.971753
0.995126 0.996892 0.924892
0.996146 1.00514 0.997961
0.995298 1.00525 0.998911
0.994802 1.00531 0.998167
0.997307 1.00513 0.993082
0.995031 1.00497 0.997609
0.994805 1.00521 0.998569
0.995225 1.00476 0.99767
0.994849 1.00496 0.998878
0.997465 1.00202 0.998893
0.995423 1.00461 0.997511
0.996943 1.0042 0.994829
0.997622 1.00141 0.997827
0.99784 1.00066 0.995212
0.995539 0.998747 1.00268
1.00142 0.999941 0.991827
1.00437 1.00442 0.982615
1.00429 1.00308 0.984368
1.00277 0.999837 0.990542
1.00423 1.00176 0.985832
1.00513 1.00229 0.984016
1.00514 1.00133 0.985543
1.00426 1.00247 0.984867
1.00366 1.00089 0.988256
1.00374 0.999911 0.98876
1.00305 1.00019 0.988033
1.00078 1.00514 0.987896
1.00119 1.00399 0.988837
1.00073 1.00201 0.990854
1.00048 1.00513 0.989312
1.00098 1.0051 0.988272
1.00049 1.00462 0.989303
1.00089 1.00505 0.988928
1.00042 1.00393 0.990299
1.00019 1.00026 0.994227
1.00038 1.00338 0.991114
1.00022 0.999927 0.994579
1.00014 0.997548 0.99881
1.00011 0.999742 0.994979
1.00018 0.997427 0.998167
1.00013 0.997322 0.998959
1.00061 1.00359 0.990119
1.00032 1.00211 0.99201
1.00063 1.00349 0.990343
1.00019 0.998691 0.995895
1.00023 1.00149 0.992781
1.00048 1.00318 0.991034
1.00008 0.996865 0.999165
1.00013 0.998391 0.996277
1.00007 1.00099 0.993467
1.00004 0.996811 0.999228
1.00005 0.998251 0.996515
1.00001 0.996864 0.999234
0.994788 0.994823 0.795906
0.99481 0.994808 0.794542
0.994714 0.994824 0.800382
1.0011 1.00312 0.99021
1.0003 1.00456 0.989606
1.0017 1.00143 0.991364
0.994866 0.994854 0.801173
0.994799 0.994803 0.794877
0.994773 0.994771 0.78761
0.996699 0.994786 0.960093
0.99482 0.994721 0.925942
0.994756 0.996034 0.876887
0.99484 0.994864 0.795876
0.994935 0.994786 0.955609
0.994785 0.995553 0.930188
0.996089 0.997245 0.863212
0.995288 0.994902 0.816375
0.994869 0.994869 0.953963
0.994871 0.995843 0.934238
0.997102 0.994904 0.874266
0.99485 0.994878 0.798135
0.998844 1.00278 0.993554
0.999844 1.00387 0.991338
0.999838 1.00452 0.990528
1.00115 1.00245 0.990583
1.00055 1.00454 0.989638
1.00137 1.00343 0.989749
0.995488 1.00011 0.989606
0.995743 1.0011 1.00033
0.998837 1.00346 0.99312
0.997979 1.00256 0.997596
0.998084 1.00469 0.99484
0.996673 1.00388 0.995875
0.996172 1.00517 0.995968
0.994779 1.00258 0.986388
0.995405 1.00517 0.997884
0.995004 1.00355 0.99793
0.995789 1.00478 0.997676
0.99522 0.999961 0.984695
0.995249 1.00515 0.994657
0.994826 1.00333 0.999164
0.994867 0.994845 0.790538
0.99477 0.994821 0.790151
0.99478 0.994802 0.797453
0.995096 1.0051 0.99993
0.99486 1.00012 0.987926
0.994783 0.994826 0.787303
0.994822 0.996853 0.931678
0.996286 0.994875 0.861034
0.994876 0.994848 0.800996
0.994844 0.994858 0.795895
0.995013 1.00357 0.997866
0.994825 0.994841 0.797003
0.994813 0.994804 0.796798
0.99491 1.00095 0.968994
0.994734 0.99487 0.788988
0.995876 0.997538 0.862775
0.994835 0.996152 0.938876
0.994981 1.00518 0.98875
0.994783 0.994828 0.797091
0.994774 0.994791 0.788981
0.994695 0.994853 0.808922
0.994826 0.995954 0.850229
0.994875 0.99662 0.935157
0.994833 1.00132 0.963093
0.995152 1.00522 0.998895
0.994901 1.00528 0.998108
0.995394 1.00491 0.997567
0.995583 1.00448 0.997651
0.994884 1.00504 0.998856
0.995977 1.00381 0.998772
0.998624 1.00033 0.998472
0.996987 1.00182 0.998221
1.00056 1.0003 0.994141
1.00199 1.00487 0.986624
1.00075 0.999689 0.993563
1.0042 1.00424 0.983549
1.00425 1.00378 0.982982
1.00502 1.00077 0.985166
1.00509 1.00157 0.984661
1.00426 1.00306 0.984307
1.00421 1.00208 0.985364
1.00519 1.00206 0.984195
1.00514 1.00211 0.984171
1.00497 1.00081 0.986197
1.00459 1.00143 0.985699
1.00366 1.00232 0.985132
1.00172 1.00387 0.988059
1.00323 1.00148 0.988129
1.00293 1.00055 0.988585
1.0007 1.00512 0.988402
1.00122 1.00513 0.987897
1.00069 1.00418 0.988997
1.00134 1.0051 0.988307
1.00075 1.00449 0.989318
1.00017 1.00097 0.993565
1.00066 1.00371 0.990291
1.00024 1.00027 0.994204
1.0002 0.997777 0.998735
1.00026 0.999893 0.994582
1.00023 0.997592 0.998
1.00019 0.997476 0.998859
1.00125 1.00345 0.98965
1.00051 1.00248 0.991594
1.00086 1.00332 0.990118
1.00027 0.999035 0.995418
1.00033 1.00211 0.992096
1.00057 1.00352 0.990543
1.00011 0.996975 0.999083
1.0002 0.998615 0.995919
1.0003 1.00148 0.992675
1.00008 0.996854 0.999182
1.00013 0.99835 0.996296
1.00004 0.996834 0.999236
0.99483 0.994841 0.795862
0.994789 0.994839 0.796242
0.994811 0.994812 0.794897
0.999764 1.0052 0.989544
1.00166 1.00267 0.991274
1.00095 1.00308 0.990209
1.00039 1.00436 0.989495
1.00063 1.00177 0.991782
1.00039 1.00273 0.991173
0.999067 1.00148 0.994295
0.994827 0.994828 0.789821
0.994867 0.994856 0.800584
0.9948 0.994831 0.795948
0.994888 0.994907 0.811171
0.99547 0.994785 0.95449
0.994788 0.996361 0.92455
0.995976 0.994905 0.876701
0.994874 0.995235 0.953359
0.994874 0.998254 0.920589
0.9964 0.997364 0.875355
0.995051 0.994877 0.807837
0.995131 0.995787 0.957456
0.994862 0.998268 0.92284
0.994912 0.994912 0.853897
0.99476 0.994844 0.788386
0.996414 1.00443 0.996097
0.998571 1.00315 0.994132
0.999757 1.00427 0.991124
1.00101 1.00295 0.990512
0.994766 1.0019 0.986194
0.994746 1.0039 0.99719
0.996403 1.00441 0.996438
0.99656 1.00517 0.996001
0.995114 1.0052 0.998295
0.995253 1.00501 0.997604
0.995683 1.00368 0.999252
0.995301 1.0006 0.981579
0.995324 1.00517 0.994755
0.995758 1.00336 0.999154
0.995409 1.00216 0.977781
0.99473 1.00317 0.999327
0.994764 0.994828 0.792813
0.99485 0.994844 0.794792
0.994781 0.994838 0.789152
0.994881 1.00369 0.99837
0.994875 1.00098 0.972585
0.994812 0.994843 0.796494
0.994872 0.997574 0.926094
0.996007 0.994908 0.876446
0.99481 0.994833 0.797815
0.994695 0.994856 0.799709
0.994925 1.00506 0.989753
0.994795 0.994837 0.797469
0.994763 0.994794 0.788967
0.99482 1.00036 0.963213
0.994739 0.994858 0.802954
0.99473 0.995605 0.853318
0.994877 0.996893 0.922276
0.994852 1.00415 0.983933
0.99483 0.994813 0.794457
0.994726 0.99483 0.787286
0.994755 0.994775 0.877289
0.994768 0.994931 0.934682
0.994812 0.999892 0.957695
0.99494 1.00528 0.99852
0.99528 1.00466 0.997627
0.996383 1.00307 0.997382
0.995014 1.00487 0.998656
0.996734 1.0029 0.998774
1.00105 1.0007 0.993764
1.00309 0.99989 0.993081
1.00281 1.00486 0.985731
1.0044 1.00214 0.984579
1.00382 1.00404 0.984484
1.00449 1.00372 0.982927
1.00475 1.00187 0.984559
1.00526 0.998295 0.987031
1.00512 1.00021 0.985913
1.005 1.00092 0.985174
1.00513 1.00155 0.984728
1.00505 1.00145 0.984645
1.00422 1.00307 0.984243
1.00516 1.00233 0.98398
1.00519 1.00217 0.984188
1.00515 1.00197 0.98433
1.00382 1.00159 0.987629
1.00421 1.00128 0.986577
1.00425 1.00141 0.98586
1.00113 1.00512 0.987578
1.00193 1.00374 0.988072
1.00272 1.00226 0.988004
1.00031 1.00159 0.992727
1.00094 1.00497 0.988438
1.00158 1.00513 0.987896
1.00088 1.00433 0.989331
1.00019 1.00097 0.993541
1.00017 0.998069 0.998611
1.00025 1.00032 0.994181
1.00021 0.997744 0.998707
1.00022 0.997534 0.998773
1.00056 1.0049 0.989888
1.00113 1.0051 0.988839
1.00082 1.00292 0.990682
1.00091 1.00391 0.989635
1.00025 0.999491 0.994964
1.00051 1.00251 0.991588
1.00097 1.00332 0.990119
1.00013 0.997224 0.998967
1.00025 0.999025 0.995441
1.00037 1.00214 0.992178
1.0001 0.996968 0.999108
1.00021 0.998579 0.995948
1.00008 0.996831 0.9992
0.994796 0.994846 0.788241
0.994824 0.994834 0.795351
0.994794 0.99483 0.796571
1.0002 1.00519 0.989409
1.00045 1.00207 0.991598
1.00189 1.0018 0.988288
0.998695 1.00374 0.991459
1.00185 1.00054 0.991973
1.00078 1.00434 0.98938
1.00003 1.00241 0.992204
1.0003 1.0037 0.99119
0.999605 1.00104 0.994784
0.999027 1.00362 0.994372
0.994758 0.994767 0.790414
0.994807 0.994832 0.791141
0.994869 0.994842 0.799969
0.995272 0.994868 0.809585
0.995929 0.994899 0.861005
0.994852 0.994892 0.952377
0.994837 0.996371 0.933281
0.995329 0.996127 0.953287
0.994878 0.996869 0.935309
0.995097 0.998058 0.863175
0.994777 0.994849 0.786367
0.994925 0.998299 0.955847
0.994821 0.997136 0.935075
0.994787 0.994886 0.878734
0.994719 0.994909 0.810938
0.998725 1.00019 0.996603
0.996116 1.00458 0.996528
0.998664 1.00288 0.994729
0.995269 1.00255 0.978089
0.995092 1.00516 0.994497
0.995013 1.00502 0.997495
0.994736 1.00438 0.999358
0.995503 1.00349 0.999032
0.994745 1.00226 0.999779
0.994846 1.00193 0.97794
0.996108 1.00122 1.00122
0.99489 1.00062 0.984658
0.994801 0.994817 0.803804
0.994788 0.994837 0.791781
0.994834 0.994836 0.799174
0.994964 1.00506 0.990079
0.994853 0.999927 0.96098
0.994812 0.994841 0.797853
0.99486 0.996724 0.934501
0.994756 0.995522 0.874386
0.994764 0.994773 0.789249
0.994782 0.994849 0.796857
0.995168 1.00477 0.984592
0.994816 0.994815 0.794662
0.994741 0.994823 0.787943
0.994921 0.998515 0.958795
0.994757 0.994771 0.875162
0.994801 0.995904 0.927984
0.9953 1.00249 0.981589
0.994713 0.994782 0.787193
0.996929 0.994791 0.877096
0.995009 0.994705 0.926283
0.994835 0.994942 0.95904
0.995432 1.00517 0.997724
0.995665 1.00394 0.997278
0.997989 1.00085 0.997585
0.994843 1.00518 0.99911
0.999745 1.00138 0.994792
1.00428 0.996531 0.99121
1.00376 1.00497 0.984814
1.00427 1.00224 0.984461
1.00473 0.998985 0.987131
1.00477 1.00378 0.982869
1.00477 1.00162 0.984626
1.00508 0.998104 0.987604
1.00534 0.99572 0.989354
1.00529 0.997902 0.987156
1.00526 0.998212 0.987078
1.00518 1.00018 0.986021
1.00512 1.00026 0.985848
1.00493 1.00101 0.985181
1.00516 1.00232 0.983998
1.00514 1.00145 0.984658
1.005 1.00134 0.98463
1.00505 1.00177 0.985314
1.00481 1.00265 0.984298
1.0052 1.00233 0.984179
1.00206 1.00394 0.987156
1.00331 1.00176 0.987551
1.00374 1.00157 0.986952
1.00045 1.0026 0.992618
1.00134 1.00511 0.987651
1.00212 1.00357 0.988085
1.0002 0.998721 0.996019
1.00036 1.00171 0.993158
1.00117 1.00487 0.988474
1.00025 1.00103 0.993513
1.00019 0.998199 0.998539
1.00022 0.997778 0.998676
1.00144 1.0034 0.988892
1.00159 1.00514 0.988113
0.999624 1.00493 0.98978
1.00078 1.00407 0.989639
1.00083 1.0048 0.988801
1.00019 0.99999 0.994552
1.00065 1.00319 0.990689
1.00067 1.00433 0.989612
1.00011 0.997532 0.998875
1.00026 0.999433 0.99499
1.00049 1.00251 0.991584
1.00011 0.997191 0.999003
1.00025 0.998969 0.995462
1.0001 0.996931 0.999133
0.994778 0.99482 0.803819
0.9948 0.994844 0.788597
0.994812 0.994851 0.794798
1.00338 1.00226 0.986272
1.00016 1.00497 0.989275
0.999949 1.00237 0.991986
1.00011 1.00465 0.99096
1.00313 1.00167 0.988374
1.00112 1.00089 0.99349
1.00396 1.00165 0.987158
0.996588 1.00451 0.994372
0.999557 1.00404 0.991207
0.999576 0.999612 0.995274
0.997721 1.00335 0.994339
0.998373 1.00275 0.994623
0.994764 0.994846 0.800507
0.994776 0.994775 0.78979
0.994799 0.994836 0.792189
0.994818 0.995554 0.802083
0.995208 0.996691 0.861625
0.994875 0.998308 0.92291
0.995739 0.994964 0.952647
0.995171 0.997792 0.956386
0.994742 0.99535 0.804339
0.994855 0.996731 0.926424
0.994735 0.996332 0.859136
0.994885 0.996498 0.961363
0.994778 0.995238 0.937107
0.994748 0.994867 0.877147
1.00001 0.995022 1.00099
0.998804 1.00084 0.996448
0.995586 1.00476 0.996929
0.994931 1.00165 0.97796
0.995636 1.00092 1.00016
0.995834 1.00315 0.998963
0.99667 1.00006 1.00159
0.994928 0.999622 0.984771
0.995759 0.998871 0.992443
0.994715 0.994802 0.803714
0.994794 0.994815 0.804347
0.994806 0.994837 0.790585
0.994928 1.00443 0.984762
0.994866 0.999839 0.957957
0.994799 0.994823 0.795122
0.994825 0.995916 0.922379
0.994995 0.994764 0.858487
0.994781 0.994828 0.80217
0.99497 1.00485 0.981301
0.994723 0.994822 0.801547
0.996627 0.994749 0.855546
0.994868 0.995328 0.954576
0.994926 0.994762 0.938493
0.99487 1.00067 0.990187
0.999564 0.994912 0.84377
0.996892 0.994788 0.940035
0.994874 0.9948 0.953149
0.994838 1.00509 0.997128
0.997294 1.00165 0.997397
1.00054 0.999342 0.993801
0.998641 1.00153 0.995812
1.00392 0.997002 0.990932
1.00484 0.99662 0.989769
1.00412 1.00223 0.984344
1.00473 0.998882 0.987018
1.00513 0.996051 0.989218
1.00474 1.00122 0.984702
1.00498 0.998052 0.987555
1.00536 0.995091 0.989975
1.00529 0.994933 0.99075
1.00532 0.995888 0.989273
1.00535 0.995702 0.989398
1.00534 0.997838 0.987234
1.00529 0.997868 0.987348
1.00525 0.998157 0.987122
1.00525 1.00095 0.984974
1.00519 1.00007 0.985941
1.00512 1.00028 0.98578
1.0052 1.00308 0.983344
1.00511 1.00239 0.984045
1.00515 1.00132 0.984587
1.00306 1.00306 0.986765
1.00436 1.0024 0.985269
1.00425 1.00302 0.984618
1.00092 1.00313 0.990209
1.00233 1.0039 0.987147
1.00287 1.00222 0.987465
0.99989 0.999835 0.99806
1.00061 1.00251 0.991344
1.00163 1.00509 0.987726
1.00022 0.998706 0.998292
1.00043 1.0017 0.992577
1.00022 0.998257 0.998456
1.00431 1.00163 0.987406
1.00207 1.00289 0.9886
1.00182 1.00453 0.987873
1.00104 1.00475 0.988826
1.00113 1.00515 0.988112
0.999973 1.00495 0.989672
1.00006 1.0009 0.993927
1.00072 1.00414 0.989649
1.00084 1.00435 0.988757
1.00009 0.997752 0.998776
1.00017 0.999992 0.99457
1.00045 1.00348 0.990693
1.0001 0.997475 0.998899
1.00027 0.999408 0.99501
1.0001 0.99714 0.999039
0.994743 0.994783 0.789116
0.994794 0.994821 0.804184
0.994807 0.994839 0.789009
1.00339 1.00279 0.98613
1.00468 1.00344 0.985488
1.00237 1.00382 0.986734
0.999868 1.00462 0.990458
1.00404 1.00118 0.988475
0.999021 1.00009 0.994919
0.998234 1.00352 0.9939
1.00208 1.00226 0.988588
1.00148 1.00025 0.992013
0.998758 1.00006 0.996243
0.998391 1.00356 0.994278
0.99922 1.00322 0.994181
0.997227 0.994802 0.849694
0.99473 0.994834 0.794245
0.994787 0.994781 0.790065
0.994785 0.994856 0.797262
0.994773 0.995543 0.878914
0.994847 0.996077 0.922441
0.994854 0.996991 0.955065
0.994887 0.996903 0.958777
0.995133 0.994789 0.875206
0.994809 0.995485 0.924243
0.994854 0.997409 0.962685
0.995331 0.994718 0.926777
0.99917 0.995511 1.00399
0.999786 0.99515 1.00099
0.99849 1.00048 0.996439
0.994859 0.999307 0.985035
0.996764 0.999318 1.00195
0.99615 0.998975 0.992018
0.995708 0.996412 0.989979
0.999811 0.995456 0.858654
0.994712 0.99478 0.800444
0.994796 0.99482 0.80462
0.994842 1.00452 0.981797
0.994858 0.99487 0.952602
0.994715 0.994829 0.800675
0.994904 0.994723 0.927179
0.99694 0.994797 0.876935
0.994928 0.998475 0.98662
0.999525 0.994859 0.857366
0.996924 0.99477 0.925736
0.994851 0.994787 0.954109
0.995916 0.998537 0.986725
0.99962 0.994842 0.938767
0.99497 0.994815 0.9607
0.99634 1.00142 0.997234
0.99979 0.999541 0.993752
1.00323 0.998921 0.991292
1.00307 0.998114 0.990676
1.0046 0.996697 0.989678
1.00518 0.995571 0.989951
1.00478 0.998877 0.986906
1.00501 0.996464 0.989138
1.00535 0.994846 0.990132
1.00493 0.998054 0.987502
1.00536 0.99511 0.989922
1.00528 0.99484 0.990694
1.00532 0.994851 0.990783
1.00529 0.994925 0.990798
1.00527 0.995118 0.990741
1.00532 0.996353 0.98921
1.00533 0.995926 0.98942
1.00537 0.995662 0.989446
1.00536 0.998929 0.986588
1.00534 0.997902 0.987161
1.00529 0.997815 0.98754
1.00536 1.00244 0.983422
1.00526 1.00099 0.984991
1.0052 0.999986 0.985861
1.00411 1.00309 0.985141
1.00505 1.00299 0.983446
1.00503 1.00246 0.984094
1.00128 1.00331 0.989321
1.00303 1.00306 0.986676
1.00383 1.0025 0.985231
1.00019 1.0003 0.997617
1.00105 1.00293 0.990225
1.00256 1.0038 0.98713
1.00009 0.999836 0.996689
1.00081 1.00235 0.991372
1.00025 0.998925 0.998144
1.00506 1.00234 0.984982
1.0034 1.00195 0.987255
1.00249 1.00292 0.987616
1.0022 1.00306 0.988309
1.0016 1.00466 0.98791
1.00109 1.00512 0.988368
1.00019 1.00155 0.993078
1.00081 1.00482 0.988803
1.00034 1.00512 0.988118
1.00008 0.998243 0.998571
1.00006 1.00073 0.993951
1.00073 1.00412 0.989659
1.00007 0.997787 0.998808
1.00015 0.999925 0.994607
1.00009 0.997438 0.998925
0.999107 0.994807 0.858444
0.994732 0.994788 0.79523
0.994802 0.994819 0.804657
1.00337 1.00296 0.986001
1.00305 1.00383 0.985667
1.00432 1.00371 0.985168
1.00462 1.00322 0.9844
1.00169 1.00241 0.989827
0.999628 1.00359 0.993468
1.0022 1.00262 0.990002
1.0013 1.00079 0.992316
1.00468 0.995525 0.99104
1.00189 0.998338 0.99436
1.00157 0.997792 0.995159
1.00032 0.998867 0.99587
1.00004 1.00177 0.993721
0.997427 0.994796 0.936585
0.99759 0.994779 0.85396
0.994694 0.994816 0.800502
0.995169 0.99481 0.860209
0.994784 0.995198 0.935326
0.994973 0.996358 0.960572
0.994843 0.996718 0.964385
0.99561 0.994767 0.939516
0.995731 0.994778 0.962563
0.998174 0.996589 1.00199
0.998126 0.996139 1.00409
0.99979 0.996284 1.00086
0.996317 0.998351 0.991721
0.996882 0.996804 0.990409
1.00007 0.99508 0.923965
0.999814 0.994893 0.865239
0.994705 0.994761 0.797275
0.995069 0.998129 0.982663
0.994926 0.994771 0.953716
0.999548 0.994839 0.856255
0.996876 0.994785 0.939828
0.995762 0.99805 0.986997
0.999883 0.994862 0.934058
0.995566 0.994811 0.95852
0.999991 0.995354 0.985339
0.997619 0.994784 0.969954
0.999315 0.999319 0.993712
1.0024 0.997657 0.991315
1.00511 0.994945 0.991175
1.00472 0.996533 0.989576
1.00514 0.995486 0.98989
1.00531 0.99487 0.990398
1.00479 0.996798 0.989059
1.00535 0.994853 0.990094
1.00532 0.994864 0.99041
1.00536 0.995099 0.989868
1.00526 0.994849 0.990685
1.00534 0.994849 0.9906
1.0053 0.994843 0.990811
1.00534 0.994898 0.990752
1.00529 0.994925 0.990845
1.00527 0.995098 0.990748
1.00523 0.995516 0.990364
1.00532 0.997522 0.988257
1.00532 0.996391 0.989206
1.00533 0.995967 0.989567
1.00537 1.00122 0.984474
1.00538 0.999052 0.986383
1.00533 0.997964 0.987089
1.00499 1.00276 0.9838
1.00536 1.00241 0.983483
1.00527 1.00105 0.985007
1.00185 1.00338 0.988145
1.00372 1.00336 0.985169
1.0047 1.00316 0.983546
1.00054 1.00097 0.997161
1.00139 1.0032 0.989303
1.00296 1.00311 0.986595
1.00039 1.0005 0.997431
1.00114 1.00275 0.990245
1.00032 0.999861 0.997708
1.00507 1.00359 0.98375
1.00479 1.00193 0.985044
1.00332 1.00318 0.986245
1.00288 1.00192 0.987093
1.00221 1.00334 0.987585
1.00174 1.0045 0.987603
1.00121 1.00448 0.98794
1.00093 1.00513 0.988318
1.00044 1.00227 0.992047
1.00008 0.998843 0.998281
1.00004 1.00171 0.993086
1.00052 1.00501 0.988782
1.00004 0.998157 0.998649
1.00007 1.00071 0.993946
1.00004 0.997736 0.998836
0.999971 0.994872 0.939036
0.99984 0.994863 0.8564
0.994712 0.99477 0.788983
1.00295 1.00483 0.98459
1.00381 1.0036 0.984844
1.00294 1.00231 0.988678
1.00409 1.00324 0.984523
1.00519 0.999813 0.985994
1.0036 0.998486 0.988992
1.00089 1.00144 0.99259
1.00457 0.995455 0.990859
1.00189 0.997934 0.994413
1.00404 0.996537 0.990804
1.0025 0.99855 0.993046
1.00174 0.999031 0.994018
1.00111 0.998342 0.995228
1.00053 0.999394 0.995514
0.99524 0.994785 0.96119
0.997584 0.994772 0.931728
0.996634 0.994823 0.872909
0.994805 0.994685 0.926423
0.994857 0.996676 0.964726
0.995646 0.995639 0.968227
0.999052 0.994808 0.991041
0.999405 0.996014 1.00101
0.997613 0.996592 1.00421
0.998511 0.998532 0.990916
0.997806 0.994779 0.963017
1.00016 0.994888 0.939314
0.999826 0.995432 0.845835
0.995419 0.998112 0.987438
0.996137 0.994802 0.958519
0.999498 0.994823 0.928842
0.999231 0.996737 0.985876
0.997776 0.9948 0.968943
1.00273 0.996777 0.987749
1.00329 0.994647 0.985262
1.00152 0.997167 0.991324
1.00457 0.994976 0.991229
1.00528 0.994843 0.990667
1.00503 0.995537 0.989831
1.0053 0.994862 0.990351
1.00537 0.9949 0.990399
1.00535 0.994858 0.990055
1.00533 0.994866 0.990408
1.00536 0.99489 0.990474
1.00525 0.994855 0.990676
1.00534 0.994848 0.990629
1.00537 0.994845 0.990654
1.00529 0.994834 0.990839
1.00533 0.994883 0.990752
1.00529 0.995149 0.990744
1.00528 0.995081 0.990754
1.00524 0.995492 0.990382
1.00527 0.996732 0.989214
1.00532 0.999783 0.98606
1.00532 0.997743 0.987944
1.00532 0.996431 0.989202
1.00534 1.002 0.983917
1.00538 1.00127 0.984507
1.00541 0.999179 0.986177
1.00282 1.00272 0.987279
1.0047 1.00304 0.983819
1.00537 1.0024 0.983544
1.00101 1.00127 0.99675
1.00203 1.00327 0.988062
1.00337 1.00365 0.985198
1.00072 1.00103 0.99702
1.00148 1.00308 0.989288
1.00057 1.00066 0.997262
1.00525 1.00138 0.984711
1.00496 1.00318 0.983726
1.00449 1.00345 0.984057
1.0046 1.002 0.985109
1.00359 1.00296 0.985939
1.003 1.00331 0.986444
1.00198 1.00413 0.98756
1.00175 1.00452 0.987597
1.00088 1.00276 0.990747
1.0007 1.0051 0.988279
1.00026 1.00241 0.992049
1.00011 0.999691 0.997891
1.00004 0.998773 0.998392
0.999923 1.00179 0.993104
1.00001 0.998114 0.998716
0.995985 0.994929 0.96439
0.999724 0.994901 0.92352
0.999843 0.995074 0.871134
1.00527 0.997677 0.987709
1.00451 1.00242 0.98755
1.00365 1.00322 0.984644
1.0042 0.998642 0.98927
1.00518 0.99996 0.986006
1.00515 0.996503 0.989284
1.00479 0.996336 0.990674
1.00156 0.997766 0.994484
1.00458 0.996182 0.990824
1.0021 0.998592 0.993018
1.00388 0.997642 0.990156
1.0032 0.994832 0.99446
1.0016 0.998022 0.994172
1.00094 0.99863 0.995299
0.998477 0.99473 0.989767
0.995659 0.994777 0.959698
0.997438 0.994775 0.92536
0.995397 0.995961 0.969084
0.998812 0.994827 0.993703
0.999672 0.995652 0.999993
1.00245 0.995047 0.979646
0.998108 0.994874 0.961831
1.00018 0.994936 0.92404
0.998143 0.997386 0.986395
0.997846 0.99479 0.968421
1.0019 0.995769 0.988361
1.00293 0.99466 0.985744
1.00365 0.996732 0.990213
1.00551 0.994645 0.990801
1.00408 0.994899 0.991285
1.00527 0.994855 0.990641
1.00541 0.994871 0.990375
1.0053 0.994858 0.990306
1.00536 0.994897 0.990408
1.00538 0.994888 0.990463
1.00533 0.994871 0.990406
1.00535 0.994889 0.99048
1.00535 0.994898 0.990659
1.00534 0.99485 0.990658
1.00537 0.994844 0.990647
1.00531 0.99488 0.990874
1.00533 0.994873 0.990753
1.00529 0.995077 0.990762
1.00528 0.995691 0.990346
1.00524 0.995463 0.990399
1.00528 0.996557 0.989366
1.00531 0.99918 0.986873
1.00534 1.00132 0.984606
1.00533 1.00002 0.985814
1.00532 0.997961 0.987631
1.00329 1.00148 0.987683
1.00525 1.00212 0.983927
1.00539 1.00132 0.98454
1.00165 1.00129 0.996274
1.00295 1.0025 0.987251
1.00447 1.00322 0.98384
1.00123 1.00135 0.996535
1.00226 1.00317 0.987984
1.00089 1.00113 0.996855
1.00528 0.999475 0.986144
1.00523 1.0014 0.984665
1.00531 1.00229 0.983695
1.00476 1.00285 0.983707
1.00487 1.00325 0.983734
1.00344 1.00336 0.985744
1.00412 1.00238 0.985632
1.0029 1.00354 0.986482
1.0012 1.00314 0.989617
1.00167 1.00462 0.98756
1.00072 1.00294 0.990786
1.00025 1.00067 0.997443
1.00007 1.00254 0.992052
1.00003 0.999501 0.998045
0.999982 0.998642 0.99849
0.999613 0.9953 0.985842
0.996359 0.994877 0.95992
1.00005 0.994842 0.938736
1.00535 0.995979 0.989316
1.0053 0.995741 0.989609
1.00528 0.997359 0.987967
1.0048 0.998357 0.989543
1.00517 1.0001 0.986023
1.00517 0.996422 0.989426
1.00534 0.995055 0.989814
1.00486 0.995694 0.990852
1.0019 0.998398 0.993011
1.00382 0.997822 0.990711
1.00518 0.994824 0.990961
1.00364 0.994775 0.993126
1.00275 0.994892 0.994198
1.00187 0.997207 0.994333
0.999052 0.994687 0.989732
0.996127 0.994797 0.95858
0.998978 0.994821 0.996514
1.00492 0.995021 0.990196
1.00261 0.995 0.979793
0.998122 0.99489 0.961194
1.00163 0.994814 0.988896
1.0026 0.994667 0.986242
1.00379 0.995786 0.990623
1.00548 0.994641 0.990867
1.00548 0.994731 0.990845
1.00555 0.994749 0.991138
1.00529 0.994869 0.990612
1.00543 0.994864 0.99038
1.00537 0.994843 0.99072
1.00535 0.99489 0.990417
1.00538 0.994886 0.990488
1.00532 0.994891 0.990754
1.00535 0.994885 0.990486
1.00536 0.994899 0.990658
1.00531 0.994907 0.990908
1.00537 0.994842 0.990641
1.00531 0.994879 0.99086
1.0053 0.995133 0.990846
1.00529 0.994998 0.990781
1.00528 0.995663 0.990298
1.00532 0.998357 0.987686
1.00528 0.996384 0.989518
1.00531 0.999045 0.98702
1.00531 1.00086 0.985204
1.00339 1.00076 0.988335
1.00534 1.00131 0.984626
1.00532 1.00026 0.985568
1.00199 1.0009 0.996191
1.00331 1.00151 0.987701
1.00504 1.00234 0.983931
1.00177 1.00125 0.996193
1.00308 1.00241 0.987215
1.00146 1.00144 0.996333
1.00533 0.997245 0.988185
1.00527 0.999287 0.986398
1.00539 1.00123 0.9847
1.0052 1.00141 0.984612
1.00533 1.00239 0.983606
1.00407 1.00293 0.985031
1.00525 1.00312 0.983411
1.0036 1.00301 0.985754
1.0017 1.00354 0.98843
1.00295 1.00355 0.986538
1.00115 1.00327 0.989638
1.0005 1.00128 0.997059
1.00052 1.00308 0.990819
1.00011 1.00042 0.997611
0.999998 0.999363 0.998184
1.00401 0.995329 0.991925
0.99942 0.995206 0.983465
0.996385 0.994877 0.960308
1.00532 0.995193 0.990129
1.00533 0.995655 0.989557
1.00531 0.994964 0.990629
1.00531 0.995859 0.989562
1.00528 0.997054 0.988218
1.00541 0.994843 0.990282
1.0052 0.996551 0.989558
1.00531 0.995322 0.989807
1.00536 0.994774 0.990656
1.00383 0.997512 0.991261
1.00518 0.994857 0.99061
1.00316 0.994788 0.993381
1.00196 0.995109 0.993952
0.999361 0.994641 0.989423
1.00555 0.994774 0.991147
1.00504 0.995083 0.990186
1.0025 0.995036 0.980057
1.00381 0.994786 0.991021
1.00548 0.994651 0.990936
1.00547 0.994726 0.990824
1.00558 0.994778 0.991253
1.00538 0.994841 0.99126
1.00545 0.994858 0.990387
1.00537 0.994855 0.990723
1.00531 0.994891 0.991029
1.00539 0.994886 0.990514
1.00533 0.994894 0.990755
1.00528 0.99493 0.991033
1.00536 0.994899 0.990657
1.0053 0.994907 0.990909
1.00531 0.994927 0.991139
1.00532 0.994878 0.990845
1.00529 0.995143 0.990813
1.00533 0.997459 0.988642
1.00528 0.995634 0.990249
1.00531 0.998374 0.987699
1.00531 1.00042 0.985676
1.0053 0.998907 0.987167
1.00532 1.00083 0.985231
1.00333 1.0005 0.990495
1.00225 1.00003 0.992775
1.00338 1.0008 0.989244
1.00535 1.00129 0.984646
1.00191 1.00086 0.996275
1.00332 1.00137 0.987721
1.00178 1.00131 0.996177
1.00526 0.995006 0.990924
1.0053 0.995942 0.989759
1.00534 0.997196 0.988406
1.00533 0.999983 0.985905
1.00528 0.999075 0.986653
1.00535 1.00125 0.984625
1.0049 1.00212 0.984357
1.00534 1.00245 0.983518
1.00435 1.00249 0.984981
1.00265 1.00301 0.987303
1.00379 1.00262 0.985765
1.00164 1.00359 0.98842
1.00104 1.00184 0.996471
1.00108 1.00342 0.989674
1.00038 1.00115 0.997204
0.999993 1.00019 0.997785
1.00548 0.994821 0.990997
1.00382 0.995067 0.991493
0.999574 0.994931 0.981165
1.00532 0.994861 0.990665
1.00532 0.995227 0.990057
1.00531 0.995328 0.989811
1.00529 0.995085 0.990591
1.00531 0.995979 0.989516
1.00539 0.99485 0.990675
1.00539 0.994838 0.990254
1.00529 0.995475 0.989803
1.00532 0.99477 0.990708
1.00517 0.995005 0.990258
1.0029 0.994629 0.99362
1.00531 0.994859 0.991352
1.00553 0.99477 0.991173
1.0052 0.995031 0.990171
1.00544 0.994722 0.99079
1.00558 0.9948 0.991367
1.00539 0.994844 0.991224
1.0053 0.994907 0.991326
1.00537 0.994865 0.990726
1.00531 0.994895 0.990987
1.00525 0.994932 0.99123
1.00533 0.994897 0.990755
1.00528 0.99493 0.991035
1.00527 0.994922 0.991295
1.0053 0.994908 0.990912
1.00531 0.994925 0.991106
1.00532 0.996644 0.989585
1.00528 0.995153 0.99078
1.00534 0.997489 0.988642
1.00531 1.00005 0.986117
1.0053 0.99839 0.987712
1.00532 1.0004 0.985708
1.00339 1.00032 0.990591
1.00532 1.0008 0.985258
1.00357 1.00037 0.990344
1.00231 0.999702 0.99296
1.00191 1.00037 0.99469
1.00357 1.00081 0.989956
1.00187 1.00079 0.996345
1.00527 0.994879 0.990962
1.00526 0.99576 0.990213
1.00525 0.994986 0.990979
1.00529 0.998771 0.987189
1.0053 0.995966 0.989817
1.00534 0.99716 0.988628
1.00532 0.999958 0.985872
1.00531 1.00127 0.984712
1.00534 1.00129 0.98455
1.0051 1.00191 0.984366
1.00317 1.00178 0.98755
1.00456 1.00231 0.984942
1.00248 1.00314 0.987373
1.00151 1.00183 0.996155
1.00152 1.00356 0.988419
1.00081 1.00158 0.996727
1.00017 1.00102 0.997343
1.00534 0.994883 0.990983
1.00541 0.994828 0.991064
1.0034 0.995043 0.991072
1.00531 0.99489 0.990845
1.00532 0.994861 0.990616
1.00531 0.995243 0.989987
1.00528 0.995226 0.990551
1.0054 0.994855 0.990659
1.00536 0.994836 0.990225
1.00528 0.994771 0.990755
1.00529 0.994902 0.991361
1.00531 0.994861 0.991308
1.00551 0.994774 0.991196
1.00528 0.994922 0.991398
1.00542 0.994846 0.991188
1.00529 0.994906 0.991319
1.00524 0.994941 0.991372
1.00531 0.994899 0.990944
1.00525 0.994932 0.991233
1.00521 0.994954 0.991476
1.00528 0.994931 0.991037
1.00528 0.994923 0.991278
1.00532 0.99601 0.990354
1.0053 0.994924 0.991073
1.00534 0.996659 0.989577
1.00527 0.999751 0.986523
1.00535 0.997519 0.988642
1.00531 1.00003 0.98615
1.00337 1.0003 0.990608
1.00533 1.00038 0.985741
1.0036 1.00023 0.990412
1.00235 0.999681 0.992908
1.00379 1.00023 0.990201
1.0018 0.999872 0.993321
1.00121 1.00075 0.996993
1.00527 0.99491 0.991006
1.00529 0.995151 0.990742
1.00527 0.994887 0.990986
1.00532 0.998258 0.987767
1.00527 0.995481 0.990402
1.00524 0.994967 0.991036
1.00534 1.0005 0.985477
1.0053 0.998741 0.987165
1.0053 0.995964 0.989877
1.00531 0.999926 0.98584
1.00531 1.00127 0.984689
1.00317 1.00102 0.988392
1.00532 1.00164 0.984367
1.00308 1.00192 0.987565
1.00161 1.00129 0.996322
1.00237 1.00324 0.987416
1.00139 1.00174 0.99623
1.00065 1.00147 0.996935
1.0053 0.994917 0.991147
1.00536 0.994877 0.990918
1.00534 0.994832 0.991137
1.00531 0.99489 0.990852
1.00533 0.994862 0.990567
1.00541 0.994858 0.990644
1.00528 0.994927 0.991378
1.00529 0.994905 0.991376
1.00532 0.994866 0.991264
1.00528 0.994921 0.991413
1.00523 0.994948 0.991504
1.00529 0.994905 0.991311
1.00524 0.994943 0.991399
1.00518 0.994963 0.991559
1.00526 0.994932 0.991236
1.00522 0.994955 0.991475
1.00532 0.995625 0.99077
1.00529 0.994923 0.991261
1.0053 0.996026 0.990354
1.00524 0.999514 0.986823
1.00535 0.996673 0.989568
1.00527 0.999734 0.986557
1.00329 1.00036 0.990637
1.00532 1.00001 0.986183
1.00357 1.00023 0.990423
1.00228 0.999818 0.992854
1.0038 1.00014 0.99024
1.0019 0.999743 0.993296
1.00131 1.00007 0.993668
1.00526 0.994935 0.991169
1.0053 0.994928 0.9911
1.00527 0.994906 0.99098
1.00533 0.997032 0.989011
1.00529 0.995215 0.990733
1.00527 0.994893 0.991009
1.00533 1.00004 0.986034
1.00533 0.997791 0.988162
1.00528 0.995212 0.99059
1.0033 1.00039 0.988848
1.00533 1.00053 0.985446
1.00531 0.998718 0.987143
1.00534 1.00127 0.984664
1.0032 1.001 0.988367
1.00168 1.00082 0.996481
1.00304 1.00216 0.987591
1.00166 1.00138 0.996241
1.00127 1.00162 0.99641
1.00528 0.994937 0.991325
1.0053 0.994917 0.99111
1.00537 0.994871 0.990852
1.00531 0.994893 0.99086
1.00525 0.994949 0.991464
1.00529 0.994925 0.991387
1.00529 0.994907 0.99139
1.00527 0.99492 0.991428
1.00524 0.994945 0.991501
1.00522 0.994958 0.991529
1.00524 0.994946 0.991427
1.00518 0.994963 0.99156
1.00531 0.995581 0.990935
1.00522 0.994956 0.991473
1.00529 0.995689 0.990772
1.00525 0.999292 0.987023
1.00528 0.996052 0.990355
1.00525 0.999492 0.986837
1.00331 1.00036 0.988941
1.00526 0.999717 0.986591
1.00348 1.00032 0.989593
1.00195 0.999926 0.996437
1.00376 1.00016 0.990239
1.00187 0.999813 0.993244
1.00146 0.999798 0.993668
1.00526 0.99495 0.991292
1.00529 0.994947 0.991214
1.00526 0.994937 0.991192
1.0053 0.996128 0.990128
1.0053 0.995012 0.99101
1.00527 0.994903 0.990954
1.00527 0.999241 0.986989
1.00532 0.997078 0.989007
1.00529 0.995276 0.990724
1.0034 1.00007 0.989036
1.00531 0.999798 0.986257
1.00533 0.997309 0.988554
1.00182 1.00032 0.996559
1.00333 1.00033 0.988827
1.00531 1.00056 0.985412
1.00322 1.00094 0.988346
1.0017 1.00084 0.996434
1.00164 1.00141 0.996146
1.00527 0.994953 0.991364
1.00528 0.994939 0.991316
1.0053 0.994916 0.991073
1.00527 0.994963 0.991475
1.00525 0.994947 0.991447
1.00529 0.994923 0.991396
1.00524 0.994942 0.991497
1.00522 0.994959 0.991523
1.00534 0.996215 0.990224
1.00519 0.994962 0.99156
1.0053 0.995891 0.990558
1.00526 0.998543 0.987938
1.00525 0.995743 0.990773
1.00527 0.999269 0.987018
1.00326 1.00019 0.989188
1.00526 0.999472 0.986854
1.00334 1.00033 0.988944
1.00188 1 0.996435
1.00353 1.0003 0.988717
1.00178 0.999964 0.9949
1.00147 0.999797 0.993633
1.00525 0.994953 0.99137
1.00528 0.994966 0.991362
1.00526 0.994951 0.991298
1.00528 0.996096 0.990254
1.00529 0.994948 0.991236
1.00526 0.994939 0.991215
1.00521 0.998999 0.987358
1.0053 0.996472 0.989754
1.0053 0.995088 0.99092
1.00342 1.00005 0.989037
1.00527 0.999187 0.987034
1.00532 0.997129 0.989003
1.00193 0.999989 0.996552
1.00342 1.00004 0.989023
1.0053 0.99955 0.986481
1.00185 1.00035 0.996534
1.00338 1.00028 0.988806
1.00171 1.00091 0.996394
1.00529 0.99497 0.991365
1.00526 0.994953 0.991374
1.00528 0.994941 0.991307
1.00533 0.996252 0.990169
1.00527 0.994978 0.99145
1.00525 0.994945 0.99143
1.00522 0.994963 0.991517
1.00533 0.996181 0.990234
1.00519 0.998449 0.988143
1.0053 0.996197 0.990181
1.00528 0.998796 0.987558
1.0032 1.00002 0.989457
1.0053 0.999243 0.987011
1.00326 1.0002 0.98919
1.00176 1.00002 0.996468
1.00336 1.0003 0.988941
1.00183 1.00002 0.996438
1.00188 0.999954 0.993023
1.00528 0.995008 0.991326
1.00525 0.994951 0.991311
1.00529 0.995987 0.990399
1.00528 0.994965 0.991363
1.00526 0.99495 0.991304
1.00521 0.9994 0.986925
1.00529 0.996094 0.990255
1.00528 0.994951 0.991259
1.00339 1.00015 0.989012
1.00521 0.999258 0.987067
1.0053 0.99684 0.989383
1.00195 0.999901 0.996488
1.00342 1.00007 0.989031
1.00526 0.999132 0.98708
1.00194 1.00003 0.996559
1.00344 1.00003 0.989008
1.00188 1.00038 0.996504
1.00532 0.996308 0.990087
1.00529 0.994988 0.991378
1.00526 0.994952 0.991384
1.00511 0.998449 0.988236
1.00533 0.99626 0.990175
1.00527 0.994999 0.991425
1.00532 0.996143 0.990244
1.00522 0.998382 0.988113
1.0031 0.99993 0.989734
1.0053 0.999056 0.987178
1.0032 1.00002 0.989465
1.00168 1.00001 0.996542
1.00327 1.0002 0.989196
1.00172 1.00005 0.996502
1.0018 1.00004 0.996455
1.00532 0.99596 0.990468
1.00528 0.994993 0.991354
1.00525 0.994952 0.991252
1.00521 0.999233 0.987122
1.00531 0.995976 0.990404
1.00528 0.994963 0.991364
1.00332 1.00017 0.989126
1.0052 0.999425 0.986925
1.0053 0.996066 0.990256
1.00189 0.999947 0.996439
1.00338 1.00018 0.989012
1.00521 0.999509 0.986777
1.00197 0.999918 0.996514
1.00342 1.00009 0.989022
1.00199 1.00004 0.996556
1.00507 0.999027 0.987592
1.00532 0.996093 0.990386
1.0053 0.995015 0.99139
1.00301 0.999845 0.989987
1.00512 0.998429 0.988223
1.00532 0.996271 0.990182
1.00525 0.998314 0.988082
1.00312 0.999889 0.989744
1.0016 1.00001 0.996591
1.0032 1.00003 0.989472
1.00165 1.00002 0.996554
1.00166 1.00007 0.996527
1.00514 0.999114 0.987386
1.00531 0.99593 0.990532
1.00528 0.994964 0.991383
1.00337 1.00007 0.99085
1.00519 0.999254 0.987136
1.00531 0.995969 0.990408
1.00178 1 0.996462
1.00331 1.0002 0.989129
1.00519 0.99945 0.986927
1.00193 0.999943 0.996457
1.00337 1.00021 0.989011
1.002 0.999923 0.996536
1.0031 0.999846 0.989914
1.00507 0.998788 0.987884
1.00532 0.995869 0.990684
1.00148 0.999983 0.996677
1.003 0.999834 0.989984
1.00514 0.9984 0.98821
1.00313 0.999849 0.98975
1.00156 0.999998 0.996621
1.00162 1.00004 0.996573
1.00332 0.999947 0.991095
1.00512 0.999127 0.987398
1.00531 0.995926 0.990596
1.00114 1.00003 0.997146
1.0032 1.00009 0.989406
1.00516 0.999272 0.987152
1.00182 0.999996 0.996457
1.00329 1.00023 0.989129
1.00196 0.999936 0.996476
1.00144 0.999943 0.993729
1.00312 0.999866 0.990621
1.00507 0.998548 0.988175
1.0015 0.999981 0.996696
1.00302 0.999827 0.989989
1.00157 0.999984 0.996648
1.00091 0.999994 0.994211
1.0032 0.999936 0.990414
1.00511 0.999146 0.987405
1.00138 1.00001 0.995269
1.00317 1.00011 0.989435
1.00186 0.999985 0.996457
1.00146 0.999975 0.996703
1.00296 0.999868 0.990016
1.00145 0.999978 0.996702
1.00122 0.999974 0.995458
1.00306 0.999942 0.989802
1.00171 1.00001 0.996505
1.00148 0.999982 0.996699
1.00155 0.999991 0.996613

TENSORS stress float
0.00248788 -0.00017733 0.000292102
-0.00017733 0.00126892 -5.28194e-05
0.000292102 -5.28194e-05 0.00124112
0.00772444 0.00013319 0.000353538
0.00013319 0.00463269 4.35959e-05
0.000353538 4.35959e-05 0.00464601
0.00211498 -0.000107934 0.000117844
-0.000107934 0.00102422 -2.03778e-05
0.000117844 -2.03778e-05 0.000982773
0.00236652 -9.88418e-05 0.000276377
-9.88418e-05 0.00116964 -3.00456e-05
0.000276377 -3.00456e-05 0.00115296
0.00251 -0.000155642 0.000285842
-0.000155642 0.00127211 -4.6384e-05
0.000285842 -4.6384e-05 0.00124829
0.00252096 -0.000184423 0.000304723
-0.000184423 0.00129125 -5.51286e-05
0.000304723 -5.51286e-05 0.00126319
0.00204147 -0.00019439 5.88209e-05
-0.00019439 0.000842643 -1.49965e-05
5.88209e-05 -1.49965e-05 0.00070587
0.00783841 0.000125625 -1.00051e-05
0.000125625 0.0046957 -2.85902e-06
-1.00051e-05 -2.85902e-06 0.00471336
0.00704691 0.000260578 0.000174995
0.000260578 0.00420848 1.9365e-05
0.000174995 1.9365e-05 0.0041768
0.00719448 5.17421e-05 0.000112595
5.17421e-05 0.00426898 7.15458e-06
0.000112595 7.15458e-06 0.00424915
0.00194752 0.000250036 0.000325865
0.000250036 0.000935814 4.80693e-05
0.000325865 4.80693e-05 0.000917146
0.00025149 0.000275507 2.64374e-05
0.000275507 -0.000245646 2.1748e-05
2.64374e-05 2.1748e-05 -0.000416047
0.00194265 -3.1658e-05 0.000271547
-3.1658e-05 0.000892951 4.82892e-06
0.000271547 4.82892e-06 0.000897514
0.00169306 5.76592e-06 7.56094e-05
5.76592e-06 0.000757634 2.90463e-06
7.56094e-05 2.90463e-06 0.000706614
0.00182548 -0.000106755 -7.05691e-05
-0.000106755 0.000850982 1.27777e-05
-7.05691e-05 1.27777e-05 0.000787637
0.0020202 -9.71626e-05 8.88692e-05
-9.71626e-05 0.000965986 -5.84837e-06
8.88692e-05 -5.84837e-06 0.000928165
0.0021623 -9.88024e-05 0.000129125
-9.88024e-05 0.00105883 -2.27765e-05
0.000129125 -2.27765e-05 0.00101389
0.00210988 -0.000111866 0.0001057
-0.000111866 0.00101724 -1.54153e-05
0.0001057 -1.54153e-05 0.000978068
0.00216022 -0.000231447 -4.52306e-05
-0.000231447 0.000919514 7.46754e-06
-4.52306e-05 7.46754e-06 0.000792106
0.00658951 -0.000164432 0.000358453
-0.000164432 0.00392182 -1.74641e-05
0.000358453 -1.74641e-05 0.00394643
0.00227387 -7.46687e-05 0.000273315
-7.46687e-05 0.00110965 -2.23699e-05
0.000273315 -2.23699e-05 0.00109634
0.00246902 -0.000127598 0.000281357
-0.000127598 0.00123819 -3.83199e-05
0.000281357 -3.83199e-05 0.00121851
0.00197568 -0.000158801 7.48947e-05
-0.000158801 0.000824766 -1.18714e-05
7.48947e-05 -1.18714e-05 0.000716001
0.00205261 -0.000191792 6.66702e-05
-0.000191792 0.000848143 -1.481e-05
6.66702e-05 -1.481e-05 0.000723046
0.00246074 -0.000167636 0.000312828
-0.000167636 0.0012458 -5.24919e-05
0.000312828 -5.24919e-05 0.00122081
0.0020703 -0.000198737 5.44638e-05
-0.000198737 0.000876626 -1.54446e-05
5.44638e-05 -1.54446e-05 0.000723146
0.00211171 -0.000413203 1.87528e-05
-0.000413203 0.000596323 -6.62882e-06
1.87528e-05 -6.62882e-06 0.00033356
0.00781515 0.000119455 -0.000373918
0.000119455 0.00466923 -3.57897e-05
-0.000373918 -3.57897e-05 0.00469347
0.00464489 0.000190459 -0.000161629
0.000190459 0.00265268 -1.9652e-05
-0.000161629 -1.9652e-05 0.00262856
0.00468983 0.000121514 -0.000167196
0.000121514 0.00268376 -1.93768e-05
-0.000167196 -1.93768e-05 0.00266218
0.00797079 5.94339e-05 -1.97393e-06
5.94339e-05 0.00478395 -1.44055e-06
-1.97393e-06 -1.44055e-06 0.00480082
0.00026842 0.00026158 -1.1455e-06
0.00026158 -0.00022976 -1.35424e-06
-1.1455e-06 -1.35424e-06 -0.000399228
0.00202703 7.67626e-05 0.000280018
7.67626e-05 0.000946551 2.82354e-05
0.000280018 2.82354e-05 0.000936335
0.00219089 0.000170197 0.00029229
0.000170197 0.00108391 4.42171e-05
0.00029229 4.42171e-05 0.00106048
0.00295526 0.000247803 0.000172
0.000247803 0.0014226 2.66978e-05
0.000172 2.66978e-05 0.00132473
0.0071288 -0.000237453 4.36285e-05
-0.000237453 0.0043023 3.6297e-06
4.36285e-05 3.6297e-06 0.00425676
0.0030663 0.00033859 0.000183692
0.00033859 0.00154644 3.41309e-05
0.000183692 3.41309e-05 0.00142399
0.000385007 0.000266401 2.61677e-05
0.000266401 -0.000152989 3.08507e-05
2.61677e-05 3.08507e-05 -0.000328086
0.00110247 0.000388924 2.58489e-05
0.000388924 7.38636e-05 7.37644e-06
2.58489e-05 7.37644e-06 -0.000224479
0.00564022 -0.000119119 0.000210678
-0.000119119 0.00339564 2.70947e-05
0.000210678 2.70947e-05 0.00338484
0.00654874 8.92074e-05 3.56e-06
8.92074e-05 0.00387901 -2.09658e-06
3.56e-06 -2.09658e-06 0.00391263
0.00430239 0.000101496 -0.000135811
0.000101496 0.00243098 -6.55044e-06
-0.000135811 -6.55044e-06 0.00242057
0.00639386 5.69987e-05 0.000347943
5.69987e-05 0.00378247 4.91361e-06
0.000347943 4.91361e-06 0.00381728
0.00159468 9.229e-05 7.76269e-05
9.229e-05 0.000698474 5.68963e-06
7.76269e-05 5.68963e-06 0.000651839
0.000453336 1.36927e-05 1.37871e-05
1.36927e-05 -0.000167863 1.91626e-06
1.37871e-05 1.91626e-06 -0.000262671
0.00671862 0.000246614 0.000200314
0.000246614 0.00402075 2.02524e-05
0.000200314 2.02524e-05 0.00399479
0.00293139 8.9286e-05 0.000159237
8.9286e-05 0.00140592 1.14829e-05
0.000159237 1.14829e-05 0.00134247
0.00165575 -9.79875e-05 -9.0238e-05
-9.79875e-05 0.000751463 1.20034e-05
-9.0238e-05 1.20034e-05 0.000691895
0.00171953 -0.000129457 -8.364e-05
-0.000129457 0.000793228 1.52829e-05
-8.364e-05 1.52829e-05 0.000727286
0.00191675 -6.81783e-05 -5.86944e-05
-6.81783e-05 0.000901858 1.04572e-05
-5.86944e-05 1.04572e-05 0.000839152
0.0022398 -0.000234191 -0.000156934
-0.000234191 0.000961089 2.98957e-05
-0.000156934 2.98957e-05 0.000847186
0.00413633 -3.58538e-05 -0.000138921
-3.58538e-05 0.0023352 -9.73093e-07
-0.000138921 -9.73093e-07 0.0023252
0.00198744 -7.75936e-05 9.35658e-05
-7.75936e-05 0.000941158 -4.76005e-06
9.35658e-05 -4.76005e-06 0.000907784
0.00225735 -7.3542e-05 0.000134052
-7.3542e-05 0.00111558 -2.12547e-05
0.000134052 -2.12547e-05 0.00106821
0.00207026 -0.000104652 9.5447e-05
-0.000104652 0.000993325 -9.9225e-06
9.5447e-05 -9.9225e-06 0.000955173
0.0020582 -0.000136454 -3.67324e-05
-0.000136454 0.000864882 3.08437e-06
-3.67324e-05 3.08437e-06 0.000770076
0.00217463 -0.000245045 -5.23867e-05
-0.000245045 0.000942854 8.713e-06
-5.23867e-05 8.713e-06 0.000801014
0.00214221 -0.000207115 -4.00949e-05
-0.000207115 0.000904347 5.49288e-06
-4.00949e-05 5.49288e-06 0.000789153
0.00221287 -0.000421424 -1.03615e-05
-0.000421424 0.000660107 2.73834e-06
-1.03615e-05 2.73834e-06 0.000397681
0.00637066 -1.16782e-05 0.000343931
-1.16782e-05 0.00376571 -4.06491e-06
0.000343931 -4.06491e-06 0.00380158
0.00220579 -4.88742e-05 0.000268769
-4.88742e-05 0.00106864 -1.53507e-05
0.000268769 -1.53507e-05 0.00106044
0.00249208 -2.18146e-05 5.86558e-05
-2.18146e-05 0.00116226 -4.69935e-07
5.86558e-05 -4.69935e-07 0.00108805
0.00194664 -0.000127953 6.80422e-05
-0.000127953 0.000811504 -7.84762e-06
6.80422e-05 -7.84762e-06 0.000713178
0.00201858 -0.000176451 7.23808e-05
-0.000176451 0.000834509 -1.38375e-05
7.23808e-05 -1.38375e-05 0.000718182
0.00201692 -0.000260071 3.77724e-06
-0.000260071 0.00045388 -1.74986e-06
3.77724e-06 -1.74986e-06 0.000271511
0.00202555 -0.000366107 1.4556e-05
-0.000366107 0.000497128 -4.34518e-06
1.4556e-05 -4.34518e-06 0.000269
0.0021431 -0.000128529 0.0002956
-0.000128529 0.00103464 -4.5205e-05
0.0002956 -4.5205e-05 0.00100758
0.00207217 -0.000160707 4.69469e-05
-0.000160707 0.000909694 -1.32799e-05
4.69469e-05 -1.32799e-05 0.000749579
0.0020843 -0.000463424 2.33451e-05
-0.000463424 0.000618428 -7.02662e-06
2.33451e-05 -7.02662e-06 0.000317901
0.00198788 -0.000552611 5.85292e-06
-0.000552611 0.000267517 1.27728e-06
5.85292e-06 1.27728e-06 -3.82849e-05
0.00750158 0.000315524 -0.000396545
0.000315524 0.00449598 -4.89843e-05
-0.000396545 -4.89843e-05 0.0045047
0.00782438 2.14191e-05 -0.000330929
2.14191e-05 0.00469345 -2.86762e-05
-0.000330929 -2.86762e-05 0.00471113
0.00758403 0.000186783 -0.000370406
0.000186783 0.00452541 -3.98162e-05
-0.000370406 -3.98162e-05 0.00454731
0.000323162 0.00025172 -2.61161e-05
0.00025172 -0.000188684 -2.11078e-05
-2.61161e-05 -2.11078e-05 -0.000359582
0.00723563 0.000267142 -1.86179e-06
0.000267142 0.00431951 -2.62412e-06
-1.86179e-06 -2.62412e-06 0.0043352
0.00751822 0.000277637 -8.38051e-06
0.000277637 0.00449653 -3.64827e-06
-8.38051e-06 -3.64827e-06 0.00450816
0.000351002 0.000160624 3.49691e-07
0.000160624 -0.000255546 -2.77716e-07
3.49691e-07 -2.77716e-07 -0.000391309
0.00426297 -4.34334e-05 -0.000143498
-4.34334e-05 0.00245355 -8.73949e-06
-0.000143498 -8.73949e-06 0.00242306
0.000293296 0.000237777 1.29451e-06
0.000237777 -0.000235116 -4.11481e-07
1.29451e-06 -4.11481e-07 -0.000396093
0.00195404 0.000280818 7.34754e-05
0.000280818 0.000861486 4.38886e-06
7.34754e-05 4.38886e-06 0.000716982
0.00108253 0.000390546 1.47909e-06
0.000390546 5.2586e-05 2.54858e-07
1.47909e-06 2.54858e-07 -0.000245985
0.00637128 -8.94256e-05 0.000256489
-8.94256e-05 0.00384397 3.1669e-05
0.000256489 3.1669e-05 0.00383805
0.000576091 0.000131945 2.61633e-05
0.000131945 2.4337e-05 1.55393e-05
2.61633e-05 1.55393e-05 -6.76347e-05
0.000447541 0.000125531 1.41222e-05
0.000125531 -0.000205787 1.18786e-05
1.41222e-05 1.18786e-05 -0.000331353
0.000452433 0.000192223 1.86413e-05
0.000192223 -0.000178011 2.00602e-05
1.86413e-05 2.00602e-05 -0.000324042
0.00142183 0.00034384 1.41867e-05
0.00034384 5.51473e-05 5.58392e-06
1.41867e-05 5.58392e-06 -0.000182875
0.0034986 0.000302956 0.000177484
0.000302956 0.00186929 2.8564e-05
0.000177484 2.8564e-05 0.0017652
0.00129289 0.000404034 2.50606e-05
0.000404034 0.000108137 8.27983e-06
2.50606e-05 8.27983e-06 -0.000178804
0.000793982 0.000350584 1.9883e-05
0.000350584 -1.99916e-05 6.6259e-06
1.9883e-05 6.6259e-06 -0.00031642
0.00168173 0.000616858 9.87513e-06
0.000616858 0.000264278 -3.5347e-06
9.87513e-06 -3.5347e-06 -0.00013174
0.00478352 -0.000147134 0.000145085
-0.000147134 0.00282724 1.41759e-05
0.000145085 1.41759e-05 0.00281651
0.00521607 -0.00016302 1.65607e-05
-0.00016302 0.00311532 1.80172e-06
1.65607e-05 1.80172e-06 0.00309926
0.00701777 7.72187e-05 -0.000366771
7.72187e-05 0.0041625 -2.00591e-05
-0.000366771 -2.00591e-05 0.0041942
0.00666179 8.10538e-05 -0.000360061
8.10538e-05 0.00394664 -1.23017e-05
-0.000360061 -1.23017e-05 0.00398155
0.00649487 8.36093e-05 2.94259e-07
8.36093e-05 0.00385167 -4.34626e-06
2.94259e-07 -4.34626e-06 0.00388376
0.00416606 4.24495e-05 -0.000147465
4.24495e-05 0.00234301 -8.46972e-06
-0.000147465 -8.46972e-06 0.00233858
0.00157013 4.23455e-05 6.9984e-05
4.23455e-05 0.000550127 2.19595e-06
6.9984e-05 2.19595e-06 0.000475862
0.00447856 0.000163826 -0.000138769
0.000163826 0.00255024 -8.71421e-06
-0.000138769 -8.71421e-06 0.00253117
0.00164158 0.000103789 7.09554e-05
0.000103789 0.000579713 3.88315e-06
7.09554e-05 3.88315e-06 0.000491522
0.00642553 0.000111725 0.000350531
0.000111725 0.00381594 7.40682e-06
0.000350531 7.40682e-06 0.00384352
0.000336726 1.03391e-05 1.74072e-05
1.03391e-05 -0.000237064 9.15744e-07
1.74072e-05 9.15744e-07 -0.00032756
0.00290295 4.88613e-05 0.000157836
4.88613e-05 0.00139657 7.6338e-06
0.000157836 7.6338e-06 0.00134062
0.00119129 8.29576e-05 7.5824e-06
8.29576e-05 -6.7565e-05 5.95809e-07
7.5824e-06 5.95809e-07 -0.000203409
0.00284927 0.000141616 0.000163916
0.000141616 0.00134636 1.51104e-05
0.000163916 1.51104e-05 0.00127331
0.0013137 0.00017193 3.96593e-06
0.00017193 -4.34008e-05 1.57446e-06
3.96593e-06 1.57446e-06 -0.000203339
0.00194562 4.0241e-05 -0.000270684
4.0241e-05 0.000891321 3.7151e-06
-0.000270684 3.7151e-06 0.000899098
0.00165622 -2.83035e-05 -7.72015e-05
-2.83035e-05 0.000741125 3.92227e-06
-7.72015e-05 3.92227e-06 0.000688731
0.00198066 -3.20245e-05 -5.2133e-05
-3.20245e-05 0.00093518 9.09879e-06
-5.2133e-05 9.09879e-06 0.000870758
0.0016556 -0.00011593 -9.15064e-05
-0.00011593 0.00075261 1.47226e-05
-9.15064e-05 1.47226e-05 0.000690188
0.00216793 -0.000113885 -0.000143637
-0.000113885 0.000922809 1.43443e-05
-0.000143637 1.43443e-05 0.000842041
0.002245 -0.000192786 -0.00015142
-0.000192786 0.00095688 2.51099e-05
-0.00015142 2.51099e-05 0.000857028
0.00226457 -0.000267809 -0.000164905
-0.000267809 0.000999393 3.24041e-05
-0.000164905 3.24041e-05 0.000868735
0.00231505 -0.000430528 -3.59955e-05
-0.000430528 0.000724982 1.11592e-05
-3.59955e-05 1.11592e-05 0.000462694
0.00648078 -0.000119568 2.31377e-06
-0.000119568 0.00385075 -2.10133e-06
2.31377e-06 -2.10133e-06 0.00387794
0.00188816 1.86061e-05 0.000100605
1.86061e-05 0.000867251 -5.5824e-06
0.000100605 -5.5824e-06 0.00084515
0.00119728 -1.72074e-05 -7.31881e-05
-1.72074e-05 0.000317761 2.79041e-06
-7.31881e-05 2.79041e-06 0.00024362
0.00202149 -9.16446e-05 -3.96155e-05
-9.16446e-05 0.00085008 3.66256e-06
-3.96155e-05 3.66256e-06 0.000764162
0.00535761 -0.000102762 0.000309652
-0.000102762 0.00310412 -2.83607e-05
0.000309652 -2.83607e-05 0.00309862
0.00274702 -0.000246782 -5.03748e-05
-0.000246782 0.00133611 5.76806e-06
-5.03748e-05 5.76806e-06 0.00119201
0.00210715 -0.000172476 -3.71078e-05
-0.000172476 0.000884219 3.9936e-06
-3.71078e-05 3.9936e-06 0.000780143
0.00205941 -0.000260217 -9.01475e-06
-0.000260217 0.000478009 1.83512e-06
-9.01475e-06 1.83512e-06 0.000301114
0.00222744 -0.000478624 -9.22198e-06
-0.000478624 0.000719425 2.70752e-06
-9.22198e-06 2.70752e-06 0.000417189
0.00211701 -0.000370914 -1.01786e-05
-0.000370914 0.000557158 2.85967e-06
-1.01786e-05 2.85967e-06 0.000326264
0.0020097 -0.000554214 9.09326e-07
-0.000554214 0.000283781 -2.31538e-07
9.09326e-07 -2.31538e-07 -2.18227e-05
0.000337648 6.57586e-06 1.80031e-05
6.57586e-06 -0.000238396 2.23945e-07
1.80031e-05 2.23945e-07 -0.000325552
0.00185566 -1.74215e-05 6.01848e-05
-1.74215e-05 0.000744479 -2.41725e-06
6.01848e-05 -2.41725e-06 0.000662186
0.00201182 -9.23918e-05 6.55572e-06
-9.23918e-05 0.000480928 5.4565e-07
6.55572e-06 5.4565e-07 0.000361975
0.00210248 -0.000207698 2.9996e-06
-0.000207698 0.000525374 -4.0832e-07
2.9996e-06 -4.0832e-07 0.000373146
0.00207172 -0.000317281 9.18494e-06
-0.000317281 0.000492929 -2.45507e-06
9.18494e-06 -2.45507e-06 0.000294337
0.0021707 -0.000373387 -5.64004e-07
-0.000373387 0.00022052 1.59215e-07
-5.64004e-07 1.59215e-07 4.41572e-05
0.00736794 3.30172e-05 0.000281366
3.30172e-05 0.0044283 -2.53392e-05
0.000281366 -2.53392e-05 0.00443446
0.00191072 -0.000503464 4.84787e-06
-0.000503464 0.000156657 1.10884e-06
4.84787e-06 1.10884e-06 -0.000106839
9.60674e-05 -0.000220817 1.98583e-05
-0.000220817 -0.000358719 -2.56805e-05
1.98583e-05 -2.56805e-05 -0.000519248
0.00107911 -0.000409761 2.38947e-05
-0.000409761 5.74801e-05 -8.13362e-06
2.38947e-05 -8.13362e-06 -0.000265271
0.00212907 -0.000620868 7.09719e-06
-0.000620868 0.000425922 1.64654e-06
7.09719e-06 1.64654e-06 6.66961e-05
0.00206779 -0.000617535 3.1548e-06
-0.000617535 0.000217005 5.15061e-06
3.1548e-06 5.15061e-06 -6.30078e-05
0.000422004 -0.000184625 2.41195e-05
-0.000184625 -9.67441e-05 -2.14143e-05
2.41195e-05 -2.14143e-05 -0.000228966
0.000793315 -0.000173142 -2.36819e-07
-0.000173142 0.000190723 -4.79662e-06
-2.36819e-07 -4.79662e-06 -8.45793e-05
0.00737345 0.000294636 -0.000399529
0.000294636 0.0044135 -4.47157e-05
-0.000399529 -4.47157e-05 0.00442595
0.00757208 0.000271034 -0.000386739
0.000271034 0.00452943 -4.66286e-05
-0.000386739 -4.66286e-05 0.00454474
0.000317859 0.000159479 -1.7596e-05
0.000159479 -0.000277896 -1.46574e-05
-1.7596e-05 -1.46574e-05 -0.000414523
0.00691544 -6.37232e-05 -0.000263146
-6.37232e-05 0.00415333 -2.19525e-05
-0.000263146 -2.19525e-05 0.00415959
6.72028e-06 0.000215126 -2.0523e-05
0.000215126 -0.000384418 -2.44345e-05
-2.0523e-05 -2.44345e-05 -0.000539942
0.000277275 0.000224949 -2.1385e-05
0.000224949 -0.000244275 -2.0525e-05
-2.1385e-05 -2.0525e-05 -0.000405088
0.00107264 0.000389412 -2.7973e-05
0.000389412 4.00748e-05 -8.89981e-06
-2.7973e-05 -8.89981e-06 -0.000257546
0.00624809 -9.01873e-05 -1.20948e-05
-9.01873e-05 0.0037588 1.80431e-06
-1.20948e-05 1.80431e-06 0.00375632
0.000630076 0.000109076 3.24343e-07
0.000109076 6.29208e-05 4.95927e-07
3.24343e-07 4.95927e-07 -2.7263e-05
0.00172318 0.000173144 7.41582e-05
0.000173144 0.000617136 7.00701e-06
7.41582e-05 7.00701e-06 0.000508994
0.00171721 0.000244536 7.76545e-05
0.000244536 0.000643995 8.66282e-06
7.76545e-05 8.66282e-06 0.000514111
0.00137948 0.000341439 -1.39874e-07
0.000341439 3.39022e-05 -3.43243e-07
-1.39874e-07 -3.43243e-07 -0.00020514
0.000388504 0.000213171 -1.37374e-06
0.000213171 -0.000122158 -8.53894e-08
-1.37374e-06 -8.53894e-08 -0.00025936
0.00124034 0.000400369 8.29539e-07
0.000400369 7.33321e-05 1.32543e-07
8.29539e-07 1.32543e-07 -0.000213841
0.000804392 0.00033894 1.9001e-06
0.00033894 -1.02034e-05 -1.19211e-06
1.9001e-06 -1.19211e-06 -0.000300389
0.0017705 0.00063261 -1.91716e-06
0.00063261 0.000312266 -4.12828e-07
-1.91716e-06 -4.12828e-07 -8.48791e-05
0.0004687 0.000175945 2.06157e-05
0.000175945 -5.59797e-05 1.97111e-05
2.06157e-05 1.97111e-05 -0.000174093
0.000591446 7.33809e-05 1.62494e-05
7.33809e-05 6.31127e-05 1.47022e-05
1.62494e-05 1.47022e-05 -1.7983e-05
0.00131419 0.000315339 2.17868e-06
0.000315339 0.000546005 3.10279e-06
2.17868e-06 3.10279e-06 0.000298039
0.00142565 0.000293368 1.00646e-05
0.000293368 2.20967e-05 3.79268e-06
1.00646e-05 3.79268e-06 -0.000187932
0.00138173 0.000382268 1.96786e-05
0.000382268 8.31175e-05 7.23116e-06
1.96786e-05 7.23116e-06 -0.000181483
0.00214285 0.000536252 5.118e-06
0.000536252 0.000276821 -6.60591e-07
5.118e-06 -6.60591e-07 9.39892e-06
0.00049434 0.000274379 1.09075e-05
0.000274379 -9.86576e-05 6.99229e-06
1.09075e-05 6.99229e-06 -0.000371132
0.00214576 0.0006536 5.08298e-06
0.0006536 0.000443426 -2.75556e-06
5.08298e-06 -2.75556e-06 8.36016e-05
0.00168737 0.000638335 5.33356e-06
0.000638335 0.000424344 -5.40024e-06
5.33356e-06 -5.40024e-06 -1.82893e-05
0.00175007 0.000678164 -8.12208e-06
0.000678164 0.000201541 -7.73192e-06
-8.12208e-06 -7.73192e-06 -0.000189889
0.0042332 -0.000144931 0.000104691
-0.000144931 0.00245893 8.09306e-06
0.000104691 8.09306e-06 0.0024497
0.00462983 -0.000184583 1.96102e-05
-0.000184583 0.00273423 -1.31063e-06
1.96102e-05 -1.31063e-06 0.00271361
0.00508788 -0.0002153 -0.000122527
-0.0002153 0.00304036 -1.1175e-05
-0.000122527 -1.1175e-05 0.00301167
0.000483617 -0.000179407 2.40315e-05
-0.000179407 -3.80898e-05 -1.90899e-05
2.40315e-05 -1.90899e-05 -0.000152211
0.00643501 8.72521e-05 0.000228596
8.72521e-05 0.00386929 -2.38452e-05
0.000228596 -2.38452e-05 0.00386438
0.00721449 0.000240009 -0.000393567
0.000240009 0.00430487 -3.62424e-05
-0.000393567 -3.62424e-05 0.00432538
0.00677348 0.000109111 -0.000362359
0.000109111 0.0040144 -1.73773e-05
-0.000362359 -1.73773e-05 0.00404693
0.000311724 0.00010721 -1.69517e-05
0.00010721 -0.00027443 -6.92814e-06
-1.69517e-05 -6.92814e-06 -0.000383413
0.000275678 4.56011e-05 -1.72015e-05
4.56011e-05 -0.000277108 -2.91122e-06
-1.72015e-05 -2.91122e-06 -0.000372848
0.00643273 -3.16988e-06 -0.000345778
-3.16988e-06 0.00380339 -3.38456e-06
-0.000345778 -3.38456e-06 0.00383929
0.00636979 -1.81259e-06 2.6327e-07
-1.81259e-06 0.00376467 -1.30122e-06
2.6327e-07 -1.30122e-06 0.00380095
0.000295668 1.31797e-06 -2.59732e-07
1.31797e-06 -0.000265097 1.94744e-07
-2.59732e-07 1.94744e-07 -0.000354109
0.0015681 4.71779e-05 7.06776e-05
4.71779e-05 0.000540096 3.46237e-06
7.06776e-05 3.46237e-06 0.00046208
0.00116584 8.6466e-05 1.53422e-08
8.6466e-05 -8.5667e-05 -7.31243e-08
1.53422e-08 -7.31243e-08 -0.000222475
0.000363326 0.000101692 -7.63995e-07
0.000101692 -0.000250145 -3.34827e-07
-7.63995e-07 -3.34827e-07 -0.000367488
0.0012805 0.000173537 -2.22267e-07
0.000173537 -5.72074e-05 5.16231e-08
-2.22267e-07 5.16231e-08 -0.000218655
0.000291491 -3.32717e-05 1.79046e-05
-3.32717e-05 -0.000268022 -5.50112e-07
1.79046e-05 -5.50112e-07 -0.000354233
0.00111291 3.74005e-05 9.12577e-06
3.74005e-05 -0.000101853 1.53274e-07
9.12577e-06 1.53274e-07 -0.000231846
0.00125495 0.000129966 5.29696e-06
0.000129966 -4.85105e-05 1.22955e-06
5.29696e-06 1.22955e-06 -0.000194586
0.00208597 0.000137972 2.00497e-06
0.000137972 8.64934e-05 6.6524e-07
2.00497e-06 6.6524e-07 7.62585e-06
0.00136509 0.000229877 6.09631e-06
0.000229877 -2.6335e-05 2.21629e-06
6.09631e-06 2.21629e-06 -0.000208455
0.00211785 0.000297564 2.39829e-06
0.000297564 0.000109039 1.8108e-07
2.39829e-06 1.8108e-07 -1.80544e-05
0.00639344 -8.1235e-05 -0.000349636
-8.1235e-05 0.00378887 4.90795e-06
-0.000349636 4.90795e-06 0.00382007
0.0015549 -0.000167111 -7.72055e-05
-0.000167111 0.000697951 9.60736e-06
-7.72055e-05 9.60736e-06 0.000638205
-0.000218426 -1.03643e-05 -1.04775e-05
-1.03643e-05 -0.000587012 5.90822e-07
-1.04775e-05 5.90822e-07 -0.000690084
0.00213169 -8.17643e-05 -0.000141827
-8.17643e-05 0.000913086 1.00108e-05
-0.000141827 1.00108e-05 0.000838986
0.00814115 0.000196364 -6.68706e-05
0.000196364 0.00489212 3.36031e-06
-6.68706e-05 3.36031e-06 0.00485005
0.00309865 -0.000311951 -0.000168861
-0.000311951 0.00156812 3.25491e-05
-0.000168861 3.25491e-05 0.00143331
0.00221712 -0.00015249 -0.000146981
-0.00015249 0.00094107 1.95065e-05
-0.000146981 1.95065e-05 0.000851853
0.00208305 -0.000259549 -2.42703e-05
-0.000259549 0.000489468 4.48766e-06
-2.42703e-05 4.48766e-06 0.000318176
0.00218299 -0.000374149 -3.12599e-05
-0.000374149 0.00059929 9.68118e-06
-3.12599e-05 9.68118e-06 0.000365996
0.00231664 -0.000488142 -3.98437e-05
-0.000488142 0.00078584 1.20031e-05
-3.98437e-05 1.20031e-05 0.000483292
0.00202001 -0.000554346 -4.38359e-06
-0.000554346 0.000293746 -1.63119e-06
-4.38359e-06 -1.63119e-06 -1.13583e-05
0.000285577 2.10165e-06 6.89953e-08
2.10165e-06 -0.000269749 4.01464e-07
6.89953e-08 4.01464e-07 -0.000357883
0.00197453 -9.93093e-05 -3.83914e-05
-9.93093e-05 0.000830319 6.53244e-07
-3.83914e-05 6.53244e-07 0.000749567
0.00166215 -8.87646e-05 -1.31769e-05
-8.87646e-05 0.000254539 8.22583e-07
-1.31769e-05 8.22583e-07 0.000131848
0.00200252 -0.000202594 -1.19792e-05
-0.000202594 0.000453218 2.07e-06
-1.19792e-05 2.07e-06 0.000296872
0.0076382 2.77469e-05 3.90526e-06
2.77469e-05 0.00460094 1.85101e-07
3.90526e-06 1.85101e-07 0.00460634
0.00171841 -0.000231199 9.79208e-06
-0.000231199 0.000697671 -2.72771e-07
9.79208e-06 -2.72771e-07 0.000531005
0.00160528 -0.000438175 -1.02875e-06
-0.000438175 0.000396216 -1.26775e-06
-1.02875e-06 -1.26775e-06 7.67211e-05
0.00212853 -0.000323366 -1.01452e-05
-0.000323366 0.000527333 2.77448e-06
-1.01452e-05 2.77448e-06 0.000327077
0.00216561 -0.000378949 1.52462e-06
-0.000378949 0.000207403 -9.76033e-07
1.52462e-06 -9.76033e-07 3.72466e-05
0.00209678 -0.000618308 1.73497e-06
-0.000618308 0.000402732 1.0168e-07
1.73497e-06 1.0168e-07 4.53599e-05
0.00201272 -0.000505541 1.59529e-07
-0.000505541 0.000228396 -6.81568e-08
1.59529e-07 -6.81568e-08 -3.61415e-05
0.00214451 -0.000623144 8.85947e-07
-0.000623144 0.000271895 2.41017e-07
8.85947e-07 2.41017e-07 -9.48078e-06
0.000411553 -0.00020482 1.84871e-06
-0.00020482 -0.00011172 1.7782e-07
1.84871e-06 1.7782e-07 -0.00024185
0.000897357 -0.000240868 -5.13789e-07
-0.000240868 0.000248662 3.69786e-07
-5.13789e-07 3.69786e-07 -2.69885e-05
0.00112546 -4.41399e-05 1.02452e-05
-4.41399e-05 -8.16048e-05 5.19531e-08
1.02452e-05 5.19531e-08 -0.000212514
0.00206052 -0.000146028 3.04706e-06
-0.000146028 0.000511287 2.02049e-07
3.04706e-06 2.02049e-07 0.000379252
0.0018804 -0.000150291 2.75093e-06
-0.000150291 -2.90745e-05 -2.65271e-07
2.75093e-06 -2.65271e-07 -0.000127752
0.00220982 -0.000307485 -8.23205e-07
-0.000307485 0.000205676 1.30798e-06
-8.23205e-07 1.30798e-06 8.18846e-05
0.00188335 -0.000444122 -9.0008e-07
-0.000444122 7.78634e-05 1.13248e-06
-9.0008e-07 1.13248e-06 -0.000140527
0.002338 -0.000426111 5.1279e-06
-0.000426111 0.000237693 -1.18594e-06
5.1279e-06 -1.18594e-06 0.000106991
0.000127844 -0.000207396 2.10424e-05
-0.000207396 -0.000307836 -2.44235e-05
2.10424e-05 -2.44235e-05 -0.00045759
0.00208619 -0.000562104 1.99438e-06
-0.000562104 0.000178257 3.30393e-06
1.99438e-06 3.30393e-06 -4.84062e-05
0.0012245 -0.000363515 1.68639e-05
-0.000363515 0.000255542 -8.19638e-06
1.68639e-05 -8.19638e-06 -4.93581e-05
0.00178289 -0.000678646 1.63095e-05
-0.000678646 0.000291996 1.60157e-06
1.63095e-05 1.60157e-06 -0.000137985
0.00241086 -0.000699266 2.99162e-06
-0.000699266 0.00050463 4.35261e-06
2.99162e-06 4.35261e-06 0.000153772
0.00239852 -0.000661182 -1.27697e-06
-0.000661182 0.000400788 5.34267e-06
-1.27697e-06 5.34267e-06 0.000142696
0.000738317 -0.000240627 5.12817e-06
-0.000240627 0.000118844 -2.09191e-06
5.12817e-06 -2.09191e-06 -0.000173528
0.00136676 -0.000221282 5.75662e-06
-0.000221282 0.000545033 -5.74409e-06
5.75662e-06 -5.74409e-06 0.000309751
0.00171325 -0.000397203 1.81065e-07
-0.000397203 0.000798848 -1.00027e-06
1.81065e-07 -1.00027e-06 0.000432022
0.000336415 0.000133714 -1.64502e-05
0.000133714 -0.000273896 -1.14214e-05
-1.64502e-05 -1.14214e-05 -0.000402065
0.00567288 -0.000124927 -0.00019601
-0.000124927 0.00339106 -1.56866e-05
-0.00019601 -1.56866e-05 0.00338566
0.000386356 9.57505e-05 -1.92996e-05
9.57505e-05 -9.03206e-05 -1.47959e-05
-1.92996e-05 -1.47959e-05 -0.000175061
0.0002843 0.000191402 -1.9275e-05
0.000191402 -0.000276533 -1.80768e-05
-1.9275e-05 -1.80768e-05 -0.000424056
0.00133506 0.000339485 -1.56714e-05
0.000339485 1.01898e-05 -6.12155e-06
-1.56714e-05 -6.12155e-06 -0.000229999
0.000215435 0.00020722 -2.32124e-05
0.00020722 -0.000241208 -2.32821e-05
-2.32124e-05 -2.32821e-05 -0.000375402
0.00091562 0.000341356 -1.86062e-05
0.000341356 6.06356e-05 -1.01469e-05
-1.86062e-05 -1.01469e-05 -0.000226806
0.00121785 0.000398342 -2.60873e-05
0.000398342 5.99407e-05 -8.64504e-06
-2.60873e-05 -8.64504e-06 -0.000227594
0.00189435 0.000655591 -1.06744e-05
0.000655591 0.000377144 2.9996e-06
-1.06744e-05 2.9996e-06 -2.33228e-05
0.000427494 0.000178013 -4.31183e-06
0.000178013 -8.87536e-05 1.69768e-06
-4.31183e-06 1.69768e-06 -0.000198481
0.00039852 4.65803e-05 1.19714e-06
4.65803e-05 -5.20203e-05 3.68053e-07
1.19714e-06 3.68053e-07 -0.000132018
0.000900629 0.000238068 6.307e-07
0.000238068 0.000242152 1.0126e-06
6.307e-07 1.0126e-06 2.54738e-05
0.00139304 0.000291846 -2.54794e-07
0.000291846 9.05814e-06 -3.608e-07
-2.54794e-07 -3.608e-07 -0.000202085
0.00134472 0.000378365 1.80157e-07
0.000378365 6.49364e-05 -3.2637e-07
1.80157e-07 -3.2637e-07 -0.000199887
0.00212384 0.000534597 -4.26624e-07
0.000534597 0.000262898 -1.76017e-07
-4.26624e-07 -1.76017e-07 -4.33415e-06
0.000611732 0.000264964 -5.54033e-07
0.000264964 -2.93219e-05 4.39505e-07
-5.54033e-07 4.39505e-07 -0.00029164
0.00215071 0.000649443 -1.11484e-06
0.000649443 0.000447568 -4.79788e-07
-1.11484e-06 -4.79788e-07 8.75676e-05
0.00172764 0.000654839 -7.17146e-07
0.000654839 0.000422744 -1.99368e-06
-7.17146e-07 -1.99368e-06 -2.67398e-05
0.00171693 0.000686499 -1.40358e-06
0.000686499 0.000157132 2.85638e-06
-1.40358e-06 2.85638e-06 -0.000232453
0.000424752 2.56275e-05 6.44191e-06
2.56275e-05 -2.61177e-05 1.38909e-05
6.44191e-06 1.38909e-05 -9.71842e-05
0.00152523 0.000283505 5.86398e-06
0.000283505 0.000635684 2.50104e-06
5.86398e-06 2.50104e-06 0.000374645
0.000837514 0.000155608 5.22751e-06
0.000155608 0.00022553 1.10611e-06
5.22751e-06 1.10611e-06 2.62606e-05
-0.000325586 0.000123459 -3.89766e-06
0.000123459 -0.000505213 4.64781e-06
-3.89766e-06 4.64781e-06 -0.000778597
0.00219794 0.000470471 2.59101e-06
0.000470471 0.000248849 -1.95304e-06
2.59101e-06 -1.95304e-06 3.01343e-05
0.00210445 0.000596059 5.1263e-06
0.000596059 0.00033235 -1.17252e-06
5.1263e-06 -1.17252e-06 1.52374e-05
0.00222737 0.000598668 1.12172e-06
0.000598668 0.000249685 -1.4698e-06
1.12172e-06 -1.4698e-06 8.50401e-07
0.00127746 0.000515727 -2.51496e-06
0.000515727 0.000260172 -3.96576e-06
-2.51496e-06 -3.96576e-06 -0.000141114
0.00250472 0.000754562 -6.20685e-06
0.000754562 0.000579679 -4.14778e-06
-6.20685e-06 -4.14778e-06 0.000226553
0.00220139 0.000811785 -1.2665e-05
0.000811785 0.000609786 -1.36444e-05
-1.2665e-05 -1.36444e-05 0.000107578
0.00210937 0.000726013 -4.69966e-06
0.000726013 0.000296064 -4.19291e-06
-4.69966e-06 -4.19291e-06 -7.1318e-05
0.000679025 8.60957e-05 5.91028e-07
8.60957e-05 0.000179172 6.89244e-06
5.91028e-07 6.89244e-06 7.03469e-05
0.000494418 1.42037e-05 3.07586e-06
1.42037e-05 1.59316e-05 1.10078e-05
3.07586e-06 1.10078e-05 -3.03889e-05
0.00364336 -0.000129807 7.21015e-05
-0.000129807 0.00206692 6.18215e-06
7.21015e-05 6.18215e-06 0.00206117
0.00406025 -0.000170455 1.2924e-05
-0.000170455 0.00235389 -1.28951e-06
1.2924e-05 -1.28951e-06 0.00233713
0.00446982 -0.000217606 -7.82766e-05
-0.000217606 0.00264014 -8.48146e-06
-7.82766e-05 -8.48146e-06 0.00260932
0.000531836 -0.00019592 2.96817e-05
-0.00019592 7.80295e-06 -1.85064e-05
2.96817e-05 -1.85064e-05 -9.10083e-05
0.00593507 0.000118561 0.000196612
0.000118561 0.00356524 -2.22664e-05
0.000196612 -2.22664e-05 0.00355463
0.000534647 -0.000191928 2.75899e-06
-0.000191928 -1.44395e-05 8.56297e-07
2.75899e-06 8.56297e-07 -0.000130858
0.00681015 6.28307e-05 6.22743e-06
6.28307e-05 0.00410317 2.03838e-07
6.22743e-06 2.03838e-07 0.00410147
0.00034317 0.000126822 -1.7151e-05
0.000126822 -0.000263324 -9.17085e-06
-1.7151e-05 -9.17085e-06 -0.000383794
0.000295528 3.86524e-05 -1.57033e-05
3.86524e-05 -0.000275846 -3.92474e-06
-1.57033e-05 -3.92474e-06 -0.000375468
0.00125915 0.000175086 -4.82615e-06
0.000175086 -6.79531e-05 -1.46849e-06
-4.82615e-06 -1.46849e-06 -0.000230839
0.00116807 8.96644e-05 -7.61657e-06
8.96644e-05 -8.70913e-05 -6.43741e-07
-7.61657e-06 -6.43741e-07 -0.000224595
0.000328759 -7.1052e-06 -1.77068e-05
-7.1052e-06 -0.000245945 -8.04387e-07
-1.77068e-05 -8.04387e-07 -0.000333609
0.00645975 -0.00010444 -0.000356728
-0.00010444 0.0038354 6.51525e-06
-0.000356728 6.51525e-06 0.00386519
0.000334056 -3.53768e-06 5.75393e-08
-3.53768e-06 -0.000242036 -7.2755e-07
5.75393e-08 -7.2755e-07 -0.000327958
0.00112995 4.26616e-05 2.92495e-08
4.26616e-05 -9.19923e-05 4.87865e-08
2.92495e-08 4.87865e-08 -0.000222455
0.00122627 0.000130531 -1.16781e-07
0.000130531 -6.88422e-05 -3.91691e-09
-1.16781e-07 -3.91691e-09 -0.00021586
0.00206709 0.000136253 -3.08359e-08
0.000136253 7.76328e-05 2.33491e-07
-3.08359e-08 2.33491e-07 -1.50633e-06
0.00136148 0.000230827 -3.58444e-07
0.000230827 -2.14358e-05 -2.401e-07
-3.58444e-07 -2.401e-07 -0.000204985
0.00210913 0.000295602 -5.80914e-07
0.000295602 0.000109343 3.84264e-07
-5.80914e-07 3.84264e-07 -1.76701e-05
0.00109485 -5.25889e-06 1.00314e-05
-5.25889e-06 -0.000102295 -1.06871e-07
1.00314e-05 -1.06871e-07 -0.000231296
0.00209931 6.58368e-05 3.35454e-06
6.58368e-05 0.000105385 4.30905e-07
3.35454e-06 4.30905e-07 3.24821e-05
0.00206472 0.000214082 1.25644e-06
0.000214082 6.80018e-05 5.82363e-07
1.25644e-06 5.82363e-07 -2.81813e-05
0.00221559 0.000159838 6.04579e-06
0.000159838 7.15364e-05 1.331e-06
6.04579e-06 1.331e-06 4.6997e-05
0.00220159 0.000388596 3.54504e-06
0.000388596 0.000194306 -9.31006e-07
3.54504e-06 -9.31006e-07 2.4336e-05
0.002203 0.0003247 5.4405e-06
0.0003247 7.52756e-05 1.03406e-06
5.4405e-06 1.03406e-06 2.14926e-06
0.000341447 -5.18193e-06 -1.7256e-05
-5.18193e-06 -0.000230877 6.69458e-08
-1.7256e-05 6.69458e-08 -0.00032125
0.00207773 -5.47384e-05 -0.000140454
-5.47384e-05 0.000885267 6.43898e-06
-0.000140454 6.43898e-06 0.0008178
0.00131063 -8.45746e-05 -1.88804e-05
-8.45746e-05 2.71326e-05 8.92733e-07
-1.88804e-05 8.92733e-07 -9.95983e-05
0.00189536 -0.000197964 -2.16669e-05
-0.000197964 0.000375981 3.35369e-06
-2.16669e-05 3.35369e-06 0.000215486
0.00799443 -3.40301e-06 -0.000335208
-3.40301e-06 0.00481982 3.63616e-05
-0.000335208 3.63616e-05 0.00482811
0.00373641 -0.000328902 -0.000194179
-0.000328902 0.0019869 3.10938e-05
-0.000194179 3.10938e-05 0.00185693
0.0018678 -0.000471058 -3.29571e-05
-0.000471058 0.000583154 9.78336e-06
-3.29571e-05 9.78336e-06 0.000260173
0.00217126 -0.000328453 -2.90196e-05
-0.000328453 0.00055215 7.50619e-06
-2.90196e-05 7.50619e-06 0.00035046
0.00216894 -0.000384743 -1.68512e-06
-0.000384743 0.00020016 -1.5841e-06
-1.68512e-06 -1.5841e-06 3.62489e-05
0.0021161 -0.000507678 -2.72621e-06
-0.000507678 0.000302486 -5.64228e-07
-2.72621e-06 -5.64228e-07 3.68777e-05
0.00212225 -0.000621314 -5.67542e-06
-0.000621314 0.000414794 -2.46485e-06
-5.67542e-06 -2.46485e-06 5.8171e-05
0.00222711 -0.000629832 -1.84869e-06
-0.000629832 0.000329085 -4.35916e-06
-1.84869e-06 -4.35916e-06 4.60973e-05
0.000441237 -0.000219321 -2.40325e-05
-0.000219321 -9.34697e-05 2.18054e-05
-2.40325e-05 2.18054e-05 -0.000226981
0.000363039 -0.000224814 -2.14609e-06
-0.000224814 -7.82008e-05 3.5406e-06
-2.14609e-06 3.5406e-06 -0.000362147
0.00119796 -3.98556e-05 5.20054e-07
-3.98556e-05 -3.4964e-05 2.95454e-08
5.20054e-07 2.95454e-08 -0.000160258
0.00204358 -0.000145815 -1.16291e-05
-0.000145815 0.000496845 1.45375e-06
-1.16291e-05 1.45375e-06 0.000365225
0.00195256 -0.000147825 1.97514e-06
-0.000147825 1.73071e-05 -2.93744e-07
1.97514e-06 -2.93744e-07 -7.61821e-05
0.00204133 -0.000302518 -2.03734e-06
-0.000302518 9.25704e-05 8.63496e-07
-2.03734e-06 8.63496e-07 -4.23982e-05
0.000357581 -0.000233248 1.2966e-06
-0.000233248 -0.000160567 7.57792e-07
1.2966e-06 7.57792e-07 -0.000313063
0.000730681 -0.000348937 -2.80941e-06
-0.000348937 -5.04816e-05 -8.83827e-09
-2.80941e-06 -8.83827e-09 -0.000360331
0.00181567 -0.000679344 1.32036e-06
-0.000679344 0.000315569 1.50821e-07
1.32036e-06 1.50821e-07 -0.000116669
0.00200092 -0.000447871 -2.24593e-06
-0.000447871 0.000162341 5.81536e-07
-2.24593e-06 5.81536e-07 -5.8976e-05
0.002238 -0.000423587 1.57001e-06
-0.000423587 0.000160849 -5.64766e-07
1.57001e-06 -5.64766e-07 3.75199e-05
0.00246064 -0.00070624 -9.35681e-08
-0.00070624 0.000534739 -1.03476e-06
-9.35681e-08 -1.03476e-06 0.000186317
0.00214051 -0.000566919 4.61049e-07
-0.000566919 0.000211695 3.18303e-07
4.61049e-07 3.18303e-07 -1.61231e-05
0.00222085 -0.000653028 4.03226e-07
-0.000653028 0.000279555 9.75464e-07
4.03226e-07 9.75464e-07 1.99279e-05
0.000630959 -0.000237291 1.17223e-07
-0.000237291 5.43606e-05 -9.21278e-07
1.17223e-07 -9.21278e-07 -0.000239981
0.000281832 -0.000221443 -1.19631e-06
-0.000221443 -0.000153614 -1.89739e-06
-1.19631e-06 -1.89739e-06 -0.00048059
0.000576385 -0.000198907 3.99507e-06
-0.000198907 8.36325e-05 1.6893e-06
3.99507e-06 1.6893e-06 -0.000169924
0.00188179 -7.22688e-05 3.6495e-06
-7.22688e-05 -2.37244e-05 -1.37489e-07
3.6495e-06 -1.37489e-07 -0.000112311
0.0020338 -0.00022207 -1.05092e-06
-0.00022207 6.47099e-05 2.83662e-08
-1.05092e-06 2.83662e-08 -4.19115e-05
0.0021005 -0.00015399 7.88701e-06
-0.00015399 9.39621e-06 -1.01092e-06
7.88701e-06 -1.01092e-06 -2.97839e-05
0.00224948 -0.000346356 3.53578e-06
-0.000346356 0.000112519 -1.13658e-06
3.53578e-06 -1.13658e-06 3.60549e-05
0.00202568 -0.000503633 6.64742e-07
-0.000503633 7.98139e-05 1.97012e-06
6.64742e-07 1.97012e-06 -9.47623e-05
0.00231635 -0.000445404 2.82178e-06
-0.000445404 0.000143633 -3.63328e-07
2.82178e-06 -3.63328e-07 6.89156e-05
0.000643956 -0.000270611 1.05729e-05
-0.000270611 -5.69025e-06 -5.60509e-06
1.05729e-05 -5.60509e-06 -0.000285896
0.0022065 -0.000610929 6.15718e-07
-0.000610929 0.000193257 1.47531e-06
6.15718e-07 1.47531e-06 -7.22139e-06
0.00162499 -0.000667346 1.21639e-05
-0.000667346 0.000358859 -9.58633e-07
1.21639e-05 -9.58633e-07 -0.00010807
0.00213173 -0.000812634 1.21081e-05
-0.000812634 0.00040574 6.4151e-06
1.21081e-05 6.4151e-06 -5.2042e-05
0.0025071 -0.000724686 3.06753e-06
-0.000724686 0.000536672 5.69455e-06
3.06753e-06 5.69455e-06 0.000208403
0.00247915 -0.00069701 -3.49288e-07
-0.00069701 0.000443151 1.74845e-06
-3.49288e-07 1.74845e-06 0.000192527
0.000613119 -0.000154629 -8.24425e-07
-0.000154629 0.000159903 -6.77883e-06
-8.24425e-07 -6.77883e-06 -9.5504e-05
0.00182937 -0.000434255 1.29145e-07
-0.000434255 0.000711964 -1.61264e-06
1.29145e-07 -1.61264e-06 0.000360132
-0.000807968 -0.000102297 6.25027e-06
-0.000102297 -0.000738276 -1.16034e-06
6.25027e-06 -1.16034e-06 -0.00105209
0.00233223 -0.000569267 9.32112e-06
-0.000569267 0.00113306 4.35242e-06
9.32112e-06 4.35242e-06 0.000703708
0.00135933 0.000290553 -1.16131e-05
0.000290553 -5.15172e-06 -4.42145e-06
-1.16131e-05 -4.42145e-06 -0.000217438
0.000363055 2.36243e-05 -5.75458e-06
2.36243e-05 -6.58759e-05 -1.62232e-05
-5.75458e-06 -1.62232e-05 -0.000147224
0.000395831 0.000136507 -2.28814e-05
0.000136507 -9.64111e-05 -1.68924e-05
-2.28814e-05 -1.68924e-05 -0.000205431
-6.1417e-05 0.000162365 -5.89775e-06
0.000162365 -0.000350295 1.71636e-06
-5.89775e-06 1.71636e-06 -0.000568767
0.00129027 0.000373835 -2.06517e-05
0.000373835 3.44838e-05 -7.81583e-06
-2.06517e-05 -7.81583e-06 -0.000230608
0.00210505 0.000532653 -5.02066e-06
0.000532653 0.000249732 7.2679e-07
-5.02066e-06 7.2679e-07 -1.72011e-05
0.000420126 0.000225637 -9.5788e-06
0.000225637 -0.00015571 -4.19114e-06
-9.5788e-06 -4.19114e-06 -0.000400167
0.00161725 0.000644849 -8.66588e-06
0.000644849 0.000336942 1.31688e-06
-8.66588e-06 1.31688e-06 -0.000110444
0.00215931 0.000645663 -4.6998e-06
0.000645663 0.000452859 2.43791e-06
-4.6998e-06 2.43791e-06 9.26059e-05
0.00166421 0.000687166 8.0729e-06
0.000687166 0.000111606 1.24678e-05
8.0729e-06 1.24678e-05 -0.000273409
0.000383222 8.45995e-06 -3.72128e-06
8.45995e-06 -4.61119e-05 7.94049e-07
-3.72128e-06 7.94049e-07 -0.000116293
0.000590223 0.00023005 9.10773e-08
0.00023005 6.67383e-05 -1.40322e-06
9.10773e-08 -1.40322e-06 -0.000196023
0.000500109 0.000130757 2.5965e-06
0.000130757 1.45296e-05 -1.52205e-06
2.5965e-06 -1.52205e-06 -0.000184801
0.000583355 0.00019072 -2.41466e-06
0.00019072 6.95915e-05 3.8017e-06
-2.41466e-06 3.8017e-06 -0.000213882
0.00215616 0.000467184 -1.80355e-06
0.000467184 0.000220039 -1.36053e-06
-1.80355e-06 -1.36053e-06 1.75814e-06
0.00206886 0.000593902 -6.6645e-07
0.000593902 0.000308187 -3.08295e-07
-6.6645e-07 -3.08295e-07 -9.03561e-06
0.002214 0.000595373 8.50519e-08
0.000595373 0.000245802 1.93431e-07
8.50519e-08 1.93431e-07 -1.85477e-06
0.00158711 0.000537317 2.83161e-06
0.000537317 0.000473961 -2.74715e-08
2.83161e-06 -2.74715e-08 7.04277e-05
0.00239784 0.000737488 1.16345e-06
0.000737488 0.000522642 8.43729e-07
1.16345e-06 8.43729e-07 0.000169531
0.00192739 0.000773001 -1.07994e-06
0.000773001 0.000448397 -2.10991e-06
-1.07994e-06 -2.10991e-06 -4.47155e-05
0.00215702 0.000711451 -6.54013e-06
0.000711451 0.000337008 2.79473e-06
-6.54013e-06 2.79473e-06 -1.73566e-05
0.000538299 1.23419e-05 4.71424e-06
1.23419e-05 4.10301e-05 1.23637e-05
4.71424e-06 1.23637e-05 -1.31096e-05
0.00122654 0.000107783 5.17421e-07
0.000107783 0.000512722 8.38913e-06
5.17421e-07 8.38913e-06 0.000327835
0.000722853 0.00035951 -5.90615e-06
0.00035951 7.59823e-05 2.59478e-07
-5.90615e-06 2.59478e-07 -0.000244698
0.00143928 0.000176933 4.08438e-06
0.000176933 0.000635639 -4.19654e-06
4.08438e-06 -4.19654e-06 0.000348441
0.000962074 0.000140112 -1.81934e-06
0.000140112 0.000194741 1.17689e-05
-1.81934e-06 1.17689e-05 -5.07213e-05
0.00220078 0.000515708 8.41964e-07
0.000515708 0.000160164 -2.60715e-06
8.41964e-07 -2.60715e-06 -3.07613e-05
0.00223281 0.000677973 -1.38128e-06
0.000677973 0.000329097 -2.50283e-06
-1.38128e-06 -2.50283e-06 2.30514e-05
0.00218226 0.000645521 -3.62001e-06
0.000645521 0.000205233 -1.27402e-06
-3.62001e-06 -1.27402e-06 -4.31294e-05
0.00172079 0.000760921 -2.81914e-06
0.000760921 0.000541336 -7.72958e-06
-2.81914e-06 -7.72958e-06 4.41138e-06
0.00257793 0.000799354 -6.42157e-06
0.000799354 0.000561166 -3.82759e-06
-6.42157e-06 -3.82759e-06 0.000212251
0.00186403 0.000815645 4.29625e-06
0.000815645 0.000329754 -7.3065e-06
4.29625e-06 -7.3065e-06 -0.0001457
0.000573639 8.43909e-05 1.49128e-07
8.43909e-05 0.000100409 7.4573e-06
1.49128e-07 7.4573e-06 -1.95958e-05
0.000739387 0.000140065 -3.51813e-06
0.000140065 0.000291715 2.89247e-06
-3.51813e-06 2.89247e-06 0.000102753
0.000581841 7.13978e-05 -3.48328e-07
7.13978e-05 0.000111094 5.89818e-06
-3.48328e-07 5.89818e-06 1.85184e-05
0.000477674 2.72938e-05 -9.70113e-07
2.72938e-05 4.57499e-05 1.4742e-07
-9.70113e-07 1.4742e-07 -5.87069e-05
0.00155011 -1.49199e-05 2.11273e-06
-1.49199e-05 0.000699482 6.44962e-06
2.11273e-06 6.44962e-06 0.000664899
0.000979782 -1.24134e-06 -9.50141e-08
-1.24134e-06 0.000330663 -2.44657e-08
-9.50141e-08 -2.44657e-08 0.000287282
0.000937907 -3.57465e-05 5.51825e-05
-3.57465e-05 0.000300863 1.27164e-05
5.51825e-05 1.27164e-05 0.000294594
0.0035998 -0.000140186 1.16958e-05
-0.000140186 0.00204129 -1.10819e-06
1.16958e-05 -1.10819e-06 0.00203271
0.00391272 -0.000175428 -6.7018e-05
-0.000175428 0.00226065 -6.6292e-06
-6.7018e-05 -6.6292e-06 0.00224219
0.000321185 -0.000116395 1.67185e-05
-0.000116395 -8.41385e-05 -1.56264e-05
1.67185e-05 -1.56264e-05 -0.000168378
0.0053779 0.000176962 0.000136531
0.000176962 0.00323078 -1.76106e-05
0.000136531 -1.76106e-05 0.00320474
0.000480653 -0.000165562 1.80507e-06
-0.000165562 -1.42396e-05 1.11943e-06
1.80507e-06 1.11943e-06 -0.00012147
0.00608184 0.000114154 4.62212e-07
0.000114154 0.00366605 1.09965e-06
4.62212e-07 1.09965e-06 0.00365233
0.000451513 -0.000195335 -2.51512e-05
-0.000195335 -6.88612e-05 2.04979e-05
-2.51512e-05 2.04979e-05 -0.000187638
0.00708303 6.38736e-05 -0.000274316
6.38736e-05 0.00427988 3.21172e-05
-0.000274316 3.21172e-05 0.00427692
0.00134648 0.000230777 -7.68149e-06
0.000230777 -2.24373e-05 -2.69459e-06
-7.68149e-06 -2.69459e-06 -0.000207237
0.00118123 0.000132132 -5.52801e-06
0.000132132 -9.66916e-05 -1.1483e-06
-5.52801e-06 -1.1483e-06 -0.000244935
0.00213087 0.000291099 -2.5918e-06
0.000291099 0.00013084 1.07309e-06
-2.5918e-06 1.07309e-06 4.75628e-06
0.00203385 0.000134424 -2.32699e-06
0.000134424 6.00739e-05 -1.73247e-07
-2.32699e-06 -1.73247e-07 -1.94242e-05
0.00114764 4.77314e-05 -9.12902e-06
4.77314e-05 -8.12369e-05 -1.03386e-07
-9.12902e-06 -1.03386e-07 -0.000212173
0.000300955 2.86422e-05 -1.79201e-05
2.86422e-05 -0.000266243 -1.03438e-06
-1.79201e-05 -1.03438e-06 -0.000350307
0.00110408 -9.07032e-07 -6.6764e-08
-9.07032e-07 -9.7068e-05 1.25504e-08
-6.6764e-08 1.25504e-08 -0.000226
0.00204632 6.47745e-05 5.03462e-08
6.47745e-05 7.27527e-05 1.24119e-07
5.03462e-08 1.24119e-07 -5.21719e-07
0.00209388 0.000212269 -1.42773e-07
0.000212269 9.22329e-05 1.8132e-07
-1.42773e-07 1.8132e-07 -3.69712e-06
0.00219165 0.000154604 -3.88845e-07
0.000154604 4.60562e-05 9.78074e-08
-3.88845e-07 9.78074e-08 2.74731e-05
0.00214923 0.00038317 -8.1393e-07
0.00038317 0.000165139 -2.39091e-07
-8.1393e-07 -2.39091e-07 -3.95593e-06
0.00222904 0.000327531 1.49119e-07
0.000327531 9.08391e-05 8.76394e-08
1.49119e-07 8.76394e-08 1.6511e-05
0.00206927 -4.57127e-06 3.59262e-06
-4.57127e-06 9.4265e-05 2.01363e-07
3.59262e-06 2.01363e-07 2.15942e-05
0.00212502 7.22886e-05 5.04928e-06
7.22886e-05 9.52011e-06 6.37566e-07
5.04928e-06 6.37566e-07 -3.45283e-06
0.00224011 0.000235985 6.24741e-06
0.000235985 8.79038e-05 1.42637e-06
6.24741e-06 1.42637e-06 4.95564e-05
0.00215323 0.000135865 4.26303e-06
0.000135865 7.34365e-06 1.36985e-06
4.26303e-06 1.36985e-06 1.34082e-05
0.00219792 0.000428859 3.07729e-06
0.000428859 0.000106649 4.2497e-07
3.07729e-06 4.2497e-07 -2.24351e-05
0.00223722 0.000340775 2.20449e-06
0.000340775 -8.50429e-06 2.32421e-07
2.20449e-06 2.32421e-07 -1.8787e-05
0.00122361 -3.58929e-05 -1.09581e-05
-3.58929e-05 -1.82381e-05 1.57707e-07
-1.09581e-05 1.57707e-07 -0.000138138
0.00203787 -0.000145722 -2.54053e-05
-0.000145722 0.000489996 2.40943e-06
-2.54053e-05 2.40943e-06 0.000358747
0.00202662 -0.000143756 -3.38878e-07
-0.000143756 6.30599e-05 -4.50435e-07
-3.38878e-07 -4.50435e-07 -2.5057e-05
0.00186103 -0.000296399 3.00273e-07
-0.000296399 -2.87146e-05 5.68592e-07
3.00273e-07 5.68592e-07 -0.000174752
0.000634729 -0.000280257 -2.88954e-05
-0.000280257 1.59624e-05 2.55054e-05
-2.88954e-05 2.55054e-05 -0.000140144
0.000739368 -0.00035711 -1.59721e-05
-0.00035711 -5.39066e-05 6.41676e-06
-1.59721e-05 6.41676e-06 -0.000368238
0.00182326 -0.000683238 -9.97829e-06
-0.000683238 0.000314502 -2.74793e-07
-9.97829e-06 -2.74793e-07 -0.000121883
0.0021138 -0.000450962 -3.24964e-06
-0.000450962 0.000243864 -6.56168e-08
-3.24964e-06 -6.56168e-08 1.97936e-05
0.00212912 -0.000420296 -9.20982e-07
-0.000420296 7.76144e-05 -1.21956e-07
-9.20982e-07 -1.21956e-07 -3.81321e-05
0.00219727 -0.000572129 -2.34661e-06
-0.000572129 0.00024641 -2.25091e-06
-2.34661e-06 -2.25091e-06 1.73155e-05
0.00243611 -0.000705471 -1.71293e-06
-0.000705471 0.000518493 -8.10017e-06
-1.71293e-06 -8.10017e-06 0.00017429
0.00200241 -0.000639287 2.01786e-06
-0.000639287 0.000133188 -2.82535e-06
2.01786e-06 -2.82535e-06 -0.000126489
0.000904177 -0.000284099 -9.27096e-06
-0.000284099 0.000230079 3.00305e-06
-9.27096e-06 3.00305e-06 -7.03202e-05
0.000342132 -0.00020027 -3.55142e-06
-0.00020027 -0.000126416 2.33839e-06
-3.55142e-06 2.33839e-06 -0.00043585
0.000536003 -0.000249867 9.08658e-08
-0.000249867 6.60065e-05 7.67852e-06
9.08658e-08 7.67852e-06 -0.000191739
0.00195706 -6.88323e-05 2.41117e-06
-6.88323e-05 2.50719e-05 -1.73082e-07
2.41117e-06 -1.73082e-07 -5.73698e-05
0.00202625 -0.000229563 3.54849e-07
-0.000229563 6.35897e-05 -1.96789e-07
3.54849e-07 -1.96789e-07 -4.30112e-05
0.00215912 -0.000151504 1.24355e-06
-0.000151504 3.91501e-05 -1.28086e-07
1.24355e-06 -1.28086e-07 7.56288e-06
0.00214987 -0.000333373 -1.51112e-06
-0.000333373 5.31826e-05 2.18254e-07
-1.51112e-06 2.18254e-07 -2.65299e-05
0.000776275 -0.000300185 1.0354e-06
-0.000300185 7.66904e-05 -2.57954e-07
1.0354e-06 -2.57954e-07 -0.00021658
0.00174264 -0.000687803 -2.81033e-07
-0.000687803 0.000438919 -1.06019e-06
-2.81033e-07 -1.06019e-06 -3.35059e-05
0.00205215 -0.000800842 1.20883e-06
-0.000800842 0.00036558 1.22315e-06
1.20883e-06 1.22315e-06 -9.48452e-05
0.00205972 -0.00050107 -5.19054e-07
-0.00050107 0.000110596 6.17482e-07
-5.19054e-07 6.17482e-07 -7.08354e-05
0.00226219 -0.00044647 1.63322e-07
-0.00044647 9.42082e-05 -3.96349e-08
1.63322e-07 -3.96349e-08 2.68152e-05
0.00232998 -0.000715632 -9.32618e-07
-0.000715632 0.000408437 4.81241e-07
-9.32618e-07 4.81241e-07 8.0224e-05
0.00216064 -0.000606237 -6.09285e-07
-0.000606237 0.000161863 7.66614e-07
-6.09285e-07 7.66614e-07 -3.80233e-05
0.0023633 -0.00067983 1.18773e-06
-0.00067983 0.000363771 -6.26202e-07
1.18773e-06 -6.26202e-07 0.00011844
0.000779341 -0.000372749 -2.56076e-06
-0.000372749 8.14898e-05 5.07019e-07
-2.56076e-06 5.07019e-07 -0.000279915
0.00154649 -0.000467123 -6.36081e-07
-0.000467123 0.000633345 1.89515e-06
-6.36081e-07 1.89515e-06 0.000221891
0.000800952 -0.000189216 -2.06282e-06
-0.000189216 0.000255322 -2.18729e-06
-2.06282e-06 -2.18729e-06 1.2434e-05
0.000365278 -0.000154457 9.584e-07
-0.000154457 -4.15789e-05 1.83912e-06
9.584e-07 1.83912e-06 -0.000327357
0.00219206 -8.3389e-05 7.27964e-06
-8.3389e-05 7.23369e-05 -7.12646e-07
7.27964e-06 -7.12646e-07 4.77446e-05
0.00204955 -0.000238961 4.27164e-06
-0.000238961 -5.49829e-05 -1.27178e-06
4.27164e-06 -1.27178e-06 -0.000105989
0.00213649 -0.000140629 4.98486e-06
-0.000140629 2.69213e-05 -1.22384e-06
4.98486e-06 -1.22384e-06 3.6444e-05
0.00224751 -0.000359838 -2.23621e-07
-0.000359838 3.04043e-05 -2.16544e-07
-2.23621e-07 -2.16544e-07 1.80621e-05
0.00220551 -0.000540816 -2.27419e-07
-0.000540816 0.000114649 8.19248e-07
-2.27419e-07 8.19248e-07 -1.5709e-05
0.0023116 -0.000475408 1.80967e-06
-0.000475408 5.57455e-05 -1.23766e-07
1.80967e-06 -1.23766e-07 8.32128e-06
0.00149386 -0.000573959 3.22322e-06
-0.000573959 0.000451293 -1.33873e-06
3.22322e-06 -1.33873e-06 1.06567e-05
0.00223317 -0.00065354 -1.45046e-06
-0.00065354 0.000154086 1.03e-06
-1.45046e-06 1.03e-06 -1.4025e-05
0.00185819 -0.000852898 1.06127e-06
-0.000852898 0.000426511 9.28547e-06
1.06127e-06 9.28547e-06 -0.000112676
0.00235464 -0.000863006 6.95933e-06
-0.000863006 0.000506444 5.67848e-06
6.95933e-06 5.67848e-06 4.62011e-05
0.00233653 -0.0007239 -1.3238e-07
-0.0007239 0.00039365 4.71114e-06
-1.3238e-07 4.71114e-06 7.38993e-05
0.00226506 -0.000723001 -4.42882e-06
-0.000723001 0.00024032 -8.75225e-07
-4.42882e-06 -8.75225e-07 -1.40271e-05
0.000541733 -0.000189264 -2.56812e-07
-0.000189264 9.60946e-05 -9.30319e-06
-2.56812e-07 -9.30319e-06 -0.000110141
0.00111898 -0.00024636 1.0277e-06
-0.00024636 0.00048793 1.23979e-06
1.0277e-06 1.23979e-06 0.000130924
0.00131165 -0.000570517 2.26369e-05
-0.000570517 0.000373739 4.37234e-06
2.26369e-05 4.37234e-06 -8.39449e-05
-0.000661799 -0.000132229 2.0357e-05
-0.000132229 -0.000760159 -8.58726e-06
2.0357e-05 -8.58726e-06 -0.00103547
0.00146304 -0.000530407 2.64819e-06
-0.000530407 0.000596336 1.30367e-05
2.64819e-06 1.30367e-05 0.000111949
0.000301635 -2.92053e-06 -5.3538e-06
-2.92053e-06 -9.56549e-05 -1.35683e-05
-5.3538e-06 -1.35683e-05 -0.000162435
0.00211118 0.000463463 -5.33589e-06
0.000463463 0.000189606 -3.55862e-07
-5.33589e-06 -3.55862e-07 -2.81535e-05
0.000400323 6.03276e-05 7.14461e-07
6.03276e-05 -3.66242e-05 -4.18958e-06
7.14461e-07 -4.18958e-06 -0.000246018
7.5414e-05 0.000232996 -7.30485e-06
0.000232996 -0.000302231 9.04226e-07
-7.30485e-06 9.04226e-07 -0.000529713
0.000794415 0.000229351 -7.00552e-07
0.000229351 0.000214409 7.11711e-06
-7.00552e-07 7.11711e-06 -7.87338e-05
0.00203687 0.000591969 -4.89967e-06
0.000591969 0.000286824 1.1253e-06
-4.89967e-06 1.1253e-06 -3.05468e-05
0.00219852 0.000591972 1.98855e-08
0.000591972 0.00024043 2.05478e-06
1.98855e-08 2.05478e-06 -6.05271e-06
0.00126575 0.000542741 3.01276e-06
0.000542741 0.000290257 3.40532e-07
3.01276e-06 3.40532e-07 -0.000128237
0.00183166 0.000767418 6.45925e-06
0.000767418 0.000386592 9.24882e-06
6.45925e-06 9.24882e-06 -0.000108423
0.00227422 0.000717838 4.335e-06
0.000717838 0.000453594 5.79578e-06
4.335e-06 5.79578e-06 0.000101336
0.00224799 0.000707763 1.12622e-05
0.000707763 0.000401931 1.57391e-05
1.12622e-05 1.57391e-05 5.64749e-05
0.000439955 1.67297e-05 -3.19172e-07
1.67297e-05 -1.91045e-05 7.56567e-08
-3.19172e-07 7.56567e-08 -7.268e-05
0.00066776 8.87736e-05 -1.52441e-06
8.87736e-05 0.000165775 -6.14447e-09
-1.52441e-06 -6.14447e-09 -1.93725e-05
0.000868465 0.000391262 4.66187e-06
0.000391262 0.000190511 -2.94535e-08
4.66187e-06 -2.94535e-08 -0.000135973
0.000471356 0.000109531 7.35155e-08
0.000109531 2.81455e-05 -3.44371e-06
7.35155e-08 -3.44371e-06 -0.000257333
0.000285237 0.000119156 3.758e-07
0.000119156 -0.000236116 3.49604e-06
3.758e-07 3.49604e-06 -0.000489811
0.0022286 0.000517926 -1.92529e-06
0.000517926 0.000181032 -1.7242e-06
-1.92529e-06 -1.7242e-06 -1.03243e-05
0.002203 0.000674045 3.68255e-07
0.000674045 0.000313656 5.58533e-08
3.68255e-07 5.58533e-08 8.89163e-06
0.00218429 0.000647249 1.47951e-06
0.000647249 0.000211311 2.41212e-07
1.47951e-06 2.41212e-07 -3.77051e-05
0.0018705 0.000780179 1.27593e-06
0.000780179 0.000649242 -1.96493e-06
1.27593e-06 -1.96493e-06 0.000102333
0.00247655 0.000788656 3.22234e-06
0.000788656 0.000477022 3.79967e-07
3.22234e-06 3.79967e-07 0.000127785
0.00224188 0.000853949 -4.44163e-06
0.000853949 0.000584255 3.77307e-07
-4.44163e-06 3.77307e-07 0.000104791
0.000884447 0.000114861 1.47097e-06
0.000114861 0.000284578 7.47671e-06
1.47097e-06 7.47671e-06 0.000144418
0.00259258 0.000386315 1.78869e-07
0.000386315 0.00146149 2.30719e-06
1.78869e-07 2.30719e-06 0.00116575
0.000437246 0.000452156 -1.03706e-06
0.000452156 -9.50519e-05 2.20469e-06
-1.03706e-06 2.20469e-06 -0.000492658
0.00107435 0.000143265 5.4996e-06
0.000143265 0.000249071 9.58078e-07
5.4996e-06 9.58078e-07 -2.27335e-07
0.00309266 0.000585396 -1.68953e-06
0.000585396 0.00146222 -1.59922e-06
-1.68953e-06 -1.59922e-06 0.00109193
0.00221844 0.000548613 -3.55569e-06
0.000548613 0.000110738 -1.49346e-06
-3.55569e-06 -1.49346e-06 -5.26695e-05
0.00220287 0.000732301 -4.86424e-06
0.000732301 0.00027989 -1.51616e-06
-4.86424e-06 -1.51616e-06 -2.83992e-05
0.0021753 0.000710811 3.06562e-07
0.000710811 0.000167484 -5.84108e-07
3.06562e-07 -5.84108e-07 -8.69207e-05
0.00135546 0.000800403 7.56724e-06
0.000800403 0.000370577 -7.51986e-06
7.56724e-06 -7.51986e-06 -0.000195164
0.00197375 0.000842596 1.27071e-05
0.000842596 0.000294596 -3.33348e-06
1.27071e-05 -3.33348e-06 -0.000139436
0.00060051 7.51819e-05 -4.19404e-07
7.51819e-05 0.000118963 1.58258e-07
-4.19404e-07 1.58258e-07 -1.47252e-06
0.000481991 0.000172862 9.49797e-07
0.000172862 6.82071e-05 -6.98324e-08
9.49797e-07 -6.98324e-08 -9.27219e-05
-0.000163411 9.17738e-05 3.17457e-07
9.17738e-05 -0.000305099 -1.91689e-06
3.17457e-07 -1.91689e-06 -0.000473467
0.00150893 0.000252314 -3.73172e-06
0.000252314 0.000803367 -3.87239e-06
-3.73172e-06 -3.87239e-06 0.00058836
0.00115617 0.000190666 -1.59843e-06
0.000190666 0.000555115 2.7183e-06
-1.59843e-06 2.7183e-06 0.000380652
0.000540142 8.23322e-05 1.05817e-06
8.23322e-05 9.1796e-05 4.56272e-06
1.05817e-06 4.56272e-06 3.31895e-06
0.000543445 2.95767e-05 -1.13772e-06
2.95767e-05 9.17383e-05 4.12987e-09
-1.13772e-06 4.12987e-09 -1.1077e-06
0.00138549 -1.81195e-07 1.70257e-06
-1.81195e-07 0.000592369 5.10776e-06
1.70257e-06 5.10776e-06 0.000565166
0.000496468 5.07297e-05 1.14835e-06
5.07297e-05 5.14183e-05 -7.03741e-06
1.14835e-06 -7.03741e-06 -4.7885e-05
0.00147209 -1.22947e-05 -1.18989e-05
-1.22947e-05 0.000648006 -1.93206e-06
-1.18989e-05 -1.93206e-06 0.000616932
0.000722486 -2.47396e-05 4.48623e-05
-2.47396e-05 0.000157338 1.13189e-05
4.48623e-05 1.13189e-05 0.000157369
0.00150978 -4.73798e-06 -2.36483e-05
-4.73798e-06 0.000675462 -8.41599e-06
-2.36483e-05 -8.41599e-06 0.00063773
0.00206295 -7.59551e-05 5.04877e-05
-7.59551e-05 0.00103528 1.30171e-06
5.04877e-05 1.30171e-06 0.0010302
0.00343773 -0.000139092 -5.37495e-05
-0.000139092 0.0019363 -6.2639e-06
-5.37495e-05 -6.2639e-06 0.00192755
0.000253914 4.32214e-05 -2.35473e-06
4.32214e-05 -0.00010437 -1.13608e-05
-2.35473e-06 -1.13608e-05 -0.000168982
0.000391814 -0.000101644 -2.40055e-06
-0.000101644 -3.99511e-05 3.69683e-07
-2.40055e-06 3.69683e-07 -0.000130262
0.00429048 0.000210741 2.89396e-05
0.000210741 0.00252283 -9.92529e-06
2.89396e-05 -9.92529e-06 0.00248838
0.00543597 0.000129889 -1.14237e-05
0.000129889 0.00326069 -7.27521e-07
-1.14237e-05 -7.27521e-07 0.00324459
0.000528616 -0.000168094 -2.29948e-05
-0.000168094 1.22049e-05 1.897e-05
-2.29948e-05 1.897e-05 -0.000100106
0.00632411 0.00011034 -0.00022634
0.00011034 0.0038312 3.22077e-05
-0.00022634 3.22077e-05 0.0038144
0.00210323 0.00037851 -3.19599e-06
0.00037851 0.000139484 1.14379e-06
-3.19599e-06 1.14379e-06 -2.88835e-05
0.00209223 0.00021252 -1.91902e-06
0.00021252 9.48374e-05 -1.02154e-07
-1.91902e-06 -1.02154e-07 -1.55982e-06
0.00224938 0.00033107 -5.23078e-06
0.00033107 0.000102324 -9.27872e-07
-5.23078e-06 -9.27872e-07 2.66723e-05
0.00216888 0.000149341 -5.42901e-06
0.000149341 2.04674e-05 -9.48675e-07
-5.42901e-06 -9.48675e-07 7.87601e-06
0.00199691 6.48656e-05 -3.53683e-06
6.48656e-05 4.2852e-05 -2.20395e-07
-3.53683e-06 -2.20395e-07 -3.07974e-05
0.00111883 3.6223e-06 -9.75118e-06
3.6223e-06 -8.84496e-05 -1.32923e-08
-9.75118e-06 -1.32923e-08 -0.000217229
0.00203613 -2.51565e-06 1.07827e-07
-2.51565e-06 7.4092e-05 1.27079e-07
1.07827e-07 1.27079e-07 1.09052e-06
0.00214127 6.41543e-05 -5.66725e-07
6.41543e-05 2.3915e-05 -6.71861e-08
-5.66725e-07 -6.71861e-08 9.97834e-06
0.00222609 0.000234074 -1.31758e-07
0.000234074 7.22306e-05 1.25459e-07
-1.31758e-07 1.25459e-07 3.49113e-05
0.00212043 0.000136429 -1.08074e-07
0.000136429 -2.21088e-05 5.35858e-08
-1.08074e-07 5.35858e-08 -1.0566e-05
0.00223897 0.0004351 5.78368e-08
0.0004351 0.000128714 3.85629e-07
5.78368e-08 3.85629e-07 -2.03339e-06
0.00223081 0.000331263 -1.87719e-09
0.000331263 -1.42068e-05 2.77082e-08
-1.87719e-09 2.77082e-08 -2.24417e-05
0.00212699 -8.81747e-06 5.84531e-06
-8.81747e-06 1.88995e-05 -6.61251e-08
5.84531e-06 -6.61251e-08 2.95044e-06
0.00215663 5.80149e-05 4.08353e-06
5.80149e-05 1.23079e-05 2.86499e-07
4.08353e-06 2.86499e-07 3.76782e-05
0.00216745 0.000211417 8.26439e-07
0.000211417 -2.01034e-05 4.98431e-07
8.26439e-07 4.98431e-07 -1.74809e-05
0.00225028 0.000142093 -6.59168e-09
0.000142093 -1.91801e-05 9.53443e-07
-6.59168e-09 9.53443e-07 2.71125e-05
0.00223911 0.000441077 8.31458e-07
0.000441077 3.52834e-05 3.88901e-07
8.31458e-07 3.88901e-07 -3.10781e-05
0.00236616 0.000330116 4.0819e-07
0.000330116 -1.06007e-05 1.38382e-07
4.0819e-07 1.38382e-07 8.57444e-06
0.00204883 -6.56651e-05 -1.57443e-06
-6.56651e-05 8.55729e-05 -2.13672e-07
-1.57443e-06 -2.13672e-07 9.29571e-06
0.00204363 -0.000236213 1.38306e-06
-0.000236213 7.72194e-05 -4.79546e-07
1.38306e-06 -4.79546e-07 -2.89369e-05
0.00221656 -0.000149669 -3.91883e-06
-0.000149669 6.90413e-05 6.46414e-07
-3.91883e-06 6.46414e-07 4.51688e-05
0.00205889 -0.000321315 -4.84439e-06
-0.000321315 8.74177e-07 1.29591e-06
-4.84439e-06 1.29591e-06 -8.22428e-05
0.000608017 -0.000304115 -1.1522e-05
-0.000304115 -2.51047e-05 7.22271e-06
-1.1522e-05 7.22271e-06 -0.000325869
0.00174865 -0.000686269 -1.34301e-05
-0.000686269 0.000462877 -1.54082e-08
-1.34301e-05 -1.54082e-08 -7.82586e-06
0.00190464 -0.000779287 -3.04258e-06
-0.000779287 0.000288654 -4.96982e-06
-3.04258e-06 -4.96982e-06 -0.000172274
0.00209844 -0.000499244 -2.96159e-06
-0.000499244 0.000144086 -5.67052e-07
-2.96159e-06 -5.67052e-07 -4.44104e-05
0.00220547 -0.000447271 -8.81288e-07
-0.000447271 4.39222e-05 -7.90285e-08
-8.81288e-07 -7.90285e-08 -1.67108e-05
0.00212487 -0.000601986 -6.8012e-07
-0.000601986 0.000136683 -6.84913e-07
-6.8012e-07 -6.84913e-07 -6.25347e-05
0.00219673 -0.000715792 2.71604e-07
-0.000715792 0.000307155 -6.42263e-06
2.71604e-07 -6.42263e-06 -2.40217e-05
0.00228761 -0.000672174 3.62299e-06
-0.000672174 0.000309059 -2.80232e-06
3.62299e-06 -2.80232e-06 6.61684e-05
0.000735208 -0.000375155 5.8033e-07
-0.000375155 5.35683e-05 -1.34701e-06
5.8033e-07 -1.34701e-06 -0.000317554
0.000118795 -0.00031508 -1.46282e-05
-0.00031508 -0.000292298 -1.96511e-06
-1.46282e-05 -1.96511e-06 -0.000676939
0.000518078 -0.000188223 -5.41583e-06
-0.000188223 6.28596e-05 5.76e-06
-5.41583e-06 5.76e-06 -0.000173256
2.05595e-05 -0.000193386 -3.6907e-06
-0.000193386 -0.000304413 2.30559e-06
-3.6907e-06 2.30559e-06 -0.000562046
0.00219884 -8.36626e-05 -1.38159e-07
-8.36626e-05 7.61817e-05 3.68574e-08
-1.38159e-07 3.68574e-08 5.13883e-05
0.00210416 -0.000243845 2.17173e-06
-0.000243845 -1.2998e-05 -4.71714e-07
2.17173e-06 -4.71714e-07 -6.52124e-05
0.00209858 -0.000139382 4.5775e-07
-0.000139382 -4.11436e-06 -1.78593e-07
4.5775e-07 -1.78593e-07 7.50665e-06
0.00221644 -0.000357249 -4.09687e-07
-0.000357249 1.95908e-05 2.09186e-07
-4.09687e-07 2.09186e-07 -1.91449e-07
0.00148908 -0.000546639 -3.1646e-06
-0.000546639 0.000423531 9.60687e-08
-3.1646e-06 9.60687e-08 -8.76051e-07
0.00183386 -0.000849011 3.11201e-06
-0.000849011 0.000423094 -2.0617e-08
3.11201e-06 -2.0617e-08 -0.000117932
0.00228867 -0.000873099 -4.73812e-07
-0.000873099 0.000460991 6.29193e-07
-4.73812e-07 6.29193e-07 -7.90656e-06
0.00223621 -0.000538998 -1.11245e-06
-0.000538998 0.000144882 3.16299e-07
-1.11245e-06 3.16299e-07 7.9544e-06
0.00227804 -0.000473885 9.16973e-07
-0.000473885 3.48836e-05 -4.22025e-07
9.16973e-07 -4.22025e-07 -6.70793e-06
0.00230781 -0.000726549 -1.03454e-06
-0.000726549 0.000384477 8.88753e-07
-1.03454e-06 8.88753e-07 6.33212e-05
0.00222938 -0.00065828 -1.0533e-06
-0.00065828 0.000140861 8.48901e-07
-1.0533e-06 8.48901e-07 -2.76635e-05
0.00228656 -0.000724555 5.44505e-06
-0.000724555 0.000251163 -4.5066e-06
5.44505e-06 -4.5066e-06 5.13923e-07
0.00147736 -0.000604247 -3.78128e-08
-0.000604247 0.000492013 -1.61478e-06
-3.78128e-08 -1.61478e-06 2.17103e-05
0.0018272 -0.000589164 2.40302e-06
-0.000589164 0.000809097 2.50003e-06
2.40302e-06 2.50003e-06 0.000330652
0.000978868 -0.000247124 -3.37288e-07
-0.000247124 0.000302806 -5.32433e-06
-3.37288e-07 -5.32433e-06 1.4759e-06
0.000183588 -0.00011826 -2.64306e-06
-0.00011826 -0.000124426 1.23448e-06
-2.64306e-06 1.23448e-06 -0.000332391
-4.15826e-05 -0.000181964 -1.87739e-06
-0.000181964 -0.000266851 3.63182e-07
-1.87739e-06 3.63182e-07 -0.000599257
0.00209377 -8.43453e-05 2.60174e-06
-8.43453e-05 -2.56601e-05 -7.07304e-07
2.60174e-06 -7.07304e-07 -1.8183e-06
0.00216062 -0.000212806 7.36544e-07
-0.000212806 -2.43028e-05 -1.09191e-06
7.36544e-07 -1.09191e-06 -8.13606e-06
0.00232136 -0.000430907 -1.06395e-06
-0.000430907 -3.1595e-05 -2.15262e-07
-1.06395e-06 -2.15262e-07 -1.54913e-05
0.00228274 -0.000565631 3.91549e-07
-0.000565631 5.99096e-05 6.81455e-07
3.91549e-07 6.81455e-07 -7.49393e-06
0.00162397 -0.00075703 8.1107e-06
-0.00075703 0.000489642 5.61629e-06
8.1107e-06 5.61629e-06 -4.69501e-05
0.00249948 -0.000790172 -5.712e-06
-0.000790172 0.000208755 -3.15972e-07
-5.712e-06 -3.15972e-07 5.91396e-06
0.00145346 -0.000894016 -1.29986e-05
-0.000894016 0.000190492 9.80719e-06
-1.29986e-05 9.80719e-06 -0.000378779
0.00252619 -0.000943131 -1.39274e-06
-0.000943131 0.00057876 4.50396e-06
-1.39274e-06 4.50396e-06 9.60786e-05
0.00200264 -0.000698137 -9.92859e-06
-0.000698137 0.000174385 3.24731e-07
-9.92859e-06 3.24731e-07 -0.000128886
2.27174e-05 -6.75095e-05 -1.01127e-06
-6.75095e-05 -0.000217448 -8.2472e-06
-1.01127e-06 -8.2472e-06 -0.000364702
0.00100554 -0.000300089 -4.43034e-06
-0.000300089 0.000506279 -2.67304e-06
-4.43034e-06 -2.67304e-06 0.000156575
0.00344915 -0.000231973 -5.40863e-06
-0.000231973 0.00189797 -1.76116e-06
-5.40863e-06 -1.76116e-06 0.00156664
0.00207692 -0.000745362 -6.34167e-07
-0.000745362 0.000859609 5.87122e-06
-6.34167e-07 5.87122e-06 0.000334595
0.000373175 -0.000325883 1.61432e-05
-0.000325883 -0.000142779 -3.58236e-06
1.61432e-05 -3.58236e-06 -0.000523364
0.00197653 -0.00066855 -1.63784e-06
-0.00066855 0.000888169 1.51729e-05
-1.63784e-06 1.51729e-05 0.000356929
0.000391876 1.76596e-05 -4.29671e-06
1.76596e-05 -4.7725e-05 -1.21597e-05
-4.29671e-06 -1.21597e-05 -0.00010118
0.000154749 7.30235e-05 -1.30681e-06
7.30235e-05 -0.000154816 -8.12851e-06
-1.30681e-06 -8.12851e-06 -0.000337161
0.00225623 0.000520124 -4.09134e-06
0.000520124 0.000202128 -7.51295e-07
-4.09134e-06 -7.51295e-07 1.03182e-05
-0.000790734 1.36309e-05 -2.15011e-06
1.36309e-05 -0.000750462 1.11569e-06
-2.15011e-06 1.11569e-06 -0.00104122
0.00229102 0.0004812 9.751e-06
0.0004812 0.00109244 -4.66319e-06
9.751e-06 -4.66319e-06 0.000765521
0.00030424 0.000150131 -7.09065e-06
0.000150131 -0.000232359 -2.97555e-06
-7.09065e-06 -2.97555e-06 -0.000508424
0.0021705 0.000669419 2.1559e-06
0.000669419 0.000297517 2.54696e-06
2.1559e-06 2.54696e-06 -5.75172e-06
0.00219448 0.000649799 3.5575e-06
0.000649799 0.000221429 1.05985e-06
3.5575e-06 1.05985e-06 -2.83706e-05
0.00186429 0.000775332 6.3348e-06
0.000775332 0.000661093 5.81579e-06
6.3348e-06 5.81579e-06 0.000111397
0.00255459 0.000876784 -3.13675e-06
0.000876784 0.000800994 7.22944e-06
-3.13675e-06 7.22944e-06 0.000324559
0.00236663 0.000779342 4.99515e-06
0.000779342 0.000384748 4.42067e-06
4.99515e-06 4.42067e-06 3.45192e-05
0.000669659 0.00010619 7.28263e-07
0.00010619 0.000148743 1.61065e-07
7.28263e-07 1.61065e-07 1.26819e-05
0.000759765 0.000198025 -1.6202e-06
0.000198025 0.000287027 2.73489e-07
-1.6202e-06 2.73489e-07 1.36974e-05
0.000878726 0.000516368 6.80725e-07
0.000516368 0.000168452 1.01328e-06
6.80725e-07 1.01328e-06 -0.000256695
0.000703326 8.24675e-05 -5.29072e-07
8.24675e-05 1.95543e-05 -5.41225e-07
-5.29072e-07 -5.41225e-07 -0.000228498
0.00143591 0.000378862 3.16896e-06
0.000378862 0.000358798 -5.37316e-06
3.16896e-06 -5.37316e-06 3.65657e-05
0.00220923 0.000549484 -2.26342e-06
0.000549484 0.000117941 -1.1445e-06
-2.26342e-06 -1.1445e-06 -4.70451e-05
0.00227728 0.00074042 2.51952e-06
0.00074042 0.000314654 6.7763e-07
2.51952e-06 6.7763e-07 4.63718e-06
0.00220535 0.000713665 1.26866e-06
0.000713665 0.000172055 1.82155e-07
1.26866e-06 1.82155e-07 -8.36595e-05
0.00169818 0.00086076 2.18739e-06
0.00086076 0.000553065 9.32433e-07
2.18739e-06 9.32433e-07 -2.19827e-05
0.00198243 0.000848519 -2.05737e-06
0.000848519 0.000329204 -2.44793e-06
-2.05737e-06 -2.44793e-06 -0.000112536
0.00155833 0.000276157 3.0104e-06
0.000276157 0.000778581 3.04454e-06
3.0104e-06 3.04454e-06 0.000561288
-0.000431542 8.8931e-05 9.13622e-07
8.8931e-05 -0.000459629 -6.24986e-07
9.13622e-07 -6.24986e-07 -0.000769791
0.00141922 0.000662625 1.11374e-06
0.000662625 0.00050681 -6.08083e-06
1.11374e-06 -6.08083e-06 1.54473e-05
-0.00101475 0.000205728 5.3496e-06
0.000205728 -0.00118739 1.8093e-06
5.3496e-06 1.8093e-06 -0.00145159
0.00272459 0.000712742 2.49872e-06
0.000712742 0.00110627 -5.33402e-06
2.49872e-06 -5.33402e-06 0.000683224
0.00240078 0.000638732 -2.86088e-06
0.000638732 0.000114879 -3.18531e-07
-2.86088e-06 -3.18531e-07 2.24499e-06
0.00229401 0.000796078 8.74275e-06
0.000796078 0.00027897 -3.16489e-06
8.74275e-06 -3.16489e-06 -6.86752e-05
0.00220579 0.000736096 6.78443e-06
0.000736096 0.000103065 8.69446e-07
6.78443e-06 8.69446e-07 -0.000171682
0.00199577 0.000920174 1.50082e-05
0.000920174 0.000665297 4.9576e-07
1.50082e-05 4.9576e-07 9.31772e-05
0.00229733 0.000994757 7.87491e-06
0.000994757 0.000557112 -1.18e-07
7.87491e-06 -1.18e-07 4.80673e-05
0.000512226 6.07836e-05 7.47859e-07
6.07836e-05 6.00922e-05 -7.86816e-06
7.47859e-07 -7.86816e-06 -5.65168e-05
0.000835743 0.000150799 7.98571e-07
0.000150799 0.000301555 -1.34372e-06
7.98571e-07 -1.34372e-06 0.000134181
-8.00223e-06 0.000103042 -2.65669e-06
0.000103042 -0.00024067 -8.31716e-06
-2.65669e-06 -8.31716e-06 -0.000371495
-0.000480078 -1.90728e-05 4.1277e-06
-1.90728e-05 -0.000526364 -1.60104e-06
4.1277e-06 -1.60104e-06 -0.000676222
0.00055363 9.5376e-05 -1.34725e-06
9.5376e-05 0.000152883 3.81108e-07
-1.34725e-06 3.81108e-07 -2.63617e-06
0.000280276 0.000107956 1.8642e-06
0.000107956 -9.22205e-06 -3.57179e-07
1.8642e-06 -3.57179e-07 -0.000184742
0.000604741 0.000181443 -1.66889e-06
0.000181443 0.000187211 -1.13533e-05
-1.66889e-06 -1.13533e-05 2.3619e-05
0.00031945 3.333e-05 -4.80237e-06
3.333e-05 3.40577e-05 1.21346e-06
-4.80237e-06 1.21346e-06 -0.000152871
0.000726994 0.000121594 -7.41796e-07
0.000121594 0.000242486 2.31702e-06
-7.41796e-07 2.31702e-06 0.000109565
0.000512646 8.63266e-05 2.19885e-06
8.63266e-05 7.44422e-05 4.46014e-06
2.19885e-06 4.46014e-06 -1.44001e-05
0.000465499 3.27891e-05 -2.86154e-06
3.27891e-05 3.82313e-05 1.08995e-07
-2.86154e-06 1.08995e-07 -4.70278e-05
0.00133568 6.92407e-06 2.24204e-06
6.92407e-06 0.000561923 4.39917e-06
2.24204e-06 4.39917e-06 0.000538308
0.000291674 -7.70919e-05 5.75455e-06
-7.70919e-05 -6.12576e-05 -5.25759e-06
5.75455e-06 -5.25759e-06 -0.000157898
0.00140698 1.58188e-07 -1.02588e-05
1.58188e-07 0.000605174 -1.80916e-06
-1.02588e-05 -1.80916e-06 0.000580336
0.000734718 -1.84929e-05 3.72682e-05
-1.84929e-05 0.000164359 1.01357e-05
3.72682e-05 1.01357e-05 0.000167687
0.00147232 -3.78211e-06 -1.78062e-05
-3.78211e-06 0.000645673 -9.65164e-06
-1.78062e-05 -9.65164e-06 0.000617117
0.000747282 -3.54847e-05 1.70942e-05
-3.54847e-05 0.000173771 4.05517e-06
1.70942e-05 4.05517e-06 0.000169243
0.00312179 -0.000135536 2.18162e-06
-0.000135536 0.00172446 -4.19344e-06
2.18162e-06 -4.19344e-06 0.00171563
0.000269838 7.63017e-05 -5.28938e-06
7.63017e-05 -8.55516e-05 -8.34202e-06
-5.28938e-06 -8.34202e-06 -0.000141415
0.000365623 -2.40541e-05 -4.00825e-06
-2.40541e-05 -4.03581e-05 5.94024e-07
-4.00825e-06 5.94024e-07 -0.000106181
0.00346134 0.000197821 -2.33282e-05
0.000197821 0.00198315 -1.09577e-05
-2.33282e-05 -1.09577e-05 0.00195722
0.000641027 -0.000133517 -1.68424e-05
-0.000133517 0.000113902 1.47764e-05
-1.68424e-05 1.47764e-05 2.07457e-05
0.00472213 0.000158639 -4.41092e-05
0.000158639 0.00279551 -4.74328e-08
-4.41092e-05 -4.74328e-08 0.00277457
0.00573764 0.000134201 -0.000183775
0.000134201 0.00346423 2.94283e-05
-0.000183775 2.94283e-05 0.00344328
0.00227778 0.000441148 -4.11627e-06
0.000441148 0.000149171 -5.73523e-08
-4.11627e-06 -5.73523e-08 1.68201e-05
0.00221946 0.000231398 -5.93261e-06
0.000231398 6.2892e-05 -9.88234e-07
-5.93261e-06 -9.88234e-07 2.67554e-05
0.00222769 0.00032182 -2.35669e-07
0.00032182 -1.7555e-05 -2.43175e-07
-2.35669e-07 -2.43175e-07 -2.37707e-05
0.0020857 0.000137256 -7.53572e-07
0.000137256 -5.2259e-05 -8.40293e-07
-7.53572e-07 -8.40293e-07 -3.55492e-05
0.00215486 5.71974e-05 -6.46479e-06
5.71974e-05 3.66049e-05 -2.83084e-07
-6.46479e-06 -2.83084e-07 2.15372e-05
0.00200977 -1.00341e-06 -3.49155e-06
-1.00341e-06 5.78601e-05 2.15106e-08
-3.49155e-06 2.15106e-08 -1.53794e-05
0.00216062 -1.05436e-05 1.40519e-07
-1.05436e-05 4.62023e-05 7.45412e-09
1.40519e-07 7.45412e-09 2.80396e-05
0.00214185 6.01144e-05 9.56723e-07
6.01144e-05 6.86141e-06 1.00785e-08
9.56723e-07 1.00785e-08 2.79113e-05
0.00218715 0.000212097 -3.30647e-07
0.000212097 -1.12944e-06 -1.40204e-08
-3.30647e-07 -1.40204e-08 1.32255e-06
0.0022114 0.000142207 5.67047e-07
0.000142207 -4.993e-05 9.07556e-08
5.67047e-07 9.07556e-08 3.81335e-06
0.00226344 0.000441061 -4.40146e-07
0.000441061 5.75456e-05 1.80372e-07
-4.40146e-07 1.80372e-07 -1.03196e-05
0.00233249 0.000332652 2.26766e-06
0.000332652 -3.16928e-05 6.42013e-07
2.26766e-06 6.42013e-07 -5.26873e-06
0.00209055 -1.51345e-05 2.88027e-06
-1.51345e-05 -2.39193e-05 -1.09773e-07
2.88027e-06 -1.09773e-07 -5.67169e-06
0.00222956 6.98173e-05 -2.04341e-07
6.98173e-05 -4.87538e-05 3.2105e-07
-2.04341e-07 3.2105e-07 1.87438e-05
0.00231145 0.000216805 -2.87763e-06
0.000216805 -3.44878e-05 1.10839e-07
-2.87763e-06 1.10839e-07 1.79735e-05
0.00244002 0.000473161 -2.29682e-06
0.000473161 1.26419e-05 -4.03187e-07
-2.29682e-06 -4.03187e-07 2.64032e-05
0.00220429 -8.39456e-05 -7.51346e-06
-8.39456e-05 7.88375e-05 7.88985e-07
-7.51346e-06 7.88985e-07 5.38432e-05
0.00214639 -0.00024921 -3.14503e-06
-0.00024921 2.11944e-05 5.7402e-07
-3.14503e-06 5.7402e-07 -3.25128e-05
0.00205686 -0.000138723 -2.8046e-06
-0.000138723 -3.76338e-05 8.41784e-07
-2.8046e-06 8.41784e-07 -2.42084e-05
0.00218828 -0.000354911 -3.46114e-06
-0.000354911 9.06226e-06 6.89312e-07
-3.46114e-06 6.89312e-07 -1.78343e-05
0.00108744 -0.000511426 -2.06118e-06
-0.000511426 0.000157977 -1.06829e-06
-2.06118e-06 -1.06829e-06 -0.000260044
0.00187393 -0.000850844 3.57775e-06
-0.000850844 0.000458368 -8.82854e-06
3.57775e-06 -8.82854e-06 -8.48496e-05
0.00228235 -0.000891609 -3.61994e-06
-0.000891609 0.00045168 -5.60391e-06
-3.61994e-06 -5.60391e-06 -2.84681e-05
0.00226461 -0.000536746 -3.56963e-06
-0.000536746 0.000174143 2.39238e-07
-3.56963e-06 2.39238e-07 3.12389e-05
0.00224196 -0.000472618 1.82031e-06
-0.000472618 1.20574e-05 -2.7932e-07
1.82031e-06 -2.7932e-07 -2.32291e-05
0.00221521 -0.000660853 -1.04042e-06
-0.000660853 0.00012288 4.99475e-07
-1.04042e-06 4.99475e-07 -4.5865e-05
0.00225626 -0.000718483 -1.3702e-06
-0.000718483 0.000360656 -3.40368e-06
-1.3702e-06 -3.40368e-06 4.20615e-05
0.00234383 -0.000725773 9.45582e-06
-0.000725773 0.000287065 -3.5248e-06
9.45582e-06 -3.5248e-06 3.7674e-05
0.00145143 -0.000595391 -2.45964e-05
-0.000595391 0.000518215 -4.0923e-06
-2.45964e-05 -4.0923e-06 4.65807e-05
0.000560087 -0.000446496 2.09652e-06
-0.000446496 -2.19167e-05 -1.2656e-05
2.09652e-06 -1.2656e-05 -0.000464456
0.00313995 -0.000361252 -9.04297e-06
-0.000361252 0.00163691 -2.50217e-06
-9.04297e-06 -2.50217e-06 0.00134017
-8.95014e-05 -7.67878e-05 2.87628e-06
-7.67878e-05 -0.000298023 6.52958e-06
2.87628e-06 6.52958e-06 -0.000503404
-0.000121739 -0.000132158 4.72629e-06
-0.000132158 -0.000300116 -3.09e-06
4.72629e-06 -3.09e-06 -0.000630379
0.00207612 -9.17847e-05 2.72887e-08
-9.17847e-05 -3.75976e-05 -1.03607e-07
2.72887e-08 -1.03607e-07 -1.49114e-05
0.00217917 -0.000214009 1.7065e-06
-0.000214009 -1.5929e-05 -8.05428e-09
1.7065e-06 -8.05428e-09 -5.48385e-07
0.00230521 -0.000423712 -8.11933e-07
-0.000423712 -2.41554e-05 2.45351e-07
-8.11933e-07 2.45351e-07 -1.59593e-05
0.00180545 -0.00076105 -1.77392e-06
-0.00076105 0.000599718 -2.88006e-07
-1.77392e-06 -2.88006e-07 6.79558e-05
0.00157193 -0.000887824 5.3731e-06
-0.000887824 0.000268203 -7.75509e-07
5.3731e-06 -7.75509e-07 -0.000295706
0.00237013 -0.000943353 -1.46918e-06
-0.000943353 0.000484758 1.01471e-07
-1.46918e-06 1.01471e-07 -3.72133e-06
0.00228884 -0.000561071 4.62291e-07
-0.000561071 6.84286e-05 -2.76336e-07
4.62291e-07 -2.76336e-07 -9.30419e-07
0.00221687 -0.000741159 3.17501e-06
-0.000741159 0.000275104 -4.43245e-06
3.17501e-06 -4.43245e-06 -3.31162e-05
0.00244767 -0.000770266 -1.02346e-06
-0.000770266 0.0002097 -5.12965e-07
-1.02346e-06 -5.12965e-07 1.43095e-05
-0.000339825 1.31812e-05 -1.80734e-06
1.31812e-05 -0.000467931 -4.8895e-07
-1.80734e-06 -4.8895e-07 -0.00059819
0.00148108 -0.000653583 -1.39212e-07
-0.000653583 0.000519031 -1.23854e-06
-1.39212e-07 -1.23854e-06 6.6493e-06
0.00116734 -0.000576136 -4.86264e-06
-0.000576136 0.000388752 -8.49365e-07
-4.86264e-06 -8.49365e-07 -0.00014864
0.00109611 -0.000345467 -3.69323e-06
-0.000345467 0.000319049 3.19611e-06
-3.69323e-06 3.19611e-06 -7.60995e-05
0.0018181 -0.000434851 1.15038e-06
-0.000434851 0.000902968 -1.37134e-06
1.15038e-06 -1.37134e-06 0.000536789
0.000361035 -0.000160783 -4.73734e-07
-0.000160783 7.85443e-05 9.48208e-07
-4.73734e-07 9.48208e-07 -0.000254134
0.00218724 -0.000115062 -7.29321e-07
-0.000115062 -5.76467e-05 -8.53481e-07
-7.29321e-07 -8.53481e-07 -2.2309e-06
0.00235021 -0.000287443 -1.19976e-06
-0.000287443 -7.21236e-05 -4.73211e-07
-1.19976e-06 -4.73211e-07 4.63981e-06
0.00239399 -0.000525273 -7.68806e-07
-0.000525273 -2.16764e-05 2.90256e-07
-7.68806e-07 2.90256e-07 3.58433e-06
0.00242871 -0.000678994 -1.40368e-06
-0.000678994 4.65871e-05 1.1152e-07
-1.40368e-06 1.1152e-07 2.09441e-06
0.00197553 -0.00086592 -5.32544e-06
-0.00086592 0.000701402 6.28104e-06
-5.32544e-06 6.28104e-06 0.000126803
0.00246341 -0.000890109 -7.28008e-06
-0.000890109 0.000293884 -2.9019e-06
-7.28008e-06 -2.9019e-06 -3.66349e-06
0.00209939 -0.00104468 -5.30974e-05
-0.00104468 0.000578111 1.07017e-05
-5.30974e-05 1.07017e-05 -4.31748e-05
0.00221439 -0.000972332 -2.78765e-05
-0.000972332 0.00041087 5.46025e-06
-2.78765e-05 5.46025e-06 -8.73067e-05
-0.000224165 4.68834e-05 -5.41952e-06
4.68834e-05 -0.000397902 -5.73815e-06
-5.41952e-06 -5.73815e-06 -0.000494008
0.00102809 -4.45276e-05 -2.36033e-06
-4.45276e-05 0.000496689 -2.34396e-06
-2.36033e-06 -2.34396e-06 0.00025035
0.0024312 -0.000468767 -1.1214e-05
-0.000468767 0.00142383 -2.73957e-06
-1.1214e-05 -2.73957e-06 0.0010397
4.64973e-06 -0.000285238 -4.3106e-06
-0.000285238 -0.000269582 -8.23809e-06
-4.3106e-06 -8.23809e-06 -0.000641677
0.00307581 -0.000885358 -8.84113e-06
-0.000885358 0.00148348 1.67453e-05
-8.84113e-06 1.67453e-05 0.00091143
0.00174084 -0.000653344 6.93443e-06
-0.000653344 0.000753767 1.45047e-05
6.93443e-06 1.45047e-05 0.000151133
0.000526349 8.92492e-05 -6.47869e-08
8.92492e-05 5.99297e-05 -8.14222e-06
-6.47869e-08 -8.14222e-06 -7.46415e-05
-0.000661199 6.62441e-05 5.4688e-07
6.62441e-05 -0.000622901 -9.31649e-07
5.4688e-07 -9.31649e-07 -0.000879967
0.00220004 0.000550765 -1.29915e-06
0.000550765 0.000124185 -9.15986e-07
-1.29915e-06 -9.15986e-07 -4.24971e-05
0.000352621 5.56036e-05 -4.77904e-06
5.56036e-05 -0.000190577 3.25021e-06
-4.77904e-06 3.25021e-06 -0.000440416
0.00152387 0.000605396 5.90519e-06
0.000605396 0.000563815 -4.24888e-06
5.90519e-06 -4.24888e-06 0.000105745
5.10915e-05 0.000177639 -7.59259e-06
0.000177639 -0.000519663 -6.96557e-06
-7.59259e-06 -6.96557e-06 -0.000781352
0.00234821 0.000748376 5.18715e-06
0.000748376 0.000346572 1.84179e-06
5.18715e-06 1.84179e-06 3.48273e-05
0.00221601 0.000714103 -3.11232e-06
0.000714103 0.000165784 4.07618e-07
-3.11232e-06 4.07618e-07 -9.05748e-05
0.00208452 0.000925637 -4.13807e-06
0.000925637 0.000762734 5.65306e-06
-4.13807e-06 5.65306e-06 0.000176694
0.00203443 0.000858065 -7.66471e-06
0.000858065 0.000395774 2.43105e-06
-7.66471e-06 2.43105e-06 -5.56245e-05
0.00075471 0.000199081 -7.43282e-07
0.000199081 0.000257056 -4.35746e-07
-7.43282e-07 -4.35746e-07 5.18147e-05
0.000507768 0.00019879 2.03327e-06
0.00019879 0.000126236 -1.51539e-06
2.03327e-06 -1.51539e-06 -0.000196068
0.00129736 0.0006353 -3.09535e-06
0.0006353 0.000433669 -7.90905e-07
-3.09535e-06 -7.90905e-07 -4.91825e-05
0.00146755 0.000291738 -2.13992e-06
0.000291738 0.000366725 2.03125e-06
-2.13992e-06 2.03125e-06 0.000102386
0.00250648 0.000647144 -1.44972e-07
0.000647144 0.000954269 -8.65851e-07
-1.44972e-07 -8.65851e-07 0.000551726
0.00243649 0.000647546 -2.41937e-06
0.000647546 0.000118539 -6.37061e-07
-2.41937e-06 -6.37061e-07 2.97174e-06
0.00246641 0.000792835 2.97394e-06
0.000792835 0.000393347 -7.96491e-07
2.97394e-06 -7.96491e-07 5.60087e-05
0.00249046 0.000765635 7.20714e-07
0.000765635 0.000278742 2.65086e-06
7.20714e-07 2.65086e-06 -2.2984e-06
0.00188154 0.000916857 4.90408e-06
0.000916857 0.000591775 1.2846e-06
4.90408e-06 1.2846e-06 1.4667e-05
0.00225563 0.00103001 -4.81471e-06
0.00103001 0.000535927 9.58518e-07
-4.81471e-06 9.58518e-07 3.4043e-06
-0.00169998 2.53124e-05 -7.83448e-06
2.53124e-05 -0.00128023 2.62661e-06
-7.83448e-06 2.62661e-06 -0.00147301
-0.00236791 0.000136751 -2.2759e-06
0.000136751 -0.00159302 -2.5278e-06
-2.2759e-06 -2.5278e-06 -0.00195293
0.00184759 0.000751472 7.00157e-06
0.000751472 0.000679689 -4.07778e-06
7.00157e-06 -4.07778e-06 0.000173834
0.00176642 0.000476236 5.59637e-06
0.000476236 0.00047134 -2.12592e-06
5.59637e-06 -2.12592e-06 0.000144505
0.00262292 0.000625346 -1.81505e-08
0.000625346 -9.87809e-05 1.76668e-07
-1.81505e-08 1.76668e-07 -1.8811e-05
0.00261622 0.000779214 6.27726e-06
0.000779214 0.000243348 1.05206e-06
6.27726e-06 1.05206e-06 4.27357e-05
0.00253223 0.000955087 9.06578e-06
0.000955087 0.000439462 -4.22581e-06
9.06578e-06 -4.22581e-06 -8.20836e-06
0.00183259 0.00101673 6.18161e-06
0.00101673 0.000398642 -6.82885e-07
6.18161e-06 -6.82885e-07 -0.000207137
0.00125068 0.000197196 1.36304e-06
0.000197196 0.000594839 1.37225e-06
1.36304e-06 1.37225e-06 0.000400772
0.00050088 0.000194715 -3.56754e-06
0.000194715 0.00011515 -2.09855e-07
-3.56754e-06 -2.09855e-07 -4.1051e-05
0.00115464 0.000147379 -9.99403e-06
0.000147379 0.000541442 -6.8641e-06
-9.99403e-06 -6.8641e-06 0.000428558
0.000236378 4.98875e-05 1.38697e-06
4.98875e-05 -7.62851e-05 -3.17901e-06
1.38697e-06 -3.17901e-06 -0.000210454
-0.00105333 5.78124e-05 5.72256e-07
5.78124e-05 -0.000832217 2.27261e-06
5.72256e-07 2.27261e-06 -0.00100758
0.000688973 7.27885e-05 -9.21462e-07
7.27885e-05 0.000219818 9.10699e-09
-9.21462e-07 9.10699e-09 8.51939e-05
0.000648184 0.000202084 2.10319e-06
0.000202084 0.000251502 1.46983e-06
2.10319e-06 1.46983e-06 7.97489e-05
0.000558395 9.75978e-05 8.75497e-07
9.75978e-05 0.000210152 1.54968e-06
8.75497e-07 1.54968e-06 3.86266e-06
0.000558554 0.000148534 1.43504e-06
0.000148534 9.41571e-05 -1.13694e-05
1.43504e-06 -1.13694e-05 6.97645e-06
0.000635329 6.1814e-05 -5.32495e-07
6.1814e-05 0.000247611 -7.25386e-06
-5.32495e-07 -7.25386e-06 4.75303e-05
-0.000109862 7.13382e-05 -9.86263e-07
7.13382e-05 -0.000253688 2.92947e-06
-9.86263e-07 2.92947e-06 -0.000428334
0.000717184 0.000133084 1.95121e-06
0.000133084 0.000234267 4.24611e-06
1.95121e-06 4.24611e-06 9.73512e-05
0.000444704 9.08768e-05 2.41122e-06
9.08768e-05 3.71963e-05 4.23074e-06
2.41122e-06 4.23074e-06 -5.73641e-05
0.000430221 2.07334e-05 -1.67929e-06
2.07334e-05 1.79948e-05 -4.33187e-07
-1.67929e-06 -4.33187e-07 -6.80686e-05
0.00126784 1.27977e-05 3.33271e-07
1.27977e-05 0.000523601 3.5865e-06
3.33271e-07 3.5865e-06 0.00050016
0.000417281 -4.36582e-05 1.91767e-06
-4.36582e-05 3.41623e-06 -4.04857e-06
1.91767e-06 -4.04857e-06 -7.86889e-05
0.00133616 -5.91451e-08 -9.36173e-06
-5.91451e-08 0.00056239 -1.77842e-06
-9.36173e-06 -1.77842e-06 0.000539724
0.000663375 -8.56852e-06 3.40287e-05
-8.56852e-06 0.000121079 1.01821e-05
3.40287e-05 1.01821e-05 0.000125407
0.00136879 -2.74082e-05 -1.15395e-05
-2.74082e-05 0.000581558 -8.22158e-06
-1.15395e-05 -8.22158e-06 0.000557643
0.000728546 -2.50563e-05 1.44876e-05
-2.50563e-05 0.000159015 3.80096e-06
1.44876e-05 3.80096e-06 0.000159649
0.000718114 -3.9474e-05 2.13913e-06
-3.9474e-05 0.000156077 -4.44841e-06
2.13913e-06 -4.44841e-06 0.000149286
0.000327154 4.69887e-05 -2.52003e-06
4.69887e-05 -7.71093e-05 -6.65998e-06
-2.52003e-06 -6.65998e-06 -0.000112999
0.000419083 6.14872e-05 -1.44972e-06
6.14872e-05 -1.16968e-06 1.13013e-07
-1.44972e-06 1.13013e-07 -5.23738e-05
0.00280067 0.000144224 -8.37866e-06
0.000144224 0.00153829 -7.90264e-06
-8.37866e-06 -7.90264e-06 0.00152736
0.000456562 -3.0048e-05 -1.10212e-05
-3.0048e-05 1.76234e-05 1.27184e-05
-1.10212e-05 1.27184e-05 -5.20803e-05
0.00362141 0.000165602 -2.51855e-05
0.000165602 0.00207425 -2.13427e-06
-2.51855e-05 -2.13427e-06 0.00205467
0.00479061 8.03271e-05 -0.000168074
8.03271e-05 0.00283034 2.25643e-05
-0.000168074 2.25643e-05 0.00282771
0.00228339 0.000440545 -6.66781e-07
0.000440545 7.77659e-05 4.74612e-08
-6.66781e-07 4.74612e-08 8.54094e-06
0.00220711 0.000213013 -2.28277e-06
0.000213013 1.71221e-05 -1.14264e-06
-2.28277e-06 -1.14264e-06 1.93868e-05
0.0022957 0.000334527 2.32064e-06
0.000334527 -5.50222e-05 1.42345e-06
2.32064e-06 1.42345e-06 -2.13434e-05
0.00217968 0.000142661 1.68101e-06
0.000142661 -7.62028e-05 -5.78562e-07
1.68101e-06 -5.78562e-07 -1.4527e-05
0.0021281 6.21529e-05 -3.21108e-06
6.21529e-05 1.59796e-06 -4.78758e-07
-3.21108e-06 -4.78758e-07 1.86568e-05
0.00219582 -1.37588e-05 -8.0322e-06
-1.37588e-05 7.42133e-05 2.8436e-07
-8.0322e-06 2.8436e-07 5.3955e-05
0.00210437 -1.40523e-05 3.62848e-07
-1.40523e-05 -1.36686e-05 -1.21267e-08
3.62848e-07 -1.21267e-08 5.65928e-06
0.00220586 7.31627e-05 8.1711e-07
7.31627e-05 -6.01356e-05 4.07889e-08
8.1711e-07 4.07889e-08 5.67316e-06
0.00229203 0.000222829 1.01833e-06
0.000222829 -4.98906e-05 2.38061e-07
1.01833e-06 2.38061e-07 6.31816e-06
0.00241415 0.000459359 4.60233e-07
0.000459359 -9.34251e-06 1.40689e-07
4.60233e-07 1.40689e-07 8.146e-06
0.00217099 -1.69585e-05 -9.43711e-07
-1.69585e-05 -7.37639e-05 -2.81808e-07
-9.43711e-07 -2.81808e-07 -1.36976e-05
0.00233686 0.000121956 -4.48639e-06
0.000121956 -9.57504e-05 5.81713e-07
-4.48639e-06 5.81713e-07 1.86431e-05
0.00256142 0.000336893 -3.12407e-06
0.000336893 -3.17729e-05 -8.03399e-07
-3.12407e-06 -8.03399e-07 5.48891e-05
0.00205929 -9.9219e-05 -2.02674e-06
-9.9219e-05 -4.90468e-05 6.88528e-07
-2.02674e-06 6.88528e-07 -2.74083e-05
0.00219611 -0.000214634 -1.65972e-06
-0.000214634 -7.84307e-06 5.27927e-07
-1.65972e-06 5.27927e-07 6.84981e-06
0.00228882 -0.000416276 -2.12638e-07
-0.000416276 -1.58711e-05 1.34281e-07
-2.12638e-07 1.34281e-07 -1.64625e-05
0.00194199 -0.000774322 -8.39581e-06
-0.000774322 0.000656782 -6.61813e-06
-8.39581e-06 -6.61813e-06 0.000125524
0.00181008 -0.000892193 1.5568e-05
-0.000892193 0.000418487 -1.00923e-05
1.5568e-05 -1.00923e-05 -0.000140934
0.00222037 -0.000942569 3.16879e-06
-0.000942569 0.000398264 -3.29925e-06
3.16879e-06 -3.29925e-06 -9.42361e-05
0.00229638 -0.00055758 -5.85553e-07
-0.00055758 7.65216e-05 -1.9586e-07
-5.85553e-07 -1.9586e-07 5.24876e-06
0.00238189 -0.000750678 5.29123e-06
-0.000750678 0.000195425 -5.39771e-07
5.29123e-06 -5.39771e-07 1.23969e-05
0.00238941 -0.000783085 9.21312e-06
-0.000783085 0.000350284 -7.68803e-06
9.21312e-06 -7.68803e-06 3.82907e-05
0.00123382 -0.000608811 -7.15089e-06
-0.000608811 0.000382962 -7.09917e-06
-7.15089e-06 -7.09917e-06 -0.000125915
0.00213597 -0.000723829 -1.16576e-06
-0.000723829 0.000969197 -1.77004e-05
-1.16576e-06 -1.77004e-05 0.000417847
0.00267935 -0.000476166 -1.57929e-05
-0.000476166 0.001376 1.76097e-05
-1.57929e-05 1.76097e-05 0.000924697
0.00015432 2.75637e-05 5.70495e-06
2.75637e-05 -0.000149855 4.55966e-06
5.70495e-06 4.55966e-06 -0.000280499
0.00121055 -0.000449377 4.60512e-06
-0.000449377 0.000506372 -2.75979e-06
4.60512e-06 -2.75979e-06 0.000143985
-0.000228638 -3.10839e-05 8.23046e-06
-3.10839e-05 -0.000310862 1.3755e-06
8.23046e-06 1.3755e-06 -0.000630747
0.00219687 -0.000110532 -3.65443e-07
-0.000110532 -5.08836e-05 6.94323e-08
-3.65443e-07 6.94323e-08 2.7948e-06
0.00233026 -0.00029815 4.40302e-07
-0.00029815 -8.979e-05 7.42798e-08
4.40302e-07 7.42798e-08 -1.07636e-05
0.00239448 -0.000516395 -6.45e-07
-0.000516395 -1.72241e-05 2.07578e-07
-6.45e-07 2.07578e-07 6.58847e-06
0.00206721 -0.000880553 -1.27616e-06
-0.000880553 0.000750618 1.30271e-06
-1.27616e-06 1.30271e-06 0.000174649
0.00193002 -0.00101088 9.07758e-06
-0.00101088 0.000487135 -1.8628e-06
9.07758e-06 -1.8628e-06 -0.000121147
0.00236723 -0.000967084 -1.76262e-06
-0.000967084 0.000504688 -2.1685e-06
-1.76262e-06 -2.1685e-06 2.18323e-05
0.00242366 -0.000689593 4.31278e-07
-0.000689593 4.62214e-05 -1.1044e-07
4.31278e-07 -1.1044e-07 -9.36941e-06
0.00237756 -0.000861059 2.23741e-06
-0.000861059 0.00026422 -1.52977e-06
2.23741e-06 -1.52977e-06 -1.75004e-05
0.000222694 6.814e-05 -2.63644e-06
6.814e-05 -0.000107621 -2.06654e-06
-2.63644e-06 -2.06654e-06 -0.000203169
0.000785869 -6.94116e-05 -1.56955e-06
-6.94116e-05 0.000323795 7.45913e-07
-1.56955e-06 7.45913e-07 9.23121e-05
0.00121994 -0.000654007 -3.28295e-06
-0.000654007 0.00036462 9.35698e-07
-3.28295e-06 9.35698e-07 -0.000144892
0.00172024 -0.000610677 -5.48117e-06
-0.000610677 0.000781858 2.69807e-06
-5.48117e-06 2.69807e-06 0.000187662
0.00119178 -0.000224668 1.52112e-06
-0.000224668 0.000440766 -4.04903e-06
1.52112e-06 -4.04903e-06 7.43491e-05
0.00157196 -0.000349046 -1.54601e-06
-0.000349046 0.000869692 2.27913e-06
-1.54601e-06 2.27913e-06 0.000498772
0.00231513 -0.000145298 -3.40253e-06
-0.000145298 -0.000102062 -6.47928e-07
-3.40253e-06 -6.47928e-07 1.29579e-05
0.0025086 -0.000438502 -2.02689e-06
-0.000438502 -0.000138615 -7.48293e-08
-2.02689e-06 -7.48293e-08 1.21603e-05
0.00246522 -0.000648311 1.94027e-06
-0.000648311 -3.89986e-05 -3.29709e-07
1.94027e-06 -3.29709e-07 -1.76191e-05
0.00258247 -0.000876229 1.29462e-06
-0.000876229 0.000175446 -7.54762e-07
1.29462e-06 -7.54762e-07 1.67596e-05
0.00102038 -0.000772961 -7.08358e-06
-0.000772961 0.000145395 -2.87749e-06
-7.08358e-06 -2.87749e-06 -0.000396198
0.00252445 -0.00105407 -1.83648e-06
-0.00105407 0.00050559 1.0479e-06
-1.83648e-06 1.0479e-06 4.82677e-05
0.0023721 -0.0011707 -6.1302e-05
-0.0011707 0.000667963 7.44107e-06
-6.1302e-05 7.44107e-06 1.14871e-05
0.000569426 4.75614e-05 -4.96099e-07
4.75614e-05 9.41448e-05 -3.07545e-06
-4.96099e-07 -3.07545e-06 2.10575e-05
0.000826736 -0.000172287 3.96306e-06
-0.000172287 0.000339003 -5.80739e-06
3.96306e-06 -5.80739e-06 0.000193347
0.000122843 7.73238e-05 -7.43173e-06
7.73238e-05 -0.000121564 -3.27667e-06
-7.43173e-06 -3.27667e-06 -0.00026999
0.00100468 -0.000101083 -6.61598e-06
-0.000101083 0.000485341 -2.37145e-08
-6.61598e-06 -2.37145e-08 0.000194909
0.000574622 -0.000185323 -7.94047e-06
-0.000185323 0.000148392 -1.43268e-05
-7.94047e-06 -1.43268e-05 -0.000177659
0.00155474 -0.000371086 -3.09317e-06
-0.000371086 0.000816881 -6.84236e-06
-3.09317e-06 -6.84236e-06 0.000315759
0.00119298 -0.000703955 -1.78319e-05
-0.000703955 0.000348739 3.97261e-05
-1.78319e-05 3.97261e-05 -0.000168467
0.00324199 -0.000768712 -2.19932e-05
-0.000768712 0.00182602 2.07783e-05
-2.19932e-05 2.07783e-05 0.00105054
0.00016222 8.95099e-05 9.39822e-07
8.95099e-05 -0.000146439 -9.81919e-07
9.39822e-07 -9.81919e-07 -0.000325043
0.00184116 0.000351938 8.96723e-07
0.000351938 0.000946866 2.08311e-06
8.96723e-07 2.08311e-06 0.000613619
0.00247933 0.000657818 -3.68025e-07
0.000657818 0.000126313 -9.13631e-07
-3.68025e-07 -9.13631e-07 6.722e-06
0.00166106 0.000219763 -2.27034e-06
0.000219763 0.00044703 -2.84847e-06
-2.27034e-06 -2.84847e-06 0.000184489
0.00126513 0.000619768 1.70914e-07
0.000619768 0.000417363 1.53982e-07
1.70914e-07 1.53982e-07 -6.19694e-05
0.00260084 0.000627079 -3.14827e-06
0.000627079 0.000996037 6.90282e-06
-3.14827e-06 6.90282e-06 0.00060116
0.0026287 0.000786957 -4.80976e-06
0.000786957 0.000502197 1.84275e-07
-4.80976e-06 1.84275e-07 0.000176275
0.00281191 0.000798738 -5.9504e-06
0.000798738 0.000478067 6.72902e-06
-5.9504e-06 6.72902e-06 0.000190251
0.00169651 0.000906473 -4.2613e-06
0.000906473 0.000472229 2.07899e-06
-4.2613e-06 2.07899e-06 -0.000107437
0.00208961 0.00105383 -1.3971e-05
0.00105383 0.000440421 -7.65816e-07
-1.3971e-05 -7.65816e-07 -0.000112631
-0.000303403 0.000100523 1.93522e-06
0.000100523 -0.00036465 1.59097e-06
1.93522e-06 1.59097e-06 -0.000601137
0.000354168 0.000365883 5.27367e-06
0.000365883 0.00013103 -1.87091e-06
5.27367e-06 -1.87091e-06 -0.000258737
0.0016596 0.000745497 6.90469e-07
0.000745497 0.000530894 -2.85066e-07
6.90469e-07 -2.85066e-07 1.70547e-05
0.00209544 0.000522936 -6.19152e-06
0.000522936 0.000720979 4.94601e-07
-6.19152e-06 4.94601e-07 0.000373513
0.00258164 0.00060184 1.7374e-07
0.00060184 -0.000157723 -9.53134e-07
1.7374e-07 -9.53134e-07 -5.60561e-05
0.00273342 0.000795757 3.23765e-06
0.000795757 0.000308644 -4.79176e-07
3.23765e-06 -4.79176e-07 9.35722e-05
0.00232082 0.000912048 -3.2848e-06
0.000912048 0.000350072 2.46863e-08
-3.2848e-06 2.46863e-08 -8.22439e-05
0.0021817 0.00104672 2.19239e-06
0.00104672 0.000588163 3.63433e-07
2.19239e-06 3.63433e-07 -1.39496e-05
-0.000669053 3.4288e-05 -5.26622e-06
3.4288e-05 -0.000573751 -1.12255e-06
-5.26622e-06 -1.12255e-06 -0.000765343
0.00250193 0.00042669 -5.33078e-07
0.00042669 -0.000227377 -1.6944e-06
-5.33078e-07 -1.6944e-06 -9.60344e-05
0.00246158 0.00063465 -5.65799e-06
0.00063465 0.00141151 8.8356e-06
-5.65799e-06 8.8356e-06 0.00095445
0.00173544 0.000730196 4.24447e-07
0.000730196 0.00049231 -4.31574e-06
4.24447e-07 -4.31574e-06 1.08709e-05
0.00267626 0.000775343 -1.57773e-05
0.000775343 4.73015e-05 -1.03943e-05
-1.57773e-05 -1.03943e-05 5.8639e-05
0.00127848 0.000831895 5.76696e-06
0.000831895 -0.000351592 -1.03275e-05
5.76696e-06 -1.03275e-05 -0.000746657
0.00307623 0.00118459 3.52699e-06
0.00118459 0.00104289 4.26602e-06
3.52699e-06 4.26602e-06 0.000411181
0.00022678 0.000142406 5.71555e-07
0.000142406 -3.76738e-05 2.88034e-06
5.71555e-07 2.88034e-06 -0.000203889
0.000425385 0.000138487 -2.34671e-06
0.000138487 9.54911e-05 -8.41434e-07
-2.34671e-06 -8.41434e-07 -2.28444e-05
0.000336888 0.000100121 -3.94531e-06
0.000100121 6.48351e-05 -4.37773e-06
-3.94531e-06 -4.37773e-06 -1.99625e-05
0.000286609 7.36821e-06 2.06594e-06
7.36821e-06 -4.42881e-05 -3.7759e-06
2.06594e-06 -3.7759e-06 -0.000172522
0.00051607 0.000106882 3.04857e-06
0.000106882 0.000178263 -3.51481e-06
3.04857e-06 -3.51481e-06 -2.34603e-05
-0.000486256 0.000158336 -4.94366e-06
0.000158336 -0.000419724 1.29907e-05
-4.94366e-06 1.29907e-05 -0.000580472
0.000505037 3.04064e-05 -1.73721e-06
3.04064e-05 9.98564e-05 -9.81838e-08
-1.73721e-06 -9.81838e-08 -3.75003e-05
0.000208433 5.91395e-06 -4.41912e-07
5.91395e-06 -3.02855e-05 -5.70396e-07
-4.41912e-07 -5.70396e-07 -0.000219828
2.38335e-06 9.10137e-05 -5.51769e-06
9.10137e-05 -0.000220206 3.07064e-06
-5.51769e-06 3.07064e-06 -0.000294318
0.000771284 0.000153837 1.8001e-06
0.000153837 0.000346961 -1.45095e-06
1.8001e-06 -1.45095e-06 0.000136476
0.00197411 0.000209811 -1.30148e-06
0.000209811 0.000987044 -1.0206e-05
-1.30148e-06 -1.0206e-05 0.00092639
-0.000257688 2.20183e-05 1.28642e-05
2.20183e-05 -0.000363768 -1.34428e-05
1.28642e-05 -1.34428e-05 -0.000464335
0.000484483 0.000129907 1.63035e-07
0.000129907 0.000170091 2.11585e-06
1.63035e-07 2.11585e-06 -4.11714e-05
0.000515161 7.011e-05 -1.65904e-07
7.011e-05 0.000140372 3.58325e-06
-1.65904e-07 3.58325e-06 -5.44371e-05
0.000533121 2.33426e-05 1.77154e-06
2.33426e-05 0.000102078 3.38291e-06
1.77154e-06 3.38291e-06 -3.60051e-05
0.000481694 -7.38884e-05 -1.91435e-06
-7.38884e-05 5.25541e-05 3.10842e-06
-1.91435e-06 3.10842e-06 -3.93856e-05
0.000458431 1.59587e-05 6.82248e-07
1.59587e-05 3.21025e-05 -4.83078e-07
6.82248e-07 -4.83078e-07 -5.37312e-05
0.00132103 2.83255e-05 3.5345e-06
2.83255e-05 0.000563122 3.80501e-06
3.5345e-06 3.80501e-06 0.000539398
0.000459622 1.53656e-05 1.34408e-06
1.53656e-05 2.23935e-05 -4.08464e-06
1.34408e-06 -4.08464e-06 -5.42471e-05
0.0013436 1.94466e-05 -9.68523e-06
1.94466e-05 0.000573891 -1.96085e-06
-9.68523e-06 -1.96085e-06 0.000549992
0.000750418 -2.45597e-06 2.9718e-05
-2.45597e-06 0.000182594 9.59564e-06
2.9718e-05 9.59564e-06 0.000186014
0.00132681 -1.34659e-05 -9.92211e-06
-1.34659e-05 0.000555522 -7.8201e-06
-9.92211e-06 -7.8201e-06 0.000534139
0.000746801 -1.54848e-05 1.20217e-05
-1.54848e-05 0.000172037 3.77685e-06
1.20217e-05 3.77685e-06 0.000174105
0.000748342 -2.94638e-05 1.71353e-06
-2.94638e-05 0.000169791 -3.43721e-06
1.71353e-06 -3.43721e-06 0.000168961
0.000552891 -1.81525e-05 1.33392e-07
-1.81525e-05 7.42519e-05 -3.58721e-06
1.33392e-07 -3.58721e-06 1.17848e-05
0.000307573 2.95127e-05 -8.37795e-07
2.95127e-05 -9.80603e-05 -5.84371e-06
-8.37795e-07 -5.84371e-06 -0.000125214
0.00035842 4.33007e-05 9.16129e-07
4.33007e-05 -5.54478e-05 4.44237e-07
9.16129e-07 4.44237e-07 -9.21987e-05
0.00270851 0.000115235 2.46678e-06
0.000115235 0.00146548 -6.3482e-06
2.46678e-06 -6.3482e-06 0.0014627
0.000357027 3.38643e-05 2.10985e-06
3.38643e-05 -5.47241e-05 9.72552e-06
2.10985e-06 9.72552e-06 -0.00010028
0.00311372 0.000161921 -5.03621e-06
0.000161921 0.00174483 -5.98476e-07
-5.03621e-06 -5.98476e-07 0.00172998
0.00397994 0.000117067 -7.36536e-05
0.000117067 0.0022932 9.3845e-06
-7.36536e-05 9.3845e-06 0.0022841
0.00238916 0.000446182 2.52442e-06
0.000446182 -3.06569e-05 7.74238e-07
2.52442e-06 7.74238e-07 -9.78027e-06
0.00227248 0.000229546 2.02894e-06
0.000229546 -6.52051e-05 -4.95222e-08
2.02894e-06 -4.95222e-08 -5.65248e-06
0.00217937 7.69861e-05 6.63417e-07
7.69861e-05 -7.29908e-05 -5.35032e-07
6.63417e-07 -5.35032e-07 -9.23906e-06
0.00211913 -1.26721e-05 -3.54628e-06
-1.26721e-05 -2.11025e-06 1.17848e-07
-3.54628e-06 1.17848e-07 1.81593e-05
0.00218835 -1.19112e-05 -5.34562e-07
-1.19112e-05 -6.6053e-05 9.51643e-08
-5.34562e-07 9.51643e-08 -2.46709e-06
0.00231725 0.000116484 6.84715e-07
0.000116484 -0.00010123 5.92108e-07
6.84715e-07 5.92108e-07 1.06336e-05
0.0024612 0.000347627 -7.58707e-07
0.000347627 -7.89971e-05 -3.72162e-07
-7.58707e-07 -3.72162e-07 7.81157e-06
0.00229225 -1.40765e-05 -2.39447e-06
-1.40765e-05 -0.000127875 -2.33827e-07
-2.39447e-06 -2.33827e-07 -3.91229e-07
0.00263782 0.000165783 -5.41445e-06
0.000165783 -6.89671e-05 -7.47457e-07
-5.41445e-06 -7.47457e-07 7.1455e-05
0.00238302 0.000139711 -5.73977e-07
0.000139711 -0.000218921 5.71577e-06
-5.73977e-07 5.71577e-06 -8.02427e-05
0.00221688 -0.000106094 3.305e-07
-0.000106094 -3.71764e-05 7.88871e-07
3.305e-07 7.88871e-07 1.43853e-05
0.00231951 -0.000309266 1.49109e-07
-0.000309266 -0.000103312 6.71496e-08
1.49109e-07 6.71496e-08 -2.04716e-05
0.00238877 -0.00050564 1.23017e-06
-0.00050564 -1.50612e-05 -3.52251e-07
1.23017e-06 -3.52251e-07 7.14541e-06
0.00163446 -0.000828992 -7.84411e-07
-0.000828992 0.000480183 -3.15795e-06
-7.84411e-07 -3.15795e-06 -8.2164e-05
0.00175556 -0.00098662 3.57287e-05
-0.00098662 0.000380408 -6.80122e-06
3.57287e-05 -6.80122e-06 -0.000220179
0.00248402 -0.000963697 1.53186e-05
-0.000963697 0.000564465 -5.60587e-06
1.53186e-05 -5.60587e-06 9.5118e-05
0.00240486 -0.00069564 3.25334e-06
-0.00069564 4.32997e-05 -6.31198e-07
3.25334e-06 -6.31198e-07 -2.58819e-05
0.00232593 -0.000832128 1.01411e-05
-0.000832128 0.000262195 -8.3466e-07
1.01411e-05 -8.3466e-07 -6.49298e-06
0.000788576 -0.000589746 5.43509e-07
-0.000589746 0.000128843 -2.255e-05
5.43509e-07 -2.255e-05 -0.000390342
0.001211 -0.000507642 4.96727e-06
-0.000507642 0.000530374 -2.01953e-05
4.96727e-06 -2.01953e-05 -5.80166e-05
-0.000360566 -0.000164882 -9.05256e-07
-0.000164882 -0.000578526 7.87686e-06
-9.05256e-07 7.87686e-06 -0.000923025
0.000444659 1.36189e-05 1.22845e-06
1.36189e-05 3.18581e-05 4.04239e-06
1.22845e-06 4.04239e-06 -5.93605e-05
6.97804e-06 -1.32455e-05 6.93607e-06
-1.32455e-05 -0.000190123 2.32543e-06
6.93607e-06 2.32543e-06 -0.000402493
0.00101515 -0.000285033 2.39637e-06
-0.000285033 0.000504614 8.30458e-06
2.39637e-06 8.30458e-06 0.000140928
0.00230998 -0.000148575 2.69238e-07
-0.000148575 -0.000117407 3.26548e-07
2.69238e-07 3.26548e-07 2.35683e-06
0.000448714 8.40536e-07 1.86711e-06
8.40536e-07 1.46383e-05 3.80501e-07
1.86711e-06 3.80501e-07 -5.78444e-05
0.000315207 -8.73992e-05 -4.17691e-06
-8.73992e-05 -3.47556e-05 -1.25081e-06
-4.17691e-06 -1.25081e-06 -0.00015307
0.00248072 -0.000425328 -3.80423e-07
-0.000425328 -0.000127518 -2.51978e-07
-3.80423e-07 -2.51978e-07 6.12895e-06
0.00244175 -0.00063148 -1.95806e-06
-0.00063148 -3.50712e-05 4.96105e-07
-1.95806e-06 4.96105e-07 -8.1453e-06
0.00209253 -0.00093691 1.47191e-06
-0.00093691 0.000777584 2.04137e-06
1.47191e-06 2.04137e-06 0.000186383
0.00240374 -0.00117735 1.06048e-05
-0.00117735 0.000690414 -1.36196e-06
1.06048e-05 -1.36196e-06 3.31106e-05
0.00239475 -0.00103785 1.9634e-06
-0.00103785 0.00041974 -3.26372e-06
1.9634e-06 -3.26372e-06 -2.44241e-05
0.00250705 -0.000873013 2.3328e-06
-0.000873013 0.000127838 -8.39662e-07
2.3328e-06 -8.39662e-07 -2.40828e-05
0.000612819 3.88663e-06 -1.55269e-06
3.88663e-06 0.000206026 -8.26417e-07
-1.55269e-06 -8.26417e-07 4.51972e-05
0.000740903 -0.00011488 6.85617e-07
-0.00011488 0.000315183 1.8104e-06
6.85617e-07 1.8104e-06 2.7575e-05
0.00137928 -0.000698456 1.10364e-05
-0.000698456 0.000502433 1.1932e-05
1.10364e-05 1.1932e-05 -1.36237e-05
0.00191143 -0.000624711 2.51178e-05
-0.000624711 0.000999188 -1.39049e-05
2.51178e-05 -1.39049e-05 0.000300821
0.000770154 -0.000244503 -3.47193e-06
-0.000244503 0.000295387 -3.09714e-08
-3.47193e-06 -3.09714e-08 -0.000159681
-0.000207022 -0.000213624 2.28708e-06
-0.000213624 -0.00032963 -2.24136e-06
2.28708e-06 -2.24136e-06 -0.000658116
0.00233071 -0.000170456 -4.09287e-06
-0.000170456 -0.000313928 4.48763e-06
-4.09287e-06 4.48763e-06 -0.00013723
0.00253017 -0.000558746 -1.00439e-07
-0.000558746 -0.000254972 1.42591e-06
-1.00439e-07 1.42591e-06 1.66319e-06
0.00284751 -0.00090493 -5.82877e-06
-0.00090493 0.000139181 -1.62202e-06
-5.82877e-06 -1.62202e-06 9.89498e-05
0.00276935 -0.00112475 8.81836e-06
-0.00112475 0.000386252 -6.84149e-07
8.81836e-06 -6.84149e-07 8.05962e-05
0.00112423 -0.000881565 8.2323e-08
-0.000881565 0.000284582 -7.77578e-06
8.2323e-08 -7.77578e-06 -0.000312427
0.00364642 -0.00144147 -8.98231e-06
-0.00144147 0.00124327 6.07037e-06
-8.98231e-06 6.07037e-06 0.00055258
0.000239821 6.72432e-05 -4.16483e-06
6.72432e-05 -8.84258e-05 -8.485e-06
-4.16483e-06 -8.485e-06 -0.000207561
0.000369002 -6.10278e-05 6.9713e-06
-6.10278e-05 1.90327e-07 -3.47281e-06
6.9713e-06 -3.47281e-06 -0.000108642
0.00187751 -0.000238934 -9.16944e-06
-0.000238934 0.000934079 1.39344e-05
-9.16944e-06 1.39344e-05 0.000771336
0.000248394 3.2221e-05 -4.97816e-06
3.2221e-05 -4.73833e-05 1.24379e-07
-4.97816e-06 1.24379e-07 -0.000248909
0.00115375 -0.000231978 -1.13593e-05
-0.000231978 0.000570374 6.51825e-06
-1.13593e-05 6.51825e-06 0.000238025
-0.000219238 -7.735e-05 2.01667e-06
-7.735e-05 -0.000419036 -2.46306e-05
2.01667e-06 -2.46306e-05 -0.000693427
-0.00192468 -0.000258473 -8.14488e-06
-0.000258473 -0.000906992 4.41302e-06
-8.14488e-06 4.41302e-06 -0.00186329
0.000988156 -0.000879185 -5.49131e-05
-0.000879185 0.000132813 3.16311e-05
-5.49131e-05 3.16311e-05 -0.000269801
-2.85106e-05 0.000229281 2.91085e-08
0.000229281 -0.000137127 -1.24786e-06
2.91085e-08 -1.24786e-06 -0.000424108
0.0035844 0.000566661 -1.54084e-05
0.000566661 0.00211944 -6.74026e-06
-1.54084e-05 -6.74026e-06 0.00173975
0.00252833 0.00057485 -2.91427e-06
0.00057485 -0.000216262 -2.28137e-08
-2.91427e-06 -2.28137e-08 -9.49618e-05
0.0028214 0.000808756 -5.60709e-06
0.000808756 0.000358507 -1.29247e-06
-5.60709e-06 -1.29247e-06 0.000129779
0.00284192 0.0005636 -6.28249e-06
0.0005636 0.00120894 2.87002e-06
-6.28249e-06 2.87002e-06 0.000862082
0.00147418 0.000741393 -9.81597e-06
0.000741393 0.00038244 -3.13349e-07
-9.81597e-06 -3.13349e-07 -0.000139704
0.00216559 0.000874675 -5.91426e-06
0.000874675 0.000292086 2.48584e-06
-5.91426e-06 2.48584e-06 -0.000126484
0.00257055 0.00107662 -1.07805e-05
0.00107662 0.000801195 -1.16806e-06
-1.07805e-05 -1.16806e-06 0.000202881
-1.94837e-05 0.000184408 2.36937e-06
0.000184408 -0.000110451 -1.88251e-07
2.36937e-06 -1.88251e-07 -0.000361875
0.00255315 0.000412468 -1.3338e-06
0.000412468 -0.000194953 -2.6169e-06
-1.3338e-06 -2.6169e-06 -5.10364e-05
0.00151778 0.000469786 3.5946e-06
0.000469786 0.000831108 6.92824e-06
3.5946e-06 6.92824e-06 0.000436274
0.00157535 0.000695657 3.33611e-06
0.000695657 0.000427552 1.89189e-06
3.33611e-06 1.89189e-06 -4.49373e-05
0.00279692 0.000755724 8.04064e-07
0.000755724 0.000156251 -3.72812e-07
8.04064e-07 -3.72812e-07 0.00015989
0.00196893 0.000918445 -2.43386e-06
0.000918445 4.53101e-05 -6.05962e-06
-2.43386e-06 -6.05962e-06 -0.00036482
0.0025254 0.0010863 -1.42059e-06
0.0010863 0.000747406 -3.36513e-07
-1.42059e-06 -3.36513e-07 0.000140979
0.00177186 0.000414728 -5.73323e-06
0.000414728 0.00112186 -3.16386e-06
-5.73323e-06 -3.16386e-06 0.000784422
0.00402724 0.000720923 -9.8618e-05
0.000720923 0.000615509 -3.7215e-05
-9.8618e-05 -3.7215e-05 0.000880687
0.000902552 0.000557794 -1.16708e-05
0.000557794 0.000380781 8.7108e-06
-1.16708e-05 8.7108e-06 -6.41409e-05
0.00138024 0.00076712 -7.82688e-06
0.00076712 0.000271948 -1.08095e-05
-7.82688e-06 -1.08095e-05 -0.000261664
0.00335466 0.00107293 -4.20841e-05
0.00107293 0.00066563 -2.42798e-05
-4.20841e-05 -2.42798e-05 0.00039039
0.00105157 0.000901326 -3.12959e-05
0.000901326 -9.8789e-05 -3.28438e-06
-3.12959e-05 -3.28438e-06 -0.000633337
0.00149931 0.00138599 1.16115e-05
0.00138599 -0.00206568 -6.11642e-05
1.16115e-05 -6.11642e-05 -0.00113006
0.000213518 0.000174161 8.18615e-06
0.000174161 1.80529e-06 6.46011e-06
8.18615e-06 6.46011e-06 -0.00013262
0.000286458 0.000133131 2.83461e-06
0.000133131 6.71717e-05 1.18933e-06
2.83461e-06 1.18933e-06 -3.60805e-05
0.00029756 0.000116248 2.01974e-06
0.000116248 5.18781e-05 -6.68341e-06
2.01974e-06 -6.68341e-06 -4.03116e-05
0.000353949 -6.56723e-05 2.07177e-06
-6.56723e-05 8.60163e-06 -4.86789e-06
2.07177e-06 -4.86789e-06 -0.000130923
0.000188837 -1.08068e-05 3.53125e-07
-1.08068e-05 -4.42075e-05 -3.0685e-06
3.53125e-07 -3.0685e-06 -0.000232898
0.0015653 0.000274658 -1.81175e-07
0.000274658 0.000855782 4.24759e-07
-1.81175e-07 4.24759e-07 0.000633086
-0.000597789 5.96673e-05 -7.63068e-06
5.96673e-05 -0.000569709 2.28352e-05
-7.63068e-06 2.28352e-05 -0.000638585
0.000482453 -1.59499e-05 -1.16385e-07
-1.59499e-05 8.80216e-05 -2.91162e-07
-1.16385e-07 -2.91162e-07 -5.97337e-05
0.000396862 8.82725e-05 1.1601e-07
8.82725e-05 3.71783e-05 -5.50219e-07
1.1601e-07 -5.50219e-07 -0.000133273
0.000623338 0.000144146 4.72561e-06
0.000144146 0.000146842 3.51238e-06
4.72561e-06 3.51238e-06 9.98579e-05
0.000329335 8.38916e-05 1.13481e-06
8.38916e-05 4.3145e-05 8.15529e-07
1.13481e-06 8.15529e-07 -0.000148871
0.000528093 8.83872e-05 2.05448e-07
8.83872e-05 0.00012222 -1.91179e-06
2.05448e-07 -1.91179e-06 8.27298e-06
0.000799837 0.000142211 -2.1135e-06
0.000142211 0.000330827 -1.64276e-05
-2.1135e-06 -1.64276e-05 0.000249055
0.000876456 0.000164076 -3.3714e-06
0.000164076 0.000316617 -7.99882e-06
-3.3714e-06 -7.99882e-06 0.000163871
0.001033 0.000154066 1.25033e-06
0.000154066 0.000475935 3.27416e-06
1.25033e-06 3.27416e-06 0.000278191
0.000853506 0.000129278 -1.73833e-06
0.000129278 0.000343695 4.24378e-08
-1.73833e-06 4.24378e-08 0.000148311
0.000200212 -2.40645e-05 -2.39255e-06
-2.40645e-05 -0.00012021 1.09107e-06
-2.39255e-06 1.09107e-06 -0.000258653
0.00135403 -0.000126045 1.38085e-06
-0.000126045 0.000743282 -2.28905e-06
1.38085e-06 -2.28905e-06 0.000501975
8.06799e-05 -5.29431e-05 -5.78928e-07
-5.29431e-05 -0.000185958 3.2542e-06
-5.78928e-07 3.2542e-06 -0.000328536
0.000398652 2.95845e-06 -2.28116e-06
2.95845e-06 6.54646e-06 2.97337e-06
-2.28116e-06 2.97337e-06 -8.8676e-05
0.000424557 4.39334e-05 2.46631e-06
4.39334e-05 2.13809e-05 -8.96175e-08
2.46631e-06 -8.96175e-08 -7.31468e-05
0.000331379 2.06433e-05 -1.92174e-06
2.06433e-05 -6.70158e-05 4.9802e-06
-1.92174e-06 4.9802e-06 -9.55774e-05
0.000360115 2.10674e-07 -1.05926e-06
2.10674e-07 -1.87544e-05 -4.32269e-06
-1.05926e-06 -4.32269e-06 -0.000112306
0.000856027 1.72947e-05 -4.35499e-06
1.72947e-05 0.000266121 -1.52155e-06
-4.35499e-06 -1.52155e-06 0.000240278
0.0026611 2.8171e-06 2.75535e-05
2.8171e-06 0.00141299 5.97843e-06
2.75535e-05 5.97843e-06 0.00142515
0.00141193 4.72043e-05 -1.59617e-05
4.72043e-05 0.000620476 -7.97558e-06
-1.59617e-05 -7.97558e-06 0.000595478
0.000766327 -6.30427e-06 1.14121e-05
-6.30427e-06 0.000189094 3.74122e-06
1.14121e-05 3.74122e-06 0.000191456
0.000836829 -1.96402e-05 1.52345e-06
-1.96402e-05 0.000226201 -3.24262e-06
1.52345e-06 -3.24262e-06 0.00022736
0.000422612 1.01608e-05 -2.72742e-06
1.01608e-05 2.51997e-07 -4.54981e-06
-2.72742e-06 -4.54981e-06 -6.13696e-05
0.00052218 -4.04843e-05 5.51139e-07
-4.04843e-05 6.1506e-05 -2.60977e-07
5.51139e-07 -2.60977e-07 -5.20297e-06
0.000427214 2.40476e-05 -4.93742e-07
2.40476e-05 -2.95888e-05 -4.75879e-06
-4.93742e-07 -4.75879e-06 -5.00032e-05
0.000790885 4.75492e-05 6.61528e-08
4.75492e-05 0.000215719 1.44954e-07
6.61528e-08 1.44954e-07 0.00018894
0.00248596 8.80973e-05 2.42145e-06
8.80973e-05 0.00131345 -5.65936e-06
2.42145e-06 -5.65936e-06 0.00131727
0.000465235 6.47091e-05 6.04634e-06
6.47091e-05 2.44694e-05 8.09514e-06
6.04634e-06 8.09514e-06 -1.872e-05
0.00269555 0.00012022 -2.3318e-06
0.00012022 0.00145953 -2.17972e-07
-2.3318e-06 -2.17972e-07 0.00145546
0.00317171 0.000140768 -3.91616e-07
0.000140768 0.00177337 8.10406e-06
-3.91616e-07 8.10406e-06 0.00176249
0.0023607 0.000357497 2.49977e-06
0.000357497 -0.00012909 1.01347e-06
2.49977e-06 1.01347e-06 -4.11949e-05
0.00231103 0.000112282 4.55236e-06
0.000112282 -9.74574e-05 -1.08354e-06
4.55236e-06 -1.08354e-06 1.2513e-05
0.0021941 -7.47829e-06 8.8024e-08
-7.47829e-06 -6.64547e-05 5.24362e-08
8.8024e-08 5.24362e-08 9.45096e-07
0.00228762 -6.64935e-06 -1.44688e-08
-6.64935e-06 -0.000129214 -2.98688e-07
-1.44688e-08 -2.98688e-07 -1.24222e-06
0.00254693 0.000174503 1.54075e-06
0.000174503 -0.000109876 -6.46033e-08
1.54075e-06 -6.46033e-08 2.87614e-05
0.00260614 0.000124113 4.56076e-06
0.000124113 -7.73322e-05 -3.787e-06
4.56076e-06 -3.787e-06 5.00765e-05
0.00268432 2.02985e-05 -1.10508e-05
2.02985e-05 -0.000133863 2.61324e-07
-1.10508e-05 2.61324e-07 5.91466e-05
0.00536122 0.00139507 7.86677e-05
0.00139507 -0.000951645 1.07805e-05
7.86677e-05 1.07805e-05 0.000340361
0.00300996 0.000118822 -3.31243e-05
0.000118822 0.000295818 2.24996e-05
-3.31243e-05 2.24996e-05 0.000584049
0.000473371 0.000122294 -4.31846e-06
0.000122294 7.32668e-05 -4.25304e-06
-4.31846e-06 -4.25304e-06 -4.03624e-05
0.00230347 -0.000151565 3.24489e-06
-0.000151565 -0.00013186 -4.4633e-07
3.24489e-06 -4.4633e-07 -8.29136e-06
0.00245113 -0.000414459 2.27091e-06
-0.000414459 -0.000121542 9.05122e-07
2.27091e-06 9.05122e-07 -3.79394e-06
0.00242724 -0.000618718 8.57499e-07
-0.000618718 -3.2492e-05 4.0176e-09
8.57499e-07 4.0176e-09 3.52097e-06
0.00177218 -0.000919549 -5.69613e-06
-0.000919549 0.000593095 7.58082e-06
-5.69613e-06 7.58082e-06 5.38688e-06
0.00247323 -0.00115916 3.61262e-05
-0.00115916 0.000749938 1.9677e-06
3.61262e-05 1.9677e-06 0.000106504
0.002077 -0.000993975 -2.21232e-07
-0.000993975 0.00024023 -2.68683e-06
-2.21232e-07 -2.68683e-06 -0.000186791
0.00248212 -0.000875393 2.56096e-06
-0.000875393 0.000108027 -2.04075e-06
2.56096e-06 -2.04075e-06 -3.7291e-05
0.00148119 -0.000679216 2.83494e-05
-0.000679216 0.000472155 -5.25206e-05
2.83494e-05 -5.25206e-05 2.68415e-05
0.0017021 -0.000618719 1.42831e-05
-0.000618719 0.000820356 -5.59807e-05
1.42831e-05 -5.59807e-05 0.000150236
0.00129151 -0.000251379 1.10986e-05
-0.000251379 0.000580293 7.78486e-06
1.10986e-05 7.78486e-06 0.000164394
0.000430848 5.64757e-06 3.29661e-06
5.64757e-06 5.9732e-06 4.06683e-06
3.29661e-06 4.06683e-06 -6.8384e-05
0.0013829 -0.00027593 4.40803e-06
-0.00027593 0.000686687 1.46344e-05
4.40803e-06 1.46344e-05 0.000335493
0.00100265 -4.33731e-05 6.9114e-06
-4.33731e-05 0.000481153 1.52993e-06
6.9114e-06 1.52993e-06 0.000304848
0.00049476 -0.00010617 4.52544e-06
-0.00010617 0.000138299 7.22912e-07
4.52544e-06 7.22912e-07 -0.000136869
-0.000264489 -2.0323e-05 -4.56278e-06
-2.0323e-05 -0.000425551 3.12855e-06
-4.56278e-06 3.12855e-06 -0.000530743
0.00245683 -0.000197073 -3.20303e-07
-0.000197073 -0.000255493 2.75147e-07
-3.20303e-07 2.75147e-07 -5.72882e-05
0.000372291 5.1136e-05 7.29098e-07
5.1136e-05 1.19039e-05 -2.79422e-06
7.29098e-07 -2.79422e-06 -0.000113576
0.000612909 -8.69909e-05 3.15624e-06
-8.69909e-05 0.000188876 1.56426e-06
3.15624e-06 1.56426e-06 5.84322e-05
0.00106466 -0.000142677 6.74867e-06
-0.000142677 0.000404782 -1.06445e-06
6.74867e-06 -1.06445e-06 0.000269119
0.00252876 -0.000574294 2.21155e-06
-0.000574294 -0.000243207 -6.83658e-07
2.21155e-06 -6.83658e-07 -2.24137e-05
0.00271801 -0.000887579 -3.51808e-07
-0.000887579 7.19193e-05 1.82191e-07
-3.51808e-07 1.82191e-07 3.97714e-05
0.000725617 -0.000737457 6.96181e-06
-0.000737457 1.73327e-05 -2.10679e-07
6.96181e-06 -2.10679e-07 -0.000484575
0.00271003 -0.00131131 1.65158e-05
-0.00131131 0.000722547 1.37692e-06
1.65158e-05 1.37692e-06 7.02262e-05
0.00263578 -0.00112033 2.9197e-08
-0.00112033 0.000321297 1.36371e-06
2.9197e-08 1.36371e-06 6.79265e-06
0.000187746 -1.67368e-05 -4.18127e-07
-1.67368e-05 -9.38389e-05 -2.74221e-09
-4.18127e-07 -2.74221e-09 -0.000286072
0.001368 -0.000228895 2.61636e-06
-0.000228895 0.000726082 3.94437e-06
2.61636e-06 3.94437e-06 0.000374309
0.00218187 -0.00105655 -1.37119e-06
-0.00105655 0.000824156 4.56334e-06
-1.37119e-06 4.56334e-06 0.000276309
0.00139823 -0.000392749 -6.68019e-07
-0.000392749 0.000825724 7.6063e-06
-6.68019e-07 7.6063e-06 0.000117388
0.0016085 -0.000215743 5.33957e-06
-0.000215743 0.000763316 1.0391e-05
5.33957e-06 1.0391e-05 0.000452168
0.00287241 -0.000398932 -1.31633e-05
-0.000398932 -6.28582e-05 1.2444e-05
-1.31633e-05 1.2444e-05 0.000180406
0.00227417 -0.000649136 -1.32225e-05
-0.000649136 -0.000375828 5.92578e-06
-1.32225e-05 5.92578e-06 -7.3228e-05
0.0026084 -0.00105182 -1.42989e-05
-0.00105182 0.000163229 -3.59564e-06
-1.42989e-05 -3.59564e-06 -5.77947e-05
0.00456336 -0.00151181 3.11681e-06
-0.00151181 0.0015824 7.78224e-06
3.11681e-06 7.78224e-06 0.0010896
-3.96886e-05 -0.000857555 -1.16751e-05
-0.000857555 -0.000527128 1.57079e-05
-1.16751e-05 1.57079e-05 -0.00103674
-1.80076e-05 -2.28958e-05 -1.54069e-06
-2.28958e-05 -0.000240533 -3.3132e-07
-1.54069e-06 -3.3132e-07 -0.000366234
0.000945095 6.0491e-06 -3.26552e-06
6.0491e-06 0.000284358 1.20351e-05
-3.26552e-06 1.20351e-05 0.000140819
-0.000458917 -0.000199206 -1.16661e-05
-0.000199206 -0.000534061 -4.23229e-06
-1.16661e-05 -4.23229e-06 -0.000676193
0.00189492 -0.000323334 -4.26307e-05
-0.000323334 0.000997862 3.17154e-05
-4.26307e-05 3.17154e-05 0.000706312
0.000809104 -0.000170884 -6.19606e-06
-0.000170884 0.000330123 2.62848e-05
-6.19606e-06 2.62848e-05 2.91633e-05
-0.00167654 -8.68892e-05 7.38566e-06
-8.68892e-05 -0.000667647 3.91878e-06
7.38566e-06 3.91878e-06 -0.00144267
0.00127173 -0.00111797 -9.72657e-06
-0.00111797 0.000629601 -8.24416e-06
-9.72657e-06 -8.24416e-06 -0.000144947
0.00199047 0.000482648 1.66035e-06
0.000482648 0.00116113 -2.55069e-06
1.66035e-06 -2.55069e-06 0.000859329
0.000268342 0.000284276 -2.54218e-06
0.000284276 8.96578e-05 -6.05709e-07
-2.54218e-06 -6.05709e-07 -0.000244047
0.00256305 0.000390601 1.2701e-05
0.000390601 -0.000198895 6.63753e-06
1.2701e-05 6.63753e-06 -3.32859e-05
0.00291129 0.000737436 1.55984e-05
0.000737436 0.000251589 1.04742e-05
1.55984e-05 1.04742e-05 0.000253801
0.00256073 0.000993571 6.64418e-06
0.000993571 0.000385934 3.8971e-06
6.64418e-06 3.8971e-06 -3.57021e-05
0.00142828 0.000661056 -1.98605e-06
0.000661056 0.000383025 2.98314e-06
-1.98605e-06 2.98314e-06 -8.0635e-05
0.00188944 0.000980616 1.83027e-06
0.000980616 0.000405717 4.20253e-06
1.83027e-06 4.20253e-06 -0.000174221
0.00250526 0.000467336 -1.5394e-07
0.000467336 0.0015192 8.13666e-07
-1.5394e-07 8.13666e-07 0.00122315
0.00303917 0.000572486 1.24314e-05
0.000572486 7.6235e-05 5.13672e-06
1.24314e-05 5.13672e-06 0.000405441
0.00108842 0.00050761 -6.28321e-06
0.00050761 0.000462969 5.40865e-06
-6.28321e-06 5.40865e-06 6.64964e-05
0.00173736 0.000825556 2.8473e-06
0.000825556 0.000525707 -2.37216e-06
2.8473e-06 -2.37216e-06 -3.60625e-05
0.00294161 0.00101335 -1.80714e-06
0.00101335 0.000469365 -4.09813e-06
-1.80714e-06 -4.09813e-06 0.000232219
0.00208435 0.00104479 -6.69415e-06
0.00104479 0.00046907 7.12347e-06
-6.69415e-06 7.12347e-06 -0.000100858
0.00307419 0.00171472 5.81021e-05
0.00171472 -0.00155712 1.26727e-05
5.81021e-05 1.26727e-05 -0.000793339
0.000513513 0.000348284 1.21998e-06
0.000348284 0.000404404 7.65872e-07
1.21998e-06 7.65872e-07 4.81348e-05
0.00441872 0.00118826 -0.000120909
0.00118826 0.000904859 -5.05549e-05
-0.000120909 -5.05549e-05 0.000907325
9.04147e-05 0.000471805 -1.95167e-05
0.000471805 -0.000355148 5.72532e-06
-1.95167e-05 5.72532e-06 -0.000763689
0.000154229 0.000696298 -7.09193e-06
0.000696298 -0.00043284 -2.08841e-05
-7.09193e-06 -2.08841e-05 -0.000943167
0.00174687 0.0011434 -4.80707e-05
0.0011434 1.87521e-05 -2.15351e-05
-4.80707e-05 -2.15351e-05 -0.000370817
0.0157862 0.000799468 -0.000739329
0.000799468 0.001333 -0.000104704
-0.000739329 -0.000104704 0.00159175
0.00251814 0.00252859 -0.000109796
0.00252859 -0.003911 -0.000100797
-0.000109796 -0.000100797 -0.00112476
0.00147711 0.00207545 1.71074e-05
0.00207545 -0.000740907 -4.61221e-06
1.71074e-05 -4.61221e-06 -0.00089921
0.00440029 -0.00418011 0.0026279
-0.00418011 0.00259215 0.000301767
0.0026279 0.000301767 -0.00292751
0.0297856 -0.0136105 -4.94617e-05
-0.0136105 0.0155812 6.40013e-05
-4.94617e-05 6.40013e-05 0.00761373
0.00095997 0.000191109 6.75406e-06
0.000191109 0.000500238 1.00827e-05
6.75406e-06 1.00827e-05 0.000379873
0.000918564 0.000149188 -2.34799e-06
0.000149188 0.000479143 -1.05185e-06
-2.34799e-06 -1.05185e-06 0.000363994
0.000545135 0.000195965 9.37492e-06
0.000195965 0.000265282 -3.78361e-06
9.37492e-06 -3.78361e-06 0.000115821
0.000507485 -6.11464e-05 1.1123e-06
-6.11464e-05 0.000115585 -2.73207e-06
1.1123e-06 -2.73207e-06 -3.90084e-05
0.000416358 7.64118e-05 7.20798e-07
7.64118e-05 5.79382e-05 -3.77558e-06
7.20798e-07 -3.77558e-06 -0.000112555
0.000528485 -1.17135e-05 2.78501e-08
-1.17135e-05 0.000166471 -8.71452e-07
2.78501e-08 -8.71452e-07 -2.24602e-05
0.00111274 0.000121934 1.77218e-06
0.000121934 0.000475434 1.38031e-05
1.77218e-06 1.38031e-05 0.000354749
0.000371602 0.000121965 2.75251e-06
0.000121965 -8.71966e-06 1.45212e-05
2.75251e-06 1.45212e-05 -4.7695e-05
0.000793024 0.000175931 -1.1659e-06
0.000175931 0.00037113 7.63606e-08
-1.1659e-06 7.63606e-08 0.000145806
0.000394806 -2.21303e-05 2.70093e-07
-2.21303e-05 1.55767e-05 1.09456e-06
2.70093e-07 1.09456e-06 -0.000130643
0.000704205 7.16922e-05 -9.13371e-07
7.16922e-05 0.00024416 2.28006e-07
-9.13371e-07 2.28006e-07 5.44335e-05
0.000375555 0.000118771 -3.10418e-06
0.000118771 4.11529e-05 -3.91127e-06
-3.10418e-06 -3.91127e-06 -3.10791e-05
0.000725776 0.000139432 -1.36677e-06
0.000139432 0.000242128 -3.37966e-07
-1.36677e-06 -3.37966e-07 9.06784e-05
0.00229119 0.000293873 -1.56075e-06
0.000293873 0.00128179 -2.83036e-06
-1.56075e-06 -2.83036e-06 0.00106166
5.99922e-05 9.39304e-05 -7.92743e-07
9.39304e-05 -2.99709e-05 -1.08651e-05
-7.92743e-07 -1.08651e-05 -0.000230157
0.000918946 0.000107255 3.1552e-06
0.000107255 0.00043218 -1.43045e-06
3.1552e-06 -1.43045e-06 0.000229406
8.43544e-05 1.24629e-05 -1.16419e-06
1.24629e-05 -0.000185058 -1.52969e-06
-1.16419e-06 -1.52969e-06 -0.000361119
0.00028277 -7.39651e-05 -7.28746e-07
-7.39651e-05 -5.32212e-05 -2.6673e-07
-7.28746e-07 -2.6673e-07 -0.000198359
0.000310242 -2.39993e-05 -2.39092e-07
-2.39993e-05 -1.21737e-05 -3.47801e-06
-2.39092e-07 -3.47801e-06 -0.000183794
0.00127905 -6.31622e-05 2.65076e-06
-6.31622e-05 0.000606441 -8.87467e-06
2.65076e-06 -8.87467e-06 0.000431939
0.000938505 -7.78996e-05 -2.16433e-06
-7.78996e-05 0.000454599 -8.27752e-07
-2.16433e-06 -8.27752e-07 0.000256077
0.000796733 -9.81263e-05 2.23239e-06
-9.81263e-05 0.000337888 -6.01269e-07
2.23239e-06 -6.01269e-07 0.000135599
0.000555503 -0.000131067 -1.57669e-06
-0.000131067 0.000139829 4.45032e-06
-1.57669e-06 4.45032e-06 -1.34692e-05
0.000142546 -2.95016e-05 3.17885e-08
-2.95016e-05 -0.000138236 1.12001e-06
3.17885e-08 1.12001e-06 -0.000287038
0.000472679 -7.05106e-05 -1.43208e-06
-7.05106e-05 4.41636e-05 3.86045e-06
-1.43208e-06 3.86045e-06 -4.48448e-05
0.000473529 -4.73136e-05 2.13623e-06
-4.73136e-05 5.25612e-05 1.38703e-07
2.13623e-06 1.38703e-07 -4.15699e-05
0.000371883 2.19938e-07 3.99683e-06
2.19938e-07 -3.63206e-05 6.82753e-06
3.99683e-06 6.82753e-06 -6.69255e-05
0.000459691 6.38266e-05 -1.24029e-06
6.38266e-05 3.58587e-05 -3.47094e-06
-1.24029e-06 -3.47094e-06 -5.31231e-05
0.000359171 3.06146e-05 5.41773e-07
3.06146e-05 -4.82968e-05 1.20282e-07
5.41773e-07 1.20282e-07 -7.71812e-05
0.00259296 1.08511e-05 1.35385e-05
1.08511e-05 0.0013706 5.64106e-06
1.35385e-05 5.64106e-06 0.00138208
0.000394756 6.02712e-05 -4.77142e-06
6.02712e-05 -2.44255e-05 -8.23086e-06
-4.77142e-06 -8.23086e-06 -5.69052e-05
0.00168896 -1.38637e-06 -8.4856e-06
-1.38637e-06 0.000786329 1.48844e-07
-8.4856e-06 1.48844e-07 0.000792924
0.00080898 -9.05948e-06 1.04971e-06
-9.05948e-06 0.000211558 -2.55149e-06
1.04971e-06 -2.55149e-06 0.000213635
0.000376742 2.02962e-05 -1.4473e-06
2.02962e-05 -3.91892e-05 -3.53503e-06
-1.4473e-06 -3.53503e-06 -8.78768e-05
0.000472616 -4.16435e-05 6.65967e-07
-4.16435e-05 3.49832e-05 1.16272e-07
6.65967e-07 1.16272e-07 -2.83998e-05
0.00047666 7.74415e-06 1.16041e-06
7.74415e-06 -3.0913e-06 -4.33559e-06
1.16041e-06 -4.33559e-06 -1.808e-05
0.000471126 -5.3171e-05 -3.07005e-07
-5.3171e-05 3.04559e-05 2.01987e-06
-3.07005e-07 2.01987e-06 -3.77334e-05
0.000805323 2.79568e-05 8.11767e-08
2.79568e-05 0.000214659 -8.82999e-07
8.11767e-08 -8.82999e-07 0.000196512
0.00216266 6.25718e-05 1.31956e-06
6.25718e-05 0.0010967 -5.29798e-06
1.31956e-06 -5.29798e-06 0.00110672
0.000434811 3.31496e-05 1.2886e-06
3.31496e-05 -1.71808e-05 6.14774e-06
1.2886e-06 6.14774e-06 -4.58242e-05
0.00261835 9.6869e-05 -3.00368e-06
9.6869e-05 0.00140304 1.51133e-06
-3.00368e-06 1.51133e-06 0.00140474
0.00287633 0.000132839 1.8111e-05
0.000132839 0.00158079 8.9792e-06
1.8111e-05 8.9792e-06 0.00157405
0.00248211 0.000186047 4.61168e-06
0.000186047 -0.000129742 -9.73648e-07
4.61168e-06 -9.73648e-07 6.20411e-06
0.00226411 -1.63505e-06 2.66082e-06
-1.63505e-06 -0.000144309 -1.74367e-07
2.66082e-06 -1.74367e-07 -1.57295e-05
0.00253399 9.30792e-05 8.9785e-06
9.30792e-05 -0.00014132 5.37782e-06
8.9785e-06 5.37782e-06 -1.64192e-05
0.00273972 0.00107 0.000127489
0.00107 -0.00230281 3.47597e-05
0.000127489 3.47597e-05 -0.000925416
0.00262124 -1.60169e-05 -2.72532e-06
-1.60169e-05 -0.000153335 -1.66543e-06
-2.72532e-06 -1.66543e-06 3.67824e-05
0.00261805 9.89166e-05 -5.6566e-06
9.89166e-05 4.43547e-05 -5.32921e-06
-5.6566e-06 -5.32921e-06 0.000275308
0.0025246 -4.95046e-05 -4.41256e-05
-4.95046e-05 4.51353e-05 -3.73699e-06
-4.41256e-05 -3.73699e-06 0.000181008
0.00325779 0.000680052 -9.5839e-05
0.000680052 -0.00259235 -4.00454e-05
-9.5839e-05 -4.00454e-05 -0.000796192
0.00280757 0.000333185 0.000157295
0.000333185 -0.00125553 7.19295e-05
0.000157295 7.19295e-05 -0.000464273
0.000543596 9.4425e-05 -2.86382e-07
9.4425e-05 0.000120457 -3.42217e-06
-2.86382e-07 -3.42217e-06 9.71513e-06
0.00056131 -6.10526e-06 -4.55163e-07
-6.10526e-06 0.000141822 -1.86645e-07
-4.55163e-07 -1.86645e-07 1.92889e-05
0.000293134 -0.000102821 -7.59188e-06
-0.000102821 -3.03944e-05 4.64189e-07
-7.59188e-06 4.64189e-07 -0.000159116
0.000320244 -6.71787e-05 -4.49121e-06
-6.71787e-05 3.21954e-06 2.33878e-07
-4.49121e-06 2.33878e-07 -0.000130632
0.00255618 -0.000217148 1.57582e-06
-0.000217148 -0.000205891 -5.64017e-06
1.57582e-06 -5.64017e-06 6.62533e-06
0.00251523 -0.000581743 -2.48993e-07
-0.000581743 -0.000224274 5.76819e-09
-2.48993e-07 5.76819e-09 -4.43145e-05
0.00253938 -0.000867059 8.15829e-07
-0.000867059 -2.3309e-05 2.48023e-07
8.15829e-07 2.48023e-07 -5.00786e-05
0.00415167 -0.00115681 2.46154e-05
-0.00115681 0.00196944 1.7404e-06
2.46154e-05 1.7404e-06 0.00138088
0.00144963 -0.00119072 -8.46054e-06
-0.00119072 -2.20909e-05 3.83659e-08
-8.46054e-06 3.83659e-08 -0.000639826
0.00249569 -0.00111828 -1.1048e-06
-0.00111828 0.000252476 -5.53499e-06
-1.1048e-06 -5.53499e-06 -7.07344e-05
-0.000610918 -0.000712943 2.44754e-06
-0.000712943 -0.000704938 -2.27318e-05
2.44754e-06 -2.27318e-05 -0.00132671
0.00418146 -0.000568272 1.59692e-05
-0.000568272 0.00220807 -1.16819e-05
1.59692e-05 -1.16819e-05 0.0017267
-0.000338091 -0.000105644 2.78091e-06
-0.000105644 -0.000460585 1.13728e-05
2.78091e-06 1.13728e-05 -0.000759347
0.000649029 -8.06827e-05 3.73228e-06
-8.06827e-05 0.000210466 2.19282e-06
3.73228e-06 2.19282e-06 7.82387e-05
0.000399406 -0.000131772 -6.986e-06
-0.000131772 0.000130653 -9.13876e-06
-6.986e-06 -9.13876e-06 -0.000222945
0.000666236 -6.41334e-05 4.94276e-06
-6.41334e-05 0.000215991 2.41342e-06
4.94276e-06 2.41342e-06 2.10113e-05
0.000533313 -1.5419e-06 1.19138e-06
-1.5419e-06 0.000136612 4.97299e-06
1.19138e-06 4.97299e-06 1.25915e-06
0.000426656 -7.37785e-05 -1.00291e-05
-7.37785e-05 -1.48944e-05 8.45449e-06
-1.00291e-05 8.45449e-06 -0.000128437
0.0027511 -0.00037242 2.56528e-06
-0.00037242 -0.000126342 1.07172e-06
2.56528e-06 1.07172e-06 0.000135086
0.000405787 -3.9141e-05 -4.21119e-07
-3.9141e-05 4.94493e-05 3.63738e-06
-4.21119e-07 3.63738e-06 -9.52061e-05
0.000792024 -7.96272e-05 8.71589e-06
-7.96272e-05 0.000196243 -2.00454e-06
8.71589e-06 -2.00454e-06 5.45328e-05
-0.000935642 -8.02757e-05 1.20937e-05
-8.02757e-05 -0.000766103 -5.26745e-07
1.20937e-05 -5.26745e-07 -0.000864294
0.00228815 -0.000672669 4.11767e-07
-0.000672669 -0.000381191 -9.17122e-07
4.11767e-07 -9.17122e-07 -0.000112447
0.0025751 -0.00105643 2.54362e-06
-0.00105643 0.000136931 -1.41956e-06
2.54362e-06 -1.41956e-06 -8.50355e-05
0.00189719 -0.00117132 -1.43581e-05
-0.00117132 0.000544788 1.12376e-06
-1.43581e-05 1.12376e-06 -3.78982e-05
0.00325336 -0.00138364 -4.37638e-06
-0.00138364 0.000849943 -6.55612e-08
-4.37638e-06 -6.55612e-08 0.000375655
0.00181795 -0.000221822 1.2654e-05
-0.000221822 0.000980765 -7.39701e-06
1.2654e-05 -7.39701e-06 0.000669209
-0.00111544 -3.45496e-05 8.95601e-06
-3.45496e-05 -0.000868811 7.91413e-06
8.95601e-06 7.91413e-06 -0.00119173
0.00122879 -0.00121719 -5.69816e-07
-0.00121719 0.000720586 -1.09652e-06
-5.69816e-07 -1.09652e-06 -0.000147531
0.0019014 -0.000551563 -1.17923e-05
-0.000551563 0.00103426 -2.22375e-06
-1.17923e-05 -2.22375e-06 0.000449707
0.00390575 -0.00056001 -5.54558e-05
-0.00056001 0.000562753 2.00745e-05
-5.54558e-05 2.00745e-05 0.00088122
0.00278935 -0.000883699 -3.63343e-05
-0.000883699 0.000128508 1.54352e-05
-3.63343e-05 1.54352e-05 0.000213535
0.00292944 -0.00122297 -5.19873e-06
-0.00122297 0.000604775 -1.69608e-05
-5.19873e-06 -1.69608e-05 0.000166991
0.00273138 -0.0013574 1.79941e-05
-0.0013574 0.000782976 3.8774e-05
1.79941e-05 3.8774e-05 0.00034329
9.27125e-05 -0.000161689 -8.02608e-06
-0.000161689 1.23035e-05 -1.36352e-05
-8.02608e-06 -1.36352e-05 -0.00017602
0.000651228 -0.000236354 -1.83039e-05
-0.000236354 0.000196513 -8.24857e-06
-1.83039e-05 -8.24857e-06 -9.13099e-05
0.000488096 -0.000280197 -1.49665e-05
-0.000280197 0.000411539 7.77111e-05
-1.49665e-05 7.77111e-05 2.05014e-05
-0.000163075 -0.0010204 2.52527e-07
-0.0010204 0.000604418 -4.21865e-05
2.52527e-07 -4.21865e-05 -0.000574626
0.00513182 -0.000469053 7.79903e-05
-0.000469053 -0.00623184 6.58856e-06
7.79903e-05 6.58856e-06 -0.00651735
0.00229999 0.000361874 1.21986e-05
0.000361874 0.00138939 -4.62182e-06
1.21986e-05 -4.62182e-06 0.00110115
0.000543962 0.000397429 1.51682e-06
0.000397429 0.000122561 -2.68158e-06
1.51682e-06 -2.68158e-06 -0.000238152
0.00183925 0.000449367 5.85872e-05
0.000449367 -0.000631817 2.81195e-05
5.85872e-05 2.81195e-05 -0.000228464
0.0024726 0.000949239 2.72704e-05
0.000949239 0.000244283 1.2983e-05
2.72704e-05 1.2983e-05 4.65466e-05
0.00295583 0.00116256 1.44733e-05
0.00116256 0.00095205 1.49362e-05
1.44733e-05 1.49362e-05 0.000352018
0.00193201 0.000862555 1.6496e-05
0.000862555 0.000670979 1.18543e-05
1.6496e-05 1.18543e-05 8.73142e-05
0.00499783 0.00213304 9.75553e-05
0.00213304 -0.000944242 3.75654e-05
9.75553e-05 3.75654e-05 -0.000397561
0.00093806 0.000337932 3.65076e-06
0.000337932 0.000614795 -4.33348e-06
3.65076e-06 -4.33348e-06 0.000294118
0.00296609 0.00101901 -6.26037e-06
0.00101901 8.55405e-05 4.06056e-06
-6.26037e-06 4.06056e-06 0.000191449
0.00102169 0.000594864 -7.81346e-06
0.000594864 0.000257256 6.58054e-06
-7.81346e-06 6.58054e-06 -0.000194946
0.00179206 0.000943042 1.43777e-06
0.000943042 0.000498464 -9.05285e-06
1.43777e-06 -9.05285e-06 -6.78535e-05
0.00278878 0.00122852 -1.41933e-05
0.00122852 0.000601758 -2.84835e-07
-1.41933e-05 -2.84835e-07 0.0001729
0.00534342 -0.000366466 -0.000214383
-0.000366466 -0.00635531 -0.000148845
-0.000214383 -0.000148845 -0.00662186
0.00679273 0.00280984 -0.000191125
0.00280984 -0.00138836 -8.17675e-05
-0.000191125 -8.17675e-05 0.000823906
0.00143812 0.00198852 -5.39233e-06
0.00198852 -0.000707012 2.22234e-06
-5.39233e-06 2.22234e-06 -0.000959466
0.00611968 -0.00359246 0.000819422
-0.00359246 0.00462552 0.00027299
0.000819422 0.00027299 0.000466399
0.0237984 -0.0146753 -0.000618707
-0.0146753 0.0142695 -0.000551034
-0.000618707 -0.000551034 0.00602745
5.91523e-05 0.000269249 -9.87465e-06
0.000269249 -0.000102269 -2.69658e-06
-9.87465e-06 -2.69658e-06 -0.00037691
0.00241071 0.00014943 0.00135297
0.00014943 0.004818 8.40811e-05
0.00135297 8.40811e-05 0.00251342
0.00780666 -0.00633212 -6.52401e-05
-0.00633212 0.0093232 -0.000200707
-6.52401e-05 -0.000200707 0.000753747
0.00381881 0.00169241 -8.77033e-05
0.00169241 0.00076427 -3.03172e-05
-8.77033e-05 -3.03172e-05 0.00043605
0.000608209 0.0005329 -3.46309e-05
0.0005329 -4.86899e-05 -7.66336e-06
-3.46309e-05 -7.66336e-06 -0.00044834
0.00147053 0.00095935 -5.02111e-05
0.00095935 0.000338736 -3.89206e-05
-5.02111e-05 -3.89206e-05 -0.000154899
2.01162e-05 0.00188235 0.000135956
0.00188235 -0.00101049 0.000124316
0.000135956 0.000124316 -0.00133608
0.0150589 0.00396666 0.000155676
0.00396666 0.000383857 -5.47757e-06
0.000155676 -5.47757e-06 0.00109724
0.00658082 0.00427863 -0.000105653
0.00427863 -0.000611111 -0.000102149
-0.000105653 -0.000102149 0.00113002
0.0222585 -0.00839166 0.00139259
-0.00839166 0.00909424 0.000441605
0.00139259 0.000441605 0.00184575
0.0173677 -0.00332311 -0.000288115
-0.00332311 0.00759548 0.000744192
-0.000288115 0.000744192 0.00372858
0.00055313 0.000121929 1.71943e-06
0.000121929 0.000293292 6.50231e-06
1.71943e-06 6.50231e-06 0.000164216
0.000332869 0.000191572 4.45267e-06
0.000191572 0.000171928 3.19319e-07
4.45267e-06 3.19319e-07 1.03829e-05
0.000786844 0.000252672 4.4246e-06
0.000252672 0.000498004 -5.28703e-06
4.4246e-06 -5.28703e-06 0.000239744
0.000602158 -2.07098e-06 2.44989e-06
-2.07098e-06 0.000177797 1.24787e-06
2.44989e-06 1.24787e-06 1.16187e-05
0.000612905 8.33607e-05 1.52266e-06
8.33607e-05 0.000173484 -1.24054e-06
1.52266e-06 -1.24054e-06 -7.05998e-06
-0.000235605 3.33623e-05 -7.18984e-07
3.33623e-05 -0.000317576 2.87537e-06
-7.18984e-07 2.87537e-06 -0.000507865
0.000907495 0.000147463 -3.7576e-06
0.000147463 0.000384163 6.57181e-06
-3.7576e-06 6.57181e-06 0.000223436
-0.000195302 8.56314e-05 -4.23733e-06
8.56314e-05 -0.000338535 8.11663e-06
-4.23733e-06 8.11663e-06 -0.000398664
0.000322869 -1.04475e-05 -5.18463e-07
-1.04475e-05 -2.25784e-05 6.66972e-07
-5.18463e-07 6.66972e-07 -0.000173661
0.00148918 0.000189427 3.26018e-06
0.000189427 0.000749078 1.26124e-06
3.26018e-06 1.26124e-06 0.000546067
0.000381419 6.57991e-05 -7.68117e-07
6.57991e-05 9.83471e-05 -9.73945e-07
-7.68117e-07 -9.73945e-07 -0.000113521
0.000770529 4.68696e-05 1.64951e-06
4.68696e-05 0.000298749 9.23165e-08
1.64951e-06 9.23165e-08 9.31588e-05
-3.4311e-05 8.36602e-05 -9.97321e-07
8.36602e-05 -9.0068e-05 -3.6892e-06
-9.97321e-07 -3.6892e-06 -0.000291999
0.00153128 0.000168097 -1.82756e-06
0.000168097 0.000811522 -7.81489e-06
-1.82756e-06 -7.81489e-06 0.000625862
-0.00050212 6.34302e-05 -4.90868e-06
6.34302e-05 -0.000166342 -5.967e-06
-4.90868e-06 -5.967e-06 -0.000513343
8.92111e-05 -3.58016e-05 -2.01601e-07
-3.58016e-05 -0.000121931 1.08111e-06
-2.01601e-07 1.08111e-06 -0.000320055
0.000699841 -7.90514e-05 -3.95813e-06
-7.90514e-05 0.000260643 -2.17942e-06
-3.95813e-06 -2.17942e-06 6.11855e-05
0.000785804 -6.40452e-05 -4.81212e-07
-6.40452e-05 0.000322088 -1.6532e-06
-4.81212e-07 -1.6532e-06 0.000126826
0.000631965 -6.91263e-05 -4.68325e-06
-6.91263e-05 0.000182737 1.78807e-06
-4.68325e-06 1.78807e-06 2.79855e-05
0.00095057 1.98767e-05 -8.37698e-06
1.98767e-05 0.00047937 -6.5255e-06
-8.37698e-06 -6.5255e-06 0.000268615
0.000971915 -0.000142795 5.40486e-06
-0.000142795 0.000368152 -1.14897e-05
5.40486e-06 -1.14897e-05 0.000234533
-0.000402429 -3.29417e-05 -4.31232e-06
-3.29417e-05 -0.000426185 -6.30034e-06
-4.31232e-06 -6.30034e-06 -0.000567581
-0.000307703 -2.58501e-05 2.02349e-06
-2.58501e-05 -0.000276939 -6.40966e-06
2.02349e-06 -6.40966e-06 -0.000514032
7.25245e-05 -7.04148e-05 8.22356e-07
-7.04148e-05 -0.000143156 4.90806e-07
8.22356e-07 4.90806e-07 -0.000298793
0.000848625 -0.000149287 -1.2505e-06
-0.000149287 0.000374687 1.05498e-06
-1.2505e-06 1.05498e-06 0.000191283
0.000372054 -8.94891e-05 -7.9645e-08
-8.94891e-05 2.85159e-06 3.87579e-06
-7.9645e-08 3.87579e-06 -0.000138086
0.000370776 -0.000105531 3.77895e-06
-0.000105531 2.123e-05 -6.93526e-07
3.77895e-06 -6.93526e-07 -0.000146186
0.000550282 -0.00013396 8.55781e-08
-0.00013396 0.000134529 2.27034e-07
8.55781e-08 2.27034e-07 -2.08945e-05
0.00050061 -6.97032e-05 -1.54291e-06
-6.97032e-05 6.10514e-05 5.33479e-06
-1.54291e-06 5.33479e-06 -3.06297e-05
0.000286818 1.17024e-06 2.69631e-07
1.17024e-06 -2.51368e-05 -3.96138e-07
2.69631e-07 -3.96138e-07 -0.000189021
0.000450517 7.82777e-07 2.62932e-06
7.82777e-07 3.9522e-05 1.28739e-07
2.62932e-06 1.28739e-07 -5.54715e-05
0.00141312 -4.12298e-05 -1.40665e-05
-4.12298e-05 0.00062277 7.3278e-06
-1.40665e-05 7.3278e-06 0.000598478
0.000434747 8.14385e-05 -2.42128e-06
8.14385e-05 2.83802e-05 -3.04533e-06
-2.42128e-06 -3.04533e-06 -6.49557e-05
0.00081999 -2.71483e-05 -5.51116e-06
-2.71483e-05 0.000250798 7.57533e-07
-5.51116e-06 7.57533e-07 0.000222465
0.000821019 8.28955e-07 -7.14081e-06
8.28955e-07 0.000230357 4.78931e-06
-7.14081e-06 4.78931e-06 0.00023405
0.000319151 -3.79402e-05 5.48466e-06
-3.79402e-05 -7.39207e-05 -5.41817e-06
5.48466e-06 -5.41817e-06 -0.000102349
0.00260884 4.21352e-06 1.18029e-05
4.21352e-06 0.00138125 2.73528e-08
1.18029e-05 2.73528e-08 0.00139258
0.000848298 6.23938e-06 -1.37601e-05
6.23938e-06 0.000248312 -5.65764e-06
-1.37601e-05 -5.65764e-06 0.000250444
0.000552686 8.14277e-05 1.81275e-06
8.14277e-05 0.000136009 -1.27735e-06
1.81275e-06 -1.27735e-06 1.54309e-05
0.000411655 6.31276e-05 -3.08372e-06
6.31276e-05 -1.37137e-06 -3.93567e-06
-3.08372e-06 -3.93567e-06 -5.7585e-05
0.000443282 2.38379e-06 1.37298e-06
2.38379e-06 1.80598e-05 2.50465e-07
1.37298e-06 2.50465e-07 -3.9967e-05
0.000432992 1.01445e-05 9.30412e-07
1.01445e-05 -2.98571e-05 -4.00485e-06
9.30412e-07 -4.00485e-06 -4.29503e-05
0.00053562 -7.73117e-05 -1.33009e-06
-7.73117e-05 8.79904e-05 4.1406e-06
-1.33009e-06 4.1406e-06 1.73542e-05
0.000454988 1.05094e-05 2.90715e-07
1.05094e-05 -1.7268e-05 -7.54654e-07
2.90715e-07 -7.54654e-07 -3.23034e-05
0.00208764 4.33158e-05 5.89425e-07
4.33158e-05 0.00104301 -5.1789e-06
5.89425e-07 -5.1789e-06 0.00105645
0.00119043 4.27096e-05 1.57579e-06
4.27096e-05 0.000464951 2.97995e-06
1.57579e-06 2.97995e-06 0.000446884
0.0015246 5.27803e-05 -9.2388e-07
5.27803e-05 0.000686253 1.65785e-06
-9.2388e-07 1.65785e-06 0.000691033
0.000797159 5.51238e-05 3.60899e-06
5.51238e-05 0.0002242 1.10563e-05
3.60899e-06 1.10563e-05 0.000219264
0.000878397 0.000787077 8.9807e-05
0.000787077 -0.00316774 2.91803e-05
8.9807e-05 2.91803e-05 -0.00177337
0.00252811 -4.66206e-05 1.29388e-05
-4.66206e-05 -0.000198127 2.15485e-06
1.29388e-05 2.15485e-06 -1.1356e-05
0.00245048 8.54551e-05 4.93215e-05
8.54551e-05 -2.08474e-05 -1.28185e-05
4.93215e-05 -1.28185e-05 0.00014882
0.00396146 0.000741554 -9.01721e-05
0.000741554 -0.00263038 -4.78649e-05
-9.01721e-05 -4.78649e-05 -0.000111028
0.00330285 0.000120004 8.33332e-05
0.000120004 -0.000871564 -4.5789e-06
8.33332e-05 -4.5789e-06 -6.31083e-05
0.00284137 -6.67145e-05 -8.87734e-06
-6.67145e-05 0.000202573 -4.9588e-06
-8.87734e-06 -4.9588e-06 0.000361202
0.0050589 -0.000621683 -7.45184e-05
-0.000621683 0.000536091 -2.56062e-05
-7.45184e-05 -2.56062e-05 0.00115539
0.004918 -0.000760622 4.39591e-05
-0.000760622 -0.00109993 2.30553e-07
4.39591e-05 2.30553e-07 0.00065895
0.0205424 -0.0011632 0.000102729
-0.0011632 0.00267022 -8.04106e-05
0.000102729 -8.04106e-05 0.00246973
0.0197515 0.00892015 0.00217965
0.00892015 0.00809856 -0.000429402
0.00217965 -0.000429402 0.00228522
0.0301515 0.0104415 0.000163637
0.0104415 0.0195508 7.29848e-05
0.000163637 7.29848e-05 0.012448
9.04878e-06 -0.000110595 6.38851e-07
-0.000110595 -0.000192797 -2.94845e-06
6.38851e-07 -2.94845e-06 -0.000320838
0.000515887 -9.03355e-06 2.21032e-06
-9.03355e-06 0.000103312 4.90443e-08
2.21032e-06 4.90443e-08 -7.76557e-06
0.000599677 -9.66167e-05 -7.06885e-07
-9.66167e-05 0.000174358 6.29913e-06
-7.06885e-07 6.29913e-06 4.46287e-05
0.000533219 -4.63608e-05 2.21974e-06
-4.63608e-05 0.000114038 -8.82103e-08
2.21974e-06 -8.82103e-08 -1.03487e-05
0.00104683 0.000156975 -7.91177e-06
0.000156975 0.000535317 -3.93872e-06
-7.91177e-06 -3.93872e-06 0.000378094
0.000637627 0.000157439 -2.23627e-06
0.000157439 0.000191559 4.1066e-06
-2.23627e-06 4.1066e-06 4.46473e-05
0.000857437 2.25398e-05 1.45848e-06
2.25398e-05 0.000355738 7.29084e-07
1.45848e-06 7.29084e-07 0.000194385
0.000531727 -2.30986e-05 -1.50098e-06
-2.30986e-05 0.000123903 1.20083e-06
-1.50098e-06 1.20083e-06 -9.5951e-06
0.00271722 -0.000364902 1.50525e-05
-0.000364902 -0.000153799 -1.34019e-05
1.50525e-05 -1.34019e-05 0.000131815
0.00235208 -0.00070727 1.21532e-05
-0.00070727 -0.000369175 -5.437e-06
1.21532e-05 -5.437e-06 -0.000131852
0.00269816 -0.00106885 6.57647e-06
-0.00106885 0.000199778 4.93374e-06
6.57647e-06 4.93374e-06 -1.87073e-05
0.00284985 -0.00128318 7.9734e-06
-0.00128318 0.00101959 -4.15112e-06
7.9734e-06 -4.15112e-06 0.00044217
0.00273109 -0.00132045 -3.12292e-05
-0.00132045 0.000587601 -3.6245e-06
-3.12292e-05 -3.6245e-06 9.57778e-05
0.000837005 -0.00122457 2.47074e-05
-0.00122457 0.000508595 1.10006e-05
2.47074e-05 1.10006e-05 -0.000411549
0.00505948 -0.000919835 9.16754e-06
-0.000919835 0.00268205 4.86943e-06
9.16754e-06 4.86943e-06 0.00216539
0.00181664 -0.000431798 2.26472e-05
-0.000431798 0.00105429 -5.55568e-05
2.26472e-05 -5.55568e-05 0.000607368
0.000525956 -0.000125789 -2.2654e-06
-0.000125789 7.19074e-06 7.78846e-06
-2.2654e-06 7.78846e-06 -0.000108222
0.00113653 -0.000101825 1.71708e-05
-0.000101825 0.000514688 -2.04083e-05
1.71708e-05 -2.04083e-05 0.000220833
0.000881134 -6.87826e-05 5.6132e-06
-6.87826e-05 0.000354814 5.9434e-06
5.6132e-06 5.9434e-06 0.000198585
0.000524663 1.73232e-06 9.39022e-06
1.73232e-06 0.000176844 -1.20339e-06
9.39022e-06 -1.20339e-06 0.000130243
0.00265261 -0.000492453 3.67866e-07
-0.000492453 -0.000190139 3.75841e-06
3.67866e-07 3.75841e-06 0.000221772
0.000308039 -0.00010816 -5.95515e-06
-0.00010816 0.000114254 4.5558e-07
-5.95515e-06 4.5558e-07 -5.96676e-05
0.00146832 -0.000276618 -6.60668e-06
-0.000276618 0.000715695 6.30025e-06
-6.60668e-06 6.30025e-06 0.0004651
0.00181333 -0.000806516 8.63009e-06
-0.000806516 -0.000436294 -4.93704e-06
8.63009e-06 -4.93704e-06 -0.000289829
0.00246873 -0.00112603 1.97693e-06
-0.00112603 0.000364485 6.09753e-06
1.97693e-06 6.09753e-06 -4.91795e-06
0.00140075 -0.00117466 -2.73301e-06
-0.00117466 -1.40004e-05 -1.62694e-05
-2.73301e-06 -1.62694e-05 -0.000391606
0.00139751 -0.000423256 -3.13197e-06
-0.000423256 0.000881421 -3.40403e-05
-3.13197e-06 -3.40403e-05 0.000376805
0.00111874 -0.000807259 1.33892e-05
-0.000807259 0.00114445 2.07347e-06
1.33892e-05 2.07347e-06 0.000171806
0.00630793 -0.00117295 -5.43133e-05
-0.00117295 0.00162194 3.70242e-05
-5.43133e-05 3.70242e-05 0.00192391
0.00329381 -0.00118851 -4.24346e-05
-0.00118851 0.000792306 1.64002e-05
-4.24346e-05 1.64002e-05 0.000513482
0.00281642 -0.00136756 8.74978e-06
-0.00136756 0.0006799 1.98243e-05
8.74978e-06 1.98243e-05 0.000272588
0.000159997 -0.000760794 -9.67344e-06
-0.000760794 -0.00035132 2.9136e-05
-9.67344e-06 2.9136e-05 -0.000512496
0.000715258 -0.000204027 -1.70799e-08
-0.000204027 0.000437976 1.75319e-06
-1.70799e-08 1.75319e-06 0.000140739
0.000106576 -0.000200077 3.74264e-06
-0.000200077 0.000145112 5.08997e-06
3.74264e-06 5.08997e-06 -0.000226289
0.000843029 -0.000359881 -1.78812e-05
-0.000359881 0.000974879 -1.77344e-05
-1.78812e-05 -1.77344e-05 0.000162045
-0.00789409 -0.000634517 0.00092378
-0.000634517 -0.00314417 -4.44149e-05
0.00092378 -4.44149e-05 -0.00503225
0.0123533 -0.000514404 8.21124e-05
-0.000514404 -0.000639744 5.16275e-05
8.21124e-05 5.16275e-05 0.000420555
0.00261693 0.000436124 9.73654e-06
0.000436124 0.0015525 -9.85916e-06
9.73654e-06 -9.85916e-06 0.00127428
0.00211629 0.000738111 2.24943e-06
0.000738111 0.000970653 7.67626e-06
2.24943e-06 7.67626e-06 0.000468804
0.00154526 0.000816346 0.000108322
0.000816346 -0.000685268 5.63322e-05
0.000108322 5.63322e-05 -0.00050016
0.00394077 0.00133766 3.46431e-05
0.00133766 0.0012377 1.8389e-05
3.46431e-05 1.8389e-05 0.000766042
0.0031249 0.00114208 2.76118e-05
0.00114208 0.00124792 6.77439e-06
2.76118e-05 6.77439e-06 0.000639246
0.0184493 0.000888799 0.000104787
0.000888799 0.00194891 -0.000124889
0.000104787 -0.000124889 0.00209382
0.00868772 0.00344971 -0.000289689
0.00344971 -0.00198931 -3.52161e-05
-0.000289689 -3.52161e-05 0.000820876
0.00194918 0.00199241 4.6971e-07
0.00199241 -0.000325538 -3.73705e-05
4.6971e-07 -3.73705e-05 -0.000709106
0.0176179 -0.00698431 -0.000881775
-0.00698431 0.00793798 7.47541e-05
-0.000881775 7.47541e-05 0.00255336
0.0158898 -0.0161271 -0.00329867
-0.0161271 0.0130309 -0.00183756
-0.00329867 -0.00183756 0.00436252
0.000675058 0.000371153 6.5674e-06
0.000371153 0.000342958 -3.19204e-06
6.5674e-06 -3.19204e-06 2.1735e-05
0.000503021 -0.00417496 0.000843433
-0.00417496 -0.00159654 9.23367e-05
0.000843433 9.23367e-05 -0.00554365
0.00112737 -0.00500603 -0.000869512
-0.00500603 0.00984965 -0.000168918
-0.000869512 -0.000168918 0.00173306
0.00388436 0.00159807 -1.8857e-05
0.00159807 0.000744443 2.90744e-06
-1.8857e-05 2.90744e-06 0.000477226
0.000874113 0.000623838 -1.18244e-05
0.000623838 0.000171352 8.71936e-06
-1.18244e-05 8.71936e-06 -0.000280129
0.00193348 0.00110936 3.48701e-06
0.00110936 0.000588726 1.14986e-06
3.48701e-06 1.14986e-06 3.40689e-05
0.0020388 0.00190071 7.63998e-05
0.00190071 0.000393591 5.23668e-05
7.63998e-05 5.23668e-05 7.50746e-05
0.0142459 0.00430341 -0.000179884
0.00430341 -0.0010051 -0.000130598
-0.000179884 -0.000130598 -0.00150075
0.00297757 0.00395209 -1.26493e-05
0.00395209 -0.00152583 -4.62407e-05
-1.26493e-05 -4.62407e-05 0.000324634
0.0234852 -0.00712367 0.000787286
-0.00712367 0.0106719 -4.85914e-05
0.000787286 -4.85914e-05 0.00353856
0.023626 -0.0058523 -5.15243e-05
-0.0058523 0.00755851 0.00091264
-5.15243e-05 0.00091264 0.00217139
0.00121565 0.000441801 -1.50111e-05
0.000441801 0.00060467 -1.80066e-05
-1.50111e-05 -1.80066e-05 0.000310026
-0.00803463 0.001186 -4.92804e-05
0.001186 0.00559388 -0.000158727
-4.92804e-05 -0.000158727 -0.0029552
0.00708195 0.0017734 -0.000605482
0.0017734 0.00574631 -0.000613874
-0.000605482 -0.000613874 0.000282681
0.00286795 0.00121587 -4.93666e-05
0.00121587 0.000687059 -2.41583e-05
-4.93666e-05 -2.41583e-05 0.000549481
0.00291589 0.00116567 -8.99344e-05
0.00116567 0.00129999 -3.55069e-05
-8.99344e-05 -3.55069e-05 0.000763635
0.00243498 0.0014856 -0.000106439
0.0014856 0.00146403 -3.72511e-05
-0.000106439 -3.72511e-05 0.000619033
-0.00320925 0.00271617 5.31412e-05
0.00271617 -0.0010988 -2.72015e-05
5.31412e-05 -2.72015e-05 -0.00110987
0.00527881 0.0063059 0.000789446
0.0063059 -0.00181314 9.3949e-05
0.000789446 9.3949e-05 -0.00288221
0.0256298 -0.00897298 -0.000166541
-0.00897298 0.0143972 0.000954183
-0.000166541 0.000954183 0.00637431
0.00933864 0.000394114 -0.000207087
0.000394114 -0.00174858 -0.000213431
-0.000207087 -0.000213431 -0.00160272
0.000300685 0.000217963 -2.57909e-06
0.000217963 0.000187309 -2.00703e-07
-2.57909e-06 -2.00703e-07 3.49649e-07
0.00174021 0.000380203 6.3952e-06
0.000380203 0.00105498 1.75286e-06
6.3952e-06 1.75286e-06 0.000780391
-0.000555724 0.000146244 -6.56072e-06
0.000146244 -0.000295866 3.58636e-06
-6.56072e-06 3.58636e-06 -0.000529428
0.000357896 5.95025e-05 2.77911e-06
5.95025e-05 -1.01882e-06 2.32096e-06
2.77911e-06 2.32096e-06 -0.000153692
0.00113744 8.87838e-05 7.99901e-07
8.87838e-05 0.00055242 -6.97582e-09
7.99901e-07 -6.97582e-09 0.000336747
0.000502804 3.49319e-05 -2.1882e-06
3.49319e-05 0.000180126 2.92375e-06
-2.1882e-06 2.92375e-06 -4.50236e-05
0.000230688 0.000113628 8.17185e-06
0.000113628 -1.50229e-05 1.05495e-05
8.17185e-06 1.05495e-05 -0.00023286
-0.000656886 3.36041e-05 -5.10873e-06
3.36041e-05 -0.000467932 5.29486e-06
-5.10873e-06 5.29486e-06 -0.00066453
0.000772058 3.75852e-05 2.85213e-07
3.75852e-05 0.00031219 -7.08489e-07
2.85213e-07 -7.08489e-07 0.000108441
0.000649545 9.87743e-05 1.42872e-07
9.87743e-05 0.00024884 1.2615e-07
1.42872e-07 1.2615e-07 7.04436e-05
0.000865978 -4.23094e-05 -1.19673e-06
-4.23094e-05 0.000400921 2.45471e-06
-1.19673e-06 2.45471e-06 0.000177071
-0.00107302 4.89709e-05 6.60994e-07
4.89709e-05 -0.00049814 1.63304e-06
6.60994e-07 1.63304e-06 -0.000843528
0.0010682 9.14333e-05 1.4229e-06
9.14333e-05 0.000893567 8.70709e-06
1.4229e-06 8.70709e-06 0.000484246
0.000789945 -1.69134e-05 6.82e-07
-1.69134e-05 0.000484146 -6.99128e-06
6.82e-07 -6.99128e-06 0.000218657
0.00172656 -2.83552e-05 -3.63221e-06
-2.83552e-05 0.00100617 3.18532e-06
-3.63221e-06 3.18532e-06 0.000744551
0.00088143 -0.00010009 -4.33373e-07
-0.00010009 0.000385584 -7.26317e-07
-4.33373e-07 -7.26317e-07 0.000183437
0.000164689 -0.00011694 2.66026e-06
-0.00011694 -0.000124855 1.15291e-05
2.66026e-06 1.15291e-05 -0.000265947
0.000552358 -9.81411e-05 6.57801e-07
-9.81411e-05 0.000198371 -2.5503e-07
6.57801e-07 -2.5503e-07 3.15795e-06
0.000704427 -0.000133105 -2.53381e-06
-0.000133105 0.000187051 -1.54173e-06
-2.53381e-06 -1.54173e-06 5.2141e-05
-0.000241641 -6.9364e-05 3.2958e-07
-6.9364e-05 -0.000315152 6.20681e-06
3.2958e-07 6.20681e-06 -0.000444307
-0.000567968 -4.56287e-05 9.88712e-07
-4.56287e-05 -0.000489689 -9.17629e-06
9.88712e-07 -9.17629e-06 -0.000674692
-5.92343e-05 -5.14068e-05 -8.28435e-06
-5.14068e-05 -7.51549e-05 -2.00912e-06
-8.28435e-06 -2.00912e-06 -0.000297672
0.000293771 -0.000133157 1.74572e-06
-0.000133157 3.01698e-05 -1.02596e-05
1.74572e-06 -1.02596e-05 -0.000102451
0.00111865 -0.000152884 2.54201e-05
-0.000152884 0.000423058 -1.84485e-05
2.54201e-05 -1.84485e-05 0.000306383
0.00285876 -0.000506954 -1.27233e-06
-0.000506954 0.00143235 2.08378e-06
-1.27233e-06 2.08378e-06 0.00116642
-0.000598937 -0.000108305 -3.07735e-06
-0.000108305 -0.000510182 -2.92997e-06
-3.07735e-06 -2.92997e-06 -0.000725433
0.000489289 -5.30574e-05 2.50515e-06
-5.30574e-05 0.00020223 -2.95626e-07
2.50515e-06 -2.95626e-07 -2.39958e-05
-0.000869226 -6.19689e-06 5.29725e-06
-6.19689e-06 -0.000686341 -1.26097e-06
5.29725e-06 -1.26097e-06 -0.000922651
0.000661873 -0.00019099 -1.70196e-06
-0.00019099 0.000254833 -8.81038e-07
-1.70196e-06 -8.81038e-07 6.85407e-05
0.000462357 -5.34415e-05 2.38121e-06
-5.34415e-05 6.00377e-05 5.64117e-07
2.38121e-06 5.64117e-07 -9.22983e-05
0.000622858 -0.000178005 1.34781e-06
-0.000178005 0.000210243 -8.44592e-07
1.34781e-06 -8.44592e-07 4.16245e-05
0.00058408 -0.000100989 -7.84446e-07
-0.000100989 0.000158638 8.72969e-08
-7.84446e-07 8.72969e-08 4.00819e-06
0.000299391 3.3466e-05 1.29123e-06
3.3466e-05 -6.87268e-05 5.06391e-06
1.29123e-06 5.06391e-06 -0.000165144
0.000617221 -0.000134497 1.73559e-07
-0.000134497 0.000169536 -2.59962e-06
1.73559e-07 -2.59962e-06 1.54456e-05
0.000496997 -5.53315e-05 -6.30416e-07
-5.53315e-05 5.25907e-05 2.08412e-07
-6.30416e-07 2.08412e-07 -3.52486e-05
0.00139068 2.78694e-05 -8.70354e-06
2.78694e-05 0.000600058 7.91052e-06
-8.70354e-06 7.91052e-06 0.000575914
0.000472329 -7.80394e-05 9.63538e-07
-7.80394e-05 4.70433e-05 -3.34066e-06
9.63538e-07 -3.34066e-06 -4.38917e-05
0.000842621 -2.86286e-05 -1.05396e-05
-2.86286e-05 0.000257182 9.19435e-07
-1.05396e-05 9.19435e-07 0.000229552
0.000739689 1.03153e-05 1.72738e-06
1.03153e-05 0.000167407 2.23718e-06
1.72738e-06 2.23718e-06 0.000170292
0.000403049 -3.63234e-05 4.04849e-06
-3.63234e-05 -2.46526e-05 -4.94574e-06
4.04849e-06 -4.94574e-06 -5.1799e-05
0.00255471 7.37404e-06 6.99281e-06
7.37404e-06 0.00134451 -7.69069e-09
6.99281e-06 -7.69069e-09 0.00135676
0.00258712 -2.73435e-06 8.22785e-06
-2.73435e-06 0.00136693 -5.10656e-06
8.22785e-06 -5.10656e-06 0.00137838
0.00103175 7.98683e-05 -1.33971e-06
7.98683e-05 0.0004422 -1.3742e-06
-1.33971e-06 -1.3742e-06 0.000316274
0.000495866 7.37434e-05 -2.23947e-06
7.37434e-05 5.7775e-05 -4.24995e-06
-2.23947e-06 -4.24995e-06 -5.42746e-06
0.00051322 -2.03534e-05 -8.11937e-07
-2.03534e-05 0.000110377 8.98575e-07
-8.11937e-07 8.98575e-07 -8.69022e-06
0.000419129 1.10966e-05 1.05315e-06
1.10966e-05 -3.91656e-05 -4.14728e-06
1.05315e-06 -4.14728e-06 -5.12162e-05
0.000408245 -9.09108e-06 1.81435e-06
-9.09108e-06 -6.55355e-06 -2.4476e-07
1.81435e-06 -2.4476e-07 -6.11923e-05
0.000463981 -6.80489e-05 -1.97129e-06
-6.80489e-05 3.64613e-05 4.1732e-06
-1.97129e-06 4.1732e-06 -2.48516e-05
0.000434727 5.53265e-06 -6.64063e-07
5.53265e-06 -2.93715e-05 1.31345e-08
-6.64063e-07 1.31345e-08 -4.23678e-05
0.00204621 2.8094e-05 -4.70785e-06
2.8094e-05 0.00101351 -5.17933e-06
-4.70785e-06 -5.17933e-06 0.00102886
0.00119027 2.16991e-05 -7.6852e-07
2.16991e-05 0.000459294 2.96493e-06
-7.6852e-07 2.96493e-06 0.000447115
0.00133365 3.33401e-05 -3.58797e-06
3.33401e-05 0.000554686 4.57305e-08
-3.58797e-06 4.57305e-08 0.000564488
0.000743203 3.91496e-05 -2.90113e-06
3.91496e-05 0.000180272 8.75831e-06
-2.90113e-06 8.75831e-06 0.000182382
-0.00655974 0.00255963 0.000951488
0.00255963 -0.00186716 -0.00011509
0.000951488 -0.00011509 -0.00655317
0.00240245 0.00205589 0.0021129
0.00205589 0.00977018 -0.000375473
0.0021129 -0.000375473 0.00356638
0.00216738 0.000802098 -0.000153863
0.000802098 -0.00334242 -4.42656e-05
-0.000153863 -4.42656e-05 -0.000559353
0.0026563 -5.75533e-05 2.32765e-05
-5.75533e-05 -0.00122476 -3.5594e-05
2.32765e-05 -3.5594e-05 -0.000318599
0.0025911 -8.46387e-05 5.41108e-05
-8.46387e-05 -1.39448e-05 1.41385e-05
5.41108e-05 1.41385e-05 0.00016303
-0.00105094 -0.000139413 -0.000136476
-0.000139413 -0.0026941 -3.8499e-05
-0.000136476 -3.8499e-05 -0.000697116
0.00424713 -0.000648284 2.6827e-06
-0.000648284 2.32695e-05 3.43532e-06
2.6827e-06 3.43532e-06 0.000548918
0.0125332 -0.000424835 0.000288825
-0.000424835 -0.0026837 -0.000121393
0.000288825 -0.000121393 -0.00271186
0.00569327 0.00596357 -9.38752e-06
0.00596357 0.00211654 -9.10132e-05
-9.38752e-06 -9.10132e-05 -0.00284868
0.0250614 0.0128251 -0.000816084
0.0128251 0.0166662 0.000313338
-0.000816084 0.000313338 0.00901863
0.00214277 -0.00138675 3.70012e-06
-0.00138675 -0.00351036 -3.49954e-05
3.70012e-06 -3.49954e-05 -0.00116556
0.0157761 -0.00403557 0.000294157
-0.00403557 0.000176251 -7.60161e-05
0.000294157 -7.60161e-05 -0.000470317
0.0249512 0.00806325 0.000536358
0.00806325 0.00947408 -0.000505396
0.000536358 -0.000505396 0.00208748
0.0283121 0.00591738 -0.000374057
0.00591738 0.0107433 0.000368565
-0.000374057 0.000368565 0.00590096
0.00122167 0.000183742 -7.15224e-06
0.000183742 0.000659105 -1.08977e-06
-7.15224e-06 -1.08977e-06 0.000442217
0.000319622 3.73484e-05 1.01157e-06
3.73484e-05 -1.88936e-05 -7.26521e-07
1.01157e-06 -7.26521e-07 -0.000136066
0.000525797 -0.000105992 3.65756e-06
-0.000105992 0.000122451 3.81619e-06
3.65756e-06 3.81619e-06 4.54354e-06
0.000725883 -1.07627e-05 7.3795e-06
-1.07627e-05 0.000247672 1.56003e-06
7.3795e-06 1.56003e-06 0.000118001
0.000687993 7.95199e-05 3.85223e-06
7.95199e-05 0.000294367 1.34884e-07
3.85223e-06 1.34884e-07 0.000163799
0.000582337 7.83023e-05 -1.8933e-06
7.83023e-05 0.000185035 5.65793e-06
-1.8933e-06 5.65793e-06 -5.55114e-06
0.000625233 8.34758e-05 -1.03627e-06
8.34758e-05 0.000207002 2.92731e-06
-1.03627e-06 2.92731e-06 5.60239e-05
0.000439724 0.000106472 3.22456e-06
0.000106472 3.91131e-05 3.32176e-06
3.22456e-06 3.32176e-06 -0.00012262
0.000586539 -1.40376e-06 1.65075e-06
-1.40376e-06 0.000178891 -1.19237e-06
1.65075e-06 -1.19237e-06 1.93921e-05
0.000350361 -3.17268e-05 3.50988e-06
-3.17268e-05 -1.91517e-06 1.62862e-08
3.50988e-06 1.62862e-08 -0.000121887
0.00106738 -0.000394252 4.201e-05
-0.000394252 -0.00115874 -1.98558e-05
4.201e-05 -1.98558e-05 -0.000623729
0.00118767 -0.000746352 2.30532e-05
-0.000746352 -0.000768518 -1.05271e-05
2.30532e-05 -1.05271e-05 -0.000586167
0.00106095 -0.000922743 9.09419e-06
-0.000922743 -0.000410372 4.42631e-06
9.09419e-06 4.42631e-06 -0.000676707
-0.000997022 -0.00082586 -1.78667e-05
-0.00082586 -0.00133916 -1.48759e-05
-1.78667e-05 -1.48759e-05 -0.00164288
0.00272067 -0.000748708 6.06347e-06
-0.000748708 0.00189093 5.07478e-05
6.06347e-06 5.07478e-05 0.0010873
-0.000762054 -0.000715773 -7.04042e-06
-0.000715773 -0.000375828 -1.65231e-05
-7.04042e-06 -1.65231e-05 -0.00108406
0.00136367 -0.000325278 1.40355e-05
-0.000325278 0.000680053 -3.76706e-06
1.40355e-05 -3.76706e-06 0.000466576
0.000120926 -5.03743e-05 5.11082e-06
-5.03743e-05 -3.49967e-05 6.31572e-06
5.11082e-06 6.31572e-06 -0.000189817
0.00279763 -0.000846294 1.49226e-05
-0.000846294 -0.000396243 -1.05442e-05
1.49226e-05 -1.05442e-05 0.000109873
0.000567725 -0.000120677 5.12236e-07
-0.000120677 0.000332046 2.42076e-06
5.12236e-07 2.42076e-06 3.3852e-05
-0.000253264 -0.000250446 -6.76537e-06
-0.000250446 -7.45372e-05 -3.3751e-06
-6.76537e-06 -3.3751e-06 -0.000442527
0.00197451 -0.00101224 1.96635e-05
-0.00101224 4.93488e-05 -1.37362e-06
1.96635e-05 -1.37362e-06 -0.000100882
0.00184462 -0.00121908 -1.73991e-06
-0.00121908 9.29741e-05 -4.3172e-06
-1.73991e-06 -4.3172e-06 -0.000193628
-5.93296e-05 -0.000806799 1.39104e-05
-0.000806799 -0.000423739 -1.73049e-05
1.39104e-05 -1.73049e-05 -0.000684079
0.000881823 -0.000486176 1.91565e-05
-0.000486176 0.000971142 -2.50933e-05
1.91565e-05 -2.50933e-05 0.000198498
0.00181373 -0.00132681 -4.82239e-05
-0.00132681 -0.000460859 4.70924e-05
-4.82239e-05 4.70924e-05 -0.000545906
0.00219484 -0.00111869 -4.08444e-05
-0.00111869 0.000431704 2.75531e-05
-4.08444e-05 2.75531e-05 0.000321194
-0.00104543 -0.000543249 -3.88725e-05
-0.000543249 -0.000485343 3.32712e-05
-3.88725e-05 3.32712e-05 -0.000901235
-0.00126559 -0.000112459 -9.74496e-06
-0.000112459 -0.000864223 8.41563e-06
-9.74496e-06 8.41563e-06 -0.001136
-0.00126172 6.13524e-06 -2.99927e-06
6.13524e-06 -0.000714535 1.4096e-05
-2.99927e-06 1.4096e-05 -0.001056
0.000861294 -9.35774e-05 1.45591e-06
-9.35774e-05 0.000629795 -7.11594e-06
1.45591e-06 -7.11594e-06 0.00023299
-0.00286979 0.00153954 -0.000626599
0.00153954 0.00820556 2.51673e-05
-0.000626599 2.51673e-05 0.001572
-0.000218739 -0.00224323 -2.43434e-05
-0.00224323 0.00377616 -3.21443e-05
-2.43434e-05 -3.21443e-05 0.00176783
0.00533426 0.000813109 -0.000176449
0.000813109 -0.00668301 -4.4955e-05
-0.000176449 -4.4955e-05 -0.00673385
0.00131093 0.000462002 1.8891e-05
0.000462002 0.000797884 -6.83188e-06
1.8891e-05 -6.83188e-06 0.000439239
0.00180398 0.000812863 2.1011e-05
0.000812863 0.000769198 2.81214e-05
2.1011e-05 2.81214e-05 0.000240271
0.00351045 0.00141873 9.06314e-05
0.00141873 0.000503843 3.99928e-05
9.06314e-05 3.99928e-05 0.000315733
0.00171647 0.00116367 2.56959e-05
0.00116367 0.000508334 2.94964e-05
2.56959e-05 2.94964e-05 -9.40216e-05
0.0155249 -0.00496212 0.000345333
-0.00496212 0.00732407 0.000101687
0.000345333 0.000101687 0.00333182
0.00353554 0.00292731 -0.000539312
0.00292731 -0.00679815 -0.000137898
-0.000539312 -0.000137898 -0.0073045
0.00617138 0.00408204 5.07363e-05
0.00408204 0.00053057 3.0474e-05
5.07363e-05 3.0474e-05 0.0016685
0.00316562 0.00179018 8.99415e-05
0.00179018 0.00131268 9.21689e-06
8.99415e-05 9.21689e-06 0.000998414
0.014754 -0.00405434 -0.000759231
-0.00405434 0.00637667 -0.000276913
-0.000759231 -0.000276913 8.7633e-05
0.00277293 -0.00641436 -0.00130601
-0.00641436 0.01083 -0.000287382
-0.00130601 -0.000287382 0.00273713
0.0344518 -0.00850932 0.00120831
-0.00850932 0.0115097 0.00048604
0.00120831 0.00048604 0.00521697
0.000142146 0.000349797 1.37627e-05
0.000349797 -2.74291e-06 -5.70441e-06
1.37627e-05 -5.70441e-06 -0.000300223
-0.00266519 0.00014397 -0.000187906
0.00014397 0.0079386 -2.42914e-05
-0.000187906 -2.42914e-05 0.00040743
0.00764492 0.00231294 -0.000245476
0.00231294 0.00436125 -0.000204256
-0.000245476 -0.000204256 -0.00188624
0.00193677 0.00123377 1.15648e-05
0.00123377 0.000324962 3.59753e-06
1.15648e-05 3.59753e-06 0.000101583
0.00100892 0.000917334 1.69651e-05
0.000917334 0.000383098 7.86059e-06
1.69651e-05 7.86059e-06 -0.000150057
0.00120683 0.00151046 -0.000109355
0.00151046 0.000736827 -8.61026e-05
-0.000109355 -8.61026e-05 5.58621e-05
0.00353374 0.00458812 7.17259e-05
0.00458812 0.000751968 5.27763e-05
7.17259e-05 5.27763e-05 0.000967721
0.0135353 0.00707511 -1.83554e-05
0.00707511 0.000989295 -1.08627e-06
-1.83554e-05 -1.08627e-06 -0.00102289
0.0110847 -0.0049159 0.000115739
-0.0049159 0.00826758 -0.000147656
0.000115739 -0.000147656 5.54466e-05
0.0182741 -0.00215615 -4.64175e-05
-0.00215615 0.00283853 -6.54544e-05
-4.64175e-05 -6.54544e-05 0.00310601
0.00129273 0.00078198 -1.92674e-05
0.00078198 0.000644779 -9.57008e-06
-1.92674e-05 -9.57008e-06 0.000210146
0.00147743 0.000431452 -0.000529837
0.000431452 0.00327522 -0.000146251
-0.000529837 -0.000146251 -0.00324027
0.00217912 0.00149684 -0.000181775
0.00149684 0.000339121 -0.000201813
-0.000181775 -0.000201813 -0.001899
-0.000968959 0.000491582 -6.15214e-06
0.000491582 -0.000194241 -2.74887e-05
-6.15214e-06 -2.74887e-05 -0.000579439
-0.0019307 0.00107916 -0.000182515
0.00107916 0.000766175 1.59574e-06
-0.000182515 1.59574e-06 -1.24306e-05
0.00952537 0.00696077 0.000219477
0.00696077 0.00364775 -1.91737e-05
0.000219477 -1.91737e-05 -0.00146694
0.0047159 -0.00677964 -1.92965e-05
-0.00677964 0.00165707 0.000233423
-1.92965e-05 0.000233423 -0.00523785
0.0151822 -0.00039977 7.86582e-05
-0.00039977 -0.00104457 -0.000346813
7.86582e-05 -0.000346813 0.000638029
0.00151611 0.000330976 4.03563e-06
0.000330976 0.000863473 2.30575e-05
4.03563e-06 2.30575e-05 0.000628422
0.00103421 0.000315114 -8.80545e-06
0.000315114 0.000689979 -6.39179e-06
-8.80545e-06 -6.39179e-06 0.000405006
-0.000571716 0.00016005 1.45583e-06
0.00016005 -6.9535e-05 -3.57775e-07
1.45583e-06 -3.57775e-07 -0.000486707
0.000440182 8.32537e-05 5.91971e-07
8.32537e-05 7.22542e-05 -5.011e-08
5.91971e-07 -5.011e-08 -0.000110969
0.00130657 -2.69709e-05 -3.60259e-06
-2.69709e-05 0.000704199 5.26335e-06
-3.60259e-06 5.26335e-06 0.000462856
-0.000317087 8.30478e-05 2.90327e-06
8.30478e-05 -0.000368972 6.81413e-06
2.90327e-06 6.81413e-06 -0.000541973
-0.00132167 8.40431e-05 1.52007e-06
8.40431e-05 -0.00063431 1.75411e-06
1.52007e-06 1.75411e-06 -0.000988616
0.00049133 -2.65767e-05 1.96981e-06
-2.65767e-05 0.000161472 6.18607e-07
1.96981e-06 6.18607e-07 -5.30472e-05
0.000422338 9.41247e-05 6.34217e-07
9.41247e-05 0.000250988 -2.45214e-06
6.34217e-07 -2.45214e-06 -9.58809e-06
-2.99395e-05 4.5424e-05 3.43943e-06
4.5424e-05 0.000345099 2.60706e-06
3.43943e-06 2.60706e-06 -0.000153948
-0.00152278 -1.53993e-05 3.44432e-07
-1.53993e-05 -0.000383977 1.06701e-05
3.44432e-07 1.06701e-05 -0.000971556
0.00079932 1.25907e-05 -1.82897e-07
1.25907e-05 0.000775016 -5.40753e-06
-1.82897e-07 -5.40753e-06 0.000337585
0.00184475 4.45526e-05 -3.39391e-06
4.45526e-05 0.00114657 2.10382e-06
-3.39391e-06 2.10382e-06 0.000890509
0.000902744 -0.000180925 4.50939e-06
-0.000180925 0.000428195 3.65615e-06
4.50939e-06 3.65615e-06 0.000224982
0.000185196 -9.68994e-05 -1.10746e-07
-9.68994e-05 -0.000155761 6.44379e-06
-1.10746e-07 6.44379e-06 -0.000285169
-0.000172008 -7.71083e-05 1.00399e-05
-7.71083e-05 -0.00027543 1.56556e-05
1.00399e-05 1.56556e-05 -0.000380029
0.000238424 -2.66004e-05 1.02958e-06
-2.66004e-05 9.95514e-05 1.33392e-06
1.02958e-06 1.33392e-06 -0.000112434
0.000499237 -4.66343e-05 2.26099e-07
-4.66343e-05 0.000148714 1.38547e-06
2.26099e-07 1.38547e-06 -2.47208e-05
7.95753e-05 -8.11387e-05 -3.67281e-06
-8.11387e-05 -6.71141e-05 -4.11842e-07
-3.67281e-06 -4.11842e-07 -0.000210469
0.000620471 -0.000110862 -2.76924e-06
-0.000110862 0.000248361 -7.85394e-06
-2.76924e-06 -7.85394e-06 0.000106138
0.00101977 -0.000117149 7.47149e-06
-0.000117149 0.000708618 -1.22145e-05
7.47149e-06 -1.22145e-05 0.000493833
0.00226479 -0.000394043 6.46442e-06
-0.000394043 0.00108099 3.27076e-06
6.46442e-06 3.27076e-06 0.000956878
0.000516186 -0.000146568 -2.05459e-05
-0.000146568 6.18267e-05 1.66207e-07
-2.05459e-05 1.66207e-07 -5.25027e-05
0.000873119 -0.00034125 9.55864e-06
-0.00034125 0.000212463 4.05833e-06
9.55864e-06 4.05833e-06 -2.82973e-06
0.00276316 -0.00078562 -4.96651e-06
-0.00078562 0.00132665 1.98893e-05
-4.96651e-06 1.98893e-05 0.000880936
0.00238302 -0.000322296 1.03354e-05
-0.000322296 0.00116974 -8.38832e-06
1.03354e-05 -8.38832e-06 0.000949967
0.00144644 -0.000370645 -1.83825e-06
-0.000370645 0.00057171 -6.51266e-06
-1.83825e-06 -6.51266e-06 0.000355733
0.000376496 -0.000133176 -7.6683e-07
-0.000133176 7.94805e-05 -5.53011e-07
-7.6683e-07 -5.53011e-07 -0.000140298
-0.00106035 -7.32862e-05 3.19414e-07
-7.32862e-05 -0.000769675 -3.54639e-06
3.19414e-07 -3.54639e-06 -0.00106566
0.00145401 -6.74819e-05 1.83617e-06
-6.74819e-05 0.000788407 4.11609e-06
1.83617e-06 4.11609e-06 0.0005721
0.000699538 -0.000188934 1.99069e-06
-0.000188934 0.000285803 -1.25842e-06
1.99069e-06 -1.25842e-06 4.63225e-05
0.000284501 -7.39116e-05 1.54789e-06
-7.39116e-05 -7.83703e-05 -1.12963e-06
1.54789e-06 -1.12963e-06 -0.000236637
0.00165918 -0.000308026 -5.48725e-06
-0.000308026 0.00090567 5.51544e-07
-5.48725e-06 5.51544e-07 0.000691452
0.000714416 -0.000149702 4.42229e-08
-0.000149702 0.000231652 1.23276e-07
4.42229e-08 1.23276e-07 7.03664e-05
0.000425225 -8.95842e-06 6.51777e-07
-8.95842e-06 2.84776e-06 4.45102e-06
6.51777e-07 4.45102e-06 -9.80243e-05
0.000870332 -0.000161265 -1.46324e-06
-0.000161265 0.000352141 -1.88111e-06
-1.46324e-06 -1.88111e-06 0.000190329
0.000572282 -7.31449e-05 -4.63295e-07
-7.31449e-05 0.000104939 -3.37208e-08
-4.63295e-07 -3.37208e-08 7.15449e-06
0.00144625 3.89733e-06 -1.42466e-05
3.89733e-06 0.000632285 8.7307e-06
-1.42466e-05 8.7307e-06 0.000604636
0.000518123 -8.0216e-05 1.10867e-06
-8.0216e-05 7.5076e-05 -5.11552e-06
1.10867e-06 -5.11552e-06 -1.99236e-05
0.000837407 -1.81009e-05 -1.23468e-05
-1.81009e-05 0.000245515 8.61797e-07
-1.23468e-05 8.61797e-07 0.000217416
0.000786832 1.89937e-05 1.86013e-06
1.89937e-05 0.000195608 3.10933e-06
1.86013e-06 3.10933e-06 0.000196006
0.000397209 -4.84265e-05 3.55151e-06
-4.84265e-05 -3.17719e-05 -5.535e-06
3.55151e-06 -5.535e-06 -6.16943e-05
0.00166643 1.63861e-05 1.48451e-05
1.63861e-05 0.000768184 -1.58926e-06
1.48451e-05 -1.58926e-06 0.000776172
0.00250161 4.60288e-06 1.87371e-05
4.60288e-06 0.00130946 -5.2837e-06
1.87371e-05 -5.2837e-06 0.00132214
0.000460026 7.78871e-05 6.80669e-07
7.78871e-05 4.46815e-05 -2.27169e-06
6.80669e-07 -2.27169e-06 -7.79926e-05
0.000558948 7.62414e-05 -1.48423e-06
7.62414e-05 9.38128e-05 -3.88495e-06
-1.48423e-06 -3.88495e-06 2.59855e-05
0.000538289 1.61601e-05 4.95416e-07
1.61601e-05 0.000114113 7.4153e-07
4.95416e-07 7.4153e-07 -5.13921e-06
0.00042478 1.13612e-05 1.80777e-06
1.13612e-05 -3.54104e-05 -4.56982e-06
1.80777e-06 -4.56982e-06 -4.82988e-05
0.000452456 6.40519e-05 -7.8193e-08
6.40519e-05 2.38421e-05 -2.3865e-07
-7.8193e-08 -2.3865e-07 -3.54432e-05
0.000410605 -0.000117018 -2.39525e-06
-0.000117018 2.68097e-05 3.35404e-06
-2.39525e-06 3.35404e-06 -8.17933e-05
0.00203498 1.34728e-05 -9.6338e-06
1.34728e-05 0.00100399 -5.16579e-06
-9.6338e-06 -5.16579e-06 0.00102065
0.000412352 8.24725e-06 -2.93914e-07
8.24725e-06 -4.33891e-05 2.33021e-08
-2.93914e-07 2.33021e-08 -5.53748e-05
0.000475026 4.62353e-06 -2.05221e-07
4.62353e-06 2.68084e-05 3.70375e-06
-2.05221e-07 3.70375e-06 -2.2193e-05
0.000432275 2.03216e-06 -1.94611e-06
2.03216e-06 -3.18169e-05 4.26785e-06
-1.94611e-06 4.26785e-06 -4.47944e-05
0.00207677 2.93256e-05 -5.84776e-06
2.93256e-05 0.00103344 -1.54055e-07
-5.84776e-06 -1.54055e-07 0.0010485
0.00209346 4.47873e-05 -9.08725e-07
4.47873e-05 0.00104722 5.29021e-06
-9.08725e-07 5.29021e-06 0.00106037
-0.00356981 -0.00216159 -0.000324694
-0.00216159 0.00828277 7.20699e-05
-0.000324694 7.20699e-05 0.00320413
0.00483546 0.00276914 -0.000422192
0.00276914 0.00241896 0.000135246
-0.000422192 0.000135246 -0.00160943
0.00301464 -0.00120943 -0.000672169
-0.00120943 0.001427 0.000307197
-0.000672169 0.000307197 -0.00368861
0.0046475 0.00283625 0.00153536
0.00283625 0.00951304 -0.000301774
0.00153536 -0.000301774 0.00274129
0.00490056 0.000967221 -4.15509e-05
0.000967221 -0.000654282 -3.76636e-06
-4.15509e-05 -3.76636e-06 0.000856391
0.00357594 -0.000710062 0.0001094
-0.000710062 -0.000324145 9.85774e-06
0.0001094 9.85774e-06 0.000105463
0.00222844 -0.000537451 0.000426546
-0.000537451 -0.00711314 -4.3869e-05
0.000426546 -4.3869e-05 -0.00742974
0.026877 0.0053655 -0.00159006
0.0053655 0.0124087 2.50684e-05
-0.00159006 2.50684e-05 0.00687876
0.0175611 0.0154757 -0.00314675
0.0154757 0.0125259 0.00185202
-0.00314675 0.00185202 0.00419374
0.00546341 -0.00112424 5.93572e-05
-0.00112424 -0.00124755 3.5143e-06
5.93572e-05 3.5143e-06 0.000366795
0.00778699 -0.00391958 0.000232677
-0.00391958 -0.00446304 -0.000199912
0.000232677 -0.000199912 -0.00564806
0.0248048 0.00790157 -0.000449708
0.00790157 0.00971764 -0.000165753
-0.000449708 -0.000165753 0.00234767
0.0206931 0.00555006 0.000199188
0.00555006 0.00751089 0.000498722
0.000199188 0.000498722 0.00269029
0.00182947 -0.00261245 -0.000107309
-0.00261245 -0.00427739 5.15953e-05
-0.000107309 5.15953e-05 -0.00179939
0.00658784 -0.0063189 0.000716252
-0.0063189 -0.00102794 -0.000277417
0.000716252 -0.000277417 -0.00372084
0.0149978 0.00402438 -0.000130607
0.00402438 0.00549365 -0.00108605
-0.000130607 -0.00108605 -0.00194191
0.010138 -0.000274798 -0.000411956
-0.000274798 -0.000680619 4.82142e-05
-0.000411956 4.82142e-05 -0.00106845
0.00220683 -4.45526e-05 -8.85344e-07
-4.45526e-05 0.0013153 1.48758e-05
-8.85344e-07 1.48758e-05 0.00101507
0.000172978 7.3589e-05 -1.56763e-06
7.3589e-05 -5.97273e-05 -2.14744e-06
-1.56763e-06 -2.14744e-06 -0.000219561
0.000578077 0.000120041 4.92429e-06
0.000120041 0.000137426 2.31818e-06
4.92429e-06 2.31818e-06 2.31987e-05
-0.000298397 -6.50142e-05 4.6932e-06
-6.50142e-05 -0.000386537 -5.0778e-07
4.6932e-06 -5.0778e-07 -0.000454329
0.000412728 0.00015254 -1.38972e-07
0.00015254 4.51121e-05 8.83315e-06
-1.38972e-07 8.83315e-06 -0.000153529
0.000523481 8.24983e-05 -4.53483e-08
8.24983e-05 0.000144889 1.15043e-06
-4.53483e-08 1.15043e-06 -3.51405e-05
-5.78522e-07 1.10149e-05 3.62613e-06
1.10149e-05 -0.000199765 2.72788e-07
3.62613e-06 2.72788e-07 -0.000334837
0.000935344 0.000194321 5.36715e-06
0.000194321 0.000405548 1.0259e-05
5.36715e-06 1.0259e-05 0.000204966
0.000948186 0.000173702 1.59337e-07
0.000173702 0.000424159 -5.49946e-07
1.59337e-07 -5.49946e-07 0.000221843
0.000297815 1.75512e-05 -1.76782e-06
1.75512e-05 -2.09883e-05 -4.12346e-06
-1.76782e-06 -4.12346e-06 -0.000175294
0.000745464 -0.000692293 0.000103966
-0.000692293 -0.00156223 -6.44101e-05
0.000103966 -6.44101e-05 -0.000964543
0.000360855 -0.000834572 3.9691e-06
-0.000834572 -0.000884547 -1.23872e-05
3.9691e-06 -1.23872e-05 -0.000909197
0.00164075 -0.00118911 1.36876e-06
-0.00118911 -6.3754e-05 8.18876e-06
1.36876e-06 8.18876e-06 -0.000257842
-0.00102752 -0.000824134 2.42921e-06
-0.000824134 -0.000976308 -1.3799e-05
2.42921e-06 -1.3799e-05 -0.00128305
0.00430454 -0.000651587 -4.7374e-05
-0.000651587 0.00276321 7.59797e-05
-4.7374e-05 7.59797e-05 0.00221052
0.000637963 -0.000279581 -6.75119e-07
-0.000279581 0.000489339 1.91808e-06
-6.75119e-07 1.91808e-06 0.000105192
0.000378618 8.54928e-05 1.3765e-06
8.54928e-05 0.00018588 -1.18846e-05
1.3765e-06 -1.18846e-05 -0.000100387
0.000588178 -4.82737e-06 -5.56226e-06
-4.82737e-06 0.000295226 6.80399e-06
-5.56226e-06 6.80399e-06 -6.77283e-06
0.00275956 -0.00132611 -2.59203e-05
-0.00132611 -6.31141e-06 1.80233e-06
-2.59203e-05 1.80233e-06 8.41664e-05
0.000613652 -5.19008e-05 1.89417e-06
-5.19008e-05 0.00039594 2.87996e-06
1.89417e-06 2.87996e-06 7.1942e-05
0.00237175 -0.000433804 8.38199e-06
-0.000433804 0.00152956 -4.5641e-06
8.38199e-06 -4.5641e-06 0.00111408
0.00170512 -0.00107038 1.8025e-05
-0.00107038 0.000152563 -5.31774e-06
1.8025e-05 -5.31774e-06 3.47383e-05
0.000459181 -0.000724784 -3.64644e-05
-0.000724784 0.000308568 1.14053e-05
-3.64644e-05 1.14053e-05 -8.32755e-05
0.00272096 -0.00224994 6.11611e-05
-0.00224994 0.000372734 -3.24318e-05
6.11611e-05 -3.24318e-05 -6.05797e-05
0.00118795 -0.000797567 -1.713e-05
-0.000797567 0.000554969 3.35045e-05
-1.713e-05 3.35045e-05 0.000346686
-0.00188224 -0.000166763 6.82465e-06
-0.000166763 -0.00073619 4.55075e-06
6.82465e-06 4.55075e-06 -0.00129042
0.000315014 8.37404e-05 -1.80008e-06
8.37404e-05 0.000127386 6.24125e-06
-1.80008e-06 6.24125e-06 -8.25723e-05
-2.58195e-05 -0.000135167 -1.30984e-06
-0.000135167 0.000112221 1.52954e-05
-1.30984e-06 1.52954e-05 -0.000258957
0.00176807 0.000300057 -0.000107358
0.000300057 0.00234359 -3.81217e-05
-0.000107358 -3.81217e-05 -0.00272877
-0.00784131 0.000412441 -0.000617016
0.000412441 0.00754995 -1.95036e-05
-0.000617016 -1.95036e-05 0.00143291
-0.0137918 -0.00384977 -0.00116234
-0.00384977 -0.00405353 -2.72185e-06
-0.00116234 -2.72185e-06 -0.00682284
0.000422177 0.000427672 1.93541e-05
0.000427672 0.000253504 -1.27015e-06
1.93541e-05 -1.27015e-06 -0.000101989
-0.000535963 0.000730256 8.36636e-07
0.000730256 -0.000382865 1.06171e-05
8.36636e-07 1.06171e-05 -0.000909534
0.00304104 0.00147717 5.75738e-05
0.00147717 0.000931095 4.6997e-05
5.75738e-05 4.6997e-05 0.000615426
-0.00390512 0.00239144 0.000160157
0.00239144 0.00894966 7.09467e-05
0.000160157 7.09467e-05 0.00324372
0.00613964 0.00628148 -0.00059893
0.00628148 -0.00153449 -0.000209758
-0.00059893 -0.000209758 -0.0038634
0.000207335 0.00298576 0.000515819
0.00298576 -0.000449814 0.000212317
0.000515819 0.000212317 -0.000184238
-5.91627e-05 0.00134144 -1.34105e-05
0.00134144 5.01506e-05 -4.40489e-05
-1.34105e-05 -4.40489e-05 -0.000260623
0.0310635 -0.00462973 -1.38975e-05
-0.00462973 0.0120406 -0.000519946
-1.38975e-05 -0.000519946 0.00549447
0.00825331 0.00296553 0.000928815
0.00296553 0.00407196 0.000317951
0.000928815 0.000317951 -0.00280614
0.0141152 -0.00126394 0.000173513
-0.00126394 0.00282988 6.09119e-05
0.000173513 6.09119e-05 0.00390622
0.00148793 0.00078635 1.01801e-05
0.00078635 0.000834722 -1.1603e-06
1.01801e-05 -1.1603e-06 0.000405414
0.00393809 0.00123158 -5.96432e-05
0.00123158 0.00430899 -2.47318e-07
-5.96432e-05 -2.47318e-07 -0.000821669
0.00233429 0.00122461 0.000120254
0.00122461 0.000692461 -1.29044e-05
0.000120254 -1.29044e-05 -0.00145158
-4.15922e-05 0.000808278 -8.28128e-06
0.000808278 0.000195928 -6.24031e-06
-8.28128e-06 -6.24031e-06 -0.000294249
-0.00066212 0.00204886 -0.000148652
0.00204886 0.000457212 -8.59225e-05
-0.000148652 -8.59225e-05 -0.000904846
0.00255381 0.00709553 0.000373808
0.00709553 0.00150282 0.000130429
0.000373808 0.000130429 -0.00310906
0.0123417 -0.000471852 1.54695e-05
-0.000471852 -0.00303561 -0.000230747
1.54695e-05 -0.000230747 -0.000962912
0.00929601 -0.00299723 -0.000122551
-0.00299723 0.00519468 -0.000225814
-0.000122551 -0.000225814 -0.00159678
0.00119078 0.000683469 -4.71416e-06
0.000683469 0.00102462 -1.16526e-05
-4.71416e-06 -1.16526e-05 0.000493524
-0.00411096 0.00070938 4.73075e-05
0.00070938 0.000941975 6.61448e-05
4.73075e-05 6.61448e-05 -0.000814943
0.00723287 -0.000843319 0.000246992
-0.000843319 0.000144076 -0.000123584
0.000246992 -0.000123584 -0.00162672
0.00988866 -0.000110721 0.000368116
-0.000110721 -0.000700546 -1.02617e-05
0.000368116 -1.02617e-05 -0.000875783
-0.00297354 0.000343041 6.20479e-05
0.000343041 0.000200204 -1.51838e-05
6.20479e-05 -1.51838e-05 -0.000859888
0.00915614 0.00421289 0.000412069
0.00421289 0.00579087 0.000176089
0.000412069 0.000176089 -0.000951656
0.00601412 -0.000686716 -4.31423e-05
-0.000686716 0.00324572 0.000384096
-4.31423e-05 0.000384096 -0.00133622
0.00322226 0.000553677 2.71705e-05
0.000553677 0.0020569 1.09609e-05
2.71705e-05 1.09609e-05 0.00170748
0.000327001 0.000295266 -8.7649e-06
0.000295266 0.000480395 -1.88802e-06
-8.7649e-06 -1.88802e-06 1.28849e-05
0.000286325 0.000284434 1.1091e-07
0.000284434 0.000618827 -1.48391e-05
1.1091e-07 -1.48391e-05 -1.09043e-05
6.23595e-05 0.000101756 2.60081e-06
0.000101756 -0.000106508 -3.60971e-06
2.60081e-06 -3.60971e-06 -0.000319997
0.000515798 0.000135839 -2.3795e-07
0.000135839 0.000294287 5.4952e-07
-2.3795e-07 5.4952e-07 5.19346e-05
-0.000209319 1.67581e-05 2.77722e-06
1.67581e-05 0.00028266 -6.38939e-06
2.77722e-06 -6.38939e-06 -0.000244799
0.000471784 3.16953e-05 3.75171e-07
3.16953e-05 0.000250804 -6.16216e-07
3.75171e-07 -6.16216e-07 2.43872e-05
0.000966303 -5.22098e-05 -5.05056e-07
-5.22098e-05 0.000912079 -2.99657e-06
-5.05056e-07 -2.99657e-06 0.000452776
-0.000120878 2.47973e-05 4.18899e-06
2.47973e-05 0.000425352 1.14777e-06
4.18899e-06 1.14777e-06 -0.000131666
1.48979e-05 -6.8835e-05 3.98309e-07
-6.8835e-05 0.000466158 1.60348e-05
3.98309e-07 1.60348e-05 -2.36683e-05
0.000735255 -6.03265e-05 4.5448e-07
-6.03265e-05 0.000691583 -1.49099e-05
4.5448e-07 -1.49099e-05 0.000337509
-0.000133196 -3.78404e-05 5.78693e-06
-3.78404e-05 -0.000170333 7.79425e-06
5.78693e-06 7.79425e-06 -0.000351786
0.00141995 -6.49061e-05 9.53162e-07
-6.49061e-05 0.000697959 6.18922e-06
9.53162e-07 6.18922e-06 0.000533441
0.00010244 -6.3949e-05 -8.92893e-06
-6.3949e-05 -1.82126e-05 1.05814e-05
-8.92893e-06 1.05814e-05 -0.000177984
0.000605027 -9.03318e-05 1.0812e-06
-9.03318e-05 0.000439609 5.7118e-07
1.0812e-06 5.7118e-07 0.000234625
5.78087e-05 -5.13945e-05 -2.89645e-06
-5.13945e-05 -8.29806e-05 -1.87499e-06
-2.89645e-06 -1.87499e-06 -0.000225717
0.00126469 -0.000311956 2.73756e-06
-0.000311956 0.000635472 2.72023e-06
2.73756e-06 2.72023e-06 0.000483569
0.000523 -0.000233977 -2.26253e-05
-0.000233977 0.000116992 7.8921e-08
-2.26253e-05 7.8921e-08 5.04067e-05
-0.00047272 -0.000340786 1.65498e-05
-0.000340786 -0.000439586 2.11491e-05
1.65498e-05 2.11491e-05 -0.00078804
1.30081e-05 -0.000131677 1.70428e-06
-0.000131677 -0.000227736 2.3106e-06
1.70428e-06 2.3106e-06 -0.000341089
0.00116756 -0.000373015 -6.30705e-06
-0.000373015 0.000380971 1.00519e-05
-6.30705e-06 1.00519e-05 0.000153759
0.00213771 -0.000734367 -6.52583e-06
-0.000734367 0.000919078 1.09773e-05
-6.52583e-06 1.09773e-05 0.000448752
0.0021041 -0.000784451 -3.7496e-06
-0.000784451 0.000811703 -2.19239e-06
-3.7496e-06 -2.19239e-06 0.000293466
0.00198911 -0.000505061 4.31839e-06
-0.000505061 0.000891854 1.45808e-06
4.31839e-06 1.45808e-06 0.00058111
0.000665266 -0.000494015 1.14152e-05
-0.000494015 2.53785e-05 -3.48642e-06
1.14152e-05 -3.48642e-06 -0.000338414
0.0011286 -0.000224828 3.6073e-06
-0.000224828 0.000529235 -5.05159e-06
3.6073e-06 -5.05159e-06 0.000209389
0.00104598 -0.000247376 -7.66805e-06
-0.000247376 0.000384886 1.90877e-06
-7.66805e-06 1.90877e-06 0.000152575
-0.000167779 -0.000213834 2.23283e-05
-0.000213834 -0.000427261 -1.47118e-05
2.23283e-05 -1.47118e-05 -0.000587572
0.00139591 -0.000157859 -5.40743e-06
-0.000157859 0.000696816 4.34617e-06
-5.40743e-06 4.34617e-06 0.000470324
-1.42963e-05 -0.000129636 5.2145e-07
-0.000129636 -0.000130654 1.25736e-06
5.2145e-07 1.25736e-06 -0.000422056
-0.000205727 -4.31287e-05 1.54597e-06
-4.31287e-05 -0.000352616 -1.43739e-06
1.54597e-06 -1.43739e-06 -0.000569235
0.00215153 -0.000385524 -3.61731e-06
-0.000385524 0.00119647 2.68571e-07
-3.61731e-06 2.68571e-07 0.000943129
0.000756188 -0.000163168 -5.5265e-07
-0.000163168 0.000245397 -7.93069e-08
-5.5265e-07 -7.93069e-08 6.43189e-05
0.000433831 -1.08279e-05 3.81862e-06
-1.08279e-05 2.10876e-05 5.78818e-06
3.81862e-06 5.78818e-06 -0.000103024
0.000866697 -0.000199403 -5.50968e-07
-0.000199403 0.000344646 -1.36726e-06
-5.50968e-07 -1.36726e-06 0.000169487
0.000435797 -2.4653e-06 -2.17802e-06
-2.4653e-06 2.68015e-05 -3.05364e-07
-2.17802e-06 -3.05364e-07 -8.65331e-05
0.00148348 -1.1059e-05 -2.19047e-05
-1.1059e-05 0.000656244 6.51666e-06
-2.19047e-05 6.51666e-06 0.000624941
0.000627192 -8.65326e-05 8.40659e-07
-8.65326e-05 0.000149527 -5.59199e-06
8.40659e-07 -5.59199e-06 4.65287e-05
0.000839536 -1.80415e-05 -1.1735e-05
-1.80415e-05 0.000241817 5.67776e-07
-1.1735e-05 5.67776e-07 0.000211209
0.000852273 2.98821e-05 1.22992e-06
2.98821e-05 0.000234538 3.59535e-06
1.22992e-06 3.59535e-06 0.000231807
0.000424064 -4.25729e-05 3.69052e-06
-4.25729e-05 -2.20226e-05 -6.82446e-06
3.69052e-06 -6.82446e-06 -5.38288e-05
0.00175611 2.84328e-05 1.81042e-05
2.84328e-05 0.000823319 -1.33191e-06
1.81042e-05 -1.33191e-06 0.000829715
0.00255743 1.75683e-05 2.39937e-05
1.75683e-05 0.00134222 -5.66628e-06
2.39937e-05 -5.66628e-06 0.00135477
0.00018086 3.30042e-05 9.08797e-07
3.30042e-05 -0.00011997 2.73897e-06
9.08797e-07 2.73897e-06 -0.000272776
1.28795e-05 2.66239e-05 -1.29741e-07
2.66239e-05 -0.000265513 -5.68285e-06
-1.29741e-07 -5.68285e-06 -0.000341865
0.000558963 7.76481e-05 -2.30914e-07
7.76481e-05 0.00012143 5.28278e-07
-2.30914e-07 5.28278e-07 -1.21754e-05
0.000435363 1.26927e-05 1.78178e-06
1.26927e-05 -3.0056e-05 -4.88996e-06
1.78178e-06 -4.88996e-06 -4.55701e-05
0.000292915 9.11618e-06 1.73233e-06
9.11618e-06 -8.75452e-05 3.77275e-08
1.73233e-06 3.77275e-08 -0.000151277
0.000177072 -0.000100294 3.01084e-07
-0.000100294 -0.000121529 1.93467e-06
3.01084e-07 1.93467e-06 -0.000240354
0.00208302 -8.91256e-07 -1.40102e-05
-8.91256e-07 0.00103391 -5.2719e-06
-1.40102e-05 -5.2719e-06 0.00105069
0.00041916 7.70759e-06 1.38305e-07
7.70759e-06 -3.98927e-05 -7.98989e-08
1.38305e-07 -7.98989e-08 -5.23713e-05
0.000389683 -1.01671e-05 -3.1137e-06
-1.01671e-05 -2.39195e-05 3.90644e-06
-3.1137e-06 3.90644e-06 -7.88257e-05
0.00206967 1.47457e-05 -4.99248e-06
1.47457e-05 0.00102691 -1.43554e-08
-4.99248e-06 -1.43554e-08 0.00104321
0.000417553 6.33757e-06 -1.68745e-06
6.33757e-06 -3.96976e-05 4.07817e-06
-1.68745e-06 4.07817e-06 -5.17318e-05
0.00206025 3.02991e-05 4.89683e-06
3.02991e-05 0.00102279 5.41176e-06
4.89683e-06 5.41176e-06 0.00103773
-0.000837938 -0.00147755 -0.000344863
-0.00147755 -0.000154945 0.000148478
-0.000344863 0.000148478 -0.00441253
0.00384033 0.00170593 -0.000225798
0.00170593 0.010467 5.83832e-05
-0.000225798 5.83832e-05 0.0041942
0.00477483 0.000741986 -0.00143484
0.000741986 0.00496096 0.000321819
-0.00143484 0.000321819 0.00252152
0.000581968 0.000126131 8.3712e-06
0.000126131 0.000151843 8.26635e-06
8.3712e-06 8.26635e-06 -2.23761e-05
0.00635739 -0.00141307 -0.000203469
-0.00141307 0.00404256 0.000327067
-0.000203469 0.000327067 0.00119134
0.00459431 -0.00163536 -0.000329044
-0.00163536 0.00224277 3.83811e-05
-0.000329044 3.83811e-05 -0.00295052
0.0185659 0.00706178 0.000291371
0.00706178 0.011398 -0.000504128
0.000291371 -0.000504128 0.00385644
0.00783048 -0.00173186 0.000157191
-0.00173186 -0.000174382 -2.76734e-05
0.000157191 -2.76734e-05 0.000960629
0.015336 -0.00372338 0.000377888
-0.00372338 0.000370914 -0.00023221
0.000377888 -0.00023221 0.000601676
0.0175755 0.00611717 -0.00100827
0.00611717 0.00483736 0.000431568
-0.00100827 0.000431568 -0.00217569
0.0161715 0.00486125 0.000251432
0.00486125 0.00903823 0.000288664
0.000251432 0.000288664 0.00498136
0.0078059 -0.00339741 -9.89978e-05
-0.00339741 -0.000714713 -6.17805e-06
-9.89978e-05 -6.17805e-06 0.000672133
0.0134101 -0.00666168 2.25097e-06
-0.00666168 0.00130701 -4.59762e-05
2.25097e-06 -4.59762e-05 -0.000978131
0.0111339 0.00287442 0.000131727
0.00287442 0.00673292 -0.000451123
0.000131727 -0.000451123 -0.000197753
0.0152992 0.00137832 -9.52102e-06
0.00137832 0.00147076 6.80332e-05
-9.52102e-06 6.80332e-05 1.57858e-05
0.00381986 -0.00364443 -4.97875e-05
-0.00364443 0.000496594 6.83972e-05
-4.97875e-05 6.83972e-05 0.00126469
0.011 -0.00656603 0.000285355
-0.00656603 0.00466716 -0.000168514
0.000285355 -0.000168514 0.000732689
0.00925032 -0.000151578 4.55949e-05
-0.000151578 0.00629933 -0.000510046
4.55949e-05 -0.000510046 0.00163267
0.0147838 -0.000277256 -0.0002135
-0.000277256 -0.000572871 0.000322302
-0.0002135 0.000322302 0.000611344
0.000177965 0.000161117 9.47127e-06
0.000161117 -1.23024e-05 1.50815e-05
9.47127e-06 1.50815e-05 -0.00023044
0.000543718 -0.000106759 4.46264e-07
-0.000106759 0.000244777 -3.01871e-07
4.46264e-07 -3.01871e-07 -1.92861e-05
0.000439639 6.68162e-05 6.54141e-06
6.68162e-05 0.000109945 -2.72681e-09
6.54141e-06 -2.72681e-09 -4.72973e-05
0.000607267 0.000190804 2.89402e-06
0.000190804 0.000114164 1.93199e-05
2.89402e-06 1.93199e-05 -4.04721e-05
0.000895871 0.000253426 -7.57539e-09
0.000253426 0.000387177 -9.17133e-07
-7.57539e-09 -9.17133e-07 0.000166639
0.00104658 0.000138409 4.714e-07
0.000138409 0.00050195 -2.90086e-06
4.714e-07 -2.90086e-06 0.000312965
0.00113239 0.000212592 -1.96194e-06
0.000212592 0.000534042 -1.78136e-07
-1.96194e-06 -1.78136e-07 0.000327771
0.00111339 0.000237305 3.27639e-06
0.000237305 0.000549733 1.9367e-06
3.27639e-06 1.9367e-06 0.000333439
0.00114581 -0.00105694 0.000137998
-0.00105694 -0.000976902 -8.97766e-05
0.000137998 -8.97766e-05 -0.000598034
-0.000198718 -0.000862242 -3.17662e-05
-0.000862242 -0.000949007 -1.53159e-05
-3.17662e-05 -1.53159e-05 -0.000962795
0.000399576 -0.00015849 5.6168e-06
-0.00015849 0.000183009 -2.84877e-05
5.6168e-06 -2.84877e-05 -0.000120681
0.00212257 -0.000846101 3.06656e-05
-0.000846101 0.00122474 -2.57504e-05
3.06656e-05 -2.57504e-05 0.000836155
0.00287202 -0.000603511 -2.27351e-05
-0.000603511 0.00176161 1.84595e-05
-2.27351e-05 1.84595e-05 0.00135228
0.00182943 -0.000194719 1.26743e-05
-0.000194719 0.00114603 -2.17015e-05
1.26743e-05 -2.17015e-05 0.000795089
4.76033e-05 6.22115e-05 2.77162e-06
6.22115e-05 -4.47048e-05 8.75495e-06
2.77162e-06 8.75495e-06 -0.000268837
0.000569345 -0.00185689 -1.39237e-05
-0.00185689 -0.000612147 -6.32225e-06
-1.39237e-05 -6.32225e-06 -0.000920701
0.00152119 -9.12671e-05 -2.17259e-06
-9.12671e-05 0.00106762 -2.27744e-06
-2.17259e-06 -2.27744e-06 0.000684517
-0.000294347 -0.000262494 -1.18659e-05
-0.000262494 8.65604e-05 9.93131e-06
-1.18659e-05 9.93131e-06 -0.000410712
-0.000629171 -0.000586783 3.29483e-05
-0.000586783 -0.000570543 -4.07964e-06
3.29483e-05 -4.07964e-06 -0.000594708
0.000429815 9.93673e-05 6.00807e-06
9.93673e-05 0.000219895 5.38351e-06
6.00807e-06 5.38351e-06 2.86096e-05
-0.000363995 -0.00186401 -0.000116364
-0.00186401 -1.51634e-05 -2.15324e-05
-0.000116364 -2.15324e-05 -0.000683053
-0.000823596 -0.000538085 -2.46043e-05
-0.000538085 -0.000184942 2.02438e-05
-2.46043e-05 2.02438e-05 -0.000642801
0.000428191 0.000144544 1.22742e-06
0.000144544 0.000648078 -8.67219e-06
1.22742e-06 -8.67219e-06 0.000103618
0.00184227 0.000292795 -3.51048e-06
0.000292795 0.00141259 8.42042e-06
-3.51048e-06 8.42042e-06 0.000952161
-0.000821393 9.81439e-05 0.000238559
9.81439e-05 0.00320259 5.9496e-05
0.000238559 5.9496e-05 0.00116967
1.80826e-05 4.07808e-05 0.000211979
4.07808e-05 0.00132885 -3.66856e-05
0.000211979 -3.66856e-05 -0.0039507
-0.0141676 -0.000544728 -0.000489563
-0.000544728 0.00683531 2.81681e-05
-0.000489563 2.81681e-05 0.000908567
0.00187843 0.000801557 2.14701e-05
0.000801557 0.00115614 7.21847e-07
2.14701e-05 7.21847e-07 0.000731287
-0.000595948 0.00102543 1.58623e-05
0.00102543 -0.000112219 1.21204e-05
1.58623e-05 1.21204e-05 -0.000750419
0.0059666 0.00167986 0.000544843
0.00167986 0.00471333 0.000133121
0.000544843 0.000133121 0.000800865
0.00682989 0.00528236 0.000264267
0.00528236 0.00318959 0.000231188
0.000264267 0.000231188 -0.000801789
0.00316386 0.00351897 -0.000164008
0.00351897 0.00192651 -0.000156252
-0.000164008 -0.000156252 0.000226321
0.00509229 -0.00224207 -0.00018209
-0.00224207 0.00553299 -0.000532105
-0.00018209 -0.000532105 0.000413229
0.00346076 0.000745767 0.000142157
0.000745767 0.00101506 0.000160686
0.000142157 0.000160686 -0.00110381
0.00968614 -0.000386865 -4.8192e-05
-0.000386865 -0.00530868 -0.000273058
-4.8192e-05 -0.000273058 -0.00278836
0.000902756 0.000753779 3.84523e-06
0.000753779 0.000797917 -8.78908e-07
3.84523e-06 -8.78908e-07 0.000226388
-0.0031229 0.000383497 -2.83425e-07
0.000383497 0.00115649 8.23173e-06
-2.83425e-07 8.23173e-06 -0.000778509
0.00600068 -0.000412256 0.000185843
-0.000412256 8.50455e-05 1.36691e-05
0.000185843 1.36691e-05 -0.0013709
-0.00191026 0.000769974 -2.07155e-05
0.000769974 1.23669e-05 -1.27446e-05
-2.07155e-05 -1.27446e-05 -0.000987584
0.0155826 0.0016527 1.0097e-05
0.0016527 0.0014158 -7.24835e-05
1.0097e-05 -7.24835e-05 4.38466e-06
0.00416438 0.00273243 0.000328147
0.00273243 0.00523012 0.000199768
0.000328147 0.000199768 -0.00124365
0.0117553 0.000645655 -0.000199275
0.000645655 0.0044729 1.31869e-05
-0.000199275 1.31869e-05 -0.000145402
0.000882953 0.00074905 -3.49685e-06
0.00074905 0.000964169 -2.35539e-05
-3.49685e-06 -2.35539e-05 0.000216557
0.00275342 -3.41463e-05 9.81386e-06
-3.41463e-05 0.00146889 1.58519e-05
9.81386e-06 1.58519e-05 -2.47836e-05
0.00406159 -0.00228624 0.000217486
-0.00228624 0.00385636 -0.000283978
0.000217486 -0.000283978 0.00146096
0.0288506 0.00678451 0.000399683
0.00678451 0.0107635 -0.000358786
0.000399683 -0.000358786 0.00561246
0.0100313 -0.000445511 -0.000147063
-0.000445511 0.00691262 0.000585754
-0.000147063 0.000585754 0.00211456
-0.00149213 0.000754465 -0.000126259
0.000754465 0.000720514 -0.000129734
-0.000126259 -0.000129734 -0.00032386
0.00299657 0.00116445 0.000253119
0.00116445 0.00638568 2.18332e-05
0.000253119 2.18332e-05 -0.00310953
0.00160937 0.000506152 1.38771e-05
0.000506152 0.00119548 1.11062e-05
1.38771e-05 1.11062e-05 0.000697512
0.000907651 0.000351309 7.04636e-06
0.000351309 0.00100298 7.90427e-06
7.04636e-06 7.90427e-06 0.000410586
0.000509593 -9.43073e-05 -6.49054e-06
-9.43073e-05 0.00106618 1.69988e-05
-6.49054e-06 1.69988e-05 0.000506527
-0.00107081 -4.65163e-06 3.60514e-06
-4.65163e-06 -0.000729474 -3.33467e-06
3.60514e-06 -3.33467e-06 -0.000946758
-0.000682326 -1.16783e-05 1.89254e-06
-1.16783e-05 5.16597e-06 3.92243e-06
1.89254e-06 3.92243e-06 -0.000537292
3.83976e-05 2.91018e-05 -6.89483e-06
2.91018e-05 0.000558967 -1.04686e-05
-6.89483e-06 -1.04686e-05 -2.61952e-05
-0.000186645 -8.35452e-06 -3.44841e-07
-8.35452e-06 8.24684e-05 3.31033e-07
-3.44841e-07 3.31033e-07 -0.000233534
-0.000236087 -7.93223e-05 3.1457e-06
-7.93223e-05 0.00031524 2.38314e-06
3.1457e-06 2.38314e-06 -0.000182666
0.00221812 -0.000527883 1.28012e-05
-0.000527883 0.0014551 -1.28966e-05
1.28012e-05 -1.28966e-05 0.00109051
-8.73058e-05 -4.94102e-05 -1.91213e-06
-4.94102e-05 7.65604e-06 9.55655e-06
-1.91213e-06 9.55655e-06 -0.000192092
-0.000838466 1.69774e-05 1.59147e-06
1.69774e-05 -0.000614177 4.41541e-06
1.59147e-06 4.41541e-06 -0.000755266
0.00102713 -0.000345184 -2.0596e-06
-0.000345184 0.000505975 6.0242e-06
-2.0596e-06 6.0242e-06 0.000297183
-0.00433627 8.56977e-05 2.83923e-05
8.56977e-05 -0.0024773 2.44941e-05
2.83923e-05 2.44941e-05 -0.00284118
-0.000966139 -9.64713e-05 2.31808e-05
-9.64713e-05 -0.000712312 -2.04816e-06
2.31808e-05 -2.04816e-06 -0.000729502
-5.34198e-05 -0.000381286 -7.55645e-06
-0.000381286 -0.000245684 -4.94292e-06
-7.55645e-06 -4.94292e-06 -0.000550856
0.00167307 -0.000761119 1.2102e-06
-0.000761119 0.000608794 -1.8484e-06
1.2102e-06 -1.8484e-06 -4.94526e-06
0.00191593 -0.000895109 -1.01341e-05
-0.000895109 0.000629515 8.09996e-07
-1.01341e-05 8.09996e-07 4.76477e-05
0.00134616 -0.00039899 3.74914e-06
-0.00039899 0.000471352 -4.27493e-06
3.74914e-06 -4.27493e-06 0.000234293
0.00149556 -0.000653637 9.338e-07
-0.000653637 0.000515863 1.09616e-06
9.338e-07 1.09616e-06 5.84896e-05
0.00180163 -0.000796129 4.82622e-06
-0.000796129 0.000552428 -6.59645e-06
4.82622e-06 -6.59645e-06 3.24711e-05
0.0021433 -0.000639819 2.48253e-06
-0.000639819 0.000927622 3.89232e-06
2.48253e-06 3.89232e-06 0.000495706
0.00101069 -0.000636897 2.32713e-06
-0.000636897 0.000140197 -5.48193e-06
2.32713e-06 -5.48193e-06 -0.000334043
0.00120078 -0.000252789 2.01199e-06
-0.000252789 0.000435216 -5.63768e-06
2.01199e-06 -5.63768e-06 0.000155502
0.00105154 -0.000426518 -3.25593e-06
-0.000426518 0.000310136 1.5857e-06
-3.25593e-06 1.5857e-06 -2.33963e-06
-0.000976742 -0.000258836 -3.18841e-07
-0.000258836 -0.000982308 -8.37239e-06
-3.18841e-07 -8.37239e-06 -0.00127799
-0.000265572 -8.82549e-05 8.78793e-07
-8.82549e-05 -0.000338117 -5.22473e-06
8.78793e-07 -5.22473e-06 -0.000630216
0.000492998 -0.000207564 1.68035e-07
-0.000207564 0.00016473 -5.49986e-08
1.68035e-07 -5.49986e-08 -0.000159613
-0.000407704 -0.0001709 7.58458e-06
-0.0001709 -0.000465906 1.64399e-06
7.58458e-06 1.64399e-06 -0.000713764
0.00112471 -0.000196111 -1.41384e-06
-0.000196111 0.000557123 2.5736e-06
-1.41384e-06 2.5736e-06 0.000278
0.000714441 -0.000161136 4.98429e-07
-0.000161136 0.000235233 3.87503e-07
4.98429e-07 3.87503e-07 7.25549e-06
0.000301636 -3.86779e-05 1.68365e-06
-3.86779e-05 -8.43429e-05 7.37796e-06
1.68365e-06 7.37796e-06 -0.000217286
0.00137512 -0.000253978 -2.09691e-06
-0.000253978 0.000663947 7.62773e-07
-2.09691e-06 7.62773e-07 0.000459284
0.000553788 -4.09919e-05 -1.38858e-06
-4.09919e-05 7.77141e-05 -2.2806e-07
-1.38858e-06 -2.2806e-07 -3.79704e-05
0.000320584 4.69265e-05 3.47382e-06
4.69265e-05 -8.25749e-05 9.28949e-06
3.47382e-06 9.28949e-06 -0.000131555
0.000843305 -0.000100027 4.6086e-07
-0.000100027 0.000275883 -4.29922e-06
4.6086e-07 -4.29922e-06 0.00016466
0.000436398 -2.07081e-05 -1.65854e-06
-2.07081e-05 -2.05235e-05 -5.52235e-08
-1.65854e-06 -5.52235e-08 -5.95708e-05
0.0027809 9.52744e-05 -3.74941e-07
9.52744e-05 0.00148848 3.04607e-06
-3.74941e-07 3.04607e-06 0.00148989
0.000483279 -3.78623e-05 3.46824e-06
-3.78623e-05 1.28347e-05 -7.47508e-06
3.46824e-06 -7.47508e-06 -2.27521e-05
0.00180772 4.22535e-05 2.14588e-05
4.22535e-05 0.000856197 -1.04476e-06
2.14588e-05 -1.04476e-06 0.000860206
0.0026503 3.3293e-05 3.10303e-05
3.3293e-05 0.00140009 -6.04159e-06
3.10303e-05 -6.04159e-06 0.00141181
0.000226625 4.08202e-05 3.48525e-06
4.08202e-05 -0.000107465 2.70839e-06
3.48525e-06 2.70839e-06 -0.000249213
0.000117657 1.54146e-05 1.88974e-06
1.54146e-05 -0.000198197 -4.03262e-06
1.88974e-06 -4.03262e-06 -0.000290217
0.000435288 5.18937e-05 -3.77916e-07
5.18937e-05 4.40541e-05 -9.86727e-07
-3.77916e-07 -9.86727e-07 -0.000104756
0.000464565 1.45089e-05 1.73177e-06
1.45089e-05 -1.14411e-05 -5.59372e-06
1.73177e-06 -5.59372e-06 -3.15583e-05
0.000107603 2.58175e-05 -8.46482e-07
2.58175e-05 -0.000204215 -2.13691e-06
-8.46482e-07 -2.13691e-06 -0.000284043
0.000618843 7.99847e-05 9.88167e-07
7.99847e-05 0.000178355 3.08286e-06
9.88167e-07 3.08286e-06 3.24978e-05
0.00215068 -1.50852e-05 -1.9459e-05
-1.50852e-05 0.0010766 -5.2923e-06
-1.9459e-05 -5.2923e-06 0.00109284
0.000431975 9.66295e-06 -8.58746e-07
9.66295e-06 -3.32882e-05 -1.4297e-07
-8.58746e-07 -1.4297e-07 -4.8169e-05
1.56e-05 1.77908e-05 2.08095e-06
1.77908e-05 -0.000262681 3.71697e-06
2.08095e-06 3.71697e-06 -0.000330678
0.00207399 -1.09472e-07 -4.08127e-06
-1.09472e-07 0.00102807 6.66791e-08
-4.08127e-06 6.66791e-08 0.00104491
0.000407003 7.10266e-06 -2.09519e-06
7.10266e-06 -4.81452e-05 4.27417e-06
-2.09519e-06 4.27417e-06 -6.02183e-05
0.00208995 1.59132e-05 1.01927e-05
1.59132e-05 0.0010404 5.37622e-06
1.01927e-05 5.37622e-06 0.00105636
0.000793184 -0.00011284 0.000233312
-0.00011284 0.00396763 0.000129421
0.000233312 0.000129421 0.00232745
-0.00056393 -0.000583294 -7.4517e-05
-0.000583294 0.00052937 7.83855e-07
-7.4517e-05 7.83855e-07 -0.00446194
0.000885829 0.00172437 -0.000236478
0.00172437 0.00990346 -9.14583e-05
-0.000236478 -9.14583e-05 0.00322773
0.000835212 0.000161631 1.03804e-06
0.000161631 0.000295414 1.98034e-07
1.03804e-06 1.98034e-07 0.000129363
0.000211293 0.000114563 7.78035e-06
0.000114563 -8.75503e-05 4.87023e-06
7.78035e-06 4.87023e-06 -0.000258361
0.0014935 0.00025759 1.2903e-05
0.00025759 0.000709858 1.45467e-05
1.2903e-05 1.45467e-05 0.000539077
0.00833978 -0.000937413 -0.000251025
-0.000937413 7.24424e-05 0.000179016
-0.000251025 0.000179016 -0.00192584
0.0067027 -0.00208084 0.000150639
-0.00208084 0.00362505 3.14622e-05
0.000150639 3.14622e-05 0.00166127
0.00469764 -0.00311539 0.000324532
-0.00311539 0.00200398 -0.000339068
0.000324532 -0.000339068 -0.00306238
0.00952641 -0.00403818 -2.24819e-05
-0.00403818 -0.000592286 -4.292e-05
-2.24819e-05 -4.292e-05 0.000982697
0.00340523 -0.00597057 -0.000773146
-0.00597057 -0.00221338 5.12117e-05
-0.000773146 5.12117e-05 -0.00352553
0.0297264 0.00587411 0.000532137
0.00587411 0.0142074 0.000277058
0.000532137 0.000277058 0.00591444
0.00837105 -0.000847959 0.000426118
-0.000847959 -0.00175209 -0.000318241
0.000426118 -0.000318241 -0.00309804
0.0025521 -0.00371441 -1.19473e-05
-0.00371441 -0.000958879 1.72401e-05
-1.19473e-05 1.72401e-05 0.000449314
0.00628768 -0.00655568 -0.000234787
-0.00655568 0.00256955 1.00674e-05
-0.000234787 1.00674e-05 -0.00250537
0.00469747 0.00447252 -0.000118256
0.00447252 0.00664813 -0.000385796
-0.000118256 -0.000385796 0.000245599
0.012454 -0.000272212 -0.000132667
-0.000272212 -0.00286609 0.000174018
-0.000132667 0.000174018 -0.00100984
-0.00135404 -0.00248395 -0.000170252
-0.00248395 0.00025193 9.31116e-05
-0.000170252 9.31116e-05 -0.000288412
0.00873941 -0.00366105 -0.000446085
-0.00366105 0.0059511 0.000257286
-0.000446085 0.000257286 -3.05456e-05
0.00393596 -0.000171528 5.02882e-05
-0.000171528 0.00310344 -0.000346595
5.02882e-05 -0.000346595 -0.00162901
0.00979562 0.000245867 9.88263e-05
0.000245867 -0.00154428 0.000151022
9.88263e-05 0.000151022 -0.00172267
-0.00013043 8.36592e-05 1.01921e-05
8.36592e-05 -0.000248491 2.21002e-05
1.01921e-05 2.21002e-05 -0.000388521
0.000666369 2.18172e-05 1.4126e-06
2.18172e-05 0.000283186 -1.95399e-06
1.4126e-06 -1.95399e-06 5.36687e-05
0.000440679 -0.000203283 9.15143e-06
-0.000203283 0.000116612 -9.68903e-06
9.15143e-06 -9.68903e-06 -0.000115603
0.000618625 0.00017517 -2.01371e-06
0.00017517 0.000135764 2.28557e-06
-2.01371e-06 2.28557e-06 -2.64394e-05
0.000852353 0.000197498 4.52421e-06
0.000197498 0.000368303 -8.64141e-06
4.52421e-06 -8.64141e-06 0.000154154
0.001256 0.000244078 -5.0041e-06
0.000244078 0.000613637 -6.8725e-06
-5.0041e-06 -6.8725e-06 0.00040407
0.00105175 -0.00169788 7.25388e-05
-0.00169788 -0.00013407 -2.15201e-05
7.25388e-05 -2.15201e-05 -0.000415246
-0.000371873 -0.000492204 9.23612e-06
-0.000492204 -0.000476556 -2.79482e-05
9.23612e-06 -2.79482e-05 -0.000443896
0.000205676 0.000164723 -3.5828e-06
0.000164723 6.78259e-05 -2.14792e-05
-3.5828e-06 -2.14792e-05 -0.000187517
0.00280649 -0.000597865 8.55917e-05
-0.000597865 0.00179205 -4.09889e-05
8.55917e-05 -4.09889e-05 0.00133682
0.00251928 -0.000164151 9.37445e-06
-0.000164151 0.0016164 -1.16023e-05
9.37445e-06 -1.16023e-05 0.00126914
-0.000466908 9.42704e-05 9.17256e-06
9.42704e-05 -0.000283844 1.95262e-06
9.17256e-06 1.95262e-06 -0.000497603
7.67455e-05 5.39771e-05 3.26599e-06
5.39771e-05 0.000308888 3.64856e-06
3.26599e-06 3.64856e-06 -0.00010359
0.0020707 -0.00194759 -6.24052e-05
-0.00194759 0.00115034 2.23888e-06
-6.24052e-05 2.23888e-06 0.000385678
0.00020353 -4.77921e-05 -6.4122e-06
-4.77921e-05 0.000606621 2.70966e-07
-6.4122e-06 2.70966e-07 -4.54585e-06
0.000198701 -0.000443736 -1.33978e-05
-0.000443736 0.000569046 -9.83262e-07
-1.33978e-05 -9.83262e-07 -3.29397e-05
0.000975355 0.00022967 7.00217e-06
0.00022967 0.000811654 -1.4003e-05
7.00217e-06 -1.4003e-05 0.000480576
-0.00307873 -0.000361399 -6.87493e-05
-0.000361399 -0.000332589 -9.26864e-06
-6.87493e-05 -9.26864e-06 -0.00138625
0.000351977 -0.000228692 -1.50683e-05
-0.000228692 0.00107208 -9.40251e-06
-1.50683e-05 -9.40251e-06 0.000360267
-0.00237597 -6.23526e-05 -2.40342e-05
-6.23526e-05 -0.000631029 4.17976e-07
-2.40342e-05 4.17976e-07 -0.00128646
0.000536675 0.000464208 -8.76525e-06
0.000464208 -0.00033086 5.61489e-07
-8.76525e-06 5.61489e-07 -0.00316422
-0.00200541 0.00058882 0.000137614
0.00058882 0.0029358 -2.08473e-06
0.000137614 -2.08473e-06 0.000850384
-0.0012701 -6.88959e-05 0.000441325
-6.88959e-05 0.000512858 4.69596e-05
0.000441325 4.69596e-05 -0.00470368
0.000206798 0.000761196 1.17711e-05
0.000761196 0.000349296 2.06071e-05
1.17711e-05 2.06071e-05 -0.000258259
0.00027956 0.00121314 -1.92175e-05
0.00121314 0.000719314 -2.93218e-05
-1.92175e-05 -2.93218e-05 -0.000230632
-0.00266714 0.000355323 -0.000142692
0.000355323 0.00141498 -4.97765e-05
-0.000142692 -4.97765e-05 -0.000654158
-0.00442745 0.00092387 0.000160808
0.00092387 0.00363361 0.000230753
0.000160808 0.000230753 -0.00251209
0.00208575 0.000696644 -0.000162206
0.000696644 -0.00159862 -0.000502619
-0.000162206 -0.000502619 -0.00747585
0.00531996 -1.71039e-05 0.000114038
-1.71039e-05 -0.000160139 5.0178e-05
0.000114038 5.0178e-05 -0.00100843
0.00752671 -0.00057726 -0.000403753
-0.00057726 -0.00182854 0.000297448
-0.000403753 0.000297448 -0.00320173
0.000316551 0.000572813 -4.62716e-06
0.000572813 0.000721872 -2.50062e-07
-4.62716e-06 -2.50062e-07 6.43859e-05
0.00160849 0.000232214 5.1816e-05
0.000232214 0.00139154 2.13705e-05
5.1816e-05 2.13705e-05 -5.55372e-05
0.00558926 -0.00152514 -0.000139872
-0.00152514 0.00349526 -1.64545e-05
-0.000139872 -1.64545e-05 0.00159778
-0.000231134 0.000913886 -0.00015004
0.000913886 0.00211314 -1.71505e-05
-0.00015004 -1.71505e-05 0.000141622
0.0201405 0.00647683 -0.000184678
0.00647683 0.0077523 -0.000490773
-0.000184678 -0.000490773 0.00273475
0.00636866 0.00394266 0.000100128
0.00394266 0.00694708 0.000415687
0.000100128 0.000415687 -6.64342e-05
0.005914 0.00151289 8.14641e-05
0.00151289 0.0069094 -7.84143e-06
8.14641e-05 -7.84143e-06 -0.000799846
9.21042e-05 4.88494e-05 2.56939e-05
4.88494e-05 0.00151597 -1.78878e-05
2.56939e-05 -1.78878e-05 9.81204e-05
0.000329203 -9.43882e-05 -0.000220809
-9.43882e-05 0.00453309 -1.18052e-06
-0.000220809 -1.18052e-06 0.00262267
0.000999628 -0.000939278 0.000865365
-0.000939278 0.00053991 -0.000279597
0.000865365 -0.000279597 -0.00508451
0.0286846 0.0113205 -0.000138265
0.0113205 0.019906 -5.9565e-05
-0.000138265 -5.9565e-05 0.0122921
0.013919 0.00486364 0.000203674
0.00486364 0.00574309 0.00106694
0.000203674 0.00106694 -0.00171989
0.0124733 -0.00512219 0.000478786
-0.00512219 0.0071912 -0.000324578
0.000478786 -0.000324578 -7.4803e-05
0.00172674 -0.000798953 -7.66238e-05
-0.000798953 0.00341694 4.88914e-05
-7.66238e-05 4.88914e-05 0.00209033
0.000714148 0.000277876 -5.82652e-06
0.000277876 0.000915944 2.70355e-06
-5.82652e-06 2.70355e-06 0.000376569
-7.65302e-05 -0.000102302 1.34863e-06
-0.000102302 0.000595621 -5.83277e-06
1.34863e-06 -5.83277e-06 -3.10607e-05
0.000836655 -0.00061196 5.34765e-05
-0.00061196 0.000855041 -1.73913e-05
5.34765e-05 -1.73913e-05 0.000150328
0.00022666 -7.64473e-05 -2.76703e-06
-7.64473e-05 0.000281218 1.38231e-05
-2.76703e-06 1.38231e-05 1.88692e-05
-6.22749e-05 -0.000108941 -5.23372e-06
-0.000108941 0.000350521 -2.00464e-05
-5.23372e-06 -2.00464e-05 -0.00010391
0.000796826 -0.0003521 -5.10297e-06
-0.0003521 0.000762775 4.89444e-07
-5.10297e-06 4.89444e-07 0.000385356
0.0012204 -0.000810184 3.03685e-05
-0.000810184 0.000613291 -1.6124e-05
3.03685e-05 -1.6124e-05 0.000159277
0.00067382 -0.000385302 4.15726e-06
-0.000385302 0.000327317 7.89541e-07
4.15726e-06 7.89541e-07 3.52217e-05
0.00130105 -0.000694844 1.9005e-05
-0.000694844 0.000606421 -4.85152e-06
1.9005e-05 -4.85152e-06 0.00013411
0.00145065 -0.00080686 1.45682e-05
-0.00080686 0.000644522 -2.79265e-06
1.45682e-05 -2.79265e-06 -0.000141068
0.000509295 -0.000409026 -9.7321e-06
-0.000409026 5.32509e-05 -4.96476e-06
-9.7321e-06 -4.96476e-06 -0.000197461
0.00234391 -0.000850269 -3.52831e-06
-0.000850269 0.000964733 -1.295e-06
-3.52831e-06 -1.295e-06 0.000354884
0.00167319 -0.000972111 -1.49351e-05
-0.000972111 0.000425452 -1.57072e-06
-1.49351e-05 -1.57072e-06 -0.00028482
0.00246905 -0.00116074 -1.32763e-05
-0.00116074 0.000691768 1.67889e-07
-1.32763e-05 1.67889e-07 5.34672e-05
0.00214971 -0.00101088 -4.49205e-06
-0.00101088 0.000691507 -1.33776e-06
-4.49205e-06 -1.33776e-06 9.2856e-05
0.00175383 -0.000871496 -5.68665e-06
-0.000871496 0.000529798 6.03511e-07
-5.68665e-06 6.03511e-07 -4.89111e-05
0.00130127 -0.000636432 -2.03461e-07
-0.000636432 0.00037113 -6.26996e-06
-2.03461e-07 -6.26996e-06 -8.75031e-05
0.00171424 -0.000756441 7.19053e-06
-0.000756441 0.000552305 -6.53337e-06
7.19053e-06 -6.53337e-06 4.86332e-05
0.00179461 -0.000807788 8.51699e-06
-0.000807788 0.000549865 -1.3322e-06
8.51699e-06 -1.3322e-06 2.77341e-05
0.00156273 -0.000376769 2.60557e-06
-0.000376769 0.000572941 3.99324e-07
2.60557e-06 3.99324e-07 0.000257586
0.00117984 -0.000544245 6.49688e-06
-0.000544245 0.000306657 -4.26331e-06
6.49688e-06 -4.26331e-06 -0.000104969
-0.000385372 -0.00045223 -1.43074e-05
-0.00045223 -0.000725328 -2.72483e-06
-1.43074e-05 -2.72483e-06 -0.00114738
0.000449602 -0.000141283 1.26023e-07
-0.000141283 5.97995e-05 -6.25051e-06
1.26023e-07 -6.25051e-06 -0.000231277
0.000850831 -0.000301361 -4.75671e-07
-0.000301361 0.000241786 -1.2044e-06
-4.75671e-07 -1.2044e-06 -5.24236e-05
-0.000212078 -0.000315918 -8.53078e-06
-0.000315918 -0.000482232 -1.0757e-06
-8.53078e-06 -1.0757e-06 -0.000789606
0.000243764 -8.63186e-05 -3.84314e-07
-8.63186e-05 -0.000100141 7.16738e-06
-3.84314e-07 7.16738e-06 -0.00027887
0.000811096 -0.000157652 3.64297e-08
-0.000157652 0.000330314 3.42465e-07
3.64297e-08 3.42465e-07 4.2442e-05
-0.000215867 -0.000250015 -1.9342e-06
-0.000250015 -0.000264075 5.32649e-06
-1.9342e-06 5.32649e-06 -0.000582002
0.00163123 -0.000241341 -6.81665e-07
-0.000241341 0.000824531 2.05159e-06
-6.81665e-07 2.05159e-06 0.00058551
0.000754016 -9.88808e-05 -4.5721e-07
-9.88808e-05 0.000206663 -1.6081e-07
-4.5721e-07 -1.6081e-07 6.52569e-05
0.000348505 1.41119e-05 3.26555e-06
1.41119e-05 -6.18733e-05 1.26179e-05
3.26555e-06 1.26179e-05 -0.000120172
0.000799065 -9.53197e-05 2.6914e-07
-9.53197e-05 0.000234916 -5.60629e-06
2.6914e-07 -5.60629e-06 0.000113361
0.000438244 -3.46491e-06 -4.6279e-06
-3.46491e-06 -1.5056e-05 -3.86765e-07
-4.6279e-06 -3.86765e-07 -6.1347e-05
0.00313607 0.000100899 -4.78656e-05
0.000100899 0.00172523 5.66987e-06
-4.78656e-05 5.66987e-06 0.00172664
0.000483993 -3.06599e-05 2.93235e-06
-3.06599e-05 6.75125e-06 -7.97648e-06
2.93235e-06 -7.97648e-06 -3.18532e-05
0.00191291 6.21893e-05 2.69205e-05
6.21893e-05 0.000926972 -7.03554e-07
2.69205e-05 -7.03554e-07 0.000926739
0.00285509 5.40071e-05 3.91443e-05
5.40071e-05 0.00153318 -5.83861e-06
3.91443e-05 -5.83861e-06 0.00154245
0.000835127 0.000127261 5.59108e-06
0.000127261 0.00028967 -2.97088e-06
5.59108e-06 -2.97088e-06 0.000122159
0.000505298 6.55456e-05 3.71212e-06
6.55456e-05 5.37228e-05 -3.4292e-06
3.71212e-06 -3.4292e-06 -4.86566e-05
0.000412572 6.24607e-05 -3.24545e-07
6.24607e-05 2.8799e-05 -1.0017e-06
-3.24545e-07 -1.0017e-06 -0.000128005
0.000449548 1.797e-05 1.1312e-06
1.797e-05 -1.91914e-05 -7.0236e-06
1.1312e-06 -7.0236e-06 -4.59905e-05
0.000260496 4.79991e-05 -2.50004e-06
4.79991e-05 -0.000103636 -2.31381e-06
-2.50004e-06 -2.31381e-06 -0.000195961
0.000634781 0.00010176 -1.59174e-06
0.00010176 0.000178573 -3.11143e-06
-1.59174e-06 -3.11143e-06 2.9512e-05
0.00226558 -3.16309e-05 -2.27566e-05
-3.16309e-05 0.0011512 -5.53126e-06
-2.27566e-05 -5.53126e-06 0.00116567
0.000421579 4.93177e-07 7.83326e-07
4.93177e-07 -4.00184e-05 -2.3146e-07
7.83326e-07 -2.3146e-07 -5.92492e-05
9.70298e-05 2.1994e-05 -1.58042e-06
2.1994e-05 -0.000210567 1.37781e-06
-1.58042e-06 1.37781e-06 -0.000293055
0.00215518 -1.47001e-05 -5.98584e-06
-1.47001e-05 0.0010796 1.28744e-07
-5.98584e-06 1.28744e-07 0.00109591
0.000422577 2.92353e-06 -3.65795e-06
2.92353e-06 -4.02113e-05 4.62581e-06
-3.65795e-06 4.62581e-06 -5.44815e-05
0.00212194 1.33472e-06 1.50381e-05
1.33472e-06 0.00105929 5.30919e-06
1.50381e-05 5.30919e-06 0.00107589
0.00233523 -0.000369687 -0.000126281
-0.000369687 0.00121818 2.47486e-05
-0.000126281 2.47486e-05 -0.000312462
-0.00152261 -0.000122546 0.000122835
-0.000122546 0.00346991 -5.40414e-06
0.000122835 -5.40414e-06 0.00129654
-0.000840773 -0.000389056 0.000169577
-0.000389056 0.00123925 -0.000245488
0.000169577 -0.000245488 -0.0045371
-0.000209095 9.97897e-06 3.26817e-06
9.97897e-06 -0.000283834 -1.00577e-06
3.26817e-06 -1.00577e-06 -0.000533846
0.00318989 0.000257421 6.25807e-06
0.000257421 0.00179444 8.97381e-06
6.25807e-06 8.97381e-06 0.0015769
0.000415847 0.000155692 -4.09174e-06
0.000155692 3.02366e-05 -8.53489e-06
-4.09174e-06 -8.53489e-06 -0.000133765
-3.23049e-05 6.76834e-05 1.07241e-06
6.76834e-05 -0.000259919 -1.61808e-06
1.07241e-06 -1.61808e-06 -0.000427903
9.74567e-05 9.0998e-05 1.13289e-07
9.0998e-05 -0.000209238 -2.00059e-06
1.13289e-07 -2.00059e-06 -0.000332987
3.89843e-05 8.68024e-05 5.46865e-06
8.68024e-05 -0.000208972 5.25724e-06
5.46865e-06 5.25724e-06 -0.000369746
-0.000413712 5.33144e-05 1.57738e-05
5.33144e-05 -0.000478939 4.32023e-06
1.57738e-05 4.32023e-06 -0.000575405
0.00358058 0.00175848 0.000287983
0.00175848 -7.33845e-05 0.000260257
0.000287983 0.000260257 -0.00202758
0.00684889 -0.000483711 -9.65577e-05
-0.000483711 0.000207159 4.80573e-05
-9.65577e-05 4.80573e-05 -0.00181036
0.00500543 -0.000996107 0.000400546
-0.000996107 0.0040053 -0.000132784
0.000400546 -0.000132784 0.00164514
0.01009 -7.66659e-05 -1.46972e-05
-7.66659e-05 -0.00525498 0.000195519
-1.46972e-05 0.000195519 -0.00275224
0.00711868 -0.00482058 -0.000167184
-0.00482058 0.00103446 3.37198e-05
-0.000167184 3.37198e-05 0.00173907
0.000989687 -0.0056984 -0.000424854
-0.0056984 0.00195808 0.000151916
-0.000424854 0.000151916 -0.00451942
0.0217217 0.00487352 0.000227155
0.00487352 0.00880345 -0.000246057
0.000227155 -0.000246057 0.00260738
0.0024336 -0.00369603 -7.08888e-05
-0.00369603 0.000358123 4.06389e-05
-7.08888e-05 4.06389e-05 0.000845502
-0.000936184 -0.0013766 -9.2167e-05
-0.0013766 0.00518121 5.83636e-05
-9.2167e-05 5.83636e-05 -0.00309909
0.0129505 0.00033622 0.000302454
0.00033622 0.00492712 -4.33672e-05
0.000302454 -4.33672e-05 0.00025088
0.0183197 -0.00196749 -8.45993e-05
-0.00196749 0.00260413 -6.74103e-06
-8.45993e-05 -6.74103e-06 0.00306466
-0.00483737 -0.000542594 -0.000235163
-0.000542594 -0.000741582 0.000220788
-0.000235163 0.000220788 -0.00130524
0.00191627 0.00177851 -0.000265185
0.00177851 0.00582995 -0.000164589
-0.000265185 -0.000164589 -0.00250225
0.00451905 -0.00648126 -1.3549e-05
-0.00648126 0.00155728 -0.00025672
-1.3549e-05 -0.00025672 -0.00533183
0.0179642 -0.00304019 0.000304117
-0.00304019 0.0072937 -0.000746604
0.000304117 -0.000746604 0.00374431
-1.48837e-05 5.2859e-06 2.57356e-05
5.2859e-06 0.000142975 -3.3845e-06
2.57356e-05 -3.3845e-06 -0.000217763
0.000602253 0.000190286 -1.64497e-06
0.000190286 0.000238639 -3.86107e-06
-1.64497e-06 -3.86107e-06 8.12118e-05
0.000733153 -9.61447e-06 3.0603e-07
-9.61447e-06 0.000345818 -5.89224e-06
3.0603e-07 -5.89224e-06 9.42139e-05
0.000892588 0.000183132 -2.01067e-06
0.000183132 0.000338128 -1.37619e-05
-2.01067e-06 -1.37619e-05 0.000158873
0.000986199 -0.00157033 0.000108725
-0.00157033 0.000557721 2.70546e-05
0.000108725 2.70546e-05 -0.000173565
0.000869887 -0.000426 4.56334e-06
-0.000426 0.00106091 -2.08896e-05
4.56334e-06 -2.08896e-05 0.000336638
0.000482687 0.000101556 -2.63801e-05
0.000101556 0.000298987 -2.06293e-05
-2.63801e-05 -2.06293e-05 0.000101633
0.00106123 -6.34008e-05 2.44085e-06
-6.34008e-05 0.000818637 -2.37176e-05
2.44085e-06 -2.37176e-05 0.000486376
0.000103057 -4.86368e-05 -4.55173e-06
-4.86368e-05 0.000562134 6.79524e-06
-4.55173e-06 6.79524e-06 3.2568e-05
1.92394e-05 9.99722e-05 2.33499e-06
9.99722e-05 0.000159206 4.13886e-06
2.33499e-06 4.13886e-06 -0.000130739
0.000594556 -6.09454e-05 1.43378e-06
-6.09454e-05 0.000946512 1.74771e-06
1.43378e-06 1.74771e-06 0.000380504
0.000215661 -0.000940989 1.07049e-05
-0.000940989 0.001239 -7.26609e-06
1.07049e-05 -7.26609e-06 -0.00026758
0.000631024 -0.000150483 -2.80623e-06
-0.000150483 0.00133725 -1.38208e-05
-2.80623e-06 -1.38208e-05 0.000665164
0.000428471 0.00013196 1.46109e-06
0.00013196 0.000516738 -8.48658e-06
1.46109e-06 -8.48658e-06 0.000194861
-0.000564065 0.000307474 -0.000197702
0.000307474 0.00273043 -1.79039e-05
-0.000197702 -1.79039e-05 0.000481179
0.000563395 0.000395625 -6.81194e-06
0.000395625 0.00116758 5.27128e-06
-6.81194e-06 5.27128e-06 0.00052435
-0.00301312 -4.10263e-05 -9.71263e-05
-4.10263e-05 0.00308042 -7.55211e-05
-9.71263e-05 -7.55211e-05 0.00110707
0.00174766 0.000173363 2.98504e-05
0.000173363 0.000618334 1.52966e-05
2.98504e-05 1.52966e-05 -0.00106781
-0.00403349 0.00092556 -7.42536e-05
0.00092556 0.0023269 -9.22547e-05
-7.42536e-05 -9.22547e-05 -6.11437e-05
0.000290582 0.00044591 -1.89302e-05
0.00044591 0.000829785 2.89499e-06
-1.89302e-05 2.89499e-06 0.000267277
-0.00127919 0.00110093 0.000223478
0.00110093 0.00081453 0.000116763
0.000223478 0.000116763 -0.000291857
0.00104292 6.96012e-05 9.70346e-05
6.96012e-05 0.0014782 -1.07572e-05
9.70346e-05 -1.07572e-05 0.000303572
0.00677784 -0.00241083 0.000359793
-0.00241083 0.00671137 -0.000209434
0.000359793 -0.000209434 -0.00256662
0.0232582 0.00442194 -0.000268942
0.00442194 0.00913593 0.000230767
-0.000268942 0.000230767 0.0026975
0.00316874 -0.000890217 -0.000360562
-0.000890217 0.00269331 9.58355e-05
-0.000360562 9.58355e-05 0.000567177
0.0151705 0.00544055 -0.00020857
0.00544055 0.00945063 -0.000289747
-0.00020857 -0.000289747 0.00492849
0.000491037 0.000244985 -4.92673e-05
0.000244985 0.00155853 7.08437e-06
-4.92673e-05 7.08437e-06 0.000202908
-0.000283234 -0.000447437 -0.000124547
-0.000447437 0.00343017 1.78696e-06
-0.000124547 1.78696e-06 0.00182543
0.00260932 -0.00199324 0.000310318
-0.00199324 0.00193849 -5.9223e-05
0.000310318 -5.9223e-05 -0.00354397
-0.0037582 -1.10085e-05 6.78532e-05
-1.10085e-05 7.88862e-05 3.88397e-05
6.78532e-05 3.88397e-05 -0.000681826
0.0238813 0.0135137 0.00089334
0.0135137 0.0168524 -0.000304521
0.00089334 -0.000304521 0.00876518
0.01143 0.00339641 -0.000172401
0.00339641 0.00725415 0.000450686
-0.000172401 0.000450686 0.000223191
-0.00212673 -0.00167109 0.000256097
-0.00167109 0.00376076 -0.000188596
0.000256097 -0.000188596 -0.00485676
-0.00210167 -0.000587567 -3.36626e-05
-0.000587567 0.000368383 -3.38134e-05
-3.36626e-05 -3.38134e-05 -0.00104438
0.00114215 -0.00120296 0.000403465
-0.00120296 2.18033e-05 -0.00010378
0.000403465 -0.00010378 -0.00426675
0.00200273 0.00240986 -0.0019962
0.00240986 0.0103798 0.000386646
-0.0019962 0.000386646 0.00399092
0.0237467 0.00888311 -0.000758334
0.00888311 0.00900272 0.000480869
-0.000758334 0.000480869 0.00149031
0.00643428 -0.00483372 -0.000246061
-0.00483372 0.00358779 0.000107727
-0.000246061 0.000107727 5.90393e-05
0.0036391 -0.00248858 6.13025e-05
-0.00248858 0.0040719 2.09602e-05
6.13025e-05 2.09602e-05 0.00259929
7.76048e-05 -9.12361e-05 3.26965e-06
-9.12361e-05 0.000628721 -1.81134e-05
3.26965e-06 -1.81134e-05 -5.52738e-05
8.18053e-05 -0.000486666 5.959e-06
-0.000486666 0.000527951 -2.28504e-06
5.959e-06 -2.28504e-06 -0.000215592
0.000979402 -0.00115871 -3.2993e-06
-0.00115871 0.000693175 4.45117e-06
-3.2993e-06 4.45117e-06 8.30465e-05
-0.000264803 -0.000197588 -4.9062e-06
-0.000197588 0.000271395 1.02234e-05
-4.9062e-06 1.02234e-05 -0.000119681
0.000384042 -0.000582821 -2.52938e-06
-0.000582821 0.000311065 6.07348e-06
-2.52938e-06 6.07348e-06 -9.07368e-05
0.00252966 -0.00106785 3.87433e-05
-0.00106785 0.00102388 -3.4955e-05
3.87433e-05 -3.4955e-05 0.000505561
0.00635002 -0.00140171 -1.53868e-05
-0.00140171 0.00335939 7.04965e-08
-1.53868e-05 7.04965e-08 0.00278177
0.00263372 -0.000981505 1.12056e-05
-0.000981505 0.0012173 -4.44108e-06
1.12056e-05 -4.44108e-06 0.000436255
0.00244537 -0.00120326 3.71414e-06
-0.00120326 0.000744202 -2.10042e-05
3.71414e-06 -2.10042e-05 -3.50932e-05
0.00243589 -0.000856379 -1.41878e-05
-0.000856379 0.000983994 -7.14231e-06
-1.41878e-05 -7.14231e-06 0.000395319
0.00220274 -0.00105431 4.43621e-07
-0.00105431 0.000703768 -1.70862e-06
4.43621e-07 -1.70862e-06 -2.72309e-05
0.00282488 -0.00124963 -8.40112e-06
-0.00124963 0.000894158 -9.82543e-06
-8.40112e-06 -9.82543e-06 0.000186288
0.00247449 -0.000935254 -9.29432e-07
-0.000935254 0.00046918 -6.73658e-06
-9.29432e-07 -6.73658e-06 9.68674e-06
0.00288583 -0.00119173 -1.06914e-05
-0.00119173 0.000893558 -5.21706e-07
-1.06914e-05 -5.21706e-07 0.00027932
0.00270585 -0.00119077 -4.16449e-06
-0.00119077 0.000818594 -2.32375e-07
-4.16449e-06 -2.32375e-07 0.000170831
0.00208383 -0.000989241 6.14766e-06
-0.000989241 0.000668275 -6.37267e-06
6.14766e-06 -6.37267e-06 8.90864e-05
0.00177475 -0.000942042 3.33374e-06
-0.000942042 0.000481567 -1.31456e-06
3.33374e-06 -1.31456e-06 -9.13785e-05
0.00161802 -0.000848981 6.79141e-06
-0.000848981 0.000440274 -1.49287e-06
6.79141e-06 -1.49287e-06 -0.000134751
0.00148488 -0.000634929 7.47116e-06
-0.000634929 0.000461084 2.54805e-06
7.47116e-06 2.54805e-06 3.76e-06
0.00186609 -0.000775543 -9.65195e-07
-0.000775543 0.000657938 -2.04766e-06
-9.65195e-07 -2.04766e-06 0.00014822
0.00182846 -0.000824868 4.05801e-06
-0.000824868 0.000574081 6.69116e-06
4.05801e-06 6.69116e-06 4.85038e-05
0.00172833 -0.00024267 -3.71325e-07
-0.00024267 0.000719595 -5.2067e-06
-3.71325e-07 -5.2067e-06 0.000467945
0.000900139 -0.000322064 -3.17774e-06
-0.000322064 0.000180421 2.56327e-06
-3.17774e-06 2.56327e-06 -0.000122827
0.000547568 -0.000478244 -6.52738e-06
-0.000478244 -0.000105289 -7.71758e-06
-6.52738e-06 -7.71758e-06 -0.000500791
7.96973e-05 -9.80777e-05 -1.22088e-06
-9.80777e-05 -0.000182481 3.48394e-06
-1.22088e-06 3.48394e-06 -0.000426741
0.000804977 -0.000245419 1.83599e-07
-0.000245419 0.000294502 1.3808e-06
1.83599e-07 1.3808e-06 -7.72884e-06
0.000554554 -0.000300807 -4.17878e-08
-0.000300807 0.000102625 1.44658e-06
-4.17878e-08 1.44658e-06 -0.00021702
0.000381639 -4.68243e-05 -9.88297e-06
-4.68243e-05 -6.21454e-05 1.81023e-05
-9.88297e-06 1.81023e-05 -0.000122285
0.000663373 -0.000111265 3.17516e-07
-0.000111265 0.0001532 3.89638e-07
3.17516e-07 3.89638e-07 -2.41084e-05
0.00169661 -0.00025824 -1.14779e-06
-0.00025824 0.000875706 4.5261e-06
-1.14779e-06 4.5261e-06 0.000592141
0.000849549 -0.000115033 6.7863e-07
-0.000115033 0.000263223 -6.7183e-06
6.7863e-07 -6.7183e-06 0.00011948
0.000381198 -7.0171e-06 -8.83131e-07
-7.0171e-06 -5.00592e-05 -6.07986e-07
-8.83131e-07 -6.07986e-07 -0.000104369
0.00330767 0.000131747 -4.81734e-05
0.000131747 0.00184682 5.9541e-06
-4.81734e-05 5.9541e-06 0.00184085
0.000511072 -2.40639e-05 3.37815e-06
-2.40639e-05 2.4659e-05 -9.8439e-06
3.37815e-06 -9.8439e-06 -1.84333e-05
0.00306424 0.000101296 6.31916e-06
0.000101296 0.00167832 7.93083e-07
6.31916e-06 7.93083e-07 0.00167987
0.0028959 7.55767e-05 4.33568e-05
7.55767e-05 0.00156201 -5.53685e-06
4.33568e-05 -5.53685e-06 0.00156865
0.00171904 0.000102226 6.70404e-06
0.000102226 0.00101728 -7.89896e-06
6.70404e-06 -7.89896e-06 0.000700678
0.00180694 0.000211609 8.69131e-06
0.000211609 0.00103231 -1.08427e-05
8.69131e-06 -1.08427e-05 0.000762121
0.000534263 5.25085e-05 5.94218e-06
5.25085e-05 6.29474e-05 -6.33103e-06
5.94218e-06 -6.33103e-06 -5.18199e-05
0.000706693 0.000144869 -1.63034e-07
0.000144869 0.000231384 7.95228e-07
-1.63034e-07 7.95228e-07 5.47508e-05
0.000425505 -1.04516e-05 4.50558e-06
-1.04516e-05 -3.13541e-05 -8.4152e-06
4.50558e-06 -8.4152e-06 -6.3776e-05
0.000519418 6.77921e-05 1.15253e-07
6.77921e-05 6.32924e-05 -3.30816e-07
1.15253e-07 -3.30816e-07 -3.91007e-05
0.000654493 7.1407e-05 -6.24122e-06
7.1407e-05 0.000172296 -3.30649e-06
-6.24122e-06 -3.30649e-06 2.09413e-05
0.0024948 -4.97474e-05 -2.96401e-05
-4.97474e-05 0.00130197 -5.88656e-06
-2.96401e-05 -5.88656e-06 0.0013134
0.000438155 6.92211e-06 -1.23556e-06
6.92211e-06 -2.59654e-05 -1.8717e-07
-1.23556e-06 -1.8717e-07 -5.20593e-05
0.000504487 7.16856e-05 -4.76701e-06
7.16856e-05 5.65362e-05 1.10414e-06
-4.76701e-06 1.10414e-06 -3.69008e-05
0.00227869 -3.1809e-05 -5.29856e-06
-3.1809e-05 0.00115971 2.94876e-07
-5.29856e-06 2.94876e-07 0.0011742
0.000435665 5.03545e-06 -3.521e-06
5.03545e-06 -3.19193e-05 5.13593e-06
-3.521e-06 5.13593e-06 -5.05393e-05
0.00214921 -1.45759e-05 1.81459e-05
-1.45759e-05 0.00107551 5.21325e-06
1.81459e-05 5.21325e-06 0.00109186
-0.00264881 0.000710182 -2.28638e-05
0.000710182 0.00165157 -0.000108701
-2.28638e-05 -0.000108701 -0.000207881
0.00300594 -0.000313312 -2.20386e-05
-0.000313312 0.00186044 -4.15144e-05
-2.20386e-05 -4.15144e-05 0.000558598
0.00011145 -0.000363427 3.09189e-05
-0.000363427 0.00330282 -5.88224e-05
3.09189e-05 -5.88224e-05 0.00152991
0.000566325 6.93515e-05 2.51615e-06
6.93515e-05 0.000288796 -6.35172e-06
2.51615e-06 -6.35172e-06 -3.14281e-05
-0.000105257 0.000159411 6.81685e-06
0.000159411 -0.000274051 -4.00113e-06
6.81685e-06 -4.00113e-06 -0.000483112
-0.00182302 2.40629e-05 1.50373e-05
2.40629e-05 -0.00146932 -1.15443e-05
1.50373e-05 -1.15443e-05 -0.00165023
-0.00217391 -1.47919e-05 -6.31769e-06
-1.47919e-05 -0.00144194 2.08079e-05
-6.31769e-06 2.08079e-05 -0.00172865
0.00175618 0.00032235 2.74428e-06
0.00032235 0.000878282 2.06646e-07
2.74428e-06 2.06646e-07 0.000598918
0.000698222 5.2295e-05 -5.86954e-06
5.2295e-05 0.000205812 -1.57595e-06
-5.86954e-06 -1.57595e-06 1.83604e-05
0.000215346 0.000123116 -9.12292e-06
0.000123116 -0.000102361 -1.24375e-05
-9.12292e-06 -1.24375e-05 -0.000229265
0.00126058 2.00605e-05 4.60596e-06
2.00605e-05 0.000558268 1.07484e-06
4.60596e-06 1.07484e-06 0.000404768
0.000946482 0.000192119 -2.0624e-06
0.000192119 0.000398772 -5.31612e-06
-2.0624e-06 -5.31612e-06 0.000280466
0.00264631 0.000204954 -1.77263e-06
0.000204954 0.00165841 -1.84903e-05
-1.77263e-06 -1.84903e-05 0.00135319
0.00795314 0.00197968 0.000645793
0.00197968 0.00545748 0.000596807
0.000645793 0.000596807 0.00025848
0.00349215 0.00138087 2.58547e-05
0.00138087 0.000784732 8.74236e-05
2.58547e-05 8.74236e-05 -0.00143583
0.00644549 -0.00032058 0.000124787
-0.00032058 -0.000101722 -1.17763e-05
0.000124787 -1.17763e-05 -0.00136132
0.0146259 -0.00101506 -0.000305194
-0.00101506 0.00217739 -0.000144965
-0.000305194 -0.000144965 0.00383859
-2.21624e-05 0.000938112 0.000126144
0.000938112 -0.00192049 0.00043534
0.000126144 0.00043534 -0.00778409
0.00288985 -0.00384734 -5.39124e-05
-0.00384734 0.00109291 -2.43242e-05
-5.39124e-05 -2.43242e-05 0.00124815
0.00481365 -0.0021037 -0.000295991
-0.0021037 0.00559865 7.92474e-05
-0.000295991 7.92474e-05 -0.000698454
0.000400033 -0.00157025 -0.000133656
-0.00157025 0.00129654 0.000141918
-0.000133656 0.000141918 0.000578102
0.0110743 -0.000216487 -0.000291047
-0.000216487 0.00819023 -7.13107e-07
-0.000291047 -7.13107e-07 0.000692402
0.00873952 -0.0029756 0.00013155
-0.0029756 0.00526427 0.000243062
0.00013155 0.000243062 -0.00128089
0.0239901 -0.00553848 5.21766e-05
-0.00553848 0.00724866 -0.000904015
5.21766e-05 -0.000904015 0.002125
0.000508773 0.000384004 -0.000159561
0.000384004 0.00315614 0.000104961
-0.000159561 0.000104961 0.00141452
0.00763628 0.00255238 -0.000289877
0.00255238 0.00672401 -7.32168e-05
-0.000289877 -7.32168e-05 0.000264681
0.0252227 -0.00924003 0.000247601
-0.00924003 0.0140542 -0.000962158
0.000247601 -0.000962158 0.00587515
0.0303379 -0.0130263 0.000104961
-0.0130263 0.0157234 -8.01424e-05
0.000104961 -8.01424e-05 0.00795317
8.53631e-05 0.000307922 2.7094e-05
0.000307922 0.00013488 6.59233e-06
2.7094e-05 6.59233e-06 -0.000300022
3.48432e-05 6.22299e-05 9.25148e-06
6.22299e-05 0.000248763 1.55883e-06
9.25148e-06 1.55883e-06 -0.000159082
0.00129457 0.000217424 -2.64432e-05
0.000217424 0.0006951 -1.69639e-05
-2.64432e-05 -1.69639e-05 0.000521362
0.00477297 -0.00161086 0.000139142
-0.00161086 0.00327326 -1.93565e-05
0.000139142 -1.93565e-05 0.00135029
-0.00072956 -0.000184426 9.32578e-05
-0.000184426 0.000797737 3.12531e-06
9.32578e-05 3.12531e-06 4.41642e-05
-0.000591282 7.06601e-05 -9.04024e-06
7.06601e-05 -0.000233428 8.7963e-07
-9.04024e-06 8.7963e-07 -0.000512211
-0.000496936 -0.000188279 2.07839e-05
-0.000188279 0.000394821 -1.05894e-05
2.07839e-05 -1.05894e-05 -0.000275422
-0.000246884 0.000135173 -4.22967e-06
0.000135173 0.000108672 1.60843e-07
-4.22967e-06 1.60843e-07 -0.000218375
-0.000239913 0.000322531 2.04786e-05
0.000322531 0.000538459 5.7086e-06
2.04786e-05 5.7086e-06 -0.000139821
-0.00235139 9.5145e-05 0.000181594
9.5145e-05 0.00140515 -5.38989e-05
0.000181594 -5.38989e-05 -0.00077672
0.00121387 0.000782896 3.36153e-05
0.000782896 0.000686973 3.90853e-05
3.36153e-05 3.90853e-05 0.000210107
0.00138623 0.00104373 -0.000129149
0.00104373 0.00184237 -0.000111935
-0.000129149 -0.000111935 5.30781e-05
0.000534027 -7.17058e-05 0.000272546
-7.17058e-05 0.00179968 0.000101129
0.000272546 0.000101129 -0.00346847
-0.00301724 0.000443226 -0.000149515
0.000443226 0.00284567 3.24549e-06
-0.000149515 3.24549e-06 0.000411562
0.00389923 -0.00039479 -8.53435e-05
-0.00039479 0.00204004 -8.07295e-07
-8.53435e-05 -8.07295e-07 0.00143776
0.000354413 0.00060657 7.85068e-05
0.00060657 0.00118857 2.00234e-05
7.85068e-05 2.00234e-05 -0.000230465
0.000934945 0.000308107 -0.000114614
0.000308107 0.00313373 0.00010943
-0.000114614 0.00010943 0.00126339
-0.000934009 -0.000270684 -1.49693e-05
-0.000270684 0.00268585 -4.90357e-05
-1.49693e-05 -4.90357e-05 0.000749207
0.015344 -0.00554112 0.000336492
-0.00554112 0.00925813 -0.000201558
0.000336492 -0.000201558 0.00143852
0.0267734 0.00693353 -0.000519447
0.00693353 0.0140221 -0.000274827
-0.000519447 -0.000274827 0.00563574
0.00603184 -0.00247481 -0.000471216
-0.00247481 0.00332131 0.000332155
-0.000471216 0.000332155 -0.00143703
0.0166139 0.0160794 0.00321612
0.0160794 0.0126761 -0.00188441
0.00321612 -0.00188441 0.00416384
0.000530312 -0.000719446 4.49031e-05
-0.000719446 0.00162082 -1.26468e-05
4.49031e-05 -1.26468e-05 0.000143224
-0.000201061 -0.000807846 7.61487e-05
-0.000807846 0.000885496 8.03522e-06
7.61487e-05 8.03522e-06 -0.00412866
0.00436476 0.00302486 -0.0015811
0.00302486 0.00980216 0.000292433
-0.0015811 0.000292433 0.00295559
0.000135875 -0.00134697 4.53699e-05
-0.00134697 0.00179682 2.65277e-05
4.53699e-05 2.65277e-05 0.000631719
0.0250342 0.00860717 0.000466756
0.00860717 0.00975701 0.00014738
0.000466756 0.00014738 0.00232568
0.00725064 -0.00739679 0.000349108
-0.00739679 0.00292222 -9.23763e-05
0.000349108 -9.23763e-05 -0.00149665
0.000375883 -0.00193636 -2.98633e-06
-0.00193636 0.000720606 4.25265e-05
-2.98633e-06 4.25265e-05 -0.000570001
-0.00349716 -0.00199201 0.000207921
-0.00199201 0.00822378 -0.000110411
0.000207921 -0.000110411 0.00320105
0.0202469 0.00914799 -0.00217643
0.00914799 0.00845266 0.000499218
-0.00217643 0.000499218 0.00248379
0.00633809 -0.00599018 -0.000657069
-0.00599018 -0.00148151 0.000231509
-0.000657069 0.000231509 -0.00364765
-0.0010282 -0.00244235 0.000192753
-0.00244235 -0.000420241 -0.000147121
0.000192753 -0.000147121 0.00052832
0.00131363 -0.000680814 -0.000119074
-0.000680814 0.0010662 4.20165e-05
-0.000119074 4.20165e-05 0.000363033
0.000385579 -0.000901411 -1.76275e-05
-0.000901411 0.000434849 1.20877e-05
-1.76275e-05 1.20877e-05 -0.000177939
0.00177684 -0.00109999 2.05931e-05
-0.00109999 0.000743947 -3.57097e-05
2.05931e-05 -3.57097e-05 0.000208361
-0.000833137 -0.00031888 7.24805e-06
-0.00031888 -0.000192856 1.65995e-06
7.24805e-06 1.65995e-06 -0.000546237
0.00113326 -0.000875579 2.52838e-06
-0.000875579 0.000321464 -1.13904e-06
2.52838e-06 -1.13904e-06 -0.000167287
0.00298072 -0.00131215 9.68667e-06
-0.00131215 0.000827808 -1.67802e-05
9.68667e-06 -1.67802e-05 0.000304509
0.00433359 -0.00124069 -3.51118e-05
-0.00124069 0.00206405 6.25291e-06
-3.51118e-05 6.25291e-06 0.00128155
0.00201238 -0.00111246 -3.82755e-06
-0.00111246 0.000503084 -6.78618e-07
-3.82755e-06 -6.78618e-07 -0.000249615
0.00271259 -0.00132216 -2.79776e-07
-0.00132216 0.000616792 -9.78662e-06
-2.79776e-07 -9.78662e-06 -2.28337e-06
0.00306121 -0.00118004 6.23744e-06
-0.00118004 0.00116726 5.10928e-06
6.23744e-06 5.10928e-06 0.000411158
0.00258385 -0.00121151 3.01023e-06
-0.00121151 0.000746875 -3.60179e-06
3.01023e-06 -3.60179e-06 6.06938e-05
0.00280363 -0.00100758 -4.07194e-06
-0.00100758 0.000605861 -7.45897e-06
-4.07194e-06 -7.45897e-06 0.000145084
0.0019763 -0.000612801 -4.41034e-07
-0.000612801 1.5105e-05 -2.48532e-06
-4.41034e-07 -2.48532e-06 -0.000244342
0.00207146 -0.00090867 2.87964e-06
-0.00090867 0.000173691 -3.68917e-06
2.87964e-06 -3.68917e-06 -0.000280736
0.00242269 -0.000940949 3.5336e-06
-0.000940949 0.000424609 -2.44791e-06
3.5336e-06 -2.44791e-06 -3.62137e-05
0.00273416 -0.00106204 -4.74682e-06
-0.00106204 0.000867241 -2.29815e-06
-4.74682e-06 -2.29815e-06 0.000312012
0.00287345 -0.00118754 -3.81232e-06
-0.00118754 0.000893456 -2.13443e-07
-3.81232e-06 -2.13443e-07 0.000275065
0.00267902 -0.00118865 1.01608e-05
-0.00118865 0.000794389 -3.66777e-06
1.01608e-05 -3.66777e-06 0.000143488
0.00182574 -0.000855818 6.92378e-06
-0.000855818 0.000565774 -5.36285e-06
6.92378e-06 -5.36285e-06 2.4964e-05
0.00182477 -0.000951048 1.85143e-06
-0.000951048 0.000524085 -7.9672e-07
1.85143e-06 -7.9672e-07 -4.40106e-05
0.00139602 -0.000876087 4.29501e-06
-0.000876087 0.000268454 3.27679e-06
4.29501e-06 3.27679e-06 -0.000279814
0.00186394 -0.000381808 2.13934e-06
-0.000381808 0.000741663 6.02133e-06
2.13934e-06 6.02133e-06 0.000430051
0.00151134 -0.000617457 1.04183e-06
-0.000617457 0.000509249 1.5945e-06
1.04183e-06 1.5945e-06 6.34558e-05
0.0021193 -0.000802267 -4.38012e-06
-0.000802267 0.000828398 6.18121e-06
-4.38012e-06 6.18121e-06 0.000311518
8.70231e-05 -0.000156082 -4.45306e-06
-0.000156082 -0.000247852 -9.26327e-07
-4.45306e-06 -9.26327e-07 -0.000497274
0.000636156 -0.000261156 -4.20746e-06
-0.000261156 6.39296e-05 -3.22093e-06
-4.20746e-06 -3.22093e-06 -0.000208297
0.000696369 -0.000311224 -3.2504e-06
-0.000311224 7.13892e-05 1.79313e-07
-3.2504e-06 1.79313e-07 -0.000229082
0.00201483 -2.35204e-05 -6.10476e-05
-2.35204e-05 0.000997276 1.21564e-05
-6.10476e-05 1.21564e-05 0.000926904
0.000737042 -0.000193981 1.6061e-06
-0.000193981 0.000200292 4.18414e-07
1.6061e-06 4.18414e-07 -2.83433e-05
0.00103814 -0.0003309 3.99755e-06
-0.0003309 0.000446165 6.13658e-06
3.99755e-06 6.13658e-06 0.000135713
0.000627889 6.60395e-06 -7.18775e-05
6.60395e-06 0.000110331 8.07407e-06
-7.18775e-05 8.07407e-06 9.78994e-05
0.00130039 -2.88186e-05 -2.26817e-05
-2.88186e-05 0.000532319 -6.47449e-07
-2.26817e-05 -6.47449e-07 0.000473961
0.00111942 -0.000136202 3.04235e-06
-0.000136202 0.000432158 -5.8636e-06
3.04235e-06 -5.8636e-06 0.000255587
0.000575822 -2.64402e-05 4.83451e-06
-2.64402e-05 6.64045e-05 -1.24556e-05
4.83451e-06 -1.24556e-05 1.43569e-05
0.00344797 0.00013162 1.18743e-05
0.00013162 0.00193763 9.81631e-07
1.18743e-05 9.81631e-07 0.00193203
0.00309613 0.000100351 4.85789e-05
0.000100351 0.00169841 -5.74846e-06
4.85789e-05 -5.74846e-06 0.00170045
0.000262855 0.00016142 6.73218e-06
0.00016142 -3.67819e-05 4.75449e-06
6.73218e-06 4.75449e-06 -0.000306486
0.00192297 0.000203174 5.78156e-06
0.000203174 0.0011184 -1.14754e-05
5.78156e-06 -1.14754e-05 0.000794339
-0.00061963 4.58729e-05 3.70679e-06
4.58729e-05 -0.00049095 -5.65633e-08
3.70679e-06 -5.65633e-08 -0.0007795
0.000652412 8.73182e-05 1.72729e-06
8.73182e-05 0.000147754 -1.03249e-05
1.72729e-06 -1.03249e-05 7.42431e-06
0.000616521 0.000138347 1.82275e-06
0.000138347 0.000211981 -2.82349e-07
1.82275e-06 -2.82349e-07 -1.58909e-05
0.000404103 1.30865e-05 -1.07725e-06
1.30865e-05 -3.59861e-05 -1.1544e-05
-1.07725e-06 -1.1544e-05 -7.72395e-05
0.000551042 6.95262e-05 -5.60653e-08
6.95262e-05 8.49133e-05 -3.76649e-07
-5.60653e-08 -3.76649e-07 -3.37102e-05
0.000707441 7.15011e-05 -6.17166e-06
7.15011e-05 0.000257072 2.16163e-06
-6.17166e-06 2.16163e-06 7.04957e-05
0.00278159 -7.0238e-05 -3.91316e-05
-7.0238e-05 0.00149256 -5.80715e-06
-3.91316e-05 -5.80715e-06 0.00150046
0.000399215 6.19142e-06 -3.01739e-07
6.19142e-06 -4.61885e-05 -2.29183e-08
-3.01739e-07 -2.29183e-08 -7.92719e-05
0.00047974 7.33741e-05 -2.55047e-06
7.33741e-05 3.90348e-05 3.94279e-06
-2.55047e-06 3.94279e-06 -6.37947e-05
0.00247471 -5.10468e-05 -7.21982e-06
-5.10468e-05 0.00128913 4.75728e-07
-7.21982e-06 4.75728e-07 0.00130039
0.000370626 -1.77976e-05 -7.46173e-06
-1.77976e-05 -6.90647e-05 6.52104e-06
-7.46173e-06 6.52104e-06 -9.44916e-05
0.00225933 -3.03039e-05 2.34652e-05
-3.03039e-05 0.00114709 5.33692e-06
2.34652e-05 5.33692e-06 0.00116199
0.00693865 0.00123275 0.000531345
0.00123275 0.00497505 0.000131616
0.000531345 0.000131616 0.00167221
-0.00237777 0.000582887 -1.31217e-05
0.000582887 0.00143753 -1.32012e-05
-1.31217e-05 -1.32012e-05 -0.00075065
0.000480072 0.000697697 -8.50533e-06
0.000697697 0.00198693 -1.87122e-05
-8.50533e-06 -1.87122e-05 0.000221313
-0.000306993 0.000225643 -9.25941e-06
0.000225643 -0.000531561 1.0261e-05
-9.25941e-06 1.0261e-05 -0.000781813
-1.56586e-05 6.15824e-05 -8.88674e-06
6.15824e-05 -0.000160268 1.82666e-05
-8.88674e-06 1.82666e-05 -0.000422925
-0.000294776 8.45761e-05 -1.03803e-05
8.45761e-05 -0.000388532 -1.26911e-05
-1.03803e-05 -1.26911e-05 -0.00057513
0.00189571 0.000140668 7.69493e-06
0.000140668 0.00102149 3.9216e-07
7.69493e-06 3.9216e-07 0.000798924
0.0011664 0.000232779 -1.71246e-06
0.000232779 0.000391939 -9.06463e-06
-1.71246e-06 -9.06463e-06 0.000188495
0.00261778 0.000419889 -1.80139e-05
0.000419889 0.00142266 -6.92894e-06
-1.80139e-05 -6.92894e-06 0.00119678
0.00158322 0.000345173 1.18962e-06
0.000345173 0.000677927 -1.40227e-05
1.18962e-06 -1.40227e-05 0.000326617
-0.00208126 0.000182267 -9.17024e-06
0.000182267 -0.00110025 2.11364e-06
-9.17024e-06 2.11364e-06 -0.00150996
1.84352e-05 6.5482e-05 -4.21606e-06
6.5482e-05 -0.000181453 -8.57892e-06
-4.21606e-06 -8.57892e-06 -0.000347961
-0.000469201 5.73742e-05 -1.23103e-05
5.73742e-05 -0.000574313 -9.50006e-06
-1.23103e-05 -9.50006e-06 -0.000636309
-0.000982592 2.19364e-05 -4.20775e-06
2.19364e-05 -0.000576041 2.23028e-06
-4.20775e-06 2.23028e-06 -0.000889555
0.000109864 0.000326441 4.0744e-06
0.000326441 0.000234756 7.51831e-06
4.0744e-06 7.51831e-06 -0.000323746
0.00777052 -0.00626011 -2.89421e-05
-0.00626011 0.00941314 0.000224452
-2.89421e-05 0.000224452 0.000736505
0.00852522 0.00254518 0.000243138
0.00254518 0.00411917 0.000200288
0.000243138 0.000200288 -0.0017786
0.00418486 0.000756479 1.0348e-05
0.000756479 0.00152471 -8.08646e-05
1.0348e-05 -8.08646e-05 -0.00100906
0.0348915 -0.00811086 -0.00118522
-0.00811086 0.0112599 -0.000477167
-0.00118522 -0.000477167 0.00526762
0.00575363 -0.00153992 0.000340534
-0.00153992 0.00496716 0.0005989
0.000340534 0.0005989 0.000184392
0.00212794 -0.00147002 -0.000263287
-0.00147002 0.00585403 0.0001506
-0.000263287 0.0001506 -0.00247429
-0.000480714 -0.00164214 8.77316e-05
-0.00164214 0.00165042 5.42433e-05
8.77316e-05 5.42433e-05 0.000220193
-0.0015711 -4.57635e-05 0.000195208
-4.57635e-05 0.00158373 4.98741e-05
0.000195208 4.98741e-05 0.000389082
0.0251167 -0.0144301 0.000558184
-0.0144301 0.0144344 0.000539812
0.000558184 0.000539812 0.00616519
0.00365776 0.00229179 -0.000175511
0.00229179 0.00553374 -0.000118543
-0.000175511 -0.000118543 -0.00188761
0.0120019 -0.00485425 -0.00016583
-0.00485425 0.00836813 0.000166899
-0.00016583 0.000166899 -5.96718e-05
-0.000288309 0.000999873 -7.18457e-06
0.000999873 0.00149462 2.83417e-05
-7.18457e-06 2.83417e-05 0.000606902
0.00739402 0.00558777 -0.000182659
0.00558777 0.00298749 -2.51645e-06
-0.000182659 -2.51645e-06 -0.00122928
0.0230026 -0.00843698 -0.00107165
-0.00843698 0.00895821 -0.000453587
-0.00107165 -0.000453587 0.00123086
0.00116571 0.000807533 1.58518e-05
0.000807533 0.000331935 9.9074e-06
1.58518e-05 9.9074e-06 0.000106961
0.000966426 0.000352004 8.85273e-06
0.000352004 0.000688281 6.15688e-06
8.85273e-06 6.15688e-06 0.000236723
-0.00046189 2.63043e-05 -2.61267e-05
2.63043e-05 -6.64224e-05 1.02948e-06
-2.61267e-05 1.02948e-06 -0.000469111
-0.00281271 -0.000250277 -0.000139624
-0.000250277 0.000929164 -4.43583e-05
-0.000139624 -4.43583e-05 -0.00114321
0.000674303 0.000333013 -1.61138e-05
0.000333013 0.000657923 -1.75843e-05
-1.61138e-05 -1.75843e-05 7.51613e-05
-9.78067e-05 0.000212014 -6.58905e-06
0.000212014 0.000195197 4.23936e-06
-6.58905e-06 4.23936e-06 -0.000187184
0.00123174 0.00080725 1.23162e-05
0.00080725 0.000670796 2.34044e-06
1.23162e-05 2.34044e-06 0.000186052
-0.000200971 0.000848973 1.06932e-05
0.000848973 0.00109289 -4.48725e-05
1.06932e-05 -4.48725e-05 -0.000468475
0.00178863 0.0021076 9.87046e-05
0.0021076 0.000661503 1.5896e-05
9.87046e-05 1.5896e-05 -0.000586417
-0.00688478 0.00125092 0.000529783
0.00125092 0.00627925 -2.57834e-05
0.000529783 -2.57834e-05 -0.00259543
0.00214917 -0.000543708 -2.31728e-05
-0.000543708 0.00241369 9.19599e-05
-2.31728e-05 9.19599e-05 -0.0011406
-0.00319245 1.66858e-05 -3.11951e-05
1.66858e-05 0.00212864 9.47225e-05
-3.11951e-05 9.47225e-05 -8.80695e-05
-0.0010843 -0.000429864 -5.47212e-05
-0.000429864 0.000826835 1.04468e-05
-5.47212e-05 1.04468e-05 -0.000695074
-0.00172556 -0.000912018 -5.52472e-05
-0.000912018 0.000201722 4.72269e-05
-5.52472e-05 4.72269e-05 0.000130571
-0.00119325 -0.000907182 -0.000266388
-0.000907182 0.00139851 0.000178581
-0.000266388 0.000178581 -0.00408114
-0.00168369 -0.00552448 0.000271499
-0.00552448 0.00230886 -0.000147852
0.000271499 -0.000147852 -0.00463797
0.0180806 0.00679949 0.000954752
0.00679949 0.00469237 -0.000471603
0.000954752 -0.000471603 -0.00237961
0.0174685 0.00696093 -0.000447046
0.00696093 0.0114568 0.000477669
-0.000447046 0.000477669 0.00351739
0.000711671 -0.00133692 -4.00773e-05
-0.00133692 0.00154793 8.85081e-06
-4.00773e-05 8.85081e-06 0.000317432
0.00409205 0.00149001 0.000265682
0.00149001 0.010385 -5.63408e-05
0.000265682 -5.63408e-05 0.00400372
0.00575256 0.00633191 2.89013e-05
0.00633191 0.00243145 0.000102329
2.89013e-05 0.000102329 -0.00281778
0.0023396 -0.00405951 7.93809e-05
-0.00405951 0.000868236 -5.82591e-05
7.93809e-05 -5.82591e-05 0.00106096
0.0135648 -0.00652831 -4.09544e-06
-0.00652831 0.000620106 1.16148e-05
-4.09544e-06 1.16148e-05 -0.00104564
0.00354833 -0.00245297 1.87287e-05
-0.00245297 0.00158915 1.91781e-05
1.87287e-05 1.91781e-05 0.000927868
-0.00604305 0.00232108 -0.00100375
0.00232108 -0.000893648 0.000170624
-0.00100375 0.000170624 -0.00570628
0.0161171 -0.00417182 -0.000262085
-0.00417182 0.000348763 8.03357e-05
-0.000262085 8.03357e-05 -0.000269057
0.00441921 -0.00384298 0.00014711
-0.00384298 -9.93875e-06 -9.18449e-05
0.00014711 -9.18449e-05 0.00121644
-0.000291161 -0.000631138 8.16614e-06
-0.000631138 0.000211974 -2.9021e-06
8.16614e-06 -2.9021e-06 -0.000413916
0.00223436 -0.00132431 2.07589e-05
-0.00132431 0.000810525 -9.76016e-06
2.07589e-05 -9.76016e-06 0.000351452
0.00250726 -0.00118403 1.72362e-05
-0.00118403 0.00059442 -1.97786e-05
1.72362e-05 -1.97786e-05 0.00017821
-0.000390438 -0.000676402 -6.02216e-06
-0.000676402 -0.000475127 1.97534e-05
-6.02216e-06 1.97534e-05 -0.000925692
0.0021174 -0.00121814 -5.51978e-06
-0.00121814 0.000373148 8.1413e-07
-5.51978e-06 8.1413e-07 -0.000157983
0.00324017 -0.00135643 7.46723e-06
-0.00135643 0.000754832 -5.11284e-06
7.46723e-06 -5.11284e-06 0.000245517
0.0013706 -0.000990321 -9.07378e-06
-0.000990321 0.00014089 1.16203e-05
-9.07378e-06 1.16203e-05 -0.000581984
0.00242206 -0.00127921 -6.05463e-07
-0.00127921 0.000463234 3.29403e-06
-6.05463e-07 3.29403e-06 -0.000151961
0.00240123 -0.000991043 -2.51556e-06
-0.000991043 0.000205807 -3.38016e-06
-2.51556e-06 -3.38016e-06 -0.000158047
0.00199328 -0.00112774 9.76644e-06
-0.00112774 0.00041105 3.43673e-06
9.76644e-06 3.43673e-06 -0.00024557
0.00230394 -0.000933719 -1.90267e-06
-0.000933719 0.000333955 1.98444e-06
-1.90267e-06 1.98444e-06 -0.000107515
0.00231408 -0.000671387 -9.23246e-10
-0.000671387 0.000131378 -1.63723e-06
-9.23246e-10 -1.63723e-06 -9.52792e-05
0.00219726 -0.000596052 -2.05281e-06
-0.000596052 0.000156693 5.85522e-07
-2.05281e-06 5.85522e-07 -3.73726e-05
0.00188829 -0.000623533 -2.66794e-06
-0.000623533 -9.89657e-06 -2.00095e-06
-2.66794e-06 -2.00095e-06 -0.000284997
0.00200511 -0.000609932 1.53395e-06
-0.000609932 2.7328e-05 3.03688e-06
1.53395e-06 3.03688e-06 -0.000227926
0.00190466 -0.000788538 -3.15306e-06
-0.000788538 0.000144904 -4.54278e-06
-3.15306e-06 -4.54278e-06 -0.000259511
0.00224728 -0.000919076 2.77004e-06
-0.000919076 0.000305211 2.72322e-07
2.77004e-06 2.72322e-07 -0.000146525
0.00237967 -0.000940912 1.54498e-06
-0.000940912 0.000395174 3.78361e-06
1.54498e-06 3.78361e-06 -6.4719e-05
0.0021112 -0.000918993 1.21095e-06
-0.000918993 0.000527495 -4.11128e-06
1.21095e-06 -4.11128e-06 9.25718e-08
0.00250096 -0.00104202 1.89604e-06
-0.00104202 0.000717488 -7.16954e-07
1.89604e-06 -7.16954e-07 0.000162939
0.00282945 -0.00117728 3.29391e-06
-0.00117728 0.000876832 -1.01761e-06
3.29391e-06 -1.01761e-06 0.000255798
0.00170667 -0.000602108 -6.09397e-06
-0.000602108 0.000559433 3.32725e-06
-6.09397e-06 3.32725e-06 0.000136319
0.00188021 -0.00084641 6.46551e-07
-0.00084641 0.000608126 5.90623e-07
6.46551e-07 5.90623e-07 7.46516e-05
0.00151911 -0.00090539 9.58815e-07
-0.00090539 0.000354454 3.88344e-06
9.58815e-07 3.88344e-06 -0.00020067
0.000780862 -0.000245369 -4.52279e-06
-0.000245369 0.000148673 -1.41648e-06
-4.52279e-06 -1.41648e-06 -0.000101695
0.00105918 -0.00034332 4.09356e-06
-0.00034332 0.000241439 -3.97061e-07
4.09356e-06 -3.97061e-07 -7.07998e-05
0.00107917 -0.000559654 -5.082e-06
-0.000559654 0.000275741 4.26053e-06
-5.082e-06 4.26053e-06 -0.000152186
0.000474514 -0.000120457 -1.91312e-05
-0.000120457 -4.10448e-05 1.60579e-05
-1.91312e-05 1.60579e-05 -0.000140473
0.000667001 -0.00019591 -4.79471e-07
-0.00019591 0.000140543 1.76468e-06
-4.79471e-07 1.76468e-06 -0.000125853
0.000108688 -0.000302815 -4.65616e-06
-0.000302815 -0.000231345 -5.79875e-07
-4.65616e-06 -5.79875e-07 -0.000526742
0.00441887 0.000292992 2.12691e-05
0.000292992 0.0026301 9.39224e-06
2.12691e-05 9.39224e-06 0.0025722
0.000444612 -7.97408e-05 5.95925e-08
-7.97408e-05 -2.92141e-05 -5.54935e-07
5.95925e-08 -5.54935e-07 -0.000116765
0.00154114 -0.000212098 1.56309e-06
-0.000212098 0.000703335 -3.46315e-06
1.56309e-06 -3.46315e-06 0.000477131
0.0038767 0.000146519 1.02176e-05
0.000146519 0.00222329 7.09977e-07
1.02176e-05 7.09977e-07 0.00221367
0.000629533 -4.83301e-05 9.20673e-06
-4.83301e-05 9.58003e-05 -1.43732e-05
9.20673e-06 -1.43732e-05 2.84001e-05
0.00348376 0.000114063 7.48558e-05
0.000114063 0.00195705 -6.7556e-06
7.48558e-05 -6.7556e-06 0.00195597
0.00257239 0.000454606 2.74688e-06
0.000454606 0.00131349 2.45945e-06
2.74688e-06 2.45945e-06 0.00102326
0.000605287 0.000221176 6.22907e-08
0.000221176 0.000184005 -8.60862e-07
6.22907e-08 -8.60862e-07 -0.000103539
0.00132821 0.000426915 -3.68979e-06
0.000426915 0.000689675 -4.4532e-06
-3.68979e-06 -4.4532e-06 0.000362067
0.00112301 0.000150127 3.61275e-08
0.000150127 0.000451346 -1.05141e-05
3.61275e-08 -1.05141e-05 0.0002752
0.000848283 0.000147672 -1.13464e-07
0.000147672 0.000432774 8.0415e-07
-1.13464e-07 8.0415e-07 0.000110384
8.20726e-05 0.000123413 -2.09605e-06
0.000123413 -9.90654e-06 5.78875e-06
-2.09605e-06 5.78875e-06 -0.000336575
0.000525602 2.83132e-06 -1.61263e-06
2.83132e-06 5.19178e-05 -1.42805e-05
-1.61263e-06 -1.42805e-05 -1.1517e-06
0.000612201 6.79302e-05 -5.16904e-08
6.79302e-05 0.000127261 2.1287e-07
-5.16904e-08 2.1287e-07 -1.28436e-05
-7.57237e-05 8.5928e-05 -5.07664e-06
8.5928e-05 -0.000257943 1.1931e-05
-5.07664e-06 1.1931e-05 -0.000470523
0.00290528 -8.67364e-05 -4.91507e-05
-8.67364e-05 0.00157873 -6.33558e-06
-4.91507e-05 -6.33558e-06 0.00158397
0.000392378 -2.765e-05 2.20665e-06
-2.765e-05 -4.01964e-05 -3.81668e-07
2.20665e-06 -3.81668e-07 -8.21164e-05
0.000513914 5.98217e-05 -4.47169e-06
5.98217e-05 7.11464e-05 6.35336e-06
-4.47169e-06 6.35336e-06 -4.91915e-05
0.0027041 -7.09928e-05 -8.23658e-06
-7.09928e-05 0.00144267 6.38374e-07
-8.23658e-06 6.38374e-07 0.00145016
0.000408312 1.37094e-05 -1.82239e-06
1.37094e-05 -4.14404e-05 8.10692e-06
-1.82239e-06 8.10692e-06 -7.33901e-05
0.00242936 -5.07841e-05 2.44993e-05
-5.07841e-05 0.0012598 5.55003e-06
2.44993e-05 5.55003e-06 0.00127127
-0.00746561 0.000864365 -0.000300058
0.000864365 0.00532711 7.49799e-05
-0.000300058 7.49799e-05 -0.00281771
0.00656858 0.00103412 4.57435e-05
0.00103412 0.00434221 3.6615e-07
4.57435e-05 3.6615e-07 0.00118373
-0.00159185 0.000572373 0.000144021
0.000572373 0.00145337 7.35163e-05
0.000144021 7.35163e-05 -0.000964496
0.000243359 0.000239466 -6.02059e-06
0.000239466 -0.000147754 9.30413e-06
-6.02059e-06 9.30413e-06 -0.000449074
0.00386533 0.000947462 2.04422e-05
0.000947462 0.00210025 2.28709e-05
2.04422e-05 2.28709e-05 0.00158747
-5.76236e-05 0.000218432 -1.38916e-05
0.000218432 -8.32525e-05 7.88817e-06
-1.38916e-05 7.88817e-06 -0.000543592
0.000513798 0.000115784 -7.48912e-06
0.000115784 0.000165384 -1.7877e-05
-7.48912e-06 -1.7877e-05 -6.44837e-05
0.00284512 0.000399355 -1.54121e-06
0.000399355 0.00142373 -6.03661e-06
-1.54121e-06 -6.03661e-06 0.00119711
-0.00169709 1.57223e-05 -1.06233e-05
1.57223e-05 -0.00126372 1.5453e-05
-1.06233e-05 1.5453e-05 -0.00140048
-9.60414e-05 0.000259728 -6.33648e-07
0.000259728 -3.8929e-05 6.95428e-06
-6.33648e-07 6.95428e-06 -0.000368559
-0.00023063 0.000121139 -5.22407e-06
0.000121139 -0.000339898 -5.49635e-06
-5.22407e-06 -5.49635e-06 -0.000683005
0.000845083 0.000745749 -3.43543e-06
0.000745749 0.000384065 -2.16064e-05
-3.43543e-06 -2.16064e-05 -0.000176029
-0.000833652 0.000631031 -2.83533e-05
0.000631031 -0.000824068 7.01863e-05
-2.83533e-05 7.01863e-05 -0.00103304
0.00089247 7.66989e-05 -1.38659e-05
7.66989e-05 0.000507864 1.65485e-05
-1.38659e-05 1.65485e-05 0.000246816
0.00216659 0.000518484 1.0936e-05
0.000518484 0.00139437 -5.48687e-06
1.0936e-05 -5.48687e-06 0.000908294
0.00451503 -0.00411016 -0.00262729
-0.00411016 0.00318753 -0.000242427
-0.00262729 -0.000242427 -0.00291396
0.00158425 -0.00489739 0.000862523
-0.00489739 0.00994846 0.000164748
0.000862523 0.000164748 0.00172508
0.00919762 0.00315422 -0.000945571
0.00315422 0.00371019 -0.000306801
-0.000945571 -0.000306801 -0.00277021
0.0170346 -0.0158505 0.00316408
-0.0158505 0.0130483 0.00178628
0.00316408 0.00178628 0.00419372
0.0308311 -0.00475736 -8.2142e-05
-0.00475736 0.012153 0.000505831
-8.2142e-05 0.000505831 0.00553349
-0.00288933 0.00151822 -9.41047e-05
0.00151822 0.00351177 -0.000214778
-9.41047e-05 -0.000214778 -0.00305955
-0.0021134 0.000244414 -0.000218117
0.000244414 0.00209262 -3.26947e-05
-0.000218117 -3.26947e-05 1.85254e-05
0.000248137 0.00106471 7.41614e-05
0.00106471 0.00196446 5.90623e-05
7.41614e-05 5.90623e-05 0.00119252
0.0245279 -0.0069501 -0.000890622
-0.0069501 0.0110159 6.24077e-05
-0.000890622 6.24077e-05 0.00355169
-0.00147844 0.00500566 -0.000241466
0.00500566 0.000880489 -4.38963e-05
-0.000241466 -4.38963e-05 -0.00400084
0.00341492 0.0032865 6.79022e-05
0.0032865 0.00128847 -8.30476e-05
6.79022e-05 -8.30476e-05 0.00200279
0.00736618 0.00848406 -0.000785277
0.00848406 -0.00156793 -0.000103808
-0.000785277 -0.000103808 -0.00352517
0.00403278 0.00164084 3.48192e-05
0.00164084 0.00165098 -8.30944e-06
3.48192e-05 -8.30944e-06 0.00115055
0.000875649 0.000736431 -5.04537e-06
0.000736431 0.000141847 -3.64057e-06
-5.04537e-06 -3.64057e-06 -4.53614e-05
-0.000363023 0.000230609 -2.65333e-05
0.000230609 -0.000125332 -2.86152e-06
-2.65333e-05 -2.86152e-06 -0.000556706
-0.00102292 0.000754821 -0.000134941
0.000754821 0.000756965 -7.85432e-05
-0.000134941 -7.85432e-05 -0.000602315
0.000719469 0.000814599 -5.94864e-05
0.000814599 0.000312622 -4.44722e-05
-5.94864e-05 -4.44722e-05 -0.000148377
0.00258409 0.00223241 4.38494e-06
0.00223241 0.000927912 -1.2814e-05
4.38494e-06 -1.2814e-05 -0.000286551
-0.00158404 0.00216395 0.000115661
0.00216395 -0.00216153 6.43584e-05
0.000115661 6.43584e-05 -0.00267757
-0.00705086 -0.000746837 -0.000924619
-0.000746837 -0.00285188 6.92475e-05
-0.000924619 6.92475e-05 -0.00511291
-0.0104053 0.000507079 0.000652456
0.000507079 0.00677195 1.42883e-05
0.000652456 1.42883e-05 -0.000764953
0.00262687 9.42144e-05 -0.00019915
9.42144e-05 0.00228683 3.64655e-05
-0.00019915 3.64655e-05 1.43254e-05
0.000880095 -0.00140486 -5.912e-05
-0.00140486 0.00113132 -5.56907e-05
-5.912e-05 -5.56907e-05 -6.15162e-05
-0.00120637 -0.00281013 0.000201426
-0.00281013 -0.000205108 8.20608e-06
0.000201426 8.20608e-06 -7.49103e-05
0.00174162 0.00166897 0.000283396
0.00166897 0.00991598 9.13352e-05
0.000283396 9.13352e-05 0.0032547
0.00603702 -0.00623837 0.000829219
-0.00623837 -0.00175268 -5.91146e-05
0.000829219 -5.91146e-05 -0.00263475
0.0250119 0.00577917 0.00153746
0.00577917 0.0117363 -6.81469e-05
0.00153746 -6.81469e-05 0.00609374
0.00204524 -0.00267658 -2.4364e-05
-0.00267658 0.000581653 2.69721e-06
-2.4364e-05 2.69721e-06 -0.000340694
0.00485406 0.00284618 0.000431747
0.00284618 0.00252401 -0.00012692
0.000431747 -0.00012692 -0.00175564
0.00768562 -0.00376829 -0.000227097
-0.00376829 -0.00451233 0.000205913
-0.000227097 0.000205913 -0.00566968
0.0024647 -0.00355 -7.50897e-06
-0.00355 -0.00134077 3.07002e-05
-7.50897e-06 3.07002e-05 0.000566791
0.00285212 -0.00215133 7.01706e-05
-0.00215133 0.000201588 -1.0601e-05
7.01706e-05 -1.0601e-05 -3.20883e-05
0.0197012 -0.00122334 -0.000121318
-0.00122334 0.00274502 0.000100249
-0.000121318 0.000100249 0.0023126
0.00270114 -0.00263331 0.000137921
-0.00263331 -0.00412267 -0.000107376
0.000137921 -0.000107376 -0.00151191
0.000472363 -0.00120467 -5.04954e-05
-0.00120467 -0.000216947 5.0937e-05
-5.04954e-05 5.0937e-05 -0.000505945
0.0004533 -0.000917502 -2.60052e-05
-0.000917502 -0.000514734 2.66418e-06
-2.60052e-05 2.66418e-06 -0.000761043
0.00584918 -0.00144912 5.61525e-05
-0.00144912 0.00203516 -2.51175e-05
5.61525e-05 -2.51175e-05 0.00173248
0.000708745 -0.00103406 -1.48602e-05
-0.00103406 -0.000333974 1.54763e-05
-1.48602e-05 1.54763e-05 -0.000849827
0.00243326 -0.00124345 -1.04785e-06
-0.00124345 0.000346879 -1.26459e-06
-1.04785e-06 -1.26459e-06 -0.000131788
0.00301476 -0.00105058 4.36138e-06
-0.00105058 0.000357089 -2.62113e-06
4.36138e-06 -2.62113e-06 0.000134179
0.0024292 -0.00127569 9.69427e-06
-0.00127569 0.000463705 9.83113e-06
9.69427e-06 9.83113e-06 -0.000155671
0.00257344 -0.00100165 -3.04363e-06
-0.00100165 0.000298985 1.0695e-06
-3.04363e-06 1.0695e-06 -6.12892e-05
0.00240749 -0.000706075 1.02317e-06
-0.000706075 1.94689e-05 -7.4189e-07
1.02317e-06 -7.4189e-07 -7.3983e-05
0.00205852 -0.000895828 8.94257e-06
-0.000895828 0.000195274 6.48993e-06
8.94257e-06 6.48993e-06 -0.000235495
0.00223953 -0.00065874 -5.00105e-08
-0.00065874 8.31081e-05 2.52587e-06
-5.00105e-08 2.52587e-06 -0.000132422
0.00236313 -0.000668465 -4.49309e-07
-0.000668465 0.000107873 2.39783e-06
-4.49309e-07 2.39783e-06 -1.76314e-05
0.00226857 -0.000639884 -2.84532e-06
-0.000639884 0.000145727 1.37311e-06
-2.84532e-06 1.37311e-06 -1.43303e-05
0.00224556 -0.000601213 -3.39399e-06
-0.000601213 0.000174585 2.6778e-06
-3.39399e-06 2.6778e-06 -1.37538e-05
0.00227411 -0.000593307 -7.85931e-07
-0.000593307 0.000273799 -2.23233e-06
-7.85931e-07 -2.23233e-06 5.97697e-05
0.00226661 -0.000668562 -6.5345e-06
-0.000668562 0.000265685 -2.83586e-06
-6.5345e-06 -2.83586e-06 -2.52618e-05
0.00213125 -0.000641571 1.09448e-06
-0.000641571 0.000150763 1.35908e-06
1.09448e-06 1.35908e-06 -0.000124943
0.00203096 -0.000610594 1.44983e-06
-0.000610594 2.89712e-05 8.12889e-06
1.44983e-06 8.12889e-06 -0.00022322
0.00218122 -0.000794819 -5.25149e-06
-0.000794819 0.000378214 -5.04883e-06
-5.25149e-06 -5.04883e-06 -3.91437e-05
0.00188047 -0.000797946 -6.89449e-07
-0.000797946 0.000112867 1.93872e-07
-6.89449e-07 1.93872e-07 -0.000296959
0.00242104 -0.000932322 6.20816e-06
-0.000932322 0.000430937 3.819e-06
6.20816e-06 3.819e-06 -1.91683e-05
0.00172538 -0.000730317 -7.24792e-06
-0.000730317 0.000366511 1.73619e-07
-7.24792e-06 1.73619e-07 -0.000104492
0.00222155 -0.000933756 -3.0332e-07
-0.000933756 0.000589866 7.64948e-07
-3.0332e-07 7.64948e-07 5.89747e-05
0.00234236 -0.00103187 5.13559e-06
-0.00103187 0.000610733 2.16238e-06
5.13559e-06 2.16238e-06 5.46477e-05
0.00117901 -0.000322902 -9.68242e-06
-0.000322902 0.000333785 9.36821e-06
-9.68242e-06 9.36821e-06 6.25864e-05
0.00135157 -0.000571455 1.799e-06
-0.000571455 0.00032203 9.67531e-07
1.799e-06 9.67531e-07 -9.45081e-05
0.0018289 -0.000829052 -3.32253e-06
-0.000829052 0.000578003 4.904e-06
-3.32253e-06 4.904e-06 5.26693e-05
0.000385283 -0.000188007 -3.07485e-05
-0.000188007 -0.000129405 1.67405e-05
-3.07485e-05 1.67405e-05 -0.000246681
0.000569105 -0.000232742 -1.91845e-06
-0.000232742 2.78588e-05 -1.15595e-06
-1.91845e-06 -1.15595e-06 -0.000233802
-0.000105132 -0.000309314 1.77957e-06
-0.000309314 -0.000491416 -2.42997e-06
1.77957e-06 -2.42997e-06 -0.000807472
0.00514135 0.000218955 -0.000114257
0.000218955 0.00307709 1.17081e-05
-0.000114257 1.17081e-05 0.00304401
0.000551789 -0.000148174 2.75507e-06
-0.000148174 3.39341e-07 1.75014e-07
2.75507e-06 1.75014e-07 -0.000102887
0.00107752 -0.000272496 4.79313e-06
-0.000272496 0.000388576 -1.2954e-06
4.79313e-06 -1.2954e-06 0.000122088
0.0029202 0.000149092 7.02843e-05
0.000149092 0.00163155 1.51309e-06
7.02843e-05 1.51309e-06 0.00159466
0.000746883 -8.68668e-05 1.51115e-05
-8.68668e-05 0.000157787 -1.63032e-05
1.51115e-05 -1.63032e-05 6.52972e-05
0.00404803 0.000134994 9.87677e-05
0.000134994 0.0023327 -8.94067e-06
9.87677e-05 -8.94067e-06 0.00232559
0.00221959 0.000481967 -1.16606e-06
0.000481967 0.000970106 2.94599e-06
-1.16606e-06 2.94599e-06 0.000652457
0.000637314 0.000234894 -4.55643e-06
0.000234894 5.51173e-05 5.70325e-07
-4.55643e-06 5.70325e-07 -0.000178369
0.000305952 0.000232985 3.86487e-07
0.000232985 -5.31577e-05 -1.54408e-06
3.86487e-07 -1.54408e-06 -0.000332829
0.000751588 0.000224455 -7.20397e-07
0.000224455 0.000260816 -4.18446e-07
-7.20397e-07 -4.18446e-07 -1.14752e-05
0.00104095 0.000142688 -2.92477e-07
0.000142688 0.000500776 7.37169e-08
-2.92477e-07 7.37169e-08 0.000188529
0.00116229 0.000163412 -1.913e-06
0.000163412 0.000491501 -1.14671e-05
-1.913e-06 -1.14671e-05 0.000274639
0.000551001 6.91923e-05 -1.04031e-05
6.91923e-05 6.21232e-05 -1.70714e-05
-1.04031e-05 -1.70714e-05 -3.95124e-06
0.000635019 0.000119811 -3.5674e-07
0.000119811 0.000151311 2.49214e-07
-3.5674e-07 2.49214e-07 -2.42505e-05
-0.0010303 3.96136e-06 -8.2792e-06
3.96136e-06 -0.000812195 1.27802e-05
-8.2792e-06 1.27802e-05 -0.00108991
0.00328354 -9.93182e-05 -7.47222e-05
-9.93182e-05 0.00183284 -7.92367e-06
-7.47222e-05 -7.92367e-06 0.00183557
0.000303879 3.1977e-05 1.42003e-06
3.1977e-05 -8.90922e-05 -3.61946e-07
1.42003e-06 -3.61946e-07 -0.000141594
0.000638471 9.24152e-05 -3.51279e-06
9.24152e-05 0.000148144 1.02427e-05
-3.51279e-06 1.02427e-05 6.66365e-06
0.00294562 -9.21062e-05 -8.98897e-06
-9.21062e-05 0.0016065 8.23219e-07
-8.98897e-06 8.23219e-07 0.00160984
0.000276977 -1.02055e-05 -1.09033e-06
-1.02055e-05 -0.000110837 1.02419e-05
-1.09033e-06 1.02419e-05 -0.000153011
0.00267034 -7.16264e-05 3.0559e-05
-7.16264e-05 0.00142067 5.9827e-06
3.0559e-05 5.9827e-06 0.00142781
0.00252778 -0.000525823 -0.00149084
-0.000525823 0.00447757 -7.4327e-05
-0.00149084 -7.4327e-05 0.00191548
-0.00475147 -0.000310488 -6.97631e-06
-0.000310488 0.00674684 -3.42712e-05
-6.97631e-06 -3.42712e-05 -0.00180055
0.00662086 0.000558259 -0.00046756
0.000558259 0.00409173 -0.000125762
-0.00046756 -0.000125762 0.0011034
0.000243079 0.000143859 5.51691e-06
0.000143859 -0.000166067 1.99557e-06
5.51691e-06 1.99557e-06 -0.000452977
0.000184208 0.000164773 7.94886e-06
0.000164773 -8.66496e-05 3.30838e-06
7.94886e-06 3.30838e-06 -0.000489925
0.00284209 0.000790508 -4.60397e-06
0.000790508 0.00147464 1.31707e-06
-4.60397e-06 1.31707e-06 0.000986295
0.00242178 0.000968356 2.1811e-05
0.000968356 0.00105581 1.37078e-05
2.1811e-05 1.37078e-05 0.000446498
0.00107301 0.00068746 6.11014e-06
0.00068746 0.000598955 1.41674e-05
6.11014e-06 1.41674e-05 6.47306e-05
0.00279794 0.000375982 -4.38588e-06
0.000375982 0.00169218 5.18525e-06
-4.38588e-06 5.18525e-06 0.00139174
0.00252735 0.000369066 1.60776e-05
0.000369066 0.00142642 8.22525e-06
1.60776e-05 8.22525e-06 0.00108382
0.00150865 0.000741405 -3.7476e-06
0.000741405 0.000812061 2.27237e-06
-3.7476e-06 2.27237e-06 0.000262153
0.00109367 0.00101521 1.22483e-05
0.00101521 0.000119111 -4.89542e-06
1.22483e-05 -4.89542e-06 -0.000365114
0.00271565 0.0011537 -5.1882e-06
0.0011537 0.00105308 3.39725e-05
-5.1882e-06 3.39725e-05 0.000725653
0.00168912 0.00123883 3.44247e-05
0.00123883 0.00014479 1.09437e-05
3.44247e-05 1.09437e-05 -9.83958e-05
0.00119073 0.000850785 9.1572e-06
0.000850785 0.000370004 1.11451e-06
9.1572e-06 1.11451e-06 3.96533e-05
0.0017136 0.000645685 4.59564e-07
0.000645685 0.00105477 1.86898e-05
4.59564e-07 1.86898e-05 0.000500809
0.0161963 0.0043178 -0.000152676
0.0043178 0.00136267 5.27956e-05
-0.000152676 5.27956e-05 0.000816319
0.00745459 -0.00351301 -0.000826643
-0.00351301 0.00535919 -0.000256406
-0.000826643 -0.000256406 0.000917699
0.00322402 -0.00644661 0.00139628
-0.00644661 0.0110128 0.000263994
0.00139628 0.000263994 0.00274093
0.0166183 -0.00363831 0.00060039
-0.00363831 0.00670578 0.000252526
0.00060039 0.000252526 0.000109061
0.0120934 0.00728154 -0.000166897
0.00728154 0.00441947 -6.54512e-05
-0.000166897 -6.54512e-05 0.000112867
-0.0022926 0.000703566 -7.4811e-06
0.000703566 0.00110493 -7.42475e-06
-7.4811e-06 -7.42475e-06 0.000202903
0.00187806 0.00280996 -9.83639e-05
0.00280996 0.000561891 -4.28499e-05
-9.83639e-05 -4.28499e-05 0.00158121
0.0141438 0.0074993 1.60877e-05
0.0074993 0.0011181 4.37816e-05
1.60877e-05 4.37816e-05 -0.00134066
0.00730037 0.00529638 -0.000171497
0.00529638 -0.00069958 -0.000141676
-0.000171497 -0.000141676 0.000427881
0.00161775 0.00158186 1.13223e-05
0.00158186 0.000101327 -6.49968e-06
1.13223e-05 -6.49968e-06 -0.000289594
0.00157957 0.00122705 1.43356e-05
0.00122705 0.000445835 -2.77039e-06
1.43356e-05 -2.77039e-06 5.7929e-05
0.00229882 0.000821747 -4.02906e-05
0.000821747 0.00111075 -1.50188e-05
-4.02906e-05 -1.50188e-05 0.000910211
0.00201956 0.00224339 -8.56193e-05
0.00224339 0.000456766 -3.73868e-05
-8.56193e-05 -3.73868e-05 -0.000705951
0.00180821 0.00260142 0.000112902
0.00260142 -0.000637677 5.94045e-05
0.000112902 5.94045e-05 -0.00136105
0.00499952 -0.00034392 -0.000141075
-0.00034392 -0.00572202 3.76984e-05
-0.000141075 3.76984e-05 -0.00620931
3.69075e-05 -0.00246052 1.31498e-05
-0.00246052 0.00354711 5.72612e-05
1.31498e-05 5.72612e-05 0.00122949
-0.0142506 -0.000446405 0.000573438
-0.000446405 0.00775712 -1.21826e-05
0.000573438 -1.21826e-05 0.00167324
0.00239479 -0.00327838 -0.000106973
-0.00327838 0.000337348 4.86073e-05
-0.000106973 4.86073e-05 -0.000876268
0.00669102 -0.00486566 1.99511e-05
-0.00486566 -0.000172138 7.1758e-05
1.99511e-05 7.1758e-05 0.00115697
0.00511928 0.000779768 0.00154262
0.000779768 0.00525477 -0.000359027
0.00154262 -0.000359027 0.00253966
0.0155658 -0.00386216 -0.000422585
-0.00386216 0.000477423 0.000241896
-0.000422585 0.000241896 0.000670477
0.00200937 -0.00210315 -2.9797e-05
-0.00210315 -0.000209189 8.52116e-06
-2.9797e-05 8.52116e-06 -0.000565109
0.0125863 -0.000394736 -0.000297169
-0.000394736 -0.00245297 0.000100841
-0.000297169 0.000100841 -0.0026764
0.00734195 -0.00306659 0.000101668
-0.00306659 -0.00128148 1.05279e-05
0.000101668 1.05279e-05 0.000505216
0.00364603 -0.00173452 6.40891e-05
-0.00173452 -0.000146721 -4.62532e-05
6.40891e-05 -4.62532e-05 -8.75852e-05
0.00277316 -0.00120574 4.45152e-05
-0.00120574 -0.00324837 -3.79998e-06
4.45152e-05 -3.79998e-06 -0.000826777
-0.00140236 -0.00072414 -1.16512e-05
-0.00072414 -0.00154762 2.54588e-05
-1.16512e-05 2.54588e-05 -0.00166155
0.0014033 -0.000990487 -2.11554e-05
-0.000990487 -0.00045249 4.10702e-06
-2.11554e-05 4.10702e-06 -0.000473319
0.00384347 -0.000994463 4.36804e-05
-0.000994463 0.000638035 -1.6014e-05
4.36804e-05 -1.6014e-05 0.000717558
0.00237577 -0.00123774 -1.60194e-05
-0.00123774 0.000317652 8.05685e-06
-1.60194e-05 8.05685e-06 -0.000155607
0.00262477 -0.00102025 -4.5396e-06
-0.00102025 0.000137566 2.11695e-06
-4.5396e-06 2.11695e-06 -8.44307e-05
0.00271679 -0.000801406 7.54053e-06
-0.000801406 -7.3353e-07 -6.3299e-07
7.54053e-06 -6.3299e-07 2.3381e-06
0.00228978 -0.000949134 -4.74754e-06
-0.000949134 0.000156331 8.23144e-06
-4.74754e-06 8.23144e-06 -0.000184117
0.00233799 -0.000700885 4.96052e-08
-0.000700885 -2.50409e-05 1.27267e-06
4.96052e-08 1.27267e-06 -0.000117222
0.00250588 -0.000702089 6.32918e-07
-0.000702089 4.25e-05 1.49106e-08
6.32918e-07 1.49106e-08 2.01526e-05
0.00209489 -0.000635423 2.28729e-06
-0.000635423 -2.27577e-06 5.30153e-06
2.28729e-06 5.30153e-06 -0.000203586
0.00230746 -0.000660163 1.47097e-09
-0.000660163 7.93307e-05 8.0707e-07
1.47097e-09 8.0707e-07 -4.42881e-05
0.00246746 -0.000691156 -9.08817e-07
-0.000691156 0.000117539 1.548e-06
-9.08817e-07 1.548e-06 2.21185e-05
0.00226455 -0.000646747 -4.89398e-06
-0.000646747 0.000134426 1.00551e-06
-4.89398e-06 1.00551e-06 -1.86796e-05
0.00226463 -0.000616378 -6.82397e-07
-0.000616378 0.0001917 1.16133e-07
-6.82397e-07 1.16133e-07 2.03454e-05
0.00230003 -0.000606753 -1.93739e-07
-0.000606753 0.000200167 3.52187e-06
-1.93739e-07 3.52187e-06 1.75404e-05
0.00228132 -0.000591426 9.41448e-07
-0.000591426 0.00027708 -5.13085e-07
9.41448e-07 -5.13085e-07 6.33003e-05
0.00219121 -0.000604317 -2.84009e-06
-0.000604317 0.000236125 -1.25862e-06
-2.84009e-06 -1.25862e-06 1.72411e-06
0.00229749 -0.000661695 -2.9505e-06
-0.000661695 0.000358546 -5.60067e-06
-2.9505e-06 -5.60067e-06 4.88449e-05
0.00232907 -0.000677711 -6.2805e-07
-0.000677711 0.00030837 1.82322e-07
-6.2805e-07 1.82322e-07 1.42781e-05
0.00237588 -0.000658295 7.22636e-06
-0.000658295 0.000315993 4.73484e-06
7.22636e-06 4.73484e-06 4.01147e-05
0.00188929 -0.000711803 -7.99342e-06
-0.000711803 0.000291961 -1.45073e-06
-7.99342e-06 -1.45073e-06 -0.000134002
0.00211249 -0.00079182 -1.64767e-06
-0.00079182 0.000327657 -8.68813e-07
-1.64767e-06 -8.68813e-07 -9.36438e-05
0.00184804 -0.000805993 3.99246e-06
-0.000805993 7.41167e-05 3.95666e-06
3.99246e-06 3.95666e-06 -0.000340727
0.00109184 -0.000373903 -1.55876e-05
-0.000373903 0.000147009 9.11067e-06
-1.55876e-05 9.11067e-06 -0.000155303
0.00178402 -0.000730852 5.22392e-07
-0.000730852 0.000414635 1.15917e-06
5.22392e-07 1.15917e-06 -5.41257e-05
0.00232836 -0.000945528 -2.00247e-07
-0.000945528 0.000653518 4.96613e-06
-2.00247e-07 4.96613e-06 0.000120426
0.000151453 -0.000215114 -1.75241e-05
-0.000215114 -0.000272302 2.32585e-05
-1.75241e-05 2.32585e-05 -0.000427153
0.000699162 -0.000305115 1.73899e-06
-0.000305115 3.11737e-05 2.72098e-07
1.73899e-06 2.72098e-07 -0.000245217
0.000914039 -0.000527503 6.29513e-06
-0.000527503 4.0926e-05 -5.68013e-07
6.29513e-06 -5.68013e-07 -0.000364671
0.00631435 0.000118108 -0.000208529
0.000118108 0.00379108 1.4379e-05
-0.000208529 1.4379e-05 0.00378508
0.000462451 -0.000211551 -8.81863e-06
-0.000211551 -7.65333e-05 -1.35488e-06
-8.81863e-06 -1.35488e-06 -0.000200309
0.000373101 -0.000255393 4.2765e-06
-0.000255393 -7.59699e-05 -5.40815e-06
4.2765e-06 -5.40815e-06 -0.000353323
0.00563575 0.000163792 1.26144e-05
0.000163792 0.00338135 -1.69518e-06
1.26144e-05 -1.69518e-06 0.00336365
0.0005325 -0.000177063 3.137e-05
-0.000177063 -1.25048e-05 -1.54273e-05
3.137e-05 -1.54273e-05 -0.000121899
0.00495759 0.000138893 0.000158909
0.000138893 0.00293462 -1.3401e-05
0.000158909 -1.3401e-05 0.0029254
0.00288418 0.000900621 2.38554e-06
0.000900621 0.00133906 7.54889e-06
2.38554e-06 7.54889e-06 0.000785244
0.00103662 0.000421013 -2.89788e-06
0.000421013 0.000237833 -3.95054e-08
-2.89788e-06 -3.95054e-08 -8.94892e-05
0.000839765 0.0002621 7.16482e-06
0.0002621 0.00016528 -1.94556e-06
7.16482e-06 -1.94556e-06 -8.49398e-05
-0.000912803 9.44281e-05 -1.16441e-06
9.44281e-05 -0.000917126 -6.95998e-06
-1.16441e-06 -6.95998e-06 -0.00114363
0.000210726 0.000231875 3.62926e-06
0.000231875 -0.000156547 3.52024e-07
3.62926e-06 3.52024e-07 -0.00040086
0.000790485 0.000284139 -6.9298e-06
0.000284139 0.000196785 -7.81244e-06
-6.9298e-06 -7.81244e-06 -2.83422e-05
-0.000131693 7.93534e-05 -3.8089e-06
7.93534e-05 -0.000248369 2.97474e-06
-3.8089e-06 2.97474e-06 -0.000559045
0.000719225 0.000153089 9.3174e-07
0.000153089 0.000221749 6.85617e-07
9.3174e-07 6.85617e-07 -1.69102e-06
0.000731552 0.000101566 -1.68525e-05
0.000101566 0.000168978 -1.9355e-05
-1.68525e-05 -1.9355e-05 8.23261e-05
0.00374285 -0.000112388 -0.000101018
-0.000112388 0.00214146 -1.1308e-05
-0.000101018 -1.1308e-05 0.00214034
0.000435813 4.01539e-05 2.46386e-06
4.01539e-05 -1.19641e-06 -4.21189e-07
2.46386e-06 -4.21189e-07 -6.80404e-05
0.000194626 6.89359e-05 -3.14132e-06
6.89359e-05 -0.000114085 1.20137e-05
-3.14132e-06 1.20137e-05 -0.000291478
0.00318731 -0.000115173 -1.14844e-05
-0.000115173 0.00177275 1.1414e-06
-1.14844e-05 1.1414e-06 0.00177072
0.000294466 -6.72027e-05 -1.05244e-05
-6.72027e-05 -8.25208e-05 1.41483e-05
-1.05244e-05 1.41483e-05 -0.000141593
0.00285154 -9.19781e-05 3.8792e-05
-9.19781e-05 0.00154622 6.23343e-06
3.8792e-05 6.23343e-06 0.00154904
0.0161383 0.000862704 0.000668014
0.000862704 0.00105806 0.000152764
0.000668014 0.000152764 0.00143668
0.00118017 -0.00458775 -0.000879033
-0.00458775 -0.00121329 -9.19094e-05
-0.000879033 -9.19094e-05 -0.00554395
-0.0085093 0.0016906 -0.000283116
0.0016906 0.00639374 -0.00012394
-0.000283116 -0.00012394 -0.00191306
-0.000181119 7.95216e-05 1.23734e-05
7.95216e-05 -0.000311643 -2.8125e-05
1.23734e-05 -2.8125e-05 -0.000747735
0.000868865 0.000549128 -6.30963e-06
0.000549128 0.000255612 -6.12061e-06
-6.30963e-06 -6.12061e-06 -0.000199074
0.00252429 0.00082733 -1.2275e-05
0.00082733 0.00138997 -5.11457e-06
-1.2275e-05 -5.11457e-06 0.00082223
0.00122519 0.000805499 5.41241e-07
0.000805499 0.000331521 -5.79336e-07
5.41241e-07 -5.79336e-07 -0.000237085
0.00181599 0.000915427 1.83618e-05
0.000915427 0.000415905 2.35086e-05
1.83618e-05 2.35086e-05 -0.000113821
-0.000456793 0.000717601 3.41727e-05
0.000717601 -0.000743669 1.19905e-05
3.41727e-05 1.19905e-05 -0.00120461
0.00162846 0.000664985 -1.15937e-05
0.000664985 0.000922597 3.50831e-06
-1.15937e-05 3.50831e-06 0.000391135
0.000472377 0.000909036 7.91452e-06
0.000909036 -0.000253309 3.10349e-06
7.91452e-06 3.10349e-06 -0.000707077
0.0021648 0.00106134 2.36448e-05
0.00106134 0.000793592 3.9278e-06
2.36448e-05 3.9278e-06 0.000413678
0.00110182 0.000927061 8.75794e-06
0.000927061 -5.51974e-07 -2.87695e-07
8.75794e-06 -2.87695e-07 -0.000404627
0.00282562 0.00124154 8.01092e-06
0.00124154 0.000775191 8.24269e-06
8.01092e-06 8.24269e-06 0.000524178
0.00259983 0.00134345 2.21298e-05
0.00134345 0.000662598 9.80762e-06
2.21298e-05 9.80762e-06 0.000201163
0.00116705 0.00116194 1.06999e-05
0.00116194 -0.000136666 -1.90103e-06
1.06999e-05 -1.90103e-06 -0.000331788
0.00203862 0.000864169 -2.412e-05
0.000864169 0.000866835 -8.18335e-05
-2.412e-05 -8.18335e-05 0.000529446
0.00397674 0.00256133 3.29724e-05
0.00256133 -0.00345511 5.02553e-05
3.29724e-05 5.02553e-05 -0.000657924
0.013355 0.00507305 0.000380081
0.00507305 -0.00111493 0.000223009
0.000380081 0.000223009 -0.0020567
0.015798 -0.00681975 0.00095775
-0.00681975 0.00780558 -0.000111104
0.00095775 -0.000111104 0.00197918
0.00581691 0.00808976 0.000884306
0.00808976 -0.00184052 0.000432363
0.000884306 0.000432363 -0.00541829
-0.000814672 0.00189459 -3.98205e-05
0.00189459 2.27123e-05 2.38661e-05
-3.98205e-05 2.38661e-05 0.000679572
0.00356134 0.0032726 -9.31075e-05
0.0032726 -0.00125759 -6.11381e-05
-9.31075e-05 -6.11381e-05 0.000414923
0.00690094 0.00296236 5.33733e-05
0.00296236 0.00104484 3.28363e-05
5.33733e-05 3.28363e-05 0.000853662
0.00568487 0.00226546 2.44632e-05
0.00226546 0.0019395 1.1498e-05
2.44632e-05 1.1498e-05 0.00137592
0.000753166 0.00107449 -3.87987e-05
0.00107449 -1.14905e-05 4.50112e-06
-3.87987e-05 4.50112e-06 -0.000329216
0.00899593 0.00362287 -0.0002144
0.00362287 0.00270999 -1.0311e-05
-0.0002144 -1.0311e-05 0.00164953
0.00466696 -0.000931394 -7.61996e-06
-0.000931394 -0.0015281 2.9954e-05
-7.61996e-06 2.9954e-05 0.000216489
0.012016 -0.000622505 -6.63237e-05
-0.000622505 -0.00039152 -4.20329e-05
-6.63237e-05 -4.20329e-05 0.000386854
-0.012925 -0.00412531 0.00120118
-0.00412531 -0.00369094 -1.51354e-05
0.00120118 -1.51354e-05 -0.00684979
0.00150228 -0.00187219 -0.000148885
-0.00187219 -0.000340824 4.59902e-05
-0.000148885 4.59902e-05 -0.000595757
0.00824824 -0.00365506 -6.77992e-05
-0.00365506 -0.00159161 0.000112278
-6.77992e-05 0.000112278 0.000441816
0.00209202 -0.000430916 -0.000428807
-0.000430916 -0.00704559 2.18807e-05
-0.000428807 2.18807e-05 -0.00749533
0.0035523 -0.00156048 4.32136e-05
-0.00156048 -0.000186399 4.85135e-07
4.32136e-05 4.85135e-07 0.000178753
0.00528764 -0.00121372 -7.67561e-05
-0.00121372 -0.0015759 -1.95938e-06
-7.67561e-05 -1.95938e-06 0.000216914
0.00727821 -0.00127046 6.87726e-05
-0.00127046 0.00179092 -4.23204e-05
6.87726e-05 -4.23204e-05 0.00228962
0.00620119 -0.000762895 0.000134283
-0.000762895 0.000783341 2.09578e-06
0.000134283 2.09578e-06 0.00159833
-0.00194279 -0.000665105 9.72386e-06
-0.000665105 -0.00242221 1.3392e-05
9.72386e-06 1.3392e-05 -0.00214857
0.00223627 -0.00084884 -9.31133e-06
-0.00084884 -0.000302857 3.36042e-06
-9.31133e-06 3.36042e-06 -7.82978e-05
0.0025204 -0.000634891 2.78527e-05
-0.000634891 -0.00033507 -7.25003e-06
2.78527e-05 -7.25003e-06 1.39475e-05
0.00226074 -0.000997292 -5.46263e-06
-0.000997292 -6.89076e-05 3.35716e-06
-5.46263e-06 3.35716e-06 -0.000293833
0.00265431 -0.000793651 9.67791e-07
-0.000793651 -2.88461e-05 1.56828e-06
9.67791e-07 1.56828e-06 -2.43366e-05
0.00266211 -0.000686415 1.65429e-06
-0.000686415 -8.49813e-06 -5.08981e-07
1.65429e-06 -5.08981e-07 1.70941e-05
0.00227739 -0.000699775 9.98743e-07
-0.000699775 -6.67951e-05 4.18703e-06
9.98743e-07 4.18703e-06 -0.000160754
0.00247296 -0.000698462 1.71545e-07
-0.000698462 3.657e-05 4.46966e-07
1.71545e-07 4.46966e-07 4.78712e-06
0.0024419 -0.000604066 -1.05251e-06
-0.000604066 1.29396e-05 -3.81068e-07
-1.05251e-06 -3.81068e-07 -2.40891e-05
0.00226081 -0.00065462 8.81457e-07
-0.00065462 5.33796e-05 1.84342e-07
8.81457e-07 1.84342e-07 -6.96378e-05
0.00246904 -0.000688812 -6.38732e-08
-0.000688812 0.000147362 -1.06361e-07
-6.38732e-08 -1.06361e-07 4.54262e-05
0.00234636 -0.000599385 1.24083e-06
-0.000599385 0.000123177 4.82513e-07
1.24083e-06 4.82513e-07 1.5789e-05
0.00226014 -0.000653723 -3.30301e-06
-0.000653723 0.00012147 -3.5049e-07
-3.30301e-06 -3.5049e-07 -2.50378e-05
0.00221904 -0.000612172 -1.63187e-06
-0.000612172 0.000160238 -9.53762e-09
-1.63187e-06 -9.53762e-09 -8.22138e-06
0.00234668 -0.000594214 -2.20347e-06
-0.000594214 0.000293652 6.05826e-07
-2.20347e-06 6.05826e-07 9.451e-05
0.00228227 -0.000587332 3.10101e-06
-0.000587332 0.000276262 1.27942e-06
3.10101e-06 1.27942e-06 6.32403e-05
0.00221071 -0.000602684 -2.88845e-07
-0.000602684 0.000244973 1.13134e-07
-2.88845e-07 1.13134e-07 1.16399e-05
0.0022451 -0.000603252 -6.39783e-07
-0.000603252 0.000296375 -2.20001e-06
-6.39783e-07 -2.20001e-06 3.80936e-05
0.00199411 -0.000601423 -5.96135e-06
-0.000601423 0.000270921 -2.76421e-06
-5.96135e-06 -2.76421e-06 -6.28344e-05
0.0021914 -0.000659291 -3.60077e-07
-0.000659291 0.000287514 -1.62915e-06
-3.60077e-07 -1.62915e-06 -2.93415e-05
0.00239071 -0.000687352 4.52838e-06
-0.000687352 0.000351038 3.52272e-06
4.52838e-06 3.52272e-06 5.3556e-05
0.00121928 -0.000436716 -2.17854e-05
-0.000436716 8.89091e-05 8.10547e-06
-2.17854e-05 8.10547e-06 -0.000229815
0.0020067 -0.000715749 -1.22939e-06
-0.000715749 0.000378848 5.30415e-07
-1.22939e-06 5.30415e-07 -4.54263e-05
0.00205651 -0.000790296 2.50528e-07
-0.000790296 0.000285021 3.65917e-06
2.50528e-07 3.65917e-06 -0.00014059
0.00028774 -0.00023594 -1.90898e-05
-0.00023594 -0.000225238 2.44975e-05
-1.90898e-05 2.44975e-05 -0.000390721
0.000844193 -0.000367914 3.65787e-06
-0.000367914 -1.23444e-05 3.48822e-07
3.65787e-06 3.48822e-07 -0.000319324
0.00187253 -0.000735206 8.33074e-06
-0.000735206 0.000480541 1.56355e-06
8.33074e-06 1.56355e-06 1.29721e-05
0.00727205 2.48314e-05 -0.000283366
2.48314e-05 0.00436889 2.16687e-05
-0.000283366 2.16687e-05 0.00437729
0.000328582 -0.000238606 -1.85748e-06
-0.000238606 -0.000163919 -1.93504e-07
-1.85748e-06 -1.93504e-07 -0.000321415
0.000341298 -0.000293871 8.00918e-06
-0.000293871 -0.000197547 -7.03024e-06
8.00918e-06 -7.03024e-06 -0.00047923
0.00661427 8.19921e-05 -1.1578e-05
8.19921e-05 0.00398671 -2.46437e-06
-1.1578e-05 -2.46437e-06 0.00398129
0.000498979 -0.000225577 2.45365e-05
-0.000225577 -5.26565e-05 -2.00474e-05
2.45365e-05 -2.00474e-05 -0.000179755
0.00602769 0.000140836 0.000206797
0.000140836 0.00364737 -2.6587e-05
0.000206797 -2.6587e-05 0.00362703
0.00207393 0.00085654 -9.1513e-06
0.00085654 0.000609039 1.00796e-05
-9.1513e-06 1.00796e-05 9.37763e-05
0.00195442 0.000778459 -1.33472e-06
0.000778459 0.000727284 -5.33566e-07
-1.33472e-06 -5.33566e-07 0.000212926
0.00129532 0.00052039 -4.90037e-06
0.00052039 0.000359266 3.18195e-06
-4.90037e-06 3.18195e-06 -3.33995e-05
0.000751829 0.000438181 6.08184e-07
0.000438181 9.01272e-05 -3.19586e-06
6.08184e-07 -3.19586e-06 -0.000260489
0.000743051 0.000257817 -1.70905e-06
0.000257817 0.000102964 -2.08283e-06
-1.70905e-06 -2.08283e-06 -0.000155033
0.000444098 0.000228009 -4.58091e-06
0.000228009 -4.77201e-05 -3.36082e-06
-4.58091e-06 -3.36082e-06 -0.000308148
0.000794195 0.000148174 5.98027e-07
0.000148174 0.000213213 -3.32373e-07
5.98027e-07 -3.32373e-07 -1.70461e-05
0.000786903 0.000182935 2.00482e-06
0.000182935 0.000242561 -1.26822e-06
2.00482e-06 -1.26822e-06 -1.30317e-05
0.000644224 0.000143919 -2.51033e-05
0.000143919 8.0603e-05 -2.03222e-05
-2.51033e-05 -2.03222e-05 -2.45805e-05
5.44735e-05 0.000116788 -8.23333e-07
0.000116788 -0.000177439 1.28307e-05
-8.23333e-07 1.28307e-05 -0.000412599
0.000486611 9.93964e-05 -5.12266e-07
9.93964e-05 1.84337e-05 -3.48202e-07
-5.12266e-07 -3.48202e-07 -6.5372e-05
0.00446728 -0.000137525 -0.000130366
-0.000137525 0.00262657 -1.61054e-05
-0.000130366 -1.61054e-05 0.00261601
0.0037072 -0.000138967 -1.36655e-05
-0.000138967 0.00212338 1.3267e-06
-1.36655e-05 1.3267e-06 0.00211508
0.00030106 7.88699e-05 1.09464e-05
7.88699e-05 -8.60678e-05 1.72587e-05
1.09464e-05 1.72587e-05 -0.000149482
0.00315946 -0.000118669 4.67473e-05
-0.000118669 0.00175545 6.82911e-06
4.67473e-05 6.82911e-06 0.00175213
0.00273034 0.000397285 0.000113305
0.000397285 -0.00224405 3.5703e-05
0.000113305 3.5703e-05 -0.000110901
0.00589893 -0.000692569 0.000256324
-0.000692569 -0.00570712 0.000138202
0.000256324 0.000138202 -0.00633433
0.0158874 -0.0051103 -0.000314939
-0.0051103 0.00794498 -0.00013344
-0.000314939 -0.00013344 0.0037713
0.00176776 0.000818513 9.29364e-06
0.000818513 0.000160415 1.17707e-05
9.29364e-06 1.17707e-05 -0.000261699
0.0051665 0.00109903 -1.44972e-05
0.00109903 0.00285963 -1.08045e-05
-1.44972e-05 -1.08045e-05 0.00227315
0.000189534 0.000661862 -9.80289e-06
0.000661862 -0.000294414 -1.36223e-05
-9.80289e-06 -1.36223e-05 -0.000825488
0.00178178 0.00100658 1.27828e-06
0.00100658 0.000603404 -1.04177e-06
1.27828e-06 -1.04177e-06 6.65339e-05
0.00201678 0.000939865 -7.27822e-07
0.000939865 0.000563764 4.42922e-06
-7.27822e-07 4.42922e-06 2.22647e-05
0.00211925 0.00104091 2.89301e-05
0.00104091 0.000547845 1.81568e-05
2.89301e-05 1.81568e-05 6.16383e-05
0.0021013 0.00108287 -4.00572e-05
0.00108287 0.000731976 -3.16487e-06
-4.00572e-05 -3.16487e-06 0.000212931
0.00107485 0.000889229 5.8801e-06
0.000889229 0.000218143 -3.52983e-05
5.8801e-06 -3.52983e-05 -0.000150442
0.00204567 0.00114067 6.64565e-08
0.00114067 0.000492454 -1.18759e-06
6.64565e-08 -1.18759e-06 5.19614e-05
0.00164879 0.00110918 1.48835e-05
0.00110918 8.01342e-05 -2.70298e-05
1.48835e-05 -2.70298e-05 -4.96461e-05
0.00219802 0.00112583 2.37567e-05
0.00112583 0.00033645 -2.93999e-06
2.37567e-05 -2.93999e-06 -0.00011862
0.00217796 0.000972135 3.44549e-05
0.000972135 0.000327141 3.24574e-05
3.44549e-05 3.24574e-05 0.000117527
0.000940893 0.00110607 -9.78057e-06
0.00110607 -0.000222274 -7.81088e-06
-9.78057e-06 -7.81088e-06 -0.000582606
0.00113949 0.00112114 -3.33882e-05
0.00112114 -9.6536e-05 -1.78175e-05
-3.33882e-05 -1.78175e-05 -0.000291199
0.00249395 0.00120811 5.1118e-05
0.00120811 -0.00118498 4.2399e-05
5.1118e-05 4.2399e-05 -0.000321351
0.00632658 0.00278927 -0.000113329
0.00278927 -0.00226707 -3.91879e-05
-0.000113329 -3.91879e-05 0.00034385
0.00465074 0.00365029 0.000769085
0.00365029 -0.00667632 0.000218053
0.000769085 0.000218053 -0.00738639
0.00348371 0.00290017 -0.000279874
0.00290017 -0.000205584 -0.000123076
-0.000279874 -0.000123076 0.000989579
0.00548204 0.00244589 -3.25317e-05
0.00244589 0.000802171 -9.4845e-06
-3.25317e-05 -9.4845e-06 0.000737671
0.00682731 0.00247907 -0.000200516
0.00247907 0.00238048 -5.48296e-05
-0.000200516 -5.48296e-05 0.00176733
0.00327468 -0.000239802 -5.05954e-05
-0.000239802 -0.00077449 -2.31649e-05
-5.05954e-05 -2.31649e-05 -0.000159684
-0.000349643 -0.000590784 0.00013001
-0.000590784 -0.00221321 3.23616e-05
0.00013001 3.23616e-05 -0.000394949
0.00630843 0.000402938 0.000310753
0.000402938 -0.00596471 -1.30735e-05
0.000310753 -1.30735e-05 -0.00616614
0.00144156 -0.00124595 -7.43832e-05
-0.00124595 -0.00120484 8.98118e-05
-7.43832e-05 8.98118e-05 -0.00062693
0.00679487 -0.00130273 -0.000215528
-0.00130273 -0.000869216 5.68557e-05
-0.000215528 5.68557e-05 0.000470382
0.00322309 -0.000967422 -3.09042e-05
-0.000967422 -0.00058429 1.18676e-05
-3.09042e-05 1.18676e-05 0.000130514
0.004605 -0.000705625 -2.11073e-05
-0.000705625 3.1554e-05 -9.94596e-08
-2.11073e-05 -9.94596e-08 0.000678464
0.00456355 -0.000523098 9.46678e-05
-0.000523098 0.00084916 -1.5533e-05
9.46678e-05 -1.5533e-05 0.00120107
0.00276505 -0.000110995 4.54081e-05
-0.000110995 0.000125834 6.53881e-07
4.54081e-05 6.53881e-07 0.000261484
0.000534903 -0.000671456 -2.07e-05
-0.000671456 -0.00124275 1.23956e-05
-2.07e-05 1.23956e-05 -0.000883602
0.0025077 -0.000663774 -3.14943e-06
-0.000663774 -0.000332673 6.36361e-07
-3.14943e-06 6.36361e-07 -2.2735e-05
0.00262145 -0.000514173 3.95541e-06
-0.000514173 -0.00025266 -4.62559e-07
3.95541e-06 -4.62559e-07 1.28648e-05
0.00258184 -0.000780617 -4.16958e-06
-0.000780617 -5.68468e-05 2.63619e-06
-4.16958e-06 2.63619e-06 -4.842e-05
0.00265921 -0.000663607 -1.49529e-07
-0.000663607 2.05393e-05 -5.29453e-07
-1.49529e-07 -5.29453e-07 5.71431e-05
0.00248037 -0.0005029 -9.22854e-07
-0.0005029 -8.4793e-05 -3.40808e-07
-9.22854e-07 -3.40808e-07 -2.48867e-05
0.00243975 -0.000692714 -1.40189e-06
-0.000692714 3.30483e-05 5.66226e-07
-1.40189e-06 5.66226e-07 -6.65686e-06
0.00244238 -0.000607513 -6.69864e-07
-0.000607513 2.64481e-05 3.663e-08
-6.69864e-07 3.663e-08 -7.90313e-06
0.00233582 -0.000505423 7.94494e-08
-0.000505423 4.3878e-05 5.25291e-08
7.94494e-08 5.25291e-08 -6.24175e-06
0.00247095 -0.000685398 -1.00438e-06
-0.000685398 0.000178414 -1.27124e-06
-1.00438e-06 -1.27124e-06 7.03844e-05
0.00233731 -0.00059981 1.06787e-06
-0.00059981 0.000115225 -1.45178e-07
1.06787e-06 -1.45178e-07 7.57076e-06
0.00224136 -0.000536345 -1.08246e-06
-0.000536345 0.000140601 4.2018e-07
-1.08246e-06 4.2018e-07 3.11691e-06
0.00217946 -0.000608863 -2.35508e-06
-0.000608863 0.000133065 1.81391e-07
-2.35508e-06 1.81391e-07 -3.23553e-05
0.00227546 -0.000588689 -1.21582e-06
-0.000588689 0.000240082 6.01259e-07
-1.21582e-06 6.01259e-07 4.37393e-05
0.00235145 -0.000576566 -1.28399e-06
-0.000576566 0.000318636 -1.61904e-06
-1.28399e-06 -1.61904e-06 0.00010067
0.00222766 -0.000601274 2.64381e-06
-0.000601274 0.000251754 2.14167e-06
2.64381e-06 2.14167e-06 1.93377e-05
0.00223607 -0.000603697 -1.5371e-07
-0.000603697 0.00028949 -2.5792e-09
-1.5371e-07 -2.5792e-09 3.34673e-05
0.00212259 -0.000544609 -4.47741e-06
-0.000544609 0.000316735 -9.87187e-07
-4.47741e-06 -9.87187e-07 3.21435e-05
0.00128883 -0.000410635 -1.97315e-05
-0.000410635 4.17375e-05 7.47721e-06
-1.97315e-05 7.47721e-06 -0.000248261
0.00197604 -0.000600049 -5.26549e-07
-0.000600049 0.000263411 -1.14023e-06
-5.26549e-07 -1.14023e-06 -7.48012e-05
0.0020865 -0.000657215 1.32316e-06
-0.000657215 0.000217039 2.40991e-06
1.32316e-06 2.40991e-06 -0.000107093
0.000199002 -0.000250849 -2.1832e-05
-0.000250849 -0.000290193 2.07057e-05
-2.1832e-05 2.07057e-05 -0.000464784
0.00119778 -0.000432963 1.54605e-06
-0.000432963 7.94388e-05 -1.03157e-07
1.54605e-06 -1.03157e-07 -0.00023841
0.00212088 -0.000720089 6.02216e-06
-0.000720089 0.000462507 2.1293e-06
6.02216e-06 2.1293e-06 3.97083e-05
0.00813026 -2.35394e-05 -0.000331866
-2.35394e-05 0.00488377 2.82642e-05
-0.000331866 2.82642e-05 0.00489694
0.000224939 -0.000277343 -4.90109e-07
-0.000277343 -0.000252652 2.3539e-06
-4.90109e-07 2.3539e-06 -0.000430408
0.000634047 -0.000366288 1.59001e-05
-0.000366288 -0.000151527 -6.18344e-06
1.59001e-05 -6.18344e-06 -0.000463375
0.00759074 7.9128e-06 -8.1113e-06
7.9128e-06 0.00457249 5.10848e-07
-8.1113e-06 5.10848e-07 0.0045794
0.000614515 -0.000287411 2.4156e-05
-0.000287411 1.70184e-05 -2.54623e-05
2.4156e-05 -2.54623e-05 -0.000146822
0.00690224 7.43723e-05 0.000268525
7.43723e-05 0.00417894 -3.31115e-05
0.000268525 -3.31115e-05 0.0041707
0.00179928 0.00075918 -4.34665e-06
0.00075918 0.000248711 1.01444e-05
-4.34665e-06 1.01444e-05 -0.000180437
0.0019754 0.000844319 -1.73426e-06
0.000844319 0.000544075 1.03439e-06
-1.73426e-06 1.03439e-06 3.11165e-05
0.0015538 0.000645791 -8.86531e-06
0.000645791 0.000332218 5.40123e-06
-8.86531e-06 5.40123e-06 -0.00010285
0.000955451 0.000649048 -3.63863e-06
0.000649048 6.66357e-05 -6.21578e-06
-3.63863e-06 -6.21578e-06 -0.000406878
0.00148211 0.000513322 -3.81756e-06
0.000513322 0.000436653 -2.03877e-06
-3.81756e-06 -2.03877e-06 5.21838e-05
0.000686496 0.000278599 -1.28641e-05
0.000278599 4.6748e-05 -1.86509e-06
-1.28641e-05 -1.86509e-06 -0.000226027
0.000755283 0.000234001 -2.12394e-07
0.000234001 7.70605e-05 -5.65864e-06
-2.12394e-07 -5.65864e-06 -0.000176895
0.000608638 0.000234246 2.57726e-06
0.000234246 2.70181e-05 -5.73405e-07
2.57726e-06 -5.73405e-07 -0.000207711
0.000370571 0.000194227 -3.14593e-05
0.000194227 -0.000131772 -1.99338e-05
-3.14593e-05 -1.99338e-05 -0.000242223
0.000707692 0.000168548 1.95315e-06
0.000168548 0.000177672 8.66549e-06
1.95315e-06 8.66549e-06 -6.78647e-05
0.000568917 0.00013536 -1.14735e-06
0.00013536 3.93738e-05 -4.65632e-07
-1.14735e-06 -4.65632e-07 -6.06639e-05
0.00558064 -0.000169198 -0.000175683
-0.000169198 0.00336464 -2.13453e-05
-0.000175683 -2.13453e-05 0.00334175
0.000233793 0.000100198 1.65162e-05
0.000100198 -0.000136891 1.95405e-05
1.65162e-05 1.95405e-05 -0.000216952
0.00423874 -0.000164784 -1.38165e-05
-0.000164784 0.00248667 1.60373e-06
-1.38165e-05 1.60373e-06 0.00246885
0.00352324 -0.000150103 5.84936e-05
-0.000150103 0.00200564 8.24661e-06
5.84936e-05 8.24661e-06 0.00199344
0.00103055 0.000345398 8.56016e-06
0.000345398 -0.00210724 1.27513e-05
8.56016e-06 1.27513e-05 -0.000975013
0.00497199 0.000281382 7.31146e-05
0.000281382 -0.00151594 3.15572e-05
7.31146e-05 3.15572e-05 0.000591354
0.0166551 0.000868199 2.97898e-05
0.000868199 0.00130876 7.83232e-05
2.97898e-05 7.83232e-05 0.00197003
0.00225678 0.000947251 3.23716e-06
0.000947251 0.000403246 7.33724e-06
3.23716e-06 7.33724e-06 -1.78617e-05
0.00231999 0.000863553 1.33918e-06
0.000863553 0.000291764 6.35511e-06
1.33918e-06 6.35511e-06 -6.62767e-05
0.00175634 0.000819572 -6.40918e-07
0.000819572 0.000161228 -4.58408e-06
-6.40918e-07 -4.58408e-06 -0.000256609
0.00337858 0.00121459 -1.75516e-05
0.00121459 0.00155163 -2.42924e-06
-1.75516e-05 -2.42924e-06 0.000965422
0.00221728 0.000961075 -1.05297e-05
0.000961075 0.000713833 -1.26783e-05
-1.05297e-05 -1.26783e-05 0.000161717
0.0022539 0.00109234 7.12314e-06
0.00109234 0.000577649 3.34785e-06
7.12314e-06 3.34785e-06 8.73601e-05
0.0024238 0.00106674 -3.78151e-06
0.00106674 0.000250307 -4.72959e-07
-3.78151e-06 -4.72959e-07 -0.000126253
0.00211889 0.00121042 -1.38405e-05
0.00121042 0.000463036 -2.43695e-06
-1.38405e-05 -2.43695e-06 1.58384e-05
0.000617431 0.00101015 -2.97709e-05
0.00101015 -0.000520562 7.49275e-05
-2.97709e-05 7.49275e-05 -0.000581864
0.00293194 0.00122977 4.50717e-07
0.00122977 0.00074227 -2.16589e-06
4.50717e-07 -2.16589e-06 0.000262878
0.00301731 0.00104055 -3.88614e-06
0.00104055 0.000453309 1.0615e-05
-3.88614e-06 1.0615e-05 0.000215354
0.0017916 0.000492768 5.68056e-05
0.000492768 -0.000115989 1.26286e-05
5.68056e-05 1.26286e-05 3.72196e-05
0.000390922 0.000788355 7.13475e-06
0.000788355 -0.000606638 -8.3003e-06
7.13475e-06 -8.3003e-06 -0.000792794
0.000700151 0.00105954 -4.20217e-05
0.00105954 -0.000345011 -7.12747e-06
-4.20217e-05 -7.12747e-06 -0.000690108
0.00381886 0.00134863 2.3918e-05
0.00134863 -0.000431448 1.24177e-05
2.3918e-05 1.24177e-05 0.000277539
0.0092692 0.00268724 -7.21305e-05
0.00268724 -0.000704072 -5.18525e-05
-7.21305e-05 -5.18525e-05 0.00134078
0.00541143 0.00207435 -7.17879e-05
0.00207435 0.00126324 -8.37347e-05
-7.17879e-05 -8.37347e-05 0.00128365
0.00306054 -7.29939e-05 6.34988e-05
-7.29939e-05 0.000233134 8.21037e-06
6.34988e-05 8.21037e-06 0.000515487
0.00340958 -0.000256424 -8.96303e-05
-0.000256424 -0.000755254 7.80831e-06
-8.96303e-05 7.80831e-06 3.87353e-05
0.00537204 0.000523058 3.87726e-06
0.000523058 -0.000129126 -1.90694e-05
3.87726e-06 -1.90694e-05 0.00116409
0.000621331 -0.000818629 -8.87417e-05
-0.000818629 -0.00212839 6.56967e-05
-8.87417e-05 6.56967e-05 -0.00128744
0.00303049 -0.000715776 -0.000107127
-0.000715776 -0.000705168 6.49952e-06
-0.000107127 6.49952e-06 -0.000218009
0.00315968 -0.000471499 1.11647e-06
-0.000471499 -3.8678e-05 -4.07521e-06
1.11647e-06 -4.07521e-06 0.000457076
0.00237747 -0.000105589 -1.39451e-05
-0.000105589 -0.000135212 -8.4357e-07
-1.39451e-05 -8.4357e-07 3.38079e-05
0.00258039 -0.000296743 9.87901e-06
-0.000296743 -0.000240866 3.37431e-07
9.87901e-06 3.37431e-07 1.55498e-05
0.00233226 6.51807e-05 4.70679e-06
6.51807e-05 -0.000377226 5.63971e-08
4.70679e-06 5.63971e-08 -0.000210587
0.00258619 -0.000701526 -2.14674e-05
-0.000701526 -0.000284886 5.27299e-06
-2.14674e-05 5.27299e-06 -1.51083e-05
0.00267969 -0.000540198 -2.78956e-06
-0.000540198 -0.000225444 7.11195e-07
-2.78956e-06 7.11195e-07 -1.92292e-07
0.00254612 -0.000366474 -5.467e-07
-0.000366474 -0.000160789 1.01032e-08
-5.467e-07 1.01032e-08 5.27581e-09
0.00265277 -0.000641335 -4.15731e-06
-0.000641335 4.28224e-05 7.41934e-07
-4.15731e-06 7.41934e-07 9.15216e-05
0.00250118 -0.000504034 2.64401e-07
-0.000504034 -5.97237e-05 -2.10158e-07
2.64401e-07 -2.10158e-07 -6.32542e-06
0.00237172 -0.000410952 6.43522e-07
-0.000410952 -3.70501e-05 -6.69487e-08
6.43522e-07 -6.69487e-08 -8.71347e-06
0.00244342 -0.000611389 -1.42612e-06
-0.000611389 3.93678e-05 1.44551e-08
-1.42612e-06 1.44551e-08 7.408e-06
0.00234925 -0.000504666 3.76948e-07
-0.000504666 4.71411e-05 -3.92797e-08
3.76948e-07 -3.92797e-08 -2.84272e-06
0.00226042 -0.000450363 -1.59673e-06
-0.000450363 7.90706e-05 5.90486e-07
-1.59673e-06 5.90486e-07 5.3749e-06
0.00233377 -0.000600893 1.43459e-06
-0.000600893 0.000110493 -8.08009e-07
1.43459e-06 -8.08009e-07 2.44046e-06
0.00223669 -0.00053676 6.9457e-07
-0.00053676 0.000131724 -3.54116e-07
6.9457e-07 -3.54116e-07 -6.02758e-06
0.00223756 -0.000508432 -2.23248e-06
-0.000508432 0.000197327 -3.43234e-07
-2.23248e-06 -3.43234e-07 2.02382e-05
0.00219715 -0.00058286 -8.55319e-08
-0.00058286 0.000181599 3.74537e-07
-8.55319e-08 3.74537e-07 -1.18942e-05
0.00225219 -0.000571395 -7.36361e-08
-0.000571395 0.00025368 -1.53375e-07
-7.36361e-08 -1.53375e-07 3.57385e-05
0.00208563 -0.00050694 -3.64844e-06
-0.00050694 0.000235092 -8.28169e-07
-3.64844e-06 -8.28169e-07 -1.49144e-05
0.00222853 -0.000604184 1.0354e-06
-0.000604184 0.000283868 3.08818e-06
1.0354e-06 3.08818e-06 3.0106e-05
0.00213523 -0.000548323 -7.11381e-07
-0.000548323 0.000324776 -3.99111e-08
-7.11381e-07 -3.99111e-08 4.14359e-05
0.00132385 -0.000356066 -1.57666e-05
-0.000356066 3.46987e-05 6.82278e-06
-1.57666e-05 6.82278e-06 -0.000219263
0.000311102 -0.000236925 -1.93306e-05
-0.000236925 -0.000247605 2.00627e-05
-1.93306e-05 2.00627e-05 -0.000412606
0.00131106 -0.000409686 1.27932e-07
-0.000409686 6.07988e-05 8.41929e-08
1.27932e-07 8.41929e-08 -0.000227747
0.00195438 -0.000598306 4.40326e-06
-0.000598306 0.000253715 3.87463e-07
4.40326e-06 3.87463e-07 -8.88906e-05
0.00827535 -0.000120496 -0.000381804
-0.000120496 0.00495366 3.42281e-05
-0.000381804 3.42281e-05 0.00497683
0.000315127 -0.000261142 -1.33767e-06
-0.000261142 -0.000226996 1.16109e-06
-1.33767e-06 1.16109e-06 -0.000399174
0.00103892 -0.000419012 2.00611e-05
-0.000419012 -9.96737e-06 -6.8804e-06
2.00611e-05 -6.8804e-06 -0.000325819
0.0082552 -6.61061e-05 1.09114e-06
-6.61061e-05 0.00496136 1.38782e-06
1.09114e-06 1.38782e-06 0.00497763
0.000368927 -0.000292823 2.66004e-05
-0.000292823 -0.000166887 -2.36619e-05
2.66004e-05 -2.36619e-05 -0.000346049
0.00797963 -3.88131e-05 0.000345342
-3.88131e-05 0.00481014 -3.58045e-05
0.000345342 -3.58045e-05 0.0048215
0.00202983 0.000785284 1.26768e-06
0.000785284 0.000229264 1.00621e-05
1.26768e-06 1.00621e-05 -0.000147186
0.00189485 0.000775843 1.06658e-06
0.000775843 0.000315881 1.91789e-07
1.06658e-06 1.91789e-07 -0.0001144
0.00201638 0.000706156 -6.68514e-06
0.000706156 0.00046612 6.42739e-06
-6.68514e-06 6.42739e-06 4.51464e-05
0.00183609 0.000823161 6.10701e-06
0.000823161 0.000462611 -7.59602e-06
6.10701e-06 -7.59602e-06 -4.53533e-05
0.00160384 0.000649745 -5.1897e-07
0.000649745 0.000364743 9.18324e-07
-5.1897e-07 9.18324e-07 -7.25483e-05
0.000840029 0.00033196 -1.90788e-05
0.00033196 1.09322e-05 -2.99445e-06
-1.90788e-05 -2.99445e-06 -0.000271715
0.0017471 0.000505709 1.04562e-06
0.000505709 0.000567837 -3.07762e-06
1.04562e-06 -3.07762e-06 0.000192332
0.000568513 0.00024115 1.10037e-06
0.00024115 -3.88083e-05 2.22749e-07
1.10037e-06 2.22749e-07 -0.000296851
0.000477605 0.000249048 -3.17073e-05
0.000249048 -7.68259e-05 -2.3383e-05
-3.17073e-05 -2.3383e-05 -0.000211424
0.000804735 0.000168245 2.79349e-06
0.000168245 0.000164806 4.19601e-06
2.79349e-06 4.19601e-06 -7.66242e-05
0.000449332 0.000180069 1.91746e-06
0.000180069 -7.86777e-05 -1.01149e-06
1.91746e-06 -1.01149e-06 -0.000188026
0.00649882 -0.000184176 -0.000211271
-0.000184176 0.00396293 -2.78093e-05
-0.000211271 -2.78093e-05 0.00392981
0.000319468 0.000130784 2.19145e-05
0.000130784 -0.000110984 2.10894e-05
2.19145e-05 2.10894e-05 -0.000208928
0.00513709 -0.00019763 -1.31532e-05
-0.00019763 0.00308399 1.19682e-06
-1.31532e-05 1.19682e-06 0.00305398
0.00415611 -0.000186833 8.32515e-05
-0.000186833 0.00243664 1.14194e-05
8.32515e-05 1.14194e-05 0.00241335
0.00173613 0.000287264 4.57587e-05
0.000287264 -0.000401688 1.88483e-05
4.57587e-05 1.88483e-05 -3.37037e-05
0.00224768 0.000412906 -2.0725e-05
0.000412906 -0.00180562 -4.6235e-06
-2.0725e-05 -4.6235e-06 -0.000610673
0.00508826 0.00072202 0.000268582
0.00072202 -0.00173797 8.96458e-05
0.000268582 8.96458e-05 0.000731481
0.00268331 0.000920633 -8.95586e-06
0.000920633 0.000441651 6.94966e-07
-8.95586e-06 6.94966e-07 0.00010372
0.00216087 0.000959642 -8.43747e-06
0.000959642 0.00032736 -5.31608e-06
-8.43747e-06 -5.31608e-06 -9.21092e-05
0.0023816 0.000695437 2.78801e-06
0.000695437 0.000214684 5.51844e-06
2.78801e-06 5.51844e-06 -2.75664e-05
0.00240158 0.000861083 1.46067e-06
0.000861083 0.00034603 4.76867e-07
1.46067e-06 4.76867e-07 -7.85368e-06
0.00173783 0.000819081 -1.23943e-06
0.000819081 0.000158615 -1.49806e-05
-1.23943e-06 -1.49806e-05 -0.000254617
0.0026677 0.000824211 -6.01453e-06
0.000824211 0.000176339 1.13701e-06
-6.01453e-06 1.13701e-06 -1.3678e-05
0.00270742 0.00118268 -1.0409e-05
0.00118268 0.000796867 -8.44046e-06
-1.0409e-05 -8.44046e-06 0.000289891
0.00272072 0.00106444 -7.15452e-07
0.00106444 0.000447576 -5.53698e-07
-7.15452e-07 -5.53698e-07 6.82932e-05
0.00225952 0.000510839 -1.77893e-05
0.000510839 -0.000260349 7.99085e-07
-1.77893e-05 7.99085e-07 -0.000169487
0.00319613 0.00129891 -1.03709e-05
0.00129891 0.000836473 1.49907e-05
-1.03709e-05 1.49907e-05 0.000385657
0.00266535 0.00100219 4.30816e-07
0.00100219 0.000258767 -1.59399e-06
4.30816e-07 -1.59399e-06 2.20624e-05
0.00058129 0.000470882 -1.06399e-05
0.000470882 -0.000871195 1.28088e-06
-1.06399e-05 1.28088e-06 -0.000650966
-0.0021003 0.0005388 -2.80501e-05
0.0005388 -0.00191853 -1.36887e-05
-2.80501e-05 -1.36887e-05 -0.00205117
0.00406584 0.0014445 -0.000157246
0.0014445 -0.000295594 -5.80219e-05
-0.000157246 -5.80219e-05 0.000293778
0.00258667 0.000173091 7.36467e-07
0.000173091 -0.000172556 -2.25995e-06
7.36467e-07 -2.25995e-06 6.43887e-06
0.00302736 -5.1368e-05 -1.62361e-06
-5.1368e-05 0.000300105 3.97685e-07
-1.62361e-06 3.97685e-07 0.000496888
0.00318988 -0.000314631 -0.000120606
-0.000314631 -0.000945693 -4.00464e-06
-0.000120606 -4.00464e-06 2.01784e-05
0.00138816 -0.000400829 -8.42677e-05
-0.000400829 -0.00114598 1.49643e-05
-8.42677e-05 1.49643e-05 -0.000506301
0.00210742 -0.000112416 -1.715e-05
-0.000112416 -0.00031109 -2.05784e-08
-1.715e-05 -2.05784e-08 -0.000117297
0.00252209 -0.000302497 3.99544e-06
-0.000302497 -0.000293297 -7.24965e-07
3.99544e-06 -7.24965e-07 -1.51127e-06
0.00264539 7.66643e-05 -3.34395e-06
7.66643e-05 -0.000175881 -4.82894e-07
-3.34395e-06 -4.82894e-07 -2.08223e-05
0.00258291 -6.70512e-05 -2.36453e-06
-6.70512e-05 -0.000164849 -5.63433e-07
-2.36453e-06 -5.63433e-07 2.10004e-05
0.00271932 -0.000562 -4.0623e-06
-0.000562 -0.000201986 2.96502e-08
-4.0623e-06 2.96502e-08 -1.70947e-05
0.0024951 -0.000352038 3.26186e-07
-0.000352038 -0.000172473 -3.43655e-07
3.26186e-07 -3.43655e-07 -2.24008e-05
0.00241035 -0.000265367 1.01477e-06
-0.000265367 -6.94217e-05 4.84322e-08
1.01477e-06 4.84322e-08 3.19339e-05
0.00252418 -0.000505688 -4.01925e-07
-0.000505688 -3.18413e-05 4.76582e-07
-4.01925e-07 4.76582e-07 1.41067e-05
0.00237715 -0.00040899 2.09805e-07
-0.00040899 -2.99549e-05 6.10789e-08
2.09805e-07 6.10789e-08 -4.36438e-06
0.00225772 -0.000346095 -1.1714e-06
-0.000346095 2.48181e-05 3.7638e-07
-1.1714e-06 3.7638e-07 7.73124e-06
0.00236182 -0.000503623 7.10725e-07
-0.000503623 4.98278e-05 -5.79731e-08
7.10725e-07 -5.79731e-08 7.5876e-09
0.00225619 -0.00045133 3.812e-07
-0.00045133 7.26362e-05 1.37225e-08
3.812e-07 1.37225e-08 -1.1328e-06
0.00227922 -0.000427246 -3.65487e-06
-0.000427246 0.000163529 1.03776e-06
-3.65487e-06 1.03776e-06 4.08665e-05
0.00222981 -0.000536988 2.1069e-06
-0.000536988 0.000121637 -9.94755e-07
2.1069e-06 -9.94755e-07 -1.634e-05
0.00218815 -0.000503981 8.97578e-08
-0.000503981 0.000164481 -5.56851e-07
8.97578e-08 -5.56851e-07 -1.21355e-05
0.00208121 -0.000448371 -2.38394e-06
-0.000448371 0.000173889 -8.01782e-07
-2.38394e-06 -8.01782e-07 -3.46101e-05
0.00215276 -0.000566185 1.09278e-06
-0.000566185 0.0001882 9.35494e-07
1.09278e-06 9.35494e-07 -2.96789e-05
0.00210016 -0.00050738 -7.04165e-07
-0.00050738 0.00024826 8.74439e-08
-7.04165e-07 8.74439e-08 -1.60595e-06
0.0012963 -0.000311001 -1.22909e-05
-0.000311001 -6.10765e-06 5.61503e-06
-1.22909e-05 5.61503e-06 -0.00023353
0.00214189 -0.000551376 3.51068e-06
-0.000551376 0.000328813 1.18022e-06
3.51068e-06 1.18022e-06 4.68961e-05
0.00134462 -0.000357729 9.56663e-08
-0.000357729 4.29399e-05 1.74096e-07
9.56663e-08 1.74096e-07 -0.00021027
0.00291032 -0.000238386 -5.69607e-05
-0.000238386 0.00139881 1.47111e-05
-5.69607e-05 1.47111e-05 0.0012697
0.00265746 -0.000134374 -0.000300304
-0.000134374 0.00135269 4.54014e-05
-0.000300304 4.54014e-05 0.00133481
0.00166761 -0.000257255 -1.6892e-05
-0.000257255 0.000618142 2.5979e-07
-1.6892e-05 2.5979e-07 0.000464415
0.00133986 -0.000409242 1.83744e-05
-0.000409242 8.43156e-05 -7.08553e-06
1.83744e-05 -7.08553e-06 -0.000202876
0.00813727 -0.000123795 -1.11217e-05
-0.000123795 0.00487652 2.61605e-06
-1.11217e-05 2.61605e-06 0.00489302
0.000159447 -0.000281986 2.3585e-05
-0.000281986 -0.000324787 -2.16967e-05
2.3585e-05 -2.16967e-05 -0.000501494
0.00832816 -7.65214e-05 0.000356699
-7.65214e-05 0.00501399 -3.84824e-05
0.000356699 -3.84824e-05 0.00502474
0.00225463 0.00054024 3.22255e-07
0.00054024 0.000146114 1.78714e-06
3.22255e-07 1.78714e-06 -2.73508e-05
0.00224224 0.000698929 3.60478e-06
0.000698929 0.000276347 7.90611e-06
3.60478e-06 7.90611e-06 -1.74666e-05
0.00230842 0.000806124 5.99814e-07
0.000806124 0.000403732 6.94437e-08
5.99814e-07 6.94437e-08 2.83427e-05
0.00210551 0.000688994 -4.20732e-06
0.000688994 0.000404846 6.32549e-06
-4.20732e-06 6.32549e-06 2.71087e-05
0.00198158 0.000795722 6.75196e-06
0.000795722 0.000369539 -8.73452e-06
6.75196e-06 -8.73452e-06 -6.32793e-05
0.0018721 0.000693904 2.7841e-07
0.000693904 0.000365817 7.78078e-07
2.7841e-07 7.78078e-07 -5.42312e-05
0.0008761 0.000392329 -3.01804e-05
0.000392329 -6.06088e-05 -4.59583e-06
-3.01804e-05 -4.59583e-06 -0.000363387
0.0015871 0.000649798 9.48944e-06
0.000649798 0.000347109 -4.18497e-06
9.48944e-06 -4.18497e-06 -9.18367e-05
0.000740411 0.00032841 -1.31997e-06
0.00032841 -3.66559e-05 -1.16792e-07
-1.31997e-06 -1.16792e-07 -0.00031658
0.000355605 0.000306267 -3.09666e-05
0.000306267 -0.000163486 -2.28292e-05
-3.09666e-05 -2.28292e-05 -0.000331397
0.000471956 0.000215696 9.87075e-06
0.000215696 -0.000101919 -1.87416e-06
9.87075e-06 -1.87416e-06 -0.000348441
0.000388429 0.000223878 4.97482e-06
0.000223878 -0.000133542 -1.70356e-06
4.97482e-06 -1.70356e-06 -0.000266605
0.00776191 -6.2932e-05 -0.000303226
-6.2932e-05 0.00470898 -3.32498e-05
-0.000303226 -3.32498e-05 0.00470173
0.000555089 0.000160531 2.83249e-05
0.000160531 -4.60105e-06 2.02405e-05
2.83249e-05 2.02405e-05 -0.000112005
0.0062324 -0.000170369 6.40895e-06
-0.000170369 0.00377011 -2.75014e-06
6.40895e-06 -2.75014e-06 0.00374764
0.00476379 -0.000223694 0.000106644
-0.000223694 0.00285555 1.60079e-05
0.000106644 1.60079e-05 0.00281725
0.00252167 0.00024295 -7.01942e-06
0.00024295 -0.000252627 1.0135e-07
-7.01942e-06 1.0135e-07 -2.59722e-05
0.00173983 0.000231816 1.2623e-05
0.000231816 -0.000651386 -3.05178e-06
1.2623e-05 -3.05178e-06 -0.000169601
0.00415742 0.000531435 -0.000144266
0.000531435 -0.00108906 -8.37461e-06
-0.000144266 -8.37461e-06 0.000158379
0.00246556 0.00064885 -3.00772e-06
0.00064885 0.000162896 1.409e-06
-3.00772e-06 1.409e-06 3.42562e-06
0.00252594 0.000892809 -4.12424e-06
0.000892809 0.000387912 -5.50002e-07
-4.12424e-06 -5.50002e-07 5.80976e-05
0.00209333 0.000972086 -4.85333e-06
0.000972086 0.000269195 -1.07862e-05
-4.85333e-06 -1.07862e-05 -0.000147543
0.00240867 0.000682761 1.96242e-06
0.000682761 0.000249001 1.45124e-06
1.96242e-06 1.45124e-06 9.16825e-06
0.00248292 0.000859266 -1.41408e-06
0.000859266 0.00040021 -7.46279e-06
-1.41408e-06 -7.46279e-06 5.0051e-05
0.00266704 0.000513988 8.97053e-07
0.000513988 -2.17416e-05 4.18046e-07
8.97053e-07 4.18046e-07 3.71559e-05
0.0026011 0.000820917 -1.17163e-06
0.000820917 0.000153724 1.95755e-08
-1.17163e-06 1.95755e-08 -3.33855e-05
0.00288525 0.00105147 -1.84007e-06
0.00105147 0.000564446 -4.14971e-06
-1.84007e-06 -4.14971e-06 0.000184712
0.00221416 0.000484385 1.14689e-07
0.000484385 -0.000240817 6.795e-09
1.14689e-07 6.795e-09 -0.000144854
0.00249496 0.000970122 1.55199e-05
0.000970122 0.000160297 -1.63224e-06
1.55199e-05 -1.63224e-06 -7.68923e-05
-0.000334105 0.000426321 -4.51161e-05
0.000426321 -0.00145484 -1.48302e-05
-4.51161e-05 -1.48302e-05 -0.00116253
0.00251655 0.000105313 -4.40452e-07
0.000105313 -0.000114994 -5.66288e-07
-4.40452e-07 -5.66288e-07 3.22418e-05
0.00248599 0.000171363 -7.3402e-07
0.000171363 -0.000245597 1.13536e-06
-7.3402e-07 1.13536e-06 -6.26215e-05
0.00296659 -3.45401e-05 -6.10243e-05
-3.45401e-05 0.00032092 -6.1684e-06
-6.10243e-05 -6.1684e-06 0.000449004
0.00239953 -0.000305563 -2.26755e-05
-0.000305563 -0.000396043 1.768e-06
-2.26755e-05 1.768e-06 -6.57331e-05
0.00289902 9.33637e-05 3.00122e-06
9.33637e-05 -1.95085e-05 2.72484e-06
3.00122e-06 2.72484e-06 0.000124377
0.00257976 -7.62746e-05 -8.12103e-07
-7.62746e-05 -0.000179873 -6.87357e-07
-8.12103e-07 -6.87357e-07 1.00188e-05
0.00226739 -7.65937e-05 3.62486e-07
-7.65937e-05 -9.08473e-05 1.8053e-07
3.62486e-07 1.8053e-07 -3.08681e-06
0.0024364 -0.000336592 7.824e-07
-0.000336592 -0.00018935 -7.31018e-07
7.824e-07 -7.31018e-07 -4.89219e-05
0.00236607 -0.000272734 -9.449e-09
-0.000272734 -9.27842e-05 -1.94729e-08
-9.449e-09 -1.94729e-08 7.22952e-07
0.00218606 -0.000227959 1.9553e-07
-0.000227959 -3.44385e-05 -1.1248e-07
1.9553e-07 -1.1248e-07 -1.73975e-05
0.00238094 -0.000406988 -7.25678e-07
-0.000406988 -2.43754e-05 4.78956e-07
-7.25678e-07 4.78956e-07 -1.28186e-06
0.00225591 -0.000345815 6.59138e-08
-0.000345815 2.00305e-05 1.29112e-07
6.59138e-08 1.29112e-07 2.9341e-06
0.00227916 -0.000334949 -5.03258e-06
-0.000334949 0.000102173 1.07663e-06
-5.03258e-06 1.07663e-06 3.42503e-05
0.00225203 -0.000452402 2.23136e-06
-0.000452402 6.59053e-05 -5.712e-07
2.23136e-06 -5.712e-07 -7.95482e-06
0.00222091 -0.000422222 4.83453e-07
-0.000422222 0.000126182 -2.04791e-07
4.83453e-07 -2.04791e-07 4.11448e-06
0.00209056 -0.000367453 -1.68844e-06
-0.000367453 0.000137505 -8.05355e-07
-1.68844e-06 -8.05355e-07 -2.61253e-05
0.00213542 -0.000499352 2.39161e-06
-0.000499352 0.000129368 -7.08223e-07
2.39161e-06 -7.08223e-07 -4.67627e-05
0.00214277 -0.000452354 -6.8893e-07
-0.000452354 0.000217218 8.10484e-08
-6.8893e-07 8.10484e-08 8.20717e-06
0.00131486 -0.000268598 -9.3849e-06
-0.000268598 -1.62767e-05 4.24277e-06
-9.3849e-06 4.24277e-06 -0.000220998
0.00211575 -0.000507836 2.74252e-06
-0.000507836 0.000262319 6.7682e-07
2.74252e-06 6.7682e-07 1.26039e-05
0.00134544 -0.000315304 -1.22853e-07
-0.000315304 1.56972e-05 2.20763e-07
-1.22853e-07 2.20763e-07 -0.000211355
0.00290207 -0.000222892 -6.45286e-05
-0.000222892 0.00139055 1.42381e-05
-6.45286e-05 1.42381e-05 0.00127313
0.00136111 -0.000359739 1.45786e-05
-0.000359739 4.78978e-05 -6.41123e-06
1.45786e-05 -6.41123e-06 -0.000204749
0.00304293 -0.000273225 5.50682e-05
-0.000273225 0.00148672 -9.37313e-06
5.50682e-05 -9.37313e-06 0.00136741
0.00257138 -0.00016232 -0.000293965
-0.00016232 0.00130651 4.96086e-05
-0.000293965 4.96086e-05 0.00128585
0.00512176 -0.000167901 -0.000288962
-0.000167901 0.00295336 3.46978e-05
-0.000288962 3.46978e-05 0.00295146
0.00313426 -0.000336924 0.000183239
-0.000336924 0.00156635 -3.23131e-05
0.000183239 -3.23131e-05 0.0014431
0.00802199 -0.000137637 0.000357818
-0.000137637 0.00481253 -4.235e-05
0.000357818 -4.235e-05 0.00482557
0.00232094 0.00051753 -1.40399e-06
0.00051753 0.0001323 -2.22877e-08
-1.40399e-06 -2.22877e-08 1.63055e-05
0.0021982 0.000559194 -5.30338e-07
0.000559194 0.000218061 2.64239e-06
-5.30338e-07 2.64239e-06 1.05259e-06
0.00224189 0.000530721 3.36314e-07
0.000530721 0.000144645 -6.06138e-07
3.36314e-07 -6.06138e-07 -1.85672e-05
0.00210934 0.000608887 -3.23549e-06
0.000608887 0.000302767 5.24043e-06
-3.23549e-06 5.24043e-06 -8.0766e-06
0.00236604 0.000712084 2.33712e-07
0.000712084 0.000341442 5.35768e-08
2.33712e-07 5.35768e-08 4.65212e-05
0.00260235 0.000829041 -1.09783e-06
0.000829041 0.000589241 -8.94634e-06
-1.09783e-06 -8.94634e-06 0.000214379
0.00202165 0.000683845 9.63057e-07
0.000683845 0.000346811 4.38539e-07
9.63057e-07 4.38539e-07 -3.1168e-05
0.00131838 0.000443754 -3.11337e-05
0.000443754 0.000112386 -6.08128e-06
-3.11337e-05 -6.08128e-06 -0.000190135
0.00180305 0.00068892 9.1122e-06
0.00068892 0.000315563 -4.87876e-06
9.1122e-06 -4.87876e-06 -0.000105178
0.0010526 0.000407281 -3.46854e-06
0.000407281 3.80948e-05 -1.03866e-08
-3.46854e-06 -1.03866e-08 -0.000265479
0.000157709 0.000287179 -2.81581e-05
0.000287179 -0.000310195 -2.063e-05
-2.81581e-05 -2.063e-05 -0.000485742
0.000890345 0.000329136 1.98627e-05
0.000329136 7.02928e-05 4.19303e-06
1.98627e-05 4.19303e-06 -0.00020577
0.000249318 0.000258146 1.28705e-06
0.000258146 -0.000234787 1.76049e-06
1.28705e-06 1.76049e-06 -0.000395747
0.0084201 3.27688e-05 -0.000342887
3.27688e-05 0.0050917 -3.89734e-05
-0.000342887 -3.89734e-05 0.00509215
3.20099e-05 0.000185773 2.72618e-05
0.000185773 -0.000363451 2.19614e-05
2.72618e-05 2.19614e-05 -0.000489429
0.00722373 -0.000106813 6.26437e-06
-0.000106813 0.0043663 -2.60565e-06
6.26437e-06 -2.60565e-06 0.00435642
0.00576827 -0.000199439 0.000158674
-0.000199439 0.0034778 1.54409e-05
0.000158674 1.54409e-05 0.0034494
0.00255652 0.000293486 1.08489e-06
0.000293486 -9.72366e-05 1.86579e-07
1.08489e-06 1.86579e-07 3.27495e-05
0.00238725 0.000245019 2.26073e-06
0.000245019 -0.000276627 -8.24637e-07
2.26073e-06 -8.24637e-07 -5.10583e-05
0.00149423 0.000178301 -6.89158e-05
0.000178301 -0.00102676 -8.5366e-06
-6.89158e-05 -8.5366e-06 -0.000427932
0.00240137 0.000455696 2.26944e-06
0.000455696 -4.56183e-06 7.96346e-07
2.26944e-06 7.96346e-07 -1.05914e-05
0.00240051 0.000641418 -8.50834e-07
0.000641418 0.000138917 7.74201e-08
-8.50834e-07 7.74201e-08 -1.8275e-05
0.0023312 0.000860732 6.66566e-06
0.000860732 0.000311684 -3.38481e-06
6.66566e-06 -3.38481e-06 -9.0754e-06
0.00246384 0.000672599 -1.06859e-06
0.000672599 0.000300924 -3.67537e-06
-1.06859e-06 -3.67537e-06 6.33793e-05
0.00261153 0.000495693 -1.66139e-06
0.000495693 -3.91688e-05 -9.7208e-08
-1.66139e-06 -9.7208e-08 2.02779e-05
0.00249968 0.000813563 8.72328e-07
0.000813563 0.000114917 -6.26999e-07
8.72328e-07 -6.26999e-07 -6.83365e-05
0.00209133 0.000462572 1.58124e-05
0.000462572 -0.000223493 -1.93056e-06
1.58124e-05 -1.93056e-06 -0.000126506
0.00231926 7.94185e-05 1.75901e-06
7.94185e-05 -6.5701e-05 1.17939e-07
1.75901e-06 1.17939e-07 1.2456e-05
0.00245418 0.000102751 2.92398e-07
0.000102751 -0.000141181 1.53366e-07
2.92398e-07 1.53366e-07 2.25808e-06
0.00238738 0.000174418 -8.56244e-06
0.000174418 -0.000312918 -5.93116e-07
-8.56244e-06 -5.93116e-07 -0.000126711
0.00217026 -1.39816e-05 -8.80846e-07
-1.39816e-05 -5.26332e-05 1.96814e-07
-8.80846e-07 1.96814e-07 -4.16002e-06
0.00259184 -9.10123e-05 3.3352e-06
-9.10123e-05 -0.000184077 -4.21216e-08
3.3352e-06 -4.21216e-08 1.01329e-05
0.00227635 -8.04799e-05 -4.23306e-07
-8.04799e-05 -8.67287e-05 3.3531e-07
-4.23306e-07 3.3531e-07 3.33117e-07
0.00212893 -0.000120384 -1.0027e-06
-0.000120384 -5.42015e-05 3.59243e-07
-1.0027e-06 3.59243e-07 -2.81e-05
0.00232176 -0.000280073 -8.2148e-07
-0.000280073 -0.000115442 8.98107e-08
-8.2148e-07 8.98107e-08 -3.04397e-05
0.00219761 -0.000224808 8.27263e-07
-0.000224808 -2.69963e-05 -4.07678e-07
8.27263e-07 -4.07678e-07 -9.24951e-06
0.00225814 -0.000233723 -3.87757e-06
-0.000233723 6.92259e-05 3.46348e-07
-3.87757e-06 3.46348e-07 3.3918e-05
0.00225757 -0.00034522 1.48714e-06
-0.00034522 1.75496e-05 -3.03502e-07
1.48714e-06 -3.03502e-07 4.83855e-07
0.00227745 -0.000332721 3.60561e-07
-0.000332721 0.000105373 -2.36128e-08
3.60561e-07 -2.36128e-08 3.74979e-05
0.00212214 -0.000287087 -1.39443e-06
-0.000287087 0.000132094 -5.77067e-07
-1.39443e-06 -5.77067e-07 7.85429e-06
0.00216255 -0.000416929 3.87391e-06
-0.000416929 8.94044e-05 -1.24785e-06
3.87391e-06 -1.24785e-06 -3.19751e-05
0.00213512 -0.000371068 -6.6203e-07
-0.000371068 0.000162115 9.39491e-08
-6.6203e-07 9.39491e-08 -2.02345e-06
0.0013116 -0.000220957 -6.76132e-06
-0.000220957 -2.70241e-05 2.84671e-06
-6.76132e-06 2.84671e-06 -0.000210545
0.00220579 -0.000456243 2.22646e-06
-0.000456243 0.000262029 4.75845e-07
2.22646e-06 4.75845e-07 5.25525e-05
0.00135256 -0.00027079 -2.90272e-07
-0.00027079 -2.98631e-06 2.83145e-07
-2.90272e-07 2.83145e-07 -0.000206779
0.00281293 -0.000202451 -7.02946e-05
-0.000202451 0.0013396 1.3361e-05
-7.02946e-05 1.3361e-05 0.00123047
0.0013883 -0.000319475 1.12954e-05
-0.000319475 3.30979e-05 -5.27416e-06
1.12954e-05 -5.27416e-06 -0.000193556
0.00298253 -0.000240831 5.06053e-05
-0.000240831 0.0014425 -7.29137e-06
5.06053e-05 -7.29137e-06 0.00133542
0.00256909 -0.000137552 -0.000287194
-0.000137552 0.00129594 4.30799e-05
-0.000287194 4.30799e-05 0.00127814
0.00315678 -0.000277899 0.000173175
-0.000277899 0.00155452 -3.23815e-05
0.000173175 -3.23815e-05 0.00144854
0.00216557 -9.84345e-05 -0.000115087
-9.84345e-05 0.00104614 1.81842e-05
-0.000115087 1.81842e-05 0.00100984
0.00739363 -7.47935e-05 0.000123402
-7.47935e-05 0.00439337 -8.11251e-06
0.000123402 -8.11251e-06 0.00437366
0.00231107 0.000438614 -3.17447e-07
0.000438614 8.53383e-05 4.2873e-07
-3.17447e-07 4.2873e-07 2.03759e-05
0.00219386 0.000490196 -3.67575e-06
0.000490196 0.000127597 -4.44083e-07
-3.67575e-06 -4.44083e-07 -3.11907e-05
0.00234628 0.000518657 -3.01755e-06
0.000518657 0.000146597 -3.09849e-08
-3.01755e-06 -3.09849e-08 2.77381e-05
0.00209282 0.00051781 -2.71419e-06
0.00051781 0.000221831 2.01297e-06
-2.71419e-06 2.01297e-06 -3.32455e-05
0.00214218 0.000565623 -1.28696e-06
0.000565623 0.000159118 -2.45164e-06
-1.28696e-06 -2.45164e-06 -5.21911e-05
0.00223017 0.000520395 -3.34817e-06
0.000520395 0.00014428 -3.50506e-06
-3.34817e-06 -3.50506e-06 -8.39686e-06
0.00141892 0.00040175 -2.42468e-05
0.00040175 6.84519e-05 -5.6737e-06
-2.42468e-05 -5.6737e-06 -0.00019719
0.00205868 0.000604872 1.42023e-06
0.000604872 0.000268597 3.638e-07
1.42023e-06 3.638e-07 -4.18941e-05
0.00245354 0.00072156 2.27479e-06
0.00072156 0.000383036 -7.30362e-06
2.27479e-06 -7.30362e-06 8.76724e-05
0.00190027 0.000675777 5.54451e-06
0.000675777 0.000263325 -5.55672e-06
5.54451e-06 -5.55672e-06 -0.000114472
0.00127096 0.000441962 -1.03166e-06
0.000441962 7.69142e-05 -2.58436e-08
-1.03166e-06 -2.58436e-08 -0.000226384
0.000288666 0.000278708 -2.51482e-05
0.000278708 -0.000246389 -1.91993e-05
-2.51482e-05 -1.91993e-05 -0.000417998
0.00118905 0.00041628 3.14014e-05
0.00041628 0.000114551 7.67132e-06
3.14014e-05 7.67132e-06 -0.000187733
0.000170956 0.000277536 9.59048e-07
0.000277536 -0.000294127 1.45146e-06
9.59048e-07 1.45146e-06 -0.000468873
0.00812813 0.000122599 -0.000344238
0.000122599 0.00489416 -4.50057e-05
-0.000344238 -4.50057e-05 0.00489495
0.000193408 0.000222181 2.35528e-05
0.000222181 -0.000271711 2.33899e-05
2.35528e-05 2.33899e-05 -0.000428406
0.00812275 -1.04469e-05 7.00199e-06
-1.04469e-05 0.00489828 3.45941e-07
7.00199e-06 3.45941e-07 0.00490181
0.00698238 -0.000138898 0.000227872
-0.000138898 0.00421085 1.59111e-05
0.000227872 1.59111e-05 0.00420076
0.00232066 0.000238082 9.68667e-07
0.000238082 -4.99969e-05 -3.03311e-07
9.68667e-07 -3.03311e-07 4.20758e-06
0.00251596 0.000299577 -8.2404e-07
0.000299577 -0.000138864 6.96724e-07
-8.2404e-07 6.96724e-07 -4.83366e-06
0.00231386 0.000242726 2.11997e-06
0.000242726 -0.000295843 -1.07127e-07
2.11997e-06 -1.07127e-07 -6.86549e-05
0.00239422 0.000450177 3.91576e-07
0.000450177 -8.21434e-06 3.91122e-07
3.91576e-07 3.91122e-07 -1.16696e-05
0.00235045 0.000635041 4.30994e-07
0.000635041 0.00012611 -1.56337e-06
4.30994e-07 -1.56337e-06 -2.89812e-05
0.00257033 0.000479409 2.34673e-06
0.000479409 -5.88136e-05 -3.28887e-07
2.34673e-06 -3.28887e-07 1.27773e-06
0.0022164 7.42681e-05 8.24832e-07
7.42681e-05 -3.26852e-05 7.1942e-08
8.24832e-07 7.1942e-08 7.65247e-06
0.0023073 7.79339e-05 3.15338e-07
7.79339e-05 -6.9692e-05 -2.29592e-07
3.15338e-07 -2.29592e-07 9.01579e-06
0.00239393 0.000100235 -1.66867e-07
0.000100235 -0.000166078 2.30699e-07
-1.66867e-07 2.30699e-07 -2.58457e-05
0.00217706 -1.11643e-05 -6.74016e-07
-1.11643e-05 -4.66463e-05 3.19078e-08
-6.74016e-07 3.19078e-08 -2.50375e-07
0.00214574 -3.52425e-05 -3.22956e-06
-3.52425e-05 1.01974e-05 4.10817e-07
-3.22956e-06 4.10817e-07 2.64554e-05
0.00228586 -8.39523e-05 -6.39022e-07
-8.39523e-05 -8.26599e-05 8.02861e-08
-6.39022e-07 8.02861e-08 4.02229e-06
0.00215121 -0.000121057 -1.3005e-06
-0.000121057 -3.23623e-05 2.24657e-07
-1.3005e-06 2.24657e-07 -1.05e-05
0.00215344 -0.000146684 -5.451e-06
-0.000146684 5.71998e-06 9.32046e-07
-5.451e-06 9.32046e-07 -1.45403e-05
0.00220598 -0.000221942 1.75386e-06
-0.000221942 -2.1488e-05 -7.54351e-07
1.75386e-06 -7.54351e-07 -3.09129e-06
0.00226165 -0.000234809 1.80384e-06
-0.000234809 7.59962e-05 -4.86901e-07
1.80384e-06 -4.86901e-07 4.02474e-05
0.00209748 -0.000215755 -1.57154e-07
-0.000215755 9.24629e-05 1.00424e-07
-1.57154e-07 1.00424e-07 -5.24097e-06
0.0022692 -0.000331453 5.06816e-06
-0.000331453 0.000104548 -1.06465e-06
5.06816e-06 -1.06465e-06 3.65088e-05
0.00210308 -0.00028815 -5.67302e-07
-0.00028815 0.000108507 -2.98193e-07
-5.67302e-07 -2.98193e-07 -1.59221e-05
0.00124853 -0.000174711 -5.06562e-06
-0.000174711 -6.0742e-05 2.02746e-06
-5.06562e-06 2.02746e-06 -0.000227264
0.00218508 -0.000375065 2.21193e-06
-0.000375065 0.000189815 4.20615e-07
2.21193e-06 4.20615e-07 2.51287e-05
0.00132327 -0.00021978 -3.87436e-07
-0.00021978 -2.67416e-05 1.16759e-07
-3.87436e-07 1.16759e-07 -0.000208855
0.00269749 -0.000189916 -7.15566e-05
-0.000189916 0.00127646 1.13781e-05
-7.15566e-05 1.13781e-05 0.00117423
0.00139252 -0.000273215 8.41097e-06
-0.000273215 1.13175e-05 -3.77868e-06
8.41097e-06 -3.77868e-06 -0.000191536
0.00289118 -0.000200144 4.79336e-05
-0.000200144 0.00138485 -5.62525e-06
4.79336e-05 -5.62525e-06 0.00128798
0.0025103 -0.000111968 -0.000281244
-0.000111968 0.00125416 3.56901e-05
-0.000281244 3.56901e-05 0.00123812
0.00306594 -0.000230628 0.000168645
-0.000230628 0.00148696 -2.73764e-05
0.000168645 -2.73764e-05 0.00139433
0.00214638 -9.57447e-05 -0.000104955
-9.57447e-05 0.00103052 1.43061e-05
-0.000104955 1.43061e-05 0.000996133
0.00181435 -9.35116e-05 7.44571e-05
-9.35116e-05 0.000836106 -1.27133e-05
7.44571e-05 -1.27133e-05 0.000777779
0.00222591 0.000274738 4.93206e-09
0.000274738 -2.51747e-07 -6.62674e-07
4.93206e-09 -6.62674e-07 -1.07782e-05
0.00227089 0.000403819 -4.24758e-06
0.000403819 0.000127863 -3.29895e-07
-4.24758e-06 -3.29895e-07 2.26692e-05
0.00230017 0.00043943 -3.34657e-07
0.00043943 5.90585e-05 -1.44906e-07
-3.34657e-07 -1.44906e-07 4.02442e-06
0.00211603 0.000462911 -5.06287e-07
0.000462911 0.000155243 1.20801e-06
-5.06287e-07 1.20801e-06 -4.95792e-05
0.00225649 0.000492425 -1.57674e-06
0.000492425 0.000178473 -6.0238e-07
-1.57674e-06 -6.0238e-07 1.69256e-05
0.00236184 0.000520252 1.7016e-06
0.000520252 0.000154252 -2.30234e-07
1.7016e-06 -2.30234e-07 3.2259e-05
0.00141876 0.000339561 -1.77072e-05
0.000339561 3.17004e-05 -4.89289e-06
-1.77072e-05 -4.89289e-06 -0.000198076
0.00203955 0.000520948 1.05891e-06
0.000520948 0.000176893 -8.71169e-07
1.05891e-06 -8.71169e-07 -7.22188e-05
0.00211259 0.000575044 -2.07279e-06
0.000575044 0.000117024 -6.21493e-06
-2.07279e-06 -6.21493e-06 -8.9271e-05
0.000333002 0.000221372 -2.22417e-05
0.000221372 -0.000248634 -1.62164e-05
-2.22417e-05 -1.62164e-05 -0.000400921
0.00137878 0.000396088 -2.36268e-07
0.000396088 4.90247e-05 1.72256e-07
-2.36268e-07 1.72256e-07 -0.000216267
0.00202086 0.000601924 5.25505e-06
0.000601924 0.00024283 -4.72608e-06
5.25505e-06 -4.72608e-06 -6.74936e-05
0.00127725 0.000444897 3.25781e-05
0.000444897 7.69534e-05 6.73305e-06
3.25781e-05 6.73305e-06 -0.000228027
0.000290535 0.000263085 1.83858e-07
0.000263085 -0.000241865 8.84051e-07
1.83858e-07 8.84051e-07 -0.000412757
0.00782778 0.000219079 -0.000347002
0.000219079 0.0046964 -4.95118e-05
-0.000347002 -4.95118e-05 0.00469649
0.000462468 0.000273042 2.67304e-05
0.000273042 -0.000107728 1.88594e-05
2.67304e-05 1.88594e-05 -0.000281597
0.00825776 0.000100241 9.25548e-06
0.000100241 0.00496354 1.41077e-06
9.25548e-06 1.41077e-06 0.00497311
0.00791123 -4.89434e-05 0.000292474
-4.89434e-05 0.00475823 2.16355e-05
0.000292474 2.16355e-05 0.00476215
0.00223397 0.000144042 -3.79271e-07
0.000144042 -2.46116e-06 -4.42173e-07
-3.79271e-07 -4.42173e-07 2.81774e-05
0.00229592 0.000242607 6.79037e-07
0.000242607 -7.08638e-05 4.66698e-07
6.79037e-07 4.66698e-07 -1.90468e-05
0.00247815 0.00030624 2.01814e-07
0.00030624 -0.000171377 -1.84628e-07
2.01814e-07 -1.84628e-07 -3.45414e-05
0.00239423 0.000443726 -6.12506e-07
0.000443726 -7.08187e-06 -1.24402e-06
-6.12506e-07 -1.24402e-06 -7.76254e-06
0.00211038 3.05587e-05 -3.45526e-06
3.05587e-05 1.41761e-05 3.47301e-07
-3.45526e-06 3.47301e-07 1.07246e-05
0.00221381 6.5394e-05 8.88936e-09
6.5394e-05 -3.52865e-05 -3.9859e-08
8.88936e-09 -3.9859e-08 6.9932e-06
0.00229311 7.61936e-05 -1.02051e-06
7.61936e-05 -7.48677e-05 1.33795e-07
-1.02051e-06 1.33795e-07 3.7545e-06
0.00218185 -7.77285e-06 -2.08709e-06
-7.77285e-06 -4.15517e-05 -2.90508e-07
-2.08709e-06 -2.90508e-07 2.58532e-06
0.00214863 -2.94098e-05 -7.58238e-07
-2.94098e-05 6.14438e-06 -2.10427e-07
-7.58238e-07 -2.10427e-07 2.46385e-05
0.00206757 -6.25787e-05 -4.93839e-06
-6.25787e-05 -3.02509e-05 6.99974e-07
-4.93839e-06 6.99974e-07 -5.68104e-05
0.00217593 -0.000121849 1.3809e-06
-0.000121849 -8.60941e-06 -1.71679e-07
1.3809e-06 -1.71679e-07 8.79475e-06
0.00215257 -0.000148187 -1.82502e-06
-0.000148187 1.22417e-05 3.43018e-07
-1.82502e-06 3.43018e-07 -1.54045e-05
0.00220823 -0.000147605 -1.44133e-06
-0.000147605 0.000155135 4.07635e-07
-1.44133e-06 4.07635e-07 7.95857e-05
0.0022733 -0.000235118 7.44072e-06
-0.000235118 8.69369e-05 -1.34418e-06
7.44072e-06 -1.34418e-06 5.09438e-05
0.00211173 -0.000214034 9.51695e-07
-0.000214034 9.86948e-05 -3.32228e-07
9.51695e-07 -3.32228e-07 2.00533e-06
0.00121182 -0.000130524 -5.44588e-06
-0.000130524 -7.12505e-05 1.36967e-06
-5.44588e-06 1.36967e-06 -0.000224296
0.00210111 -0.000287713 1.59917e-06
-0.000287713 9.68269e-05 -4.00662e-07
1.59917e-06 -4.00662e-07 -2.73001e-05
0.00125496 -0.000172804 -1.64575e-07
-0.000172804 -5.67654e-05 1.99334e-08
-1.64575e-07 1.99334e-08 -0.000222044
0.00029882 -9.80623e-05 -1.76535e-05
-9.80623e-05 -0.000275151 6.72436e-06
-1.76535e-05 6.72436e-06 -0.000385402
0.00132535 -0.000218078 5.51304e-06
-0.000218078 -3.23672e-05 -2.64539e-06
5.51304e-06 -2.64539e-06 -0.00021301
0.00157953 -0.000128978 7.07274e-05
-0.000128978 0.000543474 -5.87348e-06
7.07274e-05 -5.87348e-06 0.000446414
0.00705187 -0.000183587 -0.000372472
-0.000183587 0.00419378 3.00337e-05
-0.000372472 3.00337e-05 0.00421893
0.00297578 -0.000181295 0.00016347
-0.000181295 0.00142858 -2.13515e-05
0.00016347 -2.13515e-05 0.00134632
0.00210098 -8.78848e-05 -9.48117e-05
-8.78848e-05 0.00100355 9.20222e-06
-9.48117e-05 9.20222e-06 0.000969264
0.00172851 -0.000110575 8.62769e-05
-0.000110575 0.000787242 -1.44573e-05
8.62769e-05 -1.44573e-05 0.000727786
0.0021719 0.000181002 -1.46165e-06
0.000181002 1.62682e-05 -1.06252e-06
-1.46165e-06 -1.06252e-06 7.34718e-06
0.00227692 0.000313334 -2.87812e-06
0.000313334 0.000102689 -6.27024e-07
-2.87812e-06 -6.27024e-07 3.45865e-05
0.00222792 0.000266935 -3.06899e-07
0.000266935 1.33831e-05 -5.23436e-08
-3.06899e-07 -5.23436e-08 -2.83742e-06
0.00217614 0.000370918 -1.32046e-06
0.000370918 0.000159193 1.05632e-06
-1.32046e-06 1.05632e-06 1.03195e-05
0.00225918 0.000402976 4.42558e-07
0.000402976 0.000121289 -3.82137e-08
4.42558e-07 -3.82137e-08 1.66614e-05
0.00229421 0.000440518 -5.27423e-07
0.000440518 3.61331e-05 -9.24238e-07
-5.27423e-07 -9.24238e-07 -9.19273e-06
0.0014529 0.000293214 -1.18489e-05
0.000293214 4.00925e-05 -2.44497e-06
-1.18489e-05 -2.44497e-06 -0.000155994
0.00215531 0.000460872 1.15015e-06
0.000460872 0.00018423 1.82049e-08
1.15015e-06 1.82049e-08 -1.85237e-05
0.00230616 0.000492966 1.88821e-06
0.000492966 0.000221469 -1.46605e-06
1.88821e-06 -1.46605e-06 5.76354e-05
0.000339589 0.000158986 -1.89803e-05
0.000158986 -0.00026059 -1.24231e-05
-1.89803e-05 -1.24231e-05 -0.000392761
0.00135577 0.000334588 4.26406e-07
0.000334588 -3.64828e-06 5.53371e-07
4.26406e-07 5.53371e-07 -0.000229286
0.00195793 0.000520504 5.16197e-06
0.000520504 0.000114313 -4.53458e-06
5.16197e-06 -4.53458e-06 -0.000128058
0.00754991 0.000281013 -0.0003515
0.000281013 0.00451385 -4.85885e-05
-0.0003515 -4.85885e-05 0.00451595
0.000301912 0.000216205 3.68737e-08
0.000216205 -0.000271192 7.37659e-07
3.68737e-08 7.37659e-07 -0.00042441
0.00130963 0.000388436 2.57277e-05
0.000388436 1.08656e-05 6.15373e-06
2.57277e-05 6.15373e-06 -0.000253806
0.000220021 0.000246397 2.25729e-05
0.000246397 -0.000283635 1.89036e-05
2.25729e-05 1.89036e-05 -0.000453471
0.00784708 0.000212945 1.13846e-05
0.000212945 0.00470396 2.51207e-06
1.13846e-05 2.51207e-06 0.00471003
0.00811518 6.8228e-05 0.000349396
6.8228e-05 0.00485945 2.96182e-05
0.000349396 2.96182e-05 0.00487517
0.00210308 8.89378e-05 -4.98233e-06
8.89378e-05 1.56218e-05 -1.50737e-07
-4.98233e-06 -1.50737e-07 5.3054e-06
0.00222122 0.000138989 -5.25322e-08
0.000138989 -9.46331e-06 -2.18059e-09
-5.25322e-08 -2.18059e-09 1.87906e-05
0.00226549 0.000246766 -6.04199e-07
0.000246766 -9.59516e-05 2.5827e-07
-6.04199e-07 2.5827e-07 -4.58939e-05
0.00205978 9.66699e-06 -6.88526e-06
9.66699e-06 -1.46571e-05 3.16031e-07
-6.88526e-06 3.16031e-07 -5.20731e-05
0.00209536 3.61667e-05 7.49069e-07
3.61667e-05 -1.28589e-07 5.20875e-10
7.49069e-07 5.20875e-10 2.08991e-07
0.0022122 5.55063e-05 -1.28614e-06
5.55063e-05 -3.76611e-05 5.24432e-09
-1.28614e-06 5.24432e-09 6.74241e-06
0.00215303 -2.38154e-05 1.59986e-06
-2.38154e-05 2.54902e-06 -3.78886e-07
1.59986e-06 -3.78886e-07 2.36519e-05
0.00206598 -6.14993e-05 -7.80578e-07
-6.14993e-05 -3.11815e-05 1.8765e-08
-7.80578e-07 1.8765e-08 -5.70574e-05
0.00206728 -7.17856e-05 -1.55453e-06
-7.17856e-05 7.8646e-05 2.27754e-07
-1.55453e-06 2.27754e-07 -3.34907e-06
0.00214901 -0.000149806 4.05109e-06
-0.000149806 1.75178e-05 -6.73429e-07
4.05109e-06 -6.73429e-07 -1.74677e-05
0.00208739 -0.000148264 8.64468e-07
-0.000148264 7.95949e-05 -6.22448e-08
8.64468e-07 -6.22448e-08 -5.94396e-06
0.00143392 -8.33437e-05 -6.89239e-06
-8.33437e-05 8.57701e-05 2.58059e-07
-6.89239e-06 2.58059e-07 -4.31777e-05
0.00210157 -0.000213572 2.12003e-06
-0.000213572 8.89109e-05 -8.89075e-07
2.12003e-06 -8.89075e-07 -7.24884e-06
0.00121754 -0.000126453 -3.3651e-08
-0.000126453 -6.86489e-05 1.32538e-07
-3.3651e-08 1.32538e-07 -0.000220504
0.000291346 -2.88303e-05 -1.64478e-05
-2.88303e-05 -0.000279274 3.39187e-06
-1.64478e-05 3.39187e-06 -0.000380276
0.00127283 -0.000170036 4.25588e-06
-0.000170036 -4.78577e-05 -1.94792e-06
4.25588e-06 -1.94792e-06 -0.000211656
0.000321378 -8.26353e-05 -4.90531e-07
-8.26353e-05 -0.000258586 5.65937e-07
-4.90531e-07 5.65937e-07 -0.000368646
0.00700052 -7.42862e-05 -0.000362875
-7.42862e-05 0.00415345 1.91116e-05
-0.000362875 1.91116e-05 0.00418484
0.000408054 -8.91553e-05 1.27782e-05
-8.91553e-05 -0.000211455 -9.05508e-06
1.27782e-05 -9.05508e-06 -0.00032845
0.0044853 -0.000120352 0.00015584
-0.000120352 0.00254642 -8.98519e-06
0.00015584 -8.98519e-06 0.00253088
0.00167678 -9.71151e-05 9.111e-05
-9.71151e-05 0.000754898 -1.35503e-05
9.111e-05 -1.35503e-05 0.000697388
0.00214562 0.00014821 -6.69769e-06
0.00014821 5.36461e-05 -7.50379e-07
-6.69769e-06 -7.50379e-07 3.61825e-05
0.00225921 0.000226834 -4.61518e-06
0.000226834 0.000107541 -7.82006e-07
-4.61518e-06 -7.82006e-07 4.92673e-05
0.00215971 0.000174626 -7.22579e-07
0.000174626 1.35835e-05 -1.87074e-07
-7.22579e-07 -1.87074e-07 4.51321e-06
0.00211346 0.000293889 -4.7001e-07
0.000293889 0.000110367 3.00665e-07
-4.7001e-07 3.00665e-07 -1.73568e-05
0.00229348 0.000311516 -1.00697e-07
0.000311516 0.000109898 -2.57287e-07
-1.00697e-07 -2.57287e-07 4.12179e-05
0.0022255 0.000259278 1.58686e-06
0.000259278 2.43893e-05 8.44744e-07
1.58686e-06 8.44744e-07 2.46812e-06
0.00138437 0.00022751 -6.63154e-06
0.00022751 1.23805e-05 -1.32947e-06
-6.63154e-06 -1.32947e-06 -0.000157778
0.0021038 0.000364469 2.32703e-06
0.000364469 0.000123647 6.69968e-07
2.32703e-06 6.69968e-07 -3.33635e-05
0.00223948 0.000401918 3.56449e-06
0.000401918 0.000108701 -2.82288e-07
3.56449e-06 -2.82288e-07 4.57666e-06
0.000330534 0.000112694 -1.70629e-05
0.000112694 -0.000267486 -9.19813e-06
-1.70629e-05 -9.19813e-06 -0.000386813
0.00141461 0.000285679 7.05268e-07
0.000285679 2.12239e-05 9.50439e-07
7.05268e-07 9.50439e-07 -0.00017242
0.0022022 0.000459757 3.42405e-06
0.000459757 0.000218284 -1.092e-06
3.42405e-06 -1.092e-06 1.74199e-05
0.00729233 0.000316667 -0.000364438
0.000316667 0.00435821 -4.60704e-05
-0.000364438 -4.60704e-05 0.00436078
0.000335651 0.000161204 3.90778e-07
0.000161204 -0.000267805 4.13119e-07
3.90778e-07 4.13119e-07 -0.000401637
0.0012991 0.000331705 1.80024e-05
0.000331705 -3.65815e-05 4.47988e-06
1.80024e-05 4.47988e-06 -0.000258656
0.00761241 0.000302098 1.23361e-05
0.000302098 0.00456405 4.81354e-06
1.23361e-05 4.81354e-06 0.00456316
0.000301714 0.000211797 1.99662e-05
0.000211797 -0.000274624 1.65015e-05
1.99662e-05 1.65015e-05 -0.000428833
0.00792009 0.000186781 0.000365118
0.000186781 0.00473492 3.88721e-05
0.000365118 3.88721e-05 0.00475126
0.00203424 6.94325e-05 -7.14605e-06
6.94325e-05 -3.05364e-05 5.78336e-08
-7.14605e-06 5.78336e-08 -7.23778e-05
0.00209622 9.5544e-05 -1.06469e-06
9.5544e-05 1.5828e-05 -1.99775e-07
-1.06469e-06 -1.99775e-07 5.19036e-06
0.0022079 0.000134352 5.05916e-07
0.000134352 -1.5849e-05 4.61104e-07
5.05916e-07 4.61104e-07 9.71959e-06
0.00198715 -9.61194e-06 -1.66959e-06
-9.61194e-06 3.48972e-05 -1.47208e-08
-1.66959e-06 -1.47208e-08 -4.75149e-05
0.00206333 1.1028e-05 -9.03314e-07
1.1028e-05 -1.39267e-05 -1.16953e-08
-9.03314e-07 -1.16953e-08 -4.8083e-05
0.00207845 4.26206e-05 3.63296e-06
4.26206e-05 -1.55806e-05 3.62042e-09
3.63296e-06 3.62042e-09 -1.15452e-05
0.00206705 -6.06094e-05 3.16992e-06
-6.06094e-05 -2.99144e-05 -5.75599e-07
3.16992e-06 -5.75599e-07 -5.52555e-05
0.00201277 -7.1118e-05 -2.30915e-07
-7.1118e-05 4.22479e-05 2.33055e-07
-2.30915e-07 2.33055e-07 -3.9036e-05
0.0013845 -3.66933e-05 -8.41892e-06
-3.66933e-05 6.97077e-05 -4.46091e-07
-8.41892e-06 -4.46091e-07 -5.18304e-05
0.00196035 -0.000148571 1.50822e-07
-0.000148571 -5.96813e-07 -3.03647e-07
1.50822e-07 -3.03647e-07 -9.60353e-05
0.00129936 -8.25858e-05 2.84942e-06
-8.25858e-05 -6.30715e-06 -3.37863e-07
2.84942e-06 -3.37863e-07 -0.000141489
0.000286242 -1.0761e-05 -1.70327e-05
-1.0761e-05 -0.000278151 1.73892e-06
-1.70327e-05 1.73892e-06 -0.00037424
0.00122047 -0.00012397 4.91766e-06
-0.00012397 -6.62663e-05 -1.12833e-06
4.91766e-06 -1.12833e-06 -0.000217175
0.000294046 -4.10801e-05 5.32606e-07
-4.10801e-05 -0.000276171 -3.28743e-07
5.32606e-07 -3.28743e-07 -0.000376587
0.00679693 -0.000169363 -0.000364395
-0.000169363 0.00404282 2.08167e-05
-0.000364395 2.08167e-05 0.00406709
0.000319703 -6.63728e-05 1.62563e-05
-6.63728e-05 -0.00025837 -5.12083e-06
1.62563e-05 -5.12083e-06 -0.000367304
0.00692738 -0.000111117 7.30296e-06
-0.000111117 0.0041113 1.30638e-07
7.30296e-06 1.30638e-07 0.00414161
0.00200495 -4.59753e-05 0.000278276
-4.59753e-05 0.000933127 -2.07175e-05
0.000278276 -2.07175e-05 0.000925205
0.002097 0.000153554 -7.4765e-06
0.000153554 1.05224e-05 -6.07487e-07
-7.4765e-06 -6.07487e-07 -4.20272e-05
0.00209827 0.000149241 -1.54379e-06
0.000149241 1.11504e-05 -1.29527e-07
-1.54379e-06 -1.29527e-07 -5.26595e-07
0.00211257 0.000219977 1.33454e-06
0.000219977 0.000104322 5.21504e-07
1.33454e-06 5.21504e-07 -2.7372e-06
0.00226652 0.000226442 8.46627e-07
0.000226442 0.000108874 -1.36308e-08
8.46627e-07 -1.36308e-08 5.11076e-05
0.00215176 0.00016812 2.25402e-06
0.00016812 1.33794e-05 3.81731e-07
2.25402e-06 3.81731e-07 4.31299e-06
0.00123745 0.000167465 -3.58072e-06
0.000167465 -6.38358e-05 -1.06983e-06
-3.58072e-06 -1.06983e-06 -0.000226378
0.00213834 0.000293194 3.78524e-07
0.000293194 0.000131912 -1.41098e-07
3.78524e-07 -1.41098e-07 4.29199e-06
0.00231276 0.000309477 4.2823e-06
0.000309477 0.000118603 1.25643e-06
4.2823e-06 1.25643e-06 4.94853e-05
0.000330988 8.13214e-05 -1.62514e-05
8.13214e-05 -0.000260409 -6.6722e-06
-1.62514e-05 -6.6722e-06 -0.000372399
0.00132336 0.000224419 2.17265e-06
0.000224419 -2.28993e-05 8.42013e-07
2.17265e-06 8.42013e-07 -0.000198048
0.00206692 0.000359797 1.68035e-06
0.000359797 0.000113503 -1.09938e-07
1.68035e-06 -1.09938e-07 -5.16402e-05
0.00710207 0.000310362 -0.000378544
0.000310362 0.00424865 -4.18495e-05
-0.000378544 -4.18495e-05 0.00425285
0.000347802 0.000118758 5.65255e-07
0.000118758 -0.000260026 2.1651e-07
5.65255e-07 2.1651e-07 -0.000381262
0.00137379 0.000277803 1.0213e-05
0.000277803 3.7052e-07 3.68472e-06
1.0213e-05 3.68472e-06 -0.000190648
0.00738518 0.000343522 9.11251e-06
0.000343522 0.00442971 5.43145e-06
9.11251e-06 5.43145e-06 0.00442659
0.000339186 0.000162648 1.76066e-05
0.000162648 -0.00027044 1.30029e-05
1.76066e-05 1.30029e-05 -0.000405751
0.0076781 0.000310606 0.000375474
0.000310606 0.00460022 4.92666e-05
0.000375474 4.92666e-05 0.00460381
0.00194604 6.58075e-05 -4.93274e-07
6.58075e-05 9.29373e-06 -8.12293e-08
-4.93274e-07 -8.12293e-08 -7.79329e-05
0.00206722 7.07723e-05 -2.84718e-06
7.07723e-05 -1.75203e-06 -7.41775e-08
-2.84718e-06 -7.41775e-08 -4.47684e-05
0.00208869 0.000101852 5.1571e-06
0.000101852 1.5569e-05 1.52358e-07
5.1571e-06 1.52358e-07 4.61319e-06
0.00130387 -1.20846e-05 -9.94936e-06
-1.20846e-05 2.86934e-05 -6.0182e-07
-9.94936e-06 -6.0182e-07 -9.09282e-05
0.00199486 -6.37694e-06 3.42593e-07
-6.37694e-06 4.2803e-05 1.53596e-07
3.42593e-07 1.53596e-07 -3.91304e-05
0.00207649 1.18887e-05 3.70908e-06
1.18887e-05 -6.12751e-06 -9.70748e-08
3.70908e-06 -9.70748e-08 -3.69003e-05
0.0019523 -7.09573e-05 8.83993e-07
-7.09573e-05 1.90035e-06 2.66577e-07
8.83993e-07 2.66577e-07 -7.87908e-05
0.0013325 -3.89237e-05 2.29076e-06
-3.89237e-05 2.88951e-05 -1.26477e-07
2.29076e-06 -1.26477e-07 -9.28347e-05
0.00030182 -3.30592e-05 -1.78498e-05
-3.30592e-05 -0.000263209 6.07172e-07
-1.78498e-05 6.07172e-07 -0.000355067
0.00116884 -8.14046e-05 8.60471e-06
-8.14046e-05 -9.57314e-05 -7.9489e-07
8.60471e-06 -7.9489e-07 -0.000237131
0.000297078 1.55278e-07 1.16098e-07
1.55278e-07 -0.000272207 6.42109e-08
1.16098e-07 6.42109e-08 -0.00036679
0.00668578 -0.000137218 -0.000363535
-0.000137218 0.00397093 1.5745e-05
-0.000363535 1.5745e-05 0.00399886
0.000333449 -4.92205e-05 1.74658e-05
-4.92205e-05 -0.000247678 -3.27204e-06
1.74658e-05 -3.27204e-06 -0.00034901
0.00678901 -6.45158e-05 -2.87833e-06
-6.45158e-05 0.0040237 3.42079e-06
-2.87833e-06 3.42079e-06 0.00405669
0.00689985 -0.000125259 0.000363105
-0.000125259 0.00409594 -1.87877e-05
0.000363105 -1.87877e-05 0.004126
0.00208918 0.000142548 5.13725e-07
0.000142548 9.68741e-05 2.34119e-07
5.13725e-07 2.34119e-07 3.65401e-06
0.00215146 0.000152728 -2.18037e-06
0.000152728 4.15919e-05 -2.37936e-07
-2.18037e-06 -2.37936e-07 -5.27158e-06
0.00205032 0.000150499 4.51222e-06
0.000150499 -3.22185e-05 5.80802e-07
4.51222e-06 5.80802e-07 -3.80418e-05
0.00121012 0.000116058 -5.546e-06
0.000116058 -6.53765e-05 -3.76512e-07
-5.546e-06 -3.76512e-07 -0.000213547
0.00213131 0.000219565 9.8266e-08
0.000219565 0.000119153 -1.06899e-07
9.8266e-08 -1.06899e-07 1.19767e-05
0.00226837 0.00022575 4.57967e-06
0.00022575 0.000107004 4.76869e-07
4.57967e-06 4.76869e-07 4.97382e-05
0.000324587 5.48362e-05 -1.57822e-05
5.48362e-05 -0.0002555 -4.51498e-06
-1.57822e-05 -4.51498e-06 -0.000361194
0.00124768 0.000169815 1.61545e-07
0.000169815 -5.07868e-05 2.53433e-07
1.61545e-07 2.53433e-07 -0.000214549
0.00213705 0.000291426 8.83039e-07
0.000291426 0.000135868 -8.33821e-07
8.83039e-07 -8.33821e-07 8.17594e-06
0.00694212 0.000254316 -0.000386143
0.000254316 0.00414422 -3.3829e-05
-0.000386143 -3.3829e-05 0.00415868
0.000340369 8.92773e-05 8.59824e-07
8.92773e-05 -0.000256093 2.22138e-07
8.59824e-07 2.22138e-07 -0.000370208
0.00124746 0.00022015 5.21783e-06
0.00022015 -6.90434e-05 2.78412e-06
5.21783e-06 2.78412e-06 -0.000248958
0.00720126 0.000329584 4.72694e-06
0.000329584 0.00431678 3.50957e-06
4.72694e-06 3.50957e-06 0.00431868
0.000368278 0.000126623 1.64753e-05
0.000126623 -0.00024924 1.0119e-05
1.64753e-05 1.0119e-05 -0.000372991
0.00750115 0.00038354 0.000388073
0.00038354 0.00451599 5.54717e-05
0.000388073 5.54717e-05 0.00450689
0.00110643 3.4922e-05 -1.09591e-05
3.4922e-05 -9.94837e-05 -3.99317e-07
-1.09591e-05 -3.99317e-07 -0.000231815
0.00206232 6.31158e-05 1.91467e-07
6.31158e-05 8.7714e-05 -3.74417e-09
1.91467e-07 -3.74417e-09 6.59248e-06
0.00211424 7.25818e-05 3.9059e-06
7.25818e-05 3.63705e-05 -1.04199e-07
3.9059e-06 -1.04199e-07 -7.59524e-06
0.000346919 3.22804e-05 -1.84042e-05
3.22804e-05 -0.000239503 -1.29455e-06
-1.84042e-05 -1.29455e-06 -0.000322002
0.00128664 -7.40446e-06 1.70796e-06
-7.40446e-06 1.41805e-05 -3.03922e-08
1.70796e-06 -3.03922e-08 -0.000105542
0.00200774 -1.7755e-06 2.17877e-06
-1.7755e-06 5.39346e-05 1.3624e-07
2.17877e-06 1.3624e-07 -2.75829e-05
0.00126224 -4.03736e-05 1.1804e-05
-4.03736e-05 -2.30882e-05 -9.13969e-08
1.1804e-05 -9.13969e-08 -0.000145062
0.000302895 -6.16898e-06 2.7904e-07
-6.16898e-06 -0.000262674 4.8048e-07
2.7904e-07 4.8048e-07 -0.000354165
0.00656856 2.70663e-06 -0.000364999
2.70663e-06 0.00388705 3.13342e-06
-0.000364999 3.13342e-06 0.00392368
0.00029496 1.16179e-05 1.70607e-05
1.16179e-05 -0.000274768 -7.22358e-07
1.70607e-05 -7.22358e-07 -0.000367691
0.00664192 -0.000134625 -7.53922e-06
-0.000134625 0.003945 2.26133e-06
-7.53922e-06 2.26133e-06 0.0039724
0.00671504 -4.70524e-05 0.000349146
-4.70524e-05 0.00397667 -1.06158e-05
0.000349146 -1.06158e-05 0.0040099
0.00116003 7.40504e-05 -9.34587e-06
7.40504e-05 -7.54885e-05 -4.38199e-07
-9.34587e-06 -4.38199e-07 -0.000213421
0.00212905 0.000138678 -4.09846e-07
0.000138678 0.000123823 -2.76997e-07
-4.09846e-07 -2.76997e-07 3.46336e-05
0.00218964 0.000151503 1.96405e-06
0.000151503 6.14064e-05 -1.65336e-07
1.96405e-06 -1.65336e-07 1.99188e-05
0.00275022 7.25025e-05 -0.00016274
7.25025e-05 0.00130823 -6.15151e-06
-0.00016274 -6.15151e-06 0.00125196
0.00119772 0.000117163 1.02836e-07
0.000117163 -7.01391e-05 1.49649e-07
1.02836e-07 1.49649e-07 -0.00021915
0.00213305 0.000219004 -1.45504e-08
0.000219004 0.000121853 -5.3587e-07
-1.45504e-08 -5.3587e-07 1.44242e-05
0.00679608 0.000185494 -0.000384074
0.000185494 0.00404407 -2.42389e-05
-0.000384074 -2.42389e-05 0.00406917
0.0003342 7.47071e-05 1.1368e-06
7.47071e-05 -0.000248732 5.36089e-07
1.1368e-06 5.36089e-07 -0.000356985
0.00125033 0.00017173 4.02003e-06
0.00017173 -4.45341e-05 1.46406e-06
4.02003e-06 1.46406e-06 -0.00020954
0.00704906 0.00027147 1.24587e-06
0.00027147 0.00421363 1.69649e-06
1.24587e-06 1.69649e-06 0.00422642
0.000354584 9.94569e-05 1.62083e-05
9.94569e-05 -0.000247503 7.87267e-06
1.62083e-05 7.87267e-06 -0.000364345
0.00729543 0.000365703 0.000392602
0.000365703 0.00439067 5.25013e-05
0.000392602 5.25013e-05 0.00438578
0.000432252 1.43688e-05 -1.41077e-05
1.43688e-05 -0.000172277 -1.94378e-06
-1.41077e-05 -1.94378e-06 -0.000263829
0.00118833 3.4764e-05 -2.34088e-07
3.4764e-05 -4.89429e-05 1.85843e-08
-2.34088e-07 1.85843e-08 -0.000176438
0.00216755 5.91053e-05 2.54964e-06
5.91053e-05 0.000158294 -9.37324e-08
2.54964e-06 -9.37324e-08 8.31378e-05
0.00636846 -0.000105534 -0.000346948
-0.000105534 0.00377888 5.53225e-06
-0.000346948 5.53225e-06 0.00380439
0.000300799 1.08667e-05 -6.25947e-07
1.08667e-05 -0.000264555 -2.29373e-07
-6.25947e-07 -2.29373e-07 -0.000349659
0.0012727 -3.81745e-06 1.2949e-05
-3.81745e-06 1.11794e-06 1.92004e-07
1.2949e-05 1.92004e-07 -0.000118631
0.000285987 2.01085e-05 1.73065e-05
2.01085e-05 -0.000275796 9.14132e-07
1.73065e-05 9.14132e-07 -0.000365682
0.00650716 -3.25785e-05 2.05054e-06
-3.25785e-05 0.00385494 -1.87563e-06
2.05054e-06 -1.87563e-06 0.00388646
0.00663868 -5.90965e-05 0.000354677
-5.90965e-05 0.00392945 -7.83889e-06
0.000354677 -7.83889e-06 0.00396371
0.0028209 2.31435e-05 -0.000156413
2.31435e-05 0.00135531 -3.08358e-06
-0.000156413 -3.08358e-06 0.00130429
0.001158 7.67198e-05 -5.97943e-08
7.67198e-05 -8.00719e-05 -7.1152e-08
-5.97943e-08 -7.1152e-08 -0.000218753
0.00221155 0.000135877 1.25321e-06
0.000135877 0.000180139 -6.03809e-07
1.25321e-06 -6.03809e-07 9.53245e-05
0.00631954 -1.9495e-05 -0.00016255
-1.9495e-05 0.00375182 -2.74789e-07
-0.00016255 -2.74789e-07 0.00374219
0.000310296 6.30693e-05 7.54737e-07
6.30693e-05 -0.000257104 2.78033e-07
7.54737e-07 2.78033e-07 -0.000357125
0.00118775 0.00011931 5.75217e-06
0.00011931 -7.32176e-05 5.41301e-07
5.75217e-06 5.41301e-07 -0.000223138
0.00687315 0.000162493 -9.62205e-06
0.000162493 0.00408678 -1.86869e-06
-9.62205e-06 -1.86869e-06 0.00411313
0.000339966 9.71708e-05 1.74414e-05
9.71708e-05 -0.000245483 6.34802e-06
1.74414e-05 6.34802e-06 -0.000355414
0.00713737 0.000294661 0.000395938
0.000294661 0.00427508 4.33164e-05
0.000395938 4.33164e-05 0.00428593
0.00195292 -5.30682e-05 -0.000268755
-5.30682e-05 0.000906367 1.84745e-06
-0.000268755 1.84745e-06 0.000910275
0.00154381 3.50124e-05 -6.81145e-05
3.50124e-05 0.00053451 -1.51882e-07
-6.81145e-05 -1.51882e-07 0.000468644
0.0012908 3.7192e-05 1.19241e-05
3.7192e-05 1.40997e-05 3.38978e-07
1.19241e-05 3.38978e-07 -0.000108483
0.00643828 -5.16613e-05 6.94618e-06
-5.16613e-05 0.00381692 3.25869e-06
6.94618e-06 3.25869e-06 0.00384831
0.000320977 -9.36331e-06 1.80166e-05
-9.36331e-06 -0.000244947 1.10465e-06
1.80166e-05 1.10465e-06 -0.000333966
0.00653774 -9.38438e-05 0.000365056
-9.38438e-05 0.00387996 -6.81071e-06
0.000365056 -6.81071e-06 0.00391064
0.00147219 2.70878e-05 -7.5004e-05
2.70878e-05 0.000627821 -1.26326e-06
-7.5004e-05 -1.26326e-06 0.000584801
0.00153829 2.46423e-05 -6.93113e-05
2.46423e-05 0.000532692 -1.90029e-06
-6.93113e-05 -1.90029e-06 0.000461328
0.00115521 7.74822e-05 9.57359e-06
7.74822e-05 -8.32674e-05 2.31247e-07
9.57359e-06 2.31247e-07 -0.000222598
0.00413896 7.86476e-05 0.000135528
7.86476e-05 0.0023297 4.72669e-06
0.000135528 4.72669e-06 0.00232408
0.000310626 7.39947e-05 1.80166e-05
7.39947e-05 -0.000257645 4.40625e-06
1.80166e-05 4.40625e-06 -0.000357787
0.00696457 0.000150049 0.000378307
0.000150049 0.00413628 2.63276e-05
0.000378307 2.63276e-05 0.00416648
0.00634519 -1.76279e-05 -8.42619e-06
-1.76279e-05 0.00376247 -3.72487e-06
-8.42619e-06 -3.72487e-06 0.00379193
0.000292073 5.33419e-05 1.94078e-05
5.33419e-05 -0.000272061 2.47371e-06
1.94078e-05 2.47371e-06 -0.000354052
0.00632433 3.17999e-05 0.000350304
3.17999e-05 0.00373981 2.32522e-07
0.000350304 2.32522e-07 0.00377469
0.00398232 3.86978e-05 0.000146661
3.86978e-05 0.00223549 6.41392e-06
0.000146661 6.41392e-06 0.00223295
0.000312515 1.32323e-05 1.74665e-05
1.32323e-05 -0.000251518 2.18283e-06
1.74665e-05 2.18283e-06 -0.000343587
0.00672196 1.72184e-05 0.000363912
1.72184e-05 0.00398174 1.22e-05
0.000363912 1.22e-05 0.00401515
0.00640307 -0.000110733 0.000349788
-0.000110733 0.00380235 -4.5328e-06
0.000349788 -4.5328e-06 0.00382809
0.00645853 2.14569e-05 0.000353901
2.14569e-05 0.00381593 7.33272e-06
0.000353901 7.33272e-06 0.00385228
