# vtk DataFile Version 2.0
Wound Healing Simulation
ASCII
DATASET UNSTRUCTURED_GRID
POINTS 3012 float
69.9759 18.75 4
67.2507 60.3285 4
69.976 18.75 2
73.0099 25.446 4
71.1327 20.9142 4
68.6801 16.6661 4
67.8234 19.9265 3.97737
67.2507 60.3286 2
71.1327 54.0858 4
68.6801 58.3339 4
65.6939 62.2254 4
65.3102 59.0002 3.97679
74.6784 42.3946 4
73.7221 47.2057 4
69.9759 18.75 0
73.0099 25.446 2
68.6801 16.6661 2
71.1327 20.9142 2
67.8239 19.9301 2
74.6792 32.6053 4
73.7222 27.7943 4
72.1454 23.1494 4
70.6125 26.2214 3.97726
68.8837 21.9582 3.97785
67.2507 14.6715 4
66.6348 17.9729 3.97633
65.791 21.0286 3.9663
67.2507 60.3285 0
71.1327 54.0858 2
68.6801 58.3339 2
65.694 62.2255 2
65.3114 58.9955 2
72.1454 51.8506 4
69.9759 56.25 4
68.8342 53.113 3.97705
64.0165 64.0165 4
66.6086 57.133 3.97707
63.8832 60.7639 3.97675
63.4951 57.7657 3.96752
60.3285 67.2507 4
74.6792 42.3947 2
73.7222 47.2057 2
74.9194 39.9526 4
74.2788 44.8158 4
72.167 42.0858 3.9778
73.0099 49.554 4
71.2476 46.598 3.97682
73.0099 25.446 0
71.1327 20.9142 0
68.6801 16.6661 0
67.8234 19.9265 0.0226252
74.6792 32.6053 2
73.7222 27.7943 2
67.2508 14.6715 2
72.1455 23.1494 2
70.6123 26.222 2
66.6358 17.9776 2
68.8839 21.9605 2
65.7901 21.0297 2
74.9197 35.0474 4
74.2794 30.1841 4
72.1837 32.9441 3.97811
71.2768 28.4321 3.97716
69.8137 24.0598 3.97767
68.3419 26.9538 3.96624
66.7568 22.9358 3.96607
65.694 12.7746 4
65.3211 16.1051 3.97557
64.7073 19.2 3.96673
63.8335 22.0565 3.96478
71.1327 54.0858 0
65.6939 62.2254 0
68.6801 58.3339 0
65.3102 59.0002 0.0232137
72.1455 51.8506 2
69.9759 56.25 2
68.8343 53.111 2
64.0165 64.0165 2
66.6094 57.1288 2
63.885 60.7596 2
63.4937 57.7653 2
62.2254 65.694 4
58.8928 65.4132 3.98602
69.7669 50.9889 3.9768
67.7816 55.167 3.97723
66.6434 52.2074 3.96588
62.3335 62.4248 3.97898
64.6547 56.0277 3.96709
62.197 59.394 3.96713
61.8005 56.6652 3.96306
58.3339 68.6801 4
60.3285 67.2508 2
73.7221 47.2057 0
74.6784 42.3946 0
74.9197 39.9526 2
74.2794 44.8159 2
72.1663 42.0855 2
73.0099 49.554 2
71.2473 46.5976 2
75 37.5 4
72.4043 39.8026 3.97866
71.7811 44.3529 3.97757
69.7999 41.7901 3.96755
70.5732 48.8135 3.97658
68.9071 46.0143 3.96661
74.6792 32.6053 0
73.7222 27.7943 0
67.2507 14.6715 0
72.1454 23.1494 0
70.6125 26.2214 0.0227431
68.8837 21.9582 0.0221455
66.6348 17.9729 0.0236699
65.791 21.0286 0.0336957
74.9197 35.0474 2
74.2794 30.1841 2
72.183 32.9444 2
71.2764 28.4325 2
65.694 12.7745 2
65.3226 16.1105 2
69.8136 24.0611 2
68.3416 26.9546 2
64.7062 19.201 2
66.7562 22.9368 2
63.8337 22.057 2
72.4122 35.2248 3.97866
71.8026 30.677 3.97781
69.8362 33.2705 3.96765
68.9616 29.0405 3.96666
67.6059 24.9143 3.96602
66.1277 27.6517 3.96741
64.0165 10.9835 4
64.6958 23.8502 3.96579
63.887 14.3299 3.97627
63.5067 17.4556 3.96726
62.8596 20.3432 3.96356
61.9697 22.9889 3.96761
60.6818 11.1008 3.98047
57.6078 11.463 3.97142
72.1454 51.8506 0
69.9759 56.25 0
68.8342 53.113 0.0229533
64.0165 64.0165 0
63.8832 60.7639 0.0232549
66.6086 57.133 0.0229338
63.4951 57.7657 0.03248
62.2255 65.694 2
58.8951 65.4105 2
69.7667 50.9878 2
67.782 55.1638 2
66.6427 52.2066 2
62.3355 62.421 2
64.6536 56.0271 2
62.1958 59.3944 2
61.8025 56.6657 2
60.6667 63.9745 3.98226
57.0237 66.7344 3.98832
57.5552 63.6835 3.97373
67.5016 50.1754 3.96575
65.6958 54.1709 3.96637
64.4673 51.3655 3.96547
60.7684 60.9227 3.97014
62.7817 55.0511 3.96407
60.6447 58.141 3.96261
60.2711 55.754 3.96447
56.25 69.9759 4
58.3339 68.6801 2
60.3285 67.2507 0
58.919 9.65845 3.98251
62.2254 9.30607 4
73.0099 49.554 0
74.2788 44.8158 0
71.2476 46.598 0.0231838
72.167 42.0858 0.0222007
74.9194 39.9526 0
75 37.5 2
72.4042 39.8025 2
71.7809 44.3524 2
69.7992 41.7898 2
70.5729 48.813 2
68.907 46.0137 2
72.4877 37.5126 3.97822
70.0375 39.6583 3.96785
69.4258 43.9074 3.96718
67.5318 41.4923 3.96979
68.2603 48.1062 3.96601
66.6317 45.4267 3.9689
74.9197 35.0474 0
74.2794 30.1841 0
72.1837 32.9441 0.021888
71.2768 28.4321 0.0228385
65.694 12.7746 0
65.3211 16.1051 0.0244272
69.8137 24.0598 0.0223323
68.3419 26.9538 0.0337601
66.7568 22.9358 0.033926
64.7073 19.2 0.0332657
63.8335 22.0565 0.0352166
72.412 35.2248 2
71.8025 30.6776 2
69.8355 33.271 2
68.9614 29.0412 2
64.0165 10.9835 2
63.8892 14.3352 2
63.5054 17.4566 2
67.6055 24.9153 2
66.1276 27.6522 2
62.8601 20.3435 2
64.6955 23.8508 2
61.9687 22.9896 2
60.6846 11.1051 2
57.6096 11.4582 2
70.0542 35.3937 3.96781
69.4629 31.1518 3.96698
67.5982 33.599 3.96952
66.7059 29.6374 3.96825
65.4585 25.7181 3.96659
63.9843 28.2926 3.97286
62.3388 12.6586 3.97833
62.7188 24.681 3.96938
62.193 15.7991 3.96869
61.7806 18.7087 3.96278
61.1057 21.3899 3.96527
60.2321 23.7965 3.97108
59.241 12.8057 3.96948
55.8709 10.2439 3.97409
56.397 13.1597 3.96856
69.7669 50.9889 0.0231955
62.2254 65.694 0
58.8928 65.4132 0.0139793
67.7816 55.167 0.0227729
66.6434 52.2074 0.034124
62.3335 62.4248 0.0210212
62.197 59.394 0.0328741
64.6547 56.0277 0.0329149
61.8005 56.6652 0.0369449
60.6687 63.9716 2
57.0257 66.7331 2
57.5559 63.6846 2
67.5011 50.1746 2
65.6949 54.1701 2
64.4674 51.3652 2
60.7672 60.9237 2
62.7821 55.0512 2
60.6452 58.1414 2
60.2715 55.754 2
55.0696 67.9315 3.99001
59.2146 62.3453 3.97107
55.8024 64.9033 3.97847
56.3194 62.0588 3.97113
65.2523 49.3892 3.96656
63.6486 53.2734 3.96458
62.283 50.6093 3.96831
59.3227 59.5344 3.96584
60.9834 54.2727 3.96624
59.2424 56.9776 3.96269
59.1524 55.1396 3.96702
48.1004 68.576 3.98581
50.9473 69.9314 3.99085
54.0858 71.1327 4
56.25 69.976 2
58.3339 68.6801 0
57.0566 8.33806 3.98479
60.3285 7.74928 4
58.9223 9.66196 2
62.2255 9.30602 2
70.5732 48.8135 0.0234249
71.7811 44.3529 0.0224306
68.9071 46.0143 0.0333942
69.7999 41.7901 0.0324535
72.4043 39.8026 0.0213373
75 37.5 0
72.487 37.5125 2
70.0373 39.6582 2
69.4256 43.907 2
67.5312 41.492 2
68.26 48.1055 2
66.6304 45.4262 2
70.1255 37.5229 3.96782
67.7748 39.5106 3.97005
67.1515 43.4608 3.96954
65.3916 41.1957 3.97668
65.9861 47.4012 3.96776
64.4652 44.8184 3.97376
72.4122 35.2248 0.0213448
71.8026 30.677 0.0221924
69.8362 33.2705 0.0323524
68.9616 29.0405 0.0333424
64.0165 10.9835 0
63.887 14.3299 0.0237257
63.5067 17.4556 0.0327389
67.6059 24.9143 0.0339811
66.1277 27.6517 0.0325885
64.6958 23.8502 0.0342094
62.8596 20.3432 0.0364428
61.9697 22.9889 0.032389
60.6818 11.1008 0.0195344
57.6078 11.463 0.0285807
70.0541 35.394 2
69.4627 31.1523 2
67.5976 33.5993 2
66.7053 29.6379 2
62.3416 12.6634 2
62.1915 15.7997 2
61.7817 18.7087 2
65.4584 25.7187 2
63.9821 28.2933 2
61.1041 21.3907 2
62.7174 24.6818 2
60.2316 23.7975 2
59.2421 12.806 2
56.398 13.1571 2
55.8727 10.2442 2
67.8153 35.5525 3.96987
67.2058 31.6337 3.96914
65.5461 33.9432 3.97636
64.4996 30.2231 3.97425
63.3892 26.455 3.97132
62.0082 28.8349 3.97637
60.7696 14.2445 3.96858
60.8311 25.4042 3.9735
60.5952 17.1538 3.96275
60.1238 19.8674 3.96266
59.4769 22.3317 3.96728
58.7267 24.4097 3.97397
54.035 9.14485 3.97677
57.8995 14.3709 3.96775
54.7795 12.0451 3.97165
55.2974 14.7039 3.96552
67.5016 50.1754 0.0342549
57.0237 66.7344 0.011684
60.6667 63.9745 0.0177392
57.5552 63.6835 0.0262747
65.6958 54.1709 0.0336293
64.4673 51.3655 0.0345328
60.7684 60.9227 0.029863
60.6447 58.141 0.037392
62.7817 55.0511 0.0359287
60.2711 55.754 0.0355288
55.0712 67.9306 2
59.2149 62.3468 2
55.8027 64.9039 2
56.3183 62.0611 2
65.252 49.3887 2
63.6489 53.2733 2
62.2823 50.6088 2
59.3212 59.5352 2
60.9832 54.2725 2
59.246 56.9783 2
59.1543 55.1397 2
53.0416 68.9995 3.9906
53.9649 66.0084 3.98149
57.8708 60.8406 3.96894
54.6787 63.1946 3.97324
55.1977 60.5753 3.96831
63.0203 48.6204 3.97017
61.6116 52.5343 3.9672
60.0292 49.9544 3.97055
57.9943 58.2316 3.96389
59.1881 53.8949 3.9681
58.0151 55.7599 3.96279
50.1071 67.8541 3.98503
47.4617 66.5744 3.98135
46.0543 69.1552 3.98641
48.1007 68.5766 2
48.8013 70.7226 3.99114
50.9485 69.9309 2
51.8506 72.1454 4
54.0858 71.1327 2
56.25 69.9759 0
55.1016 7.14203 3.98767
58.3339 6.31992 4
57.0595 8.33976 2
60.3286 7.74926 2
58.919 9.65845 0.0174901
62.2254 9.30607 0
68.2603 48.1062 0.0339855
69.4258 43.9074 0.032821
66.6317 45.4267 0.031103
67.5318 41.4923 0.0302053
70.0375 39.6583 0.032154
72.4877 37.5126 0.0217806
70.1249 37.523 2
67.7737 39.5105 2
67.1517 43.4605 2
65.3888 41.1952 2
65.986 47.4008 2
64.463 44.8178 2
67.8759 37.5237 3.97009
65.6289 39.364 3.97695
65.005 43.0034 3.97592
63.4981 40.9068 3.97706
63.7772 46.68 3.97183
62.5292 44.1697 3.97641
70.0542 35.3937 0.0321914
69.4629 31.1518 0.0330221
67.5982 33.599 0.0304801
66.7059 29.6374 0.0317509
62.3388 12.6586 0.0216693
62.193 15.7991 0.0313122
61.7806 18.7087 0.0372222
65.4585 25.7181 0.0334085
63.9843 28.2926 0.0271373
62.7188 24.681 0.0306157
61.1057 21.3899 0.0347272
60.2321 23.7965 0.0289248
59.241 12.8057 0.0305172
56.397 13.1597 0.0314394
55.8709 10.2439 0.0259132
67.814 35.5527 2
67.2061 31.6341 2
65.5429 33.9437 2
64.4973 30.2238 2
60.7696 14.2451 2
60.5947 17.154 2
60.1229 19.8679 2
63.3875 26.4558 2
62.0058 28.836 2
59.4784 22.3325 2
60.8298 25.4052 2
58.7257 24.4112 2
57.899 14.3707 2
55.2979 14.7028 2
54.0369 9.14375 2
54.7803 12.0434 2
65.7265 35.6758 3.97672
65.0236 32.1781 3.97557
64.0587 34.2725 3.97677
62.3293 30.6861 3.97645
61.415 27.1351 3.97472
60.5446 29.2141 3.97661
59.298 15.7001 3.96555
59.0463 25.8863 3.97619
59.0664 18.4035 3.96184
58.5814 20.9292 3.96356
58.0419 23.1872 3.96882
57.6899 24.7683 3.97498
52.1106 8.16006 3.9799
53.0525 11.0397 3.97293
56.6584 15.7922 3.96593
53.7969 13.7325 3.96886
54.3493 16.0643 3.96337
55.0696 67.9315 0.00998934
65.2523 49.3892 0.0334399
55.8024 64.9033 0.0215253
59.2146 62.3453 0.0289274
56.3194 62.0588 0.0288729
63.6486 53.2734 0.035423
62.283 50.6093 0.0316913
59.3227 59.5344 0.0341564
59.2424 56.9776 0.0373143
60.9834 54.2727 0.0337622
59.1524 55.1396 0.0329832
53.0429 68.999 2
53.9653 66.009 2
57.8693 60.8417 2
54.6781 63.1953 2
55.1967 60.5768 2
63.0191 48.6198 2
61.6115 52.534 2
60.0295 49.9539 2
57.9934 58.2326 2
59.1905 53.8948 2
58.0121 55.7587 2
52.0684 66.9966 3.9841
52.9504 64.2086 3.97863
56.6305 59.4547 3.96895
53.6702 61.5926 3.97367
54.2366 59.2785 3.97329
60.7098 47.8165 3.97212
59.5072 52.0434 3.96883
57.7125 49.5322 3.97257
56.7237 56.9433 3.96453
56.9463 54.0538 3.96619
50.1073 67.8543 2
49.3355 65.9147 3.98139
47.4618 66.5748 2
46.8904 64.7259 3.9801
45.5569 67.0916 3.98162
43.9717 69.5871 3.98702
46.0545 69.1556 2
46.6077 71.3671 3.99134
48.1004 68.576 0.0141912
48.8024 70.7225 2
49.554 73.0099 4
50.9473 69.9314 0.00915027
51.8506 72.1455 2
54.0858 71.1327 0
53.0637 6.07293 3.99014
55.1039 7.14278 2
56.25 5.02411 4
58.3339 6.3199 2
57.0566 8.33806 0.0152094
60.3285 7.74928 0
65.9861 47.4012 0.0322364
67.1515 43.4608 0.0304607
64.4652 44.8184 0.0262435
65.3916 41.1957 0.0233154
67.7748 39.5106 0.0299531
70.1255 37.5229 0.032175
67.8754 37.5238 2
65.6256 39.3638 2
65.0021 43.0027 2
63.4959 40.9065 2
63.7753 46.6792 2
62.5271 44.1689 2
65.7368 37.5034 3.97689
63.6477 39.257 3.977
63.057 42.5151 3.97646
62.1079 40.6697 3.97672
61.6776 45.8631 3.97443
61.0989 43.6256 3.97623
67.8153 35.5525 0.0301282
67.2058 31.6337 0.0308612
65.5461 33.9432 0.0236393
64.4996 30.2231 0.0257514
60.7696 14.2445 0.0314194
60.5952 17.1538 0.0372481
60.1238 19.8674 0.0373386
63.3892 26.455 0.0286827
62.0082 28.8349 0.023629
60.8311 25.4042 0.0265007
59.4769 22.3317 0.0327221
58.7267 24.4097 0.0260302
57.8995 14.3709 0.0322485
55.2974 14.7039 0.0344773
54.035 9.14485 0.0232298
54.7795 12.0451 0.0283457
65.7233 35.6761 2
65.0211 32.1788 2
64.0561 34.273 2
62.3272 30.6868 2
59.2967 15.7005 2
59.0678 18.4031 2
58.5848 20.9298 2
61.4134 27.1362 2
60.5435 29.2147 2
58.0377 23.1894 2
59.0456 25.8877 2
57.6917 24.7706 2
56.657 15.7917 2
54.3507 16.0652 2
53.7961 13.7258 2
52.112 8.15911 2
53.0538 11.0373 2
63.8544 35.6459 3.97682
62.6527 33.0836 3.97638
60.268 30.6832 3.97618
59.2506 27.9998 3.97653
57.9127 17.0295 3.96168
57.417 25.8384 3.97622
57.6024 19.5478 3.96122
57.1495 21.94 3.96381
56.883 24.0631 3.96962
50.1115 7.28938 3.98426
51.2291 10.1381 3.9752
52.1609 12.833 3.97397
55.5048 17.0342 3.96275
52.9567 15.3279 3.96679
53.7221 17.0568 3.96403
53.0416 68.9995 0.00939591
53.9649 66.0084 0.01851
63.0203 48.6204 0.0298293
54.6787 63.1946 0.0267642
57.8708 60.8406 0.0310565
55.1977 60.5753 0.0316881
61.6116 52.5343 0.0328024
60.0292 49.9544 0.029446
57.9943 58.2316 0.0361102
58.0151 55.7599 0.0372058
59.1881 53.8949 0.0318962
52.0687 66.9971 2
52.9502 64.209 2
56.6293 59.4555 2
53.6688 61.5923 2
54.2356 59.2803 2
60.7093 47.8157 2
59.508 52.043 2
57.7094 49.5308 2
56.7218 56.9473 2
56.9431 54.0521 2
51.1662 65.1206 3.98038
52.0387 62.5245 3.97537
55.4482 58.2112 3.96684
52.8146 60.0875 3.97479
53.6064 58.4284 3.96992
57.9107 46.7575 3.97543
57.3099 51.7077 3.96913
55.8738 49.4544 3.97137
55.3805 55.735 3.96518
55.1445 53.3056 3.96335
50.1071 67.8541 0.0149739
49.3356 65.9148 2
48.6155 64.1129 3.98022
47.4617 66.5744 0.0186485
45.557 67.0921 2
46.8907 64.726 2
46.3782 63.0403 3.98243
45.1311 65.1865 3.97954
43.6302 67.4627 3.98267
41.8594 69.8742 3.98663
43.9718 69.5876 2
44.3749 71.8617 3.99146
46.0543 69.1552 0.0135904
46.6086 71.367 2
47.2057 73.7222 4
48.8013 70.7226 0.00886317
49.554 73.0099 2
51.8506 72.1454 0
50.9544 5.13332 3.99132
53.0654 6.07322 2
54.0858 3.86728 4
55.1016 7.14203 0.0123273
56.25 5.02406 2
58.3339 6.31992 0
63.7772 46.68 0.0281737
65.005 43.0034 0.0240843
62.5292 44.1697 0.0235899
63.4981 40.9068 0.0229384
65.6289 39.364 0.0230508
67.8759 37.5237 0.0299087
65.7335 37.5035 2
63.6457 39.257 2
63.055 42.5146 2
62.1073 40.6693 2
61.6758 45.8622 2
61.0974 43.6252 2
63.7109 37.4583 3.97686
61.8208 39.339 3.97692
60.8436 41.9125 3.97669
59.8736 44.6962 3.97664
65.7265 35.6758 0.0232759
65.0236 32.1781 0.024432
64.0587 34.2725 0.0232276
62.3293 30.6861 0.0235482
59.298 15.7001 0.0344515
59.0664 18.4035 0.0381574
58.5814 20.9292 0.0364411
61.415 27.1351 0.0252821
60.5446 29.2141 0.0233933
59.0463 25.8863 0.0238084
58.0419 23.1872 0.0311796
57.6899 24.7683 0.0250213
56.6584 15.7922 0.0340676
54.3493 16.0643 0.0366256
53.7969 13.7325 0.0311402
52.1106 8.16006 0.0200987
53.0525 11.0397 0.0270742
63.8523 35.6458 2
62.6514 33.0841 2
60.2677 30.6833 2
57.9113 17.0292 2
57.6096 19.5461 2
57.1468 21.9423 2
59.2493 28.001 2
56.8911 24.0652 2
57.4172 25.8413 2
50.1126 7.28758 2
55.5055 17.0343 2
53.7227 17.0529 2
52.9566 15.3246 2
52.162 12.8366 2
51.2307 10.1361 2
61.8616 35.3791 3.97658
59.8942 32.8016 3.97637
58.2095 30.1678 3.97624
56.9089 27.5049 3.97684
56.5791 18.2203 3.96151
55.9497 25.2353 3.97526
56.2028 20.6154 3.96111
55.8317 22.992 3.96308
48.0565 6.52981 3.98804
49.323 9.34115 3.9788
50.4254 12.0206 3.97515
51.3589 14.5471 3.96788
54.363 17.9977 3.96051
52.3286 17.1269 3.95817
52.0684 66.9966 0.0158979
52.9504 64.2086 0.0213682
60.7098 47.8165 0.0278845
53.6702 61.5926 0.0263302
56.6305 59.4547 0.0310549
54.2366 59.2785 0.0267104
59.5072 52.0434 0.0311695
57.7125 49.5322 0.0274284
56.7237 56.9433 0.0354709
56.9463 54.0538 0.0338104
51.1662 65.1211 2
52.0378 62.5255 2
55.4474 58.2124 2
52.8134 60.091 2
53.6056 58.4302 2
57.91 46.7565 2
57.3085 51.7065 2
55.8686 49.4527 2
55.3793 55.735 2
55.1471 53.306 2
50.3423 63.3701 3.98057
51.2302 60.9051 3.97529
54.1685 57.2229 3.96906
52.2776 58.5834 3.97174
56.168 44.0672 3.97698
55.0464 47.7831 3.97423
54.753 51.2944 3.96562
53.8633 54.4774 3.96557
49.3355 65.9147 0.0186116
48.6156 64.1127 2
47.9561 62.4619 3.9805
45.5569 67.0916 0.018376
46.8904 64.7259 0.0199032
43.6302 67.4634 2
46.3783 63.0404 2
45.1314 65.187 2
45.9819 61.5709 3.98775
44.7645 63.4387 3.97866
43.356 65.4969 3.97975
41.6624 67.681 3.98218
39.7017 70.0199 3.9863
41.8594 69.8747 2
42.1093 72.2063 3.99184
43.9717 69.5871 0.012976
44.3757 71.8617 2
44.8159 74.2794 4
46.6077 71.3671 0.00865573
47.2057 73.7222 2
49.554 73.0099 0
48.7855 4.32372 3.99227
50.9555 5.13291 2
51.8506 2.85458 4
53.0637 6.07293 0.0098561
54.0858 3.86728 2
56.25 5.02411 0
61.6776 45.8631 0.02557
63.057 42.5151 0.0235429
61.0989 43.6256 0.0237669
62.1079 40.6697 0.0232833
63.6477 39.257 0.0230017
65.7368 37.5034 0.0231141
63.709 37.4582 2
61.8208 39.3391 2
60.8439 41.9123 2
59.8732 44.6954 2
61.6519 37.4441 3.97696
59.8134 39.8162 3.97689
58.5124 42.8445 3.97642
63.8544 35.6459 0.0231812
62.6527 33.0836 0.0236236
60.268 30.6832 0.0238226
57.9127 17.0295 0.0383215
57.6024 19.5478 0.0387791
57.1495 21.94 0.0361873
59.2506 27.9998 0.0234655
57.417 25.8384 0.023776
56.883 24.0631 0.0303819
55.5048 17.0342 0.0372494
53.7221 17.0568 0.0359742
52.9567 15.3279 0.0332136
50.1115 7.28938 0.0157358
52.1609 12.833 0.0260259
51.2291 10.1381 0.0247952
61.8617 35.3793 2
59.8939 32.8015 2
58.2102 30.1674 2
56.5829 18.2194 2
56.2103 20.6121 2
55.837 22.9959 2
56.9085 27.5061 2
55.9482 25.2394 2
48.057 6.52783 2
49.3242 9.33876 2
54.3657 17.9978 2
52.326 17.1203 2
51.3572 14.5448 2
50.4273 12.0185 2
59.4533 35.1475 3.97668
57.4951 32.3455 3.97587
56.0893 29.4633 3.97669
55.0161 26.7607 3.97599
55.2535 19.2714 3.96175
54.6098 24.207 3.96743
54.801 21.679 3.96023
45.963 5.88363 3.98901
43.3746 7.47614 3.98511
47.3553 8.62896 3.98318
48.5954 11.3096 3.97483
49.6974 13.7749 3.97252
50.6024 16.1935 3.97011
53.0574 18.7587 3.95907
51.2557 18.1721 3.97115
51.1662 65.1206 0.0196165
52.0387 62.5245 0.0246339
57.9107 46.7575 0.0245653
52.8146 60.0875 0.0252053
55.4482 58.2112 0.0331601
53.6064 58.4284 0.0300842
57.3099 51.7077 0.0308746
55.8738 49.4544 0.0286286
55.3805 55.735 0.0348213
55.1445 53.3056 0.0366547
50.3419 63.3698 2
51.2285 60.903 2
54.1689 57.2246 2
52.2761 58.5851 2
56.1684 44.067 2
55.0446 47.7817 2
54.7557 51.2944 2
53.863 54.4792 2
49.5833 61.7327 3.97787
54.945 41.6494 3.97434
50.5389 59.2915 3.97015
52.1127 56.4409 3.96807
53.5994 45.4257 3.97437
52.9103 49.2129 3.96934
52.4359 52.7705 3.96145
48.6155 64.1129 0.0197842
47.9557 62.4609 2
47.3187 60.9934 3.9867
43.6302 67.4627 0.017333
45.1311 65.1865 0.0204625
46.3782 63.0403 0.0175707
41.6628 67.6807 2
43.3563 65.4977 2
45.981 61.5715 2
44.7649 63.439 2
45.7548 60.6161 3.98473
44.4799 61.8154 3.97999
43.145 63.7118 3.97876
41.5457 65.6342 3.97824
39.632 67.7585 3.98178
37.5259 70.0442 3.98501
39.7017 70.0203 2
39.8164 72.4027 3.99159
41.8594 69.8742 0.013374
42.11 72.2065 2
42.3947 74.6792 4
44.3749 71.8617 0.0085393
44.8159 74.2794 2
47.2057 73.7222 0
43.852 5.36089 3.98841
46.5716 3.64789 3.99254
48.786 4.32296 2
49.554 1.99015 4
50.9544 5.13332 0.00868019
51.8506 2.85453 2
54.0858 3.86728 0
59.8736 44.6962 0.0233561
60.8436 41.9125 0.0233126
61.8208 39.339 0.0230775
63.7109 37.4583 0.0231376
61.6519 37.4441 2
59.8141 39.8159 2
58.5129 42.8441 2
59.3074 37.5663 3.9772
57.4491 40.6069 3.97706
54.3511 39.6636 3.97513
61.8616 35.3791 0.0234179
59.8942 32.8016 0.0236287
58.2095 30.1678 0.0237579
56.5791 18.2203 0.038487
56.2028 20.6154 0.0388893
55.8317 22.992 0.0369192
56.9089 27.5049 0.0231614
55.9497 25.2353 0.0247409
54.363 17.9977 0.0394938
52.3286 17.1269 0.0418303
51.3589 14.5471 0.0321238
48.0565 6.52981 0.0119579
49.323 9.34115 0.0211959
50.4254 12.0206 0.0248465
59.4542 35.1473 2
45.9628 5.88296 2
43.3744 7.47515 2
57.496 32.3459 2
56.0894 29.4628 2
55.2466 19.2736 2
54.8159 21.681 2
54.6058 24.2101 2
55.0138 26.7629 2
47.356 8.62493 2
48.5972 11.3064 2
53.0597 18.7476 2
51.2584 18.1677 2
50.6018 16.1929 2
49.697 13.7766 2
56.8331 34.7985 3.9771
55.172 31.6177 3.97596
54.0097 28.5657 3.9774
53.3946 25.6795 3.97589
53.8499 20.2392 3.96095
53.3429 22.8648 3.95528
41.3998 7.08183 3.9847
45.3609 7.99583 3.98736
42.8668 9.42018 3.98096
46.6656 10.6624 3.98088
47.7323 13.1232 3.976
48.9056 15.4434 3.96987
49.958 17.7577 3.964
51.569 19.452 3.96733
50.3423 63.3701 0.0194313
51.2302 60.9051 0.0247092
56.168 44.0672 0.0230235
55.0464 47.7831 0.0257724
52.2776 58.5834 0.0282614
54.1685 57.2229 0.0309371
54.753 51.2944 0.0343838
53.8633 54.4774 0.0344325
49.582 61.7319 2
54.9378 41.6458 2
50.5371 59.291 2
52.1155 56.4441 2
53.596 45.4239 2
52.9193 49.2123 2
52.4376 52.771 2
48.8298 60.1862 3.97584
51.7356 42.5204 3.9831
49.7376 57.5884 3.96728
50.4478 54.3711 3.96327
51.267 47.133 3.97463
50.893 50.8498 3.95482
47.4138 43.6169 3.97753
47.9561 62.4619 0.0195045
47.3173 60.9928 2
46.6007 59.7816 3.99184
41.6624 67.681 0.0178223
43.356 65.4969 0.02025
44.7645 63.4387 0.0213426
45.9819 61.5709 0.0122487
39.6324 67.7593 2
41.5458 65.6329 2
45.7538 60.6164 2
43.1455 63.7123 2
44.4787 61.8162 2
44.6111 60.2738 3.99285
42.9475 62.064 3.97471
41.5997 63.8044 3.9781
39.6471 65.599 3.97744
37.5631 67.7387 3.97971
31.6978 65.115 3.97763
33.3924 67.4765 3.97961
35.3338 69.9544 3.98508
37.5257 70.0453 2
37.5089 72.4571 3.99202
39.7017 70.0199 0.0136984
39.817 72.4029 2
39.9526 74.9197 4
42.1093 72.2063 0.00816315
42.3947 74.6792 2
44.8159 74.2794 0
41.7366 4.96967 3.98877
43.8521 5.35982 2
44.3268 3.1111 3.99285
46.5717 3.64758 2
47.2057 1.27793 4
48.7855 4.32372 0.0077323
49.554 1.99013 2
51.8506 2.85458 0
58.5124 42.8445 0.0235793
59.8134 39.8162 0.0231071
61.6519 37.4441 0.023044
59.3083 37.5672 2
57.449 40.6078 2
54.3439 39.6684 2
56.1983 37.8812 3.97687
48.7636 41.2312 3.97692
52.3296 39.3028 3.98378
39.4435 6.80542 3.98545
59.4533 35.1475 0.0233235
57.4951 32.3455 0.0241298
56.0893 29.4633 0.0233076
55.2535 19.2714 0.0382483
54.801 21.679 0.0397723
54.6098 24.207 0.0325724
55.0161 26.7607 0.0240086
53.0574 18.7587 0.0409337
51.2557 18.1721 0.0288514
50.6024 16.1935 0.0298873
45.963 5.88363 0.0109924
49.6974 13.7749 0.0274753
47.3553 8.62896 0.0168213
48.5954 11.3096 0.0251745
43.3746 7.47614 0.0148946
56.8329 34.7993 2
41.3999 7.08106 2
45.3604 7.99535 2
42.8665 9.41978 2
55.1749 31.6162 2
54.0099 28.565 2
53.8527 20.2486 2
53.3385 22.8623 2
53.3912 25.6798 2
46.6665 10.6553 2
47.7334 13.1179 2
51.5774 19.4507 2
49.9573 17.7546 2
48.9023 15.4483 2
54.1742 33.9947 3.97527
52.8948 30.6597 3.9764
52.1089 27.4045 3.97484
51.8581 24.2951 3.9784
52.2453 21.1935 3.97119
41.0138 9.05509 3.97964
44.7269 9.99519 3.9859
42.4653 10.9049 3.9945
45.9949 12.7402 3.97421
47.6586 14.6143 3.97005
48.0649 17.0218 3.96721
49.7623 19.8277 3.97176
49.5833 61.7327 0.0221276
50.5389 59.2915 0.0298536
54.945 41.6494 0.0256637
53.5994 45.4257 0.0256338
52.9103 49.2129 0.0306603
52.1127 56.4409 0.0319296
52.4359 52.7705 0.0385534
48.8273 60.1841 2
51.7541 42.5296 2
49.7352 57.5886 2
50.449 54.3744 2
51.2734 47.1334 2
50.8959 50.8488 2
47.4286 43.6457 2
47.9522 58.7135 3.97871
49.3905 45.1466 3.98073
48.507 55.8782 3.96272
48.9174 52.5283 3.97634
49.2654 48.9325 3.97231
45.1629 39.8081 3.86313
45.6464 42.5094 3.89857
45.8827 45.6199 3.98289
42.9852 41.0325 3.7025
41.6417 41.861 3.51092
47.3187 60.9934 0.0132975
46.5985 59.7804 2
45.4422 58.7848 3.99346
39.632 67.7585 0.0182157
41.5457 65.6342 0.0217556
43.145 63.7118 0.021243
44.4799 61.8154 0.0200065
45.7548 60.6161 0.0152681
41.6 63.8035 2
37.5633 67.7397 2
39.6473 65.6 2
44.611 60.2741 2
42.9464 62.0645 2
41.7507 62.4724 3.97703
42.4727 59.9555 3.97924
39.8943 63.5357 3.97642
37.6421 65.4945 3.97647
35.4634 67.6482 3.97956
33.5756 65.3276 3.97619
31.9604 63.2806 3.97602
29.8848 64.7067 3.98055
31.6977 65.1159 2
31.3774 67.1865 3.98005
33.3926 67.4776 2
33.1572 69.748 3.9852
35.3336 69.9554 2
35.1954 72.3715 3.99198
37.5259 70.0442 0.0149859
37.5091 72.4576 2
37.5 75 4
39.8164 72.4027 0.00841364
39.9526 74.9197 2
42.3947 74.6792 0
39.6245 4.71749 3.98948
41.7368 4.969 2
42.0632 2.71832 3.99321
43.852 5.36089 0.0115892
44.3269 3.11039 2
44.8158 0.721173 4
46.5716 3.64789 0.00746345
47.2057 1.27779 2
49.554 1.99015 0
57.4491 40.6069 0.0229427
59.3074 37.5663 0.0227963
54.3511 39.6636 0.0248703
48.7917 41.249 2
56.1976 37.8786 2
52.327 39.2694 2
53.1875 36.6224 3.97807
46.691 40.3229 3.90095
49.71 38.5105 3.98477
37.5175 6.67627 3.98559
39.4437 6.80387 2
39.2116 8.69658 3.98278
35.9437 8.49595 3.98426
56.8331 34.7985 0.0228966
55.172 31.6177 0.024035
54.0097 28.5657 0.0226028
53.8499 20.2392 0.0390458
53.3429 22.8648 0.0447168
53.3946 25.6795 0.0241072
51.569 19.452 0.0326737
49.958 17.7577 0.0360013
48.9056 15.4434 0.0301344
45.3609 7.99583 0.012635
47.7323 13.1232 0.0239992
46.6656 10.6624 0.0191233
41.3998 7.08183 0.0153019
42.8668 9.42018 0.0190364
54.1719 33.9951 2
41.0142 9.05491 2
44.7253 9.99541 2
42.4657 10.9062 2
52.8919 30.6584 2
52.1162 27.4057 2
52.2493 21.1964 2
51.8561 24.3012 2
45.9961 12.7296 2
47.6559 14.6051 2
49.7723 19.8257 2
48.0609 17.0211 2
51.691 32.9038 3.9823
50.7126 29.3625 3.97749
50.4001 25.9106 3.97066
49.803 22.424 3.98529
40.5665 11.6165 3.98196
43.8514 11.9104 3.9797
45.7761 15.4508 3.98696
47.462 19.4325 3.97874
45.6152 37.4787 3.8582
48.8298 60.1862 0.0241608
49.7376 57.5884 0.0327221
51.7356 42.5204 0.0169003
51.267 47.133 0.0253664
50.893 50.8498 0.0451829
50.4478 54.3711 0.0367287
47.4138 43.6169 0.0224695
47.9496 58.716 2
49.4068 45.1602 2
48.5022 55.8804 2
48.9186 52.5338 2
49.2703 48.9335 2
45.2388 39.8229 2
45.6768 42.5505 2
45.8926 45.634 2
43.0195 41.0694 2
41.6732 41.885 2
46.7854 57.3181 3.97673
43.7187 39.3502 3.70434
42.0048 40.7702 3.53899
47.544 47.1726 3.98194
47.0341 54.1905 3.96255
47.3099 50.6738 3.97914
44.3737 47.2512 3.9758
44.2967 41.8519 3.85367
44.3728 44.3668 3.90233
41.9695 42.4769 3.73891
40.6327 42.1619 3.51464
46.6007 59.7816 0.00816041
45.4415 58.7823 2
43.8499 57.6776 3.9804
37.5631 67.7387 0.0202872
39.6471 65.599 0.0225599
41.5997 63.8044 0.0219039
42.9475 62.064 0.0252927
44.6111 60.2738 0.00715317
35.4637 67.6491 2
41.7498 62.475 2
39.8941 63.5364 2
37.6421 65.4952 2
42.4736 59.9545 2
40.6216 61.6166 3.97972
40.4361 58.1412 3.97972
37.8378 63.1917 3.97421
35.5729 65.4169 3.97683
33.5758 65.3285 2
31.9606 63.282 2
33.6298 63.3191 3.97487
30.3795 62.8415 3.97977
32.1272 61.9834 3.98526
26.8776 61.4713 3.97738
28.0651 64.1354 3.97824
29.8845 64.7078 2
29.4073 66.7506 3.981
31.6978 65.115 0.0223732
31.3775 67.1874 2
31.015 69.4132 3.98493
33.3924 67.4765 0.0203896
33.157 69.7489 2
32.8933 72.1459 3.99159
35.3338 69.9544 0.0149185
35.1951 72.3722 2
35.0474 74.9194 4
37.5089 72.4571 0.00798396
37.5 75 2
39.9526 74.9197 0
35.6221 6.72734 3.98525
37.5242 4.61687 3.98962
39.6246 4.71614 2
39.7897 2.47501 3.99316
41.7366 4.96967 0.0112303
42.0631 2.71785 2
42.3946 0.32156 4
44.3268 3.1111 0.00714943
44.8159 0.72056 2
47.2057 1.27793 0
48.7636 41.2312 0.0230829
56.1983 37.8812 0.023135
52.3296 39.3028 0.0162162
46.7172 40.3198 2
49.7113 38.5064 2
53.1865 36.6419 2
50.5128 35.5691 3.97471
47.3609 37.7696 3.91513
45.1817 35.1677 3.86161
43.0135 33.929 3.69947
41.6683 33.1053 3.50919
37.4591 8.53736 3.98465
37.5176 6.67513 2
39.4435 6.80542 0.0145509
39.2123 8.69476 2
38.9765 10.1322 3.98363
35.8998 9.77825 3.98004
34.1534 8.82775 3.98219
35.9437 8.49369 2
54.1742 33.9947 0.0247321
52.8948 30.6597 0.0235982
52.1089 27.4045 0.0251613
52.2453 21.1935 0.0288093
51.8581 24.2951 0.0216018
49.7623 19.8277 0.0282445
48.0649 17.0218 0.0327877
47.6586 14.6143 0.0299532
44.7269 9.99519 0.0141002
45.9949 12.7402 0.0257894
41.0138 9.05509 0.0203599
42.4653 10.9049 0.005502
51.6981 32.9014 2
40.5684 11.618 2
43.85 11.9136 2
50.7347 29.3607 2
50.4002 25.9136 2
49.8035 22.4228 2
45.7693 15.4167 2
47.4656 19.456 2
49.2646 31.5323 3.98748
48.7902 27.679 3.97829
49.1195 24.5679 3.97601
47.104 22.193 3.98801
38.3007 12.7454 3.97698
42.0905 14.3087 3.97986
44.7713 18.5742 3.97539
44.131 37.4855 3.71392
45.7062 37.4826 2
47.9522 58.7135 0.0212938
48.507 55.8782 0.0372794
49.3905 45.1466 0.0192726
49.2654 48.9325 0.0276888
48.9174 52.5283 0.0236577
45.1629 39.8081 0.136874
45.6464 42.5094 0.101431
45.8827 45.6199 0.0171097
42.9852 41.0325 0.297498
41.6417 41.861 0.489082
46.7818 57.3205 2
43.7752 39.3748 2
42.007 40.7846 2
47.5516 47.174 2
47.0286 54.1951 2
47.3113 50.685 2
44.4005 47.233 2
44.3335 41.8819 2
44.4165 44.3903 2
42.021 42.5229 2
40.6603 42.1715 2
45.3241 55.9008 3.99452
42.3468 39.2259 3.54892
40.519 40.6493 3.65483
45.7303 48.8216 4.00194
45.3395 52.4611 3.98063
43.1093 48.241 3.99363
43.0213 45.886 3.89462
43.1241 43.6179 3.83811
40.7387 43.5186 3.71663
39.1921 42.4241 3.54616
45.4422 58.7848 0.00654269
43.8474 57.6829 2
42.0764 56.2638 3.98517
35.4634 67.6482 0.0204365
37.6421 65.4945 0.0235266
39.8943 63.5357 0.0235795
41.7507 62.4724 0.0229709
42.4727 59.9555 0.0207621
35.5732 65.4176 2
40.6218 61.615 2
37.838 63.1919 2
40.4366 58.1399 2
38.9107 56.4278 3.99457
38.2498 60.3025 3.97996
35.6076 63.1859 3.9747
33.5756 65.3276 0.0238101
31.9604 63.2806 0.0239763
33.6301 63.3202 2
30.3797 62.8424 2
32.128 61.9847 2
28.6865 62.1785 3.97985
33.3477 61.4903 3.97705
31.0747 61.2057 3.98042
27.5858 59.5626 3.9796
23.8171 59.0502 3.98845
25.0453 60.8447 3.97721
26.8781 61.4712 2
26.2336 63.4644 3.97727
28.065 64.1339 2
27.4643 66.1751 3.98046
29.8848 64.7067 0.0194469
29.4073 66.7508 2
28.9076 68.9389 3.98454
31.3774 67.1865 0.0199521
31.0147 69.4137 2
30.6162 71.7773 3.99104
33.1572 69.748 0.0148048
32.8927 72.1464 2
32.6054 74.6784 4
35.1954 72.3715 0.00801668
35.0474 74.9197 2
37.5 75 0
33.7252 6.98334 3.98406
35.4363 4.68701 3.98945
35.6222 6.72602 2
37.5154 2.38745 3.99323
37.5243 4.61598 2
39.6245 4.71749 0.0105194
39.7895 2.47427 2
39.9526 0.0806499 4
42.0632 2.71832 0.00679133
42.3947 0.320817 2
44.8158 0.721173 0
43.7302 35.6217 3.70663
42.0214 34.1916 3.53009
46.691 40.3229 0.0990484
49.71 38.5105 0.0152292
53.1875 36.6224 0.0219257
47.3574 37.7342 2
50.52 35.5619 2
45.2501 35.1444 2
43.0524 33.8899 2
41.6953 33.0812 2
47.5513 34.3213 3.94794
44.333 33.1054 3.83928
42.0071 32.4921 3.73586
40.656 32.8151 3.51325
37.3115 10.6346 3.98125
37.4596 8.53599 2
37.5175 6.67627 0.0144095
39.2116 8.69658 0.0172199
38.9786 10.1307 2
34.756 10.3875 3.98099
35.9007 9.77395 2
32.3804 9.37498 3.97856
34.1521 8.82422 2
35.9437 8.49595 0.0157417
51.691 32.9038 0.0177015
50.7126 29.3625 0.0225112
50.4001 25.9106 0.0293423
49.803 22.424 0.0147111
47.462 19.4325 0.0212611
45.7761 15.4508 0.0130388
43.8514 11.9104 0.0202998
40.5665 11.6165 0.018045
49.2834 31.5273 2
38.3011 12.7426 2
42.0939 14.3169 2
48.7994 27.682 2
49.1202 24.5666 2
47.0931 22.1806 2
44.7731 18.6273 2
47.1521 29.6693 3.98628
46.806 25.3029 3.96988
44.2309 21.5642 3.97913
36.585 12.9535 3.97446
38.6818 14.8466 3.97498
41.7371 17.9151 3.97783
42.4965 37.4706 3.58336
44.1822 37.4847 2
45.6152 37.4787 0.141801
46.7854 57.3181 0.0232689
47.0341 54.1905 0.0374546
47.544 47.1726 0.0180558
47.3099 50.6738 0.0208637
43.7187 39.3502 0.295665
44.2967 41.8519 0.146334
44.3728 44.3668 0.0976747
44.3737 47.2512 0.0242045
41.9695 42.4769 0.26109
42.0048 40.7702 0.461007
40.6327 42.1619 0.485364
45.319 55.9031 2
42.3453 39.2306 2
40.5408 40.6334 2
45.733 48.84 2
45.3352 52.4623 2
43.1307 48.2607 2
43.0728 45.9278 2
43.1707 43.6497 2
40.7727 43.577 2
39.1897 42.4364 2
43.6493 54.3727 3.9973
40.6247 39.0796 3.67085
39.081 40.7209 3.62753
43.436 50.3217 4.00459
41.7373 47.4087 3.93087
41.6494 44.9861 3.85032
39.3383 44.1747 3.68842
37.5017 42.5268 3.58163
43.8499 57.6776 0.0196047
42.0772 56.2606 2
40.3853 54.8391 3.99318
35.5729 65.4169 0.023169
37.8378 63.1917 0.0257922
40.6216 61.6166 0.020281
40.4361 58.1412 0.0202813
35.6078 63.1859 2
38.2498 60.303 2
38.9125 56.4194 2
37.9871 55.1182 3.99445
36.934 57.6003 3.99164
35.3654 60.8909 3.9787
33.6298 63.3191 0.0251325
30.3795 62.8415 0.0202278
32.1272 61.9834 0.0147382
33.3486 61.4912 2
28.6868 62.1804 2
31.0757 61.2076 2
29.4165 60.2599 3.976
32.3659 59.7117 3.98911
28.053 58.3456 4.00361
27.5881 59.5625 2
25.4051 58.567 3.97975
22.797 58.2039 3.96849
23.4143 60.3165 3.97924
23.8192 59.0503 2
25.0462 60.8439 2
24.4386 62.7529 3.9772
26.8776 61.4713 0.0226202
26.2342 63.4653 2
25.5492 65.4829 3.97887
28.0651 64.1354 0.0217632
27.4645 66.1749 2
26.8372 68.3275 3.98465
29.4073 66.7506 0.0190022
28.9072 68.9389 2
28.3714 71.2626 3.99049
31.015 69.4132 0.0150693
30.6153 71.7774 2
30.1842 74.2788 4
32.8933 72.1459 0.00840711
32.6053 74.6792 2
35.0474 74.9194 0
31.7898 7.42309 3.98254
33.3489 4.92675 3.98855
33.7247 6.98101 2
35.2458 2.4634 3.99321
35.4361 4.6863 2
35.6221 6.72734 0.014745
37.5 0 4
37.5149 2.38699 2
37.5242 4.61687 0.0103759
39.7897 2.47501 0.00683765
39.9526 0.0802889 2
42.3946 0.32156 0
42.3396 35.7147 3.54136
43.7991 35.5911 2
40.5469 34.3213 3.65457
42.0185 34.1754 2
47.3609 37.7696 0.0848654
50.5128 35.5691 0.0252936
45.1817 35.1677 0.138388
43.0135 33.929 0.300534
41.6683 33.1053 0.490807
47.5695 34.3449 2
44.369 33.0827 2
42.0603 32.4435 2
40.6823 32.8049 2
45.6351 31.7229 3.91106
43.1593 31.3494 3.83294
40.7683 31.4563 3.7165
39.2099 32.5687 3.54275
35.695 11.7843 3.97788
37.3142 10.632 2
37.4591 8.53736 0.0153471
38.9765 10.1322 0.0163742
33.1014 11.2271 3.97407
34.7549 10.3815 2
35.8998 9.77825 0.0199579
30.4855 10.0251 3.97845
32.3792 9.37354 2
34.1534 8.82775 0.0178131
49.2646 31.5323 0.0125211
48.7902 27.679 0.0217084
49.1195 24.5679 0.0239881
47.104 22.193 0.0119855
44.7713 18.5742 0.0246121
42.0905 14.3087 0.0201376
38.3007 12.7454 0.0230209
36.5819 12.9362 2
47.1675 29.619 2
38.6794 14.8268 2
41.729 17.9126 2
46.8106 25.2991 2
44.2187 21.5413 2
45.0945 27.8081 4.00585
43.6225 24.2327 4.02674
41.3006 20.9267 3.9839
35.7734 14.7941 3.9765
38.6754 17.6478 3.98063
40.6803 37.4602 3.68487
42.5048 37.4745 2
44.131 37.4855 0.286077
45.3241 55.9008 0.00547545
45.3395 52.4611 0.0193737
45.7303 48.8216 -0.00193816
42.3468 39.2259 0.451083
43.1241 43.6179 0.161894
43.0213 45.886 0.105383
43.1093 48.241 0.00636798
40.7387 43.5186 0.283367
40.519 40.6493 0.345169
39.1921 42.4241 0.453841
43.6458 54.3684 2
40.6252 39.0782 2
39.0829 40.7119 2
43.4291 50.3398 2
41.7341 47.4411 2
41.6747 45.0286 2
37.4987 42.5433 2
39.3534 44.2324 2
41.8059 52.8603 3.99778
39.0926 39.1069 3.64234
37.505 40.7747 3.6526
35.8149 42.4326 3.54657
40.8345 49.4792 3.99505
39.7488 45.7564 3.82626
37.501 44.4274 3.71529
42.0764 56.2638 0.014825
40.3827 54.8469 2
38.7226 53.6731 3.99549
35.6076 63.1859 0.0253033
38.2498 60.3025 0.0200391
38.9107 56.4278 0.00542566
35.3659 60.8899 2
36.935 57.599 2
37.9881 55.1212 2
36.3222 55.1805 3.99461
34.4948 58.4969 3.99235
33.3477 61.4903 0.0229514
28.6865 62.1785 0.0201501
31.0747 61.2057 0.0195774
32.3671 59.7152 2
29.4179 60.2591 2
30.3267 57.7839 3.98479
28.0559 58.345 2
27.0077 56.7988 3.96681
27.5858 59.5626 0.0203968
25.4081 58.5671 2
23.911 56.7638 3.96013
21.3963 57.352 3.96057
22.0135 59.5847 3.97364
22.7991 58.2051 2
22.7442 62.0045 3.97426
23.4153 60.3158 2
23.8171 59.0502 0.0115525
25.0453 60.8447 0.0227877
24.4393 62.7548 2
23.6844 64.6988 3.97679
26.2336 63.4644 0.0227318
25.5493 65.4844 2
24.8097 67.5882 3.98363
27.4643 66.1751 0.0195414
26.837 68.3282 2
26.1665 70.6036 3.99051
28.9076 68.9389 0.0154556
28.3704 71.2625 2
27.7943 73.7221 4
30.6162 71.7773 0.00896264
30.1841 74.2794 2
32.6054 74.6784 0
29.8125 7.99808 3.98104
31.2544 5.33354 3.98757
31.7891 7.42143 2
32.9818 2.70166 3.99284
33.3484 4.92532 2
33.7252 6.98334 0.0159354
35.0474 0.080333 4
35.2452 2.46315 2
35.4363 4.68701 0.0105548
37.5 0 2
37.5154 2.38745 0.00676691
39.9526 0.0806499 0
40.6547 35.8602 3.67088
42.3402 35.7166 2
43.7302 35.6217 0.293371
28.5458 10.7002 3.97785
39.0886 34.2714 3.62646
40.5529 34.3337 2
42.0214 34.1916 0.46991
47.5513 34.3213 0.0520633
44.333 33.1054 0.160719
42.0071 32.4921 0.264136
40.656 32.8151 0.48675
45.668 31.7035 2
43.2019 31.316 2
40.8059 31.3973 2
39.2135 32.5589 2
43.9708 29.9227 3.90645
41.6597 29.9791 3.85242
39.362 30.81 3.68663
37.5271 32.4776 3.58088
34.0973 12.9519 3.97379
35.6941 11.7738 2
37.3115 10.6346 0.0187451
31.1902 11.9962 3.97779
33.1011 11.2256 2
34.756 10.3875 0.0190108
30.4838 10.0224 2
32.3804 9.37498 0.0214432
47.1521 29.6693 0.0137174
46.806 25.3029 0.0301179
36.585 12.9535 0.0255366
44.2309 21.5642 0.0208697
41.7371 17.9151 0.022167
38.6818 14.8466 0.0250231
35.7757 14.8006 2
45.0968 27.8076 2
38.6718 17.6543 2
41.2878 20.9197 2
43.6185 24.2154 2
33.6127 15.902 3.98033
42.7767 26.6481 3.98804
40.8024 23.515 3.99864
38.4037 20.4155 3.99328
35.8475 17.5498 3.97955
39.1078 37.4863 3.65949
40.6745 37.4624 2
42.4965 37.4706 0.416637
43.6493 54.3727 0.00269548
43.436 50.3217 -0.0045931
40.6247 39.0796 0.329154
41.6494 44.9861 0.149678
41.7373 47.4087 0.0691347
39.3383 44.1747 0.311585
39.081 40.7209 0.372467
37.5017 42.5268 0.418371
41.7944 52.8642 2
39.0862 39.0932 2
37.503 40.7608 2
40.8266 49.5006 2
35.8124 42.4429 2
39.7665 45.8116 2
37.4918 44.4799 2
39.7433 51.6764 4.00242
37.5076 39.1128 3.67564
35.9348 40.7349 3.62794
34.3714 42.1791 3.51555
35.6677 44.1909 3.67938
38.6657 48.4023 3.94439
37.5219 46.0451 3.85313
40.3853 54.8391 0.00682126
38.7236 53.6599 2
36.7487 52.9739 3.99698
35.3654 60.8909 0.0212992
36.934 57.6003 0.00836092
37.9871 55.1182 0.00554771
34.4958 58.4955 2
36.3244 55.1755 2
33.2532 55.3704 3.99175
32.3659 59.7117 0.0108858
29.4165 60.2599 0.0240025
30.3297 57.7814 2
28.7884 55.2821 3.98375
28.053 58.3456 -0.003609
27.0105 56.7985 2
25.4245 55.0946 3.96126
21.9253 55.291 3.96017
25.4051 58.567 0.020248
23.9131 56.7659 2
20.2699 56.9832 3.96326
20.6717 58.7379 3.97004
21.3981 57.3534 2
21.1778 61.1393 3.97434
22.0147 59.5851 2
22.797 58.2039 0.0315106
21.8992 63.8251 3.97674
22.7451 62.0057 2
23.4143 60.3165 0.0207637
24.4386 62.7529 0.0227973
23.6845 64.6996 2
22.8384 66.7307 3.98148
25.5492 65.4829 0.0211274
24.8095 67.5892 2
24.0107 69.8048 3.99034
26.8372 68.3275 0.0153514
26.1654 70.6036 2
25.446 73.0099 4
28.3714 71.2626 0.00950751
27.7943 73.7222 2
30.1842 74.2788 0
27.8223 8.65784 3.98103
29.1567 5.87993 3.98599
29.8114 7.99573 2
30.7273 3.09853 3.99258
31.2537 5.33213 2
31.7898 7.42309 0.0174635
32.6053 0.320823 4
32.9809 2.70111 2
33.3489 4.92675 0.0114533
35.0474 0.0802903 2
35.2458 2.4634 0.00678734
37.5 0 0
39.0871 35.8772 3.64824
40.6384 35.8613 2
42.3396 35.7147 0.458637
28.5443 10.6983 2
26.6242 11.3966 3.97815
29.2302 12.6502 3.98069
37.5174 34.2324 3.65106
39.099 34.2876 2
40.5469 34.3213 0.345429
45.6351 31.7229 0.0889409
43.1593 31.3494 0.167057
40.7683 31.4563 0.2835
39.2099 32.5687 0.457251
44.0007 29.8934 2
41.6887 29.9406 2
39.3687 30.7522 2
37.5272 32.4609 2
42.0895 28.6161 3.87912
39.7399 29.218 3.84648
37.5221 30.5784 3.71275
35.8338 32.5745 3.54721
31.9227 14.4953 3.97966
34.0979 12.9535 2
35.695 11.7843 0.0221208
31.1892 11.9922 2
33.1014 11.2271 0.0259313
30.4855 10.0251 0.0215491
45.0945 27.8081 -0.00585266
43.6225 24.2327 -0.0267359
35.7734 14.7941 0.0235024
41.3006 20.9267 0.0160965
38.6754 17.6478 0.0193735
33.6098 15.8954 2
35.8433 17.5513 2
42.7903 26.6399 2
38.3877 20.4628 2
40.788 23.4901 2
33.5526 17.425 3.98109
40.2226 25.8958 3.956
38.042 23.2372 3.99998
35.5795 20.1421 3.9923
37.5111 37.4926 3.69199
39.0997 37.4812 2
40.6803 37.4602 0.315135
41.8059 52.8603 0.00221925
40.8345 49.4792 0.00494539
39.0926 39.1069 0.357663
39.7488 45.7564 0.173742
37.501 44.4274 0.284711
37.505 40.7747 0.347399
35.8149 42.4326 0.453432
39.7338 51.685 2
37.5089 39.1064 2
35.9322 40.7237 2
38.6782 48.4564 2
34.3457 42.189 2
35.6457 44.2492 2
37.5188 46.097 2
37.6755 50.7011 3.99724
35.9332 39.1216 3.64728
34.4951 40.6744 3.65697
33.357 41.8815 3.51304
34.263 43.5294 3.7134
35.2216 45.7691 3.84322
36.9249 48.0102 3.91056
38.7226 53.6731 0.00450877
36.7575 52.9697 2
34.4332 52.3041 3.99903
34.4948 58.4969 0.00764745
36.3222 55.1805 0.00538904
33.2577 55.3758 2
30.6261 53.2759 3.99863
30.3267 57.7839 0.0152124
28.7906 55.2813 2
27.047 53.3824 3.96061
27.0077 56.7988 0.0331914
25.4266 55.0975 2
23.7626 53.4105 3.95742
20.6988 53.1395 3.95922
20.022 55.7777 3.9624
21.9227 55.2935 2
23.911 56.7638 0.0398667
19.4705 57.8488 3.9668
20.2687 56.9848 2
19.7202 60.1613 3.97142
20.6712 58.7391 2
21.3963 57.352 0.0394251
20.213 62.8458 3.97316
21.1788 61.1407 2
22.0135 59.5847 0.0263637
20.9401 65.7582 3.97962
21.8992 63.8264 2
22.7442 62.0045 0.0257366
23.6844 64.6988 0.0232119
22.8381 66.7312 2
21.9133 68.8719 3.98967
24.8097 67.5882 0.0163703
24.0093 69.8046 2
23.1494 72.1454 4
26.1665 70.6036 0.00949208
25.446 73.0099 2
27.7943 73.7221 0
25.8614 9.3869 3.98014
27.0714 6.54415 3.98478
27.8208 8.65634 2
28.4897 3.64442 3.99179
29.1556 5.87844 2
29.8125 7.99808 0.0189574
30.1841 0.720592 4
30.726 3.09809 2
31.2544 5.33354 0.0124316
32.6053 0.320817 2
32.9818 2.70166 0.00716149
35.0474 0.080333 0
37.5103 35.8782 3.67295
39.073 35.879 2
40.6547 35.8602 0.32912
24.7805 12.0846 3.97676
23.7603 14.3789 3.97512
28.5458 10.7002 0.0221452
26.6227 11.3947 2
29.229 12.6486 2
27.2976 13.3834 3.97902
29.7897 14.211 3.98104
35.9394 34.2756 3.62724
37.524 34.2472 2
39.0886 34.2714 0.373544
37.5271 32.4776 0.419116
43.9708 29.9227 0.0935531
41.6597 29.9791 0.147578
39.362 30.81 0.313368
42.118 28.5667 2
39.757 29.1659 2
37.5246 30.5241 2
35.8335 32.5627 2
39.9061 27.8532 3.88443
37.493 28.9529 3.84944
35.6877 30.8295 3.69128
34.3908 32.8287 3.51645
30.9373 16.8549 3.98454
31.9211 14.4882 2
34.0973 12.9519 0.0262069
31.1902 11.9962 0.0222075
42.7767 26.6481 0.0119637
40.8024 23.515 0.00136436
33.6127 15.902 0.0196686
35.8475 17.5498 0.0204481
38.4037 20.4155 0.00671947
33.5478 17.4364 2
35.5867 20.139 2
40.2864 25.8894 2
38.0212 23.1965 2
32.8768 19.827 3.9938
37.6569 25.5457 3.97079
35.2157 22.8986 3.99952
35.9149 37.4937 3.66148
37.5069 37.4928 2
39.1078 37.4863 0.340508
39.7433 51.6764 -0.00241967
38.6657 48.4023 0.0556132
37.5076 39.1128 0.32436
37.5219 46.0451 0.146865
35.6677 44.1909 0.320617
35.9348 40.7349 0.372056
34.3714 42.1791 0.484453
37.6645 50.7317 2
35.946 39.1087 2
34.4732 40.6621 2
36.9056 48.0657 2
33.325 41.9056 2
34.233 43.5853 2
35.2013 45.8182 2
35.547 49.8838 3.98561
34.389 39.1188 3.67086
33.0019 40.7954 3.53466
33.0266 42.4931 3.741
33.3791 44.9937 3.84444
34.4252 47.1465 3.88264
36.7487 52.9739 0.00301855
34.4299 52.3115 2
32.1767 51.0857 4.01785
33.2532 55.3704 0.00824803
30.6289 53.2802 2
28.6336 51.5043 3.99094
28.7884 55.2821 0.0162479
27.0489 53.3847 2
25.3263 51.6562 3.95481
25.4245 55.0946 0.0387423
23.7615 53.4152 2
22.2545 51.7067 3.95176
19.528 51.5352 3.96099
19.0957 54.2373 3.96186
20.698 53.1388 2
18.5058 56.6766 3.96342
20.0194 55.7794 2
21.9253 55.291 0.0398339
18.3869 59.0725 3.96861
19.4698 57.8498 2
20.2699 56.9832 0.0367398
18.6275 61.7344 3.97172
19.7208 60.1632 2
20.6717 58.7379 0.0299557
19.1293 64.6676 3.97863
20.2133 62.8467 2
21.1778 61.1393 0.0256561
19.8876 67.8083 3.98874
20.9396 65.7588 2
21.8992 63.8251 0.0232564
22.8384 66.7307 0.018521
21.9117 68.8712 2
20.9142 71.1327 4
24.0107 69.8048 0.00965558
23.1494 72.1455 2
25.446 73.0099 0
23.1017 12.8012 3.97698
23.9743 10.1763 3.97802
25.025 7.31499 3.98356
25.8597 9.38555 2
26.2815 4.32853 3.99107
27.0701 6.54324 2
27.8223 8.65784 0.018966
27.7943 1.27781 4
28.4879 3.64427 2
29.1567 5.87993 0.0140146
30.1841 0.720551 2
30.7273 3.09853 0.0074166
32.6053 0.320823 0
35.9228 35.8723 3.64025
37.5203 35.8883 2
39.0871 35.8772 0.351756
24.7775 12.0806 2
23.7603 14.3826 2
22.4919 15.0607 3.98039
25.3651 13.9245 3.97318
24.0443 15.6408 3.98373
26.6242 11.3966 0.0218504
29.2302 12.6502 0.0193087
27.2975 13.3812 2
29.7864 14.2085 2
28.3721 15.9825 3.98243
34.5073 34.3394 3.65411
35.9359 34.2838 2
37.5174 34.2324 0.348944
35.8338 32.5745 0.45279
37.5221 30.5784 0.28725
42.0895 28.6161 0.120882
39.7399 29.218 0.15352
39.9353 27.8138 2
37.4905 28.8976 2
35.6708 30.7647 2
34.3618 32.8218 2
37.5992 27.5889 3.8893
35.2557 29.239 3.84651
34.275 31.4772 3.71295
33.3749 33.1232 3.51117
30.2236 19.4059 3.9828
30.933 16.8447 2
31.9227 14.4953 0.0203439
40.2226 25.8958 0.0440004
38.042 23.2372 1.97108e-05
33.5526 17.425 0.018907
35.5795 20.1421 0.00770363
32.874 19.8419 2
35.212 22.8854 2
37.7181 25.5229 2
32.3771 22.5562 3.99592
35.0768 25.4642 3.99529
34.3399 37.5088 3.68675
35.9182 37.4985 2
37.5111 37.4926 0.30801
37.6755 50.7011 0.0027564
36.9249 48.0102 0.0894406
35.9332 39.1216 0.35272
35.2216 45.7691 0.156779
34.263 43.5294 0.286602
34.4951 40.6744 0.343034
33.357 41.8815 0.486958
35.5357 49.8936 2
34.393 39.1151 2
33 40.8084 2
34.4209 47.1922 2
32.9847 42.5391 2
33.3536 45.0346 2
33.3767 48.9464 3.97672
32.6737 39.2645 3.54424
32.0083 41.0546 3.70172
31.8677 43.6347 3.83767
32.5673 46.1214 3.88596
34.4332 52.3041 0.000974686
32.1801 51.0978 2
30.1504 49.6657 4.00239
30.6261 53.2759 0.00136893
28.6337 51.4995 2
26.8217 49.8763 3.9691
27.047 53.3824 0.039385
25.3241 51.6556 2
23.6915 50.0683 3.96166
23.7626 53.4105 0.0425785
22.2536 51.7053 2
20.8433 50.1989 3.9649
18.3278 50.2325 3.96895
18.0986 52.7071 3.96364
19.5264 51.5344 2
17.5689 55.2801 3.96259
19.0915 54.2375 2
20.6988 53.1395 0.0407793
17.1635 57.8368 3.96266
18.5039 56.6772 2
20.022 55.7777 0.0376028
17.1463 60.5132 3.96707
18.387 59.0733 2
19.4705 57.8488 0.0332018
17.4108 63.4578 3.97223
18.628 61.7351 2
19.7202 60.1613 0.0285807
17.9439 66.6166 3.98708
19.1288 64.6675 2
20.213 62.8458 0.0268351
18.75 69.9759 4
19.8857 67.8071 2
20.9401 65.7582 0.0203841
21.9133 68.8719 0.0103321
20.9142 71.1327 2
23.1494 72.1454 0
21.5955 13.6282 3.97646
22.1929 11.0388 3.97516
23.1 12.805 2
23.0427 8.18165 3.98174
23.9718 10.1743 2
24.1191 5.14333 3.99045
25.0233 7.31427 2
25.8614 9.3869 0.0198644
25.446 1.99014 4
26.2793 4.32886 2
27.0714 6.54415 0.0152212
27.7943 1.27778 2
28.4897 3.64442 0.00820994
30.1841 0.720592 0
34.4006 35.8954 3.66958
35.9321 35.8868 2
37.5103 35.8782 0.327047
21.3251 15.8665 3.9832
24.7805 12.0846 0.0232444
23.7603 14.3789 0.0248756
25.3642 13.9166 2
22.4928 15.0601 2
24.0462 15.6458 2
23.2903 16.2702 3.9727
25.4004 16.1112 3.98288
27.2976 13.3834 0.0209829
29.7897 14.211 0.0189598
28.3675 15.9873 2
27.4625 18.838 3.98066
33.0115 34.2166 3.5399
34.4858 34.3547 2
35.9394 34.2756 0.372763
34.3908 32.8287 0.48355
35.6877 30.8295 0.30872
37.493 28.9529 0.15056
39.9061 27.8532 0.115569
37.5744 27.5514 2
33.3471 33.1016 2
35.2563 29.1783 2
34.2363 31.4163 2
35.1531 27.6848 3.896
33.3765 30.0062 3.84585
33.0508 32.5087 3.73198
29.6841 22.0069 4.00065
30.2244 19.4099 2
30.9373 16.8549 0.0154619
37.6569 25.5457 0.0292132
35.2157 22.8986 0.000477174
32.8768 19.827 0.00619539
32.3812 22.5484 2
35.1085 25.4555 2
31.9302 25.8097 4.00537
32.5122 37.508 3.58397
34.3542 37.5049 2
35.9149 37.4937 0.33852
35.547 49.8838 0.0143861
34.4252 47.1465 0.117363
34.389 39.1188 0.329137
33.3791 44.9937 0.155565
33.0266 42.4931 0.259002
33.0019 40.7954 0.465336
33.3666 48.9454 2
32.6842 39.2683 2
31.9706 41.0903 2
32.5277 46.1663 2
31.8256 43.666 2
31.4922 47.793 3.97961
31.2898 39.3695 3.70678
30.6933 41.8851 3.84401
30.9159 44.7534 3.90121
32.1767 51.0857 -0.0178546
30.1536 49.69 2
28.281 48.0515 3.9603
28.6336 51.5043 0.00906444
26.8205 49.8772 2
25.0799 48.3268 3.96702
25.3263 51.6562 0.04519
23.6908 50.0666 2
22.116 48.6525 3.9712
22.2545 51.7067 0.0482413
20.8412 50.1977 2
19.4294 48.9812 3.97323
17.2097 49.2436 3.97433
17.0506 51.3246 3.96796
18.33 50.231 2
16.5688 53.8047 3.96488
18.0974 52.7065 2
19.528 51.5352 0.0390081
16.0441 56.4336 3.96274
17.5653 55.2807 2
19.0957 54.2373 0.0381447
15.7615 59.1824 3.96723
17.1638 57.8375 2
18.5058 56.6766 0.0365752
15.7929 62.1121 3.96988
17.1468 60.5149 2
18.3869 59.0725 0.0313925
16.0907 65.2986 3.98557
17.4099 63.4595 2
18.6275 61.7344 0.0282755
16.6661 68.6801 4
17.9417 66.6149 2
19.1293 64.6676 0.0213663
18.75 69.9759 2
19.8876 67.8083 0.011262
20.9142 71.1327 0
20.2305 14.6321 3.97202
21.5946 13.6327 2
20.5339 12.0148 3.97553
21.1456 9.15334 3.97987
22.1908 11.0382 2
23.1017 12.8012 0.0230221
22.0183 6.08224 3.99006
23.0404 8.18059 2
23.9743 10.1763 0.0219798
23.1494 2.85457 4
24.1166 5.14402 2
25.025 7.31499 0.0164445
25.446 1.99012 2
26.2815 4.32853 0.00893105
27.7943 1.27781 0
32.6653 35.7552 3.54807
34.4002 35.8968 2
35.9228 35.8723 0.359754
21.3268 15.8624 2
20.3334 16.997 3.97462
22.1224 16.6658 3.96848
25.3651 13.9245 0.0268158
22.4919 15.0607 0.0196055
24.0443 15.6408 0.0162653
25.4016 16.1042 2
23.2927 16.2705 2
24.2345 18.5275 3.96871
27.1185 21.5917 3.99424
28.3721 15.9825 0.0175689
27.46 18.8709 2
32.0401 33.9618 3.69768
33.0141 34.1992 2
34.5073 34.3394 0.345887
33.3749 33.1232 0.488831
34.275 31.4772 0.287054
35.2557 29.239 0.153492
37.5992 27.5889 0.110697
35.1595 27.6395 2
32.9773 32.4641 2
33.3512 29.9685 2
32.8137 28.3517 3.90714
31.8753 31.3753 3.83052
29.0524 24.5014 3.99521
29.6806 22.018 2
30.2236 19.4059 0.0171996
35.0768 25.4642 0.00470835
32.3771 22.5562 0.00407566
31.9237 25.7844 2
30.0136 27.4577 3.97756
30.8795 37.5042 3.71168
32.5197 37.5066 2
34.3399 37.5088 0.313253
33.3767 48.9464 0.0232832
32.5673 46.1214 0.114043
32.6737 39.2645 0.455762
31.8677 43.6347 0.162333
32.0083 41.0546 0.298284
31.455 47.8122 2
31.2222 39.3941 2
30.6585 41.9064 2
30.8728 44.7918 2
29.6888 46.4027 3.99528
29.8339 39.8307 3.86441
29.3812 43.0002 3.90502
30.1504 49.6657 -0.00238755
28.2744 48.0448 2
26.4752 46.4995 3.98276
26.8217 49.8763 0.0309007
25.0798 48.3249 2
23.3495 46.9188 3.97443
23.6915 50.0683 0.0383363
22.1137 48.6509 2
20.422 47.494 3.97658
20.8433 50.1989 0.0350994
19.4306 48.9796 2
18.0314 48.0804 3.97686
16.4443 48.6024 3.97645
17.2114 49.2424 2
16.124 50.0935 3.97219
15.5838 52.35 3.96769
17.0521 51.3235 2
18.3278 50.2325 0.0310548
14.9856 54.9291 3.96364
16.5705 53.8041 2
18.0986 52.7071 0.0363591
14.4788 57.7152 3.96284
16.0438 56.4338 2
17.5689 55.2801 0.0374136
14.2718 60.6727 3.96829
15.763 59.1831 2
17.1635 57.8368 0.0373446
14.3356 63.8562 3.98135
15.7928 62.1141 2
17.1463 60.5132 0.0329308
14.6715 67.2507 4
16.088 65.2961 2
17.4108 63.4578 0.0277696
16.6661 68.6801 2
17.9439 66.6166 0.0129197
18.75 69.9759 0
18.9495 15.8182 3.97326
20.2311 14.63 2
18.9867 13.1347 3.9749
21.5955 13.6282 0.0235377
20.5327 12.0165 2
19.3457 10.244 3.97767
19.993 7.14715 3.98879
21.143 9.1536 2
22.1929 11.0388 0.0248409
20.9142 3.86727 4
22.0151 6.08331 2
23.0427 8.18165 0.0182565
23.1494 2.85451 2
24.1191 5.14333 0.00955141
25.446 1.99014 0
31.3109 35.6408 3.70321
32.6727 35.7487 2
34.4006 35.8954 0.330416
21.3251 15.8665 0.0168031
22.1242 16.6634 2
20.3351 16.9919 2
19.3053 18.4539 3.95778
21.8123 17.909 3.98137
25.4004 16.1112 0.0171243
23.2903 16.2702 0.0272957
24.2293 18.5453 2
22.3771 19.9716 3.96274
24.7008 21.475 3.98632
26.6649 23.7966 3.97834
27.1234 21.5419 2
27.4625 18.838 0.0193449
30.7454 33.1358 3.85473
32.0062 33.9132 2
33.0115 34.2166 0.460103
33.0508 32.5087 0.268016
33.3765 30.0062 0.154148
35.1531 27.6848 0.103996
32.7805 28.3231 2
31.8203 31.3375 2
30.6072 29.7431 3.93328
28.2723 26.6527 3.99502
29.0402 24.5092 2
29.6841 22.0069 -0.000647337
31.9302 25.8097 -0.00537491
30.0038 27.4345 2
29.3873 37.5048 3.85901
30.827 37.5038 2
32.5122 37.508 0.416033
31.4922 47.793 0.0203895
30.9159 44.7534 0.098786
31.2898 39.3695 0.293221
30.6933 41.8851 0.155986
29.691 46.4003 2
29.7667 39.8462 2
29.3513 43.0415 2
27.9356 44.7269 3.97312
27.5961 40.5645 3.93767
28.281 48.0515 0.0396978
26.4712 46.4975 2
24.6438 45.0369 3.97845
25.0799 48.3268 0.0329765
23.348 46.9188 2
21.4325 45.7654 3.97796
22.116 48.6525 0.0287956
20.4217 47.4925 2
18.7488 46.6292 3.9769
19.4294 48.9812 0.0267747
18.032 48.0791 2
16.6733 47.6267 3.97664
16.4461 48.6013 2
15.468 48.944 3.97569
17.2097 49.2436 0.0256651
16.1264 50.0923 2
14.7009 50.9237 3.97076
13.9607 53.388 3.96583
15.585 52.3493 2
17.0506 51.3246 0.0320418
13.2979 56.1427 3.96307
14.9858 54.9288 2
16.5688 53.8047 0.0351205
12.8562 59.1115 3.96813
14.4815 57.715 2
16.0441 56.4336 0.0372643
12.6818 62.2974 3.97754
14.2726 60.6725 2
15.7615 59.1824 0.0327688
12.7746 65.6939 4
14.3335 63.8527 2
15.7929 62.1121 0.0301204
14.6714 67.2507 2
16.0907 65.2986 0.0144296
16.6661 68.6801 0
17.6983 17.194 3.96794
18.9495 15.8163 2
17.5218 14.4025 3.97188
20.2305 14.6321 0.0279841
18.9859 13.1366 2
17.6417 11.4637 3.97514
20.5339 12.0148 0.0244675
19.3431 10.2452 2
18.0533 8.34038 3.98692
18.75 5.0241 4
19.9895 7.14918 2
21.1456 9.15334 0.020128
20.9142 3.86727 2
22.0183 6.08224 0.00993675
23.1494 2.85457 0
29.8587 35.1932 3.8636
31.2476 35.6187 2
32.6653 35.7552 0.451929
22.1224 16.6658 0.0315163
20.3334 16.997 0.0253761
21.8121 17.9081 2
19.3049 18.45 2
18.1182 20.0062 3.96104
20.9641 19.4436 3.96222
24.2345 18.5275 0.0312923
22.3728 19.977 2
24.705 21.4638 2
22.5255 21.8137 3.98202
24.9358 23.2376 3.97442
25.8697 26.0366 3.97916
26.6635 23.791 2
27.1185 21.5917 0.00575649
29.1331 32.4842 3.90739
30.6871 33.1006 2
32.0401 33.9618 0.302316
31.8753 31.3753 0.169482
32.8137 28.3517 0.0928635
30.5844 29.7365 2
27.5947 29.2393 4.01336
28.2579 26.6619 2
29.0524 24.5014 0.00479238
30.0136 27.4577 0.0224447
27.7205 37.3548 3.91171
29.319 37.4965 2
30.8795 37.5042 0.288315
29.6888 46.4027 0.00472485
29.3812 43.0002 0.0949833
29.8339 39.8307 0.135588
27.9272 44.7739 2
27.5694 40.5526 2
26.0012 43.0534 3.98923
24.857 39.4484 3.97316
26.4752 46.4995 0.017243
24.6332 45.0379 2
22.5463 43.8045 3.97713
23.3495 46.9188 0.0255721
21.4293 45.7662 2
19.4971 44.8664 3.97666
20.422 47.494 0.0234215
18.7489 46.6294 2
17.02 46.1223 3.97656
18.0314 48.0804 0.0231386
16.6747 47.6256 2
15.2278 47.5984 3.97621
16.4443 48.6024 0.0235482
15.4701 48.9429 2
14.0083 49.4888 3.97326
16.124 50.0935 0.0278084
14.7022 50.9229 2
13.0324 51.8312 3.9679
12.202 54.5026 3.96405
13.9609 53.3876 2
15.5838 52.35 0.0323087
11.5426 57.4484 3.96694
13.2985 56.1425 2
14.9856 54.9291 0.0363619
11.1366 60.6237 3.97628
12.8574 59.1108 2
14.4788 57.7152 0.0371606
10.9835 64.0165 4
12.6799 62.2936 2
14.2718 60.6727 0.0317055
12.7745 65.694 2
14.3356 63.8562 0.0186512
14.6715 67.2507 0
16.4721 18.6958 3.96161
17.698 17.1926 2
16.1174 15.8131 3.96614
18.9495 15.8182 0.0267433
17.521 14.4003 2
16.0252 12.8253 3.97225
18.9867 13.1347 0.025101
17.6402 11.4676 2
16.2042 9.6643 3.98546
19.3457 10.244 0.0223348
18.0495 8.34379 2
16.6661 6.31991 4
18.75 5.02404 2
19.993 7.14715 0.0112079
20.9142 3.86727 0
28.2524 34.8352 3.9041
29.7873 35.1648 2
31.3109 35.6408 0.296791
16.8444 21.4419 3.96657
21.8123 17.909 0.0186325
19.3053 18.4539 0.042215
20.9625 19.4413 2
18.1154 20.0041 2
19.9158 21.6556 3.97112
22.3771 19.9716 0.0372552
24.7008 21.475 0.0136821
22.5218 21.8192 2
24.9317 23.2382 2
23.1917 24.6995 3.97339
25.142 28.6292 3.98186
25.8606 26.04 2
26.6649 23.7966 0.0216562
26.985 31.8342 3.97994
29.1015 32.4658 2
30.7454 33.1358 0.14527
30.6072 29.7431 0.0667217
27.606 29.2191 2
28.2723 26.6527 0.00498289
25.5481 36.8549 3.97121
27.7057 37.3647 2
29.3873 37.5048 0.140991
27.9356 44.7269 0.0268833
27.5961 40.5645 0.0623281
25.981 43.0744 2
24.837 39.4536 2
23.746 41.8047 3.98247
22.5766 38.5213 3.97861
24.6438 45.0369 0.021551
22.5459 43.8045 2
20.3599 42.8123 3.97591
21.4325 45.7654 0.0220397
19.4978 44.8669 2
17.4175 44.2989 3.97604
18.7488 46.6292 0.0230986
17.0213 46.1222 2
15.1836 46.0185 3.97621
16.6733 47.6267 0.0233643
15.2297 47.5974 2
13.5362 47.9539 3.9751
15.468 48.944 0.0243077
14.0099 49.488 2
12.2615 50.2128 3.96962
14.7009 50.9237 0.0292407
13.0332 51.8306 2
11.2005 52.8148 3.96515
10.3336 55.7046 3.96658
12.2022 54.5023 2
13.9607 53.388 0.0341685
9.70326 58.8467 3.97563
11.5432 57.4478 2
13.2979 56.1427 0.0369251
9.30605 62.2254 4
11.135 60.6197 2
12.8562 59.1115 0.0318692
10.9835 64.0165 2
12.6818 62.2974 0.0224553
12.7746 65.6939 0
15.2565 20.2351 3.96333
16.4732 18.6956 2
14.7668 17.3325 3.96406
17.6983 17.194 0.0320613
16.1178 15.8115 2
14.4891 14.317 3.96895
17.5218 14.4025 0.0281228
16.0242 12.8223 2
14.4471 11.1162 3.98281
17.6417 11.4637 0.0248633
16.2007 9.66834 2
14.6715 7.74927 4
18.0533 8.34038 0.0130771
16.6661 6.31988 2
18.75 5.0241 0
26.2133 34.337 3.97955
28.233 34.842 2
29.8587 35.1932 0.136405
18.0813 22.4015 3.97312
15.739 22.9863 3.9697
16.8445 21.4416 2
20.9641 19.4436 0.0377754
18.1182 20.0062 0.0389649
19.9132 21.6527 2
20.017 24.4879 3.97197
22.5255 21.8137 0.017978
24.9358 23.2376 0.0255762
23.1869 24.6983 2
22.5037 27.9536 3.97213
24.547 31.3168 3.97899
25.1465 28.6234 2
25.8697 26.0366 0.0208367
26.9638 31.7994 2
29.1331 32.4842 0.092608
27.5947 29.2393 -0.0133586
23.3016 36.2878 3.9831
25.5322 36.8546 2
27.7205 37.3548 0.0882905
26.0012 43.0534 0.0107656
24.857 39.4484 0.0268434
23.7302 41.8058 2
22.5671 38.5191 2
21.4395 40.6195 3.97517
20.8043 37.8033 3.97715
22.5463 43.8045 0.0228666
20.3588 42.8136 2
17.891 42.0402 3.97591
19.4971 44.8664 0.0233379
17.418 44.2994 2
15.2285 44.1337 3.97583
17.02 46.1223 0.0234437
15.1848 46.0181 2
13.2335 46.2434 3.97587
15.2278 47.5984 0.0237854
13.5378 47.9532 2
11.6484 48.5123 3.97142
14.0083 49.4888 0.0267377
12.2628 50.2121 2
10.3304 51.0609 3.96609
13.0324 51.8312 0.0321028
11.2011 52.8143 2
9.24238 53.8856 3.96635
8.3868 56.9805 3.97632
10.3343 55.7037 2
12.202 54.5026 0.0359517
7.74927 60.3285 4
9.70199 58.8425 2
11.5426 57.4484 0.0330556
9.306 62.2255 2
11.1366 60.6237 0.0237201
10.9835 64.0165 0
14.0863 21.7997 3.96603
15.2552 20.2345 2
13.4836 18.9284 3.96386
16.4721 18.6958 0.0383858
14.7679 17.3313 2
13.0343 15.9049 3.97036
16.1174 15.8131 0.0338639
14.4894 14.3144 2
12.7846 12.6911 3.98012
16.0252 12.8253 0.0277504
14.444 11.1219 2
12.7746 9.30605 4
16.2042 9.6643 0.0145404
14.6715 7.74924 2
16.6661 6.31991 0
23.8893 33.8733 3.9824
26.1916 34.3289 2
28.2524 34.8352 0.0959042
17.9463 24.1328 3.9715
18.0885 22.402 2
14.5808 24.5193 3.97141
15.7414 22.9866 2
16.8444 21.4419 0.0334266
19.5162 27.3215 3.97398
19.9158 21.6556 0.0288782
20.0139 24.4877 2
21.8637 30.7886 3.97509
23.1917 24.6995 0.0266081
22.5044 27.9551 2
24.52 31.3126 2
25.142 28.6292 0.0181409
26.985 31.8342 0.0200597
20.9281 35.9619 3.97657
23.3026 36.2887 2
25.5481 36.8549 0.0287887
23.746 41.8047 0.0175314
22.5766 38.5213 0.0213938
21.4444 40.6205 2
20.8047 37.8016 2
18.6439 38.9943 3.97705
20.3599 42.8123 0.024089
17.8903 42.0406 2
15.2142 41.8753 3.97624
17.4175 44.2989 0.02396
15.2288 44.1338 2
12.9956 44.3441 3.9761
15.1836 46.0185 0.0237923
13.2351 46.2427 2
11.1648 46.6996 3.97297
13.5362 47.9539 0.024898
11.65 48.5116 2
9.59954 49.2225 3.96686
12.2615 50.2128 0.0303771
10.3309 51.0603 2
8.27506 52 3.96617
11.2005 52.8148 0.034849
9.24299 53.8845 2
7.19581 55.0318 3.97728
6.31991 58.3339 4
8.38586 56.9765 2
10.3336 55.7046 0.0334236
7.74924 60.3285 2
9.70326 58.8467 0.0243704
9.30605 62.2254 0
13.4517 25.4187 3.97494
12.9885 23.3284 3.96887
14.0857 21.7993 2
12.2898 20.5762 3.96436
15.2565 20.2351 0.0366656
13.4835 18.9274 2
11.6658 17.5792 3.96887
14.7668 17.3325 0.0359435
13.0368 15.9042 2
11.2229 14.3777 3.97595
14.4891 14.317 0.0310521
12.7823 12.6963 2
10.9835 10.9835 4
14.4471 11.1162 0.0171897
12.7745 9.306 2
14.6715 7.74927 0
21.2884 33.4772 3.97582
23.8919 33.8611 2
26.2133 34.337 0.0204489
16.2799 26.4897 3.97321
17.9511 24.1334 2
18.0813 22.4015 0.0268774
14.5805 24.5195 2
15.739 22.9863 0.0302976
18.914 30.2893 3.97514
19.5162 27.3219 2
20.017 24.4879 0.0280337
21.877 30.7894 2
22.5037 27.9536 0.0278729
24.547 31.3168 0.0210051
18.2536 35.9919 3.97761
20.9304 35.9623 2
23.3016 36.2878 0.0169033
21.4395 40.6195 0.0248316
20.8043 37.8033 0.0228546
18.6419 38.9933 2
14.7148 39.1644 3.97712
17.891 42.0402 0.0240922
15.2138 41.875 2
12.6922 42.2426 3.97633
15.2285 44.1337 0.0241685
12.9969 44.3435 2
10.7498 44.7741 3.97459
13.2335 46.2434 0.0241277
11.1669 46.6989 2
8.98581 47.3036 3.96753
11.6484 48.5123 0.0285751
9.59986 49.2219 2
7.44167 50.0339 3.96597
10.3304 51.0609 0.033905
8.2755 51.9989 2
6.13642 53.0074 3.97769
9.24238 53.8856 0.0336525
7.19525 55.0286 2
5.0241 56.25 4
6.31988 58.3339 2
8.3868 56.9805 0.0236764
7.74927 60.3285 0
13.7249 26.8735 3.97541
12.099 24.83 3.97116
13.4507 25.4188 2
11.2155 22.26 3.96546
12.989 23.3286 2
14.0863 21.7997 0.0339663
12.2905 20.5757 2
10.3983 19.3289 3.96751
13.4836 18.9284 0.0361399
11.6681 17.5791 2
9.76341 16.1607 3.97599
13.0343 15.9049 0.0296405
11.2212 14.3831 2
9.30607 12.7746 4
12.7846 12.6911 0.0198756
10.9835 10.9835 2
12.7746 9.30605 0
18.4174 33.1788 3.97646
21.2885 33.48 2
23.8893 33.8733 0.0176024
15.9037 29.7224 3.97546
16.2804 26.49 2
17.9463 24.1328 0.0284977
14.5808 24.5193 0.0285864
18.9126 30.2895 2
19.5162 27.3215 0.0260167
21.8637 30.7886 0.0249071
15.3422 36.035 3.97724
18.253 35.9924 2
20.9281 35.9619 0.0234276
12.9238 37.8298 3.97722
18.6439 38.9943 0.0229505
14.7143 39.1643 2
12.196 40.1237 3.97689
15.2142 41.8753 0.0237604
12.6933 42.2422 2
10.3478 42.7568 3.97558
12.9956 44.3441 0.0239017
10.7516 44.7735 2
8.4631 45.3082 3.96841
11.1648 46.6996 0.0270266
8.98578 47.3031 2
6.73242 47.9993 3.96608
9.59954 49.2225 0.0331355
7.442 50.0329 2
5.21314 50.9109 3.97742
8.27506 52 0.0338315
6.13617 53.0052 2
3.86727 54.0858 4
7.19581 55.0318 0.022724
5.02404 56.25 2
6.31991 58.3339 0
13.2101 29.0872 3.97533
11.5445 26.527 3.97175
13.7241 26.8737 2
10.2735 23.9892 3.96688
12.1007 24.8305 2
13.4517 25.4187 0.0250641
9.25094 21.1435 3.96678
11.2153 22.2598 2
12.9885 23.3284 0.0311301
12.2898 20.5762 0.0356409
10.4002 19.3291 2
8.41933 18.0314 3.97591
11.6658 17.5792 0.0311324
9.76223 16.1658 2
7.74928 14.6715 4
11.2229 14.3777 0.0240467
9.30602 12.7745 2
10.9835 10.9835 0
14.8913 32.9154 3.97678
18.416 33.178 2
21.2884 33.4772 0.0241823
15.9047 29.7228 2
16.2799 26.4897 0.0267879
18.914 30.2893 0.0248553
13.2202 36.2215 3.97688
15.3413 36.0347 2
18.2536 35.9919 0.0223859
12.9245 37.8295 2
11.53 38.3075 3.97719
14.7148 39.1644 0.0228843
12.1979 40.1235 2
9.92569 40.7418 3.97621
12.6922 42.2426 0.0236732
10.3507 42.7561 2
8.00986 43.2603 3.96891
10.7498 44.7741 0.0254096
8.46434 45.3076 2
6.13818 45.9045 3.96627
8.98581 47.3036 0.0324719
6.73277 47.9985 2
4.42445 48.7515 3.97703
7.44167 50.0339 0.0340285
5.2131 50.9095 2
2.85457 51.8506 4
6.13642 53.0074 0.0223128
3.86727 54.0858 2
5.0241 56.25 0
12.3415 31.2987 3.97627
10.9618 28.4498 3.97221
13.2105 29.0876 2
9.49092 25.8168 3.96761
11.5459 26.5274 2
13.7249 26.8735 0.0245934
8.2376 23.0259 3.96653
10.2739 23.9893 2
12.099 24.83 0.0288391
7.20156 19.9804 3.97689
9.25238 21.1439 2
11.2155 22.26 0.0345374
10.3983 19.3289 0.0324887
8.41876 18.0359 2
6.31992 16.6661 4
9.76341 16.1607 0.024014
7.74926 14.6714 2
9.30607 12.7746 0
12.3792 34.3217 3.97674
14.8911 32.9161 2
18.4174 33.1788 0.0235391
15.9037 29.7224 0.0245395
11.0695 36.6196 3.97693
13.2205 36.2214 2
15.3422 36.035 0.0227554
12.9238 37.8298 0.0227775
11.5323 38.3071 2
9.50905 38.8194 3.97644
12.196 40.1237 0.0231137
9.92841 40.7414 2
7.61811 41.2052 3.96912
10.3478 42.7568 0.024416
8.00971 43.2599 2
5.64976 43.7675 3.96655
8.4631 45.3082 0.0315886
6.13845 45.9038 2
3.76987 46.537 3.97689
6.73242 47.9993 0.0339201
4.42467 48.7507 2
1.99014 49.554 4
5.21314 50.9109 0.0225806
2.85451 51.8506 2
3.86727 54.0858 0
11.1595 32.9481 3.97693
10.2701 30.4101 3.97315
12.3427 31.2992 2
8.80075 27.748 3.96799
10.9634 28.4503 2
13.2101 29.0872 0.0246654
7.36268 24.9838 3.96629
9.491 25.8169 2
11.5445 26.527 0.0282509
6.11855 22.0029 3.97777
8.2385 23.0264 2
10.2735 23.9892 0.0331156
5.02411 18.75 4
7.20141 19.9836 2
9.25094 21.1435 0.0332161
8.41933 18.0314 0.0240941
6.3199 16.6661 2
7.74928 14.6715 0
10.661 35.0151 3.97663
12.3799 34.322 2
14.8913 32.9154 0.0232195
9.17063 36.9878 3.97629
11.072 36.6195 2
13.2202 36.2215 0.0231195
11.53 38.3075 0.0228083
9.51175 38.8191 2
7.29377 39.1794 3.96955
9.92569 40.7418 0.0237885
7.61884 41.2048 2
5.26448 41.6134 3.96696
8.00986 43.2603 0.0310944
5.65001 43.7669 2
3.24745 44.2817 3.97718
6.13818 45.9045 0.033727
3.77017 46.5364 2
1.27781 47.2057 4
4.42445 48.7515 0.0229742
1.99012 49.554 2
2.85457 51.8506 0
10.2984 33.9009 3.97608
9.5485 32.1745 3.97418
11.1618 32.9486 2
8.14388 29.7082 3.96845
10.2722 30.4105 2
12.3415 31.2987 0.0237337
6.60571 27.0094 3.96639
8.80086 27.7482 2
10.9618 28.4498 0.0277878
5.17388 24.0951 3.9777
7.36321 24.9843 2
9.49092 25.8168 0.0323853
3.86728 20.9142 4
6.11861 22.0047 2
8.2376 23.0259 0.0334728
5.02406 18.75 2
7.20156 19.9804 0.0231137
6.31992 16.6661 0
8.98889 35.2879 3.97618
10.6637 35.0151 2
12.3792 34.3217 0.0232592
7.07011 37.2063 3.96973
9.17323 36.9878 2
11.0695 36.6196 0.0230719
9.50905 38.8194 0.0235648
7.29504 39.1791 2
4.99186 39.4672 3.96734
7.61811 41.2052 0.0308762
5.26511 41.613 2
2.85771 42.002 3.97755
5.64976 43.7675 0.0334532
3.24762 44.2812 2
0.720592 44.8159 4
3.76987 46.537 0.0231116
1.27778 47.2057 2
1.99014 49.554 0
9.03261 33.7113 3.97582
10.3015 33.9012 2
7.57463 31.6184 3.969
9.55107 32.1749 2
11.1595 32.9481 0.023072
5.95028 29.0703 3.96671
8.14391 29.7084 2
10.2701 30.4101 0.0268488
4.36135 26.2474 3.9774
6.60605 27.0098 2
8.80075 27.748 0.0320136
2.85458 23.1494 4
5.17407 24.0959 2
7.36268 24.9838 0.0337089
3.86728 20.9142 2
6.11855 22.0029 0.0222319
5.02411 18.75 0
7.01789 35.3092 3.96975
8.99143 35.288 2
10.661 35.0151 0.023368
4.84198 37.3399 3.96767
7.07166 37.2061 2
9.17063 36.9878 0.023711
7.29377 39.1794 0.0304515
4.99249 39.4669 2
2.60565 39.7136 3.97775
5.26448 41.6134 0.0330442
2.85819 42.0017 2
0.320823 42.3947 4
3.24745 44.2817 0.0228161
0.720551 44.8159 2
1.27781 47.2057 0
7.18273 33.467 3.96961
9.035 33.7116 2
10.2984 33.9009 0.0239246
5.42068 31.1342 3.96719
7.57514 31.6186 2
9.5485 32.1745 0.0258198
3.68281 28.4434 3.97729
5.95061 29.0708 2
8.14388 29.7082 0.031548
1.99015 25.446 4
4.36162 26.2477 2
6.60571 27.0094 0.033608
2.85453 23.1494 2
5.17388 24.0951 0.0222974
3.86728 20.9142 0
4.8563 35.2519 3.96759
7.01866 35.3092 2
8.98889 35.2879 0.023823
2.49709 37.4282 3.97853
4.8421 37.34 2
7.07011 37.2063 0.0302713
4.99186 39.4672 0.0326628
2.60625 39.7139 2
0.080333 39.9526 4
2.85771 42.002 0.0224511
0.320817 42.3947 2
0.720592 44.8159 0
5.04968 33.1907 3.96759
7.18348 33.4671 2
9.03261 33.7113 0.024179
3.14692 30.6662 3.97757
5.421 31.1346 2
7.57463 31.6184 0.030995
1.27793 27.7943 4
3.6832 28.4437 2
5.95028 29.0703 0.033288
1.99013 25.446 2
4.36135 26.2474 0.0225988
2.85458 23.1494 0
2.54919 35.1589 3.97824
4.85704 35.2522 2
7.01789 35.3092 0.0302484
0 37.5 4
2.49721 37.4286 2
4.84198 37.3399 0.0323297
2.60565 39.7136 0.0222512
0.0802903 39.9526 2
0.320823 42.3947 0
2.76683 32.9057 3.97838
5.04997 33.1911 2
7.18273 33.467 0.0303903
0.721173 30.1842 4
3.14733 30.6666 2
5.42068 31.1342 0.0328133
1.27779 27.7943 2
3.68281 28.4434 0.0227123
1.99015 25.446 0
0.0806499 35.0474 4
2.54988 35.1593 2
4.8563 35.2519 0.032409
0 37.5 2
2.49709 37.4282 0.0214742
0.080333 39.9526 0
0.32156 32.6054 4
2.76705 32.9063 2
5.04968 33.1907 0.0324126
0.72056 30.1841 2
3.14692 30.6662 0.0224314
1.27793 27.7943 0
0.0802889 35.0474 2
2.54919 35.1589 0.0217612
0 37.5 0
0.320817 32.6053 2
2.76683 32.9057 0.0216177
0.721173 30.1842 0
0.0806499 35.0474 0
0.32156 32.6054 0
CELLS 1910 17190
8 18 6 25 56 2 0 5 16
8 57 23 6 18 17 4 0 2
8 78 36 9 29 31 11 1 7
8 31 11 1 7 79 37 10 30
8 110 57 18 50 48 17 2 14
8 50 18 56 111 14 2 16 49
8 116 62 22 55 52 20 3 15
8 56 25 67 118 16 5 24 53
8 119 63 23 57 54 21 4 17
8 55 22 63 119 15 3 21 54
8 58 26 68 121 18 6 25 56
8 122 65 26 58 57 23 6 18
8 73 31 7 27 142 79 30 71
8 143 78 29 72 73 31 7 27
8 83 147 76 34 32 74 28 8
8 84 148 78 36 33 75 29 9
8 76 34 8 28 148 84 33 75
8 37 79 150 86 10 30 77 35
8 151 87 36 78 80 38 11 31
8 80 38 11 31 152 88 37 79
8 175 100 42 94 96 44 12 40
8 44 96 176 101 12 40 95 43
8 101 176 98 46 43 95 41 13
8 46 98 178 103 13 41 97 45
8 178 103 45 97 147 83 32 74
8 189 116 55 109 106 52 15 47
8 111 56 118 191 49 16 53 107
8 192 119 57 110 108 54 17 48
8 109 55 119 192 47 15 54 108
8 194 122 58 112 110 57 18 50
8 112 58 121 195 50 18 56 111
8 115 61 19 51 197 124 59 113
8 115 61 125 198 51 19 60 114
8 198 125 62 116 114 60 20 52
8 200 127 64 120 116 62 22 55
8 118 67 132 202 53 24 66 117
8 121 68 133 203 56 25 67 118
8 120 64 128 204 55 22 63 119
8 204 128 65 122 119 63 23 57
8 206 134 68 121 123 69 26 58
8 123 69 26 58 207 131 65 122
8 226 147 74 138 140 76 28 70
8 229 148 75 139 143 78 29 72
8 140 76 28 70 229 148 75 139
8 142 79 30 71 231 150 77 141
8 144 80 31 73 232 152 79 142
8 233 151 78 143 144 80 31 73
8 150 86 35 77 235 154 81 145
8 235 154 81 145 146 82 39 91
8 146 82 39 91 236 155 90 165
8 238 157 83 147 149 85 34 76
8 239 158 84 148 151 87 36 78
8 149 85 34 76 239 158 84 148
8 152 88 37 79 241 160 86 150
8 242 161 87 151 153 89 38 80
8 153 89 38 80 243 162 88 152
8 171 98 41 92 265 178 97 169
8 265 178 97 169 226 147 74 138
8 172 96 40 93 266 176 95 170
8 266 176 95 170 171 98 41 92
8 269 175 94 173 172 96 40 93
8 271 180 99 174 175 100 42 94
8 197 124 59 113 271 180 99 174
8 272 181 100 175 177 102 44 96
8 273 182 101 176 179 104 46 98
8 177 102 44 96 273 182 101 176
8 179 104 46 98 275 184 103 178
8 275 184 103 178 238 157 83 147
8 188 115 51 105 283 197 113 186
8 188 115 198 284 105 51 114 187
8 284 198 116 189 187 114 52 106
8 286 200 120 193 189 116 55 109
8 191 118 202 288 107 53 117 190
8 195 121 203 289 111 56 118 191
8 193 120 204 290 109 55 119 192
8 290 204 122 194 192 119 57 110
8 196 123 58 112 292 207 122 194
8 293 206 121 195 196 123 58 112
8 199 126 61 115 297 211 124 197
8 298 212 127 200 198 125 62 116
8 199 126 212 298 115 61 125 198
8 205 129 64 120 300 214 127 200
8 301 217 130 201 202 132 66 117
8 209 136 168 264 301 217 130 201
8 302 219 132 202 203 133 67 118
8 303 220 133 203 206 134 68 121
8 205 129 215 304 120 64 128 204
8 304 215 131 207 204 128 65 122
8 306 221 134 206 208 135 69 123
8 208 135 69 123 307 218 131 207
8 210 137 167 263 309 223 136 209
8 328 238 147 226 230 149 76 140
8 228 146 91 166 329 236 165 260
8 231 150 77 141 330 235 145 227
8 330 235 145 227 228 146 91 166
8 332 239 148 229 233 151 78 143
8 230 149 76 140 332 239 148 229
8 232 152 79 142 334 241 150 231
8 234 153 80 144 335 243 152 232
8 336 242 151 233 234 153 80 144
8 236 155 90 165 338 245 164 259
8 241 160 86 150 339 246 154 235
8 339 246 154 235 237 156 82 146
8 237 156 82 146 340 247 155 236
8 342 249 157 238 240 159 85 149
8 343 250 158 239 242 161 87 151
8 240 159 85 149 343 250 158 239
8 243 162 88 152 345 252 160 241
8 244 163 253 346 153 89 161 242
8 244 163 89 153 347 254 162 243
8 311 224 261 371 210 137 167 263
8 263 167 262 372 209 136 168 264
8 267 179 98 171 375 275 178 265
8 375 275 178 265 328 238 147 226
8 376 273 176 266 267 179 98 171
8 268 177 96 172 376 273 176 266
8 379 272 175 269 268 177 96 172
8 380 271 174 270 269 175 94 173
8 283 197 113 186 380 271 174 270
8 381 277 180 271 272 181 100 175
8 297 211 124 197 381 277 180 271
8 382 278 181 272 274 183 102 177
8 274 183 102 177 383 279 182 273
8 383 279 182 273 276 185 104 179
8 385 281 184 275 342 249 157 238
8 276 185 104 179 385 281 184 275
8 285 199 115 188 393 297 197 283
8 394 298 200 286 284 198 116 189
8 285 199 298 394 188 115 198 284
8 291 205 120 193 396 300 200 286
8 397 301 201 287 288 202 117 190
8 295 209 264 374 397 301 201 287
8 398 302 202 288 289 203 118 191
8 399 303 203 289 293 206 121 195
8 291 205 304 400 193 120 204 290
8 400 304 207 292 290 204 122 194
8 294 208 123 196 402 307 207 292
8 403 306 206 293 294 208 123 196
8 296 210 263 373 405 309 209 295
8 408 312 213 299 297 211 126 199
8 299 213 313 409 199 126 212 298
8 409 313 214 300 298 212 127 200
8 305 216 129 205 411 315 214 300
8 412 318 217 301 302 219 132 202
8 309 223 136 209 412 318 217 301
8 413 320 219 302 303 220 133 203
8 306 221 321 414 206 134 220 303
8 307 218 131 207 415 316 215 304
8 305 216 316 415 205 129 215 304
8 417 322 221 306 308 222 135 208
8 308 222 135 208 418 319 218 307
8 310 225 137 210 420 325 223 309
8 423 326 224 311 310 225 137 210
8 329 236 165 260 441 338 259 368
8 442 342 238 328 333 240 149 230
8 331 237 146 228 443 340 236 329
8 334 241 150 231 444 339 235 330
8 444 339 235 330 331 237 146 228
8 446 343 239 332 336 242 151 233
8 333 240 149 230 446 343 239 332
8 335 243 152 232 448 345 241 334
8 337 244 153 234 449 347 243 335
8 337 244 346 450 234 153 242 336
8 338 245 164 259 452 349 258 367
8 340 247 155 236 453 350 245 338
8 345 252 160 241 454 351 246 339
8 454 351 246 339 341 248 156 237
8 341 248 156 237 455 352 247 340
8 240 159 251 344 342 249 354 457
8 242 161 253 346 343 250 355 458
8 343 250 355 458 240 159 251 344
8 347 254 162 243 460 357 252 345
8 348 255 358 461 244 163 253 346
8 348 255 163 244 462 359 254 347
8 473 360 257 365 363 256 364 482
8 452 349 258 367 365 257 366 485
8 422 324 369 488 311 224 261 371
8 371 261 370 490 263 167 262 372
8 407 311 371 491 296 210 263 373
8 373 263 372 492 295 209 264 374
8 493 385 275 375 442 342 238 328
8 377 276 179 267 493 385 275 375
8 378 274 177 268 494 383 273 376
8 494 383 273 376 377 276 179 267
8 497 382 272 379 378 274 177 268
8 498 381 271 380 379 272 175 269
8 393 297 197 283 498 381 271 380
8 499 387 277 381 382 278 181 272
8 408 312 211 297 499 387 277 381
8 500 388 278 382 384 280 183 274
8 501 389 279 383 386 282 185 276
8 384 280 183 274 501 389 279 383
8 386 282 185 276 503 391 281 385
8 503 391 281 385 457 354 249 342
8 511 408 299 395 393 297 199 285
8 395 299 409 512 285 199 298 394
8 512 409 300 396 394 298 200 286
8 401 305 205 291 514 411 300 396
8 515 412 301 397 398 302 202 288
8 405 309 209 295 515 412 301 397
8 516 413 302 398 399 303 203 289
8 403 306 414 517 293 206 303 399
8 402 307 207 292 518 415 304 400
8 401 305 415 518 291 205 304 400
8 404 308 208 294 520 418 307 402
8 521 417 306 403 404 308 208 294
8 406 310 210 296 523 420 309 405
8 526 423 311 407 406 310 210 296
8 410 314 213 299 527 424 312 408
8 528 425 315 411 409 313 214 300
8 410 314 425 528 299 213 313 409
8 416 317 216 305 530 427 315 411
8 531 430 318 412 413 320 219 302
8 420 325 223 309 531 430 318 412
8 532 432 320 413 414 321 220 303
8 417 322 433 533 306 221 321 414
8 418 319 218 307 534 428 316 415
8 416 317 428 534 305 216 316 415
8 419 323 434 536 308 222 322 417
8 419 323 222 308 537 431 319 418
8 421 327 225 310 539 438 325 420
8 421 327 439 541 310 225 326 423
8 543 437 324 422 423 326 224 311
8 441 338 259 368 559 452 367 486
8 443 340 236 329 560 453 338 441
8 333 240 344 447 442 342 457 561
8 445 341 237 331 562 455 340 443
8 448 345 241 334 563 454 339 444
8 563 454 339 444 445 341 237 331
8 336 242 346 450 446 343 458 565
8 446 343 458 565 333 240 344 447
8 449 347 243 335 567 460 345 448
8 451 348 244 337 568 462 347 449
8 451 348 461 569 337 244 346 450
8 570 463 349 452 473 360 257 365
8 453 350 245 338 570 463 349 452
8 455 352 247 340 571 464 350 453
8 460 357 252 345 572 465 351 454
8 572 465 351 454 456 353 248 341
8 456 353 248 341 573 466 352 455
8 344 251 356 459 457 354 468 575
8 458 355 469 576 344 251 356 459
8 346 253 358 461 458 355 469 576
8 462 359 254 347 578 471 357 460
8 348 255 359 462 461 358 472 579
8 591 474 360 473 475 361 256 363
8 475 361 256 363 594 477 362 479
8 363 256 364 482 479 362 480 603
8 590 473 365 484 481 363 482 605
8 482 364 257 365 606 483 366 485
8 559 452 367 486 484 365 485 607
8 542 436 487 609 422 324 369 488
8 525 422 488 611 407 311 371 491
8 488 369 489 612 371 261 370 490
8 491 371 490 613 373 263 372 492
8 495 386 276 377 614 503 385 493
8 614 503 385 493 561 457 342 442
8 615 501 383 494 495 386 276 377
8 496 384 274 378 615 501 383 494
8 618 500 382 497 496 384 274 378
8 619 499 381 498 497 382 272 379
8 511 408 297 393 619 499 381 498
8 620 505 387 499 500 388 278 382
8 527 424 312 408 620 505 387 499
8 502 390 506 621 384 280 388 500
8 622 507 389 501 504 392 282 386
8 502 390 280 384 622 507 389 501
8 504 392 282 386 624 509 391 503
8 624 509 391 503 575 468 354 457
8 513 410 299 395 630 527 408 511
8 631 528 411 514 512 409 300 396
8 513 410 528 631 395 299 409 512
8 519 416 305 401 633 530 411 514
8 634 531 412 515 516 413 302 398
8 523 420 309 405 634 531 412 515
8 635 532 413 516 517 414 303 399
8 521 417 533 636 403 306 414 517
8 520 418 307 402 637 534 415 518
8 519 416 534 637 401 305 415 518
8 522 419 308 404 639 537 418 520
8 522 419 536 640 404 308 417 521
8 524 421 310 406 642 539 420 523
8 524 421 541 644 406 310 423 526
8 646 543 422 525 526 423 311 407
8 529 426 314 410 647 544 424 527
8 528 425 545 648 411 315 427 530
8 529 426 545 648 410 314 425 528
8 535 429 317 416 649 546 427 530
8 650 548 430 531 532 432 320 413
8 539 438 325 420 650 548 430 531
8 533 433 550 651 414 321 432 532
8 536 434 551 652 417 322 433 533
8 537 431 319 418 653 547 428 534
8 535 429 547 653 416 317 428 534
8 538 435 552 654 419 323 434 536
8 538 435 323 419 655 549 431 537
8 540 440 327 421 657 556 438 539
8 540 440 557 659 421 327 439 541
8 541 439 555 660 423 326 437 543
8 661 554 436 542 543 437 324 422
8 676 570 452 559 590 473 365 484
8 560 453 338 441 676 570 452 559
8 562 455 340 443 677 571 453 560
8 447 344 459 566 561 457 575 678
8 564 456 341 445 679 573 455 562
8 567 460 345 448 680 572 454 563
8 680 572 454 563 564 456 341 445
8 565 458 576 682 447 344 459 566
8 450 346 461 569 565 458 576 682
8 568 462 347 449 684 578 460 567
8 451 348 462 568 569 461 579 685
8 686 580 463 570 591 474 360 473
8 571 464 350 453 686 580 463 570
8 573 466 352 455 687 581 464 571
8 572 465 582 688 460 357 471 578
8 574 467 582 688 456 353 465 572
8 574 467 353 456 689 583 466 573
8 459 356 470 577 575 468 585 691
8 576 469 586 692 459 356 470 577
8 461 358 472 579 576 469 586 692
8 462 359 471 578 579 472 588 694
8 704 591 473 590 593 475 363 481
8 595 476 592 705 475 361 474 591
8 593 475 363 481 707 594 479 602
8 594 477 362 479 709 598 478 600
8 595 476 361 475 711 597 477 594
8 479 362 480 603 600 478 601 720
8 481 363 482 605 602 479 603 722
8 603 480 364 482 723 604 483 606
8 605 482 365 484 724 606 485 607
8 656 553 608 726 542 436 487 609
8 645 542 609 728 525 422 488 611
8 609 487 610 729 488 369 489 612
8 611 488 612 730 491 371 490 613
8 616 504 386 495 731 624 503 614
8 731 624 503 614 678 575 457 561
8 732 622 501 615 616 504 386 495
8 617 502 384 496 732 622 501 615
8 617 502 621 735 496 384 500 618
8 736 620 499 619 618 500 382 497
8 630 527 408 511 736 620 499 619
8 621 506 626 737 500 388 505 620
8 647 544 424 527 737 626 505 620
8 623 508 627 738 502 390 506 621
8 623 508 390 502 739 628 507 622
8 625 510 628 739 504 392 507 622
8 740 629 509 624 691 585 468 575
8 625 510 392 504 740 629 509 624
8 632 529 410 513 744 647 527 630
8 631 528 648 745 514 411 530 633
8 632 529 648 745 513 410 528 631
8 638 535 416 519 746 649 530 633
8 747 650 531 634 635 532 413 516
8 642 539 420 523 747 650 531 634
8 636 533 651 748 517 414 532 635
8 640 536 652 749 521 417 533 636
8 639 537 418 520 750 653 534 637
8 638 535 653 750 519 416 534 637
8 641 538 419 522 751 655 537 639
8 641 538 654 752 522 419 536 640
8 643 540 421 524 753 657 539 642
8 643 540 659 755 524 421 541 644
8 644 541 660 757 526 423 543 646
8 758 661 542 645 646 543 422 525
8 529 426 544 647 648 545 662 759
8 530 427 545 648 649 546 663 760
8 535 429 546 649 653 547 664 761
8 762 666 548 650 651 550 432 532
8 657 556 438 539 762 666 548 650
8 652 551 668 763 533 433 550 651
8 654 552 669 764 536 434 551 652
8 655 549 431 537 765 665 547 653
8 538 435 549 655 654 552 667 766
8 661 554 671 768 542 436 553 656
8 658 558 440 540 769 674 556 657
8 658 558 675 770 540 440 557 659
8 659 557 673 771 541 439 555 660
8 660 555 672 772 543 437 554 661
8 788 686 570 676 704 591 473 590
8 677 571 453 560 788 686 570 676
8 679 573 455 562 789 687 571 677
8 566 459 577 683 678 575 691 790
8 681 574 456 564 791 689 573 679
8 680 572 688 792 567 460 578 684
8 681 574 688 792 564 456 572 680
8 682 576 692 794 566 459 577 683
8 569 461 579 685 682 576 692 794
8 568 462 578 684 685 579 694 796
8 687 581 464 571 798 696 580 686
8 798 696 580 686 705 592 474 591
8 689 583 466 573 799 697 581 687
8 688 582 698 800 578 471 588 694
8 690 584 698 800 574 467 582 688
8 690 584 467 574 801 699 583 689
8 693 587 701 803 577 470 585 691
8 693 587 470 577 804 702 586 692
8 695 589 702 804 579 472 586 692
8 695 589 472 579 805 703 588 694
8 708 595 705 813 593 475 591 704
8 710 596 706 814 595 476 592 705
8 707 594 479 602 816 709 600 719
8 708 595 475 593 817 711 594 707
8 709 598 478 600 819 715 599 717
8 711 597 477 594 820 714 598 709
8 710 596 476 595 822 713 597 711
8 600 478 601 720 717 599 718 832
8 602 479 603 722 719 600 720 834
8 720 601 480 603 835 721 604 723
8 722 603 482 605 836 723 606 724
8 767 670 725 839 656 553 608 726
8 756 656 726 841 645 542 609 728
8 726 608 727 842 609 487 610 729
8 728 609 729 843 611 488 612 730
8 844 740 624 731 790 691 575 678
8 733 625 504 616 844 740 624 731
8 734 623 502 617 845 739 622 732
8 733 625 739 845 616 504 622 732
8 734 623 738 846 617 502 621 735
8 735 621 737 847 618 500 620 736
8 744 647 527 630 847 737 620 736
8 621 506 627 738 737 626 741 848
8 647 544 626 737 759 662 741 848
8 623 508 628 739 738 627 742 849
8 740 629 585 691 850 743 700 802
8 625 510 629 740 739 628 743 850
8 632 529 647 744 745 648 759 854
8 633 530 648 745 746 649 760 855
8 638 535 649 746 750 653 761 856
8 857 762 650 747 748 651 532 635
8 753 657 539 642 857 762 650 747
8 749 652 763 858 636 533 651 748
8 752 654 764 859 640 536 652 749
8 751 655 537 639 860 765 653 750
8 641 538 655 751 752 654 766 861
8 754 658 540 643 862 769 657 753
8 754 658 770 863 643 540 659 755
8 755 659 771 864 644 541 660 757
8 758 661 768 866 645 542 656 756
8 757 660 772 867 646 543 661 758
8 759 662 773 868 648 545 663 760
8 649 546 663 760 761 664 774 871
8 765 665 547 653 872 775 664 761
8 873 777 666 762 763 668 550 651
8 769 674 556 657 873 777 666 762
8 764 669 779 874 652 551 668 763
8 654 552 667 766 764 669 778 875
8 655 549 665 765 766 667 776 876
8 768 671 782 877 656 553 670 767
8 772 672 783 878 661 554 671 768
8 658 558 674 769 770 675 786 879
8 659 557 675 770 771 673 785 881
8 882 784 672 772 771 673 555 660
8 789 687 571 677 897 798 686 788
8 897 798 686 788 813 705 591 704
8 791 689 573 679 898 799 687 789
8 795 693 803 900 683 577 691 790
8 793 690 574 681 901 801 689 791
8 792 688 800 902 684 578 694 796
8 793 690 800 902 681 574 688 792
8 795 693 577 683 903 804 692 794
8 797 695 804 903 685 579 692 794
8 797 695 579 685 904 805 694 796
8 905 806 697 799 798 696 581 687
8 814 706 806 905 705 592 696 798
8 689 583 697 799 801 699 808 907
8 800 698 809 908 694 588 703 805
8 690 584 699 801 800 698 809 908
8 803 701 810 909 691 585 700 802
8 693 587 702 804 803 701 811 910
8 695 589 703 805 804 702 812 911
8 818 710 814 919 708 595 705 813
8 821 712 815 920 710 596 706 814
8 816 709 600 719 922 819 717 831
8 817 711 594 707 923 820 709 816
8 818 710 595 708 924 822 711 817
8 819 715 599 717 926 827 716 829
8 820 714 598 709 927 826 715 819
8 929 825 713 822 820 714 597 711
8 821 712 596 710 930 824 713 822
8 717 599 718 832 829 716 830 942
8 719 600 720 834 831 717 832 944
8 832 718 601 720 945 833 721 835
8 834 720 603 722 946 835 723 836
8 869 780 838 950 767 670 725 839
8 865 767 839 952 756 656 726 841
8 839 725 840 953 726 608 727 842
8 841 726 842 954 728 609 729 843
8 844 740 691 790 955 850 802 899
8 733 625 740 844 845 739 850 955
8 734 623 739 845 846 738 849 956
8 735 621 738 846 847 737 848 957
8 744 647 737 847 854 759 848 957
8 738 627 742 849 848 741 851 958
8 848 741 851 958 759 662 773 868
8 850 743 700 802 959 852 807 906
8 849 742 628 739 959 852 743 850
8 854 759 868 965 745 648 760 855
8 746 649 760 855 856 761 871 966
8 860 765 653 750 967 872 761 856
8 968 873 762 857 858 763 651 748
8 862 769 657 753 968 873 762 857
8 859 764 874 969 749 652 763 858
8 752 654 766 861 859 764 875 970
8 751 655 765 860 861 766 876 971
8 754 658 769 862 863 770 879 972
8 755 659 770 863 864 771 881 974
8 976 882 772 867 864 771 660 757
8 866 768 877 977 756 656 767 865
8 867 772 878 978 758 661 768 866
8 760 663 773 868 871 774 883 980
8 870 781 837 948 982 890 780 869
8 982 890 780 869 877 782 670 767
8 761 664 774 871 872 775 884 984
8 876 776 665 765 985 885 775 872
8 873 777 668 763 986 887 779 874
8 769 674 777 873 879 786 887 986
8 764 669 778 875 874 779 888 987
8 766 667 776 876 875 778 886 988
8 878 783 892 989 768 671 782 877
8 878 783 672 772 990 893 784 882
8 880 787 675 770 991 896 786 879
8 880 787 895 992 770 675 785 881
8 881 785 894 993 771 673 784 882
8 1006 905 799 898 897 798 687 789
8 919 814 905 1006 813 705 798 897
8 791 689 799 898 901 801 907 1007
8 900 803 909 1009 790 691 802 899
8 795 693 804 903 900 803 910 1010
8 902 800 908 1011 796 694 805 904
8 793 690 801 901 902 800 908 1011
8 797 695 805 904 903 804 911 1012
8 799 697 806 905 907 808 912 1013
8 920 815 912 1013 814 706 806 905
8 802 700 810 909 906 807 913 1014
8 801 699 808 907 908 809 914 1015
8 805 703 809 908 911 812 915 1016
8 803 701 811 910 909 810 916 1017
8 911 812 917 1018 804 702 811 910
8 925 821 920 1030 818 710 814 919
8 928 823 921 1031 821 712 815 920
8 922 819 717 831 1033 926 829 941
8 923 820 709 816 1034 927 819 922
8 1035 929 822 924 923 820 711 817
8 925 821 710 818 1036 930 822 924
8 1038 933 825 929 927 826 714 820
8 926 827 716 829 1039 935 828 939
8 927 826 715 819 1040 934 827 926
8 928 823 712 821 1041 931 824 930
8 1042 932 824 930 929 825 713 822
8 829 716 830 942 939 828 940 1058
8 831 717 832 944 941 829 942 1060
8 942 830 718 832 1061 943 833 945
8 944 832 720 834 1062 945 835 946
8 981 889 947 1064 870 781 837 948
8 948 837 949 1067 869 780 838 950
8 975 869 950 1069 865 767 839 952
8 950 838 951 1070 839 725 840 953
8 952 839 953 1071 841 726 842 954
8 955 850 802 899 1072 959 906 1008
8 956 849 739 845 1072 959 850 955
8 846 738 849 956 957 848 958 1073
8 957 848 958 1073 854 759 868 965
8 849 742 852 959 958 851 961 1076
8 960 853 961 1076 906 807 852 959
8 958 851 961 1076 868 773 883 980
8 960 853 807 906 1077 963 913 1014
8 855 760 868 965 966 871 980 1085
8 856 761 871 966 967 872 984 1086
8 971 876 765 860 1087 985 872 967
8 968 873 763 858 1088 986 874 969
8 862 769 873 968 972 879 986 1088
8 859 764 875 970 969 874 987 1089
8 861 766 876 971 970 875 988 1090
8 973 880 770 863 1091 991 879 972
8 973 880 992 1092 863 770 881 974
8 974 881 993 1093 864 771 882 976
8 979 870 948 1066 1094 982 869 975
8 1094 982 869 975 977 877 767 865
8 978 878 772 867 1095 990 882 976
8 978 878 989 1096 866 768 877 977
8 871 774 883 980 984 884 994 1099
8 983 891 999 1100 870 781 889 981
8 1101 1000 890 982 989 892 782 877
8 983 891 781 870 1101 1000 890 982
8 872 775 884 984 985 885 995 1103
8 876 776 885 985 988 886 996 1104
8 986 887 779 874 1105 998 888 987
8 879 786 887 986 991 896 998 1105
8 875 778 886 988 987 888 997 1106
8 990 893 1002 1107 878 783 892 989
8 1108 1003 893 990 993 894 784 882
8 880 787 896 991 992 895 1005 1109
8 993 894 785 881 1110 1004 895 992
8 898 799 905 1006 1007 907 1013 1120
8 1030 920 1013 1120 919 814 905 1006
8 901 801 907 1007 1011 908 1015 1121
8 899 802 909 1009 1008 906 1014 1122
8 900 803 910 1010 1009 909 1017 1123
8 1012 911 1018 1124 903 804 910 1010
8 904 805 908 1011 1012 911 1016 1125
8 1013 912 1020 1127 907 808 914 1015
8 1031 921 1020 1127 920 815 912 1013
8 1019 918 962 1075 1128 1021 913 1014
8 1128 1021 913 1014 1017 916 810 909
8 1015 914 1022 1129 908 809 915 1016
8 1016 915 1023 1130 911 812 917 1018
8 1018 917 1024 1131 910 811 916 1017
8 1037 928 1031 1148 925 821 920 1030
8 928 823 931 1041 1031 921 1032 1149
8 1033 926 829 941 1151 1039 939 1057
8 1034 927 819 922 1152 1040 926 1033
8 1153 1038 929 1035 1034 927 820 923
8 1154 1042 930 1036 1035 929 822 924
8 1037 928 821 925 1155 1041 930 1036
8 1039 935 828 939 1156 1047 938 1055
8 1157 1043 932 1042 1038 933 825 929
8 1038 933 826 927 1158 1045 934 1040
8 1040 934 827 926 1159 1046 935 1039
8 930 824 932 1042 1041 931 1044 1160
8 1051 936 1048 1165 1175 1052 937 1053
8 1156 1047 938 1055 1053 937 1054 1178
8 939 828 940 1058 1055 938 1056 1181
8 941 829 942 1060 1057 939 1058 1183
8 942 830 943 1061 1058 940 1059 1184
8 1060 942 832 944 1185 1061 945 1062
8 1082 964 1063 1188 981 889 947 1064
8 1097 981 1064 1190 979 870 948 1066
8 1064 947 1065 1191 948 837 949 1067
8 1066 948 1067 1193 975 869 950 1069
8 1067 949 1068 1194 950 838 951 1070
8 1069 950 1070 1195 952 839 953 1071
8 956 849 959 1072 1073 958 1076 1197
8 1074 960 1076 1197 1008 906 959 1072
8 1073 958 1076 1197 965 868 980 1085
8 1074 960 906 1008 1198 1077 1014 1122
8 1133 1026 1079 1199 1019 918 962 1075
8 1077 963 913 1014 1200 1080 962 1075
8 960 853 963 1077 1076 961 1078 1201
8 980 883 961 1076 1099 994 1078 1201
8 1210 1083 964 1082 1100 999 889 981
8 966 871 980 1085 1086 984 1099 1215
8 967 872 984 1086 1087 985 1103 1216
8 971 876 985 1087 1090 988 1104 1217
8 1088 986 874 969 1218 1105 987 1089
8 972 879 986 1088 1091 991 1105 1218
8 970 875 988 1090 1089 987 1106 1219
8 973 880 991 1091 1092 992 1109 1220
8 1093 993 881 974 1221 1110 992 1092
8 1222 1108 990 1095 1093 993 882 976
8 1223 1101 982 1094 1096 989 877 977
8 1098 983 870 979 1223 1101 982 1094
8 1095 990 1107 1224 978 878 989 1096
8 1098 983 1100 1225 979 870 981 1097
8 984 884 994 1099 1103 995 1111 1227
8 1102 1001 1115 1228 983 891 999 1100
8 1101 1000 892 989 1229 1116 1002 1107
8 1102 1001 891 983 1229 1116 1000 1101
8 985 885 995 1103 1104 996 1112 1230
8 988 886 996 1104 1106 997 1113 1231
8 1105 998 888 987 1232 1114 997 1106
8 991 896 998 1105 1109 1005 1114 1232
8 1108 1003 1117 1233 990 893 1002 1107
8 1108 1003 894 993 1233 1117 1004 1110
8 992 895 1005 1109 1110 1004 1118 1234
8 1120 1013 1127 1244 1007 907 1015 1121
8 1148 1031 1127 1244 1030 920 1013 1120
8 1121 1015 1129 1245 1011 908 1016 1125
8 1126 1019 1075 1196 1246 1128 1014 1122
8 1246 1128 1014 1122 1123 1017 909 1009
8 1124 1018 1131 1247 1010 910 1017 1123
8 1125 1016 1130 1248 1012 911 1018 1124
8 1127 1020 1137 1254 1015 914 1022 1129
8 1031 921 1032 1149 1127 1020 1137 1254
8 1134 1027 918 1019 1257 1140 1021 1128
8 1257 1140 1021 1128 1131 1024 916 1017
8 1129 1022 1141 1258 1016 915 1023 1130
8 1130 1023 1142 1259 1018 917 1024 1131
8 1261 1144 1025 1132 1133 1026 1079 1199
8 1255 1138 1025 1132 1135 1028 1144 1261
8 1133 1026 918 1019 1262 1145 1027 1134
8 1136 1029 1139 1256 1263 1146 1028 1135
8 1037 928 1041 1155 1148 1031 1149 1275
8 1041 931 1044 1160 1149 1032 1150 1276
8 1151 1039 939 1057 1278 1156 1055 1180
8 1152 1040 926 1033 1279 1159 1039 1151
8 1153 1038 927 1034 1280 1158 1040 1152
8 1281 1157 1042 1154 1153 1038 929 1035
8 1036 930 1042 1154 1155 1041 1160 1282
8 1283 1164 1046 1159 1156 1047 935 1039
8 1165 1048 1164 1283 1053 937 1047 1156
8 1157 1043 933 1038 1284 1161 1045 1158
8 1157 1043 1161 1284 1042 932 1044 1160
8 1040 934 1046 1159 1158 1045 1163 1285
8 1166 1049 1167 1292 1051 936 1048 1165
8 1166 1049 936 1051 1293 1168 1050 1172
8 1051 936 1052 1175 1172 1050 1173 1306
8 1174 1051 1165 1290 1308 1175 1053 1177
8 1053 937 1054 1178 1175 1052 1176 1309
8 1278 1156 1055 1180 1177 1053 1178 1311
8 1055 938 1056 1181 1178 1054 1179 1312
8 1057 939 1058 1183 1180 1055 1181 1314
8 1058 940 1059 1184 1181 1056 1182 1315
8 1060 942 1061 1185 1183 1058 1184 1316
8 1208 1081 1187 1321 1082 964 1063 1188
8 1209 1082 1188 1322 1097 981 1064 1190
8 1188 1063 1189 1323 1064 947 1065 1191
8 1190 1064 1191 1325 1066 948 1067 1193
8 1191 1065 1192 1326 1067 949 1068 1194
8 1067 1193 1069 950 1194 1327 1195 1070
8 1250 1133 1199 1330 1126 1019 1075 1196
8 1198 1077 1014 1122 1331 1200 1075 1196
8 1074 960 1077 1198 1197 1076 1201 1332
8 1085 980 1076 1197 1215 1099 1201 1332
8 1199 1079 1203 1333 1075 962 1080 1200
8 1132 1025 1119 1243 1199 1079 1203 1333
8 1201 1078 963 1077 1334 1202 1080 1200
8 1099 994 1078 1201 1227 1111 1202 1334
8 1343 1207 1081 1208 1210 1083 964 1082
8 1214 1084 1186 1319 1343 1207 1081 1208
8 1345 1210 1082 1209 1225 1100 981 1097
8 1346 1211 1083 1210 1228 1115 999 1100
8 1086 984 1099 1215 1216 1103 1227 1352
8 1087 985 1103 1216 1217 1104 1230 1353
8 1090 988 1104 1217 1219 1106 1231 1354
8 1218 1105 987 1089 1355 1232 1106 1219
8 1091 991 1105 1218 1220 1109 1232 1355
8 1092 992 1109 1220 1221 1110 1234 1356
8 1222 1108 1233 1357 1095 990 1107 1224
8 1222 1108 993 1093 1357 1233 1110 1221
8 1223 1101 989 1096 1358 1229 1107 1224
8 1226 1102 983 1098 1358 1229 1101 1223
8 1226 1102 1228 1359 1098 983 1100 1225
8 1103 995 1111 1227 1230 1112 1235 1360
8 1107 1002 1117 1233 1229 1116 1240 1362
8 1102 1001 1116 1229 1228 1115 1240 1362
8 1104 996 1112 1230 1231 1113 1236 1363
8 1364 1237 1114 1232 1231 1113 997 1106
8 1109 1005 1114 1232 1234 1118 1238 1365
8 1110 1004 1118 1234 1233 1117 1241 1366
8 1242 1374 1255 1138 1119 1243 1132 1025
8 1244 1127 1254 1376 1121 1015 1129 1245
8 1148 1031 1149 1275 1244 1127 1254 1376
8 1245 1129 1258 1377 1125 1016 1130 1248
8 1251 1134 1019 1126 1378 1257 1128 1246
8 1378 1257 1128 1246 1247 1131 1017 1123
8 1248 1130 1259 1379 1124 1018 1131 1247
8 1261 1381 1250 1133 1132 1249 1330 1199
8 1255 1380 1252 1135 1132 1249 1381 1261
8 1250 1133 1019 1126 1382 1262 1134 1251
8 1253 1136 1256 1385 1384 1263 1135 1252
8 1254 1137 1265 1387 1129 1022 1141 1258
8 1149 1032 1150 1276 1254 1137 1265 1387
8 1028 1135 1255 1138 1139 1256 1388 1266
8 1136 1029 1147 1264 1256 1139 1267 1389
8 1390 1268 1140 1257 1259 1142 1024 1131
8 1260 1143 1027 1134 1390 1268 1140 1257
8 1258 1141 1269 1391 1130 1023 1142 1259
8 1262 1145 1027 1134 1393 1271 1143 1260
8 1261 1144 1026 1133 1394 1272 1145 1262
8 1135 1028 1144 1261 1263 1146 1272 1394
8 1136 1029 1146 1263 1264 1147 1273 1395
8 1155 1041 1160 1282 1275 1149 1276 1405
8 1276 1150 1044 1160 1406 1277 1162 1286
8 1408 1283 1159 1279 1278 1156 1039 1151
8 1290 1165 1283 1408 1177 1053 1156 1278
8 1152 1040 1159 1279 1280 1158 1285 1409
8 1281 1157 1038 1153 1410 1284 1158 1280
8 1281 1157 1284 1410 1154 1042 1160 1282
8 1159 1046 1164 1283 1285 1163 1289 1412
8 1292 1167 1289 1412 1165 1048 1164 1283
8 1158 1045 1163 1285 1284 1161 1288 1413
8 1284 1161 1288 1413 1160 1044 1162 1286
8 1291 1166 1292 1418 1174 1051 1165 1290
8 1291 1166 1051 1174 1419 1293 1172 1305
8 1294 1169 1296 1421 1166 1049 1167 1292
8 1293 1168 1050 1172 1422 1295 1171 1303
8 1294 1169 1049 1166 1423 1297 1168 1293
8 1422 1295 1171 1303 1301 1170 1302 1435
8 1172 1050 1173 1306 1303 1171 1304 1438
8 1174 1051 1175 1308 1305 1172 1306 1440
8 1175 1052 1176 1309 1306 1173 1307 1441
8 1177 1053 1178 1311 1308 1175 1309 1443
8 1178 1054 1179 1312 1309 1176 1310 1444
8 1180 1055 1181 1314 1311 1178 1312 1446
8 1056 1181 1312 1179 1182 1315 1447 1313
8 1183 1058 1184 1316 1314 1181 1315 1448
8 1319 1186 1084 1214 1451 1317 1213 1350
8 1319 1186 1318 1453 1208 1081 1187 1321
8 1321 1187 1320 1456 1188 1063 1189 1323
8 1344 1208 1321 1457 1209 1082 1188 1322
8 1322 1188 1323 1458 1190 1064 1191 1325
8 1323 1189 1324 1459 1191 1065 1192 1326
8 1191 1325 1193 1067 1326 1460 1327 1194
8 1242 1374 1243 1119 1328 1462 1335 1204
8 1330 1199 1333 1465 1196 1075 1200 1331
8 1132 1249 1330 1199 1243 1375 1465 1333
8 1332 1201 1077 1198 1466 1334 1200 1331
8 1215 1099 1201 1332 1352 1227 1334 1466
8 1119 1243 1333 1203 1204 1335 1470 1338
8 1333 1203 1338 1470 1200 1080 1202 1334
8 1227 1111 1202 1334 1360 1235 1338 1470
8 1328 1462 1335 1204 1205 1336 1471 1339
8 1337 1206 1340 1472 1464 1329 1205 1336
8 1346 1211 1342 1479 1210 1083 1207 1343
8 1346 1211 1115 1228 1479 1342 1239 1361
8 1348 1212 1084 1214 1479 1342 1207 1343
8 1480 1343 1208 1344 1345 1210 1082 1209
8 1351 1214 1319 1454 1480 1343 1208 1344
8 1481 1346 1210 1345 1359 1228 1100 1225
8 1348 1212 1347 1483 1214 1084 1213 1350
8 1216 1103 1227 1352 1353 1230 1360 1488
8 1217 1104 1230 1353 1354 1231 1363 1489
8 1490 1364 1232 1355 1354 1231 1106 1219
8 1220 1109 1232 1355 1356 1234 1365 1491
8 1221 1110 1234 1356 1357 1233 1366 1492
8 1224 1107 1233 1357 1358 1229 1362 1493
8 1226 1102 1229 1358 1359 1228 1362 1493
8 1230 1112 1235 1360 1363 1236 1367 1496
8 1361 1239 1115 1228 1497 1371 1240 1362
8 1366 1241 1372 1498 1233 1117 1240 1362
8 1364 1237 1113 1231 1499 1368 1236 1363
8 1364 1237 1368 1499 1232 1114 1238 1365
8 1234 1118 1238 1365 1366 1241 1369 1500
8 1507 1373 1242 1374 1388 1266 1138 1255
8 1508 1374 1243 1375 1380 1255 1132 1249
8 1376 1254 1387 1509 1245 1129 1258 1377
8 1275 1149 1276 1405 1376 1254 1387 1509
8 1377 1258 1391 1510 1248 1130 1259 1379
8 1511 1390 1257 1378 1379 1259 1131 1247
8 1383 1260 1134 1251 1511 1390 1257 1378
8 1252 1135 1256 1385 1380 1255 1388 1512
8 1261 1381 1513 1394 1133 1250 1382 1262
8 1135 1252 1384 1263 1261 1381 1513 1394
8 1382 1262 1134 1251 1514 1393 1260 1383
8 1253 1136 1263 1384 1386 1264 1395 1516
8 1253 1136 1264 1386 1385 1256 1389 1517
8 1387 1265 1397 1519 1258 1141 1269 1391
8 1276 1150 1277 1406 1387 1265 1397 1519
8 1256 1139 1267 1389 1388 1266 1398 1520
8 1264 1147 1274 1396 1389 1267 1399 1521
8 1392 1270 1143 1260 1522 1400 1268 1390
8 1390 1268 1142 1259 1522 1400 1269 1391
8 1392 1270 1401 1523 1260 1143 1271 1393
8 1272 1394 1524 1402 1145 1262 1393 1271
8 1395 1273 1146 1263 1524 1402 1272 1394
8 1273 1395 1264 1147 1403 1526 1396 1274
8 1405 1276 1160 1282 1534 1406 1286 1411
8 1414 1287 1407 1535 1286 1162 1277 1406
8 1279 1159 1283 1408 1409 1285 1412 1537
8 1418 1292 1412 1537 1290 1165 1283 1408
8 1280 1158 1285 1409 1410 1284 1413 1538
8 1410 1284 1413 1538 1282 1160 1286 1411
8 1285 1163 1289 1412 1413 1288 1417 1540
8 1421 1296 1417 1540 1292 1167 1289 1412
8 1414 1287 1162 1286 1541 1416 1288 1413
8 1420 1294 1421 1545 1291 1166 1292 1418
8 1419 1293 1172 1305 1546 1422 1303 1437
8 1420 1294 1166 1291 1547 1423 1293 1419
8 1294 1169 1297 1423 1421 1296 1425 1548
8 1423 1297 1168 1293 1549 1424 1295 1422
8 1301 1170 1298 1427 1422 1295 1424 1549
8 1432 1300 1428 1554 1301 1170 1298 1427
8 1431 1299 1428 1554 1560 1430 1300 1432
8 1563 1433 1300 1432 1435 1302 1170 1301
8 1546 1422 1303 1437 1434 1301 1435 1565
8 1303 1171 1304 1438 1435 1302 1436 1566
8 1305 1172 1306 1440 1437 1303 1438 1568
8 1306 1173 1307 1441 1438 1304 1439 1569
8 1308 1175 1309 1443 1440 1306 1441 1571
8 1309 1176 1310 1444 1441 1307 1442 1572
8 1311 1178 1312 1446 1443 1309 1444 1574
8 1179 1312 1444 1310 1313 1447 1575 1445
8 1314 1181 1315 1448 1446 1312 1447 1576
8 1350 1213 1349 1486 1451 1317 1449 1579
8 1451 1317 1450 1581 1319 1186 1318 1453
8 1454 1319 1214 1351 1582 1451 1350 1487
8 1453 1318 1452 1584 1321 1187 1320 1456
8 1454 1319 1453 1585 1344 1208 1321 1457
8 1456 1320 1455 1586 1323 1189 1324 1459
8 1457 1321 1456 1587 1322 1188 1323 1458
8 1458 1323 1459 1588 1325 1191 1326 1460
8 1205 1336 1464 1329 1328 1462 1590 1461
8 1507 1373 1461 1590 1374 1242 1328 1462
8 1508 1374 1462 1591 1375 1243 1335 1467
8 1337 1206 1329 1464 1473 1341 1463 1594
8 1375 1243 1335 1467 1465 1333 1470 1596
8 1465 1333 1470 1596 1331 1200 1334 1466
8 1352 1227 1334 1466 1488 1360 1470 1596
8 1591 1462 1336 1468 1467 1335 1471 1597
8 1469 1337 1472 1598 1595 1464 1336 1468
8 1471 1339 1474 1600 1335 1204 1338 1470
8 1600 1474 1367 1496 1470 1338 1235 1360
8 1336 1205 1340 1472 1471 1339 1475 1601
8 1337 1206 1341 1473 1472 1340 1476 1602
8 1495 1370 1478 1609 1361 1239 1342 1479
8 1348 1212 1342 1479 1483 1347 1478 1609
8 1481 1346 1479 1610 1345 1210 1343 1480
8 1481 1346 1228 1359 1610 1479 1361 1494
8 1484 1348 1214 1351 1610 1479 1343 1480
8 1483 1347 1482 1612 1350 1213 1349 1486
8 1484 1348 1483 1613 1351 1214 1350 1487
8 1353 1230 1360 1488 1489 1363 1496 1616
8 1490 1364 1231 1354 1617 1499 1363 1489
8 1490 1364 1499 1617 1355 1232 1365 1491
8 1356 1234 1365 1491 1492 1366 1500 1619
8 1492 1366 1498 1620 1357 1233 1362 1493
8 1494 1361 1228 1359 1621 1497 1362 1493
8 1495 1370 1239 1361 1622 1504 1371 1497
8 1363 1236 1367 1496 1499 1368 1501 1623
8 1497 1371 1240 1362 1624 1505 1372 1498
8 1625 1503 1372 1498 1500 1369 1241 1366
8 1365 1238 1368 1499 1500 1369 1502 1626
8 1520 1398 1506 1633 1388 1266 1373 1507
8 1634 1507 1374 1508 1512 1388 1255 1380
8 1509 1387 1519 1635 1377 1258 1391 1510
8 1405 1276 1406 1534 1509 1387 1519 1635
8 1515 1392 1260 1383 1636 1522 1390 1511
8 1511 1390 1259 1379 1636 1522 1391 1510
8 1385 1256 1389 1517 1512 1388 1520 1637
8 1513 1394 1262 1382 1638 1524 1393 1514
8 1395 1516 1638 1524 1263 1384 1513 1394
8 1515 1392 1523 1639 1383 1260 1393 1514
8 1516 1395 1526 1640 1386 1264 1396 1518
8 1386 1264 1396 1518 1517 1389 1521 1641
8 1519 1397 1527 1643 1391 1269 1400 1522
8 1535 1407 1527 1643 1406 1277 1397 1519
8 1389 1267 1399 1521 1520 1398 1528 1644
8 1645 1529 1399 1521 1525 1404 1274 1396
8 1392 1270 1400 1522 1523 1401 1531 1646
8 1524 1402 1271 1393 1648 1532 1401 1523
8 1403 1526 1648 1532 1273 1395 1524 1402
8 1525 1404 1274 1396 1649 1533 1403 1526
8 1539 1414 1535 1657 1411 1286 1406 1534
8 1542 1415 1536 1658 1414 1287 1407 1535
8 1409 1285 1412 1537 1538 1413 1540 1660
8 1545 1421 1540 1660 1418 1292 1412 1537
8 1539 1414 1286 1411 1661 1541 1413 1538
8 1540 1417 1544 1663 1413 1288 1416 1541
8 1421 1296 1425 1548 1540 1417 1544 1663
8 1542 1415 1287 1414 1664 1543 1416 1541
8 1420 1294 1423 1547 1545 1421 1548 1666
8 1547 1423 1293 1419 1667 1549 1422 1546
8 1434 1301 1427 1553 1546 1422 1549 1667
8 1423 1297 1424 1549 1548 1425 1550 1668
8 1551 1426 1550 1668 1427 1298 1424 1549
8 1551 1426 1298 1427 1671 1552 1428 1554
8 1562 1432 1554 1674 1434 1301 1427 1553
8 1431 1299 1429 1558 1554 1428 1555 1675
8 1431 1299 1430 1560 1558 1429 1557 1680
8 1560 1430 1300 1432 1683 1559 1433 1563
8 1561 1431 1554 1674 1684 1560 1432 1562
8 1685 1563 1432 1562 1565 1435 1301 1434
8 1435 1302 1436 1566 1563 1433 1564 1686
8 1437 1303 1438 1568 1565 1435 1566 1688
8 1438 1304 1439 1569 1566 1436 1567 1689
8 1440 1306 1441 1571 1568 1438 1569 1691
8 1441 1307 1442 1572 1569 1439 1570 1692
8 1443 1309 1444 1574 1571 1441 1572 1694
8 1310 1444 1572 1442 1445 1575 1695 1573
8 1446 1312 1447 1576 1574 1444 1575 1696
8 1486 1349 1485 1614 1579 1449 1577 1699
8 1451 1317 1449 1579 1581 1450 1578 1701
8 1487 1350 1486 1615 1582 1451 1579 1702
8 1581 1450 1580 1704 1453 1318 1452 1584
8 1582 1451 1581 1705 1454 1319 1453 1585
8 1584 1452 1583 1706 1456 1320 1455 1586
8 1585 1453 1584 1707 1457 1321 1456 1587
8 1587 1456 1586 1708 1458 1323 1459 1588
8 1633 1506 1589 1710 1507 1373 1461 1590
8 1464 1329 1461 1590 1594 1463 1589 1710
8 1468 1336 1462 1591 1595 1464 1590 1711
8 1634 1507 1590 1711 1508 1374 1462 1591
8 1473 1341 1463 1594 1603 1477 1593 1716
8 1469 1337 1464 1595 1599 1473 1594 1717
8 1471 1597 1467 1335 1600 1718 1596 1470
8 1718 1600 1496 1616 1596 1470 1360 1488
8 1336 1468 1597 1471 1472 1598 1719 1601
8 1469 1337 1473 1599 1598 1472 1602 1720
8 1722 1604 1501 1623 1600 1474 1367 1496
8 1475 1601 1471 1339 1604 1722 1600 1474
8 1602 1476 1605 1723 1472 1340 1475 1601
8 1476 1602 1724 1606 1341 1473 1603 1477
8 1483 1347 1478 1609 1612 1482 1608 1731
8 1495 1370 1504 1622 1609 1478 1608 1731
8 1618 1495 1609 1732 1494 1361 1479 1610
8 1484 1348 1479 1610 1613 1483 1609 1732
8 1486 1349 1482 1612 1614 1485 1611 1733
8 1613 1483 1612 1734 1487 1350 1486 1615
8 1489 1363 1496 1616 1617 1499 1623 1736
8 1491 1365 1499 1617 1619 1500 1626 1737
8 1618 1495 1361 1494 1738 1622 1497 1621
8 1739 1625 1498 1620 1619 1500 1366 1492
8 1621 1497 1362 1493 1740 1624 1498 1620
8 1742 1631 1504 1622 1624 1505 1371 1497
8 1743 1628 1502 1626 1623 1501 1368 1499
8 1744 1630 1505 1624 1625 1503 1372 1498
8 1745 1629 1503 1625 1626 1502 1369 1500
8 1520 1398 1528 1644 1633 1506 1632 1751
8 1637 1520 1633 1752 1512 1388 1507 1634
8 1635 1519 1643 1753 1510 1391 1522 1636
8 1657 1535 1643 1753 1534 1406 1519 1635
8 1515 1392 1522 1636 1639 1523 1646 1754
8 1517 1389 1521 1641 1637 1520 1644 1755
8 1524 1638 1756 1648 1393 1514 1639 1523
8 1640 1526 1395 1516 1756 1648 1524 1638
8 1642 1525 1396 1518 1757 1649 1526 1640
8 1758 1645 1521 1641 1642 1525 1396 1518
8 1646 1531 1400 1522 1760 1650 1527 1643
8 1535 1407 1536 1658 1643 1527 1650 1760
8 1521 1399 1529 1645 1644 1528 1651 1761
8 1647 1530 1652 1762 1525 1404 1529 1645
8 1401 1523 1648 1532 1531 1646 1763 1655
8 1525 1404 1533 1649 1647 1530 1654 1765
8 1533 1649 1766 1656 1403 1526 1648 1532
8 1662 1542 1658 1774 1539 1414 1535 1657
8 1542 1415 1543 1664 1658 1536 1659 1775
8 1660 1540 1663 1777 1538 1413 1541 1661
8 1545 1421 1548 1666 1660 1540 1663 1777
8 1662 1542 1414 1539 1778 1664 1541 1661
8 1664 1543 1416 1541 1779 1665 1544 1663
8 1548 1425 1550 1668 1663 1544 1665 1779
8 1547 1423 1549 1667 1666 1548 1668 1781
8 1670 1551 1668 1781 1553 1427 1549 1667
8 1551 1426 1552 1671 1668 1550 1669 1782
8 1670 1551 1427 1553 1784 1671 1554 1674
8 1675 1555 1672 1785 1554 1428 1552 1671
8 1678 1556 1673 1789 1558 1429 1555 1675
8 1561 1431 1558 1681 1674 1554 1675 1790
8 1794 1677 1556 1678 1680 1557 1429 1558
8 1560 1430 1559 1683 1680 1557 1679 1797
8 1561 1431 1560 1684 1681 1558 1680 1798
8 1563 1433 1564 1686 1683 1559 1682 1800
8 1684 1560 1432 1562 1801 1683 1563 1685
8 1565 1435 1566 1688 1685 1563 1686 1802
8 1566 1436 1567 1689 1686 1564 1687 1803
8 1568 1438 1569 1691 1688 1566 1689 1805
8 1569 1439 1570 1692 1689 1567 1690 1806
8 1571 1441 1572 1694 1691 1569 1692 1808
8 1442 1572 1692 1570 1573 1695 1809 1693
8 1574 1444 1575 1696 1694 1572 1695 1810
8 1614 1485 1592 1712 1699 1577 1697 1813
8 1579 1449 1577 1699 1701 1578 1698 1815
8 1615 1486 1614 1735 1702 1579 1699 1816
8 1701 1578 1700 1818 1581 1450 1580 1704
8 1582 1451 1579 1702 1705 1581 1701 1819
8 1704 1580 1703 1820 1584 1452 1583 1706
8 1705 1581 1704 1821 1585 1453 1584 1707
8 1707 1584 1706 1822 1587 1456 1586 1708
8 1710 1589 1506 1633 1824 1709 1632 1751
8 1594 1463 1589 1710 1716 1593 1709 1824
8 1752 1633 1710 1825 1634 1507 1590 1711
8 1595 1464 1590 1711 1717 1594 1710 1825
8 1830 1714 1592 1712 1733 1611 1485 1614
8 1603 1477 1593 1716 1725 1607 1715 1834
8 1599 1473 1594 1717 1721 1603 1716 1835
8 1837 1722 1623 1736 1718 1600 1496 1616
8 1719 1601 1722 1837 1597 1471 1600 1718
8 1602 1720 1598 1472 1723 1838 1719 1601
8 1720 1602 1473 1599 1839 1724 1603 1721
8 1723 1605 1726 1840 1601 1475 1604 1722
8 1840 1726 1628 1743 1722 1604 1501 1623
8 1724 1606 1727 1841 1602 1476 1605 1723
8 1725 1607 1728 1842 1603 1477 1606 1724
8 1612 1482 1608 1731 1733 1611 1730 1849
8 1741 1627 1730 1849 1622 1504 1608 1731
8 1613 1483 1609 1732 1734 1612 1731 1850
8 1618 1495 1622 1738 1732 1609 1731 1850
8 1615 1486 1612 1734 1735 1614 1733 1851
8 1852 1743 1626 1737 1736 1623 1499 1617
8 1853 1745 1625 1739 1737 1626 1500 1619
8 1855 1742 1622 1738 1740 1624 1497 1621
8 1856 1744 1624 1740 1739 1625 1498 1620
8 1741 1627 1504 1622 1857 1746 1631 1742
8 1742 1631 1505 1624 1858 1749 1630 1744
8 1859 1747 1629 1745 1743 1628 1502 1626
8 1860 1748 1630 1744 1745 1629 1503 1625
8 1644 1528 1651 1761 1751 1632 1750 1865
8 1637 1520 1644 1755 1752 1633 1751 1866
8 1754 1646 1522 1636 1867 1760 1643 1753
8 1657 1535 1658 1774 1753 1643 1760 1867
8 1639 1523 1646 1754 1756 1648 1763 1868
8 1641 1521 1645 1758 1755 1644 1761 1869
8 1757 1649 1526 1640 1870 1766 1648 1756
8 1642 1525 1649 1757 1759 1647 1765 1871
8 1759 1647 1762 1872 1642 1525 1645 1758
8 1760 1650 1767 1874 1646 1531 1655 1763
8 1658 1536 1659 1775 1760 1650 1767 1874
8 1762 1652 1768 1875 1645 1529 1651 1761
8 1764 1653 1769 1876 1647 1530 1652 1762
8 1656 1766 1877 1773 1532 1648 1763 1655
8 1771 1879 1765 1654 1653 1764 1647 1530
8 1533 1649 1765 1654 1656 1766 1880 1772
8 1662 1542 1664 1778 1774 1658 1775 1887
8 1664 1543 1665 1779 1775 1659 1776 1888
8 1778 1664 1541 1661 1890 1779 1663 1777
8 1666 1548 1668 1781 1777 1663 1779 1890
8 1782 1669 1780 1891 1668 1550 1665 1779
8 1670 1551 1671 1784 1781 1668 1782 1893
8 1671 1552 1672 1785 1782 1669 1783 1894
8 1790 1675 1785 1896 1674 1554 1671 1784
8 1675 1555 1673 1789 1785 1672 1786 1897
8 1792 1676 1788 1903 1678 1556 1673 1789
8 1795 1678 1789 1904 1681 1558 1675 1790
8 1792 1676 1556 1678 1906 1791 1677 1794
8 1680 1557 1679 1797 1794 1677 1793 1909
8 1910 1794 1678 1795 1798 1680 1558 1681
8 1683 1559 1682 1800 1797 1679 1796 1912
8 1684 1560 1683 1801 1798 1680 1797 1913
8 1686 1564 1687 1803 1800 1682 1799 1915
8 1685 1563 1686 1802 1801 1683 1800 1916
8 1688 1566 1689 1805 1802 1686 1803 1917
8 1689 1567 1690 1806 1803 1687 1804 1918
8 1691 1569 1692 1808 1805 1689 1806 1920
8 1692 1570 1693 1809 1806 1690 1807 1921
8 1694 1572 1695 1810 1808 1692 1809 1922
8 1829 1713 1811 1926 1712 1592 1697 1813
8 1813 1697 1812 1928 1699 1577 1698 1815
8 1735 1614 1712 1828 1816 1699 1813 1929
8 1815 1698 1814 1931 1701 1578 1700 1818
8 1702 1579 1699 1816 1819 1701 1815 1932
8 1818 1700 1817 1933 1704 1580 1703 1820
8 1819 1701 1818 1934 1705 1581 1704 1821
8 1821 1704 1820 1935 1707 1584 1706 1822
8 1824 1709 1632 1751 1937 1823 1750 1865
8 1716 1593 1709 1824 1834 1715 1823 1937
8 1825 1710 1633 1752 1938 1824 1751 1866
8 1717 1594 1710 1825 1835 1716 1824 1938
8 1945 1830 1712 1828 1851 1733 1614 1735
8 1830 1714 1831 1946 1712 1592 1713 1829
8 1947 1832 1714 1830 1849 1730 1611 1733
8 1843 1729 1607 1725 1950 1833 1715 1834
8 1721 1603 1716 1835 1836 1725 1834 1951
8 1836 1725 1842 1953 1721 1603 1724 1839
8 1723 1838 1719 1601 1840 1954 1837 1722
8 1954 1840 1743 1852 1837 1722 1623 1736
8 1724 1839 1720 1602 1841 1955 1838 1723
8 1841 1727 1844 1956 1723 1605 1726 1840
8 1956 1844 1747 1859 1840 1726 1628 1743
8 1728 1842 1724 1606 1845 1957 1841 1727
8 1725 1607 1729 1843 1842 1728 1846 1958
8 1741 1627 1746 1857 1849 1730 1848 1965
8 1734 1612 1731 1850 1851 1733 1849 1966
8 1854 1741 1849 1966 1738 1622 1731 1850
8 1967 1859 1745 1853 1852 1743 1626 1737
8 1968 1860 1744 1856 1853 1745 1625 1739
8 1854 1741 1622 1738 1969 1857 1742 1855
8 1855 1742 1624 1740 1970 1858 1744 1856
8 1857 1746 1631 1742 1971 1861 1749 1858
8 1858 1749 1630 1744 1972 1863 1748 1860
8 1859 1747 1862 1973 1745 1629 1748 1860
8 1875 1768 1864 1977 1761 1651 1750 1865
8 1755 1644 1761 1869 1866 1751 1865 1978
8 1867 1760 1874 1979 1754 1646 1763 1868
8 1774 1658 1775 1887 1867 1760 1874 1979
8 1870 1766 1648 1756 1980 1877 1763 1868
8 1872 1762 1875 1981 1758 1645 1761 1869
8 1757 1649 1766 1870 1871 1765 1880 1982
8 1983 1879 1764 1873 1871 1765 1647 1759
8 1873 1764 1876 1984 1759 1647 1762 1872
8 1877 1773 1655 1763 1986 1881 1767 1874
8 1775 1659 1776 1888 1874 1767 1881 1986
8 1876 1769 1882 1987 1762 1652 1768 1875
8 1878 1770 1883 1988 1764 1653 1769 1876
8 1880 1772 1656 1766 1989 1886 1773 1877
8 1878 1770 1653 1764 1990 1884 1771 1879
8 1765 1654 1772 1880 1879 1771 1885 1991
8 1778 1664 1779 1890 1887 1775 1888 1997
8 1998 1889 1776 1888 1891 1780 1665 1779
8 1893 1782 1891 2000 1781 1668 1779 1890
8 1894 1783 1892 2001 1782 1669 1780 1891
8 1784 1671 1785 1896 1893 1782 1894 2003
8 1897 1786 1895 2004 1785 1672 1783 1894
8 1790 1675 1789 1904 1896 1785 1897 2006
8 1901 1787 1898 2007 1789 1673 1786 1897
8 1903 1788 1900 2013 1789 1673 1787 1901
8 1792 1676 1791 1906 1903 1788 1902 2016
8 1907 1792 1903 2017 1795 1678 1789 1904
8 1906 1791 1677 1794 2019 1905 1793 1909
8 1907 1792 1678 1795 2020 1906 1794 1910
8 1797 1679 1796 1912 1909 1793 1908 2022
8 1798 1680 1797 1913 1910 1794 1909 2023
8 1800 1682 1799 1915 1912 1796 1911 2025
8 1801 1683 1800 1916 1913 1797 1912 2026
8 1803 1687 1804 1918 1915 1799 1914 2028
8 1802 1686 1803 1917 1916 1800 1915 2029
8 1805 1689 1806 1920 1917 1803 1918 2030
8 1806 1690 1807 1921 1918 1804 1919 2031
8 1808 1692 1809 1922 1920 1806 1921 2032
8 1939 1826 1924 2037 1829 1713 1811 1926
8 1926 1811 1925 2039 1813 1697 1812 1928
8 1944 1829 1926 2040 1828 1712 1813 1929
8 1928 1812 1927 2042 1815 1698 1814 1931
8 1929 1813 1928 2043 1816 1699 1815 1932
8 1931 1814 1930 2044 1818 1700 1817 1933
8 1932 1815 1931 2045 1819 1701 1818 1934
8 1934 1818 1933 2046 1821 1704 1820 1935
8 2048 1936 1823 1937 1977 1864 1750 1865
8 1950 1833 1715 1834 2048 1936 1823 1937
8 1938 1824 1751 1866 2049 1937 1865 1978
8 1835 1716 1824 1938 1951 1834 1937 2049
8 1939 1826 1713 1829 2053 1942 1831 1946
8 1940 1827 1923 2035 2053 1942 1826 1939
8 1945 1830 1946 2058 1828 1712 1829 1944
8 2059 1947 1830 1945 1966 1849 1733 1851
8 1947 1832 1730 1849 2060 1948 1848 1965
8 1947 1832 1948 2060 1830 1714 1831 1946
8 1959 1847 1729 1843 2063 1949 1833 1950
8 1952 1843 1725 1836 2064 1950 1834 1951
8 1836 1725 1843 1952 1953 1842 1958 2066
8 1953 1842 1957 2067 1839 1724 1841 1955
8 1841 1955 1838 1723 1956 2068 1954 1840
8 2068 1956 1859 1967 1954 1840 1743 1852
8 1956 1844 1960 2069 1859 1747 1862 1973
8 1845 1957 1841 1727 1960 2069 1956 1844
8 1728 1842 1957 1845 1846 1958 2071 1961
8 1962 2072 1959 1847 1846 1958 1843 1729
8 1971 1861 1964 2077 1857 1746 1848 1965
8 1854 1741 1857 1969 1966 1849 1965 2078
8 1967 1859 1973 2079 1853 1745 1860 1968
8 1970 1858 1744 1856 2080 1972 1860 1968
8 1969 1857 1742 1855 2081 1971 1858 1970
8 1971 1861 1749 1858 2082 1974 1863 1972
8 1973 1862 1975 2083 1860 1748 1863 1972
8 1987 1882 1976 2086 1875 1768 1864 1977
8 1981 1875 1977 2087 1869 1761 1865 1978
8 1980 1877 1763 1868 2088 1986 1874 1979
8 1887 1775 1888 1997 1979 1874 1986 2088
8 1880 1982 2089 1989 1766 1870 1980 1877
8 1984 1876 1987 2090 1872 1762 1875 1981
8 1765 1871 1983 1879 1880 1982 2091 1991
8 1985 1878 1764 1873 2092 1990 1879 1983
8 1985 1878 1988 2093 1873 1764 1876 1984
8 2094 1992 1881 1986 1998 1889 1776 1888
8 1986 1881 1992 2094 1877 1773 1886 1989
8 1988 1883 1993 2095 1876 1769 1882 1987
8 1878 1770 1884 1990 1988 1883 1994 2096
8 1991 1885 1772 1880 2097 1996 1886 1989
8 1879 1771 1885 1991 1990 1884 1995 2098
8 2103 1998 1888 1997 2000 1891 1779 1890
8 2104 1999 1889 1998 2001 1892 1780 1891
8 2003 1894 2001 2106 1893 1782 1891 2000
8 2004 1895 2002 2107 1894 1783 1892 2001
8 2006 1897 2004 2109 1896 1785 1894 2003
8 2007 1898 2005 2110 1897 1786 1895 2004
8 2014 1901 2007 2112 1904 1789 1897 2006
8 2011 1899 2008 2113 1901 1787 1898 2007
8 2119 2010 1899 2011 2013 1900 1787 1901
8 2016 1902 2012 2122 1903 1788 1900 2013
8 2017 1903 2013 2123 1904 1789 1901 2014
8 1906 1791 1905 2019 2016 1902 2015 2125
8 1907 1792 1906 2020 2017 1903 2016 2126
8 1909 1793 1908 2022 2019 1905 2018 2128
8 2020 1906 1794 1910 2129 2019 1909 2023
8 1912 1796 1911 2025 2022 1908 2021 2131
8 1913 1797 1912 2026 2023 1909 2022 2132
8 1915 1799 1914 2028 2025 1911 2024 2134
8 1916 1800 1915 2029 2026 1912 2025 2135
8 1918 1804 1919 2031 2028 1914 2027 2136
8 1917 1803 1918 2030 2029 1915 2028 2137
8 1920 1806 1921 2032 2030 1918 2031 2138
8 1940 1827 1941 2054 2035 1923 2033 2140
8 2035 1923 2034 2143 1939 1826 1924 2037
8 2037 1924 2036 2146 1926 1811 1925 2039
8 2051 1939 2037 2147 1944 1829 1926 2040
8 2039 1925 2038 2149 1928 1812 1927 2042
8 2040 1926 2039 2150 1929 1813 1928 2043
8 2042 1927 2041 2151 1931 1814 1930 2044
8 2043 1928 2042 2152 1932 1815 1931 2045
8 2045 1931 2044 2153 1934 1818 1933 2046
8 2155 2047 1936 2048 2086 1976 1864 1977
8 2063 1949 1833 1950 2155 2047 1936 2048
8 2156 2048 1937 2049 2087 1977 1865 1978
8 2064 1950 1834 1951 2156 2048 1937 2049
8 2051 1939 1829 1944 2160 2053 1946 2058
8 2052 1940 2035 2144 2160 2053 1939 2051
8 2053 1942 1831 1946 2163 2057 1948 2060
8 2055 1943 1827 1940 2163 2057 1942 2053
8 2055 1943 2056 2164 1940 1827 1941 2054
8 2059 1947 1849 1966 2167 2060 1965 2078
8 2059 1947 2060 2167 1945 1830 1946 2058
8 2077 1964 2061 2168 1965 1848 1948 2060
8 2070 1963 1847 1959 2170 2062 1949 2063
8 2065 1959 1843 1952 2171 2063 1950 2064
8 2173 2072 1958 2066 2065 1959 1843 1952
8 1953 1842 1958 2066 2067 1957 2071 2174
8 2068 1956 2069 2175 1967 1859 1973 2079
8 2067 1957 2069 2175 1955 1841 1956 2068
8 1845 1957 2069 1960 1961 2071 2176 2073
8 2069 1960 2073 2176 1973 1862 1975 2083
8 2070 1963 2075 2177 1959 1847 1962 2072
8 1846 1958 2071 1961 1962 2072 2178 2074
8 2077 1964 1861 1971 2182 2076 1974 2082
8 2081 1971 2077 2183 1969 1857 1965 2078
8 2079 1973 2083 2184 1968 1860 1972 2080
8 2081 1971 1858 1970 2185 2082 1972 2080
8 2083 1975 2084 2186 1972 1863 1974 2082
8 2086 1976 1882 1987 2189 2085 1993 2095
8 2090 1987 2086 2190 1981 1875 1977 2087
8 2191 2094 1986 2088 2103 1998 1888 1997
8 2088 1986 2094 2191 1980 1877 1989 2089
8 1991 2091 2192 2097 1880 1982 2089 1989
8 2093 1988 2095 2193 1984 1876 1987 2090
8 1879 1983 2092 1990 1991 2091 2194 2098
8 1985 1878 1990 2092 2093 1988 2096 2195
8 2097 1996 1886 1989 2196 2099 1992 2094
8 2196 2099 1992 2094 2104 1999 1889 1998
8 1994 2096 1988 1883 2100 2197 2095 1993
8 2096 1994 1884 1990 2198 2101 1995 2098
8 1995 2098 2199 2102 1885 1991 2097 1996
8 2203 2104 1998 2103 2106 2001 1891 2000
8 2107 2002 2105 2204 2001 1892 1999 2104
8 2109 2004 2107 2206 2003 1894 2001 2106
8 2110 2005 2108 2207 2004 1895 2002 2107
8 2112 2007 2110 2209 2006 1897 2004 2109
8 2113 2008 2111 2210 2007 1898 2005 2110
8 2120 2011 2113 2212 2014 1901 2007 2112
8 2117 2009 2114 2213 2011 1899 2008 2113
8 2219 2116 2009 2117 2119 2010 1899 2011
8 2222 2118 2010 2119 2122 2012 1900 2013
8 2223 2119 2011 2120 2123 2013 1901 2014
8 2016 1902 2015 2125 2122 2012 2121 2225
8 2126 2016 2122 2226 2017 1903 2013 2123
8 2019 1905 2018 2128 2125 2015 2124 2228
8 2020 1906 2019 2129 2126 2016 2125 2229
8 2022 1908 2021 2131 2128 2018 2127 2231
8 2023 1909 2022 2132 2129 2019 2128 2232
8 2025 1911 2024 2134 2131 2021 2130 2234
8 2026 1912 2025 2135 2132 2022 2131 2235
8 1914 2028 2134 2024 2027 2136 2236 2133
8 2029 1915 2028 2137 2135 2025 2134 2237
8 2030 1918 2031 2138 2137 2028 2136 2238
8 2157 2050 2139 2240 2054 1941 2033 2140
8 2052 1940 2054 2161 2144 2035 2140 2242
8 2140 2033 2141 2243 2035 1923 2034 2143
8 2143 2034 2142 2246 2037 1924 2036 2146
8 2144 2035 2143 2247 2051 1939 2037 2147
8 2146 2036 2145 2249 2039 1925 2038 2149
8 2147 2037 2146 2250 2040 1926 2039 2150
8 2149 2038 2148 2251 2042 1927 2041 2151
8 2150 2039 2149 2252 2043 1928 2042 2152
8 2152 2042 2151 2253 2045 1931 2044 2153
8 2255 2154 2047 2155 2189 2085 1976 2086
8 2170 2062 1949 2063 2255 2154 2047 2155
8 2256 2155 2048 2156 2190 2086 1977 2087
8 2171 2063 1950 2064 2256 2155 2048 2156
8 2258 2159 2050 2157 2164 2056 1941 2054
8 2160 2053 1946 2058 2262 2163 2060 2167
8 2162 2055 1940 2052 2262 2163 2053 2160
8 2162 2055 2164 2263 2052 1940 2054 2161
8 2163 2057 1948 2060 2264 2165 2061 2168
8 2055 1943 2057 2163 2164 2056 2165 2264
8 2182 2076 2166 2268 2077 1964 2061 2168
8 2183 2077 2168 2269 2078 1965 2060 2167
8 2070 1963 2062 2170 2177 2075 2169 2271
8 2172 2070 1959 2065 2272 2170 2063 2171
8 2172 2070 2177 2273 2065 1959 2072 2173
8 2066 1958 2072 2173 2174 2071 2178 2274
8 2067 1957 2071 2174 2175 2069 2176 2275
8 2175 2069 2176 2275 2079 1973 2083 2184
8 2071 1961 2074 2178 2176 2073 2179 2276
8 2176 2073 2179 2276 2083 1975 2084 2186
8 2072 1962 2075 2177 2178 2074 2180 2277
8 2182 2076 1974 2082 2280 2181 2084 2186
8 2183 2077 1971 2081 2281 2182 2082 2185
8 2184 2083 2186 2282 2080 1972 2082 2185
8 2189 2085 1993 2095 2285 2188 2100 2197
8 2190 2086 1987 2090 2286 2189 2095 2193
8 2192 2097 1989 2089 2287 2196 2094 2191
8 2287 2196 2094 2191 2203 2104 1998 2103
8 2194 2098 1991 2091 2288 2199 2097 2192
8 2195 2096 2197 2289 2093 1988 2095 2193
8 2096 2195 2290 2198 1990 2092 2194 2098
8 2097 1996 2099 2196 2199 2102 2200 2291
8 2196 2099 1999 2104 2291 2200 2105 2204
8 2100 2197 2292 2201 1994 2096 2198 2101
8 1995 2098 2198 2101 2102 2199 2293 2202
8 2206 2107 2204 2296 2106 2001 2104 2203
8 2207 2108 2205 2297 2107 2002 2105 2204
8 2209 2110 2207 2299 2109 2004 2107 2206
8 2210 2111 2208 2300 2110 2005 2108 2207
8 2212 2113 2210 2302 2112 2007 2110 2209
8 2213 2114 2211 2303 2113 2008 2111 2210
8 2220 2117 2213 2305 2120 2011 2113 2212
8 2216 2115 2214 2306 2117 2009 2114 2213
8 2216 2115 2009 2117 2311 2217 2116 2219
8 2219 2116 2010 2119 2314 2218 2118 2222
8 2315 2219 2117 2220 2223 2119 2011 2120
8 2122 2012 2121 2225 2222 2118 2221 2317
8 2318 2222 2119 2223 2226 2122 2013 2123
8 2125 2015 2124 2228 2225 2121 2224 2320
8 2126 2016 2125 2229 2226 2122 2225 2321
8 2128 2018 2127 2231 2228 2124 2227 2323
8 2129 2019 2128 2232 2229 2125 2228 2324
8 2131 2021 2130 2234 2231 2127 2230 2326
8 2132 2022 2131 2235 2232 2128 2231 2327
8 2134 2024 2133 2236 2234 2130 2233 2328
8 2135 2025 2134 2237 2235 2131 2234 2329
8 2137 2028 2136 2238 2237 2134 2236 2330
8 2157 2050 2158 2259 2240 2139 2239 2332
8 2257 2157 2240 2334 2161 2054 2140 2242
8 2240 2139 2241 2335 2140 2033 2141 2243
8 2242 2140 2243 2337 2144 2035 2143 2247
8 2243 2141 2244 2338 2143 2034 2142 2246
8 2246 2142 2245 2341 2146 2036 2145 2249
8 2247 2143 2246 2342 2147 2037 2146 2250
8 2249 2145 2248 2343 2149 2038 2148 2251
8 2250 2146 2249 2344 2150 2039 2149 2252
8 2252 2149 2251 2345 2152 2042 2151 2253
8 2169 2271 2347 2254 2062 2170 2255 2154
8 2189 2085 2188 2285 2255 2154 2254 2347
8 2348 2255 2155 2256 2286 2189 2086 2190
8 2272 2170 2063 2171 2348 2255 2155 2256
8 2349 2258 2157 2257 2263 2164 2054 2161
8 2258 2159 2261 2351 2157 2050 2158 2259
8 2258 2159 2056 2164 2351 2261 2165 2264
8 2262 2163 2060 2167 2355 2264 2168 2269
8 2162 2055 2163 2262 2263 2164 2264 2355
8 2357 2266 2165 2264 2268 2166 2061 2168
8 2268 2166 2076 2182 2361 2267 2181 2280
8 2281 2182 2268 2362 2183 2077 2168 2269
8 2271 2169 2270 2364 2177 2075 2180 2277
8 2172 2070 2170 2272 2273 2177 2271 2365
8 2072 2173 2274 2178 2177 2273 2366 2277
8 2071 2174 2275 2176 2178 2274 2367 2276
8 2275 2176 2276 2367 2184 2083 2186 2282
8 2283 2187 2084 2186 2368 2278 2179 2276
8 2178 2074 2180 2277 2276 2179 2278 2368
8 2283 2187 2279 2370 2186 2084 2181 2280
8 2281 2182 2082 2185 2371 2280 2186 2282
8 2188 2285 2374 2284 2100 2197 2292 2201
8 2286 2189 2095 2193 2375 2285 2197 2289
8 2192 2097 2196 2287 2288 2199 2291 2376
8 2287 2196 2104 2203 2376 2291 2204 2296
8 2194 2098 2199 2288 2290 2198 2293 2377
8 2289 2197 2096 2195 2378 2292 2198 2290
8 2291 2200 2105 2204 2379 2294 2205 2297
8 2199 2102 2200 2291 2293 2202 2294 2379
8 2198 2101 2202 2293 2292 2201 2295 2380
8 2299 2207 2297 2383 2206 2107 2204 2296
8 2300 2208 2298 2384 2207 2108 2205 2297
8 2302 2210 2300 2386 2209 2110 2207 2299
8 2303 2211 2301 2387 2210 2111 2208 2300
8 2305 2213 2303 2389 2212 2113 2210 2302
8 2306 2214 2304 2390 2213 2114 2211 2303
8 2310 2216 2306 2392 2220 2117 2213 2305
8 2308 2215 2307 2393 2216 2115 2214 2306
8 2308 2215 2115 2216 2396 2309 2217 2311
8 2310 2216 2117 2220 2398 2311 2219 2315
8 2311 2217 2116 2219 2399 2312 2218 2314
8 2314 2218 2118 2222 2402 2313 2221 2317
8 2315 2219 2119 2223 2403 2314 2222 2318
8 2225 2121 2224 2320 2317 2221 2316 2405
8 2226 2122 2225 2321 2318 2222 2317 2406
8 2228 2124 2227 2323 2320 2224 2319 2408
8 2229 2125 2228 2324 2321 2225 2320 2409
8 2231 2127 2230 2326 2323 2227 2322 2411
8 2232 2128 2231 2327 2324 2228 2323 2412
8 2234 2130 2233 2328 2326 2230 2325 2413
8 2235 2131 2234 2329 2327 2231 2326 2414
8 2237 2134 2236 2330 2329 2234 2328 2415
8 2259 2158 2260 2352 2332 2239 2331 2417
8 2257 2157 2259 2350 2334 2240 2332 2419
8 2240 2139 2239 2332 2335 2241 2333 2420
8 2334 2240 2335 2422 2242 2140 2243 2337
8 2335 2241 2336 2423 2243 2141 2244 2338
8 2337 2243 2338 2425 2247 2143 2246 2342
8 2338 2244 2339 2426 2246 2142 2245 2341
8 2341 2245 2340 2428 2249 2145 2248 2343
8 2342 2246 2341 2429 2250 2146 2249 2344
8 2344 2249 2343 2430 2252 2149 2251 2345
8 2188 2285 2347 2254 2284 2374 2432 2346
8 2347 2254 2346 2432 2271 2169 2270 2364
8 2365 2271 2170 2272 2433 2347 2255 2348
8 2286 2189 2285 2375 2348 2255 2347 2433
8 2349 2258 2351 2435 2257 2157 2259 2350
8 2349 2258 2164 2263 2435 2351 2264 2355
8 2259 2158 2261 2351 2352 2260 2354 2437
8 2356 2265 2354 2437 2264 2165 2261 2351
8 2441 2357 2264 2355 2362 2268 2168 2269
8 2356 2265 2165 2264 2442 2358 2266 2357
8 2443 2359 2266 2357 2361 2267 2166 2268
8 2370 2279 2360 2446 2280 2181 2267 2361
8 2362 2268 2182 2281 2447 2361 2280 2371
8 2180 2277 2368 2278 2270 2364 2449 2363
8 2271 2365 2273 2177 2364 2450 2366 2277
8 2372 2283 2186 2282 2451 2368 2276 2367
8 2178 2274 2367 2276 2277 2366 2451 2368
8 2283 2187 2278 2368 2370 2279 2369 2452
8 2372 2283 2370 2453 2282 2186 2280 2371
8 2284 2374 2455 2373 2201 2292 2380 2295
8 2375 2285 2197 2289 2456 2374 2292 2378
8 2376 2291 2204 2296 2457 2379 2297 2383
8 2288 2199 2291 2376 2377 2293 2379 2457
8 2198 2290 2378 2292 2293 2377 2458 2380
8 2293 2202 2294 2379 2380 2295 2381 2459
8 2384 2298 2381 2459 2297 2205 2294 2379
8 2386 2300 2384 2463 2299 2207 2297 2383
8 2387 2301 2385 2464 2300 2208 2298 2384
8 2389 2303 2387 2466 2302 2210 2300 2386
8 2390 2304 2388 2467 2303 2211 2301 2387
8 2392 2306 2390 2469 2305 2213 2303 2389
8 2393 2307 2391 2470 2306 2214 2304 2390
8 2395 2308 2393 2472 2310 2216 2306 2392
8 2308 2215 2309 2396 2393 2307 2394 2473
8 2395 2308 2216 2310 2475 2396 2311 2398
8 2396 2309 2217 2311 2476 2397 2312 2399
8 2398 2311 2219 2315 2478 2399 2314 2403
8 2399 2312 2218 2314 2479 2400 2313 2402
8 2317 2221 2316 2405 2402 2313 2401 2482
8 2403 2314 2222 2318 2483 2402 2317 2406
8 2320 2224 2319 2408 2405 2316 2404 2485
8 2321 2225 2320 2409 2406 2317 2405 2486
8 2323 2227 2322 2411 2408 2319 2407 2488
8 2324 2228 2323 2412 2409 2320 2408 2489
8 2326 2230 2325 2413 2411 2322 2410 2490
8 2327 2231 2326 2414 2412 2323 2411 2491
8 2329 2234 2328 2415 2414 2326 2413 2492
8 2417 2331 2260 2352 2494 2416 2353 2438
8 2350 2259 2352 2436 2419 2332 2417 2496
8 2332 2239 2331 2417 2420 2333 2418 2497
8 2334 2240 2332 2419 2422 2335 2420 2499
8 2420 2333 2421 2500 2335 2241 2336 2423
8 2422 2335 2423 2502 2337 2243 2338 2425
8 2423 2336 2424 2503 2338 2244 2339 2426
8 2425 2338 2426 2505 2342 2246 2341 2429
8 2426 2339 2427 2506 2341 2245 2340 2428
8 2429 2341 2428 2507 2344 2249 2343 2430
8 2432 2346 2284 2374 2509 2431 2373 2455
8 2432 2346 2431 2509 2364 2270 2363 2449
8 2375 2285 2374 2456 2433 2347 2432 2510
8 2347 2433 2365 2271 2432 2510 2450 2364
8 2350 2259 2351 2435 2436 2352 2437 2514
8 2440 2356 2437 2514 2355 2264 2351 2435
8 2352 2260 2354 2437 2438 2353 2439 2516
8 2356 2265 2358 2442 2437 2354 2439 2516
8 2440 2356 2264 2355 2518 2442 2357 2441
8 2519 2443 2357 2441 2447 2361 2268 2362
8 2443 2359 2444 2520 2357 2266 2358 2442
8 2443 2359 2267 2361 2520 2444 2360 2446
8 2446 2360 2279 2370 2523 2445 2369 2452
8 2453 2370 2446 2524 2371 2280 2361 2447
8 2449 2363 2448 2525 2368 2278 2369 2452
8 2366 2277 2364 2450 2451 2368 2449 2526
8 2372 2283 2368 2451 2453 2370 2452 2527
8 2455 2373 2295 2380 2529 2454 2382 2460
8 2456 2374 2292 2378 2530 2455 2380 2458
8 2377 2293 2379 2457 2458 2380 2459 2531
8 2463 2384 2459 2531 2383 2297 2379 2457
8 2533 2461 2382 2460 2459 2381 2295 2380
8 2464 2385 2461 2533 2384 2298 2381 2459
8 2466 2387 2464 2537 2386 2300 2384 2463
8 2467 2388 2465 2538 2387 2301 2385 2464
8 2469 2390 2467 2540 2389 2303 2387 2466
8 2470 2391 2468 2541 2390 2304 2388 2467
8 2472 2393 2470 2543 2392 2306 2390 2469
8 2393 2307 2394 2473 2470 2391 2471 2544
8 2395 2308 2396 2475 2472 2393 2473 2546
8 2396 2309 2397 2476 2473 2394 2474 2547
8 2475 2396 2311 2398 2549 2476 2399 2478
8 2476 2397 2312 2399 2550 2477 2400 2479
8 2478 2399 2314 2403 2552 2479 2402 2483
8 2479 2400 2313 2402 2553 2480 2401 2482
8 2405 2316 2404 2485 2482 2401 2481 2556
8 2406 2317 2405 2486 2483 2402 2482 2557
8 2408 2319 2407 2488 2485 2404 2484 2559
8 2409 2320 2408 2489 2486 2405 2485 2560
8 2411 2322 2410 2490 2488 2407 2487 2561
8 2412 2323 2411 2491 2489 2408 2488 2562
8 2414 2326 2413 2492 2491 2411 2490 2563
8 2513 2434 2493 2565 2438 2353 2416 2494
8 2496 2417 2352 2436 2567 2494 2438 2515
8 2494 2416 2495 2568 2417 2331 2418 2497
8 2419 2332 2417 2496 2499 2420 2497 2570
8 2497 2418 2498 2571 2420 2333 2421 2500
8 2499 2420 2500 2573 2422 2335 2423 2502
8 2500 2421 2501 2574 2423 2336 2424 2503
8 2502 2423 2503 2576 2425 2338 2426 2505
8 2503 2424 2504 2577 2426 2339 2427 2506
8 2505 2426 2506 2578 2429 2341 2428 2507
8 2509 2431 2373 2455 2580 2508 2454 2529
8 2509 2431 2508 2580 2449 2363 2448 2525
8 2432 2510 2581 2509 2374 2456 2530 2455
8 2432 2510 2450 2364 2509 2581 2526 2449
8 2583 2511 2434 2513 2516 2439 2353 2438
8 2436 2352 2437 2514 2515 2438 2516 2588
8 2440 2356 2442 2518 2514 2437 2516 2588
8 2442 2358 2444 2520 2516 2439 2517 2589
8 2519 2443 2520 2591 2441 2357 2442 2518
8 2519 2443 2361 2447 2591 2520 2446 2524
8 2446 2360 2445 2523 2520 2444 2521 2592
8 2525 2448 2522 2593 2452 2369 2445 2523
8 2524 2446 2370 2453 2594 2523 2452 2527
8 2526 2449 2525 2595 2451 2368 2452 2527
8 2534 2462 2528 2597 2460 2382 2454 2529
8 2530 2455 2380 2458 2598 2529 2460 2532
8 2599 2533 2460 2532 2531 2459 2380 2458
8 2537 2464 2533 2599 2463 2384 2459 2531
8 2534 2462 2382 2460 2601 2535 2461 2533
8 2538 2465 2535 2601 2464 2385 2461 2533
8 2540 2467 2538 2604 2466 2387 2464 2537
8 2541 2468 2539 2605 2467 2388 2465 2538
8 2543 2470 2541 2607 2469 2390 2467 2540
8 2470 2391 2471 2544 2541 2468 2542 2608
8 2472 2393 2473 2546 2543 2470 2544 2610
8 2473 2394 2474 2547 2544 2471 2545 2611
8 2475 2396 2476 2549 2546 2473 2547 2613
8 2476 2397 2477 2550 2547 2474 2548 2614
8 2549 2476 2399 2478 2616 2550 2479 2552
8 2479 2400 2480 2553 2550 2477 2551 2617
8 2552 2479 2402 2483 2619 2553 2482 2557
8 2482 2401 2481 2556 2553 2480 2554 2620
8 2485 2404 2484 2559 2556 2481 2555 2623
8 2486 2405 2485 2560 2557 2482 2556 2624
8 2488 2407 2487 2561 2559 2484 2558 2625
8 2489 2408 2488 2562 2560 2485 2559 2626
8 2491 2411 2490 2563 2562 2488 2561 2627
8 2513 2434 2512 2585 2565 2493 2564 2630
8 2586 2513 2565 2632 2515 2438 2494 2567
8 2565 2493 2566 2633 2494 2416 2495 2568
8 2567 2494 2568 2635 2496 2417 2497 2570
8 2568 2495 2569 2636 2497 2418 2498 2571
8 2570 2497 2571 2638 2499 2420 2500 2573
8 2571 2498 2572 2639 2500 2421 2501 2574
8 2573 2500 2574 2641 2502 2423 2503 2576
8 2574 2501 2575 2642 2503 2424 2504 2577
8 2576 2503 2577 2643 2505 2426 2506 2578
8 2597 2528 2579 2645 2529 2454 2508 2580
8 2580 2508 2579 2645 2525 2448 2522 2593
8 2581 2509 2455 2530 2646 2580 2529 2598
8 2581 2509 2580 2646 2526 2449 2525 2595
8 2583 2511 2582 2648 2513 2434 2512 2585
8 2583 2511 2439 2516 2648 2582 2517 2589
8 2649 2583 2513 2586 2588 2516 2438 2515
8 2589 2517 2444 2520 2653 2587 2521 2592
8 2518 2442 2520 2591 2588 2516 2589 2654
8 2593 2522 2590 2655 2523 2445 2521 2592
8 2524 2446 2523 2594 2591 2520 2592 2656
8 2595 2525 2593 2657 2527 2452 2523 2594
8 2602 2536 2596 2659 2534 2462 2528 2597
8 2600 2534 2597 2660 2532 2460 2529 2598
8 2600 2534 2460 2532 2661 2601 2533 2599
8 2604 2538 2601 2661 2537 2464 2533 2599
8 2602 2536 2462 2534 2663 2603 2535 2601
8 2601 2535 2465 2538 2663 2603 2539 2605
8 2607 2541 2605 2665 2540 2467 2538 2604
8 2608 2542 2606 2666 2541 2468 2539 2605
8 2543 2470 2544 2610 2607 2541 2608 2668
8 2544 2471 2545 2611 2608 2542 2609 2669
8 2546 2473 2547 2613 2610 2544 2611 2671
8 2547 2474 2548 2614 2611 2545 2612 2672
8 2549 2476 2550 2616 2613 2547 2614 2674
8 2550 2477 2551 2617 2614 2548 2615 2675
8 2552 2479 2553 2619 2616 2550 2617 2677
8 2553 2480 2554 2620 2617 2551 2618 2678
8 2557 2482 2556 2624 2619 2553 2620 2680
8 2556 2481 2555 2623 2620 2554 2621 2681
8 2559 2484 2558 2625 2623 2555 2622 2683
8 2560 2485 2559 2626 2624 2556 2623 2684
8 2562 2488 2561 2627 2626 2559 2625 2685
8 2690 2629 2564 2630 2650 2584 2512 2585
8 2586 2513 2585 2651 2632 2565 2630 2691
8 2630 2564 2631 2692 2565 2493 2566 2633
8 2632 2565 2633 2694 2567 2494 2568 2635
8 2633 2566 2634 2695 2568 2495 2569 2636
8 2635 2568 2636 2697 2570 2497 2571 2638
8 2636 2569 2637 2698 2571 2498 2572 2639
8 2638 2571 2639 2700 2573 2500 2574 2641
8 2639 2572 2640 2701 2574 2501 2575 2642
8 2641 2574 2642 2702 2576 2503 2577 2643
8 2597 2528 2596 2659 2645 2579 2644 2704
8 2645 2579 2644 2704 2593 2522 2590 2655
8 2660 2597 2645 2705 2598 2529 2580 2646
8 2646 2580 2645 2705 2595 2525 2593 2657
8 2650 2584 2512 2585 2707 2647 2582 2648
8 2648 2582 2517 2589 2707 2647 2587 2653
8 2649 2583 2648 2708 2586 2513 2585 2651
8 2649 2583 2516 2588 2708 2648 2589 2654
8 2655 2590 2652 2710 2592 2521 2587 2653
8 2654 2589 2520 2591 2711 2653 2592 2656
8 2657 2593 2655 2712 2594 2523 2592 2656
8 2602 2536 2603 2663 2659 2596 2658 2714
8 2662 2602 2659 2715 2600 2534 2597 2660
8 2662 2602 2534 2600 2717 2663 2601 2661
8 2661 2601 2538 2604 2717 2663 2605 2665
8 2666 2606 2664 2718 2605 2539 2603 2663
8 2668 2608 2666 2720 2607 2541 2605 2665
8 2608 2542 2609 2669 2666 2606 2667 2721
8 2610 2544 2611 2671 2668 2608 2669 2723
8 2611 2545 2612 2672 2669 2609 2670 2724
8 2613 2547 2614 2674 2671 2611 2672 2726
8 2614 2548 2615 2675 2672 2612 2673 2727
8 2616 2550 2617 2677 2674 2614 2675 2729
8 2617 2551 2618 2678 2675 2615 2676 2730
8 2619 2553 2620 2680 2677 2617 2678 2732
8 2620 2554 2621 2681 2678 2618 2679 2733
8 2624 2556 2623 2684 2680 2620 2681 2735
8 2681 2621 2555 2623 2736 2682 2622 2683
8 2626 2559 2625 2685 2684 2623 2683 2737
8 2688 2628 2584 2650 2740 2686 2647 2707
8 2688 2628 2687 2742 2650 2584 2629 2690
8 2690 2629 2689 2745 2630 2564 2631 2692
8 2746 2690 2630 2691 2709 2650 2585 2651
8 2691 2630 2692 2747 2632 2565 2633 2694
8 2692 2631 2693 2748 2633 2566 2634 2695
8 2694 2633 2695 2750 2635 2568 2636 2697
8 2695 2634 2696 2751 2636 2569 2637 2698
8 2697 2636 2698 2753 2638 2571 2639 2700
8 2698 2637 2699 2754 2639 2572 2640 2701
8 2700 2639 2701 2755 2641 2574 2642 2702
8 2659 2596 2658 2714 2704 2644 2703 2757
8 2704 2644 2703 2757 2655 2590 2652 2710
8 2660 2597 2659 2715 2705 2645 2704 2758
8 2705 2645 2704 2758 2657 2593 2655 2712
8 2759 2706 2647 2707 2710 2652 2587 2653
8 2709 2650 2585 2651 2760 2707 2648 2708
8 2708 2648 2589 2654 2760 2707 2653 2711
8 2712 2655 2710 2761 2656 2592 2653 2711
8 2763 2713 2658 2714 2718 2664 2603 2663
8 2662 2602 2663 2717 2715 2659 2714 2764
8 2720 2666 2718 2767 2665 2605 2663 2717
8 2768 2719 2664 2718 2721 2667 2606 2666
8 2668 2608 2669 2723 2720 2666 2721 2770
8 2669 2609 2670 2724 2721 2667 2722 2771
8 2671 2611 2672 2726 2723 2669 2724 2773
8 2672 2612 2673 2727 2724 2670 2725 2774
8 2674 2614 2675 2729 2726 2672 2727 2776
8 2675 2615 2676 2730 2727 2673 2728 2777
8 2677 2617 2678 2732 2729 2675 2730 2779
8 2678 2618 2679 2733 2730 2676 2731 2780
8 2680 2620 2681 2735 2732 2678 2733 2782
8 2733 2679 2621 2681 2783 2734 2682 2736
8 2735 2681 2623 2684 2784 2736 2683 2737
8 2740 2686 2647 2707 2787 2738 2706 2759
8 2688 2628 2686 2740 2742 2687 2739 2789
8 2743 2688 2650 2709 2790 2740 2707 2760
8 2742 2687 2741 2792 2690 2629 2689 2745
8 2743 2688 2742 2793 2709 2650 2690 2746
8 2745 2689 2744 2795 2692 2631 2693 2748
8 2746 2690 2745 2796 2691 2630 2692 2747
8 2747 2692 2748 2797 2694 2633 2695 2750
8 2748 2693 2749 2798 2695 2634 2696 2751
8 2750 2695 2751 2800 2697 2636 2698 2753
8 2751 2696 2752 2801 2698 2637 2699 2754
8 2753 2698 2754 2802 2700 2639 2701 2755
8 2763 2713 2756 2804 2714 2658 2703 2757
8 2759 2706 2652 2710 2804 2756 2703 2757
8 2715 2659 2714 2764 2758 2704 2757 2805
8 2758 2704 2757 2805 2712 2655 2710 2761
8 2806 2759 2707 2760 2761 2710 2653 2711
8 2765 2716 2762 2808 2718 2664 2713 2763
8 2809 2763 2714 2764 2767 2718 2663 2717
8 2765 2716 2664 2718 2811 2766 2719 2768
8 2813 2768 2718 2767 2770 2721 2666 2720
8 2814 2769 2719 2768 2771 2722 2667 2721
8 2723 2669 2724 2773 2770 2721 2771 2816
8 2724 2670 2725 2774 2771 2722 2772 2817
8 2726 2672 2727 2776 2773 2724 2774 2819
8 2727 2673 2728 2777 2774 2725 2775 2820
8 2729 2675 2730 2779 2776 2727 2777 2822
8 2730 2676 2731 2780 2777 2728 2778 2823
8 2732 2678 2733 2782 2779 2730 2780 2825
8 2780 2731 2679 2733 2826 2781 2734 2783
8 2782 2733 2681 2735 2827 2783 2736 2784
8 2830 2785 2738 2787 2804 2756 2706 2759
8 2789 2739 2686 2740 2832 2786 2738 2787
8 2790 2740 2707 2760 2833 2787 2759 2806
8 2742 2687 2739 2789 2792 2741 2788 2835
8 2743 2688 2740 2790 2793 2742 2789 2836
8 2792 2741 2791 2838 2745 2689 2744 2795
8 2793 2742 2792 2839 2746 2690 2745 2796
8 2795 2744 2794 2841 2748 2693 2749 2798
8 2796 2745 2795 2842 2747 2692 2748 2797
8 2797 2748 2798 2843 2750 2695 2751 2800
8 2798 2749 2799 2844 2751 2696 2752 2801
8 2800 2751 2801 2845 2753 2698 2754 2802
8 2808 2762 2803 2847 2763 2713 2756 2804
8 2809 2763 2804 2848 2764 2714 2757 2805
8 2806 2759 2710 2761 2848 2804 2757 2805
8 2765 2716 2766 2811 2808 2762 2807 2850
8 2810 2765 2808 2851 2767 2718 2763 2809
8 2810 2765 2718 2767 2852 2811 2768 2813
8 2811 2766 2719 2768 2853 2812 2769 2814
8 2855 2814 2768 2813 2816 2771 2721 2770
8 2856 2815 2769 2814 2817 2772 2722 2771
8 2773 2724 2774 2819 2816 2771 2817 2858
8 2774 2725 2775 2820 2817 2772 2818 2859
8 2776 2727 2777 2822 2819 2774 2820 2861
8 2777 2728 2778 2823 2820 2775 2821 2862
8 2779 2730 2780 2825 2822 2777 2823 2864
8 2823 2778 2731 2780 2865 2824 2781 2826
8 2825 2780 2733 2782 2866 2826 2783 2827
8 2869 2828 2785 2830 2847 2803 2756 2804
8 2871 2829 2786 2832 2830 2785 2738 2787
8 2872 2830 2787 2833 2848 2804 2759 2806
8 2789 2739 2786 2832 2835 2788 2831 2874
8 2836 2789 2740 2790 2875 2832 2787 2833
8 2792 2741 2788 2835 2838 2791 2834 2877
8 2793 2742 2789 2836 2839 2792 2835 2878
8 2838 2791 2837 2880 2795 2744 2794 2841
8 2839 2792 2838 2881 2796 2745 2795 2842
8 2841 2794 2840 2882 2798 2749 2799 2844
8 2842 2795 2841 2883 2797 2748 2798 2843
8 2843 2798 2844 2884 2800 2751 2801 2845
8 2886 2846 2803 2847 2850 2807 2762 2808
8 2851 2808 2847 2887 2809 2763 2804 2848
8 2850 2807 2766 2811 2889 2849 2812 2853
8 2810 2765 2811 2852 2851 2808 2850 2890
8 2852 2811 2768 2813 2891 2853 2814 2855
8 2853 2812 2769 2814 2892 2854 2815 2856
8 2894 2856 2814 2855 2858 2817 2771 2816
8 2817 2772 2818 2859 2856 2815 2857 2895
8 2819 2774 2820 2861 2858 2817 2859 2897
8 2820 2775 2821 2862 2859 2818 2860 2898
8 2822 2777 2823 2864 2861 2820 2862 2900
8 2823 2778 2824 2865 2862 2821 2863 2901
8 2864 2823 2780 2825 2902 2865 2826 2866
8 2904 2867 2828 2869 2886 2846 2803 2847
8 2869 2828 2868 2906 2830 2785 2829 2871
8 2907 2869 2830 2872 2887 2847 2804 2848
8 2871 2829 2870 2909 2832 2786 2831 2874
8 2910 2871 2832 2875 2872 2830 2787 2833
8 2835 2788 2831 2874 2877 2834 2873 2912
8 2836 2789 2832 2875 2878 2835 2874 2913
8 2877 2834 2876 2915 2838 2791 2837 2880
8 2839 2792 2835 2878 2881 2838 2877 2916
8 2880 2837 2879 2917 2841 2794 2840 2882
8 2881 2838 2880 2918 2842 2795 2841 2883
8 2883 2841 2882 2919 2843 2798 2844 2884
8 2921 2885 2846 2886 2889 2849 2807 2850
8 2922 2886 2847 2887 2890 2850 2808 2851
8 2889 2849 2812 2853 2924 2888 2854 2892
8 2890 2850 2811 2852 2925 2889 2853 2891
8 2891 2853 2814 2855 2926 2892 2856 2894
8 2892 2854 2815 2856 2927 2893 2857 2895
8 2858 2817 2859 2897 2894 2856 2895 2929
8 2859 2818 2860 2898 2895 2857 2896 2930
8 2861 2820 2862 2900 2897 2859 2898 2932
8 2862 2821 2863 2901 2898 2860 2899 2933
8 2864 2823 2865 2902 2900 2862 2901 2934
8 2904 2867 2846 2886 2936 2903 2885 2921
8 2904 2867 2903 2936 2869 2828 2868 2906
8 2937 2904 2869 2907 2922 2886 2847 2887
8 2906 2868 2905 2939 2871 2829 2870 2909
8 2907 2869 2906 2940 2872 2830 2871 2910
8 2909 2870 2908 2942 2874 2831 2873 2912
8 2910 2871 2909 2943 2875 2832 2874 2913
8 2912 2873 2911 2945 2877 2834 2876 2915
8 2878 2835 2874 2913 2916 2877 2912 2946
8 2915 2876 2914 2947 2880 2837 2879 2917
8 2916 2877 2915 2948 2881 2838 2880 2918
8 2918 2880 2917 2949 2883 2841 2882 2919
8 2921 2885 2849 2889 2951 2920 2888 2924
8 2952 2921 2886 2922 2925 2889 2850 2890
8 2924 2888 2854 2892 2954 2923 2893 2927
8 2925 2889 2853 2891 2955 2924 2892 2926
8 2926 2892 2856 2894 2956 2927 2895 2929
8 2895 2857 2896 2930 2927 2893 2928 2957
8 2897 2859 2898 2932 2929 2895 2930 2959
8 2898 2860 2899 2933 2930 2896 2931 2960
8 2900 2862 2901 2934 2932 2898 2933 2961
8 2936 2903 2885 2921 2963 2935 2920 2951
8 2936 2903 2935 2963 2906 2868 2905 2939
8 2937 2904 2886 2922 2964 2936 2921 2952
8 2937 2904 2936 2964 2907 2869 2906 2940
8 2939 2905 2938 2966 2909 2870 2908 2942
8 2940 2906 2939 2967 2910 2871 2909 2943
8 2942 2908 2941 2969 2912 2873 2911 2945
8 2943 2909 2942 2970 2913 2874 2912 2946
8 2945 2911 2944 2971 2915 2876 2914 2947
8 2946 2912 2945 2972 2916 2877 2915 2948
8 2948 2915 2947 2973 2918 2880 2917 2949
8 2951 2920 2888 2924 2975 2950 2923 2954
8 2952 2921 2889 2925 2976 2951 2924 2955
8 2927 2893 2928 2957 2954 2923 2953 2978
8 2955 2924 2892 2926 2979 2954 2927 2956
8 2929 2895 2930 2959 2956 2927 2957 2980
8 2930 2896 2931 2960 2957 2928 2958 2981
8 2932 2898 2933 2961 2959 2930 2960 2982
8 2951 2920 2950 2975 2963 2935 2962 2984
8 2963 2935 2962 2984 2939 2905 2938 2966
8 2964 2936 2921 2952 2985 2963 2951 2976
8 2964 2936 2963 2985 2940 2906 2939 2967
8 2966 2938 2965 2987 2942 2908 2941 2969
8 2967 2939 2966 2988 2943 2909 2942 2970
8 2969 2941 2968 2989 2945 2911 2944 2971
8 2970 2942 2969 2990 2946 2912 2945 2972
8 2972 2945 2971 2991 2948 2915 2947 2973
8 2954 2923 2953 2978 2975 2950 2974 2993
8 2976 2951 2924 2955 2994 2975 2954 2979
8 2957 2928 2958 2981 2978 2953 2977 2995
8 2956 2927 2957 2980 2979 2954 2978 2996
8 2959 2930 2960 2982 2980 2957 2981 2997
8 2984 2962 2983 2999 2966 2938 2965 2987
8 2975 2950 2974 2993 2984 2962 2983 2999
8 2976 2951 2975 2994 2985 2963 2984 3000
8 2985 2963 2984 3000 2967 2939 2966 2988
8 2987 2965 2986 3001 2969 2941 2968 2989
8 2988 2966 2987 3002 2970 2942 2969 2990
8 2990 2969 2989 3003 2972 2945 2971 2991
8 2978 2953 2977 2995 2993 2974 2992 3004
8 2979 2954 2978 2996 2994 2975 2993 3005
8 2980 2957 2981 2997 2996 2978 2995 3006
8 2974 2993 2999 2983 2992 3004 3007 2998
8 2983 2999 2987 2965 2998 3007 3001 2986
8 3000 2984 2999 3008 2988 2966 2987 3002
8 2994 2975 2993 3005 3000 2984 2999 3008
8 3002 2987 3001 3009 2990 2969 2989 3003
8 2996 2978 2995 3006 3005 2993 3004 3010
8 3005 2993 3004 3010 3008 2999 3007 3011
8 3008 2999 3007 3011 3002 2987 3001 3009

CELL_TYPES 1910
12
12
12
12
12
12
12
12
12
12
12
12
12
12
12
12
12
12
12
12
12
12
12
12
12
12
12
12
12
12
12
12
12
12
12
12
12
12
12
12
12
12
12
12
12
12
12
12
12
12
12
12
12
12
12
12
12
12
12
12
12
12
12
12
12
12
12
12
12
12
12
12
12
12
12
12
12
12
12
12
12
12
12
12
12
12
12
12
12
12
12
12
12
12
12
12
12
12
12
12
12
12
12
12
12
12
12
12
12
12
12
12
12
12
12
12
12
12
12
12
12
12
12
12
12
12
12
12
12
12
12
12
12
12
12
12
12
12
12
12
12
12
12
12
12
12
12
12
12
12
12
12
12
12
12
12
12
12
12
12
12
12
12
12
12
12
12
12
12
12
12
12
12
12
12
12
12
12
12
12
12
12
12
12
12
12
12
12
12
12
12
12
12
12
12
12
12
12
12
12
12
12
12
12
12
12
12
12
12
12
12
12
12
12
12
12
12
12
12
12
12
12
12
12
12
12
12
12
12
12
12
12
12
12
12
12
12
12
12
12
12
12
12
12
12
12
12
12
12
12
12
12
12
12
12
12
12
12
12
12
12
12
12
12
12
12
12
12
12
12
12
12
12
12
12
12
12
12
12
12
12
12
12
12
12
12
12
12
12
12
12
12
12
12
12
12
12
12
12
12
12
12
12
12
12
12
12
12
12
12
12
12
12
12
12
12
12
12
12
12
12
12
12
12
12
12
12
12
12
12
12
12
12
12
12
12
12
12
12
12
12
12
12
12
12
12
12
12
12
12
12
12
12
12
12
12
12
12
12
12
12
12
12
12
12
12
12
12
12
12
12
12
12
12
12
12
12
12
12
12
12
12
12
12
12
12
12
12
12
12
12
12
12
12
12
12
12
12
12
12
12
12
12
12
12
12
12
12
12
12
12
12
12
12
12
12
12
12
12
12
12
12
12
12
12
12
12
12
12
12
12
12
12
12
12
12
12
12
12
12
12
12
12
12
12
12
12
12
12
12
12
12
12
12
12
12
12
12
12
12
12
12
12
12
12
12
12
12
12
12
12
12
12
12
12
12
12
12
12
12
12
12
12
12
12
12
12
12
12
12
12
12
12
12
12
12
12
12
12
12
12
12
12
12
12
12
12
12
12
12
12
12
12
12
12
12
12
12
12
12
12
12
12
12
12
12
12
12
12
12
12
12
12
12
12
12
12
12
12
12
12
12
12
12
12
12
12
12
12
12
12
12
12
12
12
12
12
12
12
12
12
12
12
12
12
12
12
12
12
12
12
12
12
12
12
12
12
12
12
12
12
12
12
12
12
12
12
12
12
12
12
12
12
12
12
12
12
12
12
12
12
12
12
12
12
12
12
12
12
12
12
12
12
12
12
12
12
12
12
12
12
12
12
12
12
12
12
12
12
12
12
12
12
12
12
12
12
12
12
12
12
12
12
12
12
12
12
12
12
12
12
12
12
12
12
12
12
12
12
12
12
12
12
12
12
12
12
12
12
12
12
12
12
12
12
12
12
12
12
12
12
12
12
12
12
12
12
12
12
12
12
12
12
12
12
12
12
12
12
12
12
12
12
12
12
12
12
12
12
12
12
12
12
12
12
12
12
12
12
12
12
12
12
12
12
12
12
12
12
12
12
12
12
12
12
12
12
12
12
12
12
12
12
12
12
12
12
12
12
12
12
12
12
12
12
12
12
12
12
12
12
12
12
12
12
12
12
12
12
12
12
12
12
12
12
12
12
12
12
12
12
12
12
12
12
12
12
12
12
12
12
12
12
12
12
12
12
12
12
12
12
12
12
12
12
12
12
12
12
12
12
12
12
12
12
12
12
12
12
12
12
12
12
12
12
12
12
12
12
12
12
12
12
12
12
12
12
12
12
12
12
12
12
12
12
12
12
12
12
12
12
12
12
12
12
12
12
12
12
12
12
12
12
12
12
12
12
12
12
12
12
12
12
12
12
12
12
12
12
12
12
12
12
12
12
12
12
12
12
12
12
12
12
12
12
12
12
12
12
12
12
12
12
12
12
12
12
12
12
12
12
12
12
12
12
12
12
12
12
12
12
12
12
12
12
12
12
12
12
12
12
12
12
12
12
12
12
12
12
12
12
12
12
12
12
12
12
12
12
12
12
12
12
12
12
12
12
12
12
12
12
12
12
12
12
12
12
12
12
12
12
12
12
12
12
12
12
12
12
12
12
12
12
12
12
12
12
12
12
12
12
12
12
12
12
12
12
12
12
12
12
12
12
12
12
12
12
12
12
12
12
12
12
12
12
12
12
12
12
12
12
12
12
12
12
12
12
12
12
12
12
12
12
12
12
12
12
12
12
12
12
12
12
12
12
12
12
12
12
12
12
12
12
12
12
12
12
12
12
12
12
12
12
12
12
12
12
12
12
12
12
12
12
12
12
12
12
12
12
12
12
12
12
12
12
12
12
12
12
12
12
12
12
12
12
12
12
12
12
12
12
12
12
12
12
12
12
12
12
12
12
12
12
12
12
12
12
12
12
12
12
12
12
12
12
12
12
12
12
12
12
12
12
12
12
12
12
12
12
12
12
12
12
12
12
12
12
12
12
12
12
12
12
12
12
12
12
12
12
12
12
12
12
12
12
12
12
12
12
12
12
12
12
12
12
12
12
12
12
12
12
12
12
12
12
12
12
12
12
12
12
12
12
12
12
12
12
12
12
12
12
12
12
12
12
12
12
12
12
12
12
12
12
12
12
12
12
12
12
12
12
12
12
12
12
12
12
12
12
12
12
12
12
12
12
12
12
12
12
12
12
12
12
12
12
12
12
12
12
12
12
12
12
12
12
12
12
12
12
12
12
12
12
12
12
12
12
12
12
12
12
12
12
12
12
12
12
12
12
12
12
12
12
12
12
12
12
12
12
12
12
12
12
12
12
12
12
12
12
12
12
12
12
12
12
12
12
12
12
12
12
12
12
12
12
12
12
12
12
12
12
12
12
12
12
12
12
12
12
12
12
12
12
12
12
12
12
12
12
12
12
12
12
12
12
12
12
12
12
12
12
12
12
12
12
12
12
12
12
12
12
12
12
12
12
12
12
12
12
12
12
12
12
12
12
12
12
12
12
12
12
12
12
12
12
12
12
12
12
12
12
12
12
12
12
12
12
12
12
12
12
12
12
12
12
12
12
12
12
12
12
12
12
12
12
12
12
12
12
12
12
12
12
12
12
12
12
12
12
12
12
12
12
12
12
12
12
12
12
12
12
12
12
12
12
12
12
12
12
12
12
12
12
12
12
12
12
12
12
12
12
12
12
12
12
12
12
12
12
12
12
12
12
12
12
12
12
12
12
12
12
12
12
12
12
12
12
12
12
12
12
12
12
12
12
12
12
12
12
12
12
12
12
12
12
12
12
12
12
12
12
12
12
12
12
12
12
12
12
12
12
12
12
12
12
12
12
12
12
12
12
12
12
12
12
12
12
12
12
12
12
12
12
12
12
12
12
12
12
12
12
12
12
12
12
12
12
12
12
12
12
12
12
12
12
12
12
12
12
12
12
12
12
12
12
12
12
12
12
12
12
12
12
12
12
12
12
12
12
12
12
12
12
12
12
12
12
12
12
12
12
12
12
12
12
12
12
12
12
12
12
12
12
12
12
12
12
12
12
12
12
12
12
12
12
12
12
12
12
12
12
12
12
12
12
12
12
12
12
12
12
12
12
12
12
12
12
12
12
12
12
12
12
12
12
12
12
12
12
12
12
12
12
12
12
12
12
12
12
12
12
12
12
12
12
12
12
12
12
12
12
12
12
12
12
12
12
12
12
12
12
12
12
12
12
12
12
12
12
12
12
12
12
12
12
12
12
12
12
12
12
12
12
12
12
12
12
12
12
12
12
12
12
12
12
12
12
12
12
12
12
12
12
12
12
12
12
12
12
12
12
12
12
12
12
12
12
12
12
12
12
12
12
12
12
12
12
12
12
12
12
12
12
12
12
12
12
12
12
12
12
12
12
12
12
12
12
12
12
12
12
12
12
12
12
12
12
12
12
12
12
12
12
12
12
12
12
12
12
12
12
12
12
12
12
12
12
12
12
12
12
12
12
12
12
12
12
12
12
12
12
12
12
12
12
12
12
12
12
12
12
12
12
12
12
12
12
12
12
12
12
12
12
12
12
12
12
12
12
12
12
12
12
12
12
12
12
12
12
12
12
12
12
12
12
12
12
12
12
12
12
12
12
12
12
12
12
12
12
12
12
12
12
12
12
12
12
12
12
12
12
12
12
12
12
12
12
12
12
12
12
12
12
12
12
12
12
12
12
12

POINT_DATA 3012
SCALARS Jp_lamdaP float 4
LOOKUP_TABLE default
0.999737 1 1 0.999737
1 1 1 1
0.999745 1 1 0.999745
0.999685 1 1 0.999685
0.999738 1 1 0.999738
0.999723 1 1 0.999723
0.999004 1 1 0.999004
1 1 1 1
1 1 1 1
1 1 1 1
0.999811 1 1 0.999811
0.999132 1 1 0.999132
0.999667 1 1 0.999667
0.999684 1 1 0.999684
0.999746 1 1 0.999746
0.999708 1 1 0.999708
0.999729 1 1 0.999729
0.999752 1 1 0.999752
0.999006 1 1 0.999006
1 1 1 1
0.999664 1 1 0.999664
0.999716 1 1 0.999716
0.998875 1 1 0.998875
0.998979 1 1 0.998979
0.999733 1 1 0.999733
0.999025 1 1 0.999025
1.00733 1.00947 1 0.997872
1 1 1 1
0.999858 1 1 0.999858
0.999872 1 1 0.999872
1 1 1 1
0.999141 1 1 0.999141
0.99971 1 1 0.99971
0.999736 1 1 0.999736
0.999131 1 1 0.999131
1 1 1 1
0.999217 1 1 0.999217
0.999233 1 1 0.999233
1.00147 1.00361 1 0.997868
1 1 1 1
1 1 1 1
0.999841 1 1 0.999841
1 1 1 1
0.999684 1 1 0.999684
0.998802 1 1 0.998802
1 1 1 1
0.999032 1 1 0.999032
0.999727 1 1 0.999727
0.999761 1 1 0.999761
0.99973 1 1 0.99973
0.999011 1 1 0.999011
0.999825 1 1 0.999825
0.999686 1 1 0.999686
0.999746 1 1 0.999746
0.999736 1 1 0.999736
0.998873 1 1 0.998873
0.999029 1 1 0.999029
0.998981 1 1 0.998981
1.00775 1.00991 1 0.997858
1 1 1 1
0.99966 1 1 0.99966
0.999039 1 1 0.999039
0.998841 1 1 0.998841
0.998929 1 1 0.998929
1.01066 1.0131 1 0.99759
1.00881 1.01112 1 0.997711
0.999796 1 1 0.999796
0.999132 1 1 0.999132
1.00483 1.00688 1 0.997969
1.02301 1.02608 1 0.997009
1 1 1 1
1 1 1 1
1 1 1 1
0.999149 1 1 0.999149
1 1 1 1
1 1 1 1
0.998989 1 1 0.998989
0.999935 1 1 0.999935
0.999094 1 1 0.999094
0.999328 1 1 0.999328
1.00067 1.00281 1 0.997864
1 1 1 1
1.00069 1 1.00085 0.999842
0.998916 1 1 0.998916
0.999023 1 1 0.999023
1.01114 1.01374 1 0.997442
0.999695 1 1.00015 0.999547
1.0052 1.00745 1 0.997767
0.999091 1.00108 1 0.998012
1.00624 1.00908 1 0.997193
1 1 1 1
1 1 1 1
1 1 1 1
1 1 1 1
1 1 1 1
0.999839 1 1 0.999839
0.998914 1 1 0.998914
0.999844 1 1 0.999844
0.998955 1 1 0.998955
1 1 1 1
0.998806 1 1 0.998806
0.999016 1 1 0.999016
1.01014 1.01297 1 0.997211
0.999068 1 1 0.999068
1.01245 1.01522 1 0.997266
0.999688 1 1 0.999688
0.999705 1 1 0.999705
0.999755 1 1 0.999755
0.999753 1 1 0.999753
0.998873 1 1 0.998873
0.998984 1 1 0.998984
0.999035 1 1 0.999035
1.00816 1.01034 1 0.997843
1 1 1 1
0.999681 1 1 0.999681
0.998833 1 1 0.998833
0.998837 1 1 0.998837
0.999898 1 1 0.999898
0.999203 1 1 0.999203
0.99893 1 1 0.99893
1.0106 1.01308 1 0.997549
1.00552 1.00758 1 0.997951
1.00906 1.01134 1 0.997741
1.02293 1.02599 1 0.997015
0.998829 1 1 0.998829
0.99883 1 1 0.99883
1.009 1.0116 1 0.997428
1.01056 1.01311 1 0.997484
1.0103 1.01273 1 0.997602
1.03176 1.03498 1 0.996891
1 1 1 1
1.02591 1.02903 1 0.996966
0.999568 1 1.00022 0.999352
1.00118 1.00322 1 0.997965
1.01951 1.02252 1 0.997052
1.03119 1.03447 1 0.996833
1.00099 1 1.00135 0.999638
1.00535 1 1.00668 0.998675
1 1 1 1
1 1 1 1
0.998995 1 1 0.998995
1 1 1 1
0.999317 1 1.00002 0.999298
0.999099 1 1 0.999099
0.999716 1.00186 1 0.997861
1 1 1 1
1.00029 1 1.00042 0.999864
0.99901 1 1 0.99901
0.99911 1 1 0.99911
1.01053 1.01312 1 0.997443
0.999844 1 1.00033 0.999518
1.00406 1.0063 1 0.99777
0.99868 1.00067 1 0.998011
1.00645 1.0093 1 0.997178
1.00059 1 1.0009 0.99969
0.999935 1 1 0.999935
1.00195 1 1.00302 0.998936
1.01262 1.01532 1 0.997335
1.00873 1.01115 1 0.997605
1.02819 1.03147 1 0.996828
0.998658 1.00006 1.00032 0.998277
1.0143 1.01723 1 0.997112
1.0039 1.00606 1.00057 0.997284
1.01451 1.01756 1 0.997006
1 1 1 1
1 1 1 1
1 1 1 1
1.00006 1 1.0003 0.999756
1 1 1 1
1 1 1 1
1 1 1 1
0.998877 1 1 0.998877
0.998833 1 1 0.998833
1 1 1 1
1 1 1 1
0.998808 1 1 0.998808
0.998939 1 1 0.998939
1.01052 1.01335 1 0.997211
0.9989 1 1 0.9989
1.01267 1.01545 1 0.997266
0.998802 1 1 0.998802
1.00908 1.01195 1 0.997172
1.01132 1.01411 1 0.99725
1.03453 1.03788 1 0.996772
1.01298 1.01574 1 0.997284
1.03703 1.04036 1 0.996796
1 1 1 1
0.999702 1 1 0.999702
0.998607 1 1 0.998607
0.998834 1 1 0.998834
1 1 1 1
0.999275 1 1 0.999275
0.998932 1 1 0.998932
1.01051 1.01303 1 0.997509
1.00934 1.0116 1 0.99777
1.00622 1.0083 1 0.997933
1.02283 1.02589 1 0.997022
0.998827 1 1 0.998827
0.998826 1 1 0.998826
1.00886 1.01157 1 0.997312
1.01053 1.01305 1 0.99751
1 1 1 1
0.999467 1 1.00009 0.999379
1.00233 1.0043 1 0.998035
1.01025 1.01268 1 0.997598
1.03165 1.03489 1 0.996865
1.01886 1.02188 1 0.997043
1.02611 1.02919 1 0.997001
1.03081 1.03408 1 0.996842
1.00107 1 1.00145 0.999627
1.00409 1 1.00542 0.998676
1.00855 1.01138 1 0.997193
1.00933 1.01189 1 0.997463
1.03223 1.03549 1 0.996852
1.03213 1.03542 1 0.996821
1.02866 1.03178 1 0.996975
1.04098 1.04422 1 0.996893
1.00053 1 1.00103 0.999499
1.03357 1.0368 1 0.996881
0.998977 1.00073 1.00011 0.998144
1.01213 1.01502 1 0.997151
1.02876 1.03205 1 0.996813
1.03252 1.03567 1 0.996962
1.00308 1 1.00462 0.998468
1.00141 1 1.00248 0.998934
1.00341 1 1.0054 0.998028
0.998942 1 1 0.998942
1 1 1 1
0.999886 1 1 0.999886
0.999055 1 1 0.999055
1.00992 1.01251 1 0.997444
0.999975 1 1.00045 0.999523
0.998326 1.00028 1.00004 0.99801
1.00298 1.00522 1 0.997773
1.00705 1.00991 1 0.997162
1.00044 1 1.00073 0.999711
0.999949 1 1 0.999949
1.00233 1 1.0034 0.998938
1.01226 1.01496 1 0.997334
1.00778 1.01019 1 0.997609
1.02831 1.03159 1 0.996824
0.998594 1 1.00031 0.998281
1.01532 1.01825 1 0.997119
1.00324 1.0055 1.00047 0.997279
1.01531 1.01837 1 0.996995
0.999977 1 1 0.999977
1.00057 1 1.00199 0.998584
1.00077 1 1.00149 0.999286
1.00257 1 1.00429 0.998288
1.03239 1.03573 1 0.996775
1.02248 1.02559 1 0.996969
1.03443 1.03784 1 0.996715
1.00092 1.00285 1.00049 0.997591
1.02237 1.02548 1 0.996973
1.01234 1.01383 1.00158 0.996951
1.02392 1.02712 1 0.996886
0.999744 1 1 0.999744
0.999999 1 1 0.999999
1 1 1 1
1 1 1 1
1 1 1 1
0.999857 1 1 0.999857
1 1 1 1
1.00065 1 1.00091 0.999743
1 1 1 1
0.9989 1 1 0.9989
0.998859 1 1 0.998859
1.013 1.01578 1 0.997265
1.01087 1.0137 1 0.997211
0.99881 1 1 0.99881
1 1 1 1
0.998802 1 1 0.998802
1.00937 1.01223 1 0.997172
1.01171 1.0145 1 0.997249
1.03419 1.03754 1 0.99677
1.01302 1.01578 1 0.997282
1.03696 1.04029 1 0.996794
1.00847 1.01133 1 0.997167
1.03349 1.03687 1 0.996737
1.03587 1.0392 1 0.996795
1.04625 1.04995 0.999506 0.996972
1.03625 1.0396 1 0.99678
1.04621 1.04945 1 0.996905
0.998824 1 1 0.998824
0.998821 1 1 0.998821
1.00872 1.01156 1 0.997196
1.01052 1.01302 1 0.997536
1 1 1 1
0.999406 1 1 0.999406
1.00339 1.0053 1 0.998104
1.0102 1.01263 1 0.997595
1.03158 1.03485 1 0.99684
1.02626 1.02931 1 0.997037
1.01821 1.02124 1 0.997034
1.03055 1.03381 1 0.99685
1.00128 1 1.00166 0.999615
1.00342 1 1.00475 0.998678
1.00847 1.01133 1 0.997171
1.00933 1.0119 1 0.997458
1.03221 1.03545 1 0.996865
1.03229 1.03556 1 0.996843
1.00028 1 1.00079 0.999488
0.999623 1.00142 1.00007 0.998141
1.01215 1.01501 1 0.997185
1.02896 1.0321 1 0.996964
1.04108 1.04429 1 0.996925
1.02822 1.03153 1 0.996787
1.0336 1.03683 1 0.996885
1.03274 1.03589 1 0.996961
1.00253 1 1.00407 0.998471
1.00373 1 1.00571 0.998031
1.00228 1 1.00335 0.998931
1.03194 1.03524 1 0.996811
1.03244 1.03567 1 0.996884
1.04567 1.04921 0.999694 0.996926
1.0426 1.04584 1 0.996899
1.03655 1.03974 1 0.996929
1.03847 1.04211 0.999329 0.997182
0.998981 1.00006 1.0006 0.998321
1.0348 1.03785 1 0.997063
1.00351 1.00606 1 0.99747
1.01983 1.02317 1 0.996735
1.02913 1.03252 1 0.996722
1.02827 1.03117 1 0.997187
1.00007 1 1.00089 0.999174
0.998747 1.00013 1.00067 0.99795
1.00671 1 1.00856 0.998174
1.00074 1.00029 1.00266 0.997806
1.01192 1.01462 1 0.997333
0.999962 1 1 0.999962
1.00031 1 1.00058 0.999733
1.00262 1 1.00368 0.998939
1.00682 1.00923 1 0.997613
1.02842 1.0317 1 0.99682
0.998538 1 1.00025 0.998285
1.00211 1.00452 1.00033 0.997274
1.01625 1.01918 1 0.997126
1.01553 1.0186 1 0.996984
0.999983 1 1 0.999983
1.00122 1 1.00264 0.998585
1.00029 1 1.001 0.999294
1.00316 1 1.00489 0.998283
1.03231 1.03565 1 0.99677
1.02261 1.02572 1 0.996968
1.03414 1.03755 1 0.996712
0.999834 1.00179 1.00045 0.997598
1.02223 1.02533 1 0.996979
1.0122 1.01356 1.00173 0.99694
1.02387 1.02699 1 0.996961
0.999994 1 1 0.999994
0.999523 1 1 0.999523
0.999948 1.00045 1.00153 0.997972
1.00257 1 1.00396 0.998615
1.0008 1 1.00283 0.997982
1.03869 1.04209 1 0.99674
1.02846 1.03175 1 0.996818
1.03083 1.03414 1 0.996804
1.00536 1.00617 1.00199 0.99721
1.02192 1.02505 1 0.996944
1.0137 1.01619 1.00086 0.996687
0.999712 1 1 0.999712
0.99924 1 1 0.99924
0.999768 1 1 0.999768
0.999746 1 1 0.999746
1 1 1 1
0.999999 1 1 0.999999
1 1 1 1
1 1 1 1
1 1 1 1
0.999936 1 1 0.999936
1 1 1 1
0.999841 1 1 0.999841
1 1 1 1
1.00093 1 1.0012 0.99973
1 1 1 1
1.01301 1.01577 1 0.99728
1.01202 1.01482 1 0.997249
1.03665 1.03999 1 0.996791
1.03384 1.03719 1 0.996768
1.00973 1.0126 1 0.997172
0.998801 1 1 0.998801
1.00864 1.01151 1 0.997167
1.0332 1.03659 1 0.996737
1.03562 1.03895 1 0.996793
1.04612 1.05009 0.999223 0.99699
1.03559 1.03894 1 0.996776
1.04576 1.04901 1 0.996903
1.03241 1.0358 1 0.996728
1.04483 1.04922 0.998818 0.996992
1.04743 1.05082 0.99982 0.996952
1.04455 1.05093 0.996718 0.997204
1.0418 1.04511 1 0.996828
1.04431 1.04888 0.99841 0.997231
1.00843 1.01132 1 0.997148
1.00934 1.01192 1 0.997454
1.0322 1.03543 1 0.996878
1.03241 1.03566 1 0.996866
1.00002 1 1.00054 0.999477
1.00022 1.00209 1 0.998139
1.01242 1.01524 1 0.99722
1.02928 1.03243 1 0.996952
1.04119 1.04436 1 0.996957
1.03367 1.0369 1 0.99689
1.0275 1.03084 1 0.99676
1.03299 1.03614 1 0.99696
1.00179 1 1.00332 0.998473
1.00394 1 1.00591 0.998034
1.00277 1 1.00385 0.998929
1.03201 1.03534 1 0.996781
1.03266 1.03589 1 0.996881
1.0451 1.0488 0.99951 0.996961
1.04283 1.04609 1 0.99689
0.999212 1.00018 1.00071 0.998319
1.00494 1.00749 1 0.997464
1.01857 1.02183 1.00003 0.996782
1.03682 1.04003 1 0.996908
1.03848 1.04215 0.999246 0.99723
1.02952 1.03294 1 0.996686
1.03449 1.03753 1 0.997066
1.02884 1.03171 1 0.99722
0.999472 1.00035 1.00117 0.997951
1.00099 1.00044 1.00277 0.997781
1.0005 1 1.00133 0.99917
1.00625 1 1.00805 0.99821
1.04518 1.04892 0.999494 0.99694
1.04487 1.04834 0.999751 0.996933
1.04183 1.04818 0.996814 0.997117
1.03916 1.04501 0.997144 0.997249
1.03665 1.03973 0.999862 0.997175
1.03509 1.04068 0.997206 0.997412
0.999069 1.00131 1 0.997766
1.02976 1.03271 0.999737 0.997403
1.00916 1.01216 1 0.997035
1.01911 1.02249 1.00018 0.996517
1.03055 1.03398 1 0.996687
1.02906 1.03189 1 0.997257
0.999403 1 1.00004 0.999363
1.00416 1 1.00575 0.998428
0.998901 1.0012 1 0.997708
1.00401 1 1.0061 0.997923
1.00061 1.00072 1.00217 0.997735
0.999989 1 1 0.999989
1.03216 1.03551 1 0.996765
0.999806 1 1.0005 0.999303
1.00198 1 1.0034 0.998586
1.00385 1 1.00559 0.998277
1.02277 1.02588 1 0.996967
1.03387 1.03728 1 0.996709
0.998932 1.00082 1.00051 0.997604
1.01304 1.0142 1.00193 0.996929
1.0222 1.02529 1 0.996986
1.02415 1.0272 1 0.997036
0.999996 1 1 0.999996
0.999532 1 1 0.999532
0.999404 1.00021 1.00122 0.997974
1.0031 1 1.0045 0.998614
1.00112 1 1.00317 0.997962
1.03867 1.04207 1 0.996734
1.02849 1.03177 1 0.996816
1.03078 1.0341 1 0.996792
1.0046 1.00527 1.00213 0.997215
1.02443 1.02757 1 0.996944
1.0138 1.01617 1.00096 0.996707
0.999651 1 1 0.999651
0.999961 1 1.00104 0.998925
0.999919 1.00181 1.00048 0.997641
1.00442 1 1.00618 0.998249
0.9998 1.00014 1.00177 0.997893
1.03592 1.03914 1 0.996903
1.02549 1.02874 1 0.996845
1.02972 1.03281 1 0.997002
1.00263 1.00182 1.00379 0.997024
1.01207 1.0155 1 0.996614
0.999715 1 1 0.999715
0.999168 1 1 0.999168
0.999216 1 1 0.999216
0.998975 1 1 0.998975
0.999254 1 1 0.999254
0.999779 1 1 0.999779
0.999769 1 1 0.999769
1 1 1 1
0.999748 1 1 0.999748
1 1 1 1
1 1 1 1
0.999999 1 1 0.999999
1 1 1 1
1 1 1 1
0.999984 1 1 0.999984
0.99992 1 1 0.99992
1 1 1 1
1 1 1 1
1 1 1.00018 0.999826
1 1 1 1
1.03505 1.0384 1 0.996773
1.03558 1.03891 1 0.996791
1.04546 1.04871 1 0.9969
1.04603 1.05028 0.998942 0.997008
1.03281 1.03619 1 0.996737
1.00873 1.01159 1 0.997167
1.03228 1.03567 1 0.996729
1.04486 1.04914 0.998928 0.996986
1.04706 1.05043 0.999835 0.996952
1.0439 1.05077 0.996211 0.997236
1.04253 1.04585 1 0.996821
1.04397 1.04881 0.99813 0.997253
1.0448 1.0489 0.999124 0.996961
1.04273 1.04963 0.996244 0.997177
1.04365 1.05024 0.996434 0.997284
1.04113 1.0503 0.993885 0.997364
1.04145 1.04473 0.999768 0.997091
1.04156 1.04881 0.995616 0.997461
1.03197 1.03533 1 0.996751
1.03285 1.03608 1 0.996879
1.04451 1.04837 0.999321 0.996996
1.04303 1.0463 0.999994 0.996881
0.999522 1.00038 1.00083 0.998317
1.00612 1.00869 1 0.997459
1.01725 1.02031 1.00018 0.996829
1.03707 1.04031 1 0.996887
1.03843 1.0422 0.999111 0.997278
1.03409 1.03713 1 0.99707
1.02996 1.03342 1 0.99665
1.02899 1.03183 1 0.997252
1.00032 1.00061 1.00176 0.997953
1.0013 1.00065 1.0029 0.997756
1.00093 1 1.00177 0.999166
1.00531 1 1.00708 0.998246
1.04496 1.0487 0.999493 0.99694
1.04467 1.04805 0.999865 0.996911
1.04186 1.04827 0.996722 0.99715
1.03962 1.04504 0.997568 0.997231
1.00011 1.00236 1 0.997758
1.00786 1.01078 1.00003 0.99708
1.01972 1.0229 1.00039 0.996508
1.0361 1.03917 0.999914 0.997129
1.03427 1.03999 0.997028 0.99747
1.02826 1.03169 1 0.996672
1.03085 1.03374 0.99979 0.997405
1.02983 1.0326 1 0.997312
0.999407 1.00171 1 0.997706
1.00028 1.00109 1.00146 0.997739
1.00449 1 1.00659 0.997917
0.999597 1 1.00027 0.999326
1.00374 1 1.00529 0.998462
1.04137 1.04885 0.995687 0.997165
1.04041 1.04765 0.995883 0.997201
1.03516 1.04447 0.993613 0.997457
1.03155 1.03709 0.997167 0.997479
1.00152 1.00406 1 0.997466
1.03456 1.03762 0.999472 0.997583
1.00562 1.00858 1.00029 0.996778
1.01748 1.02074 1.00051 0.9963
1.02591 1.02934 1 0.996665
0.999483 1 1 0.999483
1.00129 1 1.00255 0.998744
1.00402 1 1.00585 0.998184
1.00038 1.00276 1 0.997632
1.00406 1 1.0064 0.997676
1 1.00139 1.001 0.997615
0.999997 1 1 0.999997
0.999541 1 1 0.999541
1.03865 1.04206 1 0.996728
1.00377 1 1.00516 0.998614
0.998717 1 1.00074 0.997976
1.00159 1 1.00366 0.997942
1.0284 1.03169 1 0.996814
1.03055 1.03388 1 0.996781
1.00354 1.00404 1.00229 0.997221
1.01301 1.01555 1.00077 0.996726
1.02684 1.02999 1 0.996944
0.999656 1 1 0.999656
0.999741 1 1.00081 0.998929
0.999425 1.00138 1.00041 0.997637
1.00549 1 1.00725 0.998245
0.999739 1.00015 1.0017 0.997895
1.03593 1.03915 1 0.996896
1.02579 1.02905 1 0.996834
1.02945 1.03252 1 0.997028
1.00321 1.00299 1.00324 0.996985
1.01096 1.01437 1.00006 0.996585
0.999122 1 1 0.999122
1.0039 1 1.00541 0.998501
1.00173 1.00222 1.002 0.997516
1.00357 1.00019 1.00539 0.998002
0.999967 1.00119 1.001 0.997787
1.03608 1.03932 0.999508 0.997373
1.02437 1.02771 1 0.996748
1.02575 1.0288 1 0.997037
1.00476 1.0036 1.00433 0.996835
1.00328 1.00691 1 0.996397
0.999718 1 1 0.999718
0.999186 1 1 0.999186
0.998895 1 1 0.998895
0.999192 1 1 0.999192
0.999253 1 1 0.999253
0.998944 1 1 0.998944
0.998822 1 1 0.998822
0.998893 1 1 0.998893
0.999263 1 1 0.999263
0.999774 1 1 0.999774
0.999779 1 1 0.999779
1 1 1 1
0.999771 1 1 0.999771
1 1 1 1
1 1 1 1
1 1 1 1
1 1 1 1
1 1 1 1
0.999999 1 1 0.999999
0.999973 1 1 0.999973
1 1 1 1
0.999903 1 1 0.999903
1 1 1 1
1 1 1 1
1.04321 1.04654 1 0.996814
1.04653 1.04989 0.999851 0.996951
1.04364 1.04874 0.997855 0.997275
1.0432 1.05059 0.995687 0.997268
1.04493 1.04909 0.999051 0.996981
1.0323 1.03569 1 0.99673
1.0449 1.04885 0.999296 0.996941
1.04314 1.04971 0.996558 0.997169
1.04377 1.05014 0.996653 0.997268
1.04037 1.04995 0.993488 0.997377
1.04087 1.04405 0.999859 0.997091
1.04004 1.04793 0.994957 0.997502
1.043 1.04943 0.996711 0.997151
1.04159 1.05135 0.993334 0.997359
1.04122 1.05144 0.992794 0.997469
1.03791 1.04525 0.995431 0.997534
1.04481 1.04855 0.999492 0.99694
1.04454 1.0478 0.999999 0.996889
1.0419 1.04835 0.996657 0.997183
1.04013 1.04512 0.997999 0.997214
1.00117 1.00342 1 0.99775
1.00671 1.00962 1 0.997124
1.0202 1.02319 1.00058 0.996498
1.03559 1.03861 1 0.997084
1.03345 1.03925 0.996887 0.997528
1.03215 1.035 0.999837 0.997407
1.02639 1.02983 1 0.996658
1.03159 1.03431 1 0.997367
0.999976 1.00228 1 0.997704
0.999858 1.00143 1.00069 0.997743
1.00589 1 1.00799 0.99791
0.999788 1 1.0005 0.99929
1.00363 1 1.00514 0.998496
1.04193 1.04933 0.995765 0.997167
1.04062 1.04784 0.995903 0.997196
1.03497 1.04376 0.994118 0.997448
1.00208 1.00463 1 0.997459
1.00598 1.00893 1.00026 0.996822
1.01628 1.01929 1.00076 0.996289
1.03208 1.03752 0.997288 0.997465
1.02739 1.03072 1 0.996764
1.03138 1.03464 0.999299 0.997552
0.99951 1 1 0.99951
1.0009 1.00329 1 0.99762
0.999151 1.0009 1.00051 0.997743
1.00491 1 1.00726 0.997663
1.00425 1 1.00606 0.998204
1.00125 1 1.00254 0.99871
1.03974 1.04969 0.993255 0.997249
1.03813 1.05068 0.990646 0.997378
1.02927 1.04219 0.990038 0.997542
1.03214 1.04091 0.993872 0.997683
1.00306 1.0058 1 0.997273
1.02614 1.02905 1 0.997173
1.00354 1.00555 1.00165 0.996354
1.0089 1.01175 1.00104 0.996136
0.999692 1 1 0.999692
0.999306 1 1.00032 0.998991
1.00219 1 1.00378 0.998415
1.00505 1 1.00725 0.997813
1.00123 1.00329 1.00049 0.997454
1.00619 1.00046 1.00832 0.997431
0.999662 1 1 0.999662
0.999401 1 1.00047 0.998933
1.03615 1.03938 1 0.996889
1.00602 1 1.00779 0.99824
0.99884 1.00094 1.00027 0.997633
0.999418 1 1.00152 0.997897
1.02635 1.02962 1 0.996822
1.02956 1.0326 1 0.997055
1.0041 1.00444 1.00273 0.996945
1.00985 1.01307 1.00027 0.996556
0.999125 1 1 0.999125
1.00393 1 1.00544 0.998499
1.00173 1.00222 1.00198 0.997526
1.00317 1 1.00517 0.998011
0.999553 1.00121 1.00048 0.997875
1.03677 1.04023 0.999263 0.997417
1.0238 1.02712 1 0.996763
1.0274 1.03037 1 0.997109
1.00434 1.00297 1.00458 0.996798
1.00381 1.00747 1.00003 0.996334
0.999028 1 1.00023 0.998796
1.0049 1 1.00678 0.998129
1.0041 1.00293 1.00378 0.997386
1.00005 1.00078 1.00161 0.99767
1.03513 1.05188 0.986375 0.997668
1.03002 1.03289 0.999752 0.997466
1.01418 1.01775 1 0.996493
1.00507 1.0044 1.00426 0.996416
0.999205 1 1 0.999205
0.998908 1 1 0.998908
0.998808 1 1 0.998808
0.999252 1 1 0.999252
0.998913 1 1 0.998913
0.999262 1 1 0.999262
0.998817 1 1 0.998817
0.998906 1 1 0.998906
0.998793 1 1 0.998793
0.998726 1 1 0.998726
0.998858 1 1 0.998858
0.999245 1 1 0.999245
0.999755 1 1 0.999755
0.999773 1 1 0.999773
1 1 1 1
0.999779 1 1 0.999779
1 1 1 1
1 1 1 1
1 1 1 1
1 1 1 1
1 1 1 1
1 1 1 1
0.999996 1 1 0.999996
1 1 1 1
0.999962 1 1 0.999962
1 1 1 1
1 1 1 1
1.0402 1.04328 0.999961 0.997091
1.04391 1.05009 0.996855 0.997251
1.03857 1.04709 0.994306 0.997544
1.03968 1.04965 0.993087 0.997389
1.04356 1.04981 0.996878 0.997162
1.04492 1.04872 0.999454 0.996921
1.04284 1.04937 0.996612 0.997151
1.04134 1.05096 0.993485 0.99735
1.04038 1.05071 0.992683 0.997469
1.03948 1.04653 0.995714 0.997543
1.04216 1.05131 0.993985 0.997303
1.04282 1.0568 0.98923 0.997517
1.04261 1.05548 0.990187 0.997595
1.04247 1.04982 0.995822 0.997169
1.04078 1.04801 0.995896 0.997191
1.03485 1.04305 0.994685 0.997438
1.00249 1.00505 1 0.997453
1.00587 1.00885 1.00018 0.996866
1.01496 1.0179 1.00085 0.996277
1.03259 1.03793 0.997399 0.997452
1.02777 1.03121 0.999139 0.997522
1.02801 1.03125 1 0.996862
1.00066 1.00306 1 0.997609
0.998115 1.00025 1 0.99787
1.00539 1 1.00776 0.99765
0.999536 1 1 0.999536
1.00358 1 1.00536 0.998224
1.00115 1 1.00248 0.998677
1.04042 1.05014 0.993475 0.997257
1.03768 1.05054 0.990351 0.997385
1.02941 1.04176 0.990588 0.997535
1.00176 1.00451 1 0.997264
1.00348 1.00567 1.0014 0.996435
1.00913 1.01207 1.0009 0.996201
1.03229 1.04067 0.994243 0.997689
1.02513 1.0284 0.999659 0.997155
0.999745 1 1 0.999745
0.999234 1 1.00024 0.99899
0.999464 1.00196 1 0.997504
1.0084 1.00053 1.01032 0.997564
1.00487 1 1.00703 0.997851
1.00202 1 1.00364 0.998386
1.04033 1.05411 0.989467 0.997438
1.03021 1.04992 0.983686 0.9975
1.02702 1.0418 0.988055 0.997732
1.02222 1.0308 0.993967 0.997703
1.00159 1.00373 1.00093 0.996943
1.00763 1.00987 1.0014 0.996388
1.00297 1.0042 1.00264 0.996144
0.999871 1 1 0.999871
0.999422 1 1 0.999422
0.999178 1 1 0.999178
0.99952 1 1.00096 0.998563
1.00266 1 1.00458 0.998082
1.00829 1 1.01064 0.997683
0.998955 1.00141 1 0.997551
1.03059 1.00041 1.03247 0.99777
0.999128 1 1 0.999128
1.00425 1 1.00576 0.998497
1.03742 1.04106 0.999042 0.997461
1.00347 1 1.00546 0.99802
1.00198 1.00229 1.00215 0.997535
0.999071 1.00108 1.00004 0.997962
1.02281 1.02612 1 0.996778
1.02879 1.03169 1 0.997182
1.00402 1.00245 1.00482 0.996762
1.00443 1.00819 1 0.996272
0.999197 1 1.00043 0.998768
1.00466 1 1.00653 0.998144
1.00465 1.00309 1.00415 0.997415
0.999939 1.00082 1.00142 0.997706
1.03729 1.05361 0.986791 0.997686
1.02998 1.03274 0.999906 0.997418
1.01516 1.01868 1 0.996537
1.00611 1.00598 1.00377 0.996366
1.00009 1 1.00154 0.998559
1.03527 1.05694 0.981764 0.997692
1.00154 1 1.00374 0.997815
1.00325 1.00345 1.00268 0.997133
1.03307 1.04302 0.992664 0.99778
1.01355 1.01697 1 0.996634
1.00583 1.00643 1.00323 0.996187
0.998921 1 1 0.998921
0.998799 1 1 0.998799
0.998794 1 1 0.998794
0.99926 1 1 0.99926
0.998919 1 1 0.998919
0.998811 1 1 0.998811
0.999242 1 1 0.999242
0.998863 1 1 0.998863
0.998792 1 1 0.998792
0.998746 1 1 0.998746
0.998815 1 1 0.998815
0.998712 1 1 0.998712
0.998818 1 1.00017 0.998645
0.998819 1 1 0.998819
0.999195 1 1 0.999195
0.999728 1 1 0.999728
0.999752 1 1 0.999752
1 1 1 1
0.999771 1 1 0.999771
1 1 1 1
1 1 1 1
1 1 1 1
1 1 1 1
1 1 1 1
0.999898 1 1 0.999898
1 1 1 1
1 1 1 1
1 1 1 1
0.999994 1 1 0.999994
1 1 1 1
1 1 1 1
1.04106 1.04784 0.995976 0.997552
1.03952 1.04989 0.992631 0.997468
1.04105 1.05052 0.993633 0.997341
1.04269 1.04931 0.996534 0.99715
1.04182 1.05125 0.993696 0.997321
1.04282 1.05636 0.989657 0.997507
1.04107 1.05423 0.989887 0.997605
1.04239 1.05661 0.989024 0.997495
1.04968 1.06524 0.987751 0.997616
1.03698 1.05735 0.982833 0.997866
1.04111 1.05058 0.993713 0.997264
1.03724 1.05043 0.990027 0.997393
1.02943 1.04133 0.991022 0.997527
1.00182 1.00452 1.00006 0.997255
1.00393 1.00617 1.00126 0.996516
1.01008 1.01308 1.00078 0.996267
1.03255 1.04055 0.994605 0.997695
1.0244 1.02802 0.999335 0.997137
0.999001 1.00145 1 0.997555
1.01095 1.00095 1.01232 0.997696
1.00565 1 1.00777 0.99789
0.999799 1 1 0.999799
0.99919 1 1.0002 0.998989
1.00218 1 1.00383 0.998357
1.04029 1.0544 0.989136 0.997449
0.999867 1 1 0.999867
0.999394 1 1 0.999394
1.03032 1.04911 0.984549 0.997501
1.02614 1.0415 0.987523 0.997701
1.00149 1.00323 1.00124 0.997032
1.00357 1.00416 1.0033 0.996129
1.00831 1.01112 1.00084 0.996384
1.02108 1.02993 0.993714 0.997681
0.999252 1 1 0.999252
0.999571 1 1.00102 0.998557
0.999919 1.00144 1.00103 0.997455
1.02548 1.00053 1.02707 0.99793
1.0065 1 1.00882 0.997697
1.00311 1 1.00502 0.998101
1.04788 1.06359 0.987622 0.997575
1.01331 1.04724 0.969891 0.99764
1.01885 1.03603 0.985497 0.99789
1.00371 1.01296 0.993448 0.997397
1.00212 1.00111 1.00394 0.997074
1.00351 1.002 1.00547 0.996061
0.999382 1 1 0.999382
0.999376 1 1 0.999376
0.999101 1 1 0.999101
0.998689 1 1 0.998689
1.00071 1 1.00239 0.998324
1.00161 1.00002 1.00382 0.997788
1.04136 1 1.04377 0.997695
1.00242 1.00049 1.00398 0.997953
0.999447 1 1.00071 0.99874
1.00395 1 1.00581 0.998159
1.03874 1.05441 0.987402 0.997705
1.02979 1.03251 0.999999 0.99737
0.999809 1.00092 1.00115 0.997743
1.00526 1.00341 1.00441 0.997444
1.01653 1.01998 1.00004 0.996582
1.00714 1.00749 1.00335 0.996314
1.00027 1 1.00173 0.998546
1.03729 1.05952 0.981238 0.997738
1.00179 1 1.00396 0.997836
1.00285 1.00308 1.00269 0.997083
1.03172 1.04219 0.992183 0.997754
1.0136 1.01695 1 0.996706
1.00621 1.00654 1.00348 0.996203
1.00165 1 1.00343 0.998229
1.01684 1.03932 0.980176 0.998153
1.00238 1.00247 1.00235 0.997554
1.00355 1.00306 1.00379 0.996713
1.01601 1.02368 0.99513 0.997361
1.0019 1.00333 1.00221 0.996379
0.98914 1.00477 0.986567 0.99785
0.998791 1 1 0.998791
0.999125 1 1.00033 0.998791
0.998792 1 1.0001 0.99869
0.99924 1 1 0.99924
0.998868 1 1 0.998868
0.998767 1 1 0.998767
0.998791 1 1 0.998791
0.999194 1 1 0.999194
0.998809 1 1 0.998809
0.998783 1 1 0.998783
0.998701 1 1.00006 0.998645
0.998708 1 1 0.998708
0.99877 1 1 0.99877
0.998846 1 1.00037 0.998476
0.999196 1 1.00057 0.998629
0.998716 1 1 0.998716
0.999084 1 1 0.999084
0.998887 1 1.00001 0.998877
0.999065 1 1 0.999065
0.999714 1 1 0.999714
0.999726 1 1 0.999726
1 1 1 1
0.99975 1 1 0.99975
1 1 1 1
1 1 1 1
1 1 1 1
1 1 1 1
1 1 1 1
0.999919 1 1 0.999919
0.999897 1 1 0.999897
1 1 1 1
1 1 1 1
1 1 1 1
1 1 1 1
1 1 1 1
1 1 1 1
1.0397 1.05326 0.989487 0.997615
1.04278 1.05597 0.989983 0.997497
1.04149 1.0512 0.993403 0.99734
1.04241 1.05657 0.989082 0.997493
1.04752 1.06312 0.98768 0.997614
1.037 1.05634 0.983849 0.997806
1.05 1.06822 0.985224 0.997681
0.981742 1.01605 0.969629 0.996494
1.01015 1.0363 0.976226 0.998506
0.99949 1 1 0.99949
1.04024 1.05469 0.988811 0.997461
1.03063 1.04836 0.98555 0.997502
1.02537 1.04125 0.987052 0.997669
0.999785 1.00185 1.00082 0.997121
1.00385 1.00374 1.00402 0.996113
1.00881 1.01202 1.00045 0.996379
1.01978 1.02886 0.993502 0.997658
0.998921 1.00156 1 0.99736
1.01925 1 1.0212 0.998092
1.00457 1 1.00687 0.997711
0.999862 1 1 0.999862
1.00343 1 1.00533 0.998119
0.999326 1 1 0.999326
0.999477 1 1.00093 0.998551
0.999366 1 1 0.999366
1.04527 1.06387 0.984893 0.997582
0.99942 1 1 0.99942
0.999374 1 1 0.999374
0.999065 1 1 0.999065
1.01678 1.04718 0.973269 0.99764
1.01961 1.03669 0.985651 0.997845
1.00044 1.00117 1.00217 0.997099
1.00415 1.00245 1.00556 0.996157
1.00312 1.01112 0.994692 0.997384
0.998735 1 1 0.998735
1.00078 1 1.0025 0.998284
1.00748 1.00031 1.00933 0.997864
1.0333 1 1.03565 0.99773
1.00139 1 1.00357 0.997826
1.0314 1.05442 0.98045 0.997678
1.00429 1.04268 0.965331 0.997777
1.01134 1.02231 0.991676 0.997569
0.994194 1.00425 0.992819 0.997151
1.00337 1 1.00586 0.997523
0.998981 1 1 0.998981
0.998898 1 1 0.998898
0.999011 1 1.00023 0.998785
0.999714 1 1.00125 0.998469
1.0017 1 1.00358 0.998132
1.02918 1 1.03145 0.997801
1.02668 1 1.02898 0.997758
1.00028 1 1.00175 0.998532
1.00201 1 1.00417 0.997856
1.03861 1.06286 0.979362 0.997782
1.03061 1.04179 0.991527 0.997727
1.01339 1.01666 1 0.996778
1.00233 1.00263 1.00268 0.997032
1.00623 1.00642 1.0036 0.99622
1.00164 1 1.00338 0.99827
1.01501 1.03934 0.978365 0.99818
1.00079 1.00163 1.00159 0.997571
1.00289 1.0021 1.00408 0.99672
1.01581 1.0238 0.994721 0.997465
1.00186 1.00277 1.00273 0.996368
0.988412 1.00458 0.986812 0.99705
1.00152 1.00042 1.00302 0.998084
1.00697 1.02133 0.987785 0.99813
1.00081 1.00135 1.00194 0.997523
1.00445 1.00116 1.00644 0.996867
0.99482 1.00584 0.991839 0.99718
0.935536 0.98158 0.972675 0.979866
0.940028 0.977383 0.971719 0.989772
0.979344 0.990001 0.991322 0.997895
0.7844 0.864269 0.940101 0.965415
0.716192 0.842044 0.889547 0.956149
0.999282 1 1.00049 0.998789
0.999325 1 1.00059 0.998732
0.999039 1 1.00032 0.998721
0.999193 1 1 0.999193
0.998799 1 1 0.998799
0.998646 1 1 0.998646
0.998704 1 1 0.998704
0.998751 1 1 0.998751
0.99987 1 1.00127 0.998604
0.999115 1 1 0.999115
0.998734 1 1 0.998734
0.998746 1 1 0.998746
0.99918 1 1.00068 0.998501
1.00105 1 1.00254 0.998512
1.0013 1 1.00276 0.998547
1.00007 1 1.00154 0.998533
0.99872 1 1.00005 0.998669
0.999059 1 1 0.999059
0.998748 1 1 0.998748
0.998702 1 1 0.998702
0.998879 1 1 0.998875
0.998852 1 1.00001 0.99884
0.999163 1 1 0.999163
0.999063 1 1 0.999063
0.999708 1 1 0.999708
0.999713 1 1 0.999713
1 1 1 1
0.999724 1 1 0.999724
1 1 1 1
1 1 1 1
1 1 1 1
1 1 1 1
1 1 1 1
0.999936 1 1 0.999936
0.999916 1 1 0.999916
1 1 1 1
0.999895 1 1 0.999895
1 1 1 1
1 1 1 1
1 1 1 1
1 1 1 1
1 1 1 1
1.04511 1.06077 0.987598 0.997611
1.04244 1.05651 0.98917 0.997491
1.03758 1.05565 0.985101 0.997747
0.985338 1.01587 0.973297 0.996559
1.04708 1.0656 0.984901 0.99768
1.01999 1.03929 0.983015 0.99839
1.03709 1.04826 0.991539 0.997789
0.941597 0.982129 0.969477 0.988914
0.996978 1.01935 0.980782 0.997215
0.999499 1 1 0.999499
0.999487 1 1 0.999487
0.999087 1 1 0.999087
0.999142 1 1 0.999142
1.04317 1.0641 0.982699 0.99759
1.01963 1.04667 0.976471 0.99764
1.01994 1.03707 0.985651 0.997799
0.999425 1.00073 1.00158 0.997123
1.00471 1.00311 1.00536 0.996252
1.00237 1.00972 0.995338 0.997371
1.01405 1 1.01631 0.997774
1.02609 1 1.02839 0.997764
1.00095 1 1.00309 0.997865
0.999373 1 1 0.999373
1.00064 1 1.0024 0.998244
0.998781 1 1 0.998781
0.999458 1 1 0.999458
0.999028 1 1 0.999028
1.02883 1.05413 0.978253 0.997693
0.999026 1 1 0.999026
0.998947 1 1 0.998947
0.998894 1 1 0.998894
1.00788 1.04495 0.966678 0.997773
1.01027 1.02199 0.990949 0.997567
1.00304 1.00005 1.0055 0.997506
0.995751 1.00468 0.993889 0.997206
0.999505 1 1.00107 0.998441
1.00136 1 1.00331 0.99806
1.03096 1.00038 1.03289 0.997743
1.0298 1.00001 1.03211 0.997751
0.999357 1.03844 0.964447 0.997845
0.99777 1.02892 0.971918 0.997747
1.00351 1.00878 0.997524 0.997254
0.988647 1.00051 0.990137 0.997988
0.998652 1 1 0.998652
0.999791 1 1.00121 0.998585
1.0102 1 1.01187 0.998344
1.04762 1 1.05002 0.997716
0.911018 0.970329 0.960127 0.977866
1.00203 1 1.00373 0.998311
0.999386 1.00071 1.00109 0.997587
1.01441 1.03916 0.977936 0.998208
1.016 1.02414 0.994475 0.997569
1.00214 1.00251 1.0033 0.996355
1.00266 1.00148 1.00447 0.996726
0.989088 1.005 0.987894 0.996232
1.00086 1.00018 1.00254 0.998137
1.00709 1.02229 0.986995 0.998119
1.00026 1.00129 1.00144 0.997537
1.00448 1.00152 1.00611 0.996866
0.997721 1.00682 0.993753 0.997189
0.934614 0.987024 0.968284 0.977917
0.93522 0.974902 0.971582 0.987354
0.980389 0.988978 0.993387 0.997914
0.783639 0.861455 0.941721 0.965964
0.70128 0.831154 0.885705 0.952622
1.00017 1.00013 1.0017 0.998337
0.812936 0.884247 0.950126 0.967613
0.75757 0.847183 0.933807 0.957609
0.990441 1.007 0.98549 0.998038
1.00643 1.0013 1.00729 0.997854
1.01217 1.00452 1.01019 0.997448
0.972915 0.98439 0.990206 0.998118
0.927919 0.968678 0.979186 0.978285
0.912853 0.949677 0.974752 0.986121
0.767944 0.863098 0.919742 0.967393
0.777594 0.891661 0.911494 0.956751
0.999933 1 1.00116 0.998774
1.00008 1 1.00138 0.998701
1.00102 1 1.00214 0.998882
0.999145 1 1 0.999145
0.998752 1 1 0.998752
1.00008 1 1.0015 0.99858
0.99971 1 1.00119 0.998526
0.998722 1 1 0.998722
0.99906 1 1 0.99906
1.00082 1 1.00232 0.998504
1.00043 1 1.00189 0.998549
0.998708 1 1.00001 0.998702
1.00101 1 1.00245 0.998561
1.00296 1 1.00444 0.998523
1.00524 1 1.00662 0.998633
0.998732 1 1.00023 0.998501
0.998711 1 1 0.998711
0.998744 1 1 0.998744
0.998704 1 1.00001 0.998699
0.998633 1 1.00007 0.998566
0.99922 1 1.00051 0.998709
0.999376 1 1.0007 0.998673
1.00113 1 1.00262 0.998515
0.999415 1 1.00058 0.998839
0.998992 1 1.00012 0.998875
0.999191 1 1 0.999191
0.998804 1 1 0.998804
0.999137 1 1 0.999137
0.999701 1 1 0.999701
0.99906 1 1 0.99906
0.999709 1 1 0.999709
1 1 1 1
0.999713 1 1 0.999713
1 1 1 1
1 1 1 1
1 1 1 1
1 1 1 1
1 1 1 1
0.999463 1 1 0.999463
0.999937 1 1 0.999937
0.999933 1 1 0.999933
1 1 1 1
0.999912 1 1 0.999912
1 1 1 1
1 1 1 1
1 1 1 1
1 1 1 1
1 1 1 1
0.988157 1.01579 0.976089 0.996628
1.04485 1.06279 0.985404 0.997679
1.02585 1.04215 0.986069 0.998272
0.935436 0.975699 0.968451 0.989967
0.997578 1.01907 0.981504 0.997357
1.03793 1.05164 0.989192 0.997744
1.01156 1.0262 0.988426 0.997273
0.950182 0.97668 0.981619 0.991086
0.933641 0.979347 0.974838 0.977937
0.775935 0.860338 0.932687 0.966986
0.690122 0.808296 0.893624 0.955433
0.999091 1 1 0.999091
0.999498 1 1 0.999498
0.999485 1 1 0.999485
0.999076 1 1 0.999076
0.99884 1 1 0.99884
0.99887 1 1 0.99887
0.999049 1 1 0.999049
0.999109 1 1 0.999109
1.0254 1.05414 0.974971 0.997707
1.01245 1.04826 0.968 0.997768
1.00975 1.02181 0.99061 0.997566
1.00277 1.00036 1.00493 0.99749
0.997612 1.00475 0.995624 0.997262
1.03349 1 1.03584 0.997728
1.0308 1 1.03318 0.997701
1.00138 1 1.0034 0.997988
0.998997 1 1 0.998997
0.999386 1 1.00098 0.998411
0.999072 1 1 0.999072
0.999002 1 1 0.999002
0.999648 1.03914 0.964073 0.997847
0.998748 1 1.00007 0.998681
0.999319 1 1.00069 0.998626
0.997484 1.02802 0.972507 0.997723
1.0005 1.0084 0.994778 0.997378
0.99111 1.00088 0.992337 0.997884
1.01515 1 1.01697 0.998214
1.04296 1 1.04532 0.997738
0.990412 1.02681 0.966653 0.997829
0.985191 1.00874 0.97883 0.997773
0.983566 1.00123 0.984521 0.997798
0.99436 1.00061 0.995636 0.99811
1.00135 1 1.003 0.998353
1.00592 1 1.00757 0.998359
1.04312 1 1.04519 0.998014
0.806928 0.892706 0.933008 0.968815
0.928454 0.976444 0.969512 0.980752
0.999952 1 1.00177 0.99819
0.999587 1.00097 1.00107 0.997551
1.00705 1.02324 0.986051 0.998109
1.00012 1.00776 0.995199 0.997199
1.00461 1.00204 1.00571 0.996868
0.9287 0.97614 0.97254 0.978264
0.94178 0.981689 0.971022 0.987976
0.980624 0.987401 0.995201 0.997926
0.783673 0.863141 0.937952 0.967994
0.688783 0.820533 0.884544 0.949002
1.0002 1.00007 1.00179 0.998335
0.80886 0.889184 0.93954 0.968203
0.747872 0.837892 0.933832 0.955807
0.99058 1.00773 0.984916 0.998036
1.00647 1.00158 1.00702 0.99788
1.01053 1.00282 1.01012 0.9976
0.965202 0.978326 0.988309 0.998256
0.933993 0.978287 0.977966 0.976233
0.912828 0.953071 0.969011 0.988404
0.770964 0.859105 0.929277 0.965702
0.775508 0.895673 0.9058 0.955882
1.00189 1 1.00318 0.998718
0.789501 0.858653 0.958634 0.959141
0.862546 0.926802 0.963498 0.965926
0.989796 0.99852 0.992564 0.998691
1.0141 1.00266 1.01278 0.998649
0.974798 0.969133 1.00772 0.998142
0.907054 0.936879 0.978433 0.989506
0.903844 0.941875 0.983865 0.975359
0.777616 0.859923 0.935726 0.966401
0.815106 0.927653 0.915591 0.959681
1.00114 1 1.00246 0.998681
1.00084 1 1.00199 0.998849
1.0043 1 1.00521 0.999095
0.999061 1 1 0.999061
0.998734 1 1 0.998734
1.00106 1 1.00249 0.998564
1.00108 1 1.00259 0.998495
1.00072 1 1.00215 0.998574
0.99871 1 1 0.99871
1.00166 1 1.00314 0.998515
0.998741 1 1.00024 0.998502
1.00611 1 1.00744 0.998682
1.02105 0.999366 1.02261 0.999107
1.00217 1 1.00365 0.998525
0.998464 1 1 0.998464
0.998741 1 1 0.998741
0.998721 1 1.00003 0.998695
0.998804 1 1.00024 0.99856
0.999317 1 1.00062 0.998701
0.999175 1 1.00045 0.998726
1.00093 1 1.0023 0.998636
0.99939 1 1.00081 0.998586
1.00085 1 1.00213 0.998725
0.998855 1 1.00037 0.998489
0.998884 1 1.00093 0.997957
1.00093 1 1.00253 0.998403
1.00104 1 1.00253 0.998514
1.00083 1 1.00208 0.998752
0.999864 1 1.00103 0.998837
0.999177 1 1 0.999177
0.999266 1 1.00039 0.998875
0.999192 1 1 0.999192
0.999697 1 1 0.999697
0.999111 1 1 0.999111
0.999702 1 1 0.999702
0.999999 1 1 0.999999
0.99971 1 1 0.99971
1 1 1 1
1 1 1 1
1 1 1 1
1 1 1 1
1 1 1 1
0.999476 1 1 0.999476
0.999921 1 1 0.999921
0.999464 1 1 0.999464
1 1 1 1
0.999937 1 1 0.999937
0.99993 1 1 0.99993
1 1 1 1
1 1 1 1
1 1 1 1
1 1 1 1
1 1 1 1
0.80515 0.880092 0.946807 0.966246
0.755037 0.845438 0.932579 0.957637
0.937377 0.980104 0.965616 0.990461
0.998715 1.01871 0.982825 0.997502
1.04111 1.05522 0.988896 0.9977
0.932249 0.962068 0.976358 0.992469
1.01071 1.02564 0.988033 0.997384
0.943368 0.989637 0.973532 0.979163
0.78053 0.864038 0.935385 0.965754
0.686714 0.813292 0.887066 0.951861
0.964104 0.996247 0.973212 0.994373
0.932637 0.97275 0.979524 0.978806
0.763449 0.860449 0.917807 0.966726
0.762198 0.881291 0.905238 0.955401
0.999345 1 1.00063 0.998714
0.99912 1 1 0.99912
0.999497 1 1 0.999497
0.999064 1 1 0.999064
0.998886 1 1 0.998886
0.999383 1 1.00068 0.998706
0.998857 1 1 0.998857
0.998804 1 1 0.998804
0.999013 1 1 0.999013
0.999075 1 1 0.999075
1.00088 1.03935 0.965063 0.99785
0.995032 1.02582 0.972222 0.997701
0.997502 1.00826 0.991807 0.997504
0.993045 1.00108 0.994183 0.99778
1.03782 1.00077 1.03935 0.99776
1.02093 1 1.02289 0.998083
0.998667 1 1 0.998667
0.998822 1 1.00011 0.998709
0.990919 1.02709 0.966837 0.997874
1.00215 1 1.00383 0.998326
1.006 1 1.00769 0.99832
0.983726 1.00703 0.979114 0.997699
0.981261 1.00065 0.982696 0.997893
0.996786 1.00144 0.997326 0.998024
1.03776 1 1.03986 0.997978
0.988178 1.0042 0.98585 0.998167
0.977425 1.00005 0.978784 0.998563
1.01469 1.0007 1.01579 0.998222
1.00555 1 1.00727 0.998293
1.00506 1 1.00691 0.998161
1.02329 1 1.02523 0.998108
0.8092 0.872127 0.961614 0.964885
0.816589 0.891687 0.945267 0.968806
0.91734 0.9733 0.963761 0.977945
1.00006 1 1.00173 0.998333
1.00643 1.00165 1.00689 0.997906
0.992715 1.00862 0.98617 0.998034
1.0092 1.00144 1.01002 0.99775
0.802238 0.884082 0.936571 0.968879
0.930514 0.97462 0.976201 0.978021
0.904862 0.949162 0.966645 0.986222
0.961934 0.973866 0.989338 0.998392
0.76871 0.858349 0.928821 0.964198
0.749285 0.841012 0.93175 0.956193
0.763473 0.885095 0.901097 0.957265
1.00245 1 1.00373 0.99872
0.790986 0.861882 0.954953 0.961035
0.871884 0.934877 0.965697 0.965746
0.991589 0.998023 0.994767 0.99878
1.01372 1.00144 1.01368 0.998614
0.9721 0.968041 1.0058 0.998402
0.904706 0.940485 0.974271 0.987361
0.910007 0.947199 0.982821 0.977528
0.798744 0.882174 0.93809 0.965181
0.80208 0.915543 0.911671 0.96095
1.00645 0.999431 1.00759 0.999436
0.880494 0.937928 0.966951 0.970851
0.853791 0.926832 0.949631 0.970053
0.99287 0.978905 1.01455 0.999715
0.92916 0.93731 0.998305 0.992988
0.916404 0.939624 0.998766 0.976493
0.835688 0.903071 0.959838 0.964105
0.831919 0.947737 0.914285 0.960089
1.0007 1 1.00189 0.998815
1.00424 1 1.00515 0.999094
1.02091 0.999645 1.02193 0.999354
0.998709 1 1 0.998709
0.99865 1 1.00015 0.998504
1.00006 1 1.00155 0.998508
1.00692 1 1.0082 0.998732
0.998463 1 1 0.998463
1.00249 1 1.00398 0.998517
1.02588 0.999815 1.02691 0.999179
1.03866 0.996765 1.04261 0.999446
1.02797 0.999933 1.029 0.999068
0.998483 1 1 0.998483
0.998922 1 1.00037 0.998554
0.999145 1 1.00045 0.998693
0.998778 1 1 0.998778
0.999083 1 1.00048 0.998602
1.00053 1 1.00189 0.998636
1.00125 1 1.00252 0.998738
1.00037 1 1.00176 0.998615
1.00591 1 1.00693 0.998988
0.998573 1 1 0.998573
0.999255 1.00027 1.00047 0.998516
0.998839 1 1.00069 0.998145
0.999471 1.00064 1.00153 0.997307
1.00136 1 1.00306 0.998309
0.998903 1 1.00079 0.998112
1.00069 1 1.00227 0.998428
1.00123 1 1.00263 0.998606
1.00077 1 1.00227 0.998512
1.00052 1 1.00177 0.998751
0.999125 1 1.00002 0.999105
0.999919 1 1.00109 0.998834
0.999175 1 1 0.999175
0.999687 1 1 0.999687
0.999193 1 1 0.999193
0.999697 1 1 0.999697
0.999997 1 1 0.999997
0.999704 1 1 0.999704
0.999999 1 1 0.999999
1 1 1 1
1 1 1 1
1 1 1 1
1 1 1 1
0.99928 1 1 0.99928
0.999891 1 1 0.999891
0.999411 1 1 0.999411
1 1 1 1
0.999924 1 1 0.999924
0.999464 1 1 0.999464
1 1 1 1
1 1 1 1
0.999938 1 1 0.999938
1 1 1 1
1 1 1 1
1 1 1 1
0.787731 0.859697 0.952813 0.961667
0.810303 0.887406 0.944104 0.967175
0.868479 0.934933 0.962183 0.965431
0.749204 0.840882 0.931546 0.956447
0.932691 0.970281 0.970769 0.990204
1.00845 1.02509 0.986223 0.997502
0.950139 0.988337 0.980729 0.980242
0.787736 0.86775 0.938549 0.967228
0.687955 0.821956 0.882668 0.948231
0.962669 0.992084 0.976629 0.993572
0.928525 0.973189 0.978057 0.975511
0.775916 0.869026 0.925033 0.965216
0.764996 0.886784 0.904525 0.95372
0.943479 0.979764 0.971021 0.991704
0.916851 0.946178 0.993928 0.974924
0.799184 0.887277 0.934531 0.963816
0.809065 0.926625 0.912123 0.957252
1.00042 1 1.00194 0.998488
0.998884 1 1.00013 0.998755
0.99915 1 1 0.99915
0.998931 1 1 0.998931
0.998731 1 1.00031 0.998423
0.998928 1 1.00019 0.998741
0.998843 1 1 0.998843
0.99877 1 1 0.99877
0.998838 1 1 0.998838
0.998978 1 1 0.998978
0.992279 1.02833 0.96695 0.997919
0.985282 1.0063 0.981439 0.997628
0.979377 1.00045 0.98091 0.997987
1.00065 1.00256 1.00016 0.99794
1.03116 1 1.03329 0.997941
1.00505 1 1.00678 0.998282
1.0026 1 1.00431 0.998299
1.0049 1 1.00665 0.998265
0.985277 1.00464 0.982525 0.998172
1.00395 1 1.0058 0.998159
1.02375 1 1.0257 0.998097
0.976527 1.00051 0.97748 0.998513
1.01282 1.00162 1.01302 0.998184
0.958433 0.986817 0.972573 0.998626
0.99513 0.996536 0.999355 0.999233
1.03624 0.999792 1.03808 0.998434
1.00223 1 1.00407 0.998171
1.01239 1 1.01428 0.998138
0.888093 0.940789 0.969658 0.973526
0.812471 0.872041 0.965913 0.964567
0.80556 0.885825 0.939932 0.967506
1.00289 1 1.00417 0.998721
1.01351 1.00014 1.01481 0.998578
0.990472 0.997104 0.994475 0.998867
0.796829 0.865752 0.956858 0.961887
0.916416 0.946022 0.993429 0.975112
0.906111 0.938607 0.976324 0.988788
0.962365 0.964027 0.999633 0.998643
0.79798 0.881353 0.936669 0.966621
0.8784 0.939741 0.968023 0.965604
0.806263 0.918967 0.912897 0.961071
1.00478 0.999138 1.00625 0.9994
0.877135 0.936336 0.963661 0.972099
0.854572 0.927573 0.949718 0.970077
0.995636 0.982794 1.01351 0.999558
0.939288 0.945626 1.00062 0.992687
0.895864 0.932827 0.985923 0.974088
0.833845 0.948239 0.915127 0.960918
0.846913 0.909918 0.964704 0.964812
1.00539 0.986661 1.01928 0.999711
0.859506 0.92212 0.952728 0.978347
0.871166 0.944847 0.94929 0.971272
0.809684 0.926252 0.913033 0.957415
0.974391 0.962249 1.01449 0.998154
0.940562 0.952794 1.00984 0.97754
0.878848 0.931821 0.976544 0.965806
1.00423 0.999914 1.00523 0.999091
1.02106 0.999536 1.02228 0.999272
1.02198 0.989297 1.03349 0.999566
0.998461 1 1 0.998461
1.00271 1 1.00421 0.998508
1.03129 1 1.03207 0.999251
0.998507 1 1.00002 0.99849
1.02718 0.999988 1.02814 0.999079
1.03968 0.996905 1.04351 0.999421
1.02849 0.995122 1.03406 0.999489
1.02004 0.999976 1.02102 0.999058
0.999007 1 1.00039 0.998619
1.00049 1 1.00186 0.998637
1.00179 1 1.00304 0.998752
1.00485 1 1.0059 0.998964
0.99993 1 1.00131 0.998618
1.00276 1 1.00387 0.998895
0.998801 1 1 0.998801
1.00123 1 1.00341 0.997822
0.999616 1.00055 1.00053 0.998545
0.998991 1.00035 1.00057 0.998078
0.998279 1.00018 1.00101 0.997094
1.00697 1.00859 1.00129 0.997116
1.00117 1.00041 1.00276 0.998011
0.999292 1.00057 1.00138 0.997344
1.00419 1 1.00576 0.998439
1.00195 1 1.00367 0.998288
0.998912 1 1.00065 0.998268
1.00052 1 1.00207 0.998453
1.001 1 1.00236 0.99864
0.999031 1 1.00003 0.999003
1.00041 1 1.00166 0.998749
0.999119 1 1.00001 0.999105
0.999649 1 1 0.999649
0.999173 1 1 0.999173
0.999685 1 1 0.999685
0.999995 1 1 0.999995
0.999697 1 1 0.999697
0.999996 1 1 0.999996
1 1 1 1
0.999998 1 1 0.999998
1 1 1 1
1 1 1 1
0.999073 1 1 0.999073
0.999732 1 1 0.999732
0.999279 1 1 0.999279
1 1 1 1
0.999848 1 1 0.999848
0.999346 1 1 0.999346
1 1 1 1
1 1 1 1
0.999928 1 1 0.999928
1 1 1 1
1 1 1 1
1 1 1 1
0.874925 0.937884 0.960174 0.971565
0.781984 0.858725 0.945853 0.962763
0.80823 0.883754 0.94586 0.966889
0.998652 1 1 0.998652
0.858614 0.92434 0.95576 0.97189
0.867197 0.934517 0.961307 0.965313
0.749615 0.845622 0.92574 0.957575
0.969226 0.994448 0.981946 0.992557
0.928795 0.968895 0.979886 0.97829
0.782105 0.880789 0.921449 0.963656
0.760029 0.877137 0.907878 0.954411
0.942421 0.97792 0.974396 0.989023
0.908046 0.943291 0.984926 0.977369
0.8106 0.892572 0.941986 0.964092
0.805588 0.920735 0.913743 0.957534
0.909865 0.946822 0.974122 0.986496
0.910208 0.933225 1.0003 0.975043
0.858879 0.920746 0.966713 0.964926
0.832077 0.946733 0.915469 0.960048
1.00033 1 1.00207 0.998267
1.00137 1 1.00292 0.998449
0.998796 1 1 0.998796
0.998454 1 1 0.998454
0.998818 1 1.00034 0.998479
0.998776 1 1 0.998776
0.998778 1 1 0.998778
0.998872 1 1 0.998872
0.980796 1.00531 0.977399 0.998174
0.973964 1.00035 0.975118 0.998467
1.00445 1 1.00622 0.998236
1.0117 1.00258 1.01098 0.998145
1.02562 1 1.02758 0.998086
1.00344 1 1.0053 0.998157
1.0026 1 1.00443 0.998178
0.964886 0.989096 0.976794 0.998699
1.01234 1 1.01419 0.998176
1.0272 1.00032 1.02845 0.998457
0.990285 0.996373 0.994603 0.999283
1.00219 1 1.00394 0.998257
0.958476 0.976828 0.982555 0.998634
1.00577 0.992537 1.01388 0.999458
1.04636 0.998115 1.04986 0.998549
1.00245 1 1.00413 0.998328
0.871095 0.925496 0.960109 0.980325
0.88713 0.94031 0.969052 0.973575
0.817213 0.872043 0.971873 0.964247
1.00278 0.998648 1.00477 0.999367
0.999724 0.986468 1.01404 0.999406
0.875339 0.93615 0.960666 0.973326
0.922326 0.937566 1.00676 0.977137
0.930294 0.942953 0.996784 0.989758
0.849103 0.912925 0.965132 0.963692
0.85529 0.928484 0.94957 0.970091
0.836917 0.949727 0.916269 0.961746
1.00818 0.991271 1.0174 0.999669
0.860943 0.923087 0.953343 0.978324
0.869727 0.942887 0.947939 0.973068
0.983749 0.968599 1.01607 0.999581
0.805539 0.920063 0.914264 0.95763
0.921565 0.938282 1.00637 0.975962
0.887453 0.941527 0.976434 0.965317
1.00729 0.984392 1.0235 0.999765
0.879342 0.940073 0.95446 0.980028
0.857034 0.922866 0.955378 0.972041
0.760394 0.880352 0.903903 0.955565
0.858925 0.921947 0.965919 0.964514
0.959893 0.958139 1.00568 0.996168
0.944408 0.948349 1.02348 0.972998
1.01893 0.999825 1.01994 0.999192
1.02376 0.990508 1.03405 0.999534
1.00813 0.979254 1.02992 0.999582
0.998498 1 1 0.998498
1.02746 1 1.0284 0.999091
1.04005 0.998282 1.04246 0.999396
1.015 0.999966 1.016 0.999045
1.02766 0.996338 1.03197 0.999488
1.01248 0.993287 1.0201 0.999238
1.0035 1 1.00457 0.998939
0.999468 1 1.00085 0.998621
1.00432 1 1.00545 0.998874
1.00757 1 1.00933 0.998255
0.999028 1 1 0.999028
1.0004 1 1.00242 0.997981
1.00164 1.00061 1.00413 0.996907
1.00456 1.00621 1.00188 0.996484
0.999136 1.00072 1.0004 0.998009
0.998678 1.00065 1.00109 0.99694
1.00835 1.01065 1.00053 0.997209
1.00425 1.00401 1.00261 0.997626
1.00664 1.00821 1.00125 0.997191
1.00589 1 1.00765 0.998247
1.00228 1.00108 1.00322 0.997996
0.998906 1.00025 1.00128 0.997382
0.999334 1 1.00049 0.998841
1.00384 1 1.0054 0.998445
1.00258 1 1.00432 0.998268
1.00082 1 1.00215 0.998673
0.999034 1 1.00003 0.999002
0.999576 1 1 0.999576
0.999121 1 1.00002 0.999105
0.999645 1 1 0.999645
0.999993 1 1 0.999993
0.999682 1 1 0.999682
0.999995 1 1 0.999995
1 1 1 1
0.999996 1 1 0.999996
1 1 1 1
1 1 1 1
0.998991 1 1 0.998991
0.999615 1 1 0.999615
0.999112 1 1 0.999112
1 1 1 1
0.99972 1 1 0.99972
0.999277 1 1 0.999277
1 1 1 1
1 1 1 1
0.999805 1 1 0.999805
1 1 1 1
1 1 1 1
1 1 1 1
0.864325 0.924247 0.95542 0.978802
0.877806 0.937664 0.96358 0.971546
0.782049 0.859269 0.945186 0.962914
0.99868 1 1 0.99868
0.998612 1 1 0.998612
0.998526 1 1 0.998526
0.869718 0.945776 0.946929 0.971119
0.855606 0.923888 0.952849 0.97192
0.867248 0.934114 0.961892 0.9652
0.946288 0.980925 0.973536 0.990912
0.90254 0.941396 0.983474 0.974835
0.798975 0.875264 0.944527 0.966451
0.818676 0.92996 0.920244 0.956631
0.913787 0.94985 0.972792 0.98894
0.911434 0.93494 0.99922 0.975619
0.837982 0.897916 0.966145 0.965954
0.832795 0.948014 0.914271 0.960834
0.904376 0.938543 0.976237 0.98705
0.926365 0.94145 1.00767 0.976488
0.878648 0.929958 0.978066 0.966014
0.818183 0.929522 0.917282 0.959595
0.998525 1 1.00024 0.998289
1.00086 1 1.00262 0.998246
1.00132 1 1.00292 0.998409
0.998446 1 1 0.998446
0.998603 1 1.00007 0.998536
0.998785 1 1 0.998785
0.971007 0.989729 0.982307 0.998754
0.98585 0.996471 0.990013 0.999322
1.00283 1 1.00466 0.998185
1.01973 1.00058 1.0207 0.998481
1.01349 1 1.0153 0.998213
1.00288 1 1.00465 0.998232
1.00193 1 1.00359 0.998351
0.965709 0.977697 0.989008 0.998717
1.04352 0.998206 1.04677 0.998685
1.00844 0.988416 1.02085 0.99942
1.0027 1 1.00421 0.998489
0.980332 0.966823 1.01538 0.998614
1.0079 0.982183 1.02674 0.999458
1.03265 0.996288 1.03773 0.998807
0.892205 0.944392 0.961942 0.982116
0.871633 0.92572 0.959999 0.980807
0.886527 0.93981 0.968862 0.973621
1.01212 0.996257 1.0163 0.999627
0.973653 0.9663 1.00898 0.99864
0.862641 0.92417 0.954126 0.978301
0.916489 0.927004 1.00896 0.979874
0.882348 0.938236 0.974918 0.964628
0.869436 0.941256 0.947515 0.974863
0.81997 0.929748 0.921745 0.956802
1.00281 0.981594 1.02184 0.999786
0.880591 0.940236 0.955028 0.980666
0.856467 0.924009 0.953534 0.972072
0.957232 0.95433 1.01033 0.992782
0.763429 0.885618 0.903629 0.953964
0.834472 0.898282 0.962237 0.965422
0.953597 0.952463 1.02527 0.976511
1.00113 0.965845 1.03738 0.999179
0.865008 0.924142 0.956166 0.978923
0.872999 0.938251 0.963502 0.965699
0.688407 0.805844 0.893712 0.955865
0.796007 0.884411 0.933844 0.963803
0.923664 0.938542 1.00846 0.975892
0.936293 0.949931 0.995125 0.990471
1.02787 0.99185 1.03683 0.999501
1.01176 0.985203 1.02738 0.999586
1.01313 0.990167 1.02368 0.999525
1.01003 1 1.01101 0.999032
1.02656 0.997351 1.02981 0.999487
1.01526 0.991826 1.02433 0.99932
1.00891 1 1.01011 0.998819
1.00606 1 1.00722 0.998852
1.00701 1 1.00891 0.99811
1.01554 1.00071 1.0179 0.996976
0.999586 1 1.00145 0.998143
1.00306 1.00109 1.0051 0.996882
1.00445 1.00244 1.00596 0.996063
1.00419 1.00624 1.00191 0.996059
1.00522 1.00734 1.00108 0.99682
1.00431 1.006 1.00189 0.996436
0.998972 1.00095 1.00124 0.996786
1.00288 1.00431 1.0011 0.997474
1.00837 1.01062 1.00048 0.997296
1.00251 1 1.00464 0.997888
1.00486 1.00444 1.00274 0.997681
1.00672 1.00829 1.00117 0.997267
1.00389 1 1.00533 0.998567
1.00495 1 1.00671 0.998247
1.00341 1.00182 1.00361 0.99798
0.999467 1 1 0.999467
0.999665 1 1.00083 0.998839
1.00332 1 1.00488 0.998451
0.999 1 1 0.999
0.999572 1 1 0.999572
0.999985 1 1 0.999985
0.999642 1 1 0.999642
0.999991 1 1 0.999991
1 1 1 1
0.999994 1 1 0.999994
1 1 1 1
1 1 1 1
0.998965 1 1 0.998965
0.999606 1 1 0.999606
0.999015 1 1 0.999015
1 1 1 1
0.999654 1 1 0.999654
0.999151 1 1 0.999151
1 1 1 1
1 1 1 1
0.999709 1 1 0.999709
1 1 1 1
1 1 1 1
1 1 1 1
0.879103 0.93997 0.954414 0.979916
0.865528 0.924851 0.956142 0.978785
0.878824 0.937051 0.965325 0.97155
0.998834 1 1.0003 0.998537
0.998726 1 1.00033 0.998398
0.998707 1 1 0.998707
0.998604 1 1 0.998604
0.998512 1 1 0.998512
0.998506 1 1 0.998506
0.998439 1 1 0.998439
0.852644 0.928232 0.947121 0.969852
0.870424 0.94347 0.948245 0.972932
0.852922 0.922843 0.950904 0.971952
0.833929 0.949425 0.913399 0.96163
0.904599 0.941959 0.973201 0.986782
0.911112 0.932269 1.00107 0.976265
0.846705 0.907402 0.965703 0.966249
0.896229 0.937734 0.969126 0.986188
0.922021 0.934371 1.01303 0.974088
0.887602 0.941748 0.975769 0.965909
0.803041 0.916707 0.911671 0.96088
0.9148 0.94179 0.982604 0.988538
0.933241 0.943389 1.01594 0.973718
0.840185 0.906939 0.960574 0.96442
0.777647 0.893197 0.910273 0.956453
1.00642 1 1.00795 0.998479
0.999093 1 1.0008 0.998297
1.00171 1 1.00349 0.998225
0.998438 1 1 0.998438
0.971464 0.977319 0.995183 0.998821
1.0089 0.9851 1.0248 0.999378
1.002 1 1.0038 0.998207
1.00173 1 1.00336 0.998374
1.03641 0.997373 1.04036 0.998821
1.00199 1 1.00351 0.998483
1.03375 0.995763 1.0394 0.998793
0.977744 0.965359 1.0153 0.997568
1.00698 0.97511 1.03311 0.99959
1.01344 0.994821 1.01982 0.998919
0.963655 0.943658 1.02394 0.997315
1.0218 0.978671 1.0448 0.999296
0.871688 0.925284 0.960922 0.980388
0.889729 0.94357 0.959298 0.982947
0.871589 0.925617 0.959587 0.981288
0.996822 0.977014 1.02047 0.999805
0.96374 0.959393 1.00812 0.996438
0.88016 0.939497 0.954684 0.981311
0.951108 0.955668 1.02229 0.973533
0.838595 0.903157 0.961484 0.965711
0.854722 0.924857 0.950689 0.972102
0.759411 0.875907 0.90819 0.954645
1.00358 0.968601 1.03682 0.999324
0.864973 0.925372 0.954871 0.978908
0.868986 0.935592 0.961915 0.965582
0.938549 0.949458 0.995603 0.992876
0.686055 0.811869 0.88732 0.952341
0.804406 0.887539 0.940292 0.963885
0.922368 0.934313 1.01312 0.974435
0.998115 0.973266 1.02759 0.997994
0.875529 0.93859 0.959866 0.971816
0.755193 0.844908 0.932911 0.958094
0.764827 0.861442 0.918011 0.96714
0.903503 0.92588 0.99943 0.976387
0.908344 0.935691 0.983189 0.987373
1.01373 0.988681 1.02576 0.99959
1.01317 0.987609 1.02637 0.99952
0.991516 0.986658 1.00558 0.999344
1.01797 0.990358 1.0285 0.999402
1.00727 0.994769 1.01368 0.9989
1.00224 1.0008 1.00358 0.997867
1.0068 1 1.00885 0.997965
1.01437 1.00066 1.01685 0.9969
1.00872 1.00042 1.01222 0.996128
1.00467 1.00179 1.00604 0.996858
1.00484 1.00225 1.00664 0.995975
1.00233 1.00216 1.00445 0.995739
1.01319 1.01709 1 0.996164
1.00905 1.01201 1.00077 0.996307
1.00466 1.0065 1.00218 0.996003
1.00205 1.00483 1.00013 0.997103
1.00421 1.0066 1.00074 0.996884
1.00409 1.00583 1.0019 0.996388
0.999955 1.00134 1.00112 0.997507
1.00314 1.00461 1.00108 0.997456
1.00809 1.0103 1.00043 0.997382
1.00493 1 1.00673 0.998206
1.00258 1.00007 1.00458 0.997944
1.00535 1.00473 1.00288 0.997737
0.999703 1 1.00045 0.999252
1.00326 1 1.0047 0.99857
1.00414 1 1.0059 0.998247
0.999972 1 1 0.999972
0.99946 1 1 0.99946
1.00002 1 1.00118 0.998837
0.999567 1 1 0.999567
0.999982 1 1 0.999982
1 1 1 1
0.999989 1 1 0.999989
1 1 1 1
1 1 1 1
0.999614 1 1.00109 0.998522
0.99886 1 1 0.99886
0.999513 1 1 0.999513
0.998962 1 1 0.998962
0.999995 1 1 0.999995
0.999609 1 1 0.999609
0.99904 1 1 0.99904
1 1 1 1
1 1 1 1
0.999693 1 1 0.999693
1 1 1 1
1 1 1 1
1 1 1 1
0.858336 0.922087 0.951567 0.978241
0.878564 0.939179 0.953999 0.980566
0.866485 0.926266 0.955757 0.978763
0.998747 1 1.0002 0.998549
0.999227 1 1.00084 0.998393
0.999194 1 1.00079 0.99841
0.998549 1 1.00015 0.998402
1.00277 1 1.00444 0.998339
0.998596 1 1 0.998596
0.998497 1 1 0.998497
0.998508 1 1 0.998508
0.998443 1 1 0.998443
1.00424 1 1.00575 0.99849
0.862729 0.927833 0.962912 0.965647
0.854609 0.928825 0.948653 0.969898
0.871849 0.942442 0.949069 0.97474
0.804943 0.919429 0.910996 0.961015
0.883172 0.937152 0.976682 0.964899
0.888766 0.932816 0.967326 0.984959
0.929107 0.941496 1.01091 0.976188
0.912785 0.944275 0.980509 0.985867
0.943733 0.952462 1.015 0.976193
0.849711 0.910761 0.966272 0.965535
0.776471 0.897655 0.905287 0.955498
0.925922 0.939961 0.997136 0.987894
0.929192 0.939722 1.01233 0.976751
0.778994 0.861809 0.935666 0.966057
0.716325 0.842314 0.890218 0.955301
1.00737 1 1.00837 0.999006
1.00768 1 1.00921 0.998481
1.00039 1 1.00208 0.998305
0.979001 0.968188 1.01473 0.99649
1.01026 0.970431 1.04133 0.99973
1.00189 1 1.00342 0.998476
1.03575 0.99527 1.04194 0.99878
1.01462 0.997171 1.01859 0.998927
1.026 0.983815 1.04363 0.999285
0.96826 0.9515 1.02037 0.997298
1.01906 0.995303 1.02454 0.999345
0.977831 0.964361 1.01655 0.997457
0.886662 0.940457 0.968696 0.973267
0.872692 0.925843 0.960983 0.980862
0.887408 0.942719 0.956849 0.983779
1.00708 0.973787 1.03476 0.999452
0.937255 0.949916 0.997593 0.989051
0.867117 0.926665 0.955923 0.978887
0.92647 0.94338 1.00858 0.973715
0.79206 0.869224 0.943069 0.966235
0.866078 0.932937 0.96153 0.965477
0.687698 0.821037 0.882837 0.948756
0.997638 0.972208 1.02804 0.998171
0.877506 0.937593 0.963077 0.971795
0.749389 0.840988 0.931197 0.95692
0.913251 0.941342 0.981259 0.988687
0.776654 0.869243 0.925332 0.965581
0.893565 0.927183 0.988892 0.974567
0.964241 0.964368 1.0031 0.996782
0.787893 0.860528 0.95169 0.96207
0.775761 0.86016 0.932235 0.967438
0.91413 0.946317 0.99075 0.975006
0.889264 0.931794 0.964591 0.98939
1.01245 0.985582 1.02775 0.999515
0.995975 0.986035 1.01077 0.999317
0.998024 0.996863 1.00265 0.998519
1.0056 0.989126 1.01769 0.998977
1.00175 1.00093 1.00287 0.997953
0.998642 1.00199 0.999565 0.997097
1.01276 1.00059 1.01539 0.996823
1.00705 1.00058 1.01037 0.996138
0.99925 1.0016 1.00137 0.996292
1.00482 1.00195 1.007 0.995888
1.0025 1.00305 1.0037 0.995769
1.01256 1.01625 1 0.996362
1.03072 1.03418 1 0.996659
1.02133 1.02518 1.00002 0.996231
1.013 1.01688 1 0.99619
1.009 1.01246 1 0.996584
1.00748 1.01018 1.00107 0.996257
1.00522 1.00686 1.00244 0.995948
1.00175 1.0045 1 0.997264
1.00077 1.00358 1.00002 0.997176
1.00315 1.0059 1.00032 0.996948
1.00007 1.00014 1.00208 0.997857
1.00052 1.00169 1.0013 0.99754
1.00348 1.00496 1.0011 0.997438
1.00315 1 1.00428 0.998874
1.00447 1 1.00627 0.998209
1.0026 1.00008 1.00453 0.997999
0.999943 1 1 0.999943
1.00014 1 1.00089 0.999244
1.00275 1 1.00419 0.998573
1 1 1 1
0.999966 1 1 0.999966
0.999453 1 1 0.999453
0.999979 1 1 0.999979
1 1 1 1
1 1 1 1
1.00097 1 1.00253 0.998443
0.999043 1 1.0003 0.998745
0.999703 1 1.0012 0.998506
0.999424 1 1 0.999424
0.998888 1 1.00003 0.998858
0.99998 1 1 0.99998
0.999517 1 1 0.999517
0.998959 1 1 0.998959
1 1 1 1
0.999997 1 1 0.999997
0.999612 1 1 0.999612
1 1 1 1
1 1 1 1
1 1 1 1
0.876459 0.93827 0.959458 0.973593
0.860645 0.923568 0.952614 0.978223
0.878472 0.937831 0.954634 0.981219
0.998643 1 1.00022 0.998424
0.998973 1 1.00041 0.998561
0.999336 1 1.00095 0.998388
0.998658 1 1.00025 0.998406
0.999011 1 1.00058 0.99843
1.00132 1 1.00293 0.99839
1.00768 1 1.00955 0.998153
1.00889 1 1.01056 0.998348
0.998509 1 1 0.998509
0.998447 1 1 0.998447
1.00393 1 1.00546 0.998478
1.01411 1 1.01544 0.998688
0.758365 0.847155 0.935275 0.957141
0.871663 0.935968 0.964604 0.96547
0.855769 0.92872 0.950014 0.969933
0.766124 0.888596 0.901029 0.956877
0.854566 0.917642 0.965246 0.964793
0.935032 0.944302 1.01685 0.973778
0.915761 0.939969 0.987501 0.986577
0.924787 0.938546 0.995458 0.989836
0.70253 0.832785 0.886229 0.951887
0.923251 0.936032 1.01232 0.974345
0.797379 0.881732 0.9374 0.964724
0.922272 0.943568 0.986683 0.990622
0.915001 0.935475 1.00044 0.977683
0.76734 0.864601 0.918877 0.965861
0.999883 1 1.00034 0.999547
1.00709 1 1.00808 0.999012
1.00806 1 1.00959 0.998481
0.964958 0.949489 1.01901 0.997329
1.03017 0.988965 1.04242 0.999273
1.01527 0.998673 1.0177 0.998935
1.01903 0.996747 1.02302 0.999344
0.975337 0.963757 1.01455 0.997504
0.995384 0.988311 1.0089 0.998272
0.811185 0.872699 0.965963 0.962266
0.884234 0.939681 0.965208 0.974912
0.871904 0.925847 0.959651 0.981332
0.998264 0.970724 1.03012 0.998301
0.90399 0.936904 0.975084 0.989524
0.876889 0.936566 0.963455 0.971795
0.898484 0.920822 0.999815 0.975922
0.785291 0.883113 0.922347 0.964096
0.749669 0.845591 0.925398 0.958034
0.965223 0.962766 1.00572 0.996851
0.782028 0.859207 0.945002 0.963146
0.781212 0.864228 0.935528 0.966237
0.892221 0.932743 0.969607 0.98654
0.907681 0.946214 0.981458 0.977399
0.954726 0.971639 0.984156 0.998413
0.801989 0.877808 0.945225 0.96657
0.933844 0.975102 0.978586 0.978645
0.904872 0.946993 0.968778 0.986316
1.00012 0.985058 1.016 0.999294
0.98993 0.996264 0.995015 0.998621
0.99369 1.00209 0.993838 0.99777
1.00182 1.0011 1.00268 0.998039
1.0016 1.00242 1.00211 0.997082
1.00023 1.00367 0.999428 0.997144
1.00576 1.00078 1.00886 0.996148
0.999175 1.00121 1.00167 0.996304
1.01827 1.0215 0.999755 0.997083
1.00293 1.00396 1.00319 0.995799
1.01167 1.01535 1 0.996373
1.0311 1.034 1 0.997197
1.03452 1.0374 1 0.997222
1.03332 1.03687 1 0.996578
1.03045 1.03386 1 0.996698
1.02179 1.02544 1 0.996446
1.02008 1.02388 1 0.996283
1.01256 1.01641 1 0.996215
1.01081 1.0139 1 0.996949
1.00902 1.01231 1.00014 0.996612
1.00596 1.0083 1.00148 0.996206
0.999151 1.00159 1 0.997569
1.00244 1.00519 1 0.997257
0.999563 1.00232 1 0.997249
1.00257 1 1.0041 0.998472
1.00058 1.0005 1.00223 0.997856
1.00102 1.00201 1.00145 0.997573
0.999985 1 1.00013 0.999856
1.00266 1 1.0038 0.998871
1.00368 1 1.00548 0.998212
1 1 1 1
0.99993 1 1 0.99993
1.00051 1 1.00128 0.999236
1 1 1 1
0.99996 1 1 0.99996
1 1 1 1
0.999208 1 1.00084 0.998369
1.00054 1 1.0021 0.998435
1.00073 1 1.00211 0.998619
0.999535 1 1.0002 0.999331
0.999254 1 1.00051 0.998743
0.999326 1 1.00084 0.998491
0.999958 1 1 0.999958
0.999428 1 1 0.999428
0.998857 1 1 0.998857
1 1 1 1
0.999985 1 1 0.999985
0.99952 1 1 0.99952
1 1 1 1
0.999999 1 1 0.999999
1 1 1 1
0.789012 0.858546 0.957823 0.959478
0.875965 0.937665 0.959532 0.973597
0.863484 0.925539 0.953739 0.978205
1.00028 1 1.00188 0.998406
1.00233 1.0007 1.00343 0.998209
1.00611 1 1.00784 0.998282
0.999218 1 1.00081 0.99841
0.998837 1 1.00039 0.998449
1.00123 1 1.0028 0.998441
1.00778 1 1.00947 0.998328
1.00719 1 1.00903 0.998178
1.00888 1 1.01084 0.998062
0.992694 1.00041 0.993297 0.998985
1.00287 1 1.00441 0.998466
1.01113 1 1.01249 0.998657
0.780381 0.860427 0.940209 0.964646
0.747109 0.836951 0.934407 0.955318
0.8782 0.941176 0.966593 0.965337
0.690115 0.821942 0.885299 0.948398
0.797777 0.880485 0.937799 0.966161
0.914675 0.933031 1.00394 0.976481
0.932449 0.945125 0.999158 0.987419
0.915374 0.939163 0.985917 0.988592
0.768434 0.857467 0.928856 0.964808
0.899844 0.926689 0.995076 0.975836
0.907646 0.944248 0.971357 0.989581
0.90089 0.946749 0.975503 0.975457
1.0051 1 1.00609 0.999021
0.999502 1 1.00001 0.999488
1.00683 1 1.00782 0.999018
0.974067 0.964358 1.01255 0.997548
1.01895 0.998153 1.0215 0.999344
0.995804 0.989091 1.00861 0.998196
0.986041 0.99357 0.995073 0.997336
0.807909 0.894685 0.932066 0.968825
0.812951 0.871997 0.968017 0.963089
0.884487 0.940322 0.963224 0.976535
0.967096 0.968338 1.00174 0.996986
0.893829 0.933304 0.97019 0.98713
0.782391 0.860114 0.944316 0.963276
0.899861 0.940974 0.980762 0.975066
0.789789 0.870351 0.937723 0.967703
0.95894 0.973749 0.987188 0.997572
0.809747 0.887062 0.943509 0.967497
0.931578 0.976134 0.978187 0.975636
0.910856 0.949235 0.97058 0.988654
0.964088 0.987617 0.977841 0.998298
0.937033 0.981458 0.976253 0.97796
0.942023 0.980024 0.970451 0.990493
0.980797 0.994756 0.987238 0.998712
0.990693 1.00244 0.990516 0.997743
0.981811 1.00739 0.97692 0.997634
1.0034 1.00278 1.00356 0.997066
0.999463 1.00369 0.998648 0.99714
1.02055 1.02917 0.993881 0.997732
0.998881 1.00071 1.00186 0.996317
1.01767 1.02144 0.999242 0.997067
1.03144 1.03718 0.996717 0.997736
1.01072 1.01439 1 0.996383
1.03045 1.03359 0.999775 0.997193
1.03543 1.03853 0.99933 0.997684
1.03208 1.0346 1 0.997561
1.03542 1.03824 1 0.997286
1.03458 1.0376 1 0.99708
1.034 1.03748 1 0.996645
1.03355 1.03709 1 0.99659
1.03028 1.03365 1 0.996737
1.02158 1.02495 1 0.996704
1.02333 1.02695 1 0.996478
1.01888 1.02263 1 0.996335
1.00467 1.0074 1 0.997298
1.01008 1.01317 1 0.996944
1.00913 1.01235 1.00017 0.99664
0.998469 1.00002 1.00026 0.998193
1.00046 1.00291 1 0.997566
1.00311 1.00588 1 0.997251
1.00052 1 1.00086 0.999669
1.00184 1 1.00337 0.998473
1.00134 1.00089 1.0026 0.997856
1 1 1 1
1.00041 1 1.00058 0.999833
1.00235 1 1.00348 0.998867
1 1 1 1
0.999917 1 1 0.999917
1 1 1 1
0.998294 1.00001 1 0.998284
0.999923 1 1.00155 0.998378
1.00143 1 1.00294 0.998494
1 1 1.00158 0.998426
1.00098 1 1.00237 0.998618
1.00025 1 1.00105 0.999208
0.999933 1 1 0.999933
0.999459 1 1.00013 0.999334
0.999711 1 1.00097 0.998742
1 1 1 1
0.999965 1 1 0.999965
0.999431 1 1 0.999431
1 1 1 1
0.99999 1 1 0.99999
1 1 1 1
0.811176 0.883391 0.949117 0.967481
0.791852 0.86194 0.95728 0.959684
0.875063 0.937011 0.959216 0.973595
1.00205 1 1.00367 0.998387
1.00775 1 1.0096 0.998164
1.00086 1.00037 1.00222 0.998277
0.999342 1.00135 1.00042 0.997576
1.00724 1.00027 1.00882 0.998152
1.00714 1 1.00885 0.998308
1.00576 1 1.00757 0.998203
1.01115 1.00008 1.01297 0.998119
0.997872 1.00001 1 0.99786
0.984084 1.00068 0.984731 0.998668
0.985976 1.00035 0.987826 0.997776
0.993308 1.00022 0.994054 0.999032
1.0067 1 1.00809 0.998625
0.922412 0.969101 0.974228 0.977001
0.779753 0.857395 0.94198 0.965461
0.747563 0.839462 0.931819 0.955686
0.766656 0.859222 0.926422 0.963133
0.91155 0.936659 0.99803 0.975114
0.917591 0.934735 0.990848 0.990727
0.90955 0.94355 0.972649 0.991073
0.911913 0.948333 0.982941 0.978284
0.936411 0.97467 0.970288 0.990166
0.997116 1.00132 0.99758 0.998218
1.00469 1 1.0057 0.998999
0.999293 1 0.999865 0.999428
0.997089 0.99107 1.00794 0.998151
0.990866 0.997076 0.996337 0.997425
0.913107 0.96881 0.963817 0.977888
0.81731 0.893136 0.944463 0.968912
0.814552 0.870317 0.970942 0.963936
0.9657 0.978261 0.990441 0.996688
0.911379 0.949694 0.972818 0.98647
0.809604 0.884114 0.946787 0.967191
0.929032 0.969544 0.979591 0.978179
0.971507 0.987499 0.985419 0.998363
0.944713 0.989534 0.97518 0.979004
0.938547 0.977214 0.971887 0.988212
0.987045 1.00427 0.985066 0.997749
0.960991 0.994011 0.973192 0.993413
0.991451 1.00465 0.989107 0.997735
0.98218 1.00696 0.977757 0.997584
1.00105 1.03201 0.972061 0.997886
0.998971 1.00372 0.998123 0.997136
1.02103 1.02931 0.994235 0.99771
1.03057 1.04517 0.988008 0.998001
1.01709 1.02141 0.998722 0.99705
1.03091 1.03735 0.996067 0.997715
1.02831 1.03747 0.993239 0.997921
1.02979 1.03323 0.999476 0.997189
1.03549 1.03902 0.998936 0.997664
1.03325 1.03704 0.998596 0.997751
1.03271 1.03518 1 0.997613
1.03146 1.0342 0.999978 0.997374
1.03632 1.03907 1 0.99735
1.0345 1.03754 1 0.997072
1.03624 1.03946 1 0.996903
1.03054 1.03394 1 0.996713
1.03382 1.03731 1 0.996634
1.03376 1.03728 1 0.996603
1.01467 1.01764 1 0.99708
1.02086 1.02422 1 0.996718
1.02485 1.02843 1 0.99651
0.999027 1.00105 1 0.997983
1.00591 1.00864 1 0.997294
1.00928 1.01238 1 0.99694
1.0001 1 1.00066 0.99944
0.998841 1.00024 1.00041 0.998193
1.00183 1.00427 1 0.997563
1 1 1 1
1.00069 1 1.00104 0.999645
1.00106 1 1.00259 0.998475
1 1 1 1
1.00083 1 1.00102 0.999809
1 1 1 1
1.00138 1.00373 1 0.997658
0.998301 1.00003 1 0.998275
0.999897 1 1.00158 0.998317
1.00079 1 1.0024 0.998387
1.00126 1 1.00279 0.998469
1.00087 1 1.00185 0.999016
1.00114 1 1.00253 0.998617
0.999899 1 1.00069 0.999209
0.999901 1 1 0.999901
1 1 1 1
0.99994 1 1 0.99994
0.999336 1 1 0.999336
1 1 1 1
0.999971 1 1 0.999971
1 1 1 1
0.93741 0.982729 0.973538 0.979813
0.807993 0.888366 0.939466 0.968132
0.79944 0.866709 0.961981 0.958839
1.00913 1 1.01111 0.998046
0.999233 1 1.00089 0.998347
1.00582 1.00021 1.0075 0.998131
1.00057 1.0023 1.00064 0.997634
1.00776 1.01049 1.00016 0.997138
0.998089 1.00028 1 0.99781
1.01384 1.00014 1.01555 0.998175
0.997853 1.00017 1 0.99768
0.988614 1.00073 0.989232 0.998645
0.996307 1.00079 0.997711 0.997807
0.982386 1.00303 0.981456 0.997925
0.99587 1.00129 0.997192 0.997389
0.986431 1.00082 0.987685 0.997913
0.99663 1.00006 0.997488 0.999079
0.938549 0.978931 0.968179 0.990259
0.925723 0.972127 0.974268 0.977417
0.780005 0.858839 0.93879 0.967425
0.920463 0.953563 0.990007 0.975032
0.912623 0.942499 0.9761 0.992011
0.940708 0.97375 0.97276 0.99312
0.989993 1.00377 0.988539 0.997712
0.995014 1.00067 0.996125 0.998217
1.00436 1 1.00538 0.998978
0.992112 0.999572 0.995029 0.997496
0.947795 0.975155 0.981303 0.990462
0.928342 0.975124 0.970742 0.980718
0.805709 0.887063 0.938737 0.967564
0.972852 0.984679 0.989552 0.998421
0.940558 0.980207 0.969436 0.989802
0.950955 0.988793 0.981346 0.980014
0.97977 1.00276 0.979249 0.99778
0.95963 0.990471 0.975996 0.99269
0.981436 1.02425 0.960447 0.997665
1.00136 1.01632 0.988404 0.996839
0.981804 1.00651 0.977871 0.997528
0.999358 1.03077 0.971581 0.99788
1.0061 1.048 0.96202 0.997918
1.02184 1.02988 0.994496 0.997688
1.03038 1.045 0.987997 0.997983
1.02414 1.04049 0.986383 0.997871
1.03063 1.03763 0.995546 0.997693
1.0278 1.03679 0.993413 0.997903
1.03299 1.04163 0.99397 0.997722
1.03562 1.03947 0.998647 0.997644
1.03157 1.03541 0.998539 0.997743
1.03283 1.03607 0.9994 0.997471
1.03331 1.03572 1 0.997664
1.03172 1.0344 0.999991 0.997418
1.03499 1.03803 1 0.997074
1.03448 1.03753 1 0.997063
1.03619 1.03942 1 0.996892
1.03357 1.03683 1 0.996862
1.02211 1.02523 1 0.996957
1.03053 1.03392 1 0.996723
1.03359 1.0371 1 0.996623
1.00222 1.00443 1 0.997795
1.01428 1.01725 1 0.997082
1.02025 1.02359 1 0.996733
0.999243 1 1 0.999243
0.999889 1.00191 1 0.997981
1.00692 1.00965 1 0.997291
1 1 1 1
0.999882 1 1.00046 0.999424
0.999128 1.00043 1.00051 0.998194
1 1 1 1
1.00084 1 1.00122 0.999621
1 1 1 1
1.00827 1.01106 1 0.997234
1.00181 1.00414 1 0.997678
1.00191 1.00334 1.00066 0.997917
0.998335 1.00007 1 0.998267
0.999809 1 1.00153 0.998281
1.00071 1 1.00196 0.998757
1.0012 1 1.00276 0.998444
1.0007 1 1.00168 0.999018
1.00005 1 1.0002 0.99985
0.99966 1 1.00045 0.999211
0.999909 1 1 0.999909
1 1 1 1
1 1 1 1
0.999948 1 1 0.999948
1 1 1 1
0.939454 0.979048 0.968432 0.990837
0.930616 0.982287 0.969274 0.977429
0.800459 0.881682 0.937149 0.968765
1.01995 1.02307 1.00007 0.996885
1.00453 1.00018 1.00625 0.998109
1.00205 1.00348 1.00088 0.997692
0.99804 1.00026 1 0.997783
1.00758 1.01006 1.00042 0.997122
1.00187 1.0042 1 0.997678
0.997877 1.00038 1 0.9975
0.991029 1.00064 0.991757 0.998623
0.994739 1.00104 0.995866 0.997826
0.977602 1.0021 0.977654 0.997848
1.00096 1.0066 0.997215 0.997171
1.00123 1.0068 0.997081 0.997383
0.99665 1.00195 0.997353 0.997345
0.98635 1.00134 0.98696 0.998049
0.98858 1.00613 0.98432 0.998212
0.934819 0.978197 0.966179 0.989108
0.928804 0.973867 0.974938 0.978244
0.933717 0.968679 0.972536 0.991127
0.993117 1.0056 0.989274 0.998293
0.995105 1.0002 0.99669 0.99821
0.989005 1.00668 0.985728 0.996665
0.934859 0.962605 0.97914 0.991866
0.915588 0.972011 0.96314 0.978001
0.974737 1.00093 0.975966 0.997811
0.96608 0.99228 0.981706 0.99174
0.984526 1.02528 0.962417 0.997746
1.00135 1.01576 0.988728 0.997053
0.995907 1.03699 0.962554 0.997747
1.0391 1.04777 0.994096 0.997611
0.99695 1.02894 0.970978 0.997874
1.00942 1.04939 0.963931 0.997907
1.01355 1.04971 0.967754 0.99773
1.02947 1.04427 0.987841 0.997965
1.02307 1.03978 0.986028 0.997867
1.03155 1.04635 0.988216 0.997609
1.02702 1.03601 0.993422 0.997885
1.03202 1.04071 0.993899 0.997735
1.03563 1.04088 0.997532 0.997418
1.02991 1.03384 0.998457 0.997736
1.03339 1.03656 0.999468 0.997469
1.03706 1.04002 1 0.99715
1.03195 1.03458 1 0.997462
1.03522 1.03822 1 0.997111
1.03556 1.03879 1 0.996891
1.03612 1.03936 1 0.996882
1.03334 1.03661 1 0.996842
1.02532 1.02844 1 0.996967
1.00635 1.0087 1 0.997674
1.02145 1.02455 1 0.996977
1.03051 1.03389 1 0.996733
0.999099 1 1 0.999099
1.00349 1.00571 1 0.997794
1.01401 1.01698 1 0.997084
1 1 1 1
0.99923 1 1 0.99923
1.00084 1.00286 1 0.99798
1 1 1 1
0.99968 1 1.00027 0.999407
1 1 1 1
1.01695 1.0201 1 0.996913
1.00914 1.01193 1 0.997236
1.00695 1.00943 1 0.997542
1.00207 1.00437 1.00001 0.997698
1.0007 1.00224 1.00056 0.997914
1.00036 1.0003 1.0016 0.998466
0.999592 1 1.00135 0.998245
1.00139 1 1.00263 0.998758
1.00065 1 1.0009 0.999755
1.00014 1 1.00112 0.999019
0.99986 1 1 0.99986
1 1 1 1
0.999917 1 1 0.999917
1 1 1 1
1 1 1 1
0.985399 1.01057 0.976983 0.998068
0.933875 0.975995 0.967839 0.988639
0.926465 0.972243 0.972203 0.980161
1.01427 1.01707 1.00001 0.997236
1.02809 1.03131 1 0.996876
1.01773 1.02072 1.00013 0.996943
0.99794 1.00019 1 0.997755
1.00713 1.00931 1.00073 0.997104
1.00279 1.00569 0.999473 0.997641
1.01583 1.01953 0.999232 0.997136
0.993766 1.00133 0.994586 0.997846
0.974244 1.00123 0.975221 0.99777
1.00221 1.00828 0.996718 0.997247
1.01889 1.02501 0.997063 0.996955
1.00952 1.02349 0.988675 0.997647
1.00316 1.00836 0.99748 0.997351
0.997831 1.00262 0.997912 0.997301
0.992685 1.00812 0.986256 0.998409
0.938345 0.979746 0.969537 0.987835
0.993415 1.00634 0.988245 0.998893
1.02033 1.03644 0.986204 0.998228
0.988294 1.00539 0.986172 0.996777
0.93882 0.972271 0.975528 0.989817
0.987881 1.02668 0.964307 0.997823
1.00131 1.01558 0.988641 0.997279
0.995316 1.03758 0.961326 0.997857
1.03919 1.04917 0.992847 0.997623
1.03399 1.05657 0.980971 0.997615
1.06017 1.07169 0.991488 0.997741
1.01313 1.05162 0.965431 0.997897
1.01803 1.05016 0.971609 0.997731
1.0348 1.05467 0.983608 0.997512
1.02238 1.03926 0.98586 0.997864
1.03142 1.04563 0.988775 0.997607
1.03667 1.04647 0.993231 0.997383
1.03108 1.03979 0.993867 0.997747
1.0361 1.0413 0.997587 0.997415
1.04014 1.04341 0.999728 0.997142
1.03388 1.03698 0.999538 0.997468
1.03716 1.04012 1 0.99715
1.03863 1.04187 1 0.996891
1.03545 1.03841 1 0.997148
1.03519 1.03841 1 0.996903
1.0276 1.03076 1 0.996934
1.03313 1.03643 1 0.996822
1.02522 1.02835 1 0.99696
1.00853 1.01095 1 0.997604
0.999031 1 1 0.999031
1.00699 1.00934 1 0.997673
1.02085 1.02392 1 0.996998
1 1 1 1
0.999087 1 1 0.999087
1.00473 1.00695 1 0.997794
1 1 1 1
0.999217 1 1 0.999217
1 1 1 1
1.02514 1.02844 1 0.996789
1.0173 1.02046 1 0.996897
1.01161 1.01442 1 0.997236
1.00994 1.01274 1 0.997238
1.00541 1.00788 1 0.997549
1.00018 1.00166 1.00034 0.998184
0.999338 1.00097 1.00046 0.997911
1.0008 1.00012 1.00222 0.998469
1.00042 1 1.00084 0.99958
1.00249 1 1.00373 0.998758
1.0004 1 1.00063 0.99977
1 1 1 1
0.999871 1 1 0.999871
1 1 1 1
1 1 1 1
1.00808 1.03373 0.977008 0.998137
0.982928 1.00952 0.976156 0.997442
0.93324 0.977717 0.964767 0.989369
1.02592 1.02897 1 0.997027
1.01529 1.01792 1 0.99742
1.04316 1.04641 1 0.996896
1.02877 1.03201 1 0.996861
1.01583 1.0187 1.00018 0.997004
1.03656 1.04029 0.999539 0.996875
1.00354 1.00729 0.998668 0.997605
1.01466 1.01816 0.999492 0.997074
1.03768 1.05103 0.99014 0.997134
1.00267 1.0099 0.99551 0.997323
1.01941 1.02562 0.997025 0.996908
1.01039 1.02455 0.988481 0.997677
1.0036 1.00869 0.997626 0.997318
0.997068 1.01001 0.988576 0.998597
1.04732 1.06447 0.986055 0.997796
1.02061 1.03623 0.986654 0.998243
0.987168 1.00409 0.98622 0.996884
0.995455 1.03756 0.961373 0.997967
1.03842 1.04965 0.99165 0.997636
1.03023 1.05596 0.977942 0.997635
1.06068 1.07333 0.990454 0.997737
1.05089 1.06673 0.987486 0.997632
1.02201 1.05025 0.975316 0.997733
1.03531 1.05408 0.984638 0.997521
1.03801 1.05196 0.989308 0.997403
1.0312 1.04488 0.989277 0.997605
1.03634 1.04606 0.993333 0.997364
1.04161 1.04682 0.997901 0.997121
1.03664 1.04178 0.997644 0.997412
1.04025 1.0435 0.999748 0.99714
1.04202 1.04529 1 0.996875
1.03728 1.04024 1 0.99715
1.03841 1.04164 1 0.996894
1.03066 1.0339 1 0.996873
1.03483 1.03804 1 0.996914
1.02777 1.03092 1 0.996938
1.00947 1.01197 1 0.99753
1.02507 1.02821 1 0.996953
1.00873 1.01115 1 0.997602
0.999182 1 1 0.999182
0.999705 1 1 0.999705
0.999098 1 1 0.999098
1.00759 1.00994 1 0.997672
1 1 1 1
0.999076 1 1 0.999076
1 1 1 1
1.0501 1.05329 1 0.996971
1.03497 1.03824 1 0.996851
1.02596 1.02927 1 0.996787
1.01746 1.02044 1 0.997073
1.01785 1.02104 1 0.99688
1.0118 1.0146 1 0.997236
1.00274 1.0048 1 0.997949
1.004 1.00646 1 0.997556
0.999763 1.00111 1.00046 0.998187
0.999469 1 1.00012 0.999349
1.00126 1 1.0028 0.998471
1.00045 1 1.00085 0.9996
1 1 1 1
0.999914 1 1.00013 0.999786
1 1 1 1
1 1 1 1
1.04268 1.06297 0.983333 0.997546
1.01229 1.0384 0.976617 0.998203
0.98087 1.00962 0.974623 0.996823
1.0406 1.04384 1 0.9969
1.02434 1.02734 1 0.997083
1.01592 1.01836 1 0.997601
1.04194 1.04517 1 0.996914
1.02941 1.03267 1 0.996845
1.04577 1.05687 0.99236 0.997114
1.03309 1.03685 0.999544 0.996834
1.01368 1.01673 0.999988 0.997011
1.03674 1.05003 0.990189 0.997128
1.02215 1.02806 0.997387 0.996862
1.01425 1.02908 0.987842 0.997712
1.05056 1.0656 0.988127 0.997729
1.04968 1.06601 0.986823 0.997824
1.02083 1.03619 0.986886 0.998259
1.02769 1.05637 0.975138 0.997654
1.06201 1.0757 0.98951 0.997734
1.05087 1.06773 0.986532 0.997641
1.04309 1.05392 0.99222 0.997489
1.03575 1.0534 0.98568 0.99753
1.03811 1.05155 0.989798 0.997392
1.04318 1.05041 0.995953 0.997151
1.03602 1.04565 0.993429 0.997345
1.04209 1.04728 0.997916 0.99712
1.04474 1.04806 0.999981 0.996859
1.04036 1.04359 0.999769 0.997137
1.04214 1.04541 1 0.996876
1.03334 1.03665 1 0.996804
1.0382 1.04143 1 0.996898
1.03096 1.03419 1 0.996876
1.01052 1.01312 1 0.997432
1.02794 1.03109 1 0.996943
1.00974 1.01224 1 0.997529
0.99919 1 1 0.99919
1.00895 1.01137 1 0.9976
0.999177 1 1 0.999177
0.999723 1 1 0.999723
0.999858 1 1 0.999858
0.99917 1 1 0.99917
1 1 1 1
1.04564 1.04886 1 0.996937
1.04065 1.04388 1 0.996904
1.04915 1.05221 1 0.997088
1.02666 1.02976 1 0.996981
1.03694 1.04023 1 0.996839
1.02682 1.03014 1 0.996785
1.01833 1.02132 1 0.997068
1.00716 1.00942 1 0.997763
1.01204 1.01484 1 0.997237
1.0017 1.00376 1 0.997951
0.999156 1 1 0.999156
0.99925 1.00054 1.00052 0.99819
0.999708 1 1.00034 0.999368
1 1 1 1
1.00053 1 1.00091 0.99962
1 1 1 1
1 1 1 1
1.04371 1.06051 0.986687 0.997436
1.04129 1.06141 0.983464 0.997541
1.01491 1.0408 0.976818 0.998261
1.04684 1.05269 0.997412 0.997025
1.03876 1.04199 1 0.996901
1.02297 1.02591 1 0.99714
1.04054 1.04374 1 0.996933
1.04442 1.05556 0.992329 0.99709
1.02946 1.03322 0.999561 0.996793
1.03246 1.04553 0.990348 0.997123
1.04538 1.05703 0.99141 0.997552
1.04948 1.06432 0.988343 0.99769
1.05187 1.0673 0.987665 0.997852
1.04196 1.05033 0.994636 0.997384
1.05053 1.06845 0.985546 0.99765
1.04291 1.05398 0.991997 0.997476
1.04469 1.05206 0.995734 0.99725
1.03829 1.05118 0.990336 0.99738
1.0432 1.05046 0.995926 0.997153
1.04581 1.04928 0.999837 0.996862
1.04251 1.04769 0.997933 0.99712
1.04489 1.04821 0.999974 0.99686
1.03452 1.03789 1 0.996755
1.04216 1.04542 1 0.996877
1.0336 1.03692 1 0.996807
1.01131 1.01402 1 0.997334
1.03122 1.03445 1 0.996879
1.01076 1.01336 1 0.997431
0.999164 1 1 0.999164
1.01002 1.01252 1 0.997527
0.99918 1 1 0.99918
0.999728 1 1 0.999728
0.999174 1 1 0.999174
0.999729 1 1 0.999729
1 1 1 1
1.04588 1.04959 0.999629 0.996838
1.04204 1.04536 1 0.996824
1.04721 1.05044 0.999992 0.99694
1.03229 1.03541 1 0.996995
1.04164 1.04485 1 0.996929
1.04837 1.0513 1 0.997205
1.0106 1.01302 1 0.997608
1.02668 1.0298 1 0.996974
1.03905 1.04236 1 0.996828
1.01906 1.02206 1 0.997063
1.00578 1.00804 1 0.997765
0.999049 1 1 0.999049
1.00059 1.00264 1 0.997952
0.99917 1 1 0.99917
1 1 1 1
0.999931 1 1.00055 0.999386
1 1 1 1
1 1 1 1
1.04331 1.05356 0.992956 0.997299
1.04377 1.0609 0.986399 0.99742
1.04158 1.06173 0.983448 0.997537
1.04573 1.05187 0.997121 0.997041
1.0367 1.03992 1 0.996902
1.04379 1.055 0.992284 0.997066
1.04282 1.05202 0.993851 0.997386
1.04579 1.05713 0.991704 0.997545
1.04844 1.06315 0.988489 0.997651
1.04248 1.05073 0.994729 0.997405
1.04547 1.05169 0.996889 0.997192
1.0427 1.05406 0.991735 0.997462
1.04487 1.05197 0.996032 0.997209
1.04569 1.04983 0.999106 0.996944
1.0432 1.05049 0.995898 0.997156
1.04615 1.04967 0.999776 0.996865
1.03435 1.03775 1 0.996721
1.04524 1.04857 0.999965 0.996862
1.03489 1.03825 1 0.996756
1.01146 1.01424 1 0.997266
1.03402 1.03733 1 0.996809
1.01139 1.01409 1 0.997335
0.99911 1 1 0.99911
1.01101 1.01361 1 0.997431
0.999149 1 1 0.999149
0.999708 1 1 0.999708
0.999173 1 1 0.999173
0.999742 1 1 0.999742
0.999731 1 1 0.999731
1.04605 1.05106 0.998141 0.997085
1.04442 1.04786 1 0.996716
1.04668 1.05079 0.999219 0.996865
1.03433 1.03755 1 0.996894
1.04128 1.04461 1 0.996816
1.0487 1.05193 0.999989 0.996943
1.01166 1.0142 1 0.997498
1.03222 1.03537 1 0.996957
1.04248 1.04566 1 0.996953
0.999011 1 1 0.999011
1.00986 1.01228 1 0.99761
1.02681 1.02994 1 0.996966
1.00446 1.00671 1 0.997766
0.99906 1 1 0.99906
1 1 1 1
0.999184 1 1 0.999184
1 1 1 1
1 1 1 1
1.0409 1.04926 0.994739 0.997281
1.04305 1.05331 0.992948 0.997292
1.04351 1.0609 0.986174 0.997404
1.04464 1.05105 0.996837 0.997056
1.045 1.05021 0.99789 0.997151
1.04328 1.05222 0.994093 0.997396
1.04625 1.05721 0.992076 0.997538
1.04303 1.05114 0.994842 0.997425
1.04527 1.05157 0.99679 0.997202
1.04594 1.0501 0.999092 0.996943
1.04513 1.05193 0.996353 0.997167
1.04597 1.04992 0.999338 0.996902
1.03393 1.03731 1 0.996747
1.04641 1.05 0.999715 0.996868
1.03449 1.03789 1 0.996724
1.01094 1.01377 1 0.99721
1.035 1.03836 1 0.996758
1.01128 1.01405 1 0.997266
0.998902 1 1 0.998902
1.0114 1.0141 1 0.997335
0.999025 1 1 0.999025
1 1 1 1
0.999136 1 1 0.999136
0.999728 1 1 0.999728
0.99975 1 1 0.99975
1.04348 1.04863 0.997901 0.997174
1.04496 1.04832 0.999968 0.99683
1.04612 1.05088 0.998392 0.997076
1.03532 1.03871 1 0.996737
1.04388 1.0473 1 0.996736
1.04754 1.05207 0.998794 0.996892
1.01211 1.01484 1 0.997315
1.03451 1.03774 1 0.996894
1.04057 1.04391 1 0.996808
0.999005 1 1 0.999005
1.01157 1.01415 1 0.997455
1.03214 1.03533 1 0.996919
1 1 1 1
0.999022 1 1 0.999022
1.00908 1.01149 1 0.997613
0.999071 1 1 0.999071
1 1 1 1
1 1 1 1
1.04359 1.04866 0.998 0.997166
1.04134 1.04962 0.994808 0.997288
1.04271 1.05304 0.992881 0.997285
1.04602 1.04962 0.999682 0.99688
1.04431 1.04984 0.997562 0.997164
1.04372 1.05241 0.994321 0.997407
1.04503 1.05146 0.996658 0.997213
1.04569 1.04993 0.999011 0.996944
1.03281 1.03612 1 0.996811
1.04617 1.04993 0.999555 0.99686
1.03381 1.03717 1 0.996757
1.01043 1.01336 1 0.997103
1.03475 1.03815 1 0.996726
1.01083 1.01366 1 0.997211
0.998857 1 1 0.998857
1.01119 1.01396 1 0.997266
0.998899 1 1 0.998899
1 1 1 1
0.998925 1 1 0.998925
0.999846 1 1 0.999846
0.999744 1 1 0.999744
1.04376 1.04816 0.998672 0.997124
1.04569 1.04895 1 0.996891
1.04385 1.04891 0.997984 0.99718
1.03554 1.03893 1 0.996735
1.04537 1.04873 0.999983 0.996815
1.04623 1.05072 0.998655 0.997067
1.0121 1.01492 1 0.997218
1.03522 1.03858 1 0.996768
1.04332 1.04671 1 0.996755
0.998981 1 1 0.998981
1.01208 1.01482 1 0.997302
1.0347 1.03792 1 0.996894
1 1 1 1
0.999014 1 1 0.999014
1.01151 1.01414 1 0.997411
1 1 1 1
0.999033 1 1 0.999033
1 1 1 1
1.04629 1.04992 0.999606 0.996929
1.04297 1.04798 0.998071 0.997151
1.04176 1.04995 0.994891 0.997294
1.03249 1.0358 1 0.996805
1.04569 1.04954 0.999429 0.996902
1.04362 1.04948 0.997236 0.997178
1.04546 1.04976 0.998956 0.996945
1.03288 1.03618 1 0.99681
1.00974 1.0127 1 0.997082
1.03369 1.03704 1 0.996766
1.01038 1.01328 1 0.997133
0.998803 1 1 0.998803
1.01066 1.01348 1 0.997212
0.998854 1 1 0.998854
1 1 1 1
0.998897 1 1 0.998897
1 1 1 1
0.99972 1 1 0.99972
1.04726 1.05053 0.99997 0.996913
1.04313 1.04792 0.998277 0.997147
1.03503 1.03839 1 0.996764
1.04582 1.04908 0.999999 0.996889
1.04429 1.04928 0.998053 0.997187
1.01132 1.01411 1 0.997247
1.03513 1.03852 1 0.996732
1.04575 1.04911 1 0.996799
0.998929 1 1 0.998929
1.01228 1.01507 1 0.997245
1.03509 1.03841 1 0.996799
1 1 1 1
0.998987 1 1 0.998987
1.01204 1.01479 1 0.997288
1 1 1 1
0.999023 1 1 0.999023
1 1 1 1
1.03298 1.03626 1 0.996835
1.04627 1.04978 0.999739 0.996916
1.04237 1.04731 0.99814 0.997135
1.00869 1.01163 1 0.997092
1.03249 1.0358 1 0.996805
1.04536 1.04945 0.99917 0.996924
1.03294 1.03625 1 0.99681
1.00977 1.01273 1 0.997082
0.998768 1 1 0.998768
1.01035 1.01323 1 0.997163
0.9988 1 1 0.9988
1 1 1 1
0.998851 1 1 0.998851
1 1 1 1
1 1 1 1
1.03448 1.03782 1 0.996777
1.04672 1.05017 0.999771 0.996949
1.04242 1.04758 0.9979 0.997171
1.01038 1.01318 1 0.997237
1.03468 1.03804 1 0.996761
1.04589 1.04915 1 0.996888
0.998878 1 1 0.998878
1.01165 1.01444 1 0.997244
1.03475 1.03814 1 0.996728
1 1 1 1
0.998933 1 1 0.998933
1.01246 1.01523 1 0.997273
1 1 1 1
0.998993 1 1 0.998993
1 1 1 1
1.00857 1.01143 1 0.997175
1.03284 1.03615 1 0.996804
1.04626 1.04964 0.999879 0.996902
0.998779 1 1 0.998779
1.00878 1.01172 1 0.99709
1.0325 1.03581 1 0.996805
1.0098 1.01276 1 0.997082
0.998768 1 1 0.998768
1 1 1 1
0.998797 1 1 0.998797
1 1 1 1
1 1 1 1
1.00933 1.01215 1 0.997213
1.0341 1.03743 1 0.99679
1.04625 1.04987 0.999563 0.996985
0.999031 1 1 0.999031
1.01069 1.01349 1 0.997235
1.03435 1.03771 1 0.996758
1 1 1 1
0.998879 1 1 0.998879
1.01196 1.01476 1 0.997242
1 1 1 1
0.998936 1 1 0.998936
1 1 1 1
0.998773 1 1 0.998773
1.00875 1.01164 1 0.997147
1.03271 1.03605 1 0.996772
1 1 1 1
0.998778 1 1 0.998778
1.00887 1.01181 1 0.997087
0.998767 1 1 0.998767
1 1 1 1
1 1 1 1
0.998988 1 1 0.998988
1.00967 1.01249 1 0.997213
1.03368 1.037 1 0.996803
1 1 1 1
0.998847 1 1 0.998847
1.01101 1.01381 1 0.997233
1 1 1 1
0.998881 1 1 0.998881
1 1 1 1
0.999655 1 1 0.999655
0.998887 1 1 0.998887
1.00892 1.01184 1 0.997119
1 1 1 1
0.998779 1 1 0.998779
1 1 1 1
0.999671 1 1 0.999671
0.998908 1 1 0.998908
1.01002 1.01285 1 0.997213
0.999836 1 1 0.999836
0.998847 1 1 0.998847
1 1 1 1
1 1 1 1
0.998801 1 1 0.998801
1 1 1 1
0.999833 1 1 0.999833
0.998825 1 1 0.998825
1 1 1 1
1 1 1 1
1 1 1 1

VECTORS lamdaE float
1.00105 1.00014 0.994005
1.00067 1.00066 0.997105
1.00064 1.00035 0.994279
1.0012 1.00002 0.993915
1.00114 0.999975 0.99407
1.001 1.00038 0.993833
1.00241 1.00046 0.991039
1.00069 1.00058 0.997111
1.00066 1.00017 0.997501
1.00015 1.00088 0.997543
1.00061 1.00065 0.994049
1.00208 1.0013 0.989936
1.00086 0.999977 0.994297
1.00061 1 0.994468
1.00026 1.00056 0.994524
1.00089 1 0.994225
1.00053 1.00074 0.994082
1.00079 1.00003 0.994356
1.00262 1.00027 0.990917
1.00087 1.00002 0.997146
1.00115 1.00007 0.993911
1.0012 0.999952 0.994009
1.00255 1.00011 0.991144
1.00254 1.00015 0.991141
1.00097 1.00048 0.993717
1.00218 1.00101 0.990847
1.00498 1.00055 0.986534
1.00069 1.00055 0.997131
1.00085 1.00006 0.995779
1.00045 1.00063 0.995804
1.00064 1.00055 0.997179
1.00198 1.00143 0.989943
1.00115 0.999823 0.993988
1.00087 1.00027 0.994089
1.00286 1.00007 0.991393
0.999893 1.00068 0.997792
1.0025 1.00079 0.991368
1.00181 1.00173 0.989932
1.00426 1.00151 0.986034
0.999996 0.999273 0.998192
1.00089 0.999988 0.997131
1.00082 1.00001 0.995772
1.00082 0.999976 0.997174
1.00048 1.00003 0.994633
1.00256 0.99994 0.990525
1.00077 0.999963 0.99743
1.00288 1.00005 0.991394
1.00059 0.999937 0.994535
1.00046 1.00007 0.994628
1.00007 1.00113 0.994312
1.00281 1.00009 0.990809
1.0007 1.00004 0.995876
1.00083 1.00009 0.994226
1.00047 1.00094 0.993941
1.00089 0.999929 0.994307
1.00269 1.00007 0.990999
1.00244 1.00073 0.99073
1.0027 1.00004 0.991015
1.00495 1.00057 0.986545
1.00079 1.00001 0.997179
1.00105 1.00007 0.994054
1.00231 1.00001 0.992184
1.00248 1.00014 0.991222
1.00258 1.00006 0.991146
1.00488 1.00019 0.986954
1.00496 1.00019 0.986729
1.00081 1.0004 0.993982
1.00166 1.00193 0.990732
1.00488 1.00086 0.986401
1.00527 1.0003 0.985506
1.00109 1.00009 0.997078
1.00056 1.00046 0.997301
1.00075 1.00049 0.997106
1.00193 1.0015 0.989945
1.00119 0.999954 0.997024
1.00096 1.00028 0.997102
1.00272 1.00003 0.990029
1.00012 1.00049 0.996178
1.00226 1.00084 0.990018
1.00169 1.00197 0.990736
1.00435 1.00135 0.986027
1.00027 0.99991 0.997746
1.00007 1.00159 0.993085
1.00291 0.999942 0.989871
1.00268 1.00023 0.990006
1.00502 1.00022 0.986062
1.00118 1.00241 0.992006
1.00466 1.00079 0.986063
1.00355 1.00265 0.986184
1.00517 1.0013 0.984588
0.99986 0.998454 0.998582
0.999863 0.999068 0.998356
1.0011 0.999988 0.997017
1.00094 0.999986 0.997114
1.00085 0.999981 0.997173
1.00073 0.999994 0.995879
1.0026 0.999931 0.991197
1.00094 0.99997 0.99571
1.00281 1.00007 0.990726
1.00083 0.99999 0.997184
1.00242 0.999863 0.990787
1.00277 1.00003 0.991612
1.00488 0.999449 0.987163
1.00291 0.999987 0.991352
1.005 0.999765 0.986646
1.00083 1 0.994339
1.00049 1.0001 0.994545
0.999962 1.00144 0.994165
1.00058 0.999881 0.994602
1.00282 1.00008 0.990853
1.00286 0.999959 0.990896
1.0027 1.00042 0.990622
1.00491 1.00058 0.986555
1.00084 0.999991 0.99718
1.00073 1.00007 0.994367
1.00247 0.999974 0.991047
1.00262 1.00012 0.991069
1.00055 1.00082 0.995552
1.00203 1.00169 0.990831
1.00272 1.00001 0.991013
1.00489 1.00009 0.98702
1.00483 1.0009 0.986414
1.00496 1.00032 0.986687
1.00527 1.00029 0.985536
1.0024 0.999918 0.990789
1.00239 1.00006 0.991417
1.00475 0.99939 0.987911
1.00483 0.999849 0.987303
1.00493 1.00005 0.986922
1.00528 0.999095 0.98698
1.0002 1.0006 0.997516
1.00528 0.999806 0.986001
1.00123 1.00273 0.989783
1.00443 1.00129 0.985953
1.00527 1.00085 0.98502
1.00521 0.998933 0.986857
1.00047 1.00288 0.991076
1.00117 1.00512 0.987557
1.00119 0.999981 0.99704
1.00092 1.0003 0.997098
1.00273 1.00002 0.990023
1.00026 1.00021 0.997644
1.00134 1.00236 0.990068
1.00224 1.00086 0.990032
1.00443 1.00121 0.986021
1.00009 0.999809 0.997915
0.999952 1.00176 0.99312
1.00293 0.999979 0.990611
1.00269 1.00028 0.990701
1.00502 1.00023 0.986042
1.00082 1.00259 0.990747
1.00469 1.00075 0.986051
1.00362 1.00244 0.986194
1.00522 1.00121 0.984675
1.00028 1.00242 0.991821
1 1.00069 0.994179
1.00119 1.00459 0.988633
1.00506 1.00008 0.986168
1.00491 1.00041 0.986036
1.00532 0.999691 0.986097
1.00268 1.00349 0.986802
1.00528 1.00058 0.985263
1.0049 1.00174 0.984691
1.00524 1.00077 0.985006
0.999851 0.997949 0.998828
0.999812 0.998375 0.998684
0.999766 0.998898 0.998497
1.00018 1.00252 0.991907
1.00002 1.00021 0.9978
1.00119 0.999965 0.997007
1.001 0.99999 0.997061
1.00269 1.00009 0.990101
1.00249 0.999931 0.99059
1.00083 0.99998 0.997166
1.0008 0.999984 0.997182
1.0024 0.999876 0.990781
1.00269 1.00002 0.990953
1.00486 0.99945 0.987168
1.00279 1.00002 0.989953
1.00497 0.999772 0.98664
1.00237 0.999881 0.99083
1.00482 0.999362 0.98733
1.00493 0.999587 0.986925
1.00534 0.99764 0.988328
1.00505 0.999935 0.986371
1.0053 0.998256 0.987726
1.00081 0.999991 0.997176
1.00038 1.00012 0.99468
1.00249 0.999972 0.990042
1.00276 1.00011 0.990913
0.999901 1.00135 0.997503
1.00249 1.00128 0.990932
1.00286 0.999985 0.990881
1.00491 0.99998 0.987087
1.00495 1.00043 0.986645
1.00477 1.00095 0.986426
1.00527 1.00028 0.985567
1.00238 0.99991 0.990791
1.00253 1.00008 0.99126
1.00478 0.999377 0.987614
1.00485 0.999963 0.987212
1.00034 1.00065 0.997412
1.00145 1.00249 0.990584
1.00428 1.00163 0.986192
1.00494 1.00009 0.986885
1.00528 0.998806 0.987244
1.00527 1.00078 0.98508
1.00528 0.999891 0.986023
1.00522 0.998943 0.98688
1.00055 1.00277 0.991058
1.00133 1.00502 0.987559
1.00478 0.999443 0.987318
1.00479 0.99965 0.987618
1.0053 0.998096 0.987986
1.00526 0.998196 0.987871
1.00528 0.999202 0.98675
1.00523 0.996893 0.989097
1.00082 1.00301 0.990312
1.00522 0.998035 0.987784
1.0037 1.00222 0.986156
1.00525 1.00127 0.98451
1.00521 1.00009 0.985841
1.00519 0.997343 0.988599
1.00221 1.00424 0.986816
1.00076 1.00499 0.988515
1.00264 1.00431 0.986261
1.00282 0.999966 0.989958
0.999915 0.999656 0.998097
0.999865 1.00183 0.993154
1.00254 1.00031 0.990062
1.00502 1.00023 0.986022
1.00076 1.00275 0.990706
1.00366 1.00221 0.986203
1.00473 1.00071 0.986039
1.00524 1.00113 0.984763
1.00026 1.00253 0.99183
0.999967 1.00059 0.994224
1.00087 1.00471 0.988616
1.00505 1.0001 0.986148
1.00492 1.0004 0.986021
1.00532 0.9997 0.986073
1.00277 1.00331 0.986804
1.00529 1.00064 0.985197
1.00494 1.00169 0.984672
1.00523 1.00059 0.985133
1.00001 0.999868 0.994949
1.00188 1.00425 0.987585
1.00066 1.00382 0.990027
1.00184 1.00449 0.987362
1.00532 0.999183 0.986651
1.00531 1.00019 0.985578
1.00526 0.998297 0.987452
1.00431 1.00199 0.985411
1.00524 0.999648 0.986261
1.00512 1.00134 0.984809
1.0052 1.00004 0.985781
1.00022 1.00128 0.993191
1.00023 0.998833 0.995574
0.999898 0.997584 0.998957
0.999834 0.99787 0.99888
0.999782 0.998239 0.998769
1.00005 1.00176 0.992877
0.999894 0.999711 0.998081
1.00028 1.00242 0.991884
1.00011 1.0003 0.997693
1.00279 1.00005 0.989955
1.0026 1 0.990339
1.00495 0.999781 0.986635
1.00484 0.999455 0.987172
1.00242 0.999893 0.990781
1.00085 0.999974 0.997181
1.00239 0.999876 0.990833
1.00481 0.999371 0.98733
1.00491 0.999598 0.986926
1.00533 0.997651 0.988327
1.00502 0.999951 0.986355
1.00531 0.998254 0.987707
1.00479 0.999374 0.987364
1.00536 0.997475 0.988468
1.0053 0.997906 0.988105
1.00519 0.995215 0.990927
1.00533 0.998689 0.987206
1.00528 0.99612 0.989818
1.00239 0.999907 0.990797
1.00268 1.00005 0.991103
1.0048 0.999346 0.987321
1.00488 1.00007 0.987119
1.00045 1.00071 0.997302
1.00175 1.00229 0.991203
1.00425 1.00189 0.986428
1.00495 1.00012 0.986848
1.00527 0.998511 0.987507
1.00528 0.999977 0.986045
1.00527 1.0007 0.985141
1.00522 0.99895 0.986902
1.00059 1.00268 0.991041
1.00144 1.0049 0.987559
1.00479 0.999305 0.987409
1.00482 0.999626 0.987598
1.0053 0.997891 0.988233
1.00526 0.998498 0.987574
1.00089 1.00289 0.990314
1.00365 1.00241 0.986154
1.00523 1.00134 0.984465
1.00528 0.999371 0.986612
1.00524 0.996609 0.989377
1.00522 0.999942 0.986
1.00522 0.998045 0.987794
1.00519 0.99727 0.988572
1.00219 1.00426 0.986821
1.00244 1.00413 0.986276
1.00084 1.0049 0.988523
1.00533 0.997866 0.988173
1.00524 0.998056 0.988175
1.00523 0.995659 0.990405
1.00523 0.996019 0.989912
1.00523 0.997037 0.988731
1.00523 0.99534 0.99051
1.00306 1.00313 0.986397
1.0052 0.996225 0.989447
1.00514 1.00179 0.984376
1.00522 1.00096 0.984769
1.00518 0.998771 0.987109
1.00515 0.99642 0.989494
1.00037 1.00461 0.989613
1.0039 1.00259 0.985715
1.00139 1.00505 0.987124
1.00419 1.00297 0.985382
1.00503 1.00011 0.986127
0.999958 1.00055 0.994269
1.00012 1.00268 0.991846
1.00054 1.00492 0.988598
1.00493 1.00038 0.986004
1.00532 0.99971 0.986049
1.0028 1.00317 0.98681
1.00508 1.00168 0.984652
1.0053 1.0007 0.98513
1.00523 1.00041 0.985259
1.00002 0.999758 0.994985
1.00174 1.00428 0.987577
1.00049 1.00396 0.990045
1.0017 1.00464 0.987348
1.00532 0.999191 0.98663
1.00532 1.0002 0.985553
1.00525 0.99829 0.987445
1.00448 1.00185 0.985422
1.00524 0.999763 0.986108
1.00511 1.00123 0.984781
1.00518 0.999963 0.985925
1.00015 0.999191 0.995377
1.00041 1.00286 0.991378
1.0031 1.00302 0.986436
1.00112 1.00496 0.988546
1.00302 1.00296 0.987117
1.00526 0.997572 0.988223
1.00525 0.99899 0.986729
1.00522 0.997176 0.988436
1.0047 1.00132 0.985237
1.00519 0.998904 0.986932
1.00489 1.00092 0.985426
1.0003 1.00147 0.992883
1.00031 1.00273 0.991633
1.00013 1.0012 0.993446
1.00021 1.00129 0.993187
1.00022 0.998609 0.996366
1.00022 0.998796 0.995923
1.00008 0.997286 0.997694
0.999902 0.997532 0.998972
0.999827 0.997791 0.998919
0.99987 1.00093 0.993984
0.999828 0.9991 0.998408
1.00009 1.00176 0.992853
1 0.999778 0.997977
1.00042 1.00225 0.991863
1.00024 1.0004 0.997589
1.005 0.999965 0.986339
1.00489 0.999605 0.986927
1.00532 0.998271 0.987686
1.00532 0.997661 0.988326
1.0048 0.999382 0.987331
1.00238 0.999865 0.990832
1.00478 0.999375 0.987366
1.00536 0.99748 0.988468
1.0053 0.997921 0.988092
1.00522 0.995179 0.990927
1.00532 0.998694 0.987188
1.00527 0.996126 0.989818
1.00535 0.997461 0.988491
1.00522 0.995093 0.991069
1.00522 0.995509 0.990533
1.00518 0.99495 0.991165
1.00527 0.996879 0.989011
1.00528 0.99507 0.990583
1.00479 0.999169 0.987502
1.00484 0.999617 0.987577
1.0053 0.997708 0.988479
1.00525 0.998804 0.987277
1.00097 1.0028 0.99032
1.00346 1.00275 0.986158
1.00522 1.00143 0.98442
1.00528 0.999542 0.986473
1.00524 0.996334 0.989658
1.00522 0.998054 0.987804
1.00522 0.999789 0.986156
1.00519 0.997193 0.988545
1.00223 1.00427 0.986825
1.00236 1.00399 0.986292
1.00095 1.00479 0.988533
1.00534 0.997734 0.988291
1.00524 0.998036 0.988171
1.00523 0.995487 0.99063
1.00525 0.996192 0.989731
1.00304 1.00325 0.98639
1.00507 1.00179 0.984401
1.00522 1.00107 0.984669
1.00522 0.997342 0.988454
1.00523 0.995188 0.990595
1.00518 0.998706 0.987062
1.0052 0.996263 0.989436
1.00516 0.996281 0.98958
1.00385 1.00274 0.985705
1.00401 1.00299 0.985223
1.0005 1.00439 0.989632
1.00124 1.00504 0.987284
1.00523 0.995144 0.99102
1.00523 0.995943 0.990023
1.00517 0.994958 0.991118
1.00526 0.994898 0.990821
1.00521 0.995511 0.99012
1.00525 0.994929 0.990718
1.00495 1.00166 0.984967
1.00519 0.99519 0.990331
1.00517 1.00195 0.983936
1.00517 1.00043 0.985254
1.00518 0.998017 0.987613
1.00518 0.996348 0.989506
1.00023 1.00372 0.990711
1.00076 1.00513 0.988201
1.00499 1.00186 0.984657
1.00219 1.00475 0.986562
1.00471 1.0033 0.984272
1.00002 0.999657 0.995022
1.00532 0.999197 0.986608
1.00034 1.00403 0.990063
1.00168 1.0043 0.987568
1.00156 1.00475 0.987334
1.00532 1.0002 0.985529
1.00525 0.998283 0.987437
1.00476 1.00147 0.985432
1.00516 1.00115 0.984754
1.00523 0.999872 0.985956
1.00518 0.999889 0.986069
1.00015 0.99914 0.995402
1.00032 1.00292 0.991406
1.0033 1.00291 0.98644
1.00076 1.00502 0.98854
1.00268 1.00301 0.98726
1.00526 0.997559 0.988216
1.00524 0.998977 0.986723
1.00522 0.997137 0.988422
1.00493 1.00125 0.985213
1.00518 0.998971 0.986788
1.00495 1.0009 0.985485
1.00036 1.00195 0.99235
1.00061 1.00421 0.990029
1.00436 1.00128 0.9861
1.00127 1.00491 0.988312
1.0035 1.00122 0.988036
1.00524 0.996431 0.989249
1.0052 0.997966 0.987601
1.00523 0.996396 0.988818
1.00458 1.00102 0.985481
1.00498 0.9996 0.986186
1.0003 1.00146 0.992884
1.00031 1.00275 0.991479
1.00016 1.00288 0.991597
1.00044 1.00307 0.991268
1.00022 1.00275 0.991792
1.00005 1.00113 0.993619
1.00012 1.00117 0.993452
1.00021 0.998514 0.996472
1.00021 1.00131 0.993184
1.00023 0.998606 0.996383
1.00015 0.997061 0.997773
1.00021 0.998779 0.996265
1.00001 0.997298 0.998355
0.999911 0.997461 0.998987
0.999798 1.00002 0.99501
0.999902 1.00099 0.993957
0.999736 0.998457 0.998756
0.999909 0.999223 0.998282
1.00014 1.00182 0.992827
1.00009 0.999894 0.997868
1.00532 0.998698 0.987171
1.0053 0.997918 0.98808
1.00526 0.996131 0.989819
1.00524 0.995143 0.990927
1.00535 0.997485 0.988469
1.00478 0.999377 0.987368
1.00535 0.997465 0.988491
1.00522 0.995072 0.991078
1.00524 0.995511 0.990535
1.00517 0.994947 0.99114
1.00527 0.996847 0.989002
1.00528 0.995067 0.990593
1.00523 0.995089 0.991083
1.00513 0.994964 0.991265
1.00524 0.994932 0.990926
1.00523 0.994944 0.991034
1.00527 0.995677 0.990004
1.00529 0.99491 0.990709
1.00534 0.997597 0.988409
1.00524 0.998028 0.988166
1.00522 0.995303 0.990854
1.00526 0.996362 0.989549
1.00302 1.00336 0.986382
1.00504 1.00179 0.984423
1.00521 1.00112 0.984569
1.00522 0.997641 0.988178
1.00523 0.995046 0.99068
1.00521 0.996304 0.989424
1.00519 0.998648 0.987016
1.00517 0.996128 0.989668
1.00358 1.00302 0.985695
1.00357 1.00301 0.985064
1.00064 1.00421 0.98965
1.00117 1.00505 0.987445
1.00522 0.995153 0.991016
1.00523 0.995948 0.990049
1.00519 0.994953 0.991122
1.00526 0.994898 0.990823
1.00466 1.00201 0.984948
1.00514 1.00201 0.983895
1.00516 1.0004 0.985231
1.00522 0.99569 0.989975
1.00525 0.994917 0.990707
1.00515 0.998062 0.987595
1.00519 0.995198 0.990316
1.00518 0.99613 0.989642
1.00485 1.00199 0.984667
1.00448 1.00344 0.984116
1.00213 1.00478 0.986569
1.00023 1.00359 0.990703
1.00061 1.00512 0.988333
1.00515 0.994968 0.991194
1.00525 0.994932 0.99095
1.00527 0.994884 0.990646
1.00523 0.994918 0.990656
1.00509 1.00245 0.983941
1.0052 0.995153 0.990362
1.00508 1.00169 0.983976
1.00513 0.999987 0.985584
1.00514 0.997779 0.987747
0.999926 1.00254 0.992057
1.00039 1.0049 0.989333
1.0012 1.00509 0.987966
1.00512 1.00279 0.983681
1.00276 1.00465 0.985326
1.00487 1.00352 0.983148
1.00015 0.999104 0.995428
1.00023 1.00298 0.991434
1.00526 0.997545 0.988209
1.00037 1.00509 0.988531
1.00331 1.00303 0.986445
1.00238 1.00303 0.987402
1.00524 0.998966 0.986716
1.00523 0.9971 0.988407
1.00509 1.00116 0.985189
1.00505 1.00092 0.985544
1.00517 0.999031 0.986643
1.00031 1.00197 0.992359
1.00028 1.00441 0.990034
1.00452 1.00113 0.986121
1.00099 1.00502 0.988275
1.00337 1.00097 0.988055
1.00524 0.99639 0.989251
1.0052 0.99798 0.987579
1.00524 0.996449 0.988811
1.00471 1.00104 0.985497
1.005 0.999718 0.986194
1.00041 1.00327 0.991089
0.999852 1.00499 0.989646
1.00484 1.00049 0.986106
1.00134 1.00331 0.988761
1.00454 0.999836 0.987626
1.00526 0.995422 0.9899
1.00522 0.997909 0.987483
1.00523 0.996643 0.988419
1.00472 1.00019 0.986099
1.00508 0.999562 0.986199
1.00029 1.00145 0.992884
1.00032 1.0028 0.991489
1.00006 1.00324 0.991331
1.00005 1.00297 0.991563
1.00014 1.00286 0.991782
1.00016 1.00328 0.991291
1.00002 1.00302 0.991888
1.00004 1.00355 0.991039
1.00011 1.00276 0.991965
1.00002 1.00123 0.993585
1.00005 1.00112 0.993618
1.00015 0.998519 0.996554
1.00011 1.00113 0.993458
1.00022 0.998516 0.996485
1.00017 0.996945 0.997827
1.00024 0.998591 0.996403
1.00012 0.997064 0.997777
0.999934 0.997293 0.999033
0.999859 0.999186 0.995777
0.999805 1.00012 0.994966
0.999692 0.997994 0.998969
0.999939 1.00102 0.993931
0.9998 0.998616 0.998632
0.999999 0.999283 0.998166
1.00527 0.996816 0.988993
1.00525 0.995515 0.990537
1.00528 0.995065 0.990604
1.00517 0.994944 0.991116
1.00521 0.995051 0.991088
1.00535 0.997469 0.988492
1.00522 0.995076 0.9911
1.00514 0.994968 0.991279
1.00524 0.994928 0.990961
1.00522 0.99494 0.991005
1.00526 0.995661 0.990024
1.00529 0.994905 0.990654
1.00514 0.994984 0.991261
1.00522 0.994938 0.991081
1.00526 0.994929 0.99083
1.00527 0.995018 0.990478
1.00521 0.995162 0.991012
1.00523 0.995932 0.990075
1.0052 0.994947 0.991127
1.00525 0.994898 0.990826
1.00452 1.00217 0.984932
1.00513 1.00206 0.983857
1.00516 1.00042 0.985209
1.00522 0.995865 0.98983
1.00524 0.994884 0.990696
1.00519 0.995206 0.9903
1.00513 0.998086 0.987575
1.00518 0.995903 0.989776
1.0047 1.00214 0.984678
1.00446 1.00318 0.983958
1.00199 1.00479 0.986576
1.00026 1.0034 0.990703
1.00052 1.00512 0.988467
1.00515 0.99497 0.991182
1.00525 0.994936 0.990943
1.00526 0.994884 0.990679
1.00498 1.00242 0.983975
1.00507 1.00184 0.983935
1.0051 1.00002 0.985571
1.00522 0.994947 0.990617
1.00517 0.997554 0.988044
1.00518 0.995204 0.990285
0.999989 1.0023 0.992276
1.00503 1.00258 0.983706
1.00465 1.00369 0.983331
1.00302 1.00453 0.985428
1.00121 1.00509 0.988088
1.00032 1.00494 0.98924
1.00522 0.994958 0.991045
1.00526 0.994912 0.990776
1.00526 0.994875 0.990617
1.0052 0.994887 0.990609
1.00509 1.00269 0.983551
1.00517 0.995824 0.989571
1.00499 1.00158 0.984227
1.00505 1.00034 0.985469
1.00004 1.00079 0.993698
0.999975 1.00423 0.990707
1.00071 1.00509 0.98901
1.00195 1.00504 0.986593
1.00501 1.00348 0.982957
1.00458 1.00418 0.983076
1.00026 1.00197 0.992368
1 1.00453 0.990042
1.00524 0.99635 0.989253
1.00067 1.00514 0.988238
1.0047 1.001 0.986141
1.003 1.001 0.988069
1.0052 0.997995 0.987557
1.00524 0.996515 0.988802
1.0048 1.00111 0.985511
1.00505 0.999842 0.986202
1.00028 1.00335 0.991096
1.00012 1.00497 0.989471
1.00497 1.00042 0.986072
1.00125 1.00355 0.988823
1.00445 0.999818 0.98742
1.00527 0.995425 0.989998
1.00522 0.997835 0.987647
1.00524 0.996791 0.988398
1.00469 1.00026 0.986169
1.00502 0.999733 0.985997
0.999672 1.00383 0.990934
1.00014 1.00501 0.989052
1.00483 0.99984 0.986586
1.0032 1.00075 0.987739
1.0053 0.994858 0.990242
1.00523 0.996176 0.989512
1.00509 0.998913 0.98651
1.00511 0.999505 0.986049
1.00037 1.00278 0.991498
1.00017 1.00323 0.991326
0.999622 1.00362 0.992116
1.00005 1.00299 0.991771
0.999868 1.00349 0.991315
1.00007 1.00279 0.991954
0.999814 1.00303 0.992109
1.00009 1.00362 0.991014
0.99968 1.00196 0.993423
0.999866 1.00391 0.991239
1 1.00378 0.990872
1.00015 1.00276 0.991896
0.999984 1.00147 0.993346
0.999996 1.00122 0.993579
1.00005 0.998589 0.996628
1.00005 1.0011 0.993619
1.00016 0.99854 0.996564
1.00014 0.996954 0.997872
1.00022 0.998524 0.996501
1.00016 0.996943 0.99783
1.00009 0.997076 0.997774
0.99999 0.998527 0.996251
0.999859 0.999293 0.995718
0.999711 0.997579 0.999101
0.999801 1.00024 0.994921
0.999728 0.998072 0.998915
0.99989 0.998726 0.998496
1.00526 0.995644 0.990045
1.00523 0.994923 0.990995
1.0053 0.994899 0.990599
1.00522 0.994937 0.990976
1.00514 0.994972 0.991292
1.00521 0.995065 0.991116
1.00514 0.994981 0.991264
1.00523 0.994939 0.991084
1.00526 0.994925 0.990823
1.00526 0.995006 0.990517
1.00523 0.994953 0.991108
1.00527 0.994923 0.990922
1.00529 0.994889 0.990661
1.00516 0.994971 0.991169
1.00525 0.994948 0.990936
1.00526 0.994885 0.990711
1.00488 1.00241 0.984008
1.00507 1.00196 0.983891
1.00507 0.999988 0.985556
1.00522 0.994983 0.990577
1.00517 0.995261 0.990207
1.0052 0.997293 0.98834
1.00497 1.00259 0.983731
1.00431 1.0037 0.983515
1.00335 1.00449 0.985529
1.00005 1.0021 0.992498
1.00108 1.00508 0.988208
1.00019 1.00501 0.989142
1.00522 0.994961 0.991057
1.00526 0.99491 0.990753
1.00526 0.994874 0.990604
1.005 1.00269 0.9836
1.00497 1.00155 0.984164
1.00507 1.00001 0.985814
1.0052 0.994887 0.990565
1.00514 0.995887 0.989506
1.00005 1.0007 0.993911
0.999953 1.00427 0.990685
1.00496 1.00293 0.982948
1.00412 1.00433 0.983816
1.00201 1.005 0.986809
1.00059 1.00509 0.988867
1.00526 0.994927 0.990933
1.00529 0.994877 0.990516
1.00525 0.994851 0.990602
1.00513 0.995065 0.990376
1.00446 1.00273 0.983642
1.00508 0.998426 0.987251
1.00492 1.00213 0.984095
1.00024 0.999964 0.994503
1.00033 1.00106 0.99332
0.999823 1.00232 0.992633
1.00015 1.00505 0.989638
1.00086 1.00509 0.988035
1.0022 1.00445 0.98554
1.00461 1.00355 0.983333
1.00408 1.00428 0.984748
1.00013 1.00353 0.991103
1.0003 1.00511 0.989296
1.00527 0.995419 0.990096
1.00139 1.00347 0.988886
1.00507 1.00035 0.986041
1.00436 0.999828 0.987219
1.00523 0.997732 0.987813
1.00525 0.996894 0.988382
1.00478 1.0003 0.986237
1.00499 0.999848 0.985797
0.999873 1.00388 0.9908
1.0003 1.00504 0.989023
1.00505 0.999716 0.986575
1.0035 1.00092 0.987783
1.00532 0.994856 0.990286
1.00524 0.996094 0.989394
1.00506 0.99886 0.986609
1.00511 0.999623 0.985994
0.999831 1.00412 0.990534
1.00534 0.994892 0.990292
1.00206 1.00412 0.988072
1.00479 0.999579 0.98688
1.00523 0.995255 0.990447
1.00504 0.998026 0.986516
1.00487 1.00077 0.98546
1.00022 1.00327 0.99132
0.999628 1.00345 0.992031
0.999027 1.00316 0.993893
1.00007 1.00276 0.991944
1.00012 1.00371 0.990989
0.999267 1.00339 0.992328
1.00013 1.00274 0.991887
0.999924 1.0039 0.990894
0.999162 1.0023 0.993666
0.999996 1.00377 0.991186
0.999466 1.00062 0.995737
0.999326 1.0029 0.993009
0.999811 1.0046 0.990383
1.00037 1.00377 0.990463
1.00015 1.00308 0.99152
0.999912 1.00189 0.99304
0.999926 1.0016 0.993329
0.999947 0.998817 0.996629
0.999966 1.00129 0.993573
1.00006 0.998638 0.996624
1.00006 0.996998 0.997941
1.00016 0.998556 0.996577
1.00014 0.996939 0.99787
1.00015 0.996942 0.997828
1.00019 1.00012 0.99446
1.00009 0.998162 0.996463
0.999991 0.998593 0.996215
0.999799 0.997195 0.999177
0.999856 0.999398 0.995659
0.999734 0.997667 0.999069
0.999773 0.998184 0.99884
1.00525 0.994996 0.990555
1.00525 0.994922 0.990816
1.00523 0.99494 0.991087
1.00514 0.994978 0.991268
1.00523 0.994953 0.991101
1.00527 0.994922 0.990938
1.00527 0.994894 0.990639
1.00527 0.99492 0.990974
1.00533 0.994925 0.990723
1.00536 0.994995 0.991115
1.00522 0.994964 0.991069
1.00525 0.994909 0.99073
1.00526 0.994874 0.990592
1.00486 1.00269 0.98365
1.00495 1.00182 0.984114
1.00495 0.999743 0.986158
1.00519 0.994889 0.990521
1.0051 0.996038 0.989441
1.00484 1.00306 0.98294
1.00371 1.00464 0.98455
1.00186 1.00492 0.987025
1.00006 1.00056 0.994123
1.00007 1.00417 0.990665
1.00058 1.00509 0.98872
1.00526 0.994927 0.990915
1.00019 0.999999 0.994497
1.00025 1.00114 0.993216
1.00529 0.994887 0.990529
1.00523 0.994853 0.990609
1.00492 1.00273 0.983547
1.00471 1.00206 0.984224
1.00505 0.998221 0.987158
1.00514 0.995005 0.990288
0.999885 1.00231 0.992808
1.0002 1.00494 0.989596
1.0047 1.00376 0.983073
1.00331 1.00396 0.985341
1.00248 1.00467 0.985794
1.00094 1.00507 0.988049
1.00533 0.994904 0.990686
1.00528 0.994827 0.990507
1.00517 0.994846 0.990404
1.00508 0.994966 0.990301
1.00419 1.0029 0.984288
1.00439 1.00203 0.985083
1.00005 1.00178 0.992743
1.00023 1.00099 0.993517
1.00093 1.00065 0.992944
1.0003 1.00313 0.991144
1.00037 1.00507 0.989227
1.00239 1.00433 0.986975
1.00141 1.00506 0.986061
1.00387 1.00062 0.986218
1.00017 1.00375 0.990668
1.00061 1.00505 0.988995
1.00533 0.994854 0.990329
1.00524 0.996092 0.989277
1.00385 1.00111 0.987825
1.00515 0.999587 0.986564
1.00504 0.998843 0.986703
1.00513 0.999763 0.985941
1.00016 1.00399 0.990456
1.00535 0.994892 0.990516
1.00175 1.00409 0.988184
1.00494 0.999658 0.986706
1.00523 0.995235 0.99045
1.00503 0.998223 0.986738
1.00484 1.00065 0.985481
1.00011 1.00486 0.990094
1.00481 0.994829 0.991122
1.003 1.00252 0.987603
1.00462 1.00111 0.985363
1.00484 0.996203 0.989636
1.00372 1.00134 0.985932
0.998732 0.996165 0.987251
0.999521 1.00343 0.991949
0.99859 1.00332 0.993878
0.999231 1.0023 0.994704
1.00005 1.00282 0.991877
0.999878 1.00403 0.990916
1.00029 1.00344 0.991136
0.998844 1.00241 0.993916
1.0001 1.00314 0.99152
1.00025 1.00386 0.990499
0.999472 1.00076 0.995198
0.999899 1.00459 0.990395
0.999618 1.0028 0.992701
0.998896 1.00128 0.996082
1.00026 1.00465 0.989916
1.00011 1.00462 0.990237
1.0006 1.00395 0.99004
1.00014 1.00357 0.990866
1.00029 1.00421 0.99042
1.00012 1.00376 0.990661
0.999923 1.00201 0.992898
0.99994 1.00188 0.993021
0.999837 0.998978 0.996042
0.999935 1.00158 0.99331
0.99994 0.998878 0.996307
1.00001 0.997171 0.999117
1.00007 0.998687 0.996622
1.00008 0.996974 0.997942
1.00015 0.996925 0.997864
1.00009 1.00015 0.994529
1.00021 1.00002 0.994487
1.0001 0.998063 0.996584
1.00007 0.998183 0.996727
0.99988 0.996988 0.999218
0.999985 0.998659 0.996178
0.999797 0.997308 0.999159
0.999759 0.997733 0.999038
1.00525 0.994897 0.990617
1.00526 0.99492 0.990955
1.00523 0.994953 0.991095
1.00527 0.994921 0.990973
1.00533 0.99492 0.990722
1.00535 0.994974 0.990766
1.00536 0.994914 0.990755
1.0013 0.994945 0.983133
1.00453 0.994974 0.99259
1.00002 1.00153 0.993251
1.00527 0.994926 0.990897
1.00528 0.994896 0.990543
1.00521 0.994851 0.990616
1.00497 1.00239 0.983442
1.0049 1.00183 0.984346
1.00508 0.998141 0.987073
1.00516 0.995037 0.9902
1.00496 1.00358 0.982819
1.00289 1.00368 0.985939
1.00251 1.00484 0.986054
1.00014 1.0001 0.994492
1.00113 1.00508 0.988064
0.999867 1.00229 0.992974
1.00025 1.00496 0.989552
1.00025 1.00109 0.993111
1.00533 0.994892 0.990681
1.00006 1.00178 0.992853
1.00013 1.00113 0.993523
1.00076 1.00065 0.993103
1.00529 0.994836 0.990476
1.00516 0.994852 0.990378
1.00363 1.00352 0.984357
1.00464 1.001 0.985645
1.00503 0.995274 0.990209
0.999946 1.00333 0.991314
1.0005 1.00507 0.989064
1.00378 1.00214 0.985981
1.00213 1.00485 0.985934
1.00216 1.00406 0.987207
1.00528 0.994843 0.990915
1.00518 0.99473 0.990847
1.00512 0.995061 0.989888
1.00493 0.997039 0.989746
1.00216 1.00291 0.987738
0.999715 1.00301 0.992043
1.00083 1.00085 0.992535
0.999972 1.00122 0.992856
1.00002 1.00459 0.991129
1.00025 1.00508 0.989526
1.00066 1.00453 0.988135
1.00247 1.00073 0.98882
1.00065 1.00378 0.990377
1.00121 1.00406 0.988297
1.00537 0.994889 0.990727
1.00523 0.995156 0.990446
1.00502 0.998356 0.986961
1.00498 0.999683 0.98653
1.00479 1.00048 0.985506
1.00047 1.00466 0.990098
1.00463 0.994843 0.991306
1.00305 1.00221 0.987517
1.00485 1.00097 0.985307
1.00498 0.995851 0.989863
1.00386 1.0014 0.986013
0.998699 0.996991 0.985346
1.00025 1.00432 0.990246
1.00302 0.996718 0.991124
1.00368 1.00179 0.98618
1.00302 1.00112 0.987083
1.00309 0.997681 0.9908
0.999964 0.994922 0.947066
0.995914 0.994811 0.967242
0.995581 1.00047 0.988263
0.999497 0.994796 0.870718
0.9947 0.994801 0.836063
0.998273 1.00346 0.993867
0.998445 1.0028 0.995
0.998528 1.00274 0.995574
1.00007 1.00317 0.991519
1.00032 1.00364 0.990533
1.00001 1.0045 0.990408
0.999851 1.00273 0.992384
0.999463 1.00096 0.994653
1.00015 1.00441 0.990214
1.00013 1.00356 0.990956
1.00052 1.00391 0.990101
0.999106 1.0007 0.995574
1.00001 1.00462 0.990209
1.00031 1.00459 0.99024
0.999199 1.00482 0.991208
1.0001 1.00462 0.990183
1.00051 1.00438 0.989524
1.00023 1.00364 0.990661
1.0004 1.00457 0.989676
1.00048 1.00405 0.990287
0.999775 1.00443 0.990763
1.00021 1.00428 0.990326
1.0002 1.00349 0.99106
1.00015 1.00376 0.990648
0.99995 1.002 0.992884
0.999937 1.00201 0.992901
0.999808 0.99908 0.996037
0.99992 1.00195 0.993003
0.99983 0.999018 0.996032
0.999965 0.997184 0.999138
0.999927 0.99895 0.995986
1 0.997169 0.998522
1.00009 0.996951 0.997941
0.999977 1.00011 0.99473
1.0001 1.00016 0.994533
1.0001 0.997957 0.996702
1.00023 0.999923 0.994513
1.0001 0.998 0.99685
0.99993 0.996782 0.999254
1.00007 0.998246 0.996439
0.999868 0.997066 0.999202
0.999801 0.997371 0.999142
1.00532 0.994916 0.990721
1.00527 0.994921 0.990972
1.00534 0.994985 0.990428
1.00081 0.994894 0.983256
1.00536 0.994909 0.99077
1.00442 0.995213 0.992269
1.00502 0.996384 0.991287
0.996375 0.994958 0.96633
1.00097 0.996259 0.985367
1.00008 1.00136 0.993387
1.00006 1.00156 0.993222
0.99972 1.00302 0.992212
0.999842 1.00227 0.992776
1.00533 0.994888 0.990676
1.0053 0.994852 0.990444
1.00517 0.994866 0.990352
1.00452 1.00363 0.984424
1.00452 0.999386 0.986205
1.00489 0.995608 0.990109
1.00337 1.00324 0.985753
1.00333 1.00471 0.985802
1.00198 1.00341 0.987433
1.00001 1.00138 0.99353
1.00047 1.00506 0.988903
0.999994 1.00343 0.991484
1.00004 1.00187 0.992964
1.00051 1.00071 0.993248
1.00528 0.994845 0.990921
0.999966 1.00291 0.991989
1.00091 1.00072 0.992755
0.999219 1.00139 0.994276
1.00517 0.994763 0.990746
1.00513 0.995098 0.989893
1.00325 1.00162 0.987711
1.00454 0.996508 0.990167
1.00026 1.00421 0.990688
1.0004 1.00494 0.988904
1.00206 1.00261 0.98867
1.00201 1.00397 0.987673
1.00439 0.994869 0.99182
1.00498 0.994835 0.991259
1.00497 0.996117 0.989428
1.00293 0.997991 0.9922
0.998987 1.0039 0.99243
1.00066 1.00153 0.991977
0.998391 1.00463 0.992655
0.99915 1.00498 0.99037
0.999975 0.994893 0.935337
1.00062 1.00454 0.990098
1.00307 1.00214 0.987429
1.00438 0.994863 0.991516
1.00508 0.995731 0.990085
1.00398 1.00144 0.986077
1.00478 1.00092 0.985245
0.998598 0.997345 0.983326
1.00032 1.00415 0.990641
1.00289 0.996884 0.991085
1.0035 1.00212 0.986221
1.00364 1.00088 0.987128
1.00352 0.997789 0.990487
1.0004 0.994898 0.935121
0.996206 0.99481 0.963346
0.995712 1.00133 0.988313
0.998915 0.994802 0.875199
0.994699 0.994809 0.825502
1.00014 1.00401 0.990782
0.999787 0.994853 0.881814
0.994702 0.994783 0.830167
1.00039 1.00003 0.992191
1.00203 1.00162 0.989216
1.0014 0.999471 0.992477
0.994988 1.00142 0.989842
0.998627 0.994859 0.944748
0.994888 0.99479 0.960061
0.996926 0.994855 0.88992
0.994722 0.994801 0.821953
0.997817 1.00318 0.995302
0.998232 1.00227 0.995432
0.998493 1.00439 0.99393
1.00018 1.00351 0.991045
1.00045 1.00395 0.990163
0.999763 1.00476 0.990193
0.999799 1.00464 0.990503
0.999417 0.999937 0.995067
1.00022 1.00367 0.990663
1.00007 1.0049 0.990173
1.00001 1.00472 0.990104
1.00064 1.0042 0.989657
0.999132 1.00479 0.991433
0.999589 1.005 0.990965
0.998428 1.00485 0.992101
1.00025 1.00479 0.989656
1.00047 1.00442 0.989744
1.00045 1.0045 0.989673
1.00036 1.00386 0.990457
1.00047 1.0048 0.989521
0.99994 1.00413 0.99089
0.999621 1.00332 0.991138
0.999656 1.00496 0.990429
0.999663 1.0047 0.990559
0.999909 1.00425 0.99079
1.00009 1.0034 0.991246
1.00013 1.00427 0.990234
1.0002 1.00346 0.991005
1.00001 1.00201 0.992803
1.00022 1.00372 0.990635
0.999946 1.002 0.992895
0.999944 0.999049 0.996515
0.999919 1.00203 0.992904
0.999839 0.999047 0.996308
0.999925 0.997189 0.997981
0.999823 0.999038 0.996023
0.999962 0.997199 0.999144
1.00001 0.997186 0.997925
1.00015 1.00137 0.993202
0.999937 1.00009 0.994812
0.999985 1.00011 0.994726
1.00007 0.997933 0.996759
1.0001 1.00015 0.994536
1.00011 0.997912 0.996704
0.999972 0.996683 0.999276
1.00009 0.997987 0.997088
0.999945 0.996905 0.998719
0.999911 0.997143 0.998132
1.00035 0.994863 0.983376
1.00535 0.994907 0.990784
1.00414 0.99603 0.991941
0.996532 0.994935 0.96712
1.00092 0.995838 0.985716
1.00504 0.995745 0.991248
1.00332 0.996539 0.98714
0.996904 0.995612 0.969932
0.999976 0.994881 0.9447
0.999131 0.994848 0.891497
0.994657 0.994774 0.834853
0.999772 1.00235 0.992677
1.00009 1.00134 0.993376
1.00014 1.0015 0.993193
0.99985 1.00281 0.992269
0.999454 1.00369 0.992155
1.00035 1.00213 0.991979
1.00008 1.00284 0.992136
1 1.00217 0.992619
1.00528 0.99483 0.990922
1.00518 0.994778 0.990648
1.00514 0.995083 0.989897
1.00332 1.00145 0.987689
1.00431 0.996201 0.990595
1.00231 1.00368 0.988504
1.00322 1.00377 0.987215
1.00084 1.0051 0.988287
1.00069 1.00068 0.992978
1.0002 1.00425 0.990234
1.00027 1.00273 0.991944
0.998711 1.00133 0.995676
1.0043 0.994797 0.992062
0.999192 1.00373 0.992425
1.00048 1.00193 0.99234
1.00483 0.994843 0.991208
1.00487 0.995699 0.989693
1.00257 0.997857 0.99178
0.999447 1.00511 0.991315
1.00063 1.00384 0.990566
1.00312 0.994786 0.992009
1.00413 0.997868 0.990599
1.00478 0.995579 0.990404
1.001 0.998809 0.993189
0.9996 1.00478 0.990553
0.99925 1.00407 0.991955
0.999361 1.00524 0.991475
0.999809 0.994908 0.884468
1.0003 0.99488 0.947906
1.00047 1.00378 0.991033
1.00367 1.00226 0.986268
1.00281 0.997324 0.99104
1.004 0.997986 0.990183
1.00409 1.00088 0.987192
0.999981 0.99489 0.945587
0.996164 0.994806 0.962983
0.996001 1.00228 0.988373
0.998503 0.994829 0.890746
0.994703 0.994802 0.814384
1.00013 1.00393 0.99074
0.999803 0.994857 0.881512
0.994671 0.994781 0.823623
1.00065 1 0.99224
1.00203 1.00174 0.98924
1.00143 0.999639 0.992816
0.995331 1.00167 0.99047
0.999724 0.995727 0.938381
0.994859 0.994787 0.962452
0.996768 0.997531 0.888851
0.994744 0.994786 0.820692
0.999434 1.004 0.993087
0.994705 0.994822 0.823077
0.994744 0.994791 0.834758
0.997921 1.00169 0.996166
0.999899 1.00189 0.994042
0.995044 1.00159 0.988546
0.99505 0.995669 0.963495
0.996448 0.995037 0.933763
0.994731 0.998885 0.893557
0.994826 0.994825 0.824545
0.998026 1.002 0.995294
0.99888 1.0037 0.993656
0.99788 1.00326 0.994718
1.00018 1.00371 0.990664
1.00074 1.00401 0.98979
1.00001 1.00479 0.990023
0.99985 1.0049 0.990107
0.998824 1.00468 0.991659
1.00045 1.00445 0.989739
0.999621 1.00479 0.990754
1.00036 1.0047 0.989657
0.99803 1.00481 0.992565
0.996017 1.00506 0.99611
0.999245 1.00481 0.991375
1.00047 1.00467 0.989589
1.00052 1.00443 0.989671
1.00035 1.0036 0.990622
1.00041 1.00479 0.989482
1.00001 1.00406 0.990824
0.999503 1.00329 0.991833
0.999284 1.00502 0.990842
0.999428 1.0047 0.990802
0.99905 1.0039 0.992182
1.00064 1.00196 0.992023
1.0013 1.00121 0.990529
0.999339 1.0048 0.99074
0.999768 1.00479 0.990467
0.999726 1.005 0.990066
0.999706 1.00483 0.990559
1.00001 1.00368 0.991066
0.999922 1.00433 0.990814
1.00012 1.00341 0.991253
1.00005 1.00195 0.992729
1.0002 1.00348 0.99095
1 1.00199 0.99282
1.00004 0.999042 0.996343
0.999938 1.002 0.992905
0.999926 0.999033 0.996177
1.00001 0.997135 0.997879
0.999834 0.999037 0.996018
0.999963 0.99719 0.999149
0.99996 0.997202 0.99915
1.00021 1.00173 0.993082
0.999941 1.00024 0.994685
1.00009 1.00149 0.993214
1.00007 0.997927 0.99677
0.999936 1.0001 0.994813
0.999992 1.00014 0.994723
1.00008 0.99792 0.996752
0.999999 0.996627 0.999281
1.00009 0.997898 0.997181
0.999988 0.996687 0.998776
0.999964 0.996918 0.998221
0.999814 0.994851 0.87058
0.994675 0.994764 0.823689
0.997081 0.994903 0.967322
1.00085 0.995346 0.986131
1.0051 0.994998 0.991211
0.996579 0.995532 0.970176
1.00348 0.995793 0.987622
1.00108 0.99489 0.942068
0.999355 0.994797 0.875166
0.994691 0.994788 0.82448
0.998388 0.994869 0.975132
0.999581 0.994898 0.944126
0.996915 0.995512 0.889395
0.994719 0.994775 0.826527
1.0001 1.00324 0.991609
0.999855 1.00216 0.992801
1.0001 1.00135 0.993367
0.999913 1.00268 0.992326
0.999405 1.00356 0.992341
1.00008 1.00368 0.991017
1.00025 1.00274 0.991769
1.00036 1.00348 0.990681
1.00008 1.00282 0.992015
1 1.0023 0.992461
1.00419 0.994771 0.992292
1.00468 0.994786 0.991163
1.00465 0.995303 0.989957
1.0022 0.998323 0.991359
1.00099 1.00386 0.990764
0.999532 1.00521 0.989984
1.00048 1.00188 0.992733
0.999315 1.00375 0.992413
1.00257 0.994855 0.992405
0.999686 1.00493 0.990357
0.998954 1.00425 0.991821
1.00403 0.996695 0.990893
1.0047 0.995651 0.990202
1.001 0.998946 0.993516
0.999369 1.00519 0.991287
1.00044 0.994859 0.992468
1.00218 0.997558 0.993101
0.999814 1.0012 0.994243
0.998747 1.00513 0.989993
0.999159 1.00511 0.990425
0.998868 1.00514 0.991613
0.99473 0.994853 0.84513
0.999805 0.994897 0.889174
0.999982 0.994896 0.935633
0.999897 1.00401 0.990687
1.00208 1.00168 0.98925
1.0007 0.999987 0.992293
1.00134 0.999633 0.993163
0.999813 0.994881 0.892226
0.999006 0.994861 0.934902
0.994861 0.994842 0.960212
0.995322 1.00212 0.99106
0.997009 0.995053 0.875423
0.994648 0.994785 0.828266
0.994742 0.994798 0.832793
0.999085 1.00342 0.992848
0.994699 0.994821 0.832428
0.994775 0.994797 0.834275
0.99737 1.00124 0.996778
0.99948 1.00188 0.993958
0.995045 0.999384 0.990971
0.995283 0.995029 0.961842
0.996873 0.99859 0.944393
0.994872 0.998812 0.878586
0.994884 0.994812 0.834405
0.997275 1.00373 0.996086
0.994791 0.99484 0.843055
0.994814 0.994789 0.831945
0.994892 1.0024 1.00009
0.995252 0.997629 0.969991
0.99491 0.999916 0.944207
0.995344 0.996825 0.870843
0.995015 0.994858 0.838634
0.999196 1.00306 0.993355
0.998061 1.0035 0.994935
0.996162 1.00394 0.997298
1.0004 1.0045 0.989735
1.00049 1.00464 0.989659
0.999734 1.00464 0.990542
0.997668 1.0047 0.993033
1.00034 1.00474 0.98961
0.999215 1.00484 0.991339
0.995984 1.00475 0.996529
0.995256 1.00493 0.997885
0.995881 1.00496 0.996605
0.999716 1.00435 0.991072
1.00036 1.00484 0.989442
1.00004 1.00394 0.990756
0.99927 1.00348 0.992515
0.999424 1.00476 0.990836
0.999377 1.00502 0.99086
0.999052 1.0041 0.992265
0.999206 1.00455 0.991542
0.997257 1.00495 0.994425
1.00253 0.997628 0.992391
1.00042 1.00176 0.992391
1.001 1.00161 0.991196
1.00429 1.00115 0.986874
1.00092 1.00344 0.990456
1.00048 1.00137 0.991989
0.999781 1.00457 0.990535
0.99975 1.00503 0.989779
0.999921 1.00456 0.990505
0.999915 1.00498 0.990075
1.00002 1.00435 0.990421
1 1.00469 0.990559
1.00017 1.00355 0.99105
1.00011 1.002 0.992611
1.00027 1.00322 0.99126
1.00012 1.00192 0.992736
1.00014 0.999058 0.996175
1.00003 1.00194 0.992838
1.00004 0.999045 0.995981
1.00007 0.99718 0.997743
0.999928 0.999016 0.995881
0.999991 0.997155 0.998514
0.999971 0.997175 0.999137
1.00021 1.00233 0.99216
1.00005 1.00037 0.994425
1.00013 1.00177 0.992903
1.00006 0.997987 0.996713
0.999955 1.0002 0.994689
1.00006 1.00154 0.993223
1.00002 0.996598 0.999283
1.00006 0.997928 0.99677
0.999942 1.0001 0.994814
1.00009 0.997903 0.996745
0.999998 0.996649 0.999281
0.99997 0.996671 0.999276
0.994683 0.994797 0.827774
0.999807 0.99486 0.881274
0.994761 0.994781 0.832291
0.994695 0.994772 0.822219
0.996502 0.994904 0.967907
1.00351 0.994902 0.988119
0.999984 0.994894 0.938839
0.999402 0.994837 0.891531
0.994719 0.994804 0.813749
0.998515 0.994885 0.974418
1.00089 0.996135 0.93098
0.996895 0.998228 0.887483
0.994735 0.994774 0.819897
0.995439 0.994893 0.96744
0.996836 0.99737 0.932563
0.994785 0.99775 0.871876
0.994817 0.994836 0.821887
1.00038 1.00455 0.990555
0.999912 1.00323 0.991716
0.999924 1.00202 0.992922
0.99929 1.0034 0.992528
1.00056 1.00411 0.98964
0.999968 1.00364 0.99121
1.00001 1.00315 0.991564
1.00082 1.00296 0.990736
1.00045 1.0035 0.99076
1.00007 1.00271 0.991894
1.00225 0.99478 0.992801
1.00404 0.995548 0.991208
1.00464 0.99585 0.990003
1.00093 0.998023 0.993866
1.00025 1.00488 0.991093
0.999207 1.00467 0.991696
0.999715 1.00496 0.990158
0.999954 1.00512 0.989739
1.00002 0.994824 0.992814
0.99973 1.00501 0.990276
0.999435 1.00517 0.991505
1.0021 0.997068 0.993839
1.00046 1.00008 0.99403
0.997137 0.997827 0.992981
0.997436 0.997143 1.00084
0.997991 1.00306 0.994687
0.999882 1.00488 0.990142
0.99858 1.00517 0.992353
0.994824 0.994823 0.848583
0.994724 0.99484 0.841587
0.999807 0.994894 0.874082
0.99907 1.00281 0.992646
0.999324 1.00175 0.99385
0.997359 1.00045 0.997386
0.994678 0.994814 0.831551
0.997002 0.997315 0.933826
0.995293 0.994978 0.962356
0.995355 0.997359 0.993601
0.994786 0.997367 0.895371
0.994786 0.9948 0.834196
0.994917 0.994825 0.835102
0.997506 1.00364 0.996178
0.994796 0.994834 0.845939
0.994801 0.994788 0.832507
0.995338 1.0018 0.999089
0.995179 0.997066 0.971828
0.995014 0.998244 0.932982
0.994911 0.994857 0.835711
0.994889 0.999281 0.878534
0.995008 1.00483 0.999595
0.994791 0.994826 0.842887
0.994854 0.994818 0.837667
0.994806 0.994833 0.822706
0.994831 0.999337 0.990856
0.994878 0.998929 0.9478
0.996029 0.997642 0.885221
0.99843 1.00384 0.995168
0.996504 1.00425 0.997011
0.995005 1.00519 0.998833
1.00026 1.00481 0.989631
0.999114 1.00488 0.9913
0.99608 1.00469 0.996941
0.999503 1.00457 0.990987
0.99616 1.00499 0.996577
0.995371 1.00514 0.997891
0.99517 1.00526 0.997774
0.996419 1.0048 0.995974
0.999365 1.00478 0.990879
0.999431 1.00503 0.990878
0.999097 1.00435 0.992364
0.99755 1.00485 0.994292
0.999222 1.00468 0.991447
0.999084 1.00259 0.993616
1.00052 0.998426 0.995094
1.00244 1.00093 0.988545
1.00018 1.00158 0.992741
1.00155 1.0017 0.990725
1.00418 1.00205 0.986051
1.0052 1.00152 0.98451
1.00243 1.00182 0.989055
1.00345 1.00114 0.987156
1.0006 1.00505 0.989083
1.00061 1.00348 0.990748
0.999646 1.00159 0.993433
1.00022 1.00438 0.990329
0.999833 1.00504 0.989806
1.00019 1.00469 0.98981
1.00004 1.00502 0.990084
1.00014 1.0042 0.990437
1.00011 1.00244 0.992163
1.00024 1.00353 0.991034
1.00014 1.00198 0.992598
1.00016 0.999065 0.996105
1.00014 1.00188 0.992742
1.00013 0.999046 0.995824
1.00013 0.997228 0.99763
1.00005 0.999034 0.995667
1.00005 0.99718 0.99842
1.00001 0.997162 0.999091
1.00046 1.00248 0.991418
1.0001 1.00071 0.993726
1.00028 1.00228 0.992156
1.00011 0.998059 0.996567
1.00003 1.00038 0.994277
1.00011 1.00177 0.992727
1.00004 0.996635 0.999267
1.00007 0.997964 0.996721
0.999962 1.00016 0.994693
1.00002 0.996619 0.999283
1.00005 0.997933 0.99677
0.999998 0.996632 0.99928
0.994825 0.994827 0.839916
0.994694 0.994822 0.838868
0.999804 0.994842 0.880828
1.00096 1.00271 0.990586
0.994819 0.994802 0.83896
0.99476 0.994779 0.832239
0.99472 0.994782 0.832781
0.99901 0.995107 0.97347
0.999247 0.994882 0.942693
0.996769 0.995221 0.873073
0.994722 0.994791 0.826787
0.99659 0.994899 0.964646
0.996947 0.999506 0.942785
0.994783 0.999013 0.874963
0.99481 0.994823 0.826322
0.994873 0.994872 0.959943
0.994875 0.99864 0.941659
0.995179 0.999974 0.881272
0.995004 0.994855 0.838182
0.999985 1.00482 0.990086
1.00018 1.0043 0.990374
1.00003 1.00305 0.991823
1.00061 1.00332 0.990477
1.00043 1.00431 0.989902
0.999951 1.00378 0.9914
1.00081 1.00307 0.990703
1.00049 1.00354 0.990832
0.998953 0.995917 0.992997
1.0023 0.996655 0.994494
1.0003 1.00511 0.989483
1.00096 0.999847 0.993819
0.999671 1.00517 0.991395
1.00007 1.00508 0.990134
0.999648 1.00485 0.990233
0.99624 0.996883 0.993718
0.998798 1.00488 0.992478
0.998304 1.00313 0.994911
0.997558 0.998174 1.00102
0.99941 1.00485 0.991397
0.995241 1.00036 0.989319
0.995824 1.00117 0.999995
0.996551 1.00469 0.995903
0.998757 1.00461 0.992857
0.994784 0.994804 0.848572
0.994829 0.994822 0.846885
0.994718 0.994832 0.837992
0.997641 1.00373 0.996273
0.995481 1.00086 0.9981
0.994807 0.994829 0.848672
0.994868 0.999879 0.944389
0.995273 0.996471 0.969231
0.994956 0.999377 0.877304
0.994801 0.994785 0.83293
0.994859 0.994853 0.832831
0.995278 1.00467 0.999305
0.994795 0.994825 0.842813
0.99485 0.99482 0.839695
0.994799 0.99985 0.994521
0.9948 0.994821 0.826851
0.994856 0.996982 0.940669
0.995456 0.998094 0.887509
0.994865 1.0036 0.998457
0.994822 0.994849 0.847644
0.9948 0.994805 0.839682
0.994709 0.99477 0.827027
0.994918 0.999984 0.881045
0.994901 1.00042 0.977104
0.995365 0.998277 0.933771
0.996817 1.00454 0.996739
0.995221 1.00521 0.998773
0.99492 1.00518 0.998337
0.999345 1.00468 0.990902
0.996321 1.00514 0.996553
0.995252 1.00516 0.997885
0.996604 1.00465 0.995932
0.995239 1.00522 0.997853
0.997813 1.00167 0.997585
0.997775 1.00465 0.994149
0.999208 1.00482 0.991363
0.999078 1.00285 0.994083
0.999013 1.00329 0.991936
0.998555 0.999214 0.997707
1.00235 1.00046 0.989539
1.00413 1.00345 0.983859
1.00496 1.00239 0.983669
1.00208 1.00175 0.990227
1.00417 1.00226 0.985334
1.00521 1.00159 0.984484
1.00427 1.00051 0.986742
1.00489 1.00138 0.984853
1.00083 1.00467 0.988596
1.00239 1.00207 0.988886
1.00268 1.00109 0.987445
1.00024 1.00501 0.989244
1.00023 1.00506 0.989288
1.00031 1.00345 0.991046
0.999896 1.00506 0.989832
1.00024 1.00468 0.989819
1.00018 1.00308 0.9914
1.00025 1.00413 0.990454
1.00012 1.00248 0.992145
1.00012 0.999261 0.995293
1.00018 1.00202 0.992586
1.00018 0.999065 0.995419
1.00004 0.997208 0.998995
1.00014 0.99906 0.995498
1.00009 0.997228 0.998325
1.00006 0.997188 0.999031
1.00047 1.00261 0.991269
1.00024 1.00109 0.99312
1.00042 1.00253 0.991555
1.00017 0.998197 0.996338
1.00015 1.00071 0.993653
1.0003 1.00228 0.992148
1.00006 0.996652 0.999234
1.00011 0.998034 0.996581
1.00004 1.00037 0.994131
1.00004 0.996612 0.999273
1.00007 0.997939 0.996729
1.00002 0.996643 0.999282
0.994801 0.994832 0.847725
0.994824 0.99483 0.840073
0.994687 0.994832 0.838926
1.00087 1.00275 0.990752
1.00072 1.00295 0.990589
1.00094 1.00238 0.991157
0.994867 0.994823 0.83697
0.994818 0.994794 0.839408
0.994758 0.994773 0.832232
0.996875 0.994871 0.965902
0.996997 0.995508 0.931536
0.994772 0.999856 0.89387
0.994823 0.994822 0.821206
0.994998 0.994831 0.963126
0.994935 0.999518 0.938368
0.995078 0.999025 0.87789
0.994932 0.99485 0.835108
0.994986 0.99537 0.959755
0.994865 0.998052 0.942969
0.99617 0.997987 0.88457
0.994847 0.994824 0.82505
0.999985 1.00352 0.991171
1.00029 1.00455 0.989886
1.00038 1.00407 0.990192
1.00074 1.00321 0.990421
1.00021 1.00444 0.990169
1.00082 1.00318 0.990671
0.996091 0.995485 0.994506
0.997018 0.998955 1.00131
0.999729 1.00453 0.99032
0.998872 1.00243 0.995097
0.998912 1.00474 0.992595
0.999132 1.00467 0.991552
0.998334 1.005 0.992908
0.995274 1.00028 0.989283
0.996215 1.00499 0.996474
0.996386 1.00157 0.999081
0.998295 1.00456 0.993592
0.995029 1.00238 0.98566
0.9955 1.00407 0.996117
0.996122 1.00514 0.996724
0.994823 0.994827 0.84896
0.994785 0.994812 0.848345
0.994832 0.994819 0.845199
0.995427 1.0043 0.998964
0.994758 1.00024 0.990743
0.994795 0.994824 0.842751
0.99482 0.998807 0.940614
0.995858 0.997643 0.873278
0.994849 0.994819 0.841702
0.994816 0.99483 0.822111
0.994845 1.00346 0.998925
0.994817 0.994849 0.848421
0.994813 0.9948 0.840146
0.994893 0.999606 0.97444
0.994725 0.994771 0.820702
0.99547 0.999824 0.876301
0.995136 0.996384 0.946463
0.994917 1.00512 0.991825
0.99479 0.994842 0.847855
0.994778 0.994792 0.833266
0.99466 0.994775 0.836227
0.994763 0.997399 0.871546
0.994863 0.999454 0.942051
0.99489 1.00083 0.968455
0.995504 1.00513 0.998707
0.995031 1.00506 0.998366
0.997317 1.00229 0.997777
0.996854 1.00448 0.995889
0.99527 1.00521 0.997877
0.996488 1.00351 0.997503
0.998984 0.996887 1.00019
0.999051 1.00316 0.99454
1.00125 1.00239 0.991246
1.00238 1.00436 0.986384
1.00212 1.00004 0.990656
1.00414 1.00328 0.984137
1.00441 1.0043 0.982686
1.00496 1.00181 0.983918
1.00514 1.00176 0.984127
1.00488 1.00247 0.983651
1.0044 1.00238 0.984628
1.0051 1.001 0.985596
1.00518 1.00168 0.984359
1.00258 1.0025 0.987612
1.00418 1.00062 0.987
1.00447 1.00127 0.9852
1.00046 1.00507 0.988415
1.0011 1.00464 0.988564
1.00229 1.00242 0.988708
1.00031 1.00366 0.990705
1.00051 1.00483 0.989245
0.999967 1.00506 0.989493
1.00033 1.00454 0.989829
1.00026 1.00303 0.991401
1.00007 0.999678 0.994971
1.00019 1.00244 0.992127
1.00014 0.9993 0.995271
1.00004 0.997346 0.998961
1.00018 0.999095 0.995412
1.00009 0.997243 0.998298
1.00008 0.997222 0.998991
1.00053 1.003 0.991037
1.00035 1.00132 0.992907
1.00056 1.00251 0.991332
1.00022 0.998419 0.996013
1.00024 1.00109 0.993205
1.0004 1.00256 0.991693
1.00008 0.996721 0.999182
1.00016 0.998168 0.996357
1.00018 1.00069 0.993581
1.00006 0.996658 0.999244
1.00011 0.99801 0.996595
1.00004 0.996624 0.999279
0.994825 0.994845 0.847089
0.9948 0.994846 0.84765
0.994819 0.994843 0.840308
1.00037 1.00419 0.989775
1.00114 1.00395 0.989702
1.0007 1.00282 0.990921
1.00065 1.00316 0.990495
1.00055 1.00256 0.991281
1.00036 1.00303 0.991142
1.00038 1.00219 0.991979
0.994833 0.994798 0.83177
0.994865 0.994826 0.839098
0.994814 0.994805 0.83987
0.994869 0.994847 0.832142
0.99493 0.994842 0.960202
0.994875 0.999925 0.93411
0.995269 0.997036 0.890876
0.994919 0.995959 0.958739
0.994889 0.999424 0.931391
0.995284 0.997993 0.887529
0.994865 0.994816 0.834844
0.995806 0.996855 0.961621
0.995063 0.999337 0.933205
0.995351 0.997344 0.870965
0.994739 0.994797 0.822505
0.998453 1.00483 0.992865
0.999838 1.00383 0.991321
1.00029 1.00471 0.989686
1.0008 1.00334 0.990368
0.99505 1.00008 0.989531
0.996916 1.0023 0.998048
0.998997 1.00484 0.991711
0.998137 1.00496 0.992962
0.996165 1.0052 0.997036
0.998221 1.00422 0.993535
0.996153 1.00499 0.996703
0.996609 1.0019 0.982252
0.994919 1.00505 0.996548
0.996318 1.00431 0.996495
0.994713 1.00418 0.982484
0.995481 1.00367 0.998554
0.99478 0.994811 0.848775
0.994826 0.994828 0.85182
0.994787 0.994824 0.848106
0.994825 1.00336 0.999354
0.994902 0.999034 0.977873
0.994811 0.994849 0.849247
0.99548 0.997473 0.93467
0.995404 0.997716 0.890086
0.994821 0.994808 0.84058
0.994711 0.994792 0.82748
0.994901 1.00442 0.992626
0.994802 0.99484 0.847803
0.99476 0.994788 0.833254
0.994893 1.00018 0.968587
0.994691 0.994788 0.82596
0.994839 0.998916 0.873955
0.995339 0.998993 0.930959
0.995367 1.00446 0.986464
0.994829 0.994823 0.840201
0.994667 0.994762 0.825019
0.996681 0.99542 0.89092
0.994839 0.999456 0.941583
0.994868 0.999989 0.96164
0.995213 1.00511 0.998689
0.996196 1.00317 0.99793
0.996526 0.99922 1.00111
0.995357 1.00518 0.997406
0.997472 0.998578 1.00034
1.00186 0.998093 0.994572
1.0035 1.00135 0.990562
1.00323 1.00402 0.985719
1.00348 1.00441 0.983695
1.00397 1.00325 0.984411
1.00451 1.00426 0.982606
1.00433 1.00428 0.982791
1.00511 1.00046 0.985083
1.00509 1.0011 0.984793
1.00495 1.002 0.983896
1.00507 1.00166 0.984699
1.0051 1.00164 0.984147
1.0047 1.00262 0.98363
1.00472 1.00097 0.986147
1.00491 1.00116 0.985418
1.00515 1.00178 0.984236
1.00158 1.00479 0.987358
1.00259 1.00262 0.987711
1.00408 1.00067 0.987257
1.0004 1.00419 0.989727
1.0008 1.00505 0.988446
1.00126 1.0046 0.988533
1.00007 1.00009 0.994566
1.00038 1.00352 0.990705
1.00071 1.00477 0.989246
1.00029 1.00301 0.991402
1.00007 0.999728 0.994944
0.999981 0.99758 0.998904
1.00015 0.999328 0.995249
1.00003 0.997377 0.998948
1.00007 0.99724 0.998975
1.00008 1.00498 0.989796
1.0007 1.00356 0.990236
1.00044 1.00175 0.992358
1.00054 1.00294 0.991025
1.00025 0.998711 0.99567
1.00035 1.00135 0.9929
1.00057 1.00251 0.991396
1.00009 0.996881 0.999103
1.00021 0.998409 0.996033
1.00024 1.00111 0.993287
1.00008 0.996721 0.999198
1.00016 0.998151 0.996376
1.00006 0.996637 0.999255
0.994792 0.994829 0.842607
0.994808 0.994842 0.847906
0.994808 0.994839 0.847567
1.00046 1.00441 0.989766
1.00076 1.00356 0.989863
1.00003 1.00247 0.990836
0.999997 1.00449 0.98994
1.00131 1.00354 0.990435
1.00071 1.00329 0.990399
1.00039 1.00272 0.991404
1.00043 1.003 0.991162
1.00036 1.00247 0.992004
0.999281 1.00405 0.992099
0.994754 0.994782 0.834895
0.994817 0.994791 0.832384
0.994864 0.994818 0.841162
0.99492 0.99483 0.835484
0.995944 0.997994 0.873199
0.994883 0.996387 0.957221
0.994887 0.998868 0.942895
0.994939 0.997341 0.958342
0.994889 0.996275 0.944602
0.994885 0.999486 0.879487
0.994758 0.994782 0.821206
0.994786 0.998342 0.9627
0.994838 1.00013 0.944278
0.994733 0.999254 0.893012
0.994686 0.994778 0.836168
0.998161 1.00322 0.994874
0.998224 1.00469 0.992999
0.999848 1.00384 0.991475
0.997262 1.00179 0.978531
0.994754 1.0051 0.99708
0.998068 1.00435 0.993473
0.995972 1.00511 0.996689
0.996643 1.0042 0.996457
0.995262 1.00339 0.998842
0.99498 1.00196 0.981729
0.995757 1.00185 0.999259
0.995774 1.00011 0.987401
0.99482 0.994819 0.847566
0.994787 0.994819 0.848558
0.994827 0.994827 0.854698
0.994903 1.00362 0.99305
0.994866 0.999806 0.965841
0.994813 0.994843 0.847727
0.994888 0.99966 0.941941
0.994754 0.999785 0.892459
0.994742 0.994771 0.83333
0.994716 0.994798 0.815307
0.995614 1.00423 0.987159
0.994815 0.99483 0.840291
0.994692 0.994767 0.823664
0.995032 0.999564 0.96259
0.996782 0.997734 0.88854
0.994987 0.999346 0.936576
0.995117 1.00332 0.984932
0.994682 0.994792 0.828461
0.999098 0.994834 0.892628
0.996679 0.997301 0.932945
0.994865 0.996824 0.964458
0.995629 1.00401 0.998068
0.996233 0.99949 1.0011
0.998778 1.00244 0.996073
0.995944 1.00019 1.00048
1.0007 0.99865 0.995095
1.00332 0.999782 0.989323
1.0041 1.00359 0.985039
1.0035 1.00439 0.983573
1.00419 1.00177 0.984899
1.00472 1.00422 0.98253
1.00436 1.0039 0.982879
1.00486 1.00043 0.985675
1.00524 0.997934 0.987233
1.0052 0.999818 0.985474
1.0051 1.00035 0.985175
1.00512 1.00111 0.984923
1.0051 1.00112 0.984716
1.00495 1.00216 0.983873
1.00509 1.00163 0.984872
1.00489 1.00157 0.984728
1.00506 1.00156 0.98417
1.00356 1.00265 0.98636
1.00431 1.00135 0.986138
1.00476 1.00134 0.985239
1.00061 1.00499 0.988229
1.00165 1.00468 0.98738
1.00272 1.00274 0.987807
1.00007 1.00083 0.994709
1.00058 1.00418 0.989719
1.00112 1.00502 0.988479
0.999978 0.997951 0.99712
1.00006 1.00023 0.994863
1.00045 1.00341 0.990704
1.00008 0.999792 0.994916
0.999984 0.997633 0.998875
1.00003 0.99739 0.998933
1.00017 1.00509 0.989754
1.00057 1.00478 0.989501
0.999919 1.00498 0.98974
1.00049 1.00242 0.991633
1.0005 1.00392 0.99022
1.00021 0.999055 0.995378
1.00044 1.00174 0.99237
1.00065 1.00284 0.99101
1.00009 0.997104 0.999024
1.00025 0.998691 0.995686
1.00035 1.00137 0.992894
1.00009 0.996865 0.999127
1.00021 0.998387 0.996053
1.00008 0.996711 0.999215
0.994789 0.994822 0.849346
0.994803 0.994833 0.842537
0.994796 0.994854 0.848754
1.0006 1.00245 0.990678
1.00017 1.00479 0.989756
1.00064 1.00335 0.99003
1.00048 1.00453 0.989722
1.00072 1.00242 0.990885
1.00072 1.00317 0.991254
1.00234 1.00231 0.988799
0.998836 1.00489 0.991138
1.00052 1.00292 0.991183
0.99999 1.0025 0.992027
0.999169 1.00392 0.99203
0.99831 1.00524 0.992633
0.994693 0.994794 0.830152
0.994782 0.994787 0.834436
0.994812 0.994785 0.832877
0.99475 0.994784 0.832984
0.994878 0.999454 0.878688
0.995449 0.998243 0.933178
0.994877 0.997516 0.957588
0.994996 0.997857 0.962555
0.994694 0.994784 0.825712
0.994857 0.997463 0.937136
0.994824 0.999847 0.877884
0.994906 0.996295 0.96672
0.994887 0.999924 0.944831
0.99675 0.996144 0.888626
0.999328 0.998153 0.99772
0.998169 1.00307 0.994837
0.998147 1.00448 0.993128
0.995162 1.00112 0.981536
0.994898 1.00302 0.999109
0.997044 1.00389 0.996424
0.996871 1.00171 0.99932
0.99523 0.999157 0.987552
0.996641 0.998318 0.992226
0.994722 0.994856 0.839728
0.99482 0.994811 0.849463
0.994792 0.994821 0.848295
0.995214 1.00413 0.987539
0.994866 0.999974 0.962453
0.994801 0.994837 0.840535
0.994835 0.999865 0.932868
0.996644 0.994865 0.874486
0.994722 0.994782 0.833993
0.994824 1.00404 0.984953
0.994694 0.99482 0.839414
0.999056 0.994797 0.876231
0.994856 0.995962 0.960176
0.996752 0.999077 0.943285
0.994805 1.00327 0.990179
0.9998 0.994846 0.870806
0.999443 0.994901 0.944975
0.994857 0.994835 0.959404
0.995919 0.999631 1.00115
0.998122 1.0015 0.995721
1.00156 1.0036 0.990613
0.999522 0.999359 0.995624
1.00271 1.00058 0.989169
1.00418 0.99982 0.987484
1.00348 1.00445 0.983452
1.00409 1.00199 0.984867
1.00499 0.997197 0.987876
1.00437 1.00345 0.982967
1.00473 1.00023 0.985704
1.00526 0.996229 0.988832
1.00522 0.996229 0.989274
1.00524 0.998162 0.987104
1.00525 0.997832 0.987361
1.00522 0.999719 0.98563
1.0052 0.999797 0.985636
1.0051 1.00024 0.985268
1.00519 1.00134 0.98451
1.00512 1.00103 0.984896
1.00511 1.00112 0.984638
1.00493 1.00109 0.985506
1.00492 1.00159 0.984879
1.00468 1.00146 0.984754
1.00191 1.00442 0.987032
1.00347 1.00277 0.986322
1.00386 1.0017 0.986131
0.999971 1.00194 0.992839
1.00111 1.00477 0.988235
1.00177 1.00465 0.987399
0.999799 0.998512 0.998636
1.00009 1.00085 0.993742
1.00078 1.00404 0.989713
0.999964 0.997934 0.998775
1.00005 1.0003 0.994441
0.999992 0.997697 0.998844
1.00163 1.00377 0.988923
1.00019 1.00501 0.989629
1.00058 1.00507 0.989135
1.00037 1.00341 0.990827
1.00043 1.00469 0.989474
1.00009 1.00486 0.989685
1.00016 0.999503 0.995044
1.00045 1.00245 0.991655
1.0003 1.00404 0.990204
1.00006 0.997314 0.998959
1.00023 0.998999 0.995394
1.00044 1.00171 0.992382
1.00009 0.997068 0.999047
1.00024 0.998678 0.995701
1.00009 0.996838 0.999152
0.994709 0.994819 0.825108
0.994807 0.994823 0.849539
0.994811 0.994836 0.84248
1.00055 1.00283 0.990653
1.00388 1.00205 0.987793
1.00112 1.00352 0.989985
1.00049 1.00449 0.989503
1.00153 1.00227 0.990928
0.999799 1.00251 0.992061
0.999428 1.00476 0.990817
1.0016 1.00275 0.989231
1.00146 1.00426 0.988679
0.999658 0.99982 0.995085
0.999722 1.00385 0.991958
0.998574 1.0052 0.992443
0.999422 0.994857 0.869841
0.994667 0.994781 0.823823
0.994794 0.994791 0.834392
0.994711 0.994785 0.814748
0.994812 0.99869 0.894438
0.994798 0.999273 0.932853
0.995235 0.995812 0.960217
0.994858 0.996233 0.965076
0.996956 0.998453 0.88753
0.99492 0.999025 0.933489
0.994882 0.997168 0.967546
0.99653 0.996527 0.932849
1.00107 0.996119 0.998489
0.999254 0.999061 0.997674
0.998221 1.003 0.994813
0.99482 0.998825 0.987804
0.99768 1.00131 0.999369
0.997126 0.998452 0.991947
0.9974 0.995906 0.990913
0.999807 0.994894 0.883666
0.994713 0.994842 0.837839
0.994828 0.994808 0.851239
0.994859 1.00412 0.985249
0.994849 0.995217 0.958679
0.99469 0.99483 0.83935
0.996839 0.995394 0.932797
0.99916 0.994833 0.892881
0.994857 1.00134 0.987101
0.999804 0.994861 0.881574
1.00032 0.995778 0.93224
0.994882 0.99481 0.962005
0.997135 0.998036 0.988944
0.999976 0.994888 0.945459
0.995476 0.99487 0.965703
0.997856 1.0006 0.995316
1.00077 1.0015 0.990725
1.00395 0.999201 0.99042
1.00218 1.00123 0.989028
1.00411 0.999615 0.987501
1.00512 0.996181 0.989261
1.00409 1.00212 0.98484
1.00494 0.9976 0.987811
1.00522 0.99521 0.989877
1.00462 1.00003 0.98573
1.00526 0.996328 0.988777
1.00523 0.995123 0.990217
1.00521 0.99553 0.990228
1.00522 0.996134 0.989454
1.00521 0.996719 0.98902
1.00526 0.998539 0.986994
1.00523 0.998228 0.987211
1.00527 0.997733 0.987491
1.00526 1.00037 0.985316
1.00522 0.999767 0.985589
1.00519 0.999757 0.985799
1.00517 1.00139 0.984786
1.00517 1.00137 0.984557
1.00511 1.00098 0.984872
1.00319 1.00295 0.986465
1.00477 1.00125 0.985475
1.00474 1.00159 0.984885
1.00029 1.00274 0.99147
1.00202 1.00431 0.987051
1.00348 1.00268 0.986284
0.999883 0.998898 0.998408
1.0001 1.00181 0.992797
1.00149 1.00466 0.98824
0.999896 0.998504 0.997689
1.00012 1.00093 0.993746
0.999979 0.998064 0.998692
1.00309 1.00177 0.988128
1.00104 1.00378 0.989144
1.00052 1.00507 0.988802
1.00022 1.00491 0.989502
1.00037 1.00506 0.989141
1.00049 1.00415 0.989976
1.00009 1.00021 0.994492
1.00032 1.0035 0.990819
1.0002 1.0048 0.989447
1.00003 0.99756 0.998865
1.00015 0.999466 0.995065
1.00039 1.0025 0.991677
1.00006 0.997283 0.998977
1.00024 0.998956 0.995412
1.00008 0.997041 0.99907
0.999796 0.994842 0.881217
0.994698 0.994831 0.83023
0.994818 0.994822 0.849717
1.00044 1.00322 0.990628
1.00106 1.00415 0.989021
1.00307 1.00264 0.988108
1.00483 1.00365 0.983361
1.00112 1.00365 0.988921
0.99963 1.00482 0.990514
1.0011 1.00325 0.989664
1.00077 1.00421 0.989059
1.00337 1.0002 0.987639
1.00181 0.999736 0.99248
1.00359 0.995169 0.992905
1.00037 0.999485 0.994958
0.999332 1.00452 0.992257
0.998552 0.994875 0.943302
0.99962 0.994778 0.874654
0.994649 0.994782 0.828261
0.996958 0.996566 0.874337
0.9949 0.99989 0.941837
0.994855 0.995499 0.965956
0.994896 0.99685 0.969192
0.997142 0.999299 0.944531
0.995763 0.995218 0.9689
1.0005 0.995842 0.998242
1.0004 0.996548 0.99852
0.99906 0.99998 0.997617
0.997807 0.997974 0.991769
0.998048 0.996841 0.991056
0.999969 0.994895 0.935267
0.999804 0.994883 0.888715
0.994697 0.994828 0.836052
0.994905 0.999697 0.9838
0.994939 0.994819 0.959496
0.999804 0.994843 0.88125
0.9992 0.994875 0.943568
0.996765 0.997976 0.989237
1.00074 0.994895 0.942306
0.996448 0.994885 0.963303
1.00069 0.995243 0.989195
0.998674 0.994872 0.973202
0.999705 0.99945 0.990927
1.00351 0.997553 0.99041
1.00482 0.995183 0.991603
1.00391 0.999389 0.987514
1.00499 0.996156 0.989126
1.00521 0.994885 0.990366
1.00482 0.998052 0.987748
1.00522 0.995266 0.989824
1.00523 0.994901 0.990428
1.00526 0.99644 0.988723
1.00524 0.995199 0.99018
1.00523 0.995012 0.990521
1.00521 0.995398 0.990296
1.0052 0.995727 0.99012
1.00522 0.996032 0.989635
1.00521 0.996718 0.989013
1.00523 0.997407 0.988263
1.00528 0.999409 0.986308
1.00526 0.998604 0.986972
1.00522 0.998294 0.987318
1.00528 1.00107 0.984707
1.00527 1.00043 0.985198
1.00523 0.999812 0.985547
1.00394 1.00187 0.98618
1.00503 1.00143 0.984809
1.00512 1.0014 0.984605
1.00096 1.00283 0.990303
1.00306 1.0031 0.986469
1.00448 1.00156 0.985449
1 0.999693 0.998029
1.00043 1.00261 0.991455
1.00224 1.00421 0.987071
0.999971 0.99908 0.998286
1.00029 1.00161 0.992752
0.999985 0.998513 0.998488
1.00442 1.00233 0.98487
1.00313 1.00159 0.988012
1.00131 1.00434 0.987794
1.00047 1.00372 0.989373
1.00056 1.005 0.988662
1.00071 1.00475 0.988996
1.00024 1.00508 0.989144
1.00033 1.00429 0.989951
1.00013 1.00087 0.993763
0.99999 0.997983 0.998689
1.00007 1.00014 0.994514
1.00025 1.00358 0.990812
1.00002 0.997543 0.998898
1.00014 0.999411 0.995081
1.00006 0.997254 0.998997
0.999976 0.994893 0.947048
0.999816 0.99486 0.880926
0.99468 0.994822 0.825007
1.00096 1.00478 0.988052
1.00243 1.00293 0.988431
1.00203 1.00351 0.988436
1.00436 1.00354 0.98409
1.00488 1.00185 0.984249
1.00331 1.00191 0.985839
1.00022 1.00442 0.989425
1.00407 1.00033 0.986595
1.00171 0.999697 0.992695
1.00343 0.997397 0.990124
1.00433 0.995748 0.991813
1.00316 0.996126 0.992814
1.00319 0.995388 0.993099
0.99995 0.999825 0.99483
0.996043 0.994862 0.967119
0.999523 0.996107 0.939382
0.998412 0.994839 0.889806
0.996818 0.997359 0.932553
0.994895 0.996918 0.969705
0.995435 0.99581 0.974656
0.999287 0.995767 0.992728
1.001 0.995345 0.99788
0.99977 0.996784 0.99857
0.999015 0.998401 0.991229
0.997029 0.996242 0.968174
1.00009 0.994884 0.947758
0.999806 0.994876 0.873526
0.996164 0.997713 0.989515
0.996912 0.994865 0.964279
0.999984 0.994882 0.938909
1.0001 0.99493 0.989402
0.998545 0.994965 0.9726
1.003 0.994823 0.990879
1.003 0.997332 0.985614
1.00287 0.99598 0.990374
1.00449 0.995144 0.991605
1.00511 0.99477 0.990998
1.00497 0.996207 0.988992
1.00521 0.994888 0.99032
1.00525 0.994888 0.990496
1.00522 0.995321 0.98977
1.00523 0.994906 0.990405
1.00526 0.994909 0.990507
1.00524 0.995256 0.990142
1.00522 0.995006 0.990503
1.00523 0.995033 0.990527
1.00521 0.995278 0.990362
1.0052 0.995604 0.990182
1.00522 0.996561 0.989301
1.00521 0.996723 0.989005
1.00523 0.997463 0.988243
1.00526 0.998648 0.987182
1.00531 1.00037 0.985368
1.00529 0.999531 0.986144
1.00526 0.998669 0.98695
1.00456 1.001 0.985983
1.00526 1.00108 0.984741
1.00528 1.00049 0.985079
1.00147 1.00245 0.989745
1.00382 1.0021 0.986161
1.00488 1.00147 0.984827
1.00034 1.00031 0.997534
1.00103 1.00268 0.990296
1.00294 1.00322 0.98647
1.00016 0.99985 0.99783
1.00047 1.00247 0.991447
1.00008 0.999214 0.998131
1.00474 1.0019 0.98456
1.00473 1.00217 0.985025
1.00374 1.00238 0.985825
1.003 1.0018 0.987895
1.00153 1.0041 0.987567
1.0015 1.00485 0.98779
1.00051 1.00496 0.988523
1.00064 1.00479 0.988992
1.00015 1.00172 0.99294
1.00023 1.00449 0.989927
1.00007 1.00091 0.993792
0.999943 0.998571 0.998478
0.999973 0.997932 0.998756
1.00003 1.00012 0.994539
1.00001 0.997491 0.998927
0.996973 0.994885 0.968403
0.999974 0.994874 0.93465
0.999809 0.994853 0.891632
1.00517 0.99961 0.985835
1.00302 1.00349 0.987961
1.00386 1.00343 0.98482
1.00397 1.0017 0.986152
1.00491 1.00204 0.984152
1.00448 0.999083 0.987621
1.00475 1.00132 0.985549
1.00141 0.999132 0.992912
1.0039 0.997925 0.989767
1.0042 0.99587 0.991155
1.00478 0.995655 0.990033
1.00351 0.995293 0.993414
1.00319 0.995739 0.992852
1.003 0.995615 0.993286
0.999148 0.995785 0.99104
0.995891 0.994869 0.965453
0.999073 0.994865 0.935234
0.995013 0.996398 0.973121
0.999002 0.995634 0.995243
1.00095 0.994947 0.997467
1.00149 0.996571 0.983028
0.99706 0.995495 0.968776
0.999975 0.994898 0.935273
0.999328 0.994842 0.989654
0.998841 0.995086 0.971772
1.00211 0.99505 0.991358
1.00295 0.99672 0.986367
1.004 0.994922 0.991382
1.00457 0.997415 0.990808
1.00423 0.994982 0.991595
1.00509 0.994794 0.990888
1.00528 0.994824 0.990481
1.00521 0.99489 0.990276
1.00524 0.994884 0.99049
1.00529 0.994884 0.990463
1.00523 0.994912 0.990382
1.00525 0.994908 0.990511
1.00525 0.994921 0.990626
1.00521 0.995004 0.990485
1.00523 0.995026 0.990509
1.00522 0.995582 0.990143
1.0052 0.995482 0.990243
1.00522 0.996413 0.98946
1.00526 0.997908 0.988002
1.00523 0.997517 0.988223
1.00527 0.998604 0.987224
1.0053 1.00003 0.985816
1.00486 1.00052 0.98596
1.0053 1.00047 0.985266
1.00529 0.99965 0.98598
1.00209 1.00149 0.989654
1.00447 1.00114 0.985993
1.00524 1.00109 0.984776
1.00064 1.00057 0.997205
1.00168 1.00213 0.989745
1.00371 1.00228 0.986146
1.00049 1.00039 0.997389
1.00117 1.00249 0.990292
1.00033 1.00004 0.997638
1.00526 1.00079 0.984843
1.005 1.00189 0.984475
1.00503 1.00134 0.984868
1.00511 1.002 0.985181
1.00402 1.00237 0.985635
1.00246 1.00405 0.986908
1.00183 1.00375 0.98734
1.0012 1.00503 0.987815
1.00036 1.00229 0.991945
1.00049 1.00484 0.988987
1.00008 1.00164 0.992972
0.999924 0.999173 0.998219
1.00001 1.00084 0.993821
0.999931 0.998439 0.998554
0.999957 0.997855 0.998815
1.00082 0.994873 0.987584
0.996759 0.994896 0.965131
0.999972 0.994885 0.946927
1.00503 0.998215 0.987698
1.00524 0.997789 0.987756
1.00517 0.999404 0.986097
1.00461 1.00122 0.98646
1.00496 1.00229 0.984052
1.00451 0.998884 0.987986
1.0051 0.995801 0.989299
1.0045 0.997934 0.989424
1.00415 0.996344 0.990499
1.0047 0.996186 0.990324
1.00511 0.99509 0.990644
1.00382 0.995438 0.992347
1.00318 0.995597 0.993228
1.00349 0.995292 0.992901
0.999793 0.995652 0.99116
0.995719 0.994864 0.963914
0.999006 0.995572 0.997865
1.00444 0.995151 0.990965
1.00132 0.996652 0.983187
0.997097 0.994873 0.966832
1.00171 0.994806 0.991805
1.00286 0.996067 0.987145
1.00404 0.994836 0.992013
1.0046 0.99661 0.990887
1.00527 0.994844 0.990819
1.00537 0.994926 0.991015
1.00506 0.994808 0.990781
1.0053 0.994834 0.990451
1.00531 0.994874 0.990479
1.00523 0.994879 0.990484
1.00529 0.994886 0.990482
1.00526 0.994891 0.990631
1.00525 0.994906 0.990515
1.00526 0.99492 0.990616
1.00524 0.995126 0.990601
1.00524 0.995016 0.990491
1.00523 0.99561 0.990122
1.00526 0.99717 0.98869
1.00523 0.996263 0.989619
1.00526 0.997833 0.988068
1.00531 0.999611 0.986216
1.00527 0.998563 0.987266
1.0053 0.999956 0.9859
1.00496 1.00033 0.986019
1.00244 1.00074 0.98977
1.00484 1.00057 0.985964
1.0053 1.00058 0.985163
1.00079 1.00061 0.997068
1.00213 1.00143 0.989645
1.00436 1.00134 0.986003
1.0007 1.00061 0.99714
1.0018 1.00194 0.989744
1.00058 1.0005 0.997267
1.00528 0.999131 0.986388
1.00524 1.00067 0.985016
1.00518 1.00097 0.985025
1.00517 1.00184 0.984389
1.00511 1.00128 0.984897
1.00329 1.00259 0.986731
1.00435 1.00232 0.985448
1.00235 1.00388 0.986919
1.00065 1.00281 0.990849
1.00092 1.00511 0.987841
1.00022 1.00244 0.991979
0.999993 0.999952 0.99788
1.00003 1.00168 0.993004
0.99988 0.99909 0.99832
0.999908 0.99835 0.998628
1.00431 0.994847 0.992161
1.00093 0.99487 0.98548
0.996599 0.994914 0.964285
1.00513 0.997132 0.988755
1.00502 0.99779 0.987967
1.00528 0.996562 0.988942
1.00524 0.997811 0.987729
1.00517 0.999197 0.986354
1.00523 0.995216 0.989869
1.00458 0.998826 0.988341
1.00511 0.996161 0.989269
1.00525 0.994881 0.990438
1.00457 0.99653 0.990613
1.00506 0.995201 0.990377
1.00364 0.995454 0.992577
1.00261 0.995902 0.993044
1.00023 0.995456 0.991134
1.00533 0.994905 0.990763
1.0044 0.996151 0.991168
1.00119 0.99693 0.983383
1.00397 0.99479 0.992628
1.0046 0.995818 0.990972
1.00526 0.99483 0.990888
1.00538 0.994923 0.990953
1.00534 0.9949 0.990826
1.00532 0.994849 0.990424
1.00531 0.994881 0.990492
1.00525 0.994909 0.990747
1.00528 0.994889 0.990501
1.00526 0.994893 0.990627
1.00526 0.994924 0.99083
1.00526 0.994918 0.990607
1.00524 0.995134 0.990577
1.00525 0.996436 0.989451
1.00524 0.995638 0.9901
1.00525 0.997193 0.988696
1.00532 0.999181 0.986677
1.00525 0.997758 0.988134
1.0053 0.999613 0.986241
1.00497 1.00027 0.986076
1.0053 0.999882 0.985983
1.00497 1.00033 0.986027
1.00253 1.00033 0.991616
1.00112 1.00019 0.993834
1.00248 1.00072 0.990561
1.00482 1.00063 0.985969
1.00081 1.00063 0.997037
1.00227 1.00124 0.989632
1.00074 1.00065 0.997078
1.00526 0.996358 0.989402
1.00528 0.998006 0.987696
1.00529 0.999135 0.986555
1.00526 1.00039 0.985445
1.00522 1.00057 0.98519
1.00522 1.00098 0.984968
1.00398 1.00143 0.986576
1.00516 1.00126 0.984925
1.00345 1.00218 0.986714
1.00127 1.00267 0.98996
1.00231 1.00375 0.986927
1.00062 1.00292 0.990837
1.00021 1.00063 0.997445
1.00011 1.00247 0.99201
0.999914 0.999721 0.998016
0.999857 0.998935 0.998409
1.00533 0.994868 0.990694
1.00451 0.994831 0.991911
1.00129 0.994864 0.983433
1.00526 0.995742 0.989647
1.00508 0.997081 0.988637
1.00505 0.997331 0.988242
1.00528 0.99671 0.98893
1.00524 0.997819 0.987703
1.00532 0.994868 0.99052
1.00524 0.99518 0.989896
1.00512 0.996542 0.989241
1.00524 0.994884 0.99046
1.00503 0.995284 0.990108
1.00358 0.995498 0.99281
1.00531 0.994932 0.990883
1.00534 0.994912 0.990946
1.00438 0.99682 0.991373
1.00526 0.994812 0.990944
1.00539 0.994921 0.990894
1.00533 0.9949 0.990789
1.00523 0.994946 0.991007
1.00531 0.994888 0.990504
1.00525 0.994909 0.990717
1.00524 0.994917 0.99098
1.00527 0.994895 0.990624
1.00526 0.994922 0.990811
1.00524 0.995825 0.990099
1.00524 0.995141 0.990552
1.00526 0.996463 0.989446
1.00532 0.998782 0.987133
1.00525 0.997214 0.988702
1.00532 0.999181 0.9867
1.00497 1.00022 0.986159
1.0053 0.999613 0.986267
1.00499 1.00025 0.986091
1.00262 1.00007 0.991735
1.00498 1.00033 0.986033
1.00272 1.00023 0.991501
1.00117 0.999975 0.994005
1.00086 1.00047 0.995488
1.00268 1.00067 0.99119
1.00082 1.00068 0.99702
1.00523 0.995421 0.990437
1.00526 0.997669 0.988061
1.00525 0.996178 0.989586
1.00532 0.999717 0.986034
1.00528 0.998068 0.98768
1.00529 0.999142 0.986722
1.00527 1.0004 0.985392
1.00462 1.00058 0.986309
1.00525 1.00099 0.984911
1.00411 1.00118 0.986572
1.00185 1.00191 0.989655
1.00355 1.0018 0.986701
1.0011 1.00283 0.989954
1.00039 1.00112 0.99712
1.00044 1.00306 0.990838
1.00005 1.00047 0.99762
0.999837 0.9996 0.99814
1.00529 0.994867 0.990737
1.00531 0.994868 0.990688
1.00459 0.994824 0.991647
1.00527 0.994941 0.990569
1.00525 0.995781 0.989653
1.005 0.997048 0.988523
1.00527 0.996861 0.98892
1.0053 0.9949 0.990496
1.00525 0.995145 0.989922
1.0052 0.994888 0.990483
1.00525 0.99496 0.990997
1.0053 0.99493 0.99087
1.00536 0.994919 0.991127
1.0052 0.994969 0.991133
1.00533 0.994899 0.990753
1.00524 0.994948 0.990995
1.00519 0.994956 0.991096
1.00526 0.99491 0.990688
1.00524 0.994918 0.990974
1.00525 0.995468 0.990552
1.00525 0.994921 0.990792
1.00526 0.995849 0.990091
1.0053 0.998435 0.987563
1.00527 0.996492 0.989441
1.00532 0.998778 0.987152
1.00495 1.00014 0.986302
1.00532 0.999181 0.986723
1.00499 1.0002 0.986176
1.00265 1.00005 0.991709
1.00502 1.00023 0.986104
1.00278 1.00001 0.991597
1.00123 0.999863 0.994045
1.0029 1.00011 0.991396
1.00078 1.00015 0.994268
1.00031 1.00081 0.997464
1.00523 0.995312 0.990452
1.00527 0.99688 0.988972
1.00524 0.995508 0.990261
1.00534 0.999386 0.986458
1.00527 0.997358 0.988311
1.00525 0.996001 0.98977
1.00499 1.00006 0.986247
1.00532 0.999722 0.985995
1.00528 0.998125 0.987664
1.00528 1.00041 0.985338
1.00468 1.00048 0.986301
1.0022 1.00118 0.989755
1.00423 1.00093 0.986569
1.00171 1.0021 0.989674
1.00049 1.00122 0.997027
1.00106 1.00296 0.989939
1.00032 1.00096 0.997231
0.999948 1.00026 0.997782
1.00522 0.994896 0.990973
1.00528 0.994869 0.990713
1.0053 0.994867 0.990684
1.00527 0.994974 0.99058
1.00523 0.995816 0.98966
1.00529 0.994928 0.990471
1.00522 0.994967 0.991066
1.00526 0.994956 0.991003
1.00529 0.994928 0.990857
1.00519 0.994969 0.991133
1.00515 0.994962 0.991259
1.00524 0.99495 0.990983
1.0052 0.994957 0.991108
1.00525 0.995317 0.990783
1.00524 0.994919 0.990969
1.00523 0.995478 0.990549
1.00528 0.998148 0.987883
1.00527 0.995865 0.990083
1.00529 0.998425 0.987578
1.00492 1.00002 0.986487
1.00532 0.998774 0.987172
1.00496 1.00012 0.986317
1.0026 1.00015 0.99165
1.00501 1.00017 0.986193
1.00279 1 0.991558
1.00127 0.999884 0.993969
1.00292 0.99995 0.991467
1.00088 0.999917 0.994331
1.0004 1.00033 0.994515
1.00523 0.994989 0.990897
1.00527 0.996523 0.989323
1.00525 0.995159 0.990532
1.00533 0.998679 0.98721
1.00526 0.996992 0.988833
1.00526 0.995588 0.990083
1.00508 0.999887 0.986312
1.00533 0.999122 0.98665
1.00528 0.997053 0.98856
1.00248 1.00042 0.989995
1.00499 1.00003 0.98624
1.00531 0.99973 0.985956
1.00473 1.00038 0.986295
1.00215 1.00125 0.98977
1.00061 1.0011 0.99704
1.00156 1.0023 0.989694
1.00047 1.00114 0.997054
1.00019 1.00086 0.99737
1.00521 0.994925 0.991075
1.00523 0.994902 0.990938
1.00527 0.99487 0.990688
1.00527 0.99501 0.990591
1.00518 0.994964 0.991205
1.00521 0.994966 0.991073
1.00526 0.994953 0.991008
1.00519 0.994969 0.991132
1.00516 0.994961 0.991242
1.00523 0.995685 0.990456
1.0052 0.994958 0.991119
1.00523 0.995557 0.990548
1.0053 0.997543 0.988531
1.00521 0.995496 0.990546
1.00529 0.998144 0.987888
1.00489 0.999842 0.986704
1.00528 0.998429 0.987593
1.00493 1 0.986496
1.00261 1.00022 0.990089
1.00498 1.0001 0.986333
1.00274 1.00011 0.990748
1.00108 0.999955 0.997064
1.00293 0.999969 0.991408
1.00095 0.999874 0.994263
1.00055 0.999955 0.994599
1.00524 0.994991 0.990994
1.00527 0.99605 0.989866
1.00523 0.99507 0.990818
1.00531 0.998195 0.987709
1.00527 0.996527 0.989282
1.00526 0.995011 0.990612
1.00506 0.999623 0.986551
1.00533 0.998671 0.98722
1.00526 0.997102 0.988695
1.00265 0.999913 0.990221
1.00505 0.999784 0.986365
1.00533 0.99885 0.986843
1.00078 1.00068 0.997118
1.0025 1.0004 0.990004
1.00499 1.00001 0.986231
1.00209 1.00131 0.989788
1.00061 1.00102 0.997029
1.00044 1.00108 0.997089
1.00521 0.994953 0.991113
1.0052 0.994928 0.991079
1.00524 0.994909 0.990902
1.00524 0.995686 0.990445
1.00518 0.994964 0.991205
1.0052 0.994965 0.991079
1.00517 0.99496 0.991225
1.00523 0.995679 0.990458
1.00533 0.997631 0.988493
1.00521 0.995794 0.990312
1.00531 0.99787 0.988189
1.00485 0.999424 0.987147
1.00529 0.998126 0.987893
1.0049 0.999831 0.986703
1.00258 1.00015 0.990225
1.00494 0.999986 0.986506
1.00262 1.0002 0.990094
1.00104 1.00001 0.99705
1.00277 1.0001 0.989973
1.00095 0.999955 0.995683
1.00064 0.999844 0.994555
1.00527 0.994946 0.990984
1.00529 0.995915 0.990072
1.00524 0.994964 0.991003
1.0053 0.998314 0.987628
1.00527 0.996122 0.989798
1.00523 0.995155 0.990738
1.00501 0.999545 0.986732
1.00531 0.998458 0.987465
1.00526 0.996528 0.989241
1.00271 0.999777 0.990269
1.00503 0.999613 0.986566
1.00533 0.998666 0.98723
1.00096 1.00024 0.997151
1.00267 0.999887 0.990225
1.00503 0.999679 0.986416
1.00079 1.00067 0.997082
1.00251 1.00038 0.990012
1.00056 1.00101 0.997041
1.00523 0.995724 0.990377
1.00522 0.994952 0.9911
1.00519 0.994932 0.991083
1.00531 0.997576 0.988572
1.00523 0.995678 0.990444
1.00518 0.994964 0.991205
1.00523 0.995671 0.99046
1.00533 0.997606 0.9885
1.0048 0.999277 0.987385
1.00532 0.998202 0.987847
1.00487 0.999542 0.987024
1.00253 1.00004 0.990415
1.00492 0.999818 0.986702
1.00255 1.00016 0.990233
1.00098 1.00002 0.997047
1.00261 1.00019 0.990098
1.00102 1.00002 0.997043
1.00104 0.999917 0.994044
1.00528 0.995901 0.990051
1.00528 0.994938 0.990941
1.00528 0.998105 0.987902
1.00528 0.995923 0.990083
1.00524 0.994933 0.991011
1.00494 0.999748 0.98673
1.0053 0.998323 0.987623
1.00527 0.996193 0.98973
1.00271 0.999852 0.990241
1.00498 0.999679 0.986644
1.00531 0.998726 0.987222
1.00108 0.999996 0.997112
1.00273 0.999772 0.990269
1.00501 0.999596 0.986581
1.00095 1.00029 0.997141
1.0027 0.999877 0.990228
1.0008 1.00067 0.99705
1.00528 0.997644 0.988518
1.00523 0.995735 0.990372
1.00522 0.994953 0.991087
1.00478 0.999213 0.987485
1.00532 0.997555 0.988577
1.00523 0.99567 0.990442
1.00533 0.997584 0.988507
1.00482 0.999267 0.987356
1.00244 0.999988 0.990618
1.00488 0.99966 0.9869
1.00251 1.00005 0.990422
1.00095 1.00002 0.997075
1.00255 1.00017 0.990241
1.00096 1.00004 0.997061
1.00101 1.00003 0.997042
1.00526 0.99792 0.988142
1.00527 0.995745 0.990263
1.0053 0.994928 0.990899
1.00487 0.999669 0.986945
1.00529 0.998112 0.987892
1.00527 0.995932 0.990095
1.00263 0.999972 0.990279
1.00491 0.999769 0.986726
1.0053 0.998331 0.987618
1.00109 0.999934 0.997061
1.00271 0.999868 0.990238
1.00495 0.999808 0.986556
1.00106 1.00004 0.997129
1.00275 0.999784 0.990268
1.00096 1.00029 0.997121
1.00479 0.999496 0.987245
1.00529 0.997492 0.988636
1.00523 0.995742 0.990366
1.0024 0.999914 0.990774
1.00479 0.999197 0.987476
1.00532 0.99753 0.988582
1.00484 0.999254 0.987328
1.00245 0.999962 0.990625
1.0009 1.00002 0.9971
1.00249 1.00006 0.99043
1.00093 1.00003 0.99708
1.00092 1.00006 0.997072
1.00481 0.999569 0.987143
1.00527 0.997729 0.988351
1.00526 0.995593 0.990474
1.00265 1.00001 0.991754
1.00484 0.999677 0.986946
1.00529 0.998121 0.987882
1.00103 0.99996 0.997048
1.00264 0.99999 0.990276
1.00489 0.99979 0.986722
1.00109 0.99996 0.997081
1.00272 0.999889 0.990234
1.00105 1.00006 0.997141
1.00249 0.999913 0.990677
1.00478 0.999361 0.987353
1.00529 0.997342 0.988753
1.00083 0.999986 0.997152
1.00239 0.999912 0.990769
1.0048 0.999185 0.987467
1.00244 0.999939 0.990628
1.00087 1.00001 0.997117
1.0009 1.00004 0.99709
1.00264 0.999962 0.991868
1.0048 0.999573 0.987142
1.00528 0.997532 0.988559
1.00051 1 0.997554
1.00254 1.00001 0.990431
1.00483 0.999683 0.986948
1.00104 0.999969 0.997058
1.00264 1.00001 0.990272
1.0011 0.99998 0.997099
1.00082 0.999957 0.994402
1.00251 0.999915 0.991356
1.00477 0.999224 0.987459
1.00085 0.999988 0.997157
1.0024 0.999914 0.990772
1.00089 0.999999 0.99713
1.00037 0.99999 0.994839
1.00255 0.99995 0.991249
1.00478 0.999581 0.987141
1.00071 0.99999 0.995897
1.00253 1.00001 0.990448
1.00106 0.999976 0.99707
1.00085 0.999975 0.997151
1.00239 0.999907 0.990777
1.00082 0.99999 0.997155
1.00062 0.999971 0.996001
1.00245 0.999943 0.990664
1.00097 0.999985 0.997077
1.00086 0.999975 0.997162
1.00088 0.999979 0.997127

TENSORS stress float
0.00204733 -0.000136049 0.000235008
-0.000136049 0.000932744 -3.7866e-05
0.000235008 -3.7866e-05 0.000907921
0.00636116 1.09607e-05 0.000257838
1.09607e-05 0.00361422 2.80778e-05
0.000257838 2.80778e-05 0.00361369
0.00174756 -6.78282e-05 0.000100856
-6.78282e-05 0.000747307 -1.51159e-05
0.000100856 -1.51159e-05 0.00071209
0.00210008 -7.8106e-05 0.000229344
-7.8106e-05 0.000940966 -2.21747e-05
0.000229344 -2.21747e-05 0.00092437
0.00210069 -0.000120366 0.000230081
-0.000120366 0.000955846 -3.33956e-05
0.000230081 -3.33956e-05 0.000934198
0.00199151 -0.000136676 0.000241912
-0.000136676 0.000899644 -3.90152e-05
0.000241912 -3.90152e-05 0.000875404
0.00174066 -0.000121766 4.41043e-05
-0.000121766 0.000657203 -1.23536e-05
4.41043e-05 -1.23536e-05 0.00055381
0.00628878 1.66079e-06 -7.01642e-06
1.66079e-06 0.00356003 -8.91943e-07
-7.01642e-06 -8.91943e-07 0.00356423
0.00620332 0.000176623 0.00012946
0.000176623 0.00349475 1.13809e-05
0.00012946 1.13809e-05 0.00347253
0.00608739 -7.74973e-05 6.35024e-05
-7.74973e-05 0.00342361 3.04544e-06
6.35024e-05 3.04544e-06 0.00340212
0.00179219 0.000174305 0.000243835
0.000174305 0.000769297 2.84118e-05
0.000243835 2.84118e-05 0.000764722
0.000534853 0.000240825 2.63142e-05
0.000240825 -5.85776e-05 1.84378e-05
2.63142e-05 1.84378e-05 -0.000179877
0.00174529 -3.45007e-05 0.000230153
-3.45007e-05 0.000717739 3.63446e-06
0.000230153 3.63446e-06 0.000716541
0.00141605 -1.02495e-06 5.59155e-05
-1.02495e-06 0.000537046 1.5507e-06
5.59155e-05 1.5507e-06 0.000493729
0.00149767 -6.67527e-05 -4.97517e-05
-6.67527e-05 0.000599857 8.72394e-06
-4.97517e-05 8.72394e-06 0.000551573
0.00175331 -7.90387e-05 7.61021e-05
-7.90387e-05 0.000742918 -4.53743e-06
7.61021e-05 -4.53743e-06 0.000710872
0.00175276 -5.40793e-05 0.000109248
-5.40793e-05 0.000757878 -1.58735e-05
0.000109248 -1.58735e-05 0.000718941
0.00175889 -7.79129e-05 8.98302e-05
-7.79129e-05 0.000746417 -1.18768e-05
8.98302e-05 -1.18768e-05 0.000714618
0.00179296 -0.000158295 -3.80236e-05
-0.000158295 0.000686015 5.11393e-06
-3.80236e-05 5.11393e-06 0.00059162
0.00594667 -0.000133695 0.000293589
-0.000133695 0.00334648 -1.15233e-05
0.000293589 -1.15233e-05 0.0033605
0.00204031 -5.66463e-05 0.000228406
-5.66463e-05 0.000903244 -1.65353e-05
0.000228406 -1.65353e-05 0.000888826
0.00212701 -0.000100577 0.000229467
-0.000100577 0.000962766 -2.80098e-05
0.000229467 -2.80098e-05 0.000944146
0.00170505 -0.000128495 6.49956e-05
-0.000128495 0.000622136 -9.83121e-06
6.49956e-05 -9.83121e-06 0.00053089
0.00173647 -0.000130084 5.36243e-05
-0.000130084 0.000642899 -1.17627e-05
5.36243e-05 -1.17627e-05 0.00054703
0.00192243 -0.000112641 0.000239571
-0.000112641 0.000849431 -3.55834e-05
0.000239571 -3.55834e-05 0.000828973
0.00172275 -0.000115023 3.62235e-05
-0.000115023 0.000665291 -1.31617e-05
3.62235e-05 -1.31617e-05 0.00055143
0.00206768 -0.000289752 1.62402e-05
-0.000289752 0.000667906 -7.01074e-06
1.62402e-05 -7.01074e-06 0.000478948
0.00628077 -1.27898e-05 -0.000256128
-1.27898e-05 0.00354569 -1.88082e-05
-0.000256128 -1.88082e-05 0.00355465
0.00401287 0.000134451 -0.000134705
0.000134451 0.00214018 -1.43344e-05
-0.000134705 -1.43344e-05 0.0021191
0.00389997 3.95198e-05 -0.000130554
3.95198e-05 0.0020839 -1.11241e-05
-0.000130554 -1.11241e-05 0.00206267
0.00620595 -6.76673e-05 -3.98442e-06
-6.76673e-05 0.00352112 -9.04818e-08
-3.98442e-06 -9.04818e-08 0.00352006
0.000491816 0.000221496 -1.53423e-06
0.000221496 -8.25347e-05 -9.97585e-07
-1.53423e-06 -9.97585e-07 -0.00020349
0.00177903 6.44872e-05 0.000235328
6.44872e-05 0.000742745 2.06638e-05
0.000235328 2.06638e-05 0.000729274
0.00191146 0.000150706 0.000240295
0.000150706 0.000856009 3.19659e-05
0.000240295 3.19659e-05 0.000832196
0.00276679 0.000200116 0.000144909
0.000200116 0.00127143 2.00718e-05
0.000144909 2.00718e-05 0.0011941
0.00546683 -0.00033595 -4.79984e-06
-0.00033595 0.00313775 6.66924e-06
-4.79984e-06 6.66924e-06 0.00307245
0.00288486 0.000269226 0.000147666
0.000269226 0.0013832 2.46569e-05
0.000147666 2.46569e-05 0.00129298
0.000473642 0.000202283 2.71746e-05
0.000202283 -9.33169e-05 2.36604e-05
2.71746e-05 2.36604e-05 -0.00021161
0.000859444 0.000222245 1.2151e-05
0.000222245 2.26893e-05 6.00555e-06
1.2151e-05 6.00555e-06 -0.00017552
0.00422297 -0.000105959 0.000157588
-0.000105959 0.00232729 1.16927e-05
0.000157588 1.16927e-05 0.00232812
0.00594932 7.87678e-05 3.53526e-06
7.87678e-05 0.00333565 -1.72056e-06
3.53526e-06 -1.72056e-06 0.00335632
0.00383712 8.31069e-05 -0.000112381
8.31069e-05 0.00202832 -4.77611e-06
-0.000112381 -4.77611e-06 0.00201633
0.00581142 5.85895e-05 0.000286599
5.85895e-05 0.00325343 3.94297e-06
0.000286599 3.94297e-06 0.00327455
0.00138362 8.51212e-05 5.87316e-05
8.51212e-05 0.000518087 3.77124e-06
5.87316e-05 3.77124e-06 0.000479553
0.00056397 1.0845e-05 1.56297e-05
1.0845e-05 -0.0001131 1.85959e-06
1.56297e-05 1.85959e-06 -0.00019502
0.00603448 0.000221387 0.000160991
0.000221387 0.00341549 1.51254e-05
0.000160991 1.51254e-05 0.00339086
0.00278675 7.1796e-05 0.00013728
7.1796e-05 0.00125273 8.61613e-06
0.00013728 8.61613e-06 0.00119624
0.00135783 -8.16045e-05 -6.98039e-05
-8.16045e-05 0.000515713 8.69388e-06
-6.98039e-05 8.69388e-06 0.000467445
0.00140406 -9.868e-05 -6.23777e-05
-9.868e-05 0.000546905 1.04112e-05
-6.23777e-05 1.04112e-05 0.000496478
0.00156879 -2.22787e-05 -3.79078e-05
-2.22787e-05 0.000645131 7.8713e-06
-3.79078e-05 7.8713e-06 0.000595758
0.0018263 -0.000161959 -0.000126807
-0.000161959 0.000699269 2.24787e-05
-0.000126807 2.24787e-05 0.0006149
0.00372549 -1.13459e-05 -0.000115177
-1.13459e-05 0.00196872 -1.85729e-06
-0.000115177 -1.85729e-06 0.00195574
0.00172632 -6.13205e-05 8.16694e-05
-6.13205e-05 0.00072218 -3.71753e-06
8.16694e-05 -3.71753e-06 0.000693666
0.00169955 -3.11571e-05 0.000112763
-3.11571e-05 0.000728177 -1.41303e-05
0.000112763 -1.41303e-05 0.000688355
0.00176378 -7.97195e-05 8.15356e-05
-7.97195e-05 0.00074719 -7.85124e-06
8.15356e-05 -7.85124e-06 0.000716011
0.00177345 -0.000107071 -3.0465e-05
-0.000107071 0.000654521 1.91665e-06
-3.0465e-05 1.91665e-06 0.00057358
0.00177525 -0.000157755 -4.39083e-05
-0.000157755 0.00068795 5.69693e-06
-4.39083e-05 5.69693e-06 0.000586852
0.0017913 -0.000148438 -3.26622e-05
-0.000148438 0.000675863 3.62248e-06
-3.26622e-05 3.62248e-06 0.000587047
0.00204641 -0.000288842 -8.98393e-06
-0.000288842 0.000650582 2.40517e-06
-8.98393e-06 2.40517e-06 0.000461871
0.0057854 1.56037e-05 0.000281338
1.56037e-05 0.00323613 -1.43469e-06
0.000281338 -1.43469e-06 0.00325828
0.00199424 -3.38976e-05 0.000226199
-3.38976e-05 0.000877282 -1.13271e-05
0.000226199 -1.13271e-05 0.000865942
0.00243864 -1.63741e-06 4.7876e-05
-1.63741e-06 0.0010622 -8.5628e-07
4.7876e-05 -8.5628e-07 0.000996195
0.00168219 -0.000104553 5.78679e-05
-0.000104553 0.000601532 -6.59872e-06
5.78679e-05 -6.59872e-06 0.000517304
0.00172228 -0.00013126 6.09843e-05
-0.00013126 0.000631385 -1.11653e-05
6.09843e-05 -1.11653e-05 0.000538335
0.00189046 -0.000185097 1.13537e-05
-0.000185097 0.000489957 -2.82144e-06
1.13537e-05 -2.82144e-06 0.000336767
0.00183159 -0.000249348 1.64557e-05
-0.000249348 0.000484719 -5.47293e-06
1.64557e-05 -5.47293e-06 0.000309885
0.00177273 -7.00443e-05 0.000218864
-7.00443e-05 0.000756395 -2.78294e-05
0.000218864 -2.78294e-05 0.000740498
0.00161354 -7.84066e-05 2.68946e-05
-7.84066e-05 0.000618104 -1.28385e-05
2.68946e-05 -1.28385e-05 0.000503229
0.00206989 -0.000311762 1.61346e-05
-0.000311762 0.000712016 -8.04998e-06
1.61346e-05 -8.04998e-06 0.000510808
0.00153823 -0.000357764 6.01654e-06
-0.000357764 0.000147742 -1.049e-06
6.01654e-06 -1.049e-06 -8.69515e-05
0.00652436 0.000234203 -0.000312099
0.000234203 0.00369409 -3.25943e-05
-0.000312099 -3.25943e-05 0.00369849
0.00606511 -9.27464e-05 -0.0002266
-9.27464e-05 0.00343569 -1.49819e-05
-0.0002266 -1.49819e-05 0.00343581
0.0063201 6.39772e-05 -0.000271744
6.39772e-05 0.00356103 -2.2997e-05
-0.000271744 -2.2997e-05 0.0035735
0.0004563 0.000215241 -2.50583e-05
0.000215241 -9.99049e-05 -1.88876e-05
-2.50583e-05 -1.88876e-05 -0.000223083
0.00647998 0.000220797 -2.52883e-06
0.000220797 0.00366325 -2.24692e-06
-2.52883e-06 -2.24692e-06 0.00367081
0.00652759 0.000177957 -8.95321e-06
0.000177957 0.00369079 -2.49732e-06
-8.95321e-06 -2.49732e-06 0.00369781
0.000406304 0.000128651 1.65258e-07
0.000128651 -0.000188656 -2.9647e-07
1.65258e-07 -2.9647e-07 -0.000294546
0.00341369 -0.000113198 -0.000102894
-0.000113198 0.00182538 -3.5172e-06
-0.000102894 -3.5172e-06 0.00179193
0.000414499 0.000201951 2.13659e-08
0.000201951 -0.000138109 -4.55224e-07
2.13659e-08 -4.55224e-07 -0.000258933
0.00170369 0.000206973 5.16716e-05
0.000206973 0.000669736 2.75295e-06
5.16716e-05 2.75295e-06 0.00057111
0.000844719 0.000218716 2.22178e-07
0.000218716 1.43947e-05 1.68493e-08
2.22178e-07 1.68493e-08 -0.000182091
0.00516736 -0.000125754 0.000190855
-0.000125754 0.00291655 1.7406e-05
0.000190855 1.7406e-05 0.00290862
0.000505501 3.0053e-05 1.12834e-05
3.0053e-05 -1.02067e-05 1.24399e-05
1.12834e-05 1.24399e-05 -7.38651e-05
0.000502234 9.83672e-05 1.5722e-05
9.83672e-05 -0.000149735 9.63192e-06
1.5722e-05 9.63192e-06 -0.000249828
0.000543194 0.000156789 2.05621e-05
0.000156789 -9.01838e-05 1.70332e-05
2.05621e-05 1.70332e-05 -0.000202993
0.00108347 0.000212061 1.48482e-05
0.000212061 7.00293e-07 5.29362e-06
1.48482e-05 5.29362e-06 -0.000180583
0.00289476 0.00016643 0.000128566
0.00016643 0.00142417 1.72919e-05
0.000128566 1.72919e-05 0.00135205
0.000918066 0.000229937 1.39504e-05
0.000229937 -2.02362e-06 6.57793e-06
1.39504e-05 6.57793e-06 -0.000196452
0.000942095 0.00023197 1.19042e-05
0.00023197 0.000141989 5.81825e-06
1.19042e-05 5.81825e-06 -6.27691e-05
0.00108852 0.000328678 1.70694e-06
0.000328678 7.77136e-05 -3.29126e-07
1.70694e-06 -3.29126e-07 -0.000179798
0.00326634 -0.000120024 9.62264e-05
-0.000120024 0.00172692 4.97865e-06
9.62264e-05 4.97865e-06 0.00172671
0.00383631 -0.000154858 1.81736e-05
-0.000154858 0.00209569 -3.12427e-07
1.81736e-05 -3.12427e-07 0.00208499
0.00631214 5.15249e-05 -0.000299331
5.15249e-05 0.00354688 -1.42403e-05
-0.000299331 -1.42403e-05 0.00356616
0.00603993 6.95711e-05 -0.000295858
6.95711e-05 0.00338778 -8.77778e-06
-0.000295858 -8.77778e-06 0.00340953
0.00590064 8.40493e-05 5.34146e-09
8.40493e-05 0.00331375 -3.53356e-06
5.34146e-09 -3.53356e-06 0.00333137
0.00373795 2.75762e-05 -0.000124479
2.75762e-05 0.00196614 -6.16246e-06
-0.000124479 -6.16246e-06 0.00195891
0.00162238 3.73939e-05 5.92445e-05
3.73939e-05 0.00054139 1.50167e-06
5.92445e-05 1.50167e-06 0.000475254
0.00398539 0.000138987 -0.00011493
0.000138987 0.00212449 -6.52275e-06
-0.00011493 -6.52275e-06 0.00210541
0.00167133 8.91831e-05 5.99219e-05
8.91831e-05 0.000568235 2.83149e-06
5.99219e-05 2.83149e-06 0.000493142
0.00586126 0.000127212 0.000289528
0.000127212 0.00329885 7.09444e-06
0.000289528 7.09444e-06 0.0033111
0.000475869 1.06555e-05 1.87494e-05
1.06555e-05 -0.000162362 8.8551e-07
1.87494e-05 8.8551e-07 -0.000241536
0.0027873 3.62996e-05 0.000136019
3.62996e-05 0.00125434 5.85039e-06
0.000136019 5.85039e-06 0.00120283
0.00109079 5.50452e-05 1.22669e-05
5.50452e-05 -2.29189e-05 9.53884e-07
1.22669e-05 9.53884e-07 -0.000153942
0.00271853 0.000115396 0.000141845
0.000115396 0.00121596 1.12584e-05
0.000141845 1.12584e-05 0.00115355
0.00114442 0.000125232 1.22022e-05
0.000125232 -1.8873e-06 2.09327e-06
1.22022e-05 2.09327e-06 -0.000150364
0.00177758 4.28467e-05 -0.000229413
4.28467e-05 0.00073733 2.54608e-06
-0.000229413 2.54608e-06 0.000737499
0.00137472 -1.2015e-05 -5.66268e-05
-1.2015e-05 0.000517874 2.42517e-06
-5.66268e-05 2.42517e-06 0.000474684
0.0015459 1.41738e-05 -2.95819e-05
1.41738e-05 0.000636386 7.72752e-06
-2.95819e-05 7.72752e-06 0.000585311
0.00136165 -9.56492e-05 -7.08104e-05
-9.56492e-05 0.00052047 1.05027e-05
-7.08104e-05 1.05027e-05 0.000471005
0.0018939 -8.64489e-05 -0.00012193
-8.64489e-05 0.000719126 1.11036e-05
-0.00012193 1.11036e-05 0.000648567
0.00187439 -0.000136758 -0.000123942
-0.000136758 0.000717434 1.89291e-05
-0.000123942 1.89291e-05 0.000639487
0.00178301 -0.000174378 -0.000129618
-0.000174378 0.000684445 2.4133e-05
-0.000129618 2.4133e-05 0.000594037
0.00201499 -0.000286869 -3.14142e-05
-0.000286869 0.000627354 1.07716e-05
-3.14142e-05 1.07716e-05 0.000439264
0.00589275 -9.96263e-05 2.27696e-06
-9.96263e-05 0.00331255 -1.79493e-06
2.27696e-06 -1.79493e-06 0.00332793
0.00165025 3.42978e-05 8.93505e-05
3.42978e-05 0.000669629 -4.16722e-06
8.93505e-05 -4.16722e-06 0.000648029
0.00114813 -8.05038e-06 -6.22398e-05
-8.05038e-06 0.000255536 1.70352e-06
-6.22398e-05 1.70352e-06 0.000187995
0.00175131 -6.88572e-05 -3.37527e-05
-6.88572e-05 0.000637474 2.52583e-06
-3.37527e-05 2.52583e-06 0.000561666
0.00404702 -8.95327e-06 0.000224426
-8.95327e-06 0.00218473 -1.18526e-05
0.000224426 -1.18526e-05 0.00217508
0.00229516 -0.00015787 -3.91994e-05
-0.00015787 0.00102306 2.73335e-06
-3.91994e-05 2.73335e-06 0.00092056
0.00178914 -0.000129706 -3.00886e-05
-0.000129706 0.000667939 2.50886e-06
-3.00886e-05 2.50886e-06 0.000583422
0.0019064 -0.000183254 -9.79916e-06
-0.000183254 0.000495832 1.7504e-06
-9.79916e-06 1.7504e-06 0.000344523
0.00202853 -0.000312124 -7.71246e-06
-0.000312124 0.000681687 2.29011e-06
-7.71246e-06 2.29011e-06 0.000479732
0.00193531 -0.000253964 -7.07077e-06
-0.000253964 0.000549861 1.85921e-06
-7.07077e-06 1.85921e-06 0.000374382
0.00157124 -0.000359396 5.81525e-07
-0.000359396 0.000169219 -1.86897e-07
5.81525e-07 -1.86897e-07 -6.49702e-05
0.000510539 1.09061e-05 1.94259e-05
1.09061e-05 -0.000144038 -8.11843e-07
1.94259e-05 -8.11843e-07 -0.000219955
0.00160988 2.35204e-06 4.88297e-05
2.35204e-06 0.000547689 -2.60409e-06
4.88297e-05 -2.60409e-06 0.000473761
0.00174906 -5.64368e-05 1.13767e-05
-5.64368e-05 0.000391752 -6.51083e-07
1.13767e-05 -6.51083e-07 0.000272708
0.00176577 -0.000143543 1.14096e-05
-0.000143543 0.000402614 -1.7922e-06
1.14096e-05 -1.7922e-06 0.000262401
0.00181015 -0.000215727 1.41799e-05
-0.000215727 0.000445931 -3.84408e-06
1.41799e-05 -3.84408e-06 0.000283902
0.00184965 -0.000254374 3.38828e-07
-0.000254374 0.000222477 -1.08915e-07
3.38828e-07 -1.08915e-07 5.4095e-05
0.00570176 0.000142527 0.000186683
0.000142527 0.00323976 -1.39334e-05
0.000186683 -1.39334e-05 0.00322668
0.00155854 -0.000329109 4.82772e-06
-0.000329109 0.000114501 -8.00714e-07
4.82772e-06 -8.00714e-07 -9.84399e-05
0.000320394 -0.000162032 2.07766e-05
-0.000162032 -0.00018984 -1.91156e-05
2.07766e-05 -1.91156e-05 -0.000293444
0.000880437 -0.000234196 1.2678e-05
-0.000234196 3.20686e-05 -8.54228e-06
1.2678e-05 -8.54228e-06 -0.000169704
0.00157984 -0.000395329 7.1149e-06
-0.000395329 0.000233615 -1.82938e-06
7.1149e-06 -1.82938e-06 -2.78267e-05
0.00180107 -0.000432716 2.96949e-06
-0.000432716 0.000195143 1.61239e-06
2.96949e-06 1.61239e-06 -3.73276e-05
0.000481493 -0.000118317 2.00855e-05
-0.000118317 -5.03491e-05 -1.56216e-05
2.00855e-05 -1.56216e-05 -0.000137845
0.000425591 -9.3858e-05 -8.36365e-07
-9.3858e-05 -2.54099e-05 -3.05189e-06
-8.36365e-07 -3.05189e-06 -0.000241535
0.00652994 0.000242495 -0.000322999
0.000242495 0.00369968 -3.167e-05
-0.000322999 -3.167e-05 0.00370413
0.0064451 0.000162157 -0.000293733
0.000162157 0.00363816 -2.87611e-05
-0.000293733 -2.87611e-05 0.00364864
0.000408809 0.000125476 -1.85559e-05
0.000125476 -0.000188875 -1.18703e-05
-1.85559e-05 -1.18703e-05 -0.000294947
0.00545861 -0.000164157 -0.000175707
-0.000164157 0.003095 -1.23786e-05
-0.000175707 -1.23786e-05 0.003081
0.000443082 0.000181557 -2.36066e-05
0.000181557 -0.000110897 -1.77848e-05
-2.36066e-05 -1.77848e-05 -0.000215153
0.000396021 0.000187667 -2.09148e-05
0.000187667 -0.000147259 -1.74409e-05
-2.09148e-05 -1.74409e-05 -0.000269259
0.000810716 0.000213041 -1.32377e-05
0.000213041 -4.3597e-06 -6.39995e-06
-1.32377e-05 -6.39995e-06 -0.000198748
0.004826 -0.000138836 8.10241e-06
-0.000138836 0.00270674 -2.63676e-07
8.10241e-06 -2.63676e-07 0.00269843
0.000516813 1.68795e-05 1.33175e-06
1.68795e-05 1.63742e-06 4.96812e-07
1.33175e-06 4.96812e-07 -5.88685e-05
0.00167247 0.000136855 6.16436e-05
0.000136855 0.000576846 5.04866e-06
6.16436e-05 5.04866e-06 0.000490429
0.00163975 0.000195427 6.11544e-05
0.000195427 0.00059289 5.39315e-06
6.11544e-05 5.39315e-06 0.000492872
0.00104821 0.000210412 6.97481e-08
0.000210412 -1.4851e-05 -2.7696e-07
6.97481e-08 -2.7696e-07 -0.000196665
0.000483566 0.000150204 -1.21558e-07
0.000150204 -6.78014e-05 -2.56248e-07
-1.21558e-07 -2.56248e-07 -0.000158787
0.000916832 0.000226779 7.59876e-07
0.000226779 4.41236e-06 6.67534e-08
7.59876e-07 6.67534e-08 -0.000189014
0.00079852 0.000215297 1.99624e-07
0.000215297 5.12985e-05 -9.07676e-07
1.99624e-07 -9.07676e-07 -0.000149114
0.00122949 0.00034794 3.44062e-07
0.00034794 0.000158896 -2.48676e-07
3.44062e-07 -2.48676e-07 -0.000101826
0.000443667 0.000101119 1.76037e-05
0.000101119 -5.90054e-05 1.48667e-05
1.76037e-05 1.48667e-05 -0.000141347
0.000604323 -1.7604e-05 4.91206e-06
-1.7604e-05 5.46943e-05 1.03415e-05
4.91206e-06 1.03415e-05 8.36865e-06
0.00125594 0.000143996 4.02712e-06
0.000143996 0.000480544 6.15718e-06
4.02712e-06 6.15718e-06 0.000296655
0.00113175 0.000188227 1.39306e-05
0.000188227 2.90474e-06 4.07616e-06
1.39306e-05 4.07616e-06 -0.000168347
0.00101801 0.000228595 1.49026e-05
0.000228595 2.725e-06 6.21958e-06
1.49026e-05 6.21958e-06 -0.000186917
0.0017121 0.000353012 4.36578e-06
0.000353012 0.000188402 3.28568e-07
4.36578e-06 3.28568e-07 -3.00618e-05
0.000790463 0.000220936 9.2384e-06
0.000220936 0.000115129 6.53798e-06
9.2384e-06 6.53798e-06 -8.71225e-05
0.00152527 0.000390712 3.65724e-06
0.000390712 0.000240561 1.26344e-08
3.65724e-06 1.26344e-08 -1.54849e-05
0.00109009 0.000316012 3.06121e-06
0.000316012 0.000142221 7.19902e-07
3.06121e-06 7.19902e-07 -0.000120921
0.00144055 0.000436306 -5.90699e-06
0.000436306 0.000202764 -3.22325e-06
-5.90699e-06 -3.22325e-06 -8.34675e-05
0.00286778 -0.000127851 5.54174e-05
-0.000127851 0.00147426 3.40679e-06
5.54174e-05 3.40679e-06 0.00147213
0.00318252 -0.000151166 1.24174e-05
-0.000151166 0.0016803 -8.42266e-07
1.24174e-05 -8.42266e-07 0.00167156
0.00355815 -0.000181174 -7.15869e-05
-0.000181174 0.00192775 -4.34378e-06
-7.15869e-05 -4.34378e-06 0.00190965
0.000427695 -8.93679e-05 1.60496e-05
-8.93679e-05 -6.59136e-05 -1.3794e-05
1.60496e-05 -1.3794e-05 -0.000138434
0.00507958 0.000183356 0.000146889
0.000183356 0.00288575 -1.50109e-05
0.000146889 -1.50109e-05 0.00286024
0.00647325 0.000207944 -0.00032317
0.000207944 0.00366017 -2.65851e-05
-0.00032317 -2.65851e-05 0.00366984
0.00611482 8.77515e-05 -0.000296422
8.77515e-05 0.003431 -1.22669e-05
-0.000296422 -1.22669e-05 0.00345134
0.000483178 9.64842e-05 -1.96808e-05
9.64842e-05 -0.000163723 -5.43579e-06
-1.96808e-05 -5.43579e-06 -0.000253755
0.000472816 4.31053e-05 -1.92817e-05
4.31053e-05 -0.000164526 -2.71272e-06
-1.92817e-05 -2.71272e-06 -0.000247225
0.0058448 -7.85737e-06 -0.000283549
-7.85737e-06 0.00327015 -2.29107e-06
-0.000283549 -2.29107e-06 0.00329282
0.00579787 9.50958e-06 -2.07607e-07
9.50958e-06 0.00324261 -8.76579e-07
-2.07607e-07 -8.76579e-07 0.00326527
0.000457572 7.93545e-07 -1.13952e-07
7.93545e-07 -0.000176354 1.06854e-07
-1.13952e-07 1.06854e-07 -0.00025369
0.0016112 3.80454e-05 5.97363e-05
3.80454e-05 0.000529894 2.52692e-06
5.97363e-05 2.52692e-06 0.000461998
0.00104964 5.83594e-05 -9.29797e-08
5.83594e-05 -4.98861e-05 -1.30348e-07
-9.29797e-08 -1.30348e-07 -0.000181634
0.000445768 8.20357e-05 -4.13532e-07
8.20357e-05 -0.000185189 -3.84152e-07
-4.13532e-07 -3.84152e-07 -0.000280973
0.00108055 0.000125974 -2.24693e-07
0.000125974 -4.13356e-05 -1.30442e-07
-2.24693e-07 -1.30442e-07 -0.000190864
0.000450588 -3.10082e-05 1.93102e-05
-3.10082e-05 -0.000182197 -7.34185e-07
1.93102e-05 -7.34185e-07 -0.000257088
0.00105105 2.33625e-05 1.19636e-05
2.33625e-05 -3.92842e-05 4.96305e-07
1.19636e-05 4.96305e-07 -0.000166351
0.00109596 8.97782e-05 1.19901e-05
8.97782e-05 -2.60307e-05 1.61449e-06
1.19901e-05 1.61449e-06 -0.000164516
0.00172039 9.39017e-05 -8.36789e-07
9.39017e-05 8.17849e-05 -3.05096e-07
-8.36789e-07 -3.05096e-07 -3.33144e-05
0.00115296 0.0001579 1.29317e-05
0.0001579 3.89582e-06 2.89444e-06
1.29317e-05 2.89444e-06 -0.00015589
0.00177404 0.00020736 6.77837e-07
0.00020736 0.000110815 -6.77191e-07
6.77837e-07 -6.77191e-07 -3.38391e-05
0.00581547 -6.05839e-05 -0.000288633
-6.05839e-05 0.00325912 2.27853e-06
-0.000288633 2.27853e-06 0.00327853
0.00132581 -0.000151655 -5.82175e-05
-0.000151655 0.000500041 6.74548e-06
-5.82175e-05 6.74548e-06 0.000453579
-0.00025924 -5.01523e-06 -1.23808e-05
-5.01523e-06 -0.00060929 1.84272e-06
-1.23808e-05 1.84272e-06 -0.000700713
0.00185965 -6.12059e-05 -0.000120826
-6.12059e-05 0.000697845 7.8736e-06
-0.000120826 7.8736e-06 0.000630595
0.00606489 0.000302176 -1.3772e-05
0.000302176 0.00347875 4.80248e-06
-1.3772e-05 4.80248e-06 0.00342065
0.00294679 -0.000243813 -0.000132458
-0.000243813 0.00141888 2.50247e-05
-0.000132458 2.50247e-05 0.00132184
0.00189835 -0.000111467 -0.000122804
-0.000111467 0.00072461 1.49311e-05
-0.000122804 1.49311e-05 0.000651091
0.00189682 -0.000180015 -2.95887e-05
-0.000180015 0.000485791 5.41792e-06
-2.95887e-05 5.41792e-06 0.000336637
0.00201541 -0.000256874 -3.03082e-05
-0.000256874 0.000599859 9.16137e-06
-3.03082e-05 9.16137e-06 0.000424182
0.00200896 -0.00031366 -2.91028e-05
-0.00031366 0.000665689 1.15947e-05
-2.91028e-05 1.15947e-05 0.000462816
0.00160605 -0.000361148 -4.54704e-06
-0.000361148 0.000191962 7.25897e-07
-4.54704e-06 7.25897e-07 -4.17491e-05
0.000453048 5.42731e-06 -1.78583e-08
5.42731e-06 -0.000177505 2.28039e-07
-1.78583e-08 2.28039e-07 -0.000254413
0.00174168 -8.09915e-05 -3.28038e-05
-8.09915e-05 0.000633529 3.76613e-07
-3.28038e-05 3.76613e-07 0.000561474
0.00137743 -5.19986e-05 -9.5939e-06
-5.19986e-05 0.000163371 5.33776e-07
-9.5939e-06 5.33776e-07 3.9953e-05
0.00186453 -0.000144351 -7.89574e-06
-0.000144351 0.000463654 1.25321e-06
-7.89574e-06 1.25321e-06 0.000323019
0.0059612 0.000141596 5.45858e-06
0.000141596 0.00340321 9.27557e-07
5.45858e-06 9.27557e-07 0.00338793
0.00166137 -0.000158095 2.41037e-06
-0.000158095 0.000651791 5.51846e-07
2.41037e-06 5.51846e-07 0.000537911
0.00134684 -0.000267414 1.27013e-06
-0.000267414 0.000322682 -1.08006e-06
1.27013e-06 -1.08006e-06 0.000118092
0.00185089 -0.000217774 -7.99574e-06
-0.000217774 0.000470753 1.96708e-06
-7.99574e-06 1.96708e-06 0.00030827
0.00182628 -0.000256366 -1.17935e-06
-0.000256366 0.000203472 9.46885e-08
-1.17935e-06 9.46885e-08 3.89164e-05
0.00157211 -0.000393749 1.00584e-06
-0.000393749 0.000233195 -2.74829e-07
1.00584e-06 -2.74829e-07 -2.6928e-05
0.0017033 -0.000335334 5.55111e-07
-0.000335334 0.000206082 -1.70699e-07
5.55111e-07 -1.70699e-07 -6.63635e-06
0.0018425 -0.000434148 7.14574e-07
-0.000434148 0.000224831 8.45608e-08
7.14574e-07 8.45608e-08 -7.31099e-06
0.000511463 -0.000123066 1.11708e-06
-0.000123066 -3.30683e-05 6.08577e-07
1.11708e-06 6.08577e-07 -0.000124046
0.000704507 -0.000126186 1.71558e-07
-0.000126186 0.000130344 -7.56321e-09
1.71558e-07 -7.56321e-09 -7.65636e-05
0.00103735 -2.57975e-05 1.203e-05
-2.57975e-05 -4.00095e-05 -6.91815e-07
1.203e-05 -6.91815e-07 -0.000167408
0.00182672 -9.6267e-05 1.02889e-05
-9.6267e-05 0.00044113 -1.15413e-06
1.02889e-05 -1.15413e-06 0.000313961
0.00174303 -9.35841e-05 -7.56879e-07
-9.35841e-05 0.0001214 2.28431e-07
-7.56879e-07 2.28431e-07 1.13849e-06
0.00177259 -0.000204601 3.0091e-07
-0.000204601 0.000150634 1.0306e-06
3.0091e-07 1.0306e-06 8.95585e-06
0.0017599 -0.000303322 1.53113e-06
-0.000303322 0.000200093 1.81735e-07
1.53113e-06 1.81735e-07 1.29532e-05
0.00196414 -0.000299507 1.01935e-06
-0.000299507 0.000165459 3.27321e-07
1.01935e-06 3.27321e-07 2.48126e-05
0.00044898 -0.000147317 1.98836e-05
-0.000147317 -8.75143e-05 -1.83996e-05
1.98836e-05 -1.83996e-05 -0.000187717
0.00186571 -0.000397451 1.23235e-06
-0.000397451 0.000189011 1.38462e-06
1.23235e-06 1.38462e-06 -9.31961e-06
0.000605328 -0.000211259 8.91851e-06
-0.000211259 -6.7318e-05 -7.30624e-06
8.91851e-06 -7.30624e-06 -0.000268015
0.00128274 -0.000390806 9.63001e-06
-0.000390806 0.000145664 -2.78212e-06
9.63001e-06 -2.78212e-06 -0.000134768
0.00197776 -0.000489794 2.84281e-06
-0.000489794 0.000366266 8.44603e-07
2.84281e-06 8.44603e-07 8.96639e-05
0.00215366 -0.000471602 -2.18866e-06
-0.000471602 0.000363533 3.89981e-06
-2.18866e-06 3.89981e-06 0.000156703
0.000695323 -0.000198413 1.61684e-06
-0.000198413 0.000111633 -5.05954e-06
1.61684e-06 -5.05954e-06 -0.000123501
0.000613839 -8.96219e-05 -3.81382e-07
-8.96219e-05 7.24845e-05 -4.46354e-06
-3.81382e-07 -4.46354e-06 -8.74089e-05
0.00108494 -0.000256426 -1.91979e-06
-0.000256426 0.000379189 1.41524e-07
-1.91979e-06 1.41524e-07 9.52314e-05
0.000437244 0.000104456 -1.79746e-05
0.000104456 -0.000184731 -9.06854e-06
-1.79746e-05 -9.06854e-06 -0.000285884
0.00444021 -0.000198029 -0.000113678
-0.000198029 0.00248781 -9.1538e-06
-0.000113678 -9.1538e-06 0.00246389
0.000445998 2.77936e-06 -6.05765e-06
2.77936e-06 -3.65028e-05 -1.18922e-05
-6.05765e-06 -1.18922e-05 -9.47179e-05
0.000394722 0.000156438 -1.98673e-05
0.000156438 -0.000174164 -1.49312e-05
-1.98673e-05 -1.49312e-05 -0.00028802
0.00101424 0.000209072 -1.54596e-05
0.000209072 -2.97542e-05 -5.85686e-06
-1.54596e-05 -5.85686e-06 -0.000212116
0.000496397 0.000140632 -2.25312e-05
0.000140632 -6.16965e-05 -1.65316e-05
-2.25312e-05 -1.65316e-05 -0.000150111
0.000562792 0.000194845 -9.52353e-06
0.000194845 -9.41405e-05 -7.29724e-06
-9.52353e-06 -7.29724e-06 -0.000290516
0.000930913 0.000225106 -1.4063e-05
0.000225106 1.98217e-05 -6.89772e-06
-1.4063e-05 -6.89772e-06 -0.000172871
0.00132482 0.000364224 -3.77774e-06
0.000364224 0.000209467 -7.86732e-07
-3.77774e-06 -7.86732e-07 -5.42337e-05
0.000540548 8.94441e-05 1.09674e-06
8.94441e-05 -2.59872e-06 1.0541e-06
1.09674e-06 1.0541e-06 -8.04305e-05
0.000427116 -3.72785e-05 1.14198e-07
-3.72785e-05 -4.55335e-05 4.78199e-07
1.14198e-07 4.78199e-07 -9.47093e-05
0.000628934 8.69905e-05 1.76203e-06
8.69905e-05 8.12036e-05 -2.48635e-07
1.76203e-06 -2.48635e-07 -8.55935e-05
0.0010873 0.000187474 -1.32192e-07
0.000187474 -1.99604e-05 -2.9681e-07
-1.32192e-07 -2.9681e-07 -0.000192121
0.00099218 0.000225369 3.12022e-07
0.000225369 -5.55848e-06 -1.89342e-07
3.12022e-07 -1.89342e-07 -0.000194883
0.00169197 0.000351924 -8.29371e-08
0.000351924 0.000174607 -1.00854e-07
-8.29371e-08 -1.00854e-07 -4.42124e-05
0.000752816 0.000214396 -8.02066e-07
0.000214396 8.92398e-05 2.13764e-08
-8.02066e-07 2.13764e-08 -0.000111446
0.00153482 0.00038998 -8.70906e-08
0.00038998 0.000240947 -2.13271e-07
-8.70906e-08 -2.13271e-07 -1.57419e-05
0.00107857 0.000313877 7.80887e-07
0.000313877 0.000137735 -9.14703e-07
7.80887e-07 -9.14703e-07 -0.000124039
0.00141217 0.000446822 -4.37589e-07
0.000446822 0.000169997 1.06975e-06
-4.37589e-07 1.06975e-06 -0.000118102
0.000538016 -4.10546e-05 2.87181e-07
-4.10546e-05 1.55537e-05 8.32184e-06
2.87181e-07 8.32184e-06 -2.24662e-05
0.000983906 0.000159531 5.51683e-06
0.000159531 0.00028446 5.00517e-06
5.51683e-06 5.00517e-06 8.55823e-05
0.000819501 5.19082e-05 1.86035e-06
5.19082e-05 0.000184565 5.80304e-06
1.86035e-06 5.80304e-06 6.26041e-05
0.000906686 0.000138936 1.72087e-06
0.000138936 0.000292912 -1.15401e-07
1.72087e-06 -1.15401e-07 4.25136e-05
0.00176891 0.00031445 2.31775e-06
0.00031445 0.000166708 -9.1331e-07
2.31775e-06 -9.1331e-07 -2.62936e-05
0.00161649 0.00037986 4.81207e-06
0.00037986 0.000203842 6.44711e-07
4.81207e-06 6.44711e-07 -3.76546e-05
0.00196614 0.000425886 1.10616e-06
0.000425886 0.000239902 -7.07212e-07
1.10616e-06 -7.07212e-07 2.51238e-05
0.000850864 0.000253052 4.39907e-06
0.000253052 4.7275e-05 3.10716e-06
4.39907e-06 3.10716e-06 -0.000187307
0.00206417 0.000524885 -2.17189e-06
0.000524885 0.000450557 -1.25361e-06
-2.17189e-06 -1.25361e-06 0.000171514
0.00156716 0.000446391 -3.22479e-06
0.000446391 0.000367427 -3.53296e-06
-3.22479e-06 -3.53296e-06 5.04033e-05
0.00169063 0.000496877 -3.58913e-07
0.000496877 0.000241315 -9.97849e-07
-3.58913e-07 -9.97849e-07 -4.66649e-05
0.000570121 3.27469e-05 2.48609e-06
3.27469e-05 3.62885e-05 3.30886e-06
2.48609e-06 3.30886e-06 -2.78345e-05
0.000489784 -3.12677e-05 1.00854e-06
-3.12677e-05 -3.39922e-05 6.16137e-06
1.00854e-06 6.16137e-06 -5.90113e-05
0.00263928 -0.000119104 3.54883e-05
-0.000119104 0.00132498 3.68677e-06
3.54883e-05 3.68677e-06 0.00132523
0.00278498 -0.000137861 6.51368e-06
-0.000137861 0.00142508 -6.80944e-07
6.51368e-06 -6.80944e-07 0.00142001
0.00303497 -0.000162666 -4.52042e-05
-0.000162666 0.0015913 -3.45581e-06
-4.52042e-05 -3.45581e-06 0.00157885
0.00040695 -6.20287e-05 1.10039e-05
-6.20287e-05 -6.80178e-05 -1.20227e-05
1.10039e-05 -1.20227e-05 -0.000129179
0.00445212 0.00016091 0.000124574
0.00016091 0.00248746 -1.14217e-05
0.000124574 -1.14217e-05 0.00247039
0.000501522 -8.89605e-05 -5.47871e-07
-8.89605e-05 -2.21083e-05 3.3346e-07
-5.47871e-07 3.3346e-07 -9.9724e-05
0.00529729 0.000145417 -2.90987e-06
0.000145417 0.00300245 -3.61003e-07
-2.90987e-06 -3.61003e-07 0.00298717
0.000479351 0.000107698 -1.93204e-05
0.000107698 -0.000162312 -7.239e-06
-1.93204e-05 -7.239e-06 -0.000259987
0.000488409 3.43568e-05 -1.83138e-05
3.43568e-05 -0.000161173 -3.51865e-06
-1.83138e-05 -3.51865e-06 -0.000245403
0.00104158 0.000126763 -1.21305e-05
0.000126763 -6.70471e-05 -2.32308e-06
-1.21305e-05 -2.32308e-06 -0.000217472
0.00101129 6.03753e-05 -1.19956e-05
6.03753e-05 -7.49942e-05 -1.12812e-06
-1.19956e-05 -1.12812e-06 -0.000207293
0.000511362 -7.74855e-06 -1.94198e-05
-7.74855e-06 -0.000146582 -8.73156e-07
-1.94198e-05 -8.73156e-07 -0.000222039
0.00588949 -9.84528e-05 -0.000295272
-9.84528e-05 0.00330972 4.93474e-06
-0.000295272 4.93474e-06 0.00332667
0.000498212 -1.89617e-06 7.67634e-08
-1.89617e-06 -0.000153717 -6.45109e-07
7.67634e-08 -6.45109e-07 -0.000228595
0.00103255 2.85658e-05 -8.64628e-08
2.85658e-05 -5.17913e-05 1.66422e-08
-8.64628e-08 1.66422e-08 -0.000179269
0.00107172 9.15773e-05 -1.83128e-07
9.15773e-05 -4.30789e-05 -5.82443e-08
-1.83128e-07 -5.82443e-08 -0.000182298
0.00170106 9.22187e-05 -4.68025e-08
9.22187e-05 7.25362e-05 9.31488e-08
-4.68025e-08 9.31488e-08 -4.26672e-05
0.00110043 0.000158836 -3.00987e-07
0.000158836 -2.69788e-05 -2.62954e-07
-3.00987e-07 -2.62954e-07 -0.000188056
0.0017582 0.000206522 -1.76829e-07
0.000206522 0.000101208 8.37939e-08
-1.76829e-07 8.37939e-08 -4.38155e-05
0.00102221 -3.00491e-06 1.19269e-05
-3.00491e-06 -5.04582e-05 -2.24971e-07
1.19269e-05 -2.24971e-07 -0.000176897
0.00168275 4.40677e-05 -2.71438e-07
4.40677e-05 6.1803e-05 -9.31052e-08
-2.71438e-07 -9.31052e-08 -4.69818e-05
0.00172672 0.000147313 -8.14155e-07
0.000147313 8.38853e-05 -4.0152e-07
-8.14155e-07 -4.0152e-07 -4.27854e-05
0.00189111 0.000120795 1.79351e-06
0.000120795 4.43067e-05 7.38501e-08
1.79351e-06 7.38501e-08 -2.40846e-05
0.00180668 0.000267306 1.79234e-06
0.000267306 0.000145371 -6.53948e-07
1.79234e-06 -6.53948e-07 -2.26609e-05
0.00198687 0.000246318 2.07778e-06
0.000246318 0.0001203 -1.42236e-06
2.07778e-06 -1.42236e-06 6.7877e-06
0.000484153 -1.88806e-06 -1.85745e-05
-1.88806e-06 -0.000155438 8.98438e-07
-1.85745e-05 8.98438e-07 -0.000234502
0.00183509 -3.71893e-05 -0.000119523
-3.71893e-05 0.000682833 5.24978e-06
-0.000119523 5.24978e-06 0.000619885
0.000968659 -4.65368e-05 -1.67493e-05
-4.65368e-05 -8.73417e-05 1.63119e-06
-1.67493e-05 1.63119e-06 -0.000215486
0.00194172 -0.000144105 -2.71526e-05
-0.000144105 0.000510846 4.08262e-06
-2.71526e-05 4.08262e-06 0.000369942
0.00615247 0.000123726 -0.000217751
0.000123726 0.00351618 2.07775e-05
-0.000217751 2.07775e-05 0.00350258
0.00300992 -0.000227898 -0.000138991
-0.000227898 0.00147443 2.03953e-05
-0.000138991 2.03953e-05 0.00138765
0.00203181 -0.00032039 -2.44634e-05
-0.00032039 0.000743963 1.06111e-05
-2.44634e-05 1.06111e-05 0.000533062
0.00186915 -0.000218165 -2.9567e-05
-0.000218165 0.000481316 7.32009e-06
-2.9567e-05 7.32009e-06 0.000318761
0.00179861 -0.000258288 -3.44546e-06
-0.000258288 0.00018109 -1.49107e-07
-3.44546e-06 -1.49107e-07 2.03651e-05
0.00184792 -0.000341545 -4.49362e-06
-0.000341545 0.000298212 1.00183e-06
-4.49362e-06 1.00183e-06 8.57088e-05
0.00156058 -0.00039201 -6.11315e-06
-0.00039201 0.000229574 1.00135e-06
-6.11315e-06 1.00135e-06 -2.91762e-05
0.00188364 -0.000435974 -1.11528e-06
-0.000435974 0.000253082 -1.58625e-06
-1.11528e-06 -1.58625e-06 2.11579e-05
0.000456364 -0.000132922 -1.82681e-05
-0.000132922 -6.23782e-05 1.69654e-05
-1.82681e-05 1.69654e-05 -0.000159163
0.000808398 -0.000161066 -6.88989e-07
-0.000161066 0.000191012 2.89728e-06
-6.88989e-07 2.89728e-06 -1.52392e-05
0.000985709 -2.0587e-05 5.5612e-08
-2.0587e-05 -7.39609e-05 -2.71409e-08
5.5612e-08 -2.71409e-08 -0.00019975
0.00182252 -9.67208e-05 -8.23339e-06
-9.67208e-05 0.000436844 9.82768e-07
-8.23339e-06 9.82768e-07 0.000309872
0.00180836 -9.04026e-05 -4.19647e-07
-9.04026e-05 0.000160364 7.58237e-08
-4.19647e-07 7.58237e-08 4.49837e-05
0.00175331 -0.000203673 -1.90538e-06
-0.000203673 0.000142454 6.46591e-07
-1.90538e-06 6.46591e-07 -4.10517e-06
0.000459286 -0.000166239 2.25289e-07
-0.000166239 -8.32369e-05 9.97677e-08
2.25289e-07 9.97677e-08 -0.000184338
0.000793707 -0.000221486 -1.90478e-07
-0.000221486 4.36617e-05 6.98632e-08
-1.90478e-07 6.98632e-08 -0.000158755
0.00127174 -0.000388822 1.69452e-06
-0.000388822 0.000141865 -5.54865e-07
1.69452e-06 -5.54865e-07 -0.000138643
0.00179084 -0.000302896 -3.16918e-06
-0.000302896 0.000219943 8.76328e-07
-3.16918e-06 8.76328e-07 3.0604e-05
0.00201246 -0.00030428 1.92617e-06
-0.00030428 0.000187861 -6.89679e-07
1.92617e-06 -6.89679e-07 5.19622e-05
0.00202749 -0.000498521 -8.72916e-07
-0.000498521 0.000394834 -3.69166e-07
-8.72916e-07 -3.69166e-07 0.0001183
0.00188942 -0.000399136 5.33199e-07
-0.000399136 0.000203684 -6.14589e-08
5.33199e-07 -6.14589e-08 5.20348e-06
0.00202279 -0.000465207 8.7841e-07
-0.000465207 0.000276602 7.37192e-07
8.7841e-07 7.37192e-07 7.00242e-05
0.000679859 -0.000190851 2.42871e-07
-0.000190851 0.000100964 -2.63184e-07
2.42871e-07 -2.63184e-07 -0.000129456
0.000328588 -0.000157928 -8.45957e-07
-0.000157928 -0.000108052 -4.83979e-07
-8.45957e-07 -4.83979e-07 -0.000369611
0.00069105 -0.000111048 7.23777e-07
-0.000111048 0.000123032 5.85474e-08
7.23777e-07 5.85474e-08 -4.56207e-05
0.00174467 -4.13891e-05 -8.43392e-07
-4.13891e-05 0.000118808 1.13289e-07
-8.43392e-07 1.13289e-07 5.71618e-06
0.00186498 -0.000143384 -2.44089e-06
-0.000143384 0.000201239 1.02642e-06
-2.44089e-06 1.02642e-06 7.75003e-05
0.00184797 -0.000112789 3.42333e-06
-0.000112789 2.69444e-05 -9.72305e-08
3.42333e-06 -9.72305e-08 -5.08725e-05
0.00187421 -0.000242308 -6.07855e-07
-0.000242308 7.52639e-05 1.28672e-06
-6.07855e-07 1.28672e-06 -3.60892e-05
0.00178239 -0.000355516 -5.52809e-07
-0.000355516 8.88106e-05 2.21758e-06
-5.52809e-07 2.21758e-06 -7.62933e-05
0.00210508 -0.000329457 2.89524e-06
-0.000329457 0.000202796 -6.93056e-07
2.89524e-06 -6.93056e-07 9.23287e-05
0.000622217 -0.000220475 5.14954e-06
-0.000220475 1.82097e-06 -7.08426e-06
5.14954e-06 -7.08426e-06 -0.000208098
0.0018801 -0.000427949 -1.53044e-06
-0.000427949 0.000136206 1.70654e-06
-1.53044e-06 1.70654e-06 -3.73902e-05
0.00130101 -0.000360897 6.83135e-06
-0.000360897 0.000271993 -5.40948e-06
6.83135e-06 -5.40948e-06 -3.56401e-06
0.00169329 -0.000538708 5.42738e-06
-0.000538708 0.000290557 5.66927e-07
5.42738e-06 5.66927e-07 -4.0295e-05
0.00210905 -0.000530635 2.47385e-06
-0.000530635 0.0003902 3.76901e-06
2.47385e-06 3.76901e-06 0.000124837
0.00220716 -0.000490978 -2.71169e-06
-0.000490978 0.000392381 2.48901e-06
-2.71169e-06 2.48901e-06 0.000199346
0.000629318 -7.69866e-05 -6.75545e-07
-7.69866e-05 9.73216e-05 -5.6456e-06
-6.75545e-07 -5.6456e-06 -3.85238e-05
0.000991686 -0.000262895 1.16669e-06
-0.000262895 0.000201647 -1.36857e-06
1.16669e-06 -1.36857e-06 -3.41069e-05
0.00024148 -0.000141788 -1.27056e-06
-0.000141788 -7.84396e-05 9.89355e-07
-1.27056e-06 9.89355e-07 -0.000358734
0.00182603 -0.000354326 -3.67932e-06
-0.000354326 0.000744845 9.66146e-07
-3.67932e-06 9.66146e-07 0.000463317
0.00104009 0.000186855 -1.45515e-05
0.000186855 -4.47238e-05 -4.61966e-06
-1.45515e-05 -4.61966e-06 -0.000217807
0.000401395 -5.42629e-05 3.51101e-06
-5.42629e-05 -5.16342e-05 -1.07486e-05
3.51101e-06 -1.07486e-05 -0.000105178
0.000427496 7.01011e-05 -1.60279e-05
7.01011e-05 -7.09182e-05 -1.36929e-05
-1.60279e-05 -1.36929e-05 -0.000143283
9.03719e-05 5.36817e-05 -1.25679e-06
5.36817e-05 -0.000240855 -5.93573e-06
-1.25679e-06 -5.93573e-06 -0.000404711
0.000962072 0.000222155 -1.51763e-05
0.000222155 -1.63882e-05 -6.71424e-06
-1.51763e-05 -6.71424e-06 -0.000205434
0.0016754 0.000350988 -4.33517e-06
0.000350988 0.000163017 -3.24618e-07
-4.33517e-06 -3.24618e-07 -5.61523e-05
0.000605107 0.0001988 -6.42957e-06
0.0001988 -5.1561e-06 -4.96763e-06
-6.42957e-06 -4.96763e-06 -0.000201732
0.00137467 0.000339826 -5.31575e-06
0.000339826 0.000325186 -4.0209e-06
-5.31575e-06 -4.0209e-06 6.01693e-05
0.00154423 0.000389045 -3.87141e-06
0.000389045 0.000242311 -4.49558e-07
-3.87141e-06 -4.49558e-07 -1.49813e-05
0.00136912 0.00045344 2.18349e-06
0.00045344 0.000133017 3.63215e-06
2.18349e-06 3.63215e-06 -0.000155781
0.000456302 -5.07707e-05 -2.99547e-06
-5.07707e-05 -2.97778e-05 8.60841e-07
-2.99547e-06 8.60841e-07 -7.01271e-05
0.000674639 0.000175865 -3.28802e-07
0.000175865 0.000107921 -8.25818e-07
-3.28802e-07 -8.25818e-07 -9.81318e-05
0.000630954 2.95716e-05 3.73772e-07
2.95716e-05 7.17204e-05 4.77221e-07
3.73772e-07 4.77221e-07 -4.48555e-05
0.000763504 0.000131444 1.75512e-06
0.000131444 0.000204137 -6.25843e-07
1.75512e-06 -6.25843e-07 -4.50359e-05
0.00174879 0.000312969 -7.92979e-07
0.000312969 0.000154461 -7.93196e-07
-7.92979e-07 -7.93196e-07 -3.87677e-05
0.00159756 0.000379452 -8.09853e-08
0.000379452 0.000191384 -1.49428e-07
-8.09853e-08 -1.49428e-07 -5.07793e-05
0.0019353 0.000422684 3.01128e-07
0.000422684 0.000223597 2.37205e-07
3.01128e-07 2.37205e-07 9.29395e-06
0.00106345 0.00027631 1.7085e-06
0.00027631 0.000186523 6.01471e-07
1.7085e-06 6.01471e-07 -5.14559e-05
0.0019542 0.000506671 -6.42011e-07
0.000506671 0.000390594 1.34721e-07
-6.42011e-07 1.34721e-07 0.000113811
0.00135968 0.000428294 -6.83213e-07
0.000428294 0.000237687 -1.73647e-06
-6.83213e-07 -1.73647e-06 -7.81783e-05
0.00173792 0.000493885 -3.53233e-06
0.000493885 0.000273613 1.46233e-06
-3.53233e-06 1.46233e-06 -8.98944e-06
0.000506563 -3.95583e-05 6.56237e-07
-3.95583e-05 -1.4753e-05 6.96808e-06
6.56237e-07 6.96808e-06 -4.47582e-05
0.00071562 2.50339e-05 1.13524e-06
2.50339e-05 0.000126309 5.3662e-06
1.13524e-06 5.3662e-06 3.41358e-05
0.00064217 0.000214656 3.01842e-06
0.000214656 1.68552e-05 1.17837e-06
3.01842e-06 1.17837e-06 -0.000207852
0.00148138 0.000127042 -1.33598e-06
0.000127042 0.000665285 3.0635e-06
-1.33598e-06 3.0635e-06 0.000444336
0.00136892 0.00029349 -1.34141e-06
0.00029349 0.000516508 -2.9263e-06
-1.34141e-06 -2.9263e-06 0.000260121
0.00201577 0.000379241 3.98442e-07
0.000379241 0.000210495 -2.60471e-06
3.98442e-07 -2.60471e-06 3.02731e-05
0.00192479 0.000475502 5.20907e-07
0.000475502 0.000284501 -6.89658e-07
5.20907e-07 -6.89658e-07 3.42575e-05
0.00198825 0.000463739 -1.12554e-06
0.000463739 0.000229302 -9.04227e-07
-1.12554e-06 -9.04227e-07 2.23615e-05
0.00091991 0.00035082 2.80058e-06
0.00035082 5.80401e-05 2.37045e-06
2.80058e-06 2.37045e-06 -0.00023544
0.00217074 0.000575463 -4.95741e-07
0.000575463 0.000464327 -7.23611e-07
-4.95741e-07 -7.23611e-07 0.000182259
0.00155331 0.000501583 5.14655e-06
0.000501583 0.000290263 -2.84616e-06
5.14655e-06 -2.84616e-06 -3.44356e-05
0.000594896 2.79613e-05 2.54903e-06
2.79613e-05 5.0255e-05 3.60953e-06
2.54903e-06 3.60953e-06 -1.83285e-05
0.000632477 7.304e-05 -1.59654e-07
7.304e-05 0.000109202 1.7272e-06
-1.59654e-07 1.7272e-06 -1.2768e-06
0.000589796 4.23173e-05 2.42934e-06
4.23173e-05 5.35352e-05 3.27276e-06
2.42934e-06 3.27276e-06 -8.8727e-06
0.000545994 9.39949e-07 -5.88774e-07
9.39949e-07 2.23516e-05 5.60863e-09
-5.88774e-07 5.60863e-09 -4.20654e-05
0.0012671 -4.4298e-05 8.8135e-07
-4.4298e-05 0.00044622 3.50113e-06
8.8135e-07 3.50113e-06 0.000427652
0.000887843 -4.2229e-05 4.77339e-07
-4.2229e-05 0.000214069 -1.574e-07
4.77339e-07 -1.574e-07 0.0001909
0.000849405 -5.25394e-05 2.78871e-05
-5.25394e-05 0.000197036 8.60578e-06
2.78871e-05 8.60578e-06 0.000196458
0.00259597 -0.000117361 5.93553e-06
-0.000117361 0.00129714 -5.70941e-07
5.93553e-06 -5.70941e-07 0.00129777
0.0027113 -0.000135726 -3.87311e-05
-0.000135726 0.00137879 -3.50753e-06
-3.87311e-05 -3.50753e-06 0.00137431
0.000349457 -3.21467e-05 5.55929e-06
-3.21467e-05 -9.5135e-05 -9.35656e-06
5.55929e-06 -9.35656e-06 -0.000142775
0.00387999 0.000150524 9.08685e-05
0.000150524 0.00211932 -6.56446e-06
9.08685e-05 -6.56446e-06 0.00210723
0.000473708 -6.49904e-05 -1.7102e-06
-6.49904e-05 -2.98332e-05 4.40707e-07
-1.7102e-06 4.40707e-07 -9.15216e-05
0.00467028 0.00014139 -1.1961e-05
0.00014139 0.00261612 -1.36822e-06
-1.1961e-05 -1.36822e-06 0.00260321
0.000564261 -9.14199e-05 -1.61416e-05
-9.14199e-05 1.00006e-05 1.39558e-05
-1.61416e-05 1.39558e-05 -6.97403e-05
0.00558259 0.000144222 -0.000190209
0.000144222 0.00318213 1.93752e-05
-0.000190209 1.93752e-05 0.00316532
0.00104858 0.000159545 -1.3174e-05
0.000159545 -5.72575e-05 -3.365e-06
-1.3174e-05 -3.365e-06 -0.000219507
0.00102569 9.47977e-05 -1.19278e-05
9.47977e-05 -7.2297e-05 -1.65949e-06
-1.19278e-05 -1.65949e-06 -0.000212557
0.00176816 0.000202767 -1.95557e-06
0.000202767 0.000108723 7.29685e-07
-1.95557e-06 7.29685e-07 -3.59862e-05
0.00168512 9.08305e-05 2.83714e-07
9.08305e-05 6.55511e-05 4.75608e-07
2.83714e-07 4.75608e-07 -4.97619e-05
0.00101984 3.31382e-05 -1.2e-05
3.31382e-05 -6.14513e-05 -4.98023e-07
-1.2e-05 -4.98023e-07 -0.000189345
0.000461335 2.90617e-05 -1.92997e-05
2.90617e-05 -0.000177826 -5.95429e-07
-1.92997e-05 -5.95429e-07 -0.000251596
0.00101953 4.1405e-07 -4.19311e-08
4.1405e-07 -5.31039e-05 -1.06991e-07
-4.19311e-08 -1.06991e-07 -0.000179593
0.00168577 4.47909e-05 -9.14403e-08
4.47909e-05 6.64489e-05 1.54407e-07
-9.14403e-08 1.54407e-07 -4.2407e-05
0.00172944 0.000144917 -4.34426e-08
0.000144917 8.59905e-05 1.90352e-07
-4.34426e-08 1.90352e-07 -4.06194e-05
0.00192099 0.000119595 -1.66388e-07
0.000119595 5.60612e-05 2.29998e-07
-1.66388e-07 2.29998e-07 -9.06161e-06
0.00178149 0.000264679 -3.8196e-07
0.000264679 0.000134138 -1.03143e-07
-3.8196e-07 -1.03143e-07 -3.38363e-05
0.00196183 0.000243222 -5.51138e-07
0.000243222 0.000109298 -3.46909e-08
-5.51138e-07 -3.46909e-08 -3.87632e-06
0.00166387 -4.80737e-07 -7.57186e-08
-4.80737e-07 5.78808e-05 1.09598e-07
-7.57186e-08 1.09598e-07 -4.93844e-05
0.00192158 5.84458e-05 1.40608e-06
5.84458e-05 6.2232e-05 1.57974e-07
1.40608e-06 1.57974e-07 8.73506e-06
0.00190147 0.000179616 2.08942e-06
0.000179616 4.96171e-05 -5.01128e-07
2.08942e-06 -5.01128e-07 -3.7001e-05
0.00197901 0.000117291 7.08902e-06
0.000117291 4.54409e-05 7.24322e-07
7.08902e-06 7.24322e-07 9.62694e-06
0.0020518 0.00032183 9.52244e-07
0.00032183 0.000196327 -1.54455e-06
9.52244e-07 -1.54455e-06 4.98909e-05
0.00195188 0.000264018 2.52233e-06
0.000264018 2.99439e-05 4.86639e-07
2.52233e-06 4.86639e-07 -5.35725e-05
0.000934823 -1.67702e-05 -1.21635e-05
-1.67702e-05 -0.000107486 6.2115e-07
-1.21635e-05 6.2115e-07 -0.000231756
0.00184104 -9.80331e-05 -2.65715e-05
-9.80331e-05 0.000446652 2.92295e-06
-2.65715e-05 2.92295e-06 0.000319802
0.00190637 -8.57648e-05 -2.30926e-06
-8.57648e-05 0.000219157 -2.38929e-07
-2.30926e-06 -2.38929e-07 0.000108988
0.00173739 -0.000202486 -2.72779e-06
-0.000202486 0.000136792 6.02812e-07
-2.72779e-06 6.02812e-07 -1.46034e-05
0.000540426 -0.000185351 -2.37564e-05
-0.000185351 -3.21457e-05 1.84199e-05
-2.37564e-05 1.84199e-05 -0.000136601
0.000819882 -0.000222233 -1.07524e-05
-0.000222233 6.27921e-05 7.91573e-06
-1.07524e-05 7.91573e-06 -0.000140683
0.00128125 -0.000389511 -4.66784e-06
-0.000389511 0.000149865 2.07677e-06
-4.66784e-06 2.07677e-06 -0.00013146
0.00182523 -0.000302455 -5.98223e-06
-0.000302455 0.000241953 1.3638e-06
-5.98223e-06 1.3638e-06 5.04465e-05
0.0020699 -0.000309321 3.91378e-07
-0.000309321 0.000216248 -1.5024e-06
3.91378e-07 -1.5024e-06 8.50472e-05
0.00191725 -0.000401147 -8.3949e-07
-0.000401147 0.000220535 -1.28531e-06
-8.3949e-07 -1.28531e-06 2.18696e-05
0.00206267 -0.000505477 -3.38113e-06
-0.000505477 0.000416369 -2.51811e-06
-3.38113e-06 -2.51811e-06 0.000140293
0.00188661 -0.000456607 3.18e-06
-0.000456607 0.000186669 -2.69817e-06
3.18e-06 -2.69817e-06 -1.89448e-05
0.000793159 -0.000183807 -3.68164e-06
-0.000183807 0.000158441 5.32233e-06
-3.68164e-06 5.32233e-06 -6.16729e-05
-2.61477e-05 -0.000122842 2.77154e-07
-0.000122842 -0.000327069 -8.10656e-07
2.77154e-07 -8.10656e-07 -0.000586025
0.00080342 -0.000129803 -2.18863e-07
-0.000129803 0.000189628 4.12811e-06
-2.18863e-07 4.12811e-06 1.68935e-05
0.00173433 -3.86575e-05 -6.99853e-07
-3.86575e-05 0.000110135 8.7518e-08
-6.99853e-07 8.7518e-08 -1.00986e-06
0.00184127 -0.000150733 -3.0053e-06
-0.000150733 0.00018476 5.51095e-07
-3.0053e-06 5.51095e-07 5.96965e-05
0.00191943 -0.000111638 2.93901e-06
-0.000111638 7.02269e-05 -3.44343e-07
2.93901e-06 -3.44343e-07 -1.29588e-06
0.00187863 -0.000237957 -1.55685e-06
-0.000237957 7.73505e-05 5.47096e-07
-1.55685e-06 5.47096e-07 -3.62643e-05
0.000752209 -0.000226966 5.93042e-07
-0.000226966 8.23973e-05 -5.52932e-07
5.93042e-07 -5.52932e-07 -0.000129786
0.00118501 -0.000354145 -1.55078e-06
-0.000354145 0.00018926 -2.51328e-07
-1.55078e-06 -2.51328e-07 -8.52316e-05
0.00166093 -0.000529609 1.44759e-06
-0.000529609 0.000286043 2.77862e-07
1.44759e-06 2.77862e-07 -4.42751e-05
0.00179719 -0.000354509 -1.3387e-06
-0.000354509 0.000102025 9.82315e-07
-1.3387e-06 9.82315e-07 -6.81989e-05
0.0020189 -0.000326211 1.37897e-06
-0.000326211 0.000143238 -4.91335e-07
1.37897e-06 -4.91335e-07 3.62937e-05
0.00199961 -0.000529933 -4.51366e-07
-0.000529933 0.000314515 5.11883e-07
-4.51366e-07 5.11883e-07 4.67426e-05
0.00192296 -0.000429467 -7.39581e-08
-0.000429467 0.000164516 5.45723e-07
-7.39581e-08 5.45723e-07 -9.34343e-06
0.002147 -0.000478483 1.69241e-06
-0.000478483 0.00034676 -6.00401e-07
1.69241e-06 -6.00401e-07 0.000159546
0.00107173 -0.000270205 -4.68784e-08
-0.000270205 0.000258015 5.48453e-07
-4.68784e-08 5.48453e-07 1.43915e-05
0.00116987 -0.000301694 -1.02207e-06
-0.000301694 0.000345349 2.2858e-07
-1.02207e-06 2.2858e-07 6.46179e-05
0.000665342 -9.66063e-05 -2.33723e-07
-9.66063e-05 0.000115819 -1.24682e-08
-2.33723e-07 -1.24682e-08 -2.29618e-05
7.62458e-05 -8.31637e-05 2.38696e-07
-8.31637e-05 -0.000202125 -1.65556e-06
2.38696e-07 -1.65556e-06 -0.000458053
0.00193915 -5.89938e-05 2.32494e-06
-5.89938e-05 8.26677e-05 1.25424e-07
2.32494e-06 1.25424e-07 2.15843e-05
0.00180451 -0.000176492 2.02456e-06
-0.000176492 5.78822e-06 -6.78775e-08
2.02456e-06 -6.78775e-08 -8.7837e-05
0.00185831 -0.000110528 6.80848e-06
-0.000110528 -6.54406e-06 -6.17525e-07
6.80848e-06 -6.17525e-07 -4.353e-05
0.00202832 -0.000270105 4.23226e-07
-0.000270105 9.13611e-05 -6.37171e-07
4.23226e-07 -6.37171e-07 2.26685e-05
0.00180094 -0.000378446 -2.06725e-06
-0.000378446 4.83045e-05 8.24107e-07
-2.06725e-06 8.24107e-07 -9.21059e-05
0.00202092 -0.000337798 4.40067e-06
-0.000337798 0.000112832 -1.58228e-06
4.40067e-06 -1.58228e-06 2.77551e-05
0.00128524 -0.000322399 4.30688e-06
-0.000322399 0.000324573 -4.61248e-06
4.30688e-06 -4.61248e-06 7.23055e-05
0.00184501 -0.00044363 -3.52597e-06
-0.00044363 0.000107286 4.37487e-07
-3.52597e-06 4.37487e-07 -4.77107e-05
0.00146329 -0.000506975 2.23195e-06
-0.000506975 0.000301673 -1.3419e-07
2.23195e-06 -1.3419e-07 -4.51046e-05
0.00186828 -0.000600746 1.97134e-06
-0.000600746 0.000348696 1.79581e-06
1.97134e-06 1.79581e-06 4.35232e-06
0.0019515 -0.000538975 1.46417e-06
-0.000538975 0.000238638 4.13068e-06
1.46417e-06 4.13068e-06 -2.06554e-05
0.00223433 -0.000496292 -3.86825e-06
-0.000496292 0.000378726 -1.71302e-06
-3.86825e-06 -1.71302e-06 0.000187821
0.000557758 -7.55795e-05 -9.37345e-07
-7.55795e-05 5.44374e-05 -5.27939e-06
-9.37345e-07 -5.27939e-06 -5.97424e-05
0.000320109 -0.000104671 -3.8615e-06
-0.000104671 -2.8368e-05 -1.19947e-06
-3.8615e-06 -1.19947e-06 -0.000262408
0.0012703 -0.000343367 7.87571e-07
-0.000343367 0.000325479 -1.20526e-06
7.87571e-07 -1.20526e-06 5.55043e-05
0.00104609 -0.000226463 -3.20261e-06
-0.000226463 0.000372738 3.03406e-06
-3.20261e-06 3.03406e-06 9.40921e-05
0.00212504 -0.000430938 -8.92828e-06
-0.000430938 0.000914824 1.24611e-06
-8.92828e-06 1.24611e-06 0.000597
0.000356725 -5.35314e-05 -5.95996e-07
-5.35314e-05 -8.95317e-05 -7.63043e-06
-5.95996e-07 -7.63043e-06 -0.000129648
0.00172557 0.000311109 -3.75992e-06
0.000311109 0.000140752 -5.49258e-07
-3.75992e-06 -5.49258e-07 -5.26475e-05
0.000386415 7.01624e-06 3.46976e-07
7.01624e-06 -7.30769e-05 -5.78744e-06
3.46976e-07 -5.78744e-06 -0.000186413
0.000524052 0.00017535 -4.93152e-06
0.00017535 2.10428e-06 -3.69743e-06
-4.93152e-06 -3.69743e-06 -0.000196905
0.000561687 0.0001308 1.29609e-06
0.0001308 8.04473e-05 2.86104e-07
1.29609e-06 2.86104e-07 -0.000168546
0.00157927 0.00037928 -4.77304e-06
0.00037928 0.000178964 -7.11551e-07
-4.77304e-06 -7.11551e-07 -6.39439e-05
0.00190402 0.000419522 9.48809e-08
0.000419522 0.000206858 1.31897e-06
9.48809e-08 1.31897e-06 -6.995e-06
0.00121141 0.000299494 -4.89326e-06
0.000299494 0.000286043 -3.17874e-06
-4.89326e-06 -3.17874e-06 4.19919e-05
0.00138468 0.00044005 4.26002e-07
0.00044005 0.000242943 1.80421e-07
4.26002e-07 1.80421e-07 -7.87606e-05
0.00184096 0.00048846 3.42614e-07
0.00048846 0.000327434 1.92065e-06
3.42614e-07 1.92065e-06 5.2896e-05
0.00181507 0.000497657 8.52032e-07
0.000497657 0.000323098 7.0498e-06
8.52032e-07 7.0498e-06 4.37345e-05
0.000481802 -3.38889e-05 -1.10938e-07
-3.38889e-05 -3.13588e-05 1.14761e-07
-1.10938e-07 1.14761e-07 -6.01702e-05
0.000607065 1.27641e-05 -5.72627e-07
1.27641e-05 6.36134e-05 4.84681e-07
-5.72627e-07 4.84681e-07 -2.81801e-05
0.000993676 0.000252031 6.80065e-07
0.000252031 0.000235392 6.21005e-07
6.80065e-07 6.21005e-07 4.70268e-06
0.000689046 7.27224e-05 -7.49685e-07
7.27224e-05 0.000170588 -3.9385e-07
-7.49685e-07 -3.9385e-07 -3.63674e-05
0.000796811 0.00021515 4.06051e-07
0.00021515 0.000143174 2.44598e-07
4.06051e-07 2.44598e-07 -8.60293e-05
0.00199198 0.000378542 -1.18951e-06
0.000378542 0.000195373 -1.52732e-06
-1.18951e-06 -1.52732e-06 1.50199e-05
0.00188387 0.00047211 5.61967e-07
0.00047211 0.000260147 1.78117e-07
5.61967e-07 1.78117e-07 1.03777e-05
0.00192518 0.000460581 1.63439e-06
0.000460581 0.00019315 2.62411e-07
1.63439e-06 2.62411e-07 -1.39231e-05
0.00136169 0.000394386 1.77061e-06
0.000394386 0.000338809 1.02834e-06
1.77061e-06 1.02834e-06 3.56709e-05
0.00202329 0.000559626 1.86363e-06
0.000559626 0.000360748 1.88183e-07
1.86363e-06 1.88183e-07 7.99397e-05
0.00177197 0.00052007 -2.68549e-06
0.00052007 0.000426486 -2.17405e-07
-2.68549e-06 -2.17405e-07 9.96449e-05
0.000668442 2.37502e-05 1.38205e-06
2.37502e-05 9.61928e-05 4.05316e-06
1.38205e-06 4.05316e-06 1.91657e-05
0.00126635 0.000144778 5.89963e-07
0.000144778 0.000511288 3.28745e-06
5.89963e-07 3.28745e-06 0.00035303
0.000996747 0.000304946 -2.49621e-06
0.000304946 0.000162638 7.92404e-07
-2.49621e-06 7.92404e-07 -8.34119e-05
0.00151567 0.000160509 -1.49392e-06
0.000160509 0.000691689 -1.14535e-07
-1.49392e-06 -1.14535e-07 0.000440505
0.00146624 0.000256677 -6.8744e-06
0.000256677 0.000475701 -2.33009e-06
-6.8744e-06 -2.33009e-06 0.000273216
0.00199298 0.00039529 -3.62971e-06
0.00039529 0.000173022 -2.84419e-06
-3.62971e-06 -2.84419e-06 9.61444e-06
0.00198227 0.000525804 -3.15504e-07
0.000525804 0.000279643 -1.64251e-07
-3.15504e-07 -1.64251e-07 2.99871e-05
0.00176537 0.000496827 5.42908e-06
0.000496827 5.81103e-05 -1.16457e-07
5.42908e-06 -1.16457e-07 -0.000151436
0.000811407 0.000401576 3.96941e-06
0.000401576 2.14477e-05 -1.68113e-06
3.96941e-06 -1.68113e-06 -0.000314144
0.00147869 0.000526767 9.21527e-06
0.000526767 0.000148003 -4.82258e-07
9.21527e-06 -4.82258e-07 -0.000153817
0.000579671 2.11614e-05 -2.93721e-07
2.11614e-05 3.90882e-05 1.28659e-07
-2.93721e-07 1.28659e-07 -2.82388e-05
0.000445231 4.92374e-05 6.85897e-07
4.92374e-05 -1.98707e-05 2.18067e-06
6.85897e-07 2.18067e-06 -0.000124154
0.000441042 4.42217e-05 -5.92465e-07
4.42217e-05 -2.29876e-05 -2.41262e-07
-5.92465e-07 -2.41262e-07 -0.000121604
0.000948185 0.000132395 -9.28339e-07
0.000132395 0.000306148 -1.0706e-06
-9.28339e-07 -1.0706e-06 0.000180198
0.000667251 0.000101122 1.86016e-06
0.000101122 0.000131888 2.13715e-06
1.86016e-06 2.13715e-06 2.4397e-05
0.000547439 5.30813e-05 2.71423e-06
5.30813e-05 3.34643e-05 3.19846e-06
2.71423e-06 3.19846e-06 -2.89635e-05
0.000544539 7.59409e-06 -6.43993e-07
7.59409e-06 2.57654e-05 -2.01027e-08
-6.43993e-07 -2.01027e-08 -3.63713e-05
0.00124694 -2.98759e-05 7.74636e-07
-2.98759e-05 0.000431571 3.14434e-06
7.74636e-07 3.14434e-06 0.000415704
0.000559125 1.22221e-05 -1.66939e-06
1.22221e-05 2.62632e-05 -3.43537e-06
-1.66939e-06 -3.43537e-06 -3.54279e-05
0.00130567 -4.02984e-05 -7.02714e-06
-4.02984e-05 0.000469684 -1.49551e-06
-7.02714e-06 -1.49551e-06 0.00045215
0.000818533 -3.91283e-05 2.88658e-05
-3.91283e-05 0.000169875 8.46461e-06
2.88658e-05 8.46461e-06 0.00017344
0.00132324 -4.90709e-05 -1.17472e-05
-4.90709e-05 0.00048582 -4.85511e-06
-1.17472e-05 -4.85511e-06 0.000465388
0.00165492 -7.46957e-05 2.73037e-05
-7.46957e-05 0.000700733 1.60516e-06
2.73037e-05 1.60516e-06 0.000703003
0.0025357 -0.000113426 -3.42254e-05
-0.000113426 0.00125823 -3.93715e-06
-3.42254e-05 -3.93715e-06 0.00125977
0.000315502 8.10373e-05 -5.61403e-06
8.10373e-05 -9.02022e-05 -7.73414e-06
-5.61403e-06 -7.73414e-06 -0.00013995
0.000475562 -1.54445e-05 5.58268e-07
-1.54445e-05 -1.22042e-05 5.8719e-07
5.58268e-07 5.8719e-07 -6.54089e-05
0.00322642 0.000169331 1.25905e-05
0.000169331 0.00171133 -5.98632e-06
1.25905e-05 -5.98632e-06 0.00169476
0.00407342 0.000122212 -1.16824e-05
0.000122212 0.00223646 -9.69384e-07
-1.16824e-05 -9.69384e-07 0.00223086
0.000656448 -6.81751e-05 -1.20092e-05
-6.81751e-05 8.03725e-05 1.18503e-05
-1.20092e-05 1.18503e-05 1.64129e-05
0.00489862 0.000119155 -0.000166205
0.000119155 0.00275039 1.60166e-05
-0.000166205 1.60166e-05 0.00274211
0.00175791 0.000262552 -2.66545e-06
0.000262552 0.000122967 4.85757e-07
-2.66545e-06 4.85757e-07 -4.50586e-05
0.00170266 0.000144955 -4.02485e-07
0.000144955 6.89297e-05 6.70091e-07
-4.02485e-07 6.70091e-07 -5.82428e-05
0.00193924 0.000241592 -1.91948e-06
0.000241592 9.92045e-05 1.68007e-06
-1.91948e-06 1.68007e-06 -1.39002e-05
0.00194422 0.000118126 -1.98729e-06
0.000118126 6.32069e-05 5.44086e-07
-1.98729e-06 5.44086e-07 1.37367e-06
0.00168758 4.67934e-05 1.91805e-07
4.67934e-05 7.12892e-05 4.25893e-07
1.91805e-07 4.25893e-07 -3.76583e-05
0.0010258 5.24337e-06 -1.17197e-05
5.24337e-06 -4.99083e-05 -9.76616e-08
-1.17197e-05 -9.76616e-08 -0.000176347
0.00167365 3.06261e-06 5.82795e-08
3.06261e-06 6.59127e-05 1.57454e-07
5.82795e-08 1.57454e-07 -4.13725e-05
0.00189268 5.00602e-05 -8.55895e-07
5.00602e-05 4.50729e-05 1.81192e-08
-8.55895e-07 1.81192e-08 -8.92928e-06
0.00193773 0.000178835 -6.48714e-07
0.000178835 7.53965e-05 3.40193e-07
-6.48714e-07 3.40193e-07 -1.08742e-05
0.00194695 0.000114891 8.16081e-07
0.000114891 1.91138e-05 2.33878e-07
8.16081e-07 2.33878e-07 -1.15204e-05
0.00200685 0.000321748 -4.01922e-07
0.000321748 0.000161905 -1.56006e-07
-4.01922e-07 -1.56006e-07 1.50775e-05
0.00196018 0.000259366 6.00934e-08
0.000259366 3.41422e-05 4.39073e-07
6.00934e-08 4.39073e-07 -4.51772e-05
0.00191663 -4.91371e-06 2.09163e-06
-4.91371e-06 6.57606e-05 1.57536e-07
2.09163e-06 1.57536e-07 1.11147e-05
0.00192551 4.98451e-05 6.52334e-06
4.98451e-05 2.63414e-05 1.72207e-07
6.52334e-06 1.72207e-07 1.44601e-06
0.0019749 0.000184035 3.37007e-06
0.000184035 2.78364e-05 1.66359e-07
3.37007e-06 1.66359e-07 -1.70228e-05
0.0020382 0.000113827 4.62812e-06
0.000113827 4.46793e-05 5.43174e-07
4.62812e-06 5.43174e-07 3.53661e-05
0.00194762 0.00031745 1.14735e-06
0.00031745 8.55921e-05 -1.02134e-06
1.14735e-06 -1.02134e-06 -3.5269e-05
0.00212918 0.000268182 3.74129e-06
0.000268182 8.92915e-05 1.20582e-06
3.74129e-06 1.20582e-06 3.61789e-05
0.0017183 -3.59273e-05 -1.04169e-06
-3.59273e-05 9.88409e-05 -1.64904e-07
-1.04169e-06 -1.64904e-07 -1.03294e-05
0.00183901 -0.000156189 -3.55836e-06
-0.000156189 0.000181057 1.5209e-08
-3.55836e-06 1.5209e-08 5.50305e-05
0.0019781 -0.000111378 4.51653e-07
-0.000111378 0.000105636 -8.58604e-07
4.51653e-07 -8.58604e-07 4.02798e-05
0.00187862 -0.000234118 -1.73461e-06
-0.000234118 7.72015e-05 -7.52787e-08
-1.73461e-06 -7.52787e-08 -3.87494e-05
0.000846463 -0.000233036 -8.34962e-06
-0.000233036 0.000140395 7.65318e-06
-8.34962e-06 7.65318e-06 -7.39977e-05
0.00115839 -0.000355613 -7.14249e-06
-0.000355613 0.000163177 3.65674e-06
-7.14249e-06 3.65674e-06 -0.000111825
0.0015309 -0.000510236 5.97939e-07
-0.000510236 0.000222898 -4.17292e-07
5.97939e-07 -4.17292e-07 -0.000105423
0.00179771 -0.000352843 -1.28445e-06
-0.000352843 0.000106228 -6.84524e-08
-1.28445e-06 -6.84524e-08 -6.90485e-05
0.00195623 -0.000323523 1.10838e-07
-0.000323523 9.79459e-05 -1.17588e-08
1.10838e-07 -1.17588e-08 -5.03892e-06
0.0019622 -0.000430655 1.44373e-06
-0.000430655 0.000191461 -6.02801e-07
1.44373e-06 -6.02801e-07 1.7354e-05
0.00190529 -0.000532276 -1.50712e-06
-0.000532276 0.000247117 -2.71737e-06
-1.50712e-06 -2.71737e-06 -2.39152e-05
0.00205357 -0.000467015 6.8681e-06
-0.000467015 0.000284856 -4.76026e-06
6.8681e-06 -4.76026e-06 0.000102682
0.000802721 -0.000243212 -1.41283e-06
-0.000243212 0.000101535 2.0125e-06
-1.41283e-06 2.0125e-06 -0.000143314
-0.000109052 -0.000165021 -2.91765e-08
-0.000165021 -0.000454323 1.88524e-06
-2.91765e-08 1.88524e-06 -0.00071395
0.000784259 -0.000110003 -4.1366e-07
-0.000110003 0.000184621 4.95955e-06
-4.1366e-07 4.95955e-06 4.27651e-05
0.000157002 -5.5391e-05 3.22072e-06
-5.5391e-05 -0.000170292 -2.58994e-06
3.22072e-06 -2.58994e-06 -0.000405183
0.00191984 -5.83619e-05 -7.40211e-09
-5.83619e-05 7.26514e-05 1.85698e-07
-7.40211e-09 1.85698e-07 1.14194e-05
0.0018516 -0.000177393 2.29572e-06
-0.000177393 3.89231e-05 -8.28017e-07
2.29572e-06 -8.28017e-07 -5.55394e-05
0.00190895 -0.000111812 1.38873e-06
-0.000111812 2.18393e-05 -3.80018e-07
1.38873e-06 -3.80018e-07 -1.37814e-05
0.00198586 -0.000265994 -1.54763e-06
-0.000265994 7.21496e-05 1.95219e-07
-1.54763e-06 1.95219e-07 -2.69357e-08
0.00106906 -0.00029451 -1.6818e-06
-0.00029451 0.000184605 6.01445e-07
-1.6818e-06 6.01445e-07 -6.15599e-05
0.0013741 -0.000487657 2.68549e-06
-0.000487657 0.000261094 -9.36883e-07
2.68549e-06 -9.36883e-07 -8.01946e-05
0.00179099 -0.000601386 -1.53447e-07
-0.000601386 0.000296231 4.4156e-07
-1.53447e-07 4.4156e-07 -5.22556e-05
0.00184343 -0.000378339 -1.45169e-06
-0.000378339 8.33795e-05 7.63658e-07
-1.45169e-06 7.63658e-07 -6.0526e-05
0.0019859 -0.000338422 1.2587e-06
-0.000338422 9.39908e-05 -4.23464e-07
1.2587e-06 -4.23464e-07 1.07547e-05
0.00192836 -0.000540922 -1.12295e-07
-0.000540922 0.000242127 4.63074e-07
-1.12295e-07 4.63074e-07 -1.9188e-05
0.00183607 -0.000444454 -9.38257e-07
-0.000444454 9.30512e-05 1.06135e-06
-9.38257e-07 1.06135e-06 -6.29516e-05
0.00209766 -0.000482245 3.98785e-06
-0.000482245 0.000290223 -5.28909e-06
3.98785e-06 -5.28909e-06 0.000106185
0.0011365 -0.000329829 1.78117e-07
-0.000329829 0.000242679 1.19189e-06
1.78117e-07 1.19189e-06 -2.51908e-05
0.00152561 -0.000363197 2.71222e-06
-0.000363197 0.00053171 1.22756e-06
2.71222e-06 1.22756e-06 0.000229794
0.000947272 -0.000207138 -1.90646e-07
-0.000207138 0.000310577 4.29626e-08
-1.90646e-07 4.29626e-08 3.1322e-05
0.000357472 -4.43071e-05 -2.14886e-06
-4.43071e-05 -7.08802e-05 6.62223e-07
-2.14886e-06 6.62223e-07 -0.000185179
0.000143909 -5.46036e-05 -4.75233e-07
-5.46036e-05 -0.000149058 -6.18685e-07
-4.75233e-07 -6.18685e-07 -0.000367119
0.00188744 -6.07607e-05 5.71716e-06
-6.07607e-05 -2.19891e-07 -3.715e-08
5.71716e-06 -3.715e-08 -2.13881e-05
0.00196917 -0.000167439 4.95859e-06
-0.000167439 3.96712e-05 -7.5165e-07
4.95859e-06 -7.5165e-07 3.51008e-06
0.00201981 -0.000312589 1.79955e-06
-0.000312589 3.00098e-05 -5.52587e-07
1.79955e-06 -5.52587e-07 -1.49367e-05
0.00195072 -0.000386811 1.31397e-06
-0.000386811 9.6841e-05 -1.92205e-06
1.31397e-06 -1.92205e-06 -4.26848e-06
0.0015496 -0.000423222 7.93388e-07
-0.000423222 0.00047087 -3.8865e-06
7.93388e-07 -3.8865e-06 0.000158896
0.00215017 -0.000535252 -1.34948e-06
-0.000535252 0.000202023 -3.80442e-06
-1.34948e-06 -3.80442e-06 3.07632e-05
0.00125605 -0.000559308 -4.3015e-06
-0.000559308 0.000161587 2.35633e-06
-4.3015e-06 2.35633e-06 -0.000215791
0.00193165 -0.000665823 2.58482e-06
-0.000665823 0.000337352 8.88595e-08
2.58482e-06 8.88595e-08 -2.64263e-05
0.00185516 -0.000520557 -5.53655e-06
-0.000520557 0.000184531 1.47023e-06
-5.53655e-06 1.47023e-06 -6.51695e-05
3.62604e-05 -7.70235e-06 -2.00302e-06
-7.70235e-06 -0.000263695 -4.76452e-06
-2.00302e-06 -4.76452e-06 -0.000354868
0.000707536 -0.000112615 -2.22091e-06
-0.000112615 0.000204958 6.08381e-07
-2.22091e-06 6.08381e-07 1.43885e-05
0.00105511 -0.000155856 -2.51724e-06
-0.000155856 0.000413744 -2.44457e-06
-2.51724e-06 -2.44457e-06 0.000164522
0.00172275 -0.000427372 -7.56691e-06
-0.000427372 0.000588911 -5.5535e-07
-7.56691e-06 -5.5535e-07 0.000275968
0.000661008 -0.000184835 4.48473e-07
-0.000184835 8.5919e-05 4.62173e-06
4.48473e-07 4.62173e-06 -0.000202189
0.0014503 -0.000390239 -4.17782e-06
-0.000390239 0.000450127 5.3104e-06
-4.17782e-06 5.3104e-06 0.000127843
0.000463114 -3.63732e-05 -1.16545e-06
-3.63732e-05 -4.25085e-05 -6.41031e-06
-1.16545e-06 -6.41031e-06 -7.13463e-05
0.000543008 6.42532e-06 -9.66624e-07
6.42532e-06 2.84953e-05 -4.87178e-06
-9.66624e-07 -4.87178e-06 -6.33744e-05
0.00196744 0.000377779 -2.47823e-06
0.000377779 0.000179871 -3.49659e-07
-2.47823e-06 -3.49659e-07 -6.01929e-07
-0.000214881 -2.33858e-05 1.18964e-06
-2.33858e-05 -0.000382514 -2.82833e-06
1.18964e-06 -2.82833e-06 -0.000580646
0.00118838 0.000268177 -3.00169e-06
0.000268177 0.0003569 -7.06841e-07
-3.00169e-06 -7.06841e-07 0.000127219
0.000313847 0.000146477 2.92984e-06
0.000146477 -0.000173276 4.91086e-07
2.92984e-06 4.91086e-07 -0.000378681
0.0018444 0.000468465 4.07679e-07
0.000468465 0.000237641 1.00403e-06
4.07679e-07 1.00403e-06 -1.15452e-05
0.00186353 0.000457117 1.56726e-06
0.000457117 0.00015914 8.75398e-07
1.56726e-06 8.75398e-07 -4.79533e-05
0.00156189 0.000410176 2.86953e-07
0.000410176 0.000474747 -7.83301e-07
2.86953e-07 -7.83301e-07 0.000166962
0.00213421 0.000550807 -3.63535e-06
0.000550807 0.000649782 1.55234e-06
-3.63535e-06 1.55234e-06 0.000321561
0.00186274 0.000542632 -7.62191e-07
0.000542632 0.00024927 1.36288e-06
-7.62191e-07 1.36288e-06 -3.01191e-05
0.000586216 2.32868e-05 -4.00016e-07
2.32868e-05 4.74359e-05 4.6852e-07
-4.00016e-07 4.6852e-07 -2.93335e-05
0.000735047 6.09526e-05 -9.89539e-07
6.09526e-05 0.00017883 4.30382e-07
-9.89539e-07 4.30382e-07 3.542e-05
0.0011933 0.000323996 2.9423e-07
0.000323996 0.000283914 2.54738e-07
2.9423e-07 2.54738e-07 3.5933e-05
0.000920127 0.000110749 7.48427e-07
0.000110749 0.00031572 5.99194e-07
7.48427e-07 5.99194e-07 7.66994e-05
0.000793818 0.000233327 3.66432e-06
0.000233327 7.94043e-05 6.82572e-07
3.66432e-06 6.82572e-07 -0.000124433
0.00193965 0.000395199 -2.33044e-06
0.000395199 0.000142584 -1.71749e-06
-2.33044e-06 -1.71749e-06 -2.16027e-05
0.00197278 0.000523759 1.79943e-06
0.000523759 0.000273777 6.13369e-07
1.79943e-06 6.13369e-07 2.44196e-05
0.00185205 0.000497517 3.91326e-07
0.000497517 0.000110997 -1.45468e-07
3.91326e-07 -1.45468e-07 -9.74159e-05
0.00123613 0.000458052 2.71252e-06
0.000458052 0.000262502 2.56877e-06
2.71252e-06 2.56877e-06 -8.03074e-05
0.00171445 0.000553062 -2.62646e-06
0.000553062 0.000302405 -1.9334e-06
-2.62646e-06 -1.9334e-06 -7.15579e-06
0.000892302 8.04958e-05 6.21325e-07
8.04958e-05 0.000269519 2.71791e-06
6.21325e-07 2.71791e-06 0.000146929
-1.78829e-06 -1.09748e-06 -2.02681e-06
-1.09748e-06 -0.000230457 2.45818e-06
-2.02681e-06 2.45818e-06 -0.000420012
0.00126415 0.000366637 -3.41565e-06
0.000366637 0.000297965 -3.00585e-06
-3.41565e-06 -3.00585e-06 2.22712e-05
4.14621e-05 0.000165867 -3.07164e-06
0.000165867 -0.000245838 -1.24517e-06
-3.07164e-06 -1.24517e-06 -0.000476634
0.00161174 0.000333153 -3.34599e-06
0.000333153 0.000504893 -2.82576e-06
-3.34599e-06 -2.82576e-06 0.000286149
0.00190496 0.000429296 1.19089e-07
0.000429296 4.58272e-05 -1.14657e-06
1.19089e-07 -1.14657e-06 -0.000101208
0.00206049 0.000580436 5.3031e-06
0.000580436 0.000301648 -1.57472e-06
5.3031e-06 -1.57472e-06 3.10269e-05
0.00177655 0.000520219 4.30399e-06
0.000520219 5.14868e-05 8.94152e-07
4.30399e-06 8.94152e-07 -0.000169976
0.00108822 0.000463497 6.80636e-06
0.000463497 0.00013555 2.20254e-06
6.80636e-06 2.20254e-06 -0.000210288
0.00194127 0.000621516 -9.44681e-07
0.000621516 0.000441736 -6.71167e-07
-9.44681e-07 -6.71167e-07 0.000110453
0.000544005 1.22981e-05 -1.86345e-06
1.22981e-05 1.62415e-05 -3.64891e-06
-1.86345e-06 -3.64891e-06 -5.02684e-05
0.000550076 5.65971e-05 1.24462e-06
5.65971e-05 4.72106e-05 4.19878e-07
1.24462e-06 4.19878e-07 -5.85708e-05
0.000363296 4.29352e-05 -3.90737e-07
4.29352e-05 -7.58943e-05 1.09864e-06
-3.90737e-07 1.09864e-06 -0.000178693
0.000267971 -2.08726e-05 -3.3506e-07
-2.08726e-05 -0.000124846 -2.29666e-06
-3.3506e-07 -2.29666e-06 -0.000224567
0.000610151 5.60355e-05 -3.43208e-07
5.60355e-05 9.61701e-05 2.651e-08
-3.43208e-07 2.651e-08 -9.23437e-06
0.000610636 8.09376e-05 -7.47545e-07
8.09376e-05 8.57812e-05 -1.08721e-07
-7.47545e-07 -1.08721e-07 -2.51686e-05
0.000746306 0.000117689 -3.12126e-06
0.000117689 0.000185161 -3.59518e-06
-3.12126e-06 -3.59518e-06 6.91618e-05
0.000339479 6.31467e-06 -5.61575e-09
6.31467e-06 -6.33995e-05 -3.01039e-07
-5.61575e-09 -3.01039e-07 -0.00018576
0.000673786 8.84293e-05 9.77034e-07
8.84293e-05 0.000128604 2.44544e-06
9.77034e-07 2.44544e-06 2.97974e-05
0.00057801 6.18324e-05 3.30309e-06
6.18324e-05 5.61458e-05 3.27153e-06
3.30309e-06 3.27153e-06 -8.61158e-06
0.000542787 1.6694e-05 -2.13234e-06
1.6694e-05 2.8985e-05 -8.40115e-10
-2.13234e-06 -8.40115e-10 -3.25051e-05
0.00122748 -1.54302e-05 1.12364e-06
-1.54302e-05 0.000421284 2.87973e-06
1.12364e-06 2.87973e-06 0.000406778
0.000470465 -5.89065e-05 1.34476e-06
-5.89065e-05 -1.39304e-05 -3.27971e-06
1.34476e-06 -3.27971e-06 -7.9407e-05
0.00129025 -2.55407e-05 -6.18359e-06
-2.55407e-05 0.000457987 -1.55893e-06
-6.18359e-06 -1.55893e-06 0.000442882
0.000787864 -2.94652e-05 2.50476e-05
-2.94652e-05 0.000147296 8.71557e-06
2.50476e-05 8.71557e-06 0.000152804
0.00133616 -3.74115e-05 -1.05362e-05
-3.74115e-05 0.000488083 -6.44787e-06
-1.05362e-05 -6.44787e-06 0.000471135
0.000771808 -4.19923e-05 9.61179e-06
-4.19923e-05 0.000140657 3.23554e-06
9.61179e-06 3.23554e-06 0.000142754
0.00242253 -0.000106631 -2.72362e-06
-0.000106631 0.00118005 -2.51179e-06
-2.72362e-06 -2.51179e-06 0.00118274
0.000366447 5.66107e-05 -2.8789e-06
5.66107e-05 -8.0851e-05 -4.74579e-06
-2.8789e-06 -4.74579e-06 -0.000111757
0.00042419 2.48844e-05 -3.30397e-06
2.48844e-05 -3.99434e-05 -1.00858e-08
-3.30397e-06 -1.00858e-08 -8.1281e-05
0.0027557 0.000133279 1.48191e-05
0.000133279 0.00141074 -4.75003e-06
1.48191e-05 -4.75003e-06 0.0014044
0.000580687 -4.39949e-05 -8.24629e-06
-4.39949e-05 4.38083e-05 9.91675e-06
-8.24629e-06 9.91675e-06 -6.44007e-06
0.00343506 0.000131868 -3.10148e-05
0.000131868 0.00183338 -5.47476e-07
-3.10148e-05 -5.47476e-07 0.00182644
0.00421053 9.70712e-05 -0.000143579
9.70712e-05 0.00231503 1.23831e-05
-0.000143579 1.23831e-05 0.00231476
0.00196083 0.00032145 -2.51314e-06
0.00032145 0.000127196 1.175e-06
-2.51314e-06 1.175e-06 -1.99777e-05
0.00197767 0.000176959 -1.40877e-06
0.000176959 0.000104257 1.54636e-06
-1.40877e-06 1.54636e-06 1.85718e-05
0.0019649 0.000254121 -1.40957e-06
0.000254121 3.61023e-05 1.11578e-06
-1.40957e-06 1.11578e-06 -3.89988e-05
0.00191785 0.000112762 -3.76679e-06
0.000112762 -5.34008e-06 -5.40849e-08
-3.76679e-06 -5.40849e-08 -3.06843e-05
0.00186352 4.35394e-05 -3.3214e-06
4.35394e-05 2.78188e-05 2.20972e-07
-3.3214e-06 2.20972e-07 -2.68799e-05
0.00168366 5.90946e-06 3.19546e-07
5.90946e-06 7.27232e-05 2.17945e-07
3.19546e-07 2.17945e-07 -3.45375e-05
0.00189436 -4.65595e-06 -5.36125e-07
-4.65595e-06 5.47145e-05 7.76855e-08
-5.36125e-07 7.76855e-08 -1.54005e-06
0.00194403 4.99308e-05 1.395e-06
4.99308e-05 4.19992e-05 7.77349e-09
1.395e-06 7.77349e-09 1.41627e-05
0.00200041 0.000183505 -5.41176e-08
0.000183505 4.61468e-05 -7.12578e-08
-5.41176e-08 -7.12578e-08 -1.93892e-07
0.00199656 0.00011435 7.93106e-07
0.00011435 1.4846e-05 2.80196e-07
7.93106e-07 2.80196e-07 9.19299e-06
0.00192785 0.000314564 -6.77942e-07
0.000314564 8.24227e-05 -7.69899e-08
-6.77942e-07 -7.69899e-08 -3.83936e-05
0.00207572 0.00027024 3.20742e-06
0.00027024 5.26549e-05 6.0999e-07
3.20742e-06 6.0999e-07 4.93363e-06
0.00191898 -9.85374e-06 5.97533e-06
-9.85374e-06 3.24398e-05 2.28973e-07
5.97533e-06 2.28973e-07 3.84232e-06
0.00197362 5.38053e-05 2.99044e-06
5.38053e-05 -8.29695e-07 -9.66906e-08
2.99044e-06 -9.66906e-08 2.95207e-07
0.00205424 0.000182138 1.92989e-06
0.000182138 1.33828e-05 5.12209e-07
1.92989e-06 5.12209e-07 3.75686e-06
0.00208042 0.000352956 -3.28179e-07
0.000352956 7.02354e-05 6.60168e-07
-3.28179e-07 6.60168e-07 -3.76928e-06
0.00189848 -5.76429e-05 -2.86226e-06
-5.76429e-05 6.08194e-05 2.47528e-07
-2.86226e-06 2.47528e-07 -5.70089e-07
0.00186958 -0.000178902 1.48293e-06
-0.000178902 5.34736e-05 -1.28412e-06
1.48293e-06 -1.28412e-06 -4.21213e-05
0.00195511 -0.000112946 -4.4176e-06
-0.000112946 4.8174e-05 2.65615e-08
-4.4176e-06 2.65615e-08 1.36461e-05
0.00194236 -0.000261646 -4.80159e-06
-0.000261646 5.15843e-05 1.52022e-06
-4.80159e-06 1.52022e-06 -2.40769e-05
0.00092602 -0.000280405 -4.47426e-06
-0.000280405 9.01467e-05 4.51892e-06
-4.47426e-06 4.51892e-06 -0.000154319
0.00132125 -0.00047241 1.94702e-07
-0.00047241 0.00023981 -2.8509e-07
1.94702e-07 -2.8509e-07 -9.61195e-05
0.00179271 -0.000611441 -7.65777e-07
-0.000611441 0.000292486 -1.15722e-06
-7.65777e-07 -1.15722e-06 -6.25374e-05
0.001888 -0.000378706 -1.85327e-06
-0.000378706 0.000119781 3.96955e-07
-1.85327e-06 3.96955e-07 -2.7971e-05
0.00191131 -0.000337622 -9.38365e-07
-0.000337622 5.13933e-05 1.19976e-06
-9.38365e-07 1.19976e-06 -3.01633e-05
0.00183469 -0.000446544 1.77028e-06
-0.000446544 8.08392e-05 1.50543e-06
1.77028e-06 1.50543e-06 -7.63262e-05
0.00189417 -0.000536879 -1.40478e-06
-0.000536879 0.00023634 -2.45596e-06
-1.40478e-06 -2.45596e-06 -2.49837e-05
0.00197404 -0.000468824 6.76688e-06
-0.000468824 0.000201078 -6.87225e-06
6.76688e-06 -6.87225e-06 2.39593e-05
0.000996819 -0.000316461 9.75191e-07
-0.000316461 0.000156039 2.39227e-06
9.75191e-07 2.39227e-06 -0.000110093
0.000930943 -0.000298347 4.80819e-06
-0.000298347 0.000133768 1.22516e-06
4.80819e-06 1.22516e-06 -0.000146474
0.000619053 -0.000172912 3.81265e-06
-0.000172912 0.0001129 -3.98527e-06
3.81265e-06 -3.98527e-06 -0.000169491
0.000152202 -2.61317e-05 2.29947e-07
-2.61317e-05 -0.000198372 4.25904e-06
2.29947e-07 4.25904e-06 -0.00031416
0.000112115 -1.14174e-05 3.69502e-06
-1.14174e-05 -0.000175815 -1.82341e-08
3.69502e-06 -1.82341e-08 -0.000384064
0.00189817 -6.86023e-05 -1.3936e-07
-6.86023e-05 2.74065e-06 -1.41767e-07
-1.3936e-07 -1.41767e-07 -1.98678e-05
0.00196777 -0.000167321 1.03483e-06
-0.000167321 3.79093e-05 -9.70285e-08
1.03483e-06 -9.70285e-08 9.01688e-07
0.00201342 -0.00030713 -7.77625e-07
-0.00030713 4.10893e-05 2.09638e-09
-7.77625e-07 2.09638e-09 -7.40756e-06
0.00130551 -0.000399833 -1.77278e-06
-0.000399833 0.000312204 -6.98423e-07
-1.77278e-06 -6.98423e-07 5.74027e-06
0.00135103 -0.0005571 2.94441e-06
-0.0005571 0.000219316 -9.05223e-07
2.94441e-06 -9.05223e-07 -0.000154962
0.00188858 -0.000664348 2.57678e-08
-0.000664348 0.000321899 -1.82796e-07
2.57678e-08 -1.82796e-07 -4.56578e-05
0.00191807 -0.000383823 2.3691e-07
-0.000383823 7.54721e-05 2.42668e-07
2.3691e-07 2.42668e-07 -2.68558e-05
0.00201961 -0.000544828 1.10598e-06
-0.000544828 0.000267903 -3.38231e-06
1.10598e-06 -3.38231e-06 1.97788e-05
0.00203292 -0.000517158 -9.55902e-07
-0.000517158 0.000161855 -5.18871e-07
-9.55902e-07 -5.18871e-07 -6.20829e-06
0.000168237 4.5701e-05 -1.53158e-06
4.5701e-05 -0.000191243 -7.73038e-07
-1.53158e-06 -7.73038e-07 -0.000275946
0.00122745 -0.000375071 -2.72773e-07
-0.000375071 0.000272167 -2.08202e-07
-2.72773e-07 -2.08202e-07 -2.7354e-05
0.00138944 -0.000385064 1.46259e-07
-0.000385064 0.000413666 2.45307e-06
1.46259e-07 2.45307e-06 9.85591e-05
0.00127955 -0.000275069 -3.81847e-07
-0.000275069 0.000482045 4.33245e-07
-3.81847e-07 4.33245e-07 0.000168642
0.0012607 -0.000159519 1.0881e-06
-0.000159519 0.000537662 -2.91467e-06
1.0881e-06 -2.91467e-06 0.00029037
0.00046683 -3.61707e-05 -7.59193e-07
-3.61707e-05 4.67921e-05 1.45526e-06
-7.59193e-07 1.45526e-06 -0.000136666
0.00196419 -8.53062e-05 3.53352e-06
-8.53062e-05 5.28528e-06 1.71749e-08
3.53352e-06 1.71749e-08 3.5265e-06
0.00208002 -0.000214667 1.29333e-06
-0.000214667 2.16743e-06 -2.50102e-07
1.29333e-06 -2.50102e-07 5.77521e-06
0.00209485 -0.000373442 1.30765e-06
-0.000373442 4.97691e-05 -7.50223e-07
1.30765e-06 -7.50223e-07 2.2607e-05
0.00214177 -0.000463264 1.93771e-06
-0.000463264 0.000115756 -2.19322e-06
1.93771e-06 -2.19322e-06 2.63324e-05
0.00163179 -0.00050778 -6.41388e-06
-0.00050778 0.000480968 -5.52041e-07
-6.41388e-06 -5.52041e-07 0.000127253
0.00201959 -0.000587801 3.16406e-06
-0.000587801 0.000194011 -2.15731e-06
3.16406e-06 -2.15731e-06 -2.50726e-05
0.0016452 -0.000656868 -1.24731e-05
-0.000656868 0.000358514 2.19473e-06
-1.24731e-05 2.19473e-06 -5.87599e-05
0.00224241 -0.000727572 -9.78578e-06
-0.000727572 0.00054047 3.32902e-07
-9.78578e-06 3.32902e-07 0.000151027
0.000116351 5.77084e-05 -4.13485e-06
5.77084e-05 -0.000227624 -1.7215e-06
-4.13485e-06 -1.7215e-06 -0.000292331
0.000684724 3.92655e-06 -2.0592e-06
3.92655e-06 0.000170944 2.05288e-07
-2.0592e-06 2.05288e-07 3.19763e-05
0.00131799 -0.000184132 -5.03051e-06
-0.000184132 0.000592638 2.25515e-06
-5.03051e-06 2.25515e-06 0.000369971
0.000901646 -6.94892e-05 -2.30919e-06
-6.94892e-05 0.000275502 -8.80787e-07
-2.30919e-06 -8.80787e-07 5.78252e-06
0.00171981 -0.000481774 -3.01306e-06
-0.000481774 0.000548726 1.62366e-06
-3.01306e-06 1.62366e-06 0.000196325
0.00158043 -0.000395476 -1.11055e-05
-0.000395476 0.00058637 1.46324e-05
-1.11055e-05 1.46324e-05 0.000204581
0.000478006 1.45987e-05 -1.84124e-06
1.45987e-05 -1.87139e-05 -3.88755e-06
-1.84124e-06 -3.88755e-06 -9.42557e-05
0.00025326 6.22966e-06 1.48809e-06
6.22966e-06 -0.000133827 -2.19556e-06
1.48809e-06 -2.19556e-06 -0.000257092
0.00189267 0.000396162 -2.22991e-06
0.000396162 0.000114069 -6.94876e-07
-2.22991e-06 -6.94876e-07 -5.11105e-05
0.00022367 5.33517e-05 8.05636e-07
5.33517e-05 -0.000124553 -2.82635e-07
8.05636e-07 -2.82635e-07 -0.000346328
0.00144914 0.000348725 -1.20068e-06
0.000348725 0.00044224 -5.35934e-07
-1.20068e-06 -5.35934e-07 0.000192145
-4.28317e-05 0.000132332 4.20373e-06
0.000132332 -0.000451974 3.04189e-06
4.20373e-06 3.04189e-06 -0.000626201
0.00196097 0.000521961 1.32066e-06
0.000521961 0.00026468 8.37867e-07
1.32066e-06 8.37867e-07 1.55147e-05
0.00195807 0.000499848 -4.83888e-06
0.000499848 0.000172265 3.61359e-07
-4.83888e-06 3.61359e-07 -3.53752e-05
0.00158696 0.000505212 -1.45315e-06
0.000505212 0.000464393 2.83491e-06
-1.45315e-06 2.83491e-06 0.00011429
0.00201106 0.000584726 -4.07613e-06
0.000584726 0.000494744 1.13105e-07
-4.07613e-06 1.13105e-07 0.000175354
0.000687186 4.38623e-05 -8.95788e-07
4.38623e-05 0.000137557 1.00243e-07
-8.95788e-07 1.00243e-07 2.25823e-05
0.000364433 5.40788e-05 9.20112e-07
5.40788e-05 -3.45347e-06 4.54562e-07
9.20112e-07 4.54562e-07 -0.000204339
0.00140755 0.000380479 -1.47337e-06
0.000380479 0.000388593 -1.35049e-06
-1.47337e-06 -1.35049e-06 0.00011014
0.00027295 9.67072e-05 -1.02802e-06
9.67072e-05 -0.000149508 -1.20696e-06
-1.02802e-06 -1.20696e-06 -0.000345392
0.00108701 0.000288298 1.31472e-06
0.000288298 0.000174819 -2.6693e-06
1.31472e-06 -2.6693e-06 -3.17348e-05
0.0020775 0.000441797 -2.86929e-06
0.000441797 0.000140548 -1.21596e-06
-2.86929e-06 -1.21596e-06 -4.42551e-06
0.00218883 0.000581254 2.4967e-06
0.000581254 0.00038198 -3.15857e-07
2.4967e-06 -3.15857e-07 0.000116361
0.00200394 0.000545707 3.0162e-06
0.000545707 0.000173842 2.81392e-06
3.0162e-06 2.81392e-06 -5.31607e-05
0.00122531 0.000479834 3.72974e-06
0.000479834 0.000225849 1.99807e-06
3.72974e-06 1.99807e-06 -0.000125123
0.001766 0.00062037 -4.41997e-06
0.00062037 0.000339408 -7.93549e-08
-4.41997e-06 -7.93549e-08 2.23771e-07
-0.000291909 8.91342e-06 -1.42696e-06
8.91342e-06 -0.000456994 4.08832e-06
-1.42696e-06 4.08832e-06 -0.00057066
-0.000126154 0.000140428 2.116e-06
0.000140428 -0.000251583 3.03631e-06
2.116e-06 3.03631e-06 -0.000506214
0.001102 0.000366036 1.07772e-06
0.000366036 0.000194827 -1.0173e-06
1.07772e-06 -1.0173e-06 -9.57462e-05
-0.000280754 0.000141514 1.62628e-06
0.000141514 -0.000607364 1.20304e-07
1.62628e-06 1.20304e-07 -0.000799887
0.00211942 0.000443455 2.41273e-06
0.000443455 -9.17501e-05 1.51971e-06
2.41273e-06 1.51971e-06 -0.000105467
0.00274757 0.000560613 4.08654e-06
0.000560613 0.000548085 2.87702e-07
4.08654e-06 2.87702e-07 0.00035949
0.0020186 0.00064614 -4.45036e-06
0.00064614 0.000311857 -4.19944e-06
-4.45036e-06 -4.19944e-06 -5.1948e-06
0.00148895 0.000577762 7.54676e-07
0.000577762 0.000281664 -8.79141e-08
7.54676e-07 -8.79141e-08 -9.3865e-05
0.00064977 9.39629e-05 -7.55126e-07
9.39629e-05 0.000115323 -1.46355e-06
-7.55126e-07 -1.46355e-06 4.72385e-06
0.000593506 7.73388e-05 -4.66881e-07
7.73388e-05 7.85346e-05 -1.27935e-07
-4.66881e-07 -1.27935e-07 -3.47564e-05
0.00102138 7.57505e-05 -5.47064e-06
7.57505e-05 0.000342676 -2.24162e-06
-5.47064e-06 -2.24162e-06 0.000242643
0.000589146 3.6159e-05 -1.28964e-06
3.6159e-05 6.39367e-05 -2.40375e-06
-1.28964e-06 -2.40375e-06 -2.76821e-05
0.000240223 3.0111e-05 -2.00159e-07
3.0111e-05 -0.000141586 -4.59299e-07
-2.00159e-07 -4.59299e-07 -0.00024549
0.000617655 4.56956e-05 -4.2306e-07
4.56956e-05 9.66347e-05 1.11268e-07
-4.2306e-07 1.11268e-07 -2.98277e-06
0.00057855 0.000113039 -1.03211e-06
0.000113039 9.71276e-05 5.23468e-07
-1.03211e-06 5.23468e-07 -2.06995e-05
0.000517257 4.32971e-05 1.04533e-06
4.32971e-05 5.1803e-05 1.12457e-07
1.04533e-06 1.12457e-07 -7.58257e-05
0.000622583 8.51615e-05 2.67361e-06
8.51615e-05 9.35993e-05 -1.19349e-06
2.67361e-06 -1.19349e-06 7.26352e-06
0.000751105 4.76359e-06 3.2227e-06
4.76359e-06 0.000192496 -3.82036e-06
3.2227e-06 -3.82036e-06 6.93775e-05
0.000346965 6.43743e-05 4.17696e-07
6.43743e-05 -5.31386e-05 1.79198e-06
4.17696e-07 1.79198e-06 -0.000180578
0.000668239 0.000101297 2.2322e-06
0.000101297 0.000130046 3.18122e-06
2.2322e-06 3.18122e-06 2.6204e-05
0.000488819 6.92814e-05 3.08755e-06
6.92814e-05 8.08102e-06 3.22122e-06
3.08755e-06 3.22122e-06 -6.28233e-05
0.000493407 9.88063e-06 -1.5066e-06
9.88063e-06 3.77512e-06 -2.22849e-07
-1.5066e-06 -2.22849e-07 -6.02761e-05
0.00120668 2.67518e-06 1.52237e-06
2.67518e-06 0.000413435 2.70052e-06
1.52237e-06 2.70052e-06 0.000399077
0.000492608 -4.54022e-05 -1.74264e-08
-4.54022e-05 -1.69603e-06 -2.89053e-06
-1.74264e-08 -2.89053e-06 -6.31702e-05
0.0012887 -9.86311e-06 -5.64874e-06
-9.86311e-06 0.000459234 -1.63164e-06
-5.64874e-06 -1.63164e-06 0.000445113
0.000780357 -1.98116e-05 2.24654e-05
-1.98116e-05 0.000143283 8.83515e-06
2.24654e-05 8.83515e-06 0.000149603
0.00133118 -2.20705e-05 -9.56624e-06
-2.20705e-05 0.000483463 -6.23151e-06
-9.56624e-06 -6.23151e-06 0.000468679
0.000760482 -3.18495e-05 8.30311e-06
-3.18495e-05 0.000129311 3.31457e-06
8.30311e-06 3.31457e-06 0.000133795
0.00072026 -4.18504e-05 -1.45048e-07
-4.18504e-05 0.000108382 -2.77948e-06
-1.45048e-07 -2.77948e-06 0.000110038
0.000428464 4.06311e-05 -5.30108e-07
4.06311e-05 -6.19399e-05 -3.31082e-06
-5.30108e-07 -3.31082e-06 -8.13903e-05
0.00043581 6.97586e-05 -2.35828e-07
6.97586e-05 -3.25264e-05 2.36817e-07
-2.35828e-07 2.36817e-07 -6.76824e-05
0.00238973 0.000105767 1.34603e-05
0.000105767 0.00117466 -4.22515e-06
1.34603e-05 -4.22515e-06 0.00117598
0.000530649 2.50797e-05 -4.49858e-06
2.50797e-05 2.88327e-05 8.13588e-06
-4.49858e-06 8.13588e-06 -1.56186e-05
0.00287637 0.00014046 -4.89998e-06
0.00014046 0.00148621 -5.74307e-07
-4.89998e-06 -5.74307e-07 0.00147796
0.00361264 8.46826e-05 -0.000116987
8.46826e-05 0.00193903 8.98008e-06
-0.000116987 8.98008e-06 0.00194345
0.00190506 0.000311345 -8.57258e-07
0.000311345 7.83944e-05 1.41242e-06
-8.57258e-07 1.41242e-06 -4.24068e-05
0.00202658 0.00018331 -5.2451e-06
0.00018331 6.43072e-05 -5.70141e-07
-5.2451e-06 -5.70141e-07 1.66144e-05
0.00202498 0.000272538 -4.21479e-07
0.000272538 1.73689e-05 -2.95741e-07
-4.21479e-07 -2.95741e-07 -2.50534e-05
0.00195682 0.000115103 -3.10455e-06
0.000115103 -1.43073e-05 -5.01339e-07
-3.10455e-06 -5.01339e-07 -1.63292e-05
0.0019625 5.03642e-05 -5.21968e-06
5.03642e-05 5.75475e-05 -2.38895e-07
-5.21968e-06 -2.38895e-07 2.6718e-05
0.00187483 -6.87085e-06 -3.75789e-06
-6.87085e-06 4.5607e-05 2.31072e-07
-3.75789e-06 2.31072e-07 -1.20823e-05
0.0019183 -7.8184e-06 -3.31403e-07
-7.8184e-06 3.2098e-05 -4.98302e-08
-3.31403e-07 -4.98302e-08 4.38365e-06
0.00198118 5.62495e-05 1.1259e-06
5.62495e-05 9.21665e-06 1.53895e-07
1.1259e-06 1.53895e-07 8.65244e-06
0.00205369 0.000187134 9.00281e-07
0.000187134 1.53113e-05 2.07165e-07
9.00281e-07 2.07165e-07 5.6213e-06
0.00210125 0.000347519 7.31527e-07
0.000347519 7.39385e-05 3.25848e-07
7.31527e-07 3.25848e-07 4.93708e-08
0.0019639 -1.37736e-05 2.039e-06
-1.37736e-05 7.78151e-06 -5.32712e-08
2.039e-06 -5.32712e-08 4.22438e-06
0.00210076 0.000106506 6.19711e-07
0.000106506 -2.38296e-05 -2.2036e-07
6.19711e-07 -2.2036e-07 9.88857e-06
0.00225774 0.000287155 2.09925e-06
0.000287155 4.61223e-05 8.48393e-07
2.09925e-06 8.48393e-07 3.86672e-05
0.00190997 -7.6557e-05 -5.30146e-06
-7.6557e-05 6.06867e-06 1.09751e-07
-5.30146e-06 1.09751e-07 -1.77939e-05
0.00197655 -0.000167198 -3.04074e-06
-0.000167198 4.28091e-05 2.04352e-07
-3.04074e-06 2.04352e-07 5.1975e-06
0.00200992 -0.000301642 -2.9953e-06
-0.000301642 5.44122e-05 8.85334e-07
-2.9953e-06 8.85334e-07 1.84771e-06
0.00110438 -0.000379909 -3.31592e-06
-0.000379909 0.00018199 1.83287e-06
-3.31592e-06 1.83287e-06 -0.000119613
0.00141975 -0.00054843 8.79569e-06
-0.00054843 0.000265239 -2.82256e-06
8.79569e-06 -2.82256e-06 -0.000103237
0.00174619 -0.000652315 -1.32827e-06
-0.000652315 0.00025005 8.40697e-07
-1.32827e-06 8.40697e-07 -0.000118018
0.00189836 -0.000381241 -1.30965e-06
-0.000381241 6.20045e-05 1.17192e-06
-1.30965e-06 1.17192e-06 -4.14699e-05
0.00193017 -0.000498296 1.47712e-06
-0.000498296 0.00013306 1.6272e-06
1.47712e-06 1.6272e-06 -3.17102e-05
0.00211529 -0.000563177 4.88027e-06
-0.000563177 0.0003173 -6.76835e-06
4.88027e-06 -6.76835e-06 7.15927e-05
0.00113082 -0.00036269 2.57246e-06
-0.00036269 0.000214537 2.42404e-06
2.57246e-06 2.42404e-06 -8.15502e-05
0.000814712 -0.000324594 -9.165e-06
-0.000324594 6.62726e-05 5.32844e-07
-9.165e-06 5.32844e-07 -0.000229383
0.00215586 -0.000390271 1.53951e-06
-0.000390271 0.00104915 -1.21164e-06
1.53951e-06 -1.21164e-06 0.000702151
0.00034866 4.60844e-05 2.53372e-06
4.60844e-05 -8.32369e-05 9.71973e-07
2.53372e-06 9.71973e-07 -0.000165052
0.00109752 -0.000164703 3.67681e-06
-0.000164703 0.000420196 2.31527e-06
3.67681e-06 2.31527e-06 0.000192017
9.45047e-05 3.48146e-05 5.4992e-06
3.48146e-05 -0.000192037 5.88954e-07
5.4992e-06 5.88954e-07 -0.00036641
0.0019846 -8.4731e-05 -4.95346e-07
-8.4731e-05 1.76456e-05 1.14161e-07
-4.95346e-07 1.14161e-07 1.40039e-05
0.00205489 -0.000221118 1.23359e-07
-0.000221118 -1.62063e-05 -2.91618e-08
1.23359e-07 -2.91618e-08 -1.11664e-05
0.00206911 -0.000367545 -5.91603e-07
-0.000367545 4.1044e-05 2.80845e-07
-5.91603e-07 2.80845e-07 1.03832e-05
0.00148497 -0.000487581 -1.54523e-06
-0.000487581 0.000397566 -6.559e-08
-1.54523e-06 -6.559e-08 4.96173e-05
0.00141728 -0.000626344 2.19749e-06
-0.000626344 0.000227695 -1.17527e-06
2.19749e-06 -1.17527e-06 -0.000181135
0.00229417 -0.000724565 -5.01084e-06
-0.000724565 0.000563045 5.35709e-07
-5.01084e-06 5.35709e-07 0.000184802
0.00208274 -0.000468344 5.36156e-07
-0.000468344 8.27606e-05 -5.0115e-07
5.36156e-07 -5.0115e-07 -1.23052e-05
0.00192985 -0.000573783 1.50225e-06
-0.000573783 0.000145829 -2.72862e-06
1.50225e-06 -2.72862e-06 -6.85159e-05
0.000351019 5.95231e-05 -1.16716e-06
5.95231e-05 -8.64155e-05 -1.08175e-06
-1.16716e-06 -1.08175e-06 -0.000146679
0.000661197 -1.61018e-05 -8.2679e-07
-1.61018e-05 0.00015157 4.11184e-07
-8.2679e-07 4.11184e-07 1.64073e-05
0.000789754 -0.000382929 -4.73605e-06
-0.000382929 -1.37349e-05 2.18707e-06
-4.73605e-06 2.18707e-06 -0.000339104
0.00164565 -0.000373183 3.67437e-06
-0.000373183 0.000656824 -2.49226e-07
3.67437e-06 -2.49226e-07 0.000273968
0.00132046 -0.000137161 -1.83316e-07
-0.000137161 0.000540793 -1.99393e-06
-1.83316e-07 -1.99393e-06 0.000266209
0.000834906 -0.000133177 -5.30105e-07
-0.000133177 0.000288729 8.60118e-07
-5.30105e-07 8.60118e-07 7.24178e-05
0.00205316 -0.000115409 -7.98334e-07
-0.000115409 -2.65567e-05 4.22664e-08
-7.98334e-07 4.22664e-08 4.36017e-06
0.00217359 -0.000316579 -1.50263e-06
-0.000316579 -4.16791e-05 6.91771e-07
-1.50263e-06 6.91771e-07 4.28179e-06
0.00216221 -0.000430999 1.53174e-06
-0.000430999 5.74906e-05 -2.16366e-07
1.53174e-06 -2.16366e-07 3.67821e-05
0.00234812 -0.000627633 7.17746e-06
-0.000627633 0.000229728 -2.50391e-06
7.17746e-06 -2.50391e-06 8.35008e-05
0.000586201 -0.000445029 -4.76815e-07
-0.000445029 -0.00014521 -4.59268e-06
-4.76815e-07 -4.59268e-06 -0.00051003
0.00233743 -0.000762905 -5.39652e-07
-0.000762905 0.000515272 9.96164e-06
-5.39652e-07 9.96164e-06 0.000158886
0.00234204 -0.000785822 -1.38875e-05
-0.000785822 0.000715832 -3.56851e-06
-1.38875e-05 -3.56851e-06 0.000252253
0.000581573 4.88897e-05 6.13519e-07
4.88897e-05 3.8963e-05 -6.32521e-07
6.13519e-07 -6.32521e-07 -6.88371e-06
0.000665856 -0.000132221 4.5301e-06
-0.000132221 0.000141348 -2.21862e-06
4.5301e-06 -2.21862e-06 4.46361e-05
0.000293451 7.32683e-05 -5.6466e-06
7.32683e-05 -8.62433e-05 1.13054e-06
-5.6466e-06 1.13054e-06 -0.000184958
0.000792621 -5.16028e-05 -4.062e-06
-5.16028e-05 0.000259288 5.1408e-06
-4.062e-06 5.1408e-06 7.82383e-05
0.000336088 -8.16475e-05 1.9373e-06
-8.16475e-05 -6.27307e-05 -3.29587e-06
1.9373e-06 -3.29587e-06 -0.000276539
-0.000845383 -1.22413e-05 2.25447e-06
-1.22413e-05 -0.000753187 -6.06912e-08
2.25447e-06 -6.06912e-08 -0.0010877
0.00145908 -0.000478554 -1.76037e-05
-0.000478554 0.000390145 1.16238e-05
-1.76037e-05 1.16238e-05 4.88786e-05
0.00301589 -0.000525527 -2.04718e-05
-0.000525527 0.0016042 1.24304e-05
-2.04718e-05 1.24304e-05 0.00104402
0.000606773 1.36784e-05 -4.80524e-07
1.36784e-05 8.12745e-05 -1.59436e-06
-4.80524e-07 -1.59436e-06 -2.54509e-05
0.00076549 0.000127568 3.18998e-08
0.000127568 0.000246826 -1.37374e-06
3.18998e-08 -1.37374e-06 3.38018e-05
0.00223564 0.000453546 -2.3039e-06
0.000453546 0.00022747 -1.30496e-06
-2.3039e-06 -1.30496e-06 8.45483e-05
0.000588277 0.000147816 -2.56499e-06
0.000147816 5.8845e-05 2.51126e-06
-2.56499e-06 2.51126e-06 -0.000152084
0.00148667 0.000388688 -1.39686e-06
0.000388688 0.000438245 9.63748e-07
-1.39686e-06 9.63748e-07 0.000156959
0.000595871 0.000240398 -3.56e-06
0.000240398 -0.000134755 -4.3623e-06
-3.56e-06 -4.3623e-06 -0.000328593
0.00227196 0.000576165 -3.90263e-06
0.000576165 0.000439369 -4.12019e-07
-3.90263e-06 -4.12019e-07 0.000180252
0.00217631 0.000566546 -7.42667e-06
0.000566546 0.000265657 4.96841e-06
-7.42667e-06 4.96841e-06 3.42596e-05
0.00165625 0.000534142 -1.22285e-06
0.000534142 0.000485892 1.06045e-06
-1.22285e-06 1.06045e-06 0.000124026
0.00157937 0.00062023 -3.50169e-07
0.00062023 0.000225434 1.5299e-07
-3.50169e-07 1.5299e-07 -0.000121121
7.94189e-05 4.02431e-05 3.05667e-08
4.02431e-05 -0.000222296 1.44406e-06
3.05667e-08 1.44406e-06 -0.000348187
0.00027095 0.000174357 -8.9993e-07
0.000174357 -1.40138e-05 -3.3547e-06
-8.9993e-07 -3.3547e-06 -0.000267265
0.00149855 0.000418085 1.93102e-06
0.000418085 0.000424338 -3.60798e-07
1.93102e-06 -3.60798e-07 0.000122666
0.000786876 0.000238119 -2.02048e-06
0.000238119 4.85357e-05 3.42702e-07
-2.02048e-06 3.42702e-07 -0.000158708
0.00220978 0.000431901 8.32772e-07
0.000431901 -4.76696e-05 -1.0581e-06
8.32772e-07 -1.0581e-06 -5.91518e-05
0.00248814 0.000552981 3.17537e-06
0.000552981 0.000400131 5.33954e-07
3.17537e-06 5.33954e-07 0.000207283
0.00199257 0.000632626 -2.10514e-07
0.000632626 0.000298409 6.07729e-07
-2.10514e-07 6.07729e-07 -1.24193e-05
0.00161551 0.000590668 8.03607e-07
0.000590668 0.000338424 4.58781e-07
8.03607e-07 4.58781e-07 -3.47064e-05
-2.65933e-05 4.76661e-05 -1.13058e-06
4.76661e-05 -0.000292423 4.64777e-06
-1.13058e-06 4.64777e-06 -0.000426336
0.002151 0.000341204 6.32456e-06
0.000341204 -0.000142538 3.62376e-06
6.32456e-06 3.62376e-06 -8.71155e-05
0.00205858 0.000402574 6.6193e-06
0.000402574 0.0010237 8.78651e-06
6.6193e-06 8.78651e-06 0.00073031
0.00133787 0.000421623 1.88304e-06
0.000421623 0.000286392 -8.1201e-07
1.88304e-06 -8.1201e-07 -4.02315e-06
0.00257539 0.000540064 -1.69482e-05
0.000540064 0.000303938 -6.96593e-06
-1.69482e-05 -6.96593e-06 0.000204006
0.00107006 0.000584007 -9.68291e-06
0.000584007 -0.000325162 -8.71768e-06
-9.68291e-06 -8.71768e-06 -0.000618947
0.0021966 0.000681915 -2.91891e-06
0.000681915 0.000617416 2.52358e-06
-2.91891e-06 2.52358e-06 0.000219427
0.0007747 9.48016e-05 -1.24373e-06
9.48016e-05 0.000189394 -1.21776e-06
-1.24373e-06 -1.21776e-06 7.55722e-05
0.00065006 8.90434e-05 -2.77632e-06
8.90434e-05 0.000124863 -8.6821e-07
-2.77632e-06 -8.6821e-07 1.93542e-05
0.00146349 9.30028e-05 -3.22648e-06
9.30028e-05 0.000630262 -1.97738e-06
-3.22648e-06 -1.97738e-06 0.000545784
0.000538924 4.32735e-06 2.33279e-07
4.32735e-06 5.09155e-05 -3.16301e-06
2.33279e-07 -3.16301e-06 -5.02493e-05
0.000690735 7.57684e-05 1.64361e-06
7.57684e-05 0.000162576 -2.3908e-07
1.64361e-06 -2.3908e-07 3.11885e-05
8.12469e-05 5.79941e-05 -1.32629e-06
5.79941e-05 -0.000193028 3.67916e-06
-1.32629e-06 3.67916e-06 -0.000303192
0.000575859 1.73058e-05 -1.12258e-06
1.73058e-05 8.02721e-05 1.66786e-08
-1.12258e-06 1.66786e-08 -2.75177e-05
0.000343102 -1.57121e-05 -8.97359e-07
-1.57121e-05 -4.33007e-05 7.16348e-08
-8.97359e-07 7.16348e-08 -0.00017599
0.000202778 3.65153e-05 7.92053e-07
3.65153e-05 -0.000149615 5.80096e-07
7.92053e-07 5.80096e-07 -0.000227333
0.000769492 7.65461e-05 8.70838e-07
7.65461e-05 0.000218363 -9.24504e-07
8.70838e-07 -9.24504e-07 8.26426e-05
0.00152933 0.000104643 -1.74825e-07
0.000104643 0.00063491 -2.51274e-06
-1.74825e-07 -2.51274e-06 0.000580507
0.00052534 1.15793e-05 8.02296e-06
1.15793e-05 4.43152e-05 -4.31236e-06
8.02296e-06 -4.31236e-06 -4.43419e-05
0.000370338 8.76187e-05 3.62398e-07
8.76187e-05 -1.87838e-05 1.8522e-06
3.62398e-07 1.8522e-06 -0.000164661
0.000606262 4.39118e-05 2.33693e-06
4.39118e-05 0.00011803 2.90154e-06
2.33693e-06 2.90154e-06 -3.03953e-05
0.000598657 3.49685e-05 2.41681e-06
3.49685e-05 8.75577e-05 2.97777e-06
2.41681e-06 2.97777e-06 -2.12795e-05
0.000487506 -4.91446e-05 -2.06697e-07
-4.91446e-05 6.39662e-06 3.01049e-06
-2.06697e-07 3.01049e-06 -6.60797e-05
0.00051168 5.31702e-06 -8.45619e-08
5.31702e-06 1.63267e-05 -2.55141e-07
-8.45619e-08 -2.55141e-07 -5.00654e-05
0.00127842 1.85133e-05 2.39688e-06
1.85133e-05 0.000465051 2.76309e-06
2.39688e-06 2.76309e-06 0.000448548
0.000515048 -7.6666e-06 2.39035e-07
-7.6666e-06 1.06708e-05 -3.0874e-06
2.39035e-07 -3.0874e-06 -4.89163e-05
0.00129173 5.63451e-06 -4.64515e-06
5.63451e-06 0.000466257 -1.63701e-06
-4.64515e-06 -1.63701e-06 0.000451745
0.000749862 -1.15135e-05 1.75565e-05
-1.15135e-05 0.000127777 8.66074e-06
1.75565e-05 8.66074e-06 0.000134359
0.00134646 -9.56045e-06 -7.54499e-06
-9.56045e-06 0.000495019 -6.26323e-06
-7.54499e-06 -6.26323e-06 0.00048098
0.000781853 -2.26376e-05 6.12154e-06
-2.26376e-05 0.000141746 3.38923e-06
6.12154e-06 3.38923e-06 0.000147266
0.000748223 -3.23175e-05 -6.99488e-08
-3.23175e-05 0.000119888 -2.63612e-06
-6.99488e-08 -2.63612e-06 0.000124124
0.000642321 -2.63157e-06 1.86123e-06
-2.63157e-06 7.39662e-05 -1.76225e-06
1.86123e-06 -1.76225e-06 3.02149e-05
0.000466025 2.86167e-05 4.83929e-07
2.86167e-05 -5.00941e-05 -3.36045e-06
4.83929e-07 -3.36045e-06 -6.36881e-05
0.000474514 4.38896e-05 3.88135e-07
4.38896e-05 -3.15518e-05 2.38494e-07
3.88135e-07 2.38494e-07 -5.21643e-05
0.00215323 8.21602e-05 1.46783e-05
8.21602e-05 0.00101733 -4.05308e-06
1.46783e-05 -4.05308e-06 0.00102511
0.000500273 6.86271e-05 5.71175e-06
6.86271e-05 6.1545e-06 6.58244e-06
5.71175e-06 6.58244e-06 -2.93011e-05
0.00252837 0.000112323 -5.51486e-06
0.000112323 0.00126152 -5.52015e-07
-5.51486e-06 -5.52015e-07 0.00126127
0.00304399 0.00012015 -3.64742e-05
0.00012015 0.00158383 4.95286e-06
-3.64742e-05 4.95286e-06 0.00157981
0.00212156 0.00034248 1.60766e-08
0.00034248 7.69364e-05 -9.74257e-08
1.60766e-08 -9.74257e-08 3.26699e-06
0.00205231 0.000191877 -2.43384e-06
0.000191877 1.79532e-05 -5.67828e-07
-2.43384e-06 -5.67828e-07 7.68022e-06
0.00198583 5.99042e-05 -2.96442e-06
5.99042e-05 1.79785e-05 -2.19348e-07
-2.96442e-06 -2.19348e-07 1.57737e-05
0.00191713 -5.65021e-06 -5.30656e-06
-5.65021e-06 3.16719e-05 -2.09707e-07
-5.30656e-06 -2.09707e-07 4.68858e-06
0.00195763 -8.78785e-06 -9.10146e-07
-8.78785e-06 1.30445e-06 1.34216e-09
-9.10146e-07 1.34216e-09 5.12799e-07
0.00208222 9.95263e-05 -8.36446e-08
9.95263e-05 -2.59945e-05 1.36874e-07
-8.36446e-08 1.36874e-07 4.7115e-06
0.00218871 0.000292012 -1.09487e-06
0.000292012 1.01157e-05 -6.69185e-08
-1.09487e-06 -6.69185e-08 4.47462e-06
0.00206005 -1.05165e-05 -5.15238e-07
-1.05165e-05 -4.12234e-05 -4.46218e-07
-5.15238e-07 -4.46218e-07 -2.88964e-07
0.00226079 0.000152531 4.68442e-06
0.000152531 -3.10129e-05 -3.7618e-07
4.68442e-06 -3.7618e-07 1.0896e-05
0.00243642 0.000103413 5.71965e-06
0.000103413 0.000152364 1.24115e-05
5.71965e-06 1.24115e-05 0.000220148
0.00200015 -8.43286e-05 -3.35794e-06
-8.43286e-05 2.71386e-05 1.35606e-07
-3.35794e-06 1.35606e-07 2.14924e-05
0.00203565 -0.000228913 -1.73288e-06
-0.000228913 -3.18301e-05 3.3267e-08
-1.73288e-06 3.3267e-08 -2.54228e-05
0.00204644 -0.00036139 -1.21969e-06
-0.00036139 3.38926e-05 1.84282e-07
-1.21969e-06 1.84282e-07 6.92902e-07
0.00120362 -0.000458199 2.84683e-06
-0.000458199 0.000222196 1.92307e-07
2.84683e-06 1.92307e-07 -0.000119435
0.00166813 -0.000648877 8.10618e-06
-0.000648877 0.000373758 3.94087e-07
8.10618e-06 3.94087e-07 -3.87942e-05
0.00203545 -0.000683944 1.55669e-06
-0.000683944 0.000421338 9.51506e-08
1.55669e-06 9.51506e-08 6.01311e-05
0.00200046 -0.000471392 8.63816e-08
-0.000471392 3.64759e-05 2.40002e-06
8.63816e-08 2.40002e-06 -6.36391e-05
0.00191212 -0.000566556 -4.43587e-06
-0.000566556 0.000141302 -1.2964e-06
-4.43587e-06 -1.2964e-06 -6.99485e-05
0.000641284 -0.000362448 -5.70771e-06
-0.000362448 -9.75153e-05 -3.61598e-06
-5.70771e-06 -3.61598e-06 -0.000417956
0.002068 -0.000392158 1.55507e-05
-0.000392158 0.000959848 -9.1873e-06
1.55507e-05 -9.1873e-06 0.000560721
0.00112616 -7.98022e-05 -2.36736e-07
-7.98022e-05 0.000401 2.34543e-06
-2.36736e-07 2.34543e-06 0.000146971
0.000450621 1.69544e-05 1.69702e-06
1.69544e-05 -2.76847e-05 -2.00431e-07
1.69702e-06 -2.00431e-07 -8.34701e-05
0.00078672 3.918e-05 5.52938e-06
3.918e-05 0.00022387 2.1681e-07
5.52938e-06 2.1681e-07 8.83857e-05
0.00060584 -9.21434e-05 1.33368e-06
-9.21434e-05 0.000140924 3.24852e-06
1.33368e-06 3.24852e-06 -7.35758e-05
0.00206242 -0.000118271 5.84846e-07
-0.000118271 -2.92186e-05 -3.82649e-08
5.84846e-07 -3.82649e-08 3.83564e-06
0.000512318 1.36648e-05 1.43191e-06
1.36648e-05 -2.80045e-06 2.67623e-07
1.43191e-06 2.67623e-07 -4.847e-05
0.000441846 -6.66984e-05 -1.92516e-06
-6.66984e-05 -2.40111e-05 -3.23077e-07
-1.92516e-06 -3.23077e-07 -0.000103277
0.00215765 -0.000306296 -2.42479e-07
-0.000306296 -3.12857e-05 1.87695e-07
-2.42479e-07 1.87695e-07 8.31396e-06
0.00209918 -0.00042161 -1.47545e-06
-0.00042161 2.24908e-05 1.36285e-07
-1.47545e-06 1.36285e-07 8.73289e-06
0.00167078 -0.000571146 -1.79899e-06
-0.000571146 0.000479438 1.06728e-06
-1.79899e-06 1.06728e-06 8.70665e-05
0.00184191 -0.000726776 2.57993e-06
-0.000726776 0.000450157 1.26393e-06
2.57993e-06 1.26393e-06 -9.09842e-06
0.0018349 -0.0007087 4.5787e-06
-0.0007087 0.00022648 -3.72935e-06
4.5787e-06 -3.72935e-06 -0.000116009
0.00216833 -0.000610505 2.89323e-06
-0.000610505 0.000135375 -9.32824e-07
2.89323e-06 -9.32824e-07 -6.09617e-06
0.000677062 2.36755e-07 -1.37197e-07
2.36755e-07 0.000159099 -1.40183e-06
-1.37197e-07 -1.40183e-06 5.58401e-05
0.000688782 -3.85659e-05 4.18291e-07
-3.85659e-05 0.000192875 1.81325e-06
4.18291e-07 1.81325e-06 1.23467e-05
0.00160815 -0.000479372 3.61383e-06
-0.000479372 0.000482668 6.4937e-07
3.61383e-06 6.4937e-07 0.0001311
0.00137871 -0.000351035 1.50424e-05
-0.000351035 0.000609906 -4.21563e-06
1.50424e-05 -4.21563e-06 0.000130843
0.000569998 -7.4933e-05 -3.46023e-06
-7.4933e-05 6.24693e-05 -1.0634e-06
-3.46023e-06 -1.0634e-06 -0.00023566
0.000543196 -5.7435e-05 9.88853e-07
-5.7435e-05 7.81595e-05 -1.98299e-06
9.88853e-07 -1.98299e-06 -0.000148021
0.00208975 -0.000137183 2.08789e-06
-0.000137183 -0.000125467 -1.22605e-06
2.08789e-06 -1.22605e-06 -8.02449e-05
0.00213978 -0.000390376 -1.71672e-06
-0.000390376 -0.000173927 2.01035e-06
-1.71672e-06 2.01035e-06 -1.10455e-05
0.00225831 -0.000571088 -5.42846e-06
-0.000571088 5.5362e-05 7.37876e-07
-5.42846e-06 7.37876e-07 1.27976e-05
0.00207621 -0.00076524 6.40414e-06
-0.00076524 0.000173797 -3.59854e-06
6.40414e-06 -3.59854e-06 -3.11951e-05
0.00110895 -0.000536294 -1.38255e-06
-0.000536294 0.000188956 -1.01612e-05
-1.38255e-06 -1.01612e-05 -0.000212845
0.00253634 -0.000878918 -1.21036e-05
-0.000878918 0.000760826 1.12768e-05
-1.21036e-05 1.12768e-05 0.000265732
0.000215051 4.77554e-05 -1.37802e-06
4.77554e-05 -0.000152487 -3.44789e-06
-1.37802e-06 -3.44789e-06 -0.000239666
0.000598997 -5.56318e-05 5.20928e-06
-5.56318e-05 7.19259e-05 -7.47092e-08
5.20928e-06 -7.47092e-08 -3.1656e-06
0.00102599 -0.000135399 1.0762e-06
-0.000135399 0.000331861 6.18909e-06
1.0762e-06 6.18909e-06 0.000227759
0.000537272 2.75273e-05 -4.06204e-06
2.75273e-05 8.11557e-05 8.33409e-06
-4.06204e-06 8.33409e-06 -6.62841e-05
0.000804651 -9.22132e-05 -5.12669e-06
-9.22132e-05 0.000240498 7.88409e-06
-5.12669e-06 7.88409e-06 5.48094e-05
0.00151591 -4.48127e-05 6.79299e-06
-4.48127e-05 0.000580471 -4.31164e-06
6.79299e-06 -4.31164e-06 0.000363122
-0.00110172 -0.000192771 6.17755e-06
-0.000192771 -0.000585016 1.33486e-06
6.17755e-06 1.33486e-06 -0.00126603
-0.00019368 -0.000434319 -3.82645e-05
-0.000434319 -0.000623633 1.09575e-05
-3.82645e-05 1.09575e-05 -0.000948996
0.000430321 5.78069e-05 -6.04585e-07
5.78069e-05 3.62593e-06 -1.30868e-06
-6.04585e-07 -1.30868e-06 -0.000139682
0.00103362 0.000214086 -9.29085e-06
0.000214086 0.0004361 -6.63914e-06
-9.29085e-06 -6.63914e-06 0.000187581
0.00228236 0.000419509 -6.72685e-06
0.000419509 -6.8042e-06 -2.57045e-06
-6.72685e-06 -2.57045e-06 -1.76912e-05
0.00232726 0.00055072 -4.33653e-06
0.00055072 0.000311655 1.53912e-07
-4.33653e-06 1.53912e-07 0.000113808
0.00202329 0.000332674 -6.74538e-06
0.000332674 0.000791797 -1.18489e-06
-6.74538e-06 -1.18489e-06 0.000575627
0.00158087 0.000432127 -4.07266e-06
0.000432127 0.000466558 -3.19508e-06
-4.07266e-06 -3.19508e-06 0.00016099
0.00200952 0.000624134 1.6299e-06
0.000624134 0.000307219 2.13753e-06
1.6299e-06 2.13753e-06 1.06782e-06
0.00178648 0.000605317 -1.25596e-06
0.000605317 0.000424396 -4.01654e-07
-1.25596e-06 -4.01654e-07 5.30831e-05
0.000466905 8.92236e-05 8.03768e-07
8.92236e-05 2.75843e-05 -1.14864e-06
8.03768e-07 -1.14864e-06 -0.000129476
0.00229633 0.000324646 -1.99061e-06
0.000324646 -5.23195e-05 -1.33932e-06
-1.99061e-06 -1.33932e-06 6.8584e-06
0.00142937 0.00029355 1.375e-06
0.00029355 0.000615737 1.71694e-06
1.375e-06 1.71694e-06 0.000353661
0.0015436 0.000441892 2.07686e-06
0.000441892 0.000427053 1.03457e-06
2.07686e-06 1.03457e-06 0.000127765
0.00252833 0.000537013 1.56873e-06
0.000537013 0.000285778 3.43181e-07
1.56873e-06 3.43181e-07 0.000186889
0.00165373 0.00063002 -1.87009e-06
0.00063002 9.1173e-06 -4.62672e-06
-1.87009e-06 -4.62672e-06 -0.000288608
0.00198122 0.000653085 4.25918e-07
0.000653085 0.000503681 3.27978e-07
4.25918e-07 3.27978e-07 0.000110302
0.00114604 0.000227415 -3.56235e-06
0.000227415 0.000487277 4.86658e-06
-3.56235e-06 4.86658e-06 0.00027284
0.00310768 0.000434567 -7.21691e-05
0.000434567 0.000464597 -1.93813e-05
-7.21691e-05 -1.93813e-05 0.000550345
0.00169241 0.000443931 -4.24671e-06
0.000443931 0.000681923 3.00304e-06
-4.24671e-06 3.00304e-06 0.00038882
0.00142884 0.000505955 -3.26741e-06
0.000505955 0.000278157 -5.95314e-06
-3.26741e-06 -5.95314e-06 -7.55583e-05
0.00193897 0.000668897 -3.51878e-05
0.000668897 4.1929e-05 -1.91847e-05
-3.51878e-05 -1.91847e-05 -0.000160607
0.00110334 0.000588383 -2.68086e-05
0.000588383 -5.13463e-05 -3.38999e-06
-2.68086e-05 -3.38999e-06 -0.000420495
0.000347779 0.00062847 2.81879e-05
0.00062847 -0.00142367 -3.49812e-05
2.81879e-05 -3.49812e-05 -0.00132474
0.000209165 0.00010164 2.10804e-06
0.00010164 -0.000127214 -6.46205e-07
2.10804e-06 -6.46205e-07 -0.000239419
0.000558963 9.67109e-05 -5.79017e-07
9.67109e-05 0.000112459 9.70434e-07
-5.79017e-07 9.70434e-07 2.12282e-05
0.00189904 0.000144874 1.60696e-06
0.000144874 0.000886484 -2.69172e-06
1.60696e-06 -2.69172e-06 0.00080281
0.000473246 -6.40474e-05 5.39047e-07
-6.40474e-05 2.60752e-05 -3.76632e-06
5.39047e-07 -3.76632e-06 -8.55375e-05
0.000462292 -4.19269e-05 -1.04995e-06
-4.19269e-05 2.7114e-05 -5.64114e-07
-1.04995e-06 -5.64114e-07 -0.000102358
0.000949756 0.000166555 6.64719e-08
0.000166555 0.00033333 1.04793e-06
6.64719e-08 1.04793e-06 0.000186943
-6.8526e-05 1.46003e-05 -4.15172e-06
1.46003e-05 -0.000298414 1.02569e-05
-4.15172e-06 1.02569e-05 -0.000375141
0.000555678 -1.53823e-05 -4.70854e-07
-1.53823e-05 7.65758e-05 -5.86883e-08
-4.70854e-07 -5.86883e-08 -4.07805e-05
0.000515689 6.06926e-05 1.49153e-07
6.06926e-05 4.41853e-05 -6.49464e-07
1.49153e-07 -6.49464e-07 -8.93325e-05
0.000955208 8.53112e-05 1.98791e-06
8.53112e-05 0.000283904 3.80873e-06
1.98791e-06 3.80873e-06 0.000225189
0.000597463 5.49674e-05 1.46905e-06
5.49674e-05 0.000104797 7.45011e-07
1.46905e-06 7.45011e-07 -3.33638e-05
0.000661985 3.7355e-05 -1.64025e-06
3.7355e-05 0.00012093 -1.74908e-06
-1.64025e-06 -1.74908e-06 2.60532e-05
0.0015572 0.000108834 -5.12916e-07
0.000108834 0.00066979 -9.55655e-06
-5.12916e-07 -9.55655e-06 0.000614768
0.000910947 0.000112242 -2.14249e-06
0.000112242 0.000271838 -2.41001e-06
-2.14249e-06 -2.41001e-06 0.000128262
0.000941134 0.0001178 1.19172e-06
0.0001178 0.000307567 1.30614e-06
1.19172e-06 1.30614e-06 0.00016463
0.000817593 7.48442e-05 3.56665e-07
7.48442e-05 0.000249556 1.75622e-06
3.56665e-07 1.75622e-06 8.88134e-05
0.000331558 -2.34396e-05 5.67789e-08
-2.34396e-05 -7.91371e-05 3.19596e-06
5.67789e-08 3.19596e-06 -0.000194532
0.000984409 -4.49369e-05 -1.86918e-07
-4.49369e-05 0.000384151 -1.14951e-06
-1.86918e-07 -1.14951e-06 0.000216333
0.000258241 -3.55766e-05 -1.91998e-06
-3.55766e-05 -0.000120488 2.80918e-06
-1.91998e-06 2.80918e-06 -0.000240484
0.000482304 3.54865e-06 -2.03452e-06
3.54865e-06 7.96023e-06 3.11868e-06
-2.03452e-06 3.11868e-06 -6.95054e-05
0.000501229 3.45521e-05 2.32081e-06
3.45521e-05 1.71036e-05 -1.48266e-07
2.32081e-06 -1.48266e-07 -5.7681e-05
0.000412078 2.15443e-05 7.18753e-07
2.15443e-05 -6.47253e-05 4.24552e-06
7.18753e-07 4.24552e-06 -8.61434e-05
0.000475027 6.86497e-06 -2.95637e-06
6.86497e-06 -3.66502e-07 -3.28944e-06
-2.95637e-06 -3.28944e-06 -7.08554e-05
0.000893298 1.55604e-05 -3.09796e-06
1.55604e-05 0.000227166 -1.5965e-06
-3.09796e-06 -1.5965e-06 0.000208803
0.00255633 -8.37186e-06 1.49695e-05
-8.37186e-06 0.00124811 5.37572e-06
1.49695e-05 5.37572e-06 0.00126159
0.00137624 1.08908e-05 -7.26904e-06
1.08908e-05 0.00051913 -6.22583e-06
-7.26904e-06 -6.22583e-06 0.000504172
0.000771627 -1.29922e-05 4.82933e-06
-1.29922e-05 0.000138054 3.33412e-06
4.82933e-06 3.33412e-06 0.000144328
0.000778874 -2.26185e-05 4.40499e-07
-2.26185e-05 0.000137119 -2.51436e-06
4.40499e-07 -2.51436e-06 0.000142615
0.00051976 1.5725e-05 -1.50257e-06
1.5725e-05 4.63797e-06 -1.93104e-06
-1.50257e-06 -1.93104e-06 -3.96011e-05
0.000565936 -1.58146e-05 9.36404e-07
-1.58146e-05 2.85911e-05 -3.02593e-07
9.36404e-07 -3.02593e-07 -1.61657e-05
0.000523585 2.28422e-05 4.59843e-07
2.28422e-05 -1.75537e-05 -3.4068e-06
4.59843e-07 -3.4068e-06 -2.89256e-05
0.000805095 3.70665e-05 -1.67581e-07
3.70665e-05 0.00016248 9.69669e-08
-1.67581e-07 9.69669e-08 0.000149997
0.0021088 6.55605e-05 1.14935e-05
6.55605e-05 0.000981763 -4.24624e-06
1.14935e-05 -4.24624e-06 0.000993269
0.000501058 5.09232e-05 3.2595e-06
5.09232e-05 -1.16467e-05 4.41494e-06
3.2595e-06 4.41494e-06 -3.45275e-05
0.00228765 8.85486e-05 -2.94441e-06
8.85486e-05 0.00110228 -2.48986e-07
-2.94441e-06 -2.48986e-07 0.00110842
0.00263851 0.000118588 -7.27307e-06
0.000118588 0.00133071 5.38062e-06
-7.27307e-06 5.38062e-06 0.0013289
0.00212754 0.000297346 -2.38483e-06
0.000297346 -2.36751e-05 -1.04206e-06
-2.38483e-06 -1.04206e-06 -2.6664e-05
0.00206336 9.4086e-05 6.47024e-07
9.4086e-05 -2.95789e-05 2.9335e-07
6.47024e-07 2.9335e-07 -1.00869e-06
0.00195526 -4.8216e-06 -2.28683e-06
-4.8216e-06 -2.9305e-06 -1.11064e-07
-2.28683e-06 -1.11064e-07 -8.99644e-07
0.00205224 -7.39539e-06 1.42678e-07
-7.39539e-06 -4.46791e-05 -1.73468e-07
1.42678e-07 -1.73468e-07 -4.00324e-06
0.0022396 0.000156523 -2.59445e-07
0.000156523 -2.77457e-05 3.01337e-07
-2.59445e-07 3.01337e-07 1.30403e-05
0.00212845 8.15196e-05 7.72293e-06
8.15196e-05 -5.30845e-05 -4.57668e-06
7.72293e-06 -4.57668e-06 1.04023e-05
0.00225468 -6.26769e-06 1.85735e-06
-6.26769e-06 -7.19543e-05 -7.95809e-07
1.85735e-06 -7.95809e-07 2.36371e-06
0.00416988 0.000636165 4.33376e-05
0.000636165 -0.000356352 7.10486e-06
4.33376e-05 7.10486e-06 0.000168065
0.00246167 6.01898e-05 -2.75324e-05
6.01898e-05 0.000313321 2.91184e-05
-2.75324e-05 2.91184e-05 0.000481805
0.000499488 0.00010109 -1.45861e-06
0.00010109 3.29849e-05 -4.21201e-07
-1.45861e-06 -4.21201e-07 -5.32429e-05
0.0020721 -0.000119576 2.11919e-08
-0.000119576 -3.12181e-05 -1.08484e-07
2.11919e-08 -1.08484e-07 4.04838e-06
0.00213196 -0.000295685 1.67393e-06
-0.000295685 -2.69021e-05 -4.71279e-07
1.67393e-06 -4.71279e-07 5.48497e-06
0.00203964 -0.000414497 6.0771e-08
-0.000414497 -1.16592e-05 3.03627e-07
6.0771e-08 3.03627e-07 -1.9416e-05
0.00111157 -0.000513842 -7.96074e-06
-0.000513842 0.000151296 6.04706e-06
-7.96074e-06 6.04706e-06 -0.000227199
0.00219729 -0.000763717 9.22373e-06
-0.000763717 0.000645799 7.37067e-06
9.22373e-06 7.37067e-06 0.000180592
0.0017055 -0.00069863 -5.09457e-06
-0.00069863 0.000138727 -8.20869e-06
-5.09457e-06 -8.20869e-06 -0.000198961
0.00215498 -0.000606523 -4.78425e-06
-0.000606523 0.000136722 -5.55385e-07
-4.78425e-06 -5.55385e-07 -3.99491e-06
0.00163781 -0.00046507 2.12314e-05
-0.00046507 0.00046746 -1.82477e-05
2.12314e-05 -1.82477e-05 0.000129803
0.000726315 -0.000271548 2.06285e-05
-0.000271548 0.000202522 -1.71756e-05
2.06285e-05 -1.71756e-05 -0.000212846
0.00127925 -7.90947e-05 1.66229e-06
-7.90947e-05 0.000463399 1.90608e-07
1.66229e-06 1.90608e-07 0.000196249
0.000521007 8.69131e-06 4.43269e-07
8.69131e-06 4.49012e-06 1.08274e-06
4.43269e-07 1.08274e-06 -4.135e-05
0.00102574 -3.96132e-05 1.93891e-06
-3.96132e-05 0.000382398 3.83607e-06
1.93891e-06 3.83607e-06 0.000144275
0.000838464 -1.95757e-05 5.18747e-06
-1.95757e-05 0.000268349 -2.49111e-06
5.18747e-06 -2.49111e-06 0.000163137
0.000772863 -3.76816e-05 3.0836e-06
-3.76816e-05 0.000239236 -3.80402e-06
3.0836e-06 -3.80402e-06 5.98768e-05
0.00022943 -4.10009e-05 -4.22857e-06
-4.10009e-05 -0.000162792 9.17978e-07
-4.22857e-06 9.17978e-07 -0.000238456
0.00214699 -0.000153876 -5.68471e-07
-0.000153876 -0.000120403 -1.15524e-07
-5.68471e-07 -1.15524e-07 -5.26944e-05
0.000385303 2.90472e-05 2.14528e-08
2.90472e-05 -3.64829e-05 -1.93228e-06
2.14528e-08 -1.93228e-06 -0.000129192
0.000587315 -5.45751e-05 2.07828e-06
-5.45751e-05 8.2947e-05 8.83332e-07
2.07828e-06 8.83332e-07 -1.49921e-06
0.000834371 -0.000108603 2.06197e-06
-0.000108603 0.000210399 3.45218e-07
2.06197e-06 3.45218e-07 0.000113314
0.00215936 -0.000399239 1.74634e-06
-0.000399239 -0.000141085 -5.81827e-07
1.74634e-06 -5.81827e-07 -1.16553e-05
0.00220456 -0.000570696 6.87999e-07
-0.000570696 2.55202e-05 -1.15281e-06
6.87999e-07 -1.15281e-06 -1.87691e-05
0.000572687 -0.000426426 6.80634e-06
-0.000426426 -0.000117298 4.15279e-08
6.80634e-06 4.15279e-08 -0.000476464
0.00247181 -0.00087728 1.20599e-05
-0.00087728 0.000721802 -2.39101e-07
1.20599e-05 -2.39101e-07 0.000239236
0.00224865 -0.00077695 -2.03553e-06
-0.00077695 0.00029298 2.14922e-06
-2.03553e-06 2.14922e-06 7.17506e-05
0.00019416 -3.2731e-05 -8.07099e-07
-3.2731e-05 -0.000131544 -8.8205e-07
-8.07099e-07 -8.8205e-07 -0.000265961
0.000901436 -9.63806e-05 -1.16475e-06
-9.63806e-05 0.000314374 1.39999e-06
-1.16475e-06 1.39999e-06 0.000112626
0.00144436 -0.000616856 -5.08627e-06
-0.000616856 0.000331531 1.83955e-06
-5.08627e-06 1.83955e-06 -6.12619e-05
0.000342068 -0.000159464 2.20477e-07
-0.000159464 8.48515e-05 -2.01187e-06
2.20477e-07 -2.01187e-06 -0.000443447
0.000880832 -6.94564e-05 9.80178e-07
-6.94564e-05 0.00020176 2.61361e-06
9.80178e-07 2.61361e-06 -1.06076e-05
0.00256551 -0.000289927 -3.81713e-06
-0.000289927 0.000122518 -4.1493e-07
-3.81713e-06 -4.1493e-07 0.000197168
0.00194735 -0.000434148 -1.79732e-05
-0.000434148 -0.000252128 5.58687e-06
-1.79732e-05 5.58687e-06 -6.6212e-05
0.00208991 -0.000708607 -1.01957e-05
-0.000708607 5.54718e-05 4.38948e-08
-1.01957e-05 4.38948e-08 -0.000106121
0.00368498 -0.000978284 -1.99032e-05
-0.000978284 0.00121233 -1.80632e-06
-1.99032e-05 -1.80632e-06 0.00090992
0.000656647 -0.000552951 -2.45374e-05
-0.000552951 -8.86361e-05 -2.91437e-06
-2.45374e-05 -2.91437e-06 -0.000484951
0.000194453 -2.25636e-05 1.53922e-06
-2.25636e-05 -0.000150306 5.59649e-07
1.53922e-06 5.59649e-07 -0.000253812
0.000497961 6.12626e-06 4.82531e-08
6.12626e-06 -1.49587e-05 5.29987e-06
4.82531e-08 5.29987e-06 -0.000109463
-0.000595729 -5.81916e-05 -2.11858e-06
-5.81916e-05 -0.00066083 -2.90123e-06
-2.11858e-06 -2.90123e-06 -0.000748395
0.00199273 -0.00025719 -1.39986e-05
-0.00025719 0.0010023 1.7497e-05
-1.39986e-05 1.7497e-05 0.000820582
0.000971513 -9.55344e-05 -6.06688e-06
-9.55344e-05 0.000323469 1.70619e-05
-6.06688e-06 1.70619e-05 0.000143525
-0.00123689 -9.76653e-05 2.85642e-06
-9.76653e-05 -0.000533305 3.4687e-06
2.85642e-06 3.4687e-06 -0.00117547
-3.13504e-06 -0.000754756 -1.09391e-05
-0.000754756 -0.000130385 -1.20099e-06
-1.09391e-05 -1.20099e-06 -0.000784754
0.00127014 0.000161784 -1.69552e-06
0.000161784 0.000531028 -6.60913e-06
-1.69552e-06 -6.60913e-06 0.000349257
0.000210997 0.00011747 -4.46316e-06
0.00011747 -0.000157126 -3.32014e-06
-4.46316e-06 -3.32014e-06 -0.000371524
0.00242923 0.000301153 5.86201e-06
0.000301153 2.14147e-05 2.83302e-07
5.86201e-06 2.83302e-07 9.33573e-05
0.00240992 0.000530374 1.58596e-05
0.000530374 0.00022311 5.35777e-06
1.58596e-05 5.35777e-06 0.000128592
0.00213216 0.000665336 1.78823e-05
0.000665336 0.000286784 4.55048e-06
1.78823e-05 4.55048e-06 -1.25081e-05
0.00138522 0.000423324 -8.57202e-07
0.000423324 0.000342301 1.21986e-06
-8.57202e-07 1.21986e-06 4.30605e-05
0.00163805 0.000610776 3.17751e-06
0.000610776 0.000318533 3.35786e-06
3.17751e-06 3.35786e-06 -6.71044e-05
0.00177694 0.000231027 1.03794e-07
0.000231027 0.000830165 -1.26859e-07
1.03794e-07 -1.26859e-07 0.0006321
0.00259268 0.000360211 1.83987e-06
0.000360211 0.000203205 2.03346e-06
1.83987e-06 2.03346e-06 0.000310382
0.00123292 0.000355207 -2.24618e-06
0.000355207 0.000378291 2.11488e-06
-2.24618e-06 2.11488e-06 0.000115103
0.00172313 0.000544347 2.73108e-06
0.000544347 0.000481429 -5.58243e-07
2.73108e-06 -5.58243e-07 0.000109063
0.00208261 0.000671082 -3.84587e-06
0.000671082 0.000122621 -3.40405e-06
-3.84587e-06 -3.40405e-06 -6.51196e-05
0.00167985 0.000653214 -4.44404e-06
0.000653214 0.000285297 4.83262e-06
-4.44404e-06 4.83262e-06 -9.95474e-05
0.00312623 0.000897476 4.95934e-05
0.000897476 -0.000233804 4.39728e-06
4.95934e-05 4.39728e-06 -0.000275683
0.000968784 0.000267198 -4.15517e-06
0.000267198 0.000376716 2.66675e-06
-4.15517e-06 2.66675e-06 0.000154099
0.0028845 0.000646624 -8.29367e-05
0.000646624 0.000477901 -3.46635e-05
-8.29367e-05 -3.46635e-05 0.000431632
0.000883896 0.000376248 -3.8839e-06
0.000376248 2.28187e-05 6.172e-07
-3.8839e-06 6.172e-07 -0.000263414
8.49159e-05 0.000400592 -1.45617e-06
0.000400592 -0.00048048 -1.56606e-05
-1.45617e-06 -1.56606e-05 -0.000831043
0.000760536 0.000661044 -3.5571e-05
0.000661044 -0.000393658 -1.30293e-05
-3.5571e-05 -1.30293e-05 -0.000616503
0.0136691 0.000350049 -0.000399063
0.000350049 0.00236975 -4.39467e-05
-0.000399063 -4.39467e-05 0.00165956
0.00474439 0.0014172 5.09652e-06
0.0014172 -0.000845798 -8.40518e-05
5.09652e-06 -8.40518e-05 -0.000158646
-0.000542137 0.000937103 -1.32176e-06
0.000937103 -0.00121843 6.78091e-08
-1.32176e-06 6.78091e-08 -0.00148759
-0.00091555 -0.00166625 0.00112314
-0.00166625 0.000871393 0.000250589
0.00112314 0.000250589 -0.00185118
0.0176298 -0.00651931 -1.05536e-05
-0.00651931 0.00594937 7.18444e-05
-1.05536e-05 7.18444e-05 0.00510233
-7.07344e-05 9.35456e-05 6.82224e-06
9.35456e-05 -0.000243924 1.77606e-06
6.82224e-06 1.77606e-06 -0.000340869
0.00107526 0.000103306 3.94564e-08
0.000103306 0.000425425 -2.56474e-06
3.94564e-08 -2.56474e-06 0.000343863
0.00200495 0.000230171 3.66249e-07
0.000230171 0.00101055 -4.725e-07
3.66249e-07 -4.725e-07 0.000900004
0.000521342 -5.68686e-05 -8.84539e-07
-5.68686e-05 6.45928e-05 -2.80087e-06
-8.84539e-07 -2.80087e-06 -5.78098e-05
0.000426773 6.16983e-05 -1.10102e-06
6.16983e-05 -9.94358e-06 -2.59474e-06
-1.10102e-06 -2.59474e-06 -0.000145255
0.000753811 -1.67969e-05 3.05826e-08
-1.67969e-05 0.000200819 -6.73386e-07
3.05826e-08 -6.73386e-07 5.99668e-05
0.000667496 6.06771e-05 -4.316e-06
6.06771e-05 0.000118517 7.99096e-06
-4.316e-06 7.99096e-06 1.86856e-05
0.000434009 6.4102e-05 2.76693e-06
6.4102e-05 -3.52194e-05 7.87869e-06
2.76693e-06 7.87869e-06 -9.78274e-05
0.000689254 0.000120831 -1.74524e-06
0.000120831 0.000175076 -4.84212e-07
-1.74524e-06 -4.84212e-07 1.48732e-05
0.00043248 -6.15931e-06 4.29702e-07
-6.15931e-06 -8.07946e-06 9.47421e-07
4.29702e-07 9.47421e-07 -0.000127645
0.000681276 3.92361e-05 -5.28564e-07
3.92361e-05 0.000159202 -3.75071e-08
-5.28564e-07 -3.75071e-08 5.44567e-06
0.00049099 7.62335e-05 -7.86048e-07
7.62335e-05 1.30241e-05 -2.90432e-07
-7.86048e-07 -2.90432e-07 -4.20927e-05
0.000686797 0.000101733 -1.34816e-06
0.000101733 0.0001445 -2.83195e-07
-1.34816e-06 -2.83195e-07 3.79601e-06
0.00139974 0.000168366 -1.64782e-06
0.000168366 0.000604676 -7.00816e-07
-1.64782e-06 -7.00816e-07 0.000433794
0.000379629 9.63333e-05 1.15749e-06
9.63333e-05 9.13727e-06 -2.2414e-06
1.15749e-06 -2.2414e-06 -0.000143925
0.000833165 0.000100334 2.55776e-06
0.000100334 0.000252255 7.98294e-07
2.55776e-06 7.98294e-07 9.8767e-05
0.000512251 -2.78584e-05 1.65737e-06
-2.78584e-05 3.97133e-05 7.50348e-07
1.65737e-06 7.50348e-07 -0.000111084
0.000356113 -6.71271e-05 -1.40312e-06
-6.71271e-05 -5.77854e-05 2.81373e-06
-1.40312e-06 2.81373e-06 -0.000181883
0.000742917 -2.43896e-05 -8.09404e-07
-2.43896e-05 0.000196179 -2.34073e-08
-8.09404e-07 -2.34073e-08 4.09775e-05
0.00107917 1.70303e-05 6.34009e-08
1.70303e-05 0.000395564 -7.63551e-06
6.34009e-08 -7.63551e-06 0.000245296
0.000565999 -3.26114e-05 -1.40637e-06
-3.26114e-05 0.000115126 9.8893e-08
-1.40637e-06 9.8893e-08 -2.96217e-05
0.000769081 -4.48577e-05 1.84716e-06
-4.48577e-05 0.000224728 -5.76632e-07
1.84716e-06 -5.76632e-07 7.44496e-05
0.000658572 -0.000113871 -2.6987e-06
-0.000113871 0.000135628 1.90307e-06
-2.6987e-06 1.90307e-06 1.2974e-05
0.00033482 -2.2501e-05 1.25709e-07
-2.2501e-05 -6.92306e-05 1.14729e-06
1.25709e-07 1.14729e-06 -0.000192838
0.000516034 -4.70524e-05 -2.32956e-06
-4.70524e-05 1.98419e-05 3.33161e-06
-2.32956e-06 3.33161e-06 -5.29717e-05
0.000517654 -3.3282e-05 1.77707e-06
-3.3282e-05 2.72455e-05 6.6451e-08
1.77707e-06 6.6451e-08 -4.90247e-05
0.000477889 4.05668e-06 1.89421e-06
4.05668e-06 -2.16227e-05 6.16522e-06
1.89421e-06 6.16522e-06 -4.41329e-05
0.000537144 4.36013e-05 -1.62863e-06
4.36013e-05 3.40102e-05 -3.28952e-06
-1.62863e-06 -3.28952e-06 -3.7439e-05
0.000438806 2.67019e-05 4.44751e-07
2.67019e-05 -4.70909e-05 6.64725e-08
4.44751e-07 6.64725e-08 -6.91899e-05
0.0024941 1.98872e-06 2.07904e-06
1.98872e-06 0.00121161 5.32981e-06
2.07904e-06 5.32981e-06 0.00122481
0.000504623 2.89905e-05 -2.70776e-06
2.89905e-05 -1.16125e-05 -6.72479e-06
-2.70776e-06 -6.72479e-06 -3.36647e-05
0.00168964 -7.2192e-06 -1.6557e-06
-7.2192e-06 0.000710397 1.38143e-07
-1.6557e-06 1.38143e-07 0.000719386
0.000795959 -1.27538e-05 5.9733e-07
-1.27538e-05 0.000149376 -2.29939e-06
5.9733e-07 -2.29939e-06 0.000155796
0.00049162 -3.53365e-06 3.73774e-07
-3.53365e-06 -1.36837e-05 -1.39407e-06
3.73774e-07 -1.39407e-06 -5.29164e-05
0.00056146 -3.41338e-05 1.87172e-07
-3.41338e-05 3.25611e-05 -3.51914e-08
1.87172e-07 -3.51914e-08 -1.34482e-05
0.000538733 1.31665e-05 9.87607e-07
1.31665e-05 -1.02099e-05 -3.09542e-06
9.87607e-07 -3.09542e-06 -1.92794e-05
0.000508611 -2.99791e-05 -1.96061e-06
-2.99791e-05 -7.15939e-06 1.01151e-06
-1.96061e-06 1.01151e-06 -5.18305e-05
0.000796192 2.70538e-05 -8.24733e-08
2.70538e-05 0.000152022 -7.29327e-07
-8.24733e-08 -7.29327e-07 0.000142763
0.00198362 4.86877e-05 7.88709e-06
4.86877e-05 0.0008984 -4.35681e-06
7.88709e-06 -4.35681e-06 0.000913187
0.000495044 3.2949e-05 -1.19902e-07
3.2949e-05 -2.924e-05 3.35469e-06
-1.19902e-07 3.35469e-06 -4.40063e-05
0.00216822 6.91566e-05 -6.22959e-06
6.91566e-05 0.00102143 1.12371e-06
-6.22959e-06 1.12371e-06 0.001032
0.00236553 9.40067e-05 -7.65453e-06
9.40067e-05 0.00115213 4.71264e-06
-7.65453e-06 4.71264e-06 0.00115695
0.00221249 0.000161701 -2.95598e-06
0.000161701 -2.65223e-05 -1.11294e-06
-2.95598e-06 -1.11294e-06 1.32874e-05
0.00204292 -6.55862e-06 7.21965e-07
-6.55862e-06 -4.87778e-05 5.55714e-08
7.21965e-07 5.55714e-08 -8.60503e-06
0.00190095 5.89537e-05 -4.17563e-07
5.89537e-05 -0.000216925 8.44077e-07
-4.17563e-07 8.44077e-07 -0.000156599
0.00244561 0.000465199 7.43207e-05
0.000465199 -0.00112712 1.71033e-05
7.43207e-05 1.71033e-05 -0.000642534
0.00223268 -2.92898e-05 -1.31348e-06
-2.92898e-05 -6.57879e-05 -2.22433e-06
-1.31348e-06 -2.22433e-06 8.91086e-06
0.00214471 6.19367e-05 1.15972e-06
6.19367e-05 0.000137057 -8.34752e-06
1.15972e-06 -8.34752e-06 0.000254776
0.00329059 -3.36595e-05 -2.5666e-05
-3.36595e-05 0.000922371 3.51845e-06
-2.5666e-05 3.51845e-06 0.000926223
0.00290806 -3.19497e-06 -6.97901e-06
-3.19497e-06 -0.00170681 -2.68884e-05
-6.97901e-06 -2.68884e-05 -0.000900232
0.00275479 0.000170668 9.77691e-05
0.000170668 -0.000517477 5.53958e-05
9.77691e-05 5.53958e-05 -7.24555e-05
0.000584092 8.22676e-05 3.00547e-07
8.22676e-05 8.7421e-05 -2.68897e-07
3.00547e-07 -2.68897e-07 1.14088e-07
0.000582915 -4.90878e-06 4.65545e-07
-4.90878e-06 9.34694e-05 -1.09482e-07
4.65545e-07 -1.09482e-07 3.98752e-07
0.000470489 -0.000100266 -3.38564e-06
-0.000100266 2.98066e-05 1.10425e-06
-3.38564e-06 1.10425e-06 -7.79764e-05
0.000471229 -5.17718e-05 -2.04995e-06
-5.17718e-05 4.62487e-05 1.58226e-06
-2.04995e-06 1.58226e-06 -6.62821e-05
0.00221976 -0.000171594 -3.73848e-06
-0.000171594 -0.000100151 8.36996e-07
-3.73848e-06 8.36996e-07 -1.54943e-05
0.00217533 -0.000403334 2.10694e-06
-0.000403334 -0.000104756 -1.4691e-06
2.10694e-06 -1.4691e-06 -6.63072e-06
0.00216927 -0.000567388 -2.3487e-06
-0.000567388 8.02047e-06 4.32176e-07
-2.3487e-06 4.32176e-07 -3.60812e-05
0.00326642 -0.000724166 1.12929e-05
-0.000724166 0.00142116 5.85837e-06
1.12929e-05 5.85837e-06 0.0010149
0.000520252 -0.000671922 7.55267e-06
-0.000671922 -0.000355538 -3.07737e-06
7.55267e-06 -3.07737e-06 -0.000798702
0.00219681 -0.000765577 4.41893e-06
-0.000765577 0.000288063 -3.03747e-06
4.41893e-06 -3.03747e-06 6.00637e-05
0.00169232 -0.000668663 5.78162e-06
-0.000668663 0.000456851 -9.53121e-06
5.78162e-06 -9.53121e-06 2.97719e-05
0.00313055 -0.0002289 5.46471e-06
-0.0002289 0.00153109 -3.85491e-06
5.46471e-06 -3.85491e-06 0.00116451
-0.000157953 -2.10607e-05 -2.46323e-06
-2.10607e-05 -0.000458 2.59404e-06
-2.46323e-06 2.59404e-06 -0.000642177
0.000667513 -5.55204e-05 1.06415e-06
-5.55204e-05 0.0001367 2.51353e-07
1.06415e-06 2.51353e-07 5.15604e-05
0.00055847 -0.00011105 2.04571e-07
-0.00011105 0.000118345 -7.66547e-06
2.04571e-07 -7.66547e-06 -9.24756e-05
0.000696162 -6.22368e-06 3.66675e-06
-6.22368e-06 0.000187302 -4.03822e-06
3.66675e-06 -4.03822e-06 4.64422e-05
0.00061794 7.62179e-07 -4.1947e-08
7.62179e-07 0.000123759 7.17657e-07
-4.1947e-08 7.17657e-07 2.2481e-05
0.000545174 -4.69154e-05 -8.02349e-06
-4.69154e-05 2.52976e-05 2.50826e-06
-8.02349e-06 2.50826e-06 -6.04002e-05
0.00252817 -0.000273199 1.69306e-06
-0.000273199 0.00010867 1.15169e-06
1.69306e-06 1.15169e-06 0.000200273
0.000569552 -2.74018e-05 1.08314e-07
-2.74018e-05 9.63254e-05 8.58989e-07
1.08314e-07 8.58989e-07 -2.33374e-05
0.000826912 -2.41322e-05 5.37835e-06
-2.41322e-05 0.000207495 -5.86453e-07
5.37835e-06 -5.86453e-07 9.97268e-05
-0.000132845 -1.42743e-05 1.91802e-06
-1.42743e-05 -0.000355633 7.96643e-07
1.91802e-06 7.96643e-07 -0.000424701
0.00190939 -0.000440844 2.88762e-07
-0.000440844 -0.000302638 -1.24754e-06
2.88762e-07 -1.24754e-06 -0.000122491
0.00216416 -0.000711027 2.09982e-06
-0.000711027 9.41487e-05 -1.3519e-06
2.09982e-06 -1.3519e-06 -5.95965e-05
0.00180154 -0.00071902 -1.59461e-06
-0.00071902 0.000539806 -3.99023e-07
-1.59461e-06 -3.99023e-07 0.000119046
0.00241053 -0.000865287 -6.11734e-06
-0.000865287 0.000519932 1.19811e-06
-6.11734e-06 1.19811e-06 0.000228763
0.00136853 -0.000118519 -8.48746e-08
-0.000118519 0.000586592 5.13338e-07
-8.48746e-08 5.13338e-07 0.000421629
0.000259222 -4.08726e-05 4.8752e-06
-4.08726e-05 -0.000127615 1.61335e-06
4.8752e-06 1.61335e-06 -0.000304437
0.00141738 -0.000864039 4.19601e-06
-0.000864039 0.000692712 -1.90029e-06
4.19601e-06 -1.90029e-06 1.66093e-05
0.00120565 -0.000321756 -4.14874e-06
-0.000321756 0.000550175 -6.70351e-09
-4.14874e-06 -6.70351e-09 9.15458e-05
0.00309568 -0.000387453 -3.40852e-05
-0.000387453 0.000324814 -6.63347e-07
-3.40852e-05 -6.63347e-07 0.000557927
0.00228045 -0.000566553 -4.33234e-05
-0.000566553 8.12243e-05 1.147e-05
-4.33234e-05 1.147e-05 0.000141099
0.00238997 -0.000834124 -6.49991e-06
-0.000834124 0.000377459 -6.08736e-06
-6.49991e-06 -6.08736e-06 9.77096e-05
0.00263324 -0.000830633 -1.25502e-05
-0.000830633 0.000835859 2.14675e-06
-1.25502e-05 2.14675e-06 0.000541773
0.000291638 -4.3365e-05 -1.27153e-06
-4.3365e-05 -3.99915e-05 -4.05702e-06
-1.27153e-06 -4.05702e-06 -0.000161078
0.00028255 -9.43569e-05 -6.33482e-06
-9.43569e-05 -8.60291e-05 -9.64711e-06
-6.33482e-06 -9.64711e-06 -0.000238361
3.17492e-05 -0.000159007 -4.73982e-06
-0.000159007 6.3016e-06 3.11331e-05
-4.73982e-06 3.11331e-05 -0.000282786
-0.00102583 -0.000573864 -6.69601e-06
-0.000573864 -0.000153138 -2.50265e-05
-6.69601e-06 -2.50265e-05 -0.00107159
0.0019085 -0.000488016 3.97865e-05
-0.000488016 -0.00468154 -1.18977e-06
3.97865e-05 -1.18977e-06 -0.00472846
0.00198068 0.000219393 -1.36604e-06
0.000219393 0.000936345 -4.96257e-06
-1.36604e-06 -4.96257e-06 0.000744314
0.00103868 0.000309285 -1.12824e-06
0.000309285 0.000257173 -3.42739e-07
-1.12824e-06 -3.42739e-07 6.63815e-06
0.0019618 0.00030462 6.5077e-05
0.00030462 -0.000144541 1.70553e-05
6.5077e-05 1.70553e-05 -1.95624e-05
0.00244114 0.000686755 2.95015e-05
0.000686755 0.000324604 1.1039e-05
2.95015e-05 1.1039e-05 0.00014485
0.00216687 0.000709045 1.41117e-05
0.000709045 0.000571902 1.19211e-05
1.41117e-05 1.19211e-05 0.000171534
0.00136264 0.000508795 7.2097e-06
0.000508795 0.000290621 8.30881e-06
7.2097e-06 8.30881e-06 -8.42533e-05
0.00489847 0.0011103 0.000118099
0.0011103 0.000408814 4.4206e-05
0.000118099 4.4206e-05 0.000184076
0.00146729 0.000273219 4.59202e-06
0.000273219 0.000665522 5.9652e-08
4.59202e-06 5.9652e-08 0.000453073
0.00253467 0.000606624 -1.97959e-05
0.000606624 0.000280858 2.53727e-07
-1.97959e-05 2.53727e-07 0.000255831
0.000910025 0.000380645 -3.21188e-06
0.000380645 7.36346e-05 2.55149e-06
-3.21188e-06 2.55149e-06 -0.000217891
0.00145622 0.000574821 2.10116e-06
0.000574821 0.000303935 -5.12219e-06
2.10116e-06 -5.12219e-06 -7.98226e-05
0.00175117 0.000745881 -1.03525e-05
0.000745881 0.000129794 5.71358e-08
-1.03525e-05 5.71358e-08 -0.000117593
0.0041418 -0.000606593 -0.000159445
-0.000606593 -0.0040474 -6.33994e-05
-0.000159445 -6.33994e-05 -0.00504907
0.0070939 0.00136648 -9.72564e-05
0.00136648 0.000226611 -6.49891e-05
-9.72564e-05 -6.49891e-05 0.000640425
0.000991316 0.000973546 -8.05225e-06
0.000973546 -0.000364642 8.49009e-06
-8.05225e-06 8.49009e-06 -0.000711741
-0.000596386 -0.00143736 0.000411513
-0.00143736 0.00230164 0.000173788
0.000411513 0.000173788 -0.00026342
0.00918792 -0.00649835 -0.000380293
-0.00649835 0.00378965 -0.000358368
-0.000380293 -0.000358368 0.00288126
0.00126364 0.000268779 -1.2383e-05
0.000268779 0.000476271 1.22542e-06
-1.2383e-05 1.22542e-06 0.000277593
0.000650491 0.000527094 0.000575345
0.000527094 0.00346219 6.66432e-05
0.000575345 6.66432e-05 0.00166402
0.00226115 -0.0021312 -0.000164748
-0.0021312 0.00457647 -0.000219805
-0.000164748 -0.000219805 0.000488308
0.00241922 0.000910535 -4.58358e-05
0.000910535 0.000321811 -1.4949e-05
-4.58358e-05 -1.4949e-05 0.000201021
0.00093167 0.000303168 -2.27583e-05
0.000303168 9.06212e-05 -7.21913e-06
-2.27583e-05 -7.21913e-06 -0.000166397
0.000624843 0.00058773 -2.85279e-05
0.00058773 -9.27137e-05 -3.04444e-05
-2.85279e-05 -3.04444e-05 -0.000419167
0.0001358 0.00095171 4.06379e-05
0.00095171 -0.000666337 9.07895e-05
4.06379e-05 9.07895e-05 -0.00100973
0.0120996 0.00192693 3.69363e-05
0.00192693 0.00173785 -4.38983e-05
3.69363e-05 -4.38983e-05 0.000364932
0.00358782 0.00197261 -1.73729e-05
0.00197261 3.86959e-05 -4.28428e-05
-1.73729e-05 -4.28428e-05 -0.000113544
0.010593 -0.00545327 0.000855214
-0.00545327 0.00287109 0.000483697
0.000855214 0.000483697 0.000665463
0.0109718 -0.0025437 -5.30616e-05
-0.0025437 0.0021593 0.000513701
-5.30616e-05 0.000513701 0.00135232
0.000488281 9.28562e-05 6.36283e-06
9.28562e-05 0.000100038 -1.6136e-06
6.36283e-06 -1.6136e-06 1.81469e-05
0.000354157 0.00012294 8.01634e-06
0.00012294 1.96348e-05 3.26612e-07
8.01634e-06 3.26612e-07 -8.15077e-05
0.0018832 0.000269949 3.41871e-06
0.000269949 0.000956182 -1.95036e-06
3.41871e-06 -1.95036e-06 0.000793651
0.000585131 1.12323e-05 8.49941e-07
1.12323e-05 0.000109153 -8.6325e-07
8.49941e-07 -8.6325e-07 -2.47862e-05
0.000647305 6.2096e-05 -1.25339e-06
6.2096e-05 0.000134078 -2.0376e-06
-1.25339e-06 -2.0376e-06 -1.43707e-05
0.000221553 2.20186e-05 -1.46677e-06
2.20186e-05 -0.000126889 4.97902e-07
-1.46677e-06 4.97902e-07 -0.000268607
0.000604507 9.48363e-05 -7.21634e-06
9.48363e-05 0.000108645 1.51884e-06
-7.21634e-06 1.51884e-06 -3.38514e-05
-0.000595132 4.42696e-05 -4.10702e-06
4.42696e-05 -0.000660191 3.80786e-07
-4.10702e-06 3.80786e-07 -0.000714484
0.000372585 -1.19633e-05 2.29591e-07
-1.19633e-05 -4.09476e-05 9.74694e-07
2.29591e-07 9.74694e-07 -0.000168863
0.00117111 0.000109479 1.38009e-06
0.000109479 0.000457423 -4.02699e-07
1.38009e-06 -4.02699e-07 0.000296945
0.000643712 4.90665e-05 5.06457e-07
4.90665e-05 0.000143628 2.31501e-07
5.06457e-07 2.31501e-07 -1.42693e-05
0.00073657 2.93278e-05 1.22558e-06
2.93278e-05 0.000198479 -4.53495e-07
1.22558e-06 -4.53495e-07 3.34895e-05
0.000504891 0.000102177 -3.54124e-07
0.000102177 8.53846e-05 -1.81416e-06
-3.54124e-07 -1.81416e-06 -6.44689e-05
0.0012813 0.000112522 -1.92122e-06
0.000112522 0.000547635 -1.19109e-06
-1.92122e-06 -1.19109e-06 0.000384932
-0.000231325 4.23882e-05 -5.79035e-06
4.23882e-05 -0.000287995 -3.1904e-06
-5.79035e-06 -3.1904e-06 -0.000469353
0.000676878 -9.75195e-05 -2.27654e-07
-9.75195e-05 0.000157345 -5.25115e-08
-2.27654e-07 -5.25115e-08 -3.78862e-07
0.000773519 -7.47955e-05 -6.99704e-07
-7.47955e-05 0.000231095 -1.35984e-08
-6.99704e-07 -1.35984e-08 6.50036e-05
0.000751811 -4.43191e-05 -1.13888e-07
-4.43191e-05 0.000214295 -3.99132e-07
-1.13888e-07 -3.99132e-07 5.00457e-05
0.000754716 -1.57237e-05 -2.76522e-06
-1.57237e-05 0.000181015 -6.56327e-09
-2.76522e-06 -6.56327e-09 4.53561e-05
0.0010048 8.55585e-06 -4.82776e-06
8.55585e-06 0.000390483 -3.94618e-06
-4.82776e-06 -3.94618e-06 0.000206379
0.00075575 -3.00201e-05 1.67079e-06
-3.00201e-05 0.000202574 -6.32115e-06
1.67079e-06 -6.32115e-06 6.63099e-05
-0.000873237 -1.47068e-05 -2.13759e-06
-1.47068e-05 -0.00080868 -4.78835e-06
-2.13759e-06 -4.78835e-06 -0.000923826
0.000643131 -4.15556e-05 1.25155e-06
-4.15556e-05 0.00012675 -8.25048e-07
1.25155e-06 -8.25048e-07 -1.92745e-05
0.000410285 -7.44353e-05 1.30411e-06
-7.44353e-05 -9.75294e-06 1.23109e-06
1.30411e-06 1.23109e-06 -0.000139881
0.000674531 -7.94096e-05 -1.02781e-06
-7.94096e-05 0.000172691 -2.61247e-07
-1.02781e-06 -2.61247e-07 2.94169e-05
0.000530542 -7.68422e-05 -2.31172e-06
-7.68422e-05 4.01658e-05 1.68538e-06
-2.31172e-06 1.68538e-06 -6.71755e-05
0.00045665 -6.19348e-05 3.04146e-06
-6.19348e-05 3.67474e-06 1.68817e-07
3.04146e-06 1.68817e-07 -0.000127861
0.000532653 -0.000103405 9.75633e-08
-0.000103405 5.46518e-05 2.64049e-07
9.75633e-08 2.64049e-07 -6.66245e-05
0.000551443 -4.60979e-05 -2.43715e-06
-4.60979e-05 3.95048e-05 3.74251e-06
-2.43715e-06 3.74251e-06 -3.41541e-05
0.000424598 -9.28713e-06 1.55361e-06
-9.28713e-06 -2.9764e-07 -8.63073e-07
1.55361e-06 -8.63073e-07 -0.000134315
0.000512827 1.55783e-06 1.89435e-06
1.55783e-06 2.50877e-05 6.77991e-08
1.89435e-06 6.77991e-08 -5.19606e-05
0.0014375 -1.73304e-05 -7.0155e-06
-1.73304e-05 0.000566034 6.36153e-06
-7.0155e-06 6.36153e-06 0.000547525
0.000513474 5.93417e-05 -1.2372e-06
5.93417e-05 2.50834e-05 -3.20228e-06
-1.2372e-06 -3.20228e-06 -5.10046e-05
0.000888977 -1.0491e-05 -3.18088e-06
-1.0491e-05 0.000232118 7.44015e-07
-3.18088e-06 7.44015e-07 0.000211747
0.000776132 3.17146e-06 -3.51267e-06
3.17146e-06 0.000150771 4.83802e-06
-3.51267e-06 4.83802e-06 0.000156001
0.000436958 -8.11286e-06 2.49636e-06
-8.11286e-06 -4.83908e-05 -4.62871e-06
2.49636e-06 -4.62871e-06 -7.02215e-05
0.00251805 2.23912e-06 5.87481e-06
2.23912e-06 0.00122664 -1.63855e-08
5.87481e-06 -1.63855e-08 0.00123979
0.00088908 5.32594e-07 -6.42457e-06
5.32594e-07 0.000216027 -5.25512e-06
-6.42457e-06 -5.25512e-06 0.000220941
0.00051444 6.33497e-05 2.56759e-06
6.33497e-05 4.82705e-05 8.94632e-07
2.56759e-06 8.94632e-07 -4.56316e-05
0.000488611 4.61516e-05 -2.0533e-06
4.61516e-05 -5.45475e-06 -1.86499e-06
-2.0533e-06 -1.86499e-06 -4.93421e-05
0.000507671 -6.08355e-06 1.44374e-06
-6.08355e-06 5.33753e-06 4.83856e-08
1.44374e-06 4.83856e-08 -3.98122e-05
0.000517784 8.55575e-06 9.18341e-07
8.55575e-06 -2.2445e-05 -2.98103e-06
9.18341e-07 -2.98103e-06 -3.06743e-05
0.000562787 -5.33147e-05 -1.83588e-06
-5.33147e-05 3.83633e-05 1.82922e-06
-1.83588e-06 1.82922e-06 -1.08931e-05
0.000499164 1.35891e-05 7.74117e-08
1.35891e-05 -3.52764e-05 -7.38319e-07
7.74117e-08 -7.38319e-07 -4.40293e-05
0.00197255 3.34649e-05 5.45524e-06
3.34649e-05 0.000887513 -4.48977e-06
5.45524e-06 -4.48977e-06 0.000904263
0.0010847 3.44897e-05 -6.34166e-07
3.44897e-05 0.000332327 1.69336e-06
-6.34166e-07 1.69336e-06 0.000324304
0.00144772 4.22951e-05 -1.54779e-07
4.22951e-05 0.000565581 1.38748e-06
-1.54779e-07 1.38748e-06 0.000575948
0.000880564 4.6199e-05 -9.57637e-06
4.6199e-05 0.000218728 7.40934e-06
-9.57637e-06 7.40934e-06 0.000222443
0.000883162 0.000316351 8.83018e-05
0.000316351 -0.00185153 1.5836e-05
8.83018e-05 1.5836e-05 -0.00137625
0.00218959 -4.61898e-05 -3.03529e-06
-4.61898e-05 -6.28392e-05 3.83321e-06
-3.03529e-06 3.83321e-06 5.06693e-06
0.00216221 7.24037e-05 3.4471e-05
7.24037e-05 0.000173936 -1.54201e-05
3.4471e-05 -1.54201e-05 0.000275623
0.00229598 0.000282137 -4.34004e-05
0.000282137 -0.00157229 -3.04187e-05
-4.34004e-05 -3.04187e-05 -0.000558014
0.00200698 9.65426e-05 3.35187e-05
9.65426e-05 -0.000708775 -2.14668e-06
3.35187e-05 -2.14668e-06 -0.000406306
0.0024845 -4.30057e-05 3.39837e-06
-4.30057e-05 0.000361034 -7.50822e-06
3.39837e-06 -7.50822e-06 0.000385677
0.00424535 -0.000253105 -4.88378e-05
-0.000253105 0.00100822 -1.40337e-05
-4.88378e-05 -1.40337e-05 0.00101933
0.00266499 -0.000128617 2.17463e-05
-0.000128617 -0.000123838 2.53797e-05
2.17463e-05 2.53797e-05 9.98981e-05
0.0138704 -0.000745807 1.75209e-05
-0.000745807 0.00257258 1.62323e-05
1.75209e-05 1.62323e-05 0.00124979
0.0141716 0.00423134 0.00108436
0.00423134 0.00564221 -0.000412605
0.00108436 -0.000412605 0.00365258
0.0142526 0.0049147 4.59543e-06
0.0049147 0.00939686 3.60005e-06
4.59543e-06 3.60005e-06 0.0077305
0.000279687 -9.77652e-05 1.051e-06
-9.77652e-05 -8.48155e-05 -3.65237e-07
1.051e-06 -3.65237e-07 -0.000189505
0.000569495 -9.80235e-06 1.32044e-06
-9.80235e-06 7.95574e-05 -1.36253e-07
1.32044e-06 -1.36253e-07 -8.9023e-06
0.000656819 -8.79148e-05 -9.75466e-07
-8.79148e-05 0.000147082 2.08258e-06
-9.75466e-07 2.08258e-06 4.67362e-05
0.000561951 -4.15847e-05 2.16724e-07
-4.15847e-05 8.26895e-05 5.10078e-07
2.16724e-07 5.10078e-07 -2.53852e-05
0.000723207 8.08678e-05 -2.93627e-06
8.08678e-05 0.000212319 1.76839e-06
-2.93627e-06 1.76839e-06 8.70144e-05
0.000383762 0.000114886 1.85571e-06
0.000114886 -4.47481e-05 6.53655e-06
1.85571e-06 6.53655e-06 -0.000159082
0.000979032 -1.98854e-05 3.65238e-06
-1.98854e-05 0.000361941 2.64495e-06
3.65238e-06 2.64495e-06 0.000231612
0.000499062 -2.77753e-05 -1.55479e-06
-2.77753e-05 4.54863e-05 1.21282e-06
-1.55479e-06 1.21282e-06 -6.24165e-05
0.00246965 -0.000258314 7.83888e-06
-0.000258314 6.81694e-05 6.59712e-07
7.83888e-06 6.59712e-07 0.000187092
0.00194801 -0.000459622 1.63168e-05
-0.000459622 -0.000315733 -5.7522e-06
1.63168e-05 -5.7522e-06 -0.000148087
0.00213052 -0.000707375 4.67205e-06
-0.000707375 7.4304e-05 2.1701e-06
4.67205e-06 2.1701e-06 -7.36447e-05
0.0017609 -0.000698268 2.24018e-05
-0.000698268 0.000495666 1.88291e-06
2.24018e-05 1.88291e-06 9.32662e-05
0.00193658 -0.000840589 -7.47948e-08
-0.000840589 0.000258456 5.7253e-06
-7.47948e-08 5.7253e-06 -3.56253e-05
0.00341714 -0.00103842 2.63656e-05
-0.00103842 0.00183197 -4.05231e-06
2.63656e-05 -4.05231e-06 0.00111213
0.00366297 -0.000558602 3.53801e-06
-0.000558602 0.00176156 -2.39594e-06
3.53801e-06 -2.39594e-06 0.00140501
0.000669351 -0.000157793 8.59689e-06
-0.000157793 0.000157402 -1.78425e-05
8.59689e-06 -1.78425e-05 -6.08842e-05
0.000542889 -5.77126e-05 1.43308e-07
-5.77126e-05 2.81408e-05 3.56407e-06
1.43308e-07 3.56407e-06 -6.85963e-05
0.000643296 -9.08369e-05 8.72137e-06
-9.08369e-05 0.000110574 -1.86179e-05
8.72137e-06 -1.86179e-05 -3.41957e-05
0.000980057 -3.91467e-05 2.23039e-06
-3.91467e-05 0.000345744 3.80533e-07
2.23039e-06 3.80533e-07 0.000219917
0.000570038 3.37683e-05 3.33576e-06
3.37683e-05 8.37858e-05 1.35864e-07
3.33576e-06 1.35864e-07 3.42991e-05
0.0022778 -0.0003494 -9.47227e-07
-0.0003494 -7.31998e-05 3.49008e-06
-9.47227e-07 3.49008e-06 0.000159861
0.000528903 -4.27593e-05 -2.3266e-06
-4.27593e-05 0.00010052 -8.2796e-07
-2.3266e-06 -8.2796e-07 -2.39503e-05
0.000982467 -0.00015214 -6.29725e-06
-0.00015214 0.000332736 5.9556e-06
-6.29725e-06 5.9556e-06 0.000194851
0.00177484 -0.000550017 5.47676e-06
-0.000550017 -0.000209786 -2.81629e-06
5.47676e-06 -2.81629e-06 -0.000132783
0.00171839 -0.000745809 1.01709e-06
-0.000745809 9.44512e-07 -6.22221e-07
1.01709e-06 -6.22221e-07 -0.000219813
0.000883603 -0.000643996 -2.35903e-07
-0.000643996 -0.000153315 -1.52459e-06
-2.35903e-07 -1.52459e-06 -0.000416637
0.00162324 -0.000292105 1.09296e-06
-0.000292105 0.000864698 -1.72605e-05
1.09296e-06 -1.72605e-05 0.000550044
0.00168149 -0.000616891 -1.2448e-06
-0.000616891 0.00122021 2.68392e-06
-1.2448e-06 2.68392e-06 0.000450692
0.0042943 -0.00063816 -4.54253e-05
-0.00063816 0.000915084 1.23413e-05
-4.54253e-05 1.23413e-05 0.00107233
0.00378456 -0.000833748 -5.29788e-05
-0.000833748 0.0011333 1.49173e-05
-5.29788e-05 1.49173e-05 0.000995565
0.00189651 -0.00082856 -6.17726e-06
-0.00082856 0.000203623 1.47336e-07
-6.17726e-06 1.47336e-07 -3.02108e-05
-0.000537289 -0.000409098 -1.29298e-05
-0.000409098 -0.000687429 2.01761e-05
-1.29298e-05 2.01761e-05 -0.000848023
0.000360831 -0.000131229 1.70248e-06
-0.000131229 2.45981e-05 7.32326e-06
1.70248e-06 7.32326e-06 -0.000163809
0.000466028 -0.000161539 4.25157e-06
-0.000161539 0.000137345 -4.43137e-07
4.25157e-06 -4.43137e-07 -8.05889e-05
0.00166635 -0.000221283 -2.77765e-06
-0.000221283 0.00118533 -1.92055e-05
-2.77765e-06 -1.92055e-05 0.000580505
-0.00632641 -0.000275033 0.000440335
-0.000275033 -0.0045267 -9.20378e-06
0.000440335 -9.20378e-06 -0.00354617
0.0111566 -0.000274747 5.25172e-05
-0.000274747 0.00181131 8.09662e-06
5.25172e-05 8.09662e-06 0.00153824
0.00193046 0.000260094 6.68723e-06
0.000260094 0.000908344 -6.94607e-06
6.68723e-06 -6.94607e-06 0.000721874
0.0015735 0.000457537 -3.83143e-06
0.000457537 0.000499157 4.55996e-06
-3.83143e-06 4.55996e-06 0.000187284
0.0027069 0.000563588 8.93386e-05
0.000563588 0.000411592 3.76623e-05
8.93386e-05 3.76623e-05 0.000398404
0.00304295 0.000863787 2.66042e-05
0.000863787 0.000813019 1.18277e-05
2.66042e-05 1.18277e-05 0.000535323
0.00271365 0.000729841 1.72668e-05
0.000729841 0.00102274 6.40574e-06
1.72668e-05 6.40574e-06 0.000612559
0.0143226 0.000683041 7.44987e-05
0.000683041 0.00309535 -2.72347e-05
7.44987e-05 -2.72347e-05 0.00217858
0.00827921 0.00184926 -0.000196284
0.00184926 4.12415e-06 2.78533e-05
-0.000196284 2.78533e-05 0.000467442
0.0030535 0.0011034 1.6616e-06
0.0011034 0.000777326 -2.89535e-05
1.6616e-06 -2.89535e-05 0.000309928
0.012037 -0.00325931 -0.00039265
-0.00325931 0.00512696 -2.68762e-05
-0.00039265 -2.68762e-05 0.00314191
-0.000780575 -0.00665002 -0.00191576
-0.00665002 0.00143812 -0.00127498
-0.00191576 -0.00127498 9.48446e-05
0.000939263 0.000281051 8.53015e-07
0.000281051 0.000336315 3.59306e-07
8.53015e-07 3.59306e-07 0.000113605
-0.00215558 -0.00191153 0.000352546
-0.00191153 -0.00270974 6.13e-05
0.000352546 6.13e-05 -0.00397075
-0.00318012 -0.00157517 -0.000375525
-0.00157517 0.00409646 -0.000171838
-0.000375525 -0.000171838 -0.000314147
0.00329502 0.000902671 -1.7986e-05
0.000902671 0.000761521 -1.82488e-08
-1.7986e-05 -1.82488e-08 0.000660788
0.00108126 0.000383718 -6.92984e-06
0.000383718 0.000221702 6.5315e-06
-6.92984e-06 6.5315e-06 -7.52731e-05
0.0013431 0.000685834 4.35665e-06
0.000685834 0.000292532 2.80136e-06
4.35665e-06 2.80136e-06 -6.08454e-05
0.00153806 0.000951461 4.52402e-05
0.000951461 0.000241077 2.55365e-05
4.52402e-05 2.55365e-05 1.11132e-06
0.0132885 0.00188954 -0.000129394
0.00188954 0.00138829 -7.73692e-05
-0.000129394 -7.73692e-05 -0.000529692
0.00508337 0.00253984 -6.11154e-05
0.00253984 8.4178e-05 -4.86837e-05
-6.11154e-05 -4.86837e-05 0.00028126
0.016355 -0.00400549 0.000404721
-0.00400549 0.00656244 -1.19944e-05
0.000404721 -1.19944e-05 0.00425439
0.0123634 -0.00341556 0.000196757
-0.00341556 0.00133541 0.00061519
0.000196757 0.00061519 0.000451994
0.00258616 0.000380114 -1.94216e-05
0.000380114 0.00129408 -1.28829e-05
-1.94216e-05 -1.28829e-05 0.00109629
-0.0100823 0.000992982 -0.000132657
0.000992982 0.00278551 -0.00012074
-0.000132657 -0.00012074 -0.00269773
0.00442111 0.000673323 -0.000311231
0.000673323 0.00332253 -0.000415839
-0.000311231 -0.000415839 -0.00105141
0.00298396 0.00071674 -2.59838e-05
0.00071674 0.000861034 3.65826e-06
-2.59838e-05 3.65826e-06 0.000831826
0.00200819 0.000665676 -6.51606e-05
0.000665676 0.000794174 -2.54312e-05
-6.51606e-05 -2.54312e-05 0.000468712
0.00186363 0.000743038 -7.84896e-05
0.000743038 0.00124942 -1.75399e-05
-7.84896e-05 -1.75399e-05 0.000583346
-0.000351979 0.00157204 -4.71003e-05
0.00157204 -0.000336291 -3.3358e-05
-4.71003e-05 -3.3358e-05 -0.000522969
-0.000590929 0.00220377 0.000322992
0.00220377 -0.00182696 0.000125349
0.000322992 0.000125349 -0.00472109
0.017088 -0.00479425 0.000261849
-0.00479425 0.00793901 0.000590721
0.000261849 0.000590721 0.00504517
0.00798711 -0.00126044 -0.000131631
-0.00126044 -0.00202368 -0.00012642
-0.000131631 -0.00012642 -0.000903504
-0.000819139 9.24304e-05 2.34298e-06
9.24304e-05 -0.000644214 -8.20996e-06
2.34298e-06 -8.20996e-06 -0.000768395
0.00146193 0.000249165 1.12036e-05
0.000249165 0.000685423 3.13229e-06
1.12036e-05 3.13229e-06 0.000526174
-0.000289011 8.59699e-05 -8.37074e-07
8.59699e-05 -0.000311661 -7.00011e-06
-8.37074e-07 -7.00011e-06 -0.000455232
0.000353159 5.28537e-05 1.96738e-06
5.28537e-05 -5.22243e-05 -9.14757e-07
1.96738e-06 -9.14757e-07 -0.000179744
0.000896069 7.47773e-05 -9.66586e-07
7.47773e-05 0.000303957 -1.90095e-06
-9.66586e-07 -1.90095e-06 0.000133609
0.000626571 3.34978e-06 -1.45071e-06
3.34978e-06 0.000139923 1.4756e-06
-1.45071e-06 1.4756e-06 -2.50249e-05
0.000540151 6.29569e-05 4.53203e-06
6.29569e-05 7.8609e-05 2.71478e-06
4.53203e-06 2.71478e-06 -8.20589e-05
-0.00011636 6.31868e-05 -4.54265e-06
6.31868e-05 -0.000284008 -1.41243e-07
-4.54265e-06 -1.41243e-07 -0.000425499
0.000750945 4.7451e-05 1.02685e-07
4.7451e-05 0.000217808 -9.53326e-07
1.02685e-07 -9.53326e-07 5.18433e-05
0.000742728 7.32875e-05 7.75826e-07
7.32875e-05 0.000208852 -5.55255e-07
7.75826e-07 -5.55255e-07 5.5008e-05
0.000812231 -5.34112e-05 -8.95534e-07
-5.34112e-05 0.00023926 1.71881e-06
-8.95534e-07 1.71881e-06 7.95142e-05
-0.000613632 2.3919e-05 2.90764e-06
2.3919e-05 -0.00049405 5.80473e-07
2.90764e-06 5.80473e-07 -0.000678067
-0.000311763 4.42955e-05 -2.71419e-06
4.42955e-05 -7.69886e-05 3.90991e-06
-2.71419e-06 3.90991e-06 -0.000369857
0.000713308 -2.44484e-05 -4.46319e-06
-2.44484e-05 0.000230425 -6.50854e-06
-4.46319e-06 -6.50854e-06 6.99798e-05
0.000914444 -1.82636e-05 2.35147e-07
-1.82636e-05 0.0003278 -1.05368e-06
2.35147e-07 -1.05368e-06 0.000148935
0.000794636 -7.27999e-05 -1.71914e-07
-7.27999e-05 0.000247958 -1.09847e-06
-1.71914e-07 -1.09847e-06 7.76251e-05
0.000608055 -6.15657e-05 2.74459e-06
-6.15657e-05 8.03019e-05 4.13316e-06
2.74459e-06 4.13316e-06 -4.70776e-05
0.000814557 -7.18299e-05 9.28962e-07
-7.18299e-05 0.000257222 -1.31846e-06
9.28962e-07 -1.31846e-06 8.38549e-05
0.000735472 -2.7412e-05 -1.42702e-06
-2.7412e-05 0.000183637 2.5581e-07
-1.42702e-06 2.5581e-07 4.83353e-05
-0.000193649 -6.03724e-05 1.7784e-06
-6.03724e-05 -0.000381845 3.11802e-06
1.7784e-06 3.11802e-06 -0.000494608
0.000375077 -2.92738e-05 5.38245e-07
-2.92738e-05 -8.48979e-06 -6.8502e-07
5.38245e-07 -6.8502e-07 -0.000151877
0.000168249 -1.87326e-05 -6.24127e-06
-1.87326e-05 -0.000107848 -4.71506e-06
-6.24127e-06 -4.71506e-06 -0.000264584
6.74289e-05 -7.01857e-05 2.73246e-06
-7.01857e-05 -0.000186601 -3.31715e-06
2.73246e-06 -3.31715e-06 -0.00031527
0.00107058 -0.000100628 6.2204e-06
-0.000100628 0.00030261 -1.29147e-05
6.2204e-06 -1.29147e-05 0.00020185
-0.00042976 -3.04169e-05 3.21532e-07
-3.04169e-05 -0.000623027 3.26295e-06
3.21532e-07 3.26295e-06 -0.000752496
5.62258e-05 -4.28056e-05 -5.29581e-06
-4.28056e-05 -0.000217007 -1.98417e-06
-5.29581e-06 -1.98417e-06 -0.000361539
0.000722913 -6.11303e-05 7.03158e-07
-6.11303e-05 0.000171928 -8.34399e-07
7.03158e-07 -8.34399e-07 2.42916e-05
0.000304202 -3.98599e-05 2.65931e-07
-3.98599e-05 -7.70042e-05 -7.08593e-07
2.65931e-07 -7.08593e-07 -0.000220062
0.000705728 -8.93241e-05 2.86084e-07
-8.93241e-05 0.000193453 3.62161e-09
2.86084e-07 3.62161e-09 4.58917e-05
0.000488219 -1.8396e-05 1.0504e-07
-1.8396e-05 2.07492e-05 1.75687e-06
1.0504e-07 1.75687e-06 -9.17329e-05
0.000858078 -8.04973e-05 -1.09515e-06
-8.04973e-05 0.000281467 4.19002e-07
-1.09515e-06 4.19002e-07 0.000139045
0.000629725 -7.28991e-05 -9.31252e-07
-7.28991e-05 0.000114012 6.37894e-08
-9.31252e-07 6.37894e-08 -2.15997e-06
0.000453278 3.30512e-05 -9.15578e-07
3.30512e-05 -2.22198e-05 3.44475e-06
-9.15578e-07 3.44475e-06 -9.66251e-05
0.000487235 -9.50192e-05 2.17652e-06
-9.50192e-05 2.09195e-05 -9.41746e-07
2.17652e-06 -9.41746e-07 -9.7669e-05
0.000535366 -2.95652e-05 -3.14198e-07
-2.95652e-05 2.68031e-05 1.05261e-07
-3.14198e-07 1.05261e-07 -4.47042e-05
0.0014251 8.54464e-06 -6.73702e-06
8.54464e-06 0.000552797 6.68046e-06
-6.73702e-06 6.68046e-06 0.000533744
0.000516135 -5.13205e-05 1.55453e-06
-5.13205e-05 2.30323e-05 -3.01444e-06
1.55453e-06 -3.01444e-06 -5.11955e-05
0.000893955 -1.06969e-05 -5.17161e-06
-1.06969e-05 0.000229987 7.5558e-07
-5.17161e-06 7.5558e-07 0.00020953
0.000757597 1.32463e-05 7.08686e-07
1.32463e-05 0.000131841 2.10768e-06
7.08686e-07 2.10768e-06 0.000136422
0.000456051 -6.89852e-06 2.08933e-06
-6.89852e-06 -3.77704e-05 -4.3979e-06
2.08933e-06 -4.3979e-06 -5.93528e-05
0.00251376 1.37788e-05 6.38503e-06
1.37788e-05 0.00122408 4.44816e-08
6.38503e-06 4.44816e-08 0.00123728
0.00252783 2.33363e-06 -1.42697e-07
2.33363e-06 0.00123275 -5.10109e-06
-1.42697e-07 -5.10109e-06 0.00124586
0.00100114 7.57942e-05 -4.40198e-07
7.57942e-05 0.000346065 4.28594e-07
-4.40198e-07 4.28594e-07 0.000250198
0.000525932 5.50244e-05 -1.47826e-06
5.50244e-05 2.15704e-05 -2.10425e-06
-1.47826e-06 -2.10425e-06 -2.6693e-05
0.000563813 -1.38618e-05 1.84467e-07
-1.38618e-05 8.0806e-05 8.34676e-07
1.84467e-07 8.34676e-07 -1.31237e-05
0.000512495 5.69112e-06 9.21503e-07
5.69112e-06 -2.55296e-05 -3.21894e-06
9.21503e-07 -3.21894e-06 -3.35214e-05
0.000495643 -1.41847e-05 5.9773e-07
-1.41847e-05 -1.60427e-06 -1.20899e-07
5.9773e-07 -1.20899e-07 -4.51883e-05
0.000554798 -5.29778e-05 -1.48249e-06
-5.29778e-05 3.65243e-05 1.63782e-06
-1.48249e-06 1.63782e-06 -1.0314e-05
0.000506128 7.34566e-06 -4.0187e-07
7.34566e-06 -2.99866e-05 -2.42647e-08
-4.0187e-07 -2.42647e-08 -3.81327e-05
0.00196494 1.98641e-05 4.60595e-07
1.98641e-05 0.000880273 -4.62145e-06
4.60595e-07 -4.62145e-06 0.000898115
0.0010946 2.24631e-05 -7.98155e-07
2.24631e-05 0.000335845 1.85779e-06
-7.98155e-07 1.85779e-06 0.000330079
0.0013203 2.76963e-05 -6.44307e-07
2.76963e-05 0.000480716 -8.20087e-09
-6.44307e-07 -8.20087e-09 0.000494178
0.000813019 3.30387e-05 -1.01426e-05
3.30387e-05 0.000170432 7.07167e-06
-1.01426e-05 7.07167e-06 0.000177932
-0.00923116 0.000924693 0.00039156
0.000924693 -0.00345536 -1.49667e-05
0.00039156 -1.49667e-05 -0.00568453
-0.00191492 -4.79244e-05 0.000786106
-4.79244e-05 0.00496857 -0.000197462
0.000786106 -0.000197462 0.00187236
0.00301775 0.000279186 -0.00017607
0.000279186 -0.00150365 -2.48358e-05
-0.00017607 -2.48358e-05 -0.000223672
0.00125343 3.90779e-05 2.08107e-05
3.90779e-05 -0.00106905 -3.81415e-05
2.08107e-05 -3.81415e-05 -0.000736724
0.00162814 -6.27571e-05 7.04908e-06
-6.27571e-05 -0.000230764 1.08073e-05
7.04908e-06 1.08073e-05 -0.000205356
-0.000878516 5.10826e-05 -7.37994e-05
5.10826e-05 -0.00117456 -2.10195e-05
-7.37994e-05 -2.10195e-05 -0.000429454
0.00370536 -0.000302832 2.61808e-06
-0.000302832 0.00051689 4.83846e-06
2.61808e-06 4.83846e-06 0.000588123
0.0114008 -1.94328e-05 0.000147462
-1.94328e-05 -1.19132e-05 -5.54368e-05
0.000147462 -5.54368e-05 -0.000901334
-7.39021e-05 0.00278199 -5.77528e-06
0.00278199 0.000427194 -5.13063e-05
-5.77528e-06 -5.13063e-05 -0.00235052
0.00773397 0.00550303 -0.000387969
0.00550303 0.00571865 0.00020708
-0.000387969 0.00020708 0.0044106
0.00220174 -0.00058761 6.01339e-05
-0.00058761 -0.00155564 -4.19252e-05
6.01339e-05 -4.19252e-05 -0.00074115
0.0147762 -0.00164449 0.000185907
-0.00164449 0.00222552 -7.01613e-05
0.000185907 -7.01613e-05 0.00063577
0.0114572 0.00519208 0.000338918
0.00519208 0.00313422 -0.00049158
0.000338918 -0.00049158 0.00107647
0.015436 0.00340169 -0.000303468
0.00340169 0.00409589 0.000231348
-0.000303468 0.000231348 0.00276177
0.000853775 0.000140661 -2.02153e-06
0.000140661 0.000299741 3.4658e-06
-2.02153e-06 3.4658e-06 0.000143023
0.000393405 3.05942e-05 1.74037e-07
3.05942e-05 -2.52877e-05 -8.80197e-07
1.74037e-07 -8.80197e-07 -0.000123941
0.000581732 -9.4196e-05 2.6047e-07
-9.4196e-05 9.49045e-05 8.32924e-07
2.6047e-07 8.32924e-07 1.3265e-06
0.000604613 2.34565e-06 3.83345e-06
2.34565e-06 0.000115111 -8.33552e-07
3.83345e-06 -8.33552e-07 2.43427e-06
0.000683665 6.56001e-05 1.84455e-06
6.56001e-05 0.000197023 1.2207e-06
1.84455e-06 1.2207e-06 7.00275e-05
0.000580028 1.37191e-05 5.74755e-07
1.37191e-05 0.000122147 6.57646e-06
5.74755e-07 6.57646e-06 -3.20528e-05
0.000707353 9.06338e-05 1.18481e-06
9.06338e-05 0.000175299 2.77203e-06
1.18481e-06 2.77203e-06 4.69884e-05
0.000510656 4.94965e-05 5.1919e-06
4.94965e-05 3.93029e-05 1.07767e-06
5.1919e-06 1.07767e-06 -9.42987e-05
0.000737755 -3.73985e-05 2.53123e-06
-3.73985e-05 0.000212402 -1.1679e-06
2.53123e-06 -1.1679e-06 8.2166e-05
0.000477008 -9.54417e-06 4.15253e-07
-9.54417e-06 1.83412e-05 -2.03616e-06
4.15253e-07 -2.03616e-06 -8.32347e-05
0.00148359 -0.000305253 2.71548e-05
-0.000305253 -0.000442757 -1.60245e-06
2.71548e-05 -1.60245e-06 -0.0002257
0.00114489 -0.000509836 3.76289e-05
-0.000509836 -0.000563011 -8.79469e-06
3.76289e-05 -8.79469e-06 -0.000453849
0.000717751 -0.000623417 1.18238e-05
-0.000623417 -0.000565857 1.14801e-06
1.18238e-05 1.14801e-06 -0.000709644
-5.51872e-05 -0.000553214 3.14311e-06
-0.000553214 -0.000658556 8.43942e-07
3.14311e-06 8.43942e-07 -0.000902573
0.00307556 -0.000540656 7.43414e-06
-0.000540656 0.00188938 2.9724e-05
7.43414e-06 2.9724e-05 0.00126124
0.00015611 -0.000403574 4.0361e-06
-0.000403574 -2.71151e-05 -2.2419e-06
4.0361e-06 -2.2419e-06 -0.000413701
0.00149867 -0.000197949 3.1857e-06
-0.000197949 0.000632971 -1.27775e-06
3.1857e-06 -1.27775e-06 0.00051198
0.000850094 -4.08016e-05 -2.10677e-06
-4.08016e-05 0.000296408 2.70324e-06
-2.10677e-06 2.70324e-06 0.000167319
0.00221 -0.000475722 1.22704e-05
-0.000475722 -0.000160595 -7.72519e-06
1.22704e-05 -7.72519e-06 3.39569e-05
0.000515625 -6.21115e-05 2.20129e-07
-6.21115e-05 0.000127429 7.3774e-07
2.20129e-07 7.3774e-07 -7.51488e-05
-0.00021091 -0.000142686 -2.43696e-07
-0.000142686 -0.000262247 -3.76151e-06
-2.43696e-07 -3.76151e-06 -0.000479821
0.001945 -0.00068575 1.5753e-05
-0.00068575 0.000100171 -2.47345e-06
1.5753e-05 -2.47345e-06 4.91783e-05
0.00172788 -0.000836466 -1.06427e-06
-0.000836466 1.41158e-05 3.40076e-06
-1.06427e-06 3.40076e-06 -0.000152468
0.000240377 -0.000573196 1.69269e-05
-0.000573196 -0.000223708 -1.0298e-05
1.69269e-05 -1.0298e-05 -0.000473233
0.00136979 -0.000299407 1.77253e-06
-0.000299407 0.00100572 -1.40803e-05
1.77253e-06 -1.40803e-05 0.000406734
0.00288304 -0.000802085 -6.32326e-05
-0.000802085 0.000625662 2.66259e-05
-6.32326e-05 2.66259e-05 0.000336617
0.00091454 -0.000600294 -4.27477e-05
-0.000600294 -0.000245648 1.44504e-05
-4.27477e-05 1.44504e-05 -0.000290623
0.00100547 -0.000576779 -7.26422e-05
-0.000576779 0.000524466 5.0561e-05
-7.26422e-05 5.0561e-05 0.000134951
-0.00208238 -0.000187062 -3.36722e-06
-0.000187062 -0.00143695 9.10165e-06
-3.36722e-06 9.10165e-06 -0.0016443
-0.000461807 -9.86322e-05 4.27716e-06
-9.86322e-05 -0.000398459 7.61513e-06
4.27716e-06 7.61513e-06 -0.000645254
0.00059765 -5.34117e-05 8.67072e-06
-5.34117e-05 0.000329236 -8.67411e-06
8.67072e-06 -8.67411e-06 -1.77241e-05
-0.00184261 0.00097225 -0.000322667
0.00097225 0.00629764 1.65265e-05
-0.000322667 1.65265e-05 0.00234946
0.000761216 -0.00115062 -3.73783e-06
-0.00115062 0.00192956 2.14033e-05
-3.73783e-06 2.14033e-05 0.0014627
0.00180325 0.0010159 -9.38875e-05
0.0010159 -0.00463266 -4.03729e-05
-9.38875e-05 -4.03729e-05 -0.00493571
0.000296069 0.000224405 7.68466e-06
0.000224405 -2.5111e-05 -3.42049e-06
7.68466e-06 -3.42049e-06 -0.000242926
0.0010955 0.000462535 7.52911e-06
0.000462535 0.000273853 1.88532e-05
7.52911e-06 1.88532e-05 -6.93893e-05
0.00357368 0.000815034 6.03934e-05
0.000815034 0.000914358 2.07491e-05
6.03934e-05 2.07491e-05 0.000833127
0.00144613 0.000729672 1.5992e-05
0.000729672 0.000369744 2.54739e-05
1.5992e-05 2.54739e-05 -1.019e-05
0.0111679 -0.0021946 0.000158574
-0.0021946 0.00387471 4.55661e-05
0.000158574 4.55661e-05 0.0035083
0.00396395 0.00089287 -0.000331436
0.00089287 -0.00345793 -4.78459e-05
-0.000331436 -4.78459e-05 -0.0053306
0.00488156 0.0023813 -1.86968e-05
0.0023813 6.20833e-05 1.44006e-05
-1.86968e-05 1.44006e-05 0.000280455
0.00223679 0.000829857 4.13196e-05
0.000829857 0.000861404 -2.4316e-05
4.13196e-05 -2.4316e-05 0.000672799
0.00224443 -0.00266191 -0.000348039
-0.00266191 0.00176832 -0.000316525
-0.000348039 -0.000316525 -0.000639373
-0.000702199 -0.00243036 -0.000474588
-0.00243036 0.00442448 -0.000164481
-0.000474588 -0.000164481 -8.5913e-05
0.0191269 -0.00428049 0.000525025
-0.00428049 0.00481794 0.00030951
0.000525025 0.00030951 0.00386669
0.000462359 0.000207062 1.47813e-05
0.000207062 5.89059e-05 -3.9689e-06
1.47813e-05 -3.9689e-06 -0.000130253
-0.00395527 0.000371816 -0.000158886
0.000371816 0.00454049 -3.47668e-05
-0.000158886 -3.47668e-05 -6.51556e-05
0.00496687 0.000874026 -8.12307e-05
0.000874026 0.00288427 -0.000147674
-8.12307e-05 -0.000147674 -0.00183958
0.00160802 0.000690273 7.23353e-06
0.000690273 0.000230417 4.59001e-06
7.23353e-06 4.59001e-06 0.000151189
0.000515659 0.000502687 9.76883e-06
0.000502687 7.79505e-05 4.1781e-06
9.76883e-06 4.1781e-06 -0.000262447
0.000122031 0.000724133 -3.84483e-05
0.000724133 0.000158393 -5.74353e-05
-3.84483e-05 -5.74353e-05 -0.000355082
0.00352868 0.00244202 1.66727e-05
0.00244202 0.00102771 1.70795e-05
1.66727e-05 1.70795e-05 0.000750711
0.0164013 0.0030112 7.16169e-05
0.0030112 0.00435218 2.09555e-05
7.16169e-05 2.09555e-05 0.00225859
0.00628797 -0.00301375 7.48806e-05
-0.00301375 0.0017465 -6.98751e-05
7.48806e-05 -6.98751e-05 -0.00170034
0.0136893 -0.00208724 -2.8639e-06
-0.00208724 0.00192615 -6.28545e-05
-2.8639e-06 -6.28545e-05 0.00321137
0.000510091 0.000346835 -9.10517e-06
0.000346835 0.000129979 -9.50153e-06
-9.10517e-06 -9.50153e-06 -9.81896e-05
0.00221286 0.000180217 -0.000269825
0.000180217 0.00179764 -5.81076e-05
-0.000269825 -5.81076e-05 -0.00201572
0.000483693 0.000487551 -8.60212e-05
0.000487551 -0.000160516 -0.000156967
-8.60212e-05 -0.000156967 -0.0017146
-0.00107114 0.000211371 7.03782e-06
0.000211371 -0.000410576 -2.38151e-05
7.03782e-06 -2.38151e-05 -0.0006327
-0.000265632 0.000465731 -0.000126737
0.000465731 0.00112613 4.59866e-06
-0.000126737 4.59866e-06 0.00027772
0.0138678 0.00369226 9.22753e-05
0.00369226 0.00464298 -2.60632e-05
9.22753e-05 -2.60632e-05 0.000750453
-0.00375274 -0.00425671 -2.61521e-06
-0.00425671 -0.000995427 0.000219407
-2.61521e-06 0.000219407 -0.00502255
0.0108969 0.000546607 4.73299e-05
0.000546607 -0.00144505 -0.000294085
4.73299e-05 -0.000294085 0.00113711
0.000898541 0.000176796 -3.71658e-06
0.000176796 0.000313542 1.40128e-05
-3.71658e-06 1.40128e-05 0.000175586
0.000846229 0.000196309 -9.83574e-06
0.000196309 0.000386146 -3.88342e-06
-9.83574e-06 -3.88342e-06 0.000218212
-0.000270398 9.62827e-05 2.91783e-06
9.62827e-05 -7.76407e-05 -2.23519e-06
2.91783e-06 -2.23519e-06 -0.000349383
0.000714128 8.54684e-05 -1.65027e-06
8.54684e-05 0.000180559 -2.07933e-06
-1.65027e-06 -2.07933e-06 2.48701e-05
0.00104958 -3.9005e-05 -9.42734e-07
-3.9005e-05 0.000391538 3.20521e-06
-9.42734e-07 3.20521e-06 0.000224481
0.000498693 6.98209e-05 2.67966e-06
6.98209e-05 4.88265e-05 1.4433e-06
2.67966e-06 1.4433e-06 -9.7397e-05
-0.00103013 1.08261e-05 2.47888e-06
1.08261e-05 -0.000720913 2.53057e-07
2.47888e-06 2.53057e-07 -0.000906376
0.000766265 -2.62358e-05 1.21179e-06
-2.62358e-05 0.000213521 1.89539e-07
1.21179e-06 1.89539e-07 5.24516e-05
0.000633501 9.01152e-06 -2.05536e-07
9.01152e-06 0.000185083 -2.42182e-06
-2.05536e-07 -2.42182e-06 2.19115e-05
-0.000264169 8.41566e-06 1.08854e-06
8.41566e-06 -2.25649e-05 2.55603e-06
1.08854e-06 2.55603e-06 -0.000338162
-0.000378568 5.47749e-05 -5.07036e-06
5.47749e-05 9.64137e-05 7.93729e-06
-5.07036e-06 7.93729e-06 -0.000348519
-3.30038e-05 1.02408e-06 -2.76685e-06
1.02408e-06 0.000152012 -2.29624e-06
-2.76685e-06 -2.29624e-06 -0.000194332
0.000758148 9.26831e-06 -1.48904e-06
9.26831e-06 0.000232448 -6.24504e-06
-1.48904e-06 -6.24504e-06 8.66926e-05
0.000702549 -0.00013145 1.39724e-06
-0.00013145 0.000171371 1.17556e-06
1.39724e-06 1.17556e-06 9.40502e-06
0.000537273 -1.06707e-05 8.78172e-07
-1.06707e-05 5.24842e-05 1.23573e-06
8.78172e-07 1.23573e-06 -7.74538e-05
0.00050264 -8.98012e-05 8.11043e-07
-8.98012e-05 5.13403e-05 9.50336e-06
8.11043e-07 9.50336e-06 -5.29434e-05
0.00030059 -3.62147e-05 2.12464e-06
-3.62147e-05 -4.71208e-05 3.20035e-06
2.12464e-06 3.20035e-06 -0.000189588
0.000630226 -3.68324e-05 2.20047e-07
-3.68324e-05 0.000142406 3.608e-07
2.20047e-07 3.608e-07 8.0373e-07
0.000508826 -4.48723e-05 1.54514e-07
-4.48723e-05 7.84258e-05 -1.77591e-06
1.54514e-07 -1.77591e-06 -4.85335e-05
0.00050917 -4.85908e-05 -6.48013e-06
-4.85908e-05 6.10273e-05 -4.52895e-06
-6.48013e-06 -4.52895e-06 -6.51473e-05
0.000356274 -5.66619e-05 6.13316e-06
-5.66619e-05 0.000125578 -6.57479e-06
6.13316e-06 -6.57479e-06 -3.56256e-05
0.000150898 -0.000142451 -2.35123e-07
-0.000142451 -0.00034312 2.66599e-06
-2.35123e-07 2.66599e-06 -0.000439201
0.000764294 -0.000129294 -8.54867e-06
-0.000129294 0.000136313 -7.52272e-07
-8.54867e-06 -7.52272e-07 2.71549e-05
0.000353317 -0.000150862 6.1541e-06
-0.000150862 -0.000114892 6.2194e-06
6.1541e-06 6.2194e-06 -0.000262123
0.00199548 -0.00045051 1.77125e-06
-0.00045051 0.000778945 1.64422e-05
1.77125e-06 1.64422e-05 0.000489193
0.00163779 -0.000198948 2.27446e-06
-0.000198948 0.000712662 -4.96541e-06
2.27446e-06 -4.96541e-06 0.000531419
-0.000186249 -6.64682e-05 -9.42217e-06
-6.64682e-05 -0.000430173 -4.58728e-06
-9.42217e-06 -4.58728e-06 -0.000553817
0.00054039 -6.31648e-05 1.05451e-07
-6.31648e-05 5.40538e-05 -2.1545e-07
1.05451e-07 -2.1545e-07 -8.95476e-05
5.8883e-06 -4.47644e-05 -9.79078e-07
-4.47644e-05 -0.000254729 -1.81393e-06
-9.79078e-07 -1.81393e-06 -0.000408998
0.000838861 -8.49944e-05 -8.09769e-07
-8.49944e-05 0.000237382 8.33965e-07
-8.09769e-07 8.33965e-07 8.9141e-05
0.000760567 -0.000105188 -7.97889e-07
-0.000105188 0.000214701 6.99679e-07
-7.97889e-07 6.99679e-07 5.8719e-05
0.000566064 -5.34679e-05 -3.64356e-07
-5.34679e-05 5.68007e-05 1.52213e-06
-3.64356e-07 1.52213e-06 -5.75408e-05
0.00122063 -0.000149377 -5.72192e-07
-0.000149377 0.000529021 -1.14251e-06
-5.72192e-07 -1.14251e-06 0.000360158
0.000660879 -9.01937e-05 -5.05301e-07
-9.01937e-05 0.000128072 -3.61057e-08
-5.05301e-07 -3.61057e-08 1.06164e-05
0.000513758 1.54433e-05 -2.33224e-06
1.54433e-05 1.25891e-05 2.89719e-06
-2.33224e-06 2.89719e-06 -6.3068e-05
0.000726036 -0.000120372 1.87299e-06
-0.000120372 0.000174494 -2.07128e-06
1.87299e-06 -2.07128e-06 5.39956e-05
0.000599242 -4.5215e-05 -2.20989e-07
-4.5215e-05 6.32935e-05 1.6354e-07
-2.20989e-07 1.6354e-07 -1.0066e-05
0.00144083 1.3898e-05 -1.1327e-05
1.3898e-05 0.000558428 6.92349e-06
-1.1327e-05 6.92349e-06 0.00053806
0.000555462 -5.98616e-05 2.48696e-06
-5.98616e-05 4.55139e-05 -3.27693e-06
2.48696e-06 -3.27693e-06 -3.04093e-05
0.000896041 -4.65076e-06 -6.30841e-06
-4.65076e-06 0.00022585 6.86488e-07
-6.30841e-06 6.86488e-07 0.000204268
0.000784535 2.24438e-05 7.3732e-07
2.24438e-05 0.000146604 2.57945e-06
7.3732e-07 2.57945e-06 0.000149337
0.000459017 -1.91889e-05 1.86753e-06
-1.91889e-05 -4.05988e-05 -4.63707e-06
1.86753e-06 -4.63707e-06 -6.30872e-05
0.00163907 2.27519e-05 8.79728e-06
2.27519e-05 0.000680793 -1.48872e-06
8.79728e-06 -1.48872e-06 0.000689556
0.0024935 1.4506e-05 8.23613e-06
1.4506e-05 0.00121109 -5.12127e-06
8.23613e-06 -5.12127e-06 0.0012243
0.000573513 4.04633e-05 2.07753e-06
4.04633e-05 6.48221e-05 -9.45103e-07
2.07753e-06 -9.45103e-07 -3.23041e-05
0.000603272 5.41591e-05 -8.22314e-07
5.41591e-05 6.45171e-05 -1.74108e-06
-8.22314e-07 -1.74108e-06 1.36759e-05
0.00061827 -6.63446e-07 1.16552e-06
-6.63446e-07 0.00010495 6.07919e-07
1.16552e-06 6.07919e-07 1.17766e-05
0.000498589 1.70615e-06 1.42154e-06
1.70615e-06 -3.30141e-05 -3.51257e-06
1.42154e-06 -3.51257e-06 -4.17713e-05
0.000516145 4.51893e-05 1.20413e-07
4.51893e-05 1.15909e-05 -1.05886e-07
1.20413e-07 -1.05886e-07 -3.43334e-05
0.000557236 -0.000107359 -3.37729e-06
-0.000107359 6.95585e-05 5.66395e-07
-3.37729e-06 5.66395e-07 -1.90054e-05
0.0019847 6.38958e-06 -4.61088e-06
6.38958e-06 0.000890771 -4.70745e-06
-4.61088e-06 -4.70745e-06 0.000909224
0.000492702 4.36577e-06 -2.41516e-07
4.36577e-06 -3.73124e-05 1.43683e-08
-2.41516e-07 1.43683e-08 -4.52923e-05
0.000520981 -1.72729e-05 -1.96886e-06
-1.72729e-05 1.20986e-05 1.75363e-06
-1.96886e-06 1.75363e-06 -3.03849e-05
0.000488221 6.3299e-06 -1.31053e-06
6.3299e-06 -4.14948e-05 3.15203e-06
-1.31053e-06 3.15203e-06 -4.95709e-05
0.00199567 2.13516e-05 -4.9237e-06
2.13516e-05 0.000899528 -8.61756e-08
-4.9237e-06 -8.61756e-08 0.000917177
0.00195164 3.44948e-05 -6.75177e-06
3.44948e-05 0.000874585 4.40237e-06
-6.75177e-06 4.40237e-06 0.000891449
-0.00649036 -0.00132139 -0.000140036
-0.00132139 0.00437653 4.7225e-05
-0.000140036 4.7225e-05 0.000685968
0.00107435 0.0010503 -0.000203195
0.0010503 0.000189713 5.90779e-05
-0.000203195 5.90779e-05 -0.00134804
0.00294586 -0.000850999 -0.000527681
-0.000850999 0.00120433 0.000237607
-0.000527681 0.000237607 -0.0031493
-0.00185514 0.000270059 0.000882528
0.000270059 0.00494074 -0.000307003
0.000882528 -0.000307003 0.00153659
0.00126849 0.000444863 -2.0142e-05
0.000444863 -0.00135086 -2.48874e-05
-2.0142e-05 -2.48874e-05 -0.000702016
0.00248475 -0.000368355 8.70091e-05
-0.000368355 -0.000275546 5.06263e-06
8.70091e-05 5.06263e-06 -0.000206498
0.00063122 -0.000360374 0.000212174
-0.000360374 -0.00404659 -6.65288e-05
0.000212174 -6.65288e-05 -0.00595333
0.0174302 0.00253651 -0.000556349
0.00253651 0.00791058 4.98829e-05
-0.000556349 4.98829e-05 0.00572259
-5.99898e-06 0.00632354 -0.00182316
0.00632354 0.00134815 0.00125893
-0.00182316 0.00125893 6.78972e-05
0.00408236 -0.000460124 1.61776e-05
-0.000460124 -0.000365469 9.26563e-06
1.61776e-05 9.26563e-06 0.000112332
0.00877915 -0.00157916 0.000123978
-0.00157916 -0.000692154 -0.000110911
0.000123978 -0.000110911 -0.00304256
0.0186551 0.00445522 -0.000248553
0.00445522 0.00557987 -9.90167e-05
-0.000248553 -9.90167e-05 0.00369968
0.0114318 0.00353884 -6.14885e-05
0.00353884 0.00136245 0.000336536
-6.14885e-05 0.000336536 -0.000202901
0.00174489 -0.0013489 -0.000100245
-0.0013489 -0.00253665 1.56352e-05
-0.000100245 1.56352e-05 -0.00178121
0.00477768 -0.00263071 0.000321671
-0.00263071 -0.000195262 -0.000200919
0.000321671 -0.000200919 -0.0040726
0.00198148 0.0028393 7.94687e-05
0.0028393 -0.00069358 -0.000659855
7.94687e-05 -0.000659855 -0.00337702
0.00771487 0.00114984 -0.000214282
0.00114984 -0.00264894 2.19498e-06
-0.000214282 2.19498e-06 -0.00148911
0.00194561 -7.8305e-05 2.08184e-06
-7.8305e-05 0.00102859 1.2509e-05
2.08184e-06 1.2509e-05 0.000799261
0.000536558 0.000114727 -1.7769e-06
0.000114727 8.80133e-05 -2.27549e-06
-1.7769e-06 -2.27549e-06 -4.8719e-05
0.000538028 9.19789e-05 8.04404e-07
9.19789e-05 5.51692e-05 -1.87303e-06
8.04404e-07 -1.87303e-06 -3.83442e-05
0.000426149 3.40508e-05 5.60763e-06
3.40508e-05 3.68249e-05 -2.70333e-07
5.60763e-06 -2.70333e-07 -8.22713e-05
0.000435858 8.04822e-05 3.52536e-06
8.04822e-05 1.41009e-05 3.03559e-06
3.52536e-06 3.03559e-06 -0.00015886
0.000535378 4.17255e-05 -9.91009e-08
4.17255e-05 8.79035e-05 2.11701e-06
-9.91009e-08 2.11701e-06 -5.53792e-05
0.000438287 3.89083e-05 2.60136e-07
3.89083e-05 1.24104e-05 -2.24348e-06
2.60136e-07 -2.24348e-06 -0.00011471
0.000907018 0.000163275 2.89583e-06
0.000163275 0.000312032 4.50598e-06
2.89583e-06 4.50598e-06 0.000148961
0.000855476 0.000117977 3.66968e-08
0.000117977 0.000285788 2.31143e-07
3.66968e-08 2.31143e-07 0.000128318
0.000392182 -1.4978e-05 -4.75104e-06
-1.4978e-05 -1.10805e-05 -4.74473e-06
-4.75104e-06 -4.74473e-06 -0.00013569
0.000533284 -0.000376154 7.01329e-05
-0.000376154 -0.00103604 -3.01163e-05
7.01329e-05 -3.01163e-05 -0.000812947
0.000470583 -0.000583158 3.05469e-05
-0.000583158 -0.00072415 -1.03417e-05
3.05469e-05 -1.03417e-05 -0.000729407
0.00172496 -0.000845228 3.79762e-06
-0.000845228 -3.83917e-05 1.01912e-05
3.79762e-06 1.01912e-05 -0.000160367
-0.000726129 -0.00055713 7.82954e-06
-0.00055713 -0.000738651 -1.77494e-05
7.82954e-06 -1.77494e-05 -0.00106478
0.00304061 -0.0003739 -1.46024e-05
-0.0003739 0.00181928 5.26963e-05
-1.46024e-05 5.26963e-05 0.00135451
0.000867163 -0.000153872 -2.67697e-06
-0.000153872 0.000400612 4.2025e-06
-2.67697e-06 4.2025e-06 0.000169012
0.000338206 0.000112355 -2.70733e-06
0.000112355 1.13856e-05 -1.26073e-05
-2.70733e-06 -1.26073e-05 -0.000189904
0.00056919 -9.60858e-05 -1.8942e-06
-9.60858e-05 0.000172524 8.04561e-06
-1.8942e-06 8.04561e-06 -6.65188e-05
0.00160196 -0.000650733 3.67065e-07
-0.000650733 -0.00016944 -4.79208e-06
3.67065e-07 -4.79208e-06 -0.000249231
0.000632801 -4.62119e-05 7.91179e-07
-4.62119e-05 0.000213185 4.34024e-06
7.91179e-07 4.34024e-06 -1.30421e-05
0.00194691 -0.00024095 8.15191e-07
-0.00024095 0.00113193 -1.37714e-06
8.15191e-07 -1.37714e-06 0.000767757
0.00120082 -0.0006353 1.38313e-06
-0.0006353 -0.000103225 5.30704e-06
1.38313e-06 5.30704e-06 -0.000143798
0.00077287 -0.000596668 -2.06564e-05
-0.000596668 0.000322753 6.73489e-06
-2.06564e-05 6.73489e-06 -4.06315e-05
0.00310778 -0.00122079 2.89299e-05
-0.00122079 0.000589299 -1.87748e-05
2.89299e-05 -1.87748e-05 0.000580833
-0.00131453 -0.000375541 -8.17442e-06
-0.000375541 -0.00105257 2.31242e-05
-8.17442e-06 2.31242e-05 -0.00109203
-0.000683005 -8.77436e-05 8.57613e-06
-8.77436e-05 -0.000254211 4.18661e-06
8.57613e-06 4.18661e-06 -0.000716679
0.000642794 1.31294e-05 -2.63865e-06
1.31294e-05 0.000177584 -6.37967e-07
-2.63865e-06 -6.37967e-07 -2.03808e-05
0.00102217 1.39032e-05 8.19623e-06
1.39032e-05 0.000560176 -7.46663e-06
8.19623e-06 -7.46663e-06 0.000281467
0.00135601 6.38814e-05 -2.85625e-05
6.38814e-05 0.00172129 -1.26273e-05
-2.85625e-05 -1.26273e-05 -0.00171695
-0.00558283 0.000342804 -0.000277901
0.000342804 0.00559112 -1.44814e-05
-0.000277901 -1.44814e-05 0.00120207
-0.0124786 -0.00183483 -0.000555866
-0.00183483 -0.00567244 -1.6635e-05
-0.000555866 -1.6635e-05 -0.00589096
-0.000792738 0.000137213 6.69249e-06
0.000137213 -0.000653461 -2.76713e-06
6.69249e-06 -2.76713e-06 -0.000856343
-0.00037221 0.000402385 -2.89358e-06
0.000402385 -0.000352289 1.04994e-05
-2.89358e-06 1.04994e-05 -0.000698235
0.00131731 0.000775163 2.76781e-05
0.000775163 8.00671e-05 2.18844e-05
2.76781e-05 2.18844e-05 -2.38119e-05
-0.00542589 0.00147472 3.7121e-05
0.00147472 0.00474361 4.66128e-05
3.7121e-05 4.66128e-05 0.000685792
0.00530073 0.00255692 -0.000212958
0.00255692 0.000193253 -0.000139271
-0.000212958 -0.000139271 -0.0034804
0.0019201 0.00171996 0.000309864
0.00171996 0.00039308 0.000100844
0.000309864 0.000100844 0.00020715
-0.0002065 0.000696823 2.38516e-05
0.000696823 -0.000215143 -3.71121e-05
2.38516e-05 -3.71121e-05 -0.000406091
0.0212332 -0.00311989 -0.000153955
-0.00311989 0.00673684 -0.000279464
-0.000153955 -0.000279464 0.0044275
0.00546832 0.00109125 0.000394811
0.00109125 0.00279612 0.000146257
0.000394811 0.000146257 -0.00228307
0.013217 -0.00180967 0.000132822
-0.00180967 0.00208372 3.32805e-05
0.000132822 3.32805e-05 0.0034639
0.00107011 0.00040085 4.60128e-06
0.00040085 0.000517315 -1.64719e-06
4.60128e-06 -1.64719e-06 0.00027824
0.00376805 0.000378981 1.41512e-06
0.000378981 0.00262844 1.42698e-05
1.41512e-06 1.42698e-05 -0.000229867
0.00121615 0.000467103 4.93619e-05
0.000467103 3.67646e-05 6.68693e-06
4.93619e-05 6.68693e-06 -0.00155673
-0.000306999 0.000397764 -3.14631e-06
0.000397764 -0.00012822 -4.54262e-06
-3.14631e-06 -4.54262e-06 -0.000407016
0.000617184 0.000946073 -9.79752e-05
0.000946073 0.000980629 -4.44596e-05
-9.79752e-05 -4.44596e-05 -0.00022048
0.00131944 0.00342812 0.000154319
0.00342812 0.00056225 9.071e-05
0.000154319 9.071e-05 -0.00348459
0.0085447 0.000163301 -1.16385e-05
0.000163301 -0.00329499 -0.000192451
-1.16385e-05 -0.000192451 -0.000429787
0.00425561 -0.00230492 -6.03149e-05
-0.00230492 0.00248503 -0.000135573
-6.03149e-05 -0.000135573 -0.00140627
0.000990383 0.000314153 -3.26571e-06
0.000314153 0.000757928 -1.78404e-05
-3.26571e-06 -1.78404e-05 0.000473549
-0.00209051 9.09402e-05 7.55103e-06
9.09402e-05 -0.000127244 8.59402e-06
7.55103e-06 8.59402e-06 -0.000232662
0.00405623 -4.07231e-05 7.82506e-05
-4.07231e-05 -0.000241842 -0.00014683
7.82506e-05 -0.00014683 -0.00126814
0.00774172 0.00124114 0.00021965
0.00124114 -0.00236906 -1.9255e-05
0.00021965 -1.9255e-05 -0.00135385
-0.00198852 0.00011309 2.00065e-05
0.00011309 -8.21737e-05 -3.36507e-05
2.00065e-05 -3.36507e-05 -0.000815604
0.0126016 0.00274286 0.000236516
0.00274286 0.00576667 5.66422e-05
0.000236516 5.66422e-05 0.000983731
-0.00218914 -0.000429807 7.44328e-05
-0.000429807 0.00170438 0.000351262
7.44328e-05 0.000351262 -0.00139105
0.0026078 0.000367939 2.14315e-05
0.000367939 0.00147113 1.23241e-05
2.14315e-05 1.23241e-05 0.00126242
0.000584803 0.00019653 -5.20371e-06
0.00019653 0.000446448 -5.2739e-07
-5.20371e-06 -5.2739e-07 0.000141074
4.10301e-05 0.000103416 5.81359e-07
0.000103416 0.000344617 1.50905e-06
5.81359e-07 1.50905e-06 -4.27824e-05
0.000681226 0.000155114 1.26349e-06
0.000155114 0.00017793 1.1353e-06
1.26349e-06 1.1353e-06 9.03666e-06
0.000386269 4.749e-05 1.93009e-06
4.749e-05 2.46091e-05 1.31763e-06
1.93009e-06 1.31763e-06 -0.000131527
0.00051011 -2.71241e-05 8.30214e-06
-2.71241e-05 0.000449586 4.59728e-07
8.30214e-06 4.59728e-07 0.000120708
0.000450532 2.58679e-05 2.99498e-07
2.58679e-05 3.65759e-05 -7.29242e-07
2.99498e-07 -7.29242e-07 -9.98104e-05
0.000655527 -2.38535e-05 -2.22439e-06
-2.38535e-05 0.000544976 -2.4658e-06
-2.22439e-06 -2.4658e-06 0.000210801
0.000425442 4.97806e-05 6.73847e-07
4.97806e-05 0.000549968 -1.88807e-06
6.73847e-07 -1.88807e-06 0.000123585
-0.000241986 2.08143e-05 -1.13136e-05
2.08143e-05 0.000105693 1.21605e-06
-1.13136e-05 1.21605e-06 -0.000251851
0.000235022 -2.05899e-05 -2.96548e-07
-2.05899e-05 0.000231585 -5.25193e-06
-2.96548e-07 -5.25193e-06 -5.52235e-05
0.000269934 -6.27455e-05 1.09578e-06
-6.27455e-05 -8.78507e-05 7.94355e-06
1.09578e-06 7.94355e-06 -0.00021458
0.000814783 -4.77856e-05 -8.6302e-07
-4.77856e-05 0.000252219 1.45099e-06
-8.6302e-07 1.45099e-06 0.000110571
0.00113964 -4.55933e-05 -1.0541e-05
-4.55933e-05 0.000462754 8.44016e-06
-1.0541e-05 8.44016e-06 0.000333551
0.000765687 -7.4887e-05 2.69882e-06
-7.4887e-05 0.000347248 -4.28959e-07
2.69882e-06 -4.28959e-07 0.000197774
0.00060828 -4.78073e-05 -8.34855e-07
-4.78073e-05 0.000118655 -6.01152e-07
-8.34855e-07 -6.01152e-07 -5.88506e-06
0.000284698 -0.000137374 3.05671e-08
-0.000137374 -4.33231e-05 1.36431e-06
3.05671e-08 1.36431e-06 -0.0001867
7.90036e-05 -0.000126554 -9.71258e-06
-0.000126554 -0.000295887 -1.81433e-06
-9.71258e-06 -1.81433e-06 -0.000364732
-0.000773071 -0.000256178 8.57961e-06
-0.000256178 -0.000761455 1.31494e-05
8.57961e-06 1.31494e-05 -0.0010231
0.000443543 -0.00016834 5.17489e-06
-0.00016834 -3.87912e-05 -9.50078e-07
5.17489e-06 -9.50078e-07 -0.000155039
0.00122691 -0.000257274 -2.53539e-06
-0.000257274 0.00040506 8.88191e-06
-2.53539e-06 8.88191e-06 0.000229244
0.0020273 -0.000491411 -9.14757e-06
-0.000491411 0.000818497 1.1517e-05
-9.14757e-06 1.1517e-05 0.000496485
0.00154329 -0.000433724 -5.9442e-06
-0.000433724 0.000397594 7.60578e-07
-5.9442e-06 7.60578e-07 7.95946e-05
0.00109181 -0.000282063 -8.74151e-07
-0.000282063 0.000351445 4.23302e-06
-8.74151e-07 4.23302e-06 0.000118832
0.000243147 -0.00024437 1.03974e-05
-0.00024437 -0.00028095 -3.86437e-06
1.03974e-05 -3.86437e-06 -0.000521248
0.00115658 -0.000139997 1.91967e-06
-0.000139997 0.000449842 -2.67627e-06
1.91967e-06 -2.67627e-06 0.000244467
0.001337 -0.000205326 -6.6305e-06
-0.000205326 0.000563644 -4.41484e-07
-6.6305e-06 -4.41484e-07 0.000366867
8.78078e-05 -0.000106463 8.08504e-06
-0.000106463 -0.000221927 -1.47433e-05
8.08504e-06 -1.47433e-05 -0.000339675
0.00107123 -8.62747e-05 6.62476e-08
-8.62747e-05 0.000353689 1.44069e-06
6.62476e-08 1.44069e-06 0.000210402
0.000264766 -7.16887e-05 6.88397e-07
-7.16887e-05 -9.57995e-05 -6.57371e-07
6.88397e-07 -6.57371e-07 -0.000251991
0.00062435 -4.75224e-05 4.24489e-07
-4.75224e-05 8.23489e-05 5.43888e-07
4.24489e-07 5.43888e-07 -3.90691e-05
0.0011275 -0.000167879 -5.39971e-07
-0.000167879 0.000454386 4.23751e-07
-5.39971e-07 4.23751e-07 0.000284671
0.000655702 -7.78088e-05 -2.74652e-07
-7.78088e-05 0.000123907 -1.03877e-07
-2.74652e-07 -1.03877e-07 -1.11863e-06
0.000492459 1.80068e-05 1.10797e-06
1.80068e-05 8.39056e-06 3.44159e-06
1.10797e-06 3.44159e-06 -7.81488e-05
0.000774673 -0.00011499 5.40446e-07
-0.00011499 0.000210185 -2.34568e-06
5.40446e-07 -2.34568e-06 8.29515e-05
0.000521838 9.62224e-06 -1.86642e-06
9.62224e-06 2.23297e-05 -1.65049e-07
-1.86642e-06 -1.65049e-07 -5.69746e-05
0.00139208 2.15836e-05 -1.37022e-05
2.15836e-05 0.000528966 4.69827e-06
-1.37022e-05 4.69827e-06 0.000507596
0.000598274 -5.5087e-05 2.90643e-06
-5.5087e-05 6.56153e-05 -3.53367e-06
2.90643e-06 -3.53367e-06 -9.86673e-06
0.000902985 2.97672e-06 -6.94264e-06
2.97672e-06 0.000225788 6.22039e-07
-6.94264e-06 6.22039e-07 0.000203111
0.000828344 3.23767e-05 -2.81892e-08
3.23767e-05 0.000172571 2.81127e-06
-2.81892e-08 2.81127e-06 0.000173318
0.000469657 -1.08369e-05 1.91136e-06
-1.08369e-05 -4.02752e-05 -5.21899e-06
1.91136e-06 -5.21899e-06 -6.4079e-05
0.00168837 3.491e-05 1.18323e-05
3.491e-05 0.000709767 -1.30644e-06
1.18323e-05 -1.30644e-06 0.00071716
0.00251278 2.95276e-05 1.24246e-05
2.95276e-05 0.00122187 -5.32464e-06
1.24246e-05 -5.32464e-06 0.0012345
0.000326562 1.33932e-05 1.21361e-06
1.33932e-05 -7.49209e-05 -2.75218e-07
1.21361e-06 -2.75218e-07 -0.000196217
0.000214079 1.65809e-05 3.47743e-07
1.65809e-05 -0.000178643 -3.29221e-06
3.47743e-07 -3.29221e-06 -0.00023765
0.000647282 4.33732e-05 2.08039e-10
4.33732e-05 0.000119667 9.60443e-08
2.08039e-10 9.60443e-08 1.48693e-05
0.000497019 2.05282e-07 1.27676e-06
2.05282e-07 -3.50415e-05 -3.64629e-06
1.27676e-06 -3.64629e-06 -4.53805e-05
0.000357927 4.15244e-06 1.52464e-06
4.15244e-06 -9.13852e-05 2.91305e-09
1.52464e-06 2.91305e-09 -0.000140668
0.000321126 -9.33419e-05 -1.93356e-06
-9.33419e-05 -7.89956e-05 -3.65592e-07
-1.93356e-06 -3.65592e-07 -0.000173571
0.00205283 -7.44049e-06 -9.31121e-06
-7.44049e-06 0.000932553 -4.74606e-06
-9.31121e-06 -4.74606e-06 0.000950714
0.000493443 1.15526e-06 -3.3039e-08
1.15526e-06 -3.67791e-05 -5.73244e-08
-3.3039e-08 -5.73244e-08 -4.53392e-05
0.00047272 -1.75934e-05 -2.46323e-06
-1.75934e-05 -1.90025e-05 1.9356e-06
-2.46323e-06 1.9356e-06 -6.24342e-05
0.00200506 7.78095e-06 -4.44572e-06
7.78095e-06 0.000903716 1.1406e-08
-4.44572e-06 1.1406e-08 0.000921984
0.000480301 3.58651e-06 -1.2097e-06
3.58651e-06 -4.44967e-05 3.16809e-06
-1.2097e-06 3.16809e-06 -5.25022e-05
0.00197022 2.25325e-05 -2.31514e-07
2.25325e-05 0.000883722 4.59799e-06
-2.31514e-07 4.59799e-06 0.000901398
3.36068e-06 -0.000552452 -0.000198104
-0.000552452 -0.000179394 6.39293e-05
-0.000198104 6.39293e-05 -0.00277873
0.0013988 0.000394869 -7.91959e-05
0.000394869 0.00620958 8.6676e-06
-7.91959e-05 8.6676e-06 0.00301248
0.001529 -0.000203154 -0.000619106
-0.000203154 0.0032845 0.000103871
-0.000619106 0.000103871 0.00164276
0.000695101 0.000113865 3.61856e-06
0.000113865 0.000148797 3.82929e-06
3.61856e-06 3.82929e-06 7.55786e-07
0.00432672 -0.000664929 -4.57835e-05
-0.000664929 0.00294186 0.000187814
-4.57835e-05 0.000187814 0.00110432
0.00391951 -0.00102848 -0.000227861
-0.00102848 0.00158133 1.84401e-05
-0.000227861 1.84401e-05 -0.00270467
0.00758396 0.00212443 0.000326083
0.00212443 0.00627998 -0.000270053
0.000326083 -0.000270053 0.0032261
0.00643887 -0.000732747 8.65315e-05
-0.000732747 0.000857946 -2.0925e-05
8.65315e-05 -2.0925e-05 0.000917291
0.0124028 -0.0016682 0.00022026
-0.0016682 0.00127743 -9.45066e-05
0.00022026 -9.45066e-05 -0.000232264
0.00378459 0.00387139 -0.000456392
0.00387139 -0.00149619 0.000357579
-0.000456392 0.000357579 -0.00327784
0.0115956 0.00355523 4.81016e-05
0.00355523 0.00315995 0.000171216
4.81016e-05 0.000171216 0.00113186
0.00647225 -0.00165386 -0.000122468
-0.00165386 0.000186201 -7.57434e-06
-0.000122468 -7.57434e-06 0.000336676
0.0166106 -0.00279534 4.43735e-05
-0.00279534 0.00461238 -2.7353e-05
4.43735e-05 -2.7353e-05 0.00226983
0.00781694 0.0023394 0.000149323
0.0023394 0.00167748 -0.000278776
0.000149323 -0.000278776 -0.00115307
0.0100721 0.00117678 1.46777e-05
0.00117678 -0.000956024 3.01855e-05
1.46777e-05 3.01855e-05 -0.000298012
0.00311397 -0.00207053 -2.98046e-05
-0.00207053 -7.3993e-05 4.03594e-05
-2.98046e-05 4.03594e-05 -0.000361691
0.0116429 -0.00334477 0.000143964
-0.00334477 0.00488409 -9.348e-05
0.000143964 -9.348e-05 0.000683882
0.0077182 -0.000100813 0.000125416
-0.000100813 0.00323491 -0.000372971
0.000125416 -0.000372971 0.00113239
0.0107114 0.000679351 -9.94694e-05
0.000679351 -0.001376 0.000203933
-9.94694e-05 0.000203933 0.000994868
0.00068754 2.78985e-06 2.8685e-06
2.78985e-06 0.000227467 6.05646e-06
2.8685e-06 6.05646e-06 2.29536e-05
0.000817518 -0.000120832 -1.44612e-07
-0.000120832 0.000323143 2.74949e-07
-1.44612e-07 2.74949e-07 0.000106243
0.000719234 0.000135621 7.5837e-08
0.000135621 0.000204827 -4.52248e-06
7.5837e-08 -4.52248e-06 6.47747e-05
0.000610004 0.000105255 4.86087e-07
0.000105255 8.5316e-05 6.53309e-06
4.86087e-07 6.53309e-06 -5.51772e-05
0.000771668 0.000150076 2.47572e-07
0.000150076 0.000240172 5.82951e-07
2.47572e-07 5.82951e-07 6.05994e-05
0.000977641 7.92768e-05 -5.30485e-06
7.92768e-05 0.000367212 -3.17033e-06
-5.30485e-06 -3.17033e-06 0.000222454
0.00102158 0.000158396 -1.28222e-06
0.000158396 0.000383493 -1.88821e-08
-1.28222e-06 -1.88821e-08 0.000219375
0.00107955 0.000174615 6.89524e-07
0.000174615 0.000441757 2.03349e-06
6.89524e-07 2.03349e-06 0.000272865
-0.000237813 -0.000417754 8.84838e-05
-0.000417754 -0.00121749 -4.98193e-05
8.84838e-05 -4.98193e-05 -0.00110477
0.00225371 -0.000752489 9.25776e-06
-0.000752489 0.000436824 -1.61317e-05
9.25776e-06 -1.61317e-05 0.000388107
0.00102974 -0.000225541 3.72062e-08
-0.000225541 0.000468152 -1.99566e-05
3.72062e-08 -1.99566e-05 0.000209182
0.00151208 -0.000651842 2.05138e-05
-0.000651842 0.000710693 -2.81255e-05
2.05138e-05 -2.81255e-05 0.000363289
0.00246319 -0.000388114 -1.53971e-05
-0.000388114 0.00138882 1.41184e-05
-1.53971e-05 1.41184e-05 0.00103655
0.00138986 -0.000126979 -1.0336e-07
-0.000126979 0.000661286 -1.86517e-05
-1.0336e-07 -1.86517e-05 0.000428095
0.000144091 -5.85948e-05 1.74784e-06
-5.85948e-05 -0.000125116 5.37041e-06
1.74784e-06 5.37041e-06 -0.000318016
3.96712e-05 -0.000888123 -8.56777e-07
-0.000888123 -0.000982409 -2.06957e-06
-8.56777e-07 -2.06957e-06 -0.000917046
0.00129208 4.8832e-05 -7.85625e-07
4.8832e-05 0.000724231 -3.17031e-07
-7.85625e-07 -3.17031e-07 0.000436543
0.000710086 -0.000221082 6.64853e-06
-0.000221082 0.000471196 1.74836e-06
6.64853e-06 1.74836e-06 6.70006e-05
0.000754988 -0.000411713 6.90985e-06
-0.000411713 0.000102924 4.59946e-06
6.90985e-06 4.59946e-06 7.68403e-05
0.00125931 0.000123424 -5.61814e-07
0.000123424 0.000539749 -9.88865e-07
-5.61814e-07 -9.88865e-07 0.000379486
0.000545041 -0.000801315 -1.44044e-05
-0.000801315 -0.000244318 -3.82958e-05
-1.44044e-05 -3.82958e-05 -0.000308075
-0.000848122 -0.000376266 -1.34357e-05
-0.000376266 -0.00052594 3.12542e-05
-1.34357e-05 3.12542e-05 -0.00073073
-0.000204002 9.11489e-05 1.98858e-05
9.11489e-05 0.000217709 -1.86151e-05
1.98858e-05 -1.86151e-05 -0.000324366
0.00134559 0.000237512 -8.04571e-07
0.000237512 0.00068954 -3.75253e-06
-8.04571e-07 -3.75253e-06 0.000488759
-0.000875246 5.96664e-05 6.22427e-05
5.96664e-05 0.00106883 6.18521e-06
6.22427e-05 6.18521e-06 0.000365662
0.000706309 -3.16069e-05 0.000127926
-3.16069e-05 0.00125609 -2.82448e-05
0.000127926 -2.82448e-05 -0.00214781
-0.0096539 -0.000253158 -0.000217246
-0.000253158 0.00502628 2.1021e-05
-0.000217246 2.1021e-05 8.08675e-05
0.00159038 0.000436164 1.78113e-05
0.000436164 0.000911663 5.25786e-07
1.78113e-05 5.25786e-07 0.000659888
-0.000957682 0.000526486 7.03686e-06
0.000526486 -0.000522601 1.64172e-05
7.03686e-06 1.64172e-05 -0.000900887
0.00514664 0.000473124 0.000224229
0.000473124 0.00324206 3.64297e-05
0.000224229 3.64297e-05 0.00130143
0.0104571 0.00281308 0.000253322
0.00281308 0.00377048 0.000163003
0.000253322 0.000163003 -0.000285165
0.00284165 0.00160319 -7.63725e-05
0.00160319 0.00184369 -7.9753e-05
-7.63725e-05 -7.9753e-05 0.000519831
0.00526487 -0.00188874 -0.000144132
-0.00188874 0.00338693 -0.000389465
-0.000144132 -0.000389465 0.000326644
0.0020898 0.000421237 0.000105912
0.000421237 0.000224762 0.000178836
0.000105912 0.000178836 -0.00133255
0.00643269 -0.000136544 -3.65183e-05
-0.000136544 -0.0051925 -0.000212951
-3.65183e-05 -0.000212951 -0.00191622
0.000740353 0.000345508 6.16332e-06
0.000345508 0.000595499 1.93042e-06
6.16332e-06 1.93042e-06 0.000288898
-0.00183034 2.6804e-05 -1.71923e-06
2.6804e-05 -8.42678e-05 -2.81738e-08
-1.71923e-06 -2.81738e-08 -0.000297395
0.00379402 2.90227e-05 8.54618e-05
2.90227e-05 -0.000211345 2.37749e-05
8.54618e-05 2.37749e-05 -0.000629274
-0.00144782 0.000336386 -1.08797e-05
0.000336386 -0.000331615 -8.34409e-06
-1.08797e-05 -8.34409e-06 -0.000966125
0.00989575 0.0013018 -7.72019e-06
0.0013018 -0.000840856 -2.68239e-05
-7.72019e-06 -2.68239e-05 -0.000298745
0.00301558 0.00154123 0.000176595
0.00154123 0.00338325 0.000113787
0.000176595 0.000113787 -0.00182913
0.00566673 0.000619567 -0.000144006
0.000619567 0.00294803 1.23489e-06
-0.000144006 1.23489e-06 1.53087e-05
0.000509458 0.000352022 -7.83721e-06
0.000352022 0.000497797 -2.4186e-05
-7.83721e-06 -2.4186e-05 5.60165e-05
0.0012643 2.46701e-05 1.39542e-05
2.46701e-05 -0.00016382 -2.22499e-05
1.39542e-05 -2.22499e-05 -0.00012765
0.00371352 -0.000728076 3.52313e-05
-0.000728076 0.00288237 -0.000192649
3.52313e-05 -0.000192649 0.00121801
0.0152766 0.00367635 0.000284373
0.00367635 0.00393325 -0.000231769
0.000284373 -0.000231769 0.00267679
0.00713877 -3.79623e-05 -0.000102269
-3.79623e-05 0.00316793 0.000379578
-0.000102269 0.000379578 0.000877672
0.000653966 0.000360218 -8.64526e-06
0.000360218 0.00055439 -0.000117113
-8.64526e-06 -0.000117113 7.25802e-05
0.00285512 0.00150851 0.000230148
0.00150851 0.0049704 4.00661e-05
0.000230148 4.00661e-05 -0.0024709
0.00141533 0.00029535 2.76538e-06
0.00029535 0.000907099 1.12075e-05
2.76538e-06 1.12075e-05 0.000603666
0.000730469 0.000212108 2.46954e-06
0.000212108 0.000715357 -5.63959e-07
2.46954e-06 -5.63959e-07 0.000343305
-9.87496e-06 -2.49318e-05 -1.18564e-05
-2.49318e-05 0.000372487 -8.01381e-06
-1.18564e-05 -8.01381e-06 7.18877e-05
0.000107275 -4.72429e-05 9.86409e-07
-4.72429e-05 -0.000189349 6.16241e-06
9.86409e-07 6.16241e-06 -0.000312508
0.00126415 -8.78997e-06 5.02292e-06
-8.78997e-06 0.000883344 -2.18258e-06
5.02292e-06 -2.18258e-06 0.000564603
0.000189096 6.62519e-05 3.28017e-06
6.62519e-05 0.000409636 -3.91464e-07
3.28017e-06 -3.91464e-07 -1.8836e-05
0.000434334 -3.65847e-05 1.1348e-06
-3.65847e-05 0.000292426 -1.45742e-07
1.1348e-06 -1.45742e-07 5.74057e-05
-2.95691e-06 -9.36182e-06 5.3416e-06
-9.36182e-06 0.000237271 8.09916e-07
5.3416e-06 8.09916e-07 -0.000119052
0.00105502 -0.000236349 -1.06986e-06
-0.000236349 0.000672951 -1.23374e-05
-1.06986e-06 -1.23374e-05 0.000385216
0.000838354 -8.2513e-05 -4.80534e-06
-8.2513e-05 0.000366943 7.71708e-06
-4.80534e-06 7.71708e-06 0.000230339
0.000655514 -1.69473e-05 -9.48534e-07
-1.69473e-05 0.000144491 1.92424e-06
-9.48534e-07 1.92424e-06 2.29265e-05
0.00138964 -0.000232749 2.44437e-06
-0.000232749 0.000608463 4.1116e-06
2.44437e-06 4.1116e-06 0.000444405
-0.00152862 -0.00021601 1.65244e-05
-0.00021601 -0.00100777 9.20224e-06
1.65244e-05 9.20224e-06 -0.0013116
6.28691e-06 -0.000113913 5.06092e-06
-0.000113913 -0.000258119 -2.55485e-06
5.06092e-06 -2.55485e-06 -0.000301132
-0.000175406 -0.000289208 -3.03045e-07
-0.000289208 -0.000437761 -3.29073e-06
-3.03045e-07 -3.29073e-06 -0.00067533
0.00122191 -0.000460478 2.82461e-06
-0.000460478 0.000279339 -3.35083e-06
2.82461e-06 -3.35083e-06 -0.000104386
0.00160629 -0.000536516 -3.47056e-06
-0.000536516 0.000388031 -9.88268e-07
-3.47056e-06 -9.88268e-07 7.58903e-06
0.00195753 -0.000352471 3.90476e-06
-0.000352471 0.000838316 -1.88318e-06
3.90476e-06 -1.88318e-06 0.000635636
0.0012879 -0.000409053 2.21309e-06
-0.000409053 0.000349264 3.95427e-07
2.21309e-06 3.95427e-07 3.4695e-05
0.00160587 -0.000443903 2.70604e-06
-0.000443903 0.000421383 -2.06796e-06
2.70604e-06 -2.06796e-06 0.000109825
0.000624728 -0.00026989 -3.33994e-06
-0.00026989 -7.49521e-05 4.60619e-06
-3.33994e-06 4.60619e-06 -0.000326056
0.000987478 -0.000365822 1.72723e-06
-0.000365822 6.95937e-05 -5.07674e-06
1.72723e-06 -5.07674e-06 -0.000227963
0.000478859 -0.000125402 8.38539e-07
-0.000125402 5.18199e-05 -3.1559e-06
8.38539e-07 -3.1559e-06 -0.000185922
0.00112623 -0.000307715 -6.16259e-06
-0.000307715 0.000385631 4.49688e-06
-6.16259e-06 4.49688e-06 0.000135547
-0.00138819 -5.16839e-05 -2.71372e-06
-5.16839e-05 -0.00126524 -7.73713e-06
-2.71372e-06 -7.73713e-06 -0.00145934
0.000413161 -4.4791e-05 5.01368e-07
-4.4791e-05 -4.6532e-05 1.77982e-07
5.01368e-07 1.77982e-07 -0.000181489
0.000538436 -0.000115879 2.45374e-08
-0.000115879 8.89567e-05 1.32051e-07
2.45374e-08 1.32051e-07 -0.000112591
0.000992651 -0.000208896 6.51539e-06
-0.000208896 0.000385508 -1.95152e-06
6.51539e-06 -1.95152e-06 0.000174574
0.000486873 -9.94005e-05 7.12549e-07
-9.94005e-05 4.05446e-05 1.78419e-06
7.12549e-07 1.78419e-06 -0.00011713
0.000724683 -7.40932e-05 -2.45624e-07
-7.40932e-05 0.000159462 3.24455e-07
-2.45624e-07 3.24455e-07 2.6566e-05
0.000518398 5.02769e-06 5.69963e-07
5.02769e-06 1.53967e-05 4.27843e-06
5.69963e-07 4.27843e-06 -7.67681e-05
0.000862178 -0.000102933 -3.48577e-07
-0.000102933 0.000262804 -9.0197e-07
-3.48577e-07 -9.0197e-07 0.000127086
0.000565046 5.76158e-06 -1.20958e-06
5.76158e-06 4.71888e-05 -2.99441e-07
-1.20958e-06 -2.99441e-07 -3.6333e-05
0.000436593 3.70699e-05 7.9611e-08
3.70699e-05 -5.70058e-05 5.90974e-06
7.9611e-08 5.90974e-06 -8.78916e-05
0.000683353 -5.12593e-05 2.23436e-06
-5.12593e-05 0.000115424 -3.33985e-06
2.23436e-06 -3.33985e-06 3.86393e-05
0.000475905 1.1485e-05 -5.27298e-07
1.1485e-05 -4.10823e-05 -4.96023e-08
-5.27298e-07 -4.96023e-08 -6.73207e-05
0.00251089 8.79032e-05 -2.82821e-06
8.79032e-05 0.00122423 2.40032e-06
-2.82821e-06 2.40032e-06 0.00123032
0.000484516 -1.39373e-06 2.18664e-06
-1.39373e-06 -3.51573e-05 -5.42652e-06
2.18664e-06 -5.42652e-06 -6.02626e-05
0.00172217 4.82355e-05 1.4289e-05
4.82355e-05 0.000730857 -1.07961e-06
1.4289e-05 -1.07961e-06 0.000736316
0.00256936 4.54378e-05 1.89485e-05
4.54378e-05 0.00125656 -5.42609e-06
1.89485e-05 -5.42609e-06 0.00126802
0.000308934 1.4382e-05 1.06973e-06
1.4382e-05 -0.000101993 -6.31929e-07
1.06973e-06 -6.31929e-07 -0.000215661
0.000229904 9.74209e-06 1.02413e-06
9.74209e-06 -0.00017152 -3.10402e-06
1.02413e-06 -3.10402e-06 -0.000239689
0.000501461 2.9884e-05 -5.03371e-07
2.9884e-05 3.1709e-05 -1.13288e-06
-5.03371e-07 -1.13288e-06 -8.59376e-05
0.000513595 -3.09102e-06 1.85392e-06
-3.09102e-06 -2.55497e-05 -4.09603e-06
1.85392e-06 -4.09603e-06 -3.85645e-05
0.000208358 1.32739e-05 -6.23027e-07
1.32739e-05 -0.000182546 -1.65897e-06
-6.23027e-07 -1.65897e-06 -0.000243076
0.000668963 5.14651e-05 -6.60852e-07
5.14651e-05 0.00014415 1.24872e-06
-6.60852e-07 1.24872e-06 3.19254e-05
0.0020869 -2.08257e-05 -1.46429e-05
-2.08257e-05 0.000953132 -4.64009e-06
-1.46429e-05 -4.64009e-06 0.000970838
0.000496703 -1.39005e-06 -4.85478e-07
-1.39005e-06 -3.57055e-05 -6.27471e-08
-4.85478e-07 -6.27471e-08 -4.57563e-05
0.000148244 1.19669e-05 8.94189e-07
1.19669e-05 -0.000218202 1.51481e-06
8.94189e-07 1.51481e-06 -0.00027097
0.00202859 -6.07923e-06 -3.95788e-06
-6.07923e-06 0.000917333 5.00089e-08
-3.95788e-06 5.00089e-08 0.000935693
0.000484304 7.91018e-07 -1.36292e-06
7.91018e-07 -4.28272e-05 3.39094e-06
-1.36292e-06 3.39094e-06 -5.11329e-05
0.00203295 9.28842e-06 4.98345e-06
9.28842e-06 0.000921351 4.73466e-06
4.98345e-06 4.73466e-06 0.00093934
0.000388834 -3.22897e-05 8.53189e-05
-3.22897e-05 0.00141498 2.4048e-05
8.53189e-05 2.4048e-05 0.001099
-4.9837e-05 -0.000303344 -3.35069e-05
-0.000303344 0.000257675 -1.39599e-05
-3.35069e-05 -1.39599e-05 -0.00288614
0.000361461 0.000362828 1.53974e-05
0.000362828 0.00590327 -3.48543e-05
1.53974e-05 -3.48543e-05 0.00272896
0.000766459 0.000122121 1.86477e-07
0.000122121 0.000185736 2.20194e-07
1.86477e-07 2.20194e-07 4.62943e-05
0.000472703 8.3846e-05 4.47726e-06
8.3846e-05 -1.2433e-05 3.37842e-06
4.47726e-06 3.37842e-06 -0.00013961
0.00100584 0.000173845 5.22682e-06
0.000173845 0.000333944 5.38036e-06
5.22682e-06 5.38036e-06 0.00019123
0.00472659 -0.00013665 -3.76759e-05
-0.00013665 -0.000428489 0.000223156
-3.76759e-05 0.000223156 -0.00119783
0.00426345 -0.00068151 6.51205e-05
-0.00068151 0.00271721 -2.84559e-06
6.51205e-05 -2.84559e-06 0.00134708
0.00450335 -0.00125763 0.000136293
-0.00125763 0.00191895 -0.000208191
0.000136293 -0.000208191 -0.0024916
0.0080966 -0.00203642 -5.37081e-05
-0.00203642 0.000632935 -2.02123e-05
-5.37081e-05 -2.02123e-05 0.00100428
0.000475932 -0.00228105 -0.000297862
-0.00228105 -0.00168306 9.93775e-05
-0.000297862 9.93775e-05 -0.00470948
0.0220546 0.00327772 0.000142414
0.00327772 0.0086854 0.000124346
0.000142414 0.000124346 0.00550031
0.00612991 6.38584e-05 0.00021113
6.38584e-05 -0.00303793 -0.00019058
0.00021113 -0.00019058 -0.00286474
0.00488251 -0.00233035 -3.54012e-05
-0.00233035 0.000450693 1.5189e-05
-3.54012e-05 1.5189e-05 0.000412624
0.00712544 -0.00293409 -8.55096e-05
-0.00293409 0.00277375 2.26841e-05
-8.55096e-05 2.26841e-05 -0.00150178
-0.00342082 0.00304028 -7.99649e-05
0.00304028 0.00257436 -0.000259152
-7.99649e-05 -0.000259152 -0.00141321
0.00858176 0.000264946 -5.08743e-05
0.000264946 -0.0035036 0.000116646
-5.08743e-05 0.000116646 -0.000507872
0.000687272 -0.00135713 -0.000118694
-0.00135713 0.000177039 3.8567e-05
-0.000118694 3.8567e-05 -0.000115858
0.010431 -0.00247139 -0.00022607
-0.00247139 0.00521981 0.000142148
-0.00022607 0.000142148 0.000532384
-0.0028149 -3.66563e-05 3.60419e-05
-3.66563e-05 0.00174209 -0.00032043
3.60419e-05 -0.00032043 -0.00151218
0.00792695 -0.0012511 9.50269e-05
-0.0012511 -0.00199363 4.3971e-05
9.50269e-05 4.3971e-05 -0.00107836
0.000385597 8.79206e-05 2.44057e-06
8.79206e-05 -1.78527e-05 1.21889e-05
2.44057e-06 1.21889e-05 -0.000161951
0.000773225 -1.85502e-05 2.66077e-06
-1.85502e-05 0.000267081 -2.17161e-06
2.66077e-06 -2.17161e-06 5.65833e-05
0.000755692 -0.000122047 -2.65742e-07
-0.000122047 0.000238573 -8.64907e-06
-2.65742e-07 -8.64907e-06 3.83744e-05
0.000691337 0.000118835 -1.74623e-06
0.000118835 0.000138879 8.18901e-07
-1.74623e-06 8.18901e-07 -7.851e-06
0.000820425 0.000148322 9.69516e-07
0.000148322 0.000275059 -3.40501e-06
9.69516e-07 -3.40501e-06 0.000102648
0.00115586 0.000177007 -3.56877e-06
0.000177007 0.000470264 -2.09577e-06
-3.56877e-06 -2.09577e-06 0.000302707
-0.00130781 -0.000745398 2.25872e-05
-0.000745398 -0.0016852 -2.95904e-06
2.25872e-05 -2.95904e-06 -0.00162882
0.000839401 -0.000331451 3.37007e-05
-0.000331451 0.000144115 -2.78605e-05
3.37007e-05 -2.78605e-05 0.000171272
3.48402e-06 7.94174e-06 -1.6803e-06
7.94174e-06 -0.000202969 -1.02163e-05
-1.6803e-06 -1.02163e-05 -0.000400154
0.00155077 -0.000389241 4.86057e-05
-0.000389241 0.000894228 -2.52493e-05
4.86057e-05 -2.52493e-05 0.000517951
0.00153375 -5.32813e-05 -6.24299e-06
-5.32813e-05 0.000848573 3.28966e-06
-6.24299e-06 3.28966e-06 0.000572674
0.00049825 0.000100009 2.89701e-06
0.000100009 0.00010933 2.23602e-06
2.89701e-06 2.23602e-06 -6.35507e-05
0.000981296 0.000161898 -6.71993e-07
0.000161898 0.000458597 -2.0073e-06
-6.71993e-07 -2.0073e-06 0.000283469
0.000404665 -0.000924457 3.54937e-07
-0.000924457 -0.000346478 -5.05908e-06
3.54937e-07 -5.05908e-06 -0.000550212
7.09793e-05 1.15745e-05 -6.43759e-06
1.15745e-05 0.000359179 4.89418e-06
-6.43759e-06 4.89418e-06 -0.000139092
0.00157309 -0.000292352 1.01062e-05
-0.000292352 0.000748838 -9.22389e-06
1.01062e-05 -9.22389e-06 0.000518812
0.00125985 0.000167481 6.28345e-07
0.000167481 0.000620463 -9.13114e-06
6.28345e-07 -9.13114e-06 0.000458341
-0.003028 -7.45235e-05 -0.000123671
-7.45235e-05 -0.000896759 -1.16692e-05
-0.000123671 -1.16692e-05 -0.00165518
-0.000220842 -0.000132816 -1.70137e-05
-0.000132816 0.000193371 1.0156e-05
-1.70137e-05 1.0156e-05 -0.000141898
0.000338712 0.000143165 5.59478e-07
0.000143165 0.000468529 9.00537e-06
5.59478e-07 9.00537e-06 7.43298e-05
-3.67162e-05 8.69659e-05 -4.42592e-06
8.69659e-05 -0.000597194 8.12493e-07
-4.42592e-06 8.12493e-07 -0.00126029
-0.00130919 8.27238e-05 2.24396e-05
8.27238e-05 0.000773059 -1.55126e-05
2.24396e-05 -1.55126e-05 0.000146811
-6.42438e-05 -0.000132403 0.000277696
-0.000132403 0.000778725 1.35904e-05
0.000277696 1.35904e-05 -0.00263677
-0.000230685 0.000300897 -4.28642e-06
0.000300897 1.41701e-05 1.80092e-05
-4.28642e-06 1.80092e-05 -0.000311932
0.000783485 0.00069132 -9.46663e-06
0.00069132 0.000393433 -2.84809e-06
-9.46663e-06 -2.84809e-06 -0.000133199
-0.00167515 -1.1572e-06 -9.86899e-06
-1.1572e-06 -7.25622e-05 -8.41462e-06
-9.86899e-06 -8.41462e-06 -0.000403385
-0.00405237 0.000663405 4.72334e-05
0.000663405 0.00189462 0.000151944
4.72334e-05 0.000151944 -0.00306646
-0.00434145 0.00124993 -0.000179192
0.00124993 -0.0025028 -0.000409589
-0.000179192 -0.000409589 -0.00616759
0.00322758 7.90541e-05 6.80403e-05
7.90541e-05 -0.000225006 0.000100848
6.80403e-05 0.000100848 -0.000176838
0.00591486 0.00016628 -0.000214829
0.00016628 -0.00277807 0.000194518
-0.000214829 0.000194518 -0.00281909
0.000347803 0.000281117 2.46089e-06
0.000281117 0.000459197 -1.23744e-06
2.46089e-06 -1.23744e-06 8.01837e-05
0.000987437 -5.86448e-06 2.54845e-05
-5.86448e-06 -0.000260607 -2.55868e-05
2.54845e-05 -2.55868e-05 -0.0001985
0.00371543 -0.000546151 -6.64958e-05
-0.000546151 0.00263452 5.91978e-06
-6.64958e-05 5.91978e-06 0.00127625
0.000338645 0.000517234 -9.47637e-05
0.000517234 0.0010267 -6.29473e-06
-9.47637e-05 -6.29473e-06 -0.000112558
0.010984 0.00376422 6.26183e-05
0.00376422 0.00127717 -0.000331424
6.26183e-05 -0.000331424 -0.000182634
-0.000965856 0.00232479 6.35272e-05
0.00232479 0.00273678 0.000262348
6.35272e-05 0.000262348 -0.00103528
0.00576599 0.000383834 4.95012e-05
0.000383834 0.00594451 -2.26523e-05
4.95012e-05 -2.26523e-05 -0.000803838
0.000914333 -5.87251e-06 2.87704e-05
-5.87251e-06 0.00136395 -2.73742e-05
2.87704e-05 -2.73742e-05 0.000526271
0.000162146 -8.37811e-05 -7.16406e-05
-8.37811e-05 0.00137736 3.71684e-06
-7.16406e-05 3.71684e-06 0.00101003
0.00239559 -0.000783689 0.00057432
-0.000783689 0.000850276 -0.000229464
0.00057432 -0.000229464 -0.00357761
0.0138338 0.00526743 -3.23898e-05
0.00526743 0.00947574 1.17843e-05
-3.23898e-05 1.17843e-05 0.00775723
0.00107484 0.00297466 -0.000139694
0.00297466 -0.000791008 0.000642334
-0.000139694 0.000642334 -0.00340672
0.0119272 -0.00266913 0.0002128
-0.00266913 0.00545346 -0.000185983
0.0002128 -0.000185983 0.000472881
0.00340651 -0.000688686 -6.75337e-05
-0.000688686 0.00250783 4.61394e-05
-6.75337e-05 4.61394e-05 0.00178877
0.00145459 0.000282966 6.37293e-06
0.000282966 0.00113053 5.43232e-06
6.37293e-06 5.43232e-06 0.000756706
-0.000149149 -2.62688e-05 -3.59713e-06
-2.62688e-05 0.000226993 -2.74665e-06
-3.59713e-06 -2.74665e-06 -8.27864e-05
0.00203194 -0.000439582 3.03484e-05
-0.000439582 0.00122301 -1.24003e-05
3.03484e-05 -1.24003e-05 0.000823987
0.000748698 -8.47934e-05 4.3188e-07
-8.47934e-05 0.000437386 3.75306e-06
4.3188e-07 3.75306e-06 0.00024273
0.000141885 -2.52531e-05 -1.92019e-06
-2.52531e-05 0.000305414 -1.14603e-06
-1.92019e-06 -1.14603e-06 -3.84339e-05
0.000194659 -0.000212457 -3.28154e-06
-0.000212457 0.000282894 2.42337e-07
-3.28154e-06 2.42337e-07 -2.04875e-05
0.000523786 -0.000419799 2.32102e-05
-0.000419799 0.000129723 -2.27573e-05
2.32102e-05 -2.27573e-05 -6.84996e-05
0.00249472 -0.000329941 -2.37364e-06
-0.000329941 0.00127382 2.77856e-06
-2.37364e-06 2.77856e-06 0.0010787
0.0023198 -0.000616112 1.30225e-05
-0.000616112 0.00107982 -3.61959e-06
1.30225e-05 -3.61959e-06 0.000731693
0.00165491 -0.000553763 1.09286e-05
-0.000553763 0.000670788 -2.72032e-06
1.09286e-05 -2.72032e-06 0.000151364
0.000331282 -0.000287044 -3.71128e-06
-0.000287044 -0.000173912 -2.10595e-06
-3.71128e-06 -2.10595e-06 -0.000372161
0.0015022 -0.000490668 -2.16944e-06
-0.000490668 0.000395091 5.86967e-07
-2.16944e-06 5.86967e-07 1.01496e-05
0.00215574 -0.000667846 -2.35689e-07
-0.000667846 0.000706968 6.05552e-07
-2.35689e-07 6.05552e-07 0.00022286
0.00178909 -0.000681539 -5.74022e-06
-0.000681539 0.000371262 1.70885e-06
-5.74022e-06 1.70885e-06 -5.28052e-05
0.00162052 -0.000551827 -1.22426e-06
-0.000551827 0.000397518 -2.17678e-07
-1.22426e-06 -2.17678e-07 2.92313e-05
0.0015181 -0.000530721 -4.54639e-06
-0.000530721 0.000329439 1.45137e-06
-4.54639e-06 1.45137e-06 -5.10609e-05
0.00110362 -0.000391221 -3.50055e-06
-0.000391221 0.000204959 -2.49239e-06
-3.50055e-06 -2.49239e-06 -0.000114665
0.00193242 -0.000445739 4.70254e-06
-0.000445739 0.000689193 1.73966e-06
4.70254e-06 1.73966e-06 0.000395977
0.00147642 -0.000434228 4.75438e-06
-0.000434228 0.000346308 -3.09498e-06
4.75438e-06 -3.09498e-06 3.48167e-05
0.000358866 -0.000168297 1.81323e-06
-0.000168297 -0.000124759 6.61833e-07
1.81323e-06 6.61833e-07 -0.000355506
0.000910464 -0.00031187 2.97547e-06
-0.00031187 0.000117135 -5.99731e-07
2.97547e-06 -5.99731e-07 -0.000142911
0.00023249 -0.00027595 -7.17557e-07
-0.00027595 -0.000381017 -7.79053e-06
-7.17557e-07 -7.79053e-06 -0.00065398
-0.000166586 -1.88349e-05 1.66174e-07
-1.88349e-05 -0.000361148 1.39924e-06
1.66174e-07 1.39924e-06 -0.000560257
0.00105542 -0.000185019 -4.58251e-07
-0.000185019 0.000409157 -1.95805e-07
-4.58251e-07 -1.95805e-07 0.000162505
0.00112317 -0.000333274 -5.55626e-08
-0.000333274 0.000402305 -2.15913e-06
-5.55626e-08 -2.15913e-06 0.000132868
0.000682474 -1.86496e-05 -1.20775e-06
-1.86496e-05 0.000113354 4.702e-06
-1.20775e-06 4.702e-06 1.02953e-05
0.000802677 -0.000102789 -4.32178e-07
-0.000102789 0.000192529 -2.99052e-07
-4.32178e-07 -2.99052e-07 4.80821e-05
0.000183214 -9.16039e-05 9.03724e-07
-9.16039e-05 -0.000119388 1.26502e-06
9.03724e-07 1.26502e-06 -0.000313989
0.000757949 -0.000100391 1.24874e-06
-0.000100391 0.000185952 -6.52656e-07
1.24874e-06 -6.52656e-07 4.66015e-05
0.000617537 -3.72402e-05 4.60146e-09
-3.72402e-05 7.34723e-05 -2.13646e-07
4.60146e-09 -2.13646e-07 -1.8757e-05
0.000442788 3.26795e-05 6.78182e-07
3.26795e-05 -4.703e-05 7.26405e-06
6.78182e-07 7.26405e-06 -8.31944e-05
0.000640911 -4.31483e-05 1.38789e-06
-4.31483e-05 8.92287e-05 -3.57186e-06
1.38789e-06 -3.57186e-06 6.69053e-06
0.000500709 2.38878e-05 -1.69615e-06
2.38878e-05 -1.99047e-05 -2.00201e-07
-1.69615e-06 -2.00201e-07 -5.00375e-05
0.00263794 9.56999e-05 -3.29717e-05
9.56999e-05 0.00130996 4.39898e-06
-3.29717e-05 4.39898e-06 0.00131509
0.00051962 8.10385e-06 2.12137e-06
8.10385e-06 -1.49575e-05 -5.50872e-06
2.12137e-06 -5.50872e-06 -4.10796e-05
0.00169932 6.29743e-05 1.65151e-05
6.29743e-05 0.000719539 -8.30119e-07
1.65151e-05 -8.30119e-07 0.000723104
0.00261047 6.3323e-05 2.37558e-05
6.3323e-05 0.00128357 -5.08822e-06
2.37558e-05 -5.08822e-06 0.00129335
0.00071164 8.45995e-05 3.11254e-06
8.45995e-05 0.000156261 3.13345e-07
3.11254e-06 3.13345e-07 3.08229e-05
0.000531631 4.13054e-05 1.36481e-06
4.13054e-05 1.44279e-05 -2.54932e-06
1.36481e-06 -2.54932e-06 -5.83908e-05
0.000470192 4.74759e-05 -1.12257e-06
4.74759e-05 1.03527e-05 -1.20143e-06
-1.12257e-06 -1.20143e-06 -0.00011279
0.0005041 -2.3502e-06 9.33793e-07
-2.3502e-06 -3.09844e-05 -4.96173e-06
9.33793e-07 -4.96173e-06 -4.81016e-05
0.000357941 3.29748e-05 -2.04919e-06
3.29748e-05 -9.11247e-05 -1.67292e-06
-2.04919e-06 -1.67292e-06 -0.000158761
0.000687731 6.69881e-05 -9.02644e-07
6.69881e-05 0.000149949 -1.20886e-06
-9.02644e-07 -1.20886e-06 3.24559e-05
0.00216557 -3.56822e-05 -1.88623e-05
-3.56822e-05 0.00100231 -4.71657e-06
-1.88623e-05 -4.71657e-06 0.00101867
0.000494178 -5.53675e-06 -1.07741e-07
-5.53675e-06 -3.77186e-05 -1.09869e-07
-1.07741e-07 -1.09869e-07 -5.04421e-05
0.000157355 1.15977e-05 -1.73233e-06
1.15977e-05 -0.00021441 3.73352e-07
-1.73233e-06 3.73352e-07 -0.000276101
0.00210836 -2.00093e-05 -5.02223e-06
-2.00093e-05 0.000966474 1.16037e-07
-5.02223e-06 1.16037e-07 0.000984166
0.000489668 -3.60733e-06 -2.01008e-06
-3.60733e-06 -4.04042e-05 3.46025e-06
-2.01008e-06 3.46025e-06 -5.02147e-05
0.00206001 -4.61792e-06 9.86544e-06
-4.61792e-06 0.000936806 4.75306e-06
9.86544e-06 4.75306e-06 0.000955043
0.00119337 -0.00015533 -3.63864e-05
-0.00015533 -0.00021649 2.89301e-05
-3.63864e-05 2.89301e-05 -0.000222571
-0.000157186 -0.000183244 4.36863e-05
-0.000183244 0.00119736 -2.70809e-06
4.36863e-05 -2.70809e-06 0.000831572
-0.000387175 -0.000328983 0.000145096
-0.000328983 0.000424671 -9.98286e-05
0.000145096 -9.98286e-05 -0.00298607
0.000272212 4.54187e-05 3.18711e-06
4.54187e-05 -0.000141156 2.43372e-06
3.18711e-06 2.43372e-06 -0.000268968
0.00176422 9.99586e-05 8.44485e-07
9.99586e-05 0.000761545 2.28994e-06
8.44485e-07 2.28994e-06 0.000611288
0.000725638 0.000130668 -1.71798e-06
0.000130668 0.000160453 -2.60072e-06
-1.71798e-06 -2.60072e-06 2.70683e-05
0.000478441 7.16831e-05 6.65965e-07
7.16831e-05 -2.09449e-05 7.70683e-07
6.65965e-07 7.70683e-07 -0.000140087
0.00052526 9.03067e-05 2.76327e-07
9.03067e-05 2.92803e-05 -3.08034e-07
2.76327e-07 -3.08034e-07 -9.6307e-05
0.000540785 8.18432e-05 4.46807e-06
8.18432e-05 3.0207e-05 2.81382e-06
4.46807e-06 2.81382e-06 -8.73857e-05
0.000567166 0.000163785 7.8672e-06
0.000163785 9.31692e-05 5.61007e-06
7.8672e-06 5.61007e-06 -4.66125e-05
0.0009308 0.000511253 0.000139421
0.000511253 -0.000429196 0.00023515
0.000139421 0.00023515 -0.00167579
0.00396031 -0.000105182 -3.20798e-05
-0.000105182 -0.000205439 5.73896e-05
-3.20798e-05 5.73896e-05 -0.000754789
0.00370491 -0.000512235 0.000125712
-0.000512235 0.00248876 -9.61976e-05
0.000125712 -9.61976e-05 0.00145607
0.00653157 -0.000115743 -5.86593e-06
-0.000115743 -0.00561464 0.000140513
-5.86593e-06 0.000140513 -0.00191073
0.00286179 -0.00197246 -9.51432e-05
-0.00197246 0.000329717 5.86023e-05
-9.51432e-05 5.86023e-05 0.000144682
0.000826865 -0.00300728 -0.000165045
-0.00300728 0.00123971 7.52497e-05
-0.000165045 7.52497e-05 -0.00380923
0.0131647 0.00345526 8.85883e-05
0.00345526 0.00643796 -0.000120782
8.85883e-05 -0.000120782 0.00282799
0.00288438 -0.00179968 -4.4052e-05
-0.00179968 0.000541912 2.03706e-05
-4.4052e-05 2.03706e-05 0.000640962
-0.00123425 -0.000623445 -3.49039e-05
-0.000623445 0.00307923 4.58472e-05
-3.49039e-05 4.58472e-05 -0.00313305
0.00609757 0.000500807 0.000138706
0.000500807 0.00270521 -1.88672e-05
0.000138706 -1.88672e-05 -0.00012139
0.0135129 -0.00204571 -6.21371e-05
-0.00204571 0.00179727 -2.56716e-05
-6.21371e-05 -2.56716e-05 0.00313394
-0.00169025 -0.000302816 -0.000145192
-0.000302816 -0.000506033 0.000113429
-0.000145192 0.000113429 -0.000412666
0.00325815 0.00196129 -0.000150186
0.00196129 0.00440988 -8.28947e-05
-0.000150186 -8.28947e-05 -0.00184265
-0.00367994 -0.00407508 3.40977e-05
-0.00407508 -0.00127355 -0.000219487
3.40977e-05 -0.000219487 -0.00526211
0.0111089 -0.00245817 8.6064e-05
-0.00245817 0.00198248 -0.000509373
8.6064e-05 -0.000509373 0.00138088
0.000974094 2.78846e-05 9.34434e-06
2.78846e-05 0.000425325 3.24942e-06
9.34434e-06 3.24942e-06 0.000258011
0.000681639 0.000148224 -1.04632e-06
0.000148224 0.000174431 -1.45697e-06
-1.04632e-06 -1.45697e-06 2.49602e-05
0.000731487 -1.24734e-05 6.01926e-07
-1.24734e-05 0.000250434 -4.10031e-06
6.01926e-07 -4.10031e-06 2.71193e-05
0.000929118 0.00012519 -2.81869e-06
0.00012519 0.00030819 -6.63651e-06
-2.81869e-06 -6.63651e-06 0.000143963
-0.000311665 -0.000701355 -2.03334e-06
-0.000701355 -0.000666423 4.35564e-05
-2.03334e-06 4.35564e-05 -0.000860485
0.00404188 -0.00032667 -3.65046e-06
-0.00032667 0.00224004 -2.75904e-05
-3.65046e-06 -2.75904e-05 0.00193779
0.000647369 7.60931e-05 -4.22532e-06
7.60931e-05 0.0001801 -8.75076e-06
-4.22532e-06 -8.75076e-06 2.75914e-05
0.000521739 0.000196019 -1.92381e-06
0.000196019 0.000187238 -2.61283e-06
-1.92381e-06 -2.61283e-06 1.09136e-05
0.000959901 0.000102662 -1.25409e-05
0.000102662 0.000814578 7.70624e-06
-1.25409e-05 7.70624e-06 0.000421775
0.000507584 5.9349e-05 3.7714e-06
5.9349e-05 0.000123468 3.553e-06
3.7714e-06 3.553e-06 -7.17396e-06
0.000159711 0.000160841 -2.00204e-07
0.000160841 0.000371213 9.94194e-07
-2.00204e-07 9.94194e-07 -3.77319e-05
0.00153389 -0.000344487 1.50272e-06
-0.000344487 0.00134024 3.89174e-06
1.50272e-06 3.89174e-06 0.000380825
1.58543e-05 -0.000125233 2.2156e-05
-0.000125233 0.000490239 1.65716e-06
2.2156e-05 1.65716e-06 0.000128762
-0.000345224 0.000111648 2.44143e-06
0.000111648 -0.000121173 -5.78106e-06
2.44143e-06 -5.78106e-06 -0.000353757
0.00204198 -0.000115428 -2.70323e-05
-0.000115428 0.00294946 -3.95204e-05
-2.70323e-05 -3.95204e-05 0.00142316
0.00128995 0.000305028 -9.00575e-06
0.000305028 0.00114352 1.91126e-05
-9.00575e-06 1.91126e-05 0.000664299
-0.00111293 5.4292e-05 -5.08948e-05
5.4292e-05 0.00110477 6.25272e-06
-5.08948e-05 6.25272e-06 0.000337725
0.00089302 1.35281e-05 6.27804e-06
1.35281e-05 -0.000213578 2.09166e-06
6.27804e-06 2.09166e-06 -0.00035299
-0.00174796 9.80058e-05 -1.84646e-06
9.80058e-05 0.000459513 -4.1497e-05
-1.84646e-06 -4.1497e-05 -4.73616e-05
0.000202916 0.0001912 -1.15832e-05
0.0001912 0.000473582 9.70698e-06
-1.15832e-05 9.70698e-06 0.000172837
-0.00126287 0.000642986 0.000105416
0.000642986 -0.000460149 9.24955e-05
0.000105416 9.24955e-05 -0.00104741
0.000747711 3.07625e-06 4.05937e-05
3.07625e-06 -0.000344816 -4.94767e-06
4.05937e-05 -4.94767e-06 -0.000133678
0.00429572 -0.00173527 0.000161578
-0.00173527 0.00476143 -0.000169671
0.000161578 -0.000169671 -0.00261163
0.0147075 0.00307237 -0.00013689
0.00307237 0.00660912 0.000116777
-0.00013689 0.000116777 0.00329526
0.00343224 -0.000409935 -0.000121579
-0.000409935 0.00222876 0.000105241
-0.000121579 0.000105241 0.00131409
0.0109541 0.00367146 -2.14063e-05
0.00367146 0.00318366 -0.000160298
-2.14063e-05 -0.000160298 0.00108888
0.000409052 0.000147438 -4.99896e-05
0.000147438 0.00097375 1.083e-05
-4.99896e-05 1.083e-05 0.000148313
0.000230844 -0.000111763 -5.13458e-05
-0.000111763 0.00115076 1.41293e-06
-5.13458e-05 1.41293e-06 0.000960098
0.00346361 -0.00105067 0.000225451
-0.00105067 0.00144713 -2.36187e-05
0.000225451 -2.36187e-05 -0.0028214
-0.00170144 -0.000157626 3.28659e-05
-0.000157626 -0.000438857 2.96625e-05
3.28659e-05 2.96625e-05 -0.000778435
0.00718484 0.00579968 0.000420306
0.00579968 0.00572862 -0.000206362
0.000420306 -0.000206362 0.00440731
0.00688852 0.00239014 -0.000151066
0.00239014 0.00148659 0.000283925
-0.000151066 0.000283925 -0.00125353
-0.00259772 -0.00107179 0.000127564
-0.00107179 0.00225292 -0.00011826
0.000127564 -0.00011826 -0.00434804
-0.000163939 -0.000355889 1.61968e-05
-0.000355889 0.000552089 -2.1773e-05
1.61968e-05 -2.1773e-05 -0.000262398
0.000146963 -0.000516832 0.000210534
-0.000516832 -0.000283444 -4.84509e-05
0.000210534 -4.84509e-05 -0.00282597
-0.00195971 7.41551e-05 -0.000755795
7.41551e-05 0.00505765 0.000209793
-0.000755795 0.000209793 0.00198107
0.0115582 0.00541101 -0.000485821
0.00541101 0.00307613 0.00050656
-0.000485821 0.00050656 0.00104773
0.00904079 -0.00255412 -8.82073e-05
-0.00255412 0.00363627 3.55078e-05
-8.82073e-05 3.55078e-05 1.07148e-05
0.00288366 -0.00111797 -2.4666e-05
-0.00111797 0.00196141 1.89861e-05
-2.4666e-05 1.89861e-05 0.0013774
0.000626296 -6.00903e-05 7.10808e-06
-6.00903e-05 0.000606167 1.00434e-05
7.10808e-06 1.00434e-05 0.000307607
0.000309533 -0.000287137 6.88915e-07
-0.000287137 0.00037415 -3.15499e-07
6.88915e-07 -3.15499e-07 -3.58209e-05
0.00102428 -0.000581238 6.97527e-06
-0.000581238 0.000504256 -1.34311e-06
6.97527e-06 -1.34311e-06 0.000329625
-0.000417161 -0.00018912 2.0993e-06
-0.00018912 2.46956e-05 7.04727e-06
2.0993e-06 7.04727e-06 -0.000286166
-0.00079435 -0.000290088 1.6611e-06
-0.000290088 -0.000478414 -1.09822e-06
1.6611e-06 -1.09822e-06 -0.000685931
0.00270755 -0.000708769 4.23778e-05
-0.000708769 0.00108704 -4.01345e-06
4.23778e-05 -4.01345e-06 0.00079306
0.00601392 -0.00102546 -1.44803e-05
-0.00102546 0.00308397 5.2717e-06
-1.44803e-05 5.2717e-06 0.00268173
0.0026805 -0.000682665 7.01575e-06
-0.000682665 0.00114953 -1.5673e-07
7.01575e-06 -1.5673e-07 0.000635816
0.00163275 -0.000661245 1.10838e-05
-0.000661245 0.000409545 -9.23951e-06
1.10838e-05 -9.23951e-06 -0.000128322
0.00148217 -0.000484497 -8.05338e-06
-0.000484497 0.000347687 -2.92337e-06
-8.05338e-06 -2.92337e-06 -3.29066e-05
0.00232652 -0.000697191 2.88339e-06
-0.000697191 0.000777224 -7.0958e-07
2.88339e-06 -7.0958e-07 0.000285016
0.00233082 -0.000743238 2.53372e-06
-0.000743238 0.000712669 -9.53427e-06
2.53372e-06 -9.53427e-06 0.000221916
0.00207769 -0.000643268 -2.76382e-06
-0.000643268 0.000400119 -4.82268e-06
-2.76382e-06 -4.82268e-06 4.85995e-05
0.0021678 -0.000723667 -3.17998e-06
-0.000723667 0.000564257 1.52419e-06
-3.17998e-06 1.52419e-06 0.000159678
0.00202866 -0.000709178 -2.23922e-06
-0.000709178 0.000502486 1.37214e-08
-2.23922e-06 1.37214e-08 6.95582e-05
0.00190417 -0.000548575 7.15168e-06
-0.000548575 0.000610951 1.51346e-06
7.15168e-06 1.51346e-06 0.000267854
0.00133587 -0.000513172 1.52658e-06
-0.000513172 0.000233062 -1.32555e-07
1.52658e-06 -1.32555e-07 -0.000120836
0.00125076 -0.000502905 1.18247e-07
-0.000502905 0.000168376 2.14886e-07
1.18247e-07 2.14886e-07 -0.000207807
0.00159178 -0.000369973 3.20739e-06
-0.000369973 0.000519293 1.15874e-06
3.20739e-06 1.15874e-06 0.000255091
0.00144397 -0.0003934 -7.53234e-07
-0.0003934 0.000388291 -1.41147e-06
-7.53234e-07 -1.41147e-06 0.000103446
0.00137924 -0.000427236 9.75796e-06
-0.000427236 0.000292354 -3.80238e-06
9.75796e-06 -3.80238e-06 -1.92653e-05
0.00070228 -0.000167715 3.02116e-06
-0.000167715 0.000186055 -5.19806e-07
3.02116e-06 -5.19806e-07 -8.37924e-05
0.000681692 -0.000203173 -1.79406e-06
-0.000203173 8.81102e-05 1.17409e-06
-1.79406e-06 1.17409e-06 -0.00015115
0.00108955 -0.000337554 6.87586e-06
-0.000337554 0.000240119 -6.86187e-06
6.87586e-06 -6.86187e-06 -2.41607e-05
0.000267969 -2.60358e-05 1.71395e-07
-2.60358e-05 -0.000148978 5.03215e-06
1.71395e-07 5.03215e-06 -0.000266571
0.00070411 -6.96357e-05 -8.85532e-07
-6.96357e-05 0.000174687 2.7386e-07
-8.85532e-07 2.7386e-07 -3.38511e-05
0.00135448 -0.000252097 1.12702e-06
-0.000252097 0.00060284 3.28475e-07
1.12702e-06 3.28475e-07 0.000345346
0.000438342 1.54525e-05 -3.94603e-06
1.54525e-05 -5.14592e-05 1.06271e-05
-3.94603e-06 1.06271e-05 -9.06882e-05
0.000641273 -2.99147e-05 -2.86133e-07
-2.99147e-05 8.21896e-05 -6.11993e-08
-2.86133e-07 -6.11993e-08 -1.92032e-05
0.00121803 -0.000149186 4.28802e-08
-0.000149186 0.000454699 -7.45242e-07
4.28802e-08 -7.45242e-07 0.000297289
0.000659908 -3.96807e-05 1.27164e-06
-3.96807e-05 9.82435e-05 -3.8249e-06
1.27164e-06 -3.8249e-06 5.9486e-06
0.000486304 2.58352e-05 4.48761e-09
2.58352e-05 -2.26142e-05 -1.70714e-07
4.48761e-09 -1.70714e-07 -5.78737e-05
0.00276302 0.000118347 -3.4353e-05
0.000118347 0.00139638 4.18206e-06
-3.4353e-05 4.18206e-06 0.00139627
0.000549132 2.13144e-05 1.05953e-06
2.13144e-05 7.74286e-06 -6.32162e-06
1.05953e-06 -6.32162e-06 -2.19165e-05
0.00265478 9.90275e-05 4.01878e-06
9.90275e-05 0.00132117 4.36798e-07
4.01878e-06 4.36798e-07 0.00132559
0.00258359 8.07427e-05 2.72549e-05
8.07427e-05 0.00127077 -4.62542e-06
2.72549e-05 -4.62542e-06 0.00127861
0.000733952 8.34093e-05 2.2766e-06
8.34093e-05 0.000213967 -2.90803e-06
2.2766e-06 -2.90803e-06 4.34946e-05
0.000782677 0.000107993 5.14577e-06
0.000107993 0.000214419 -1.79012e-07
5.14577e-06 -1.79012e-07 6.48331e-05
0.000581832 3.32333e-05 2.38021e-06
3.32333e-05 4.34612e-05 -3.26435e-06
2.38021e-06 -3.26435e-06 -3.72683e-05
0.000635017 9.712e-05 2.1499e-07
9.712e-05 0.000105943 -2.26611e-07
2.1499e-07 -2.26611e-07 -1.76949e-05
0.000488792 -6.17603e-06 4.34502e-07
-6.17603e-06 -3.79581e-05 -5.9563e-06
4.34502e-07 -5.9563e-06 -5.98245e-05
0.000552987 4.45812e-05 2.26306e-07
4.45812e-05 2.78114e-05 -1.45268e-07
2.26306e-07 -1.45268e-07 -4.50447e-05
0.000588859 5.18667e-05 -3.48189e-06
5.18667e-05 7.05148e-05 -8.20974e-07
-3.48189e-06 -8.20974e-07 -4.39532e-05
0.002311 -5.15396e-05 -2.46524e-05
-5.15396e-05 0.00109447 -4.80761e-06
-2.46524e-05 -4.80761e-06 0.00110846
0.000495491 -7.7943e-06 -6.78906e-07
-7.7943e-06 -3.58237e-05 -1.07865e-07
-6.78906e-07 -1.07865e-07 -5.27224e-05
0.000497243 5.07397e-05 -2.93542e-06
5.07397e-05 -3.77913e-06 8.27343e-07
-2.93542e-06 8.27343e-07 -7.07609e-05
0.00218139 -3.49836e-05 -4.59933e-06
-3.49836e-05 0.00101212 2.14832e-07
-4.59933e-06 2.14832e-07 0.00102853
0.00049361 -5.73579e-06 -2.12209e-06
-5.73579e-06 -3.81722e-05 3.79922e-06
-2.12209e-06 3.79922e-06 -5.06596e-05
0.00209446 -1.91293e-05 1.40557e-05
-1.91293e-05 0.000957606 4.6536e-06
1.40557e-05 4.6536e-06 0.000975411
-0.00162306 5.1847e-05 -1.27233e-05
5.1847e-05 -6.27447e-05 -1.16134e-05
-1.27233e-05 -1.16134e-05 -5.55852e-05
0.0012021 -0.000159272 -1.64513e-05
-0.000159272 -0.000188413 2.25203e-05
-1.64513e-05 2.25203e-05 -5.85635e-05
0.000175269 -0.000174728 7.2315e-06
-0.000174728 0.00114874 -2.87072e-05
7.2315e-06 -2.87072e-05 0.000820355
0.000798783 9.00125e-05 -3.77377e-07
9.00125e-05 0.000216938 6.53585e-07
-3.77377e-07 6.53585e-07 6.47535e-05
0.00050735 8.46573e-05 3.65343e-06
8.46573e-05 -8.23143e-06 -1.11643e-06
3.65343e-06 -1.11643e-06 -0.000148132
-0.00151488 -9.05597e-06 -3.73818e-06
-9.05597e-06 -0.00122264 -8.39311e-06
-3.73818e-06 -8.39311e-06 -0.00133944
6.25478e-05 3.67275e-05 2.57282e-06
3.67275e-05 -0.000251791 9.34532e-06
2.57282e-06 9.34532e-06 -0.000382991
0.00272259 0.000352246 -1.9869e-06
0.000352246 0.00139992 -1.1654e-06
-1.9869e-06 -1.1654e-06 0.00117836
0.000703723 4.40005e-05 -4.87137e-06
4.40005e-05 0.000108207 -3.40827e-06
-4.87137e-06 -3.40827e-06 -8.30091e-06
0.000538336 8.45325e-05 -4.63919e-06
8.45325e-05 3.11191e-05 -7.00151e-06
-4.63919e-06 -7.00151e-06 -8.58042e-05
0.000704532 6.94045e-05 1.76778e-07
6.94045e-05 0.000132375 -3.66086e-07
1.76778e-07 -3.66086e-07 1.28318e-05
0.000956812 0.000142262 -2.1827e-07
0.000142262 0.00031136 -1.19727e-06
-2.1827e-07 -1.19727e-06 0.000183765
0.000732703 0.000105613 6.09375e-06
0.000105613 0.000272945 -9.68607e-06
6.09375e-06 -9.68607e-06 8.83123e-05
0.00461765 0.000659244 0.000310715
0.000659244 0.00324393 0.000406178
0.000310715 0.000406178 -0.0011078
0.00157058 0.000451837 1.62855e-05
0.000451837 -6.5368e-05 8.44744e-05
1.62855e-05 8.44744e-05 -0.00154752
0.00345834 -8.96105e-05 1.10339e-05
-8.96105e-05 -9.39398e-05 -1.47112e-05
1.10339e-05 -1.47112e-05 -0.000336486
0.0132968 -0.0017365 -0.00020668
-0.0017365 0.00184729 -0.00013981
-0.00020668 -0.00013981 0.00353123
-0.00480577 0.00158556 5.22056e-05
0.00158556 -0.0023006 0.000394875
5.22056e-05 0.000394875 -0.00613988
0.00357649 -0.00188432 -7.71244e-05
-0.00188432 0.00122542 7.12793e-06
-7.71244e-05 7.12793e-06 0.00128852
0.00992888 -0.00175953 -0.000120278
-0.00175953 0.00531678 1.33231e-05
-0.000120278 1.33231e-05 0.000776127
0.000781806 -0.000468793 -2.8105e-05
-0.000468793 0.00045724 8.34285e-05
-2.8105e-05 8.34285e-05 0.000240063
0.0096978 -0.000200508 -0.000104846
-0.000200508 0.00600636 -5.07816e-06
-0.000104846 -5.07816e-06 0.000129286
0.00423134 -0.00226712 9.14989e-05
-0.00226712 0.00255861 0.000152188
9.14989e-05 0.000152188 -0.00122568
0.0123664 -0.00329476 -0.000184566
-0.00329476 0.00115161 -0.000601491
-0.000184566 -0.000601491 0.000382918
0.00384335 3.53741e-05 -8.81962e-05
3.53741e-05 0.00280355 8.55569e-05
-8.81962e-05 8.55569e-05 0.00202063
0.0123668 0.00217669 -0.000135044
0.00217669 0.00624284 2.87793e-05
-0.000135044 2.87793e-05 0.00170056
0.0168055 -0.00486816 -0.000204421
-0.00486816 0.00759633 -0.00056532
-0.000204421 -0.00056532 0.00484407
0.0173761 -0.00615392 7.28331e-05
-0.00615392 0.00593992 -5.3098e-05
7.28331e-05 -5.3098e-05 0.00506509
0.000596547 0.000183547 1.17178e-05
0.000183547 0.000270926 1.12698e-06
1.17178e-05 1.12698e-06 5.56482e-05
0.000354128 4.38453e-05 2.19646e-06
4.38453e-05 0.000100184 2.48408e-06
2.19646e-06 2.48408e-06 -9.86056e-05
0.000941861 0.000168573 -6.33404e-06
0.000168573 0.000345865 -9.94958e-06
-6.33404e-06 -9.94958e-06 0.000185472
0.00393788 -0.000426153 -5.20682e-05
-0.000426153 0.00207916 3.78803e-05
-5.20682e-05 3.78803e-05 0.000997668
0.000206308 -8.31703e-05 -6.99495e-06
-8.31703e-05 0.000703503 -4.12112e-05
-6.99495e-06 -4.12112e-05 0.000310838
0.000237736 -5.63271e-06 -7.50831e-06
-5.63271e-06 -4.69572e-05 5.69402e-07
-7.50831e-06 5.69402e-07 -0.000170019
-5.30108e-05 5.9977e-05 1.96111e-06
5.9977e-05 0.000247217 -4.93614e-06
1.96111e-06 -4.93614e-06 -0.000157686
0.00027469 0.000107357 2.05871e-06
0.000107357 0.000222298 -1.04563e-06
2.05871e-06 -1.04563e-06 -2.20842e-05
0.000495132 0.00028049 8.86693e-06
0.00028049 0.000628776 2.34178e-07
8.86693e-06 2.34178e-07 0.000149263
-0.00165121 -0.000107453 0.000227221
-0.000107453 0.000715942 -1.37395e-05
0.000227221 -1.37395e-05 -0.000932372
-0.0018855 0.000184755 -1.62581e-05
0.000184755 -0.000964605 1.35719e-05
-1.62581e-05 1.35719e-05 -0.00130155
0.00280753 0.000698917 -0.000127964
0.000698917 0.00208672 -7.17578e-05
-0.000127964 -7.17578e-05 0.00089592
0.00152425 0.000183479 0.000143084
0.000183479 0.00159878 4.51029e-05
0.000143084 4.51029e-05 -0.00182066
-0.00145207 9.01166e-05 -2.3077e-05
9.01166e-05 0.00081861 1.75895e-05
-2.3077e-05 1.75895e-05 9.50735e-05
0.00187103 -0.000163231 -1.15935e-05
-0.000163231 0.000229663 3.073e-07
-1.15935e-05 3.073e-07 0.000556625
-0.000784198 0.00041347 0.000113173
0.00041347 0.000215954 1.54382e-05
0.000113173 1.54382e-05 -0.000691787
0.00152841 0.000291251 -6.68793e-05
0.000291251 0.00167853 6.81802e-05
-6.68793e-05 6.81802e-05 0.000509324
0.000117161 -0.000178904 -1.44865e-05
-0.000178904 0.00109341 5.32909e-06
-1.44865e-05 5.32909e-06 0.000770892
0.0161656 -0.00320876 0.000182345
-0.00320876 0.00762406 -8.27137e-05
0.000182345 -8.27137e-05 0.0022971
0.0199925 0.00356767 -5.44794e-05
0.00356767 0.00838493 -0.000114091
-5.44794e-05 -0.000114091 0.00524171
0.00459578 -0.00115598 -0.000172831
-0.00115598 0.00215932 0.00019996
-0.000172831 0.00019996 -0.00209029
-0.000304608 0.00659903 0.00189874
0.00659903 0.00135048 -0.00129528
0.00189874 -0.00129528 0.000133036
0.000933229 -0.000391942 2.39335e-05
-0.000391942 0.00114341 -7.37286e-06
2.39335e-05 -7.37286e-06 0.000245915
-4.20526e-05 -0.00037297 2.8528e-05
-0.00037297 0.000182569 1.50868e-05
2.8528e-05 1.50868e-05 -0.00284384
-0.00183009 0.000402966 -0.000898684
0.000402966 0.00490632 0.000310067
-0.000898684 0.000310067 0.00162103
0.000955177 -0.000654752 -3.62517e-06
-0.000654752 0.000930793 3.23312e-05
-3.62517e-06 3.23312e-05 0.00041832
0.0182064 0.0047677 0.000254826
0.0047677 0.0053264 8.25169e-05
0.000254826 8.25169e-05 0.00345067
0.00761464 -0.00349988 0.000153144
-0.00349988 0.00262364 -6.62429e-05
0.000153144 -6.62429e-05 -0.000954067
0.00211425 -0.0010196 -1.80932e-05
-0.0010196 0.00111923 3.01208e-05
-1.80932e-05 3.01208e-05 0.000571743
-0.00639071 -0.00129791 0.000105477
-0.00129791 0.0041743 -5.69423e-05
0.000105477 -5.69423e-05 0.000703702
0.0143578 0.00439327 -0.001133
0.00439327 0.00569357 0.00046548
-0.001133 0.00046548 0.00381667
0.00474329 -0.00249075 -0.000333249
-0.00249075 -0.000454281 0.000175136
-0.000333249 0.000175136 -0.00397216
0.00207359 -0.0016801 0.000178027
-0.0016801 0.000315624 -9.65915e-05
0.000178027 -9.65915e-05 0.00106835
6.19455e-05 -0.000331465 -6.99254e-05
-0.000331465 0.000205792 2.49769e-05
-6.99254e-05 2.49769e-05 -0.000173634
0.000691603 -0.000513852 -7.65329e-06
-0.000513852 0.00037226 1.21517e-05
-7.65329e-06 1.21517e-05 0.000120823
0.00343612 -0.000783134 2.80394e-05
-0.000783134 0.0015872 -2.50879e-06
2.80394e-05 -2.50879e-06 0.00128418
-0.00230388 -0.000157163 4.17677e-06
-0.000157163 -0.00117761 1.29575e-05
4.17677e-06 1.29575e-05 -0.00139602
0.000861329 -0.000493519 5.4746e-06
-0.000493519 0.000121126 2.02757e-07
5.4746e-06 2.02757e-07 -0.000152748
0.00232023 -0.000765081 9.18492e-06
-0.000765081 0.000599533 -4.82057e-07
9.18492e-06 -4.82057e-07 0.000268779
0.00359031 -0.000795881 -2.65362e-05
-0.000795881 0.00156756 6.9292e-06
-2.65362e-05 6.9292e-06 0.00106363
0.00145672 -0.000624185 -5.62003e-07
-0.000624185 0.00029526 -1.12006e-06
-5.62003e-07 -1.12006e-06 -0.000218461
0.00180783 -0.000764677 4.82059e-06
-0.000764677 0.00026163 -9.30114e-06
4.82059e-06 -9.30114e-06 -0.000155699
0.0027861 -0.000759544 -3.44122e-06
-0.000759544 0.00100569 3.38631e-06
-3.44122e-06 3.38631e-06 0.000503929
0.00198782 -0.000711174 2.38176e-07
-0.000711174 0.000500555 -4.90194e-06
2.38176e-07 -4.90194e-06 2.82055e-05
0.00249034 -0.000691431 1.59772e-06
-0.000691431 0.000577307 -8.73425e-06
1.59772e-06 -8.73425e-06 0.000233926
0.00169397 -0.000467808 -4.4052e-06
-0.000467808 3.02059e-05 -3.23775e-06
-4.4052e-06 -3.23775e-06 -0.00020645
0.00178395 -0.00063498 -2.3771e-07
-0.00063498 0.000187726 -9.118e-07
-2.3771e-07 -9.118e-07 -0.000159244
0.00199809 -0.000634983 2.5949e-06
-0.000634983 0.000350485 -2.98403e-06
2.5949e-06 -2.98403e-06 2.88099e-06
0.0020342 -0.000632187 -3.27555e-07
-0.000632187 0.000553679 -2.04344e-07
-3.27555e-07 -2.04344e-07 0.000189587
0.0021353 -0.000719201 -2.37537e-06
-0.000719201 0.000557463 8.86166e-08
-2.37537e-06 8.86166e-08 0.00014874
0.00227338 -0.000738937 2.11125e-06
-0.000738937 0.000635206 -3.11289e-06
2.11125e-06 -3.11289e-06 0.000193261
0.00182743 -0.000457801 3.54808e-06
-0.000457801 0.000610784 3.03729e-06
3.54808e-06 3.03729e-06 0.000307186
0.00130862 -0.00047904 1.81393e-06
-0.00047904 0.000264885 7.59715e-07
1.81393e-06 7.59715e-07 -6.06535e-05
0.00107827 -0.000479163 3.43659e-06
-0.000479163 8.26862e-05 5.0676e-07
3.43659e-06 5.0676e-07 -0.000257413
0.00118504 -0.000310943 -1.1586e-06
-0.000310943 0.000355866 8.35275e-07
-1.1586e-06 8.35275e-07 0.000102734
0.00108132 -0.000310952 -1.48657e-07
-0.000310952 0.000212876 -8.8821e-07
-1.48657e-07 -8.8821e-07 -4.05369e-05
0.00108382 -0.000354173 -4.31942e-06
-0.000354173 0.000166495 -3.49318e-06
-4.31942e-06 -3.49318e-06 -0.000113018
-0.000169865 -5.00522e-05 -1.32159e-06
-5.00522e-05 -0.00040345 5.59626e-06
-1.32159e-06 5.59626e-06 -0.000574682
0.000772374 -0.00018343 1.98882e-06
-0.00018343 0.000225915 1.66556e-08
1.98882e-06 1.66556e-08 -4.21954e-05
0.00132568 -0.000259378 -2.08165e-06
-0.000259378 0.000499034 1.91504e-06
-2.08165e-06 1.91504e-06 0.000244639
0.00171002 5.29435e-05 -3.36915e-05
5.29435e-05 0.000745156 6.88839e-06
-3.36915e-05 6.88839e-06 0.00070185
0.000712963 -6.78921e-05 2.81936e-07
-6.78921e-05 0.000118064 -7.25434e-07
2.81936e-07 -7.25434e-07 -3.69878e-06
0.00151072 -0.000120701 -2.59122e-06
-0.000120701 0.000673235 -1.6553e-06
-2.59122e-06 -1.6553e-06 0.000454251
0.000752356 4.37145e-05 -4.24288e-05
4.37145e-05 0.000147945 4.84446e-06
-4.24288e-05 4.84446e-06 0.000140513
0.0010702 3.36272e-05 -1.3744e-05
3.36272e-05 0.000343111 -5.06478e-07
-1.3744e-05 -5.06478e-07 0.000304706
0.00065781 -3.95257e-05 1.87803e-06
-3.95257e-05 8.71028e-05 -4.70921e-06
1.87803e-06 -4.70921e-06 -1.31995e-05
0.00055049 2.3027e-05 1.89628e-06
2.3027e-05 1.58561e-05 -7.51152e-06
1.89628e-06 -7.51152e-06 -1.93916e-05
0.00280455 0.000119434 6.87651e-06
0.000119434 0.00142265 6.26221e-07
6.87651e-06 6.26221e-07 0.00142239
0.00264551 0.000100151 3.02994e-05
0.000100151 0.00131606 -4.45917e-06
3.02994e-05 -4.45917e-06 0.00132024
0.00107976 0.0001266 6.90257e-06
0.0001266 0.000409023 1.55269e-06
6.90257e-06 1.55269e-06 0.000237156
0.00119439 0.000139149 3.23778e-06
0.000139149 0.000490272 -1.986e-06
3.23778e-06 -1.986e-06 0.000315836
0.000272558 6.78819e-05 -4.81056e-07
6.78819e-05 -9.50083e-05 1.13644e-06
-4.81056e-07 1.13644e-06 -0.000246071
0.000620522 2.62365e-05 2.68199e-06
2.62365e-05 6.76912e-05 -4.47237e-06
2.68199e-06 -4.47237e-06 -2.35674e-05
0.000804992 9.84955e-05 6.34866e-07
9.84955e-05 0.000220908 3.92856e-08
6.34866e-07 3.92856e-08 8.00465e-05
0.00047975 9.21282e-07 -1.1852e-06
9.21282e-07 -3.85403e-05 -7.05227e-06
-1.1852e-06 -7.05227e-06 -6.51559e-05
0.000559307 3.60001e-05 -1.06383e-07
3.60001e-05 3.17181e-05 -3.43908e-07
-1.06383e-07 -3.43908e-07 -4.97768e-05
0.000709745 6.61851e-05 -2.71008e-06
6.61851e-05 0.000173076 3.74199e-07
-2.71008e-06 3.74199e-07 3.38736e-05
0.00250423 -6.89198e-05 -3.22693e-05
-6.89198e-05 0.00121828 -4.7031e-06
-3.22693e-05 -4.7031e-06 0.00122923
0.000473831 -4.14179e-06 -7.61193e-07
-4.14179e-06 -4.67582e-05 -1.07416e-07
-7.61193e-07 -1.07416e-07 -6.83978e-05
0.00056615 4.89244e-05 -6.01004e-07
4.89244e-05 3.67919e-05 2.88294e-06
-6.01004e-07 2.88294e-06 -3.63451e-05
0.00231557 -5.13432e-05 -5.49709e-06
-5.13432e-05 0.00109724 3.26951e-07
-5.49709e-06 3.26951e-07 0.0011113
0.000473108 -1.22035e-05 -3.11318e-06
-1.22035e-05 -4.92551e-05 4.73586e-06
-3.11318e-06 4.73586e-06 -6.60038e-05
0.00218616 -3.362e-05 1.94965e-05
-3.362e-05 0.00101503 4.58056e-06
1.94965e-05 4.58056e-06 0.0010316
0.00617239 0.000423542 0.0002421
0.000423542 0.00316624 4.82599e-05
0.0002421 4.82599e-05 0.0013392
-0.00142834 1.46208e-05 -1.23655e-06
1.46208e-05 -6.4424e-05 -4.70401e-06
-1.23655e-06 -4.70401e-06 -0.000215048
0.000837621 -3.20892e-05 -2.057e-05
-3.20892e-05 -0.000155304 -1.08074e-06
-2.057e-05 -1.08074e-06 1.00303e-05
-0.000334271 8.82682e-05 -7.14311e-06
8.82682e-05 -0.00050411 -1.1189e-06
-7.14311e-06 -1.1189e-06 -0.000638948
0.000619741 8.0717e-05 -5.25436e-06
8.0717e-05 0.00010335 -2.17284e-06
-5.25436e-06 -2.17284e-06 -3.97065e-05
0.000162326 6.35972e-05 -4.99087e-09
6.35972e-05 -0.000222537 -2.18243e-06
-4.99087e-09 -2.18243e-06 -0.000355876
0.00101744 6.45743e-05 7.96036e-07
6.45743e-05 0.000318303 -4.1317e-07
7.96036e-07 -4.1317e-07 0.000178932
0.00021793 8.65384e-05 -1.99011e-06
8.65384e-05 -0.000181959 -7.70781e-07
-1.99011e-06 -7.70781e-07 -0.000306404
0.00186871 0.000260125 -1.80688e-07
0.000260125 0.000874746 -2.84829e-06
-1.80688e-07 -2.84829e-06 0.000695361
0.00110344 0.000213446 -5.91137e-06
0.000213446 0.000377737 -1.5663e-05
-5.91137e-06 -1.5663e-05 0.000126211
-0.000571957 5.8015e-05 2.36857e-06
5.8015e-05 -0.000457728 1.22956e-06
2.36857e-06 1.22956e-06 -0.000709231
0.000814962 0.000141782 -4.30436e-06
0.000141782 0.000221449 -4.05194e-06
-4.30436e-06 -4.05194e-06 8.60433e-05
0.000156536 4.5413e-05 -5.45752e-06
4.5413e-05 -0.000211375 -6.13973e-06
-5.45752e-06 -6.13973e-06 -0.000307777
0.000164697 5.09943e-05 1.78521e-07
5.09943e-05 -8.82423e-05 8.65569e-07
1.78521e-07 8.65569e-07 -0.000260129
0.000839605 0.000214559 1.373e-05
0.000214559 0.00045596 -7.40191e-07
1.373e-05 -7.40191e-07 0.000160134
0.00187034 -0.00207058 0.000142158
-0.00207058 0.00456347 0.000251092
0.000142158 0.000251092 0.000223339
0.00531133 0.000895857 8.41555e-05
0.000895857 0.00280525 0.000147328
8.41555e-05 0.000147328 -0.00182439
0.00217971 0.000318525 -2.85271e-05
0.000318525 0.000358612 -7.74952e-05
-2.85271e-05 -7.74952e-05 -0.0013399
0.0190276 -0.00407642 -0.000539838
-0.00407642 0.00456493 -0.000311741
-0.000539838 -0.000311741 0.00368207
0.00624634 -0.00149154 0.000210279
-0.00149154 0.00300794 0.000410529
0.000210279 0.000410529 0.000207939
0.00296749 -0.00126155 -0.000181267
-0.00126155 0.00423335 8.71441e-05
-0.000181267 8.71441e-05 -0.00216102
0.000295721 -0.00055929 8.76698e-05
-0.00055929 0.00109867 2.1097e-05
8.76698e-05 2.1097e-05 0.000228137
0.000597602 -0.000140182 4.42939e-05
-0.000140182 0.000926302 5.66225e-05
4.42939e-05 5.66225e-05 0.000473103
0.00916157 -0.00633984 0.000353003
-0.00633984 0.00367258 0.000338749
0.000353003 0.000338749 0.00265981
0.0027292 0.00136886 -6.885e-05
0.00136886 0.00392321 -6.67818e-05
-6.885e-05 -6.67818e-05 -0.00192066
0.00610364 -0.00295172 -0.000102032
-0.00295172 0.00180283 8.4884e-05
-0.000102032 8.4884e-05 -0.00149296
0.000435749 0.000535337 -2.70684e-05
0.000535337 0.000804087 6.30102e-05
-2.70684e-05 6.30102e-05 0.000593952
0.0111495 0.00286873 -9.76396e-05
0.00286873 0.00414741 8.75011e-06
-9.76396e-05 8.75011e-06 0.000572233
0.0107034 -0.00523711 -0.000655674
-0.00523711 0.00261239 -0.000455761
-0.000655674 -0.000455761 0.000348644
-5.01435e-05 0.000390046 9.81439e-07
0.000390046 -0.000397739 -5.0633e-06
9.81439e-07 -5.0633e-06 -0.000547461
0.000403221 0.000108731 7.19091e-06
0.000108731 0.000130578 2.5815e-06
7.19091e-06 2.5815e-06 -5.12243e-05
2.75153e-05 4.67804e-05 -6.56377e-06
4.67804e-05 -0.000101897 -4.84966e-06
-6.56377e-06 -4.84966e-06 -0.000298212
-0.00328841 -0.00030783 -0.000125923
-0.00030783 -0.00013217 -6.0822e-05
-0.000125923 -6.0822e-05 -0.00173805
-0.000960665 0.000200871 1.19589e-05
0.000200871 -0.000265214 -1.82027e-05
1.19589e-05 -1.82027e-05 -0.000742661
0.000780366 0.000138726 -7.46783e-06
0.000138726 0.00048841 4.96846e-06
-7.46783e-06 4.96846e-06 0.000238893
0.00092597 0.000534719 1.59036e-05
0.000534719 0.000502606 3.79816e-06
1.59036e-05 3.79816e-06 0.0001377
-0.000403411 0.000367013 4.93246e-05
0.000367013 0.000527392 -2.70911e-05
4.93246e-05 -2.70911e-05 -0.000504897
0.000224253 0.000955083 4.40489e-05
0.000955083 -0.000260935 4.9327e-06
4.40489e-05 4.9327e-06 -0.000909997
-0.0047958 0.000885024 0.000276638
0.000885024 0.00480541 1.15856e-05
0.000276638 1.15856e-05 -0.000664116
0.00226298 -5.76191e-05 -6.26484e-06
-5.76191e-05 0.00180545 5.17593e-05
-6.26484e-06 5.17593e-05 -0.000624722
-0.00181859 -4.74511e-05 -7.94706e-06
-4.74511e-05 0.000418243 3.52281e-05
-7.94706e-06 3.52281e-05 -7.53589e-05
-0.000432923 -0.00019392 -5.15811e-05
-0.00019392 0.000551001 1.18334e-05
-5.15811e-05 1.18334e-05 -0.000385779
-0.0012457 -0.000300392 -4.97103e-05
-0.000300392 -0.000636577 3.66901e-05
-4.97103e-05 3.66901e-05 -0.000330099
0.000143194 -0.000295492 -0.000150193
-0.000295492 0.000431805 8.55287e-05
-0.000150193 8.55287e-05 -0.00273647
-0.000317808 -0.00289089 0.00020527
-0.00289089 0.00171104 -8.81001e-05
0.00020527 -8.81001e-05 -0.00338466
0.0042115 0.00411783 0.00050759
0.00411783 -0.00152813 -0.000384895
0.00050759 -0.000384895 -0.00333497
0.00704624 0.00219709 -0.000350278
0.00219709 0.00611208 0.000248038
-0.000350278 0.000248038 0.00312832
0.00133548 -0.000605035 -7.59918e-06
-0.000605035 0.00102841 -3.22793e-06
-7.59918e-06 -3.22793e-06 0.00051949
0.00143466 0.000366504 8.5557e-05
0.000366504 0.00599531 -8.86169e-06
8.5557e-05 -8.86169e-06 0.00294642
-0.000752123 0.00295533 1.39285e-05
0.00295533 0.00019497 5.23189e-05
1.39285e-05 5.23189e-05 -0.00258232
0.00239784 -0.00194452 8.05948e-05
-0.00194452 0.000669295 -3.00497e-05
8.05948e-05 -3.00497e-05 0.000706859
0.0165085 -0.00268014 2.49259e-05
-0.00268014 0.00401735 -1.02547e-05
2.49259e-05 -1.02547e-05 0.00212084
0.00324426 -0.00125594 6.17701e-06
-0.00125594 0.00126903 2.18328e-05
6.17701e-06 2.18328e-05 0.00106833
-0.00902407 0.000912772 -0.000416048
0.000912772 -0.00324998 4.92914e-05
-0.000416048 4.92914e-05 -0.00530178
0.0152526 -0.00171288 -0.000186556
-0.00171288 0.00250714 6.58353e-05
-0.000186556 6.58353e-05 0.00100981
0.00370216 -0.0022254 8.40032e-05
-0.0022254 -0.000168629 -6.20368e-05
8.40032e-05 -6.20368e-05 -2.68481e-05
0.000182152 -0.000401367 -1.26104e-05
-0.000401367 0.000174264 1.65636e-05
-1.26104e-05 1.65636e-05 -0.000149022
0.00081227 -0.000617461 -3.69191e-06
-0.000617461 5.19258e-05 5.0552e-07
-3.69191e-06 5.0552e-07 -0.000113669
0.0054555 -0.000907586 2.53743e-05
-0.000907586 0.00234152 -5.42854e-06
2.53743e-05 -5.42854e-06 0.00200879
-0.000818697 -0.000304659 -9.9484e-06
-0.000304659 -0.000742751 6.96346e-06
-9.9484e-06 6.96346e-06 -0.00100587
0.00141333 -0.0006649 -5.95374e-06
-0.0006649 0.000157429 -3.07713e-06
-5.95374e-06 -3.07713e-06 -0.000189181
0.00255912 -0.000847159 5.7906e-06
-0.000847159 0.000544403 -7.04552e-06
5.7906e-06 -7.04552e-06 0.000201509
0.00131416 -0.000591882 -1.47318e-05
-0.000591882 0.000196802 3.66538e-06
-1.47318e-05 3.66538e-06 -0.000296256
0.00179864 -0.000748456 -1.45112e-06
-0.000748456 0.000268283 -4.50405e-07
-1.45112e-06 -4.50405e-07 -0.000153197
0.00160098 -0.000617441 2.36971e-06
-0.000617441 -6.71047e-05 -4.64542e-06
2.36971e-06 -4.64542e-06 -0.000332028
0.00146096 -0.00066005 -6.69897e-06
-0.00066005 0.000188128 1.65687e-06
-6.69897e-06 1.65687e-06 -0.000265379
0.00183532 -0.000614559 -6.7951e-07
-0.000614559 0.000223695 1.32788e-06
-6.7951e-07 1.32788e-06 -0.000103921
0.00184551 -0.000474309 -9.70457e-07
-0.000474309 5.12414e-05 -4.01257e-06
-9.70457e-07 -4.01257e-06 -0.000144063
0.00178057 -0.000387187 -5.54743e-06
-0.000387187 6.09785e-05 -1.24432e-06
-5.54743e-06 -1.24432e-06 -0.000101418
0.00162492 -0.000473114 -5.37453e-06
-0.000473114 7.6639e-06 -1.84391e-06
-5.37453e-06 -1.84391e-06 -0.000238087
0.00172851 -0.000463334 1.20292e-06
-0.000463334 5.58512e-05 2.62191e-06
1.20292e-06 2.62191e-06 -0.000176224
0.00158839 -0.000548417 -4.15182e-06
-0.000548417 0.000128693 -1.69588e-06
-4.15182e-06 -1.69588e-06 -0.000185788
0.0019471 -0.000641298 2.46171e-06
-0.000641298 0.000298933 -4.79014e-07
2.46171e-06 -4.79014e-07 -4.4498e-05
0.00200056 -0.000634084 2.73491e-06
-0.000634084 0.000347637 1.05615e-06
2.73491e-06 1.05615e-06 2.96959e-06
0.00150711 -0.000510515 -2.27514e-06
-0.000510515 0.000291167 3.76226e-07
-2.27514e-06 3.76226e-07 -4.05979e-05
0.00189732 -0.000622262 8.53165e-07
-0.000622262 0.000470759 -2.82474e-07
8.53165e-07 -2.82474e-07 0.000106418
0.00205846 -0.000708937 -2.2194e-06
-0.000708937 0.000524935 -1.21808e-06
-2.2194e-06 -1.21808e-06 0.00011278
0.00128238 -0.000316047 -4.6807e-06
-0.000316047 0.000297065 9.95336e-07
-4.6807e-06 9.95336e-07 5.75265e-05
0.00136673 -0.00041106 2.13432e-06
-0.00041106 0.000319347 7.41798e-07
2.13432e-06 7.41798e-07 2.62048e-05
0.000627957 -0.000399682 -1.05742e-06
-0.000399682 -0.000133082 -6.95159e-07
-1.05742e-06 -6.95159e-07 -0.000439253
0.000527333 -0.000170341 -3.59782e-06
-0.000170341 -4.38329e-06 3.31246e-06
-3.59782e-06 3.31246e-06 -0.000217955
0.00110849 -0.000312066 -9.72568e-08
-0.000312066 0.000297313 4.63062e-07
-9.72568e-08 4.63062e-07 5.03233e-05
0.000449687 -0.000244486 -5.67869e-06
-0.000244486 -0.000166653 -1.31035e-06
-5.67869e-06 -1.31035e-06 -0.000408102
0.000420512 -1.56474e-05 -6.62246e-06
-1.56474e-05 -5.91986e-05 1.1633e-05
-6.62246e-06 1.1633e-05 -0.000120374
0.000750606 -0.000124417 4.09133e-07
-0.000124417 0.000161877 3.9121e-07
4.09133e-07 3.9121e-07 -2.35788e-05
0.00104074 -0.000205537 1.11445e-06
-0.000205537 0.000382866 -5.67073e-07
1.11445e-06 -5.67073e-07 0.000119263
0.00329056 0.000194578 -4.79603e-07
0.000194578 0.00175178 3.78798e-06
-4.79603e-07 3.78798e-06 0.00172836
0.000417273 3.48192e-06 -7.06853e-08
3.48192e-06 -6.41778e-05 -1.18785e-07
-7.06853e-08 -1.18785e-07 -0.000113687
0.000979418 -9.90571e-05 2.61505e-06
-9.90571e-05 0.000281862 -5.88911e-06
2.61505e-06 -5.88911e-06 0.000152198
0.00304799 0.000137443 6.86325e-06
0.000137443 0.00158109 5.42323e-07
6.86325e-06 5.42323e-07 0.00157669
0.000548937 1.35776e-05 3.00349e-06
1.35776e-05 1.72252e-05 -8.51992e-06
3.00349e-06 -8.51992e-06 -2.41296e-05
0.00287118 0.000119127 4.26813e-05
0.000119127 0.00146404 -3.9722e-06
4.26813e-05 -3.9722e-06 0.00146403
0.00159642 0.000238167 6.75947e-06
0.000238167 0.00068447 3.80585e-06
6.75947e-06 3.80585e-06 0.000492331
0.000816695 0.000128942 6.04067e-07
0.000128942 0.000257326 -1.21477e-06
6.04067e-07 -1.21477e-06 7.92589e-05
0.00113608 0.000123674 1.54179e-06
0.000123674 0.000468202 -4.69962e-06
1.54179e-06 -4.69962e-06 0.000269919
0.000618961 3.64493e-05 2.15981e-06
3.64493e-05 7.51387e-05 -5.81551e-06
2.15981e-06 -5.81551e-06 -3.08088e-05
0.000690021 7.79071e-05 -9.20021e-08
7.79071e-05 0.000162587 9.85333e-07
-9.20021e-08 9.85333e-07 2.41844e-06
0.000431919 9.57066e-05 -8.21582e-07
9.57066e-05 8.3811e-06 3.13388e-06
-8.21582e-07 3.13388e-06 -0.000149444
0.000508105 -5.28949e-06 -1.55711e-06
-5.28949e-06 -1.57017e-05 -8.35734e-06
-1.55711e-06 -8.35734e-06 -4.80235e-05
0.000588754 3.22783e-05 -4.7771e-08
3.22783e-05 5.286e-05 -2.76942e-07
-4.7771e-08 -2.76942e-07 -4.00681e-05
0.000473124 7.94602e-05 -3.45524e-06
7.94602e-05 6.04022e-06 4.88144e-07
-3.45524e-06 4.88144e-07 -0.00012295
0.0026529 -8.52843e-05 -4.079e-05
-8.52843e-05 0.00131587 -4.38367e-06
-4.079e-05 -4.38367e-06 0.00132398
0.000449717 -2.0103e-05 2.02793e-06
-2.0103e-05 -5.61351e-05 -1.21487e-07
2.02793e-06 -1.21487e-07 -8.32086e-05
0.000532624 4.01818e-05 -1.75457e-06
4.01818e-05 1.64937e-05 3.29772e-06
-1.75457e-06 3.29772e-06 -6.54193e-05
0.0024813 -6.86804e-05 -5.92344e-06
-6.86804e-05 0.00120375 4.18604e-07
-5.92344e-06 4.18604e-07 0.00121474
0.00046868 -1.12963e-05 -2.22886e-06
-1.12963e-05 -4.96812e-05 5.75125e-06
-2.22886e-06 5.75125e-06 -7.12022e-05
0.00230307 -5.05784e-05 2.2661e-05
-5.05784e-05 0.00108935 4.57851e-06
2.2661e-05 4.57851e-06 0.0011036
-0.00926766 0.000866867 -6.38701e-05
0.000866867 0.002994 7.87548e-05
-6.38701e-05 7.87548e-05 -0.00224374
0.00582559 0.000263182 -4.63122e-06
0.000263182 0.00318192 -2.58915e-06
-4.63122e-06 -2.58915e-06 0.00143521
-0.00117795 -1.90238e-05 1.69877e-05
-1.90238e-05 -7.24058e-05 1.65271e-06
1.69877e-05 1.65271e-06 -0.000388948
3.79898e-05 8.84546e-05 -2.57542e-06
8.84546e-05 -0.000264578 2.37595e-06
-2.57542e-06 2.37595e-06 -0.000415072
0.00328942 0.000561783 7.31951e-06
0.000561783 0.00166481 9.25901e-06
7.31951e-06 9.25901e-06 0.00136415
0.00147546 0.000150936 -7.1269e-06
0.000150936 0.00065804 -1.00911e-06
-7.1269e-06 -1.00911e-06 0.000431628
0.000657684 6.64868e-05 -6.00408e-06
6.64868e-05 9.59296e-05 -9.64007e-06
-6.00408e-06 -9.64007e-06 -4.52283e-05
0.00207262 0.000220924 2.85419e-06
0.000220924 0.000932102 -3.98345e-07
2.85419e-06 -3.98345e-07 0.000793142
-0.000241358 5.77654e-05 -7.56259e-06
5.77654e-05 -0.00041991 5.70031e-06
-7.56259e-06 5.70031e-06 -0.000547706
0.000286407 7.19366e-05 -1.47571e-06
7.19366e-05 1.36679e-05 4.59572e-06
-1.47571e-06 4.59572e-06 -0.000215757
0.000466525 0.000138103 -3.25111e-06
0.000138103 2.55268e-05 -4.81696e-06
-3.25111e-06 -4.81696e-06 -0.000222984
0.0017824 0.000362658 7.12502e-06
0.000362658 0.000859924 -2.43786e-05
7.12502e-06 -2.43786e-05 0.00050482
0.000337133 0.000399459 -9.89246e-06
0.000399459 -0.000153843 3.00286e-05
-9.89246e-06 3.00286e-05 -0.000302402
0.00134915 5.1926e-05 -8.21804e-06
5.1926e-05 0.000614076 9.42652e-06
-8.21804e-06 9.42652e-06 0.000441968
0.00109088 0.000194904 2.76053e-06
0.000194904 0.000617905 -5.8652e-06
2.76053e-06 -5.8652e-06 0.000326765
-0.00248865 -0.00176119 -0.00110094
-0.00176119 0.000584239 -0.000189573
-0.00110094 -0.000189573 -0.0023574
-0.00336928 -0.00154119 0.000386149
-0.00154119 0.00413122 0.000172909
0.000386149 0.000172909 -0.000450761
0.00597097 0.00110111 -0.000389919
0.00110111 0.00268821 -0.000140332
-0.000389919 -0.000140332 -0.00224176
-0.00103575 -0.00660237 0.00183093
-0.00660237 0.00127522 0.00123693
0.00183093 0.00123693 -0.000271489
0.0211816 -0.00309121 4.11137e-05
-0.00309121 0.00692792 0.000280601
4.11137e-05 0.000280601 0.00476903
-0.00247449 0.00145124 -3.85424e-07
0.00145124 0.00165474 -0.000164633
-3.85424e-07 -0.000164633 -0.00353547
-0.00199428 0.000201889 -0.000354849
0.000201889 4.92217e-05 -5.62843e-05
-0.000354849 -5.62843e-05 -0.00131071
0.00121976 0.000627032 6.39187e-05
0.000627032 0.00123612 4.63829e-05
6.39187e-05 4.63829e-05 0.00101771
0.0166351 -0.00381644 -0.000473287
-0.00381644 0.00688106 1.70805e-05
-0.000473287 1.70805e-05 0.00456985
-0.00199307 0.00221904 -7.71276e-05
0.00221904 0.000425406 -4.4489e-05
-7.71276e-05 -4.4489e-05 -0.00395018
0.00263596 0.00162879 -1.86464e-05
0.00162879 0.000745178 -6.71152e-05
-1.86464e-05 -6.71152e-05 0.00124085
0.00222768 0.0033827 -0.000294004
0.0033827 -0.00179936 -0.000106526
-0.000294004 -0.000106526 -0.00447259
0.00314477 0.00101555 1.95152e-05
0.00101555 0.00111298 -1.2091e-05
1.95152e-05 -1.2091e-05 0.000796907
0.000976973 0.000473965 -5.84784e-06
0.000473965 0.000266078 -7.99034e-07
-5.84784e-06 -7.99034e-07 0.000100647
0.000460934 0.000148755 -5.27202e-06
0.000148755 0.000164806 -6.91711e-07
-5.27202e-06 -6.91711e-07 -2.31521e-05
-0.00202397 0.000215873 -6.77416e-05
0.000215873 -0.000352202 -6.58195e-05
-6.77416e-05 -6.58195e-05 -0.00124865
0.00242652 0.000723972 -3.01246e-05
0.000723972 0.00125321 -2.07342e-05
-3.01246e-05 -2.07342e-05 0.000870653
0.0014994 0.00110966 1.44803e-05
0.00110966 0.000304953 -6.52381e-06
1.44803e-05 -6.52381e-06 -0.000337144
-7.55417e-05 0.00130155 9.82762e-05
0.00130155 -0.00128655 3.88212e-05
9.82762e-05 3.88212e-05 -0.00156446
-0.00574062 -0.000319055 -0.000458894
-0.000319055 -0.00462539 2.65533e-05
-0.000458894 2.65533e-05 -0.00365343
-0.00703549 0.000413772 0.000288343
0.000413772 0.00476849 1.20222e-05
0.000288343 1.20222e-05 -0.000483012
0.00289637 -0.000114532 -0.000101762
-0.000114532 0.00196201 3.36751e-05
-0.000101762 3.36751e-05 0.000337579
0.00212252 -0.00072788 -3.45651e-05
-0.00072788 0.00108426 -5.067e-05
-3.45651e-05 -5.067e-05 0.000588088
7.02846e-05 -0.00161773 -1.72505e-05
-0.00161773 -0.000567002 4.37516e-05
-1.72505e-05 4.37516e-05 -0.000419538
0.000682668 0.000407715 8.3511e-06
0.000407715 0.00572503 3.27373e-05
8.3511e-06 3.27373e-05 0.00267937
0.0014931 -0.00234785 0.00035336
-0.00234785 -0.00143036 -0.000130786
0.00035336 -0.000130786 -0.00406941
0.017579 0.00263785 0.000558586
0.00263785 0.0077814 -8.1744e-05
0.000558586 -8.1744e-05 0.005679
0.00182369 -0.00130956 -1.74479e-05
-0.00130956 0.000414285 6.22627e-06
-1.74479e-05 6.22627e-06 -2.45257e-05
0.00107485 0.00107215 0.000194642
0.00107215 0.000106972 -5.63636e-05
0.000194642 -5.63636e-05 -0.00134859
0.00783604 -0.00151477 -0.000121788
-0.00151477 -0.00124539 0.000114403
-0.000121788 0.000114403 -0.00353011
0.00476048 -0.0023027 -1.72973e-05
-0.0023027 0.000225731 2.54365e-05
-1.72973e-05 2.54365e-05 0.000411223
0.00255394 -0.00110017 7.14067e-05
-0.00110017 0.00033191 -1.29165e-05
7.14067e-05 -1.29165e-05 0.000222806
0.0143805 -0.000715626 -2.23234e-05
-0.000715626 0.00299642 1.54106e-05
-2.23234e-05 1.54106e-05 0.00158713
0.0022242 -0.00135743 0.000104044
-0.00135743 -0.00257236 -8.59112e-05
0.000104044 -8.59112e-05 -0.00177282
-0.000661432 -0.000496113 -3.36058e-05
-0.000496113 -0.00084384 2.12014e-05
-3.36058e-05 2.12014e-05 -0.000889222
0.000242557 -0.000471605 -3.12893e-05
-0.000471605 -0.000527629 2.0139e-06
-3.12893e-05 2.0139e-06 -0.000644064
0.00545841 -0.000946981 6.06466e-05
-0.000946981 0.00198093 -1.93255e-05
6.06466e-05 -1.93255e-05 0.00181365
0.000560257 -0.000564534 -2.08799e-05
-0.000564534 -0.000266204 -5.16384e-06
-2.08799e-05 -5.16384e-06 -0.000618595
0.00205433 -0.000786323 -8.70959e-07
-0.000786323 0.000277833 -2.55804e-06
-8.70959e-07 -2.55804e-06 -4.64193e-05
0.00265723 -0.000726975 1.64797e-06
-0.000726975 0.000330276 -3.96972e-06
1.64797e-06 -3.96972e-06 0.000143069
0.001957 -0.000751066 -5.8424e-06
-0.000751066 0.000358234 5.21179e-06
-5.8424e-06 5.21179e-06 -6.82392e-05
0.00201002 -0.000653842 -4.66e-07
-0.000653842 0.000152017 1.49709e-06
-4.66e-07 1.49709e-06 -0.000117329
0.0020488 -0.000495273 1.10535e-06
-0.000495273 5.92714e-05 -1.74275e-07
1.10535e-06 -1.74275e-07 -7.73807e-05
0.00125399 -0.000545299 4.33651e-06
-0.000545299 -9.1388e-05 6.93189e-06
4.33651e-06 6.93189e-06 -0.00040444
0.00188339 -0.000469573 -3.67062e-07
-0.000469573 7.87788e-05 1.84798e-06
-3.67062e-07 1.84798e-06 -0.000113483
0.0018939 -0.000420272 -2.90033e-06
-0.000420272 4.67299e-05 9.66004e-07
-2.90033e-06 9.66004e-07 -8.96855e-05
0.00207808 -0.000404138 -4.97474e-06
-0.000404138 0.000243509 9.84489e-07
-4.97474e-06 9.84489e-07 0.000102343
0.00188463 -0.000392788 -2.93472e-06
-0.000392788 0.000117692 3.39531e-06
-2.93472e-06 3.39531e-06 -4.12194e-05
0.00194615 -0.000410588 -3.17369e-06
-0.000410588 0.000192511 -4.27094e-06
-3.17369e-06 -4.27094e-06 1.53138e-05
0.00188756 -0.000493038 -5.8963e-06
-0.000493038 0.000194617 -2.21633e-06
-5.8963e-06 -2.21633e-06 -5.76436e-05
0.00183035 -0.000489129 1.65305e-06
-0.000489129 0.000135806 7.20721e-07
1.65305e-06 7.20721e-07 -0.000111099
0.00176022 -0.00045869 6.02324e-06
-0.00045869 7.87431e-05 7.2324e-06
6.02324e-06 7.2324e-06 -0.00014876
0.00176027 -0.000529618 -6.70319e-06
-0.000529618 0.00029857 -8.65791e-07
-6.70319e-06 -8.65791e-07 -1.28692e-05
0.00160477 -0.000555291 -5.20328e-07
-0.000555291 0.000126593 1.50549e-07
-5.20328e-07 1.50549e-07 -0.000190569
0.00206996 -0.000644856 5.70947e-06
-0.000644856 0.000385638 2.29413e-07
5.70947e-06 2.29413e-07 4.60108e-05
0.00144823 -0.000376677 -8.34003e-06
-0.000376677 0.000335112 5.39656e-06
-8.34003e-06 5.39656e-06 6.45023e-05
0.00156494 -0.000512059 -2.40006e-07
-0.000512059 0.000330114 8.7413e-07
-2.40006e-07 8.7413e-07 -4.90484e-07
0.0017822 -0.00061548 1.64133e-06
-0.00061548 0.000398503 -4.43018e-08
1.64133e-06 -4.43018e-08 3.36923e-05
0.000820158 -0.000217237 -6.70255e-06
-0.000217237 0.00010171 5.54271e-06
-6.70255e-06 5.54271e-06 -0.000100468
0.00108502 -0.000303126 3.46781e-07
-0.000303126 0.000171877 -9.57582e-07
3.46781e-07 -9.57582e-07 -6.81623e-05
0.000925795 -0.000365975 1.63363e-06
-0.000365975 4.04353e-05 -1.22024e-06
1.63363e-06 -1.22024e-06 -0.000242713
0.000412517 -9.5105e-05 -1.74487e-05
-9.5105e-05 -9.05979e-05 1.43025e-05
-1.74487e-05 1.43025e-05 -0.00016879
0.000662923 -0.000168576 -2.10088e-08
-0.000168576 8.90584e-05 9.4162e-07
-2.10088e-08 9.4162e-07 -0.000131007
0.000952337 -0.000326616 2.36226e-06
-0.000326616 0.00019429 -3.29403e-07
2.36226e-06 -3.29403e-07 -5.35813e-05
0.00371679 0.00018389 -7.50355e-05
0.00018389 0.00201994 4.38255e-06
-7.50355e-05 4.38255e-06 0.00200164
0.000500637 -3.36968e-05 8.11489e-07
-3.36968e-05 -1.66294e-05 -4.89395e-07
8.11489e-07 -4.89395e-07 -8.07073e-05
0.00156316 -0.000178266 2.86325e-06
-0.000178266 0.000660807 -6.13553e-06
2.86325e-06 -6.13553e-06 0.000463835
0.00215986 0.000118608 4.11304e-05
0.000118608 0.00103884 1.15641e-06
4.11304e-05 1.15641e-06 0.00102286
0.000629381 -2.30574e-06 6.56976e-06
-2.30574e-06 6.28139e-05 -1.06002e-05
6.56976e-06 -1.06002e-05 1.32284e-05
0.00315407 0.000130636 6.38848e-05
0.000130636 0.00164604 -3.74273e-06
6.38848e-05 -3.74273e-06 0.00164346
0.00121982 0.000255867 6.12985e-06
0.000255867 0.000364991 9.70701e-07
6.12985e-06 9.70701e-07 0.000175176
0.000482141 0.000113674 -1.43848e-06
0.000113674 -1.51746e-05 -1.44616e-07
-1.43848e-06 -1.44616e-07 -0.000177781
0.000558229 0.000131254 1.8798e-06
0.000131254 7.80596e-05 -4.60336e-06
1.8798e-06 -4.60336e-06 -0.000108379
0.000575843 0.00011953 -1.95196e-06
0.00011953 0.000105117 3.71529e-06
-1.95196e-06 3.71529e-06 -6.96556e-05
0.000623882 8.0607e-05 5.76756e-07
8.0607e-05 0.000124416 2.88333e-07
5.76756e-07 2.88333e-07 -5.04986e-05
0.000802019 7.18126e-05 7.96868e-07
7.18126e-05 0.000183095 -7.88558e-06
7.96868e-07 -7.88558e-06 6.01362e-05
0.00058349 1.20684e-05 -3.60437e-06
1.20684e-05 3.56988e-05 -1.03799e-05
-3.60437e-06 -1.03799e-05 -4.82664e-06
0.000617127 3.38933e-05 3.62753e-07
3.38933e-05 7.91782e-05 -5.11606e-08
3.62753e-07 -5.11606e-08 -2.82915e-05
0.00025939 3.97545e-05 -4.13288e-06
3.97545e-05 -0.000129111 2.16941e-06
-4.13288e-06 2.16941e-06 -0.000268192
0.00279276 -9.90547e-05 -5.41022e-05
-9.90547e-05 0.00140931 -4.31407e-06
-5.41022e-05 -4.31407e-06 0.00141491
0.000452006 8.44096e-07 8.03176e-07
8.44096e-07 -4.78835e-05 -2.37942e-07
8.03176e-07 -2.37942e-07 -8.0562e-05
0.00055599 3.34386e-05 -2.57022e-06
3.34386e-05 3.90705e-05 4.33206e-06
-2.57022e-06 4.33206e-06 -5.60949e-05
0.00262694 -8.56259e-05 -6.45894e-06
-8.56259e-05 0.00129971 5.00367e-07
-6.45894e-06 5.00367e-07 0.00130753
0.00043692 -1.94145e-05 -8.33244e-08
-1.94145e-05 -6.24321e-05 6.76309e-06
-8.33244e-08 6.76309e-06 -9.00204e-05
0.00247323 -6.81071e-05 2.84009e-05
-6.81071e-05 0.0011984 4.67953e-06
2.84009e-05 4.67953e-06 0.00120945
0.000465198 0.000205565 -0.000606085
0.000205565 0.00310765 -3.48379e-05
-0.000606085 -3.48379e-05 0.00124291
-0.00527182 0.000164653 3.62465e-05
0.000164653 0.00385558 3.91805e-06
3.62465e-05 3.91805e-06 -0.0015239
0.00546364 0.000111843 -0.000170769
0.000111843 0.00315016 -4.42088e-05
-0.000170769 -4.42088e-05 0.00152093
0.000324933 4.99536e-05 1.14353e-06
4.99536e-05 -9.13986e-05 -5.71556e-06
1.14353e-06 -5.71556e-06 -0.000244283
0.000874123 7.60624e-05 5.59586e-06
7.60624e-05 0.000278281 4.81718e-06
5.59586e-06 4.81718e-06 4.5657e-05
0.00251588 0.000470495 -2.58392e-06
0.000470495 0.00122503 3.20811e-06
-2.58392e-06 3.20811e-06 0.000947122
0.0020306 0.000535574 6.97706e-06
0.000535574 0.000789546 -2.29154e-07
6.97706e-06 -2.29154e-07 0.000420302
0.000332949 0.000249575 -3.42203e-08
0.000249575 -2.95358e-06 -3.56807e-06
-3.42203e-08 -3.56807e-06 -0.00029488
0.000441937 0.000104283 -4.91743e-06
0.000104283 0.000108658 8.05414e-06
-4.91743e-06 8.05414e-06 -0.000128512
0.000569648 0.00014348 9.86764e-06
0.00014348 0.000116458 1.08455e-05
9.86764e-06 1.08455e-05 -0.000125008
0.000442324 0.000293836 -6.60157e-06
0.000293836 0.000106113 -3.20619e-06
-6.60157e-06 -3.20619e-06 -0.00025674
-0.000458973 0.000369419 6.06577e-06
0.000369419 -0.000700718 -9.09091e-06
6.06577e-06 -9.09091e-06 -0.000985022
0.00216595 0.000659316 -1.77965e-06
0.000659316 0.000756767 1.59921e-05
-1.77965e-06 1.59921e-05 0.000579514
0.00130055 0.000733972 2.09461e-05
0.000733972 -3.54591e-05 4.29848e-06
2.09461e-05 4.29848e-06 -0.000188153
0.00146721 0.000532153 -8.02994e-06
0.000532153 0.000530924 -2.76054e-06
-8.02994e-06 -2.76054e-06 0.0003252
0.00181031 0.000254946 -8.10951e-06
0.000254946 0.000946509 2.37464e-05
-8.10951e-06 2.37464e-05 0.000695769
0.0133692 0.00193196 -9.61584e-05
0.00193196 0.00208174 6.61903e-05
-9.61584e-05 6.61903e-05 0.000701121
0.000922104 -0.00145563 -0.000431231
-0.00145563 0.00321654 -0.000164746
-0.000431231 -0.000164746 0.000596151
-0.000862467 -0.00247259 0.000503484
-0.00247259 0.00446362 0.000140682
0.000503484 0.000140682 -0.000167322
0.00336116 -0.00230827 0.000209743
-0.00230827 0.00175747 0.000295963
0.000209743 0.000295963 -0.000485184
0.0129755 0.00337833 -7.51334e-05
0.00337833 0.00465355 -4.39883e-05
-7.51334e-05 -4.39883e-05 0.000799205
-0.00277936 0.000186334 -5.83083e-05
0.000186334 -0.000457457 -5.02215e-05
-5.83083e-05 -5.02215e-05 -0.00071652
0.00194213 0.0014399 -3.59078e-05
0.0014399 0.000501925 -1.33954e-05
-3.59078e-05 -1.33954e-05 0.00100095
0.016536 0.00318731 1.97603e-05
0.00318731 0.00439798 3.49126e-05
1.97603e-05 3.49126e-05 0.00214682
0.00625612 0.00279982 -3.65076e-05
0.00279982 0.000324212 -8.93405e-05
-3.65076e-05 -8.93405e-05 0.000372111
0.00184029 0.00101599 1.16377e-05
0.00101599 0.000251327 -3.11069e-06
1.16377e-05 -3.11069e-06 2.31556e-05
0.00151848 0.000786595 7.80137e-06
0.000786595 0.000370988 -2.10368e-06
7.80137e-06 -2.10368e-06 8.82966e-05
0.0017062 0.000503502 -2.20392e-05
0.000503502 0.000740512 3.33313e-06
-2.20392e-05 3.33313e-06 0.000571166
0.00272869 0.00130885 -5.73493e-05
0.00130885 0.000829818 -2.19961e-05
-5.73493e-05 -2.19961e-05 0.000201583
0.00172917 0.00149626 4.85201e-05
0.00149626 -0.00054741 2.84223e-05
4.85201e-05 2.84223e-05 -0.000863749
0.00158401 -0.00035496 -9.19521e-05
-0.00035496 -0.00433328 4.19999e-05
-9.19521e-05 4.19999e-05 -0.00460519
0.00120432 -0.0012456 7.14217e-06
-0.0012456 0.00170211 -1.26058e-05
7.14217e-06 -1.26058e-05 0.00126961
-0.00979332 -0.000161638 0.000253085
-0.000161638 0.00489927 -2.21687e-05
0.000253085 -2.21687e-05 -0.000103545
6.44327e-05 -0.00131954 -3.82049e-05
-0.00131954 -0.0007138 4.61496e-06
-3.82049e-05 4.61496e-06 -0.00135258
0.00407842 -0.00233068 2.48768e-05
-0.00233068 0.000218817 3.51668e-05
2.48768e-05 3.51668e-05 2.95508e-05
0.00163088 -0.000179257 0.000647593
-0.000179257 0.0033711 -0.000139644
0.000647593 -0.000139644 0.0017211
0.0130208 -0.00177427 -0.000229332
-0.00177427 0.00167926 0.000108765
-0.000229332 0.000108765 0.000255115
0.00164683 -0.00109916 -3.23662e-05
-0.00109916 -8.06283e-05 -1.04657e-06
-3.23662e-05 -1.04657e-06 -0.000314413
0.0105973 -4.42182e-05 -0.00015872
-4.42182e-05 -0.000264302 4.6217e-05
-0.00015872 4.6217e-05 -0.0012474
0.00648981 -0.00157787 9.90497e-05
-0.00157787 -0.000118346 1.48343e-05
9.90497e-05 1.48343e-05 0.000247897
0.00446791 -0.00102392 6.94527e-05
-0.00102392 0.00108847 -3.07942e-05
6.94527e-05 -3.07942e-05 0.000809582
0.0030318 -0.000616429 -4.71965e-05
-0.000616429 -0.00118862 1.81573e-05
-4.71965e-05 1.81573e-05 -0.00041446
-0.00560515 4.08245e-06 1.38709e-06
4.08245e-06 -0.00370923 3.23467e-06
1.38709e-06 3.23467e-06 -0.00365939
0.00158387 -0.000637933 -1.15793e-05
-0.000637933 -0.000142889 1.05396e-06
-1.15793e-05 1.05396e-06 -0.000173014
0.00309148 -0.000632942 3.01523e-05
-0.000632942 0.000458546 -1.11027e-05
3.01523e-05 -1.11027e-05 0.000511821
0.00113907 -0.000690134 -7.65228e-06
-0.000690134 -0.000196691 7.12717e-06
-7.65228e-06 7.12717e-06 -0.000498198
0.00198644 -0.000664293 -2.96933e-06
-0.000664293 -1.42585e-05 2.84885e-06
-2.96933e-06 2.84885e-06 -0.000195656
0.0022748 -0.000540121 4.56005e-06
-0.000540121 1.32472e-05 -8.26055e-07
4.56005e-06 -8.26055e-07 -3.08374e-05
0.00224593 -0.000670336 -5.24524e-06
-0.000670336 0.000283104 8.63056e-06
-5.24524e-06 8.63056e-06 1.22876e-05
0.00203465 -0.000492164 2.18492e-07
-0.000492164 4.92088e-05 1.41252e-06
2.18492e-07 1.41252e-06 -8.24141e-05
0.00215452 -0.000475757 -8.94922e-07
-0.000475757 0.000105115 8.32563e-07
-8.94922e-07 8.32563e-07 2.14374e-05
0.00193226 -0.000465872 3.23865e-06
-0.000465872 0.000112859 6.09074e-06
3.23865e-06 6.09074e-06 -7.60406e-05
0.00194669 -0.000425773 -1.78235e-07
-0.000425773 7.52714e-05 1.26967e-06
-1.78235e-07 1.26967e-06 -6.00506e-05
0.00209316 -0.000452419 -2.55579e-06
-0.000452419 0.000166866 1.6232e-06
-2.55579e-06 1.6232e-06 3.73867e-05
0.0019892 -0.00040458 -4.10683e-06
-0.00040458 0.000182001 2.91696e-06
-4.10683e-06 2.91696e-06 4.20329e-05
0.00210458 -0.000410461 -1.30059e-06
-0.000410461 0.000284476 -1.53852e-06
-1.30059e-06 -1.53852e-06 0.000135781
0.00198231 -0.00039888 4.44914e-06
-0.00039888 0.000170731 6.60343e-06
4.44914e-06 6.60343e-06 1.50928e-05
0.00194993 -0.000410868 4.40501e-07
-0.000410868 0.000193518 -7.17449e-07
4.40501e-07 -7.17449e-07 1.62295e-05
0.00184625 -0.000423065 -2.95216e-06
-0.000423065 0.000138415 -3.24003e-06
-2.95216e-06 -3.24003e-06 -5.97186e-05
0.00190375 -0.000467558 -4.5584e-06
-0.000467558 0.000278895 -2.69708e-06
-4.5584e-06 -2.69708e-06 2.12296e-05
0.00194881 -0.000499964 -2.1928e-07
-0.000499964 0.000233922 -1.18377e-07
-2.1928e-07 -1.18377e-07 -2.07231e-05
0.00204306 -0.000505299 7.41292e-06
-0.000505299 0.000269324 3.53964e-06
7.41292e-06 3.53964e-06 2.13119e-05
0.00137592 -0.000401193 -9.00686e-06
-0.000401193 0.000171604 2.47271e-06
-9.00686e-06 2.47271e-06 -0.00010545
0.00168252 -0.000518392 -1.49669e-06
-0.000518392 0.00025709 -1.17102e-07
-1.49669e-06 -1.17102e-07 -5.35272e-05
0.0016242 -0.000561315 4.39608e-06
-0.000561315 0.000127174 1.11189e-06
4.39608e-06 1.11189e-06 -0.000192383
0.000752333 -0.000213235 -9.41573e-06
-0.000213235 -6.78846e-07 6.47452e-06
-9.41573e-06 6.47452e-06 -0.000197668
0.00120157 -0.000358989 1.95564e-06
-0.000358989 0.000176522 4.62566e-07
1.95564e-06 4.62566e-07 -9.19609e-05
0.00155421 -0.00050579 3.98008e-06
-0.00050579 0.000328424 2.58378e-07
3.98008e-06 2.58378e-07 7.12301e-07
0.000516388 -0.000161887 -2.161e-05
-0.000161887 -5.02842e-05 1.73462e-05
-2.161e-05 1.73462e-05 -0.000151426
0.000724755 -0.000217469 -3.60413e-07
-0.000217469 4.97789e-05 6.52922e-07
-3.60413e-07 6.52922e-07 -0.000154819
0.000773063 -0.00027169 3.22869e-06
-0.00027169 -2.57848e-05 -2.42141e-06
3.22869e-06 -2.42141e-06 -0.000260928
0.00461337 0.00020578 -0.000109705
0.00020578 0.00258862 8.24885e-06
-0.000109705 8.24885e-06 0.00256301
0.000558267 -0.0001099 -6.5599e-07
-0.0001099 1.56734e-06 -8.9015e-07
-6.5599e-07 -8.9015e-07 -8.4496e-05
0.00110788 -0.000198884 4.03818e-06
-0.000198884 0.000366371 -4.19928e-06
4.03818e-06 -4.19928e-06 0.000140067
0.0040183 0.000165298 1.63308e-05
0.000165298 0.00220329 4.59562e-07
1.63308e-05 4.59562e-07 0.00219034
0.000599963 -5.23227e-05 1.3778e-05
-5.23227e-05 3.77947e-05 -1.2911e-05
1.3778e-05 -1.2911e-05 -3.04673e-05
0.00352519 0.000131571 9.63779e-05
0.000131571 0.00188203 -4.4475e-06
9.63779e-05 -4.4475e-06 0.00187954
0.000946366 0.000344726 3.73969e-06
0.000344726 0.000123448 -5.6329e-06
3.73969e-06 -5.6329e-06 -0.000156286
0.000890594 0.000232507 2.40349e-06
0.000232507 0.000164021 -1.22609e-06
2.40349e-06 -1.22609e-06 -2.51214e-05
1.68699e-05 0.000113717 4.37212e-06
0.000113717 -0.000302729 -5.14574e-07
4.37212e-06 -5.14574e-07 -0.00048907
-0.000701526 2.31643e-05 -3.29851e-06
2.31643e-05 -0.000725587 -9.43739e-07
-3.29851e-06 -9.43739e-07 -0.000880251
0.000337443 7.4801e-05 3.91611e-08
7.4801e-05 -7.38051e-05 1.3238e-06
3.91611e-08 1.3238e-06 -0.000250714
0.000829835 8.0087e-05 7.0521e-07
8.0087e-05 0.000196715 -8.08881e-06
7.0521e-07 -8.08881e-06 5.1002e-05
0.000350153 4.66264e-05 -2.07249e-06
4.66264e-05 -6.14313e-05 3.3029e-06
-2.07249e-06 3.3029e-06 -0.000221912
0.000563921 5.69418e-05 -1.5096e-07
5.69418e-05 4.28173e-05 -6.57565e-08
-1.5096e-07 -6.57565e-08 -7.81154e-05
0.000581755 1.44916e-05 -5.12261e-06
1.44916e-05 3.44723e-05 -1.27243e-05
-5.12261e-06 -1.27243e-05 -1.54931e-05
0.00305687 -0.000110799 -7.37271e-05
-0.000110799 0.00158168 -4.98719e-06
-7.37271e-05 -4.98719e-06 0.00158437
0.000450719 7.36243e-07 1.06751e-06
7.36243e-07 -4.27654e-05 -3.26816e-07
1.06751e-06 -3.26816e-07 -8.3616e-05
0.000568993 3.16977e-05 -2.57984e-06
3.16977e-05 5.36695e-05 6.28573e-06
-2.57984e-06 6.28573e-06 -5.41481e-05
0.00278836 -0.000103435 -7.23091e-06
-0.000103435 0.00140728 6.13767e-07
-7.23091e-06 6.13767e-07 0.00141138
0.000372853 -4.33125e-05 -4.30191e-06
-4.33125e-05 -9.17656e-05 7.94085e-06
-4.30191e-06 7.94085e-06 -0.000126619
0.00262051 -8.60188e-05 3.5186e-05
-8.60188e-05 0.0012952 4.59222e-06
3.5186e-05 4.59222e-06 0.00130278
0.0138794 0.000525142 0.000394846
0.000525142 0.00228571 9.80241e-05
0.000394846 9.80241e-05 0.00165904
-0.00199485 -0.00214681 -0.00036131
-0.00214681 -0.00269266 -6.41846e-05
-0.00036131 -6.41846e-05 -0.00410015
-0.00867123 0.00114072 -0.000155553
0.00114072 0.00307304 -0.000109023
-0.000155553 -0.000109023 -0.00277953
0.000149752 1.95667e-05 1.83546e-05
1.95667e-05 -0.000156594 6.93755e-07
1.83546e-05 6.93755e-07 -0.000411295
0.00174921 0.000368578 -1.32673e-05
0.000368578 0.000772233 1.65516e-06
-1.32673e-05 1.65516e-06 0.000524809
0.00179915 0.000416218 -7.44378e-06
0.000416218 0.000849039 -2.52795e-06
-7.44378e-06 -2.52795e-06 0.000519091
0.0016844 0.000495142 1.06777e-06
0.000495142 0.000595721 1.52064e-07
1.06777e-06 1.52064e-07 0.000240998
0.00117471 0.000494404 8.66739e-06
0.000494404 0.000130181 1.37485e-05
8.66739e-06 1.37485e-05 -0.000216539
-0.000648987 0.000303257 1.45294e-05
0.000303257 -0.000825443 9.92287e-07
1.45294e-05 9.92287e-07 -0.00111727
-0.00022044 0.000234421 -8.29212e-06
0.000234421 -0.000218854 8.64687e-06
-8.29212e-06 8.64687e-06 -0.000614787
0.00013298 0.000439063 8.16324e-06
0.000439063 -0.000382835 -4.65996e-07
8.16324e-06 -4.65996e-07 -0.000696076
0.0021772 0.000653682 2.35438e-06
0.000653682 0.000819233 5.10091e-06
2.35438e-06 5.10091e-06 0.000594283
-0.000209246 0.000454192 6.80292e-06
0.000454192 -0.00070168 1.94121e-06
6.80292e-06 1.94121e-06 -0.000924477
0.00279534 0.000822897 2.57562e-06
0.000822897 0.000742944 9.82239e-06
2.57562e-06 9.82239e-06 0.00060309
0.00140003 0.000759038 1.56274e-05
0.000759038 2.60631e-05 6.68765e-06
1.56274e-05 6.68765e-06 -0.000215586
0.000777683 0.000668585 3.35711e-06
0.000668585 -0.000337059 -6.7325e-07
3.35711e-06 -6.7325e-07 -0.000444773
0.000621408 0.000435726 2.61337e-06
0.000435726 5.765e-05 -2.98347e-05
2.61337e-06 -2.98347e-05 -0.000141057
0.00547586 0.00133847 1.34757e-05
0.00133847 -0.000708163 1.41778e-05
1.34757e-05 1.41778e-05 0.000303349
0.0129305 0.00206278 0.000223034
0.00206278 0.00152644 0.00011336
0.000223034 0.00011336 -0.00011862
0.0100797 -0.00313654 0.000350861
-0.00313654 0.00479988 -4.62342e-05
0.000350861 -4.62342e-05 0.00254756
0.00488845 0.00345041 0.000440158
0.00345041 -0.000740428 0.000259243
0.000440158 0.000259243 -0.00483629
0.000226512 0.000980078 -5.02728e-05
0.000980078 8.66857e-05 -5.42295e-06
-5.02728e-05 -5.42295e-06 0.000573694
0.00362413 0.0020535 -0.000110896
0.0020535 -0.000417324 -4.66402e-05
-0.000110896 -4.66402e-05 -9.59091e-05
0.00556777 0.00176723 7.31208e-05
0.00176723 0.00113112 2.43245e-05
7.31208e-05 2.43245e-05 0.000912357
0.00381572 0.00127226 1.61157e-05
0.00127226 0.00111258 6.20393e-06
1.61157e-05 6.20393e-06 0.000847341
-0.000129398 0.000576703 -2.26776e-05
0.000576703 -0.000459389 1.04068e-05
-2.26776e-05 1.04068e-05 -0.000697015
0.00575896 0.00194202 -0.000165339
0.00194202 0.00130039 -1.99384e-05
-0.000165339 -1.99384e-05 0.000900723
0.00291672 -0.000391261 1.20501e-05
-0.000391261 3.37055e-05 3.78163e-06
1.20501e-05 3.78163e-06 0.000259083
0.0109278 -0.000472283 -3.02674e-05
-0.000472283 0.00180147 1.08644e-06
-3.02674e-05 1.08644e-06 0.00143212
-0.0118089 -0.00193642 0.000584314
-0.00193642 -0.00567512 6.01545e-06
0.000584314 6.01545e-06 -0.00590092
-0.000219135 -0.000880658 -8.53433e-05
-0.000880658 -0.000974892 1.82938e-05
-8.53433e-05 1.82938e-05 -0.00118419
0.00869771 -0.00202931 4.73545e-05
-0.00202931 0.000522524 8.77264e-05
4.73545e-05 8.77264e-05 0.00119188
0.00102572 -0.00028629 -0.000218037
-0.00028629 -0.00379115 3.75116e-05
-0.000218037 3.75116e-05 -0.00576743
0.00206651 -0.000770494 2.08482e-05
-0.000770494 -0.000262538 1.67696e-06
2.08482e-05 1.67696e-06 -0.000261694
0.00449874 -0.000506914 -3.45049e-05
-0.000506914 -0.000304483 -5.82375e-06
-3.45049e-05 -5.82375e-06 0.000184765
0.00518474 -0.000706631 3.26427e-05
-0.000706631 0.00115435 -2.53148e-05
3.26427e-05 -2.53148e-05 0.00140411
0.00484606 -0.000311243 8.6654e-05
-0.000311243 0.00121872 5.40056e-06
8.6654e-05 5.40056e-06 0.00121819
-0.0027185 -0.000332552 -4.04918e-07
-0.000332552 -0.00257037 7.79949e-06
-4.04918e-07 7.79949e-06 -0.00239418
0.00198209 -0.000561822 -3.69767e-06
-0.000561822 -0.000175912 5.67372e-07
-3.69767e-06 5.67372e-07 -5.83266e-05
0.00211648 -0.000419463 2.00346e-05
-0.000419463 -0.000243447 -5.11722e-06
2.00346e-05 -5.11722e-06 -1.90976e-05
0.00176959 -0.000647046 -1.03833e-06
-0.000647046 -0.000130947 6.46174e-06
-1.03833e-06 6.46174e-06 -0.000314117
0.00221727 -0.000538007 1.52824e-06
-0.000538007 -1.46554e-05 1.17677e-06
1.52824e-06 1.17677e-06 -6.04492e-05
0.00221697 -0.000464243 1.26049e-06
-0.000464243 2.44804e-05 -3.95755e-07
1.26049e-06 -3.95755e-07 1.98569e-05
0.00203314 -0.000490965 1.13661e-06
-0.000490965 4.5288e-05 3.66035e-06
1.13661e-06 3.66035e-06 -8.24708e-05
0.00208546 -0.000465347 3.90187e-07
-0.000465347 7.66522e-05 4.0025e-07
3.90187e-07 4.0025e-07 -6.7937e-06
0.00207672 -0.000416638 -3.10416e-06
-0.000416638 6.41602e-05 4.65848e-07
-3.10416e-06 4.65848e-07 -9.29769e-06
0.00197872 -0.000429824 3.79828e-06
-0.000429824 9.13742e-05 1.99139e-06
3.79828e-06 1.99139e-06 -4.33678e-05
0.00200336 -0.000444099 -1.27843e-07
-0.000444099 0.000130565 1.82097e-07
-1.27843e-07 1.82097e-07 2.05298e-06
0.0019266 -0.00040543 -9.66823e-08
-0.00040543 0.000117777 4.19007e-07
-9.66823e-08 4.19007e-07 -1.28488e-05
0.00191468 -0.00040564 6.26212e-07
-0.00040564 0.000129748 2.96616e-06
6.26212e-07 2.96616e-06 -9.1221e-06
0.002018 -0.000400703 -2.05645e-06
-0.000400703 0.000226577 3.41257e-07
-2.05645e-06 3.41257e-07 8.17996e-05
0.00203073 -0.000404689 -7.31263e-07
-0.000404689 0.000243582 -1.52879e-06
-7.31263e-07 -1.52879e-06 7.66117e-05
0.00195322 -0.000410162 4.83287e-06
-0.000410162 0.000194593 3.17375e-06
4.83287e-06 3.17375e-06 1.7498e-05
0.0019055 -0.000428398 3.71402e-08
-0.000428398 0.000175562 -3.55959e-07
3.71402e-08 -3.55959e-07 -2.41699e-05
0.00193202 -0.000415333 -1.49069e-06
-0.000415333 0.000252052 -2.30171e-06
-1.49069e-06 -2.30171e-06 3.5748e-05
0.0015213 -0.000386019 -8.63949e-06
-0.000386019 0.000159694 7.86228e-07
-8.63949e-06 7.86228e-07 -9.12274e-05
0.00184985 -0.00046756 -8.47287e-07
-0.00046756 0.000246251 -7.96627e-07
-8.47287e-07 -7.96627e-07 -1.53555e-05
0.00200707 -0.000506926 4.82517e-06
-0.000506926 0.000271917 1.80199e-06
4.82517e-06 1.80199e-06 1.48272e-05
0.000841867 -0.000227718 -1.23998e-05
-0.000227718 -1.41862e-05 7.77871e-06
-1.23998e-05 7.77871e-06 -0.000212593
0.00139368 -0.000399828 -1.63854e-07
-0.000399828 0.000185655 5.04211e-07
-1.63854e-07 5.04211e-07 -8.99302e-05
0.001594 -0.000506598 2.89819e-06
-0.000506598 0.000208259 7.21879e-07
2.89819e-06 7.21879e-07 -0.000101501
0.000438572 -0.000175053 -2.11916e-05
-0.000175053 -0.000118027 1.75642e-05
-2.11916e-05 1.75642e-05 -0.000227636
0.000798189 -0.000219009 3.27098e-07
-0.000219009 2.68357e-05 3.70469e-08
3.27098e-07 3.70469e-08 -0.000172836
0.000935884 -0.000338344 8.8374e-06
-0.000338344 8.19471e-06 -2.71023e-06
8.8374e-06 -2.71023e-06 -0.000257427
0.00565031 0.000141172 -0.00018271
0.000141172 0.00319587 1.03982e-05
-0.00018271 1.03982e-05 0.00318624
0.000476807 -0.000169517 -2.48171e-07
-0.000169517 -7.47976e-05 7.67407e-08
-2.48171e-07 7.67407e-08 -0.000177496
0.000611905 -0.000217254 8.54832e-06
-0.000217254 -1.4834e-05 -5.75421e-06
8.54832e-06 -5.75421e-06 -0.000220454
0.00494967 0.000136455 5.88746e-06
0.000136455 0.00277343 -3.91471e-07
5.88746e-06 -3.91471e-07 0.0027646
0.000445281 -0.000118486 1.76689e-05
-0.000118486 -6.50652e-05 -1.56017e-05
1.76689e-05 -1.56017e-05 -0.000155311
0.00426843 0.000111292 0.000149764
0.000111292 0.00234781 -1.07551e-05
0.000149764 -1.07551e-05 0.00234667
0.000991222 0.000410829 -4.3135e-06
0.000410829 4.89981e-05 -3.31552e-07
-4.3135e-06 -3.31552e-07 -0.000258427
0.00169509 0.000418961 -8.00377e-07
0.000418961 0.000585409 -1.44566e-06
-8.00377e-07 -1.44566e-06 0.000293635
0.000510292 0.000224597 -1.50409e-06
0.000224597 -0.000129819 -1.69837e-06
-1.50409e-06 -1.69837e-06 -0.000356288
0.000684212 0.000228356 -5.23699e-06
0.000228356 5.75408e-05 -2.56795e-06
-5.23699e-06 -2.56795e-06 -0.000139511
-0.000120099 0.000116042 8.32861e-07
0.000116042 -0.000390975 -8.27567e-07
8.32861e-07 -8.27567e-07 -0.000582259
0.00118905 0.000224357 -2.91787e-06
0.000224357 0.000434394 -5.47422e-06
-2.91787e-06 -5.47422e-06 0.000235929
-2.69642e-05 4.08881e-05 -1.80091e-06
4.08881e-05 -0.000307765 1.69983e-06
-1.80091e-06 1.69983e-06 -0.000477763
0.00071883 9.06172e-05 3.37058e-07
9.06172e-05 0.000133175 -3.2355e-07
3.37058e-07 -3.2355e-07 -1.29231e-05
0.000688536 3.53863e-05 -9.14778e-06
3.53863e-05 9.75433e-05 -1.45729e-05
-9.14778e-06 -1.45729e-05 3.70797e-05
0.000590785 3.58035e-05 -1.91247e-06
3.58035e-05 6.68064e-05 8.86412e-06
-1.91247e-06 8.86412e-06 -5.53791e-05
0.000528248 1.92605e-05 2.22202e-07
1.92605e-05 4.72201e-06 -1.58868e-07
2.22202e-07 -1.58868e-07 -4.46911e-05
0.00349249 -0.000126847 -9.51997e-05
-0.000126847 0.00186275 -5.75567e-06
-9.51997e-05 -5.75567e-06 0.00186089
0.00303732 -0.000121989 -7.95651e-06
-0.000121989 0.00157118 7.34458e-07
-7.95651e-06 7.34458e-07 0.00157072
0.000368273 2.1776e-05 4.26785e-06
2.1776e-05 -9.274e-05 1.01778e-05
4.26785e-06 1.01778e-05 -0.000132303
0.00272956 -0.000102858 4.30099e-05
-0.000102858 0.00137078 4.37815e-06
4.30099e-05 4.37815e-06 0.00137471
0.00401757 0.000129228 8.16637e-05
0.000129228 -0.000940776 2.2922e-05
8.16637e-05 2.2922e-05 0.000176399
0.00425764 -0.000857506 0.000132187
-0.000857506 -0.00368261 6.4091e-05
0.000132187 6.4091e-05 -0.00479033
0.0108901 -0.00229322 -0.000174715
-0.00229322 0.00408347 -7.97636e-05
-0.000174715 -7.97636e-05 0.0036061
0.00124841 0.000509984 9.20919e-06
0.000509984 -3.97733e-06 7.4436e-06
9.20919e-06 7.4436e-06 -0.000310148
0.00363556 0.000614519 -6.20997e-06
0.000614519 0.00192338 6.86769e-06
-6.20997e-06 6.86769e-06 0.00155484
0.0012682 0.000447344 -5.7529e-07
0.000447344 0.0003596 -2.24344e-06
-5.7529e-07 -2.24344e-06 2.01188e-05
0.00121743 0.000514588 3.05457e-06
0.000514588 0.000290247 1.14123e-06
3.05457e-06 1.14123e-06 -4.54562e-05
0.00140985 0.000519229 -2.14309e-06
0.000519229 0.000286408 2.97731e-06
-2.14309e-06 2.97731e-06 -7.15187e-05
0.00144763 0.000608381 1.70982e-05
0.000608381 0.000248234 1.52569e-05
1.70982e-05 1.52569e-05 -6.69221e-05
0.00190798 0.000627237 -2.68441e-05
0.000627237 0.000656581 -3.26417e-06
-2.68441e-05 -3.26417e-06 0.000284626
0.000837384 0.000531944 1.62709e-05
0.000531944 8.49042e-05 -1.98185e-05
1.62709e-05 -1.98185e-05 -0.000146745
0.00127934 0.000626533 2.81909e-06
0.000626533 0.000133869 -2.57618e-06
2.81909e-06 -2.57618e-06 -0.000118822
0.00163405 0.000711723 5.29575e-06
0.000711723 4.67536e-05 1.81428e-06
5.29575e-06 1.81428e-06 -4.02498e-06
0.00175237 0.000745496 1.36598e-05
0.000745496 0.00011044 7.3384e-07
1.36598e-05 7.3384e-07 -0.000142387
0.00160342 0.00067383 2.30977e-05
0.00067383 9.19843e-05 1.53959e-05
2.30977e-05 1.53959e-05 -8.27755e-05
0.000960697 0.000717125 -4.60444e-06
0.000717125 -0.000213127 -5.06542e-06
-4.60444e-06 -5.06542e-06 -0.000440547
0.000786051 0.000660319 -1.00672e-05
0.000660319 -0.000325882 -1.65883e-05
-1.00672e-05 -1.65883e-05 -0.000415064
0.00126283 0.000651844 4.47126e-05
0.000651844 -0.000854266 3.69155e-05
4.47126e-05 3.69155e-05 -0.000643083
0.00591003 0.00139747 -8.40047e-05
0.00139747 -0.000846297 -2.46026e-05
-8.40047e-05 -2.46026e-05 0.000210263
0.00372488 0.00132796 0.000458555
0.00132796 -0.00351629 7.15929e-05
0.000458555 7.15929e-05 -0.0053904
0.000819873 0.00154292 -0.000111915
0.00154292 -0.00130124 -4.15727e-05
-0.000111915 -4.15727e-05 -0.000886247
0.00410391 0.00143389 -3.19892e-05
0.00143389 0.000743584 -8.41823e-06
-3.19892e-05 -8.41823e-06 0.000580731
0.00409062 0.00130734 -0.000122406
0.00130734 0.00119263 -3.32943e-05
-0.000122406 -3.32943e-05 0.000918412
0.00276697 -0.000270227 -5.17473e-05
-0.000270227 -0.00025049 -2.21459e-05
-5.17473e-05 -2.21459e-05 1.82311e-06
0.000134932 -0.000215638 5.77065e-05
-0.000215638 -0.000536641 1.30398e-05
5.77065e-05 1.30398e-05 -7.86652e-05
0.00210624 0.000852122 0.000162031
0.000852122 -0.00454019 -5.38679e-06
0.000162031 -5.38679e-06 -0.0047416
-0.000556824 -0.000551036 -3.40826e-05
-0.000551036 -0.00164493 5.46292e-05
-3.40826e-05 5.46292e-05 -0.0014404
0.00604813 -0.000541285 -0.000124983
-0.000541285 0.000604922 3.76024e-05
-0.000124983 3.76024e-05 0.000671764
0.00248426 -0.000520344 -2.15412e-05
-0.000520344 -0.000270788 1.07809e-05
-2.15412e-05 1.07809e-05 3.33842e-05
0.00406367 -0.000338611 -2.91076e-06
-0.000338611 0.000688413 -3.18808e-06
-2.91076e-06 -3.18808e-06 0.000725386
0.00238139 -0.000306616 4.89359e-05
-0.000306616 -0.000189597 -7.224e-06
4.89359e-05 -7.224e-06 0.000114928
0.003543 -9.15998e-05 3.58545e-05
-9.15998e-05 0.00106667 -1.35671e-06
3.58545e-05 -1.35671e-06 0.0010421
0.000843399 -0.000476871 -2.5475e-05
-0.000476871 -0.000802977 1.05175e-05
-2.5475e-05 1.05175e-05 -0.000626407
0.00201647 -0.000433393 -1.17305e-06
-0.000433393 -0.000327447 1.97555e-06
-1.17305e-06 1.97555e-06 -0.000109152
0.00228823 -0.000384724 3.67708e-06
-0.000384724 -0.000144294 -1.79461e-06
3.67708e-06 -1.79461e-06 3.29236e-05
0.00214978 -0.000530477 -2.07893e-06
-0.000530477 -4.17946e-05 3.16382e-06
-2.07893e-06 3.16382e-06 -8.74605e-05
0.00220978 -0.000459206 1.94683e-07
-0.000459206 3.04712e-05 -1.94124e-07
1.94683e-07 -1.94124e-07 2.70833e-05
0.00216195 -0.000371762 -1.20246e-06
-0.000371762 1.53848e-05 -5.30579e-07
-1.20246e-06 -5.30579e-07 6.80254e-06
0.00201447 -0.000453927 4.59413e-07
-0.000453927 4.74586e-05 6.54171e-07
4.59413e-07 6.54171e-07 -3.43137e-05
0.00206866 -0.000423094 -8.1023e-07
-0.000423094 6.77933e-05 1.67642e-07
-8.1023e-07 1.67642e-07 -7.46928e-06
0.00197924 -0.000364456 -2.0339e-06
-0.000364456 8.24123e-05 9.0119e-07
-2.0339e-06 9.0119e-07 -1.51082e-05
0.00191635 -0.000435809 1.17425e-06
-0.000435809 9.58307e-05 -8.22915e-07
1.17425e-06 -8.22915e-07 -3.15379e-05
0.00189675 -0.000404157 1.1295e-06
-0.000404157 9.57119e-05 -5.18062e-07
1.1295e-06 -5.18062e-07 -3.55993e-05
0.00190419 -0.000378218 4.03622e-07
-0.000378218 0.000122288 -1.40355e-06
4.03622e-07 -1.40355e-06 -1.91089e-05
0.00193438 -0.000391172 -2.07125e-06
-0.000391172 0.00017073 2.69569e-06
-2.07125e-06 2.69569e-06 2.98569e-05
0.00207123 -0.000404584 -1.89694e-06
-0.000404584 0.000262856 6.3738e-07
-1.89694e-06 6.3738e-07 9.98263e-05
0.00201365 -0.000390966 -1.08889e-06
-0.000390966 0.00026713 -1.78158e-06
-1.08889e-06 -1.78158e-06 7.80504e-05
0.0019637 -0.000434136 3.10494e-06
-0.000434136 0.000211803 2.40067e-06
3.10494e-06 2.40067e-06 1.03496e-05
0.00194217 -0.000418166 6.22102e-07
-0.000418166 0.000258686 -5.40263e-07
6.22102e-07 -5.40263e-07 4.20329e-05
0.00163895 -0.000348548 -6.63212e-06
-0.000348548 0.000184793 9.46177e-07
-6.63212e-06 9.46177e-07 -3.85788e-05
0.000917622 -0.000229945 -1.35649e-05
-0.000229945 -2.82807e-05 7.19244e-06
-1.35649e-05 7.19244e-06 -0.000222279
0.00150042 -0.000381919 -1.11356e-06
-0.000381919 0.000154614 -1.63745e-07
-1.11356e-06 -1.63745e-07 -9.69684e-05
0.00179624 -0.000467779 2.84881e-06
-0.000467779 0.000213367 5.94966e-07
2.84881e-06 5.94966e-07 -5.22456e-05
0.000431772 -0.000214151 -2.21535e-05
-0.000214151 -0.000124877 1.81596e-05
-2.21535e-05 1.81596e-05 -0.00025056
0.000850827 -0.000232063 7.38722e-07
-0.000232063 -1.36715e-05 1.14437e-07
7.38722e-07 1.14437e-07 -0.000213938
0.0014143 -0.000399261 8.32284e-06
-0.000399261 0.000200375 -1.52565e-06
8.32284e-06 -1.52565e-06 -7.39392e-05
0.00628576 9.75679e-05 -0.000227623
9.75679e-05 0.00356624 1.403e-05
-0.000227623 1.403e-05 0.00356398
0.000474729 -0.000217247 -1.10989e-06
-0.000217247 -8.98829e-05 4.09841e-07
-1.10989e-06 4.09841e-07 -0.000208247
0.000767678 -0.000222947 1.11196e-05
-0.000222947 8.14383e-06 -7.16924e-06
1.11196e-05 -7.16924e-06 -0.000194454
0.00590551 0.000124581 -5.39296e-06
0.000124581 0.00335588 -6.71669e-07
-5.39296e-06 -6.71669e-07 0.00334558
0.000537091 -0.00019192 2.30117e-05
-0.00019192 -3.58022e-05 -1.74382e-05
2.30117e-05 -1.74382e-05 -0.000143418
0.00535577 0.000123646 0.000191218
0.000123646 0.00302924 -1.81516e-05
0.000191218 -1.81516e-05 0.00301858
0.00142531 0.00047007 -1.46769e-06
0.00047007 0.000173534 3.78561e-06
-1.46769e-06 3.78561e-06 -0.000133067
0.00150251 0.000468189 -3.79971e-06
0.000468189 0.000356453 -9.3745e-07
-3.79971e-06 -9.3745e-07 3.51928e-05
0.00102455 0.00032683 -6.305e-06
0.00032683 7.53675e-05 -5.94213e-07
-6.305e-06 -5.94213e-07 -0.000181449
0.00259645 0.000509074 6.09657e-07
0.000509074 0.00114122 3.59555e-06
6.09657e-07 3.59555e-06 0.000834251
0.000899799 0.000264474 -2.55969e-06
0.000264474 0.000118414 -1.46197e-06
-2.55969e-06 -1.46197e-06 -0.000117169
0.00116702 0.000224394 -7.28604e-06
0.000224394 0.000372142 -2.50591e-06
-7.28604e-06 -2.50591e-06 0.000162422
-0.00022247 0.000103969 -3.04732e-06
0.000103969 -0.00046777 -1.55992e-06
-3.04732e-06 -1.55992e-06 -0.000659409
0.000756806 0.000124397 -1.09692e-06
0.000124397 0.000156791 -4.30122e-07
-1.09692e-06 -4.30122e-07 -2.67681e-05
0.000620734 6.92485e-05 -1.51755e-05
6.92485e-05 4.3428e-05 -1.59052e-05
-1.51755e-05 -1.59052e-05 -3.21494e-05
0.000397654 6.02385e-05 1.84011e-07
6.02385e-05 -6.98901e-05 8.3226e-06
1.84011e-07 8.3226e-06 -0.000205259
0.000424963 2.9887e-05 -2.7069e-07
2.9887e-05 -6.08704e-05 -4.79619e-07
-2.7069e-07 -4.79619e-07 -0.000119535
0.00394495 -0.000139205 -0.000118461
-0.000139205 0.00215374 -7.66394e-06
-0.000118461 -7.66394e-06 0.00214707
0.000306692 2.4133e-05 5.33879e-06
2.4133e-05 -0.00012844 1.25047e-05
5.33879e-06 1.25047e-05 -0.000176917
0.00337966 -0.000138754 -7.74178e-06
-0.000138754 0.00179438 7.64397e-07
-7.74178e-06 7.64397e-07 0.00178919
0.00297547 -0.000124707 5.20428e-05
-0.000124707 0.00153308 4.34325e-06
5.20428e-05 4.34325e-06 0.00153158
0.000469932 0.000107677 6.14586e-06
0.000107677 -0.00154505 1.48048e-05
6.14586e-06 1.48048e-05 -0.00106978
0.00523267 1.46591e-05 6.33823e-05
1.46591e-05 -0.000197055 1.27663e-05
6.33823e-05 1.27663e-05 0.00075432
0.012895 0.000782117 -5.03219e-05
0.000782117 0.00258485 2.09864e-06
-5.03219e-05 2.09864e-06 0.00202452
0.00188113 0.000640719 2.02885e-06
0.000640719 0.000340605 4.62674e-06
2.02885e-06 4.62674e-06 3.61906e-05
0.00202793 0.000624479 -3.83009e-07
0.000624479 0.000288419 2.76375e-06
-3.83009e-07 2.76375e-06 6.2606e-06
0.00137552 0.000526916 -2.98925e-08
0.000526916 8.5591e-05 -3.20071e-06
-2.98925e-08 -3.20071e-06 -0.000220564
0.00264527 0.000679179 -4.17916e-06
0.000679179 0.0011366 6.11634e-06
-4.17916e-06 6.11634e-06 0.000769328
0.00175937 0.000553868 -4.51303e-06
0.000553868 0.000516864 -7.1604e-06
-4.51303e-06 -7.1604e-06 0.000145098
0.00179203 0.000652207 6.45119e-06
0.000652207 0.00041926 3.25101e-06
6.45119e-06 3.25101e-06 0.0001056
0.0017072 0.000687422 -1.38291e-06
0.000687422 4.25109e-05 -2.45223e-06
-1.38291e-06 -2.45223e-06 -0.00022055
0.00242372 0.0007603 -1.55622e-05
0.0007603 0.000747989 1.76557e-06
-1.55622e-05 1.76557e-06 0.000466533
0.00124541 0.000666393 -7.46034e-07
0.000666393 -0.000207087 1.04718e-05
-7.46034e-07 1.04718e-05 -0.000200031
0.00261987 0.000833234 -1.64757e-06
0.000833234 0.000599127 1.4434e-06
-1.64757e-06 1.4434e-06 0.000328024
0.00260355 0.00072829 -4.96905e-06
0.00072829 0.000419628 2.9296e-06
-4.96905e-06 2.9296e-06 0.000205694
0.00104624 0.000359984 2.7983e-05
0.000359984 -0.000378722 1.79129e-05
2.7983e-05 1.79129e-05 -0.000372969
0.000787243 0.000598205 1.03808e-05
0.000598205 -0.000321245 -2.38403e-06
1.03808e-05 -2.38403e-06 -0.000489285
0.00118344 0.000736675 -3.07404e-05
0.000736675 -0.000100488 -6.40807e-06
-3.07404e-05 -6.40807e-06 -0.000332299
0.00280555 0.000753356 2.56267e-06
0.000753356 -4.34335e-05 8.57937e-06
2.56267e-06 8.57937e-06 7.67793e-05
0.00600572 0.000979714 -1.09845e-05
0.000979714 -0.000724729 -3.23469e-05
-1.09845e-05 -3.23469e-05 -5.7783e-05
0.00373769 0.0011938 -2.76433e-05
0.0011938 0.000903984 -4.38139e-05
-2.76433e-05 -4.38139e-05 0.000803119
0.00128956 -5.92029e-05 2.71416e-05
-5.92029e-05 -0.000362938 1.82368e-06
2.71416e-05 1.82368e-06 -0.000273606
0.00230311 -0.000204755 -4.58609e-05
-0.000204755 -0.000393035 2.79334e-06
-4.58609e-05 2.79334e-06 -0.000222361
0.00234764 0.000281366 1.71618e-05
0.000281366 -0.000614229 -3.72112e-06
1.71618e-05 -3.72112e-06 -0.00034912
0.000410618 -0.000396151 -4.90355e-05
-0.000396151 -0.00134288 4.14122e-05
-4.90355e-05 4.14122e-05 -0.00102946
0.00305034 -0.000402914 -9.62964e-05
-0.000402914 6.28732e-05 -5.67531e-06
-9.62964e-05 -5.67531e-06 0.000112877
0.00239862 -0.000319209 7.50192e-06
-0.000319209 -9.08735e-05 -3.9771e-06
7.50192e-06 -3.9771e-06 0.000192066
0.00248887 -8.96275e-05 -1.18582e-05
-8.96275e-05 0.000384974 4.4273e-07
-1.18582e-05 4.4273e-07 0.000374177
0.00228731 -0.00022438 9.57222e-06
-0.00022438 -2.52334e-05 -3.41956e-07
9.57222e-06 -3.41956e-07 5.89769e-05
0.00224209 -6.88657e-06 7.80118e-06
-6.88657e-06 -9.02169e-06 1.2481e-06
7.80118e-06 1.2481e-06 1.34163e-05
0.00191313 -0.000453094 -1.36833e-05
-0.000453094 -0.000426813 4.60087e-06
-1.36833e-05 4.60087e-06 -0.000211729
0.00229816 -0.000393742 -2.43973e-06
-0.000393742 -0.000126188 5.87692e-07
-2.43973e-06 5.87692e-07 1.81201e-05
0.00223395 -0.000278381 4.00708e-07
-0.000278381 -5.03277e-05 -1.2256e-06
4.00708e-07 -1.2256e-06 4.50161e-06
0.00219639 -0.000455335 -3.06262e-06
-0.000455335 3.05988e-05 8.70233e-07
-3.06262e-06 8.70233e-07 2.72512e-05
0.00215717 -0.000368795 -1.54333e-07
-0.000368795 2.44012e-05 1.36983e-08
-1.54333e-07 1.36983e-08 1.14091e-05
0.00207533 -0.000312179 -1.4446e-06
-0.000312179 3.69596e-05 3.85847e-07
-1.4446e-06 3.85847e-07 -5.58517e-06
0.00206152 -0.000429871 3.71495e-07
-0.000429871 7.17606e-05 -9.61716e-07
3.71495e-07 -9.61716e-07 -5.60258e-06
0.00197763 -0.000362819 5.59157e-07
-0.000362819 7.7925e-05 -2.52935e-07
5.59157e-07 -2.52935e-07 -1.96617e-05
0.00197059 -0.000334986 -1.09554e-06
-0.000334986 0.000114968 2.2153e-07
-1.09554e-06 2.2153e-07 -6.93161e-07
0.00186254 -0.000402576 2.02208e-06
-0.000402576 7.13962e-05 -1.2813e-06
2.02208e-06 -1.2813e-06 -6.05542e-05
0.00193225 -0.000379943 3.09944e-07
-0.000379943 0.0001374 -5.58606e-07
3.09944e-07 -5.58606e-07 -4.52295e-06
0.00191235 -0.000355152 -5.3685e-07
-0.000355152 0.000165033 -1.57606e-06
-5.3685e-07 -1.57606e-06 -3.58151e-08
0.00210626 -0.000404168 -1.28784e-06
-0.000404168 0.000278546 3.41902e-06
-1.28784e-06 3.41902e-06 0.000119487
0.00199718 -0.000390527 -5.85281e-07
-0.000390527 0.000257967 -1.0061e-07
-5.85281e-07 -1.0061e-07 7.00386e-05
0.00161601 -0.000318621 -5.27823e-06
-0.000318621 0.000133959 7.1316e-07
-5.27823e-06 7.1316e-07 -7.03336e-05
0.00195593 -0.000421183 3.3665e-06
-0.000421183 0.000267585 1.41955e-06
3.3665e-06 1.41955e-06 5.05556e-05
0.00166822 -0.000352175 -5.11447e-07
-0.000352175 0.000202812 2.57159e-08
-5.11447e-07 2.57159e-08 -2.00251e-05
0.000970386 -0.000215103 -1.43896e-05
-0.000215103 -3.08642e-05 6.78412e-06
-1.43896e-05 6.78412e-06 -0.000215725
0.000370748 -0.000190221 -1.98766e-05
-0.000190221 -0.000178698 1.68834e-05
-1.98766e-05 1.68834e-05 -0.000300946
0.000958072 -0.000234073 2.15927e-07
-0.000234073 -7.45387e-06 6.99572e-08
2.15927e-07 6.99572e-08 -0.000202386
0.00148314 -0.000378146 5.66038e-06
-0.000378146 0.000151586 -1.31182e-06
5.66038e-06 -1.31182e-06 -0.000100727
0.00652756 1.93323e-05 -0.00025677
1.93323e-05 0.00369218 1.68526e-05
-0.00025677 1.68526e-05 0.00369977
0.000437657 -0.000209175 -1.38787e-06
-0.000209175 -0.000129065 1.03669e-06
-1.38787e-06 1.03669e-06 -0.000250269
0.000891092 -0.000237374 1.23605e-05
-0.000237374 6.97938e-06 -6.80344e-06
1.23605e-05 -6.80344e-06 -0.000195233
0.00639227 7.17074e-05 -1.35846e-06
7.17074e-05 0.0036301 2.52153e-07
-1.35846e-06 2.52153e-07 0.00362878
0.000504892 -0.000221811 2.47066e-05
-0.000221811 -7.64935e-05 -1.81802e-05
2.47066e-05 -1.81802e-05 -0.000194828
0.00613622 9.59709e-05 0.000225771
9.59709e-05 0.00348981 -1.91797e-05
0.000225771 -1.91797e-05 0.00348329
0.00166165 0.000531182 -1.208e-06
0.000531182 0.000177936 4.36791e-06
-1.208e-06 4.36791e-06 -0.000110125
0.00146875 0.00048198 3.95868e-07
0.00048198 0.000199037 6.17041e-07
3.95868e-07 6.17041e-07 -0.000108963
0.00128941 0.000375411 -6.7155e-06
0.000375411 0.000167484 2.80977e-08
-6.7155e-06 2.80977e-08 -9.79096e-05
0.00172132 0.000494729 8.99612e-07
0.000494729 0.000484063 1.08401e-06
8.99612e-07 1.08401e-06 0.000155754
0.00116134 0.000332251 -1.39568e-06
0.000332251 0.000168944 1.27291e-07
-1.39568e-06 1.27291e-07 -8.65449e-05
0.000941882 0.00022322 -1.05345e-05
0.00022322 0.000156269 -4.0491e-06
-1.05345e-05 -4.0491e-06 -4.12908e-05
0.00134552 0.000310117 -2.0849e-06
0.000310117 0.000400649 -5.32311e-07
-2.0849e-06 -5.32311e-07 0.000154896
0.000664774 0.000196127 4.29376e-07
0.000196127 6.89469e-05 1.30402e-06
4.29376e-07 1.30402e-06 -0.000141226
0.000539226 0.000149402 -2.41823e-05
0.000149402 -2.25476e-05 -1.68354e-05
-2.41823e-05 -1.68354e-05 -0.000114716
0.000206058 7.57444e-05 2.93621e-07
7.57444e-05 -0.000176936 4.34525e-06
2.93621e-07 4.34525e-06 -0.000358689
0.000533093 6.02136e-05 -9.7864e-07
6.02136e-05 -4.9869e-06 -3.96609e-07
-9.7864e-07 -3.96609e-07 -7.75451e-05
0.0047588 -0.000154394 -0.000152594
-0.000154394 0.00266919 -1.1178e-05
-0.000152594 -1.1178e-05 0.00265571
0.000420033 2.579e-05 7.51136e-06
2.579e-05 -5.98781e-05 1.44746e-05
7.51136e-06 1.44746e-05 -0.000118794
0.00386331 -0.000161301 -7.28513e-06
-0.000161301 0.00210838 7.64895e-07
-7.28513e-06 7.64895e-07 0.00209615
0.00330105 -0.000147199 6.68972e-05
-0.000147199 0.00174702 4.65315e-06
6.68972e-05 4.65315e-06 0.00173918
0.000970557 0.000114679 2.36352e-05
0.000114679 -0.000530447 1.83642e-05
2.36352e-05 1.83642e-05 -0.000364355
0.00254321 0.000126945 -1.04082e-05
0.000126945 -0.000695792 -3.75386e-06
-1.04082e-05 -3.75386e-06 -0.000179832
0.00386825 0.000193714 0.000186976
0.000193714 -0.00144891 5.39987e-05
0.000186976 5.39987e-05 1.76537e-06
0.00256236 0.000689234 -8.26293e-06
0.000689234 0.000548039 -5.47037e-07
-8.26293e-06 -5.47037e-07 0.000276213
0.00170831 0.000642802 -6.54579e-06
0.000642802 0.000222362 -4.37679e-06
-6.54579e-06 -4.37679e-06 -7.75774e-05
0.00208011 0.000517494 -3.6292e-07
0.000517494 0.00017457 4.09965e-06
-3.6292e-07 4.09965e-06 -4.01108e-05
0.00201419 0.000614101 1.11106e-06
0.000614101 0.000280174 3.44151e-07
1.11106e-06 3.44151e-07 8.32671e-07
0.00151185 0.000544297 -4.39439e-07
0.000544297 0.000178781 -1.00215e-05
-4.39439e-07 -1.00215e-05 -0.000127548
0.00190723 0.000539304 -3.02991e-06
0.000539304 1.03762e-05 8.48383e-07
-3.02991e-06 8.48383e-07 -0.00018446
0.00241242 0.000725947 -7.02697e-06
0.000725947 0.000751542 -3.80023e-06
-7.02697e-06 -3.80023e-06 0.000434091
0.00218983 0.000718954 -3.50224e-07
0.000718954 0.000335582 -5.57686e-07
-3.50224e-07 -5.57686e-07 6.37649e-05
0.00198902 0.000391905 -1.01958e-05
0.000391905 -0.000100056 2.04548e-07
-1.01958e-05 2.04548e-07 -0.000145499
0.00308241 0.000888984 -3.87818e-06
0.000888984 0.000848725 4.80525e-06
-3.87818e-06 4.80525e-06 0.000575871
0.00235566 0.000708678 -4.80445e-07
0.000708678 0.000280169 -5.07226e-07
-4.80445e-07 -5.07226e-07 6.58902e-05
0.000679165 0.000351391 3.13499e-06
0.000351391 -0.000547955 2.64337e-06
3.13499e-06 2.64337e-06 -0.0005463
-0.000711804 0.000472946 -2.1903e-05
0.000472946 -0.00109962 -7.70673e-06
-2.1903e-05 -7.70673e-06 -0.00124717
0.00349881 0.000830273 -9.91726e-05
0.000830273 0.000290283 -3.32886e-05
-9.91726e-05 -3.32886e-05 0.000335178
0.00203753 6.96563e-05 -1.4617e-06
6.96563e-05 -0.00016252 -8.29593e-07
-1.4617e-06 -8.29593e-07 -9.89602e-05
0.00250802 -6.73458e-05 7.27736e-06
-6.73458e-05 0.000428221 -5.30005e-08
7.27736e-06 -5.30005e-08 0.000496314
0.00233725 -0.000187559 -7.5831e-05
-0.000187559 -0.000302408 9.505e-06
-7.5831e-05 9.505e-06 -0.000161652
0.00221492 -0.000327216 -5.65601e-05
-0.000327216 -0.000110636 8.11166e-06
-5.65601e-05 8.11166e-06 0.000142558
0.00137465 -9.95202e-05 -1.03498e-05
-9.95202e-05 -0.00032982 2.45593e-06
-1.03498e-05 2.45593e-06 -0.000327093
0.00227956 -0.000223707 4.41192e-07
-0.000223707 -3.9885e-05 -1.60272e-06
4.41192e-07 -1.60272e-06 6.37877e-05
0.00228326 -7.28383e-06 -2.5884e-06
-7.28383e-06 -1.37188e-05 1.53203e-06
-2.5884e-06 1.53203e-06 1.62638e-05
0.00228215 -7.37064e-05 1.81084e-07
-7.37064e-05 -2.40816e-05 -6.25587e-08
1.81084e-07 -6.25587e-08 2.77051e-05
0.00231037 -0.000399439 -5.49104e-06
-0.000399439 -0.000101513 1.22901e-06
-5.49104e-06 1.22901e-06 1.09492e-05
0.00219726 -0.000268318 4.05712e-07
-0.000268318 -5.46033e-05 -2.28627e-07
4.05712e-07 -2.28627e-07 -7.27634e-06
0.00213731 -0.000210146 -1.24577e-07
-0.000210146 -1.55204e-08 -2.2033e-07
-1.24577e-07 -2.2033e-07 1.59521e-05
0.00215631 -0.000366037 5.45706e-07
-0.000366037 3.59075e-05 2.10978e-07
5.45706e-07 2.10978e-07 1.87708e-05
0.00206944 -0.000309228 7.6171e-08
-0.000309228 3.85047e-05 1.3557e-07
7.6171e-08 1.3557e-07 -4.5023e-06
0.00203775 -0.000266898 -2.22539e-06
-0.000266898 9.67071e-05 6.9161e-07
-2.22539e-06 6.9161e-07 2.02524e-05
0.00197324 -0.00036102 2.54079e-06
-0.00036102 7.12937e-05 -1.16412e-06
2.54079e-06 -1.16412e-06 -2.63464e-05
0.00193826 -0.000332482 4.81554e-07
-0.000332482 9.30247e-05 -3.16903e-07
4.81554e-07 -3.16903e-07 -2.27717e-05
0.00189837 -0.00030364 -3.01688e-07
-0.00030364 0.000112313 -1.08249e-06
-3.01688e-07 -1.08249e-06 -2.37347e-05
0.00196581 -0.000382139 7.14781e-07
-0.000382139 0.000155695 2.13233e-07
7.14781e-07 2.13233e-07 1.31798e-05
0.00193951 -0.000356249 -3.96064e-07
-0.000356249 0.000183676 -1.3564e-07
-3.96064e-07 -1.3564e-07 1.85423e-05
0.00166073 -0.000289607 -3.28132e-06
-0.000289607 0.000123266 3.74342e-07
-3.28132e-06 3.74342e-07 -6.25474e-05
0.00198152 -0.000390021 6.50123e-07
-0.000390021 0.000249102 1.70245e-06
6.50123e-07 1.70245e-06 6.23764e-05
0.00164825 -0.000320746 -4.36993e-07
-0.000320746 0.000153519 9.06515e-08
-4.36993e-07 9.06515e-08 -5.05845e-05
0.00099354 -0.000194158 -1.44969e-05
-0.000194158 -3.63255e-05 6.02998e-06
-1.44969e-05 6.02998e-06 -0.000212528
0.00169568 -0.000355634 5.57718e-06
-0.000355634 0.000219789 -6.36772e-07
5.57718e-06 -6.36772e-07 -2.47304e-06
0.00101595 -0.000216991 7.87014e-08
-0.000216991 -6.06103e-06 1.05602e-07
7.87014e-08 1.05602e-07 -0.000190624
0.00266922 -0.000163614 -4.38962e-05
-0.000163614 0.00122186 1.10139e-05
-4.38962e-05 1.10139e-05 0.0011261
0.00201775 -8.48387e-05 -0.000233409
-8.48387e-05 0.000897526 3.02877e-05
-0.000233409 3.02877e-05 0.00087876
0.00158488 -0.000190587 -1.11297e-05
-0.000190587 0.000564911 -2.59815e-07
-1.11297e-05 -2.59815e-07 0.000452274
0.000994221 -0.000237922 1.34735e-05
-0.000237922 1.12045e-05 -6.61775e-06
1.34735e-05 -6.61775e-06 -0.000184652
0.00657581 2.46629e-06 -7.08017e-06
2.46629e-06 0.00372872 6.62868e-07
-7.08017e-06 6.62868e-07 0.0037327
0.000471391 -0.000234718 2.455e-05
-0.000234718 -0.000108727 -1.78014e-05
2.455e-05 -1.78014e-05 -0.00023245
0.00646792 5.07674e-05 0.00024871
5.07674e-05 0.00368148 -2.27194e-05
0.00024871 -2.27194e-05 0.00367758
0.00210065 0.00039625 4.77414e-07
0.00039625 0.000170079 8.96857e-07
4.77414e-07 8.96857e-07 7.46691e-06
0.0019872 0.000511714 2.79904e-06
0.000511714 0.00026025 4.74603e-06
2.79904e-06 4.74603e-06 1.59574e-05
0.00195354 0.000556525 1.64697e-07
0.000556525 0.000348877 1.99061e-07
1.64697e-07 1.99061e-07 5.92283e-05
0.00151259 0.000412306 -5.93326e-06
0.000412306 0.000210912 8.74182e-07
-5.93326e-06 8.74182e-07 -5.15762e-05
0.0015467 0.00049889 3.6915e-06
0.00049889 0.000244003 -2.34851e-06
3.6915e-06 -2.34851e-06 -6.68093e-05
0.00131607 0.000379112 -1.18118e-07
0.000379112 0.000180571 3.94938e-07
-1.18118e-07 3.94938e-07 -8.63951e-05
0.000869272 0.000223103 -1.21776e-05
0.000223103 3.13838e-05 -5.35888e-06
-1.21776e-05 -5.35888e-06 -0.000160622
0.00127121 0.000335121 5.61773e-06
0.000335121 0.000246484 1.39595e-06
5.61773e-06 1.39595e-06 -7.39268e-06
0.00071158 0.00020381 1.13935e-06
0.00020381 8.43831e-06 2.10894e-07
1.13935e-06 2.10894e-07 -0.00018493
0.000584916 0.000221366 -2.66629e-05
0.000221366 -9.24408e-06 -1.80339e-05
-2.66629e-05 -1.80339e-05 -0.000121916
0.000373505 0.000167819 3.22629e-06
0.000167819 -0.000115805 2.50175e-06
3.22629e-06 2.50175e-06 -0.000322187
0.000581948 0.000129495 -6.55326e-07
0.000129495 2.88146e-06 -6.82383e-07
-6.55326e-07 -6.82383e-07 -8.65594e-05
0.00563702 -0.000152295 -0.000194782
-0.000152295 0.00321923 -1.83119e-05
-0.000194782 -1.83119e-05 0.0031977
0.000342774 5.31809e-05 1.19738e-05
5.31809e-05 -0.000118701 1.58982e-05
1.19738e-05 1.58982e-05 -0.000186558
0.00442359 -0.000182367 -1.07191e-05
-0.000182367 0.00246776 9.86956e-07
-1.07191e-05 9.86956e-07 0.00244778
0.00370741 -0.000170012 8.5454e-05
-0.000170012 0.00201306 5.42251e-06
8.5454e-05 5.42251e-06 0.00199837
0.00216246 0.000201291 -4.34058e-06
0.000201291 -0.000113069 -4.635e-07
-4.34058e-06 -4.635e-07 -4.13855e-05
0.00209942 7.81526e-05 2.43861e-05
7.81526e-05 3.56571e-05 -2.882e-06
2.43861e-05 -2.882e-06 0.000201494
0.00535656 0.000195459 -0.000109367
0.000195459 0.00058794 -9.72536e-06
-0.000109367 -9.72536e-06 0.00111464
0.00203719 0.000467888 -4.75451e-06
0.000467888 0.000108297 1.42701e-06
-4.75451e-06 1.42701e-06 -7.09241e-05
0.00210173 0.000639752 -3.12832e-06
0.000639752 0.00030592 -1.80137e-07
-3.12832e-06 -1.80137e-07 4.15124e-05
0.00160048 0.000650762 -5.65337e-06
0.000650762 0.000139806 -8.87247e-06
-5.65337e-06 -8.87247e-06 -0.000155691
0.0022124 0.000512229 3.09164e-06
0.000512229 0.000272807 1.40322e-06
3.09164e-06 1.40322e-06 6.11221e-05
0.00197482 0.000602816 1.09016e-06
0.000602816 0.000257258 -3.70668e-06
1.09016e-06 -3.70668e-06 -1.93196e-05
0.00231884 0.000381543 -3.45258e-07
0.000381543 8.70822e-05 3.53813e-07
-3.45258e-07 3.53813e-07 3.0618e-05
0.00193108 0.000544391 -3.1601e-07
0.000544391 4.72177e-05 5.40248e-07
-3.1601e-07 5.40248e-07 -0.000148886
0.00269857 0.000753448 -3.46054e-06
0.000753448 0.000645597 -1.34474e-06
-3.46054e-06 -1.34474e-06 0.000361925
0.00201997 0.00038794 -2.91445e-07
0.00038794 -7.12287e-05 -5.22691e-07
-2.91445e-07 -5.22691e-07 -0.000115734
0.00214864 0.000689463 1.21096e-05
0.000689463 0.000155353 1.60826e-06
1.21096e-05 1.60826e-06 -6.02555e-05
0.000663436 0.000346151 -3.85839e-05
0.000346151 -0.00053557 -1.71642e-05
-3.85839e-05 -1.71642e-05 -0.000538872
0.00226116 7.57072e-05 3.97834e-07
7.57072e-05 -1.218e-05 4.07214e-07
3.97834e-07 4.07214e-07 3.47799e-05
0.00220506 8.09836e-05 -2.00223e-06
8.09836e-05 -4.18007e-05 2.58771e-07
-2.00223e-06 2.58771e-07 1.56289e-05
0.00330915 -6.37988e-05 -4.15658e-05
-6.37988e-05 0.0009748 2.21911e-06
-4.15658e-05 2.21911e-06 0.00102108
0.0022498 -0.000220033 -1.59518e-05
-0.000220033 -7.10615e-05 2.37026e-06
-1.59518e-05 2.37026e-06 5.10476e-05
0.00232882 -4.12948e-06 -4.20953e-06
-4.12948e-06 -2.02831e-05 -3.07907e-06
-4.20953e-06 -3.07907e-06 1.69985e-05
0.00224121 -7.99428e-05 -5.37026e-07
-7.99428e-05 -6.73612e-05 -7.81566e-08
-5.37026e-07 -7.81566e-08 -7.67941e-06
0.00202184 -6.58362e-05 -3.08022e-07
-6.58362e-05 -1.30881e-05 3.20069e-07
-3.08022e-07 3.20069e-07 -2.76746e-06
0.00215761 -0.000257246 -2.52725e-07
-0.000257246 -5.93927e-05 6.58577e-07
-2.52725e-07 6.58577e-07 -1.95104e-05
0.00209223 -0.000213938 -1.66244e-07
-0.000213938 -1.93337e-05 -2.3825e-08
-1.66244e-07 -2.3825e-08 -8.82432e-06
0.00203966 -0.000182372 -1.66859e-06
-0.000182372 5.77344e-05 -2.95156e-08
-1.66859e-06 -2.95156e-08 1.78969e-05
0.00206617 -0.00030649 1.67028e-06
-0.00030649 4.16606e-05 6.75424e-09
1.67028e-06 6.75424e-09 -1.79476e-06
0.00199828 -0.000264291 3.31834e-07
-0.000264291 6.85743e-05 -6.30314e-08
3.31834e-07 -6.30314e-08 -7.92864e-06
0.0019146 -0.000240931 -8.67867e-07
-0.000240931 7.99418e-05 -7.91609e-07
-8.67867e-07 -7.91609e-07 -2.81353e-05
0.00190579 -0.000329843 1.9452e-06
-0.000329843 7.09156e-05 -7.16337e-07
1.9452e-06 -7.16337e-07 -4.49774e-05
0.00195922 -0.000307 -2.94193e-07
-0.000307 0.000148904 -1.71116e-08
-2.94193e-07 -1.71116e-08 1.24169e-05
0.00171354 -0.000249842 -2.11836e-06
-0.000249842 0.000120922 7.12999e-08
-2.11836e-06 7.12999e-08 -4.52091e-05
0.00196362 -0.000357205 4.08967e-07
-0.000357205 0.000200389 1.07918e-06
4.08967e-07 1.07918e-06 3.51947e-05
0.00169623 -0.000291831 -3.45766e-07
-0.000291831 0.000143875 3.74805e-08
-3.45766e-07 3.74805e-08 -4.17275e-05
0.00101372 -0.000173421 -1.38886e-05
-0.000173421 -4.13027e-05 5.00245e-06
-1.38886e-05 5.00245e-06 -0.000210169
0.00168027 -0.000322911 4.18557e-06
-0.000322911 0.000172863 -5.59747e-07
4.18557e-06 -5.59747e-07 -3.10632e-05
0.00104449 -0.000195592 -6.05759e-08
-0.000195592 -9.50123e-06 1.62441e-07
-6.05759e-08 1.62441e-07 -0.000184995
0.00267991 -0.000161628 -5.20575e-05
-0.000161628 0.00121834 1.05059e-05
-5.20575e-05 1.05059e-05 0.00113075
0.00105846 -0.000219047 1.44654e-05
-0.000219047 1.68354e-05 -6.41602e-06
1.44654e-05 -6.41602e-06 -0.000167493
0.00280046 -0.000203307 4.56157e-05
-0.000203307 0.00130239 -6.81952e-06
4.56157e-05 -6.81952e-06 0.00121382
0.00208088 -0.000122907 -0.000235711
-0.000122907 0.000942599 3.50465e-05
-0.000235711 3.50465e-05 0.000921807
0.00420397 -8.79255e-05 -0.000231167
-8.79255e-05 0.00226515 2.15248e-05
-0.000231167 2.15248e-05 0.00225751
0.00288061 -0.000259742 0.000147916
-0.000259742 0.00136645 -2.31408e-05
0.000147916 -2.31408e-05 0.00127778
0.00662195 -1.31836e-05 0.000264455
-1.31836e-05 0.00376595 -2.69216e-05
0.000264455 -2.69216e-05 0.00376587
0.00229217 0.000395614 -1.84285e-06
0.000395614 0.000282272 -6.38953e-08
-1.84285e-06 -6.38953e-08 0.000142582
0.00180592 0.000393178 3.02843e-06
0.000393178 0.000102303 1.80208e-06
3.02843e-06 1.80208e-06 -9.05344e-05
0.00208108 0.000387138 5.54759e-07
0.000387138 0.000163384 -1.79356e-06
5.54759e-07 -1.79356e-06 7.76554e-06
0.00165599 0.000401372 -4.54702e-06
0.000401372 0.000189941 1.40526e-06
-4.54702e-06 1.40526e-06 -5.05904e-05
0.00206586 0.000517681 6.70593e-07
0.000517681 0.000294865 3.66024e-07
6.70593e-07 3.66024e-07 4.98364e-05
0.00224482 0.000582375 1.44647e-06
0.000582375 0.000519467 -3.61197e-06
1.44647e-06 -3.61197e-06 0.000228082
0.00147795 0.000412402 1.89604e-07
0.000412402 0.000182688 4.40252e-07
1.89604e-07 4.40252e-07 -8.13311e-05
0.000942704 0.000246067 -1.39282e-05
0.000246067 -2.50957e-06 -5.48518e-06
-1.39282e-05 -5.48518e-06 -0.000198524
0.00131471 0.000380335 7.90542e-06
0.000380335 0.000176101 1.25907e-06
7.90542e-06 1.25907e-06 -9.20185e-05
0.000775843 0.000215887 -5.30977e-07
0.000215887 -2.43369e-05 -1.17621e-07
-5.30977e-07 -1.17621e-07 -0.00021351
0.000455179 0.000238191 -2.56957e-05
0.000238191 -0.000102447 -1.84947e-05
-2.56957e-05 -1.84947e-05 -0.000225142
0.00036908 0.000182988 8.30486e-06
0.000182988 -0.000203942 2.71898e-06
8.30486e-06 2.71898e-06 -0.000393239
0.000379527 0.000187227 2.64537e-06
0.000187227 -0.000138627 4.12984e-07
2.64537e-06 4.12984e-07 -0.000244052
0.0063496 -9.7145e-05 -0.000229052
-9.7145e-05 0.00364036 -2.3059e-05
-0.000229052 -2.3059e-05 0.00362294
0.000346158 9.62702e-05 1.84095e-05
9.62702e-05 -0.000140009 1.60053e-05
1.84095e-05 1.60053e-05 -0.000223565
0.00529724 -0.00017406 -3.20861e-06
-0.00017406 0.00300347 -8.08604e-07
-3.20861e-06 -8.08604e-07 0.00298337
0.00423849 -0.000200645 0.000101557
-0.000200645 0.00235852 7.11388e-06
0.000101557 7.11388e-06 0.0023339
0.00230032 0.000231654 -2.86517e-07
0.000231654 5.43963e-06 4.2961e-07
-2.86517e-07 4.2961e-07 4.15741e-05
0.00210404 0.000207053 1.3753e-06
0.000207053 -0.000136776 9.71231e-08
1.3753e-06 9.71231e-08 -6.65678e-05
0.00290517 4.85013e-05 -8.09605e-05
4.85013e-05 0.000426843 -1.19253e-05
-8.09605e-05 -1.19253e-05 0.000599117
0.00203475 0.000334082 -3.07176e-07
0.000334082 2.1603e-05 2.01215e-07
-3.07176e-07 2.01215e-07 -7.26246e-05
0.0020377 0.000465464 -5.01247e-07
0.000465464 0.000130912 4.36218e-07
-5.01247e-07 4.36218e-07 -4.79401e-05
0.00160265 0.000584659 6.23729e-06
0.000584659 4.25481e-05 -1.91705e-06
6.23729e-06 -1.91705e-06 -0.000213307
0.00234928 0.000507043 -1.61467e-08
0.000507043 0.000374159 -3.07252e-06
-1.61467e-08 -3.07252e-06 0.000165541
0.0022548 0.000368521 -9.03072e-07
0.000368521 6.0348e-05 3.29865e-09
-9.03072e-07 3.29865e-09 6.39274e-06
0.00194724 0.000548685 -1.40253e-06
0.000548685 8.03903e-05 1.07529e-08
-1.40253e-06 1.07529e-08 -0.000116878
0.00194795 0.000377873 1.09206e-05
0.000377873 -7.59648e-05 -3.53056e-07
1.09206e-05 -3.53056e-07 -0.000119175
0.00208994 6.10729e-05 1.33087e-06
6.10729e-05 -1.0385e-06 4.69101e-07
1.33087e-06 4.69101e-07 1.71709e-05
0.00219735 7.19446e-05 9.3413e-08
7.19446e-05 -3.99075e-05 -1.46196e-09
9.3413e-08 -1.46196e-09 5.1399e-06
0.0023563 9.68769e-05 -8.08169e-06
9.68769e-05 7.18424e-05 -5.27891e-07
-8.08169e-06 -5.27891e-07 0.00012273
0.00195932 -1.25261e-05 -3.85258e-06
-1.25261e-05 1.7044e-05 4.98667e-07
-3.85258e-06 4.98667e-07 8.22881e-06
0.00220493 -9.18134e-05 5.8559e-07
-9.18134e-05 -0.000106549 -7.35551e-07
5.8559e-07 -7.35551e-07 -3.90626e-05
0.00204785 -6.86771e-05 -7.90644e-07
-6.86771e-05 -2.04305e-06 3.04008e-07
-7.90644e-07 3.04008e-07 9.17999e-06
0.0019522 -0.000104166 -3.89037e-06
-0.000104166 4.23802e-06 3.61797e-07
-3.89037e-06 3.61797e-07 -2.1234e-05
0.00204617 -0.000217539 7.85119e-07
-0.000217539 -3.9225e-05 2.06446e-07
7.85119e-07 2.06446e-07 -3.4584e-05
0.00202889 -0.000180778 1.48232e-06
-0.000180778 5.09496e-05 -3.84966e-07
1.48232e-06 -3.84966e-07 1.14817e-05
0.00197576 -0.000172016 1.15285e-06
-0.000172016 9.82768e-05 -1.09421e-06
1.15285e-06 -1.09421e-06 1.33938e-05
0.00195652 -0.000260935 2.45065e-06
-0.000260935 3.92244e-05 -7.7052e-07
2.45065e-06 -7.7052e-07 -3.71911e-05
0.00196945 -0.000242054 -2.20259e-07
-0.000242054 0.000112469 -1.77977e-07
-2.20259e-07 -1.77977e-07 4.4091e-06
0.00173272 -0.000197434 -1.32296e-06
-0.000197434 0.000110903 -2.2884e-07
-1.32296e-06 -2.2884e-07 -3.53792e-05
0.00202104 -0.000310199 7.8183e-07
-0.000310199 0.000186941 7.87451e-07
7.8183e-07 7.87451e-07 5.00597e-05
0.00172928 -0.000250126 -2.82257e-07
-0.000250126 0.000129483 9.37158e-08
-2.82257e-07 9.37158e-08 -3.62016e-05
0.00103644 -0.000149623 -1.31711e-05
-0.000149623 -4.19668e-05 3.83807e-06
-1.31711e-05 3.83807e-06 -0.000202799
0.00173192 -0.00029395 2.3951e-06
-0.00029395 0.000164789 -3.06686e-07
2.3951e-06 -3.06686e-07 -2.0571e-05
0.00106382 -0.000173703 -1.82146e-07
-0.000173703 -1.4791e-05 2.65005e-07
-1.82146e-07 2.65005e-07 -0.000182625
0.00266292 -0.000158994 -5.95854e-05
-0.000158994 0.0012055 1.02572e-05
-5.95854e-05 1.02572e-05 0.00112125
0.00109632 -0.000197079 1.44987e-05
-0.000197079 1.7657e-05 -5.73795e-06
1.44987e-05 -5.73795e-06 -0.000157072
0.00275881 -0.000185385 4.17293e-05
-0.000185385 0.00126699 -5.42403e-06
4.17293e-05 -5.42403e-06 0.00118578
0.00211485 -0.000105297 -0.000230254
-0.000105297 0.000956135 3.0799e-05
-0.000230254 3.0799e-05 0.000937705
0.00291312 -0.000212186 0.000143701
-0.000212186 0.00136745 -2.43168e-05
0.000143701 -2.43168e-05 0.00128752
0.00176951 -6.1199e-05 -9.7847e-05
-6.1199e-05 0.000752818 1.35846e-05
-9.7847e-05 1.35846e-05 0.000720337
0.00625427 5.45953e-05 7.4425e-05
5.45953e-05 0.00352104 -3.27382e-06
7.4425e-05 -3.27382e-06 0.00350114
0.0020823 0.000334799 1.0445e-06
0.000334799 0.000130728 4.97192e-07
1.0445e-06 4.97192e-07 1.10029e-05
0.00211342 0.000369615 3.64534e-07
0.000369615 0.000240193 -1.03924e-07
3.64534e-07 -1.03924e-07 7.7263e-05
0.00218536 0.000392439 -3.91706e-06
0.000392439 0.000206256 -1.17134e-07
-3.91706e-06 -1.17134e-07 6.37481e-05
0.0018169 0.000358797 -1.84396e-06
0.000358797 0.000226297 6.68092e-07
-1.84396e-06 6.68092e-07 1.48762e-05
0.00180515 0.000399131 -6.1372e-07
0.000399131 8.48553e-05 -1.92678e-06
-6.1372e-07 -1.92678e-06 -0.000104607
0.00206291 0.000378216 -4.51775e-06
0.000378216 0.000157476 -5.60197e-06
-4.51775e-06 -5.60197e-06 8.82776e-06
0.00106881 0.000245598 -1.50613e-05
0.000245598 1.21686e-05 -5.14032e-06
-1.50613e-05 -5.14032e-06 -0.000177972
0.00160962 0.000398814 6.4543e-07
0.000398814 0.000160565 3.84259e-07
6.4543e-07 3.84259e-07 -8.04931e-05
0.00214414 0.000523222 2.23822e-06
0.000523222 0.000328349 -3.57923e-06
2.23822e-06 -3.57923e-06 8.27184e-05
0.00144315 0.000412092 6.95743e-06
0.000412092 0.000155395 2.16556e-07
6.95743e-06 2.16556e-07 -0.000110025
0.000895348 0.000237939 -8.76726e-07
0.000237939 -2.37155e-05 2.85843e-08
-8.76726e-07 2.85843e-08 -0.000217256
0.000401086 0.000234426 -2.50229e-05
0.000234426 -0.00014241 -1.73559e-05
-2.50229e-05 -1.73559e-05 -0.000268167
0.000678975 0.000206271 1.18378e-05
0.000206271 -8.1824e-05 5.79663e-06
1.18378e-05 5.79663e-06 -0.000267713
0.000416975 0.000225463 2.15642e-06
0.000225463 -0.000119895 6.62641e-07
2.15642e-06 6.62641e-07 -0.000242978
0.00661567 -9.92467e-06 -0.000251695
-9.92467e-06 0.00378814 -2.90202e-05
-0.000251695 -2.90202e-05 0.0037753
0.000452508 0.00017022 2.36611e-05
0.00017022 -9.75016e-05 1.81166e-05
2.36611e-05 1.81166e-05 -0.000200313
0.00611543 -0.000132819 3.6189e-06
-0.000132819 0.00349301 -1.12303e-06
3.6189e-06 -1.12303e-06 0.0034769
0.00495137 -0.000219868 0.000129174
-0.000219868 0.00280536 8.99444e-06
0.000129174 8.99444e-06 0.00277407
0.00207391 0.000181817 -9.47398e-07
0.000181817 1.58258e-05 -1.40339e-07
-9.47398e-07 -1.40339e-07 4.17446e-06
0.00226098 0.000233087 9.08979e-08
0.000233087 -2.61906e-05 5.82807e-07
9.08979e-08 5.82807e-07 1.26821e-05
0.00211282 0.000212641 3.78041e-06
0.000212641 -0.00013644 4.57711e-08
3.78041e-06 4.57711e-08 -6.7033e-05
0.00208545 0.000332458 -2.7708e-07
0.000332458 5.81818e-05 9.0413e-08
-2.7708e-07 9.0413e-08 -3.17374e-05
0.00202377 0.000461503 1.56878e-06
0.000461503 0.000147197 -6.46919e-07
1.56878e-06 -6.46919e-07 -3.10644e-05
0.00221825 0.000357499 1.63164e-06
0.000357499 4.46459e-05 -4.32681e-07
1.63164e-06 -4.32681e-07 -7.03173e-06
0.00198646 5.96891e-05 -1.79774e-06
5.96891e-05 6.23105e-06 3.3051e-07
-1.79774e-06 3.3051e-07 2.30564e-06
0.00207343 5.62568e-05 3.45968e-07
5.62568e-05 -7.52571e-06 -9.90322e-08
3.45968e-07 -9.90322e-08 8.53963e-06
0.00213487 6.83191e-05 -3.91239e-07
6.83191e-05 -6.83114e-05 -4.15669e-07
-3.91239e-07 -4.15669e-07 -2.44446e-05
0.00195339 -1.25207e-05 -1.12046e-06
-1.25207e-05 1.02736e-05 2.99425e-08
-1.12046e-06 2.99425e-08 1.00177e-06
0.00193646 -3.96297e-05 -6.14864e-06
-3.96297e-05 2.28799e-05 6.21456e-07
-6.14864e-06 6.21456e-07 -7.47398e-06
0.00207582 -7.12588e-05 4.97077e-07
-7.12588e-05 9.76454e-06 -5.44095e-08
4.97077e-07 -5.44095e-08 2.22005e-05
0.00196674 -0.000103827 -1.52683e-06
-0.000103827 1.89255e-05 2.95906e-07
-1.52683e-06 2.95906e-07 -9.60929e-06
0.00197405 -0.000110774 -3.91115e-06
-0.000110774 8.92191e-05 3.21113e-07
-3.91115e-06 3.21113e-07 2.40056e-05
0.00202161 -0.000179781 4.45674e-06
-0.000179781 4.69133e-05 -7.69947e-07
4.45674e-06 -7.69947e-07 7.68591e-06
0.0019446 -0.00017254 2.73148e-06
-0.00017254 7.64702e-05 -8.66986e-07
2.73148e-06 -8.66986e-07 -8.3785e-06
0.00170452 -0.000142368 1.5864e-06
-0.000142368 8.13799e-05 -5.59263e-07
1.5864e-06 -5.59263e-07 -4.92565e-05
0.00201434 -0.000244553 1.29916e-06
-0.000244553 0.000137725 2.75137e-07
1.29916e-06 2.75137e-07 2.93657e-05
0.0017226 -0.000197703 -2.25459e-07
-0.000197703 0.000101791 -8.11105e-08
-2.25459e-07 -8.11105e-08 -4.43252e-05
0.00104847 -0.000119954 -1.25564e-05
-0.000119954 -4.45292e-05 2.90131e-06
-1.25564e-05 2.90131e-06 -0.000196258
0.00174711 -0.000250703 1.31745e-06
-0.000250703 0.000138106 9.87778e-08
1.31745e-06 9.87778e-08 -2.71815e-05
0.00107292 -0.000148365 -3.19689e-07
-0.000148365 -2.19293e-05 2.26658e-07
-3.19689e-07 2.26658e-07 -0.000181646
0.00259922 -0.000162652 -6.2142e-05
-0.000162652 0.00116634 9.00807e-06
-6.2142e-05 9.00807e-06 0.00108392
0.00111334 -0.000173974 1.3935e-05
-0.000173974 1.11265e-05 -4.60089e-06
1.3935e-05 -4.60089e-06 -0.000155644
0.00272167 -0.000160796 4.00439e-05
-0.000160796 0.00123725 -4.11503e-06
4.00439e-05 -4.11503e-06 0.00116072
0.00213462 -8.83141e-05 -0.000228863
-8.83141e-05 0.00096151 2.59925e-05
-0.000228863 2.59925e-05 0.000944472
0.00283744 -0.000178981 0.000140695
-0.000178981 0.00130859 -2.07612e-05
0.000140695 -2.07612e-05 0.00123688
0.00176528 -6.6765e-05 -8.86961e-05
-6.6765e-05 0.000744938 1.09851e-05
-8.86961e-05 1.09851e-05 0.000715168
0.00149783 -5.87133e-05 5.34088e-05
-5.87133e-05 0.000594381 -8.22869e-06
5.34088e-05 -8.22869e-06 0.00054801
0.00201894 0.000211741 -4.14915e-07
0.000211741 6.20759e-05 6.45817e-07
-4.14915e-07 6.45817e-07 -4.79247e-06
0.0020497 0.000307151 -8.40915e-07
0.000307151 0.000167668 7.01957e-07
-8.40915e-07 7.01957e-07 2.92448e-05
0.00204269 0.000335284 -4.64143e-08
0.000335284 8.73893e-05 1.5888e-07
-4.64143e-08 1.5888e-07 -2.67353e-05
0.00192453 0.000327598 -7.10784e-07
0.000327598 0.000243494 6.26088e-07
-7.10784e-07 6.26088e-07 5.8841e-05
0.00203831 0.000363235 -7.32961e-07
0.000363235 0.000202676 -3.5768e-07
-7.32961e-07 -3.5768e-07 3.83411e-05
0.00207138 0.000389307 -9.74222e-09
0.000389307 0.000125777 -3.34265e-07
-9.74222e-09 -3.34265e-07 -1.96512e-05
0.00113687 0.000224427 -1.55029e-05
0.000224427 2.60235e-05 -4.7803e-06
-1.55029e-05 -4.7803e-06 -0.000153388
0.00174085 0.000358444 2.57604e-06
0.000358444 0.000171896 1.03098e-07
2.57604e-06 1.03098e-07 -3.70062e-05
0.00181626 0.000405962 -1.59774e-06
0.000405962 7.51364e-05 -3.83058e-06
-1.59774e-06 -3.83058e-06 -0.000111077
0.000331381 0.000185105 -2.234e-05
0.000185105 -0.000207031 -1.43472e-05
-2.234e-05 -1.43472e-05 -0.000323339
0.00100694 0.000239158 -5.34176e-07
0.000239158 -1.99271e-05 1.18637e-07
-5.34176e-07 1.18637e-07 -0.000208943
0.00156588 0.000396808 6.38885e-06
0.000396808 0.000131994 -5.48171e-07
6.38885e-06 -5.48171e-07 -0.000109742
0.00086835 0.000231762 1.39508e-05
0.000231762 -3.29611e-05 6.25485e-06
1.39508e-05 6.25485e-06 -0.000224419
0.000407858 0.000219485 7.96704e-07
0.000219485 -0.000135568 9.0872e-07
7.96704e-07 9.0872e-07 -0.000262582
0.0067646 9.06743e-05 -0.00026666
9.06743e-05 0.00386091 -3.31824e-05
-0.00026666 -3.31824e-05 0.00385269
0.000377617 0.000207905 2.24323e-05
0.000207905 -0.000141234 1.73209e-05
2.24323e-05 1.73209e-05 -0.000262616
0.00650984 -3.91428e-05 7.20483e-06
-3.91428e-05 0.00371079 -3.00448e-07
7.20483e-06 -3.00448e-07 0.00370496
0.00584352 -0.000164366 0.000181183
-0.000164366 0.00332365 1.01097e-05
0.000181183 1.01097e-05 0.00330646
0.00201344 0.000120553 -4.12834e-06
0.000120553 4.55301e-05 -9.9155e-07
-4.12834e-06 -9.9155e-07 2.76978e-05
0.00207121 0.000185091 9.27871e-07
0.000185091 1.36739e-05 3.73222e-07
9.27871e-07 3.73222e-07 1.31138e-06
0.00220935 0.00023473 -2.44104e-07
0.00023473 -6.21968e-05 -7.4995e-07
-2.44104e-07 -7.4995e-07 -2.11009e-05
0.00214102 0.000330119 2.67598e-06
0.000330119 9.79941e-05 -1.01275e-07
2.67598e-06 -1.01275e-07 1.25112e-05
0.00191181 1.1023e-05 -5.27731e-06
1.1023e-05 2.86069e-05 6.00941e-07
-5.27731e-06 6.00941e-07 -1.11418e-05
0.00196401 5.00773e-05 7.82414e-08
5.00773e-05 -6.2393e-06 7.53906e-08
7.82414e-08 7.53906e-08 -1.16548e-05
0.00205664 5.13569e-05 -6.27961e-07
5.13569e-05 -1.32074e-05 -3.10489e-07
-6.27961e-07 -3.10489e-07 -2.5382e-08
0.00194507 -1.11576e-05 1.26382e-06
-1.11576e-05 2.31821e-06 -7.21701e-07
1.26382e-06 -7.21701e-07 -7.65577e-06
0.00193702 -3.43301e-05 -9.55765e-07
-3.43301e-05 2.22336e-05 -1.14631e-07
-9.55765e-07 -1.14631e-07 -7.14584e-06
0.00189796 -4.72752e-05 -2.32402e-06
-4.72752e-05 4.95385e-05 2.09528e-07
-2.32402e-06 2.09528e-07 -1.68246e-05
0.0019788 -0.000103645 3.1824e-06
-0.000103645 3.17444e-05 3.9909e-08
3.1824e-06 3.9909e-08 -2.97056e-08
0.00192119 -0.00011022 -1.89044e-06
-0.00011022 6.1432e-05 5.85669e-07
-1.89044e-06 5.85669e-07 -1.06572e-05
0.00179746 -9.10921e-05 -6.54486e-07
-9.10921e-05 0.000131011 -1.8347e-07
-6.54486e-07 -1.8347e-07 1.93633e-05
0.00192234 -0.000171884 4.99489e-06
-0.000171884 6.00513e-05 -7.21044e-07
4.99489e-06 -7.21044e-07 -2.44916e-05
0.00171763 -0.000140526 1.95046e-06
-0.000140526 8.77142e-05 -5.10135e-07
1.95046e-06 -5.10135e-07 -4.22632e-05
0.00103955 -8.72088e-05 -1.21854e-05
-8.72088e-05 -5.45287e-05 2.08153e-06
-1.21854e-05 2.08153e-06 -0.000197518
0.00172545 -0.000196022 7.66104e-07
-0.000196022 0.000102337 4.35438e-08
7.66104e-07 4.35438e-08 -4.31685e-05
0.00105799 -0.000118867 -1.296e-07
-0.000118867 -3.78894e-05 1.45991e-07
-1.296e-07 1.45991e-07 -0.000188936
0.000459706 -8.80626e-05 -1.99552e-05
-8.80626e-05 -0.000173036 5.78815e-06
-1.99552e-05 5.78815e-06 -0.000262901
0.00110599 -0.000146847 1.3032e-05
-0.000146847 -3.54467e-06 -3.48792e-06
1.3032e-05 -3.48792e-06 -0.000162093
0.00157966 -0.000105886 5.83111e-05
-0.000105886 0.000523243 -4.29758e-06
5.83111e-05 -4.29758e-06 0.000444009
0.00626748 -0.00015066 -0.000301582
-0.00015066 0.00352775 2.14854e-05
-0.000301582 2.14854e-05 0.0035424
0.00279609 -0.000144638 0.000138431
-0.000144638 0.0012735 -1.65119e-05
0.000138431 -1.65119e-05 0.00120709
0.0017718 -6.84142e-05 -8.01643e-05
-6.84142e-05 0.000747276 7.19993e-06
-8.01643e-05 7.19993e-06 0.00071755
0.00141506 -8.79648e-05 6.50168e-05
-8.79648e-05 0.000547273 -9.78562e-06
6.50168e-05 -9.78562e-06 0.000499796
0.00201814 0.000157508 -2.8048e-06
0.000157508 8.75453e-05 -3.02951e-07
-2.8048e-06 -3.02951e-07 3.46527e-05
0.0019918 0.000227414 -1.25047e-07
0.000227414 0.000116317 1.46656e-06
-1.25047e-07 1.46656e-06 8.38106e-06
0.00200556 0.000207562 8.12615e-07
0.000207562 5.92239e-05 4.49309e-07
8.12615e-07 4.49309e-07 -1.09636e-05
0.00183881 0.000264227 -6.99236e-07
0.000264227 0.000161936 8.83717e-07
-6.99236e-07 8.83717e-07 3.08878e-06
0.00197188 0.000300974 8.12908e-07
0.000300974 0.000122748 8.64758e-08
8.12908e-07 8.64758e-08 -1.5151e-05
0.00200751 0.000336561 5.07758e-07
0.000336561 4.63585e-05 2.15278e-07
5.07758e-07 2.15278e-07 -6.22371e-05
0.00107084 0.000193878 -1.60004e-05
0.000193878 -3.87716e-05 -3.64527e-06
-1.60004e-05 -3.64527e-06 -0.000205775
0.00192111 0.000326281 2.4553e-06
0.000326281 0.000240814 5.83632e-07
2.4553e-06 5.83632e-07 5.66983e-05
0.00195217 0.000355912 -1.50214e-06
0.000355912 0.000158916 -1.37251e-06
-1.50214e-06 -1.37251e-06 -6.70779e-06
0.000340497 0.000131861 -1.94988e-05
0.000131861 -0.000225736 -1.06682e-05
-1.94988e-05 -1.06682e-05 -0.000329333
0.00100637 0.000217916 4.08467e-07
0.000217916 -5.55027e-05 3.58272e-07
4.08467e-07 3.58272e-07 -0.000234025
0.00165376 0.000357235 6.88083e-06
0.000357235 0.000110387 -7.81325e-07
6.88083e-06 -7.81325e-07 -9.5807e-05
0.00670204 0.000170976 -0.000276966
0.000170976 0.00380416 -3.29107e-05
-0.000276966 -3.29107e-05 0.00380259
0.000366772 0.000177708 3.4908e-07
0.000177708 -0.000186365 8.0305e-07
3.4908e-07 8.0305e-07 -0.000303608
0.000940133 0.000232487 1.51266e-05
0.000232487 -5.45409e-05 5.75475e-06
1.51266e-05 5.75475e-06 -0.0002424
0.000368049 0.000204345 2.12141e-05
0.000204345 -0.000156753 1.71642e-05
2.12141e-05 1.71642e-05 -0.000284799
0.00663769 8.01271e-05 9.94532e-06
8.01271e-05 0.00377537 6.31805e-07
9.94532e-06 6.31805e-07 0.00377406
0.00640008 -7.06698e-05 0.000235669
-7.06698e-05 0.0036344 1.43541e-05
0.000235669 1.43541e-05 0.00363307
0.00194313 6.55389e-05 -7.63917e-06
6.55389e-05 4.71867e-05 1.40868e-07
-7.63917e-06 1.40868e-07 3.49808e-06
0.00199866 0.000117545 2.44543e-07
0.000117545 3.49177e-05 4.11209e-08
2.44543e-07 4.11209e-08 1.67972e-05
0.00206867 0.000188463 1.30668e-06
0.000188463 1.13493e-05 3.83865e-07
1.30668e-06 3.83865e-07 -1.20428e-06
0.00185896 3.86458e-06 -2.25784e-06
3.86458e-06 3.62742e-05 9.91317e-08
-2.25784e-06 9.91317e-08 -3.51502e-05
0.00192491 1.60645e-05 1.19732e-07
1.60645e-05 3.55368e-05 7.20288e-08
1.19732e-07 7.20288e-08 -1.17273e-06
0.0019448 3.93625e-05 1.20743e-06
3.93625e-05 -1.69336e-05 -3.59503e-07
1.20743e-06 -3.59503e-07 -2.36784e-05
0.00193883 -2.98975e-05 3.27349e-06
-2.98975e-05 2.20463e-05 -4.70144e-07
3.27349e-06 -4.70144e-07 -6.02896e-06
0.00188193 -4.5553e-05 -1.20818e-06
-4.5553e-05 3.98178e-05 2.74269e-07
-1.20818e-06 2.74269e-07 -2.56579e-05
0.00187657 -4.0474e-05 1.84933e-06
-4.0474e-05 0.000192722 -5.95848e-07
1.84933e-06 -5.95848e-07 8.52589e-05
0.0018638 -0.000109367 -8.08967e-07
-0.000109367 3.12294e-05 7.04524e-07
-8.08967e-07 7.04524e-07 -4.75694e-05
0.001791 -9.20753e-05 5.11697e-07
-9.20753e-05 0.000131148 2.1568e-08
5.11697e-07 2.1568e-08 1.38532e-05
0.000978753 -5.00264e-05 -1.30288e-05
-5.00264e-05 -9.78853e-05 1.02442e-06
-1.30288e-05 1.02442e-06 -0.000230229
0.00171532 -0.000140546 2.05331e-06
-0.000140546 8.40555e-05 -4.4369e-07
2.05331e-06 -4.4369e-07 -4.56834e-05
0.00104808 -8.35707e-05 -6.47527e-08
-8.35707e-05 -4.92535e-05 1.60467e-07
-6.47527e-08 1.60467e-07 -0.000191469
0.000468195 -2.27238e-05 -1.85375e-05
-2.27238e-05 -0.000172199 3.52271e-06
-1.85375e-05 3.52271e-06 -0.000257374
0.00108845 -0.00011734 1.23336e-05
-0.00011734 -1.98002e-05 -2.62373e-06
1.23336e-05 -2.62373e-06 -0.000169962
0.000467117 -7.23016e-05 -2.33664e-07
-7.23016e-05 -0.000167109 4.12845e-07
-2.33664e-07 4.12845e-07 -0.000257817
0.00622211 -4.35063e-05 -0.000291729
-4.35063e-05 0.00349468 1.31852e-05
-0.000291729 1.31852e-05 0.00351345
0.000506502 -7.40921e-05 1.50754e-05
-7.40921e-05 -0.00014398 -7.64558e-06
1.50754e-05 -7.64558e-06 -0.000238609
0.00393817 -9.84104e-05 0.000130214
-9.84104e-05 0.00209068 -6.33643e-06
0.000130214 -6.33643e-06 0.00207492
0.00137997 -8.48682e-05 7.09701e-05
-8.48682e-05 0.000525826 -9.79626e-06
7.09701e-05 -9.79626e-06 0.000478366
0.00194499 0.000120796 -6.35256e-06
0.000120796 5.26556e-05 -3.47202e-07
-6.35256e-06 -3.47202e-07 -3.64916e-06
0.0019722 0.000165165 -4.31139e-07
0.000165165 0.000103755 1.94665e-06
-4.31139e-07 1.94665e-06 1.16706e-05
0.00198293 0.000152265 -7.06528e-07
0.000152265 6.31263e-05 -1.75256e-07
-7.06528e-07 -1.75256e-07 1.04975e-05
0.00176793 0.000198346 -1.54153e-07
0.000198346 0.000108435 8.91371e-07
-1.54153e-07 8.91371e-07 -3.60153e-05
0.0019972 0.000227345 3.87414e-07
0.000227345 0.000117352 1.98933e-07
3.87414e-07 1.98933e-07 8.08635e-06
0.00199661 0.000203222 2.32769e-06
0.000203222 5.92157e-05 2.23532e-07
2.32769e-06 2.23532e-07 -1.43477e-05
0.00105966 0.000158034 -1.4565e-05
0.000158034 -5.57789e-05 -2.66071e-06
-1.4565e-05 -2.66071e-06 -0.000210969
0.00183726 0.000262166 1.09111e-06
0.000262166 0.000167 5.32353e-07
1.09111e-06 5.32353e-07 4.53038e-06
0.00189143 0.000294613 -2.46025e-07
0.000294613 7.61058e-05 -9.01575e-07
-2.46025e-07 -9.01575e-07 -6.1214e-05
0.000369897 9.38437e-05 -1.81892e-05
9.38437e-05 -0.000224626 -7.57992e-06
-1.81892e-05 -7.57992e-06 -0.00031953
0.00099993 0.00018948 -1.52266e-06
0.00018948 -8.06493e-05 7.77023e-08
-1.52266e-06 7.77023e-08 -0.000247235
0.00192339 0.000325433 5.68172e-06
0.000325433 0.00024167 6.61756e-07
5.68172e-06 6.61756e-07 5.80025e-05
0.00654564 0.000233795 -0.000293653
0.000233795 0.00370472 -3.17586e-05
-0.000293653 -3.17586e-05 0.00370606
0.000378098 0.000130605 -4.61548e-08
0.000130605 -0.000204465 4.18404e-07
-4.61548e-08 4.18404e-07 -0.000308608
0.000883515 0.000212224 1.47901e-05
0.000212224 -0.000132671 4.73391e-06
1.47901e-05 4.73391e-06 -0.000310395
0.00664456 0.000187316 1.3716e-05
0.000187316 0.00377518 3.06182e-06
1.3716e-05 3.06182e-06 0.00377222
0.00038894 0.000168837 1.99366e-05
0.000168837 -0.000173854 1.42206e-05
1.99366e-05 1.42206e-05 -0.000291837
0.00651122 4.38861e-05 0.00025998
4.38861e-05 0.00368546 2.11298e-05
0.00025998 2.11298e-05 0.0036917
0.001862 4.68476e-05 -3.18958e-06
4.68476e-05 2.74612e-05 2.70774e-07
-3.18958e-06 2.70774e-07 -4.50176e-05
0.00192645 6.84878e-05 -7.48761e-07
6.84878e-05 4.47064e-05 -2.8747e-07
-7.48761e-07 -2.8747e-07 -2.57366e-07
0.00197907 0.000114562 3.73604e-06
0.000114562 2.18153e-05 5.55674e-07
3.73604e-06 5.55674e-07 3.28556e-06
0.00186383 -3.54645e-06 2.38626e-06
-3.54645e-06 0.000187433 -4.66134e-07
2.38626e-06 -4.66134e-07 8.20977e-05
0.00184617 4.58437e-06 -1.72662e-06
4.58437e-06 2.53797e-05 2.42475e-07
-1.72662e-06 2.42475e-07 -4.35406e-05
0.00193826 2.2435e-05 6.83955e-06
2.2435e-05 4.26836e-05 -2.74513e-07
6.83955e-06 -2.74513e-07 8.93265e-06
0.00186399 -4.41354e-05 -3.34735e-07
-4.41354e-05 2.91825e-05 4.44123e-07
-3.34735e-07 4.44123e-07 -3.56407e-05
0.00184856 -3.95359e-05 3.20737e-06
-3.95359e-05 0.000173717 -2.52863e-07
3.20737e-06 -2.52863e-07 6.64751e-05
0.00097778 -1.96228e-05 -1.27327e-05
-1.96228e-05 -9.31837e-05 3.15588e-07
-1.27327e-05 3.15588e-07 -0.000220149
0.00179127 -9.33895e-05 1.15454e-07
-9.33895e-05 0.00013547 2.05843e-07
1.15454e-07 2.05843e-07 1.2493e-05
0.00100945 -5.01105e-05 -9.59764e-07
-5.01105e-05 -7.73689e-05 2.2275e-08
-9.59764e-07 2.2275e-08 -0.000211182
0.000475382 -7.8844e-06 -1.88734e-05
-7.8844e-06 -0.000168731 2.14728e-06
-1.88734e-05 2.14728e-06 -0.000251034
0.00105791 -8.1204e-05 1.17938e-05
-8.1204e-05 -4.2479e-05 -1.78702e-06
1.17938e-05 -1.78702e-06 -0.000184071
0.000447607 -3.50166e-05 8.64653e-07
-3.50166e-05 -0.000185193 -1.63553e-07
8.64653e-07 -1.63553e-07 -0.000269541
0.00609785 -0.000140338 -0.000296596
-0.000140338 0.00343169 1.44248e-05
-0.000296596 1.44248e-05 0.00344526
0.000437919 -5.56133e-05 1.79689e-05
-5.56133e-05 -0.000185094 -4.48008e-06
1.79689e-05 -4.48008e-06 -0.000275366
0.00618027 -7.98372e-05 7.57683e-06
-7.98372e-05 0.00347121 -5.37526e-08
7.57683e-06 -5.37526e-08 0.00348966
0.00172435 -3.11725e-05 0.000230718
-3.11725e-05 0.000709141 -1.46644e-05
0.000230718 -1.46644e-05 0.000698729
0.00182955 0.000108676 -2.17942e-06
0.000108676 2.86741e-06 3.59238e-07
-2.17942e-06 3.59238e-07 -8.27717e-05
0.00195037 0.000124117 -3.00407e-06
0.000124117 4.89057e-05 -6.19929e-07
-3.00407e-06 -6.19929e-07 -4.16749e-06
0.00173365 0.000136262 8.24337e-07
0.000136262 8.39847e-05 1.17295e-06
8.24337e-07 1.17295e-06 -4.40931e-05
0.00197509 0.000164147 9.29223e-07
0.000164147 0.000104834 2.56529e-07
9.29223e-07 2.56529e-07 1.29524e-05
0.00194336 0.000147021 3.57462e-06
0.000147021 3.48829e-05 -1.83263e-07
3.57462e-06 -1.83263e-07 -1.73631e-05
0.00111758 0.000118584 -1.26741e-05
0.000118584 -1.30462e-05 -1.92684e-06
-1.26741e-05 -1.92684e-06 -0.000159649
0.00176555 0.000197129 1.68545e-07
0.000197129 0.000110357 7.52616e-08
1.68545e-07 7.52616e-08 -3.40958e-05
0.00199913 0.000227088 1.01849e-06
0.000227088 0.000116516 -1.25164e-06
1.01849e-06 -1.25164e-06 5.90595e-06
0.000414196 6.86334e-05 -1.78702e-05
6.86334e-05 -0.000205631 -5.4394e-06
-1.78702e-05 -5.4394e-06 -0.000295876
0.00104979 0.000157825 -1.4555e-06
0.000157825 -5.80541e-05 1.3274e-07
-1.4555e-06 1.3274e-07 -0.000214921
0.00184058 0.00026015 2.63912e-06
0.00026015 0.000175553 2.91581e-07
2.63912e-06 2.91581e-07 9.47992e-06
0.00640036 0.000255586 -0.000310023
0.000255586 0.00362407 -2.98143e-05
-0.000310023 -2.98143e-05 0.00362438
0.000416583 9.64929e-05 -1.0258e-07
9.64929e-05 -0.000197643 1.89813e-07
-1.0258e-07 1.89813e-07 -0.000293039
0.000930825 0.000185131 1.12054e-05
0.000185131 -0.000121793 3.56713e-06
1.12054e-05 3.56713e-06 -0.00028787
0.00654192 0.000256501 1.10118e-05
0.000256501 0.00371444 4.39474e-06
1.10118e-05 4.39474e-06 0.00371016
0.000424138 0.000127959 1.88082e-05
0.000127959 -0.000178529 1.08317e-05
1.88082e-05 1.08317e-05 -0.00028287
0.00662338 0.00018606 0.000288797
0.00018606 0.00375242 3.02357e-05
0.000288797 3.02357e-05 0.00375607
0.00181678 4.03054e-05 3.57692e-06
4.03054e-05 0.000155171 -1.13e-08
3.57692e-06 -1.13e-08 4.78806e-05
0.00185242 4.5494e-05 -2.74711e-06
4.5494e-05 2.64436e-05 -4.08413e-08
-2.74711e-06 -4.08413e-08 -4.73957e-05
0.0019124 7.09366e-05 5.39347e-06
7.09366e-05 4.37758e-05 -1.61191e-07
5.39347e-06 -1.61191e-07 -2.36998e-06
0.000970285 -8.76216e-06 -1.30307e-05
-8.76216e-06 -8.84875e-05 -1.32636e-07
-1.30307e-05 -1.32636e-07 -0.00021348
0.00184035 1.40548e-06 3.44723e-06
1.40548e-06 0.000172101 -1.20723e-07
3.44723e-06 -1.20723e-07 6.68418e-05
0.00183325 4.78729e-06 -5.69482e-07
4.78729e-06 1.43734e-05 3.17122e-07
-5.69482e-07 3.17122e-07 -5.19649e-05
0.00182485 -3.89e-05 4.38636e-06
-3.89e-05 0.000157492 1.67309e-07
4.38636e-06 1.67309e-07 5.04756e-05
0.000970967 -2.06321e-05 -6.16879e-07
-2.06321e-05 -9.90035e-05 5.79016e-09
-6.16879e-07 5.79016e-09 -0.000226247
0.000478665 -3.19564e-05 -1.93426e-05
-3.19564e-05 -0.000165591 1.02576e-06
-1.93426e-05 1.02576e-06 -0.000244881
0.00102054 -4.92355e-05 1.13362e-05
-4.92355e-05 -6.87415e-05 -1.28228e-06
1.13362e-05 -1.28228e-06 -0.000204049
0.000453787 3.4965e-06 3.59196e-07
3.4965e-06 -0.000182759 3.9861e-08
3.59196e-07 3.9861e-08 -0.000264018
0.00604762 -0.000112539 -0.000299652
-0.000112539 0.00339918 1.06251e-05
-0.000299652 1.06251e-05 0.00341576
0.000461686 -4.18903e-05 1.88198e-05
-4.18903e-05 -0.000174283 -3.03307e-06
1.88198e-05 -3.03307e-06 -0.000259793
0.0061037 -3.46283e-05 -3.00767e-06
-3.46283e-05 0.00342364 2.49131e-06
-3.00767e-06 2.49131e-06 0.0034444
0.00616331 -9.50765e-05 0.000296228
-9.50765e-05 0.003461 -1.27869e-05
0.000296228 -1.27869e-05 0.00348002
0.00167517 8.18948e-05 1.04951e-06
8.18948e-05 5.42622e-05 4.10372e-07
1.04951e-06 4.10372e-07 -6.35288e-05
0.00191499 0.000108811 -3.01668e-06
0.000108811 5.40964e-05 -8.00199e-07
-3.01668e-06 -8.00199e-07 -2.5595e-05
0.00195621 0.000127795 2.72054e-06
0.000127795 4.64524e-05 -7.39645e-08
2.72054e-06 -7.39645e-08 -3.59979e-06
0.00110761 7.58069e-05 -1.22028e-05
7.58069e-05 -1.40353e-05 -1.29417e-06
-1.22028e-05 -1.29417e-06 -0.000150911
0.00174292 0.000135253 2.43016e-07
0.000135253 9.26237e-05 1.74235e-08
2.43016e-07 1.74235e-08 -3.56067e-05
0.00198494 0.000163159 5.10241e-07
0.000163159 0.000110991 -1.92375e-06
5.10241e-07 -1.92375e-06 1.93097e-05
0.000447342 4.58495e-05 -1.74644e-05
4.58495e-05 -0.000186317 -3.91826e-06
-1.74644e-05 -3.91826e-06 -0.000273216
0.00108432 0.000120046 3.60767e-07
0.000120046 -3.39899e-05 2.5486e-07
3.60767e-07 2.5486e-07 -0.000181601
0.00176481 0.000195966 8.86349e-07
0.000195966 0.000112964 -6.53803e-07
8.86349e-07 -6.53803e-07 -3.15043e-05
0.00624483 0.000219673 -0.000318973
0.000219673 0.00352908 -2.47673e-05
-0.000318973 -2.47673e-05 0.00353488
0.00044847 7.42297e-05 3.81215e-07
7.42297e-05 -0.000184624 1.58602e-07
3.81215e-07 1.58602e-07 -0.000275933
0.00103856 0.000157456 1.12212e-05
0.000157456 -6.14939e-05 2.93532e-06
1.12212e-05 2.93532e-06 -0.00021997
0.00643589 0.000270822 6.11735e-06
0.000270822 0.00365163 3.31534e-06
6.11735e-06 3.31534e-06 0.00364958
0.000467503 0.000101135 1.82066e-05
0.000101135 -0.000166938 8.25893e-06
1.82066e-05 8.25893e-06 -0.000263337
0.00656105 0.000286998 0.000306166
0.000286998 0.00373196 3.66879e-05
0.000306166 3.66879e-05 0.00372476
0.00102763 2.16103e-05 -1.25813e-05
2.16103e-05 -4.66987e-05 -5.53529e-07
-1.25813e-05 -5.53529e-07 -0.000175466
0.00178173 3.69072e-05 3.64182e-06
3.69072e-05 0.00013159 8.01452e-08
3.64182e-06 8.01452e-08 2.6216e-05
0.00184081 4.40124e-05 -2.79474e-06
4.40124e-05 2.39531e-05 -6.88756e-08
-2.79474e-06 -6.88756e-08 -5.13398e-05
0.000514724 3.17159e-05 -1.99333e-05
3.17159e-05 -0.000151536 -6.11351e-07
-1.99333e-05 -6.11351e-07 -0.000223002
0.000950756 -2.88554e-06 -7.54023e-07
-2.88554e-06 -0.000102096 -3.41423e-09
-7.54023e-07 -3.41423e-09 -0.000227238
0.0018112 7.57726e-06 4.53848e-06
7.57726e-06 0.000152975 1.67057e-07
4.53848e-06 1.67057e-07 4.77788e-05
0.000961803 -2.12262e-05 1.15594e-05
-2.12262e-05 -0.000106506 -5.44012e-07
1.15594e-05 -5.44012e-07 -0.000234006
0.000475255 -5.49024e-06 3.74117e-07
-5.49024e-06 -0.000167698 3.80701e-07
3.74117e-07 3.80701e-07 -0.000247091
0.00595901 2.15362e-05 -0.000302088
2.15362e-05 0.00333846 8.87192e-07
-0.000302088 8.87192e-07 0.00336112
0.000432363 1.52072e-05 1.83831e-05
1.52072e-05 -0.000197412 -1.24668e-06
1.83831e-05 -1.24668e-06 -0.000277325
0.00600868 -0.000110685 -7.73983e-06
-0.000110685 0.00337678 1.85657e-06
-7.73983e-06 1.85657e-06 0.0033928
0.00604478 -1.60917e-05 0.000284385
-1.60917e-05 0.00338762 -6.44423e-06
0.000284385 -6.44423e-06 0.0034083
0.00107 4.32397e-05 -1.23947e-05
4.32397e-05 -2.75203e-05 -1.17824e-06
-1.23947e-05 -1.17824e-06 -0.000158417
0.00172969 7.94519e-05 -2.42414e-07
7.94519e-05 8.8708e-05 -3.59975e-07
-2.42414e-07 -3.59975e-07 -2.51051e-05
0.00200413 0.000108692 -3.26204e-06
0.000108692 0.000107115 -2.35902e-06
-3.26204e-06 -2.35902e-06 3.34531e-05
0.0026724 6.06325e-05 -0.000140421
6.06325e-05 0.00118847 -4.79205e-06
-0.000140421 -4.79205e-06 0.00113712
0.0010613 7.7441e-05 3.22484e-07
7.7441e-05 -4.33305e-05 1.57855e-07
3.22484e-07 1.57855e-07 -0.000181014
0.00175043 0.000134124 7.28016e-07
0.000134124 0.000100032 -9.82428e-07
7.28016e-07 -9.82428e-07 -2.83679e-05
0.00611155 0.000161704 -0.000318303
0.000161704 0.00344165 -1.78225e-05
-0.000318303 -1.78225e-05 0.00345533
0.0004798 6.48485e-05 8.91257e-07
6.48485e-05 -0.000164141 4.12639e-07
8.91257e-07 4.12639e-07 -0.000253037
0.00105269 0.000121426 1.26053e-05
0.000121426 -5.38576e-05 2.3198e-06
1.26053e-05 2.3198e-06 -0.000202448
0.00632812 0.000234368 1.43854e-06
0.000234368 0.00358167 1.60788e-06
1.43854e-06 1.60788e-06 0.00358624
0.000493011 8.27176e-05 1.84082e-05
8.27176e-05 -0.00015615 6.45736e-06
1.84082e-05 6.45736e-06 -0.000249188
0.00646175 0.000304058 0.00031638
0.000304058 0.00368005 3.70452e-05
0.00031638 3.70452e-05 0.00367131
0.000578483 1.13614e-05 -1.59809e-05
1.13614e-05 -0.000101526 -1.83807e-06
-1.59809e-05 -1.83807e-06 -0.000182107
0.000983148 2.08197e-05 3.49116e-07
2.08197e-05 -7.80648e-05 2.22472e-07
3.49116e-07 2.22472e-07 -0.000205396
0.00174684 3.25083e-05 3.72547e-06
3.25083e-05 0.000107997 1.36583e-08
3.72547e-06 1.36583e-08 4.58256e-06
0.0058116 -9.9915e-05 -0.000285307
-9.9915e-05 0.00326555 3.20872e-06
-0.000285307 3.20872e-06 0.00327742
0.000470209 9.12801e-06 -5.86029e-07
9.12801e-06 -0.000174414 -3.25421e-08
-5.86029e-07 -3.25421e-08 -0.000248515
0.00094995 1.85926e-06 1.14683e-05
1.85926e-06 -0.000104373 -2.91008e-08
1.14683e-05 -2.91008e-08 -0.000229603
0.000431253 2.09275e-05 1.86081e-05
2.09275e-05 -0.000196011 1.75302e-07
1.86081e-05 1.75302e-07 -0.000274374
0.00590407 -1.41911e-05 2.13475e-06
-1.41911e-05 0.00331036 -1.46044e-06
2.13475e-06 -1.46044e-06 0.00332871
0.00599774 -3.1205e-05 0.000290924
-3.1205e-05 0.00335869 -4.31735e-06
0.000290924 -4.31735e-06 0.00338051
0.00275289 1.44911e-05 -0.000135313
1.44911e-05 0.00123639 -2.76432e-06
-0.000135313 -2.76432e-06 0.00118785
0.0010484 4.64826e-05 9.94555e-08
4.64826e-05 -4.27423e-05 -4.18286e-08
9.94555e-08 -4.18286e-08 -0.000174255
0.00177624 7.71327e-05 7.94078e-07
7.71327e-05 0.000118373 -9.78629e-07
7.94078e-07 -9.78629e-07 8.55576e-06
0.00563809 -3.94184e-05 -0.00012031
-3.94184e-05 0.00316136 4.69708e-07
-0.00012031 4.69708e-07 0.00314942
0.000490052 5.70683e-05 1.19243e-07
5.70683e-05 -0.000157306 2.51253e-07
1.19243e-07 2.51253e-07 -0.000241399
0.00103159 7.9729e-05 1.2155e-05
7.9729e-05 -6.30152e-05 1.59721e-06
1.2155e-05 1.59721e-06 -0.000201453
0.00618436 0.000136688 -1.05992e-05
0.000136688 0.00348129 -1.69202e-06
-1.05992e-05 -1.69202e-06 0.00349628
0.000507744 8.79484e-05 1.96775e-05
8.79484e-05 -0.000146289 5.49906e-06
1.96775e-05 5.49906e-06 -0.000236173
0.00638279 0.00025848 0.000324578
0.00025848 0.00362197 3.19939e-05
0.000324578 3.19939e-05 0.00362361
0.00176299 -5.31246e-05 -0.000229436
-5.31246e-05 0.00073258 1.24821e-06
-0.000229436 1.24821e-06 0.000730128
0.00161719 3.0232e-05 -5.77827e-05
3.0232e-05 0.000532877 1.43528e-07
-5.77827e-05 1.43528e-07 0.000473411
0.000933272 2.26562e-05 1.24714e-05
2.26562e-05 -0.000112374 7.93445e-07
1.24714e-05 7.93445e-07 -0.000238344
0.00588831 -4.65296e-05 7.07186e-06
-4.65296e-05 0.00330631 2.35708e-06
7.07186e-06 2.35708e-06 0.00332344
0.000486148 -1.21241e-05 1.9218e-05
-1.21241e-05 -0.000158208 7.02209e-07
1.9218e-05 7.02209e-07 -0.000236184
0.00594504 -7.8384e-05 0.000304062
-7.8384e-05 0.00333864 -4.21933e-06
0.000304062 -4.21933e-06 0.0033569
0.00133073 2.03314e-05 -5.70918e-05
2.03314e-05 0.000492413 -8.94019e-07
-5.70918e-05 -8.94019e-07 0.000455205
0.0016047 1.74967e-05 -5.83852e-05
1.74967e-05 0.000528414 -1.24104e-06
-5.83852e-05 -1.24104e-06 0.000464961
0.00101691 4.82989e-05 1.22621e-05
4.82989e-05 -6.38123e-05 1.11947e-06
1.22621e-05 1.11947e-06 -0.000195965
0.00371921 6.44803e-05 0.000112664
6.44803e-05 0.00195755 3.22849e-06
0.000112664 3.22849e-06 0.0019492
0.000501458 6.75813e-05 1.99434e-05
6.75813e-05 -0.000150343 4.20668e-06
1.99434e-05 4.20668e-06 -0.000234397
0.00626248 0.000124602 0.000309457
0.000124602 0.00352195 1.91435e-05
0.000309457 1.91435e-05 0.00354059
0.00584097 -2.03533e-05 -8.94049e-06
-2.03533e-05 0.00328026 -2.94439e-06
-8.94049e-06 -2.94439e-06 0.00329619
0.000480687 4.92698e-05 2.07579e-05
4.92698e-05 -0.000172142 2.3134e-06
2.07579e-05 2.3134e-06 -0.000243117
0.00580001 3.99672e-05 0.000291992
3.99672e-05 0.00324781 2.12414e-07
0.000291992 2.12414e-07 0.00326847
0.00361618 3.08588e-05 0.000124986
3.08588e-05 0.00189873 4.72868e-06
0.000124986 4.72868e-06 0.00189199
0.000512418 8.1034e-06 1.91638e-05
8.1034e-06 -0.000143637 2.55823e-06
1.91638e-05 2.55823e-06 -0.000222745
0.00606986 -4.60439e-06 0.000297413
-4.60439e-06 0.00340494 8.40275e-06
0.000297413 8.40275e-06 0.00342484
0.00588497 -0.000120503 0.000289149
-0.000120503 0.00331196 -4.06578e-06
0.000289149 -4.06578e-06 0.00332333
0.00589223 5.12378e-06 0.000290892
5.12378e-06 0.00329554 4.76543e-06
0.000290892 4.76543e-06 0.00331853
