# vtk DataFile Version 2.0
Wound Healing Simulation
ASCII
DATASET UNSTRUCTURED_GRID
POINTS 3012 float
69.9759 18.75 4
67.2507 60.3285 4
69.976 18.75 2
73.0099 25.446 4
71.1327 20.9142 4
68.6801 16.6661 4
67.8269 19.9258 3.98546
67.2507 60.3286 2
71.1327 54.0858 4
68.6801 58.3339 4
65.6939 62.2254 4
65.3135 59.0027 3.98653
74.6784 42.3946 4
73.7221 47.2057 4
69.9759 18.75 0
73.0099 25.446 2
68.6801 16.6661 2
71.1327 20.9142 2
67.8274 19.9282 2
74.6792 32.6053 4
73.7222 27.7943 4
72.1454 23.1494 4
70.6152 26.2216 3.98498
68.887 21.9586 3.98532
67.2507 14.6715 4
66.6386 17.9707 3.98604
65.8003 21.024 3.97836
67.2507 60.3285 0
71.1327 54.0858 2
68.6801 58.3339 2
65.694 62.2255 2
65.3145 59.001 2
72.1454 51.8506 4
69.9759 56.25 4
68.8374 53.1128 3.98443
64.0165 64.0165 4
66.612 57.1348 3.98611
63.8871 60.7675 3.98821
63.5035 57.7753 3.98073
60.3285 67.2507 4
74.6792 42.3947 2
73.7222 47.2057 2
74.9194 39.9526 4
74.2788 44.8158 4
72.1687 42.0857 3.98306
73.0099 49.554 4
71.2501 46.5981 3.9841
73.0099 25.446 0
71.1327 20.9142 0
68.6801 16.6661 0
67.8269 19.9258 0.0145393
74.6792 32.6053 2
73.7222 27.7943 2
67.2508 14.6715 2
72.1455 23.1494 2
70.6152 26.2222 2
66.6394 17.9727 2
68.8872 21.9606 2
65.8001 21.0239 2
74.9197 35.0474 4
74.2794 30.1841 4
72.1854 32.9433 3.98345
71.2791 28.4317 3.98461
69.8167 24.0605 3.98511
68.3492 26.9513 3.97605
66.7652 22.933 3.97702
65.694 12.7746 4
65.3252 16.1017 3.98732
64.7174 19.192 3.97996
63.8908 22.0333 3.97434
71.1327 54.0858 0
65.6939 62.2254 0
68.6801 58.3339 0
65.3135 59.0027 0.013468
72.1455 51.8506 2
69.9759 56.25 2
68.8377 53.1106 2
64.0165 64.0165 2
66.6129 57.1324 2
63.888 60.7666 2
63.5037 57.7762 2
62.2254 65.694 4
58.8951 65.4151 3.99247
69.7698 50.9885 3.98427
67.7849 55.1676 3.98511
66.6515 52.2098 3.97595
62.3373 62.4288 3.99017
64.6642 56.0343 3.98013
62.2054 59.4088 3.98187
61.8271 56.6864 3.97728
58.3339 68.6801 4
60.3285 67.2508 2
73.7221 47.2057 0
74.6784 42.3946 0
74.9197 39.9526 2
74.2794 44.8159 2
72.1685 42.0856 2
73.0099 49.554 2
71.2502 46.5977 2
75 37.5 4
72.4058 39.8023 3.98284
71.7833 44.3531 3.98369
69.8054 41.7901 3.97402
70.576 48.8133 3.98416
68.9144 46.0156 3.97515
74.6792 32.6053 0
73.7222 27.7943 0
67.2507 14.6715 0
72.1454 23.1494 0
70.6152 26.2216 0.0150197
68.887 21.9586 0.0146797
66.6386 17.9707 0.0139637
65.8003 21.024 0.0216369
74.9197 35.0474 2
74.2794 30.1841 2
72.1851 32.9434 2
71.2792 28.4318 2
65.694 12.7745 2
65.3261 16.1028 2
69.8168 24.0617 2
68.3491 26.9516 2
64.7175 19.1913 2
66.7649 22.9331 2
63.8906 22.0329 2
72.4136 35.2242 3.98286
71.8046 30.6764 3.98387
69.8414 33.2681 3.97462
68.9685 29.0379 3.97585
67.6136 24.9121 3.97618
66.1973 27.6337 3.9727
64.0165 10.9835 4
64.7594 23.8291 3.97325
63.8914 14.3253 3.98874
63.5168 17.4424 3.98197
62.9115 20.3166 3.97568
62.096 22.941 3.97205
60.6848 11.0962 3.99091
57.6132 11.4429 3.98526
72.1454 51.8506 0
69.9759 56.25 0
68.8374 53.1128 0.0155655
64.0165 64.0165 0
63.8871 60.7675 0.0117876
66.612 57.1348 0.0138924
63.5035 57.7753 0.0192709
62.2255 65.694 2
58.8956 65.4151 2
69.77 50.987 2
67.7855 55.1651 2
66.6513 52.2095 2
62.3381 62.4283 2
64.6643 56.0349 2
62.2055 59.4098 2
61.8273 56.6874 2
60.6697 63.9781 3.99149
57.0258 66.7359 3.99309
57.5591 63.6953 3.98676
67.5093 50.1772 3.9751
65.7047 54.1746 3.97763
64.5395 51.3868 3.97176
60.7749 60.9423 3.98341
62.8245 55.0721 3.97687
60.6616 58.1655 3.97792
60.332 55.7914 3.97635
56.25 69.9759 4
58.3339 68.6801 2
60.3285 67.2507 0
58.922 9.65459 3.99173
62.2254 9.30607 4
73.0099 49.554 0
74.2788 44.8158 0
71.2501 46.5981 0.0158995
72.1687 42.0857 0.0169351
74.9194 39.9526 0
75 37.5 2
72.4057 39.8024 2
71.7832 44.3527 2
69.8052 41.79 2
70.5761 48.8125 2
68.9144 46.0153 2
72.4891 37.5121 3.98266
70.0421 39.6576 3.97342
69.4322 43.9082 3.97474
67.5987 41.4984 3.97054
68.2678 48.1078 3.97495
66.7124 45.4416 3.97171
74.9197 35.0474 0
74.2794 30.1841 0
72.1854 32.9433 0.0165483
71.2791 28.4317 0.0153855
65.694 12.7746 0
65.3252 16.1017 0.0126809
69.8167 24.0605 0.0148867
68.3492 26.9513 0.0239483
66.7652 22.933 0.0229762
64.7174 19.192 0.0200389
63.8908 22.0333 0.0256562
72.4135 35.2241 2
71.8046 30.6765 2
69.8413 33.2683 2
68.9686 29.038 2
64.0165 10.9835 2
63.8921 14.326 2
63.517 17.4414 2
67.6133 24.9123 2
66.1972 27.6337 2
62.9116 20.3158 2
64.7592 23.8289 2
62.096 22.9407 2
60.6854 11.0967 2
57.6134 11.4421 2
70.0587 35.3919 3.97364
69.4688 31.1493 3.97489
67.6571 33.5904 3.97123
66.775 29.6217 3.97205
65.5264 25.6986 3.97271
64.1491 28.2541 3.97186
62.3426 12.6534 3.98986
62.859 24.6361 3.97142
62.2016 15.7797 3.9832
61.8183 18.679 3.97792
61.2217 21.3379 3.97302
60.4275 23.7254 3.97162
59.2474 12.7744 3.98369
55.875 10.2296 3.98676
56.4062 13.1072 3.98199
69.7698 50.9885 0.0157331
62.2254 65.694 0
58.8951 65.4151 0.00752866
67.7849 55.1676 0.0148927
66.6515 52.2098 0.0240502
62.3373 62.4288 0.00983261
62.2054 59.4088 0.0181256
64.6642 56.0343 0.0198675
61.8271 56.6864 0.0227207
60.6703 63.9778 2
57.0262 66.736 2
57.5591 63.6963 2
67.5091 50.1768 2
65.7046 54.1747 2
64.5393 51.3868 2
60.7751 60.9434 2
62.8246 55.0729 2
60.6619 58.1666 2
60.3323 55.7922 2
55.0713 67.9329 3.99334
59.2206 62.3701 3.9845
55.8058 64.9131 3.98875
56.3282 62.0956 3.98307
65.3334 49.4096 3.97119
63.7087 53.2946 3.97329
62.4423 50.6541 3.96973
59.3356 59.5632 3.98064
61.0809 54.3138 3.97574
59.2923 57.0185 3.97493
59.2458 55.188 3.97757
48.1037 68.5807 3.98982
50.9489 69.9325 3.99367
54.0858 71.1327 4
56.25 69.976 2
58.3339 68.6801 0
57.0592 8.33469 3.99203
60.3285 7.74928 4
58.9225 9.65482 2
62.2255 9.30602 2
70.576 48.8133 0.0158429
71.7833 44.3531 0.0163146
68.9144 46.0156 0.0248481
69.8054 41.7901 0.0259818
72.4058 39.8023 0.0171607
75 37.5 0
72.489 37.5121 2
70.042 39.6575 2
69.4322 43.908 2
67.5985 41.4984 2
68.2678 48.1074 2
66.7124 45.4416 2
70.1301 37.5216 3.97353
67.8353 39.5128 3.97004
67.2258 43.4712 3.97105
65.5573 41.2108 3.97012
66.0708 47.4195 3.97155
64.655 44.8504 3.97058
72.4136 35.2242 0.0171367
71.8046 30.6764 0.0161263
69.8414 33.2681 0.02538
68.9685 29.0379 0.0241515
64.0165 10.9835 0
63.8914 14.3253 0.0112594
63.5168 17.4424 0.0180263
67.6136 24.9121 0.0238172
66.1973 27.6337 0.0273016
64.7594 23.8291 0.0267545
62.9115 20.3166 0.0243215
62.096 22.941 0.0279492
60.6848 11.0962 0.00908903
57.6132 11.4429 0.0147402
70.0587 35.392 2
69.4689 31.1494 2
67.657 33.5903 2
66.7751 29.6217 2
62.3432 12.654 2
62.2017 15.779 2
61.8186 18.6779 2
65.5262 25.6986 2
64.149 28.254 2
61.2219 21.3372 2
62.8589 24.636 2
60.4275 23.7252 2
59.2474 12.7738 2
56.4061 13.1062 2
55.8752 10.2288 2
67.8713 35.5473 3.97023
67.2671 31.6218 3.97115
65.6994 33.9267 3.97049
64.6656 30.1907 3.97064
63.5401 26.4132 3.97168
62.26 28.7761 3.97201
60.7769 14.2189 3.9834
61.0458 25.3362 3.97102
60.6162 17.1214 3.98033
60.2267 19.8109 3.97508
59.6637 22.2553 3.97126
58.9783 24.3181 3.97273
54.0381 9.13279 3.98752
57.9116 14.3259 3.98174
54.7874 12.0064 3.98339
55.3134 14.6391 3.98051
67.5093 50.1772 0.0249021
57.0258 66.7359 0.00691414
60.6697 63.9781 0.00851392
57.5591 63.6953 0.0132415
65.7047 54.1746 0.0223667
64.5395 51.3868 0.028242
60.7749 60.9423 0.0165873
60.6616 58.1655 0.0220808
62.8245 55.0721 0.0231286
60.332 55.7914 0.0236489
55.0716 67.933 2
59.2207 62.3712 2
55.8057 64.9139 2
56.3282 62.0968 2
65.3332 49.4096 2
63.7087 53.2951 2
62.4421 50.6542 2
59.3359 59.5645 2
61.0812 54.3145 2
59.2928 57.0193 2
59.2464 55.1885 2
53.0431 69.0008 3.99356
53.9681 66.0153 3.98939
57.8822 60.8757 3.98188
54.685 63.2127 3.98503
55.2126 60.6229 3.98128
63.195 48.6631 3.9697
61.7426 52.5778 3.971
60.272 50.0219 3.96872
58.0205 58.2674 3.97728
59.33 53.9513 3.97521
58.1291 55.8164 3.97304
50.1104 67.8587 3.98978
47.4642 66.5847 3.98744
46.0573 69.1602 3.98989
48.1037 68.5812 2
48.803 70.7238 3.99375
50.9491 69.9327 2
51.8506 72.1454 4
54.0858 71.1327 2
56.25 69.9759 0
55.1035 7.13921 3.99232
58.3339 6.31992 4
57.0596 8.33468 2
60.3286 7.74926 2
58.922 9.65459 0.00826988
62.2254 9.30607 0
68.2678 48.1078 0.0250511
69.4322 43.9082 0.0252574
66.7124 45.4416 0.0282858
67.5987 41.4984 0.0294624
70.0421 39.6576 0.0265793
72.4891 37.5121 0.0173391
70.13 37.5216 2
67.8352 39.5128 2
67.2257 43.4712 2
65.5571 41.2108 2
66.0706 47.4194 2
64.6549 44.8504 2
67.9316 37.5221 3.97007
65.7882 39.3709 3.9698
65.1781 43.0268 3.97022
63.7528 40.9308 3.9711
63.9674 46.7188 3.97032
62.8101 44.2187 3.97174
70.0587 35.3919 0.0263639
69.4688 31.1493 0.0251115
67.6571 33.5904 0.028769
66.775 29.6217 0.0279515
62.3426 12.6534 0.0101431
62.2016 15.7797 0.0168047
61.8183 18.679 0.0220833
65.5264 25.6986 0.0272945
64.1491 28.2541 0.0281372
62.859 24.6361 0.0285763
61.2217 21.3379 0.0269808
60.4275 23.7254 0.0283802
59.2474 12.7744 0.0163142
56.4062 13.1072 0.018006
55.875 10.2296 0.0132368
67.8713 35.5473 2
67.2672 31.6217 2
65.6993 33.9266 2
64.6656 30.1906 2
60.777 14.2183 2
60.6163 17.1203 2
60.2271 19.8099 2
63.5399 26.4131 2
62.26 28.776 2
59.664 22.2547 2
61.0457 25.3361 2
58.9784 24.3181 2
57.9114 14.3252 2
55.3132 14.6382 2
54.0381 9.1321 2
54.7874 12.0053 2
65.877 35.6666 3.96976
65.1876 32.1534 3.96997
64.2838 34.2493 3.97071
62.5975 30.6345 3.97113
61.6527 27.0706 3.97145
60.8524 29.1387 3.97308
59.3127 15.6628 3.98147
59.3296 25.7943 3.97211
59.1269 18.3491 3.97847
58.7426 20.8496 3.97203
58.2853 23.0899 3.97072
57.9666 24.6626 3.97447
52.1128 8.15111 3.98812
53.0584 11.0125 3.98427
56.6778 15.7357 3.98082
53.81 13.674 3.9818
54.3771 15.9913 3.98038
55.0713 67.9329 0.00666172
65.3334 49.4096 0.0288116
55.8058 64.9131 0.0112458
59.2206 62.3701 0.0155037
56.3282 62.0956 0.0169267
63.7087 53.2946 0.0267102
62.4423 50.6541 0.0302676
59.3356 59.5632 0.0193623
59.2923 57.0185 0.0250666
61.0809 54.3138 0.0242646
59.2458 55.188 0.022434
53.0434 69.0009 2
53.9679 66.016 2
57.8823 60.8769 2
54.6849 63.2138 2
55.2127 60.6243 2
63.1948 48.6631 2
61.7429 52.5782 2
60.2717 50.0219 2
58.021 58.2689 2
59.3305 53.9516 2
58.1297 55.8165 2
52.0716 67.0018 3.98967
52.9543 64.2231 3.98654
56.6499 59.4953 3.98002
53.6822 61.6291 3.98291
54.2614 59.3285 3.97913
60.9913 47.8832 3.96923
59.7084 52.1078 3.97104
58.0203 49.6198 3.9696
56.7787 56.9937 3.97439
57.1217 54.1241 3.9731
50.1104 67.8593 2
49.338 65.9251 3.98745
47.464 66.5853 2
46.8933 64.7416 3.98612
45.5592 67.1021 3.98721
43.9741 69.5924 3.98976
46.0573 69.1606 2
46.6095 71.3683 3.9938
48.1037 68.5807 0.0101761
48.8032 70.724 2
49.554 73.0099 4
50.9489 69.9325 0.00633407
51.8506 72.1455 2
54.0858 71.1327 0
53.0645 6.07065 3.99259
55.1039 7.13913 2
56.25 5.02411 4
58.3339 6.3199 2
57.0592 8.33469 0.00797062
60.3285 7.74928 0
66.0708 47.4195 0.0284458
67.2258 43.4712 0.0289483
64.655 44.8504 0.0294216
65.5573 41.2108 0.0298789
67.8353 39.5128 0.0299638
70.1301 37.5216 0.0264679
67.9315 37.5221 2
65.7882 39.3709 2
65.178 43.0268 2
63.7529 40.9308 2
63.9672 46.7188 2
62.81 44.2187 2
65.8912 37.502 3.96964
63.8886 39.2674 3.97074
63.3286 42.5518 3.971
62.4197 40.6992 3.97236
61.9697 45.9218 3.97105
61.4499 43.686 3.97315
67.8713 35.5473 0.0297725
67.2671 31.6218 0.0288527
65.6994 33.9267 0.0295073
64.6656 30.1907 0.0293571
60.7769 14.2189 0.0165951
60.6162 17.1214 0.019667
60.2267 19.8109 0.0249163
63.5401 26.4132 0.0283231
62.26 28.7761 0.0279931
61.0458 25.3362 0.028981
59.6637 22.2553 0.0287376
58.9783 24.3181 0.0272748
57.9116 14.3259 0.0182584
55.3134 14.6391 0.0194872
54.0381 9.13279 0.012482
54.7874 12.0064 0.01661
65.8769 35.6665 2
65.1876 32.1533 2
64.2839 34.2493 2
62.5975 30.6344 2
59.3126 15.6618 2
59.1272 18.348 2
58.7431 20.8488 2
61.6526 27.0706 2
60.8524 29.1387 2
58.2856 23.0899 2
59.3297 25.7944 2
57.9667 24.6628 2
56.6776 15.7348 2
54.3768 15.9903 2
53.81 13.6729 2
52.1127 8.15053 2
53.0584 11.0117 2
64.084 35.6322 3.97048
62.9275 33.0456 3.97092
60.616 30.6106 3.97282
59.5695 27.9083 3.97256
57.9414 16.9767 3.98046
57.7366 25.7236 3.97316
57.7171 19.4702 3.97645
57.3709 21.8379 3.96975
57.1841 23.9459 3.97181
50.1128 7.28295 3.98858
51.2329 10.1207 3.98513
52.1723 12.7913 3.98294
55.5385 16.9652 3.9806
52.978 15.2561 3.97986
53.7589 16.9732 3.98066
53.0431 69.0008 0.00644061
53.9681 66.0153 0.0106061
63.195 48.6631 0.0303033
54.685 63.2127 0.0149658
57.8822 60.8757 0.018118
55.2126 60.6229 0.0187169
61.7426 52.5778 0.0289962
60.272 50.0219 0.0312825
58.0205 58.2674 0.0227248
58.1291 55.8164 0.0269561
59.33 53.9513 0.0247887
52.0715 67.0024 2
52.9541 64.224 2
56.65 59.4966 2
53.6821 61.6304 2
54.2614 59.3302 2
60.9911 47.8831 2
59.7089 52.108 2
58.0198 49.6196 2
56.779 56.996 2
57.1223 54.1242 2
51.1689 65.1321 3.9872
52.0471 62.5449 3.98464
55.4823 58.2562 3.97908
52.8355 60.1426 3.98081
53.641 58.4785 3.98005
58.3013 46.8519 3.9729
57.5557 51.7882 3.97103
56.2386 49.5556 3.97313
55.4728 55.7932 3.97219
55.354 53.3814 3.96956
50.1104 67.8587 0.0102219
49.3378 65.9258 2
48.619 64.1282 3.98588
47.4642 66.5847 0.0125612
45.559 67.1026 2
46.893 64.7423 2
46.3827 63.0601 3.98511
45.1335 65.2029 3.98608
43.6321 67.4726 3.9872
41.8611 69.8797 3.98955
43.9742 69.5929 2
44.3769 71.8631 3.99368
46.0573 69.1602 0.0101067
46.6098 71.3685 2
47.2057 73.7222 4
48.803 70.7238 0.0062485
49.554 73.0099 2
51.8506 72.1454 0
50.9542 5.13094 3.99289
53.0648 6.07053 2
54.0858 3.86728 4
55.1035 7.13921 0.00767526
56.25 5.02406 2
58.3339 6.31992 0
63.9674 46.7188 0.0296834
65.1781 43.0268 0.0297784
62.8101 44.2187 0.0282604
63.7528 40.9308 0.0288957
65.7882 39.3709 0.0302037
67.9316 37.5221 0.029931
65.8911 37.502 2
63.8886 39.2674 2
63.3285 42.5518 2
62.4199 40.6992 2
61.9695 45.9217 2
61.4496 43.6859 2
63.9496 37.4573 3.97063
62.1353 39.3561 3.9719
61.2055 41.9604 3.97291
60.2524 44.7737 3.97361
65.877 35.6666 0.0302432
65.1876 32.1534 0.0300286
64.2838 34.2493 0.0292852
62.5975 30.6345 0.0288705
59.3127 15.6628 0.0185303
59.1269 18.3491 0.0215312
58.7426 20.8496 0.0279748
61.6527 27.0706 0.0285528
60.8524 29.1387 0.0269247
59.3296 25.7943 0.02789
58.2853 23.0899 0.0292754
57.9666 24.6626 0.0255254
56.6778 15.7357 0.0191792
54.3771 15.9913 0.0196221
53.81 13.674 0.0182016
52.1128 8.15111 0.0118844
53.0584 11.0125 0.0157307
64.0841 35.6321 2
62.9278 33.0456 2
60.616 30.6106 2
57.9414 16.9757 2
57.7177 19.4691 2
57.3717 21.838 2
59.5698 27.9084 2
57.1844 23.9463 2
57.7368 25.7238 2
50.1128 7.28239 2
55.5384 16.9642 2
53.7586 16.9721 2
52.9778 15.255 2
52.1722 12.7903 2
51.2328 10.12 2
62.1706 35.3595 3.97146
60.2789 32.7449 3.97276
58.6183 30.0744 3.97397
57.2805 27.3798 3.97394
56.6376 18.1496 3.98004
56.287 25.0999 3.97305
56.3577 20.5175 3.97189
56.1063 22.87 3.96794
48.0565 6.52602 3.98901
49.3247 9.32839 3.98561
50.4333 11.9891 3.98341
51.3779 14.4916 3.98164
54.4156 17.9143 3.98108
52.3612 17.029 3.97921
52.0716 67.0018 0.0103342
52.9543 64.2231 0.0134608
60.9913 47.8832 0.0307707
53.6822 61.6291 0.0170902
56.6499 59.4953 0.0199823
54.2614 59.3285 0.0208653
59.7084 52.1078 0.0289599
58.0203 49.6198 0.0304036
56.7787 56.9937 0.0256069
57.1217 54.1241 0.0269046
51.1687 65.1328 2
52.0469 62.5459 2
55.4823 58.2579 2
52.8354 60.1439 2
53.641 58.4801 2
58.3013 46.8517 2
57.5563 51.7882 2
56.2383 49.5553 2
55.4735 55.7942 2
55.3549 53.3819 2
50.3472 63.3865 3.98541
51.245 60.9426 3.98241
54.2202 57.2726 3.97895
52.3134 58.6413 3.97882
56.6965 44.1861 3.97639
55.4847 47.8985 3.97489
55.0607 51.3865 3.97048
54.0021 54.5412 3.97063
49.338 65.9251 0.0125452
48.6188 64.1289 2
47.9629 62.4813 3.98471
45.5592 67.1021 0.0127889
46.8933 64.7416 0.0138773
43.632 67.4732 2
46.3824 63.061 2
45.1332 65.2035 2
45.9883 61.5934 3.98444
44.7679 63.4611 3.98553
43.3573 65.5124 3.986
41.664 67.6914 3.98706
39.7026 70.0269 3.98943
41.8612 69.8803 2
42.1112 72.2078 3.99352
43.9741 69.5924 0.0102429
44.3771 71.8633 2
44.8159 74.2794 4
46.6095 71.3683 0.00620015
47.2057 73.7222 2
49.554 73.0099 0
48.7846 4.32192 3.99312
50.9545 5.13076 2
51.8506 2.85458 4
53.0645 6.07065 0.0074062
54.0858 3.86728 2
56.25 5.02411 0
61.9697 45.9218 0.0289499
63.3286 42.5518 0.029002
61.4499 43.686 0.0268509
62.4197 40.6992 0.0276378
63.8886 39.2674 0.0292594
65.8912 37.502 0.0303642
63.9493 37.4573 2
62.1353 39.3561 2
61.2055 41.9603 2
60.2521 44.7735 2
61.9686 37.4451 3.9717
60.2224 39.8487 3.97365
58.9751 42.9209 3.97428
64.084 35.6322 0.0295226
62.9275 33.0456 0.0290772
60.616 30.6106 0.0271759
57.9414 16.9767 0.019536
57.7171 19.4702 0.0235527
57.3709 21.8379 0.0302496
59.5695 27.9083 0.0274448
57.7366 25.7236 0.0268411
57.1841 23.9459 0.0281873
55.5385 16.9652 0.0194032
53.7589 16.9732 0.0193371
52.978 15.2561 0.0201372
50.1128 7.28295 0.0114158
52.1723 12.7913 0.0170565
51.2329 10.1207 0.0148748
62.1704 35.3595 2
60.2796 32.7449 2
58.6174 30.0745 2
56.6378 18.1485 2
56.3584 20.5159 2
56.107 22.8707 2
57.2816 27.3799 2
56.2871 25.1005 2
48.0565 6.52547 2
49.3245 9.32782 2
54.4155 17.913 2
52.3609 17.028 2
51.3778 14.4905 2
50.4332 11.9883 2
59.8624 35.1198 3.97272
57.9791 32.2696 3.97538
56.5365 29.3389 3.97514
55.4354 26.5972 3.97484
55.3424 19.1838 3.9788
54.9238 24.0578 3.96999
54.9992 21.5616 3.97055
45.9623 5.88098 3.98938
43.3735 7.4714 3.98704
47.355 8.62203 3.98618
48.6001 11.2904 3.98393
49.7139 13.7385 3.98235
50.6333 16.1258 3.98013
53.1246 18.6535 3.97749
51.3016 18.0421 3.98472
51.1689 65.1321 0.0127962
52.0471 62.5449 0.0153626
58.3013 46.8519 0.0271009
52.8355 60.1426 0.0191857
55.4823 58.2562 0.0209248
53.641 58.4785 0.0199535
57.5557 51.7882 0.0289691
56.2386 49.5556 0.0268654
55.4728 55.7932 0.0278108
55.354 53.3814 0.0304449
50.3469 63.3872 2
51.2449 60.9437 2
54.2205 57.2743 2
52.3134 58.6426 2
56.6956 44.1859 2
55.4844 47.8981 2
55.0614 51.3863 2
54.003 54.543 2
49.5926 61.7513 3.98408
55.5928 41.7079 3.97686
50.5676 59.3357 3.97903
52.1849 56.4957 3.97494
54.1564 45.5658 3.97708
53.3197 49.3285 3.97351
52.6608 52.8421 3.96765
48.619 64.1282 0.0141168
47.9626 62.482 2
47.3301 61.0164 3.98402
43.6321 67.4726 0.0128038
45.1335 65.2029 0.0139203
46.3827 63.0601 0.0148902
41.6638 67.692 2
43.3571 65.513 2
45.9882 61.5943 2
44.7676 63.4617 2
45.767 60.6381 3.98342
44.4842 61.8431 3.98424
43.1471 63.7333 3.98522
41.5466 65.65 3.98568
39.6328 67.7711 3.98683
37.5259 70.052 3.9893
39.7026 70.0275 2
39.8179 72.4049 3.99342
41.8611 69.8797 0.0104543
42.1114 72.2082 2
42.3947 74.6792 4
44.3769 71.8631 0.00632207
44.8159 74.2794 2
47.2057 73.7222 0
43.8516 5.35802 3.98956
46.5706 3.64641 3.99337
48.7849 4.3217 2
49.554 1.99015 4
50.9542 5.13094 0.00711336
51.8506 2.85453 2
54.0858 3.86728 0
60.2524 44.7737 0.0263898
61.2055 41.9604 0.0270946
62.1353 39.3561 0.028104
63.9496 37.4573 0.0293748
61.9683 37.4451 2
60.2223 39.8486 2
58.9748 42.9208 2
59.718 37.5674 3.97266
57.9579 40.6587 3.97441
55.055 39.7227 3.97707
62.1706 35.3595 0.0285365
60.2789 32.7449 0.0272405
58.6183 30.0744 0.0260339
56.6376 18.1496 0.0199598
56.3577 20.5175 0.0281055
56.1063 22.87 0.0320597
57.2805 27.3798 0.026059
56.287 25.0999 0.0269545
54.4156 17.9143 0.0189203
52.3612 17.029 0.0207944
51.3779 14.4916 0.018357
48.0565 6.52602 0.0109883
49.3247 9.32839 0.014393
50.4333 11.9891 0.01659
59.8616 35.1198 2
45.9623 5.88049 2
43.3735 7.47096 2
57.981 32.2696 2
56.5356 29.339 2
55.3427 19.1823 2
55.0001 21.5605 2
54.9241 24.0589 2
55.4331 26.5981 2
47.3549 8.6214 2
48.5999 11.2898 2
53.1247 18.6525 2
51.3015 18.0413 2
50.6332 16.1247 2
49.7137 13.7376 2
57.3548 34.7605 3.97593
55.7101 31.5193 3.97637
54.473 28.4043 3.97707
53.7627 25.4973 3.97493
53.9682 20.1333 3.97779
53.5753 22.7136 3.96709
41.3986 7.07678 3.98742
45.3596 7.99326 3.98653
42.8654 9.4135 3.98534
46.6664 10.651 3.98433
47.7453 13.0986 3.98277
48.931 15.3967 3.9811
50.0058 17.6951 3.97981
51.6493 19.3173 3.98729
50.3472 63.3865 0.0145895
51.245 60.9426 0.0175912
56.6965 44.1861 0.0236068
55.4847 47.8985 0.0251059
52.3134 58.6413 0.021178
54.2202 57.2726 0.0210547
55.0607 51.3865 0.0295191
54.0021 54.5412 0.0293725
49.5924 61.752 2
55.5929 41.7077 2
50.5676 59.3369 2
52.1853 56.497 2
54.1596 45.5654 2
53.3214 49.3273 2
52.6623 52.8417 2
48.8497 60.2092 3.98266
52.4747 42.6426 3.97729
49.7896 57.6334 3.97778
50.5889 54.4293 3.97255
51.7722 47.2689 3.97578
51.1986 50.9393 3.96947
48.1016 43.8056 3.99269
47.9629 62.4813 0.0152934
47.3299 61.017 2
46.6195 59.8033 3.98312
41.664 67.6914 0.012943
43.3573 65.5124 0.014002
44.7679 63.4611 0.0144651
45.9883 61.5934 0.0155572
39.6328 67.7718 2
41.5464 65.6505 2
45.7669 60.6389 2
43.1469 63.7339 2
44.4841 61.8438 2
44.6243 60.3007 3.98345
42.9512 62.0914 3.98448
41.6005 63.8266 3.98517
39.6479 65.6181 3.98527
37.5633 67.7535 3.98679
31.6964 65.1368 3.98553
33.3917 67.4911 3.98674
35.333 69.9621 3.9893
37.5259 70.0526 2
37.5095 72.4595 3.99329
39.7026 70.0269 0.0105726
39.818 72.4053 2
39.9526 74.9197 4
42.1112 72.2078 0.00648391
42.3947 74.6792 2
44.8159 74.2794 0
41.7361 4.96729 3.98977
43.8516 5.35758 2
44.3258 3.10965 3.99351
46.5708 3.64618 2
47.2057 1.27793 4
48.7846 4.32192 0.00687656
49.554 1.99013 2
51.8506 2.85458 0
58.9751 42.9209 0.0257194
60.2224 39.8487 0.0263532
61.9686 37.4451 0.0283015
59.7179 37.5674 2
57.9573 40.6586 2
55.0547 39.7227 2
56.7716 37.8967 3.97632
49.5093 41.3397 3.9879
53.0776 39.3055 3.97789
39.4419 6.80031 3.98745
59.8624 35.1198 0.0272848
57.9791 32.2696 0.0246185
56.5365 29.3389 0.0248643
55.3424 19.1838 0.021199
54.9992 21.5616 0.0294504
54.9238 24.0578 0.0300149
55.4354 26.5972 0.0251628
53.1246 18.6535 0.0225115
51.3016 18.0421 0.0152819
50.6333 16.1258 0.0198669
45.9623 5.88098 0.0106247
49.7139 13.7385 0.0176465
47.355 8.62203 0.0138163
48.6001 11.2904 0.0160726
43.3735 7.4714 0.0129622
57.354 34.7604 2
41.3986 7.07624 2
45.3596 7.9928 2
42.8653 9.41304 2
55.709 31.5195 2
54.4745 28.4053 2
53.9688 20.132 2
53.5758 22.7105 2
53.7619 25.4982 2
46.6662 10.6503 2
47.745 13.0979 2
51.6495 19.3164 2
50.0057 17.694 2
48.9308 15.3957 2
54.8389 33.9726 3.97724
53.4576 30.4873 3.97543
52.5654 27.2001 3.9758
52.1343 24.0983 3.97232
52.3871 21.0527 3.98076
41.0133 9.04668 3.98525
44.7236 9.99377 3.98461
42.4682 10.9002 3.98398
46.005 12.7267 3.98243
47.6813 14.5811 3.98211
48.1131 16.9857 3.9789
49.8169 19.6066 3.97606
49.5926 61.7513 0.0159171
50.5676 59.3357 0.0209738
55.5928 41.7079 0.0231393
54.1564 45.5658 0.022918
53.3197 49.3285 0.0264898
52.1849 56.4957 0.0250576
52.6608 52.8421 0.032354
48.8495 60.2099 2
52.4758 42.6412 2
49.7897 57.6347 2
50.5898 54.4311 2
51.7717 47.2672 2
51.2005 50.9379 2
48.1029 43.8143 2
47.9876 58.7508 3.9809
50.0405 45.278 3.9765
48.5962 55.924 3.97855
49.1193 52.5931 3.97209
49.6433 49.0455 3.97406
45.9124 39.8793 3.89797
46.3456 42.6896 3.94268
46.4435 45.8565 3.99483
43.7596 41.1773 3.87938
41.9858 42.0277 3.8215
47.3301 61.0164 0.0159833
46.6192 59.8039 2
45.4693 58.8001 3.98368
39.6328 67.7711 0.013168
41.5466 65.65 0.014318
43.1471 63.7333 0.0147791
44.4842 61.8431 0.015758
45.767 60.6381 0.016579
41.6003 63.8271 2
37.5632 67.7542 2
39.6477 65.6187 2
44.6241 60.3014 2
42.951 62.092 2
41.7541 62.5021 3.98453
42.4819 59.9932 3.9851
39.8939 63.5617 3.98466
37.6423 65.5171 3.98485
35.4632 67.6628 3.98675
33.5749 65.3501 3.98511
31.9588 63.31 3.98468
29.8824 64.7278 3.98583
31.6965 65.1375 2
31.3761 67.2009 3.98687
33.3918 67.4918 2
33.1556 69.7554 3.98932
35.333 69.9627 2
35.1948 72.3739 3.99327
37.5259 70.052 0.0106974
37.5095 72.4598 2
37.5 75 4
39.8179 72.4049 0.00658152
39.9526 74.9197 2
42.3947 74.6792 0
39.6236 4.7144 3.98989
41.7362 4.96679 2
42.0621 2.7173 3.99358
43.8516 5.35802 0.0104355
44.326 3.10939 2
44.8158 0.721173 4
46.5706 3.64641 0.00662509
47.2057 1.27779 2
49.554 1.99015 0
57.9579 40.6587 0.0255926
59.718 37.5674 0.0273449
55.055 39.7227 0.0229268
49.5216 41.342 2
56.7712 37.8965 2
53.0768 39.306 2
53.9278 36.6296 3.9779
47.436 40.42 3.94521
50.4489 38.5134 3.98692
37.5158 6.67129 3.98756
39.442 6.79978 2
39.2107 8.68927 3.98558
35.9412 8.48891 3.98584
57.3548 34.7605 0.0240657
55.7101 31.5193 0.023633
54.473 28.4043 0.0229299
53.9682 20.1333 0.0222106
53.5753 22.7136 0.032912
53.7627 25.4973 0.025074
51.6493 19.3173 0.012707
50.0058 17.6951 0.0201916
48.931 15.3967 0.0188958
45.3596 7.99326 0.013475
47.7453 13.0986 0.0172348
46.6664 10.651 0.0156663
41.3986 7.07678 0.0125791
42.8654 9.4135 0.0146603
54.8402 33.9726 2
41.0133 9.04621 2
44.7234 9.99342 2
42.4679 10.8998 2
53.4539 30.4877 2
52.5703 27.2012 2
52.388 21.0515 2
52.1351 24.0993 2
46.0046 12.7258 2
47.681 14.5802 2
49.8172 19.6054 2
48.113 16.9845 2
52.3979 32.8788 3.97937
51.2861 29.1591 3.97726
50.7715 25.7281 3.97166
49.9366 22.1896 3.97754
40.5692 11.6042 3.98311
43.8579 11.9159 3.9834
45.8025 15.418 3.98121
47.5034 19.2215 3.97665
46.2451 37.4983 3.90308
48.8497 60.2092 0.0173386
49.7896 57.6334 0.0222179
52.4747 42.6426 0.0227114
51.7722 47.2689 0.0242189
51.1986 50.9393 0.0305323
50.5889 54.4293 0.0274487
48.1016 43.8056 0.00731409
47.9874 58.7517 2
50.0448 45.2798 2
48.5965 55.9254 2
49.1204 52.5957 2
49.6453 49.0442 2
45.9331 39.8871 2
46.361 42.7003 2
46.4436 45.8493 2
43.7784 41.1908 2
41.9926 42.0336 2
46.8387 57.3536 3.98312
44.5052 39.4606 3.87179
42.3378 40.8921 3.84482
48.0411 47.2452 3.97607
47.1626 54.2525 3.97828
47.5698 50.7482 3.97107
44.7639 47.4357 3.99481
45.0117 41.9725 3.90146
44.8865 44.5928 3.9489
42.6057 42.7014 3.8792
40.8766 42.3758 3.85091
46.6195 59.8033 0.0168761
45.4688 58.8009 2
43.8772 57.7263 3.98446
37.5633 67.7535 0.0132082
39.6479 65.6181 0.014729
41.6005 63.8266 0.0148292
42.9512 62.0914 0.0155168
44.6243 60.3007 0.0165485
35.4632 67.6636 2
41.7539 62.5026 2
39.8937 63.5621 2
37.6422 65.5177 2
42.4818 59.994 2
40.6235 61.6608 3.98414
40.4459 58.2273 3.98589
37.8371 63.2226 3.98398
35.5727 65.4392 3.98498
33.575 65.3507 2
31.9588 63.3106 2
33.6286 63.3497 3.98427
30.3776 62.8685 3.98491
32.1224 62.017 3.98482
26.8672 61.512 3.98443
28.0611 64.1559 3.98586
29.8825 64.7285 2
29.4054 66.7646 3.98696
31.6964 65.1368 0.0144652
31.3762 67.2016 2
31.0127 69.4204 3.9894
33.3917 67.4911 0.0132556
33.1556 69.756 2
32.8917 72.1481 3.99332
35.333 69.9621 0.0107007
35.1947 72.3742 2
35.0474 74.9194 4
37.5095 72.4595 0.00671269
37.5 75 2
39.9526 74.9197 0
35.6203 6.7223 3.98752
37.5228 4.61388 3.99005
39.6237 4.71394 2
39.7885 2.47372 3.99369
41.7361 4.96729 0.0102268
42.0623 2.71701 2
42.3946 0.32156 4
44.3258 3.10965 0.00648526
44.8159 0.72056 2
47.2057 1.27793 0
49.5093 41.3397 0.0120962
56.7716 37.8967 0.023683
53.0776 39.3055 0.0221138
47.4487 40.4297 2
50.459 38.5127 2
53.931 36.6302 2
51.2509 35.5845 3.97785
48.0906 37.7543 3.96263
45.9172 35.1423 3.90033
43.7695 33.832 3.87566
41.9943 32.9875 3.81873
37.4574 8.53092 3.98555
37.5158 6.6706 2
39.4419 6.80031 0.0125452
39.2108 8.68874 2
38.976 10.1223 3.98508
35.8979 9.76887 3.9845
34.1496 8.81832 3.98566
35.9412 8.48821 2
54.8389 33.9726 0.0227575
53.4576 30.4873 0.02457
52.5654 27.2001 0.0241995
52.3871 21.0527 0.019239
52.1343 24.0983 0.0276833
49.8169 19.6066 0.023942
48.1131 16.9857 0.021096
47.6813 14.5811 0.0178869
44.7236 9.99377 0.0153925
46.005 12.7267 0.0175721
41.0133 9.04668 0.0147503
42.4682 10.9002 0.0160181
52.3977 32.8789 2
40.5688 11.604 2
43.8574 11.9155 2
51.298 29.159 2
50.7723 25.7301 2
49.9377 22.1885 2
45.8021 15.4168 2
47.5036 19.2201 2
49.9286 31.4152 3.969
49.2578 27.4802 3.97647
49.3933 24.4028 3.97887
47.1849 21.9469 3.97536
38.3015 12.7293 3.98341
42.1013 14.3006 3.98242
44.8003 18.4559 3.9799
44.7946 37.5066 3.87021
46.2707 37.5058 2
47.9876 58.7508 0.0191041
48.5962 55.924 0.021451
50.0405 45.278 0.0235005
49.6433 49.0455 0.025938
49.1193 52.5931 0.0279077
45.9124 39.8793 0.102035
46.3456 42.6896 0.057321
46.4435 45.8565 0.00516855
43.7596 41.1773 0.120621
41.9858 42.0277 0.178498
46.8386 57.3548 2
44.5175 39.4692 2
42.3349 40.8926 2
48.043 47.2466 2
47.1633 54.2554 2
47.5718 50.7499 2
44.7681 47.412 2
45.0266 41.9835 2
44.9014 44.607 2
42.6295 42.7196 2
40.8753 42.3755 2
45.3974 55.9412 3.98578
42.6676 39.2776 3.85822
40.7958 40.8168 3.90658
46.0653 48.9208 3.98617
45.5326 52.5447 3.9809
43.4262 48.4661 4.01102
43.3422 46.155 3.95032
43.6257 43.7894 3.8993
41.1238 43.8758 3.87433
39.2955 42.7364 3.86518
45.4693 58.8001 0.016322
43.8768 57.7269 2
42.1073 56.3546 3.98821
35.4632 67.6628 0.0132549
37.6423 65.5171 0.0151497
39.8939 63.5617 0.0153421
41.7541 62.5021 0.0154721
42.4819 59.9932 0.0149009
35.5728 65.44 2
40.6233 61.6614 2
37.8369 63.2231 2
40.4457 58.2284 2
38.9259 56.5253 3.99102
38.2505 60.3445 3.98452
35.6069 63.2162 3.98382
33.5749 65.3501 0.0148906
31.9588 63.31 0.0153167
33.6285 63.3503 2
30.3777 62.869 2
32.1224 62.0175 2
28.6799 62.214 3.98503
33.3453 61.5299 3.98448
31.0655 61.2344 3.98495
27.5665 59.6102 3.98289
23.7896 59.0948 3.98072
25.0328 60.8843 3.98329
26.8674 61.5125 2
26.2277 63.4881 3.98566
28.0614 64.1565 2
27.4618 66.1884 3.98711
29.8824 64.7278 0.0141746
29.4055 66.7652 2
28.9048 68.9459 3.98946
31.3761 67.2009 0.0131289
31.0127 69.421 2
30.614 71.7791 3.9934
33.1556 69.7554 0.0106797
32.8916 72.1484 2
32.6054 74.6784 4
35.1948 72.3739 0.00672505
35.0474 74.9197 2
37.5 75 0
33.7229 6.97679 3.98713
35.4341 4.68427 3.98992
35.6202 6.72166 2
37.514 2.38636 3.99376
37.5228 4.61335 2
39.6236 4.7144 0.0101112
39.7886 2.47342 2
39.9526 0.0806499 4
42.0621 2.7173 0.00642382
42.3947 0.320817 2
44.8158 0.721173 0
44.5253 35.5493 3.86714
42.35 34.1163 3.84171
47.436 40.42 0.0547863
50.4489 38.5134 0.0130821
53.9278 36.6296 0.0220999
48.101 37.7601 2
51.2586 35.5835 2
45.9324 35.1278 2
43.7899 33.8175 2
42.0009 32.9815 2
48.2733 34.3005 3.98225
45.017 33.0402 3.89741
42.6136 32.3151 3.87695
40.8852 32.6379 3.84882
37.31 10.6258 3.98406
37.4575 8.53003 2
37.5158 6.67129 0.0124449
39.2107 8.68927 0.0144204
38.9759 10.1217 2
34.7529 10.3744 3.98427
35.8979 9.76811 2
32.3762 9.36477 3.98514
34.1495 8.81756 2
35.9412 8.48891 0.0141589
52.3979 32.8788 0.0206291
51.2861 29.1591 0.0227397
50.7715 25.7281 0.0283436
49.9366 22.1896 0.0224606
47.5034 19.2215 0.0233529
45.8025 15.418 0.0187926
43.8579 11.9159 0.0165961
40.5692 11.6042 0.0168861
49.9325 31.4113 2
38.301 12.7288 2
42.1007 14.3004 2
49.2586 27.4829 2
49.3942 24.4022 2
47.1862 21.9475 2
44.8004 18.4547 2
47.755 29.5528 3.99126
47.0909 25.1382 3.98179
44.2889 21.3107 3.97668
36.581 12.9255 3.983
38.6809 14.7985 3.98268
41.7498 17.8295 3.98128
42.8122 37.4948 3.85787
44.8134 37.5048 2
46.2451 37.4983 0.0969173
46.8387 57.3536 0.016881
47.1626 54.2525 0.0217179
48.0411 47.2452 0.023932
47.5698 50.7482 0.02893
44.5052 39.4606 0.128213
45.0117 41.9725 0.0985423
44.8865 44.5928 0.0510997
44.7639 47.4357 0.00518976
42.6057 42.7014 0.120797
42.3378 40.8921 0.155177
40.8766 42.3758 0.149085
45.3976 55.9427 2
42.6687 39.2769 2
40.7922 40.8129 2
46.0667 48.922 2
45.5344 52.5479 2
43.4293 48.4833 2
43.3644 46.1735 2
43.6422 43.8033 2
41.1418 43.8907 2
39.2908 42.7302 2
43.7349 54.4587 3.99563
40.906 39.1802 3.93426
39.185 40.9086 3.93708
43.686 50.518 3.99684
41.9413 47.6961 3.98079
41.8606 45.2048 3.9011
39.3855 44.6128 3.88878
37.4904 42.8639 3.87337
43.8772 57.7263 0.0155417
42.1067 56.3553 2
40.4191 54.9664 3.99093
35.5727 65.4392 0.0150163
37.8371 63.2226 0.0160217
40.6235 61.6608 0.0158608
40.4459 58.2273 0.0141114
35.6067 63.2169 2
38.2502 60.3451 2
38.9255 56.5273 2
37.9997 55.2841 3.9905
36.9345 57.6506 3.98622
35.3633 60.9289 3.98416
33.6286 63.3497 0.0157312
30.3776 62.8685 0.0150945
32.1224 62.017 0.0151765
33.3452 61.5305 2
28.6801 62.2144 2
31.0655 61.2348 2
29.4016 60.3044 3.98419
32.3553 59.763 3.98556
28.0197 58.3899 3.98494
27.5665 59.6107 2
25.3765 58.6082 3.98037
22.7532 58.2518 3.97614
23.3986 60.3629 3.98104
23.7895 59.0959 2
25.033 60.885 2
24.4303 62.7803 3.98503
26.8672 61.512 0.0155691
26.2279 63.4887 2
25.5458 65.4983 3.98716
28.0611 64.1559 0.014139
27.462 66.189 2
26.8343 68.3342 3.98951
29.4054 66.7646 0.0130378
28.9048 68.9464 2
28.3691 71.2643 3.99346
31.0127 69.4204 0.0106041
30.6138 71.7794 2
30.1842 74.2788 4
32.8917 72.1481 0.00668176
32.6053 74.6792 2
35.0474 74.9194 0
31.7872 7.41651 3.98684
33.346 4.92338 3.9898
33.7228 6.97614 2
35.2441 2.46252 3.99372
35.4341 4.68375 2
35.6203 6.7223 0.0124785
37.5 0 4
37.514 2.38603 2
37.5228 4.61388 0.00995379
39.7885 2.47372 0.00630809
39.9526 0.0802889 2
42.3946 0.32156 0
42.6807 35.7196 3.85766
44.5379 35.541 2
40.8072 34.1928 3.9055
42.347 34.1172 2
48.0906 37.7543 0.0373674
51.2509 35.5845 0.0221499
45.9172 35.1423 0.0996711
43.7695 33.832 0.12434
41.9943 32.9875 0.181267
48.2841 34.2899 2
45.0322 33.0288 2
42.6339 32.2992 2
40.8831 32.6377 2
46.2739 31.5608 3.96258
43.6298 31.2316 3.89685
41.1379 31.1444 3.87619
39.3026 32.2745 3.86468
35.6912 11.77 3.98318
37.31 10.625 2
37.4574 8.53092 0.0144504
38.976 10.1223 0.0149207
33.0967 11.2109 3.98316
34.7529 10.3736 2
35.8979 9.76887 0.0154984
30.4808 10.0126 3.98464
32.3761 9.36402 2
34.1496 8.81832 0.0143447
49.9286 31.4152 0.0309977
49.2578 27.4802 0.0235284
49.3933 24.4028 0.0211269
47.1849 21.9469 0.0246423
44.8003 18.4559 0.0201006
42.1013 14.3006 0.0175791
38.3015 12.7293 0.0165862
36.5806 12.9249 2
47.756 29.546 2
38.6801 14.7982 2
41.7492 17.8286 2
47.0925 25.139 2
44.2901 21.3083 2
45.5323 27.6499 3.99852
43.7964 24.0373 3.9972
41.3409 20.7052 3.98174
35.7709 14.7503 3.98271
38.6809 17.5845 3.98119
40.9559 37.4867 3.94558
42.8172 37.4965 2
44.7946 37.5066 0.129792
45.3974 55.9412 0.0142195
45.5326 52.5447 0.0191029
46.0653 48.9208 0.0138262
42.6676 39.2776 0.141782
43.6257 43.7894 0.100698
43.3422 46.155 0.0496835
43.4262 48.4661 -0.0110225
41.1238 43.8758 0.125673
40.7958 40.8168 0.09342
39.2955 42.7364 0.134819
43.7355 54.4607 2
40.9022 39.1776 2
39.1811 40.9014 2
43.6883 50.5293 2
41.9456 47.7087 2
41.8837 45.2196 2
37.4917 42.8561 2
39.4059 44.6183 2
41.8786 53.0361 3.99543
39.1997 39.1814 3.96546
37.4917 40.9591 3.95013
35.6926 42.7345 3.86566
40.9202 49.7515 4.00305
39.8033 46.1086 3.88315
37.4931 44.8518 3.8863
42.1073 56.3546 0.0117857
40.4185 54.9672 2
38.7291 53.8998 3.99376
35.6069 63.2162 0.0161829
38.2505 60.3445 0.0154788
38.9259 56.5253 0.00897889
35.363 60.9295 2
36.9341 57.6512 2
37.9991 55.2851 2
36.3191 55.4149 3.99268
34.4867 58.5418 3.98558
33.3453 61.5299 0.0155205
28.6799 62.214 0.0149718
31.0655 61.2344 0.015051
32.3553 59.7635 2
29.4016 60.3046 2
30.2952 57.8367 3.98581
28.0195 58.3905 2
26.9414 56.839 3.98008
27.5665 59.6102 0.0171142
25.3764 58.609 2
23.835 56.8139 3.97458
21.3296 57.4097 3.97599
21.9911 59.6337 3.98042
22.753 58.253 2
22.7341 62.0313 3.98354
23.3987 60.364 2
23.7896 59.0948 0.0192818
25.0328 60.8843 0.0167051
24.4305 62.781 2
23.6797 64.7165 3.9868
26.2277 63.4881 0.0143357
25.546 65.4989 2
24.8065 67.5952 3.98949
27.4618 66.1884 0.0128916
26.8343 68.3347 2
26.1642 70.605 3.99352
28.9048 68.9459 0.0105398
28.3688 71.2645 2
27.7943 73.7221 4
30.614 71.7791 0.00659956
30.1841 74.2794 2
32.6054 74.6784 0
29.8096 7.98963 3.98638
31.2511 5.33053 3.98948
31.7871 7.41579 2
32.9798 2.70066 3.99364
33.346 4.92282 2
33.7229 6.97679 0.0128709
35.0474 0.080333 4
35.2441 2.4622 2
35.4341 4.68427 0.0100823
37.5 0 2
37.514 2.38636 0.00623984
39.9526 0.0806499 0
40.9138 35.8052 3.93528
42.6815 35.7223 2
44.5253 35.5493 0.13286
28.5415 10.6877 3.98467
39.1925 34.101 3.93696
40.8025 34.1971 2
42.35 34.1163 0.158294
48.2733 34.3005 0.017747
45.017 33.0402 0.102588
42.6136 32.3151 0.123048
40.8852 32.6379 0.151182
46.2885 31.5521 2
43.64 31.2191 2
41.1554 31.1293 2
39.2987 32.2788 2
44.3898 29.7431 3.94914
41.8771 29.8139 3.90409
39.4027 30.3955 3.88934
37.4977 32.1452 3.87432
34.091 12.9279 3.98253
35.6911 11.7692 2
37.31 10.6258 0.0159402
31.1845 11.9787 3.98369
33.0967 11.2101 2
34.7529 10.3744 0.0157256
30.4807 10.0118 2
32.3762 9.36477 0.0148628
47.755 29.5528 0.00874494
47.0909 25.1382 0.0182128
36.581 12.9255 0.0169993
44.2889 21.3107 0.0233211
41.7498 17.8295 0.0187213
38.6809 14.7985 0.017318
35.7702 14.7499 2
45.5329 27.6481 2
38.6799 17.5839 2
41.3411 20.7027 2
43.7982 24.0385 2
33.6059 15.8661 3.98255
43.0475 26.472 3.99856
40.916 23.2719 3.99772
38.4207 20.3128 3.98265
35.8471 17.4969 3.98374
39.215 37.4865 3.97273
40.9481 37.4867 2
42.8122 37.4948 0.142125
43.7349 54.4587 0.00437433
43.686 50.518 0.00316439
40.906 39.1802 0.0657433
41.8606 45.2048 0.0988958
41.9413 47.6961 0.0192058
39.3855 44.6128 0.111225
39.185 40.9086 0.0629214
37.4904 42.8639 0.126631
41.8804 53.0388 2
39.1956 39.1802 2
37.4917 40.9525 2
40.9247 49.756 2
35.6958 42.7302 2
39.8263 46.1275 2
37.4914 44.8506 2
39.8189 51.9527 3.9957
37.4903 39.1956 3.97922
35.7982 40.9166 3.93638
34.1081 42.372 3.85031
35.5807 44.6134 3.88644
38.7114 48.7643 3.99201
37.4862 46.4381 3.88591
40.4191 54.9664 0.00906718
38.7286 53.8998 2
36.7199 53.2549 4.00633
35.3633 60.9289 0.0158389
36.9345 57.6506 0.013781
37.9997 55.2841 0.00949698
34.4864 58.5423 2
36.3185 55.4154 2
33.224 55.5281 3.98833
32.3553 59.763 0.0144359
29.4016 60.3044 0.0158141
30.2952 57.837 2
28.6857 55.3288 3.97949
28.0197 58.3899 0.0150626
26.9409 56.8396 2
25.3053 55.1518 3.97555
21.8034 55.3557 3.97142
25.3765 58.6082 0.0196261
23.8346 56.8154 2
20.214 57.0374 3.979
20.6418 58.7908 3.97868
21.3292 57.4109 2
21.1643 61.1799 3.98208
21.9911 59.6349 2
22.7532 58.2518 0.0238615
21.8931 63.8444 3.9861
22.7342 62.0322 2
23.3986 60.3629 0.0189584
24.4303 62.7803 0.0149703
23.6799 64.7172 2
22.8347 66.7387 3.98946
25.5458 65.4983 0.0128357
24.8066 67.5957 2
24.0084 69.8061 3.99349
26.8343 68.3342 0.0104871
26.1639 70.6052 2
25.446 73.0099 4
28.3691 71.2643 0.00653972
27.7943 73.7222 2
30.1842 74.2788 0
27.8193 8.64917 3.98615
29.153 5.87624 3.98913
29.8094 7.98887 2
30.7249 3.09784 3.99345
31.251 5.32993 2
31.7872 7.41651 0.0131578
32.6053 0.320823 4
32.9797 2.70033 2
33.346 4.92338 0.0101978
35.0474 0.0802903 2
35.2441 2.46252 0.00627627
37.5 0 0
39.2128 35.804 3.96488
40.9091 35.808 2
42.6807 35.7196 0.14234
28.5415 10.6869 2
26.6203 11.3824 3.98478
29.2233 12.6348 3.9842
37.4972 34.0495 3.95049
39.1881 34.1076 2
40.8072 34.1928 0.0944979
46.2739 31.5608 0.037424
43.6298 31.2316 0.103149
41.1379 31.1444 0.123807
39.3026 32.2745 0.13532
44.406 29.7301 2
41.8981 29.7965 2
39.4184 30.3855 2
37.4982 32.1532 2
42.3555 28.3806 3.93652
39.8515 28.8987 3.89851
37.5102 30.1459 3.88506
35.6966 32.2675 3.86448
31.9122 14.4721 3.98324
34.0908 12.9271 2
35.6912 11.77 0.0168167
31.1845 11.9779 2
33.0967 11.2109 0.0168393
30.4808 10.0126 0.0153635
45.5323 27.6499 0.00148279
43.7964 24.0373 0.00279918
35.7709 14.7503 0.0172937
41.3409 20.7052 0.0182632
38.6809 17.5845 0.0188074
33.6053 15.8657 2
35.8459 17.4969 2
43.0503 26.4752 2
38.4201 20.3119 2
40.9162 23.2659 2
33.548 17.3739 3.98425
40.4232 25.6132 4.00841
38.0762 22.8409 3.99362
35.5825 20.0609 3.98701
37.4963 37.4951 3.98575
39.209 37.4865 2
40.9559 37.4867 0.0544171
41.8786 53.0361 0.00457474
40.9202 49.7515 -0.00304928
39.1997 39.1814 0.0345379
39.8033 46.1086 0.116854
37.4931 44.8518 0.113697
37.4917 40.9591 0.0498749
35.6926 42.7345 0.134341
39.8226 51.9557 2
37.4916 39.1937 2
35.8027 40.9105 2
38.7115 48.7941 2
34.1094 42.3712 2
35.5696 44.6277 2
37.4856 46.458 2
37.6578 51.0525 4.01066
35.7863 39.1966 3.96606
34.191 40.823 3.90621
32.9944 42.0234 3.82031
33.8456 43.8683 3.87396
35.1539 46.0998 3.89411
36.8471 48.4128 3.97403
38.7291 53.8998 0.00624199
36.7201 53.2553 2
34.3604 52.5064 3.99368
34.4867 58.5418 0.0144155
36.3191 55.4149 0.00732187
33.2237 55.5282 2
30.5147 53.4074 3.98218
30.2952 57.8367 0.0141935
28.6852 55.3302 2
26.8759 53.4423 3.97505
26.9414 56.839 0.0199206
25.3048 55.1542 2
23.5668 53.4862 3.96992
20.4609 53.2246 3.96627
19.9266 55.8391 3.97498
21.8027 55.357 2
23.835 56.8139 0.0254226
19.4343 57.8995 3.97795
20.2135 57.0383 2
19.7038 60.2126 3.98086
20.6417 58.7921 2
21.3296 57.4097 0.0240084
20.2056 62.8651 3.98447
21.1644 61.181 2
21.9911 59.6337 0.0195768
20.9362 65.7678 3.98928
21.8933 63.8453 2
22.7341 62.0313 0.0164613
23.6797 64.7165 0.0131978
22.8348 66.7393 2
21.9109 68.8732 3.99343
24.8065 67.5952 0.0105102
24.0081 69.8063 2
23.1494 72.1454 4
26.1642 70.605 0.0064834
25.446 73.0099 2
27.7943 73.7221 0
25.8584 9.37707 3.98599
27.0677 6.5403 3.98877
27.8192 8.64832 2
28.4871 3.64378 3.99327
29.1528 5.87561 2
29.8096 7.98963 0.0136246
30.1841 0.720592 4
30.7248 3.09752 2
31.2511 5.33053 0.0105198
32.6053 0.320817 2
32.9798 2.70066 0.00636258
35.0474 0.080333 0
37.4996 35.8007 3.97996
39.2059 35.8051 2
40.9138 35.8052 0.0647247
24.7751 12.0652 3.98489
23.7494 14.3493 3.98399
28.5415 10.6877 0.015331
26.6204 11.3818 2
29.2233 12.6339 2
27.2894 13.367 3.98428
29.778 14.1936 3.98364
35.8073 34.0904 3.93721
37.4974 34.0559 2
39.1925 34.101 0.0630444
37.4977 32.1452 0.125682
44.3898 29.7431 0.0508639
41.8771 29.8139 0.0959055
39.4027 30.3955 0.110661
42.3736 28.3638 2
39.8668 28.8774 2
37.511 30.146 2
35.7016 32.2723 2
40.0445 27.5251 3.93483
37.5218 28.566 3.89528
35.602 30.3925 3.8895
34.1184 32.6254 3.84879
30.9235 16.8273 3.98367
31.912 14.4713 2
34.091 12.9279 0.0174671
31.1845 11.9787 0.0163107
43.0475 26.472 0.00144487
40.916 23.2719 0.00227953
33.6059 15.8661 0.0174494
35.8471 17.4969 0.0162561
38.4207 20.3128 0.0173489
33.5471 17.374 2
35.582 20.0603 2
40.424 25.608 2
38.0759 22.8398 2
32.8607 19.7782 3.98528
37.8009 25.1509 4.01818
35.201 22.6131 3.99296
35.7814 37.5003 3.97426
37.4961 37.4947 2
39.215 37.4865 0.0272711
39.8189 51.9527 0.00430405
38.7114 48.7643 0.00799141
37.4903 39.1956 0.0207814
37.4862 46.4381 0.114088
35.5807 44.6134 0.113558
35.7982 40.9166 0.0636158
34.1081 42.372 0.149689
37.6624 51.0629 2
35.7936 39.1947 2
34.1953 40.8187 2
36.8468 48.429 2
32.9881 42.0276 2
33.8337 43.8784 2
35.1352 46.1143 2
35.4588 50.1837 4.01222
34.0894 39.1929 3.93554
32.6376 40.8926 3.8429
32.3705 42.6944 3.87802
33.1255 45.1958 3.90216
34.2638 47.4723 3.94499
36.7199 53.2549 -0.00633243
34.3607 52.5088 2
31.9959 51.2156 3.99733
33.224 55.5281 0.0116687
30.514 53.4102 2
28.4212 51.6169 3.97866
28.6857 55.3288 0.0205056
26.8752 53.4441 2
25.0713 51.7567 3.96724
25.3053 55.1518 0.0244536
23.5661 53.4874 2
21.9579 51.8068 3.96564
19.1942 51.6372 3.96926
18.9157 54.3125 3.96862
20.4601 53.2242 2
18.4425 56.7305 3.97769
19.9258 55.8401 2
21.8034 55.3557 0.0285789
18.3661 59.118 3.9777
19.434 57.9005 2
20.214 57.0374 0.0210032
18.6167 61.7717 3.98267
19.7038 60.2137 2
20.6418 58.7908 0.0213196
19.1252 64.6784 3.98833
20.2057 62.8661 2
21.1643 61.1799 0.0179205
19.8849 67.8097 3.99331
20.9363 65.7685 2
21.8931 63.8444 0.0138989
22.8347 66.7387 0.0105354
21.9106 68.8733 2
20.9142 71.1327 4
24.0084 69.8061 0.00650949
23.1494 72.1455 2
25.446 73.0099 0
23.0944 12.7796 3.98448
23.9708 10.1634 3.98591
25.0214 7.3104 3.98855
25.8583 9.37641 2
26.2788 4.32801 3.99308
27.0674 6.5396 2
27.8193 8.64917 0.0138481
27.7943 1.27781 4
28.4869 3.64348 2
29.153 5.87624 0.0108682
30.1841 0.720551 2
30.7249 3.09784 0.00654902
32.6053 0.320823 0
35.79 35.8066 3.9669
37.4988 35.8019 2
39.2128 35.804 0.0351197
24.7753 12.0646 2
23.7497 14.3491 2
22.4782 15.0259 3.98342
25.3555 13.8988 3.98383
24.0226 15.6113 3.98285
26.6203 11.3824 0.0152222
29.2233 12.6348 0.0158013
27.2895 13.3666 2
29.7779 14.1927 2
28.3539 15.9668 3.98395
34.2044 34.1831 3.90548
35.8115 34.0967 2
37.4972 34.0495 0.0495109
35.6966 32.2675 0.135522
37.5102 30.1459 0.114938
42.3555 28.3806 0.0634843
39.8515 28.8987 0.101494
40.0563 27.5108 2
37.5243 28.545 2
35.5865 30.3804 2
34.1209 32.6248 2
37.619 27.2039 3.94351
35.1792 28.886 3.89667
33.8566 31.1334 3.87565
33.0129 32.9746 3.8201
30.2052 19.3287 3.98644
30.9231 16.8269 2
31.9122 14.4721 0.0167607
40.4232 25.6132 -0.00841064
38.0762 22.8409 0.00637795
33.548 17.3739 0.0157471
35.5825 20.0609 0.0129856
32.8596 19.7788 2
35.1979 22.6088 2
37.7893 25.1515 2
32.3084 22.3899 3.99026
34.9771 25.1398 4.00769
34.0415 37.5007 3.94522
35.787 37.4998 2
37.4963 37.4951 0.0142489
37.6578 51.0525 -0.0106582
36.8471 48.4128 0.025969
35.7863 39.1966 0.0339355
35.1539 46.0998 0.105886
33.8456 43.8683 0.126043
34.191 40.823 0.0937861
32.9944 42.0234 0.179691
35.4565 50.1942 2
34.0976 39.1902 2
32.6396 40.8913 2
34.2585 47.5049 2
32.3519 42.7078 2
33.1062 45.214 2
33.2339 49.1745 4.00727
32.3104 39.2837 3.85917
31.2119 41.173 3.87723
31.3621 43.7813 3.89873
32.2409 46.3901 3.944
34.3604 52.5064 0.00631593
31.9951 51.222 2
29.8473 49.7302 3.98782
30.5147 53.4074 0.0178202
28.4199 51.6148 2
26.499 49.9976 3.97098
26.8759 53.4423 0.024954
25.0702 51.7555 2
23.3342 50.2022 3.9738
23.5668 53.4862 0.0300819
21.9573 51.8062 2
20.4574 50.3208 3.97125
17.9823 50.3339 3.97144
17.8284 52.7938 3.96757
19.1937 51.637 2
17.432 55.3453 3.97264
18.9149 54.313 2
20.4609 53.2246 0.0337306
17.1315 57.8793 3.97803
18.4419 56.7315 2
19.9266 55.8391 0.0250196
17.1343 60.5538 3.9802
18.3659 59.1191 2
19.4343 57.8995 0.0220502
17.4059 63.4705 3.98645
18.6168 61.7728 2
19.7038 60.2126 0.0191413
17.941 66.6181 3.99302
19.1253 64.6793 2
20.2056 62.8651 0.0155314
18.75 69.9759 4
19.8846 67.8099 2
20.9362 65.7678 0.0107156
21.9109 68.8732 0.00656508
20.9142 71.1327 2
23.1494 72.1454 0
21.5853 13.5998 3.98394
22.1889 11.0225 3.98558
23.0948 12.7795 2
23.0392 8.17568 3.98844
23.9709 10.1631 2
24.1164 5.14273 3.9929
25.0212 7.30987 2
25.8584 9.37707 0.0140083
25.446 1.99014 4
26.2784 4.32775 2
27.0677 6.5403 0.0112326
27.7943 1.27778 2
28.4871 3.64378 0.00672994
30.1841 0.720592 0
34.0886 35.8095 3.93426
35.7949 35.8075 2
37.4996 35.8007 0.02004
21.3033 15.8216 3.98276
24.7751 12.0652 0.015115
23.7494 14.3493 0.016009
25.3557 13.8984 2
22.4786 15.0259 2
24.0229 15.6112 2
23.2618 16.243 3.98265
25.3778 16.0793 3.98375
27.2894 13.367 0.0157176
29.778 14.1936 0.0163619
28.3541 15.9665 2
27.437 18.7881 3.98506
32.6623 34.1067 3.84308
34.2098 34.1865 2
35.8073 34.0904 0.0627868
34.1184 32.6254 0.151213
35.602 30.3925 0.110497
37.5218 28.566 0.104718
40.0445 27.5251 0.0651674
37.6194 27.1733 2
33.0055 32.9711 2
35.1638 28.8669 2
33.8395 31.1142 2
35.0669 27.33 3.94881
33.1361 29.8086 3.89663
32.3802 32.2969 3.87445
29.5723 21.9214 3.99504
30.2047 19.3295 2
30.9235 16.8273 0.0163258
37.8009 25.1509 -0.018178
35.201 22.6131 0.00704017
32.8607 19.7782 0.014722
32.3053 22.3908 2
34.9865 25.14 2
31.6873 25.6037 4.00118
32.1763 37.503 3.85892
34.0502 37.5006 2
35.7814 37.5003 0.0257377
35.4588 50.1837 -0.0122227
34.2638 47.4723 0.0550089
34.0894 39.1929 0.064462
33.1255 45.1958 0.0978401
32.3705 42.6944 0.121977
32.6376 40.8926 0.157099
33.2304 49.1637 2
32.3103 39.2807 2
31.1923 41.1831 2
32.217 46.4102 2
31.3477 43.7936 2
31.1359 47.9987 3.99605
30.4619 39.4558 3.86841
29.9683 41.9689 3.89574
30.414 44.9719 3.94778
31.9959 51.2156 0.00266631
29.8457 49.7279 2
27.8627 48.195 3.97444
28.4212 51.6169 0.021344
26.4981 49.9959 2
24.6411 48.4823 3.97781
25.0713 51.7567 0.032757
23.3336 50.2013 2
21.6527 48.7998 3.97176
21.9579 51.8068 0.0343642
20.457 50.3204 2
19.0258 49.099 3.97336
16.8877 49.3353 3.97273
16.7692 51.4085 3.96947
17.9823 50.3336 2
16.3855 53.8726 3.9697
17.8279 52.7941 2
19.1942 51.6372 0.030739
15.973 56.4799 3.97566
17.4314 55.3461 2
18.9157 54.3125 0.0313762
15.7476 59.214 3.97938
17.1312 57.8804 2
18.4425 56.7305 0.0223118
15.7867 62.1403 3.98382
17.1343 60.5551 2
18.3661 59.118 0.0223005
16.0878 65.3005 3.99232
17.4059 63.4714 2
18.6167 61.7717 0.0173274
16.6661 68.6801 4
17.9407 66.6182 2
19.1252 64.6784 0.0116693
18.75 69.9759 2
19.8849 67.8097 0.00668924
20.9142 71.1327 0
20.2174 14.5886 3.98317
21.5857 13.5998 2
20.5282 11.9923 3.98497
21.1422 9.14538 3.98842
22.1891 11.0223 2
23.0944 12.7796 0.0155202
22.0154 6.08168 3.99285
23.0391 8.17532 2
23.9708 10.1634 0.0140902
23.1494 2.85457 4
24.116 5.14259 2
25.0214 7.3104 0.0114456
25.446 1.99012 2
26.2788 4.32801 0.00691805
27.7943 1.27781 0
32.3222 35.7173 3.85796
34.0947 35.8121 2
35.79 35.8066 0.0330958
21.3036 15.8211 2
20.3008 16.956 3.98261
22.095 16.6272 3.98116
25.3555 13.8988 0.0161654
22.4782 15.0259 0.0165798
24.0226 15.6113 0.0171501
25.3782 16.0791 2
23.2622 16.2429 2
24.2013 18.4424 3.98076
27.0099 21.446 3.98764
28.3539 15.9668 0.0160498
27.4369 18.788 2
31.2417 33.8282 3.87748
32.6631 34.1097 2
34.2044 34.1831 0.09452
33.0129 32.9746 0.179902
33.8566 31.1334 0.124347
35.1792 28.886 0.103327
37.619 27.2039 0.0564927
35.0504 27.3062 2
32.3682 32.2915 2
33.1177 29.7833 2
32.5397 28.0648 3.96772
31.3585 31.2239 3.899
28.7958 24.3879 3.98575
29.5693 21.9236 2
30.2052 19.3287 0.0135617
34.9771 25.1398 -0.00768525
32.3084 22.3899 0.00974411
31.6939 25.5913 2
29.6427 27.2969 3.96854
30.1865 37.4949 3.87106
32.1772 37.5017 2
34.0415 37.5007 0.0547769
33.2339 49.1745 -0.0072685
32.2409 46.3901 0.0560038
32.3104 39.2837 0.140827
31.3621 43.7813 0.10127
31.2119 41.173 0.122775
31.1351 47.9987 2
30.4478 39.466 2
29.954 41.9816 2
30.392 44.9857 2
29.1728 46.5921 3.99992
29.064 39.8575 3.89783
28.6897 43.1833 3.95403
29.8473 49.7302 0.0121837
27.8618 48.1901 2
25.9406 46.6746 3.97661
26.499 49.9976 0.0290152
24.6405 48.4806 2
22.8074 47.0908 3.97716
23.3342 50.2022 0.0262048
21.6522 48.7991 2
19.9735 47.6272 3.9768
20.4574 50.3208 0.028752
19.0266 49.0985 2
17.6644 48.1834 3.97461
16.1381 48.6861 3.97371
16.888 49.3352 2
15.8466 50.1718 3.97222
15.3759 52.4164 3.97013
16.7691 51.4085 2
17.9823 50.3339 0.0285587
14.866 54.9792 3.9726
16.385 53.8732 2
17.8284 52.7938 0.0324257
14.4569 57.7424 3.9781
15.9726 56.481 2
17.432 55.3453 0.0273637
14.2649 60.6941 3.98238
15.7476 59.2152 2
17.1315 57.8793 0.0219654
14.3323 63.8597 3.99117
15.7866 62.1413 2
17.1343 60.5538 0.0197965
14.6715 67.2507 4
16.0874 65.3004 2
17.4059 63.4705 0.0135474
16.6661 68.6801 2
17.941 66.6181 0.00697885
18.75 69.9759 0
18.9315 15.7762 3.98215
20.2176 14.5884 2
18.9779 13.1032 3.98412
21.5853 13.5998 0.0160586
20.5285 11.9921 2
19.3415 10.2331 3.98819
19.9899 7.14633 3.99283
21.1422 9.14505 2
22.1889 11.0225 0.0144188
20.9142 3.86727 4
22.0149 6.0817 2
23.0392 8.17568 0.0115574
23.1494 2.85451 2
24.1164 5.14273 0.00709509
25.446 1.99014 0
30.4861 35.5503 3.87271
32.3237 35.7197 2
34.0886 35.8095 0.0657417
21.3033 15.8216 0.0172369
22.0952 16.6269 2
20.301 16.9553 2
19.2405 18.4035 3.98073
21.7794 17.8439 3.98161
25.3778 16.0793 0.016253
23.2618 16.243 0.0173512
24.2015 18.4425 2
22.2749 19.8868 3.97756
24.5875 21.3148 3.98232
26.4134 23.7106 3.97756
27.0088 21.4464 2
27.437 18.7881 0.0149448
29.9882 33.0298 3.89613
31.216 33.8062 2
32.6623 34.1067 0.156918
32.3802 32.2969 0.125548
33.1361 29.8086 0.103371
35.0669 27.33 0.0511919
32.5318 28.0559 2
31.3602 31.2169 2
30.1166 29.5266 3.96246
27.8814 26.5298 3.97318
28.7979 24.3952 2
29.5723 21.9214 0.00495589
31.6873 25.6037 -0.00118192
29.6389 27.2586 2
28.7317 37.5096 3.9032
30.1788 37.4967 2
32.1763 37.503 0.141085
31.1359 47.9987 0.00394707
30.414 44.9719 0.0522213
30.4619 39.4558 0.131592
29.9683 41.9689 0.104258
29.1724 46.6065 2
29.0468 39.8691 2
28.6726 43.1953 2
27.2782 44.8702 3.98746
26.8336 40.6004 3.97285
27.8627 48.195 0.0255642
25.939 46.6766 2
24.0098 45.2287 3.97882
24.6411 48.4823 0.0221939
22.8073 47.0898 2
20.9351 45.9052 3.97891
21.6527 48.7998 0.0282405
19.9751 47.6266 2
18.3149 46.743 3.97678
19.0258 49.099 0.0266419
17.6641 48.1832 2
16.3281 47.7164 3.97427
16.1383 48.686 2
15.1927 49.0171 3.97308
16.8877 49.3353 0.0272693
15.8467 50.1717 2
14.4899 50.9852 3.97137
13.8291 53.4345 3.97165
15.3757 52.4166 2
16.7692 51.4085 0.0305296
13.2527 56.1689 3.97565
14.8655 54.98 2
16.3855 53.8726 0.0302953
12.8473 59.1274 3.98172
14.4567 57.7435 2
15.973 56.4799 0.0243384
12.6779 62.302 3.9893
14.2648 60.695 2
15.7476 59.214 0.0206231
12.7746 65.6939 4
14.3317 63.8594 2
15.7867 62.1403 0.0161849
14.6714 67.2507 2
16.0878 65.3005 0.00767835
16.6661 68.6801 0
17.6658 17.1522 3.98072
18.9316 15.7757 2
17.5097 14.368 3.98285
20.2174 14.5886 0.0168287
18.9782 13.1027 2
17.6373 11.452 3.98737
20.5282 11.9923 0.0150308
19.3417 10.2329 2
18.0501 8.3392 3.99275
18.75 5.0241 4
19.9895 7.14648 2
21.1422 9.14538 0.0115777
20.9142 3.86727 2
22.0154 6.08168 0.00715265
23.1494 2.85457 0
29.0811 35.1206 3.89793
30.4685 35.5393 2
32.3222 35.7173 0.142045
22.095 16.6272 0.0188447
20.3008 16.956 0.0173866
21.7796 17.8434 2
19.2406 18.4028 2
17.9776 19.9369 3.97798
20.8731 19.3731 3.98006
24.2013 18.4424 0.019235
22.275 19.8863 2
24.5872 21.3159 2
22.3538 21.7135 3.97996
24.6913 23.1607 3.97514
25.4631 25.9389 3.96564
26.4163 23.7111 2
27.0099 21.446 0.0123643
28.3605 32.312 3.94526
29.9722 33.0231 2
31.2417 33.8282 0.122522
31.3585 31.2239 0.101002
32.5397 28.0648 0.0322816
30.0959 29.5126 2
27.0306 29.1231 3.99748
27.878 26.5273 2
28.7958 24.3879 0.0142508
29.6427 27.2969 0.0314599
26.9605 37.3679 3.95875
28.7113 37.5029 2
30.1865 37.4949 0.12894
29.1728 46.5921 8.47707e-05
28.6897 43.1833 0.0459715
29.064 39.8575 0.102169
27.2781 44.8793 2
26.8221 40.6139 2
25.2863 43.182 3.97012
24.0812 39.4274 3.97923
25.9406 46.6746 0.0233907
24.0033 45.2289 2
21.912 43.9612 3.9784
22.8074 47.0908 0.022842
20.9376 45.9046 2
18.9781 44.9754 3.97792
19.9735 47.6272 0.0231976
18.3147 46.7428 2
16.619 46.2154 3.97444
17.6644 48.1834 0.0253938
16.328 47.7163 2
14.9215 47.6719 3.97279
16.1381 48.6861 0.0262899
15.1929 49.017 2
13.7878 49.5466 3.9721
15.8466 50.1718 0.0277777
14.49 50.9852 2
12.8965 51.8736 3.97179
12.1413 54.5267 3.9742
13.829 53.435 2
15.3759 52.4164 0.0298726
11.5323 57.4589 3.98002
13.2524 56.17 2
14.866 54.9792 0.0274011
11.1326 60.6279 3.98786
12.8472 59.1283 2
14.4569 57.7424 0.0219027
10.9835 64.0165 4
12.6773 62.3015 2
14.2649 60.6941 0.0176215
12.7745 65.694 2
14.3323 63.8597 0.00883199
14.6715 67.2507 0
16.3987 18.6471 3.97915
17.6658 17.1516 2
16.1008 15.7774 3.9822
18.9315 15.7762 0.0178474
17.5099 14.3673 2
16.0192 12.8058 3.98537
18.9779 13.1032 0.0158799
17.6375 11.4515 2
16.2012 9.6623 3.99257
19.3415 10.2331 0.0118111
18.0497 8.33946 2
16.6661 6.31991 4
18.75 5.02404 2
19.9899 7.14633 0.00716683
20.9142 3.86727 0
27.4734 34.766 3.94419
29.059 35.1105 2
30.4861 35.5503 0.127292
16.6798 21.3749 3.97376
21.7794 17.8439 0.0183856
19.2405 18.4035 0.0192652
20.8733 19.3724 2
17.9777 19.9361 2
19.7211 21.569 3.98038
22.2749 19.8868 0.0224354
24.5875 21.3148 0.0176813
22.354 21.713 2
24.6924 23.1611 2
22.8428 24.5974 3.97091
24.5726 28.5218 3.96955
25.4601 25.9378 2
26.4134 23.7106 0.0224352
26.2016 31.6942 3.99117
28.3441 32.2989 2
29.9882 33.0298 0.103873
30.1166 29.5266 0.0375424
27.0382 29.1225 2
27.8814 26.5298 0.0268212
24.7831 36.8553 3.98536
26.9453 37.3685 2
28.7317 37.5096 0.0967983
27.2782 44.8702 0.0125367
26.8336 40.6004 0.027149
25.2794 43.1861 2
24.0716 39.4275 2
22.9884 41.8032 3.98027
21.7984 38.5022 3.97667
24.0098 45.2287 0.0211779
21.9127 43.961 2
19.7471 42.8923 3.97803
20.9351 45.9052 0.0210927
18.9774 44.9753 2
16.9545 44.3822 3.97427
18.3149 46.743 0.0232194
16.6188 46.2153 2
14.8412 46.0921 3.97218
16.3281 47.7164 0.0257322
14.9216 47.6719 2
13.2942 48.0095 3.97182
15.1927 49.0171 0.0269233
13.788 49.5466 2
12.1158 50.2524 3.97194
14.4899 50.9852 0.0286343
12.8967 51.8737 2
11.1375 52.8356 3.97364
10.3235 55.7104 3.97843
12.1412 54.5273 2
13.8291 53.4345 0.0283467
9.69934 58.85 3.98634
11.532 57.4599 2
13.2527 56.1689 0.0243475
9.30605 62.2254 4
11.1317 60.6271 2
12.8473 59.1274 0.018277
10.9835 64.0165 2
12.6779 62.302 0.0107014
12.7746 65.6939 0
15.1452 20.1832 3.97528
16.3988 18.6463 2
14.7466 17.3007 3.98025
17.6658 17.1522 0.0192797
16.1009 15.7765 2
14.4819 14.2881 3.98391
17.5097 14.368 0.0171461
16.0194 12.8051 2
14.4441 11.1134 3.99196
17.6373 11.452 0.0126298
16.2009 9.66258 2
14.6715 7.74927 4
18.0501 8.3392 0.0072499
16.6661 6.31988 2
18.75 5.0241 0
25.4252 34.26 3.9881
27.4569 34.7609 2
29.0811 35.1206 0.102066
17.8544 22.3207 3.98239
15.5273 22.9193 3.97041
16.68 21.3741 2
20.8731 19.3731 0.0199393
17.9776 19.9369 0.0220172
19.7213 21.5683 2
19.6633 24.3783 3.96999
22.3538 21.7135 0.0200438
24.6913 23.1607 0.0248649
22.8429 24.5964 2
21.9398 27.8181 3.97084
23.769 31.1818 3.97406
24.5774 28.5213 2
25.4631 25.9389 0.0343616
26.1986 31.687 2
28.3605 32.312 0.0547433
27.0306 29.1231 0.00252483
22.5327 36.2741 3.97734
24.769 36.8543 2
26.9605 37.3679 0.041254
25.2863 43.182 0.0298835
24.0812 39.4274 0.0207687
22.9853 41.8018 2
21.795 38.5022 2
20.7249 40.6338 3.9771
20.1359 37.7822 3.97665
21.912 43.9612 0.0216027
19.7479 42.8924 2
17.3746 42.1017 3.97454
18.9781 44.9754 0.0220785
16.9545 44.3822 2
14.8464 44.2015 3.97191
16.619 46.2154 0.0255565
14.8411 46.0921 2
12.965 46.2968 3.9711
14.9215 47.6719 0.0272101
13.2943 48.0096 2
11.487 48.5499 3.97165
13.7878 49.5466 0.0279003
12.116 50.2525 2
10.2636 51.0795 3.97329
12.8965 51.8736 0.0282114
11.1377 52.8359 2
9.23283 53.8885 3.9776
8.38311 56.9823 3.98516
10.3235 55.7109 2
12.1413 54.5267 0.0257954
7.74927 60.3285 4
9.69832 58.8485 2
11.5323 57.4589 0.0199795
9.306 62.2255 2
11.1326 60.6279 0.0121368
10.9835 64.0165 0
13.9589 21.7513 3.97186
15.1453 20.1824 2
13.4481 18.8989 3.97754
16.3987 18.6471 0.0208477
14.7467 17.2996 2
13.0273 15.8812 3.98297
16.1008 15.7774 0.0178015
14.4819 14.2872 2
12.7816 12.6867 3.99067
16.0192 12.8058 0.0146344
14.4437 11.1138 2
12.7746 9.30605 4
16.2012 9.6623 0.00743479
14.6715 7.74924 2
16.6661 6.31991 0
23.1018 33.7963 3.97616
25.4096 34.2575 2
27.4734 34.766 0.0558084
17.6277 24.0402 3.97192
17.8546 22.3199 2
14.3111 24.45 3.97063
15.5276 22.9187 2
16.6798 21.3749 0.0262424
19.0504 27.1987 3.97031
19.7211 21.569 0.0196247
19.6632 24.378 2
21.2011 30.6585 3.97198
22.8428 24.5974 0.0290939
21.9412 27.8181 2
23.7609 31.1821 2
24.5726 28.5218 0.0304475
26.2016 31.6942 0.00882573
20.2747 35.9203 3.97599
22.5313 36.2742 2
24.7831 36.8553 0.0146386
22.9884 41.8032 0.0197332
21.7984 38.5022 0.023327
20.7226 40.6339 2
20.1338 37.7822 2
18.1022 39.001 3.975
19.7471 42.8923 0.0219703
17.3743 42.1016 2
14.8134 41.9184 3.97232
16.9545 44.3822 0.0257296
14.8463 44.2014 2
12.7048 44.3927 3.97033
14.8412 46.0921 0.0278216
12.965 46.2968 2
10.9879 46.7342 3.97105
13.2942 48.0095 0.0281845
11.4871 48.55 2
9.527 49.2397 3.97279
12.1158 50.2524 0.0280564
10.2639 51.0796 2
8.26608 52.0016 3.97697
11.1375 52.8356 0.0263558
9.23307 53.8884 2
7.19225 55.0322 3.98486
6.31991 58.3339 4
8.38222 56.98 2
10.3235 55.7104 0.0215723
7.74924 60.3285 2
9.69934 58.85 0.0136584
9.30605 62.2254 0
13.2289 25.3619 3.97238
12.8277 23.2819 3.97109
13.9593 21.7505 2
12.2347 20.549 3.97556
15.1452 20.1832 0.0247157
13.4483 18.8978 2
11.6574 17.5627 3.98159
14.7466 17.3007 0.0197521
13.0273 15.8802 2
11.2191 14.3718 3.98893
14.4819 14.2881 0.0160937
12.7812 12.6871 2
10.9835 10.9835 4
14.4441 11.1134 0.00804074
12.7745 9.306 2
14.6715 7.74927 0
20.6407 33.3912 3.9744
23.1045 33.7964 2
25.4252 34.26 0.0118983
15.9035 26.3973 3.97058
17.6277 24.0397 2
17.8544 22.3207 0.017611
14.3111 24.4496 2
15.5273 22.9193 0.0295881
18.404 30.1687 3.97247
19.0496 27.1985 2
19.6633 24.3783 0.0300145
21.2049 30.6585 2
21.9398 27.8181 0.0291601
23.769 31.1818 0.0259447
17.737 35.9621 3.97503
20.2764 35.9204 2
22.5327 36.2741 0.0226616
20.7249 40.6338 0.0228979
20.1359 37.7822 0.0233542
18.1028 39.001 2
14.3441 39.1756 3.97288
17.3746 42.1017 0.0254605
14.8132 41.9184 2
12.3986 42.2768 3.97029
14.8464 44.2015 0.0280889
12.7048 44.3928 2
10.5649 44.803 3.97026
12.965 46.2968 0.0289034
10.9879 46.7343 2
8.90914 47.3193 3.97229
11.487 48.5499 0.0283547
9.52717 49.2397 2
7.43325 50.035 3.97628
10.2636 51.0795 0.0267108
8.26637 52.0013 2
6.13296 53.0066 3.98508
9.23283 53.8885 0.0224046
7.19172 55.0296 2
5.0241 56.25 4
6.31988 58.3339 2
8.38311 56.9823 0.0148441
7.74927 60.3285 0
13.4655 26.8134 3.97032
11.9408 24.7884 3.97269
13.2291 25.3617 2
11.1394 22.2348 3.97322
12.828 23.2812 2
13.9589 21.7513 0.0281417
12.235 20.548 2
10.3882 19.3182 3.97989
13.4481 18.8989 0.0224585
11.6574 17.5616 2
9.76005 16.1556 3.98727
13.0273 15.8812 0.017031
11.2185 14.3723 2
9.30607 12.7746 4
12.7816 12.6867 0.0093278
10.9835 10.9835 2
12.7746 9.30605 0
17.8987 33.1077 3.97417
20.6419 33.3913 2
23.1018 33.7963 0.0238354
15.5011 29.6335 3.97174
15.9025 26.397 2
17.6277 24.0402 0.0280849
14.3111 24.45 0.0293664
18.4054 30.1687 2
19.0504 27.1987 0.0296936
21.2011 30.6585 0.0280162
14.9508 36.0168 3.97343
17.7374 35.9621 2
20.2747 35.9203 0.0240104
12.6222 37.8288 3.97271
18.1022 39.001 0.0249972
14.3444 39.1756 2
11.9211 40.1403 3.97094
14.8134 41.9184 0.0276841
12.3984 42.2768 2
10.165 42.7781 3.96961
12.7048 44.3927 0.0296744
10.5649 44.8031 2
8.3871 45.3214 3.97154
10.9879 46.7342 0.0289466
8.90919 47.3193 2
6.72454 48.0004 3.97583
9.527 49.2397 0.0272085
7.43342 50.0347 2
5.2099 50.9098 3.98506
8.26608 52.0016 0.0230306
6.13268 53.0046 2
3.86727 54.0858 4
7.19225 55.0322 0.0151359
5.02404 56.25 2
6.31991 58.3339 0
12.9212 29.0315 3.97029
11.3703 26.487 3.97104
13.4652 26.8131 2
10.199 23.9683 3.97267
11.9411 24.788 2
13.2289 25.3619 0.0276194
9.24145 21.138 3.97761
11.1399 22.2341 2
12.8277 23.2819 0.0289063
12.2347 20.549 0.0244427
10.3884 19.3173 2
8.41599 18.0272 3.98605
11.6574 17.5627 0.0184113
9.75925 16.1566 2
7.74928 14.6715 4
11.2191 14.3718 0.011066
9.30602 12.7745 2
10.9835 10.9835 0
14.5123 32.8604 3.97277
17.9 33.1077 2
20.6407 33.3912 0.0256012
15.5012 29.6334 2
15.9035 26.3973 0.0294152
18.404 30.1687 0.0275259
12.9162 36.2083 3.97204
14.9512 36.0168 2
17.737 35.9621 0.0249691
12.6224 37.8287 2
11.278 38.3095 3.9715
14.3441 39.1756 0.0271186
11.9212 40.1403 2
9.7521 40.7545 3.96946
12.3986 42.2768 0.0297117
10.165 42.7782 2
7.93715 43.2701 3.97036
10.5649 44.803 0.0297383
8.38708 45.3214 2
6.13086 45.9056 3.97529
8.90914 47.3193 0.0277086
6.72458 48.0002 2
4.42156 48.7508 3.98488
7.43325 50.035 0.0237244
5.20973 50.9086 2
2.85457 51.8506 4
6.13296 53.0066 0.0149217
3.86727 54.0858 2
5.0241 56.25 0
12.067 31.2551 3.9711
10.7823 28.4142 3.96993
12.921 29.0313 2
9.41369 25.7982 3.97238
11.3704 26.4866 2
13.4655 26.8134 0.0296772
8.22914 23.0235 3.97633
10.1994 23.9679 2
11.9408 24.7884 0.0273126
7.1984 19.9781 3.98493
9.24196 21.1376 2
11.1394 22.2348 0.0267753
10.3882 19.3182 0.02011
8.4153 18.029 2
6.31992 16.6661 4
9.76005 16.1556 0.0127273
7.74926 14.6714 2
9.30607 12.7746 0
12.1015 34.2938 3.97209
14.5119 32.8604 2
17.8987 33.1077 0.0258301
15.5011 29.6335 0.0282622
10.8413 36.6108 3.9713
12.9165 36.2082 2
14.9508 36.0168 0.0265704
12.6222 37.8288 0.0272947
11.278 38.3094 2
9.34822 38.8235 3.96973
11.9211 40.1403 0.0290557
9.75232 40.7545 2
7.54945 41.2113 3.96975
10.165 42.7781 0.0303934
7.93716 43.2701 2
5.64338 43.7686 3.97442
8.3871 45.3214 0.0284645
6.13085 45.9054 2
3.76731 46.5369 3.98441
6.72454 48.0004 0.0241678
4.42147 48.7502 2
1.99014 49.554 4
5.2099 50.9098 0.0149392
2.85451 51.8506 2
3.86727 54.0858 0
10.9246 32.9183 3.97157
10.0953 30.3815 3.96979
12.0669 31.255 2
8.72181 27.7317 3.97156
10.7822 28.414 2
12.9212 29.0315 0.0297081
7.3547 24.9825 3.97588
9.41385 25.7979 2
11.3703 26.487 0.0289609
6.11554 22.0024 3.9846
8.22967 23.0234 2
10.199 23.9683 0.0273343
5.02411 18.75 4
7.19808 19.9801 2
9.24145 21.138 0.022394
8.41599 18.0272 0.0139474
6.3199 16.6661 2
7.74928 14.6715 0
10.4488 34.9996 3.97111
12.1017 34.2938 2
14.5123 32.8604 0.0272316
9.01901 36.9849 3.96991
10.8417 36.6108 2
12.9162 36.2083 0.0279586
11.278 38.3095 0.0284996
9.34825 38.8235 2
7.23019 39.182 3.96983
9.7521 40.7545 0.0305395
7.54963 41.2112 2
5.25946 41.6142 3.97328
7.93715 43.2701 0.0296364
5.64338 43.7684 2
3.24526 44.282 3.98365
6.13086 45.9056 0.0247073
3.76731 46.5367 2
1.27781 47.2057 4
4.42156 48.7508 0.0151212
1.99012 49.554 2
2.85457 51.8506 0
10.0907 33.881 3.97117
9.38833 32.1541 3.97039
10.9246 32.9183 2
8.0713 29.6953 3.97098
10.0952 30.3814 2
12.067 31.2551 0.028897
6.59855 27.0085 3.9753
8.72181 27.7315 2
10.7823 28.4142 0.030074
5.17091 24.0955 3.98485
7.35495 24.9825 2
9.41369 25.7982 0.0276238
3.86728 20.9142 4
6.11548 22.004 2
8.22914 23.0235 0.0236711
5.02406 18.75 2
7.1984 19.9781 0.0150685
6.31992 16.6661 0
8.8445 35.2792 3.97022
10.4489 34.9996 2
12.1015 34.2938 0.0279141
7.01393 37.2058 3.96999
9.01891 36.9848 2
10.8413 36.6108 0.0287031
9.34822 38.8235 0.0302722
7.23025 39.182 2
4.98759 39.4675 3.97296
7.54945 41.2113 0.0302537
5.25964 41.6139 2
2.85605 42.0024 3.98272
5.64338 43.7686 0.0255768
3.24529 44.2819 2
0.720592 44.8159 4
3.76731 46.5369 0.0155919
1.27778 47.2057 2
1.99014 49.554 0
8.8848 33.6975 3.97085
10.0908 33.8809 2
7.50897 31.6089 3.97126
9.38829 32.154 2
10.9246 32.9183 0.0284263
5.944 29.0695 3.97481
8.07122 29.6952 2
10.0953 30.3815 0.0302134
4.3587 26.248 3.98457
6.59862 27.0085 2
8.72181 27.7317 0.0284424
2.85458 23.1494 4
5.17088 24.0964 2
7.3547 24.9825 0.0241153
3.86728 20.9142 2
6.11554 22.0024 0.0154037
5.02411 18.75 0
6.96418 35.3059 3.97015
8.8447 35.2791 2
10.4488 34.9996 0.0288934
4.83771 37.3399 3.97333
7.01402 37.2057 2
9.01901 36.9849 0.030091
7.23019 39.182 0.0301671
4.98764 39.4674 2
2.60431 39.7141 3.98216
5.25946 41.6142 0.0267224
2.85625 42.0026 2
0.320823 42.3947 4
3.24526 44.282 0.0163468
0.720551 44.8159 2
1.27781 47.2057 0
7.12329 33.4607 3.97111
8.88486 33.6974 2
10.0907 33.881 0.0288313
5.41512 31.1334 3.97467
7.50889 31.6088 2
9.38833 32.1541 0.0296116
3.68061 28.4437 3.98398
5.94393 29.0695 2
8.0713 29.6953 0.029025
1.99015 25.446 4
4.3587 26.2482 2
6.59855 27.0085 0.0247006
2.85453 23.1494 2
5.17091 24.0955 0.0151498
3.86728 20.9142 0
4.85201 35.2516 3.97336
6.96436 35.3058 2
8.8445 35.2792 0.0297825
2.49569 37.4286 3.98253
4.83779 37.3399 2
7.01393 37.2058 0.0300063
4.98759 39.4675 0.0270356
2.60441 39.7144 2
0.080333 39.9526 4
2.85605 42.0024 0.0172822
0.320817 42.3947 2
0.720592 44.8159 0
5.04489 33.1901 3.97425
7.12335 33.4607 2
8.8848 33.6975 0.0291496
3.14507 30.6662 3.98339
5.41502 31.1335 2
7.50897 31.6089 0.0287412
1.27793 27.7943 4
3.68061 28.4437 2
5.944 29.0695 0.0251925
1.99013 25.446 2
4.3587 26.248 0.0154349
2.85458 23.1494 0
2.54783 35.1591 3.98262
4.8522 35.2517 2
6.96418 35.3059 0.0298491
0 37.5 4
2.49584 37.4289 2
4.83771 37.3399 0.0266716
2.60431 39.7141 0.0178369
0.0802903 39.9526 2
0.320823 42.3947 0
2.76525 32.9058 3.98306
5.04495 33.1903 2
7.12329 33.4607 0.0288884
0.721173 30.1842 4
3.14509 30.6664 2
5.41512 31.1334 0.0253252
1.27779 27.7943 2
3.68061 28.4437 0.0160194
1.99015 25.446 0
0.0806499 35.0474 4
2.54804 35.1594 2
4.85201 35.2516 0.0266359
0 37.5 2
2.49569 37.4286 0.0174692
0.080333 39.9526 0
0.32156 32.6054 4
2.76536 32.9062 2
5.04489 33.1901 0.0257545
0.72056 30.1841 2
3.14507 30.6662 0.0166106
1.27793 27.7943 0
0.0802889 35.0474 2
2.54783 35.1591 0.0173834
0 37.5 0
0.320817 32.6053 2
2.76525 32.9058 0.0169424
0.721173 30.1842 0
0.0806499 35.0474 0
0.32156 32.6054 0
CELLS 1910 17190
8 18 6 25 56 2 0 5 16
8 57 23 6 18 17 4 0 2
8 78 36 9 29 31 11 1 7
8 31 11 1 7 79 37 10 30
8 110 57 18 50 48 17 2 14
8 50 18 56 111 14 2 16 49
8 116 62 22 55 52 20 3 15
8 56 25 67 118 16 5 24 53
8 119 63 23 57 54 21 4 17
8 55 22 63 119 15 3 21 54
8 58 26 68 121 18 6 25 56
8 122 65 26 58 57 23 6 18
8 73 31 7 27 142 79 30 71
8 143 78 29 72 73 31 7 27
8 83 147 76 34 32 74 28 8
8 84 148 78 36 33 75 29 9
8 76 34 8 28 148 84 33 75
8 37 79 150 86 10 30 77 35
8 151 87 36 78 80 38 11 31
8 80 38 11 31 152 88 37 79
8 175 100 42 94 96 44 12 40
8 44 96 176 101 12 40 95 43
8 101 176 98 46 43 95 41 13
8 46 98 178 103 13 41 97 45
8 178 103 45 97 147 83 32 74
8 189 116 55 109 106 52 15 47
8 111 56 118 191 49 16 53 107
8 192 119 57 110 108 54 17 48
8 109 55 119 192 47 15 54 108
8 194 122 58 112 110 57 18 50
8 112 58 121 195 50 18 56 111
8 115 61 19 51 197 124 59 113
8 115 61 125 198 51 19 60 114
8 198 125 62 116 114 60 20 52
8 200 127 64 120 116 62 22 55
8 118 67 132 202 53 24 66 117
8 121 68 133 203 56 25 67 118
8 120 64 128 204 55 22 63 119
8 204 128 65 122 119 63 23 57
8 206 134 68 121 123 69 26 58
8 123 69 26 58 207 131 65 122
8 226 147 74 138 140 76 28 70
8 229 148 75 139 143 78 29 72
8 140 76 28 70 229 148 75 139
8 142 79 30 71 231 150 77 141
8 144 80 31 73 232 152 79 142
8 233 151 78 143 144 80 31 73
8 150 86 35 77 235 154 81 145
8 235 154 81 145 146 82 39 91
8 146 82 39 91 236 155 90 165
8 238 157 83 147 149 85 34 76
8 239 158 84 148 151 87 36 78
8 149 85 34 76 239 158 84 148
8 152 88 37 79 241 160 86 150
8 242 161 87 151 153 89 38 80
8 153 89 38 80 243 162 88 152
8 171 98 41 92 265 178 97 169
8 265 178 97 169 226 147 74 138
8 172 96 40 93 266 176 95 170
8 266 176 95 170 171 98 41 92
8 269 175 94 173 172 96 40 93
8 271 180 99 174 175 100 42 94
8 197 124 59 113 271 180 99 174
8 272 181 100 175 177 102 44 96
8 273 182 101 176 179 104 46 98
8 177 102 44 96 273 182 101 176
8 179 104 46 98 275 184 103 178
8 275 184 103 178 238 157 83 147
8 188 115 51 105 283 197 113 186
8 188 115 198 284 105 51 114 187
8 284 198 116 189 187 114 52 106
8 286 200 120 193 189 116 55 109
8 191 118 202 288 107 53 117 190
8 195 121 203 289 111 56 118 191
8 193 120 204 290 109 55 119 192
8 290 204 122 194 192 119 57 110
8 196 123 58 112 292 207 122 194
8 293 206 121 195 196 123 58 112
8 199 126 61 115 297 211 124 197
8 298 212 127 200 198 125 62 116
8 199 126 212 298 115 61 125 198
8 205 129 64 120 300 214 127 200
8 301 217 130 201 202 132 66 117
8 209 136 168 264 301 217 130 201
8 302 219 132 202 203 133 67 118
8 303 220 133 203 206 134 68 121
8 205 129 215 304 120 64 128 204
8 304 215 131 207 204 128 65 122
8 306 221 134 206 208 135 69 123
8 208 135 69 123 307 218 131 207
8 210 137 167 263 309 223 136 209
8 328 238 147 226 230 149 76 140
8 228 146 91 166 329 236 165 260
8 231 150 77 141 330 235 145 227
8 330 235 145 227 228 146 91 166
8 332 239 148 229 233 151 78 143
8 230 149 76 140 332 239 148 229
8 232 152 79 142 334 241 150 231
8 234 153 80 144 335 243 152 232
8 336 242 151 233 234 153 80 144
8 236 155 90 165 338 245 164 259
8 241 160 86 150 339 246 154 235
8 339 246 154 235 237 156 82 146
8 237 156 82 146 340 247 155 236
8 342 249 157 238 240 159 85 149
8 343 250 158 239 242 161 87 151
8 240 159 85 149 343 250 158 239
8 243 162 88 152 345 252 160 241
8 244 163 253 346 153 89 161 242
8 244 163 89 153 347 254 162 243
8 311 224 261 371 210 137 167 263
8 263 167 262 372 209 136 168 264
8 267 179 98 171 375 275 178 265
8 375 275 178 265 328 238 147 226
8 376 273 176 266 267 179 98 171
8 268 177 96 172 376 273 176 266
8 379 272 175 269 268 177 96 172
8 380 271 174 270 269 175 94 173
8 283 197 113 186 380 271 174 270
8 381 277 180 271 272 181 100 175
8 297 211 124 197 381 277 180 271
8 382 278 181 272 274 183 102 177
8 274 183 102 177 383 279 182 273
8 383 279 182 273 276 185 104 179
8 385 281 184 275 342 249 157 238
8 276 185 104 179 385 281 184 275
8 285 199 115 188 393 297 197 283
8 394 298 200 286 284 198 116 189
8 285 199 298 394 188 115 198 284
8 291 205 120 193 396 300 200 286
8 397 301 201 287 288 202 117 190
8 295 209 264 374 397 301 201 287
8 398 302 202 288 289 203 118 191
8 399 303 203 289 293 206 121 195
8 291 205 304 400 193 120 204 290
8 400 304 207 292 290 204 122 194
8 294 208 123 196 402 307 207 292
8 403 306 206 293 294 208 123 196
8 296 210 263 373 405 309 209 295
8 408 312 213 299 297 211 126 199
8 299 213 313 409 199 126 212 298
8 409 313 214 300 298 212 127 200
8 305 216 129 205 411 315 214 300
8 412 318 217 301 302 219 132 202
8 309 223 136 209 412 318 217 301
8 413 320 219 302 303 220 133 203
8 306 221 321 414 206 134 220 303
8 307 218 131 207 415 316 215 304
8 305 216 316 415 205 129 215 304
8 417 322 221 306 308 222 135 208
8 308 222 135 208 418 319 218 307
8 310 225 137 210 420 325 223 309
8 423 326 224 311 310 225 137 210
8 329 236 165 260 441 338 259 368
8 442 342 238 328 333 240 149 230
8 331 237 146 228 443 340 236 329
8 334 241 150 231 444 339 235 330
8 444 339 235 330 331 237 146 228
8 446 343 239 332 336 242 151 233
8 333 240 149 230 446 343 239 332
8 335 243 152 232 448 345 241 334
8 337 244 153 234 449 347 243 335
8 337 244 346 450 234 153 242 336
8 338 245 164 259 452 349 258 367
8 340 247 155 236 453 350 245 338
8 345 252 160 241 454 351 246 339
8 454 351 246 339 341 248 156 237
8 341 248 156 237 455 352 247 340
8 240 159 251 344 342 249 354 457
8 242 161 253 346 343 250 355 458
8 343 250 355 458 240 159 251 344
8 347 254 162 243 460 357 252 345
8 348 255 358 461 244 163 253 346
8 348 255 163 244 462 359 254 347
8 473 360 257 365 363 256 364 482
8 452 349 258 367 365 257 366 485
8 422 324 369 488 311 224 261 371
8 371 261 370 490 263 167 262 372
8 407 311 371 491 296 210 263 373
8 373 263 372 492 295 209 264 374
8 493 385 275 375 442 342 238 328
8 377 276 179 267 493 385 275 375
8 378 274 177 268 494 383 273 376
8 494 383 273 376 377 276 179 267
8 497 382 272 379 378 274 177 268
8 498 381 271 380 379 272 175 269
8 393 297 197 283 498 381 271 380
8 499 387 277 381 382 278 181 272
8 408 312 211 297 499 387 277 381
8 500 388 278 382 384 280 183 274
8 501 389 279 383 386 282 185 276
8 384 280 183 274 501 389 279 383
8 386 282 185 276 503 391 281 385
8 503 391 281 385 457 354 249 342
8 511 408 299 395 393 297 199 285
8 395 299 409 512 285 199 298 394
8 512 409 300 396 394 298 200 286
8 401 305 205 291 514 411 300 396
8 515 412 301 397 398 302 202 288
8 405 309 209 295 515 412 301 397
8 516 413 302 398 399 303 203 289
8 403 306 414 517 293 206 303 399
8 402 307 207 292 518 415 304 400
8 401 305 415 518 291 205 304 400
8 404 308 208 294 520 418 307 402
8 521 417 306 403 404 308 208 294
8 406 310 210 296 523 420 309 405
8 526 423 311 407 406 310 210 296
8 410 314 213 299 527 424 312 408
8 528 425 315 411 409 313 214 300
8 410 314 425 528 299 213 313 409
8 416 317 216 305 530 427 315 411
8 531 430 318 412 413 320 219 302
8 420 325 223 309 531 430 318 412
8 532 432 320 413 414 321 220 303
8 417 322 433 533 306 221 321 414
8 418 319 218 307 534 428 316 415
8 416 317 428 534 305 216 316 415
8 419 323 434 536 308 222 322 417
8 419 323 222 308 537 431 319 418
8 421 327 225 310 539 438 325 420
8 421 327 439 541 310 225 326 423
8 543 437 324 422 423 326 224 311
8 441 338 259 368 559 452 367 486
8 443 340 236 329 560 453 338 441
8 333 240 344 447 442 342 457 561
8 445 341 237 331 562 455 340 443
8 448 345 241 334 563 454 339 444
8 563 454 339 444 445 341 237 331
8 336 242 346 450 446 343 458 565
8 446 343 458 565 333 240 344 447
8 449 347 243 335 567 460 345 448
8 451 348 244 337 568 462 347 449
8 451 348 461 569 337 244 346 450
8 570 463 349 452 473 360 257 365
8 453 350 245 338 570 463 349 452
8 455 352 247 340 571 464 350 453
8 460 357 252 345 572 465 351 454
8 572 465 351 454 456 353 248 341
8 456 353 248 341 573 466 352 455
8 344 251 356 459 457 354 468 575
8 458 355 469 576 344 251 356 459
8 346 253 358 461 458 355 469 576
8 462 359 254 347 578 471 357 460
8 348 255 359 462 461 358 472 579
8 591 474 360 473 475 361 256 363
8 475 361 256 363 594 477 362 479
8 363 256 364 482 479 362 480 603
8 590 473 365 484 481 363 482 605
8 482 364 257 365 606 483 366 485
8 559 452 367 486 484 365 485 607
8 542 436 487 609 422 324 369 488
8 525 422 488 611 407 311 371 491
8 488 369 489 612 371 261 370 490
8 491 371 490 613 373 263 372 492
8 495 386 276 377 614 503 385 493
8 614 503 385 493 561 457 342 442
8 615 501 383 494 495 386 276 377
8 496 384 274 378 615 501 383 494
8 618 500 382 497 496 384 274 378
8 619 499 381 498 497 382 272 379
8 511 408 297 393 619 499 381 498
8 620 505 387 499 500 388 278 382
8 527 424 312 408 620 505 387 499
8 502 390 506 621 384 280 388 500
8 622 507 389 501 504 392 282 386
8 502 390 280 384 622 507 389 501
8 504 392 282 386 624 509 391 503
8 624 509 391 503 575 468 354 457
8 513 410 299 395 630 527 408 511
8 631 528 411 514 512 409 300 396
8 513 410 528 631 395 299 409 512
8 519 416 305 401 633 530 411 514
8 634 531 412 515 516 413 302 398
8 523 420 309 405 634 531 412 515
8 635 532 413 516 517 414 303 399
8 521 417 533 636 403 306 414 517
8 520 418 307 402 637 534 415 518
8 519 416 534 637 401 305 415 518
8 522 419 308 404 639 537 418 520
8 522 419 536 640 404 308 417 521
8 524 421 310 406 642 539 420 523
8 524 421 541 644 406 310 423 526
8 646 543 422 525 526 423 311 407
8 529 426 314 410 647 544 424 527
8 528 425 545 648 411 315 427 530
8 529 426 545 648 410 314 425 528
8 535 429 317 416 649 546 427 530
8 650 548 430 531 532 432 320 413
8 539 438 325 420 650 548 430 531
8 533 433 550 651 414 321 432 532
8 536 434 551 652 417 322 433 533
8 537 431 319 418 653 547 428 534
8 535 429 547 653 416 317 428 534
8 538 435 552 654 419 323 434 536
8 538 435 323 419 655 549 431 537
8 540 440 327 421 657 556 438 539
8 540 440 557 659 421 327 439 541
8 541 439 555 660 423 326 437 543
8 661 554 436 542 543 437 324 422
8 676 570 452 559 590 473 365 484
8 560 453 338 441 676 570 452 559
8 562 455 340 443 677 571 453 560
8 447 344 459 566 561 457 575 678
8 564 456 341 445 679 573 455 562
8 567 460 345 448 680 572 454 563
8 680 572 454 563 564 456 341 445
8 565 458 576 682 447 344 459 566
8 450 346 461 569 565 458 576 682
8 568 462 347 449 684 578 460 567
8 451 348 462 568 569 461 579 685
8 686 580 463 570 591 474 360 473
8 571 464 350 453 686 580 463 570
8 573 466 352 455 687 581 464 571
8 572 465 582 688 460 357 471 578
8 574 467 582 688 456 353 465 572
8 574 467 353 456 689 583 466 573
8 459 356 470 577 575 468 585 691
8 576 469 586 692 459 356 470 577
8 461 358 472 579 576 469 586 692
8 462 359 471 578 579 472 588 694
8 704 591 473 590 593 475 363 481
8 595 476 592 705 475 361 474 591
8 593 475 363 481 707 594 479 602
8 594 477 362 479 709 598 478 600
8 595 476 361 475 711 597 477 594
8 479 362 480 603 600 478 601 720
8 481 363 482 605 602 479 603 722
8 603 480 364 482 723 604 483 606
8 605 482 365 484 724 606 485 607
8 656 553 608 726 542 436 487 609
8 645 542 609 728 525 422 488 611
8 609 487 610 729 488 369 489 612
8 611 488 612 730 491 371 490 613
8 616 504 386 495 731 624 503 614
8 731 624 503 614 678 575 457 561
8 732 622 501 615 616 504 386 495
8 617 502 384 496 732 622 501 615
8 617 502 621 735 496 384 500 618
8 736 620 499 619 618 500 382 497
8 630 527 408 511 736 620 499 619
8 621 506 626 737 500 388 505 620
8 647 544 424 527 737 626 505 620
8 623 508 627 738 502 390 506 621
8 623 508 390 502 739 628 507 622
8 625 510 628 739 504 392 507 622
8 740 629 509 624 691 585 468 575
8 625 510 392 504 740 629 509 624
8 632 529 410 513 744 647 527 630
8 631 528 648 745 514 411 530 633
8 632 529 648 745 513 410 528 631
8 638 535 416 519 746 649 530 633
8 747 650 531 634 635 532 413 516
8 642 539 420 523 747 650 531 634
8 636 533 651 748 517 414 532 635
8 640 536 652 749 521 417 533 636
8 639 537 418 520 750 653 534 637
8 638 535 653 750 519 416 534 637
8 641 538 419 522 751 655 537 639
8 641 538 654 752 522 419 536 640
8 643 540 421 524 753 657 539 642
8 643 540 659 755 524 421 541 644
8 644 541 660 757 526 423 543 646
8 758 661 542 645 646 543 422 525
8 529 426 544 647 648 545 662 759
8 530 427 545 648 649 546 663 760
8 535 429 546 649 653 547 664 761
8 762 666 548 650 651 550 432 532
8 657 556 438 539 762 666 548 650
8 652 551 668 763 533 433 550 651
8 654 552 669 764 536 434 551 652
8 655 549 431 537 765 665 547 653
8 538 435 549 655 654 552 667 766
8 661 554 671 768 542 436 553 656
8 658 558 440 540 769 674 556 657
8 658 558 675 770 540 440 557 659
8 659 557 673 771 541 439 555 660
8 660 555 672 772 543 437 554 661
8 788 686 570 676 704 591 473 590
8 677 571 453 560 788 686 570 676
8 679 573 455 562 789 687 571 677
8 566 459 577 683 678 575 691 790
8 681 574 456 564 791 689 573 679
8 680 572 688 792 567 460 578 684
8 681 574 688 792 564 456 572 680
8 682 576 692 794 566 459 577 683
8 569 461 579 685 682 576 692 794
8 568 462 578 684 685 579 694 796
8 687 581 464 571 798 696 580 686
8 798 696 580 686 705 592 474 591
8 689 583 466 573 799 697 581 687
8 688 582 698 800 578 471 588 694
8 690 584 698 800 574 467 582 688
8 690 584 467 574 801 699 583 689
8 693 587 701 803 577 470 585 691
8 693 587 470 577 804 702 586 692
8 695 589 702 804 579 472 586 692
8 695 589 472 579 805 703 588 694
8 708 595 705 813 593 475 591 704
8 710 596 706 814 595 476 592 705
8 707 594 479 602 816 709 600 719
8 708 595 475 593 817 711 594 707
8 709 598 478 600 819 715 599 717
8 711 597 477 594 820 714 598 709
8 710 596 476 595 822 713 597 711
8 600 478 601 720 717 599 718 832
8 602 479 603 722 719 600 720 834
8 720 601 480 603 835 721 604 723
8 722 603 482 605 836 723 606 724
8 767 670 725 839 656 553 608 726
8 756 656 726 841 645 542 609 728
8 726 608 727 842 609 487 610 729
8 728 609 729 843 611 488 612 730
8 844 740 624 731 790 691 575 678
8 733 625 504 616 844 740 624 731
8 734 623 502 617 845 739 622 732
8 733 625 739 845 616 504 622 732
8 734 623 738 846 617 502 621 735
8 735 621 737 847 618 500 620 736
8 744 647 527 630 847 737 620 736
8 621 506 627 738 737 626 741 848
8 647 544 626 737 759 662 741 848
8 623 508 628 739 738 627 742 849
8 740 629 585 691 850 743 700 802
8 625 510 629 740 739 628 743 850
8 632 529 647 744 745 648 759 854
8 633 530 648 745 746 649 760 855
8 638 535 649 746 750 653 761 856
8 857 762 650 747 748 651 532 635
8 753 657 539 642 857 762 650 747
8 749 652 763 858 636 533 651 748
8 752 654 764 859 640 536 652 749
8 751 655 537 639 860 765 653 750
8 641 538 655 751 752 654 766 861
8 754 658 540 643 862 769 657 753
8 754 658 770 863 643 540 659 755
8 755 659 771 864 644 541 660 757
8 758 661 768 866 645 542 656 756
8 757 660 772 867 646 543 661 758
8 759 662 773 868 648 545 663 760
8 649 546 663 760 761 664 774 871
8 765 665 547 653 872 775 664 761
8 873 777 666 762 763 668 550 651
8 769 674 556 657 873 777 666 762
8 764 669 779 874 652 551 668 763
8 654 552 667 766 764 669 778 875
8 655 549 665 765 766 667 776 876
8 768 671 782 877 656 553 670 767
8 772 672 783 878 661 554 671 768
8 658 558 674 769 770 675 786 879
8 659 557 675 770 771 673 785 881
8 882 784 672 772 771 673 555 660
8 789 687 571 677 897 798 686 788
8 897 798 686 788 813 705 591 704
8 791 689 573 679 898 799 687 789
8 795 693 803 900 683 577 691 790
8 793 690 574 681 901 801 689 791
8 792 688 800 902 684 578 694 796
8 793 690 800 902 681 574 688 792
8 795 693 577 683 903 804 692 794
8 797 695 804 903 685 579 692 794
8 797 695 579 685 904 805 694 796
8 905 806 697 799 798 696 581 687
8 814 706 806 905 705 592 696 798
8 689 583 697 799 801 699 808 907
8 800 698 809 908 694 588 703 805
8 690 584 699 801 800 698 809 908
8 803 701 810 909 691 585 700 802
8 693 587 702 804 803 701 811 910
8 695 589 703 805 804 702 812 911
8 818 710 814 919 708 595 705 813
8 821 712 815 920 710 596 706 814
8 816 709 600 719 922 819 717 831
8 817 711 594 707 923 820 709 816
8 818 710 595 708 924 822 711 817
8 819 715 599 717 926 827 716 829
8 820 714 598 709 927 826 715 819
8 929 825 713 822 820 714 597 711
8 821 712 596 710 930 824 713 822
8 717 599 718 832 829 716 830 942
8 719 600 720 834 831 717 832 944
8 832 718 601 720 945 833 721 835
8 834 720 603 722 946 835 723 836
8 869 780 838 950 767 670 725 839
8 865 767 839 952 756 656 726 841
8 839 725 840 953 726 608 727 842
8 841 726 842 954 728 609 729 843
8 844 740 691 790 955 850 802 899
8 733 625 740 844 845 739 850 955
8 734 623 739 845 846 738 849 956
8 735 621 738 846 847 737 848 957
8 744 647 737 847 854 759 848 957
8 738 627 742 849 848 741 851 958
8 848 741 851 958 759 662 773 868
8 850 743 700 802 959 852 807 906
8 849 742 628 739 959 852 743 850
8 854 759 868 965 745 648 760 855
8 746 649 760 855 856 761 871 966
8 860 765 653 750 967 872 761 856
8 968 873 762 857 858 763 651 748
8 862 769 657 753 968 873 762 857
8 859 764 874 969 749 652 763 858
8 752 654 766 861 859 764 875 970
8 751 655 765 860 861 766 876 971
8 754 658 769 862 863 770 879 972
8 755 659 770 863 864 771 881 974
8 976 882 772 867 864 771 660 757
8 866 768 877 977 756 656 767 865
8 867 772 878 978 758 661 768 866
8 760 663 773 868 871 774 883 980
8 870 781 837 948 982 890 780 869
8 982 890 780 869 877 782 670 767
8 761 664 774 871 872 775 884 984
8 876 776 665 765 985 885 775 872
8 873 777 668 763 986 887 779 874
8 769 674 777 873 879 786 887 986
8 764 669 778 875 874 779 888 987
8 766 667 776 876 875 778 886 988
8 878 783 892 989 768 671 782 877
8 878 783 672 772 990 893 784 882
8 880 787 675 770 991 896 786 879
8 880 787 895 992 770 675 785 881
8 881 785 894 993 771 673 784 882
8 1006 905 799 898 897 798 687 789
8 919 814 905 1006 813 705 798 897
8 791 689 799 898 901 801 907 1007
8 900 803 909 1009 790 691 802 899
8 795 693 804 903 900 803 910 1010
8 902 800 908 1011 796 694 805 904
8 793 690 801 901 902 800 908 1011
8 797 695 805 904 903 804 911 1012
8 799 697 806 905 907 808 912 1013
8 920 815 912 1013 814 706 806 905
8 802 700 810 909 906 807 913 1014
8 801 699 808 907 908 809 914 1015
8 805 703 809 908 911 812 915 1016
8 803 701 811 910 909 810 916 1017
8 911 812 917 1018 804 702 811 910
8 925 821 920 1030 818 710 814 919
8 928 823 921 1031 821 712 815 920
8 922 819 717 831 1033 926 829 941
8 923 820 709 816 1034 927 819 922
8 1035 929 822 924 923 820 711 817
8 925 821 710 818 1036 930 822 924
8 1038 933 825 929 927 826 714 820
8 926 827 716 829 1039 935 828 939
8 927 826 715 819 1040 934 827 926
8 928 823 712 821 1041 931 824 930
8 1042 932 824 930 929 825 713 822
8 829 716 830 942 939 828 940 1058
8 831 717 832 944 941 829 942 1060
8 942 830 718 832 1061 943 833 945
8 944 832 720 834 1062 945 835 946
8 981 889 947 1064 870 781 837 948
8 948 837 949 1067 869 780 838 950
8 975 869 950 1069 865 767 839 952
8 950 838 951 1070 839 725 840 953
8 952 839 953 1071 841 726 842 954
8 955 850 802 899 1072 959 906 1008
8 956 849 739 845 1072 959 850 955
8 846 738 849 956 957 848 958 1073
8 957 848 958 1073 854 759 868 965
8 849 742 852 959 958 851 961 1076
8 960 853 961 1076 906 807 852 959
8 958 851 961 1076 868 773 883 980
8 960 853 807 906 1077 963 913 1014
8 855 760 868 965 966 871 980 1085
8 856 761 871 966 967 872 984 1086
8 971 876 765 860 1087 985 872 967
8 968 873 763 858 1088 986 874 969
8 862 769 873 968 972 879 986 1088
8 859 764 875 970 969 874 987 1089
8 861 766 876 971 970 875 988 1090
8 973 880 770 863 1091 991 879 972
8 973 880 992 1092 863 770 881 974
8 974 881 993 1093 864 771 882 976
8 979 870 948 1066 1094 982 869 975
8 1094 982 869 975 977 877 767 865
8 978 878 772 867 1095 990 882 976
8 978 878 989 1096 866 768 877 977
8 871 774 883 980 984 884 994 1099
8 983 891 999 1100 870 781 889 981
8 1101 1000 890 982 989 892 782 877
8 983 891 781 870 1101 1000 890 982
8 872 775 884 984 985 885 995 1103
8 876 776 885 985 988 886 996 1104
8 986 887 779 874 1105 998 888 987
8 879 786 887 986 991 896 998 1105
8 875 778 886 988 987 888 997 1106
8 990 893 1002 1107 878 783 892 989
8 1108 1003 893 990 993 894 784 882
8 880 787 896 991 992 895 1005 1109
8 993 894 785 881 1110 1004 895 992
8 898 799 905 1006 1007 907 1013 1120
8 1030 920 1013 1120 919 814 905 1006
8 901 801 907 1007 1011 908 1015 1121
8 899 802 909 1009 1008 906 1014 1122
8 900 803 910 1010 1009 909 1017 1123
8 1012 911 1018 1124 903 804 910 1010
8 904 805 908 1011 1012 911 1016 1125
8 1013 912 1020 1127 907 808 914 1015
8 1031 921 1020 1127 920 815 912 1013
8 1019 918 962 1075 1128 1021 913 1014
8 1128 1021 913 1014 1017 916 810 909
8 1015 914 1022 1129 908 809 915 1016
8 1016 915 1023 1130 911 812 917 1018
8 1018 917 1024 1131 910 811 916 1017
8 1037 928 1031 1148 925 821 920 1030
8 928 823 931 1041 1031 921 1032 1149
8 1033 926 829 941 1151 1039 939 1057
8 1034 927 819 922 1152 1040 926 1033
8 1153 1038 929 1035 1034 927 820 923
8 1154 1042 930 1036 1035 929 822 924
8 1037 928 821 925 1155 1041 930 1036
8 1039 935 828 939 1156 1047 938 1055
8 1157 1043 932 1042 1038 933 825 929
8 1038 933 826 927 1158 1045 934 1040
8 1040 934 827 926 1159 1046 935 1039
8 930 824 932 1042 1041 931 1044 1160
8 1051 936 1048 1165 1175 1052 937 1053
8 1156 1047 938 1055 1053 937 1054 1178
8 939 828 940 1058 1055 938 1056 1181
8 941 829 942 1060 1057 939 1058 1183
8 942 830 943 1061 1058 940 1059 1184
8 1060 942 832 944 1185 1061 945 1062
8 1082 964 1063 1188 981 889 947 1064
8 1097 981 1064 1190 979 870 948 1066
8 1064 947 1065 1191 948 837 949 1067
8 1066 948 1067 1193 975 869 950 1069
8 1067 949 1068 1194 950 838 951 1070
8 1069 950 1070 1195 952 839 953 1071
8 956 849 959 1072 1073 958 1076 1197
8 1074 960 1076 1197 1008 906 959 1072
8 1073 958 1076 1197 965 868 980 1085
8 1074 960 906 1008 1198 1077 1014 1122
8 1133 1026 1079 1199 1019 918 962 1075
8 1077 963 913 1014 1200 1080 962 1075
8 960 853 963 1077 1076 961 1078 1201
8 980 883 961 1076 1099 994 1078 1201
8 1210 1083 964 1082 1100 999 889 981
8 966 871 980 1085 1086 984 1099 1215
8 967 872 984 1086 1087 985 1103 1216
8 971 876 985 1087 1090 988 1104 1217
8 1088 986 874 969 1218 1105 987 1089
8 972 879 986 1088 1091 991 1105 1218
8 970 875 988 1090 1089 987 1106 1219
8 973 880 991 1091 1092 992 1109 1220
8 1093 993 881 974 1221 1110 992 1092
8 1222 1108 990 1095 1093 993 882 976
8 1223 1101 982 1094 1096 989 877 977
8 1098 983 870 979 1223 1101 982 1094
8 1095 990 1107 1224 978 878 989 1096
8 1098 983 1100 1225 979 870 981 1097
8 984 884 994 1099 1103 995 1111 1227
8 1102 1001 1115 1228 983 891 999 1100
8 1101 1000 892 989 1229 1116 1002 1107
8 1102 1001 891 983 1229 1116 1000 1101
8 985 885 995 1103 1104 996 1112 1230
8 988 886 996 1104 1106 997 1113 1231
8 1105 998 888 987 1232 1114 997 1106
8 991 896 998 1105 1109 1005 1114 1232
8 1108 1003 1117 1233 990 893 1002 1107
8 1108 1003 894 993 1233 1117 1004 1110
8 992 895 1005 1109 1110 1004 1118 1234
8 1120 1013 1127 1244 1007 907 1015 1121
8 1148 1031 1127 1244 1030 920 1013 1120
8 1121 1015 1129 1245 1011 908 1016 1125
8 1126 1019 1075 1196 1246 1128 1014 1122
8 1246 1128 1014 1122 1123 1017 909 1009
8 1124 1018 1131 1247 1010 910 1017 1123
8 1125 1016 1130 1248 1012 911 1018 1124
8 1127 1020 1137 1254 1015 914 1022 1129
8 1031 921 1032 1149 1127 1020 1137 1254
8 1134 1027 918 1019 1257 1140 1021 1128
8 1257 1140 1021 1128 1131 1024 916 1017
8 1129 1022 1141 1258 1016 915 1023 1130
8 1130 1023 1142 1259 1018 917 1024 1131
8 1261 1144 1025 1132 1133 1026 1079 1199
8 1255 1138 1025 1132 1135 1028 1144 1261
8 1133 1026 918 1019 1262 1145 1027 1134
8 1136 1029 1139 1256 1263 1146 1028 1135
8 1037 928 1041 1155 1148 1031 1149 1275
8 1041 931 1044 1160 1149 1032 1150 1276
8 1151 1039 939 1057 1278 1156 1055 1180
8 1152 1040 926 1033 1279 1159 1039 1151
8 1153 1038 927 1034 1280 1158 1040 1152
8 1281 1157 1042 1154 1153 1038 929 1035
8 1036 930 1042 1154 1155 1041 1160 1282
8 1283 1164 1046 1159 1156 1047 935 1039
8 1165 1048 1164 1283 1053 937 1047 1156
8 1157 1043 933 1038 1284 1161 1045 1158
8 1157 1043 1161 1284 1042 932 1044 1160
8 1040 934 1046 1159 1158 1045 1163 1285
8 1166 1049 1167 1292 1051 936 1048 1165
8 1166 1049 936 1051 1293 1168 1050 1172
8 1051 936 1052 1175 1172 1050 1173 1306
8 1174 1051 1165 1290 1308 1175 1053 1177
8 1053 937 1054 1178 1175 1052 1176 1309
8 1278 1156 1055 1180 1177 1053 1178 1311
8 1055 938 1056 1181 1178 1054 1179 1312
8 1057 939 1058 1183 1180 1055 1181 1314
8 1058 940 1059 1184 1181 1056 1182 1315
8 1060 942 1061 1185 1183 1058 1184 1316
8 1208 1081 1187 1321 1082 964 1063 1188
8 1209 1082 1188 1322 1097 981 1064 1190
8 1188 1063 1189 1323 1064 947 1065 1191
8 1190 1064 1191 1325 1066 948 1067 1193
8 1191 1065 1192 1326 1067 949 1068 1194
8 1067 1193 1069 950 1194 1327 1195 1070
8 1250 1133 1199 1330 1126 1019 1075 1196
8 1198 1077 1014 1122 1331 1200 1075 1196
8 1074 960 1077 1198 1197 1076 1201 1332
8 1085 980 1076 1197 1215 1099 1201 1332
8 1199 1079 1203 1333 1075 962 1080 1200
8 1132 1025 1119 1243 1199 1079 1203 1333
8 1201 1078 963 1077 1334 1202 1080 1200
8 1099 994 1078 1201 1227 1111 1202 1334
8 1343 1207 1081 1208 1210 1083 964 1082
8 1214 1084 1186 1319 1343 1207 1081 1208
8 1345 1210 1082 1209 1225 1100 981 1097
8 1346 1211 1083 1210 1228 1115 999 1100
8 1086 984 1099 1215 1216 1103 1227 1352
8 1087 985 1103 1216 1217 1104 1230 1353
8 1090 988 1104 1217 1219 1106 1231 1354
8 1218 1105 987 1089 1355 1232 1106 1219
8 1091 991 1105 1218 1220 1109 1232 1355
8 1092 992 1109 1220 1221 1110 1234 1356
8 1222 1108 1233 1357 1095 990 1107 1224
8 1222 1108 993 1093 1357 1233 1110 1221
8 1223 1101 989 1096 1358 1229 1107 1224
8 1226 1102 983 1098 1358 1229 1101 1223
8 1226 1102 1228 1359 1098 983 1100 1225
8 1103 995 1111 1227 1230 1112 1235 1360
8 1107 1002 1117 1233 1229 1116 1240 1362
8 1102 1001 1116 1229 1228 1115 1240 1362
8 1104 996 1112 1230 1231 1113 1236 1363
8 1364 1237 1114 1232 1231 1113 997 1106
8 1109 1005 1114 1232 1234 1118 1238 1365
8 1110 1004 1118 1234 1233 1117 1241 1366
8 1242 1374 1255 1138 1119 1243 1132 1025
8 1244 1127 1254 1376 1121 1015 1129 1245
8 1148 1031 1149 1275 1244 1127 1254 1376
8 1245 1129 1258 1377 1125 1016 1130 1248
8 1251 1134 1019 1126 1378 1257 1128 1246
8 1378 1257 1128 1246 1247 1131 1017 1123
8 1248 1130 1259 1379 1124 1018 1131 1247
8 1261 1381 1250 1133 1132 1249 1330 1199
8 1255 1380 1252 1135 1132 1249 1381 1261
8 1250 1133 1019 1126 1382 1262 1134 1251
8 1253 1136 1256 1385 1384 1263 1135 1252
8 1254 1137 1265 1387 1129 1022 1141 1258
8 1149 1032 1150 1276 1254 1137 1265 1387
8 1028 1135 1255 1138 1139 1256 1388 1266
8 1136 1029 1147 1264 1256 1139 1267 1389
8 1390 1268 1140 1257 1259 1142 1024 1131
8 1260 1143 1027 1134 1390 1268 1140 1257
8 1258 1141 1269 1391 1130 1023 1142 1259
8 1262 1145 1027 1134 1393 1271 1143 1260
8 1261 1144 1026 1133 1394 1272 1145 1262
8 1135 1028 1144 1261 1263 1146 1272 1394
8 1136 1029 1146 1263 1264 1147 1273 1395
8 1155 1041 1160 1282 1275 1149 1276 1405
8 1276 1150 1044 1160 1406 1277 1162 1286
8 1408 1283 1159 1279 1278 1156 1039 1151
8 1290 1165 1283 1408 1177 1053 1156 1278
8 1152 1040 1159 1279 1280 1158 1285 1409
8 1281 1157 1038 1153 1410 1284 1158 1280
8 1281 1157 1284 1410 1154 1042 1160 1282
8 1159 1046 1164 1283 1285 1163 1289 1412
8 1292 1167 1289 1412 1165 1048 1164 1283
8 1158 1045 1163 1285 1284 1161 1288 1413
8 1284 1161 1288 1413 1160 1044 1162 1286
8 1291 1166 1292 1418 1174 1051 1165 1290
8 1291 1166 1051 1174 1419 1293 1172 1305
8 1294 1169 1296 1421 1166 1049 1167 1292
8 1293 1168 1050 1172 1422 1295 1171 1303
8 1294 1169 1049 1166 1423 1297 1168 1293
8 1422 1295 1171 1303 1301 1170 1302 1435
8 1172 1050 1173 1306 1303 1171 1304 1438
8 1174 1051 1175 1308 1305 1172 1306 1440
8 1175 1052 1176 1309 1306 1173 1307 1441
8 1177 1053 1178 1311 1308 1175 1309 1443
8 1178 1054 1179 1312 1309 1176 1310 1444
8 1180 1055 1181 1314 1311 1178 1312 1446
8 1056 1181 1312 1179 1182 1315 1447 1313
8 1183 1058 1184 1316 1314 1181 1315 1448
8 1319 1186 1084 1214 1451 1317 1213 1350
8 1319 1186 1318 1453 1208 1081 1187 1321
8 1321 1187 1320 1456 1188 1063 1189 1323
8 1344 1208 1321 1457 1209 1082 1188 1322
8 1322 1188 1323 1458 1190 1064 1191 1325
8 1323 1189 1324 1459 1191 1065 1192 1326
8 1191 1325 1193 1067 1326 1460 1327 1194
8 1242 1374 1243 1119 1328 1462 1335 1204
8 1330 1199 1333 1465 1196 1075 1200 1331
8 1132 1249 1330 1199 1243 1375 1465 1333
8 1332 1201 1077 1198 1466 1334 1200 1331
8 1215 1099 1201 1332 1352 1227 1334 1466
8 1119 1243 1333 1203 1204 1335 1470 1338
8 1333 1203 1338 1470 1200 1080 1202 1334
8 1227 1111 1202 1334 1360 1235 1338 1470
8 1328 1462 1335 1204 1205 1336 1471 1339
8 1337 1206 1340 1472 1464 1329 1205 1336
8 1346 1211 1342 1479 1210 1083 1207 1343
8 1346 1211 1115 1228 1479 1342 1239 1361
8 1348 1212 1084 1214 1479 1342 1207 1343
8 1480 1343 1208 1344 1345 1210 1082 1209
8 1351 1214 1319 1454 1480 1343 1208 1344
8 1481 1346 1210 1345 1359 1228 1100 1225
8 1348 1212 1347 1483 1214 1084 1213 1350
8 1216 1103 1227 1352 1353 1230 1360 1488
8 1217 1104 1230 1353 1354 1231 1363 1489
8 1490 1364 1232 1355 1354 1231 1106 1219
8 1220 1109 1232 1355 1356 1234 1365 1491
8 1221 1110 1234 1356 1357 1233 1366 1492
8 1224 1107 1233 1357 1358 1229 1362 1493
8 1226 1102 1229 1358 1359 1228 1362 1493
8 1230 1112 1235 1360 1363 1236 1367 1496
8 1361 1239 1115 1228 1497 1371 1240 1362
8 1366 1241 1372 1498 1233 1117 1240 1362
8 1364 1237 1113 1231 1499 1368 1236 1363
8 1364 1237 1368 1499 1232 1114 1238 1365
8 1234 1118 1238 1365 1366 1241 1369 1500
8 1507 1373 1242 1374 1388 1266 1138 1255
8 1508 1374 1243 1375 1380 1255 1132 1249
8 1376 1254 1387 1509 1245 1129 1258 1377
8 1275 1149 1276 1405 1376 1254 1387 1509
8 1377 1258 1391 1510 1248 1130 1259 1379
8 1511 1390 1257 1378 1379 1259 1131 1247
8 1383 1260 1134 1251 1511 1390 1257 1378
8 1252 1135 1256 1385 1380 1255 1388 1512
8 1261 1381 1513 1394 1133 1250 1382 1262
8 1135 1252 1384 1263 1261 1381 1513 1394
8 1382 1262 1134 1251 1514 1393 1260 1383
8 1253 1136 1263 1384 1386 1264 1395 1516
8 1253 1136 1264 1386 1385 1256 1389 1517
8 1387 1265 1397 1519 1258 1141 1269 1391
8 1276 1150 1277 1406 1387 1265 1397 1519
8 1256 1139 1267 1389 1388 1266 1398 1520
8 1264 1147 1274 1396 1389 1267 1399 1521
8 1392 1270 1143 1260 1522 1400 1268 1390
8 1390 1268 1142 1259 1522 1400 1269 1391
8 1392 1270 1401 1523 1260 1143 1271 1393
8 1272 1394 1524 1402 1145 1262 1393 1271
8 1395 1273 1146 1263 1524 1402 1272 1394
8 1273 1395 1264 1147 1403 1526 1396 1274
8 1405 1276 1160 1282 1534 1406 1286 1411
8 1414 1287 1407 1535 1286 1162 1277 1406
8 1279 1159 1283 1408 1409 1285 1412 1537
8 1418 1292 1412 1537 1290 1165 1283 1408
8 1280 1158 1285 1409 1410 1284 1413 1538
8 1410 1284 1413 1538 1282 1160 1286 1411
8 1285 1163 1289 1412 1413 1288 1417 1540
8 1421 1296 1417 1540 1292 1167 1289 1412
8 1414 1287 1162 1286 1541 1416 1288 1413
8 1420 1294 1421 1545 1291 1166 1292 1418
8 1419 1293 1172 1305 1546 1422 1303 1437
8 1420 1294 1166 1291 1547 1423 1293 1419
8 1294 1169 1297 1423 1421 1296 1425 1548
8 1423 1297 1168 1293 1549 1424 1295 1422
8 1301 1170 1298 1427 1422 1295 1424 1549
8 1432 1300 1428 1554 1301 1170 1298 1427
8 1431 1299 1428 1554 1560 1430 1300 1432
8 1563 1433 1300 1432 1435 1302 1170 1301
8 1546 1422 1303 1437 1434 1301 1435 1565
8 1303 1171 1304 1438 1435 1302 1436 1566
8 1305 1172 1306 1440 1437 1303 1438 1568
8 1306 1173 1307 1441 1438 1304 1439 1569
8 1308 1175 1309 1443 1440 1306 1441 1571
8 1309 1176 1310 1444 1441 1307 1442 1572
8 1311 1178 1312 1446 1443 1309 1444 1574
8 1179 1312 1444 1310 1313 1447 1575 1445
8 1314 1181 1315 1448 1446 1312 1447 1576
8 1350 1213 1349 1486 1451 1317 1449 1579
8 1451 1317 1450 1581 1319 1186 1318 1453
8 1454 1319 1214 1351 1582 1451 1350 1487
8 1453 1318 1452 1584 1321 1187 1320 1456
8 1454 1319 1453 1585 1344 1208 1321 1457
8 1456 1320 1455 1586 1323 1189 1324 1459
8 1457 1321 1456 1587 1322 1188 1323 1458
8 1458 1323 1459 1588 1325 1191 1326 1460
8 1205 1336 1464 1329 1328 1462 1590 1461
8 1507 1373 1461 1590 1374 1242 1328 1462
8 1508 1374 1462 1591 1375 1243 1335 1467
8 1337 1206 1329 1464 1473 1341 1463 1594
8 1375 1243 1335 1467 1465 1333 1470 1596
8 1465 1333 1470 1596 1331 1200 1334 1466
8 1352 1227 1334 1466 1488 1360 1470 1596
8 1591 1462 1336 1468 1467 1335 1471 1597
8 1469 1337 1472 1598 1595 1464 1336 1468
8 1471 1339 1474 1600 1335 1204 1338 1470
8 1600 1474 1367 1496 1470 1338 1235 1360
8 1336 1205 1340 1472 1471 1339 1475 1601
8 1337 1206 1341 1473 1472 1340 1476 1602
8 1495 1370 1478 1609 1361 1239 1342 1479
8 1348 1212 1342 1479 1483 1347 1478 1609
8 1481 1346 1479 1610 1345 1210 1343 1480
8 1481 1346 1228 1359 1610 1479 1361 1494
8 1484 1348 1214 1351 1610 1479 1343 1480
8 1483 1347 1482 1612 1350 1213 1349 1486
8 1484 1348 1483 1613 1351 1214 1350 1487
8 1353 1230 1360 1488 1489 1363 1496 1616
8 1490 1364 1231 1354 1617 1499 1363 1489
8 1490 1364 1499 1617 1355 1232 1365 1491
8 1356 1234 1365 1491 1492 1366 1500 1619
8 1492 1366 1498 1620 1357 1233 1362 1493
8 1494 1361 1228 1359 1621 1497 1362 1493
8 1495 1370 1239 1361 1622 1504 1371 1497
8 1363 1236 1367 1496 1499 1368 1501 1623
8 1497 1371 1240 1362 1624 1505 1372 1498
8 1625 1503 1372 1498 1500 1369 1241 1366
8 1365 1238 1368 1499 1500 1369 1502 1626
8 1520 1398 1506 1633 1388 1266 1373 1507
8 1634 1507 1374 1508 1512 1388 1255 1380
8 1509 1387 1519 1635 1377 1258 1391 1510
8 1405 1276 1406 1534 1509 1387 1519 1635
8 1515 1392 1260 1383 1636 1522 1390 1511
8 1511 1390 1259 1379 1636 1522 1391 1510
8 1385 1256 1389 1517 1512 1388 1520 1637
8 1513 1394 1262 1382 1638 1524 1393 1514
8 1395 1516 1638 1524 1263 1384 1513 1394
8 1515 1392 1523 1639 1383 1260 1393 1514
8 1516 1395 1526 1640 1386 1264 1396 1518
8 1386 1264 1396 1518 1517 1389 1521 1641
8 1519 1397 1527 1643 1391 1269 1400 1522
8 1535 1407 1527 1643 1406 1277 1397 1519
8 1389 1267 1399 1521 1520 1398 1528 1644
8 1645 1529 1399 1521 1525 1404 1274 1396
8 1392 1270 1400 1522 1523 1401 1531 1646
8 1524 1402 1271 1393 1648 1532 1401 1523
8 1403 1526 1648 1532 1273 1395 1524 1402
8 1525 1404 1274 1396 1649 1533 1403 1526
8 1539 1414 1535 1657 1411 1286 1406 1534
8 1542 1415 1536 1658 1414 1287 1407 1535
8 1409 1285 1412 1537 1538 1413 1540 1660
8 1545 1421 1540 1660 1418 1292 1412 1537
8 1539 1414 1286 1411 1661 1541 1413 1538
8 1540 1417 1544 1663 1413 1288 1416 1541
8 1421 1296 1425 1548 1540 1417 1544 1663
8 1542 1415 1287 1414 1664 1543 1416 1541
8 1420 1294 1423 1547 1545 1421 1548 1666
8 1547 1423 1293 1419 1667 1549 1422 1546
8 1434 1301 1427 1553 1546 1422 1549 1667
8 1423 1297 1424 1549 1548 1425 1550 1668
8 1551 1426 1550 1668 1427 1298 1424 1549
8 1551 1426 1298 1427 1671 1552 1428 1554
8 1562 1432 1554 1674 1434 1301 1427 1553
8 1431 1299 1429 1558 1554 1428 1555 1675
8 1431 1299 1430 1560 1558 1429 1557 1680
8 1560 1430 1300 1432 1683 1559 1433 1563
8 1561 1431 1554 1674 1684 1560 1432 1562
8 1685 1563 1432 1562 1565 1435 1301 1434
8 1435 1302 1436 1566 1563 1433 1564 1686
8 1437 1303 1438 1568 1565 1435 1566 1688
8 1438 1304 1439 1569 1566 1436 1567 1689
8 1440 1306 1441 1571 1568 1438 1569 1691
8 1441 1307 1442 1572 1569 1439 1570 1692
8 1443 1309 1444 1574 1571 1441 1572 1694
8 1310 1444 1572 1442 1445 1575 1695 1573
8 1446 1312 1447 1576 1574 1444 1575 1696
8 1486 1349 1485 1614 1579 1449 1577 1699
8 1451 1317 1449 1579 1581 1450 1578 1701
8 1487 1350 1486 1615 1582 1451 1579 1702
8 1581 1450 1580 1704 1453 1318 1452 1584
8 1582 1451 1581 1705 1454 1319 1453 1585
8 1584 1452 1583 1706 1456 1320 1455 1586
8 1585 1453 1584 1707 1457 1321 1456 1587
8 1587 1456 1586 1708 1458 1323 1459 1588
8 1633 1506 1589 1710 1507 1373 1461 1590
8 1464 1329 1461 1590 1594 1463 1589 1710
8 1468 1336 1462 1591 1595 1464 1590 1711
8 1634 1507 1590 1711 1508 1374 1462 1591
8 1473 1341 1463 1594 1603 1477 1593 1716
8 1469 1337 1464 1595 1599 1473 1594 1717
8 1471 1597 1467 1335 1600 1718 1596 1470
8 1718 1600 1496 1616 1596 1470 1360 1488
8 1336 1468 1597 1471 1472 1598 1719 1601
8 1469 1337 1473 1599 1598 1472 1602 1720
8 1722 1604 1501 1623 1600 1474 1367 1496
8 1475 1601 1471 1339 1604 1722 1600 1474
8 1602 1476 1605 1723 1472 1340 1475 1601
8 1476 1602 1724 1606 1341 1473 1603 1477
8 1483 1347 1478 1609 1612 1482 1608 1731
8 1495 1370 1504 1622 1609 1478 1608 1731
8 1618 1495 1609 1732 1494 1361 1479 1610
8 1484 1348 1479 1610 1613 1483 1609 1732
8 1486 1349 1482 1612 1614 1485 1611 1733
8 1613 1483 1612 1734 1487 1350 1486 1615
8 1489 1363 1496 1616 1617 1499 1623 1736
8 1491 1365 1499 1617 1619 1500 1626 1737
8 1618 1495 1361 1494 1738 1622 1497 1621
8 1739 1625 1498 1620 1619 1500 1366 1492
8 1621 1497 1362 1493 1740 1624 1498 1620
8 1742 1631 1504 1622 1624 1505 1371 1497
8 1743 1628 1502 1626 1623 1501 1368 1499
8 1744 1630 1505 1624 1625 1503 1372 1498
8 1745 1629 1503 1625 1626 1502 1369 1500
8 1520 1398 1528 1644 1633 1506 1632 1751
8 1637 1520 1633 1752 1512 1388 1507 1634
8 1635 1519 1643 1753 1510 1391 1522 1636
8 1657 1535 1643 1753 1534 1406 1519 1635
8 1515 1392 1522 1636 1639 1523 1646 1754
8 1517 1389 1521 1641 1637 1520 1644 1755
8 1524 1638 1756 1648 1393 1514 1639 1523
8 1640 1526 1395 1516 1756 1648 1524 1638
8 1642 1525 1396 1518 1757 1649 1526 1640
8 1758 1645 1521 1641 1642 1525 1396 1518
8 1646 1531 1400 1522 1760 1650 1527 1643
8 1535 1407 1536 1658 1643 1527 1650 1760
8 1521 1399 1529 1645 1644 1528 1651 1761
8 1647 1530 1652 1762 1525 1404 1529 1645
8 1401 1523 1648 1532 1531 1646 1763 1655
8 1525 1404 1533 1649 1647 1530 1654 1765
8 1533 1649 1766 1656 1403 1526 1648 1532
8 1662 1542 1658 1774 1539 1414 1535 1657
8 1542 1415 1543 1664 1658 1536 1659 1775
8 1660 1540 1663 1777 1538 1413 1541 1661
8 1545 1421 1548 1666 1660 1540 1663 1777
8 1662 1542 1414 1539 1778 1664 1541 1661
8 1664 1543 1416 1541 1779 1665 1544 1663
8 1548 1425 1550 1668 1663 1544 1665 1779
8 1547 1423 1549 1667 1666 1548 1668 1781
8 1670 1551 1668 1781 1553 1427 1549 1667
8 1551 1426 1552 1671 1668 1550 1669 1782
8 1670 1551 1427 1553 1784 1671 1554 1674
8 1675 1555 1672 1785 1554 1428 1552 1671
8 1678 1556 1673 1789 1558 1429 1555 1675
8 1561 1431 1558 1681 1674 1554 1675 1790
8 1794 1677 1556 1678 1680 1557 1429 1558
8 1560 1430 1559 1683 1680 1557 1679 1797
8 1561 1431 1560 1684 1681 1558 1680 1798
8 1563 1433 1564 1686 1683 1559 1682 1800
8 1684 1560 1432 1562 1801 1683 1563 1685
8 1565 1435 1566 1688 1685 1563 1686 1802
8 1566 1436 1567 1689 1686 1564 1687 1803
8 1568 1438 1569 1691 1688 1566 1689 1805
8 1569 1439 1570 1692 1689 1567 1690 1806
8 1571 1441 1572 1694 1691 1569 1692 1808
8 1442 1572 1692 1570 1573 1695 1809 1693
8 1574 1444 1575 1696 1694 1572 1695 1810
8 1614 1485 1592 1712 1699 1577 1697 1813
8 1579 1449 1577 1699 1701 1578 1698 1815
8 1615 1486 1614 1735 1702 1579 1699 1816
8 1701 1578 1700 1818 1581 1450 1580 1704
8 1582 1451 1579 1702 1705 1581 1701 1819
8 1704 1580 1703 1820 1584 1452 1583 1706
8 1705 1581 1704 1821 1585 1453 1584 1707
8 1707 1584 1706 1822 1587 1456 1586 1708
8 1710 1589 1506 1633 1824 1709 1632 1751
8 1594 1463 1589 1710 1716 1593 1709 1824
8 1752 1633 1710 1825 1634 1507 1590 1711
8 1595 1464 1590 1711 1717 1594 1710 1825
8 1830 1714 1592 1712 1733 1611 1485 1614
8 1603 1477 1593 1716 1725 1607 1715 1834
8 1599 1473 1594 1717 1721 1603 1716 1835
8 1837 1722 1623 1736 1718 1600 1496 1616
8 1719 1601 1722 1837 1597 1471 1600 1718
8 1602 1720 1598 1472 1723 1838 1719 1601
8 1720 1602 1473 1599 1839 1724 1603 1721
8 1723 1605 1726 1840 1601 1475 1604 1722
8 1840 1726 1628 1743 1722 1604 1501 1623
8 1724 1606 1727 1841 1602 1476 1605 1723
8 1725 1607 1728 1842 1603 1477 1606 1724
8 1612 1482 1608 1731 1733 1611 1730 1849
8 1741 1627 1730 1849 1622 1504 1608 1731
8 1613 1483 1609 1732 1734 1612 1731 1850
8 1618 1495 1622 1738 1732 1609 1731 1850
8 1615 1486 1612 1734 1735 1614 1733 1851
8 1852 1743 1626 1737 1736 1623 1499 1617
8 1853 1745 1625 1739 1737 1626 1500 1619
8 1855 1742 1622 1738 1740 1624 1497 1621
8 1856 1744 1624 1740 1739 1625 1498 1620
8 1741 1627 1504 1622 1857 1746 1631 1742
8 1742 1631 1505 1624 1858 1749 1630 1744
8 1859 1747 1629 1745 1743 1628 1502 1626
8 1860 1748 1630 1744 1745 1629 1503 1625
8 1644 1528 1651 1761 1751 1632 1750 1865
8 1637 1520 1644 1755 1752 1633 1751 1866
8 1754 1646 1522 1636 1867 1760 1643 1753
8 1657 1535 1658 1774 1753 1643 1760 1867
8 1639 1523 1646 1754 1756 1648 1763 1868
8 1641 1521 1645 1758 1755 1644 1761 1869
8 1757 1649 1526 1640 1870 1766 1648 1756
8 1642 1525 1649 1757 1759 1647 1765 1871
8 1759 1647 1762 1872 1642 1525 1645 1758
8 1760 1650 1767 1874 1646 1531 1655 1763
8 1658 1536 1659 1775 1760 1650 1767 1874
8 1762 1652 1768 1875 1645 1529 1651 1761
8 1764 1653 1769 1876 1647 1530 1652 1762
8 1656 1766 1877 1773 1532 1648 1763 1655
8 1771 1879 1765 1654 1653 1764 1647 1530
8 1533 1649 1765 1654 1656 1766 1880 1772
8 1662 1542 1664 1778 1774 1658 1775 1887
8 1664 1543 1665 1779 1775 1659 1776 1888
8 1778 1664 1541 1661 1890 1779 1663 1777
8 1666 1548 1668 1781 1777 1663 1779 1890
8 1782 1669 1780 1891 1668 1550 1665 1779
8 1670 1551 1671 1784 1781 1668 1782 1893
8 1671 1552 1672 1785 1782 1669 1783 1894
8 1790 1675 1785 1896 1674 1554 1671 1784
8 1675 1555 1673 1789 1785 1672 1786 1897
8 1792 1676 1788 1903 1678 1556 1673 1789
8 1795 1678 1789 1904 1681 1558 1675 1790
8 1792 1676 1556 1678 1906 1791 1677 1794
8 1680 1557 1679 1797 1794 1677 1793 1909
8 1910 1794 1678 1795 1798 1680 1558 1681
8 1683 1559 1682 1800 1797 1679 1796 1912
8 1684 1560 1683 1801 1798 1680 1797 1913
8 1686 1564 1687 1803 1800 1682 1799 1915
8 1685 1563 1686 1802 1801 1683 1800 1916
8 1688 1566 1689 1805 1802 1686 1803 1917
8 1689 1567 1690 1806 1803 1687 1804 1918
8 1691 1569 1692 1808 1805 1689 1806 1920
8 1692 1570 1693 1809 1806 1690 1807 1921
8 1694 1572 1695 1810 1808 1692 1809 1922
8 1829 1713 1811 1926 1712 1592 1697 1813
8 1813 1697 1812 1928 1699 1577 1698 1815
8 1735 1614 1712 1828 1816 1699 1813 1929
8 1815 1698 1814 1931 1701 1578 1700 1818
8 1702 1579 1699 1816 1819 1701 1815 1932
8 1818 1700 1817 1933 1704 1580 1703 1820
8 1819 1701 1818 1934 1705 1581 1704 1821
8 1821 1704 1820 1935 1707 1584 1706 1822
8 1824 1709 1632 1751 1937 1823 1750 1865
8 1716 1593 1709 1824 1834 1715 1823 1937
8 1825 1710 1633 1752 1938 1824 1751 1866
8 1717 1594 1710 1825 1835 1716 1824 1938
8 1945 1830 1712 1828 1851 1733 1614 1735
8 1830 1714 1831 1946 1712 1592 1713 1829
8 1947 1832 1714 1830 1849 1730 1611 1733
8 1843 1729 1607 1725 1950 1833 1715 1834
8 1721 1603 1716 1835 1836 1725 1834 1951
8 1836 1725 1842 1953 1721 1603 1724 1839
8 1723 1838 1719 1601 1840 1954 1837 1722
8 1954 1840 1743 1852 1837 1722 1623 1736
8 1724 1839 1720 1602 1841 1955 1838 1723
8 1841 1727 1844 1956 1723 1605 1726 1840
8 1956 1844 1747 1859 1840 1726 1628 1743
8 1728 1842 1724 1606 1845 1957 1841 1727
8 1725 1607 1729 1843 1842 1728 1846 1958
8 1741 1627 1746 1857 1849 1730 1848 1965
8 1734 1612 1731 1850 1851 1733 1849 1966
8 1854 1741 1849 1966 1738 1622 1731 1850
8 1967 1859 1745 1853 1852 1743 1626 1737
8 1968 1860 1744 1856 1853 1745 1625 1739
8 1854 1741 1622 1738 1969 1857 1742 1855
8 1855 1742 1624 1740 1970 1858 1744 1856
8 1857 1746 1631 1742 1971 1861 1749 1858
8 1858 1749 1630 1744 1972 1863 1748 1860
8 1859 1747 1862 1973 1745 1629 1748 1860
8 1875 1768 1864 1977 1761 1651 1750 1865
8 1755 1644 1761 1869 1866 1751 1865 1978
8 1867 1760 1874 1979 1754 1646 1763 1868
8 1774 1658 1775 1887 1867 1760 1874 1979
8 1870 1766 1648 1756 1980 1877 1763 1868
8 1872 1762 1875 1981 1758 1645 1761 1869
8 1757 1649 1766 1870 1871 1765 1880 1982
8 1983 1879 1764 1873 1871 1765 1647 1759
8 1873 1764 1876 1984 1759 1647 1762 1872
8 1877 1773 1655 1763 1986 1881 1767 1874
8 1775 1659 1776 1888 1874 1767 1881 1986
8 1876 1769 1882 1987 1762 1652 1768 1875
8 1878 1770 1883 1988 1764 1653 1769 1876
8 1880 1772 1656 1766 1989 1886 1773 1877
8 1878 1770 1653 1764 1990 1884 1771 1879
8 1765 1654 1772 1880 1879 1771 1885 1991
8 1778 1664 1779 1890 1887 1775 1888 1997
8 1998 1889 1776 1888 1891 1780 1665 1779
8 1893 1782 1891 2000 1781 1668 1779 1890
8 1894 1783 1892 2001 1782 1669 1780 1891
8 1784 1671 1785 1896 1893 1782 1894 2003
8 1897 1786 1895 2004 1785 1672 1783 1894
8 1790 1675 1789 1904 1896 1785 1897 2006
8 1901 1787 1898 2007 1789 1673 1786 1897
8 1903 1788 1900 2013 1789 1673 1787 1901
8 1792 1676 1791 1906 1903 1788 1902 2016
8 1907 1792 1903 2017 1795 1678 1789 1904
8 1906 1791 1677 1794 2019 1905 1793 1909
8 1907 1792 1678 1795 2020 1906 1794 1910
8 1797 1679 1796 1912 1909 1793 1908 2022
8 1798 1680 1797 1913 1910 1794 1909 2023
8 1800 1682 1799 1915 1912 1796 1911 2025
8 1801 1683 1800 1916 1913 1797 1912 2026
8 1803 1687 1804 1918 1915 1799 1914 2028
8 1802 1686 1803 1917 1916 1800 1915 2029
8 1805 1689 1806 1920 1917 1803 1918 2030
8 1806 1690 1807 1921 1918 1804 1919 2031
8 1808 1692 1809 1922 1920 1806 1921 2032
8 1939 1826 1924 2037 1829 1713 1811 1926
8 1926 1811 1925 2039 1813 1697 1812 1928
8 1944 1829 1926 2040 1828 1712 1813 1929
8 1928 1812 1927 2042 1815 1698 1814 1931
8 1929 1813 1928 2043 1816 1699 1815 1932
8 1931 1814 1930 2044 1818 1700 1817 1933
8 1932 1815 1931 2045 1819 1701 1818 1934
8 1934 1818 1933 2046 1821 1704 1820 1935
8 2048 1936 1823 1937 1977 1864 1750 1865
8 1950 1833 1715 1834 2048 1936 1823 1937
8 1938 1824 1751 1866 2049 1937 1865 1978
8 1835 1716 1824 1938 1951 1834 1937 2049
8 1939 1826 1713 1829 2053 1942 1831 1946
8 1940 1827 1923 2035 2053 1942 1826 1939
8 1945 1830 1946 2058 1828 1712 1829 1944
8 2059 1947 1830 1945 1966 1849 1733 1851
8 1947 1832 1730 1849 2060 1948 1848 1965
8 1947 1832 1948 2060 1830 1714 1831 1946
8 1959 1847 1729 1843 2063 1949 1833 1950
8 1952 1843 1725 1836 2064 1950 1834 1951
8 1836 1725 1843 1952 1953 1842 1958 2066
8 1953 1842 1957 2067 1839 1724 1841 1955
8 1841 1955 1838 1723 1956 2068 1954 1840
8 2068 1956 1859 1967 1954 1840 1743 1852
8 1956 1844 1960 2069 1859 1747 1862 1973
8 1845 1957 1841 1727 1960 2069 1956 1844
8 1728 1842 1957 1845 1846 1958 2071 1961
8 1962 2072 1959 1847 1846 1958 1843 1729
8 1971 1861 1964 2077 1857 1746 1848 1965
8 1854 1741 1857 1969 1966 1849 1965 2078
8 1967 1859 1973 2079 1853 1745 1860 1968
8 1970 1858 1744 1856 2080 1972 1860 1968
8 1969 1857 1742 1855 2081 1971 1858 1970
8 1971 1861 1749 1858 2082 1974 1863 1972
8 1973 1862 1975 2083 1860 1748 1863 1972
8 1987 1882 1976 2086 1875 1768 1864 1977
8 1981 1875 1977 2087 1869 1761 1865 1978
8 1980 1877 1763 1868 2088 1986 1874 1979
8 1887 1775 1888 1997 1979 1874 1986 2088
8 1880 1982 2089 1989 1766 1870 1980 1877
8 1984 1876 1987 2090 1872 1762 1875 1981
8 1765 1871 1983 1879 1880 1982 2091 1991
8 1985 1878 1764 1873 2092 1990 1879 1983
8 1985 1878 1988 2093 1873 1764 1876 1984
8 2094 1992 1881 1986 1998 1889 1776 1888
8 1986 1881 1992 2094 1877 1773 1886 1989
8 1988 1883 1993 2095 1876 1769 1882 1987
8 1878 1770 1884 1990 1988 1883 1994 2096
8 1991 1885 1772 1880 2097 1996 1886 1989
8 1879 1771 1885 1991 1990 1884 1995 2098
8 2103 1998 1888 1997 2000 1891 1779 1890
8 2104 1999 1889 1998 2001 1892 1780 1891
8 2003 1894 2001 2106 1893 1782 1891 2000
8 2004 1895 2002 2107 1894 1783 1892 2001
8 2006 1897 2004 2109 1896 1785 1894 2003
8 2007 1898 2005 2110 1897 1786 1895 2004
8 2014 1901 2007 2112 1904 1789 1897 2006
8 2011 1899 2008 2113 1901 1787 1898 2007
8 2119 2010 1899 2011 2013 1900 1787 1901
8 2016 1902 2012 2122 1903 1788 1900 2013
8 2017 1903 2013 2123 1904 1789 1901 2014
8 1906 1791 1905 2019 2016 1902 2015 2125
8 1907 1792 1906 2020 2017 1903 2016 2126
8 1909 1793 1908 2022 2019 1905 2018 2128
8 2020 1906 1794 1910 2129 2019 1909 2023
8 1912 1796 1911 2025 2022 1908 2021 2131
8 1913 1797 1912 2026 2023 1909 2022 2132
8 1915 1799 1914 2028 2025 1911 2024 2134
8 1916 1800 1915 2029 2026 1912 2025 2135
8 1918 1804 1919 2031 2028 1914 2027 2136
8 1917 1803 1918 2030 2029 1915 2028 2137
8 1920 1806 1921 2032 2030 1918 2031 2138
8 1940 1827 1941 2054 2035 1923 2033 2140
8 2035 1923 2034 2143 1939 1826 1924 2037
8 2037 1924 2036 2146 1926 1811 1925 2039
8 2051 1939 2037 2147 1944 1829 1926 2040
8 2039 1925 2038 2149 1928 1812 1927 2042
8 2040 1926 2039 2150 1929 1813 1928 2043
8 2042 1927 2041 2151 1931 1814 1930 2044
8 2043 1928 2042 2152 1932 1815 1931 2045
8 2045 1931 2044 2153 1934 1818 1933 2046
8 2155 2047 1936 2048 2086 1976 1864 1977
8 2063 1949 1833 1950 2155 2047 1936 2048
8 2156 2048 1937 2049 2087 1977 1865 1978
8 2064 1950 1834 1951 2156 2048 1937 2049
8 2051 1939 1829 1944 2160 2053 1946 2058
8 2052 1940 2035 2144 2160 2053 1939 2051
8 2053 1942 1831 1946 2163 2057 1948 2060
8 2055 1943 1827 1940 2163 2057 1942 2053
8 2055 1943 2056 2164 1940 1827 1941 2054
8 2059 1947 1849 1966 2167 2060 1965 2078
8 2059 1947 2060 2167 1945 1830 1946 2058
8 2077 1964 2061 2168 1965 1848 1948 2060
8 2070 1963 1847 1959 2170 2062 1949 2063
8 2065 1959 1843 1952 2171 2063 1950 2064
8 2173 2072 1958 2066 2065 1959 1843 1952
8 1953 1842 1958 2066 2067 1957 2071 2174
8 2068 1956 2069 2175 1967 1859 1973 2079
8 2067 1957 2069 2175 1955 1841 1956 2068
8 1845 1957 2069 1960 1961 2071 2176 2073
8 2069 1960 2073 2176 1973 1862 1975 2083
8 2070 1963 2075 2177 1959 1847 1962 2072
8 1846 1958 2071 1961 1962 2072 2178 2074
8 2077 1964 1861 1971 2182 2076 1974 2082
8 2081 1971 2077 2183 1969 1857 1965 2078
8 2079 1973 2083 2184 1968 1860 1972 2080
8 2081 1971 1858 1970 2185 2082 1972 2080
8 2083 1975 2084 2186 1972 1863 1974 2082
8 2086 1976 1882 1987 2189 2085 1993 2095
8 2090 1987 2086 2190 1981 1875 1977 2087
8 2191 2094 1986 2088 2103 1998 1888 1997
8 2088 1986 2094 2191 1980 1877 1989 2089
8 1991 2091 2192 2097 1880 1982 2089 1989
8 2093 1988 2095 2193 1984 1876 1987 2090
8 1879 1983 2092 1990 1991 2091 2194 2098
8 1985 1878 1990 2092 2093 1988 2096 2195
8 2097 1996 1886 1989 2196 2099 1992 2094
8 2196 2099 1992 2094 2104 1999 1889 1998
8 1994 2096 1988 1883 2100 2197 2095 1993
8 2096 1994 1884 1990 2198 2101 1995 2098
8 1995 2098 2199 2102 1885 1991 2097 1996
8 2203 2104 1998 2103 2106 2001 1891 2000
8 2107 2002 2105 2204 2001 1892 1999 2104
8 2109 2004 2107 2206 2003 1894 2001 2106
8 2110 2005 2108 2207 2004 1895 2002 2107
8 2112 2007 2110 2209 2006 1897 2004 2109
8 2113 2008 2111 2210 2007 1898 2005 2110
8 2120 2011 2113 2212 2014 1901 2007 2112
8 2117 2009 2114 2213 2011 1899 2008 2113
8 2219 2116 2009 2117 2119 2010 1899 2011
8 2222 2118 2010 2119 2122 2012 1900 2013
8 2223 2119 2011 2120 2123 2013 1901 2014
8 2016 1902 2015 2125 2122 2012 2121 2225
8 2126 2016 2122 2226 2017 1903 2013 2123
8 2019 1905 2018 2128 2125 2015 2124 2228
8 2020 1906 2019 2129 2126 2016 2125 2229
8 2022 1908 2021 2131 2128 2018 2127 2231
8 2023 1909 2022 2132 2129 2019 2128 2232
8 2025 1911 2024 2134 2131 2021 2130 2234
8 2026 1912 2025 2135 2132 2022 2131 2235
8 1914 2028 2134 2024 2027 2136 2236 2133
8 2029 1915 2028 2137 2135 2025 2134 2237
8 2030 1918 2031 2138 2137 2028 2136 2238
8 2157 2050 2139 2240 2054 1941 2033 2140
8 2052 1940 2054 2161 2144 2035 2140 2242
8 2140 2033 2141 2243 2035 1923 2034 2143
8 2143 2034 2142 2246 2037 1924 2036 2146
8 2144 2035 2143 2247 2051 1939 2037 2147
8 2146 2036 2145 2249 2039 1925 2038 2149
8 2147 2037 2146 2250 2040 1926 2039 2150
8 2149 2038 2148 2251 2042 1927 2041 2151
8 2150 2039 2149 2252 2043 1928 2042 2152
8 2152 2042 2151 2253 2045 1931 2044 2153
8 2255 2154 2047 2155 2189 2085 1976 2086
8 2170 2062 1949 2063 2255 2154 2047 2155
8 2256 2155 2048 2156 2190 2086 1977 2087
8 2171 2063 1950 2064 2256 2155 2048 2156
8 2258 2159 2050 2157 2164 2056 1941 2054
8 2160 2053 1946 2058 2262 2163 2060 2167
8 2162 2055 1940 2052 2262 2163 2053 2160
8 2162 2055 2164 2263 2052 1940 2054 2161
8 2163 2057 1948 2060 2264 2165 2061 2168
8 2055 1943 2057 2163 2164 2056 2165 2264
8 2182 2076 2166 2268 2077 1964 2061 2168
8 2183 2077 2168 2269 2078 1965 2060 2167
8 2070 1963 2062 2170 2177 2075 2169 2271
8 2172 2070 1959 2065 2272 2170 2063 2171
8 2172 2070 2177 2273 2065 1959 2072 2173
8 2066 1958 2072 2173 2174 2071 2178 2274
8 2067 1957 2071 2174 2175 2069 2176 2275
8 2175 2069 2176 2275 2079 1973 2083 2184
8 2071 1961 2074 2178 2176 2073 2179 2276
8 2176 2073 2179 2276 2083 1975 2084 2186
8 2072 1962 2075 2177 2178 2074 2180 2277
8 2182 2076 1974 2082 2280 2181 2084 2186
8 2183 2077 1971 2081 2281 2182 2082 2185
8 2184 2083 2186 2282 2080 1972 2082 2185
8 2189 2085 1993 2095 2285 2188 2100 2197
8 2190 2086 1987 2090 2286 2189 2095 2193
8 2192 2097 1989 2089 2287 2196 2094 2191
8 2287 2196 2094 2191 2203 2104 1998 2103
8 2194 2098 1991 2091 2288 2199 2097 2192
8 2195 2096 2197 2289 2093 1988 2095 2193
8 2096 2195 2290 2198 1990 2092 2194 2098
8 2097 1996 2099 2196 2199 2102 2200 2291
8 2196 2099 1999 2104 2291 2200 2105 2204
8 2100 2197 2292 2201 1994 2096 2198 2101
8 1995 2098 2198 2101 2102 2199 2293 2202
8 2206 2107 2204 2296 2106 2001 2104 2203
8 2207 2108 2205 2297 2107 2002 2105 2204
8 2209 2110 2207 2299 2109 2004 2107 2206
8 2210 2111 2208 2300 2110 2005 2108 2207
8 2212 2113 2210 2302 2112 2007 2110 2209
8 2213 2114 2211 2303 2113 2008 2111 2210
8 2220 2117 2213 2305 2120 2011 2113 2212
8 2216 2115 2214 2306 2117 2009 2114 2213
8 2216 2115 2009 2117 2311 2217 2116 2219
8 2219 2116 2010 2119 2314 2218 2118 2222
8 2315 2219 2117 2220 2223 2119 2011 2120
8 2122 2012 2121 2225 2222 2118 2221 2317
8 2318 2222 2119 2223 2226 2122 2013 2123
8 2125 2015 2124 2228 2225 2121 2224 2320
8 2126 2016 2125 2229 2226 2122 2225 2321
8 2128 2018 2127 2231 2228 2124 2227 2323
8 2129 2019 2128 2232 2229 2125 2228 2324
8 2131 2021 2130 2234 2231 2127 2230 2326
8 2132 2022 2131 2235 2232 2128 2231 2327
8 2134 2024 2133 2236 2234 2130 2233 2328
8 2135 2025 2134 2237 2235 2131 2234 2329
8 2137 2028 2136 2238 2237 2134 2236 2330
8 2157 2050 2158 2259 2240 2139 2239 2332
8 2257 2157 2240 2334 2161 2054 2140 2242
8 2240 2139 2241 2335 2140 2033 2141 2243
8 2242 2140 2243 2337 2144 2035 2143 2247
8 2243 2141 2244 2338 2143 2034 2142 2246
8 2246 2142 2245 2341 2146 2036 2145 2249
8 2247 2143 2246 2342 2147 2037 2146 2250
8 2249 2145 2248 2343 2149 2038 2148 2251
8 2250 2146 2249 2344 2150 2039 2149 2252
8 2252 2149 2251 2345 2152 2042 2151 2253
8 2169 2271 2347 2254 2062 2170 2255 2154
8 2189 2085 2188 2285 2255 2154 2254 2347
8 2348 2255 2155 2256 2286 2189 2086 2190
8 2272 2170 2063 2171 2348 2255 2155 2256
8 2349 2258 2157 2257 2263 2164 2054 2161
8 2258 2159 2261 2351 2157 2050 2158 2259
8 2258 2159 2056 2164 2351 2261 2165 2264
8 2262 2163 2060 2167 2355 2264 2168 2269
8 2162 2055 2163 2262 2263 2164 2264 2355
8 2357 2266 2165 2264 2268 2166 2061 2168
8 2268 2166 2076 2182 2361 2267 2181 2280
8 2281 2182 2268 2362 2183 2077 2168 2269
8 2271 2169 2270 2364 2177 2075 2180 2277
8 2172 2070 2170 2272 2273 2177 2271 2365
8 2072 2173 2274 2178 2177 2273 2366 2277
8 2071 2174 2275 2176 2178 2274 2367 2276
8 2275 2176 2276 2367 2184 2083 2186 2282
8 2283 2187 2084 2186 2368 2278 2179 2276
8 2178 2074 2180 2277 2276 2179 2278 2368
8 2283 2187 2279 2370 2186 2084 2181 2280
8 2281 2182 2082 2185 2371 2280 2186 2282
8 2188 2285 2374 2284 2100 2197 2292 2201
8 2286 2189 2095 2193 2375 2285 2197 2289
8 2192 2097 2196 2287 2288 2199 2291 2376
8 2287 2196 2104 2203 2376 2291 2204 2296
8 2194 2098 2199 2288 2290 2198 2293 2377
8 2289 2197 2096 2195 2378 2292 2198 2290
8 2291 2200 2105 2204 2379 2294 2205 2297
8 2199 2102 2200 2291 2293 2202 2294 2379
8 2198 2101 2202 2293 2292 2201 2295 2380
8 2299 2207 2297 2383 2206 2107 2204 2296
8 2300 2208 2298 2384 2207 2108 2205 2297
8 2302 2210 2300 2386 2209 2110 2207 2299
8 2303 2211 2301 2387 2210 2111 2208 2300
8 2305 2213 2303 2389 2212 2113 2210 2302
8 2306 2214 2304 2390 2213 2114 2211 2303
8 2310 2216 2306 2392 2220 2117 2213 2305
8 2308 2215 2307 2393 2216 2115 2214 2306
8 2308 2215 2115 2216 2396 2309 2217 2311
8 2310 2216 2117 2220 2398 2311 2219 2315
8 2311 2217 2116 2219 2399 2312 2218 2314
8 2314 2218 2118 2222 2402 2313 2221 2317
8 2315 2219 2119 2223 2403 2314 2222 2318
8 2225 2121 2224 2320 2317 2221 2316 2405
8 2226 2122 2225 2321 2318 2222 2317 2406
8 2228 2124 2227 2323 2320 2224 2319 2408
8 2229 2125 2228 2324 2321 2225 2320 2409
8 2231 2127 2230 2326 2323 2227 2322 2411
8 2232 2128 2231 2327 2324 2228 2323 2412
8 2234 2130 2233 2328 2326 2230 2325 2413
8 2235 2131 2234 2329 2327 2231 2326 2414
8 2237 2134 2236 2330 2329 2234 2328 2415
8 2259 2158 2260 2352 2332 2239 2331 2417
8 2257 2157 2259 2350 2334 2240 2332 2419
8 2240 2139 2239 2332 2335 2241 2333 2420
8 2334 2240 2335 2422 2242 2140 2243 2337
8 2335 2241 2336 2423 2243 2141 2244 2338
8 2337 2243 2338 2425 2247 2143 2246 2342
8 2338 2244 2339 2426 2246 2142 2245 2341
8 2341 2245 2340 2428 2249 2145 2248 2343
8 2342 2246 2341 2429 2250 2146 2249 2344
8 2344 2249 2343 2430 2252 2149 2251 2345
8 2188 2285 2347 2254 2284 2374 2432 2346
8 2347 2254 2346 2432 2271 2169 2270 2364
8 2365 2271 2170 2272 2433 2347 2255 2348
8 2286 2189 2285 2375 2348 2255 2347 2433
8 2349 2258 2351 2435 2257 2157 2259 2350
8 2349 2258 2164 2263 2435 2351 2264 2355
8 2259 2158 2261 2351 2352 2260 2354 2437
8 2356 2265 2354 2437 2264 2165 2261 2351
8 2441 2357 2264 2355 2362 2268 2168 2269
8 2356 2265 2165 2264 2442 2358 2266 2357
8 2443 2359 2266 2357 2361 2267 2166 2268
8 2370 2279 2360 2446 2280 2181 2267 2361
8 2362 2268 2182 2281 2447 2361 2280 2371
8 2180 2277 2368 2278 2270 2364 2449 2363
8 2271 2365 2273 2177 2364 2450 2366 2277
8 2372 2283 2186 2282 2451 2368 2276 2367
8 2178 2274 2367 2276 2277 2366 2451 2368
8 2283 2187 2278 2368 2370 2279 2369 2452
8 2372 2283 2370 2453 2282 2186 2280 2371
8 2284 2374 2455 2373 2201 2292 2380 2295
8 2375 2285 2197 2289 2456 2374 2292 2378
8 2376 2291 2204 2296 2457 2379 2297 2383
8 2288 2199 2291 2376 2377 2293 2379 2457
8 2198 2290 2378 2292 2293 2377 2458 2380
8 2293 2202 2294 2379 2380 2295 2381 2459
8 2384 2298 2381 2459 2297 2205 2294 2379
8 2386 2300 2384 2463 2299 2207 2297 2383
8 2387 2301 2385 2464 2300 2208 2298 2384
8 2389 2303 2387 2466 2302 2210 2300 2386
8 2390 2304 2388 2467 2303 2211 2301 2387
8 2392 2306 2390 2469 2305 2213 2303 2389
8 2393 2307 2391 2470 2306 2214 2304 2390
8 2395 2308 2393 2472 2310 2216 2306 2392
8 2308 2215 2309 2396 2393 2307 2394 2473
8 2395 2308 2216 2310 2475 2396 2311 2398
8 2396 2309 2217 2311 2476 2397 2312 2399
8 2398 2311 2219 2315 2478 2399 2314 2403
8 2399 2312 2218 2314 2479 2400 2313 2402
8 2317 2221 2316 2405 2402 2313 2401 2482
8 2403 2314 2222 2318 2483 2402 2317 2406
8 2320 2224 2319 2408 2405 2316 2404 2485
8 2321 2225 2320 2409 2406 2317 2405 2486
8 2323 2227 2322 2411 2408 2319 2407 2488
8 2324 2228 2323 2412 2409 2320 2408 2489
8 2326 2230 2325 2413 2411 2322 2410 2490
8 2327 2231 2326 2414 2412 2323 2411 2491
8 2329 2234 2328 2415 2414 2326 2413 2492
8 2417 2331 2260 2352 2494 2416 2353 2438
8 2350 2259 2352 2436 2419 2332 2417 2496
8 2332 2239 2331 2417 2420 2333 2418 2497
8 2334 2240 2332 2419 2422 2335 2420 2499
8 2420 2333 2421 2500 2335 2241 2336 2423
8 2422 2335 2423 2502 2337 2243 2338 2425
8 2423 2336 2424 2503 2338 2244 2339 2426
8 2425 2338 2426 2505 2342 2246 2341 2429
8 2426 2339 2427 2506 2341 2245 2340 2428
8 2429 2341 2428 2507 2344 2249 2343 2430
8 2432 2346 2284 2374 2509 2431 2373 2455
8 2432 2346 2431 2509 2364 2270 2363 2449
8 2375 2285 2374 2456 2433 2347 2432 2510
8 2347 2433 2365 2271 2432 2510 2450 2364
8 2350 2259 2351 2435 2436 2352 2437 2514
8 2440 2356 2437 2514 2355 2264 2351 2435
8 2352 2260 2354 2437 2438 2353 2439 2516
8 2356 2265 2358 2442 2437 2354 2439 2516
8 2440 2356 2264 2355 2518 2442 2357 2441
8 2519 2443 2357 2441 2447 2361 2268 2362
8 2443 2359 2444 2520 2357 2266 2358 2442
8 2443 2359 2267 2361 2520 2444 2360 2446
8 2446 2360 2279 2370 2523 2445 2369 2452
8 2453 2370 2446 2524 2371 2280 2361 2447
8 2449 2363 2448 2525 2368 2278 2369 2452
8 2366 2277 2364 2450 2451 2368 2449 2526
8 2372 2283 2368 2451 2453 2370 2452 2527
8 2455 2373 2295 2380 2529 2454 2382 2460
8 2456 2374 2292 2378 2530 2455 2380 2458
8 2377 2293 2379 2457 2458 2380 2459 2531
8 2463 2384 2459 2531 2383 2297 2379 2457
8 2533 2461 2382 2460 2459 2381 2295 2380
8 2464 2385 2461 2533 2384 2298 2381 2459
8 2466 2387 2464 2537 2386 2300 2384 2463
8 2467 2388 2465 2538 2387 2301 2385 2464
8 2469 2390 2467 2540 2389 2303 2387 2466
8 2470 2391 2468 2541 2390 2304 2388 2467
8 2472 2393 2470 2543 2392 2306 2390 2469
8 2393 2307 2394 2473 2470 2391 2471 2544
8 2395 2308 2396 2475 2472 2393 2473 2546
8 2396 2309 2397 2476 2473 2394 2474 2547
8 2475 2396 2311 2398 2549 2476 2399 2478
8 2476 2397 2312 2399 2550 2477 2400 2479
8 2478 2399 2314 2403 2552 2479 2402 2483
8 2479 2400 2313 2402 2553 2480 2401 2482
8 2405 2316 2404 2485 2482 2401 2481 2556
8 2406 2317 2405 2486 2483 2402 2482 2557
8 2408 2319 2407 2488 2485 2404 2484 2559
8 2409 2320 2408 2489 2486 2405 2485 2560
8 2411 2322 2410 2490 2488 2407 2487 2561
8 2412 2323 2411 2491 2489 2408 2488 2562
8 2414 2326 2413 2492 2491 2411 2490 2563
8 2513 2434 2493 2565 2438 2353 2416 2494
8 2496 2417 2352 2436 2567 2494 2438 2515
8 2494 2416 2495 2568 2417 2331 2418 2497
8 2419 2332 2417 2496 2499 2420 2497 2570
8 2497 2418 2498 2571 2420 2333 2421 2500
8 2499 2420 2500 2573 2422 2335 2423 2502
8 2500 2421 2501 2574 2423 2336 2424 2503
8 2502 2423 2503 2576 2425 2338 2426 2505
8 2503 2424 2504 2577 2426 2339 2427 2506
8 2505 2426 2506 2578 2429 2341 2428 2507
8 2509 2431 2373 2455 2580 2508 2454 2529
8 2509 2431 2508 2580 2449 2363 2448 2525
8 2432 2510 2581 2509 2374 2456 2530 2455
8 2432 2510 2450 2364 2509 2581 2526 2449
8 2583 2511 2434 2513 2516 2439 2353 2438
8 2436 2352 2437 2514 2515 2438 2516 2588
8 2440 2356 2442 2518 2514 2437 2516 2588
8 2442 2358 2444 2520 2516 2439 2517 2589
8 2519 2443 2520 2591 2441 2357 2442 2518
8 2519 2443 2361 2447 2591 2520 2446 2524
8 2446 2360 2445 2523 2520 2444 2521 2592
8 2525 2448 2522 2593 2452 2369 2445 2523
8 2524 2446 2370 2453 2594 2523 2452 2527
8 2526 2449 2525 2595 2451 2368 2452 2527
8 2534 2462 2528 2597 2460 2382 2454 2529
8 2530 2455 2380 2458 2598 2529 2460 2532
8 2599 2533 2460 2532 2531 2459 2380 2458
8 2537 2464 2533 2599 2463 2384 2459 2531
8 2534 2462 2382 2460 2601 2535 2461 2533
8 2538 2465 2535 2601 2464 2385 2461 2533
8 2540 2467 2538 2604 2466 2387 2464 2537
8 2541 2468 2539 2605 2467 2388 2465 2538
8 2543 2470 2541 2607 2469 2390 2467 2540
8 2470 2391 2471 2544 2541 2468 2542 2608
8 2472 2393 2473 2546 2543 2470 2544 2610
8 2473 2394 2474 2547 2544 2471 2545 2611
8 2475 2396 2476 2549 2546 2473 2547 2613
8 2476 2397 2477 2550 2547 2474 2548 2614
8 2549 2476 2399 2478 2616 2550 2479 2552
8 2479 2400 2480 2553 2550 2477 2551 2617
8 2552 2479 2402 2483 2619 2553 2482 2557
8 2482 2401 2481 2556 2553 2480 2554 2620
8 2485 2404 2484 2559 2556 2481 2555 2623
8 2486 2405 2485 2560 2557 2482 2556 2624
8 2488 2407 2487 2561 2559 2484 2558 2625
8 2489 2408 2488 2562 2560 2485 2559 2626
8 2491 2411 2490 2563 2562 2488 2561 2627
8 2513 2434 2512 2585 2565 2493 2564 2630
8 2586 2513 2565 2632 2515 2438 2494 2567
8 2565 2493 2566 2633 2494 2416 2495 2568
8 2567 2494 2568 2635 2496 2417 2497 2570
8 2568 2495 2569 2636 2497 2418 2498 2571
8 2570 2497 2571 2638 2499 2420 2500 2573
8 2571 2498 2572 2639 2500 2421 2501 2574
8 2573 2500 2574 2641 2502 2423 2503 2576
8 2574 2501 2575 2642 2503 2424 2504 2577
8 2576 2503 2577 2643 2505 2426 2506 2578
8 2597 2528 2579 2645 2529 2454 2508 2580
8 2580 2508 2579 2645 2525 2448 2522 2593
8 2581 2509 2455 2530 2646 2580 2529 2598
8 2581 2509 2580 2646 2526 2449 2525 2595
8 2583 2511 2582 2648 2513 2434 2512 2585
8 2583 2511 2439 2516 2648 2582 2517 2589
8 2649 2583 2513 2586 2588 2516 2438 2515
8 2589 2517 2444 2520 2653 2587 2521 2592
8 2518 2442 2520 2591 2588 2516 2589 2654
8 2593 2522 2590 2655 2523 2445 2521 2592
8 2524 2446 2523 2594 2591 2520 2592 2656
8 2595 2525 2593 2657 2527 2452 2523 2594
8 2602 2536 2596 2659 2534 2462 2528 2597
8 2600 2534 2597 2660 2532 2460 2529 2598
8 2600 2534 2460 2532 2661 2601 2533 2599
8 2604 2538 2601 2661 2537 2464 2533 2599
8 2602 2536 2462 2534 2663 2603 2535 2601
8 2601 2535 2465 2538 2663 2603 2539 2605
8 2607 2541 2605 2665 2540 2467 2538 2604
8 2608 2542 2606 2666 2541 2468 2539 2605
8 2543 2470 2544 2610 2607 2541 2608 2668
8 2544 2471 2545 2611 2608 2542 2609 2669
8 2546 2473 2547 2613 2610 2544 2611 2671
8 2547 2474 2548 2614 2611 2545 2612 2672
8 2549 2476 2550 2616 2613 2547 2614 2674
8 2550 2477 2551 2617 2614 2548 2615 2675
8 2552 2479 2553 2619 2616 2550 2617 2677
8 2553 2480 2554 2620 2617 2551 2618 2678
8 2557 2482 2556 2624 2619 2553 2620 2680
8 2556 2481 2555 2623 2620 2554 2621 2681
8 2559 2484 2558 2625 2623 2555 2622 2683
8 2560 2485 2559 2626 2624 2556 2623 2684
8 2562 2488 2561 2627 2626 2559 2625 2685
8 2690 2629 2564 2630 2650 2584 2512 2585
8 2586 2513 2585 2651 2632 2565 2630 2691
8 2630 2564 2631 2692 2565 2493 2566 2633
8 2632 2565 2633 2694 2567 2494 2568 2635
8 2633 2566 2634 2695 2568 2495 2569 2636
8 2635 2568 2636 2697 2570 2497 2571 2638
8 2636 2569 2637 2698 2571 2498 2572 2639
8 2638 2571 2639 2700 2573 2500 2574 2641
8 2639 2572 2640 2701 2574 2501 2575 2642
8 2641 2574 2642 2702 2576 2503 2577 2643
8 2597 2528 2596 2659 2645 2579 2644 2704
8 2645 2579 2644 2704 2593 2522 2590 2655
8 2660 2597 2645 2705 2598 2529 2580 2646
8 2646 2580 2645 2705 2595 2525 2593 2657
8 2650 2584 2512 2585 2707 2647 2582 2648
8 2648 2582 2517 2589 2707 2647 2587 2653
8 2649 2583 2648 2708 2586 2513 2585 2651
8 2649 2583 2516 2588 2708 2648 2589 2654
8 2655 2590 2652 2710 2592 2521 2587 2653
8 2654 2589 2520 2591 2711 2653 2592 2656
8 2657 2593 2655 2712 2594 2523 2592 2656
8 2602 2536 2603 2663 2659 2596 2658 2714
8 2662 2602 2659 2715 2600 2534 2597 2660
8 2662 2602 2534 2600 2717 2663 2601 2661
8 2661 2601 2538 2604 2717 2663 2605 2665
8 2666 2606 2664 2718 2605 2539 2603 2663
8 2668 2608 2666 2720 2607 2541 2605 2665
8 2608 2542 2609 2669 2666 2606 2667 2721
8 2610 2544 2611 2671 2668 2608 2669 2723
8 2611 2545 2612 2672 2669 2609 2670 2724
8 2613 2547 2614 2674 2671 2611 2672 2726
8 2614 2548 2615 2675 2672 2612 2673 2727
8 2616 2550 2617 2677 2674 2614 2675 2729
8 2617 2551 2618 2678 2675 2615 2676 2730
8 2619 2553 2620 2680 2677 2617 2678 2732
8 2620 2554 2621 2681 2678 2618 2679 2733
8 2624 2556 2623 2684 2680 2620 2681 2735
8 2681 2621 2555 2623 2736 2682 2622 2683
8 2626 2559 2625 2685 2684 2623 2683 2737
8 2688 2628 2584 2650 2740 2686 2647 2707
8 2688 2628 2687 2742 2650 2584 2629 2690
8 2690 2629 2689 2745 2630 2564 2631 2692
8 2746 2690 2630 2691 2709 2650 2585 2651
8 2691 2630 2692 2747 2632 2565 2633 2694
8 2692 2631 2693 2748 2633 2566 2634 2695
8 2694 2633 2695 2750 2635 2568 2636 2697
8 2695 2634 2696 2751 2636 2569 2637 2698
8 2697 2636 2698 2753 2638 2571 2639 2700
8 2698 2637 2699 2754 2639 2572 2640 2701
8 2700 2639 2701 2755 2641 2574 2642 2702
8 2659 2596 2658 2714 2704 2644 2703 2757
8 2704 2644 2703 2757 2655 2590 2652 2710
8 2660 2597 2659 2715 2705 2645 2704 2758
8 2705 2645 2704 2758 2657 2593 2655 2712
8 2759 2706 2647 2707 2710 2652 2587 2653
8 2709 2650 2585 2651 2760 2707 2648 2708
8 2708 2648 2589 2654 2760 2707 2653 2711
8 2712 2655 2710 2761 2656 2592 2653 2711
8 2763 2713 2658 2714 2718 2664 2603 2663
8 2662 2602 2663 2717 2715 2659 2714 2764
8 2720 2666 2718 2767 2665 2605 2663 2717
8 2768 2719 2664 2718 2721 2667 2606 2666
8 2668 2608 2669 2723 2720 2666 2721 2770
8 2669 2609 2670 2724 2721 2667 2722 2771
8 2671 2611 2672 2726 2723 2669 2724 2773
8 2672 2612 2673 2727 2724 2670 2725 2774
8 2674 2614 2675 2729 2726 2672 2727 2776
8 2675 2615 2676 2730 2727 2673 2728 2777
8 2677 2617 2678 2732 2729 2675 2730 2779
8 2678 2618 2679 2733 2730 2676 2731 2780
8 2680 2620 2681 2735 2732 2678 2733 2782
8 2733 2679 2621 2681 2783 2734 2682 2736
8 2735 2681 2623 2684 2784 2736 2683 2737
8 2740 2686 2647 2707 2787 2738 2706 2759
8 2688 2628 2686 2740 2742 2687 2739 2789
8 2743 2688 2650 2709 2790 2740 2707 2760
8 2742 2687 2741 2792 2690 2629 2689 2745
8 2743 2688 2742 2793 2709 2650 2690 2746
8 2745 2689 2744 2795 2692 2631 2693 2748
8 2746 2690 2745 2796 2691 2630 2692 2747
8 2747 2692 2748 2797 2694 2633 2695 2750
8 2748 2693 2749 2798 2695 2634 2696 2751
8 2750 2695 2751 2800 2697 2636 2698 2753
8 2751 2696 2752 2801 2698 2637 2699 2754
8 2753 2698 2754 2802 2700 2639 2701 2755
8 2763 2713 2756 2804 2714 2658 2703 2757
8 2759 2706 2652 2710 2804 2756 2703 2757
8 2715 2659 2714 2764 2758 2704 2757 2805
8 2758 2704 2757 2805 2712 2655 2710 2761
8 2806 2759 2707 2760 2761 2710 2653 2711
8 2765 2716 2762 2808 2718 2664 2713 2763
8 2809 2763 2714 2764 2767 2718 2663 2717
8 2765 2716 2664 2718 2811 2766 2719 2768
8 2813 2768 2718 2767 2770 2721 2666 2720
8 2814 2769 2719 2768 2771 2722 2667 2721
8 2723 2669 2724 2773 2770 2721 2771 2816
8 2724 2670 2725 2774 2771 2722 2772 2817
8 2726 2672 2727 2776 2773 2724 2774 2819
8 2727 2673 2728 2777 2774 2725 2775 2820
8 2729 2675 2730 2779 2776 2727 2777 2822
8 2730 2676 2731 2780 2777 2728 2778 2823
8 2732 2678 2733 2782 2779 2730 2780 2825
8 2780 2731 2679 2733 2826 2781 2734 2783
8 2782 2733 2681 2735 2827 2783 2736 2784
8 2830 2785 2738 2787 2804 2756 2706 2759
8 2789 2739 2686 2740 2832 2786 2738 2787
8 2790 2740 2707 2760 2833 2787 2759 2806
8 2742 2687 2739 2789 2792 2741 2788 2835
8 2743 2688 2740 2790 2793 2742 2789 2836
8 2792 2741 2791 2838 2745 2689 2744 2795
8 2793 2742 2792 2839 2746 2690 2745 2796
8 2795 2744 2794 2841 2748 2693 2749 2798
8 2796 2745 2795 2842 2747 2692 2748 2797
8 2797 2748 2798 2843 2750 2695 2751 2800
8 2798 2749 2799 2844 2751 2696 2752 2801
8 2800 2751 2801 2845 2753 2698 2754 2802
8 2808 2762 2803 2847 2763 2713 2756 2804
8 2809 2763 2804 2848 2764 2714 2757 2805
8 2806 2759 2710 2761 2848 2804 2757 2805
8 2765 2716 2766 2811 2808 2762 2807 2850
8 2810 2765 2808 2851 2767 2718 2763 2809
8 2810 2765 2718 2767 2852 2811 2768 2813
8 2811 2766 2719 2768 2853 2812 2769 2814
8 2855 2814 2768 2813 2816 2771 2721 2770
8 2856 2815 2769 2814 2817 2772 2722 2771
8 2773 2724 2774 2819 2816 2771 2817 2858
8 2774 2725 2775 2820 2817 2772 2818 2859
8 2776 2727 2777 2822 2819 2774 2820 2861
8 2777 2728 2778 2823 2820 2775 2821 2862
8 2779 2730 2780 2825 2822 2777 2823 2864
8 2823 2778 2731 2780 2865 2824 2781 2826
8 2825 2780 2733 2782 2866 2826 2783 2827
8 2869 2828 2785 2830 2847 2803 2756 2804
8 2871 2829 2786 2832 2830 2785 2738 2787
8 2872 2830 2787 2833 2848 2804 2759 2806
8 2789 2739 2786 2832 2835 2788 2831 2874
8 2836 2789 2740 2790 2875 2832 2787 2833
8 2792 2741 2788 2835 2838 2791 2834 2877
8 2793 2742 2789 2836 2839 2792 2835 2878
8 2838 2791 2837 2880 2795 2744 2794 2841
8 2839 2792 2838 2881 2796 2745 2795 2842
8 2841 2794 2840 2882 2798 2749 2799 2844
8 2842 2795 2841 2883 2797 2748 2798 2843
8 2843 2798 2844 2884 2800 2751 2801 2845
8 2886 2846 2803 2847 2850 2807 2762 2808
8 2851 2808 2847 2887 2809 2763 2804 2848
8 2850 2807 2766 2811 2889 2849 2812 2853
8 2810 2765 2811 2852 2851 2808 2850 2890
8 2852 2811 2768 2813 2891 2853 2814 2855
8 2853 2812 2769 2814 2892 2854 2815 2856
8 2894 2856 2814 2855 2858 2817 2771 2816
8 2817 2772 2818 2859 2856 2815 2857 2895
8 2819 2774 2820 2861 2858 2817 2859 2897
8 2820 2775 2821 2862 2859 2818 2860 2898
8 2822 2777 2823 2864 2861 2820 2862 2900
8 2823 2778 2824 2865 2862 2821 2863 2901
8 2864 2823 2780 2825 2902 2865 2826 2866
8 2904 2867 2828 2869 2886 2846 2803 2847
8 2869 2828 2868 2906 2830 2785 2829 2871
8 2907 2869 2830 2872 2887 2847 2804 2848
8 2871 2829 2870 2909 2832 2786 2831 2874
8 2910 2871 2832 2875 2872 2830 2787 2833
8 2835 2788 2831 2874 2877 2834 2873 2912
8 2836 2789 2832 2875 2878 2835 2874 2913
8 2877 2834 2876 2915 2838 2791 2837 2880
8 2839 2792 2835 2878 2881 2838 2877 2916
8 2880 2837 2879 2917 2841 2794 2840 2882
8 2881 2838 2880 2918 2842 2795 2841 2883
8 2883 2841 2882 2919 2843 2798 2844 2884
8 2921 2885 2846 2886 2889 2849 2807 2850
8 2922 2886 2847 2887 2890 2850 2808 2851
8 2889 2849 2812 2853 2924 2888 2854 2892
8 2890 2850 2811 2852 2925 2889 2853 2891
8 2891 2853 2814 2855 2926 2892 2856 2894
8 2892 2854 2815 2856 2927 2893 2857 2895
8 2858 2817 2859 2897 2894 2856 2895 2929
8 2859 2818 2860 2898 2895 2857 2896 2930
8 2861 2820 2862 2900 2897 2859 2898 2932
8 2862 2821 2863 2901 2898 2860 2899 2933
8 2864 2823 2865 2902 2900 2862 2901 2934
8 2904 2867 2846 2886 2936 2903 2885 2921
8 2904 2867 2903 2936 2869 2828 2868 2906
8 2937 2904 2869 2907 2922 2886 2847 2887
8 2906 2868 2905 2939 2871 2829 2870 2909
8 2907 2869 2906 2940 2872 2830 2871 2910
8 2909 2870 2908 2942 2874 2831 2873 2912
8 2910 2871 2909 2943 2875 2832 2874 2913
8 2912 2873 2911 2945 2877 2834 2876 2915
8 2878 2835 2874 2913 2916 2877 2912 2946
8 2915 2876 2914 2947 2880 2837 2879 2917
8 2916 2877 2915 2948 2881 2838 2880 2918
8 2918 2880 2917 2949 2883 2841 2882 2919
8 2921 2885 2849 2889 2951 2920 2888 2924
8 2952 2921 2886 2922 2925 2889 2850 2890
8 2924 2888 2854 2892 2954 2923 2893 2927
8 2925 2889 2853 2891 2955 2924 2892 2926
8 2926 2892 2856 2894 2956 2927 2895 2929
8 2895 2857 2896 2930 2927 2893 2928 2957
8 2897 2859 2898 2932 2929 2895 2930 2959
8 2898 2860 2899 2933 2930 2896 2931 2960
8 2900 2862 2901 2934 2932 2898 2933 2961
8 2936 2903 2885 2921 2963 2935 2920 2951
8 2936 2903 2935 2963 2906 2868 2905 2939
8 2937 2904 2886 2922 2964 2936 2921 2952
8 2937 2904 2936 2964 2907 2869 2906 2940
8 2939 2905 2938 2966 2909 2870 2908 2942
8 2940 2906 2939 2967 2910 2871 2909 2943
8 2942 2908 2941 2969 2912 2873 2911 2945
8 2943 2909 2942 2970 2913 2874 2912 2946
8 2945 2911 2944 2971 2915 2876 2914 2947
8 2946 2912 2945 2972 2916 2877 2915 2948
8 2948 2915 2947 2973 2918 2880 2917 2949
8 2951 2920 2888 2924 2975 2950 2923 2954
8 2952 2921 2889 2925 2976 2951 2924 2955
8 2927 2893 2928 2957 2954 2923 2953 2978
8 2955 2924 2892 2926 2979 2954 2927 2956
8 2929 2895 2930 2959 2956 2927 2957 2980
8 2930 2896 2931 2960 2957 2928 2958 2981
8 2932 2898 2933 2961 2959 2930 2960 2982
8 2951 2920 2950 2975 2963 2935 2962 2984
8 2963 2935 2962 2984 2939 2905 2938 2966
8 2964 2936 2921 2952 2985 2963 2951 2976
8 2964 2936 2963 2985 2940 2906 2939 2967
8 2966 2938 2965 2987 2942 2908 2941 2969
8 2967 2939 2966 2988 2943 2909 2942 2970
8 2969 2941 2968 2989 2945 2911 2944 2971
8 2970 2942 2969 2990 2946 2912 2945 2972
8 2972 2945 2971 2991 2948 2915 2947 2973
8 2954 2923 2953 2978 2975 2950 2974 2993
8 2976 2951 2924 2955 2994 2975 2954 2979
8 2957 2928 2958 2981 2978 2953 2977 2995
8 2956 2927 2957 2980 2979 2954 2978 2996
8 2959 2930 2960 2982 2980 2957 2981 2997
8 2984 2962 2983 2999 2966 2938 2965 2987
8 2975 2950 2974 2993 2984 2962 2983 2999
8 2976 2951 2975 2994 2985 2963 2984 3000
8 2985 2963 2984 3000 2967 2939 2966 2988
8 2987 2965 2986 3001 2969 2941 2968 2989
8 2988 2966 2987 3002 2970 2942 2969 2990
8 2990 2969 2989 3003 2972 2945 2971 2991
8 2978 2953 2977 2995 2993 2974 2992 3004
8 2979 2954 2978 2996 2994 2975 2993 3005
8 2980 2957 2981 2997 2996 2978 2995 3006
8 2974 2993 2999 2983 2992 3004 3007 2998
8 2983 2999 2987 2965 2998 3007 3001 2986
8 3000 2984 2999 3008 2988 2966 2987 3002
8 2994 2975 2993 3005 3000 2984 2999 3008
8 3002 2987 3001 3009 2990 2969 2989 3003
8 2996 2978 2995 3006 3005 2993 3004 3010
8 3005 2993 3004 3010 3008 2999 3007 3011
8 3008 2999 3007 3011 3002 2987 3001 3009

CELL_TYPES 1910
12
12
12
12
12
12
12
12
12
12
12
12
12
12
12
12
12
12
12
12
12
12
12
12
12
12
12
12
12
12
12
12
12
12
12
12
12
12
12
12
12
12
12
12
12
12
12
12
12
12
12
12
12
12
12
12
12
12
12
12
12
12
12
12
12
12
12
12
12
12
12
12
12
12
12
12
12
12
12
12
12
12
12
12
12
12
12
12
12
12
12
12
12
12
12
12
12
12
12
12
12
12
12
12
12
12
12
12
12
12
12
12
12
12
12
12
12
12
12
12
12
12
12
12
12
12
12
12
12
12
12
12
12
12
12
12
12
12
12
12
12
12
12
12
12
12
12
12
12
12
12
12
12
12
12
12
12
12
12
12
12
12
12
12
12
12
12
12
12
12
12
12
12
12
12
12
12
12
12
12
12
12
12
12
12
12
12
12
12
12
12
12
12
12
12
12
12
12
12
12
12
12
12
12
12
12
12
12
12
12
12
12
12
12
12
12
12
12
12
12
12
12
12
12
12
12
12
12
12
12
12
12
12
12
12
12
12
12
12
12
12
12
12
12
12
12
12
12
12
12
12
12
12
12
12
12
12
12
12
12
12
12
12
12
12
12
12
12
12
12
12
12
12
12
12
12
12
12
12
12
12
12
12
12
12
12
12
12
12
12
12
12
12
12
12
12
12
12
12
12
12
12
12
12
12
12
12
12
12
12
12
12
12
12
12
12
12
12
12
12
12
12
12
12
12
12
12
12
12
12
12
12
12
12
12
12
12
12
12
12
12
12
12
12
12
12
12
12
12
12
12
12
12
12
12
12
12
12
12
12
12
12
12
12
12
12
12
12
12
12
12
12
12
12
12
12
12
12
12
12
12
12
12
12
12
12
12
12
12
12
12
12
12
12
12
12
12
12
12
12
12
12
12
12
12
12
12
12
12
12
12
12
12
12
12
12
12
12
12
12
12
12
12
12
12
12
12
12
12
12
12
12
12
12
12
12
12
12
12
12
12
12
12
12
12
12
12
12
12
12
12
12
12
12
12
12
12
12
12
12
12
12
12
12
12
12
12
12
12
12
12
12
12
12
12
12
12
12
12
12
12
12
12
12
12
12
12
12
12
12
12
12
12
12
12
12
12
12
12
12
12
12
12
12
12
12
12
12
12
12
12
12
12
12
12
12
12
12
12
12
12
12
12
12
12
12
12
12
12
12
12
12
12
12
12
12
12
12
12
12
12
12
12
12
12
12
12
12
12
12
12
12
12
12
12
12
12
12
12
12
12
12
12
12
12
12
12
12
12
12
12
12
12
12
12
12
12
12
12
12
12
12
12
12
12
12
12
12
12
12
12
12
12
12
12
12
12
12
12
12
12
12
12
12
12
12
12
12
12
12
12
12
12
12
12
12
12
12
12
12
12
12
12
12
12
12
12
12
12
12
12
12
12
12
12
12
12
12
12
12
12
12
12
12
12
12
12
12
12
12
12
12
12
12
12
12
12
12
12
12
12
12
12
12
12
12
12
12
12
12
12
12
12
12
12
12
12
12
12
12
12
12
12
12
12
12
12
12
12
12
12
12
12
12
12
12
12
12
12
12
12
12
12
12
12
12
12
12
12
12
12
12
12
12
12
12
12
12
12
12
12
12
12
12
12
12
12
12
12
12
12
12
12
12
12
12
12
12
12
12
12
12
12
12
12
12
12
12
12
12
12
12
12
12
12
12
12
12
12
12
12
12
12
12
12
12
12
12
12
12
12
12
12
12
12
12
12
12
12
12
12
12
12
12
12
12
12
12
12
12
12
12
12
12
12
12
12
12
12
12
12
12
12
12
12
12
12
12
12
12
12
12
12
12
12
12
12
12
12
12
12
12
12
12
12
12
12
12
12
12
12
12
12
12
12
12
12
12
12
12
12
12
12
12
12
12
12
12
12
12
12
12
12
12
12
12
12
12
12
12
12
12
12
12
12
12
12
12
12
12
12
12
12
12
12
12
12
12
12
12
12
12
12
12
12
12
12
12
12
12
12
12
12
12
12
12
12
12
12
12
12
12
12
12
12
12
12
12
12
12
12
12
12
12
12
12
12
12
12
12
12
12
12
12
12
12
12
12
12
12
12
12
12
12
12
12
12
12
12
12
12
12
12
12
12
12
12
12
12
12
12
12
12
12
12
12
12
12
12
12
12
12
12
12
12
12
12
12
12
12
12
12
12
12
12
12
12
12
12
12
12
12
12
12
12
12
12
12
12
12
12
12
12
12
12
12
12
12
12
12
12
12
12
12
12
12
12
12
12
12
12
12
12
12
12
12
12
12
12
12
12
12
12
12
12
12
12
12
12
12
12
12
12
12
12
12
12
12
12
12
12
12
12
12
12
12
12
12
12
12
12
12
12
12
12
12
12
12
12
12
12
12
12
12
12
12
12
12
12
12
12
12
12
12
12
12
12
12
12
12
12
12
12
12
12
12
12
12
12
12
12
12
12
12
12
12
12
12
12
12
12
12
12
12
12
12
12
12
12
12
12
12
12
12
12
12
12
12
12
12
12
12
12
12
12
12
12
12
12
12
12
12
12
12
12
12
12
12
12
12
12
12
12
12
12
12
12
12
12
12
12
12
12
12
12
12
12
12
12
12
12
12
12
12
12
12
12
12
12
12
12
12
12
12
12
12
12
12
12
12
12
12
12
12
12
12
12
12
12
12
12
12
12
12
12
12
12
12
12
12
12
12
12
12
12
12
12
12
12
12
12
12
12
12
12
12
12
12
12
12
12
12
12
12
12
12
12
12
12
12
12
12
12
12
12
12
12
12
12
12
12
12
12
12
12
12
12
12
12
12
12
12
12
12
12
12
12
12
12
12
12
12
12
12
12
12
12
12
12
12
12
12
12
12
12
12
12
12
12
12
12
12
12
12
12
12
12
12
12
12
12
12
12
12
12
12
12
12
12
12
12
12
12
12
12
12
12
12
12
12
12
12
12
12
12
12
12
12
12
12
12
12
12
12
12
12
12
12
12
12
12
12
12
12
12
12
12
12
12
12
12
12
12
12
12
12
12
12
12
12
12
12
12
12
12
12
12
12
12
12
12
12
12
12
12
12
12
12
12
12
12
12
12
12
12
12
12
12
12
12
12
12
12
12
12
12
12
12
12
12
12
12
12
12
12
12
12
12
12
12
12
12
12
12
12
12
12
12
12
12
12
12
12
12
12
12
12
12
12
12
12
12
12
12
12
12
12
12
12
12
12
12
12
12
12
12
12
12
12
12
12
12
12
12
12
12
12
12
12
12
12
12
12
12
12
12
12
12
12
12
12
12
12
12
12
12
12
12
12
12
12
12
12
12
12
12
12
12
12
12
12
12
12
12
12
12
12
12
12
12
12
12
12
12
12
12
12
12
12
12
12
12
12
12
12
12
12
12
12
12
12
12
12
12
12
12
12
12
12
12
12
12
12
12
12
12
12
12
12
12
12
12
12
12
12
12
12
12
12
12
12
12
12
12
12
12
12
12
12
12
12
12
12
12
12
12
12
12
12
12
12
12
12
12
12
12
12
12
12
12
12
12
12
12
12
12
12
12
12
12
12
12
12
12
12
12
12
12
12
12
12
12
12
12
12
12
12
12
12
12
12
12
12
12
12
12
12
12
12
12
12
12
12
12
12
12
12
12
12
12
12
12
12
12
12
12
12
12
12
12
12
12
12
12
12
12
12
12
12
12
12
12
12
12
12
12
12
12
12
12
12
12
12
12
12
12
12
12
12
12
12
12
12
12
12
12
12
12
12
12
12
12
12
12
12
12
12
12
12
12
12
12
12
12
12
12
12
12
12
12
12
12
12
12
12
12
12
12
12
12
12
12
12
12
12
12
12
12
12
12
12
12
12
12
12
12
12
12
12
12
12
12
12
12
12
12
12
12
12
12
12
12
12
12
12
12
12
12
12
12
12
12
12
12
12
12
12
12
12
12
12
12
12
12
12
12
12
12
12
12
12
12
12
12
12
12
12
12
12
12
12
12
12
12
12
12
12
12
12
12
12
12
12
12
12
12
12
12
12
12
12
12
12
12
12
12
12
12
12
12
12
12
12
12
12
12
12
12
12
12
12
12
12
12
12
12
12
12
12
12
12
12
12
12
12
12
12
12
12
12
12
12
12
12
12
12
12
12
12
12
12
12
12
12
12
12
12
12
12
12
12
12
12
12
12
12
12
12
12
12
12
12
12
12
12
12
12
12
12
12
12
12
12
12
12
12
12
12
12
12
12
12
12
12
12
12
12
12
12
12
12
12
12
12
12
12
12
12
12
12
12
12
12
12
12
12
12
12
12
12

POINT_DATA 3012
SCALARS Jp_lamdaP float 4
LOOKUP_TABLE default
0.999989 1 1 0.999989
1 1 1 1
0.999991 1 1 0.999991
0.999967 1 1 0.999967
0.999983 1 1 0.999983
0.999995 1 1 0.999995
0.999801 1 1 0.999801
1 1 1 1
1 1 1 1
1 1 1 1
1 1 1 1
0.99992 1 1 0.99992
0.999939 1 1 0.999939
0.999966 1 1 0.999966
0.999992 1 1 0.999992
0.99997 1 1 0.99997
0.999996 1 1 0.999996
0.999986 1 1 0.999986
0.999804 1 1 0.999804
1 1 1 1
0.999961 1 1 0.999961
0.999975 1 1 0.999975
0.999693 1 1 0.999693
0.999766 1 1 0.999766
1 1 1 1
0.999842 1 1 0.999842
0.999482 1 1 0.999482
1 1 1 1
0.999989 1 1 0.999989
0.999997 1 1 0.999997
1 1 1 1
0.999927 1 1 0.999927
0.999973 1 1 0.999973
0.999991 1 1 0.999991
0.999829 1 1 0.999829
1 1 1 1
0.999898 1 1 0.999898
0.999948 1 1 0.999948
0.999555 1 1 0.999555
1 1 1 1
1 1 1 1
0.999981 1 1 0.999981
1 1 1 1
0.999956 1 1 0.999956
0.999665 1 1 0.999665
1 1 1 1
0.999769 1 1 0.999769
0.999973 1 1 0.999973
0.999987 1 1 0.999987
0.999997 1 1 0.999997
0.999807 1 1 0.999807
0.999971 1 1 0.999971
0.999965 1 1 0.999965
1 1 1 1
0.999979 1 1 0.999979
0.999695 1 1 0.999695
0.999844 1 1 0.999844
0.999769 1 1 0.999769
0.99947 1 1 0.99947
1 1 1 1
0.999952 1 1 0.999952
0.999719 1 1 0.999719
0.999676 1 1 0.999676
0.999728 1 1 0.999728
0.999229 1 1 0.999229
0.999363 1 1 0.999363
1 1 1 1
0.999896 1 1 0.999896
0.99957 1 1 0.99957
0.999117 1 1 0.999117
1 1 1 1
1 1 1 1
1 1 1 1
0.999933 1 1 0.999933
1 1 1 1
1 1 1 1
0.999825 1 1 0.999825
1 1 1 1
0.999902 1 1 0.999902
0.999958 1 1 0.999958
0.999553 1 1 0.999553
1 1 1 1
1 1 1 1
0.999784 1 1 0.999784
0.999857 1 1 0.999857
0.999295 1 1 0.999295
0.99998 1 1 0.99998
0.999507 1 1 0.999507
0.999602 1 1 0.999602
0.999304 1 1 0.999304
1 1 1 1
1 1 1 1
1 1 1 1
1 1 1 1
1 1 1 1
0.999975 1 1 0.999975
0.999692 1 1 0.999692
0.999984 1 1 0.999984
0.999763 1 1 0.999763
1 1 1 1
0.999634 1 1 0.999634
0.999741 1 1 0.999741
0.999003 1 1 0.999003
0.999787 1 1 0.999787
0.9991 1 1 0.9991
0.999947 1 1 0.999947
0.999968 1 1 0.999968
1 1 1 1
0.999981 1 1 0.999981
0.999697 1 1 0.999697
0.999772 1 1 0.999772
0.999846 1 1 0.999846
0.999458 1 1 0.999458
1 1 1 1
0.999957 1 1 0.999957
0.999654 1 1 0.999654
0.999677 1 1 0.999677
1 1 1 1
0.999918 1 1 0.999918
0.999731 1 1 0.999731
0.999207 1 1 0.999207
0.999557 1 1 0.999557
0.999378 1 1 0.999378
0.999118 1 1 0.999118
0.999649 1 1 0.999649
0.999661 1 1 0.999661
0.999075 1 1 0.999075
0.999158 1 1 0.999158
0.999264 1 1 0.999264
0.998881 1 1 0.998881
1 1 1 1
0.999043 1 1 0.999043
0.999975 1 1 0.999975
0.999603 1 1 0.999603
0.999192 1 1 0.999192
0.998964 1 1 0.998964
0.999998 1 1 0.999998
0.999763 1 1 0.999763
1 1 1 1
1 1 1 1
0.999831 1 1 0.999831
1 1 1 1
0.999968 1 1 0.999968
0.999905 1 1 0.999905
0.999552 1 1 0.999552
1 1 1 1
1 1 1 1
0.999798 1 1 0.999798
0.999869 1 1 0.999869
0.999297 1 1 0.999297
0.999986 1 1 0.999986
0.999508 1 1 0.999508
0.999601 1 1 0.999601
0.999295 1 1 0.999295
0.999997 1 1 0.999997
1 1 1 1
0.999802 1 1 0.999802
0.9992 1 1 0.9992
0.999414 1 1 0.999414
0.99899 1 1 0.99899
0.999666 1 1 0.999666
0.999246 1 1 0.999246
0.999334 1 1 0.999334
0.999197 1 1 0.999197
1 1 1 1
1 1 1 1
1 1 1 1
1 1 1 1
1 1 1 1
1 1 1 1
1 1 1 1
0.999755 1 1 0.999755
0.99968 1 1 0.99968
1 1 1 1
1 1 1 1
0.999636 1 1 0.999636
0.999736 1 1 0.999736
0.999004 1 1 0.999004
0.999772 1 1 0.999772
0.9991 1 1 0.9991
0.999623 1 1 0.999623
0.998946 1 1 0.998946
0.99906 1 1 0.99906
0.998719 1.00001 1 0.998712
0.99914 1 1 0.99914
0.998816 1 1 0.998816
1 1 1 1
0.999962 1 1 0.999962
0.999587 1 1 0.999587
0.999677 1 1 0.999677
1 1 1 1
0.999941 1 1 0.999941
0.999734 1 1 0.999734
0.999186 1 1 0.999186
0.999392 1 1 0.999392
0.999543 1 1 0.999543
0.999119 1 1 0.999119
0.999647 1 1 0.999647
0.999662 1 1 0.999662
0.999031 1 1 0.999031
0.999175 1 1 0.999175
1 1 1 1
0.999968 1 1 0.999968
0.999622 1 1 0.999622
0.999266 1 1 0.999266
0.998855 1 1 0.998855
0.999188 1 1 0.999188
0.999056 1 1 0.999056
0.998967 1 1 0.998967
0.999997 1 1 0.999997
0.999763 1 1 0.999763
0.998958 1 1 0.998958
0.99913 1 1 0.99913
0.998769 1 1 0.998769
0.998788 1 1 0.998788
0.99897 1 1 0.99897
0.998755 1 1 0.998755
0.999991 1 1 0.999991
0.998898 1 1 0.998898
0.999644 1 1 0.999644
0.999293 1 1 0.999293
0.99904 1 1 0.99904
0.998914 1 1 0.998914
0.999699 1 1 0.999699
0.99984 1 1 0.99984
0.999462 1 1 0.999462
0.999796 1 1 0.999796
1 1 1 1
1 1 1 1
0.999874 1 1 0.999874
0.999299 1 1 0.999299
0.999992 1 1 0.999992
0.999601 1 1 0.999601
0.999509 1 1 0.999509
0.999286 1 1 0.999286
0.999998 1 1 0.999998
1 1 1 1
0.999803 1 1 0.999803
0.999201 1 1 0.999201
0.999417 1 1 0.999417
0.99899 1 1 0.99899
0.999666 1 1 0.999666
0.999255 1 1 0.999255
0.999333 1 1 0.999333
0.999187 1 1 0.999187
1 1 1 1
0.999729 1 1 0.999729
0.999876 1 1 0.999876
0.999517 1 1 0.999517
0.998899 1 1 0.998899
0.999135 1 1 0.999135
0.99899 1.00015 1 0.998838
0.999401 1 1 0.999401
0.99914 1 1 0.99914
0.999405 1 1.00024 0.999165
0.999107 1 1 0.999107
0.999974 1 1 0.999974
1 1 1 1
1 1 1 1
1 1 1 1
1 1 1 1
1 1 1 1
1 1 1 1
1 1 1 1
1 1 1 1
0.999774 1 1 0.999774
0.999724 1 1 0.999724
0.999101 1 1 0.999101
0.999004 1 1 0.999004
0.999638 1 1 0.999638
1 1 1 1
0.999622 1 1 0.999622
0.998947 1 1 0.998947
0.99906 1 1 0.99906
0.998715 1 1 0.998711
0.999141 1 1 0.999141
0.998816 1 1 0.998816
0.998932 1 1 0.998932
0.998683 1.00003 1 0.998653
0.99877 1 1 0.99877
0.999923 1.00129 1 0.998632
0.998854 1 1 0.998854
0.99896 1.00024 1 0.998721
0.999644 1 1 0.999644
0.999663 1 1 0.999663
0.998987 1 1 0.998987
0.999191 1 1 0.999191
1 1 1 1
0.999962 1 1 0.999962
0.99964 1 1 0.99964
0.999267 1 1 0.999267
0.998828 1 1 0.998828
0.999068 1 1 0.999068
0.999184 1 1 0.999184
0.998969 1 1 0.998969
0.999995 1 1 0.999995
0.999763 1 1 0.999763
0.998944 1 1 0.998944
0.99913 1 1 0.99913
0.998757 1 1 0.998757
0.998816 1 1 0.998816
0.999987 1 1 0.999987
0.999644 1 1 0.999644
0.999312 1 1 0.999312
0.99897 1 1 0.99897
0.998749 1 1 0.998749
0.999019 1 1 0.999019
0.998898 1 1 0.998898
0.998914 1 1 0.998914
0.9997 1 1 0.9997
0.999459 1 1 0.999459
0.999839 1 1 0.999839
0.998726 1.00001 1 0.998712
0.998795 1 1 0.998795
0.9995 1.00087 1 0.998627
0.998755 1.00006 1 0.998692
0.998824 1 1 0.998824
0.999175 1.00042 1 0.998751
0.999667 1 1 0.999667
0.999013 1.00015 1 0.998865
0.999407 1 1 0.999407
0.999115 1 1 0.999115
0.998912 1 1 0.998912
0.998957 1 1 0.998957
0.999899 1 1 0.999899
0.99945 1 1 0.99945
0.999495 1 1 0.999495
0.99935 1 1 0.99935
0.999202 1 1 0.999202
1 1 1 1
1 1 1 1
0.999803 1 1 0.999803
0.99942 1 1 0.99942
0.99899 1 1 0.99899
0.999667 1 1 0.999667
0.999331 1 1 0.999331
0.999263 1 1 0.999263
0.999177 1 1 0.999177
1 1 1 1
0.999729 1 1 0.999729
0.999878 1 1 0.999878
0.999516 1 1 0.999516
0.998897 1 1 0.998897
0.999138 1 1 0.999138
0.998946 1.00011 1 0.998838
0.999403 1 1 0.999403
0.99915 1 1 0.99915
0.999268 1 1.00011 0.999159
0.999142 1 1 0.999142
1 1 1 1
0.999923 1 1 0.999923
0.999464 1 1 0.999464
0.999585 1 1 0.999585
0.999355 1 1 0.999355
0.998966 1.0002 1 0.998767
0.998997 1 1 0.998997
0.999016 1.00023 1 0.998785
0.999377 1 1.00016 0.999215
0.999078 1 1 0.999078
0.999264 1 1.00027 0.99899
0.999963 1 1 0.999963
0.999771 1 1 0.999771
0.999982 1 1 0.999982
0.999977 1 1 0.999977
1 1 1 1
1 1 1 1
1 1 1 1
1 1 1 1
1 1 1 1
1 1 1 1
1 1 1 1
1 1 1 1
1 1 1 1
1 1 1 1
1 1 1 1
0.999141 1 1 0.999141
0.99906 1 1 0.99906
0.998817 1 1 0.998817
0.998711 1 1 0.998711
0.998947 1 1 0.998947
0.999622 1 1 0.999622
0.998932 1 1 0.998932
0.99868 1.00003 1 0.998654
0.99877 1 1 0.99877
0.999816 1.00119 1 0.998627
0.998853 1 1 0.998853
0.998856 1.00013 1 0.998721
0.998674 1.00004 1 0.998638
1.00155 1.00297 1 0.998577
0.999421 1.00075 1 0.998674
1.00313 1.00451 1 0.998625
0.998806 1.00006 1 0.998749
1.00031 1.00156 1 0.998754
0.998929 1 1 0.998929
0.999129 1 1 0.999129
0.998746 1 1 0.998746
0.998844 1 1 0.998844
0.999983 1 1 0.999983
0.999644 1 1 0.999644
0.999332 1 1 0.999332
0.99897 1 1 0.99897
0.998743 1 1 0.998743
0.998899 1 1 0.998899
0.998998 1 1 0.998998
0.998915 1 1 0.998915
0.999701 1 1 0.999701
0.999457 1 1 0.999457
0.999837 1 1 0.999837
0.998706 1.00002 1 0.998689
0.998794 1 1 0.998794
0.999721 1.00111 1 0.998617
0.99887 1.00017 1 0.998696
0.999668 1 1 0.999668
0.999405 1 1 0.999405
0.999138 1 1 0.999138
0.998833 1 1 0.998833
0.999253 1.0005 1 0.998758
0.998896 1 1 0.998896
0.999102 1.00024 1 0.998865
0.998975 1.00001 1 0.998965
0.999453 1 1 0.999453
0.999336 1 1 0.999336
0.999896 1 1 0.999896
0.999506 1 1 0.999506
1.00023 1.00167 1 0.998571
0.999221 1.00056 1 0.998659
1.0027 1.00413 1 0.998578
0.999618 1.00094 1 0.998679
0.999489 1.00068 1 0.998812
1.00079 1.00201 1 0.998778
0.999445 1 1 0.999445
0.999528 1.00058 1 0.998947
0.999254 1 1 0.999254
0.998968 1 1 0.998968
0.998832 1 1 0.998832
0.999127 1.00016 1 0.998964
0.999929 1 1 0.999929
0.999567 1 1 0.999567
0.999345 1 1 0.999345
0.999359 1 1 0.999359
0.999294 1 1 0.999294
1 1 1 1
0.998895 1 1 0.998895
0.999881 1 1 0.999881
0.999729 1 1 0.999729
0.999514 1 1 0.999514
0.99914 1 1 0.99914
0.998898 1.00006 1 0.998839
0.999404 1 1 0.999404
0.999178 1 1.00003 0.999153
0.999161 1 1 0.999161
0.999177 1 1 0.999177
1 1 1 1
0.999927 1 1 0.999927
0.999464 1 1 0.999464
0.999585 1 1 0.999585
0.999346 1 1 0.999346
0.999003 1.00024 1 0.998764
0.998998 1 1 0.998998
0.999027 1.00025 1 0.998781
0.99935 1 1.00013 0.999217
0.999086 1 1 0.999086
0.99944 1 1.00044 0.999005
0.999947 1 1 0.999947
0.999653 1 1 0.999653
0.999288 1 1 0.999288
0.999406 1 1 0.999406
0.999259 1 1 0.999259
0.999512 1.00078 1 0.998735
0.998991 1.00006 1 0.998936
0.999207 1.00035 1 0.998862
1.00056 1 1.00151 0.999046
0.99891 1 1 0.99891
0.999966 1 1 0.999966
0.999716 1 1 0.999716
0.999756 1 1 0.999756
0.999621 1 1 0.999621
0.99978 1 1 0.99978
0.999987 1 1 0.999987
0.999984 1 1 0.999984
1 1 1 1
0.999979 1 1 0.999979
1 1 1 1
1 1 1 1
1 1 1 1
1 1 1 1
1 1 1 1
1 1 1 1
1 1 1 1
1 1 1 1
1 1 1 1
1 1 1 1
1 1 1 1
0.998852 1 1 0.998852
0.99877 1 1 0.99877
0.998755 1.00003 1 0.998722
0.999697 1.00108 1 0.998623
0.998678 1.00002 1 0.998654
0.998931 1 1 0.998931
0.998677 1.00004 1 0.998638
1.00156 1.00299 1 0.998569
0.999242 1.00057 1 0.998675
1.0031 1.00448 1 0.998626
0.998884 1.00014 1 0.998747
1.00012 1.00137 1 0.998754
1.00128 1.00274 1 0.998546
1.00593 1.00737 1 0.998567
1.00189 1.00321 1 0.998681
1.00521 1.00659 1 0.998632
0.999988 1.00123 1 0.998755
1.00259 1.00381 1 0.99879
0.998685 1.00002 1 0.998666
0.998794 1 1 0.998794
0.999936 1.00133 1 0.998607
0.99898 1.00028 1 0.998701
0.999669 1 1 0.999669
0.999402 1 1 0.999402
0.999162 1 1 0.999162
0.998843 1 1 0.998843
0.99932 1.00056 1 0.998764
0.999203 1.00034 1 0.998866
0.998881 1 1 0.998881
0.999006 1.00003 1 0.998974
0.999455 1 1 0.999455
0.999323 1 1 0.999323
0.999893 1 1 0.999893
0.999516 1 1 0.999516
1.00058 1.00201 1 0.998572
0.999309 1.00065 1 0.99866
1.00227 1.0037 1 0.998581
0.999539 1.00086 1 0.99868
0.999444 1 1 0.999444
0.999273 1 1 0.999273
0.998984 1 1.00002 0.998966
0.999522 1.00071 1 0.998808
1.00072 1.00192 1 0.998808
0.998823 1 1 0.998823
0.999801 1.00085 1 0.998948
0.999081 1.00009 1 0.998993
0.999345 1 1 0.999345
0.99929 1 1 0.99929
0.999356 1 1 0.999356
0.999907 1 1 0.999907
0.999576 1 1 0.999576
1.00507 1.00654 1 0.998542
1.00259 1.00401 1 0.998584
1.00186 1.00315 1 0.998711
1.00129 1.00244 1 0.998862
0.999343 1 1 0.999343
1.00113 1.00212 1 0.999012
0.999147 1 1 0.999147
0.998988 1 1.00021 0.998781
0.99886 1.0001 1 0.998761
0.999911 1 1 0.999911
0.999664 1 1 0.999664
0.999428 1 1 0.999428
0.999312 1 1 0.999312
0.999251 1 1 0.999251
0.999254 1 1 0.999254
1 1 1 1
0.999931 1 1 0.999931
0.999042 1.00028 1 0.998762
0.999585 1 1 0.999585
0.999464 1 1 0.999464
0.999336 1 1 0.999336
0.998999 1 1 0.998999
0.999031 1.00026 1 0.998776
0.999275 1 1.00006 0.999219
0.999457 1 1.00044 0.999019
0.999094 1 1 0.999094
0.999951 1 1 0.999951
0.999654 1 1 0.999654
0.999297 1 1 0.999297
0.999405 1 1 0.999405
0.999246 1 1 0.999246
0.999476 1.00074 1 0.998733
0.998958 1.00003 1 0.998932
0.999219 1.00034 1 0.998876
1.00014 1 1.0011 0.999038
0.998926 1 1.00004 0.998883
0.999705 1 1 0.999705
0.999443 1 1 0.999443
0.999888 1 1.00072 0.999164
0.999254 1 1 0.999254
0.999172 1 1 0.999172
1.00205 1.00315 1 0.99891
0.998902 1.00006 1 0.998838
1.00025 1.00138 1 0.998875
1.00151 1 1.00257 0.998941
0.998701 1 1 0.998701
0.99997 1 1 0.99997
0.999728 1 1 0.999728
0.999543 1 1 0.999543
0.999742 1 1 0.999742
0.99978 1 1 0.99978
0.9996 1 1 0.9996
0.999489 1 1 0.999489
0.999595 1 1 0.999595
0.999788 1 1 0.999788
0.999987 1 1 0.999987
0.999987 1 1 0.999987
1 1 1 1
0.999985 1 1 0.999985
1 1 1 1
1 1 1 1
1 1 1 1
1 1 1 1
1 1 1 1
1 1 1 1
1 1 1 1
1 1 1 1
1 1 1 1
1 1 1 1
1 1 1 1
0.99896 1.00022 1 0.998745
0.999076 1.0004 1 0.998675
0.999935 1.00118 1 0.998754
1.00307 1.00445 1 0.998627
1.00157 1.00301 1 0.998562
0.998682 1.00004 1 0.998638
1.00141 1.00288 1 0.998543
1.0058 1.00724 1 0.998568
1.00204 1.00337 1 0.998672
1.00548 1.00686 1 0.998628
0.999723 1.00097 1 0.998756
1.00237 1.00357 1 0.998808
1.00636 1.00784 1 0.998538
1.00706 1.00848 1 0.998601
1.00564 1.00695 1 0.998701
1.00286 1.00399 1 0.998868
1.00092 1.00235 1 0.998573
0.999402 1.00074 1 0.998661
1.00186 1.00328 1 0.998584
0.999468 1.00079 1 0.998682
0.999444 1 1 0.999444
0.999292 1 1 0.999292
0.999122 1 1.00016 0.998964
0.999547 1.00075 1 0.998803
1.00071 1.00187 1 0.998837
1.00008 1.00113 1 0.998949
0.998814 1 1 0.998814
0.999022 1 1 0.999022
0.999346 1 1 0.999346
0.999286 1 1 0.999286
0.999354 1 1 0.999354
0.999885 1 1 0.999885
0.999585 1 1 0.999585
1.00468 1.00614 1 0.998546
1.00265 1.00407 1 0.99859
1.00181 1.0031 1 0.998719
0.999341 1 1 0.999341
0.999193 1 1.00002 0.999169
0.999228 1 1.00045 0.998777
1.00149 1.00264 1 0.998853
0.998848 1.00005 1 0.998797
1.00073 1.00172 1 0.999014
0.999912 1 1 0.999912
0.999311 1 1 0.999311
0.999264 1 1 0.999264
0.999248 1 1 0.999248
0.999435 1 1 0.999435
0.999647 1 1 0.999647
1.00636 1.00781 1 0.998553
1.00459 1.006 1 0.998605
1.00362 1.00486 1 0.998765
1.00363 1.00469 1 0.998941
0.999282 1 1 0.999282
0.999846 1.001 1 0.998846
0.999474 1 1.00055 0.998928
0.999602 1 1.00096 0.998647
0.999934 1 1 0.999934
0.999713 1 1 0.999713
0.999493 1 1 0.999493
0.999269 1 1 0.999269
0.999258 1 1 0.999258
0.999199 1 1 0.999199
0.999955 1 1 0.999955
0.999654 1 1 0.999654
0.999441 1.00071 1 0.998731
0.999404 1 1 0.999404
0.999305 1 1 0.999305
0.999234 1 1 0.999234
0.998927 1 1 0.998927
0.999239 1.00035 1 0.99889
0.99979 1 1.00076 0.99903
0.99903 1 1.00017 0.998856
0.999706 1 1 0.999706
0.99945 1 1 0.99945
0.999618 1 1.00044 0.999179
0.99926 1 1 0.99926
0.999179 1 1 0.999179
1.00201 1.0031 1 0.998912
0.99889 1.00005 1 0.99884
0.999974 1.00103 1 0.998949
1.00166 1 1.00273 0.99893
0.998692 1 1.00003 0.998663
0.999506 1 1 0.999506
0.999281 1 1 0.999281
1.00122 1 1.00216 0.999067
0.999116 1 1 0.999116
1.008 1.00908 1 0.998927
1.00467 1.00582 0.999872 0.998986
0.999462 1.0008 1 0.998667
1.00216 1 1.00348 0.998683
0.999739 1 1 0.999739
0.999553 1 1 0.999553
0.999436 1 1 0.999436
0.99978 1 1 0.99978
0.999579 1 1 0.999579
0.999789 1 1 0.999789
0.999473 1 1 0.999473
0.999603 1 1 0.999603
0.999382 1 1 0.999382
0.999474 1 1 0.999474
0.999605 1 1 0.999605
0.99979 1 1 0.99979
0.999985 1 1 0.999985
0.999987 1 1 0.999987
1 1 1 1
0.999987 1 1 0.999987
1 1 1 1
1 1 1 1
1 1 1 1
1 1 1 1
1 1 1 1
1 1 1 1
1 1 1 1
1 1 1 1
1 1 1 1
1 1 1 1
1 1 1 1
0.99946 1.0007 1 0.998756
1.00218 1.00352 1 0.998662
1.00215 1.00333 1 0.998825
1.00574 1.00712 1 0.998624
1.00567 1.00711 1 0.998568
1.00156 1.00303 1 0.998539
1.00608 1.00755 1 0.998543
1.0069 1.00831 1 0.9986
1.00554 1.00684 1 0.998706
1.00344 1.00459 1 0.998862
1.00802 1.00946 1 0.998573
1.00824 1.00957 1 0.998678
1.00684 1.00806 1 0.998794
1.00428 1.00574 1 0.99855
1.00274 1.00415 1 0.998596
1.00172 1.003 1 0.998727
0.999339 1 1 0.999339
0.999191 1 1 0.999191
0.999332 1 1.00056 0.998772
1.00162 1.00278 1 0.998844
1.00038 1.00136 1 0.999016
0.998833 1 1 0.998833
0.99931 1 1 0.99931
0.999275 1 1 0.999275
0.999244 1 1 0.999244
0.999914 1 1 0.999914
0.999442 1 1 0.999442
0.999631 1 1 0.999631
1.00689 1.00835 1 0.998554
1.00438 1.00578 1 0.998604
1.0036 1.00485 1 0.998752
0.999277 1 1 0.999277
0.99951 1 1.00054 0.998968
0.999538 1 1.00089 0.998652
1.00398 1.00503 1 0.99896
0.999992 1.00115 1 0.998841
0.99995 1 1 0.99995
0.999713 1 1 0.999713
0.999258 1 1 0.999258
0.999214 1 1 0.999214
0.999272 1 1 0.999272
0.99948 1 1 0.99948
1.00769 1.00909 1 0.998611
1.00593 1.00729 1 0.998657
1.00658 1.00777 0.999905 0.998905
1.00463 1.00564 1 0.998997
0.999448 1 1.00027 0.999176
1.00007 1.00008 1.0014 0.998584
1.00072 1 1.00193 0.998792
0.999984 1 1 0.999984
0.999808 1 1 0.999808
0.999716 1 1 0.999716
0.999513 1 1 0.999513
0.99933 1 1 0.99933
0.999154 1 1 0.999154
0.999268 1 1 0.999268
1.00057 1 1.00135 0.999226
0.999706 1 1 0.999706
0.999457 1 1 0.999457
1.0019 1.00299 1 0.998915
0.999265 1 1 0.999265
0.999386 1 1.00019 0.999194
0.999186 1 1 0.999186
0.998882 1.00004 1 0.998843
0.999683 1.00066 1 0.999023
1.00181 1 1.00289 0.998919
0.998625 1 1 0.998625
0.999499 1 1 0.999499
0.99929 1 1 0.99929
1.00147 1 1.00239 0.999079
0.999128 1 1 0.999128
1.00751 1.0086 1 0.99892
1.0041 1.00518 0.999949 0.998982
0.999709 1.00101 1 0.9987
1.00169 1 1.00303 0.998663
0.999384 1 1 0.999384
1.00824 1.00948 0.999911 0.998857
0.999166 1 1 0.999166
1.00075 1 1.00181 0.998946
1.01111 1.01241 0.999722 0.998999
1.00412 1.00544 1 0.998688
1.00181 1.00003 1.00323 0.998551
0.999563 1 1 0.999563
0.999436 1 1 0.999436
0.999335 1 1 0.999335
0.999789 1 1 0.999789
0.999611 1 1 0.999611
0.999457 1 1 0.999457
0.99979 1 1 0.99979
0.999604 1 1 0.999604
0.999368 1 1 0.999368
0.999491 1 1 0.999491
0.999301 1 1 0.999301
0.999369 1 1 0.999369
0.999505 1 1 0.999505
0.999621 1 1 0.999621
0.999785 1 1 0.999785
0.999983 1 1 0.999983
0.999985 1 1 0.999985
1 1 1 1
0.999986 1 1 0.999986
1 1 1 1
1 1 1 1
1 1 1 1
1 1 1 1
1 1 1 1
0.999992 1 1 0.999992
1 1 1 1
1 1 1 1
1 1 1 1
1 1 1 1
1 1 1 1
1 1 1 1
1.00404 1.00519 1 0.998857
1.00543 1.00673 1 0.998712
1.00676 1.00817 1 0.998599
1.00579 1.00725 1 0.998549
1.00791 1.00935 1 0.99858
1.00867 1.01002 1 0.998668
1.0074 1.0086 1 0.998808
1.00793 1.00929 1 0.998654
1.00941 1.01068 1 0.998744
1.00656 1.00817 0.999508 0.99889
1.00737 1.00883 1 0.998556
1.00415 1.00556 1 0.998603
1.00369 1.00496 1 0.998739
0.999272 1 1 0.999272
0.999606 1 1.0006 0.999008
0.999433 1 1.00078 0.998658
1.00455 1.00558 1 0.998978
1.00003 1.0012 1 0.998835
0.999259 1 1 0.999259
0.999229 1 1 0.999229
0.999274 1 1 0.999274
0.999967 1 1 0.999967
0.999714 1 1 0.999714
0.999468 1 1 0.999468
1.00717 1.00856 1 0.998621
0.99998 1 1 0.99998
0.999797 1 1 0.999797
1.00572 1.00708 1 0.998656
1.00772 1.00885 1 0.998878
0.999412 1 1.00021 0.999199
1.00131 1 1.00256 0.998762
0.999616 1.00019 1.00084 0.998592
1.00423 1.00524 1 0.998996
0.999748 1 1 0.999748
0.999512 1 1 0.999512
0.999246 1 1 0.999246
0.999951 1 1.00067 0.999278
0.999134 1 1 0.999134
0.999333 1 1 0.999333
1.00824 1.00953 1 0.998715
1.00893 1.01019 1 0.998756
1.0085 1.00982 0.999601 0.999085
1.00048 1.00169 1 0.99879
1.00079 1 1.00165 0.999146
1.00349 1 1.00491 0.998584
0.99981 1 1 0.99981
0.999776 1 1 0.999776
0.999651 1 1 0.999651
0.999517 1 1 0.999517
0.999383 1 1 0.999383
0.999191 1 1 0.999191
1.00044 1 1.00139 0.999055
0.99929 1 1 0.99929
0.999492 1 1 0.999492
0.999299 1 1 0.999299
1.00723 1.00832 1 0.998913
1.00372 1.00475 1 0.998978
0.999139 1 1 0.999139
1.00165 1 1.00256 0.999092
1.00001 1.00124 1.00004 0.998732
1.00128 1 1.00264 0.998644
0.999382 1 1 0.999382
1.00843 1.00968 0.999888 0.998874
0.999169 1 1 0.999169
1.00088 1 1.00196 0.998929
1.01078 1.01207 0.99974 0.998985
1.00441 1.00572 1 0.998702
1.00204 1.00004 1.00346 0.998557
0.999244 1 1 0.999244
1.01737 1.01991 0.998503 0.999006
0.99906 1 1 0.99906
1.00209 1 1.00333 0.998762
1.00524 1.00927 0.997225 0.998778
1.0019 1.00115 1.00221 0.998535
1.00699 1.0093 0.998668 0.999048
0.999435 1 1 0.999435
0.999334 1 1 0.999334
0.99926 1 1 0.99926
0.99979 1 1 0.99979
0.999603 1 1 0.999603
0.999507 1 1 0.999507
0.999355 1 1 0.999355
0.999785 1 1 0.999785
0.999611 1 1 0.999611
0.999296 1 1 0.999296
0.999505 1 1 0.999505
0.999383 1 1 0.999383
0.999285 1 1 0.999285
0.999423 1 1 0.999423
0.999513 1 1 0.999513
0.999591 1 1 0.999591
0.999753 1 1 0.999753
0.999641 1 1 0.999641
0.999754 1 1 0.999754
0.999981 1 1 0.999981
0.999982 1 1 0.999982
1 1 1 1
0.999984 1 1 0.999984
1 1 1 1
1 1 1 1
1 1 1 1
1 1 1 1
1 1 1 1
0.999995 1 1 0.999995
0.99999 1 1 0.99999
1 1 1 1
1 1 1 1
1 1 1 1
1 1 1 1
1 1 1 1
1 1 1 1
1.0079 1.00909 1 0.998822
1.0091 1.01046 1 0.998658
1.00783 1.00926 1 0.998587
1.00837 1.00973 1 0.998653
1.0087 1.00996 1 0.998748
1.00732 1.00865 0.999783 0.998895
1.00832 1.00968 0.999854 0.998799
1.01039 1.01591 0.995611 0.998954
1.01982 1.02262 0.998191 0.999071
0.999852 1 1 0.999852
1.00672 1.0081 1 0.998631
1.00539 1.00674 1 0.998655
1.00856 1.00972 1 0.998851
0.99939 1 1.00017 0.999223
1.00204 1 1.00331 0.998731
0.999379 1.00033 1.00045 0.998599
1.0037 1.00471 1 0.998995
0.999225 1 1 0.999225
0.999331 1 1 0.999331
0.999114 1 1 0.999114
0.999977 1 1 0.999977
0.999336 1 1 0.999336
0.99978 1 1 0.99978
0.999511 1 1 0.999511
0.999785 1 1 0.999785
1.00841 1.0097 1 0.998715
0.999825 1 1 0.999825
0.999775 1 1 0.999775
0.999626 1 1 0.999626
1.00938 1.01064 1 0.99876
1.00704 1.00854 0.999469 0.99905
1.00014 1 1.00098 0.999158
1.00368 1 1.00511 0.998576
1.00067 1.00171 1.00016 0.998795
0.999534 1 1 0.999534
0.999376 1 1 0.999376
0.999658 1 1.0004 0.999259
1.00045 1 1.00137 0.99908
0.999205 1 1 0.999205
1.00997 1.01165 0.999592 0.998747
1.00878 1.01257 0.997374 0.998884
1.00322 1.00462 0.999716 0.998897
1.00257 1.00081 1.00308 0.998682
1.00337 1 1.00431 0.999058
0.999627 1 1 0.999627
0.999566 1 1 0.999566
0.999497 1 1 0.999497
0.999394 1 1 0.999394
0.999274 1 1 0.999274
0.9995 1 1.00039 0.999107
1.00352 1 1.00452 0.99901
0.99938 1 1 0.99938
0.999172 1 1 0.999172
1.00854 1.00977 0.999893 0.998891
1.01027 1.0116 0.999712 0.998972
1.00451 1.00581 1 0.998715
1.00099 1 1.00208 0.998911
1.00213 1.00002 1.00355 0.998564
0.99926 1 1 0.99926
1.01721 1.02027 0.997987 0.99901
0.999066 1 1 0.999066
1.00227 1 1.00351 0.99877
1.0064 1.00977 0.99784 0.998816
1.00208 1.00086 1.00269 0.998529
1.00831 1.01058 0.998815 0.998936
0.999163 1 1 0.999163
1.00213 1.01275 0.990546 0.998964
1.00015 1 1.00113 0.999025
1.00488 1 1.0062 0.998687
1.0013 1.00162 1.00104 0.99864
0.960306 0.9689 0.997203 0.99391
0.999075 0.995521 1.00618 0.997403
0.98717 1.0064 0.981703 0.999178
0.917044 0.93686 0.982653 0.996128
0.913907 0.952813 0.96248 0.996559
0.999334 1 1 0.999334
0.999266 1 1 0.999266
0.99925 1 1 0.99925
0.999785 1 1 0.999785
0.999602 1 1 0.999602
0.999504 1 1 0.999504
0.999397 1 1 0.999397
0.999291 1 1 0.999291
0.999498 1 1 0.999498
0.999766 1 1 0.999766
0.999602 1 1 0.999602
0.999291 1 1 0.999291
0.999419 1 1 0.999419
0.999431 1 1 0.999431
0.999347 1 1 0.999347
0.99947 1 1 0.99947
0.999578 1 1 0.999578
0.999751 1 1 0.999751
0.999615 1 1 0.999615
0.999515 1 1 0.999515
0.99961 1 1 0.99961
0.99962 1 1 0.99962
0.999779 1 1 0.999779
0.999754 1 1 0.999754
0.99998 1 1 0.99998
0.999981 1 1 0.999981
1 1 1 1
0.999982 1 1 0.999982
1 1 1 1
1 1 1 1
1 1 1 1
1 1 1 1
1 1 1 1
0.999997 1 1 0.999997
0.999995 1 1 0.999995
1 1 1 1
0.999988 1 1 0.999988
1 1 1 1
1 1 1 1
1 1 1 1
1 1 1 1
1 1 1 1
1.00801 1.00927 1 0.998752
1.00877 1.01013 1 0.998651
1.00786 1.00899 0.999987 0.998899
1.01076 1.0157 0.996155 0.998973
1.00822 1.00951 0.999921 0.998798
1.02062 1.02328 0.998376 0.999028
1.02005 1.02176 0.999595 0.998734
0.977105 0.984914 0.995191 0.996866
1.01657 1.01932 0.998185 0.999112
0.999859 1 1 0.999859
0.999851 1 1 0.999851
0.999678 1 1 0.999678
0.999696 1 1 0.999696
1.00862 1.00992 1 0.998715
1.00985 1.0111 1 0.998763
1.00558 1.00709 0.999481 0.999015
0.999344 1 1.00017 0.99917
1.00352 1 1.00496 0.998568
1.00082 1.00189 1.00013 0.9988
1.00002 1 1.0008 0.999226
1.00044 1 1.00133 0.999105
0.999219 1 1 0.999219
0.999774 1 1 0.999774
0.999368 1 1 0.999368
0.999551 1 1 0.999551
0.999839 1 1 0.999839
0.999601 1 1 0.999601
1.0085 1.01001 0.99974 0.998764
0.999653 1 1 0.999653
0.999579 1 1 0.999579
0.999493 1 1 0.999493
1.01028 1.01312 0.998305 0.998894
1.00186 1.00343 0.999541 0.998894
1.00307 1 1.00402 0.999056
1.00222 1.00085 1.00271 0.998668
0.999398 1 1 0.999398
0.999281 1 1 0.999281
1.00244 1 1.00343 0.99901
0.999946 1 1.00086 0.999088
1.01778 1.01948 0.999545 0.998787
1.00427 1.01049 0.994976 0.998868
1.00139 1.00203 1.00073 0.998632
1.00182 1 1.00289 0.998938
0.999449 1 1 0.999449
0.999434 1 1 0.999434
0.99923 1 1 0.99923
1.0042 1 1.00528 0.998924
0.949363 0.965607 0.989348 0.993763
0.999275 1 1 0.999275
0.999071 1 1 0.999071
1.01672 1.02046 0.997314 0.999015
1.00757 1.01017 0.99857 0.998855
1.00244 1.00063 1.0033 0.998522
1.00255 1 1.00377 0.998778
1.00916 1.01161 0.998751 0.998823
0.999174 1 1 0.999174
1.00143 1.01239 0.99021 0.998952
0.999821 1 1.00079 0.99903
1.00464 1 1.00596 0.99869
1.00111 1.00223 1.00023 0.998651
0.957908 0.968108 0.995302 0.994134
0.993972 0.993375 1.00415 0.99646
0.990033 1.00665 0.984256 0.999225
0.923977 0.939717 0.987451 0.995746
0.904068 0.945913 0.959309 0.996303
0.999369 1 1.00016 0.999205
0.928334 0.942155 0.989919 0.995365
0.933887 0.954523 0.981473 0.99685
0.978334 1.00303 0.976382 0.998969
1.00341 1 1.00438 0.999032
1.00892 1.00003 1.0101 0.998806
0.989779 1.00486 0.985675 0.999303
0.968807 0.972039 1.00308 0.993619
0.995803 0.992484 1.00714 0.996228
0.912952 0.941923 0.973127 0.996008
0.945299 0.978729 0.968251 0.997513
0.999272 1 1 0.999272
0.99925 1 1 0.99925
0.999292 1 1 0.999292
0.999779 1 1 0.999779
0.999613 1 1 0.999613
0.999484 1 1 0.999484
0.999416 1 1 0.999416
0.999298 1 1 0.999298
0.999751 1 1 0.999751
0.999432 1 1 0.999432
0.999485 1 1 0.999485
0.999593 1 1 0.999593
0.999336 1 1 0.999336
0.999385 1 1 0.999385
0.999522 1 1.0002 0.999325
0.999481 1 1 0.999481
0.999605 1 1 0.999605
0.999615 1 1 0.999615
0.9995 1 1 0.9995
0.999494 1 1 0.999494
0.999487 1 1 0.999487
0.99943 1 1 0.99943
0.999402 1 1 0.999402
0.999587 1 1 0.999587
0.99961 1 1 0.99961
0.999775 1 1 0.999775
0.9996 1 1 0.9996
0.999768 1 1 0.999768
0.999979 1 1 0.999979
0.999753 1 1 0.999753
0.99998 1 1 0.99998
1 1 1 1
0.999981 1 1 0.999981
1 1 1 1
1 1 1 1
1 1 1 1
1 1 1 1
1 1 1 1
0.999855 1 1 0.999855
0.999997 1 1 0.999997
0.999996 1 1 0.999996
1 1 1 1
0.999994 1 1 0.999994
1 1 1 1
1 1 1 1
1 1 1 1
1 1 1 1
1 1 1 1
1.01201 1.01591 0.997169 0.998992
1.00822 1.00944 1 0.998797
1.02176 1.02409 0.998738 0.998986
0.979525 0.984451 0.997562 0.997427
1.01627 1.01905 0.998131 0.999142
1.02076 1.02295 0.999144 0.998721
1.02045 1.02194 0.999679 0.998865
0.982326 0.986526 0.998244 0.997494
0.958006 0.968514 0.996101 0.993022
0.906617 0.934333 0.97523 0.994981
0.905861 0.94219 0.964823 0.996495
0.99967 1 1 0.99967
0.999859 1 1 0.999859
0.999851 1 1 0.999851
0.99967 1 1 0.99967
0.999559 1 1 0.999559
0.999585 1 1 0.999585
0.999679 1 1 0.999679
0.999686 1 1 0.999686
1.00686 1.00825 0.999842 0.998782
1.01222 1.01422 0.999126 0.998904
1.00074 1.00254 0.999317 0.998891
1.00304 1 1.00399 0.999053
1.00211 1.00073 1.00272 0.998654
1.00142 1 1.00241 0.99901
1.0004 1 1.00133 0.99907
0.999288 1 1 0.999288
0.999593 1 1 0.999593
0.999401 1 1 0.999401
0.999678 1 1 0.999678
0.999489 1 1 0.999489
1.01822 1.02035 0.999147 0.998763
0.999462 1 1 0.999462
0.999433 1 1 0.999433
1.00432 1.0095 0.996002 0.998861
1.00133 1.00225 1.0004 0.998686
1.00313 1 1.00423 0.9989
0.999224 1 1 0.999224
1.00393 1 1.005 0.998928
1.01115 1.01996 0.992634 0.998718
0.994031 1.00234 0.992911 0.998794
0.999836 1 1.00103 0.998806
1.00598 1 1.00706 0.998932
0.999375 1 1 0.999375
0.999286 1 1 0.999286
0.999936 1 1.00087 0.999069
0.918763 0.94191 0.979627 0.995711
0.955543 0.967222 0.993753 0.994136
0.999185 1 1 0.999185
0.99957 1 1.00054 0.999035
1.00165 1.01251 0.990323 0.99894
1.00097 1.0029 0.999411 0.998662
1.00429 1 1.00561 0.998693
0.959272 0.969415 0.9966 0.992913
0.994226 0.994411 1.00263 0.997188
0.993176 1.00707 0.986922 0.999271
0.918575 0.940697 0.981114 0.995281
0.893467 0.938042 0.956261 0.996046
0.999319 1 1.00012 0.999204
0.923328 0.945334 0.980816 0.995825
0.935497 0.95274 0.985048 0.996805
0.980891 1.00359 0.978404 0.998959
1.00282 1 1.00378 0.99904
1.00806 1.00002 1.00921 0.998836
0.983484 1.0023 0.981911 0.999309
0.969512 0.97316 1.00305 0.993223
0.993484 0.991223 1.00515 0.997151
0.915053 0.941057 0.977132 0.995124
0.944552 0.978531 0.967862 0.997328
0.999769 1 1.00054 0.999232
0.948993 0.954485 0.996782 0.997456
0.995737 0.997119 1.00005 0.998565
0.986626 1.00004 0.987361 0.999215
1.00843 1 1.00919 0.999252
1.00518 0.999391 1.00616 0.999633
0.986145 0.988694 0.999357 0.998063
0.972583 0.971482 1.00781 0.993372
0.934039 0.963405 0.974281 0.995112
0.966964 0.997373 0.971336 0.998121
0.999251 1 1 0.999251
0.999277 1 1 0.999277
0.999775 1 1.00042 0.999354
0.999751 1 1 0.999751
0.999608 1 1 0.999608
0.9995 1 1 0.9995
0.999433 1 1 0.999433
0.999326 1 1 0.999326
0.999605 1 1 0.999605
0.999396 1 1 0.999396
0.99948 1 1 0.99948
0.999572 1 1.00024 0.999327
0.999912 1 1.00055 0.999358
0.999468 1 1.00009 0.999381
0.999483 1 1 0.999483
0.999615 1 1 0.999615
0.999485 1 1 0.999485
0.999494 1 1 0.999494
0.999486 1 1 0.999486
0.999428 1 1 0.999428
0.999454 1 1 0.999454
0.999419 1 1 0.999419
0.999387 1 1 0.999387
0.999282 1 1 0.999282
0.999537 1 1.00033 0.999203
0.999343 1 1 0.999343
0.999401 1 1 0.999401
0.999551 1 1 0.999551
0.999586 1 1 0.999586
0.999763 1 1 0.999763
0.99961 1 1 0.99961
0.999775 1 1 0.999775
0.999978 1 1 0.999978
0.999756 1 1 0.999756
0.999979 1 1 0.999979
1 1 1 1
0.99998 1 1 0.99998
1 1 1 1
1 1 1 1
1 1 1 1
1 1 1 1
1 1 1 1
0.999869 1 1 0.999869
0.999997 1 1 0.999997
0.999855 1 1 0.999855
1 1 1 1
0.999997 1 1 0.999997
0.999996 1 1 0.999996
1 1 1 1
1 1 1 1
1 1 1 1
1 1 1 1
1 1 1 1
0.920748 0.940332 0.983074 0.996031
0.940544 0.955579 0.98703 0.9972
0.982504 0.98512 0.999506 0.997838
1.01612 1.01871 0.99828 0.999172
1.02141 1.02405 0.998712 0.998708
0.981861 0.985026 0.998353 0.998431
1.02034 1.02174 0.999761 0.998873
0.960171 0.96993 0.995865 0.994049
0.917356 0.937173 0.982826 0.99596
0.898271 0.939528 0.959696 0.99624
0.999099 0.999641 1.00054 0.998921
0.967148 0.97129 1.0018 0.993947
0.907518 0.938818 0.970593 0.995949
0.944533 0.976204 0.970398 0.997072
0.999517 1 1 0.999517
0.999679 1 1 0.999679
0.999858 1 1 0.999858
0.999662 1 1 0.999662
0.999573 1 1 0.999573
0.999537 1 1 0.999537
0.999586 1 1 0.999586
0.999612 1 1 0.999612
0.999665 1 1 0.999665
0.999675 1 1 0.999675
1.01864 1.02111 0.998844 0.998739
1.00344 1.00767 0.996949 0.998854
1.00132 1.00246 1.00013 0.99874
1.0042 1 1.00534 0.998863
1.00349 1 1.00456 0.998932
0.999217 1 1 0.999217
0.999433 1 1 0.999433
0.999475 1 1 0.999475
1.01188 1.02001 0.993326 0.998693
0.999369 1 1 0.999369
0.999271 1 1 0.999271
0.995389 1.00247 0.99417 0.998756
1.00018 1 1.00133 0.99885
1.00484 1 1.00595 0.998897
1.00103 1 1.00197 0.99906
1.00926 1.01061 0.999903 0.99876
0.997627 1 0.998532 0.999094
1.00525 1 1.00627 0.998985
0.999357 1 1 0.999357
0.999262 1 1 0.999262
0.999134 1 1 0.999134
0.949976 0.957797 0.994273 0.997548
0.922843 0.9419 0.984533 0.99516
0.953517 0.968117 0.99113 0.993733
0.999203 1 1 0.999203
1.00222 1 1.00317 0.999048
0.983436 1.00401 0.980537 0.99895
1.00736 1 1.0085 0.998865
0.920801 0.944283 0.979932 0.995103
0.968116 0.972362 1.00111 0.994528
0.993724 0.992781 1.00469 0.996281
0.980773 1.00002 0.981415 0.999321
0.917921 0.939933 0.980463 0.996041
0.936816 0.954693 0.984522 0.996701
0.940246 0.976843 0.96533 0.997104
0.999804 1 1.00057 0.999231
0.947065 0.955968 0.993265 0.997405
0.995813 0.996945 1.0003 0.998567
0.989631 1.00001 0.990377 0.999232
1.00843 1 1.00919 0.999251
1.00496 1.00028 1.00544 0.999247
0.987251 0.988359 1.00213 0.996751
0.970036 0.972346 1.00433 0.993321
0.935994 0.965363 0.973224 0.996253
0.961123 0.991694 0.971211 0.997902
1.00056 1 1.00106 0.999501
0.997836 0.999068 0.999791 0.998975
1.00859 1.00499 1.00436 0.999226
1.00856 0.999636 1.00921 0.999715
0.993641 0.988992 1.00569 0.999016
0.973425 0.974789 1.00548 0.993156
0.962847 0.980106 0.985833 0.996509
0.966947 1.00101 0.968057 0.997843
0.999262 1 1 0.999262
0.999722 1 1.00036 0.999367
1.00075 1 1.0013 0.999451
0.999605 1 1 0.999605
0.99948 1 1 0.99948
0.999406 1 1 0.999406
0.999611 1 1.00028 0.999329
0.999483 1 1 0.999483
0.999411 1 1.00003 0.99938
1.0003 1 1.00093 0.999368
1.00031 1 1.00086 0.999456
0.999567 1 1.00021 0.999355
0.999407 1 1 0.999407
0.999494 1 1 0.999494
0.999486 1 1 0.999486
0.999425 1 1 0.999425
0.99942 1 1 0.99942
0.999453 1 1 0.999453
0.999391 1 1 0.999391
0.999349 1 1 0.999349
0.99937 1 1 0.99937
0.999258 1 1 0.999258
0.999289 1 1 0.999289
0.999572 1 1.00036 0.999208
0.999362 1 1.00029 0.999077
0.999335 1 1 0.999335
0.999431 1 1.00019 0.999245
0.999362 1 1 0.999362
0.999482 1 1 0.999482
0.9994 1 1 0.9994
0.99955 1 1 0.99955
0.99974 1 1 0.99974
0.999585 1 1 0.999585
0.999762 1 1 0.999762
0.999975 1 1 0.999975
0.999774 1 1 0.999774
0.999977 1 1 0.999977
1 1 1 1
0.999979 1 1 0.999979
1 1 1 1
1 1 1 1
1 1 1 1
1 1 1 1
1 1 1 1
0.999811 1 1 0.999811
0.999995 1 1 0.999995
0.999843 1 1 0.999843
1 1 1 1
0.999997 1 1 0.999997
0.999855 1 1 0.999855
1 1 1 1
1 1 1 1
0.999997 1 1 0.999997
1 1 1 1
1 1 1 1
1 1 1 1
0.952557 0.957956 0.996645 0.997712
0.92123 0.941204 0.983213 0.995489
0.995372 0.998357 0.99851 0.998498
0.935167 0.952014 0.9852 0.99706
0.977853 0.983685 0.996801 0.997261
1.01968 1.02155 0.999285 0.99888
0.960315 0.97007 0.994826 0.995092
0.914836 0.938456 0.979651 0.99508
0.890708 0.937093 0.954333 0.995984
0.996741 0.999433 0.998837 0.998467
0.967961 0.970403 1.00397 0.993543
0.91139 0.942655 0.971669 0.995023
0.941979 0.97517 0.968869 0.997001
0.995759 0.998548 0.998703 0.998502
0.970129 0.969894 1.00701 0.993282
0.937411 0.966706 0.973409 0.996185
0.966014 0.997996 0.969993 0.997898
0.999427 1 1 0.999427
0.999531 1 1 0.999531
0.999689 1 1 0.999689
0.999587 1 1 0.999587
0.999449 1 1 0.999449
0.999548 1 1 0.999548
0.999586 1 1 0.999586
0.999595 1 1 0.999595
0.999627 1 1 0.999627
0.999651 1 1 0.999651
1.01338 1.02083 0.99402 0.998668
0.997343 1.003 0.995641 0.998718
1.00048 1 1.00159 0.998894
1.00401 1 1.00516 0.998863
1.00224 1 1.00319 0.999051
0.999256 1 1 0.999256
0.999364 1 1 0.999364
0.999358 1 1 0.999358
1.00462 1.00936 0.996518 0.99878
0.999272 1 1 0.999272
0.999221 1 1.00009 0.99913
0.996512 1 0.997462 0.999047
1.00452 1 1.00554 0.998984
0.993787 1.0042 0.990504 0.999122
1.01129 1 1.01197 0.99933
0.999886 1 1.00078 0.999106
0.999284 1 1 0.999284
0.999146 1 1 0.999146
0.998576 0.999642 0.999768 0.999166
0.951886 0.957703 0.996224 0.997694
0.921764 0.941828 0.982605 0.996023
0.999824 1 1.00059 0.999229
1.0083 1 1.00905 0.999249
0.991069 1 0.991814 0.999248
0.952842 0.958155 0.996785 0.997663
0.971824 0.970753 1.008 0.993159
0.989308 0.989697 1.00186 0.997747
0.999469 1.0003 1.00033 0.998837
0.935608 0.963151 0.976179 0.995108
0.995179 0.996024 1.00058 0.99857
0.95615 0.987647 0.970105 0.997943
1.0008 1 1.00129 0.999511
0.996375 0.997279 0.999963 0.999131
1.01064 1.00668 1.0047 0.999236
1.00825 0.999604 1.00906 0.999593
0.992821 0.989942 1.00428 0.998629
0.977081 0.976849 1.00729 0.993002
0.968311 1.00445 0.965888 0.998069
0.947284 0.972155 0.978409 0.99592
1.00149 0.999527 1.00225 0.999711
1.00929 1.00919 1.00033 0.999769
1.01778 1.01328 1.00511 0.999336
0.967747 0.998139 0.971589 0.997902
1.00224 0.989905 1.01278 0.999687
0.978628 0.977469 1.0077 0.993531
0.94147 0.959851 0.984424 0.996369
0.999648 1 1.00027 0.99938
1.00051 1 1.00109 0.999414
1.00312 1 1.00355 0.999566
0.999483 1 1 0.999483
0.999379 1 1 0.999379
1.00075 1 1.00138 0.999379
0.999409 1 1 0.999409
0.99968 1 1.00033 0.999355
1.00069 1 1.00126 0.999429
0.999852 1 1.00035 0.999497
0.999353 1 1 0.999353
0.999422 1 1 0.999422
0.999452 1 1 0.999452
0.999396 1 1 0.999396
0.999368 1 1 0.999368
0.999355 1 1 0.999355
0.999379 1 1.00004 0.999339
0.999287 1 1 0.999287
1.00125 1 1.0022 0.99905
0.999295 1 1 0.999295
0.999476 1 1.00028 0.999202
0.999569 1 1.00061 0.998955
0.999397 1 1.00033 0.999071
0.999282 1 1 0.999282
0.999428 1 1.00035 0.999082
0.999448 1 1 0.999448
0.999321 1 1 0.999321
0.999287 1 1 0.999287
0.99938 1 1 0.99938
0.999498 1 1 0.999498
0.999703 1 1 0.999703
0.999549 1 1 0.999549
0.999739 1 1 0.999739
0.999969 1 1 0.999969
0.999762 1 1 0.999762
0.999973 1 1 0.999973
1 1 1 1
0.999976 1 1 0.999976
1 1 1 1
1 1 1 1
1 1 1 1
1 1 1 1
1 1 1 1
0.999734 1 1 0.999734
0.999957 1 1 0.999957
0.99981 1 1 0.99981
1 1 1 1
0.999981 1 1 0.999981
0.999817 1 1 0.999817
1 1 1 1
1 1 1 1
0.999997 1 1 0.999997
1 1 1 1
1 1 1 1
1 1 1 1
0.996485 0.997742 0.999662 0.999077
0.945719 0.957003 0.99078 0.997405
0.92311 0.940307 0.986422 0.995224
0.999544 1 1 0.999544
1.00671 1.00357 1.00377 0.999356
0.997095 0.998471 1.00012 0.998501
0.929099 0.951494 0.97955 0.996848
0.994954 0.99967 0.997303 0.997974
0.970494 0.972303 1.0043 0.993863
0.915406 0.946757 0.970828 0.995939
0.936982 0.972761 0.966251 0.996862
0.998216 1.00108 0.999892 0.997249
0.967454 0.969208 1.00472 0.993502
0.939422 0.966108 0.976497 0.995781
0.965051 0.997485 0.969711 0.997704
0.990325 0.99149 1.00226 0.996576
0.975251 0.970474 1.01277 0.992256
0.94831 0.973894 0.978119 0.995514
0.966564 1.00137 0.967338 0.997832
0.999345 1 1 0.999345
0.999419 1 1 0.999419
0.999546 1 1 0.999546
0.999438 1 1 0.999438
0.999468 1 1 0.999468
0.999559 1 1 0.999559
0.9996 1 1 0.9996
0.999642 1 1 0.999642
0.999527 1.00767 0.99311 0.998799
0.99513 1 0.996127 0.999
0.999359 1 1 0.999359
1.00364 1 1.00466 0.998982
0.999293 1 1.00017 0.999126
0.999282 1 1 0.999282
0.999287 1 1 0.999287
0.997467 1.00553 0.992847 0.999127
0.999162 1 1 0.999162
1.0007 1 1.0016 0.999103
1.00752 1 1.0082 0.999327
0.999298 1 1 0.999298
0.987528 0.997443 0.990518 0.999538
1.01298 0.9999 1.01363 0.999454
0.999199 1 1 0.999199
0.999239 1 1 0.999239
1.01013 1.01097 0.99935 0.999819
0.998039 0.999136 0.999723 0.999179
0.954049 0.957494 0.998555 0.997844
1.00095 1 1.00143 0.999522
1.00891 0.999579 1.00987 0.999472
0.994932 0.995648 0.999995 0.999286
0.976655 0.974013 1.00949 0.99329
0.993829 0.989018 1.00755 0.997338
0.949813 0.973841 0.979828 0.995405
1.01256 1.00821 1.00507 0.999246
0.971513 1.00918 0.96432 0.998295
1.00167 0.999522 1.00247 0.999678
1.0087 1.00898 0.999948 0.999775
1.01729 1.01293 1.00484 0.99947
1.00648 0.993683 1.01295 0.999931
0.965806 0.997415 0.970541 0.997701
0.977554 0.976485 1.00754 0.993603
0.946827 0.969396 0.981296 0.995335
1.00593 0.996537 1.00966 0.999771
1.01684 1.01587 1.00111 0.999842
1.00661 1.00444 1.00281 0.999358
0.94624 0.97716 0.971184 0.99709
0.947176 0.974624 0.976271 0.995459
0.995693 0.989253 1.0066 0.999907
0.97967 0.971754 1.0152 0.993054
1.00027 1 1.00089 0.999377
1.00223 1 1.00268 0.99955
1.00939 0.997223 1.01262 0.999582
0.999411 1 1 0.999411
0.999721 1 1.00037 0.999355
1.00094 1 1.00154 0.999403
0.999351 1 1 0.999351
0.99993 1 1.00043 0.999497
1.00389 1 1.0045 0.999389
0.999367 1 1 0.999367
0.999362 1 1 0.999362
0.99971 1 1.00039 0.999319
1.00474 1 1.00564 0.999103
0.999315 1 1 0.999315
1.00071 1 1.00163 0.999087
1.00271 1 1.00388 0.998837
1.00042 1 1.00159 0.998829
0.999384 1 1.00019 0.999195
0.999563 1 1.00064 0.998925
0.999481 1 1.00034 0.99914
0.999503 1 1.00028 0.999225
0.999362 1 1.00027 0.999095
0.999415 1 1 0.999415
0.999279 1 1 0.999279
0.999515 1 1.00043 0.999087
0.999656 1 1 0.999656
0.999443 1 1 0.999443
0.999307 1 1 0.999307
0.999514 1 1 0.999514
0.999702 1 1 0.999702
0.999958 1 1 0.999958
0.999738 1 1 0.999738
0.999967 1 1 0.999967
1 1 1 1
0.999972 1 1 0.999972
1 1 1 1
1 1 1 1
1 1 1 1
1 1 1 1
1 1 1 1
0.999701 1 1 0.999701
0.999935 1 1 0.999935
0.999749 1 1 0.999749
1 1 1 1
0.999957 1 1 0.999957
0.999808 1 1 0.999808
1 1 1 1
1 1 1 1
0.999966 1 1 0.999966
1 1 1 1
1 1 1 1
1 1 1 1
1.0088 1.00903 1.00002 0.999756
0.996422 0.997629 0.999705 0.999085
0.946543 0.957346 0.991272 0.997422
0.99955 1 1 0.99955
0.999513 1 1 0.999513
0.999448 1 1 0.999448
1.01785 1.01236 1.0061 0.999332
1.0071 1.00389 1.00383 0.999368
0.99843 0.998606 1.00132 0.998504
1.00415 1.00217 1.0037 0.998276
0.969407 0.969913 1.00617 0.993353
0.937087 0.96415 0.976699 0.995117
0.965871 0.999111 0.968877 0.997785
0.985431 0.986608 1.00113 0.997678
0.97126 0.96989 1.00824 0.993225
0.948351 0.970801 0.980388 0.996415
0.969128 1.00494 0.966234 0.998063
0.978515 0.982004 0.998972 0.997472
0.980866 0.973803 1.01398 0.993362
0.941982 0.960068 0.984747 0.996359
0.966205 0.996064 0.971868 0.998102
0.999329 1 1 0.999329
0.999343 1 1 0.999343
0.99941 1 1 0.99941
0.999436 1 1 0.999436
0.999487 1 1 0.999487
0.999604 1 1 0.999604
1.00152 1.00676 0.995658 0.999131
1.00387 1 1.00454 0.999325
0.99929 1 1 0.99929
1.00141 1 1.00231 0.999099
0.999178 1 1 0.999178
0.999289 1 1 0.999289
0.99924 1 1 0.99924
0.996263 0.999761 0.99697 0.999529
0.999231 1 1 0.999231
1.01032 0.997892 1.01298 0.99948
0.999299 1 1 0.999299
1.01018 0.991967 1.01861 0.999754
0.995694 0.995629 1.00044 0.999629
0.999276 1 1 0.999276
1.01817 1.01878 0.999502 0.999902
1.01016 1.01102 0.999306 0.999843
0.997581 0.998736 0.999652 0.999191
1.0018 0.99952 1.00264 0.999644
1.00095 0.994243 1.00684 0.999903
1.00826 1.0089 0.99959 0.999781
0.985322 0.979848 1.00996 0.99567
0.953722 0.970391 0.9862 0.996575
1.01663 1.01253 1.00444 0.999605
0.965976 0.999057 0.969031 0.997788
1.0053 0.997671 1.00786 0.999788
1.0171 1.01621 1.00102 0.99986
1.00736 1.00476 1.00322 0.99937
0.994729 0.986005 1.01044 0.99842
0.94423 0.976353 0.96999 0.997019
0.946429 0.97225 0.977008 0.99635
0.98969 0.977586 1.01901 0.993491
1.01878 0.993324 1.02574 0.99989
1.00925 1.00956 0.999943 0.999756
0.996258 0.999476 0.998273 0.998505
0.906863 0.943266 0.964766 0.996519
0.938111 0.966156 0.974663 0.996213
0.984655 0.976552 1.01501 0.993384
0.96918 0.980205 0.990787 0.997947
1.0012 1 1.00167 0.999534
1.01136 0.998117 1.01369 0.999586
1.0195 1 1.01998 0.999529
0.999349 1 1 0.999349
1.00005 1 1.00055 0.999497
1.00312 1 1.00372 0.999407
1.01271 1 1.01353 0.999191
1.00002 1 1.00072 0.9993
1.00476 1 1.0057 0.999061
1.00999 1 1.01125 0.998753
1.00026 1 1.00113 0.999125
1.00346 1 1.00463 0.998829
1.00363 1 1.00501 0.998624
1.00023 1 1.00158 0.998645
0.999841 1 1.00082 0.999023
1.00039 1 1.00158 0.998811
0.99959 1 1.0007 0.998894
0.999505 1 1.00028 0.99923
0.999517 1 1.00035 0.99917
0.999375 1 1.00004 0.999334
0.999486 1 1.00024 0.999243
0.999316 1 1.0002 0.999119
0.999598 1 1 0.999598
0.999416 1 1 0.999416
0.999276 1 1 0.999276
0.999937 1 1 0.999937
0.999656 1 1 0.999656
0.999437 1 1 0.999437
0.999701 1 1 0.999701
0.999954 1 1 0.999954
1 1 1 1
0.999964 1 1 0.999964
1 1 1 1
1 1 1 1
1 1 1 1
1 1 1 1
1 1 1 1
0.999698 1 1 0.999698
0.999955 1 1 0.999955
0.999713 1 1 0.999713
1 1 1 1
0.999954 1 1 0.999954
0.999764 1 1 0.999764
1 1 1 1
1 1 1 1
0.999956 1 1 0.999956
1 1 1 1
1 1 1 1
1 1 1 1
1.01766 1.01565 1.00214 0.999839
1.01017 1.00955 1.00086 0.999762
0.99659 0.997434 1.00006 0.999093
0.999496 1 1 0.999496
0.99942 1 1 0.99942
0.999556 1 1 0.999556
0.999511 1 1 0.999511
0.999435 1 1 0.999435
0.999426 1 1 0.999426
0.999368 1 1 0.999368
1.00826 1.00397 1.00507 0.999218
1.01647 1.01161 1.00534 0.999467
1.00783 1.0042 1.00424 0.999381
0.972953 1.0094 0.965545 0.998293
0.98408 0.986319 1.00108 0.996658
0.97693 0.973921 1.00895 0.994191
0.950497 0.966794 0.987794 0.995292
0.977977 0.982154 0.998821 0.996923
0.976087 0.972205 1.01085 0.993212
0.948767 0.970442 0.98214 0.995443
0.961528 0.991934 0.97142 0.997865
0.969593 0.977115 0.994275 0.998016
0.972922 0.973956 1.0059 0.993083
0.966536 0.983132 0.986604 0.996468
0.944149 0.977438 0.968387 0.997475
0.999337 1 1 0.999337
0.999328 1 1 0.999328
0.999341 1 1 0.999341
0.999435 1 1 0.999435
1.0038 1.00198 1.00229 0.999521
1.00824 0.996264 1.01252 0.999505
0.99928 1 1 0.99928
0.999242 1 1 0.999242
0.999263 1 1 0.999263
0.999296 1 1 0.999296
0.999264 1 1 0.999264
1.00542 0.990596 1.01533 0.999633
0.997332 0.997208 1.00044 0.999686
0.999295 1 1 0.999295
1.01083 0.986604 1.02479 0.999773
1.00188 0.998434 1.00406 0.999389
1.01102 1.01146 0.999753 0.999817
1.0173 1.01793 0.999468 0.999912
1.01014 1.01095 0.999332 0.999867
1.00479 0.998746 1.00625 0.999805
0.995873 0.985716 1.01044 0.999862
1.01728 1.01648 1.00091 0.999877
0.978553 0.971295 1.01444 0.993135
0.950675 0.96807 0.986733 0.995235
1.00833 1.00508 1.00386 0.999382
0.93951 0.97386 0.967741 0.996887
1.02122 0.992929 1.02863 0.999873
1.0101 1.00986 1.00048 0.999762
0.997908 0.999607 0.999792 0.998508
0.97323 0.983203 0.990454 0.999398
0.900004 0.940866 0.960151 0.996269
0.938196 0.964578 0.976756 0.995795
0.98797 0.976834 1.0178 0.993708
1.00478 0.989187 1.01598 0.999782
0.997835 0.998718 1.00004 0.999079
0.941513 0.956427 0.987139 0.997232
0.909594 0.938522 0.973107 0.995961
0.978869 0.972848 1.01291 0.993369
0.964882 0.978493 0.988923 0.997135
1.01381 0.999365 1.01487 0.99959
1.01926 0.999101 1.02066 0.999523
1.0132 1 1.0138 0.99941
1.00241 1 1.00299 0.999425
1.01319 1 1.01398 0.999225
1.00916 1 1.01036 0.998818
1.00485 1 1.00584 0.999018
1.00989 1 1.01118 0.998721
1.00472 1 1.0062 0.998527
1.00414 1 1.00532 0.998822
1.00359 1 1.005 0.998598
1.0019 1.00023 1.00316 0.998511
0.998646 1.00003 1 0.998611
0.999368 1 1.00056 0.998812
1.00048 1 1.00186 0.998615
0.999155 1 1 0.999155
0.999516 1 1.00047 0.999042
1.00032 1 1.00153 0.998792
0.999306 1 1.00003 0.999273
0.999615 1 1.00039 0.999223
0.99955 1 1.00035 0.999199
0.999518 1 1 0.999518
0.999378 1 1.00003 0.99935
0.999483 1 1.00022 0.999261
0.999893 1 1 0.999893
0.999598 1 1 0.999598
0.999418 1 1 0.999418
1 1 1 1
0.999933 1 1 0.999933
0.999656 1 1 0.999656
0.999951 1 1 0.999951
1 1 1 1
1 1 1 1
1 1 1 1
1 1 1 1
1 1 1 1
0.999495 1 1 0.999495
0.99967 1 1 0.99967
0.999942 1 1 0.999942
0.999698 1 1 0.999698
1 1 1 1
0.999959 1 1 0.999959
0.999724 1 1 0.999724
1 1 1 1
1 1 1 1
0.999974 1 1 0.999974
1 1 1 1
1 1 1 1
1 1 1 1
1.00988 1.00864 1.00146 0.999768
1.01796 1.01607 1.002 0.999858
1.01112 1.01007 1.00128 0.999769
0.999503 1 1 0.999503
0.99941 1 1 0.99941
0.999372 1 1 0.999372
0.999408 1 1 0.999408
0.99936 1 1 0.99936
0.999508 1 1 0.999508
0.999421 1 1 0.999421
0.999426 1 1 0.999426
0.999363 1 1 0.999363
0.999372 1 1 0.999372
0.994915 0.995612 1.00076 0.99854
1.01 1.00542 1.00534 0.999228
1.015 1.01095 1.00441 0.999601
0.957314 0.988504 0.970475 0.997911
0.951751 0.96887 0.985689 0.996594
0.971734 0.977936 0.997285 0.996363
0.978022 0.976971 1.00781 0.993316
0.970645 0.977109 0.996595 0.996779
0.981957 0.977874 1.01098 0.993267
0.952331 0.975269 0.980461 0.995939
0.943725 0.977403 0.968171 0.997286
0.98425 0.979552 1.00755 0.997269
0.975547 0.977208 1.00485 0.993479
0.934441 0.963601 0.974529 0.995085
0.911286 0.951663 0.960937 0.996498
0.999475 1 1 0.999475
0.999337 1 1 0.999337
0.999326 1 1 0.999326
1.00106 0.988828 1.01287 0.999509
0.997754 0.997601 1.00041 0.999748
0.999294 1 1 0.999294
0.999253 1 1 0.999253
0.999338 1 1.00003 0.999305
1.00262 0.998806 1.00444 0.999384
1.00911 0.986749 1.02288 0.999784
1.00375 1 1.00435 0.999401
1.00761 0.994126 1.01406 0.999512
0.998132 0.998992 1 0.999139
1.01108 1.01153 0.999712 0.999842
1.01649 1.01717 0.999408 0.999921
1.02336 0.992441 1.03131 0.999855
0.972745 0.982878 0.992095 0.997576
1.01069 1.01017 1.00075 0.999768
0.978964 0.975381 1.01168 0.992091
0.937138 0.963418 0.977444 0.99517
0.999247 0.999779 1.00096 0.998511
0.893316 0.938895 0.955258 0.996019
1.00548 0.989859 1.01598 0.999806
0.997934 0.998855 0.999993 0.999085
0.936196 0.953033 0.985199 0.997092
0.963918 0.979177 0.986547 0.997841
0.912919 0.942707 0.973212 0.995058
0.971649 0.971297 1.00766 0.992755
0.985798 0.990057 0.996266 0.99943
0.952788 0.957938 0.996877 0.99774
0.908134 0.935001 0.976135 0.995011
0.973332 0.971034 1.00914 0.993285
0.982939 0.985626 0.999364 0.997909
1.01843 0.998062 1.02091 0.999515
1.01554 1 1.01614 0.999403
0.993488 1 0.994372 0.999111
1.01346 1 1.01422 0.999258
1.00892 1 1.01007 0.998857
1.00197 1.00061 1.00272 0.998646
1.00962 1 1.01095 0.998689
1.00403 1 1.0055 0.998533
0.998897 1.00026 1.00003 0.998603
1.00343 1 1.00487 0.998571
1.00148 1.00052 1.00244 0.998522
1.00041 1.00175 1 0.998656
0.999305 1.00056 1 0.998747
0.998728 1 1.00002 0.998711
0.998626 1.00001 1 0.998619
0.99899 1 1 0.99899
0.999589 1 1.00081 0.99878
1.00075 1 1.00217 0.998586
0.999262 1 1 0.999262
0.999178 1 1 0.999178
0.999224 1 1.00016 0.999061
0.999437 1 1 0.999437
0.999405 1 1.00013 0.999279
0.999715 1 1.0005 0.999217
0.999816 1 1 0.999816
0.999519 1 1 0.999519
0.999366 1 1 0.999366
1 1 1 1
0.99989 1 1 0.99989
0.999599 1 1 0.999599
1 1 1 1
1 1 1 1
0.999929 1 1 0.999929
1 1 1 1
1 1 1 1
1 1 1 1
0.999449 1 1 0.999449
0.999638 1 1 0.999638
0.999487 1 1 0.999487
0.999931 1 1 0.999931
0.99967 1 1 0.99967
1 1 1 1
0.999945 1 1 0.999945
0.999698 1 1 0.999698
1 1 1 1
1 1 1 1
0.999962 1 1 0.999962
1 1 1 1
1 1 1 1
1 1 1 1
0.998249 0.998989 1 0.99926
1.00956 1.00864 1.00115 0.999774
1.01818 1.0164 1.00188 0.999876
0.999368 1 1 0.999368
0.999509 1 1 0.999509
0.9994 1 1 0.9994
0.999418 1 1 0.999418
0.999382 1 1 0.999382
0.999357 1 1 0.999357
0.999317 1 1 0.999317
0.999342 1 1 0.999342
0.999427 1 1 0.999427
0.999358 1 1 0.999358
0.99937 1 1 0.99937
0.999372 1 1 0.999372
0.934236 0.953984 0.982436 0.996808
0.995063 0.995479 1.00104 0.998541
1.01144 1.00656 1.00562 0.999239
0.94022 0.976509 0.965695 0.997041
0.956208 0.97799 0.982138 0.995509
0.972716 0.973834 1.00578 0.993111
0.972576 0.975754 0.998861 0.99788
0.984031 0.978847 1.00685 0.998457
0.9023 0.944514 0.958895 0.996257
0.980726 0.976029 1.01218 0.992718
0.932959 0.962801 0.972759 0.996142
0.983522 0.985223 0.999682 0.99859
0.974717 0.972021 1.00908 0.993752
0.90803 0.938304 0.971722 0.995897
1.00007 1 1.00041 0.999661
0.999477 1 1 0.999477
0.999337 1 1 0.999337
1.00987 0.989543 1.02076 0.99979
1.00437 0.999934 1.00506 0.999379
0.999365 1 1.00005 0.999314
1.00405 1 1.00465 0.999405
1.00665 0.994621 1.01257 0.999534
1.00714 0.998172 1.00939 0.999605
0.950524 0.957566 0.995384 0.997249
0.998662 0.99936 0.999986 0.999316
1.01108 1.01148 0.999735 0.999867
1.0058 0.99017 1.01596 0.999832
0.964669 0.981095 0.984874 0.998359
0.998203 0.998943 1.00017 0.999093
0.975819 0.973806 1.00782 0.994287
0.917272 0.946779 0.972759 0.995966
0.92958 0.952433 0.979057 0.996883
0.984857 0.990489 0.994844 0.999467
0.945944 0.956986 0.991006 0.997433
0.918535 0.936623 0.984619 0.996007
0.982282 0.982695 1.00287 0.996719
0.970904 0.971715 1.00574 0.993461
0.975552 0.99736 0.978668 0.999454
0.921632 0.941537 0.982721 0.99607
0.97085 0.972249 1.00485 0.993743
0.993636 0.994213 1.0029 0.996531
1.01874 1 1.01936 0.999396
0.989916 1 0.990764 0.999144
0.981778 1.00091 0.98188 0.99899
1.00898 1 1.0101 0.998896
1.00199 1.0008 1.00255 0.998646
0.999733 1.00147 0.999428 0.998841
1.00345 1 1.00491 0.998539
0.99917 1.00018 1.00037 0.998617
1.0036 1.00473 1 0.998878
1.00117 1.00081 1.00183 0.998532
1.00026 1.0016 1 0.998662
1.00138 1.00247 1 0.99891
0.999614 1.00067 1 0.998946
0.99891 1.00013 1 0.998775
0.999246 1.00048 1 0.998765
0.998868 1 1 0.998868
0.998733 1 1 0.998733
0.998628 1 1 0.998628
0.999181 1 1 0.999181
0.999015 1 1.00002 0.998991
0.999801 1 1.00105 0.998749
0.999391 1 1 0.999391
0.99926 1 1 0.99926
0.999201 1 1 0.999201
0.999724 1 1 0.999724
0.999439 1 1 0.999439
0.999516 1 1.00023 0.999285
1 1 1 1
0.999814 1 1 0.999814
0.999519 1 1 0.999519
1 1 1 1
1 1 1 1
0.999887 1 1 0.999887
1 1 1 1
1 1 1 1
1 1 1 1
0.999442 1 1 0.999442
0.999452 1 1 0.999452
0.999597 1 1 0.999597
0.999916 1 1 0.999916
0.999638 1 1 0.999638
0.999479 1 1 0.999479
1 1 1 1
0.999934 1 1 0.999934
0.99967 1 1 0.99967
1 1 1 1
1 1 1 1
0.999948 1 1 0.999948
1 1 1 1
1 1 1 1
1 1 1 1
0.950498 0.956033 0.996734 0.997469
0.997301 0.998029 1 0.999271
1.00943 1.0088 1.00084 0.99978
0.999359 1 1 0.999359
0.999349 1 1 0.999349
0.999317 1 1 0.999317
0.999428 1 1 0.999428
0.999391 1 1 0.999391
0.999354 1 1 0.999354
0.999342 1 1 0.999342
0.999317 1 1 0.999317
0.999265 1 1 0.999265
0.999364 1 1 0.999364
0.999367 1 1 0.999367
0.999373 1 1 0.999373
0.915926 0.936527 0.981915 0.996016
0.934293 0.951853 0.984731 0.996771
0.994915 0.994997 1.00138 0.998544
0.893457 0.937524 0.956808 0.996015
0.931997 0.960584 0.97504 0.995077
0.988749 0.981688 1.01271 0.994552
0.9884 0.978042 1.01346 0.997168
0.98172 0.983061 1.00128 0.997358
0.911212 0.939079 0.975172 0.99503
0.975937 0.973055 1.00897 0.994047
0.986067 0.984648 1.00389 0.997564
0.974338 0.974371 1.00647 0.993537
1.00754 1 1.00819 0.999355
0.999914 1 1.00027 0.999648
0.999479 1 1 0.999479
1.00314 0.992772 1.0109 0.999555
1.00435 1 1.00494 0.999409
1.00753 0.998829 1.00918 0.999541
1.00125 1.00067 1.00146 0.999113
0.919347 0.943137 0.978934 0.995752
0.951393 0.956689 0.996913 0.997544
0.999373 0.999963 0.999918 0.999492
0.982792 0.990543 0.99266 0.999511
0.982628 0.982809 1.00216 0.997665
0.947112 0.95738 0.991806 0.997449
0.974255 0.971843 1.0092 0.99334
0.915393 0.937931 0.980771 0.995105
0.979108 0.997897 0.981828 0.999331
0.921976 0.941635 0.983549 0.9955
0.971153 0.971725 1.00601 0.993445
0.993982 0.990568 1.00587 0.997589
0.995168 1.00421 0.991762 0.999226
0.958595 0.969558 0.995749 0.992913
0.994804 0.996041 1.00067 0.998084
0.986337 1 0.987148 0.999178
0.983144 1.00102 0.983152 0.998973
0.983799 1.00222 0.982628 0.998978
1.00166 1.00094 1.00208 0.998646
0.999465 1.00188 0.998755 0.998837
1.00419 1.00752 0.997548 0.999148
0.999466 1.00012 1.00071 0.998631
1.00415 1.00528 1 0.998876
1.00669 1.00758 1 0.999108
1.00011 1.00144 1 0.998667
1.00121 1.0023 1 0.998909
1.00122 1.00215 1 0.999069
0.999333 1.00029 1 0.999039
0.999465 1.0005 1 0.998967
0.998936 1.00001 1 0.998924
0.99886 1 1 0.99886
0.99888 1.0001 1 0.998778
0.999115 1.00033 1 0.998784
0.999031 1 1 0.999031
0.998893 1 1 0.998893
0.998755 1 1 0.998755
0.999336 1 1 0.999336
0.999178 1 1 0.999178
0.999003 1 1.00001 0.998991
0.999652 1 1 0.999652
0.999392 1 1 0.999392
0.999258 1 1 0.999258
0.999998 1 1 0.999998
0.999723 1 1 0.999723
0.999441 1 1 0.999441
1 1 1 1
1 1 1 1
0.999812 1 1 0.999812
1 1 1 1
1 1 1 1
1 1 1 1
0.999402 1 1 0.999402
0.99943 1 1 0.99943
0.999556 1 1 0.999556
0.999454 1 1 0.999454
0.999597 1 1 0.999597
0.999885 1 1 0.999885
1 1 1 1
0.999918 1 1 0.999918
0.999638 1 1 0.999638
1 1 1 1
1 1 1 1
0.999936 1 1 0.999936
1 1 1 1
1 1 1 1
1 1 1 1
0.928244 0.941711 0.990279 0.995375
0.948306 0.956614 0.994037 0.997262
0.996078 0.996794 1 0.999282
0.99935 1 1 0.99935
0.999306 1 1 0.999306
0.999359 1 1 0.999359
0.999318 1 1 0.999318
0.999294 1 1 0.999294
0.999342 1 1 0.999342
0.999316 1 1 0.999316
0.99927 1 1 0.99927
0.999251 1 1 0.999251
0.999267 1 1 0.999267
0.999286 1 1.00026 0.999029
0.999369 1 1 0.999369
0.999375 1 1 0.999375
0.969481 0.976954 0.999625 0.992724
0.921595 0.938397 0.986395 0.995641
0.935004 0.952784 0.984629 0.996658
0.911918 0.938696 0.975433 0.995941
0.976784 0.971964 1.01265 0.992401
0.983571 0.982598 1.00234 0.998651
0.988942 0.987759 1.00297 0.998232
0.973773 0.975607 1.00435 0.993801
0.989694 0.998024 0.994226 0.997412
1.00573 1.00132 1.0057 0.998718
1.006 1 1.00666 0.999342
0.999634 1 1 0.999634
1.00745 0.999927 1.00804 0.999481
1.00029 1.00101 1.00017 0.999105
0.950917 0.96829 0.988232 0.993752
0.923344 0.942913 0.983935 0.995234
0.952994 0.956012 0.999 0.997842
0.982889 0.998973 0.984683 0.999204
0.994691 0.990567 1.00763 0.99656
0.923557 0.940878 0.98631 0.995215
0.973178 0.972463 1.00707 0.993713
0.992296 1.00491 0.988226 0.999211
0.961326 0.971035 0.996068 0.99391
0.997331 0.998241 1.00211 0.996985
1.00433 1.00774 0.997741 0.998871
0.996301 0.996628 1.00096 0.998715
0.983875 1.00116 0.983762 0.998955
0.986681 1.00197 0.985775 0.998947
1.00377 1.01386 0.99103 0.999006
0.99937 1.00221 0.99833 0.998833
1.00292 1.0062 0.997603 0.999141
1.00954 1.01287 0.997526 0.99919
1.00465 1.00579 1 0.998874
1.00695 1.00787 0.999994 0.999096
1.00463 1.00554 0.999987 0.999114
1.00108 1.00217 1 0.998908
1.00119 1.00214 1 0.999058
1.00037 1.00133 1 0.999044
0.999313 1.00025 1 0.999065
0.999008 1.00003 1 0.998975
0.999379 1.00039 1 0.998988
0.99895 1.00003 1 0.99892
0.998908 1 1 0.998908
0.998954 1 1 0.998954
0.998855 1 1 0.998855
0.99885 1.00007 1 0.998781
0.999242 1 1 0.999242
0.999048 1 1 0.999048
0.998917 1 1 0.998917
0.999599 1 1 0.999599
0.999334 1 1 0.999334
0.999175 1 1 0.999175
0.999986 1 1 0.999986
0.999653 1 1 0.999653
0.999392 1 1 0.999392
1 1 1 1
0.999996 1 1 0.999996
0.999723 1 1 0.999723
1 1 1 1
1 1 1 1
1 1 1 1
0.999341 1 1 0.999341
0.999403 1 1 0.999403
0.999489 1 1 0.999489
0.999419 1 1 0.999419
0.999542 1 1 0.999542
0.999827 1 1 0.999827
0.999596 1 1 0.999596
0.999886 1 1 0.999886
1 1 1 1
1 1 1 1
1 1 1 1
0.999919 1 1 0.999919
1 1 1 1
1 1 1 1
1 1 1 1
0.965213 0.973109 0.998068 0.993806
0.923326 0.94457 0.981534 0.995899
0.952442 0.957865 0.996971 0.997359
0.999295 1 1 0.999295
0.99937 1 1 0.99937
0.999301 1 1 0.999301
0.999319 1 1 0.999319
0.99924 1 1 0.99924
0.999296 1 1 0.999296
0.999276 1 1 0.999276
0.999223 1 1 0.999223
0.999255 1 1 0.999255
0.999172 1 1 0.999172
0.999641 1.00058 1 0.999061
0.998908 1.00021 1.00011 0.998584
0.999213 1.0001 1.00006 0.999052
0.999374 1 1 0.999374
0.987317 0.993906 0.995739 0.997622
0.968379 0.974442 1.00024 0.99354
0.91555 0.939114 0.979719 0.995089
0.974211 0.973922 1.00694 0.993398
0.984889 0.987701 0.998305 0.998847
0.99242 0.997044 0.996829 0.998529
0.99664 1.00479 0.992996 0.998887
1.00285 1.00067 1.00337 0.998808
1.00495 1 1.00563 0.999328
0.998143 1.00112 0.997932 0.999092
0.982913 0.986386 0.999152 0.997325
0.958424 0.969871 0.994048 0.994114
0.921672 0.942785 0.981452 0.996081
0.991151 1.00564 0.986389 0.999194
1.00276 0.999368 1.00556 0.997849
0.961407 0.970922 0.99523 0.994946
0.998498 1.00613 0.993522 0.998889
0.994282 0.996654 0.999347 0.998272
1.00883 1.01822 0.991979 0.998788
1.01223 1.01386 0.999642 0.998753
0.98984 1.0018 0.989131 0.998916
1.00471 1.01345 0.992366 0.999003
1.01217 1.0165 0.996749 0.998988
1.00178 1.00508 0.997583 0.999133
1.00991 1.01279 0.99797 0.999182
1.00715 1.00891 0.999255 0.998995
1.00722 1.00815 1 0.999083
1.00393 1.00483 1 0.999103
1.00201 1.00308 1 0.998933
1.00113 1.00209 1 0.999048
1.00024 1.00118 1 0.999055
0.999199 1.00028 1 0.998921
0.999262 1.00017 1 0.999092
0.999036 1.00005 1 0.998989
0.998909 1 1 0.998909
0.998956 1.00004 1 0.998915
0.998903 1 1 0.998903
0.998958 1 1 0.998958
0.999128 1 1 0.999128
0.99897 1 1 0.99897
0.99885 1 1 0.99885
0.999528 1 1 0.999528
0.999241 1 1 0.999241
0.999065 1 1 0.999065
0.999963 1 1 0.999963
0.999599 1 1 0.999599
0.999331 1 1 0.999331
1 1 1 1
0.99998 1 1 0.99998
0.999654 1 1 0.999654
1 1 1 1
0.999993 1 1 0.999993
1 1 1 1
0.999274 1 1 0.999274
0.99935 1 1 0.99935
0.999437 1 1 0.999437
0.999404 1 1 0.999404
0.999482 1 1 0.999482
0.999751 1 1 0.999751
0.999529 1 1 0.999529
0.999828 1 1 0.999828
1 1 1 1
0.999887 1 1 0.999887
1 1 1 1
1 1 1 1
1 1 1 1
1 1 1 1
1 1 1 1
0.980622 0.986272 0.996612 0.997651
0.958898 0.970412 0.994429 0.993671
0.921422 0.944814 0.980016 0.995128
0.999124 1 1 0.999124
0.999307 1 1 0.999307
0.999321 1 1 0.999321
0.999291 1 1 0.999291
0.999234 1 1 0.999234
0.999314 1 1 0.999314
0.999194 1 1 0.999194
0.999243 1 1 0.999243
0.999198 1 1 0.999198
0.999408 1.00032 1 0.999086
0.999546 1.00083 1 0.99872
1.00375 1.00545 1 0.998308
0.999016 1.00031 1.00013 0.998577
0.99929 1.00021 1 0.999076
1.00062 1.00596 0.995555 0.999132
0.988675 0.995306 0.996196 0.997131
0.971383 0.976354 1.00044 0.994467
0.993852 0.997484 0.998802 0.997554
1.00154 1.00644 0.996205 0.998922
1.00141 1.0002 1.00231 0.9989
1.00506 1.00617 0.99993 0.998967
0.983437 0.985341 0.999885 0.998183
0.956196 0.969922 0.992009 0.99379
0.99203 1.00428 0.988883 0.998905
0.993188 0.996409 0.998988 0.997777
1.00983 1.0186 0.9926 0.998777
1.01081 1.01207 0.999912 0.998845
1.01959 1.02206 0.998854 0.99873
1.01221 1.01382 0.999761 0.998652
1.00547 1.01278 0.993779 0.999
1.01346 1.01748 0.997055 0.998997
1.0063 1.00772 0.999739 0.998848
1.01025 1.01271 0.998395 0.999174
1.00803 1.00959 0.999459 0.998993
1.00267 1.00389 1 0.998785
1.00324 1.00415 1 0.999092
1.00195 1.003 1 0.998955
1.00011 1.00133 1 0.998786
1.00013 1.00107 1 0.999065
0.999274 1.00035 1 0.998921
0.998878 1.00004 1 0.998843
0.999076 1.00007 1 0.999003
0.998914 1 1 0.998914
0.998912 1 1 0.998912
0.998899 1 1 0.998899
0.998947 1 1 0.998947
0.999081 1 1 0.999081
0.999447 1 1 0.999447
0.999145 1 1 0.999145
0.998986 1 1 0.998986
0.999928 1 1 0.999928
0.999528 1 1 0.999528
0.99924 1 1 0.99924
1 1 1 1
0.999954 1 1 0.999954
0.999599 1 1 0.999599
1 1 1 1
0.999974 1 1 0.999974
1 1 1 1
0.999165 1 1 0.999165
0.999276 1 1 0.999276
0.999383 1 1 0.999383
0.999359 1 1 0.999359
0.999443 1 1 0.999443
0.999682 1 1 0.999682
0.999476 1 1 0.999476
0.999751 1 1 0.999751
0.999999 1 1 0.999999
0.999829 1 1 0.999829
1 1 1 1
1 1 1 1
1 1 1 1
1 1 1 1
1 1 1 1
1.00557 1.00928 0.997094 0.99923
0.980593 0.987573 0.99622 0.9967
0.962736 0.970346 0.998241 0.993906
0.999165 1 1 0.999165
0.998912 1 1 0.998912
0.999139 1 1 0.999139
0.999287 1 1 0.999287
0.999228 1 1 0.999228
0.999288 1 1 0.999288
1.00062 1.00179 1 0.998829
0.999225 1 1 0.999225
0.999111 1 1 0.999111
0.999748 1.001 1 0.998746
1.00248 1.00412 1 0.998368
1.00906 1.01097 0.999519 0.998591
1.00257 1.00426 1 0.998319
0.999033 1.00047 1 0.998569
1.00363 1.0087 0.995799 0.999173
0.987084 0.994743 0.995755 0.996532
1.00476 1.0077 0.998121 0.998957
1.00856 1.0096 0.999908 0.999057
1.00408 1.00508 0.999999 0.999013
0.980354 0.98512 0.998078 0.997078
1.01093 1.01933 0.992987 0.998768
1.00887 1.01018 0.999768 0.998937
1.01933 1.02215 0.998478 0.998759
1.01358 1.01504 0.999877 0.998681
1.00896 1.01063 0.999616 0.998731
1.01135 1.01251 1 0.998849
1.01474 1.01856 0.997235 0.999006
1.00607 1.00773 0.999495 0.998854
1.00472 1.00603 1 0.998693
1.00879 1.01015 0.99966 0.99899
1.00254 1.00375 1 0.998794
1.00237 1.00369 1 0.998678
1.00187 1.0029 1 0.998977
1.00012 1.00134 1 0.998784
0.999019 1.00028 1 0.998735
0.999328 1.00041 1 0.998921
0.998914 1.00007 1 0.998842
0.998845 1 1 0.998845
0.998918 1 1 0.998918
0.998913 1 1 0.998913
0.999029 1 1 0.999029
0.998937 1 1 0.998937
0.999076 1 1 0.999076
0.999378 1 1 0.999378
0.999888 1 1 0.999888
0.999446 1 1 0.999446
0.999162 1 1 0.999162
1 1 1 1
0.999919 1 1 0.999919
0.999527 1 1 0.999527
1 1 1 1
0.999946 1 1 0.999946
1 1 1 1
0.998992 1 1 0.998992
0.999147 1 1 0.999147
0.999289 1 1 0.999289
0.999278 1 1 0.999278
0.999385 1 1 0.999385
0.999622 1 1 0.999622
0.999448 1 1 0.999448
0.999681 1 1 0.999681
0.999988 1 1 0.999988
0.999751 1 1 0.999751
1 1 1 1
1 1 1 1
1 1 1 1
1 1 1 1
1 1 1 1
1.0077 1.00945 0.99934 0.998926
1.00467 1.00848 0.997068 0.999154
0.980106 0.986214 0.996394 0.997403
1.00057 1.00172 1 0.998861
0.999255 1 1 0.999255
0.999359 1.00062 1 0.998737
0.998901 1 1 0.998901
0.999155 1 1 0.999155
1.00576 1.00729 1 0.998485
0.999263 1 1 0.999263
1.00055 1.00174 1 0.998806
1.00629 1.00782 1 0.998478
0.999897 1.00113 1 0.998771
1.0033 1.00497 1 0.998343
1.00686 1.00868 0.999607 0.998589
1.00086 1.00253 1 0.99833
1.00593 1.01065 0.996115 0.999216
1.0107 1.01175 1 0.998966
1.00872 1.00974 0.999933 0.999053
1.00358 1.00397 1.00055 0.999059
1.01931 1.02241 0.998177 0.998789
1.01508 1.01642 0.999967 0.99871
1.00939 1.01094 0.999726 0.998734
1.01171 1.01287 1 0.998857
1.00923 1.01047 1 0.998774
1.0059 1.00777 0.999291 0.998859
1.00451 1.00582 1 0.998698
1.00571 1.00707 1 0.998641
1.00244 1.00365 1 0.998803
1.00197 1.0033 1 0.998672
1.00015 1.00151 1 0.998641
1.00013 1.00135 1 0.998782
0.999208 1.00048 1 0.998732
0.998756 1 1 0.998756
0.998953 1.00011 1 0.998841
0.998845 1 1 0.998845
0.998951 1 1 0.998951
0.998915 1 1 0.998915
0.99903 1 1 0.99903
0.999312 1 1 0.999312
0.999071 1 1 0.999071
0.999377 1 1 0.999377
0.999862 1 1 0.999862
0.999988 1 1 0.999988
0.999883 1 1 0.999883
0.999446 1 1 0.999446
1 1 1 1
0.99991 1 1 0.99991
1 1 1 1
0.999785 1.00101 1 0.998773
0.998891 1 1 0.998891
0.998974 1 1 0.998974
0.999191 1 1 0.999191
0.999129 1 1 0.999129
0.999293 1 1 0.999293
0.999564 1 1 0.999564
0.999386 1 1 0.999386
0.999622 1 1 0.999622
0.999961 1 1 0.999961
0.999681 1 1 0.999681
0.999992 1 1 0.999992
1 1 1 1
1 1 1 1
1 1 1 1
1 1 1 1
1.00899 1.01023 1 0.998775
1.01025 1.01179 0.999492 0.998978
1.00488 1.00877 0.997069 0.999076
1.00344 1.00486 1 0.99858
0.999975 1.00105 1 0.998924
0.999344 1 1 0.999344
0.999554 1.00079 1 0.998761
0.99889 1 1 0.99889
1.01099 1.01257 1 0.998441
1.00545 1.007 1 0.998456
1.00052 1.00174 1 0.998784
1.00696 1.0085 1 0.998471
1.00469 1.00638 1 0.998319
1.00631 1.00809 0.99964 0.998588
1.01264 1.01379 1 0.998857
1.01037 1.01142 1 0.998959
1.00904 1.01004 0.999966 0.99905
1.00968 1.01113 0.999826 0.998738
1.01229 1.01345 1 0.998864
1.00996 1.01119 1 0.998783
1.01005 1.01137 1 0.998687
1.00433 1.00563 1 0.998704
1.00509 1.00646 1 0.998638
1.00299 1.00438 1 0.99861
1.00157 1.00291 1 0.998667
1.00048 1.00185 1 0.998641
0.998799 1.00012 1 0.998679
0.999393 1.00066 1 0.99873
0.998762 1.00001 1 0.998755
0.998869 1 1 0.998869
0.998845 1 1 0.998845
0.998951 1 1 0.998951
0.999235 1 1 0.999235
0.99903 1 1 0.99903
0.99931 1 1 0.99931
0.999843 1 1 0.999843
0.999376 1 1 0.999376
0.999857 1 1 0.999857
0.999984 1 1 0.999984
0.999994 1 1 0.999994
0.999878 1 1 0.999878
1 1 1 1
1.00123 1.00264 1 0.998603
0.998875 1 1 0.998875
0.999645 1.00078 1 0.998861
0.999078 1 1 0.999078
0.998889 1 1 0.998889
0.998956 1 1 0.998956
0.999192 1 1 0.999192
0.999489 1 1 0.999489
0.999296 1 1 0.999296
0.999564 1 1 0.999564
0.999929 1 1 0.999929
0.999623 1 1 0.999623
0.999969 1 1 0.999969
1 1 1 1
0.999996 1 1 0.999996
1 1 1 1
1 1 1 1
1.01236 1.01373 1 0.998655
1.00863 1.00987 1 0.998773
1.01152 1.01283 0.999685 0.999028
1.00804 1.00957 1 0.998481
1.00319 1.00462 1 0.998582
0.999393 1.00041 1 0.998987
0.999785 1.001 1 0.998786
1.01071 1.01229 1 0.998439
1.00507 1.00666 1 0.998428
1.00667 1.00822 1 0.998463
1.01181 1.01309 1 0.998738
1.0125 1.01369 1 0.99883
1.00964 1.0107 1 0.998952
1.01086 1.01222 1 0.998649
1.01052 1.01175 1 0.998792
1.00997 1.0113 1 0.998687
1.00654 1.00792 1 0.998632
1.00447 1.00584 1 0.998634
1.00324 1.00463 1 0.998612
0.999553 1.00092 1 0.998631
1.0008 1.00217 1 0.99864
0.99898 1.0003 1 0.998679
0.998803 1 1 0.998803
0.998768 1.00001 1 0.998753
0.998868 1 1 0.998868
0.999159 1 1 0.999159
0.998951 1 1 0.998951
0.999233 1 1 0.999233
0.999825 1 1 0.999825
0.999309 1 1 0.999309
0.999838 1 1 0.999838
0.999982 1 1 0.999982
0.999852 1 1 0.999852
0.999985 1 1 0.999985
1 1 1 1
1.0027 1.0042 1 0.998505
0.99895 1.00025 1 0.998698
1.00085 1.00222 1 0.998633
0.999009 1 1 0.999009
0.998873 1 1 0.998873
0.999491 1.00054 1 0.998948
0.999379 1 1 0.999379
0.999076 1 1 0.999076
0.998887 1 1 0.998887
0.999193 1 1 0.999193
0.999491 1 1 0.999491
0.999892 1 1 0.999892
0.999565 1 1 0.999565
0.999937 1 1 0.999937
1 1 1 1
0.999978 1 1 0.999978
1 1 1 1
1 1 1 1
1.01048 1.01189 1 0.998607
1.01244 1.01382 1 0.998637
1.00896 1.0102 1 0.99877
1.00803 1.00956 1 0.998482
1.0029 1.00433 1 0.998584
1.01052 1.0121 1 0.998437
1.01049 1.01186 1 0.998648
1.01202 1.0133 1 0.998736
1.01256 1.01377 1 0.998802
1.01102 1.01238 1 0.998654
1.00809 1.0095 1 0.998608
1.00989 1.01122 1 0.998687
1.00662 1.008 1 0.998628
1.00104 1.00242 1 0.998622
1.0035 1.00489 1 0.998614
0.99995 1.00132 1 0.998633
0.998747 1 1 0.998747
0.999172 1.00049 1 0.998679
0.998802 1 1 0.998802
0.999107 1 1 0.999107
0.998868 1 1 0.998868
0.999158 1 1 0.999158
0.999803 1 1 0.999803
0.999231 1 1 0.999231
0.999819 1 1 0.999819
0.999976 1 1 0.999976
0.999834 1 1 0.999834
0.999984 1 1 0.999984
0.999986 1 1 0.999986
1.00516 1.00659 1 0.998587
0.999214 1.00064 1 0.99858
1.00239 1.0039 1 0.9985
0.998866 1 1 0.998866
0.998887 1.00018 1 0.998709
1.00049 1.00183 1 0.998665
0.999268 1 1 0.999268
0.998979 1 1 0.998979
0.998872 1 1 0.998872
0.999847 1 1 0.999847
0.999381 1 1 0.999381
0.999074 1 1 0.999074
0.999492 1 1 0.999492
0.9999 1 1 0.9999
1 1 1 1
0.999946 1 1 0.999946
1 1 1 1
1 1 1 1
1.0091 1.01052 1 0.998594
1.01048 1.01189 1 0.998603
1.0124 1.0138 1 0.998618
1.00806 1.00959 1 0.998482
1.00853 1.00996 1 0.998582
1.01086 1.01223 1 0.998653
1.01222 1.01351 1 0.998733
1.01116 1.01251 1 0.998659
1.00805 1.00945 1 0.99861
1.00233 1.00372 1 0.998613
1.0067 1.00809 1 0.998624
1.00129 1.00267 1 0.998626
0.998805 1.00011 1 0.9987
1.00034 1.00171 1 0.998635
0.998767 1.00002 1 0.998748
0.99906 1 1 0.99906
0.998802 1 1 0.998802
0.999106 1 1 0.999106
0.999767 1 1 0.999767
0.999157 1 1 0.999157
0.999792 1 1 0.999792
1 1 1 1
0.999814 1 1 0.999814
0.999979 1 1 0.999979
0.999984 1 1 0.999984
1.00524 1.00664 1 0.998609
0.999791 1.00119 1 0.998605
1.00519 1.00661 1 0.99859
0.998727 1 1 0.998727
0.999109 1.00052 1 0.998594
1.00205 1.00356 1 0.998494
0.999121 1 1 0.999121
0.998864 1 1 0.998864
0.998829 1.00011 1 0.99872
0.999802 1 1 0.999802
0.999242 1 1 0.999242
0.998949 1 1 0.998949
1 1 1 1
0.999855 1 1 0.999855
0.999383 1 1 0.999383
0.999908 1 1 0.999908
1 1 1 1
1 1 1 1
1.00763 1.00906 1 0.998585
1.00952 1.01094 1 0.998602
1.01046 1.01188 1 0.998599
1.00299 1.00443 1 0.998569
1.00811 1.00954 1 0.99858
1.01125 1.0126 1 0.998659
1.00802 1.00942 1 0.998612
1.00235 1.00374 1 0.998613
0.999184 1.00048 1 0.998706
1.00154 1.00291 1 0.998631
0.998862 1.00014 1 0.998725
0.998964 1 1 0.998964
0.998788 1.00004 1 0.998748
0.99906 1 1 0.99906
0.999736 1 1 0.999736
0.999105 1 1 0.999105
0.999765 1 1 0.999765
1 1 1 1
0.999779 1 1 0.999779
0.999986 1 1 0.999986
0.999981 1 1 0.999981
1.00365 1.00504 1 0.998614
0.99981 1.00117 1 0.998641
1.00523 1.00663 1 0.99861
0.998735 1 1 0.998735
0.999973 1.00137 1 0.998609
1.00524 1.00666 1 0.998593
0.999038 1 1 0.999038
0.998759 1 1 0.998759
0.999 1.00039 1 0.998609
0.999772 1 1 0.999772
0.99911 1 1 0.99911
0.998863 1 1 0.998863
1 1 1 1
0.99981 1 1 0.99981
0.999216 1 1 0.999216
1 1 1 1
0.999865 1 1 0.999865
1 1 1 1
1.00274 1.00416 1 0.998587
1.00726 1.00869 1 0.998586
1.00997 1.01138 1 0.998611
0.999029 1.00036 1 0.99867
1.00294 1.00438 1 0.998573
1.00771 1.00915 1 0.998578
1.00237 1.00377 1 0.998613
0.999168 1.00046 1 0.998706
0.998914 1 1 0.998914
0.998917 1.00017 1 0.998751
0.998989 1 1 0.998989
0.999685 1 1 0.999685
0.99906 1 1 0.99906
0.999734 1 1 0.999734
1 1 1 1
0.999763 1 1 0.999763
1 1 1 1
0.999976 1 1 0.999976
1.00014 1.00149 1 0.998649
1.00354 1.00494 1 0.998613
0.998735 1 1 0.998735
0.999902 1.00126 1 0.998641
1.0052 1.0066 1 0.998611
0.999042 1 1 0.999042
0.998732 1 1 0.998732
1.00015 1.00154 1 0.998612
0.99975 1 1 0.99975
0.999056 1 1 0.999056
0.998791 1 1 0.998791
1 1 1 1
0.999776 1 1 0.999776
0.999099 1 1 0.999099
1 1 1 1
0.999818 1 1 0.999818
1 1 1 1
0.998859 1.00016 1 0.998694
1.00259 1.00401 1 0.99859
1.00684 1.00826 1 0.998586
0.998891 1 1 0.998891
0.999019 1.00035 1 0.99867
1.00285 1.00428 1 0.998577
0.999152 1.00045 1 0.998706
0.998919 1 1 0.998919
0.999635 1 1 0.999635
0.999013 1 1 0.999013
0.999682 1 1 0.999682
1 1 1 1
0.999731 1 1 0.999731
1 1 1 1
1 1 1 1
0.99872 1 1 0.99872
1.00007 1.00143 1 0.998643
1.00345 1.00484 1 0.998612
0.99902 1 1 0.99902
0.998733 1 1 0.998733
0.999995 1.00136 1 0.99864
0.999726 1 1 0.999726
0.999041 1 1 0.999041
0.99873 1 1 0.99873
1 1 1 1
0.999753 1 1 0.999753
0.999073 1 1 0.999073
1 1 1 1
0.999781 1 1 0.999781
1 1 1 1
0.998943 1 1 0.998943
0.998835 1.00017 1 0.99867
1.00247 1.00388 1 0.998592
0.999615 1 1 0.999615
0.998892 1 1 0.998892
0.999012 1.00034 1 0.99867
0.998925 1 1 0.998925
0.999634 1 1 0.999634
1 1 1 1
0.999679 1 1 0.999679
1 1 1 1
1 1 1 1
0.998984 1 1 0.998984
0.99871 1 1 0.99871
1.00001 1.00137 1 0.998637
0.999726 1 1 0.999726
0.999019 1 1 0.999019
0.998732 1 1 0.998732
1 1 1 1
0.999727 1 1 0.999727
0.99904 1 1 0.99904
1 1 1 1
0.999755 1 1 0.999755
1 1 1 1
0.999613 1 1 0.999613
0.998925 1 1 0.998925
0.998812 1.00017 1 0.998645
1 1 1 1
0.999614 1 1 0.999614
0.998894 1 1 0.998894
0.999632 1 1 0.999632
1 1 1 1
1 1 1 1
0.999686 1 1 0.999686
0.998984 1 1 0.998984
0.9987 1 1 0.9987
1 1 1 1
0.999696 1 1 0.999696
0.999017 1 1 0.999017
1 1 1 1
0.999728 1 1 0.999728
1 1 1 1
0.999912 1 1 0.999912
0.999645 1 1 0.999645
0.998906 1 1 0.998906
1 1 1 1
0.999614 1 1 0.999614
1 1 1 1
0.999928 1 1 0.999928
0.999674 1 1 0.999674
0.998984 1 1 0.998984
0.999969 1 1 0.999969
0.999694 1 1 0.999694
1 1 1 1
1 1 1 1
0.999624 1 1 0.999624
1 1 1 1
0.999961 1 1 0.999961
0.999656 1 1 0.999656
1 1 1 1
1 1 1 1
1 1 1 1

VECTORS lamdaE float
0.999249 1.00028 0.996216
0.999308 0.99969 0.998439
0.999114 1.00043 0.996315
0.999658 0.999937 0.996028
0.999394 1.00019 0.996145
0.999224 1.00007 0.996381
1.0002 1.00074 0.993841
0.999307 0.999566 0.998488
0.999292 1.00036 0.998354
0.999026 1.00016 0.998527
0.999402 0.999238 0.99695
1.00001 1.00075 0.993861
0.999833 1.00001 0.995619
0.999513 0.999901 0.996047
0.998971 1.00066 0.996398
0.999533 0.999916 0.996144
0.999113 1.00022 0.996462
0.999242 1.00031 0.99625
1.00029 1.00067 0.993825
0.999781 1 0.998034
0.999698 0.999965 0.99591
0.999569 1.00001 0.996082
1.00089 0.999908 0.99352
1.00053 1.00037 0.993661
0.999318 0.999555 0.996692
0.999863 1.00097 0.994152
1.00201 1.00095 0.990477
0.999296 0.999439 0.998546
0.999379 1.00023 0.997169
0.999136 1.00015 0.997434
0.999364 0.999065 0.998642
0.999921 1.00086 0.993871
0.999645 0.999993 0.995916
0.999355 1.00046 0.996138
1.00086 1.00031 0.993834
0.999324 0.998469 0.99895
1.00027 1.00073 0.994408
0.999835 1.00056 0.994337
1.00095 1.00192 0.991009
0.999423 0.997884 0.999129
0.999826 1 0.997992
0.999614 0.999968 0.997073
0.999874 1 0.99795
0.999537 0.999995 0.99597
1.00126 1.00005 0.992184
0.99954 0.999995 0.998305
1.00116 0.999967 0.993613
0.999409 0.999877 0.996258
0.999098 1.00045 0.996342
0.998986 1.00041 0.99656
1.00038 1.00055 0.993816
0.999723 1.00001 0.99693
0.999572 0.99994 0.996043
0.999224 0.999641 0.996773
0.999429 1.00006 0.996191
1.00094 0.999876 0.993474
0.999952 1.0009 0.994149
1.00061 1.00031 0.993634
1.00207 1.00099 0.990399
0.999818 1.00001 0.997994
0.999774 1 0.99573
1.00113 1 0.993544
1.00092 0.999952 0.993402
1.00079 1.00004 0.993551
1.00307 0.999793 0.989717
1.00259 1.0003 0.989805
0.99949 0.998836 0.9971
0.999528 1.00091 0.994744
1.00127 1.00161 0.991102
1.003 1.00096 0.988155
0.999456 1.00021 0.998216
0.999359 0.998875 0.998749
0.999229 0.999917 0.998412
0.999839 1.00095 0.993878
0.99967 1.00007 0.998155
0.999353 1.00029 0.998265
1.00076 1.00029 0.992808
0.999364 0.998556 0.998174
1.00011 1.00084 0.993513
0.999764 1.00056 0.994854
1.00094 1.00189 0.991003
0.999427 0.998185 0.998998
0.999599 0.999096 0.996259
1.00107 0.999956 0.99263
1.00054 1.00059 0.99303
1.00287 1.00033 0.988982
0.999662 1.00005 0.995882
1.00153 1.00141 0.990437
1.00048 1.0023 0.991528
1.00154 1.00221 0.989517
0.99946 0.997571 0.999218
0.999403 0.99783 0.999161
0.999714 0.999975 0.998127
0.999794 1 0.998024
0.999867 1 0.997961
0.999651 0.999995 0.996998
1.00126 1.00004 0.992797
0.999614 0.999962 0.997098
1.00112 0.999991 0.993102
0.99988 1 0.997953
1.00129 0.999989 0.992147
1.00121 1.00005 0.99347
1.00349 0.999866 0.988294
1.00113 0.999909 0.993691
1.00332 0.999845 0.98867
0.999803 1.00002 0.995686
0.999442 0.999889 0.996179
0.999126 0.999701 0.996873
0.999293 1.0001 0.996293
1.001 0.999864 0.993428
1.00068 1.00023 0.993612
1.00005 1.00079 0.994138
1.00212 1.00104 0.99032
0.999854 1 0.997973
0.999632 0.999996 0.995875
1.0012 0.999998 0.992613
1.00097 0.999921 0.993358
0.999404 0.998869 0.997912
0.999678 1.00081 0.994867
1.00085 1.00001 0.993512
1.00308 0.999775 0.989595
1.00135 1.00166 0.990996
1.0026 1.00037 0.989887
1.00298 1.00097 0.988164
1.00126 1.00002 0.9922
1.00103 0.999987 0.993151
1.00342 0.999799 0.988801
1.00309 0.999814 0.989363
1.00299 0.999875 0.989521
1.00417 0.99945 0.987756
0.999472 0.998343 0.998906
1.00361 1.0002 0.987772
0.999631 1.00049 0.99474
1.0005 1.00208 0.991522
1.00227 1.00193 0.988669
1.00367 1.00073 0.987153
0.999677 0.999572 0.995562
1.00011 1.00137 0.993041
0.999626 1.00009 0.998164
0.999263 1.00019 0.998316
1.00075 1.00028 0.992819
0.999385 0.998411 0.998943
0.999662 1.00068 0.994475
1.00003 1.00092 0.993505
1.00094 1.00187 0.990996
0.999398 0.998129 0.999045
0.999602 0.999034 0.99629
1.00106 0.99998 0.993183
1.00047 1.0006 0.993601
1.00287 1.00032 0.988989
0.999627 1.00004 0.995243
1.00151 1.00139 0.990455
1.00045 1.0023 0.991527
1.00156 1.0022 0.989455
0.999578 0.999597 0.99578
0.999683 0.998613 0.996605
0.999997 1.00096 0.993651
1.00322 0.999962 0.98869
1.00221 1.00091 0.989641
1.00395 1.00019 0.98712
1.00027 1.00202 0.992171
1.00228 1.00151 0.988804
1.00097 1.00304 0.989942
1.00174 1.00249 0.98896
0.999544 0.997265 0.999266
0.99946 0.99751 0.999235
0.999387 0.997767 0.999192
0.999711 0.999158 0.99593
0.999486 0.998066 0.99902
0.999708 0.999997 0.998143
0.999727 0.999983 0.998091
1.00108 0.999989 0.992573
1.0012 1.00004 0.992266
0.999844 1 0.997975
0.999877 1 0.99795
1.00128 1 0.99215
1.00115 1.00005 0.992976
1.0035 0.999866 0.988295
1.00108 0.999894 0.992623
1.00331 0.999853 0.98867
1.0013 0.999986 0.992123
1.00361 0.999813 0.988137
1.00336 0.99989 0.988535
1.00457 0.999486 0.986707
1.00332 0.999829 0.988659
1.00439 0.999514 0.987049
0.999868 0.999999 0.997955
0.999491 0.999988 0.996024
1.00121 0.999991 0.991749
1.00103 0.999917 0.993313
0.999261 0.998847 0.998802
0.999836 1.00073 0.994983
1.00091 0.999973 0.993476
1.00309 0.999748 0.989474
1.00262 1.00045 0.989969
1.00144 1.00174 0.990889
1.00297 1.00099 0.988173
1.00126 0.999999 0.992195
1.00109 0.999987 0.993101
1.00342 0.999778 0.988547
1.00312 0.999845 0.989466
0.999463 0.998408 0.998864
0.999683 1.00042 0.995111
1.00061 1.00211 0.99162
1.00297 0.999918 0.989515
1.00418 0.999363 0.987619
1.00217 1.00192 0.988659
1.00361 1.00024 0.987886
1.00365 1.00073 0.987168
0.99966 0.999635 0.995548
1.00013 1.00132 0.993037
1.00359 0.999797 0.988179
1.0033 0.999828 0.988994
1.00449 0.999473 0.987164
1.00422 0.99942 0.987291
1.00405 0.999613 0.987736
1.00473 0.998902 0.987126
0.999656 1.00003 0.995127
1.00432 0.999709 0.986971
1.00025 1.00211 0.99198
1.0012 1.00257 0.989562
1.00291 1.00202 0.987682
1.00418 1.00012 0.986866
1.00018 1.00177 0.992536
1.00012 1.00082 0.993573
1.00035 1.00238 0.991643
1.00101 0.99997 0.992672
0.999374 0.998082 0.999089
0.999601 0.99898 0.996322
1.00034 1.0007 0.993144
1.00288 1.0003 0.988997
0.999604 1.00005 0.995202
1.00041 1.00229 0.991527
1.00148 1.00139 0.990474
1.00157 1.0022 0.989392
0.999586 0.999526 0.995806
0.999675 0.998585 0.996624
0.999979 1.00098 0.993662
1.00322 0.999972 0.988689
1.0022 1.0009 0.989664
1.00397 1.00019 0.98711
1.00022 1.00207 0.992176
1.00232 1.00153 0.988836
1.00095 1.00304 0.98993
1.00173 1.00247 0.988926
0.999773 0.998252 0.996796
1.00012 1.00153 0.992859
0.999975 1.00029 0.994369
1.00018 1.00214 0.992203
1.00431 0.999732 0.986929
1.00317 1.00096 0.98785
1.00462 0.999862 0.986239
1.00059 1.00301 0.990716
1.00273 1.00147 0.988207
1.00103 1.00386 0.988876
1.00199 1.00225 0.988518
1.00021 0.999241 0.995021
0.999929 0.997794 0.996952
0.999645 0.996999 0.999295
0.999555 0.997211 0.999276
0.999462 0.997445 0.999251
0.999772 0.998835 0.996163
0.999501 0.997835 0.999097
0.999702 0.99922 0.995907
0.999497 0.998106 0.998984
1.00109 0.999898 0.992621
1.00111 1.00004 0.992441
1.0033 0.99986 0.98867
1.0035 0.999866 0.988296
1.00128 1.00001 0.992152
0.999884 1 0.997947
1.00131 0.999988 0.992121
1.00361 0.999817 0.988137
1.00335 0.999899 0.988536
1.00458 0.999488 0.986701
1.00332 0.999842 0.988653
1.00439 0.999513 0.987048
1.00363 0.999796 0.988117
1.00469 0.999402 0.986576
1.00443 0.999565 0.986908
1.00501 0.998903 0.986485
1.0044 0.999507 0.987007
1.00488 0.999045 0.986585
1.00127 0.999984 0.992188
1.00114 0.999981 0.993049
1.00341 0.999749 0.988295
1.00314 0.999861 0.989569
0.999458 0.998475 0.998819
0.999747 1.00039 0.995448
1.00074 1.00212 0.991716
1.00295 0.999956 0.989508
1.00419 0.999272 0.987482
1.00361 1.00028 0.988
1.00207 1.00192 0.988649
1.00363 1.00072 0.987182
0.999648 0.999696 0.995534
1.00015 1.00128 0.993033
1.00357 0.999772 0.988103
1.00331 0.999829 0.988985
1.00451 0.999426 0.987107
1.00423 0.999479 0.987442
0.999664 1.00005 0.995126
1.00031 1.00211 0.991972
1.0012 1.00256 0.989706
1.00405 0.999663 0.987754
1.00473 0.998821 0.987101
1.00285 1.00201 0.987544
1.0043 0.999708 0.986982
1.00413 1.00007 0.98689
1.0002 1.00172 0.992545
1.00032 1.00236 0.991656
1.00012 1.00082 0.993562
1.00463 0.999473 0.986886
1.00445 0.999457 0.987143
1.00501 0.998942 0.986596
1.00479 0.99899 0.98682
1.00468 0.998946 0.98701
1.005 0.998309 0.98714
1.00021 1.00197 0.992262
1.00472 0.99897 0.986834
1.00075 1.00259 0.990678
1.00164 1.00309 0.98828
1.0033 1.0018 0.986967
1.00449 0.999383 0.98719
1.00015 1.00042 0.993934
1.00047 1.00233 0.991462
1.00027 1.00206 0.992048
1.00039 1.00284 0.991166
1.00322 0.99998 0.988687
0.999665 0.998562 0.996644
0.999599 0.999441 0.995831
0.999978 1.00099 0.993673
1.00218 1.0009 0.989688
1.00398 1.00019 0.987101
1.00017 1.00211 0.992182
1.00093 1.00304 0.989919
1.00236 1.00155 0.988868
1.00172 1.00244 0.988892
0.999764 0.998243 0.996803
1.00011 1.00156 0.99286
0.999986 1.00026 0.994386
1.00016 1.00219 0.992195
1.00432 0.99973 0.986919
1.00315 1.00096 0.987863
1.0046 0.999878 0.986237
1.00054 1.00301 0.990733
1.00276 1.0015 0.988246
1.00106 1.00395 0.988832
1.00196 1.0021 0.988799
0.999856 0.997992 0.996897
1.00005 0.999764 0.994771
1.00037 1.00258 0.991498
1.00014 1.00145 0.992947
1.00008 1.00314 0.991413
1.00489 0.999391 0.986232
1.00373 1.00075 0.986997
1.00489 0.999568 0.986039
1.00059 1.0042 0.989489
1.00289 1.00125 0.988052
1.00133 1.00371 0.987976
1.00017 0.999329 0.994998
1.00024 1.00024 0.993982
1.00024 0.999192 0.995011
1.0002 0.999258 0.995016
0.999972 0.997606 0.997443
0.999916 0.997782 0.997184
0.999797 0.996803 0.998403
0.999659 0.996953 0.999302
0.999568 0.997157 0.999286
0.999841 0.998561 0.996318
0.999553 0.997601 0.999141
0.999774 0.998862 0.996145
0.999513 0.997865 0.999075
0.999693 0.999274 0.995883
0.99951 0.998152 0.998946
1.00332 0.999851 0.988647
1.00335 0.999906 0.988537
1.00438 0.99952 0.987047
1.00459 0.99949 0.986694
1.00361 0.999822 0.988137
1.0013 0.999991 0.99212
1.00363 0.999793 0.988117
1.00469 0.999405 0.986575
1.00443 0.999581 0.986903
1.00502 0.998856 0.986507
1.00441 0.999497 0.987001
1.00488 0.99906 0.986581
1.00471 0.999394 0.986551
1.00508 0.998782 0.986471
1.00492 0.999 0.986546
1.00515 0.998322 0.986828
1.00492 0.999133 0.986458
1.00503 0.998301 0.987007
1.00355 0.999747 0.988028
1.00332 0.999837 0.988975
1.00453 0.999384 0.987051
1.00425 0.999537 0.987593
0.999674 1.00007 0.995125
1.00034 1.00213 0.991964
1.0012 1.00254 0.98985
1.00405 0.999714 0.987772
1.00474 0.998742 0.987076
1.00427 0.999709 0.986992
1.00279 1.00199 0.987407
1.00409 1.00002 0.986915
1.00021 1.00166 0.992554
1.00032 1.00234 0.99167
1.00013 1.00082 0.99355
1.00465 0.999443 0.986751
1.00445 0.999459 0.987134
1.005 0.998868 0.986595
1.0048 0.999017 0.986842
1.00024 1.00193 0.992266
1.00081 1.00258 0.990651
1.00157 1.00312 0.988471
1.00466 0.999038 0.987049
1.00499 0.998238 0.987182
1.00321 1.00185 0.98688
1.00475 0.998988 0.986835
1.00446 0.999196 0.987262
1.00049 1.00234 0.991474
1.0004 1.00287 0.99111
1.00014 1.00043 0.993928
1.00025 1.002 0.992121
1.00506 0.998907 0.986419
1.00496 0.998994 0.986664
1.00516 0.998446 0.986706
1.00507 0.998151 0.987121
1.00497 0.998361 0.98702
1.00511 0.997707 0.987465
1.00059 1.00234 0.991243
1.00495 0.998177 0.98724
1.00077 1.00332 0.989672
1.00208 1.00354 0.987317
1.00354 1.00135 0.986797
1.0048 0.99857 0.987415
1.00017 1.00016 0.994161
1.00024 1.00165 0.992499
1.00053 1.0027 0.991019
1.00027 1.00271 0.99152
1.00044 1.00295 0.990956
0.999755 0.998236 0.99681
1.00434 0.999728 0.986908
0.999998 1.00022 0.994403
1.00009 1.00162 0.992862
1.00013 1.00225 0.992186
1.00314 1.00096 0.987874
1.00458 0.999895 0.986234
1.00051 1.00298 0.990751
1.00109 1.00404 0.988788
1.00279 1.00152 0.988285
1.00193 1.00196 0.989078
0.99985 0.997987 0.9969
1.00006 0.999752 0.99478
1.00036 1.00256 0.991503
1.00013 1.00148 0.992952
1.00007 1.00323 0.991307
1.00488 0.99939 0.986215
1.00371 1.00076 0.987006
1.00486 0.999582 0.986019
1.00053 1.00424 0.989502
1.00293 1.00127 0.988096
1.00147 1.00368 0.988044
1.00012 0.999493 0.994934
1.00017 1.0008 0.993552
1.00036 1.00366 0.990452
1.00001 1.00262 0.99205
1.00013 1.0038 0.990777
1.00507 0.99901 0.986209
1.00404 1.00032 0.986823
1.00492 0.998926 0.986385
1.00052 1.00494 0.98867
1.0026 1.00232 0.987496
1.00016 0.999345 0.994995
1.00021 1.00029 0.993905
1.00023 1.00025 0.993946
1.00018 1.00092 0.993534
1.00026 1.00027 0.993924
1.00027 0.999193 0.994953
1.00024 0.9992 0.995008
1.00004 0.997472 0.997457
1.0002 0.999273 0.99501
0.999981 0.997603 0.997445
0.999897 0.996581 0.99843
0.999905 0.997774 0.997412
0.999772 0.996757 0.998863
0.999673 0.996909 0.999309
0.999905 0.998304 0.996459
0.999843 0.998578 0.996308
0.999627 0.997356 0.999178
0.999556 0.997642 0.999128
0.999774 0.998893 0.996129
0.999526 0.997898 0.999051
1.00442 0.999488 0.986996
1.00442 0.999589 0.986898
1.00487 0.999073 0.986577
1.00503 0.99881 0.986529
1.00469 0.999407 0.986575
1.00363 0.999791 0.988116
1.00471 0.999393 0.986553
1.00509 0.998783 0.986461
1.00492 0.999011 0.986541
1.00515 0.998248 0.986911
1.0049 0.999133 0.986445
1.00505 0.998223 0.987044
1.00509 0.998821 0.986423
1.00517 0.998338 0.986815
1.00508 0.998138 0.987071
1.00515 0.997837 0.987354
1.00507 0.998492 0.986713
1.00513 0.997715 0.98755
1.00467 0.999411 0.986615
1.00445 0.999469 0.987125
1.00499 0.998791 0.986594
1.00482 0.999044 0.986864
1.00027 1.00189 0.992271
1.00087 1.00257 0.990623
1.0015 1.00315 0.988661
1.00464 0.999128 0.987089
1.00498 0.998167 0.987224
1.00477 0.999004 0.986837
1.00313 1.00189 0.986793
1.00443 0.999011 0.987334
1.00048 1.00236 0.991485
1.00039 1.00292 0.991053
1.00014 1.00044 0.993922
1.00024 1.00193 0.992194
1.00505 0.99891 0.986427
1.00497 0.99901 0.986608
1.00516 0.998414 0.98672
1.00505 0.998222 0.987076
1.00061 1.00237 0.991229
1.00076 1.00326 0.98983
1.00202 1.00367 0.987287
1.00499 0.99843 0.986992
1.00511 0.997642 0.987514
1.00355 1.00135 0.986753
1.00493 0.998206 0.987237
1.00466 0.998373 0.987621
1.00056 1.0027 0.99102
1.00045 1.00296 0.990945
1.00024 1.00273 0.991514
1.00017 1.00016 0.994087
1.00023 1.0016 0.992549
1.00517 0.998353 0.986788
1.00515 0.998219 0.986918
1.00514 0.997347 0.987773
1.0051 0.997645 0.987437
1.00059 1.00286 0.990721
1.00509 0.997604 0.987648
1.00064 1.004 0.988934
1.00247 1.00377 0.986401
1.00427 1.0001 0.986774
1.00018 0.999931 0.994203
1.00023 1.00132 0.992988
1.00019 1.00234 0.992042
1.00055 1.00279 0.990911
1.00029 1.00316 0.991062
1.00056 1.00282 0.990812
0.999843 0.997983 0.996903
1.00006 0.999739 0.994788
1.00487 0.999388 0.986198
1.00011 1.0015 0.992958
1.00032 1.00255 0.991509
1.00005 1.00331 0.991201
1.00369 1.00077 0.987016
1.00483 0.999596 0.985999
1.00049 1.00429 0.989516
1.00161 1.00369 0.988112
1.00295 1.00127 0.988141
1.00011 0.999498 0.994934
1.00017 1.00079 0.993564
1.00033 1.00367 0.990468
1 1.00262 0.99205
1.00009 1.00381 0.990724
1.00507 0.999055 0.986186
1.00404 1.00032 0.986808
1.0049 0.998825 0.986548
1.00052 1.00496 0.988589
1.00262 1.0025 0.987351
1.00018 1.00046 0.993877
1.00004 1.00191 0.992594
1.00037 1.00421 0.989813
0.999974 1.00359 0.991033
1.00028 1.00391 0.990336
1.00512 0.997511 0.987476
1.0042 1.00034 0.986734
1.00485 0.998038 0.987131
1.00128 1.00466 0.988149
1.00255 1.00236 0.986736
1.00016 0.999362 0.994992
1.00021 1.00028 0.993951
1.00013 1.00104 0.993322
1.00022 1.00026 0.99391
1.00026 1.00027 0.993924
1.00015 1.00093 0.993473
1.00007 1.00145 0.993175
1.00014 1.00095 0.993417
1.00028 1.0003 0.993864
1.00028 0.999257 0.994874
1.00027 0.999199 0.994954
1.00009 0.997407 0.997427
1.00023 0.999206 0.995005
1.00004 0.997479 0.997454
0.999968 0.996437 0.998438
0.999989 0.997599 0.997448
0.999887 0.996554 0.998434
0.999744 0.996702 0.99933
0.999965 0.998066 0.996592
0.999909 0.998315 0.996451
0.999707 0.997112 0.999213
0.999845 0.998598 0.996297
0.999622 0.997405 0.999166
0.99956 0.997673 0.999115
1.00489 0.999132 0.986432
1.00493 0.999025 0.986537
1.00507 0.998143 0.98708
1.00516 0.998172 0.986993
1.0051 0.998784 0.986451
1.00471 0.999394 0.986554
1.00509 0.998857 0.986389
1.00517 0.998371 0.986776
1.0051 0.998183 0.986995
1.00515 0.997744 0.987408
1.00507 0.998515 0.986717
1.00513 0.997572 0.987597
1.00516 0.998406 0.98676
1.00515 0.997811 0.987337
1.00515 0.997412 0.987725
1.00513 0.997404 0.987795
1.00504 0.998913 0.986434
1.00497 0.999023 0.986552
1.00515 0.998385 0.986734
1.00503 0.998292 0.987031
1.00065 1.00238 0.991215
1.00076 1.0032 0.989988
1.00197 1.00377 0.987256
1.005 0.998498 0.986964
1.0051 0.997576 0.987563
1.00492 0.998236 0.987233
1.00356 1.00134 0.986709
1.00455 0.998192 0.987825
1.00058 1.0027 0.991021
1.00048 1.00295 0.990935
1.00022 1.00276 0.991509
1.00016 1.00015 0.994011
1.00023 1.00155 0.992599
1.00516 0.998363 0.986787
1.00514 0.998227 0.986951
1.00514 0.997443 0.987692
1.00064 1.00286 0.990702
1.00078 1.00395 0.989103
1.00244 1.00379 0.986356
1.0051 0.997676 0.98746
1.00421 0.999952 0.986921
1.00503 0.997599 0.987636
1.00018 0.9999 0.994232
1.00058 1.00279 0.990898
1.00053 1.0028 0.990879
1.00029 1.00321 0.991015
1.00019 1.00233 0.992067
1.00023 1.00131 0.992923
1.00516 0.998001 0.987074
1.00512 0.997305 0.987874
1.00512 0.996895 0.988133
1.0051 0.997041 0.988106
1.0006 1.00324 0.990358
1.00492 0.997899 0.987432
1.00119 1.00499 0.987292
1.00319 1.00297 0.986024
1.00019 0.999694 0.994427
1.00023 1.00106 0.993251
1.00019 1.00208 0.992365
1.00016 1.00292 0.991487
1.00061 1.00301 0.990597
1.0006 1.00291 0.990685
1.00011 0.999503 0.994935
1.00016 1.00077 0.993576
1.00507 0.999101 0.986162
0.999999 1.00262 0.992049
1.00029 1.00367 0.990484
1.00003 1.00386 0.990671
1.00404 1.00031 0.986793
1.00491 0.998727 0.986711
1.00052 1.00496 0.988508
1.00265 1.00268 0.987206
1.00019 1.00044 0.993883
1.00006 1.00188 0.992635
1.00033 1.00429 0.989869
0.999945 1.00367 0.991029
1.00019 1.00385 0.990473
1.00511 0.997544 0.987646
1.00426 1.00027 0.986646
1.00498 0.997921 0.9872
1.00112 1.00471 0.988076
1.00274 1.00253 0.986597
1.00009 1.00128 0.993137
0.999945 1.00292 0.991659
1.00055 1.00428 0.989476
0.999984 1.00424 0.990045
1.00514 0.996129 0.988932
1.00511 0.996773 0.98832
1.00427 0.999922 0.986662
1.00151 1.00425 0.986902
1.00022 1.00026 0.993997
1.00014 1.00106 0.993349
1.00001 1.00174 0.992961
1.00026 1.00027 0.993923
1.00013 1.00093 0.993412
1.00028 1.00029 0.993864
1.00005 1.00146 0.993128
1.00016 1.00092 0.993438
1.00001 1.00185 0.992833
1.0001 1.00137 0.993115
1.00018 1.00096 0.993333
1.00028 1.00036 0.99379
1.00027 0.99934 0.994804
1.00027 0.999262 0.994873
1.00012 0.997409 0.997372
1.00026 0.999202 0.994954
1.00009 0.997432 0.997418
1.00002 0.99637 0.99841
1.00005 0.997488 0.997451
0.99996 0.996411 0.998443
0.999879 0.99653 0.998435
1.00002 0.997842 0.996714
0.99997 0.998071 0.996585
0.999786 0.996879 0.999245
0.999913 0.998327 0.996443
0.999699 0.99716 0.999202
0.999619 0.997452 0.999154
1.00506 0.998537 0.986721
1.00513 0.99823 0.986919
1.00513 0.99743 0.987645
1.00515 0.997654 0.987462
1.00517 0.998405 0.986738
1.00509 0.998894 0.986355
1.00516 0.998402 0.986759
1.00514 0.99784 0.98731
1.00514 0.997422 0.987707
1.00515 0.997357 0.987799
1.00516 0.99797 0.98718
1.00514 0.997176 0.988018
1.00515 0.996817 0.988227
1.00516 0.998373 0.986786
1.00513 0.998237 0.986984
1.00513 0.997542 0.987612
1.00069 1.00286 0.990684
1.00091 1.00388 0.989271
1.00239 1.00388 0.986312
1.0051 0.997707 0.987484
1.00497 0.997593 0.987624
1.00415 0.999809 0.987069
1.00061 1.00278 0.990885
1.00049 1.0028 0.990947
1.0003 1.00324 0.990968
1.00018 0.999871 0.994262
1.00019 1.00232 0.992092
1.00022 1.0013 0.992858
1.00516 0.998041 0.987088
1.00513 0.99728 0.987921
1.00512 0.996937 0.98813
1.00064 1.00325 0.990311
1.00108 1.00486 0.98763
1.0032 1.00281 0.986082
1.0051 0.997049 0.988093
1.00494 0.997972 0.98738
1.00019 0.99967 0.994527
1.00023 1.00106 0.993251
1.00053 1.0029 0.990648
1.00059 1.00282 0.990871
1.00018 1.00291 0.99145
1.00017 1.00211 0.992317
1.00515 0.997316 0.98783
1.00509 0.996364 0.988804
1.00509 0.996361 0.988664
1.00507 0.99686 0.988447
1.00045 1.00404 0.98945
1.0041 1.00034 0.986599
1.00193 1.00479 0.986761
1.00021 0.999512 0.994752
1.00018 1.00063 0.993711
1.00021 1.00089 0.993308
1.00015 1.00192 0.992508
1.00006 1.00278 0.991794
1.00005 1.00338 0.991078
1.00091 1.00178 0.991076
1.00048 1.00275 0.991683
1.00019 1.00042 0.993889
1.00008 1.00186 0.992675
1.00511 0.997579 0.987816
0.999953 1.00372 0.991025
1.00029 1.00439 0.989926
1.00009 1.00379 0.99061
1.0043 1.00017 0.986558
1.0051 0.997786 0.987268
1.00096 1.00473 0.988003
1.00292 1.00265 0.986457
1.00011 1.0013 0.993094
0.999973 1.00296 0.991661
1.00048 1.00431 0.989521
1.0001 1.00425 0.990138
1.00513 0.996137 0.989009
1.00511 0.996894 0.988149
1.00434 0.999907 0.986702
1.00181 1.00418 0.986749
0.999981 1.00211 0.992608
1.00515 0.995471 0.989427
0.999991 1.00409 0.99082
1.00066 1.00463 0.988849
1.00511 0.995823 0.989342
1.005 0.997507 0.987424
1.00313 1.00296 0.986264
1.00014 1.00107 0.993376
1 1.00174 0.992953
0.999907 1.00228 0.992602
1.00028 1.00028 0.993864
1.00017 1.0009 0.993459
1.00003 1.00147 0.993081
1.00029 1.00035 0.993787
1.00018 1.00096 0.993346
1 1.00188 0.992783
1.00011 1.00134 0.993162
1 1.00208 0.992535
1.00011 1.00167 0.992773
1.00015 1.00133 0.993113
1.00027 1.00095 0.993229
1.00028 1.00045 0.993706
1.00025 0.999406 0.994759
1.00027 0.999343 0.994804
1.00014 0.997431 0.997318
1.00027 0.99927 0.994873
1.00012 0.997438 0.997364
1.00005 0.996347 0.998375
1.00009 0.997456 0.997409
1.00002 0.996337 0.998417
0.999953 0.996386 0.998447
1.00021 0.999387 0.99487
1.00007 0.997655 0.996817
1.00003 0.997848 0.996708
0.99986 0.996668 0.999275
0.999976 0.998077 0.996578
0.999778 0.996924 0.999235
0.999692 0.997209 0.99919
1.00516 0.99731 0.987802
1.00514 0.99743 0.987689
1.00514 0.997862 0.987283
1.00516 0.998398 0.986758
1.00515 0.997939 0.987224
1.00514 0.997177 0.987997
1.00515 0.996792 0.988222
1.00517 0.997211 0.987888
1.00513 0.996543 0.98871
1.00513 0.995186 0.989572
1.00517 0.99808 0.987101
1.00513 0.997254 0.987968
1.00512 0.99698 0.988127
1.00068 1.00326 0.990264
1.00097 1.00473 0.987969
1.0032 1.00263 0.98614
1.00509 0.99706 0.988079
1.00495 0.998027 0.987328
1.00046 1.00278 0.990699
1.0006 1.00273 0.991051
1.00014 1.00295 0.991413
1.0002 0.999642 0.994627
1.00023 1.00106 0.993251
1.00015 1.00214 0.992269
1.00515 0.997239 0.98793
1.00021 0.999505 0.994751
1.00016 1.00065 0.993666
1.00508 0.99643 0.988788
1.0051 0.996348 0.988609
1.00037 1.00409 0.989705
1.00185 1.00473 0.986671
1.00405 1.00033 0.986601
1.00501 0.99684 0.988386
1.00021 1.00087 0.993445
1.00015 1.00191 0.992502
1.00104 1.00197 0.990759
1.00027 1.00236 0.992047
1.00003 1.00346 0.991025
1.00008 1.00274 0.991803
1.00516 0.996082 0.989024
1.00512 0.99597 0.989229
1.00507 0.995777 0.98907
1.00478 0.9971 0.988147
1.00074 1.00345 0.989801
1.0027 1.0036 0.986439
1.00014 1.00056 0.993728
1.00019 1.00076 0.993559
1.00009 1.00155 0.993072
1.00013 1.0018 0.992518
1.00003 1.00267 0.992074
0.999912 1.00341 0.991191
0.999747 1.00433 0.990899
1.00043 1.00159 0.992184
1.00012 1.00132 0.99305
1 1.00299 0.991663
1.00512 0.99613 0.989086
1.00511 0.997047 0.987978
1.00021 1.00426 0.990232
1.00042 1.00433 0.989564
1.00442 0.999905 0.986744
1.00212 1.00416 0.986595
0.999979 1.00213 0.992581
1.00514 0.995503 0.989449
0.999924 1.00398 0.990875
1.00066 1.00457 0.988757
1.00512 0.995746 0.989238
1.00502 0.99745 0.987601
1.00303 1.00305 0.98633
0.999908 1.00324 0.99172
1.00506 0.995111 0.990685
1.00051 1.00434 0.990059
1.00143 1.00473 0.987906
1.00503 0.996564 0.988738
1.0036 1.00065 0.987121
0.999926 0.999311 0.992607
0.999998 1.00174 0.992946
0.999899 1.0023 0.992591
1 1.0025 0.992225
1.00029 1.00035 0.993784
1.00017 1.00096 0.993359
1.00011 1.0013 0.993208
0.999998 1.00191 0.992733
1.00028 1.00044 0.993702
1.00025 1.00094 0.993226
1.00002 1.00211 0.992502
1.00015 1.00133 0.993108
1.00011 1.00169 0.992816
1.00013 1.00186 0.992564
1.00019 1.00139 0.992926
1.00021 1.00126 0.993046
1.00035 1.00099 0.99305
1.0003 1.0005 0.993544
1.00025 1.00104 0.993262
1.00028 1.0005 0.993569
1.00025 0.999432 0.994748
1.00025 0.999407 0.99476
1.00016 0.99749 0.996802
1.00026 0.999349 0.994805
1.00015 0.997461 0.997076
1.00003 0.996293 0.999303
1.00012 0.997467 0.997356
1.00006 0.996308 0.99838
1.00001 0.996304 0.998423
1.00019 0.999324 0.994957
1.00021 0.999385 0.994867
1.00011 0.99752 0.996887
1.00006 0.997657 0.997051
0.999923 0.996493 0.999299
1.00003 0.997854 0.996702
0.999851 0.996709 0.999266
0.999769 0.996968 0.999225
1.00516 0.996768 0.988218
1.00515 0.997175 0.987976
1.00515 0.997912 0.987268
1.00517 0.997205 0.987874
1.00514 0.996515 0.988658
1.00513 0.995296 0.989589
1.00515 0.99586 0.989136
1.00101 0.999889 0.988469
1.00508 0.99495 0.990899
1.00012 1.00054 0.993907
1.00515 0.99716 0.988031
1.00508 0.996488 0.988772
1.00511 0.996393 0.988553
1.00029 1.00414 0.989959
1.00177 1.0047 0.986581
1.00399 1.00035 0.986602
1.00495 0.996839 0.988325
1.00117 1.00216 0.990449
1.00005 1.00196 0.992421
1.00003 1.0035 0.990973
1.00021 0.999502 0.994751
1.0001 1.0027 0.991813
1.00022 1.00084 0.993582
1.00015 1.00192 0.992495
1.00015 1.00066 0.993621
1.00517 0.995976 0.989121
1.00014 1.00055 0.9938
1.0002 1.00075 0.993556
1.0001 1.00154 0.992976
1.00512 0.995859 0.989223
1.00504 0.995993 0.988971
1.00083 1.00321 0.989874
1.00237 1.00353 0.986535
1.00477 0.997371 0.988137
1.00013 1.00182 0.992576
1.00004 1.00265 0.992028
1.00035 1.00199 0.991853
0.999763 1.00412 0.991064
0.999956 1.00342 0.991252
1.00511 0.995255 0.989895
1.00502 0.996395 0.989115
1.00508 0.99619 0.988699
1.00337 1.00056 0.987982
1.00059 1.00338 0.990191
1.00011 1.00142 0.992935
1.00009 1.00168 0.992723
1.00006 1.00217 0.992489
1.00002 1.00258 0.992039
0.999931 1.00324 0.991563
0.999771 1.00422 0.990803
0.999726 1.00456 0.990511
0.999983 1.00215 0.992554
0.999849 1.00386 0.99093
1.00513 0.995548 0.989471
1.00514 0.99567 0.989135
1.00502 0.99737 0.987777
1.00065 1.0045 0.988665
1.00292 1.00312 0.986396
0.999876 1.00315 0.991869
1.00505 0.995089 0.990652
1.00027 1.00431 0.990123
1.00112 1.00483 0.987992
1.00503 0.996255 0.988847
1.00363 1.00062 0.987076
0.999858 0.999399 0.99102
1.00003 1.00359 0.991169
1.00472 0.99567 0.991243
1.00021 1.00454 0.990005
1.00153 1.00399 0.98788
1.00409 0.997286 0.988493
1.00146 0.995176 0.960024
0.996046 0.999578 0.978382
0.999053 1.00035 0.993181
0.999542 0.997175 0.939412
0.995012 0.998155 0.931692
0.999901 1.00231 0.99258
0.999949 1.00253 0.992288
1 1.00221 0.992543
1.00028 1.00044 0.993698
1.00025 1.00092 0.993223
1.00015 1.00133 0.993104
1.00011 1.0017 0.99286
1.00005 1.00212 0.992468
1.00022 1.00124 0.993016
1.00028 1.0005 0.993599
1.00034 1.00098 0.993073
1.00013 1.00188 0.992578
1.00019 1.00141 0.99293
1.00023 1.00132 0.992891
1.00018 1.00127 0.993033
1.00033 1.00123 0.992871
1.00039 1.00106 0.992859
1.00029 1.00052 0.993539
1.00034 1.00104 0.993051
1.00028 1.00129 0.992944
1.00016 1.00108 0.993285
1.00026 1.00105 0.993202
1.00027 1.00044 0.993721
1.00028 1.00051 0.993561
1.00025 0.999422 0.994763
1.00025 0.99943 0.994748
1.00015 0.997541 0.996786
1.00025 0.999406 0.994761
1.00016 0.997494 0.996801
1.00003 0.996301 0.999296
1.00016 0.99749 0.996835
1.00005 0.996296 0.998829
1.00006 0.996268 0.998385
1.00018 0.999277 0.995024
1.0002 0.999317 0.994956
1.00013 0.997431 0.996933
1.00022 0.999382 0.994863
1.0001 0.997504 0.997121
0.999973 0.996368 0.999314
1.00007 0.997677 0.9968
0.999913 0.996555 0.999288
0.999842 0.996748 0.999257
1.00514 0.996483 0.988605
1.00517 0.997202 0.987861
1.00513 0.995422 0.989605
1.00099 0.99904 0.988587
1.00515 0.995875 0.989183
1.00508 0.995175 0.990829
1.00507 0.995864 0.990189
0.997571 0.999851 0.97519
1.00245 0.99668 0.989717
1.00012 1.00052 0.993932
1.00013 1.00052 0.993907
1.00008 1.00138 0.993132
1.00009 1.00131 0.993198
1.00517 0.995892 0.989218
1.00512 0.995772 0.989218
1.00508 0.996102 0.988871
1.00092 1.00301 0.989947
1.00205 1.0034 0.986629
1.00479 0.997692 0.988127
1.00028 1.00243 0.99151
0.999794 1.00392 0.991228
0.999999 1.00343 0.991312
1.00019 1.00077 0.993553
1.00005 1.00261 0.991982
1.00012 1.00184 0.992635
1.00014 1.00055 0.993871
1.0001 1.00155 0.99288
1.00508 0.995338 0.989867
1.0001 1.00144 0.99304
1.0001 1.00168 0.992768
1.00004 1.00213 0.992492
1.00504 0.996009 0.989173
1.00508 0.996131 0.988674
1.00069 1.00324 0.990167
1.0034 1.0007 0.987927
1.00003 1.00263 0.992038
0.999899 1.00322 0.991618
0.999757 1.00455 0.990512
0.999865 1.00427 0.990747
1.00505 0.99605 0.989487
1.00506 0.995624 0.989514
1.00415 0.99866 0.9883
1.00075 1.00347 0.989946
1.00009 1.00218 0.992281
1 1.00238 0.992259
0.999858 1.00355 0.991354
0.999893 1.00506 0.989774
1.00072 0.995013 0.956127
0.999836 1.00306 0.992017
1.00002 1.00429 0.990186
1.00503 0.99505 0.990614
1.00506 0.995924 0.988955
1.00365 1.00054 0.98703
1.0008 1.00491 0.988077
0.999779 0.999499 0.989407
0.9999 1.00364 0.99129
1.0047 0.995478 0.991183
1.00009 1.00454 0.99006
1.00149 1.00398 0.987846
1.0043 0.99735 0.98852
1.00184 0.995442 0.956297
0.995793 0.999497 0.974557
0.999127 1.00028 0.993316
0.998517 0.997471 0.940633
0.994773 0.998142 0.926839
0.999719 1.0036 0.991841
0.999981 0.994963 0.942295
0.994902 0.999643 0.933192
1.0042 0.99614 0.991419
0.999748 1.00488 0.990319
1.00211 1.00142 0.98877
0.998207 1.00046 0.99531
0.999106 0.997562 0.960436
0.994851 0.999509 0.973874
0.99774 0.999576 0.941576
0.994638 0.999888 0.936545
0.999883 1.00258 0.99235
0.99996 1.00229 0.992518
0.999977 1.00128 0.993642
1.00027 1.0005 0.993653
1.00034 1.00097 0.993097
1.00021 1.00125 0.992986
1.00019 1.00143 0.992935
1.00012 1.00191 0.992593
1.00029 1.00052 0.993538
1.00024 1.00135 0.99287
1.00032 1.00124 0.992892
1.00039 1.00105 0.992929
1.00018 1.00125 0.993072
1.00032 1.00121 0.992866
1.00027 1.00049 0.993654
1.00042 1.00125 0.992695
1.00038 1.00104 0.992969
1.00035 1.00103 0.993046
1.00029 1.00127 0.992933
1.00041 1.00118 0.992772
1.00017 1.00136 0.992995
1.00024 1.00129 0.992945
0.999893 1.00209 0.992741
1.00008 1.00117 0.993334
1.00016 1.00109 0.993286
1.00025 1.00043 0.993777
1.00026 1.00106 0.993142
1.00027 1.00046 0.99368
1.00025 0.999395 0.994794
1.00028 1.00053 0.993554
1.00025 0.999413 0.994763
1.00011 0.997565 0.997283
1.00025 0.999428 0.994747
1.00014 0.997532 0.997031
1.00008 0.996327 0.998321
1.00016 0.997499 0.9968
1.00003 0.996307 0.999294
1.00008 0.9963 0.998353
1.00015 1.0005 0.993904
1.00018 0.99924 0.995059
1.00019 0.999271 0.995025
1.00014 0.997365 0.996976
1.0002 0.999311 0.994955
1.00014 0.997418 0.996932
1.00001 0.996277 0.999325
1.00009 0.997509 0.997347
0.999986 0.996412 0.99884
0.999955 0.996593 0.998333
1.00084 0.998171 0.98872
1.00516 0.99587 0.98923
1.00509 0.995375 0.990758
0.997005 0.999026 0.977001
1.00229 0.997062 0.98996
1.00506 0.995432 0.990204
1.00435 0.995686 0.990373
0.998398 0.996715 0.979659
1.00039 0.995656 0.959047
0.998334 0.997283 0.942473
0.994665 0.998233 0.930599
1.00006 1.00139 0.993082
1.00013 1.00052 0.993931
1.00014 1.00051 0.993907
1.00009 1.00139 0.993099
1.00002 1.00194 0.992673
1.00013 1.00174 0.992761
1.00012 1.00133 0.993161
1.00008 1.00135 0.993149
1.00507 0.995404 0.989838
1.00507 0.995605 0.989227
1.005 0.996143 0.988651
1.00078 1.00305 0.990144
1.00341 1.00075 0.987871
0.999786 1.00452 0.990514
0.999953 1.00433 0.990692
0.999874 1.00321 0.991672
1.0001 1.00168 0.992813
1.00003 1.00269 0.992036
1.00011 1.00146 0.993146
1.00004 1.00206 0.992496
1.00504 0.995903 0.989483
1.00007 1.00216 0.992378
1.00002 1.00239 0.992258
1.005 0.995629 0.989388
1.00379 0.998286 0.988636
1.00091 1.00337 0.989744
0.99991 1.00355 0.991351
0.999984 1.00497 0.989787
1.00352 1.00026 0.989644
1.00458 0.996121 0.990402
1.00175 1.00025 0.989646
1.00037 1.00378 0.990185
1.00009 1.00218 0.992238
0.999997 1.00282 0.99186
0.999854 1.00424 0.990735
0.999981 0.994929 0.940224
1.00128 0.994958 0.962141
0.999792 1.00369 0.991411
0.999979 1.00451 0.990115
1.00468 0.995266 0.991128
1.00449 0.997443 0.988545
1.00146 1.004 0.987812
1.00084 0.994954 0.957903
0.996097 0.999898 0.974842
0.999146 1.00008 0.993456
0.998026 0.99728 0.944691
0.994643 0.998138 0.921986
0.999693 1.00349 0.991848
1 0.995175 0.940688
0.994874 0.999629 0.930795
1.00424 0.996279 0.991385
0.999665 1.00487 0.990416
1.00177 1.0014 0.989289
0.998554 0.999783 0.996074
0.999722 0.997887 0.957231
0.995337 0.99924 0.976625
0.997267 0.999672 0.941989
0.994811 0.99989 0.934514
0.999315 1.0033 0.992797
0.994841 0.999705 0.935567
0.994591 1.00345 0.949998
1.00132 0.998183 0.994271
0.99926 1.00422 0.992238
0.997011 1.00212 0.99654
0.995287 0.999818 0.98008
0.996418 1.00006 0.956287
0.995636 0.999923 0.944855
0.994487 0.999908 0.944219
0.999944 1.00233 0.992493
0.999973 1.00144 0.993465
0.999725 0.999857 0.995178
1.00029 1.00052 0.993537
1.00038 1.00104 0.993
1.0003 1.00125 0.992911
1.00025 1.00138 0.992849
1.00018 1.00123 0.99311
1.00038 1.00105 0.992967
1.00032 1.00126 0.99287
1.00042 1.00125 0.992693
1.00017 1.00046 0.99384
1.00001 0.99965 0.995055
1.00045 1.0008 0.993071
1.00047 1.00123 0.992634
1.00036 1.00103 0.99304
1.0003 1.00125 0.992921
1.0004 1.00119 0.992771
1.00018 1.00136 0.992989
1.00024 1.00128 0.992955
1.00005 1.00156 0.99299
1.00034 1.00119 0.992826
1.00012 1.00136 0.99309
0.999991 1.00256 0.992109
0.999655 1.00457 0.99053
0.999766 1.00276 0.992133
0.999888 1.00215 0.992719
1.00001 1.00139 0.993248
1.00008 1.00119 0.99333
1.00021 1.00044 0.993839
1.00016 1.00111 0.993287
1.00025 1.00043 0.993779
1.00023 0.999389 0.99483
1.00028 1.00047 0.993638
1.00025 0.999386 0.994795
1.00008 0.997594 0.997307
1.00025 0.999406 0.994763
1.00012 0.997555 0.997047
1.00005 0.996329 0.998333
1.00016 0.99752 0.996789
1.00003 0.996329 0.99929
1.00003 0.996313 0.999292
1.00018 1.00055 0.993977
1.00019 0.999253 0.99503
1.00014 1.00051 0.993902
1.00015 0.997336 0.997
1.00019 0.999242 0.995059
1.00019 0.999266 0.995025
1.00015 0.997366 0.996974
1.00003 0.996218 0.999335
1.00011 0.997411 0.997393
1.00003 0.996292 0.998858
1.00002 0.996415 0.998376
0.999954 0.995204 0.938725
0.9952 0.99915 0.933725
0.997835 0.99824 0.978086
1.00214 0.99748 0.9902
1.00504 0.995042 0.99022
0.997757 0.996846 0.982112
1.00433 0.996 0.990413
1.00109 0.995253 0.959655
0.998783 0.996908 0.939405
0.994637 0.998192 0.925666
0.999211 0.997485 0.985644
0.998491 0.997937 0.961761
0.997712 0.999477 0.940589
0.994675 0.999914 0.934202
1.00012 1.00193 0.992519
1.00006 1.00138 0.993115
1.00013 1.0005 0.993929
1.00009 1.00138 0.993066
1.00003 1.00187 0.992739
1.00014 1.00184 0.99261
1.00014 1.00171 0.992733
1.00016 1.00145 0.992918
1.00012 1.00134 0.993106
1.00007 1.00138 0.993099
1.00503 0.995699 0.989482
1.00495 0.995669 0.989271
1.00343 0.997839 0.988974
1.00105 1.00333 0.989541
1.00009 1.00487 0.9898
0.999961 1.00356 0.991348
1.00003 1.0024 0.992258
1.00004 1.00215 0.992474
1.00358 0.999162 0.989789
1.0001 1.00222 0.992229
1.00001 1.00279 0.99186
1.00448 0.995905 0.990189
1.00162 1.00074 0.989887
1.00048 1.0039 0.989873
0.999954 1.00421 0.990627
1.00069 1.00142 0.992977
1.00156 0.998875 0.993099
0.999866 1.00376 0.990819
1.00008 1.00235 0.992179
1.00015 1.00227 0.992018
1.00009 1.00291 0.99159
0.994707 0.999442 0.943373
0.999968 0.995304 0.942608
1.00078 0.994938 0.955838
0.999641 1.00344 0.991856
0.999587 1.00485 0.990517
1.00433 0.99637 0.991348
1.00138 1.00148 0.989808
0.999965 0.995237 0.943461
0.998713 0.99767 0.958109
0.99488 0.999 0.973902
0.99898 0.998565 0.996774
0.997735 0.999582 0.937869
0.99484 0.9996 0.931267
0.994976 0.999898 0.935237
0.999226 1.00335 0.992818
0.994882 0.999787 0.938155
0.994766 1.00356 0.9495
1.00147 0.998159 0.994355
0.998844 1.00446 0.992228
0.996659 0.999846 0.999563
0.9953 0.999473 0.976977
0.996516 1.00003 0.961285
0.997654 0.999927 0.941121
0.994521 0.999918 0.945376
0.99837 1.00241 0.995558
0.994317 1.0026 0.958146
0.993969 1.0038 0.963242
0.996822 1.00194 0.99831
0.995283 1.00028 0.986398
0.995394 1 0.960764
0.995113 0.999985 0.942873
0.994643 0.999809 0.943314
0.999955 1.00161 0.993291
0.999795 0.999838 0.995231
0.999351 0.999229 0.996518
1.00038 1.00105 0.992965
1.00043 1.00125 0.992692
1.00032 1.0013 0.992874
1.00008 1.00043 0.994027
1.00046 1.00124 0.992636
1.00043 1.00086 0.993031
1 0.999404 0.995244
0.999293 0.999094 0.996788
1.00027 0.999909 0.994342
1.00043 1.00109 0.992764
1.0004 1.00119 0.99277
1.00018 1.00135 0.992982
1.00024 1.00128 0.992965
1.00033 1.00121 0.992839
1.00004 1.00161 0.992976
1.00014 1.00134 0.993086
1.00005 1.00171 0.992877
1.00004 1.00123 0.993354
0.999996 1.00235 0.992235
1.00001 1.0025 0.992186
0.999715 1.00394 0.991138
1.00033 1.00485 0.989285
0.999837 1.00371 0.991447
0.999631 1.00455 0.990658
0.999787 1.00278 0.992254
0.999935 1.00183 0.992808
0.999882 1.00221 0.992697
1.00002 1.00141 0.993237
1.00017 1.0005 0.993843
1.00009 1.0012 0.993326
1.00021 1.00044 0.993839
1.00019 0.999431 0.994855
1.00026 1.00043 0.993781
1.00023 0.99938 0.994832
1.00004 0.997648 0.997331
1.00025 0.999377 0.994796
1.00009 0.997587 0.997074
1.00001 0.996395 0.998352
1.00014 0.997536 0.996806
1.00003 0.996346 0.99881
1.00002 0.996337 0.999291
1.0002 1.00063 0.993723
1.0002 0.99931 0.994966
1.00016 1.00056 0.993852
1.00014 0.997362 0.996986
1.00019 0.999256 0.995032
1.00013 1.00053 0.993899
1.00003 0.996202 0.999338
1.00015 0.997336 0.996999
1.00019 0.99924 0.995059
1.00015 0.997368 0.996972
1.00003 0.996226 0.999332
1.00001 0.996292 0.99932
0.994792 0.999048 0.94057
0.999951 0.995213 0.940498
0.994931 1.00374 0.949181
0.99512 0.999462 0.932054
0.998549 0.996975 0.978136
1.00428 0.996539 0.99044
1.00086 0.99511 0.960238
0.999584 0.997726 0.94339
0.994636 0.998127 0.92073
0.998847 0.997627 0.984181
0.999627 0.99724 0.955653
0.997522 0.999467 0.941242
0.994661 0.999885 0.931534
0.995402 1.00045 0.981837
0.997988 1.00009 0.955813
0.995544 0.999871 0.93967
0.994565 0.999833 0.93975
1.00014 1.00219 0.992267
1.0001 1.00193 0.992576
1.00006 1.00142 0.993148
1.00004 1.00182 0.992804
1.0002 1.00194 0.992315
1.00015 1.00182 0.992644
1.00014 1.0017 0.992706
1.00024 1.00139 0.992917
1.00018 1.00143 0.992978
1.00013 1.00134 0.993052
1.00348 0.998081 0.989946
1.00441 0.995722 0.989978
1.00151 1.00126 0.990125
1.00062 1.00396 0.989565
1.00003 1.00419 0.99052
1.00002 1.00275 0.991859
1.00011 1.00225 0.992221
1.0001 1.00234 0.992168
1.00069 1.00059 0.993233
1.00015 1.00236 0.992043
1.00011 1.00299 0.99151
1.00161 0.999027 0.992742
1.00021 1.00353 0.990742
0.998976 0.999456 0.995695
0.999297 0.999705 0.996988
1.00007 1.00212 0.992048
1.00023 1.00213 0.992104
1.00023 1.0025 0.991727
0.993965 1.00194 0.963226
0.994731 0.999899 0.942823
0.999938 0.995802 0.939181
0.999147 1.00344 0.992833
0.998506 1.00463 0.992204
1.00155 0.998199 0.994447
0.994897 0.999644 0.939836
0.99747 1.00001 0.956504
0.994876 0.999163 0.978181
0.996467 0.998788 1.00278
0.995816 0.999931 0.944341
0.994972 1.0037 0.949014
0.994508 0.999912 0.945605
0.998347 1.00226 0.995675
0.994371 1.00213 0.960342
0.993981 1.00391 0.963057
0.996892 1.0025 0.99835
0.99511 1.00021 0.986695
0.996378 0.999999 0.955913
0.994566 0.999813 0.945185
0.995031 0.99997 0.94514
0.997099 1.00235 0.997988
0.993368 1.00313 0.97942
0.994018 1.00343 0.965467
0.994609 0.999818 0.93982
0.995009 1.00147 0.996
0.996168 0.999048 0.962572
0.994709 1.00004 0.945933
0.999915 0.999793 0.995279
0.999427 0.999382 0.996296
0.9987 0.999176 0.997916
1.00045 1.00124 0.992638
1.00041 1.00092 0.992992
1.00001 0.999135 0.995435
1.00042 1.00113 0.992758
1.00026 0.999847 0.99434
0.999518 0.998999 0.996529
0.999041 0.998914 0.997432
1.00014 1.00077 0.993651
1.00032 1.00123 0.992853
1.00003 1.00165 0.992962
1.00016 1.00132 0.993082
1.00007 1.00122 0.993319
1.00007 1.00164 0.992922
0.999539 1.00228 0.993203
0.999774 1.00253 0.992485
1.00001 1.00391 0.990586
1.00005 1.00242 0.992264
0.999906 1.0039 0.991047
1.00031 1.00486 0.988931
1.00032 1.00494 0.989044
0.99993 1.00409 0.99075
1.00025 1.00478 0.989358
0.999952 1.00258 0.992218
0.999826 1.00376 0.991321
0.999604 1.00455 0.990786
0.99981 1.0028 0.992376
0.999951 1.00179 0.992903
1.00013 1.0007 0.993711
1.00003 1.00142 0.993227
1.00017 1.00052 0.993838
1.00014 0.999516 0.99486
1.00022 1.00044 0.993838
1.0002 0.999417 0.994857
0.999964 0.997744 0.997346
1.00024 0.999367 0.994833
1.00004 0.997649 0.997099
0.999943 0.996492 0.998367
1.0001 0.997569 0.996836
0.999986 0.996406 0.998822
0.999994 0.996377 0.999296
1.00025 1.00071 0.993394
1.0002 0.999427 0.994681
1.00021 1.00063 0.993722
1.00013 0.997443 0.996936
1.0002 0.99932 0.994876
1.00015 1.00056 0.993727
1.00002 0.996239 0.999333
1.00014 0.997361 0.996988
1.00019 0.999257 0.995034
1.00003 0.996203 0.999338
1.00015 0.997337 0.996999
1.00002 0.996237 0.999329
0.994034 1.00217 0.961673
0.994806 0.998902 0.941238
0.999903 0.995037 0.941174
1.00028 1.00132 0.992842
0.993905 1.00367 0.964877
0.99494 1.00378 0.948728
0.995103 0.999687 0.933339
0.998949 0.998068 0.982635
0.998828 0.998731 0.961737
0.99779 0.999518 0.937111
0.994655 0.999893 0.931968
0.99557 0.999967 0.977693
0.996806 0.999986 0.960618
0.997589 0.999925 0.942086
0.994597 0.999869 0.93946
0.995224 0.999968 0.973825
0.995199 1.0004 0.959087
0.994762 0.999956 0.945514
0.994594 0.999759 0.943397
1.00022 1.00216 0.992125
1.00013 1.0022 0.992246
1.0001 1.00191 0.992632
1.00023 1.0018 0.992442
1.0002 1.00194 0.992391
1.00014 1.0018 0.992678
1.00024 1.00141 0.992919
1.00019 1.00142 0.993038
1.00082 0.999837 0.993464
1.00163 0.999194 0.992375
1.00011 1.00233 0.992155
1.00054 1.00343 0.990662
1.00013 1.00304 0.99143
1.00013 1.00243 0.992067
1.00022 1.00218 0.992128
0.998989 0.99962 0.996067
1.00019 1.00242 0.991897
1.00029 1.00202 0.992086
0.999358 0.998999 0.99696
1.00026 1.00196 0.992319
0.997574 0.999718 0.996985
0.997946 1.0006 0.998802
1.00019 1.00141 0.992618
1.00021 1.00169 0.992603
0.993194 1.00321 0.982398
0.993878 1.0024 0.963811
0.994773 1.00027 0.942298
0.998265 1.00211 0.995808
0.996897 1.00262 0.998359
0.994401 1.0018 0.962518
0.995439 1.00004 0.961869
0.994871 0.999325 0.982761
0.995338 0.999964 0.944663
0.993964 1.00402 0.962885
0.994504 0.999807 0.947052
0.997275 1.00232 0.997695
0.993277 1.00318 0.97944
0.993905 1.00352 0.969071
0.995257 1.00294 0.998761
0.994629 0.999833 0.939468
0.995403 0.999083 0.959686
0.99497 0.999971 0.946458
0.996764 1.00226 0.998841
0.993362 1.00267 0.984124
0.993992 1.00367 0.964865
0.994699 0.999835 0.934362
0.995326 0.99994 0.944719
0.995722 0.998742 0.992479
0.996374 1.0001 0.954321
0.99945 0.999517 0.996072
0.998607 0.999717 0.997653
0.99718 0.998892 1.00159
1.0004 1.00117 0.992752
1.00025 0.999779 0.994337
0.999712 0.998944 0.996269
1.00013 1.00085 0.993601
0.999144 0.998533 0.997513
0.998586 1.00227 0.994732
1.00011 1.00122 0.993283
1.00008 1.00158 0.992968
0.999717 1.00233 0.993072
0.999284 1.00443 0.991377
0.999535 1.00268 0.992732
0.999822 1.00381 0.990888
1.00049 1.00499 0.988798
1.00145 1.00472 0.987254
1.0001 1.00385 0.990956
1.00045 1.00487 0.988788
1.00062 1.00462 0.989197
0.999823 1.00463 0.990093
1.00035 1.00479 0.989191
0.99993 1.00319 0.991657
0.999969 1.00409 0.990738
1.00017 1.00469 0.989431
1.00009 1.00116 0.993338
0.999937 1.00254 0.992194
0.999815 1.00381 0.991195
0.999966 1.00175 0.992997
1.00013 1.00072 0.993698
1.00008 0.999655 0.994829
1.00017 1.00054 0.993833
1.00015 0.999508 0.994861
0.999909 0.997891 0.996875
1.00021 0.999403 0.99486
0.999987 0.997746 0.996881
0.999817 0.996613 0.999314
1.00006 0.997631 0.996864
0.999927 0.996497 0.998832
0.99995 0.996443 0.999301
1.0003 1.0007 0.993336
1.00021 0.999568 0.994506
1.00026 1.00071 0.99347
1.0001 0.997571 0.996857
1.0002 0.999437 0.994659
1.00021 1.00063 0.993721
0.999992 0.996323 0.999319
1.00012 0.997439 0.99694
1.00019 0.999331 0.994786
1.00002 0.996229 0.999335
1.00014 0.99736 0.996989
1.00003 0.9962 0.999338
0.993152 1.00276 0.979735
0.994047 1.00265 0.96148
0.994826 0.999108 0.941242
1.00027 1.00134 0.992871
1.00025 1.00131 0.992869
1.00023 1.00168 0.992629
0.993955 1.00323 0.965671
0.99396 1.00359 0.964713
0.994944 1.00404 0.948274
0.995111 1.00047 0.980352
0.997092 1.00022 0.955252
0.99507 0.999933 0.945124
0.994606 0.999907 0.938186
0.995709 0.999853 0.976572
0.996483 1.00005 0.958365
0.995284 0.999997 0.946479
0.994532 0.99977 0.945265
0.995016 0.999898 0.973294
0.995791 1.00005 0.960404
0.994671 1.00005 0.946232
0.994463 0.999893 0.944043
1.00028 1.00191 0.992252
1.00022 1.00217 0.992101
1.00012 1.00221 0.992225
1.00024 1.0018 0.992431
1.0002 1.00193 0.992467
1.00025 1.00142 0.992922
0.99903 0.999751 0.99643
0.999229 0.998422 0.996938
1.00021 1.00224 0.992152
1.00052 1.00177 0.992124
1.00015 1.00242 0.992067
1.00031 1.0019 0.992233
1.00018 1.00171 0.992714
0.997594 0.999789 0.997281
1.00013 1.00142 0.993039
0.997833 1.00019 0.999125
1.00017 1.00159 0.992871
0.995926 0.999246 0.998401
0.997704 1.00134 0.998966
0.999914 1.0006 0.994397
0.993377 1.00333 0.988245
0.993023 1.00316 0.983894
0.993805 1.00288 0.964371
0.997558 1.00234 0.997389
0.996028 1.00254 0.996796
0.993211 1.0032 0.979458
0.995437 0.999128 0.965298
0.994719 1.00002 0.944533
0.993816 1.0036 0.972676
0.994644 0.999871 0.938364
0.996546 1.00269 0.999021
0.993298 1.00263 0.985405
0.994041 1.00359 0.96469
0.99517 0.999254 0.987786
0.994695 0.999796 0.931886
0.995473 0.999937 0.945494
0.995557 1.00013 0.960399
0.99555 1.00132 1.00151
0.993142 1.00262 0.979958
0.994874 1.00374 0.949504
0.99468 0.998202 0.931123
0.995586 0.999734 0.939302
0.995676 1.00003 0.960084
0.995782 0.998809 0.983487
0.998479 1.0004 0.997437
0.997272 0.998599 1.00145
0.997346 1.00064 0.999294
1.00011 1.00094 0.993551
0.999263 0.998152 0.997596
0.998438 1.00238 0.995043
0.998812 1.00367 0.993316
0.999901 1.0024 0.992943
0.999769 1.00433 0.99105
1.00053 1.00504 0.988619
0.999628 1.00372 0.991194
1.00055 1.00493 0.988724
1.00191 1.00494 0.986569
1.0028 1.00398 0.985688
1.00102 1.00445 0.988046
1.00144 1.00483 0.98717
1.00059 1.00488 0.988646
1.00046 1.00432 0.989788
1.00045 1.00446 0.989484
0.999871 1.00406 0.990749
0.999905 1.00458 0.990213
1.00038 1.00463 0.989338
1.00004 1.0019 0.992686
0.999966 1.00311 0.991664
1 1.00409 0.990726
1.00002 0.999928 0.994673
1.00009 1.00117 0.993324
0.999923 1.00251 0.992171
1.00014 1.00074 0.993684
1.00009 0.999656 0.994826
0.999821 0.998079 0.996847
1.00015 0.9995 0.994861
0.999913 0.997892 0.996874
0.999752 0.996779 0.999304
0.999994 0.997739 0.99688
0.999846 0.996636 0.99884
0.99989 0.996539 0.999305
1.00032 1.0007 0.99338
1.00023 0.999663 0.994534
1.0003 1.00071 0.993369
1.00006 0.997729 0.996765
1.00022 0.999572 0.994574
1.00027 1.0007 0.993546
0.999951 0.996449 0.999299
1.0001 0.997565 0.996862
1.00021 0.999446 0.994638
0.999996 0.996305 0.999324
1.00012 0.997437 0.996943
1.00002 0.996219 0.999337
0.993365 1.00244 0.984239
0.993255 1.00247 0.979764
0.994065 1.0028 0.961361
1.00021 1.0014 0.992829
1.00008 1.00204 0.992543
1.00025 1.00136 0.992901
1.00025 1.00131 0.992871
1.00021 1.00168 0.992604
1.00016 1.0017 0.992712
1.00021 1.00181 0.992519
0.993976 1.0035 0.963294
0.993826 1.00335 0.969296
0.994013 1.00339 0.964554
0.994484 0.999776 0.947134
0.994892 1.00005 0.974178
0.995307 1.00006 0.958481
0.994733 1 0.947266
0.995623 0.99995 0.972694
0.995446 1.00005 0.956467
0.994816 0.999978 0.947684
0.994516 0.999882 0.945279
0.995978 0.997868 0.977081
0.995141 1.00006 0.955973
0.995338 0.999956 0.943493
0.994637 0.999865 0.935957
1.00011 1.00173 0.992804
1.00027 1.00187 0.99227
1.00022 1.00217 0.992077
1.00025 1.0018 0.992421
0.997699 1.00005 0.997557
0.997807 0.999753 0.999432
1.00034 1.00184 0.992148
1.00015 1.00167 0.992824
1.00001 1.00147 0.993461
1.00015 1.00161 0.992802
0.999765 1.00064 0.994359
0.995806 1.00004 0.996373
0.997269 1.00168 0.999156
0.999583 1.00132 0.993978
0.995716 0.999358 0.996089
0.998083 1.0016 0.998248
0.993137 1.00297 0.982853
0.993236 1.00293 0.98961
0.992881 1.00315 0.985391
0.996437 1.0029 0.99915
0.995498 0.9986 0.993303
0.993248 1.00258 0.986692
0.996583 1.0001 0.954929
0.994939 0.999949 0.94629
0.994089 1.00341 0.964516
0.994685 0.999836 0.932194
0.995652 1.00075 1.00172
0.993238 1.00245 0.979977
0.994926 1.00371 0.949036
0.994916 0.998762 0.987228
0.994658 0.998173 0.926264
0.99773 0.999879 0.941453
0.995425 1.00005 0.956749
0.995871 1.00126 0.998824
0.994063 1.002 0.962065
0.995113 0.999208 0.934284
0.997779 0.999316 0.941007
0.995324 1.00028 0.960649
0.994869 0.999281 0.977621
0.997484 0.998148 1.00123
0.997186 1.00128 0.999251
0.999389 0.99867 0.998143
0.998271 1.00249 0.995354
0.998304 1.00371 0.993624
1.00115 1.00242 0.990022
1.00027 1.00421 0.99072
1.00077 1.00502 0.988463
1.00222 1.00319 0.98697
1.00062 1.00487 0.98865
1.00193 1.00493 0.986428
1.00341 1.00245 0.985668
1.00408 1.0012 0.985876
1.00242 1.00462 0.986015
1.00285 1.00394 0.985493
1.00086 1.00397 0.988864
1.00101 1.00446 0.988245
1.00144 1.00495 0.987086
1.00039 1.00417 0.98988
1.00039 1.00434 0.989762
1.00027 1.00432 0.989771
1.00007 1.00268 0.991815
0.999899 1.00391 0.990903
0.999997 1.00452 0.990333
0.999957 1.00047 0.994236
1.00006 1.00186 0.992686
1 1.00304 0.991671
0.999738 0.998295 0.996792
1.00001 0.999951 0.994663
1.0001 1.00119 0.99331
1.00009 0.999657 0.994823
0.999827 0.998082 0.996845
0.999656 0.996972 0.999296
0.999917 0.997894 0.996874
0.999739 0.996812 0.999302
0.999815 0.996672 0.999305
1.0002 1.00153 0.992791
1.00033 1.00074 0.993331
1.00023 0.99976 0.994441
1.00032 1.0007 0.993376
1.00001 0.997898 0.996677
1.00023 0.999684 0.994531
1.00029 1.00072 0.993402
0.9999 0.996602 0.999277
1.00006 0.997721 0.996771
1.00022 0.999576 0.994642
0.999957 0.996424 0.999305
1.00009 0.99756 0.996867
1 0.996285 0.999328
0.993332 1.00263 0.979867
0.993281 1.00243 0.985507
0.99335 1.00231 0.979791
1.00023 1.00138 0.992855
1.00007 1.00205 0.9925
1.00004 1.00237 0.992187
1.00007 1.00191 0.99256
1.00003 1.00245 0.992249
1.00024 1.00131 0.992873
1.0002 1.00168 0.99258
1.00015 1.00171 0.99271
1.00022 1.00181 0.992503
1.00006 1.00194 0.992714
0.994627 1.00344 0.949558
0.99397 1.00361 0.963137
0.993713 1.00346 0.972914
0.994532 0.999875 0.94551
0.994665 1.00003 0.945113
0.994902 0.999939 0.971446
0.994971 1.00004 0.95979
0.995666 0.998014 0.973223
0.99583 1.00006 0.959916
0.99482 0.999947 0.946092
0.994832 0.999853 0.933822
0.996187 0.995559 0.977721
0.995386 1.00011 0.960683
0.995953 0.999901 0.944548
0.995062 0.998152 0.93061
0.999497 1.00124 0.99427
1.00007 1.0018 0.992808
1.00028 1.00184 0.992288
0.995672 1.00064 0.994365
0.997115 1.00189 0.999346
1.00016 1.00162 0.992733
0.999689 1.00078 0.994321
0.999578 1.00137 0.993986
0.997996 1.00111 0.998107
0.995368 0.999381 0.996271
0.998248 1.00122 0.996752
0.995882 1.00137 0.995154
0.99406 1.00214 0.96272
0.992977 1.00289 0.984352
0.992982 1.00253 0.990974
0.995559 1.00034 1.00199
0.995259 0.998536 0.981187
0.993326 1.00237 0.979993
0.996502 1.00004 0.957012
0.995198 0.999913 0.944297
0.994932 1.00394 0.948582
0.994651 0.998083 0.921401
0.995934 1.00093 0.99906
0.994079 1.00249 0.961864
0.995062 0.999448 0.93262
0.994941 0.999176 0.979194
0.99748 0.999502 0.941585
0.996251 1.00003 0.957425
0.997442 0.99914 0.995076
0.994826 0.999078 0.941113
0.998006 0.997168 0.942794
0.997981 1.00007 0.955985
0.994854 0.999436 0.979019
0.997114 1.00178 0.999198
0.999206 0.998678 0.998192
1.00231 0.998434 0.992995
0.997838 1.0037 0.993922
1.00061 1.00268 0.990452
1.00304 0.999391 0.988718
1.001 1.00498 0.988305
1.00225 1.00325 0.987034
1.00408 0.999721 0.987205
1.00194 1.00499 0.986289
1.00342 1.00248 0.98571
1.00481 0.998846 0.986626
1.00487 0.9988 0.986761
1.00333 1.00312 0.98541
1.00401 1.00119 0.98592
1.00193 1.00411 0.987164
1.00227 1.00464 0.985863
1.00288 1.00391 0.9853
1.0009 1.00352 0.989488
1.00082 1.00388 0.989078
1.001 1.00444 0.988444
1.00036 1.00306 0.990933
1.00033 1.00411 0.989977
1.00033 1.00436 0.989735
0.999962 1.00124 0.993449
1.00011 1.00264 0.991816
0.999922 1.00377 0.991057
0.999634 0.998643 0.99709
0.999952 1.00049 0.994221
1.00008 1.00183 0.992686
0.999573 0.997229 0.998306
0.999737 0.998329 0.997007
1.00001 0.999971 0.994652
0.999834 0.998086 0.996843
0.999643 0.997014 0.999291
0.999727 0.996847 0.999299
1.00016 1.00186 0.992482
1.0003 1.00092 0.993205
1.00019 1.00157 0.992757
1.0002 0.999873 0.994392
1.00032 1.00076 0.993332
0.999958 0.998067 0.996607
1.00022 0.999783 0.994439
1.00033 1.00071 0.993372
0.999839 0.996772 0.999255
1.00001 0.997898 0.996681
1.00022 0.999709 0.994527
0.999906 0.996573 0.999284
1.00006 0.997716 0.996776
0.999963 0.996397 0.999312
0.99439 1.00178 0.96345
0.993249 1.00267 0.979896
0.993209 1.00243 0.98678
1.00002 1.00265 0.992041
1.00023 1.0014 0.992881
1.00007 1.00207 0.992457
1.00009 1.00193 0.992592
1.00008 1.00232 0.992232
1.00003 1.00244 0.992207
1.00003 1.00275 0.99191
0.999943 1.00243 0.992229
1.00014 1.00171 0.992708
1.00021 1.00181 0.992488
1.00003 1.00198 0.992675
0.999799 1.00238 0.993051
0.994938 0.999709 0.932581
0.99483 1.00356 0.949046
0.993945 1.00372 0.962986
0.995035 0.999858 0.93474
0.995349 0.999932 0.946068
0.995153 1.00008 0.956084
0.996019 0.998114 0.971945
0.996413 0.995296 0.979675
0.994805 0.99814 0.925849
0.995383 1.00008 0.957339
0.997283 0.999938 0.940983
0.99564 0.997735 0.980474
0.995965 1.00005 0.962109
0.9978 0.999441 0.939978
0.999228 1.00048 0.995542
0.999654 1.00118 0.994248
1.00003 1.00188 0.992812
0.99499 0.999239 0.996385
0.997952 1.00035 0.997968
0.99957 1.00137 0.993992
0.998822 1.00103 0.996586
0.995735 1.0013 0.995358
0.99782 1.00082 0.994927
0.994751 0.999872 0.937873
0.993938 1.00198 0.966611
0.992847 1.00281 0.985853
0.995924 1.00103 0.999349
0.994851 0.9992 0.980244
0.994096 1.00269 0.961718
0.995351 1.00007 0.957909
0.997782 0.999354 0.937629
0.995116 0.99954 0.933921
0.997411 0.999315 0.995154
0.994831 0.998825 0.941758
0.998633 0.996928 0.9399
0.995069 0.999464 0.974959
0.996708 1.00001 0.960689
0.998709 0.998967 0.995394
0.999962 0.995142 0.93919
0.998255 0.999071 0.960591
0.995208 0.999658 0.973779
0.998958 0.998772 0.998274
1.00177 0.998118 0.99374
1.00377 0.997132 0.990933
1.00008 1.00299 0.990883
1.00301 0.999821 0.988641
1.00458 0.996801 0.988925
1.00227 1.00338 0.987099
1.00393 0.999888 0.987228
1.00498 0.997414 0.987981
1.00345 1.00246 0.98575
1.00483 0.998912 0.986604
1.00509 0.997388 0.987661
1.00503 0.997921 0.987295
1.0044 1.00048 0.986166
1.00486 0.998845 0.98673
1.00277 1.00303 0.986228
1.0033 1.003 0.98557
1.00395 1.00117 0.985964
1.00147 1.00339 0.988587
1.00176 1.00413 0.987206
1.00212 1.00466 0.985709
1.00081 1.00289 0.990309
1.00095 1.00351 0.989466
1.00079 1.00381 0.989293
1.00009 1.00196 0.992514
1.0004 1.00304 0.99094
1.00028 1.00403 0.990074
0.999596 0.999068 0.996234
0.999983 1.00122 0.993433
1.00016 1.00261 0.991817
0.999431 0.997502 0.999256
0.999648 0.998693 0.996569
0.999949 1.00051 0.994204
0.999549 0.997224 0.999276
0.999746 0.998342 0.99676
0.999631 0.997055 0.999287
1.00013 1.0022 0.992279
1.00017 1.00185 0.992476
1.00026 1.00121 0.992965
1.00013 1.00003 0.994346
1.00029 1.00092 0.99321
1.00018 1.00157 0.992724
0.999896 0.998223 0.996572
1.0002 0.999878 0.994392
1.00031 1.00076 0.993333
0.99977 0.996944 0.999237
0.999955 0.998067 0.99661
1.00022 0.999801 0.994436
0.999845 0.996746 0.999262
1.00001 0.997896 0.996686
0.999913 0.996543 0.99929
0.994777 0.999716 0.935722
0.994354 1.0018 0.963274
0.993182 1.00269 0.979921
0.999977 1.00273 0.991994
1.00009 1.00312 0.991551
0.999936 1.00307 0.991743
1.00011 1.00194 0.992624
1.0001 1.00227 0.992277
0.99999 1.00245 0.992164
0.999985 1.00244 0.9922
0.999999 1.00278 0.991872
0.999852 1.00348 0.991566
1.00011 1.00159 0.992829
1.00004 1.00198 0.992636
0.999766 1.0022 0.99303
0.999422 0.997183 0.938419
0.994859 0.999747 0.930092
0.995013 1.00367 0.948564
0.994634 0.998093 0.921086
0.995838 0.999755 0.94399
0.996145 1.00002 0.959242
0.995999 0.99524 0.977198
0.995336 0.997804 0.978584
0.99739 0.999122 0.941024
0.996126 1.00004 0.957769
0.995955 0.997682 0.979992
0.997645 1.00029 0.955476
1.00132 0.999858 0.992982
0.99941 1.00036 0.995376
0.999766 1.00109 0.994233
0.995462 1.00151 0.995539
0.99919 1.00092 0.996415
0.998233 1.00116 0.994313
1.00112 0.999766 0.989817
0.999991 0.994887 0.940592
0.994776 1.00019 0.940114
0.993829 1.00188 0.970462
0.997412 0.999294 0.99529
0.994855 0.999445 0.975158
0.99485 0.998929 0.941777
0.996652 1.00007 0.955459
0.999736 0.998571 0.943715
0.998636 0.999201 0.994005
0.999972 0.995287 0.940832
0.9997 0.997995 0.955148
0.995368 0.999339 0.976355
0.999464 0.997847 0.995062
1.00047 0.99667 0.958202
0.995954 1.00096 0.978943
1.00119 0.997749 0.99448
1.00363 0.996803 0.9909
1.00502 0.995146 0.990074
1.00297 1.00019 0.988563
1.00449 0.996772 0.98893
1.00487 0.995763 0.98953
1.00378 0.999973 0.987252
1.00489 0.99737 0.987931
1.00515 0.996214 0.988685
1.00485 0.998971 0.986582
1.00509 0.997372 0.987674
1.00512 0.996921 0.988083
1.00505 0.997645 0.987645
1.00505 0.997811 0.987356
1.00477 0.998753 0.987071
1.00391 1.00114 0.986385
1.00442 1.00044 0.986151
1.00485 0.998876 0.9867
1.00234 1.00277 0.987332
1.00278 1.00308 0.986379
1.00328 1.00285 0.98573
1.00122 1.00276 0.989654
1.0015 1.00338 0.988557
1.0016 1.00417 0.987248
1.00034 1.00219 0.99181
1.00085 1.00286 0.990308
1.001 1.0035 0.989444
0.999606 0.99962 0.995639
1.00013 1.00188 0.992511
1.00044 1.003 0.990947
0.999405 0.997779 0.99918
0.999595 0.999138 0.996201
1 1.00119 0.993416
0.999461 0.997537 0.99874
0.999657 0.998711 0.996556
0.999538 0.997302 0.999263
1.00016 1.00261 0.991789
1.00009 1.00227 0.992249
1.00017 1.00169 0.992659
1.0002 1.00186 0.992471
1.00025 1.00123 0.992967
1.00005 1.0003 0.994209
0.999823 0.998388 0.996549
1.00014 1.00003 0.99435
1.00026 1.00095 0.993215
0.999692 0.997107 0.999228
0.999892 0.99822 0.996573
1.00019 0.999883 0.994393
0.999777 0.996921 0.999243
0.999951 0.998069 0.996613
0.999852 0.996713 0.999269
0.999932 0.995134 0.942133
0.994839 1.00013 0.935465
0.994325 1.00183 0.963088
0.999941 1.00281 0.991947
0.999922 1.00319 0.991621
1 1.00308 0.99165
1.00037 1.00331 0.990829
0.999875 1.00368 0.991276
1.00001 1.00246 0.992171
0.999989 1.00279 0.991834
0.99981 1.00334 0.991603
0.999749 1.00391 0.990746
1.00024 1.00242 0.991786
1.00278 1.00057 0.989099
0.999868 1.00182 0.993027
0.99979 1.002 0.993009
1.00024 0.997751 0.957306
0.998745 0.997269 0.939813
0.994823 0.999688 0.930646
0.997852 0.999585 0.936799
0.995755 1.00051 0.958359
0.995609 0.997921 0.981257
0.995703 0.99778 0.981987
0.997028 0.999661 0.961345
0.997696 1.00008 0.977533
1.00372 0.998006 0.989903
1.00097 0.999676 0.992993
0.999585 1.00026 0.995206
0.998487 1.00139 0.993738
1.00189 1.00071 0.988519
1.00065 0.995537 0.955786
0.999957 0.995262 0.942856
0.994803 1.00042 0.942396
0.998515 0.999478 0.992593
0.99488 0.999457 0.973909
0.999933 0.99495 0.941417
0.998826 0.999765 0.960818
0.99934 0.998727 0.995281
1.00163 0.995526 0.958536
0.995813 1.00035 0.975566
1.00092 1.00125 0.992054
1.00016 0.9975 0.983025
1.0035 0.996481 0.990872
1.005 0.995061 0.989831
1.00504 0.995002 0.990051
1.00439 0.996781 0.988933
1.00477 0.995815 0.989527
1.00512 0.994981 0.989826
1.00481 0.997346 0.98788
1.00516 0.99614 0.988678
1.00512 0.996014 0.988969
1.00508 0.997365 0.987686
1.00512 0.996945 0.988058
1.00509 0.997116 0.988057
1.00505 0.997554 0.987663
1.00493 0.998148 0.987387
1.00508 0.997708 0.987416
1.0048 0.998687 0.987073
1.00442 0.999646 0.986908
1.00336 1.00142 0.986873
1.00389 1.00118 0.986349
1.00443 1.0004 0.986135
1.00185 1.00248 0.988778
1.0023 1.00281 0.987444
1.00279 1.00313 0.98653
1.00061 1.00217 0.991277
1.00127 1.00275 0.989633
1.00153 1.00338 0.988528
0.999692 1.00016 0.994929
1.00037 1.00215 0.991817
1.00088 1.00286 0.990308
0.999409 0.998098 0.99906
0.999605 0.999686 0.99561
1.00017 1.00181 0.99251
0.999425 0.997837 0.999147
0.999591 0.99921 0.996166
0.999469 0.99759 0.99921
1.0005 1.00287 0.990951
1.00017 1.00257 0.991788
1.00018 1.00217 0.992104
1.00006 1.00231 0.992219
1.00015 1.00176 0.992588
1 1.00077 0.993822
1.00023 1.00124 0.99297
1.00006 1.00028 0.994217
0.999738 0.998608 0.99649
0.999604 0.997285 0.999218
0.999817 0.998385 0.996551
1.00014 1.00002 0.994355
0.999701 0.997088 0.99923
0.999889 0.99822 0.996575
0.999784 0.996897 0.999248
1.0017 0.995356 0.959682
0.999962 0.995163 0.940832
0.994877 1.00057 0.934328
0.999905 1.00332 0.991499
0.999925 1.00304 0.991749
0.999889 1.00367 0.991323
1.00032 1.00328 0.990874
1.00064 1.00377 0.989831
0.999928 1.00377 0.990854
0.999768 1.00321 0.991638
1.00001 1.00401 0.99043
1.00016 1.00271 0.991573
1.00086 1.00274 0.989743
1.00302 1.00074 0.989311
1.00404 0.999177 0.98744
1.00247 1.00057 0.989386
0.999594 1.00215 0.993225
0.997038 1.00016 0.976365
1.00016 0.997667 0.957202
0.998538 0.997466 0.943696
0.998762 1.00026 0.955497
0.995632 0.997951 0.983478
0.99822 0.999383 0.981858
1.00204 0.998525 0.991055
1.00361 0.997979 0.990293
1.00089 0.999446 0.993
1.00317 1.0018 0.987183
0.998845 0.997127 0.978314
1.00127 0.995149 0.961624
0.99996 0.995725 0.939531
0.99928 0.99945 0.995455
0.995562 1.00065 0.977919
1.00115 0.995069 0.958981
1.00087 1.00056 0.992185
0.999374 0.997747 0.981768
1.00358 1.00115 0.9892
1.00449 0.995823 0.989821
1.00497 0.994988 0.989584
1.00502 0.994988 0.989993
1.00507 0.995032 0.990073
1.00468 0.995871 0.989527
1.00511 0.995101 0.98979
1.00511 0.995421 0.989577
1.00517 0.996049 0.98867
1.00512 0.996056 0.988938
1.00512 0.996739 0.988437
1.00512 0.996967 0.988033
1.00508 0.997134 0.988008
1.00503 0.997852 0.98743
1.00504 0.997465 0.987682
1.00493 0.998059 0.987436
1.00471 0.998937 0.987096
1.00484 0.998616 0.987075
1.00443 0.999641 0.986887
1.00402 1.00024 0.987124
1.00268 1.00151 0.987976
1.0033 1.00151 0.986964
1.00387 1.00122 0.986312
1.00107 1.00202 0.990616
1.00187 1.00246 0.988773
1.00226 1.00285 0.987555
0.999773 1.00066 0.994276
1.00065 1.00219 0.991271
1.00132 1.00274 0.989612
0.999449 0.998457 0.998884
0.999716 1.00017 0.994918
1.0004 1.00211 0.991824
0.99944 0.998165 0.999006
0.999609 0.999748 0.995581
0.999449 0.997897 0.999111
1.00078 1.0033 0.990017
1.00052 1.00285 0.990992
1.00042 1.00247 0.991447
1.00017 1.00255 0.991786
1.00019 1.00222 0.992026
1.00005 1.00131 0.993199
1.00014 1.00184 0.992517
1.00001 1.00076 0.993832
0.99965 0.998934 0.996322
1.00007 1.00026 0.994224
0.999735 0.998591 0.996498
0.99952 0.997498 0.999201
0.999616 0.997262 0.999222
0.999813 0.998381 0.996553
0.99971 0.99707 0.999233
0.998117 0.99854 0.97777
1.00155 0.995804 0.954731
0.999943 0.99526 0.943357
1.00158 1.00327 0.988651
0.999911 1.00366 0.991369
1.00027 1.00326 0.990919
1.00001 1.00384 0.990782
1.00058 1.00387 0.989783
1.00067 1.00288 0.990332
1.00025 1.00411 0.990114
1.00016 1.00296 0.991361
1.00104 1.00265 0.989976
1.00289 1.00081 0.989058
1.00419 0.99963 0.987065
1.00462 0.997804 0.987985
1.00418 0.999254 0.987053
1.00224 1.0005 0.989675
1.00102 0.998711 0.993381
0.99734 1.00017 0.974946
0.999518 0.997756 0.957479
0.998254 0.998624 0.980276
1.00202 0.997524 0.992946
1.00311 0.997924 0.99068
1.00284 0.996628 0.98905
0.998179 0.996151 0.981005
1.00074 0.995358 0.95559
1.00079 0.99997 0.992313
0.999441 0.997868 0.980389
1.00352 0.999302 0.989382
1.00448 0.995981 0.989744
1.00504 0.996183 0.989714
1.00505 0.996099 0.990189
1.00501 0.995012 0.989933
1.00507 0.995033 0.990113
1.00509 0.99535 0.989776
1.0051 0.995224 0.989752
1.00512 0.995498 0.989568
1.00514 0.996418 0.988682
1.00512 0.996113 0.988907
1.00511 0.996746 0.988396
1.00511 0.997778 0.987367
1.00508 0.997151 0.987959
1.00502 0.997859 0.987444
1.00488 0.998562 0.987041
1.00492 0.997972 0.987484
1.00471 0.998824 0.987127
1.00436 0.99954 0.987075
1.00443 0.999633 0.986866
1.004 1.00022 0.987047
1.00339 1.00064 0.987818
1.00173 1.00144 0.989992
1.00264 1.00157 0.988073
1.00324 1.00159 0.987054
0.999921 1.00098 0.993686
1.00109 1.00203 0.990607
1.0019 1.00243 0.988768
0.999431 0.998893 0.998692
0.999861 1.00057 0.994266
1.00068 1.0022 0.991265
0.999466 0.998537 0.998818
0.999739 1.00018 0.994906
0.999474 0.998226 0.998945
1.00138 1.00323 0.988795
1.00076 1.00329 0.990033
1.00076 1.00272 0.990686
1.00054 1.00282 0.991032
1.00042 1.00245 0.991464
1.00016 1.00177 0.99257
1.0002 1.00227 0.991947
1.00002 1.00137 0.9932
0.999578 0.999399 0.99597
1.00001 1.00076 0.993841
0.999652 0.998892 0.996342
0.999458 0.997733 0.999158
0.999733 0.998576 0.996506
0.999528 0.997462 0.999207
0.999626 0.99724 0.999225
1.00175 0.998433 0.991295
0.998141 0.998303 0.974344
1.00072 0.995978 0.960133
1.00173 1.00235 0.988873
1.0035 1.00128 0.986955
1.00134 1.00326 0.988794
1.00009 1.00391 0.990709
1.00053 1.00397 0.989731
1.00097 1.00278 0.990085
1.00392 0.999876 0.987658
1.00117 1.00258 0.99021
1.00255 1.00091 0.988805
1.00401 0.999754 0.987313
1.00505 0.998243 0.986976
1.00503 0.996108 0.988928
1.00472 0.997841 0.987828
1.00428 0.999413 0.986668
1.00133 0.998611 0.993531
0.99696 1.00071 0.972906
1.00218 0.99659 0.994834
1.0051 0.995784 0.990323
1.00265 0.996914 0.989218
0.998872 0.995961 0.977385
1.0035 0.997656 0.989574
1.00445 0.996442 0.989669
1.00504 0.995691 0.989857
1.00505 0.995739 0.989999
1.00508 0.995385 0.989705
1.00514 0.995523 0.989196
1.00507 0.994992 0.990152
1.0051 0.995352 0.989766
1.00514 0.996382 0.9887
1.00512 0.995579 0.989559
1.00514 0.996527 0.988587
1.00516 0.997549 0.987545
1.0051 0.996752 0.988355
1.00511 0.997789 0.987381
1.00502 0.998527 0.986845
1.00502 0.997867 0.987457
1.00489 0.998564 0.987042
1.00457 0.999219 0.986997
1.0047 0.998711 0.987158
1.00434 0.999507 0.987075
1.00374 1.00007 0.987695
1.00398 1.00021 0.98697
1.00333 1.00062 0.98778
1.00232 1.00073 0.989618
1.00016 1.00091 0.993251
1.00173 1.00145 0.989988
1.00261 1.00163 0.988171
0.999349 0.999419 0.998519
1.00001 1.00089 0.99367
1.00111 1.00206 0.990598
0.999435 0.999005 0.998632
0.999927 1.00052 0.994255
0.999487 0.99862 0.998752
1.00246 1.00244 0.987291
1.00137 1.00322 0.988657
1.00132 1.00272 0.989608
1.00073 1.00326 0.990048
1.0007 1.00272 0.990709
1.00033 1.00214 0.991968
1.00041 1.00244 0.991482
1.00012 1.00184 0.992567
0.999602 0.999898 0.995424
0.999998 1.00142 0.9932
0.999592 0.999327 0.995996
0.999436 0.998008 0.999059
0.999653 0.998851 0.996363
0.999457 0.997694 0.999174
0.999538 0.997431 0.999214
1.0051 0.995615 0.98948
1.00186 0.998129 0.990306
0.998047 0.997462 0.975027
1.0041 1.00001 0.987204
1.00145 1.0021 0.989657
1.00472 0.999006 0.986687
1.00359 1.00122 0.986908
1.00111 1.00325 0.988942
1.00509 0.998157 0.986937
1.00127 1.00266 0.989844
1.00407 0.999894 0.987275
1.00512 0.997242 0.98774
1.00393 0.999842 0.987561
1.00503 0.998137 0.987061
1.00498 0.996221 0.989019
1.00468 0.997909 0.987661
1.00149 0.998495 0.993716
1.00516 0.995942 0.98888
1.0051 0.99591 0.990339
1.00247 0.996856 0.989366
1.00503 0.995107 0.990006
1.00504 0.995407 0.98981
1.00506 0.995308 0.98986
1.00515 0.995578 0.989257
1.00516 0.996345 0.988644
1.0051 0.995348 0.989756
1.00514 0.996409 0.988709
1.00516 0.997372 0.987724
1.00513 0.996628 0.988491
1.00515 0.997625 0.98746
1.00511 0.998564 0.986655
1.0051 0.9978 0.987394
1.00501 0.99853 0.986851
1.00473 0.999127 0.9868
1.00489 0.998565 0.987043
1.00457 0.999218 0.986997
1.00399 0.999745 0.987551
1.00432 0.999472 0.987075
1.00373 1.00008 0.987704
1.0027 1.00027 0.989387
1.00328 1.00061 0.987741
1.00232 1.00075 0.989612
1.00039 1.00065 0.994121
0.999407 0.999855 0.996226
1.00025 1.00084 0.993764
1.00173 1.00148 0.989984
0.999368 0.999549 0.998455
1.00012 1.00077 0.993652
0.999441 0.999102 0.998566
1.00504 0.998647 0.98689
1.00362 1.00049 0.986995
1.00264 1.0024 0.987165
1.00202 1.00235 0.988602
1.00136 1.00322 0.98852
1.00126 1.00273 0.989638
1.00067 1.00221 0.991281
1.00065 1.00273 0.990731
1.00028 1.00215 0.991978
0.999721 1.00038 0.994754
1.00008 1.00191 0.992564
0.999596 0.999857 0.99544
0.999422 0.998366 0.998895
0.999603 0.999253 0.996021
0.99942 0.997956 0.999096
0.999457 0.997652 0.999189
1.00516 0.996478 0.988394
1.00513 0.995777 0.989907
1.00207 0.997967 0.989314
1.00513 0.998222 0.986799
1.00392 1.00001 0.987486
1.00118 1.00184 0.99043
1.00472 0.999151 0.986723
1.00367 1.00118 0.986862
1.00512 0.997433 0.987832
1.00509 0.998165 0.986883
1.00421 0.999938 0.98689
1.00511 0.997234 0.987726
1.00502 0.998047 0.987145
1.00497 0.996282 0.989128
1.00517 0.996569 0.988571
1.00517 0.995891 0.988942
1.00511 0.996038 0.99036
1.00506 0.995225 0.990013
1.00516 0.995637 0.989319
1.00516 0.996227 0.988794
1.00517 0.997397 0.987733
1.00514 0.996442 0.988717
1.00516 0.997393 0.987696
1.00516 0.99849 0.986651
1.00515 0.997699 0.987375
1.00509 0.998563 0.986667
1.00485 0.999185 0.986514
1.005 0.998533 0.986857
1.00473 0.999127 0.986799
1.00416 0.999626 0.987357
1.00457 0.999217 0.986998
1.00399 0.999746 0.987553
1.00292 1.00005 0.989194
1.00371 1.00008 0.987712
1.0027 1.00027 0.989381
1.00061 1.00031 0.994114
1.0023 1.00077 0.989606
1.00051 1.0006 0.99407
0.999427 1.00015 0.996081
0.999325 1.00001 0.997249
1.00038 1.00076 0.994204
0.999383 0.999666 0.998389
1.00511 0.998477 0.986702
1.00441 0.999316 0.987219
1.00498 0.998519 0.986945
1.00291 1.00135 0.987893
1.00374 1.00058 0.986963
1.00281 1.00235 0.987039
1.00202 1.00235 0.988603
1.00122 1.00196 0.990467
1.00121 1.00275 0.989667
1.00063 1.00219 0.991295
0.999879 1.00079 0.99409
1.00023 1.00215 0.991989
0.999666 1.00042 0.994765
0.99936 0.998887 0.998691
0.999592 0.999812 0.995456
0.999408 0.998292 0.998954
0.999411 0.997906 0.999129
1.00513 0.996957 0.988167
1.00515 0.996472 0.98839
1.00514 0.995891 0.990313
1.00515 0.997854 0.987277
1.00513 0.998278 0.986828
1.00374 1.00001 0.987772
1.0047 0.999294 0.986758
1.00512 0.997426 0.987735
1.00509 0.998174 0.986828
1.0051 0.997236 0.987712
1.00514 0.997243 0.98792
1.00516 0.99661 0.988496
1.00518 0.995841 0.989005
1.00514 0.997697 0.98743
1.00516 0.99611 0.988944
1.00517 0.997404 0.987726
1.00516 0.998289 0.986923
1.00517 0.997415 0.987669
1.00515 0.998487 0.986662
1.005 0.999146 0.986277
1.00508 0.998565 0.98668
1.00484 0.999188 0.986522
1.00431 0.999671 0.987036
1.00472 0.999127 0.986799
1.00416 0.999626 0.987354
1.00306 0.999965 0.989016
1.00398 0.999747 0.987555
1.00293 1.00003 0.98919
1.00078 1.00006 0.9941
1.00269 1.00027 0.989374
1.00071 1.00027 0.994063
0.999486 1.0001 0.99609
1.00065 1.00051 0.994024
0.999281 1.0003 0.99617
0.999132 1.00016 0.998442
1.00512 0.998454 0.986696
1.00481 0.998909 0.98686
1.00512 0.998453 0.986735
1.00372 1.00023 0.987817
1.00446 0.999207 0.987179
1.00492 0.998398 0.986999
1.00197 1.00129 0.989688
1.00293 1.00136 0.987861
1.00387 1.00068 0.986932
1.00201 1.00234 0.988604
1.00121 1.00193 0.990481
1.00007 1.00101 0.993514
1.00059 1.00217 0.991309
0.999782 1.00088 0.994107
0.999254 0.999536 0.9985
0.999611 1.00047 0.994775
0.999362 0.998773 0.998766
0.999399 0.998216 0.999009
1.00514 0.997523 0.987575
1.00513 0.996896 0.988191
1.00515 0.996465 0.988386
1.00514 0.997828 0.987302
1.00513 0.998333 0.986857
1.00512 0.997417 0.987637
1.00512 0.997719 0.987502
1.00514 0.997303 0.987878
1.00516 0.996651 0.988421
1.00514 0.997669 0.987497
1.00514 0.998264 0.986936
1.00516 0.997412 0.98772
1.00516 0.998354 0.986813
1.00509 0.998962 0.986314
1.00514 0.998482 0.986674
1.00498 0.999149 0.986294
1.00452 0.999674 0.986639
1.00483 0.999186 0.986531
1.00431 0.999668 0.987036
1.00319 0.999964 0.988766
1.00417 0.999625 0.987352
1.00307 0.99995 0.989013
1.00088 0.999973 0.994007
1.00294 1.00002 0.989185
1.00085 1.00004 0.994041
0.999584 0.999995 0.996069
1.00081 1.00023 0.994021
0.999339 1.0002 0.99619
0.999129 1.00051 0.996247
1.00514 0.998122 0.987062
1.00494 0.998954 0.986516
1.00513 0.998378 0.986758
1.00418 0.999454 0.987584
1.00481 0.998944 0.986891
1.00513 0.998426 0.98677
1.00265 1.00045 0.989239
1.00373 1.00013 0.987682
1.00452 0.999093 0.987139
1.00034 1.0009 0.993081
1.00198 1.00128 0.989697
1.00296 1.00138 0.987829
1.00119 1.00192 0.990496
0.99996 1.00111 0.993538
0.99922 1.00013 0.998345
0.999684 1.00099 0.994122
0.999262 0.999393 0.99857
0.999366 0.998651 0.998832
1.00513 0.997795 0.98736
1.00513 0.997504 0.987605
1.00513 0.996836 0.988214
1.00513 0.997803 0.987327
1.00514 0.998269 0.986929
1.00513 0.997725 0.987513
1.00514 0.997361 0.987836
1.00515 0.997647 0.987565
1.00514 0.998223 0.986973
1.0051 0.998898 0.986456
1.00515 0.998417 0.986702
1.00507 0.999039 0.986272
1.0047 0.999506 0.986381
1.00496 0.999157 0.98631
1.00451 0.999675 0.986648
1.00339 0.999979 0.988382
1.00431 0.99967 0.987037
1.0032 0.999954 0.988762
1.00098 1.00001 0.992713
1.00309 0.999933 0.98901
1.00095 0.999941 0.993407
0.999599 0.99999 0.998223
1.00093 1.00002 0.993985
0.999452 1.00003 0.996173
0.999201 1.00032 0.996272
1.00514 0.99812 0.987104
1.00501 0.998804 0.986574
1.00514 0.998174 0.987029
1.0044 0.999289 0.987012
1.00493 0.998948 0.986602
1.00514 0.998303 0.986821
1.00304 0.999847 0.988841
1.00418 0.999492 0.987571
1.00481 0.998982 0.986921
1.00065 1.00044 0.992896
1.00266 1.0004 0.989126
1.00374 1.00003 0.987547
0.999294 1.00044 0.998246
1.00027 1.00095 0.993101
1.00197 1.00127 0.989707
0.999865 1.00118 0.99356
0.999185 0.99999 0.998401
0.999263 0.999232 0.998639
1.00514 0.998217 0.986974
1.00513 0.997789 0.987369
1.00513 0.997486 0.987635
1.0051 0.998849 0.986456
1.00513 0.99823 0.986971
1.00513 0.997729 0.987524
1.00513 0.998177 0.98701
1.0051 0.998891 0.986455
1.00478 0.999407 0.986583
1.00506 0.999119 0.98623
1.00469 0.999569 0.986497
1.00362 0.999872 0.987803
1.0045 0.99967 0.986657
1.00339 0.999974 0.988381
1.00111 1.00006 0.992412
1.00322 0.999946 0.988757
1.00099 0.999997 0.992703
0.999635 0.999983 0.998183
1.00096 0.999929 0.992863
0.999548 0.999958 0.997194
0.999322 1.00005 0.996272
1.00513 0.998317 0.986933
1.00503 0.998736 0.986612
1.00514 0.998101 0.9871
1.0045 0.999303 0.986983
1.00501 0.998835 0.98652
1.00514 0.998226 0.986997
1.00326 0.999652 0.988617
1.00441 0.999357 0.987168
1.00493 0.998942 0.986689
1.00087 1.00002 0.992873
1.00305 0.99985 0.988824
1.00418 0.999529 0.987558
0.999425 1.0004 0.998216
1.00062 1.00045 0.99291
1.00267 1.00035 0.989011
0.999243 1.00034 0.998275
1.00019 1.00098 0.993131
0.999155 0.999847 0.998462
1.0051 0.998718 0.986604
1.00514 0.998231 0.986942
1.00514 0.997781 0.987378
1.00475 0.999307 0.986713
1.0051 0.998809 0.986511
1.00513 0.998199 0.987013
1.0051 0.998884 0.986454
1.00478 0.999414 0.986579
1.00373 0.999764 0.987696
1.00468 0.999634 0.986613
1.00361 0.999906 0.98792
1.00128 1.00006 0.992096
1.0034 0.999966 0.988381
1.00112 1.00006 0.992399
0.999712 0.999991 0.998103
1.00099 0.999994 0.992693
0.99966 0.999978 0.998157
0.999602 0.999887 0.996051
1.00503 0.998753 0.986731
1.00514 0.998244 0.986941
1.00454 0.999261 0.986975
1.00502 0.998741 0.986613
1.00514 0.99808 0.987096
1.00339 0.99968 0.988675
1.00452 0.999296 0.986977
1.005 0.998866 0.986467
1.00102 0.999849 0.99277
1.00326 0.999702 0.988716
1.00443 0.99943 0.987323
0.999579 1.00016 0.998199
1.00087 1.00001 0.99288
1.00306 0.999851 0.988806
0.999388 1.00036 0.998218
1.0006 1.00045 0.992921
0.99917 1.00027 0.998316
1.0047 0.999249 0.986879
1.0051 0.99874 0.986582
1.00514 0.998247 0.986909
1.00369 0.999708 0.987808
1.00476 0.999321 0.986712
1.0051 0.998767 0.986566
1.00478 0.999421 0.986575
1.00373 0.999762 0.98769
1.00138 1.00004 0.991947
1.00359 0.999935 0.988037
1.00128 1.00006 0.992088
0.99983 1 0.998001
1.00113 1.00007 0.992386
0.999753 0.999993 0.998067
0.999689 0.999974 0.998125
1.00458 0.999264 0.986942
1.00502 0.998671 0.986748
1.00514 0.998171 0.986949
1.00344 0.999701 0.988553
1.00455 0.999263 0.986964
1.005 0.998745 0.986613
1.00112 0.999866 0.992568
1.00338 0.99969 0.988669
1.00453 0.99929 0.98697
0.999701 0.999998 0.998144
1.00102 0.999849 0.992777
1.00327 0.999744 0.988815
0.999538 1.00019 0.998204
1.00086 1.00001 0.992886
0.999346 1.00034 0.998224
1.00364 0.999771 0.988133
1.00472 0.999223 0.986752
1.0051 0.998759 0.986561
1.00137 0.999988 0.991998
1.0037 0.999705 0.987793
1.00476 0.999335 0.98671
1.00373 0.999759 0.987684
1.00137 1.00003 0.991949
0.999916 1.00001 0.99792
1.00128 1.00006 0.992078
0.999861 1.00001 0.997964
0.999788 0.999995 0.998029
1.00353 0.999749 0.988357
1.00459 0.999211 0.986904
1.00501 0.99859 0.986764
1.00124 0.999967 0.993485
1.00344 0.999705 0.988545
1.00456 0.999265 0.986953
0.999772 0.999949 0.998069
1.00112 0.999884 0.992573
1.00338 0.999698 0.988663
0.99966 1.00003 0.998167
1.00101 0.999858 0.992786
0.999507 1.00019 0.998205
1.00136 0.99999 0.992035
1.00364 0.999735 0.988037
1.00473 0.999194 0.986625
0.99993 1 0.997914
1.00137 0.999994 0.991999
1.00371 0.999704 0.987778
1.00137 1.00002 0.991949
0.99993 1.00001 0.997912
0.999903 1.00001 0.997937
1.00136 1 0.993286
1.00353 0.999743 0.98836
1.0046 0.999157 0.986866
0.999586 0.999982 0.998234
1.00118 0.999978 0.992389
1.00345 0.999708 0.988539
0.999746 0.999971 0.9981
1.00111 0.999908 0.992579
0.999629 1.00005 0.998187
0.9999 1.00001 0.995525
1.00137 0.999988 0.992649
1.00364 0.999701 0.98794
0.999924 1 0.997916
1.00136 0.999999 0.992003
0.999937 1.00001 0.997902
0.999618 1.00002 0.99584
1.00129 0.999999 0.992775
1.00353 0.999741 0.988362
0.999687 0.999991 0.996965
1.00118 0.999985 0.992385
0.999719 0.999989 0.998127
0.9999 0.999998 0.997932
1.00131 0.99999 0.992108
0.999913 1 0.997922
0.999739 0.999999 0.996894
1.00125 0.999999 0.992235
0.999775 0.999981 0.998059
0.999874 0.999994 0.997959
0.999821 0.999988 0.998004

TENSORS stress float
0.00131236 -3.94242e-05 0.000105485
-3.94242e-05 0.000381526 -1.20844e-05
0.000105485 -1.20844e-05 0.000360998
0.00385794 -9.0687e-05 9.90626e-05
-9.0687e-05 0.00178515 5.74942e-06
9.90626e-05 5.74942e-06 0.00177679
0.00131454 2.76723e-05 5.54733e-05
2.76723e-05 0.00039768 -3.57029e-06
5.54733e-05 -3.57029e-06 0.000367256
0.00168276 -3.07566e-05 0.000115635
-3.07566e-05 0.000556184 -8.52364e-06
0.000115635 -8.52364e-06 0.000536385
0.00148141 -3.94898e-05 0.000109325
-3.94898e-05 0.0004657 -1.16923e-05
0.000109325 -1.16923e-05 0.000444299
0.00117997 -1.79934e-05 9.50952e-05
-1.79934e-05 0.000306993 -1.06427e-05
9.50952e-05 -1.06427e-05 0.000289381
0.00122734 -7.8588e-06 9.60141e-06
-7.8588e-06 0.000284169 -6.79899e-06
9.60141e-06 -6.79899e-06 0.000220307
0.00374408 -0.000114737 5.31435e-06
-0.000114737 0.00172336 -5.9373e-07
5.31435e-06 -5.9373e-07 0.0017135
0.00469911 -0.000122991 1.87016e-05
-0.000122991 0.00224177 1.93955e-06
1.87016e-05 1.93955e-06 0.00222247
0.00388262 -0.000223691 -4.47602e-07
-0.000223691 0.00183746 3.34519e-06
-4.47602e-07 3.34519e-06 0.00180291
0.00129695 -1.65743e-05 8.24303e-05
-1.65743e-05 0.000357759 5.75923e-06
8.24303e-05 5.75923e-06 0.000347194
0.000754421 6.78474e-05 1.05507e-05
6.78474e-05 2.55778e-05 7.58043e-06
1.05507e-05 7.58043e-06 -2.88273e-05
0.00168445 -1.48687e-05 0.000132385
-1.48687e-05 0.000545441 1.50487e-06
0.000132385 1.50487e-06 0.000525267
0.00125894 1.46347e-05 1.78072e-05
1.46347e-05 0.000330245 1.90274e-06
1.78072e-05 1.90274e-06 0.000301475
0.00136892 8.43638e-05 -2.20567e-06
8.43638e-05 0.000438943 4.28682e-06
-2.20567e-06 4.28682e-06 0.000401034
0.00147846 -1.71661e-05 4.67252e-05
-1.71661e-05 0.000449621 -2.78923e-06
4.67252e-05 -2.78923e-06 0.00042675
0.00120786 3.38169e-05 4.70189e-05
3.38169e-05 0.000336458 -3.50164e-06
4.70189e-05 -3.50164e-06 0.000309409
0.00139455 1.21282e-05 5.32777e-05
1.21282e-05 0.000428204 -4.06085e-06
5.32777e-05 -4.06085e-06 0.000400789
0.00133604 -4.06426e-05 -2.21525e-05
-4.06426e-05 0.000332726 7.81617e-07
-2.21525e-05 7.81617e-07 0.000275644
0.00505157 -6.6051e-05 0.000138924
-6.6051e-05 0.00240773 -2.2954e-06
0.000138924 -2.2954e-06 0.0024032
0.00166055 -1.91336e-05 0.000118073
-1.91336e-05 0.000541161 -6.66888e-06
0.000118073 -6.66888e-06 0.000521164
0.0016258 -3.69961e-05 0.000113088
-3.69961e-05 0.000531979 -1.0293e-05
0.000113088 -1.0293e-05 0.000511444
0.00145955 -4.88737e-05 2.65572e-05
-4.88737e-05 0.000347771 -3.99925e-06
2.65572e-05 -3.99925e-06 0.000294033
0.00135302 -2.34882e-05 1.5884e-05
-2.34882e-05 0.000323088 -6.00063e-06
1.5884e-05 -6.00063e-06 0.000263487
0.00114273 2.56128e-05 7.5677e-05
2.56128e-05 0.000280084 -8.57629e-06
7.5677e-05 -8.57629e-06 0.000263551
0.00107107 -6.10582e-06 9.55663e-06
-6.10582e-06 0.00021796 -5.96632e-06
9.55663e-06 -5.96632e-06 0.000158197
0.00174027 -0.000137718 7.0213e-06
-0.000137718 0.00044505 -3.31693e-06
7.0213e-06 -3.31693e-06 0.000346745
0.00360947 -0.000133945 -7.53523e-05
-0.000133945 0.00165054 -3.43886e-06
-7.53523e-05 -3.43886e-06 0.00163881
0.00300182 -3.68486e-05 -6.42728e-05
-3.68486e-05 0.00130597 -1.82915e-06
-6.42728e-05 -1.82915e-06 0.00128374
0.00258359 -0.000102222 -4.03999e-05
-0.000102222 0.00110106 -1.43421e-06
-4.03999e-05 -1.43421e-06 0.00107507
0.00339284 -0.000115324 3.78014e-06
-0.000115324 0.00152092 -2.75834e-07
3.78014e-06 -2.75834e-07 0.0015147
0.000660942 5.74552e-05 -1.27035e-07
5.74552e-05 -2.02373e-05 -2.58245e-07
-1.27035e-07 -2.58245e-07 -7.42755e-05
0.00156905 4.28993e-05 0.000117657
4.28993e-05 0.000496289 7.9161e-06
0.000117657 7.9161e-06 0.000475425
0.00177276 5.83218e-05 0.000113216
5.83218e-05 0.000627195 1.00634e-05
0.000113216 1.00634e-05 0.000606734
0.00243819 0.000119677 7.06382e-05
0.000119677 0.000896989 8.33279e-06
7.06382e-05 8.33279e-06 0.000847647
0.00285818 -0.000125491 1.52475e-05
-0.000125491 0.00122428 1.39551e-06
1.52475e-05 1.39551e-06 0.00121806
0.00223314 8.74803e-05 5.78526e-05
8.74803e-05 0.000827468 7.73176e-06
5.78526e-05 7.73176e-06 0.000779318
0.000673143 2.31731e-05 9.82807e-06
2.31731e-05 -1.17348e-05 9.30223e-06
9.82807e-06 9.30223e-06 -5.89434e-05
0.000943952 0.000101238 4.54889e-06
0.000101238 8.48193e-05 1.89663e-06
4.54889e-06 1.89663e-06 -1.24584e-05
0.00253159 -8.29095e-05 4.83551e-05
-8.29095e-05 0.00103085 2.72461e-06
4.83551e-05 2.72461e-06 0.00103692
0.00512625 2.83726e-05 3.72797e-07
2.83726e-05 0.00244362 -9.28517e-07
3.72797e-07 -9.28517e-07 0.00244067
0.00313766 2.46395e-05 -5.24016e-05
2.46395e-05 0.00135972 -1.11992e-06
-5.24016e-05 -1.11992e-06 0.00134323
0.00519006 6.53745e-05 0.000143635
6.53745e-05 0.0024788 9.92309e-07
0.000143635 9.92309e-07 0.00247451
0.00135056 -2.74889e-05 1.13518e-05
-2.74889e-05 0.000380934 1.18638e-06
1.13518e-05 1.18638e-06 0.000350147
0.000762299 -1.1603e-06 1.55603e-05
-1.1603e-06 -6.68538e-05 2.25717e-06
1.55603e-05 2.25717e-06 -0.000128307
0.00478333 6.63063e-05 4.96629e-05
6.63063e-05 0.00226618 2.82212e-06
4.96629e-05 2.82212e-06 0.00225463
0.0024461 2.35267e-05 7.27205e-05
2.35267e-05 0.00086899 4.47202e-06
7.27205e-05 4.47202e-06 0.000825386
0.00124322 -3.28271e-05 -2.52318e-05
-3.28271e-05 0.000328748 2.70197e-06
-2.52318e-05 2.70197e-06 0.00030145
0.00134942 1.47886e-05 -1.54389e-05
1.47886e-05 0.000406219 3.30852e-06
-1.54389e-05 3.30852e-06 0.000377514
0.00127693 0.000103293 -7.39497e-07
0.000103293 0.000392453 4.33625e-06
-7.39497e-07 4.33625e-06 0.000353205
0.00139278 -6.67625e-05 -5.75514e-05
-6.67625e-05 0.000354289 7.85375e-06
-5.75514e-05 7.85375e-06 0.000302985
0.00327994 3.95427e-05 -5.55982e-05
3.95427e-05 0.00144298 -1.01078e-06
-5.55982e-05 -1.01078e-06 0.00141886
0.00147162 -2.27857e-05 4.76121e-05
-2.27857e-05 0.00044502 -1.7708e-06
4.76121e-05 -1.7708e-06 0.000420952
0.00112786 4.86988e-05 3.64672e-05
4.86988e-05 0.000281036 -2.7364e-06
3.64672e-05 -2.7364e-06 0.00025934
0.00146253 -8.41944e-06 4.91073e-05
-8.41944e-06 0.000448472 -3.77739e-06
4.91073e-05 -3.77739e-06 0.000424563
0.00149732 -5.23491e-05 -1.73279e-05
-5.23491e-05 0.000365654 6.06649e-07
-1.73279e-05 6.06649e-07 0.000314226
0.00121128 -2.35429e-05 -2.05854e-05
-2.35429e-05 0.000287252 3.5782e-07
-2.05854e-05 3.5782e-07 0.000231665
0.00143149 -5.65193e-05 -1.90812e-05
-5.65193e-05 0.00035785 9.28969e-07
-1.90812e-05 9.28969e-07 0.000303614
0.00184134 -0.000141751 -3.50381e-06
-0.000141751 0.000496448 1.05856e-06
-3.50381e-06 1.05856e-06 0.000397025
0.00510838 5.06534e-05 0.000133478
5.06534e-05 0.00243419 5.20296e-08
0.000133478 5.20296e-08 0.00243146
0.00166488 -5.47104e-06 0.000122964
-5.47104e-06 0.000538944 -4.56465e-06
0.000122964 -4.56465e-06 0.000518175
0.0023283 6.58514e-05 1.43124e-05
6.58514e-05 0.000813483 -1.26087e-06
1.43124e-05 -1.26087e-06 0.000757547
0.00144052 -5.10179e-05 2.69076e-05
-5.10179e-05 0.000335185 -3.55348e-06
2.69076e-05 -3.55348e-06 0.000280437
0.00144287 -4.21633e-05 2.29036e-05
-4.21633e-05 0.000347517 -4.90469e-06
2.29036e-05 -4.90469e-06 0.000292184
0.00194653 -9.56056e-05 8.47855e-06
-9.56056e-05 0.000462585 -1.97021e-06
8.47855e-06 -1.97021e-06 0.000370833
0.00143333 -0.000116366 9.7385e-06
-0.000116366 0.000228438 -3.85736e-06
9.7385e-06 -3.85736e-06 0.000129439
0.00116859 4.72367e-05 5.90039e-05
4.72367e-05 0.00027918 -7.40941e-06
5.90039e-05 -7.40941e-06 0.00026681
0.000903107 2.06127e-05 7.96392e-06
2.06127e-05 0.000141013 -4.56675e-06
7.96392e-06 -4.56675e-06 9.12633e-05
0.00151407 -0.000124629 4.85561e-06
-0.000124629 0.000374851 -2.65535e-06
4.85561e-06 -2.65535e-06 0.000279409
0.00122597 -0.000137553 4.54842e-06
-0.000137553 8.82272e-05 -1.94797e-06
4.54842e-06 -1.94797e-06 -3.77037e-05
0.0047276 -1.68537e-05 -0.000119159
-1.68537e-05 0.00224452 -6.68302e-06
-0.000119159 -6.68302e-06 0.00223909
0.00325696 -0.00012249 -6.37592e-05
-0.00012249 0.00144547 -2.75963e-06
-6.37592e-05 -2.75963e-06 0.00143923
0.00392774 -0.000136229 -8.45265e-05
-0.000136229 0.00183682 -4.95974e-06
-8.45265e-05 -4.95974e-06 0.00182075
0.000576305 5.44757e-05 -9.09041e-06
5.44757e-05 -6.2172e-05 -8.00571e-06
-9.09041e-06 -8.00571e-06 -0.000115825
0.00503257 4.03417e-05 -2.73988e-06
4.03417e-05 0.0023965 -7.91228e-07
-2.73988e-06 -7.91228e-07 0.002393
0.00461793 -8.48589e-05 -4.39655e-06
-8.48589e-05 0.00220577 4.10622e-07
-4.39655e-06 4.10622e-07 0.00219087
0.00061118 9.70991e-05 -6.60314e-07
9.70991e-05 -0.000101391 -2.45331e-07
-6.60314e-07 -2.45331e-07 -0.000164023
0.0019719 -8.42378e-05 -2.59883e-05
-8.42378e-05 0.000731161 -3.28422e-07
-2.59883e-05 -3.28422e-07 0.000723756
0.000628829 8.81563e-05 -2.28976e-07
8.81563e-05 -4.80699e-05 -8.62485e-08
-2.28976e-07 -8.62485e-08 -0.000106201
0.00121881 2.91538e-06 1.58863e-05
2.91538e-06 0.000295008 2.98848e-07
1.58863e-05 2.98848e-07 0.000252389
0.000874865 9.58941e-05 2.65346e-07
9.58941e-05 4.60173e-05 -1.81148e-07
2.65346e-07 -1.81148e-07 -5.03427e-05
0.00279532 -9.05086e-05 5.90659e-05
-9.05086e-05 0.00117855 2.83872e-06
5.90659e-05 2.83872e-06 0.00118197
0.000658556 -6.85238e-05 -1.32045e-06
-6.85238e-05 -4.87253e-06 5.10416e-06
-1.32045e-06 5.10416e-06 -3.15082e-05
0.000733878 7.07247e-05 1.62323e-05
7.07247e-05 -5.91414e-05 7.59409e-06
1.62323e-05 7.59409e-06 -0.0001204
0.000781498 0.000104705 1.86472e-05
0.000104705 8.89212e-06 1.09561e-05
1.86472e-05 1.09561e-05 -5.4118e-05
0.00106755 0.000106201 9.31493e-06
0.000106201 4.99925e-06 4.10246e-06
9.31493e-06 4.10246e-06 -0.000101697
0.0016864 -4.23567e-05 3.18758e-05
-4.23567e-05 0.00055839 4.33195e-06
3.18758e-05 4.33195e-06 0.000526811
0.000997956 0.00011221 5.65664e-06
0.00011221 7.2464e-05 3.6221e-06
5.65664e-06 3.6221e-06 -2.82229e-05
0.000922644 7.90196e-05 4.20105e-06
7.90196e-05 0.000107145 2.34601e-06
4.20105e-06 2.34601e-06 1.27834e-05
0.000868372 0.000123578 1.65664e-06
0.000123578 8.5346e-06 -2.20583e-07
1.65664e-06 -2.20583e-07 -0.000111497
0.002307 -7.53162e-05 3.83869e-05
-7.53162e-05 0.000901763 2.78017e-06
3.83869e-05 2.78017e-06 0.000910469
0.00244587 -8.44215e-05 1.83609e-06
-8.44215e-05 0.00098466 -1.48045e-07
1.83609e-06 -1.48045e-07 0.000990486
0.00497055 4.30338e-05 -0.000134993
4.30338e-05 0.00236056 -5.12811e-06
-0.000134993 -5.12811e-06 0.00235841
0.00507821 4.85106e-05 -0.000135436
4.85106e-05 0.00241883 -2.36534e-06
-0.000135436 -2.36534e-06 0.00241578
0.00518834 6.9301e-05 3.64919e-06
6.9301e-05 0.00248081 -6.65866e-07
3.64919e-06 -6.65866e-07 0.00247485
0.00317109 -1.68872e-05 -5.9835e-05
-1.68872e-05 0.00137466 -1.11167e-06
-5.9835e-05 -1.11167e-06 0.00135885
0.00164328 1.19712e-05 3.14512e-05
1.19712e-05 0.00041892 2.30481e-07
3.14512e-05 2.30481e-07 0.000365449
0.0031688 4.20419e-05 -5.81227e-05
4.20419e-05 0.00137521 -2.40654e-06
-5.81227e-05 -2.40654e-06 0.00135899
0.00162548 3.8561e-05 2.93269e-05
3.8561e-05 0.000421849 7.48909e-07
2.93269e-05 7.48909e-07 0.000369971
0.00520584 0.000126587 0.00013584
0.000126587 0.00249569 1.96271e-06
0.00013584 1.96271e-06 0.00248571
0.000711763 -5.33719e-06 1.51425e-05
-5.33719e-06 -9.84909e-05 5.94806e-07
1.51425e-05 5.94806e-07 -0.000159808
0.00251491 -2.6862e-06 7.47627e-05
-2.6862e-06 0.000902664 3.27408e-06
7.47627e-05 3.27408e-06 0.00085794
0.00119201 2.21673e-05 1.03557e-05
2.21673e-05 9.6275e-06 1.54888e-06
1.03557e-05 1.54888e-06 -9.34917e-05
0.00238811 6.79231e-05 7.21684e-05
6.79231e-05 0.00084407 5.25058e-06
7.21684e-05 5.25058e-06 0.000798464
0.00118056 5.69511e-05 9.91144e-06
5.69511e-05 2.17114e-05 2.41391e-06
9.91144e-06 2.41391e-06 -7.89864e-05
0.00170601 2.23288e-05 -0.000130675
2.23288e-05 0.000559448 6.5524e-07
-0.000130675 6.5524e-07 0.000539456
0.00123293 -4.14621e-05 -2.19837e-05
-4.14621e-05 0.00032293 2.20961e-06
-2.19837e-05 2.20961e-06 0.000293904
0.00109294 8.61474e-05 -6.11512e-06
8.61474e-05 0.00027315 3.14618e-06
-6.11512e-06 3.14618e-06 0.000243955
0.00130145 -1.5186e-05 -2.22097e-05
-1.5186e-05 0.000366755 3.04442e-06
-2.22097e-05 3.04442e-06 0.000339438
0.00156673 -4.16367e-05 -6.26102e-05
-4.16367e-05 0.000399706 4.90924e-06
-6.26102e-05 4.90924e-06 0.000351131
0.00148362 -6.42843e-05 -5.99279e-05
-6.42843e-05 0.000381602 7.60421e-06
-5.99279e-05 7.60421e-06 0.000330453
0.0012884 -4.88013e-05 -5.086e-05
-4.88013e-05 0.000319883 7.06715e-06
-5.086e-05 7.06715e-06 0.000270007
0.00196259 -0.000147039 -1.47331e-05
-0.000147039 0.00055922 5.72508e-06
-1.47331e-05 5.72508e-06 0.000458492
0.00517291 -4.84959e-05 -2.21458e-06
-4.84959e-05 0.00247018 -6.65712e-07
-2.21458e-06 -6.65712e-07 0.00246573
0.00147292 1.14412e-05 5.46924e-05
1.14412e-05 0.000441059 -1.47408e-06
5.46924e-05 -1.47408e-06 0.00041644
0.00115579 5.75271e-06 -3.37984e-05
5.75271e-06 0.000155319 4.35385e-07
-3.37984e-05 4.35385e-07 9.96179e-05
0.00148202 -4.24508e-05 -1.86688e-05
-4.24508e-05 0.00035426 3.65076e-07
-1.86688e-05 3.65076e-07 0.000302309
0.0021583 7.71176e-05 5.41405e-05
7.71176e-05 0.000832862 -6.56556e-07
5.41405e-05 -6.56556e-07 0.000824766
0.00136454 1.07486e-05 -1.30538e-05
1.07486e-05 0.000386486 -1.84686e-07
-1.30538e-05 -1.84686e-07 0.000338986
0.00149262 -5.76336e-05 -1.77409e-05
-5.76336e-05 0.000371477 7.6561e-07
-1.77409e-05 7.6561e-07 0.00031885
0.00177 -8.86251e-05 -5.83793e-06
-8.86251e-05 0.000364427 1.02133e-06
-5.83793e-06 1.02133e-06 0.00027162
0.00168568 -0.000135715 -2.58998e-06
-0.000135715 0.000464439 9.75831e-07
-2.58998e-06 9.75831e-07 0.000366648
0.00170169 -0.000125335 -1.81073e-06
-0.000125335 0.000374967 3.0666e-07
-1.81073e-06 3.0666e-07 0.000276407
0.00120296 -0.000135496 -8.32234e-08
-0.000135496 7.61986e-05 -1.24798e-07
-8.32234e-08 -1.24798e-07 -4.93924e-05
0.00073232 4.77222e-06 1.53487e-05
4.77222e-06 -8.37239e-05 -1.25437e-06
1.53487e-05 -1.25437e-06 -0.000144738
0.00144889 -1.0827e-05 2.21563e-05
-1.0827e-05 0.000329399 -2.39749e-06
2.21563e-05 -2.39749e-06 0.000273926
0.00162686 -1.60568e-05 1.00577e-05
-1.60568e-05 0.00025389 -1.42938e-06
1.00577e-05 -1.42938e-06 0.000156961
0.00152997 -6.69456e-05 9.54855e-06
-6.69456e-05 0.00022913 -2.11641e-06
9.54855e-06 -2.11641e-06 0.000134958
0.0015505 -0.000104556 1.02791e-05
-0.000104556 0.000256486 -3.05947e-06
1.02791e-05 -3.05947e-06 0.000159513
0.00177237 -0.000102487 2.95205e-06
-0.000102487 0.000278913 -5.90574e-07
2.95205e-06 -5.90574e-07 0.000166536
0.00301906 0.000106308 5.84051e-05
0.000106308 0.00130071 -2.58053e-06
5.84051e-05 -2.58053e-06 0.00130045
0.00130255 -0.000129104 4.86933e-06
-0.000129104 7.66454e-05 -1.82881e-06
4.86933e-06 -1.82881e-06 -4.60474e-05
0.000586636 3.52529e-05 3.84486e-06
3.52529e-05 -4.56263e-05 -5.92874e-06
3.84486e-06 -5.92874e-06 -8.89289e-05
0.000662258 -8.22523e-05 3.38146e-06
-8.22523e-05 -4.26823e-05 -2.11843e-06
3.38146e-06 -2.11843e-06 -0.000133767
0.00131359 -0.000150368 4.02617e-06
-0.000150368 0.000199218 -2.24907e-06
4.02617e-06 -2.24907e-06 6.99764e-05
0.00138121 -0.000153403 2.38714e-06
-0.000153403 0.000117999 -1.00174e-06
2.38714e-06 -1.00174e-06 -1.95251e-05
0.000553241 6.58362e-05 3.41042e-08
6.58362e-05 -6.39058e-05 -5.86941e-06
3.41042e-08 -5.86941e-06 -9.87647e-05
0.000730246 3.43459e-05 3.25741e-07
3.43459e-05 1.0228e-05 -2.85436e-06
3.25741e-07 -2.85436e-06 -5.48872e-05
0.00495667 4.29352e-05 -0.00013487
4.29352e-05 0.00235726 -7.18917e-06
-0.00013487 -7.18917e-06 0.00235389
0.00429639 -0.000106355 -9.45053e-05
-0.000106355 0.00203424 -6.29756e-06
-9.45053e-05 -6.29756e-06 0.00201984
0.000584529 8.67755e-05 -1.4029e-05
8.67755e-05 -0.000115479 -8.27554e-06
-1.4029e-05 -8.27554e-06 -0.000178211
0.00292801 -0.000106518 -5.57906e-05
-0.000106518 0.00125747 -2.54178e-06
-5.57906e-05 -2.54178e-06 0.0012567
0.000556751 -5.38951e-06 -4.1404e-06
-5.38951e-06 -6.58956e-05 -7.13491e-06
-4.1404e-06 -7.13491e-06 -0.000110585
0.000532183 8.00041e-05 -1.14205e-05
8.00041e-05 -9.67271e-05 -8.24665e-06
-1.14205e-05 -8.24665e-06 -0.000154946
0.000828549 9.18795e-05 -4.60417e-06
9.18795e-05 1.97557e-05 -2.46642e-06
-4.60417e-06 -2.46642e-06 -7.5928e-05
0.00270085 -9.30176e-05 2.04941e-06
-9.30176e-05 0.00112831 -1.79365e-07
2.04941e-06 -1.79365e-07 0.00113134
0.000621538 -6.48062e-05 5.01527e-08
-6.48062e-05 -2.65526e-05 1.72306e-07
5.01527e-08 1.72306e-07 -5.20021e-05
0.00155836 8.33857e-05 2.83165e-05
8.33857e-05 0.000396059 8.37576e-07
2.83165e-05 8.37576e-07 0.000341104
0.00141616 0.000102405 2.42376e-05
0.000102405 0.000362391 6.32333e-07
2.42376e-05 6.32333e-07 0.000307085
0.00107697 0.000107849 3.41019e-07
0.000107849 1.05971e-05 -2.43374e-07
3.41019e-07 -2.43374e-07 -9.62723e-05
0.000643497 -3.93757e-05 -4.51803e-07
-3.93757e-05 -1.51046e-05 1.51027e-07
-4.51803e-07 1.51027e-07 -5.22588e-05
0.000934491 0.000107784 2.72474e-07
0.000107784 3.87964e-05 4.98829e-07
2.72474e-07 4.98829e-07 -6.12174e-05
0.000831837 7.25532e-05 3.2014e-07
7.25532e-05 5.6978e-05 -2.40668e-07
3.2014e-07 -2.40668e-07 -3.57215e-05
0.000808216 0.000120098 -6.12279e-08
0.000120098 -2.55487e-05 -4.44092e-08
-6.12279e-08 -4.44092e-08 -0.000145949
0.000639224 -5.23565e-05 2.47464e-06
-5.23565e-05 -1.42567e-05 5.33627e-06
2.47464e-06 5.33627e-06 -4.57588e-05
0.000693595 -5.68954e-05 5.96589e-07
-5.68954e-05 1.47386e-06 4.05492e-06
5.96589e-07 4.05492e-06 -1.70934e-05
0.000684212 -8.7042e-06 2.0492e-06
-8.7042e-06 -3.6289e-06 2.52629e-06
2.0492e-06 2.52629e-06 -6.52874e-05
0.00111094 9.05049e-05 9.82674e-06
9.05049e-05 -2.54911e-06 3.39632e-06
9.82674e-06 3.39632e-06 -0.000107452
0.00103795 0.000114693 7.78707e-06
0.000114693 4.19329e-05 4.27516e-06
7.78707e-06 4.27516e-06 -6.34869e-05
0.00130075 0.000132959 5.43436e-06
0.000132959 5.18028e-05 2.07962e-06
5.43436e-06 2.07962e-06 -7.85858e-05
0.000863067 5.35072e-05 3.27463e-06
5.35072e-05 8.68077e-05 2.60455e-06
3.27463e-06 2.60455e-06 1.28886e-06
0.000907987 0.000127553 1.62968e-06
0.000127553 -2.8342e-05 1.47765e-06
1.62968e-06 1.47765e-06 -0.000151209
0.00110238 0.000133211 1.92377e-06
0.000133211 0.000182663 4.05488e-07
1.92377e-06 4.05488e-07 6.09192e-05
0.00105186 0.000144237 -2.07121e-06
0.000144237 9.64932e-05 -1.58142e-06
-2.07121e-06 -1.58142e-06 -3.49129e-05
0.00216097 -6.68681e-05 3.2266e-05
-6.68681e-05 0.00081284 2.97828e-06
3.2266e-05 2.97828e-06 0.000824399
0.00223965 -7.51748e-05 1.05643e-06
-7.51748e-05 0.000864233 -1.16262e-07
1.05643e-06 -1.16262e-07 0.000873133
0.00234982 -8.41417e-05 -3.74761e-05
-8.41417e-05 0.00093237 -2.62465e-06
-3.74761e-05 -2.62465e-06 0.000938361
0.000582294 5.99511e-05 1.067e-06
5.99511e-05 -5.50964e-05 -4.92312e-06
1.067e-06 -4.92312e-06 -8.32349e-05
0.00281915 9.6173e-05 5.06589e-05
9.6173e-05 0.00118694 -2.72313e-06
5.06589e-05 -2.72313e-06 0.00118975
0.00501215 7.30685e-05 -0.000141258
7.30685e-05 0.00238479 -6.96986e-06
-0.000141258 -6.96986e-06 0.00238114
0.00496467 -2.37743e-05 -0.000128769
-2.37743e-05 0.00235859 -3.21149e-06
-0.000128769 -3.21149e-06 0.00235586
0.000735121 4.72109e-05 -1.51347e-05
4.72109e-05 -6.54304e-05 -3.93255e-06
-1.51347e-05 -3.93255e-06 -0.000124379
0.00071167 1.68243e-05 -1.53204e-05
1.68243e-05 -8.98674e-05 -2.3397e-06
-1.53204e-05 -2.3397e-06 -0.00015091
0.00514747 -6.13732e-05 -0.000133754
-6.13732e-05 0.00245617 -4.75914e-07
-0.000133754 -4.75914e-07 0.00245234
0.00519885 1.10374e-06 -1.16528e-06
1.10374e-06 0.00248157 4.69573e-07
-1.16528e-06 4.69573e-07 0.0024785
0.00070949 -3.56305e-06 -1.60364e-07
-3.56305e-06 -9.89837e-05 -2.51512e-07
-1.60364e-07 -2.51512e-07 -0.000160407
0.00161624 1.56013e-05 3.03175e-05
1.56013e-05 0.000412751 5.83515e-07
3.03175e-05 5.83515e-07 0.000360622
0.00120044 2.6251e-05 1.68741e-07
2.6251e-05 1.44486e-05 -1.50922e-07
1.68741e-07 -1.50922e-07 -8.8787e-05
0.000675886 4.96352e-05 2.39149e-07
4.96352e-05 -9.62248e-05 -1.33312e-07
2.39149e-07 -1.33312e-07 -0.000155178
0.00116851 5.90348e-05 -1.30912e-07
5.90348e-05 1.6011e-05 3.52088e-08
-1.30912e-07 3.52088e-08 -8.50072e-05
0.000700963 -1.32206e-05 1.54746e-05
-1.32206e-05 -0.000105194 -3.39968e-07
1.54746e-05 -3.39968e-07 -0.000166832
0.00120925 9.5376e-06 1.0411e-05
9.5376e-06 9.43756e-06 4.89753e-07
1.0411e-05 4.89753e-07 -9.50836e-05
0.00118107 3.97535e-05 1.00465e-05
3.97535e-05 1.61479e-05 2.13172e-06
1.00465e-05 2.13172e-06 -8.51985e-05
0.00145196 2.8257e-05 4.42523e-06
2.8257e-05 6.57065e-05 8.55151e-07
4.42523e-06 8.55151e-07 -5.3423e-05
0.00114942 7.27516e-05 9.93141e-06
7.27516e-05 7.23446e-06 2.61369e-06
9.93141e-06 2.61369e-06 -9.49635e-05
0.00145582 6.80547e-05 4.35637e-06
6.80547e-05 8.65237e-05 1.17554e-06
4.35637e-06 1.17554e-06 -3.1084e-05
0.00518033 -4.33407e-05 -0.000145056
-4.33407e-05 0.00247346 -5.76411e-07
-0.000145056 -5.76411e-07 0.00246923
0.00129063 -3.53445e-05 -1.61715e-05
-3.53445e-05 0.000349721 1.44637e-06
-1.61715e-05 1.44637e-06 0.000320271
-0.000106981 -4.95474e-07 -1.35664e-05
-4.95474e-07 -0.000539374 2.28824e-06
-1.35664e-05 2.28824e-06 -0.000606557
0.00157393 -2.73754e-05 -6.38513e-05
-2.73754e-05 0.000400462 3.58297e-06
-6.38513e-05 3.58297e-06 0.000351592
0.00301858 0.000141093 -1.64724e-05
0.000141093 0.00132102 1.35995e-06
-1.64724e-05 1.35995e-06 0.00130926
0.00185099 -2.9257e-05 -4.20691e-05
-2.9257e-05 0.000639681 5.8255e-06
-4.20691e-05 5.8255e-06 0.000598674
0.00154856 -5.56773e-05 -6.16696e-05
-5.56773e-05 0.000398563 6.50009e-06
-6.16696e-05 6.50009e-06 0.00034857
0.00157886 -8.14808e-05 -1.87385e-05
-8.14808e-05 0.000258142 3.55068e-06
-1.87385e-05 3.55068e-06 0.000164383
0.00197535 -0.000135027 -1.46702e-05
-0.000135027 0.000524659 4.87328e-06
-1.46702e-05 4.87328e-06 0.000426474
0.00190398 -0.000147967 -1.17209e-05
-0.000147967 0.000579706 5.22699e-06
-1.17209e-05 5.22699e-06 0.000479394
0.00118404 -0.000133698 -4.09582e-06
-0.000133698 6.64258e-05 1.55263e-06
-4.09582e-06 1.55263e-06 -5.88645e-05
0.000700847 7.36952e-06 3.94903e-08
7.36952e-06 -0.000101562 -2.3864e-07
3.94903e-08 -2.3864e-07 -0.00016242
0.00152966 -2.6531e-05 -2.13395e-05
-2.6531e-05 0.000371222 1.02565e-07
-2.13395e-05 1.02565e-07 0.000317887
0.00120356 -1.39965e-05 -4.01733e-06
-1.39965e-05 2.21407e-05 1.94555e-07
-4.01733e-06 1.94555e-07 -7.78348e-05
0.00179512 -6.9823e-05 -2.76414e-06
-6.9823e-05 0.000372563 3.63675e-07
-2.76414e-06 3.63675e-07 0.000280017
0.00302692 0.00010417 -1.16147e-06
0.00010417 0.00130598 -2.39597e-07
-1.16147e-06 -2.39597e-07 0.00130565
0.00115849 1.76362e-05 2.20055e-06
1.76362e-05 0.000265943 3.5766e-07
2.20055e-06 3.5766e-07 0.000224856
0.00115485 -9.79212e-05 4.32166e-07
-9.79212e-05 0.000222573 -2.5126e-07
4.32166e-07 -2.5126e-07 0.00013113
0.00155155 -0.000103494 -3.07522e-06
-0.000103494 0.000258094 5.80628e-07
-3.07522e-06 5.80628e-07 0.000160995
0.00147618 -9.39212e-05 -2.21604e-06
-9.39212e-05 0.000114832 6.34368e-07
-2.21604e-06 6.34368e-07 1.3285e-06
0.00101161 -0.000133292 -5.82635e-07
-0.000133292 3.78165e-05 -1.87723e-07
-5.82635e-07 -1.87723e-07 -9.01103e-05
0.00152456 -0.000135728 4.45035e-08
-0.000135728 0.00019862 -2.97771e-07
4.45035e-08 -2.97771e-07 7.70077e-05
0.00134949 -0.000151122 3.23452e-08
-0.000151122 0.000101361 -1.27117e-07
3.23452e-08 -1.27117e-07 -3.57352e-05
0.000581447 5.56932e-05 -8.36909e-07
5.56932e-05 -5.04819e-05 4.43542e-08
-8.36909e-07 4.43542e-08 -8.4019e-05
0.000705804 1.97225e-05 -1.71113e-07
1.97225e-05 -5.0538e-06 1.89251e-07
-1.71113e-07 1.89251e-07 -6.98454e-05
0.00119462 -7.28077e-06 1.01955e-05
-7.28077e-06 2.92589e-06 -1.423e-06
1.01955e-05 -1.423e-06 -0.000100858
0.00158538 -3.69744e-05 9.61926e-06
-3.69744e-05 0.000242074 -1.59061e-06
9.61926e-06 -1.59061e-06 0.000146476
0.00185778 -2.17164e-05 3.24185e-06
-2.17164e-05 0.000293745 -4.14987e-07
3.24185e-06 -4.14987e-07 0.000181032
0.00118632 -6.62265e-05 4.97023e-06
-6.62265e-05 -4.96654e-05 -1.56074e-06
4.97023e-06 -1.56074e-06 -0.000165246
0.00163837 -0.000125487 4.36907e-06
-0.000125487 0.0002211 -8.95942e-07
4.36907e-06 -8.95942e-07 0.000104022
0.00170145 -9.96842e-05 6.53725e-07
-9.96842e-05 0.000186922 -4.33109e-09
6.53725e-07 -4.33109e-09 7.09519e-05
0.000533207 4.68044e-05 2.38831e-06
4.68044e-05 -7.62194e-05 -6.004e-06
2.38831e-06 -6.004e-06 -0.000114471
0.00149634 -0.000141832 2.12005e-06
-0.000141832 0.000120413 -6.54448e-07
2.12005e-06 -6.54448e-07 -9.2204e-06
0.000656319 -5.06076e-05 2.28454e-06
-5.06076e-05 -2.90258e-05 -1.54349e-06
2.28454e-06 -1.54349e-06 -0.000114503
0.000527536 -0.000103973 2.71429e-06
-0.000103973 -0.000155448 -2.75521e-06
2.71429e-06 -2.75521e-06 -0.000276266
0.00188632 -0.000193046 1.52277e-06
-0.000193046 0.000466601 -6.84185e-07
1.52277e-06 -6.84185e-07 0.000321226
0.00159251 -0.000167301 -6.69675e-07
-0.000167301 0.000182966 8.38705e-07
-6.69675e-07 8.38705e-07 4.52771e-05
0.000788676 -1.03777e-05 1.44565e-06
-1.03777e-05 4.61375e-05 -2.86981e-06
1.44565e-06 -2.86981e-06 -3.0728e-05
0.000714758 3.32049e-05 1.09161e-06
3.32049e-05 -1.74686e-06 -2.1656e-06
1.09161e-06 -2.1656e-06 -5.7857e-05
0.000831949 -4.05099e-05 2.67271e-07
-4.05099e-05 6.84001e-05 -7.40537e-07
2.67271e-07 -7.40537e-07 -2.65072e-05
0.000645646 7.23204e-05 -1.43247e-05
7.23204e-05 -0.000102899 -6.70454e-06
-1.43247e-05 -6.70454e-06 -0.000164284
0.00262994 -9.50321e-05 -4.59798e-05
-9.50321e-05 0.00109062 -2.50054e-06
-4.59798e-05 -2.50054e-06 0.00109337
0.000586472 -5.86826e-05 -1.24287e-06
-5.86826e-05 -4.76645e-05 -4.27865e-06
-1.24287e-06 -4.27865e-06 -7.15443e-05
0.000522836 9.28478e-05 -1.34166e-05
9.28478e-05 -0.000121862 -8.81809e-06
-1.34166e-05 -8.81809e-06 -0.000182663
0.00108375 0.000109753 -9.34962e-06
0.000109753 1.47826e-05 -4.63886e-06
-9.34962e-06 -4.63886e-06 -9.23057e-05
0.00052843 -5.12352e-05 -1.62998e-06
-5.12352e-05 -7.41697e-05 -6.20842e-06
-1.62998e-06 -6.20842e-06 -0.000112758
0.000726332 6.54068e-05 -2.86296e-06
6.54068e-05 -1.10654e-06 -2.50468e-06
-2.86296e-06 -2.50468e-06 -9.21288e-05
0.000876061 0.000103454 -5.23632e-06
0.000103454 8.19411e-06 -2.75293e-06
-5.23632e-06 -2.75293e-06 -9.11958e-05
0.000746241 0.000116586 -2.80093e-06
0.000116586 -6.07715e-05 -4.809e-07
-2.80093e-06 -4.809e-07 -0.000181519
0.000589129 -6.17107e-05 1.64202e-06
-6.17107e-05 -4.04446e-05 -2.86779e-11
1.64202e-06 -2.86779e-11 -7.24647e-05
0.000660398 -5.27409e-05 -1.76851e-07
-5.27409e-05 -1.75114e-05 1.24976e-07
-1.76851e-07 1.24976e-07 -3.51954e-05
0.000694798 -3.90789e-05 3.10798e-07
-3.90789e-05 -1.34115e-06 2.89219e-07
3.10798e-07 2.89219e-07 -5.97351e-05
0.00112706 9.273e-05 1.93855e-07
9.273e-05 6.77345e-06 -2.62879e-07
1.93855e-07 -2.62879e-07 -9.85233e-05
0.00100756 0.00011351 5.59522e-07
0.00011351 2.7047e-05 -1.60671e-07
5.59522e-07 -1.60671e-07 -7.81456e-05
0.00133981 0.000135776 3.05057e-07
0.000135776 7.25348e-05 4.95109e-08
3.05057e-07 4.95109e-08 -5.82659e-05
0.000800925 4.7131e-05 4.34133e-08
4.7131e-05 5.56351e-05 -2.51546e-08
4.34133e-08 -2.51546e-08 -2.96823e-05
0.00108963 0.000137574 -1.78986e-07
0.000137574 7.07753e-05 -1.37976e-07
-1.78986e-07 -1.37976e-07 -5.27161e-05
0.00102413 0.000127712 3.27605e-07
0.000127712 0.000140455 -4.3789e-07
3.27605e-07 -4.3789e-07 1.92068e-05
0.000966496 0.00014132 -8.17749e-07
0.00014132 4.94677e-05 7.74453e-07
-8.17749e-07 7.74453e-07 -8.22266e-05
0.000703518 -4.71066e-05 1.94817e-06
-4.71066e-05 -4.82947e-06 3.43524e-06
1.94817e-06 3.43524e-06 -1.79801e-05
0.000727987 1.92221e-05 2.33146e-06
1.92221e-05 1.47246e-05 2.24226e-06
2.33146e-06 2.24226e-06 -5.75042e-05
0.000691364 -5.26354e-05 3.50026e-08
-5.26354e-05 -6.3932e-06 2.21907e-06
3.50026e-08 2.21907e-06 -5.41416e-05
0.000824406 2.78858e-05 3.93851e-07
2.78858e-05 7.33374e-05 7.09095e-07
3.93851e-07 7.09095e-07 -1.43316e-05
0.00135764 0.000110738 6.06347e-06
0.000110738 4.85969e-05 1.33688e-06
6.06347e-06 1.33688e-06 -7.69966e-05
0.00125697 0.000145114 4.18143e-06
0.000145114 9.41396e-05 2.99431e-06
4.18143e-06 2.99431e-06 -3.5982e-05
0.00152238 0.00014942 2.98855e-06
0.00014942 0.000113735 1.46762e-06
2.98855e-06 1.46762e-06 -2.63184e-05
0.00109295 0.000102082 2.05024e-06
0.000102082 0.000200775 1.62388e-06
2.05024e-06 1.62388e-06 9.02808e-05
0.00130256 0.000159812 -7.68434e-07
0.000159812 0.000153246 1.17566e-06
-7.68434e-07 1.17566e-06 1.99761e-05
0.000945667 0.000136952 -1.74283e-07
0.000136952 9.54194e-05 -1.88393e-06
-1.74283e-07 -1.88393e-06 -4.69041e-05
0.000827797 0.000137615 -5.15061e-07
0.000137615 -5.20674e-05 -9.26313e-07
-5.15061e-07 -9.26313e-07 -0.000187123
0.00076 -2.49099e-05 1.29412e-06
-2.49099e-05 4.01219e-06 1.61402e-06
1.29412e-06 1.61402e-06 -2.76672e-05
0.000702879 -3.57548e-05 1.45642e-06
-3.57548e-05 -2.18579e-05 3.33937e-06
1.45642e-06 3.33937e-06 -2.9354e-05
0.00209359 -5.90489e-05 2.78387e-05
-5.90489e-05 0.000766487 3.23914e-06
2.78387e-05 3.23914e-06 0.000780565
0.00212786 -6.6491e-05 1.28501e-06
-6.6491e-05 0.000793448 -1.15388e-07
1.28501e-06 -1.15388e-07 0.000805287
0.00217651 -7.4095e-05 -3.3079e-05
-7.4095e-05 0.000828756 -2.82668e-06
-3.3079e-05 -2.82668e-06 0.000838086
0.000625207 4.85959e-05 2.0581e-06
4.85959e-05 -4.18069e-05 -4.27261e-06
2.0581e-06 -4.27261e-06 -6.4081e-05
0.00263442 8.70948e-05 4.35894e-05
8.70948e-05 0.00108184 -2.94013e-06
4.35894e-05 -2.94013e-06 0.00108709
0.000613683 6.4464e-05 -3.79993e-07
6.4464e-05 -3.58502e-05 6.54562e-08
-3.79993e-07 6.54562e-08 -6.52892e-05
0.00285566 9.4265e-05 -1.3534e-06
9.4265e-05 0.0012064 -1.70519e-07
-1.3534e-06 -1.70519e-07 0.0012094
0.00070072 5.77678e-05 -1.47755e-05
5.77678e-05 -8.21889e-05 -5.13629e-06
-1.47755e-05 -5.13629e-06 -0.00014186
0.000707306 2.98555e-05 -1.48821e-05
2.98555e-05 -8.42359e-05 -3.21583e-06
-1.48821e-05 -3.21583e-06 -0.000144179
0.00115907 6.0321e-05 -9.71618e-06
6.0321e-05 1.1519e-05 -2.26008e-06
-9.71618e-06 -2.26008e-06 -8.97322e-05
0.00119848 2.81833e-05 -1.02627e-05
2.81833e-05 1.37709e-05 -1.82397e-06
-1.02627e-05 -1.82397e-06 -8.95296e-05
0.000728141 6.05515e-07 -1.56506e-05
6.05515e-07 -8.90167e-05 -1.18652e-06
-1.56506e-05 -1.18652e-06 -0.000150144
0.00521807 -7.33402e-05 -0.000142252
-7.33402e-05 0.00249351 1.13729e-06
-0.000142252 1.13729e-06 0.00248955
0.00072216 -1.56526e-06 1.03059e-07
-1.56526e-06 -9.44473e-05 -2.85468e-07
1.03059e-07 -2.85468e-07 -0.000155849
0.00121446 1.37861e-05 1.55522e-08
1.37861e-05 1.248e-05 -2.81676e-07
1.55522e-08 -2.81676e-07 -9.20803e-05
0.00117686 4.05792e-05 5.71135e-09
4.05792e-05 1.45337e-05 -5.37198e-08
5.71135e-09 -5.37198e-08 -8.69427e-05
0.00146564 2.80974e-05 2.82907e-08
2.80974e-05 7.26572e-05 -5.099e-08
2.82907e-08 -5.099e-08 -4.65108e-05
0.0011551 7.53838e-05 -1.03498e-08
7.53838e-05 1.08743e-05 -1.92956e-07
-1.03498e-08 -1.92956e-07 -9.17971e-05
0.00144352 7.00987e-05 -5.54462e-08
7.00987e-05 8.03474e-05 1.77633e-07
-5.54462e-08 1.77633e-07 -3.75132e-05
0.00122011 -6.75716e-07 1.03759e-05
-6.75716e-07 1.34377e-05 -2.69784e-07
1.03759e-05 -2.69784e-07 -9.11194e-05
0.00148046 1.77642e-05 4.3861e-06
1.77642e-05 7.07318e-05 2.78749e-07
4.3861e-06 2.78749e-07 -4.93554e-05
0.00145667 4.8389e-05 4.44059e-06
4.8389e-05 8.13183e-05 1.04376e-06
4.44059e-06 1.04376e-06 -3.6855e-05
0.00159527 2.8863e-05 9.11251e-07
2.8863e-05 9.04189e-05 2.85064e-07
9.11251e-07 2.85064e-07 -2.77241e-05
0.00141272 8.90955e-05 4.62494e-06
8.90955e-05 6.58878e-05 7.93031e-07
4.62494e-06 7.93031e-07 -5.43181e-05
0.00156782 7.42156e-05 9.61331e-07
7.42156e-05 9.8676e-05 3.11913e-07
9.61331e-07 3.11913e-07 -2.16706e-05
0.000709056 1.06449e-05 -1.48635e-05
1.06449e-05 -9.81724e-05 6.72486e-07
-1.48635e-05 6.72486e-07 -0.000159074
0.00159605 -9.74797e-06 -6.60181e-05
-9.74797e-06 0.000404615 2.57888e-06
-6.60181e-05 2.57888e-06 0.000353894
0.000776581 -1.04432e-05 -1.08215e-05
-1.04432e-05 -0.000211651 1.7414e-06
-1.08215e-05 1.7414e-06 -0.000314722
0.00203377 -7.13165e-05 -1.64362e-05
-7.13165e-05 0.000501274 2.75445e-06
-1.64362e-05 2.75445e-06 0.000410544
0.00304703 0.000100709 -6.57795e-05
0.000100709 0.00131752 2.81341e-06
-6.57795e-05 2.81341e-06 0.00131742
0.00178924 1.37472e-05 -3.51123e-05
1.37472e-05 0.000610258 4.10546e-06
-3.51123e-05 4.10546e-06 0.000573413
0.00167984 -0.000121525 -7.84019e-06
-0.000121525 0.000504917 3.32984e-06
-7.84019e-06 3.32984e-06 0.000412433
0.00154439 -0.000102132 -1.59535e-05
-0.000102132 0.000255182 4.07938e-06
-1.59535e-05 4.07938e-06 0.000158046
0.00117396 -8.50952e-05 -6.14103e-06
-8.50952e-05 -5.25493e-05 1.51107e-06
-6.14103e-06 1.51107e-06 -0.00016715
0.00174356 -0.000142314 -5.75899e-06
-0.000142314 0.000319032 1.52545e-06
-5.75899e-06 1.52545e-06 0.000198485
0.000704117 -0.000115733 -3.47029e-06
-0.000115733 -0.000126503 1.55952e-06
-3.47029e-06 1.55952e-06 -0.000253056
0.00131423 -0.000148669 -1.71185e-06
-0.000148669 8.28017e-05 5.89804e-07
-1.71185e-06 5.89804e-07 -5.38468e-05
0.000618709 5.08112e-05 -2.70747e-06
5.08112e-05 -2.93928e-05 5.54533e-06
-2.70747e-06 5.54533e-06 -6.33732e-05
0.000694552 5.11586e-06 -1.71695e-06
5.11586e-06 -1.18986e-05 2.56185e-06
-1.71695e-06 2.56185e-06 -7.73007e-05
0.00100205 -3.2819e-06 -4.7639e-07
-3.2819e-06 -0.000101222 -3.33793e-07
-4.7639e-07 -3.33793e-07 -0.000206177
0.00160523 -3.87661e-05 -3.29561e-06
-3.87661e-05 0.000252362 2.45133e-07
-3.29561e-06 2.45133e-07 0.00015667
0.00176976 -1.84151e-05 -2.15441e-06
-1.84151e-05 0.000243511 5.55627e-07
-2.15441e-06 5.55627e-07 0.0001303
0.0015407 -7.21676e-05 1.07285e-06
-7.21676e-05 0.000143231 -3.64306e-07
1.07285e-06 -3.64306e-07 2.96508e-05
0.000590304 3.64761e-05 1.6239e-07
3.64761e-05 -4.74837e-05 1.49334e-07
1.6239e-07 1.49334e-07 -8.4966e-05
0.000815919 -6.40084e-05 -1.99918e-07
-6.40084e-05 5.71939e-05 6.12946e-08
-1.99918e-07 6.12946e-08 -2.99689e-05
0.0007004 -0.000113787 1.04446e-06
-0.000113787 -5.92359e-05 -9.6945e-07
1.04446e-06 -9.6945e-07 -0.000179173
0.0017314 -0.000126835 -1.18236e-06
-0.000126835 0.000272118 3.11417e-07
-1.18236e-06 3.11417e-07 0.000155192
0.00156358 -9.46428e-05 -6.63447e-07
-9.46428e-05 0.000109905 5.41742e-07
-6.63447e-07 5.41742e-07 -5.79247e-06
0.00149251 -0.000171556 -1.38186e-06
-0.000171556 0.000252294 7.94289e-07
-1.38186e-06 7.94289e-07 0.000107055
0.00143976 -0.000138929 6.01936e-08
-0.000138929 9.1021e-05 -3.42486e-07
6.01936e-08 -3.42486e-07 -3.83231e-05
0.00143944 -0.000159508 3.91835e-07
-0.000159508 0.000101343 4.69902e-07
3.91835e-07 4.69902e-07 -3.53714e-05
0.000749133 -1.41752e-05 -2.14987e-07
-1.41752e-05 2.3914e-05 -1.38898e-07
-2.14987e-07 -1.38898e-07 -5.30298e-05
0.000763813 -1.23077e-05 -6.74354e-07
-1.23077e-05 2.60552e-05 -2.98338e-07
-6.74354e-07 -2.98338e-07 -6.44393e-05
0.000713579 2.47982e-05 4.65346e-07
2.47982e-05 -4.022e-06 2.75919e-07
4.65346e-07 2.75919e-07 -5.96545e-05
0.00186811 -2.86675e-06 3.11878e-06
-2.86675e-06 0.000287445 -6.61767e-07
3.11878e-06 -6.61767e-07 0.00017179
0.00167389 -4.30971e-05 3.90939e-06
-4.30971e-05 0.000198015 -5.87278e-07
3.90939e-06 -5.87278e-07 8.39556e-05
0.00177743 -1.82581e-05 1.00766e-06
-1.82581e-05 0.000195294 1.71331e-07
1.00766e-06 1.71331e-07 7.88216e-05
0.00155904 -6.78777e-05 9.55963e-07
-6.78777e-05 0.000100397 -1.0814e-06
9.55963e-07 -1.0814e-06 -1.69506e-05
0.00146671 -0.000121514 2.61089e-06
-0.000121514 6.67308e-05 1.81967e-07
2.61089e-06 1.81967e-07 -5.44683e-05
0.00171217 -9.22214e-05 -1.41837e-06
-9.22214e-05 0.000155538 5.58697e-07
-1.41837e-06 5.58697e-07 4.46726e-05
0.000741875 -3.45954e-05 2.18991e-06
-3.45954e-05 2.42179e-05 -1.97404e-06
2.18991e-06 -1.97404e-06 -5.97948e-05
0.00143274 -0.00014078 -7.42367e-07
-0.00014078 4.03955e-05 -4.21836e-08
-7.42367e-07 -4.21836e-08 -8.59726e-05
0.000883664 -0.000115968 1.07524e-06
-0.000115968 7.53029e-05 -4.11662e-07
1.07524e-06 -4.11662e-07 -3.44912e-05
0.000709935 -0.000129697 2.83849e-06
-0.000129697 -8.28232e-05 -3.39863e-06
2.83849e-06 -3.39863e-06 -0.000225021
0.0016944 -0.000191369 1.36939e-06
-0.000191369 0.000321469 7.562e-07
1.36939e-06 7.562e-07 0.000168722
0.00196106 -0.000186505 -3.92376e-06
-0.000186505 0.000345103 2.1245e-06
-3.92376e-06 2.1245e-06 0.000215094
0.000733182 2.19465e-05 1.38493e-06
2.19465e-05 3.03735e-06 -1.92996e-06
1.38493e-06 -1.92996e-06 -4.59546e-05
0.000852069 -6.31927e-05 1.11287e-06
-6.31927e-05 6.87614e-05 1.21298e-07
1.11287e-06 1.21298e-07 -2.60054e-05
0.000733816 3.76746e-06 3.53218e-07
3.76746e-06 1.38507e-05 -1.26485e-06
3.53218e-07 -1.26485e-06 -7.218e-05
0.00096224 -0.000106234 -4.43113e-07
-0.000106234 0.000141256 1.16943e-06
-4.43113e-07 1.16943e-06 3.56483e-05
0.00113862 9.51543e-05 -1.02314e-05
9.51543e-05 1.36093e-05 -3.92051e-06
-1.02314e-05 -3.92051e-06 -9.20983e-05
0.000628523 -4.96444e-05 -2.11721e-06
-4.96444e-05 -3.53364e-05 -3.55699e-06
-2.11721e-06 -3.55699e-06 -5.23741e-05
0.000533761 -7.22049e-05 4.80443e-07
-7.22049e-05 -6.81022e-05 -5.49585e-06
4.80443e-07 -5.49585e-06 -0.000101636
0.000718136 -6.01512e-05 4.69428e-07
-6.01512e-05 1.41488e-05 -2.64236e-06
4.69428e-07 -2.64236e-06 -4.56067e-05
0.000967377 0.000111846 -6.68597e-06
0.000111846 7.12562e-06 -4.62812e-06
-6.68597e-06 -4.62812e-06 -9.78405e-05
0.0013533 0.00013721 -5.16402e-06
0.00013721 7.97264e-05 -2.05941e-06
-5.16402e-06 -2.05941e-06 -5.13953e-05
0.000724168 3.92767e-05 -1.94616e-06
3.92767e-05 1.63675e-05 -2.24989e-06
-1.94616e-06 -2.24989e-06 -6.84493e-05
0.000963663 0.000123337 -2.383e-06
0.000123337 0.000108106 -1.8657e-06
-2.383e-06 -1.8657e-06 -1.28248e-05
0.00126617 0.000147422 -2.22274e-06
0.000147422 0.000167353 -1.71312e-06
-2.22274e-06 -1.71312e-06 4.32245e-05
0.00083754 0.000135747 -1.46019e-06
0.000135747 -2.09721e-05 1.00477e-06
-1.46019e-06 1.00477e-06 -0.000152665
0.000675592 -4.54083e-05 7.4848e-08
-4.54083e-05 -2.00267e-05 3.02067e-08
7.4848e-08 3.02067e-08 -3.29329e-05
0.000749725 1.33861e-05 1.34504e-07
1.33861e-05 3.11976e-05 -4.59747e-08
1.34504e-07 -4.59747e-08 -4.34721e-05
0.000703243 -5.57903e-05 -2.35221e-07
-5.57903e-05 1.12599e-07 3.49567e-07
-2.35221e-07 3.49567e-07 -4.76813e-05
0.000828719 9.8132e-06 3.6682e-07
9.8132e-06 7.47711e-05 -2.27647e-07
3.6682e-07 -2.27647e-07 -1.15115e-05
0.00139463 0.00011272 1.05796e-06
0.00011272 6.75571e-05 4.30502e-08
1.05796e-06 4.30502e-08 -5.82631e-05
0.00121225 0.000143901 1.07436e-07
0.000143901 7.1919e-05 1.05267e-07
1.07436e-07 1.05267e-07 -5.82531e-05
0.00148616 0.000148057 6.66993e-08
0.000148057 9.58542e-05 4.06644e-07
6.66993e-08 4.06644e-07 -4.43366e-05
0.000987158 0.000100793 3.42583e-07
0.000100793 0.000144327 3.90156e-07
3.42583e-07 3.90156e-07 3.50754e-05
0.00147935 0.000169414 -6.52958e-07
0.000169414 0.000250186 -1.62997e-06
-6.52958e-07 -1.62997e-06 0.000116422
0.00111071 0.000147744 3.41207e-07
0.000147744 0.000185251 -1.193e-06
3.41207e-07 -1.193e-06 4.17569e-05
0.00089879 0.000141699 -1.90645e-06
0.000141699 -1.06964e-05 -2.01508e-07
-1.90645e-06 -2.01508e-07 -0.000142115
0.000704613 -4.12535e-05 1.7556e-06
-4.12535e-05 -1.32982e-05 3.3429e-06
1.7556e-06 3.3429e-06 -2.31687e-05
0.000726244 -4.8475e-05 5.00585e-07
-4.8475e-05 3.84488e-06 1.78194e-06
5.00585e-07 1.78194e-06 -3.61326e-05
0.000972614 5.57075e-05 1.53866e-06
5.57075e-05 0.00014534 6.91286e-07
1.53866e-06 6.91286e-07 4.78044e-05
0.000790547 1.32918e-05 1.58175e-07
1.32918e-05 4.89009e-05 1.22025e-06
1.58175e-07 1.22025e-06 -2.41583e-05
0.000894596 8.00744e-05 5.91647e-07
8.00744e-05 0.000123165 -2.00657e-07
5.91647e-07 -2.00657e-07 1.94958e-05
0.00157839 0.000118834 3.53913e-06
0.000118834 0.000114463 7.97908e-08
3.53913e-06 7.97908e-08 -1.73185e-05
0.00139635 0.000162278 8.36542e-07
0.000162278 0.000121223 3.62137e-06
8.36542e-07 3.62137e-06 -1.97008e-05
0.00167149 0.000161819 8.37613e-08
0.000161819 0.000161768 1.41092e-06
8.37613e-08 1.41092e-06 1.98891e-05
0.00109732 0.000138934 2.44845e-06
0.000138934 0.000212041 2.87829e-06
2.44845e-06 2.87829e-06 7.51005e-05
0.00130071 0.0001694 1.10296e-06
0.0001694 0.000130081 1.62827e-06
1.10296e-06 1.62827e-06 -5.65033e-06
0.000305739 0.000105959 1.29529e-06
0.000105959 -0.00028374 -2.2812e-06
1.29529e-06 -2.2812e-06 -0.000434586
0.000756078 -2.95049e-05 1.49772e-06
-2.95049e-05 5.69678e-06 1.50515e-06
1.49772e-06 1.50515e-06 -2.72105e-05
0.000780503 5.10022e-06 4.88928e-07
5.10022e-06 2.86484e-05 5.37605e-07
4.88928e-07 5.37605e-07 -2.39397e-05
0.000771233 -1.83697e-05 9.3064e-07
-1.83697e-05 6.74955e-06 1.7475e-06
9.3064e-07 1.7475e-06 -2.42616e-05
0.000763783 -2.40411e-05 1.3087e-07
-2.40411e-05 6.45375e-06 -6.52293e-09
1.3087e-07 -6.52293e-09 -2.53239e-05
0.00125384 -3.85388e-05 1.66304e-06
-3.85388e-05 0.000277894 2.03904e-06
1.66304e-06 2.03904e-06 0.000275251
0.000980451 -3.93503e-05 7.8595e-07
-3.93503e-05 0.000132491 -2.73116e-08
7.8595e-07 -2.73116e-08 0.000126531
0.000954969 -3.43326e-05 2.29177e-05
-3.43326e-05 0.000124061 6.13789e-06
2.29177e-05 6.13789e-06 0.000134587
0.00207529 -5.86554e-05 1.34344e-06
-5.86554e-05 0.000755128 -1.05882e-07
1.34344e-06 -1.05882e-07 0.000769476
0.00209647 -6.58762e-05 -2.93391e-05
-6.58762e-05 0.000774918 -3.07154e-06
-2.93391e-05 -3.07154e-06 0.0007871
0.000645234 4.20638e-05 2.05308e-06
4.20638e-05 -3.94457e-05 -3.9952e-06
2.05308e-06 -3.9952e-06 -5.77778e-05
0.002499 7.84401e-05 3.80238e-05
7.84401e-05 0.00100148 -3.21271e-06
3.80238e-05 -3.21271e-06 0.00100909
0.000642775 5.22397e-05 4.0237e-08
5.22397e-05 -3.10682e-05 4.14565e-08
4.0237e-08 4.14565e-08 -5.41143e-05
0.00267988 8.6262e-05 -1.53723e-06
8.6262e-05 0.0011062 -1.48407e-07
-1.53723e-06 -1.48407e-07 0.00111159
0.000635193 5.91689e-05 -2.73459e-07
5.91689e-05 -2.50974e-05 5.37075e-06
-2.73459e-07 5.37075e-06 -5.38947e-05
0.0029028 9.22621e-05 -5.93163e-05
9.22621e-05 0.00123161 2.95471e-06
-5.93163e-05 2.95471e-06 0.00123482
0.00116648 7.81156e-05 -1.0115e-05
7.81156e-05 1.72961e-05 -2.93324e-06
-1.0115e-05 -2.93324e-06 -8.58003e-05
0.00118072 4.4221e-05 -9.78439e-06
4.4221e-05 1.72831e-05 -2.18424e-06
-9.78439e-06 -2.18424e-06 -8.44298e-05
0.00142072 6.83292e-05 -4.53498e-06
6.83292e-05 6.86233e-05 -8.39792e-07
-4.53498e-06 -8.39792e-07 -4.92767e-05
0.00148473 2.82232e-05 -4.63115e-06
2.82232e-05 8.24092e-05 -9.38556e-07
-4.63115e-06 -9.38556e-07 -3.67881e-05
0.00121937 1.67045e-05 -1.05078e-05
1.67045e-05 1.53849e-05 -1.08325e-06
-1.05078e-05 -1.08325e-06 -8.92373e-05
0.0007108 1.01234e-05 -1.54197e-05
1.01234e-05 -0.000100076 -2.38411e-07
-1.54197e-05 -2.38411e-07 -0.000161657
0.00121362 1.36417e-06 1.66013e-08
1.36417e-06 9.89517e-06 -1.20204e-07
1.66013e-08 -1.20204e-07 -9.47062e-05
0.00147927 1.95428e-05 -5.15263e-08
1.95428e-05 7.02911e-05 -1.92352e-07
-5.15263e-08 -1.92352e-07 -4.98484e-05
0.00145057 4.57743e-05 9.38353e-08
4.57743e-05 7.83601e-05 -7.82255e-08
9.38353e-08 -7.82255e-08 -3.98183e-05
0.0015969 2.94745e-05 -1.47318e-07
2.94745e-05 9.02095e-05 8.55366e-08
-1.47318e-07 8.55366e-08 -2.74238e-05
0.00142223 8.96928e-05 -1.73166e-07
8.96928e-05 7.01512e-05 -2.02692e-08
-1.73166e-07 -2.02692e-08 -5.00878e-05
0.00156609 7.35272e-05 -1.31642e-07
7.35272e-05 9.90182e-05 2.0444e-07
-1.31642e-07 2.0444e-07 -2.14079e-05
0.00148232 6.13094e-06 4.65513e-06
6.13094e-06 7.01415e-05 -1.341e-07
4.65513e-06 -1.341e-07 -5.00848e-05
0.00161778 2.31975e-05 2.9191e-07
2.31975e-05 8.21813e-05 3.11224e-07
2.9191e-07 3.11224e-07 -3.57343e-05
0.00155706 5.11231e-05 1.01027e-06
5.11231e-05 8.30732e-05 1.33998e-07
1.01027e-06 1.33998e-07 -3.61057e-05
0.00171361 3.45956e-05 -5.11057e-07
3.45956e-05 0.000106796 9.43363e-08
-5.11057e-07 9.43363e-08 -4.05602e-06
0.00161218 9.15645e-05 1.09314e-06
9.15645e-05 0.00012507 -2.82327e-07
1.09314e-06 -2.82327e-07 1.2963e-06
0.00160495 7.10346e-05 -2.39168e-06
7.10346e-05 8.11162e-05 8.91616e-08
-2.39168e-06 8.91616e-08 -2.91202e-05
0.000801222 -1.19138e-06 -1.01423e-05
-1.19138e-06 -0.000209611 7.08625e-07
-1.01423e-05 7.08625e-07 -0.000315787
0.00163838 -4.22905e-05 -1.61434e-05
-4.22905e-05 0.000269781 2.25166e-06
-1.61434e-05 2.25166e-06 0.000173986
0.00167463 -1.1745e-05 -7.20778e-06
-1.1745e-05 0.000189596 1.18723e-06
-7.20778e-06 1.18723e-06 7.59682e-05
0.00189512 -7.83077e-05 -4.64139e-06
-7.83077e-05 0.000336158 1.09872e-06
-4.64139e-06 1.09872e-06 0.000224567
0.00064576 2.64515e-05 -4.96596e-06
2.64515e-05 -1.78554e-05 5.53642e-06
-4.96596e-06 5.53642e-06 -5.56677e-05
0.000903436 -7.09528e-05 -3.80258e-06
-7.09528e-05 0.000105309 2.20307e-06
-3.80258e-06 2.20307e-06 1.68194e-05
0.000884354 -0.000124595 -7.97688e-07
-0.000124595 4.28884e-05 5.84152e-07
-7.97688e-07 5.84152e-07 -7.6297e-05
0.00183393 -0.000128534 -6.61719e-06
-0.000128534 0.000328195 1.53703e-06
-6.61719e-06 1.53703e-06 0.000211408
0.00143102 -8.96859e-05 -1.68297e-06
-8.96859e-05 3.57292e-05 8.155e-07
-1.68297e-06 8.155e-07 -7.96991e-05
0.00138584 -0.000136158 -2.3136e-06
-0.000136158 6.31022e-05 7.53263e-08
-2.3136e-06 7.53263e-08 -6.597e-05
0.00109674 -0.000150013 -2.6144e-06
-0.000150013 3.68828e-05 1.80379e-06
-2.6144e-06 1.80379e-06 -0.000108213
0.00127867 -0.000151233 1.43631e-06
-0.000151233 1.53283e-05 -3.2518e-07
1.43631e-06 -3.2518e-07 -0.000120314
0.000710447 -1.68892e-05 -2.41412e-06
-1.68892e-05 5.92384e-07 2.29767e-06
-2.41412e-06 2.29767e-06 -7.53875e-05
0.000732177 -4.06532e-06 -1.14647e-06
-4.06532e-06 8.46471e-06 1.42983e-07
-1.14647e-06 1.42983e-07 -8.14581e-05
0.000711596 1.78697e-05 -9.69705e-07
1.78697e-05 -6.33894e-06 2.31198e-06
-9.69705e-07 2.31198e-06 -6.17492e-05
0.00167542 -1.68171e-06 -2.22539e-06
-1.68171e-06 0.000180739 1.01546e-07
-2.22539e-06 1.01546e-07 6.3246e-05
0.00167122 -4.79486e-05 -1.27015e-06
-4.79486e-05 0.000196664 1.70603e-07
-1.27015e-06 1.70603e-07 8.22916e-05
0.00164153 -1.50953e-05 -7.49584e-07
-1.50953e-05 0.000119217 2.99931e-07
-7.49584e-07 2.99931e-07 2.86119e-06
0.00167975 -6.73742e-05 -2.02555e-07
-6.73742e-05 0.000164105 -2.66471e-07
-2.02555e-07 -2.66471e-07 4.72376e-05
0.000777793 -4.0958e-05 3.51049e-08
-4.0958e-05 4.22905e-05 -2.06463e-07
3.51049e-08 -2.06463e-07 -4.17205e-05
0.000996581 -0.000123726 -3.01385e-07
-0.000123726 0.000134262 4.43186e-07
-3.01385e-07 4.43186e-07 2.34494e-05
0.000828187 -0.000134491 7.78122e-07
-0.000134491 -1.30402e-05 -1.44644e-06
7.78122e-07 -1.44644e-06 -0.000153459
0.00159608 -0.000125275 4.80355e-07
-0.000125275 0.000140102 -3.61969e-08
4.80355e-07 -3.61969e-08 1.88331e-05
0.00164036 -8.93097e-05 1.90491e-07
-8.93097e-05 0.000115341 4.49217e-07
1.90491e-07 4.49217e-07 5.48619e-06
0.00139554 -0.000175839 -2.65923e-07
-0.000175839 0.000163094 5.96897e-07
-2.65923e-07 5.96897e-07 9.86157e-06
0.00153631 -0.00014376 -2.65296e-07
-0.00014376 9.42113e-05 -3.11381e-07
-2.65296e-07 -3.11381e-07 -3.21689e-05
0.00172485 -0.000175573 1.16232e-06
-0.000175573 0.000215801 9.95994e-07
1.16232e-06 9.95994e-07 8.83994e-05
0.000915911 -6.91619e-05 -2.5703e-07
-6.91619e-05 0.000105787 -1.28195e-07
-2.5703e-07 -1.28195e-07 9.38223e-06
0.000937432 -0.000105468 -3.50498e-07
-0.000105468 0.000128511 3.89874e-07
-3.50498e-07 3.89874e-07 2.13579e-05
0.000735066 1.63358e-05 1.52062e-07
1.63358e-05 3.85912e-06 9.99683e-08
1.52062e-07 9.99683e-08 -4.51515e-05
0.000698646 2.25278e-05 -9.01328e-08
2.25278e-05 -9.62558e-06 -5.15898e-07
-9.01328e-08 -5.15898e-07 -9.12731e-05
0.00164629 -4.90137e-06 1.43246e-06
-4.90137e-06 0.000112226 -6.21017e-07
1.43246e-06 -6.21017e-07 -6.59626e-06
0.00183594 -4.30035e-05 7.00209e-07
-4.30035e-05 0.000232989 2.27122e-07
7.00209e-07 2.27122e-07 0.000116382
0.00172278 -2.56545e-05 1.55862e-07
-2.56545e-05 0.000117394 1.66037e-07
1.55862e-07 1.66037e-07 4.43602e-06
0.00164484 -6.74095e-05 -1.6996e-06
-6.74095e-05 0.000104683 -5.707e-07
-1.6996e-06 -5.707e-07 -3.45936e-06
0.00155362 -0.00011819 -9.18825e-07
-0.00011819 7.2324e-05 1.14975e-06
-9.18825e-07 1.14975e-06 -4.39516e-05
0.00168632 -8.71678e-05 3.34356e-08
-8.71678e-05 0.000107544 1.95282e-07
3.34356e-08 1.95282e-07 4.81795e-06
0.000871508 -0.000109919 1.12918e-06
-0.000109919 7.85031e-05 3.23989e-07
1.12918e-06 3.23989e-07 -2.31484e-05
0.00163088 -0.000150367 -4.46477e-06
-0.000150367 0.000109074 -3.22218e-07
-4.46477e-06 -3.22218e-07 -7.16474e-06
0.000557484 -0.000109343 -5.68157e-07
-0.000109343 -0.000102634 -2.39756e-06
-5.68157e-07 -2.39756e-06 -0.000229048
0.00125869 -0.000171576 2.55494e-06
-0.000171576 0.000187296 -2.13094e-06
2.55494e-06 -2.13094e-06 2.70572e-05
0.00157366 -0.000193165 -8.14869e-09
-0.000193165 0.000223797 3.07386e-06
-8.14869e-09 3.07386e-06 7.0524e-05
0.00207304 -0.000195041 -1.41338e-06
-0.000195041 0.000363595 4.08166e-07
-1.41338e-06 4.08166e-07 0.000240822
0.000742112 1.17548e-05 1.83512e-06
1.17548e-05 4.21653e-06 -1.91078e-06
1.83512e-06 -1.91078e-06 -4.06318e-05
0.00069054 9.88223e-06 2.87094e-07
9.88223e-06 -7.67675e-06 -1.18224e-06
2.87094e-07 -1.18224e-06 -8.74333e-05
0.000919416 -0.000122469 1.58439e-08
-0.000122469 0.000113949 1.44244e-06
1.58439e-08 1.44244e-06 4.25251e-06
0.000927749 -7.46445e-05 1.03242e-06
-7.46445e-05 0.000123891 1.11316e-07
1.03242e-06 1.11316e-07 2.6103e-05
0.000933365 -0.000123395 -9.88764e-07
-0.000123395 0.000127749 2.22427e-06
-9.88764e-07 2.22427e-06 1.5381e-05
0.000649418 -4.39935e-05 -2.03807e-06
-4.39935e-05 -3.41691e-05 -3.40429e-06
-2.03807e-06 -3.40429e-06 -4.68789e-05
0.00142653 0.000114579 -4.05076e-06
0.000114579 8.38925e-05 -1.2557e-06
-4.05076e-06 -1.2557e-06 -4.21706e-05
0.000706765 -5.80753e-05 -4.61761e-07
-5.80753e-05 2.04456e-06 -1.76367e-06
-4.61761e-07 -1.76367e-06 -4.57837e-05
0.000776371 -4.05273e-06 -2.36875e-07
-4.05273e-06 4.46086e-05 -2.655e-06
-2.36875e-07 -2.655e-06 -2.832e-05
0.000834353 -7.76744e-06 8.12284e-07
-7.76744e-06 7.66617e-05 -9.08773e-07
8.12284e-07 -9.08773e-07 -8.03661e-06
0.00121121 0.000144827 -4.09083e-06
0.000144827 7.27734e-05 -2.84397e-06
-4.09083e-06 -2.84397e-06 -5.75786e-05
0.00144478 0.000146527 -2.30061e-06
0.000146527 7.54204e-05 -5.60898e-07
-2.30061e-06 -5.60898e-07 -6.49273e-05
0.000884866 0.000109784 -1.36797e-06
0.000109784 9.21132e-05 -7.96223e-07
-1.36797e-06 -7.96223e-07 -1.79282e-05
0.00127284 0.000158419 -1.79278e-06
0.000158419 0.000273573 -1.26754e-06
-1.79278e-06 -1.26754e-06 0.000128583
0.00166536 0.000179441 -1.34607e-06
0.000179441 0.000351956 -3.48104e-06
-1.34607e-06 -3.48104e-06 0.00021768
0.00103348 0.000149262 -3.33576e-06
0.000149262 6.53504e-05 1.45107e-06
-3.33576e-06 1.45107e-06 -6.28503e-05
0.000683652 -4.01371e-05 6.54635e-08
-4.01371e-05 -2.46828e-05 2.01532e-08
6.54635e-08 2.01532e-08 -3.44273e-05
0.00073075 -4.80501e-05 -2.65736e-07
-4.80501e-05 6.11677e-06 1.11075e-07
-2.65736e-07 1.11075e-07 -3.37049e-05
0.000919736 6.02576e-05 5.87513e-07
6.02576e-05 0.000117476 -6.09565e-08
5.87513e-07 -6.09565e-08 1.97658e-05
0.000791605 -1.72653e-05 -2.2883e-07
-1.72653e-05 4.78691e-05 1.67355e-07
-2.2883e-07 1.67355e-07 -2.34229e-05
0.000827746 5.80738e-05 6.60537e-07
5.80738e-05 8.3746e-05 -2.44995e-07
6.60537e-07 -2.44995e-07 -1.8711e-05
0.00152602 0.000117719 1.38164e-06
0.000117719 8.63105e-05 7.16991e-08
1.38164e-06 7.16991e-08 -4.57511e-05
0.00135538 0.00016117 -1.88161e-07
0.00016117 0.000101014 9.89165e-07
-1.88161e-07 9.89165e-07 -3.99982e-05
0.00158182 0.000159449 1.12433e-06
0.000159449 0.000115105 9.62103e-07
1.12433e-06 9.62103e-07 -2.72914e-05
0.00101393 0.000133312 1.14196e-06
0.000133312 0.000169849 1.22339e-06
1.14196e-06 1.22339e-06 3.35581e-05
0.00147137 0.000177618 1.18078e-06
0.000177618 0.000222817 -1.54986e-06
1.18078e-06 -1.54986e-06 8.6999e-05
0.000767983 0.000134544 -1.83347e-06
0.000134544 -3.67434e-05 -1.03457e-06
-1.83347e-06 -1.03457e-06 -0.000190243
0.000749311 -3.66707e-05 1.38276e-06
-3.66707e-05 8.08026e-06 1.52375e-06
1.38276e-06 1.52375e-06 -2.72083e-05
0.000796993 4.49645e-06 4.22841e-07
4.49645e-06 4.22377e-05 9.97653e-07
4.22841e-07 9.97653e-07 -1.73065e-05
0.00104084 0.000126706 -2.54051e-07
0.000126706 0.000193656 -3.15035e-07
-2.54051e-07 -3.15035e-07 7.28798e-05
0.000847883 1.08722e-05 3.53313e-07
1.08722e-05 8.89131e-05 4.66546e-07
3.53313e-07 4.66546e-07 1.85892e-06
0.00107266 6.22396e-05 -9.24226e-07
6.22396e-05 0.000214891 -2.54673e-06
-9.24226e-07 -2.54673e-06 0.000103588
0.00156482 0.000114848 -1.58752e-06
0.000114848 7.79019e-05 -2.14281e-06
-1.58752e-06 -2.14281e-06 -5.14485e-05
0.00147798 0.000178177 5.50616e-07
0.000178177 0.00012783 3.56822e-06
5.50616e-07 3.56822e-06 -1.49791e-05
0.00144272 0.000168205 -3.4899e-06
0.000168205 1.42286e-05 -5.27741e-07
-3.4899e-06 -5.27741e-07 -0.000121677
0.000834188 0.000128751 -1.62223e-07
0.000128751 7.99555e-05 2.04664e-06
-1.62223e-07 2.04664e-06 -8.13693e-05
0.00126619 0.000180177 2.85817e-06
0.000180177 0.000138031 1.07432e-08
2.85817e-06 1.07432e-08 -1.45039e-05
0.000756078 -2.86933e-05 1.53165e-08
-2.86933e-05 6.15349e-06 -4.26454e-09
1.53165e-08 -4.26454e-09 -2.6815e-05
0.000659357 -1.46108e-05 1.04182e-06
-1.46108e-05 -4.07769e-05 1.02612e-06
1.04182e-06 1.02612e-06 -9.19028e-05
0.000720388 -2.37758e-05 -6.78331e-07
-2.37758e-05 -6.1549e-06 -5.72444e-08
-6.78331e-07 -5.72444e-08 -5.78135e-05
0.000966922 1.91898e-05 1.20344e-06
1.91898e-05 0.000141309 -3.57079e-07
1.20344e-06 -3.57079e-07 7.68642e-05
0.000806525 1.91154e-05 1.72747e-06
1.91154e-05 3.87071e-05 7.08085e-07
1.72747e-06 7.08085e-07 -1.25817e-05
0.000773145 -8.46953e-06 9.78451e-07
-8.46953e-06 5.18452e-06 1.72456e-06
9.78451e-07 1.72456e-06 -2.59118e-05
0.000771273 -1.88075e-05 -6.06076e-08
-1.88075e-05 6.98799e-06 8.61165e-09
-6.06076e-08 8.61165e-09 -2.40864e-05
0.00125613 -3.11863e-05 1.12534e-06
-3.11863e-05 0.000272977 2.06726e-06
1.12534e-06 2.06726e-06 0.000271897
0.000765014 -2.34993e-05 -1.20748e-06
-2.34993e-05 7.47351e-06 -1.73293e-06
-1.20748e-06 -1.73293e-06 -2.44043e-05
0.00127441 -3.63784e-05 -4.31263e-06
-3.63784e-05 0.000288676 -1.17441e-06
-4.31263e-06 -1.17441e-06 0.00028634
0.00094999 -2.88522e-05 2.00113e-05
-2.88522e-05 0.000112517 6.29035e-06
2.00113e-05 6.29035e-06 0.000125119
0.00126287 -4.06977e-05 -9.61631e-06
-4.06977e-05 0.000289627 -3.08439e-06
-9.61631e-06 -3.08439e-06 0.000285543
0.00147868 -4.26647e-05 1.82538e-05
-4.26647e-05 0.00041529 1.9482e-06
1.82538e-05 1.9482e-06 0.000428812
0.00206155 -5.81591e-05 -2.597e-05
-5.81591e-05 0.000746266 -3.31685e-06
-2.597e-05 -3.31685e-06 0.000760899
0.000659584 3.77586e-05 1.717e-06
3.77586e-05 -3.90941e-05 -3.8534e-06
1.717e-06 -3.8534e-06 -5.40787e-05
0.000661784 4.35693e-05 -1.1953e-07
4.35693e-05 -3.00162e-05 3.35188e-08
-1.1953e-07 3.35188e-08 -4.86584e-05
0.00239981 6.99605e-05 3.30894e-05
6.99605e-05 0.000939445 -3.47291e-06
3.30894e-05 -3.47291e-06 0.000949492
0.00255014 7.85712e-05 -1.51867e-06
7.85712e-05 0.00102969 -1.49792e-07
-1.51867e-06 -1.49792e-07 0.00103722
0.000662744 5.60617e-05 -2.53739e-07
5.60617e-05 -1.88431e-05 4.70521e-06
-2.53739e-07 4.70521e-06 -4.27933e-05
0.00272796 8.45059e-05 -5.15787e-05
8.45059e-05 0.00113192 3.00649e-06
-5.15787e-05 3.00649e-06 0.00113762
0.00143369 9.04591e-05 -4.84473e-06
9.04591e-05 7.54215e-05 -8.01058e-07
-4.84473e-06 -8.01058e-07 -4.48597e-05
0.00144942 4.65758e-05 -4.53675e-06
4.65758e-05 7.80694e-05 -1.21274e-06
-4.53675e-06 -1.21274e-06 -4.03217e-05
0.0015559 7.37378e-05 -1.03995e-06
7.37378e-05 9.49767e-05 1.11809e-07
-1.03995e-06 1.11809e-07 -2.56054e-05
0.0015944 3.00095e-05 -9.14261e-07
3.00095e-05 8.79533e-05 -1.41264e-07
-9.14261e-07 -1.41264e-07 -2.91749e-05
0.00147866 2.28374e-05 -4.389e-06
2.28374e-05 7.0186e-05 -6.46572e-07
-4.389e-06 -6.46572e-07 -5.00453e-05
0.0012199 6.26092e-06 -1.0332e-05
6.26092e-06 1.29404e-05 -4.71521e-08
-1.0332e-05 -4.71521e-08 -9.1629e-05
0.00148406 1.0053e-05 7.25725e-08
1.0053e-05 7.11809e-05 -9.46149e-08
7.25725e-08 -9.46149e-08 -4.91145e-05
0.00162421 1.35191e-05 -2.41413e-07
1.35191e-05 8.51906e-05 3.55673e-09
-2.41413e-07 3.55673e-09 -3.27728e-05
0.00157723 5.05008e-05 -3.37185e-08
5.05008e-05 9.51132e-05 -1.19785e-07
-3.37185e-08 -1.19785e-07 -2.4029e-05
0.00173995 3.65801e-05 2.71329e-07
3.65801e-05 0.000119536 2.70625e-07
2.71329e-07 2.70625e-07 1.01141e-05
0.00154747 9.09627e-05 -1.82102e-07
9.09627e-05 9.03991e-05 8.32716e-08
-1.82102e-07 8.32716e-08 -3.37137e-05
0.00161009 7.14913e-05 -8.11672e-08
7.14913e-05 8.23908e-05 5.30552e-07
-8.11672e-08 5.30552e-07 -2.68422e-05
0.00162395 1.08569e-07 1.13501e-06
1.08569e-07 8.80416e-05 2.13703e-08
1.13501e-06 2.13703e-08 -3.06224e-05
0.00177129 3.16469e-05 -3.44908e-07
3.16469e-05 0.000115839 4.32815e-07
-3.44908e-07 4.32815e-07 4.14875e-06
0.00160492 5.27876e-05 -1.90033e-06
5.27876e-05 6.05293e-05 -1.05012e-07
-1.90033e-06 -1.05012e-07 -4.72659e-05
0.00181901 4.29199e-05 -3.80548e-07
4.29199e-05 0.000137357 9.40178e-08
-3.80548e-07 9.40178e-08 3.53024e-05
0.00155857 8.34652e-05 -1.7604e-06
8.34652e-05 6.01021e-05 -1.30962e-06
-1.7604e-06 -1.30962e-06 -5.60577e-05
0.00188905 7.67288e-05 -6.17529e-07
7.67288e-05 0.000195871 4.26192e-08
-6.17529e-07 4.26192e-08 9.61444e-05
0.00147978 -9.77841e-07 -6.36475e-06
-9.77841e-07 7.2427e-05 8.37821e-07
-6.36475e-06 8.37821e-07 -4.69018e-05
0.00166464 -4.96234e-05 -6.41218e-06
-4.96234e-05 0.000193395 1.11396e-06
-6.41218e-06 1.11396e-06 7.87796e-05
0.00150759 -1.39282e-05 -1.99924e-06
-1.39282e-05 4.41928e-05 4.33798e-07
-1.99924e-06 4.33798e-07 -7.20959e-05
0.00180102 -6.745e-05 -1.49156e-06
-6.745e-05 0.000228193 5.67542e-07
-1.49156e-06 5.67542e-07 0.00011178
0.000822834 -4.82151e-05 -2.96805e-06
-4.82151e-05 6.50304e-05 1.9541e-06
-2.96805e-06 1.9541e-06 -1.89326e-05
0.00111073 -0.000131513 -1.76288e-06
-0.000131513 0.000193985 1.34596e-06
-1.76288e-06 1.34596e-06 8.2131e-05
0.000925935 -0.000137801 -8.39257e-07
-0.000137801 4.57044e-05 8.2594e-07
-8.39257e-07 8.2594e-07 -9.27596e-05
0.00172078 -0.000128821 -2.04577e-06
-0.000128821 0.000210926 1.96513e-09
-2.04577e-06 1.96513e-09 8.96115e-05
0.00156729 -8.64935e-05 1.07483e-06
-8.64935e-05 7.45469e-05 1.17905e-07
1.07483e-06 1.17905e-07 -3.43061e-05
0.00163744 -0.000146685 4.01058e-07
-0.000146685 0.000146595 -5.60727e-07
4.01058e-07 -5.60727e-07 2.02084e-05
0.00108918 -0.000159904 -1.6058e-06
-0.000159904 6.56798e-07 3.35975e-07
-1.6058e-06 3.35975e-07 -0.000153032
0.00147782 -0.000164265 4.58183e-06
-0.000164265 8.0912e-05 -1.35454e-06
4.58183e-06 -1.35454e-06 -4.38753e-05
0.0009352 -6.04839e-05 -1.24541e-06
-6.04839e-05 0.000116016 -3.2638e-07
-1.24541e-06 -3.2638e-07 2.03584e-05
0.000891452 -7.70039e-05 -6.28456e-07
-7.70039e-05 9.70555e-05 -6.15987e-07
-6.28456e-07 -6.15987e-07 -6.22652e-06
0.000732769 1.39278e-05 -1.40229e-06
1.39278e-05 2.4069e-06 2.01053e-06
-1.40229e-06 2.01053e-06 -4.66366e-05
0.000681293 3.37356e-05 1.23682e-07
3.37356e-05 -2.1427e-05 1.59917e-07
1.23682e-07 1.59917e-07 -0.000100313
0.00162397 -4.41344e-06 -3.72387e-08
-4.41344e-06 9.84017e-05 -2.22678e-07
-3.72387e-08 -2.22678e-07 -2.04583e-05
0.00178971 -4.04776e-05 -7.1541e-07
-4.04776e-05 0.000206959 3.17497e-07
-7.1541e-07 3.17497e-07 8.96665e-05
0.00167881 -2.48338e-05 -1.95868e-07
-2.48338e-05 9.72799e-05 -8.11054e-08
-1.95868e-07 -8.11054e-08 -1.53504e-05
0.00161958 -6.65537e-05 -1.39403e-07
-6.65537e-05 9.41579e-05 -2.01381e-07
-1.39403e-07 -2.01381e-07 -1.49795e-05
0.000960926 -9.96893e-05 -2.9563e-07
-9.96893e-05 0.000123912 2.7768e-07
-2.9563e-07 2.7768e-07 2.35434e-05
0.000671789 -0.00011499 6.06405e-07
-0.00011499 -3.95167e-05 -7.895e-07
6.06405e-07 -7.895e-07 -0.000164138
0.00124916 -0.000169781 -4.62038e-08
-0.000169781 0.00018586 1.95296e-07
-4.62038e-08 1.95296e-07 2.46901e-05
0.00164096 -0.000121836 -4.14166e-07
-0.000121836 0.000120092 2.4695e-07
-4.14166e-07 2.4695e-07 2.93704e-06
0.00163848 -8.61225e-05 7.90411e-07
-8.61225e-05 8.25116e-05 -3.34095e-07
7.90411e-07 -3.34095e-07 -1.9041e-05
0.00152252 -0.000189226 -6.4072e-07
-0.000189226 0.000194822 1.02684e-06
-6.4072e-07 1.02684e-06 4.1309e-05
0.00161175 -0.000149467 -5.5308e-07
-0.000149467 9.81751e-05 -3.19656e-07
-5.5308e-07 -3.19656e-07 -1.82955e-05
0.00169402 -0.000176848 2.10255e-06
-0.000176848 0.00016732 -1.2551e-06
2.10255e-06 -1.2551e-06 4.93454e-05
0.000991629 -0.000127188 9.584e-08
-0.000127188 0.000152645 7.22624e-08
9.584e-08 7.22624e-08 4.24671e-05
0.000971638 -0.000117888 2.17489e-07
-0.000117888 0.000145643 2.9734e-07
2.17489e-07 2.9734e-07 3.46014e-05
0.000892591 -4.95237e-05 -2.78619e-07
-4.95237e-05 0.000101826 -1.0422e-07
-2.78619e-07 -1.0422e-07 6.64193e-06
0.000619903 2.10606e-05 -3.8739e-07
2.10606e-05 -6.2248e-05 4.86831e-08
-3.8739e-07 4.86831e-08 -0.000108507
0.000680669 2.64814e-05 1.00441e-07
2.64814e-05 -1.76353e-05 -3.91596e-07
1.00441e-07 -3.91596e-07 -9.35721e-05
0.00176242 -1.5686e-05 3.36616e-07
-1.5686e-05 0.000117041 -1.34574e-07
3.36616e-07 -1.34574e-07 5.19654e-06
0.00169507 -3.84249e-05 -5.5391e-07
-3.84249e-05 9.87693e-05 1.8162e-07
-5.5391e-07 1.8162e-07 -1.08289e-05
0.00169975 -7.74342e-05 -5.8672e-07
-7.74342e-05 9.70209e-05 -3.44582e-07
-5.8672e-07 -3.44582e-07 7.82333e-07
0.00156986 -0.000111471 -1.03122e-06
-0.000111471 3.94721e-05 6.67434e-07
-1.03122e-06 6.67434e-07 -6.60413e-05
0.000885036 -0.00012285 -5.60238e-07
-0.00012285 9.13478e-05 9.02373e-07
-5.60238e-07 9.02373e-07 -2.23434e-05
0.00194404 -0.000175068 -2.18435e-06
-0.000175068 0.000231184 -1.31595e-06
-2.18435e-06 -1.31595e-06 0.000121615
0.00016378 -8.92163e-05 1.88969e-07
-8.92163e-05 -0.000311957 -4.05882e-06
1.88969e-07 -4.05882e-06 -0.000449229
0.00144954 -0.000193931 3.26664e-06
-0.000193931 0.000257454 -1.03576e-06
3.26664e-06 -1.03576e-06 8.05989e-05
0.00189109 -0.000213495 8.09193e-07
-0.000213495 0.00032006 1.7391e-06
8.09193e-07 1.7391e-06 0.000172822
0.000504636 2.28227e-05 1.2604e-06
2.28227e-05 -0.000128494 -2.61333e-06
1.2604e-06 -2.61333e-06 -0.000172493
0.000898302 -4.34746e-06 1.40742e-06
-4.34746e-06 0.000104229 -6.31208e-07
1.40742e-06 -6.31208e-07 3.3025e-05
0.000940525 -3.24622e-05 -1.57791e-07
-3.24622e-05 0.000130226 1.13386e-07
-1.57791e-07 1.13386e-07 4.29673e-05
0.000942205 -0.000124968 -1.29066e-06
-0.000124968 0.000125073 2.20822e-06
-1.29066e-06 2.20822e-06 1.31783e-05
0.000996892 -7.80944e-05 3.47218e-07
-7.80944e-05 0.000158456 1.5063e-06
3.47218e-07 1.5063e-06 5.41327e-05
0.000880134 -0.000121095 -5.9228e-07
-0.000121095 8.88383e-05 1.96857e-06
-5.9228e-07 1.96857e-06 -2.42338e-05
0.000665325 -3.91857e-05 -1.7449e-06
-3.91857e-05 -3.4572e-05 -3.37854e-06
-1.7449e-06 -3.37854e-06 -4.42161e-05
0.000733214 -4.56277e-05 -1.55065e-06
-4.56277e-05 6.748e-06 -1.37226e-06
-1.55065e-06 -1.37226e-06 -3.25925e-05
0.00148093 0.000116846 -1.13677e-06
0.000116846 6.19106e-05 -4.16082e-08
-1.13677e-06 -4.16082e-08 -7.04274e-05
0.000802774 -4.96158e-05 5.62457e-07
-4.96158e-05 5.23445e-05 -1.02046e-06
5.62457e-07 -1.02046e-06 -1.72586e-05
0.000832769 5.33435e-05 -2.60947e-07
5.33435e-05 6.85973e-05 -3.13609e-07
-2.60947e-07 -3.13609e-07 -2.6965e-05
0.000747403 3.65685e-05 9.08289e-07
3.65685e-05 3.64352e-05 1.60878e-07
9.08289e-07 1.60878e-07 -6.4449e-05
0.00131553 0.000160006 -1.6733e-06
0.000160006 8.13804e-05 -1.82946e-06
-1.6733e-06 -1.82946e-06 -5.97027e-05
0.00148934 0.000156821 2.03621e-07
0.000156821 6.71197e-05 1.68856e-07
2.03621e-07 1.68856e-07 -7.57581e-05
0.00100374 0.000132314 1.39782e-07
0.000132314 0.000167248 -3.04126e-07
1.39782e-07 -3.04126e-07 3.13983e-05
0.00127547 0.000165826 -4.42034e-07
0.000165826 0.000234532 2.64251e-07
-4.42034e-07 2.64251e-07 7.91685e-05
0.00162013 0.000184894 -2.21134e-06
0.000184894 0.000303887 -3.62218e-06
-2.21134e-06 -3.62218e-06 0.00016805
0.000748986 -3.57843e-05 -7.07352e-08
-3.57843e-05 8.02995e-06 2.12319e-08
-7.07352e-08 2.12319e-08 -2.7209e-05
0.0007871 -2.59378e-05 -4.70914e-07
-2.59378e-05 3.65125e-05 2.84211e-07
-4.70914e-07 2.84211e-07 -2.2439e-05
0.000990001 0.00012355 -4.83616e-07
0.00012355 0.000167817 -5.52847e-08
-4.83616e-07 -5.52847e-08 4.74601e-05
0.000835698 -9.79016e-06 3.0562e-07
-9.79016e-06 7.89885e-05 2.02365e-08
3.0562e-07 2.02365e-08 -5.83492e-06
0.000911754 6.96037e-05 1.16649e-07
6.96037e-05 0.000131423 -6.58156e-07
1.16649e-07 -6.58156e-07 1.78696e-05
0.00159916 0.000118368 -7.36588e-07
0.000118368 9.72778e-05 -8.8463e-07
-7.36588e-07 -8.8463e-07 -3.30144e-05
0.00145007 0.000176364 9.83581e-07
0.000176364 0.000113564 7.93514e-07
9.83581e-07 7.93514e-07 -2.92597e-05
0.00150205 0.000167651 7.71026e-07
0.000167651 4.59174e-05 5.85776e-07
7.71026e-07 5.85776e-07 -8.69567e-05
0.00074348 0.000124178 6.10581e-07
0.000124178 2.80366e-05 1.96065e-06
6.10581e-07 1.96065e-06 -0.000131294
0.00138591 0.000187456 -1.14351e-06
0.000187456 0.000204073 -9.03373e-07
-1.14351e-06 -9.03373e-07 4.77229e-05
0.000795488 1.38813e-06 9.12551e-07
1.38813e-06 3.67107e-05 6.78589e-07
9.12551e-07 6.78589e-07 -1.57821e-05
0.00067284 -3.25917e-05 -8.36369e-07
-3.25917e-05 -1.73028e-05 1.37033e-06
-8.36369e-07 1.37033e-06 -9.1524e-05
0.000967844 0.000130086 -1.52773e-06
0.000130086 0.000157579 -1.87123e-06
-1.52773e-06 -1.87123e-06 1.98741e-05
0.000707925 2.32082e-05 -6.04001e-07
2.32082e-05 1.74424e-05 -6.68543e-07
-6.04001e-07 -6.68543e-07 -8.61108e-05
0.00102167 0.000100729 -7.57625e-07
0.000100729 0.000184589 -2.42094e-06
-7.57625e-07 -2.42094e-06 6.25627e-05
0.00154 0.000123762 -3.39213e-06
0.000123762 8.54517e-06 -2.27131e-06
-3.39213e-06 -2.27131e-06 -9.66672e-05
0.00197099 0.000220284 -1.26334e-06
0.000220284 0.00036992 9.95454e-07
-1.26334e-06 9.95454e-07 0.000220289
0.00113698 0.000152425 -6.51917e-07
0.000152425 -0.000174614 -3.03707e-07
-6.51917e-07 -3.03707e-07 -0.000295516
0.00186338 0.000198083 3.24535e-06
0.000198083 0.000597694 4.21854e-06
3.24535e-06 4.21854e-06 0.000416722
0.000129825 0.000127778 -8.21907e-07
0.000127778 -0.000487943 -5.12092e-07
-8.21907e-07 -5.12092e-07 -0.000648869
0.000757473 -2.72693e-05 -1.63212e-06
-2.72693e-05 7.35096e-06 -1.5075e-06
-1.63212e-06 -1.5075e-06 -2.56541e-05
0.000727788 -1.21321e-05 1.64162e-07
-1.21321e-05 -1.96968e-06 4.66937e-07
1.64162e-07 4.66937e-07 -5.34557e-05
0.000710773 -4.25242e-05 -1.92828e-07
-4.25242e-05 -3.84429e-06 5.75779e-07
-1.92828e-07 5.75779e-07 -6.68323e-05
0.000663585 -4.40284e-05 -9.27805e-07
-4.40284e-05 -3.78206e-05 -4.41635e-07
-9.27805e-07 -4.41635e-07 -8.94333e-05
0.00080275 -4.12032e-06 1.5663e-07
-4.12032e-06 3.61832e-05 -1.64242e-08
1.5663e-07 -1.64242e-08 -1.47039e-05
0.000822709 -1.58214e-05 1.64947e-07
-1.58214e-05 5.6949e-05 -3.35897e-07
1.64947e-07 -3.35897e-07 -3.91374e-06
0.000927451 7.4785e-06 9.39829e-08
7.4785e-06 0.000121827 -7.42098e-07
9.39829e-08 -7.42098e-07 5.32075e-05
0.000735322 -3.57635e-05 5.25814e-07
-3.57635e-05 1.22293e-05 -1.85799e-08
5.25814e-07 -1.85799e-08 -5.09166e-05
0.000830906 2.48807e-07 4.55913e-07
2.48807e-07 4.69217e-05 5.39874e-07
4.55913e-07 5.39874e-07 -2.29835e-06
0.000766892 -6.40281e-07 9.44502e-07
-6.40281e-07 1.64924e-06 1.57166e-06
9.44502e-07 1.57166e-06 -3.03906e-05
0.00077272 -1.22251e-05 -1.58474e-07
-1.22251e-05 5.37031e-06 -4.55853e-09
-1.58474e-07 -4.55853e-09 -2.58417e-05
0.00126043 -2.30459e-05 1.05731e-06
-2.30459e-05 0.000270682 2.01841e-06
1.05731e-06 2.01841e-06 0.000270291
0.000770533 -1.91003e-05 -9.59488e-07
-1.91003e-05 6.8042e-06 -1.7889e-06
-9.59488e-07 -1.7889e-06 -2.43282e-05
0.00127673 -2.91405e-05 -3.6616e-06
-2.91405e-05 0.000284056 -1.21004e-06
-3.6616e-06 -1.21004e-06 0.0002831
0.000949811 -2.3788e-05 1.62726e-05
-2.3788e-05 0.000106285 6.45219e-06
1.62726e-05 6.45219e-06 0.000120141
0.00129327 -3.47951e-05 -8.16301e-06
-3.47951e-05 0.000298618 -4.46668e-06
-8.16301e-06 -4.46668e-06 0.000296442
0.000891821 -3.00462e-05 6.53174e-06
-3.00462e-05 8.0522e-05 2.41829e-06
6.53174e-06 2.41829e-06 9.2833e-05
0.00198952 -5.54865e-05 -6.16323e-06
-5.54865e-05 0.000699244 -1.51649e-06
-6.16323e-06 -1.51649e-06 0.000715065
0.000674597 3.35946e-05 1.26804e-06
3.35946e-05 -3.77516e-05 -3.6924e-06
1.26804e-06 -3.6924e-06 -4.96483e-05
0.000674497 3.85892e-05 -1.48001e-07
3.85892e-05 -3.08645e-05 3.23858e-08
-1.48001e-07 3.23858e-08 -4.60229e-05
0.00231682 6.14523e-05 2.83889e-05
6.14523e-05 0.000885969 -3.68284e-06
2.83889e-05 -3.68284e-06 0.000898448
0.00067946 4.55726e-05 -1.78257e-06
4.55726e-05 -1.97441e-05 4.10671e-06
-1.78257e-06 4.10671e-06 -3.87913e-05
0.00243956 7.03035e-05 -1.62858e-06
7.03035e-05 0.000962045 -1.30901e-07
-1.62858e-06 -1.30901e-07 0.000971868
0.00258551 7.77037e-05 -4.37287e-05
7.77037e-05 0.0010491 3.11007e-06
-4.37287e-05 3.11007e-06 0.00105677
0.00148437 9.03139e-05 -2.0655e-06
9.03139e-05 5.65505e-05 2.93286e-07
-2.0655e-06 2.93286e-07 -6.78926e-05
0.00160043 4.908e-05 -6.73687e-07
4.908e-05 0.000108634 -3.03741e-07
-6.73687e-07 -3.03741e-07 -1.04179e-05
0.00160821 7.18766e-05 2.30683e-06
7.18766e-05 7.98711e-05 9.48988e-07
2.30683e-06 9.48988e-07 -2.83665e-05
0.00176498 3.85342e-05 1.33432e-06
3.85342e-05 0.000131455 1.56234e-07
1.33432e-06 1.56234e-07 2.34687e-05
0.00163114 6.85067e-06 -1.01895e-06
6.85067e-06 8.84949e-05 -2.51544e-07
-1.01895e-06 -2.51544e-07 -2.95454e-05
0.00148285 1.32331e-05 -4.31732e-06
1.32331e-05 7.06394e-05 -3.09484e-08
-4.31732e-06 -3.09484e-08 -4.96906e-05
0.00162474 3.34373e-06 -1.60583e-07
3.34373e-06 8.79098e-05 -3.89797e-08
-1.60583e-07 -3.89797e-08 -3.14174e-05
0.00175618 2.5677e-05 3.6004e-07
2.5677e-05 0.000109638 -4.66805e-08
3.6004e-07 -4.66805e-08 -2.60965e-06
0.0016321 5.03921e-05 -5.93951e-07
5.03921e-05 7.2785e-05 -1.59737e-07
-5.93951e-07 -1.59737e-07 -3.59945e-05
0.0017812 4.33421e-05 9.39095e-07
4.33421e-05 0.000112481 -8.72929e-08
9.39095e-07 -8.72929e-08 1.14718e-05
0.00158397 8.42147e-05 -6.3532e-07
8.42147e-05 7.66684e-05 1.24567e-07
-6.3532e-07 1.24567e-07 -3.95489e-05
0.00176149 7.88948e-05 2.30331e-06
7.88948e-05 0.000126043 2.19977e-07
2.30331e-06 2.19977e-07 2.75462e-05
0.00176383 4.73711e-06 -1.99281e-07
4.73711e-06 0.000111418 1.58628e-07
-1.99281e-07 1.58628e-07 -1.43342e-06
0.0017541 3.51636e-05 -5.74918e-07
3.51636e-05 8.99535e-05 4.79876e-07
-5.74918e-07 4.79876e-07 -1.27361e-05
0.00178438 5.79613e-05 -9.95393e-07
5.79613e-05 0.000106802 4.45059e-08
-9.95393e-07 4.45059e-08 1.11181e-05
0.00184844 0.000101838 -1.82168e-06
0.000101838 0.000165456 -6.26765e-07
-1.82168e-06 -6.26765e-07 6.86896e-05
0.00160231 -3.95882e-06 -1.21719e-06
-3.95882e-06 8.49822e-05 1.83331e-07
-1.21719e-06 1.83331e-07 -3.39122e-05
0.0017461 -3.96548e-05 -2.27661e-06
-3.96548e-05 0.000182198 3.33024e-07
-2.27661e-06 3.33024e-07 6.41746e-05
0.00163754 -2.41277e-05 -6.16755e-07
-2.41277e-05 7.85246e-05 8.76246e-08
-6.16755e-07 8.76246e-08 -3.37928e-05
0.00159185 -6.50115e-05 7.78074e-07
-6.50115e-05 8.21946e-05 4.12265e-08
7.78074e-07 4.12265e-08 -2.79026e-05
0.0010592 -0.000102322 -1.32534e-06
-0.000102322 0.000176697 1.7921e-07
-1.32534e-06 1.7921e-07 7.54588e-05
0.000825315 -0.000123426 9.94132e-07
-0.000123426 4.49309e-05 4.0393e-07
9.94132e-07 4.0393e-07 -7.82663e-05
0.00118968 -0.000164702 -1.72413e-06
-0.000164702 0.000157272 2.92354e-06
-1.72413e-06 2.92354e-06 -5.39102e-06
0.00172286 -0.000125107 -4.31056e-07
-0.000125107 0.000165105 -4.17548e-07
-4.31056e-07 -4.17548e-07 4.70939e-05
0.00158955 -8.52046e-05 9.36825e-07
-8.52046e-05 5.64715e-05 -5.8581e-07
9.36825e-07 -5.8581e-07 -4.39067e-05
0.00160787 -0.000149168 2.68056e-06
-0.000149168 9.51588e-05 -2.55213e-07
2.68056e-06 -2.55213e-07 -2.15615e-05
0.00146644 -0.00018516 -8.15408e-07
-0.00018516 0.000163211 -1.05337e-06
-8.15408e-07 -1.05337e-06 9.4845e-06
0.00138082 -0.000161501 2.33998e-06
-0.000161501 5.57338e-06 -2.08375e-06
2.33998e-06 -2.08375e-06 -0.000107854
0.00106617 -0.000132065 2.45981e-07
-0.000132065 0.000192778 -1.17386e-06
2.45981e-07 -1.17386e-06 8.2067e-05
0.00101856 -0.000121812 5.2942e-07
-0.000121812 0.000169898 -2.26567e-06
5.2942e-07 -2.26567e-06 5.8592e-05
0.000847079 -2.53645e-05 2.81883e-07
-2.53645e-05 7.55963e-05 -1.00875e-07
2.81883e-07 -1.00875e-07 -1.78175e-05
0.000496921 2.21307e-05 -1.63041e-06
2.21307e-05 -0.000129603 1.93648e-06
-1.63041e-06 1.93648e-06 -0.000176985
0.000677251 3.86888e-05 6.23752e-08
3.86888e-05 -2.26685e-05 2.06703e-07
6.23752e-08 2.06703e-07 -9.5828e-05
0.00175491 -1.6739e-05 1.78137e-07
-1.6739e-05 0.000116857 -3.81344e-08
1.78137e-07 -3.81344e-08 4.98128e-06
0.00172805 -3.97907e-05 2.25187e-07
-3.97907e-05 0.000117536 -6.1165e-08
2.25187e-07 -6.1165e-08 8.27425e-06
0.00170271 -7.73637e-05 -7.8226e-07
-7.73637e-05 0.000100887 -1.30526e-07
-7.8226e-07 -1.30526e-07 3.15889e-06
0.00100995 -0.000130343 -6.36773e-08
-0.000130343 0.000157284 4.7966e-07
-6.36773e-08 4.7966e-07 4.27403e-05
0.000718045 -0.000122379 1.82957e-06
-0.000122379 -1.4653e-05 -1.80169e-06
1.82957e-06 -1.80169e-06 -0.000152768
0.00132053 -0.000184608 -4.78357e-07
-0.000184608 0.000190146 4.28665e-07
-4.78357e-07 4.28665e-07 1.11723e-05
0.0016379 -0.000112531 7.52751e-07
-0.000112531 7.56427e-05 -1.19143e-07
7.52751e-07 -1.19143e-07 -2.98004e-05
0.00169142 -0.000199436 9.11556e-07
-0.000199436 0.000217201 -1.89346e-06
9.11556e-07 -1.89346e-06 7.41086e-05
0.00174872 -0.000170845 -9.41793e-07
-0.000170845 0.000133953 -4.20306e-07
-9.41793e-07 -4.20306e-07 2.39574e-05
0.000501348 2.63844e-05 1.85718e-08
2.63844e-05 -0.000130632 -6.68166e-07
1.85718e-08 -6.68166e-07 -0.000174102
0.00101181 -0.000129389 -3.34123e-08
-0.000129389 0.000161602 3.11289e-07
-3.34123e-08 3.11289e-07 4.91709e-05
0.000879905 -0.000120468 -5.77278e-07
-0.000120468 8.9987e-05 4.17882e-07
-5.77278e-07 4.17882e-07 -2.20997e-05
0.00100498 -8.37647e-05 -3.55886e-07
-8.37647e-05 0.000166242 8.19857e-07
-3.55886e-07 8.19857e-07 5.90253e-05
0.000957815 -2.977e-05 -1.49245e-08
-2.977e-05 0.000139991 3.33299e-08
-1.49245e-08 3.33299e-08 5.29601e-05
0.000776523 1.34534e-05 -1.99883e-07
1.34534e-05 3.3804e-05 2.92571e-07
-1.99883e-07 2.92571e-07 -3.58472e-05
0.00167926 -2.70735e-05 -5.30697e-07
-2.70735e-05 5.36093e-05 4.22752e-08
-5.30697e-07 4.22752e-08 -5.32545e-05
0.0017711 -6.12759e-05 -2.04721e-06
-6.12759e-05 0.00010598 -8.86654e-08
-2.04721e-06 -8.86654e-08 1.21892e-05
0.00157485 -9.02252e-05 2.27806e-07
-9.02252e-05 7.08039e-06 3.96079e-07
2.27806e-07 3.96079e-07 -8.36842e-05
0.00189777 -0.000144772 -7.95478e-07
-0.000144772 0.000168956 3.43843e-08
-7.95478e-07 3.43843e-08 7.21657e-05
0.000979629 -0.000131011 -1.53495e-06
-0.000131011 0.000142744 6.69572e-07
-1.53495e-06 6.69572e-07 2.18049e-05
0.00160978 -0.000191014 9.81837e-07
-0.000191014 7.43472e-05 -3.76609e-08
9.81837e-07 -3.76609e-08 -4.66121e-05
0.000838149 -0.000142117 -9.24943e-09
-0.000142117 2.69163e-05 -3.59382e-06
-9.24943e-09 -3.59382e-06 -0.000144509
0.0018529 -0.000226176 5.19448e-07
-0.000226176 0.000415353 1.52182e-06
5.19448e-07 1.52182e-06 0.000229349
0.000520382 2.39676e-05 7.07832e-07
2.39676e-05 -0.000123232 -2.50518e-06
7.07832e-07 -2.50518e-06 -0.000163303
0.000895881 -2.30777e-06 1.19014e-06
-2.30777e-06 9.91029e-05 -8.39754e-07
1.19014e-06 -8.39754e-07 3.37624e-05
0.000996781 -4.71056e-05 6.69164e-08
-4.71056e-05 0.000162965 8.69143e-07
6.69164e-08 8.69143e-07 7.95482e-05
0.000899564 -1.76354e-05 2.83984e-07
-1.76354e-05 0.000107345 -3.14419e-07
2.83984e-07 -3.14419e-07 1.17721e-05
0.00100805 -0.000130792 -7.27715e-07
-0.000130792 0.000157123 2.0263e-06
-7.27715e-07 2.0263e-06 3.98379e-05
0.00095677 -0.000127221 -2.92709e-06
-0.000127221 0.000127451 3.10567e-06
-2.92709e-06 3.10567e-06 1.1526e-05
0.000749472 -3.48545e-05 -1.75581e-06
-3.48545e-05 8.34535e-06 -1.3935e-06
-1.75581e-06 -1.3935e-06 -2.68133e-05
0.000767796 -5.02514e-05 -1.52292e-07
-5.02514e-05 2.65374e-05 -6.8586e-07
-1.52292e-07 -6.8586e-07 -3.24766e-05
0.00163542 0.000122083 1.20042e-07
0.000122083 0.000117673 4.82979e-07
1.20042e-07 4.82979e-07 -1.35895e-05
0.000828761 -2.68379e-05 4.59741e-07
-2.68379e-05 7.19936e-05 -3.58745e-07
4.59741e-07 -3.58745e-07 -1.06385e-05
0.00091412 0.000118812 4.02227e-07
0.000118812 0.000128303 -2.17059e-07
4.02227e-07 -2.17059e-07 8.56084e-06
0.000753815 4.35521e-05 6.16188e-07
4.35521e-05 4.28814e-05 1.54749e-07
6.16188e-07 1.54749e-07 -6.78179e-05
0.00142978 0.000175047 -8.27777e-07
0.000175047 0.000103166 -2.39326e-06
-8.27777e-07 -2.39326e-06 -3.97174e-05
0.00161709 0.000169873 2.38398e-06
0.000169873 0.000106162 4.64971e-07
2.38398e-06 4.64971e-07 -2.38544e-05
0.000621517 0.000117386 5.14184e-07
0.000117386 -4.05625e-05 8.47794e-07
5.14184e-07 8.47794e-07 -0.000198098
0.00151321 0.000195015 -5.87285e-07
0.000195015 0.000274382 -4.05486e-07
-5.87285e-07 -4.05486e-07 0.000113572
0.000781694 -2.01596e-05 -4.78599e-07
-2.01596e-05 2.96335e-05 1.16292e-07
-4.78599e-07 1.16292e-07 -2.32195e-05
0.000747478 -1.56284e-05 -3.68824e-08
-1.56284e-05 2.29034e-05 7.95784e-07
-3.68824e-08 7.95784e-07 -5.12042e-05
0.00105911 0.000135064 -4.54116e-07
0.000135064 0.000210412 -1.5751e-06
-4.54116e-07 -1.5751e-06 7.43505e-05
0.000753895 -1.22675e-05 -1.66216e-07
-1.22675e-05 3.64237e-05 4.8756e-08
-1.66216e-07 4.8756e-08 -6.20026e-05
0.000884357 8.44053e-05 -9.64031e-07
8.44053e-05 0.000111462 -9.30281e-07
-9.64031e-07 -9.30281e-07 -6.85441e-06
0.00181612 0.000131107 -2.04151e-06
0.000131107 0.000159153 -8.6519e-07
-2.04151e-06 -8.6519e-07 5.56054e-05
0.00190742 0.000215481 1.10007e-06
0.000215481 0.000330888 6.06258e-07
1.10007e-06 6.06258e-07 0.00018143
0.00143796 0.000168514 6.40124e-07
0.000168514 -1.87261e-05 1.29987e-06
6.40124e-07 1.29987e-06 -0.000138332
0.00135582 0.000168252 1.64306e-06
0.000168252 0.000332423 2.41934e-06
1.64306e-06 2.41934e-06 0.000150333
0.000731936 0.00016466 -1.7054e-06
0.00016466 -0.000169869 -7.267e-07
-1.7054e-06 -7.267e-07 -0.000336913
0.000682643 -3.52301e-05 -1.21968e-07
-3.52301e-05 -1.73456e-05 8.74069e-07
-1.21968e-07 8.74069e-07 -8.28835e-05
0.000557557 2.57726e-05 -3.57765e-07
2.57726e-05 -6.52072e-05 1.32484e-07
-3.57765e-07 1.32484e-07 -0.000159522
0.00109089 0.000137474 -4.81239e-08
0.000137474 0.000224289 -3.77631e-07
-4.81239e-08 -3.77631e-07 6.90723e-05
0.000267987 3.79507e-05 3.7002e-07
3.79507e-05 -0.00021968 -1.92242e-07
3.7002e-07 -1.92242e-07 -0.000339168
0.00189062 0.000127802 -2.55909e-06
0.000127802 0.000113415 -5.57083e-07
-2.55909e-06 -5.57083e-07 3.51514e-05
0.00187204 0.000162081 1.19401e-07
0.000162081 0.000140408 -3.93186e-07
1.19401e-07 -3.93186e-07 4.66935e-05
0.00159067 0.000217676 -1.39547e-06
0.000217676 0.000138267 -1.72441e-06
-1.39547e-06 -1.72441e-06 -1.3187e-05
0.00014723 0.000106321 -8.6804e-07
0.000106321 -0.000361391 1.59028e-06
-8.6804e-07 1.59028e-06 -0.000563287
0.000793178 1.32446e-06 -8.65716e-07
1.32446e-06 3.78032e-05 -6.41963e-08
-8.65716e-07 -6.41963e-08 -1.58247e-05
0.00078678 -1.44114e-05 -2.45562e-07
-1.44114e-05 3.95955e-05 4.31813e-07
-2.45562e-07 4.31813e-07 -2.43608e-05
0.000884013 -3.48641e-05 -1.9369e-07
-3.48641e-05 9.86318e-05 -7.04962e-08
-1.9369e-07 -7.04962e-08 2.85454e-05
0.000790015 -3.26384e-05 -9.85704e-07
-3.26384e-05 2.75327e-05 -6.14664e-07
-9.85704e-07 -6.14664e-07 -2.21221e-05
0.000685179 -4.21125e-05 -4.46718e-08
-4.21125e-05 -1.8071e-05 -1.47749e-07
-4.46718e-08 -1.47749e-07 -7.93758e-05
0.000809717 -1.20069e-05 3.66334e-08
-1.20069e-05 3.62395e-05 3.23174e-08
3.66334e-08 3.23174e-08 -1.35546e-05
0.000826741 1.67191e-05 -2.24301e-07
1.67191e-05 7.20791e-05 -3.13469e-07
-2.24301e-07 -3.13469e-07 -1.35727e-07
0.000758655 -1.45568e-05 2.75746e-07
-1.45568e-05 2.66885e-05 2.27406e-07
2.75746e-07 2.27406e-07 -3.77379e-05
0.000863154 -1.46913e-05 2.23516e-07
-1.46913e-05 8.86985e-05 -3.76405e-07
2.23516e-07 -3.76405e-07 1.49324e-05
0.000810497 -4.24581e-05 -3.2292e-08
-4.24581e-05 5.73144e-05 1.06656e-08
-3.2292e-08 1.06656e-08 -1.28603e-05
0.00071755 6.10736e-06 4.75954e-07
6.10736e-06 -9.8518e-09 7.55285e-08
4.75954e-07 7.55285e-08 -6.34252e-05
0.000812657 1.37e-05 5.86669e-07
1.37e-05 3.77625e-05 4.65199e-07
5.86669e-07 4.65199e-07 -1.26877e-05
0.000760663 5.05867e-06 6.70686e-07
5.05867e-06 -4.24166e-07 1.48165e-06
6.70686e-07 1.48165e-06 -3.36067e-05
0.000768552 -6.74269e-06 -1.92714e-07
-6.74269e-06 2.8664e-06 -3.30881e-09
-1.92714e-07 -3.30881e-09 -2.9293e-05
0.00127533 -1.52678e-05 8.70105e-07
-1.52678e-05 0.000276207 1.97325e-06
8.70105e-07 1.97325e-06 0.000275705
0.000768868 -1.66014e-05 -6.0682e-07
-1.66014e-05 3.62473e-06 -1.67816e-06
-6.0682e-07 -1.67816e-06 -2.77018e-05
0.00128998 -2.12712e-05 -3.00955e-06
-2.12712e-05 0.000287103 -1.27463e-06
-3.00955e-06 -1.27463e-06 0.000286594
0.00095803 -1.81543e-05 1.34251e-05
-1.81543e-05 0.000106545 6.66322e-06
1.34251e-05 6.66322e-06 0.000120842
0.00130385 -2.76806e-05 -6.56095e-06
-2.76806e-05 0.00029875 -4.5139e-06
-6.56095e-06 -4.5139e-06 0.000297783
0.000901837 -2.46037e-05 5.17509e-06
-2.46037e-05 7.96912e-05 2.48345e-06
5.17509e-06 2.48345e-06 9.34369e-05
0.000836599 -3.01263e-05 -2.13619e-06
-3.01263e-05 4.99831e-05 -1.64486e-06
-2.13619e-06 -1.64486e-06 6.22896e-05
0.000684486 2.89526e-05 8.614e-07
2.89526e-05 -3.88153e-05 -3.57578e-06
8.614e-07 -3.57578e-06 -4.78235e-05
0.000686122 3.41527e-05 -1.63438e-07
3.41527e-05 -3.15954e-05 3.36078e-08
-1.63438e-07 3.36078e-08 -4.35856e-05
0.00224294 5.27829e-05 2.38384e-05
5.27829e-05 0.000837713 -3.85393e-06
2.38384e-05 -3.85393e-06 0.000852523
0.000691068 3.95906e-05 -1.80895e-06
3.95906e-05 -2.16938e-05 3.89908e-06
-1.80895e-06 3.89908e-06 -3.70473e-05
0.0023476 6.18821e-05 -1.73357e-06
6.18821e-05 0.000903833 -1.21927e-07
-1.73357e-06 -1.21927e-07 0.000916035
0.00248286 7.03492e-05 -3.75432e-05
7.03492e-05 0.000986428 3.38454e-06
-3.75432e-05 3.38454e-06 0.000996112
0.00160726 8.50017e-05 1.67446e-06
8.50017e-05 9.21026e-05 1.91801e-06
1.67446e-06 1.91801e-06 -2.41753e-05
0.00166954 4.80946e-05 5.43753e-07
4.80946e-05 9.04849e-05 -1.32818e-07
5.43753e-07 -1.32818e-07 -1.92605e-05
0.00163807 8.10666e-05 3.97265e-06
8.10666e-05 5.84115e-05 1.31473e-07
3.97265e-06 1.31473e-07 -3.88573e-05
0.00174533 4.37655e-05 2.28902e-06
4.37655e-05 8.88724e-05 -3.75984e-07
2.28902e-06 -3.75984e-07 -1.11058e-05
0.00174231 2.06173e-05 1.27666e-06
2.06173e-05 0.000104293 -2.64267e-07
1.27666e-06 -2.64267e-07 -8.58104e-06
0.00162713 2.11823e-06 -1.23913e-06
2.11823e-06 8.84686e-05 -9.87338e-08
-1.23913e-06 -9.87338e-08 -3.14772e-05
0.00175475 5.31009e-06 -1.32822e-07
5.31009e-06 0.0001086 -4.90157e-09
-1.32822e-07 -4.90157e-09 -4.19455e-06
0.00173929 3.10131e-05 4.71111e-07
3.10131e-05 8.3695e-05 -1.89105e-07
4.71111e-07 -1.89105e-07 -1.93821e-05
0.00176268 5.94163e-05 7.17921e-07
5.94163e-05 9.58731e-05 -9.66435e-08
7.17921e-07 -9.66435e-08 -1.83059e-07
0.00183404 9.72427e-05 5.43803e-07
9.72427e-05 0.000151218 2.01487e-07
5.43803e-07 2.01487e-07 5.51061e-05
0.00176754 4.3437e-06 -1.03381e-06
4.3437e-06 9.31504e-05 3.9372e-07
-1.03381e-06 3.9372e-07 -1.23915e-05
0.00188562 4.44562e-05 -2.56284e-07
4.44562e-05 0.000136097 3.63977e-07
-2.56284e-07 3.63977e-07 4.582e-05
0.00173514 9.36344e-05 -7.22909e-07
9.36344e-05 5.58849e-05 2.37342e-07
-7.22909e-07 2.37342e-07 -3.22716e-05
0.00174773 -1.75261e-05 1.70725e-08
-1.75261e-05 0.000116841 -1.47371e-07
1.70725e-08 -1.47371e-07 4.93585e-06
0.00176397 -4.11234e-05 2.90324e-07
-4.11234e-05 0.000137803 -1.94025e-07
2.90324e-07 -1.94025e-07 2.88784e-05
0.00170686 -7.70324e-05 3.72493e-07
-7.70324e-05 0.000105761 -1.44426e-07
3.72493e-07 -1.44426e-07 6.55125e-06
0.00111367 -0.000136349 8.96435e-08
-0.000136349 0.000211585 2.92602e-07
8.96435e-08 2.92602e-07 9.64018e-05
0.00122192 -0.000152696 1.48807e-07
-0.000152696 0.00025452 1.36285e-06
1.48807e-07 1.36285e-06 0.000116422
0.00126212 -0.000179609 -2.3311e-06
-0.000179609 0.000162162 2.6083e-06
-2.3311e-06 2.6083e-06 -1.8738e-05
0.00170882 -0.000113604 5.63884e-07
-0.000113604 0.000113831 -5.71146e-07
5.63884e-07 -5.71146e-07 8.4523e-06
0.00155114 -0.00016699 3.93483e-07
-0.00016699 3.48588e-05 -3.31595e-07
3.93483e-07 -3.31595e-07 -7.56115e-05
0.00151458 -0.000187005 -1.18657e-06
-0.000187005 0.000126464 -4.30373e-06
-1.18657e-06 -4.30373e-06 -1.26511e-05
0.00107064 -0.0001331 8.61641e-07
-0.0001331 0.000192379 -1.33266e-06
8.61641e-07 -1.33266e-06 7.94856e-05
0.00084946 -0.000117635 -1.80766e-06
-0.000117635 7.55497e-05 -2.18356e-06
-1.80766e-06 -2.18356e-06 -3.53858e-05
0.00101736 -9.83104e-05 7.16408e-07
-9.83104e-05 0.000178475 1.90136e-07
7.16408e-07 1.90136e-07 6.66714e-05
0.000495728 2.44271e-05 -9.42225e-07
2.44271e-05 -0.000134092 1.17601e-06
-9.42225e-07 1.17601e-06 -0.000176964
0.000972882 -2.06309e-05 1.122e-07
-2.06309e-05 0.000146147 -2.47784e-07
1.122e-07 -2.47784e-07 6.09521e-05
0.000652493 2.75667e-05 2.22488e-07
2.75667e-05 -3.79719e-05 1.13027e-06
2.22488e-07 1.13027e-06 -0.000105984
0.00176949 -2.51418e-05 -8.33798e-08
-2.51418e-05 9.93691e-05 6.02093e-08
-8.33798e-08 6.02093e-08 -7.42084e-06
0.00181194 -6.36429e-05 4.80762e-07
-6.36429e-05 0.000129702 -1.77121e-08
4.80762e-07 -1.77121e-08 3.64771e-05
0.00162869 -8.98638e-05 -2.20998e-07
-8.98638e-05 3.71394e-05 1.11361e-07
-2.20998e-07 1.11361e-07 -5.38193e-05
0.00101344 -0.000132673 -1.93782e-08
-0.000132673 0.000158454 9.57628e-07
-1.93782e-08 9.57628e-07 3.70445e-05
0.000811851 -0.000138969 -3.62493e-07
-0.000138969 1.90022e-05 3.5666e-07
-3.62493e-07 3.5666e-07 -0.00014774
0.00174805 -0.000218173 -2.48223e-06
-0.000218173 0.000355686 1.15956e-06
-2.48223e-06 1.15956e-06 0.000172192
0.00187266 -0.000145231 4.71934e-07
-0.000145231 0.000153871 -3.64162e-07
4.71934e-07 -3.64162e-07 5.67309e-05
0.00171914 -0.000197007 1.00742e-06
-0.000197007 0.000130663 -1.12093e-06
1.00742e-06 -1.12093e-06 8.33854e-06
0.000633764 2.24065e-05 2.09413e-07
2.24065e-05 -6.12304e-05 -6.28918e-07
2.09413e-07 -6.28918e-07 -9.99502e-05
0.000888369 6.56085e-06 -2.85929e-07
6.56085e-06 9.39216e-05 2.0669e-07
-2.85929e-07 2.0669e-07 2.94314e-05
0.000686323 -0.000109965 -1.20943e-06
-0.000109965 -1.8382e-05 9.6672e-07
-1.20943e-06 9.6672e-07 -0.000132268
0.00106928 -0.000128921 1.02435e-06
-0.000128921 0.00018888 8.64977e-07
1.02435e-06 8.64977e-07 7.59449e-05
0.00087343 -2.7554e-05 1.74027e-07
-2.7554e-05 9.47491e-05 -3.65744e-07
1.74027e-07 -3.65744e-07 -2.95084e-06
0.000925224 -3.78393e-05 -6.59804e-07
-3.78393e-05 0.00012394 9.23643e-07
-6.59804e-07 9.23643e-07 4.04018e-05
0.00182416 -4.03335e-05 -1.1554e-06
-4.03335e-05 0.000107809 -1.28692e-07
-1.1554e-06 -1.28692e-07 1.41821e-05
0.00172589 -8.44227e-05 -3.02531e-06
-8.44227e-05 5.65943e-05 -1.02625e-07
-3.02531e-06 -1.02625e-07 -2.18583e-05
0.00167573 -0.000106032 -5.17537e-07
-0.000106032 1.67833e-05 1.23647e-07
-5.17537e-07 1.23647e-07 -6.45493e-05
0.00223616 -0.000209834 5.45648e-07
-0.000209834 0.000320947 -6.9297e-07
5.45648e-07 -6.9297e-07 0.000220945
0.000430267 -0.000101164 -1.99557e-06
-0.000101164 -0.000147049 -1.28894e-07
-1.99557e-06 -1.28894e-07 -0.000282864
0.00159696 -0.00022068 -2.125e-06
-0.00022068 0.000169914 4.77081e-06
-2.125e-06 4.77081e-06 2.31605e-06
0.001935 -0.000220695 1.09314e-06
-0.000220695 0.000579186 -3.28581e-06
1.09314e-06 -3.28581e-06 0.000384204
0.000773372 1.62375e-05 8.23517e-07
1.62375e-05 1.23857e-05 -1.7961e-06
8.23517e-07 -1.7961e-06 -2.26982e-05
0.000773401 -6.1499e-05 1.19939e-06
-6.1499e-05 3.72157e-05 -1.22404e-06
1.19939e-06 -1.22404e-06 -2.3429e-05
0.000657227 9.56199e-06 6.23531e-07
9.56199e-06 -3.02211e-05 -1.58536e-06
6.23531e-07 -1.58536e-06 -9.50638e-05
0.000861374 -3.40258e-05 1.0346e-06
-3.40258e-05 9.23227e-05 1.28995e-07
1.0346e-06 1.28995e-07 1.02505e-05
0.000872215 5.13126e-06 2.74874e-07
5.13126e-06 9.34124e-05 -6.93948e-11
2.74874e-07 -6.93948e-11 5.61849e-06
0.000698057 -0.000108294 9.60485e-07
-0.000108294 1.96714e-05 2.44622e-06
9.60485e-07 2.44622e-06 -9.40829e-05
0.000728549 -0.000112544 -3.71005e-06
-0.000112544 -2.89486e-05 1.47601e-06
-3.71005e-06 1.47601e-06 -0.000131225
0.00184686 -0.00017946 -4.43466e-06
-0.00017946 0.000633074 3.38979e-06
-4.43466e-06 3.38979e-06 0.000512129
0.00077944 -4.70645e-05 -4.89919e-07
-4.70645e-05 2.85896e-05 -5.42807e-07
-4.89919e-07 -5.42807e-07 -2.44007e-05
0.000832387 -4.04813e-06 -1.86511e-07
-4.04813e-06 6.92764e-05 3.85638e-07
-1.86511e-07 3.85638e-07 -5.00738e-06
0.00209366 0.000137844 1.77798e-06
0.000137844 0.000311314 6.28332e-07
1.77798e-06 6.28332e-07 0.000209496
0.000837934 8.43573e-06 -1.9023e-07
8.43573e-06 8.55504e-05 -2.09327e-07
-1.9023e-07 -2.09327e-07 -1.53396e-05
0.00116484 0.00014114 5.0185e-08
0.00014114 0.000271683 -1.39779e-06
5.0185e-08 -1.39779e-06 0.000136823
0.000723188 6.70122e-05 -7.47016e-07
6.70122e-05 2.59374e-05 1.64327e-06
-7.47016e-07 1.64327e-06 -8.8569e-05
0.00175773 0.000206141 1.05849e-06
0.000206141 0.000246443 -1.08892e-06
1.05849e-06 -1.08892e-06 9.75693e-05
0.00168019 0.000182069 6.43015e-06
0.000182069 0.00010626 3.62138e-06
6.43015e-06 3.62138e-06 -1.17557e-05
0.000816995 0.000136702 1.22973e-06
0.000136702 5.00631e-05 6.53055e-07
1.22973e-06 6.53055e-07 -0.000133119
0.00122263 0.000195034 -3.11867e-06
0.000195034 8.73135e-05 -7.41731e-07
-3.11867e-06 -7.41731e-07 -8.46129e-05
0.000692325 -1.51207e-05 1.25493e-07
-1.51207e-05 -9.08651e-06 5.65805e-07
1.25493e-07 5.65805e-07 -7.76401e-05
0.000690333 4.06057e-05 -1.19971e-07
4.06057e-05 7.03746e-06 -1.1723e-06
-1.19971e-07 -1.1723e-06 -8.80811e-05
0.00101519 0.000133332 4.02069e-07
0.000133332 0.000189556 -1.32688e-06
4.02069e-07 -1.32688e-06 3.22981e-05
0.00073347 6.77422e-05 -6.02092e-07
6.77422e-05 3.16322e-05 -8.5189e-07
-6.02092e-07 -8.5189e-07 -8.9694e-05
0.00196151 0.000124983 1.15984e-07
0.000124983 0.00015828 -5.02816e-07
1.15984e-07 -5.02816e-07 8.12759e-05
0.00178111 0.000164172 1.73991e-06
0.000164172 0.000100642 3.14113e-07
1.73991e-06 3.14113e-07 2.93492e-06
0.00183379 0.000226983 -2.26168e-06
0.000226983 0.00026196 -4.48911e-07
-2.26168e-06 -4.48911e-07 0.000111219
0.000690761 0.000144643 8.51557e-07
0.000144643 -8.99232e-05 4.4012e-07
8.51557e-07 4.4012e-07 -0.000289627
0.000844053 -2.52761e-05 -1.93582e-08
-2.52761e-05 7.78959e-05 2.13872e-08
-1.93582e-08 2.13872e-08 3.17231e-06
0.00168809 8.93209e-05 -1.1584e-06
8.93209e-05 -7.88015e-06 6.87104e-07
-1.1584e-06 6.87104e-07 -7.27496e-05
0.00119532 0.000123152 -5.38254e-07
0.000123152 0.000300966 2.22458e-06
-5.38254e-07 2.22458e-06 0.000180015
0.00103359 0.000138432 3.32126e-07
0.000138432 0.000183486 1.16588e-06
3.32126e-07 1.16588e-06 1.95952e-05
0.00222952 0.000159266 -3.81876e-06
0.000159266 0.000245367 2.0131e-07
-3.81876e-06 2.0131e-07 0.000172916
0.00148754 0.000221713 -9.23972e-07
0.000221713 -5.87663e-05 -1.88672e-06
-9.23972e-07 -1.88672e-06 -0.000184846
0.00207248 0.000241216 -1.84731e-06
0.000241216 0.000550705 2.13189e-06
-1.84731e-06 2.13189e-06 0.000345876
0.00086388 -6.06988e-06 -1.52545e-06
-6.06988e-06 8.09762e-05 1.76914e-07
-1.52545e-06 1.76914e-07 1.78239e-05
0.000856666 -2.18403e-05 -5.3259e-08
-2.18403e-05 8.33165e-05 -3.79577e-08
-5.3259e-08 -3.79577e-08 1.35846e-05
0.000889907 -2.43547e-05 -2.57521e-07
-2.43547e-05 0.000108023 3.59822e-07
-2.57521e-07 3.59822e-07 3.14463e-05
0.000788708 -2.89463e-05 -4.98524e-07
-2.89463e-05 2.59444e-05 -6.40314e-07
-4.98524e-07 -6.40314e-07 -2.46016e-05
0.000792805 -2.50885e-06 1.01894e-08
-2.50885e-06 4.53219e-05 4.36605e-07
1.01894e-08 4.36605e-07 -1.91292e-05
0.000711387 -8.10599e-06 -3.85393e-07
-8.10599e-06 1.12291e-05 -2.0205e-07
-3.85393e-07 -2.0205e-07 -6.21927e-05
0.000800116 -1.76534e-05 -1.09349e-07
-1.76534e-05 3.39636e-05 2.30089e-08
-1.09349e-07 2.30089e-08 -1.86329e-05
0.0007368 -2.61847e-05 -5.27541e-07
-2.61847e-05 1.33192e-05 2.47148e-07
-5.27541e-07 2.47148e-07 -5.17528e-05
0.000819813 -4.36936e-05 3.8444e-07
-4.36936e-05 6.46775e-05 -3.86961e-07
3.8444e-07 -3.86961e-07 -9.37294e-06
0.000859218 5.78329e-06 1.6794e-07
5.78329e-06 8.81951e-05 5.34901e-07
1.6794e-07 5.34901e-07 1.55976e-05
0.000762741 -2.86767e-05 6.23461e-07
-2.86767e-05 3.1038e-05 -9.94761e-07
6.23461e-07 -9.94761e-07 -4.53256e-05
0.00079384 -5.95022e-05 7.94168e-08
-5.95022e-05 4.5939e-05 -2.39969e-08
7.94168e-08 -2.39969e-08 -2.90778e-05
0.000899578 1.15164e-05 6.47867e-07
1.15164e-05 0.000104648 -2.63371e-07
6.47867e-07 -2.63371e-07 3.40043e-05
0.000806232 1.24536e-05 1.37679e-06
1.24536e-05 4.96855e-05 -9.73851e-08
1.37679e-06 -9.73851e-08 -1.8602e-05
0.000806742 3.88626e-06 6.21688e-07
3.88626e-06 3.51278e-05 4.80195e-07
6.21688e-07 4.80195e-07 -1.64112e-05
0.000753718 9.87712e-06 4.29174e-07
9.87712e-06 -2.56061e-06 1.43667e-06
4.29174e-07 1.43667e-06 -3.66311e-05
0.00076328 -9.43106e-07 -1.66193e-07
-9.43106e-07 1.15189e-06 4.12044e-09
-1.66193e-07 4.12044e-09 -3.20479e-05
0.00128301 -7.41294e-06 6.42515e-07
-7.41294e-06 0.000279108 1.94091e-06
6.42515e-07 1.94091e-06 0.000278234
0.000774237 -1.26158e-05 -3.57199e-07
-1.26158e-05 6.28548e-06 -1.56991e-06
-3.57199e-07 -1.56991e-06 -2.5993e-05
0.00130547 -1.36565e-05 -2.23557e-06
-1.36565e-05 0.000293221 -1.32436e-06
-2.23557e-06 -1.32436e-06 0.00029252
0.000969243 -1.24821e-05 1.00997e-05
-1.24821e-05 0.000110017 6.87759e-06
1.00997e-05 6.87759e-06 0.000124316
0.00132202 -2.00189e-05 -4.9441e-06
-2.00189e-05 0.000304846 -4.55905e-06
-4.9441e-06 -4.55905e-06 0.00030413
0.000915907 -1.8735e-05 3.7129e-06
-1.8735e-05 8.2713e-05 2.57344e-06
3.7129e-06 2.57344e-06 9.70785e-05
0.000851726 -2.44214e-05 -1.5578e-06
-2.44214e-05 5.18716e-05 -1.66172e-06
-1.5578e-06 -1.66172e-06 6.57219e-05
0.000765434 1.04057e-05 4.3815e-07
1.04057e-05 6.22447e-06 -1.75717e-06
4.3815e-07 -1.75717e-06 -2.67832e-05
0.000698207 2.32582e-05 7.93683e-07
2.32582e-05 -3.69316e-05 -3.49823e-06
7.93683e-07 -3.49823e-06 -4.34449e-05
0.000697752 2.94344e-05 -1.53238e-07
2.94344e-05 -3.16691e-05 2.82887e-08
-1.53238e-07 2.82887e-08 -4.07666e-05
0.00218248 4.39667e-05 1.95845e-05
4.39667e-05 0.00079745 -3.99307e-06
1.95845e-05 -3.99307e-06 0.000814397
0.000700858 3.48509e-05 -1.46561e-06
3.48509e-05 -2.3648e-05 3.72626e-06
-1.46561e-06 3.72626e-06 -3.57547e-05
0.00227048 5.33489e-05 -1.92932e-06
5.33489e-05 0.000853827 -1.11444e-07
-1.92932e-06 -1.11444e-07 0.000868337
0.00238325 6.21663e-05 -3.18442e-05
6.21663e-05 0.000924347 3.64601e-06
-3.18442e-05 3.64601e-06 0.000936301
0.00181869 9.2581e-05 1.93382e-06
9.2581e-05 0.000136445 1.14561e-06
1.93382e-06 1.14561e-06 4.0985e-05
0.00173859 6.07351e-05 1.5443e-06
6.07351e-05 8.36678e-05 -3.37042e-07
1.5443e-06 -3.37042e-07 -1.2749e-05
0.00171711 3.04224e-05 1.48214e-06
3.04224e-05 7.3207e-05 -5.99434e-07
1.48214e-06 -5.99434e-07 -3.0263e-05
0.00174624 6.1701e-06 4.9139e-07
6.1701e-06 0.000106083 -1.69958e-07
4.9139e-07 -1.69958e-07 -6.59629e-06
0.0017846 4.50931e-06 -4.31852e-07
4.50931e-06 0.000102631 1.32202e-07
-4.31852e-07 1.32202e-07 -1.98186e-06
0.00186779 4.22423e-05 3.87095e-07
4.22423e-05 0.000123144 -3.17583e-07
3.87095e-07 -3.17583e-07 3.25006e-05
0.00172808 9.50643e-05 -1.69635e-07
9.50643e-05 4.6277e-05 -1.69895e-07
-1.69635e-07 -1.69895e-07 -4.178e-05
0.00179649 4.26549e-06 -9.77485e-07
4.26549e-06 9.06563e-05 8.39395e-07
-9.77485e-07 8.39395e-07 -1.04885e-06
0.00195703 5.53224e-05 -1.2231e-06
5.53224e-05 0.000158922 3.02627e-07
-1.2231e-06 3.02627e-07 7.99221e-05
0.00154202 3.90413e-05 1.50762e-07
3.90413e-05 -8.54678e-05 -5.33798e-08
1.50762e-07 -5.33798e-08 -0.000140198
0.00186044 -2.34186e-05 1.66955e-07
-2.34186e-05 0.000145836 -1.05719e-07
1.66955e-07 -1.05719e-07 3.9131e-05
0.00185308 -6.67014e-05 3.3186e-06
-6.67014e-05 0.000153529 9.75709e-09
3.3186e-06 9.75709e-09 6.08606e-05
0.00168851 -9.09059e-05 -8.18114e-07
-9.09059e-05 6.92583e-05 -3.40374e-07
-8.18114e-07 -3.40374e-07 -2.19918e-05
0.00107675 -0.000136309 -3.56102e-07
-0.000136309 0.000190299 1.9921e-06
-3.56102e-07 1.9921e-06 6.81495e-05
0.000816678 -0.000137635 4.88594e-07
-0.000137635 2.76861e-05 4.1706e-06
4.88594e-07 4.1706e-06 -0.000134832
0.00155882 -0.000205144 -2.21381e-06
-0.000205144 0.000251142 1.81115e-06
-2.21381e-06 1.81115e-06 7.12157e-05
0.00184735 -0.000144521 3.72463e-06
-0.000144521 0.000137601 -6.57292e-07
3.72463e-06 -6.57292e-07 4.02196e-05
0.00175997 -0.000198658 -8.76159e-07
-0.000198658 0.000152407 -2.34321e-06
-8.76159e-07 -2.34321e-06 2.91508e-05
0.000381192 -9.02863e-05 -1.72672e-06
-9.02863e-05 -0.000184969 1.15693e-06
-1.72672e-06 1.15693e-06 -0.000295589
0.00122222 -0.000135727 6.38474e-06
-0.000135727 0.000272776 -3.54482e-06
6.38474e-06 -3.54482e-06 0.000161896
0.000790749 5.17472e-06 5.39603e-08
5.17472e-06 4.29016e-05 -6.90107e-07
5.39603e-08 -6.90107e-07 -4.92765e-05
0.000747394 2.20855e-05 -7.87591e-07
2.20855e-05 8.1758e-07 1.13318e-06
-7.87591e-07 1.13318e-06 -3.65983e-05
0.00088795 2.39341e-05 -5.93326e-07
2.39341e-05 9.35102e-05 1.18265e-06
-5.93326e-07 1.18265e-06 2.9151e-05
0.000847628 -1.48243e-05 -5.6373e-07
-1.48243e-05 8.20045e-05 8.82796e-07
-5.6373e-07 8.82796e-07 -1.79221e-06
0.00185122 -4.08701e-05 -1.53365e-07
-4.08701e-05 0.000125737 5.69246e-08
-1.53365e-07 5.69246e-08 3.38581e-05
0.000765791 1.45224e-05 1.46869e-07
1.45224e-05 8.05937e-06 1.83153e-08
1.46869e-07 1.83153e-08 -2.6967e-05
0.00070614 -1.39609e-05 -4.04253e-07
-1.39609e-05 -7.88018e-06 7.64803e-08
-4.04253e-07 7.64803e-08 -6.33942e-05
0.00178579 -8.59824e-05 -1.60735e-07
-8.59824e-05 9.14588e-05 -1.73969e-07
-1.60735e-07 -1.73969e-07 1.22896e-05
0.0015885 -0.000103779 -1.06744e-06
-0.000103779 -3.68106e-05 7.60354e-07
-1.06744e-06 7.60354e-07 -0.000119747
0.000656163 -0.000113966 -2.55586e-07
-0.000113966 -1.87772e-05 2.54919e-06
-2.55586e-07 2.54919e-06 -0.000152358
0.00148694 -0.00019106 -1.50689e-06
-0.00019106 0.00034377 6.47331e-07
-1.50689e-06 6.47331e-07 0.000143702
0.00142355 -0.000207806 1.11233e-06
-0.000207806 7.77026e-05 -1.16416e-07
1.11233e-06 -1.16416e-07 -8.45613e-05
0.00196069 -0.000204528 2.08658e-06
-0.000204528 0.000179211 -5.25176e-07
2.08658e-06 -5.25176e-07 7.8478e-05
0.000851695 -2.03917e-05 1.17129e-06
-2.03917e-05 7.54929e-05 -6.00374e-07
1.17129e-06 -6.00374e-07 1.28139e-05
0.000840449 -2.16766e-05 -3.59147e-07
-2.16766e-05 8.23735e-05 5.5066e-07
-3.59147e-07 5.5066e-07 -7.24665e-07
0.000918128 -0.000115763 2.78864e-07
-0.000115763 6.85482e-05 -1.51822e-07
2.78864e-07 -1.51822e-07 -3.75625e-05
0.00122508 -0.000142362 4.7726e-06
-0.000142362 0.000293985 -1.70623e-06
4.7726e-06 -1.70623e-06 0.000187969
0.000686997 -7.97301e-05 -7.25599e-07
-7.97301e-05 8.78472e-06 2.71383e-07
-7.25599e-07 2.71383e-07 -0.000101849
0.000870957 1.53696e-07 2.19077e-07
1.53696e-07 9.4936e-05 -3.87953e-07
2.19077e-07 -3.87953e-07 5.26017e-06
0.00189785 -4.91968e-05 -3.07287e-06
-4.91968e-05 0.00011893 -1.67255e-07
-3.07287e-06 -1.67255e-07 4.70887e-05
0.00190529 -7.8152e-05 2.12749e-06
-7.8152e-05 0.000124724 4.72668e-07
2.12749e-06 4.72668e-07 5.39562e-05
0.00174887 -0.000179576 -6.16359e-06
-0.000179576 -1.16471e-05 -1.48697e-06
-6.16359e-06 -1.48697e-06 -8.95413e-05
0.00130564 -0.000214239 -1.30447e-07
-0.000214239 -0.000118475 3.6605e-07
-1.30447e-07 3.6605e-07 -0.000232727
0.00088416 -0.00010028 -3.89013e-06
-0.00010028 8.18479e-05 -1.98126e-06
-3.89013e-06 -1.98126e-06 -5.44773e-05
0.00209051 -0.000249536 -3.06951e-06
-0.000249536 0.00058943 1.49506e-06
-3.06951e-06 1.49506e-06 0.000371377
0.000592375 4.41801e-05 -1.09456e-06
4.41801e-05 -6.60894e-05 -1.71815e-06
-1.09456e-06 -1.71815e-06 -0.00012263
0.000790941 -3.14214e-05 8.73299e-07
-3.14214e-05 3.764e-05 -1.13582e-06
8.73299e-07 -1.13582e-06 -1.96676e-05
0.000978324 -4.03435e-05 1.03069e-06
-4.03435e-05 0.000158845 -3.86258e-07
1.03069e-06 -3.86258e-07 8.57752e-05
0.000644222 1.78152e-05 -3.53498e-07
1.78152e-05 -2.24819e-05 -3.68909e-07
-3.53498e-07 -3.68909e-07 -0.000106325
0.00103665 -2.10235e-05 2.52638e-07
-2.10235e-05 0.000188957 2.77973e-07
2.52638e-07 2.77973e-07 0.000102476
0.000506333 -2.29008e-05 4.6096e-07
-2.29008e-05 -8.90072e-05 7.8579e-07
4.6096e-07 7.8579e-07 -0.000192172
0.000996634 -8.15459e-05 5.6349e-06
-8.15459e-05 0.000209535 6.92604e-07
5.6349e-06 6.92604e-07 7.82272e-05
0.000739742 -0.000122952 -1.30318e-05
-0.000122952 -8.69333e-07 4.1154e-06
-1.30318e-05 4.1154e-06 -9.44384e-05
0.000679174 4.31723e-06 -2.14008e-07
4.31723e-06 -1.34503e-05 1.73051e-07
-2.14008e-07 1.73051e-07 -8.48672e-05
0.000820437 5.30551e-05 -1.78961e-06
5.30551e-05 7.76479e-05 -1.99007e-06
-1.78961e-06 -1.99007e-06 -1.82162e-05
0.00201076 0.000122403 1.49926e-07
0.000122403 0.000189571 -3.78284e-07
1.49926e-07 -3.78284e-07 0.000113841
0.00173014 0.000167913 2.6516e-06
0.000167913 8.1061e-05 1.71076e-06
2.6516e-06 1.71076e-06 -2.07619e-05
0.00121266 7.88309e-05 -2.58212e-06
7.88309e-05 0.000287146 -3.02156e-07
-2.58212e-06 -3.02156e-07 0.000166113
0.000934388 0.000128487 -5.06097e-07
0.000128487 0.000151263 -2.99136e-06
-5.06097e-07 -2.99136e-06 -7.33455e-06
0.00212108 0.000238392 1.69854e-06
0.000238392 0.000409283 4.41434e-07
1.69854e-06 4.41434e-07 0.000258777
0.00131962 0.000187717 -7.02438e-07
0.000187717 0.000228682 -1.06965e-06
-7.02438e-07 -1.06965e-06 2.99848e-05
0.000824811 5.8015e-06 5.57074e-07
5.8015e-06 7.16179e-05 -6.03704e-07
5.57074e-07 -6.03704e-07 -6.10628e-06
0.00177658 8.69561e-05 -4.87512e-07
8.69561e-05 3.74816e-05 1.49983e-07
-4.87512e-07 1.49983e-07 -2.69162e-05
0.00092079 8.4486e-05 1.13427e-07
8.4486e-05 0.000147617 1.2937e-06
1.13427e-07 1.2937e-06 3.26573e-05
0.000795567 0.000122944 4.35909e-07
0.000122944 5.54844e-05 -2.40824e-07
4.35909e-07 -2.40824e-07 -0.000110484
0.00200372 0.000152517 2.3399e-06
0.000152517 0.000124243 -1.26934e-07
2.3399e-06 -1.26934e-07 5.12684e-05
0.00173455 0.00022954 -1.08845e-07
0.00022954 6.7345e-05 -1.1974e-06
-1.08845e-07 -1.1974e-06 -5.6441e-05
0.00200797 0.000241019 9.47496e-07
0.000241019 0.000524577 1.29102e-06
9.47496e-07 1.29102e-06 0.000319403
0.00101596 2.64594e-05 -1.55402e-06
2.64594e-05 0.000188067 9.51292e-07
-1.55402e-06 9.51292e-07 9.19516e-05
0.00201671 0.000101099 -1.20953e-05
0.000101099 0.00014119 -1.18044e-06
-1.20953e-05 -1.18044e-06 9.83796e-05
0.00192521 0.000169075 -2.96246e-06
0.000169075 0.000670617 2.16133e-07
-2.96246e-06 2.16133e-07 0.000535418
0.00208298 0.000219741 -4.26283e-06
0.000219741 0.000698482 1.39712e-06
-4.26283e-06 1.39712e-06 0.000510627
0.00242401 0.000259753 -1.57338e-06
0.000259753 0.000330066 -1.61973e-06
-1.57338e-06 -1.61973e-06 0.000245446
0.00148908 0.000231108 -3.99733e-06
0.000231108 0.000127939 1.17712e-07
-3.99733e-06 1.17712e-07 -4.71631e-05
0.000280602 0.000107318 1.18548e-05
0.000107318 -0.000469282 2.1737e-07
1.18548e-05 2.1737e-07 -0.000622128
0.000832636 -5.33922e-06 -1.05254e-08
-5.33922e-06 7.08793e-05 -7.92887e-08
-1.05254e-08 -7.92887e-08 7.93671e-07
0.00087111 -2.32853e-05 -1.43886e-07
-2.32853e-05 9.89383e-05 2.23165e-07
-1.43886e-07 2.23165e-07 2.1733e-05
0.000928151 -1.39973e-05 -5.24898e-09
-1.39973e-05 0.000123003 -1.02714e-06
-5.24898e-09 -1.02714e-06 4.13469e-05
0.000788757 -4.48497e-05 -2.82125e-07
-4.48497e-05 3.01881e-05 -6.2862e-07
-2.82125e-07 -6.2862e-07 -2.41281e-05
0.000757233 -5.08974e-05 -1.04184e-06
-5.08974e-05 2.4105e-05 4.41756e-07
-1.04184e-06 4.41756e-07 -4.04464e-05
0.000884053 5.76761e-05 -8.84523e-07
5.76761e-05 0.000105481 6.2676e-07
-8.84523e-07 6.2676e-07 3.10087e-05
0.000778062 -4.59428e-05 3.64073e-10
-4.59428e-05 4.30811e-05 8.94595e-08
3.64073e-10 8.94595e-08 -3.22754e-05
0.000788798 -2.53893e-05 -7.87765e-08
-2.53893e-05 3.10494e-05 3.78994e-08
-7.87765e-08 3.78994e-08 -2.43014e-05
0.000763085 6.50171e-06 2.98878e-08
6.50171e-06 1.93628e-05 -9.00136e-08
2.98878e-08 -9.00136e-08 -4.42626e-05
0.000805716 -3.24736e-05 4.02546e-07
-3.24736e-05 5.38842e-05 -5.02345e-07
4.02546e-07 -5.02345e-07 -2.31721e-05
0.000885707 -2.15563e-05 -5.40744e-08
-2.15563e-05 9.46822e-05 3.9888e-08
-5.40744e-08 3.9888e-08 2.56528e-05
0.000883366 -4.49945e-05 3.3123e-07
-4.49945e-05 9.45451e-05 -2.31841e-08
3.3123e-07 -2.31841e-08 2.03159e-05
0.000843636 -3.86786e-05 -4.99949e-08
-3.86786e-05 6.72713e-05 -8.15857e-07
-4.99949e-08 -8.15857e-07 -8.5886e-06
0.000830882 -1.21658e-05 5.50446e-07
-1.21658e-05 5.63847e-05 -1.14493e-06
5.50446e-07 -1.14493e-06 -1.28002e-05
0.000869601 7.90194e-06 6.94966e-07
7.90194e-06 7.79303e-05 -4.42312e-07
6.94966e-07 -4.42312e-07 1.11798e-05
0.000823666 2.40478e-05 2.09849e-07
2.40478e-05 5.59417e-05 2.4878e-09
2.09849e-07 2.4878e-09 -1.52747e-05
0.000695256 -9.21154e-06 4.869e-08
-9.21154e-06 -2.7071e-05 9.26422e-07
4.869e-08 9.26422e-07 -8.06076e-05
0.000923508 -5.38307e-06 3.09853e-07
-5.38307e-06 0.000124378 -5.87291e-07
3.09853e-07 -5.87291e-07 5.07518e-05
0.000668354 7.24694e-06 -5.0996e-07
7.24694e-06 -3.76366e-05 9.28502e-07
-5.0996e-07 9.28502e-07 -9.30447e-05
0.00075526 1.25097e-05 1.47501e-07
1.25097e-05 -8.83414e-07 1.38089e-06
1.47501e-07 1.38089e-06 -3.52837e-05
0.000755469 3.25016e-06 -1.44357e-07
3.25016e-06 -1.62204e-06 4.76572e-09
-1.44357e-07 4.76572e-09 -3.56346e-05
0.000704775 8.78146e-07 2.26907e-07
8.78146e-07 -4.2101e-05 3.26377e-06
2.26907e-07 3.26377e-06 -4.68007e-05
0.000768396 -7.13598e-06 -5.06236e-08
-7.13598e-06 4.10565e-06 -1.46354e-06
-5.06236e-08 -1.46354e-06 -2.91154e-05
0.00101304 -5.54943e-06 -1.44934e-06
-5.54943e-06 0.000129389 -1.38748e-06
-1.44934e-06 -1.38748e-06 0.000126718
0.00214575 -8.85243e-06 6.23711e-06
-8.85243e-06 0.000761832 4.3313e-06
6.23711e-06 4.3313e-06 0.000782739
0.00133681 -1.25871e-05 -2.97359e-06
-1.25871e-05 0.000310876 -4.60515e-06
-2.97359e-06 -4.60515e-06 0.00030991
0.000926697 -1.27197e-05 1.99939e-06
-1.27197e-05 8.56061e-05 2.65936e-06
1.99939e-06 2.65936e-06 0.000100108
0.000868033 -1.82575e-05 -1.04042e-06
-1.82575e-05 5.58268e-05 -1.65865e-06
-1.04042e-06 -1.65865e-06 7.04374e-05
0.000763862 7.6789e-06 2.84502e-07
7.6789e-06 5.27448e-06 -1.71992e-06
2.84502e-07 -1.71992e-06 -2.65109e-05
0.000767762 9.25195e-06 -3.3761e-08
9.25195e-06 7.25285e-06 5.86776e-09
-3.3761e-08 5.86776e-09 -2.57721e-05
0.000710241 1.72995e-05 4.71366e-07
1.72995e-05 -3.46169e-05 -3.44005e-06
4.71366e-07 -3.44005e-06 -3.93252e-05
0.00101135 2.66184e-05 -4.69512e-07
2.66184e-05 0.000137009 3.32359e-08
-4.69512e-07 3.32359e-08 0.000131969
0.00213691 3.4766e-05 1.62439e-05
3.4766e-05 0.000766446 -4.12571e-06
1.62439e-05 -4.12571e-06 0.000785228
0.000709536 2.99445e-05 -1.03848e-06
2.99445e-05 -2.5294e-05 3.5895e-06
-1.03848e-06 3.5895e-06 -3.44871e-05
0.00220442 4.46151e-05 -2.01734e-06
4.46151e-05 0.000810468 -9.74498e-08
-2.01734e-06 -9.74498e-08 0.000827114
0.00229621 5.3711e-05 -2.66495e-05
5.3711e-05 0.000868938 3.84695e-06
-2.66495e-05 3.84695e-06 0.000883187
0.00172165 9.66877e-05 -4.25243e-07
9.66877e-05 3.73255e-05 -4.9618e-07
-4.25243e-07 -4.9618e-07 -5.06456e-05
0.00184322 4.0767e-05 9.40095e-07
4.0767e-05 0.000106636 -7.03743e-07
9.40095e-07 -7.03743e-07 1.56034e-05
0.00180797 1.28796e-06 7.47208e-08
1.28796e-06 0.000115339 -1.6549e-07
7.47208e-08 -1.6549e-07 1.16608e-05
0.001771 6.23904e-06 3.96048e-07
6.23904e-06 7.35851e-05 2.60603e-07
3.96048e-07 2.60603e-07 -1.83819e-05
0.00184059 5.35355e-05 -8.68454e-07
5.35355e-05 0.000101324 7.7902e-08
-8.68454e-07 7.7902e-08 2.1799e-05
0.00170177 3.81882e-05 2.19205e-06
3.81882e-05 4.50533e-06 7.29061e-08
2.19205e-06 7.29061e-08 -5.30485e-05
0.00162029 8.20373e-06 -1.29402e-06
8.20373e-06 -2.43897e-05 -1.80055e-07
-1.29402e-06 -1.80055e-07 -9.13957e-05
0.0033247 3.58819e-05 1.27359e-05
3.58819e-05 0.000659747 2.64266e-06
1.27359e-05 2.64266e-06 0.000604021
0.00167169 3.55731e-05 -7.41642e-06
3.55731e-05 -2.20183e-05 -7.43738e-07
-7.41642e-06 -7.43738e-07 -5.18254e-05
0.000791388 3.35628e-05 -1.2337e-07
3.35628e-05 4.10245e-05 -9.4791e-07
-1.2337e-07 -9.4791e-07 -1.11369e-05
0.00187706 -4.12983e-05 1.73463e-06
-4.12983e-05 0.000142629 1.57263e-07
1.73463e-06 1.57263e-07 5.24818e-05
0.00182918 -8.52871e-05 1.73031e-06
-8.52871e-05 0.000118931 -3.001e-07
1.73031e-06 -3.001e-07 3.9177e-05
0.00158616 -0.000103236 1.05355e-06
-0.000103236 -4.24068e-05 1.08865e-07
1.05355e-06 1.08865e-07 -0.000126469
0.000863039 -0.000125422 1.84491e-06
-0.000125422 9.93896e-05 3.50035e-06
1.84491e-06 3.50035e-06 -3.19695e-05
0.00109514 -0.000164497 1.4522e-06
-0.000164497 0.000139942 4.44276e-06
1.4522e-06 4.44276e-06 -6.70495e-05
0.00128831 -0.000198003 2.6607e-07
-0.000198003 6.52758e-06 -3.09416e-06
2.6607e-07 -3.09416e-06 -0.000152049
0.00169192 -0.000200853 4.01494e-07
-0.000200853 4.1619e-05 -1.51901e-06
4.01494e-07 -1.51901e-06 -6.01617e-05
0.00109897 -0.000125256 8.02073e-06
-0.000125256 0.000162834 -3.51243e-06
8.02073e-06 -3.51243e-06 5.19058e-05
0.000546242 -0.000103291 1.80077e-06
-0.000103291 -7.44293e-05 -9.0924e-06
1.80077e-06 -9.0924e-06 -0.000165693
0.000671961 -7.59493e-05 -1.47773e-07
-7.59493e-05 -9.46531e-07 -9.41582e-07
-1.47773e-07 -9.41582e-07 -0.000111612
0.000762075 1.22521e-05 -9.16114e-07
1.22521e-05 5.91353e-06 1.84173e-06
-9.16114e-07 1.84173e-06 -2.90498e-05
0.000884525 -9.63508e-06 -9.42043e-09
-9.63508e-06 0.000104683 -7.41063e-07
-9.42043e-09 -7.41063e-07 1.28821e-05
0.00103622 -4.88516e-05 -3.63771e-07
-4.88516e-05 0.000179843 4.31397e-07
-3.63771e-07 4.31397e-07 0.000116616
0.000828863 -1.44581e-05 -8.59675e-07
-1.44581e-05 7.57506e-05 8.72263e-07
-8.59675e-07 8.72263e-07 -7.22024e-06
0.000632547 -1.02312e-05 -3.8044e-07
-1.02312e-05 -5.16524e-05 1.09765e-06
-3.8044e-07 1.09765e-06 -0.00010544
0.0018956 -5.18938e-05 -3.80098e-07
-5.18938e-05 0.000115588 -9.66279e-08
-3.80098e-07 -9.66279e-08 4.5456e-05
0.000687328 1.82955e-05 1.80683e-07
1.82955e-05 -1.26899e-05 -6.48551e-07
1.80683e-07 -6.48551e-07 -6.91551e-05
0.000793126 -4.3158e-05 -3.40083e-07
-4.3158e-05 4.34653e-05 6.10249e-08
-3.40083e-07 6.10249e-08 -1.71034e-05
0.000839425 -1.6766e-05 -6.25097e-07
-1.6766e-05 8.39091e-05 5.72678e-07
-6.25097e-07 5.72678e-07 8.4902e-06
0.00175318 -8.21393e-05 5.12946e-07
-8.21393e-05 3.3932e-05 -5.11462e-07
5.12946e-07 -5.11462e-07 -3.63532e-05
0.00179055 -0.000180853 1.83888e-07
-0.000180853 2.73795e-05 -1.25332e-07
1.83888e-07 -1.25332e-07 -5.25774e-05
0.000885278 -0.000110226 1.27044e-06
-0.000110226 6.92384e-05 -1.59306e-07
1.27044e-06 -1.59306e-07 -6.00394e-05
0.00112564 -0.000188468 1.27801e-06
-0.000188468 0.00010368 -1.48588e-07
1.27801e-06 -1.48588e-07 -0.000116947
0.00166546 -0.000237334 -8.35352e-07
-0.000237334 7.32886e-05 1.42893e-07
-8.35352e-07 1.42893e-07 -4.56014e-05
0.000747541 1.03987e-08 -1.9108e-07
1.03987e-08 3.47896e-05 -2.47293e-08
-1.9108e-07 -2.47293e-08 -4.85195e-05
0.000948929 -3.77472e-05 -4.23778e-08
-3.77472e-05 0.000145086 9.09447e-08
-4.23778e-08 9.09447e-08 5.51192e-05
0.000625481 -0.000117918 -5.795e-06
-0.000117918 -5.22086e-05 1.25037e-06
-5.795e-06 1.25037e-06 -0.000155231
0.000970545 -7.17522e-05 8.77653e-07
-7.17522e-05 0.00018941 -3.38075e-07
8.77653e-07 -3.38075e-07 6.41487e-05
0.000739175 -4.79539e-05 -4.84483e-07
-4.79539e-05 3.71723e-05 7.05197e-07
-4.84483e-07 7.05197e-07 -6.65614e-05
0.00192816 -0.000104335 -3.44695e-06
-0.000104335 8.1199e-05 1.23337e-07
-3.44695e-06 1.23337e-07 2.75202e-05
0.00229134 -0.000118773 -1.34684e-06
-0.000118773 0.000287373 5.42681e-07
-1.34684e-06 5.42681e-07 0.000230057
0.00205177 -0.000261882 -3.59554e-06
-0.000261882 0.000170526 -8.14928e-07
-3.59554e-06 -8.14928e-07 7.15691e-05
0.00192589 -0.000257366 -7.38246e-06
-0.000257366 0.000395636 7.02222e-07
-7.38246e-06 7.02222e-07 0.000226469
0.000938365 -0.000111178 -4.60847e-06
-0.000111178 0.000135706 -1.90277e-06
-4.60847e-06 -1.90277e-06 -2.97763e-05
0.000619328 1.39375e-05 5.17093e-07
1.39375e-05 -3.91645e-05 -1.26899e-06
5.17093e-07 -1.26899e-06 -0.000113445
0.000658473 5.34487e-05 -4.05523e-08
5.34487e-05 -1.60235e-05 -8.29873e-07
-4.05523e-08 -8.29873e-07 -9.45423e-05
0.000959342 1.51873e-05 1.01397e-06
1.51873e-05 0.000150308 1.91168e-07
1.01397e-06 1.91168e-07 6.74784e-05
0.00080597 -6.47685e-05 1.64653e-06
-6.47685e-05 7.16918e-05 1.34634e-07
1.64653e-06 1.34634e-07 -2.02274e-05
0.000849224 -5.81555e-06 5.31423e-07
-5.81555e-06 8.77023e-05 1.11551e-06
5.31423e-07 1.11551e-06 -3.7297e-06
0.000750069 -1.08804e-05 1.56881e-06
-1.08804e-05 5.65263e-05 -4.41534e-07
1.56881e-06 -4.41534e-07 -5.78946e-05
0.000720405 -9.02911e-05 8.48586e-06
-9.02911e-05 8.0361e-05 9.55182e-07
8.48586e-06 9.55182e-07 -8.69732e-05
0.000817976 4.04914e-05 4.39895e-07
4.04914e-05 7.30119e-05 -1.50757e-06
4.39895e-07 -1.50757e-06 -8.49128e-06
0.000617699 4.5538e-05 3.86015e-07
4.5538e-05 -2.07978e-05 5.38086e-08
3.86015e-07 5.38086e-08 -0.000129735
0.00188606 8.4273e-05 8.55137e-07
8.4273e-05 9.53945e-05 -5.87378e-07
8.55137e-07 -5.87378e-07 3.11645e-05
0.0017808 0.000145482 3.54341e-06
0.000145482 5.52017e-06 -4.56378e-07
3.54341e-06 -4.56378e-07 -6.75665e-05
0.00191858 0.000234502 2.1284e-06
0.000234502 0.000161618 -5.418e-07
2.1284e-06 -5.418e-07 4.04573e-05
0.00055293 0.000107739 1.80052e-06
0.000107739 -7.51793e-05 -5.5528e-07
1.80052e-06 -5.5528e-07 -0.000243009
0.00191856 0.000239492 2.4376e-06
0.000239492 0.000483987 1.56484e-06
2.4376e-06 1.56484e-06 0.000279552
0.00100986 1.68078e-05 -2.47278e-07
1.68078e-05 0.000182699 2.26847e-07
-2.47278e-07 2.26847e-07 9.11898e-05
0.00190513 9.75811e-05 -1.23872e-06
9.75811e-05 7.57777e-05 -2.10157e-07
-1.23872e-06 -2.10157e-07 3.88545e-05
0.00129476 0.000133321 -9.7338e-07
0.000133321 0.0003364 1.51961e-07
-9.7338e-07 1.51961e-07 0.000206129
0.00143871 0.000176921 -6.33184e-07
0.000176921 0.000374748 1.06937e-06
-6.33184e-07 1.06937e-06 0.000184858
0.00214147 0.000241445 1.23462e-06
0.000241445 0.000178298 -7.15792e-07
1.23462e-06 -7.15792e-07 9.5763e-05
0.0014535 0.000230012 -1.34631e-06
0.000230012 0.000111174 1.06158e-06
-1.34631e-06 1.06158e-06 -6.78636e-05
0.00131814 0.000124106 1.27854e-05
0.000124106 -0.000152777 1.74193e-06
1.27854e-05 1.74193e-06 -0.000337353
0.00107771 5.08876e-05 -1.94142e-06
5.08876e-05 0.00021738 -1.24124e-06
-1.94142e-06 -1.24124e-06 0.000112353
0.00264968 0.000167094 -1.60771e-05
0.000167094 0.00047374 -1.0047e-05
-1.60771e-05 -1.0047e-05 0.000471986
0.00133618 0.000163105 -5.20838e-06
0.000163105 0.000364959 -1.20579e-06
-5.20838e-06 -1.20579e-06 0.000219821
0.00136827 0.000190269 -6.13834e-06
0.000190269 0.000280638 -4.42468e-07
-6.13834e-06 -4.42468e-07 7.14793e-05
0.00049197 0.000243572 -7.98648e-06
0.000243572 -0.000541115 -1.42404e-06
-7.98648e-06 -1.42404e-06 -0.000678467
0.00759276 4.37332e-05 -7.65868e-05
4.37332e-05 0.00236526 -2.85731e-05
-7.65868e-05 -2.85731e-05 0.00150065
0.00385563 0.000214366 9.25489e-05
0.000214366 0.000571204 3.09562e-06
9.25489e-05 3.09562e-06 -0.000102119
0.000161723 0.000208461 8.67223e-06
0.000208461 -0.000579887 1.77703e-05
8.67223e-06 1.77703e-05 -0.000677613
-0.00171467 -0.000339261 4.27134e-05
-0.000339261 -0.000698078 -1.10399e-05
4.27134e-05 -1.10399e-05 -0.000827298
0.00324648 -0.000665467 -2.27986e-05
-0.000665467 0.000402465 -1.05048e-05
-2.27986e-05 -1.05048e-05 0.00159834
0.000875069 -1.80844e-05 3.07998e-07
-1.80844e-05 0.000100316 -1.23581e-07
3.07998e-07 -1.23581e-07 2.34055e-05
0.000924348 -2.23025e-05 7.32279e-07
-2.23025e-05 0.000124229 -3.29262e-07
7.32279e-07 -3.29262e-07 4.30859e-05
0.00095025 2.32587e-05 -2.42398e-07
2.32587e-05 0.000141019 -2.04698e-06
-2.42398e-07 -2.04698e-06 5.94392e-05
0.000776604 -4.95903e-05 1.13249e-07
-4.95903e-05 2.82131e-05 -6.67786e-07
1.13249e-07 -6.67786e-07 -2.96904e-05
0.00071985 4.34509e-05 -9.27105e-07
4.34509e-05 -2.33224e-06 8.78917e-08
-9.27105e-07 8.78917e-08 -6.7359e-05
0.00087993 -4.84315e-05 -1.27426e-07
-4.84315e-05 9.25464e-05 2.98266e-07
-1.27426e-07 2.98266e-07 2.27403e-05
0.000969211 -2.71152e-05 -6.78549e-07
-2.71152e-05 0.000140153 4.19093e-07
-6.78549e-07 4.19093e-07 6.73478e-05
0.000840446 -3.74661e-05 1.74655e-07
-3.74661e-05 7.17835e-05 -3.47054e-07
1.74655e-07 -3.47054e-07 -6.00122e-06
0.000818344 3.25022e-05 -6.23666e-07
3.25022e-05 5.44718e-05 -2.27145e-07
-6.23666e-07 -2.27145e-07 -1.59668e-05
0.000733374 -4.42525e-06 -1.47471e-08
-4.42525e-06 -1.99204e-06 5.29917e-07
-1.47471e-08 5.29917e-07 -5.6988e-05
0.000823769 2.33515e-05 -2.98292e-07
2.33515e-05 5.50423e-05 -7.74414e-08
-2.98292e-07 -7.74414e-08 -1.49248e-05
0.000872238 -3.72739e-05 -2.49453e-07
-3.72739e-05 8.28354e-05 4.48375e-07
-2.49453e-07 4.48375e-07 7.42015e-06
0.000857444 -1.59625e-05 -8.50641e-08
-1.59625e-05 7.1082e-05 -2.03966e-07
-8.50641e-08 -2.03966e-07 1.9426e-06
0.000776183 1.4552e-05 4.26095e-07
1.4552e-05 2.23616e-05 -9.13874e-07
4.26095e-07 -9.13874e-07 -4.55918e-05
0.000787467 -1.94793e-05 7.6141e-07
-1.94793e-05 2.87489e-05 -1.83389e-06
7.6141e-07 -1.83389e-06 -3.77198e-05
0.000892971 2.11168e-05 1.38233e-06
2.11168e-05 8.47709e-05 -9.56415e-08
1.38233e-06 -9.56415e-08 1.55299e-05
0.000778668 2.43713e-06 1.02561e-06
2.43713e-06 2.23104e-05 -1.52565e-07
1.02561e-06 -1.52565e-07 -4.69393e-05
0.000679137 -3.73056e-05 -1.25558e-06
-3.73056e-05 -3.0922e-05 9.30364e-07
-1.25558e-06 9.30364e-07 -8.73762e-05
0.000875575 1.36353e-05 -3.94722e-07
1.36353e-05 8.52993e-05 -1.14865e-07
-3.94722e-07 -1.14865e-07 1.42654e-05
0.000935237 6.00066e-05 6.20557e-09
6.00066e-05 0.000119018 -1.09786e-06
6.20557e-09 -1.09786e-06 4.57025e-05
0.000776661 6.63854e-06 -6.84731e-07
6.63854e-06 4.04695e-05 -1.81662e-07
-6.84731e-07 -1.81662e-07 -2.80864e-05
0.000878911 1.1247e-05 6.06111e-07
1.1247e-05 9.27269e-05 -3.74338e-07
6.06111e-07 -3.74338e-07 2.2552e-05
0.000789356 -2.85937e-05 -1.40609e-06
-2.85937e-05 2.9984e-05 4.40718e-07
-1.40609e-06 4.40718e-07 -2.39814e-05
0.000681247 8.86376e-06 1.52145e-07
8.86376e-06 -2.71959e-05 4.72986e-07
1.52145e-07 4.72986e-07 -8.48761e-05
0.000765288 1.44621e-05 -2.12846e-07
1.44621e-05 4.53028e-06 1.40716e-06
-2.12846e-07 1.40716e-06 -2.97435e-05
0.000753873 5.62112e-06 -1.25152e-07
5.62112e-06 -1.8435e-06 1.5023e-09
-1.25152e-07 1.5023e-09 -3.6141e-05
0.000724485 6.39644e-06 -3.57518e-07
6.39644e-06 -2.99109e-05 4.64783e-06
-3.57518e-07 4.64783e-06 -3.51531e-05
0.00075415 -3.57254e-06 3.00929e-07
-3.57254e-06 -2.40046e-06 -1.40925e-06
3.00929e-07 -1.40925e-06 -3.63278e-05
0.000708937 1.09333e-06 2.32725e-07
1.09333e-06 -3.97815e-05 -7.33926e-09
2.32725e-07 -7.33926e-09 -4.45118e-05
0.00216194 -9.45031e-07 3.11904e-07
-9.45031e-07 0.000770383 4.39839e-06
3.11904e-07 4.39839e-06 0.000791159
0.000732777 -4.32077e-06 -5.51843e-07
-4.32077e-06 -2.61102e-05 -4.6414e-06
-5.51843e-07 -4.6414e-06 -3.06052e-05
0.00153834 -7.15186e-06 -3.73793e-07
-7.15186e-06 0.000423936 2.6474e-08
-3.73793e-07 2.6474e-08 0.000441609
0.000880306 -1.1849e-05 -5.29358e-07
-1.1849e-05 5.9154e-05 -1.65887e-06
-5.29358e-07 -1.65887e-06 7.3991e-05
0.000766434 4.73608e-06 -1.17052e-07
4.73608e-06 6.64006e-06 -1.73491e-06
-1.17052e-07 -1.73491e-06 -2.42159e-05
0.00076303 6.23455e-06 4.51465e-08
6.23455e-06 4.48024e-06 4.93655e-09
4.51465e-08 4.93655e-09 -2.72563e-05
0.000714522 1.14932e-05 2.17366e-07
1.14932e-05 -3.50481e-05 -3.42684e-06
2.17366e-07 -3.42684e-06 -3.85548e-05
0.000768397 7.96854e-06 -8.09243e-07
7.96854e-06 7.32029e-06 1.84483e-06
-8.09243e-07 1.84483e-06 -2.57029e-05
0.00100217 1.95888e-05 -2.33817e-07
1.95888e-05 0.000127299 -6.93969e-07
-2.33817e-07 -6.93969e-07 0.000124241
0.00211421 2.58099e-05 1.2289e-05
2.58099e-05 0.00074937 -4.2726e-06
1.2289e-05 -4.2726e-06 0.000769443
0.000711176 2.42237e-05 -7.08592e-07
2.42237e-05 -2.95045e-05 3.50718e-06
-7.08592e-07 3.50718e-06 -3.6321e-05
0.00218153 3.47721e-05 -6.96115e-06
3.47721e-05 0.00079258 1.15063e-06
-6.96115e-06 1.15063e-06 0.000810997
0.00222398 4.51126e-05 -2.16578e-05
4.51126e-05 0.00082215 3.99414e-06
-2.16578e-05 3.99414e-06 0.000838528
0.00171623 5.19295e-05 6.2089e-07
5.19295e-05 3.92541e-05 -2.13441e-07
6.2089e-07 -2.13441e-07 -4.07814e-05
0.00175084 7.49764e-06 9.72587e-07
7.49764e-06 5.96977e-05 -1.36529e-07
9.72587e-07 -1.36529e-07 -3.25106e-05
0.00187989 3.8106e-05 3.81959e-06
3.8106e-05 0.000105411 3.08634e-07
3.81959e-06 3.08634e-07 4.55732e-05
0.00204504 3.55961e-05 1.32546e-05
3.55961e-05 3.47359e-05 2.31459e-06
1.32546e-05 2.31459e-06 -3.56963e-05
0.00180935 7.49354e-06 -5.74789e-07
7.49354e-06 7.49407e-05 1.08701e-08
-5.74789e-07 1.08701e-08 7.83176e-06
0.00186093 3.46175e-05 1.71767e-06
3.46175e-05 9.08031e-05 5.72544e-07
1.71767e-06 5.72544e-07 5.82405e-05
0.00236914 6.30963e-06 -7.88569e-06
6.30963e-06 0.000358962 3.30842e-07
-7.88569e-06 3.30842e-07 0.000306135
0.0032491 -1.82139e-05 0.000136485
-1.82139e-05 0.000465688 1.65425e-06
0.000136485 1.65425e-06 0.000137801
0.00173209 -2.55537e-05 -8.8684e-06
-2.55537e-05 -8.18281e-05 -4.10129e-06
-8.8684e-06 -4.10129e-06 -0.000144702
0.000793366 4.00247e-05 -8.37453e-07
4.00247e-05 4.37824e-05 -9.29709e-07
-8.37453e-07 -9.29709e-07 -9.19908e-06
0.000789974 -1.34206e-05 7.0208e-07
-1.34206e-05 4.35638e-05 -7.0723e-08
7.0208e-07 -7.0723e-08 -1.11621e-05
0.000782844 -5.39686e-05 1.49137e-07
-5.39686e-05 4.47017e-05 -3.12753e-07
1.49137e-07 -3.12753e-07 -2.20809e-05
0.000791611 -1.99396e-05 -1.3131e-06
-1.99396e-05 5.89941e-05 1.4729e-08
-1.3131e-06 1.4729e-08 -1.31672e-05
0.00192731 -5.56462e-05 1.90654e-06
-5.56462e-05 0.00013007 -1.84119e-07
1.90654e-06 -1.84119e-07 6.14936e-05
0.00163287 -8.73667e-05 -1.48708e-06
-8.73667e-05 -3.94939e-05 9.61904e-08
-1.48708e-06 9.61904e-08 -0.000109633
0.0018778 -0.000182509 -7.65047e-07
-0.000182509 8.52904e-05 1.10164e-06
-7.65047e-07 1.10164e-06 2.86635e-06
0.000959622 -0.000138778 3.72045e-06
-0.000138778 0.000101671 2.31535e-06
3.72045e-06 2.31535e-06 -2.37553e-05
0.00013297 -0.000125619 3.98665e-06
-0.000125619 -0.000402703 -8.76007e-07
3.98665e-06 -8.76007e-07 -0.000622266
0.00221335 -0.000270309 7.23759e-07
-0.000270309 0.000362504 -2.26468e-06
7.23759e-07 -2.26468e-06 0.000239207
0.000567306 -0.00010407 -7.18079e-06
-0.00010407 -7.77098e-05 1.00869e-06
-7.18079e-06 1.00869e-06 -0.00018812
0.00100621 -6.42338e-05 -1.36272e-06
-6.42338e-05 0.000202451 -1.14832e-06
-1.36272e-06 -1.14832e-06 8.2936e-05
0.000957538 -7.30351e-05 -1.96035e-06
-7.30351e-05 0.00015585 8.3266e-07
-1.96035e-06 8.3266e-07 5.1341e-05
0.000801034 -1.87889e-05 -1.30257e-06
-1.87889e-05 4.55676e-05 1.21311e-06
-1.30257e-06 1.21311e-06 -1.34874e-05
0.000846543 -5.01685e-05 -4.97222e-07
-5.01685e-05 9.47213e-05 -2.06312e-07
-4.97222e-07 -2.06312e-07 2.21644e-07
0.000859924 -3.99345e-06 -9.22347e-07
-3.99345e-06 9.46368e-05 6.18041e-07
-9.22347e-07 6.18041e-07 1.34319e-05
0.00079466 -4.49926e-06 -2.48186e-08
-4.49926e-06 4.83291e-05 4.62381e-07
-2.48186e-08 4.62381e-07 -8.69283e-06
0.000696363 1.92026e-05 -1.84414e-07
1.92026e-05 7.56483e-06 1.42156e-06
-1.84414e-07 1.42156e-06 -7.03995e-05
0.0019439 -8.89474e-05 -9.9361e-09
-8.89474e-05 0.000113066 2.11622e-07
-9.9361e-09 2.11622e-07 5.74863e-05
0.000798374 9.08095e-06 6.14142e-07
9.08095e-06 5.94265e-05 -4.66482e-07
6.14142e-07 -4.66482e-07 -1.35977e-05
0.000746506 2.14375e-05 5.47973e-07
2.14375e-05 3.38108e-05 -5.74424e-08
5.47973e-07 -5.74424e-08 -4.5356e-05
0.000849794 5.66398e-05 -3.88089e-07
5.66398e-05 9.37245e-05 7.67816e-07
-3.88089e-07 7.67816e-07 9.44692e-06
0.00197941 -0.000113221 -2.86292e-06
-0.000113221 0.000106377 8.74429e-07
-2.86292e-06 8.74429e-07 4.5279e-05
0.00187782 -0.000245667 5.81164e-07
-0.000245667 9.09463e-05 -1.11414e-06
5.81164e-07 -1.11414e-06 -5.17215e-06
0.00100174 -0.000145128 -1.29009e-06
-0.000145128 0.000157686 9.01544e-08
-1.29009e-06 9.01544e-08 -7.05725e-06
0.00217281 -0.000271723 -6.56957e-07
-0.000271723 0.000521193 6.6696e-08
-6.56957e-07 6.6696e-08 0.000348184
0.000903361 -1.90334e-05 -3.21048e-07
-1.90334e-05 0.000121303 5.75063e-08
-3.21048e-07 5.75063e-08 3.14249e-05
0.000812304 -2.25084e-05 -5.97226e-08
-2.25084e-05 7.43957e-05 9.05511e-07
-5.97226e-08 9.05511e-07 -1.95458e-05
0.000798712 -9.47732e-05 3.78757e-06
-9.47732e-05 0.000112236 -1.09032e-06
3.78757e-06 -1.09032e-06 -4.63312e-05
0.00101317 -6.07618e-05 9.9772e-07
-6.07618e-05 0.000203397 -1.10066e-06
9.9772e-07 -1.10066e-06 8.02124e-05
0.00192441 -7.44916e-05 -4.24594e-06
-7.44916e-05 5.8694e-05 3.64985e-06
-4.24594e-06 3.64985e-06 -3.84371e-06
0.00233343 -0.00022032 -5.28409e-06
-0.00022032 0.000239826 -1.95927e-06
-5.28409e-06 -1.95927e-06 0.000196811
0.0022793 -0.000289112 -3.89878e-06
-0.000289112 0.000423873 -2.12556e-06
-3.89878e-06 -2.12556e-06 0.000284188
0.00133017 -0.000207595 -1.54569e-06
-0.000207595 0.000309074 -1.22287e-06
-1.54569e-06 -1.22287e-06 0.000135047
0.000758006 2.67808e-05 -3.74551e-07
2.67808e-05 4.38382e-05 -5.20582e-07
-3.74551e-07 -5.20582e-07 -4.58201e-05
0.000773257 -3.79916e-05 7.1934e-07
-3.79916e-05 5.71272e-05 -8.33597e-07
7.1934e-07 -8.33597e-07 -3.30039e-05
0.000808023 -2.42174e-05 2.73651e-07
-2.42174e-05 7.57417e-05 4.19652e-07
2.73651e-07 4.19652e-07 -2.33092e-05
0.000827052 1.88222e-07 -7.04078e-07
1.88222e-07 0.000130776 4.63796e-07
-7.04078e-07 4.63796e-07 -4.24401e-05
0.00041785 -0.00010295 8.41085e-06
-0.00010295 -0.00134794 -4.05908e-06
8.41085e-06 -4.05908e-06 -0.00181614
0.000991592 1.04496e-05 9.44107e-07
1.04496e-05 0.000170164 -1.05846e-06
9.44107e-07 -1.05846e-06 8.38658e-05
0.000653405 8.81061e-05 2.05094e-06
8.81061e-05 -5.04633e-06 1.19297e-06
2.05094e-06 1.19297e-06 -0.000129099
0.0017582 9.50254e-05 1.0884e-05
9.50254e-05 -8.16281e-06 5.96735e-07
1.0884e-05 5.96735e-07 -3.833e-05
0.00191986 0.00022641 1.0106e-06
0.00022641 5.73786e-05 -1.14618e-06
1.0106e-06 -1.14618e-06 -2.30102e-05
0.00135566 0.000225332 3.98421e-06
0.000225332 6.24708e-05 2.55289e-06
3.98421e-06 2.55289e-06 -0.000122043
0.000764703 0.000131691 3.86771e-06
0.000131691 3.51557e-05 1.10559e-06
3.86771e-06 1.10559e-06 -0.00015696
0.0023007 0.000149792 1.14634e-05
0.000149792 0.000154846 1.10017e-06
1.14634e-05 1.10017e-06 -7.31347e-05
0.00096853 4.50415e-05 8.15281e-07
4.50415e-05 0.000164231 -7.78196e-07
8.15281e-07 -7.78196e-07 6.13763e-05
0.00219718 0.000157158 -6.32466e-06
0.000157158 0.000239059 -2.20208e-06
-6.32466e-06 -2.20208e-06 0.000248342
0.00106324 0.000144116 1.72316e-07
0.000144116 0.000223578 -2.74861e-07
1.72316e-07 -2.74861e-07 8.22274e-05
0.00117356 0.000184121 -3.39905e-07
0.000184121 0.000186924 7.42279e-07
-3.39905e-07 7.42279e-07 -2.43975e-05
0.00124825 0.000281415 -1.97032e-06
0.000281415 -0.000172684 -6.61147e-07
-1.97032e-06 -6.61147e-07 -0.000303514
0.00274216 -0.000147629 -5.3075e-05
-0.000147629 -7.70671e-06 -1.67966e-05
-5.3075e-05 -1.67966e-05 -0.000816097
0.00352363 0.000150004 5.57836e-06
0.000150004 0.000261217 -1.48454e-05
5.57836e-06 -1.48454e-05 -0.000506327
0.000298142 0.000177222 6.3421e-06
0.000177222 -0.000506489 5.72372e-06
6.3421e-06 5.72372e-06 -0.000610371
-0.00189968 -0.000200529 4.76654e-05
-0.000200529 -0.000461259 1.25993e-05
4.76654e-05 1.25993e-05 -0.000910828
-0.000151036 -0.000683097 9.50825e-07
-0.000683097 -0.00124465 -1.15319e-05
9.50825e-07 -1.15319e-05 0.000143647
0.00120571 9.757e-05 -2.58805e-06
9.757e-05 0.000314042 -2.4836e-06
-2.58805e-06 -2.4836e-06 0.000209178
0.000756718 0.000149379 -4.94444e-05
0.000149379 0.000807374 -2.41526e-05
-4.94444e-05 -2.41526e-05 0.000320963
0.0014636 -0.000343502 -4.86683e-05
-0.000343502 0.000755323 -4.65444e-05
-4.86683e-05 -4.65444e-05 0.00087265
0.00214731 0.000222192 -2.05877e-05
0.000222192 0.00026425 -5.78736e-06
-2.05877e-05 -5.78736e-06 0.000284188
0.00102802 8.82614e-05 -8.00822e-06
8.82614e-05 0.000220506 -2.0169e-06
-8.00822e-06 -2.0169e-06 6.56103e-05
0.00100921 0.000270444 -1.39175e-05
0.000270444 1.88242e-05 -7.13306e-06
-1.39175e-05 -7.13306e-06 -0.000202591
-0.000242952 0.000227581 8.25436e-06
0.000227581 -0.000790187 4.69567e-05
8.25436e-06 4.69567e-05 -0.000773997
0.00740872 -9.16965e-05 -4.41619e-05
-9.16965e-05 0.00257979 -1.54671e-05
-4.41619e-05 -1.54671e-05 0.00125808
0.00368705 0.00035396 -7.13634e-06
0.00035396 0.000534988 2.01594e-05
-7.13634e-06 2.01594e-05 -0.000527475
0.000708565 -0.000544028 4.52026e-06
-0.000544028 -0.000140424 4.81484e-06
4.52026e-06 4.81484e-06 0.000177225
0.00110337 -0.000378955 -2.82559e-05
-0.000378955 -0.00159617 2.8156e-05
-2.82559e-05 2.8156e-05 -0.000506873
0.000897621 -2.946e-05 9.74958e-07
-2.946e-05 0.000114163 -3.99025e-07
9.74958e-07 -3.99025e-07 3.33086e-05
0.000928116 1.08028e-05 4.5884e-08
1.08028e-05 0.000129457 6.32114e-09
4.5884e-08 6.32114e-09 4.86864e-05
0.00111771 4.68651e-05 -7.53166e-07
4.68651e-05 0.000229183 -2.9053e-06
-7.53166e-07 -2.9053e-06 0.000163189
0.000773015 2.85411e-06 -1.2957e-07
2.85411e-06 2.9717e-05 -4.46922e-08
-1.2957e-07 -4.46922e-08 -3.06265e-05
0.000832091 1.73876e-05 -6.8448e-07
1.73876e-05 5.84413e-05 -9.02965e-08
-6.8448e-07 -9.02965e-08 -1.02729e-05
0.000767265 -3.28078e-05 -5.55712e-07
-3.28078e-05 2.07144e-05 1.86948e-07
-5.55712e-07 1.86948e-07 -4.60879e-05
0.000896219 -1.88295e-05 5.03181e-08
-1.88295e-05 9.26327e-05 4.55187e-07
5.03181e-08 4.55187e-07 2.32692e-05
0.000928296 -3.93609e-05 -2.17231e-07
-3.93609e-05 0.000114041 1.59273e-06
-2.17231e-07 1.59273e-06 3.85915e-05
0.000681465 -2.71611e-07 4.76498e-07
-2.71611e-07 -2.74296e-05 4.78478e-07
4.76498e-07 4.78478e-07 -8.54255e-05
0.000832793 -1.25455e-05 -1.40777e-07
-1.25455e-05 5.25217e-05 -1.59123e-07
-1.40777e-07 -1.59123e-07 -1.55365e-05
0.000899505 -1.17542e-05 -2.77318e-08
-1.17542e-05 9.04432e-05 2.74869e-07
-2.77318e-08 2.74869e-07 2.06085e-05
0.000851905 2.39236e-05 5.5255e-07
2.39236e-05 6.99514e-05 -2.2397e-07
5.5255e-07 -2.2397e-07 -3.04936e-06
0.00081242 -1.66207e-05 1.63023e-07
-1.66207e-05 4.1971e-05 -1.17753e-07
1.63023e-07 -1.17753e-07 -2.39262e-05
0.000830219 -2.1888e-05 5.74272e-07
-2.1888e-05 4.46863e-05 -9.67289e-07
5.74272e-07 -9.67289e-07 -2.26049e-05
0.000807315 1.41188e-05 -6.40777e-07
1.41188e-05 3.09632e-05 -4.00237e-06
-6.40777e-07 -4.00237e-06 -2.85441e-05
0.00091212 -5.7461e-05 2.02168e-07
-5.7461e-05 9.26224e-05 -4.94407e-07
2.02168e-07 -4.94407e-07 2.00587e-05
0.000887662 -4.40503e-05 -4.77304e-07
-4.40503e-05 9.18547e-05 -5.36073e-07
-4.77304e-07 -5.36073e-07 1.8211e-05
0.000891019 -8.84794e-06 -4.54037e-07
-8.84794e-06 9.4236e-05 -1.52801e-07
-4.54037e-07 -1.52801e-07 2.23962e-05
0.000915841 4.87402e-05 -4.47135e-07
4.87402e-05 0.000105034 -2.86869e-07
-4.47135e-07 -2.86869e-07 3.33761e-05
0.000877024 2.12069e-05 -3.99742e-07
2.12069e-05 8.66663e-05 -1.0085e-06
-3.99742e-07 -1.0085e-06 7.2005e-06
0.000833094 4.8368e-05 1.91778e-07
4.8368e-05 6.57482e-05 -6.55431e-07
1.91778e-07 -6.55431e-07 -5.55487e-06
0.000859048 5.21751e-05 2.7193e-08
5.21751e-05 7.09993e-05 -1.17004e-06
2.7193e-08 -1.17004e-06 1.49457e-06
0.000760598 4.37899e-05 1.40733e-06
4.37899e-05 4.02392e-05 9.92462e-07
1.40733e-06 9.92462e-07 -3.51159e-05
0.000779294 1.8833e-05 -3.08122e-07
1.8833e-05 3.68635e-05 -9.56015e-08
-3.08122e-07 -9.56015e-08 -2.57055e-05
0.000799303 1.02894e-06 -6.57699e-08
1.02894e-06 5.06347e-05 2.48291e-08
-6.57699e-08 2.48291e-08 -1.65678e-05
0.000786513 8.7862e-06 -1.06916e-06
8.7862e-06 2.58882e-05 3.50139e-07
-1.06916e-06 3.50139e-07 -2.50936e-05
0.000830483 1.52294e-05 7.34993e-07
1.52294e-05 5.78143e-05 -1.12808e-07
7.34993e-07 -1.12808e-07 -8.05748e-06
0.000756489 -2.35438e-05 -3.4657e-08
-2.35438e-05 1.16162e-05 1.8145e-08
-3.4657e-08 1.8145e-08 -4.28182e-05
0.000770195 1.66502e-05 -5.76167e-07
1.66502e-05 7.18278e-06 1.47174e-06
-5.76167e-07 1.47174e-06 -2.67726e-05
0.000692503 8.33601e-06 4.65565e-07
8.33601e-06 -1.78602e-05 -3.16043e-08
4.65565e-07 -3.16043e-08 -7.76344e-05
0.00075918 8.63555e-06 -1.14296e-07
8.63555e-06 7.7949e-07 1.7986e-09
-1.14296e-07 1.7986e-09 -3.33357e-05
0.00134682 1.42834e-05 -2.97587e-06
1.42834e-05 0.000317932 4.55757e-06
-2.97587e-06 4.55757e-06 0.000315704
0.000751038 -1.14797e-06 5.80712e-07
-1.14797e-06 -3.56434e-06 -1.39043e-06
5.80712e-07 -1.39043e-06 -3.77735e-05
0.00103013 7.58164e-06 -1.42312e-06
7.58164e-06 0.000139954 6.89593e-07
-1.42312e-06 6.89593e-07 0.000136421
0.000939191 3.61016e-06 -3.08723e-06
3.61016e-06 9.10774e-05 4.27981e-06
-3.08723e-06 4.27981e-06 0.000105159
0.000714263 1.30093e-06 1.54071e-08
1.30093e-06 -3.67971e-05 -3.24796e-06
1.54071e-08 -3.24796e-06 -4.15674e-05
0.00216614 -2.02012e-07 2.79545e-06
-2.02012e-07 0.000772749 -6.65027e-10
2.79545e-06 -6.65027e-10 0.00079348
0.000948331 -3.83685e-06 -2.61074e-06
-3.83685e-06 9.58785e-05 -4.27518e-06
-2.61074e-06 -4.27518e-06 0.000110393
0.00079191 5.60277e-05 5.94134e-07
5.60277e-05 4.63143e-05 -2.08811e-07
5.94134e-07 -2.08811e-07 -1.00506e-05
0.000765101 9.90923e-07 -6.60288e-08
9.90923e-07 5.45133e-06 -1.6818e-06
-6.60288e-08 -1.6818e-06 -2.48496e-05
0.00076446 3.50175e-06 -1.07056e-07
3.50175e-06 5.35174e-06 -5.08656e-09
-1.07056e-07 -5.08656e-09 -2.54528e-05
0.000718008 5.47977e-06 -7.2687e-08
5.47977e-06 -3.48116e-05 -3.39085e-06
-7.2687e-08 -3.39085e-06 -3.73939e-05
0.000763674 4.90321e-06 -3.86425e-07
4.90321e-06 4.48705e-06 1.72551e-06
-3.86425e-07 1.72551e-06 -2.72095e-05
0.000708894 1.16676e-05 1.98576e-08
1.16676e-05 -3.85624e-05 -7.10056e-07
1.98576e-08 -7.10056e-07 -4.19742e-05
0.00209342 1.68504e-05 8.21403e-06
1.68504e-05 0.000734713 -4.37379e-06
8.21403e-06 -4.37379e-06 0.000755728
0.00129404 2.35043e-05 -1.18549e-06
2.35043e-05 0.000289881 2.07602e-06
-1.18549e-06 2.07602e-06 0.000288191
0.00153687 2.2043e-05 3.67916e-07
2.2043e-05 0.000429439 1.36641e-06
3.67916e-07 1.36641e-06 0.000446041
0.000988408 2.47159e-05 -1.63836e-05
2.47159e-05 0.000129714 6.89864e-06
-1.63836e-05 6.89864e-06 0.000141601
0.000344086 4.18647e-05 2.17745e-05
4.18647e-05 -0.000800395 8.9695e-06
2.17745e-05 8.9695e-06 -0.000895078
0.00197493 6.58371e-06 2.84971e-06
6.58371e-06 0.000160526 2.4789e-07
2.84971e-06 2.4789e-07 9.33163e-05
0.00202998 3.216e-05 1.10867e-05
3.216e-05 0.000192127 -3.09803e-07
1.10867e-05 -3.09803e-07 0.000155903
0.000899297 1.66204e-05 2.15724e-05
1.66204e-05 -0.000489787 -3.73968e-06
2.15724e-05 -3.73968e-06 -0.000843419
0.00177641 -1.88973e-05 7.67054e-07
-1.88973e-05 -1.20339e-05 6.90833e-07
7.67054e-07 6.90833e-07 -6.90318e-05
0.00201616 -3.41721e-06 -2.88313e-06
-3.41721e-06 0.000114721 -9.45513e-07
-2.88313e-06 -9.45513e-07 6.73316e-05
0.00215805 -1.87554e-05 -2.81836e-05
-1.87554e-05 0.000191319 2.47061e-06
-2.81836e-05 2.47061e-06 0.000145101
0.00179777 -9.88931e-05 0.00013473
-9.88931e-05 -8.15715e-05 -9.96642e-06
0.00013473 -9.96642e-06 -0.000390982
0.00803898 -5.10893e-05 -3.10961e-05
-5.10893e-05 0.002594 2.9937e-06
-3.10961e-05 2.9937e-06 0.00169244
0.00369505 0.000693948 4.15525e-05
0.000693948 0.00177723 -1.1082e-05
4.15525e-05 -1.1082e-05 0.00196381
0.00209076 0.000646739 -1.25481e-05
0.000646739 0.000619013 1.29905e-05
-1.25481e-05 1.29905e-05 0.00163656
0.000649491 -5.92499e-05 1.19438e-06
-5.92499e-05 -2.367e-05 -8.64592e-07
1.19438e-06 -8.64592e-07 -9.31402e-05
0.000795471 -9.6112e-06 3.90407e-07
-9.6112e-06 4.63826e-05 -4.98166e-08
3.90407e-07 -4.98166e-08 -7.63896e-06
0.000788472 -6.0687e-05 -1.16682e-06
-6.0687e-05 4.66423e-05 1.10999e-06
-1.16682e-06 1.10999e-06 -1.0896e-05
0.000770813 -2.56191e-05 -3.16172e-07
-2.56191e-05 4.22585e-05 5.60725e-08
-3.16172e-07 5.60725e-08 -2.79016e-05
0.000773348 4.11521e-05 2.094e-07
4.11521e-05 5.60716e-05 6.0963e-07
2.094e-07 6.0963e-07 -2.69848e-05
0.000918589 8.26936e-05 5.33788e-07
8.26936e-05 0.000124585 8.54277e-07
5.33788e-07 8.54277e-07 4.63846e-05
0.00084779 -2.33659e-05 7.50366e-07
-2.33659e-05 8.3665e-05 -9.63777e-07
7.50366e-07 -9.63777e-07 1.38458e-05
0.000754027 -3.53321e-05 -5.00293e-07
-3.53321e-05 3.41703e-05 6.18941e-07
-5.00293e-07 6.18941e-07 -3.54475e-05
0.00196547 -7.2455e-05 3.42322e-06
-7.2455e-05 0.000148508 -6.54238e-07
3.42322e-06 -6.54238e-07 9.1652e-05
0.00164924 -0.000112049 1.43043e-06
-0.000112049 -9.31602e-05 -8.96584e-08
1.43043e-06 -8.96584e-08 -0.000157568
0.00157585 -0.000226898 6.18421e-07
-0.000226898 -5.24576e-05 5.41035e-07
6.18421e-07 5.41035e-07 -0.000145911
0.000971717 -0.000159084 1.67209e-06
-0.000159084 0.000125832 2.70741e-06
1.67209e-06 2.70741e-06 -3.61425e-05
0.00218146 -0.000272406 1.4501e-06
-0.000272406 0.000524164 6.45188e-07
1.4501e-06 6.45188e-07 0.000346132
0.0008343 -9.65314e-05 -8.81741e-07
-9.65314e-05 0.000122169 -5.6108e-07
-8.81741e-07 -5.6108e-07 -2.80217e-05
0.00126386 -0.00010787 -3.27448e-07
-0.00010787 0.000344196 -5.81941e-07
-3.27448e-07 -5.81941e-07 0.000212073
0.000802258 -4.79187e-05 -1.43845e-06
-4.79187e-05 7.55174e-05 5.48151e-07
-1.43845e-06 5.48151e-07 -2.103e-05
0.000800863 -2.9791e-06 4.57333e-08
-2.9791e-06 6.47501e-05 7.82036e-07
4.57333e-08 7.82036e-07 -1.44767e-05
0.00100602 1.23688e-05 -1.26047e-06
1.23688e-05 0.000173791 -2.54001e-07
-1.26047e-06 -2.54001e-07 8.60459e-05
0.00100743 -3.52769e-06 6.26839e-07
-3.52769e-06 0.00017336 3.97539e-07
6.26839e-07 3.97539e-07 0.000101927
0.000758355 9.32796e-05 1.07363e-06
9.32796e-05 4.64553e-05 1.6792e-06
1.07363e-06 1.6792e-06 -3.94441e-05
0.00159935 -7.55684e-05 -1.15011e-06
-7.55684e-05 -0.000122462 -2.18915e-06
-1.15011e-06 -2.18915e-06 -0.000180023
0.000826306 3.19595e-05 -4.66727e-07
3.19595e-05 8.13163e-05 2.79578e-07
-4.66727e-07 2.79578e-07 -6.35963e-06
0.000839168 -2.94714e-05 -4.17421e-07
-2.94714e-05 8.82627e-05 -3.44712e-07
-4.17421e-07 -3.44712e-07 6.22654e-07
0.00206194 -0.000219923 -1.93671e-07
-0.000219923 0.000104366 -9.98251e-07
-1.93671e-07 -9.98251e-07 5.31641e-05
0.00119077 -0.000234309 6.95641e-07
-0.000234309 -0.000130843 1.17601e-06
6.95641e-07 1.17601e-06 -0.000258743
0.00138546 -0.000212135 1.22388e-06
-0.000212135 0.000331418 -1.48498e-06
1.22388e-06 -1.48498e-06 0.000145879
0.000947071 -2.25831e-05 2.23936e-07
-2.25831e-05 0.000152603 -5.89775e-07
2.23936e-07 -5.89775e-07 5.08711e-05
0.000969101 -3.26946e-05 1.55749e-07
-3.26946e-05 0.000203146 5.48999e-07
1.55749e-07 5.48999e-07 3.08414e-05
0.00374695 -0.000180629 -1.05553e-05
-0.000180629 0.00114264 5.76642e-06
-1.05553e-05 5.76642e-06 0.00106405
0.00295765 -0.000311654 -1.24494e-05
-0.000311654 0.000638574 9.38108e-07
-1.24494e-05 9.38108e-07 0.000596445
-0.000553248 -0.000154423 -3.85757e-06
-0.000154423 -0.000845873 -1.60475e-06
-3.85757e-06 -1.60475e-06 -0.000985564
0.00115823 -0.00013329 -4.74414e-06
-0.00013329 0.000254634 3.57204e-06
-4.74414e-06 3.57204e-06 5.58601e-05
0.000712864 -7.67979e-05 1.11117e-06
-7.67979e-05 1.15076e-05 -1.8456e-07
1.11117e-06 -1.8456e-07 -7.52528e-05
0.000843123 -3.20738e-05 1.0473e-06
-3.20738e-05 8.74205e-05 2.33602e-08
1.0473e-06 2.33602e-08 -4.63392e-06
0.000907767 -7.30164e-06 -2.21066e-06
-7.30164e-06 0.000138922 5.17488e-07
-2.21066e-06 5.17488e-07 2.13524e-05
-0.00382716 -3.14734e-05 7.97237e-05
-3.14734e-05 -0.00172802 4.61241e-06
7.97237e-05 4.61241e-06 -0.00154596
0.0084351 -6.15908e-05 -3.06546e-05
-6.15908e-05 0.00286731 -8.83784e-07
-3.06546e-05 -8.83784e-07 0.00228597
0.000905562 4.33407e-05 2.30253e-06
4.33407e-05 0.00013651 -3.45032e-07
2.30253e-06 -3.45032e-07 3.4875e-05
0.00078528 0.000124957 3.52925e-06
0.000124957 7.89501e-05 -6.93091e-08
3.52925e-06 -6.93091e-08 -5.90117e-05
0.00172063 0.000139483 5.66565e-06
0.000139483 -1.36201e-05 6.28076e-06
5.66565e-06 6.28076e-06 9.79727e-06
0.00199593 0.000318933 3.4005e-06
0.000318933 0.000191811 1.13658e-06
3.4005e-06 1.13658e-06 6.79301e-05
0.00103334 0.00018052 5.759e-06
0.00018052 0.000120825 2.1725e-06
5.759e-06 2.1725e-06 -9.16513e-05
0.00545228 0.000201566 6.26572e-05
0.000201566 0.0012712 1.36265e-06
6.26572e-05 1.36265e-06 0.00031706
0.00550521 0.000215079 -8.81198e-05
0.000215079 0.00110008 -2.89398e-05
-8.81198e-05 -2.89398e-05 0.00046247
8.53034e-05 0.00013583 3.82661e-06
0.00013583 -0.000618451 -1.90535e-05
3.82661e-06 -1.90535e-05 -0.000716441
0.00399397 -0.000558015 1.34858e-05
-0.000558015 0.0019875 2.13635e-05
1.34858e-05 2.13635e-05 0.00187821
-0.00352268 -0.000721043 -4.26564e-05
-0.000721043 -0.00281074 -5.30743e-05
-4.26564e-05 -5.30743e-05 -0.0012157
0.00096945 0.000103622 3.53107e-07
0.000103622 0.000190173 -6.8294e-07
3.53107e-07 -6.8294e-07 8.40457e-05
-0.00251877 -0.00017188 2.54385e-05
-0.00017188 -0.00136801 3.297e-06
2.54385e-05 3.297e-06 -0.0013501
-0.000493022 -0.000311392 -3.04454e-05
-0.000311392 -3.40855e-05 -1.11121e-05
-3.04454e-05 -1.11121e-05 -0.000149287
0.00247356 0.000225437 -4.02709e-06
0.000225437 0.000408673 -3.19395e-06
-4.02709e-06 -3.19395e-06 0.000444422
0.000888491 0.000103751 -8.08448e-07
0.000103751 0.000162654 -6.4599e-07
-8.08448e-07 -6.4599e-07 5.69638e-06
0.000610698 0.000202021 1.61757e-06
0.000202021 -0.000161021 1.59503e-06
1.61757e-06 1.59503e-06 -0.000373222
0.000264065 0.000148973 1.43936e-05
0.000148973 -0.000461894 1.04689e-05
1.43936e-05 1.04689e-05 -0.00040346
0.00619058 -5.02447e-05 -7.29654e-06
-5.02447e-05 0.0018568 -5.04537e-06
-7.29654e-06 -5.04537e-06 0.000430898
0.00609123 0.000492109 -3.12436e-05
0.000492109 0.0015486 -1.70239e-05
-3.12436e-05 -1.70239e-05 0.000800424
0.00490959 -0.000796482 1.96203e-05
-0.000796482 0.00207032 -1.52409e-05
1.96203e-05 -1.52409e-05 0.00213734
0.00108605 -0.000440099 2.67352e-05
-0.000440099 -0.00170893 6.05368e-05
2.67352e-05 6.05368e-05 -0.000573947
0.000996267 6.06484e-05 -6.13484e-06
6.06484e-05 0.000222542 -5.5439e-06
-6.13484e-06 -5.5439e-06 0.00013209
-0.00227777 -8.9295e-05 -7.08624e-05
-8.9295e-05 -0.000324085 -2.10719e-05
-7.08624e-05 -2.10719e-05 -0.000947779
0.00192754 -1.13711e-05 -6.11105e-05
-1.13711e-05 0.000225971 -6.43689e-05
-6.11105e-05 -6.43689e-05 -0.000307568
0.00052315 0.000206565 -2.34031e-05
0.000206565 -0.00029994 -3.85541e-07
-2.34031e-05 -3.85541e-07 -0.000287619
0.00154155 0.000228403 -2.59632e-05
0.000228403 0.000566467 -7.32367e-06
-2.59632e-05 -7.32367e-06 0.000389823
0.0023035 0.000134515 -4.25486e-05
0.000134515 0.000885887 -1.3865e-06
-4.25486e-05 -1.3865e-06 0.000769164
0.004532 0.00061649 -9.36821e-05
0.00061649 0.00091586 7.06938e-06
-9.36821e-05 7.06938e-06 0.000523523
-0.00113819 -3.08995e-05 4.57889e-05
-3.08995e-05 -0.0010227 4.68545e-05
4.57889e-05 4.68545e-05 -0.00288736
0.00652364 -0.000745476 -4.97817e-05
-0.000745476 0.0016528 2.64315e-05
-4.97817e-05 2.64315e-05 0.00177994
0.00169771 -0.000259586 -1.09498e-05
-0.000259586 -0.00185185 -1.63576e-05
-1.09498e-05 -1.63576e-05 -0.000745779
0.000904844 2.31945e-05 1.11953e-06
2.31945e-05 0.000121265 2.34635e-06
1.11953e-06 2.34635e-06 3.76854e-05
0.00109053 5.27576e-05 1.52976e-06
5.27576e-05 0.000216894 1.66429e-06
1.52976e-06 1.66429e-06 0.000147253
0.000566524 4.92711e-05 -9.67135e-08
4.92711e-05 -6.14534e-05 -6.20723e-06
-9.67135e-08 -6.20723e-06 -0.000110652
0.000678331 3.87429e-05 3.48866e-07
3.87429e-05 -2.93201e-05 2.22816e-08
3.48866e-07 2.22816e-08 -8.72104e-05
0.000914298 3.52299e-05 -7.57359e-07
3.52299e-05 0.000108671 -2.86829e-07
-7.57359e-07 -2.86829e-07 3.40522e-05
0.000891901 -2.69263e-05 -4.73071e-07
-2.69263e-05 8.71596e-05 6.41079e-07
-4.73071e-07 6.41079e-07 1.76415e-05
0.000864097 -2.48593e-05 -5.9504e-07
-2.48593e-05 7.02947e-05 1.14838e-07
-5.9504e-07 1.14838e-07 1.29739e-06
0.00083422 -1.77751e-05 -7.26143e-07
-1.77751e-05 5.3542e-05 2.02956e-06
-7.26143e-07 2.02956e-06 -1.18075e-05
0.000883694 2.78695e-05 3.03035e-07
2.78695e-05 9.02532e-05 -4.69221e-07
3.03035e-07 -4.69221e-07 1.63503e-05
0.00090611 -2.25122e-05 -8.73831e-08
-2.25122e-05 8.67029e-05 3.72751e-07
-8.73831e-08 3.72751e-07 1.91933e-05
0.000914071 -3.53345e-05 9.18074e-08
-3.53345e-05 9.64692e-05 2.8218e-07
9.18074e-08 2.8218e-07 2.2024e-05
0.000758074 -2.60539e-06 1.1735e-08
-2.60539e-06 9.05496e-06 -3.15633e-07
1.1735e-08 -3.15633e-07 -4.79801e-05
0.000879676 -3.22116e-05 2.10812e-06
-3.22116e-05 8.63086e-05 -3.44503e-06
2.10812e-06 -3.44503e-06 3.93e-05
0.000888002 -3.11222e-05 1.63231e-07
-3.11222e-05 7.00175e-05 -2.81735e-06
1.63231e-07 -2.81735e-06 3.60714e-06
0.000911579 3.54654e-06 1.12811e-07
3.54654e-06 0.00010265 -8.32734e-07
1.12811e-07 -8.32734e-07 2.10696e-05
0.000899616 -3.43909e-05 7.04041e-08
-3.43909e-05 0.000101597 -2.60753e-07
7.04041e-08 -2.60753e-07 2.76003e-05
0.000897085 1.74722e-05 -4.00446e-07
1.74722e-05 9.00131e-05 5.3576e-07
-4.00446e-07 5.3576e-07 2.08256e-05
0.000874657 -7.99857e-06 2.51003e-07
-7.99857e-06 8.18664e-05 -3.01854e-07
2.51003e-07 -3.01854e-07 4.7055e-06
0.000830198 4.54914e-05 -1.0679e-07
4.54914e-05 6.2537e-05 -5.16187e-09
-1.0679e-07 -5.16187e-09 -8.0252e-06
0.000858998 2.23155e-05 -3.3521e-07
2.23155e-05 6.84145e-05 1.80849e-07
-3.3521e-07 1.80849e-07 8.06814e-07
0.000777569 5.47215e-05 7.15577e-07
5.47215e-05 4.03491e-05 4.07571e-08
7.15577e-07 4.07571e-08 -3.07121e-05
0.000790968 3.29955e-05 2.88656e-08
3.29955e-05 3.59905e-05 -1.45606e-06
2.88656e-08 -1.45606e-06 -3.97776e-05
0.000834466 3.58798e-05 4.36314e-07
3.58798e-05 6.21665e-05 -9.06696e-07
4.36314e-07 -9.06696e-07 -5.23182e-06
0.000818622 2.75538e-05 1.90854e-06
2.75538e-05 6.45805e-05 -6.76743e-07
1.90854e-06 -6.76743e-07 -1.89279e-05
0.000534553 -3.46305e-05 4.07837e-07
-3.46305e-05 -4.83851e-05 -1.31917e-07
4.07837e-07 -1.31917e-07 -0.000167613
0.000507407 2.80114e-05 5.19931e-07
2.80114e-05 -8.92326e-05 1.5899e-07
5.19931e-07 1.5899e-07 -0.000173281
0.000799407 4.19497e-05 4.47381e-07
4.19497e-05 6.1494e-05 5.1881e-07
4.47381e-07 5.1881e-07 -1.40765e-05
0.000785831 4.09206e-05 3.14165e-07
4.09206e-05 4.54677e-05 4.72512e-07
3.14165e-07 4.72512e-07 -1.96379e-05
0.00080546 1.35015e-05 -2.30567e-07
1.35015e-05 5.42198e-05 -5.63544e-08
-2.30567e-07 -5.63544e-08 -1.0561e-05
0.00078088 2.85497e-05 -6.90347e-07
2.85497e-05 2.66445e-05 3.6888e-07
-6.90347e-07 3.6888e-07 -2.49588e-05
0.000827176 1.30302e-05 5.89727e-07
1.30302e-05 6.37011e-05 3.02102e-07
5.89727e-07 3.02102e-07 -2.10237e-06
0.000802966 -1.71408e-06 -1.13464e-07
-1.71408e-06 3.69462e-05 1.71946e-08
-1.13464e-07 1.71946e-08 -1.55631e-05
0.000765109 2.18632e-05 -9.46138e-07
2.18632e-05 5.90582e-06 1.51247e-06
-9.46138e-07 1.51247e-06 -2.80303e-05
0.000720439 -1.50545e-05 6.82841e-07
-1.50545e-05 -1.03529e-05 -2.90217e-07
6.82841e-07 -2.90217e-07 -6.40568e-05
0.000763631 1.28005e-05 -6.95547e-08
1.28005e-05 3.22048e-06 4.59644e-09
-6.95547e-08 4.59644e-09 -3.05898e-05
0.00133833 2.14863e-05 -4.86487e-06
2.14863e-05 0.000315931 4.50453e-06
-4.86487e-06 4.50453e-06 0.000313447
0.000756142 3.57461e-06 7.6899e-07
3.57461e-06 -1.25033e-06 -1.39769e-06
7.6899e-07 -1.39769e-06 -3.52364e-05
0.00102802 1.41707e-05 -2.24155e-06
1.41707e-05 0.000140578 6.71315e-07
-2.24155e-06 6.71315e-07 0.00013686
0.000881662 1.17841e-05 -5.62771e-07
1.17841e-05 6.05691e-05 1.63624e-06
-5.62771e-07 1.63624e-06 7.45753e-05
0.000707482 6.93747e-06 2.80846e-07
6.93747e-06 -3.97545e-05 -3.23489e-06
2.80846e-07 -3.23489e-06 -4.48183e-05
0.00217137 8.57912e-06 2.4731e-06
8.57912e-06 0.00077632 2.21444e-08
2.4731e-06 2.21444e-08 0.000796836
0.00217126 5.45179e-07 7.15376e-07
5.45179e-07 0.000775607 -4.41811e-06
7.15376e-07 -4.41811e-06 0.000796272
0.00106386 4.28255e-05 -1.14846e-06
4.28255e-05 0.00019106 -6.31368e-07
-1.14846e-06 -6.31368e-07 0.000137202
0.000768275 -3.05497e-06 -2.86094e-07
-3.05497e-06 6.77699e-06 -1.72304e-06
-2.86094e-07 -1.72304e-06 -2.38577e-05
0.000785712 4.1035e-06 7.42619e-07
4.1035e-06 4.22391e-05 5.67997e-07
7.42619e-07 5.67997e-07 -1.34266e-05
0.000720509 -7.38879e-07 -1.1986e-07
-7.38879e-07 -3.39775e-05 -3.37345e-06
-1.1986e-07 -3.37345e-06 -3.61432e-05
0.000770266 -3.62741e-08 8.61879e-08
-3.62741e-08 8.28191e-06 -6.16588e-09
8.61879e-08 -6.16588e-09 -2.20347e-05
0.000763955 2.46295e-06 -2.48697e-07
2.46295e-06 4.89111e-06 1.67979e-06
-2.48697e-07 1.67979e-06 -2.58687e-05
0.000720526 5.76524e-06 -1.66466e-07
5.76524e-06 -3.34826e-05 5.08861e-09
-1.66466e-07 5.08861e-09 -3.60869e-05
0.00207524 7.90035e-06 3.79436e-06
7.90035e-06 0.000722857 -4.41702e-06
3.79436e-06 -4.41702e-06 0.000744492
0.00129002 1.57882e-05 -7.12993e-07
1.57882e-05 0.000284552 2.05545e-06
-7.12993e-07 2.05545e-06 0.00028419
0.00150078 1.48075e-05 2.22998e-06
1.48075e-05 0.000405363 5.56136e-08
2.22998e-06 5.56136e-08 0.000423138
0.000961834 1.77824e-05 -1.42676e-05
1.77824e-05 0.000109301 6.91958e-06
-1.42676e-05 6.91958e-06 0.000123064
-0.00600503 0.000123029 4.65906e-05
0.000123029 -0.00291395 -1.04751e-06
4.65906e-05 -1.04751e-06 -0.00301896
-0.00133521 0.000245946 2.66789e-05
0.000245946 -0.000350704 1.76969e-05
2.66789e-05 1.76969e-05 -0.000458715
0.00270556 2.33654e-05 -0.000133701
2.33654e-05 0.000360673 -2.60409e-06
-0.000133701 -2.60409e-06 5.79337e-06
0.00191344 -1.65741e-05 2.00183e-05
-1.65741e-05 0.000114677 1.6787e-06
2.00183e-05 1.6787e-06 5.3675e-05
0.00170183 -1.3129e-05 3.1328e-06
-1.3129e-05 -0.000108089 1.26141e-07
3.1328e-06 1.26141e-07 -0.00015048
0.00120864 9.62072e-08 2.70363e-05
9.62072e-08 -0.000222176 -8.28547e-07
2.70363e-05 -8.28547e-07 -0.00041918
0.00210495 -2.69404e-05 -1.82659e-06
-2.69404e-05 0.000169582 8.70216e-07
-1.82659e-06 8.70216e-07 0.000115454
0.00581606 0.000213018 -1.43686e-05
0.000213018 0.00145292 -1.56951e-05
-1.43686e-05 -1.56951e-05 0.000684593
-0.00380915 0.000248992 -2.04382e-05
0.000248992 -0.00149789 -2.55994e-07
-2.04382e-05 -2.55994e-07 -0.0017176
-0.000798816 0.000687998 -1.25506e-05
0.000687998 -0.00116431 3.36034e-06
-1.25506e-05 3.36034e-06 0.000187265
0.00205039 -0.00011167 6.79777e-05
-0.00011167 0.00011916 2.35403e-06
6.79777e-05 2.35403e-06 -0.000118158
0.00709697 0.000319278 2.16353e-05
0.000319278 0.00238485 -3.08236e-06
2.16353e-05 -3.08236e-06 0.00122409
2.88089e-05 0.000526769 -1.12491e-05
0.000526769 -0.00043072 -3.00838e-05
-1.12491e-05 -3.00838e-05 2.0264e-05
0.00362786 0.00047904 -5.98864e-05
0.00047904 -5.92905e-05 4.06267e-05
-5.98864e-05 4.06267e-05 0.000805372
0.000808486 5.0649e-05 -6.62628e-07
5.0649e-05 7.11031e-05 7.29941e-08
-6.62628e-07 7.29941e-08 -1.51637e-05
0.000709843 4.00088e-06 -1.99685e-07
4.00088e-06 6.64055e-06 -3.28942e-07
-1.99685e-07 -3.28942e-07 -6.08005e-05
0.000787784 -5.79999e-05 -9.15615e-07
-5.79999e-05 4.51961e-05 9.6691e-07
-9.15615e-07 9.6691e-07 -1.10615e-05
0.000711607 5.26876e-07 1.56826e-07
5.26876e-07 1.22141e-05 5.80937e-07
1.56826e-07 5.80937e-07 -6.00193e-05
0.000789591 4.85124e-05 7.06279e-07
4.85124e-05 6.49313e-05 8.10561e-07
7.06279e-07 8.10561e-07 -1.74551e-05
0.000877249 4.30233e-05 -7.16268e-07
4.30233e-05 0.00010523 4.58686e-07
-7.16268e-07 4.58686e-07 2.15961e-05
0.000854311 5.90825e-05 1.43851e-06
5.90825e-05 9.28817e-05 1.03796e-06
1.43851e-06 1.03796e-06 1.17752e-05
0.000789089 -1.65009e-05 7.38409e-07
-1.65009e-05 4.70533e-05 1.4414e-07
7.38409e-07 1.4414e-07 -2.54189e-05
0.000785503 -2.34295e-05 3.92033e-07
-2.34295e-05 5.23335e-05 -5.87828e-07
3.92033e-07 -5.87828e-07 -2.02404e-05
0.000705426 -1.62612e-05 2.78189e-07
-1.62612e-05 3.47918e-06 7.06313e-07
2.78189e-07 7.06313e-07 -6.40534e-05
0.00120387 -7.478e-05 1.41603e-06
-7.478e-05 -0.000345543 -3.00679e-06
1.41603e-06 -3.00679e-06 -0.000398715
0.00188158 -0.000216222 6.64058e-06
-0.000216222 2.58835e-05 1.30062e-06
6.64058e-06 1.30062e-06 -3.28249e-05
1.29002e-05 -0.000175161 6.07382e-06
-0.000175161 -0.00073358 2.41873e-06
6.07382e-06 2.41873e-06 -0.0008485
0.00148612 -0.000219919 1.73197e-06
-0.000219919 0.000378312 8.74394e-07
1.73197e-06 8.74394e-07 0.000182876
0.00112954 -6.84963e-05 1.9274e-06
-6.84963e-05 0.000283354 -9.95839e-07
1.9274e-06 -9.95839e-07 0.000113498
0.00109131 -3.97573e-05 -1.94953e-07
-3.97573e-05 0.000232595 -8.08945e-07
-1.94953e-07 -8.08945e-07 0.000128077
0.000903708 -2.33509e-05 -1.14977e-06
-2.33509e-05 0.000117145 -2.15879e-07
-1.14977e-06 -2.15879e-07 3.30431e-05
0.00086229 3.86388e-05 -1.07753e-06
3.86388e-05 0.00010088 2.811e-07
-1.07753e-06 2.811e-07 1.56715e-05
0.00195174 -0.000141269 -2.94222e-06
-0.000141269 0.000191857 1.72657e-06
-2.94222e-06 1.72657e-06 0.000133537
0.000769654 -3.47922e-05 -1.16293e-07
-3.47922e-05 4.50248e-05 2.85428e-08
-1.16293e-07 2.85428e-08 -4.38221e-05
0.000826463 -3.25035e-05 4.40988e-07
-3.25035e-05 7.75533e-05 -3.80308e-07
4.40988e-07 -3.80308e-07 -1.4538e-05
0.00208133 -0.000278314 3.53609e-06
-0.000278314 0.000189219 -1.889e-06
3.53609e-06 -1.889e-06 0.000140714
0.000137611 -0.000188858 1.49224e-06
-0.000188858 -0.000472047 1.41534e-06
1.49224e-06 1.41534e-06 -0.000613843
0.00119452 -0.000130866 2.46671e-06
-0.000130866 0.000267232 -1.50432e-06
2.46671e-06 -1.50432e-06 7.44905e-05
0.000983522 -3.72322e-05 -7.21613e-07
-3.72322e-05 0.000186992 -5.76645e-07
-7.21613e-07 -5.76645e-07 5.67383e-05
0.00273193 -0.000243222 2.80438e-06
-0.000243222 0.000893088 -7.1798e-06
2.80438e-06 -7.1798e-06 0.000702287
0.00177167 -0.000239838 -1.55794e-05
-0.000239838 0.000345513 1.45686e-06
-1.55794e-05 1.45686e-06 0.000268179
0.000464893 -1.56451e-05 -1.10219e-05
-1.56451e-05 -6.54789e-05 1.04718e-05
-1.10219e-05 1.04718e-05 -0.000232962
0.00085245 2.45682e-05 6.19094e-07
2.45682e-05 8.88664e-05 9.10883e-07
6.19094e-07 9.10883e-07 4.80341e-07
0.000676388 -7.3191e-05 1.50919e-06
-7.3191e-05 -1.26199e-05 3.64257e-07
1.50919e-06 3.64257e-07 -0.000102831
0.000856942 -2.00775e-05 4.03745e-07
-2.00775e-05 8.06185e-05 1.4697e-06
4.03745e-07 1.4697e-06 -1.11223e-05
0.000873151 9.02137e-06 -8.53062e-05
9.02137e-06 0.00133722 -7.3891e-07
-8.53062e-05 -7.3891e-07 0.000978313
0.00180411 -8.45499e-05 1.35938e-05
-8.45499e-05 0.00118682 4.5746e-06
1.35938e-05 4.5746e-06 0.00105831
-0.000328485 0.000244171 -4.6318e-05
0.000244171 -0.00178731 2.23281e-05
-4.6318e-05 2.23281e-05 -0.00236725
0.000757091 8.77239e-05 3.31685e-06
8.77239e-05 7.56413e-05 1.21777e-06
3.31685e-06 1.21777e-06 -2.808e-05
0.000751776 0.000118782 6.14797e-06
0.000118782 0.000104295 1.92704e-06
6.14797e-06 1.92704e-06 -5.38103e-05
0.00286669 0.000227161 1.05015e-05
0.000227161 0.000598975 2.67089e-06
1.05015e-05 2.67089e-06 0.000638502
0.000232773 0.00012982 1.05587e-05
0.00012982 -0.000327199 6.00614e-06
1.05587e-05 6.00614e-06 -0.000532193
0.00398142 -0.00032239 4.4865e-05
-0.00032239 0.00174006 1.38217e-05
4.4865e-05 1.38217e-05 0.00182331
-0.000198682 -0.000169305 -1.35117e-05
-0.000169305 -0.00128418 5.64683e-06
-1.35117e-05 5.64683e-06 -0.00245918
0.00386076 0.000415878 -6.57833e-05
0.000415878 0.000224413 -4.9011e-05
-6.57833e-05 -4.9011e-05 -0.000632698
9.24546e-05 8.52906e-05 2.3329e-05
8.52906e-05 -0.000473669 -1.4311e-05
2.3329e-05 -1.4311e-05 -0.000422574
-0.00301389 -0.0003562 2.09058e-05
-0.0003562 -0.00141313 4.87372e-06
2.09058e-05 4.87372e-06 -0.00149171
0.000996727 -0.000328058 2.36072e-05
-0.000328058 0.000532479 2.40789e-05
2.36072e-05 2.40789e-05 0.000403329
0.00426813 -0.000534777 6.8948e-05
-0.000534777 -1.11851e-05 5.10547e-05
6.8948e-05 5.10547e-05 0.00122775
0.000848585 7.1155e-05 1.0082e-06
7.1155e-05 0.000150809 -1.49612e-06
1.0082e-06 -1.49612e-06 5.71312e-05
-0.000200848 -0.000130667 -2.75452e-05
-0.000130667 0.000562355 -8.68447e-06
-2.75452e-05 -8.68447e-06 0.000158556
0.00214646 -1.18354e-05 -1.73102e-06
-1.18354e-05 0.00035221 -1.3398e-05
-1.73102e-06 -1.3398e-05 -0.000199816
0.000908247 0.000168614 -6.27537e-06
0.000168614 -3.85648e-05 1.67251e-06
-6.27537e-06 1.67251e-06 -8.02831e-05
0.00067487 0.00011198 -1.12028e-06
0.00011198 0.000136501 7.62276e-07
-1.12028e-06 7.62276e-07 -4.56791e-05
-5.13048e-05 0.00011557 2.5621e-05
0.00011557 -0.000289293 -1.73356e-05
2.5621e-05 -1.73356e-05 -0.000358652
0.00578149 0.000752343 -1.94617e-05
0.000752343 0.00156478 -1.24618e-06
-1.94617e-05 -1.24618e-06 0.000848735
0.0079908 -0.000317852 3.03959e-05
-0.000317852 0.00295358 1.03924e-05
3.03959e-05 1.03924e-05 0.00144515
0.00177704 -0.000454297 1.13259e-06
-0.000454297 -0.000906492 -6.76261e-06
1.13259e-06 -6.76261e-06 -0.000600576
0.00513564 -0.000336854 5.15399e-06
-0.000336854 0.000401852 -5.15275e-06
5.15399e-06 -5.15275e-06 0.00144534
0.00111824 0.000116385 -1.3713e-05
0.000116385 0.00034637 -8.91218e-06
-1.3713e-05 -8.91218e-06 0.000273573
0.00164042 -4.33082e-05 -5.3641e-05
-4.33082e-05 0.000119825 -2.49268e-05
-5.3641e-05 -2.49268e-05 -0.000270948
0.00147962 4.98563e-08 -1.61949e-05
4.98563e-08 0.000158788 -3.66718e-05
-1.61949e-05 -3.66718e-05 -0.000340883
-0.000909207 -1.02016e-05 -2.31732e-05
-1.02016e-05 -0.000540758 -1.7201e-05
-2.31732e-05 -1.7201e-05 -0.000647017
0.00304214 0.000341756 1.31231e-06
0.000341756 0.000854393 5.31977e-05
1.31231e-06 5.31977e-05 0.000429662
0.00805222 -0.000156602 2.03581e-05
-0.000156602 0.00273538 6.81228e-06
2.03581e-05 6.81228e-06 0.00107084
-0.00488412 -0.00035104 -5.57835e-05
-0.00035104 -0.00352651 -9.77495e-07
-5.57835e-05 -9.77495e-07 -0.00416606
0.00478077 4.67236e-05 -2.94328e-06
4.67236e-05 -0.000182836 -5.34432e-05
-2.94328e-06 -5.34432e-05 0.00101617
0.0010351 5.51412e-05 1.91495e-06
5.51412e-05 0.000189038 4.56766e-06
1.91495e-06 4.56766e-06 0.000116398
0.000813803 6.38332e-05 -1.84114e-06
6.38332e-05 7.16746e-05 -5.44072e-07
-1.84114e-06 -5.44072e-07 2.20254e-05
0.000597608 4.22796e-05 1.14315e-07
4.22796e-05 -2.05577e-05 -4.44609e-06
1.14315e-07 -4.44609e-06 -6.04809e-05
0.00089561 6.2251e-05 -1.3043e-06
6.2251e-05 9.12342e-05 -4.46546e-07
-1.3043e-06 -4.46546e-07 2.08378e-05
0.000928317 -2.87878e-05 -1.18395e-07
-2.87878e-05 0.00010855 1.13327e-06
-1.18395e-07 1.13327e-06 3.10682e-05
0.000987122 -1.43135e-05 -9.32e-07
-1.43135e-05 0.000131206 1.55151e-06
-9.32e-07 1.55151e-06 6.34949e-05
0.000733986 -1.59389e-05 -7.57745e-07
-1.59389e-05 1.92621e-06 3.14774e-06
-7.57745e-07 3.14774e-06 -5.37201e-05
0.000902944 1.11592e-05 4.27188e-07
1.11592e-05 8.98781e-05 2.07127e-08
4.27188e-07 2.07127e-08 1.39369e-05
0.000874273 -1.79071e-05 -1.19761e-07
-1.79071e-05 6.34917e-05 -2.01696e-07
-1.19761e-07 -2.01696e-07 -3.27302e-06
0.00079164 -2.45713e-05 1.36226e-07
-2.45713e-05 3.85147e-05 6.86545e-07
1.36226e-07 6.86545e-07 -8.10556e-06
0.000683417 -3.26264e-05 4.12242e-08
-3.26264e-05 1.91782e-05 -3.41064e-06
4.12242e-08 -3.41064e-06 -1.14414e-05
0.000935857 -2.89533e-05 3.20679e-06
-2.89533e-05 9.83345e-05 -4.53335e-06
3.20679e-06 -4.53335e-06 4.87702e-05
0.000797506 3.72058e-05 5.94606e-07
3.72058e-05 3.19654e-05 -1.62577e-06
5.94606e-07 -1.62577e-06 -4.29723e-05
0.000882438 -3.58469e-05 9.65783e-07
-3.58469e-05 8.11532e-05 4.15154e-07
9.65783e-07 4.15154e-07 7.15163e-06
0.000818637 5.0074e-05 -2.1175e-07
5.0074e-05 5.52337e-05 3.64023e-07
-2.1175e-07 3.64023e-07 -1.49309e-05
0.000856846 1.47844e-05 -4.84118e-07
1.47844e-05 6.72076e-05 1.36447e-06
-4.84118e-07 1.36447e-06 -6.29553e-08
0.000813749 3.00527e-05 6.1298e-08
3.00527e-05 4.49563e-05 1.16915e-07
6.1298e-08 1.16915e-07 -2.79264e-05
0.000804626 5.39451e-05 2.97168e-07
5.39451e-05 5.61771e-05 2.90091e-07
2.97168e-07 2.90091e-07 -1.5521e-05
0.000848362 4.84652e-05 -1.76694e-07
4.84652e-05 7.04896e-05 -3.15765e-08
-1.76694e-07 -3.15765e-08 2.08487e-06
0.00085789 4.20169e-05 1.56023e-06
4.20169e-05 8.02624e-05 -2.63399e-07
1.56023e-06 -2.63399e-07 8.10026e-06
0.000786585 3.21141e-05 6.19857e-07
3.21141e-05 4.01885e-05 -1.51589e-06
6.19857e-07 -1.51589e-06 -2.38169e-05
0.000697872 -4.96498e-05 1.01494e-06
-4.96498e-05 6.93999e-06 -4.19622e-07
1.01494e-06 -4.19622e-07 -8.19591e-05
0.000906672 1.00597e-05 -5.54113e-07
1.00597e-05 0.000114032 -1.26639e-07
-5.54113e-07 -1.26639e-07 2.94045e-05
0.00066431 -3.94218e-05 1.39892e-06
-3.94218e-05 1.37805e-05 1.38149e-06
1.39892e-06 1.38149e-06 -9.57027e-05
0.00104088 -0.00013576 -1.41974e-06
-0.00013576 0.000198267 3.10167e-06
-1.41974e-06 3.10167e-06 5.37794e-05
0.00111528 -2.38969e-05 1.09945e-06
-2.38969e-05 0.000249064 -6.04988e-07
1.09945e-06 -6.04988e-07 0.000149966
0.000625338 -4.71052e-05 -1.21587e-07
-4.71052e-05 3.23745e-06 -2.54691e-06
-1.21587e-07 -2.54691e-06 -0.000114058
0.000775836 3.16695e-05 -5.71583e-07
3.16695e-05 5.59273e-05 -5.27002e-07
-5.71583e-07 -5.27002e-07 -2.66076e-05
0.000577248 3.51894e-05 9.45009e-07
3.51894e-05 -6.28092e-05 6.44177e-07
9.45009e-07 6.44177e-07 -0.000134925
0.000850922 3.73617e-05 -3.91873e-07
3.73617e-05 8.94314e-05 -2.19651e-08
-3.91873e-07 -2.19651e-08 1.38235e-05
0.000817821 1.24669e-05 -2.72242e-07
1.24669e-05 6.38929e-05 3.2559e-07
-2.72242e-07 3.2559e-07 -2.23643e-06
0.000767774 3.79103e-05 -7.16436e-07
3.79103e-05 2.28091e-05 4.47749e-07
-7.16436e-07 4.47749e-07 -2.97838e-05
0.000837095 -1.36362e-05 4.26513e-07
-1.36362e-05 7.60691e-05 7.39249e-09
4.26513e-07 7.39249e-09 7.95698e-06
0.000796008 4.37873e-07 -4.11276e-07
4.37873e-07 3.60694e-05 4.43318e-08
-4.11276e-07 4.43318e-08 -1.65826e-05
0.000759606 2.72924e-05 -1.19976e-06
2.72924e-05 6.28336e-06 1.52978e-06
-1.19976e-06 1.52978e-06 -2.81381e-05
0.000825547 -2.38394e-05 1.24134e-06
-2.38394e-05 5.08622e-05 -3.51787e-07
1.24134e-06 -3.51787e-07 -2.87505e-06
0.000765806 1.77208e-05 -1.43864e-07
1.77208e-05 5.71352e-06 9.72094e-09
-1.43864e-07 9.72094e-09 -2.80032e-05
0.00132562 2.87552e-05 -6.69023e-06
2.87552e-05 0.000312918 4.43826e-06
-6.69023e-06 4.43826e-06 0.000309898
0.000758859 8.15673e-06 1.11029e-06
8.15673e-06 1.78496e-07 -1.43987e-06
1.11029e-06 -1.43987e-06 -3.34549e-05
0.00102138 2.08227e-05 -3.01095e-06
2.08227e-05 0.000139816 6.34247e-07
-3.01095e-06 6.34247e-07 0.000135823
0.000875281 1.82049e-05 -1.0559e-06
1.82049e-05 6.09111e-05 1.6348e-06
-1.0559e-06 1.6348e-06 7.43374e-05
0.000702703 1.28461e-05 4.61293e-07
1.28461e-05 -4.07269e-05 -3.22874e-06
4.61293e-07 -3.22874e-06 -4.59364e-05
0.00152041 1.56681e-05 4.72319e-06
1.56681e-05 0.000415979 -1.30637e-06
4.72319e-06 -1.30637e-06 0.000433064
0.00217358 9.81928e-06 4.89088e-06
9.81928e-06 0.000777897 -4.35074e-06
4.89088e-06 -4.35074e-06 0.000798347
0.000856593 -2.20933e-05 5.5607e-07
-2.20933e-05 7.29706e-05 -5.36907e-07
5.5607e-07 -5.36907e-07 1.79084e-05
0.000774378 -7.95333e-06 -2.49813e-07
-7.95333e-06 1.05297e-05 -1.72014e-06
-2.49813e-07 -1.72014e-06 -2.10916e-05
0.000844924 -3.90358e-06 4.07356e-07
-3.90358e-06 6.99866e-05 1.27806e-07
4.07356e-07 1.27806e-07 1.57594e-05
0.000722213 -6.86153e-06 -3.28815e-07
-6.86153e-06 -3.22851e-05 -3.36528e-06
-3.28815e-07 -3.36528e-06 -3.47949e-05
0.000771286 -3.98309e-06 -6.68264e-08
-3.98309e-06 8.5373e-06 -6.62339e-09
-6.68264e-08 -6.62339e-09 -2.2103e-05
0.000783931 -4.12453e-05 -1.39518e-06
-4.12453e-05 3.76544e-05 1.42613e-06
-1.39518e-06 1.42613e-06 -1.53523e-05
0.00206749 -1.1062e-06 -3.78357e-07
-1.1062e-06 0.000718219 -4.42887e-06
-3.78357e-07 -4.42887e-06 0.000740031
0.000722272 -4.3318e-07 -7.58028e-08
-4.3318e-07 -3.30413e-05 -3.37292e-10
-7.58028e-08 -3.37292e-10 -3.52091e-05
0.000769166 -1.13461e-06 9.85836e-08
-1.13461e-06 7.60681e-06 1.68053e-06
9.85836e-08 1.68053e-06 -2.26974e-05
0.000723935 6.05457e-06 -8.78359e-08
6.05457e-06 -3.16571e-05 3.38762e-06
-8.78359e-08 3.38762e-06 -3.42887e-05
0.00207694 8.58547e-06 -2.64165e-06
8.58547e-06 0.000723997 -2.40841e-08
-2.64165e-06 -2.40841e-08 0.000745572
0.00210285 1.70567e-05 -1.07338e-05
1.70567e-05 0.00074014 4.31791e-06
-1.07338e-05 4.31791e-06 0.000761117
-0.00156773 6.4599e-05 -4.10173e-05
6.4599e-05 -4.65774e-05 7.86791e-06
-4.10173e-05 7.86791e-06 -0.0005706
-0.000793919 0.000264188 -8.17671e-06
0.000264188 -0.000251801 4.78982e-06
-8.17671e-06 4.78982e-06 -0.000361727
0.00227086 4.80822e-05 -7.67785e-05
4.80822e-05 0.000247814 5.60287e-05
-7.67785e-05 5.60287e-05 -0.000221561
-0.00164732 0.000285887 6.85495e-05
0.000285887 -0.000376618 -2.83377e-05
6.85495e-05 -2.83377e-05 -0.000404189
0.00262971 9.596e-05 -9.5573e-05
9.596e-05 0.000357579 1.33029e-05
-9.5573e-05 1.33029e-05 5.28631e-05
0.00214127 -3.67871e-05 5.33765e-05
-3.67871e-05 0.000195589 -7.37616e-06
5.33765e-05 -7.37616e-06 0.00014383
0.00116134 -0.000279476 -7.55612e-05
-0.000279476 -0.000807403 -2.82005e-05
-7.55612e-05 -2.82005e-05 -0.00147823
0.00865757 0.000520207 5.57362e-05
0.000520207 0.00423965 -1.71642e-05
5.57362e-05 -1.71642e-05 0.00425711
-0.00368131 0.00074425 -4.30613e-05
0.00074425 -0.00297463 5.77662e-05
-4.30613e-05 5.77662e-05 -0.00125699
0.0014207 1.90412e-06 -5.98355e-06
1.90412e-06 -0.000337592 -3.31277e-06
-5.98355e-06 -3.31277e-06 -0.000554732
0.00202271 0.000148095 1.67221e-05
0.000148095 8.82675e-06 -1.93501e-05
1.67221e-05 -1.93501e-05 -0.0015418
0.00551377 0.00084179 -1.44431e-05
0.00084179 0.00177273 -2.13421e-05
-1.44431e-05 -2.13421e-05 0.0022148
0.00174414 0.000476055 -1.19807e-05
0.000476055 -0.00119998 2.73956e-05
-1.19807e-05 2.73956e-05 -0.000278301
0.00312026 -0.000160541 -2.59777e-05
-0.000160541 0.000343974 1.01245e-05
-2.59777e-05 1.01245e-05 -2.098e-05
0.00429772 0.000190272 8.07062e-05
0.000190272 0.00139703 -5.28087e-05
8.07062e-05 -5.28087e-05 -0.00039042
-0.00604936 0.000174006 -7.364e-05
0.000174006 -0.00448225 -4.00888e-05
-7.364e-05 -4.00888e-05 -0.00421561
0.00137319 0.000304249 -1.97012e-05
0.000304249 -0.00222688 1.86322e-05
-1.97012e-05 1.86322e-05 -0.00116775
0.000886349 -1.97753e-05 1.05212e-06
-1.97753e-05 0.000111385 5.05436e-07
1.05212e-06 5.05436e-07 2.10352e-05
0.000853706 3.66381e-05 -1.55312e-06
3.66381e-05 9.54802e-05 -4.15351e-07
-1.55312e-06 -4.15351e-07 1.07871e-05
0.000802698 1.73148e-05 7.36817e-07
1.73148e-05 5.91014e-05 -1.54958e-07
7.36817e-07 -1.54958e-07 -8.78977e-06
0.000847626 5.61378e-05 1.79419e-06
5.61378e-05 9.69119e-05 1.17323e-06
1.79419e-06 1.17323e-06 1.48783e-05
0.000769311 1.64772e-05 -2.8556e-07
1.64772e-05 4.58717e-05 7.13563e-07
-2.8556e-07 7.13563e-07 -4.46179e-05
0.000901756 4.5155e-05 2.00771e-07
4.5155e-05 0.000119838 5.87008e-07
2.00771e-07 5.87008e-07 3.59371e-05
0.000797624 2.95765e-06 -7.18505e-08
2.95765e-06 5.89553e-05 1.2188e-06
-7.18505e-08 1.2188e-06 -2.03308e-05
0.000916647 7.42248e-05 -6.70787e-07
7.42248e-05 0.000127245 5.62891e-07
-6.70787e-07 5.62891e-07 4.48964e-05
0.000892911 3.41065e-05 -2.62147e-07
3.41065e-05 0.00011429 3.30204e-07
-2.62147e-07 3.30204e-07 3.52641e-05
0.000730385 -1.7094e-05 -8.8437e-07
-1.7094e-05 2.42471e-05 -2.4717e-07
-8.8437e-07 -2.4717e-07 -5.08799e-05
-0.000368284 -8.62581e-05 1.33344e-05
-8.62581e-05 -0.00101673 -6.53485e-06
1.33344e-05 -6.53485e-06 -0.00104968
0.00134833 -0.000256575 1.10345e-05
-0.000256575 -0.000190143 -5.01578e-08
1.10345e-05 -5.01578e-08 -0.000248615
0.000938613 -0.000229685 8.49812e-06
-0.000229685 -4.12865e-05 1.66485e-06
8.49812e-06 1.66485e-06 -0.000186388
0.00119544 -0.000125077 6.11071e-06
-0.000125077 0.000261353 -2.44449e-06
6.11071e-06 -2.44449e-06 7.15709e-05
0.000998495 -3.10418e-05 1.13176e-06
-3.10418e-05 0.000202196 -1.51969e-06
1.13176e-06 -1.51969e-06 5.96393e-05
0.00079828 -4.24575e-05 -7.46082e-07
-4.24575e-05 6.62107e-05 -3.63053e-07
-7.46082e-07 -3.63053e-07 -2.92619e-05
0.000843326 5.37143e-05 -3.08126e-07
5.37143e-05 8.7972e-05 -2.96484e-07
-3.08126e-07 -2.96484e-07 -3.52619e-06
0.000853198 -3.47838e-05 -3.08337e-07
-3.47838e-05 9.20131e-05 3.94079e-07
-3.08337e-07 3.94079e-07 1.26378e-06
0.00127818 -0.000169014 3.17968e-06
-0.000169014 0.000121155 -6.60532e-07
3.17968e-06 -6.60532e-07 2.75308e-06
0.000837458 7.45108e-06 -2.35845e-07
7.45108e-06 8.00076e-05 -2.66539e-07
-2.35845e-07 -2.66539e-07 -1.31736e-05
0.000901506 -3.0182e-05 2.23695e-08
-3.0182e-05 0.000112074 1.5369e-07
2.23695e-08 1.5369e-07 1.37482e-05
0.00156402 -0.000230885 -1.09391e-06
-0.000230885 0.000232231 4.87213e-07
-1.09391e-06 4.87213e-07 0.000162662
0.00100322 -3.90426e-05 -4.12726e-06
-3.90426e-05 0.000195546 2.01505e-06
-4.12726e-06 2.01505e-06 3.46608e-05
0.00010968 -0.000223859 -2.62861e-07
-0.000223859 -0.00052168 -1.26013e-05
-2.62861e-07 -1.26013e-05 -0.000552053
0.00151967 -8.22039e-05 -1.36133e-05
-8.22039e-05 0.000509997 9.62569e-06
-1.36133e-05 9.62569e-06 0.000395236
0.000418895 2.22595e-05 -3.18326e-06
2.22595e-05 -0.000158798 8.5291e-06
-3.18326e-06 8.5291e-06 -0.000251998
0.000845751 -4.32983e-06 5.90962e-07
-4.32983e-06 6.92573e-05 7.87295e-07
5.90962e-07 7.87295e-07 -1.60675e-05
0.000806024 2.5632e-05 -4.73625e-08
2.5632e-05 5.39178e-05 7.45768e-07
-4.73625e-08 7.45768e-07 -4.08855e-05
0.00124971 -2.94012e-06 -2.56718e-05
-2.94012e-06 -6.48473e-05 -3.79195e-06
-2.56718e-05 -3.79195e-06 -0.000381959
-0.000397136 -1.1889e-05 -3.20455e-05
-1.1889e-05 0.000709024 -1.33126e-06
-3.20455e-05 -1.33126e-06 0.000242913
-0.00614975 -0.000109232 -9.15566e-05
-0.000109232 -0.00302078 -4.55194e-07
-9.15566e-05 -4.55194e-07 -0.00301373
0.000780363 8.93164e-05 6.63569e-06
8.93164e-05 0.000123159 2.31141e-06
6.63569e-06 2.31141e-06 2.49821e-05
-0.00010174 9.24248e-06 6.69565e-06
9.24248e-06 -0.000252881 3.14519e-06
6.69565e-06 3.14519e-06 -0.000439398
0.00123971 0.000112365 1.71095e-05
0.000112365 0.00016963 -6.3857e-07
1.71095e-05 -6.3857e-07 0.000104383
-0.00151519 -5.04067e-05 1.48725e-05
-5.04067e-05 -3.85533e-05 7.26284e-06
1.48725e-05 7.26284e-06 -0.000588882
0.00386204 -0.000304368 -1.63227e-05
-0.000304368 0.00119008 -2.30593e-05
-1.63227e-05 -2.30593e-05 -0.000665296
0.00383199 0.000622611 4.42898e-05
0.000622611 0.000412952 -2.06205e-05
4.42898e-05 -2.06205e-05 -0.000104417
0.000317604 0.000112978 2.88559e-06
0.000112978 -5.83617e-05 -1.38715e-06
2.88559e-06 -1.38715e-06 -2.2587e-05
0.00589473 -0.000634646 3.44066e-05
-0.000634646 0.00159903 1.2895e-05
3.44066e-05 1.2895e-05 0.0016539
0.00237684 -1.8988e-05 5.33878e-05
-1.8988e-05 0.00052111 3.73704e-05
5.33878e-05 3.73704e-05 -4.84007e-05
0.00496744 -0.000305399 2.70359e-05
-0.000305399 0.00051187 1.26327e-05
2.70359e-05 1.26327e-05 0.00159613
0.000978714 0.000107907 1.78872e-06
0.000107907 0.000280262 -1.79647e-06
1.78872e-06 -1.79647e-06 0.000206445
0.00168929 -3.96178e-05 3.34202e-06
-3.96178e-05 0.000235982 -6.41277e-06
3.34202e-06 -6.41277e-06 -0.000113856
0.00163805 7.12271e-06 2.40964e-06
7.12271e-06 0.000158317 6.51796e-06
2.40964e-06 6.51796e-06 -0.000351153
0.000233035 7.99132e-05 -6.91806e-06
7.99132e-05 5.6827e-05 4.30551e-07
-6.91806e-06 4.30551e-07 -6.06877e-05
0.00310283 0.000424907 -2.41765e-05
0.000424907 0.000612779 -3.00907e-05
-2.41765e-05 -3.00907e-05 0.000294191
0.00335199 0.000332709 4.37965e-05
0.000332709 0.000531809 2.20278e-05
4.37965e-05 2.20278e-05 -0.00140538
0.00341971 1.96394e-05 -2.17183e-07
1.96394e-05 -0.00130152 -2.58528e-05
-2.17183e-07 -2.58528e-05 0.000104337
0.000373724 -0.000228912 -1.20585e-05
-0.000228912 -0.000810811 1.51583e-05
-1.20585e-05 1.51583e-05 -0.00101824
0.000752807 4.93168e-05 -4.3282e-06
4.93168e-05 0.000253144 -9.65615e-06
-4.3282e-06 -9.65615e-06 0.000199764
0.00128309 -2.33149e-05 -1.30502e-05
-2.33149e-05 0.000133183 -1.55273e-05
-1.30502e-05 -1.55273e-05 -3.08746e-06
0.00181036 7.78678e-06 3.99634e-06
7.78678e-06 7.03902e-05 -3.48826e-05
3.99634e-06 -3.48826e-05 -0.000389504
0.0013855 0.000290653 1.77466e-05
0.000290653 -0.00212992 -2.09773e-05
1.77466e-05 -2.09773e-05 -0.00116319
-0.0018818 6.20942e-06 5.59236e-06
6.20942e-06 -0.000892715 -1.24027e-05
5.59236e-06 -1.24027e-05 -0.001179
0.00923796 0.000227847 8.51799e-05
0.000227847 0.00342696 3.4967e-05
8.51799e-05 3.4967e-05 0.00162675
-0.00406992 -0.000110751 2.30366e-05
-0.000110751 -0.000922106 -1.15251e-06
2.30366e-05 -1.15251e-06 -0.00154581
0.00115925 9.22309e-05 6.73165e-06
9.22309e-05 0.000256136 6.59412e-06
6.73165e-06 6.59412e-06 0.000205298
0.000696845 6.46014e-05 -2.67476e-06
6.46014e-05 3.29866e-05 1.32631e-06
-2.67476e-06 1.32631e-06 -1.11817e-05
0.000405827 3.56161e-05 -6.0779e-06
3.56161e-05 -5.66674e-05 -7.20585e-06
-6.0779e-06 -7.20585e-06 -0.000102168
0.000889334 8.81999e-05 -1.6907e-07
8.81999e-05 8.69483e-05 8.60506e-07
-1.6907e-07 8.60506e-07 8.37558e-06
0.000860074 4.63689e-06 -5.83493e-07
4.63689e-06 5.53438e-05 1.78946e-06
-5.83493e-07 1.78946e-06 -1.07755e-05
0.000688172 -3.30121e-05 -2.32392e-06
-3.30121e-05 -1.7189e-05 7.39506e-06
-2.32392e-06 7.39506e-06 -6.41012e-05
0.000826021 4.21587e-05 3.14486e-08
4.21587e-05 4.62849e-05 2.34749e-08
3.14486e-08 2.34749e-08 -2.75139e-05
0.000806689 -3.63993e-05 2.94781e-07
-3.63993e-05 3.04109e-05 -1.03366e-06
2.94781e-07 -1.03366e-06 -2.05027e-05
0.000793715 -5.68014e-05 3.21566e-06
-5.68014e-05 6.92068e-05 2.62661e-06
3.21566e-06 2.62661e-06 3.09433e-05
0.000753183 -1.91895e-06 2.52589e-07
-1.91895e-06 6.56569e-05 -4.62524e-06
2.52589e-07 -4.62524e-06 4.25037e-05
0.000826414 9.36578e-06 -1.76364e-07
9.36578e-06 5.19394e-05 -3.49415e-06
-1.76364e-07 -3.49415e-06 -6.19934e-06
0.000841704 3.01406e-05 -1.69115e-07
3.01406e-05 5.60623e-05 1.48861e-06
-1.69115e-07 1.48861e-06 -1.35459e-05
0.000818432 5.44102e-05 -9.86388e-08
5.44102e-05 6.48655e-05 2.40879e-07
-9.86388e-08 2.40879e-07 -7.48749e-06
0.000865303 5.50105e-05 -1.16338e-06
5.50105e-05 7.99001e-05 1.19405e-06
-1.16338e-06 1.19405e-06 1.08239e-05
0.000829337 3.16426e-05 3.52458e-07
3.16426e-05 6.13704e-05 1.67884e-07
3.52458e-07 1.67884e-07 -2.91801e-06
0.000865842 4.32887e-05 6.55962e-07
4.32887e-05 8.41001e-05 1.89396e-07
6.55962e-07 1.89396e-07 1.2336e-05
0.000707942 -2.94377e-05 1.19025e-06
-2.94377e-05 3.98324e-05 6.49462e-07
1.19025e-06 6.49462e-07 -3.71575e-05
0.00071075 -2.63912e-05 -5.32488e-07
-2.63912e-05 2.33176e-05 -1.03885e-06
-5.32488e-07 -1.03885e-06 -6.01554e-05
0.000644388 -6.04942e-05 3.19638e-06
-6.04942e-05 -6.64237e-08 3.47543e-07
3.19638e-06 3.47543e-07 -0.00013377
0.00100509 -7.48041e-06 -1.46689e-06
-7.48041e-06 0.000167888 -9.37317e-08
-1.46689e-06 -9.37317e-08 8.25189e-05
0.00101037 -6.35183e-05 -8.51504e-07
-6.35183e-05 0.000193024 8.07895e-07
-8.51504e-07 8.07895e-07 8.09716e-05
0.000518383 -0.000107562 -2.30573e-08
-0.000107562 -8.81212e-05 1.80919e-06
-2.30573e-08 1.80919e-06 -0.000238924
0.000803157 -0.000119495 -3.2454e-06
-0.000119495 6.81233e-05 4.33938e-08
-3.2454e-06 4.33938e-08 -7.839e-05
0.000916639 -9.24836e-05 -1.16141e-06
-9.24836e-05 0.000146464 1.77814e-06
-1.16141e-06 1.77814e-06 3.09142e-05
0.000807082 -0.000119325 -7.54452e-08
-0.000119325 7.38735e-05 7.21895e-07
-7.54452e-08 7.21895e-07 -6.84794e-05
0.000873803 -1.47304e-06 1.00186e-06
-1.47304e-06 0.000102777 8.46962e-07
1.00186e-06 8.46962e-07 2.03685e-05
0.00097027 -2.68209e-05 -6.19629e-07
-2.68209e-05 0.000171437 -6.44572e-07
-6.19629e-07 -6.44572e-07 7.01171e-05
0.000740266 -6.07609e-05 5.19166e-07
-6.07609e-05 6.81277e-05 -4.03454e-06
5.19166e-07 -4.03454e-06 -4.7155e-05
0.00104744 3.63838e-05 -1.92901e-06
3.63838e-05 0.000202856 -1.25663e-06
-1.92901e-06 -1.25663e-06 0.000121771
0.000702845 2.71822e-05 1.27785e-07
2.71822e-05 5.1674e-06 -2.88384e-08
1.27785e-07 -2.88384e-08 -6.59159e-05
0.000762576 4.93767e-05 -1.60431e-07
4.93767e-05 2.49948e-05 5.90891e-07
-1.60431e-07 5.90891e-07 -3.16351e-05
0.000841107 -7.24857e-06 4.74754e-08
-7.24857e-06 7.86431e-05 9.15938e-08
4.74754e-08 9.15938e-08 1.07151e-05
0.000792449 1.18246e-05 -6.10665e-07
1.18246e-05 3.66232e-05 -6.65476e-08
-6.10665e-07 -6.65476e-08 -1.64035e-05
0.000753293 3.30779e-05 -1.39854e-06
3.30779e-05 7.60576e-06 1.47113e-06
-1.39854e-06 1.47113e-06 -2.78848e-05
0.000813396 -2.10246e-05 1.26345e-06
-2.10246e-05 4.62827e-05 -4.68997e-07
1.26345e-06 -4.68997e-07 -7.12326e-06
0.000761502 2.58699e-05 -1.26205e-07
2.58699e-05 6.71822e-06 4.81114e-09
-1.26205e-07 4.81114e-09 -2.75324e-05
0.00128988 3.59765e-05 -7.55051e-06
3.59765e-05 0.000299453 3.08366e-06
-7.55051e-06 3.08366e-06 0.000295409
0.0007622 1.41712e-05 1.25714e-06
1.41712e-05 3.12818e-06 -1.4609e-06
1.25714e-06 -1.4609e-06 -3.03701e-05
0.00101526 2.7545e-05 -3.7125e-06
2.7545e-05 0.000140685 5.8754e-07
-3.7125e-06 5.8754e-07 0.000136094
0.000862641 2.43115e-05 -1.59364e-06
2.43115e-05 5.9256e-05 1.62836e-06
-1.59364e-06 1.62836e-06 7.17529e-05
0.000700752 1.8972e-05 6.54705e-07
1.8972e-05 -3.88966e-05 -3.23722e-06
6.54705e-07 -3.23722e-06 -4.43865e-05
0.0015067 2.33511e-05 6.22873e-06
2.33511e-05 0.000412013 -1.2217e-06
6.22873e-06 -1.2217e-06 0.000428525
0.00216024 1.89865e-05 8.78701e-06
1.89865e-05 0.000772922 -4.21951e-06
8.78701e-06 -4.21951e-06 0.000792995
0.000645819 2.87162e-06 -4.1226e-07
2.87162e-06 -3.83178e-05 -1.06782e-06
-4.1226e-07 -1.06782e-06 -0.000102354
0.000526167 -1.27757e-05 -2.73152e-07
-1.27757e-05 -0.000124381 -2.2671e-06
-2.73152e-07 -2.2671e-06 -0.000159719
0.000881762 -8.58975e-06 -4.689e-09
-8.58975e-06 8.89708e-05 8.11315e-08
-4.689e-09 8.11315e-08 3.21762e-05
0.000720257 -1.29719e-05 -3.15096e-07
-1.29719e-05 -3.1214e-05 -3.37653e-06
-3.15096e-07 -3.37653e-06 -3.48159e-05
0.000646324 -8.44512e-06 1.02061e-07
-8.44512e-06 -5.95296e-05 3.46842e-09
1.02061e-07 3.46842e-09 -9.21752e-05
0.000630911 -4.64406e-05 2.41701e-07
-4.64406e-05 -4.57423e-05 9.14536e-07
2.41701e-07 9.14536e-07 -0.000102144
0.0020798 -9.9955e-06 -4.83377e-06
-9.9955e-06 0.000726123 -4.39707e-06
-4.83377e-06 -4.39707e-06 0.000747592
0.000720265 -6.57182e-06 -1.85225e-07
-6.57182e-06 -3.33555e-05 -2.57977e-09
-1.85225e-07 -2.57977e-09 -3.58391e-05
0.000773465 -5.08733e-06 9.9868e-10
-5.08733e-06 9.84769e-06 1.68546e-06
9.9868e-10 1.68546e-06 -2.0795e-05
0.0020679 -3.97313e-07 -2.53897e-06
-3.97313e-07 0.000718437 -4.67578e-10
-2.53897e-06 -4.67578e-10 0.000740251
0.000723697 -1.31437e-07 1.47799e-07
-1.31437e-07 -3.22852e-05 3.3683e-06
1.47799e-07 3.3683e-06 -3.4459e-05
0.00208288 9.26616e-06 -5.03046e-06
9.26616e-06 0.000727488 4.41937e-06
-5.03046e-06 4.41937e-06 0.000748964
0.00112709 1.45593e-05 -4.87467e-05
1.45593e-05 -8.88049e-05 1.92119e-05
-4.87467e-05 1.92119e-05 -0.000438053
0.00133239 0.000164486 -2.0905e-06
0.000164486 0.0013169 -5.09476e-06
-2.0905e-06 -5.09476e-06 0.00110579
0.000598297 -0.000114683 -7.92252e-06
-0.000114683 0.000660947 -1.25278e-05
-7.92252e-06 -1.25278e-05 0.000355655
0.000826818 2.73044e-05 -1.07959e-07
2.73044e-05 6.88824e-05 7.0808e-07
-1.07959e-07 7.0808e-07 -1.06469e-05
0.00216998 1.87631e-05 -2.27263e-05
1.87631e-05 0.0005367 3.93293e-05
-2.27263e-05 3.93293e-05 0.000140528
0.00226541 3.03761e-05 -1.94865e-05
3.03761e-05 0.000301581 2.93953e-06
-1.94865e-05 2.93953e-06 -0.000242816
0.00157714 0.000381333 6.8687e-05
0.000381333 0.0010547 -5.24237e-05
6.8687e-05 -5.24237e-05 0.00132184
0.00298393 -7.58116e-05 -2.25445e-05
-7.58116e-05 0.000239113 -5.80412e-06
-2.25445e-05 -5.80412e-06 1.41408e-06
0.00975001 0.000468293 2.71933e-05
0.000468293 0.00371961 -2.77804e-05
2.71933e-05 -2.77804e-05 0.00238379
-0.00255939 0.000439327 9.09498e-06
0.000439327 -0.0023403 8.14266e-06
9.09498e-06 8.14266e-06 -0.00176264
0.00313276 0.000518514 3.28035e-05
0.000518514 -0.000423961 -1.50587e-05
3.28035e-05 -1.50587e-05 0.000535384
0.00295175 -0.000251493 -4.86041e-05
-0.000251493 -3.38999e-05 1.76484e-06
-4.86041e-05 1.76484e-06 -0.000640516
0.00723292 0.00028296 2.64285e-05
0.00028296 0.00279599 -1.17114e-05
2.64285e-05 -1.17114e-05 0.00125299
0.00529661 0.000547731 3.73163e-06
0.000547731 0.00072692 -1.76977e-05
3.73163e-06 -1.76977e-05 0.000916068
0.00320093 0.000316299 -9.55319e-06
0.000316299 -0.0011992 1.53051e-06
-9.55319e-06 1.53051e-06 -0.000167421
0.00369969 -0.000473061 -6.71114e-06
-0.000473061 0.00036006 -1.55446e-05
-6.71114e-06 -1.55446e-05 -0.000474
0.00775305 -4.67982e-06 4.19048e-05
-4.67982e-06 0.00346499 3.17038e-06
4.19048e-05 3.17038e-06 0.00120573
0.00119402 0.000105403 3.03532e-06
0.000105403 -0.000745956 1.61515e-06
3.03532e-06 1.61515e-06 -0.000832516
0.00479584 5.14631e-05 -3.32171e-06
5.14631e-05 -0.000243111 2.84211e-05
-3.32171e-06 2.84211e-05 0.000990188
0.000876747 -2.87897e-05 4.63552e-07
-2.87897e-05 9.88774e-05 6.67571e-07
4.63552e-07 6.67571e-07 7.3417e-06
0.000848145 -3.7923e-05 4.57391e-07
-3.7923e-05 9.34516e-05 4.06187e-08
4.57391e-07 4.06187e-08 1.0933e-06
0.000896986 5.64522e-05 -1.12033e-06
5.64522e-05 0.000121108 -1.50208e-07
-1.12033e-06 -1.50208e-07 3.61364e-05
0.000827537 -1.11763e-05 -4.07443e-07
-1.11763e-05 6.44896e-05 4.85918e-07
-4.07443e-07 4.85918e-07 -1.69829e-05
0.000873338 4.9308e-05 -6.12917e-07
4.9308e-05 0.000103069 3.51075e-07
-6.12917e-07 3.51075e-07 1.34672e-05
0.000910137 2.92339e-05 6.72526e-07
2.92339e-05 0.000125417 9.05606e-07
6.72526e-07 9.05606e-07 4.16696e-05
0.000963485 6.78014e-05 -6.0765e-07
6.78014e-05 0.000151134 8.65715e-08
-6.0765e-07 8.65715e-08 6.98976e-05
0.00100333 7.55541e-05 9.26863e-07
7.55541e-05 0.000179154 9.87473e-07
9.26863e-07 9.87473e-07 9.76882e-05
0.000243792 -0.000110218 1.9932e-05
-0.000110218 -0.000443825 -8.31688e-06
1.9932e-05 -8.31688e-06 -0.000494221
0.00129011 -0.000219301 7.77403e-06
-0.000219301 8.32534e-05 -3.93293e-06
7.77403e-06 -3.93293e-06 2.6373e-05
0.000846154 -0.000115572 -1.78741e-06
-0.000115572 9.66052e-05 -3.27179e-07
-1.78741e-06 -3.27179e-07 -8.96372e-08
0.00174492 -6.52873e-05 4.57011e-06
-6.52873e-05 0.0005668 -4.3664e-06
4.57011e-06 -4.3664e-06 0.000413541
0.000922108 -4.62187e-05 -3.18705e-07
-4.62187e-05 0.000127101 -7.74905e-07
-3.18705e-07 -7.74905e-07 2.42729e-05
0.00095306 -2.86283e-05 -1.26078e-06
-2.86283e-05 0.000138648 -1.70409e-07
-1.26078e-06 -1.70409e-07 4.90026e-05
0.000914616 1.07446e-05 5.67876e-08
1.07446e-05 0.000113381 -2.57605e-07
5.67876e-08 -2.57605e-07 2.45069e-05
0.000672999 -0.000257749 -5.4039e-06
-0.000257749 -0.000254182 1.12159e-07
-5.4039e-06 1.12159e-07 -0.000304039
0.000859012 2.49367e-05 -6.02983e-08
2.49367e-05 8.88656e-05 -3.77947e-07
-6.02983e-08 -3.77947e-07 -7.29905e-06
0.000982742 -2.51937e-05 5.00368e-07
-2.51937e-05 0.000135878 6.92009e-07
5.00368e-07 6.92009e-07 3.78416e-05
0.00055074 -7.19083e-05 7.43951e-07
-7.19083e-05 -1.99333e-05 3.20878e-06
7.43951e-07 3.20878e-06 -0.000107928
0.000981219 -1.46764e-05 5.68376e-07
-1.46764e-05 0.000134141 9.97439e-07
5.68376e-07 9.97439e-07 5.69916e-05
0.000180562 -0.000263953 4.30399e-05
-0.000263953 -0.000390694 -2.71247e-05
4.30399e-05 -2.71247e-05 -0.000356272
0.00119471 -4.23348e-05 -1.12267e-05
-4.23348e-05 0.000518348 1.52955e-05
-1.12267e-05 1.52955e-05 0.000400352
0.000497484 5.3197e-06 -1.03705e-06
5.3197e-06 -0.000128691 4.49172e-06
-1.03705e-06 4.49172e-06 -0.000205839
0.000876543 9.66894e-05 1.87648e-06
9.66894e-05 9.37192e-05 1.4169e-06
1.87648e-06 1.4169e-06 8.62317e-06
0.0014108 -8.00565e-06 -1.4554e-05
-8.00565e-06 0.000233181 9.7924e-08
-1.4554e-05 9.7924e-08 0.00014147
0.00114739 -1.5788e-05 2.75108e-05
-1.5788e-05 -7.86635e-05 -2.10919e-06
2.75108e-05 -2.10919e-06 -0.000394766
-0.00171848 -3.16963e-05 5.06157e-06
-3.16963e-05 7.22928e-05 1.29384e-06
5.06157e-06 1.29384e-06 -0.000522198
0.000706217 8.66243e-05 1.13546e-05
8.66243e-05 0.000145743 2.68579e-06
1.13546e-05 2.68579e-06 7.23112e-05
0.00048248 0.00014823 2.18492e-05
0.00014823 0.000194831 1.04328e-05
2.18492e-05 1.04328e-05 6.1053e-05
0.00180181 -3.42609e-05 4.85681e-05
-3.42609e-05 0.000374396 1.10821e-05
4.85681e-05 1.10821e-05 7.22581e-05
0.007242 -0.000340324 6.75009e-05
-0.000340324 0.00276332 3.15352e-05
6.75009e-05 3.15352e-05 0.000897599
0.00238177 0.000420167 -6.71333e-05
0.000420167 0.000325769 -8.1264e-05
-6.71333e-05 -8.1264e-05 -0.000394
0.00343792 -0.000268499 2.56141e-05
-0.000268499 0.000351305 1.83125e-05
2.56141e-05 1.83125e-05 4.40989e-05
0.0017843 1.29093e-05 1.8722e-05
1.29093e-05 0.000151286 4.99235e-05
1.8722e-05 4.99235e-05 -0.000370658
0.00213286 8.17755e-06 2.88829e-06
8.17755e-06 -0.00241841 -1.36768e-05
2.88829e-06 -1.36768e-05 -0.000836547
0.000767579 8.3811e-05 8.45493e-07
8.3811e-05 0.000257337 -1.43543e-07
8.45493e-07 -1.43543e-07 0.000193259
0.00127942 -2.07917e-05 -3.04013e-07
-2.07917e-05 0.000116868 -5.05033e-06
-3.04013e-07 -5.05033e-06 -1.04648e-05
0.00194884 9.17785e-06 8.8038e-06
9.17785e-06 0.000260807 3.60534e-06
8.8038e-06 3.60534e-06 -0.000127337
-0.000664844 7.70696e-05 -1.32533e-05
7.70696e-05 -0.000256084 -4.01434e-06
-1.32533e-05 -4.01434e-06 -0.000460944
0.00318292 0.000309738 6.44513e-06
0.000309738 -0.00115875 -1.42268e-06
6.44513e-06 -1.42268e-06 -0.000171601
0.0053889 0.000568062 4.3334e-05
0.000568062 0.00158299 5.83377e-06
4.3334e-05 5.83377e-06 -0.000267394
0.00278153 0.000135208 -4.89266e-05
0.000135208 0.00111015 -3.95374e-06
-4.89266e-05 -3.95374e-06 0.00068272
0.000179836 8.04745e-05 -1.18377e-05
8.04745e-05 6.48059e-05 -1.18016e-05
-1.18377e-05 -1.18016e-05 -4.68298e-05
0.00130573 8.44248e-07 -6.14865e-07
8.44248e-07 0.00014317 -1.49644e-05
-6.14865e-07 -1.49644e-05 2.77248e-05
0.002219 1.56319e-05 2.19104e-05
1.56319e-05 0.000520292 -3.9135e-05
2.19104e-05 -3.9135e-05 0.000152301
0.00364566 0.000477022 5.56808e-05
0.000477022 -4.87803e-05 -3.69523e-05
5.56808e-05 -3.69523e-05 0.000775043
0.00240419 0.00017232 -1.53042e-05
0.00017232 -0.000319004 -1.85808e-06
-1.53042e-05 -1.85808e-06 -0.000271413
0.002365 0.000275023 1.59945e-05
0.000275023 0.000344342 -1.98205e-05
1.59945e-05 -1.98205e-05 0.000436581
0.00222011 -1.38035e-05 9.62244e-05
-1.38035e-05 0.0012463 3.18683e-05
9.62244e-05 3.18683e-05 -0.00132325
0.000615045 8.07088e-05 2.98221e-06
8.07088e-05 -9.76476e-06 6.40116e-06
2.98221e-06 6.40116e-06 -5.74718e-05
0.000635811 1.8842e-05 6.08038e-06
1.8842e-05 6.82207e-05 8.98016e-07
6.08038e-06 8.98016e-07 2.46037e-05
0.000377407 -1.68456e-05 1.13013e-05
-1.68456e-05 0.000117932 -1.16621e-05
1.13013e-05 -1.16621e-05 5.40358e-05
0.000840801 2.25678e-05 -2.52727e-07
2.25678e-05 4.96495e-05 1.68454e-06
-2.52727e-07 1.68454e-06 -2.05245e-05
0.000680425 -3.48659e-05 -1.11613e-06
-3.48659e-05 -3.8387e-05 3.61982e-06
-1.11613e-06 3.61982e-06 -8.90192e-05
0.000875158 -6.30581e-05 -4.46005e-06
-6.30581e-05 0.000102412 7.71397e-06
-4.46005e-06 7.71397e-06 5.9589e-05
0.000829543 -3.63405e-06 -1.70798e-07
-3.63405e-06 5.51951e-05 -2.71754e-07
-1.70798e-07 -2.71754e-07 -3.91397e-06
0.000601219 -1.02481e-05 -1.88264e-06
-1.02481e-05 -2.81143e-05 2.64786e-06
-1.88264e-06 2.64786e-06 -4.75768e-05
0.000295034 -7.53859e-05 3.56992e-06
-7.53859e-05 -7.42901e-05 -4.46504e-06
3.56992e-06 -4.46504e-06 -0.000186579
0.000870014 2.59134e-05 2.82124e-08
2.59134e-05 8.14938e-05 1.5929e-06
2.82124e-08 1.5929e-06 1.68658e-05
0.000858108 5.4771e-05 -4.34272e-07
5.4771e-05 8.09455e-05 9.47822e-07
-4.34272e-07 9.47822e-07 8.97103e-06
0.00109627 -3.97605e-05 8.51714e-07
-3.97605e-05 0.000241029 6.42134e-07
8.51714e-07 6.42134e-07 0.000159435
0.000484462 -5.23058e-05 3.80981e-06
-5.23058e-05 -5.19644e-06 9.62554e-07
3.80981e-06 9.62554e-07 -0.000167298
0.000637275 -1.68911e-06 -4.03158e-06
-1.68911e-06 -6.20664e-06 -2.42502e-07
-4.03158e-06 -2.42502e-07 -8.43851e-05
0.000412428 -5.89059e-05 7.61995e-07
-5.89059e-05 -0.000119101 -3.38828e-07
7.61995e-07 -3.38828e-07 -0.000244645
0.0010649 -0.000151125 3.40782e-06
-0.000151125 0.000214915 -7.27524e-07
3.40782e-06 -7.27524e-07 3.1711e-05
0.00113109 -0.000157097 -1.97914e-06
-0.000157097 0.000174057 3.60632e-06
-1.97914e-06 3.60632e-06 -6.50987e-06
0.00135024 -8.76142e-05 -1.95493e-06
-8.76142e-05 0.00036895 -5.61798e-07
-1.95493e-06 -5.61798e-07 0.000254227
0.000724641 -0.000121753 -3.22227e-07
-0.000121753 1.58595e-05 5.56598e-08
-3.22227e-07 5.56598e-08 -0.000138017
0.00139629 -0.000160935 7.07925e-07
-0.000160935 0.000378533 -8.54034e-07
7.07925e-07 -8.54034e-07 0.000231667
0.000458718 -8.29152e-05 -1.33405e-06
-8.29152e-05 -9.28398e-05 -5.0335e-08
-1.33405e-06 -5.0335e-08 -0.000220512
0.0008775 -0.00012409 1.45904e-07
-0.00012409 0.00010644 3.10015e-07
1.45904e-07 3.10015e-07 -3.73574e-05
0.000893774 -7.76021e-06 -2.31009e-07
-7.76021e-06 0.000117448 6.06491e-07
-2.31009e-07 6.06491e-07 2.65103e-05
0.00100252 -9.11012e-05 -1.63948e-06
-9.11012e-05 0.000191485 1.37593e-06
-1.63948e-06 1.37593e-06 7.54324e-05
0.000566457 -0.000102466 -6.70445e-07
-0.000102466 -5.41122e-05 -7.23798e-07
-6.70445e-07 -7.23798e-07 -0.000194507
0.000776729 5.09041e-05 2.24645e-07
5.09041e-05 3.8473e-05 8.3633e-07
2.24645e-07 8.3633e-07 -2.51249e-05
0.000747921 -6.39709e-08 7.48714e-07
-6.39709e-08 3.49498e-05 -5.26041e-08
7.48714e-07 -5.26041e-08 -4.77656e-05
0.000829064 -2.99622e-05 7.26403e-07
-2.99622e-05 9.58124e-05 -2.2876e-06
7.26403e-07 -2.2876e-06 -7.73313e-06
0.000827433 1.77107e-05 -5.17275e-08
1.77107e-05 7.25219e-05 -5.45874e-07
-5.17275e-08 -5.45874e-07 2.59121e-06
0.000790297 2.36573e-05 -5.04759e-07
2.36573e-05 3.85161e-05 -1.64401e-07
-5.04759e-07 -1.64401e-07 -1.74562e-05
0.000744438 4.10505e-05 -1.42254e-06
4.10505e-05 9.18695e-06 1.35539e-06
-1.42254e-06 1.35539e-06 -2.83899e-05
0.000810998 -1.0225e-05 9.21505e-07
-1.0225e-05 4.70833e-05 -6.30466e-07
9.21505e-07 -6.30466e-07 -6.33056e-06
0.000754476 3.3664e-05 -7.23239e-08
3.3664e-05 8.02817e-06 9.01217e-11
-7.23239e-08 9.01217e-11 -2.74674e-05
0.000676888 3.5841e-05 -1.21909e-06
3.5841e-05 -3.43003e-05 3.31121e-06
-1.21909e-06 3.31121e-06 -4.31058e-05
0.000762661 2.40027e-05 1.22648e-06
2.40027e-05 6.71323e-06 -1.48059e-06
1.22648e-06 -1.48059e-06 -2.73411e-05
0.000695355 3.08341e-05 1.21332e-07
3.08341e-05 -3.13276e-05 2.39958e-08
1.21332e-07 2.39958e-08 -3.85592e-05
0.00204001 4.76226e-05 -4.75494e-06
4.76226e-05 0.000720813 1.57655e-06
-4.75494e-06 1.57655e-06 0.000737799
0.000699331 2.51258e-05 8.4986e-07
2.51258e-05 -3.54015e-05 -3.25092e-06
8.4986e-07 -3.25092e-06 -4.14921e-05
0.00148998 3.076e-05 7.57253e-06
3.076e-05 0.000407791 -1.12258e-06
7.57253e-06 -1.12258e-06 0.000423408
0.00214104 2.78976e-05 1.24918e-05
2.78976e-05 0.000766112 -4.05038e-06
1.24918e-05 -4.05038e-06 0.000785544
0.000671457 -1.76096e-05 -1.79795e-07
-1.76096e-05 -3.2363e-05 -6.47141e-07
-1.79795e-07 -6.47141e-07 -9.37684e-05
0.000504469 -1.56292e-05 -3.39303e-07
-1.56292e-05 -0.000135154 -2.17369e-06
-3.39303e-07 -2.17369e-06 -0.00017321
0.000769586 2.92435e-06 -3.41767e-07
2.92435e-06 2.83001e-05 -5.25849e-07
-3.41767e-07 -5.25849e-07 -3.4193e-05
0.000714683 -1.91258e-05 -3.51654e-07
-1.91258e-05 -3.08081e-05 -3.40897e-06
-3.51654e-07 -3.40897e-06 -3.61555e-05
0.000514415 -1.31249e-05 -1.2094e-08
-1.31249e-05 -0.000130851 -6.623e-07
-1.2094e-08 -6.623e-07 -0.000166483
0.000900617 2.38838e-06 -1.25961e-07
2.38838e-06 0.000103181 7.81638e-07
-1.25961e-07 7.81638e-07 4.35946e-05
0.00210848 -1.90588e-05 -8.69376e-06
-1.90588e-05 0.000744465 -4.34304e-06
-8.69376e-06 -4.34304e-06 0.000765092
0.000715931 -1.26518e-05 -1.09917e-07
-1.26518e-05 -3.35999e-05 -1.08812e-08
-1.09917e-07 -1.08812e-08 -3.71504e-05
0.000517915 -8.66777e-06 1.70151e-07
-8.66777e-06 -0.000129727 1.63856e-06
1.70151e-07 1.63856e-06 -0.000163393
0.00207357 -9.33773e-06 -2.72581e-06
-9.33773e-06 0.000722466 2.50844e-08
-2.72581e-06 2.50844e-08 0.000744029
0.000719087 -6.28676e-06 1.74419e-07
-6.28676e-06 -3.39913e-05 3.35666e-06
1.74419e-07 3.35666e-06 -3.64545e-05
0.00206403 3.13622e-07 -5.79198e-07
3.13622e-07 0.000716278 4.43269e-06
-5.79198e-07 4.43269e-06 0.000738104
0.00128563 2.08868e-05 -1.43134e-05
2.08868e-05 0.000117851 1.42153e-05
-1.43134e-05 1.42153e-05 -1.02829e-05
0.00140147 2.44481e-05 6.90406e-06
2.44481e-05 8.15858e-05 -2.19823e-06
6.90406e-06 -2.19823e-06 -0.000267002
0.00133406 0.000132469 4.49695e-05
0.000132469 0.00139202 -1.8621e-05
4.49695e-05 -1.8621e-05 0.00116464
0.000854366 2.58928e-05 1.34171e-07
2.58928e-05 8.08181e-05 7.40916e-08
1.34171e-07 7.40916e-08 4.35736e-06
0.000768689 -6.89467e-06 6.20189e-08
-6.89467e-06 2.95199e-05 4.4125e-07
6.20189e-08 4.4125e-07 -4.40016e-05
0.000912921 4.25302e-05 -2.95509e-07
4.25302e-05 0.000113877 1.21711e-06
-2.95509e-07 1.21711e-06 3.29382e-05
0.00176574 1.49507e-05 2.6648e-06
1.49507e-05 7.84471e-05 6.0513e-05
2.6648e-06 6.0513e-05 -0.000400464
0.00219193 2.53928e-05 -6.65603e-06
2.53928e-05 0.000541395 1.78563e-06
-6.65603e-06 1.78563e-06 0.000143889
0.00239738 2.17172e-05 4.00233e-05
2.17172e-05 0.00042114 -4.54893e-05
4.00233e-05 -4.54893e-05 -0.000177082
0.00428478 -0.000275572 -6.14878e-05
-0.000275572 0.000759574 2.16105e-06
-6.14878e-05 2.16105e-06 0.000186509
-0.000208263 -1.30702e-05 -4.02948e-05
-1.30702e-05 -0.000565222 2.13479e-05
-4.02948e-05 2.13479e-05 -0.00233706
0.00440205 0.000593858 6.12705e-05
0.000593858 0.000937104 -1.40685e-05
6.12705e-05 -1.40685e-05 0.000921175
0.0014562 0.000224814 1.1116e-05
0.000224814 -0.00229002 -3.00155e-05
1.1116e-05 -3.00155e-05 -0.00120627
0.00477685 -0.00056916 -8.79706e-06
-0.00056916 0.00117839 3.73586e-06
-8.79706e-06 3.73586e-06 0.000609966
0.00626441 -3.25005e-05 1.20005e-05
-3.25005e-05 0.00241127 -6.511e-06
1.20005e-05 -6.511e-06 0.000567326
-6.4538e-05 0.000118293 -1.04388e-05
0.000118293 -0.000680193 -1.21772e-05
-1.04388e-05 -1.21772e-05 -0.000921843
0.00344841 2.26823e-05 -5.73005e-06
2.26823e-05 -0.00130043 4.94751e-06
-5.73005e-06 4.94751e-06 7.19782e-05
0.00200257 -0.000462808 -3.08016e-05
-0.000462808 -0.000320471 -3.53353e-05
-3.08016e-05 -3.53353e-05 -0.000850933
0.0091521 -0.000363915 6.35585e-05
-0.000363915 0.00401104 9.86696e-06
6.35585e-05 9.86696e-06 0.001762
-0.00407963 8.37608e-05 3.07174e-05
8.37608e-05 -0.00100888 -1.68671e-05
3.07174e-05 -1.68671e-05 -0.00161666
0.00162604 -0.000252285 4.01967e-06
-0.000252285 -0.00180859 1.7036e-06
4.01967e-06 1.7036e-06 -0.000736397
0.00086298 6.00876e-06 -8.63534e-08
6.00876e-06 8.18239e-05 1.32129e-06
-8.63534e-08 1.32129e-06 -4.36837e-06
0.000851154 -1.45406e-05 2.05584e-07
-1.45406e-05 8.73245e-05 -6.12469e-08
2.05584e-07 -6.12469e-08 -6.19623e-06
0.000820127 -4.83553e-05 -1.0664e-07
-4.83553e-05 7.93478e-05 -4.43338e-07
-1.0664e-07 -4.43338e-07 -1.40119e-05
0.000845833 1.26826e-05 -3.32023e-07
1.26826e-05 7.48513e-05 -2.47262e-07
-3.32023e-07 -2.47262e-07 -7.46685e-06
0.000974802 8.76722e-05 1.34026e-06
8.76722e-05 0.000157959 -3.48624e-08
1.34026e-06 -3.48624e-08 6.98199e-05
0.00101766 7.80618e-05 -1.08293e-07
7.80618e-05 0.000181437 1.33582e-08
-1.08293e-07 1.33582e-08 9.94395e-05
0.00128481 -0.000288987 -1.97506e-06
-0.000288987 4.99137e-05 6.89041e-06
-1.97506e-06 6.89041e-06 -3.06379e-05
-0.000785198 -5.43665e-05 8.47252e-06
-5.43665e-05 -0.000726633 -5.816e-06
8.47252e-06 -5.816e-06 -0.000795357
0.00100979 4.78803e-05 -6.86283e-07
4.78803e-05 0.000172741 -7.2794e-07
-6.86283e-07 -7.2794e-07 7.98515e-05
0.00134252 -7.32348e-05 8.40364e-06
-7.32348e-05 0.000317912 -9.99923e-06
8.40364e-06 -9.99923e-06 0.000215871
0.0010053 1.57294e-05 -4.84754e-07
1.57294e-05 0.000169974 -1.73106e-06
-4.84754e-07 -1.73106e-06 7.58126e-05
0.000901133 -4.02772e-06 1.47951e-08
-4.02772e-06 9.03429e-05 -3.6308e-07
1.47951e-08 -3.6308e-07 1.03532e-05
0.000967808 5.2627e-05 4.74461e-07
5.2627e-05 0.000140701 -3.96482e-07
4.74461e-07 -3.96482e-07 6.03698e-05
0.000581986 -0.000252866 -8.64818e-06
-0.000252866 -0.000193824 -1.90004e-06
-8.64818e-06 -1.90004e-06 -0.000209868
0.000957713 -2.07115e-05 9.47356e-07
-2.07115e-05 0.000129423 -1.77067e-06
9.47356e-07 -1.77067e-06 5.51064e-05
0.000555305 -2.09989e-05 7.91146e-06
-2.09989e-05 0.000187735 -1.34208e-06
7.91146e-06 -1.34208e-06 7.63505e-05
0.000974815 1.83711e-05 2.39389e-06
1.83711e-05 0.000140318 1.289e-06
2.39389e-06 1.289e-06 6.67969e-05
-0.00198716 -2.12265e-05 7.33614e-06
-2.12265e-05 -0.00097193 -2.64566e-05
7.33614e-06 -2.64566e-05 -0.0012503
0.00138296 4.18765e-06 9.83454e-06
4.18765e-06 0.000583018 1.91954e-05
9.83454e-06 1.91954e-05 0.000546936
0.00112236 -1.41083e-05 1.72051e-06
-1.41083e-05 0.000228877 4.45044e-06
1.72051e-06 4.45044e-06 0.000171865
0.00143645 -6.50355e-06 -6.2606e-07
-6.50355e-06 0.000294671 1.11335e-07
-6.2606e-07 1.11335e-07 0.000241066
0.00107666 -5.90115e-06 -5.69041e-06
-5.90115e-06 6.44688e-05 -1.41549e-06
-5.69041e-06 -1.41549e-06 -1.49018e-05
0.00105995 -2.62024e-05 8.39016e-05
-2.62024e-05 -8.68026e-05 -1.23215e-06
8.39016e-05 -1.23215e-06 -0.000402736
0.00113922 0.000125577 1.58397e-05
0.000125577 0.000444157 1.12189e-05
1.58397e-05 1.12189e-05 0.000371277
0.00352449 0.000332716 4.514e-06
0.000332716 0.001491 -1.45269e-05
4.514e-06 -1.45269e-05 0.00137291
0.00128087 -1.93576e-05 9.07969e-06
-1.93576e-05 0.000102388 5.42039e-06
9.07969e-06 5.42039e-06 -1.58883e-05
0.000704333 0.000251227 -8.67057e-06
0.000251227 -0.000284265 -2.57829e-08
-8.67057e-06 -2.57829e-08 -0.00208057
-0.00677806 1.94117e-05 -2.88373e-05
1.94117e-05 -0.00325451 3.93613e-07
-2.88373e-05 3.93613e-07 -0.00397109
0.00209834 1.396e-05 1.00795e-05
1.396e-05 0.000460036 3.25072e-05
1.00795e-05 3.25072e-05 0.000153278
0.00153757 0.000227099 -9.61624e-06
0.000227099 -0.00222192 2.99603e-05
-9.61624e-06 2.99603e-05 -0.00114712
0.000352017 6.26334e-05 -1.82769e-06
6.26334e-05 0.000152154 -1.67887e-06
-1.82769e-06 -1.67887e-06 5.90472e-05
0.00115336 -2.40945e-06 2.3322e-06
-2.40945e-06 7.72112e-05 -5.72589e-06
2.3322e-06 -5.72589e-06 -2.21346e-05
0.00222455 1.94797e-05 6.52869e-06
1.94797e-05 0.000523806 -1.718e-06
6.52869e-06 -1.718e-06 0.000144518
0.00151631 0.000258973 4.12094e-05
0.000258973 -0.000197826 -1.41046e-07
4.12094e-05 -1.41046e-07 -0.000304628
0.00183898 0.000468644 1.00841e-05
0.000468644 -0.00112629 -2.41432e-05
1.00841e-05 -2.41432e-05 -0.000270464
-2.35312e-05 0.000123926 1.10579e-05
0.000123926 -0.00098868 8.82256e-06
1.10579e-05 8.82256e-06 -0.000990186
0.00659477 0.000127971 5.40359e-05
0.000127971 0.00331838 -1.53358e-05
5.40359e-05 -1.53358e-05 0.000513739
5.68331e-05 6.63686e-06 -8.30142e-06
6.63686e-06 0.000192145 -1.22996e-05
-8.30142e-06 -1.22996e-05 -9.24777e-06
0.00123561 1.70294e-05 1.33911e-05
1.70294e-05 7.55403e-05 -1.3626e-05
1.33911e-05 -1.3626e-05 -4.93689e-05
0.00228764 4.76282e-05 7.52015e-05
4.76282e-05 0.000211871 -5.42718e-05
7.52015e-05 -5.42718e-05 -0.00024613
0.00224318 0.000668444 1.09324e-05
0.000668444 0.000634358 -7.91295e-06
1.09324e-05 -7.91295e-06 0.00165861
-0.00640389 0.000136502 6.00545e-05
0.000136502 -0.0045113 4.39051e-05
6.00545e-05 4.39051e-05 -0.00430205
0.00862557 -0.000101115 3.59587e-05
-0.000101115 0.003527 -5.1156e-05
3.59587e-05 -5.1156e-05 0.00122776
0.00447969 -0.000243293 -6.49026e-05
-0.000243293 0.000970296 0.000119677
-6.49026e-05 0.000119677 0.00107864
0.00104067 8.1614e-06 -1.0422e-06
8.1614e-06 0.000295335 6.93719e-06
-1.0422e-06 6.93719e-06 0.000252104
6.41504e-05 -1.39621e-05 2.65557e-06
-1.39621e-05 -5.05716e-05 -1.00298e-06
2.65557e-06 -1.00298e-06 -0.000130919
-0.000256921 -9.63403e-05 6.60419e-06
-9.63403e-05 -0.000149149 -1.06321e-05
6.60419e-06 -1.06321e-05 -0.000316285
0.000836699 -1.56009e-05 7.67033e-08
-1.56009e-05 6.31553e-05 1.66614e-06
7.67033e-08 1.66614e-06 1.60962e-06
0.000495548 -1.39151e-05 1.82819e-06
-1.39151e-05 -9.69667e-05 1.05779e-05
1.82819e-06 1.05779e-05 -0.00011338
0.000526206 -2.19874e-05 -1.29115e-07
-2.19874e-05 4.45177e-05 -2.02524e-08
-1.29115e-07 -2.02524e-08 -5.29359e-05
0.000931705 -0.000128603 1.32975e-05
-0.000128603 0.000324106 -7.93103e-06
1.32975e-05 -7.93103e-06 0.00011132
0.00153893 -5.42368e-05 -1.59687e-06
-5.42368e-05 0.000471412 1.45207e-06
-1.59687e-06 1.45207e-06 0.000385341
0.00126249 -0.000129291 9.36805e-07
-0.000129291 0.000380447 4.82597e-07
9.36805e-07 4.82597e-07 0.000214502
0.00101229 -0.000157019 5.52008e-06
-0.000157019 0.000240511 2.16889e-06
5.52008e-06 2.16889e-06 -1.7299e-05
0.000178815 -5.44214e-05 -1.78796e-06
-5.44214e-05 -0.00023964 -1.19758e-06
-1.78796e-06 -1.19758e-06 -0.00035643
0.00105098 -0.000147818 -2.73571e-07
-0.000147818 0.000204043 7.908e-07
-2.73571e-07 7.908e-07 1.4895e-05
0.0018976 -0.000226043 1.41035e-06
-0.000226043 0.000568497 1.77162e-06
1.41035e-06 1.77162e-06 0.000342179
0.00172195 -0.000216718 -2.97641e-06
-0.000216718 0.000386037 1.09106e-06
-2.97641e-06 1.09106e-06 0.000185351
0.000633007 -0.000120428 -2.41792e-07
-0.000120428 -7.13878e-05 4.42457e-06
-2.41792e-07 4.42457e-06 -0.00023152
0.00115033 -0.000158882 -1.77537e-06
-0.000158882 0.000184054 1.24995e-06
-1.77537e-06 1.24995e-06 2.05231e-06
0.000923784 -0.00013541 -2.50512e-06
-0.00013541 0.00011654 2.21285e-07
-2.50512e-06 2.21285e-07 -4.05855e-05
0.00132794 -0.00015337 2.12625e-06
-0.00015337 0.00035208 -1.82995e-06
2.12625e-06 -1.82995e-06 0.000214846
0.0010853 -0.000138971 2.18781e-06
-0.000138971 0.00021682 -1.72865e-06
2.18781e-06 -1.72865e-06 7.60152e-05
0.000702893 -3.93418e-05 4.91515e-07
-3.93418e-05 2.56468e-05 9.77306e-07
4.91515e-07 9.77306e-07 -8.3313e-05
0.000787283 -9.72907e-05 9.47169e-07
-9.72907e-05 8.34154e-05 -3.92615e-07
9.47169e-07 -3.92615e-07 -4.39364e-05
0.00094323 -0.000127978 4.14313e-06
-0.000127978 0.000140102 -2.63903e-06
4.14313e-06 -2.63903e-06 -8.50534e-07
0.000783364 5.38985e-05 5.61341e-07
5.38985e-05 4.98898e-05 1.25655e-06
5.61341e-07 1.25655e-06 -2.52593e-05
0.000896928 -2.6056e-05 -1.6539e-07
-2.6056e-05 0.000120439 7.74042e-08
-1.6539e-07 7.74042e-08 2.74035e-05
0.00107316 -8.92838e-05 -3.00797e-07
-8.92838e-05 0.000228084 -7.85617e-09
-3.00797e-07 -7.85617e-09 0.000111923
0.000721261 5.1278e-05 -9.98969e-07
5.1278e-05 5.26697e-06 1.4502e-06
-9.98969e-07 1.4502e-06 -3.68917e-05
0.000792503 2.82957e-05 -5.28187e-07
2.82957e-05 4.53747e-05 -2.57027e-07
-5.28187e-07 -2.57027e-07 -1.75168e-05
0.000627492 1.06535e-06 -2.74867e-08
1.06535e-06 -2.99023e-05 -7.66308e-07
-2.74867e-08 -7.66308e-07 -0.000112966
0.000818172 6.3169e-07 7.8674e-07
6.3169e-07 5.26099e-05 -9.02616e-07
7.8674e-07 -9.02616e-07 -3.04439e-06
0.000746102 4.37853e-05 -1.13438e-07
4.37853e-05 1.06054e-05 -2.78476e-08
-1.13438e-07 -2.78476e-08 -2.73609e-05
0.00066226 4.11968e-05 -1.46044e-06
4.11968e-05 -3.38699e-05 3.29146e-06
-1.46044e-06 3.29146e-06 -4.48171e-05
0.000758443 3.45719e-05 1.20345e-06
3.45719e-05 1.00326e-05 -1.51551e-06
1.20345e-06 -1.51551e-06 -2.54987e-05
0.000687676 3.6568e-05 8.59901e-08
3.6568e-05 -2.8472e-05 9.25773e-09
8.59901e-08 9.25773e-09 -3.73217e-05
0.00208426 5.16452e-05 -2.12492e-05
5.16452e-05 0.00075193 3.52468e-06
-2.12492e-05 3.52468e-06 0.00076779
0.000700098 3.1323e-05 1.02064e-06
3.1323e-05 -2.91006e-05 -3.27006e-06
1.02064e-06 -3.27006e-06 -3.63066e-05
0.00147773 3.8327e-05 8.85403e-06
3.8327e-05 0.000407984 -1.0073e-06
8.85403e-06 -1.0073e-06 0.000422213
0.00211929 3.6503e-05 1.58973e-05
3.6503e-05 0.000759252 -3.84472e-06
1.58973e-05 -3.84472e-06 0.000777734
0.000807629 2.53354e-05 -5.57151e-07
2.53354e-05 4.15544e-05 -2.94836e-07
-5.57151e-07 -2.94836e-07 -1.98834e-05
0.000738936 -1.90787e-05 -6.73702e-07
-1.90787e-05 -5.94198e-06 -1.49986e-06
-6.73702e-07 -1.49986e-06 -4.42006e-05
0.000724121 1.93299e-05 -7.62386e-07
1.93299e-05 1.07567e-06 -4.29812e-07
-7.62386e-07 -4.29812e-07 -6.27472e-05
0.000704394 -2.52771e-05 -2.83936e-07
-2.52771e-05 -3.17426e-05 -3.46469e-06
-2.83936e-07 -3.46469e-06 -3.92443e-05
0.000626256 -1.61854e-05 -2.1474e-07
-1.61854e-05 -6.83999e-05 -6.8082e-07
-2.1474e-07 -6.8082e-07 -0.000105692
0.000892953 -2.97957e-07 4.37706e-08
-2.97957e-07 9.64198e-05 -4.76138e-08
4.37706e-08 -4.76138e-08 3.43835e-05
0.0021521 -2.81271e-05 -1.25924e-05
-2.81271e-05 0.000772309 -4.2454e-06
-1.25924e-05 -4.2454e-06 0.00079167
0.00070855 -1.87506e-05 -1.79816e-07
-1.87506e-05 -3.42308e-05 -8.82354e-09
-1.79816e-07 -8.82354e-09 -3.94951e-05
0.000501767 -1.32614e-05 2.8343e-09
-1.32614e-05 -0.00013783 9.73444e-07
2.8343e-09 9.73444e-07 -0.000173741
0.00209925 -1.83532e-05 -2.46969e-06
-1.83532e-05 0.000738958 4.70751e-08
-2.46969e-06 4.70751e-08 0.000759751
0.000712381 -1.235e-05 3.54839e-07
-1.235e-05 -3.55473e-05 3.3781e-06
3.54839e-07 3.3781e-06 -3.90544e-05
0.00206958 -8.67329e-06 3.57581e-06
-8.67329e-06 0.000720043 4.40614e-06
3.57581e-06 4.40614e-06 0.000741672
0.00128021 5.68652e-07 -8.00009e-07
5.68652e-07 0.000149046 1.5419e-05
-8.00009e-07 1.5419e-05 1.39321e-05
0.00126054 1.74361e-05 -4.38054e-06
1.74361e-05 0.000105685 1.00155e-06
-4.38054e-06 1.00155e-06 -3.47469e-05
0.00150418 2.46179e-05 6.34215e-05
2.46179e-05 0.000161838 -1.58369e-05
6.34215e-05 -1.58369e-05 -0.00019095
0.000753074 -4.4457e-05 1.03372e-07
-4.4457e-05 1.66666e-05 -1.66222e-07
1.03372e-07 -1.66222e-07 -5.34014e-05
0.000905319 -9.62097e-06 -3.50169e-07
-9.62097e-06 0.000107833 -5.06258e-07
-3.50169e-07 -5.06258e-07 3.2443e-05
0.000878048 2.6444e-05 1.30741e-06
2.6444e-05 9.2323e-05 -4.43376e-07
1.30741e-06 -4.43376e-07 1.78645e-05
0.000777182 -2.08466e-05 9.84224e-08
-2.08466e-05 2.97242e-05 2.58632e-08
9.84224e-08 2.58632e-08 -4.08004e-05
0.000843333 9.6189e-06 1.35396e-08
9.6189e-06 7.47923e-05 2.04442e-07
1.35396e-08 2.04442e-07 -5.39026e-06
0.000877754 -1.00715e-05 -8.2686e-07
-1.00715e-05 9.37521e-05 4.81867e-07
-8.2686e-07 4.81867e-07 1.65401e-05
0.00087852 0.000113519 8.03253e-07
0.000113519 0.000104766 1.2244e-06
8.03253e-07 1.2244e-06 1.54426e-05
0.00143356 1.10634e-06 2.2848e-05
1.10634e-06 0.000169179 5.78573e-05
2.2848e-05 5.78573e-05 -0.000346694
0.00190447 1.77022e-05 -1.86923e-06
1.77022e-05 0.000274329 1.76092e-05
-1.86923e-06 1.76092e-05 -0.000115781
0.00213876 3.05337e-05 1.02586e-05
3.05337e-05 0.000508153 -3.49911e-05
1.02586e-05 -3.49911e-05 0.000101407
0.00212765 -4.97329e-06 -6.28766e-06
-4.97329e-06 -0.00235899 -5.91418e-06
-6.28766e-06 -5.91418e-06 -0.000858687
0.00295064 -0.000498074 -2.57582e-05
-0.000498074 0.000366538 4.92166e-05
-2.57582e-05 4.92166e-05 -0.000412659
-0.00118149 -0.000215343 4.73789e-05
-0.000215343 -0.00109737 -1.81756e-06
4.73789e-05 -1.81756e-06 -0.00299653
0.00473473 0.000507137 3.89013e-05
0.000507137 0.00219182 -2.51137e-05
3.89013e-05 -2.51137e-05 0.0013917
0.00501236 -0.000663061 -1.98952e-05
-0.000663061 0.00112195 4.00298e-06
-1.98952e-05 4.00298e-06 0.000464398
0.00151458 -0.00021353 4.12181e-05
-0.00021353 0.00033787 -1.8396e-05
4.12181e-05 -1.8396e-05 -0.00173128
0.00345317 -1.29107e-05 -2.30202e-05
-1.29107e-05 0.00129838 2.10621e-06
-2.30202e-05 2.10621e-06 0.000892016
0.00515897 -0.000329792 -1.16812e-05
-0.000329792 0.000416353 -1.76378e-05
-1.16812e-05 -1.76378e-05 0.00145447
0.00222209 -0.000162291 -1.95768e-05
-0.000162291 -0.00021429 1.14195e-05
-1.95768e-05 1.14195e-05 -0.00018464
0.000869311 -0.000107198 3.67119e-05
-0.000107198 -0.000466855 -6.24969e-05
3.67119e-05 -6.24969e-05 -0.0021235
-0.00385066 -0.000372477 4.14178e-05
-0.000372477 -0.00318311 -3.71066e-07
4.14178e-05 -3.71066e-07 -0.00381562
0.000969579 -0.000368786 2.46897e-05
-0.000368786 -0.00162279 -2.86071e-05
2.46897e-05 -2.86071e-05 -0.000526407
0.000904187 -4.62627e-05 -3.85048e-07
-4.62627e-05 0.00010436 2.12207e-06
-3.85048e-07 2.12207e-06 3.11836e-05
0.000811037 5.24407e-06 1.94316e-07
5.24407e-06 5.32277e-05 2.76379e-08
1.94316e-07 2.76379e-08 -3.23421e-05
0.000810323 -5.87039e-07 -5.22352e-07
-5.87039e-07 6.80248e-05 -1.3327e-06
-5.22352e-07 -1.3327e-06 -2.76437e-05
0.000856623 2.35231e-05 -9.68234e-09
2.35231e-05 8.38167e-05 -1.49489e-06
-9.68234e-09 -1.49489e-06 -1.0335e-06
0.00148028 -0.00026981 5.53258e-07
-0.00026981 0.000236163 1.75227e-05
5.53258e-07 1.75227e-05 0.000186271
0.000157395 -1.82944e-05 4.08108e-06
-1.82944e-05 -1.60757e-05 -1.05325e-05
4.08108e-06 -1.05325e-05 -0.000115046
0.000784058 -2.61873e-05 -3.61492e-07
-2.61873e-05 2.03841e-05 -2.10607e-06
-3.61492e-07 -2.10607e-06 -5.79974e-05
0.000978822 6.79312e-05 -9.29259e-07
6.79312e-05 0.000155448 -2.24815e-06
-9.29259e-07 -2.24815e-06 7.21092e-05
0.00127122 5.67422e-09 5.22597e-06
5.67422e-09 0.000318309 -1.05588e-05
5.22597e-06 -1.05588e-05 0.000241944
0.000851412 -2.51727e-06 -5.1846e-07
-2.51727e-06 7.22611e-05 -3.17146e-08
-5.1846e-07 -3.17146e-08 -9.16985e-07
0.000732017 -4.68636e-06 1.46378e-07
-4.68636e-06 2.76126e-05 -6.87647e-07
1.46378e-07 -6.87647e-07 -3.27392e-05
-0.00069689 -4.01155e-05 -1.3622e-05
-4.01155e-05 -0.000361554 -9.54807e-06
-1.3622e-05 -9.54807e-06 -0.000671337
0.000899636 -2.21055e-05 -5.0559e-07
-2.21055e-05 0.000351777 1.64493e-06
-5.0559e-07 1.64493e-06 0.000322582
0.000754742 -1.06534e-05 3.39582e-06
-1.06534e-05 4.77172e-05 8.61292e-07
3.39582e-06 8.61292e-07 -1.73677e-05
0.000964203 1.71175e-05 -7.56404e-06
1.71175e-05 0.000969626 -4.87555e-05
-7.56404e-06 -4.87555e-05 0.000118143
0.00178958 -2.14476e-05 -4.11838e-07
-2.14476e-05 0.00078768 1.44454e-05
-4.11838e-07 1.44454e-05 0.000726878
0.00143494 -9.12324e-06 1.44135e-05
-9.12324e-06 0.00024419 4.07173e-07
1.44135e-05 4.07173e-07 0.000148681
0.000974779 -5.81025e-06 -1.53206e-07
-5.81025e-06 5.97696e-05 -7.06067e-08
-1.53206e-07 -7.06067e-08 1.47423e-05
0.000787991 -3.40535e-06 2.70296e-06
-3.40535e-06 -7.14362e-05 -1.15988e-06
2.70296e-06 -1.15988e-06 -0.00013958
0.000503049 5.17984e-05 7.07581e-06
5.17984e-05 0.000211198 8.2444e-06
7.07581e-06 8.2444e-06 0.000138911
0.00166482 0.000194278 -5.69674e-05
0.000194278 0.000120766 1.84863e-05
-5.69674e-05 1.84863e-05 0.00014826
0.00101236 -3.87317e-06 3.75655e-06
-3.87317e-06 1.97789e-05 3.65417e-06
3.75655e-06 3.65417e-06 -6.59607e-05
0.0033421 -0.00017423 0.000110439
-0.00017423 0.00165275 -0.000118744
0.000110439 -0.000118744 -0.000782635
0.00500662 0.00054706 -3.4913e-05
0.00054706 0.00209497 2.47973e-05
-3.4913e-05 2.47973e-05 0.00136623
0.00216839 1.90157e-05 -1.14247e-05
1.90157e-05 0.000494358 3.54328e-05
-1.14247e-05 3.54328e-05 9.86257e-05
0.00316424 0.000506226 -3.01629e-05
0.000506226 -0.000360952 1.49569e-05
-3.01629e-05 1.49569e-05 0.000521975
-0.000479776 -1.48844e-05 1.70151e-05
-1.48844e-05 -3.78084e-05 -4.62323e-07
1.70151e-05 -4.62323e-07 -0.000283285
0.00125622 1.34826e-05 4.83333e-06
1.34826e-05 9.15886e-05 -8.90593e-07
4.83333e-06 -8.90593e-07 -4.01766e-05
0.002276 2.49337e-05 1.96269e-05
2.49337e-05 0.000256556 -2.81784e-06
1.96269e-05 -2.81784e-06 -0.000272553
0.00153323 -8.45974e-05 -1.6874e-05
-8.45974e-05 -0.000505609 2.57041e-05
-1.6874e-05 2.57041e-05 -0.000198634
-0.000588322 0.000702647 1.29242e-05
0.000702647 -0.00110173 -2.53284e-06
1.29242e-05 -2.53284e-06 0.000224989
0.00530146 0.000594114 -1.92272e-06
0.000594114 0.00074691 1.67293e-05
-1.92272e-06 1.67293e-05 0.000928357
0.000574892 -0.000314723 4.58301e-05
-0.000314723 6.32261e-05 -2.64512e-05
4.58301e-05 -2.64512e-05 -0.0026216
0.00106028 -5.26389e-05 4.67538e-05
-5.26389e-05 0.000439775 -9.52567e-06
4.67538e-05 -9.52567e-06 0.000399465
0.00110646 5.902e-06 4.44167e-05
5.902e-06 -0.000116673 -1.84067e-05
4.44167e-05 -1.84067e-05 -0.000473979
-0.00127365 0.000252968 -2.65474e-05
0.000252968 -0.000352211 -1.54868e-05
-2.65474e-05 -1.54868e-05 -0.000459621
0.000181236 0.000546188 7.55281e-07
0.000546188 -0.000196638 3.65338e-05
7.55281e-07 3.65338e-05 0.000114052
0.00713489 0.000259733 2.41315e-05
0.000259733 0.00289211 -3.56386e-05
2.41315e-05 -3.56386e-05 0.00075797
0.00282864 -0.000316511 -6.475e-05
-0.000316511 0.000196939 7.96167e-05
-6.475e-05 7.96167e-05 -9.77172e-05
-0.000275818 -1.74839e-05 -8.59757e-07
-1.74839e-05 -0.000235529 9.15435e-06
-8.59757e-07 9.15435e-06 -0.000336059
0.000217529 -4.75605e-05 -1.42224e-06
-4.75605e-05 0.000108579 -3.65755e-07
-1.42224e-06 -3.65755e-07 -5.22367e-05
0.00104177 -0.000157155 1.786e-05
-0.000157155 0.000334705 -7.69741e-06
1.786e-05 -7.69741e-06 0.000205588
0.000690786 2.57696e-05 -4.62652e-06
2.57696e-05 0.000129735 2.46441e-06
-4.62652e-06 2.46441e-06 4.63581e-05
-9.09848e-06 -6.65665e-05 1.08842e-06
-6.65665e-05 -0.000142752 -2.32091e-06
1.08842e-06 -2.32091e-06 -0.000361645
0.00129674 -0.00019783 1.31528e-05
-0.00019783 0.000288461 9.17037e-07
1.31528e-05 9.17037e-07 7.13163e-05
0.00204303 -0.000208217 -3.85224e-06
-0.000208217 0.000766544 9.37189e-07
-3.85224e-06 9.37189e-07 0.000596004
0.00143546 -0.000180423 9.11135e-07
-0.000180423 0.000442241 1.18093e-06
9.11135e-07 1.18093e-06 0.000189256
0.000938663 -0.000191261 2.04124e-06
-0.000191261 -3.7333e-07 -3.37059e-06
2.04124e-06 -3.37059e-06 -0.000228471
0.00106964 -0.000147147 -3.06438e-06
-0.000147147 0.0002092 -1.22161e-07
-3.06438e-06 -1.22161e-07 1.47778e-05
0.00174994 -0.00021588 1.37425e-06
-0.00021588 0.00048234 2.17677e-08
1.37425e-06 2.17677e-08 0.000256422
0.00133375 -0.000209811 1.48079e-06
-0.000209811 0.000108901 -3.84267e-06
1.48079e-06 -3.84267e-06 -9.80643e-05
0.00163621 -0.000214186 1.03427e-07
-0.000214186 0.000208967 -2.68764e-06
1.03427e-07 -2.68764e-06 4.09447e-05
0.00198219 -0.000222467 -4.88623e-06
-0.000222467 0.000562645 4.72597e-06
-4.88623e-06 4.72597e-06 0.000372455
0.00152984 -0.000206345 -1.01563e-06
-0.000206345 0.000278702 -5.2307e-08
-1.01563e-06 -5.2307e-08 7.41454e-05
0.000619112 -0.000117534 1.98833e-06
-0.000117534 -7.37686e-05 -6.96007e-08
1.98833e-06 -6.96007e-08 -0.000213797
0.00090041 -0.000136298 1.60981e-06
-0.000136298 7.32551e-05 -4.30049e-07
1.60981e-06 -4.30049e-07 -8.26137e-05
0.00121882 -0.000163922 -6.7468e-07
-0.000163922 0.000219631 -1.53111e-06
-6.7468e-07 -1.53111e-06 3.65237e-05
0.00105951 -0.000130521 9.13595e-07
-0.000130521 0.000204316 3.05984e-07
9.13595e-07 3.05984e-07 7.42995e-05
0.00114059 -0.000140075 -6.68029e-07
-0.000140075 0.000252162 -9.12421e-07
-6.68029e-07 -9.12421e-07 0.000114959
0.000780951 -0.000117558 2.31647e-06
-0.000117558 5.89046e-05 -2.11708e-06
2.31647e-06 -2.11708e-06 -7.59009e-05
0.000752341 1.62838e-05 1.07668e-06
1.62838e-05 4.05833e-05 1.24197e-06
1.07668e-06 1.24197e-06 -5.19639e-05
0.000780607 -4.55303e-05 -3.65669e-08
-4.55303e-05 6.88418e-05 7.1897e-07
-3.65669e-08 7.1897e-07 -3.97124e-05
0.0011335 -0.000112621 1.34136e-06
-0.000112621 0.000269288 -1.20499e-06
1.34136e-06 -1.20499e-06 0.000141796
0.000709718 6.55129e-05 -1.88226e-08
6.55129e-05 1.00581e-05 2.02026e-06
-1.88226e-08 2.02026e-06 -4.20468e-05
0.000785386 2.35931e-05 -2.89351e-07
2.35931e-05 5.19341e-05 -1.46264e-07
-2.89351e-07 -1.46264e-07 -2.45656e-05
0.000901942 -4.02624e-05 2.76048e-07
-4.02624e-05 0.000124475 -6.05734e-07
2.76048e-07 -6.05734e-07 2.93295e-05
0.000662221 4.63449e-05 -2.52733e-06
4.63449e-05 -2.51957e-05 4.55515e-06
-2.52733e-06 4.55515e-06 -3.8676e-05
0.00072641 5.58076e-05 -8.03911e-08
5.58076e-05 9.54224e-06 -1.52709e-07
-8.03911e-08 -1.52709e-07 -3.35707e-05
0.000806792 7.13052e-06 2.38259e-07
7.13052e-06 5.17771e-05 -1.17607e-06
2.38259e-07 -1.17607e-06 -1.06232e-05
0.000746498 4.67999e-05 7.13451e-07
4.67999e-05 1.1402e-05 -1.59423e-06
7.13451e-07 -1.59423e-06 -2.70041e-05
0.000681652 4.22483e-05 3.05574e-08
4.22483e-05 -2.33576e-05 -7.361e-09
3.05574e-08 -7.361e-09 -3.4401e-05
0.00208697 5.95603e-05 -2.41118e-05
5.95603e-05 0.000761841 3.27689e-06
-2.41118e-05 3.27689e-06 0.000775727
0.000701725 3.7415e-05 1.23886e-06
3.7415e-05 -2.08218e-05 -3.26182e-06
1.23886e-06 -3.26182e-06 -2.97376e-05
0.0020949 5.23662e-05 1.46415e-06
5.23662e-05 0.000758883 9.61954e-08
1.46415e-06 9.61954e-08 0.000774511
0.00210553 4.48752e-05 1.90526e-05
4.48752e-05 0.000758155 -3.63341e-06
1.90526e-05 -3.63341e-06 0.000775297
0.000837535 7.64524e-06 -2.32969e-08
7.64524e-06 7.05143e-05 -5.57224e-07
-2.32969e-08 -5.57224e-07 -4.60937e-06
0.000815464 3.78994e-05 -1.09417e-06
3.78994e-05 5.20153e-05 -9.26605e-07
-1.09417e-06 -9.26605e-07 -1.46333e-05
0.000738898 -2.7657e-05 -7.60478e-07
-2.7657e-05 -4.01649e-06 -1.65382e-06
-7.60478e-07 -1.65382e-06 -4.42748e-05
0.000808175 2.75393e-05 -4.45161e-08
2.75393e-05 4.20931e-05 -2.37506e-08
-4.45161e-08 -2.37506e-08 -1.94918e-05
0.000689947 -3.08163e-05 -4.80846e-07
-3.08163e-05 -3.41994e-05 -3.54446e-06
-4.80846e-07 -3.54446e-06 -4.39747e-05
0.000750121 -2.07058e-05 -1.35012e-07
-2.07058e-05 8.40113e-07 3.62379e-10
-1.35012e-07 3.62379e-10 -3.76286e-05
0.000777257 1.88881e-05 -5.43119e-08
1.88881e-05 2.28199e-05 -1.19435e-07
-5.43119e-08 -1.19435e-07 -3.53683e-05
0.00220111 -3.71235e-05 -1.63324e-05
-3.71235e-05 0.000804188 -4.11408e-06
-1.63324e-05 -4.11408e-06 0.000821997
0.000698751 -2.47364e-05 -1.57332e-07
-2.47364e-05 -3.49929e-05 -8.29611e-09
-1.57332e-07 -8.29611e-09 -4.23878e-05
0.000747022 -1.73351e-05 -2.75927e-09
-1.73351e-05 -2.21963e-06 9.55996e-07
-2.75927e-09 9.55996e-07 -3.87568e-05
0.0021383 -2.74703e-05 -2.48447e-06
-2.74703e-05 0.00076414 7.10011e-08
-2.48447e-06 7.10011e-08 0.00078372
0.000703045 -1.84062e-05 2.91063e-07
-1.84062e-05 -3.72823e-05 3.40243e-06
2.91063e-07 3.40243e-06 -4.24723e-05
0.00208881 -1.76058e-05 7.93038e-06
-1.76058e-05 0.000732779 4.35255e-06
7.93038e-06 4.35255e-06 0.000753735
0.00123673 -2.85078e-05 1.28848e-05
-2.85078e-05 0.000136853 1.71008e-05
1.28848e-05 1.71008e-05 -1.98147e-05
0.00112037 -1.07964e-06 -2.47324e-06
-1.07964e-06 7.36008e-05 5.9068e-06
-2.47324e-06 5.9068e-06 -4.27286e-05
0.00130018 1.38377e-05 6.10862e-06
1.38377e-05 0.000124853 -9.94749e-06
6.10862e-06 -9.94749e-06 -1.80792e-05
0.000802592 -2.92401e-06 -2.64242e-07
-2.92401e-06 4.91446e-05 -6.72175e-08
-2.64242e-07 -6.72175e-08 -2.47899e-05
0.000830866 -2.25359e-05 -1.76886e-07
-2.25359e-05 6.75577e-05 2.3952e-07
-1.76886e-07 2.3952e-07 -8.35622e-06
0.000775145 -2.96459e-05 2.46579e-07
-2.96459e-05 3.94406e-05 -1.69897e-06
2.46579e-07 -1.69897e-06 -4.12896e-05
0.000725552 -3.60599e-05 -2.00139e-08
-3.60599e-05 9.4587e-06 -6.59005e-07
-2.00139e-08 -6.59005e-07 -6.5564e-05
0.000966634 4.18819e-05 -6.50434e-07
4.18819e-05 0.000153257 -2.62465e-07
-6.50434e-07 -2.62465e-07 6.70286e-05
0.000769464 -3.46635e-05 -6.94054e-09
-3.46635e-05 2.25473e-05 -2.27503e-07
-6.94054e-09 -2.27503e-07 -4.59884e-05
0.000770211 -1.53485e-05 4.60965e-07
-1.53485e-05 3.18597e-05 -1.05197e-06
4.60965e-07 -1.05197e-06 -4.63141e-05
0.000842789 8.7909e-06 -1.24712e-07
8.7909e-06 7.48171e-05 -4.91507e-08
-1.24712e-07 -4.91507e-08 -1.9904e-06
0.000892742 3.12214e-05 -8.11119e-08
3.12214e-05 0.000102453 2.10265e-07
-8.11119e-08 2.10265e-07 1.92071e-05
0.000953364 1.18596e-05 5.60243e-08
1.18596e-05 0.000145562 7.92196e-07
5.60243e-08 7.92196e-07 6.38002e-05
0.00180078 -2.51015e-05 5.89753e-05
-2.51015e-05 0.00024749 6.63685e-05
5.89753e-05 6.63685e-05 -0.000328702
0.00158367 8.40552e-06 3.38391e-06
8.40552e-06 0.000170224 1.54761e-05
3.38391e-06 1.54761e-05 -0.000351958
0.00206409 2.40895e-05 -4.40898e-06
2.40895e-05 0.000473561 -1.48305e-05
-4.40898e-06 -1.48305e-05 0.000176947
0.00501905 -0.000302882 -2.77119e-05
-0.000302882 0.000515399 -4.42518e-05
-2.77119e-05 -4.42518e-05 0.00158484
-0.00666706 0.000209258 -2.65228e-05
0.000209258 -0.00320271 2.17635e-05
-2.65228e-05 2.17635e-05 -0.00387095
0.00379481 -0.000590068 -5.22063e-05
-0.000590068 0.000720236 5.29131e-05
-5.22063e-05 5.29131e-05 2.13896e-05
0.00639829 -9.52988e-05 -6.76944e-06
-9.52988e-05 0.00195685 -4.65517e-05
-6.76944e-06 -4.65517e-05 0.000282936
0.00359466 -0.000287048 -4.0398e-05
-0.000287048 0.000453215 4.14135e-05
-4.0398e-05 4.14135e-05 0.000155496
0.0094587 -0.000211886 5.82184e-05
-0.000211886 0.00385744 -1.11475e-05
5.82184e-05 -1.11475e-05 0.00174639
0.000179487 -0.000238572 2.22322e-05
-0.000238572 -0.000912924 -4.7519e-07
2.22322e-05 -4.7519e-07 -0.0011972
0.000942438 -0.000418942 -2.62468e-05
-0.000418942 -0.00173528 -6.20787e-05
-2.62468e-05 -6.20787e-05 -0.000601413
0.00441919 -8.7551e-06 -0.000109228
-8.7551e-06 0.000868077 -2.05637e-05
-0.000109228 -2.05637e-05 0.000611771
0.00805238 -0.000293342 -1.8315e-05
-0.000293342 0.002646 4.68775e-05
-1.8315e-05 4.68775e-05 0.00114838
0.00765247 -0.000872675 1.17406e-05
-0.000872675 0.00213072 -1.77187e-05
1.17406e-05 -1.77187e-05 0.002261
0.00305835 -0.000655314 1.564e-05
-0.000655314 0.000297666 1.23029e-06
1.564e-05 1.23029e-06 0.00159252
0.000650474 1.50928e-05 2.37828e-06
1.50928e-05 7.62491e-06 1.6793e-06
2.37828e-06 1.6793e-06 -5.52013e-05
0.000922215 -3.86787e-05 -9.60059e-08
-3.86787e-05 0.000118292 6.07844e-07
-9.60059e-08 6.07844e-07 4.34891e-05
0.000809091 5.4462e-06 -1.04006e-07
5.4462e-06 4.97353e-05 -1.4144e-06
-1.04006e-07 -1.4144e-06 -3.42277e-05
0.000176101 3.26747e-06 -1.50306e-05
3.26747e-06 3.70211e-05 1.634e-05
-1.50306e-05 1.634e-05 -0.00029401
0.000987212 -6.64225e-05 -1.56749e-05
-6.64225e-05 0.000413728 -7.69307e-06
-1.56749e-05 -7.69307e-06 0.000393026
0.000784483 -1.84079e-05 -1.41877e-06
-1.84079e-05 3.71414e-05 -9.63683e-07
-1.41877e-06 -9.63683e-07 -3.81342e-05
0.000683734 -5.04295e-05 -4.60157e-07
-5.04295e-05 8.02244e-07 -5.9539e-06
-4.60157e-07 -5.9539e-06 -5.73586e-05
0.000813583 -4.49446e-06 -5.01894e-07
-4.49446e-06 8.24753e-05 -1.34832e-06
-5.01894e-07 -1.34832e-06 1.61332e-05
0.000589564 -2.47708e-05 -6.67489e-07
-2.47708e-05 0.000148931 3.8342e-06
-6.67489e-07 3.8342e-06 8.79565e-05
0.000100558 -1.83523e-05 3.45064e-05
-1.83523e-05 0.000511713 -3.34636e-05
3.45064e-05 -3.34636e-05 -0.000313514
-0.000443622 -1.35905e-05 -4.16232e-06
-1.35905e-05 -0.00042334 8.02249e-06
-4.16232e-06 8.02249e-06 -0.000499503
0.0010747 0.000110231 -5.92455e-07
0.000110231 0.000504844 -2.99841e-05
-5.92455e-07 -2.99841e-05 2.79891e-05
0.00129401 -5.63916e-06 4.48795e-05
-5.63916e-06 4.84608e-09 6.36663e-06
4.48795e-05 6.36663e-06 -0.000335271
0.00110292 -6.91844e-06 6.31433e-06
-6.91844e-06 7.8196e-05 1.42543e-06
6.31433e-06 1.42543e-06 -5.1262e-06
0.000417662 -5.00496e-06 6.84443e-08
-5.00496e-06 -0.000239005 -3.02452e-07
6.84443e-08 -3.02452e-07 -0.000275399
-0.00149938 -3.56035e-05 -3.60909e-05
-3.56035e-05 -0.00047012 1.24492e-05
-3.60909e-05 1.24492e-05 -0.00078209
0.00214673 5.00991e-05 1.06679e-05
5.00991e-05 -0.000301762 -4.23029e-05
1.06679e-05 -4.23029e-05 -0.000364227
0.00132962 9.51971e-06 -4.35109e-06
9.51971e-06 0.000135235 9.47549e-06
-4.35109e-06 9.47549e-06 2.98366e-06
0.0116922 -0.000219147 8.59058e-05
-0.000219147 0.0048682 -7.67612e-06
8.59058e-05 -7.67612e-06 0.00263066
0.00436505 0.000643084 -4.71482e-05
0.000643084 0.000907401 9.07629e-06
-4.71482e-05 9.07629e-06 0.000859114
0.00239099 1.25576e-05 -3.96332e-05
1.25576e-05 0.000361992 4.42804e-05
-3.96332e-05 4.42804e-05 -0.00021958
-0.00343319 0.000752228 4.43979e-05
0.000752228 -0.00289337 -6.175e-05
4.43979e-05 -6.175e-05 -0.00123367
0.000464947 -3.30548e-05 -1.0953e-05
-3.30548e-05 0.000167913 -1.40232e-06
-1.0953e-05 -1.40232e-06 9.33229e-05
0.00139017 1.07503e-05 -7.3625e-06
1.07503e-05 4.97191e-05 2.22369e-06
-7.3625e-06 2.22369e-06 -0.000305604
-0.00157508 0.000292392 -6.75666e-05
0.000292392 -0.000393128 2.78963e-05
-6.75666e-05 2.78963e-05 -0.000414928
0.00196457 -0.000296162 -2.09688e-05
-0.000296162 -0.000199771 2.95362e-05
-2.09688e-05 2.95362e-05 -0.000379076
0.00563922 0.000876955 1.38344e-05
0.000876955 0.00187999 2.15686e-05
1.38344e-05 2.15686e-05 0.00222547
0.00719261 -7.52273e-05 5.04628e-05
-7.52273e-05 0.00251615 -2.83935e-05
5.04628e-05 -2.83935e-05 0.000588474
0.0017854 -0.000202056 2.10371e-05
-0.000202056 0.00032893 1.63561e-05
2.10371e-05 1.63561e-05 0.000480545
-0.00148393 5.53746e-05 3.65818e-05
5.53746e-05 2.3928e-05 -7.37989e-06
3.65818e-05 -7.37989e-06 -0.000500838
0.00231596 0.000600886 -3.86744e-05
0.000600886 0.00116601 1.43763e-05
-3.86744e-05 1.43763e-05 0.00128745
0.00502641 0.000282598 -6.89921e-05
0.000282598 0.00167151 5.64802e-05
-6.89921e-05 5.64802e-05 -0.000270722
0.00251996 -0.000546822 2.01645e-05
-0.000546822 0.000107853 8.97373e-06
2.01645e-05 8.97373e-06 -0.000471843
0.000680998 3.6298e-06 9.19596e-06
3.6298e-06 0.000361212 9.78595e-06
9.19596e-06 9.78595e-06 0.000208892
0.000637407 -0.000140051 -6.72238e-07
-0.000140051 0.000142833 -1.84173e-07
-6.72238e-07 -1.84173e-07 -5.74468e-06
0.00247596 -0.000250752 1.6804e-05
-0.000250752 0.000694125 2.37684e-06
1.6804e-05 2.37684e-06 0.000663119
-0.000926048 -8.6132e-06 -4.24829e-06
-8.6132e-06 -0.000600801 4.92685e-06
-4.24829e-06 4.92685e-06 -0.000824135
0.000665412 -0.000152654 4.03017e-06
-0.000152654 -7.27159e-06 -5.7045e-07
4.03017e-06 -5.7045e-07 -0.000226504
0.000780614 -0.000215223 1.67683e-06
-0.000215223 -0.000248791 -7.66582e-07
1.67683e-06 -7.66582e-07 -0.000408742
0.00182289 -0.000200421 -4.57529e-06
-0.000200421 0.000623782 7.16859e-07
-4.57529e-06 7.16859e-07 0.000377123
0.00121315 -0.000204355 -2.46954e-06
-0.000204355 0.000137738 -2.18203e-06
-2.46954e-06 -2.18203e-06 -8.2339e-05
0.00170752 -0.000254149 4.28342e-06
-0.000254149 0.000187664 -9.16294e-07
4.28342e-06 -9.16294e-07 3.60763e-05
0.00165515 -0.000208103 -1.74173e-06
-0.000208103 0.000425311 -9.69731e-07
-1.74173e-06 -9.69731e-07 0.000200308
0.00147686 -0.000214952 -3.68245e-07
-0.000214952 0.000180378 -1.92289e-06
-3.68245e-07 -1.92289e-06 -2.06183e-05
0.00151672 -0.000210898 1.3427e-07
-0.000210898 4.17206e-05 -2.73271e-06
1.3427e-07 -2.73271e-06 -0.000101594
0.00166939 -0.000188848 2.26068e-07
-0.000188848 0.000141126 -1.82553e-06
2.26068e-07 -1.82553e-06 6.20225e-06
0.00152889 -0.000198811 -8.16472e-07
-0.000198811 0.00022985 -1.20692e-06
-8.16472e-07 -1.20692e-06 4.77727e-05
0.00147155 -0.000202809 1.12523e-06
-0.000202809 0.000125459 -3.49575e-07
1.12523e-06 -3.49575e-07 -4.08828e-05
0.00144247 -0.000178781 -1.99537e-06
-0.000178781 0.000302579 3.88452e-06
-1.99537e-06 3.88452e-06 0.000137617
0.00137194 -0.000186032 -1.5455e-07
-0.000186032 0.000239918 6.42492e-07
-1.5455e-07 6.42492e-07 4.74809e-05
0.00129211 -0.000192943 -2.52483e-07
-0.000192943 0.00014863 -1.77975e-06
-2.52483e-07 -1.77975e-06 -6.0118e-05
0.000952178 -0.000132201 6.36837e-07
-0.000132201 0.000109362 -1.21685e-06
6.36837e-07 -1.21685e-06 -2.16343e-05
0.000696255 -0.000121118 -2.14077e-07
-0.000121118 -2.94941e-05 -1.53494e-06
-2.14077e-07 -1.53494e-06 -0.000166881
0.0011487 -0.000151069 3.99317e-06
-0.000151069 0.000207214 -4.25983e-06
3.99317e-06 -4.25983e-06 5.54523e-05
0.000851865 -6.95838e-05 2.85055e-07
-6.95838e-05 8.3542e-05 1.19587e-06
2.85055e-07 1.19587e-06 -2.42702e-05
0.000940954 -0.000113313 4.37953e-07
-0.000113313 0.000140217 5.18662e-07
4.37953e-07 5.18662e-07 1.29666e-05
0.000946324 -0.000126333 -5.30918e-07
-0.000126333 0.000148491 6.89624e-07
-5.30918e-07 6.89624e-07 1.14247e-05
0.000706343 8.2265e-05 1.00001e-06
8.2265e-05 1.72627e-05 2.85265e-06
1.00001e-06 2.85265e-06 -5.04282e-05
0.000825 -5.68611e-06 3.21094e-08
-5.68611e-06 8.14373e-05 -1.14358e-07
3.21094e-08 -1.14358e-07 -1.3601e-05
0.000855233 -5.86006e-05 -9.34797e-07
-5.86006e-05 0.000110398 -3.79538e-09
-9.34797e-07 -3.79538e-09 2.47373e-06
0.0013014 6.31101e-05 -1.35856e-05
6.31101e-05 0.00034012 2.95845e-06
-1.35856e-05 2.95845e-06 0.000325404
0.000707002 5.36795e-05 -1.4385e-07
5.36795e-05 6.41398e-06 -2.98763e-07
-1.4385e-07 -2.98763e-07 -4.44824e-05
0.000796818 -6.51181e-06 2.58357e-07
-6.51181e-06 5.91849e-05 -1.30695e-06
2.58357e-07 -1.30695e-06 -1.88059e-05
0.000814428 3.7877e-05 -2.29183e-05
3.7877e-05 6.5364e-05 3.24549e-06
-2.29183e-05 3.24549e-06 7.15487e-05
0.00101807 5.37824e-05 -6.26356e-06
5.37824e-05 0.000172335 2.90854e-07
-6.26356e-06 2.90854e-07 0.00015995
0.000728025 5.97469e-05 -1.20627e-07
5.97469e-05 1.16208e-05 -1.93989e-06
-1.20627e-07 -1.93989e-06 -3.22754e-05
0.000702726 4.34707e-05 1.31283e-06
4.34707e-05 -1.1897e-05 -3.261e-06
1.31283e-06 -3.261e-06 -2.30624e-05
0.00210825 6.03476e-05 1.20301e-06
6.03476e-05 0.000774719 1.00057e-07
1.20301e-06 1.00057e-07 0.000788304
0.00210838 5.30181e-05 2.22789e-05
5.30181e-05 0.000767415 -3.40069e-06
2.22789e-05 -3.40069e-06 0.000782812
0.000761859 -1.85346e-05 2.70367e-07
-1.85346e-05 2.78836e-05 -1.10094e-06
2.70367e-07 -1.10094e-06 -4.92986e-05
0.000814014 1.58744e-05 -5.2494e-07
1.58744e-05 5.20471e-05 -1.39569e-06
-5.2494e-07 -1.39569e-06 -1.59806e-05
0.000817252 -1.8513e-05 1.09719e-07
-1.8513e-05 5.78386e-05 -4.59323e-08
1.09719e-07 -4.59323e-08 -1.62487e-05
0.0007406 -3.93989e-05 -7.98855e-07
-3.93989e-05 1.73553e-06 -1.95509e-06
-7.98855e-07 -1.95509e-06 -4.07613e-05
0.0008148 4.15293e-06 6.91271e-07
4.15293e-06 4.81311e-05 -7.6486e-08
6.91271e-07 -7.6486e-08 -1.55952e-05
0.000678863 -3.61343e-05 -6.90996e-07
-3.61343e-05 -3.4208e-05 -3.69076e-06
-6.90996e-07 -3.69076e-06 -4.61827e-05
0.000746869 -2.42174e-05 -1.63914e-07
-2.42174e-05 9.42607e-07 1.43794e-08
-1.63914e-07 1.43794e-08 -3.93567e-05
0.000827547 4.3976e-05 1.11405e-06
4.3976e-05 5.94693e-05 5.3626e-07
1.11405e-06 5.3626e-07 -6.63593e-06
0.00224855 -4.56817e-05 -2.0661e-05
-4.56817e-05 0.000836004 -3.95507e-06
-2.0661e-05 -3.95507e-06 0.000852126
0.00068789 -3.0316e-05 -2.85528e-07
-3.0316e-05 -3.53024e-05 3.41516e-09
-2.85528e-07 3.41516e-09 -4.5019e-05
0.000765872 -2.1141e-05 3.06245e-07
-2.1141e-05 1.00708e-05 1.59873e-06
3.06245e-07 1.59873e-06 -2.85735e-05
0.00218489 -3.65329e-05 -2.2787e-06
-3.65329e-05 0.000794606 8.95715e-08
-2.2787e-06 8.95715e-08 0.000812643
0.000694362 -2.42793e-05 3.27266e-07
-2.42793e-05 -3.75027e-05 3.44896e-06
3.27266e-07 3.44896e-06 -4.48094e-05
0.00212503 -2.67648e-05 1.1574e-05
-2.67648e-05 0.00075624 4.26384e-06
1.1574e-05 4.26384e-06 0.000776034
0.00193321 -4.53253e-05 4.65277e-05
-4.53253e-05 0.00036637 2.5919e-05
4.65277e-05 2.5919e-05 6.5063e-05
0.00123527 -2.47174e-05 5.80125e-07
-2.47174e-05 0.000120038 5.40421e-06
5.80125e-07 5.40421e-06 -2.93716e-05
0.000980139 -3.32158e-06 -2.95993e-06
-3.32158e-06 1.3625e-05 -4.2308e-06
-2.95993e-06 -4.2308e-06 -8.76026e-05
0.000899548 4.48383e-05 -9.2827e-07
4.48383e-05 0.000119326 -4.03373e-07
-9.2827e-07 -4.03373e-07 2.97642e-05
0.000875903 -4.86515e-06 1.49018e-07
-4.86515e-06 8.85705e-05 1.52778e-07
1.49018e-07 1.52778e-07 1.54977e-05
0.000806399 -3.32824e-05 1.4908e-08
-3.32824e-05 5.43679e-05 4.7274e-07
1.4908e-08 4.7274e-07 -2.23336e-05
0.00085575 -2.98349e-05 1.01527e-07
-2.98349e-05 7.87177e-05 -1.34352e-07
1.01527e-07 -1.34352e-07 4.65969e-06
0.000871567 -2.32015e-06 1.92642e-07
-2.32015e-06 9.27114e-05 -4.04961e-07
1.92642e-07 -4.04961e-07 1.08858e-05
0.000866853 2.49217e-05 1.22344e-07
2.49217e-05 9.6799e-05 6.28851e-07
1.22344e-07 6.28851e-07 1.17044e-05
0.00088944 1.8645e-05 -1.29461e-07
1.8645e-05 0.00010971 -1.732e-06
-1.29461e-07 -1.732e-06 2.00156e-05
0.000658291 -2.54515e-05 4.4179e-07
-2.54515e-05 -1.89098e-05 -1.70805e-07
4.4179e-07 -1.70805e-07 -0.000100008
0.000828285 5.04685e-05 2.89512e-07
5.04685e-05 7.02798e-05 -4.91084e-07
2.89512e-07 -4.91084e-07 -8.55236e-06
0.000850108 -5.41683e-05 6.30642e-07
-5.41683e-05 7.04711e-05 -1.03858e-06
6.30642e-07 -1.03858e-06 -6.88083e-06
0.00086901 6.15255e-07 -1.62806e-07
6.15255e-07 9.7733e-05 1.40696e-07
-1.62806e-07 1.40696e-07 1.78289e-05
0.00138504 1.20026e-05 3.76697e-06
1.20026e-05 0.000397257 1.51196e-06
3.76697e-06 1.51196e-06 0.000317375
0.00136881 -0.00034404 5.44333e-05
-0.00034404 0.00080155 4.74654e-05
5.44333e-05 4.74654e-05 0.000861025
0.00204988 -2.01264e-05 2.82403e-06
-2.01264e-05 0.000386446 1.34902e-05
2.82403e-06 1.34902e-05 -0.000209842
0.00170725 1.45877e-05 -1.27649e-05
1.45877e-05 0.000167767 -2.6774e-05
-1.27649e-05 -2.6774e-05 -0.000359717
0.00427396 -0.000525107 -6.3838e-05
-0.000525107 3.23407e-05 -5.29419e-05
-6.3838e-05 -5.29419e-05 0.00126742
0.00415799 -0.000228268 -1.41719e-05
-0.000228268 0.000542222 -2.34474e-06
-1.41719e-05 -2.34474e-06 0.000206967
0.00101335 -0.000304189 -9.57528e-05
-0.000304189 -0.000438193 6.12935e-05
-9.57528e-05 6.12935e-05 -0.00207034
0.0029072 -0.000227692 -4.49495e-05
-0.000227692 0.000313576 8.92409e-05
-4.49495e-05 8.92409e-05 -0.00010922
0.00401337 -0.000208775 -6.86432e-06
-0.000208775 0.000728232 3.22021e-05
-6.86432e-06 3.22021e-05 0.000602826
-0.000324825 -0.000662087 3.42906e-07
-0.000662087 -0.0012647 1.09747e-05
3.42906e-07 1.09747e-05 0.000162182
0.00497165 5.92803e-05 6.61195e-06
5.92803e-05 0.001897 2.35326e-05
6.61195e-06 2.35326e-05 -0.00028622
0.00107505 -0.000435146 -3.08243e-06
-0.000435146 -0.00108654 1.08607e-05
-3.08243e-06 1.08607e-05 -0.000761915
0.00249462 0.000166097 -4.76657e-05
0.000166097 0.000104633 -1.97152e-05
-4.76657e-05 -1.97152e-05 -7.41351e-05
0.00934486 -0.000482561 -3.40007e-05
-0.000482561 0.00389023 3.75132e-05
-3.40007e-05 3.75132e-05 0.00207134
-0.000187116 -0.000498085 -4.1063e-05
-0.000498085 -0.000384728 -3.4366e-05
-4.1063e-05 -3.4366e-05 3.49323e-06
0.000608086 0.000139944 6.94127e-07
0.000139944 -2.58343e-05 -2.07362e-06
6.94127e-07 -2.07362e-06 -8.82294e-05
0.000954767 2.38538e-05 3.8616e-06
2.38538e-05 0.000164406 -6.5911e-08
3.8616e-06 -6.5911e-08 0.000103186
0.000939117 -2.20902e-05 -9.02029e-07
-2.20902e-05 0.000131191 -6.91852e-07
-9.02029e-07 -6.91852e-07 5.52859e-05
-0.00104135 -1.11033e-05 -3.81869e-05
-1.11033e-05 -0.000192525 -1.37329e-05
-3.81869e-05 -1.37329e-05 -0.000968649
-0.000915015 2.75877e-05 4.04712e-06
2.75877e-05 -0.000659513 -6.90354e-06
4.04712e-06 -6.90354e-06 -0.000725189
0.000801796 2.76754e-05 -4.88828e-07
2.76754e-05 7.86931e-05 -2.20429e-06
-4.88828e-07 -2.20429e-06 1.11098e-05
0.00079978 7.47326e-05 2.72214e-06
7.47326e-05 0.000191891 1.69497e-06
2.72214e-06 1.69497e-06 0.000109151
0.000640562 0.000144541 4.10863e-06
0.000144541 0.000192139 -2.01007e-05
4.10863e-06 -2.01007e-05 -0.000178762
0.000304124 0.000191653 1.73808e-05
0.000191653 -0.000192395 5.07127e-06
1.73808e-05 5.07127e-06 -0.000341645
0.000250474 -9.68795e-06 8.33204e-05
-9.68795e-06 0.000979544 3.55907e-07
8.33204e-05 3.55907e-07 0.000463274
0.00138286 -1.63419e-05 -4.72088e-06
-1.63419e-05 0.000110795 5.49753e-06
-4.72088e-06 5.49753e-06 -0.000164061
0.000799984 -4.6108e-06 -2.3579e-06
-4.6108e-06 -6.69326e-05 7.66241e-07
-2.3579e-06 7.66241e-07 -0.000139105
0.000615211 -3.90173e-05 -9.51835e-06
-3.90173e-05 0.000253177 5.50697e-06
-9.51835e-06 5.50697e-06 0.00017448
0.00110952 -0.000229588 5.55199e-06
-0.000229588 -0.000759656 -2.47843e-05
5.55199e-06 -2.47843e-05 -0.000767244
0.00152275 9.70166e-06 -5.89603e-05
9.70166e-06 0.000140191 1.52026e-05
-5.89603e-05 1.52026e-05 -0.000217062
-0.000153828 -0.000213394 2.14599e-05
-0.000213394 -0.000843593 -3.29101e-05
2.14599e-05 -3.29101e-05 -0.0026959
-0.00257293 0.000449694 -4.41632e-06
0.000449694 -0.00222287 -1.72677e-05
-4.41632e-06 -1.72677e-05 -0.00176114
0.00166074 0.000385196 -6.81442e-05
0.000385196 0.00101402 4.77584e-05
-6.81442e-05 4.77584e-05 0.00131088
0.00174733 -0.00013914 -5.52653e-06
-0.00013914 0.000202428 3.4177e-06
-5.52653e-06 3.4177e-06 0.000463586
0.00132697 0.000150221 1.41917e-06
0.000150221 0.00133854 5.11585e-06
1.41917e-06 5.11585e-06 0.00112509
-0.00422509 0.000230219 1.90122e-05
0.000230219 -0.00152638 5.12343e-07
1.90122e-05 5.12343e-07 -0.00186145
0.00419207 -0.000590507 -7.2064e-07
-0.000590507 0.00109886 3.90222e-06
-7.2064e-07 3.90222e-06 0.000184964
0.00785064 0.000292827 8.90174e-06
0.000292827 0.00291737 -1.90848e-06
8.90174e-06 -1.90848e-06 0.00130882
0.000378926 -0.000187308 7.83302e-08
-0.000187308 -0.000401612 1.4704e-05
7.83302e-08 1.4704e-05 -0.000327342
-0.00589487 0.000138044 -4.95005e-05
0.000138044 -0.0029766 1.27947e-06
-4.95005e-05 1.27947e-06 -0.00305986
0.00642525 0.000262658 -9.75095e-08
0.000262658 0.00226551 4.71892e-06
-9.75095e-08 4.71892e-06 0.000827858
0.00521697 -0.000490075 -5.55401e-07
-0.000490075 0.000853681 2.07918e-05
-5.55401e-07 2.07918e-05 7.73922e-06
0.000217752 -0.000111842 -1.52513e-05
-0.000111842 -4.27206e-05 8.78814e-06
-1.52513e-05 8.78814e-06 -0.00022249
0.00118573 -0.000183524 -1.02593e-06
-0.000183524 3.17217e-05 5.05171e-07
-1.02593e-06 5.05171e-07 4.39453e-05
0.00205781 -0.000221476 1.06762e-05
-0.000221476 0.000215197 -1.50049e-06
1.06762e-05 -1.50049e-06 0.000263089
0.000127944 -0.00011289 -4.48015e-06
-0.00011289 -0.000253538 -1.45557e-06
-4.48015e-06 -1.45557e-06 -0.00047758
0.00123212 -0.000239268 -3.92568e-06
-0.000239268 -1.42003e-05 -1.47583e-06
-3.92568e-06 -1.47583e-06 -0.000176245
0.00193419 -0.000281458 7.9165e-07
-0.000281458 0.000165829 6.27681e-07
7.9165e-07 6.27681e-07 5.90286e-05
0.00155151 -0.000221583 -3.85697e-06
-0.000221583 0.000312225 -2.24365e-06
-3.85697e-06 -2.24365e-06 9.82729e-05
0.0015376 -0.000242763 2.63562e-06
-0.000242763 0.000111225 5.45507e-07
2.63562e-06 5.45507e-07 -4.30239e-05
0.00208149 -0.000232487 -5.49124e-07
-0.000232487 0.000261879 -3.52472e-06
-5.49124e-07 -3.52472e-06 0.000145936
0.00156993 -0.000217757 -3.18216e-06
-0.000217757 0.000224615 1.76474e-07
-3.18216e-06 1.76474e-07 2.88476e-05
0.00162852 -0.000214634 -2.69968e-07
-0.000214634 0.000102417 7.99365e-07
-2.69968e-07 7.99365e-07 -4.14141e-05
0.00169102 -0.000176541 3.95406e-07
-0.000176541 8.66379e-05 -2.67311e-06
3.95406e-07 -2.67311e-06 -2.42145e-05
0.00161039 -0.000155612 -5.90925e-07
-0.000155612 8.31053e-05 -1.67437e-06
-5.90925e-07 -1.67437e-06 -3.18815e-05
0.00184941 -0.000197843 -7.66405e-07
-0.000197843 0.000302092 -1.92086e-06
-7.66405e-07 -1.92086e-06 0.000149179
0.00165134 -0.000185702 -2.64972e-08
-0.000185702 0.00013451 9.32729e-07
-2.64972e-08 9.32729e-07 -3.58446e-07
0.000911284 -0.000154253 -2.57123e-06
-0.000154253 -5.977e-05 1.28943e-06
-2.57123e-06 1.28943e-06 -0.000227185
0.00148916 -0.000193551 2.11156e-06
-0.000193551 0.000209533 -1.17923e-06
2.11156e-06 -1.17923e-06 3.1008e-05
0.00132429 -0.000192411 1.83627e-06
-0.000192411 5.06654e-05 1.83053e-06
1.83627e-06 1.83053e-06 -0.000114066
0.00106488 -0.000147103 -1.488e-07
-0.000147103 0.000130151 1.43325e-06
-1.488e-07 1.43325e-06 -1.14961e-05
0.00104567 -0.000154075 1.12573e-06
-0.000154075 9.46648e-05 -5.92175e-07
1.12573e-06 -5.92175e-07 -6.81162e-05
0.000736832 -0.00014793 2.44075e-07
-0.00014793 -9.63593e-05 -2.69664e-06
2.44075e-07 -2.69664e-06 -0.000290682
0.000942861 -0.000115745 -1.64738e-06
-0.000115745 0.000104652 2.19061e-07
-1.64738e-06 2.19061e-07 -9.67335e-06
0.00104972 -0.000137714 -1.19325e-07
-0.000137714 0.000159296 -6.22528e-07
-1.19325e-07 -6.22528e-07 2.78124e-05
0.00079453 -0.000125939 -5.56039e-07
-0.000125939 2.65907e-05 -2.98119e-06
-5.56039e-07 -2.98119e-06 -0.000108337
0.000775561 6.47545e-06 2.94633e-07
6.47545e-06 4.53174e-05 3.16111e-06
2.94633e-07 3.16111e-06 -3.2769e-05
0.000926096 -6.84843e-05 9.92955e-07
-6.84843e-05 0.000122284 4.49018e-07
9.92955e-07 4.49018e-07 1.44595e-05
0.000829192 -9.33752e-05 -9.44732e-08
-9.33752e-05 7.9749e-05 1.03967e-06
-9.44732e-08 1.03967e-06 -4.49383e-05
0.000577053 6.0299e-05 -8.51517e-07
6.0299e-05 -5.15446e-05 4.37103e-06
-8.51517e-07 4.37103e-06 -7.69617e-05
0.000713829 2.52936e-05 -6.92392e-07
2.52936e-05 1.28726e-05 -3.87998e-07
-6.92392e-07 -3.87998e-07 -5.05896e-05
0.000889401 -2.76712e-05 -8.60014e-08
-2.76712e-05 0.000117423 -1.68134e-06
-8.60014e-08 -1.68134e-06 2.01984e-05
0.0021815 8.33004e-05 -9.57225e-06
8.33004e-05 0.000833941 1.24238e-06
-9.57225e-06 1.24238e-06 0.00084084
0.000664133 5.47309e-05 -1.49236e-08
5.47309e-05 -1.25466e-05 -8.88834e-08
-1.49236e-08 -8.88834e-08 -3.16419e-05
0.000701924 4.02175e-05 1.11893e-06
4.02175e-05 2.3221e-06 -2.26159e-06
1.11893e-06 -2.26159e-06 -4.79798e-05
0.00212943 6.74274e-05 1.25094e-06
6.74274e-05 0.000794807 9.7466e-08
1.25094e-06 9.7466e-08 0.000806319
0.000706565 5.0032e-05 1.2569e-06
5.0032e-05 -1.81154e-07 -3.45535e-06
1.2569e-06 -3.45535e-06 -1.45861e-05
0.00212943 6.09245e-05 2.56034e-05
6.09245e-05 0.000787527 -3.15478e-06
2.56034e-05 -3.15478e-06 0.000800855
0.000901467 3.46217e-05 -3.14285e-07
3.46217e-05 0.000111449 -1.75829e-07
-3.14285e-07 -1.75829e-07 2.76744e-05
0.000796957 -9.81858e-06 5.37538e-08
-9.81858e-06 4.76084e-05 -2.69627e-07
5.37538e-08 -2.69627e-07 -3.06003e-05
0.000801137 2.99531e-06 -2.99967e-07
2.99531e-06 4.97543e-05 -1.64738e-06
-2.99967e-07 -1.64738e-06 -2.36389e-05
0.000728275 -4.39407e-05 -7.00296e-07
-4.39407e-05 9.60464e-07 -2.27179e-06
-7.00296e-07 -2.27179e-06 -4.36124e-05
0.000783252 -1.06167e-05 8.36052e-07
-1.06167e-05 3.55155e-05 -7.99394e-08
8.36052e-07 -7.99394e-08 -3.20444e-05
0.000762089 -6.94708e-06 4.41594e-07
-6.94708e-06 3.13601e-05 7.19077e-07
4.41594e-07 7.19077e-07 -4.5544e-05
0.000678 -4.10465e-05 -1.20919e-06
-4.10465e-05 -2.82227e-05 -3.81828e-06
-1.20919e-06 -3.81828e-06 -4.20773e-05
0.00074027 -3.1939e-05 -1.97342e-07
-3.1939e-05 8.78483e-07 1.79325e-08
-1.97342e-07 1.79325e-08 -4.1059e-05
0.00078442 -6.15325e-06 1.16645e-06
-6.15325e-06 3.14869e-05 8.3939e-07
1.16645e-06 8.3939e-07 -3.18127e-05
0.00228135 -5.38397e-05 -2.4635e-05
-5.38397e-05 0.000860431 -3.74472e-06
-2.4635e-05 -3.74472e-06 0.00087484
0.00067397 -3.53218e-05 -2.25219e-07
-3.53218e-05 -3.68711e-05 2.5815e-08
-2.25219e-07 2.5815e-08 -4.87716e-05
0.000753085 -2.26244e-05 8.47477e-07
-2.26244e-05 4.65577e-06 1.6956e-06
8.47477e-07 1.6956e-06 -3.56245e-05
0.00223642 -4.53088e-05 -2.39955e-06
-4.53088e-05 0.000828706 1.14065e-07
-2.39955e-06 1.14065e-07 0.000844995
0.000681019 -2.97507e-05 3.23168e-07
-2.97507e-05 -3.90223e-05 3.5531e-06
3.23168e-07 3.5531e-06 -4.86733e-05
0.00216938 -3.58432e-05 1.52446e-05
-3.58432e-05 0.000785372 4.15348e-06
1.52446e-05 4.15348e-06 0.000803648
-0.00233239 -0.000118447 3.56235e-05
-0.000118447 -0.000435519 1.85368e-05
3.56235e-05 1.85368e-05 -0.00105325
0.00188412 -5.28227e-05 2.1577e-06
-5.28227e-05 0.000359616 7.22038e-06
2.1577e-06 7.22038e-06 6.05073e-05
0.00124245 -2.10108e-05 -8.69362e-06
-2.10108e-05 0.000106195 -6.17732e-06
-8.69362e-06 -6.17732e-06 -3.55062e-05
0.000843019 1.0223e-05 -9.06323e-07
1.0223e-05 8.52442e-05 6.86574e-07
-9.06323e-07 6.86574e-07 -1.50402e-06
0.00108146 0.000120124 1.89164e-07
0.000120124 0.00022898 7.75616e-07
1.89164e-07 7.75616e-07 0.000123165
0.000861917 2.69584e-05 -4.0636e-07
2.69584e-05 0.000103982 5.29214e-08
-4.0636e-07 5.29214e-08 9.71356e-06
0.000956994 -3.86692e-05 2.8094e-07
-3.86692e-05 0.000133978 -3.57333e-07
2.8094e-07 -3.57333e-07 5.97903e-05
0.000927667 2.90703e-05 6.41142e-07
2.90703e-05 0.000120674 4.72655e-07
6.41142e-07 4.72655e-07 4.03712e-05
0.000711823 -1.985e-05 -7.61691e-07
-1.985e-05 6.94137e-06 1.61855e-06
-7.61691e-07 1.61855e-06 -7.38193e-05
0.000738837 3.29782e-06 -7.23178e-07
3.29782e-06 2.89476e-05 -1.13289e-08
-7.23178e-07 -1.13289e-08 -5.65698e-05
0.000799811 6.71311e-06 2.10697e-07
6.71311e-06 6.01007e-05 -1.52704e-07
2.10697e-07 -1.52704e-07 -2.85112e-05
0.000995305 5.38491e-05 1.45173e-06
5.38491e-05 0.000188966 -1.881e-06
1.45173e-06 -1.881e-06 8.49833e-05
0.00087506 7.04486e-05 4.31462e-06
7.04486e-05 8.34197e-05 -4.23973e-06
4.31462e-06 -4.23973e-06 -8.63864e-07
0.00084749 3.0356e-05 -2.50308e-07
3.0356e-05 8.75086e-05 -9.0208e-07
-2.50308e-07 -9.0208e-07 5.51386e-06
0.000988397 3.76105e-05 7.34777e-07
3.76105e-05 0.000183221 8.37335e-07
7.34777e-07 8.37335e-07 0.000102857
-0.00260885 -0.000356751 -4.48396e-05
-0.000356751 -0.00111837 1.71519e-05
-4.48396e-05 1.71519e-05 -0.00124472
-0.000620031 -0.00033008 3.20272e-05
-0.00033008 -4.68296e-05 1.17378e-05
3.20272e-05 1.17378e-05 -0.000152931
0.00225468 -2.76662e-05 -5.04781e-05
-2.76662e-05 0.000523828 -3.96894e-05
-5.04781e-05 -3.96894e-05 -9.2043e-05
-0.00368004 -0.000676111 3.66471e-05
-0.000676111 -0.00281874 5.68434e-05
3.66471e-05 5.68434e-05 -0.00124919
0.00549095 -0.000674536 -1.01531e-05
-0.000674536 0.00156612 -1.07153e-05
-1.01531e-05 -1.07153e-05 0.00167319
0.00311391 0.000353426 5.25439e-05
0.000353426 0.000828902 -6.49477e-06
5.25439e-05 -6.49477e-06 -0.0013162
0.00298113 -0.000251101 -0.000134898
-0.000251101 0.000345025 8.11386e-05
-0.000134898 8.11386e-05 -0.000215185
0.00326779 0.000133236 -2.82413e-05
0.000133236 0.000444748 5.09174e-06
-2.82413e-05 5.09174e-06 0.000160441
0.00443939 -0.000765334 -1.75783e-05
-0.000765334 0.00185952 2.2306e-05
-1.75783e-05 2.2306e-05 0.00202795
0.00170881 9.95105e-05 9.3146e-06
9.95105e-05 0.000271332 1.54542e-05
9.3146e-06 1.54542e-05 -0.00163017
0.0023947 0.000378396 -0.000107894
0.000378396 0.000540819 -7.97729e-05
-0.000107894 -7.97729e-05 -0.000213896
0.00205815 0.000423086 -0.0001454
0.000423086 0.000322568 -5.37395e-05
-0.0001454 -5.37395e-05 -0.00149759
0.00223952 0.00032989 1.19793e-05
0.00032989 0.000619964 -1.18054e-05
1.19793e-05 -1.18054e-05 0.000478561
0.000777103 0.000134479 -2.57728e-06
0.000134479 5.80461e-05 4.55146e-07
-2.57728e-06 4.55146e-07 -2.07039e-06
0.00111121 2.30309e-05 -1.39494e-06
2.30309e-05 0.000242654 -2.71842e-06
-1.39494e-06 -2.71842e-06 0.000182572
0.000232403 0.000130531 -3.28388e-05
0.000130531 -2.36834e-05 -1.4686e-05
-3.28388e-05 -1.4686e-05 -0.000300277
0.00158778 0.000122627 -6.25525e-06
0.000122627 0.000575842 -6.2639e-06
-6.25525e-06 -6.2639e-06 0.000487654
0.00120451 0.000251827 9.11194e-06
0.000251827 0.000188313 -7.81006e-07
9.11194e-06 -7.81006e-07 5.1489e-05
0.00177515 0.000356714 5.70321e-05
0.000356714 7.13089e-06 3.09611e-05
5.70321e-05 3.09611e-05 -3.28351e-05
-0.003522 -4.70191e-05 -9.6061e-05
-4.70191e-05 -0.00172343 -5.0678e-06
-9.6061e-05 -5.0678e-06 -0.00149113
-0.000612699 -1.18443e-05 2.86142e-05
-1.18443e-05 0.000627467 5.76141e-07
2.86142e-05 5.76141e-07 7.75839e-05
0.00150202 -2.39573e-05 -4.17229e-05
-2.39573e-05 0.000226499 4.36798e-06
-4.17229e-05 4.36798e-06 1.3647e-05
0.00168292 -0.000175935 -3.68176e-05
-0.000175935 0.000156986 -1.90268e-05
-3.68176e-05 -1.90268e-05 0.000410759
0.00350655 -0.000615534 -6.61655e-05
-0.000615534 0.000533537 -1.49727e-06
-6.61655e-05 -1.49727e-06 -0.0001687
0.00131142 0.000117732 -3.98212e-05
0.000117732 0.00139915 1.84189e-05
-3.98212e-05 1.84189e-05 0.00115082
-0.00136003 -6.83961e-05 5.44192e-05
-6.83961e-05 -0.00101361 -5.64229e-05
5.44192e-05 -5.64229e-05 -0.00302034
0.0101167 0.000533729 -7.56162e-05
0.000533729 0.00502431 1.02312e-05
-7.56162e-05 1.02312e-05 0.0049893
0.00170203 -0.000305324 4.3953e-06
-0.000305324 0.000184931 1.55514e-06
4.3953e-06 1.55514e-06 0.000165604
-0.000744881 0.000266337 -1.69313e-06
0.000266337 -0.000237206 -4.65341e-06
-1.69313e-06 -4.65341e-06 -0.000370355
0.00231111 0.000146023 -1.56988e-05
0.000146023 0.000233982 1.90917e-05
-1.56988e-05 1.90917e-05 -0.00148229
0.00520989 -0.000509887 -2.58587e-05
-0.000509887 0.00130242 8.99715e-06
-2.58587e-05 8.99715e-06 0.000501812
-0.000576498 -0.00013293 5.103e-06
-0.00013293 -0.00078513 -3.3591e-06
5.103e-06 -3.3591e-06 -0.00098287
0.00810425 -8.27902e-05 5.96639e-05
-8.27902e-05 0.00257854 -3.59404e-06
5.96639e-05 -3.59404e-06 0.00166024
0.00423308 -0.00012148 1.21247e-05
-0.00012148 0.000913475 -1.20772e-05
1.21247e-05 -1.20772e-05 0.000392845
-0.000258205 -0.000111878 -1.50925e-05
-0.000111878 -0.00070844 3.33487e-06
-1.50925e-05 3.33487e-06 -0.000653429
0.00108718 -0.000190857 -1.10957e-06
-0.000190857 -0.000284873 -7.35745e-07
-1.10957e-06 -7.35745e-07 -0.000228854
0.00207332 -0.000255315 6.66258e-06
-0.000255315 6.24051e-05 -1.0724e-05
6.66258e-06 -1.0724e-05 0.000114199
0.00158775 -0.000256964 -7.18438e-06
-0.000256964 0.000170601 -3.23145e-06
-7.18438e-06 -3.23145e-06 9.8257e-06
0.00163925 -0.000265646 -3.03717e-08
-0.000265646 9.34532e-06 1.21555e-06
-3.03717e-08 1.21555e-06 -8.98915e-05
0.0020572 -0.000243533 -4.18807e-06
-0.000243533 0.000139992 -4.8548e-07
-4.18807e-06 -4.8548e-07 7.69665e-05
0.00123404 -0.000224377 2.28218e-07
-0.000224377 -3.58028e-05 2.34632e-06
2.28218e-07 2.34632e-06 -0.000192029
0.0016984 -0.000217011 -2.34798e-06
-0.000217011 5.58954e-05 -7.42536e-07
-2.34798e-06 -7.42536e-07 -5.92888e-05
0.00189624 -0.000180781 -1.25304e-06
-0.000180781 0.000105123 -1.96153e-06
-1.25304e-06 -1.96153e-06 1.71573e-05
0.00174307 -0.000218169 2.05025e-06
-0.000218169 0.000164288 2.81254e-06
2.05025e-06 2.81254e-06 2.00474e-05
0.00168568 -0.000174765 2.20127e-07
-0.000174765 8.50075e-05 -5.29142e-08
2.20127e-07 -5.29142e-08 -2.52814e-05
0.0017035 -0.000144529 5.89593e-07
-0.000144529 8.4102e-05 -1.53635e-06
5.89593e-07 -1.53635e-06 -1.17155e-05
0.0017514 -0.000139248 1.71178e-07
-0.000139248 0.000156386 -5.48716e-07
1.71178e-07 -5.48716e-07 5.1447e-05
0.00160844 -0.000152752 -1.46476e-06
-0.000152752 8.09519e-05 1.20287e-06
-1.46476e-06 1.20287e-06 -3.19161e-05
0.00167211 -0.000161498 8.92158e-08
-0.000161498 0.00016101 -2.53172e-06
8.92158e-08 -2.53172e-06 3.68371e-05
0.00161278 -0.000181659 -2.89612e-06
-0.000181659 0.000227016 -1.19989e-06
-2.89612e-06 -1.19989e-06 7.40672e-05
0.00179062 -0.00019412 1.20676e-06
-0.00019412 0.000270194 1.18175e-07
1.20676e-06 1.18175e-07 0.000117667
0.0016092 -0.000181272 6.07654e-08
-0.000181272 0.000115276 4.18594e-06
6.07654e-08 4.18594e-06 -1.93599e-05
0.000840129 -0.000141458 -3.5249e-06
-0.000141458 -6.25402e-05 2.94895e-06
-3.5249e-06 2.94895e-06 -0.000213918
0.00123443 -0.00016993 4.95456e-07
-0.00016993 0.000116964 -2.11734e-07
4.95456e-07 -2.11734e-07 -4.96538e-05
0.0014409 -0.000187937 3.33734e-06
-0.000187937 0.000184118 -8.69418e-07
3.33734e-06 -8.69418e-07 9.12842e-06
0.000955654 -0.000125505 -1.52285e-06
-0.000125505 8.43972e-05 7.54934e-07
-1.52285e-06 7.54934e-07 -3.76899e-05
0.00111053 -0.000148755 2.14554e-07
-0.000148755 0.000152071 -2.48527e-07
2.14554e-07 -2.48527e-07 1.02997e-05
0.000705003 -0.000132762 7.57931e-07
-0.000132762 -8.33193e-05 -4.3388e-06
7.57931e-07 -4.3388e-06 -0.000243956
0.000774056 -5.01358e-05 -2.77244e-06
-5.01358e-05 3.14532e-05 2.56595e-06
-2.77244e-06 2.56595e-06 -5.61905e-05
0.00102436 -0.000121742 8.54819e-08
-0.000121742 0.000147551 -1.10204e-07
8.54819e-08 -1.10204e-07 3.26402e-05
0.00113603 -0.000142524 6.30014e-07
-0.000142524 0.000203292 -7.85779e-07
6.30014e-07 -7.85779e-07 7.13832e-05
0.000538587 6.70026e-05 9.15441e-07
6.70026e-05 -6.68912e-05 5.62857e-06
9.15441e-07 5.62857e-06 -0.000101876
0.000760433 -1.00242e-05 1.11117e-07
-1.00242e-05 3.85987e-05 1.02636e-07
1.11117e-07 1.02636e-07 -4.20553e-05
0.00101868 -7.5537e-05 1.39563e-06
-7.5537e-05 0.00017206 -3.62768e-07
1.39563e-06 -3.62768e-07 6.30224e-05
0.00240361 8.64313e-05 -3.57414e-05
8.64313e-05 0.000960968 2.59737e-06
-3.57414e-05 2.59737e-06 0.00096648
0.000625314 6.58687e-05 -1.23476e-07
6.58687e-05 -2.32346e-05 -2.1481e-07
-1.23476e-07 -2.1481e-07 -5.0194e-05
0.000714225 -1.03899e-05 2.21012e-06
-1.03899e-05 1.05118e-05 -3.03082e-06
2.21012e-06 -3.03082e-06 -5.24589e-05
0.0015758 6.47838e-05 1.42362e-05
6.47838e-05 0.000496747 -5.42443e-07
1.42362e-05 -5.42443e-07 0.000501688
0.0006983 5.84574e-05 3.48467e-07
5.84574e-05 6.62533e-06 -4.0736e-06
3.48467e-07 -4.0736e-06 -1.31478e-05
0.00219498 6.88058e-05 3.00409e-05
6.88058e-05 0.00083231 -2.90772e-06
3.00409e-05 -2.90772e-06 0.000843259
0.000894728 5.25443e-05 5.32916e-07
5.25443e-05 0.000108322 3.97991e-07
5.32916e-07 3.97991e-07 1.64189e-05
0.000853173 -9.24585e-07 -2.71242e-07
-9.24585e-07 8.1271e-05 4.87511e-07
-2.71242e-07 4.87511e-07 8.4281e-07
0.00080268 -3.03542e-05 2.51855e-07
-3.03542e-05 5.49559e-05 -1.52619e-06
2.51855e-07 -1.52619e-06 -2.23487e-05
0.000868621 9.16321e-06 9.70123e-08
9.16321e-06 8.69738e-05 5.67359e-07
9.70123e-08 5.67359e-07 7.67708e-06
0.000788584 -2.88909e-05 4.20576e-07
-2.88909e-05 3.95114e-05 -8.19449e-08
4.20576e-07 -8.19449e-08 -3.10479e-05
0.000699393 -4.40478e-05 -6.6909e-07
-4.40478e-05 -8.48852e-06 -2.5051e-06
-6.6909e-07 -2.5051e-06 -5.63823e-05
0.000680746 -4.63107e-05 -1.57224e-06
-4.63107e-05 -1.94012e-05 -3.95453e-06
-1.57224e-06 -3.95453e-06 -3.52302e-05
0.000727914 -4.01474e-05 9.38566e-08
-4.01474e-05 3.37846e-07 -3.3841e-08
9.38566e-08 -3.3841e-08 -4.38758e-05
0.000771845 -5.13666e-05 -2.73108e-07
-5.13666e-05 2.58705e-05 1.28383e-06
-2.73108e-07 1.28383e-06 -3.86043e-05
0.00228689 -6.13519e-05 -2.8461e-05
-6.13519e-05 0.000870465 -3.46838e-06
-2.8461e-05 -3.46838e-06 0.000883258
0.000665789 -4.00218e-05 -2.43102e-07
-4.00218e-05 -3.49234e-05 3.98607e-08
-2.43102e-07 3.98607e-08 -4.86731e-05
0.000741597 -2.36779e-05 1.59068e-06
-2.36779e-05 1.06099e-06 1.89535e-06
1.59068e-06 1.89535e-06 -4.03961e-05
0.00227582 -5.35816e-05 -2.0411e-06
-5.35816e-05 0.000856721 1.30839e-07
-2.0411e-06 1.30839e-07 0.000871238
0.000669338 -3.4604e-05 6.30087e-07
-3.4604e-05 -3.93051e-05 3.72066e-06
6.30087e-07 3.72066e-06 -5.1158e-05
0.00221605 -4.47795e-05 1.87295e-05
-4.47795e-05 0.000816813 4.00472e-06
1.87295e-05 4.00472e-06 0.000833322
0.000799033 0.000146437 5.78652e-05
0.000146437 0.000834672 3.48492e-05
5.78652e-05 3.48492e-05 0.000311793
-0.000451412 -0.000160275 1.75945e-06
-0.000160275 0.000392654 6.45682e-06
1.75945e-06 6.45682e-06 -0.000103913
0.00183496 -5.90182e-05 -4.49723e-05
-5.90182e-05 0.00036356 -1.19914e-05
-4.49723e-05 -1.19914e-05 6.67678e-05
0.000804175 -2.26631e-05 -4.3832e-08
-2.26631e-05 6.24819e-05 7.05348e-07
-4.3832e-08 7.05348e-07 -2.25738e-05
0.000831348 9.79196e-07 -7.95871e-08
9.79196e-07 8.40924e-05 7.07716e-07
-7.95871e-08 7.07716e-07 -9.1989e-06
0.000934812 0.000105755 -1.31243e-07
0.000105755 0.000153173 2.77822e-07
-1.31243e-07 2.77822e-07 4.91924e-05
0.00112118 0.000140343 1.10999e-06
0.000140343 0.000237074 1.83042e-07
1.10999e-06 1.83042e-07 0.00011898
0.000917183 8.5298e-05 -1.29934e-06
8.5298e-05 0.000151398 -6.12231e-07
-1.29934e-06 -6.12231e-07 4.15114e-05
0.00080873 3.55961e-05 4.55384e-07
3.55961e-05 6.61883e-05 1.17368e-06
4.55384e-07 1.17368e-06 -2.00672e-05
0.00073983 1.29513e-05 1.87176e-07
1.29513e-05 2.67622e-05 1.21854e-06
1.87176e-07 1.21854e-06 -6.14506e-05
0.000713724 5.62621e-05 -1.08046e-06
5.62621e-05 3.47857e-05 -1.10854e-06
-1.08046e-06 -1.10854e-06 -6.59913e-05
0.000141262 7.57857e-05 -9.10516e-08
7.57857e-05 -0.000266571 3.12511e-07
-9.10516e-08 3.12511e-07 -0.000382678
0.000926808 0.000119482 1.18154e-06
0.000119482 0.000103995 -4.05593e-06
1.18154e-06 -4.05593e-06 1.01312e-06
0.00189171 0.000253533 6.11668e-06
0.000253533 0.000405669 -9.85174e-06
6.11668e-06 -9.85174e-06 0.000268311
0.00077994 6.88635e-05 -1.46146e-06
6.88635e-05 5.20884e-05 -3.38611e-07
-1.46146e-06 -3.38611e-07 -3.19495e-05
0.000734408 6.18389e-06 -6.13359e-07
6.18389e-06 3.56581e-05 -8.67394e-07
-6.13359e-07 -8.67394e-07 -3.96441e-05
0.00992026 -9.44068e-06 -4.44438e-05
-9.44068e-06 0.00323909 -3.85214e-06
-4.44438e-05 -3.85214e-06 0.00198033
-0.00196199 -0.000278358 -4.89706e-05
-0.000278358 -0.000514125 -7.9391e-06
-4.89706e-05 -7.9391e-06 -0.000911023
0.000872777 -0.000361003 -2.54634e-05
-0.000361003 0.000594656 -2.64297e-05
-2.54634e-05 -2.64297e-05 0.00045338
-0.00306628 -0.000361601 5.12011e-06
-0.000361601 -0.00163353 2.29508e-05
5.12011e-06 2.29508e-05 -0.00143096
0.00939775 -0.000353062 8.33981e-05
-0.000353062 0.00402716 2.41372e-06
8.33981e-05 2.41372e-06 0.00168595
0.00309651 0.000166303 -9.59899e-06
0.000166303 0.000487118 1.27276e-05
-9.59899e-06 1.27276e-05 0.000358654
0.00142549 0.000345466 -4.47967e-05
0.000345466 -9.65094e-05 -2.05048e-05
-4.47967e-05 -2.05048e-05 -0.000705563
0.00718435 -0.000267752 5.40942e-05
-0.000267752 0.00243228 1.71927e-05
5.40942e-05 1.71927e-05 0.000953889
0.00344575 0.000428512 6.65159e-06
0.000428512 0.000345531 -3.06488e-05
6.65159e-06 -3.06488e-05 -0.000211654
0.00206194 0.000377394 7.21015e-06
0.000377394 0.000313737 1.3398e-05
7.21015e-06 1.3398e-05 0.000153707
0.000879907 0.000226875 2.48364e-06
0.000226875 1.84091e-06 -5.18745e-06
2.48364e-06 -5.18745e-06 -0.000146725
0.000934619 0.000125364 -9.07173e-06
0.000125364 0.000139877 4.93648e-06
-9.07173e-06 4.93648e-06 8.33318e-05
0.00133377 0.000273067 -3.14591e-05
0.000273067 0.000188019 -1.50325e-05
-3.14591e-05 -1.50325e-05 6.4731e-05
0.00107406 0.000328899 -1.68716e-05
0.000328899 -0.000302101 1.46575e-05
-1.68716e-05 1.46575e-05 -0.000365217
0.000507901 -0.000123503 -1.07299e-05
-0.000123503 -0.00155622 -1.34743e-06
-1.07299e-05 -1.34743e-06 -0.00195132
0.00191295 -6.35191e-05 -3.27818e-06
-6.35191e-05 0.00112711 -4.0749e-06
-3.27818e-06 -4.0749e-06 0.00104391
-0.00153987 -2.05206e-05 5.3715e-06
-2.05206e-05 0.000266018 -1.17626e-07
5.3715e-06 -1.17626e-07 -0.00034827
0.00276793 -0.000392051 -5.30781e-05
-0.000392051 0.000644337 3.90857e-06
-5.30781e-05 3.90857e-06 0.000573209
0.00362733 -0.000466898 -1.7744e-05
-0.000466898 0.00065432 -1.56001e-05
-1.7744e-05 -1.56001e-05 -0.00046089
0.000305128 -9.56634e-05 -4.44503e-06
-9.56634e-05 0.000452035 1.52466e-05
-4.44503e-06 1.52466e-05 0.000164808
0.00988369 0.000329467 -4.40202e-05
0.000329467 0.00405566 2.92892e-05
-4.40202e-05 2.92892e-05 0.0025062
0.000593251 -0.000184372 -2.49142e-06
-0.000184372 -0.000255392 -6.83986e-07
-2.49142e-06 -6.83986e-07 -0.000389888
0.00616349 0.000136926 1.76422e-05
0.000136926 0.00156299 1.62492e-05
1.76422e-05 1.62492e-05 0.000743376
0.00354897 -0.000202652 4.14248e-05
-0.000202652 0.000294447 -1.3346e-06
4.14248e-05 -1.3346e-06 -0.000466658
0.00301394 -0.000223821 -2.77113e-06
-0.000223821 0.00100612 2.60225e-06
-2.77113e-06 2.60225e-06 0.000766373
0.00330368 -6.05671e-05 -8.891e-05
-6.05671e-05 0.000710412 -7.82656e-06
-8.891e-05 -7.82656e-06 0.000416295
0.000237225 -0.000163135 -1.01524e-05
-0.000163135 -0.000735988 3.23278e-06
-1.01524e-05 3.23278e-06 -0.000664791
0.00153791 -0.00024532 -4.08497e-08
-0.00024532 -0.000190899 6.08104e-07
-4.08497e-08 6.08104e-07 -0.000162681
0.00193891 -0.000172353 3.05852e-07
-0.000172353 -2.11753e-05 -7.75727e-07
3.05852e-07 -7.75727e-07 -1.41192e-05
0.0013437 -0.000250395 2.98773e-06
-0.000250395 -0.000142717 1.33783e-06
2.98773e-06 1.33783e-06 -0.000236689
0.00176685 -0.000222231 -5.5207e-07
-0.000222231 1.35467e-05 -4.18472e-07
-5.5207e-07 -4.18472e-07 -4.85995e-05
0.00182484 -0.000149058 -2.46638e-06
-0.000149058 -2.04848e-05 4.95602e-07
-2.46638e-06 4.95602e-07 -6.15954e-05
0.00137547 -0.00020416 -3.34748e-06
-0.00020416 -0.000118846 2.55351e-06
-3.34748e-06 2.55351e-06 -0.000233513
0.00179025 -0.00017595 2.8087e-07
-0.00017595 4.6728e-05 1.21141e-06
2.8087e-07 1.21141e-06 -4.06877e-05
0.00180777 -0.000142586 2.16854e-06
-0.000142586 8.71996e-05 2.49198e-08
2.16854e-06 2.49198e-08 8.99309e-06
0.00166706 -0.000172444 7.8262e-07
-0.000172444 7.67761e-05 2.89619e-06
7.8262e-07 2.89619e-06 -3.30048e-05
0.00170963 -0.00014632 -2.80955e-07
-0.00014632 8.86227e-05 7.10636e-07
-2.80955e-07 7.10636e-07 -7.99218e-06
0.00177479 -0.000128998 1.76335e-06
-0.000128998 0.000141845 -3.09259e-07
1.76335e-06 -3.09259e-07 4.67878e-05
0.00165447 -0.000136564 -2.46136e-06
-0.000136564 0.000102821 1.18954e-06
-2.46136e-06 1.18954e-06 -1.07062e-06
0.00170298 -0.000139077 2.07989e-06
-0.000139077 0.000156554 -1.02046e-06
2.07989e-06 -1.02046e-06 4.46096e-05
0.00161142 -0.00015042 -3.15057e-07
-0.00015042 8.12328e-05 2.94093e-06
-3.15057e-07 2.94093e-06 -2.96369e-05
0.00166306 -0.000160602 3.58903e-07
-0.000160602 0.000153121 -1.01006e-07
3.58903e-07 -1.01006e-07 2.95057e-05
0.00165992 -0.000161339 -3.87165e-07
-0.000161339 0.000198042 -1.62815e-06
-3.87165e-07 -1.62815e-06 6.57556e-05
0.00109927 -0.000150958 -4.19131e-06
-0.000150958 -5.09334e-06 9.74477e-07
-4.19131e-06 9.74477e-07 -0.000152046
0.00156433 -0.000178308 2.73162e-07
-0.000178308 0.000201726 -5.36664e-07
2.73162e-07 -5.36664e-07 4.83271e-05
0.0017352 -0.000190613 2.42867e-06
-0.000190613 0.000240462 2.49927e-06
2.42867e-06 2.49927e-06 8.82505e-05
0.00106946 -0.000139528 -2.74574e-06
-0.000139528 0.000100823 1.98318e-06
-2.74574e-06 1.98318e-06 -3.04413e-05
0.000948267 -0.000146022 -1.10985e-06
-0.000146022 -3.98156e-07 1.19891e-06
-1.10985e-06 1.19891e-06 -0.000150816
0.0015319 -0.000183985 3.37075e-06
-0.000183985 0.000280328 -1.86716e-06
3.37075e-06 -1.86716e-06 0.000114629
0.000735669 -6.98848e-05 -3.2826e-06
-6.98848e-05 -9.21568e-06 2.10134e-06
-3.2826e-06 2.10134e-06 -0.000101774
0.00105418 -0.000132237 1.52442e-07
-0.000132237 0.000135709 -3.31905e-07
1.52442e-07 -3.31905e-07 1.28015e-05
0.00116716 -0.000151197 1.38571e-06
-0.000151197 0.000180031 -2.16786e-06
1.38571e-06 -2.16786e-06 3.80249e-05
0.00054352 3.11766e-05 -2.45793e-06
3.11766e-05 -7.50385e-05 6.32095e-06
-2.45793e-06 6.32095e-06 -0.000113898
0.000817875 -5.44355e-05 2.10027e-07
-5.44355e-05 5.46097e-05 2.901e-07
2.10027e-07 2.901e-07 -3.36596e-05
0.001087 -0.000119689 1.7045e-06
-0.000119689 0.000179352 -3.91262e-07
1.7045e-06 -3.91262e-07 6.50266e-05
0.00270949 9.91522e-05 -4.30082e-05
9.91522e-05 0.00113246 2.53553e-06
-4.30082e-05 2.53553e-06 0.00113429
0.000596278 5.09253e-05 7.43944e-07
5.09253e-05 -3.97955e-05 -2.15703e-07
7.43944e-07 -2.15703e-07 -7.26066e-05
0.00076619 -4.42363e-05 2.45095e-06
-4.42363e-05 3.73494e-05 -2.71246e-06
2.45095e-06 -2.71246e-06 -4.21463e-05
0.00249424 8.71052e-05 1.45445e-06
8.71052e-05 0.00101006 1.4205e-07
1.45445e-06 1.4205e-07 0.0010153
0.000669976 6.10748e-05 -1.79144e-07
6.10748e-05 5.71704e-08 -4.96555e-06
-1.79144e-07 -4.96555e-06 -2.64278e-05
0.00234799 7.75103e-05 3.63573e-05
7.75103e-05 0.000924015 -2.74407e-06
3.63573e-05 -2.74407e-06 0.000932184
0.000995853 0.000124702 7.04727e-07
0.000124702 0.000156226 -3.6115e-07
7.04727e-07 -3.6115e-07 4.51124e-05
0.000841648 8.36138e-05 3.61098e-07
8.36138e-05 8.38475e-05 6.40203e-08
3.61098e-07 6.40203e-08 -1.12117e-05
0.000739575 -2.28747e-05 -3.73399e-07
-2.28747e-05 2.41419e-05 -9.72911e-07
-3.73399e-07 -9.72911e-07 -6.34652e-05
0.000787815 -3.12326e-05 -4.38586e-07
-3.12326e-05 4.52514e-05 9.37918e-07
-4.38586e-07 9.37918e-07 -3.4415e-05
0.000765245 -4.3682e-05 2.21142e-07
-4.3682e-05 3.34303e-05 5.30018e-08
2.21142e-07 5.30018e-08 -4.35903e-05
0.000676463 -4.29306e-05 -7.2831e-07
-4.29306e-05 -1.57123e-05 -2.70865e-06
-7.2831e-07 -2.70865e-06 -7.03967e-05
0.000760217 -5.03929e-05 -2.69146e-07
-5.03929e-05 2.31068e-05 1.58639e-06
-2.69146e-07 1.58639e-06 -4.62904e-05
0.000709002 -4.86615e-05 3.16302e-07
-4.86615e-05 -2.79765e-06 -1.5655e-07
3.16302e-07 -1.5655e-07 -5.10693e-05
0.000676478 -5.47098e-05 -1.19025e-06
-5.47098e-05 -1.21586e-05 -4.20474e-06
-1.19025e-06 -4.20474e-06 -3.12041e-05
0.00229143 -6.87992e-05 -3.18212e-05
-6.87992e-05 0.000880704 -3.1576e-06
-3.18212e-05 -3.1576e-06 0.000891682
0.000664382 -4.49739e-05 -4.67278e-08
-4.49739e-05 -2.83003e-05 2.0747e-08
-4.67278e-08 2.0747e-08 -4.39746e-05
0.000727281 -3.72373e-05 1.69548e-06
-3.72373e-05 -3.0913e-07 2.05938e-06
1.69548e-06 2.05938e-06 -4.41971e-05
0.00229075 -6.12026e-05 -1.78647e-06
-6.12026e-05 0.000871815 1.36075e-07
-1.78647e-06 1.36075e-07 0.000884651
0.000658861 -3.90923e-05 9.85881e-07
-3.90923e-05 -3.87144e-05 3.86873e-06
9.85881e-07 3.86873e-06 -5.23824e-05
0.00226646 -5.32187e-05 2.29123e-05
-5.32187e-05 0.000850931 3.83004e-06
2.29123e-05 3.83004e-06 0.000865578
0.00852427 0.00016265 8.93428e-05
0.00016265 0.0025996 2.93453e-05
8.93428e-05 2.93453e-05 0.001675
-0.00245927 -0.000179592 -2.27772e-05
-0.000179592 -0.00125717 -2.49443e-06
-2.27772e-05 -2.49443e-06 -0.00128949
-0.00179329 -8.46231e-05 -4.47535e-05
-8.46231e-05 -0.000236969 -8.07119e-06
-4.47535e-05 -8.07119e-06 -0.000901869
0.000798004 -2.93628e-05 3.25948e-07
-2.93628e-05 6.34035e-05 1.51173e-06
3.25948e-07 1.51173e-06 -2.92888e-05
0.000791218 0.000104394 -7.1607e-07
0.000104394 7.83588e-05 5.00989e-07
-7.1607e-07 5.00989e-07 -2.36591e-05
0.0010115 8.96258e-05 4.86499e-07
8.96258e-05 0.000202636 -7.82085e-08
4.86499e-07 -7.82085e-08 9.28225e-05
0.00100662 0.00013274 -1.14951e-06
0.00013274 0.000176577 1.16574e-07
-1.14951e-06 1.16574e-07 5.98606e-05
0.00111197 0.000144939 8.60169e-06
0.000144939 0.000212416 9.10803e-07
8.60169e-06 9.10803e-07 8.10994e-05
0.00058973 0.000105682 -8.14106e-07
0.000105682 -2.88647e-05 -5.89194e-08
-8.14106e-07 -5.89194e-08 -0.000146067
0.000450354 5.71953e-05 -1.0063e-06
5.71953e-05 -0.000105995 -2.38398e-08
-1.0063e-06 -2.38398e-08 -0.000205916
0.000554641 0.000104661 5.08325e-07
0.000104661 -5.32009e-05 6.30542e-07
5.08325e-07 6.30542e-07 -0.000176268
0.000840997 0.000101157 -8.8197e-07
0.000101157 6.24922e-05 -1.35259e-07
-8.8197e-07 -1.35259e-07 -4.32114e-05
0.000208583 0.000108197 1.35606e-06
0.000108197 -0.000320518 -1.43771e-06
1.35606e-06 -1.43771e-06 -0.000445318
0.00307245 0.000298724 -3.93904e-07
0.000298724 0.00102572 -3.19411e-06
-3.93904e-07 -3.19411e-06 0.000890649
0.00123852 0.000251815 3.4405e-06
0.000251815 -8.60123e-05 -1.59734e-06
3.4405e-06 -1.59734e-06 -0.000233912
0.00141727 0.00022565 2.51318e-06
0.00022565 0.000173804 -1.99894e-06
2.51318e-06 -1.99894e-06 4.22945e-05
0.000774225 7.48532e-05 -5.29594e-06
7.48532e-05 6.40526e-05 3e-06
-5.29594e-06 3e-06 -1.95464e-05
0.00303057 0.000110977 -2.10012e-06
0.000110977 -1.23978e-05 -2.38223e-07
-2.10012e-06 -2.38223e-07 -0.000299132
0.00577256 5.50034e-06 1.80405e-05
5.50034e-06 0.00144446 7.52072e-06
1.80405e-05 7.52072e-06 0.000220189
0.00506912 -0.00063624 -3.08823e-05
-0.00063624 0.00254608 -3.2744e-05
-3.08823e-05 -3.2744e-05 0.00250237
0.00721585 -1.81547e-05 0.000253942
-1.81547e-05 0.00249035 7.12944e-05
0.000253942 7.12944e-05 0.000638984
0.00175797 0.000339241 2.94317e-05
0.000339241 -8.61888e-05 3.63836e-05
2.94317e-05 3.63836e-05 -0.000292762
0.00233406 0.000316617 -6.71722e-05
0.000316617 3.3279e-05 -2.02699e-05
-6.71722e-05 -2.02699e-05 -0.000342816
0.00265208 0.000355348 4.25481e-05
0.000355348 0.000410477 2.09984e-05
4.25481e-05 2.09984e-05 0.000411436
0.0021443 0.000375628 -4.71956e-07
0.000375628 0.000347445 5.28494e-06
-4.71956e-07 5.28494e-06 0.000209649
0.000346342 0.000181876 -2.37509e-06
0.000181876 -0.000252916 6.13543e-06
-2.37509e-06 6.13543e-06 -0.000394209
0.00225531 0.000412631 -7.54804e-05
0.000412631 0.000282711 -4.59218e-05
-7.54804e-05 -4.59218e-05 0.00019857
0.00295629 -0.000131589 -0.000141011
-0.000131589 0.000494519 1.38749e-07
-0.000141011 1.38749e-07 0.000108858
0.00819856 -7.53054e-05 1.53411e-05
-7.53054e-05 0.00261422 -4.9048e-07
1.53411e-05 -4.9048e-07 0.00200499
-0.0058143 -0.000138262 9.91136e-05
-0.000138262 -0.00302551 3.29149e-07
9.91136e-05 3.29149e-07 -0.00294309
0.00162198 -0.000221882 -4.92567e-06
-0.000221882 0.00023611 5.92518e-06
-4.92567e-06 5.92518e-06 0.000125254
0.00542793 -0.000257808 9.66174e-05
-0.000257808 0.00130079 1.17193e-06
9.66174e-05 1.17193e-06 0.000592272
0.000304186 -0.000287652 7.2484e-05
-0.000287652 -0.00129185 3.07962e-05
7.2484e-05 3.07962e-05 -0.00203631
0.00132005 -0.000143389 5.60942e-06
-0.000143389 0.000135107 -1.32684e-06
5.60942e-06 -1.32684e-06 -2.78047e-05
0.00168423 2.04961e-05 -4.86663e-06
2.04961e-05 -0.000235507 2.45842e-06
-4.86663e-06 2.45842e-06 -0.000518873
0.0050115 -0.000150559 5.20764e-06
-0.000150559 0.00182418 -2.83768e-06
5.20764e-06 -2.83768e-06 0.00172237
0.00210371 7.62787e-06 3.87666e-05
7.62787e-06 0.000184991 -3.43604e-06
3.87666e-05 -3.43604e-06 0.000126648
0.000971621 -0.000238422 -3.76406e-06
-0.000238422 -0.000458563 3.09215e-06
-3.76406e-06 3.09215e-06 -0.000454341
0.00187146 -0.000178652 -3.9571e-07
-0.000178652 -4.76559e-05 1.0987e-06
-3.9571e-07 1.0987e-06 -5.12098e-05
0.00180434 -7.15104e-05 3.63451e-06
-7.15104e-05 -2.92937e-05 2.29455e-07
3.63451e-06 2.29455e-07 -5.46147e-05
0.00154037 -0.000204858 3.66575e-06
-0.000204858 -8.44434e-05 -1.49877e-07
3.66575e-06 -1.49877e-07 -0.000145647
0.00187687 -0.000151102 1.66657e-06
-0.000151102 1.88083e-05 5.08508e-07
1.66657e-06 5.08508e-07 -2.76688e-05
0.00169973 -8.88948e-05 2.42605e-06
-8.88948e-05 1.67076e-06 1.07683e-06
2.42605e-06 1.07683e-06 -5.49107e-05
0.00166268 -0.000170378 4.75965e-06
-0.000170378 -2.34902e-05 2.82549e-06
4.75965e-06 2.82549e-06 -0.000110336
0.00178728 -0.000139201 1.04534e-06
-0.000139201 8.60593e-05 4.94785e-07
1.04534e-06 4.94785e-07 7.29746e-06
0.00185798 -0.000108408 1.87494e-06
-0.000108408 0.000165669 4.38832e-07
1.87494e-06 4.38832e-07 7.93919e-05
0.00170997 -0.000147507 -8.17655e-07
-0.000147507 9.02578e-05 2.37786e-06
-8.17655e-07 2.37786e-06 -7.08089e-06
0.00171387 -0.000130092 -4.92989e-07
-0.000130092 0.000111572 3.55512e-07
-4.92989e-07 3.55512e-07 1.55158e-05
0.0016195 -0.000119922 2.81864e-06
-0.000119922 9.51406e-05 1.14689e-07
2.81864e-06 1.14689e-07 -1.21072e-05
0.00154447 -0.000133388 -2.00616e-06
-0.000133388 4.28705e-05 2.68682e-06
-2.00616e-06 2.68682e-06 -5.99606e-05
0.00163584 -0.000136018 -9.1858e-07
-0.000136018 0.000118393 -1.95827e-07
-9.1858e-07 -1.95827e-07 7.8595e-06
0.00171282 -0.000140913 6.6954e-07
-0.000140913 0.000196469 -7.46034e-07
6.6954e-07 -7.46034e-07 7.51791e-05
0.00166076 -0.000160062 4.36388e-07
-0.000160062 0.000148554 2.10321e-06
4.36388e-07 2.10321e-06 2.55149e-05
0.00163353 -0.000159585 5.79735e-07
-0.000159585 0.000183242 -6.80356e-07
5.79735e-07 -6.80356e-07 5.08618e-05
0.00161373 -0.000157041 -2.26511e-06
-0.000157041 0.000216602 -2.6865e-07
-2.26511e-06 -2.6865e-07 8.32152e-05
0.000830237 -0.000127312 -5.55969e-06
-0.000127312 -9.84895e-05 2.28135e-06
-5.55969e-06 2.28135e-06 -0.000230846
0.001187 -0.000153699 -8.71363e-07
-0.000153699 4.76839e-05 3.85513e-07
-8.71363e-07 3.85513e-07 -9.8775e-05
0.0015195 -0.000175088 3.0174e-06
-0.000175088 0.000178404 2.75291e-08
3.0174e-06 2.75291e-08 2.45407e-05
0.000843253 -9.5773e-05 -4.34514e-06
-9.5773e-05 2.03244e-05 2.97868e-06
-4.34514e-06 2.97868e-06 -8.0422e-05
0.00109914 -0.000140601 3.19709e-07
-0.000140601 0.00011479 1.95597e-07
3.19709e-07 1.95597e-07 -1.6257e-05
0.00106881 -0.000151289 9.82103e-07
-0.000151289 6.80691e-05 -4.91765e-07
9.82103e-07 -4.91765e-07 -8.14169e-05
0.00055842 7.41612e-06 -5.51287e-06
7.41612e-06 -7.23906e-05 6.66388e-06
-5.51287e-06 6.66388e-06 -0.00011832
0.000863551 -7.84355e-05 8.45246e-08
-7.84355e-05 6.04353e-05 -1.15812e-07
8.45246e-08 -1.15812e-07 -3.3497e-05
0.001146 -0.000138445 2.33975e-06
-0.000138445 0.000183419 -1.59196e-06
2.33975e-06 -1.59196e-06 5.97517e-05
0.00309094 0.000112904 -5.38858e-05
0.000112904 0.00134342 2.55013e-06
-5.38858e-05 2.55013e-06 0.00134117
0.0006153 2.35963e-05 3.23287e-07
2.35963e-05 -3.74208e-05 -1.69467e-07
3.23287e-07 -1.69467e-07 -7.67322e-05
0.000867499 -6.07773e-05 3.74637e-06
-6.07773e-05 7.97999e-05 -2.18138e-06
3.74637e-06 -2.18138e-06 -8.52167e-06
0.00281511 9.8235e-05 1.78275e-06
9.8235e-05 0.00118892 1.64728e-07
1.78275e-06 1.64728e-07 0.00119072
0.000656244 4.95203e-05 2.36886e-06
4.95203e-05 -6.5011e-06 -5.54415e-06
2.36886e-06 -5.54415e-06 -4.03643e-05
0.00259756 8.64749e-05 4.5526e-05
8.64749e-05 0.00106576 -2.71544e-06
4.5526e-05 -2.71544e-06 0.00107103
0.00107979 0.000137697 -2.26462e-07
0.000137697 0.000184313 -2.432e-06
-2.26462e-07 -2.432e-06 5.94146e-05
0.00106676 0.000129298 3.52753e-07
0.000129298 0.000194951 1.98973e-07
3.52753e-07 1.98973e-07 8.38846e-05
0.000908648 6.36447e-05 -1.25932e-06
6.36447e-05 0.000106456 -1.09324e-06
-1.25932e-06 -1.09324e-06 7.3106e-06
0.000795065 0.000104521 -4.99194e-08
0.000104521 6.3323e-05 2.74948e-07
-4.99194e-08 2.74948e-07 -3.48459e-05
0.000732053 -1.26281e-06 -4.92755e-07
-1.26281e-06 2.00283e-05 -1.59175e-07
-4.92755e-07 -1.59175e-07 -6.90629e-05
0.00069976 7.91536e-06 -1.96134e-06
7.91536e-06 1.01968e-06 -2.39741e-06
-1.96134e-06 -2.39741e-06 -6.59989e-05
0.000738028 -6.13178e-05 -2.01508e-07
-6.13178e-05 2.02076e-05 1.40162e-06
-2.01508e-07 1.40162e-06 -5.84979e-05
0.000694066 -4.54095e-05 3.77968e-07
-4.54095e-05 -4.69048e-06 -3.64477e-07
3.77968e-07 -3.64477e-07 -6.0186e-05
0.000658255 -6.6561e-05 5.25523e-07
-6.6561e-05 -1.01741e-05 -4.88678e-06
5.25523e-07 -4.88678e-06 -3.48991e-05
0.000715751 -5.18775e-05 8.73412e-07
-5.18775e-05 9.98433e-07 2.3394e-06
8.73412e-07 2.3394e-06 -4.74194e-05
0.000654355 -5.17555e-05 1.75125e-07
-5.17555e-05 -2.49821e-05 -1.58308e-08
1.75125e-07 -1.58308e-08 -4.34596e-05
0.00234116 -7.6759e-05 -3.56421e-05
-7.6759e-05 0.000916012 -2.79527e-06
-3.56421e-05 -2.79527e-06 0.000924823
0.00229544 -6.86529e-05 -1.11012e-06
-6.86529e-05 0.000881961 1.27382e-07
-1.11012e-06 1.27382e-07 0.000893015
0.000649437 -4.37168e-05 1.60936e-06
-4.37168e-05 -3.64885e-05 3.97193e-06
1.60936e-06 3.97193e-06 -5.20134e-05
0.00229283 -6.10791e-05 2.68239e-05
-6.10791e-05 0.000872259 3.61238e-06
2.68239e-05 3.61238e-06 0.000885129
0.00239607 -9.52926e-06 -5.64067e-05
-9.52926e-06 7.31994e-05 1.06833e-05
-5.64067e-05 1.06833e-05 -0.000169762
0.00204367 -0.000173082 1.60341e-05
-0.000173082 -0.000577793 5.93391e-06
1.60341e-05 5.93391e-06 -0.00141703
0.0038805 -0.000362363 -4.65821e-05
-0.000362363 0.00166842 -2.17233e-05
-4.65821e-05 -2.17233e-05 0.00175633
0.00133912 0.000165509 8.50642e-06
0.000165509 0.000265946 1.64713e-06
8.50642e-06 1.64713e-06 0.000123618
0.00113102 9.38553e-05 3.61198e-07
9.38553e-05 0.000267329 3.59296e-07
3.61198e-07 3.59296e-07 0.000157426
0.000894024 0.000125233 -1.1459e-06
0.000125233 0.000117451 9.23254e-07
-1.1459e-06 9.23254e-07 2.05771e-06
0.000829199 0.000121916 4.14272e-07
0.000121916 9.92476e-05 7.03647e-07
4.14272e-07 7.03647e-07 -2.09202e-05
0.00101987 0.000140155 -3.01558e-07
0.000140155 0.00016628 -1.51488e-06
-3.01558e-07 -1.51488e-06 3.40631e-05
0.000685741 0.00012583 -3.29569e-07
0.00012583 -4.35731e-05 -6.97867e-08
-3.29569e-07 -6.97867e-08 -0.000162624
0.000936862 0.000132269 -9.68438e-07
0.000132269 0.000143988 -2.6169e-07
-9.68438e-07 -2.6169e-07 1.39443e-05
0.000901077 9.24937e-05 -2.92754e-06
9.24937e-05 9.38937e-05 4.04825e-06
-2.92754e-06 4.04825e-06 -1.5044e-05
0.000937376 0.000151939 5.19873e-07
0.000151939 6.27844e-05 8.82489e-09
5.19873e-07 8.82489e-09 -6.28555e-05
0.00237934 0.000259416 7.37546e-07
0.000259416 0.00066928 4.22315e-06
7.37546e-07 4.22315e-06 0.000534872
0.00169833 0.000248664 -1.80362e-06
0.000248664 0.000168274 -2.06385e-06
-1.80362e-06 -2.06385e-06 1.89599e-05
0.00156288 0.000223002 1.14995e-05
0.000223002 -6.90181e-07 1.03319e-05
1.14995e-05 1.03319e-05 -0.000124571
0.00124502 0.000253996 -1.21183e-06
0.000253996 -9.20568e-05 -2.17353e-06
-1.21183e-06 -2.17353e-06 -0.000245686
0.00104911 0.000200355 -5.96343e-07
0.000200355 -1.06167e-05 7.22959e-06
-5.96343e-07 7.22959e-06 -0.000135841
0.000309274 0.000133972 4.26108e-06
0.000133972 -0.000422772 2.00075e-06
4.26108e-06 2.00075e-06 -0.000424962
0.00480843 0.000190563 -2.02973e-05
0.000190563 0.000694065 7.57133e-07
-2.02973e-05 7.57133e-07 0.000310136
0.000508616 -8.52105e-05 3.47706e-05
-8.52105e-05 -0.0011391 1.10041e-05
3.47706e-05 1.10041e-05 -0.00228437
0.00242148 0.000373087 6.11975e-05
0.000373087 -1.7054e-06 1.40629e-05
6.11975e-05 1.40629e-05 -0.000544892
0.00156729 0.000276742 -1.69277e-05
0.000276742 4.8504e-05 -2.07627e-06
-1.69277e-05 -2.07627e-06 2.65619e-05
0.000870481 0.000283123 -2.69549e-05
0.000283123 -0.000218147 -1.7961e-05
-2.69549e-05 -1.7961e-05 -0.000360181
0.00223099 -9.46689e-05 1.49076e-05
-9.46689e-05 0.000236855 3.00908e-07
1.49076e-05 3.00908e-07 0.000140407
0.00118697 2.92688e-06 -1.89432e-05
2.92688e-06 -0.000279354 7.68236e-07
-1.89432e-05 7.68236e-07 -0.000556253
0.000159493 0.000242295 5.92225e-05
0.000242295 -0.00167036 -1.91476e-05
5.92225e-05 -1.91476e-05 -0.00230515
-0.00025813 -7.60334e-05 2.22278e-06
-7.60334e-05 -0.000701539 1.12157e-05
2.22278e-06 1.12157e-05 -0.000771976
0.00253856 1.40351e-05 1.64524e-05
1.40351e-05 6.49409e-05 1.05098e-05
1.64524e-05 1.05098e-05 -0.000297333
0.00170645 -8.58499e-05 -9.80504e-07
-8.58499e-05 5.37624e-05 -1.09365e-06
-9.80504e-07 -1.09365e-06 -3.97025e-06
0.00216849 -1.24684e-06 -6.96627e-07
-1.24684e-06 0.000218712 -5.11953e-07
-6.96627e-07 -5.11953e-07 0.000152245
0.00190613 -1.96321e-05 1.1964e-05
-1.96321e-05 7.30093e-05 -1.69441e-06
1.1964e-05 -1.69441e-06 1.64245e-05
0.00265423 -1.57583e-05 8.38239e-06
-1.57583e-05 0.000536371 -7.72372e-08
8.38239e-06 -7.72372e-08 0.000480912
0.00186354 -0.000183539 -1.79208e-06
-0.000183539 -3.61463e-05 -3.23848e-07
-1.79208e-06 -3.23848e-07 -5.15067e-05
0.00197248 -7.99874e-05 2.96447e-06
-7.99874e-05 4.91206e-05 -5.39158e-07
2.96447e-06 -5.39158e-07 2.04136e-05
0.00178067 -8.28301e-05 1.14844e-06
-8.28301e-05 5.47856e-05 4.67852e-07
1.14844e-06 4.67852e-07 -1.68244e-06
0.00191521 -0.000152943 3.45002e-06
-0.000152943 5.11061e-05 1.34753e-06
3.45002e-06 1.34753e-06 -4.89025e-07
0.00182102 -0.000102782 8.2649e-07
-0.000102782 6.22589e-05 8.20082e-08
8.2649e-07 8.20082e-08 2.42527e-06
0.00175655 -9.49491e-05 2.99974e-06
-9.49491e-05 0.000101144 5.84297e-07
2.99974e-06 5.84297e-07 2.07627e-05
0.00178447 -0.000136749 -1.83297e-06
-0.000136749 9.45017e-05 1.46093e-06
-1.83297e-06 1.46093e-06 1.51224e-05
0.00178192 -0.000112586 -1.27134e-06
-0.000112586 0.000126642 -1.9688e-08
-1.27134e-06 -1.9688e-08 3.93459e-05
0.00164273 -0.000100343 1.73879e-06
-0.000100343 9.13568e-05 6.35026e-07
1.73879e-06 6.35026e-07 -1.43041e-05
0.00165609 -0.000131373 -2.55401e-06
-0.000131373 8.27113e-05 8.64849e-07
-2.55401e-06 8.64849e-07 -1.43531e-05
0.00163251 -0.000120208 5.23902e-07
-0.000120208 0.000102258 -2.29379e-07
5.23902e-07 -2.29379e-07 -4.90396e-06
0.00158067 -0.000120163 8.32555e-07
-0.000120163 0.00010439 1.20096e-07
8.32555e-07 1.20096e-07 -1.27755e-05
0.00157615 -0.000133218 -3.59275e-06
-0.000133218 8.40007e-05 1.04106e-06
-3.59275e-06 1.04106e-06 -2.51495e-05
0.00157873 -0.000135056 -1.0665e-07
-0.000135056 0.000121976 -2.6634e-07
-1.0665e-07 -2.6634e-07 2.0709e-06
0.00147821 -0.000131669 -2.02924e-06
-0.000131669 0.000107427 9.7474e-08
-2.02924e-06 9.7474e-08 -1.80566e-05
0.00160009 -0.000157565 1.80327e-06
-0.000157565 0.000164672 8.22633e-07
1.80327e-06 8.22633e-07 3.22211e-05
0.00142468 -0.000148733 6.4661e-07
-0.000148733 0.000113688 -4.72254e-07
6.4661e-07 -4.72254e-07 -2.01689e-05
0.00134695 -0.00013843 -5.21034e-06
-0.00013843 0.000124976 1.60337e-06
-5.21034e-06 1.60337e-06 -1.49207e-06
0.000956288 -0.000108937 -6.13108e-06
-0.000108937 3.49216e-05 3.5753e-06
-6.13108e-06 3.5753e-06 -7.01077e-05
0.000958816 -0.000132673 -1.33945e-06
-0.000132673 -2.5111e-05 7.7047e-07
-1.33945e-06 7.7047e-07 -0.000156857
0.00126167 -0.000155568 2.34132e-06
-0.000155568 9.35202e-05 -1.16468e-07
2.34132e-06 -1.16468e-07 -5.23544e-05
0.000574749 -5.6737e-05 -8.70288e-06
-5.6737e-05 -6.86938e-05 7.75934e-06
-8.70288e-06 7.75934e-06 -0.000123761
0.000902028 -0.000100749 2.99048e-07
-0.000100749 5.20692e-05 -1.61758e-09
2.99048e-07 -1.61758e-09 -4.94939e-05
0.0011307 -0.000141969 3.29381e-06
-0.000141969 0.000129727 -1.5392e-06
3.29381e-06 -1.5392e-06 -1.14255e-06
0.00340055 0.000125092 -6.56257e-05
0.000125092 0.00151954 2.67924e-06
-6.56257e-05 2.67924e-06 0.00151277
0.00064635 -2.39303e-05 -9.81678e-08
-2.39303e-05 -2.85927e-05 -1.51632e-07
-9.81678e-08 -1.51632e-07 -7.54495e-05
0.000952844 -8.64944e-05 4.4502e-06
-8.64944e-05 0.000109003 -2.65649e-06
4.4502e-06 -2.65649e-06 1.38906e-05
0.00315912 0.000107948 2.08212e-06
0.000107948 0.00138002 2.49787e-07
2.08212e-06 2.49787e-07 0.00137827
0.000677635 6.93707e-06 6.28753e-06
6.93707e-06 -5.52695e-06 -5.91372e-06
6.28753e-06 -5.91372e-06 -4.48138e-05
0.0029113 9.35856e-05 5.85144e-05
9.35856e-05 0.00123969 -2.97199e-06
5.85144e-05 -2.97199e-06 0.00124213
0.000914454 0.000136346 -5.76379e-07
0.000136346 4.74114e-05 -2.11342e-06
-5.76379e-07 -2.11342e-06 -9.00584e-05
0.00100513 0.000132597 -9.15252e-08
0.000132597 0.000144671 -1.05702e-06
-9.15252e-08 -1.05702e-06 2.05387e-05
0.00110937 0.000124548 -9.30313e-07
0.000124548 0.000197443 -1.1831e-06
-9.30313e-07 -1.1831e-06 8.68262e-05
0.0011414 0.000134229 -5.57559e-07
0.000134229 0.000235467 5.86844e-08
-5.57559e-07 5.86844e-08 0.000124428
0.000894897 6.85199e-05 -1.00984e-06
6.85199e-05 9.77747e-05 -5.866e-07
-1.00984e-06 -5.866e-07 -1.68747e-07
0.000771894 2.82179e-05 -2.14354e-06
2.82179e-05 3.99295e-05 -1.99384e-06
-2.14354e-06 -1.99384e-06 -3.8839e-05
0.000724896 2.05819e-05 -1.77017e-07
2.05819e-05 1.52273e-05 3.29046e-07
-1.77017e-07 3.29046e-07 -7.47701e-05
0.000707325 -3.02814e-05 -3.93054e-07
-3.02814e-05 5.79623e-06 -5.65558e-08
-3.93054e-07 -5.65558e-08 -6.03266e-05
0.0006216 -7.04073e-05 2.87867e-07
-7.04073e-05 -2.14569e-05 -5.26463e-06
2.87867e-07 -5.26463e-06 -5.27001e-05
0.000702438 -6.21029e-05 3.36477e-07
-6.21029e-05 2.82643e-06 2.68046e-06
3.36477e-07 2.68046e-06 -5.41994e-05
0.000631167 -6.29253e-05 2.2451e-07
-6.29253e-05 -2.64318e-05 -1.13314e-07
2.2451e-07 -1.13314e-07 -5.01129e-05
0.00245294 -8.50301e-05 -4.1106e-05
-8.50301e-05 0.000984117 -2.49561e-06
-4.1106e-05 -2.49561e-06 0.000990535
0.000639799 -4.95693e-05 1.97859e-06
-4.95693e-05 -3.35209e-05 4.05641e-06
1.97859e-06 4.05641e-06 -5.15674e-05
0.00232238 -7.6519e-05 -6.69399e-07
-7.6519e-05 0.000904797 1.16667e-07
-6.69399e-07 1.16667e-07 0.000913745
0.0022963 -6.82977e-05 3.06866e-05
-6.82977e-05 0.000881614 3.31656e-06
3.06866e-05 3.31656e-06 0.00089277
0.000356647 1.56372e-05 6.27255e-06
1.56372e-05 -0.000519525 2.47141e-06
6.27255e-06 2.47141e-06 -0.000549242
0.00366508 1.57535e-05 1.63361e-06
1.57535e-05 0.000459855 1.08151e-05
1.63361e-06 1.08151e-05 8.88479e-05
0.00653411 0.000232518 -9.40535e-05
0.000232518 0.00193037 -2.21245e-05
-9.40535e-05 -2.21245e-05 0.000987458
0.000798961 0.000131286 2.46284e-06
0.000131286 -5.79555e-05 4.2349e-07
2.46284e-06 4.2349e-07 -0.000188319
0.00151137 0.00017946 3.37407e-06
0.00017946 0.00019929 -2.94607e-06
3.37407e-06 -2.94607e-06 5.07811e-05
0.000886765 0.000141106 -1.45393e-07
0.000141106 3.15252e-05 -1.1458e-06
-1.45393e-07 -1.1458e-06 -0.000107619
0.00104858 0.000136722 -1.39797e-06
0.000136722 0.000216341 -4.52479e-07
-1.39797e-06 -4.52479e-07 9.34344e-05
0.000940367 0.000135929 -1.17995e-06
0.000135929 0.00012644 -7.05211e-07
-1.17995e-06 -7.05211e-07 -6.69055e-06
0.0010509 0.000151284 3.86831e-06
0.000151284 0.000136128 1.68937e-06
3.86831e-06 1.68937e-06 1.23438e-05
0.0019779 0.000238838 -5.60294e-06
0.000238838 0.000356781 -5.1775e-06
-5.60294e-06 -5.1775e-06 0.000216204
0.00156958 0.000190054 -3.49083e-08
0.000190054 0.000397977 1.9929e-06
-3.49083e-08 1.9929e-06 0.000271734
0.00110804 0.000188631 3.89803e-07
0.000188631 1.80546e-05 1.10639e-05
3.89803e-07 1.10639e-05 -0.000113794
0.00172232 0.000246952 -1.01985e-06
0.000246952 0.00019524 8.06477e-07
-1.01985e-06 8.06477e-07 4.79186e-05
0.00219116 0.000251294 -6.78294e-06
0.000251294 0.000313075 2.14055e-06
-6.78294e-06 2.14055e-06 0.000174333
0.00124133 9.56772e-05 1.3651e-05
9.56772e-05 -0.000236184 4.40694e-06
1.3651e-05 4.40694e-06 -0.000312235
0.00167422 0.000221552 8.21342e-06
0.000221552 6.07689e-05 2.724e-06
8.21342e-06 2.724e-06 -6.42123e-05
0.00126436 0.000251882 -6.18519e-06
0.000251882 -8.96206e-05 -1.30182e-06
-6.18519e-06 -1.30182e-06 -0.000247363
0.00090324 0.000123249 -3.60282e-06
0.000123249 -0.000127797 7.70459e-07
-3.60282e-06 7.70459e-07 -0.000137428
0.00465872 5.76016e-05 4.816e-05
5.76016e-05 0.000504 8.58863e-06
4.816e-05 8.58863e-06 9.33658e-05
0.00112331 0.000228283 3.72797e-06
0.000228283 -2.54908e-05 -8.86313e-06
3.72797e-06 -8.86313e-06 -5.4631e-05
0.00165508 -2.61838e-05 1.0824e-05
-2.61838e-05 7.0782e-05 8.44518e-07
1.0824e-05 8.44518e-07 1.83895e-05
0.00204521 -4.96998e-05 -3.79214e-06
-4.96998e-05 0.000179347 -1.99286e-07
-3.79214e-06 -1.99286e-07 8.59927e-05
0.00186201 0.00011683 5.80419e-05
0.00011683 -0.000177706 -3.88255e-06
5.80419e-05 -3.88255e-06 -0.000501338
-0.00127799 -3.77084e-05 -1.1445e-05
-3.77084e-05 -0.00153334 7.22107e-06
-1.1445e-05 7.22107e-06 -0.00155122
0.00252573 -1.46596e-05 -4.89103e-05
-1.46596e-05 0.000407393 5.91708e-06
-4.89103e-05 5.91708e-06 0.000343405
0.00146564 -4.95639e-05 9.00194e-07
-4.95639e-05 -0.000196054 2.1909e-06
9.00194e-07 2.1909e-06 -0.000241601
0.00221556 -3.05823e-05 -4.59665e-07
-3.05823e-05 0.000260451 2.84309e-07
-4.59665e-07 2.84309e-07 0.000203636
0.00194961 -9.10134e-05 3.81994e-06
-9.10134e-05 9.17345e-05 9.93251e-07
3.81994e-06 9.93251e-07 3.64486e-05
0.00162184 -3.34166e-05 1.60064e-06
-3.34166e-05 -8.27886e-05 -7.13254e-08
1.60064e-06 -7.13254e-08 -0.000148141
0.00208943 -8.85822e-05 2.13248e-06
-8.85822e-05 9.56029e-05 8.16672e-08
2.13248e-06 8.16672e-08 6.5118e-05
0.00180093 -8.21574e-05 -1.60264e-06
-8.21574e-05 6.0801e-05 2.1359e-08
-1.60264e-06 2.1359e-08 6.47031e-06
0.00178889 -8.68974e-05 3.16693e-06
-8.68974e-05 8.41843e-05 4.58638e-07
3.16693e-06 4.58638e-07 6.22175e-06
0.00195587 -0.000115118 -2.40608e-06
-0.000115118 0.000131308 -4.67371e-08
-2.40608e-06 -4.67371e-08 6.83208e-05
0.00176663 -9.49474e-05 -4.21623e-07
-9.49474e-05 0.000108646 -2.41218e-07
-4.21623e-07 -2.41218e-07 2.6516e-05
0.00171223 -8.32416e-05 1.96114e-06
-8.32416e-05 9.85011e-05 3.28137e-07
1.96114e-06 3.28137e-07 -1.78656e-06
0.001706 -0.000116386 -5.94209e-06
-0.000116386 8.76259e-05 -9.63043e-08
-5.94209e-06 -9.63043e-08 -6.44614e-07
0.00165482 -9.97568e-05 8.57367e-08
-9.97568e-05 9.84106e-05 7.03302e-08
8.57367e-08 7.03302e-08 -7.09239e-06
0.00162028 -9.68698e-05 2.49506e-07
-9.68698e-05 0.000110369 6.05523e-07
2.49506e-07 6.05523e-07 -6.10074e-06
0.00164692 -0.000120508 -2.1029e-06
-0.000120508 0.000110262 -5.48903e-07
-2.1029e-06 -5.48903e-07 3.19426e-06
0.00158972 -0.000119747 1.7326e-07
-0.000119747 0.000108865 -1.76609e-07
1.7326e-07 -1.76609e-07 -8.20421e-06
0.00151947 -0.000119132 -1.66902e-06
-0.000119132 0.000108207 4.44782e-07
-1.66902e-06 4.44782e-07 -1.41017e-05
0.00144811 -0.00012939 -4.76832e-07
-0.00012939 4.92436e-05 4.13054e-07
-4.76832e-07 4.13054e-07 -6.92826e-05
0.00137338 -0.000127913 -2.25001e-07
-0.000127913 5.09729e-05 -1.61892e-07
-2.25001e-07 -1.61892e-07 -7.42508e-05
0.00134568 -0.000124055 -5.20196e-06
-0.000124055 9.05205e-05 1.46687e-06
-5.20196e-06 1.46687e-06 -3.08846e-05
0.0012432 -0.000140818 3.37067e-06
-0.000140818 1.4878e-05 -4.06726e-07
3.37067e-06 -4.06726e-07 -0.000119495
0.0011161 -0.000127559 2.6425e-07
-0.000127559 1.19645e-06 4.30585e-09
2.6425e-07 4.30585e-09 -0.00012508
0.00103021 -0.000107881 -7.94181e-06
-0.000107881 2.8554e-05 3.74794e-06
-7.94181e-06 3.74794e-06 -7.4907e-05
0.000493206 -8.68173e-05 -1.1725e-05
-8.68173e-05 -0.000127456 8.52529e-06
-1.1725e-05 8.52529e-06 -0.000187165
0.000966434 -0.000110637 3.4594e-07
-0.000110637 4.05922e-05 1.54414e-07
3.4594e-07 1.54414e-07 -6.47333e-05
0.00109761 -0.000138728 2.58809e-06
-0.000138728 5.37581e-05 -5.20903e-07
2.58809e-06 -5.20903e-07 -7.74563e-05
0.00369061 0.000140936 -7.19292e-05
0.000140936 0.00169157 3.05248e-06
-7.19292e-05 3.05248e-06 0.00167878
0.00066182 -5.18002e-05 -1.50119e-07
-5.18002e-05 -2.56152e-05 5.52402e-08
-1.50119e-07 5.52402e-08 -8.12633e-05
0.000985621 -0.000105585 5.15134e-06
-0.000105585 9.78032e-05 -2.92467e-06
5.15134e-06 -2.92467e-06 -4.7841e-06
0.0034895 0.000120353 3.16266e-06
0.000120353 0.00156877 3.59093e-07
3.16266e-06 3.59093e-07 0.00156224
0.000744369 -2.62879e-05 8.30871e-06
-2.62879e-05 2.08356e-05 -6.73408e-06
8.30871e-06 -6.73408e-06 -2.63515e-05
0.00324514 0.000102109 7.03636e-05
0.000102109 0.00142592 -3.0999e-06
7.03636e-05 -3.0999e-06 0.00142476
0.000695789 0.000132428 -1.5915e-06
0.000132428 -0.000159908 -1.65227e-06
-1.5915e-06 -1.65227e-06 -0.000308986
0.000681509 0.000123336 -1.54291e-07
0.000123336 -8.03101e-05 -1.64538e-07
-1.54291e-07 -1.64538e-07 -0.000218333
0.00112877 0.000135195 -2.50811e-06
0.000135195 0.00016931 -1.56792e-06
-2.50811e-06 -1.56792e-06 4.6205e-05
0.000922704 0.000127012 -5.16743e-07
0.000127012 0.000100753 1.26889e-07
-5.16743e-07 1.26889e-07 -2.25358e-05
0.000986374 0.000116082 -2.96904e-07
0.000116082 0.000132594 -3.90224e-07
-2.96904e-07 -3.90224e-07 2.31245e-05
0.000910689 6.10585e-05 -3.35609e-06
6.10585e-05 0.000108318 -1.95479e-06
-3.35609e-06 -1.95479e-06 2.0126e-05
0.000875103 7.21239e-05 -7.89855e-08
7.21239e-05 8.61563e-05 -4.11697e-07
-7.89855e-08 -4.11697e-07 -1.0701e-05
0.000755737 1.33764e-05 -7.53248e-08
1.33764e-05 3.37652e-05 1.1183e-07
-7.53248e-08 1.1183e-07 -4.52608e-05
0.000631626 -4.76171e-05 -3.34287e-06
-4.76171e-05 -1.80637e-05 -5.28579e-06
-3.34287e-06 -5.28579e-06 -5.51066e-05
0.00072241 -5.58046e-05 2.40475e-07
-5.58046e-05 1.64051e-05 2.90186e-06
2.40475e-07 2.90186e-06 -5.03182e-05
0.000591183 -7.50177e-05 -6.85491e-08
-7.50177e-05 -3.72333e-05 -1.82154e-07
-6.85491e-08 -1.82154e-07 -6.90934e-05
0.00264952 -9.41491e-05 -4.87322e-05
-9.41491e-05 0.00109666 -2.38557e-06
-4.87322e-05 -2.38557e-06 0.00110021
0.000606012 -5.83447e-05 1.7264e-06
-5.83447e-05 -4.191e-05 4.26228e-06
1.7264e-06 4.26228e-06 -6.4408e-05
0.00241407 -8.52452e-05 -6.93296e-07
-8.52452e-05 0.000962537 1.11204e-07
-6.93296e-07 1.11204e-07 0.000968995
0.0023132 -7.60286e-05 3.36541e-05
-7.60286e-05 0.000898878 2.98105e-06
3.36541e-05 2.98105e-06 0.000908003
0.00136601 3.25276e-05 1.08788e-05
3.25276e-05 -0.000163614 1.84411e-06
1.08788e-05 1.84411e-06 -0.000220808
0.00131584 -1.68584e-05 -2.98783e-06
-1.68584e-05 -0.000114552 3.81769e-06
-2.98783e-06 3.81769e-06 -0.000170646
0.00275876 -2.27552e-05 6.78503e-05
-2.27552e-05 7.63882e-08 4.46953e-06
6.78503e-05 4.46953e-06 -0.000287574
0.00181607 0.000195993 -9.32749e-08
0.000195993 0.000287755 -4.18019e-06
-9.32749e-08 -4.18019e-06 0.000149505
0.00077489 0.000134198 -1.03584e-06
0.000134198 -5.29587e-05 1.35765e-06
-1.03584e-06 1.35765e-06 -0.000174608
0.00138068 0.000164306 -1.85116e-06
0.000164306 3.15969e-06 1.2882e-06
-1.85116e-06 1.2882e-06 -0.000131415
0.00160583 0.000185427 6.54266e-07
0.000185427 0.000246024 2.26687e-07
6.54266e-07 2.26687e-07 9.68635e-05
0.000423912 0.000116129 -3.71734e-06
0.000116129 -0.000208553 2.15829e-06
-3.71734e-06 2.15829e-06 -0.000344437
0.00179091 0.000200291 -4.61492e-06
0.000200291 0.000109428 9.35423e-07
-4.61492e-06 9.35423e-07 -2.18035e-05
0.00137739 0.000174646 -5.43999e-07
0.000174646 0.000295727 1.04087e-06
-5.43999e-07 1.04087e-06 0.000167471
0.00184981 0.000231203 1.92304e-07
0.000231203 0.000280512 -2.34056e-06
1.92304e-07 -2.34056e-06 0.000136696
0.00181156 0.000134723 -2.84833e-06
0.000134723 8.426e-05 1.78614e-06
-2.84833e-06 1.78614e-06 -1.99381e-05
0.00199309 0.000260036 3.15938e-06
0.000260036 0.00034722 4.05392e-06
3.15938e-06 4.05392e-06 0.000200948
0.00207118 0.00024645 -1.86892e-06
0.00024645 0.000244816 -3.18521e-08
-1.86892e-06 -3.18521e-08 0.000107671
0.00137715 0.000106976 -3.5497e-07
0.000106976 -0.000139609 -3.94867e-07
-3.5497e-07 -3.94867e-07 -0.000216393
0.00141948 0.000204097 -2.74531e-06
0.000204097 -5.45355e-05 -3.38786e-06
-2.74531e-06 -3.38786e-06 -0.000180703
0.00106555 0.000110928 -1.24078e-05
0.000110928 -4.50661e-05 -2.95454e-06
-1.24078e-05 -2.95454e-06 -6.09244e-05
0.00170779 -2.45602e-06 -1.00136e-06
-2.45602e-06 -2.09318e-05 4.02818e-07
-1.00136e-06 4.02818e-07 -9.12627e-05
0.00190386 -8.01397e-06 -1.90409e-06
-8.01397e-06 0.00020763 -4.21833e-07
-1.90409e-06 -4.21833e-07 0.000155301
0.00135978 3.73159e-06 -2.9958e-05
3.73159e-06 -0.000143641 6.71394e-07
-2.9958e-05 6.71394e-07 -0.000247563
0.000927361 -7.67317e-05 -6.6174e-06
-7.67317e-05 -0.000528465 9.69819e-07
-6.6174e-06 9.69819e-07 -0.000563589
0.00178405 -4.42268e-05 -3.9554e-06
-4.42268e-05 -1.39558e-05 -5.5885e-07
-3.9554e-06 -5.5885e-07 -7.21378e-05
0.00196469 -8.71371e-05 -1.15469e-06
-8.71371e-05 0.000102682 2.16535e-07
-1.15469e-06 2.16535e-07 4.85243e-05
0.00175697 -3.47563e-05 1.19179e-06
-3.47563e-05 -8.43128e-06 -2.23471e-08
1.19179e-06 -2.23471e-08 -7.33463e-05
0.0017453 -4.88588e-05 1.16431e-06
-4.88588e-05 2.64964e-05 -1.73898e-07
1.16431e-06 -1.73898e-07 -5.0476e-05
0.00180837 -8.16367e-05 -2.87194e-06
-8.16367e-05 6.04878e-05 -8.72501e-07
-2.87194e-06 -8.72501e-07 7.95538e-06
0.00182938 -8.41939e-05 3.78357e-07
-8.41939e-05 0.000110065 -8.38184e-08
3.78357e-07 -8.38184e-08 3.20475e-05
0.00180687 -6.75232e-05 1.18929e-06
-6.75232e-05 0.000106286 -4.34628e-07
1.18929e-06 -4.34628e-07 1.12119e-05
0.00176327 -9.5614e-05 -4.95913e-06
-9.5614e-05 0.000108585 -4.71294e-07
-4.95913e-06 -4.71294e-07 2.46942e-05
0.00168173 -8.26804e-05 -1.38932e-07
-8.26804e-05 8.6321e-05 1.2969e-07
-1.38932e-07 1.2969e-07 -1.54116e-05
0.00167484 -6.78666e-05 2.09594e-07
-6.78666e-05 0.000118158 4.87272e-07
2.09594e-07 4.87272e-07 2.07452e-06
0.00166991 -9.91821e-05 -1.69342e-06
-9.91821e-05 0.000106997 -4.74234e-07
-1.69342e-06 -4.74234e-07 1.66129e-06
0.00161296 -9.57925e-05 6.14208e-08
-9.57925e-05 0.000105262 -1.69612e-09
6.14208e-08 -1.69612e-09 -1.11154e-05
0.00154713 -9.74693e-05 -1.72654e-06
-9.74693e-05 0.00010666 6.81035e-07
-1.72654e-06 6.81035e-07 -1.45611e-05
0.00159738 -0.000119336 -2.29042e-07
-0.000119336 0.000112619 -4.96257e-07
-2.29042e-07 -4.96257e-07 -4.36359e-06
0.00151151 -0.000118203 5.13787e-09
-0.000118203 0.000103917 -6.80021e-08
5.13787e-09 -6.80021e-08 -1.82797e-05
0.00137715 -0.000110692 -4.75604e-06
-0.000110692 8.35509e-05 1.38749e-06
-4.75604e-06 1.38749e-06 -3.52577e-05
0.00126515 -0.000123967 1.92083e-06
-0.000123967 -7.35862e-06 -2.93172e-07
1.92083e-06 -2.93172e-07 -0.000132296
0.0013175 -0.000122043 -3.40032e-08
-0.000122043 7.60912e-05 3.08527e-08
-3.40032e-08 3.08527e-08 -4.50709e-05
0.00108163 -9.94224e-05 -9.12837e-06
-9.94224e-05 2.46746e-05 3.76541e-06
-9.12837e-06 3.76541e-06 -7.6477e-05
0.000883716 -0.0001165 4.61039e-06
-0.0001165 -0.00012339 -1.1301e-06
4.61039e-06 -1.1301e-06 -0.000249453
0.00102599 -0.00010742 3.25917e-07
-0.00010742 2.65068e-05 7.68461e-08
3.25917e-07 7.68461e-08 -7.70087e-05
0.00201947 -2.43413e-05 -8.20474e-06
-2.43413e-05 0.000707396 6.24715e-06
-8.20474e-06 6.24715e-06 0.000647415
0.00115148 5.53854e-06 -8.99004e-05
5.53854e-06 0.000278186 9.22918e-06
-8.99004e-05 9.22918e-06 0.000259066
0.00138369 -5.48205e-05 6.48113e-07
-5.48205e-05 0.000362295 1.07954e-08
6.48113e-07 1.07954e-08 0.000302286
0.000985911 -0.000112747 6.4928e-06
-0.000112747 5.1701e-05 -3.06661e-06
6.4928e-06 -3.06661e-06 -5.40196e-05
0.00384111 0.000125029 6.25565e-06
0.000125029 0.00177285 4.69843e-07
6.25565e-06 4.69843e-07 0.00176167
0.000776425 -6.98379e-05 1.08507e-05
-6.98379e-05 3.04534e-05 -7.82757e-06
1.08507e-05 -7.82757e-06 -2.55585e-05
0.00355176 0.000101953 8.48729e-05
0.000101953 0.00160159 -3.65906e-06
8.48729e-05 -3.65906e-06 0.00159716
0.00205305 0.000167612 -2.81025e-07
0.000167612 0.000336491 4.31008e-07
-2.81025e-07 4.31008e-07 0.000210715
0.00071514 0.00013294 -8.21714e-07
0.00013294 -0.000248697 1.69117e-06
-8.21714e-07 1.69117e-06 -0.000388189
0.000953071 0.000147879 -3.16589e-07
0.000147879 -3.00655e-05 -1.81037e-07
-3.16589e-07 -1.81037e-07 -0.000181474
0.00113384 0.000141081 -3.37083e-06
0.000141081 0.000118276 -1.79262e-06
-3.37083e-06 -1.79262e-06 -1.36195e-05
0.000457083 0.000110882 3.32257e-07
0.000110882 -0.000203255 2.27386e-06
3.32257e-07 2.27386e-06 -0.000341929
0.00104072 0.000128699 -4.8825e-07
0.000128699 0.00012439 -3.87641e-08
-4.8825e-07 -3.87641e-08 2.17699e-06
0.000982728 9.07341e-05 -4.2729e-06
9.07341e-05 0.000124344 -2.19112e-06
-4.2729e-06 -2.19112e-06 2.89057e-05
0.000871627 0.000108043 8.95553e-07
0.000108043 7.21833e-05 6.90805e-07
8.95553e-07 6.90805e-07 -3.61812e-05
0.000804297 5.24261e-05 -2.64198e-07
5.24261e-05 5.21552e-05 5.35612e-08
-2.64198e-07 5.35612e-08 -3.53134e-05
0.000701707 8.01604e-07 -6.46241e-06
8.01604e-07 9.93497e-06 -5.73821e-06
-6.46241e-06 -5.73821e-06 -3.2649e-05
0.000743845 -1.72551e-06 1.0576e-06
-1.72551e-06 2.73322e-05 2.0513e-06
1.0576e-06 2.0513e-06 -5.02469e-05
0.000575086 -5.53128e-05 -6.88563e-07
-5.53128e-05 -4.87494e-05 -1.60471e-07
-6.88563e-07 -1.60471e-07 -8.51308e-05
0.00289691 -0.000103653 -5.83969e-05
-0.000103653 0.00123728 -2.39186e-06
-5.83969e-05 -2.39186e-06 0.00123721
0.000550827 -7.13669e-05 2.88365e-07
-7.13669e-05 -6.11702e-05 4.94858e-06
2.88365e-07 4.94858e-06 -9.1742e-05
0.00258152 -9.51236e-05 -1.00231e-06
-9.51236e-05 0.00105997 1.31559e-07
-1.00231e-06 1.31559e-07 0.00106347
0.00237603 -8.46865e-05 3.66391e-05
-8.46865e-05 0.000941234 2.62017e-06
3.66391e-05 2.62017e-06 0.00094791
0.00181262 6.65354e-05 -1.29249e-06
6.65354e-05 4.77043e-05 1.3299e-06
-1.29249e-06 1.3299e-06 -3.43713e-05
0.0018734 2.748e-05 3.72726e-07
2.748e-05 0.000123968 -6.98838e-07
3.72726e-07 -6.98838e-07 6.90703e-05
0.00282764 -5.34547e-05 -2.16112e-05
-5.34547e-05 0.000569939 -3.34884e-06
-2.16112e-05 -3.34884e-06 0.000485025
0.00165963 0.000164388 -2.89027e-06
0.000164388 7.0509e-05 3.15081e-07
-2.89027e-06 3.15081e-07 -5.60843e-05
0.00166564 0.000187741 -2.1699e-06
0.000187741 0.000227442 9.1033e-08
-2.1699e-06 9.1033e-08 9.29219e-05
0.00074462 0.000136969 -9.59008e-06
0.000136969 -5.19054e-05 3.17918e-06
-9.59008e-06 3.17918e-06 -0.000164831
0.00163622 0.000171637 1.42437e-06
0.000171637 0.000142416 2.07452e-07
1.42437e-06 2.07452e-07 7.86654e-06
0.00169435 0.000191424 -1.61852e-06
0.000191424 0.00029041 5.63856e-07
-1.61852e-06 5.63856e-07 0.000140504
0.00205212 0.000135787 -3.5231e-06
0.000135787 0.000200065 1.30577e-06
-3.5231e-06 1.30577e-06 9.59687e-05
0.00173748 0.000201173 -1.71361e-06
0.000201173 8.1302e-05 3.18519e-07
-1.71361e-06 3.18519e-07 -5.12471e-05
0.00176621 0.000226114 3.06532e-06
0.000226114 0.000227131 1.04807e-06
3.06532e-06 1.04807e-06 7.97271e-05
0.00179287 0.000135062 -5.2418e-07
0.000135062 6.89387e-05 1.44149e-07
-5.2418e-07 1.44149e-07 -3.56815e-05
0.00200743 0.000242968 5.74155e-06
0.000242968 0.000202097 -5.0974e-07
5.74155e-06 -5.0974e-07 6.66304e-05
0.00159895 0.000118733 -1.71318e-05
0.000118733 -1.54805e-05 -6.17772e-06
-1.71318e-05 -6.17772e-06 -9.19936e-05
0.00194864 6.96718e-06 -3.82554e-08
6.96718e-06 0.000123548 1.84858e-07
-3.82554e-08 1.84858e-07 4.49425e-05
0.00177341 1.64872e-06 4.57765e-07
1.64872e-06 1.6483e-05 -4.19428e-07
4.57765e-07 -4.19428e-07 -5.2792e-05
0.00218916 1.00176e-05 -1.5315e-05
1.00176e-05 0.000361965 -9.03722e-07
-1.5315e-05 -9.03722e-07 0.000309611
0.002022 -8.47865e-05 -8.25573e-06
-8.47865e-05 0.000135533 -9.95154e-07
-8.25573e-06 -9.95154e-07 8.26351e-05
0.00192819 -3.52066e-05 -1.40599e-06
-3.52066e-05 8.33748e-05 -9.1261e-08
-1.40599e-06 -9.1261e-08 1.89383e-05
0.00181616 -4.793e-05 3.0352e-07
-4.793e-05 5.71382e-05 1.6909e-08
3.0352e-07 1.6909e-08 -1.73516e-05
0.00185477 -2.95593e-05 3.29149e-07
-2.95593e-05 0.000107146 -2.68268e-07
3.29149e-07 -2.68268e-07 1.26556e-05
0.0018825 -8.19364e-05 -1.55125e-06
-8.19364e-05 0.000142309 -3.51673e-07
-1.55125e-06 -3.51673e-07 6.41927e-05
0.00179804 -6.85084e-05 -4.0103e-07
-6.85084e-05 0.000107488 -1.12069e-07
-4.0103e-07 -1.12069e-07 1.17665e-05
0.00173621 -4.82937e-05 9.25408e-07
-4.82937e-05 0.000117538 -7.15002e-07
9.25408e-07 -7.15002e-07 3.34127e-06
0.00165007 -8.21437e-05 -1.9439e-06
-8.21437e-05 7.34356e-05 1.30577e-07
-1.9439e-06 1.30577e-07 -2.97459e-05
0.00164974 -6.76097e-05 -7.53744e-08
-6.76097e-05 0.000102971 2.27819e-07
-7.53744e-08 2.27819e-07 -1.30646e-05
0.00157791 -6.69746e-05 -1.75077e-06
-6.69746e-05 0.000108562 7.76682e-07
-1.75077e-06 7.76682e-07 -1.3174e-05
0.00160701 -9.46489e-05 -3.47224e-08
-9.46489e-05 0.000100893 -6.04114e-07
-3.47224e-08 -6.04114e-07 -1.53789e-05
0.00154057 -9.66298e-05 -4.00648e-08
-9.66298e-05 0.000103031 -3.345e-08
-4.00648e-08 -3.345e-08 -1.81317e-05
0.00139888 -9.22498e-05 -4.60312e-06
-9.22498e-05 7.82347e-05 1.26889e-06
-4.60312e-06 1.26889e-06 -3.96119e-05
0.00150128 -0.000117227 1.90303e-06
-0.000117227 9.84579e-05 -6.09261e-07
1.90303e-06 -6.09261e-07 -2.36317e-05
0.00136863 -0.000109539 -1.57185e-08
-0.000109539 7.89854e-05 5.76196e-08
-1.57185e-08 5.76196e-08 -3.96588e-05
0.00111289 -8.92187e-05 -9.5583e-06
-8.92187e-05 2.13411e-05 3.43288e-06
-9.5583e-06 3.43288e-06 -7.89019e-05
0.00128981 -0.000120065 4.78901e-06
-0.000120065 6.19073e-05 -1.33093e-06
4.78901e-06 -1.33093e-06 -5.90144e-05
0.001071 -9.80286e-05 3.18929e-07
-9.80286e-05 1.83547e-05 4.01259e-08
3.18929e-07 4.01259e-08 -8.2638e-05
0.00212742 -3.69176e-05 -1.32851e-05
-3.69176e-05 0.000745026 5.29881e-06
-1.32851e-05 5.29881e-06 0.000690349
0.00101222 -0.000106756 7.95878e-06
-0.000106756 1.95122e-05 -3.45744e-06
7.95878e-06 -3.45744e-06 -8.40897e-05
0.00222417 -6.62907e-05 2.62443e-05
-6.62907e-05 0.000807138 -1.75959e-06
2.62443e-05 -1.75959e-06 0.000752818
0.00142579 -3.57703e-05 -0.000109435
-3.57703e-05 0.00043097 1.19873e-05
-0.000109435 1.19873e-05 0.000410604
0.00265023 3.67625e-05 -9.20116e-05
3.67625e-05 0.00111592 2.55259e-06
-9.20116e-05 2.55259e-06 0.00110091
0.00229785 -8.77216e-05 5.91673e-05
-8.77216e-05 0.000855565 -7.45481e-06
5.91673e-05 -7.45481e-06 0.000805577
0.00396201 9.17936e-05 0.000100187
9.17936e-05 0.00183673 -5.6246e-06
0.000100187 -5.6246e-06 0.00182819
0.00171983 0.000131402 -3.18424e-06
0.000131402 0.000131118 -7.466e-07
-3.18424e-06 -7.466e-07 7.91797e-06
0.00159332 0.000155051 1.40057e-06
0.000155051 0.000161747 3.9617e-07
1.40057e-06 3.9617e-07 3.47508e-05
0.00175787 0.00015564 1.07931e-06
0.00015564 0.000181306 5.26699e-07
1.07931e-06 5.26699e-07 5.82515e-05
0.00118039 0.000145253 -4.21431e-06
0.000145253 7.0726e-05 -6.38708e-07
-4.21431e-06 -6.38708e-07 -6.26926e-05
0.0011607 0.000156043 -2.7491e-07
0.000156043 -1.27634e-05 8.09511e-07
-2.7491e-07 8.09511e-07 -0.000154505
0.00116414 0.000161085 1.84606e-06
0.000161085 7.51923e-05 1.31855e-06
1.84606e-06 1.31855e-06 -7.83758e-05
0.00111233 0.000140211 -3.08124e-07
0.000140211 0.000107424 -8.55779e-08
-3.08124e-07 -8.55779e-08 -2.45436e-05
0.000996355 0.00010865 -5.44496e-06
0.00010865 9.25585e-05 -3.08347e-06
-5.44496e-06 -3.08347e-06 -1.07386e-05
0.00094915 0.000121984 1.37987e-06
0.000121984 7.74722e-05 1.34993e-06
1.37987e-06 1.34993e-06 -4.38153e-05
0.000855927 8.37889e-05 -3.28815e-07
8.37889e-05 5.58091e-05 -7.19698e-08
-3.28815e-07 -7.19698e-08 -3.82745e-05
0.000769391 4.02095e-05 -8.63931e-06
4.02095e-05 3.97035e-05 -6.60838e-06
-8.63931e-06 -6.60838e-06 -1.15325e-05
0.00068493 4.45731e-05 1.57413e-06
4.45731e-05 -1.16469e-05 1.56629e-06
1.57413e-06 1.56629e-06 -9.79081e-05
0.000612105 -2.11921e-05 3.08421e-07
-2.11921e-05 -3.35073e-05 -2.43323e-07
3.08421e-07 -2.43323e-07 -7.69861e-05
0.0031893 -0.00010467 -7.41053e-05
-0.00010467 0.00140654 -2.74625e-06
-7.41053e-05 -2.74625e-06 0.00140307
0.000513765 -8.17476e-05 -1.43117e-06
-8.17476e-05 -7.34254e-05 5.90448e-06
-1.43117e-06 5.90448e-06 -0.000114652
0.00283493 -0.000107204 -1.59167e-06
-0.000107204 0.00120386 2.04627e-07
-1.59167e-06 2.04627e-07 0.00120348
0.00253365 -9.52465e-05 4.08698e-05
-9.52465e-05 0.00103385 2.30083e-06
4.08698e-05 2.30083e-06 0.00103755
0.00187665 6.87095e-05 -1.83486e-06
6.87095e-05 8.27448e-05 1.03172e-06
-1.83486e-06 1.03172e-06 -6.12555e-06
0.00175819 6.6006e-05 8.09917e-07
6.6006e-05 2.39388e-05 -1.47224e-07
8.09917e-07 -1.47224e-07 -5.81663e-05
0.00222687 2.20495e-05 -2.76933e-05
2.20495e-05 0.000345148 -4.21438e-06
-2.76933e-05 -4.21438e-06 0.000292537
0.00187811 0.000121893 1.68726e-08
0.000121893 0.000138957 1.21694e-06
1.68726e-08 1.21694e-06 2.71219e-05
0.00175728 0.00016538 -9.05487e-07
0.00016538 0.000127694 -4.97743e-07
-9.05487e-07 -4.97743e-07 1.41069e-06
0.00154686 0.000180464 -1.65598e-06
0.000180464 0.000183194 1.79651e-06
-1.65598e-06 1.79651e-06 5.24456e-05
0.00182809 0.000175833 9.44919e-07
0.000175833 0.000248142 -8.37316e-07
9.44919e-07 -8.37316e-07 0.000113756
0.00189615 0.000130484 2.40743e-07
0.000130484 0.000116364 -1.96431e-08
2.40743e-07 -1.96431e-08 1.1243e-05
0.00167064 0.000201492 8.0107e-07
0.000201492 4.67445e-05 -7.48464e-07
8.0107e-07 -7.48464e-07 -8.70754e-05
0.00174688 0.000134471 4.21431e-06
0.000134471 4.82929e-05 -1.2762e-06
4.21431e-06 -1.2762e-06 -5.6777e-05
0.0018517 1.46913e-05 1.21964e-06
1.46913e-05 9.32322e-05 3.83032e-07
1.21964e-06 3.83032e-07 1.83434e-06
0.00188653 7.64033e-06 -3.29376e-07
7.64033e-06 9.09728e-05 -4.47497e-08
-3.29376e-07 -4.47497e-08 1.08633e-05
0.00181086 5.48762e-06 -2.09854e-06
5.48762e-06 4.24154e-05 -9.5517e-07
-2.09854e-06 -9.5517e-07 -2.58102e-05
0.00170571 -4.15775e-06 -8.86062e-08
-4.15775e-06 3.45736e-05 2.52297e-08
-8.86062e-08 2.52297e-08 -6.59134e-05
0.00187419 -4.6372e-05 -1.1624e-06
-4.6372e-05 8.25512e-05 1.05691e-07
-1.1624e-06 1.05691e-07 1.05469e-05
0.00185304 -2.9915e-05 -2.48213e-07
-2.9915e-05 0.000106331 3.75938e-07
-2.48213e-07 3.75938e-07 1.1732e-05
0.00187814 -2.60638e-05 9.44387e-07
-2.60638e-05 0.000165822 -7.25382e-07
9.44387e-07 -7.25382e-07 5.66375e-05
0.00178912 -6.95334e-05 -2.00798e-06
-6.95334e-05 0.000108675 2.90819e-07
-2.00798e-06 2.90819e-07 1.23172e-05
0.00172034 -4.81901e-05 1.0972e-07
-4.81901e-05 0.000107877 -2.28717e-07
1.0972e-07 -2.28717e-07 -6.21761e-06
0.00160701 -3.52137e-05 -2.14042e-06
-3.52137e-05 0.000102777 5.42844e-07
-2.14042e-06 5.42844e-07 -1.93273e-05
0.00162619 -6.6772e-05 -1.2574e-07
-6.6772e-05 8.87542e-05 -4.06946e-08
-1.2574e-07 -4.06946e-08 -2.72e-05
0.00156023 -6.51464e-05 -5.50262e-08
-6.51464e-05 9.82741e-05 7.99719e-08
-5.50262e-08 7.99719e-08 -2.33661e-05
0.00143274 -6.93046e-05 -4.57021e-06
-6.93046e-05 8.17869e-05 1.40149e-06
-4.57021e-06 1.40149e-06 -3.73015e-05
0.00153336 -9.57068e-05 1.90634e-06
-9.57068e-05 9.90594e-05 -7.69333e-07
1.90634e-06 -7.69333e-07 -2.20371e-05
0.00140397 -9.15432e-05 -7.08017e-08
-9.15432e-05 8.05945e-05 -1.42925e-08
-7.08017e-08 -1.42925e-08 -3.71535e-05
0.00113167 -7.56194e-05 -9.65281e-06
-7.56194e-05 1.77807e-05 2.82302e-06
-9.65281e-06 2.82302e-06 -8.22019e-05
0.00135851 -0.000108287 4.80819e-06
-0.000108287 7.35536e-05 -1.28729e-06
4.80819e-06 -1.28729e-06 -4.49152e-05
0.00110896 -8.72861e-05 2.37417e-07
-8.72861e-05 1.798e-05 1.4462e-07
2.37417e-07 1.4462e-07 -8.1905e-05
0.00222228 -5.84464e-05 -2.0459e-05
-5.84464e-05 0.000778203 4.30116e-06
-2.0459e-05 4.30116e-06 0.000728826
0.00105516 -9.65432e-05 8.98506e-06
-9.65432e-05 9.18656e-06 -3.62838e-06
8.98506e-06 -3.62838e-06 -9.16375e-05
0.00228445 -7.85507e-05 2.3431e-05
-7.85507e-05 0.000821562 -2.0471e-06
2.3431e-05 -2.0471e-06 0.000771772
0.00153749 -3.34977e-05 -0.000109975
-3.34977e-05 0.000489446 1.12159e-05
-0.000109975 1.12159e-05 0.000468401
0.00240463 -0.000101007 6.72968e-05
-0.000101007 0.000895521 -9.84163e-06
6.72968e-05 -9.84163e-06 0.00084549
0.00137511 3.19438e-05 -5.67543e-05
3.19438e-05 0.000419541 3.49388e-06
-5.67543e-05 3.49388e-06 0.000388699
0.00405533 0.000230207 2.70649e-07
0.000230207 0.00192586 -3.30369e-06
2.70649e-07 -3.30369e-06 0.00189037
0.00169295 0.000102728 -6.2357e-07
0.000102728 0.000100482 5.84403e-07
-6.2357e-07 5.84403e-07 -1.97013e-05
0.00163434 0.000125909 -1.78463e-06
0.000125909 0.000139942 -1.02566e-06
-1.78463e-06 -1.02566e-06 1.65353e-05
0.00175889 0.000135134 -2.1126e-06
0.000135134 0.000155921 1.6583e-07
-2.1126e-06 1.6583e-07 3.31302e-05
0.00173222 0.000156985 -2.80204e-06
0.000156985 0.000304372 -2.20019e-08
-2.80204e-06 -2.20019e-08 0.00017873
0.00152389 0.000155093 5.56921e-07
0.000155093 0.000118328 -6.61482e-07
5.56921e-07 -6.61482e-07 -8.76648e-06
0.00148026 0.000144614 5.49669e-06
0.000144614 3.57209e-05 6.38936e-07
5.49669e-06 6.38936e-07 -8.46503e-05
0.00100299 0.000115401 -7.56669e-06
0.000115401 3.93623e-05 -3.27026e-06
-7.56669e-06 -3.27026e-06 -6.87731e-05
0.00122166 0.000148416 -4.6253e-07
0.000148416 9.28208e-05 4.59845e-07
-4.6253e-07 4.59845e-07 -4.14911e-05
0.00162226 0.000179911 3.23632e-06
0.000179911 0.000231786 4.66388e-08
3.23632e-06 4.66388e-08 8.7731e-05
0.00109291 0.000139608 3.01957e-06
0.000139608 9.77789e-05 1.74615e-06
3.01957e-06 1.74615e-06 -3.43073e-05
0.000924379 0.000103627 -3.95837e-07
0.000103627 5.36964e-05 -2.26762e-07
-3.95837e-07 -2.26762e-07 -4.88238e-05
0.000791421 8.91883e-05 -1.26364e-05
8.91883e-05 4.43028e-05 -7.79116e-06
-1.26364e-05 -7.79116e-06 -1.54678e-05
0.00074108 7.69601e-05 3.06174e-06
7.69601e-05 -6.18603e-06 1.92808e-06
3.06174e-06 1.92808e-06 -9.90326e-05
0.00065857 3.5356e-05 1.03776e-08
3.5356e-05 -1.39943e-05 -2.03309e-08
1.03776e-08 -2.03309e-08 -6.54772e-05
0.0035717 -9.11542e-05 -9.01921e-05
-9.11542e-05 0.00162919 -4.62496e-06
-9.01921e-05 -4.62496e-06 0.00162168
0.000544218 -3.19318e-05 2.6467e-06
-3.19318e-05 -6.83683e-05 5.96692e-06
2.6467e-06 5.96692e-06 -0.000110717
0.00313786 -0.000121436 -2.83215e-06
-0.000121436 0.00137895 3.40384e-07
-2.83215e-06 3.40384e-07 0.00137334
0.00277898 -0.00010833 4.67814e-05
-0.00010833 0.0011731 2.13117e-06
4.67814e-05 2.13117e-06 0.00117293
0.00178823 6.46223e-05 9.6636e-07
6.46223e-05 6.3747e-05 1.02542e-06
9.6636e-07 1.02542e-06 -3.58728e-05
0.00182944 7.06724e-05 -4.72631e-07
7.06724e-05 5.52385e-05 1.82878e-07
-4.72631e-07 1.82878e-07 -3.33533e-05
0.00174973 6.6065e-05 1.31167e-06
6.6065e-05 1.76097e-05 -1.68797e-06
1.31167e-06 -1.68797e-06 -6.44788e-05
0.00186822 0.000120461 5.59839e-07
0.000120461 0.000132044 -7.92477e-08
5.59839e-07 -7.92477e-08 2.09171e-05
0.00188048 0.000167709 8.2563e-08
0.000167709 0.00019851 -1.13114e-06
8.2563e-08 -1.13114e-06 7.24717e-05
0.00175352 0.000125131 2.33271e-06
0.000125131 3.91541e-05 -1.39919e-06
2.33271e-06 -1.39919e-06 -6.6931e-05
0.00184316 1.69735e-05 3.2105e-07
1.69735e-05 0.000109132 3.6201e-07
3.2105e-07 3.6201e-07 9.36618e-06
0.00187112 1.61324e-05 3.53662e-07
1.61324e-05 0.000103688 -1.70819e-07
3.53662e-07 -1.70819e-07 1.13987e-05
0.00183305 8.86851e-06 7.91466e-07
8.86851e-06 6.12362e-05 -2.05778e-07
7.91466e-07 -2.05778e-07 -2.038e-05
0.00177979 -1.12292e-05 -1.05542e-06
-1.12292e-05 7.40699e-05 1.38751e-07
-1.05542e-06 1.38751e-07 -2.54144e-05
0.00174923 -1.15546e-05 1.2727e-06
-1.15546e-05 9.03089e-05 -4.56218e-07
1.2727e-06 -4.56218e-07 -1.92489e-05
0.00185097 -3.01972e-05 -8.9961e-07
-3.01972e-05 0.000105431 5.89545e-07
-8.9961e-07 5.89545e-07 1.07111e-05
0.00179377 -2.60898e-05 -1.37863e-07
-2.60898e-05 0.000119972 2.37483e-07
-1.37863e-07 2.37483e-07 8.94614e-06
0.00165969 -1.54279e-05 -3.43417e-08
-1.54279e-05 0.000110524 -3.82764e-07
-3.43417e-08 -3.82764e-07 -9.44751e-06
0.0017002 -4.86508e-05 -6.26258e-08
-4.86508e-05 9.58647e-05 1.84935e-07
-6.26258e-08 1.84935e-07 -1.81664e-05
0.00158842 -3.6566e-05 -5.51083e-07
-3.6566e-05 9.0967e-05 2.21936e-07
-5.51083e-07 2.21936e-07 -3.11652e-05
0.00147405 -3.90604e-05 -5.56654e-06
-3.90604e-05 8.51625e-05 1.69021e-06
-5.56654e-06 1.69021e-06 -3.61942e-05
0.00154734 -6.48802e-05 1.49802e-06
-6.48802e-05 9.03411e-05 -6.2466e-07
1.49802e-06 -6.2466e-07 -3.1257e-05
0.00142887 -6.80339e-05 8.50626e-08
-6.80339e-05 7.94456e-05 -6.98429e-08
8.50626e-08 -6.98429e-08 -3.9522e-05
0.00113587 -5.75119e-05 -9.59493e-06
-5.75119e-05 7.45109e-06 2.51041e-06
-9.59493e-06 2.51041e-06 -9.326e-05
0.00140697 -9.07218e-05 4.62256e-06
-9.07218e-05 8.18451e-05 -1.31587e-06
4.62256e-06 -1.31587e-06 -3.57986e-05
0.00113738 -7.35098e-05 1.97485e-08
-7.35098e-05 1.96129e-05 9.24945e-08
1.97485e-08 9.24945e-08 -7.99958e-05
0.00225379 -6.19267e-05 -2.38756e-05
-6.19267e-05 0.00078534 3.42852e-06
-2.38756e-05 3.42852e-06 0.000737095
0.00110254 -8.54446e-05 9.596e-06
-8.54446e-05 1.3188e-05 -3.19843e-06
9.596e-06 -3.19843e-06 -8.63346e-05
0.00231815 -7.81974e-05 2.23774e-05
-7.81974e-05 0.000826804 -1.76214e-06
2.23774e-05 -1.76214e-06 0.000779423
0.0016249 -3.08349e-05 -0.000111284
-3.08349e-05 0.000529843 9.71603e-06
-0.000111284 9.71603e-06 0.000509387
0.00242738 -9.4692e-05 6.86031e-05
-9.4692e-05 0.000894817 -8.94965e-06
6.86031e-05 -8.94965e-06 0.000847039
0.00142184 1.82848e-05 -5.36588e-05
1.82848e-05 0.000436858 3.77509e-06
-5.36588e-05 3.77509e-06 0.000409181
0.00138139 8.56096e-05 2.74978e-06
8.56096e-05 0.000435071 -4.45966e-06
2.74978e-06 -4.45966e-06 0.000396682
0.00182885 6.24921e-05 7.32562e-07
6.24921e-05 0.000142489 1.20728e-06
7.32562e-07 1.20728e-06 3.37177e-05
0.00155132 9.35915e-05 -2.31401e-06
9.35915e-05 7.74944e-05 -4.29523e-07
-2.31401e-06 -4.29523e-07 -4.66398e-05
0.00171712 0.000104462 -1.13723e-06
0.000104462 0.00011297 -8.54588e-08
-1.13723e-06 -8.54588e-08 -6.13989e-06
0.00159089 0.000126499 -3.97353e-06
0.000126499 0.000179549 -1.24452e-06
-3.97353e-06 -1.24452e-06 6.06121e-05
0.00172177 0.000129428 9.73506e-07
0.000129428 0.000189443 3.84361e-07
9.73506e-07 3.84361e-07 6.61391e-05
0.00178662 0.000138603 3.43498e-06
0.000138603 0.000174794 6.55839e-07
3.43498e-06 6.55839e-07 5.23533e-05
0.00102506 0.00011156 -9.15857e-06
0.00011156 -3.27504e-06 -2.92299e-06
-9.15857e-06 -2.92299e-06 -0.000109991
0.00143426 0.000146836 2.61646e-06
0.000146836 0.000139031 5.6368e-07
2.61646e-06 5.6368e-07 1.24601e-05
0.00148646 0.000156471 2.76648e-06
0.000156471 9.0898e-05 -7.60918e-07
2.76648e-06 -7.60918e-07 -3.63059e-05
0.000729592 0.000113647 -1.61953e-05
0.000113647 -5.26768e-06 -8.03939e-06
-1.61953e-05 -8.03939e-06 -6.95873e-05
0.00100347 0.000114555 -7.13735e-07
0.000114555 3.98996e-05 1.5761e-07
-7.13735e-07 1.5761e-07 -6.79829e-05
0.00126251 0.000151496 4.66167e-06
0.000151496 0.000114742 2.12871e-06
4.66167e-06 2.12871e-06 -2.04603e-05
0.000869059 9.94613e-05 4.88058e-06
9.94613e-05 2.42873e-05 2.84614e-06
4.88058e-06 2.84614e-06 -7.76021e-05
0.000660624 7.9574e-05 -1.7436e-07
7.9574e-05 -2.1018e-05 6.69217e-08
-1.7436e-07 6.69217e-08 -8.02879e-05
0.00412245 -7.86159e-05 -0.000102016
-7.86159e-05 0.00194319 -7.61719e-06
-0.000102016 -7.61719e-06 0.00192866
0.000563247 2.68039e-05 6.05643e-06
2.68039e-05 -6.18558e-05 6.58687e-06
6.05643e-06 6.58687e-06 -0.000112092
0.00348143 -0.000126162 -5.58124e-06
-0.000126162 0.00158104 3.84585e-07
-5.58124e-06 3.84585e-07 0.0015706
0.00306752 -0.000124075 5.4184e-05
-0.000124075 0.00133904 2.08443e-06
5.4184e-05 2.08443e-06 0.00133355
0.00179415 4.4513e-05 5.51781e-07
4.4513e-05 8.82083e-05 1.95322e-07
5.51781e-07 1.95322e-07 -1.44987e-05
0.0017901 6.39135e-05 -7.56385e-08
6.39135e-05 6.51297e-05 2.93162e-07
-7.56385e-08 2.93162e-07 -3.40413e-05
0.00177085 7.21328e-05 3.22452e-06
7.21328e-05 2.27493e-05 -7.08089e-07
3.22452e-06 -7.08089e-07 -6.55679e-05
0.00185588 0.00011885 7.3316e-07
0.00011885 0.000123633 -1.20796e-06
7.3316e-07 -1.20796e-06 1.32265e-05
0.00176459 -3.41593e-06 9.99416e-07
-3.41593e-06 9.38416e-05 3.92927e-08
9.99416e-07 3.92927e-08 -1.62205e-05
0.00187593 1.38053e-05 -9.07877e-08
1.38053e-05 0.00012486 -8.8793e-08
-9.07877e-08 -8.8793e-08 2.52024e-05
0.0018874 1.70336e-05 -7.47182e-07
1.70336e-05 0.00011259 -8.22724e-08
-7.47182e-07 -8.22724e-08 1.94192e-05
0.0018618 -1.50572e-05 -2.41785e-06
-1.50572e-05 0.000118047 -1.27145e-07
-2.41785e-06 -1.27145e-07 1.95519e-05
0.00174568 -5.6582e-06 -6.87274e-07
-5.6582e-06 8.79572e-05 -9.00487e-08
-6.87274e-07 -9.00487e-08 -2.08793e-05
0.00179277 -6.71676e-07 5.97854e-07
-6.71676e-07 0.000173037 -3.32116e-07
5.97854e-07 -3.32116e-07 5.52028e-05
0.00170931 -2.61673e-05 -7.56863e-07
-2.61673e-05 7.39969e-05 9.60301e-07
-7.56863e-07 9.60301e-07 -3.88655e-05
0.00166799 -1.49072e-05 6.60919e-07
-1.49072e-05 0.000115014 -7.21981e-08
6.60919e-07 -7.21981e-08 -5.87039e-06
0.00137496 -1.21644e-05 -4.3459e-06
-1.21644e-05 1.35509e-05 6.4394e-07
-4.3459e-06 6.4394e-07 -0.000108934
0.00155764 -3.63139e-05 7.01669e-07
-3.63139e-05 7.2944e-05 -7.63138e-08
7.01669e-07 -7.63138e-08 -4.91819e-05
0.00144518 -3.61929e-05 -5.27852e-07
-3.61929e-05 7.00869e-05 3.36563e-07
-5.27852e-07 3.36563e-07 -5.10665e-05
0.00117054 -3.53229e-05 -9.86062e-06
-3.53229e-05 9.25418e-06 2.426e-06
-9.86062e-06 2.426e-06 -9.40007e-05
0.00142 -6.47042e-05 4.33968e-06
-6.47042e-05 7.44785e-05 -1.48139e-06
4.33968e-06 -1.48139e-06 -4.42466e-05
0.0011551 -5.72205e-05 -2.12446e-08
-5.72205e-05 1.67662e-05 1.94572e-08
-2.12446e-08 1.94572e-08 -8.38219e-05
0.000685996 -4.13749e-05 -1.46578e-05
-4.13749e-05 -8.59336e-05 3.65191e-06
-1.46578e-05 3.65191e-06 -0.000143242
0.0011453 -7.1595e-05 9.70748e-06
-7.1595e-05 2.24947e-05 -2.74609e-06
9.70748e-06 -2.74609e-06 -7.67314e-05
0.00150676 -5.78404e-05 2.80711e-05
-5.78404e-05 0.000371299 -1.41308e-06
2.80711e-05 -1.41308e-06 0.00032083
0.00481216 -5.86349e-05 -0.000134034
-5.86349e-05 0.00228051 6.19437e-06
-0.000134034 6.19437e-06 0.00227759
0.00242141 -7.95727e-05 6.93079e-05
-7.95727e-05 0.000879324 -7.43864e-06
6.93079e-05 -7.43864e-06 0.000833856
0.00146046 -4.50449e-06 -4.78949e-05
-4.50449e-06 0.000445595 3.47016e-06
-4.78949e-05 3.47016e-06 0.000421691
0.001346 1.92636e-05 1.53871e-05
1.92636e-05 0.000397034 -3.28251e-06
1.53871e-05 -3.28251e-06 0.000368536
0.0018505 4.23224e-05 9.4754e-07
4.23224e-05 0.000157149 5.01179e-07
9.4754e-07 5.01179e-07 5.02415e-05
0.00163324 5.84006e-05 -1.03609e-06
5.84006e-05 0.000106329 7.92709e-07
-1.03609e-06 7.92709e-07 -1.2166e-05
0.00184462 6.00458e-05 1.16553e-08
6.00458e-05 0.000153008 -6.68422e-08
1.16553e-08 -6.68422e-08 4.36936e-05
0.00115753 8.78639e-05 -5.36778e-06
8.78639e-05 -8.13035e-05 -1.60523e-06
-5.36778e-06 -1.60523e-06 -0.000202225
0.0016592 9.65477e-05 -1.24641e-07
9.65477e-05 0.000137569 -2.7792e-08
-1.24641e-07 -2.7792e-08 1.46314e-05
0.0017469 0.000106638 -6.41461e-07
0.000106638 0.000128641 -8.92153e-07
-6.41461e-07 -8.92153e-07 1.05797e-05
0.000668712 8.26938e-05 -1.14399e-05
8.26938e-05 -0.000235833 -3.23495e-06
-1.14399e-05 -3.23495e-06 -0.000340347
0.00163509 0.000129992 1.2331e-06
0.000129992 0.000204242 1.92868e-07
1.2331e-06 1.92868e-07 8.46029e-05
0.0018165 0.000133393 3.70861e-06
0.000133393 0.000243126 1.15053e-06
3.70861e-06 1.15053e-06 0.000119874
0.000663594 0.000108696 -1.63685e-05
0.000108696 -6.57239e-05 -6.81676e-06
-1.63685e-05 -6.81676e-06 -0.000128419
0.000820566 0.000103394 1.14081e-07
0.000103394 -0.000116753 3.28706e-07
1.14081e-07 3.28706e-07 -0.000224282
0.0011297 0.000136388 7.07502e-06
0.000136388 -2.99259e-05 1.51916e-06
7.07502e-06 1.51916e-06 -0.000157387
0.00464575 -8.48974e-05 -0.000104902
-8.48974e-05 0.0022346 -9.60532e-06
-0.000104902 -9.60532e-06 0.00221279
0.000647545 0.000103287 9.11942e-07
0.000103287 -4.74119e-05 2.062e-07
9.11942e-07 2.062e-07 -0.000110906
0.00099054 0.000113054 6.99891e-06
0.000113054 3.35331e-05 3.82803e-06
6.99891e-06 3.82803e-06 -7.40894e-05
0.000534465 7.05027e-05 9.59555e-06
7.05027e-05 -8.49342e-05 7.48377e-06
9.59555e-06 7.48377e-06 -0.000143656
0.00389816 -0.000116373 -7.70856e-06
-0.000116373 0.00182254 4.45144e-07
-7.70856e-06 4.45144e-07 0.00180707
0.00335017 -0.00014153 6.17657e-05
-0.00014153 0.00150884 2.20232e-06
6.17657e-05 2.20232e-06 0.00149669
0.00180695 2.34024e-05 -4.08438e-07
2.34024e-05 0.000116998 -8.43001e-08
-4.08438e-07 -8.43001e-08 8.02565e-06
0.00180437 4.3812e-05 -1.9302e-07
4.3812e-05 9.01674e-05 1.67959e-07
-1.9302e-07 1.67959e-07 -1.23432e-05
0.00179603 6.3705e-05 -7.30142e-08
6.3705e-05 6.86707e-05 -5.50079e-07
-7.30142e-08 -5.50079e-07 -3.00665e-05
0.00174217 7.87753e-06 5.96051e-07
7.87753e-06 0.00013799 -2.53611e-07
5.96051e-07 -2.53611e-07 1.97613e-05
0.00175577 -2.49376e-08 -1.41697e-07
-2.49376e-08 9.18068e-05 4.53881e-08
-1.41697e-07 4.53881e-08 -1.74519e-05
0.00190469 8.11832e-06 -1.27242e-06
8.11832e-06 0.00013834 -4.87114e-08
-1.27242e-06 -4.87114e-08 3.87999e-05
0.00173363 -1.0784e-06 -1.69955e-06
-1.0784e-06 8.07976e-05 5.43806e-07
-1.69955e-06 5.43806e-07 -2.7296e-05
0.00178163 1.86922e-06 1.02765e-06
1.86922e-06 0.000166632 -2.0875e-07
1.02765e-06 -2.0875e-07 4.87835e-05
0.00175989 6.68133e-07 -2.86919e-06
6.68133e-07 0.000213268 8.79468e-08
-2.86919e-06 8.79468e-08 9.45051e-05
0.00168685 -1.43267e-05 1.62946e-06
-1.43267e-05 0.000125098 5.85559e-08
1.62946e-06 5.85559e-08 3.3107e-06
0.00160811 -1.03684e-05 -2.05482e-09
-1.03684e-05 0.000141772 6.57598e-08
-2.05482e-09 6.57598e-08 2.0893e-05
0.000832393 -1.20899e-05 -1.19212e-05
-1.20899e-05 -0.000195033 2.09038e-06
-1.19212e-05 2.09038e-06 -0.000304022
0.00142921 -3.56147e-05 3.86888e-06
-3.56147e-05 6.17432e-05 -9.57586e-07
3.86888e-06 -9.57586e-07 -5.93205e-05
0.00117135 -3.27129e-05 4.48255e-08
-3.27129e-05 9.00406e-06 6.33062e-08
4.48255e-08 6.33062e-08 -9.40544e-05
0.000688628 -1.93895e-05 -1.45746e-05
-1.93895e-05 -9.47588e-05 2.80306e-06
-1.45746e-05 2.80306e-06 -0.000154396
0.00117497 -5.57282e-05 9.92022e-06
-5.57282e-05 2.63271e-05 -2.56081e-06
9.92022e-06 -2.56081e-06 -7.40301e-05
0.000689599 -2.86404e-05 -2.29902e-07
-2.86404e-05 -8.48908e-05 1.20165e-07
-2.29902e-07 1.20165e-07 -0.000142146
0.00484425 -4.12429e-05 -0.000130641
-4.12429e-05 0.00229567 4.58996e-06
-0.000130641 4.58996e-06 0.00229331
0.000731812 -4.98954e-05 1.53905e-05
-4.98954e-05 -5.70084e-05 -5.35585e-06
1.53905e-05 -5.35585e-06 -0.000113824
0.00311801 -3.39031e-05 5.52272e-05
-3.39031e-05 0.00135047 -4.48641e-08
5.52272e-05 -4.48641e-08 0.00133546
0.00128713 -1.42811e-05 2.19755e-05
-1.42811e-05 0.000356718 -2.9925e-06
2.19755e-05 -2.9925e-06 0.000329578
0.00183259 3.01299e-05 9.42946e-08
3.01299e-05 0.000165462 8.41351e-08
9.42946e-08 8.41351e-08 5.60786e-05
0.00162788 3.24228e-05 -6.81976e-07
3.24228e-05 0.000101827 7.02624e-07
-6.81976e-07 7.02624e-07 -1.39216e-05
0.00181155 4.01706e-05 -3.58436e-07
4.01706e-05 0.000136077 -1.97575e-07
-3.58436e-07 -1.97575e-07 2.92252e-05
0.00141369 6.1955e-05 -4.36887e-06
6.1955e-05 4.76455e-05 -3.67698e-07
-4.36887e-06 -3.67698e-07 -6.97959e-05
0.00158072 5.65201e-05 3.9471e-07
5.65201e-05 7.72324e-05 1.58968e-07
3.9471e-07 1.58968e-07 -4.20232e-05
0.00186047 5.7322e-05 -1.0276e-06
5.7322e-05 0.000163422 -1.05246e-06
-1.0276e-06 -1.05246e-06 5.35804e-05
0.000698323 6.65168e-05 -1.15718e-05
6.65168e-05 -0.000240789 -3.08523e-06
-1.15718e-05 -3.08523e-06 -0.000344283
0.00151676 9.87866e-05 -1.45224e-06
9.87866e-05 0.000115114 -3.66503e-07
-1.45224e-06 -3.66503e-07 -4.25786e-06
0.00176827 9.93324e-05 2.52624e-06
9.93324e-05 0.000198189 1.1064e-07
2.52624e-06 1.1064e-07 7.64794e-05
0.000636273 8.05965e-05 -1.53298e-05
8.05965e-05 -9.96811e-05 -5.47924e-06
-1.53298e-05 -5.47924e-06 -0.000159708
0.000674174 8.37157e-05 -2.53375e-06
8.37157e-05 -0.000232996 -6.27819e-07
-2.53375e-06 -6.27819e-07 -0.000337979
0.00167855 0.000133486 6.6258e-06
0.000133486 0.000228525 1.43373e-06
6.6258e-06 1.43373e-06 0.000108186
0.00491289 -2.79684e-05 -0.000118338
-2.79684e-05 0.00235507 -8.13489e-06
-0.000118338 -8.13489e-06 0.00234419
0.000623165 9.86094e-05 8.82863e-07
9.86094e-05 -8.54973e-05 3.80926e-07
8.82863e-07 3.80926e-07 -0.000148902
0.000611082 9.50941e-05 9.04778e-06
9.50941e-05 -0.000232933 3.3845e-06
9.04778e-06 3.3845e-06 -0.000341282
0.00439507 -6.74637e-05 8.42778e-07
-6.74637e-05 0.00208867 -1.41069e-07
8.42778e-07 -1.41069e-07 0.00207462
0.000526131 9.42772e-05 1.31181e-05
9.42772e-05 -0.00011008 7.8634e-06
1.31181e-05 7.8634e-06 -0.000173015
0.00369202 -0.000147071 7.24802e-05
-0.000147071 0.00171207 3.48593e-06
7.24802e-05 3.48593e-06 0.00169459
0.00178073 1.88701e-05 -4.15726e-07
1.88701e-05 0.000157187 -2.24421e-07
-4.15726e-07 -2.24421e-07 4.15915e-05
0.00177112 2.23461e-05 -8.63063e-08
2.23461e-05 0.00010122 6.20702e-08
-8.63063e-08 6.20702e-08 -8.24865e-06
0.00181461 4.30545e-05 -7.86649e-07
4.30545e-05 9.19495e-05 -1.50872e-07
-7.86649e-07 -1.50872e-07 -1.03643e-05
0.00173735 -1.69656e-06 -3.1112e-06
-1.69656e-06 0.000201657 -1.30584e-07
-3.1112e-06 -1.30584e-07 8.44223e-05
0.00176747 7.18875e-06 7.052e-07
7.18875e-06 0.000151937 -9.2474e-09
7.052e-07 -9.2474e-09 3.46398e-05
0.00175998 5.56333e-06 1.47633e-07
5.56333e-06 9.67351e-05 -5.76985e-09
1.47633e-07 -5.76985e-09 -1.176e-05
0.00177067 3.28203e-06 1.03048e-06
3.28203e-06 0.000160324 2.06729e-07
1.03048e-06 2.06729e-07 4.24649e-05
0.00176019 1.0147e-06 1.54162e-06
1.0147e-06 0.00021354 -1.84844e-07
1.54162e-06 -1.84844e-07 9.47211e-05
0.000839149 -3.16162e-06 -1.13744e-05
-3.16162e-06 -0.000201244 8.47741e-07
-1.13744e-05 8.47741e-07 -0.000310965
0.00183884 -8.75703e-06 5.39958e-06
-8.75703e-06 0.000268849 -7.34476e-07
5.39958e-06 -7.34476e-07 0.000149567
0.00101997 -1.04989e-05 -2.40724e-06
-1.04989e-05 -9.16748e-05 5.16228e-07
-2.40724e-06 5.16228e-07 -0.000198983
0.000708224 -7.2781e-06 -1.51207e-05
-7.2781e-06 -9.67487e-05 2.07704e-06
-1.51207e-05 2.07704e-06 -0.000159271
0.00118139 -3.15648e-05 9.86417e-06
-3.15648e-05 1.36415e-05 -2.33072e-06
9.86417e-06 -2.33072e-06 -8.92959e-05
0.000699974 -1.4644e-05 2.78976e-07
-1.4644e-05 -8.96732e-05 -3.0165e-08
2.78976e-07 -3.0165e-08 -0.000149173
0.00495279 -3.07049e-05 -0.000131064
-3.07049e-05 0.00235144 3.09298e-06
-0.000131064 3.09298e-06 0.00234919
0.000683812 -2.15048e-05 1.37742e-05
-2.15048e-05 -8.92467e-05 -3.19923e-06
1.37742e-05 -3.19923e-06 -0.000146053
0.00486927 -8.39557e-06 7.22595e-06
-8.39557e-06 0.00230879 1.42454e-07
7.22595e-06 1.42454e-07 0.00230626
0.00149035 -1.6056e-05 0.000114613
-1.6056e-05 0.000454487 -5.11605e-06
0.000114613 -5.11605e-06 0.000435766
0.0018069 2.24116e-05 -4.40183e-07
2.24116e-05 0.000198376 -1.19241e-07
-4.40183e-07 -1.19241e-07 8.46997e-05
0.00175284 3.30577e-05 -3.52393e-07
3.30577e-05 0.000120635 1.35681e-07
-3.52393e-07 1.35681e-07 1.16042e-05
0.00143754 3.10219e-05 -3.81877e-06
3.10219e-05 5.57587e-05 -3.09738e-07
-3.81877e-06 -3.09738e-07 -5.91195e-05
0.00159059 3.17164e-05 3.99696e-07
3.17164e-05 8.19521e-05 -5.82306e-09
3.99696e-07 -5.82306e-09 -3.38966e-05
0.00177033 3.80763e-05 -3.60718e-07
3.80763e-05 0.000113862 -8.48484e-07
-3.60718e-07 -8.48484e-07 7.07216e-06
0.00117331 5.43717e-05 -9.93972e-06
5.43717e-05 7.50324e-06 -1.85443e-06
-9.93972e-06 -1.85443e-06 -9.25161e-05
0.00144025 6.25218e-05 -4.9773e-08
6.25218e-05 6.06868e-05 2.73085e-07
-4.9773e-08 2.73085e-07 -5.67368e-05
0.00152554 5.46259e-05 8.26321e-07
5.46259e-05 4.68148e-05 -2.90471e-07
8.26321e-07 -2.90471e-07 -7.32169e-05
0.000655005 5.59498e-05 -1.4997e-05
5.59498e-05 -0.000104487 -4.19382e-06
-1.4997e-05 -4.19382e-06 -0.000162506
0.000919769 7.39664e-05 -2.97019e-06
7.39664e-05 -0.000118931 -5.37177e-07
-2.97019e-06 -5.37177e-07 -0.00022166
0.00188217 0.000109877 4.80137e-06
0.000109877 0.000314922 1.01523e-06
4.80137e-06 1.01523e-06 0.000197081
0.00498089 3.98825e-05 -0.000135741
3.98825e-05 0.00237328 -7.07166e-06
-0.000135741 -7.07166e-06 0.00236989
0.000627121 7.61087e-05 1.40707e-07
7.61087e-05 -0.00010427 1.39078e-07
1.40707e-07 1.39078e-07 -0.000164584
0.000679805 8.49745e-05 6.85066e-06
8.49745e-05 -0.000230154 2.12877e-06
6.85066e-06 2.12877e-06 -0.000335622
0.00474951 -9.99066e-06 8.96087e-06
-9.99066e-06 0.00226829 2.22149e-07
8.96087e-06 2.22149e-07 0.00225762
0.000574989 8.78355e-05 1.41106e-05
8.78355e-05 -0.000109952 7.08895e-06
1.41106e-05 7.08895e-06 -0.000173724
0.00414993 -0.000106709 8.80878e-05
-0.000106709 0.00195976 5.69129e-06
8.80878e-05 5.69129e-06 0.00194446
0.00173778 1.60432e-05 -2.83084e-06
1.60432e-05 0.000206575 -5.56752e-07
-2.83084e-06 -5.56752e-07 9.16471e-05
0.00177459 1.5221e-05 8.19158e-08
1.5221e-05 0.000156044 1.02231e-07
8.19158e-08 1.02231e-07 4.0138e-05
0.0017356 2.10001e-05 -9.65713e-08
2.10001e-05 8.60391e-05 3.11024e-07
-9.65713e-08 3.11024e-07 -2.39129e-05
0.000833675 -1.08569e-05 -1.18862e-05
-1.08569e-05 -0.000202767 -6.4735e-08
-1.18862e-05 -6.4735e-08 -0.000311405
0.00175951 4.99726e-06 1.59999e-06
4.99726e-06 0.000213935 -4.52806e-08
1.59999e-06 -4.52806e-08 9.6631e-05
0.00178679 6.64494e-06 1.49466e-06
6.64494e-06 0.000162845 9.18197e-08
1.49466e-06 9.18197e-08 4.6495e-05
0.00176229 1.12633e-06 5.78978e-06
1.12633e-06 0.000214833 -2.05712e-07
5.78978e-06 -2.05712e-07 9.59499e-05
0.000832954 -3.4189e-06 -1.83299e-06
-3.4189e-06 -0.000204736 2.17585e-07
-1.83299e-06 2.17585e-07 -0.000314478
0.000742724 -6.56106e-06 -1.55484e-05
-6.56106e-06 -8.64865e-05 8.21154e-07
-1.55484e-05 8.21154e-07 -0.000150188
0.00119506 -8.09002e-06 7.94199e-06
-8.09002e-06 4.92226e-06 -1.28462e-06
7.94199e-06 -1.28462e-06 -0.000100694
0.000713628 2.08674e-06 2.00936e-07
2.08674e-06 -9.47869e-05 1.6306e-07
2.00936e-07 1.6306e-07 -0.000157161
0.00515267 -5.25909e-05 -0.000136832
-5.25909e-05 0.00245818 1.92166e-06
-0.000136832 1.92166e-06 0.00245396
0.000719735 -2.52253e-06 1.43768e-05
-2.52253e-06 -8.01175e-05 -2.40659e-06
1.43768e-05 -2.40659e-06 -0.000139521
0.00501806 1.97709e-05 6.3041e-06
1.97709e-05 0.00238727 2.49946e-07
6.3041e-06 2.49946e-07 0.00238385
0.00489653 -4.22613e-05 0.000141179
-4.22613e-05 0.00232232 -3.64721e-06
0.000141179 -3.64721e-06 0.00232028
0.00150159 1.90641e-05 -3.86729e-06
1.90641e-05 8.80518e-05 -9.21473e-07
-3.86729e-06 -9.21473e-07 -2.66555e-05
0.00168851 2.36037e-05 4.92049e-07
2.36037e-05 0.000133311 -4.08123e-09
4.92049e-07 -4.08123e-09 2.00149e-05
0.00167332 3.6139e-05 -5.07477e-07
3.6139e-05 7.58879e-05 1.58899e-07
-5.07477e-07 1.58899e-07 -3.27904e-05
0.00117826 2.58863e-05 -9.63077e-06
2.58863e-05 4.12238e-06 -1.55593e-06
-9.63077e-06 -1.55593e-06 -9.5422e-05
0.0014552 3.12737e-05 2.32085e-07
3.12737e-05 6.43932e-05 -3.88127e-08
2.32085e-07 -3.88127e-08 -5.05845e-05
0.00154836 3.09756e-05 6.12492e-07
3.09756e-05 5.95298e-05 -8.67672e-07
6.12492e-07 -8.67672e-07 -5.64312e-05
0.000680063 3.37858e-05 -1.45246e-05
3.37858e-05 -0.000101266 -3.13915e-06
-1.45246e-05 -3.13915e-06 -0.000159348
0.00117017 5.57755e-05 2.81389e-08
5.57755e-05 6.13634e-06 2.41731e-07
2.81389e-08 2.41731e-07 -9.4183e-05
0.00146646 6.3046e-05 4.63101e-06
6.3046e-05 7.35074e-05 9.69378e-07
4.63101e-06 9.69378e-07 -4.38968e-05
0.00499486 6.39336e-05 -0.000147116
6.39336e-05 0.00237444 -6.10643e-06
-0.000147116 -6.10643e-06 0.00237221
0.000660516 5.6074e-05 7.78054e-08
5.6074e-05 -0.000101189 1.00893e-07
7.78054e-08 1.00893e-07 -0.000159342
0.00113087 8.12871e-05 7.2422e-06
8.12871e-05 -2.68381e-06 2.08838e-06
7.2422e-06 2.08838e-06 -0.000104626
0.004904 4.99054e-05 5.15295e-06
4.99054e-05 0.00233602 9.20622e-07
5.15295e-06 9.20622e-07 0.00233109
0.000622162 7.21933e-05 1.42918e-05
7.21933e-05 -0.000106696 5.48641e-06
1.42918e-05 5.48641e-06 -0.000167043
0.00461434 2.46258e-06 0.000116945
2.46258e-06 0.00218955 6.98016e-06
0.000116945 6.98016e-06 0.00218358
0.00123207 7.80148e-06 -1.05316e-05
7.80148e-06 1.89622e-05 -6.24317e-07
-1.05316e-05 -6.24317e-07 -8.53442e-05
0.00155905 1.11939e-05 1.737e-06
1.11939e-05 0.000107766 2.50736e-08
1.737e-06 2.50736e-08 -8.89844e-06
0.0017661 1.0468e-05 1.09445e-06
1.0468e-05 0.000153341 6.13774e-07
1.09445e-06 6.13774e-07 3.71197e-05
0.000726434 1.92882e-05 -1.58891e-05
1.92882e-05 -0.000100359 -2.53771e-07
-1.58891e-05 -2.53771e-07 -0.000160653
0.000831324 -4.56595e-06 -1.99682e-06
-4.56595e-06 -0.000204715 4.9571e-08
-1.99682e-06 4.9571e-08 -0.000313453
0.00178166 1.15087e-05 6.30487e-06
1.15087e-05 0.000226168 -7.15696e-09
6.30487e-06 -7.15696e-09 0.000108792
0.000825816 -3.21393e-06 7.59036e-06
-3.21393e-06 -0.000208774 -3.63188e-07
7.59036e-06 -3.63188e-07 -0.000318525
0.000712846 2.75136e-06 6.65552e-08
2.75136e-06 -0.000102836 3.04046e-07
6.65552e-08 3.04046e-07 -0.00016638
0.00528069 5.46519e-05 -0.00014361
5.46519e-05 0.00252279 -5.71897e-07
-0.00014361 -5.71897e-07 0.00251956
0.000700226 1.1148e-05 1.46751e-05
1.1148e-05 -0.000102616 -1.33165e-06
1.46751e-05 -1.33165e-06 -0.000164922
0.00518904 -3.20059e-05 -2.05344e-06
-3.20059e-05 0.00247467 8.76689e-07
-2.05344e-06 8.76689e-07 0.00247168
0.00506319 4.14012e-05 0.000136941
4.14012e-05 0.00240864 -1.44726e-06
0.000136941 -1.44726e-06 0.00240614
0.00120761 1.26465e-05 -1.0214e-05
1.26465e-05 1.35365e-05 -1.63577e-06
-1.0214e-05 -1.63577e-06 -8.79841e-05
0.00140875 1.73847e-05 3.70574e-08
1.73847e-05 3.58221e-05 -1.69777e-07
3.70574e-08 -1.69777e-07 -7.92352e-05
0.00157386 2.47286e-05 8.17938e-07
2.47286e-05 7.02618e-05 -2.35535e-07
8.17938e-07 -2.35535e-07 -4.26595e-05
0.00251046 1.60973e-05 -7.61669e-05
1.60973e-05 0.000896796 -2.12747e-06
-7.61669e-05 -2.12747e-06 0.000852328
0.00118561 2.78227e-05 1.60485e-07
2.78227e-05 7.86987e-06 6.21496e-08
1.60485e-07 6.21496e-08 -9.18887e-05
0.00147436 3.14083e-05 4.33896e-06
3.14083e-05 7.38321e-05 2.58726e-07
4.33896e-06 2.58726e-07 -4.12455e-05
0.0050077 6.55288e-05 -0.000151874
6.55288e-05 0.00237983 -4.65585e-06
-0.000151874 -4.65585e-06 0.00237702
0.000703232 3.63989e-05 1.72539e-07
3.63989e-05 -8.79603e-05 1.46429e-07
1.72539e-07 1.46429e-07 -0.000146283
0.00117366 5.73132e-05 9.97137e-06
5.73132e-05 8.1577e-06 2.3021e-06
9.97137e-06 2.3021e-06 -9.244e-05
0.00496235 7.53864e-05 8.78963e-07
7.53864e-05 0.00236073 9.28853e-07
8.78963e-07 9.28853e-07 0.00235721
0.000668271 5.59926e-05 1.45093e-05
5.59926e-05 -9.63425e-05 4.4434e-06
1.45093e-05 4.4434e-06 -0.000154638
0.00483093 6.49023e-05 0.000133792
6.49023e-05 0.00229748 7.79379e-06
0.000133792 7.79379e-06 0.00229282
0.000763102 7.94711e-06 -1.57953e-05
7.94711e-06 -7.50413e-05 -1.60444e-06
-1.57953e-05 -1.60444e-06 -0.000137788
0.00103869 5.08031e-06 4.71023e-07
5.08031e-06 -8.67183e-05 4.19874e-07
4.71023e-07 4.19874e-07 -0.000192363
0.00137392 6.23634e-06 5.64998e-06
6.23634e-06 5.4344e-06 6.0917e-07
5.64998e-06 6.0917e-07 -0.000112931
0.00529122 -7.76059e-05 -0.000133361
-7.76059e-05 0.00253861 -1.98312e-06
-0.000133361 -1.98312e-06 0.00252864
0.000722694 9.43228e-06 -1.8631e-07
9.43228e-06 -9.94737e-05 2.26819e-07
-1.8631e-07 2.26819e-07 -0.000161473
0.000838192 1.36679e-06 7.80897e-06
1.36679e-06 -0.000201763 8.13003e-08
7.80897e-06 8.13003e-08 -0.000310594
0.00070139 1.54938e-05 1.50278e-05
1.54938e-05 -0.000109212 -2.01144e-08
1.50278e-05 -2.01144e-08 -0.000172769
0.00530537 3.52029e-05 4.8849e-06
3.52029e-05 0.00253958 4.4889e-07
4.8849e-06 4.4889e-07 0.00253347
0.00526295 7.65317e-05 0.000138634
7.65317e-05 0.00251509 -5.55291e-08
0.000138634 -5.55291e-08 0.00251019
0.00259051 -5.02706e-06 -7.81292e-05
-5.02706e-06 0.000932417 -1.86957e-06
-7.81292e-05 -1.86957e-06 0.000886264
0.00121723 1.48972e-05 -7.33232e-08
1.48972e-05 1.85163e-05 -2.1223e-08
-7.33232e-08 -2.1223e-08 -8.30046e-05
0.00131555 1.58494e-05 4.06291e-06
1.58494e-05 -1.66334e-05 5.30751e-07
4.06291e-06 5.30751e-07 -0.000132035
0.00478383 -3.30335e-06 -3.04643e-05
-3.30335e-06 0.00226621 -1.0177e-06
-3.04643e-05 -1.0177e-06 0.00225479
0.000735682 2.13971e-05 -5.91203e-08
2.13971e-05 -7.51228e-05 1.94529e-07
-5.91203e-08 1.94529e-07 -0.000134874
0.00120916 3.04265e-05 9.88232e-06
3.04265e-05 2.00138e-05 1.73572e-06
9.88232e-06 1.73572e-06 -7.99125e-05
0.00501332 5.50265e-05 -6.19282e-06
5.50265e-05 0.00238297 3.10876e-07
-6.19282e-06 3.10876e-07 0.00238082
0.000729552 4.50759e-05 1.53457e-05
4.50759e-05 -7.21936e-05 3.70729e-06
1.53457e-05 3.70729e-06 -0.000131137
0.00493293 8.93903e-05 0.000142294
8.93903e-05 0.00234789 7.65044e-06
0.000142294 7.65044e-06 0.00234324
0.00171918 -2.44801e-05 -0.000133726
-2.44801e-05 0.000560794 2.84958e-07
-0.000133726 2.84958e-07 0.000539076
0.00166573 1.39026e-05 -3.19136e-05
1.39026e-05 0.000419739 3.95706e-07
-3.19136e-05 3.95706e-07 0.000366715
0.000846246 5.29326e-06 1.02415e-05
5.29326e-06 -0.000191804 1.30708e-06
1.02415e-05 1.30708e-06 -0.000298812
0.00527956 -3.09507e-05 7.28038e-06
-3.09507e-05 0.00252835 -9.84263e-07
7.28038e-06 -9.84263e-07 0.00252144
0.000709066 1.05734e-06 1.57137e-05
1.05734e-06 -0.000104636 7.61024e-07
1.57137e-05 7.61024e-07 -0.000167687
0.00530599 -3.6475e-05 0.000150967
-3.6475e-05 0.00253706 4.67075e-07
0.000150967 4.67075e-07 0.002533
0.00140975 -6.5453e-05 -8.64605e-06
-6.5453e-05 0.000413783 -8.11108e-07
-8.64605e-06 -8.11108e-07 0.000378651
0.00165738 9.14851e-06 -3.13154e-05
9.14851e-06 0.000423122 -4.24717e-08
-3.13154e-05 -4.24717e-08 0.000369772
0.00121864 1.53323e-05 9.89218e-06
1.53323e-05 1.93235e-05 1.63713e-06
9.89218e-06 1.63713e-06 -8.22263e-05
0.00321652 3.55192e-05 5.4457e-05
3.55192e-05 0.00139961 4.6545e-07
5.4457e-05 4.6545e-07 0.00138213
0.000750589 2.99895e-05 1.55973e-05
2.99895e-05 -6.68304e-05 3.08021e-06
1.55973e-05 3.08021e-06 -0.000126907
0.00500262 9.36457e-05 0.00014431
9.36457e-05 0.00238272 6.47836e-06
0.00014431 6.47836e-06 0.00237784
0.00523107 -3.51842e-05 -8.99146e-06
-3.51842e-05 0.00250322 3.47929e-07
-8.99146e-06 3.47929e-07 0.00249626
0.000721372 2.34682e-05 1.60813e-05
2.34682e-05 -9.7639e-05 1.69476e-06
1.60813e-05 1.69476e-06 -0.000157589
0.00525661 6.74674e-05 0.000136999
6.74674e-05 0.00251783 -1.44578e-06
0.000136999 -1.44578e-06 0.00250994
0.00327016 2.07983e-05 6.6376e-05
2.07983e-05 0.00142625 7.895e-07
6.6376e-05 7.895e-07 0.00140856
0.000730126 9.59274e-06 1.53026e-05
9.59274e-06 -8.37507e-05 2.40596e-06
1.53026e-05 2.40596e-06 -0.000144789
0.00505121 -8.91794e-06 0.000136018
-8.91794e-06 0.00240161 3.33699e-06
0.000136018 3.33699e-06 0.00239985
0.00518761 -0.000123652 0.000130395
-0.000123652 0.00248617 -5.67927e-08
0.000130395 -5.67927e-08 0.00247526
0.00510427 -6.95264e-05 0.00013196
-6.95264e-05 0.00243357 1.38998e-06
0.00013196 1.38998e-06 0.00242857
