# vtk DataFile Version 2.0
Wound Healing Simulation
ASCII
DATASET UNSTRUCTURED_GRID
POINTS 3012 float
69.9759 18.75 4
67.2507 60.3285 4
69.976 18.75 2
73.0099 25.446 4
71.1327 20.9142 4
68.6801 16.6661 4
67.8221 19.9263 3.97501
67.2507 60.3286 2
71.1327 54.0858 4
68.6801 58.3339 4
65.6939 62.2254 4
65.3091 58.9992 3.97363
74.6784 42.3946 4
73.7221 47.2057 4
69.9759 18.75 0
73.0099 25.446 2
68.6801 16.6661 2
71.1327 20.9142 2
67.8229 19.9303 2
74.6792 32.6053 4
73.7222 27.7943 4
72.1454 23.1494 4
70.6117 26.2216 3.97479
68.8825 21.9579 3.97539
67.2507 14.6715 4
66.6334 17.973 3.97378
65.7809 21.0309 3.96356
67.2507 60.3285 0
71.1327 54.0858 2
68.6801 58.3339 2
65.694 62.2255 2
65.31 58.9945 2
72.1454 51.8506 4
69.9759 56.25 4
68.8331 53.1136 3.97492
64.0165 64.0165 4
66.6073 57.1327 3.97471
63.8823 60.7633 3.97329
63.492 57.7639 3.9653
60.3285 67.2507 4
74.6792 42.3947 2
73.7222 47.2057 2
74.9194 39.9526 4
74.2788 44.8158 4
72.1664 42.0856 3.97626
73.0099 49.554 4
71.2469 46.598 3.97464
73.0099 25.446 0
71.1327 20.9142 0
68.6801 16.6661 0
67.8221 19.9263 0.0249905
74.6792 32.6053 2
73.7222 27.7943 2
67.2508 14.6715 2
72.1455 23.1494 2
70.6112 26.2223 2
66.6348 17.9777 2
68.8829 21.9607 2
65.7781 21.0331 2
74.9197 35.0474 4
74.2794 30.1841 4
72.1831 32.9444 3.97659
71.2761 28.4323 3.97516
69.8127 24.0597 3.97513
68.3384 26.9552 3.96419
66.7483 22.9378 3.96367
65.694 12.7746 4
65.3196 16.1059 3.9719
64.7012 19.2017 3.96353
63.7893 22.0733 3.9643
71.1327 54.0858 0
65.6939 62.2254 0
68.6801 58.3339 0
65.3091 58.9992 0.0263659
72.1455 51.8506 2
69.9759 56.25 2
68.8333 53.111 2
64.0165 64.0165 2
66.6083 57.1285 2
63.8837 60.7581 2
63.4901 57.7639 2
62.2254 65.694 4
58.8916 65.4128 3.98293
69.7659 50.9895 3.97464
67.7803 55.1673 3.97502
66.6311 52.2052 3.96377
62.3325 62.4245 3.97686
64.6512 56.0272 3.96413
62.1952 59.3909 3.96507
61.7644 56.65 3.96128
58.3339 68.6801 4
60.3285 67.2508 2
73.7221 47.2057 0
74.6784 42.3946 0
74.9197 39.9526 2
74.2794 44.8159 2
72.1656 42.0854 2
73.0099 49.554 2
71.2463 46.5976 2
75 37.5 4
72.4038 39.8025 3.97735
71.7805 44.3529 3.97603
69.7986 41.7898 3.96679
70.5724 48.8138 3.97434
68.9043 46.0134 3.96527
74.6792 32.6053 0
73.7222 27.7943 0
67.2507 14.6715 0
72.1454 23.1494 0
70.6117 26.2216 0.0252134
68.8825 21.9579 0.0246074
66.6334 17.973 0.0262205
65.7809 21.0309 0.0364365
74.9197 35.0474 2
74.2794 30.1841 2
72.1824 32.9446 2
71.2756 28.4327 2
65.694 12.7745 2
65.321 16.111 2
69.8125 24.0613 2
68.3396 26.9562 2
64.6955 19.2041 2
66.7482 22.9397 2
63.7886 22.0743 2
72.4117 35.225 3.9774
71.8021 30.6773 3.97613
69.8348 33.2713 3.96674
68.9601 29.0414 3.96512
67.6007 24.9159 3.96385
66.0822 27.6642 3.96852
64.0165 10.9835 4
64.6507 23.8659 3.96585
63.8856 14.3305 3.97266
63.5029 17.4573 3.96383
62.8155 20.3612 3.96234
61.9007 23.0165 3.96864
60.6807 11.1019 3.97784
57.6052 11.4755 3.96901
72.1454 51.8506 0
69.9759 56.25 0
68.8331 53.1136 0.0250828
64.0165 64.0165 0
63.8823 60.7633 0.0267145
66.6073 57.1327 0.0252935
63.492 57.7639 0.0347002
62.2255 65.694 2
58.8938 65.4088 2
69.7657 50.9878 2
67.7809 55.1638 2
66.6306 52.2039 2
62.3348 62.4196 2
64.6466 56.0257 2
62.1924 59.3909 2
61.7635 56.6505 2
60.6658 63.9735 3.97951
57.0225 66.7335 3.98575
57.552 63.6732 3.9712
67.4899 50.1731 3.96406
65.6876 54.1694 3.96383
64.4153 51.3496 3.96603
60.7674 60.9175 3.96815
62.7389 55.0352 3.96332
60.6163 58.1267 3.9601
60.2082 55.728 3.96475
56.25 69.9759 4
58.3339 68.6801 2
60.3285 67.2507 0
58.918 9.65981 3.97918
62.2254 9.30607 4
73.0099 49.554 0
74.2788 44.8158 0
71.2469 46.598 0.0253626
72.1664 42.0856 0.023744
74.9194 39.9526 0
75 37.5 2
72.4036 39.8025 2
71.7803 44.3524 2
69.7978 41.7895 2
70.5719 48.813 2
68.9053 46.0129 2
72.4872 37.5126 3.97696
70.0362 39.6582 3.9672
69.4248 43.9071 3.96638
67.494 41.4882 3.97301
68.2517 48.1044 3.96453
66.5835 45.417 3.97082
74.9197 35.0474 0
74.2794 30.1841 0
72.1831 32.9444 0.0234065
71.2761 28.4323 0.0248418
65.694 12.7746 0
65.3196 16.1059 0.0281019
69.8127 24.0597 0.0248726
68.3384 26.9552 0.035808
66.7483 22.9378 0.0363306
64.7012 19.2017 0.0364727
63.7893 22.0733 0.0357007
72.4115 35.225 2
71.8018 30.6779 2
69.8341 33.2719 2
68.9597 29.0425 2
64.0165 10.9835 2
63.8876 14.336 2
63.5009 17.4585 2
67.6017 24.9174 2
66.0814 27.665 2
62.8135 20.3621 2
64.6496 23.867 2
61.8997 23.0175 2
60.6834 11.1064 2
57.6061 11.4688 2
70.0531 35.3942 3.96724
69.4615 31.1527 3.96582
67.5591 33.6039 3.97214
66.6601 29.6477 3.96956
65.4138 25.7323 3.96735
63.9121 28.3134 3.97538
62.3376 12.6589 3.97593
62.6464 24.707 3.97096
62.1898 15.8014 3.96527
61.7379 18.727 3.96035
61.0367 21.4196 3.96558
60.1441 23.8338 3.97268
59.2389 12.8105 3.96618
55.8681 10.2597 3.97266
56.3932 13.1737 3.96921
69.7659 50.9895 0.0253648
62.2254 65.694 0
58.8916 65.4128 0.0170721
67.7803 55.1673 0.024981
66.6311 52.2052 0.0362344
62.3325 62.4245 0.0231443
62.1952 59.3909 0.0349272
64.6512 56.0272 0.0358691
61.7644 56.65 0.0387177
60.6681 63.9705 2
57.0251 66.7312 2
57.553 63.678 2
67.4909 50.1721 2
65.6845 54.1679 2
64.4149 51.3491 2
60.7657 60.9193 2
62.7379 55.0352 2
60.6193 58.1286 2
60.2066 55.728 2
55.0683 67.9311 3.98753
59.213 62.3364 3.96867
55.8004 64.9 3.97404
56.3155 62.0433 3.97142
65.1989 49.3745 3.96741
63.5988 53.2568 3.96462
62.2 50.5831 3.97003
59.3146 59.5245 3.96122
60.9115 54.2459 3.96729
59.1781 56.9498 3.96138
59.0683 55.1066 3.96784
48.0995 68.5737 3.98353
50.9461 69.9312 3.98954
54.0858 71.1327 4
56.25 69.976 2
58.3339 68.6801 0
57.0555 8.33889 3.98154
60.3285 7.74928 4
58.9211 9.66399 2
62.2255 9.30602 2
70.5724 48.8138 0.0256574
71.7805 44.3529 0.0239723
68.9043 46.0134 0.034726
69.7986 41.7898 0.0332108
72.4038 39.8025 0.0226509
75 37.5 0
72.4865 37.5126 2
70.036 39.6581 2
69.4242 43.9065 2
67.492 41.4879 2
68.2538 48.1038 2
66.5813 45.4164 2
70.1243 37.5231 3.96729
67.7398 39.509 3.97322
67.1054 43.4538 3.97165
65.3133 41.1875 3.97648
65.9353 47.3887 3.96938
64.3859 44.8008 3.97607
72.4117 35.225 0.0225984
71.8021 30.6773 0.0238696
69.8348 33.2713 0.0332567
68.9601 29.0414 0.0348785
64.0165 10.9835 0
63.8856 14.3305 0.0273435
63.5029 17.4573 0.0361684
67.6007 24.9159 0.0361468
66.0822 27.6642 0.0314755
64.6507 23.8659 0.0341458
62.8155 20.3612 0.0376575
61.9007 23.0165 0.0313606
60.6807 11.1019 0.0221627
57.6052 11.4755 0.0309922
70.0529 35.3946 2
69.4612 31.1534 2
67.5572 33.6044 2
66.6579 29.6485 2
62.3403 12.6641 2
62.1879 15.8025 2
61.7371 18.7273 2
65.4127 25.7334 2
63.9101 28.3147 2
61.0353 21.4206 2
62.6447 24.7082 2
60.1423 23.8351 2
59.2394 12.8109 2
56.3944 13.1713 2
55.8704 10.2577 2
67.7781 35.5551 3.97269
67.1635 31.6412 3.97116
65.4699 33.9525 3.97675
64.423 30.2415 3.97624
63.314 26.4788 3.9733
61.9112 28.8659 3.97602
60.7677 14.2471 3.96638
60.7381 25.4403 3.97505
60.5642 17.1697 3.95975
60.0521 19.8993 3.96196
59.3906 22.3713 3.9684
58.6246 24.4566 3.9745
54.0335 9.14863 3.97238
57.8954 14.38 3.96462
54.7748 12.072 3.96761
55.2913 14.7213 3.96471
67.4899 50.1731 0.0359383
57.0225 66.7335 0.0142494
60.6658 63.9735 0.0204856
57.552 63.6732 0.0288041
65.6876 54.1694 0.0361706
64.4153 51.3496 0.03397
60.7674 60.9175 0.0318477
60.6163 58.1267 0.0399036
62.7389 55.0352 0.0366799
60.2082 55.728 0.03525
55.0707 67.9291 2
59.2127 62.3392 2
55.801 64.8984 2
56.3143 62.0436 2
65.1978 49.3738 2
63.5986 53.2566 2
62.1993 50.5826 2
59.315 59.5279 2
60.9115 54.2459 2
59.1842 56.9515 2
59.0725 55.1074 2
53.0403 68.9993 3.98903
53.963 66.0044 3.9777
57.8669 60.832 3.96854
54.6728 63.1721 3.97075
55.1927 60.5627 3.97499
62.9355 48.5964 3.97234
61.5342 52.5074 3.96859
59.9205 49.9187 3.9727
57.954 58.2094 3.96065
59.0993 53.8606 3.96956
57.9249 55.7227 3.96304
50.1061 67.8516 3.98253
47.4602 66.5695 3.97824
46.0535 69.1531 3.98469
48.1006 68.5736 2
48.8001 70.7225 3.99005
50.948 69.9303 2
51.8506 72.1454 4
54.0858 71.1327 2
56.25 69.9759 0
55.1005 7.14323 3.98515
58.3339 6.31992 4
57.0588 8.34245 2
60.3286 7.74926 2
58.918 9.65981 0.0208204
62.2254 9.30607 0
68.2517 48.1044 0.035468
69.4248 43.9071 0.0336173
66.5835 45.417 0.0291791
67.494 41.4882 0.0269868
70.0362 39.6582 0.0327993
72.4872 37.5126 0.023038
70.1236 37.5232 2
67.7374 39.5089 2
67.1043 43.4535 2
65.3103 41.187 2
65.9344 47.388 2
64.3843 44.8 2
67.8402 37.5243 3.97308
65.5528 39.3609 3.9766
64.9249 42.9887 3.97666
63.4069 40.899 3.97657
63.6949 46.6594 3.9745
62.4241 44.1455 3.97619
70.0531 35.3942 0.0327555
69.4615 31.1527 0.0341784
67.5591 33.6039 0.0278591
66.6601 29.6477 0.0304441
62.3376 12.6589 0.0240687
62.1898 15.8014 0.03473
61.7379 18.727 0.0396493
65.4138 25.7323 0.032651
63.9121 28.3134 0.0246222
62.6464 24.707 0.0290398
61.0367 21.4196 0.0344202
60.1441 23.8338 0.027315
59.2389 12.8105 0.0338207
56.3932 13.1737 0.0307862
55.8681 10.2597 0.0273351
67.7755 35.5554 2
67.1621 31.6418 2
65.466 33.9532 2
64.42 30.2427 2
60.7672 14.2481 2
60.561 17.1701 2
60.0505 19.9002 2
63.3121 26.48 2
61.9092 28.8666 2
59.3917 22.3721 2
60.7358 25.4417 2
58.6224 24.4581 2
57.8942 14.3805 2
55.2928 14.7178 2
54.036 9.14842 2
54.7759 12.068 2
65.6514 35.6813 3.97664
64.9441 32.1922 3.97642
63.9747 34.2812 3.97653
62.2284 30.7063 3.97619
61.3221 27.1694 3.97572
60.4283 29.2455 3.97624
59.2867 15.7114 3.96018
58.9384 25.9346 3.97614
59.0008 18.4347 3.9601
58.4931 20.9712 3.96372
57.9455 23.2348 3.96983
57.5791 24.8209 3.97528
52.1092 8.16378 3.97623
53.0478 11.0594 3.96933
56.6447 15.8109 3.9599
53.7882 13.7608 3.96613
54.3308 16.0917 3.96055
55.0683 67.9311 0.0124727
65.1989 49.3745 0.0325868
55.8004 64.9 0.0259643
59.213 62.3364 0.0313333
56.3155 62.0433 0.0285848
63.5988 53.2568 0.0353797
62.2 50.5831 0.0299719
59.3146 59.5245 0.0387765
59.1781 56.9498 0.0386199
60.9115 54.2459 0.0327057
59.0683 55.1066 0.0321561
53.0425 68.9981 2
53.9641 66.0037 2
57.8655 60.8331 2
54.6722 63.1734 2
55.1902 60.5628 2
62.9339 48.5955 2
61.5346 52.5073 2
59.9216 49.9184 2
57.9515 58.2105 2
59.1034 53.8611 2
57.9211 55.7214 2
52.0672 66.9936 3.98113
52.9466 64.1996 3.97495
56.618 59.4417 3.96422
53.6601 61.5644 3.97128
54.2251 59.2654 3.97187
60.595 47.7821 3.9741
59.4095 52.008 3.97062
57.5825 49.4852 3.97398
56.6628 56.912 3.96307
56.8332 54.0091 3.96679
50.1071 67.8511 2
49.3336 65.9097 3.9782
47.4607 66.5691 2
46.8877 64.7178 3.97675
45.5559 67.0873 3.97932
43.9712 69.5853 3.98577
46.0547 69.1532 2
46.6066 71.3669 3.99061
48.0995 68.5737 0.016468
48.8018 70.722 2
49.554 73.0099 4
50.9461 69.9312 0.0104565
51.8506 72.1455 2
54.0858 71.1327 0
53.0628 6.07354 3.98837
55.1039 7.14482 2
56.25 5.02411 4
58.3339 6.3199 2
57.0555 8.33889 0.0184637
60.3285 7.74928 0
65.9353 47.3887 0.0306212
67.1054 43.4538 0.0283473
64.3859 44.8008 0.0239334
65.3133 41.1875 0.0235199
67.7398 39.509 0.0267808
70.1243 37.5231 0.0327146
67.838 37.5244 2
65.5495 39.3607 2
64.9217 42.9877 2
63.4062 40.8987 2
63.6932 46.6585 2
62.423 44.1451 2
65.6618 37.5048 3.97658
63.5565 39.2535 3.97666
62.9599 42.5042 3.97633
62.0003 40.6601 3.9766
61.5694 45.8326 3.97567
60.9751 43.6052 3.97608
67.7781 35.5551 0.0273131
67.1635 31.6412 0.0288359
65.4699 33.9525 0.0232477
64.423 30.2415 0.0237571
60.7677 14.2471 0.0336153
60.5642 17.1697 0.0402497
60.0521 19.8993 0.0380377
63.314 26.4788 0.0266971
61.9112 28.8659 0.023978
60.7381 25.4403 0.0249524
59.3906 22.3713 0.0315975
58.6246 24.4566 0.0255016
57.8954 14.38 0.035377
55.2913 14.7213 0.0352883
54.0335 9.14863 0.0276207
54.7748 12.072 0.0323859
65.6478 35.6814 2
64.9407 32.1931 2
63.9732 34.2817 2
62.2266 30.7066 2
59.2857 15.7103 2
59.0108 18.4324 2
58.4924 20.9725 2
61.3204 27.1706 2
60.4279 29.2462 2
57.9363 23.2381 2
58.9373 25.9357 2
57.5839 24.8226 2
56.6426 15.8109 2
54.3365 16.0855 2
53.7875 13.7499 2
52.1113 8.16341 2
53.0493 11.0579 2
63.7666 35.6512 3.97645
62.553 33.0966 3.97619
60.1426 30.7115 3.9759
59.1257 28.0408 3.976
57.8715 17.0552 3.95904
57.2912 25.8958 3.97599
57.5173 19.5902 3.95984
57.0437 21.9917 3.96415
56.7713 24.1183 3.97072
50.1103 7.29275 3.98171
51.2252 10.1494 3.97298
52.1535 12.8656 3.96835
55.4689 17.0657 3.95838
52.9397 15.3608 3.96322
53.6885 17.0913 3.95811
53.0403 68.9993 0.0109704
53.963 66.0044 0.0222957
62.9355 48.5964 0.0276572
54.6728 63.1721 0.0292475
57.8669 60.832 0.0314573
55.1927 60.5627 0.0250112
61.5342 52.5074 0.031406
59.9205 49.9187 0.0272973
57.954 58.2094 0.0393471
57.9249 55.7227 0.0369558
59.0993 53.8606 0.0304359
52.0683 66.9935 2
52.9461 64.2013 2
56.6161 59.4421 2
53.6583 61.5657 2
54.2214 59.2673 2
60.5946 47.7815 2
59.4109 52.0079 2
57.5818 49.4845 2
56.6584 56.9153 2
56.8303 54.008 2
51.1638 65.1152 3.97697
52.0308 62.5061 3.97156
55.4156 58.1884 3.96095
52.7951 60.0587 3.9688
53.5869 58.4063 3.96609
57.7593 46.706 3.97584
57.1902 51.662 3.97078
55.7264 49.3983 3.97328
55.3063 55.6977 3.96399
55.0179 53.2544 3.96337
50.1061 67.8516 0.0174697
49.3337 65.9092 2
48.6118 64.1056 3.97794
47.4602 66.5695 0.0217601
45.5564 67.0878 2
46.8883 64.717 2
46.3738 63.029 3.98225
45.1297 65.1797 3.97748
43.6297 67.4595 3.98134
41.859 69.8724 3.98547
43.9721 69.5857 2
44.374 71.8614 3.99102
46.0535 69.1531 0.0153138
46.608 71.3666 2
47.2057 73.7222 4
48.8001 70.7225 0.0099455
49.554 73.0099 2
51.8506 72.1454 0
50.9537 5.13415 3.99028
53.0654 6.07442 2
54.0858 3.86728 4
55.1005 7.14323 0.014847
56.25 5.02406 2
58.3339 6.31992 0
63.6949 46.6594 0.0255047
64.9249 42.9887 0.0233355
62.4241 44.1455 0.023815
63.4069 40.899 0.0234279
65.5528 39.3609 0.0234042
67.8402 37.5243 0.0269229
65.6582 37.5048 2
63.556 39.2534 2
62.9593 42.5039 2
62.0013 40.66 2
61.5682 45.8317 2
60.9748 43.6053 2
63.6208 37.4592 3.97655
61.7078 39.3339 3.97675
60.7197 41.8949 3.97658
59.7319 44.6589 3.9761
65.6514 35.6813 0.0233634
64.9441 32.1922 0.023575
63.9747 34.2812 0.0234704
62.2284 30.7063 0.0238098
59.2867 15.7114 0.0398231
59.0008 18.4347 0.0398979
58.4931 20.9712 0.0362833
61.3221 27.1694 0.0242838
60.4283 29.2455 0.0237601
58.9384 25.9346 0.0238551
57.9455 23.2348 0.0301735
57.5791 24.8209 0.0247173
56.6447 15.8109 0.040098
54.3308 16.0917 0.0394487
53.7882 13.7608 0.0338711
52.1092 8.16378 0.0237723
53.0478 11.0594 0.0306657
63.7657 35.6512 2
62.5532 33.097 2
60.143 30.7117 2
57.873 17.0548 2
57.5337 19.5859 2
57.0396 21.9943 2
59.1251 28.0416 2
56.7871 24.1193 2
57.2935 25.8986 2
50.1123 7.29041 2
55.474 17.0626 2
53.7003 17.0805 2
52.9386 15.3521 2
52.1544 12.8695 2
51.2273 10.1463 2
61.7514 35.3857 3.97649
59.7616 32.821 3.97609
58.059 30.2057 3.97574
56.7685 27.557 3.97636
56.5207 18.2569 3.95996
55.8156 25.2972 3.97508
56.1062 20.6657 3.96073
55.7151 23.0501 3.96407
48.0558 6.53253 3.98592
49.3203 9.34697 3.97577
50.419 12.0429 3.97177
51.3431 14.5787 3.96408
54.3081 18.0382 3.95901
52.3025 17.1606 3.95872
52.0672 66.9936 0.0188667
52.9466 64.1996 0.02505
60.595 47.7821 0.025896
53.6601 61.5644 0.0287204
56.618 59.4417 0.0357775
54.2251 59.2654 0.0281293
59.4095 52.008 0.0293787
57.5825 49.4852 0.0260165
56.6628 56.912 0.03693
56.8332 54.0091 0.0332065
51.1636 65.1151 2
52.0293 62.5076 2
55.4136 58.1895 2
52.7942 60.0621 2
53.5847 58.409 2
57.7591 46.7053 2
57.1869 51.6609 2
55.7212 49.3968 2
55.3034 55.6975 2
55.0182 53.2548 2
50.337 63.3631 3.97865
51.2133 60.8748 3.97518
54.1265 57.1936 3.96707
52.231 58.5526 3.96773
55.9823 44.027 3.97646
54.8741 47.7206 3.9751
54.6006 51.2354 3.96597
53.7711 54.4326 3.96583
49.3336 65.9097 0.0218041
48.6117 64.1038 2
47.9489 62.4529 3.98138
45.5559 67.0873 0.0206766
46.8877 64.7178 0.0232524
43.63 67.4602 2
46.3739 63.0289 2
45.1303 65.1794 2
45.9744 61.5581 3.98989
44.7621 63.4267 3.97684
43.3557 65.4918 3.9782
41.6622 67.678 3.981
39.7014 70.0183 3.98489
41.8597 69.8728 2
42.1087 72.2057 3.99142
43.9712 69.5853 0.0142335
44.3752 71.8613 2
44.8159 74.2794 4
46.6066 71.3669 0.00938874
47.2057 73.7222 2
49.554 73.0099 0
48.7852 4.3244 3.99118
50.9556 5.13373 2
51.8506 2.85458 4
53.0628 6.07354 0.0116291
54.0858 3.86728 2
56.25 5.02411 0
61.5694 45.8326 0.0243261
62.9599 42.5042 0.0236717
60.9751 43.6052 0.0239169
62.0003 40.6601 0.0233987
63.5565 39.2535 0.0233443
65.6618 37.5048 0.023421
63.6202 37.4591 2
61.709 39.3339 2
60.7212 41.895 2
59.7322 44.6583 2
61.5366 37.4456 3.97692
59.6718 39.8073 3.9768
58.3537 42.8201 3.97602
63.7666 35.6512 0.0235508
62.553 33.0966 0.0238144
60.1426 30.7115 0.0240994
57.8715 17.0552 0.0409559
57.5173 19.5902 0.0401628
57.0437 21.9917 0.0358499
59.1257 28.0408 0.0240034
57.2912 25.8958 0.0240119
56.7713 24.1183 0.0292755
55.4689 17.0657 0.0416237
53.6885 17.0913 0.0418946
52.9397 15.3608 0.0367758
50.1103 7.29275 0.0182871
52.1535 12.8656 0.031653
51.2252 10.1494 0.0270228
61.7523 35.3857 2
59.7619 32.8209 2
58.0601 30.205 2
56.5238 18.2555 2
56.1299 20.659 2
55.725 23.0545 2
56.769 27.5587 2
55.8229 25.3028 2
48.0568 6.5314 2
49.3223 9.34499 2
54.3267 18.0357 2
52.2954 17.1529 2
51.3401 14.5794 2
50.421 12.0431 2
59.3072 35.1574 3.97657
57.3286 32.3743 3.97558
55.9178 29.5105 3.97606
54.8683 26.8274 3.97554
55.1895 19.3136 3.9622
54.4937 24.2665 3.97308
54.6944 21.7344 3.9604
45.9626 5.88625 3.98787
43.3744 7.4803 3.98365
47.3533 8.63417 3.98068
48.5902 11.3247 3.97346
49.6836 13.7989 3.96853
50.581 16.2319 3.96154
53.0014 18.8059 3.96307
51.2201 18.2159 3.96084
51.1638 65.1152 0.0230325
52.0308 62.5061 0.0284388
57.7593 46.706 0.0241634
52.7951 60.0587 0.0312001
55.4156 58.1884 0.0390466
53.5869 58.4063 0.0339147
57.1902 51.662 0.0292175
55.7264 49.3983 0.0267197
55.3063 55.6977 0.0360134
55.0179 53.2544 0.0366349
50.3361 63.3617 2
51.2113 60.8736 2
54.1248 57.1953 2
52.2276 58.5552 2
55.9829 44.0272 2
54.8715 47.7192 2
54.5971 51.2343 2
53.7696 54.4344 2
49.5717 61.7242 3.97496
54.7178 41.625 3.97403
50.506 59.2645 3.9701
52.0392 56.4008 3.96711
53.3863 45.3553 3.97424
52.7347 49.1475 3.9697
52.2999 52.7145 3.96016
48.6118 64.1056 0.0220622
47.9482 62.4495 2
47.3073 60.9836 3.99416
43.6297 67.4595 0.0186568
45.1297 65.1797 0.0225174
46.3738 63.029 0.0177453
41.6629 67.6774 2
43.3569 65.4925 2
45.9735 61.5582 2
44.7624 63.4258 2
45.7416 60.6038 3.99044
44.4746 61.8009 3.97919
43.1436 63.7025 3.9782
41.5457 65.6302 3.97627
39.632 67.7552 3.98018
37.5258 70.0426 3.98401
39.702 70.0184 2
39.8162 72.4024 3.99139
41.859 69.8724 0.0145272
42.1096 72.2059 2
42.3947 74.6792 4
44.374 71.8614 0.0089838
44.8159 74.2794 2
47.2057 73.7222 0
43.852 5.36287 3.98718
46.5714 3.64878 3.99175
48.7861 4.3241 2
49.554 1.99015 4
50.9537 5.13415 0.00972207
51.8506 2.85453 2
54.0858 3.86728 0
59.7319 44.6589 0.0239018
60.7197 41.8949 0.0234227
61.7078 39.3339 0.0232492
63.6208 37.4592 0.0234508
61.5375 37.4455 2
59.6734 39.8069 2
58.3544 42.8204 2
59.1617 37.5657 3.9773
57.2776 40.5891 3.97728
54.1166 39.6404 3.97544
61.7514 35.3857 0.0235092
59.7616 32.821 0.0239073
58.059 30.2057 0.0242558
56.5207 18.2569 0.0400445
56.1062 20.6657 0.0392671
55.7151 23.0501 0.0359253
56.7685 27.557 0.0236367
55.8156 25.2972 0.0249184
54.3081 18.0382 0.0409923
52.3025 17.1606 0.0412835
51.3431 14.5787 0.0359188
48.0558 6.53253 0.0140834
49.3203 9.34697 0.0242331
50.419 12.0429 0.0282275
59.3079 35.1567 2
45.9631 5.88471 2
43.3747 7.47772 2
57.3295 32.3748 2
55.9175 29.5099 2
55.1803 19.3193 2
54.7321 21.7356 2
54.4951 24.2726 2
54.8669 26.829 2
47.355 8.63142 2
48.5924 11.3224 2
53.0151 18.7785 2
51.2274 18.2095 2
50.5781 16.2306 2
49.6827 13.8033 2
56.6501 34.8148 3.97714
54.9734 31.6606 3.97561
53.8327 28.6222 3.97697
53.2463 25.7439 3.97449
53.7786 20.2849 3.96049
53.234 22.9251 3.95748
41.4003 7.08429 3.98347
45.3598 8.00018 3.98659
42.8667 9.42719 3.97684
46.6627 10.6708 3.97843
47.7209 13.1375 3.97344
48.8867 15.4752 3.96838
49.9251 17.7952 3.95744
51.5155 19.5019 3.97369
50.337 63.3631 0.0213482
51.2133 60.8748 0.0248167
55.9823 44.027 0.0235438
54.8741 47.7206 0.0249037
52.231 58.5526 0.0322736
54.1265 57.1936 0.0329324
54.6006 51.2354 0.0340269
53.7711 54.4326 0.0341666
49.5701 61.7217 2
54.7082 41.6205 2
50.5029 59.2665 2
52.0419 56.4046 2
53.3813 45.3532 2
52.7315 49.1453 2
52.3027 52.7148 2
48.808 60.174 3.97873
51.4673 42.4939 3.98335
49.6872 57.5598 3.96403
50.3464 54.326 3.96187
51.0572 47.0591 3.97552
50.7357 50.7876 3.95485
47.1591 43.5407 3.97364
47.9489 62.4529 0.0186166
47.3055 60.9804 2
46.5828 59.7753 3.99403
41.6622 67.678 0.0190024
43.3557 65.4918 0.0218007
44.7621 63.4267 0.0231551
45.9744 61.5581 0.0101106
39.6329 67.7557 2
41.5466 65.6278 2
45.7416 60.6036 2
43.1434 63.7015 2
44.4728 61.8022 2
44.5985 60.2581 3.99607
42.9432 62.0547 3.97484
41.5989 63.7991 3.97697
39.6468 65.5945 3.97567
37.5632 67.7359 3.97836
31.6982 65.1126 3.97544
33.3931 67.4742 3.97824
35.3341 69.9532 3.98432
37.5259 70.0441 2
37.509 72.4566 3.99195
39.7014 70.0183 0.0151124
39.8168 72.4024 2
39.9526 74.9197 4
42.1087 72.2057 0.00858055
42.3947 74.6792 2
44.8159 74.2794 0
41.7368 4.97089 3.98802
43.8523 5.36098 2
44.327 3.11171 3.9924
46.572 3.64822 2
47.2057 1.27793 4
48.7852 4.3244 0.00882157
49.554 1.99013 2
51.8506 2.85458 0
58.3537 42.8201 0.0239754
59.6718 39.8073 0.0232032
61.5366 37.4456 0.0230807
59.1631 37.5662 2
57.2787 40.5907 2
54.1072 39.6484 2
56.0038 37.8744 3.97679
48.4929 41.2147 3.97048
52.0544 39.2766 3.98188
39.444 6.80752 3.984
59.3072 35.1574 0.0234257
57.3286 32.3743 0.024423
55.9178 29.5105 0.0239362
55.1895 19.3136 0.0378047
54.6944 21.7344 0.0395996
54.4937 24.2665 0.0269169
54.8683 26.8274 0.0244613
53.0014 18.8059 0.0369333
51.2201 18.2159 0.039156
50.581 16.2319 0.0384621
45.9626 5.88625 0.0121303
49.6836 13.7989 0.0314693
47.3533 8.63417 0.0193235
48.5902 11.3247 0.0265418
43.3744 7.4803 0.0163546
56.6496 34.8149 2
41.4005 7.08391 2
45.3606 7.99793 2
42.8671 9.42472 2
54.9756 31.6597 2
53.8317 28.6234 2
53.7842 20.3023 2
53.2203 22.9286 2
53.2424 25.7454 2
46.6647 10.6655 2
47.7217 13.1338 2
51.539 19.501 2
49.9246 17.7971 2
48.8797 15.4876 2
53.9378 34.0163 3.97484
52.6714 30.7195 3.97528
51.9439 27.4781 3.97479
51.7381 24.3708 3.97844
52.1725 21.2481 3.97501
41.0136 9.0583 3.97727
44.7263 10.0024 3.98522
42.4599 10.9113 4.0041
45.9833 12.7465 3.96861
47.6441 14.651 3.96633
48.0342 17.0503 3.96675
49.7273 19.9008 3.98033
49.5717 61.7242 0.0250397
50.506 59.2645 0.029904
54.7178 41.625 0.0259715
53.3863 45.3553 0.0257622
52.7347 49.1475 0.0302985
52.0392 56.4008 0.0328898
52.2999 52.7145 0.0398445
48.8048 60.1708 2
51.4794 42.5053 2
49.6843 57.5599 2
50.3477 54.3285 2
51.0598 47.0581 2
50.7399 50.7875 2
47.1698 43.5745 2
47.9201 58.6878 3.9884
49.1491 45.0832 3.98097
48.4372 55.844 3.95869
48.798 52.4759 3.97641
49.0905 48.8633 3.9701
44.8889 39.7722 3.84772
45.3918 42.4659 3.88832
45.672 45.5348 3.98274
42.7274 40.9942 3.65701
41.5058 41.7552 3.45676
47.3073 60.9836 0.00584276
46.5813 59.7692 2
45.4196 58.7702 3.99472
39.632 67.7552 0.0198237
41.5457 65.6302 0.023734
43.1436 63.7025 0.0218003
44.4746 61.8009 0.020813
45.7416 60.6038 0.00955884
41.5992 63.7968 2
37.5638 67.7376 2
39.6481 65.595 2
44.5994 60.2596 2
42.9411 62.0545 2
41.7468 62.461 3.97676
42.4612 59.9486 3.98268
39.8939 63.5309 3.97617
37.6416 65.4904 3.97497
35.4638 67.6457 3.9783
33.5762 65.3238 3.9744
31.9606 63.2719 3.97678
29.8863 64.7023 3.97934
31.6978 65.1119 2
31.3782 67.1853 3.97877
33.3927 67.4751 2
33.1578 69.7468 3.98426
35.3336 69.9546 2
35.1959 72.3713 3.99202
37.5258 70.0426 0.0159946
37.5093 72.4571 2
37.5 75 4
39.8162 72.4024 0.00861131
39.9526 74.9197 2
42.3947 74.6792 0
39.6249 4.71856 3.98907
41.7369 4.97036 2
42.0635 2.71871 3.99279
43.852 5.36287 0.0128159
44.3271 3.11075 2
44.8158 0.721173 4
46.5714 3.64878 0.00824538
47.2057 1.27779 2
49.554 1.99015 0
57.2776 40.5891 0.0227215
59.1617 37.5657 0.022696
54.1166 39.6404 0.0245569
48.5155 41.2218 2
56.0055 37.871 2
52.0485 39.2402 2
52.9127 36.6137 3.97766
46.4233 40.2911 3.89379
49.4323 38.5029 3.98308
37.518 6.67702 3.98514
39.4446 6.80573 2
39.2116 8.70016 3.98166
35.9441 8.49793 3.98337
56.6501 34.8148 0.0228588
54.9734 31.6606 0.024392
53.8327 28.6222 0.0230271
53.7786 20.2849 0.0395074
53.234 22.9251 0.0425162
53.2463 25.7439 0.025506
51.5155 19.5019 0.0263088
49.9251 17.7952 0.0425644
48.8867 15.4752 0.0316151
45.3598 8.00018 0.0134084
47.7209 13.1375 0.0265615
46.6627 10.6708 0.0215724
41.4003 7.08429 0.0165268
42.8667 9.42719 0.0231627
53.9362 34.0133 2
41.0148 9.05975 2
44.7264 9.99928 2
42.4612 10.9119 2
52.6649 30.717 2
51.9513 27.4803 2
52.1697 21.2581 2
51.7252 24.3753 2
45.9844 12.7388 2
47.6362 14.6211 2
49.7482 19.8836 2
48.0305 17.0602 2
51.4325 32.9375 3.9821
50.5043 29.4391 3.97734
50.2473 25.9746 3.97008
49.737 22.4974 3.9856
40.5632 11.6204 3.98408
43.8389 11.9165 3.97631
45.7608 15.4973 3.98965
47.4347 19.5132 3.98029
45.3487 37.4834 3.84616
48.808 60.174 0.0212698
49.6872 57.5598 0.035971
51.4673 42.4939 0.0166484
51.0572 47.0591 0.0244755
50.7357 50.7876 0.0451536
50.3464 54.326 0.0381294
47.1591 43.5407 0.0263586
47.9164 58.6936 2
49.1653 45.0987 2
48.433 55.8465 2
48.7989 52.4808 2
49.095 48.8656 2
44.9884 39.7981 2
45.4199 42.4861 2
45.6798 45.554 2
42.7833 41.0482 2
41.5448 41.7801 2
46.7427 57.2933 3.98024
43.4405 39.3482 3.65547
41.8845 40.6978 3.46355
47.3478 47.1106 3.9839
46.949 54.1486 3.95955
47.17 50.6178 3.97759
44.226 47.1632 3.98417
44.0416 41.8071 3.84673
44.1678 44.2693 3.88274
41.7924 42.3928 3.70177
40.547 42.0448 3.43004
46.5828 59.7753 0.00597014
45.4196 58.7687 2
43.8271 57.6504 3.98304
37.5632 67.7359 0.0216384
39.6468 65.5945 0.0243271
41.5989 63.7991 0.0230339
42.9432 62.0547 0.0251576
44.5985 60.2581 0.00393325
35.4639 67.6478 2
41.7452 62.4638 2
39.8932 63.531 2
37.6425 65.4923 2
42.4638 59.9458 2
40.6171 61.6022 3.98204
40.4248 58.1233 3.98438
37.837 63.1867 3.97258
35.5729 65.4132 3.97647
33.5763 65.324 2
31.9623 63.2754 2
33.6293 63.3147 3.9753
30.3809 62.8342 3.98111
32.1297 61.9747 3.98734
26.8832 61.4526 3.98031
28.0676 64.1313 3.97952
29.8857 64.7026 2
29.4082 66.7479 3.97896
31.6982 65.1126 0.0245619
31.3779 67.1851 2
31.0156 69.4125 3.9842
33.3931 67.4742 0.0217629
33.157 69.7476 2
32.894 72.1457 3.99134
35.3341 69.9532 0.0156787
35.1955 72.372 2
35.0474 74.9194 4
37.509 72.4566 0.00805398
37.5 75 2
39.9526 74.9197 0
35.6224 6.72859 3.98431
37.5247 4.61755 3.9894
39.6249 4.71698 2
39.7901 2.47537 3.9929
41.7368 4.97089 0.0119761
42.0633 2.71831 2
42.3946 0.32156 4
44.327 3.11171 0.00760303
44.8159 0.72056 2
47.2057 1.27793 0
48.4929 41.2147 0.0295201
56.0038 37.8744 0.023206
52.0544 39.2766 0.0181249
46.443 40.2981 2
49.4309 38.5005 2
52.9149 36.6415 2
50.2382 35.5583 3.97426
47.0804 37.7544 3.89936
44.9157 35.195 3.8467
42.7764 33.9585 3.65608
41.5429 33.201 3.45554
37.4594 8.53767 3.98446
37.5185 6.67648 2
39.444 6.80752 0.0159962
39.2134 8.69771 2
38.9758 10.1366 3.98552
35.9002 9.78076 3.98005
34.154 8.82992 3.9813
35.9451 8.49532 2
53.9378 34.0163 0.0251616
52.6714 30.7195 0.0247191
51.9439 27.4781 0.0252093
52.1725 21.2481 0.024986
51.7381 24.3708 0.0215557
49.7273 19.9008 0.0196661
48.0342 17.0503 0.0332471
47.6441 14.651 0.0336697
44.7263 10.0024 0.0147821
45.9833 12.7465 0.0313894
41.0136 9.0583 0.0227322
42.4599 10.9113 -0.00410094
51.445 32.9316 2
40.5659 11.6243 2
43.8383 11.9086 2
50.5218 29.4395 2
50.2428 25.9811 2
49.7212 22.4856 2
45.7492 15.4429 2
47.4372 19.5439 2
49.0212 31.5559 3.98545
48.6125 27.7435 3.97636
49.0051 24.6164 3.98097
47.0579 22.2837 3.99014
38.2989 12.7528 3.9771
42.0802 14.3301 3.9805
44.7492 18.6241 3.97368
43.8631 37.4848 3.66898
45.448 37.4877 2
47.9201 58.6878 0.0116012
48.4372 55.844 0.0413119
49.1491 45.0832 0.0190286
49.0905 48.8633 0.0299002
48.798 52.4759 0.0235909
44.8889 39.7722 0.152277
45.3918 42.4659 0.111681
45.672 45.5348 0.0172563
42.7274 40.9942 0.342986
41.5058 41.7552 0.54324
46.7392 57.3 2
43.5147 39.3751 2
41.8934 40.711 2
47.3558 47.1076 2
46.9438 54.153 2
47.1721 50.6267 2
44.2608 47.1613 2
44.1037 41.8409 2
44.2255 44.2981 2
41.8496 42.4525 2
40.5814 42.0606 2
45.2715 55.8719 4.00032
42.2286 39.1882 3.47409
40.4362 40.5788 3.57549
45.5768 48.7527 4.0017
45.2304 52.4094 3.98597
42.9885 48.1572 3.99379
42.8717 45.7966 3.87747
42.9612 43.5707 3.8304
40.6754 43.3756 3.67693
39.1635 42.302 3.48437
45.4196 58.7702 0.00527989
43.8249 57.6595 2
42.05 56.2285 3.98885
35.4638 67.6457 0.0217016
37.6416 65.4904 0.0250302
39.8939 63.5309 0.0238296
41.7468 62.461 0.0232443
42.4612 59.9486 0.0173174
35.5737 65.4163 2
40.6171 61.6005 2
37.8375 63.1857 2
40.4251 58.1275 2
38.9033 56.3711 3.9937
38.2453 60.2834 3.98167
35.6069 63.181 3.97237
33.5762 65.3238 0.0255953
31.9606 63.2719 0.0232158
33.6313 63.3162 2
30.3821 62.8369 2
32.1317 61.9773 2
28.6888 62.173 3.98004
33.3486 61.4803 3.97918
31.0801 61.1997 3.98398
27.5986 59.5469 3.97988
23.8348 59.0213 3.99333
25.0539 60.8192 3.97641
26.8843 61.4533 2
26.2374 63.4611 3.97584
28.067 64.1295 2
27.4655 66.1712 3.97869
29.8863 64.7023 0.0206615
29.4077 66.7475 2
28.9083 68.9377 3.98322
31.3782 67.1853 0.0212315
31.0148 69.4123 2
30.617 71.7773 3.99076
33.1578 69.7468 0.0157404
32.8931 72.1461 2
32.6054 74.6784 4
35.1959 72.3713 0.00798115
35.0474 74.9197 2
37.5 75 0
33.7255 6.98472 3.98297
35.4368 4.68769 3.98897
35.6229 6.72721 2
37.5158 2.38773 3.99301
37.5247 4.61685 2
39.6249 4.71856 0.0109316
39.7897 2.47452 2
39.9526 0.0806499 4
42.0635 2.71871 0.00720919
42.3947 0.320817 2
44.8158 0.721173 0
43.4605 35.6173 3.66008
41.9091 34.2536 3.45022
46.4233 40.2911 0.106207
49.4323 38.5029 0.0169174
52.9127 36.6137 0.0223371
47.0763 37.7345 2
50.2506 35.5593 2
44.9987 35.1759 2
42.82 33.909 2
41.5709 33.1754 2
47.2889 34.3639 3.94087
44.0982 33.1565 3.83551
41.8461 32.5656 3.70022
40.5772 32.9208 3.42903
37.3119 10.635 3.98142
37.4609 8.53767 2
37.518 6.67702 0.0148596
39.2116 8.70016 0.0183394
38.9794 10.1344 2
34.7571 10.3905 3.97989
35.9027 9.77556 2
32.3809 9.37611 3.97766
34.1533 8.82547 2
35.9441 8.49793 0.016634
51.4325 32.9375 0.0178985
50.5043 29.4391 0.0226588
50.2473 25.9746 0.0299173
49.737 22.4974 0.0144007
47.4347 19.5132 0.0197052
45.7608 15.4973 0.0103506
43.8389 11.9165 0.0236877
40.5632 11.6204 0.0159179
49.042 31.5405 2
38.3007 12.748 2
42.087 14.343 2
48.613 27.7455 2
48.9971 24.6223 2
47.043 22.2842 2
44.753 18.6914 2
46.9484 29.7376 3.98331
46.6884 25.3326 3.97306
44.1981 21.6285 3.9808
36.586 12.9667 3.97471
38.6764 14.8696 3.97526
41.719 17.9594 3.97794
42.3965 37.4641 3.51072
43.9257 37.4863 2
45.3487 37.4834 0.153844
46.7427 57.2933 0.0197621
46.949 54.1486 0.040447
47.3478 47.1106 0.016096
47.17 50.6178 0.0224136
43.4405 39.3482 0.344532
44.0416 41.8071 0.153272
44.1678 44.2693 0.117262
44.226 47.1632 0.0158295
41.7924 42.3928 0.298234
41.8845 40.6978 0.536446
40.547 42.0448 0.569962
45.2679 55.8748 2
42.2341 39.1955 2
40.477 40.5656 2
45.5779 48.7723 2
45.2257 52.4121 2
43.0242 48.1724 2
42.9306 45.8479 2
43.0136 43.6032 2
40.721 43.446 2
39.1587 42.3205 2
43.5931 54.3266 3.99642
40.5358 39.0327 3.59702
39.0591 40.6559 3.54453
43.3086 50.2463 4.0035
41.6323 47.3003 3.9241
41.5422 44.8915 3.84095
39.3462 44.0256 3.64509
37.5022 42.4237 3.53017
43.8271 57.6504 0.0169637
42.0541 56.2214 2
40.3637 54.7869 3.9948
35.5729 65.4132 0.0235259
37.837 63.1867 0.027418
40.6171 61.6022 0.0179601
40.4248 58.1233 0.0156245
35.6083 63.1785 2
38.2438 60.2837 2
38.906 56.3528 2
37.9775 55.0463 3.99486
36.9264 57.5631 3.99132
35.3642 60.8786 3.97958
33.6293 63.3147 0.0246967
30.3809 62.8342 0.0188872
32.1297 61.9747 0.0126604
33.35 61.4808 2
28.6899 62.1768 2
31.082 61.205 2
29.4252 60.256 3.97707
32.3694 59.6934 3.99637
28.0717 58.3337 4.01552
27.6005 59.5456 2
25.4236 58.542 3.97931
22.8239 58.1773 3.96782
23.4244 60.2856 3.97671
23.8372 59.0217 2
25.0556 60.8184 2
24.4436 62.741 3.97639
26.8832 61.4526 0.0196885
26.2378 63.4598 2
25.5506 65.48 3.97734
28.0676 64.1313 0.0204846
27.4652 66.1715 2
26.8381 68.3254 3.98296
29.4082 66.7479 0.021039
28.9075 68.9372 2
28.3723 71.2626 3.98996
31.0156 69.4125 0.0157963
30.6159 71.777 2
30.1842 74.2788 4
32.894 72.1457 0.0086597
32.6053 74.6792 2
35.0474 74.9194 0
31.7899 7.42402 3.98159
33.3494 4.92745 3.98793
33.7253 6.98211 2
35.2463 2.46361 3.99305
35.4367 4.68696 2
35.6224 6.72859 0.015685
37.5 0 4
37.5151 2.38731 2
37.5247 4.61755 0.0106028
39.7901 2.47537 0.00710243
39.9526 0.0802889 2
42.3946 0.32156 0
42.2232 35.7379 3.45682
43.5438 35.5871 2
40.4812 34.3738 3.57618
41.9095 34.236 2
47.0804 37.7544 0.100642
50.2382 35.5583 0.0257401
44.9157 35.195 0.153298
42.7764 33.9585 0.343915
41.5429 33.201 0.544464
47.3197 34.3797 2
44.1428 33.1185 2
41.8986 32.5044 2
40.6077 32.9045 2
45.412 31.7849 3.89924
43.0119 31.3907 3.8232
40.7196 31.5867 3.67657
39.1827 32.6808 3.47965
35.6965 11.7887 3.97622
37.3162 10.6341 2
37.4594 8.53767 0.0155413
38.9758 10.1366 0.0144783
33.1022 11.2286 3.97293
34.7568 10.3825 2
35.9002 9.78076 0.0199543
30.4866 10.028 3.97713
32.3803 9.37466 2
34.154 8.82992 0.0187026
49.0212 31.5559 0.0145493
48.6125 27.7435 0.0236356
49.0051 24.6164 0.0190347
47.0579 22.2837 0.00986379
44.7492 18.6241 0.0263201
42.0802 14.3301 0.0195039
38.2989 12.7528 0.0228997
36.5832 12.945 2
46.9542 29.6837 2
38.6757 14.848 2
41.7108 17.9615 2
46.6875 25.3351 2
44.1824 21.6047 2
44.9355 27.8787 3.99451
43.5463 24.2697 4.0244
41.2752 20.9733 3.9907
35.7708 14.8064 3.98002
38.6591 17.6884 3.9833
40.5923 37.4449 3.61445
42.4092 37.4687 2
43.8631 37.4848 0.331016
45.2715 55.8719 -0.000324771
45.2304 52.4094 0.0140308
45.5768 48.7527 -0.00169544
42.2286 39.1882 0.525915
42.9612 43.5707 0.169599
42.8717 45.7966 0.122527
42.9885 48.1572 0.00621237
40.6754 43.3756 0.323066
40.4362 40.5788 0.424507
39.1635 42.302 0.51563
43.5899 54.3234 2
40.5495 39.0333 2
39.0578 40.6528 2
43.3008 50.2597 2
41.6346 47.3363 2
41.5623 44.9376 2
37.4973 42.4465 2
39.3645 44.0957 2
41.7432 52.7897 4.00019
39.0684 39.0744 3.55026
37.5047 40.7107 3.58132
35.8487 42.3117 3.48116
40.7793 49.3845 3.99389
39.7023 45.6132 3.80646
37.4999 44.2965 3.68069
42.05 56.2285 0.011147
40.363 54.7953 2
38.719 53.5832 3.99653
35.6069 63.181 0.0276259
38.2453 60.2834 0.0183314
38.9033 56.3711 0.00629836
35.3639 60.8699 2
36.9278 57.5723 2
37.9775 55.0437 2
36.3148 55.1307 3.9974
34.4936 58.4762 3.99353
33.3486 61.4803 0.0208186
28.6888 62.173 0.0199584
31.0801 61.1997 0.016017
32.3689 59.6959 2
29.4266 60.2555 2
30.3412 57.7759 3.98639
28.0749 58.3318 2
27.0447 56.7802 3.96937
27.5986 59.5469 0.020116
25.4265 58.5414 2
23.9558 56.7316 3.95972
21.4465 57.3172 3.95841
22.0272 59.5598 3.98031
22.8258 58.1787 2
22.7507 61.9819 3.97278
23.426 60.2856 2
23.8348 59.0213 0.0066747
25.0539 60.8192 0.023592
24.4445 62.7433 2
23.6867 64.6951 3.97492
26.2374 63.4611 0.024161
25.5505 65.4814 2
24.8105 67.5867 3.9819
27.4655 66.1712 0.0213077
26.8372 68.3266 2
26.1676 70.6032 3.98968
28.9083 68.9377 0.0167832
28.371 71.2622 2
27.7943 73.7221 4
30.617 71.7773 0.00923923
30.1841 74.2794 2
32.6054 74.6784 0
29.8128 8.0001 3.97975
31.2547 5.33411 3.98697
31.7894 7.42247 2
32.9823 2.70181 3.99263
33.3489 4.92592 2
33.7255 6.98472 0.0170301
35.0474 0.080333 4
35.2455 2.46335 2
35.4368 4.68769 0.0110288
37.5 0 2
37.5158 2.38773 0.00698585
39.9526 0.0806499 0
40.5916 35.8853 3.60301
42.232 35.7385 2
43.4605 35.6173 0.339923
28.5469 10.7022 3.9772
39.0724 34.326 3.54073
40.4928 34.3806 2
41.9091 34.2536 0.549775
47.2889 34.3639 0.0591252
44.0982 33.1565 0.164486
41.8461 32.5656 0.299779
40.5772 32.9208 0.570968
45.4473 31.7688 2
43.0602 31.3537 2
40.7657 31.5156 2
39.1848 32.6616 2
43.8059 30.0195 3.89073
41.5662 30.0632 3.84156
39.3765 30.9445 3.64436
37.5321 32.5677 3.52749
34.0998 12.9527 3.97523
35.6966 11.7753 2
37.3119 10.635 0.0185757
31.1927 12.0003 3.97787
33.1027 11.2271 2
34.7571 10.3905 0.0201078
30.4843 10.0226 2
32.3809 9.37611 0.0223372
46.9484 29.7376 0.0166889
46.6884 25.3326 0.0269416
36.586 12.9667 0.0252889
44.1981 21.6285 0.019199
41.719 17.9594 0.0220641
38.6764 14.8696 0.0247359
35.7737 14.8124 2
44.929 27.8765 2
38.6587 17.6919 2
41.2581 20.9639 2
43.5327 24.2514 2
33.6168 15.9105 3.98757
42.7067 26.7112 3.98296
40.7727 23.5759 3.99408
38.3843 20.4676 3.99404
35.8446 17.5749 3.98668
39.0891 37.4871 3.56082
40.5982 37.4498 2
42.3965 37.4641 0.489283
43.5931 54.3266 0.00357572
43.3086 50.2463 -0.00350388
40.5358 39.0327 0.402979
41.5422 44.8915 0.159049
41.6323 47.3003 0.075898
39.3462 44.0256 0.354915
39.0591 40.6559 0.455474
37.5022 42.4237 0.469832
41.7344 52.7907 2
39.0605 39.062 2
37.5002 40.7023 2
40.7591 49.4001 2
35.849 42.3289 2
39.7208 45.6739 2
37.4946 44.362 2
39.7104 51.5794 4.00272
37.5096 39.0759 3.59096
35.9585 40.6708 3.5457
34.458 42.0615 3.43164
35.6521 44.0426 3.63625
38.6541 48.2657 3.93382
37.5313 45.9065 3.84028
40.3637 54.7869 0.00520394
38.7177 53.5809 2
36.7645 52.9069 3.99688
35.3642 60.8786 0.0204184
36.9264 57.5631 0.00868362
37.9775 55.0463 0.00514157
34.4917 58.475 2
36.3186 55.1202 2
33.275 55.3345 3.9929
32.3694 59.6934 0.00362971
29.4252 60.256 0.0229336
30.344 57.7711 2
28.8431 55.2833 3.98931
28.0717 58.3337 -0.0155175
27.0482 56.7783 2
25.4927 55.0618 3.95507
22.0088 55.2452 3.96053
25.4236 58.542 0.0206872
23.9587 56.7332 2
20.3205 56.949 3.96282
20.6896 58.7157 3.96481
21.4494 57.3184 2
21.1864 61.1098 3.97246
22.0285 59.5611 2
22.8239 58.1773 0.0321784
21.9026 63.8143 3.9743
22.7522 61.983 2
23.4244 60.2856 0.0232862
24.4436 62.741 0.0236137
23.6865 64.6945 2
22.8391 66.7286 3.97879
25.5506 65.48 0.022658
24.8095 67.5871 2
24.0118 69.8049 3.98957
26.8381 68.3254 0.0170432
26.1658 70.6033 2
25.446 73.0099 4
28.3723 71.2626 0.0100402
27.7943 73.7222 2
30.1842 74.2788 0
27.8226 8.65974 3.98015
29.157 5.88098 3.98517
29.8113 7.99617 2
30.7279 3.09859 3.99235
31.2541 5.33266 2
31.7899 7.42402 0.0184148
32.6053 0.320823 4
32.9813 2.70127 2
33.3494 4.92745 0.0120679
35.0474 0.0802903 2
35.2463 2.46361 0.00694751
37.5 0 0
39.0485 35.9077 3.56133
40.5731 35.8841 2
42.2232 35.7379 0.543183
28.5446 10.6992 2
26.6257 11.4 3.97776
29.2337 12.6509 3.98139
37.5282 34.2868 3.5809
39.0913 34.342 2
40.4812 34.3738 0.423819
45.412 31.7849 0.100764
43.0119 31.3907 0.176799
40.7196 31.5867 0.32343
39.1827 32.6808 0.520346
43.8354 29.9862 2
41.5943 30.0194 2
39.3867 30.8762 2
37.5343 32.5423 2
41.9888 28.7108 3.86225
39.7078 29.3467 3.82897
37.5285 30.695 3.68574
35.8683 32.6813 3.48679
31.9296 14.4994 3.98117
34.1 12.9576 2
35.6965 11.7887 0.023775
31.1905 11.9915 2
33.1022 11.2286 0.0270745
30.4866 10.028 0.0228724
44.9355 27.8787 0.00548557
43.5463 24.2697 -0.0243996
35.7708 14.8064 0.0199772
41.2752 20.9733 0.00930397
38.6591 17.6884 0.0167037
33.6099 15.8941 2
35.84 17.5657 2
42.7467 26.6891 2
38.3672 20.5234 2
40.7659 23.5585 2
33.5524 17.4549 3.98267
40.2057 26.0192 3.95799
38.0282 23.3283 3.99776
35.5547 20.232 3.9964
37.517 37.4868 3.60656
39.0747 37.4784 2
40.5923 37.4449 0.385546
41.7432 52.7897 -0.000192129
40.7793 49.3845 0.00610669
39.0684 39.0744 0.449736
39.7023 45.6132 0.193545
37.4999 44.2965 0.31931
37.5047 40.7107 0.418679
35.8487 42.3117 0.518842
39.6912 51.5824 2
37.5111 39.0732 2
35.9555 40.6597 2
38.6729 48.3262 2
34.4289 42.0773 2
35.6327 44.1077 2
37.5221 45.9661 2
37.681 50.5718 3.99404
35.9725 39.0847 3.56094
34.5738 40.6047 3.57903
33.4934 41.7744 3.45947
34.3381 43.3895 3.67012
35.2616 45.6395 3.82639
36.9209 47.8737 3.89856
38.719 53.5832 0.00347118
36.7616 52.8745 2
34.4629 52.231 3.99909
34.4936 58.4762 0.00647288
36.3148 55.1307 0.0026037
33.2809 55.3434 2
30.6857 53.247 3.99471
30.3412 57.7759 0.0136072
28.8456 55.2783 2
27.135 53.3483 3.95709
27.0447 56.7802 0.0306331
25.4967 55.0628 2
23.8654 53.3567 3.95436
20.8248 53.0829 3.95821
20.1058 55.7348 3.96159
22.0089 55.2467 2
23.9558 56.7316 0.0402845
19.5049 57.8198 3.96242
20.3178 56.9511 2
19.7277 60.1418 3.97512
20.6888 58.7172 2
21.4465 57.3172 0.0415936
20.218 62.8203 3.97135
21.1874 61.1115 2
22.0272 59.5598 0.0196938
20.9412 65.7542 3.97602
21.9029 63.8178 2
22.7507 61.9819 0.0272158
23.6867 64.6951 0.0250793
22.8383 66.7286 2
21.9146 68.8719 3.9887
24.8105 67.5867 0.0180964
24.0096 69.8041 2
23.1494 72.1454 4
26.1676 70.6032 0.0103179
25.446 73.0099 2
27.7943 73.7221 0
25.862 9.38947 3.97874
27.0716 6.54531 3.98376
27.8204 8.65747 2
28.4904 3.64453 3.9915
29.1557 5.87862 2
29.8128 8.0001 0.0202527
30.1841 0.720592 4
30.7263 3.09824 2
31.2547 5.33411 0.0130338
32.6053 0.320817 2
32.9823 2.70181 0.00737131
35.0474 0.080333 0
37.5129 35.9032 3.58543
39.0319 35.8989 2
40.5916 35.8853 0.396986
24.7837 12.0874 3.9763
23.7684 14.399 3.97767
28.5469 10.7022 0.0228045
26.6234 11.3963 2
29.2306 12.6492 2
27.3009 13.3851 3.97789
29.7969 14.2101 3.98322
35.967 34.3264 3.54668
37.5365 34.2928 2
39.0724 34.326 0.459266
37.5321 32.5677 0.472505
43.8059 30.0195 0.109272
41.5662 30.0632 0.15844
39.3765 30.9445 0.35564
42.0242 28.6493 2
39.733 29.2889 2
37.5304 30.6289 2
35.8701 32.6653 2
39.8728 27.9805 3.87611
37.4888 29.0759 3.83168
35.6853 30.962 3.64602
34.4775 32.9334 3.43331
30.9465 16.8543 3.9919
31.9232 14.4847 2
34.0998 12.9527 0.0247734
31.1927 12.0003 0.0221329
42.7067 26.7112 0.0170438
40.7727 23.5759 0.00591659
33.6168 15.9105 0.0124306
35.8446 17.5749 0.0133156
38.3843 20.4676 0.00595791
33.5447 17.4623 2
35.5597 20.238 2
40.2752 25.9978 2
38.0163 23.291 2
32.8976 19.8568 3.99566
37.663 25.6562 3.96472
35.2599 22.9796 4.004
35.9506 37.4827 3.56338
37.5078 37.4861 2
39.0891 37.4871 0.439178
39.7104 51.5794 -0.00271557
38.6541 48.2657 0.0661848
37.5096 39.0759 0.409041
37.5313 45.9065 0.159717
35.6521 44.0426 0.363746
35.9585 40.6708 0.454304
34.458 42.0615 0.568357
37.6619 50.6106 2
35.994 39.0724 2
34.5343 40.6008 2
36.909 47.9363 2
33.4563 41.8014 2
34.2898 43.4575 2
35.2406 45.6944 2
35.5671 49.7653 3.98481
34.4682 39.0768 3.60058
33.1234 40.7235 3.45607
33.2042 42.4096 3.70612
33.4941 44.8988 3.83035
34.503 47.0271 3.87093
36.7645 52.9069 0.00312297
34.4523 52.2427 2
32.2615 51.0422 4.00904
33.275 55.3345 0.00710216
30.6898 53.2483 2
28.7384 51.4505 3.98171
28.8431 55.2833 0.0106869
27.1375 53.3459 2
25.4472 51.5899 3.95299
25.4927 55.0618 0.0449313
23.8678 53.3631 2
22.3953 51.6445 3.95206
19.688 51.4718 3.9617
19.2079 54.1874 3.96128
20.8278 53.0811 2
18.5763 56.6393 3.96309
20.1047 55.7362 2
22.0088 55.2452 0.0394705
18.4004 59.0533 3.96479
19.5025 57.8215 2
20.3205 56.949 0.0371755
18.6324 61.7124 3.97168
19.7283 60.1439 2
20.6896 58.7157 0.0351948
19.1308 64.6646 3.97499
20.2186 62.8242 2
21.1864 61.1098 0.0275397
19.8889 67.8081 3.98617
20.9404 65.7535 2
21.9026 63.8143 0.0256951
22.8391 66.7286 0.0212085
21.9119 68.8705 2
20.9142 71.1327 4
24.0118 69.8049 0.0104252
23.1494 72.1455 2
25.446 73.0099 0
23.1066 12.8142 3.977
23.9747 10.1782 3.97589
25.0252 7.31649 3.98217
25.8592 9.38717 2
26.2822 4.32862 3.99059
27.0699 6.54402 2
27.8226 8.65974 0.019853
27.7943 1.27781 4
28.488 3.64428 2
29.157 5.88098 0.0148325
30.1841 0.720551 2
30.7279 3.09859 0.00764871
32.6053 0.320823 0
35.9553 35.8924 3.55047
37.535 35.912 2
39.0485 35.9077 0.438668
24.78 12.0858 2
23.7684 14.4025 2
22.5034 15.0903 3.97777
25.3704 13.9416 3.97166
24.0578 15.658 3.98651
26.6257 11.4 0.0222406
29.2337 12.6509 0.0186077
27.3012 13.3831 2
29.789 14.2085 2
28.3838 15.9769 3.98542
34.5934 34.3955 3.57438
35.9657 34.3291 2
37.5282 34.2868 0.419103
35.8683 32.6813 0.513211
37.5285 30.695 0.314264
41.9888 28.7108 0.137745
39.7078 29.3467 0.171027
39.9008 27.9362 2
37.4873 29.0175 2
35.6701 30.8886 2
34.4433 32.919 2
37.6297 27.7103 3.87137
35.3214 29.3619 3.827
34.3446 31.6038 3.67558
33.5119 33.2183 3.45713
30.2423 19.4506 3.9815
30.9377 16.8412 2
31.9296 14.4994 0.0188336
40.2057 26.0192 0.0420138
38.0282 23.3283 0.00224068
33.5524 17.4549 0.017328
35.5547 20.232 0.00360397
32.899 19.8859 2
35.2534 22.9704 2
37.7125 25.636 2
32.4541 22.5967 3.99712
35.1419 25.5644 3.98967
34.4277 37.5055 3.61886
35.9503 37.4932 2
37.517 37.4868 0.393437
37.681 50.5718 0.0059552
36.9209 47.8737 0.101441
35.9725 39.0847 0.439061
35.2616 45.6395 0.173613
34.3381 43.3895 0.329876
34.5738 40.6047 0.420973
33.4934 41.7744 0.540527
35.5485 49.7791 2
34.4615 39.0752 2
33.1161 40.7365 2
34.4729 47.0849 2
33.1588 42.4696 2
33.4664 44.946 2
33.434 48.8637 3.97315
32.7958 39.2291 3.46146
32.2561 41.0161 3.6579
32.0341 43.5854 3.82881
32.694 46.0175 3.8719
34.4629 52.231 0.000906168
32.2724 51.0485 2
30.2832 49.6004 4.00048
30.6857 53.247 0.00528556
28.7422 51.4469 2
26.9683 49.8146 3.97479
27.135 53.3483 0.0429059
25.4486 51.5929 2
23.8488 49.9999 3.96583
23.8654 53.3567 0.0456383
22.3978 51.6425 2
21.0183 50.1306 3.96406
18.4667 50.1758 3.97017
18.2338 52.6521 3.96423
19.6855 51.4709 2
17.6649 55.2372 3.96234
19.2069 54.187 2
20.8248 53.0829 0.0417901
17.2127 57.8082 3.96085
18.573 56.6406 2
20.1058 55.7348 0.0384115
17.148 60.5009 3.96662
18.3997 59.0544 2
19.5049 57.8198 0.0375824
17.4142 63.4406 3.96928
18.6339 61.7136 2
19.7277 60.1418 0.0248754
17.9448 66.6155 3.98437
19.1303 64.6627 2
20.218 62.8203 0.0286469
18.75 69.9759 4
19.886 67.8056 2
20.9412 65.7542 0.0239839
21.9146 68.8719 0.0113011
20.9142 71.1327 2
23.1494 72.1454 0
21.6026 13.6478 3.97454
22.1952 11.0467 3.97345
23.1045 12.8165 2
23.0425 8.1833 3.97969
23.9721 10.1791 2
24.1199 5.14348 3.99002
25.0227 7.31525 2
25.862 9.38947 0.0212556
25.446 1.99014 4
26.2792 4.32919 2
27.0716 6.54531 0.0162395
27.7943 1.27778 2
28.4904 3.64453 0.00849652
30.1841 0.720592 0
34.4965 35.927 3.59594
35.9676 35.9079 2
37.5129 35.9032 0.41457
21.339 15.8955 3.97727
24.7837 12.0874 0.0237046
23.7684 14.399 0.0223343
25.3692 13.92 2
22.5049 15.0846 2
24.0615 15.663 2
23.3085 16.2979 3.96622
25.4151 16.1275 3.98612
27.3009 13.3851 0.0221148
29.7969 14.2101 0.0167819
28.3748 15.9914 2
27.4828 18.8817 3.98341
33.1362 34.2766 3.46596
34.5524 34.4083 2
35.967 34.3264 0.453324
34.4775 32.9334 0.566693
35.6853 30.962 0.353984
37.4888 29.0759 0.16832
39.8728 27.9805 0.123892
37.6003 27.6705 2
33.4785 33.1933 2
35.3195 29.2993 2
34.3003 31.5344 2
35.2111 27.8022 3.8859
33.4878 30.0847 3.83198
33.2265 32.5823 3.70424
29.7687 22.0546 4.00682
30.2444 19.4642 2
30.9465 16.8543 0.00810314
37.663 25.6562 0.0352838
35.2599 22.9796 -0.00399943
32.8976 19.8568 0.00434133
32.4563 22.5863 2
35.1699 25.5561 2
32.0346 25.8683 4.00665
32.6206 37.5028 3.50923
34.4372 37.4993 2
35.9506 37.4827 0.436622
35.5671 49.7653 0.0151924
34.503 47.0271 0.12907
34.4682 39.0768 0.399424
33.4941 44.8988 0.16965
33.2042 42.4096 0.293882
33.1234 40.7235 0.543927
33.4161 48.865 2
32.8031 39.2377 2
32.2119 41.0655 2
32.6662 46.0696 2
31.9818 43.6194 2
31.6314 47.7093 3.9815
31.5675 39.366 3.66039
30.9417 41.8291 3.84075
31.1103 44.6523 3.8826
32.2615 51.0422 -0.00904159
30.2917 49.6298 2
28.4509 47.9902 3.96771
28.7384 51.4505 0.0182876
26.9687 49.8173 2
25.2665 48.2559 3.9653
25.4472 51.5899 0.0470139
23.8519 49.9987 2
22.3099 48.5758 3.97104
22.3953 51.6445 0.0479448
21.0186 50.1294 2
19.5886 48.9171 3.97358
17.3425 49.1913 3.97503
17.1762 51.2741 3.96921
18.4688 50.1741 2
16.68 53.7594 3.9655
18.2313 52.6519 2
19.688 51.4718 0.0382955
16.1145 56.4007 3.962
17.6647 55.2375 2
19.2079 54.1874 0.0387151
15.7681 59.1691 3.9626
17.2077 57.8102 2
18.5763 56.6393 0.0369098
15.7937 62.1009 3.96811
17.1498 60.5028 2
18.4004 59.0533 0.0352056
16.0914 65.2977 3.98232
17.4131 63.4457 2
18.6324 61.7124 0.0283187
16.6661 68.6801 4
17.9421 66.6125 2
19.1308 64.6646 0.025014
18.75 69.9759 2
19.8889 67.8081 0.0138271
20.9142 71.1327 0
20.2385 14.6562 3.96794
21.6004 13.6595 2
20.5375 12.03 3.97365
21.1459 9.1565 3.97708
22.192 11.0443 2
23.1066 12.8142 0.0229971
22.0191 6.08212 3.98929
23.0401 8.18334 2
23.9747 10.1782 0.0241083
23.1494 2.85457 4
24.1163 5.14437 2
25.0252 7.31649 0.0178271
25.446 1.99012 2
26.2822 4.32862 0.00940503
27.7943 1.27781 0
32.7862 35.7816 3.4743
34.4792 35.9268 2
35.9553 35.8924 0.449526
21.3423 15.8887 2
20.3551 17.0219 3.9665
22.1416 16.6952 3.96446
25.3704 13.9416 0.0283371
22.5034 15.0903 0.0222276
24.0578 15.658 0.0134923
25.4169 16.1232 2
23.313 16.2942 2
24.2645 18.5769 3.96978
27.2017 21.6756 3.99375
28.3838 15.9769 0.0145769
27.4804 18.9247 2
32.2953 33.9775 3.65218
33.1313 34.26 2
34.5934 34.3955 0.425616
33.5119 33.2183 0.542874
34.3446 31.6038 0.324424
35.3214 29.3619 0.173002
37.6297 27.7103 0.128631
35.2112 27.7544 2
33.1533 32.5212 2
33.4575 30.0426 2
32.9404 28.4466 3.89437
32.0433 31.4068 3.81964
29.1679 24.5495 4.0085
29.7557 22.0784 2
30.2423 19.4506 0.0185003
35.1419 25.5644 0.0103333
32.4541 22.5967 0.00287972
32.0238 25.841 2
30.1812 27.5307 3.97617
31.1572 37.492 3.66563
32.624 37.5021 2
34.4277 37.5055 0.381143
33.434 48.8637 0.0268481
32.694 46.0175 0.128105
32.7958 39.2291 0.538543
32.0341 43.5854 0.171194
32.2561 41.0161 0.342097
31.5837 47.7349 2
31.4892 39.3868 2
30.8938 41.8681 2
31.0661 44.6927 2
29.8823 46.3182 3.98975
30.1066 39.7917 3.84971
29.6236 42.939 3.89445
30.2832 49.6004 -0.000484231
28.4488 47.9912 2
26.6866 46.4212 3.98006
26.9683 49.8146 0.025206
25.2683 48.2545 2
23.5659 46.8386 3.97322
23.8488 49.9999 0.0341734
22.3102 48.5758 2
20.6009 47.4243 3.97648
21.0183 50.1306 0.0359413
19.5896 48.9155 2
18.1811 48.0219 3.97694
16.5743 48.5527 3.97653
17.3428 49.1902 2
16.2397 50.0476 3.97348
15.6892 52.3082 3.96928
17.1775 51.273 2
18.4667 50.1758 0.0298269
15.0688 54.8944 3.96395
16.681 53.759 2
18.2338 52.6521 0.0357725
14.5093 57.6977 3.96153
16.1153 56.4009 2
17.6649 55.2372 0.0376615
14.2716 60.6674 3.96742
15.7708 59.1699 2
17.2127 57.8082 0.03915
14.3363 63.854 3.97794
15.7945 62.1025 2
17.148 60.5009 0.0333803
14.6715 67.2507 4
16.0891 65.294 2
17.4142 63.4406 0.0307151
16.6661 68.6801 2
17.9448 66.6155 0.0156346
18.75 69.9759 0
18.9593 15.8383 3.97533
20.24 14.6536 2
18.9914 13.1541 3.97264
21.6026 13.6478 0.0254624
20.536 12.0302 2
19.3463 10.2478 3.97432
19.9939 7.14747 3.98728
21.1429 9.15676 2
22.1952 11.0467 0.0265524
20.9142 3.86727 4
22.0148 6.08425 2
23.0425 8.1833 0.0203135
23.1494 2.85451 2
24.1199 5.14348 0.00997757
25.446 1.99014 0
31.5943 35.6326 3.65537
32.7887 35.773 2
34.4965 35.927 0.40406
21.339 15.8955 0.0227314
22.1445 16.6881 2
20.3572 17.0183 2
19.3659 18.4931 3.95763
21.8396 17.947 3.97657
25.4151 16.1275 0.013883
23.3085 16.2979 0.0337751
24.2539 18.5985 2
22.4503 20.0207 3.97565
24.784 21.536 3.98833
26.7935 23.832 3.98433
27.2069 21.5917 2
27.4828 18.8817 0.0165895
30.9956 33.1713 3.84226
32.2499 33.9239 2
33.1362 34.2766 0.534038
33.2265 32.5823 0.29576
33.4878 30.0847 0.168017
35.2111 27.8022 0.114104
32.9011 28.4139 2
31.9875 31.363 2
30.8025 29.8255 3.92018
28.4479 26.7135 3.99702
29.1542 24.5485 2
29.7687 22.0546 -0.00682295
32.0346 25.8683 -0.00665282
30.1731 27.5067 2
29.6632 37.4894 3.84741
31.0903 37.4901 2
32.6206 37.5028 0.490771
31.6314 47.7093 0.0185008
31.1103 44.6523 0.117397
31.5675 39.366 0.339605
30.9417 41.8291 0.159245
29.8856 46.3225 2
30.03 39.8057 2
29.5911 42.9663 2
28.1677 44.6441 3.96866
27.8633 40.5079 3.93052
28.4509 47.9902 0.0322916
26.6852 46.4221 2
24.8796 44.9523 3.97908
25.2665 48.2559 0.0346965
23.5649 46.8378 2
21.6315 45.7066 3.97781
22.3099 48.5758 0.0289551
20.6015 47.4231 2
18.92 46.5748 3.97649
19.5886 48.9171 0.0264201
18.1819 48.0206 2
16.8175 47.5763 3.97629
16.5756 48.5516 2
15.5868 48.8994 3.97552
17.3425 49.1913 0.0249724
16.2415 50.0466 2
14.8016 50.8857 3.97267
14.0405 53.3564 3.96694
15.6903 52.3075 2
17.1762 51.2741 0.0307862
13.3475 56.1221 3.96137
15.0691 54.8942 2
16.68 53.7594 0.034497
12.8592 59.1068 3.96561
14.5137 57.6974 2
16.1145 56.4007 0.0380044
12.6823 62.2967 3.97595
14.273 60.6673 2
15.7681 59.1691 0.037402
12.7746 65.6939 4
14.3342 63.8507 2
15.7937 62.1009 0.031892
14.6714 67.2507 2
16.0914 65.2977 0.0176846
16.6661 68.6801 0
17.7295 17.2199 3.96232
18.9592 15.8371 2
17.5278 14.4227 3.96793
20.2385 14.6562 0.0320628
18.9909 13.1586 2
17.644 11.4722 3.97321
20.5375 12.03 0.0263491
19.3427 10.2486 2
18.0541 8.34113 3.98488
18.75 5.0241 4
19.9891 7.15018 2
21.1459 9.1565 0.0229152
20.9142 3.86727 2
22.0191 6.08212 0.010712
23.1494 2.85457 0
30.1355 35.2096 3.84828
31.5169 35.6084 2
32.7862 35.7816 0.5257
22.1416 16.6952 0.0355441
20.3551 17.0219 0.0334974
21.8382 17.946 2
19.3583 18.4867 2
18.2054 20.049 3.96169
21.0321 19.4912 3.96554
24.2645 18.5769 0.0302233
22.4405 20.0272 2
24.7903 21.5206 2
22.6328 21.8665 3.98028
25.0716 23.2698 3.972
26.0544 26.0877 3.97865
26.7904 23.8263 2
27.2017 21.6756 0.00624938
29.3885 32.5188 3.89441
30.9239 33.1359 2
32.2953 33.9775 0.347824
32.0433 31.4068 0.180361
32.9404 28.4466 0.105632
30.7802 29.815 2
27.8206 29.2957 4.01389
28.4355 26.7197 2
29.1679 24.5495 -0.00850092
30.1812 27.5307 0.0238262
28.0137 37.3656 3.8945
29.5882 37.4834 2
31.1572 37.492 0.33437
29.8823 46.3182 0.0102504
29.6236 42.939 0.105547
30.1066 39.7917 0.150291
28.163 44.6996 2
27.8309 40.5096 2
26.261 43.0218 3.98565
25.1386 39.4364 3.9719
26.6866 46.4212 0.0199449
24.8691 44.9541 2
22.7979 43.7445 3.9755
23.5659 46.8386 0.0267826
21.6282 45.708 2
19.6979 44.8126 3.97609
20.6009 47.4243 0.0235205
18.9198 46.5753 2
17.1789 46.0751 3.97607
18.1811 48.0219 0.0230613
16.8187 47.5757 2
15.3545 47.5537 3.97589
16.5743 48.5527 0.0234681
15.5887 48.8985 2
14.1117 49.4529 3.97485
16.2397 50.0476 0.0265181
14.8029 50.885 2
13.1102 51.8028 3.96945
12.2538 54.4829 3.96345
14.0411 53.3559 2
15.6892 52.3082 0.0307167
11.5467 57.4456 3.96381
13.3478 56.1221 2
15.0688 54.8944 0.0360534
11.1376 60.6218 3.97205
12.8609 59.106 2
14.5093 57.6977 0.0384738
10.9835 64.0165 4
12.6806 62.2923 2
14.2716 60.6674 0.0325841
12.7745 65.694 2
14.3363 63.854 0.022065
14.6715 67.2507 0
16.5404 18.7293 3.96186
17.7223 17.2163 2
16.1226 15.8264 3.965
18.9593 15.8383 0.02467
17.5279 14.4199 2
16.0282 12.8424 3.96989
18.9914 13.1541 0.0273598
17.6418 11.4809 2
16.2053 9.66545 3.98242
19.3463 10.2478 0.0256791
18.049 8.34594 2
16.6661 6.31991 4
18.75 5.02404 2
19.9939 7.14747 0.0127162
20.9142 3.86727 0
28.5294 34.8539 3.89636
30.0466 35.1728 2
31.5943 35.6326 0.344627
16.9486 21.4864 3.96745
21.8396 17.947 0.0234315
19.3659 18.4931 0.0423669
21.0205 19.487 2
18.2056 20.0469 2
20.0354 21.7099 3.97159
22.4503 20.0207 0.0243458
24.784 21.536 0.0116654
22.63 21.8718 2
25.063 23.2743 2
23.3673 24.7533 3.97192
25.3726 28.6877 3.98384
26.047 26.0942 2
26.7935 23.832 0.0156685
27.2438 31.8785 3.9817
29.3515 32.4969 2
30.9956 33.1713 0.157743
30.8025 29.8255 0.0798223
27.8326 29.2725 2
28.4479 26.7135 0.00297537
25.8369 36.8474 3.97165
27.9919 37.3665 2
29.6632 37.4894 0.152592
28.1677 44.6441 0.0313391
27.8633 40.5079 0.0694807
26.2378 43.0448 2
25.1121 39.4399 2
24.0167 41.7631 3.98211
22.8568 38.5224 3.9795
24.8796 44.9523 0.0209151
22.7954 43.7457 2
20.5835 42.765 3.97519
21.6315 45.7066 0.0221907
19.6984 44.8131 2
17.5909 44.2562 3.97546
18.92 46.5748 0.0235134
17.1794 46.0753 2
15.3199 45.9802 3.97572
16.8175 47.5763 0.0237138
15.3559 47.5529 2
13.6431 47.9187 3.97567
15.5868 48.8994 0.0244834
14.1134 49.4521 2
12.3421 50.1864 3.9716
14.8016 50.8857 0.0273287
13.111 51.802 2
11.2501 52.7972 3.965
10.3447 55.7012 3.96377
12.2546 54.4824 2
14.0405 53.3564 0.0330582
9.70457 58.8454 3.9724
11.5485 57.4448 2
13.3475 56.1221 0.0386342
9.30605 62.2254 4
11.1363 60.6178 2
12.8592 59.1068 0.0343919
10.9835 64.0165 2
12.6823 62.2967 0.0240547
12.7746 65.6939 0
15.333 20.2683 3.96396
16.5427 18.7288 2
14.7952 17.3494 3.96304
17.7295 17.2199 0.0376839
16.1244 15.8248 2
14.4904 14.3236 3.96783
17.5278 14.4227 0.0320704
16.0275 12.8389 2
14.4477 11.1173 3.97987
17.644 11.4722 0.0267917
16.2007 9.67122 2
14.6715 7.74927 4
18.0541 8.34113 0.015119
16.6661 6.31988 2
18.75 5.0241 0
26.489 34.3674 3.97442
28.5124 34.8612 2
30.1355 35.2096 0.151719
18.2125 22.4551 3.97467
15.8541 23.0306 3.97155
16.9523 21.4863 2
21.0321 19.4912 0.0344627
18.2054 20.049 0.0383063
20.0351 21.7081 2
20.1613 24.5505 3.97196
22.6328 21.8665 0.0197161
25.0716 23.2698 0.0279993
23.3633 24.755 2
22.7357 28.0238 3.97157
24.8096 31.3773 3.98237
25.3787 28.6746 2
26.0544 26.0877 0.021346
27.2169 31.8397 2
29.3885 32.5188 0.105588
27.8206 29.2957 -0.0138859
23.5878 36.3011 3.97877
25.8162 36.843 2
28.0137 37.3656 0.105504
26.261 43.0218 0.0143519
25.1386 39.4364 0.0280984
23.9949 41.7615 2
22.8425 38.5172 2
21.6964 40.5853 3.9745
21.0431 37.7994 3.9767
22.7979 43.7445 0.0244997
20.5834 42.7652 2
18.0717 42.0097 3.97566
19.6979 44.8126 0.023914
17.5911 44.2564 2
15.3693 44.1026 3.97537
17.1789 46.0751 0.0239255
15.3204 45.98 2
13.3434 46.21 3.97578
15.3545 47.5537 0.0241086
13.6447 47.9179 2
11.7328 48.4879 3.97356
14.1117 49.4529 0.0251522
12.3438 50.1855 2
10.3812 51.0445 3.96635
13.1102 51.8028 0.0305535
11.2507 52.7964 2
9.2565 53.8821 3.96389
8.38797 56.98 3.97405
10.3495 55.6993 2
12.2538 54.4829 0.0365549
7.74927 60.3285 4
9.70332 58.8412 2
11.5467 57.4456 0.0361949
9.306 62.2255 2
11.1376 60.6218 0.027945
10.9835 64.0165 0
14.1707 21.8316 3.96754
15.3319 20.2673 2
13.5259 18.9465 3.96256
16.5404 18.7293 0.03814
14.7962 17.3484 2
13.0362 15.9088 3.96868
16.1226 15.8264 0.0350042
14.4924 14.3221 2
12.7856 12.693 3.97691
16.0282 12.8424 0.0301093
14.4446 11.1245 2
12.7746 9.30605 4
16.2053 9.66545 0.0175751
14.6715 7.74924 2
16.6661 6.31991 0
24.1629 33.8838 3.98071
26.4688 34.3669 2
28.5294 34.8539 0.103641
18.0882 24.1885 3.973
18.2209 22.4557 2
14.6881 24.5592 3.97355
15.8563 23.0304 2
16.9486 21.4864 0.032553
19.7038 27.3896 3.97398
20.0354 21.7099 0.0284111
20.155 24.5491 2
22.115 30.8413 3.97439
23.3673 24.7533 0.0280823
22.7355 28.0264 2
24.7744 31.3764 2
25.3726 28.6877 0.0161635
27.2438 31.8785 0.0182977
21.1611 35.9654 3.97667
23.586 36.3016 2
25.8369 36.8474 0.0283506
24.0167 41.7631 0.0178878
22.8568 38.5224 0.020505
21.7012 40.5878 2
21.0431 37.7982 2
18.8363 38.9814 3.97707
20.5835 42.765 0.0248058
18.0715 42.0097 2
15.3542 41.8558 3.97598
17.5909 44.2562 0.0245385
15.3689 44.1025 2
13.1073 44.3203 3.97572
15.3199 45.9802 0.0242779
13.3448 46.2094 2
11.2481 46.6774 3.97517
13.6431 47.9187 0.0243305
11.7349 48.4868 2
9.65121 49.2075 3.96784
12.3421 50.1864 0.0283976
10.3821 51.0436 2
8.28716 51.9971 3.96398
11.2501 52.7972 0.0349999
9.25835 53.8803 2
7.19707 55.032 3.97508
6.31991 58.3339 4
8.38672 56.9758 2
10.3447 55.7012 0.0362321
7.74924 60.3285 2
9.70457 58.8454 0.0275999
9.30605 62.2254 0
13.5482 25.4519 3.97609
13.0737 23.3578 3.97051
14.1705 21.831 2
12.3438 20.5955 3.96381
15.333 20.2683 0.0360404
13.527 18.9457 2
11.6697 17.5816 3.96678
14.7952 17.3494 0.0369555
13.0397 15.9079 2
11.2237 14.3789 3.97303
14.4904 14.3236 0.0321738
12.7834 12.699 2
10.9835 10.9835 4
14.4477 11.1173 0.0201323
12.7745 9.306 2
14.6715 7.74927 0
21.5083 33.5036 3.97638
24.1669 33.8693 2
26.489 34.3674 0.0255821
16.4157 26.5407 3.97457
18.0919 24.1885 2
18.2125 22.4551 0.0253348
14.6873 24.5591 2
15.8541 23.0306 0.0284526
19.1064 30.3316 3.97469
19.7042 27.39 2
20.1613 24.5505 0.028041
22.133 30.8427 2
22.7357 28.0238 0.028426
24.8096 31.3773 0.0176298
18.4391 36.0019 3.97776
21.1634 35.9652 2
23.5878 36.3011 0.0212311
21.6964 40.5853 0.0255001
21.0431 37.7994 0.0233017
18.835 38.9808 2
14.8491 39.1567 3.97695
18.0717 42.0097 0.0243416
15.3536 41.8555 2
12.8019 42.23 3.97604
15.3693 44.1026 0.0246261
13.1079 44.3199 2
10.8362 44.7539 3.97624
13.3434 46.21 0.0242218
11.2506 46.6763 2
9.03833 47.2903 3.96906
11.7328 48.4879 0.0264382
9.6523 49.2066 2
7.45006 50.0317 3.96407
10.3812 51.0445 0.033651
8.28706 51.9956 2
6.13763 53.0078 3.97532
9.2565 53.8821 0.0361138
7.19628 55.0282 2
5.0241 56.25 4
6.31988 58.3339 2
8.38797 56.98 0.0259462
7.74927 60.3285 0
13.831 26.91 3.97574
12.1828 24.8558 3.97362
13.5477 25.4519 2
11.2742 22.2786 3.96582
13.0739 23.3578 2
14.1707 21.8316 0.0324603
12.3462 20.5954 2
10.4048 19.3301 3.96454
13.5259 18.9465 0.0374387
11.6733 17.5813 2
9.76467 16.1624 3.97208
13.0362 15.9088 0.0313186
11.2225 14.3845 2
9.30607 12.7746 4
12.7856 12.693 0.0230859
10.9835 10.9835 2
12.7746 9.30605 0
18.5982 33.1922 3.97596
21.5068 33.5072 2
24.1629 33.8838 0.0192937
16.0408 29.7592 3.97546
16.4153 26.5405 2
18.0882 24.1885 0.0269957
14.6881 24.5592 0.0264522
19.1046 30.3314 2
19.7038 27.3896 0.0260184
22.115 30.8413 0.0256134
15.4852 36.0377 3.97739
18.4386 36.0024 2
21.1611 35.9654 0.0233269
13.0327 37.828 3.97696
18.8363 38.9814 0.0229326
14.8487 39.1566 2
12.3015 40.115 3.97655
15.3542 41.8558 0.0240215
12.8021 42.2296 2
10.4378 42.7411 3.9762
13.1073 44.3203 0.0242781
10.8385 44.7529 2
8.51556 45.2974 3.9702
11.2481 46.6774 0.0248274
9.03909 47.2897 2
6.73799 47.9977 3.96427
9.65121 49.2075 0.0321597
7.44886 50.0305 2
5.21422 50.9112 3.97492
8.28716 51.9971 0.0360212
6.13729 53.005 2
3.86727 54.0858 4
7.19707 55.032 0.024921
5.02404 56.25 2
6.31991 58.3339 0
13.3141 29.1158 3.97515
11.6277 26.55 3.97456
13.8309 26.9101 2
10.3268 24.0048 3.96781
12.1856 24.8565 2
13.5482 25.4519 0.0239116
9.26924 21.1467 3.96455
11.2744 22.2786 2
13.0737 23.3578 0.0294938
12.3438 20.5955 0.0361932
10.4136 19.3318 2
8.42084 18.0319 3.97379
11.6697 17.5816 0.0332159
9.76394 16.1671 2
7.74928 14.6715 4
11.2237 14.3789 0.0269682
9.30602 12.7745 2
10.9835 10.9835 0
15.027 32.9239 3.97622
18.5971 33.1915 2
21.5083 33.5036 0.023625
16.0411 29.7593 2
16.4157 26.5407 0.025431
19.1064 30.3316 0.0253129
13.3356 36.2212 3.97673
15.4847 36.0378 2
18.4391 36.0019 0.0222351
13.0325 37.8279 2
11.6256 38.3038 3.97684
14.8491 39.1567 0.0230502
12.3022 40.1149 2
10.0137 40.7332 3.97637
12.8019 42.23 0.023961
10.4409 42.7404 2
8.0573 43.2528 3.97152
10.8362 44.7539 0.0237646
8.5182 45.2967 2
6.14004 45.9034 3.9648
9.03833 47.2903 0.0309448
6.73633 47.9969 2
4.42534 48.7516 3.97454
7.45006 50.0317 0.0359313
5.21428 50.9094 2
2.85457 51.8506 4
6.13763 53.0078 0.0246769
3.86727 54.0858 2
5.0241 56.25 0
12.4438 31.3118 3.97607
11.0391 28.4685 3.97551
13.3144 29.1159 2
9.54141 25.83 3.96893
11.6304 26.5507 2
13.831 26.91 0.0242594
8.25289 23.0284 3.96469
10.3285 24.0054 2
12.1828 24.8558 0.0263837
7.20294 19.9797 3.97504
9.27566 21.1486 2
11.2742 22.2786 0.0341814
10.4048 19.3301 0.0354584
8.41976 18.036 2
6.31992 16.6661 4
9.76467 16.1624 0.0279213
7.74926 14.6714 2
9.30607 12.7746 0
12.4801 34.3264 3.97649
15.0264 32.9246 2
18.5982 33.1922 0.0240404
16.0408 29.7592 0.024542
11.1605 36.62 3.97661
13.3354 36.2212 2
15.4852 36.0377 0.0226077
13.0327 37.828 0.023043
11.6267 38.3035 2
9.59273 38.8161 3.97666
12.3015 40.115 0.023446
10.0168 40.7327 2
7.65985 41.2007 3.9723
10.4378 42.7411 0.023797
8.05831 43.2523 2
5.65115 43.7666 3.96555
8.51556 45.2974 0.0298029
6.14018 45.9028 2
3.77065 46.5368 3.97467
6.73799 47.9977 0.0357288
4.42587 48.7506 2
1.99014 49.554 4
5.21422 50.9112 0.0250777
2.85451 51.8506 2
3.86727 54.0858 0
11.249 32.9574 3.97655
10.3453 30.424 3.97614
12.4441 31.3124 2
8.84896 27.759 3.96931
11.0414 28.4693 2
13.3141 29.1158 0.024855
7.37289 24.9854 3.96463
9.54308 25.8307 2
11.6277 26.55 0.0254379
6.11992 22.0018 3.97565
8.25444 23.0298 2
10.3268 24.0048 0.0321935
5.02411 18.75 4
7.20236 19.9833 2
9.26924 21.1467 0.0354514
8.42084 18.0319 0.026214
6.3199 16.6661 2
7.74928 14.6715 0
10.744 35.0184 3.97652
12.4796 34.3265 2
15.027 32.9239 0.0237784
9.24898 36.9883 3.97676
11.1618 36.62 2
13.3356 36.2212 0.0232678
11.6256 38.3038 0.0231631
9.59598 38.8157 2
7.33434 39.1775 3.97247
10.0137 40.7332 0.0236335
7.66183 41.2003 2
5.26596 41.6127 3.96603
8.0573 43.2528 0.0284844
5.65149 43.766 2
3.24806 44.2815 3.97542
6.14004 45.9034 0.0351959
3.77114 46.5364 2
1.27781 47.2057 4
4.42534 48.7516 0.0254624
1.99012 49.554 2
2.85457 51.8506 0
10.3775 33.9062 3.97628
9.62082 32.1838 3.97648
11.2505 32.9579 2
8.18679 29.7163 3.96994
10.3479 30.4248 2
12.4438 31.3118 0.0239259
6.61113 27.0103 3.96478
8.85029 27.7595 2
11.0391 28.4685 0.0244873
5.175 24.0941 3.97538
7.3718 24.9863 2
9.54141 25.83 0.0310704
3.86728 20.9142 4
6.11968 22.0044 2
8.25289 23.0284 0.0353099
5.02406 18.75 2
7.20294 19.9797 0.0249635
6.31992 16.6661 0
9.06183 35.2916 3.97697
10.7457 35.0185 2
12.4801 34.3264 0.0235069
7.11137 37.2066 3.97219
9.25236 36.9881 2
11.1605 36.62 0.0233855
9.59273 38.8161 0.0233397
7.33678 39.1772 2
4.99307 39.4667 3.96671
7.65985 41.2007 0.0276953
5.26668 41.6123 2
2.85833 42.0016 3.97586
5.65115 43.7666 0.0344479
3.24831 44.281 2
0.720592 44.8159 4
3.77065 46.5368 0.0253276
1.27778 47.2057 2
1.99014 49.554 0
9.10197 33.7172 3.97698
10.38 33.9065 2
7.61533 31.6241 3.97088
9.62398 32.1845 2
11.249 32.9574 0.0234508
5.95207 29.0708 3.96512
8.18844 29.7169 2
10.3453 30.424 0.0238558
4.36221 26.2468 3.97506
6.609 27.0108 2
8.84896 27.759 0.0306944
2.85458 23.1494 4
5.17519 24.0956 2
7.37289 24.9854 0.0353734
3.86728 20.9142 2
6.11992 22.0018 0.0243489
5.02411 18.75 0
7.05976 35.3113 3.97179
9.06557 35.2917 2
10.744 35.0184 0.0234763
4.84315 37.3397 3.96716
7.11414 37.2065 2
9.24898 36.9883 0.0232382
7.33434 39.1775 0.027526
4.9938 39.4664 2
2.60616 39.7133 3.97639
5.26596 41.6127 0.0339701
2.85892 42.0015 2
0.320823 42.3947 4
3.24806 44.2815 0.0245792
0.720551 44.8159 2
1.27781 47.2057 0
7.2233 33.4707 3.97146
9.10557 33.7178 2
10.3775 33.9062 0.0237231
5.42227 31.1347 3.9658
7.61735 31.6245 2
9.62082 32.1838 0.0235239
3.68356 28.4433 3.97511
5.95229 29.0713 2
8.18679 29.7163 0.0300593
1.99015 25.446 4
4.36273 26.2476 2
6.61113 27.0103 0.0352249
2.85453 23.1494 2
5.175 24.0941 0.0246226
3.86728 20.9142 0
4.85743 35.2521 3.967
7.06176 35.3114 2
9.06183 35.2916 0.0230299
2.49759 37.428 3.97727
4.84335 37.3398 2
7.11137 37.2066 0.0278117
4.99307 39.4667 0.0332888
2.60687 39.7136 2
0.080333 39.9526 4
2.85833 42.0016 0.0241399
0.320817 42.3947 2
0.720592 44.8159 0
5.051 33.1911 3.96662
7.22544 33.471 2
9.10197 33.7172 0.0230216
3.1476 30.6662 3.97571
5.42263 31.1353 2
7.61533 31.6241 0.0291176
1.27793 27.7943 4
3.68411 28.4435 2
5.95207 29.0708 0.0348774
1.99013 25.446 2
4.36221 26.2468 0.0249429
2.85458 23.1494 0
2.54967 35.1588 3.977
4.85827 35.2524 2
7.05976 35.3113 0.0282089
0 37.5 4
2.49779 37.4285 2
4.84315 37.3397 0.0328421
2.60616 39.7133 0.0236093
0.0802903 39.9526 2
0.320823 42.3947 0
2.7674 32.9057 3.97693
5.05134 33.1916 2
7.2233 33.4707 0.0285357
0.721173 30.1842 4
3.14806 30.6667 2
5.42227 31.1347 0.0342036
1.27779 27.7943 2
3.68356 28.4433 0.0248857
1.99015 25.446 0
0.0806499 35.0474 4
2.55046 35.1593 2
4.85743 35.2521 0.0330034
0 37.5 2
2.49759 37.428 0.0227268
0.080333 39.9526 0
0.32156 32.6054 4
2.76768 32.9064 2
5.051 33.1911 0.0333805
0.72056 30.1841 2
3.1476 30.6662 0.0242871
1.27793 27.7943 0
0.0802889 35.0474 2
2.54967 35.1588 0.0230046
0 37.5 0
0.320817 32.6053 2
2.7674 32.9057 0.0230697
0.721173 30.1842 0
0.0806499 35.0474 0
0.32156 32.6054 0
CELLS 1910 17190
8 18 6 25 56 2 0 5 16
8 57 23 6 18 17 4 0 2
8 78 36 9 29 31 11 1 7
8 31 11 1 7 79 37 10 30
8 110 57 18 50 48 17 2 14
8 50 18 56 111 14 2 16 49
8 116 62 22 55 52 20 3 15
8 56 25 67 118 16 5 24 53
8 119 63 23 57 54 21 4 17
8 55 22 63 119 15 3 21 54
8 58 26 68 121 18 6 25 56
8 122 65 26 58 57 23 6 18
8 73 31 7 27 142 79 30 71
8 143 78 29 72 73 31 7 27
8 83 147 76 34 32 74 28 8
8 84 148 78 36 33 75 29 9
8 76 34 8 28 148 84 33 75
8 37 79 150 86 10 30 77 35
8 151 87 36 78 80 38 11 31
8 80 38 11 31 152 88 37 79
8 175 100 42 94 96 44 12 40
8 44 96 176 101 12 40 95 43
8 101 176 98 46 43 95 41 13
8 46 98 178 103 13 41 97 45
8 178 103 45 97 147 83 32 74
8 189 116 55 109 106 52 15 47
8 111 56 118 191 49 16 53 107
8 192 119 57 110 108 54 17 48
8 109 55 119 192 47 15 54 108
8 194 122 58 112 110 57 18 50
8 112 58 121 195 50 18 56 111
8 115 61 19 51 197 124 59 113
8 115 61 125 198 51 19 60 114
8 198 125 62 116 114 60 20 52
8 200 127 64 120 116 62 22 55
8 118 67 132 202 53 24 66 117
8 121 68 133 203 56 25 67 118
8 120 64 128 204 55 22 63 119
8 204 128 65 122 119 63 23 57
8 206 134 68 121 123 69 26 58
8 123 69 26 58 207 131 65 122
8 226 147 74 138 140 76 28 70
8 229 148 75 139 143 78 29 72
8 140 76 28 70 229 148 75 139
8 142 79 30 71 231 150 77 141
8 144 80 31 73 232 152 79 142
8 233 151 78 143 144 80 31 73
8 150 86 35 77 235 154 81 145
8 235 154 81 145 146 82 39 91
8 146 82 39 91 236 155 90 165
8 238 157 83 147 149 85 34 76
8 239 158 84 148 151 87 36 78
8 149 85 34 76 239 158 84 148
8 152 88 37 79 241 160 86 150
8 242 161 87 151 153 89 38 80
8 153 89 38 80 243 162 88 152
8 171 98 41 92 265 178 97 169
8 265 178 97 169 226 147 74 138
8 172 96 40 93 266 176 95 170
8 266 176 95 170 171 98 41 92
8 269 175 94 173 172 96 40 93
8 271 180 99 174 175 100 42 94
8 197 124 59 113 271 180 99 174
8 272 181 100 175 177 102 44 96
8 273 182 101 176 179 104 46 98
8 177 102 44 96 273 182 101 176
8 179 104 46 98 275 184 103 178
8 275 184 103 178 238 157 83 147
8 188 115 51 105 283 197 113 186
8 188 115 198 284 105 51 114 187
8 284 198 116 189 187 114 52 106
8 286 200 120 193 189 116 55 109
8 191 118 202 288 107 53 117 190
8 195 121 203 289 111 56 118 191
8 193 120 204 290 109 55 119 192
8 290 204 122 194 192 119 57 110
8 196 123 58 112 292 207 122 194
8 293 206 121 195 196 123 58 112
8 199 126 61 115 297 211 124 197
8 298 212 127 200 198 125 62 116
8 199 126 212 298 115 61 125 198
8 205 129 64 120 300 214 127 200
8 301 217 130 201 202 132 66 117
8 209 136 168 264 301 217 130 201
8 302 219 132 202 203 133 67 118
8 303 220 133 203 206 134 68 121
8 205 129 215 304 120 64 128 204
8 304 215 131 207 204 128 65 122
8 306 221 134 206 208 135 69 123
8 208 135 69 123 307 218 131 207
8 210 137 167 263 309 223 136 209
8 328 238 147 226 230 149 76 140
8 228 146 91 166 329 236 165 260
8 231 150 77 141 330 235 145 227
8 330 235 145 227 228 146 91 166
8 332 239 148 229 233 151 78 143
8 230 149 76 140 332 239 148 229
8 232 152 79 142 334 241 150 231
8 234 153 80 144 335 243 152 232
8 336 242 151 233 234 153 80 144
8 236 155 90 165 338 245 164 259
8 241 160 86 150 339 246 154 235
8 339 246 154 235 237 156 82 146
8 237 156 82 146 340 247 155 236
8 342 249 157 238 240 159 85 149
8 343 250 158 239 242 161 87 151
8 240 159 85 149 343 250 158 239
8 243 162 88 152 345 252 160 241
8 244 163 253 346 153 89 161 242
8 244 163 89 153 347 254 162 243
8 311 224 261 371 210 137 167 263
8 263 167 262 372 209 136 168 264
8 267 179 98 171 375 275 178 265
8 375 275 178 265 328 238 147 226
8 376 273 176 266 267 179 98 171
8 268 177 96 172 376 273 176 266
8 379 272 175 269 268 177 96 172
8 380 271 174 270 269 175 94 173
8 283 197 113 186 380 271 174 270
8 381 277 180 271 272 181 100 175
8 297 211 124 197 381 277 180 271
8 382 278 181 272 274 183 102 177
8 274 183 102 177 383 279 182 273
8 383 279 182 273 276 185 104 179
8 385 281 184 275 342 249 157 238
8 276 185 104 179 385 281 184 275
8 285 199 115 188 393 297 197 283
8 394 298 200 286 284 198 116 189
8 285 199 298 394 188 115 198 284
8 291 205 120 193 396 300 200 286
8 397 301 201 287 288 202 117 190
8 295 209 264 374 397 301 201 287
8 398 302 202 288 289 203 118 191
8 399 303 203 289 293 206 121 195
8 291 205 304 400 193 120 204 290
8 400 304 207 292 290 204 122 194
8 294 208 123 196 402 307 207 292
8 403 306 206 293 294 208 123 196
8 296 210 263 373 405 309 209 295
8 408 312 213 299 297 211 126 199
8 299 213 313 409 199 126 212 298
8 409 313 214 300 298 212 127 200
8 305 216 129 205 411 315 214 300
8 412 318 217 301 302 219 132 202
8 309 223 136 209 412 318 217 301
8 413 320 219 302 303 220 133 203
8 306 221 321 414 206 134 220 303
8 307 218 131 207 415 316 215 304
8 305 216 316 415 205 129 215 304
8 417 322 221 306 308 222 135 208
8 308 222 135 208 418 319 218 307
8 310 225 137 210 420 325 223 309
8 423 326 224 311 310 225 137 210
8 329 236 165 260 441 338 259 368
8 442 342 238 328 333 240 149 230
8 331 237 146 228 443 340 236 329
8 334 241 150 231 444 339 235 330
8 444 339 235 330 331 237 146 228
8 446 343 239 332 336 242 151 233
8 333 240 149 230 446 343 239 332
8 335 243 152 232 448 345 241 334
8 337 244 153 234 449 347 243 335
8 337 244 346 450 234 153 242 336
8 338 245 164 259 452 349 258 367
8 340 247 155 236 453 350 245 338
8 345 252 160 241 454 351 246 339
8 454 351 246 339 341 248 156 237
8 341 248 156 237 455 352 247 340
8 240 159 251 344 342 249 354 457
8 242 161 253 346 343 250 355 458
8 343 250 355 458 240 159 251 344
8 347 254 162 243 460 357 252 345
8 348 255 358 461 244 163 253 346
8 348 255 163 244 462 359 254 347
8 473 360 257 365 363 256 364 482
8 452 349 258 367 365 257 366 485
8 422 324 369 488 311 224 261 371
8 371 261 370 490 263 167 262 372
8 407 311 371 491 296 210 263 373
8 373 263 372 492 295 209 264 374
8 493 385 275 375 442 342 238 328
8 377 276 179 267 493 385 275 375
8 378 274 177 268 494 383 273 376
8 494 383 273 376 377 276 179 267
8 497 382 272 379 378 274 177 268
8 498 381 271 380 379 272 175 269
8 393 297 197 283 498 381 271 380
8 499 387 277 381 382 278 181 272
8 408 312 211 297 499 387 277 381
8 500 388 278 382 384 280 183 274
8 501 389 279 383 386 282 185 276
8 384 280 183 274 501 389 279 383
8 386 282 185 276 503 391 281 385
8 503 391 281 385 457 354 249 342
8 511 408 299 395 393 297 199 285
8 395 299 409 512 285 199 298 394
8 512 409 300 396 394 298 200 286
8 401 305 205 291 514 411 300 396
8 515 412 301 397 398 302 202 288
8 405 309 209 295 515 412 301 397
8 516 413 302 398 399 303 203 289
8 403 306 414 517 293 206 303 399
8 402 307 207 292 518 415 304 400
8 401 305 415 518 291 205 304 400
8 404 308 208 294 520 418 307 402
8 521 417 306 403 404 308 208 294
8 406 310 210 296 523 420 309 405
8 526 423 311 407 406 310 210 296
8 410 314 213 299 527 424 312 408
8 528 425 315 411 409 313 214 300
8 410 314 425 528 299 213 313 409
8 416 317 216 305 530 427 315 411
8 531 430 318 412 413 320 219 302
8 420 325 223 309 531 430 318 412
8 532 432 320 413 414 321 220 303
8 417 322 433 533 306 221 321 414
8 418 319 218 307 534 428 316 415
8 416 317 428 534 305 216 316 415
8 419 323 434 536 308 222 322 417
8 419 323 222 308 537 431 319 418
8 421 327 225 310 539 438 325 420
8 421 327 439 541 310 225 326 423
8 543 437 324 422 423 326 224 311
8 441 338 259 368 559 452 367 486
8 443 340 236 329 560 453 338 441
8 333 240 344 447 442 342 457 561
8 445 341 237 331 562 455 340 443
8 448 345 241 334 563 454 339 444
8 563 454 339 444 445 341 237 331
8 336 242 346 450 446 343 458 565
8 446 343 458 565 333 240 344 447
8 449 347 243 335 567 460 345 448
8 451 348 244 337 568 462 347 449
8 451 348 461 569 337 244 346 450
8 570 463 349 452 473 360 257 365
8 453 350 245 338 570 463 349 452
8 455 352 247 340 571 464 350 453
8 460 357 252 345 572 465 351 454
8 572 465 351 454 456 353 248 341
8 456 353 248 341 573 466 352 455
8 344 251 356 459 457 354 468 575
8 458 355 469 576 344 251 356 459
8 346 253 358 461 458 355 469 576
8 462 359 254 347 578 471 357 460
8 348 255 359 462 461 358 472 579
8 591 474 360 473 475 361 256 363
8 475 361 256 363 594 477 362 479
8 363 256 364 482 479 362 480 603
8 590 473 365 484 481 363 482 605
8 482 364 257 365 606 483 366 485
8 559 452 367 486 484 365 485 607
8 542 436 487 609 422 324 369 488
8 525 422 488 611 407 311 371 491
8 488 369 489 612 371 261 370 490
8 491 371 490 613 373 263 372 492
8 495 386 276 377 614 503 385 493
8 614 503 385 493 561 457 342 442
8 615 501 383 494 495 386 276 377
8 496 384 274 378 615 501 383 494
8 618 500 382 497 496 384 274 378
8 619 499 381 498 497 382 272 379
8 511 408 297 393 619 499 381 498
8 620 505 387 499 500 388 278 382
8 527 424 312 408 620 505 387 499
8 502 390 506 621 384 280 388 500
8 622 507 389 501 504 392 282 386
8 502 390 280 384 622 507 389 501
8 504 392 282 386 624 509 391 503
8 624 509 391 503 575 468 354 457
8 513 410 299 395 630 527 408 511
8 631 528 411 514 512 409 300 396
8 513 410 528 631 395 299 409 512
8 519 416 305 401 633 530 411 514
8 634 531 412 515 516 413 302 398
8 523 420 309 405 634 531 412 515
8 635 532 413 516 517 414 303 399
8 521 417 533 636 403 306 414 517
8 520 418 307 402 637 534 415 518
8 519 416 534 637 401 305 415 518
8 522 419 308 404 639 537 418 520
8 522 419 536 640 404 308 417 521
8 524 421 310 406 642 539 420 523
8 524 421 541 644 406 310 423 526
8 646 543 422 525 526 423 311 407
8 529 426 314 410 647 544 424 527
8 528 425 545 648 411 315 427 530
8 529 426 545 648 410 314 425 528
8 535 429 317 416 649 546 427 530
8 650 548 430 531 532 432 320 413
8 539 438 325 420 650 548 430 531
8 533 433 550 651 414 321 432 532
8 536 434 551 652 417 322 433 533
8 537 431 319 418 653 547 428 534
8 535 429 547 653 416 317 428 534
8 538 435 552 654 419 323 434 536
8 538 435 323 419 655 549 431 537
8 540 440 327 421 657 556 438 539
8 540 440 557 659 421 327 439 541
8 541 439 555 660 423 326 437 543
8 661 554 436 542 543 437 324 422
8 676 570 452 559 590 473 365 484
8 560 453 338 441 676 570 452 559
8 562 455 340 443 677 571 453 560
8 447 344 459 566 561 457 575 678
8 564 456 341 445 679 573 455 562
8 567 460 345 448 680 572 454 563
8 680 572 454 563 564 456 341 445
8 565 458 576 682 447 344 459 566
8 450 346 461 569 565 458 576 682
8 568 462 347 449 684 578 460 567
8 451 348 462 568 569 461 579 685
8 686 580 463 570 591 474 360 473
8 571 464 350 453 686 580 463 570
8 573 466 352 455 687 581 464 571
8 572 465 582 688 460 357 471 578
8 574 467 582 688 456 353 465 572
8 574 467 353 456 689 583 466 573
8 459 356 470 577 575 468 585 691
8 576 469 586 692 459 356 470 577
8 461 358 472 579 576 469 586 692
8 462 359 471 578 579 472 588 694
8 704 591 473 590 593 475 363 481
8 595 476 592 705 475 361 474 591
8 593 475 363 481 707 594 479 602
8 594 477 362 479 709 598 478 600
8 595 476 361 475 711 597 477 594
8 479 362 480 603 600 478 601 720
8 481 363 482 605 602 479 603 722
8 603 480 364 482 723 604 483 606
8 605 482 365 484 724 606 485 607
8 656 553 608 726 542 436 487 609
8 645 542 609 728 525 422 488 611
8 609 487 610 729 488 369 489 612
8 611 488 612 730 491 371 490 613
8 616 504 386 495 731 624 503 614
8 731 624 503 614 678 575 457 561
8 732 622 501 615 616 504 386 495
8 617 502 384 496 732 622 501 615
8 617 502 621 735 496 384 500 618
8 736 620 499 619 618 500 382 497
8 630 527 408 511 736 620 499 619
8 621 506 626 737 500 388 505 620
8 647 544 424 527 737 626 505 620
8 623 508 627 738 502 390 506 621
8 623 508 390 502 739 628 507 622
8 625 510 628 739 504 392 507 622
8 740 629 509 624 691 585 468 575
8 625 510 392 504 740 629 509 624
8 632 529 410 513 744 647 527 630
8 631 528 648 745 514 411 530 633
8 632 529 648 745 513 410 528 631
8 638 535 416 519 746 649 530 633
8 747 650 531 634 635 532 413 516
8 642 539 420 523 747 650 531 634
8 636 533 651 748 517 414 532 635
8 640 536 652 749 521 417 533 636
8 639 537 418 520 750 653 534 637
8 638 535 653 750 519 416 534 637
8 641 538 419 522 751 655 537 639
8 641 538 654 752 522 419 536 640
8 643 540 421 524 753 657 539 642
8 643 540 659 755 524 421 541 644
8 644 541 660 757 526 423 543 646
8 758 661 542 645 646 543 422 525
8 529 426 544 647 648 545 662 759
8 530 427 545 648 649 546 663 760
8 535 429 546 649 653 547 664 761
8 762 666 548 650 651 550 432 532
8 657 556 438 539 762 666 548 650
8 652 551 668 763 533 433 550 651
8 654 552 669 764 536 434 551 652
8 655 549 431 537 765 665 547 653
8 538 435 549 655 654 552 667 766
8 661 554 671 768 542 436 553 656
8 658 558 440 540 769 674 556 657
8 658 558 675 770 540 440 557 659
8 659 557 673 771 541 439 555 660
8 660 555 672 772 543 437 554 661
8 788 686 570 676 704 591 473 590
8 677 571 453 560 788 686 570 676
8 679 573 455 562 789 687 571 677
8 566 459 577 683 678 575 691 790
8 681 574 456 564 791 689 573 679
8 680 572 688 792 567 460 578 684
8 681 574 688 792 564 456 572 680
8 682 576 692 794 566 459 577 683
8 569 461 579 685 682 576 692 794
8 568 462 578 684 685 579 694 796
8 687 581 464 571 798 696 580 686
8 798 696 580 686 705 592 474 591
8 689 583 466 573 799 697 581 687
8 688 582 698 800 578 471 588 694
8 690 584 698 800 574 467 582 688
8 690 584 467 574 801 699 583 689
8 693 587 701 803 577 470 585 691
8 693 587 470 577 804 702 586 692
8 695 589 702 804 579 472 586 692
8 695 589 472 579 805 703 588 694
8 708 595 705 813 593 475 591 704
8 710 596 706 814 595 476 592 705
8 707 594 479 602 816 709 600 719
8 708 595 475 593 817 711 594 707
8 709 598 478 600 819 715 599 717
8 711 597 477 594 820 714 598 709
8 710 596 476 595 822 713 597 711
8 600 478 601 720 717 599 718 832
8 602 479 603 722 719 600 720 834
8 720 601 480 603 835 721 604 723
8 722 603 482 605 836 723 606 724
8 767 670 725 839 656 553 608 726
8 756 656 726 841 645 542 609 728
8 726 608 727 842 609 487 610 729
8 728 609 729 843 611 488 612 730
8 844 740 624 731 790 691 575 678
8 733 625 504 616 844 740 624 731
8 734 623 502 617 845 739 622 732
8 733 625 739 845 616 504 622 732
8 734 623 738 846 617 502 621 735
8 735 621 737 847 618 500 620 736
8 744 647 527 630 847 737 620 736
8 621 506 627 738 737 626 741 848
8 647 544 626 737 759 662 741 848
8 623 508 628 739 738 627 742 849
8 740 629 585 691 850 743 700 802
8 625 510 629 740 739 628 743 850
8 632 529 647 744 745 648 759 854
8 633 530 648 745 746 649 760 855
8 638 535 649 746 750 653 761 856
8 857 762 650 747 748 651 532 635
8 753 657 539 642 857 762 650 747
8 749 652 763 858 636 533 651 748
8 752 654 764 859 640 536 652 749
8 751 655 537 639 860 765 653 750
8 641 538 655 751 752 654 766 861
8 754 658 540 643 862 769 657 753
8 754 658 770 863 643 540 659 755
8 755 659 771 864 644 541 660 757
8 758 661 768 866 645 542 656 756
8 757 660 772 867 646 543 661 758
8 759 662 773 868 648 545 663 760
8 649 546 663 760 761 664 774 871
8 765 665 547 653 872 775 664 761
8 873 777 666 762 763 668 550 651
8 769 674 556 657 873 777 666 762
8 764 669 779 874 652 551 668 763
8 654 552 667 766 764 669 778 875
8 655 549 665 765 766 667 776 876
8 768 671 782 877 656 553 670 767
8 772 672 783 878 661 554 671 768
8 658 558 674 769 770 675 786 879
8 659 557 675 770 771 673 785 881
8 882 784 672 772 771 673 555 660
8 789 687 571 677 897 798 686 788
8 897 798 686 788 813 705 591 704
8 791 689 573 679 898 799 687 789
8 795 693 803 900 683 577 691 790
8 793 690 574 681 901 801 689 791
8 792 688 800 902 684 578 694 796
8 793 690 800 902 681 574 688 792
8 795 693 577 683 903 804 692 794
8 797 695 804 903 685 579 692 794
8 797 695 579 685 904 805 694 796
8 905 806 697 799 798 696 581 687
8 814 706 806 905 705 592 696 798
8 689 583 697 799 801 699 808 907
8 800 698 809 908 694 588 703 805
8 690 584 699 801 800 698 809 908
8 803 701 810 909 691 585 700 802
8 693 587 702 804 803 701 811 910
8 695 589 703 805 804 702 812 911
8 818 710 814 919 708 595 705 813
8 821 712 815 920 710 596 706 814
8 816 709 600 719 922 819 717 831
8 817 711 594 707 923 820 709 816
8 818 710 595 708 924 822 711 817
8 819 715 599 717 926 827 716 829
8 820 714 598 709 927 826 715 819
8 929 825 713 822 820 714 597 711
8 821 712 596 710 930 824 713 822
8 717 599 718 832 829 716 830 942
8 719 600 720 834 831 717 832 944
8 832 718 601 720 945 833 721 835
8 834 720 603 722 946 835 723 836
8 869 780 838 950 767 670 725 839
8 865 767 839 952 756 656 726 841
8 839 725 840 953 726 608 727 842
8 841 726 842 954 728 609 729 843
8 844 740 691 790 955 850 802 899
8 733 625 740 844 845 739 850 955
8 734 623 739 845 846 738 849 956
8 735 621 738 846 847 737 848 957
8 744 647 737 847 854 759 848 957
8 738 627 742 849 848 741 851 958
8 848 741 851 958 759 662 773 868
8 850 743 700 802 959 852 807 906
8 849 742 628 739 959 852 743 850
8 854 759 868 965 745 648 760 855
8 746 649 760 855 856 761 871 966
8 860 765 653 750 967 872 761 856
8 968 873 762 857 858 763 651 748
8 862 769 657 753 968 873 762 857
8 859 764 874 969 749 652 763 858
8 752 654 766 861 859 764 875 970
8 751 655 765 860 861 766 876 971
8 754 658 769 862 863 770 879 972
8 755 659 770 863 864 771 881 974
8 976 882 772 867 864 771 660 757
8 866 768 877 977 756 656 767 865
8 867 772 878 978 758 661 768 866
8 760 663 773 868 871 774 883 980
8 870 781 837 948 982 890 780 869
8 982 890 780 869 877 782 670 767
8 761 664 774 871 872 775 884 984
8 876 776 665 765 985 885 775 872
8 873 777 668 763 986 887 779 874
8 769 674 777 873 879 786 887 986
8 764 669 778 875 874 779 888 987
8 766 667 776 876 875 778 886 988
8 878 783 892 989 768 671 782 877
8 878 783 672 772 990 893 784 882
8 880 787 675 770 991 896 786 879
8 880 787 895 992 770 675 785 881
8 881 785 894 993 771 673 784 882
8 1006 905 799 898 897 798 687 789
8 919 814 905 1006 813 705 798 897
8 791 689 799 898 901 801 907 1007
8 900 803 909 1009 790 691 802 899
8 795 693 804 903 900 803 910 1010
8 902 800 908 1011 796 694 805 904
8 793 690 801 901 902 800 908 1011
8 797 695 805 904 903 804 911 1012
8 799 697 806 905 907 808 912 1013
8 920 815 912 1013 814 706 806 905
8 802 700 810 909 906 807 913 1014
8 801 699 808 907 908 809 914 1015
8 805 703 809 908 911 812 915 1016
8 803 701 811 910 909 810 916 1017
8 911 812 917 1018 804 702 811 910
8 925 821 920 1030 818 710 814 919
8 928 823 921 1031 821 712 815 920
8 922 819 717 831 1033 926 829 941
8 923 820 709 816 1034 927 819 922
8 1035 929 822 924 923 820 711 817
8 925 821 710 818 1036 930 822 924
8 1038 933 825 929 927 826 714 820
8 926 827 716 829 1039 935 828 939
8 927 826 715 819 1040 934 827 926
8 928 823 712 821 1041 931 824 930
8 1042 932 824 930 929 825 713 822
8 829 716 830 942 939 828 940 1058
8 831 717 832 944 941 829 942 1060
8 942 830 718 832 1061 943 833 945
8 944 832 720 834 1062 945 835 946
8 981 889 947 1064 870 781 837 948
8 948 837 949 1067 869 780 838 950
8 975 869 950 1069 865 767 839 952
8 950 838 951 1070 839 725 840 953
8 952 839 953 1071 841 726 842 954
8 955 850 802 899 1072 959 906 1008
8 956 849 739 845 1072 959 850 955
8 846 738 849 956 957 848 958 1073
8 957 848 958 1073 854 759 868 965
8 849 742 852 959 958 851 961 1076
8 960 853 961 1076 906 807 852 959
8 958 851 961 1076 868 773 883 980
8 960 853 807 906 1077 963 913 1014
8 855 760 868 965 966 871 980 1085
8 856 761 871 966 967 872 984 1086
8 971 876 765 860 1087 985 872 967
8 968 873 763 858 1088 986 874 969
8 862 769 873 968 972 879 986 1088
8 859 764 875 970 969 874 987 1089
8 861 766 876 971 970 875 988 1090
8 973 880 770 863 1091 991 879 972
8 973 880 992 1092 863 770 881 974
8 974 881 993 1093 864 771 882 976
8 979 870 948 1066 1094 982 869 975
8 1094 982 869 975 977 877 767 865
8 978 878 772 867 1095 990 882 976
8 978 878 989 1096 866 768 877 977
8 871 774 883 980 984 884 994 1099
8 983 891 999 1100 870 781 889 981
8 1101 1000 890 982 989 892 782 877
8 983 891 781 870 1101 1000 890 982
8 872 775 884 984 985 885 995 1103
8 876 776 885 985 988 886 996 1104
8 986 887 779 874 1105 998 888 987
8 879 786 887 986 991 896 998 1105
8 875 778 886 988 987 888 997 1106
8 990 893 1002 1107 878 783 892 989
8 1108 1003 893 990 993 894 784 882
8 880 787 896 991 992 895 1005 1109
8 993 894 785 881 1110 1004 895 992
8 898 799 905 1006 1007 907 1013 1120
8 1030 920 1013 1120 919 814 905 1006
8 901 801 907 1007 1011 908 1015 1121
8 899 802 909 1009 1008 906 1014 1122
8 900 803 910 1010 1009 909 1017 1123
8 1012 911 1018 1124 903 804 910 1010
8 904 805 908 1011 1012 911 1016 1125
8 1013 912 1020 1127 907 808 914 1015
8 1031 921 1020 1127 920 815 912 1013
8 1019 918 962 1075 1128 1021 913 1014
8 1128 1021 913 1014 1017 916 810 909
8 1015 914 1022 1129 908 809 915 1016
8 1016 915 1023 1130 911 812 917 1018
8 1018 917 1024 1131 910 811 916 1017
8 1037 928 1031 1148 925 821 920 1030
8 928 823 931 1041 1031 921 1032 1149
8 1033 926 829 941 1151 1039 939 1057
8 1034 927 819 922 1152 1040 926 1033
8 1153 1038 929 1035 1034 927 820 923
8 1154 1042 930 1036 1035 929 822 924
8 1037 928 821 925 1155 1041 930 1036
8 1039 935 828 939 1156 1047 938 1055
8 1157 1043 932 1042 1038 933 825 929
8 1038 933 826 927 1158 1045 934 1040
8 1040 934 827 926 1159 1046 935 1039
8 930 824 932 1042 1041 931 1044 1160
8 1051 936 1048 1165 1175 1052 937 1053
8 1156 1047 938 1055 1053 937 1054 1178
8 939 828 940 1058 1055 938 1056 1181
8 941 829 942 1060 1057 939 1058 1183
8 942 830 943 1061 1058 940 1059 1184
8 1060 942 832 944 1185 1061 945 1062
8 1082 964 1063 1188 981 889 947 1064
8 1097 981 1064 1190 979 870 948 1066
8 1064 947 1065 1191 948 837 949 1067
8 1066 948 1067 1193 975 869 950 1069
8 1067 949 1068 1194 950 838 951 1070
8 1069 950 1070 1195 952 839 953 1071
8 956 849 959 1072 1073 958 1076 1197
8 1074 960 1076 1197 1008 906 959 1072
8 1073 958 1076 1197 965 868 980 1085
8 1074 960 906 1008 1198 1077 1014 1122
8 1133 1026 1079 1199 1019 918 962 1075
8 1077 963 913 1014 1200 1080 962 1075
8 960 853 963 1077 1076 961 1078 1201
8 980 883 961 1076 1099 994 1078 1201
8 1210 1083 964 1082 1100 999 889 981
8 966 871 980 1085 1086 984 1099 1215
8 967 872 984 1086 1087 985 1103 1216
8 971 876 985 1087 1090 988 1104 1217
8 1088 986 874 969 1218 1105 987 1089
8 972 879 986 1088 1091 991 1105 1218
8 970 875 988 1090 1089 987 1106 1219
8 973 880 991 1091 1092 992 1109 1220
8 1093 993 881 974 1221 1110 992 1092
8 1222 1108 990 1095 1093 993 882 976
8 1223 1101 982 1094 1096 989 877 977
8 1098 983 870 979 1223 1101 982 1094
8 1095 990 1107 1224 978 878 989 1096
8 1098 983 1100 1225 979 870 981 1097
8 984 884 994 1099 1103 995 1111 1227
8 1102 1001 1115 1228 983 891 999 1100
8 1101 1000 892 989 1229 1116 1002 1107
8 1102 1001 891 983 1229 1116 1000 1101
8 985 885 995 1103 1104 996 1112 1230
8 988 886 996 1104 1106 997 1113 1231
8 1105 998 888 987 1232 1114 997 1106
8 991 896 998 1105 1109 1005 1114 1232
8 1108 1003 1117 1233 990 893 1002 1107
8 1108 1003 894 993 1233 1117 1004 1110
8 992 895 1005 1109 1110 1004 1118 1234
8 1120 1013 1127 1244 1007 907 1015 1121
8 1148 1031 1127 1244 1030 920 1013 1120
8 1121 1015 1129 1245 1011 908 1016 1125
8 1126 1019 1075 1196 1246 1128 1014 1122
8 1246 1128 1014 1122 1123 1017 909 1009
8 1124 1018 1131 1247 1010 910 1017 1123
8 1125 1016 1130 1248 1012 911 1018 1124
8 1127 1020 1137 1254 1015 914 1022 1129
8 1031 921 1032 1149 1127 1020 1137 1254
8 1134 1027 918 1019 1257 1140 1021 1128
8 1257 1140 1021 1128 1131 1024 916 1017
8 1129 1022 1141 1258 1016 915 1023 1130
8 1130 1023 1142 1259 1018 917 1024 1131
8 1261 1144 1025 1132 1133 1026 1079 1199
8 1255 1138 1025 1132 1135 1028 1144 1261
8 1133 1026 918 1019 1262 1145 1027 1134
8 1136 1029 1139 1256 1263 1146 1028 1135
8 1037 928 1041 1155 1148 1031 1149 1275
8 1041 931 1044 1160 1149 1032 1150 1276
8 1151 1039 939 1057 1278 1156 1055 1180
8 1152 1040 926 1033 1279 1159 1039 1151
8 1153 1038 927 1034 1280 1158 1040 1152
8 1281 1157 1042 1154 1153 1038 929 1035
8 1036 930 1042 1154 1155 1041 1160 1282
8 1283 1164 1046 1159 1156 1047 935 1039
8 1165 1048 1164 1283 1053 937 1047 1156
8 1157 1043 933 1038 1284 1161 1045 1158
8 1157 1043 1161 1284 1042 932 1044 1160
8 1040 934 1046 1159 1158 1045 1163 1285
8 1166 1049 1167 1292 1051 936 1048 1165
8 1166 1049 936 1051 1293 1168 1050 1172
8 1051 936 1052 1175 1172 1050 1173 1306
8 1174 1051 1165 1290 1308 1175 1053 1177
8 1053 937 1054 1178 1175 1052 1176 1309
8 1278 1156 1055 1180 1177 1053 1178 1311
8 1055 938 1056 1181 1178 1054 1179 1312
8 1057 939 1058 1183 1180 1055 1181 1314
8 1058 940 1059 1184 1181 1056 1182 1315
8 1060 942 1061 1185 1183 1058 1184 1316
8 1208 1081 1187 1321 1082 964 1063 1188
8 1209 1082 1188 1322 1097 981 1064 1190
8 1188 1063 1189 1323 1064 947 1065 1191
8 1190 1064 1191 1325 1066 948 1067 1193
8 1191 1065 1192 1326 1067 949 1068 1194
8 1067 1193 1069 950 1194 1327 1195 1070
8 1250 1133 1199 1330 1126 1019 1075 1196
8 1198 1077 1014 1122 1331 1200 1075 1196
8 1074 960 1077 1198 1197 1076 1201 1332
8 1085 980 1076 1197 1215 1099 1201 1332
8 1199 1079 1203 1333 1075 962 1080 1200
8 1132 1025 1119 1243 1199 1079 1203 1333
8 1201 1078 963 1077 1334 1202 1080 1200
8 1099 994 1078 1201 1227 1111 1202 1334
8 1343 1207 1081 1208 1210 1083 964 1082
8 1214 1084 1186 1319 1343 1207 1081 1208
8 1345 1210 1082 1209 1225 1100 981 1097
8 1346 1211 1083 1210 1228 1115 999 1100
8 1086 984 1099 1215 1216 1103 1227 1352
8 1087 985 1103 1216 1217 1104 1230 1353
8 1090 988 1104 1217 1219 1106 1231 1354
8 1218 1105 987 1089 1355 1232 1106 1219
8 1091 991 1105 1218 1220 1109 1232 1355
8 1092 992 1109 1220 1221 1110 1234 1356
8 1222 1108 1233 1357 1095 990 1107 1224
8 1222 1108 993 1093 1357 1233 1110 1221
8 1223 1101 989 1096 1358 1229 1107 1224
8 1226 1102 983 1098 1358 1229 1101 1223
8 1226 1102 1228 1359 1098 983 1100 1225
8 1103 995 1111 1227 1230 1112 1235 1360
8 1107 1002 1117 1233 1229 1116 1240 1362
8 1102 1001 1116 1229 1228 1115 1240 1362
8 1104 996 1112 1230 1231 1113 1236 1363
8 1364 1237 1114 1232 1231 1113 997 1106
8 1109 1005 1114 1232 1234 1118 1238 1365
8 1110 1004 1118 1234 1233 1117 1241 1366
8 1242 1374 1255 1138 1119 1243 1132 1025
8 1244 1127 1254 1376 1121 1015 1129 1245
8 1148 1031 1149 1275 1244 1127 1254 1376
8 1245 1129 1258 1377 1125 1016 1130 1248
8 1251 1134 1019 1126 1378 1257 1128 1246
8 1378 1257 1128 1246 1247 1131 1017 1123
8 1248 1130 1259 1379 1124 1018 1131 1247
8 1261 1381 1250 1133 1132 1249 1330 1199
8 1255 1380 1252 1135 1132 1249 1381 1261
8 1250 1133 1019 1126 1382 1262 1134 1251
8 1253 1136 1256 1385 1384 1263 1135 1252
8 1254 1137 1265 1387 1129 1022 1141 1258
8 1149 1032 1150 1276 1254 1137 1265 1387
8 1028 1135 1255 1138 1139 1256 1388 1266
8 1136 1029 1147 1264 1256 1139 1267 1389
8 1390 1268 1140 1257 1259 1142 1024 1131
8 1260 1143 1027 1134 1390 1268 1140 1257
8 1258 1141 1269 1391 1130 1023 1142 1259
8 1262 1145 1027 1134 1393 1271 1143 1260
8 1261 1144 1026 1133 1394 1272 1145 1262
8 1135 1028 1144 1261 1263 1146 1272 1394
8 1136 1029 1146 1263 1264 1147 1273 1395
8 1155 1041 1160 1282 1275 1149 1276 1405
8 1276 1150 1044 1160 1406 1277 1162 1286
8 1408 1283 1159 1279 1278 1156 1039 1151
8 1290 1165 1283 1408 1177 1053 1156 1278
8 1152 1040 1159 1279 1280 1158 1285 1409
8 1281 1157 1038 1153 1410 1284 1158 1280
8 1281 1157 1284 1410 1154 1042 1160 1282
8 1159 1046 1164 1283 1285 1163 1289 1412
8 1292 1167 1289 1412 1165 1048 1164 1283
8 1158 1045 1163 1285 1284 1161 1288 1413
8 1284 1161 1288 1413 1160 1044 1162 1286
8 1291 1166 1292 1418 1174 1051 1165 1290
8 1291 1166 1051 1174 1419 1293 1172 1305
8 1294 1169 1296 1421 1166 1049 1167 1292
8 1293 1168 1050 1172 1422 1295 1171 1303
8 1294 1169 1049 1166 1423 1297 1168 1293
8 1422 1295 1171 1303 1301 1170 1302 1435
8 1172 1050 1173 1306 1303 1171 1304 1438
8 1174 1051 1175 1308 1305 1172 1306 1440
8 1175 1052 1176 1309 1306 1173 1307 1441
8 1177 1053 1178 1311 1308 1175 1309 1443
8 1178 1054 1179 1312 1309 1176 1310 1444
8 1180 1055 1181 1314 1311 1178 1312 1446
8 1056 1181 1312 1179 1182 1315 1447 1313
8 1183 1058 1184 1316 1314 1181 1315 1448
8 1319 1186 1084 1214 1451 1317 1213 1350
8 1319 1186 1318 1453 1208 1081 1187 1321
8 1321 1187 1320 1456 1188 1063 1189 1323
8 1344 1208 1321 1457 1209 1082 1188 1322
8 1322 1188 1323 1458 1190 1064 1191 1325
8 1323 1189 1324 1459 1191 1065 1192 1326
8 1191 1325 1193 1067 1326 1460 1327 1194
8 1242 1374 1243 1119 1328 1462 1335 1204
8 1330 1199 1333 1465 1196 1075 1200 1331
8 1132 1249 1330 1199 1243 1375 1465 1333
8 1332 1201 1077 1198 1466 1334 1200 1331
8 1215 1099 1201 1332 1352 1227 1334 1466
8 1119 1243 1333 1203 1204 1335 1470 1338
8 1333 1203 1338 1470 1200 1080 1202 1334
8 1227 1111 1202 1334 1360 1235 1338 1470
8 1328 1462 1335 1204 1205 1336 1471 1339
8 1337 1206 1340 1472 1464 1329 1205 1336
8 1346 1211 1342 1479 1210 1083 1207 1343
8 1346 1211 1115 1228 1479 1342 1239 1361
8 1348 1212 1084 1214 1479 1342 1207 1343
8 1480 1343 1208 1344 1345 1210 1082 1209
8 1351 1214 1319 1454 1480 1343 1208 1344
8 1481 1346 1210 1345 1359 1228 1100 1225
8 1348 1212 1347 1483 1214 1084 1213 1350
8 1216 1103 1227 1352 1353 1230 1360 1488
8 1217 1104 1230 1353 1354 1231 1363 1489
8 1490 1364 1232 1355 1354 1231 1106 1219
8 1220 1109 1232 1355 1356 1234 1365 1491
8 1221 1110 1234 1356 1357 1233 1366 1492
8 1224 1107 1233 1357 1358 1229 1362 1493
8 1226 1102 1229 1358 1359 1228 1362 1493
8 1230 1112 1235 1360 1363 1236 1367 1496
8 1361 1239 1115 1228 1497 1371 1240 1362
8 1366 1241 1372 1498 1233 1117 1240 1362
8 1364 1237 1113 1231 1499 1368 1236 1363
8 1364 1237 1368 1499 1232 1114 1238 1365
8 1234 1118 1238 1365 1366 1241 1369 1500
8 1507 1373 1242 1374 1388 1266 1138 1255
8 1508 1374 1243 1375 1380 1255 1132 1249
8 1376 1254 1387 1509 1245 1129 1258 1377
8 1275 1149 1276 1405 1376 1254 1387 1509
8 1377 1258 1391 1510 1248 1130 1259 1379
8 1511 1390 1257 1378 1379 1259 1131 1247
8 1383 1260 1134 1251 1511 1390 1257 1378
8 1252 1135 1256 1385 1380 1255 1388 1512
8 1261 1381 1513 1394 1133 1250 1382 1262
8 1135 1252 1384 1263 1261 1381 1513 1394
8 1382 1262 1134 1251 1514 1393 1260 1383
8 1253 1136 1263 1384 1386 1264 1395 1516
8 1253 1136 1264 1386 1385 1256 1389 1517
8 1387 1265 1397 1519 1258 1141 1269 1391
8 1276 1150 1277 1406 1387 1265 1397 1519
8 1256 1139 1267 1389 1388 1266 1398 1520
8 1264 1147 1274 1396 1389 1267 1399 1521
8 1392 1270 1143 1260 1522 1400 1268 1390
8 1390 1268 1142 1259 1522 1400 1269 1391
8 1392 1270 1401 1523 1260 1143 1271 1393
8 1272 1394 1524 1402 1145 1262 1393 1271
8 1395 1273 1146 1263 1524 1402 1272 1394
8 1273 1395 1264 1147 1403 1526 1396 1274
8 1405 1276 1160 1282 1534 1406 1286 1411
8 1414 1287 1407 1535 1286 1162 1277 1406
8 1279 1159 1283 1408 1409 1285 1412 1537
8 1418 1292 1412 1537 1290 1165 1283 1408
8 1280 1158 1285 1409 1410 1284 1413 1538
8 1410 1284 1413 1538 1282 1160 1286 1411
8 1285 1163 1289 1412 1413 1288 1417 1540
8 1421 1296 1417 1540 1292 1167 1289 1412
8 1414 1287 1162 1286 1541 1416 1288 1413
8 1420 1294 1421 1545 1291 1166 1292 1418
8 1419 1293 1172 1305 1546 1422 1303 1437
8 1420 1294 1166 1291 1547 1423 1293 1419
8 1294 1169 1297 1423 1421 1296 1425 1548
8 1423 1297 1168 1293 1549 1424 1295 1422
8 1301 1170 1298 1427 1422 1295 1424 1549
8 1432 1300 1428 1554 1301 1170 1298 1427
8 1431 1299 1428 1554 1560 1430 1300 1432
8 1563 1433 1300 1432 1435 1302 1170 1301
8 1546 1422 1303 1437 1434 1301 1435 1565
8 1303 1171 1304 1438 1435 1302 1436 1566
8 1305 1172 1306 1440 1437 1303 1438 1568
8 1306 1173 1307 1441 1438 1304 1439 1569
8 1308 1175 1309 1443 1440 1306 1441 1571
8 1309 1176 1310 1444 1441 1307 1442 1572
8 1311 1178 1312 1446 1443 1309 1444 1574
8 1179 1312 1444 1310 1313 1447 1575 1445
8 1314 1181 1315 1448 1446 1312 1447 1576
8 1350 1213 1349 1486 1451 1317 1449 1579
8 1451 1317 1450 1581 1319 1186 1318 1453
8 1454 1319 1214 1351 1582 1451 1350 1487
8 1453 1318 1452 1584 1321 1187 1320 1456
8 1454 1319 1453 1585 1344 1208 1321 1457
8 1456 1320 1455 1586 1323 1189 1324 1459
8 1457 1321 1456 1587 1322 1188 1323 1458
8 1458 1323 1459 1588 1325 1191 1326 1460
8 1205 1336 1464 1329 1328 1462 1590 1461
8 1507 1373 1461 1590 1374 1242 1328 1462
8 1508 1374 1462 1591 1375 1243 1335 1467
8 1337 1206 1329 1464 1473 1341 1463 1594
8 1375 1243 1335 1467 1465 1333 1470 1596
8 1465 1333 1470 1596 1331 1200 1334 1466
8 1352 1227 1334 1466 1488 1360 1470 1596
8 1591 1462 1336 1468 1467 1335 1471 1597
8 1469 1337 1472 1598 1595 1464 1336 1468
8 1471 1339 1474 1600 1335 1204 1338 1470
8 1600 1474 1367 1496 1470 1338 1235 1360
8 1336 1205 1340 1472 1471 1339 1475 1601
8 1337 1206 1341 1473 1472 1340 1476 1602
8 1495 1370 1478 1609 1361 1239 1342 1479
8 1348 1212 1342 1479 1483 1347 1478 1609
8 1481 1346 1479 1610 1345 1210 1343 1480
8 1481 1346 1228 1359 1610 1479 1361 1494
8 1484 1348 1214 1351 1610 1479 1343 1480
8 1483 1347 1482 1612 1350 1213 1349 1486
8 1484 1348 1483 1613 1351 1214 1350 1487
8 1353 1230 1360 1488 1489 1363 1496 1616
8 1490 1364 1231 1354 1617 1499 1363 1489
8 1490 1364 1499 1617 1355 1232 1365 1491
8 1356 1234 1365 1491 1492 1366 1500 1619
8 1492 1366 1498 1620 1357 1233 1362 1493
8 1494 1361 1228 1359 1621 1497 1362 1493
8 1495 1370 1239 1361 1622 1504 1371 1497
8 1363 1236 1367 1496 1499 1368 1501 1623
8 1497 1371 1240 1362 1624 1505 1372 1498
8 1625 1503 1372 1498 1500 1369 1241 1366
8 1365 1238 1368 1499 1500 1369 1502 1626
8 1520 1398 1506 1633 1388 1266 1373 1507
8 1634 1507 1374 1508 1512 1388 1255 1380
8 1509 1387 1519 1635 1377 1258 1391 1510
8 1405 1276 1406 1534 1509 1387 1519 1635
8 1515 1392 1260 1383 1636 1522 1390 1511
8 1511 1390 1259 1379 1636 1522 1391 1510
8 1385 1256 1389 1517 1512 1388 1520 1637
8 1513 1394 1262 1382 1638 1524 1393 1514
8 1395 1516 1638 1524 1263 1384 1513 1394
8 1515 1392 1523 1639 1383 1260 1393 1514
8 1516 1395 1526 1640 1386 1264 1396 1518
8 1386 1264 1396 1518 1517 1389 1521 1641
8 1519 1397 1527 1643 1391 1269 1400 1522
8 1535 1407 1527 1643 1406 1277 1397 1519
8 1389 1267 1399 1521 1520 1398 1528 1644
8 1645 1529 1399 1521 1525 1404 1274 1396
8 1392 1270 1400 1522 1523 1401 1531 1646
8 1524 1402 1271 1393 1648 1532 1401 1523
8 1403 1526 1648 1532 1273 1395 1524 1402
8 1525 1404 1274 1396 1649 1533 1403 1526
8 1539 1414 1535 1657 1411 1286 1406 1534
8 1542 1415 1536 1658 1414 1287 1407 1535
8 1409 1285 1412 1537 1538 1413 1540 1660
8 1545 1421 1540 1660 1418 1292 1412 1537
8 1539 1414 1286 1411 1661 1541 1413 1538
8 1540 1417 1544 1663 1413 1288 1416 1541
8 1421 1296 1425 1548 1540 1417 1544 1663
8 1542 1415 1287 1414 1664 1543 1416 1541
8 1420 1294 1423 1547 1545 1421 1548 1666
8 1547 1423 1293 1419 1667 1549 1422 1546
8 1434 1301 1427 1553 1546 1422 1549 1667
8 1423 1297 1424 1549 1548 1425 1550 1668
8 1551 1426 1550 1668 1427 1298 1424 1549
8 1551 1426 1298 1427 1671 1552 1428 1554
8 1562 1432 1554 1674 1434 1301 1427 1553
8 1431 1299 1429 1558 1554 1428 1555 1675
8 1431 1299 1430 1560 1558 1429 1557 1680
8 1560 1430 1300 1432 1683 1559 1433 1563
8 1561 1431 1554 1674 1684 1560 1432 1562
8 1685 1563 1432 1562 1565 1435 1301 1434
8 1435 1302 1436 1566 1563 1433 1564 1686
8 1437 1303 1438 1568 1565 1435 1566 1688
8 1438 1304 1439 1569 1566 1436 1567 1689
8 1440 1306 1441 1571 1568 1438 1569 1691
8 1441 1307 1442 1572 1569 1439 1570 1692
8 1443 1309 1444 1574 1571 1441 1572 1694
8 1310 1444 1572 1442 1445 1575 1695 1573
8 1446 1312 1447 1576 1574 1444 1575 1696
8 1486 1349 1485 1614 1579 1449 1577 1699
8 1451 1317 1449 1579 1581 1450 1578 1701
8 1487 1350 1486 1615 1582 1451 1579 1702
8 1581 1450 1580 1704 1453 1318 1452 1584
8 1582 1451 1581 1705 1454 1319 1453 1585
8 1584 1452 1583 1706 1456 1320 1455 1586
8 1585 1453 1584 1707 1457 1321 1456 1587
8 1587 1456 1586 1708 1458 1323 1459 1588
8 1633 1506 1589 1710 1507 1373 1461 1590
8 1464 1329 1461 1590 1594 1463 1589 1710
8 1468 1336 1462 1591 1595 1464 1590 1711
8 1634 1507 1590 1711 1508 1374 1462 1591
8 1473 1341 1463 1594 1603 1477 1593 1716
8 1469 1337 1464 1595 1599 1473 1594 1717
8 1471 1597 1467 1335 1600 1718 1596 1470
8 1718 1600 1496 1616 1596 1470 1360 1488
8 1336 1468 1597 1471 1472 1598 1719 1601
8 1469 1337 1473 1599 1598 1472 1602 1720
8 1722 1604 1501 1623 1600 1474 1367 1496
8 1475 1601 1471 1339 1604 1722 1600 1474
8 1602 1476 1605 1723 1472 1340 1475 1601
8 1476 1602 1724 1606 1341 1473 1603 1477
8 1483 1347 1478 1609 1612 1482 1608 1731
8 1495 1370 1504 1622 1609 1478 1608 1731
8 1618 1495 1609 1732 1494 1361 1479 1610
8 1484 1348 1479 1610 1613 1483 1609 1732
8 1486 1349 1482 1612 1614 1485 1611 1733
8 1613 1483 1612 1734 1487 1350 1486 1615
8 1489 1363 1496 1616 1617 1499 1623 1736
8 1491 1365 1499 1617 1619 1500 1626 1737
8 1618 1495 1361 1494 1738 1622 1497 1621
8 1739 1625 1498 1620 1619 1500 1366 1492
8 1621 1497 1362 1493 1740 1624 1498 1620
8 1742 1631 1504 1622 1624 1505 1371 1497
8 1743 1628 1502 1626 1623 1501 1368 1499
8 1744 1630 1505 1624 1625 1503 1372 1498
8 1745 1629 1503 1625 1626 1502 1369 1500
8 1520 1398 1528 1644 1633 1506 1632 1751
8 1637 1520 1633 1752 1512 1388 1507 1634
8 1635 1519 1643 1753 1510 1391 1522 1636
8 1657 1535 1643 1753 1534 1406 1519 1635
8 1515 1392 1522 1636 1639 1523 1646 1754
8 1517 1389 1521 1641 1637 1520 1644 1755
8 1524 1638 1756 1648 1393 1514 1639 1523
8 1640 1526 1395 1516 1756 1648 1524 1638
8 1642 1525 1396 1518 1757 1649 1526 1640
8 1758 1645 1521 1641 1642 1525 1396 1518
8 1646 1531 1400 1522 1760 1650 1527 1643
8 1535 1407 1536 1658 1643 1527 1650 1760
8 1521 1399 1529 1645 1644 1528 1651 1761
8 1647 1530 1652 1762 1525 1404 1529 1645
8 1401 1523 1648 1532 1531 1646 1763 1655
8 1525 1404 1533 1649 1647 1530 1654 1765
8 1533 1649 1766 1656 1403 1526 1648 1532
8 1662 1542 1658 1774 1539 1414 1535 1657
8 1542 1415 1543 1664 1658 1536 1659 1775
8 1660 1540 1663 1777 1538 1413 1541 1661
8 1545 1421 1548 1666 1660 1540 1663 1777
8 1662 1542 1414 1539 1778 1664 1541 1661
8 1664 1543 1416 1541 1779 1665 1544 1663
8 1548 1425 1550 1668 1663 1544 1665 1779
8 1547 1423 1549 1667 1666 1548 1668 1781
8 1670 1551 1668 1781 1553 1427 1549 1667
8 1551 1426 1552 1671 1668 1550 1669 1782
8 1670 1551 1427 1553 1784 1671 1554 1674
8 1675 1555 1672 1785 1554 1428 1552 1671
8 1678 1556 1673 1789 1558 1429 1555 1675
8 1561 1431 1558 1681 1674 1554 1675 1790
8 1794 1677 1556 1678 1680 1557 1429 1558
8 1560 1430 1559 1683 1680 1557 1679 1797
8 1561 1431 1560 1684 1681 1558 1680 1798
8 1563 1433 1564 1686 1683 1559 1682 1800
8 1684 1560 1432 1562 1801 1683 1563 1685
8 1565 1435 1566 1688 1685 1563 1686 1802
8 1566 1436 1567 1689 1686 1564 1687 1803
8 1568 1438 1569 1691 1688 1566 1689 1805
8 1569 1439 1570 1692 1689 1567 1690 1806
8 1571 1441 1572 1694 1691 1569 1692 1808
8 1442 1572 1692 1570 1573 1695 1809 1693
8 1574 1444 1575 1696 1694 1572 1695 1810
8 1614 1485 1592 1712 1699 1577 1697 1813
8 1579 1449 1577 1699 1701 1578 1698 1815
8 1615 1486 1614 1735 1702 1579 1699 1816
8 1701 1578 1700 1818 1581 1450 1580 1704
8 1582 1451 1579 1702 1705 1581 1701 1819
8 1704 1580 1703 1820 1584 1452 1583 1706
8 1705 1581 1704 1821 1585 1453 1584 1707
8 1707 1584 1706 1822 1587 1456 1586 1708
8 1710 1589 1506 1633 1824 1709 1632 1751
8 1594 1463 1589 1710 1716 1593 1709 1824
8 1752 1633 1710 1825 1634 1507 1590 1711
8 1595 1464 1590 1711 1717 1594 1710 1825
8 1830 1714 1592 1712 1733 1611 1485 1614
8 1603 1477 1593 1716 1725 1607 1715 1834
8 1599 1473 1594 1717 1721 1603 1716 1835
8 1837 1722 1623 1736 1718 1600 1496 1616
8 1719 1601 1722 1837 1597 1471 1600 1718
8 1602 1720 1598 1472 1723 1838 1719 1601
8 1720 1602 1473 1599 1839 1724 1603 1721
8 1723 1605 1726 1840 1601 1475 1604 1722
8 1840 1726 1628 1743 1722 1604 1501 1623
8 1724 1606 1727 1841 1602 1476 1605 1723
8 1725 1607 1728 1842 1603 1477 1606 1724
8 1612 1482 1608 1731 1733 1611 1730 1849
8 1741 1627 1730 1849 1622 1504 1608 1731
8 1613 1483 1609 1732 1734 1612 1731 1850
8 1618 1495 1622 1738 1732 1609 1731 1850
8 1615 1486 1612 1734 1735 1614 1733 1851
8 1852 1743 1626 1737 1736 1623 1499 1617
8 1853 1745 1625 1739 1737 1626 1500 1619
8 1855 1742 1622 1738 1740 1624 1497 1621
8 1856 1744 1624 1740 1739 1625 1498 1620
8 1741 1627 1504 1622 1857 1746 1631 1742
8 1742 1631 1505 1624 1858 1749 1630 1744
8 1859 1747 1629 1745 1743 1628 1502 1626
8 1860 1748 1630 1744 1745 1629 1503 1625
8 1644 1528 1651 1761 1751 1632 1750 1865
8 1637 1520 1644 1755 1752 1633 1751 1866
8 1754 1646 1522 1636 1867 1760 1643 1753
8 1657 1535 1658 1774 1753 1643 1760 1867
8 1639 1523 1646 1754 1756 1648 1763 1868
8 1641 1521 1645 1758 1755 1644 1761 1869
8 1757 1649 1526 1640 1870 1766 1648 1756
8 1642 1525 1649 1757 1759 1647 1765 1871
8 1759 1647 1762 1872 1642 1525 1645 1758
8 1760 1650 1767 1874 1646 1531 1655 1763
8 1658 1536 1659 1775 1760 1650 1767 1874
8 1762 1652 1768 1875 1645 1529 1651 1761
8 1764 1653 1769 1876 1647 1530 1652 1762
8 1656 1766 1877 1773 1532 1648 1763 1655
8 1771 1879 1765 1654 1653 1764 1647 1530
8 1533 1649 1765 1654 1656 1766 1880 1772
8 1662 1542 1664 1778 1774 1658 1775 1887
8 1664 1543 1665 1779 1775 1659 1776 1888
8 1778 1664 1541 1661 1890 1779 1663 1777
8 1666 1548 1668 1781 1777 1663 1779 1890
8 1782 1669 1780 1891 1668 1550 1665 1779
8 1670 1551 1671 1784 1781 1668 1782 1893
8 1671 1552 1672 1785 1782 1669 1783 1894
8 1790 1675 1785 1896 1674 1554 1671 1784
8 1675 1555 1673 1789 1785 1672 1786 1897
8 1792 1676 1788 1903 1678 1556 1673 1789
8 1795 1678 1789 1904 1681 1558 1675 1790
8 1792 1676 1556 1678 1906 1791 1677 1794
8 1680 1557 1679 1797 1794 1677 1793 1909
8 1910 1794 1678 1795 1798 1680 1558 1681
8 1683 1559 1682 1800 1797 1679 1796 1912
8 1684 1560 1683 1801 1798 1680 1797 1913
8 1686 1564 1687 1803 1800 1682 1799 1915
8 1685 1563 1686 1802 1801 1683 1800 1916
8 1688 1566 1689 1805 1802 1686 1803 1917
8 1689 1567 1690 1806 1803 1687 1804 1918
8 1691 1569 1692 1808 1805 1689 1806 1920
8 1692 1570 1693 1809 1806 1690 1807 1921
8 1694 1572 1695 1810 1808 1692 1809 1922
8 1829 1713 1811 1926 1712 1592 1697 1813
8 1813 1697 1812 1928 1699 1577 1698 1815
8 1735 1614 1712 1828 1816 1699 1813 1929
8 1815 1698 1814 1931 1701 1578 1700 1818
8 1702 1579 1699 1816 1819 1701 1815 1932
8 1818 1700 1817 1933 1704 1580 1703 1820
8 1819 1701 1818 1934 1705 1581 1704 1821
8 1821 1704 1820 1935 1707 1584 1706 1822
8 1824 1709 1632 1751 1937 1823 1750 1865
8 1716 1593 1709 1824 1834 1715 1823 1937
8 1825 1710 1633 1752 1938 1824 1751 1866
8 1717 1594 1710 1825 1835 1716 1824 1938
8 1945 1830 1712 1828 1851 1733 1614 1735
8 1830 1714 1831 1946 1712 1592 1713 1829
8 1947 1832 1714 1830 1849 1730 1611 1733
8 1843 1729 1607 1725 1950 1833 1715 1834
8 1721 1603 1716 1835 1836 1725 1834 1951
8 1836 1725 1842 1953 1721 1603 1724 1839
8 1723 1838 1719 1601 1840 1954 1837 1722
8 1954 1840 1743 1852 1837 1722 1623 1736
8 1724 1839 1720 1602 1841 1955 1838 1723
8 1841 1727 1844 1956 1723 1605 1726 1840
8 1956 1844 1747 1859 1840 1726 1628 1743
8 1728 1842 1724 1606 1845 1957 1841 1727
8 1725 1607 1729 1843 1842 1728 1846 1958
8 1741 1627 1746 1857 1849 1730 1848 1965
8 1734 1612 1731 1850 1851 1733 1849 1966
8 1854 1741 1849 1966 1738 1622 1731 1850
8 1967 1859 1745 1853 1852 1743 1626 1737
8 1968 1860 1744 1856 1853 1745 1625 1739
8 1854 1741 1622 1738 1969 1857 1742 1855
8 1855 1742 1624 1740 1970 1858 1744 1856
8 1857 1746 1631 1742 1971 1861 1749 1858
8 1858 1749 1630 1744 1972 1863 1748 1860
8 1859 1747 1862 1973 1745 1629 1748 1860
8 1875 1768 1864 1977 1761 1651 1750 1865
8 1755 1644 1761 1869 1866 1751 1865 1978
8 1867 1760 1874 1979 1754 1646 1763 1868
8 1774 1658 1775 1887 1867 1760 1874 1979
8 1870 1766 1648 1756 1980 1877 1763 1868
8 1872 1762 1875 1981 1758 1645 1761 1869
8 1757 1649 1766 1870 1871 1765 1880 1982
8 1983 1879 1764 1873 1871 1765 1647 1759
8 1873 1764 1876 1984 1759 1647 1762 1872
8 1877 1773 1655 1763 1986 1881 1767 1874
8 1775 1659 1776 1888 1874 1767 1881 1986
8 1876 1769 1882 1987 1762 1652 1768 1875
8 1878 1770 1883 1988 1764 1653 1769 1876
8 1880 1772 1656 1766 1989 1886 1773 1877
8 1878 1770 1653 1764 1990 1884 1771 1879
8 1765 1654 1772 1880 1879 1771 1885 1991
8 1778 1664 1779 1890 1887 1775 1888 1997
8 1998 1889 1776 1888 1891 1780 1665 1779
8 1893 1782 1891 2000 1781 1668 1779 1890
8 1894 1783 1892 2001 1782 1669 1780 1891
8 1784 1671 1785 1896 1893 1782 1894 2003
8 1897 1786 1895 2004 1785 1672 1783 1894
8 1790 1675 1789 1904 1896 1785 1897 2006
8 1901 1787 1898 2007 1789 1673 1786 1897
8 1903 1788 1900 2013 1789 1673 1787 1901
8 1792 1676 1791 1906 1903 1788 1902 2016
8 1907 1792 1903 2017 1795 1678 1789 1904
8 1906 1791 1677 1794 2019 1905 1793 1909
8 1907 1792 1678 1795 2020 1906 1794 1910
8 1797 1679 1796 1912 1909 1793 1908 2022
8 1798 1680 1797 1913 1910 1794 1909 2023
8 1800 1682 1799 1915 1912 1796 1911 2025
8 1801 1683 1800 1916 1913 1797 1912 2026
8 1803 1687 1804 1918 1915 1799 1914 2028
8 1802 1686 1803 1917 1916 1800 1915 2029
8 1805 1689 1806 1920 1917 1803 1918 2030
8 1806 1690 1807 1921 1918 1804 1919 2031
8 1808 1692 1809 1922 1920 1806 1921 2032
8 1939 1826 1924 2037 1829 1713 1811 1926
8 1926 1811 1925 2039 1813 1697 1812 1928
8 1944 1829 1926 2040 1828 1712 1813 1929
8 1928 1812 1927 2042 1815 1698 1814 1931
8 1929 1813 1928 2043 1816 1699 1815 1932
8 1931 1814 1930 2044 1818 1700 1817 1933
8 1932 1815 1931 2045 1819 1701 1818 1934
8 1934 1818 1933 2046 1821 1704 1820 1935
8 2048 1936 1823 1937 1977 1864 1750 1865
8 1950 1833 1715 1834 2048 1936 1823 1937
8 1938 1824 1751 1866 2049 1937 1865 1978
8 1835 1716 1824 1938 1951 1834 1937 2049
8 1939 1826 1713 1829 2053 1942 1831 1946
8 1940 1827 1923 2035 2053 1942 1826 1939
8 1945 1830 1946 2058 1828 1712 1829 1944
8 2059 1947 1830 1945 1966 1849 1733 1851
8 1947 1832 1730 1849 2060 1948 1848 1965
8 1947 1832 1948 2060 1830 1714 1831 1946
8 1959 1847 1729 1843 2063 1949 1833 1950
8 1952 1843 1725 1836 2064 1950 1834 1951
8 1836 1725 1843 1952 1953 1842 1958 2066
8 1953 1842 1957 2067 1839 1724 1841 1955
8 1841 1955 1838 1723 1956 2068 1954 1840
8 2068 1956 1859 1967 1954 1840 1743 1852
8 1956 1844 1960 2069 1859 1747 1862 1973
8 1845 1957 1841 1727 1960 2069 1956 1844
8 1728 1842 1957 1845 1846 1958 2071 1961
8 1962 2072 1959 1847 1846 1958 1843 1729
8 1971 1861 1964 2077 1857 1746 1848 1965
8 1854 1741 1857 1969 1966 1849 1965 2078
8 1967 1859 1973 2079 1853 1745 1860 1968
8 1970 1858 1744 1856 2080 1972 1860 1968
8 1969 1857 1742 1855 2081 1971 1858 1970
8 1971 1861 1749 1858 2082 1974 1863 1972
8 1973 1862 1975 2083 1860 1748 1863 1972
8 1987 1882 1976 2086 1875 1768 1864 1977
8 1981 1875 1977 2087 1869 1761 1865 1978
8 1980 1877 1763 1868 2088 1986 1874 1979
8 1887 1775 1888 1997 1979 1874 1986 2088
8 1880 1982 2089 1989 1766 1870 1980 1877
8 1984 1876 1987 2090 1872 1762 1875 1981
8 1765 1871 1983 1879 1880 1982 2091 1991
8 1985 1878 1764 1873 2092 1990 1879 1983
8 1985 1878 1988 2093 1873 1764 1876 1984
8 2094 1992 1881 1986 1998 1889 1776 1888
8 1986 1881 1992 2094 1877 1773 1886 1989
8 1988 1883 1993 2095 1876 1769 1882 1987
8 1878 1770 1884 1990 1988 1883 1994 2096
8 1991 1885 1772 1880 2097 1996 1886 1989
8 1879 1771 1885 1991 1990 1884 1995 2098
8 2103 1998 1888 1997 2000 1891 1779 1890
8 2104 1999 1889 1998 2001 1892 1780 1891
8 2003 1894 2001 2106 1893 1782 1891 2000
8 2004 1895 2002 2107 1894 1783 1892 2001
8 2006 1897 2004 2109 1896 1785 1894 2003
8 2007 1898 2005 2110 1897 1786 1895 2004
8 2014 1901 2007 2112 1904 1789 1897 2006
8 2011 1899 2008 2113 1901 1787 1898 2007
8 2119 2010 1899 2011 2013 1900 1787 1901
8 2016 1902 2012 2122 1903 1788 1900 2013
8 2017 1903 2013 2123 1904 1789 1901 2014
8 1906 1791 1905 2019 2016 1902 2015 2125
8 1907 1792 1906 2020 2017 1903 2016 2126
8 1909 1793 1908 2022 2019 1905 2018 2128
8 2020 1906 1794 1910 2129 2019 1909 2023
8 1912 1796 1911 2025 2022 1908 2021 2131
8 1913 1797 1912 2026 2023 1909 2022 2132
8 1915 1799 1914 2028 2025 1911 2024 2134
8 1916 1800 1915 2029 2026 1912 2025 2135
8 1918 1804 1919 2031 2028 1914 2027 2136
8 1917 1803 1918 2030 2029 1915 2028 2137
8 1920 1806 1921 2032 2030 1918 2031 2138
8 1940 1827 1941 2054 2035 1923 2033 2140
8 2035 1923 2034 2143 1939 1826 1924 2037
8 2037 1924 2036 2146 1926 1811 1925 2039
8 2051 1939 2037 2147 1944 1829 1926 2040
8 2039 1925 2038 2149 1928 1812 1927 2042
8 2040 1926 2039 2150 1929 1813 1928 2043
8 2042 1927 2041 2151 1931 1814 1930 2044
8 2043 1928 2042 2152 1932 1815 1931 2045
8 2045 1931 2044 2153 1934 1818 1933 2046
8 2155 2047 1936 2048 2086 1976 1864 1977
8 2063 1949 1833 1950 2155 2047 1936 2048
8 2156 2048 1937 2049 2087 1977 1865 1978
8 2064 1950 1834 1951 2156 2048 1937 2049
8 2051 1939 1829 1944 2160 2053 1946 2058
8 2052 1940 2035 2144 2160 2053 1939 2051
8 2053 1942 1831 1946 2163 2057 1948 2060
8 2055 1943 1827 1940 2163 2057 1942 2053
8 2055 1943 2056 2164 1940 1827 1941 2054
8 2059 1947 1849 1966 2167 2060 1965 2078
8 2059 1947 2060 2167 1945 1830 1946 2058
8 2077 1964 2061 2168 1965 1848 1948 2060
8 2070 1963 1847 1959 2170 2062 1949 2063
8 2065 1959 1843 1952 2171 2063 1950 2064
8 2173 2072 1958 2066 2065 1959 1843 1952
8 1953 1842 1958 2066 2067 1957 2071 2174
8 2068 1956 2069 2175 1967 1859 1973 2079
8 2067 1957 2069 2175 1955 1841 1956 2068
8 1845 1957 2069 1960 1961 2071 2176 2073
8 2069 1960 2073 2176 1973 1862 1975 2083
8 2070 1963 2075 2177 1959 1847 1962 2072
8 1846 1958 2071 1961 1962 2072 2178 2074
8 2077 1964 1861 1971 2182 2076 1974 2082
8 2081 1971 2077 2183 1969 1857 1965 2078
8 2079 1973 2083 2184 1968 1860 1972 2080
8 2081 1971 1858 1970 2185 2082 1972 2080
8 2083 1975 2084 2186 1972 1863 1974 2082
8 2086 1976 1882 1987 2189 2085 1993 2095
8 2090 1987 2086 2190 1981 1875 1977 2087
8 2191 2094 1986 2088 2103 1998 1888 1997
8 2088 1986 2094 2191 1980 1877 1989 2089
8 1991 2091 2192 2097 1880 1982 2089 1989
8 2093 1988 2095 2193 1984 1876 1987 2090
8 1879 1983 2092 1990 1991 2091 2194 2098
8 1985 1878 1990 2092 2093 1988 2096 2195
8 2097 1996 1886 1989 2196 2099 1992 2094
8 2196 2099 1992 2094 2104 1999 1889 1998
8 1994 2096 1988 1883 2100 2197 2095 1993
8 2096 1994 1884 1990 2198 2101 1995 2098
8 1995 2098 2199 2102 1885 1991 2097 1996
8 2203 2104 1998 2103 2106 2001 1891 2000
8 2107 2002 2105 2204 2001 1892 1999 2104
8 2109 2004 2107 2206 2003 1894 2001 2106
8 2110 2005 2108 2207 2004 1895 2002 2107
8 2112 2007 2110 2209 2006 1897 2004 2109
8 2113 2008 2111 2210 2007 1898 2005 2110
8 2120 2011 2113 2212 2014 1901 2007 2112
8 2117 2009 2114 2213 2011 1899 2008 2113
8 2219 2116 2009 2117 2119 2010 1899 2011
8 2222 2118 2010 2119 2122 2012 1900 2013
8 2223 2119 2011 2120 2123 2013 1901 2014
8 2016 1902 2015 2125 2122 2012 2121 2225
8 2126 2016 2122 2226 2017 1903 2013 2123
8 2019 1905 2018 2128 2125 2015 2124 2228
8 2020 1906 2019 2129 2126 2016 2125 2229
8 2022 1908 2021 2131 2128 2018 2127 2231
8 2023 1909 2022 2132 2129 2019 2128 2232
8 2025 1911 2024 2134 2131 2021 2130 2234
8 2026 1912 2025 2135 2132 2022 2131 2235
8 1914 2028 2134 2024 2027 2136 2236 2133
8 2029 1915 2028 2137 2135 2025 2134 2237
8 2030 1918 2031 2138 2137 2028 2136 2238
8 2157 2050 2139 2240 2054 1941 2033 2140
8 2052 1940 2054 2161 2144 2035 2140 2242
8 2140 2033 2141 2243 2035 1923 2034 2143
8 2143 2034 2142 2246 2037 1924 2036 2146
8 2144 2035 2143 2247 2051 1939 2037 2147
8 2146 2036 2145 2249 2039 1925 2038 2149
8 2147 2037 2146 2250 2040 1926 2039 2150
8 2149 2038 2148 2251 2042 1927 2041 2151
8 2150 2039 2149 2252 2043 1928 2042 2152
8 2152 2042 2151 2253 2045 1931 2044 2153
8 2255 2154 2047 2155 2189 2085 1976 2086
8 2170 2062 1949 2063 2255 2154 2047 2155
8 2256 2155 2048 2156 2190 2086 1977 2087
8 2171 2063 1950 2064 2256 2155 2048 2156
8 2258 2159 2050 2157 2164 2056 1941 2054
8 2160 2053 1946 2058 2262 2163 2060 2167
8 2162 2055 1940 2052 2262 2163 2053 2160
8 2162 2055 2164 2263 2052 1940 2054 2161
8 2163 2057 1948 2060 2264 2165 2061 2168
8 2055 1943 2057 2163 2164 2056 2165 2264
8 2182 2076 2166 2268 2077 1964 2061 2168
8 2183 2077 2168 2269 2078 1965 2060 2167
8 2070 1963 2062 2170 2177 2075 2169 2271
8 2172 2070 1959 2065 2272 2170 2063 2171
8 2172 2070 2177 2273 2065 1959 2072 2173
8 2066 1958 2072 2173 2174 2071 2178 2274
8 2067 1957 2071 2174 2175 2069 2176 2275
8 2175 2069 2176 2275 2079 1973 2083 2184
8 2071 1961 2074 2178 2176 2073 2179 2276
8 2176 2073 2179 2276 2083 1975 2084 2186
8 2072 1962 2075 2177 2178 2074 2180 2277
8 2182 2076 1974 2082 2280 2181 2084 2186
8 2183 2077 1971 2081 2281 2182 2082 2185
8 2184 2083 2186 2282 2080 1972 2082 2185
8 2189 2085 1993 2095 2285 2188 2100 2197
8 2190 2086 1987 2090 2286 2189 2095 2193
8 2192 2097 1989 2089 2287 2196 2094 2191
8 2287 2196 2094 2191 2203 2104 1998 2103
8 2194 2098 1991 2091 2288 2199 2097 2192
8 2195 2096 2197 2289 2093 1988 2095 2193
8 2096 2195 2290 2198 1990 2092 2194 2098
8 2097 1996 2099 2196 2199 2102 2200 2291
8 2196 2099 1999 2104 2291 2200 2105 2204
8 2100 2197 2292 2201 1994 2096 2198 2101
8 1995 2098 2198 2101 2102 2199 2293 2202
8 2206 2107 2204 2296 2106 2001 2104 2203
8 2207 2108 2205 2297 2107 2002 2105 2204
8 2209 2110 2207 2299 2109 2004 2107 2206
8 2210 2111 2208 2300 2110 2005 2108 2207
8 2212 2113 2210 2302 2112 2007 2110 2209
8 2213 2114 2211 2303 2113 2008 2111 2210
8 2220 2117 2213 2305 2120 2011 2113 2212
8 2216 2115 2214 2306 2117 2009 2114 2213
8 2216 2115 2009 2117 2311 2217 2116 2219
8 2219 2116 2010 2119 2314 2218 2118 2222
8 2315 2219 2117 2220 2223 2119 2011 2120
8 2122 2012 2121 2225 2222 2118 2221 2317
8 2318 2222 2119 2223 2226 2122 2013 2123
8 2125 2015 2124 2228 2225 2121 2224 2320
8 2126 2016 2125 2229 2226 2122 2225 2321
8 2128 2018 2127 2231 2228 2124 2227 2323
8 2129 2019 2128 2232 2229 2125 2228 2324
8 2131 2021 2130 2234 2231 2127 2230 2326
8 2132 2022 2131 2235 2232 2128 2231 2327
8 2134 2024 2133 2236 2234 2130 2233 2328
8 2135 2025 2134 2237 2235 2131 2234 2329
8 2137 2028 2136 2238 2237 2134 2236 2330
8 2157 2050 2158 2259 2240 2139 2239 2332
8 2257 2157 2240 2334 2161 2054 2140 2242
8 2240 2139 2241 2335 2140 2033 2141 2243
8 2242 2140 2243 2337 2144 2035 2143 2247
8 2243 2141 2244 2338 2143 2034 2142 2246
8 2246 2142 2245 2341 2146 2036 2145 2249
8 2247 2143 2246 2342 2147 2037 2146 2250
8 2249 2145 2248 2343 2149 2038 2148 2251
8 2250 2146 2249 2344 2150 2039 2149 2252
8 2252 2149 2251 2345 2152 2042 2151 2253
8 2169 2271 2347 2254 2062 2170 2255 2154
8 2189 2085 2188 2285 2255 2154 2254 2347
8 2348 2255 2155 2256 2286 2189 2086 2190
8 2272 2170 2063 2171 2348 2255 2155 2256
8 2349 2258 2157 2257 2263 2164 2054 2161
8 2258 2159 2261 2351 2157 2050 2158 2259
8 2258 2159 2056 2164 2351 2261 2165 2264
8 2262 2163 2060 2167 2355 2264 2168 2269
8 2162 2055 2163 2262 2263 2164 2264 2355
8 2357 2266 2165 2264 2268 2166 2061 2168
8 2268 2166 2076 2182 2361 2267 2181 2280
8 2281 2182 2268 2362 2183 2077 2168 2269
8 2271 2169 2270 2364 2177 2075 2180 2277
8 2172 2070 2170 2272 2273 2177 2271 2365
8 2072 2173 2274 2178 2177 2273 2366 2277
8 2071 2174 2275 2176 2178 2274 2367 2276
8 2275 2176 2276 2367 2184 2083 2186 2282
8 2283 2187 2084 2186 2368 2278 2179 2276
8 2178 2074 2180 2277 2276 2179 2278 2368
8 2283 2187 2279 2370 2186 2084 2181 2280
8 2281 2182 2082 2185 2371 2280 2186 2282
8 2188 2285 2374 2284 2100 2197 2292 2201
8 2286 2189 2095 2193 2375 2285 2197 2289
8 2192 2097 2196 2287 2288 2199 2291 2376
8 2287 2196 2104 2203 2376 2291 2204 2296
8 2194 2098 2199 2288 2290 2198 2293 2377
8 2289 2197 2096 2195 2378 2292 2198 2290
8 2291 2200 2105 2204 2379 2294 2205 2297
8 2199 2102 2200 2291 2293 2202 2294 2379
8 2198 2101 2202 2293 2292 2201 2295 2380
8 2299 2207 2297 2383 2206 2107 2204 2296
8 2300 2208 2298 2384 2207 2108 2205 2297
8 2302 2210 2300 2386 2209 2110 2207 2299
8 2303 2211 2301 2387 2210 2111 2208 2300
8 2305 2213 2303 2389 2212 2113 2210 2302
8 2306 2214 2304 2390 2213 2114 2211 2303
8 2310 2216 2306 2392 2220 2117 2213 2305
8 2308 2215 2307 2393 2216 2115 2214 2306
8 2308 2215 2115 2216 2396 2309 2217 2311
8 2310 2216 2117 2220 2398 2311 2219 2315
8 2311 2217 2116 2219 2399 2312 2218 2314
8 2314 2218 2118 2222 2402 2313 2221 2317
8 2315 2219 2119 2223 2403 2314 2222 2318
8 2225 2121 2224 2320 2317 2221 2316 2405
8 2226 2122 2225 2321 2318 2222 2317 2406
8 2228 2124 2227 2323 2320 2224 2319 2408
8 2229 2125 2228 2324 2321 2225 2320 2409
8 2231 2127 2230 2326 2323 2227 2322 2411
8 2232 2128 2231 2327 2324 2228 2323 2412
8 2234 2130 2233 2328 2326 2230 2325 2413
8 2235 2131 2234 2329 2327 2231 2326 2414
8 2237 2134 2236 2330 2329 2234 2328 2415
8 2259 2158 2260 2352 2332 2239 2331 2417
8 2257 2157 2259 2350 2334 2240 2332 2419
8 2240 2139 2239 2332 2335 2241 2333 2420
8 2334 2240 2335 2422 2242 2140 2243 2337
8 2335 2241 2336 2423 2243 2141 2244 2338
8 2337 2243 2338 2425 2247 2143 2246 2342
8 2338 2244 2339 2426 2246 2142 2245 2341
8 2341 2245 2340 2428 2249 2145 2248 2343
8 2342 2246 2341 2429 2250 2146 2249 2344
8 2344 2249 2343 2430 2252 2149 2251 2345
8 2188 2285 2347 2254 2284 2374 2432 2346
8 2347 2254 2346 2432 2271 2169 2270 2364
8 2365 2271 2170 2272 2433 2347 2255 2348
8 2286 2189 2285 2375 2348 2255 2347 2433
8 2349 2258 2351 2435 2257 2157 2259 2350
8 2349 2258 2164 2263 2435 2351 2264 2355
8 2259 2158 2261 2351 2352 2260 2354 2437
8 2356 2265 2354 2437 2264 2165 2261 2351
8 2441 2357 2264 2355 2362 2268 2168 2269
8 2356 2265 2165 2264 2442 2358 2266 2357
8 2443 2359 2266 2357 2361 2267 2166 2268
8 2370 2279 2360 2446 2280 2181 2267 2361
8 2362 2268 2182 2281 2447 2361 2280 2371
8 2180 2277 2368 2278 2270 2364 2449 2363
8 2271 2365 2273 2177 2364 2450 2366 2277
8 2372 2283 2186 2282 2451 2368 2276 2367
8 2178 2274 2367 2276 2277 2366 2451 2368
8 2283 2187 2278 2368 2370 2279 2369 2452
8 2372 2283 2370 2453 2282 2186 2280 2371
8 2284 2374 2455 2373 2201 2292 2380 2295
8 2375 2285 2197 2289 2456 2374 2292 2378
8 2376 2291 2204 2296 2457 2379 2297 2383
8 2288 2199 2291 2376 2377 2293 2379 2457
8 2198 2290 2378 2292 2293 2377 2458 2380
8 2293 2202 2294 2379 2380 2295 2381 2459
8 2384 2298 2381 2459 2297 2205 2294 2379
8 2386 2300 2384 2463 2299 2207 2297 2383
8 2387 2301 2385 2464 2300 2208 2298 2384
8 2389 2303 2387 2466 2302 2210 2300 2386
8 2390 2304 2388 2467 2303 2211 2301 2387
8 2392 2306 2390 2469 2305 2213 2303 2389
8 2393 2307 2391 2470 2306 2214 2304 2390
8 2395 2308 2393 2472 2310 2216 2306 2392
8 2308 2215 2309 2396 2393 2307 2394 2473
8 2395 2308 2216 2310 2475 2396 2311 2398
8 2396 2309 2217 2311 2476 2397 2312 2399
8 2398 2311 2219 2315 2478 2399 2314 2403
8 2399 2312 2218 2314 2479 2400 2313 2402
8 2317 2221 2316 2405 2402 2313 2401 2482
8 2403 2314 2222 2318 2483 2402 2317 2406
8 2320 2224 2319 2408 2405 2316 2404 2485
8 2321 2225 2320 2409 2406 2317 2405 2486
8 2323 2227 2322 2411 2408 2319 2407 2488
8 2324 2228 2323 2412 2409 2320 2408 2489
8 2326 2230 2325 2413 2411 2322 2410 2490
8 2327 2231 2326 2414 2412 2323 2411 2491
8 2329 2234 2328 2415 2414 2326 2413 2492
8 2417 2331 2260 2352 2494 2416 2353 2438
8 2350 2259 2352 2436 2419 2332 2417 2496
8 2332 2239 2331 2417 2420 2333 2418 2497
8 2334 2240 2332 2419 2422 2335 2420 2499
8 2420 2333 2421 2500 2335 2241 2336 2423
8 2422 2335 2423 2502 2337 2243 2338 2425
8 2423 2336 2424 2503 2338 2244 2339 2426
8 2425 2338 2426 2505 2342 2246 2341 2429
8 2426 2339 2427 2506 2341 2245 2340 2428
8 2429 2341 2428 2507 2344 2249 2343 2430
8 2432 2346 2284 2374 2509 2431 2373 2455
8 2432 2346 2431 2509 2364 2270 2363 2449
8 2375 2285 2374 2456 2433 2347 2432 2510
8 2347 2433 2365 2271 2432 2510 2450 2364
8 2350 2259 2351 2435 2436 2352 2437 2514
8 2440 2356 2437 2514 2355 2264 2351 2435
8 2352 2260 2354 2437 2438 2353 2439 2516
8 2356 2265 2358 2442 2437 2354 2439 2516
8 2440 2356 2264 2355 2518 2442 2357 2441
8 2519 2443 2357 2441 2447 2361 2268 2362
8 2443 2359 2444 2520 2357 2266 2358 2442
8 2443 2359 2267 2361 2520 2444 2360 2446
8 2446 2360 2279 2370 2523 2445 2369 2452
8 2453 2370 2446 2524 2371 2280 2361 2447
8 2449 2363 2448 2525 2368 2278 2369 2452
8 2366 2277 2364 2450 2451 2368 2449 2526
8 2372 2283 2368 2451 2453 2370 2452 2527
8 2455 2373 2295 2380 2529 2454 2382 2460
8 2456 2374 2292 2378 2530 2455 2380 2458
8 2377 2293 2379 2457 2458 2380 2459 2531
8 2463 2384 2459 2531 2383 2297 2379 2457
8 2533 2461 2382 2460 2459 2381 2295 2380
8 2464 2385 2461 2533 2384 2298 2381 2459
8 2466 2387 2464 2537 2386 2300 2384 2463
8 2467 2388 2465 2538 2387 2301 2385 2464
8 2469 2390 2467 2540 2389 2303 2387 2466
8 2470 2391 2468 2541 2390 2304 2388 2467
8 2472 2393 2470 2543 2392 2306 2390 2469
8 2393 2307 2394 2473 2470 2391 2471 2544
8 2395 2308 2396 2475 2472 2393 2473 2546
8 2396 2309 2397 2476 2473 2394 2474 2547
8 2475 2396 2311 2398 2549 2476 2399 2478
8 2476 2397 2312 2399 2550 2477 2400 2479
8 2478 2399 2314 2403 2552 2479 2402 2483
8 2479 2400 2313 2402 2553 2480 2401 2482
8 2405 2316 2404 2485 2482 2401 2481 2556
8 2406 2317 2405 2486 2483 2402 2482 2557
8 2408 2319 2407 2488 2485 2404 2484 2559
8 2409 2320 2408 2489 2486 2405 2485 2560
8 2411 2322 2410 2490 2488 2407 2487 2561
8 2412 2323 2411 2491 2489 2408 2488 2562
8 2414 2326 2413 2492 2491 2411 2490 2563
8 2513 2434 2493 2565 2438 2353 2416 2494
8 2496 2417 2352 2436 2567 2494 2438 2515
8 2494 2416 2495 2568 2417 2331 2418 2497
8 2419 2332 2417 2496 2499 2420 2497 2570
8 2497 2418 2498 2571 2420 2333 2421 2500
8 2499 2420 2500 2573 2422 2335 2423 2502
8 2500 2421 2501 2574 2423 2336 2424 2503
8 2502 2423 2503 2576 2425 2338 2426 2505
8 2503 2424 2504 2577 2426 2339 2427 2506
8 2505 2426 2506 2578 2429 2341 2428 2507
8 2509 2431 2373 2455 2580 2508 2454 2529
8 2509 2431 2508 2580 2449 2363 2448 2525
8 2432 2510 2581 2509 2374 2456 2530 2455
8 2432 2510 2450 2364 2509 2581 2526 2449
8 2583 2511 2434 2513 2516 2439 2353 2438
8 2436 2352 2437 2514 2515 2438 2516 2588
8 2440 2356 2442 2518 2514 2437 2516 2588
8 2442 2358 2444 2520 2516 2439 2517 2589
8 2519 2443 2520 2591 2441 2357 2442 2518
8 2519 2443 2361 2447 2591 2520 2446 2524
8 2446 2360 2445 2523 2520 2444 2521 2592
8 2525 2448 2522 2593 2452 2369 2445 2523
8 2524 2446 2370 2453 2594 2523 2452 2527
8 2526 2449 2525 2595 2451 2368 2452 2527
8 2534 2462 2528 2597 2460 2382 2454 2529
8 2530 2455 2380 2458 2598 2529 2460 2532
8 2599 2533 2460 2532 2531 2459 2380 2458
8 2537 2464 2533 2599 2463 2384 2459 2531
8 2534 2462 2382 2460 2601 2535 2461 2533
8 2538 2465 2535 2601 2464 2385 2461 2533
8 2540 2467 2538 2604 2466 2387 2464 2537
8 2541 2468 2539 2605 2467 2388 2465 2538
8 2543 2470 2541 2607 2469 2390 2467 2540
8 2470 2391 2471 2544 2541 2468 2542 2608
8 2472 2393 2473 2546 2543 2470 2544 2610
8 2473 2394 2474 2547 2544 2471 2545 2611
8 2475 2396 2476 2549 2546 2473 2547 2613
8 2476 2397 2477 2550 2547 2474 2548 2614
8 2549 2476 2399 2478 2616 2550 2479 2552
8 2479 2400 2480 2553 2550 2477 2551 2617
8 2552 2479 2402 2483 2619 2553 2482 2557
8 2482 2401 2481 2556 2553 2480 2554 2620
8 2485 2404 2484 2559 2556 2481 2555 2623
8 2486 2405 2485 2560 2557 2482 2556 2624
8 2488 2407 2487 2561 2559 2484 2558 2625
8 2489 2408 2488 2562 2560 2485 2559 2626
8 2491 2411 2490 2563 2562 2488 2561 2627
8 2513 2434 2512 2585 2565 2493 2564 2630
8 2586 2513 2565 2632 2515 2438 2494 2567
8 2565 2493 2566 2633 2494 2416 2495 2568
8 2567 2494 2568 2635 2496 2417 2497 2570
8 2568 2495 2569 2636 2497 2418 2498 2571
8 2570 2497 2571 2638 2499 2420 2500 2573
8 2571 2498 2572 2639 2500 2421 2501 2574
8 2573 2500 2574 2641 2502 2423 2503 2576
8 2574 2501 2575 2642 2503 2424 2504 2577
8 2576 2503 2577 2643 2505 2426 2506 2578
8 2597 2528 2579 2645 2529 2454 2508 2580
8 2580 2508 2579 2645 2525 2448 2522 2593
8 2581 2509 2455 2530 2646 2580 2529 2598
8 2581 2509 2580 2646 2526 2449 2525 2595
8 2583 2511 2582 2648 2513 2434 2512 2585
8 2583 2511 2439 2516 2648 2582 2517 2589
8 2649 2583 2513 2586 2588 2516 2438 2515
8 2589 2517 2444 2520 2653 2587 2521 2592
8 2518 2442 2520 2591 2588 2516 2589 2654
8 2593 2522 2590 2655 2523 2445 2521 2592
8 2524 2446 2523 2594 2591 2520 2592 2656
8 2595 2525 2593 2657 2527 2452 2523 2594
8 2602 2536 2596 2659 2534 2462 2528 2597
8 2600 2534 2597 2660 2532 2460 2529 2598
8 2600 2534 2460 2532 2661 2601 2533 2599
8 2604 2538 2601 2661 2537 2464 2533 2599
8 2602 2536 2462 2534 2663 2603 2535 2601
8 2601 2535 2465 2538 2663 2603 2539 2605
8 2607 2541 2605 2665 2540 2467 2538 2604
8 2608 2542 2606 2666 2541 2468 2539 2605
8 2543 2470 2544 2610 2607 2541 2608 2668
8 2544 2471 2545 2611 2608 2542 2609 2669
8 2546 2473 2547 2613 2610 2544 2611 2671
8 2547 2474 2548 2614 2611 2545 2612 2672
8 2549 2476 2550 2616 2613 2547 2614 2674
8 2550 2477 2551 2617 2614 2548 2615 2675
8 2552 2479 2553 2619 2616 2550 2617 2677
8 2553 2480 2554 2620 2617 2551 2618 2678
8 2557 2482 2556 2624 2619 2553 2620 2680
8 2556 2481 2555 2623 2620 2554 2621 2681
8 2559 2484 2558 2625 2623 2555 2622 2683
8 2560 2485 2559 2626 2624 2556 2623 2684
8 2562 2488 2561 2627 2626 2559 2625 2685
8 2690 2629 2564 2630 2650 2584 2512 2585
8 2586 2513 2585 2651 2632 2565 2630 2691
8 2630 2564 2631 2692 2565 2493 2566 2633
8 2632 2565 2633 2694 2567 2494 2568 2635
8 2633 2566 2634 2695 2568 2495 2569 2636
8 2635 2568 2636 2697 2570 2497 2571 2638
8 2636 2569 2637 2698 2571 2498 2572 2639
8 2638 2571 2639 2700 2573 2500 2574 2641
8 2639 2572 2640 2701 2574 2501 2575 2642
8 2641 2574 2642 2702 2576 2503 2577 2643
8 2597 2528 2596 2659 2645 2579 2644 2704
8 2645 2579 2644 2704 2593 2522 2590 2655
8 2660 2597 2645 2705 2598 2529 2580 2646
8 2646 2580 2645 2705 2595 2525 2593 2657
8 2650 2584 2512 2585 2707 2647 2582 2648
8 2648 2582 2517 2589 2707 2647 2587 2653
8 2649 2583 2648 2708 2586 2513 2585 2651
8 2649 2583 2516 2588 2708 2648 2589 2654
8 2655 2590 2652 2710 2592 2521 2587 2653
8 2654 2589 2520 2591 2711 2653 2592 2656
8 2657 2593 2655 2712 2594 2523 2592 2656
8 2602 2536 2603 2663 2659 2596 2658 2714
8 2662 2602 2659 2715 2600 2534 2597 2660
8 2662 2602 2534 2600 2717 2663 2601 2661
8 2661 2601 2538 2604 2717 2663 2605 2665
8 2666 2606 2664 2718 2605 2539 2603 2663
8 2668 2608 2666 2720 2607 2541 2605 2665
8 2608 2542 2609 2669 2666 2606 2667 2721
8 2610 2544 2611 2671 2668 2608 2669 2723
8 2611 2545 2612 2672 2669 2609 2670 2724
8 2613 2547 2614 2674 2671 2611 2672 2726
8 2614 2548 2615 2675 2672 2612 2673 2727
8 2616 2550 2617 2677 2674 2614 2675 2729
8 2617 2551 2618 2678 2675 2615 2676 2730
8 2619 2553 2620 2680 2677 2617 2678 2732
8 2620 2554 2621 2681 2678 2618 2679 2733
8 2624 2556 2623 2684 2680 2620 2681 2735
8 2681 2621 2555 2623 2736 2682 2622 2683
8 2626 2559 2625 2685 2684 2623 2683 2737
8 2688 2628 2584 2650 2740 2686 2647 2707
8 2688 2628 2687 2742 2650 2584 2629 2690
8 2690 2629 2689 2745 2630 2564 2631 2692
8 2746 2690 2630 2691 2709 2650 2585 2651
8 2691 2630 2692 2747 2632 2565 2633 2694
8 2692 2631 2693 2748 2633 2566 2634 2695
8 2694 2633 2695 2750 2635 2568 2636 2697
8 2695 2634 2696 2751 2636 2569 2637 2698
8 2697 2636 2698 2753 2638 2571 2639 2700
8 2698 2637 2699 2754 2639 2572 2640 2701
8 2700 2639 2701 2755 2641 2574 2642 2702
8 2659 2596 2658 2714 2704 2644 2703 2757
8 2704 2644 2703 2757 2655 2590 2652 2710
8 2660 2597 2659 2715 2705 2645 2704 2758
8 2705 2645 2704 2758 2657 2593 2655 2712
8 2759 2706 2647 2707 2710 2652 2587 2653
8 2709 2650 2585 2651 2760 2707 2648 2708
8 2708 2648 2589 2654 2760 2707 2653 2711
8 2712 2655 2710 2761 2656 2592 2653 2711
8 2763 2713 2658 2714 2718 2664 2603 2663
8 2662 2602 2663 2717 2715 2659 2714 2764
8 2720 2666 2718 2767 2665 2605 2663 2717
8 2768 2719 2664 2718 2721 2667 2606 2666
8 2668 2608 2669 2723 2720 2666 2721 2770
8 2669 2609 2670 2724 2721 2667 2722 2771
8 2671 2611 2672 2726 2723 2669 2724 2773
8 2672 2612 2673 2727 2724 2670 2725 2774
8 2674 2614 2675 2729 2726 2672 2727 2776
8 2675 2615 2676 2730 2727 2673 2728 2777
8 2677 2617 2678 2732 2729 2675 2730 2779
8 2678 2618 2679 2733 2730 2676 2731 2780
8 2680 2620 2681 2735 2732 2678 2733 2782
8 2733 2679 2621 2681 2783 2734 2682 2736
8 2735 2681 2623 2684 2784 2736 2683 2737
8 2740 2686 2647 2707 2787 2738 2706 2759
8 2688 2628 2686 2740 2742 2687 2739 2789
8 2743 2688 2650 2709 2790 2740 2707 2760
8 2742 2687 2741 2792 2690 2629 2689 2745
8 2743 2688 2742 2793 2709 2650 2690 2746
8 2745 2689 2744 2795 2692 2631 2693 2748
8 2746 2690 2745 2796 2691 2630 2692 2747
8 2747 2692 2748 2797 2694 2633 2695 2750
8 2748 2693 2749 2798 2695 2634 2696 2751
8 2750 2695 2751 2800 2697 2636 2698 2753
8 2751 2696 2752 2801 2698 2637 2699 2754
8 2753 2698 2754 2802 2700 2639 2701 2755
8 2763 2713 2756 2804 2714 2658 2703 2757
8 2759 2706 2652 2710 2804 2756 2703 2757
8 2715 2659 2714 2764 2758 2704 2757 2805
8 2758 2704 2757 2805 2712 2655 2710 2761
8 2806 2759 2707 2760 2761 2710 2653 2711
8 2765 2716 2762 2808 2718 2664 2713 2763
8 2809 2763 2714 2764 2767 2718 2663 2717
8 2765 2716 2664 2718 2811 2766 2719 2768
8 2813 2768 2718 2767 2770 2721 2666 2720
8 2814 2769 2719 2768 2771 2722 2667 2721
8 2723 2669 2724 2773 2770 2721 2771 2816
8 2724 2670 2725 2774 2771 2722 2772 2817
8 2726 2672 2727 2776 2773 2724 2774 2819
8 2727 2673 2728 2777 2774 2725 2775 2820
8 2729 2675 2730 2779 2776 2727 2777 2822
8 2730 2676 2731 2780 2777 2728 2778 2823
8 2732 2678 2733 2782 2779 2730 2780 2825
8 2780 2731 2679 2733 2826 2781 2734 2783
8 2782 2733 2681 2735 2827 2783 2736 2784
8 2830 2785 2738 2787 2804 2756 2706 2759
8 2789 2739 2686 2740 2832 2786 2738 2787
8 2790 2740 2707 2760 2833 2787 2759 2806
8 2742 2687 2739 2789 2792 2741 2788 2835
8 2743 2688 2740 2790 2793 2742 2789 2836
8 2792 2741 2791 2838 2745 2689 2744 2795
8 2793 2742 2792 2839 2746 2690 2745 2796
8 2795 2744 2794 2841 2748 2693 2749 2798
8 2796 2745 2795 2842 2747 2692 2748 2797
8 2797 2748 2798 2843 2750 2695 2751 2800
8 2798 2749 2799 2844 2751 2696 2752 2801
8 2800 2751 2801 2845 2753 2698 2754 2802
8 2808 2762 2803 2847 2763 2713 2756 2804
8 2809 2763 2804 2848 2764 2714 2757 2805
8 2806 2759 2710 2761 2848 2804 2757 2805
8 2765 2716 2766 2811 2808 2762 2807 2850
8 2810 2765 2808 2851 2767 2718 2763 2809
8 2810 2765 2718 2767 2852 2811 2768 2813
8 2811 2766 2719 2768 2853 2812 2769 2814
8 2855 2814 2768 2813 2816 2771 2721 2770
8 2856 2815 2769 2814 2817 2772 2722 2771
8 2773 2724 2774 2819 2816 2771 2817 2858
8 2774 2725 2775 2820 2817 2772 2818 2859
8 2776 2727 2777 2822 2819 2774 2820 2861
8 2777 2728 2778 2823 2820 2775 2821 2862
8 2779 2730 2780 2825 2822 2777 2823 2864
8 2823 2778 2731 2780 2865 2824 2781 2826
8 2825 2780 2733 2782 2866 2826 2783 2827
8 2869 2828 2785 2830 2847 2803 2756 2804
8 2871 2829 2786 2832 2830 2785 2738 2787
8 2872 2830 2787 2833 2848 2804 2759 2806
8 2789 2739 2786 2832 2835 2788 2831 2874
8 2836 2789 2740 2790 2875 2832 2787 2833
8 2792 2741 2788 2835 2838 2791 2834 2877
8 2793 2742 2789 2836 2839 2792 2835 2878
8 2838 2791 2837 2880 2795 2744 2794 2841
8 2839 2792 2838 2881 2796 2745 2795 2842
8 2841 2794 2840 2882 2798 2749 2799 2844
8 2842 2795 2841 2883 2797 2748 2798 2843
8 2843 2798 2844 2884 2800 2751 2801 2845
8 2886 2846 2803 2847 2850 2807 2762 2808
8 2851 2808 2847 2887 2809 2763 2804 2848
8 2850 2807 2766 2811 2889 2849 2812 2853
8 2810 2765 2811 2852 2851 2808 2850 2890
8 2852 2811 2768 2813 2891 2853 2814 2855
8 2853 2812 2769 2814 2892 2854 2815 2856
8 2894 2856 2814 2855 2858 2817 2771 2816
8 2817 2772 2818 2859 2856 2815 2857 2895
8 2819 2774 2820 2861 2858 2817 2859 2897
8 2820 2775 2821 2862 2859 2818 2860 2898
8 2822 2777 2823 2864 2861 2820 2862 2900
8 2823 2778 2824 2865 2862 2821 2863 2901
8 2864 2823 2780 2825 2902 2865 2826 2866
8 2904 2867 2828 2869 2886 2846 2803 2847
8 2869 2828 2868 2906 2830 2785 2829 2871
8 2907 2869 2830 2872 2887 2847 2804 2848
8 2871 2829 2870 2909 2832 2786 2831 2874
8 2910 2871 2832 2875 2872 2830 2787 2833
8 2835 2788 2831 2874 2877 2834 2873 2912
8 2836 2789 2832 2875 2878 2835 2874 2913
8 2877 2834 2876 2915 2838 2791 2837 2880
8 2839 2792 2835 2878 2881 2838 2877 2916
8 2880 2837 2879 2917 2841 2794 2840 2882
8 2881 2838 2880 2918 2842 2795 2841 2883
8 2883 2841 2882 2919 2843 2798 2844 2884
8 2921 2885 2846 2886 2889 2849 2807 2850
8 2922 2886 2847 2887 2890 2850 2808 2851
8 2889 2849 2812 2853 2924 2888 2854 2892
8 2890 2850 2811 2852 2925 2889 2853 2891
8 2891 2853 2814 2855 2926 2892 2856 2894
8 2892 2854 2815 2856 2927 2893 2857 2895
8 2858 2817 2859 2897 2894 2856 2895 2929
8 2859 2818 2860 2898 2895 2857 2896 2930
8 2861 2820 2862 2900 2897 2859 2898 2932
8 2862 2821 2863 2901 2898 2860 2899 2933
8 2864 2823 2865 2902 2900 2862 2901 2934
8 2904 2867 2846 2886 2936 2903 2885 2921
8 2904 2867 2903 2936 2869 2828 2868 2906
8 2937 2904 2869 2907 2922 2886 2847 2887
8 2906 2868 2905 2939 2871 2829 2870 2909
8 2907 2869 2906 2940 2872 2830 2871 2910
8 2909 2870 2908 2942 2874 2831 2873 2912
8 2910 2871 2909 2943 2875 2832 2874 2913
8 2912 2873 2911 2945 2877 2834 2876 2915
8 2878 2835 2874 2913 2916 2877 2912 2946
8 2915 2876 2914 2947 2880 2837 2879 2917
8 2916 2877 2915 2948 2881 2838 2880 2918
8 2918 2880 2917 2949 2883 2841 2882 2919
8 2921 2885 2849 2889 2951 2920 2888 2924
8 2952 2921 2886 2922 2925 2889 2850 2890
8 2924 2888 2854 2892 2954 2923 2893 2927
8 2925 2889 2853 2891 2955 2924 2892 2926
8 2926 2892 2856 2894 2956 2927 2895 2929
8 2895 2857 2896 2930 2927 2893 2928 2957
8 2897 2859 2898 2932 2929 2895 2930 2959
8 2898 2860 2899 2933 2930 2896 2931 2960
8 2900 2862 2901 2934 2932 2898 2933 2961
8 2936 2903 2885 2921 2963 2935 2920 2951
8 2936 2903 2935 2963 2906 2868 2905 2939
8 2937 2904 2886 2922 2964 2936 2921 2952
8 2937 2904 2936 2964 2907 2869 2906 2940
8 2939 2905 2938 2966 2909 2870 2908 2942
8 2940 2906 2939 2967 2910 2871 2909 2943
8 2942 2908 2941 2969 2912 2873 2911 2945
8 2943 2909 2942 2970 2913 2874 2912 2946
8 2945 2911 2944 2971 2915 2876 2914 2947
8 2946 2912 2945 2972 2916 2877 2915 2948
8 2948 2915 2947 2973 2918 2880 2917 2949
8 2951 2920 2888 2924 2975 2950 2923 2954
8 2952 2921 2889 2925 2976 2951 2924 2955
8 2927 2893 2928 2957 2954 2923 2953 2978
8 2955 2924 2892 2926 2979 2954 2927 2956
8 2929 2895 2930 2959 2956 2927 2957 2980
8 2930 2896 2931 2960 2957 2928 2958 2981
8 2932 2898 2933 2961 2959 2930 2960 2982
8 2951 2920 2950 2975 2963 2935 2962 2984
8 2963 2935 2962 2984 2939 2905 2938 2966
8 2964 2936 2921 2952 2985 2963 2951 2976
8 2964 2936 2963 2985 2940 2906 2939 2967
8 2966 2938 2965 2987 2942 2908 2941 2969
8 2967 2939 2966 2988 2943 2909 2942 2970
8 2969 2941 2968 2989 2945 2911 2944 2971
8 2970 2942 2969 2990 2946 2912 2945 2972
8 2972 2945 2971 2991 2948 2915 2947 2973
8 2954 2923 2953 2978 2975 2950 2974 2993
8 2976 2951 2924 2955 2994 2975 2954 2979
8 2957 2928 2958 2981 2978 2953 2977 2995
8 2956 2927 2957 2980 2979 2954 2978 2996
8 2959 2930 2960 2982 2980 2957 2981 2997
8 2984 2962 2983 2999 2966 2938 2965 2987
8 2975 2950 2974 2993 2984 2962 2983 2999
8 2976 2951 2975 2994 2985 2963 2984 3000
8 2985 2963 2984 3000 2967 2939 2966 2988
8 2987 2965 2986 3001 2969 2941 2968 2989
8 2988 2966 2987 3002 2970 2942 2969 2990
8 2990 2969 2989 3003 2972 2945 2971 2991
8 2978 2953 2977 2995 2993 2974 2992 3004
8 2979 2954 2978 2996 2994 2975 2993 3005
8 2980 2957 2981 2997 2996 2978 2995 3006
8 2974 2993 2999 2983 2992 3004 3007 2998
8 2983 2999 2987 2965 2998 3007 3001 2986
8 3000 2984 2999 3008 2988 2966 2987 3002
8 2994 2975 2993 3005 3000 2984 2999 3008
8 3002 2987 3001 3009 2990 2969 2989 3003
8 2996 2978 2995 3006 3005 2993 3004 3010
8 3005 2993 3004 3010 3008 2999 3007 3011
8 3008 2999 3007 3011 3002 2987 3001 3009

CELL_TYPES 1910
12
12
12
12
12
12
12
12
12
12
12
12
12
12
12
12
12
12
12
12
12
12
12
12
12
12
12
12
12
12
12
12
12
12
12
12
12
12
12
12
12
12
12
12
12
12
12
12
12
12
12
12
12
12
12
12
12
12
12
12
12
12
12
12
12
12
12
12
12
12
12
12
12
12
12
12
12
12
12
12
12
12
12
12
12
12
12
12
12
12
12
12
12
12
12
12
12
12
12
12
12
12
12
12
12
12
12
12
12
12
12
12
12
12
12
12
12
12
12
12
12
12
12
12
12
12
12
12
12
12
12
12
12
12
12
12
12
12
12
12
12
12
12
12
12
12
12
12
12
12
12
12
12
12
12
12
12
12
12
12
12
12
12
12
12
12
12
12
12
12
12
12
12
12
12
12
12
12
12
12
12
12
12
12
12
12
12
12
12
12
12
12
12
12
12
12
12
12
12
12
12
12
12
12
12
12
12
12
12
12
12
12
12
12
12
12
12
12
12
12
12
12
12
12
12
12
12
12
12
12
12
12
12
12
12
12
12
12
12
12
12
12
12
12
12
12
12
12
12
12
12
12
12
12
12
12
12
12
12
12
12
12
12
12
12
12
12
12
12
12
12
12
12
12
12
12
12
12
12
12
12
12
12
12
12
12
12
12
12
12
12
12
12
12
12
12
12
12
12
12
12
12
12
12
12
12
12
12
12
12
12
12
12
12
12
12
12
12
12
12
12
12
12
12
12
12
12
12
12
12
12
12
12
12
12
12
12
12
12
12
12
12
12
12
12
12
12
12
12
12
12
12
12
12
12
12
12
12
12
12
12
12
12
12
12
12
12
12
12
12
12
12
12
12
12
12
12
12
12
12
12
12
12
12
12
12
12
12
12
12
12
12
12
12
12
12
12
12
12
12
12
12
12
12
12
12
12
12
12
12
12
12
12
12
12
12
12
12
12
12
12
12
12
12
12
12
12
12
12
12
12
12
12
12
12
12
12
12
12
12
12
12
12
12
12
12
12
12
12
12
12
12
12
12
12
12
12
12
12
12
12
12
12
12
12
12
12
12
12
12
12
12
12
12
12
12
12
12
12
12
12
12
12
12
12
12
12
12
12
12
12
12
12
12
12
12
12
12
12
12
12
12
12
12
12
12
12
12
12
12
12
12
12
12
12
12
12
12
12
12
12
12
12
12
12
12
12
12
12
12
12
12
12
12
12
12
12
12
12
12
12
12
12
12
12
12
12
12
12
12
12
12
12
12
12
12
12
12
12
12
12
12
12
12
12
12
12
12
12
12
12
12
12
12
12
12
12
12
12
12
12
12
12
12
12
12
12
12
12
12
12
12
12
12
12
12
12
12
12
12
12
12
12
12
12
12
12
12
12
12
12
12
12
12
12
12
12
12
12
12
12
12
12
12
12
12
12
12
12
12
12
12
12
12
12
12
12
12
12
12
12
12
12
12
12
12
12
12
12
12
12
12
12
12
12
12
12
12
12
12
12
12
12
12
12
12
12
12
12
12
12
12
12
12
12
12
12
12
12
12
12
12
12
12
12
12
12
12
12
12
12
12
12
12
12
12
12
12
12
12
12
12
12
12
12
12
12
12
12
12
12
12
12
12
12
12
12
12
12
12
12
12
12
12
12
12
12
12
12
12
12
12
12
12
12
12
12
12
12
12
12
12
12
12
12
12
12
12
12
12
12
12
12
12
12
12
12
12
12
12
12
12
12
12
12
12
12
12
12
12
12
12
12
12
12
12
12
12
12
12
12
12
12
12
12
12
12
12
12
12
12
12
12
12
12
12
12
12
12
12
12
12
12
12
12
12
12
12
12
12
12
12
12
12
12
12
12
12
12
12
12
12
12
12
12
12
12
12
12
12
12
12
12
12
12
12
12
12
12
12
12
12
12
12
12
12
12
12
12
12
12
12
12
12
12
12
12
12
12
12
12
12
12
12
12
12
12
12
12
12
12
12
12
12
12
12
12
12
12
12
12
12
12
12
12
12
12
12
12
12
12
12
12
12
12
12
12
12
12
12
12
12
12
12
12
12
12
12
12
12
12
12
12
12
12
12
12
12
12
12
12
12
12
12
12
12
12
12
12
12
12
12
12
12
12
12
12
12
12
12
12
12
12
12
12
12
12
12
12
12
12
12
12
12
12
12
12
12
12
12
12
12
12
12
12
12
12
12
12
12
12
12
12
12
12
12
12
12
12
12
12
12
12
12
12
12
12
12
12
12
12
12
12
12
12
12
12
12
12
12
12
12
12
12
12
12
12
12
12
12
12
12
12
12
12
12
12
12
12
12
12
12
12
12
12
12
12
12
12
12
12
12
12
12
12
12
12
12
12
12
12
12
12
12
12
12
12
12
12
12
12
12
12
12
12
12
12
12
12
12
12
12
12
12
12
12
12
12
12
12
12
12
12
12
12
12
12
12
12
12
12
12
12
12
12
12
12
12
12
12
12
12
12
12
12
12
12
12
12
12
12
12
12
12
12
12
12
12
12
12
12
12
12
12
12
12
12
12
12
12
12
12
12
12
12
12
12
12
12
12
12
12
12
12
12
12
12
12
12
12
12
12
12
12
12
12
12
12
12
12
12
12
12
12
12
12
12
12
12
12
12
12
12
12
12
12
12
12
12
12
12
12
12
12
12
12
12
12
12
12
12
12
12
12
12
12
12
12
12
12
12
12
12
12
12
12
12
12
12
12
12
12
12
12
12
12
12
12
12
12
12
12
12
12
12
12
12
12
12
12
12
12
12
12
12
12
12
12
12
12
12
12
12
12
12
12
12
12
12
12
12
12
12
12
12
12
12
12
12
12
12
12
12
12
12
12
12
12
12
12
12
12
12
12
12
12
12
12
12
12
12
12
12
12
12
12
12
12
12
12
12
12
12
12
12
12
12
12
12
12
12
12
12
12
12
12
12
12
12
12
12
12
12
12
12
12
12
12
12
12
12
12
12
12
12
12
12
12
12
12
12
12
12
12
12
12
12
12
12
12
12
12
12
12
12
12
12
12
12
12
12
12
12
12
12
12
12
12
12
12
12
12
12
12
12
12
12
12
12
12
12
12
12
12
12
12
12
12
12
12
12
12
12
12
12
12
12
12
12
12
12
12
12
12
12
12
12
12
12
12
12
12
12
12
12
12
12
12
12
12
12
12
12
12
12
12
12
12
12
12
12
12
12
12
12
12
12
12
12
12
12
12
12
12
12
12
12
12
12
12
12
12
12
12
12
12
12
12
12
12
12
12
12
12
12
12
12
12
12
12
12
12
12
12
12
12
12
12
12
12
12
12
12
12
12
12
12
12
12
12
12
12
12
12
12
12
12
12
12
12
12
12
12
12
12
12
12
12
12
12
12
12
12
12
12
12
12
12
12
12
12
12
12
12
12
12
12
12
12
12
12
12
12
12
12
12
12
12
12
12
12
12
12
12
12
12
12
12
12
12
12
12
12
12
12
12
12
12
12
12
12
12
12
12
12
12
12
12
12
12
12
12
12
12
12
12
12
12
12
12
12
12
12
12
12
12
12
12
12
12
12
12
12
12
12
12
12
12
12
12
12
12
12
12
12
12
12
12
12
12
12
12
12
12
12
12
12
12
12
12
12
12
12
12
12
12
12
12
12
12
12
12
12
12
12
12
12
12
12
12
12
12
12
12
12
12
12
12
12
12
12
12
12
12
12
12
12
12
12
12
12
12
12
12
12
12
12
12
12
12
12
12
12
12
12
12
12
12
12
12
12
12
12
12
12
12
12
12
12
12
12
12
12
12
12
12
12
12
12
12
12
12
12
12
12
12
12
12
12
12
12
12
12
12
12
12
12
12
12
12
12
12
12
12
12
12
12
12
12
12
12
12
12
12
12
12
12
12
12
12
12
12
12
12
12
12
12
12
12
12
12
12
12
12
12
12
12
12
12
12
12
12
12
12
12
12
12
12
12
12
12
12
12
12
12
12
12
12
12
12
12
12
12
12
12
12
12
12
12
12
12
12
12
12
12
12
12
12
12
12
12
12
12
12
12
12
12
12
12
12
12
12
12
12
12
12
12
12
12
12
12
12
12
12
12
12
12
12
12
12
12
12
12
12
12
12
12
12
12
12
12
12
12
12
12
12
12
12
12
12
12
12
12
12
12
12
12
12
12
12
12
12
12
12
12
12
12
12
12
12
12
12
12
12
12
12
12
12
12
12
12
12
12
12
12
12
12
12
12
12
12
12
12
12
12
12
12
12
12
12
12
12
12
12
12
12
12
12
12
12
12
12
12
12
12
12
12
12
12
12
12
12
12
12
12
12
12
12
12
12

POINT_DATA 3012
SCALARS Jp_lamdaP float 4
LOOKUP_TABLE default
0.999633 1 1 0.999633
1 1 1 1
0.999643 1 1 0.999643
0.999577 1 1 0.999577
0.999635 1 1 0.999635
0.999612 1 1 0.999612
1.00035 1.00159 1 0.998753
1 1 1 1
1 1 1 1
1 1 1 1
0.999707 1 1 0.999707
0.99892 1.00007 1 0.998849
0.999582 1 1 0.999582
0.999585 1 1 0.999585
0.999646 1 1 0.999646
0.999606 1 1 0.999606
0.999619 1 1 0.999619
0.999653 1 1 0.999653
1.00045 1.0017 1 0.998754
1 1 1 1
0.99956 1 1 0.99956
0.999611 1 1 0.999611
0.998903 1.00027 1 0.998632
1.00007 1.00134 1 0.998733
0.999613 1 1 0.999613
0.999503 1.00074 1 0.998764
1.01732 1.01995 1 0.99742
1 1 1 1
0.999809 1 1 0.999809
0.999822 1 1 0.999822
1 1 1 1
0.998987 1.00013 1 0.998859
0.99961 1 1 0.99961
0.999638 1 1 0.999638
1.00087 1.00196 1 0.998912
1 1 1 1
0.999758 1.00077 1 0.998993
0.998949 1 1 0.998949
1.00937 1.012 1 0.997396
1 1 1 1
1 1 1 1
0.999793 1 1 0.999793
1 1 1 1
0.999594 1 1 0.999594
0.998565 1 1 0.998565
1 1 1 1
0.998915 1.0001 1 0.998816
0.99963 1 1 0.99963
0.999667 1 1 0.999667
0.99962 1 1 0.99962
1.00056 1.00181 1 0.998759
0.999778 1 1 0.999778
0.999586 1 1 0.999586
0.999627 1 1 0.999627
0.999636 1 1 0.999636
0.998796 1.00017 1 0.998628
0.999796 1.00103 1 0.998766
1.00006 1.00133 1 0.998733
1.01744 1.02009 1 0.997406
1 1 1 1
0.999564 1 1 0.999564
0.998856 1 1 0.998856
0.998609 1 1 0.998606
0.999362 1.00068 1 0.998685
1.01996 1.02286 1 0.997167
1.01835 1.02113 1 0.997276
0.999678 1 1 0.999678
0.998862 1 1 0.998862
1.01449 1.01702 1 0.997506
1.03754 1.04115 1 0.996529
1 1 1 1
1 1 1 1
1 1 1 1
0.998904 1.00004 1 0.998867
1 1 1 1
1 1 1 1
1.00059 1.00187 1 0.998716
0.99989 1 1 0.99989
0.999319 1.0005 1 0.998817
0.999118 1 1.00004 0.999077
1.00791 1.01055 1 0.997392
1 1 1 1
1.00127 1 1.00156 0.999715
1.00027 1.00164 1 0.998636
1.00037 1.00162 1 0.998749
1.02175 1.02486 1 0.996974
0.999709 1 1.00036 0.999349
1.01399 1.01674 1 0.997295
1.00443 1.0069 1 0.997549
1.01983 1.02325 1 0.996655
1 1 1 1
1 1 1 1
1 1 1 1
1 1 1 1
1 1 1 1
0.999796 1 1 0.999796
0.998702 1 1 0.998702
0.999794 1 1 0.999794
0.999052 1.00034 1 0.998713
1 1 1 1
0.998584 1 1 0.998584
0.998814 1 1 0.998814
1.01811 1.02136 1 0.996817
0.999637 1.00079 1 0.998849
1.02278 1.02602 1 0.996837
0.999604 1 1 0.999604
0.999609 1 1 0.999609
0.999638 1 1 0.999638
0.999658 1 1 0.999658
0.998706 1.00008 1 0.998626
1.00007 1.00134 1 0.998736
0.999987 1.00122 1 0.998772
1.0175 1.02016 1 0.997393
1 1 1 1
0.999589 1 1 0.999589
0.998614 1 1 0.998614
0.998606 1.00001 1 0.998599
0.99984 1 1 0.99984
0.99899 1.00005 1 0.998942
0.999285 1.0006 1 0.998684
1.02005 1.02298 1 0.997132
1.01465 1.0172 1 0.99749
1.0187 1.02146 1 0.997301
1.03745 1.04106 1 0.996537
0.998607 1 1 0.998607
0.998608 1 1 0.998608
1.0173 1.02028 1 0.997073
1.01987 1.02285 1 0.997087
1.0196 1.02248 1 0.99718
1.04773 1.05141 1 0.996498
1 1 1 1
1.04103 1.04467 1 0.996517
0.999345 1 1.00029 0.999059
1.00865 1.0112 1 0.997477
1.03415 1.03774 1 0.99654
1.043 1.04673 1 0.99644
1.00145 1 1.00203 0.999413
1.00654 1 1.00828 0.998275
1 1 1 1
1 1 1 1
1.00046 1.00174 1 0.998722
1 1 1 1
0.999229 1 1.00021 0.999022
0.999261 1.00044 1 0.998824
1.00688 1.00952 1 0.997388
1 1 1 1
1.00102 1 1.00128 0.999739
1.00051 1.00175 1 0.998759
1.00018 1.00132 1 0.998862
1.02116 1.02426 1 0.996974
1 1 1.00073 0.999278
1.0131 1.01584 1 0.997297
1.00327 1.0057 1.00004 0.997547
1.02127 1.0247 1 0.996646
1.00116 1 1.00166 0.999501
1.00031 1 1.00045 0.99986
1.00376 1 1.00519 0.998582
1.02372 1.02693 1 0.996876
1.01841 1.02133 1 0.997132
1.04423 1.04801 1 0.996391
1.00133 1.00284 1.00065 0.99784
1.03004 1.03353 1 0.996622
1.01373 1.01647 1.00057 0.99674
1.02962 1.03323 1 0.996505
1 1 1 1
1 1 1 1
1 1 1 1
1.00135 1 1.00178 0.999568
1 1 1 1
1 1 1 1
1 1 1 1
0.999167 1.00056 1 0.998612
0.998599 1 1 0.998599
1 1 1 1
1 1 1 1
0.998585 1 1 0.998585
0.998712 1 1 0.998712
1.01884 1.02209 1 0.996817
0.999718 1.0011 1 0.998624
1.02278 1.02603 1 0.996836
0.998583 1 1 0.998583
1.01665 1.01993 1 0.996788
1.0204 1.02363 1 0.996839
1.05295 1.05668 1 0.996467
1.02402 1.02727 1 0.996838
1.05435 1.0581 1 0.996452
1 1 1 1
0.999613 1 1 0.999613
0.998346 1 1 0.998346
0.998594 1 1 0.998594
1 1 1 1
0.999235 1.00021 1 0.999025
0.999222 1.00054 1 0.998685
1.02013 1.0231 1 0.997098
1.01917 1.0219 1 0.997326
1.01479 1.01736 1 0.997473
1.03745 1.04105 1 0.996545
0.998604 1 1 0.998604
0.998601 1 1 0.998601
1.01723 1.02035 1 0.996942
1.01997 1.02293 1 0.997106
1 1 1 1
0.999244 1 1.00013 0.999114
1.01024 1.01271 1 0.997559
1.01979 1.02268 1 0.997175
1.04762 1.05131 1 0.99649
1.03371 1.0373 1 0.996535
1.04128 1.04488 1 0.996552
1.04259 1.04631 1 0.996449
1.00127 1 1.00187 0.999402
1.00522 1 1.00696 0.998277
1.01654 1.0198 1 0.996809
1.01818 1.02115 1 0.997088
1.04997 1.05363 1 0.99652
1.04846 1.05227 0.999898 0.996481
1.04496 1.04856 1 0.996567
1.05326 1.05724 0.999615 0.996624
1.00044 1 1.0012 0.999237
1.04581 1.04944 1 0.996541
1.00344 1.00568 1.00011 0.997667
1.02741 1.03091 1 0.996605
1.04033 1.04413 1 0.996358
1.04274 1.04623 1 0.996664
1.00315 1.00042 1.00471 0.998032
1.00562 1 1.00705 0.998577
1.00352 1.00049 1.00546 0.997583
1.00052 1.00186 1 0.998666
1 1 1 1
1.00027 1 1.00051 0.999762
0.999843 1.00106 1 0.998783
1.02064 1.02374 1 0.996974
1.00019 1 1.00091 0.99928
1.00175 1.00417 1.00004 0.997546
1.01189 1.01463 1 0.997299
1.02261 1.02606 1 0.996637
1.00111 1 1.00159 0.999523
0.999913 1 1.00004 0.999878
1.00462 1 1.00605 0.998582
1.02311 1.02632 1 0.996874
1.01779 1.02071 1 0.997135
1.04435 1.04814 1 0.996385
1.00019 1.00184 1.0005 0.997844
1.03116 1.03465 1 0.996625
1.01386 1.0167 1.00047 0.996734
1.03048 1.03409 1 0.996503
0.999932 1 1 0.999932
1.00189 1.00056 1.00315 0.998181
1.0032 1 1.0042 0.998996
1.00482 1.00057 1.00637 0.997893
1.04865 1.05247 1 0.99637
1.03847 1.04211 1 0.996499
1.0474 1.05122 1 0.996361
1.00705 1.00951 1.00049 0.997081
1.03524 1.03882 1 0.996551
1.02583 1.02788 1.00158 0.996428
1.03814 1.04185 1 0.996436
0.999632 1 1 0.999632
0.999983 1 1 0.999983
1 1 1 1
1 1 1 1
1 1 1 1
1.00057 1 1.00086 0.999715
1 1 1 1
1.00163 1 1.00208 0.999553
1 1 1 1
0.999944 1.00132 1 0.998625
0.998672 1.00006 1 0.998609
1.02291 1.02616 1 0.996835
1.01954 1.0228 1 0.996818
0.998587 1 1 0.998587
1 1 1 1
0.998582 1 1 0.998582
1.017 1.02028 1 0.996789
1.02111 1.02435 1 0.996839
1.05202 1.05575 1 0.996465
1.0236 1.02685 1 0.996835
1.05422 1.05797 1 0.996449
1.01625 1.01952 1 0.996786
1.05092 1.05467 1 0.996442
1.05427 1.058 1 0.996473
1.05592 1.06252 0.997 0.996778
1.05299 1.05678 1 0.996408
1.05826 1.06265 0.999194 0.996673
0.998602 1 1 0.998602
0.998594 1 1 0.998594
1.01718 1.02043 1 0.996812
1.02007 1.02301 1 0.997126
1 1 1 1
0.999171 1 1 0.999171
1.0117 1.01409 1 0.99764
1.01996 1.02285 1 0.997169
1.04752 1.05122 1 0.996482
1.04141 1.04497 1 0.996586
1.03338 1.03697 1 0.996529
1.04231 1.04601 1 0.996458
1.00128 1 1.00189 0.99939
1.0045 1 1.00623 0.998279
1.01642 1.01969 1 0.996794
1.01828 1.02126 1 0.997083
1.0497 1.0535 0.999853 0.996545
1.04865 1.05241 0.99994 0.996485
1.00012 1 1.0009 0.999226
1.00498 1.00724 1.00009 0.997665
1.02673 1.0302 1 0.996635
1.04511 1.04873 1 0.996548
1.05304 1.05715 0.999441 0.996669
1.04009 1.04391 1 0.996342
1.0456 1.04922 1 0.996546
1.04289 1.04639 1 0.99666
1.00305 1.00063 1.00439 0.998033
1.00414 1.00064 1.00594 0.997583
1.00584 1 1.00728 0.998576
1.04932 1.05302 1 0.996493
1.04985 1.05371 0.999787 0.996555
1.05572 1.06133 0.997997 0.996712
1.0541 1.05879 0.998896 0.996672
1.04864 1.05247 0.999725 0.996639
1.04729 1.05495 0.995762 0.996965
1.00018 1.00172 1.0006 0.997862
1.0448 1.04851 0.999651 0.996808
1.01455 1.0177 1 0.996901
1.03203 1.03595 1 0.996217
1.03896 1.04278 1 0.996342
1.03696 1.04021 0.99995 0.996924
1.00366 1 1.00481 0.998862
1.00007 1.00195 1.00067 0.997457
1.00867 1 1.01095 0.997744
1.00317 1.00321 1.00266 0.997309
1.02256 1.02577 1 0.996871
0.999896 1 1 0.999896
1.00125 1 1.0017 0.999545
1.00633 1 1.00776 0.998582
1.01703 1.01995 1 0.997138
1.04443 1.04822 1 0.99638
0.999105 1.00085 1.00041 0.997849
1.01393 1.01692 1.00033 0.996727
1.03238 1.03588 1 0.996628
1.03036 1.03398 1 0.9965
0.999943 1 1 0.999943
1.00258 1.00031 1.00409 0.998183
1.00292 1 1.00392 0.999005
1.00504 1.00031 1.00685 0.997887
1.04865 1.05247 1 0.996364
1.0386 1.04226 1 0.996497
1.04694 1.05076 1 0.996358
1.00551 1.00799 1.00045 0.997087
1.03486 1.03845 1 0.996547
1.02463 1.02654 1.00173 0.996415
1.03786 1.04148 1 0.996519
0.999968 1 1 0.999968
1.00086 1 1.00156 0.999301
1.0033 1.00387 1.00191 0.997526
1.00649 1 1.00824 0.998262
1.00237 1.00156 1.00322 0.997603
1.05228 1.05605 1 0.996429
1.04106 1.04479 1 0.996423
1.04233 1.04599 1 0.996501
1.01035 1.01168 1.00199 0.996694
1.0338 1.03737 1 0.99656
1.02191 1.02492 1.00086 0.99621
0.99958 1 1 0.99958
0.999042 1 1 0.999042
0.999672 1 1 0.999672
0.999633 1 1 0.999633
0.999991 1 1 0.999991
0.999986 1 1 0.999986
1 1 1 1
1 1 1 1
1 1 1 1
0.999958 1 1.0001 0.999854
1 1 1 1
1.00102 1 1.00132 0.999699
1 1 1 1
1.00155 1 1.00201 0.999539
1 1 1 1
1.02329 1.02654 1 0.996832
1.02164 1.02488 1 0.996838
1.05379 1.05755 1 0.996447
1.05106 1.05479 1 0.996464
1.01741 1.02069 1 0.996789
0.998581 1 1 0.998581
1.01632 1.0196 1 0.996786
1.05061 1.05436 1 0.996443
1.05338 1.05711 1 0.996471
1.05611 1.06305 0.996668 0.996795
1.0524 1.0562 1 0.996404
1.05828 1.06252 0.999328 0.996671
1.0495 1.05326 1 0.996434
1.05579 1.06279 0.996605 0.9968
1.05702 1.06285 0.997761 0.996746
1.05162 1.06083 0.994288 0.997013
1.05548 1.05917 0.99996 0.996559
1.05243 1.06234 0.993637 0.997019
1.01634 1.01962 1 0.996778
1.01839 1.02137 1 0.997077
1.04944 1.05338 0.999693 0.996569
1.04886 1.05255 1 0.996489
0.999803 1 1.00059 0.999216
1.00663 1.00892 1.00007 0.997664
1.0266 1.03003 1 0.996666
1.04528 1.04892 1 0.996528
1.05281 1.0571 0.999226 0.996714
1.04542 1.04904 1 0.996551
1.03975 1.04358 1 0.996326
1.04308 1.04658 1 0.996655
1.00271 1.0009 1.00378 0.998035
1.00484 1.00098 1.00629 0.997583
1.0059 1 1.00734 0.998575
1.04938 1.05309 1 0.996472
1.04992 1.05377 0.999797 0.996552
1.05526 1.06117 0.997674 0.996756
1.05382 1.05854 0.998886 0.996652
1.00145 1.00283 1.00077 0.997859
1.01528 1.01844 1 0.996897
1.03074 1.03458 1.00003 0.996257
1.04884 1.05258 0.999844 0.996603
1.04699 1.05516 0.995233 0.997015
1.03972 1.04358 1 0.996303
1.04498 1.0487 0.999642 0.99681
1.03791 1.04111 0.999966 0.99696
1.00165 1.00303 1.00117 0.997457
1.00358 1.00354 1.00277 0.997273
1.00401 1 1.00516 0.998859
1.00812 1 1.01035 0.997784
1.05531 1.06134 0.997563 0.99675
1.05626 1.06171 0.998156 0.996702
1.04675 1.05622 0.994086 0.996928
1.04582 1.05694 0.992412 0.997042
1.04605 1.05125 0.998096 0.996947
1.04421 1.05449 0.993027 0.997196
1.00447 1.00727 1 0.997218
1.03827 1.04413 0.997205 0.997174
1.01871 1.02232 1 0.996463
1.0295 1.03342 1.00018 0.996031
1.0404 1.04423 1 0.996332
1.03892 1.04206 1 0.996991
1.00044 1 1.00134 0.999105
1.00961 1 1.01159 0.998042
1.00271 1.00558 1 0.997151
1.00486 1.00096 1.00645 0.997453
1.0046 1.00514 1.00231 0.997158
0.999955 1 1 0.999955
1.04858 1.05241 1 0.996358
1.00206 1 1.00305 0.999013
1.00315 1.0002 1.00478 0.998184
1.00494 1.00005 1.00703 0.997881
1.03884 1.0425 1 0.996495
1.04654 1.05036 1 0.996355
1.00447 1.00689 1.00051 0.997094
1.02504 1.02676 1.00193 0.996403
1.03465 1.03824 1 0.996544
1.0383 1.04184 1 0.996602
0.999973 1 1 0.999973
1.00043 1 1.00112 0.999311
1.00164 1.00278 1.00134 0.99753
1.00764 1 1.0094 0.998259
1.00244 1.00124 1.00363 0.997582
1.05214 1.05592 1 0.996423
1.04089 1.04463 1 0.996421
1.04236 1.04603 1 0.996489
1.01101 1.01221 1.00213 0.996696
1.03641 1.04 1 0.996551
1.02229 1.02516 1.00096 0.996235
0.999614 1 1.00013 0.999484
1.00295 1 1.00433 0.998633
1.00122 1.00358 1.00048 0.997176
1.00844 1.00126 1.00931 0.99789
1.0031 1.00353 1.00203 0.997535
1.04928 1.05298 0.999846 0.996639
1.03661 1.04026 1 0.996498
1.04193 1.04537 0.999992 0.996714
1.00408 1.00378 1.00379 0.996523
1.02026 1.02417 1 0.996183
0.999583 1 1 0.999583
0.998959 1 1 0.998959
0.999051 1 1.00003 0.999017
0.998792 1 1.00003 0.99876
0.999089 1 1.00002 0.99907
0.999696 1 1 0.999696
0.999674 1 1 0.999674
0.999996 1 1 0.999996
0.999635 1 1 0.999635
0.999992 1 1 0.999992
1 1 1 1
0.999988 1 1 0.999988
1 1 1 1
1 1 1 1
0.99995 1 1 0.99995
1.0003 1 1.00047 0.999834
1 1 1 1
1 1 1 1
1.0015 1 1.00182 0.999682
1 1 1 1
1.05187 1.05567 1 0.996399
1.05277 1.0565 1 0.996468
1.05855 1.06267 0.999448 0.996669
1.05637 1.06363 0.996344 0.996813
1.05022 1.05397 1 0.996443
1.01634 1.01961 1 0.996786
1.04956 1.05332 1 0.996435
1.05562 1.06255 0.996674 0.996795
1.05758 1.06336 0.997811 0.996746
1.05094 1.06068 0.993753 0.997043
1.05622 1.0599 0.99997 0.996552
1.05269 1.06227 0.993921 0.997042
1.05564 1.06217 0.997067 0.99677
1.04949 1.05952 0.993523 0.996988
1.05179 1.06216 0.993131 0.997084
1.05116 1.06389 0.990848 0.997165
1.05341 1.05896 0.997892 0.996858
1.05067 1.06433 0.989893 0.997248
1.04935 1.05309 1 0.996451
1.04997 1.0538 0.999817 0.99655
1.0548 1.06098 0.997365 0.996801
1.05341 1.05818 0.998857 0.996633
1.00263 1.00383 1.00095 0.997857
1.01491 1.01807 1 0.996893
1.02886 1.0325 1.00018 0.996297
1.04902 1.05264 1 0.996568
1.04673 1.05533 0.994765 0.997065
1.04504 1.04877 0.999633 0.996813
1.04033 1.04423 1 0.996265
1.03809 1.04122 0.999998 0.996996
1.00321 1.00397 1.00179 0.997457
1.00371 1.00358 1.0029 0.997238
1.00431 1 1.00546 0.998856
1.0073 1 1.00949 0.997825
1.05524 1.06129 0.997546 0.99675
1.05579 1.06108 0.99833 0.996682
1.0469 1.05643 0.994001 0.99696
1.04673 1.05721 0.993041 0.997024
1.00518 1.008 1 0.99721
1.01713 1.02067 1.00003 0.996504
1.02936 1.03307 1.00039 0.99602
1.04638 1.05117 0.998538 0.996896
1.04305 1.05369 0.992626 0.997253
1.03654 1.04037 1 0.996318
1.03917 1.04495 0.997284 0.997175
1.03975 1.04282 1 0.997052
1.00245 1.00532 1 0.997151
1.00412 1.0053 1.00168 0.997152
1.00601 1.00129 1.00728 0.997448
1.00104 1 1.00197 0.99907
1.00926 1 1.0112 0.998084
1.04795 1.05831 0.993219 0.996974
1.04796 1.05883 0.992707 0.997001
1.04379 1.05855 0.988786 0.997238
1.03946 1.05049 0.992219 0.997259
1.00798 1.01114 1 0.996874
1.04335 1.04939 0.996892 0.99735
1.01035 1.0139 1.00029 0.996217
1.02493 1.0287 1.00051 0.995837
1.03285 1.03667 1 0.99632
0.999527 1 1.00022 0.999303
1.00605 1 1.00764 0.998423
1.00678 1 1.00901 0.997786
1.00346 1.00646 1 0.997022
1.00484 1.0013 1.0064 0.997151
1.0055 1.0064 1.00212 0.996998
0.999978 1 1 0.999978
0.999876 1 1.00055 0.999321
1.05198 1.05576 1 0.996417
1.00901 1 1.01077 0.998257
0.999583 1.00131 1.00074 0.997534
1.00248 1.00102 1.0039 0.997561
1.04053 1.04427 1 0.996419
1.04237 1.04605 1 0.996478
1.01082 1.01185 1.00229 0.996699
1.02144 1.02448 1.00077 0.996259
1.03903 1.04264 1 0.996543
0.999501 1 1.00001 0.99949
1.00326 1 1.00463 0.998637
1.00212 1.00454 1.00041 0.997171
1.0094 1.001 1.01052 0.997883
1.00336 1.00409 1.00174 0.997534
1.04893 1.05256 0.999912 0.996632
1.03738 1.04103 1 0.996486
1.04207 1.0455 0.999973 0.99674
1.00512 1.00541 1.00324 0.996486
1.01891 1.02279 1.00006 0.996154
0.999653 1 1.00077 0.998887
1.00932 1 1.01114 0.998195
1.00316 1.00414 1.002 0.997032
1.00898 1.00406 1.00726 0.997659
1.01111 1.01275 1.001 0.997396
1.04566 1.05249 0.996375 0.99713
1.03747 1.04123 1 0.996389
1.04025 1.04367 0.999993 0.996724
1.00712 1.00641 1.00433 0.996381
1.00899 1.01308 1 0.995963
0.999586 1 1 0.999586
0.998978 1 1 0.998978
0.99869 1 1 0.99869
0.999008 1 1.00002 0.998991
0.999077 1 1.00001 0.999068
0.998894 1 1.00016 0.998732
0.998911 1 1.00025 0.998657
0.999185 1 1.00051 0.998671
0.999095 1 1 0.999095
0.99969 1 1 0.99969
0.999696 1 1 0.999696
0.999999 1 1 0.999999
0.999676 1 1 0.999676
0.999997 1 1 0.999997
1 1 1 1
0.999994 1 1 0.999994
1 1 1 1
1 1 1 1
0.99999 1 1 0.99999
0.999932 1 1 0.999932
1 1 1 1
1.00076 1 1.00095 0.999813
1 1 1 1
1 1 1 1
1.05692 1.06058 0.999996 0.996545
1.05787 1.0636 0.997857 0.996746
1.05288 1.06213 0.994218 0.997064
1.05021 1.06049 0.993215 0.997073
1.05548 1.06234 0.996746 0.996789
1.04972 1.05348 1 0.996436
1.05557 1.06195 0.997227 0.996751
1.05006 1.0597 0.993905 0.996981
1.05099 1.06151 0.993005 0.997069
1.04996 1.0634 0.990157 0.997176
1.0531 1.05837 0.99816 0.99686
1.04853 1.06293 0.98913 0.997287
1.05014 1.05943 0.994258 0.996963
1.05118 1.06501 0.989823 0.997162
1.05144 1.06591 0.989135 0.997262
1.04546 1.0602 0.988751 0.99731
1.05523 1.06129 0.997531 0.996749
1.05541 1.06054 0.998494 0.996663
1.04708 1.05666 0.993926 0.996993
1.04774 1.0576 0.993648 0.997007
1.00655 1.00937 1 0.997202
1.01642 1.01994 1 0.996545
1.02928 1.0328 1.00058 0.996009
1.04669 1.05113 0.998927 0.996846
1.04181 1.05286 0.992176 0.997309
1.04038 1.04611 0.997336 0.997176
1.03365 1.03749 1 0.996302
1.04208 1.0451 1 0.997113
1.00193 1.00479 1 0.997151
1.00402 1.0062 1.00069 0.997145
1.00731 1.00133 1.00856 0.997442
1.00149 1 1.00245 0.999035
1.00902 1 1.01091 0.998126
1.04824 1.05855 0.993262 0.996976
1.04852 1.05947 0.992652 0.996997
1.04374 1.05777 0.989474 0.997229
1.00762 1.01078 1 0.99687
1.01094 1.01448 1.00026 0.996258
1.02332 1.02683 1.00076 0.995825
1.03988 1.05053 0.992602 0.997245
1.03634 1.04005 1 0.996432
1.03974 1.04602 0.996671 0.997317
0.999539 1 1.0002 0.999342
1.00356 1.00649 1.00007 0.997014
1.00338 1.00516 1.00111 0.997119
1.00728 1.00257 1.00758 0.997143
1.00716 1 1.00937 0.997811
1.00606 1 1.00768 0.998388
1.04956 1.06297 0.990302 0.997052
1.04762 1.06565 0.985874 0.997166
1.03755 1.05637 0.98483 0.997319
1.03705 1.05305 0.987314 0.99746
1.0071 1.01046 1 0.996679
1.03525 1.03943 0.999059 0.996915
1.00488 1.00744 1.00165 0.995817
1.01354 1.01688 1.00104 0.995675
0.999603 1 1 0.999603
1.00123 1 1.00249 0.998746
1.00614 1 1.00808 0.998081
1.00667 1 1.00936 0.99734
1.00325 1.00491 1.00151 0.996851
1.00827 1.00303 1.00843 0.996826
0.999496 1 1 0.999496
1.00364 1 1.00501 0.998642
1.04876 1.05233 0.999979 0.996626
1.01013 1.00064 1.01163 0.997877
1.00306 1.00564 1.00027 0.997165
1.00297 1.00393 1.00152 0.997532
1.03832 1.04199 1 0.996473
1.04233 1.04575 0.99996 0.996765
1.00663 1.00746 1.00273 0.996449
1.01757 1.02125 1.00027 0.996125
0.999541 1 1.00065 0.99889
1.00957 1 1.01141 0.998182
1.00372 1.00471 1.00198 0.99704
1.00816 1.00386 1.00664 0.997663
1.01198 1.01407 1.00048 0.997465
1.04713 1.05403 0.996265 0.997176
1.03698 1.04071 1 0.996414
1.04146 1.04483 0.999968 0.996799
1.0073 1.00638 1.00458 0.996348
1.0091 1.01323 1.00003 0.995889
1.00063 1 1.00207 0.998564
1.00935 1.00052 1.01104 0.997814
1.00939 1.00867 1.00378 0.996941
1.01 1.01113 1.00161 0.997281
1.04378 1.06917 0.978768 0.99743
1.04124 1.04621 0.998044 0.997201
1.02465 1.02869 1 0.996077
1.01198 1.01177 1.00426 0.995968
0.998996 1 1 0.998996
0.998725 1 1.00002 0.998702
0.998667 1 1 0.998667
0.999136 1 1.00007 0.999067
0.999005 1 1.0003 0.998705
0.999102 1 1.00001 0.999092
0.998791 1 1.00013 0.998666
0.999333 1 1.00065 0.998681
0.998723 1 1 0.998723
0.999655 1 1.00113 0.998525
0.99943 1 1.0008 0.998634
0.999075 1 1 0.999075
0.999659 1 1 0.999659
0.999689 1 1 0.999689
1 1 1 1
0.999696 1 1 0.999696
0.999999 1 1 0.999999
1 1 1 1
0.999998 1 1 0.999998
1 1 1 1
1 1 1 1
1 1 1 1
0.999982 1 1 0.999982
1 1 1 1
0.999914 1 1 0.999914
1 1 1 1
1 1 1 1
1.05271 1.05769 0.998427 0.996861
1.05031 1.06098 0.99287 0.997053
1.04648 1.06162 0.988386 0.997326
1.0488 1.06298 0.989447 0.997187
1.05065 1.0599 0.994282 0.996974
1.05545 1.06169 0.997381 0.996732
1.04992 1.0593 0.994164 0.996963
1.05104 1.06468 0.990008 0.997153
1.05002 1.06507 0.988576 0.99726
1.04663 1.06108 0.989035 0.99732
1.05226 1.06499 0.990918 0.997107
1.05282 1.07163 0.98509 0.997314
1.05138 1.07169 0.98363 0.997378
1.04851 1.05879 0.993294 0.996978
1.04903 1.06003 0.992608 0.996992
1.0438 1.057 0.990261 0.997221
1.00736 1.01053 1 0.996866
1.01083 1.01441 1.00018 0.996298
1.02134 1.02477 1.00085 0.995813
1.04037 1.05061 0.993001 0.997232
1.03554 1.04224 0.996272 0.997284
1.03856 1.04217 1 0.996544
1.0028 1.00537 1.00044 0.997006
0.99919 1.00193 1.00002 0.997241
1.00891 1.00341 1.00837 0.997135
0.999574 1 1.00019 0.99938
1.00665 1 1.00883 0.997835
1.0063 1 1.00796 0.998353
1.05035 1.06349 0.99056 0.99706
1.04694 1.06537 0.98549 0.997172
1.03779 1.05606 0.985347 0.997311
1.00442 1.00778 1 0.996671
1.00487 1.0076 1.0014 0.995893
1.01372 1.01712 1.0009 0.995758
1.03729 1.05273 0.987838 0.997463
1.03196 1.0369 0.998339 0.996895
0.999668 1 1 0.999668
1.00128 1 1.00254 0.998744
1.00064 1.00333 1.00043 0.996897
1.0103 1.00235 1.01099 0.996979
1.00614 1.00021 1.00856 0.997388
1.00599 1 1.00797 0.998043
1.05019 1.0693 0.984847 0.997235
1.03894 1.06668 0.976653 0.997273
1.03463 1.05625 0.981975 0.997506
1.02746 1.04082 0.989677 0.997466
1.00245 1.00477 1.00133 0.996378
1.01472 1.01733 1.0014 0.996036
1.00568 1.00746 1.00264 0.995607
0.999832 1 1 0.999832
0.999321 1 1 0.999321
0.999227 1 1.00019 0.999035
1.00192 1 1.00366 0.998269
1.00714 1 1.00946 0.997696
1.00901 1.00024 1.01166 0.997144
0.999743 1.00192 1.00084 0.996995
1.0336 1.00114 1.03528 0.997239
0.999412 1 1.00052 0.998893
1.01013 1 1.01198 0.998169
1.04863 1.05557 0.996192 0.997223
1.00863 1.00466 1.0063 0.997668
1.00448 1.00529 1.00215 0.997049
1.01267 1.01514 1.00004 0.997535
1.03627 1.03997 1 0.996439
1.04257 1.0459 0.999936 0.996874
1.0074 1.00627 1.00482 0.996316
1.00892 1.01316 1 0.995816
1.00114 1 1.00262 0.998528
1.00841 1.00019 1.01042 0.99782
1.01187 1.01075 1.00415 0.996967
1.00938 1.01066 1.00142 0.997316
1.04579 1.07144 0.978553 0.997449
1.04256 1.04704 0.998564 0.997149
1.02433 1.02831 1 0.996127
1.01352 1.01386 1.00377 0.995915
1.00226 1 1.00395 0.998322
1.04782 1.07593 0.976359 0.997455
1.00267 1.00037 1.00485 0.997461
1.0115 1.01212 1.00268 0.996719
1.03711 1.05737 0.983245 0.997555
1.02138 1.02531 0.999941 0.996218
1.00993 1.01101 1.00323 0.995706
0.998714 1 1 0.998714
0.998653 0.999998 1 0.998656
0.998862 1 1.00012 0.998745
0.999091 1 1 0.999091
0.99944 1 1.00075 0.998692
0.998823 1 1.00015 0.998675
0.999072 1 1 0.999072
0.999515 1 1.00088 0.998639
0.998738 1 1 0.998738
0.999334 1 1.00079 0.998541
0.998815 1 1 0.998815
0.998754 1 1.00014 0.998614
0.999734 1 1.00133 0.998405
0.998607 1 1.00003 0.998574
0.999004 1 1 0.999004
0.999618 1 1 0.999618
0.999655 1 1 0.999655
1 1 1 1
0.999687 1 1 0.999687
1 1 1 1
1 1 1 1
1 1 1 1
1 1 1 1
1 1 1 1
0.999858 1 1 0.999858
1 1 1 1
0.999998 1 1 0.999998
1 1 1 1
0.999974 1 1 0.999974
1 1 1 1
1 1 1 1
1.04775 1.06195 0.989276 0.997331
1.04857 1.06415 0.988068 0.997259
1.05088 1.06431 0.990209 0.997144
1.04969 1.05916 0.994077 0.996963
1.0519 1.06489 0.99065 0.997126
1.05261 1.07105 0.985439 0.997305
1.04917 1.06942 0.983641 0.997386
1.05239 1.07153 0.9848 0.997295
1.06243 1.08324 0.983346 0.997404
1.05582 1.08028 0.979641 0.997669
1.05111 1.06397 0.990822 0.997067
1.04619 1.06511 0.985023 0.997178
1.03793 1.05576 0.985766 0.997303
1.00371 1.00701 1.00006 0.996665
1.00557 1.00836 1.00126 0.995972
1.0163 1.01975 1.00078 0.995842
1.03755 1.05221 0.98857 0.997467
1.0289 1.03427 0.997925 0.996874
1.00116 1.00369 1.00054 0.996943
1.01381 1.00301 1.01367 0.997129
1.007 1.00051 1.00908 0.997435
0.999733 1 1 0.999733
1.00118 1 1.00244 0.998742
1.00599 1 1.008 0.998005
1.05006 1.06961 0.98444 0.997245
0.999826 1 1 0.999826
0.999286 1 1 0.999286
1.03965 1.06586 0.978069 0.997275
1.03297 1.05511 0.981492 0.997475
1.00321 1.00489 1.00187 0.996463
1.00583 1.00693 1.00332 0.995602
1.01533 1.01866 1.0007 0.996026
1.02638 1.04037 0.989089 0.99744
0.999336 1 1.00022 0.999118
1.0019 1 1.00365 0.998261
1.00143 1.00183 1.00272 0.996889
1.02898 1.0012 1.03044 0.997396
1.0073 1.00022 1.00995 0.997161
1.00654 1 1.00885 0.997712
1.05968 1.08281 0.981231 0.997359
1.02025 1.0642 0.961197 0.99741
1.02228 1.04747 0.978251 0.997656
1.00825 1.02165 0.989696 0.997159
1.00515 1.0027 1.00591 0.996558
1.0054 1.00432 1.0055 0.995596
0.999249 1 1 0.999249
0.999284 1 1 0.999284
0.998984 1 1 0.998984
0.998685 1 1.00022 0.998463
1.00497 1 1.00698 0.998007
1.00561 1.00016 1.00811 0.997356
1.04844 1 1.05141 0.997179
1.00153 1.00049 1.00348 0.997567
1.00168 1 1.0032 0.998492
1.00713 1 1.00932 0.997827
1.04705 1.07268 0.978582 0.997469
1.04342 1.04748 0.999016 0.997097
1.00865 1.01016 1.00115 0.997352
1.01457 1.01316 1.00441 0.996992
1.02434 1.02823 1.00004 0.996177
1.01539 1.01621 1.00335 0.995862
1.00243 1 1.00413 0.998304
1.05063 1.07937 0.975802 0.997513
1.00338 1.00026 1.00565 0.997489
1.00968 1.01035 1.00269 0.996658
1.03597 1.05644 0.983055 0.997529
1.02045 1.02429 0.999953 0.996301
1.01105 1.01187 1.00348 0.995723
1.00544 1 1.00745 0.998001
1.01397 1.04772 0.969782 0.997939
1.00418 1.00316 1.00384 0.99719
1.00473 1.00474 1.00379 0.996212
1.0176 1.02925 0.991559 0.997098
1.00257 1.00444 1.00221 0.995927
0.97673 1.00346 0.975981 0.997312
0.998566 0.99989 1.00003 0.998645
0.999177 0.99954 1.00089 0.998745
0.999436 1 1.00077 0.998668
0.999069 1 1 0.999069
0.99981 1 1.00117 0.998645
0.998913 1 1.00036 0.998557
0.998754 1 1 0.998754
0.999003 1 1 0.999003
0.998738 1 1.00017 0.998566
0.998781 1 1 0.998781
0.99959 1 1.00119 0.998406
0.998728 1 1.00013 0.998595
0.99886 1 1.00009 0.99877
0.998774 1 1.00055 0.998225
1.00052 1 1.00215 0.998379
0.998531 1 1.00008 0.998452
0.998862 1 1 0.998862
0.999167 1 1.00053 0.998632
0.998873 1 1.00004 0.998831
0.999598 1 1 0.999598
0.999615 1 1 0.999615
1 1 1 1
0.999652 1 1 0.999652
1 1 1 1
1 1 1 1
1 1 1 1
1 1 1 1
1 1 1 1
0.999885 1 1 0.999885
0.999859 1 1 0.999859
1 1 1 1
1 1 1 1
1 1 1 1
0.999996 1 1 0.999996
1 1 1 1
1 1 1 1
1.04722 1.06751 0.98355 0.997394
1.05228 1.07047 0.985666 0.997296
1.05159 1.06485 0.990382 0.997145
1.05238 1.07144 0.984872 0.997293
1.05995 1.08095 0.983133 0.997401
1.05497 1.07841 0.980623 0.997594
1.06441 1.08945 0.97949 0.99747
0.972898 1.01605 0.961764 0.995594
1.01401 1.04647 0.970564 0.99837
0.99939 1 1 0.99939
1.04995 1.0699 0.984054 0.997256
1.04047 1.06509 0.979552 0.997276
1.03124 1.05407 0.980849 0.997445
1.00009 1.00273 1.00082 0.996545
1.00455 1.00496 1.00402 0.995595
1.01449 1.01838 1.00017 0.996017
1.02515 1.03993 0.988335 0.997414
0.998874 1.00199 1.0001 0.996787
1.02202 1.00028 1.02424 0.997557
1.0053 1 1.00814 0.997179
0.999822 1 1 0.999822
1.00723 1 1.00952 0.997728
0.999442 1 1.00024 0.9992
1.00193 1 1.00369 0.998252
0.999251 1 1 0.999251
1.05626 1.08303 0.977861 0.997366
0.999293 1 1 0.999293
0.999284 1 1 0.999284
0.998802 1.00003 0.99982 0.998948
1.0247 1.06462 0.965003 0.997408
1.02269 1.04768 0.978483 0.997609
1.00166 1.00209 1.00299 0.996587
1.00901 1.00774 1.00556 0.995719
1.00731 1.01944 0.990932 0.997142
0.998801 1 1.00028 0.998518
1.00507 1 1.00712 0.997957
1.00764 1.00031 1.0099 0.997455
1.03847 1.00005 1.04133 0.997205
1.00482 1.00017 1.00726 0.997404
1.03745 1.0715 0.970672 0.997472
1.00278 1.05411 0.953631 0.997563
1.01489 1.03057 0.987443 0.997311
0.991795 1.00801 0.986971 0.996899
1.00361 1 1.00643 0.997192
0.998821 1 1 0.998821
0.998758 1 1 0.998758
0.999871 1 1.00118 0.998688
1.00504 1 1.0068 0.99825
1.00781 1 1.00999 0.997842
1.03599 0.999825 1.03883 0.99744
1.03025 1.00166 1.03113 0.997494
1.00237 1 1.00409 0.998285
1.00373 1 1.00623 0.997518
1.05255 1.08365 0.97367 0.997568
1.03538 1.05633 0.982624 0.997503
1.0199 1.02366 0.999944 0.996383
1.00754 1.00828 1.00268 0.996596
1.01181 1.01249 1.0036 0.995739
1.00491 1 1.00688 0.998042
1.01339 1.04811 0.968829 0.997978
1.00148 1.00202 1.00227 0.997201
1.00386 1.00358 1.00408 0.996214
1.01673 1.02939 0.990462 0.997214
1.00305 1.00442 1.00273 0.99592
0.976467 1.00345 0.976686 0.996336
1.00559 1.00065 1.00706 0.997891
1.00282 1.02397 0.981379 0.997922
1.0005 1.00137 1.00208 0.997067
1.00435 1.00147 1.00644 0.996459
0.992251 1.00605 0.989283 0.996965
0.916892 0.977533 0.961585 0.975438
0.91418 0.969319 0.955207 0.987341
0.969813 0.984806 0.987294 0.99745
0.735972 0.841084 0.918823 0.952335
0.65633 0.804166 0.870136 0.937971
0.999156 0.999059 1.00135 0.998745
1.00036 0.999359 1.00229 0.998721
0.999987 1 1.00128 0.998705
0.999003 1 1 0.999003
0.998602 1 1.00004 0.998559
0.999254 1 1.00085 0.998407
0.99868 1 1.0001 0.998577
0.998747 1 1 0.998747
1.00117 1 1.00282 0.998355
0.998896 1 1 0.998896
0.998504 1 1.00003 0.998472
0.998925 1 1.0002 0.998727
0.999072 1 1.00081 0.998268
1.00235 1 1.00408 0.99828
1.00296 1 1.00458 0.998391
1.00187 1 1.00359 0.998289
0.998874 1 1.0005 0.998378
0.998827 1 1 0.998827
0.998759 1 1.00029 0.998467
0.998972 1 1.0005 0.998472
0.998999 1 1.00034 0.998657
0.999231 1 1.00064 0.998593
0.998948 1 1 0.998948
0.998914 1 1.00009 0.998828
0.999592 1 1 0.999592
0.999597 1 1 0.999597
1 1 1 1
0.999612 1 1 0.999612
1 1 1 1
1 1 1 1
1 1 1 1
1 1 1 1
1 1 1 1
0.999916 1 1 0.999916
0.999882 1 1 0.999882
1 1 1 1
0.999859 1 1 0.999859
1 1 1 1
1 1 1 1
1 1 1 1
1 1 1 1
1 1 1 1
1.05711 1.07834 0.98287 0.997398
1.05242 1.07137 0.984985 0.997291
1.05458 1.07682 0.981781 0.99752
0.974032 1.01587 0.962988 0.99567
1.06135 1.08677 0.97909 0.997469
1.02641 1.04999 0.979265 0.998241
1.04455 1.06174 0.986177 0.997598
0.92908 0.980236 0.960829 0.986453
0.992082 1.01935 0.976688 0.996478
0.999412 1 1 0.999412
0.999386 1 1 0.999386
0.998933 1 1 0.998933
0.999026 1 1 0.999026
1.05386 1.08326 0.975418 0.997374
1.02873 1.06448 0.968927 0.997407
1.02312 1.04767 0.978954 0.997562
1.00047 1.00091 1.00296 0.996616
1.01361 1.0125 1.00527 0.995841
1.00654 1.01767 0.991916 0.997124
1.01762 1 1.02034 0.997341
1.03098 1.00008 1.03375 0.99723
1.00317 1.00008 1.00565 0.997453
0.999283 1 1 0.999283
1.00343 1 1.00553 0.997909
0.998861 1 1.00029 0.998574
0.999338 1 1 0.999338
0.998923 1.00007 0.999941 0.998912
1.03521 1.07143 0.968628 0.997487
0.998859 1 1 0.998859
0.998824 1.00003 0.999971 0.998819
0.999478 0.999964 1.00067 0.998845
1.00819 1.05686 0.956284 0.997554
1.01447 1.03057 0.987032 0.99731
1.00377 1.0006 1.00602 0.997174
0.994857 1.00815 0.989813 0.996972
1.00345 1 1.00527 0.998191
1.00703 1 1.00932 0.997731
1.03697 1.00158 1.03795 0.997474
1.03645 1.00017 1.03901 0.997362
0.996282 1.04511 0.955507 0.997673
0.995267 1.03475 0.964209 0.997551
1.00532 1.01193 0.99648 0.996978
0.983675 1.00094 0.984844 0.99787
1.00024 1 1.0017 0.998543
1.00152 1 1.00309 0.998429
1.01395 0.999808 1.01594 0.998235
1.05649 1.00002 1.0591 0.997505
0.894235 0.968206 0.949833 0.972381
1.00522 1 1.00715 0.998083
0.999296 1.0009 1.00119 0.997211
1.01425 1.0482 0.969541 0.998018
1.01594 1.02898 0.98997 0.99733
1.00347 1.00428 1.0033 0.99591
1.00343 1.00276 1.00447 0.996215
0.976903 1.00474 0.97685 0.995332
1.00421 1.00022 1.00605 0.997948
1.00242 1.02508 0.979941 0.997907
1.00027 1.00143 1.00176 0.997083
1.00457 1.00201 1.00611 0.996462
0.995878 1.00713 0.99184 0.99696
0.914936 0.983931 0.956241 0.972429
0.907569 0.966036 0.954205 0.984566
0.973672 0.985473 0.990524 0.997477
0.732875 0.836587 0.918877 0.953371
0.642343 0.793979 0.866727 0.933416
1.00182 0.999844 1.00386 0.998125
0.764002 0.857321 0.932373 0.955788
0.693824 0.810645 0.911409 0.939085
0.987988 1.00616 0.983994 0.997907
1.00763 1.00155 1.00852 0.997567
1.01328 1.00499 1.01096 0.997324
0.963972 0.977287 0.988592 0.997759
0.898066 0.958106 0.962734 0.973616
0.880502 0.939476 0.953509 0.982925
0.724083 0.836475 0.905262 0.956226
0.713946 0.857373 0.888943 0.936745
1.00201 0.998973 1.00427 0.998773
1.00104 0.999612 1.00276 0.998678
1.00456 1 1.00572 0.998841
0.998931 1 1 0.998931
0.998493 1 1 0.998493
1.00179 1 1.00346 0.998332
0.999622 1 1.00131 0.99831
0.998684 1 1 0.998684
0.998828 1 1 0.998828
1.00268 1 1.00442 0.998266
1.00223 1 1.00394 0.998298
0.998558 1 1.00014 0.998417
1.0032 1 1.00479 0.998419
1.00492 1 1.00659 0.998346
1.01233 1 1.01382 0.998528
1.00067 1 1.00245 0.998222
0.998895 1 1.00046 0.998432
0.998542 1 1.00008 0.998462
0.999343 1 1.00086 0.998481
0.99961 1 1.00132 0.998293
0.999281 1 1.00077 0.998516
1.00094 1 1.00244 0.998506
1.00508 1 1.00679 0.998301
0.999835 1 1.00122 0.998618
0.998906 1 1.00025 0.998658
0.998986 1 1 0.998986
0.999011 1 1.00046 0.998553
0.99892 1 1 0.99892
0.99958 1 1 0.99958
0.998904 1 1.00008 0.998825
0.999593 1 1 0.999593
0.999999 1 1 0.999999
0.999597 1 1 0.999597
1 1 1 1
1 1 1 1
1 1 1 1
1 1 1 1
1 1 1 1
0.999365 1 1 0.999365
0.999922 1 1 0.999922
0.999912 1 1 0.999912
1 1 1 1
0.999879 1 1 0.999879
1 1 1 1
1 1 1 1
1 1 1 1
1 1 1 1
1 1 1 1
0.975898 1.01563 0.964979 0.99575
1.05908 1.08386 0.979614 0.997469
1.03393 1.0532 0.983561 0.99811
0.922029 0.974215 0.958329 0.987587
0.991494 1.0191 0.976178 0.996654
1.04385 1.06564 0.981953 0.997552
1.00296 1.02788 0.978925 0.996759
0.936512 0.975244 0.971 0.988965
0.915296 0.977291 0.962297 0.973259
0.733814 0.838849 0.914952 0.956101
0.622058 0.762793 0.87022 0.93712
0.998971 1 1 0.998971
0.99941 1 1 0.99941
0.999382 1 1 0.999382
0.998927 1 1 0.998927
0.998701 1 1 0.998701
0.998713 1 1 0.998713
0.998897 1 1 0.998897
0.998985 1 1 0.998985
1.03167 1.07178 0.964985 0.997501
1.0141 1.06079 0.958343 0.997545
1.01402 1.03065 0.986515 0.997309
1.00322 1.00174 1.00434 0.997157
0.99745 1.00774 0.992724 0.997045
1.04053 1.00103 1.04211 0.997452
1.03633 1.0007 1.03842 0.997285
1.00777 1 1.01017 0.997622
0.998587 1.00007 0.999641 0.99888
1.0035 1 1.00538 0.99813
0.998899 1 1 0.998899
0.999002 1 1 0.999002
0.99518 1.04584 0.953761 0.99769
1.00016 1 1.0016 0.998558
1.00187 1 1.00339 0.99848
0.993437 1.03322 0.963886 0.997525
1.00248 1.0124 0.993064 0.997119
0.985785 1.0012 0.986825 0.997747
1.02266 1.00007 1.02461 0.998026
1.05245 1.00135 1.05363 0.997537
0.978897 1.02753 0.954929 0.997631
0.98708 1.0108 0.978936 0.997545
0.976794 1.00166 0.977537 0.997585
0.987062 1.00118 0.987848 0.998031
1.00486 1 1.00673 0.998133
1.01128 1 1.01308 0.998216
1.05018 1 1.05244 0.997853
0.766953 0.866789 0.923938 0.957662
0.911908 0.975799 0.95709 0.976422
1.0017 0.999654 1.00406 0.998004
0.999958 1.00128 1.00158 0.9971
1.00216 1.02652 0.978328 0.997892
0.998963 1.00864 0.993432 0.996957
1.00491 1.00275 1.00571 0.996469
0.912286 0.974797 0.961188 0.973664
0.912128 0.973364 0.951185 0.985179
0.975169 0.984219 0.993287 0.9975
0.738064 0.838358 0.919886 0.95704
0.629598 0.783983 0.864714 0.928719
1.00104 0.999755 1.00317 0.998126
0.764553 0.864393 0.924641 0.956583
0.67917 0.797053 0.909852 0.936527
0.987924 1.0072 0.982923 0.997903
1.00772 1.00198 1.00816 0.997586
1.01147 1.0033 1.0107 0.997475
0.957047 0.971323 0.987341 0.997936
0.908933 0.970075 0.964959 0.970996
0.876485 0.936515 0.949752 0.985416
0.73021 0.834444 0.916993 0.954299
0.713268 0.86362 0.882606 0.935757
1.0032 1 1.00458 0.998625
0.724963 0.822915 0.937169 0.940033
0.796786 0.89625 0.938109 0.947674
0.987206 0.995105 0.993389 0.998665
1.01496 1.00258 1.01377 0.998594
0.965967 0.962854 1.00568 0.997568
0.887396 0.926563 0.970679 0.986658
0.863598 0.924993 0.962956 0.969542
0.734529 0.828881 0.92771 0.955222
0.763287 0.906563 0.895661 0.94004
1.002 0.999356 1.00399 0.998654
1.00363 1 1.00484 0.9988
1.00652 0.999457 1.008 0.999074
0.998829 1 1 0.998829
0.998457 1 1 0.998457
1.00296 1 1.00466 0.998307
1.00326 1 1.00502 0.998253
1.00318 1 1.00474 0.998446
0.998802 1 1.00037 0.998431
1.00353 1 1.00522 0.998323
1.00072 1 1.0025 0.998224
1.01187 0.999843 1.01347 0.998587
1.03143 0.99882 1.03359 0.999094
1.0068 1 1.00846 0.998358
1.00005 1 1.00188 0.998181
0.998494 1 1.00004 0.998458
0.999781 1 1.00129 0.998489
1.00001 1 1.00173 0.998285
0.999634 1 1.00113 0.998504
0.99976 1 1.00117 0.998596
1.0029 1 1.00447 0.998443
1.0019 1 1.00351 0.998398
1.00209 0.999824 1.00366 0.998611
0.999151 1 1.00079 0.998363
0.998804 1.00013 1.00093 0.997746
1.00428 1 1.00609 0.998199
1.00423 1 1.00594 0.998302
1.00383 1 1.00533 0.998501
1.00055 1 1.00193 0.998615
0.998965 1 1 0.998965
0.999101 1 1.00044 0.99866
0.998987 1 1 0.998987
0.99957 1 1 0.99957
0.998891 1 1 0.998891
0.999583 1 1 0.999583
0.999995 1 1 0.999995
0.999595 1 1 0.999595
0.999999 1 1 0.999999
1 1 1 1
1 1 1 1
1 1 1 1
1 1 1 1
0.999372 1 1 0.999372
0.999899 1 1 0.999899
0.999367 1 1 0.999367
1 1 1 1
0.999922 1 1 0.999922
0.999909 1 1 0.999909
1 1 1 1
1 1 1 1
1 1 1 1
1 1 1 1
1 1 1 1
0.757845 0.855246 0.929498 0.953325
0.684958 0.805682 0.906108 0.938254
0.922472 0.977011 0.955528 0.988122
0.993084 1.01902 0.977642 0.996837
1.04623 1.06964 0.980555 0.997507
0.918732 0.95848 0.967862 0.990359
1.00353 1.0271 0.980079 0.996913
0.927578 0.98946 0.962192 0.974295
0.73188 0.840518 0.913479 0.953223
0.624168 0.773215 0.865644 0.932528
0.951164 0.996139 0.961784 0.992791
0.912941 0.969024 0.967176 0.974098
0.722912 0.836178 0.904771 0.955538
0.699895 0.848732 0.881146 0.935868
1.00003 1 1.00149 0.998542
0.999007 1 1 0.999007
0.999408 1 1 0.999408
0.998922 1 1 0.998922
0.99876 1 1 0.99876
0.999579 1 1.00109 0.998495
0.99869 1 1 0.99869
0.998573 1 1 0.998573
0.998855 1 1 0.998855
0.998943 1 1 0.998943
0.994731 1.04592 0.953248 0.997707
0.990195 1.03048 0.963312 0.997503
1.00028 1.01314 0.990023 0.99726
0.988138 1.0014 0.989107 0.997623
1.04728 1.00314 1.04655 0.997571
1.03183 1.00027 1.0338 0.997818
1.00081 1 1.00228 0.998532
1.00004 0.999956 1.00151 0.998571
0.979618 1.0279 0.955227 0.997703
1.00588 1 1.0078 0.998095
1.01099 1 1.01284 0.998168
0.983921 1.00892 0.977681 0.997484
0.974772 1.00135 0.975715 0.997682
0.987911 1.00202 0.987933 0.997965
1.04367 0.999996 1.04598 0.997805
0.977574 1.00371 0.975969 0.997944
0.968966 0.998986 0.971524 0.998379
1.01358 1.00091 1.0145 0.998184
1.00869 1 1.01067 0.998041
1.01019 1 1.01227 0.997945
1.02719 1 1.02929 0.99796
0.751126 0.838745 0.944264 0.948396
0.773893 0.865598 0.933385 0.957865
0.900431 0.972298 0.952273 0.972501
1.0005 0.999512 1.00287 0.998124
1.00737 1.00198 1.0078 0.997603
0.99046 1.00827 0.9844 0.9979
1.00998 1.00195 1.01042 0.997621
0.760975 0.859474 0.924028 0.958191
0.90317 0.966499 0.960933 0.972467
0.87413 0.933482 0.952582 0.983032
0.953982 0.967281 0.988123 0.998106
0.72465 0.835399 0.911732 0.951409
0.678552 0.797394 0.907743 0.937449
0.706623 0.856107 0.879425 0.938558
1.00335 0.999802 1.00495 0.998612
0.726868 0.825126 0.934225 0.94294
0.808734 0.907382 0.940756 0.947412
0.986993 0.993081 0.995107 0.998756
1.0151 1.00169 1.01485 0.998548
0.963251 0.961353 1.00395 0.998036
0.879805 0.930206 0.960901 0.984302
0.884319 0.935171 0.972186 0.972677
0.7516 0.849202 0.929236 0.952467
0.752129 0.895853 0.89092 0.94236
1.00743 0.998871 1.00914 0.999431
0.826105 0.913392 0.948071 0.953975
0.796794 0.90483 0.925281 0.951711
0.985553 0.970988 1.01529 0.999715
0.911082 0.927096 0.991779 0.990872
0.888818 0.922763 0.991639 0.971335
0.801925 0.887041 0.951243 0.950383
0.791006 0.93478 0.898304 0.941991
1.00348 1 1.00472 0.99876
1.00688 0.999068 1.00876 0.999067
1.02344 0.9962 1.02801 0.999354
0.998949 1 1.00052 0.998429
1.00067 1 1.00245 0.998227
1.0017 1 1.00341 0.9983
1.01162 0.999676 1.01332 0.998647
1.00048 1 1.00231 0.998181
1.00647 1 1.00813 0.998348
1.03618 0.999591 1.03746 0.999173
1.04421 0.996148 1.04883 0.999446
1.0359 0.999203 1.0377 0.999068
1.00085 1 1.00257 0.998292
1.00018 1 1.0019 0.998276
0.999646 1 1.00116 0.998492
0.99884 1 1.00016 0.998684
1.0016 1 1.00319 0.998417
1.00205 1 1.00361 0.998444
1.00295 0.999997 1.00433 0.99863
1.00106 1 1.0026 0.998458
1.0073 0.999122 1.00924 0.998962
0.996717 1.00033 0.997913 0.998474
0.999788 1.00056 1.00085 0.998379
0.998664 1 1.00069 0.997971
1.00163 1.00321 1.00153 0.996899
1.00278 1.00009 1.0046 0.998092
0.998783 1 1.00079 0.997991
1.00404 1 1.00584 0.998211
1.0071 1 1.00878 0.998335
1.00308 1 1.00479 0.998303
1.00355 1 1.00506 0.998501
0.999368 1 1.00051 0.998861
1.0009 1 1.00229 0.998613
0.998962 1 1 0.998962
0.999551 1 1 0.999551
0.998989 1 1 0.998989
0.99957 1 1 0.99957
0.999987 1 1 0.999987
0.999585 1 1 0.999585
0.999993 1 1 0.999993
1 1 1 1
0.999998 1 1 0.999998
1 1 1 1
1 1 1 1
0.999129 1 1 0.999129
0.999856 1 1 0.999856
0.999297 1 1 0.999297
1 1 1 1
0.999903 1 1 0.999903
0.999368 1 1 0.999368
1 1 1 1
1 1 1 1
0.999923 1 1 0.999923
1 1 1 1
1 1 1 1
1 1 1 1
0.718823 0.821123 0.928316 0.943014
0.764576 0.862405 0.928001 0.955346
0.802421 0.905842 0.935484 0.94692
0.681157 0.803027 0.905404 0.936859
0.919625 0.968054 0.961639 0.987867
1.00149 1.02653 0.978462 0.997077
0.931866 0.986767 0.968476 0.975103
0.74218 0.843664 0.91995 0.956259
0.629751 0.78676 0.862676 0.927852
0.950031 0.990689 0.966784 0.991907
0.906131 0.968397 0.965081 0.969557
0.736863 0.844452 0.914948 0.953708
0.69944 0.851431 0.880034 0.933472
0.924017 0.975664 0.957258 0.989351
0.879493 0.928651 0.977465 0.9689
0.759167 0.864619 0.923892 0.950367
0.757879 0.90394 0.89457 0.93723
1.00172 1 1.00347 0.998251
0.999338 1 1.00075 0.998588
0.999043 1 1 0.999043
0.998819 1 1 0.998819
0.998541 1 1.0004 0.99814
0.998891 1 1.00035 0.998541
0.998667 1 1 0.998667
0.998541 1 1 0.998541
0.99862 1 1.00001 0.998613
0.998814 1 1 0.998814
0.980823 1.02905 0.955259 0.997775
0.982854 1.00783 0.977733 0.997425
0.97214 1.00129 0.97305 0.997779
0.990821 1.00326 0.989679 0.997902
1.03607 1 1.0384 0.997757
1.01068 1 1.01259 0.998122
1.0063 1 1.00826 0.998057
1.00786 1 1.00988 0.998
0.975436 1.00393 0.973601 0.997962
1.00877 1 1.01086 0.997931
1.02752 1 1.02964 0.997942
0.967688 0.99957 0.969688 0.998367
1.0096 1.00196 1.00949 0.998141
0.951757 0.981411 0.971392 0.998345
0.981916 0.987584 0.995024 0.999233
1.03924 0.999629 1.0413 0.998395
1.00479 1 1.00685 0.997952
1.01894 1 1.02094 0.998044
0.836567 0.920157 0.949455 0.957557
0.75164 0.837893 0.946574 0.947691
0.762911 0.86016 0.928604 0.955134
1.00344 0.999795 1.00505 0.998601
1.01559 1.00067 1.01643 0.998501
0.983571 0.99104 0.993606 0.998849
0.728955 0.82656 0.934518 0.94371
0.878245 0.928934 0.975465 0.969213
0.883995 0.92807 0.966224 0.985806
0.954953 0.957163 0.999191 0.998499
0.754079 0.854305 0.923687 0.955606
0.815884 0.913016 0.94338 0.947248
0.75655 0.898641 0.893188 0.942559
1.00581 0.998781 1.00766 0.999381
0.823421 0.912494 0.944379 0.955532
0.79672 0.904567 0.925385 0.951793
0.987789 0.974642 1.01395 0.999545
0.923436 0.937428 0.994363 0.990658
0.861934 0.915741 0.972489 0.96787
0.790933 0.934247 0.8982 0.942552
0.816798 0.894177 0.959726 0.951796
1.00141 0.978822 1.02337 0.999711
0.807668 0.89931 0.933794 0.961773
0.823072 0.929014 0.929071 0.953601
0.756691 0.902564 0.894306 0.937464
0.960744 0.949734 1.01402 0.997604
0.917272 0.937895 1.00555 0.972615
0.862393 0.931821 0.970454 0.95367
1.00765 0.998665 1.00995 0.999059
1.02317 0.996242 1.02778 0.99927
1.02279 0.984448 1.0394 0.999566
1.00055 1 1.00237 0.998181
1.00552 1 1.00719 0.998339
1.04064 0.999685 1.04175 0.999251
1.00136 1 1.00306 0.998298
1.0351 0.999289 1.0368 0.999079
1.04589 0.995939 1.05076 0.999421
1.03465 0.991451 1.04411 0.999489
1.02194 0.998476 1.02447 0.999058
1.00118 1 1.00275 0.998437
1.00155 1 1.00311 0.998446
1.00362 1 1.00497 0.99865
1.00665 0.999411 1.00832 0.998934
1.0007 1 1.00225 0.998457
1.00182 1 1.00298 0.998844
0.997774 1.00012 0.998902 0.998752
1.00237 1.00031 1.00455 0.997521
1.00033 1.00109 1.00084 0.998399
0.999283 1.00084 1.00057 0.997879
0.998808 1.00117 1.00101 0.996634
1.01342 1.0156 1.00129 0.99657
1.00243 1.00194 1.00276 0.997735
1.00048 1.00215 1.00138 0.996954
1.0092 1 1.0111 0.998127
1.0039 1.00054 1.00529 0.998089
0.998878 1 1.00065 0.998233
1.00401 1 1.00579 0.998224
1.0064 1 1.00804 0.998371
1.00057 1 1.00185 0.998722
1.0034 1 1.00491 0.9985
0.999362 1 1.0005 0.998861
0.999487 1 1 0.999487
0.998959 1 1 0.998959
0.999548 1 1 0.999548
0.999981 1 1 0.999981
0.999571 1 1 0.999571
0.999985 1 1 0.999985
1 1 1 1
0.99999 1 1 0.99999
1 1 1 1
1 1 1 1
0.998877 1 1 0.998877
0.999662 1 1 0.999662
0.999127 1 1 0.999127
1 1 1 1
0.999806 1 1 0.999806
0.999224 1 1 0.999224
1 1 1 1
1 1 1 1
0.999908 1 1 0.999908
1 1 1 1
1 1 1 1
1 1 1 1
0.823537 0.917634 0.940246 0.954492
0.71792 0.821055 0.924937 0.945347
0.760052 0.858088 0.927626 0.954858
0.998421 1 1 0.998421
0.803281 0.902866 0.932357 0.954249
0.80124 0.905473 0.934634 0.946773
0.686237 0.811056 0.900891 0.939185
0.958088 0.993735 0.973089 0.990791
0.901321 0.959374 0.965128 0.973435
0.739897 0.856981 0.908159 0.950688
0.693978 0.838929 0.884724 0.935003
0.921196 0.971328 0.961488 0.986375
0.882726 0.931818 0.974255 0.972349
0.765227 0.862087 0.933537 0.950841
0.754077 0.898752 0.894513 0.93797
0.879201 0.930307 0.961158 0.983257
0.87475 0.914252 0.986739 0.969652
0.830359 0.905793 0.962695 0.952244
0.792396 0.934131 0.900565 0.941932
1.00109 1 1.00307 0.998026
1.00296 1 1.00477 0.998206
0.998856 1 1.00022 0.998635
0.998239 1 1.00002 0.998223
0.998773 1 1.00056 0.99821
0.998586 1 1 0.998586
0.998547 1 1 0.998547
0.998676 1 1.00003 0.998651
0.97243 1.00463 0.969915 0.997972
0.966351 1.00076 0.967205 0.998362
1.00744 1 1.0095 0.997958
1.00587 1.00297 1.0048 0.998097
1.02932 1 1.03146 0.997925
1.00833 1 1.01043 0.997918
1.00531 1 1.00736 0.997964
0.955262 0.981204 0.975068 0.998455
1.01727 1 1.01924 0.998068
1.02882 1.00032 1.03011 0.998431
0.978981 0.98898 0.990597 0.999286
1.00732 1 1.00923 0.998109
0.946972 0.965598 0.982555 0.998122
1.00206 0.985178 1.01767 0.999475
1.05137 0.997261 1.0558 0.998536
1.01659 1 1.01839 0.998236
0.817401 0.901935 0.939517 0.964618
0.836142 0.920274 0.948984 0.957424
0.753782 0.836836 0.951192 0.946973
1.00375 0.998648 1.00578 0.999334
0.990706 0.977654 1.01398 0.999378
0.823228 0.91388 0.941232 0.95705
0.887902 0.916726 0.996338 0.972118
0.912312 0.935141 0.98809 0.987347
0.815219 0.893046 0.960502 0.95039
0.797633 0.905737 0.925194 0.95185
0.79207 0.934753 0.898466 0.943116
1.00596 0.985819 1.02077 0.999669
0.809299 0.900763 0.9342 0.961741
0.822553 0.92681 0.928628 0.955721
0.969793 0.955246 1.01586 0.999383
0.75243 0.897023 0.894152 0.938104
0.894178 0.921256 1.00032 0.970294
0.867955 0.937801 0.970949 0.953214
0.999118 0.973141 1.02696 0.999745
0.833652 0.922001 0.937793 0.964154
0.800694 0.899514 0.932564 0.954508
0.697416 0.846792 0.879845 0.936072
0.828761 0.904897 0.962319 0.951725
0.949235 0.948666 1.00595 0.994679
0.925518 0.936168 1.02282 0.966565
1.0207 0.996988 1.02462 0.999188
1.02495 0.98516 1.04087 0.999534
1.01257 0.973355 1.04072 0.999582
1.00209 1 1.00379 0.998304
1.03756 0.999351 1.03918 0.999091
1.04916 0.99696 1.05299 0.999396
1.01706 0.998745 1.01931 0.999045
1.03458 0.993262 1.04213 0.999488
1.01043 0.988405 1.02306 0.999235
1.00604 0.999808 1.00733 0.998904
1.00049 1 1.00204 0.998455
1.00444 1 1.00562 0.998822
1.01094 0.999829 1.013 0.998132
0.999028 1 1 0.999028
0.999971 1.00024 1.00202 0.997718
1.00231 1.00104 1.00499 0.996297
1.00522 1.00746 1.00188 0.995909
0.999957 1.00177 1.0004 0.997783
0.99938 1.00178 1.00117 0.996444
1.01458 1.01744 1.00053 0.996658
1.0084 1.00859 1.00261 0.997202
1.01246 1.01457 1.00125 0.996663
1.00751 1 1.0096 0.99793
1.00487 1.00382 1.00335 0.997708
0.999003 1.00072 1.00128 0.997011
1.00514 1 1.00662 0.998525
1.00852 1 1.0104 0.998146
1.00515 1.00099 1.00608 0.998086
1.00596 1 1.00757 0.998406
1.00114 1 1.00242 0.998721
0.999539 1 1.00017 0.999366
0.999558 1 1.0007 0.998862
0.999483 1 1 0.999483
0.999974 1 1 0.999974
0.999546 1 1 0.999546
0.999979 1 1 0.999979
1 1 1 1
0.999983 1 1 0.999983
1 1 1 1
1 1 1 1
0.998789 1 1 0.998789
0.99951 1 1 0.99951
0.998923 1 1 0.998923
1 1 1 1
0.999646 1 1 0.999646
0.999124 1 1 0.999124
1 1 1 1
1 1 1 1
0.999755 1 1 0.999755
1 1 1 1
1 1 1 1
1 1 1 1
0.814118 0.902311 0.937047 0.962874
0.826078 0.917121 0.943685 0.954482
0.718624 0.820913 0.925841 0.945514
0.998457 1 1 0.998457
0.998384 1 1 0.998384
0.998336 1 1 0.998336
0.822604 0.930661 0.927143 0.95335
0.799839 0.902288 0.92888 0.954328
0.800248 0.90487 0.934232 0.946637
0.927322 0.976867 0.960428 0.988395
0.864263 0.924611 0.964853 0.968782
0.75853 0.847199 0.937257 0.955275
0.764888 0.907528 0.899973 0.936501
0.881657 0.935098 0.956215 0.986024
0.883373 0.919919 0.990004 0.969968
0.81063 0.884207 0.961917 0.953084
0.791071 0.934616 0.898124 0.942423
0.881607 0.925396 0.968416 0.983752
0.898785 0.925467 1.00006 0.971107
0.862389 0.929833 0.972247 0.953942
0.767207 0.909621 0.897245 0.940028
0.998757 1 1.00064 0.998116
1.00175 1 1.00376 0.997995
1.00287 1 1.00471 0.998161
0.998223 1 1.00001 0.998212
0.998619 1 1.00034 0.998281
0.998552 1 1 0.998552
0.956992 0.977909 0.980033 0.998548
0.974595 0.988174 0.98693 0.999321
1.00564 1 1.00768 0.997975
1.02025 1.00052 1.02129 0.998466
1.01767 1 1.01961 0.998092
1.00943 1 1.01135 0.998106
1.01417 0.998685 1.01727 0.998264
0.954468 0.965685 0.990151 0.998216
1.04876 0.996399 1.05394 0.998678
1.00601 0.981071 1.02607 0.999366
1.00953 0.997995 1.01316 0.998422
0.97604 0.96018 1.01862 0.997937
1.00729 0.976648 1.03203 0.999365
1.03514 0.986388 1.05069 0.998792
0.84656 0.927412 0.944358 0.966603
0.819338 0.902657 0.940505 0.965116
0.835558 0.920295 0.948431 0.957291
1.01145 0.992569 1.01941 0.999627
0.958646 0.952245 1.00861 0.998125
0.810689 0.901709 0.934854 0.961711
0.890093 0.909665 1.00422 0.97437
0.862739 0.935461 0.969629 0.951149
0.822856 0.925279 0.928452 0.957838
0.765424 0.906664 0.901217 0.936755
0.994842 0.970318 1.0255 0.999778
0.834508 0.921406 0.938586 0.964951
0.801791 0.902487 0.930684 0.954592
0.945022 0.944243 1.01005 0.990869
0.697616 0.849488 0.879437 0.9338
0.805447 0.881978 0.958996 0.952274
0.934642 0.942632 1.0207 0.971419
1.00208 0.958527 1.04668 0.99882
0.814965 0.901315 0.938907 0.96303
0.810672 0.911645 0.938692 0.94732
0.621403 0.760606 0.871248 0.937717
0.751459 0.857206 0.922499 0.950285
0.899386 0.922185 1.00507 0.97036
0.923388 0.939485 0.994738 0.988066
1.02639 0.985728 1.04177 0.999501
1.01714 0.980282 1.03803 0.999586
1.01075 0.983762 1.02793 0.999511
1.01146 0.9991 1.01335 0.999032
1.03174 0.994531 1.03794 0.999487
1.01415 0.986149 1.0291 0.999319
1.00826 0.999598 1.00988 0.998802
1.00713 1 1.00834 0.9988
1.00879 0.999941 1.01093 0.997941
1.02095 1.00085 1.02364 0.996514
0.997489 1.00005 0.999519 0.997917
1.00378 1.00131 1.00619 0.9963
1.00453 1.00252 1.00661 0.99542
1.00635 1.00897 1.00191 0.995499
1.0082 1.01088 1.00108 0.996271
1.00512 1.00733 1.00196 0.995857
0.999665 1.00218 1.00124 0.996254
1.00731 1.00926 1.0011 0.996969
1.01492 1.01774 1.00048 0.996744
1.00264 1.0005 1.00464 0.997514
1.01006 1.01006 1.00274 0.997272
1.01208 1.01418 1.00117 0.996758
1.00922 1 1.01103 0.998217
1.00707 1.00046 1.00869 0.997927
1.00735 1.00584 1.00383 0.99768
1.00003 1 1.00082 0.999211
1.00448 1 1.00596 0.998524
1.00742 1 1.00927 0.998164
1.00105 1 1.00234 0.99872
0.999612 1 1.00025 0.999362
0.999955 1 1 0.999955
0.999478 1 1 0.999478
0.99997 1 1 0.99997
1 1 1 1
0.999978 1 1 0.999978
1 1 1 1
1 1 1 1
0.998751 1 1 0.998751
0.999488 1 1 0.999488
0.998817 1 1 0.998817
0.999997 1 1 0.999997
0.999553 1 1 0.999553
0.99897 1 1 0.99897
1 1 1 1
1 1 1 1
0.99963 1 1 0.99963
1 1 1 1
1 1 1 1
1 1 1 1
0.832822 0.92185 0.937208 0.963953
0.816779 0.903173 0.939236 0.96285
0.82777 0.916072 0.946678 0.954505
1.00058 1 1.00231 0.998268
1.0008 1 1.00267 0.998136
0.998494 1 1 0.998494
0.99837 1 1 0.99837
0.99833 1 1 0.99833
0.998651 1 1.00034 0.998316
0.998306 1 1 0.998306
0.79849 0.908305 0.923908 0.9515
0.82491 0.928782 0.929528 0.955499
0.798702 0.900623 0.929193 0.954412
0.790604 0.935213 0.896538 0.942931
0.877721 0.932802 0.956652 0.983587
0.88286 0.915939 0.99347 0.970221
0.819262 0.895837 0.958011 0.954604
0.871629 0.92654 0.957207 0.982792
0.897937 0.918121 1.01083 0.967541
0.866512 0.936077 0.970437 0.953883
0.753771 0.897771 0.89097 0.942346
0.899636 0.931441 0.980082 0.985482
0.912229 0.928362 1.01593 0.967212
0.805945 0.890316 0.952114 0.950763
0.715111 0.859868 0.888038 0.936504
1.01654 1 1.01817 0.998403
1.00034 1 1.00221 0.998136
1.00281 1 1.00486 0.997964
0.998201 1 1 0.998201
0.962488 0.966244 0.997768 0.998342
1.00811 0.979027 1.03048 0.999252
1.00881 1 1.01073 0.998104
1.01166 0.998645 1.01477 0.998293
1.04057 0.993674 1.04843 0.998821
1.00841 0.999396 1.01062 0.998423
1.03749 0.986605 1.05286 0.998779
0.975599 0.959878 1.01984 0.996602
1.00578 0.967481 1.0401 0.999513
1.01124 0.988028 1.02461 0.998906
0.953448 0.929863 1.02929 0.996181
1.01021 0.963681 1.04902 0.999295
0.818672 0.901477 0.94135 0.964727
0.844554 0.926456 0.941903 0.967825
0.821226 0.903199 0.941624 0.965611
0.99022 0.965885 1.02539 0.999805
0.95092 0.948439 1.00762 0.995029
0.833385 0.919942 0.93803 0.965758
0.933887 0.946039 1.02059 0.967244
0.810083 0.889246 0.955027 0.953877
0.802886 0.904559 0.929746 0.954669
0.693188 0.837207 0.885253 0.935299
1.00323 0.961041 1.04494 0.999003
0.816343 0.904229 0.937482 0.963011
0.804743 0.906956 0.936785 0.947178
0.92583 0.939737 0.994547 0.990603
0.624446 0.772371 0.866364 0.933188
0.756243 0.854538 0.931081 0.950479
0.89838 0.919503 1.00947 0.967861
0.995015 0.96675 1.03206 0.997267
0.825123 0.919559 0.9398 0.95478
0.684975 0.804238 0.907145 0.938888
0.725212 0.838245 0.904874 0.956104
0.865177 0.90229 0.987518 0.970988
0.887249 0.918922 0.98097 0.984264
1.02289 0.984478 1.03944 0.99959
1.01266 0.981182 1.03258 0.999512
0.984098 0.978694 1.00622 0.999307
1.01899 0.984431 1.03573 0.999402
1.00575 0.992089 1.01489 0.998892
1.00197 1.0008 1.00341 0.997765
1.00683 1.00003 1.00908 0.99775
1.01872 1.00079 1.02159 0.996401
1.0103 1.00047 1.01435 0.995546
1.00556 1.00185 1.00742 0.996304
1.00522 1.00229 1.00763 0.995329
1.00182 1.00224 1.00448 0.995121
1.02252 1.02697 1 0.995674
1.01442 1.01792 1.00077 0.995793
1.00666 1.00907 1.00218 0.995443
1.00605 1.00938 1.00013 0.996573
1.00697 1.00992 1.00074 0.996335
1.00509 1.00714 1.00217 0.995805
1.00456 1.00642 1.00112 0.997031
1.00713 1.00913 1.00108 0.996944
1.01499 1.01778 1.00043 0.99683
1.00593 1.00031 1.00782 0.997819
1.00348 1.00128 1.00463 0.997583
1.01146 1.01124 1.00288 0.997344
1.00331 1 1.00437 0.998944
1.00789 1 1.00968 0.998223
1.00671 1.00094 1.00786 0.997924
0.99992 1 1 0.99992
1.00065 1 1.00144 0.999205
1.0042 1 1.00569 0.998522
0.999839 1 1.00048 0.999357
0.999947 1 1 0.999947
1 1 1 1
0.999965 1 1 0.999965
1 1 1 1
1 1 1 1
1.00337 1 1.00512 0.99826
0.999083 1 1.00048 0.998603
0.999364 1 1 0.999364
0.998747 1 1 0.998747
0.999985 1 1 0.999985
0.99949 1 1 0.99949
0.998844 1 1 0.998844
1 1 1 1
0.999999 1 1 0.999999
0.999596 1 1 0.999596
1 1 1 1
1 1 1 1
1 1 1 1
0.807585 0.899616 0.933498 0.961651
0.830766 0.919444 0.93655 0.964767
0.817618 0.905576 0.937736 0.962821
1.00101 1 1.00274 0.998279
1.00234 1 1.00421 0.99814
1.00053 1 1.00237 0.998167
1.00206 1 1.00391 0.998149
1.00706 1 1.00897 0.998106
0.998501 1 1.00014 0.998357
0.998323 1 1 0.998323
0.998544 1 1.00023 0.998319
0.998311 1 1 0.998311
1.01006 1 1.01171 0.998371
0.797293 0.898082 0.937078 0.947384
0.798732 0.907139 0.925267 0.951613
0.826356 0.928078 0.929783 0.957637
0.756149 0.899971 0.891399 0.942555
0.863764 0.934169 0.971753 0.951511
0.866807 0.922224 0.957728 0.981394
0.906778 0.926565 1.00816 0.970721
0.895354 0.934289 0.97552 0.982374
0.92157 0.939439 1.0105 0.970791
0.820251 0.894592 0.962448 0.952675
0.715032 0.866483 0.882176 0.935428
0.910092 0.92599 0.998083 0.984719
0.903647 0.920328 1.01075 0.97143
0.737798 0.831648 0.929087 0.954864
0.655907 0.803555 0.87097 0.937182
1.01624 1 1.01728 0.998976
1.01798 1 1.01959 0.998415
1.00315 1 1.005 0.998157
0.977704 0.962172 1.02103 0.995212
1.00806 0.961266 1.04902 0.999671
1.00845 1 1.01005 0.998423
1.04112 0.985969 1.05724 0.998767
1.01311 0.991269 1.02314 0.998913
1.01623 0.971181 1.04714 0.999284
0.9591 0.940129 1.02415 0.996128
1.01684 0.992081 1.02562 0.999345
0.970956 0.957173 1.0178 0.996662
0.835475 0.919949 0.94882 0.957162
0.821868 0.90336 0.942576 0.965217
0.842327 0.925191 0.939512 0.969052
1.00462 0.967298 1.03945 0.999162
0.921475 0.93666 0.997391 0.986362
0.820242 0.907091 0.939015 0.962983
0.901563 0.926536 1.00515 0.968063
0.74817 0.837629 0.935425 0.954859
0.798263 0.902256 0.934196 0.947062
0.629374 0.785316 0.863081 0.928567
0.992935 0.965066 1.03146 0.997495
0.825835 0.916646 0.943621 0.95476
0.681584 0.802734 0.905664 0.93752
0.896556 0.928438 0.979635 0.985734
0.7384 0.845531 0.915231 0.954183
0.861039 0.909515 0.97731 0.968681
0.952382 0.951578 1.00508 0.995791
0.719408 0.822028 0.927552 0.943518
0.734109 0.838649 0.914974 0.95669
0.876256 0.928711 0.973707 0.968996
0.865454 0.917382 0.956224 0.986584
1.01165 0.978304 1.03459 0.999513
0.986587 0.975963 1.01161 0.999282
0.995115 0.9923 1.0044 0.998447
1.00213 0.98324 1.02025 0.998979
1.00183 1.00076 1.00322 0.997851
0.997972 1.00204 0.999119 0.996823
1.01638 1.0007 1.01946 0.996286
1.00903 1.0009 1.01263 0.99555
0.999156 1.002 1.00137 0.995798
1.00544 1.00199 1.00825 0.995239
1.00206 1.00322 1.0037 0.995156
1.02021 1.02442 1 0.995897
1.04436 1.04825 1 0.996283
1.03278 1.03716 1.00002 0.995759
1.02265 1.02706 1 0.995703
1.01711 1.02111 1 0.99608
1.01302 1.01627 1.00107 0.995739
1.0073 1.00951 1.00244 0.995386
1.00932 1.01264 1 0.99673
1.00446 1.00781 1.00002 0.996647
1.0055 1.00882 1.00032 0.996399
1.00169 1.00221 1.00208 0.997411
1.00369 1.00534 1.0013 0.997069
1.00719 1.0092 1.0011 0.996918
1.00802 1 1.00954 0.998497
1.0067 1.00073 1.00816 0.997822
1.00436 1.00192 1.0048 0.997652
0.999917 1 1.00006 0.999858
1.00378 1 1.00485 0.998936
1.00717 1 1.00895 0.998229
0.999995 1 1 0.999995
0.999907 1 1 0.999907
1.00115 1 1.00195 0.999198
0.999938 1 1 0.999938
1 1 1 1
1 1 1 1
1.00559 1 1.00745 0.998153
1.00119 1 1.00275 0.998447
1.00418 1 1.00595 0.998239
0.999445 1 1.00021 0.999233
0.999313 1 1.00071 0.9986
0.99996 1 1 0.99996
0.999368 1 1 0.999368
0.998744 1 1 0.998744
1 1 1 1
0.999989 1 1 0.999989
0.999493 1 1 0.999493
1 1 1 1
1 1 1 1
1 1 1 1
0.822227 0.91399 0.939598 0.957432
0.81105 0.902202 0.93484 0.961627
0.831039 0.916771 0.938794 0.965584
0.999147 1.00059 1.00039 0.998165
1.00119 1 1.0029 0.998291
1.00201 1 1.00387 0.998144
1.00045 1 1.00231 0.99814
1.00049 1 1.00231 0.99819
1.00429 1 1.00609 0.998209
1.01227 1 1.01451 0.997792
1.01557 1 1.01743 0.998172
0.99839 1 1.00007 0.998321
0.998316 1 1 0.998316
1.0102 1 1.01186 0.998355
1.02386 0.999577 1.02576 0.998567
0.694068 0.810042 0.912893 0.938587
0.808648 0.908963 0.939299 0.94713
0.799573 0.906883 0.926418 0.951699
0.70906 0.859706 0.879114 0.938184
0.820015 0.896747 0.960822 0.951719
0.915934 0.932688 1.01525 0.967286
0.895306 0.926299 0.983152 0.983104
0.908639 0.926121 0.994344 0.986704
0.643253 0.79517 0.867296 0.932726
0.89758 0.919525 1.00815 0.968244
0.754819 0.851359 0.931338 0.95197
0.909061 0.935163 0.983924 0.987971
0.88694 0.9201 0.991087 0.97263
0.72526 0.838166 0.906346 0.954705
0.996052 1 0.996512 0.999538
1.0154 1 1.01644 0.998981
1.01825 1 1.01985 0.998427
0.958444 0.941983 1.0214 0.996154
1.02252 0.978767 1.04547 0.999273
1.01454 0.995123 1.02061 0.998919
1.01589 0.99218 1.02457 0.999344
0.967318 0.955674 1.01553 0.996707
0.992117 0.985727 1.00871 0.997787
0.75155 0.838115 0.948768 0.945136
0.83257 0.919099 0.944516 0.959067
0.822218 0.904366 0.941461 0.965696
0.994095 0.964234 1.0334 0.997648
0.88667 0.924242 0.972369 0.986609
0.82439 0.913885 0.944794 0.954781
0.868443 0.902262 0.992608 0.969686
0.74353 0.860196 0.908646 0.951275
0.687881 0.811542 0.901918 0.939799
0.953077 0.948771 1.00871 0.995862
0.718728 0.821695 0.924806 0.945808
0.733128 0.840745 0.914203 0.953834
0.864654 0.918574 0.957318 0.983269
0.881485 0.93455 0.969975 0.972415
0.946932 0.962671 0.985651 0.997971
0.755064 0.852177 0.929066 0.95369
0.915009 0.97146 0.967005 0.974028
0.872792 0.930807 0.953867 0.983022
0.989622 0.974091 1.01669 0.999262
0.986578 0.9921 0.995892 0.998536
0.994764 1.00111 0.996099 0.997556
1.00217 1.00088 1.00336 0.997937
1.00116 1.00249 1.00188 0.9968
1.00048 1.00429 0.999428 0.99678
1.00781 1.00128 1.01101 0.995554
0.999055 1.00159 1.00167 0.995807
1.02448 1.02912 0.998755 0.996732
1.00237 1.00401 1.00319 0.99519
1.01901 1.0232 1 0.995908
1.04498 1.04891 0.999359 0.996892
1.04723 1.05059 0.999845 0.996948
1.04669 1.05069 1 0.996199
1.04478 1.04863 1 0.996329
1.03442 1.0386 1 0.995984
1.03111 1.03543 1 0.99582
1.02229 1.02668 1 0.995732
1.02316 1.02684 1 0.996417
1.01738 1.02122 1.00014 0.996106
1.01173 1.01462 1.00148 0.995684
1.0053 1.00826 1 0.997064
1.00912 1.01243 1 0.996725
1.00281 1.00611 1 0.996721
1.00347 1.00027 1.00516 0.998049
1.00346 1.00372 1.00234 0.997407
1.00248 1.00394 1.00145 0.997106
1.00102 1 1.00131 0.999712
1.00594 1 1.00746 0.998494
1.00655 1.00119 1.00755 0.997825
1 1 1 1
1.00025 1 1.00042 0.999834
1.00363 1 1.00471 0.998928
1 1 1 1
0.999896 1 1 0.999896
1 1 1 1
1.00031 1.00044 1.00185 0.998025
1.00443 1 1.0063 0.998137
1.00483 1 1.00654 0.9983
1.00035 1 1.00126 0.999093
1.00174 1 1.0033 0.998445
1.00458 1 1.00637 0.998218
0.999926 1 1 0.999926
0.999281 1 1.00004 0.999237
0.99908 1 1.00048 0.998598
1 1 1 1
0.999968 1 1 0.999968
0.999372 1 1 0.999372
1 1 1 1
0.999994 1 1 0.999994
1 1 1 1
0.724895 0.823054 0.936347 0.940611
0.823767 0.915429 0.939858 0.957453
0.814792 0.90507 0.936198 0.961605
1.00141 1.00022 1.00305 0.998143
1.0055 1.00273 1.00496 0.997808
1.00936 1.00016 1.01124 0.997976
1.00182 1 1.0037 0.99813
1.00024 1 1.00203 0.998213
1.00465 1 1.00635 0.99831
1.01457 1 1.01647 0.998131
1.01188 1.00006 1.014 0.997854
1.01484 1.00074 1.01637 0.997751
0.986735 1.00104 0.986726 0.998969
1.00873 1 1.0104 0.998339
1.01985 0.999809 1.02153 0.998544
0.733826 0.837164 0.921278 0.951463
0.678673 0.796068 0.910792 0.936034
0.816131 0.915194 0.941686 0.94698
0.631276 0.785918 0.865417 0.928147
0.757136 0.854455 0.927775 0.955086
0.885691 0.914045 0.99882 0.970125
0.915015 0.931981 0.99768 0.984078
0.897581 0.927011 0.982312 0.985686
0.728113 0.83282 0.917106 0.953297
0.868817 0.909589 0.985028 0.969694
0.884995 0.932578 0.961458 0.987018
0.866257 0.932393 0.958278 0.969518
1.00273 1 1.00372 0.999021
0.996574 1 0.997089 0.999483
1.01472 1 1.01575 0.998986
0.963718 0.954432 1.01302 0.996755
1.01464 0.991565 1.02394 0.999344
0.993189 0.987327 1.00823 0.997728
0.978898 0.991039 0.990931 0.996789
0.768327 0.868761 0.923566 0.957586
0.750919 0.836415 0.949272 0.945758
0.833948 0.920665 0.942636 0.960934
0.956349 0.955598 1.00478 0.996024
0.867656 0.918356 0.960373 0.983777
0.719839 0.82222 0.925516 0.94594
0.860925 0.924226 0.961175 0.969136
0.744978 0.846179 0.92007 0.956886
0.950024 0.965141 0.987407 0.996891
0.765079 0.862063 0.928621 0.955717
0.909227 0.970843 0.96568 0.969818
0.876123 0.933227 0.952522 0.985605
0.958567 0.983943 0.976315 0.997844
0.920199 0.979429 0.96524 0.973361
0.919662 0.974588 0.955126 0.987976
0.977467 0.990849 0.987868 0.99861
0.990939 1.0015 0.991905 0.997528
0.982022 1.00785 0.976901 0.997408
1.00313 1.00282 1.00355 0.996778
0.999823 1.00442 0.998648 0.996775
1.02377 1.03693 0.989849 0.997436
0.998876 1.00121 1.00186 0.995816
1.02336 1.02882 0.997971 0.996712
1.03929 1.05055 0.991774 0.997479
1.01811 1.02228 1 0.995919
1.04392 1.04844 0.998793 0.996885
1.0447 1.05141 0.996159 0.997448
1.0437 1.04761 0.998941 0.997326
1.0481 1.0516 0.999649 0.99702
1.04615 1.04951 1 0.996798
1.04818 1.05211 1 0.996263
1.04672 1.05069 1 0.996217
1.04553 1.04933 1 0.996374
1.03602 1.03994 1 0.996225
1.03612 1.04026 1 0.996014
1.02945 1.03371 1 0.995881
1.01738 1.02068 1 0.996763
1.02251 1.02619 1 0.996414
1.01759 1.02137 1.00017 0.996132
0.999303 1.0013 1.00026 0.997746
1.00685 1.00982 1 0.99706
1.00963 1.01295 1 0.99672
1.00184 1 1.00238 0.999461
1.00335 1.00052 1.00479 0.998049
1.00581 1.00541 1.003 0.997403
1 1 1 1
1.00173 1 1.00204 0.999687
1.00496 1 1.00647 0.998491
0.999994 1 1 0.999994
1.00083 1 1.00101 0.99982
1 1 1 1
0.999168 1.00125 1 0.997918
1.00123 1.0003 1.00289 0.998043
1.00465 1 1.0065 0.998156
1.00259 1 1.00448 0.998121
1.00514 1 1.00685 0.9983
1.0024 1 1.00348 0.998924
0.999879 1 1 0.999879
1.00006 1 1.00097 0.999095
1.00278 1 1.00434 0.998442
1 1 1 1
0.999936 1 1 0.999936
0.999242 1 1 0.999242
1 1 1 1
0.999976 1 1 0.999976
1 1 1 1
0.763001 0.857041 0.931668 0.95557
0.727524 0.82494 0.936877 0.941331
0.823828 0.915906 0.939422 0.957469
1.00396 1 1.00585 0.998122
1.01153 1 1.01374 0.997816
1.00323 1.00172 1.00364 0.997882
1.00389 1.00601 1.00092 0.996977
1.0116 1.00129 1.0125 0.997825
1.01322 1 1.01516 0.998093
1.01003 1 1.01214 0.997916
1.01737 1.00068 1.01888 0.997836
0.999256 1.00257 0.999164 0.997531
0.977492 1.00174 0.977218 0.998542
0.975583 1.00035 0.977487 0.997702
0.986718 1.00086 0.986854 0.999007
1.01445 1 1.01595 0.998523
0.898407 0.961443 0.961267 0.972088
0.729582 0.832657 0.919647 0.952767
0.67709 0.795857 0.908048 0.93692
0.725529 0.836486 0.912712 0.950304
0.879255 0.920605 0.984885 0.969742
0.901608 0.92318 0.988445 0.988049
0.885792 0.931431 0.961851 0.98872
0.887818 0.93821 0.972127 0.973422
0.911697 0.967523 0.953895 0.987845
0.993832 1.00132 0.994295 0.998218
1.00172 1 1.00273 0.998999
0.997233 1 0.997803 0.999428
0.995322 0.990217 1.00746 0.99771
0.98454 0.994068 0.993364 0.997032
0.896443 0.966543 0.953799 0.9724
0.775016 0.867239 0.932914 0.957921
0.749304 0.833119 0.950319 0.946416
0.954791 0.970406 0.988111 0.995747
0.881515 0.939682 0.954126 0.983203
0.762039 0.858667 0.929069 0.955224
0.901055 0.959478 0.964753 0.97342
0.965658 0.983615 0.983784 0.997926
0.929715 0.989512 0.964487 0.974164
0.916797 0.970411 0.958715 0.985436
0.975473 1.00377 0.974421 0.997319
0.948392 0.993368 0.962749 0.991664
0.991362 1.00389 0.989977 0.997523
0.980706 1.00759 0.975899 0.997361
0.995528 1.03583 0.963304 0.997709
0.999234 1.00436 0.998123 0.99677
1.02509 1.03775 0.990375 0.997407
1.03635 1.05833 0.98143 0.997764
1.02209 1.02846 0.997097 0.996692
1.0389 1.05071 0.991283 0.997455
1.03382 1.05017 0.986709 0.997691
1.04256 1.04773 0.99818 0.996878
1.04452 1.0517 0.995741 0.997426
1.04191 1.0506 0.994186 0.997527
1.04383 1.04801 0.998627 0.997381
1.04225 1.04591 0.999364 0.997137
1.04873 1.05239 0.999428 0.997092
1.04598 1.04935 1 0.996789
1.04798 1.05157 1 0.996588
1.04538 1.04926 1 0.996293
1.04798 1.05192 1 0.996251
1.04671 1.05066 1 0.996235
1.03074 1.03431 1 0.996552
1.03583 1.03974 1 0.996232
1.03793 1.04205 1 0.996044
1.00294 1.00544 1 0.997516
1.01696 1.02027 1 0.996762
1.02163 1.02531 1 0.996411
1.0003 1 1.00113 0.999178
1.00065 1.0024 1.00051 0.997746
1.00809 1.01106 1 0.997056
1 1 1 1
1.00158 1 1.00215 0.999436
1.00272 1.00076 1.00392 0.99805
1 1 1 1
1.00205 1 1.00239 0.999662
1 1 1 1
1.0051 1.00801 1 0.997114
0.999599 1.0017 1 0.997905
1.00049 1.0003 1.00226 0.997937
1.00267 1 1.00461 0.998062
1.00404 1 1.00593 0.998122
1.0043 1 1.00562 0.998686
1.0059 1 1.00762 0.998301
1.0022 1 1.00328 0.998924
1.00017 1 1.00035 0.999814
1 1 1 1
0.999891 1 1 0.999891
0.999594 1 1.0005 0.999097
1 1 1 1
0.999946 1 1 0.999946
1 1 1 1
0.919636 0.979939 0.96218 0.97535
0.764292 0.863968 0.924914 0.956446
0.731488 0.827595 0.940393 0.939896
1.01308 1 1.01546 0.997655
1.00113 1.00121 1.00196 0.997957
1.00975 1.00139 1.0106 0.997775
1.00489 1.0067 1.00114 0.997064
1.01561 1.0189 1.00016 0.996607
0.999851 1.00247 1 0.997388
1.02131 1.00104 1.02238 0.99792
1.00033 1.00324 0.999771 0.997332
0.983596 1.00214 0.982945 0.998525
0.995479 1.00186 0.996051 0.997569
0.973233 1.00342 0.97208 0.997769
0.994597 1.00139 0.99593 0.997278
0.977608 1.00082 0.978937 0.997825
0.99081 1.00078 0.990986 0.999046
0.920136 0.974879 0.955462 0.987843
0.905238 0.967933 0.962015 0.972155
0.735642 0.8339 0.922491 0.956291
0.885451 0.938584 0.973567 0.969004
0.893122 0.932089 0.968151 0.989716
0.91375 0.962672 0.957473 0.991339
0.982467 1.00377 0.981374 0.997356
0.991765 1.00067 0.992909 0.99818
1.00074 1 1.00176 0.998978
0.986152 0.996061 0.992776 0.997256
0.934274 0.97347 0.971198 0.988197
0.911675 0.973604 0.959053 0.976371
0.763135 0.861382 0.927558 0.955134
0.96474 0.97953 0.98687 0.998005
0.921797 0.976173 0.95662 0.987119
0.932807 0.987168 0.96928 0.974881
0.968355 1.00198 0.96899 0.997374
0.947248 0.989315 0.966301 0.990869
0.969224 1.02456 0.948469 0.997388
0.990617 1.01717 0.9776 0.996215
0.97835 1.00732 0.97386 0.997306
0.993169 1.034 0.96272 0.997704
1.0049 1.05889 0.95119 0.997712
1.02699 1.03913 0.990914 0.997379
1.03602 1.05808 0.981365 0.997744
1.0327 1.05492 0.981252 0.997642
1.03898 1.05111 0.991006 0.997431
1.03391 1.04959 0.987361 0.997672
1.04222 1.05635 0.989103 0.997494
1.04462 1.05213 0.995442 0.997405
1.03996 1.04842 0.994397 0.997519
1.04281 1.0496 0.996279 0.997248
1.04413 1.04853 0.998361 0.997436
1.04262 1.04621 0.999381 0.997183
1.04655 1.04993 0.999971 0.996809
1.04591 1.04929 1 0.996781
1.04805 1.05165 1 0.996577
1.04735 1.05104 1 0.996489
1.03839 1.04207 1 0.996471
1.04552 1.04941 1 0.996293
1.04772 1.05168 1 0.996239
1.01033 1.01305 1 0.997316
1.02968 1.03324 1 0.996556
1.03556 1.03947 1 0.99624
0.999155 1 1.00021 0.998948
1.00495 1.00746 1 0.997514
1.01637 1.01967 1 0.99676
1 1 1 1
0.999991 1 1.00083 0.999161
1.00192 1.00345 1.00073 0.997747
1 1 1 1
1.0015 1 1.00209 0.999412
1 1 1 1
1.01629 1.01965 1 0.996701
1.00727 1.01015 1 0.997143
1.00557 1.00749 1.00066 0.997436
0.999308 1.00142 1 0.997891
1.00018 1.0001 1.0022 0.997891
1.00289 1.0004 1.00413 0.998372
1.00347 1 1.00539 0.998089
1.00459 1 1.00591 0.998688
1.00162 1 1.00191 0.999717
1.0024 1 1.00348 0.998925
1.00009 1 1.00027 0.999824
1 1 1 1
1 1 1 1
0.999903 1 1 0.999903
1 1 1 1
0.924543 0.975314 0.958895 0.988579
0.910538 0.979106 0.956923 0.971832
0.758131 0.856798 0.923643 0.957992
1.03174 1.03536 1.00007 0.996443
1.00799 1.00122 1.00905 0.997726
1.006 1.00751 1.00135 0.997151
1.00012 1.00275 1 0.997376
1.01447 1.01751 1.00042 0.996588
1.00417 1.00701 0.999848 0.997328
0.999978 1.00285 1 0.997133
0.985229 1.00176 0.984964 0.998507
0.993451 1.00229 0.993589 0.99758
0.966869 1.00242 0.966811 0.997647
1.00502 1.0122 0.995994 0.996905
0.998413 1.00698 0.994154 0.99732
0.995203 1.00202 0.995943 0.997246
0.978487 1.00134 0.979191 0.997948
0.980485 1.00613 0.976611 0.997855
0.914907 0.972041 0.954084 0.986519
0.905322 0.969365 0.960209 0.972635
0.908287 0.956192 0.960375 0.989093
0.985316 1.00522 0.982059 0.99811
0.991711 1.0002 0.993367 0.998134
0.982388 1.00669 0.979994 0.99578
0.919619 0.958539 0.96944 0.98964
0.899253 0.970549 0.952715 0.972527
0.965659 0.999814 0.968329 0.997429
0.954737 0.991335 0.972974 0.989833
0.973159 1.02589 0.950973 0.997504
0.993432 1.01694 0.980322 0.996492
0.992316 1.04142 0.955195 0.997546
1.04403 1.06067 0.986879 0.997401
0.990152 1.03162 0.962021 0.997699
1.00953 1.06023 0.954376 0.997696
1.02206 1.06695 0.960328 0.997498
1.03495 1.05733 0.981074 0.997724
1.03051 1.0535 0.98049 0.997638
1.04191 1.06305 0.982692 0.997378
1.03364 1.04883 0.987843 0.997653
1.04065 1.05502 0.988842 0.997508
1.0447 1.05543 0.992614 0.997197
1.03787 1.04618 0.994532 0.997511
1.04332 1.05008 0.996305 0.997246
1.04865 1.05282 0.999122 0.99692
1.04293 1.04646 0.999395 0.99723
1.04696 1.05028 0.999985 0.996853
1.04937 1.05298 1 0.996566
1.04811 1.05172 1 0.996566
1.0471 1.05081 1 0.996473
1.04097 1.04462 1 0.996508
1.01674 1.0196 1 0.997193
1.03772 1.04138 1 0.996485
1.04568 1.04957 1 0.996292
0.999137 1.00034 1 0.998798
1.01171 1.01444 1 0.997315
1.02881 1.03236 1 0.99656
1 1 1 1
0.999045 1.00005 1.00006 0.998935
1.00716 1.00967 1 0.997513
1 1 1 1
0.99957 1 1.00043 0.999145
1 1 1 1
1.03096 1.03467 1 0.996415
1.01832 1.02169 1 0.996698
1.01554 1.01856 1 0.99703
1.00988 1.01274 1.00001 0.997173
1.00485 1.00688 1.00056 0.997429
1.00282 1.00267 1.00212 0.99804
0.999801 1 1.00196 0.997844
1.00352 1.00012 1.00503 0.998373
1.00177 1 1.0022 0.99957
1.00403 1 1.00535 0.998689
1.00077 1 1.00104 0.999729
1 1 1 1
0.999835 1 1 0.999835
1 1 1 1
1 1 1 1
0.977852 1.01057 0.96998 0.997575
0.919216 0.972645 0.958454 0.986034
0.908933 0.970197 0.960184 0.975704
1.02239 1.02557 1.00001 0.996887
1.04192 1.04554 1 0.996537
1.02983 1.0333 1.00013 0.996515
1.00072 1.00337 1 0.997363
1.01331 1.01605 1.00073 0.996568
1.00539 1.00914 0.998972 0.997305
1.02325 1.02848 0.998059 0.996852
0.992898 1.00338 0.991945 0.997592
0.963462 1.00189 0.964032 0.997524
1.00608 1.01401 0.995165 0.997
1.02327 1.03381 0.993039 0.996738
1.00305 1.02544 0.980578 0.997539
1.00191 1.00891 0.995781 0.997275
0.996582 1.00262 0.996751 0.997213
0.984884 1.00786 0.979049 0.998113
0.918733 0.974851 0.956691 0.985099
0.985398 1.00546 0.98114 0.998887
1.0238 1.04742 0.979401 0.998004
0.980209 1.00546 0.978895 0.995909
0.923194 0.969574 0.964314 0.987401
0.976155 1.02754 0.952264 0.997614
0.99606 1.01721 0.982367 0.996784
0.989605 1.04187 0.952029 0.997693
1.04326 1.06203 0.984866 0.99742
1.03891 1.07301 0.97073 0.997408
1.07423 1.09331 0.984965 0.997546
1.01407 1.06233 0.956797 0.997681
1.02774 1.0684 0.96436 0.997498
1.04521 1.0729 0.976848 0.997283
1.02856 1.05222 0.979833 0.997634
1.04162 1.06214 0.983261 0.997377
1.04526 1.0612 0.987777 0.997162
1.03915 1.05372 0.988624 0.997521
1.04525 1.05597 0.992634 0.997194
1.04986 1.0568 0.996495 0.996928
1.0438 1.05054 0.996332 0.997244
1.04902 1.05315 0.999157 0.996919
1.05261 1.0562 1 0.996602
1.04737 1.05063 0.999999 0.996896
1.04887 1.05247 1 0.99658
1.04409 1.04776 1 0.9965
1.04689 1.05061 1 0.996456
1.04091 1.04456 1 0.996507
1.01903 1.02196 1 0.997129
1.00022 1.00148 1 0.998742
1.01682 1.01968 1 0.997193
1.03723 1.04088 1 0.996499
1 1 1 1
0.999374 1.00059 1 0.998786
1.01317 1.01589 1 0.997315
1 1 1 1
0.998942 1.00002 1 0.998921
1 1 1 1
1.03945 1.04323 1 0.996377
1.0305 1.03422 1 0.996408
1.02448 1.02784 1 0.996729
1.01961 1.02299 1 0.996695
1.01453 1.01754 1 0.997037
1.00555 1.00747 1.00035 0.997751
1.0035 1.00562 1.00046 0.997423
1.00237 1.00178 1.00255 0.998043
1.00052 1 1.00118 0.999342
1.00506 1 1.0067 0.998375
1.00174 1 1.00215 0.999587
1 1 1 1
1.00044 1 1.0007 0.99974
1 1 1 1
1 1 1 1
1.00474 1.04038 0.967696 0.997988
0.97479 1.00952 0.968736 0.996761
0.920162 0.974551 0.95687 0.986749
1.03671 1.04011 1 0.996735
1.02381 1.0268 1 0.997086
1.05684 1.06046 0.999967 0.99662
1.04247 1.04611 1 0.99652
1.02795 1.03128 1.00018 0.996589
1.04743 1.05564 0.995583 0.996623
1.0067 1.01153 0.997929 0.997284
1.02343 1.0281 0.998667 0.99679
1.04256 1.06537 0.981627 0.996906
1.00591 1.01566 0.993278 0.997096
1.02388 1.03454 0.992992 0.996676
1.00409 1.02773 0.97938 0.997574
1.00273 1.00916 0.996395 0.997227
0.989873 1.00961 0.982066 0.998353
1.06012 1.0841 0.980246 0.997586
1.02673 1.04715 0.982434 0.998029
0.979101 1.00424 0.978852 0.996035
0.987624 1.04153 0.950295 0.997837
1.04146 1.06222 0.982969 0.997439
1.03422 1.07186 0.967375 0.997431
1.07615 1.09563 0.984644 0.997538
1.06272 1.08671 0.980447 0.997424
1.03316 1.06948 0.968462 0.997498
1.04594 1.07225 0.978111 0.997293
1.04652 1.0665 0.984032 0.99719
1.0413 1.0612 0.98383 0.997377
1.04529 1.061 0.98801 0.997143
1.04856 1.05923 0.99299 0.996915
1.04582 1.05652 0.992656 0.99719
1.05017 1.05708 0.996521 0.996924
1.05554 1.05946 0.999675 0.996624
1.0494 1.0535 0.999192 0.996918
1.05248 1.05607 1 0.996605
1.04834 1.05206 1 0.996468
1.04836 1.05195 1 0.996594
1.04408 1.04774 1 0.996506
1.01989 1.0229 1 0.99706
1.04081 1.04446 1 0.996506
1.01926 1.0222 1 0.997127
1.00124 1.00228 1 0.998961
0.999595 1 1 0.999595
1.0005 1.00166 1 0.998836
1.01649 1.01935 1 0.997192
1 1 1 1
0.999576 1.0008 1 0.998774
1 1 1 1
1.06237 1.06587 0.999995 0.996714
1.04835 1.05202 1 0.996511
1.0403 1.04408 1 0.996385
1.03239 1.03592 1 0.996592
1.03047 1.0342 1 0.996402
1.02565 1.02902 1 0.996727
1.01072 1.01324 1 0.997507
1.01411 1.01712 1 0.997044
1.0041 1.00588 1.00048 0.997754
0.999189 1 1.00012 0.999067
1.00166 1.00079 1.00282 0.998045
1.00081 1 1.00145 0.999362
1 1 1 1
1.00126 1 1.00165 0.999604
1 1 1 1
1 1 1 1
1.05216 1.08231 0.974751 0.997333
1.0093 1.04693 0.965956 0.998036
0.971617 1.00962 0.966266 0.99596
1.05325 1.05883 0.998079 0.996651
1.03347 1.03681 1 0.996785
1.02496 1.02775 1 0.997282
1.05534 1.05892 0.999976 0.996637
1.04306 1.04672 1 0.996504
1.05465 1.07565 0.983541 0.996886
1.04399 1.0526 0.995228 0.996584
1.02339 1.02729 0.99948 0.996727
1.0407 1.06335 0.981736 0.996903
1.02749 1.03759 0.993626 0.996614
1.00923 1.03442 0.977981 0.997618
1.06289 1.08329 0.983609 0.997525
1.06326 1.08661 0.980843 0.997622
1.0288 1.04721 0.98434 0.998056
1.03113 1.07204 0.964301 0.997452
1.07911 1.09892 0.9844 0.997531
1.06285 1.08768 0.979687 0.997431
1.05304 1.06824 0.988452 0.997289
1.04666 1.07153 0.979435 0.997303
1.04693 1.06624 0.984671 0.997177
1.05005 1.06138 0.992352 0.996952
1.04535 1.06084 0.988241 0.997124
1.04931 1.05997 0.993006 0.996914
1.0573 1.06229 0.998666 0.996638
1.05045 1.05734 0.996549 0.99692
1.05569 1.05962 0.999667 0.996625
1.05138 1.05515 1 0.996427
1.05238 1.05596 1 0.996608
1.04839 1.0521 1 0.996472
1.02108 1.02418 1 0.996969
1.04406 1.04771 1 0.996511
1.02061 1.02362 1 0.99706
1.00109 1.00212 1 0.998974
1.01954 1.02248 1 0.997126
1.00128 1.00233 1 0.998956
0.999619 1 1 0.999619
0.999806 1 1 0.999806
1.001 1.00206 1 0.998938
1 1 1 1
1.05652 1.06172 0.998378 0.996718
1.05339 1.057 1 0.996583
1.06117 1.06459 0.99994 0.99684
1.04308 1.04671 1 0.996538
1.05045 1.05414 1 0.996499
1.04116 1.04493 1 0.996392
1.03341 1.03695 1 0.996584
1.01582 1.01856 1 0.997305
1.02659 1.02996 1 0.996724
1.00892 1.01144 1 0.997508
0.999161 1.0003 1 0.998858
1.0025 1.00423 1.00052 0.997757
0.999482 1 1.0004 0.999086
1 1 1 1
1.00123 1 1.00185 0.999382
1 1 1 1
1 1 1 1
1.05359 1.07715 0.980851 0.99722
1.04875 1.07866 0.97487 0.997329
1.01214 1.05055 0.965295 0.998077
1.05413 1.06777 0.990396 0.996805
1.05032 1.05616 0.997812 0.996651
1.03058 1.03385 1 0.996836
1.05363 1.05718 0.999982 0.996653
1.0531 1.07373 0.983878 0.996862
1.04049 1.04947 0.994881 0.996544
1.03428 1.05647 0.98204 0.9969
1.05722 1.07181 0.989003 0.997351
1.06118 1.08136 0.983813 0.997485
1.06614 1.0886 0.981666 0.997658
1.05172 1.063 0.992181 0.99719
1.06234 1.08823 0.978714 0.997438
1.05294 1.06832 0.988301 0.997275
1.05202 1.0623 0.993244 0.997056
1.04736 1.06598 0.985332 0.997163
1.05014 1.06152 0.992303 0.996954
1.05751 1.06364 0.997572 0.996658
1.05002 1.06067 0.993027 0.996913
1.05682 1.0618 0.998665 0.996639
1.05249 1.05629 1 0.996402
1.05573 1.05966 0.99966 0.996625
1.0515 1.05527 1 0.99643
1.0219 1.0251 1 0.996881
1.04836 1.05207 1 0.996476
1.02173 1.02484 1 0.996969
1.00035 1.00141 1 0.998948
1.02139 1.02441 1 0.997059
1.00092 1.00196 1 0.998963
0.999624 1 1 0.999624
1.00128 1.00233 1 0.998953
0.999628 1 1 0.999628
1 1 1 1
1.05445 1.06238 0.995894 0.996624
1.0558 1.05964 0.999826 0.996549
1.05821 1.06346 0.998344 0.996716
1.04947 1.05308 1 0.996574
1.05481 1.05842 0.999974 0.996621
1.06017 1.06351 0.999895 0.996965
1.02143 1.02435 1 0.997148
1.0428 1.04643 1 0.996528
1.0527 1.05641 1 0.996486
1.03444 1.038 1 0.996576
1.01526 1.018 1 0.997306
1.00078 1.00202 1 0.998759
1.00751 1.01003 1 0.997509
0.999204 1.00033 1 0.998873
1 1 1 1
0.999748 1 1.00064 0.999104
1 1 1 1
1 1 1 1
1.05165 1.06739 0.988124 0.997094
1.05358 1.07742 0.980616 0.997202
1.04786 1.07784 0.974785 0.997326
1.05358 1.06724 0.990343 0.996822
1.04705 1.05315 0.99755 0.996651
1.05267 1.07295 0.98421 0.996838
1.05358 1.06506 0.992013 0.997189
1.05742 1.07196 0.989057 0.997345
1.05959 1.07961 0.983965 0.997445
1.05216 1.06323 0.992362 0.99721
1.05113 1.06021 0.994417 0.997007
1.05284 1.06841 0.988129 0.997261
1.05225 1.06225 0.993553 0.997016
1.05706 1.06394 0.996778 0.996746
1.05026 1.06169 0.992252 0.996956
1.05706 1.06324 0.997518 0.99666
1.05257 1.05638 1 0.996389
1.05652 1.06151 0.99865 0.99664
1.05326 1.05706 1 0.996404
1.02196 1.02522 1 0.996827
1.05173 1.0555 1 0.996434
1.02221 1.02541 1 0.996883
0.999596 1.0007 1 0.998893
1.02245 1.02556 1 0.99697
1.00014 1.00121 1 0.998931
0.999601 1 1 0.999601
1.00071 1.00176 1 0.998954
0.999643 1 1 0.999643
0.999632 1 1 0.999632
1.05366 1.06385 0.993519 0.996883
1.05704 1.06145 0.999379 0.996472
1.05464 1.06363 0.994878 0.996652
1.05212 1.0558 1 0.996518
1.05503 1.05885 0.999857 0.996536
1.05987 1.06517 0.998308 0.996714
1.02406 1.0271 1 0.997044
1.04934 1.05297 1 0.99655
1.05603 1.05963 0.999946 0.996658
1.00191 1.00318 1 0.998738
1.02123 1.02415 1 0.99715
1.04279 1.04644 1 0.996518
1.01424 1.01698 1 0.997307
1.00018 1.00141 1 0.998771
1 1 1 1
0.99904 1.00015 1 0.998888
1 1 1 1
1 1 1 1
1.05046 1.06206 0.991969 0.997082
1.05199 1.06755 0.988305 0.997086
1.05301 1.07706 0.980433 0.997184
1.05306 1.06676 0.990282 0.996839
1.05166 1.05918 0.995928 0.996965
1.05368 1.06511 0.992052 0.997199
1.05766 1.07209 0.989167 0.997339
1.05263 1.06346 0.992567 0.99723
1.05127 1.06047 0.994289 0.997017
1.05731 1.06328 0.997647 0.99673
1.05253 1.06221 0.993886 0.996976
1.05739 1.06383 0.997248 0.996695
1.05205 1.05619 0.999636 0.996448
1.05654 1.06276 0.997477 0.996663
1.05334 1.05716 1 0.996391
1.02082 1.02411 1 0.996788
1.05378 1.05758 1 0.996406
1.02175 1.02501 1 0.996827
0.998899 1.00026 1 0.998635
1.02261 1.0258 1 0.996884
0.999334 1.00055 1 0.99878
1 1 1 1
0.999917 1.001 1 0.998915
0.999626 1 1 0.999626
0.999655 1 1 0.999655
1.052 1.06042 0.995067 0.996976
1.05594 1.06155 0.998108 0.996606
1.05413 1.06352 0.994281 0.996873
1.05253 1.05634 1 0.996394
1.05606 1.06085 0.998995 0.996483
1.05488 1.06492 0.993875 0.99668
1.02358 1.02678 1 0.99688
1.05214 1.05581 1 0.996518
1.0543 1.0581 0.999886 0.996523
1.00129 1.00255 1 0.998743
1.02345 1.02652 1 0.997006
1.04905 1.05271 1 0.996525
1 1 1 1
1.00161 1.00286 1 0.998749
1.0207 1.02362 1 0.997152
0.999865 1.00108 1 0.998783
1 1 1 1
1 1 1 1
1.05019 1.05747 0.996127 0.996976
1.0508 1.06217 0.992181 0.997089
1.05226 1.06769 0.988443 0.997078
1.05712 1.06226 0.998484 0.996669
1.0511 1.05896 0.995579 0.996977
1.05379 1.06516 0.992088 0.99721
1.05136 1.06074 0.994112 0.997026
1.05694 1.06306 0.997508 0.996731
1.05106 1.05501 0.999748 0.996505
1.05764 1.06366 0.997694 0.996643
1.05239 1.05635 0.999812 0.996439
1.01925 1.02261 1 0.996713
1.05427 1.05808 1 0.996393
1.02039 1.02368 1 0.996789
0.998601 1 1 0.998601
1.02155 1.0248 1 0.996828
0.998738 1.00011 1 0.998633
1 1 1 1
0.998969 1.00032 1 0.998648
0.999791 1 1 0.999791
0.999647 1 1 0.999647
1.05037 1.05741 0.996394 0.996933
1.05683 1.06161 0.998822 0.996678
1.05181 1.06012 0.995168 0.996983
1.05264 1.05646 1 0.996386
1.05697 1.06224 0.998438 0.99659
1.05457 1.06317 0.99503 0.996864
1.0224 1.02569 1 0.996793
1.05216 1.05595 1 0.996408
1.05501 1.06021 0.998597 0.996495
1.00006 1.00134 1 0.99872
1.02327 1.02649 1 0.996868
1.05213 1.05581 1 0.996519
1 1 1 1
1.00157 1.00282 1 0.998752
1.0231 1.02621 1 0.996968
1 1 1 1
1.00139 1.00264 1 0.99876
1 1 1 1
1.05654 1.06154 0.998574 0.996714
1.04976 1.05705 0.99613 0.996961
1.05108 1.06221 0.992405 0.997096
1.05045 1.05436 0.999793 0.996501
1.05653 1.06198 0.998163 0.99669
1.05053 1.05875 0.995239 0.996989
1.0566 1.06283 0.997396 0.996732
1.05091 1.05496 0.999647 0.996505
1.01814 1.0215 1 0.996705
1.05276 1.05653 1 0.99643
1.01909 1.02243 1 0.996733
0.998558 1 1 0.998558
1.01988 1.02316 1 0.99679
0.998599 1 1 0.998599
1 1 1 1
0.998638 1.00001 1 0.99863
1 1 1 1
0.999621 1 1 0.999621
1.05765 1.06239 0.998843 0.99669
1.04961 1.0572 0.995858 0.996954
1.05194 1.05571 1 0.996428
1.05734 1.06213 0.99881 0.996677
1.05167 1.05987 0.995258 0.996991
1.02052 1.02377 1 0.996818
1.0519 1.05571 1 0.996382
1.05802 1.06295 0.998789 0.996575
0.99903 1.00036 1 0.998667
1.02252 1.02579 1 0.996813
1.05171 1.05549 1 0.996423
1 1 1 1
1.00038 1.00166 1 0.998726
1.02303 1.02626 1 0.996855
1 1 1 1
1.00177 1.00302 1 0.998761
1 1 1 1
1.05051 1.05429 0.999885 0.996526
1.05644 1.06134 0.998675 0.996702
1.04935 1.05663 0.996146 0.996946
1.01753 1.02088 1 0.99672
1.05028 1.05426 0.999725 0.996501
1.05589 1.06169 0.997822 0.996712
1.05075 1.05491 0.999546 0.996505
1.01824 1.02161 1 0.996704
0.998536 1 1 0.998536
1.01896 1.02228 1 0.996754
0.998556 1 1 0.998556
1 1 1 1
0.998597 1 1 0.998597
1 1 1 1
1 1 1 1
1.05155 1.0553 1 0.996452
1.05734 1.06229 0.998602 0.996736
1.04883 1.05696 0.995312 0.996976
1.01933 1.02258 1 0.996822
1.05154 1.05531 1 0.996425
1.05785 1.06266 0.998797 0.996676
0.998625 1 1 0.998621
1.02101 1.02427 1 0.996816
1.05122 1.05504 1 0.996379
1 1 1 1
0.999344 1.00067 1 0.998671
1.02282 1.02607 1 0.996833
1 1 1 1
1.00066 1.00193 1 0.998732
1 1 1 1
1.01786 1.02115 1 0.996782
1.05024 1.05414 0.999799 0.996503
1.05634 1.06117 0.998755 0.996689
0.998556 1 1 0.998556
1.01769 1.02105 1 0.996717
1.05013 1.05416 0.999668 0.996502
1.01835 1.02172 1 0.996702
0.998536 1 1 0.998536
1 1 1 1
0.998554 1 1 0.998554
1 1 1 1
1 1 1 1
1.0185 1.02176 1 0.996812
1.05117 1.05496 0.99994 0.996476
1.05706 1.06217 0.998404 0.996781
0.998834 1 1 0.998834
1.01965 1.0229 1 0.99682
1.05112 1.0549 1 0.996422
1 1 1 1
0.998719 1.0001 1 0.998622
1.02134 1.0246 1 0.996813
1 1 1 1
0.999538 1.00087 1 0.998674
1 1 1 1
0.998544 1 1 0.998544
1.01802 1.02132 1 0.996762
1.05001 1.05401 0.999722 0.996479
1 1 1 1
0.998555 1 1 0.998555
1.01785 1.0212 1 0.996714
0.998535 1 1 0.998535
1 1 1 1
1 1 1 1
0.998799 1 1 0.998799
1.01877 1.02203 1 0.996812
1.05075 1.0546 0.999847 0.9965
1 1 1 1
0.9986 1 1 0.9986
1.01997 1.02323 1 0.996819
1 1 1 1
0.998894 1.00027 1 0.998623
1 1 1 1
0.999577 1 1 0.999577
0.998683 1 1 0.998683
1.01814 1.02147 1 0.996742
1 1 1 1
0.998556 1 1 0.998556
1 1 1 1
0.999591 1 1 0.999591
0.998697 1 1 0.998697
1.01906 1.02232 1 0.996812
0.999793 1 1 0.999793
0.998601 1 1 0.998601
1 1 1 1
1 1 1 1
0.998578 1 1 0.998578
1 1 1 1
0.999794 1 1 0.999794
0.998593 1 1 0.998593
1 1 1 1
1 1 1 1
1 1 1 1

VECTORS lamdaE float
1.00164 1.00006 0.99339
1.00121 1.0008 0.996708
1.00114 1.00029 0.993714
1.0017 1.00005 0.993278
1.0017 0.999942 0.993426
1.00163 1.0003 0.993173
1.00295 1.00047 0.990334
1.00122 1.00075 0.996684
1.00108 1.00012 0.997257
1.0006 1.00089 0.997271
1.00101 1.00103 0.993255
1.00278 1.00121 0.988859
1.00117 0.99999 0.993932
1.00099 1.00001 0.994011
1.00068 1.00054 0.994011
1.00135 1.00003 0.993639
1.00106 1.00068 0.993461
1.00129 0.999999 0.993768
1.00319 1.0003 0.990182
1.0012 1.00002 0.996904
1.00159 1.0001 0.99339
1.00173 0.999974 0.993342
1.00304 1.00015 0.990525
1.00304 1.0002 0.990465
1.00168 1.00053 0.992817
1.00284 1.00095 0.990026
1.00526 1.00095 0.985728
1.00123 1.00071 0.996683
1.00131 1 0.995397
1.00095 1.00063 0.995367
1.00111 1.00082 0.996736
1.00268 1.00138 0.988878
1.0016 0.999798 0.993455
1.00138 1.00015 0.993551
1.00334 1.00008 0.990768
1.00009 1.00111 0.997538
1.00318 1.00065 0.990573
1.00239 1.00195 0.988789
1.00481 1.00137 0.985316
1.00029 0.999729 0.997824
1.00121 0.999992 0.996892
1.00121 1.00001 0.995403
1.00112 0.99997 0.996959
1.00076 1.00004 0.994298
1.00287 0.999942 0.990093
1.00118 0.999953 0.997174
1.00333 1.00008 0.990828
1.00101 0.999961 0.993999
1.00089 1.00005 0.994096
1.00054 1.00107 0.993728
1.0034 1.00012 0.990045
1.00101 1.00004 0.995589
1.00121 1.00012 0.993748
1.00109 1.00102 0.993094
1.00137 0.999943 0.993698
1.00321 1.00011 0.990344
1.00313 1.00069 0.989883
1.00324 1.0001 0.990306
1.00526 1.00093 0.985763
1.0011 1 0.996955
1.00142 1.00008 0.993612
1.0026 0.999995 0.991844
1.00288 1.00017 0.990754
1.00308 1.00013 0.990483
1.00523 1.0002 0.986483
1.00524 1.00036 0.986242
1.00133 1.00055 0.993141
1.00247 1.0019 0.989679
1.00527 1.00129 0.985389
1.00528 1.00022 0.985672
1.00161 1.00002 0.996762
1.001 1.00072 0.996922
1.00131 1.00053 0.996719
1.00261 1.0015 0.988886
1.00166 0.999916 0.996703
1.00149 1.0002 0.996783
1.00321 1.00002 0.989313
1.00036 1.00088 0.995739
1.00294 1.00067 0.989123
1.00225 1.00218 0.989749
1.00491 1.00123 0.985303
1.00057 1.00021 0.997418
1.00042 1.00227 0.991941
1.00336 0.999998 0.989159
1.00324 1.00013 0.989239
1.00526 1.00042 0.98561
1.00164 1.00264 0.991204
1.00511 1.0009 0.985293
1.00387 1.00277 0.985534
1.00534 1.00144 0.984277
1.00009 0.998909 0.998243
1.00013 0.999474 0.998001
1.00154 0.999986 0.996695
1.00126 0.99999 0.996872
1.00116 0.999976 0.996953
1.00103 1 0.995592
1.00291 0.999933 0.990798
1.00137 0.999959 0.995312
1.00324 1.0001 0.990112
1.00112 0.999983 0.996975
1.0027 0.999828 0.990417
1.00311 1.00005 0.991186
1.00498 0.999271 0.987345
1.00337 1.00004 0.99074
1.00525 0.999594 0.98658
1.00115 0.999997 0.993975
1.00083 1.00011 0.994109
1.00048 1.00152 0.993368
1.00101 0.999896 0.99405
1.00337 1.00012 0.990163
1.00342 1.00001 0.990155
1.00339 1.00043 0.98975
1.00525 1.00091 0.985797
1.00115 0.999983 0.996965
1.00106 1.00008 0.993968
1.00279 0.99995 0.990687
1.00304 1.00014 0.990568
1.00109 1.00099 0.994903
1.00285 1.00169 0.989725
1.00325 1.00008 0.990315
1.00524 1.00004 0.986672
1.00524 1.00129 0.985432
1.00525 1.00054 0.98612
1.00528 1.00022 0.985704
1.00269 0.99987 0.99043
1.00272 1.00007 0.991063
1.0049 0.999084 0.9882
1.00511 0.99966 0.987197
1.00523 1.00007 0.986581
1.00535 0.998438 0.987618
1.00063 1.00083 0.997169
1.0053 0.999482 0.986393
1.00185 1.00286 0.988596
1.005 1.00162 0.984763
1.00528 1.00106 0.984917
1.00525 0.998093 0.987693
1.00101 1.00302 0.99006
1.00219 1.00445 0.986764
1.00167 0.999933 0.996724
1.00147 1.00025 0.99677
1.00323 0.999994 0.989298
1.00057 1.00055 0.997308
1.00187 1.00249 0.989017
1.00292 1.00067 0.989146
1.00499 1.00114 0.985294
1.0004 1.00019 0.997567
1.00033 1.00233 0.991958
1.00338 1.00003 0.989945
1.00327 1.00018 0.98997
1.00526 1.00044 0.985584
1.00123 1.00282 0.989872
1.00517 1.00086 0.985278
1.00411 1.00237 0.985514
1.00534 1.00135 0.984442
1.00081 1.00259 0.990825
1.0002 1.00158 0.993007
1.00183 1.00466 0.987646
1.00527 1.00017 0.985888
1.00525 1.00066 0.985381
1.00529 0.999278 0.986711
1.00319 1.00329 0.986089
1.00532 1.00047 0.985482
1.00516 1.00212 0.983944
1.00531 1.00034 0.985283
1.00002 0.998409 0.998545
1.00002 0.998864 0.99837
1.00004 0.999354 0.998163
1.00073 1.00288 0.990749
1.00035 1.00063 0.997423
1.00166 0.999941 0.996681
1.00136 0.999993 0.996778
1.00308 1.00015 0.989466
1.00278 0.99994 0.990173
1.00115 0.999976 0.996936
1.0011 0.999975 0.996972
1.00269 0.999841 0.990409
1.00303 1.00004 0.990476
1.00496 0.999281 0.987343
1.00323 1.00008 0.989251
1.00521 0.999628 0.986576
1.00265 0.999831 0.990495
1.00493 0.99915 0.987545
1.00508 0.999432 0.987008
1.00533 0.996462 0.989744
1.00527 0.999893 0.986203
1.00534 0.99732 0.988839
1.00111 0.999982 0.996965
1.00066 1.00014 0.994323
1.00282 0.999943 0.989679
1.0032 1.00014 0.99038
1.00036 1.00157 0.997122
1.00334 1.0013 0.989774
1.00342 1.00004 0.990149
1.00525 0.999861 0.986861
1.00526 1.00069 0.985994
1.00522 1.00127 0.98548
1.00528 1.00022 0.985737
1.00266 0.999863 0.990434
1.00288 1.00009 0.990878
1.00493 0.999057 0.987926
1.00514 0.999844 0.987019
1.00078 1.00086 0.99705
1.00213 1.00261 0.989486
1.00482 1.00193 0.985009
1.00524 1.00012 0.986538
1.00536 0.998069 0.98802
1.00529 1.00096 0.984997
1.00529 0.999622 0.986347
1.00525 0.998116 0.987708
1.00106 1.00294 0.990042
1.00221 1.00437 0.986766
1.00489 0.999215 0.987546
1.00499 0.999413 0.987743
1.00532 0.997137 0.989059
1.00537 0.997212 0.988785
1.00532 0.998681 0.987272
1.00526 0.995817 0.990237
1.00134 1.00309 0.989324
1.00526 0.996986 0.988826
1.00421 1.0026 0.985001
1.00532 1.0017 0.984041
1.00524 0.999623 0.98633
1.00522 0.996366 0.989596
1.00301 1.00371 0.985901
1.00144 1.00502 0.987569
1.00384 1.00228 0.986165
1.00326 1.00001 0.989252
1.0002 1.00001 0.997738
1.00021 1.00243 0.991973
1.00311 1.00018 0.989285
1.00526 1.00045 0.985558
1.00116 1.00299 0.989793
1.00429 1.00197 0.985493
1.00524 1.0008 0.985259
1.00534 1.00123 0.984606
1.00076 1.00269 0.990836
1.00009 1.00162 0.99304
1.0015 1.00478 0.987614
1.00526 1.00019 0.98586
1.00525 1.00066 0.985358
1.00529 0.999279 0.986689
1.00332 1.00311 0.986101
1.0053 1.00057 0.985376
1.00529 1.00206 0.983899
1.00532 1.00006 0.985494
1.00013 1.00077 0.993887
1.00265 1.00386 0.986806
1.00111 1.00467 0.988601
1.00299 1.00258 0.987417
1.00529 0.998581 0.987462
1.00529 0.999966 0.985971
1.00524 0.997225 0.988625
1.00482 1.00218 0.984462
1.00523 0.9988 0.987169
1.00533 1.00132 0.984619
1.00534 0.999102 0.986528
1.00023 1.00229 0.992227
1.00027 0.999478 0.994917
1.00004 0.997865 0.998741
0.999994 0.99827 0.998621
0.999956 0.998718 0.998473
1.00028 1.00264 0.99166
1.00017 1.00027 0.997688
1.00078 1.00279 0.990709
1.00047 1.00068 0.997336
1.00321 1.00011 0.989253
1.00294 1.00002 0.989839
1.00517 0.999666 0.986574
1.00495 0.999298 0.987341
1.0027 0.999858 0.990409
1.00115 0.999964 0.996969
1.00267 0.999825 0.990498
1.00491 0.999161 0.987549
1.00508 0.999435 0.987005
1.00532 0.996481 0.989752
1.00526 0.999911 0.986179
1.00533 0.997304 0.988839
1.00489 0.999141 0.987604
1.0053 0.996321 0.989951
1.00537 0.996824 0.989328
1.0053 0.99494 0.991251
1.00529 0.997907 0.988219
1.00522 0.995202 0.990938
1.00267 0.999862 0.990443
1.00305 1.00006 0.990692
1.00496 0.99901 0.987653
1.00517 0.999999 0.986843
1.00092 1.00091 0.996909
1.00248 1.00244 0.990161
1.0048 1.00219 0.98525
1.00525 1.00016 0.986494
1.00536 0.997704 0.988421
1.00529 0.999768 0.986303
1.0053 1.00084 0.985076
1.00524 0.998137 0.987723
1.0011 1.00287 0.990024
1.00227 1.00427 0.986769
1.0049 0.999008 0.987743
1.00502 0.999377 0.987717
1.00532 0.99699 0.989224
1.00538 0.997623 0.988383
1.00141 1.00304 0.989326
1.00412 1.0028 0.985031
1.00532 1.00183 0.983911
1.00531 0.998903 0.987115
1.00524 0.99559 0.990463
1.00524 0.999388 0.986562
1.00526 0.997013 0.988821
1.00521 0.996328 0.989513
1.00304 1.00385 0.985853
1.00373 1.00255 0.985994
1.00145 1.00487 0.987615
1.00531 0.996915 0.989327
1.00536 0.997207 0.988959
1.00526 0.995203 0.991015
1.00527 0.995046 0.990987
1.00526 0.996032 0.989781
1.00522 0.994965 0.99093
1.00355 1.0034 0.985371
1.00522 0.995344 0.990362
1.00529 1.00261 0.983291
1.00526 1.00072 0.984945
1.0052 0.997961 0.98793
1.00518 0.995835 0.990091
1.00089 1.00503 0.988244
1.00461 1.0026 0.984779
1.00293 1.00365 0.986227
1.00506 1.0022 0.984787
1.00526 1.00021 0.985832
1.00004 1.00159 0.993069
1.0006 1.0029 0.990857
1.00119 1.00482 0.987581
1.00526 1.00066 0.985332
1.00528 0.999283 0.986667
1.00345 1.00283 0.986119
1.00532 1.00204 0.983853
1.00531 1.00069 0.985271
1.00532 0.999785 0.985704
1.00011 1.00072 0.993929
1.00256 1.0037 0.986845
1.00091 1.00478 0.988582
1.00291 1.00263 0.987438
1.00529 0.998585 0.98744
1.00529 0.999966 0.985949
1.00524 0.997213 0.988623
1.00493 1.00216 0.984451
1.00523 0.99898 0.986946
1.0053 1.0012 0.984596
1.00534 0.998961 0.9867
1.00022 0.999979 0.994549
1.00075 1.00404 0.989839
1.00384 1.00226 0.98609
1.0021 1.00404 0.987916
1.00376 1.00018 0.988591
1.00524 0.996376 0.989529
1.00523 0.998029 0.98776
1.00522 0.995987 0.989677
1.00505 1.002 0.984299
1.00525 0.997737 0.988003
1.00512 1.00012 0.985803
1.00038 1.0025 0.991767
1.00034 1.00398 0.990403
1.00009 1.00207 0.992688
1.0002 1.00232 0.992226
1.00023 0.999206 0.995901
1.00025 0.999422 0.995322
1.00022 0.997448 0.997359
1.00004 0.997813 0.998781
0.999978 0.998171 0.998684
0.999922 1.00203 0.992873
0.999986 0.999759 0.998067
1.00039 1.00255 0.991651
1.00029 1.00035 0.997582
1.00086 1.0027 0.990671
1.00059 1.00071 0.997248
1.00524 0.999929 0.986157
1.00507 0.99943 0.987001
1.00531 0.997312 0.98884
1.00532 0.996498 0.98976
1.00489 0.999173 0.987554
1.00266 0.999812 0.990495
1.00488 0.999142 0.987609
1.00531 0.996328 0.989954
1.00534 0.996844 0.989339
1.00529 0.994935 0.991249
1.0053 0.997894 0.988204
1.00524 0.99518 0.990953
1.00531 0.996359 0.989924
1.00529 0.994959 0.991282
1.00526 0.994983 0.991192
1.00523 0.994961 0.991222
1.00524 0.995661 0.99036
1.00525 0.994895 0.990964
1.00491 0.998804 0.987941
1.00504 0.99937 0.98769
1.00532 0.996879 0.989387
1.00539 0.998038 0.987981
1.00148 1.00299 0.989332
1.0039 1.00314 0.985067
1.00533 1.00196 0.983782
1.0053 0.999112 0.986958
1.00522 0.99537 0.99069
1.00527 0.997039 0.988817
1.00525 0.999159 0.986795
1.00521 0.996272 0.989429
1.00305 1.0041 0.985802
1.00358 1.0027 0.985821
1.00143 1.00468 0.987659
1.00531 0.996712 0.989561
1.00535 0.997171 0.988972
1.00527 0.995087 0.99113
1.00526 0.99528 0.990773
1.00348 1.00358 0.985373
1.00527 1.00265 0.983339
1.00526 1.00089 0.984754
1.00526 0.996298 0.989513
1.00523 0.994944 0.990917
1.00522 0.997842 0.987904
1.00522 0.995366 0.990336
1.00519 0.995732 0.990132
1.00435 1.00287 0.984753
1.00489 1.00218 0.984559
1.00106 1.00489 0.98826
1.00279 1.00357 0.986241
1.00527 0.99496 0.991334
1.00527 0.995312 0.990765
1.00521 0.994947 0.991285
1.00521 0.994907 0.990988
1.00524 0.99496 0.990741
1.00527 0.994914 0.990779
1.00517 1.00286 0.983485
1.00521 0.994986 0.990618
1.00524 1.00213 0.983643
1.00523 0.999875 0.985707
1.0052 0.997203 0.98843
1.00521 0.995842 0.989976
1.00062 1.00452 0.989257
1.0016 1.00509 0.986642
1.00512 1.00307 0.983297
1.0047 1.0029 0.985416
1.00494 1.00365 0.983248
1.00008 1.00062 0.993971
1.0053 0.998587 0.987417
1.00069 1.0049 0.988563
1.00242 1.00367 0.986884
1.00287 1.00254 0.987457
1.00529 0.999966 0.985927
1.00524 0.997201 0.98862
1.00518 1.00197 0.984437
1.00529 1.00112 0.984575
1.00523 0.999147 0.986724
1.00533 0.998839 0.986871
1.0002 0.999924 0.99458
1.00052 1.00416 0.989852
1.00409 1.00188 0.986169
1.00173 1.00413 0.98784
1.00371 1.00023 0.988149
1.00524 0.996346 0.989537
1.00523 0.998011 0.987759
1.00522 0.995936 0.989679
1.00509 1.00207 0.984215
1.00526 0.997824 0.987825
1.00516 1.00014 0.98595
1.00046 1.00316 0.991042
1.00114 1.00505 0.988662
1.00448 1.00173 0.985549
1.00277 1.00236 0.988153
1.00489 1.00045 0.987581
1.00528 0.99532 0.990356
1.00522 0.996742 0.988802
1.00523 0.99551 0.989835
1.00494 1.00127 0.98478
1.00512 0.998729 0.986857
1.00037 1.00253 0.991767
1.0005 1.00368 0.990211
1.00011 1.00413 0.990373
1.00052 1.00423 0.990169
1.00014 1.00389 0.990868
1.00001 1.00181 0.993058
1.00006 1.00207 0.992702
1.00018 0.999025 0.996123
1.00018 1.00235 0.992225
1.00024 0.999158 0.995934
1.00025 0.997189 0.997511
1.00025 0.999395 0.995717
1.00013 0.997498 0.998116
1.00004 0.997714 0.998816
0.999799 1.0009 0.994163
1 1.00191 0.992868
0.999793 0.999024 0.998505
1.00011 0.999818 0.997911
1.00048 1.00241 0.991643
1.00038 1.00044 0.997483
1.00531 0.997879 0.988189
1.00532 0.996843 0.989349
1.00525 0.995161 0.990967
1.00529 0.994931 0.991249
1.00531 0.996333 0.989956
1.00488 0.999143 0.987614
1.00531 0.996361 0.989923
1.00528 0.994959 0.991289
1.00527 0.99497 0.991206
1.00524 0.994962 0.991195
1.00523 0.995618 0.990376
1.00526 0.994901 0.990961
1.00528 0.994959 0.991311
1.00524 0.994943 0.991305
1.00524 0.994951 0.991092
1.00528 0.994943 0.991122
1.00527 0.994976 0.990769
1.00532 0.994899 0.99083
1.00531 0.996504 0.989794
1.00535 0.997124 0.988985
1.00527 0.99495 0.991245
1.00525 0.995519 0.990558
1.00342 1.00367 0.985375
1.00523 1.00264 0.983382
1.00526 1.001 0.984561
1.00526 0.996562 0.989245
1.00524 0.994909 0.990904
1.00523 0.995387 0.990309
1.00522 0.997733 0.987879
1.0052 0.995585 0.990178
1.00399 1.00336 0.984731
1.00492 1.00225 0.984333
1.00125 1.00476 0.988275
1.00272 1.00333 0.986258
1.00527 0.99496 0.991327
1.00528 0.995274 0.990814
1.00521 0.994945 0.99126
1.00521 0.994913 0.991002
1.00497 1.00307 0.983501
1.00524 1.00221 0.983535
1.00522 0.999858 0.985691
1.00525 0.994999 0.990688
1.00526 0.994915 0.990757
1.00519 0.997215 0.988431
1.00521 0.994952 0.990602
1.00521 0.99566 0.99009
1.00508 1.00314 0.983362
1.00486 1.0038 0.983052
1.00412 1.00263 0.985449
1.00061 1.00434 0.989316
1.00151 1.00508 0.986784
1.00523 0.994949 0.991257
1.00524 0.994939 0.991096
1.00528 0.994901 0.990699
1.00526 0.994899 0.990719
1.00518 1.00323 0.982874
1.00523 0.994991 0.990492
1.00514 1.00147 0.984019
1.00518 0.999249 0.986245
1.00517 0.996897 0.988626
0.999999 1.00364 0.990906
1.00119 1.00509 0.988046
1.0022 1.00507 0.986317
1.00499 1.0042 0.9826
1.005 1.00284 0.984308
1.00495 1.00323 0.982733
1.00018 0.999881 0.994612
1.00035 1.00434 0.989864
1.00524 0.996318 0.989546
1.00139 1.00426 0.987763
1.0043 1.00175 0.986253
1.00366 1.00046 0.987712
1.00522 0.997995 0.987757
1.00522 0.995889 0.98968
1.00519 1.00203 0.984131
1.00518 1.00017 0.9861
1.00528 0.997897 0.987646
1.00039 1.00323 0.991046
1.00074 1.00508 0.988659
1.00479 1.00158 0.985273
1.00263 1.00235 0.988159
1.00448 0.999799 0.987397
1.00526 0.995283 0.990379
1.00523 0.996761 0.98878
1.00524 0.99555 0.989808
1.00495 1.0013 0.984876
1.00512 0.998841 0.986834
1.00074 1.00443 0.989675
1.00055 1.00468 0.988642
1.00482 1.00195 0.984791
1.00334 1.00092 0.987597
1.00496 1.00079 0.986512
1.00524 0.994952 0.990471
1.00527 0.996869 0.988421
1.00529 0.995848 0.989251
1.005 1.00013 0.985994
1.00511 0.999002 0.986745
1.00035 1.00254 0.991766
1.00051 1.00381 0.990186
0.999978 1.00397 0.990686
0.999945 1.00422 0.990341
1 1.00403 0.990863
0.999995 1.00453 0.990285
0.999933 1.00344 0.991618
0.999861 1.00465 0.990238
0.999964 1.00365 0.991368
0.999997 1.0018 0.993093
1 1.0018 0.993062
1.00009 0.998947 0.996314
1.00002 1.00203 0.992714
1.00019 0.998993 0.996156
1.00022 0.997071 0.99765
1.00026 0.99911 0.99597
1.00021 0.997236 0.997508
1.00002 0.997527 0.998895
0.99982 0.999859 0.995163
0.999846 1.00093 0.994116
0.999734 0.998388 0.998811
1.00013 1.00178 0.992863
0.999915 0.999204 0.998344
1.00023 0.999955 0.997768
1.00523 0.995566 0.990393
1.00528 0.99496 0.99122
1.00526 0.994907 0.99096
1.00525 0.994963 0.991169
1.00528 0.99496 0.991296
1.00531 0.996366 0.989923
1.00528 0.994961 0.991326
1.00524 0.994944 0.991311
1.00524 0.99495 0.991108
1.00527 0.99494 0.991108
1.00528 0.994982 0.990794
1.00531 0.994898 0.990777
1.00524 0.994948 0.991303
1.00528 0.994931 0.991205
1.00529 0.994936 0.990968
1.00531 0.994866 0.990643
1.00528 0.99496 0.99132
1.00529 0.995244 0.990863
1.00521 0.994942 0.991235
1.00521 0.994918 0.991018
1.00482 1.00312 0.983515
1.00524 1.00233 0.983431
1.00521 0.999898 0.985675
1.00526 0.995047 0.990635
1.00526 0.994915 0.990735
1.00522 0.994935 0.990586
1.00518 0.997197 0.988429
1.0052 0.995566 0.990204
1.00478 1.00325 0.983426
1.00487 1.0039 0.98286
1.0036 1.00283 0.985479
1.00062 1.00411 0.989386
1.00153 1.0051 0.986926
1.00523 0.99495 0.99125
1.00524 0.994937 0.99112
1.00528 0.994907 0.990727
1.00516 1.00324 0.98293
1.00514 1.00171 0.983915
1.00516 0.999292 0.986245
1.00525 0.994901 0.990723
1.00518 0.996766 0.988853
1.00523 0.995018 0.990453
0.999952 1.00344 0.991145
1.00478 1.00412 0.982686
1.00471 1.00457 0.9824
1.00462 1.00311 0.984417
1.00248 1.00482 0.986306
1.00095 1.00509 0.988066
1.00528 0.994936 0.991156
1.0053 0.994907 0.990877
1.00529 0.994899 0.990609
1.00525 0.994865 0.990591
1.00508 1.00311 0.983101
1.00519 0.995285 0.990328
1.00505 1.00109 0.984705
1.00511 0.999216 0.986419
0.999946 1.00173 0.992815
1.0003 1.00492 0.98969
1.00177 1.0051 0.987703
1.00299 1.00489 0.984932
1.00464 1.00456 0.98328
1.00488 1.00381 0.983034
1.00031 1.00331 0.991049
1.00028 1.00511 0.988658
1.00524 0.995245 0.990403
1.00248 1.00228 0.988161
1.00512 1.00142 0.984993
1.00382 0.999695 0.987205
1.00525 0.99678 0.988758
1.00524 0.995588 0.989778
1.00498 1.00142 0.984968
1.00515 0.998977 0.98681
1.00053 1.00447 0.989683
1.00102 1.00468 0.988378
1.00482 1.00194 0.984763
1.00375 1.0009 0.987511
1.00476 1.00106 0.986224
1.00525 0.995 0.990495
1.00526 0.996779 0.98864
1.00528 0.995895 0.989346
1.00494 1.00011 0.986046
1.00505 0.999227 0.98653
0.999616 1.0044 0.98999
1.00083 1.00368 0.988857
1.00481 1.00078 0.985935
1.00441 1.00031 0.98651
1.00534 0.994853 0.990401
1.00527 0.995435 0.990082
1.00524 0.998012 0.987141
1.00511 0.999399 0.986241
1.00068 1.00379 0.990161
1.00014 1.00395 0.990634
0.999239 1.0038 0.992859
0.999859 1.00419 0.99086
0.999432 1.00485 0.990403
0.999937 1.00366 0.991353
0.999592 1.00346 0.992026
0.999909 1.00479 0.990161
0.999739 1.00108 0.994264
0.999754 1.00444 0.990916
0.999781 1.00456 0.990375
1.00009 1.00343 0.991382
0.999964 1.00202 0.992867
0.999959 1.0018 0.993083
0.99998 0.998985 0.996437
0.999979 1.00177 0.993069
1.0001 0.998946 0.996334
1.00014 0.997093 0.997758
1.0002 0.998967 0.996191
1.00021 0.997098 0.997645
1.00017 0.997288 0.997497
0.999958 0.99909 0.995762
0.999822 0.999992 0.995097
0.999725 0.997891 0.998984
0.999855 1.00102 0.994066
0.999781 0.998491 0.998727
1.00006 0.999273 0.998168
1.00528 0.994987 0.990818
1.00524 0.994948 0.991124
1.0053 0.994898 0.990724
1.00527 0.994936 0.991094
1.00524 0.994943 0.991316
1.00528 0.994963 0.991341
1.00524 0.994948 0.991314
1.00528 0.994929 0.9912
1.00529 0.994929 0.990951
1.00531 0.994863 0.990654
1.00527 0.994932 0.991231
1.00528 0.994922 0.991112
1.00533 0.994888 0.990754
1.00522 0.994952 0.991244
1.00524 0.994936 0.991144
1.00528 0.994914 0.990754
1.00519 1.00321 0.982988
1.00514 1.00186 0.983809
1.00515 0.999184 0.986243
1.00524 0.994902 0.990726
1.00523 0.995035 0.990413
1.00521 0.996543 0.989075
1.00467 1.00398 0.982771
1.00487 1.00469 0.982088
1.0043 1.00313 0.984525
0.999989 1.00326 0.991392
1.00289 1.00451 0.986294
1.00064 1.00509 0.988076
1.00527 0.994938 0.991173
1.0053 0.994903 0.990845
1.00529 0.994896 0.9906
1.00504 1.00319 0.983128
1.00494 1.00098 0.984617
1.0051 0.998964 0.986762
1.00525 0.994868 0.990561
1.00503 0.995334 0.990275
0.999956 1.00171 0.993035
1.0002 1.00491 0.989664
1.00465 1.00336 0.983156
1.00472 1.00372 0.983226
1.00349 1.00452 0.985063
1.00153 1.00509 0.987508
1.00529 0.994907 0.991102
1.00533 0.994856 0.990589
1.00529 0.994893 0.990551
1.00521 0.994889 0.990343
1.00448 1.00242 0.984088
1.00516 0.996768 0.988935
1.00496 1.00119 0.98488
1.00013 1.00081 0.993878
1.00023 1.00197 0.992674
0.999592 1.00361 0.991765
1.00074 1.00504 0.988772
1.00146 1.00506 0.986745
1.00401 1.00418 0.983532
1.00338 1.00427 0.98467
1.00377 1.00508 0.984555
1.00026 1.00455 0.989692
1.00144 1.00466 0.988113
1.00527 0.995047 0.990519
1.0042 1.00003 0.98743
1.00482 1.0019 0.984739
1.0047 1.00132 0.985946
1.00526 0.996663 0.988862
1.00527 0.995927 0.989445
1.00495 1.00005 0.986098
1.00501 0.999381 0.986316
1.0002 1.00416 0.989821
1.00125 1.00382 0.988556
1.00491 1.00078 0.985783
1.00481 1.00055 0.986577
1.00534 0.994832 0.990404
1.00529 0.995366 0.990022
1.00519 0.997963 0.987255
1.00514 0.999474 0.986241
0.999624 1.00434 0.990378
1.00537 0.99489 0.990405
1.00303 1.00312 0.988193
1.00483 0.999932 0.986433
1.0053 0.994845 0.99071
1.0052 0.997132 0.987101
1.00507 1.0005 0.985683
1.00027 1.00397 0.990581
0.999093 1.00361 0.992771
0.998161 1.00222 0.995963
0.999938 1.00358 0.991339
0.999931 1.00494 0.990083
0.998535 1.00417 0.992427
1.0001 1.00333 0.991372
0.999798 1.00463 0.990381
0.998778 1.00187 0.994664
0.999891 1.00439 0.990787
0.99928 0.99963 0.997274
0.998968 1.00285 0.993543
0.999679 1.00498 0.990229
1.00032 1.00449 0.98984
1.00019 1.00357 0.990981
0.999923 1.0023 0.992657
0.999897 1.00216 0.992846
0.999857 0.99918 0.996493
0.999918 1.0019 0.993073
0.999996 0.99902 0.996436
1.00003 0.997207 0.997845
1.00011 0.998926 0.996357
1.00015 0.997102 0.997752
1.0002 0.997127 0.997633
1.00013 1.00075 0.993974
1.00003 0.998656 0.996089
0.999944 0.999184 0.995716
0.9998 0.997534 0.999076
0.999825 1.0001 0.995033
0.999759 0.998011 0.998944
0.999856 0.99864 0.998612
1.00531 0.994861 0.990666
1.00529 0.994921 0.990935
1.00528 0.994929 0.991196
1.00524 0.994948 0.991325
1.00527 0.99493 0.991236
1.00528 0.994921 0.991124
1.00531 0.99489 0.990716
1.00528 0.994914 0.991168
1.00534 0.994906 0.990958
1.00549 0.995106 0.99108
1.00527 0.99494 0.99119
1.0053 0.994897 0.990812
1.0053 0.994895 0.990592
1.00483 1.0033 0.983156
1.00498 1.0014 0.984554
1.00486 0.998835 0.987099
1.00524 0.994881 0.99053
1.00498 0.995429 0.990225
1.00428 1.00385 0.983035
1.00436 1.00427 0.983375
1.00347 1.00413 0.985194
0.999956 1.00162 0.993252
1.00013 1.00494 0.989637
1.00134 1.00509 0.987309
1.00529 0.994906 0.991082
1.00011 1.0008 0.993867
1.00015 1.00201 0.992526
1.00533 0.994868 0.990602
1.00528 0.994893 0.990562
1.00474 1.00266 0.983989
1.00472 1.00112 0.985119
1.00507 0.996589 0.988846
1.00522 0.994887 0.990301
0.999683 1.00354 0.991929
1.00072 1.00505 0.988722
1.00364 1.00413 0.984529
1.00374 1.00463 0.983939
1.00424 1.00438 0.983499
1.00165 1.00508 0.986689
1.00538 0.994869 0.990827
1.00534 0.994838 0.99048
1.00525 0.994857 0.990432
1.00519 0.994919 0.990362
1.00406 1.00218 0.9853
1.00457 1.00045 0.986724
1.00008 1.00245 0.992082
0.999929 1.00213 0.992866
1.00149 1.00057 0.992338
1.00058 1.00385 0.989925
1.00099 1.0051 0.988224
1.0026 1.0045 0.986276
1.0026 1.0051 0.984233
1.00234 1.00124 0.988823
1.0007 1.00397 0.989653
1.00169 1.00402 0.988251
1.00535 0.994812 0.990407
1.0053 0.995356 0.989962
1.00524 1.00099 0.986641
1.00494 1.00081 0.985628
1.00514 0.99793 0.987368
1.00516 0.999573 0.986243
1.00026 1.00397 0.990259
1.00538 0.994926 0.990636
1.00218 1.00328 0.988376
1.00498 1.00011 0.986247
1.0053 0.99485 0.99073
1.00519 0.99732 0.987301
1.00496 1.00036 0.985656
0.99939 1.00496 0.991421
1.00496 0.994793 0.99077
1.00236 1.00251 0.988234
1.00469 1.00138 0.984996
1.0051 0.995587 0.989951
1.0037 1.00099 0.986314
0.998789 0.995033 0.986016
0.998842 1.00364 0.992692
0.997726 1.0026 0.995997
0.998053 1.00168 0.99714
1.00001 1.00339 0.991362
0.999715 1.00479 0.990388
1.00035 1.00406 0.990661
0.998275 1.00214 0.995082
1.00012 1.00367 0.990983
1.00024 1.00443 0.989926
0.99929 0.999417 0.997096
0.999743 1.00495 0.990237
0.999387 1.00287 0.993075
0.998075 1.00132 0.997408
1.00041 1.00407 0.990241
1.00013 1.00489 0.98999
1.00073 1.00431 0.989577
1.00014 1.004 0.990412
1.00035 1.00481 0.989927
1.00008 1.00424 0.990195
0.9999 1.00237 0.992598
0.999915 1.00232 0.992641
0.999733 0.999262 0.995951
0.999887 1.00215 0.992824
0.999843 0.999223 0.996169
0.999992 0.997353 0.999094
1 0.999064 0.996438
1.00004 0.997185 0.997842
1.00016 0.997109 0.997741
1.00004 1.00062 0.994162
1.00015 1.00065 0.994005
1.00008 0.998395 0.996322
1.00002 0.998672 0.996372
0.99986 0.997255 0.999146
0.999923 0.999306 0.99567
0.999801 0.99761 0.999055
0.999793 0.99804 0.998906
1.00529 0.994892 0.990678
1.00528 0.99492 0.991136
1.00527 0.994928 0.991242
1.00528 0.994914 0.991169
1.00534 0.994907 0.990928
1.00547 0.995017 0.990851
1.00543 0.994875 0.99095
1.00131 0.994846 0.981474
1.00485 0.995047 0.99196
1.00011 1.00185 0.992823
1.00529 0.994906 0.991061
1.00533 0.994878 0.990615
1.00527 0.994886 0.990573
1.0048 1.00233 0.983865
1.00496 1.00064 0.985338
1.00485 0.996465 0.988752
1.00522 0.99488 0.990261
1.0042 1.00328 0.98444
1.0043 1.00423 0.983392
1.00408 1.00434 0.983464
1.0001 1.00082 0.993859
1.00221 1.00508 0.98663
0.999735 1.00347 0.992078
1.00071 1.00505 0.98867
1.00011 1.00202 0.99238
1.00537 0.99486 0.99083
1.00005 1.00242 0.992245
0.999909 1.00219 0.992889
1.00103 1.00072 0.992748
1.00534 0.994843 0.990453
1.00523 0.994859 0.990393
1.00326 1.00312 0.985397
1.00481 0.999164 0.987206
1.00518 0.994911 0.9903
1.00041 1.00386 0.990125
1.00124 1.00509 0.988059
1.00262 1.00259 0.988126
1.00316 1.00494 0.983962
1.00303 1.00377 0.986448
1.00536 0.994775 0.990974
1.00525 0.994799 0.990711
1.00518 0.994956 0.989939
1.00507 0.996835 0.990387
1.00179 1.00174 0.989169
0.999464 1.00351 0.991867
1.00146 1.00098 0.991677
1.00006 1.00025 0.993091
1.00085 1.00435 0.990117
1.00055 1.00504 0.989122
1.00097 1.00413 0.988151
1.00181 1.00008 0.99127
1.00119 1.00352 0.990134
1.0012 1.00339 0.988564
1.00539 0.994968 0.990859
1.00531 0.994808 0.990742
1.00518 0.997468 0.9875
1.00503 1.00023 0.986058
1.00486 1.00021 0.985634
0.999867 1.00471 0.991406
1.00467 0.99483 0.990977
1.00265 1.00238 0.988042
1.00479 1.00138 0.984913
1.00506 0.995482 0.990234
1.00398 1.00086 0.986392
0.998554 0.996137 0.984107
0.998407 1.00438 0.992853
1.00308 0.995696 0.991115
1.00328 1.00235 0.986107
1.00304 1.00109 0.98702
1.00347 0.997543 0.990669
0.999958 0.994876 0.943171
0.995161 0.994778 0.964494
0.995707 0.999201 0.988002
0.999111 0.9948 0.857774
0.994709 0.994851 0.819217
0.997415 1.00287 0.996023
0.997552 1.00186 0.997331
0.997505 1.00303 0.996936
1.00009 1.00371 0.990985
1.00023 1.00435 0.990011
0.9999 1.00487 0.990246
0.999664 1.00303 0.992588
0.999235 0.998918 0.99691
1.00003 1.00493 0.990047
1.00018 1.00397 0.990491
1.00063 1.00433 0.989595
0.998442 1.00042 0.996842
0.999963 1.00432 0.990624
1.00046 1.00449 0.990669
0.998626 1.0043 0.992637
1 1.00471 0.990351
1.00055 1.00464 0.989065
1.00017 1.00408 0.990345
1.00027 1.00498 0.989411
1.00037 1.00412 0.990689
0.999663 1.00493 0.990604
1.00018 1.00476 0.989919
1.00025 1.00399 0.990528
1.00013 1.00423 0.990196
0.999903 1.00241 0.992588
0.999909 1.00239 0.992602
0.999705 0.999317 0.995983
0.999877 1.00242 0.992624
0.999718 0.999305 0.995948
0.999942 0.997347 0.999127
0.999819 0.99928 0.995848
0.999961 0.997351 0.998484
1.00007 0.997166 0.997837
0.999914 1.00044 0.994501
1.00002 1.00067 0.994167
1.00009 0.998212 0.996513
1.00017 1.00053 0.994036
1.00007 0.998342 0.99661
0.999916 0.996958 0.999205
1.00004 0.998734 0.996033
0.99986 0.99739 0.999117
0.999812 0.997715 0.999037
1.00533 0.994907 0.990898
1.00528 0.994914 0.99117
1.00545 0.994908 0.990629
1.00063 0.99484 0.981639
1.00543 0.994876 0.990953
1.00468 0.994968 0.991798
1.00527 0.995742 0.991176
0.996141 0.994889 0.964205
1.00161 0.995196 0.983448
1.00017 1.00156 0.993103
1.00007 1.00202 0.992785
0.9994 1.00384 0.991864
0.999854 1.00245 0.992562
1.00537 0.994856 0.990832
1.00535 0.994853 0.990425
1.00523 0.994868 0.990355
1.00415 1.0036 0.985502
1.00466 0.99731 0.987718
1.00518 0.99491 0.990239
1.00226 1.00319 0.987389
1.00468 1.00483 0.983679
1.00323 1.00213 0.986609
0.999865 1.00229 0.992916
1.00109 1.00509 0.987909
1.00031 1.00394 0.990326
0.999952 1.00258 0.992405
1.00051 1.001 0.993125
1.00536 0.99478 0.990977
0.99981 1.00349 0.991635
1.00152 1.00056 0.991956
0.998153 1.00117 0.995719
1.00526 0.994823 0.990631
1.00519 0.995026 0.989954
1.00313 1.00056 0.989188
1.0047 0.99589 0.990628
1.00095 1.00447 0.989425
1.00085 1.00468 0.988238
1.00156 1.00144 0.991208
1.00247 1.00344 0.987554
1.00427 0.995257 0.991496
1.00514 0.99502 0.990994
1.00507 0.995879 0.989669
1.00352 0.996287 0.993282
0.997814 1.00463 0.993493
1.00116 1.00158 0.991234
0.998059 1.00464 0.993284
0.99922 1.00447 0.991547
0.99999 0.994886 0.929502
1.00011 1.00454 0.99139
1.00271 1.00267 0.987842
1.00428 0.994867 0.991214
1.00503 0.995415 0.990512
1.00416 1.00077 0.986448
1.00467 1.00148 0.984821
0.998434 0.996909 0.982054
0.998912 1.00421 0.992889
1.00298 0.995992 0.991004
1.00324 1.00272 0.986104
1.00361 1.00098 0.987135
1.00379 0.997651 0.990428
0.999949 0.994863 0.930049
0.995538 0.994804 0.961074
0.995666 0.999713 0.988244
0.998032 0.994772 0.862599
0.99472 0.994849 0.810463
0.999162 1.00422 0.991795
0.999782 0.994819 0.868792
0.994727 0.994815 0.811143
1.00044 0.999402 0.99263
1.00156 1.00195 0.989536
1.00148 0.999579 0.992551
0.994905 0.99818 0.990859
0.997599 0.994819 0.942198
0.994893 0.994779 0.957042
0.996272 0.994828 0.881046
0.994731 0.994818 0.801022
0.997107 1.0021 0.997534
0.997304 1.00244 0.996817
0.997403 1.00459 0.995703
1.00025 1.00391 0.990567
1.00058 1.0043 0.989614
0.999543 1.00503 0.990104
0.999653 1.00459 0.991006
0.998982 0.999675 0.996285
1.00022 1.00401 0.990348
1.0002 1.00452 0.99051
0.999878 1.00486 0.990156
1.00072 1.00463 0.989205
0.998557 1.00411 0.992935
0.999377 1.00434 0.992176
0.997327 1.00504 0.993756
1.00004 1.00506 0.989555
1.0005 1.00469 0.989471
1.00041 1.00497 0.989386
1.00014 1.00366 0.991002
1.00021 1.00497 0.989899
0.999938 1.00355 0.991567
0.999103 1.00258 0.992451
0.999049 1.00498 0.991139
0.999456 1.00479 0.990729
0.999795 1.00472 0.990629
1.0001 1.00407 0.990604
1.00005 1.00477 0.989912
1.00026 1.00398 0.990456
0.999993 1.00241 0.992463
1.00019 1.00424 0.990198
0.999927 1.00235 0.992599
0.999901 0.999287 0.996413
0.999881 1.00241 0.992605
0.999755 0.999287 0.996239
0.999892 0.99732 0.997973
0.999706 0.999317 0.995942
0.999935 0.997362 0.999136
0.99995 0.99738 0.997872
1.00028 1.00152 0.992898
0.999921 1.00032 0.994643
0.999916 1.00048 0.994494
1.00005 0.998138 0.996624
0.999997 1.00073 0.994171
1.00009 0.998177 0.99651
0.999963 0.996837 0.999238
1.00006 0.99834 0.996855
0.999918 0.997131 0.998626
0.999883 0.997453 0.997939
1.00014 0.994823 0.98178
1.00544 0.994877 0.990954
1.00456 0.995307 0.991623
0.996372 0.994841 0.964739
1.00176 0.99509 0.983829
1.00526 0.995533 0.991158
1.00345 0.996219 0.986386
0.997379 0.994846 0.967313
0.999969 0.994867 0.94157
0.997566 0.994812 0.882619
0.994659 0.994808 0.817837
0.999674 1.00254 0.992594
1.00018 1.00151 0.993089
1.00018 1.00191 0.992745
0.999737 1.00325 0.992038
0.998988 1.00427 0.992516
1.00053 1.00212 0.991861
1.00023 1.00297 0.991819
1.00013 1.00222 0.992435
1.00538 0.99479 0.990971
1.00527 0.994842 0.990556
1.00519 0.995077 0.989963
1.00308 1.00091 0.989202
1.00456 0.995503 0.990866
1.00124 1.00214 0.991125
1.00384 1.00368 0.986967
1.00183 1.00491 0.987363
1.00146 1.00025 0.992226
1.00108 1.00458 0.988695
1.00037 1.00315 0.991418
0.996903 1.0019 0.998297
1.00426 0.994862 0.991779
0.998245 1.00433 0.993384
1.00088 1.00186 0.992008
1.00486 0.994914 0.990963
1.00468 0.995865 0.990051
1.00276 0.996486 0.992974
0.999488 1.00506 0.991465
1.00033 1.00312 0.991787
1.00335 0.994937 0.991012
1.0038 0.998624 0.990562
1.00449 0.995505 0.991377
1.00087 0.997645 0.994322
0.999314 1.00481 0.991074
0.998656 1.00464 0.992377
0.999439 1.00495 0.992018
0.999788 0.994918 0.871218
1.00022 0.994864 0.943764
0.999857 1.00371 0.992934
1.00341 1.00295 0.986113
1.00289 0.996619 0.99089
1.00409 0.997782 0.990201
1.00409 1.00097 0.987277
0.999987 0.994848 0.941443
0.995829 0.9948 0.96058
0.99566 0.999808 0.988522
0.997516 0.99483 0.880811
0.99474 0.99483 0.801196
0.999463 1.00421 0.991758
0.999812 0.994851 0.867763
0.994694 0.9948 0.804371
1.0005 0.999343 0.992572
1.00158 1.00214 0.989548
1.00138 0.999738 0.992968
0.994902 0.999242 0.991631
0.998349 0.99498 0.935802
0.994925 0.994794 0.958208
0.99572 0.994982 0.880806
0.994749 0.994812 0.799338
0.998347 1.00423 0.994497
0.994721 0.994799 0.801298
0.994745 0.994775 0.809376
0.99695 1.00192 0.996889
0.999875 1.00171 0.994936
0.994899 0.999343 0.988655
0.995044 0.994872 0.959945
0.99527 0.994781 0.930926
0.994754 0.99512 0.88544
0.994832 0.994846 0.806777
0.997382 1.00186 0.996705
0.997905 1.00393 0.995415
0.996676 1.00393 0.996065
1.00026 1.00395 0.990351
1.00082 1.00449 0.989345
0.999942 1.00499 0.989958
0.999869 1.00459 0.990354
0.998138 1.00397 0.993234
1.0005 1.00474 0.989453
0.999451 1.00407 0.991781
1.00028 1.00499 0.989577
0.996937 1.00494 0.994093
0.995983 1.00519 0.996507
0.998695 1.00487 0.992222
1.00057 1.00505 0.989446
1.00055 1.00475 0.989362
0.999993 1.00331 0.991308
1.0001 1.00491 0.989842
1.00006 1.0034 0.99147
0.99886 1.00309 0.993078
0.998914 1.00462 0.991595
0.998519 1.0051 0.991808
0.998521 1.00299 0.993978
1.00027 1.00182 0.992795
1.00288 0.999254 0.990891
0.999081 1.00488 0.991029
0.999293 1.00486 0.99118
0.999533 1.00501 0.990065
0.999529 1.00496 0.990737
1.00007 1.00417 0.990488
0.999727 1.00478 0.990652
1.00012 1.00407 0.990643
1.00002 1.0025 0.992233
1.00026 1.00404 0.990383
0.999974 1.00241 0.992477
1.00003 0.999257 0.996203
0.999924 1.00234 0.992611
0.999881 0.999258 0.996062
1.00001 0.997256 0.997818
0.999749 0.999271 0.995949
0.99995 0.997308 0.999147
0.999931 0.997358 0.999146
1.00036 1.00192 0.992731
0.999957 1.00047 0.99447
1.00016 1.00172 0.99291
1.00005 0.998094 0.996667
0.999909 1.00033 0.994641
0.999908 1.00054 0.994487
1.00006 0.998137 0.996613
0.999991 0.996749 0.999254
1.00007 0.998195 0.997011
0.999972 0.99684 0.998705
0.999934 0.997143 0.998106
0.999783 0.994827 0.855458
0.994697 0.994778 0.801057
0.996436 0.994845 0.965173
1.00144 0.9949 0.984318
1.00526 0.994786 0.991154
0.997068 0.995033 0.966696
1.0035 0.99524 0.986917
1.0006 0.994873 0.937858
0.998101 0.994776 0.86313
0.994704 0.994828 0.80937
0.997825 0.994774 0.973199
0.998178 0.994852 0.942275
0.996542 0.994851 0.881055
0.994762 0.994828 0.808144
0.999991 1.00345 0.991751
0.999815 1.00232 0.99271
1.00011 1.00164 0.993079
0.999872 1.00297 0.992211
0.998806 1.00415 0.992895
1.0003 1.0035 0.990789
1.00023 1.0029 0.991736
1.00058 1.00341 0.990406
1.00018 1.00297 0.9917
0.999964 1.00258 0.992303
1.00408 0.994763 0.992046
1.00472 0.994844 0.990933
1.00424 0.995887 0.990436
1.00226 0.996971 0.992662
1.00081 1.00262 0.992021
0.999538 1.00512 0.98968
1.0003 1.00211 0.99288
0.998412 1.00417 0.993256
1.00242 0.995013 0.991476
0.999392 1.00493 0.990848
0.998343 1.00493 0.992256
1.00348 0.997692 0.990716
1.00417 0.995576 0.991653
1.00107 0.997926 0.994564
0.999209 1.00494 0.991642
1.0002 0.995319 0.990022
1.00117 0.998827 0.993844
0.998503 1.00172 0.995381
0.998789 1.00446 0.990538
0.99839 1.00498 0.991392
0.998763 1.00489 0.992222
0.99472 0.994835 0.824566
0.999786 0.99488 0.876595
1 0.994879 0.9299
0.999336 1.00412 0.991698
1.00183 1.00237 0.989529
1.00056 0.999104 0.992507
1.00116 0.999806 0.99339
0.999818 0.994881 0.880709
0.997865 0.994829 0.930275
0.994848 0.994812 0.957116
0.994903 1.00054 0.992297
0.996597 0.994836 0.865578
0.994665 0.994791 0.810179
0.994777 0.994825 0.814081
0.998215 1.00361 0.994205
0.994709 0.994808 0.811288
0.994766 0.994779 0.80878
0.997112 1.00036 0.997506
0.999402 1.0016 0.994826
0.994881 0.998181 0.990981
0.995389 0.99483 0.958798
0.996301 0.995853 0.942249
0.994723 0.997219 0.867866
0.99499 0.994841 0.817073
0.996935 1.00362 0.997184
0.994777 0.994826 0.817627
0.994812 0.9948 0.806158
0.994972 1.00226 1.00003
0.995211 0.996919 0.967748
0.99482 0.997127 0.940914
0.995038 0.995326 0.860583
0.995407 0.994878 0.826227
0.998354 1.0028 0.995088
0.997031 1.00421 0.996211
0.995621 1.00418 0.998172
1.00037 1.00478 0.989434
1.00041 1.00506 0.9896
0.999583 1.00374 0.991385
0.996752 1.00479 0.994433
1.00019 1.00506 0.98946
0.998633 1.00491 0.992184
0.995717 1.00518 0.996818
0.995014 1.00502 0.99828
0.995875 1.00517 0.996752
0.999315 1.00509 0.991476
1.00014 1.00502 0.98978
1.00012 1.00302 0.991372
0.998496 1.00338 0.993687
0.998577 1.00509 0.991905
0.999201 1.00454 0.99159
0.998386 1.00329 0.994078
0.998579 1.00457 0.992615
0.995953 1.00511 0.996511
1.002 0.997589 0.994147
0.999824 1.00151 0.993491
1.00135 1.00073 0.991573
1.00486 1.00017 0.987135
1.002 1.00143 0.990829
1.00172 0.998906 0.992851
0.999626 1.00463 0.990764
0.999763 1.00513 0.989501
0.999601 1.00465 0.991221
0.999879 1.00506 0.990066
1.00018 1.00458 0.989876
0.999931 1.00482 0.990744
1.00031 1.00397 0.990475
1.00011 1.0027 0.991974
1.00031 1.00379 0.990683
1.00011 1.00249 0.99224
1.00016 0.999312 0.995963
1.00001 1.00236 0.992491
1.00002 0.999268 0.995817
1.0001 0.9973 0.997663
0.999888 0.99923 0.995766
0.999996 0.997261 0.99848
0.999963 0.997278 0.999127
1.00027 1.00252 0.991866
1.00011 1.00059 0.994165
1.00024 1.00197 0.99255
1.00005 0.998144 0.996612
0.999974 1.00042 0.994478
1.00015 1.0017 0.992921
1.00002 0.996706 0.999262
1.00004 0.998096 0.996667
0.99991 1.00036 0.994639
1.00007 0.998126 0.996602
0.999992 0.996788 0.99925
0.999958 0.996838 0.999234
0.99469 0.99477 0.803977
0.999761 0.994844 0.867757
0.994753 0.994768 0.806567
0.994714 0.994774 0.800473
0.997212 0.994879 0.964888
1.0034 0.994802 0.987452
0.999842 0.994844 0.933442
0.999039 0.994821 0.882423
0.99475 0.994831 0.800673
0.998427 0.994831 0.972235
0.998751 0.995594 0.928203
0.995894 0.995616 0.879598
0.994724 0.99482 0.800749
0.995114 0.994822 0.964806
0.996188 0.995696 0.92944
0.994853 0.997405 0.860199
0.994825 0.994873 0.806212
1.00074 1.0045 0.99044
0.99965 1.0034 0.991864
1.00001 1.00202 0.992822
0.99848 1.00378 0.993279
1.00093 1.0036 0.9896
1.00022 1.00343 0.990987
0.99978 1.00336 0.991618
1.00109 1.00285 0.990466
1.00066 1.00353 0.99049
1.00024 1.00276 0.991582
1.00203 0.994781 0.99193
1.00324 0.997019 0.990875
1.0037 0.995667 0.991932
1.00079 0.99724 0.994823
1.00033 1.00491 0.991247
0.998735 1.00509 0.992146
0.999465 1.00501 0.99062
1.00004 1.0046 0.990251
0.999867 0.995733 0.990546
0.999328 1.00498 0.9911
0.999497 1.00477 0.992057
1.00105 0.998555 0.994431
0.999509 1.00051 0.995197
0.996438 1.00014 0.989589
0.996793 0.999403 1.00023
0.996463 1.00378 0.996109
0.999094 1.00433 0.992023
0.997633 1.00506 0.993699
0.994806 0.994812 0.823819
0.994714 0.994814 0.820411
0.999799 0.994893 0.859127
0.998252 1.00328 0.993974
0.999117 1.00125 0.994712
0.997316 0.999767 0.998123
0.994682 0.994792 0.809679
0.99632 0.995536 0.930711
0.995474 0.994859 0.958302
0.994847 0.996349 0.993631
0.994779 0.996862 0.886672
0.994775 0.994783 0.808894
0.995176 0.994847 0.818386
0.997314 1.00354 0.997085
0.994787 0.994825 0.820451
0.994802 0.9948 0.807103
0.99521 1.0015 0.999115
0.995203 0.996058 0.969652
0.994806 0.995926 0.929221
0.995162 0.994868 0.822098
0.995058 0.998643 0.869071
0.994925 1.00467 1.00016
0.994794 0.994829 0.811165
0.994869 0.994832 0.815594
0.99482 0.994861 0.806542
0.994778 0.998723 0.989996
0.994869 0.99814 0.944191
0.997544 0.996374 0.877802
0.997478 1.00479 0.996382
0.995757 1.00472 0.997939
0.99516 1.00485 0.999181
1.00011 1.00506 0.989474
0.998652 1.00499 0.992142
0.995509 1.00521 0.997123
0.998929 1.00511 0.991477
0.995987 1.00517 0.996756
0.99517 1.00493 0.998227
0.994932 1.0052 0.998463
0.995603 1.00509 0.997074
0.998443 1.00508 0.99202
0.99942 1.0046 0.991583
0.998413 1.00384 0.9942
0.996234 1.00496 0.996386
0.998524 1.00468 0.99253
0.998893 1.0018 0.99499
0.999309 0.997803 0.997951
1.0023 0.99985 0.989799
0.999419 1.00119 0.994132
1.0019 1.00065 0.991144
1.00446 1.00167 0.985944
1.00489 1.00254 0.9842
1.00388 0.998918 0.989975
1.00393 1.00016 0.987537
1.00095 1.00506 0.98861
1.0012 1.00187 0.991252
1.00045 0.998599 0.994785
1.00018 1.00445 0.990501
0.999983 1.00512 0.98953
1.0003 1.00506 0.989114
1.00024 1.00507 0.990069
1.00033 1.00449 0.989883
1.00015 1.00309 0.991418
1.00043 1.00386 0.990461
1.00016 1.0026 0.991966
1.00018 0.999421 0.9958
1.00011 1.00248 0.992246
1.00013 0.999343 0.995569
1.00019 0.997337 0.997487
1.00003 0.999289 0.995491
1.00008 0.997281 0.998368
1.00003 0.997243 0.999066
1.00061 1.00269 0.991026
1.00013 1.00093 0.993456
1.00042 1.00238 0.99186
1.00011 0.998192 0.996455
1.00007 1.00061 0.99401
1.00017 1.00202 0.992372
1.00004 0.996718 0.999247
1.00006 0.998113 0.996623
0.999987 1.00035 0.994486
1.00002 0.996728 0.99926
1.00003 0.998113 0.996668
0.999992 0.996766 0.999247
0.99482 0.994819 0.814078
0.994698 0.994806 0.817121
0.999767 0.994814 0.86668
1.00115 1.00259 0.990508
0.994818 0.994799 0.812757
0.994755 0.994769 0.806528
0.994745 0.99478 0.813556
0.998989 0.994862 0.971446
0.9977 0.99483 0.941482
0.996217 0.994849 0.86313
0.994692 0.994822 0.809984
0.996294 0.994827 0.962435
0.996351 0.996942 0.940753
0.994755 0.996253 0.863633
0.994838 0.994861 0.810065
0.994812 0.994796 0.956701
0.994803 0.995298 0.938772
0.995471 0.999828 0.872582
0.99516 0.994889 0.826378
0.999496 1.00464 0.990927
1.00013 1.0043 0.990413
0.999838 1.00335 0.991978
1.00078 1.0028 0.990712
1.00071 1.00401 0.989833
1.00017 1.00377 0.991183
1.0011 1.00299 0.990417
1.00066 1.00358 0.990567
0.998674 0.99737 0.990914
1.00053 0.998144 0.994938
1.00024 1.00472 0.989958
1.00059 0.999677 0.995023
0.999692 1.00464 0.991897
0.999834 1.00504 0.990811
0.998933 1.00429 0.992005
0.995996 0.999528 0.990204
0.998078 1.00486 0.993831
0.99733 1.00312 0.99638
0.996211 1.0003 1.00035
0.998584 1.0041 0.993329
0.994788 1.0015 0.987217
0.995434 1.00282 0.998647
0.995923 1.0048 0.997136
0.99724 1.00516 0.9951
0.994778 0.99481 0.816583
0.99481 0.994815 0.821271
0.994704 0.994799 0.816141
0.997551 1.0036 0.996962
0.995446 1.00051 0.998181
0.994803 0.994826 0.823086
0.994771 0.996578 0.941786
0.995614 0.996056 0.966892
0.995133 0.997762 0.867379
0.994803 0.9948 0.807828
0.994892 0.994862 0.817967
0.99532 1.0045 0.99983
0.994797 0.994827 0.811264
0.99487 0.994842 0.816297
0.99479 0.999352 0.993737
0.994834 0.99485 0.810236
0.994847 0.996405 0.936406
0.996137 0.997439 0.87994
0.994814 1.00325 0.998419
0.994839 0.994842 0.818349
0.994802 0.994805 0.814032
0.994759 0.994822 0.808224
0.995833 0.999828 0.871351
0.994857 1.00101 0.974205
0.995596 0.99749 0.929417
0.996072 1.00501 0.997718
0.995094 1.00511 0.999168
0.994887 1.00521 0.998415
0.99842 1.00514 0.991476
0.995729 1.00519 0.996765
0.994984 1.00519 0.998184
0.995638 1.00497 0.997011
0.994939 1.00517 0.998483
0.99765 1.00228 0.997836
0.996324 1.00488 0.996243
0.998445 1.00468 0.992466
0.99864 1.00202 0.99565
0.998684 1.00129 0.99348
0.996751 0.998074 1.00156
1.00195 0.99966 0.991099
1.00437 1.00452 0.982369
1.00449 1.00293 0.98403
1.00241 1.00055 0.990659
1.0043 1.00203 0.985338
1.00509 1.00227 0.984025
1.00504 0.999973 0.986589
1.0046 1.00226 0.984548
1.0021 1.00266 0.98879
1.00334 0.999631 0.989722
1.00312 1.00013 0.987966
1.0005 1.00512 0.988458
1.00046 1.005 0.988861
1.00037 1.00221 0.991662
1.00013 1.00511 0.98956
1.00046 1.00502 0.989135
1.00023 1.00409 0.990373
1.00047 1.00455 0.989889
1.00021 1.00315 0.991401
1.00015 0.999647 0.994885
1.00028 1.00257 0.99196
1.00021 0.999431 0.99505
1.00011 0.997341 0.998912
1.00013 0.999407 0.995224
1.00015 0.997328 0.998237
1.0001 0.997271 0.998989
1.00053 1.00284 0.990959
1.0003 1.00136 0.992798
1.00055 1.00273 0.991182
1.00018 0.998342 0.996207
1.00022 1.0009 0.99338
1.00046 1.00236 0.99185
1.00008 0.996709 0.999212
1.00012 0.998167 0.99647
1.00008 1.0006 0.993855
1.00004 0.996704 0.999253
1.00007 0.998079 0.996635
1.00001 0.996768 0.999258
0.994797 0.994829 0.818578
0.994816 0.994818 0.814393
0.994691 0.994823 0.816926
1.00107 1.00259 0.99067
1.00062 1.00306 0.99049
1.00123 1.00175 0.991481
0.994877 0.994838 0.814656
0.994817 0.994796 0.813549
0.994755 0.994759 0.806589
0.996815 0.994809 0.962941
0.995572 0.994764 0.928878
0.994792 0.997837 0.885185
0.99483 0.994841 0.80443
0.994987 0.994998 0.959014
0.994896 0.997131 0.934807
0.995427 0.997436 0.86923
0.995132 0.994876 0.821957
0.995665 0.995085 0.95621
0.99484 0.997141 0.939337
0.99645 0.996244 0.879258
0.994839 0.994844 0.807875
0.999676 1.00269 0.992431
1.00017 1.00389 0.990737
1.0002 1.00392 0.990384
1.00094 1.00269 0.990653
1.00038 1.00428 0.990068
1.00106 1.00318 0.990368
0.99603 0.99821 0.990971
0.996082 1.0012 1.00062
0.999406 1.00354 0.991986
0.998497 1.00239 0.996557
0.998442 1.00443 0.993956
0.997946 1.0039 0.993935
0.996845 1.0048 0.995373
0.994785 1.00203 0.987064
0.995632 1.00511 0.997517
0.995497 1.00338 0.997991
0.996867 1.00507 0.995157
0.994892 1.00251 0.984821
0.995447 1.00514 0.995182
0.995038 1.00419 0.99876
0.99485 0.994837 0.815735
0.994782 0.994819 0.815794
0.994813 0.994812 0.818766
0.995731 1.00384 0.999463
0.994802 0.999586 0.989558
0.994794 0.994826 0.811374
0.994823 0.997599 0.935971
0.99675 0.996382 0.864742
0.99487 0.994843 0.816978
0.994828 0.994834 0.804914
0.994793 1.0031 0.998899
0.994828 0.994844 0.818474
0.99482 0.994805 0.814884
0.994868 0.999877 0.971674
0.994718 0.994818 0.801256
0.995778 0.999183 0.86683
0.994891 0.995611 0.943029
0.994866 1.00517 0.990277
0.99479 0.994838 0.81899
0.994773 0.994785 0.807918
0.994675 0.994816 0.819321
0.994802 0.997393 0.859241
0.994861 0.998424 0.93819
0.994871 1.00122 0.96602
0.995099 1.00509 0.999119
0.994906 1.0052 0.998348
0.996066 1.00414 0.997476
0.99587 1.00477 0.996954
0.99494 1.00512 0.998513
0.996286 1.0039 0.997823
0.999253 0.999257 0.997944
0.99832 1.00237 0.996296
1.00109 1.00101 0.992511
1.0022 1.00494 0.985807
1.00141 0.999488 0.992665
1.00426 1.00426 0.983259
1.00429 1.0047 0.9823
1.00501 1.00139 0.984311
1.00503 1.00181 0.984389
1.00449 1.00304 0.983876
1.00442 1.00232 0.984749
1.0051 1.00156 0.98474
1.0051 1.00216 0.984107
1.00418 1.00034 0.987587
1.00466 1.00008 0.986921
1.00425 1.00199 0.984896
1.00093 1.00501 0.987921
1.00203 1.00299 0.988722
1.00274 1.00047 0.98946
1.00047 1.00469 0.989379
1.00084 1.00511 0.988459
1.00019 1.00496 0.989113
1.00069 1.00498 0.989158
1.00037 1.0039 0.990382
1.00008 1.00027 0.994352
1.00034 1.00301 0.991385
1.00018 0.999689 0.994859
1.00013 0.997482 0.998872
1.00022 0.999436 0.99505
1.00018 0.997369 0.998163
1.00014 0.997339 0.998923
1.0008 1.00317 0.990586
1.00042 1.00164 0.992526
1.00069 1.00267 0.991017
1.00026 0.99857 0.995844
1.0003 1.00135 0.992884
1.00056 1.0027 0.991342
1.00012 0.996773 0.999155
1.00019 0.998287 0.996226
1.00027 1.00086 0.993306
1.00008 0.996727 0.999223
1.00012 0.998142 0.996485
1.00005 0.996721 0.99926
0.994835 0.994839 0.817358
0.9948 0.994844 0.818697
0.994814 0.994826 0.81474
1 1.00477 0.989756
1.00099 1.00421 0.990295
1.00089 1.00269 0.99084
1.00053 1.00344 0.990379
1.00066 1.00191 0.991703
1.00025 1.00288 0.991394
0.999912 1.0017 0.993039
0.99483 0.994808 0.806822
0.994881 0.994847 0.815463
0.99481 0.994821 0.814358
0.994895 0.994874 0.817595
0.995278 0.995124 0.95697
0.994825 0.998254 0.929527
0.995484 0.995134 0.88326
0.995198 0.995114 0.95545
0.99486 0.998321 0.92659
0.995617 0.997442 0.880497
0.994916 0.994842 0.817962
0.995904 0.996525 0.959712
0.994953 0.998724 0.928293
0.994947 0.995837 0.861184
0.994739 0.994819 0.802071
0.997528 1.00463 0.994423
0.999379 1.00326 0.992793
1.00026 1.00408 0.990547
1.00097 1.00293 0.990601
0.994812 1.00177 0.987046
0.995563 1.00389 0.9972
0.99751 1.00478 0.994541
0.996886 1.00469 0.995654
0.995431 1.00514 0.997989
0.996658 1.00506 0.995311
0.995347 1.00431 0.998789
0.995519 1.00209 0.981531
0.995177 1.00525 0.995405
0.995753 1.00412 0.997557
0.994931 1.00466 0.979626
0.99524 1.00297 0.999142
0.994777 0.994819 0.81724
0.994842 0.994837 0.81902
0.994789 0.994835 0.814984
0.994788 1.00312 0.999364
0.994862 1.0001 0.97496
0.994819 0.99484 0.818645
0.995053 0.997566 0.93048
0.996386 0.995922 0.881467
0.994828 0.994827 0.815643
0.994687 0.994824 0.810224
0.994876 1.00471 0.991184
0.994807 0.994838 0.819134
0.994758 0.994783 0.807935
0.994867 0.999803 0.966021
0.994714 0.994826 0.810932
0.994728 0.997136 0.861917
0.994922 0.998571 0.926155
0.99489 1.00468 0.985117
0.994834 0.994817 0.81425
0.994688 0.994784 0.802694
0.996259 0.994838 0.882634
0.994763 0.996881 0.938116
0.994794 0.999979 0.959298
0.994921 1.00527 0.998677
0.995485 1.00445 0.997555
0.996713 1.00038 0.998641
0.995227 1.00512 0.997801
0.99746 1.00091 0.998326
1.00196 1.00035 0.992542
1.00357 1.00059 0.991551
1.00311 1.00502 0.985069
1.00406 1.00317 0.983814
1.00389 1.00409 0.984149
1.00441 1.00463 0.982244
1.00447 1.00378 0.983136
1.00523 0.999519 0.985756
1.00511 1.00082 0.985168
1.00504 1.00157 0.984257
1.00509 1.00162 0.984548
1.00502 1.00166 0.984396
1.00441 1.00319 0.983719
1.00512 1.00122 0.985299
1.00504 1.00179 0.984603
1.00511 1.00205 0.984194
1.00275 1.00319 0.987414
1.00358 1.00078 0.988046
1.00433 1.00011 0.987258
1.00063 1.00498 0.988413
1.00131 1.00477 0.987985
1.00172 1.00337 0.988653
1.00019 1.00085 0.993589
1.0006 1.00453 0.989393
1.00109 1.0051 0.988459
1.00046 1.00381 0.990389
1.0001 1.00033 0.994318
1.00008 0.997736 0.998789
1.00018 0.999732 0.994834
1.00013 0.99748 0.998857
1.00016 0.997327 0.99889
1.00011 1.00511 0.989924
1.00073 1.00442 0.98965
1.00059 1.0021 0.991817
1.00065 1.00327 0.990565
1.00027 0.998925 0.995456
1.00042 1.00166 0.992519
1.00071 1.00264 0.991076
1.00014 0.996922 0.999065
1.00025 0.998561 0.995865
1.00031 1.00136 0.992966
1.00011 0.996764 0.999173
1.0002 0.998256 0.996247
1.00008 0.996712 0.999235
0.994801 0.994838 0.811618
0.994821 0.994835 0.817513
0.994809 0.994834 0.818811
1.00024 1.00487 0.989748
1.00022 1.00364 0.990492
1.00051 1.00308 0.989368
0.999249 1.00448 0.990488
1.00128 1.0034 0.990738
1.00068 1.00382 0.990267
1.0005 1.00203 0.991925
1.00028 1.00316 0.991422
1.00029 1.0016 0.9931
0.998888 1.00391 0.993295
0.994753 0.994775 0.809784
0.994814 0.994809 0.807836
0.994884 0.994841 0.816204
0.995109 0.994845 0.819182
0.995614 0.996249 0.865921
0.994863 0.995063 0.954373
0.994822 0.997187 0.938788
0.995359 0.996268 0.955873
0.994888 0.996013 0.940232
0.995028 0.998695 0.869781
0.994756 0.994819 0.800448
0.994906 0.998535 0.958994
0.994858 1.00029 0.939857
0.994786 0.996387 0.885497
0.994712 0.994861 0.820764
0.998493 1.0015 0.996219
0.997148 1.00444 0.994845
0.999369 1.00307 0.993173
0.995666 1.00209 0.977973
0.994978 1.00525 0.995565
0.99643 1.00495 0.995457
0.994942 1.00458 0.998813
0.996036 1.00405 0.997532
0.995188 1.0023 0.999502
0.994868 1.00254 0.979097
0.996051 1.00116 1.00003
0.995587 1.00026 0.985848
0.994812 0.994821 0.822911
0.994792 0.994831 0.816464
0.994832 0.994835 0.82236
0.9949 1.00425 0.991478
0.994856 0.999671 0.963636
0.994824 0.994845 0.819272
0.994835 0.998954 0.938047
0.994769 0.997824 0.882747
0.994744 0.994761 0.808137
0.994742 0.994838 0.80226
0.995338 1.00475 0.985845
0.994816 0.994822 0.814448
0.994711 0.994786 0.802174
0.995036 0.999037 0.960378
0.995714 0.995113 0.880542
0.994851 0.997301 0.932634
0.995186 1.00265 0.98285
0.994694 0.994777 0.804828
0.997679 0.994822 0.883818
0.996014 0.995739 0.929658
0.99485 0.996233 0.961406
0.995585 1.00504 0.997647
0.996231 1.00187 0.998544
0.998994 1.00192 0.995583
0.995838 1.00312 0.998702
1.00079 1.00044 0.993523
1.00401 0.998626 0.989802
1.00393 1.00504 0.984316
1.00387 1.00343 0.983705
1.00444 1.00024 0.986057
1.00466 1.00462 0.982189
1.00454 1.00329 0.983228
1.005 0.999639 0.986157
1.00531 0.996968 0.988072
1.00524 0.999069 0.986125
1.00523 0.99945 0.98583
1.00517 1.00071 0.985354
1.00512 1.00085 0.985086
1.00507 1.0017 0.984202
1.00519 1.002 0.984338
1.00505 1.00153 0.984561
1.005 1.00155 0.984401
1.00449 1.00152 0.986135
1.00461 1.00162 0.985481
1.00499 1.00207 0.984467
1.00129 1.00477 0.987275
1.00253 1.0032 0.987406
1.00317 1.00111 0.988501
1.00014 1.00192 0.993678
1.00093 1.00493 0.98843
1.00167 1.00447 0.988051
1.00014 0.998326 0.996537
1.00018 1.00105 0.993963
1.00073 1.00442 0.989406
1.00013 1.00042 0.994282
1.0001 0.997829 0.998731
1.00013 0.997501 0.998839
1.00081 1.00476 0.988979
1.00091 1.0051 0.988883
0.999593 1.00512 0.989852
1.00051 1.00322 0.990867
1.00058 1.00443 0.989624
1.00023 0.999336 0.995106
1.00051 1.00221 0.991837
1.00068 1.00332 0.99054
1.00013 0.997189 0.998977
1.00028 0.998896 0.995474
1.00041 1.00169 0.992512
1.00013 0.996923 0.999094
1.00024 0.998532 0.995885
1.00011 0.996764 0.99919
0.994784 0.994822 0.823994
0.994806 0.994838 0.811744
0.994807 0.994851 0.817679
1.0023 1.00145 0.988726
0.999858 1.00501 0.989737
0.999944 1.00364 0.990712
1.00014 1.00505 0.990157
1.00147 1.00261 0.989488
1.00049 1.00332 0.99188
1.00324 1.00264 0.986999
0.997746 1.00501 0.992399
1.00012 1.00326 0.991446
1.00009 1.00109 0.993158
0.998344 1.00383 0.993227
0.998326 1.00425 0.993764
0.994727 0.99481 0.811596
0.994771 0.99478 0.809232
0.99481 0.994809 0.808654
0.994795 0.994896 0.814908
0.994959 0.998359 0.868394
0.994923 0.998486 0.928461
0.994973 0.99545 0.956022
0.994908 0.999006 0.958489
0.994729 0.994898 0.811791
0.994883 0.996364 0.931763
0.994738 0.997398 0.868181
0.994886 0.996474 0.96398
0.994821 0.99846 0.941274
0.995732 0.994855 0.882671
0.999903 0.994941 1.0003
0.998426 1.00144 0.996127
0.996945 1.00434 0.995241
0.994894 1.00188 0.978883
0.995282 1.0014 0.999824
0.996567 1.00406 0.99752
0.997094 1.00047 1.00028
0.995181 0.99916 0.986
0.996259 0.998551 0.992072
0.994711 0.994829 0.819254
0.99481 0.994813 0.824085
0.994801 0.994832 0.815591
0.994967 1.00445 0.986089
0.994855 0.999965 0.959981
0.994799 0.994828 0.814846
0.994829 0.99834 0.927598
0.996028 0.994848 0.864573
0.994753 0.994806 0.814893
0.994787 1.00485 0.982762
0.994703 0.994818 0.817722
0.997819 0.994766 0.864241
0.994858 0.99577 0.957182
0.996127 0.996647 0.941159
0.994888 1.00227 0.989398
0.999809 0.994847 0.855639
0.997967 0.994839 0.943231
0.994841 0.994824 0.956212
0.995562 1.00303 0.998485
0.998292 1.00143 0.995396
1.00111 1.00234 0.991783
0.999778 1.00034 0.994503
1.00322 0.999313 0.989588
1.00449 0.999039 0.988132
1.00382 1.00368 0.983593
1.00437 1.00044 0.985958
1.00506 0.996651 0.988514
1.0046 1.00272 0.983322
1.00493 0.999498 0.986134
1.00532 0.995887 0.989172
1.00527 0.99556 0.989949
1.00528 0.99715 0.988053
1.00532 0.996917 0.988187
1.00525 0.998951 0.986307
1.00523 0.999048 0.986311
1.00522 0.999408 0.985904
1.00527 1.00114 0.984635
1.00517 1.00061 0.985307
1.00512 1.00085 0.985004
1.00518 1.00152 0.984696
1.00507 1.00195 0.984381
1.005 1.00141 0.984575
1.00275 1.00352 0.986546
1.00418 1.00189 0.986041
1.00401 1.00202 0.985664
1.00032 1.00261 0.991577
1.00179 1.00471 0.987295
1.00237 1.00341 0.987394
0.999844 0.99926 0.998346
1.00023 1.00187 0.992544
1.0012 1.00486 0.988446
1.00011 0.998263 0.998527
1.0002 1.00111 0.993449
1.00012 0.997886 0.998665
1.00317 1.00293 0.987713
1.00089 1.00462 0.988836
1.00118 1.00509 0.988392
1.00063 1.00413 0.989815
1.00063 1.00511 0.98886
0.9998 1.00518 0.989784
1.00015 1.00003 0.994613
1.00048 1.0032 0.990882
1.00041 1.00435 0.989596
1.00011 0.997395 0.998897
1.00023 0.999298 0.995123
1.00044 1.00227 0.991854
1.00013 0.997136 0.999003
1.00028 0.998869 0.995489
1.00012 0.996878 0.999122
0.994723 0.994797 0.803677
0.994804 0.994824 0.824329
0.994814 0.994838 0.8119
1.00214 1.0023 0.988609
1.00488 1.00162 0.986523
1.0024 1.00314 0.987767
0.999991 1.00491 0.989821
1.00273 1.00227 0.989608
0.999018 1.00244 0.992984
0.998773 1.00462 0.991877
1.00214 1.00315 0.988041
1.00224 1.00196 0.989499
0.998986 0.999712 0.996289
0.999118 1.00386 0.993145
0.99854 1.00444 0.993671
0.99862 0.994803 0.857611
0.994697 0.994799 0.805127
0.994778 0.994783 0.809365
0.994748 0.994839 0.802288
0.994803 0.997324 0.886813
0.994864 0.997468 0.927338
0.994875 0.996986 0.957092
0.994865 0.996822 0.961727
0.995993 0.996355 0.880677
0.994839 0.996544 0.929089
0.994857 0.997378 0.965026
0.995809 0.994781 0.929776
0.999753 0.995407 1.00208
0.999596 0.99607 1.00028
0.99821 1.00133 0.996106
0.994895 0.998897 0.986315
0.997734 0.999696 1.00053
0.996684 0.99876 0.991694
0.996342 0.996547 0.990255
0.999791 0.99493 0.870112
0.994702 0.994818 0.816553
0.994816 0.994815 0.825076
0.994785 1.005 0.983106
0.994854 0.99489 0.955443
0.994698 0.99483 0.817364
0.99547 0.994772 0.930214
0.998759 0.994818 0.883822
0.994893 1.00028 0.986092
0.999764 0.994854 0.868052
0.998157 0.995093 0.929549
0.994838 0.994793 0.957751
0.9966 0.998342 0.98735
0.999963 0.994887 0.942306
0.995148 0.994809 0.96334
0.99754 1.00069 0.995199
1.0002 1.00102 0.991811
1.00361 0.999696 0.99063
1.00241 1.00025 0.989393
1.00422 0.998935 0.988086
1.00517 0.996355 0.989097
1.00431 1.00069 0.985866
1.00491 0.997149 0.988464
1.00529 0.994967 0.990029
1.00486 0.999363 0.986109
1.00532 0.995913 0.989119
1.00527 0.994951 0.990478
1.00528 0.995102 0.990516
1.00528 0.995523 0.990081
1.00524 0.995911 0.989891
1.00528 0.997518 0.988034
1.00528 0.997198 0.988187
1.00534 0.996853 0.988304
1.00529 0.99978 0.985868
1.00526 0.999002 0.986258
1.00523 0.999004 0.986496
1.00531 1.00164 0.984231
1.00528 1.00115 0.984666
1.00518 1.00056 0.985259
1.00356 1.00274 0.986017
1.00512 1.0016 0.984696
1.0049 1.00193 0.984425
1.0008 1.00304 0.990421
1.00281 1.00355 0.986515
1.00399 1.00198 0.985951
1.00008 0.999491 0.998051
1.00048 1.00251 0.991551
1.00216 1.00458 0.987316
1.00003 0.999148 0.997186
1.00038 1.00173 0.992555
1.00012 0.998524 0.998405
1.00446 1.00077 0.987294
1.00239 1.00288 0.987804
1.00123 1.00479 0.98791
1.00084 1.00459 0.988684
1.0008 1.00511 0.988437
1.00093 1.00472 0.988923
1.00015 1.00084 0.993818
1.00055 1.00424 0.989796
1.00015 1.00511 0.988837
1.00008 0.997766 0.99875
1.00014 0.999924 0.994642
1.00047 1.00322 0.990897
1.0001 0.997407 0.998922
1.00022 0.999268 0.995148
1.00012 0.997118 0.999028
0.999738 0.994819 0.868116
0.994708 0.994805 0.809493
0.994813 0.994823 0.824696
1.00187 1.00254 0.988497
1.0025 1.00355 0.986958
1.00444 1.0022 0.986498
1.00497 1.00343 0.983489
1.00219 1.00294 0.988092
0.999479 1.00489 0.991404
1.00171 1.00353 0.989075
1.0015 1.00201 0.990191
1.00455 0.996785 0.989283
1.00213 0.99868 0.993319
1.00226 0.99634 0.994766
1.0002 0.998908 0.996017
0.999598 1.00293 0.993578
0.99771 0.994852 0.939849
0.998689 0.994773 0.86223
0.994671 0.994796 0.810728
0.996118 0.994848 0.866527
0.994823 0.998229 0.938803
0.994854 0.995798 0.963128
0.994853 0.996802 0.966706
0.996513 0.997466 0.942016
0.995734 0.994794 0.965805
0.999104 0.996702 1.00009
0.999009 0.996033 1.00213
0.999255 0.997411 1.0002
0.997186 0.99817 0.991436
0.99734 0.997095 0.990378
0.999982 0.994895 0.929361
0.999793 0.994886 0.875956
0.994689 0.9948 0.813972
0.994901 0.999386 0.982472
0.995104 0.994783 0.95653
0.999801 0.994812 0.867145
0.997753 0.994816 0.942476
0.996336 0.998175 0.987594
1.00022 0.994871 0.938098
0.995932 0.99483 0.961166
1.00041 0.994977 0.987071
0.998009 0.994805 0.97136
0.999237 0.999427 0.991881
1.00278 0.998173 0.990671
1.0051 0.995222 0.991235
1.00402 0.998643 0.988029
1.00511 0.996176 0.98901
1.00529 0.994854 0.990347
1.00469 0.997608 0.988414
1.00529 0.995029 0.989978
1.00526 0.994841 0.990492
1.00531 0.995928 0.989066
1.00526 0.994983 0.990449
1.00529 0.994861 0.990621
1.00528 0.995053 0.990573
1.00527 0.995279 0.990511
1.00528 0.99548 0.990213
1.00524 0.995894 0.989893
1.00522 0.99643 0.989356
1.00528 0.998559 0.987226
1.00528 0.99758 0.988017
1.00528 0.997246 0.98832
1.00534 1.0012 0.984544
1.0053 0.999869 0.985722
1.00526 0.999056 0.986211
1.00437 1.00201 0.985415
1.00525 1.00166 0.984286
1.00529 1.00117 0.984696
1.00127 1.00312 0.989407
1.00338 1.00302 0.98602
1.00488 1.00184 0.984695
1.00021 1.00026 0.997632
1.00091 1.00286 0.990411
1.00302 1.00363 0.986484
1.00015 0.99969 0.9979
1.00061 1.00238 0.991524
1.00015 0.9991 0.998134
1.00518 1.00267 0.984135
1.00404 1.00079 0.987217
1.0027 1.00293 0.987132
1.00185 1.00286 0.987911
1.0013 1.00473 0.987747
1.00117 1.00507 0.988083
1.00058 1.00514 0.988477
1.00065 1.00487 0.988891
1.00021 1.00166 0.992858
1.00005 0.998315 0.998498
1.0001 1.00078 0.993843
1.00039 1.00431 0.989778
1.00006 0.99769 0.998805
1.00015 0.999821 0.994655
1.00009 0.997362 0.998945
0.999967 0.994885 0.942963
0.999815 0.994853 0.867393
0.994685 0.994794 0.803574
1.00215 1.0047 0.986143
1.00373 1.00261 0.986474
1.00333 1.00287 0.987447
1.00452 1.00323 0.983889
1.00518 1.00076 0.984941
1.00367 1.00018 0.98701
1.00064 1.00245 0.990845
1.00457 0.996053 0.98969
1.00214 0.998389 0.99336
1.00431 0.995335 0.99051
1.00373 0.997201 0.992421
1.00235 0.997074 0.993567
1.00186 0.996561 0.994624
0.999629 0.999672 0.995756
0.995708 0.994811 0.964089
0.998631 0.995895 0.935294
0.99757 0.994831 0.87958
0.995766 0.996118 0.929481
0.994904 0.996832 0.967134
0.99552 0.995733 0.971556
0.999278 0.994814 0.992151
0.999913 0.996031 0.99951
0.998323 0.996396 1.00221
0.998698 0.998979 0.990544
0.99738 0.995147 0.965675
1.00005 0.994873 0.943496
0.999803 0.994905 0.858378
0.995939 0.998235 0.987947
0.996332 0.994836 0.961552
0.999793 0.994841 0.933452
0.99979 0.995806 0.987459
0.998376 0.994839 0.970459
1.00292 0.995398 0.989501
1.00348 0.996219 0.984794
1.00177 0.997033 0.990698
1.00458 0.995191 0.991253
1.00525 0.994853 0.990753
1.00505 0.996106 0.988924
1.00528 0.99485 0.990296
1.00531 0.994913 0.990462
1.00529 0.995107 0.989924
1.00527 0.994854 0.990472
1.00531 0.994904 0.990498
1.00525 0.995022 0.990419
1.00528 0.994875 0.990625
1.0053 0.994908 0.990631
1.00527 0.995011 0.99063
1.00526 0.995231 0.990523
1.00523 0.995718 0.990225
1.00523 0.995883 0.989895
1.00522 0.996452 0.989354
1.00526 0.997739 0.988176
1.00531 1.00026 0.985571
1.00529 0.998741 0.986979
1.00528 0.997645 0.988001
1.00514 1.00106 0.985073
1.00533 1.00122 0.984593
1.00531 0.999961 0.985576
1.00192 1.00276 0.988614
1.00415 1.00232 0.985431
1.0052 1.0017 0.984339
1.00062 1.00077 0.997178
1.00136 1.00302 0.989397
1.0032 1.0033 0.986023
1.00043 1.00041 0.997449
1.00095 1.00273 0.990409
1.0003 0.999901 0.997721
1.00523 1.00147 0.984618
1.00517 1.00222 0.984279
1.00453 1.00198 0.985203
1.00393 1.0014 0.98714
1.00275 1.00302 0.986933
1.00223 1.00418 0.987104
1.00129 1.00466 0.987588
1.00101 1.00508 0.988095
1.00044 1.00238 0.991866
1.00043 1.00507 0.988863
1.0001 1.00182 0.992878
1.00003 0.999133 0.998193
1.00002 0.998255 0.998593
1.00006 1.0008 0.993875
1.00005 0.997659 0.998852
0.996692 0.994883 0.966142
0.999914 0.994877 0.928856
0.999818 0.994879 0.880087
1.00526 0.998642 0.986732
1.00452 1.0028 0.986822
1.00414 1.00299 0.984288
1.00433 0.999952 0.987466
1.00518 1.00097 0.984899
1.00497 0.997345 0.988433
1.00495 0.996917 0.990106
1.00194 0.997492 0.993417
1.00476 0.996056 0.990517
1.00349 0.9975 0.991381
1.00465 0.996514 0.989709
1.00328 0.994897 0.994298
1.00235 0.996694 0.993666
1.00181 0.996749 0.994471
0.998671 0.994799 0.990724
0.995766 0.994819 0.962524
0.998407 0.994819 0.92985
0.995203 0.996258 0.971055
0.99888 0.994836 0.994884
1.00013 0.995389 0.998879
1.00236 0.994841 0.981414
0.99743 0.994872 0.965465
0.999993 0.994879 0.929487
0.998852 0.996013 0.987848
0.998666 0.994856 0.9698
1.00205 0.995026 0.990019
1.00324 0.995537 0.985636
1.00388 0.995331 0.9908
1.00514 0.996309 0.990864
1.00409 0.99508 0.991264
1.00521 0.994874 0.990667
1.00537 0.994914 0.99033
1.00528 0.994848 0.990247
1.00529 0.994903 0.990469
1.00535 0.994904 0.990421
1.00527 0.994866 0.990453
1.0053 0.994897 0.990512
1.00531 0.994905 0.990641
1.00527 0.994887 0.99063
1.0053 0.994907 0.990621
1.00526 0.995034 0.990731
1.00526 0.995184 0.990536
1.00524 0.995581 0.990312
1.00525 0.996796 0.989212
1.00522 0.996468 0.989352
1.00526 0.997644 0.988267
1.00529 0.99981 0.986188
1.00528 1.00083 0.985136
1.00531 1.00043 0.985401
1.0053 0.998919 0.986731
1.0028 1.00148 0.9885
1.00505 1.00119 0.985071
1.00532 1.00122 0.984642
1.001 1.00097 0.996815
1.00219 1.00246 0.988594
1.00398 1.00253 0.985453
1.00076 1.00082 0.997037
1.00151 1.00292 0.989393
1.00057 1.00053 0.997292
1.00524 1.00011 0.985574
1.00523 1.00148 0.984531
1.00514 1.00135 0.984841
1.00519 1.00173 0.984423
1.00474 1.00179 0.985136
1.00317 1.00338 0.98647
1.00292 1.00273 0.986735
1.00215 1.00428 0.987116
1.00072 1.00278 0.990842
1.00089 1.00511 0.988095
1.00025 1.0025 0.991892
1.00005 0.999834 0.99786
0.999962 1.00189 0.992898
0.999986 0.998954 0.998305
1.00001 0.998099 0.998678
1.00026 0.995206 0.986452
0.996568 0.994891 0.96236
0.999981 0.994864 0.94275
1.00523 0.996925 0.988564
1.00523 0.996619 0.988911
1.00526 0.998364 0.986999
1.00495 0.999296 0.987917
1.00516 1.00124 0.984862
1.00509 0.997281 0.988673
1.00524 0.995447 0.989524
1.00503 0.995802 0.990525
1.00323 0.998231 0.990346
1.00443 0.997001 0.990126
1.00512 0.994965 0.990811
1.00372 0.99482 0.993027
1.00293 0.994932 0.993981
1.0026 0.996269 0.993779
0.999372 0.99479 0.990776
0.995835 0.994823 0.96119
0.998868 0.994917 0.997751
1.00499 0.994966 0.99038
1.00227 0.995275 0.98154
0.997631 0.994871 0.964113
1.00174 0.994789 0.990486
1.00301 0.994804 0.986494
1.00393 0.995133 0.991472
1.00515 0.995514 0.99096
1.0054 0.99479 0.990911
1.00549 0.994818 0.991144
1.00523 0.994889 0.99058
1.00539 0.994913 0.990307
1.00537 0.994892 0.990518
1.00527 0.99489 0.990476
1.00535 0.994902 0.990448
1.00532 0.994907 0.990636
1.0053 0.99489 0.990527
1.00531 0.994905 0.990638
1.00526 0.994906 0.990897
1.0053 0.994906 0.990612
1.00527 0.995026 0.990706
1.00526 0.996013 0.98992
1.00524 0.995442 0.990399
1.00526 0.996736 0.989238
1.00531 0.999209 0.986765
1.00526 0.997553 0.988359
1.00529 0.999708 0.986314
1.00528 1.00061 0.985365
1.00304 1.00066 0.988891
1.00524 1.00085 0.985147
1.00533 1.0006 0.985231
1.00134 1.00089 0.996579
1.00284 1.00144 0.988487
1.00487 1.00142 0.98507
1.00114 1.00101 0.996687
1.00238 1.00227 0.988567
1.00092 1.00094 0.996879
1.00523 0.998284 0.987387
1.00524 0.999958 0.985774
1.00526 1.00095 0.985055
1.00523 1.00144 0.984438
1.0052 1.00131 0.984814
1.00367 1.00251 0.986282
1.00498 1.00167 0.985074
1.00311 1.00305 0.986459
1.00108 1.00313 0.989791
1.00188 1.00429 0.987134
1.00064 1.00292 0.990866
1.00019 1.00065 0.997491
1.00013 1.00265 0.991915
0.999991 0.999719 0.997989
0.999929 0.998829 0.998412
1.00431 0.995253 0.991815
1.00034 0.995071 0.984231
0.996509 0.994918 0.962015
1.00526 0.995767 0.989753
1.00522 0.996489 0.988893
1.00524 0.995548 0.990114
1.00523 0.996687 0.988877
1.00525 0.998055 0.987261
1.00535 0.994872 0.990187
1.00513 0.997429 0.988904
1.00524 0.995713 0.989534
1.0053 0.994807 0.99057
1.00432 0.997338 0.990541
1.00513 0.995058 0.990491
1.00335 0.994996 0.993296
1.00228 0.995451 0.993671
0.999763 0.994784 0.990608
1.00548 0.994864 0.990842
1.00501 0.995448 0.990386
1.002 0.995539 0.981749
1.00385 0.994795 0.992133
1.00512 0.994762 0.991067
1.00537 0.994798 0.990951
1.00553 0.994835 0.991058
1.0054 0.994844 0.990994
1.00541 0.994914 0.990288
1.00536 0.994892 0.990532
1.00531 0.994898 0.99083
1.00535 0.9949 0.990476
1.00532 0.994907 0.990631
1.00525 0.994915 0.990968
1.00531 0.994905 0.990634
1.00527 0.994906 0.990876
1.00528 0.995395 0.9906
1.00527 0.995019 0.990681
1.00526 0.996046 0.989904
1.00534 0.998545 0.987459
1.00526 0.996674 0.989265
1.0053 0.999214 0.986789
1.00527 1.00046 0.985562
1.00529 0.999603 0.986439
1.00528 1.0006 0.985381
1.00304 1.00033 0.990968
1.0017 1.00021 0.99321
1.00307 1.00067 0.989742
1.00522 1.00088 0.985153
1.00135 1.00086 0.996593
1.00296 1.00125 0.98847
1.00122 1.00106 0.996599
1.00522 0.995435 0.990464
1.00523 0.996961 0.988878
1.00523 0.998253 0.987589
1.00526 1.0003 0.98566
1.00524 0.999815 0.985975
1.00526 1.001 0.984983
1.00442 1.00133 0.985907
1.00525 1.00127 0.984786
1.00384 1.00202 0.986261
1.00183 1.00286 0.988854
1.00327 1.00271 0.986445
1.00106 1.00321 0.989779
1.00051 1.00122 0.99704
1.00051 1.00297 0.990894
1.00008 1.0004 0.997638
0.999921 0.999567 0.998107
1.00544 0.994809 0.990816
1.00429 0.995156 0.991486
1.00077 0.994891 0.982077
1.00528 0.994976 0.990507
1.00523 0.995793 0.989637
1.00521 0.996073 0.989225
1.00523 0.99572 0.990064
1.00522 0.996761 0.988842
1.00537 0.994825 0.990574
1.00534 0.994872 0.990177
1.00525 0.99591 0.989542
1.00526 0.994806 0.990617
1.00511 0.995095 0.99017
1.00317 0.994732 0.99356
1.00533 0.994893 0.991104
1.0055 0.994844 0.990911
1.00509 0.995792 0.990388
1.00535 0.994808 0.99097
1.00556 0.994865 0.990975
1.00541 0.99485 0.990945
1.0053 0.994916 0.991127
1.00536 0.994896 0.990547
1.00531 0.994902 0.990791
1.00525 0.994941 0.991062
1.00532 0.994907 0.990626
1.00525 0.994915 0.990963
1.00529 0.995023 0.99102
1.00527 0.994907 0.990855
1.00527 0.995414 0.990582
1.00536 0.997918 0.988106
1.00527 0.996079 0.989888
1.00533 0.998556 0.987479
1.00527 1.00028 0.985763
1.0053 0.999219 0.986813
1.00528 1.00044 0.985586
1.00312 1.00011 0.991068
1.00529 1.00059 0.985397
1.00326 1.00021 0.990833
1.00174 0.999888 0.993439
1.00136 1.00052 0.995029
1.00328 1.00065 0.990415
1.00134 1.00086 0.99662
1.00523 0.994937 0.990967
1.00523 0.996609 0.989278
1.00522 0.995352 0.990576
1.00529 0.99938 0.986551
1.00524 0.997011 0.988867
1.00522 0.998225 0.98779
1.00526 1.00032 0.985601
1.00506 1.00066 0.985564
1.00526 1.00105 0.984909
1.00463 1.00109 0.985905
1.00258 1.0018 0.988526
1.00398 1.00163 0.986244
1.00164 1.00305 0.988858
1.00086 1.00151 0.996666
1.00092 1.00335 0.98978
1.00035 1.00105 0.997222
0.999999 1.00026 0.997779
1.00532 0.994894 0.990818
1.00537 0.994811 0.990873
1.00409 0.995138 0.991158
1.00529 0.994848 0.990792
1.00527 0.995041 0.990446
1.00519 0.995822 0.989529
1.00521 0.995889 0.990012
1.00536 0.994825 0.990573
1.00534 0.994872 0.990166
1.00523 0.994809 0.990663
1.00528 0.994944 0.991169
1.00532 0.994895 0.991078
1.0055 0.994815 0.990977
1.00528 0.994937 0.991216
1.00541 0.994853 0.990896
1.0053 0.994917 0.991117
1.00526 0.99494 0.991172
1.00532 0.994905 0.990753
1.00525 0.99494 0.99107
1.0053 0.99493 0.991183
1.00526 0.994915 0.990958
1.00528 0.995029 0.991002
1.00537 0.997375 0.988699
1.00525 0.995432 0.990564
1.00537 0.997931 0.988117
1.00526 1.00009 0.986013
1.00532 0.998567 0.9875
1.00528 1.00026 0.98579
1.00314 1.00011 0.991017
1.00529 1.00041 0.985611
1.00331 1.00004 0.990903
1.00179 0.999799 0.993432
1.00347 1.00009 0.990707
1.00126 1.00008 0.993751
1.0007 1.00088 0.9972
1.00522 0.994881 0.991057
1.00523 0.995753 0.990192
1.00523 0.994986 0.990919
1.00529 0.998974 0.987019
1.00523 0.996304 0.989525
1.00523 0.995269 0.99069
1.00528 1.00027 0.985689
1.00528 0.99937 0.986515
1.00525 0.997061 0.988857
1.00526 1.00033 0.98554
1.00512 1.00058 0.985564
1.00289 1.0009 0.988894
1.00476 1.00086 0.985908
1.00243 1.00203 0.988564
1.00106 1.00139 0.996612
1.00156 1.00315 0.988852
1.00074 1.00138 0.996802
1.00018 1.00086 0.997392
1.00528 0.994935 0.990997
1.00533 0.994893 0.990767
1.00533 0.994811 0.990933
1.00529 0.994849 0.990801
1.00526 0.995107 0.990386
1.00536 0.994826 0.990572
1.00527 0.994958 0.991191
1.00527 0.994941 0.991186
1.00531 0.994897 0.991052
1.00528 0.994941 0.991209
1.00523 0.994944 0.991345
1.0053 0.994917 0.991107
1.00525 0.994941 0.991199
1.00531 0.994947 0.9912
1.00525 0.994939 0.991079
1.0053 0.99493 0.99117
1.00535 0.99694 0.98922
1.00527 0.995035 0.990984
1.00539 0.997376 0.988696
1.00517 0.99994 0.986343
1.00537 0.997944 0.988129
1.00527 1.00007 0.986031
1.00308 1.0002 0.990988
1.0053 1.00023 0.985816
1.00331 1.00006 0.99084
1.00182 0.999872 0.993319
1.00348 0.999965 0.990747
1.00138 0.999857 0.993772
1.00081 1.0003 0.994048
1.00519 0.994929 0.991128
1.00523 0.995137 0.990902
1.00521 0.994877 0.991028
1.00533 0.997944 0.988042
1.00524 0.995821 0.990133
1.00523 0.995035 0.990871
1.00529 1.00005 0.985941
1.00529 0.998586 0.987353
1.00524 0.996 0.989772
1.003 1.00028 0.98935
1.00527 1.00028 0.985669
1.00528 0.99936 0.98648
1.00524 1.00048 0.985559
1.00287 1.00094 0.988906
1.00116 1.00098 0.996735
1.00227 1.00228 0.988594
1.00103 1.00135 0.996607
1.0006 1.00128 0.996956
1.00527 0.994955 0.991142
1.00528 0.994936 0.990972
1.00533 0.994891 0.990717
1.0053 0.994849 0.99081
1.00521 0.994961 0.991355
1.00527 0.994953 0.991198
1.00527 0.994937 0.991204
1.00528 0.994945 0.991202
1.00523 0.994942 0.991337
1.00528 0.99512 0.991053
1.00525 0.994943 0.991226
1.00531 0.995059 0.991095
1.00534 0.99648 0.989777
1.0053 0.994929 0.991157
1.00537 0.996931 0.989209
1.00508 0.999716 0.98672
1.00541 0.99739 0.988692
1.00519 0.999891 0.986354
1.00301 1.00031 0.989389
1.00529 1.00004 0.98605
1.00324 1.00017 0.989996
1.00158 0.999949 0.996704
1.00348 1.00002 0.990663
1.00145 0.999854 0.993669
1.00099 0.999912 0.994096
1.0052 0.994957 0.991201
1.00525 0.994985 0.991063
1.00519 0.994934 0.991156
1.00538 0.99721 0.988804
1.00525 0.995294 0.990659
1.0052 0.994873 0.991
1.00528 0.999552 0.986478
1.00532 0.997949 0.988058
1.00524 0.995881 0.990074
1.00313 0.999899 0.989537
1.00528 0.999876 0.986085
1.00529 0.998194 0.987687
1.0013 1.00051 0.996831
1.00304 1.00023 0.989346
1.00528 1.00029 0.985645
1.00286 1.00098 0.988928
1.0012 1.001 0.996683
1.00098 1.00132 0.996645
1.00519 0.994967 0.991283
1.00526 0.99496 0.991141
1.00529 0.994938 0.990947
1.00526 0.995164 0.991113
1.00521 0.994958 0.991329
1.00527 0.994947 0.991205
1.00523 0.994941 0.991329
1.00528 0.995169 0.991051
1.00533 0.996752 0.989476
1.00531 0.995185 0.990989
1.00534 0.9968 0.989412
1.00498 0.999106 0.987553
1.00538 0.996908 0.989199
1.00508 0.999709 0.986725
1.00293 1.0002 0.989659
1.00522 0.999846 0.986365
1.00305 1.00026 0.989399
1.00148 1.00002 0.99671
1.00328 1.00017 0.989152
1.00141 0.999965 0.995221
1.00109 0.999829 0.994017
1.00516 0.994961 0.991344
1.00527 0.994953 0.991232
1.00519 0.994959 0.991206
1.0054 0.997348 0.988649
1.00526 0.994962 0.991109
1.00519 0.994938 0.991183
1.00526 0.999385 0.986685
1.00537 0.997594 0.988405
1.00526 0.995458 0.990416
1.00319 0.999838 0.989519
1.00527 0.999512 0.986496
1.00531 0.997959 0.988074
1.00147 1.00011 0.996833
1.00316 0.999854 0.989535
1.00527 0.999699 0.986228
1.00132 1.00053 0.996799
1.00307 1.00016 0.989343
1.00115 1.00103 0.996635
1.00524 0.995221 0.991024
1.0052 0.994966 0.991306
1.00526 0.994964 0.99114
1.00532 0.996758 0.989491
1.00526 0.995208 0.991086
1.00522 0.994957 0.991302
1.00528 0.995217 0.991048
1.00533 0.996786 0.989483
1.00492 0.998923 0.987841
1.00534 0.997105 0.989048
1.005 0.999294 0.987287
1.00286 1.00004 0.989943
1.00508 0.999697 0.986731
1.0029 1.00022 0.98967
1.00136 1.00004 0.99675
1.00307 1.00022 0.989408
1.00145 1.00004 0.996718
1.00151 0.999929 0.993439
1.00523 0.99529 0.990991
1.00517 0.99496 0.991279
1.00536 0.997116 0.988965
1.00526 0.994952 0.991243
1.00518 0.994962 0.991211
1.00521 0.999672 0.986515
1.00539 0.997365 0.988653
1.00526 0.994936 0.991155
1.00317 0.99994 0.989481
1.00525 0.99957 0.986497
1.00536 0.997983 0.988009
1.00157 0.999935 0.996771
1.0032 0.999828 0.989517
1.00526 0.999471 0.986516
1.00147 1.00015 0.996837
1.00319 0.999819 0.989532
1.00136 1.00055 0.996764
1.00533 0.996857 0.989358
1.00523 0.995259 0.991052
1.00521 0.994964 0.99133
1.0049 0.998868 0.987914
1.00532 0.996796 0.989491
1.00525 0.995255 0.99106
1.00532 0.996823 0.98949
1.00495 0.998898 0.987807
1.00274 0.999959 0.990228
1.00502 0.999484 0.98702
1.00283 1.00005 0.989953
1.0013 1.00002 0.996812
1.0029 1.00023 0.989683
1.00133 1.00006 0.996778
1.00141 1.00004 0.996736
1.00533 0.996984 0.989217
1.00523 0.995137 0.991125
1.00517 0.994958 0.991213
1.00509 0.999606 0.986822
1.00537 0.99713 0.988974
1.00525 0.99495 0.991254
1.00308 1.00002 0.989582
1.00517 0.999728 0.986512
1.00538 0.997377 0.988657
1.00155 0.999924 0.996722
1.00317 0.999955 0.98948
1.00525 0.999743 0.986312
1.00157 0.999963 0.996796
1.00322 0.999829 0.989514
1.0015 1.00016 0.996831
1.00493 0.999289 0.987405
1.00532 0.996696 0.989564
1.00523 0.995299 0.99108
1.00268 0.999871 0.99044
1.00491 0.998837 0.987909
1.00532 0.996829 0.989492
1.00497 0.998867 0.987773
1.00275 0.999932 0.990238
1.00122 1.00002 0.996861
1.00281 1.00006 0.989963
1.00127 1.00003 0.996824
1.00127 1.00008 0.996799
1.005 0.999424 0.98717
1.00533 0.996812 0.989405
1.00523 0.994968 0.991261
1.00304 1.00005 0.991243
1.00507 0.999614 0.986826
1.00537 0.997148 0.988982
1.00144 0.999959 0.996735
1.00306 1.00007 0.989579
1.00514 0.999787 0.986507
1.00156 0.999932 0.996739
1.00316 0.999973 0.989476
1.00158 0.999975 0.996818
1.00278 0.999867 0.990331
1.00492 0.999096 0.987605
1.00532 0.996534 0.98977
1.00113 0.999978 0.996938
1.00266 0.999868 0.990435
1.00492 0.998809 0.987905
1.00274 0.999907 0.990244
1.00118 1.00001 0.996889
1.00123 1.00005 0.996844
1.00298 0.999951 0.991484
1.00498 0.999428 0.987173
1.00534 0.996656 0.989593
1.00082 1.00001 0.997339
1.00291 1.00005 0.989842
1.00504 0.999618 0.98683
1.00147 0.99997 0.996734
1.00303 1.00012 0.989575
1.00159 0.999937 0.996758
1.00111 0.999936 0.994088
1.00281 0.999873 0.991018
1.00492 0.998902 0.987804
1.00115 0.999982 0.996946
1.00267 0.999869 0.990438
1.00119 0.999995 0.996911
1.00063 0.999994 0.994529
1.00289 0.999932 0.990822
1.00496 0.999437 0.987176
1.00105 0.999999 0.995565
1.00291 1.00005 0.989866
1.0015 0.999971 0.996736
1.00114 0.999965 0.996939
1.00268 0.999862 0.990425
1.00111 0.999983 0.996945
1.00091 0.999962 0.995738
1.00278 0.999923 0.990219
1.00136 0.999989 0.996775
1.00117 0.999966 0.996941
1.00122 0.999974 0.996869

TENSORS stress float
0.0022973 -0.000158693 0.000266365
-0.000158693 0.00111594 -4.60425e-05
0.000266365 -4.60425e-05 0.00108957
0.00715038 7.31281e-05 0.000310196
7.31281e-05 0.00418492 3.57271e-05
0.000310196 3.57271e-05 0.00419194
0.00191314 -8.87935e-05 0.000111037
-8.87935e-05 0.000872072 -1.79673e-05
0.000111037 -1.79673e-05 0.000833566
0.00225903 -8.9779e-05 0.000257015
-8.9779e-05 0.00106775 -2.62925e-05
0.000257015 -2.62925e-05 0.00105118
0.00232206 -0.000139383 0.000260075
-0.000139383 0.00112157 -4.05479e-05
0.000260075 -4.05479e-05 0.0010987
0.0023071 -0.000163466 0.00027826
-0.000163466 0.00112258 -4.77525e-05
0.00027826 -4.77525e-05 0.00109645
0.0018875 -0.000151425 5.27356e-05
-0.000151425 0.000758325 -1.47241e-05
5.27356e-05 -1.47241e-05 0.000640852
0.00707661 6.46854e-05 -7.78407e-06
6.46854e-05 0.00412991 -1.74287e-06
-7.78407e-06 -1.74287e-06 0.00414159
0.00664469 0.000223262 0.000153514
0.000223262 0.00386177 1.54419e-05
0.000153514 1.54419e-05 0.00383444
0.00667689 -1.16665e-05 8.88146e-05
-1.16665e-05 0.00386156 4.61447e-06
8.88146e-05 4.61447e-06 0.00384206
0.00201402 0.000207462 0.000285946
0.000207462 0.000945954 3.82687e-05
0.000285946 3.82687e-05 0.000934998
0.000378205 0.000261121 2.66037e-05
0.000261121 -0.000154322 2.04497e-05
2.66037e-05 2.04497e-05 -0.000297592
0.00184296 -3.26343e-05 0.000250579
-3.26343e-05 0.00080592 4.13111e-06
0.000250579 4.13111e-06 0.0008076
0.00152436 3.45919e-06 6.6424e-05
3.45919e-06 0.000625646 1.8935e-06
6.6424e-05 1.8935e-06 0.000577962
0.00161357 -8.80055e-05 -5.98402e-05
-8.80055e-05 0.000694824 1.1058e-05
-5.98402e-05 1.1058e-05 0.0006383
0.0019122 -8.94375e-05 8.36617e-05
-8.94375e-05 0.000866934 -5.26126e-06
8.36617e-05 -5.26126e-06 0.000831649
0.00193141 -7.7612e-05 0.000121332
-7.7612e-05 0.00088839 -1.93951e-05
0.000121332 -1.93951e-05 0.000846017
0.00191687 -9.53164e-05 9.90858e-05
-9.53164e-05 0.000868449 -1.38184e-05
9.90858e-05 -1.38184e-05 0.000832858
0.00197376 -0.000187665 -4.20492e-05
-0.000187665 0.000811217 6.27487e-06
-4.20492e-05 6.27487e-06 0.000702924
0.00624417 -0.000148497 0.000326496
-0.000148497 0.00361876 -1.44668e-05
0.000326496 -1.44668e-05 0.00363816
0.00221082 -6.66244e-05 0.00025406
-6.66244e-05 0.00103863 -1.95255e-05
0.00025406 -1.95255e-05 0.00102542
0.00231534 -0.000115361 0.000258355
-0.000115361 0.00110828 -3.37191e-05
0.000258355 -3.37191e-05 0.00108882
0.00185316 -0.000142949 7.22743e-05
-0.000142949 0.0007366 -1.12207e-05
7.22743e-05 -1.12207e-05 0.000635432
0.00188148 -0.000154057 6.11588e-05
-0.000154057 0.000747807 -1.42672e-05
6.11588e-05 -1.42672e-05 0.000638934
0.00222945 -0.000142808 0.000281856
-0.000142808 0.00106343 -4.47079e-05
0.000281856 -4.47079e-05 0.00103944
0.00189137 -0.000150388 4.64099e-05
-0.000150388 0.0007808 -1.49703e-05
4.64099e-05 -1.49703e-05 0.000650743
0.00207772 -0.000344869 1.99316e-05
-0.000344869 0.000635349 -8.55996e-06
1.99316e-05 -8.55996e-06 0.000410159
0.00703838 4.87708e-05 -0.00030884
4.87708e-05 0.00409511 -2.61084e-05
-0.00030884 -2.61084e-05 0.00411136
0.00433275 0.000164716 -0.000149632
0.000164716 0.00239661 -1.71988e-05
-0.000149632 -1.71988e-05 0.00237374
0.00435469 8.18878e-05 -0.000150567
8.18878e-05 0.00241657 -1.54434e-05
-0.000150567 -1.54434e-05 0.00239533
0.00697319 -9.04294e-06 -3.33728e-06
-9.04294e-06 0.00407506 -6.04791e-07
-3.33728e-06 -6.04791e-07 0.00408292
0.000403366 0.000244505 -1.00836e-06
0.000244505 -0.000136583 -1.29657e-06
-1.00836e-06 -1.29657e-06 -0.000279871
0.00191065 7.13187e-05 0.00026088
7.13187e-05 0.00084768 2.47442e-05
0.00026088 2.47442e-05 0.000835668
0.00203477 0.000161771 0.000267872
0.000161771 0.000959195 3.8189e-05
0.000267872 3.8189e-05 0.000934812
0.00285539 0.000217198 0.000159894
0.000217198 0.00135335 2.35782e-05
0.000159894 2.35782e-05 0.00126782
0.00610555 -0.000282951 1.83557e-05
-0.000282951 0.00359174 4.52874e-06
1.83557e-05 4.52874e-06 0.00353875
0.0029716 0.000295833 0.0001682
0.000295833 0.00146897 2.93992e-05
0.0001682 2.93992e-05 0.00136661
0.00041 0.000231132 2.62075e-05
0.000231132 -0.000126545 2.77435e-05
2.62075e-05 2.77435e-05 -0.000270089
0.000896476 0.000278059 1.52949e-05
0.000278059 -3.01538e-06 6.23615e-06
1.52949e-05 6.23615e-06 -0.000235824
0.00495261 -0.000112446 0.000186829
-0.000112446 0.00286477 1.86012e-05
0.000186829 1.86012e-05 0.00286107
0.00622694 8.45143e-05 3.30696e-06
8.45143e-05 0.00359401 -1.92708e-06
3.30696e-06 -1.92708e-06 0.00362106
0.00409005 9.40563e-05 -0.000125421
9.40563e-05 0.00224069 -5.88955e-06
-0.000125421 -5.88955e-06 0.00222941
0.00607152 5.80121e-05 0.000317093
5.80121e-05 0.00349904 4.46012e-06
0.000317093 4.46012e-06 0.00352688
0.00144962 8.86229e-05 6.76894e-05
8.86229e-05 0.000584315 4.46846e-06
6.76894e-05 4.46846e-06 0.000541806
0.000489791 1.20216e-05 1.49779e-05
1.20216e-05 -0.000147915 1.72966e-06
1.49779e-05 1.72966e-06 -0.000235991
0.00648731 0.000239298 0.000184563
0.000239298 0.00378526 1.80212e-05
0.000184563 1.80212e-05 0.0037594
0.00287467 7.96579e-05 0.000150167
7.96579e-05 0.00134304 9.56693e-06
0.000150167 9.56693e-06 0.00128299
0.00149299 -8.98386e-05 -8.11138e-05
-8.98386e-05 0.000621232 1.05047e-05
-8.11138e-05 1.05047e-05 0.000566754
0.00152644 -0.00011482 -7.30654e-05
-0.00011482 0.000646703 1.32631e-05
-7.30654e-05 1.32631e-05 0.000587947
0.00167322 -4.60056e-05 -4.75912e-05
-4.60056e-05 0.000726469 9.17947e-06
-4.75912e-05 9.17947e-06 0.000669813
0.0020165 -0.000189493 -0.00014402
-0.000189493 0.000829156 2.72691e-05
-0.00014402 2.72691e-05 0.000732853
0.00391648 -2.38433e-05 -0.00012721
-2.38433e-05 0.00214286 -1.58177e-06
-0.00012721 -1.58177e-06 0.00213163
0.00184606 -6.92842e-05 8.85109e-05
-6.92842e-05 0.000823496 -4.13662e-06
8.85109e-05 -4.13662e-06 0.000792815
0.00198277 -5.53025e-05 0.000127702
-5.53025e-05 0.000918939 -1.87944e-05
0.000127702 -1.87944e-05 0.000874043
0.00192077 -9.30295e-05 8.9945e-05
-9.30295e-05 0.00086963 -9.06865e-06
8.9945e-05 -9.06865e-06 0.000834642
0.00192832 -0.000120914 -3.40667e-05
-0.000120914 0.000772924 2.46633e-06
-3.40667e-05 2.46633e-06 0.00068396
0.00198227 -0.000192391 -4.94259e-05
-0.000192391 0.000829332 7.24371e-06
-4.94259e-05 7.24371e-06 0.000712485
0.00196588 -0.000171031 -3.6447e-05
-0.000171031 0.000799585 4.48966e-06
-3.6447e-05 4.48966e-06 0.000699177
0.00209485 -0.000346853 -1.03956e-05
-0.000346853 0.000643226 2.72675e-06
-1.03956e-05 2.72675e-06 0.00041864
0.00605652 1.64358e-06 0.000313192
1.64358e-06 0.0034874 -2.68486e-06
0.000313192 -2.68486e-06 0.00351655
0.00210933 -4.11819e-05 0.000248126
-4.11819e-05 0.000978914 -1.34229e-05
0.000248126 -1.34229e-05 0.000969543
0.00244998 -1.17659e-05 5.34453e-05
-1.17659e-05 0.00110495 -9.91483e-07
5.34453e-05 -9.91483e-07 0.00103536
0.00181053 -0.00011603 6.48517e-05
-0.00011603 0.000708005 -7.4149e-06
6.48517e-05 -7.4149e-06 0.000616225
0.00187429 -0.000150192 6.82148e-05
-0.000150192 0.000746132 -1.33156e-05
6.82148e-05 -1.33156e-05 0.000641315
0.00193716 -0.000224741 9.03956e-06
-0.000224741 0.000469756 -2.90249e-06
9.03956e-06 -2.90249e-06 0.000297176
0.00194128 -0.00030154 1.64367e-05
-0.00030154 0.000509226 -6.13016e-06
1.64367e-05 -6.13016e-06 0.000307536
0.00190851 -9.78147e-05 0.000252774
-9.78147e-05 0.000866557 -3.63432e-05
0.000252774 -3.63432e-05 0.000846808
0.00191785 -0.000116981 3.65203e-05
-0.000116981 0.000811787 -1.40073e-05
3.65203e-05 -1.40073e-05 0.000678066
0.00206626 -0.000375353 2.17686e-05
-0.000375353 0.000674322 -9.49142e-06
2.17686e-05 -9.49142e-06 0.000429322
0.00175426 -0.000454325 7.52038e-06
-0.000454325 0.000198473 -8.34273e-07
7.52038e-06 -8.34273e-07 -7.34766e-05
0.00704303 0.00027901 -0.000356881
0.00027901 0.00411132 -4.09854e-05
-0.000356881 -4.09854e-05 0.00411748
0.0068241 -3.76115e-05 -0.000274545
-3.76115e-05 0.00398347 -2.07883e-05
-0.000274545 -2.07883e-05 0.003993
0.00701313 0.000127646 -0.0003254
0.000127646 0.00407519 -3.12122e-05
-0.0003254 -3.12122e-05 0.00409314
0.000422853 0.000237774 -2.55497e-05
0.000237774 -0.000118462 -2.07473e-05
-2.55497e-05 -2.07473e-05 -0.00026461
0.00692216 0.00024844 -2.3732e-06
0.00024844 0.00403006 -2.45373e-06
-2.3732e-06 -2.45373e-06 0.00404133
0.00705455 0.000231713 -9.10162e-06
0.000231713 0.00411014 -3.16723e-06
-9.10162e-06 -3.16723e-06 0.00411951
0.000346798 0.000135933 3.7665e-07
0.000135933 -0.000232133 -2.69567e-07
3.7665e-07 -2.69567e-07 -0.000350697
0.00380695 -8.38835e-05 -0.000123392
-8.38835e-05 0.00211949 -5.58339e-06
-0.000123392 -5.58339e-06 0.00208731
0.000337189 0.000214903 6.74521e-07
0.000214903 -0.000189984 -5.58131e-07
6.74521e-07 -5.58131e-07 -0.000328247
0.00177983 0.000241887 6.07369e-05
0.000241887 0.000740925 3.71234e-06
6.07369e-05 3.71234e-06 0.000621519
0.000877901 0.000274472 7.07131e-07
0.000274472 -6.25714e-06 2.92567e-07
7.07131e-07 2.92567e-07 -0.000237377
0.00573919 -0.000138742 0.000211937
-0.000138742 0.00337285 2.60146e-05
0.000211937 2.60146e-05 0.00335599
0.000618576 7.63077e-05 1.85036e-05
7.63077e-05 6.15899e-05 1.39815e-05
1.85036e-05 1.39815e-05 -1.71595e-05
0.00045798 0.000105678 1.48177e-05
0.000105678 -0.000180114 1.08523e-05
1.48177e-05 1.08523e-05 -0.000292116
0.000459104 0.000165071 1.95362e-05
0.000165071 -0.000148236 1.85199e-05
1.95362e-05 1.85199e-05 -0.000274775
0.00120985 0.00026829 1.55716e-05
0.00026829 1.83586e-05 5.86167e-06
1.55716e-05 5.86167e-06 -0.000191459
0.00309442 0.000230142 0.000150899
0.000230142 0.00158057 2.1791e-05
0.000150899 2.1791e-05 0.00149698
0.0009746 0.000291924 1.91029e-05
0.000291924 -1.71007e-05 7.16445e-06
1.91029e-05 7.16445e-06 -0.000249165
0.000864747 0.000275251 1.38017e-05
0.000275251 8.29559e-05 5.58154e-06
1.38017e-05 5.58154e-06 -0.000155478
0.0013516 0.000458207 4.07506e-06
0.000458207 0.000162362 -2.43409e-06
4.07506e-06 -2.43409e-06 -0.000157422
0.00390349 -0.000127962 0.000120411
-0.000127962 0.0021877 8.60944e-06
0.000120411 8.60944e-06 0.00218461
0.00446227 -0.000171148 2.50408e-05
-0.000171148 0.00256362 -6.93947e-07
2.50408e-05 -6.93947e-07 0.00254669
0.00672524 6.65328e-05 -0.000337628
6.65328e-05 0.00389035 -1.72806e-05
-0.000337628 -1.72806e-05 0.003916
0.00631614 7.58123e-05 -0.00032765
7.58123e-05 0.00364614 -1.05128e-05
-0.00032765 -1.05128e-05 0.00367426
0.00616499 8.3919e-05 -3.99233e-08
8.3919e-05 0.00356262 -3.94044e-06
-3.99233e-08 -3.94044e-06 0.00358738
0.00392224 3.56503e-05 -0.000136096
3.56503e-05 0.00213668 -7.35363e-06
-0.000136096 -7.35363e-06 0.00213092
0.00158957 3.94861e-05 6.48796e-05
3.94861e-05 0.000546502 1.81274e-06
6.48796e-05 1.81274e-06 0.000476698
0.0042684 0.000154288 -0.000128504
0.000154288 0.00235775 -7.77738e-06
-0.000128504 -7.77738e-06 0.00233818
0.001648 9.45369e-05 6.64755e-05
9.45369e-05 0.000574153 3.34016e-06
6.64755e-05 3.34016e-06 0.000492263
0.00610907 0.000119118 0.000319635
0.000119118 0.00353633 7.32269e-06
0.000319635 7.32269e-06 0.00355624
0.000388014 1.03734e-05 1.82331e-05
1.03734e-05 -0.000206911 8.05405e-07
1.82331e-05 8.05405e-07 -0.00029121
0.0028061 4.16183e-05 0.000146835
4.16183e-05 0.00130643 6.3708e-06
0.000146835 6.3708e-06 0.00125285
0.00112299 6.93176e-05 1.14215e-05
6.93176e-05 -4.54336e-05 6.71727e-07
1.14215e-05 6.71727e-07 -0.000179637
0.00280186 0.000125379 0.000155405
0.000125379 0.00129859 1.31493e-05
0.000155405 1.31493e-05 0.00123112
0.00123043 0.000154617 9.8282e-06
0.000154617 -1.54631e-05 1.37955e-06
9.8282e-06 1.37955e-06 -0.00017435
0.00185977 4.14668e-05 -0.00024956
4.14668e-05 0.000814381 3.29359e-06
-0.00024956 3.29359e-06 0.000818377
0.00144536 -2.01143e-05 -6.64231e-05
-2.01143e-05 0.000583979 3.12385e-06
-6.64231e-05 3.12385e-06 0.000536244
0.00167794 -1.60893e-05 -4.16736e-05
-1.60893e-05 0.000729295 8.72898e-06
-4.16736e-05 8.72898e-06 0.000670496
0.00149536 -0.000106623 -8.2174e-05
-0.000106623 0.000625751 1.30152e-05
-8.2174e-05 1.30152e-05 0.000569176
0.00206413 -9.97481e-05 -0.000135469
-9.97481e-05 0.000847524 1.31175e-05
-0.000135469 1.31175e-05 0.000770745
0.00205947 -0.000157253 -0.000139322
-0.000157253 0.000845945 2.29963e-05
-0.000139322 2.29963e-05 0.000758913
0.00201089 -0.000208228 -0.000149476
-0.000208228 0.000840703 2.90022e-05
-0.000149476 2.90022e-05 0.00073553
0.00211913 -0.000349015 -3.61285e-05
-0.000349015 0.000657033 1.27442e-05
-3.61285e-05 1.27442e-05 0.000433161
0.00615105 -0.000109003 2.38731e-06
-0.000109003 0.00355961 -1.93213e-06
2.38731e-06 -1.93213e-06 0.00358084
0.00175229 2.67321e-05 9.53319e-05
2.67321e-05 0.000757784 -4.83532e-06
9.53319e-05 -4.83532e-06 0.00073633
0.00116571 -1.23885e-05 -6.79233e-05
-1.23885e-05 0.000284968 2.17083e-06
-6.79233e-05 2.17083e-06 0.00021444
0.00187604 -7.97769e-05 -3.71999e-05
-7.97769e-05 0.000740551 3.12803e-06
-3.71999e-05 3.12803e-06 0.000659252
0.00452807 -5.48211e-05 0.00026141
-5.48211e-05 0.00253311 -1.8972e-05
0.00026141 -1.8972e-05 0.00252683
0.00255137 -0.000202644 -4.55393e-05
-0.000202644 0.00120025 4.41812e-06
-4.55393e-05 4.41812e-06 0.00107917
0.00195886 -0.000147062 -3.37082e-05
-0.000147062 0.000793161 3.18938e-06
-3.37082e-05 3.18938e-06 0.00069893
0.00199977 -0.000224938 -9.67773e-06
-0.000224938 0.000504908 1.76831e-06
-9.67773e-06 1.76831e-06 0.000336277
0.0020883 -0.000380904 -8.83501e-06
-0.000380904 0.000686471 2.41949e-06
-8.83501e-06 2.41949e-06 0.000440474
0.00202159 -0.000304903 -9.12572e-06
-0.000304903 0.000560239 2.39315e-06
-9.12572e-06 2.39315e-06 0.000356934
0.00180549 -0.000457273 9.42226e-07
-0.000457273 0.000232149 -1.78279e-07
9.42226e-07 -1.78279e-07 -3.94656e-05
0.000422708 9.05785e-06 1.90141e-05
9.05785e-06 -0.000188625 -6.00551e-07
1.90141e-05 -6.00551e-07 -0.000269366
0.00171796 -7.15018e-06 5.52213e-05
-7.15018e-06 0.000639629 -2.74869e-06
5.52213e-05 -2.74869e-06 0.000561631
0.00186955 -7.45418e-05 9.62956e-06
-7.45418e-05 0.000429346 -3.06838e-07
9.62956e-06 -3.06838e-07 0.00031009
0.00184071 -0.000176132 9.90384e-06
-0.000176132 0.000399581 -1.31956e-06
9.90384e-06 -1.31956e-06 0.000248778
0.00195009 -0.000263812 1.1973e-05
-0.000263812 0.000488086 -4.0671e-06
1.1973e-05 -4.0671e-06 0.000305353
0.00193928 -0.000318905 -2.22677e-07
-0.000318905 0.000178953 -2.10131e-07
-2.22677e-07 -2.10131e-07 1.21227e-07
0.00645283 8.67803e-05 0.000235233
8.67803e-05 0.00377454 -1.87422e-05
0.000235233 -1.87422e-05 0.0037733
0.00174946 -0.000416704 4.90546e-06
-0.000416704 0.000140106 -6.64529e-07
4.90546e-06 -6.64529e-07 -0.0001002
0.000189453 -0.000187786 2.01834e-05
-0.000187786 -0.000277141 -2.22828e-05
2.01834e-05 -2.22828e-05 -0.000404161
0.000962049 -0.000299479 1.63364e-05
-0.000299479 4.30284e-05 -9.46778e-06
1.63364e-05 -9.46778e-06 -0.000205005
0.00187306 -0.00050887 1.11727e-05
-0.00050887 0.000337868 -1.49055e-06
1.11727e-05 -1.49055e-06 2.54425e-05
0.00196814 -0.000526239 2.62846e-06
-0.000526239 0.000227163 2.20672e-06
2.62846e-06 2.20672e-06 -2.97124e-05
0.000453809 -0.000156477 2.25979e-05
-0.000156477 -7.38934e-05 -1.77438e-05
2.25979e-05 -1.77438e-05 -0.000181382
0.000718957 -0.000144947 -5.68518e-07
-0.000144947 0.000141371 -8.92511e-07
-5.68518e-07 -8.92511e-07 -0.000106122
0.00700432 0.000272949 -0.000364525
0.000272949 0.00408773 -3.85617e-05
-0.000364525 -3.85617e-05 0.00409571
0.00705816 0.000220668 -0.000344143
0.000220668 0.00411042 -3.77204e-05
-0.000344143 -3.77204e-05 0.0041236
0.000333538 0.000133881 -1.83447e-05
0.000133881 -0.000242035 -1.33409e-05
-1.83447e-05 -1.33409e-05 -0.000360948
0.00609398 -0.000112682 -0.000219558
-0.000112682 0.00355961 -1.63632e-05
-0.000219558 -1.63632e-05 0.00355723
0.000282491 0.000206655 -2.29392e-05
0.000206655 -0.000206251 -2.13386e-05
-2.29392e-05 -2.13386e-05 -0.000334034
0.000340759 0.000202343 -2.11952e-05
0.000202343 -0.000186179 -1.86154e-05
-2.11952e-05 -1.86154e-05 -0.000325539
0.000915193 0.000274434 -1.69697e-05
0.000274434 2.23578e-05 -6.75818e-06
-1.69697e-05 -6.75818e-06 -0.000207789
0.00552547 -0.00012131 -4.02586e-06
-0.00012131 0.00322067 1.2863e-06
-4.02586e-06 1.2863e-06 0.00321435
0.000501504 6.08824e-05 1.77946e-06
6.08824e-05 -8.65205e-06 3.78794e-07
1.77946e-06 3.78794e-07 -8.4098e-05
0.00168116 0.000148613 6.85096e-05
0.000148613 0.000595235 6.12503e-06
6.85096e-05 6.12503e-06 0.000499149
0.00167049 0.000211867 7.01126e-05
0.000211867 0.00062369 7.06867e-06
7.01126e-05 7.06867e-06 0.000511714
0.00118179 0.000267368 1.12303e-08
0.000267368 6.10567e-06 -3.14314e-07
1.12303e-08 -3.14314e-07 -0.000204668
0.000429854 0.000180556 -2.66764e-07
0.000180556 -9.64595e-05 -4.04628e-07
-2.66764e-07 -4.04628e-07 -0.000207822
0.00101832 0.000291827 1.44164e-06
0.000291827 1.58253e-05 4.64246e-08
1.44164e-06 4.64246e-08 -0.000215514
0.000805547 0.000259776 4.31441e-07
0.000259776 3.89511e-05 -1.00735e-06
4.31441e-07 -1.00735e-06 -0.000193463
0.00149443 0.000480729 -4.42795e-07
0.000480729 0.000238995 -4.31062e-07
-4.42795e-07 -4.31062e-07 -8.44423e-05
0.000431267 0.000135889 1.9165e-05
0.000135889 -7.1456e-05 1.70111e-05
1.9165e-05 1.70111e-05 -0.000172798
0.000614846 2.26494e-05 1.03966e-05
2.26494e-05 7.20686e-05 1.27724e-05
1.03966e-05 1.27724e-05 1.22365e-05
0.00139233 0.00021631 4.95214e-06
0.00021631 0.000588434 3.18035e-06
4.95214e-06 3.18035e-06 0.00036478
0.00123537 0.000233927 1.15392e-05
0.000233927 -3.3223e-07 4.15864e-06
1.15392e-05 4.15864e-06 -0.000192973
0.00115288 0.000293364 1.92335e-05
0.000293364 3.33315e-05 7.13992e-06
1.92335e-05 7.13992e-06 -0.000191814
0.00195216 0.000446703 3.87611e-06
0.000446703 0.000246289 -2.21806e-07
3.87611e-06 -2.21806e-07 1.60172e-06
0.000635078 0.00022465 1.02062e-05
0.00022465 7.28438e-06 5.63652e-06
1.02062e-05 5.63652e-06 -0.00021845
0.00189259 0.000524518 5.26897e-06
0.000524518 0.00037684 -1.44543e-06
5.26897e-06 -1.44543e-06 6.92956e-05
0.00121393 0.000433351 1.7787e-06
0.000433351 0.000182807 -3.01938e-06
1.7787e-06 -3.01938e-06 -0.00015091
0.00158034 0.000560609 -5.79737e-06
0.000560609 0.000191554 -5.43393e-06
-5.79737e-06 -5.43393e-06 -0.000148537
0.00345143 -0.000135381 7.89835e-05
-0.000135381 0.00189496 4.80899e-06
7.89835e-05 4.80899e-06 0.00189035
0.00383786 -0.000167846 1.55596e-05
-0.000167846 0.00215405 -9.90409e-07
1.55596e-05 -9.90409e-07 0.00214036
0.00429844 -0.00021356 -8.99608e-05
-0.00021356 0.00246593 -7.87064e-06
-8.99608e-05 -7.87064e-06 0.00243854
0.000538928 -0.000144174 2.20562e-05
-0.000144174 -8.45555e-07 -1.56566e-05
2.20562e-05 -1.56566e-05 -9.48114e-05
0.00585612 0.000134836 0.000195911
0.000134836 0.00343278 -1.88421e-05
0.000195911 -1.88421e-05 0.00341954
0.00692874 0.000228213 -0.000362973
0.000228213 0.00403364 -3.18238e-05
-0.000362973 -3.18238e-05 0.00404848
0.00642868 9.98517e-05 -0.000331626
9.98517e-05 0.00371271 -1.48161e-05
-0.000331626 -1.48161e-05 0.00373923
0.000388147 9.86904e-05 -1.88467e-05
9.86904e-05 -0.000218109 -5.67742e-06
-1.88467e-05 -5.67742e-06 -0.000317922
0.00036779 4.33105e-05 -1.8663e-05
4.33105e-05 -0.000219069 -2.73535e-06
-1.8663e-05 -2.73535e-06 -0.00030785
0.00610868 -4.73608e-06 -0.000315023
-4.73608e-06 0.00351822 -2.81695e-06
-0.000315023 -2.81695e-06 0.00354751
0.00604724 4.00117e-06 -9.12968e-08
4.00117e-06 0.00348118 -1.0836e-06
-9.12968e-08 -1.0836e-06 0.00351061
0.000365575 8.04156e-07 -6.21176e-09
8.04156e-07 -0.000223727 1.95703e-07
-6.21176e-09 1.95703e-07 -0.000306265
0.00156967 4.13848e-05 6.54559e-05
4.13848e-05 0.000528296 3.15468e-06
6.54559e-05 3.15468e-06 0.00045553
0.00108489 7.27815e-05 5.75823e-08
7.27815e-05 -7.3869e-05 -8.56494e-08
5.75823e-08 -8.56494e-08 -0.000209159
0.000377751 8.72749e-05 -7.17436e-07
8.72749e-05 -0.000228196 -3.95839e-07
-7.17436e-07 -3.95839e-07 -0.0003349
0.00118798 0.000155356 -9.06292e-08
0.000155356 -4.07371e-05 -2.10056e-07
-9.06292e-08 -2.10056e-07 -0.000200895
0.000363423 -3.20103e-05 1.87977e-05
-3.20103e-05 -0.000226221 -8.46498e-07
1.87977e-05 -8.46498e-07 -0.000305909
0.00107696 3.04098e-05 1.10371e-05
3.04098e-05 -6.33532e-05 2.62373e-07
1.10371e-05 2.62373e-07 -0.000191843
0.00114698 0.000112595 1.06478e-05
0.000112595 -4.66975e-05 1.17878e-06
1.06478e-05 1.17878e-06 -0.000191776
0.00186653 0.000114939 1.08434e-06
0.000114939 4.6638e-05 -3.92927e-07
1.08434e-06 -3.92927e-07 -5.20537e-05
0.0012517 0.000193332 9.34131e-06
0.000193332 -5.37878e-06 2.55606e-06
9.34131e-06 2.55606e-06 -0.000180307
0.00204436 0.000267399 4.78254e-07
0.000267399 0.000173018 -7.99491e-07
4.78254e-07 -7.99491e-07 3.07125e-05
0.00606831 -7.06205e-05 -0.000318763
-7.06205e-05 0.00350175 3.57756e-06
-0.000318763 3.57756e-06 0.003527
0.00139691 -0.000158893 -6.72733e-05
-0.000158893 0.000572299 8.28083e-06
-6.72733e-05 8.28083e-06 0.000519234
-0.000238609 -7.37613e-06 -1.18379e-05
-7.37613e-06 -0.000595677 1.64327e-06
-1.18379e-05 1.64327e-06 -0.000692658
0.00198699 -7.09781e-05 -0.0001333
-7.09781e-05 0.000803236 9.12347e-06
-0.0001333 9.12347e-06 0.000731899
0.00686601 0.000246523 -3.83029e-05
0.000246523 0.00402949 3.57115e-06
-3.83029e-05 3.57115e-06 0.0039821
0.00317326 -0.000285517 -0.000155141
-0.000285517 0.00158954 3.02179e-05
-0.000155141 3.02179e-05 0.00147408
0.00207221 -0.000127067 -0.000137088
-0.000127067 0.000851595 1.79975e-05
-0.000137088 1.79975e-05 0.000770658
0.00205123 -0.000224595 -2.95535e-05
-0.000224595 0.000533066 5.56394e-06
-2.95535e-05 5.56394e-06 0.000368605
0.00207688 -0.00030683 -3.24692e-05
-0.00030683 0.000594145 1.10036e-05
-3.24692e-05 1.10036e-05 0.00038959
0.00209615 -0.000383655 -3.68408e-05
-0.000383655 0.000689176 1.36456e-05
-3.68408e-05 1.36456e-05 0.000443098
0.00185433 -0.000460243 -6.11117e-06
-0.000460243 0.000263661 6.78012e-07
-6.11117e-06 6.78012e-07 -7.6612e-06
0.000365446 4.06056e-06 -8.77196e-09
4.06056e-06 -0.000222641 3.48289e-07
-8.77196e-09 3.48289e-07 -0.000304379
0.00184843 -8.97344e-05 -3.55193e-05
-8.97344e-05 0.000728918 5.2615e-07
-3.55193e-05 5.2615e-07 0.000652343
0.00152441 -7.01636e-05 -1.12628e-05
-7.01636e-05 0.000211187 7.43442e-07
-1.12628e-05 7.43442e-07 8.7753e-05
0.00192874 -0.00017773 -9.59287e-06
-0.00017773 0.000454368 1.52134e-06
-9.59287e-06 1.52134e-06 0.000301589
0.00667858 8.58666e-05 5.05674e-06
8.58666e-05 0.00391854 4.44603e-07
5.05674e-06 4.44603e-07 0.00391522
0.00178704 -0.000197574 6.25241e-06
-0.000197574 0.000741253 7.75052e-07
6.25241e-06 7.75052e-07 0.000604516
0.00135054 -0.000327548 1.35457e-06
-0.000327548 0.00028572 -1.23316e-06
1.35457e-06 -1.23316e-06 3.59322e-05
0.00199148 -0.000266689 -9.49719e-06
-0.000266689 0.000511364 2.49468e-06
-9.49719e-06 2.49468e-06 0.000327952
0.0020282 -0.000325779 2.78826e-08
-0.000325779 0.000231479 -1.43342e-07
2.78826e-08 -1.43342e-07 5.8651e-05
0.00186257 -0.000507949 9.31709e-07
-0.000507949 0.000333162 -1.93836e-07
9.31709e-07 -1.93836e-07 2.22944e-05
0.00186751 -0.000421165 4.69517e-07
-0.000421165 0.000217906 -2.58906e-07
4.69517e-07 -2.58906e-07 -2.30397e-05
0.00200935 -0.00052782 8.67169e-07
-0.00052782 0.000257602 1.64146e-07
8.67169e-07 1.64146e-07 7.96165e-07
0.000457043 -0.000169916 1.96304e-06
-0.000169916 -7.76323e-05 4.37663e-07
1.96304e-06 4.37663e-07 -0.000184682
0.000690751 -0.000189612 1.47252e-06
-0.000189612 0.000117015 3.74903e-07
1.47252e-06 3.74903e-07 -0.000123746
0.00107711 -3.47174e-05 1.13126e-05
-3.47174e-05 -5.92406e-05 -5.28712e-07
1.13126e-05 -5.28712e-07 -0.000187955
0.00193697 -0.000122658 8.95705e-06
-0.000122658 0.000467977 -6.26793e-07
8.95705e-06 -6.26793e-07 0.00033624
0.00183701 -0.000123727 1.41378e-06
-0.000123727 5.80191e-05 5.67688e-10
1.41378e-06 5.67688e-10 -5.26136e-05
0.00187134 -0.00026169 -1.29107e-08
-0.00026169 9.89616e-05 7.27765e-07
-1.29107e-08 7.27765e-07 -4.19137e-05
0.00186545 -0.0003759 1.95373e-07
-0.0003759 0.000163157 2.43138e-07
1.95373e-07 2.43138e-07 -4.18118e-05
0.00209404 -0.00036566 3.10511e-06
-0.00036566 0.000167651 -8.40943e-07
3.10511e-06 -8.40943e-07 2.94877e-05
0.000315714 -0.000174528 2.01672e-05
-0.000174528 -0.000175698 -2.1194e-05
2.01672e-05 -2.1194e-05 -0.000296642
0.00200647 -0.000484284 1.21781e-06
-0.000484284 0.000199434 1.45244e-06
1.21781e-06 1.45244e-06 -1.41122e-05
0.000658406 -0.00025719 1.13846e-05
-0.00025719 -5.33633e-05 -9.20135e-06
1.13846e-05 -9.20135e-06 -0.000294177
0.0015707 -0.000528195 1.3117e-05
-0.000528195 0.000239302 -1.92165e-06
1.3117e-05 -1.92165e-06 -0.000111974
0.00219162 -0.000591117 3.84431e-06
-0.000591117 0.00043734 1.24951e-06
3.84431e-06 1.24951e-06 0.000123222
0.00228623 -0.000565559 6.94397e-08
-0.000565559 0.000392365 3.77773e-06
6.94397e-08 3.77773e-06 0.000164365
0.000474046 -0.000205849 1.02753e-06
-0.000205849 -4.01204e-05 -4.45291e-06
1.02753e-06 -4.45291e-06 -0.000297447
0.00084654 -0.000130898 -2.88005e-07
-0.000130898 0.000247281 -1.3841e-06
-2.88005e-07 -1.3841e-06 2.70979e-05
0.000832803 -0.000267381 -7.90246e-07
-0.000267381 0.000188491 2.31178e-06
-7.90246e-07 2.31178e-06 -0.000104443
0.000348631 0.000111512 -1.73389e-05
0.000111512 -0.000244298 -1.03199e-05
-1.73389e-05 -1.03199e-05 -0.000357599
0.0050316 -0.000170771 -0.000152431
-0.000170771 0.0029207 -1.21836e-05
-0.000152431 -1.21836e-05 0.00290428
0.000375254 4.89041e-05 -1.36387e-05
4.89041e-05 -8.61281e-05 -1.37278e-05
-1.36387e-05 -1.37278e-05 -0.000155067
0.000303512 0.000164118 -1.9772e-05
0.000164118 -0.000237022 -1.64086e-05
-1.9772e-05 -1.64086e-05 -0.000364639
0.00114899 0.000266462 -1.65981e-05
0.000266462 -9.71932e-06 -6.43314e-06
-1.65981e-05 -6.43314e-06 -0.000221469
0.000406778 0.00017105 -2.29179e-05
0.00017105 -0.000113294 -1.9441e-05
-2.29179e-05 -1.9441e-05 -0.000223257
0.000626671 0.000240135 -1.22527e-05
0.000240135 -7.28445e-05 -7.47086e-06
-1.22527e-05 -7.47086e-06 -0.00029918
0.00106561 0.000291092 -2.01196e-05
0.000291092 5.21158e-05 -8.28967e-06
-2.01196e-05 -8.28967e-06 -0.000178108
0.00160848 0.00050007 -5.72537e-06
0.00050007 0.000297188 1.12528e-06
-5.72537e-06 1.12528e-06 -2.90441e-05
0.000483397 0.000134499 -1.53991e-06
0.000134499 -4.65564e-05 1.3813e-06
-1.53991e-06 1.3813e-06 -0.0001401
0.00044941 4.67765e-07 9.48908e-07
4.67765e-07 -2.34962e-05 4.86382e-07
9.48908e-07 4.86382e-07 -8.27563e-05
0.000717443 0.00014165 2.25376e-06
0.00014165 0.000149027 -5.55298e-07
2.25376e-06 -5.55298e-07 -5.69199e-05
0.00121031 0.000233703 -1.43419e-07
0.000233703 -1.05976e-05 -3.0455e-07
-1.43419e-07 -3.0455e-07 -0.000204373
0.00111242 0.000289528 3.9167e-07
0.000289528 1.33654e-05 -1.94823e-07
3.9167e-07 -1.94823e-07 -0.000211787
0.00192554 0.000444826 -3.00911e-07
0.000444826 0.000228082 -1.2895e-07
-3.00911e-07 -1.2895e-07 -1.66958e-05
0.000676261 0.000226935 -2.93778e-07
0.000226935 3.58657e-05 6.71489e-08
-2.93778e-07 6.71489e-08 -0.00018724
0.00184974 0.000518184 -3.36331e-07
0.000518184 0.000345416 -4.15175e-07
-3.36331e-07 -4.15175e-07 3.76491e-05
0.00137885 0.000454749 -1.42144e-07
0.000454749 0.000283248 -1.07752e-06
-1.42144e-07 -1.07752e-06 -5.55667e-05
0.00157791 0.000570901 -7.01812e-07
0.000570901 0.000171757 1.93678e-06
-7.01812e-07 1.93678e-06 -0.000167936
0.00051478 -1.2857e-05 3.09498e-06
-1.2857e-05 1.60127e-05 1.12349e-05
3.09498e-06 1.12349e-05 -3.24841e-05
0.00106244 0.00019771 5.77962e-06
0.00019771 0.000333417 2.47326e-06
5.77962e-06 2.47326e-06 0.000107377
0.00100595 9.50242e-05 2.21708e-06
9.50242e-05 0.000325842 5.88762e-06
2.21708e-06 5.88762e-06 0.00016127
0.000927417 0.0002169 4.98213e-07
0.0002169 0.00029306 8.96386e-07
4.98213e-07 8.96386e-07 1.86576e-05
0.00199236 0.000394241 1.14255e-06
0.000394241 0.000209718 -1.82397e-06
1.14255e-06 -1.82397e-06 1.5653e-06
0.00188655 0.000490365 5.10093e-06
0.000490365 0.000280847 -2.9353e-07
5.10093e-06 -2.9353e-07 2.99474e-07
0.00210787 0.000512598 1.27028e-07
0.000512598 0.000252045 -1.31242e-06
1.27028e-07 -1.31242e-06 2.21509e-05
0.000954956 0.000349242 3.73214e-06
0.000349242 9.26375e-05 -2.09493e-07
3.73214e-06 -2.09493e-07 -0.000204059
0.00228552 0.000639415 -3.81124e-06
0.000639415 0.000510882 -2.67522e-06
-3.81124e-06 -2.67522e-06 0.000195884
0.00191815 0.000620787 -4.94454e-06
0.000620787 0.000517144 -7.77806e-06
-4.94454e-06 -7.77806e-06 0.000116039
0.00196664 0.00062018 -1.20681e-06
0.00062018 0.000318671 -2.39564e-06
-1.20681e-06 -2.39564e-06 -9.84577e-06
0.00057195 5.52402e-05 1.85138e-06
5.52402e-05 6.9864e-05 5.35216e-06
1.85138e-06 5.35216e-06 -1.2908e-05
0.000474016 -1.14363e-05 2.02202e-06
-1.14363e-05 -2.16563e-05 7.9562e-06
2.02202e-06 7.9562e-06 -5.41322e-05
0.00298527 -0.000123052 5.10195e-05
-0.000123052 0.00159063 4.52419e-06
5.10195e-05 4.52419e-06 0.001589
0.00328603 -0.000150762 9.46471e-06
-0.000150762 0.00179323 -9.20595e-07
9.46471e-06 -9.20595e-07 0.00178401
0.00363062 -0.000183916 -6.22693e-05
-0.000183916 0.00202599 -4.88705e-06
-6.22693e-05 -4.88705e-06 0.00200698
0.000413 -0.000125187 1.9523e-05
-0.000125187 -5.59123e-05 -1.47905e-05
1.9523e-05 -1.47905e-05 -0.000135722
0.00526109 0.000164816 0.00015561
0.000164816 0.00307477 -1.74786e-05
0.00015561 -1.74786e-05 0.00305386
0.000494367 -0.000144134 1.31103e-06
-0.000144134 -3.07832e-05 5.18104e-07
1.31103e-06 5.18104e-07 -0.000128545
0.00606735 0.000115431 5.69691e-06
0.000115431 0.00355963 6.89391e-07
5.69691e-06 6.89391e-07 0.00354908
0.000372203 0.000112695 -1.83606e-05
0.000112695 -0.000229606 -8.06924e-06
-1.83606e-05 -8.06924e-06 -0.000338633
0.000395839 3.53201e-05 -1.76239e-05
3.53201e-05 -0.000209963 -3.1627e-06
-1.76239e-05 -3.1627e-06 -0.000301523
0.00114088 0.000155393 -9.85276e-06
0.000155393 -6.9387e-05 -1.74749e-06
-9.85276e-06 -1.74749e-06 -0.000230754
0.00108098 7.60031e-05 -1.15583e-05
7.60031e-05 -8.12502e-05 -7.93938e-07
-1.15583e-05 -7.93938e-07 -0.000217342
0.000421326 -7.61209e-06 -1.89075e-05
-7.61209e-06 -0.000191798 -6.73809e-07
-1.89075e-05 -6.73809e-07 -0.000272594
0.00614089 -0.000100833 -0.000325621
-0.000100833 0.00355203 5.73757e-06
-0.000325621 5.73757e-06 0.00357533
0.000410543 -2.59122e-06 6.75775e-08
-2.59122e-06 -0.000197571 -6.9812e-07
6.75775e-08 -6.9812e-07 -0.000277134
0.00105693 3.56776e-05 -1.17242e-07
3.56776e-05 -7.77792e-05 6.40397e-08
-1.17242e-07 6.40397e-08 -0.000206776
0.00114833 0.00011511 -1.18891e-07
0.00011511 -5.19375e-05 6.27982e-08
-1.18891e-07 6.27982e-08 -0.000197905
0.00189406 0.000113737 -2.14196e-07
0.000113737 7.30914e-05 3.30909e-07
-2.14196e-07 3.30909e-07 -2.54077e-05
0.00121107 0.000194501 -3.25001e-07
0.000194501 -2.66372e-05 -2.64345e-07
-3.25001e-07 -2.64345e-07 -0.000203115
0.00197191 0.000263588 -1.51183e-07
0.000263588 0.000127053 1.71016e-07
-1.51183e-07 1.71016e-07 -1.51716e-05
0.00104715 -3.89346e-06 1.10976e-05
-3.89346e-06 -7.72124e-05 -3.31428e-07
1.10976e-05 -3.31428e-07 -0.000204475
0.00185332 5.54404e-05 1.84001e-06
5.54404e-05 5.04854e-05 8.28582e-09
1.84001e-06 8.28582e-09 -3.96686e-05
0.00196305 0.000189265 6.41725e-07
0.000189265 0.000110044 -9.86986e-07
6.41725e-07 -9.86986e-07 -6.81232e-06
0.00208519 0.000143189 4.69883e-06
0.000143189 7.48549e-05 7.90128e-07
4.69883e-06 7.90128e-07 3.0024e-05
0.00200235 0.000333137 8.79949e-07
0.000333137 0.000166754 -1.06655e-06
8.79949e-07 -1.06655e-06 -6.24183e-06
0.00204456 0.000290353 2.44278e-06
0.000290353 7.61619e-05 2.92083e-07
2.44278e-06 2.92083e-07 -2.52065e-05
0.000396164 -3.16818e-06 -1.80362e-05
-3.16818e-06 -0.000200027 8.33916e-07
-1.80362e-05 8.33916e-07 -0.000284001
0.00194599 -4.53752e-05 -0.000130821
-4.53752e-05 0.000780213 6.10476e-06
-0.000130821 6.10476e-06 0.000714774
0.00114243 -6.50136e-05 -1.8614e-05
-6.50136e-05 -2.99678e-05 1.59641e-06
-1.8614e-05 1.59641e-06 -0.000157973
0.0019697 -0.00017708 -2.85796e-05
-0.00017708 0.000478114 4.36821e-06
-2.85796e-05 4.36821e-06 0.000323693
0.00688249 6.24295e-05 -0.000269371
6.24295e-05 0.00404027 2.68701e-05
-0.000269371 2.68701e-05 0.00403916
0.00335964 -0.000276111 -0.000163309
-0.000276111 0.00172597 2.58248e-05
-0.000163309 2.58248e-05 0.0016199
0.0020239 -0.00038564 -2.89976e-05
-0.00038564 0.000705714 1.15266e-05
-2.89976e-05 1.15266e-05 0.000447966
0.00202478 -0.000268991 -3.05114e-05
-0.000268991 0.000529527 8.44553e-06
-3.05114e-05 8.44553e-06 0.000345637
0.0021194 -0.000332912 -1.85713e-06
-0.000332912 0.00028536 -4.39962e-07
-1.85713e-06 -4.39962e-07 0.00011843
0.00198771 -0.000425606 -3.77793e-06
-0.000425606 0.0002986 1.02998e-06
-3.77793e-06 1.02998e-06 5.70033e-05
0.00186263 -0.000508129 -8.72544e-06
-0.000508129 0.000333404 6.27827e-07
-8.72544e-06 6.27827e-07 2.39821e-05
0.00204587 -0.000529423 -9.24703e-07
-0.000529423 0.000283883 -1.89777e-06
-9.24703e-07 -1.89777e-06 2.70726e-05
0.000423083 -0.000178313 -2.14589e-05
-0.000178313 -9.3923e-05 1.89827e-05
-2.14589e-05 1.89827e-05 -0.000206765
0.000685237 -0.000217397 -5.51736e-08
-0.000217397 0.000117825 6.49542e-07
-5.51736e-08 6.49542e-07 -0.000125786
0.00108889 -2.97289e-05 4.38116e-07
-2.97289e-05 -5.35429e-05 5.09343e-08
4.38116e-07 5.09343e-08 -0.00017862
0.00191586 -0.000122668 -9.85786e-06
-0.000122668 0.000451437 1.28022e-06
-9.85786e-06 1.28022e-06 0.000319924
0.0018701 -0.00012063 6.45618e-07
-0.00012063 7.63602e-05 -2.3673e-07
6.45618e-07 -2.3673e-07 -2.91767e-05
0.00188518 -0.000262349 -2.61507e-06
-0.000262349 0.00011439 8.37258e-07
-2.61507e-06 8.37258e-07 -3.40148e-05
0.000417593 -0.000196676 3.44349e-07
-0.000196676 -0.000112324 2.25079e-07
3.44349e-07 2.25079e-07 -0.000234561
0.000795816 -0.00027127 -5.45227e-07
-0.00027127 2.45826e-05 -1.46424e-07
-5.45227e-07 -1.46424e-07 -0.000220064
0.00153901 -0.000522723 1.87728e-06
-0.000522723 0.000226449 -2.28229e-07
1.87728e-06 -2.28229e-07 -0.000125269
0.00191451 -0.000377221 -2.83823e-06
-0.000377221 0.000198415 8.64403e-07
-2.83823e-06 8.64403e-07 -9.70085e-06
0.00208842 -0.00036742 2.3543e-06
-0.00036742 0.000156243 -9.20852e-07
2.3543e-06 -9.20852e-07 2.37495e-05
0.00223284 -0.000599351 -6.04445e-07
-0.000599351 0.00045811 -7.72427e-07
-6.04445e-07 -7.72427e-07 0.000145525
0.00204068 -0.000486723 5.35587e-07
-0.000486723 0.000222736 1.19789e-08
5.35587e-07 1.19789e-08 8.60589e-06
0.00212101 -0.000557532 7.60351e-07
-0.000557532 0.000281981 8.64297e-07
7.60351e-07 8.64297e-07 5.33729e-05
0.000645039 -0.000210112 4.03135e-07
-0.000210112 6.71452e-05 -5.44352e-07
4.03135e-07 -5.44352e-07 -0.000189237
0.000715468 -0.000214429 1.10863e-06
-0.000214429 8.86223e-05 9.42941e-07
1.10863e-06 9.42941e-07 -0.000185958
0.000738344 -0.000150948 5.08932e-07
-0.000150948 0.000182524 1.1377e-07
5.08932e-07 1.1377e-07 -4.20989e-05
0.00182339 -5.64701e-05 1.5716e-06
-5.64701e-05 5.10767e-05 -1.0346e-07
1.5716e-06 -1.0346e-07 -4.92398e-05
0.00197546 -0.00018849 -8.21551e-07
-0.00018849 0.000147504 6.01073e-07
-8.21551e-07 6.01073e-07 2.84382e-05
0.00200389 -0.000134019 6.96086e-06
-0.000134019 4.26392e-05 -8.43128e-07
6.96086e-06 -8.43128e-07 -1.54121e-05
0.00205207 -0.000302441 1.9058e-06
-0.000302441 0.000100199 -6.89127e-07
1.9058e-06 -6.89127e-07 1.31629e-06
0.00196079 -0.00043356 -2.9349e-07
-0.00043356 0.000119222 1.45821e-06
-2.9349e-07 1.45821e-06 -5.22705e-05
0.00213302 -0.000387636 3.83255e-06
-0.000387636 0.000121612 -1.21611e-06
3.83255e-06 -1.21611e-06 3.09943e-05
0.000624013 -0.000241665 7.08385e-06
-0.000241665 3.10717e-06 -7.79092e-06
7.08385e-06 -7.79092e-06 -0.000236795
0.00199962 -0.000512387 7.94177e-07
-0.000512387 0.000148722 8.53348e-07
7.94177e-07 8.53348e-07 -3.84233e-05
0.00137734 -0.00048761 9.72001e-06
-0.00048761 0.000277728 -3.2567e-06
9.72001e-06 -3.2567e-06 -8.22051e-05
0.00192829 -0.000669579 6.72183e-06
-0.000669579 0.00036062 2.20837e-06
6.72183e-06 2.20837e-06 -3.11912e-05
0.00229309 -0.000627734 6.16215e-06
-0.000627734 0.000454586 3.47097e-06
6.16215e-06 3.47097e-06 0.000159413
0.00232935 -0.000588315 -6.50787e-07
-0.000588315 0.000425469 1.93474e-06
-6.50787e-07 1.93474e-06 0.000203333
0.00043273 -0.000119044 -5.05315e-07
-0.000119044 9.11168e-06 -5.83066e-06
-5.05315e-07 -5.83066e-06 -0.000183056
0.00130901 -0.000327393 2.37294e-07
-0.000327393 0.000395898 -4.05386e-06
2.37294e-07 -4.05386e-06 0.000121155
0.000590413 -0.000217643 -7.86914e-07
-0.000217643 0.000126617 5.83204e-06
-7.86914e-07 5.83204e-06 -0.000206262
0.00184599 -0.000417263 -4.62837e-06
-0.000417263 0.000757343 3.65875e-06
-4.62837e-06 3.65875e-06 0.000433067
0.00117769 0.000233393 -1.27959e-05
0.000233393 -2.60651e-05 -4.70307e-06
-1.27959e-05 -4.70307e-06 -0.000221001
0.000311941 -2.63093e-05 7.71856e-07
-2.63093e-05 -9.41155e-05 -1.36875e-05
7.71856e-07 -1.36875e-05 -0.000159816
0.000431909 0.000111069 -2.21895e-05
0.000111069 -7.68756e-05 -1.45627e-05
-2.21895e-05 -1.45627e-05 -0.00016547
-3.67857e-05 0.000111408 -3.34696e-06
0.000111408 -0.000309028 -1.85224e-06
-3.34696e-06 -1.85224e-06 -0.000521684
0.00109887 0.00028758 -1.99168e-05
0.00028758 1.12208e-05 -7.69747e-06
-1.99168e-05 -7.69747e-06 -0.000214142
0.00189752 0.000442631 -3.64546e-06
0.000442631 0.000209339 2.8097e-07
-3.64546e-06 2.8097e-07 -3.545e-05
0.000593888 0.000218193 -7.11856e-06
0.000218193 -1.64339e-05 -3.61026e-06
-7.11856e-06 -3.61026e-06 -0.00023453
0.0013527 0.000455569 -4.48655e-06
0.000455569 0.000264051 1.67701e-09
-4.48655e-06 1.67701e-09 -7.51624e-05
0.00186031 0.000517119 -5.79538e-06
0.000517119 0.000347286 7.98385e-07
-5.79538e-06 7.98385e-07 3.82658e-05
0.00154268 0.000574898 3.62623e-06
0.000574898 0.000138862 7.80794e-06
3.62623e-06 7.80794e-06 -0.000198666
0.000451327 -2.8487e-05 -3.73192e-06
-2.8487e-05 -1.55863e-05 8.58665e-07
-3.73192e-06 8.58665e-07 -6.73723e-05
0.000645463 0.000209292 -1.41285e-06
0.000209292 8.62533e-05 -7.20804e-07
-1.41285e-06 -7.20804e-07 -0.000147844
0.000642284 8.18779e-05 9.95203e-07
8.18779e-05 0.00010008 -3.28058e-07
9.95203e-07 -3.28058e-07 -5.86947e-05
0.000805408 0.000197264 -5.86613e-07
0.000197264 0.000199271 1.33208e-07
-5.86613e-07 1.33208e-07 -6.24885e-05
0.00197456 0.000392573 -1.42109e-06
0.000392573 0.000198148 -1.17665e-06
-1.42109e-06 -1.17665e-06 -1.00996e-05
0.00185857 0.000488883 -4.73669e-07
0.000488883 0.000262607 -2.55406e-07
-4.73669e-07 -2.55406e-07 -1.8346e-05
0.00208536 0.000508995 2.29878e-07
0.000508995 0.000242044 2.2571e-07
2.29878e-07 2.2571e-07 1.30207e-05
0.00114747 0.000360419 3.22762e-06
0.000360419 0.000228655 -7.24713e-08
3.22762e-06 -7.24713e-08 -6.78823e-05
0.00217859 0.000621824 4.32363e-07
0.000621824 0.000453964 5.54499e-07
4.32363e-07 5.54499e-07 0.000139965
0.0016576 0.000594539 -1.11868e-06
0.000594539 0.000357902 -1.85808e-06
-1.11868e-06 -1.85808e-06 -3.99596e-05
0.00196851 0.000609529 -4.80864e-06
0.000609529 0.000324769 2.18214e-06
-4.80864e-06 2.18214e-06 5.08636e-06
0.000542641 -1.7785e-05 1.95777e-06
-1.7785e-05 2.71908e-05 9.27697e-06
1.95777e-06 9.27697e-06 -1.16383e-05
0.000940596 7.31709e-05 1.50763e-06
7.31709e-05 0.000292787 7.67472e-06
1.50763e-06 7.67472e-06 0.000165569
0.00075427 0.000247834 2.8934e-07
0.000247834 5.84012e-05 2.26578e-06
2.8934e-07 2.26578e-06 -0.000190187
0.00151237 0.000178568 1.25206e-06
0.000178568 0.000720887 -9.04761e-07
1.25206e-06 -9.04761e-07 0.000443074
0.00110352 0.000293999 -2.68754e-06
0.000293999 0.000331425 3.79307e-06
-2.68754e-06 3.79307e-06 8.69762e-05
0.00215456 0.000454127 -3.7584e-08
0.000454127 0.000213286 -3.17013e-06
-3.7584e-08 -3.17013e-06 2.78429e-05
0.00209431 0.00057485 -1.12982e-06
0.00057485 0.000315058 -1.72131e-06
-1.12982e-06 -1.72131e-06 3.91686e-05
0.00210855 0.00055773 -2.56795e-06
0.00055773 0.000236212 -1.58274e-06
-2.56795e-06 -1.58274e-06 1.26463e-05
0.0014375 0.0005405 5.2604e-06
0.0005405 0.00038898 -9.3425e-07
5.2604e-06 -9.3425e-07 -8.59757e-06
0.00235886 0.00068423 -3.15344e-06
0.00068423 0.000504839 -2.37891e-06
-3.15344e-06 -2.37891e-06 0.000192251
0.0016507 0.000643773 6.84262e-06
0.000643773 0.00028651 -4.61975e-06
6.84262e-06 -4.61975e-06 -0.000102943
0.000571892 5.15296e-05 1.73382e-06
5.15296e-05 6.57884e-05 5.73514e-06
1.73382e-06 5.73514e-06 -2.31385e-05
0.000653921 0.00010923 -5.53132e-07
0.00010923 0.000164122 3.16988e-06
-5.53132e-07 3.16988e-06 2.41404e-05
0.000592261 6.15085e-05 1.62212e-06
6.15085e-05 8.91787e-05 4.89016e-06
1.62212e-06 4.89016e-06 1.0494e-05
0.000524384 1.47101e-05 -7.03798e-07
1.47101e-05 4.09651e-05 -5.56542e-08
-7.03798e-07 -5.56542e-08 -4.16636e-05
0.00137483 -3.1068e-05 1.56798e-06
-3.1068e-05 0.000549273 4.68694e-06
1.56798e-06 4.68694e-06 0.000523915
0.000915808 -2.44056e-05 2.58061e-07
-2.44056e-05 0.000259465 -1.74151e-07
2.58061e-07 -1.74151e-07 0.000229117
0.00084212 -4.6997e-05 3.74531e-05
-4.6997e-05 0.000214956 9.96332e-06
3.74531e-05 9.96332e-06 0.000212237
0.0029608 -0.000128155 8.12168e-06
-0.000128155 0.00157582 -7.78103e-07
8.12168e-06 -7.78103e-07 0.00157283
0.00319509 -0.000154346 -4.94728e-05
-0.000154346 0.00173651 -4.45081e-06
-4.94728e-05 -4.45081e-06 0.00172625
0.000400033 -7.3588e-05 1.04777e-05
-7.3588e-05 -4.58634e-05 -1.23671e-05
1.04777e-05 -1.23671e-05 -0.00010882
0.00462493 0.000174893 0.000110688
0.000174893 0.00267117 -1.19479e-05
0.000110688 -1.19479e-05 0.00264912
0.000519827 -0.000119666 -1.09527e-06
-0.000119666 1.15749e-05 8.04932e-07
-1.09527e-06 8.04932e-07 -7.35424e-05
0.00549579 0.000138161 -6.32163e-06
0.000138161 0.00321584 -2.15558e-07
-6.32163e-06 -2.15558e-07 0.00320027
0.000488875 -0.00014511 -2.10493e-05
-0.00014511 -3.72327e-05 1.65356e-05
-2.10493e-05 1.65356e-05 -0.000137311
0.00627831 0.000118158 -0.00022664
0.000118158 0.00369632 2.5582e-05
-0.00022664 2.5582e-05 0.00368341
0.00116079 0.000195328 -1.01257e-05
0.000195328 -5.48077e-05 -3.03206e-06
-1.01257e-05 -3.03206e-06 -0.000232792
0.00113296 0.000118734 -1.14946e-05
0.000118734 -6.63903e-05 -1.03091e-06
-1.14946e-05 -1.03091e-06 -0.000213499
0.00193916 0.000257497 -1.48508e-06
0.000257497 0.000107882 1.18127e-06
-1.48508e-06 1.18127e-06 -3.34601e-05
0.00191403 0.000112506 -1.00466e-06
0.000112506 9.48017e-05 1.19581e-06
-1.00466e-06 1.19581e-06 -3.52955e-06
0.001036 4.05333e-05 -1.10496e-05
4.05333e-05 -9.3247e-05 -1.62186e-07
-1.10496e-05 -1.62186e-07 -0.000222787
0.000372521 2.88801e-05 -1.87995e-05
2.88801e-05 -0.000223551 -6.50816e-07
-1.87995e-05 -6.50816e-07 -0.00030165
0.00104053 5.44502e-08 -5.21574e-08
5.44502e-08 -8.13608e-05 -4.28419e-08
-5.21574e-08 -4.28419e-08 -0.000208649
0.00187477 5.62041e-05 -7.03839e-08
5.62041e-05 6.81129e-05 1.83845e-07
-7.03839e-08 1.83845e-07 -2.20339e-05
0.00194888 0.000185145 -9.69574e-08
0.000185145 0.00010655 -2.65794e-08
-9.69574e-08 -2.65794e-08 -9.75928e-06
0.00207616 0.000139871 -1.19688e-07
0.000139871 5.9692e-05 2.36997e-08
-1.19688e-07 2.36997e-08 1.8531e-05
0.00199213 0.000330953 -5.18233e-07
0.000330953 0.000163472 -6.98655e-09
-5.18233e-07 -6.98655e-09 -9.18539e-06
0.00206812 0.000292193 -3.92379e-07
0.000292193 9.41194e-05 2.90323e-07
-3.92379e-07 2.90323e-07 -8.276e-06
0.00186219 -5.15678e-07 2.07082e-06
-5.15678e-07 6.71655e-05 1.245e-07
2.07082e-06 1.245e-07 -2.17355e-05
0.00204991 6.7615e-05 3.87991e-06
6.7615e-05 4.67773e-05 3.18493e-07
3.87991e-06 3.18493e-07 1.38991e-05
0.00203607 0.000211251 3.73235e-06
0.000211251 5.30513e-05 1.00362e-06
3.73235e-06 1.00362e-06 -1.20309e-05
0.00202362 0.000126557 5.6576e-06
0.000126557 6.59126e-06 7.90037e-07
5.6576e-06 7.90037e-07 -8.98551e-06
0.00216042 0.00038407 1.37961e-06
0.00038407 0.000178225 -7.48334e-07
1.37961e-06 -7.48334e-07 3.43063e-05
0.00210845 0.000307183 2.59908e-06
0.000307183 1.98944e-05 6.26587e-07
2.59908e-06 6.26587e-07 -2.70283e-05
0.00109692 -2.57555e-05 -1.18411e-05
-2.57555e-05 -4.99484e-05 6.99381e-07
-1.18411e-05 6.99381e-07 -0.000171504
0.00192979 -0.000123853 -2.83398e-05
-0.000123853 0.000457736 2.99072e-06
-2.83398e-05 2.99072e-06 0.000326306
0.00195854 -0.000116673 -2.26312e-06
-0.000116673 0.000130374 -3.77973e-07
-2.26312e-06 -3.77973e-07 3.04194e-05
0.00190705 -0.000262892 -3.1615e-06
-0.000262892 0.000135408 7.22952e-07
-3.1615e-06 7.22952e-07 -2.06263e-05
0.000561002 -0.000228333 -2.63986e-05
-0.000228333 -2.37657e-05 2.12432e-05
-2.63986e-05 2.12432e-05 -0.000147361
0.00084776 -0.000280609 -1.27539e-05
-0.000280609 5.46951e-05 8.89697e-06
-1.27539e-05 8.89697e-06 -0.000193816
0.00154336 -0.000523489 -8.90636e-06
-0.000523489 0.000232587 1.90938e-06
-8.90636e-06 1.90938e-06 -0.000121427
0.00194548 -0.000377272 -4.34926e-06
-0.000377272 0.000221398 1.24807e-06
-4.34926e-06 1.24807e-06 1.03812e-05
0.00208989 -0.000369575 1.49927e-07
-0.000369575 0.000148838 -6.48367e-07
1.49927e-07 -6.48367e-07 2.2286e-05
0.00207357 -0.000489095 -1.11175e-06
-0.000489095 0.000245077 -1.07756e-06
-1.11175e-06 -1.07756e-06 3.03624e-05
0.00228297 -0.000607381 -3.26548e-06
-0.000607381 0.000486265 -3.9333e-06
-3.26548e-06 -3.9333e-06 0.00017543
0.00193522 -0.000544657 5.82585e-07
-0.000544657 0.000158737 -2.14566e-06
5.82585e-07 -2.14566e-06 -6.88911e-05
0.000976083 -0.000226183 -5.88719e-06
-0.000226183 0.000266881 5.36189e-06
-5.88719e-06 5.36189e-06 1.59181e-05
0.000315069 -0.000167472 2.14533e-06
-0.000167472 -0.00016817 -8.62225e-07
2.14533e-06 -8.62225e-07 -0.000438598
0.000495236 -0.000180893 -3.76182e-07
-0.000180893 2.95519e-05 9.63229e-07
-3.76182e-07 9.63229e-07 -0.000195561
0.00186929 -5.33179e-05 8.35097e-07
-5.33179e-05 7.81472e-05 -7.30296e-08
8.35097e-07 -7.30296e-08 -1.80708e-05
0.0019323 -0.000195266 -2.15596e-06
-0.000195266 0.000120236 1.41543e-07
-2.15596e-06 1.41543e-07 -2.69715e-07
0.00204004 -0.000132004 2.23868e-06
-0.000132004 5.98097e-05 -3.33334e-07
2.23868e-06 -3.33334e-07 8.0614e-06
0.00201711 -0.000292534 -1.20463e-06
-0.000292534 8.31692e-05 4.96492e-07
-1.20463e-06 4.96492e-07 -1.79789e-05
0.000748371 -0.000253017 8.75546e-07
-0.000253017 7.88883e-05 -3.47885e-07
8.75546e-07 -3.47885e-07 -0.000166196
0.00145985 -0.000498971 -7.26414e-07
-0.000498971 0.000323977 -3.55734e-07
-7.26414e-07 -3.55734e-07 -3.80006e-05
0.00185919 -0.00066098 5.28228e-07
-0.00066098 0.000332047 1.05745e-06
5.28228e-07 1.05745e-06 -6.20516e-05
0.0019319 -0.00042923 -1.13404e-06
-0.00042923 0.000106739 1.0022e-06
-1.13404e-06 1.0022e-06 -7.04141e-05
0.00212972 -0.000392214 5.90157e-07
-0.000392214 0.000109192 -3.67724e-07
5.90157e-07 -3.67724e-07 2.3088e-05
0.00216044 -0.000623032 -2.21712e-07
-0.000623032 0.000358542 3.86247e-07
-2.21712e-07 3.86247e-07 6.25201e-05
0.00200717 -0.000512049 -3.59108e-07
-0.000512049 0.00015085 7.75769e-07
-3.59108e-07 7.75769e-07 -3.63711e-05
0.00223929 -0.000571231 5.31298e-07
-0.000571231 0.000360247 -5.1947e-07
5.31298e-07 -5.1947e-07 0.000144766
0.00103755 -0.000310732 -1.26312e-06
-0.000310732 0.000234399 7.47497e-07
-1.26312e-06 7.47497e-07 -4.77179e-05
0.00109269 -0.000342627 -1.39818e-06
-0.000342627 0.000276021 2.31503e-06
-1.39818e-06 2.31503e-06 -3.91842e-05
0.000676073 -0.000134486 4.8887e-08
-0.000134486 0.000158926 -7.76904e-07
4.8887e-08 -7.76904e-07 -3.77336e-05
0.000111646 -0.000129534 1.82904e-06
-0.000129534 -0.000203629 -1.89326e-06
1.82904e-06 -1.89326e-06 -0.000506002
0.00205922 -7.00338e-05 6.0934e-06
-7.00338e-05 7.48147e-05 -3.79201e-07
6.0934e-06 -3.79201e-07 3.2799e-05
0.00198107 -0.000215152 4.53331e-06
-0.000215152 2.17855e-05 -1.1539e-06
4.53331e-06 -1.1539e-06 -5.42687e-05
0.00202241 -0.000123665 6.71441e-06
-0.000123665 4.34788e-05 -9.60418e-07
6.71441e-06 -9.60418e-07 3.0093e-05
0.00208622 -0.000316001 1.48569e-06
-0.000316001 3.11935e-05 -6.51854e-07
1.48569e-06 -6.51854e-07 -6.42954e-06
0.00200718 -0.000460283 -2.5908e-07
-0.000460283 9.67294e-05 -5.63718e-07
-2.5908e-07 -5.63718e-07 -4.44117e-05
0.00214191 -0.000408535 3.7773e-06
-0.000408535 7.68254e-05 -1.45762e-06
3.7773e-06 -1.45762e-06 8.71139e-06
0.0013582 -0.000420444 6.53536e-06
-0.000420444 0.000384453 -5.55144e-06
6.53536e-06 -5.55144e-06 5.33589e-05
0.0020472 -0.000546698 -2.25926e-06
-0.000546698 0.000148772 -2.77028e-08
-2.25926e-06 -2.77028e-08 -1.60998e-05
0.00167706 -0.000672172 -6.93858e-06
-0.000672172 0.000386366 4.10338e-06
-6.93858e-06 4.10338e-06 -5.14898e-05
0.00209577 -0.000728987 5.27636e-06
-0.000728987 0.000418606 2.7246e-06
5.27636e-06 2.7246e-06 1.9157e-05
0.00211394 -0.000630969 2.50654e-06
-0.000630969 0.000288181 3.57605e-06
2.50654e-06 3.57605e-06 9.71674e-07
0.00229939 -0.000608041 -1.01163e-05
-0.000608041 0.000364378 -1.91735e-06
-1.01163e-05 -1.91735e-06 0.000137506
0.000487286 -0.000123047 -1.77853e-06
-0.000123047 3.27558e-05 -6.75725e-06
-1.77853e-06 -6.75725e-06 -0.000116644
-5.35558e-05 -0.000143851 -3.43364e-06
-0.000143851 -0.000207037 -1.49052e-06
-3.43364e-06 -1.49052e-06 -0.000535342
0.00133044 -0.000446199 -2.60184e-06
-0.000446199 0.000398342 -2.85534e-06
-2.60184e-06 -2.85534e-06 4.38306e-05
0.00277768 -0.000464036 -3.80393e-06
-0.000464036 0.00141802 1.11359e-05
-3.80393e-06 1.11359e-05 0.00107414
0.00163186 -0.000458923 -1.58312e-05
-0.000458923 0.000623465 9.79897e-06
-1.58312e-05 9.79897e-06 0.000244542
0.000291605 -3.42919e-05 -1.30852e-06
-3.42919e-05 -0.00011425 -1.05524e-05
-1.30852e-06 -1.05524e-05 -0.000164784
0.00195641 0.000390553 -3.45029e-06
0.000390553 0.000186946 -2.75846e-07
-3.45029e-06 -2.75846e-07 -2.12986e-05
0.000236881 4.61368e-05 -7.57972e-07
4.61368e-05 -0.000145456 -6.62244e-06
-7.57972e-07 -6.62244e-06 -0.000299414
0.000341741 0.000204157 -6.96469e-06
0.000204157 -0.000128863 2.66722e-07
-6.96469e-06 2.66722e-07 -0.000346039
0.000618452 0.000187381 -1.13331e-06
0.000187381 6.47108e-05 2.63225e-06
-1.13331e-06 2.63225e-06 -0.000184149
0.00181452 0.000486322 -4.99779e-06
0.000486322 0.000233484 2.29474e-07
-4.99779e-06 2.29474e-07 -4.77773e-05
0.00206597 0.000505768 1.14113e-06
0.000505768 0.000233531 1.95875e-06
1.14113e-06 1.95875e-06 5.30181e-06
0.0013928 0.000398775 -2.76509e-06
0.000398775 0.000405974 -3.38977e-06
-2.76509e-06 -3.38977e-06 9.66934e-05
0.00154002 0.000591734 7.80311e-07
0.000591734 0.000278815 4.20813e-06
7.80311e-07 4.20813e-06 -0.000122867
0.00205664 0.000602148 1.8496e-06
0.000602148 0.000386037 3.88051e-06
1.8496e-06 3.88051e-06 7.36455e-05
0.00201701 0.000608898 4.81085e-06
0.000608898 0.000357421 1.0983e-05
4.81085e-06 1.0983e-05 4.31267e-05
0.000452383 -1.35609e-05 -8.75952e-07
-1.35609e-05 -2.83652e-05 2.85846e-07
-8.75952e-07 2.85846e-07 -6.64718e-05
0.00058445 5.33982e-05 -4.67963e-08
5.33982e-05 7.44391e-05 4.223e-07
-4.67963e-08 4.223e-07 -4.86862e-05
0.000917031 0.000280909 1.31009e-06
0.000280909 0.000168328 1.72328e-06
1.31009e-06 1.72328e-06 -8.25784e-05
0.000625429 0.000127396 8.41411e-07
0.000127396 0.000153279 -1.46461e-06
8.41411e-07 -1.46461e-06 -0.000111542
0.000439262 0.000205474 -1.6449e-06
0.000205474 -0.000117446 3.50213e-06
-1.6449e-06 3.50213e-06 -0.000338655
0.00212724 0.00045263 -1.88587e-06
0.00045263 0.000196427 -1.95801e-06
-1.88587e-06 -1.95801e-06 1.13162e-05
0.00205205 0.00057023 5.3072e-07
0.00057023 0.000291205 1.61774e-07
5.3072e-07 1.61774e-07 1.63395e-05
0.00204254 0.000553516 1.6611e-06
0.000553516 0.000197108 1.43579e-07
1.6611e-06 1.43579e-07 -2.61139e-05
0.00149009 0.000545352 1.83032e-06
0.000545352 0.000427187 -3.54431e-07
1.83032e-06 -3.54431e-07 2.5355e-05
0.00224705 0.000671663 2.54547e-06
0.000671663 0.000420456 4.55376e-07
2.54547e-06 4.55376e-07 0.000108291
0.00200864 0.000680753 -3.74614e-06
0.000680753 0.000513681 3.89127e-08
-3.74614e-06 3.89127e-08 0.000119029
0.000669013 5.57202e-05 7.3934e-07
5.57202e-05 0.000126917 6.17627e-06
7.3934e-07 6.17627e-06 2.61626e-05
0.00169118 0.000199223 7.23291e-08
0.000199223 0.000838477 2.09997e-06
7.23291e-08 2.09997e-06 0.000614456
0.00103454 0.000389678 -8.79734e-07
0.000389678 0.000232621 5.63066e-06
-8.79734e-07 5.63066e-06 -7.49912e-05
0.00114426 0.000149472 5.83262e-06
0.000149472 0.000411385 -2.7277e-06
5.83262e-06 -2.7277e-06 0.000147742
0.00303585 0.000413265 -4.6408e-06
0.000413265 0.00141512 -2.28241e-07
-4.6408e-06 -2.28241e-07 0.00115609
0.00212683 0.000478326 -3.96384e-06
0.000478326 0.000166283 -2.15591e-06
-3.96384e-06 -2.15591e-06 -5.53014e-06
0.0020826 0.000623101 -2.33266e-06
0.000623101 0.000274552 -1.29551e-06
-2.33266e-06 -1.29551e-06 1.91168e-06
0.00199473 0.000604721 4.32412e-06
0.000604721 0.000125356 -4.27243e-07
4.32412e-06 -4.27243e-07 -0.000109276
0.00115316 0.000587375 1.10577e-05
0.000587375 0.00023568 -4.89629e-06
1.10577e-05 -4.89629e-06 -0.000202898
0.00165791 0.000669602 1.18147e-05
0.000669602 0.000187009 -2.0964e-06
1.18147e-05 -2.0964e-06 -0.000169651
0.000581243 4.54092e-05 -3.75828e-07
4.54092e-05 6.94319e-05 1.65039e-07
-3.75828e-07 1.65039e-07 -1.76988e-05
0.000339894 7.45516e-05 7.6758e-07
7.45516e-05 -6.18114e-05 3.28273e-06
7.6758e-07 3.28273e-06 -0.000190581
0.000285127 6.42676e-05 -2.10768e-07
6.42676e-05 -8.72955e-05 -3.84429e-07
-2.10768e-07 -3.84429e-07 -0.000210491
0.00114262 0.000175001 -2.06527e-06
0.000175001 0.000479235 -1.32782e-06
-2.06527e-06 -1.32782e-06 0.00031911
0.000737242 0.000126081 6.97795e-07
0.000126081 0.000221481 3.17157e-06
6.97795e-07 3.17157e-06 8.76912e-05
0.000540752 6.90736e-05 1.96871e-06
6.90736e-05 6.21513e-05 4.20161e-06
1.96871e-06 4.20161e-06 -1.392e-05
0.000521516 1.92844e-05 -7.67359e-07
1.92844e-05 4.50389e-05 -3.03047e-08
-7.67359e-07 -3.03047e-08 -3.2886e-05
0.00132358 -1.57361e-05 1.45202e-06
-1.57361e-05 0.000516084 4.11767e-06
1.45202e-06 4.11767e-06 0.000494504
0.000538104 3.3225e-05 -8.15047e-07
3.3225e-05 4.37007e-05 -5.40356e-06
-8.15047e-07 -5.40356e-06 -3.5034e-05
0.00138636 -2.45467e-05 -8.93724e-06
-2.45467e-05 0.000555595 -1.67154e-06
-8.93724e-06 -1.67154e-06 0.000532119
0.000773132 -3.34778e-05 3.58922e-05
-3.34778e-05 0.000164759 9.72883e-06
3.58922e-05 9.72883e-06 0.000166618
0.0014178 -3.09343e-05 -1.65001e-05
-3.09343e-05 0.000579344 -6.20155e-06
-1.65001e-05 -6.20155e-06 0.000552559
0.00179663 -7.60399e-05 3.62923e-05
-7.60399e-05 0.000824931 1.41268e-06
3.62923e-05 1.41268e-06 0.000824511
0.00286591 -0.000124517 -4.1957e-05
-0.000124517 0.0015145 -4.64292e-06
-4.1957e-05 -4.64292e-06 0.00151229
0.00029246 7.19491e-05 -5.82446e-06
7.19491e-05 -8.54622e-05 -9.77289e-06
-5.82446e-06 -9.77289e-06 -0.000145466
0.000408157 -5.37569e-05 -6.28458e-07
-5.37569e-05 -3.6877e-05 5.86832e-07
-6.28458e-07 5.86832e-07 -0.000106369
0.00374369 0.000190144 1.84586e-05
0.000190144 0.00210245 -7.50974e-06
1.84586e-05 -7.50974e-06 0.00207714
0.00478808 0.000136055 -1.66443e-05
0.000136055 0.0027686 -1.63613e-06
-1.66443e-05 -1.63613e-06 0.00275515
0.000533303 -0.000123032 -1.82567e-05
-0.000123032 1.59528e-05 1.41698e-05
-1.82567e-05 1.41698e-05 -7.20835e-05
0.00572374 0.000136292 -0.000193772
0.000136292 0.00336529 2.4843e-05
-0.000193772 2.4843e-05 0.0033469
0.0019731 0.000328644 -1.91997e-06
0.000328644 0.000154056 1.26237e-06
-1.91997e-06 1.26237e-06 -1.83306e-05
0.00190632 0.000183486 -8.11674e-07
0.000183486 8.37046e-05 1.05387e-06
-8.11674e-07 1.05387e-06 -3.28187e-05
0.00208827 0.000295316 -2.34746e-06
0.000295316 0.000108137 4.81912e-07
-2.34746e-06 4.81912e-07 4.4581e-06
0.002069 0.000136614 -4.27659e-06
0.000136614 4.53136e-05 -6.17901e-07
-4.27659e-06 -6.17901e-07 7.75285e-06
0.00189769 5.81693e-05 -1.83314e-06
5.81693e-05 8.73874e-05 4.12934e-07
-1.83314e-06 4.12934e-07 -2.75799e-06
0.00104719 4.83292e-06 -1.07586e-05
4.83292e-06 -7.70456e-05 1.28444e-07
-1.07586e-05 1.28444e-07 -0.000204236
0.0018689 2.60708e-06 9.18038e-08
2.60708e-06 7.21552e-05 1.49548e-07
9.18038e-08 1.49548e-07 -1.68142e-05
0.00204445 5.88066e-05 -6.85782e-07
5.88066e-05 4.59201e-05 -2.07294e-09
-6.85782e-07 -2.07294e-09 1.28989e-05
0.00207231 0.000212662 -8.23824e-08
0.000212662 7.23187e-05 2.61226e-07
-8.23824e-08 2.61226e-07 7.13771e-06
0.00202502 0.000126308 1.24069e-07
0.000126308 1.24485e-06 2.42316e-08
1.24069e-07 2.42316e-08 -9.23876e-06
0.0021204 0.000383869 -4.02252e-07
0.000383869 0.000146756 1.29159e-07
-4.02252e-07 1.29159e-07 2.75295e-06
0.00210021 0.000300171 1.70129e-07
0.000300171 1.6701e-05 1.24198e-07
1.70129e-07 1.24198e-07 -3.06286e-05
0.00203119 -5.83278e-06 4.88401e-06
-5.83278e-06 4.51144e-05 1.20904e-07
4.88401e-06 1.20904e-07 1.01155e-05
0.00203499 5.49414e-05 4.96233e-06
5.49414e-05 2.38505e-05 2.56281e-07
4.96233e-06 2.56281e-07 2.24744e-05
0.0020763 0.00020352 2.09472e-06
0.00020352 7.22142e-06 2.69188e-07
2.09472e-06 2.69188e-07 -1.11497e-05
0.00211392 0.000131321 1.43172e-06
0.000131321 -5.49837e-06 3.12565e-07
1.43172e-06 3.12565e-07 1.06508e-05
0.00206249 0.000380621 1.04204e-06
0.000380621 5.50997e-05 3.0672e-07
1.04204e-06 3.0672e-07 -5.5423e-05
0.00227601 0.000305908 2.19374e-06
0.000305908 5.17504e-05 5.65511e-07
2.19374e-06 5.65511e-07 4.10018e-05
0.00190712 -5.00542e-05 -2.08424e-06
-5.00542e-05 0.00010058 -2.1095e-07
-2.08424e-06 -2.1095e-07 8.49023e-06
0.0018837 -0.000199969 -3.28992e-06
-0.000199969 8.73358e-05 -1.65217e-07
-3.28992e-06 -1.65217e-07 -3.42423e-05
0.00204415 -0.000130174 -2.39716e-06
-0.000130174 5.61347e-05 2.09858e-07
-2.39716e-06 2.09858e-07 1.03973e-05
0.0019916 -0.000283614 -3.4901e-06
-0.000283614 7.35271e-05 8.14967e-07
-3.4901e-06 8.14967e-07 -2.98719e-05
0.000729192 -0.000253358 -1.00569e-05
-0.000253358 6.28258e-05 9.0568e-06
-1.00569e-05 9.0568e-06 -0.000184752
0.00141411 -0.000492521 -1.01296e-05
-0.000492521 0.000296377 2.39739e-06
-1.01296e-05 2.39739e-06 -6.27613e-05
0.00166547 -0.000638476 1.97658e-06
-0.000638476 0.000230876 -2.04181e-06
1.97658e-06 -2.04181e-06 -0.00016305
0.00189999 -0.000424609 -1.91537e-06
-0.000424609 9.30466e-05 4.52841e-07
-1.91537e-06 4.52841e-07 -9.00291e-05
0.00210236 -0.000394991 -1.64868e-06
-0.000394991 8.20316e-05 5.87853e-07
-1.64868e-06 5.87853e-07 2.29813e-07
0.00201451 -0.000511447 -9.61485e-07
-0.000511447 0.000153755 5.09067e-07
-9.61485e-07 5.09067e-07 -3.34839e-05
0.00203596 -0.000624271 -4.68427e-06
-0.000624271 0.000268271 -3.20849e-06
-4.68427e-06 -3.20849e-06 -3.08577e-05
0.00210545 -0.000557944 6.34256e-06
-0.000557944 0.000272837 -3.94476e-06
6.34256e-06 -3.94476e-06 6.20313e-05
0.000844047 -0.00029105 -5.05362e-07
-0.00029105 0.000122309 2.98057e-06
-5.05362e-07 2.98057e-06 -0.000163835
0.000979243 -0.000307541 4.13565e-06
-0.000307541 0.000173145 -7.9393e-07
4.13565e-06 -7.9393e-07 -0.000128598
0.000981209 -0.0001433 -1.21389e-07
-0.0001433 0.000344229 5.41717e-06
-1.21389e-07 5.41717e-06 0.000144933
-0.000381114 -8.23227e-05 1.39013e-06
-8.23227e-05 -0.000538936 -7.01995e-06
1.39013e-06 -7.01995e-06 -0.00081519
0.00206022 -6.99505e-05 -2.27223e-07
-6.99505e-05 7.55759e-05 8.05977e-08
-2.27223e-07 8.05977e-08 3.3645e-05
0.00201108 -0.000216319 2.80189e-06
-0.000216319 4.70968e-05 -8.02941e-07
2.80189e-06 -8.02941e-07 -3.01263e-05
0.00199346 -0.000122292 8.44176e-07
-0.000122292 2.00642e-05 -1.86824e-07
8.44176e-07 -1.86824e-07 7.80917e-06
0.0020904 -0.000315609 -6.37884e-07
-0.000315609 4.08935e-05 1.72479e-07
-6.37884e-07 1.72479e-07 -2.5421e-06
0.00122837 -0.000392814 -2.8943e-06
-0.000392814 0.00028623 8.19658e-08
-2.8943e-06 8.19658e-08 -3.38434e-05
0.00158317 -0.000650055 1.41857e-06
-0.000650055 0.000341663 -2.68613e-07
1.41857e-06 -2.68613e-07 -9.00863e-05
0.00202433 -0.000735663 -4.82269e-07
-0.000735663 0.00037262 4.15735e-07
-4.82269e-07 4.15735e-07 -3.36283e-05
0.00198525 -0.000454174 -1.26071e-06
-0.000454174 8.98786e-05 4.93353e-07
-1.26071e-06 4.93353e-07 -5.5504e-05
0.00210813 -0.000407516 1.03122e-06
-0.000407516 5.68517e-05 -2.91839e-07
1.03122e-06 -2.91839e-07 -7.18874e-06
0.00211284 -0.00063421 -4.07406e-07
-0.00063421 0.000312948 4.04157e-07
-4.07406e-07 4.04157e-07 2.36137e-05
0.00199975 -0.00054544 -9.03613e-07
-0.00054544 0.000112078 9.61569e-07
-9.03613e-07 9.61569e-07 -5.33732e-05
0.00219015 -0.000596175 3.71935e-06
-0.000596175 0.000289673 -4.43325e-06
3.71935e-06 -4.43325e-06 6.9445e-05
0.00144738 -0.00045865 -1.02616e-06
-0.00045865 0.000474988 -1.19742e-06
-1.02616e-06 -1.19742e-06 0.00011821
0.00141625 -0.000434635 -1.36079e-06
-0.000434635 0.00047041 1.55779e-06
-1.36079e-06 1.55779e-06 0.000102575
0.00100844 -0.000297514 1.72923e-06
-0.000297514 0.000292643 -6.94967e-07
1.72923e-06 -6.94967e-07 -2.39866e-05
0.000294883 -9.39933e-05 -2.45972e-06
-9.39933e-05 -8.98275e-05 1.04035e-06
-2.45972e-06 1.04035e-06 -0.000240293
-5.58922e-05 -0.000102379 -1.1354e-06
-0.000102379 -0.000232352 -1.26045e-06
-1.1354e-06 -1.26045e-06 -0.000539323
0.00197846 -6.91151e-05 4.37879e-06
-6.91151e-05 -8.90278e-06 -1.84637e-07
4.37879e-06 -1.84637e-07 -8.69111e-06
0.00202859 -0.000188987 3.20853e-06
-0.000188987 -4.55579e-06 -7.51705e-07
3.20853e-06 -7.51705e-07 -1.59917e-05
0.00215805 -0.000373532 5.88985e-07
-0.000373532 -1.18153e-06 -4.05048e-07
5.88985e-07 -4.05048e-07 -1.91455e-05
0.00212677 -0.000479763 1.49086e-06
-0.000479763 8.98793e-05 -1.92741e-06
1.49086e-06 -1.92741e-06 4.56754e-06
0.00142949 -0.000549092 -4.2389e-06
-0.000549092 0.000393548 3.40441e-07
-4.2389e-06 3.40441e-07 -1.40518e-05
0.00227605 -0.000657734 -7.56488e-06
-0.000657734 0.00018721 -5.22302e-06
-7.56488e-06 -5.22302e-06 -4.58741e-06
0.00135825 -0.000715207 -2.18675e-05
-0.000715207 0.000190385 7.93162e-06
-2.18675e-05 7.93162e-06 -0.000272251
0.00215662 -0.000798954 2.13561e-08
-0.000798954 0.0004162 9.00309e-07
2.13561e-08 9.00309e-07 -2.41929e-06
0.00197938 -0.000605079 -1.54732e-05
-0.000605079 0.000227901 7.50767e-07
-1.54732e-05 7.50767e-07 -4.56294e-05
8.09456e-05 -1.94243e-05 -2.7463e-06
-1.94243e-05 -0.000209536 -5.89586e-06
-2.7463e-06 -5.89586e-06 -0.000326567
0.000961777 -0.000168631 -3.50496e-06
-0.000168631 0.000425756 -1.21157e-06
-3.50496e-06 -1.21157e-06 0.000150135
0.000970764 -0.000245105 -1.4647e-06
-0.000245105 0.000386173 -3.79486e-06
-1.4647e-06 -3.79486e-06 7.51068e-05
0.00186073 -0.000568942 -1.66787e-05
-0.000568942 0.000720549 5.7911e-06
-1.66787e-05 5.7911e-06 0.000306188
0.00204404 -0.000387785 -3.29388e-06
-0.000387785 0.000889316 1.12946e-05
-3.29388e-06 1.12946e-05 0.00054853
0.000635696 -0.000396511 -1.86143e-05
-0.000396511 -5.42866e-05 1.79864e-05
-1.86143e-05 1.79864e-05 -0.00043003
0.000379926 -1.12837e-05 -2.57101e-06
-1.12837e-05 -7.31093e-05 -8.62921e-06
-2.57101e-06 -8.62921e-06 -0.000110615
0.000443653 3.96705e-05 -4.20739e-07
3.96705e-05 -8.90197e-06 -7.89952e-06
-4.20739e-07 -7.89952e-06 -0.000128785
0.00209941 0.000451003 -2.82659e-06
0.000451003 0.000179631 -4.34917e-07
-2.82659e-06 -4.34917e-07 -5.12699e-06
-0.000120535 4.22163e-05 2.60664e-07
4.22163e-05 -0.000321187 -9.17764e-07
2.60664e-07 -9.17764e-07 -0.000577551
0.00134655 0.000310839 2.14546e-07
0.000310839 0.000437207 -7.39427e-08
2.14546e-07 -7.39427e-08 0.000191444
5.19454e-05 0.000146318 -4.54193e-06
0.000146318 -0.000386909 1.56401e-06
-4.54193e-06 1.56401e-06 -0.000592131
0.00201107 0.000565191 2.07236e-06
0.000565191 0.000269672 1.94202e-06
2.07236e-06 1.94202e-06 -3.99793e-06
0.00198851 0.000550138 2.67738e-06
0.000550138 0.00016527 1.20181e-06
2.67738e-06 1.20181e-06 -5.7693e-05
0.0015461 0.000546896 -1.1635e-06
0.000546896 0.000471343 5.98984e-07
-1.1635e-06 5.98984e-07 6.6441e-05
0.00229603 0.000702853 -4.89689e-06
0.000702853 0.000701414 4.2895e-06
-4.89689e-06 4.2895e-06 0.000308208
0.00212821 0.000659497 1.63093e-06
0.000659497 0.000330931 3.23649e-06
1.63093e-06 3.23649e-06 1.8936e-05
0.000609414 5.03643e-05 -2.86232e-07
5.03643e-05 9.20612e-05 5.71295e-07
-2.86232e-07 5.71295e-07 -8.14194e-06
0.000761345 9.43857e-05 -1.30151e-06
9.43857e-05 0.000244073 -6.68716e-08
-1.30151e-06 -6.68716e-08 3.73201e-05
0.00118203 0.000410388 1.03479e-06
0.000410388 0.000310133 2.13987e-06
1.03479e-06 2.13987e-06 -4.00849e-06
0.000794212 0.000116565 1.48546e-06
0.000116565 0.000186468 -1.45517e-06
1.48546e-06 -1.45517e-06 -7.26459e-05
0.000829651 0.00023103 3.69254e-06
0.00023103 1.65602e-05 -2.21528e-06
3.69254e-06 -2.21528e-06 -0.000205632
0.00206023 0.000476133 -2.29354e-06
0.000476133 0.000131803 -1.40166e-06
-2.29354e-06 -1.40166e-06 -4.10002e-05
0.00212009 0.000626171 2.00965e-06
0.000626171 0.000293377 6.26484e-07
2.00965e-06 6.26484e-07 2.01331e-05
0.002047 0.000605129 1.16325e-06
0.000605129 0.000153011 2.13948e-07
1.16325e-06 2.13948e-07 -8.04909e-05
0.00140411 0.000628292 2.17427e-06
0.000628292 0.000371051 6.9734e-07
2.17427e-06 6.9734e-07 -7.22689e-05
0.00181281 0.000689652 -2.03211e-06
0.000689652 0.000298728 -2.04222e-06
-2.03211e-06 -2.04222e-06 -6.60372e-05
0.00125569 0.00014702 1.50181e-06
0.00014702 0.000538683 3.56402e-06
1.50181e-06 3.56402e-06 0.000375458
-0.0002738 1.58848e-05 -1.09168e-06
1.58848e-05 -0.000357748 8.03433e-07
-1.09168e-06 8.03433e-07 -0.00062556
0.00138482 0.00049231 -7.90712e-07
0.00049231 0.000434129 -3.66537e-06
-7.90712e-07 -3.66537e-06 6.25004e-05
-0.000154379 0.000154538 5.53676e-06
0.000154538 -0.000547579 -4.81842e-07
5.53676e-06 -4.81842e-07 -0.000773663
0.00245171 0.00055124 -1.47216e-06
0.00055124 0.000990333 -4.62424e-06
-1.47216e-06 -4.62424e-06 0.000673787
0.00204918 0.000521537 -1.45274e-07
0.000521537 3.18976e-05 -3.34334e-07
-1.45274e-07 -3.34334e-07 -0.000110329
0.00218516 0.000688992 9.23851e-06
0.000688992 0.000295027 -2.41585e-06
9.23851e-06 -2.41585e-06 -8.35076e-06
0.00212975 0.000641135 9.78926e-06
0.000641135 0.000163773 1.40752e-06
9.78926e-06 1.40752e-06 -8.85017e-05
0.00161021 0.000678909 1.24877e-05
0.000678909 0.000441286 -1.89469e-07
1.24877e-05 -1.89469e-07 -1.91201e-06
0.00212036 0.000795551 4.36072e-06
0.000795551 0.000497994 -7.10273e-07
4.36072e-06 -7.10273e-07 9.31985e-05
0.000548173 3.70056e-05 -1.3535e-06
3.70056e-05 4.69849e-05 -5.75581e-06
-1.3535e-06 -5.75581e-06 -3.86433e-05
0.00051925 8.84949e-05 1.23473e-06
8.84949e-05 5.56996e-05 1.82571e-07
1.23473e-06 1.82571e-07 -7.64749e-05
0.000235692 7.10733e-05 -3.5182e-07
7.10733e-05 -0.000126407 1.29358e-06
-3.5182e-07 1.29358e-06 -0.000246275
-2.07358e-05 -2.13423e-05 8.96438e-07
-2.13423e-05 -0.000274096 -3.92888e-06
8.96438e-07 -3.92888e-06 -0.000397545
0.000592264 7.07776e-05 -5.02358e-07
7.07776e-05 0.000129131 1.31568e-07
-5.02358e-07 1.31568e-07 -7.24311e-07
0.000500325 0.000100447 -7.37834e-08
0.000100447 6.26e-05 -1.05098e-07
-7.37834e-08 -1.05098e-07 -7.55829e-05
0.000689891 0.000145851 -2.74487e-06
0.000145851 0.000195356 -4.69291e-06
-2.74487e-06 -4.69291e-06 5.80462e-05
0.000287289 3.71731e-05 -2.48053e-06
3.71731e-05 -5.43281e-05 1.19779e-08
-2.48053e-06 1.19779e-08 -0.000202677
0.000680468 0.000103864 -1.66336e-08
0.000103864 0.000174 2.9183e-06
-1.66336e-08 2.9183e-06 5.71265e-05
0.000551797 7.60902e-05 2.84261e-06
7.60902e-05 7.1648e-05 4.06157e-06
2.84261e-06 4.06157e-06 -5.73304e-06
0.000512639 2.63569e-05 -2.66281e-06
2.63569e-05 4.2101e-05 5.34404e-08
-2.66281e-06 5.34404e-08 -3.23093e-05
0.00127899 -2.88135e-07 2.00107e-06
-2.88135e-07 0.000490959 3.59871e-06
2.00107e-06 3.59871e-06 0.000471552
0.000392723 -6.88094e-05 3.58007e-06
-6.88094e-05 -2.74901e-05 -4.64886e-06
3.58007e-06 -4.64886e-06 -0.0001096
0.00134629 -1.10668e-05 -7.74869e-06
-1.10668e-05 0.000529986 -1.71023e-06
-7.74869e-06 -1.71023e-06 0.000509783
0.000732056 -2.39249e-05 3.10635e-05
-2.39249e-05 0.000137428 9.62021e-06
3.10635e-05 9.62021e-06 0.000141629
0.0014043 -2.01737e-05 -1.43466e-05
-2.01737e-05 0.000566062 -7.91829e-06
-1.43466e-05 -7.91829e-06 0.000543686
0.000758644 -3.93375e-05 1.28692e-05
-3.93375e-05 0.000155617 3.5866e-06
1.28692e-05 3.5866e-06 0.000154822
0.00268506 -0.000118515 -1.10795e-06
-0.000118515 0.00139193 -3.13511e-06
-1.10795e-06 -3.13511e-06 0.00139031
0.000282147 6.49989e-05 -4.43502e-06
6.49989e-05 -0.00010263 -6.22167e-06
-4.43502e-06 -6.22167e-06 -0.000145933
0.000398577 5.57979e-06 -3.63959e-06
5.57979e-06 -3.61152e-05 2.9591e-07
-3.63959e-06 2.9591e-07 -8.8758e-05
0.00311941 0.000164061 -2.39107e-06
0.000164061 0.00170021 -7.26253e-06
-2.39107e-06 -7.26253e-06 0.00168427
0.000542151 -8.57743e-05 -1.26001e-05
-8.57743e-05 3.92709e-05 1.23267e-05
-1.26001e-05 1.23267e-05 -3.12917e-05
0.00406055 0.000142144 -3.64261e-05
0.000142144 0.00229558 -1.01185e-07
-3.64261e-05 -1.01185e-07 0.00228294
0.00505467 0.000107137 -0.000173538
0.000107137 0.00292982 2.00688e-05
-0.000173538 2.00688e-05 0.00292259
0.00207275 0.000383253 -2.33533e-06
0.000383253 0.000110622 1.10747e-06
-2.33533e-06 1.10747e-06 -3.3487e-05
0.00211534 0.000212911 -3.36326e-06
0.000212911 9.77893e-05 -4.14694e-07
-3.36326e-06 -4.14694e-07 3.28714e-05
0.00208987 0.000292552 -9.78346e-07
0.000292552 1.27997e-05 -4.28579e-08
-9.78346e-07 -4.28579e-08 -3.49116e-05
0.00202782 0.000126212 -2.08914e-06
0.000126212 -2.91223e-06 -3.45346e-07
-2.08914e-06 -3.45346e-07 -8.31662e-06
0.00203757 5.15321e-05 -5.58034e-06
5.15321e-05 4.41789e-05 -9.97174e-08
-5.58034e-06 -9.97174e-08 1.09157e-05
0.00187425 5.07465e-06 -2.00984e-06
5.07465e-06 7.52849e-05 2.31944e-07
-2.00984e-06 2.31944e-07 -1.37137e-05
0.00204147 -6.8463e-06 -1.06591e-07
-6.8463e-06 5.64224e-05 2.00328e-08
-1.06591e-07 2.00328e-08 1.99145e-05
0.0020342 5.56246e-05 1.25354e-06
5.56246e-05 2.66394e-05 3.62777e-08
1.25354e-06 3.62777e-08 2.16468e-05
0.00208698 0.000201329 -1.60395e-07
0.000201329 1.79504e-05 -3.99353e-08
-1.60395e-07 -3.99353e-08 1.25917e-06
0.00209824 0.000132485 6.26991e-07
0.000132485 -2.04366e-05 1.7582e-07
6.26991e-07 1.7582e-07 2.21838e-06
0.002093 0.00038196 -4.92015e-07
0.00038196 8.4036e-05 2.77623e-07
-4.92015e-07 2.77623e-07 -2.87371e-05
0.00220792 0.00030609 2.70975e-06
0.00030609 7.7254e-06 3.63416e-07
2.70975e-06 3.63416e-07 3.79456e-06
0.00198733 -1.29736e-05 4.15772e-06
-1.29736e-05 3.43972e-06 2.51416e-07
4.15772e-06 2.51416e-07 -3.66465e-06
0.00210827 6.3247e-05 -9.44566e-08
6.3247e-05 -1.9377e-05 1.88694e-08
-9.44566e-08 1.88694e-08 1.31576e-05
0.00217652 0.000203109 -8.90596e-07
0.000203109 -1.50663e-05 -3.11524e-07
-8.90596e-07 -3.11524e-07 5.5309e-06
0.00223931 0.000418719 -7.54822e-07
0.000418719 3.10251e-05 5.23926e-07
-7.54822e-07 5.23926e-07 -2.70078e-07
0.00206201 -7.00072e-05 -6.33596e-06
-7.00072e-05 7.63941e-05 5.00761e-07
-6.33596e-06 5.00761e-07 3.45237e-05
0.00204189 -0.000218271 -1.44751e-06
-0.000218271 7.3467e-05 1.41084e-07
-1.44751e-06 1.41084e-07 -5.01911e-06
0.00196345 -0.000121222 -4.89359e-06
-0.000121222 -3.89484e-06 8.60745e-07
-4.89359e-06 8.60745e-07 -1.51752e-05
0.0021009 -0.000315651 -5.32752e-06
-0.000315651 5.28763e-05 1.17048e-06
-5.32752e-06 1.17048e-06 3.75798e-06
0.000994192 -0.000376161 -6.93217e-06
-0.000376161 0.000129316 3.01114e-06
-6.93217e-06 3.01114e-06 -0.000188978
0.00156072 -0.0006375 1.31692e-05
-0.0006375 0.000335313 -4.24155e-06
1.31692e-05 -4.24155e-06 -9.22642e-05
0.00202996 -0.000750759 -2.75401e-06
-0.000750759 0.000372861 -2.5003e-06
-2.75401e-06 -2.5003e-06 -4.22271e-05
0.00197275 -0.000448966 -3.5497e-06
-0.000448966 8.84244e-05 1.3143e-06
-3.5497e-06 1.3143e-06 -6.09337e-05
0.00207677 -0.000407071 -3.62939e-07
-0.000407071 3.83818e-05 1.25642e-06
-3.62939e-07 1.25642e-06 -2.13129e-05
0.00196901 -0.000546388 2.89176e-08
-0.000546388 8.30644e-05 1.94948e-06
2.89176e-08 1.94948e-06 -8.32517e-05
0.00206185 -0.000620549 -2.6817e-06
-0.000620549 0.00030233 -2.27961e-06
-2.6817e-06 -2.27961e-06 1.6589e-05
0.00216371 -0.000586549 1.49023e-05
-0.000586549 0.000260527 -6.08452e-06
1.49023e-05 -6.08452e-06 4.67288e-05
0.000943761 -0.00039749 3.0289e-07
-0.00039749 0.000161236 5.42268e-07
3.0289e-07 5.42268e-07 -0.000179788
0.00135758 -0.000434495 1.75617e-05
-0.000434495 0.000412652 -8.36235e-06
1.75617e-05 -8.36235e-06 5.10459e-05
3.6044e-05 -0.000159984 8.65854e-07
-0.000159984 -0.000311786 -1.25943e-05
8.65854e-07 -1.25943e-05 -0.00061599
0.000103401 -8.39985e-05 4.6108e-07
-8.39985e-05 -0.000211214 5.2878e-06
4.6108e-07 5.2878e-06 -0.000363381
0.000221693 -7.59517e-05 4.94991e-06
-7.59517e-05 -7.2639e-05 3.30876e-07
4.94991e-06 3.30876e-07 -0.000367428
0.00196609 -7.75375e-05 1.04794e-07
-7.75375e-05 -1.88232e-05 -1.695e-07
1.04794e-07 -1.695e-07 -1.97382e-05
0.00206374 -0.000190478 1.44812e-06
-0.000190478 1.3816e-05 -9.29161e-09
1.44812e-06 -9.29161e-09 2.3679e-06
0.0021629 -0.00036711 -6.53835e-07
-0.00036711 1.87022e-05 6.43436e-08
-6.53835e-07 6.43436e-08 -4.38646e-06
0.00150114 -0.000556981 -1.25771e-06
-0.000556981 0.00043756 -6.92215e-07
-1.25771e-06 -6.92215e-07 2.92727e-05
0.00152398 -0.000716072 3.71778e-06
-0.000716072 0.000289698 -8.41299e-07
3.71778e-06 -8.41299e-07 -0.00016997
0.00216835 -0.000808276 -2.80233e-07
-0.000808276 0.000429816 -3.37657e-07
-2.80233e-07 -3.37657e-07 4.45281e-06
0.00210906 -0.000475977 4.16338e-07
-0.000475977 8.26143e-05 1.0423e-07
4.16338e-07 1.0423e-07 -5.25485e-06
0.00215526 -0.000641438 2.4531e-06
-0.000641438 0.00030512 -3.8734e-06
2.4531e-06 -3.8734e-06 2.76512e-05
0.00220157 -0.000636385 -1.4908e-06
-0.000636385 0.000175441 -2.80907e-07
-1.4908e-06 -2.80907e-07 -1.07286e-05
3.63372e-05 4.39577e-05 -1.94825e-06
4.39577e-05 -0.000248669 -9.20058e-07
-1.94825e-06 -9.20058e-07 -0.000354464
0.00134727 -0.000502355 2.61648e-08
-0.000502355 0.000398283 -2.00442e-06
2.61648e-08 -2.00442e-06 2.93479e-06
0.00147549 -0.000497709 -3.92243e-06
-0.000497709 0.000490079 1.79528e-06
-3.92243e-06 1.79528e-06 8.47352e-05
0.00161373 -0.000369565 -1.02186e-06
-0.000369565 0.000654016 2.56805e-06
-1.02186e-06 2.56805e-06 0.000295606
0.00127442 -0.000281192 1.67816e-06
-0.000281192 0.000570467 -2.21019e-06
1.67816e-06 -2.21019e-06 0.000253572
0.000412395 -8.95727e-05 -9.61039e-07
-8.95727e-05 6.83496e-05 1.3476e-06
-9.61039e-07 1.3476e-06 -0.000192875
0.0020674 -0.000100057 1.13519e-06
-0.000100057 -2.74309e-05 1.75402e-07
1.13519e-06 1.75402e-07 -3.56505e-06
0.00223018 -0.000256085 1.25832e-07
-0.000256085 -2.50083e-05 1.34696e-07
1.25832e-07 1.34696e-07 1.43308e-05
0.0022394 -0.000452259 5.54318e-07
-0.000452259 1.65568e-05 -4.70312e-07
5.54318e-07 -4.70312e-07 1.2723e-05
0.00227434 -0.000570429 7.70996e-07
-0.000570429 7.89926e-05 -2.90882e-06
7.70996e-07 -2.90882e-06 1.23583e-05
0.00170277 -0.000657215 -1.53829e-05
-0.000657215 0.000520292 6.43591e-06
-1.53829e-05 6.43591e-06 7.30395e-05
0.00245545 -0.000750598 -9.47742e-06
-0.000750598 0.00037784 -7.22822e-06
-9.47742e-06 -7.22822e-06 0.000119335
0.00194288 -0.000842645 -4.74476e-05
-0.000842645 0.000514709 7.08111e-06
-4.74476e-05 7.08111e-06 1.06959e-05
0.00233313 -0.000868092 -2.91117e-05
-0.000868092 0.000545138 9.70386e-07
-2.91117e-05 9.70386e-07 9.90205e-05
-7.94786e-05 5.13695e-05 -6.29153e-06
5.13695e-05 -0.000324551 -2.76619e-06
-6.29153e-06 -2.76619e-06 -0.000404432
0.000933422 -3.37317e-06 -3.60947e-06
-3.37317e-06 0.000378848 -1.99139e-07
-3.60947e-06 -1.99139e-07 0.000188812
0.00192818 -0.000297283 -6.57185e-06
-0.000297283 0.00103938 -3.3833e-07
-6.57185e-06 -3.3833e-07 0.000730749
0.000714397 -0.000173478 -9.99797e-08
-0.000173478 0.000166157 -5.79473e-06
-9.99797e-08 -5.79473e-06 -0.000153956
0.0028243 -0.00071361 -2.59579e-05
-0.00071361 0.00128486 1.44832e-05
-2.59579e-05 1.44832e-05 0.000828184
0.00167418 -0.000497917 -4.59753e-06
-0.000497917 0.000663549 2.20123e-05
-4.59753e-06 2.20123e-05 0.000215221
0.000533537 3.59911e-05 -1.04262e-06
3.59911e-05 4.56444e-05 -6.2735e-06
-1.04262e-06 -6.2735e-06 -5.33079e-05
-0.000312656 2.7605e-05 8.73489e-07
2.7605e-05 -0.000436168 -9.75754e-07
8.73489e-07 -9.75754e-07 -0.000627222
0.00199081 0.000474291 -1.69491e-06
0.000474291 9.40037e-05 -8.13966e-07
-1.69491e-06 -8.13966e-07 -7.99261e-05
0.000315941 8.12455e-05 -2.19338e-06
8.12455e-05 -0.000120497 2.82169e-06
-2.19338e-06 2.82169e-06 -0.000372339
0.00135445 0.000434791 -1.67725e-06
0.000434791 0.000402069 -5.3588e-06
-1.67725e-06 -5.3588e-06 8.12939e-05
-0.00123445 3.74357e-05 -5.51113e-06
3.74357e-05 -0.00128456 -1.63853e-06
-5.51113e-06 -1.63853e-06 -0.00145642
0.00215635 0.000629525 3.2648e-06
0.000629525 0.000310121 1.89545e-06
3.2648e-06 1.89545e-06 3.61598e-05
0.00207627 0.000603158 -6.11176e-06
0.000603158 0.000166079 3.20191e-07
-6.11176e-06 3.20191e-07 -6.59521e-05
0.0017734 0.000682888 -5.58924e-06
0.000682888 0.000579696 4.49941e-06
-5.58924e-06 4.49941e-06 0.000127569
0.00204241 0.000717901 -7.47085e-06
0.000717901 0.000458161 1.3284e-06
-7.47085e-06 1.3284e-06 8.22079e-05
0.000815807 0.000108923 -5.52719e-07
0.000108923 0.000251126 3.51147e-08
-5.52719e-07 3.51147e-08 0.000101317
0.000498775 9.81731e-05 1.64878e-06
9.81731e-05 0.000121616 -2.78246e-07
1.64878e-06 -2.78246e-07 -0.000160783
0.0012889 0.000475011 -3.5138e-06
0.000475011 0.000370784 -1.2087e-06
-3.5138e-06 -1.2087e-06 5.00688e-06
0.00070068 0.000186161 3.21966e-07
0.000186161 -2.68187e-05 -6.83683e-07
3.21966e-07 -6.83683e-07 -0.000252537
0.00192001 0.000448674 2.513e-06
0.000448674 0.000636746 -2.23266e-06
2.513e-06 -2.23266e-06 0.000350111
0.00220658 0.00053724 -2.50014e-06
0.00053724 0.000114628 -8.34132e-07
-2.50014e-06 -8.34132e-07 -2.87444e-05
0.00233059 0.000689309 2.82961e-06
0.000689309 0.000388702 -5.84491e-07
2.82961e-06 -5.84491e-07 9.20496e-05
0.00231199 0.000664622 1.91305e-06
0.000664622 0.000267397 2.74717e-06
1.91305e-06 2.74717e-06 1.13434e-05
0.00155661 0.00067706 4.06087e-06
0.00067706 0.000411101 1.15031e-06
4.06087e-06 1.15031e-06 -3.51447e-05
0.00197698 0.000805399 -4.85108e-06
0.000805399 0.000415752 3.71117e-07
-4.85108e-06 3.71117e-07 -1.8062e-06
-0.00101234 9.63889e-06 -4.20503e-06
9.63889e-06 -0.000880583 6.74876e-06
-4.20503e-06 6.74876e-06 -0.001025
-0.000727087 0.000226919 1.14224e-06
0.000226919 -0.000575939 1.16984e-06
1.14224e-06 1.16984e-06 -0.000906324
0.00150315 0.000536392 4.7079e-06
0.000536392 0.000458919 -3.09141e-06
4.7079e-06 -3.09141e-06 7.60367e-05
0.000350225 0.000260927 3.23428e-06
0.000260927 -0.000349737 -2.91772e-06
3.23428e-06 -2.91772e-06 -0.000586972
0.0024548 0.000542485 5.05792e-06
0.000542485 -3.77072e-05 2.10236e-06
5.05792e-06 2.10236e-06 -1.30312e-05
0.00269135 0.000665813 8.65725e-06
0.000665813 0.000420167 1.19891e-06
8.65725e-06 1.19891e-06 0.000215812
0.00224958 0.00079366 7.87005e-06
0.00079366 0.000357054 -3.59078e-06
7.87005e-06 -3.59078e-06 -1.39548e-05
0.0016828 0.000782373 2.23712e-06
0.000782373 0.000349157 -1.01976e-06
2.23712e-06 -1.01976e-06 -0.000122778
0.00083409 0.000134359 -5.75339e-07
0.000134359 0.000265732 -2.95786e-06
-5.75339e-07 -2.95786e-06 0.00012244
0.000501514 0.000126006 -1.53009e-06
0.000126006 5.64025e-05 -9.13249e-07
-1.53009e-06 -9.13249e-07 -7.73559e-05
0.00136936 0.000122117 -8.8711e-06
0.000122117 0.000605543 -4.12586e-06
-8.8711e-06 -4.12586e-06 0.000500341
0.000492701 4.73944e-05 -7.79816e-08
4.73944e-05 4.10842e-05 -3.34634e-06
-7.79816e-08 -3.34634e-06 -7.01957e-05
-0.000216979 4.3247e-05 3.62823e-07
4.3247e-05 -0.000382979 -1.43963e-06
3.62823e-07 -1.43963e-06 -0.000509673
0.00060721 5.51712e-05 -7.70022e-07
5.51712e-05 0.000129771 2.22103e-07
-7.70022e-07 2.22103e-07 1.2279e-05
0.000491295 0.000139896 5.94375e-07
0.000139896 9.0839e-05 9.5819e-07
5.94375e-07 9.5819e-07 -4.52625e-05
0.000480836 6.53293e-05 8.34026e-07
6.53293e-05 7.98829e-05 1.92202e-07
8.34026e-07 1.92202e-07 -7.91364e-05
0.00066121 0.000121551 5.18268e-06
0.000121551 0.000135207 -3.2274e-06
5.18268e-06 -3.2274e-06 5.04677e-05
0.000709972 2.66402e-05 2.92545e-06
2.66402e-05 0.000217718 -4.80731e-06
2.92545e-06 -4.80731e-06 6.63291e-05
0.000157135 6.90044e-05 -4.23563e-07
6.90044e-05 -0.000131005 2.50897e-06
-4.23563e-07 2.50897e-06 -0.000280107
0.000671656 0.000115917 2.03181e-06
0.000115917 0.000169768 4.04987e-06
2.03181e-06 4.04987e-06 4.92435e-05
0.000458044 8.10772e-05 2.8555e-06
8.10772e-05 1.9065e-05 3.97185e-06
2.8555e-06 3.97185e-06 -6.44976e-05
0.000448464 1.75416e-05 -1.55551e-06
1.75416e-05 4.31894e-06 -3.39e-07
-1.55551e-06 -3.39e-07 -7.09048e-05
0.00123795 8.0844e-06 1.13798e-06
8.0844e-06 0.000470786 3.14305e-06
1.13798e-06 3.14305e-06 0.000451769
0.000436629 -4.229e-05 7.92415e-07
-4.229e-05 -8.14926e-06 -3.56863e-06
7.92415e-07 -3.56863e-06 -8.04514e-05
0.00132544 -4.67448e-06 -7.38499e-06
-4.67448e-06 0.000520034 -1.72043e-06
-7.38499e-06 -1.72043e-06 0.000501519
0.000724767 -1.42282e-05 2.83971e-05
-1.42282e-05 0.000135253 9.44086e-06
2.83971e-05 9.44086e-06 0.000140468
0.00136838 -1.81997e-05 -1.10102e-05
-1.81997e-05 0.000544031 -7.28976e-06
-1.10102e-05 -7.28976e-06 0.000524529
0.000743937 -2.86052e-05 1.11523e-05
-2.86052e-05 0.000143382 3.59978e-06
1.11523e-05 3.59978e-06 0.000145719
0.000737383 -4.1342e-05 6.40386e-07
-4.1342e-05 0.00014194 -3.49938e-06
6.40386e-07 -3.49938e-06 0.000139973
0.000374443 4.53588e-05 -1.92175e-06
4.53588e-05 -6.74509e-05 -4.27864e-06
-1.92175e-06 -4.27864e-06 -9.55566e-05
0.000390341 7.08567e-05 -5.53346e-07
7.08567e-05 -3.34642e-05 3.13192e-07
-5.53346e-07 3.13192e-07 -7.88285e-05
0.00262597 0.000124865 4.61512e-06
0.000124865 0.00137571 -5.61019e-06
4.61512e-06 -5.61019e-06 0.00137067
0.000488372 4.78303e-06 -6.46231e-06
4.78303e-06 2.16976e-05 1.0526e-05
-6.46231e-06 1.0526e-05 -3.35295e-05
0.0032592 0.000161468 -2.06883e-05
0.000161468 0.00178656 -2.14021e-06
-2.06883e-05 -2.14021e-06 0.00177091
0.00423895 8.42308e-05 -0.000142779
8.42308e-05 0.00240284 1.47668e-05
-0.000142779 1.47668e-05 0.00240392
0.00211968 0.000382881 -8.54469e-07
0.000382881 0.0001113 3.63526e-07
-8.54469e-07 3.63526e-07 -3.65282e-06
0.00210237 0.000199916 -3.99005e-06
0.000199916 3.06553e-05 -6.42477e-07
-3.99005e-06 -6.42477e-07 1.55656e-05
0.00213425 0.000305903 7.23235e-07
0.000305903 -4.02015e-05 5.93868e-07
7.23235e-07 5.93868e-07 -3.73412e-05
0.00207836 0.000133775 4.67926e-07
0.000133775 -3.877e-05 -3.84783e-08
4.67926e-07 -3.84783e-08 -9.39113e-06
0.00203298 5.64977e-05 -3.97568e-06
5.64977e-05 2.89058e-05 -3.56188e-07
-3.97568e-06 -3.56188e-07 2.0378e-05
0.00205597 -9.80544e-06 -7.06552e-06
-9.80544e-06 7.05261e-05 6.20207e-08
-7.06552e-06 6.20207e-08 3.26108e-05
0.00199974 -1.12861e-05 1.27382e-07
-1.12861e-05 1.25143e-05 -2.7818e-08
1.27382e-07 -2.7818e-08 6.20256e-06
0.00209212 6.60056e-05 1.13153e-06
6.60056e-05 -2.52494e-05 1.26839e-07
1.13153e-06 1.26839e-07 5.34159e-06
0.00217224 0.000209856 1.10015e-06
0.000209856 -1.89377e-05 2.14618e-07
1.10015e-06 2.14618e-07 5.1149e-06
0.002237 0.000407382 5.53762e-07
0.000407382 2.27651e-05 1.52123e-07
5.53762e-07 1.52123e-07 -7.07297e-06
0.00206001 -1.66647e-05 -5.87138e-07
-1.66647e-05 -3.4579e-05 1.01123e-07
-5.87138e-07 1.01123e-07 -1.01616e-05
0.00222106 0.000117518 -2.28807e-06
0.000117518 -6.05028e-05 -4.67937e-07
-2.28807e-06 -4.67937e-07 1.10207e-05
0.00240249 0.00031805 1.21647e-06
0.00031805 -7.42822e-07 -2.25548e-07
1.21647e-06 -2.25548e-07 4.26819e-05
0.00195383 -8.58412e-05 -3.99378e-06
-8.58412e-05 -2.87365e-05 1.90243e-07
-3.99378e-06 1.90243e-07 -3.06707e-05
0.00209943 -0.000191417 -3.35938e-06
-0.000191417 3.32903e-05 5.73831e-07
-3.35938e-06 5.73831e-07 2.18229e-05
0.00216305 -0.000360088 -2.0671e-06
-0.000360088 3.64288e-05 5.71872e-07
-2.0671e-06 5.71872e-07 7.48535e-06
0.00163141 -0.000572542 2.76119e-06
-0.000572542 0.000514887 -1.14987e-06
2.76119e-06 -1.14987e-06 0.000104382
0.00153415 -0.000692505 2.46427e-05
-0.000692505 0.000301529 -7.8812e-06
2.46427e-05 -7.8812e-06 -0.000147547
0.00197791 -0.00079539 1.41214e-06
-0.00079539 0.000332007 1.9972e-07
1.41214e-06 1.9972e-07 -9.40414e-05
0.00209169 -0.000472124 -1.50146e-06
-0.000472124 7.51423e-05 1.58475e-06
-1.50146e-06 1.58475e-06 -1.53015e-05
0.00213981 -0.00061583 8.69031e-06
-0.00061583 0.000170643 3.1359e-06
8.69031e-06 3.1359e-06 -8.30834e-06
0.00224899 -0.00067546 1.51906e-05
-0.00067546 0.000337721 -6.80169e-06
1.51906e-05 -6.80169e-06 5.625e-05
0.00102503 -0.000455269 9.06452e-06
-0.000455269 0.000197165 -6.80885e-06
9.06452e-06 -6.80885e-06 -0.000185391
0.00164896 -0.000535628 2.07577e-05
-0.000535628 0.000612431 -1.76895e-05
2.07577e-05 -1.76895e-05 0.000199928
0.00099724 -0.000377178 -1.49697e-06
-0.000377178 0.000299298 -1.10077e-05
-1.49697e-06 -1.10077e-05 -7.52548e-05
0.00021871 3.91602e-05 4.18009e-06
3.91602e-05 -0.00013774 1.96961e-06
4.18009e-06 1.96961e-06 -0.000239069
0.00182469 -0.000308672 2.95198e-06
-0.000308672 0.000880641 4.27852e-06
2.95198e-06 4.27852e-06 0.000573974
-0.0003248 3.69124e-06 6.90528e-06
3.69124e-06 -0.000406585 2.83682e-07
6.90528e-06 2.83682e-07 -0.000652489
0.00208316 -9.74581e-05 -5.69575e-07
-9.74581e-05 -1.76862e-05 1.40283e-07
-5.69575e-07 1.40283e-07 4.18569e-06
0.00219984 -0.00026424 9.84447e-08
-0.00026424 -4.74062e-05 -1.16685e-07
9.84447e-08 -1.16685e-07 -6.29313e-06
0.00222705 -0.000444139 -6.61643e-07
-0.000444139 1.45514e-05 3.40702e-07
-6.61643e-07 3.40702e-07 8.11939e-06
0.00174725 -0.00065927 -7.1901e-07
-0.00065927 0.000565991 8.66397e-07
-7.1901e-07 8.66397e-07 0.000118216
0.00134047 -0.000761423 5.98617e-06
-0.000761423 0.000167265 -2.25666e-06
5.98617e-06 -2.25666e-06 -0.000315941
0.00243847 -0.000858047 -3.70564e-06
-0.000858047 0.000606305 -3.32142e-07
-3.70564e-06 -3.32142e-07 0.000176031
0.00224095 -0.000579132 2.68498e-07
-0.000579132 6.13883e-05 -4.51376e-07
2.68498e-07 -4.51376e-07 -1.32567e-05
0.00199422 -0.000693694 2.46552e-06
-0.000693694 0.000128545 -9.62442e-07
2.46552e-06 -9.62442e-07 -0.000112882
0.000236281 6.04476e-05 -1.84447e-06
6.04476e-05 -0.000127352 -1.35941e-06
-1.84447e-06 -1.35941e-06 -0.000203768
0.000649811 -3.59023e-05 -8.98562e-07
-3.59023e-05 0.000189676 9.76448e-07
-8.98562e-07 9.76448e-07 9.01348e-06
0.000951267 -0.000501198 -3.13924e-06
-0.000501198 0.000126096 2.12148e-06
-3.13924e-06 2.12148e-06 -0.000272595
0.00137838 -0.000438852 -5.7357e-06
-0.000438852 0.000490095 1.13521e-06
-5.7357e-06 1.13521e-06 4.8226e-05
0.00162616 -0.000239367 -7.3721e-07
-0.000239367 0.000724415 -1.43764e-06
-7.3721e-07 -1.43764e-06 0.000396459
0.00104632 -0.000211643 -4.21812e-07
-0.000211643 0.000474106 1.75833e-06
-4.21812e-07 1.75833e-06 0.000177641
0.00219256 -0.000135368 -1.91795e-06
-0.000135368 -6.05175e-05 1.09951e-06
-1.91795e-06 1.09951e-06 1.11373e-05
0.00234278 -0.000379849 -2.02949e-06
-0.000379849 -8.75828e-05 9.29995e-07
-2.02949e-06 9.29995e-07 7.09319e-06
0.00232273 -0.000545064 2.35901e-06
-0.000545064 1.66194e-05 -1.06209e-06
2.35901e-06 -1.06209e-06 1.65315e-05
0.00239197 -0.000743744 6.25769e-06
-0.000743744 0.000164093 -4.42633e-06
6.25769e-06 -4.42633e-06 1.00957e-05
0.000992169 -0.000609596 -1.23719e-05
-0.000609596 9.65834e-05 -7.42325e-06
-1.23719e-05 -7.42325e-06 -0.000347083
0.0027894 -0.000944724 -7.65052e-06
-0.000944724 0.000716657 -4.76382e-07
-7.65052e-06 -4.76382e-07 0.000312463
0.00240049 -0.000972136 -5.28144e-05
-0.000972136 0.000710646 -2.66716e-06
-5.28144e-05 -2.66716e-06 0.000159206
0.000544864 4.49006e-05 -2.33822e-07
4.49006e-05 4.95783e-05 1.55712e-08
-2.33822e-07 1.55712e-08 -7.86331e-06
0.000714235 -0.000150528 3.79213e-06
-0.000150528 0.000220162 -9.73371e-07
3.79213e-06 -9.73371e-07 0.000101659
0.000312332 8.81812e-05 -8.75656e-06
8.81812e-05 -3.02795e-05 -3.15985e-08
-8.75656e-06 -3.15985e-08 -0.000154756
0.000878555 -7.30579e-05 -4.67487e-06
-7.30579e-05 0.000359253 2.96937e-06
-4.67487e-06 2.96937e-06 0.000124084
-0.00020024 -0.000156972 2.25065e-06
-0.000156972 -0.000357706 -8.47482e-06
2.25065e-06 -8.47482e-06 -0.000639533
0.000214878 -0.000180414 6.57182e-06
-0.000180414 -9.71521e-05 -1.92668e-06
6.57182e-06 -1.92668e-06 -0.000509621
0.00119486 -0.00056173 -4.22778e-05
-0.00056173 0.000301559 2.83393e-05
-4.22778e-05 2.83393e-05 -9.89264e-05
0.0030589 -0.000570514 -3.35597e-05
-0.000570514 0.00171598 2.02041e-05
-3.35597e-05 2.02041e-05 0.00103156
0.000291647 5.67363e-05 -2.25737e-07
5.67363e-05 -9.63662e-05 -2.05213e-06
-2.25737e-07 -2.05213e-06 -0.000227093
0.0011154 0.000246654 -8.25745e-07
0.000246654 0.00048735 3.07083e-07
-8.25745e-07 3.07083e-07 0.000198341
0.00236414 0.000553347 -2.46923e-06
0.000553347 0.000197749 -1.40035e-06
-2.46923e-06 -1.40035e-06 5.29097e-05
0.000407407 0.000198555 -3.98812e-06
0.000198555 -0.000193402 1.04898e-06
-3.98812e-06 1.04898e-06 -0.000444811
0.00117575 0.000456857 -2.11765e-06
0.000456857 0.000297026 2.01299e-07
-2.11765e-06 2.01299e-07 -6.45898e-05
0.00178281 0.000392147 -4.96439e-06
0.000392147 0.000530346 -1.61993e-06
-4.96439e-06 -1.61993e-06 0.000261684
0.00245536 0.00068549 -7.3278e-06
0.00068549 0.000471743 -1.23863e-07
-7.3278e-06 -1.23863e-07 0.000183252
0.00247873 0.000686686 -1.10618e-05
0.000686686 0.000362701 5.09537e-06
-1.10618e-05 5.09537e-06 0.000103438
0.00161189 0.000692174 -5.20996e-06
0.000692174 0.000441756 1.74391e-06
-5.20996e-06 1.74391e-06 -9.89093e-06
0.00180512 0.0008137 -7.14073e-06
0.0008137 0.000313844 1.54486e-08
-7.14073e-06 1.54486e-08 -0.000115151
-0.000221385 7.17692e-05 1.20095e-06
7.17692e-05 -0.000375885 1.41357e-06
1.20095e-06 1.41357e-06 -0.000547116
6.19002e-05 0.000283982 -9.81299e-08
0.000283982 -8.8041e-05 -2.48341e-06
-9.81299e-08 -2.48341e-06 -0.000422414
0.00157552 0.000556586 1.67943e-06
0.000556586 0.000481918 1.73224e-07
1.67943e-06 1.73224e-07 8.87126e-05
0.00174481 0.000391267 -4.1058e-06
0.000391267 0.000545845 1.68218e-06
-4.1058e-06 1.68218e-06 0.000281539
0.00242827 0.000520904 6.48987e-07
0.000520904 -7.61328e-05 -8.84865e-07
6.48987e-07 -8.84865e-07 -3.90562e-05
0.00258516 0.000667513 3.38691e-06
0.000667513 0.000356595 -5.60025e-09
3.38691e-06 -5.60025e-09 0.000143854
0.00216281 0.000770079 -2.58434e-06
0.000770079 0.000325056 -7.14771e-09
-2.58434e-06 -7.14771e-09 -3.70299e-05
0.00191169 0.000801619 1.13625e-06
0.000801619 0.000463928 1.11537e-07
1.13625e-06 1.11537e-07 -4.03536e-06
-0.000508897 3.74165e-05 -3.59828e-06
3.74165e-05 -0.0005432 5.21507e-06
-3.59828e-06 5.21507e-06 -0.00071099
0.00230064 0.00039336 1.23198e-05
0.00039336 -0.000194223 3.30226e-06
1.23198e-05 3.30226e-06 -0.000106602
0.00304142 0.00058872 8.04868e-06
0.00058872 0.00170708 9.48808e-06
8.04868e-06 9.48808e-06 0.00133966
0.00134403 0.000532407 3.5568e-06
0.000532407 0.000257919 -3.88256e-06
3.5568e-06 -3.88256e-06 -0.000102374
0.00257306 0.000648802 -1.27775e-05
0.000648802 0.000161212 -7.58951e-06
-1.27775e-05 -7.58951e-06 0.000101806
0.00126803 0.00071821 4.28472e-06
0.00071821 -0.000297455 -8.6403e-06
4.28472e-06 -8.6403e-06 -0.000638278
0.00280965 0.000928668 1.38999e-06
0.000928668 0.000920934 3.72005e-06
1.38999e-06 3.72005e-06 0.000422528
0.000748202 0.00013082 -1.28522e-06
0.00013082 0.000213249 -3.00171e-06
-1.28522e-06 -3.00171e-06 7.58732e-05
0.0005909 0.000121694 -3.78571e-06
0.000121694 0.000142585 -1.64114e-06
-3.78571e-06 -1.64114e-06 3.06911e-05
0.000922933 0.000108298 -2.63588e-06
0.000108298 0.000359201 4.34878e-06
-2.63588e-06 4.34878e-06 0.000287979
0.000471597 8.34527e-06 1.24205e-06
8.34527e-06 4.50576e-05 -3.91337e-06
1.24205e-06 -3.91337e-06 -7.24496e-05
0.000640745 8.99574e-05 2.78373e-06
8.99574e-05 0.000185837 -1.47784e-06
2.78373e-06 -1.47784e-06 2.14333e-05
-0.000459168 9.55502e-05 -3.04709e-06
9.55502e-05 -0.000469359 6.12934e-06
-3.04709e-06 6.12934e-06 -0.000594674
0.000542082 2.45573e-05 -1.56777e-06
2.45573e-05 9.28418e-05 1.37441e-08
-1.56777e-06 1.37441e-08 -3.0538e-05
0.000290726 -6.15479e-06 -9.31677e-07
-6.15479e-06 -3.16549e-05 -2.68918e-07
-9.31677e-07 -2.68918e-07 -0.00019123
5.59733e-05 6.39325e-05 -1.37852e-06
6.39325e-05 -0.000214186 2.29631e-06
-1.37852e-06 2.29631e-06 -0.000285953
0.000786825 0.000115939 1.15286e-06
0.000115939 0.000279813 -1.66141e-06
1.15286e-06 -1.66141e-06 0.000116483
0.00180852 0.000156023 -8.5615e-07
0.000156023 0.000841763 -1.30268e-06
-8.5615e-07 -1.30268e-06 0.000795055
0.000319232 3.00062e-05 1.06404e-05
3.00062e-05 -5.28973e-05 -8.28224e-06
1.06404e-05 -8.28224e-06 -0.000141193
0.000321628 0.000117254 6.21691e-07
0.000117254 -2.03472e-06 2.80964e-06
6.21691e-07 2.80964e-06 -0.000173875
0.000572785 5.65035e-05 1.2839e-06
5.65035e-05 0.000138381 4.35092e-06
1.2839e-06 4.35092e-06 -3.22389e-05
0.000554382 3.04926e-05 2.26015e-06
3.04926e-05 8.98555e-05 3.55581e-06
2.26015e-06 3.55581e-06 -3.43218e-05
0.000483407 -6.28584e-05 -1.09655e-06
-6.28584e-05 3.07377e-05 3.17795e-06
-1.09655e-06 3.17795e-06 -5.25657e-05
0.000480862 1.30372e-05 4.46521e-07
1.30372e-05 2.38179e-05 -4.05652e-07
4.46521e-07 -4.05652e-07 -5.30183e-05
0.00130922 2.97329e-05 3.46778e-06
2.97329e-05 0.000523749 3.37837e-06
3.46778e-06 3.37837e-06 0.000502629
0.000484866 7.41489e-06 5.44868e-07
7.41489e-06 1.64251e-05 -3.69014e-06
5.44868e-07 -3.69014e-06 -5.16572e-05
0.001322 1.44404e-05 -7.1879e-06
1.44404e-05 0.0005244 -1.77802e-06
-7.1879e-06 -1.77802e-06 0.000505083
0.000742252 -7.10949e-06 2.3441e-05
-7.10949e-06 0.000151339 9.11383e-06
2.3441e-05 9.11383e-06 0.000156202
0.00134697 -1.02883e-05 -8.64204e-06
-1.02883e-05 0.000533385 -6.97453e-06
-8.64204e-06 -6.97453e-06 0.000515483
0.000766148 -1.89959e-05 8.81996e-06
-1.89959e-05 0.000158423 3.59384e-06
8.81996e-06 3.59384e-06 0.000162181
0.000761 -3.09324e-05 4.83554e-07
-3.09324e-05 0.000152066 -3.12242e-06
4.83554e-07 -3.12242e-06 0.000153584
0.000620647 -1.44822e-05 1.4879e-06
-1.44822e-05 9.12557e-05 -1.24326e-06
1.4879e-06 -1.24326e-06 3.8336e-05
0.000391597 2.81345e-05 -2.31172e-07
2.81345e-05 -6.88886e-05 -3.71192e-06
-2.31172e-07 -3.71192e-06 -8.87902e-05
0.000410529 4.88806e-05 3.25984e-07
4.88806e-05 -4.18851e-05 2.70806e-07
3.25984e-07 2.70806e-07 -7.1656e-05
0.00242106 9.75507e-05 1.01875e-05
9.75507e-05 0.00123442 -4.83975e-06
1.01875e-05 -4.83975e-06 0.00123691
0.000466707 5.9778e-05 4.73163e-06
5.9778e-05 7.42785e-06 7.7015e-06
4.73163e-06 7.7015e-06 -3.52923e-05
0.00282501 0.000136024 -4.82771e-06
0.000136024 0.00150385 -5.57622e-07
-4.82771e-06 -5.57622e-07 0.00149622
0.00349443 0.000117548 -5.69865e-05
0.000117548 0.00192358 6.48273e-06
-5.69865e-05 6.48273e-06 0.00191728
0.00224196 0.000396997 7.97697e-07
0.000396997 1.87943e-05 -9.46033e-08
7.97697e-07 -9.46033e-08 -9.50312e-06
0.00217153 0.000216768 -8.79158e-08
0.000216768 -1.94508e-05 3.14841e-07
-8.79158e-08 3.14841e-07 7.48145e-06
0.0020766 6.97789e-05 1.40651e-07
6.97789e-05 -2.98585e-05 -6.74986e-08
1.40651e-07 -6.74986e-08 -1.40547e-06
0.00201019 -9.51534e-06 -4.25722e-06
-9.51534e-06 2.05795e-05 -3.04522e-07
-4.25722e-06 -3.04522e-07 1.50258e-05
0.00206806 -1.15027e-05 -9.67205e-07
-1.15027e-05 -3.08316e-05 -3.72867e-08
-9.67205e-07 -3.72867e-08 -3.74079e-06
0.00220842 0.000111005 7.97948e-09
0.000111005 -5.86362e-05 3.71246e-07
7.97948e-09 3.71246e-07 1.0353e-05
0.00232558 0.000325112 -1.19588e-06
0.000325112 -3.44129e-05 -1.25711e-07
-1.19588e-06 -1.25711e-07 7.83934e-06
0.00218897 -1.11615e-05 -2.60291e-06
-1.11615e-05 -7.61257e-05 2.31978e-07
-2.60291e-06 2.31978e-07 4.71267e-06
0.0024375 0.000166543 3.19053e-06
0.000166543 -5.29499e-05 -1.34897e-06
3.19053e-06 -1.34897e-06 2.98242e-05
0.00260295 0.000124779 1.29708e-05
0.000124779 0.000120286 1.26285e-05
1.29708e-05 1.26285e-05 0.000210555
0.00209826 -9.54053e-05 -1.00471e-06
-9.54053e-05 -8.04066e-06 -1.27138e-07
-1.00471e-06 -1.27138e-07 1.17779e-05
0.0021731 -0.000273853 -4.82051e-07
-0.000273853 -6.88363e-05 -2.64171e-07
-4.82051e-07 -2.64171e-07 -2.55157e-05
0.00222089 -0.000435607 -8.07439e-08
-0.000435607 1.64722e-05 -1.72682e-07
-8.07439e-08 -1.72682e-07 8.26056e-06
0.00140448 -0.000626645 1.15398e-05
-0.000626645 0.00035754 -4.41926e-06
1.15398e-05 -4.41926e-06 -8.55238e-05
0.00191541 -0.000827874 3.38215e-05
-0.000827874 0.000498305 -2.25777e-06
3.38215e-05 -2.25777e-06 1.24433e-07
0.00199203 -0.000780861 1.58217e-05
-0.000780861 0.000360853 -1.80835e-06
1.58217e-05 -1.80835e-06 -4.23615e-05
0.0022067 -0.000585174 1.71729e-06
-0.000585174 4.79661e-05 3.08556e-06
1.71729e-06 3.08556e-06 -3.58327e-05
0.00189559 -0.000671789 1.25972e-05
-0.000671789 9.25375e-05 4.24999e-06
1.25972e-05 4.24999e-06 -0.000140736
0.000535868 -0.000441794 2.13064e-05
-0.000441794 -0.00011884 -2.15252e-05
2.13064e-05 -2.15252e-05 -0.000508939
0.00138013 -0.000413986 1.94664e-05
-0.000413986 0.000543261 -2.15964e-05
1.94664e-05 -2.15964e-05 8.67892e-05
0.00118266 -0.000152395 -3.10842e-06
-0.000152395 0.000412447 2.31925e-06
-3.10842e-06 2.31925e-06 0.000110189
0.000415905 1.67052e-05 2.89548e-06
1.67052e-05 -1.60166e-05 8.57573e-07
2.89548e-06 8.57573e-07 -8.81656e-05
0.000492422 2.44113e-05 7.62694e-06
2.44113e-05 8.2629e-05 9.99731e-07
7.62694e-06 9.99731e-07 -9.10258e-05
0.000332376 -0.000149371 1.79273e-06
-0.000149371 8.17148e-06 7.37183e-06
1.79273e-06 7.37183e-06 -0.000274925
0.00220321 -0.000138109 5.68811e-07
-0.000138109 -6.29518e-05 -7.29344e-08
5.68811e-07 -7.29344e-08 1.11893e-05
0.000479868 7.64508e-06 1.84024e-06
7.64508e-06 8.83777e-06 3.48133e-07
1.84024e-06 3.48133e-07 -4.85907e-05
0.0003877 -7.64892e-05 -2.59399e-06
-7.64892e-05 -2.11936e-05 -6.35081e-07
-2.59399e-06 -6.35081e-07 -0.000117745
0.00231659 -0.000369077 -2.17767e-07
-0.000369077 -8.01749e-05 1.19082e-07
-2.17767e-07 1.19082e-07 3.63732e-06
0.00227489 -0.000531309 -1.8636e-06
-0.000531309 -1.5156e-06 4.01059e-07
-1.8636e-06 4.01059e-07 6.01436e-06
0.00183053 -0.000722757 -1.43294e-06
-0.000722757 0.000589317 2.13021e-06
-1.43294e-06 2.13021e-06 0.000112477
0.00192075 -0.000907997 9.66161e-06
-0.000907997 0.000462483 5.39516e-07
9.66161e-06 5.39516e-07 -8.0374e-05
0.00216051 -0.000879353 2.03768e-06
-0.000879353 0.000345452 -5.8e-06
2.03768e-06 -5.8e-06 -4.03738e-05
0.00235658 -0.00074005 2.94661e-06
-0.00074005 0.000145306 -9.271e-07
2.94661e-06 -9.271e-07 -4.00161e-06
0.000656227 1.06351e-05 -8.64332e-07
1.06351e-05 0.000194058 -1.39875e-06
-8.64332e-07 -1.39875e-06 6.56188e-05
0.000770885 -6.35943e-05 1.34034e-06
-6.35943e-05 0.000289911 2.11997e-06
1.34034e-06 2.11997e-06 5.66035e-05
0.0014627 -0.000566441 5.31982e-06
-0.000566441 0.000486541 6.48587e-06
5.31982e-06 6.48587e-06 6.88296e-05
0.0013651 -0.000428245 1.21294e-05
-0.000428245 0.000652601 -9.61861e-06
1.21294e-05 -9.61861e-06 7.06196e-05
0.00101553 -0.000177801 1.44198e-08
-0.000177801 0.000329096 -2.89785e-07
1.44198e-08 -2.89785e-07 -3.49129e-05
0.000187315 -0.000122142 8.81621e-07
-0.000122142 -0.000107777 -2.78393e-06
8.81621e-07 -2.78393e-06 -0.000398431
0.00220667 -0.000161666 8.02285e-07
-0.000161666 -0.000217936 5.79279e-07
8.02285e-07 5.79279e-07 -0.000114068
0.00232215 -0.000475808 -7.31131e-07
-0.000475808 -0.000234423 2.97974e-06
-7.31131e-07 2.97974e-06 -1.40715e-05
0.00255377 -0.000739913 -4.00079e-06
-0.000739913 9.64937e-05 -2.29145e-06
-4.00079e-06 -2.29145e-06 6.13895e-05
0.00258945 -0.000966286 1.27811e-05
-0.000966286 0.000363103 -6.26788e-06
1.27811e-05 -6.26788e-06 0.000111239
0.00124113 -0.000690998 -5.50624e-06
-0.000690998 0.000286038 -2.10642e-05
-5.50624e-06 -2.10642e-05 -0.000206652
0.00327094 -0.00115676 -1.26998e-05
-0.00115676 0.00111549 6.82988e-06
-1.26998e-05 6.82988e-06 0.000528718
0.000208134 5.72871e-05 -2.79469e-06
5.72871e-05 -0.000129852 -4.34934e-06
-2.79469e-06 -4.34934e-06 -0.000233067
0.000521827 -4.66596e-05 4.19698e-06
-4.66596e-05 6.99155e-05 1.09625e-06
4.19698e-06 1.09625e-06 -2.24058e-05
0.00127525 -0.000174955 -3.82984e-06
-0.000174955 0.000506965 1.62252e-05
-3.82984e-06 1.62252e-05 0.000385088
0.000398036 1.08515e-05 -4.63364e-06
1.08515e-05 1.53172e-05 5.34434e-06
-4.63364e-06 5.34434e-06 -0.000157141
0.000803631 -0.000117578 -4.99505e-06
-0.000117578 0.000291145 8.72494e-06
-4.99505e-06 8.72494e-06 3.92694e-05
0.00106778 -8.92972e-05 1.30968e-05
-8.92972e-05 0.000357516 -1.22874e-05
1.30968e-05 -1.22874e-05 9.20686e-05
-0.000819282 -0.000357958 -1.87852e-06
-0.000357958 -0.000321664 9.57278e-07
-1.87852e-06 9.57278e-07 -0.00116911
0.000160429 -0.000572032 -6.4352e-05
-0.000572032 -0.000344773 2.99021e-05
-6.4352e-05 2.99021e-05 -0.000713872
0.000455344 9.76087e-05 -1.26295e-06
9.76087e-05 7.64129e-05 -2.41172e-06
-1.26295e-06 -2.41172e-06 -0.000131486
0.0010054 0.000304031 -1.08128e-05
0.000304031 0.000468662 -6.04161e-06
-1.08128e-05 -6.04161e-06 0.000151232
0.00239926 0.00049854 -9.09933e-06
0.00049854 -0.000107559 -2.5983e-06
-9.09933e-06 -2.5983e-06 -6.0653e-05
0.00254794 0.000674012 -8.63916e-06
0.000674012 0.000337696 -9.58616e-07
-8.63916e-06 -9.58616e-07 0.000115856
0.00356002 0.000519783 -6.02122e-06
0.000519783 0.00167132 1.68272e-06
-6.02122e-06 1.68272e-06 0.00139486
0.00150816 0.000558051 -5.20273e-06
0.000558051 0.000423495 -1.47923e-06
-5.20273e-06 -1.47923e-06 2.38484e-05
0.00209622 0.000748664 -6.19117e-06
0.000748664 0.000304351 2.01407e-06
-6.19117e-06 2.01407e-06 -4.97338e-05
0.00215521 0.000819212 -5.3356e-06
0.000819212 0.000589128 -6.70182e-07
-5.3356e-06 -6.70182e-07 0.000125197
0.000287155 0.000120981 1.44526e-06
0.000120981 -1.51471e-05 -1.25381e-06
1.44526e-06 -1.25381e-06 -0.000226193
0.00246401 0.000378295 -2.37283e-06
0.000378295 -8.95536e-05 -2.00901e-06
-2.37283e-06 -2.00901e-06 3.40199e-06
0.00144301 0.000371383 9.32612e-07
0.000371383 0.000693208 1.55596e-06
9.32612e-07 1.55596e-06 0.000380713
0.00166172 0.00056172 2.32492e-06
0.00056172 0.000488073 1.15153e-06
2.32492e-06 1.15153e-06 0.000116328
0.00262202 0.000642364 1.56736e-06
0.000642364 0.000209406 3.09042e-07
1.56736e-06 3.09042e-07 0.000147966
0.00175758 0.000764869 -1.94037e-06
0.000764869 -5.0076e-06 -4.7537e-06
-1.94037e-06 -4.7537e-06 -0.000351988
0.00226292 0.000849471 -2.48173e-07
0.000849471 0.000623813 3.5146e-07
-2.48173e-07 3.5146e-07 0.000141483
0.00132517 0.000316082 -2.83333e-06
0.000316082 0.000739562 5.37369e-07
-2.83333e-06 5.37369e-07 0.000454066
0.00361351 0.000562396 -8.04429e-05
0.000562396 0.00057556 -1.99824e-05
-8.04429e-05 -1.99824e-05 0.000743707
0.000897555 0.000480724 -8.96399e-06
0.000480724 0.000293167 5.44815e-06
-8.96399e-06 5.44815e-06 -6.35305e-05
0.00154844 0.000640635 -3.79784e-06
0.000640635 0.000352127 -7.80577e-06
-3.79784e-06 -7.80577e-06 -8.20081e-05
0.0024337 0.000854689 -3.30417e-05
0.000854689 0.00022452 -2.06354e-05
-3.30417e-05 -2.06354e-05 -9.95767e-06
0.00113267 0.000730856 -2.3569e-05
0.000730856 -5.28634e-05 -3.26127e-06
-2.3569e-05 -3.26127e-06 -0.00049185
0.000441619 0.00090683 3.44335e-05
0.00090683 -0.00190479 -3.6478e-05
3.44335e-05 -3.6478e-05 -0.00145459
-0.000138793 0.000136892 4.63714e-06
0.000136892 -0.000273668 -1.2041e-06
4.63714e-06 -1.2041e-06 -0.000397097
0.000446464 0.000112538 2.72808e-06
0.000112538 0.000111199 2.57781e-06
2.72808e-06 2.57781e-06 2.59566e-05
0.001555 0.000161595 2.09096e-06
0.000161595 0.000762198 2.92112e-06
2.09096e-06 2.92112e-06 0.000687523
0.00038782 -6.51426e-05 1.14336e-06
-6.51426e-05 3.25605e-06 -4.59116e-06
1.14336e-06 -4.59116e-06 -0.000122866
0.000340697 -3.16896e-05 -4.29181e-07
-3.16896e-05 -4.69936e-06 -1.70238e-06
-4.29181e-07 -1.70238e-06 -0.000160235
0.00122308 0.000208105 3.09486e-07
0.000208105 0.000554968 4.48019e-07
3.09486e-07 4.48019e-07 0.000379466
-0.00017475 4.20006e-05 -7.27608e-06
4.20006e-05 -0.000334324 1.45331e-05
-7.27608e-06 1.45331e-05 -0.000403236
0.000509821 -1.51695e-05 -2.75292e-07
-1.51695e-05 7.94616e-05 -1.66084e-07
-2.75292e-07 -1.66084e-07 -5.39899e-05
0.000416378 7.37638e-05 2.19813e-07
7.37638e-05 1.53231e-05 -7.59673e-07
2.19813e-07 -7.59673e-07 -0.000136591
0.00125775 0.000135243 2.41389e-06
0.000135243 0.000494559 4.55231e-06
2.41389e-06 4.55231e-06 0.000449879
0.000460788 7.72031e-05 1.69734e-06
7.72031e-05 6.34263e-05 8.33227e-07
1.69734e-06 8.33227e-07 -9.63971e-05
0.000688923 6.61316e-05 -1.1222e-06
6.61316e-05 0.000172374 -2.09503e-06
-1.1222e-06 -2.09503e-06 7.1267e-05
0.0014861 0.000143244 -3.36596e-06
0.000143244 0.000685275 -1.38874e-05
-3.36596e-06 -1.38874e-05 0.000631035
0.000843189 0.000150981 -2.38903e-06
0.000150981 0.000248292 -2.57916e-06
-2.38903e-06 -2.57916e-06 0.000100424
0.000948388 0.000139591 1.71642e-06
0.000139591 0.000361482 2.30067e-06
1.71642e-06 2.30067e-06 0.00018883
0.000885273 0.000106898 -3.73468e-07
0.000106898 0.000329165 2.1288e-06
-3.73468e-07 2.1288e-06 0.000148426
0.000222409 -2.41215e-05 -1.19325e-06
-2.41215e-05 -0.000123257 2.20391e-06
-1.19325e-06 2.20391e-06 -0.000251031
0.0011983 -9.87448e-05 5.47258e-07
-9.87448e-05 0.000577998 -1.16166e-06
5.47258e-07 -1.16166e-06 0.000375577
0.000141308 -4.5425e-05 -1.17284e-06
-4.5425e-05 -0.000169595 3.97538e-06
-1.17284e-06 3.97538e-06 -0.000302449
0.000439991 3.80587e-06 -2.11362e-06
3.80587e-06 9.75721e-06 3.09715e-06
-2.11362e-06 3.09715e-06 -7.80143e-05
0.000457744 3.99227e-05 2.5069e-06
3.99227e-05 1.86885e-05 -1.32836e-07
2.5069e-06 -1.32836e-07 -6.71801e-05
0.000368421 2.13863e-05 -5.40222e-07
2.13863e-05 -6.49837e-05 4.67964e-06
-5.40222e-07 4.67964e-06 -9.00338e-05
0.000409053 5.28407e-06 -2.14277e-06
5.28407e-06 -1.1505e-05 -4.03855e-06
-2.14277e-06 -4.03855e-06 -9.44653e-05
0.000877983 1.66105e-05 -3.75449e-06
1.66105e-05 0.000251253 -1.52851e-06
-3.75449e-06 -1.52851e-06 0.000229027
0.00264937 -2.5295e-06 2.17637e-05
-2.5295e-06 0.00135749 5.66374e-06
2.17637e-05 5.66374e-06 0.00136997
0.00140619 2.98439e-05 -1.16678e-05
2.98439e-05 0.000578814 -7.10413e-06
-1.16678e-05 -7.10413e-06 0.000558862
0.000767013 -9.40728e-06 7.95142e-06
-9.40728e-06 0.000163478 3.50527e-06
7.95142e-06 3.50527e-06 0.000167699
0.000807225 -2.08819e-05 7.79768e-07
-2.08819e-05 0.000180781 -2.8335e-06
7.79768e-07 -2.8335e-06 0.000184123
0.000473338 1.36538e-05 -2.06738e-06
1.36538e-05 5.8185e-06 -2.25378e-06
-2.06738e-06 -2.25378e-06 -4.7261e-05
0.000547858 -2.88555e-05 7.56767e-07
-2.88555e-05 4.89775e-05 -3.33523e-07
7.56767e-07 -3.33523e-07 -5.78603e-06
0.000479699 2.32401e-05 2.05181e-07
2.32401e-05 -1.96137e-05 -3.45649e-06
2.05181e-07 -3.45649e-06 -3.53246e-05
0.000797511 4.01529e-05 -3.35648e-08
4.01529e-05 0.000189783 1.76539e-07
-3.35648e-08 1.76539e-07 0.000170872
0.0022589 7.55939e-05 7.9667e-06
7.55939e-05 0.00112315 -4.67094e-06
7.9667e-06 -4.67094e-06 0.00113097
0.000469177 5.86246e-05 5.31458e-06
5.86246e-05 1.01604e-06 5.84025e-06
5.31458e-06 5.84025e-06 -3.23816e-05
0.00250327 0.000104093 -2.81438e-06
0.000104093 0.00128821 -2.83943e-07
-2.81438e-06 -2.83943e-07 0.00128907
0.00289043 0.000142706 1.18442e-05
0.000142706 0.00154659 8.35679e-06
1.18442e-05 8.35679e-06 0.0015375
0.00224394 0.000331674 -1.22657e-06
0.000331674 -7.45246e-05 2.18217e-07
-1.22657e-06 2.18217e-07 -3.22135e-05
0.00219198 0.00010609 3.52306e-06
0.00010609 -6.0296e-05 3.30389e-07
3.52306e-06 3.30389e-07 7.33306e-06
0.00207769 -7.01602e-06 3.64971e-07
-7.01602e-06 -2.67211e-05 -3.69814e-07
3.64971e-07 -3.69814e-07 3.07218e-06
0.00217145 -6.83204e-06 7.55072e-08
-6.83204e-06 -8.59165e-05 -2.822e-07
7.55072e-08 -2.822e-07 -5.28016e-06
0.00238887 0.000172501 -1.7464e-07
0.000172501 -6.91036e-05 4.13518e-07
-1.7464e-07 4.13518e-07 1.29107e-05
0.00237862 0.000100181 8.19157e-06
0.000100181 -3.31643e-05 -6.54638e-06
8.19157e-06 -6.54638e-06 5.10792e-05
0.00246565 1.81741e-06 -8.22236e-07
1.81741e-06 -0.000104504 -1.30983e-06
-8.22236e-07 -1.30983e-06 2.31907e-05
0.00468369 0.000944989 7.03799e-05
0.000944989 -0.000583662 1.55908e-05
7.03799e-05 1.55908e-05 0.000196622
0.00295741 8.18421e-05 -2.2709e-05
8.18421e-05 0.000473295 3.05926e-05
-2.2709e-05 3.05926e-05 0.00070405
0.000481376 0.000112834 -2.81224e-06
0.000112834 5.03223e-05 -9.92842e-07
-2.81224e-06 -9.92842e-07 -4.90233e-05
0.0022081 -0.00013894 1.27129e-06
-0.00013894 -6.86718e-05 -1.16292e-06
1.27129e-06 -1.16292e-06 7.97514e-06
0.00229016 -0.000358144 2.13628e-06
-0.000358144 -7.35767e-05 -5.98928e-07
2.13628e-06 -5.98928e-07 -9.71659e-07
0.00223043 -0.000520679 5.32494e-09
-0.000520679 -2.12007e-05 7.59691e-07
5.32494e-09 7.59691e-07 -5.32909e-06
0.00128473 -0.000667956 4.77368e-06
-0.000667956 0.000277987 1.0477e-05
4.77368e-06 1.0477e-05 -0.000182852
0.00223159 -0.000933066 3.26509e-05
-0.000933066 0.000637406 9.48911e-06
3.26509e-05 9.48911e-06 9.74084e-05
0.00123562 -0.000776965 -1.27574e-06
-0.000776965 -0.000175728 -2.05627e-06
-1.27574e-06 -2.05627e-06 -0.00053651
0.00230949 -0.000737122 -4.36305e-06
-0.000737122 0.000118155 2.54553e-06
-4.36305e-06 2.54553e-06 -2.53236e-05
0.0015997 -0.000553189 5.0935e-05
-0.000553189 0.000479333 -3.81061e-05
5.0935e-05 -3.81061e-05 0.000105808
0.00141041 -0.000453905 2.89541e-05
-0.000453905 0.00062339 -3.83939e-05
2.89541e-05 -3.83939e-05 9.62611e-05
0.00049027 -6.73398e-05 5.91661e-07
-6.73398e-05 -3.7362e-05 5.7208e-06
5.91661e-07 5.7208e-06 -0.000361933
0.000478277 1.04639e-05 2.64822e-06
1.04639e-05 9.00514e-06 7.84028e-07
2.64822e-06 7.84028e-07 -4.92752e-05
0.00149713 -0.000135254 1.03653e-06
-0.000135254 0.000713446 9.24615e-06
1.03653e-06 9.24615e-06 0.000401662
0.000880734 -2.3151e-05 8.09172e-06
-2.3151e-05 0.000347769 -1.64147e-06
8.09172e-06 -1.64147e-06 0.000214317
0.000667766 -6.0846e-05 3.50474e-06
-6.0846e-05 0.000215061 -2.41585e-06
3.50474e-06 -2.41585e-06 -1.27755e-05
8.24734e-05 -4.55657e-05 -3.59172e-06
-4.55657e-05 -0.000222419 -8.69303e-07
-3.59172e-06 -8.69303e-07 -0.000313991
0.00228312 -0.000180008 -2.55458e-07
-0.000180008 -0.000202821 1.80006e-07
-2.55458e-07 1.80006e-07 -7.12628e-05
0.000335987 2.96121e-05 5.30599e-07
2.96121e-05 -3.72049e-05 -2.6511e-06
5.30599e-07 -2.6511e-06 -0.000145314
0.00059571 -6.37285e-05 2.82823e-06
-6.37285e-05 0.000135377 1.04237e-06
2.82823e-06 1.04237e-06 3.16522e-05
0.00100401 -0.000145193 4.9231e-06
-0.000145193 0.000337972 3.6838e-08
4.9231e-06 3.6838e-08 0.000227404
0.00234149 -0.000490532 2.13121e-06
-0.000490532 -0.000203231 -9.0251e-07
2.13121e-06 -9.0251e-07 -2.33396e-05
0.0024508 -0.000732523 5.18049e-07
-0.000732523 4.10268e-05 -5.44013e-07
5.18049e-07 -5.44013e-07 6.36785e-06
0.000545688 -0.000541933 7.20242e-06
-0.000541933 -0.000118826 -2.03602e-07
7.20242e-06 -2.03602e-07 -0.000540471
0.00274735 -0.00110703 2.05527e-05
-0.00110703 0.000796045 3.44645e-07
2.05527e-05 3.44645e-07 0.000235696
0.00247391 -0.000960603 -6.51221e-07
-0.000960603 0.000314204 2.1928e-06
-6.51221e-07 2.1928e-06 5.26383e-05
0.000288077 -2.66226e-05 -3.82877e-07
-2.66226e-05 -5.1876e-05 3.00709e-07
-3.82877e-07 3.00709e-07 -0.000218358
0.00115551 -0.000141996 -2.38278e-07
-0.000141996 0.000534615 3.68873e-06
-2.38278e-07 3.68873e-06 0.000255445
0.00186731 -0.000791956 3.36721e-07
-0.000791956 0.000654008 1.87517e-06
3.36721e-07 1.87517e-06 0.000182688
8.95777e-05 -0.000250897 -1.98102e-06
-0.000250897 -1.20665e-05 3.64476e-06
-1.98102e-06 3.64476e-06 -0.00066682
0.0012872 -0.000143661 1.4529e-06
-0.000143661 0.000499317 5.93071e-06
1.4529e-06 5.93071e-06 0.000226764
0.00273132 -0.000342233 -8.08978e-06
-0.000342233 5.96852e-05 3.1836e-06
-8.08978e-06 3.1836e-06 0.000203454
0.00209951 -0.000546605 -1.55222e-05
-0.000546605 -0.000325335 7.42528e-06
-1.55222e-05 7.42528e-06 -6.83773e-05
0.00222606 -0.000863145 -6.93096e-06
-0.000863145 4.68581e-05 -3.66901e-06
-6.93096e-06 -3.66901e-06 -0.000140762
0.00477449 -0.00131736 -4.07156e-06
-0.00131736 0.00173467 -3.97312e-06
-4.07156e-06 -3.97312e-06 0.00134836
-9.11275e-05 -0.000653466 -1.86494e-05
-0.000653466 -0.000519814 -7.10092e-06
-1.86494e-05 -7.10092e-06 -0.000975802
1.89586e-06 -2.9061e-05 1.04371e-06
-2.9061e-05 -0.00024248 2.39539e-06
1.04371e-06 2.39539e-06 -0.000353612
0.000879954 6.282e-07 -5.22029e-06
6.282e-07 0.000227659 1.54037e-05
-5.22029e-06 1.54037e-05 0.0001167
-0.0015198 -0.000131958 -7.27516e-06
-0.000131958 -0.00123288 2.7383e-06
-7.27516e-06 2.7383e-06 -0.00131843
0.00212873 -0.000310428 -2.92168e-05
-0.000310428 0.00111797 2.82329e-05
-2.92168e-05 2.82329e-05 0.000883293
0.00094649 -0.000120601 -5.32545e-06
-0.000120601 0.000386783 2.75563e-05
-5.32545e-06 2.75563e-05 0.000129873
-0.00134583 -0.000141108 6.27638e-06
-0.000141108 -0.000423652 -6.29634e-07
6.27638e-06 -6.29634e-07 -0.00120933
0.000617163 -0.000851024 -2.61807e-05
-0.000851024 0.000220581 1.44838e-05
-2.61807e-05 1.44838e-05 -0.000455714
0.00173238 0.000310637 -5.50549e-06
0.000310637 0.000890651 -6.86543e-06
-5.50549e-06 -6.86543e-06 0.000644281
-0.000541993 0.000117814 -5.62131e-06
0.000117814 -0.000552036 -2.10608e-06
-5.62131e-06 -2.10608e-06 -0.000801562
0.00260863 0.000353713 1.27298e-06
0.000353713 -5.79176e-06 1.3466e-06
1.27298e-06 1.3466e-06 0.000102773
0.00261155 0.000632307 1.16074e-05
0.000632307 0.000214506 5.96534e-06
1.16074e-05 5.96534e-06 0.000155985
0.0021941 0.000805748 5.23645e-06
0.000805748 0.00025562 3.18332e-06
5.23645e-06 3.18332e-06 -9.58654e-05
0.00162422 0.000550078 -2.27403e-06
0.000550078 0.000496993 2.65371e-06
-2.27403e-06 2.65371e-06 0.000123993
0.00173719 0.000775322 2.27343e-06
0.000775322 0.000338349 3.68587e-06
2.27343e-06 3.68587e-06 -0.000128282
0.00214486 0.000367288 9.21529e-07
0.000367288 0.00117133 -8.79999e-07
9.21529e-07 -8.79999e-07 0.00092068
0.00284406 0.000454282 6.53005e-06
0.000454282 0.000169158 3.4157e-06
6.53005e-06 3.4157e-06 0.000374286
0.00115064 0.000436355 -4.44346e-06
0.000436355 0.0004123 4.90969e-06
-4.44346e-06 4.90969e-06 9.15412e-05
0.00167226 0.000661455 3.31303e-06
0.000661455 0.000464478 -6.40447e-07
3.31303e-06 -6.40447e-07 1.26761e-05
0.00241393 0.000835622 -3.04981e-06
0.000835622 0.000231134 -3.71867e-06
-3.04981e-06 -3.71867e-06 1.8525e-05
0.00186838 0.000826314 -4.40324e-06
0.000826314 0.000360993 5.53708e-06
-4.40324e-06 5.53708e-06 -0.000100339
0.00309637 0.00123864 3.6727e-05
0.00123864 -0.000772596 7.65923e-06
3.6727e-05 7.65923e-06 -0.000502689
0.000137804 0.00027599 -1.05286e-09
0.00027599 4.21829e-05 4.06281e-07
-1.05286e-09 4.06281e-07 -0.000232302
0.00280619 0.00083187 -8.41883e-05
0.00083187 0.000270511 -3.9945e-05
-8.41883e-05 -3.9945e-05 0.000238703
0.000574077 0.000427393 -8.65493e-06
0.000427393 -0.000131521 3.18957e-06
-8.65493e-06 3.18957e-06 -0.00046897
-3.15139e-05 0.000505718 -2.34178e-06
0.000505718 -0.000541671 -1.75011e-05
-2.34178e-06 -1.75011e-05 -0.000961112
0.00158795 0.000916855 -4.15379e-05
0.000916855 -1.9018e-05 -1.5325e-05
-4.15379e-05 -1.5325e-05 -0.000320255
0.0151054 0.000462594 -0.000557629
0.000462594 0.00209889 -9.349e-05
-0.000557629 -9.349e-05 0.00180704
0.00336923 0.00190113 -6.99907e-05
0.00190113 -0.0023822 -6.80435e-05
-6.99907e-05 -6.80435e-05 -0.000793848
0.000597457 0.00143066 1.71405e-05
0.00143066 -0.000829403 1.00805e-07
1.71405e-05 1.00805e-07 -0.00107084
0.00366308 -0.00252735 0.0017294
-0.00252735 0.00236637 0.000328341
0.0017294 0.000328341 -0.00144309
0.0238745 -0.00958215 -5.07011e-05
-0.00958215 0.00989264 8.30523e-05
-5.07011e-05 8.30523e-05 0.00627899
7.93454e-05 0.000117636 7.4375e-06
0.000117636 -8.21513e-05 1.89007e-06
7.4375e-06 1.89007e-06 -0.000176959
0.000846696 0.000120791 -1.91627e-06
0.000120791 0.000363081 -2.99905e-06
-1.91627e-06 -2.99905e-06 0.000282767
0.00178967 0.000278923 2.35544e-06
0.000278923 0.000971947 -8.98818e-07
2.35544e-06 -8.98818e-07 0.000838745
0.000495939 -5.76064e-05 5.8804e-08
-5.76064e-05 8.08689e-05 -3.12389e-06
5.8804e-08 -3.12389e-06 -5.80856e-05
0.000404391 6.96563e-05 -5.8336e-07
6.96563e-05 1.137e-05 -3.82003e-06
-5.8336e-07 -3.82003e-06 -0.000141077
0.000732295 -2.06985e-05 -2.70012e-07
-2.06985e-05 0.000232553 -1.65116e-06
-2.70012e-07 -1.65116e-06 7.05791e-05
0.000906437 9.03459e-05 -2.98161e-06
9.03459e-05 0.000299644 1.07301e-05
-2.98161e-06 1.07301e-05 0.000192193
0.000112682 9.09603e-05 2.91579e-06
9.09603e-05 -0.000218161 7.9189e-06
2.91579e-06 7.9189e-06 -0.000256747
0.00081396 0.000160756 -1.31685e-06
0.000160756 0.000312056 -2.42237e-07
-1.31685e-06 -2.42237e-07 0.000118233
0.000401333 -1.46434e-05 3.35911e-07
-1.46434e-05 -8.36065e-07 1.09379e-06
3.35911e-07 1.09379e-06 -0.000134753
0.000718069 5.79397e-05 -8.20083e-07
5.79397e-05 0.000217483 4.41399e-08
-8.20083e-07 4.41399e-08 4.41385e-05
0.000235048 9.65398e-05 -1.1211e-06
9.65398e-05 -9.92161e-05 -2.47088e-06
-1.1211e-06 -2.47088e-06 -0.000150872
0.000667994 0.000125139 -1.54301e-06
0.000125139 0.000158351 -2.87876e-07
-1.54301e-06 -2.87876e-07 1.36694e-05
0.0021718 0.000260305 -1.48327e-06
0.000260305 0.00114344 -4.59282e-07
-1.48327e-06 -4.59282e-07 0.000940156
0.000207114 0.00010617 -3.32426e-07
0.00010617 -3.16159e-05 -4.01101e-06
-3.32426e-07 -4.01101e-06 -0.000200579
0.000884577 0.000106531 2.87072e-06
0.000106531 0.000338701 3.06278e-07
2.87072e-06 3.06278e-07 0.000158506
0.000241891 -3.51259e-06 2.67733e-07
-3.51259e-06 -0.000103625 2.37405e-07
2.67733e-07 2.37405e-07 -0.000269613
0.000329501 -7.28042e-05 -8.5714e-07
-7.28042e-05 -4.52643e-05 8.51779e-07
-8.5714e-07 8.51779e-07 -0.000181756
0.000559756 -2.85024e-05 -8.45217e-07
-2.85024e-05 0.000115559 -1.19965e-06
-8.45217e-07 -1.19965e-06 -5.16159e-05
0.00140585 -2.48635e-05 8.94274e-07
-2.48635e-05 0.000645019 -1.13163e-05
8.94274e-07 -1.13163e-05 0.000481596
0.000734484 -5.26353e-05 -1.52687e-06
-5.26353e-05 0.000269724 -8.05908e-07
-1.52687e-06 -8.05908e-07 0.000101482
0.000729737 -8.05203e-05 1.90514e-06
-8.05203e-05 0.000243563 -9.18836e-07
1.90514e-06 -9.18836e-07 7.01344e-05
0.000644415 -0.000128435 -2.0489e-06
-0.000128435 0.000159889 4.23226e-06
-2.0489e-06 4.23226e-06 1.98156e-05
0.000247238 -2.50442e-05 2.60566e-07
-2.50442e-05 -9.79585e-05 9.57318e-07
2.60566e-07 9.57318e-07 -0.000235303
0.000496279 -6.10013e-05 -1.88824e-06
-6.10013e-05 3.57042e-05 4.07046e-06
-1.88824e-06 4.07046e-06 -4.65462e-05
0.000495517 -4.10127e-05 1.97791e-06
-4.10127e-05 4.23358e-05 1.14037e-07
1.97791e-06 1.14037e-07 -4.42407e-05
0.000421581 2.22599e-06 3.11058e-06
2.22599e-06 -2.7962e-05 6.53247e-06
3.11058e-06 6.53247e-06 -5.45618e-05
0.000496659 5.56555e-05 -1.52429e-06
5.56555e-05 3.68487e-05 -3.47696e-06
-1.52429e-06 -3.47696e-06 -4.4721e-05
0.000389029 3.22831e-05 3.74585e-07
3.22831e-05 -5.00791e-05 8.49356e-08
3.74585e-07 8.49356e-08 -7.60899e-05
0.00256756 6.7299e-06 7.82425e-06
6.7299e-06 0.00130779 5.46049e-06
7.82425e-06 5.46049e-06 0.00131984
0.000443664 4.56694e-05 -3.89807e-06
4.56694e-05 -1.88495e-05 -7.63941e-06
-3.89807e-06 -7.63941e-06 -4.62839e-05
0.00171331 -3.97595e-06 -4.93581e-06
-3.97595e-06 0.000765367 1.88477e-07
-4.93581e-06 1.88477e-07 0.000772846
0.000816656 -1.04791e-05 5.47293e-07
-1.04791e-05 0.000190103 -2.43314e-06
5.47293e-07 -2.43314e-06 0.00019428
0.000422646 9.65245e-06 -2.13822e-07
9.65245e-06 -3.19039e-05 -1.64399e-06
-2.13822e-07 -1.64399e-06 -7.54709e-05
0.000519145 -3.99107e-05 1.42782e-07
-3.99107e-05 3.82678e-05 5.49143e-08
1.42782e-07 5.49143e-08 -1.69921e-05
0.000510292 1.17004e-05 1.24105e-06
1.17004e-05 -3.52252e-06 -3.23827e-06
1.24105e-06 -3.23827e-06 -1.57008e-05
0.000481508 -4.19793e-05 -1.39418e-06
-4.19793e-05 7.90768e-06 5.79558e-08
-1.39418e-06 5.79558e-08 -4.74116e-05
0.000792087 2.81912e-05 -1.58817e-07
2.81912e-05 0.000178796 -7.28329e-07
-1.58817e-07 -7.28329e-07 0.00016529
0.00204411 5.51929e-05 5.00756e-06
5.51929e-05 0.000979992 -4.67502e-06
5.00756e-06 -4.67502e-06 0.00099245
0.00045798 3.66498e-05 1.40913e-06
3.66498e-05 -2.5014e-05 3.93885e-06
1.40913e-06 3.93885e-06 -4.68168e-05
0.00241142 8.2565e-05 -5.28732e-06
8.2565e-05 0.00122322 1.22693e-06
-5.28732e-06 1.22693e-06 0.00122922
0.00265565 0.000113924 3.58627e-06
0.000113924 0.00138748 6.34601e-06
3.58627e-06 6.34601e-06 0.00138615
0.00233895 0.000181134 -1.2264e-06
0.000181134 -8.37895e-05 -8.46524e-07
-1.2264e-06 -8.46524e-07 -2.21855e-06
0.00216079 -5.44618e-06 2.82689e-06
-5.44618e-06 -9.09005e-05 -6.98542e-07
2.82689e-06 -6.98542e-07 -1.09133e-05
0.00213992 7.16756e-05 -8.0549e-06
7.16756e-05 -0.000206466 4.1306e-06
-8.0549e-06 4.1306e-06 -0.000123766
0.00258406 0.000711312 0.000101379
0.000711312 -0.00167845 2.25792e-05
0.000101379 2.25792e-05 -0.000788332
0.00244716 -2.91071e-05 2.2603e-07
-2.91071e-05 -9.14502e-05 -2.9892e-06
2.2603e-07 -2.9892e-06 3.4482e-05
0.00227425 7.16548e-05 -1.05298e-06
7.16548e-05 6.05516e-05 -9.99627e-06
-1.05298e-06 -9.99627e-06 0.000226217
0.00301092 -4.72939e-05 -2.50791e-05
-4.72939e-05 0.000615161 -2.92576e-06
-2.50791e-05 -2.92576e-06 0.000665134
0.0033291 0.000229965 -2.65322e-05
0.000229965 -0.00206519 -4.43401e-05
-2.65322e-05 -4.43401e-05 -0.000801082
0.00243843 0.000242035 0.000138686
0.000242035 -0.00103567 5.11961e-05
0.000138686 5.11961e-05 -0.000456687
0.000587414 9.05964e-05 2.11881e-07
9.05964e-05 0.000120126 -8.55831e-07
2.11881e-07 -8.55831e-07 2.12812e-05
0.000576543 -3.87683e-06 2.36825e-07
-3.87683e-06 0.000124659 -1.29564e-07
2.36825e-07 -1.29564e-07 1.65482e-05
0.000327771 -9.31734e-05 -6.15957e-06
-9.31734e-05 -2.26492e-05 2.31248e-06
-6.15957e-06 2.31248e-06 -0.000141557
0.000374242 -4.48397e-05 -3.73654e-06
-4.48397e-05 1.27905e-05 2.20836e-06
-3.73654e-06 2.20836e-06 -0.000108897
0.00236184 -0.000200255 -3.55041e-06
-0.000200255 -0.000177989 -1.61773e-06
-3.55041e-06 -1.61773e-06 -2.82759e-05
0.0023323 -0.000498787 1.73681e-07
-0.000498787 -0.000181741 -2.01534e-06
1.73681e-07 -2.01534e-06 -4.12453e-05
0.00236134 -0.000723243 -3.04305e-06
-0.000723243 -3.49947e-06 2.09164e-06
-3.04305e-06 2.09164e-06 -3.93893e-05
0.00384281 -0.000916073 2.4036e-05
-0.000916073 0.00177618 1.50411e-05
2.4036e-05 1.50411e-05 0.00128228
0.000277611 -0.000837354 -2.18845e-06
-0.000837354 -0.000599586 4.01412e-06
-2.18845e-06 4.01412e-06 -0.00110445
0.00238782 -0.000959295 -1.43922e-06
-0.000959295 0.000278632 -3.52367e-07
-1.43922e-06 -3.52367e-07 7.46461e-06
0.00078787 -0.000736472 2.88653e-05
-0.000736472 -6.93853e-07 -2.64699e-05
2.88653e-05 -2.64699e-05 -0.000504333
0.00358867 -0.000362756 1.34574e-05
-0.000362756 0.00174793 -8.28185e-06
1.34574e-05 -8.28185e-06 0.00133522
-0.000313632 -2.32431e-05 -7.45498e-06
-2.32431e-05 -0.000558745 5.46036e-06
-7.45498e-06 5.46036e-06 -0.000782461
0.000669811 -6.75332e-05 4.04557e-06
-6.75332e-05 0.000182522 -1.13534e-06
4.04557e-06 -1.13534e-06 7.85171e-05
0.000557616 -0.000137055 -5.62457e-06
-0.000137055 0.000182161 -1.33426e-05
-5.62457e-06 -1.33426e-05 -0.000101559
0.00045782 -2.41831e-05 6.03938e-06
-2.41831e-05 5.52832e-05 -2.33228e-06
6.03938e-06 -2.33228e-06 -0.000106931
0.000558493 1.66464e-07 5.08442e-07
1.66464e-07 0.000128616 1.44668e-06
5.08442e-07 1.44668e-06 8.23783e-06
0.000733878 -8.57798e-05 -8.72252e-06
-8.57798e-05 0.000167902 -1.16913e-06
-8.72252e-06 -1.16913e-06 7.04872e-05
0.00266686 -0.000323499 2.14276e-06
-0.000323499 3.22863e-05 1.52903e-06
2.14276e-06 1.52903e-06 0.000192845
0.000462986 -2.93026e-05 -8.29377e-07
-2.93026e-05 6.73743e-05 2.39891e-06
-8.29377e-07 2.39891e-06 -6.58769e-05
0.000816719 -5.51895e-05 7.51652e-06
-5.51895e-05 0.000203406 -6.71014e-07
7.51652e-06 -6.71014e-07 8.29335e-05
-0.000997175 -4.74488e-05 6.00724e-06
-4.74488e-05 -0.000835924 -9.59034e-07
6.00724e-06 -9.59034e-07 -0.000899343
0.00210353 -0.000561244 7.89531e-07
-0.000561244 -0.000342247 -1.26393e-06
7.89531e-07 -1.26393e-06 -0.000106179
0.00233425 -0.000875114 2.25341e-06
-0.000875114 0.000100714 -1.40293e-06
2.25341e-06 -1.40293e-06 -8.27069e-05
0.00200824 -0.000930816 -5.92394e-06
-0.000930816 0.000646394 1.00696e-06
-5.92394e-06 1.00696e-06 0.000139799
0.00271949 -0.00110461 -6.15741e-06
-0.00110461 0.00061307 1.60897e-06
-6.15741e-06 1.60897e-06 0.000256897
0.00150704 -0.000172264 5.31028e-06
-0.000172264 0.000722537 -3.21682e-06
5.31028e-06 -3.21682e-06 0.000492305
-9.57277e-05 -4.15501e-05 7.46042e-06
-4.15501e-05 -0.000286112 9.2233e-06
7.46042e-06 9.2233e-06 -0.000541915
0.00180231 -0.00111828 1.90883e-07
-0.00111828 0.000978699 -2.73344e-06
1.90883e-07 -2.73344e-06 0.000202946
0.00129671 -0.000439083 -9.4501e-06
-0.000439083 0.000607745 1.70673e-07
-9.4501e-06 1.70673e-07 8.79113e-05
0.00352854 -0.000476924 -4.77297e-05
-0.000476924 0.000468487 9.24978e-06
-4.77297e-05 9.24978e-06 0.000744707
0.00274928 -0.000731276 -4.1508e-05
-0.000731276 0.000251286 1.26259e-05
-4.1508e-05 1.26259e-05 0.000315091
0.00270501 -0.00102178 3.5165e-06
-0.00102178 0.000511115 -1.38768e-05
3.5165e-06 -1.38768e-05 0.000161589
0.00318792 -0.00112728 1.09912e-05
-0.00112728 0.00110172 9.89899e-06
1.09912e-05 9.89899e-06 0.00072315
5.74488e-06 -7.91993e-05 -2.70793e-06
-7.91993e-05 -0.000128337 -7.04113e-06
-2.70793e-06 -7.04113e-06 -0.000266639
0.000396572 -0.000145944 -1.4409e-05
-0.000145944 3.88325e-05 -6.49449e-08
-1.4409e-05 -6.49449e-08 -0.00017209
5.1683e-05 -0.000193023 -6.52432e-06
-0.000193023 0.000111182 5.39178e-05
-6.52432e-06 5.39178e-05 -0.000232985
-9.58647e-06 -0.000991764 -3.09228e-06
-0.000991764 0.000638324 -2.74612e-05
-3.09228e-06 -2.74612e-05 -0.000513622
0.00310285 -0.000453703 6.37319e-05
-0.000453703 -0.00558214 -2.49593e-05
6.37319e-05 -2.49593e-05 -0.00563204
0.00246577 0.000329708 2.75768e-06
0.000329708 0.00134452 -3.50512e-06
2.75768e-06 -3.50512e-06 0.00109581
0.00139654 0.000399307 -1.861e-06
0.000399307 0.000549174 1.19656e-07
-1.861e-06 1.19656e-07 0.000251072
0.00190259 0.000366395 5.41983e-05
0.000366395 -0.000358453 1.59398e-05
5.41983e-05 1.59398e-05 -0.000123076
0.00252625 0.000829663 2.47967e-05
0.000829663 0.000310335 1.12829e-05
2.47967e-05 1.12829e-05 0.000113409
0.00232521 0.000883449 9.91843e-06
0.000883449 0.000627646 1.23299e-05
9.91843e-06 1.23299e-05 0.000150391
0.00136099 0.000628678 8.7516e-06
0.000628678 0.000313521 8.78959e-06
8.7516e-06 8.78959e-06 -0.000143934
0.00550364 0.00159847 0.000112191
0.00159847 0.000135756 3.32991e-05
0.000112191 3.32991e-05 0.000205087
0.00121264 0.000329056 5.10707e-06
0.000329056 0.000662439 3.54304e-07
5.10707e-06 3.54304e-07 0.000396202
0.00264548 0.000790597 -2.57779e-05
0.000790597 0.000168525 9.19485e-07
-2.57779e-05 9.19485e-07 0.000175505
0.000919543 0.000470773 -5.85479e-06
0.000470773 0.000124015 4.31396e-06
-5.85479e-06 4.31396e-06 -0.000232855
0.00151175 0.000717491 5.14147e-07
0.000717491 0.00034629 -7.07942e-06
5.14147e-07 -7.07942e-06 -0.000117373
0.00237889 0.000979683 -1.13833e-05
0.000979683 0.000413136 -2.91631e-07
-1.13833e-05 -2.91631e-07 8.70668e-05
0.00499607 -0.000637913 -0.000174005
-0.000637913 -0.00511484 -9.94955e-05
-0.000174005 -9.94955e-05 -0.00584311
0.0068915 0.00199904 -0.000155193
0.00199904 -0.000626774 -6.37738e-05
-0.000155193 -6.37738e-05 0.000708525
0.00141265 0.00144262 -3.27101e-07
0.00144262 -0.000377473 4.26217e-06
-3.27101e-07 4.26217e-06 -0.000738138
0.00188916 -0.00231616 0.00060783
-0.00231616 0.00320938 0.000226982
0.00060783 0.000226982 3.27241e-05
0.016162 -0.00986806 -0.000523481
-0.00986806 0.0082135 -0.000471046
-0.000523481 -0.000471046 0.00440072
0.000532786 0.000257867 -1.38364e-05
0.000257867 0.000106748 -2.74673e-06
-1.38364e-05 -2.74673e-06 -0.000123413
0.00173366 0.000532599 0.000870004
0.000532599 0.0044792 7.56227e-05
0.000870004 7.56227e-05 0.00241183
0.00458815 -0.00371996 -0.00017306
-0.00371996 0.0064421 -0.000226054
-0.00017306 -0.000226054 0.00058477
0.00341392 0.00129053 -6.44245e-05
0.00129053 0.000723905 -1.84445e-05
-6.44245e-05 -1.84445e-05 0.000499484
0.000597796 0.00037358 -2.91697e-05
0.00037358 -7.91771e-05 -6.69176e-06
-2.91697e-05 -6.69176e-06 -0.000391073
0.000990926 0.000733572 -3.7505e-05
0.000733572 0.000107516 -3.1133e-05
-3.7505e-05 -3.1133e-05 -0.000285933
-0.00051304 0.00126072 6.38372e-05
0.00126072 -0.00107788 0.000100706
6.38372e-05 0.000100706 -0.00144693
0.0127064 0.00273527 7.46332e-05
0.00273527 0.0011618 -1.22902e-05
7.46332e-05 -1.22902e-05 0.000587197
0.00526671 0.00295776 -6.00137e-05
0.00295776 -0.000359865 -5.51407e-05
-6.00137e-05 -5.51407e-05 0.000586045
0.0175676 -0.00698218 0.00109099
-0.00698218 0.00595111 0.000525699
0.00109099 0.000525699 0.00142413
0.0141507 -0.00314784 -0.000130322
-0.00314784 0.0045396 0.000661282
-0.000130322 0.000661282 0.00241636
0.000398846 8.61509e-05 2.8068e-06
8.61509e-05 0.000128178 -5.26233e-06
2.8068e-06 -5.26233e-06 3.16168e-05
0.00023727 0.0001436 7.84551e-06
0.0001436 2.60843e-05 1.52618e-06
7.84551e-06 1.52618e-06 -9.29039e-05
0.00187006 0.000313506 3.04965e-06
0.000313506 0.0010417 -3.06143e-06
3.04965e-06 -3.06143e-06 0.000843831
0.000586517 3.96847e-06 1.63735e-06
3.96847e-06 0.000142807 4.28659e-08
1.63735e-06 4.28659e-08 -8.59093e-06
0.000594643 7.16626e-05 -8.34116e-08
7.16626e-05 0.000130533 -2.55039e-06
-8.34116e-08 -2.55039e-06 -3.50724e-05
-9.71087e-05 3.72142e-05 -1.44957e-06
3.72142e-05 -0.000282993 7.30842e-07
-1.44957e-06 7.30842e-07 -0.000449855
0.000850037 0.000132129 -7.54195e-06
0.000132129 0.000296394 2.11426e-06
-7.54195e-06 2.11426e-06 0.000145772
-0.000323638 7.17966e-05 -2.95387e-06
7.17966e-05 -0.000467137 3.03227e-07
-2.95387e-06 3.03227e-07 -0.000516208
0.000332654 -1.22461e-05 -1.01242e-07
-1.22461e-05 -3.81148e-05 7.35747e-07
-1.01242e-07 7.35747e-07 -0.000178793
0.0013715 0.000161526 2.27477e-06
0.000161526 0.000618489 5.00397e-07
2.27477e-06 5.00397e-07 0.000434748
0.000526105 6.202e-05 -2.3606e-07
6.202e-05 0.000125584 -1.63714e-07
-2.3606e-07 -1.63714e-07 -6.24825e-05
0.00079949 4.17766e-05 1.43887e-06
4.17766e-05 0.000282235 -3.62671e-07
1.43887e-06 -3.62671e-07 9.28223e-05
0.00019625 0.00010166 -6.86491e-07
0.00010166 -3.57444e-05 -3.26994e-06
-6.86491e-07 -3.26994e-06 -0.000203862
0.00151573 0.000148891 -2.40298e-06
0.000148891 0.000739397 -2.96124e-06
-2.40298e-06 -2.96124e-06 0.000563193
-0.000369225 6.61567e-05 -7.06003e-06
6.61567e-05 -0.000224819 -4.83367e-06
-7.06003e-06 -4.83367e-06 -0.000481959
0.000333239 -6.96863e-05 -8.5834e-08
-6.96863e-05 -8.52244e-06 1.09065e-06
-8.5834e-08 1.09065e-06 -0.000192134
0.000748172 -8.52215e-05 -2.2196e-06
-8.52215e-05 0.000256709 -1.00272e-06
-2.2196e-06 -1.00272e-06 7.02025e-05
0.000822853 -5.87649e-05 -3.67927e-07
-5.87649e-05 0.000303141 -7.78545e-07
-3.67927e-07 -7.78545e-07 0.00011897
0.000658025 -3.89885e-05 -3.9599e-06
-3.89885e-05 0.000159766 6.2187e-07
-3.9599e-06 6.2187e-07 1.64154e-05
0.00107928 1.38727e-05 -7.67165e-06
1.38727e-05 0.00050376 -5.68627e-06
-7.67165e-06 -5.68627e-06 0.000295041
0.000820281 -8.30567e-05 2.4367e-06
-8.30567e-05 0.000264623 -1.16596e-05
2.4367e-06 -1.16596e-05 0.000129631
-0.00136837 3.03115e-06 -4.8333e-06
3.03115e-06 -0.00107244 -8.64239e-06
-4.8333e-06 -8.64239e-06 -0.0011943
0.000134066 -4.05308e-05 2.01865e-06
-4.05308e-05 -9.25418e-05 -2.13966e-06
2.01865e-06 -2.13966e-06 -0.000288605
0.000240961 -7.5594e-05 1.05457e-06
-7.5594e-05 -8.01126e-05 3.72696e-07
1.05457e-06 3.72696e-07 -0.000221561
0.000792241 -0.000122004 -1.06626e-06
-0.000122004 0.000289127 3.65333e-07
-1.06626e-06 3.65333e-07 0.000127665
0.000512756 -8.89856e-05 -1.31719e-06
-8.89856e-05 5.84025e-05 3.03862e-06
-1.31719e-06 3.03862e-06 -6.53119e-05
0.000446145 -9.55854e-05 3.5593e-06
-9.55854e-05 2.86235e-05 2.45899e-07
3.5593e-06 2.45899e-07 -0.000118488
0.000545366 -0.000119635 9.17008e-10
-0.000119635 9.45988e-05 1.53384e-07
9.17008e-10 1.53384e-07 -4.46252e-05
0.000529386 -6.03383e-05 -2.26826e-06
-6.03383e-05 5.34865e-05 5.22553e-06
-2.26826e-06 5.22553e-06 -3.00797e-05
0.000383484 -8.93528e-06 8.45679e-07
-8.93528e-06 6.34249e-06 -1.12097e-06
8.45679e-07 -1.12097e-06 -0.000143894
0.000481376 2.64084e-07 2.40127e-06
2.64084e-07 3.39773e-05 1.54274e-07
2.40127e-06 1.54274e-07 -5.33049e-05
0.00144816 -3.6268e-05 -1.06856e-05
-3.6268e-05 0.00061206 7.02024e-06
-1.06856e-05 7.02024e-06 0.000589598
0.000461408 7.03894e-05 -2.02573e-06
7.03894e-05 2.08364e-05 -3.26547e-06
-2.02573e-06 -3.26547e-06 -6.50261e-05
0.000858561 -1.94501e-05 -4.29285e-06
-1.94501e-05 0.000247057 7.30606e-07
-4.29285e-06 7.30606e-07 0.00022251
0.000791741 3.39793e-06 -2.88919e-06
3.39793e-06 0.000188182 4.79102e-06
-2.88919e-06 4.79102e-06 0.000192413
0.000370018 -2.37712e-05 4.04672e-06
-2.37712e-05 -6.26911e-05 -5.10705e-06
4.04672e-06 -5.10705e-06 -8.79231e-05
0.00258857 4.36948e-06 7.77994e-06
4.36948e-06 0.00132146 -6.11625e-09
7.77994e-06 -6.11625e-09 0.00133344
0.000872328 3.94215e-06 -1.04533e-05
3.94215e-06 0.000236563 -5.49342e-06
-1.04533e-05 -5.49342e-06 0.000239778
0.000502531 6.94105e-05 2.53196e-06
6.94105e-05 6.74996e-05 8.52071e-07
2.53196e-06 8.52071e-07 -3.6947e-05
0.000447678 5.58779e-05 -2.36098e-06
5.58779e-05 -4.09239e-06 -2.32455e-06
-2.36098e-06 -2.32455e-06 -5.3781e-05
0.000467116 -1.59787e-06 1.5787e-06
-1.59787e-06 8.87088e-06 1.73559e-07
1.5787e-06 1.73559e-07 -4.26709e-05
0.000468708 9.67165e-06 1.17007e-06
9.67165e-06 -2.89588e-05 -3.06779e-06
1.17007e-06 -3.06779e-06 -3.96385e-05
0.000552505 -6.65532e-05 -2.01417e-06
-6.65532e-05 6.83093e-05 1.93737e-06
-2.01417e-06 1.93737e-06 7.9876e-06
0.000465207 1.29638e-05 1.33503e-07
1.29638e-05 -3.22876e-05 -7.22232e-07
1.33503e-07 -7.22232e-07 -4.42957e-05
0.00202876 3.8498e-05 3.32007e-06
3.8498e-05 0.000965621 -4.7208e-06
3.32007e-06 -4.7208e-06 0.0009806
0.00110671 3.68932e-05 -9.99061e-09
3.68932e-05 0.000379504 1.60039e-06
-9.99061e-09 1.60039e-06 0.000367072
0.0014864 4.77159e-05 -4.71026e-07
4.77159e-05 0.00062766 1.41807e-06
-4.71026e-07 1.41807e-06 0.00063509
0.000898977 5.19332e-05 -4.52662e-06
5.19332e-05 0.000262086 8.50878e-06
-4.52662e-06 8.50878e-06 0.000261086
0.000981637 0.000505037 7.5759e-05
0.000505037 -0.00243504 1.55551e-05
7.5759e-05 1.55551e-05 -0.00151417
0.00241563 -5.14447e-05 -3.16775e-06
-5.14447e-05 -7.6352e-05 6.25731e-06
-3.16775e-06 6.25731e-06 4.06391e-05
0.00222759 7.1772e-05 3.2271e-05
7.1772e-05 5.72062e-05 -1.26644e-05
3.2271e-05 -1.26644e-05 0.000192113
0.00291322 0.000455813 -6.16125e-05
0.000455813 -0.00206581 -3.89741e-05
-6.16125e-05 -3.89741e-05 -0.000473325
0.0027976 0.000119613 5.31047e-05
0.000119613 -0.000636879 -1.71568e-06
5.31047e-05 -1.71568e-06 -0.000132383
0.00273228 -5.2018e-05 1.86261e-06
-5.2018e-05 0.000369711 -1.02321e-05
1.86261e-06 -1.02321e-05 0.000454668
0.0049945 -0.000413216 -6.2673e-05
-0.000413216 0.00108134 -2.28679e-05
-6.2673e-05 -2.28679e-05 0.00132267
0.003451 -0.000348487 2.96571e-05
-0.000348487 -0.000613161 -3.38769e-06
2.96571e-05 -3.38769e-06 0.000261587
0.0175369 -0.000936067 6.91623e-05
-0.000936067 0.00294562 -3.75351e-05
6.91623e-05 -3.75351e-05 0.0020576
0.0154734 0.00632997 0.00162689
0.00632997 0.00605527 -0.00046791
0.00162689 -0.00046791 0.00250008
0.0214791 0.00730499 7.09362e-05
0.00730499 0.0138138 1.97276e-05
7.09362e-05 1.97276e-05 0.0100504
0.000136972 -0.000100393 3.43056e-07
-0.000100393 -0.000142924 -4.45503e-07
3.43056e-07 -4.45503e-07 -0.000257269
0.000534248 -5.68625e-06 1.66824e-06
-5.68625e-06 8.50648e-05 -5.55571e-08
1.66824e-06 -5.55571e-08 -1.31471e-05
0.000613738 -8.99518e-05 -7.16359e-07
-8.99518e-05 0.000154417 3.19106e-06
-7.16359e-07 3.19106e-06 3.97868e-05
0.000533177 -3.46597e-05 1.10453e-06
-3.46597e-05 9.51091e-05 3.20108e-07
1.10453e-06 3.20108e-07 -2.24484e-05
0.000916937 0.000116861 -4.98432e-06
0.000116861 0.00039179 1.17816e-06
-4.98432e-06 1.17816e-06 0.000253201
0.000513944 0.000137343 5.93257e-07
0.000137343 6.41792e-05 7.52693e-06
5.93257e-07 7.52693e-06 -6.19043e-05
0.000962793 1.64775e-06 2.43272e-06
1.64775e-06 0.000384652 4.19227e-06
2.43272e-06 4.19227e-06 0.00024085
0.000520556 -2.63259e-05 -1.52291e-06
-2.63259e-05 8.59349e-05 1.30436e-06
-1.52291e-06 1.30436e-06 -3.28884e-05
0.00263798 -0.000308806 1.23702e-05
-0.000308806 7.99694e-06 -3.67254e-06
1.23702e-05 -3.67254e-06 0.000199853
0.00215236 -0.000587337 1.43793e-05
-0.000587337 -0.000346059 -6.49636e-06
1.43793e-05 -6.49636e-06 -0.00013065
0.00239727 -0.000882902 5.28965e-08
-0.000882902 0.000128221 5.79934e-06
5.28965e-08 5.79934e-06 -4.89188e-05
0.00246638 -0.000957407 1.69234e-05
-0.000957407 0.000859461 8.76222e-06
1.69234e-05 8.76222e-06 0.000377373
0.00212938 -0.00106102 -2.25042e-05
-0.00106102 0.000288395 5.37494e-06
-2.25042e-05 5.37494e-06 -7.38158e-05
0.00175616 -0.00117366 3.94456e-05
-0.00117366 0.00106058 -1.54233e-05
3.94456e-05 -1.54233e-05 0.000182325
0.00470375 -0.000796087 6.80847e-06
-0.000796087 0.00236883 4.76399e-06
6.80847e-06 4.76399e-06 0.00194364
0.00131653 -0.00028634 1.18311e-05
-0.00028634 0.000663458 -5.0408e-05
1.18311e-05 -5.0408e-05 0.000315467
0.000613172 -0.000110488 2.54515e-06
-0.000110488 5.69887e-05 -7.59047e-07
2.54515e-06 -7.59047e-07 -4.72183e-05
0.000958556 -8.42933e-05 1.1595e-05
-8.42933e-05 0.000345043 -2.25798e-05
1.1595e-05 -2.25798e-05 0.000130341
0.0010039 -5.25481e-05 3.87244e-06
-5.25481e-05 0.000397522 1.11287e-06
3.87244e-06 1.11287e-06 0.000253696
0.000821322 1.47881e-05 9.19825e-06
1.47881e-05 0.000318453 -7.72566e-06
9.19825e-06 -7.72566e-06 0.000288609
0.00246122 -0.000421713 -5.9121e-07
-0.000421713 -0.000109707 2.93667e-06
-5.9121e-07 2.93667e-06 0.000203862
0.000451586 -8.70964e-05 -4.16374e-06
-8.70964e-05 0.00013214 -7.92017e-07
-4.16374e-06 -7.92017e-07 -9.6701e-06
0.00127036 -0.000195097 -8.82003e-06
-0.000195097 0.00055383 4.21977e-06
-8.82003e-06 4.21977e-06 0.000375878
0.0017232 -0.000664993 8.60375e-06
-0.000664993 -0.000349722 -3.9178e-06
8.60375e-06 -3.9178e-06 -0.000225059
0.00189664 -0.000895082 1.51421e-06
-0.000895082 6.52152e-05 1.10034e-06
1.51421e-06 1.10034e-06 -0.000201754
0.000974214 -0.000854691 -3.18209e-06
-0.000854691 -0.000171052 -7.04158e-06
-3.18209e-06 -7.04158e-06 -0.000475671
0.00180055 -0.000383008 7.85106e-07
-0.000383008 0.00105979 -2.6599e-05
7.85106e-07 -2.6599e-05 0.000647742
0.00148959 -0.000686641 8.3179e-06
-0.000686641 0.00124873 3.75211e-06
8.3179e-06 3.75211e-06 0.00035945
0.00554735 -0.000916204 -5.75289e-05
-0.000916204 0.00140992 2.75168e-05
-5.75289e-05 2.75168e-05 0.00162411
0.00412542 -0.00103291 -4.74271e-05
-0.00103291 0.00130655 1.04574e-05
-4.74271e-05 1.04574e-05 0.00109128
0.0021658 -0.00103852 1.38586e-05
-0.00103852 0.000326501 -4.70949e-06
1.38586e-05 -4.70949e-06 4.98513e-05
-0.00106803 -0.00046003 -1.62971e-06
-0.00046003 -0.00102402 1.36593e-05
-1.62971e-06 1.36593e-05 -0.00114095
0.000396858 -0.000153049 8.60512e-07
-0.000153049 0.000134632 8.55498e-06
8.60512e-07 8.55498e-06 -0.000107176
0.000375916 -0.000174061 4.18122e-06
-0.000174061 0.000194825 8.93076e-07
4.18122e-06 8.93076e-07 -9.48957e-05
0.00213205 -0.000253647 -1.01939e-05
-0.000253647 0.00156843 -2.47366e-05
-1.01939e-05 -2.47366e-05 0.000858957
-0.00705633 -0.000440208 0.000635886
-0.000440208 -0.00406817 -3.87274e-05
0.000635886 -3.87274e-05 -0.00415344
0.01191 -0.000386374 7.4564e-05
-0.000386374 0.000802543 2.82913e-05
7.4564e-05 2.82913e-05 0.00110802
0.00294599 0.00041815 1.15156e-05
0.00041815 0.0016411 -1.11827e-05
1.15156e-05 -1.11827e-05 0.00140751
0.00166476 0.000563123 -2.85282e-06
0.000563123 0.000618458 6.90293e-06
-2.85282e-06 6.90293e-06 0.000230291
0.00293291 0.00075317 0.000105743
0.00075317 0.000340999 4.58065e-05
0.000105743 4.58065e-05 0.000372
0.00311116 0.00104807 2.75802e-05
0.00104807 0.000810044 1.22559e-05
2.75802e-05 1.22559e-05 0.000462823
0.00298676 0.000915945 2.03366e-05
0.000915945 0.00118783 7.27521e-06
2.03366e-05 7.27521e-06 0.000685719
0.016493 0.000769775 9.53777e-05
0.000769775 0.00280165 -4.62725e-05
9.53777e-05 -4.62725e-05 0.00222883
0.00853791 0.00254071 -0.00023644
0.00254071 -0.000906964 -3.43671e-05
-0.00023644 -3.43671e-05 0.000772661
0.0016177 0.00137305 1.06598e-05
0.00137305 -8.2237e-05 -3.13728e-05
1.06598e-05 -3.13728e-05 -0.000562117
0.0141954 -0.00486408 -0.000553192
-0.00486408 0.00611622 8.26282e-06
-0.000553192 8.26282e-06 0.00283851
0.00662308 -0.01044 -0.00263728
-0.01044 0.00642722 -0.00159887
-0.00263728 -0.00159887 0.00214756
0.00106679 0.000349977 2.79644e-06
0.000349977 0.000500182 -2.11324e-06
2.79644e-06 -2.11324e-06 0.000230693
-0.00129398 -0.00286957 0.000555596
-0.00286957 -0.00252638 8.66032e-05
0.000555596 8.66032e-05 -0.00483467
-0.00182504 -0.00287103 -0.000589559
-0.00287103 0.00644936 -0.000206584
-0.000589559 -0.000206584 0.000516163
0.00355201 0.00120535 -1.66828e-05
0.00120535 0.000753825 2.21451e-06
-1.66828e-05 2.21451e-06 0.000590191
0.000823992 0.000465729 -9.50408e-06
0.000465729 0.000114319 8.44985e-06
-9.50408e-06 8.44985e-06 -0.000250211
0.00147756 0.000856728 6.05117e-06
0.000856728 0.000367996 1.8711e-06
6.05117e-06 1.8711e-06 -7.43267e-05
0.00113846 0.00127689 5.5571e-05
0.00127689 7.94309e-05 4.05936e-05
5.5571e-05 4.05936e-05 -0.000235658
0.0142778 0.00297768 -0.000157482
0.00297768 0.000831124 -9.80339e-05
-0.000157482 -9.80339e-05 -0.000753422
0.00415633 0.00314217 -2.85636e-05
0.00314217 -0.000726656 -4.02012e-05
-2.85636e-05 -4.02012e-05 0.000424113
0.0185658 -0.005559 0.000620065
-0.005559 0.00771582 -1.66587e-05
0.000620065 -1.66587e-05 0.00305369
0.0177725 -0.00465648 0.000108453
-0.00465648 0.00392696 0.000768391
0.000108453 0.000768391 0.00120991
0.00202116 0.000418093 -2.05279e-05
0.000418093 0.00102916 -1.6154e-05
-2.05279e-05 -1.6154e-05 0.000792207
-0.0102712 0.00131954 -0.00013989
0.00131954 0.00413714 -0.000147515
-0.00013989 -0.000147515 -0.00295882
0.00543014 0.00104248 -0.000417249
0.00104248 0.00439462 -0.000527734
-0.000417249 -0.000527734 -0.000540117
0.00263253 0.000896291 -3.33988e-05
0.000896291 0.000648377 -8.43023e-06
-3.33988e-05 -8.43023e-06 0.000584235
0.00267407 0.000896101 -7.92496e-05
0.000896101 0.00115783 -2.99885e-05
-7.92496e-05 -2.99885e-05 0.000743819
0.00105438 0.000923856 -9.88416e-05
0.000923856 0.000844695 -2.70328e-05
-9.88416e-05 -2.70328e-05 0.00011571
-0.00266667 0.0019604 -4.55309e-06
0.0019604 -0.00116001 -3.5029e-05
-4.55309e-06 -3.5029e-05 -0.00135591
0.00156384 0.00372041 0.000436971
0.00372041 -0.00199765 0.000145394
0.000436971 0.000145394 -0.00403747
0.0191639 -0.00705606 0.000145273
-0.00705606 0.0103622 0.000760693
0.000145273 0.000760693 0.00506418
0.00909233 -0.000633619 -0.000191924
-0.000633619 -0.00199843 -0.000165901
-0.000191924 -0.000165901 -0.00109853
-0.000635273 0.00013775 1.53982e-06
0.00013775 -0.000462522 -5.50675e-06
1.53982e-06 -5.50675e-06 -0.000609723
0.00176425 0.000326805 1.07729e-05
0.000326805 0.000961349 2.53679e-06
1.07729e-05 2.53679e-06 0.000762296
-0.000606904 8.22948e-05 -2.48104e-06
8.22948e-05 -0.000401561 -1.89869e-06
-2.48104e-06 -1.89869e-06 -0.000574524
0.000340842 5.24215e-05 2.11876e-06
5.24215e-05 -3.4438e-05 1.12959e-06
2.11876e-06 1.12959e-06 -0.000174924
0.00103869 9.18591e-05 -1.02413e-07
9.18591e-05 0.000441583 -1.73862e-06
-1.02413e-07 -1.73862e-06 0.000246405
0.000566091 2.49938e-05 -1.99742e-06
2.49938e-05 0.000156767 1.46781e-06
-1.99742e-06 1.46781e-06 -4.12636e-05
0.000436861 0.000104204 5.9532e-06
0.000104204 5.00878e-05 5.96168e-06
5.9532e-06 5.96168e-06 -0.000137472
-0.000634769 4.40802e-05 -4.05363e-06
4.40802e-05 -0.000528074 1.00522e-06
-4.05363e-06 1.00522e-06 -0.00068938
0.000777127 4.16749e-05 3.18294e-07
4.16749e-05 0.000278119 -7.93698e-07
3.18294e-07 -7.93698e-07 8.95507e-05
0.000718868 9.44528e-05 7.08825e-07
9.44528e-05 0.000235807 -1.46657e-07
7.08825e-07 -1.46657e-07 6.73555e-05
0.000837647 -4.03042e-05 -1.27237e-06
-4.03042e-05 0.000318879 2.18287e-06
-1.27237e-06 2.18287e-06 0.000122117
-0.00100127 3.21929e-05 2.27204e-06
3.21929e-05 -0.000598451 5.2296e-07
2.27204e-06 5.2296e-07 -0.000846724
0.000333507 6.09669e-05 -3.20176e-06
6.09669e-05 0.000395777 5.81798e-06
-3.20176e-06 5.81798e-06 1.81499e-05
0.000635073 -2.62273e-05 -1.17268e-06
-2.62273e-05 0.000284064 -7.34169e-06
-1.17268e-06 -7.34169e-06 7.21319e-05
0.0014173 -1.24364e-05 -1.843e-06
-1.24364e-05 0.000726811 2.03335e-06
-1.843e-06 2.03335e-06 0.000495644
0.000798928 -8.20686e-05 -3.40339e-07
-8.20686e-05 0.000289191 -1.53556e-06
-3.40339e-07 -1.53556e-06 0.000101182
0.000218249 -9.85208e-05 4.61674e-06
-9.85208e-05 -0.000123757 1.02041e-05
4.61674e-06 1.02041e-05 -0.000257237
0.000661637 -8.66695e-05 4.98824e-07
-8.66695e-05 0.00021847 -9.75001e-07
4.98824e-07 -9.75001e-07 2.52866e-05
0.000764321 -9.10428e-05 -2.09329e-06
-9.10428e-05 0.000218822 -3.71073e-07
-2.09329e-06 -3.71073e-07 8.44372e-05
-0.000295954 -6.65884e-05 2.0028e-06
-6.65884e-05 -0.000397757 4.9657e-06
2.0028e-06 4.9657e-06 -0.000513199
-6.77567e-05 -5.80578e-05 -3.73676e-07
-5.80578e-05 -0.000232004 -3.93781e-06
-3.73676e-07 -3.93781e-06 -0.000393876
-6.83185e-05 -2.90929e-05 -8.43089e-06
-2.90929e-05 -0.000171664 -4.12533e-06
-8.43089e-06 -4.12533e-06 -0.000354639
-1.31077e-05 -9.2064e-05 2.6534e-06
-9.2064e-05 -0.000191541 -7.34707e-06
2.6534e-06 -7.34707e-06 -0.000321884
0.000993635 -0.000119824 1.20312e-05
-0.000119824 0.000299971 -1.66745e-05
1.20312e-05 -1.66745e-05 0.000195095
0.00118285 -0.000267393 -1.28512e-06
-0.000267393 0.000357724 4.06184e-06
-1.28512e-06 4.06184e-06 0.000172676
-8.9665e-05 -5.86642e-05 -7.51309e-06
-5.86642e-05 -0.000243081 -2.76551e-06
-7.51309e-06 -2.76551e-06 -0.000432616
0.000626798 -5.53458e-05 1.82432e-06
-5.53458e-05 0.000199304 -8.91595e-07
1.82432e-06 -8.91595e-07 8.73916e-06
-0.000218227 -3.24775e-05 2.28009e-06
-3.24775e-05 -0.000341958 -3.05947e-07
2.28009e-06 -3.05947e-07 -0.000525583
0.000668997 -0.000126139 -5.87862e-07
-0.000126139 0.000212882 -3.65108e-07
-5.87862e-07 -3.65108e-07 4.86086e-05
0.000445525 -3.01279e-05 6.17636e-07
-3.01279e-05 1.94048e-05 1.24579e-06
6.17636e-07 1.24579e-06 -0.000108414
0.000754066 -0.000124729 -3.58968e-07
-0.000124729 0.000251956 3.48546e-07
-3.58968e-07 3.48546e-07 9.88814e-05
0.000625959 -8.70967e-05 -6.34213e-07
-8.70967e-05 0.000145637 1.88563e-07
-6.34213e-07 1.88563e-07 1.14118e-05
0.000386411 3.20424e-05 6.02228e-08
3.20424e-05 -3.74853e-05 4.6301e-06
6.02228e-08 4.6301e-06 -0.000123084
0.000547274 -0.000114762 9.66579e-07
-0.000114762 8.98468e-05 -2.73166e-06
9.66579e-07 -2.73166e-06 -4.7078e-05
0.000508386 -4.32012e-05 -5.34588e-07
-4.32012e-05 3.6439e-05 1.11451e-07
-5.34588e-07 1.11451e-07 -4.40883e-05
0.00141603 1.61211e-05 -7.81995e-06
1.61211e-05 0.000582869 7.5156e-06
-7.81995e-06 7.5156e-06 0.00056123
0.000479718 -6.5574e-05 1.39875e-06
-6.5574e-05 2.73358e-05 -3.79595e-06
1.39875e-06 -3.79595e-06 -5.62831e-05
0.000860865 -2.01594e-05 -7.90805e-06
-2.01594e-05 0.000240976 8.52421e-07
-7.90805e-06 8.52421e-07 0.000216795
0.000753516 1.18304e-05 1.24063e-06
1.18304e-05 0.000154638 2.28421e-06
1.24063e-06 2.28421e-06 0.000157944
0.000419181 -2.19712e-05 3.00698e-06
-2.19712e-05 -3.50813e-05 -4.74217e-06
3.00698e-06 -4.74217e-06 -5.95255e-05
0.00256 1.17825e-05 7.1576e-06
1.17825e-05 0.00130257 1.82229e-08
7.1576e-06 1.82229e-08 0.00131502
0.00258668 1.13816e-06 2.26793e-06
1.13816e-06 0.00132023 -5.06671e-06
2.26793e-06 -5.06671e-06 0.00133223
0.00103974 8.30585e-05 -7.2639e-07
8.30585e-05 0.00040673 9.26717e-07
-7.2639e-07 9.26717e-07 0.000296784
0.000503867 6.49176e-05 -1.71304e-06
6.49176e-05 3.49046e-05 -2.57107e-06
-1.71304e-06 -2.57107e-06 -2.0222e-05
0.000534294 -1.35371e-05 -3.25817e-07
-1.35371e-05 9.26477e-05 7.84489e-07
-3.25817e-07 7.84489e-07 -1.26864e-05
0.000467685 8.10667e-06 1.21875e-06
8.10667e-06 -2.99399e-05 -3.37315e-06
1.21875e-06 -3.37315e-06 -3.98879e-05
0.000444324 -1.13276e-05 1.17585e-06
-1.13276e-05 -7.8661e-06 -2.03792e-07
1.17585e-06 -2.03792e-07 -5.63698e-05
0.000516979 -6.11142e-05 -1.91162e-06
-6.11142e-05 4.45007e-05 2.0999e-06
-1.91162e-06 2.0999e-06 -9.76822e-06
0.00047172 7.33173e-06 -5.02464e-07
7.33173e-06 -2.74084e-05 1.43686e-09
-5.02464e-07 1.43686e-09 -3.80624e-05
0.00199008 2.40876e-05 -2.05223e-06
2.40876e-05 0.000938195 -4.80655e-06
-2.05223e-06 -4.80655e-06 0.000954796
0.00113329 2.46314e-05 -6.65495e-07
2.46314e-05 0.000392888 2.00803e-06
-6.65495e-07 2.00803e-06 0.000383701
0.00130986 3.06961e-05 -2.00486e-06
3.06961e-05 0.000508434 -2.71088e-08
-2.00486e-06 -2.71088e-08 0.000519996
0.000814159 3.69863e-05 -7.47542e-06
3.69863e-05 0.000200462 7.48782e-06
-7.47542e-06 7.48782e-06 0.000204901
-0.00820543 0.00146478 0.000621103
0.00146478 -0.00277454 -6.79491e-05
0.000621103 -6.79491e-05 -0.00590185
-0.000213426 0.000531336 0.0013548
0.000531336 0.00704772 -0.000328092
0.0013548 -0.000328092 0.00286865
0.00218479 0.000421476 -0.000165513
0.000421476 -0.00259356 -3.14843e-05
-0.000165513 -3.14843e-05 -0.000717557
0.00194137 -5.78277e-06 1.3319e-05
-5.78277e-06 -0.00107821 -2.84507e-05
1.3319e-05 -2.84507e-05 -0.000522842
0.00174693 -7.92945e-05 1.13798e-05
-7.92945e-05 -0.000324146 2.31722e-05
1.13798e-05 2.31722e-05 -0.000227916
-0.00160801 1.42701e-05 -0.000107434
1.42701e-05 -0.00204405 -2.91953e-05
-0.000107434 -2.91953e-05 -0.000739007
0.00391209 -0.000466387 3.5344e-06
-0.000466387 0.00030707 5.53927e-06
3.5344e-06 5.53927e-06 0.000527765
0.0123746 -0.000148269 0.000207127
-0.000148269 -0.00110313 -9.03683e-05
0.000207127 -9.03683e-05 -0.00171285
0.0022971 0.00417142 2.43169e-07
0.00417142 0.00111463 -7.0527e-05
2.43169e-07 -7.0527e-05 -0.00265593
0.015678 0.00848773 -0.000590772
0.00848773 0.0104893 0.000276703
-0.000590772 0.000276703 0.0066966
0.00170427 -0.000902118 1.37188e-05
-0.000902118 -0.00265648 -3.76167e-05
1.37188e-05 -3.76167e-05 -0.00126846
0.0156667 -0.00276465 0.000242258
-0.00276465 0.00156773 -7.30639e-05
0.000242258 -7.30639e-05 0.000248819
0.0193419 0.00667621 0.000396781
0.00667621 0.00637165 -0.000542972
0.000396781 -0.000542972 0.0019158
0.0217974 0.0047375 -0.000331809
0.0047375 0.00698065 0.000297442
-0.000331809 0.000297442 0.00433245
0.00101622 0.000173706 -3.29909e-06
0.000173706 0.000460915 3.27456e-06
-3.29909e-06 3.27456e-06 0.000277563
0.000328821 4.09543e-05 4.21065e-07
4.09543e-05 -3.77198e-05 -1.04821e-06
4.21065e-07 -1.04821e-06 -0.000144412
0.000543046 -9.73332e-05 1.72699e-06
-9.73332e-05 0.000103238 1.40584e-06
1.72699e-06 1.40584e-06 -1.57001e-06
0.000683197 7.46458e-06 6.76249e-06
7.46458e-06 0.00019847 -1.45253e-06
6.76249e-06 -1.45253e-06 7.44466e-05
0.000844957 8.79254e-05 2.81392e-06
8.79254e-05 0.000359288 1.18506e-06
2.81392e-06 1.18506e-06 0.000221643
0.000475003 2.65908e-05 -1.49883e-07
2.65908e-05 7.84984e-05 8.43815e-06
-1.49883e-07 8.43815e-06 -8.90243e-05
0.000743124 9.58188e-05 6.27304e-07
9.58188e-05 0.000236791 3.25214e-06
6.27304e-07 3.25214e-06 9.66994e-05
0.000446798 6.82992e-05 5.22286e-06
6.82992e-05 1.64881e-05 2.80594e-06
5.22286e-06 2.80594e-06 -0.000125763
0.000677255 -2.32417e-05 2.5887e-06
-2.32417e-05 0.000203054 -1.17969e-06
2.5887e-06 -1.17969e-06 6.1399e-05
0.000469564 -1.55476e-05 2.21204e-06
-1.55476e-05 4.50925e-05 -2.84791e-06
2.21204e-06 -2.84791e-06 -6.63248e-05
0.0013436 -0.000353782 3.70045e-05
-0.000353782 -0.000701643 -9.77955e-06
3.70045e-05 -9.77955e-06 -0.000360425
0.00106108 -0.000610438 2.86375e-05
-0.000610438 -0.000711176 -9.18098e-06
2.86375e-05 -9.18098e-06 -0.000548196
0.00103561 -0.000765592 1.34747e-06
-0.000765592 -0.000414613 7.42624e-06
1.34747e-06 7.42624e-06 -0.000599113
-0.000111729 -0.000720566 -1.88882e-05
-0.000720566 -0.000758644 3.57602e-06
-1.88882e-05 3.57602e-06 -0.00103605
0.00253394 -0.00049595 7.49816e-06
-0.00049595 0.00163221 3.62527e-05
7.49816e-06 3.62527e-05 0.000945689
-0.00044244 -0.00056299 -6.46346e-06
-0.00056299 -0.000287218 -7.9685e-06
-6.46346e-06 -7.9685e-06 -0.000842263
0.00147413 -0.000275065 6.91641e-06
-0.000275065 0.000687853 -5.48951e-06
6.91641e-06 -5.48951e-06 0.000532683
0.000432017 -6.13603e-05 8.909e-07
-6.13603e-05 0.000103381 2.64541e-06
8.909e-07 2.64541e-06 -3.33824e-05
0.00250045 -0.000649374 1.32329e-05
-0.000649374 -0.000246541 -9.27879e-06
1.32329e-05 -9.27879e-06 7.45341e-05
0.000440635 -7.31411e-05 4.39021e-07
-7.31411e-05 0.000161707 1.74913e-06
4.39021e-07 1.74913e-06 -9.00151e-05
-0.000145407 -0.000214277 -2.16214e-06
-0.000214277 -0.000108048 -5.89749e-06
-2.16214e-06 -5.89749e-06 -0.000402901
0.00181604 -0.000814871 1.88559e-05
-0.000814871 -3.41977e-07 -1.35755e-06
1.88559e-05 -1.35755e-06 -7.80286e-05
0.00197001 -0.00101409 -1.11724e-06
-0.00101409 0.00015325 1.64412e-06
-1.11724e-06 1.64412e-06 -4.87538e-05
0.000288506 -0.000756266 2.04646e-05
-0.000756266 -0.000226429 -1.60055e-05
2.04646e-05 -1.60055e-05 -0.000484651
0.00100017 -0.000372764 9.26863e-06
-0.000372764 0.000929045 -2.05027e-05
9.26863e-06 -2.05027e-05 0.000201546
0.00205715 -0.00098325 -7.12906e-05
-0.00098325 -8.21096e-06 4.4429e-05
-7.12906e-05 4.4429e-05 -0.000248821
0.00107521 -0.000762832 -2.69406e-05
-0.000762832 -0.000165886 1.71083e-06
-2.69406e-05 1.71083e-06 -0.000182044
-0.000129259 -0.000643146 -6.57615e-05
-0.000643146 -3.55031e-05 4.06953e-05
-6.57615e-05 4.06953e-05 -0.000465383
-0.00219941 -0.000203695 -8.70085e-06
-0.000203695 -0.00148444 1.24879e-05
-8.70085e-06 1.24879e-05 -0.00173064
-0.00118749 -2.46928e-05 1.40738e-07
-2.46928e-05 -0.000755971 1.18914e-05
1.40738e-07 1.18914e-05 -0.00105434
0.00082518 -9.39086e-05 8.04863e-06
-9.39086e-05 0.000526044 -1.47764e-05
8.04863e-06 -1.47764e-05 0.000138881
-0.00263345 0.00137334 -0.000461957
0.00137334 0.0073776 2.19282e-05
-0.000461957 2.19282e-05 0.00204558
4.97565e-05 -0.00170068 -1.56736e-05
-0.00170068 0.00264543 4.33712e-06
-1.56736e-05 4.33712e-06 0.0014915
0.00315717 0.00100508 -0.000138859
0.00100508 -0.00563957 -2.03903e-05
-0.000138859 -2.03903e-05 -0.00582031
0.000411784 0.000293611 1.33856e-05
0.000293611 0.000131414 -2.58772e-06
1.33856e-05 -2.58772e-06 -0.000134662
0.00177107 0.000650382 1.41921e-05
0.000650382 0.000720907 2.27159e-05
1.41921e-05 2.27159e-05 0.000285917
0.00347485 0.00106202 7.40836e-05
0.00106202 0.000696275 2.60077e-05
7.40836e-05 2.60077e-05 0.000581328
0.001456 0.00090856 1.73547e-05
0.00090856 0.000384405 2.39766e-05
1.73547e-05 2.39766e-05 -9.60725e-05
0.0134658 -0.0033312 0.000265204
-0.0033312 0.00527788 8.82703e-05
0.000265204 8.82703e-05 0.00363952
0.00358839 0.00172073 -0.000394791
0.00172073 -0.00484854 -9.15508e-05
-0.000394791 -9.15508e-05 -0.00627393
0.0053128 0.00303359 4.97123e-05
0.00303359 0.000316915 2.7821e-05
4.97123e-05 2.7821e-05 0.00102107
0.00318396 0.00133892 5.93245e-05
0.00133892 0.00132748 -8.35041e-06
5.93245e-05 -8.35041e-06 0.00104789
0.0105041 -0.00337864 -0.000438485
-0.00337864 0.00442668 -0.000373037
-0.000438485 -0.000373037 0.000322885
0.000235128 -0.00402201 -0.000825665
-0.00402201 0.00709847 -0.000244055
-0.000825665 -0.000244055 0.00105532
0.0265039 -0.00611765 0.000835663
-0.00611765 0.00774735 0.000408899
0.000835663 0.000408899 0.00461549
0.000320185 0.000268835 1.74748e-05
0.000268835 2.95927e-05 -4.537e-06
1.74748e-05 -4.537e-06 -0.000195553
-0.00402665 0.000465011 -0.000192985
0.000465011 0.00614525 -3.47314e-05
-0.000192985 -3.47314e-05 8.85725e-05
0.00613676 0.00143195 -0.000157383
0.00143195 0.00352797 -0.000182605
-0.000157383 -0.000182605 -0.00195593
0.00177743 0.000920142 9.38809e-06
0.000920142 0.000291473 2.86989e-06
9.38809e-06 2.86989e-06 0.000157167
0.000776977 0.000686122 1.53034e-05
0.000686122 0.000237032 5.40985e-06
1.53034e-05 5.40985e-06 -0.000188772
0.000782577 0.00105259 -6.18023e-05
0.00105259 0.00054291 -6.4399e-05
-6.18023e-05 -6.4399e-05 -5.55811e-05
0.00416616 0.00348791 3.60363e-05
0.00348791 0.0012098 3.61858e-05
3.60363e-05 3.61858e-05 0.00110167
0.016155 0.00485845 1.68577e-05
0.00485845 0.00318328 8.90021e-06
1.68577e-05 8.90021e-06 0.000955782
0.00945759 -0.00401055 9.10525e-05
-0.00401055 0.00474554 -0.000104689
9.10525e-05 -0.000104689 -0.000933765
0.0160963 -0.00219642 -1.71408e-05
-0.00219642 0.00228678 -7.13064e-05
-1.71408e-05 -7.13064e-05 0.00334014
0.000674855 0.000515314 -1.45316e-05
0.000515314 0.000237307 -9.74187e-06
-1.45316e-05 -9.74187e-06 -7.44645e-05
0.00176396 0.00025002 -0.00038757
0.00025002 0.00241262 -9.67481e-05
-0.00038757 -9.67481e-05 -0.00273995
0.00123513 0.000962018 -0.000147984
0.000962018 -0.000146109 -0.000181639
-0.000147984 -0.000181639 -0.00178494
-0.000722847 0.000338569 -6.40001e-06
0.000338569 -0.000151699 -2.06596e-05
-6.40001e-06 -2.06596e-05 -0.000435721
-0.00110495 0.000744471 -0.000190588
0.000744471 0.000934865 -1.39581e-05
-0.000190588 -1.39581e-05 0.000146818
0.0123202 0.00535279 0.000128463
0.00535279 0.0040188 -4.06397e-05
0.000128463 -4.06397e-05 -0.000547617
-0.0013405 -0.00580364 -1.62587e-05
-0.00580364 -4.16226e-05 0.000237293
-1.62587e-05 0.000237293 -0.00544887
0.0125049 3.08785e-05 7.2246e-05
3.08785e-05 -0.00161485 -0.000334792
7.2246e-05 -0.000334792 0.000839514
0.000808826 0.000203092 -3.78206e-06
0.000203092 0.000329796 1.82185e-05
-3.78206e-06 1.82185e-05 0.000174576
0.000941179 0.000250866 -9.34587e-06
0.000250866 0.000551857 -5.4903e-06
-9.34587e-06 -5.4903e-06 0.000334066
-0.000290494 0.000138451 9.3848e-07
0.000138451 -1.48367e-06 -2.00792e-06
9.3848e-07 -2.00792e-06 -0.0003308
0.00053201 8.67991e-05 -8.10156e-07
8.67991e-05 0.000102504 -1.13039e-06
-8.10156e-07 -1.13039e-06 -7.00794e-05
0.00127347 -2.91507e-05 -2.27282e-06
-2.91507e-05 0.000612116 3.96574e-06
-2.27282e-06 3.96574e-06 0.000399918
-1.49471e-05 7.68908e-05 3.05021e-06
7.68908e-05 -0.000231281 2.26732e-06
3.05021e-06 2.26732e-06 -0.000392716
-0.00121826 4.2209e-05 2.31185e-06
4.2209e-05 -0.000716788 1.2756e-06
2.31185e-06 1.2756e-06 -0.00096452
0.000554621 -2.20102e-05 1.23912e-06
-2.20102e-05 0.000144171 4.4749e-07
1.23912e-06 4.4749e-07 -5.29298e-05
0.000485922 4.69859e-05 6.71536e-07
4.69859e-05 0.000183086 -2.34047e-06
6.71536e-07 -2.34047e-06 -2.23855e-05
7.80402e-05 4.60513e-05 2.5207e-06
4.60513e-05 0.000295364 2.88339e-06
2.5207e-06 2.88339e-06 -0.000120782
-0.000438417 6.22893e-05 -3.13864e-06
6.22893e-05 0.000142045 1.24722e-05
-3.13864e-06 1.24722e-05 -0.000368473
0.000547586 8.24162e-06 -2.49088e-06
8.24162e-06 0.000566208 -4.72449e-06
-2.49088e-06 -4.72449e-06 0.000161073
0.00139113 2.86317e-05 -2.10448e-06
2.86317e-05 0.000727514 -1.86655e-06
-2.10448e-06 -1.86655e-06 0.000532058
0.000836576 -0.000165103 3.6207e-06
-0.000165103 0.000322316 2.10084e-06
3.6207e-06 2.10084e-06 0.000130786
0.000226635 -6.69952e-05 1.56437e-06
-6.69952e-05 -0.000137339 5.49913e-06
1.56437e-06 5.49913e-06 -0.000260296
0.000132628 -8.68005e-05 4.49323e-06
-8.68005e-05 -0.000127352 1.56083e-05
4.49323e-06 1.56083e-05 -0.000228406
0.000216097 -3.53511e-05 2.22001e-06
-3.53511e-05 -1.00631e-05 2.30572e-06
2.22001e-06 2.30572e-06 -0.000181758
0.000513982 -4.96444e-05 -1.11736e-07
-4.96444e-05 0.000115441 8.63808e-07
-1.11736e-07 8.63808e-07 -4.18518e-05
0.000260293 -5.21346e-05 -5.97813e-07
-5.21346e-05 -1.97035e-05 -1.7709e-06
-5.97813e-07 -1.7709e-06 -0.000149449
0.000519638 -7.27479e-05 -7.66127e-06
-7.27479e-05 0.000122346 -5.34842e-06
-7.66127e-06 -5.34842e-06 -1.01233e-05
0.000429231 -7.84661e-05 9.07303e-06
-7.84661e-05 0.000261839 -8.29875e-06
9.07303e-06 -8.29875e-06 9.32252e-05
0.00123941 -0.000265482 1.50784e-06
-0.000265482 0.000360303 4.82585e-06
1.50784e-06 4.82585e-06 0.000270845
0.000504702 -0.000134874 -1.49793e-05
-0.000134874 2.08052e-05 -4.52315e-07
-1.49793e-05 -4.52315e-07 -8.9822e-05
0.000489403 -0.000223477 7.49301e-06
-0.000223477 -2.40856e-05 6.70308e-06
7.49301e-06 6.70308e-06 -0.000193072
0.00233908 -0.00061 -3.40935e-06
-0.00061 0.00101986 2.24722e-05
-3.40935e-06 2.24722e-05 0.000657637
0.00185504 -0.000267337 4.25798e-06
-0.000267337 0.000848316 -1.0905e-05
4.25798e-06 -1.0905e-05 0.000644576
0.000559056 -0.000210049 -6.0377e-06
-0.000210049 9.26851e-06 -7.03854e-06
-6.0377e-06 -7.03854e-06 -0.000138763
0.00051549 -8.54353e-05 -3.23253e-07
-8.54353e-05 0.000103771 -1.06975e-06
-3.23253e-07 -1.06975e-06 -8.39643e-05
-0.000307466 -4.47636e-05 -7.79932e-07
-4.47636e-05 -0.000373819 -1.80058e-06
-7.79932e-07 -1.80058e-06 -0.000601043
0.00113872 -6.08225e-05 8.18073e-07
-6.08225e-05 0.00050453 1.58083e-06
8.18073e-07 1.58083e-06 0.000318624
0.000713565 -0.000140665 1.38104e-07
-0.000140665 0.000242872 1.32997e-07
1.38104e-07 1.32997e-07 4.69945e-05
0.000440119 -6.54334e-05 5.13049e-07
-6.54334e-05 5.59673e-07 1.42876e-06
5.13049e-07 1.42876e-06 -0.000130958
0.00145318 -0.000210738 -2.48686e-06
-0.000210738 0.000725487 -5.28429e-07
-2.48686e-06 -5.28429e-07 0.000534027
0.000691551 -0.000117145 -5.04421e-07
-0.000117145 0.000176234 3.17618e-08
-5.04421e-07 3.17618e-08 4.08367e-05
0.000511956 1.51378e-06 -1.5519e-06
1.51378e-06 3.43579e-05 3.60851e-06
-1.5519e-06 3.60851e-06 -5.17462e-05
0.000718986 -0.000135708 9.38863e-07
-0.000135708 0.000205202 -2.36993e-06
9.38863e-07 -2.36993e-06 6.65683e-05
0.000585582 -6.01984e-05 -9.07171e-08
-6.01984e-05 8.46499e-05 1.22884e-07
-9.07171e-08 1.22884e-07 -8.96396e-07
0.00144097 9.59935e-06 -1.28823e-05
9.59935e-06 0.000594395 7.81698e-06
-1.28823e-05 7.81698e-06 0.000570573
0.00053616 -7.14707e-05 1.74635e-06
-7.14707e-05 6.2957e-05 -4.87016e-06
1.74635e-06 -4.87016e-06 -2.37428e-05
0.00085765 -1.47465e-05 -9.23807e-06
-1.47465e-05 0.000231921 7.23571e-07
-9.23807e-06 7.23571e-07 0.000206733
0.000814223 2.1146e-05 1.21796e-06
2.1146e-05 0.000189849 3.00222e-06
1.21796e-06 3.00222e-06 0.000191198
0.000425294 -3.50157e-05 2.79164e-06
-3.50157e-05 -3.61745e-05 -5.26994e-06
2.79164e-06 -5.26994e-06 -6.25071e-05
0.00166475 2.00381e-05 1.18459e-05
2.00381e-05 0.000733896 -1.49456e-06
1.18459e-05 -1.49456e-06 0.000741925
0.00251649 1.03614e-05 1.30201e-05
1.03614e-05 0.00127432 -5.19156e-06
1.30201e-05 -5.19156e-06 0.001287
0.000483471 5.65248e-05 1.55084e-06
5.65248e-05 3.1772e-05 -6.5883e-07
1.55084e-06 -6.5883e-07 -7.29521e-05
0.000592519 6.65206e-05 -1.17935e-06
6.65206e-05 8.46368e-05 -2.03483e-06
-1.17935e-06 -2.03483e-06 2.64389e-05
0.000580162 4.87174e-06 7.21192e-07
4.87174e-06 0.000108496 8.45697e-07
7.21192e-07 8.45697e-07 4.41359e-06
0.000457189 5.55783e-06 1.93543e-06
5.55783e-06 -3.57956e-05 -3.7179e-06
1.93543e-06 -3.7179e-06 -4.64015e-05
0.000485396 5.60103e-05 -1.75408e-10
5.60103e-05 1.83313e-05 -1.85878e-07
-1.75408e-10 -1.85878e-07 -3.37577e-05
0.00050112 -0.00011447 -2.94779e-06
-0.00011447 6.07154e-05 8.13531e-07
-2.94779e-06 8.13531e-07 -3.75677e-05
0.00201264 1.015e-05 -7.26524e-06
1.015e-05 0.000950274 -4.8564e-06
-7.26524e-06 -4.8564e-06 0.000967807
0.000446475 6.32948e-06 -2.55772e-07
6.32948e-06 -4.28886e-05 2.91153e-08
-2.55772e-07 2.91153e-08 -5.28161e-05
0.000493052 -7.32473e-06 -1.59237e-06
-7.32473e-06 1.8085e-05 2.13938e-06
-1.59237e-06 2.13938e-06 -2.74838e-05
0.000460033 5.1896e-06 -1.75731e-06
5.1896e-06 -3.54249e-05 3.31253e-06
-1.75731e-06 3.31253e-06 -4.60585e-05
0.00204402 2.56875e-05 -5.51408e-06
2.56875e-05 0.000972674 -1.16053e-07
-5.51408e-06 -1.16053e-07 0.000988904
0.0020124 3.981e-05 -4.15142e-06
3.981e-05 0.000955556 4.74036e-06
-4.15142e-06 4.74036e-06 0.000970457
-0.00609804 -0.00192939 -0.000212921
-0.00192939 0.00624258 6.07588e-05
-0.000212921 6.07588e-05 0.00182754
0.00255825 0.00164094 -0.000298065
0.00164094 0.000995562 9.5662e-05
-0.000298065 9.5662e-05 -0.0014971
0.00292697 -0.00106707 -0.000644164
-0.00106707 0.00127252 0.000275294
-0.000644164 0.000275294 -0.00346461
0.00082156 0.00106909 0.00120667
0.00106909 0.00692451 -0.000336475
0.00120667 -0.000336475 0.00221599
0.00329144 0.000679189 -5.24268e-05
0.000679189 -0.000877138 1.15806e-05
-5.24268e-05 1.15806e-05 0.000166599
0.00306172 -0.000530196 9.49941e-05
-0.000530196 -0.000222742 1.04012e-05
9.49941e-05 1.04012e-05 -4.33195e-05
0.000985943 -0.000391389 0.000318443
-0.000391389 -0.00547845 -5.72957e-05
0.000318443 -5.72957e-05 -0.00686989
0.0240718 0.00364594 -0.0010044
0.00364594 0.0106398 7.20321e-05
-0.0010044 7.20321e-05 0.00716083
0.00807924 0.00993463 -0.00253494
0.00993463 0.00629997 0.00158722
-0.00253494 0.00158722 0.00216407
0.00498942 -0.000752269 3.53059e-05
-0.000752269 -0.000549551 5.08838e-06
3.53059e-05 5.08838e-06 0.000345234
0.00861925 -0.0026342 0.00018761
-0.0026342 -0.00236337 -0.000152616
0.00018761 -0.000152616 -0.00444707
0.020987 0.00607975 -0.000365785
0.00607975 0.00701616 -0.000120537
-0.000365785 -0.000120537 0.00247749
0.0162822 0.00476036 3.11809e-05
0.00476036 0.00392167 0.000428987
3.11809e-05 0.000428987 0.00109225
0.00179069 -0.00195921 -0.000121299
-0.00195921 -0.00345345 3.18885e-05
-0.000121299 3.18885e-05 -0.00198059
0.0065827 -0.00420046 0.000489215
-0.00420046 -0.000208708 -0.00023748
0.000489215 -0.00023748 -0.003841
0.00919152 0.00364633 5.90068e-05
0.00364633 0.00235009 -0.000885527
5.90068e-05 -0.000885527 -0.00235972
0.0090056 0.00056245 -0.000325654
0.00056245 -0.00191516 1.67512e-05
-0.000325654 1.67512e-05 -0.0013547
0.00248028 -8.30359e-05 9.81146e-07
-8.30359e-05 0.00143224 1.73996e-05
9.81146e-07 1.73996e-05 0.00115665
0.000287881 9.26122e-05 -1.58916e-06
9.26122e-05 -3.07828e-05 -2.21085e-06
-1.58916e-06 -2.21085e-06 -0.000175594
0.000518784 0.000105347 2.86371e-06
0.000105347 6.91697e-05 -8.47645e-07
2.86371e-06 -8.47645e-07 -3.25848e-05
9.44107e-05 -1.25886e-05 5.67966e-06
-1.25886e-05 -0.000140913 -3.4428e-06
5.67966e-06 -3.4428e-06 -0.00024394
0.000437908 0.000108433 3.90411e-06
0.000108433 2.96803e-05 6.5433e-06
3.90411e-06 6.5433e-06 -0.000154126
0.00045758 4.94232e-05 -3.44274e-08
4.94232e-05 5.87147e-05 1.90933e-06
-3.44274e-08 1.90933e-06 -9.64298e-05
0.000191667 2.50446e-05 1.51888e-06
2.50446e-05 -0.000110074 -3.74648e-06
1.51888e-06 -3.74648e-06 -0.000241697
0.000905018 0.000184355 5.387e-06
0.000184355 0.00034247 9.28584e-06
5.387e-06 9.28584e-06 0.00016419
0.000913613 0.000138924 -2.92936e-07
0.000138924 0.000358215 -4.67518e-07
-2.92936e-07 -4.67518e-07 0.00018274
0.000346863 -1.17983e-05 -3.66689e-06
-1.17983e-05 -1.98123e-05 -6.83698e-06
-3.66689e-06 -6.83698e-06 -0.000154663
0.000479168 -0.000509741 9.14568e-05
-0.000509741 -0.00134094 -4.84388e-05
9.14568e-05 -4.84388e-05 -0.000966746
0.000116422 -0.000662702 9.38586e-06
-0.000662702 -0.000964732 -6.67667e-06
9.38586e-06 -6.67667e-06 -0.000953116
0.00127351 -0.000931631 -1.41459e-05
-0.000931631 -0.000285985 2.22575e-05
-1.41459e-05 2.22575e-05 -0.00037512
-0.00109141 -0.000732809 3.392e-06
-0.000732809 -0.000968505 -2.63987e-06
3.392e-06 -2.63987e-06 -0.00130544
0.00340072 -0.000465835 -3.00151e-05
-0.000465835 0.0021266 7.24974e-05
-3.00151e-05 7.24974e-05 0.00158992
0.000902815 -0.000216289 -2.35874e-06
-0.000216289 0.000549046 7.0286e-06
-2.35874e-06 7.0286e-06 0.000231122
0.000405066 0.000123565 -2.04018e-06
0.000123565 0.000124286 -1.63861e-05
-2.04018e-06 -1.63861e-05 -0.000122132
0.000710867 -4.869e-05 -3.02904e-06
-4.869e-05 0.000314254 9.01254e-06
-3.02904e-06 9.01254e-06 3.38045e-05
0.00190804 -0.000901421 -1.40591e-05
-0.000901421 -0.000186707 -2.81625e-06
-1.40591e-05 -2.81625e-06 -0.000223697
0.000729138 -4.19863e-05 1.15767e-06
-4.19863e-05 0.000367733 4.62372e-06
1.15767e-06 4.62372e-06 8.55411e-05
0.00227926 -0.000324235 2.79317e-06
-0.000324235 0.00139051 -2.24586e-06
2.79317e-06 -2.24586e-06 0.000982365
0.00135058 -0.000791237 1.01743e-05
-0.000791237 -2.23492e-05 1.85081e-06
1.01743e-05 1.85081e-06 -5.34754e-05
0.000495253 -0.000667976 -3.53214e-05
-0.000667976 0.000241505 9.05289e-06
-3.53214e-05 9.05289e-06 -0.00014631
0.00215244 -0.00158488 6.93963e-05
-0.00158488 2.9451e-05 -2.72958e-05
6.93963e-05 -2.72958e-05 -0.000108924
-0.000245989 -0.000531667 -5.28209e-06
-0.000531667 -0.000359593 2.30761e-05
-5.28209e-06 2.30761e-05 -0.000448054
-0.00161616 -8.2864e-05 2.07368e-05
-8.2864e-05 -0.00071142 -1.91538e-06
2.07368e-05 -1.91538e-06 -0.00119441
0.000552006 5.26631e-05 -4.26534e-06
5.26631e-05 0.000204502 5.02719e-06
-4.26534e-06 5.02719e-06 -9.84983e-06
0.000415486 -4.91044e-05 4.28297e-06
-4.91044e-05 0.000298333 -3.72706e-06
4.28297e-06 -3.72706e-06 -3.56779e-05
0.00134216 0.000167574 -5.54158e-05
0.000167574 0.00196725 -2.15359e-05
-5.54158e-05 -2.15359e-05 -0.00230698
-0.00699803 0.000452774 -0.000412599
0.000452774 0.00678497 -2.09604e-05
-0.000412599 -2.09604e-05 0.00136268
-0.0135758 -0.00282349 -0.000807292
-0.00282349 -0.00508263 -6.36898e-06
-0.000807292 -6.36898e-06 -0.00626682
-0.000456914 0.000236628 1.22875e-05
0.000236628 -0.000369939 -3.95386e-06
1.22875e-05 -3.95386e-06 -0.000625957
-0.000858704 0.000523558 -2.22291e-06
0.000523558 -0.000579073 1.02606e-05
-2.22291e-06 1.02606e-05 -0.00101637
0.00247294 0.00108989 3.77777e-05
0.00108989 0.000674533 3.19581e-05
3.77777e-05 3.19581e-05 0.000486002
-0.00539117 0.00214255 9.647e-05
0.00214255 0.00680526 6.09716e-05
9.647e-05 6.09716e-05 0.00189309
0.00687012 0.00414148 -0.000345648
0.00414148 -9.86367e-05 -0.000186427
-0.000345648 -0.000186427 -0.00335974
0.00113384 0.00225188 0.000444683
0.00225188 4.47442e-05 0.000165987
0.000444683 0.000165987 -3.90922e-05
-0.000208659 0.000969845 1.10089e-05
0.000969845 -8.45514e-05 -4.87799e-05
1.10089e-05 -4.87799e-05 -0.000385953
0.0282733 -0.00396639 -0.000151449
-0.00396639 0.0094201 -0.000407511
-0.000151449 -0.000407511 0.00541132
0.00674766 0.00186223 0.000624034
0.00186223 0.00335182 0.00022254
0.000624034 0.00022254 -0.00261476
0.0139672 -0.00174086 0.000178206
-0.00174086 0.002472 4.06939e-05
0.000178206 4.06939e-05 0.0037775
0.00133874 0.000584695 4.46384e-06
0.000584695 0.000698712 -1.71894e-06
4.46384e-06 -1.71894e-06 0.000371533
0.00383838 0.000700464 -1.86498e-05
0.000700464 0.00337668 1.21243e-05
-1.86498e-05 1.21243e-05 -0.00050909
0.00182113 0.00086204 7.91041e-05
0.00086204 0.000155548 -2.73619e-06
7.91041e-05 -2.73619e-06 -0.00150497
-0.00047319 0.000524026 -1.8347e-06
0.000524026 -0.000121346 -5.43219e-06
-1.8347e-06 -5.43219e-06 -0.000474409
-0.00010352 0.00140101 -0.000125249
0.00140101 0.000718528 -6.38931e-05
-0.000125249 -6.38931e-05 -0.000553472
0.00171475 0.00514445 0.000244652
0.00514445 0.000905135 0.000118111
0.000244652 0.000118111 -0.00353707
0.0101833 -0.000168857 1.50475e-06
-0.000168857 -0.00348935 -0.00022066
1.50475e-06 -0.00022066 -0.000734615
0.00656365 -0.00267596 -8.36327e-05
-0.00267596 0.0038735 -0.000176581
-8.36327e-05 -0.000176581 -0.0014054
0.00106696 0.000471752 -8.30141e-06
0.000471752 0.000850116 -1.53742e-05
-8.30141e-06 -1.53742e-05 0.000471261
-0.00329916 0.000311368 1.84705e-05
0.000311368 0.000160744 3.42097e-05
1.84705e-05 3.42097e-05 -0.000474025
0.00549951 -0.000307314 0.00014061
-0.000307314 -0.000176656 -0.000155211
0.00014061 -0.000155211 -0.00152604
0.00882169 0.000713924 0.000312614
0.000713924 -0.00178258 -1.98836e-05
0.000312614 -1.98836e-05 -0.00117479
-0.00274673 0.000158912 4.51973e-05
0.000158912 -0.000114132 -2.73884e-05
4.51973e-05 -2.73884e-05 -0.000976966
0.0126094 0.00369954 0.000357248
0.00369954 0.00624856 9.27324e-05
0.000357248 9.27324e-05 0.000699129
0.00328088 -0.000652546 1.39959e-05
-0.000652546 0.00307787 0.00040821
1.39959e-05 0.00040821 -0.000792903
0.00317943 0.000486876 2.67608e-05
0.000486876 0.00194022 1.19225e-05
2.67608e-05 1.19225e-05 0.00166176
0.000407557 0.000232956 -6.44849e-06
0.000232956 0.0004462 -1.64742e-06
-6.44849e-06 -1.64742e-06 7.32954e-05
0.000244978 0.000200975 4.54377e-06
0.000200975 0.000512435 -3.61904e-06
4.54377e-06 -3.61904e-06 3.73901e-05
0.000375695 0.000134238 1.47638e-06
0.000134238 4.17703e-05 -2.25664e-06
1.47638e-06 -2.25664e-06 -0.000159308
0.000593787 9.73309e-05 1.0688e-06
9.73309e-05 0.000227946 1.7171e-06
1.0688e-06 1.7171e-06 3.87896e-05
0.000116274 -7.46585e-06 6.81596e-06
-7.46585e-06 0.000341447 -3.82414e-06
6.81596e-06 -3.82414e-06 -8.53273e-05
0.000481566 3.47085e-05 1.20984e-07
3.47085e-05 0.000143498 -8.19528e-07
1.20984e-07 -8.19528e-07 -3.33324e-05
0.000795611 -4.13957e-05 -7.34479e-07
-4.13957e-05 0.000726223 -2.50622e-06
-7.34479e-07 -2.50622e-06 0.000317249
-1.27385e-05 2.99345e-05 -1.15114e-07
2.99345e-05 0.000399792 -9.79252e-07
-1.15114e-07 -9.79252e-07 -0.000109173
-8.16272e-05 -3.08803e-05 -3.28083e-06
-3.08803e-05 0.000326903 1.2003e-05
-3.28083e-06 1.2003e-05 -0.000112327
0.00030826 -3.17974e-05 -1.57104e-06
-3.17974e-05 0.000371331 -7.47304e-06
-1.57104e-06 -7.47304e-06 5.26182e-05
5.75306e-05 -6.25438e-05 5.27854e-06
-6.25438e-05 -0.000138011 9.63971e-06
5.27854e-06 9.63971e-06 -0.00028678
0.00114258 -5.40038e-05 2.4576e-07
-5.40038e-05 0.000494273 3.79942e-06
2.4576e-07 3.79942e-06 0.000340219
0.00133921 -8.12015e-05 -1.65018e-05
-8.12015e-05 0.000644314 1.38095e-05
-1.65018e-05 1.38095e-05 0.000513898
0.000744889 -9.11343e-05 5.95945e-06
-9.11343e-05 0.000431121 -9.42829e-07
5.95945e-06 -9.42829e-07 0.000271896
0.000419318 -5.71299e-05 -1.39e-06
-5.71299e-05 6.26642e-05 -1.33207e-06
-1.39e-06 -1.33207e-06 -6.85093e-05
0.000641958 -0.000209727 -8.50322e-07
-0.000209727 0.000186191 4.08931e-06
-8.50322e-07 4.08931e-06 5.30056e-05
0.00025947 -0.000178335 -1.40768e-05
-0.000178335 -0.000122049 -6.78153e-07
-1.40768e-05 -6.78153e-07 -0.000171938
-0.000959354 -0.0002894 1.18211e-05
-0.0002894 -0.000806748 2.2107e-05
1.18211e-05 2.2107e-05 -0.00110861
2.88771e-07 -0.000155029 5.26376e-06
-0.000155029 -0.000265199 -3.06349e-07
5.26376e-06 -3.06349e-07 -0.000379107
0.00116227 -0.000304234 -4.28566e-06
-0.000304234 0.000373558 1.19214e-05
-4.28566e-06 1.19214e-05 0.000180475
0.00206235 -0.000604793 -6.46989e-06
-0.000604793 0.000850856 1.44329e-05
-6.46989e-06 1.44329e-05 0.000462379
0.00176015 -0.000586287 -7.15305e-06
-0.000586287 0.000562279 -7.20046e-07
-7.15305e-06 -7.20046e-07 0.000151111
0.00169707 -0.000412537 1.02091e-06
-0.000412537 0.000701024 1.15691e-06
1.02091e-06 1.15691e-06 0.00044533
0.000526676 -0.000374652 9.10119e-06
-0.000374652 -9.87666e-05 -4.18459e-06
9.10119e-06 -4.18459e-06 -0.000394154
0.00125555 -0.000187765 2.73551e-06
-0.000187765 0.000582442 -3.58151e-06
2.73551e-06 -3.58151e-06 0.000305349
0.00114779 -0.000232178 -8.69104e-06
-0.000232178 0.000457907 2.0074e-06
-8.69104e-06 2.0074e-06 0.000242923
-0.000302692 -0.000123034 1.63745e-05
-0.000123034 -0.000502596 -1.69883e-05
1.63745e-05 -1.69883e-05 -0.000604353
0.00126257 -0.00011974 -2.03185e-06
-0.00011974 0.000537953 2.17684e-06
-2.03185e-06 2.17684e-06 0.000350058
0.000272746 -8.93239e-05 8.35183e-07
-8.93239e-05 -2.09358e-05 -7.98795e-08
8.35183e-07 -7.98795e-08 -0.000245576
0.000329284 -5.6343e-05 1.17427e-06
-5.6343e-05 -6.50216e-05 7.47742e-07
1.17427e-06 7.47742e-07 -0.000218377
0.00161172 -0.00025168 -1.90503e-06
-0.00025168 0.000809023 -2.24666e-07
-1.90503e-06 -2.24666e-07 0.00059767
0.000671435 -0.000105879 -3.60505e-07
-0.000105879 0.000162434 -8.48011e-08
-3.60505e-07 -8.48011e-08 1.59581e-05
0.000383865 7.38932e-06 2.59975e-06
7.38932e-06 -3.40211e-05 4.53694e-06
2.59975e-06 4.53694e-06 -0.000135722
0.000802999 -0.000146666 -2.28696e-08
-0.000146666 0.000258732 -2.19538e-06
-2.28696e-08 -2.19538e-06 0.00011198
0.000470716 5.56926e-06 -2.19083e-06
5.56926e-06 1.90789e-05 -1.93131e-07
-2.19083e-06 -1.93131e-07 -7.47383e-05
0.00143783 3.95085e-06 -1.82579e-05
3.95085e-06 0.000592528 5.51634e-06
-1.82579e-05 5.51634e-06 0.00056692
0.000587502 -6.90776e-05 2.26136e-06
-6.90776e-05 9.1127e-05 -4.65689e-06
2.26136e-06 -4.65689e-06 2.4518e-06
0.000875746 -1.0641e-05 -9.02838e-06
-1.0641e-05 0.000237964 5.45669e-07
-9.02838e-06 5.45669e-07 0.000211359
0.000839874 3.12771e-05 4.79455e-07
3.12771e-05 0.000203482 3.17189e-06
4.79455e-07 3.17189e-06 0.000202436
0.000444872 -2.77603e-05 2.89978e-06
-2.77603e-05 -3.08756e-05 -6.24721e-06
2.89978e-06 -6.24721e-06 -5.87735e-05
0.00173618 3.22546e-05 1.48704e-05
3.22546e-05 0.000776371 -1.23907e-06
1.48704e-05 -1.23907e-06 0.000783037
0.00254395 2.41863e-05 1.80652e-05
2.41863e-05 0.00128906 -5.50802e-06
1.80652e-05 -5.50802e-06 0.00130145
0.000310999 1.98181e-05 1.86592e-06
1.98181e-05 -5.92914e-05 2.39518e-06
1.86592e-06 2.39518e-06 -0.000194613
0.000138816 2.11111e-05 1.26455e-07
2.11111e-05 -0.000205985 -3.66703e-06
1.26455e-07 -3.66703e-06 -0.000271344
0.000616104 5.53809e-05 1.28689e-07
5.53809e-05 0.000126712 2.28467e-07
1.28689e-07 2.28467e-07 1.12995e-05
0.00045836 5.70886e-06 1.70476e-06
5.70886e-06 -3.71727e-05 -3.88991e-06
1.70476e-06 -3.88991e-06 -4.92889e-05
0.000319509 7.57354e-06 1.64693e-06
7.57354e-06 -9.38187e-05 5.03394e-08
1.64693e-06 5.03394e-08 -0.000149168
0.000230962 -9.42154e-05 -9.99376e-07
-9.42154e-05 -0.000113765 -6.89483e-07
-9.99376e-07 -6.89483e-07 -0.000217234
0.00206486 -3.90577e-06 -1.19781e-05
-3.90577e-06 0.000982347 -4.88408e-06
-1.19781e-05 -4.88408e-06 0.000999919
0.000453198 4.43688e-06 1.56043e-08
4.43688e-06 -3.91578e-05 -6.7043e-08
1.56043e-08 -6.7043e-08 -4.94712e-05
0.000425087 -1.44564e-05 -3.00824e-06
-1.44564e-05 -2.50364e-05 2.37035e-06
-3.00824e-06 2.37035e-06 -7.36604e-05
0.00203065 1.15349e-05 -4.75765e-06
1.15349e-05 0.000962115 6.24676e-09
-4.75765e-06 6.24676e-09 0.000979409
0.00044701 5.51747e-06 -1.59008e-06
5.51747e-06 -4.19269e-05 3.27475e-06
-1.59008e-06 3.27475e-06 -5.19324e-05
0.00200822 2.66957e-05 2.08929e-06
2.66957e-05 0.000949967 4.89666e-06
2.08929e-06 4.89666e-06 0.00096621
-0.000420829 -0.000903654 -0.000264602
-0.000903654 -0.000128465 0.000104961
-0.000264602 0.000104961 -0.00354093
0.0021063 0.000785808 -0.000131038
0.000785808 0.00812325 2.84172e-05
-0.000131038 2.84172e-05 0.00355614
0.00267048 7.46082e-05 -0.000972896
7.46082e-05 0.00401865 0.000209642
-0.000972896 0.000209642 0.00206287
0.0007219 0.000124279 6.3928e-06
0.000124279 0.000196389 7.10835e-06
6.3928e-06 7.10835e-06 3.71495e-05
0.0053372 -0.00101673 -0.000113849
-0.00101673 0.00333275 0.00025862
-0.000113849 0.00025862 0.00109031
0.00418926 -0.00136363 -0.000289765
-0.00136363 0.00178405 2.82878e-05
-0.000289765 2.82878e-05 -0.00296569
0.0125912 0.00397952 0.000343974
0.00397952 0.00839374 -0.00037507
0.000343974 -0.00037507 0.00360573
0.00749917 -0.00118786 0.000132443
-0.00118786 0.000690284 -2.24539e-05
0.000132443 -2.24539e-05 0.00113295
0.013223 -0.00254459 0.00028237
-0.00254459 0.00092142 -0.000156007
0.00028237 -0.000156007 2.96455e-05
0.0108565 0.00503048 -0.000737477
0.00503048 0.00150656 0.000436372
-0.000737477 0.000436372 -0.00267872
0.0143719 0.00446625 0.000140711
0.00446625 0.00574106 0.000245003
0.000140711 0.000245003 0.00280739
0.00771734 -0.00249839 -0.000118489
-0.00249839 0.000100429 -3.8665e-06
-0.000118489 -3.8665e-06 0.000747558
0.0169499 -0.00461883 2.77029e-05
-0.00461883 0.00365375 -3.67885e-05
2.77029e-05 -3.67885e-05 0.00113819
0.00910057 0.00293708 0.000139783
0.00293708 0.00377074 -0.000375224
0.000139783 -0.000375224 -0.00105
0.0127942 0.00127686 8.20478e-06
0.00127686 -1.4463e-05 4.47354e-05
8.20478e-06 4.47354e-05 -0.000112431
0.00275797 -0.00255186 -6.95099e-05
-0.00255186 1.31755e-05 8.48682e-05
-6.95099e-05 8.48682e-05 0.00013792
0.0104298 -0.00473245 0.000183772
-0.00473245 0.00442696 -0.0001128
0.000183772 -0.0001128 0.000129292
0.0101642 -0.000308161 0.000122054
-0.000308161 0.00515259 -0.00047332
0.000122054 -0.00047332 0.0019081
0.0125528 0.000219885 -0.00015227
0.000219885 -0.00122954 0.000270509
-0.00015227 0.000270509 0.000766591
0.000387529 7.79383e-05 6.01996e-06
7.79383e-05 9.26342e-05 1.32857e-05
6.01996e-06 1.32857e-05 -0.000120722
0.00067289 -0.000130168 5.68234e-07
-0.000130168 0.000285706 -2.51681e-08
5.68234e-07 -2.51681e-08 3.93881e-05
0.000829631 0.000118438 2.17569e-06
0.000118438 0.000327433 -4.88886e-06
2.17569e-06 -4.88886e-06 0.000170066
0.000512179 0.000141906 3.77059e-06
0.000141906 4.29533e-05 1.34066e-05
3.77059e-06 1.34066e-05 -0.000101184
0.000827826 0.000197862 2.27182e-07
0.000197862 0.000306099 4.11196e-07
2.27182e-07 4.11196e-07 0.0001084
0.00107941 0.000112989 -4.4311e-06
0.000112989 0.000469693 -5.36168e-06
-4.4311e-06 -5.36168e-06 0.000305952
0.0010571 0.000178775 -1.55469e-06
0.000178775 0.000442483 3.26064e-08
-1.55469e-06 3.26064e-08 0.000260642
0.00106329 0.00018897 1.26556e-06
0.00018897 0.000470987 1.47138e-06
1.26556e-06 1.47138e-06 0.000284821
0.000759508 -0.00069056 0.000129753
-0.00069056 -0.000876077 -7.08306e-05
0.000129753 -7.08306e-05 -0.000694833
0.000207581 -0.000701537 -3.17489e-05
-0.000701537 -0.000737241 -9.78696e-07
-3.17489e-05 -9.78696e-07 -0.000680167
0.00093378 -0.000228213 4.47092e-06
-0.000228213 0.00047163 -3.06867e-05
4.47092e-06 -3.06867e-05 0.000173761
0.00186099 -0.000721746 2.17026e-05
-0.000721746 0.000963186 -2.26202e-05
2.17026e-05 -2.26202e-05 0.000614292
0.00245287 -0.000491943 -2.23654e-05
-0.000491943 0.00143483 2.27103e-05
-2.23654e-05 2.27103e-05 0.00103198
0.00165895 -0.000167604 6.23076e-06
-0.000167604 0.00093177 -2.27506e-05
6.23076e-06 -2.27506e-05 0.000631103
7.5151e-05 -3.5238e-06 3.50301e-06
-3.5238e-06 -9.7827e-05 7.27476e-06
3.50301e-06 7.27476e-06 -0.000308133
0.0006445 -0.00131507 -9.66239e-06
-0.00131507 -0.000586376 -5.3187e-06
-9.66239e-06 -5.3187e-06 -0.000715244
0.00135119 -2.24345e-05 -8.05274e-07
-2.24345e-05 0.000871746 -6.39795e-07
-8.05274e-07 -6.39795e-07 0.000532352
0.00015122 -0.0002389 -4.17392e-06
-0.0002389 0.00024463 6.13907e-06
-4.17392e-06 6.13907e-06 -0.000200846
-0.000427161 -0.00042478 2.33433e-05
-0.00042478 -0.000512752 -3.28344e-07
2.33433e-05 -3.28344e-07 -0.000494184
0.000879146 0.000118712 3.00106e-06
0.000118712 0.000408041 7.44323e-06
3.00106e-06 7.44323e-06 0.000214397
0.000160063 -0.00123987 -6.37781e-05
-0.00123987 -0.000186718 -2.42444e-05
-6.37781e-05 -2.42444e-05 -0.000518168
-0.000989567 -0.000447404 -2.05194e-05
-0.000447404 -0.000476306 2.87689e-05
-2.05194e-05 2.87689e-05 -0.000795593
0.000101277 0.000153629 1.54027e-05
0.000153629 0.0004179 -2.42802e-05
1.54027e-05 -2.42802e-05 -0.000103442
0.00153707 0.000257501 -1.1725e-06
0.000257501 0.00103195 1.46527e-07
-1.1725e-06 1.46527e-07 0.000706083
-0.00120181 0.000115122 0.000137048
0.000115122 0.00177451 2.95812e-05
0.000137048 2.95812e-05 0.000706249
0.000347542 -7.54661e-06 0.000168936
-7.54661e-06 0.00125853 -3.51379e-05
0.000168936 -3.51379e-05 -0.00306892
-0.012122 -0.000386065 -0.000298176
-0.000386065 0.00628535 2.82423e-05
-0.000298176 2.82423e-05 0.000552598
0.00174406 0.000610135 2.05754e-05
0.000610135 0.00102162 4.01028e-06
2.05754e-05 4.01028e-06 0.000687587
-0.000644874 0.000739172 1.31592e-05
0.000739172 -0.000246396 1.07112e-05
1.31592e-05 1.07112e-05 -0.000723797
0.00564033 0.000942818 0.000356809
0.000942818 0.00394307 7.35044e-05
0.000356809 7.35044e-05 0.00122748
0.00859358 0.00403964 0.000254173
0.00403964 0.00309755 0.000208319
0.000254173 0.000208319 -0.0010526
0.00448647 0.00271311 -0.000112938
0.00271311 0.00251196 -0.000108126
-0.000112938 -0.000108126 0.00105967
0.0043644 -0.00231437 -0.000173474
-0.00231437 0.00442392 -0.000470158
-0.000173474 -0.000470158 0.000308012
0.00292305 0.000700899 0.000141517
0.000700899 0.000436039 0.000185354
0.000141517 0.000185354 -0.00121314
0.00805326 -0.00029974 -5.42198e-05
-0.00029974 -0.00546025 -0.000246709
-5.42198e-05 -0.000246709 -0.00229501
0.00100017 0.00054732 5.66354e-06
0.00054732 0.00076813 1.38021e-06
5.66354e-06 1.38021e-06 0.000355236
-0.00273093 0.000148483 -2.79928e-06
0.000148483 0.000251989 3.65782e-06
-2.79928e-06 3.65782e-06 -0.000526661
0.00475138 -0.000168471 0.000125272
-0.000168471 -0.000228051 2.1167e-05
0.000125272 2.1167e-05 -0.000957572
-0.00182328 0.000472951 -1.52973e-05
0.000472951 -0.000228527 -1.16125e-05
-1.52973e-05 -1.16125e-05 -0.0010014
0.0125213 0.00143151 -2.52089e-06
0.00143151 -8.63435e-06 -4.80545e-05
-2.52089e-06 -4.80545e-05 -0.000130808
0.00292512 0.00208594 0.00024382
0.00208594 0.00411708 0.000147103
0.00024382 0.000147103 -0.00173799
0.00783033 0.000708243 -0.00018327
0.000708243 0.00335067 5.54751e-06
-0.00018327 5.54751e-06 -0.000569931
0.000308966 0.000465088 7.91099e-06
0.000465088 0.000542949 -2.36975e-05
7.91099e-06 -2.36975e-05 -1.60359e-05
0.00167613 -2.46846e-05 1.38639e-06
-2.46846e-05 0.000464601 -1.13675e-05
1.38639e-06 -1.13675e-05 -0.000120482
0.00400793 -0.00134813 9.82532e-05
-0.00134813 0.00332298 -0.000252869
9.82532e-05 -0.000252869 0.00135954
0.0215992 0.00519894 0.000324073
0.00519894 0.00685448 -0.000297844
0.000324073 -0.000297844 0.00413609
0.0094822 -0.000202702 -0.000122013
-0.000202702 0.0053459 0.000490991
-0.000122013 0.000490991 0.00180723
-9.39155e-05 0.000456728 -3.23712e-05
0.000456728 0.000731064 -0.000136701
-3.23712e-05 -0.000136701 -1.78069e-05
0.00453527 0.00141331 0.000272939
0.00141331 0.00642706 2.69472e-05
0.000272939 2.69472e-05 -0.00215053
0.00125249 0.000363259 8.53244e-06
0.000363259 0.000929466 1.1642e-05
8.53244e-06 1.1642e-05 0.000537882
0.000671089 0.000266803 4.18584e-06
0.000266803 0.000759005 3.1653e-06
4.18584e-06 3.1653e-06 0.000303628
0.000543283 -3.95565e-05 -1.38071e-05
-3.95565e-05 0.000845457 5.5326e-06
-1.38071e-05 5.5326e-06 0.000445508
-0.000700685 -2.55071e-05 1.99888e-06
-2.55071e-05 -0.000606061 8.05087e-07
1.99888e-06 8.05087e-07 -0.000766372
0.000146314 -2.37457e-05 4.2848e-06
-2.37457e-05 0.000375361 9.76635e-07
4.2848e-06 9.76635e-07 -6.75001e-05
-4.92138e-05 4.59286e-05 3.35827e-06
4.59286e-05 0.000397907 -5.89303e-06
3.35827e-06 -5.89303e-06 -0.000122177
0.000126659 -2.84115e-05 1.32736e-07
-2.84115e-05 0.00020188 7.99179e-07
1.32736e-07 7.99179e-07 -6.35074e-05
-8.61482e-05 -4.51407e-05 3.00209e-06
-4.51407e-05 0.000312139 1.20194e-06
3.00209e-06 1.20194e-06 -0.000126862
0.00168758 -0.00040214 5.04358e-06
-0.00040214 0.00112706 -1.05496e-05
5.04358e-06 -1.05496e-05 0.000785563
0.000654533 -8.78425e-05 -6.10908e-06
-8.78425e-05 0.000360133 6.2062e-06
-6.10908e-06 6.2062e-06 0.000208739
0.000126335 1.13948e-06 -2.85279e-07
1.13948e-06 -0.000114306 2.36165e-06
-2.85279e-07 2.36165e-06 -0.000243972
0.00133966 -0.000298069 4.98735e-07
-0.000298069 0.000609295 5.76376e-06
4.98735e-07 5.76376e-06 0.000437573
-0.00332478 -7.77266e-05 1.89823e-05
-7.77266e-05 -0.0020016 2.27768e-05
1.89823e-05 2.27768e-05 -0.00234049
-0.00054792 -0.000102044 1.49922e-05
-0.000102044 -0.000520669 -1.97012e-06
1.49922e-05 -1.97012e-06 -0.000534078
-0.000105607 -0.000346319 -1.19222e-06
-0.000346319 -0.000341103 -5.70975e-06
-1.19222e-06 -5.70975e-06 -0.000606031
0.00138445 -0.000583951 -1.47664e-06
-0.000583951 0.000403448 3.63121e-07
-1.47664e-06 3.63121e-07 -8.64438e-05
0.0017342 -0.000691749 -9.41503e-06
-0.000691749 0.000501961 1.00542e-06
-9.41503e-06 1.00542e-06 3.68879e-05
0.00162169 -0.000369326 6.26855e-06
-0.000369326 0.000639438 -4.61686e-06
6.26855e-06 -4.61686e-06 0.000425008
0.00133992 -0.000518592 6.41467e-07
-0.000518592 0.000399723 4.38167e-07
6.41467e-07 4.38167e-07 2.08585e-05
0.00162768 -0.000591405 3.39307e-06
-0.000591405 0.000443398 -3.97935e-06
3.39307e-06 -3.97935e-06 3.91114e-05
0.00142821 -0.000439834 -2.60834e-06
-0.000439834 0.000429608 8.44283e-06
-2.60834e-06 8.44283e-06 0.000112073
0.00106857 -0.000497757 2.28232e-06
-0.000497757 0.000145728 -4.56515e-06
2.28232e-06 -4.56515e-06 -0.00023739
0.000835917 -0.000190186 6.5312e-07
-0.000190186 0.000257815 -5.92341e-06
6.5312e-07 -5.92341e-06 -5.22894e-06
0.00106559 -0.000362339 -5.57639e-06
-0.000362339 0.00031693 2.96977e-06
-5.57639e-06 2.96977e-06 5.52386e-05
-0.000940857 -0.000179088 1.45947e-06
-0.000179088 -0.000994476 -9.95749e-06
1.45947e-06 -9.95749e-06 -0.00123254
-4.40943e-05 -6.13608e-05 5.73595e-07
-6.13608e-05 -0.000265047 -2.62875e-06
5.73595e-07 -2.62875e-06 -0.000474926
0.000301669 -0.000145418 2.35098e-07
-0.000145418 1.71191e-05 2.05516e-07
2.35098e-07 2.05516e-07 -0.000258588
0.000177156 -0.000183363 1.25536e-05
-0.000183363 -9.19047e-05 7.94506e-07
1.25536e-05 7.94506e-07 -0.000318392
0.000675268 -0.000138654 6.04512e-08
-0.000138654 0.000219881 1.78958e-06
6.04512e-08 1.78958e-06 -9.6593e-08
0.000701934 -0.000125873 1.0414e-07
-0.000125873 0.000183817 3.63621e-07
1.0414e-07 3.63621e-07 1.3275e-05
0.000527979 -1.03256e-05 1.36195e-06
-1.03256e-05 4.58571e-05 6.2264e-06
1.36195e-06 6.2264e-06 -6.53248e-05
0.00109003 -0.000162658 -1.33653e-06
-0.000162658 0.000444237 -1.0986e-06
-1.33653e-06 -1.0986e-06 0.00028027
0.000589695 -1.65483e-05 -1.24106e-06
-1.65483e-05 8.28431e-05 -3.36933e-07
-1.24106e-06 -3.36933e-07 -1.30081e-05
0.000385995 4.97105e-05 2.66184e-06
4.97105e-05 -6.27746e-05 7.3651e-06
2.66184e-06 7.3651e-06 -0.000101886
0.00070567 -7.10814e-05 1.53802e-06
-7.10814e-05 0.000157511 -3.79965e-06
1.53802e-06 -3.79965e-06 6.64365e-05
0.000447133 -8.23635e-07 -1.56025e-06
-8.23635e-07 -3.57039e-05 -6.62778e-08
-1.56025e-06 -6.62778e-08 -6.76273e-05
0.00264705 9.22562e-05 -1.82663e-06
9.22562e-05 0.00135623 2.67768e-06
-1.82663e-06 2.67768e-06 0.00136021
0.000470608 -1.97214e-05 2.97732e-06
-1.97214e-05 -1.91819e-05 -6.40268e-06
2.97732e-06 -6.40268e-06 -4.91551e-05
0.00177421 4.58496e-05 1.79311e-05
4.58496e-05 0.000799795 -1.04159e-06
1.79311e-05 -1.04159e-06 0.000804378
0.00263209 4.02769e-05 2.50891e-05
4.02769e-05 0.00134348 -5.7338e-06
2.50891e-05 -5.7338e-06 0.00135483
0.000260175 2.53825e-05 2.43759e-06
2.53825e-05 -0.000110039 1.74131e-06
2.43759e-06 1.74131e-06 -0.000233341
0.000210857 1.07302e-05 1.8159e-06
1.07302e-05 -0.000162269 -2.48769e-06
1.8159e-06 -2.48769e-06 -0.000238796
0.000456168 3.77028e-05 -5.48603e-07
3.77028e-05 2.66017e-05 -1.27276e-06
-5.48603e-07 -1.27276e-06 -0.000101567
0.00048129 6.7853e-06 1.58735e-06
6.7853e-06 -2.33256e-05 -4.36324e-06
1.58735e-06 -4.36324e-06 -3.84141e-05
0.000184152 1.79105e-05 -6.42143e-07
1.79105e-05 -0.000178215 -1.77648e-06
-6.42143e-07 -1.77648e-06 -0.000245685
0.00066251 5.87364e-05 -1.91155e-07
5.87364e-05 0.00016931 1.21002e-06
-1.91155e-07 1.21002e-06 4.45861e-05
0.00208866 -1.74889e-05 -1.72956e-05
-1.74889e-05 0.000996087 -4.79583e-06
-1.72956e-05 -4.79583e-06 0.0010135
0.000460991 3.54575e-06 -7.08714e-07
3.54575e-06 -3.60323e-05 -7.49829e-08
-7.08714e-07 -7.49829e-08 -4.77904e-05
9.97064e-05 1.70197e-05 1.47621e-06
1.70197e-05 -0.000229446 1.85531e-06
1.47621e-06 1.85531e-06 -0.000288703
0.00205269 -2.74968e-06 -4.11012e-06
-2.74968e-06 0.000974551 5.25165e-08
-4.11012e-06 5.25165e-08 0.000992218
0.000443012 3.88782e-06 -1.85335e-06
3.88782e-06 -4.61936e-05 3.52267e-06
-1.85335e-06 3.52267e-06 -5.6149e-05
0.00207716 1.31018e-05 7.70564e-06
1.31018e-05 0.000992066 4.96283e-06
7.70564e-06 4.96283e-06 0.00100892
0.000483874 -5.13916e-05 0.000150598
-5.13916e-05 0.00252184 6.57293e-05
0.000150598 6.57293e-05 0.00170588
-0.000330073 -0.000423344 -5.74469e-05
-0.000423344 0.000433557 -8.63738e-06
-5.74469e-05 -8.63738e-06 -0.0036468
0.00020237 0.000772059 -6.52646e-05
0.000772059 0.00774391 -5.29124e-05
-6.52646e-05 -5.29124e-05 0.00297117
0.000782219 0.000137999 7.73709e-07
0.000137999 0.00022048 2.12965e-07
7.73709e-07 2.12965e-07 7.33541e-05
0.000126683 8.69103e-05 6.73914e-06
8.69103e-05 -0.000198748 5.18164e-06
6.73914e-06 5.18164e-06 -0.000333076
0.00114624 0.000204817 1.11943e-05
0.000204817 0.000452552 9.16041e-06
1.11943e-05 9.16041e-06 0.0003019
0.00649235 -0.000480585 -0.000123385
-0.000480585 -0.000347241 0.000223118
-0.000123385 0.000223118 -0.00153938
0.00530081 -0.00124817 0.00010551
-0.00124817 0.0029835 1.10097e-05
0.00010551 1.10097e-05 0.00143886
0.00463584 -0.00201106 0.000220454
-0.00201106 0.00193232 -0.000274562
0.000220454 -0.000274562 -0.00286711
0.00911598 -0.00301375 -5.97427e-06
-0.00301375 0.000150546 -3.93979e-05
-5.97427e-06 -3.93979e-05 0.000979477
0.0013092 -0.00367933 -0.000468931
-0.00367933 -0.00214202 9.05007e-05
-0.000468931 9.05007e-05 -0.00455186
0.0267342 0.00460392 0.000278973
0.00460392 0.0113254 0.00018971
0.000278973 0.00018971 0.00583479
0.00761258 -0.000269358 0.000326353
-0.000269358 -0.0025303 -0.000255744
0.000326353 -0.000255744 -0.00291509
0.00396743 -0.002955 -2.94897e-05
-0.002955 -0.000193915 1.79489e-05
-2.94897e-05 1.79489e-05 0.000412494
0.00735386 -0.0047079 -0.000137519
-0.0047079 0.00269542 2.11614e-05
-0.000137519 2.11614e-05 -0.00212553
-0.0010566 0.00393266 -9.4319e-05
0.00393266 0.0044167 -0.00032734
-9.4319e-05 -0.00032734 -0.000793685
0.0105625 -1.52502e-05 -8.88051e-05
-1.52502e-05 -0.00344866 0.000152624
-8.88051e-05 0.000152624 -0.000715501
0.00124909 -0.00210734 -0.000114005
-0.00210734 0.00101598 4.84831e-05
-0.000114005 4.84831e-05 0.000574582
0.01086 -0.00332776 -0.000324557
-0.00332776 0.00597245 0.000194109
-0.000324557 0.000194109 0.000748851
0.000639262 -0.000196167 6.11432e-05
-0.000196167 0.00267118 -0.000343924
6.11432e-05 -0.000343924 -0.00132572
0.00931927 -0.0006709 0.00012947
-0.0006709 -0.00193529 7.88891e-05
0.00012947 7.88891e-05 -0.00126055
0.000168908 0.000102103 1.06735e-05
0.000102103 -0.000115276 2.30617e-05
1.06735e-05 2.30617e-05 -0.000256932
0.000676285 -1.41169e-06 2.53987e-06
-1.41169e-06 0.000248969 -2.97085e-06
2.53987e-06 -2.97085e-06 2.65263e-05
0.000315339 -0.000164828 2.58804e-06
-0.000164828 -1.76841e-05 -1.18929e-05
2.58804e-06 -1.18929e-05 -0.000224426
0.00064577 0.000141623 -1.92073e-06
0.000141623 0.000131567 1.79892e-06
-1.92073e-06 1.79892e-06 -2.00276e-05
0.000769201 0.000150123 1.89286e-06
0.000150123 0.000273592 -7.2615e-06
1.89286e-06 -7.2615e-06 8.63767e-05
0.00116376 0.000201224 -4.82509e-06
0.000201224 0.000510811 -5.72016e-06
-4.82509e-06 -5.72016e-06 0.000328039
-0.000156855 -0.00113314 3.77119e-05
-0.00113314 -0.000899738 -1.7153e-05
3.77119e-05 -1.7153e-05 -0.0010035
0.000973559 -0.000403643 2.27165e-05
-0.000403643 0.000252967 -2.26763e-05
2.27165e-05 -2.26763e-05 0.000298384
0.000119377 9.5708e-05 -2.15698e-06
9.5708e-05 -5.85245e-05 -1.93427e-05
-2.15698e-06 -1.93427e-05 -0.000286011
0.00249684 -0.000494092 6.53789e-05
-0.000494092 0.00152347 -2.70731e-05
6.53789e-05 -2.70731e-05 0.00112311
0.00180097 -0.000144929 1.87555e-07
-0.000144929 0.00108837 1.91223e-06
1.87555e-07 1.91223e-06 0.000783702
-0.000157835 9.91888e-05 4.27332e-06
9.91888e-05 -0.000164582 4.17661e-06
4.27332e-06 4.17661e-06 -0.000383411
0.000463475 9.57721e-05 1.02893e-06
9.57721e-05 0.000348045 -1.38074e-07
1.02893e-06 -1.38074e-07 7.21203e-05
0.000799823 -0.00131825 -4.25962e-05
-0.00131825 8.62274e-05 2.55982e-06
-4.25962e-05 2.55982e-06 -0.000334502
0.000203101 -3.69989e-05 -5.34891e-06
-3.69989e-05 0.000520031 3.77947e-06
-5.34891e-06 3.77947e-06 -2.0517e-05
0.000939576 -0.000388329 -7.03396e-06
-0.000388329 0.00068643 -7.44097e-06
-7.03396e-06 -7.44097e-06 0.000270232
0.000602677 0.000168537 4.50814e-06
0.000168537 0.000418061 -1.04602e-05
4.50814e-06 -1.04602e-05 0.000163286
-0.0019103 -0.000323284 -4.30597e-05
-0.000323284 -4.45805e-05 -1.80287e-05
-4.30597e-05 -1.80287e-05 -0.000988302
0.000864365 -0.00024244 -3.13229e-05
-0.00024244 0.00101122 4.75364e-06
-3.13229e-05 4.75364e-06 0.000547878
-0.000965202 9.85497e-06 -1.30396e-05
9.85497e-06 -3.77824e-05 1.71471e-06
-1.30396e-05 1.71471e-06 -0.000550781
-0.000167996 0.0002362 -1.237e-05
0.0002362 -0.000585054 3.14575e-06
-1.237e-05 3.14575e-06 -0.00198546
-0.00191505 0.00025141 6.94392e-05
0.00025141 0.00150498 -1.20198e-05
6.94392e-05 -1.20198e-05 0.000408146
-0.000542011 -0.000153706 0.000354493
-0.000153706 0.000618179 3.23339e-05
0.000354493 3.23339e-05 -0.0037002
0.00017067 0.000529007 4.42247e-06
0.000529007 0.000266177 1.77947e-05
4.42247e-06 1.77947e-05 -0.000172923
0.000190481 0.000837944 -2.40043e-05
0.000837944 0.000416615 -1.24758e-05
-2.40043e-05 -1.24758e-05 -0.000274619
-0.00246305 9.98261e-05 -5.39543e-05
9.98261e-05 0.000338698 -2.55296e-05
-5.39543e-05 -2.55296e-05 -0.000586529
-0.004841 0.000726171 7.69493e-05
0.000726171 0.0027522 0.000199257
7.69493e-05 0.000199257 -0.00279371
0.000170452 0.0010886 -0.000175791
0.0010886 -0.00150957 -0.000494758
-0.000175791 -0.000494758 -0.00634129
0.00396146 -1.97367e-05 9.17538e-05
-1.97367e-05 -0.000332458 8.99814e-05
9.17538e-05 8.99814e-05 -0.000515708
0.00699612 -7.16782e-05 -0.000320321
-7.16782e-05 -0.00240565 0.000253706
-0.000320321 0.000253706 -0.00297099
0.000182863 0.000379969 -9.53729e-07
0.000379969 0.000515845 -5.91988e-07
-9.53729e-07 -5.91988e-07 3.10212e-05
0.00111553 3.64924e-05 3.46551e-05
3.64924e-05 0.000387781 -8.63035e-06
3.46551e-05 -8.63035e-06 -0.000178464
0.00441302 -0.000961837 -0.000100891
-0.000961837 0.00296603 -1.4907e-06
-0.000100891 -1.4907e-06 0.00137127
-0.000510293 0.000712958 -0.000142044
0.000712958 0.00122095 -7.80457e-06
-0.000142044 -7.80457e-06 -0.000286348
0.0155902 0.00525823 -1.56062e-05
0.00525823 0.00392144 -0.000420692
-1.56062e-05 -0.000420692 0.00106999
0.000776821 0.00335226 8.88026e-05
0.00335226 0.00477758 0.000340416
8.88026e-05 0.000340416 -0.000654688
0.00513663 0.00082537 6.45228e-05
0.00082537 0.00592009 -1.96166e-05
6.45228e-05 -1.96166e-05 -0.00151273
0.000468583 -8.02225e-06 3.85583e-05
-8.02225e-06 0.00141028 -2.55962e-05
3.85583e-05 -2.55962e-05 0.000310564
1.11782e-05 -0.000150655 -0.000135715
-0.000150655 0.00267758 3.41403e-06
-0.000135715 3.41403e-06 0.00166638
0.00181849 -0.000940683 0.000749736
-0.000940683 0.000637173 -0.000264769
0.000749736 -0.000264769 -0.00439817
0.0206854 0.00789185 -7.74292e-05
0.00789185 0.0139852 -9.02353e-06
-7.74292e-05 -9.02353e-06 0.0100132
0.00777776 0.00396002 -8.57444e-05
0.00396002 0.00244373 0.000854307
-8.57444e-05 0.000854307 -0.00222207
0.0120151 -0.00370003 0.000307305
-0.00370003 0.00625889 -0.000248694
0.000307305 -0.000248694 0.000258249
0.00340944 -0.000794296 -6.86869e-05
-0.000794296 0.00330819 3.54682e-05
-6.86869e-05 3.54682e-05 0.00232421
0.000811591 0.000251425 -4.90279e-06
0.000251425 0.000854661 2.95796e-06
-4.90279e-06 2.95796e-06 0.000414005
-1.94054e-05 -5.99472e-05 -5.97486e-06
-5.99472e-05 0.000449999 -3.92952e-06
-5.97486e-06 -3.92952e-06 9.06094e-06
0.00122927 -0.000541778 4.32086e-05
-0.000541778 0.000942038 -1.28809e-05
4.32086e-05 -1.28809e-05 0.00040217
0.000310678 -7.68572e-05 -2.16173e-06
-7.68572e-05 0.000266801 5.52953e-06
-2.16173e-06 5.52953e-06 4.6846e-05
-9.80046e-05 -6.2879e-05 -1.35733e-06
-6.2879e-05 0.000270636 -1.46047e-05
-1.35733e-06 -1.46047e-05 -0.00014286
0.000525436 -0.000314821 -4.67653e-06
-0.000314821 0.000575109 3.92687e-07
-4.67653e-06 3.92687e-07 0.000216564
0.00111218 -0.000637609 2.28721e-05
-0.000637609 0.000474436 -1.74186e-05
2.28721e-05 -1.74186e-05 0.000161181
0.00201435 -0.000389026 5.48447e-07
-0.000389026 0.00104329 4.50909e-07
5.48447e-07 4.50909e-07 0.000814961
0.00156983 -0.000645287 1.54017e-05
-0.000645287 0.000698293 -2.77482e-06
1.54017e-05 -2.77482e-06 0.000285859
0.00110103 -0.000593972 8.01163e-06
-0.000593972 0.000428284 2.12448e-06
8.01163e-06 2.12448e-06 -0.000228222
0.000618471 -0.000363398 -5.87822e-06
-0.000363398 5.71545e-05 -7.27304e-06
-5.87822e-06 -7.27304e-06 -0.000156227
0.00206097 -0.000666929 -3.07629e-06
-0.000666929 0.000761161 -1.72707e-06
-3.07629e-06 -1.72707e-06 0.000271522
0.00199881 -0.00081219 -1.07336e-05
-0.00081219 0.000613166 -7.03648e-07
-1.07336e-05 -7.03648e-07 2.5058e-05
0.00201217 -0.00088453 -1.31895e-05
-0.00088453 0.000467542 2.38128e-06
-1.31895e-05 2.38128e-06 -5.02602e-05
0.00186952 -0.000753764 -4.48016e-06
-0.000753764 0.000547528 2.99668e-07
-4.48016e-06 2.99668e-07 7.95674e-05
0.00168883 -0.000687894 -4.5708e-06
-0.000687894 0.000464574 1.00939e-06
-4.5708e-06 1.00939e-06 -2.74178e-06
0.00125221 -0.000513319 1.19003e-06
-0.000513319 0.000321121 -6.60765e-06
1.19003e-06 -6.60765e-06 -6.52736e-05
0.00145319 -0.000535151 8.74746e-06
-0.000535151 0.000411214 -2.31587e-06
8.74746e-06 -2.31587e-06 3.60307e-05
0.00160616 -0.000597482 6.34977e-06
-0.000597482 0.000433875 -1.75276e-06
6.34977e-06 -1.75276e-06 2.84858e-05
0.00100999 -0.000274244 7.43487e-07
-0.000274244 0.000241783 -6.59243e-07
7.43487e-07 -6.59243e-07 -1.23643e-05
0.00111287 -0.000415489 5.57464e-06
-0.000415489 0.000234922 -4.7317e-06
5.57464e-06 -4.7317e-06 -7.68045e-05
0.000256986 -0.000396967 -1.98728e-06
-0.000396967 -0.000348411 -8.51197e-06
-1.98728e-06 -8.51197e-06 -0.000701385
6.93814e-05 -7.45037e-05 3.68106e-08
-7.45037e-05 -0.000177416 -3.3209e-06
3.68106e-08 -3.3209e-06 -0.000438381
0.00104936 -0.000233943 -3.03669e-07
-0.000233943 0.000404503 7.10558e-07
-3.03669e-07 7.10558e-07 0.000134456
0.000454002 -0.000310367 -3.89874e-06
-0.000310367 -5.65771e-05 -1.52901e-06
-3.89874e-06 -1.52901e-06 -0.000322931
0.000572646 -5.39426e-05 -2.47469e-07
-5.39426e-05 6.80914e-05 7.08203e-06
-2.47469e-07 7.08203e-06 -6.12186e-05
0.000769559 -0.000118 -3.74489e-07
-0.000118 0.000237753 -2.23474e-08
-3.74489e-07 -2.23474e-08 2.46865e-05
-7.37009e-05 -0.000111282 1.13523e-07
-0.000111282 -0.000211885 4.7611e-06
1.13523e-07 4.7611e-06 -0.000473881
0.00120951 -0.000152349 3.5474e-07
-0.000152349 0.000513583 -6.704e-07
3.5474e-07 -6.704e-07 0.000330551
0.000609017 -5.6406e-05 -3.59487e-07
-5.6406e-05 9.53456e-05 -3.32027e-07
-3.59487e-07 -3.32027e-07 -1.86339e-05
0.000334921 2.20367e-05 1.98107e-06
2.20367e-05 -9.0364e-05 9.65854e-06
1.98107e-06 9.65854e-06 -0.000135782
0.00068285 -6.35692e-05 3.90175e-07
-6.35692e-05 0.00013939 -4.68809e-06
3.90175e-07 -4.68809e-06 4.15405e-05
0.00046887 1.1803e-05 -3.21893e-06
1.1803e-05 -1.72908e-05 -2.87468e-07
-3.21893e-06 -2.87468e-07 -5.34854e-05
0.0028343 9.8411e-05 -3.98257e-05
9.8411e-05 0.00148178 4.81223e-06
-3.98257e-05 4.81223e-06 0.00148556
0.000490341 -1.13794e-05 2.87759e-06
-1.13794e-05 -1.1248e-05 -6.48417e-06
2.87759e-06 -6.48417e-06 -4.22566e-05
0.00178802 6.30025e-05 2.12039e-05
6.30025e-05 0.000810754 -7.3344e-07
2.12039e-05 -7.3344e-07 0.000812725
0.00273439 6.0013e-05 3.10349e-05
6.0013e-05 0.00140914 -5.37146e-06
3.10349e-05 -5.37146e-06 0.0014185
0.000835311 0.000106656 5.5125e-06
0.000106656 0.000263499 7.44022e-07
5.5125e-06 7.44022e-07 0.00012073
0.000509107 4.93472e-05 2.71928e-06
4.93472e-05 2.72044e-05 -2.02563e-06
2.71928e-06 -2.02563e-06 -5.58024e-05
0.000452073 5.03056e-05 -7.75657e-07
5.03056e-05 2.63134e-05 -1.38905e-06
-7.75657e-07 -1.38905e-06 -0.000109248
0.000474826 7.26783e-06 1.11146e-06
7.26783e-06 -2.75261e-05 -5.33954e-06
1.11146e-06 -5.33954e-06 -4.72586e-05
0.00031571 4.0518e-05 -2.36247e-06
4.0518e-05 -9.45831e-05 -1.90143e-06
-2.36247e-06 -1.90143e-06 -0.000170621
0.000657497 8.1383e-05 -1.60581e-06
8.1383e-05 0.000157997 -3.54715e-06
-1.60581e-06 -3.54715e-06 2.88655e-05
0.00217966 -3.30523e-05 -2.10223e-05
-3.30523e-05 0.00105366 -4.8657e-06
-2.10223e-05 -4.8657e-06 0.00106978
0.000455271 -1.57961e-06 1.38252e-07
-1.57961e-06 -4.08475e-05 -1.39875e-07
1.38252e-07 -1.39875e-07 -5.52975e-05
0.000120019 1.54669e-05 -1.77033e-06
1.54669e-05 -0.000219303 1.7776e-07
-1.77033e-06 1.7776e-07 -0.000287962
0.00212526 -1.69025e-05 -5.57209e-06
-1.69025e-05 0.00101948 1.29666e-07
-5.57209e-06 1.29666e-07 0.00103677
0.000454089 -6.8026e-08 -2.81026e-06
-6.8026e-08 -4.08066e-05 3.69329e-06
-2.81026e-06 3.69329e-06 -5.2262e-05
0.00209013 -1.26574e-06 1.26388e-05
-1.26574e-06 0.00099835 4.94849e-06
1.26388e-05 4.94849e-06 0.00101583
0.0016132 -0.00027997 -7.13146e-05
-0.00027997 0.000324405 3.42752e-05
-7.13146e-05 3.42752e-05 -0.000280742
-0.000876394 -0.000204718 7.41241e-05
-0.000204718 0.00212306 -4.1234e-06
7.41241e-05 -4.1234e-06 0.00107293
-0.000947918 -0.000384993 0.000160373
-0.000384993 0.000750893 -0.000165822
0.000160373 -0.000165822 -0.00385088
0.000129932 5.03425e-05 4.0795e-06
5.03425e-05 -0.000174045 7.72823e-06
4.0795e-06 7.72823e-06 -0.000329432
0.00250113 0.000105224 2.88661e-06
0.000105224 0.00130789 6.6787e-06
2.88661e-06 6.6787e-06 0.00112212
0.000735448 0.000155597 -4.46789e-06
0.000155597 0.000199944 -6.15158e-06
-4.46789e-06 -6.15158e-06 5.33623e-05
0.000321575 8.02085e-05 9.91394e-07
8.02085e-05 -8.40255e-05 1.05857e-06
9.91394e-07 1.05857e-06 -0.000213306
0.000341269 8.96095e-05 5.3486e-07
8.96095e-05 -7.22897e-05 -1.17316e-06
5.3486e-07 -1.17316e-06 -0.000193736
0.000331846 9.35094e-05 8.30507e-06
9.35094e-05 -6.26502e-05 1.64129e-06
8.30507e-06 1.64129e-06 -0.000189532
0.000155117 0.000118653 1.57913e-05
0.000118653 -0.000139894 6.53116e-06
1.57913e-05 6.53116e-06 -0.000260811
0.00207146 0.00114547 0.000235454
0.00114547 -0.000428573 0.000251838
0.000235454 0.000251838 -0.00183694
0.00532219 -0.000303266 -5.82325e-05
-0.000303266 -0.000168519 5.43316e-05
-5.82325e-05 5.43316e-05 -0.00122585
0.00419947 -0.000778648 0.000243888
-0.000778648 0.00293844 -0.000115438
0.000243888 -0.000115438 0.00149679
0.00843947 -0.000184963 -1.43166e-06
-0.000184963 -0.0057691 0.000186122
-1.43166e-06 0.000186122 -0.00225836
0.00553067 -0.00325748 -0.000126753
-0.00325748 0.000799598 3.74427e-05
-0.000126753 3.74427e-05 0.00109955
0.00118118 -0.00429435 -0.000296717
-0.00429435 0.00154449 9.83709e-05
-0.000296717 9.83709e-05 -0.00427847
0.0162911 0.00443981 0.000144025
0.00443981 0.00741652 -0.000172161
0.000144025 -0.000172161 0.00256302
0.00236398 -0.00256898 -6.00674e-05
-0.00256898 0.000172031 2.41704e-05
-6.00674e-05 2.41704e-05 0.000499867
-0.00134526 -0.000950282 -5.53764e-05
-0.000950282 0.00409996 5.32005e-05
-5.53764e-05 5.32005e-05 -0.00313775
0.00927394 0.000570629 0.00022075
0.000570629 0.00365972 -3.00685e-05
0.00022075 -3.00685e-05 -3.44577e-05
0.0159687 -0.00201814 -7.871e-05
-0.00201814 0.00207151 -1.50019e-05
-7.871e-05 -1.50019e-05 0.00325773
-0.00122413 -0.000604712 -0.000174823
-0.000604712 0.000539688 0.00015288
-0.000174823 0.00015288 0.000390801
0.0030164 0.0021408 -0.000206231
0.0021408 0.00542204 -0.000108439
-0.000206231 -0.000108439 -0.00199602
-0.00115305 -0.00553649 3.41389e-06
-0.00553649 -0.000198274 -0.000249494
3.41389e-06 -0.000249494 -0.00552794
0.0144752 -0.00300251 0.000151251
-0.00300251 0.00434312 -0.000659799
0.000151251 -0.000659799 0.002456
0.00060388 1.99637e-05 1.77597e-05
1.99637e-05 0.000347597 8.09538e-07
1.77597e-05 8.09538e-07 9.71191e-05
0.000802388 0.000185327 -1.50117e-06
0.000185327 0.000308652 -4.07247e-06
-1.50117e-06 -4.07247e-06 0.000149745
0.000897789 -1.68996e-05 -1.43768e-06
-1.68996e-05 0.00040554 -6.01047e-06
-1.43768e-06 -6.01047e-06 0.000157207
0.000990986 0.000156948 -5.72414e-06
0.000156948 0.000373441 -1.1784e-05
-5.72414e-06 -1.1784e-05 0.000202352
0.000416489 -0.0011282 3.85536e-05
-0.0011282 -3.79471e-05 3.12215e-05
3.85536e-05 3.12215e-05 -0.000516623
0.00252922 -0.000372937 7.25086e-06
-0.000372937 0.00163141 -2.70815e-05
7.25086e-06 -2.70815e-05 0.00113467
0.000958866 0.000109961 -1.53022e-05
0.000109961 0.000516968 -2.11237e-05
-1.53022e-05 -2.11237e-05 0.000320502
0.000820354 4.27589e-05 6.93218e-08
4.27589e-05 0.000545307 -8.41949e-06
6.93218e-08 -8.41949e-06 0.000293161
0.000341735 -3.10198e-05 -2.20882e-06
-3.10198e-05 0.000597833 1.50829e-05
-2.20882e-06 1.50829e-05 0.000126265
0.000345872 8.12528e-05 2.09658e-06
8.12528e-05 0.000197873 3.83806e-06
2.09658e-06 3.83806e-06 -9.15967e-06
8.94405e-05 7.51379e-06 1.00009e-06
7.51379e-06 0.000536988 9.544e-07
1.00009e-06 9.544e-07 3.63908e-05
0.000574242 -0.00046316 -5.92821e-06
-0.00046316 0.00118658 6.3624e-06
-5.92821e-06 6.3624e-06 -4.84208e-05
0.000364887 -0.000132986 8.37858e-06
-0.000132986 0.000895401 -1.87841e-06
8.37858e-06 -1.87841e-06 0.000428553
-0.000623488 0.000110399 3.33404e-06
0.000110399 -0.000191658 -1.45585e-05
3.33404e-06 -1.45585e-05 -0.000455065
0.00166182 3.56299e-05 -0.00012107
3.56299e-05 0.00353234 -2.39176e-05
-0.00012107 -2.39176e-05 0.00162626
0.000974984 0.000346798 -2.39914e-05
0.000346798 0.00119385 7.9036e-06
-2.39914e-05 7.9036e-06 0.000635195
-0.00206566 5.52019e-05 -8.57191e-05
5.52019e-05 0.00181378 -2.45746e-05
-8.57191e-05 -2.45746e-05 0.000634624
0.00101225 8.02139e-05 1.78872e-05
8.02139e-05 8.793e-06 7.30764e-06
1.78872e-05 7.30764e-06 -0.000631736
-0.00298165 0.000351187 -2.41601e-05
0.000351187 0.00106749 -6.65346e-05
-2.41601e-05 -6.65346e-05 -7.69861e-05
0.000318931 0.000299481 -2.55441e-05
0.000299481 0.000682899 6.03967e-06
-2.55441e-05 6.03967e-06 0.000287711
-0.00134756 0.000849205 0.000150869
0.000849205 0.000107116 0.000110589
0.000150869 0.000110589 -0.000706143
0.000743679 3.93441e-05 7.00338e-05
3.93441e-05 0.000324355 -7.26757e-06
7.00338e-05 -7.26757e-06 -6.33951e-06
0.00570448 -0.00224666 0.000259898
-0.00224666 0.00587279 -0.000184767
0.000259898 -0.000184767 -0.00257868
0.0189194 0.00382079 -0.000183994
0.00382079 0.00823772 0.000164002
-0.000183994 0.000164002 0.00338378
0.00328749 -0.000699318 -0.000218255
-0.000699318 0.00224156 0.000115013
-0.000218255 0.000115013 0.000942541
0.0134329 0.00477844 -9.86071e-05
0.00477844 0.0058216 -0.000233507
-9.86071e-05 -0.000233507 0.00269983
0.000463383 0.000230241 -5.6339e-05
0.000230241 0.00124781 1.38963e-05
-5.6339e-05 1.38963e-05 0.000202853
-8.4078e-06 -0.000235264 -8.36584e-05
-0.000235264 0.00212516 1.11646e-06
-8.36584e-05 1.11646e-06 0.00138403
0.00316194 -0.00151446 0.000282766
-0.00151446 0.00158744 -4.10711e-05
0.000282766 -4.10711e-05 -0.00327934
-0.00288395 -0.000116594 4.94805e-05
-0.000116594 -0.000474898 3.21251e-05
4.94805e-05 3.21251e-05 -0.000957463
0.0148222 0.00898396 0.000645843
0.00898396 0.01053 -0.000275147
0.000645843 -0.000275147 0.00659567
0.00866405 0.00310778 -0.000161104
0.00310778 0.00390187 0.000378028
-0.000161104 0.000378028 -0.000876559
-0.00300634 -0.00122906 0.000176747
-0.00122906 0.00288198 -0.000145284
0.000176747 -0.000145284 -0.00483535
-0.00106096 -0.000410411 1.10278e-05
-0.000410411 0.000458012 -2.95924e-05
1.10278e-05 -2.95924e-05 -0.000605848
0.000398733 -0.000822869 0.000305022
-0.000822869 -0.000153787 -7.68236e-05
0.000305022 -7.68236e-05 -0.00353151
-0.000418876 0.000763683 -0.00128146
0.000763683 0.0073109 0.000334588
-0.00128146 0.000334588 0.00308043
0.0193668 0.00711163 -0.000567617
0.00711163 0.00625569 0.000540441
-0.000567617 0.000540441 0.00178023
0.00744896 -0.00357698 -0.000179742
-0.00357698 0.00331997 5.87532e-05
-0.000179742 5.87532e-05 -0.000316992
0.00275234 -0.00159818 3.38337e-05
-0.00159818 0.00278783 6.90983e-07
3.38337e-05 6.90983e-07 0.00186985
0.000214898 -5.25784e-05 4.14285e-06
-5.25784e-05 0.000533504 -6.93876e-06
4.14285e-06 -6.93876e-06 6.66417e-05
2.05342e-05 -0.00038431 2.86084e-06
-0.00038431 0.000368066 -1.60115e-06
2.86084e-06 -1.60115e-06 -0.000196268
-0.000147257 -0.000670867 -3.12046e-06
-0.000670867 -2.55364e-05 5.69486e-07
-3.12046e-06 5.69486e-07 -0.00034727
-0.000425362 -0.000224028 3.79051e-07
-0.000224028 0.000131792 7.42916e-06
3.79051e-07 7.42916e-06 -0.00023786
-0.000702841 -0.000387569 1.46002e-06
-0.000387569 -0.00039875 8.15499e-07
1.46002e-06 8.15499e-07 -0.000688185
0.00310028 -0.000924728 3.80578e-05
-0.000924728 0.00131314 -1.58189e-05
3.80578e-05 -1.58189e-05 0.000901349
0.00649948 -0.00124283 -1.23755e-05
-0.00124283 0.00341006 -1.98592e-06
-1.23755e-05 -1.98592e-06 0.00291504
0.00285216 -0.000829289 1.02267e-05
-0.000829289 0.00130522 -2.78553e-06
1.02267e-05 -2.78553e-06 0.00065521
0.00182039 -0.000870536 4.98183e-06
-0.000870536 0.000463064 -1.73118e-05
4.98183e-06 -1.73118e-05 -0.000183701
0.00217909 -0.000676124 -1.00529e-05
-0.000676124 0.000801412 -7.3935e-06
-1.00529e-05 -7.3935e-06 0.000325061
0.00221437 -0.00084564 1.58864e-06
-0.00084564 0.000719692 -1.91543e-06
1.58864e-06 -1.91543e-06 0.000119388
0.00265209 -0.000975082 -3.81038e-06
-0.000975082 0.000856163 -1.13281e-05
-3.81038e-06 -1.13281e-05 0.00026292
0.00218177 -0.000774013 -5.38137e-06
-0.000774013 0.000384823 -4.40709e-06
-5.38137e-06 -4.40709e-06 -1.95457e-05
0.00252622 -0.000940465 -9.50112e-06
-0.000940465 0.000728418 1.72981e-06
-9.50112e-06 1.72981e-06 0.000227603
0.00234972 -0.000927775 -2.99614e-06
-0.000927775 0.000650156 1.56992e-08
-2.99614e-06 1.56992e-08 0.000119674
0.00175512 -0.000716187 7.32466e-06
-0.000716187 0.000506407 -3.52362e-06
7.32466e-06 -3.52362e-06 6.58628e-05
0.00156836 -0.000704798 2.90718e-06
-0.000704798 0.000375471 -9.93691e-07
2.90718e-06 -9.93691e-07 -7.38263e-05
0.00150467 -0.000665097 6.42596e-06
-0.000665097 0.000344405 -3.6909e-07
6.42596e-06 -3.6909e-07 -0.000121185
0.0016447 -0.00048626 8.85289e-06
-0.00048626 0.000566595 4.97754e-06
8.85289e-06 4.97754e-06 0.000226372
0.00147584 -0.000534542 -1.42436e-06
-0.000534542 0.000430945 -2.2467e-06
-1.42436e-06 -2.2467e-06 5.36739e-05
0.00160293 -0.000604609 6.52161e-06
-0.000604609 0.000435177 2.34547e-06
6.52161e-06 2.34547e-06 2.9074e-05
0.00123251 -0.000225339 9.98434e-07
-0.000225339 0.000471581 -4.71055e-06
9.98434e-07 -4.71055e-06 0.000202135
0.00080929 -0.000267328 -3.68624e-06
-0.000267328 0.000143482 2.51181e-06
-3.68624e-06 2.51181e-06 -0.000106341
0.00084862 -0.000395506 -5.76689e-07
-0.000395506 7.21122e-05 -1.21296e-05
-5.76689e-07 -1.21296e-05 -0.000234483
-1.57656e-05 -7.11424e-05 -2.10846e-06
-7.11424e-05 -0.000286418 4.70867e-06
-2.10846e-06 4.70867e-06 -0.0004589
0.000774612 -0.000141498 3.11639e-07
-0.000141498 0.00025939 8.9969e-07
3.11639e-07 8.9969e-07 -4.9234e-06
0.000729666 -0.000270551 3.99819e-06
-0.000270551 0.000236403 1.8999e-06
3.99819e-06 1.8999e-06 -4.64427e-05
0.000344468 -1.49108e-05 -6.36097e-06
-1.49108e-05 -9.67032e-05 1.46293e-05
-6.36097e-06 1.46293e-05 -0.000146178
0.000669333 -7.53834e-05 7.9366e-07
-7.53834e-05 0.000121803 1.59223e-07
7.9366e-07 1.59223e-07 -8.43475e-06
0.0014004 -0.000198777 -1.33449e-06
-0.000198777 0.00062629 2.00183e-06
-1.33449e-06 2.00183e-06 0.000409509
0.000699294 -6.63393e-05 1.04329e-07
-6.63393e-05 0.000149666 -5.55941e-06
1.04329e-07 -5.55941e-06 3.42187e-05
0.000433693 9.08004e-06 -5.87616e-07
9.08004e-06 -3.42283e-05 -5.02301e-07
-5.87616e-07 -5.02301e-07 -7.75805e-05
0.00296719 0.000124599 -4.00264e-05
0.000124599 0.00157563 4.78245e-06
-4.00264e-05 4.78245e-06 0.00157323
0.000517146 -5.11721e-07 2.17608e-06
-5.11721e-07 8.67344e-06 -7.86084e-06
2.17608e-06 -7.86084e-06 -2.56628e-05
0.00280678 0.000100749 4.99828e-06
0.000100749 0.00146459 5.86569e-07
4.99828e-06 5.86569e-07 0.00146799
0.00269851 7.91131e-05 3.3914e-05
7.91131e-05 0.00138927 -4.90399e-06
3.3914e-05 -4.90399e-06 0.0013967
0.00107845 9.89493e-05 4.06637e-06
9.89493e-05 0.000513339 -2.62474e-06
4.06637e-06 -2.62474e-06 0.000284732
0.00114166 0.00014269 6.98658e-06
0.00014269 0.00050473 -7.61831e-07
6.98658e-06 -7.61831e-07 0.000317461
0.000550041 3.89205e-05 4.23489e-06
3.89205e-05 4.85528e-05 -4.01138e-06
4.23489e-06 -4.01138e-06 -4.45289e-05
0.000593258 0.000109622 1.99363e-07
0.000109622 0.000112792 -2.55787e-07
1.99363e-07 -2.55787e-07 -2.71952e-05
0.000452792 -1.86707e-07 1.59861e-06
-1.86707e-07 -3.84546e-05 -6.55107e-06
1.59861e-06 -6.55107e-06 -6.33278e-05
0.00052293 5.20695e-05 2.44954e-07
5.20695e-05 3.61048e-05 -2.01718e-07
2.44954e-07 -2.01718e-07 -4.69003e-05
0.000563934 5.6193e-05 -5.28973e-06
5.6193e-05 8.25676e-05 -2.68601e-06
-5.28973e-06 -2.68601e-06 -4.39171e-05
0.00231944 -4.92609e-05 -2.71174e-05
-4.92609e-05 0.00114382 -5.04807e-06
-2.71174e-05 -5.04807e-06 0.00115768
0.000465048 2.12944e-06 -8.05534e-07
2.12944e-06 -3.31629e-05 -1.58449e-07
-8.05534e-07 -1.58449e-07 -5.23808e-05
0.000462805 5.7442e-05 -3.97148e-06
5.7442e-05 -1.68397e-07 -1.18468e-07
-3.97148e-06 -1.18468e-07 -7.58243e-05
0.00218333 -3.24501e-05 -4.83914e-06
-3.24501e-05 0.00105595 2.40494e-07
-4.83914e-06 2.40494e-07 0.00107216
0.000465328 -4.50896e-07 -2.85282e-06
-4.50896e-07 -3.52124e-05 4.04853e-06
-2.85282e-06 4.04853e-06 -4.92764e-05
0.0021205 -1.63637e-05 1.65729e-05
-1.63637e-05 0.00101633 4.81081e-06
1.65729e-05 4.81081e-06 0.00103362
-0.00250246 0.000280323 -1.51494e-05
0.000280323 0.000469144 -5.227e-05
-1.51494e-05 -5.227e-05 -0.000138901
0.00169044 -0.000224346 -1.55854e-05
-0.000224346 0.000584368 -1.21523e-06
-1.55854e-05 -1.21523e-06 0.000169525
-6.14052e-05 -0.000231862 1.02349e-05
-0.000231862 0.00195067 -4.12761e-05
1.02349e-05 -4.12761e-05 0.00111507
0.000795958 0.000105803 4.11483e-07
0.000105803 0.000295778 -8.21871e-07
4.11483e-07 -8.21871e-07 9.92514e-05
9.39818e-05 9.1846e-05 6.28148e-06
9.1846e-05 -0.000185371 -2.21701e-06
6.28148e-06 -2.21701e-06 -0.000361266
-0.00165319 -8.83964e-06 -8.02522e-07
-8.83964e-06 -0.00130501 -9.72354e-06
-8.02522e-07 -9.72354e-06 -0.00146502
-0.00108284 1.41844e-05 -8.62053e-07
1.41844e-05 -0.00088103 1.872e-05
-8.62053e-07 1.872e-05 -0.00105199
0.00280984 0.000394521 1.65154e-07
0.000394521 0.00152628 1.45328e-07
1.65154e-07 1.45328e-07 0.00125004
0.00110194 4.82785e-05 -6.56179e-06
4.82785e-05 0.000395667 -5.15067e-06
-6.56179e-06 -5.15067e-06 0.000265626
0.0004593 0.000112283 -1.12016e-05
0.000112283 5.27716e-06 -1.04784e-05
-1.12016e-05 -1.04784e-05 -0.000113572
0.000863125 5.27785e-05 9.26636e-07
5.27785e-05 0.00026461 -4.4437e-07
9.26636e-07 -4.4437e-07 0.000140998
0.00104104 0.000175234 -1.17702e-06
0.000175234 0.000401619 -3.22534e-06
-1.17702e-06 -3.22534e-06 0.000275698
0.00122955 0.00014089 8.96239e-06
0.00014089 0.000677112 -1.82747e-05
8.96239e-06 -1.82747e-05 0.000439634
0.00590745 0.00110919 0.000435132
0.00110919 0.00423572 0.000515657
0.000435132 0.000515657 -0.000576713
0.00251303 0.0009142 2.28069e-05
0.0009142 0.000156429 9.09531e-05
2.28069e-05 9.09531e-05 -0.00149326
0.00467536 -0.000232343 5.66551e-05
-0.000232343 -0.000224073 -2.02233e-05
5.66551e-05 -2.02233e-05 -0.000807679
0.0141866 -0.00157202 -0.000289026
-0.00157202 0.00215152 -0.000135127
-0.000289026 -0.000135127 0.00385453
-0.00292201 0.00124048 7.27496e-05
0.00124048 -0.00231093 0.000424743
7.27496e-05 0.000424743 -0.00713179
0.00197626 -0.00254604 -5.31941e-05
-0.00254604 0.000517763 -3.68063e-05
-5.31941e-05 -3.68063e-05 0.000614856
0.00801395 -0.0022001 -0.00015935
-0.0022001 0.00531747 4.00189e-05
-0.00015935 4.00189e-05 -5.24225e-05
0.000748005 -0.00107577 -0.00010509
-0.00107577 0.000897464 0.000118324
-0.00010509 0.000118324 0.000520131
0.00995261 -4.16563e-05 -0.000179103
-4.16563e-05 0.00679518 7.35259e-07
-0.000179103 7.35259e-07 8.96672e-05
0.00602682 -0.00270356 9.56137e-05
-0.00270356 0.003934 0.000200331
9.56137e-05 0.000200331 -0.00125
0.0179575 -0.00446619 -0.000110428
-0.00446619 0.00371592 -0.000764018
-0.000110428 -0.000764018 0.00116893
0.00235301 8.92854e-05 -0.000155058
8.92854e-05 0.00297996 0.00011538
-0.000155058 0.00011538 0.0017453
0.0127722 0.00273824 -0.00023316
0.00273824 0.00740366 -6.72671e-06
-0.00023316 -6.72671e-06 0.00203114
0.0201418 -0.00715176 -9.85203e-05
-0.00715176 0.0104272 -0.00076071
-9.85203e-05 -0.00076071 0.00513902
0.0242088 -0.00921107 9.255e-05
-0.00921107 0.0101256 -7.35219e-05
9.255e-05 -7.35219e-05 0.00654835
0.000858508 0.00030078 1.81861e-05
0.00030078 0.000524979 -9.5382e-06
1.81861e-05 -9.5382e-06 0.000184374
-6.84521e-05 4.54586e-05 3.99141e-06
4.54586e-05 1.47701e-05 2.09003e-06
3.99141e-06 2.09003e-06 -0.00028825
0.00103388 0.000193142 -1.71743e-05
0.000193142 0.000471001 -1.8061e-05
-1.71743e-05 -1.8061e-05 0.00029656
0.00225334 -0.000671339 5.20986e-05
-0.000671339 0.00168973 1.87997e-05
5.20986e-05 1.87997e-05 0.000212086
-0.00025622 -0.000118443 3.24509e-05
-0.000118443 0.000734443 -3.12598e-05
3.24509e-05 -3.12598e-05 0.000197794
-0.000106332 7.29506e-05 -6.90378e-06
7.29506e-05 -8.35658e-05 -1.33607e-06
-6.90378e-06 -1.33607e-06 -0.000283301
-0.000386592 -4.62924e-05 1.58889e-05
-4.62924e-05 0.00029646 -3.19465e-06
1.58889e-05 -3.19465e-06 -0.000241357
-3.47018e-05 0.000132852 -7.52161e-07
0.000132852 0.000131621 -7.67752e-07
-7.52161e-07 -7.67752e-07 -0.000139704
0.00021517 0.000319905 1.55698e-05
0.000319905 0.000619811 2.55393e-06
1.55698e-05 2.55393e-06 4.37128e-05
-0.00223761 -4.17773e-05 0.000249402
-4.17773e-05 0.000987037 -2.7855e-05
0.000249402 -2.7855e-05 -0.000961095
-0.000760198 0.000422777 -1.77187e-07
0.000422777 -0.000387645 1.29599e-05
-1.77187e-07 1.29599e-05 -0.000780016
0.00272408 0.000960835 -0.000146236
0.000960835 0.00221247 -9.12644e-05
-0.000146236 -9.12644e-05 0.000734371
0.00115099 0.00017555 0.000198413
0.00017555 0.00174439 6.84432e-05
0.000198413 6.84432e-05 -0.00258289
-0.00237483 0.000228713 -7.54863e-05
0.000228713 0.00155108 1.35555e-05
-7.54863e-05 1.35555e-05 0.000230035
0.00257757 -0.000262344 -3.54452e-05
-0.000262344 0.000860429 -3.43895e-06
-3.54452e-05 -3.43895e-06 0.00088863
-0.000416878 0.000537963 0.000117474
0.000537963 0.00058731 1.35048e-05
0.000117474 1.35048e-05 -0.000522088
0.0012678 0.000309455 -0.000110212
0.000309455 0.0025573 0.00010453
-0.000110212 0.00010453 0.00108621
-0.000396362 -0.0002644 -7.53243e-06
-0.0002644 0.00179882 -1.46588e-05
-7.53243e-06 -1.46588e-05 0.000849222
0.0165436 -0.00436077 0.000245305
-0.00436077 0.00857939 -0.000118677
0.000245305 -0.000118677 0.00218402
0.0236104 0.00510891 -0.000202584
0.00510891 0.0110033 -0.000171578
-0.000202584 -0.000171578 0.00548439
0.00514578 -0.00175439 -0.000302825
-0.00175439 0.00264884 0.000269628
-0.000302825 0.000269628 -0.00191805
0.0073269 0.0103661 0.0026319
0.0103661 0.00632094 -0.00162188
0.0026319 -0.00162188 0.00218549
0.00117949 -0.000560346 4.23227e-05
-0.000560346 0.00157943 -1.28875e-05
4.23227e-05 -1.28875e-05 0.000439627
-0.000354035 -0.000586482 5.05461e-05
-0.000586482 0.000477557 1.24366e-05
5.05461e-05 1.24366e-05 -0.00352674
0.000719644 0.0012171 -0.00123813
0.0012171 0.00695854 0.000336514
-0.00123813 0.000336514 0.0023381
0.000427237 -0.000885994 1.84232e-05
-0.000885994 0.00133586 3.04199e-05
1.84232e-05 3.04199e-05 0.000530908
0.0201839 0.00659326 0.000376006
0.00659326 0.00665074 0.000102462
0.000376006 0.000102462 0.00204045
0.0076981 -0.00536063 0.000225208
-0.00536063 0.00257765 -8.0991e-05
0.000225208 -8.0991e-05 -0.00145437
0.000585633 -0.00130888 -8.00273e-07
-0.00130888 0.000586509 2.88208e-05
-8.00273e-07 2.88208e-05 -0.000322555
-0.00598107 -0.00186937 0.000157942
-0.00186937 0.00604022 -8.74359e-05
0.000157942 -8.74359e-05 0.00184062
0.0162897 0.00650768 -0.00166453
0.00650768 0.00642248 0.000523038
-0.00166453 0.000523038 0.00290144
0.00641797 -0.00398786 -0.000468852
-0.00398786 -0.000521437 0.000197801
-0.000468852 0.000197801 -0.00371681
0.000711022 -0.00204538 0.000192133
-0.00204538 -4.0755e-05 -0.000132225
0.000192133 -0.000132225 0.000880894
0.00122343 -0.000567935 -0.000107569
-0.000567935 0.000903074 3.46454e-05
-0.000107569 3.46454e-05 0.000395108
0.000789694 -0.000630758 -7.06215e-06
-0.000630758 0.000547285 1.17529e-05
-7.06215e-06 1.17529e-05 0.000160916
0.00309197 -0.000955119 1.64511e-05
-0.000955119 0.00140967 -1.65516e-05
1.64511e-05 -1.65516e-05 0.000992703
-0.00120073 -0.000215718 8.97769e-06
-0.000215718 -0.000505841 8.18639e-06
8.97769e-06 8.18639e-06 -0.000794616
0.00123322 -0.000686431 3.47404e-06
-0.000686431 0.000335669 -3.4043e-06
3.47404e-06 -3.4043e-06 -5.01605e-05
0.0032584 -0.00106414 7.96953e-06
-0.00106414 0.00104503 -3.73695e-06
7.96953e-06 -3.73695e-06 0.000619399
0.00423766 -0.00101141 -2.84389e-05
-0.00101141 0.00199855 1.3102e-06
-2.84389e-05 1.3102e-06 0.00135833
0.00144239 -0.000791364 -1.52462e-06
-0.000791364 0.000254973 -1.4105e-06
-1.52462e-06 -1.4105e-06 -0.000366061
0.00209197 -0.000993593 2.03634e-07
-0.000993593 0.000355498 -1.14726e-05
2.03634e-07 -1.14726e-05 -0.000141417
0.00286395 -0.00093387 4.48016e-06
-0.00093387 0.00106547 6.7202e-06
4.48016e-06 6.7202e-06 0.000448081
0.00225614 -0.000929202 1.76071e-06
-0.000929202 0.000613027 -4.30411e-06
1.76071e-06 -4.30411e-06 4.20609e-05
0.00258102 -0.00083186 -2.56907e-06
-0.00083186 0.000564294 -9.52573e-06
-2.56907e-06 -9.52573e-06 0.000161382
0.0017862 -0.000534648 -4.35769e-06
-0.000534648 -7.95552e-07 -2.33267e-06
-4.35769e-06 -2.33267e-06 -0.000252491
0.00192855 -0.000772715 -9.14013e-07
-0.000772715 0.000185 -1.61473e-06
-9.14013e-07 -1.61473e-06 -0.000217927
0.0022034 -0.000780713 3.1385e-06
-0.000780713 0.000386872 -2.71989e-06
3.1385e-06 -2.71989e-06 -1.7315e-05
0.00236127 -0.000828804 -4.77653e-06
-0.000828804 0.000694901 -5.91869e-07
-4.77653e-06 -5.91869e-07 0.000244908
0.00248779 -0.000935258 -3.19297e-06
-0.000935258 0.000715676 -1.20785e-09
-3.19297e-06 -1.20785e-09 0.000210498
0.00258075 -0.000959174 9.11164e-06
-0.000959174 0.000770436 -5.18486e-06
9.11164e-06 -5.18486e-06 0.000229253
0.001902 -0.000629838 7.07611e-06
-0.000629838 0.000647784 -9.75989e-08
7.07611e-06 -9.75989e-08 0.000244103
0.00148991 -0.000675862 2.3965e-06
-0.000675862 0.000361225 -5.25624e-07
2.3965e-06 -5.25624e-07 -6.65613e-05
0.0013091 -0.000664076 3.92033e-06
-0.000664076 0.000226949 1.47772e-06
3.92033e-06 1.47772e-06 -0.000205624
0.00137652 -0.00035176 2.55484e-07
-0.00035176 0.000458759 2.47005e-07
2.55484e-07 2.47005e-07 0.000182951
0.00118797 -0.000422434 1.15233e-06
-0.000422434 0.000301481 -6.53765e-08
1.15233e-06 -6.53765e-08 -2.23423e-05
0.00156087 -0.000539665 -5.10901e-06
-0.000539665 0.000491374 3.51693e-07
-5.10901e-06 3.51693e-07 0.000110455
-0.00030244 -0.000111434 -2.26206e-06
-0.000111434 -0.000473252 2.1937e-06
-2.26206e-06 2.1937e-06 -0.000701525
0.000693384 -0.000237668 -9.1156e-07
-0.000237668 0.000155356 -7.74873e-07
-9.1156e-07 -7.74873e-07 -0.000124654
0.00091906 -0.00029053 -4.10399e-06
-0.00029053 0.000239297 4.5859e-07
-4.10399e-06 4.5859e-07 -1.48597e-05
0.00191141 1.28025e-05 -5.06768e-05
1.28025e-05 0.000902882 9.22913e-06
-5.06768e-05 9.22913e-06 0.000851124
0.000711316 -0.000122172 -2.30406e-07
-0.000122172 0.00015278 -4.54629e-07
-2.30406e-07 -4.54629e-07 -2.12449e-05
0.00129854 -0.000207715 4.65449e-07
-0.000207715 0.000586601 4.59446e-06
4.65449e-07 4.59446e-06 0.000314727
0.000760099 3.2915e-05 -5.50654e-05
3.2915e-05 0.000173244 6.31254e-06
-5.50654e-05 6.31254e-06 0.000161674
0.00115662 6.44752e-06 -1.8205e-05
6.44752e-06 0.00042059 -6.14642e-07
-1.8205e-05 -6.14642e-07 0.000372737
0.000855874 -9.42896e-05 3.7806e-06
-9.42896e-05 0.000232566 -6.07858e-06
3.7806e-06 -6.07858e-06 0.000100979
0.000591975 2.84995e-08 3.08189e-06
2.84995e-08 6.08289e-05 -9.93415e-06
3.08189e-06 -9.93415e-06 1.82815e-05
0.00305826 0.000124731 8.8145e-06
0.000124731 0.00163339 7.69695e-07
8.8145e-06 7.69695e-07 0.00163107
0.00282033 0.000100713 3.87388e-05
0.000100713 0.00147332 -4.76378e-06
3.87388e-05 -4.76378e-06 0.00147691
0.000937084 0.000167723 1.32456e-05
0.000167723 0.00038802 -1.47684e-06
1.32456e-05 -1.47684e-06 0.000142288
0.00149243 0.000188266 5.11179e-06
0.000188266 0.000745909 -1.40352e-06
5.11179e-06 -1.40352e-06 0.000517807
-0.000227733 3.88877e-05 1.08305e-06
3.88877e-05 -0.000337365 9.6995e-08
1.08305e-06 9.6995e-08 -0.000536213
0.000644386 4.96893e-05 3.24106e-06
4.96893e-05 0.000115372 -5.86284e-06
3.24106e-06 -5.86284e-06 5.40428e-06
0.000771714 0.000116846 5.31089e-07
0.000116846 0.000248078 2.77869e-07
5.31089e-07 2.77869e-07 7.74897e-05
0.000442929 9.63962e-06 -1.10057e-06
9.63962e-06 -3.84292e-05 -8.52803e-06
-1.10057e-06 -8.52803e-06 -6.96353e-05
0.000554657 4.71959e-05 -1.12013e-07
4.71959e-05 5.78939e-05 -4.03654e-07
-1.12013e-07 -4.03654e-07 -3.70432e-05
0.000680819 5.29794e-05 -4.86126e-06
5.29794e-05 0.000192268 1.4158e-07
-4.86126e-06 1.4158e-07 3.67472e-05
0.00257134 -6.82334e-05 -3.57416e-05
-6.82334e-05 0.00130778 -4.96387e-06
-3.57416e-05 -4.96387e-06 0.00131831
0.000439776 2.78429e-06 -3.28171e-07
2.78429e-06 -4.58596e-05 -8.44242e-08
-3.28171e-07 -8.44242e-08 -7.07477e-05
0.000535752 5.78276e-05 -1.69727e-06
5.78276e-05 4.54684e-05 2.41632e-06
-1.69727e-06 2.41632e-06 -3.81307e-05
0.00234737 -5.00415e-05 -6.23506e-06
-5.00415e-05 0.00116166 3.83468e-07
-6.23506e-06 3.83468e-07 0.00117532
0.00042755 -1.07247e-05 -4.96637e-06
-1.07247e-05 -5.65152e-05 4.99216e-06
-4.96637e-06 4.99216e-06 -7.5393e-05
0.00221044 -3.12383e-05 2.21109e-05
-3.12383e-05 0.00107309 4.78112e-06
2.21109e-05 4.78112e-06 0.00108939
0.00665444 0.000760691 0.000367855
0.000760691 0.00402052 8.40555e-05
0.000367855 8.40555e-05 0.00154727
-0.00215928 0.000199527 -4.18472e-06
0.000199527 0.000417134 -8.76837e-06
-4.18472e-06 -8.76837e-06 -0.000462825
0.000535051 0.000199009 -1.03843e-05
0.000199009 0.000680905 -1.12273e-05
-1.03843e-05 -1.12273e-05 0.0001263
-0.000530284 0.000118378 -8.95602e-06
0.000118378 -0.000681727 2.3785e-06
-8.95602e-06 2.3785e-06 -0.000850608
0.000103679 3.77326e-05 -6.62686e-06
3.77326e-05 -0.000179128 -2.96264e-06
-6.62686e-06 -2.96264e-06 -0.0003405
-0.000235986 5.14021e-05 -3.56139e-06
5.14021e-05 -0.000386502 -9.74142e-06
-3.56139e-06 -9.74142e-06 -0.000553689
0.00146642 7.78448e-05 2.39707e-06
7.78448e-05 0.00067158 4.83087e-07
2.39707e-06 4.83087e-07 0.00050147
0.000203479 0.0001116 -3.16448e-06
0.0001116 -0.000174733 -3.93711e-06
-3.16448e-06 -3.93711e-06 -0.000341331
0.00237248 0.000332477 -8.04237e-06
0.000332477 0.00125586 -3.63192e-06
-8.04237e-06 -3.63192e-06 0.00104022
0.00109158 0.00027025 -4.52611e-06
0.00027025 0.000391759 -1.34744e-05
-4.52611e-06 -1.34744e-05 6.64434e-05
-0.00136366 0.000122398 1.59339e-06
0.000122398 -0.000757186 5.62362e-07
1.59339e-06 5.62362e-07 -0.00112708
0.000621108 0.000133515 -7.52668e-06
0.000133515 0.00014687 -3.69799e-06
-7.52668e-06 -3.69799e-06 6.89282e-06
-7.8359e-05 5.58716e-05 -1.41304e-05
5.58716e-05 -0.000352997 -7.70903e-06
-1.41304e-05 -7.70903e-06 -0.00043669
-0.000325651 3.49978e-05 -7.695e-07
3.49978e-05 -0.000276551 1.84011e-06
-7.695e-07 1.84011e-06 -0.0005104
0.00107752 0.000347037 2.03597e-05
0.000347037 0.000722947 -7.73952e-07
2.03597e-05 -7.73952e-07 0.000282325
0.00420272 -0.00363048 0.000107964
-0.00363048 0.00650716 0.000249563
0.000107964 0.000249563 0.000437971
0.00670576 0.00153872 0.000160273
0.00153872 0.00338556 0.000179644
0.000160273 0.000179644 -0.00191244
0.00334813 0.00057465 -3.34845e-05
0.00057465 0.000746544 -8.21799e-05
-3.34845e-05 -8.21799e-05 -0.00114998
0.0266491 -0.00580973 -0.000829269
-0.00580973 0.00752887 -0.000404831
-0.000829269 -0.000404831 0.00455578
0.00571611 -0.00168089 0.000291495
-0.00168089 0.00405576 0.000518432
0.000291495 0.000518432 0.000287925
0.00314886 -0.00178332 -0.000267159
-0.00178332 0.00511951 0.000109002
-0.000267159 0.000109002 -0.00230985
-0.00143798 -0.000573224 0.000114649
-0.000573224 0.00113775 2.14768e-05
0.000114649 2.14768e-05 0.000138395
-0.000651671 -0.000164896 0.000116942
-0.000164896 0.00116817 5.32225e-05
0.000116942 5.32225e-05 0.000389915
0.0167733 -0.0097134 0.000490617
-0.0097134 0.00832552 0.000462152
0.000490617 0.000462152 0.00443153
0.00188714 0.00165045 -0.000106882
0.00165045 0.00438613 -8.98115e-05
-0.000106882 -8.98115e-05 -0.00230785
0.00909079 -0.00402446 -0.000135089
-0.00402446 0.00468353 0.000115702
-0.000135089 0.000115702 -0.00111134
0.000358367 0.000775723 -1.7546e-05
0.000775723 0.00116774 5.49785e-05
-1.7546e-05 5.49785e-05 0.000717725
0.011291 0.00440522 -0.000130541
0.00440522 0.00376225 4.71542e-06
-0.000130541 4.71542e-06 -9.92512e-05
0.0170248 -0.00707366 -0.000876238
-0.00707366 0.00556189 -0.000505647
-0.000876238 -0.000505647 0.000778379
0.000218299 0.000551304 6.60254e-06
0.000551304 -0.000279535 -1.03812e-05
6.60254e-06 -1.03812e-05 -0.000433553
0.000506167 0.000198045 7.60294e-06
0.000198045 0.000281128 5.47354e-06
7.60294e-06 5.47354e-06 1.64921e-06
-0.000158085 5.03866e-05 -1.44347e-05
5.03866e-05 -5.31751e-05 -3.69262e-06
-1.44347e-05 -3.69262e-06 -0.000343952
-0.00380532 -0.000344439 -0.000125512
-0.000344439 -7.83759e-05 -6.32008e-05
-0.000125512 -6.32008e-05 -0.00193023
-0.000603723 0.000234881 1.03044e-05
0.000234881 -6.25794e-05 -1.44219e-05
1.03044e-05 -1.44219e-05 -0.000601565
0.00126022 0.000238933 -5.07618e-06
0.000238933 0.000863942 1.4176e-05
-5.07618e-06 1.4176e-05 0.000572016
0.0012165 0.000708517 1.33471e-05
0.000708517 0.00063829 3.4039e-06
1.33471e-05 3.4039e-06 0.000212165
-0.000396725 0.000546326 4.06558e-05
0.000546326 0.000761807 -3.15818e-05
4.06558e-05 -3.15818e-05 -0.000500488
0.00098021 0.00144944 7.2192e-05
0.00144944 0.00015813 5.06872e-06
7.2192e-05 5.06872e-06 -0.000753696
-0.0062984 0.00118831 0.000385877
0.00118831 0.00563925 1.06284e-06
0.000385877 1.06284e-06 -0.00167459
0.00228482 -0.000220011 -1.07468e-05
-0.000220011 0.00206239 7.1326e-05
-1.07468e-05 7.1326e-05 -0.000872924
-0.00275062 -4.39465e-05 -1.53596e-05
-4.39465e-05 0.00102022 6.00673e-05
-1.53596e-05 6.00673e-05 -5.54313e-05
-0.00062841 -0.000307472 -6.27505e-05
-0.000307472 0.000721106 1.6846e-05
-6.27505e-05 1.6846e-05 -0.000483198
-0.00162696 -0.000504365 -7.30401e-05
-0.000504365 -0.000282662 5.79854e-05
-7.30401e-05 5.79854e-05 -8.01743e-05
-0.000424504 -0.000516042 -0.000203007
-0.000516042 0.000928925 0.000131381
-0.000203007 0.000131381 -0.00337948
-0.000699212 -0.00413863 0.000267062
-0.00413863 0.00207341 -0.000102645
0.000267062 -0.000102645 -0.00393669
0.0117054 0.00547438 0.000746413
0.00547438 0.00152005 -0.000460793
0.000746413 -0.000460793 -0.00270135
0.0118559 0.00396903 -0.000423914
0.00396903 0.00824599 0.000356575
-0.000423914 0.000356575 0.00336707
0.00115003 -0.000911796 -1.28708e-05
-0.000911796 0.00137138 -7.5161e-07
-1.28708e-05 -7.5161e-07 0.000503924
0.00220414 0.00067404 0.000147988
0.00067404 0.00791799 -2.75187e-05
0.000147988 -2.75187e-05 0.00342502
0.00162587 0.00445308 8.04632e-06
0.00445308 0.00100511 7.51233e-05
8.04632e-06 7.51233e-05 -0.00285964
0.00247624 -0.00284151 8.55956e-05
-0.00284151 0.000787739 -4.62927e-05
8.55956e-05 -4.62927e-05 0.00100883
0.0167858 -0.00445822 1.10528e-05
-0.00445822 0.00295744 1.74195e-06
1.10528e-05 1.74195e-06 0.0010515
0.00317121 -0.0017575 1.65593e-06
-0.0017575 0.00128692 1.90394e-05
1.65593e-06 1.90394e-05 0.000863335
-0.00782924 0.00136952 -0.000658115
0.00136952 -0.00219697 0.000107792
-0.000658115 0.000107792 -0.00525837
0.0159869 -0.00286399 -0.000232988
-0.00286399 0.00187428 6.57859e-05
-0.000232988 6.57859e-05 0.000577409
0.00397383 -0.00287175 0.000117035
-0.00287175 -8.75948e-07 -7.56083e-05
0.000117035 -7.56083e-05 0.000688296
0.000757837 -0.000548645 -1.07416e-05
-0.000548645 0.000586103 1.22892e-05
-1.07416e-05 1.22892e-05 0.000143686
0.00144458 -0.00089091 1.77518e-06
-0.00089091 0.000412621 -3.55544e-06
1.77518e-06 -3.55544e-06 0.000111148
0.00487 -0.00109215 2.21599e-05
-0.00109215 0.00195931 -1.58581e-05
2.21599e-05 -1.58581e-05 0.00157547
-0.000477257 -0.000475917 -6.28069e-06
-0.000475917 -0.000540445 8.83708e-06
-6.28069e-06 8.83708e-06 -0.000919848
0.00157245 -0.000867454 -3.03454e-06
-0.000867454 0.000183736 1.03085e-06
-3.03454e-06 1.03085e-06 -0.000237106
0.00328333 -0.00111379 2.453e-06
-0.00111379 0.000869347 -8.32483e-06
2.453e-06 -8.32483e-06 0.000437143
0.00147305 -0.000767527 -1.02241e-05
-0.000767527 0.000248232 1.00534e-05
-1.02241e-05 1.00534e-05 -0.000352844
0.0020492 -0.000978988 -8.92051e-07
-0.000978988 0.000340112 2.26122e-06
-8.92051e-07 2.26122e-06 -0.000162155
0.00199094 -0.000789555 -2.68208e-06
-0.000789555 6.71151e-05 -5.68134e-06
-2.68208e-06 -5.68134e-06 -0.000244196
0.00169834 -0.000863502 1.69073e-06
-0.000863502 0.000284307 4.24267e-06
1.69073e-06 4.24267e-06 -0.000263522
0.00210428 -0.000767348 -1.7155e-06
-0.000767348 0.000305041 1.58471e-06
-1.7155e-06 1.58471e-06 -8.25483e-05
0.00210268 -0.000568642 -2.41007e-06
-0.000568642 0.000113635 -3.63716e-06
-2.41007e-06 -3.63716e-06 -0.000105198
0.00191739 -0.000474243 -4.2779e-06
-0.000474243 6.86147e-05 -2.74854e-07
-4.2779e-06 -2.74854e-07 -0.000111641
0.00174744 -0.000550802 -4.88012e-06
-0.000550802 -3.73826e-06 -1.80465e-06
-4.88012e-06 -1.80465e-06 -0.000267638
0.00185879 -0.00053479 1.66398e-06
-0.00053479 4.42158e-05 2.61711e-06
1.66398e-06 2.61711e-06 -0.000204001
0.00173373 -0.000671365 -5.59339e-06
-0.000671365 0.000130944 -2.80107e-06
-5.59339e-06 -2.80107e-06 -0.000231164
0.00211036 -0.00078177 2.83463e-06
-0.00078177 0.000314474 -1.83405e-07
2.83463e-06 -1.83405e-07 -8.52224e-05
0.00220876 -0.000782856 5.89398e-06
-0.000782856 0.000384251 1.02195e-06
5.89398e-06 1.02195e-06 -1.8529e-05
0.00176688 -0.000691434 -1.48383e-06
-0.000691434 0.000377759 -2.01845e-06
-1.48383e-06 -2.01845e-06 -3.92607e-05
0.00219281 -0.00081558 2.12734e-06
-0.00081558 0.000589613 -6.98586e-07
2.12734e-06 -6.98586e-07 0.000139505
0.00238548 -0.000920698 2.99374e-06
-0.000920698 0.000666282 -2.51711e-06
2.99374e-06 -2.51711e-06 0.000158577
0.00127074 -0.000411057 -6.96996e-06
-0.000411057 0.000287537 3.33514e-06
-6.96996e-06 3.33514e-06 -1.67445e-05
0.00159844 -0.000588671 1.75022e-06
-0.000588671 0.000454131 1.0094e-06
1.75022e-06 1.0094e-06 6.33252e-05
0.00118006 -0.000628196 -3.62537e-06
-0.000628196 0.000190476 1.72505e-06
-3.62537e-06 1.72505e-06 -0.000222826
0.000483644 -0.000221751 -8.03288e-06
-0.000221751 -7.08346e-05 -1.7552e-07
-8.03288e-06 -1.7552e-07 -0.000288021
0.00105374 -0.000334671 1.01158e-06
-0.000334671 0.000246253 -8.69934e-07
1.01158e-06 -8.69934e-07 -2.45888e-05
0.000526081 -0.000342767 -8.58647e-06
-0.000342767 -8.6175e-05 1.55821e-07
-8.58647e-06 1.55821e-07 -0.000391072
0.000331556 -6.37235e-05 -1.35211e-05
-6.37235e-05 -0.000115392 1.35322e-05
-1.35211e-05 1.35322e-05 -0.000193812
0.000859807 -0.000195097 3.2954e-06
-0.000195097 0.000255936 1.39849e-06
3.2954e-06 1.39849e-06 1.81311e-05
0.00058379 -0.000260685 2.07456e-08
-0.000260685 0.000100972 1.67991e-06
2.07456e-08 1.67991e-06 -0.000184007
0.0039792 0.000242805 6.95433e-06
0.000242805 0.00226098 5.85828e-06
6.95433e-06 5.85828e-06 0.00222143
0.000436663 -3.60755e-05 3.5764e-07
-3.60755e-05 -4.02496e-05 -2.22625e-07
3.5764e-07 -2.22625e-07 -0.000104765
0.00128714 -0.000120925 6.30818e-08
-0.000120925 0.000514111 -5.93456e-06
6.30818e-08 -5.93456e-06 0.000333336
0.00342387 0.000142835 9.42934e-06
0.000142835 0.00187257 7.09357e-07
9.42934e-06 7.09357e-07 0.00186563
0.000547442 -1.36148e-05 5.37234e-06
-1.36148e-05 3.14675e-05 -1.16562e-05
5.37234e-06 -1.16562e-05 -2.13636e-05
0.00309186 0.000116938 5.65865e-05
0.000116938 0.00165298 -5.17158e-06
5.65865e-05 -5.17158e-06 0.00165265
0.00224524 0.000361214 6.06421e-06
0.000361214 0.00110888 1.91413e-06
6.06421e-06 1.91413e-06 0.000855898
0.000731061 0.000176127 4.52012e-07
0.000176127 0.000265839 -4.68685e-06
4.52012e-07 -4.68685e-06 1.4175e-05
0.00142886 0.000211741 8.87311e-09
0.000211741 0.000711947 -4.99501e-06
8.87311e-09 -4.99501e-06 0.000447562
0.000768855 7.74586e-05 2.42292e-06
7.74586e-05 0.000193928 -6.30691e-06
2.42292e-06 -6.30691e-06 6.13222e-05
0.000800716 0.000108321 5.5033e-07
0.000108321 0.000297594 1.45702e-06
5.5033e-07 1.45702e-06 8.36299e-05
0.000239745 0.000115784 -2.37821e-06
0.000115784 -4.50372e-06 3.29866e-06
-2.37821e-06 3.29866e-06 -0.000235812
0.000528057 -1.39715e-07 -1.57443e-06
-1.39715e-07 2.29315e-05 -1.0654e-05
-1.57443e-06 -1.0654e-05 -1.71433e-05
0.000566835 4.49951e-05 -1.88413e-07
4.49951e-05 7.01166e-05 -3.24822e-07
-1.88413e-07 -3.24822e-07 -4.04224e-05
0.000220482 8.59132e-05 -5.49898e-06
8.59132e-05 -0.000121789 1.36706e-06
-5.49898e-06 1.36706e-06 -0.000272195
0.0026978 -8.49323e-05 -4.42819e-05
-8.49323e-05 0.0013935 -4.96427e-06
-4.42819e-05 -4.96427e-06 0.0014012
0.000407249 -2.19993e-05 2.86802e-06
-2.19993e-05 -5.82889e-05 -2.09472e-07
2.86802e-06 -2.09472e-07 -9.02906e-05
0.000480765 4.5917e-05 -3.26962e-06
4.5917e-05 1.56913e-05 3.78179e-06
-3.26962e-06 3.78179e-06 -7.9849e-05
0.00251644 -6.81525e-05 -6.83292e-06
-6.81525e-05 0.00127279 5.12901e-07
-6.83292e-06 5.12901e-07 0.00128325
0.000428419 -1.47369e-07 -2.47159e-06
-1.47369e-07 -5.30698e-05 6.28663e-06
-2.47159e-06 6.28663e-06 -7.74347e-05
0.00230631 -4.91992e-05 2.40257e-05
-4.91992e-05 0.00113553 4.79334e-06
2.40257e-05 4.79334e-06 0.00114946
-0.00945117 0.0011122 -0.000137548
0.0011122 0.00417322 8.01496e-05
-0.000137548 8.01496e-05 -0.00262784
0.00625911 0.000568278 1.03806e-05
0.000568278 0.00376902 -1.26023e-06
1.03806e-05 -1.26023e-06 0.00141315
-0.0017058 0.000120326 6.20986e-05
0.000120326 0.000445 3.08155e-05
6.20986e-05 3.08155e-05 -0.000699503
0.000151305 0.000152739 1.13887e-07
0.000152739 -0.000213287 3.50062e-06
1.13887e-07 3.50062e-06 -0.000422714
0.00328242 0.000709111 1.73831e-05
0.000709111 0.0016702 1.16546e-05
1.73831e-05 1.16546e-05 0.00128829
0.000685203 0.000186545 -8.51089e-06
0.000186545 0.000243501 2.98116e-06
-8.51089e-06 2.98116e-06 -9.58729e-05
0.000403783 6.74475e-05 -8.01347e-06
6.74475e-05 1.83234e-05 -2.06814e-05
-8.01347e-06 -2.06814e-05 -0.000159799
0.00297104 0.000330247 3.36262e-06
0.000330247 0.00151678 -1.40126e-06
3.36262e-06 -1.40126e-06 0.00132739
-0.00102361 1.69474e-05 -1.42542e-05
1.69474e-05 -0.000827642 1.07084e-05
-1.42542e-05 1.07084e-05 -0.000984265
-6.87944e-05 0.000135115 -1.03794e-06
0.000135115 -8.94126e-05 7.32402e-06
-1.03794e-06 7.32402e-06 -0.000390965
0.000531457 0.000162357 -3.40711e-06
0.000162357 0.000116209 -5.74124e-06
-3.40711e-06 -5.74124e-06 -0.000211664
0.00164201 0.000576509 8.73685e-06
0.000576509 0.000808578 -2.38295e-05
8.73685e-06 -2.38295e-05 0.000331496
-0.000215442 0.000489452 -1.65293e-05
0.000489452 -0.000448842 5.36666e-05
-1.65293e-05 5.36666e-05 -0.000608284
0.00152463 6.19497e-05 -1.6837e-05
6.19497e-05 0.000811266 1.75835e-05
-1.6837e-05 1.75835e-05 0.000601641
0.00157103 0.0003149 6.42852e-06
0.0003149 0.00101742 -1.00922e-05
6.42852e-06 -1.00922e-05 0.000620841
0.00104979 -0.002682 -0.00176167
-0.002682 0.00193761 -0.000276387
-0.00176167 -0.000276387 -0.00231027
-0.00173071 -0.00279029 0.000589308
-0.00279029 0.00658085 0.000201809
0.000589308 0.000201809 0.000473259
0.00747495 0.00195105 -0.000629774
0.00195105 0.00313693 -0.000216278
-0.000629774 -0.000216278 -0.00260015
0.00699362 -0.0103553 0.00261502
-0.0103553 0.00638739 0.00158154
0.00261502 0.00158154 0.00191137
0.0277243 -0.00410362 5.97981e-05
-0.00410362 0.00958709 0.000394209
5.97981e-05 0.000394209 0.00554311
-0.00350349 0.00143236 -2.16661e-05
0.00143236 0.00247065 -0.000193201
-2.16661e-05 -0.000193201 -0.00342038
-0.00265604 0.000136199 -0.000359976
0.000136199 0.000992043 -6.19522e-05
-0.000359976 -6.19522e-05 -0.000761575
0.000852338 0.00078926 7.84814e-05
0.00078926 0.0016787 5.52314e-05
7.84814e-05 5.52314e-05 0.00129135
0.0205593 -0.00539644 -0.000713676
-0.00539644 0.00856263 1.08157e-05
-0.000713676 1.08157e-05 0.00387166
-0.00245692 0.00337074 -0.000129699
0.00337074 0.000387444 -4.86106e-05
-0.000129699 -4.86106e-05 -0.0044176
0.00329793 0.00239409 2.19306e-05
0.00239409 0.00103994 -7.6243e-05
2.19306e-05 -7.6243e-05 0.00175558
0.00364836 0.0053363 -0.000461814
0.0053363 -0.00197598 -0.000113339
-0.000461814 -0.000113339 -0.00451623
0.00325844 0.0012337 2.49243e-05
0.0012337 0.00123979 -1.02108e-05
2.49243e-05 -1.02108e-05 0.000865875
0.00102068 0.00060313 -4.55393e-06
0.00060313 0.000274464 -2.5344e-06
-4.55393e-06 -2.5344e-06 0.000113155
-0.000206699 0.000175985 -1.26746e-05
0.000175985 -0.000150834 1.03813e-05
-1.26746e-05 1.03813e-05 -0.000428516
-0.00162618 0.000395261 -9.26526e-05
0.000395261 0.000177525 -7.11156e-05
-9.26526e-05 -7.11156e-05 -0.000908786
0.00196961 0.000817484 -4.1977e-05
0.000817484 0.000978858 -2.19578e-05
-4.1977e-05 -2.19578e-05 0.000546694
0.00207324 0.00160068 1.14398e-05
0.00160068 0.000597514 -8.708e-06
1.14398e-05 -8.708e-06 -0.00030191
-0.00102239 0.00166515 0.000101801
0.00166515 -0.00183694 5.1114e-05
0.000101801 5.1114e-05 -0.00220625
-0.00646635 -0.000529649 -0.000661958
-0.000529649 -0.00410368 5.30218e-05
-0.000661958 5.30218e-05 -0.00432377
-0.00905091 0.000513416 0.000437531
0.000513416 0.00594767 1.8177e-05
0.000437531 1.8177e-05 -0.000679025
0.0029007 -7.05355e-05 -0.000136032
-7.05355e-05 0.00209952 3.37131e-05
-0.000136032 3.37131e-05 0.000226925
0.00208469 -0.00106754 -6.15337e-05
-0.00106754 0.0014215 -4.58709e-05
-6.15337e-05 -4.58709e-05 0.00058712
-0.00078474 -0.0020974 7.47236e-05
-0.0020974 -0.000607856 4.37739e-05
7.47236e-05 4.37739e-05 -0.000356551
0.000754708 0.000774791 9.30887e-05
0.000774791 0.00760447 5.24646e-05
9.30887e-05 5.24646e-05 0.00292285
0.00290804 -0.00380417 0.000519431
-0.00380417 -0.00177909 -0.000105181
0.000519431 -0.000105181 -0.00372536
0.0240056 0.00382826 0.000979679
0.00382826 0.0105831 -9.76776e-05
0.000979679 -9.76776e-05 0.00710129
0.00164505 -0.00184739 -2.00751e-05
-0.00184739 0.000382338 3.98509e-06
-2.00751e-05 3.98509e-06 -0.000304345
0.00260825 0.0016784 0.000295373
0.0016784 0.00104247 -9.0966e-05
0.000295373 -9.0966e-05 -0.00151232
0.0075709 -0.00251816 -0.000186301
-0.00251816 -0.0028592 0.000155019
-0.000186301 0.000155019 -0.00492028
0.00335088 -0.00282163 -9.11466e-06
-0.00282163 -0.000691645 2.57923e-05
-9.11466e-06 2.57923e-05 0.000348632
0.00256457 -0.00153876 7.3869e-05
-0.00153876 0.000219709 -2.0558e-05
7.3869e-05 -2.0558e-05 1.97208e-05
0.0179055 -0.000930556 -9.07277e-05
-0.000930556 0.00347579 5.78447e-05
-9.07277e-05 5.78447e-05 0.00236243
0.00271668 -0.00196411 0.000136126
-0.00196411 -0.00330612 -8.77251e-05
0.000136126 -8.77251e-05 -0.00161643
-0.000677074 -0.000728924 -2.57137e-05
-0.000728924 -0.000823976 3.5148e-05
-2.57137e-05 3.5148e-05 -0.000973055
0.00025302 -0.00064091 -4.03008e-05
-0.00064091 -0.000563658 4.15289e-06
-4.03008e-05 4.15289e-06 -0.000727463
0.00623701 -0.00121944 6.137e-05
-0.00121944 0.00234346 -2.5652e-05
6.137e-05 -2.5652e-05 0.00209732
0.000175138 -0.000690577 -9.68675e-06
-0.000690577 -0.000512121 3.67484e-06
-9.68675e-06 3.67484e-06 -0.000926344
0.00220815 -0.000978492 -3.14277e-06
-0.000978492 0.000316634 -3.42399e-06
-3.14277e-06 -3.42399e-06 -8.19332e-05
0.00285626 -0.000883901 -8.43388e-08
-0.000883901 0.000356329 -5.1504e-06
-8.43388e-08 -5.1504e-06 0.000139356
0.00206373 -0.000971411 5.30741e-06
-0.000971411 0.000355323 1.03399e-05
5.30741e-06 1.03399e-05 -0.000152108
0.00224333 -0.000806783 -1.54283e-06
-0.000806783 0.00021309 2.66087e-07
-1.54283e-06 2.66087e-07 -9.87018e-05
0.0021753 -0.000591691 -6.46117e-07
-0.000591691 1.96798e-05 -9.14117e-07
-6.46117e-07 -9.14117e-07 -0.000104821
0.0016391 -0.000704709 7.47679e-06
-0.000704709 4.99117e-05 7.24726e-06
7.47679e-06 7.24726e-06 -0.000322899
0.00203936 -0.000556141 -3.76034e-07
-0.000556141 7.63002e-05 2.51507e-06
-3.76034e-07 2.51507e-06 -0.000134798
0.00212017 -0.000531159 -2.88633e-06
-0.000531159 8.61633e-05 1.85123e-06
-2.88633e-06 1.85123e-06 -5.39597e-05
0.00207358 -0.000500686 -4.24859e-06
-0.000500686 0.000153212 1.35823e-06
-4.24859e-06 1.35823e-06 -6.34654e-06
0.00205042 -0.000484942 -3.06481e-06
-0.000484942 0.000143232 3.16392e-06
-3.06481e-06 3.16392e-06 -3.36364e-05
0.00211753 -0.000492935 -2.31203e-06
-0.000492935 0.000238478 -3.3247e-06
-2.31203e-06 -3.3247e-06 4.54212e-05
0.00206583 -0.000584222 -6.54601e-06
-0.000584222 0.000218547 -2.68044e-06
-6.54601e-06 -2.68044e-06 -5.53028e-05
0.00198664 -0.000568473 1.65452e-06
-0.000568473 0.000150362 9.54213e-07
1.65452e-06 9.54213e-07 -0.000114284
0.0019417 -0.000536747 5.61211e-06
-0.000536747 9.19395e-05 7.18812e-06
5.61211e-06 7.18812e-06 -0.00015311
0.00197749 -0.000668287 -7.51036e-06
-0.000668287 0.000341902 -2.70242e-06
-7.51036e-06 -2.70242e-06 -2.47979e-05
0.00173729 -0.000679778 -5.70157e-07
-0.000679778 0.000119005 1.38422e-07
-5.70157e-07 1.38422e-07 -0.000246903
0.0022661 -0.000789536 8.12181e-06
-0.000789536 0.000426557 1.42839e-06
8.12181e-06 1.42839e-06 3.01664e-05
0.00143507 -0.000513516 -1.1439e-05
-0.000513516 0.000264592 3.22406e-06
-1.1439e-05 3.22406e-06 -8.44965e-05
0.00187198 -0.000702945 -5.72692e-07
-0.000702945 0.000442632 8.02507e-07
-5.72692e-07 8.02507e-07 2.36647e-05
0.00207302 -0.000809759 4.30564e-06
-0.000809759 0.000511938 5.82746e-07
4.30564e-06 5.82746e-07 6.01354e-05
0.000650901 -0.000222403 -7.93409e-06
-0.000222403 -2.58336e-06 5.37825e-06
-7.93409e-06 5.37825e-06 -0.000220829
0.00126284 -0.000417754 1.40294e-06
-0.000417754 0.00027332 2.38535e-07
1.40294e-06 2.38535e-07 -3.46844e-05
0.00119787 -0.000539826 -2.15024e-06
-0.000539826 0.000194897 1.98368e-06
-2.15024e-06 1.98368e-06 -0.000182163
0.000491672 -0.000139919 -2.44694e-05
-0.000139919 -4.76758e-05 1.50436e-05
-2.44694e-05 1.50436e-05 -0.000147134
0.000613649 -0.00022078 -2.56408e-06
-0.00022078 3.84975e-05 9.04078e-07
-2.56408e-06 9.04078e-07 -0.000198294
0.000613975 -0.000337042 1.65106e-06
-0.000337042 -3.38132e-05 -8.9647e-07
1.65106e-06 -8.9647e-07 -0.000310953
0.00443713 0.000216137 -9.10094e-05
0.000216137 0.00255099 8.07561e-06
-9.10094e-05 8.07561e-06 0.00252199
0.00055609 -8.19028e-05 1.78753e-06
-8.19028e-05 2.06107e-05 -2.36011e-07
1.78753e-06 -2.36011e-07 -6.40467e-05
0.00164467 -0.000279664 6.82956e-06
-0.000279664 0.00074119 -2.91287e-06
6.82956e-06 -2.91287e-06 0.000497819
0.00259398 0.0001349 5.53301e-05
0.0001349 0.00136168 1.41684e-06
5.53301e-05 1.41684e-06 0.00133603
0.000613428 -4.35302e-05 1.17572e-05
-4.35302e-05 6.50013e-05 -1.34889e-05
1.17572e-05 -1.34889e-05 -2.81333e-06
0.00365589 0.000132966 8.65884e-05
0.000132966 0.00201937 -5.62088e-06
8.65884e-05 -5.62088e-06 0.00201492
0.00184887 0.000369234 3.39776e-06
0.000369234 0.000737395 -4.33552e-06
3.39776e-06 -4.33552e-06 0.000504732
0.000449199 0.000159746 -4.44776e-06
0.000159746 -5.09998e-05 -7.66139e-08
-4.44776e-06 -7.66139e-08 -0.000253337
0.000485375 0.000176554 1.10523e-06
0.000176554 7.19057e-05 -7.87779e-06
1.10523e-06 -7.87779e-06 -0.000176302
0.000335781 0.000140619 -2.53875e-06
0.000140619 -5.45493e-06 1.05922e-05
-2.53875e-06 1.05922e-05 -0.000232584
0.000634296 0.0001085 5.96781e-07
0.0001085 0.000190569 1.62505e-07
5.96781e-07 1.62505e-07 -4.98776e-05
0.00108699 0.000124621 -1.87728e-07
0.000124621 0.000385117 -9.35683e-06
-1.87728e-07 -9.35683e-06 0.000226106
0.00057781 3.71411e-05 -5.5643e-06
3.71411e-05 5.4526e-05 -1.30646e-05
-5.5643e-06 -1.30646e-05 3.85306e-06
0.000694985 7.02534e-05 4.44636e-07
7.02534e-05 0.000152844 -1.00016e-07
4.44636e-07 -1.00016e-07 2e-05
-0.00036735 2.65411e-05 -6.26657e-06
2.65411e-05 -0.000464629 4.27776e-07
-6.26657e-06 4.27776e-07 -0.000653168
0.00294847 -9.91489e-05 -6.21861e-05
-9.91489e-05 0.00156048 -5.50059e-06
-6.21861e-05 -5.50059e-06 0.00156528
0.000401304 1.74644e-05 1.03961e-06
1.74644e-05 -5.52828e-05 -3.29677e-07
1.03961e-06 -3.29677e-07 -9.50349e-05
0.000572008 5.20927e-05 -3.64423e-06
5.20927e-05 7.89117e-05 6.10931e-06
-3.64423e-06 6.10931e-06 -3.41177e-05
0.00272711 -8.7314e-05 -7.60562e-06
-8.7314e-05 0.00141272 6.3937e-07
-7.60562e-06 6.3937e-07 0.00141949
0.000372842 -1.25833e-05 -7.00523e-07
-1.25833e-05 -7.85421e-05 7.81735e-06
-7.00523e-07 7.81735e-06 -0.000110347
0.00252038 -6.83066e-05 3.00392e-05
-6.83066e-05 0.00127506 4.98845e-06
3.00392e-05 4.98845e-06 0.00128533
0.00157896 1.02567e-05 -0.000965076
1.02567e-05 0.00403169 -6.74642e-05
-0.000965076 -6.74642e-05 0.00180732
-0.00580862 0.000131029 3.26616e-05
0.000131029 0.00525366 -8.21023e-06
3.26616e-05 -8.21023e-06 -0.00181339
0.0059943 0.000272257 -0.000288649
0.000272257 0.00361902 -7.79916e-05
-0.000288649 -7.79916e-05 0.0014299
-0.00034974 5.53149e-05 3.57622e-06
5.53149e-05 -0.000518784 -6.84936e-06
3.57622e-06 -6.84936e-06 -0.00072985
0.000414276 0.000107441 6.68893e-06
0.000107441 1.23894e-05 7.38234e-06
6.68893e-06 7.38234e-06 -0.000303513
0.0029187 0.000641519 -3.32595e-06
0.000641519 0.00147993 3.80776e-06
-3.32595e-06 3.80776e-06 0.00110613
0.00231027 0.000745836 1.83258e-05
0.000745836 0.000962458 8.47867e-06
1.83258e-05 8.47867e-06 0.000481549
0.000737094 0.000465461 1.09629e-05
0.000465461 0.000284222 6.06281e-06
1.09629e-05 6.06281e-06 -0.000132974
0.00139474 0.000211801 -8.80247e-06
0.000211801 0.000790237 7.44512e-06
-8.80247e-06 7.44512e-06 0.00048836
0.00147189 0.000221028 1.00421e-05
0.000221028 0.000727246 1.00907e-05
1.00421e-05 1.00907e-05 0.000419747
0.000733383 0.000491379 -4.44518e-06
0.000491379 0.000321626 -5.73765e-07
-4.44518e-06 -5.73765e-07 -0.000152358
8.58034e-05 0.000655995 1.89415e-05
0.000655995 -0.000465195 -9.89359e-06
1.89415e-05 -9.89359e-06 -0.000826066
0.00261819 0.000894693 -8.26689e-06
0.000894693 0.000994045 2.65537e-05
-8.26689e-06 2.65537e-05 0.000735092
0.00154566 0.000938639 3.23928e-05
0.000938639 0.00010093 1.16727e-05
3.23928e-05 1.16727e-05 -5.2216e-05
0.0014559 0.000686 -6.10512e-06
0.000686 0.000544666 -2.91268e-06
-6.10512e-06 -2.91268e-06 0.000296424
0.00206729 0.000428113 -7.55006e-06
0.000428113 0.00118939 3.41683e-05
-7.55006e-06 3.41683e-05 0.000817161
0.0139373 0.00281718 -0.000133195
0.00281718 0.0015669 6.15619e-05
-0.000133195 6.15619e-05 0.00041428
0.00341392 -0.00228861 -0.000621469
-0.00228861 0.00408785 -0.000219112
-0.000621469 -0.000219112 0.000731342
0.000459149 -0.00406989 0.000894315
-0.00406989 0.00726762 0.000228276
0.000894315 0.000228276 0.00106057
0.00972586 -0.00321295 0.000347922
-0.00321295 0.00402791 0.000324534
0.000347922 0.000324534 -0.000213069
0.0141681 0.00537594 -0.000111173
0.00537594 0.0046409 -5.35253e-05
-0.000111173 -5.35253e-05 0.000592255
-0.00303757 0.000291209 -5.12961e-05
0.000291209 8.40238e-05 -4.54645e-05
-5.12961e-05 -4.54645e-05 -0.000392915
0.00207903 0.00207058 -6.5099e-05
0.00207058 0.00051625 -2.49428e-05
-6.5099e-05 -2.49428e-05 0.00135787
0.0169193 0.00517109 1.87575e-05
0.00517109 0.00335265 3.8855e-05
1.87575e-05 3.8855e-05 0.000866805
0.0067087 0.00393084 -0.000100457
0.00393084 -0.000255417 -0.00011426
-0.000100457 -0.00011426 0.000323812
0.00177033 0.00128999 6.59837e-06
0.00128999 0.000187837 1.79507e-06
6.59837e-06 1.79507e-06 -9.76081e-05
0.00163045 0.000980755 1.12584e-05
0.000980755 0.000473007 -4.30985e-06
1.12584e-05 -4.30985e-06 0.000154939
0.00190368 0.000636876 -3.03671e-05
0.000636876 0.00088877 4.74928e-06
-3.03671e-05 4.74928e-06 0.000713839
0.00254988 0.00174894 -7.40803e-05
0.00174894 0.000686499 -2.71279e-05
-7.40803e-05 -2.71279e-05 -0.000193968
0.00145868 0.00195817 8.19553e-05
0.00195817 -0.000781594 4.29668e-05
8.19553e-05 4.29668e-05 -0.00125571
0.00282866 -0.000288587 -0.000135077
-0.000288587 -0.00519282 5.54536e-05
-0.000135077 5.54536e-05 -0.00544188
0.000593203 -0.00184962 1.24315e-05
-0.00184962 0.00246013 1.4677e-05
1.24315e-05 1.4677e-05 0.00124435
-0.0122957 -0.000317509 0.000348205
-0.000317509 0.00652157 -2.33151e-05
0.000348205 -2.33151e-05 0.000693962
0.00085381 -0.00207885 -6.41053e-05
-0.00207885 -0.000324256 2.78339e-05
-6.41053e-05 2.78339e-05 -0.00123045
0.00610466 -0.00351871 3.03025e-05
-0.00351871 0.000331506 4.80813e-05
3.03025e-05 4.80813e-05 0.000876732
0.00288817 9.28757e-05 0.00103983
9.28757e-05 0.00418305 -0.000247584
0.00103983 -0.000247584 0.00215475
0.0143971 -0.00271099 -0.000311916
-0.00271099 0.00154536 0.000170972
-0.000311916 0.000170972 0.00076642
0.00173906 -0.00151961 -3.06704e-05
-0.00151961 -0.000151457 2.30324e-06
-3.06704e-05 2.30324e-06 -0.000479557
0.0117001 -0.000143013 -0.000208417
-0.000143013 -0.00130235 7.48364e-05
-0.000208417 7.48364e-05 -0.00205262
0.00728382 -0.00227989 9.86811e-05
-0.00227989 -0.000478584 1.0773e-05
9.86811e-05 1.0773e-05 0.000505692
0.00362298 -0.00129942 6.53064e-05
-0.00129942 0.000277897 -4.46755e-05
6.53064e-05 -4.46755e-05 0.000114104
0.00241475 -0.000853491 6.95601e-06
-0.000853491 -0.00232856 3.38178e-06
6.95601e-06 3.38178e-06 -0.000981932
-0.00485942 -0.000151621 1.19932e-05
-0.000151621 -0.00334 1.494e-05
1.19932e-05 1.494e-05 -0.0033252
0.00144374 -0.000778409 -1.95987e-05
-0.000778409 -0.000303646 2.23229e-06
-1.95987e-05 2.23229e-06 -0.000317895
0.00379574 -0.000827251 3.84475e-05
-0.000827251 0.000741677 -1.48687e-05
3.84475e-05 -1.48687e-05 0.000792683
0.00106488 -0.000842798 -9.71066e-06
-0.000842798 -0.000275622 7.4343e-06
-9.71066e-06 7.4343e-06 -0.000641687
0.00223047 -0.000824068 -3.80911e-06
-0.000824068 2.35843e-05 3.26886e-06
-3.80911e-06 3.26886e-06 -0.000186292
0.00246699 -0.000669255 5.45641e-06
-0.000669255 -1.05937e-05 -1.13703e-06
5.45641e-06 -1.13703e-06 -3.67838e-05
0.00223034 -0.000791935 -3.54547e-06
-0.000791935 0.000219063 9.54895e-06
-3.54547e-06 9.54895e-06 -8.59257e-05
0.00217275 -0.000589594 4.73339e-07
-0.000589594 1.71756e-05 1.42942e-06
4.73339e-07 1.42942e-06 -0.00010399
0.00231661 -0.00058527 -5.95475e-07
-0.00058527 7.88868e-05 5.53437e-07
-5.95475e-07 5.53437e-07 1.76111e-05
0.00193638 -0.000538897 5.28993e-06
-0.000538897 1.76483e-05 6.12822e-06
5.28993e-06 6.12822e-06 -0.000184442
0.00209279 -0.000528967 2.99075e-08
-0.000528967 6.83091e-05 1.30445e-06
2.99075e-08 1.30445e-06 -6.91802e-05
0.00224595 -0.00056663 -2.35266e-06
-0.00056663 0.000140078 1.75041e-06
-2.35266e-06 1.75041e-06 1.39496e-05
0.00208407 -0.000508437 -4.48096e-06
-0.000508437 0.000150835 2.2671e-06
-4.48096e-06 2.2671e-06 -6.48774e-06
0.00220954 -0.000504992 -1.39842e-06
-0.000504992 0.000278667 -6.16809e-07
-1.39842e-06 -6.16809e-07 0.000109331
0.00216419 -0.000494656 2.66189e-06
-0.000494656 0.000207656 5.00544e-06
2.66189e-06 5.00544e-06 3.4394e-05
0.00210041 -0.000491891 6.78391e-07
-0.000491891 0.000226706 -6.17947e-07
6.78391e-07 -6.17947e-07 3.39013e-05
0.00200928 -0.000509461 -3.07601e-06
-0.000509461 0.000174467 -2.41717e-06
-3.07601e-06 -2.41717e-06 -3.89941e-05
0.00209893 -0.00056805 -4.20607e-06
-0.00056805 0.000313225 -4.18691e-06
-4.20607e-06 -4.18691e-06 2.77661e-05
0.00213135 -0.000592474 -4.93666e-07
-0.000592474 0.00026202 5.29406e-08
-4.93666e-07 5.29406e-08 -1.47166e-05
0.0022207 -0.000585273 7.85907e-06
-0.000585273 0.000302884 4.10151e-06
7.85907e-06 4.10151e-06 3.76859e-05
0.00165834 -0.00055402 -1.08507e-05
-0.00055402 0.000251027 2.3027e-06
-1.08507e-05 2.3027e-06 -9.6582e-05
0.00190093 -0.000658967 -1.83172e-06
-0.000658967 0.000295333 -2.99858e-07
-1.83172e-06 -2.99858e-07 -7.18263e-05
0.00175724 -0.000689199 6.02607e-06
-0.000689199 0.000116596 2.23416e-06
6.02607e-06 2.23416e-06 -0.000253246
0.000813263 -0.000266605 -1.12266e-05
-0.000266605 2.64445e-05 7.94538e-06
-1.12266e-05 7.94538e-06 -0.000206462
0.00140438 -0.000511142 6.00321e-07
-0.000511142 0.000249414 2.99883e-07
6.00321e-07 2.99883e-07 -9.89031e-05
0.00197198 -0.00071239 3.29736e-06
-0.00071239 0.000506716 2.28962e-06
3.29736e-06 2.28962e-06 8.65723e-05
0.00030843 -0.000188567 -2.17888e-05
-0.000188567 -0.000169985 1.89905e-05
-2.17888e-05 1.89905e-05 -0.000294642
0.000622655 -0.000227504 -4.96906e-07
-0.000227504 -1.48961e-05 2.59544e-07
-4.96906e-07 2.59544e-07 -0.000239322
0.00103683 -0.000392919 7.87772e-06
-0.000392919 0.00012371 -1.54857e-06
7.87772e-06 -1.54857e-06 -0.000179018
0.00527213 0.000163389 -0.000152838
0.000163389 0.00306149 1.00744e-05
-0.000152838 1.00744e-05 0.00304623
0.000501501 -0.000160588 -3.66921e-06
-0.000160588 -3.91281e-05 -8.56095e-07
-3.66921e-06 -8.56095e-07 -0.000144492
0.00121586 -0.000272461 5.81883e-06
-0.000272461 0.000432678 -2.85873e-06
5.81883e-06 -2.85873e-06 0.000178511
0.0046694 0.000179206 2.19488e-05
0.000179206 0.00269124 5.16321e-07
2.19488e-05 5.16321e-07 0.00267173
0.000663161 -0.000107416 2.16481e-05
-0.000107416 8.43129e-05 -1.45313e-05
2.16481e-05 -1.45313e-05 -5.11638e-06
0.00415251 0.000140815 0.000118303
0.000140815 0.00234348 -7.93485e-06
0.000118303 -7.93485e-06 0.00233675
0.0022811 0.000635118 6.49143e-06
0.000635118 0.000963383 -6.03738e-07
6.49143e-06 -6.03738e-07 0.000558102
0.000715396 0.000277211 -1.49916e-06
0.000277211 4.2238e-05 -3.12288e-06
-1.49916e-06 -3.12288e-06 -0.000181681
0.000323764 0.000170876 4.69313e-06
0.000170876 -0.000150219 2.75906e-06
4.69313e-06 2.75906e-06 -0.000361096
-0.000750595 4.82488e-05 -2.64622e-06
4.82488e-05 -0.000785433 1.48579e-06
-2.64622e-06 1.48579e-06 -0.000987834
0.000351466 0.000129293 6.34443e-08
0.000129293 -4.49591e-05 2.18194e-06
6.34443e-08 2.18194e-06 -0.000272424
0.00100926 0.000116625 8.29129e-09
0.000116625 0.000345106 -1.19216e-05
8.29129e-09 -1.19216e-05 0.000149333
0.000212091 6.52509e-05 -3.51218e-06
6.52509e-05 -9.0122e-05 2.89657e-06
-3.51218e-06 2.89657e-06 -0.000316826
0.000581562 9.18377e-05 -1.25588e-07
9.18377e-05 8.35587e-05 5.98111e-07
-1.25588e-07 5.98111e-07 -7.72618e-05
0.000526421 4.76134e-05 -8.60205e-06
4.76134e-05 2.04961e-05 -1.58763e-05
-8.60205e-06 -1.58763e-05 -4.3739e-05
0.00331565 -0.000107297 -9.05044e-05
-0.000107297 0.00180325 -7.28508e-06
-9.05044e-05 -7.28508e-06 0.00180568
0.000406069 1.5949e-05 1.34478e-06
1.5949e-05 -4.77425e-05 -4.44665e-07
1.34478e-06 -4.44665e-07 -9.92695e-05
0.000389218 5.67924e-05 -3.57157e-06
5.67924e-05 -3.48881e-05 7.39516e-06
-3.57157e-06 7.39516e-06 -0.000164756
0.00287463 -0.000106407 -8.60288e-06
-0.000106407 0.0015145 8.09634e-07
-8.60288e-06 8.09634e-07 0.00151694
0.000288098 -5.34223e-05 -7.28635e-06
-5.34223e-05 -0.000118233 1.01165e-05
-7.28635e-06 1.01165e-05 -0.000161827
0.00267437 -8.7221e-05 3.72971e-05
-8.7221e-05 0.00137917 5.05193e-06
3.72971e-05 5.05193e-06 0.00138562
0.0152694 0.000644188 0.000523388
0.000644188 0.00179706 0.000128203
0.000523388 0.000128203 0.00162164
-0.000761756 -0.0031979 -0.000578625
-0.0031979 -0.00230485 -8.91187e-05
-0.000578625 -8.91187e-05 -0.00486595
-0.00949786 0.00159112 -0.00022715
0.00159112 0.00475354 -0.000129215
-0.00022715 -0.000129215 -0.0025339
7.27397e-05 5.04985e-05 1.54618e-05
5.04985e-05 -0.000192829 -9.10444e-06
1.54618e-05 -9.10444e-06 -0.000523411
0.00163972 0.000483075 -8.66729e-06
0.000483075 0.000711106 -6.20787e-07
-8.66729e-06 -6.20787e-07 0.0003676
0.00264633 0.000672118 -1.09438e-05
0.000672118 0.00139458 -2.66794e-06
-1.09438e-05 -2.66794e-06 0.000929251
0.00142054 0.00063142 1.06982e-06
0.00063142 0.0004252 -9.19291e-07
1.06982e-06 -9.19291e-07 -2.54656e-05
0.00151277 0.000694424 1.18173e-05
0.000694424 0.000279812 1.88864e-05
1.18173e-05 1.88864e-05 -0.000150981
-0.000566458 0.000489732 3.4727e-05
0.000489732 -0.000798209 8.02793e-06
3.4727e-05 8.02793e-06 -0.00116673
-3.09737e-05 0.000363093 -1.44217e-05
0.000363093 -5.52461e-05 9.98844e-06
-1.44217e-05 9.98844e-06 -0.000547656
-0.000275823 0.000594054 8.35368e-06
0.000594054 -0.000690612 -1.74319e-06
8.35368e-06 -1.74319e-06 -0.00102903
0.00226022 0.000855899 8.25206e-06
0.000855899 0.000843461 7.55797e-06
8.25206e-06 7.55797e-06 0.000542273
-0.000245284 0.000618248 6.60469e-06
0.000618248 -0.000800971 -6.0144e-06
6.60469e-06 -6.0144e-06 -0.00106633
0.00387271 0.0011068 6.47801e-06
0.0011068 0.00136518 1.35929e-05
6.47801e-06 1.35929e-05 0.00115066
0.00131902 0.000923982 2.22544e-05
0.000923982 -5.76928e-06 6.51569e-06
2.22544e-05 6.51569e-06 -0.000313768
0.000524757 0.000810268 4.21161e-06
0.000810268 -0.000490519 -5.64261e-08
4.21161e-06 -5.64261e-08 -0.000564496
0.000720973 0.00056051 -2.88702e-06
0.00056051 0.000117085 -5.72432e-05
-2.88702e-06 -5.72432e-05 -9.75903e-05
0.00481516 0.00189188 2.23318e-05
0.00189188 -0.00186547 3.0088e-05
2.23318e-05 3.0088e-05 -0.00018366
0.0139453 0.00338627 0.000302876
0.00338627 0.000654063 0.000165735
0.000302876 0.000165735 -0.000845488
0.0121687 -0.0047479 0.000600643
-0.0047479 0.00587367 -4.65161e-05
0.000600643 -4.65161e-05 0.0021701
0.00589102 0.00545473 0.000613426
0.00545473 -0.00109727 0.000341116
0.000613426 0.000341116 -0.00521975
3.16201e-05 0.00143405 -5.43774e-05
0.00143405 0.000124058 7.2482e-06
-5.43774e-05 7.2482e-06 0.000778627
0.00389057 0.0026744 -0.000106013
0.0026744 -0.000729958 -5.47897e-05
-0.000106013 -5.47897e-05 0.000230509
0.00629151 0.00233285 6.83555e-05
0.00233285 0.00116105 3.37082e-05
6.83555e-05 3.37082e-05 0.000914964
0.00455064 0.00170034 2.11658e-05
0.00170034 0.00142507 9.61375e-06
2.11658e-05 9.61375e-06 0.00104934
2.9285e-05 0.000749231 -2.9904e-05
0.000749231 -0.000364729 6.86265e-06
-2.9904e-05 6.86265e-06 -0.000606065
0.00735898 0.00270222 -0.000189369
0.00270222 0.00195723 -1.99568e-05
-0.000189369 -1.99568e-05 0.00128328
0.00313811 -0.000576376 1.31477e-05
-0.000576376 -0.000883366 1.86314e-05
1.31477e-05 1.86314e-05 1.35584e-05
0.0116088 -0.000578762 -5.19568e-05
-0.000578762 0.000896597 -1.74549e-05
-5.19568e-05 -1.74549e-05 0.00103232
-0.0128864 -0.00302913 0.000855751
-0.00302913 -0.00502943 1.2964e-06
0.000855751 1.2964e-06 -0.00634515
0.00099375 -0.00132666 -0.000118976
-0.00132666 -0.000423601 3.64968e-05
-0.000118976 3.64968e-05 -0.000701618
0.00853567 -0.00278009 -2.50241e-05
-0.00278009 -0.000565975 8.90246e-05
-2.50241e-05 8.90246e-05 0.000669028
0.00115037 -0.000301221 -0.000308749
-0.000301221 -0.00527444 3.75336e-05
-0.000308749 3.75336e-05 -0.00679326
0.00299937 -0.00112453 3.51737e-05
-0.00112453 -8.41149e-05 9.79389e-07
3.51737e-05 9.79389e-07 4.84875e-05
0.00520834 -0.000805507 -5.19093e-05
-0.000805507 -0.000636502 6.53085e-07
-5.19093e-05 6.53085e-07 0.000309123
0.00611445 -0.000960473 5.12678e-05
-0.000960473 0.00139884 -3.53159e-05
5.12678e-05 -3.53159e-05 0.00177329
0.00587471 -0.000510863 0.000114251
-0.000510863 0.00132154 2.48729e-07
0.000114251 2.48729e-07 0.00162538
-0.0032415 -0.00037808 1.0316e-05
-0.00037808 -0.00296899 1.19959e-05
1.0316e-05 1.19959e-05 -0.00269644
0.00211961 -0.000695232 -7.62166e-06
-0.000695232 -0.000225723 2.20036e-06
-7.62166e-06 2.20036e-06 -5.47456e-05
0.00239197 -0.00052876 2.59673e-05
-0.00052876 -0.000235873 -6.59017e-06
2.59673e-05 -6.59017e-06 4.63421e-05
0.00178641 -0.000786775 2.1714e-06
-0.000786775 -0.000218462 5.99688e-06
2.1714e-06 5.99688e-06 -0.000427065
0.00239984 -0.000664228 1.33987e-06
-0.000664228 -4.19553e-05 1.63814e-06
1.33987e-06 1.63814e-06 -6.94011e-05
0.00244821 -0.000582916 1.84944e-06
-0.000582916 1.80279e-05 -4.47678e-07
1.84944e-06 -4.47678e-07 2.47898e-05
0.00219966 -0.00059211 2.89858e-06
-0.00059211 3.09232e-05 5.14683e-06
2.89858e-06 5.14683e-06 -8.95949e-05
0.00227061 -0.000577843 2.75317e-07
-0.000577843 6.51024e-05 4.50144e-07
2.75317e-07 4.50144e-07 -1.42358e-07
0.0022651 -0.000514872 -2.06918e-06
-0.000514872 5.06607e-05 2.86095e-07
-2.06918e-06 2.86095e-07 -9.66384e-06
0.00208127 -0.000528797 3.93812e-06
-0.000528797 5.91219e-05 1.16552e-06
3.93812e-06 1.16552e-06 -7.7059e-05
0.00221622 -0.000560253 -9.50158e-08
-0.000560253 0.000146799 2.4447e-08
-9.50158e-08 2.4447e-08 1.93739e-05
0.00211112 -0.000499964 -3.06071e-08
-0.000499964 0.000125228 6.04864e-07
-3.06071e-08 6.04864e-07 -6.71469e-06
0.00211184 -0.000517156 -1.1878e-06
-0.000517156 0.000158972 1.33887e-06
-1.1878e-06 1.33887e-06 3.33917e-06
0.00214361 -0.000495295 -1.70393e-06
-0.000495295 0.000233042 2.33121e-07
-1.70393e-06 2.33121e-07 6.7112e-05
0.00221456 -0.000496772 -2.20179e-06
-0.000496772 0.000292498 -4.17409e-07
-2.20179e-06 -4.17409e-07 0.000108807
0.00209423 -0.000490329 4.44555e-06
-0.000490329 0.000221777 2.39566e-06
4.44555e-06 2.39566e-06 2.95342e-05
0.00205323 -0.000512628 -3.32103e-07
-0.000512628 0.00020125 -1.11558e-07
-3.32103e-07 -1.11558e-07 -1.29647e-05
0.00210005 -0.000508101 -1.07008e-06
-0.000508101 0.000276003 -2.57152e-06
-1.07008e-06 -2.57152e-06 3.98359e-05
0.00176857 -0.000500074 -8.76006e-06
-0.000500074 0.00021753 -9.02058e-07
-8.76006e-06 -9.02058e-07 -7.84381e-05
0.00203794 -0.000568825 -7.18282e-07
-0.000568825 0.000273607 -1.23401e-06
-7.18282e-07 -1.23401e-06 -1.79328e-05
0.00219873 -0.000601286 4.87814e-06
-0.000601286 0.00030727 2.70475e-06
4.87814e-06 2.70475e-06 2.74524e-05
0.000954381 -0.000302953 -1.62718e-05
-0.000302953 6.48442e-06 8.68218e-06
-1.62718e-05 8.68218e-06 -0.000235609
0.00171337 -0.000551729 -1.07227e-07
-0.000551729 0.000294237 9.28624e-07
-1.07227e-07 9.28624e-07 -5.03531e-05
0.00183487 -0.000650347 3.19183e-06
-0.000650347 0.000255897 1.96056e-06
3.19183e-06 1.96056e-06 -0.000111774
0.000230092 -0.000194582 -1.85405e-05
-0.000194582 -0.000240386 2.04418e-05
-1.85405e-05 2.04418e-05 -0.000375202
0.00076847 -0.000271719 1.03864e-06
-0.000271719 -5.8795e-06 5.12214e-08
1.03864e-06 5.12214e-08 -0.000243183
0.00141045 -0.000511637 1.16497e-05
-0.000511637 0.000258741 -2.19052e-06
1.16497e-05 -2.19052e-06 -8.92652e-05
0.00636623 8.51115e-05 -0.000231043
8.51115e-05 0.00371708 1.47449e-05
-0.000231043 1.47449e-05 0.00371748
0.000369627 -0.000197567 -1.57134e-06
-0.000197567 -0.000131514 -2.19131e-07
-1.57134e-06 -2.19131e-07 -0.000257239
0.000616202 -0.000232728 9.50915e-06
-0.000232728 -1.39016e-05 -6.58013e-06
9.50915e-06 -6.58013e-06 -0.000243998
0.0057456 0.000116442 -6.84436e-06
0.000116442 0.00335284 -1.80841e-06
-6.84436e-06 -1.80841e-06 0.00334487
0.000414805 -0.000158947 2.04331e-05
-0.000158947 -8.55128e-05 -1.70098e-05
2.04331e-05 -1.70098e-05 -0.000197608
0.00508844 0.000114989 0.000184599
0.000114989 0.00294623 -1.73767e-05
0.000184599 -1.73767e-05 0.00293995
0.00182301 0.000650927 -4.16594e-06
0.000650927 0.00051873 3.82527e-06
-4.16594e-06 3.82527e-06 0.000111844
0.00180798 0.000578751 -1.45952e-06
0.000578751 0.00064604 -1.39905e-06
-1.45952e-06 -1.39905e-06 0.000260201
0.000891197 0.000345327 -9.91694e-07
0.000345327 9.46585e-05 -2.92486e-06
-9.91694e-07 -2.92486e-06 -0.000190397
0.00122022 0.000355714 -9.23226e-06
0.000355714 0.000400923 -2.69158e-06
-9.23226e-06 -2.69158e-06 0.000144096
0.000282981 0.000179188 1.99561e-06
0.000179188 -0.000162124 -3.35247e-07
1.99561e-06 -3.35247e-07 -0.000382081
0.000873138 0.000247051 -2.51243e-06
0.000247051 0.000251993 -6.92928e-06
-2.51243e-06 -6.92928e-06 1.63166e-05
3.80288e-06 7.85175e-05 -6.21761e-07
7.85175e-05 -0.000278976 3.38594e-06
-6.21761e-07 3.38594e-06 -0.000494042
0.000648667 0.00013715 9.52483e-07
0.00013715 0.000136269 -4.94027e-07
9.52483e-07 -4.94027e-07 -6.91436e-05
0.000705396 8.65537e-05 -1.62599e-05
8.65537e-05 0.000120595 -1.78273e-05
-1.62599e-05 -1.78273e-05 3.91813e-05
0.000273101 6.25286e-05 -3.04025e-06
6.25286e-05 -8.87308e-05 1.04415e-05
-3.04025e-06 1.04415e-05 -0.000257998
0.00052419 5.51088e-05 8.75324e-08
5.51088e-05 2.40986e-05 -1.78001e-07
8.75324e-08 -1.78001e-07 -3.93415e-05
0.00401609 -0.000130367 -0.000117033
-0.000130367 0.00226127 -9.82879e-06
-0.000117033 -9.82879e-06 0.00225651
0.00329829 -0.000129377 -1.1466e-05
-0.000129377 0.00179541 1.00006e-06
-1.1466e-05 1.00006e-06 0.00179184
0.000371695 4.44099e-05 5.97598e-06
4.44099e-05 -6.81654e-05 1.29822e-05
5.97598e-06 1.29822e-05 -0.000118421
0.00287264 -0.000108029 4.56272e-05
-0.000108029 0.00151344 5.14945e-06
4.56272e-05 5.14945e-06 0.00151528
0.00392232 0.000182442 9.18618e-05
0.000182442 -0.00138488 3.16664e-05
9.18618e-05 3.16664e-05 0.000226759
0.00547655 -0.000927349 0.000192723
-0.000927349 -0.00460375 9.0629e-05
0.000192723 9.0629e-05 -0.00544333
0.0132872 -0.00346517 -0.00024334
-0.00346517 0.00553465 -0.00010761
-0.00024334 -0.00010761 0.00382221
0.00152357 0.000671255 5.54062e-06
0.000671255 8.75042e-05 8.88235e-06
5.54062e-06 8.88235e-06 -0.000277285
0.00473992 0.000889915 -1.40686e-05
0.000889915 0.00258922 -4.69632e-07
-1.40686e-05 -4.69632e-07 0.00209191
0.000633634 0.000528336 -1.053e-05
0.000528336 -4.69398e-05 -6.31133e-06
-1.053e-05 -6.31133e-06 -0.000469691
0.00150299 0.000742211 1.28603e-06
0.000742211 0.000442005 -3.1711e-06
1.28603e-06 -3.1711e-06 1.71941e-05
0.00173155 0.000720141 -1.73924e-06
0.000720141 0.000436813 3.67758e-06
-1.73924e-06 3.67758e-06 -6.34793e-06
0.00153202 0.000779092 2.24405e-05
0.000779092 0.000250359 1.25118e-05
2.24405e-05 1.25118e-05 -0.000129851
0.00262354 0.000910294 -4.56809e-05
0.000910294 0.00105063 -2.59413e-06
-4.56809e-05 -2.59413e-06 0.000630092
0.000445105 0.000659678 1.63426e-05
0.000659678 -0.000166678 -3.65148e-05
1.63426e-05 -3.65148e-05 -0.000451988
0.00198993 0.000911694 1.13541e-06
0.000911694 0.000473147 -1.66695e-06
1.13541e-06 -1.66695e-06 0.000142988
0.00216179 0.000933023 9.0528e-06
0.000933023 0.000324321 -1.38e-06
9.0528e-06 -1.38e-06 0.000258246
0.00221689 0.000953722 1.56223e-05
0.000953722 0.000321833 -3.51377e-06
1.56223e-05 -3.51377e-06 -1.45738e-05
0.00189956 0.000813135 2.44607e-05
0.000813135 0.000232456 2.37592e-05
2.44607e-05 2.37592e-05 3.3926e-05
0.000833074 0.000869376 -6.77756e-06
0.000869376 -0.000265503 -6.27996e-06
-6.77756e-06 -6.27996e-06 -0.000549337
0.000401907 0.000791341 -2.03874e-05
0.000791341 -0.000548045 -2.5107e-05
-2.03874e-05 -2.5107e-05 -0.000608843
0.00138797 0.000844339 5.43193e-05
0.000844339 -0.00115732 3.72142e-05
5.43193e-05 3.72142e-05 -0.000728272
0.00610522 0.0019711 -9.54182e-05
0.0019711 -0.00139608 -2.88902e-05
-9.54182e-05 -2.88902e-05 0.000204942
0.00433093 0.00228967 0.000594753
0.00228967 -0.00480882 0.000135703
0.000594753 0.000135703 -0.00639323
0.00233568 0.00215247 -0.000188833
0.00215247 -0.000676057 -7.58939e-05
-0.000188833 -7.58939e-05 0.000151269
0.00474086 0.00189936 -3.08361e-05
0.00189936 0.000793356 -9.51976e-06
-3.08361e-05 -9.51976e-06 0.000640322
0.00532943 0.00181796 -0.0001555
0.00181796 0.00171958 -4.33986e-05
-0.0001555 -4.33986e-05 0.00132369
0.00273886 -0.000241812 -5.84251e-05
-0.000241812 -0.000658601 -1.80223e-05
-5.84251e-05 -1.80223e-05 -0.000244693
-0.000677197 -0.000321163 9.5349e-05
-0.000321163 -0.00148935 2.07488e-05
9.5349e-05 2.07488e-05 -0.000417388
0.00380038 0.000773986 0.000238893
0.000773986 -0.00523843 -1.95152e-05
0.000238893 -1.95152e-05 -0.00543229
0.000509196 -0.000847187 -5.37396e-05
-0.000847187 -0.00133387 7.6946e-05
-5.37396e-05 7.6946e-05 -0.00100305
0.0068244 -0.000903107 -0.00017582
-0.000903107 0.00027959 5.08246e-05
-0.00017582 5.08246e-05 0.000758533
0.00266142 -0.000707413 -2.17674e-05
-0.000707413 -0.000497184 1.18154e-05
-2.17674e-05 1.18154e-05 -2.86713e-05
0.00433815 -0.000506851 -1.01813e-05
-0.000506851 0.000459026 -2.75551e-06
-1.01813e-05 -2.75551e-06 0.000687032
0.0029425 -0.000396802 6.75462e-05
-0.000396802 -1.82419e-05 -9.50217e-06
6.75462e-05 -9.50217e-06 0.000341373
0.00379283 -0.000112972 5.16321e-05
-0.000112972 0.00109044 2.19623e-06
5.16321e-05 2.19623e-06 0.00112119
0.000388101 -0.000546865 -2.19526e-05
-0.000546865 -0.00119631 1.35034e-05
-2.19526e-05 1.35034e-05 -0.00091022
0.00224013 -0.000547982 -2.75587e-06
-0.000547982 -0.000346325 1.39521e-06
-2.75587e-06 1.39521e-06 -7.56366e-05
0.00246458 -0.000458114 4.58531e-06
-0.000458114 -0.000195936 -1.43426e-06
4.58531e-06 -1.43426e-06 2.74386e-05
0.00232377 -0.000653726 -1.71597e-06
-0.000653726 -7.25891e-05 3.57285e-06
-1.71597e-06 3.57285e-06 -9.8431e-05
0.00242782 -0.000568777 9.9865e-09
-0.000568777 2.65888e-05 -4.36505e-07
9.9865e-09 -4.36505e-07 3.91599e-05
0.0023301 -0.000447694 -7.83211e-07
-0.000447694 -2.40914e-05 -1.09994e-07
-7.83211e-07 -1.09994e-07 -5.27875e-06
0.00222231 -0.000568714 -1.52656e-07
-0.000568714 5.14042e-05 7.30814e-07
-1.52656e-07 7.30814e-07 -1.61548e-05
0.00225723 -0.000519671 -8.60113e-07
-0.000519671 5.72131e-05 5.67502e-08
-8.60113e-07 5.67502e-08 -3.22114e-06
0.00215112 -0.000439132 -1.42111e-06
-0.000439132 6.54788e-05 9.74718e-07
-1.42111e-06 9.74718e-07 -1.09061e-05
0.00217816 -0.000552993 5.66792e-07
-0.000552993 0.000148509 -1.27651e-06
5.66792e-07 -1.27651e-06 2.06289e-05
0.00209717 -0.000500391 9.93128e-07
-0.000500391 0.000113202 -4.60705e-07
9.93128e-07 -4.60705e-07 -1.92484e-05
0.0020858 -0.00046178 -1.127e-06
-0.00046178 0.000153912 5.49463e-08
-1.127e-06 5.49463e-08 2.49771e-06
0.00207456 -0.000485772 -1.34684e-06
-0.000485772 0.000185992 1.25095e-06
-1.34684e-06 1.25095e-06 2.33952e-05
0.00215613 -0.000491056 -1.6739e-06
-0.000491056 0.00024827 6.86094e-07
-1.6739e-06 6.86094e-07 6.83854e-05
0.00218532 -0.000483253 -1.23029e-06
-0.000483253 0.000289751 -1.90556e-06
-1.23029e-06 -1.90556e-06 8.76939e-05
0.00209328 -0.000515826 2.81861e-06
-0.000515826 0.000225072 2.69377e-06
2.81861e-06 2.69377e-06 1.00718e-05
0.00210403 -0.000510414 3.49038e-07
-0.000510414 0.000278492 -3.9521e-07
3.49038e-07 -3.9521e-07 4.28744e-05
0.00188235 -0.00044665 -6.01685e-06
-0.00044665 0.000247533 2.47009e-07
-6.01685e-06 2.47009e-07 -8.27038e-06
0.00110815 -0.00030986 -1.9949e-05
-0.00030986 2.94484e-05 8.31213e-06
-1.9949e-05 8.31213e-06 -0.000207897
0.0017646 -0.000497869 -1.15374e-06
-0.000497869 0.000223474 -6.15571e-07
-1.15374e-06 -6.15571e-07 -7.47955e-05
0.00196583 -0.000568938 2.59639e-06
-0.000568938 0.000226476 1.41812e-06
2.59639e-06 1.41812e-06 -7.11095e-05
0.000314227 -0.000234792 -2.19285e-05
-0.000234792 -0.000200275 1.9604e-05
-2.19285e-05 1.9604e-05 -0.00035032
0.000946911 -0.000305243 1.68663e-06
-0.000305243 -6.38527e-06 3.91217e-08
1.68663e-06 3.91217e-08 -0.000250185
0.00174843 -0.000548516 9.64524e-06
-0.000548516 0.000322729 -3.64621e-07
9.64524e-06 -3.64621e-07 -1.87861e-05
0.00703076 3.98214e-05 -0.000273366
3.98214e-05 0.00411065 1.96946e-05
-0.000273366 1.96946e-05 0.00411654
0.000399574 -0.000249097 -1.58009e-06
-0.000249097 -0.000126448 9.17417e-07
-1.58009e-06 9.17417e-07 -0.000272852
0.000715432 -0.00028026 1.21337e-05
-0.00028026 -4.5509e-05 -7.51319e-06
1.21337e-05 -7.51319e-06 -0.000288028
0.00655649 6.9038e-05 -4.94214e-06
6.9038e-05 0.003839 -2.05908e-07
-4.94214e-06 -2.05908e-07 0.00383804
0.000604258 -0.000245279 2.63608e-05
-0.000245279 1.27096e-05 -1.97995e-05
2.63608e-05 -1.97995e-05 -0.000115348
0.00601135 0.000131711 0.000212982
0.000131711 0.00353967 -2.58434e-05
0.000212982 -2.58434e-05 0.00352074
0.00160375 0.000612886 -2.39591e-06
0.000612886 0.00020149 5.81685e-06
-2.39591e-06 5.81685e-06 -0.000162125
0.00172752 0.000647326 -1.63786e-06
0.000647326 0.000447825 5.07987e-07
-1.63786e-06 5.07987e-07 3.90341e-05
0.00126474 0.000460486 -7.84857e-06
0.000460486 0.000203098 -4.08432e-07
-7.84857e-06 -4.08432e-07 -0.000119012
0.00132827 0.000524223 -5.69914e-06
0.000524223 0.000314497 -1.37157e-06
-5.69914e-06 -1.37157e-06 -5.19832e-05
0.00101347 0.000338659 -3.99953e-06
0.000338659 0.000162904 -1.96659e-06
-3.99953e-06 -1.96659e-06 -0.000114747
0.00116831 0.000255441 -9.07537e-06
0.000255441 0.000366657 -2.7542e-06
-9.07537e-06 -2.7542e-06 0.000132629
-1.30974e-05 0.00014165 -3.54019e-06
0.00014165 -0.000360099 -1.13054e-06
-3.54019e-06 -1.13054e-06 -0.000574404
0.000853877 0.000172673 -8.27668e-07
0.000172673 0.000219302 -2.78377e-07
-8.27668e-07 -2.78377e-07 -1.13303e-06
0.000531498 0.000131754 -2.41863e-05
0.000131754 -1.36884e-05 -1.80147e-05
-2.41863e-05 -1.80147e-05 -0.000106457
0.000378854 0.000104778 8.55706e-07
0.000104778 -4.48306e-05 1.10461e-05
8.55706e-07 1.10461e-05 -0.000235979
0.000448246 7.99824e-05 -8.29132e-07
7.99824e-05 -3.46693e-05 -3.3249e-07
-8.29132e-07 -3.3249e-07 -0.000110887
0.00458372 -0.000152381 -0.000139741
-0.000152381 0.00263561 -1.32941e-05
-0.000139741 -1.32941e-05 0.00262208
0.000314948 5.91139e-05 9.39742e-06
5.91139e-05 -0.000101843 1.56602e-05
9.39742e-06 1.56602e-05 -0.000163323
0.00380455 -0.000149167 -1.09627e-05
-0.000149167 0.00213174 1.1554e-06
-1.09627e-05 1.1554e-06 0.00212174
0.00315006 -0.000134522 5.39825e-05
-0.000134522 0.00170119 5.67809e-06
5.39825e-05 5.67809e-06 0.00169578
0.0006956 0.000175447 -2.92335e-06
0.000175447 -0.00181344 9.21939e-06
-2.92335e-06 9.21939e-06 -0.00104445
0.00504595 7.10425e-05 6.68458e-05
7.10425e-05 -0.00085268 2.06364e-05
6.68458e-05 2.06364e-05 0.000651787
0.0147125 0.00083745 -1.09695e-05
0.00083745 0.00209031 1.90831e-05
-1.09695e-05 1.90831e-05 0.00199404
0.00196035 0.000784142 -1.1164e-06
0.000784142 0.000318268 5.07194e-06
-1.1164e-06 5.07194e-06 -3.86694e-05
0.00217913 0.000748715 -6.22215e-07
0.000748715 0.000289304 4.02164e-06
-6.22215e-07 4.02164e-06 -2.90339e-05
0.00155368 0.000677071 -5.82373e-07
0.000677071 0.000116419 -3.89057e-06
-5.82373e-07 -3.89057e-06 -0.000245544
0.00286211 0.000911802 -1.55927e-05
0.000911802 0.00124376 2.20414e-06
-1.55927e-05 2.20414e-06 0.00078708
0.00203054 0.000753936 -5.99578e-06
0.000753936 0.000644788 -9.6133e-06
-5.99578e-06 -9.6133e-06 0.000186836
0.00210246 0.000868457 7.38911e-06
0.000868457 0.000543602 3.76292e-06
7.38911e-06 3.76292e-06 0.000152639
0.00206925 0.000869628 -2.19337e-06
0.000869628 0.000168582 -3.55641e-06
-2.19337e-06 -3.55641e-06 -0.00015316
0.00235359 0.000978843 -1.80658e-05
0.000978843 0.000627814 5.75258e-06
-1.80658e-05 5.75258e-06 0.000291856
0.00101402 0.000813801 -1.56569e-05
0.000813801 -0.000401639 1.65958e-05
-1.56569e-05 1.65958e-05 -0.000335357
0.00279016 0.00101925 7.1874e-07
0.00101925 0.000652693 3.77676e-06
7.1874e-07 3.77676e-06 0.000304966
0.00273826 0.000870251 -4.63478e-06
0.000870251 0.000413008 4.07891e-06
-4.63478e-06 4.07891e-06 0.0001765
0.00129368 0.000414758 4.04476e-05
0.000414758 -0.000301242 1.66586e-05
4.04476e-05 1.66586e-05 -0.000230806
0.000371219 0.000670212 9.3148e-06
0.000670212 -0.00056971 -4.798e-06
9.3148e-06 -4.798e-06 -0.00075154
0.00100872 0.000887215 -3.54493e-05
0.000887215 -0.000168471 -4.01601e-06
-3.54493e-05 -4.01601e-06 -0.000459417
0.00317129 0.000993657 9.86204e-06
0.000993657 -0.000175769 8.78535e-06
9.86204e-06 8.78535e-06 0.000107129
0.00742591 0.00161146 -3.21475e-05
0.00161146 -0.000724766 -4.3293e-05
-3.21475e-05 -4.3293e-05 0.000503547
0.00459942 0.00160316 -4.88449e-05
0.00160316 0.0011516 -6.03327e-05
-4.88449e-05 -6.03327e-05 0.00106713
0.00247416 -9.71788e-05 4.30973e-05
-9.71788e-05 0.000112959 4.29445e-06
4.30973e-05 4.29445e-06 0.000304707
0.00297027 -0.000246057 -6.57558e-05
-0.000246057 -0.000488329 4.04457e-06
-6.57558e-05 4.04457e-06 -1.92019e-05
0.00438546 0.000406924 2.38197e-05
0.000406924 -0.000145426 -2.15177e-05
2.38197e-05 -2.15177e-05 0.000625586
0.000872796 -0.000598079 -7.2957e-05
-0.000598079 -0.00144954 5.40842e-05
-7.2957e-05 5.40842e-05 -0.00095291
0.00270217 -0.000550026 -0.00010044
-0.000550026 -0.000444275 -2.93156e-07
-0.00010044 -2.93156e-07 -0.000288369
0.00272805 -0.000391266 8.53606e-06
-0.000391266 -6.48004e-05 -2.93793e-06
8.53606e-06 -2.93793e-06 0.000305787
0.00257064 -0.000105003 -1.73131e-05
-0.000105003 0.000280136 7.03236e-07
-1.73131e-05 7.03236e-07 0.000338562
0.00253849 -0.000253381 1.53083e-05
-0.000253381 -1.61097e-05 -7.51052e-07
1.53083e-05 -7.51052e-07 0.000144616
0.0023712 1.33239e-05 1.1107e-05
1.33239e-05 -9.49272e-05 2.94753e-06
1.1107e-05 2.94753e-06 -1.36101e-05
0.00223301 -0.000576615 -1.90064e-05
-0.000576615 -0.000372821 5.67254e-06
-1.90064e-05 5.67254e-06 -0.000120943
0.00248623 -0.000475491 -2.68523e-06
-0.000475491 -0.000181547 7.55864e-07
-2.68523e-06 7.55864e-07 4.04983e-06
0.0024013 -0.000330135 -4.88069e-08
-0.000330135 -0.000101884 -8.49683e-07
-4.88069e-08 -8.49683e-07 3.00583e-06
0.00240443 -0.000555473 -3.73047e-06
-0.000555473 3.02069e-05 7.89785e-07
-3.73047e-06 7.89785e-07 4.82676e-05
0.00233651 -0.000445171 -5.76242e-09
-0.000445171 -7.31136e-06 -1.93897e-07
-5.76242e-09 -1.93897e-07 6.86167e-06
0.002238 -0.000368371 -5.43218e-07
-0.000368371 1.23799e-05 5.21845e-07
-5.43218e-07 5.21845e-07 3.04059e-06
0.00225425 -0.00052493 -4.25606e-07
-0.00052493 6.61563e-05 -8.3072e-07
-4.25606e-07 -8.3072e-07 5.22008e-06
0.00215857 -0.000438787 4.59961e-07
-0.000438787 6.57274e-05 -1.4743e-07
4.59961e-07 -1.4743e-07 -1.05101e-05
0.00211319 -0.000400002 -2.34054e-06
-0.000400002 0.000103592 9.85461e-07
-2.34054e-06 9.85461e-07 1.20066e-06
0.00208605 -0.000500865 2.35348e-06
-0.000500865 0.000102944 -1.4234e-06
2.35348e-06 -1.4234e-06 -3.0008e-05
0.00205207 -0.000459232 6.55116e-07
-0.000459232 0.000128635 -4.86791e-07
6.55116e-07 -4.86791e-07 -2.28249e-05
0.00205207 -0.000431919 -1.25233e-06
-0.000431919 0.000163587 -1.12925e-06
-1.25233e-06 -1.12925e-06 -7.17583e-06
0.00209454 -0.000485237 -4.8095e-07
-0.000485237 0.000201807 1.98343e-06
-4.8095e-07 1.98343e-06 2.57325e-05
0.00214684 -0.000481712 -4.15236e-07
-0.000481712 0.000266741 -1.86833e-07
-4.15236e-07 -1.86833e-07 6.53652e-05
0.00187131 -0.000412219 -4.43687e-06
-0.000412219 0.000192765 1.13839e-07
-4.43687e-06 1.13839e-07 -3.63352e-05
0.00211065 -0.000512882 2.1987e-06
-0.000512882 0.000282765 2.31088e-06
2.1987e-06 2.31088e-06 4.76628e-05
0.00192516 -0.000451723 -8.70082e-07
-0.000451723 0.000274166 1.46712e-08
-8.70082e-07 1.46712e-08 1.92601e-05
0.00111923 -0.0002777 -1.82227e-05
-0.0002777 -2.46954e-06 7.83699e-06
-1.82227e-05 7.83699e-06 -0.000221377
0.00025748 -0.000202156 -1.92819e-05
-0.000202156 -0.000255605 1.80694e-05
-1.92819e-05 1.80694e-05 -0.000396083
0.00107703 -0.00030861 5.8063e-07
-0.00030861 9.67205e-06 -5.44991e-08
5.8063e-07 -5.44991e-08 -0.000227669
0.00178323 -0.000497977 6.68837e-06
-0.000497977 0.000242647 -7.91678e-07
6.68837e-06 -7.91678e-07 -5.8367e-05
0.00742935 -4.648e-05 -0.000315315
-4.648e-05 0.00433474 2.43879e-05
-0.000315315 2.43879e-05 0.00434925
0.000354242 -0.000235012 -1.36996e-06
-0.000235012 -0.000184931 1.58148e-06
-1.36996e-06 1.58148e-06 -0.000330117
0.000860414 -0.000301361 1.57422e-05
-0.000301361 -6.64583e-05 -7.01694e-06
1.57422e-05 -7.01694e-06 -0.000311489
0.00725175 7.05008e-06 -1.12405e-06
7.05008e-06 0.0042461 7.67205e-07
-1.12405e-06 7.67205e-07 0.00425357
0.000544405 -0.000256983 2.49087e-05
-0.000256983 -4.24028e-05 -2.08388e-05
2.49087e-05 -2.08388e-05 -0.000189693
0.00688932 3.04479e-05 0.000280864
3.04479e-05 0.00403884 -2.59469e-05
0.000280864 -2.59469e-05 0.00404258
0.00190508 0.000668948 -1.05018e-06
0.000668948 0.000240824 6.32787e-06
-1.05018e-06 6.32787e-06 -9.23728e-05
0.00167703 0.000625875 -6.88191e-08
0.000625875 0.000251549 7.99797e-07
-6.88191e-08 7.99797e-07 -0.000112769
0.00160234 0.000522165 -8.81777e-06
0.000522165 0.000296395 7.36074e-07
-8.81777e-06 7.36074e-07 -3.38524e-05
0.00152596 0.000628959 3.71696e-07
0.000628959 0.000316012 -2.84868e-06
3.71696e-07 -2.84868e-06 -9.05845e-05
0.00131385 0.000459796 -1.04527e-06
0.000459796 0.000240567 4.05587e-08
-1.04527e-06 4.05587e-08 -8.01326e-05
0.00102853 0.000259513 -1.26467e-05
0.000259513 0.000186536 -4.29924e-06
-1.26467e-05 -4.29924e-06 -3.80315e-05
0.00129937 0.000342665 1.16324e-06
0.000342665 0.000340261 -1.21726e-06
1.16324e-06 -1.21726e-06 6.77896e-05
0.000513247 0.000203378 8.00804e-07
0.000203378 -4.54375e-05 1.14061e-06
8.00804e-07 1.14061e-06 -0.000271227
0.00043502 0.000201251 -2.85664e-05
0.000201251 -8.98833e-05 -1.95109e-05
-2.85664e-05 -1.95109e-05 -0.000200644
0.000232882 0.000118266 1.25591e-06
0.000118266 -0.000159042 6.63311e-06
1.25591e-06 6.63311e-06 -0.000383688
0.000552617 0.000115248 -6.82382e-07
0.000115248 4.76539e-06 -6.01954e-07
-6.82382e-07 -6.01954e-07 -8.6678e-05
0.00558239 -0.000169644 -0.000183067
-0.000169644 0.00328204 -1.89369e-05
-0.000183067 -1.89369e-05 0.00325909
0.00041789 7.60828e-05 1.42763e-05
7.60828e-05 -4.82905e-05 1.80852e-05
1.42763e-05 1.80852e-05 -0.000122902
0.00446544 -0.000177372 -1.09988e-05
-0.000177372 0.00256761 1.31825e-06
-1.09988e-05 1.31825e-06 0.00254796
0.00363885 -0.000162399 7.47993e-05
-0.000162399 0.00202934 7.07139e-06
7.47993e-05 7.07139e-06 0.00201517
0.00154253 0.000189952 3.27915e-05
0.000189952 -0.000323445 1.742e-05
3.27915e-05 1.742e-05 -7.88921e-05
0.00259238 0.000232741 -2.30309e-05
0.000232741 -0.00111764 -2.16923e-06
-2.30309e-05 -2.16923e-06 -0.000279922
0.00430475 0.000343374 0.000229085
0.000343374 -0.00172003 6.62807e-05
0.000229085 6.62807e-05 0.000246236
0.00256425 0.000801244 -8.69793e-06
0.000801244 0.000470376 1.41436e-07
-8.69793e-06 1.41436e-07 0.000165505
0.00185963 0.000796528 -6.77958e-06
0.000796528 0.000237833 -5.11863e-06
-6.77958e-06 -5.11863e-06 -0.00011617
0.00224114 0.0006071 1.56814e-06
0.0006071 0.000200596 4.77725e-06
1.56814e-06 4.77725e-06 -3.11608e-05
0.00219901 0.000740244 1.45191e-06
0.000740244 0.000304821 4.96041e-07
1.45191e-06 4.96041e-07 -1.1011e-05
0.00154453 0.000678834 4.3376e-06
0.000678834 0.000120164 -1.12235e-05
4.3376e-06 -1.12235e-05 -0.000238124
0.00227157 0.000676998 -2.79056e-06
0.000676998 9.92974e-05 9.10458e-07
-2.79056e-06 9.10458e-07 -0.00010321
0.00274478 0.000965948 -8.12312e-06
0.000965948 0.000881011 -3.743e-06
-8.12312e-06 -3.743e-06 0.000476294
0.00247092 0.000890346 9.34284e-07
0.000890346 0.000413253 1.98259e-07
9.34284e-07 1.98259e-07 8.28154e-05
0.00210616 0.000441813 -1.40459e-05
0.000441813 -0.000172048 -1.22189e-06
-1.40459e-05 -1.22189e-06 -0.000157533
0.00343872 0.00110455 -6.28346e-06
0.00110455 0.00100897 7.32807e-06
-6.28346e-06 7.32807e-06 0.000652116
0.00254966 0.000854117 2.82448e-07
0.000854117 0.000307106 -7.25884e-07
2.82448e-07 -7.25884e-07 6.85272e-05
0.000678605 0.0004087 -1.83143e-06
0.0004087 -0.000651484 1.57648e-06
-1.83143e-06 1.57648e-06 -0.000562842
-0.00128969 0.000511438 -2.47355e-05
0.000511438 -0.00142788 -1.08742e-05
-2.47355e-05 -1.08742e-05 -0.00157936
0.00380783 0.00110341 -0.000130957
0.00110341 0.000148103 -4.32894e-05
-0.000130957 -4.32894e-05 0.000313632
0.00225034 0.000115358 -1.33396e-06
0.000115358 -0.00017878 -6.54608e-07
-1.33396e-06 -6.54608e-07 -6.81999e-05
0.00276752 -8.33318e-05 2.87501e-06
-8.33318e-05 0.00039731 -6.11715e-07
2.87501e-06 -6.11715e-07 0.000523331
0.00266381 -0.000267938 -0.000100373
-0.000267938 -0.000641807 2.47296e-06
-0.000100373 2.47296e-06 -0.000135805
0.00203406 -0.000372131 -7.50788e-05
-0.000372131 -0.000403092 7.86219e-06
-7.50788e-05 7.86219e-06 -2.05658e-05
0.00134763 -0.000112763 -1.56383e-05
-0.000112763 -0.000526227 3.66916e-07
-1.56383e-05 3.66916e-07 -0.000443815
0.0025175 -0.000258484 1.83541e-06
-0.000258484 -5.26096e-05 -1.91641e-06
1.83541e-06 -1.91641e-06 0.000133632
0.00244011 1.7925e-05 -2.88206e-06
1.7925e-05 -7.88023e-05 1.40019e-07
-2.88206e-06 1.40019e-07 3.10318e-06
0.00242813 -7.79839e-05 2.66875e-07
-7.79839e-05 -0.00010272 -1.00479e-06
2.66875e-07 -1.00479e-06 1.51013e-05
0.00250192 -0.000489616 -5.46249e-06
-0.000489616 -0.000163542 9.08741e-07
-5.46249e-06 9.08741e-07 -1.64686e-05
0.00235068 -0.000318206 3.72532e-07
-0.000318206 -0.00011487 -2.37205e-07
3.72532e-07 -2.37205e-07 -1.85918e-05
0.00228047 -0.000243926 4.68967e-07
-0.000243926 -2.98285e-05 -2.32932e-07
4.68967e-07 -2.32932e-07 2.76425e-05
0.0023426 -0.000442834 -2.26422e-07
-0.000442834 9.98615e-06 8.11647e-08
-2.26422e-07 8.11647e-08 1.93093e-05
0.00222764 -0.000364813 9.05758e-08
-0.000364813 9.81586e-06 2.1968e-07
9.05758e-08 2.1968e-07 -7.68015e-07
0.00212652 -0.000309237 -2.74642e-06
-0.000309237 4.99138e-05 9.96037e-07
-2.74642e-06 9.96037e-07 7.0138e-06
0.00216551 -0.000438371 2.04684e-06
-0.000438371 6.54634e-05 -1.15863e-06
2.04684e-06 -1.15863e-06 -1.06145e-05
0.00210276 -0.000398882 6.44648e-07
-0.000398882 9.38938e-05 -2.16376e-07
6.44648e-07 -2.16376e-07 -8.6189e-06
0.00209838 -0.000371257 -1.87528e-06
-0.000371257 0.000150598 -1.95187e-07
-1.87528e-06 -1.95187e-07 1.66709e-05
0.0020175 -0.000456726 2.04087e-06
-0.000456726 0.000102764 -8.55486e-07
2.04087e-06 -8.55486e-07 -4.87538e-05
0.00208354 -0.000434007 -2.77293e-07
-0.000434007 0.000183943 -1.94455e-07
-2.77293e-07 -1.94455e-07 1.25804e-05
0.00192444 -0.000373797 -2.47706e-06
-0.000373797 0.000177682 -3.18884e-07
-2.47706e-06 -3.18884e-07 -2.31645e-05
0.00210951 -0.000480083 8.29578e-07
-0.000480083 0.000244314 1.54122e-06
8.29578e-07 1.54122e-06 4.36991e-05
0.00189733 -0.000413955 -6.27329e-07
-0.000413955 0.000210318 1.6465e-07
-6.27329e-07 1.6465e-07 -1.86194e-05
0.00113084 -0.000244722 -1.47532e-05
-0.000244722 -1.72322e-05 6.64764e-06
-1.47532e-05 6.64764e-06 -0.000220184
0.00196369 -0.000456415 5.26023e-06
-0.000456415 0.000298132 -2.71093e-08
5.26023e-06 -2.71093e-08 4.42018e-05
0.00114418 -0.000278323 1.49489e-07
-0.000278323 9.60822e-06 1.05881e-07
1.49489e-07 1.05881e-07 -0.000208515
0.00279215 -0.000194552 -5.15556e-05
-0.000194552 0.00132076 1.3163e-05
-5.15556e-05 1.3163e-05 0.00121143
0.00240569 -0.000113022 -0.000275052
-0.000113022 0.00116586 3.82881e-05
-0.000275052 3.82881e-05 0.00114748
0.00158623 -0.000214054 -1.47687e-05
-0.000214054 0.000575425 -2.9027e-08
-1.47687e-05 -2.9027e-08 0.000445456
0.00108528 -0.000308855 1.89922e-05
-0.000308855 1.72172e-05 -7.55824e-06
1.89922e-05 -7.55824e-06 -0.000220015
0.00743499 -6.45434e-05 -7.52131e-06
-6.45434e-05 0.00434654 1.55219e-06
-7.52131e-06 1.55219e-06 0.00435771
0.000325883 -0.000261838 2.56005e-05
-0.000261838 -0.000201291 -1.93902e-05
2.56005e-05 -1.93902e-05 -0.000349255
0.00739947 -1.48215e-05 0.000307899
-1.48215e-05 0.00434323 -3.04202e-05
0.000307899 -3.04202e-05 0.00434761
0.0021383 0.000463474 -2.16689e-07
0.000463474 0.000133668 7.78257e-07
-2.16689e-07 7.78257e-07 -3.68762e-05
0.00216506 0.000610846 3.08804e-06
0.000610846 0.000295676 5.89252e-06
3.08804e-06 5.89252e-06 2.81886e-05
0.00216033 0.000688875 4.97601e-07
0.000688875 0.000394452 1.95191e-07
4.97601e-07 1.95191e-07 6.17234e-05
0.00182627 0.000553568 -8.61926e-06
0.000553568 0.00032098 1.71452e-06
-8.61926e-06 1.71452e-06 1.50579e-06
0.00177612 0.000643279 5.84399e-06
0.000643279 0.000314089 -3.77668e-06
5.84399e-06 -3.77668e-06 -5.2296e-05
0.00157475 0.000524445 -2.49745e-07
0.000524445 0.000269411 6.84552e-07
-2.49745e-07 6.84552e-07 -6.34427e-05
0.00075121 0.000280351 -1.6318e-05
0.000280351 -8.83973e-05 -5.59693e-06
-1.6318e-05 -5.59693e-06 -0.000317376
0.00130624 0.00045583 8.10583e-06
0.00045583 0.000238089 1.70121e-06
8.10583e-06 1.70121e-06 -8.09398e-05
0.000658394 0.000237603 9.53686e-07
0.000237603 -4.24894e-05 1.2594e-07
9.53686e-07 1.2594e-07 -0.00026138
0.000513228 0.000265883 -2.87137e-05
0.000265883 -5.30478e-05 -2.0348e-05
-2.87137e-05 -2.0348e-05 -0.000187733
0.000378492 0.000187405 5.64233e-06
0.000187405 -0.000141396 2.52058e-06
5.64233e-06 2.52058e-06 -0.000359472
0.000467149 0.000181849 2.04627e-06
0.000181849 -7.4441e-05 -1.08096e-06
2.04627e-06 -1.08096e-06 -0.000181081
0.00653995 -0.000121891 -0.000237874
-0.000121891 0.00386278 -2.44631e-05
-0.000237874 -2.44631e-05 0.00384547
0.000352334 0.000106817 2.02984e-05
0.000106817 -0.000118008 1.82875e-05
2.02984e-05 1.82875e-05 -0.000203565
0.00515299 -0.000181857 -4.21889e-06
-0.000181857 0.00300284 -5.60591e-07
-4.21889e-06 -5.60591e-07 0.00298052
0.00424924 -0.000194312 9.86444e-05
-0.000194312 0.00243571 9.69129e-06
9.86444e-05 9.69129e-06 0.00241126
0.00230661 0.000226502 -6.98479e-06
0.000226502 -0.000191943 -1.52598e-06
-6.98479e-06 -1.52598e-06 -4.57126e-05
0.00211683 0.00014237 1.92176e-05
0.00014237 -0.000139387 -2.84568e-06
1.92176e-05 -2.84568e-06 0.000160583
0.00541949 0.000343178 -0.000119594
0.000343178 0.000131847 -2.27748e-06
-0.000119594 -2.27748e-06 0.00102005
0.00224754 0.000556607 -3.23304e-06
0.000556607 0.00014069 1.4743e-06
-3.23304e-06 1.4743e-06 -3.89054e-05
0.00226455 0.000758549 -4.07135e-06
0.000758549 0.000333843 -4.19405e-07
-4.07135e-06 -4.19405e-07 3.60578e-05
0.00178877 0.000811269 -2.70394e-06
0.000811269 0.000176462 -1.03442e-05
-2.70394e-06 -1.03442e-05 -0.000174496
0.00232542 0.000598908 2.71227e-06
0.000598908 0.000270771 1.41178e-06
2.71227e-06 1.41178e-06 4.18643e-05
0.0022212 0.000731909 1.09311e-06
0.000731909 0.000322158 -5.20434e-06
1.09311e-06 -5.20434e-06 8.72348e-06
0.00247496 0.000444683 -1.96129e-07
0.000444683 1.2947e-05 4.92035e-07
-1.96129e-07 4.92035e-07 1.75635e-05
0.00227158 0.000683337 -8.33788e-07
0.000683337 0.000114231 2.00469e-07
-8.33788e-07 2.00469e-07 -8.77858e-05
0.00278764 0.000901774 -6.37103e-06
0.000901774 0.000613131 -2.18048e-06
-6.37103e-06 -2.18048e-06 0.000274545
0.00206576 0.000428398 4.2361e-08
0.000428398 -0.000169723 -2.15978e-07
4.2361e-08 -2.15978e-07 -0.000152976
0.00224242 0.000822322 1.3672e-05
0.000822322 0.000123819 2.78875e-06
1.3672e-05 2.78875e-06 -0.000112842
-7.61046e-05 0.000364164 -4.07782e-05
0.000364164 -0.00108936 -1.89817e-05
-4.07782e-05 -1.89817e-05 -0.000977591
0.00242298 9.34522e-05 5.89364e-07
9.34522e-05 -4.30821e-05 1.80983e-07
5.89364e-07 1.80983e-07 4.4936e-05
0.00223533 0.000122206 -1.18445e-06
0.000122206 -0.000185549 4.77963e-07
-1.18445e-06 4.77963e-07 -7.95552e-05
0.00304091 -7.26931e-05 -5.15819e-05
-7.26931e-05 0.000653373 6.7988e-07
-5.15819e-05 6.7988e-07 0.000726638
0.00247084 -0.00025798 -2.439e-05
-0.00025798 -0.00011027 2.73588e-06
-2.439e-05 2.73588e-06 0.00010097
0.00252902 2.75206e-05 -7.35425e-06
2.75206e-05 -5.51034e-05 -3.62985e-06
-7.35425e-06 -3.62985e-06 2.68161e-05
0.00239444 -8.70965e-05 -1.90552e-07
-8.70965e-05 -0.000138225 4.45983e-08
-1.90552e-07 4.45983e-08 -1.49377e-05
0.00215187 -7.38998e-05 3.37931e-07
-7.38998e-05 -4.19099e-05 3.47228e-08
3.37931e-07 3.47228e-08 2.38175e-06
0.0023006 -0.000305532 1.40607e-07
-0.000305532 -0.000125839 2.52286e-09
1.40607e-07 2.52286e-09 -3.86413e-05
0.00223164 -0.000249573 -1.42753e-07
-0.000249573 -5.34072e-05 4.38014e-08
-1.42753e-07 4.38014e-08 -3.24853e-06
0.0020951 -0.000207551 -1.63515e-06
-0.000207551 1.11093e-05 1.45103e-07
-1.63515e-06 1.45103e-07 -1.62952e-06
0.0022165 -0.000361255 6.64658e-07
-0.000361255 6.65985e-06 -1.68077e-08
6.64658e-07 -1.68077e-08 -5.17138e-06
0.00212794 -0.000310421 2.38073e-07
-0.000310421 4.5477e-05 5.34349e-08
2.38073e-07 5.34349e-08 2.28238e-06
0.00212981 -0.000299692 -3.00836e-06
-0.000299692 0.000120994 4.96285e-07
-3.00836e-06 4.96285e-07 2.53449e-05
0.00209487 -0.000397744 3.0389e-06
-0.000397744 8.5932e-05 -1.25459e-06
3.0389e-06 -1.25459e-06 -1.66691e-05
0.00206941 -0.000369691 -1.78131e-07
-0.000369691 0.000129609 -2.00492e-07
-1.78131e-07 -2.00492e-07 -4.53587e-06
0.00191895 -0.000320381 -1.64813e-06
-0.000320381 0.000134224 -4.09874e-07
-1.64813e-06 -4.09874e-07 -3.74511e-05
0.00211604 -0.000436229 1.73041e-06
-0.000436229 0.000204909 4.30698e-07
1.73041e-06 4.30698e-07 3.29108e-05
0.00194222 -0.000375154 -5.34802e-07
-0.000375154 0.000189854 1.07787e-08
-5.34802e-07 1.07787e-08 -1.09048e-05
0.00112986 -0.000216572 -1.19436e-05
-0.000216572 -3.85319e-05 5.11128e-06
-1.19436e-05 5.11128e-06 -0.000228897
0.00192231 -0.000415542 3.50995e-06
-0.000415542 0.000227371 2.72168e-08
3.50995e-06 2.72168e-08 -1.37432e-06
0.00116824 -0.000246461 -2.30585e-08
-0.000246461 -1.07609e-06 2.07752e-07
-2.30585e-08 2.07752e-07 -0.00020325
0.00278106 -0.000185757 -5.92412e-05
-0.000185757 0.00130583 1.27882e-05
-5.92412e-05 1.27882e-05 0.00120575
0.00116978 -0.000279366 1.7699e-05
-0.000279366 2.18604e-05 -7.43262e-06
1.7699e-05 -7.43262e-06 -0.000195601
0.00293973 -0.000232574 5.08667e-05
-0.000232574 0.00141457 -8.13024e-06
5.08667e-05 -8.13024e-06 0.00131348
0.00234129 -0.00014469 -0.00026716
-0.00014469 0.0011329 4.26984e-05
-0.00026716 4.26984e-05 0.00111166
0.00469237 -0.000128851 -0.000262069
-0.000128851 0.00262579 2.82105e-05
-0.000262069 2.82105e-05 0.00262044
0.00302006 -0.000289758 0.000166928
-0.000289758 0.00148214 -2.77769e-05
0.000166928 -2.77769e-05 0.00137907
0.00743111 -7.63693e-05 0.000315634
-7.63693e-05 0.00435282 -3.44572e-05
0.000315634 -3.44572e-05 0.00435952
0.00231121 0.000458608 -2.49222e-06
0.000458608 0.000220734 -4.96331e-07
-2.49222e-06 -4.96331e-07 8.11394e-05
0.00196839 0.000472718 8.0766e-07
0.000472718 0.000132591 1.62045e-06
8.0766e-07 1.62045e-06 -7.05351e-05
0.00216204 0.000455278 1.89753e-07
0.000455278 0.000157322 -1.52055e-06
1.89753e-07 -1.52055e-06 -6.58555e-06
0.00193265 0.000513121 -5.91916e-06
0.000513121 0.000267426 2.03219e-06
-5.91916e-06 2.03219e-06 -1.04859e-05
0.00224912 0.000620378 8.40843e-07
0.000620378 0.000333146 4.282e-07
8.40843e-07 4.282e-07 6.40939e-05
0.00242981 0.000711607 8.00563e-07
0.000711607 0.000557186 -5.49106e-06
8.00563e-07 -5.49106e-06 0.000224157
0.00176312 0.000551066 3.93433e-07
0.000551066 0.000273376 6.20133e-07
3.93433e-07 6.20133e-07 -4.74088e-05
0.00099035 0.000322411 -2.37401e-05
0.000322411 -2.41079e-05 -6.80484e-06
-2.37401e-05 -6.80484e-06 -0.000263135
0.00154572 0.000525764 1.0524e-05
0.000525764 0.000243108 1.25345e-06
1.0524e-05 1.25345e-06 -9.20068e-05
0.00087688 0.0002856 -1.46406e-06
0.0002856 -2.73531e-06 -4.05577e-07
-1.46406e-06 -4.05577e-07 -0.000229897
0.000315233 0.000265581 -2.62156e-05
0.000265581 -0.000191269 -1.98843e-05
-2.62156e-05 -1.98843e-05 -0.000338269
0.000374495 0.000216698 1.00666e-05
0.000216698 -0.000214671 2.78153e-06
1.00666e-05 2.78153e-06 -0.000428168
0.000321154 0.000223373 3.15528e-06
0.000223373 -0.000174343 4.4961e-07
3.15528e-06 4.4961e-07 -0.000303464
0.00728589 -2.97376e-05 -0.00028784
-2.97376e-05 0.00429809 -3.06737e-05
-0.00028784 -3.06737e-05 0.00429123
0.000336867 0.000140682 2.37342e-05
0.000140682 -0.00015364 1.8445e-05
2.37342e-05 1.8445e-05 -0.000256455
0.00616847 -0.000154474 7.20674e-06
-0.000154474 0.00363062 -2.76603e-06
7.20674e-06 -2.76603e-06 0.00361138
0.00495793 -0.000228884 0.000122934
-0.000228884 0.002901 1.26432e-05
0.000122934 1.26432e-05 0.0028648
0.00242309 0.000265119 3.95602e-07
0.000265119 -5.19786e-05 7.64742e-07
3.95602e-07 7.64742e-07 3.04977e-05
0.00220889 0.000231142 1.87017e-06
0.000231142 -0.00022257 -2.42485e-07
1.87017e-06 -2.42485e-07 -7.65077e-05
0.00233911 9.92774e-05 -7.32506e-05
9.92774e-05 -0.000150586 -8.49708e-06
-7.32506e-05 -8.49708e-06 0.000209323
0.00223811 0.000397285 8.41944e-07
0.000397285 1.50436e-05 3.77753e-07
8.41944e-07 3.77753e-07 -3.08679e-05
0.0022145 0.00055134 -7.5053e-07
0.00055134 0.00014275 3.2722e-07
-7.5053e-07 3.2722e-07 -3.47225e-05
0.00196997 0.000715709 7.20007e-06
0.000715709 0.000198921 -2.63368e-06
7.20007e-06 -2.63368e-06 -9.16512e-05
0.00240277 0.000589973 -8.04659e-07
0.000589973 0.00033692 -2.98009e-06
-8.04659e-07 -2.98009e-06 0.000111125
0.0024171 0.000427172 -1.02548e-06
0.000427172 -4.98232e-06 -1.30954e-07
-1.02548e-06 -1.30954e-07 1.01815e-06
0.00226151 0.000689021 -2.55709e-06
0.000689021 0.000123312 -2.75173e-07
-2.55709e-06 -2.75173e-07 -7.81475e-05
0.00201615 0.000418347 1.31597e-05
0.000418347 -0.000140129 6.26612e-07
1.31597e-05 6.26612e-07 -0.000123412
0.00221129 7.1819e-05 2.02688e-06
7.1819e-05 -2.49238e-05 3.10009e-07
2.02688e-06 3.10009e-07 1.46537e-05
0.0023474 8.78503e-05 1.13099e-07
8.78503e-05 -7.61341e-05 2.58802e-09
1.13099e-07 2.58802e-09 1.00567e-05
0.00218391 0.000134315 -7.30542e-06
0.000134315 -0.000211495 -1.59827e-06
-7.30542e-06 -1.59827e-06 -0.000111779
0.00206656 -1.39102e-05 -2.56049e-06
-1.39102e-05 -6.17176e-06 2.65669e-07
-2.56049e-06 2.65669e-07 7.14877e-06
0.00235798 -0.000102755 5.55004e-08
-0.000102755 -0.000175044 -6.51185e-08
5.55004e-08 -6.51185e-08 -4.45362e-05
0.0021644 -7.71644e-05 -6.10473e-07
-7.71644e-05 -3.82553e-05 2.2647e-07
-6.10473e-07 2.2647e-07 6.07248e-06
0.00202339 -0.000112874 -3.05553e-06
-0.000112874 -2.18403e-05 3.44619e-07
-3.05553e-06 3.44619e-07 -2.64657e-05
0.0021826 -0.000254958 7.06763e-08
-0.000254958 -7.70198e-05 1.80127e-07
7.06763e-08 1.80127e-07 -3.43316e-05
0.00208997 -0.00020527 9.97862e-07
-0.00020527 7.13391e-06 -2.98315e-07
9.97862e-07 -2.98315e-07 -4.76334e-06
0.00213402 -0.000210455 -2.03585e-06
-0.000210455 9.49653e-05 4.16619e-07
-2.03585e-06 4.16619e-07 3.2327e-05
0.00213154 -0.000311326 2.92212e-06
-0.000311326 4.23913e-05 -9.42776e-07
2.92212e-06 -9.42776e-07 -1.06171e-06
0.00208117 -0.000294142 7.51316e-08
-0.000294142 9.24586e-05 -3.13928e-07
7.51316e-08 -3.13928e-07 -2.70656e-06
0.00191182 -0.000251224 -1.56219e-06
-0.000251224 0.000104694 -5.21827e-07
-1.56219e-06 -5.21827e-07 -3.76715e-05
0.00203757 -0.000367715 2.46625e-06
-0.000367715 0.000107588 -4.22535e-07
2.46625e-06 -4.22535e-07 -2.66865e-05
0.00196483 -0.000321931 -3.28196e-07
-0.000321931 0.000164394 1.32275e-08
-3.28196e-07 1.32275e-08 -7.01455e-06
0.00115396 -0.000188029 -1.07765e-05
-0.000188029 -4.00157e-05 3.55989e-06
-1.07765e-05 3.55989e-06 -0.000217876
0.00196163 -0.000376325 1.60511e-06
-0.000376325 0.00020357 1.1955e-07
1.60511e-06 1.1955e-07 2.98054e-06
0.00117917 -0.000217588 -2.04558e-07
-0.000217588 -1.43301e-05 2.39726e-07
-2.04558e-07 2.39726e-07 -0.000203559
0.00274868 -0.000176377 -6.64807e-05
-0.000176377 0.0012869 1.22558e-05
-6.64807e-05 1.22558e-05 0.00119128
0.00119748 -0.000247921 1.41663e-05
-0.000247921 9.35924e-06 -6.26344e-06
1.41663e-05 -6.26344e-06 -0.000191995
0.00287528 -0.000207224 4.64463e-05
-0.000207224 0.00136546 -6.42199e-06
4.64463e-05 -6.42199e-06 0.00127347
0.00233954 -0.000122771 -0.000260323
-0.000122771 0.00112303 3.73995e-05
-0.000260323 3.73995e-05 0.00110447
0.00305847 -0.00023954 0.000160678
-0.00023954 0.00148391 -2.88839e-05
0.000160678 -2.88839e-05 0.00139372
0.00195538 -8.14711e-05 -0.000107706
-8.14711e-05 0.000891689 1.60686e-05
-0.000107706 1.60686e-05 0.000856701
0.00679736 -1.16917e-05 9.88119e-05
-1.16917e-05 0.00393741 -5.30442e-06
9.88119e-05 -5.30442e-06 0.0039181
0.00224418 0.000396247 -1.26542e-06
0.000396247 0.000139435 -3.8528e-07
-1.26542e-06 -3.8528e-07 4.36116e-05
0.00213061 0.000430757 -2.73022e-06
0.000430757 0.000170045 -8.01354e-07
-2.73022e-06 -8.01354e-07 5.9914e-06
0.00229949 0.000460265 -3.48769e-06
0.000460265 0.000204309 -1.31653e-07
-3.48769e-06 -1.31653e-07 6.34141e-05
0.00193163 0.000436936 -2.73507e-06
0.000436936 0.000199756 4.16595e-07
-2.73507e-06 4.16595e-07 -3.45548e-05
0.00195966 0.000479869 -1.09046e-06
0.000479869 0.000107073 -2.33067e-06
-1.09046e-06 -2.33067e-06 -9.28506e-05
0.00218553 0.000447164 -3.33521e-06
0.000447164 0.000180566 -3.9208e-06
-3.33521e-06 -3.9208e-06 2.32499e-05
0.0011976 0.000316652 -2.36684e-05
0.000316652 2.87569e-05 -7.04056e-06
-2.36684e-05 -7.04056e-06 -0.000198128
0.00186048 0.000507807 1.25414e-06
0.000507807 0.000223171 4.16905e-07
1.25414e-06 4.16905e-07 -5.46419e-05
0.00232545 0.00062878 1.3259e-06
0.00062878 0.000365365 -4.71021e-06
1.3259e-06 -4.71021e-06 9.49851e-05
0.00171684 0.00055011 1.01191e-05
0.00055011 0.000236329 -4.4481e-07
1.01191e-05 -4.4481e-07 -8.60698e-05
0.00100115 0.000319186 -2.07198e-06
0.000319186 -1.47887e-05 -2.71795e-08
-2.07198e-06 -2.71795e-08 -0.000251909
0.000274042 0.000247641 -2.57354e-05
0.000247641 -0.000232474 -1.84161e-05
-2.57354e-05 -1.84161e-05 -0.000377007
0.000847083 0.00027986 1.70683e-05
0.00027986 -1.50058e-05 6.37342e-06
1.70683e-05 6.37342e-06 -0.000239202
0.000342333 0.000254549 1.10021e-06
0.000254549 -0.000168948 1.22544e-06
1.10021e-06 1.22544e-06 -0.000316592
0.00752749 5.89979e-05 -0.000305554
5.89979e-05 0.00443295 -3.72937e-05
-0.000305554 -3.72937e-05 0.00442748
0.000294119 0.000201708 2.4269e-05
0.000201708 -0.000195348 2.04186e-05
2.4269e-05 2.04186e-05 -0.000321154
0.00700252 -7.66657e-05 4.23502e-06
-7.66657e-05 0.00411728 -6.67065e-07
4.23502e-06 -6.67065e-07 0.00411119
0.00575136 -0.000181995 0.000170301
-0.000181995 0.00336677 1.14718e-05
0.000170301 1.14718e-05 0.00334571
0.00220226 0.000211851 2.21602e-07
0.000211851 -1.66157e-05 -2.40365e-07
2.21602e-07 -2.40365e-07 8.82372e-06
0.00239295 0.000269825 -2.11325e-07
0.000269825 -7.87372e-05 5.58994e-07
-2.11325e-07 5.58994e-07 5.6566e-06
0.00220252 0.000234323 3.57635e-06
0.000234323 -0.000219559 3.94406e-07
3.57635e-06 3.94406e-07 -7.32644e-05
0.00224926 0.000392446 -9.276e-08
0.000392446 2.54939e-05 4.39312e-08
-9.276e-08 4.39312e-08 -1.77135e-05
0.00218396 0.000545415 5.53072e-07
0.000545415 0.000149334 -8.68189e-07
5.53072e-07 -8.68189e-07 -2.59366e-05
0.00237741 0.00041134 2.00895e-06
0.00041134 -1.90863e-05 -2.83194e-07
2.00895e-06 -2.83194e-07 -1.20517e-05
0.00209571 6.46844e-05 -4.4545e-07
6.46844e-05 -9.31655e-06 1.42194e-07
-4.4545e-07 1.42194e-07 2.73479e-06
0.00219644 6.73114e-05 3.29961e-07
6.73114e-05 -3.231e-05 -1.90932e-07
3.29961e-07 -1.90932e-07 7.70481e-06
0.00227343 8.20414e-05 -1.01868e-06
8.20414e-05 -0.000109867 -1.28294e-07
-1.01868e-06 -1.28294e-07 -2.48551e-05
0.00206351 -1.18651e-05 -8.60849e-07
-1.18651e-05 -9.25049e-06 5.08583e-08
-8.60849e-07 5.08583e-08 2.69239e-06
0.00204069 -3.72758e-05 -5.88534e-06
-3.72758e-05 3.13001e-05 5.32127e-07
-5.88534e-06 5.32127e-07 2.29998e-05
0.00217765 -8.02258e-05 -3.33726e-07
-8.02258e-05 -3.45496e-05 3.43605e-07
-3.33726e-07 3.43605e-07 9.98974e-06
0.00204341 -0.00011257 -1.52957e-06
-0.00011257 -2.97418e-06 2.49149e-07
-1.52957e-06 2.49149e-07 -1.05172e-05
0.00206161 -0.000132176 -6.1123e-06
-0.000132176 4.01549e-05 6.51549e-07
-6.1123e-06 6.51549e-07 -1.62908e-06
0.00208443 -0.000203324 3.75671e-06
-0.000203324 3.19239e-06 -8.44235e-07
3.75671e-06 -8.44235e-07 -7.95246e-06
0.00210165 -0.000209707 2.74763e-06
-0.000209707 7.75717e-05 -5.19745e-07
2.74763e-06 -5.19745e-07 1.5065e-05
0.00194682 -0.000183234 7.43317e-07
-0.000183234 0.000110028 -1.15736e-06
7.43317e-07 -1.15736e-06 -8.40348e-06
0.00202641 -0.000289685 3.12611e-06
-0.000289685 5.91561e-05 -1.13723e-06
3.12611e-06 -1.13723e-06 -3.57513e-05
0.00195987 -0.000255146 -1.95106e-07
-0.000255146 0.000129672 9.59199e-09
-1.95106e-07 9.59199e-09 -1.30426e-05
0.00117597 -0.000151912 -1.13649e-05
-0.000151912 -3.31255e-05 2.29259e-06
-1.13649e-05 2.29259e-06 -0.000197159
0.00199635 -0.000323062 7.89068e-07
-0.000323062 0.000184349 2.73375e-07
7.89068e-07 2.73375e-07 1.31364e-05
0.00117875 -0.000186108 -3.62296e-07
-0.000186108 -2.82098e-05 2.86851e-07
-3.62296e-07 2.86851e-07 -0.00020466
0.00266067 -0.000174996 -6.86746e-05
-0.000174996 0.00123544 1.02849e-05
-6.86746e-05 1.02849e-05 0.00114318
0.00122049 -0.000218396 1.14013e-05
-0.000218396 4.21953e-06 -4.74097e-06
1.14013e-05 -4.74097e-06 -0.000183873
0.00282726 -0.000176627 4.43777e-05
-0.000176627 0.00133134 -4.92812e-06
4.43777e-05 -4.92812e-06 0.00124549
0.00233882 -0.000101939 -0.000258174
-0.000101939 0.00111556 3.13318e-05
-0.000258174 3.13318e-05 0.00109844
0.00296917 -0.000199304 0.000156452
-0.000199304 0.00141638 -2.46292e-05
0.000156452 -2.46292e-05 0.00133628
0.00193812 -8.25435e-05 -9.7593e-05
-8.25435e-05 0.000875482 1.2763e-05
-9.7593e-05 1.2763e-05 0.000842962
0.00163369 -7.85757e-05 6.42235e-05
-7.85757e-05 0.000702527 -1.0578e-05
6.42235e-05 -1.0578e-05 0.000649115
0.00208846 0.000248432 -1.65265e-06
0.000248432 6.81635e-07 -7.40311e-07
-1.65265e-06 -7.40311e-07 -3.1095e-05
0.00214846 0.000358968 -2.98952e-06
0.000358968 0.000148374 -4.2171e-08
-2.98952e-06 -4.2171e-08 2.51626e-05
0.00220832 0.000396755 -4.01219e-07
0.000396755 9.51044e-05 -1.18937e-07
-4.01219e-07 -1.18937e-07 8.46002e-06
0.00203689 0.000398336 1.37987e-08
0.000398336 0.000206363 5.86407e-07
1.37987e-08 5.86407e-07 9.54202e-06
0.00213572 0.000428302 -1.54617e-06
0.000428302 0.000182427 -6.35941e-07
-1.54617e-06 -6.35941e-07 1.76858e-05
0.00228628 0.000462494 2.35672e-06
0.000462494 0.000186785 3.59361e-07
2.35672e-06 3.59361e-07 4.43831e-05
0.00124384 0.000274714 -1.85371e-05
0.000274714 1.57095e-05 -6.28398e-06
-1.85371e-05 -6.28398e-06 -0.000189416
0.00189713 0.000439755 1.87709e-06
0.000439755 0.000170044 -2.56178e-07
1.87709e-06 -2.56178e-07 -5.96434e-05
0.00196169 0.000487936 -1.7553e-06
0.000487936 8.85921e-05 -5.00517e-06
-1.7553e-06 -5.00517e-06 -0.000108239
0.0002912 0.000194906 -2.21967e-05
0.000194906 -0.000245228 -1.58504e-05
-2.21967e-05 -1.58504e-05 -0.000376405
0.00114977 0.000312109 -6.52771e-07
0.000312109 1.26501e-06 3.44828e-08
-6.52771e-07 3.44828e-08 -0.000225369
0.00178322 0.00050291 7.74728e-06
0.00050291 0.000173689 -1.38925e-06
7.74728e-06 -1.38925e-06 -0.000104245
0.00109957 0.000321498 2.49329e-05
0.000321498 5.06147e-05 8.64867e-06
2.49329e-05 8.64867e-06 -0.000184997
0.000294744 0.000237212 3.67779e-07
0.000237212 -0.000215789 1.06247e-06
3.67779e-07 1.06247e-06 -0.000361708
0.00736179 0.00015827 -0.00031
0.00015827 0.00431454 -4.13735e-05
-0.00031 -4.13735e-05 0.00431114
0.000352727 0.000236352 2.2635e-05
0.000236352 -0.000159361 1.90539e-05
2.2635e-05 1.90539e-05 -0.000305205
0.00739361 3.22014e-05 7.97998e-06
3.22014e-05 0.00433696 4.97164e-07
7.97998e-06 4.97164e-07 0.00433978
0.00675718 -0.000107559 0.000234999
-0.000107559 0.00396034 1.46265e-05
0.000234999 1.46265e-05 0.00395484
0.00211812 0.000128914 -2.64835e-06
0.000128914 2.18894e-05 -6.42843e-07
-2.64835e-06 -6.42843e-07 2.72967e-05
0.00219467 0.000216365 7.15345e-07
0.000216365 -2.40666e-05 3.4217e-07
7.15345e-07 3.4217e-07 -1.29793e-06
0.00234761 0.000274779 -3.79334e-07
0.000274779 -0.000110787 -7.4215e-07
-3.79334e-07 -7.4215e-07 -2.48529e-05
0.00225422 0.000386355 1.67084e-06
0.000386355 3.16959e-05 -1.42631e-07
1.67084e-06 -1.42631e-07 -8.34612e-06
0.00201094 2.08885e-05 -5.84319e-06
2.08885e-05 3.64014e-05 3.53501e-07
-5.84319e-06 3.53501e-07 1.40972e-05
0.00208669 5.54262e-05 -4.00554e-08
5.54262e-05 -1.43839e-05 -2.27254e-08
-4.00554e-08 -2.27254e-08 -1.82866e-06
0.00218144 6.27216e-05 -1.18131e-06
6.27216e-05 -3.91354e-05 -7.87334e-08
-1.18131e-06 -7.87334e-08 7.6113e-07
0.00205897 -8.9047e-06 -2.81128e-07
-8.9047e-06 -1.28239e-05 -3.19677e-07
-2.81128e-07 -3.19677e-07 -2.50444e-06
0.00204234 -3.15678e-05 -7.00969e-07
-3.15678e-05 2.82534e-05 -1.39352e-07
-7.00969e-07 -1.39352e-07 2.13292e-05
0.00190589 -5.71706e-05 -5.15816e-06
-5.71706e-05 -4.12803e-05 4.52622e-07
-5.15816e-06 4.52622e-07 -8.79975e-05
0.00206139 -0.000112337 3.40239e-06
-0.000112337 1.45878e-05 -6.69175e-08
3.40239e-06 -6.69175e-08 3.9163e-06
0.00205227 -0.000133393 -1.94013e-06
-0.000133393 4.26051e-05 3.77329e-07
-1.94013e-06 3.77329e-07 -6.29676e-06
0.00202215 -0.000123102 -1.80268e-06
-0.000123102 0.000143963 -2.86394e-07
-1.80268e-06 -2.86394e-07 4.90983e-05
0.00207491 -0.000208011 7.18986e-06
-0.000208011 6.35388e-05 -1.34003e-06
7.18986e-06 -1.34003e-06 1.37105e-06
0.00195503 -0.000182201 1.56053e-06
-0.000182201 0.000107454 -5.87073e-07
1.56053e-06 -5.87073e-07 -1.0553e-05
0.0011425 -0.000113108 -1.18578e-05
-0.000113108 -5.26656e-05 1.5227e-06
-1.18578e-05 1.5227e-06 -0.000203607
0.00203935 -0.000257948 1.49491e-06
-0.000257948 0.000176475 4.18464e-07
1.49491e-06 4.18464e-07 3.39201e-05
0.00116471 -0.000150537 -1.08336e-07
-0.000150537 -3.97972e-05 1.8984e-07
-1.08336e-07 1.8984e-07 -0.000202865
0.000355989 -8.99951e-05 -1.94257e-05
-8.99951e-05 -0.000231532 5.83931e-06
-1.94257e-05 5.83931e-06 -0.00033223
0.00122668 -0.000185198 1.04341e-05
-0.000185198 -2.5746e-06 -3.14098e-06
1.04341e-05 -3.14098e-06 -0.00017757
0.00158783 -0.000115051 6.54993e-05
-0.000115051 0.00054355 -5.13337e-06
6.54993e-05 -5.13337e-06 0.000455366
0.00677066 -0.000171615 -0.000343214
-0.000171615 0.00392736 2.62073e-05
-0.000343214 2.62073e-05 0.00394729
0.00291641 -0.000159476 0.000153522
-0.000159476 0.00137682 -1.94329e-05
0.000153522 -1.94329e-05 0.00130324
0.00194006 -7.96523e-05 -8.85072e-05
-7.96523e-05 0.000875263 8.35308e-06
-8.85072e-05 8.35308e-06 0.000842653
0.00155318 -0.000101498 7.62059e-05
-0.000101498 0.000655473 -1.24097e-05
7.62059e-05 -1.24097e-05 0.000601173
0.00203608 0.000169591 -3.51495e-06
0.000169591 1.4436e-05 -1.1045e-06
-3.51495e-06 -1.1045e-06 -1.49292e-05
0.00206456 0.000272664 -1.69254e-06
0.000272664 6.73291e-05 2.20869e-08
-1.69254e-06 2.20869e-08 -1.61705e-05
0.00210272 0.000242485 -1.31392e-07
0.000242485 2.10166e-05 2.37576e-08
-1.31392e-07 2.37576e-08 -1.66897e-05
0.00208673 0.000326254 7.03046e-07
0.000326254 0.000211854 1.25359e-06
7.03046e-07 1.25359e-06 5.27774e-05
0.00205684 0.000353812 1.00158e-06
0.000353812 8.9714e-05 2.22967e-07
1.00158e-06 2.22967e-07 -3.29399e-05
0.00217267 0.000397519 1.00225e-06
0.000397519 5.09444e-05 2.00039e-07
1.00225e-06 2.00039e-07 -2.67495e-05
0.0012725 0.000241672 -1.41892e-05
0.000241672 1.54857e-05 -4.05295e-06
-1.41892e-05 -4.05295e-06 -0.00016892
0.00203625 0.000395381 2.15512e-06
0.000395381 0.000207369 5.43423e-07
2.15512e-06 5.43423e-07 1.1612e-05
0.00212245 0.000424405 8.57612e-07
0.000424405 0.000183361 -1.28887e-06
8.57612e-07 -1.28887e-06 1.81623e-05
0.000319135 0.000138504 -1.93915e-05
0.000138504 -0.000250552 -1.23882e-05
-1.93915e-05 -1.23882e-05 -0.000366324
0.00118445 0.000271772 4.74059e-07
0.000271772 -1.96366e-05 4.7296e-07
4.74059e-07 4.7296e-07 -0.0002226
0.00185016 0.000440759 6.66657e-06
0.000440759 0.000133138 -1.66066e-06
6.66657e-06 -1.66066e-06 -9.14762e-05
0.00715067 0.000230904 -0.000317151
0.000230904 0.00417186 -4.10848e-05
-0.000317151 -4.10848e-05 0.00417251
0.000312959 0.000187948 1.98778e-07
0.000187948 -0.000232931 7.19305e-07
1.98778e-07 7.19305e-07 -0.000364539
0.00113754 0.000309487 2.46902e-05
0.000309487 -1.07042e-06 7.68329e-06
2.46902e-05 7.68329e-06 -0.000227569
0.000381515 0.000229474 2.26093e-05
0.000229474 -0.000159046 1.78174e-05
2.26093e-05 1.78174e-05 -0.000306931
0.00738758 0.000151322 1.04522e-05
0.000151322 0.00432464 1.60141e-06
1.04522e-05 1.60141e-06 0.00432788
0.00727448 -6.5951e-06 0.000287879
-6.5951e-06 0.00425141 2.08351e-05
0.000287879 2.08351e-05 0.00425867
0.00197658 7.30283e-05 -7.5447e-06
7.30283e-05 1.75984e-05 -1.7293e-07
-7.5447e-06 -1.7293e-07 -9.66576e-06
0.00210647 0.000125122 8.21886e-08
0.000125122 1.57392e-05 -3.3283e-08
8.21886e-08 -3.3283e-08 1.97113e-05
0.00219004 0.000220929 2.29104e-07
0.000220929 -2.99331e-05 1.62945e-07
2.29104e-07 1.62945e-07 -9.49493e-06
0.00194756 6.25928e-06 -6.38383e-06
6.25928e-06 7.6186e-06 1.45157e-07
-6.38383e-06 1.45157e-07 -4.54397e-05
0.00199237 2.58763e-05 4.63821e-07
2.58763e-05 2.07895e-05 1.5243e-08
4.63821e-07 1.5243e-08 1.41163e-06
0.00208041 4.51632e-05 -1.54178e-07
4.51632e-05 -1.80276e-05 -1.00333e-07
-1.54178e-07 -1.00333e-07 -4.9038e-06
0.00204494 -2.64621e-05 3.62287e-06
-2.64621e-05 2.52801e-05 -3.5045e-07
3.62287e-06 -3.5045e-07 2.0192e-05
0.00197053 -5.59298e-05 -1.1966e-06
-5.59298e-05 4.00361e-06 1.69617e-07
-1.1966e-06 1.69617e-07 -4.13143e-05
0.00187885 -5.94173e-05 -6.66882e-07
-5.94173e-05 6.42783e-05 -2.21043e-07
-6.66882e-07 -2.21043e-07 -3.06488e-05
0.0020606 -0.000134755 2.41073e-06
-0.000134755 5.76096e-05 -5.66053e-08
2.41073e-06 -5.66053e-08 1.82889e-06
0.00195199 -0.000123897 5.28807e-07
-0.000123897 0.000102211 2.4325e-08
5.28807e-07 2.4325e-08 -7.93558e-07
0.00121717 -6.95894e-05 -1.17898e-05
-6.95894e-05 4.82059e-07 6.64694e-07
-1.17898e-05 6.64694e-07 -0.000131209
0.00194286 -0.000182811 3.07138e-06
-0.000182811 9.11607e-05 -1.46121e-07
3.07138e-06 -1.46121e-07 -2.69041e-05
0.00114347 -0.000108508 -4.3527e-08
-0.000108508 -4.86749e-05 4.15167e-08
-4.3527e-08 4.15167e-08 -0.00019848
0.000381505 -2.46741e-05 -1.8184e-05
-2.46741e-05 -0.000218286 3.20169e-06
-1.8184e-05 3.20169e-06 -0.000311468
0.00117888 -0.000148405 1.10306e-05
-0.000148405 -3.16564e-05 -1.94944e-06
1.10306e-05 -1.94944e-06 -0.000193446
0.000378907 -7.58e-05 -3.14291e-07
-7.58e-05 -0.000216848 4.96327e-07
-3.14291e-07 4.96327e-07 -0.000317661
0.00666137 -6.14496e-05 -0.000331841
-6.14496e-05 0.00385327 1.62824e-05
-0.000331841 1.62824e-05 0.00387854
0.000443206 -7.87505e-05 1.41946e-05
-7.87505e-05 -0.000181627 -8.1479e-06
1.41946e-05 -8.1479e-06 -0.000288048
0.00425197 -0.000111895 0.000146282
-0.000111895 0.00234099 -7.88678e-06
0.000146282 -7.88678e-06 0.00232485
0.00152982 -9.30418e-05 8.25131e-05
-9.30418e-05 0.00063932 -1.20222e-05
8.25131e-05 -1.20222e-05 0.000585921
0.00204895 0.000131444 -8.07736e-06
0.000131444 6.67886e-05 -8.80866e-07
-8.07736e-06 -8.80866e-07 3.11589e-05
0.00210927 0.000202017 -3.1379e-06
0.000202017 0.000105572 -3.85088e-08
-3.1379e-06 -3.85088e-08 3.43116e-05
0.00202321 0.000163865 -6.42616e-07
0.000163865 9.53646e-06 -1.22236e-07
-6.42616e-07 -1.22236e-07 -1.96075e-05
0.00198734 0.000253347 -3.60334e-07
0.000253347 0.000134364 1.02366e-06
-3.60334e-07 1.02366e-06 -7.36752e-06
0.00210177 0.000273164 4.34801e-08
0.000273164 8.89017e-05 -9.78927e-08
4.34801e-08 -9.78927e-08 3.18633e-06
0.00211514 0.000236527 2.86427e-06
0.000236527 4.0171e-05 8.57612e-07
2.86427e-06 8.57612e-07 -3.31475e-06
0.00123583 0.000196347 -1.18071e-05
0.000196347 -1.17585e-05 -2.62723e-06
-1.18071e-05 -2.62723e-06 -0.000179563
0.00202291 0.00032139 2.43232e-06
0.00032139 0.000179067 8.14657e-07
2.43232e-06 8.14657e-07 1.36492e-05
0.00198036 0.000349366 1.80231e-06
0.000349366 4.11879e-05 -2.33708e-07
1.80231e-06 -2.33708e-07 -8.08363e-05
0.000339491 9.81126e-05 -1.79318e-05
9.81126e-05 -0.000249171 -9.03072e-06
-1.79318e-05 -9.03072e-06 -0.000355304
0.00121732 0.000236819 -3.07425e-07
0.000236819 -1.6569e-05 4.93875e-07
-3.07425e-07 4.93875e-07 -0.000199981
0.00204375 0.00039332 4.69774e-06
0.00039332 0.000213933 6.42455e-07
4.69774e-06 6.42455e-07 1.90172e-05
0.00697479 0.000281482 -0.000333042
0.000281482 0.00406435 -3.95014e-05
-0.000333042 -3.95014e-05 0.00406619
0.000324577 0.000137919 3.33055e-09
0.000137919 -0.000250601 3.97747e-07
3.33055e-09 3.97747e-07 -0.00036707
0.00111708 0.000269677 1.81925e-05
0.000269677 -6.17702e-05 5.96591e-06
1.81925e-05 5.96591e-06 -0.00026291
0.00716137 0.000249305 1.39582e-05
0.000249305 0.00418694 4.12069e-06
1.39582e-05 4.12069e-06 0.00418515
0.000291181 0.000178675 1.99197e-05
0.000178675 -0.000248701 1.57516e-05
1.99197e-05 1.57516e-05 -0.000380426
0.00727484 0.000117637 0.000317098
0.000117637 0.00424032 2.98071e-05
0.000317098 2.98071e-05 0.00425229
0.00190915 5.58263e-05 -6.63505e-06
5.58263e-05 -1.68257e-05 4.45376e-08
-6.63505e-06 4.45376e-08 -7.29432e-05
0.0020079 7.91474e-05 -8.95867e-07
7.91474e-05 4.39685e-05 -1.85034e-07
-8.95867e-07 -1.85034e-07 1.61708e-05
0.00209259 0.000121651 2.27503e-06
0.000121651 8.97906e-06 3.78897e-07
2.27503e-06 3.78897e-07 1.13838e-05
0.00187026 -7.75223e-06 1.30852e-08
-7.75223e-06 6.53473e-05 -2.44662e-07
1.30852e-08 -2.44662e-07 -2.80071e-05
0.00197242 7.52114e-06 -1.59671e-06
7.52114e-06 2.38825e-05 1.07962e-07
-1.59671e-06 1.07962e-07 -2.63155e-05
0.00197328 3.2e-05 6.37299e-06
3.2e-05 5.00101e-06 -1.07376e-07
6.37299e-06 -1.07376e-07 -1.15829e-05
0.00203326 -5.47079e-05 2.52203e-06
-5.47079e-05 4.83265e-05 -7.43931e-08
2.52203e-06 -7.43931e-08 4.14899e-06
0.00192314 -5.92989e-05 1.71613e-06
-5.92989e-05 9.46255e-05 -1.24885e-08
1.71613e-06 -1.24885e-08 7.82e-07
0.0011837 -3.0508e-05 -1.15175e-05
-3.0508e-05 -1.11869e-05 -4.03512e-08
-1.15175e-05 -4.03512e-08 -0.00013538
0.00186266 -0.000124587 7.71672e-07
-0.000124587 4.7238e-05 3.0477e-07
7.71672e-07 3.0477e-07 -6.40292e-05
0.00114592 -6.86764e-05 7.59909e-07
-6.86764e-05 -4.35536e-05 -1.58583e-07
7.59909e-07 -1.58583e-07 -0.000179213
0.000381695 -9.13925e-06 -1.8443e-05
-9.13925e-06 -0.000217799 1.96688e-06
-1.8443e-05 1.96688e-06 -0.000306756
0.00110933 -0.000104289 1.08917e-05
-0.000104289 -6.52705e-05 -1.40097e-06
1.08917e-05 -1.40097e-06 -0.000214223
0.00034738 -3.63611e-05 8.74347e-07
-3.63611e-05 -0.000239041 -2.99458e-07
8.74347e-07 -2.99458e-07 -0.000331669
0.0064446 -0.000156147 -0.000332678
-0.000156147 0.00373511 1.76344e-05
-0.000332678 1.76344e-05 0.00375393
0.000369854 -6.01897e-05 1.77008e-05
-6.01897e-05 -0.000223384 -4.36364e-06
1.77008e-05 -4.36364e-06 -0.000323335
0.00660235 -9.819e-05 7.87246e-06
-9.819e-05 0.00381994 1.39921e-08
7.87246e-06 1.39921e-08 0.00384435
0.00184937 -3.82651e-05 0.000257289
-3.82651e-05 0.000808476 -1.77224e-05
0.000257289 -1.77224e-05 0.000799026
0.00202296 0.000133825 -6.34841e-06
0.000133825 5.43644e-05 -5.98105e-07
-6.34841e-06 -5.98105e-07 -1.25499e-05
0.00200489 0.000132645 -1.78534e-06
0.000132645 2.95311e-05 -1.19388e-07
-1.78534e-06 -1.19388e-07 -1.74576e-06
0.00193109 0.000182364 -7.62736e-08
0.000182364 9.2275e-05 9.82588e-07
-7.62736e-08 9.82588e-07 -2.8615e-05
0.00211123 0.000201815 7.07612e-07
0.000201815 0.000102266 1.95955e-08
7.07612e-07 1.95955e-08 3.13988e-05
0.00200827 0.000157931 4.41862e-06
0.000157931 2.65243e-06 7.16837e-07
4.41862e-06 7.16837e-07 -2.61475e-05
0.00118047 0.000148176 -1.1223e-05
0.000148176 -3.2663e-05 -1.70319e-06
-1.1223e-05 -1.70319e-06 -0.000191769
0.00198277 0.000250977 1.62602e-07
0.000250977 0.00013782 1.14745e-07
1.62602e-07 1.14745e-07 -3.6138e-06
0.00213451 0.000273354 3.08308e-06
0.000273354 0.000107674 7.3069e-08
3.08308e-06 7.3069e-08 1.96053e-05
0.000362817 7.15701e-05 -1.76467e-05
7.15701e-05 -0.000236628 -6.28798e-06
-1.76467e-05 -6.28798e-06 -0.000337556
0.00119994 0.000195137 2.74307e-07
0.000195137 -3.07542e-05 5.16615e-07
2.74307e-07 5.16615e-07 -0.000201842
0.00195366 0.000316105 1.70256e-06
0.000316105 0.000143602 3.90337e-07
1.70256e-06 3.90337e-07 -2.81178e-05
0.00682328 0.000289207 -0.000348758
0.000289207 0.0039798 -3.64347e-05
-0.000348758 -3.64347e-05 0.00398156
0.000359996 0.000101563 3.27159e-07
0.000101563 -0.000239037 2.28397e-07
3.27159e-07 2.28397e-07 -0.000346027
0.00115921 0.000231489 1.08917e-05
0.000231489 -5.11169e-05 4.51791e-06
1.08917e-05 4.51791e-06 -0.000233344
0.00701561 0.000306422 1.04028e-05
0.000306422 0.00410251 5.04714e-06
1.04028e-05 5.04714e-06 0.00409855
0.000358455 0.000137676 1.84896e-05
0.000137676 -0.000233116 1.27738e-05
1.84896e-05 1.27738e-05 -0.000350112
0.0072367 0.000254964 0.00033895
0.000254964 0.00422621 4.01691e-05
0.00033895 4.01691e-05 0.00423059
0.00184041 5.24571e-05 1.62259e-06
5.24571e-05 4.83014e-05 -1.13193e-07
1.62259e-06 -1.13193e-07 -4.93265e-05
0.00197597 5.72097e-05 -3.31468e-06
5.72097e-05 3.42482e-05 -1.05521e-07
-3.31468e-06 -1.05521e-07 -2.26994e-05
0.00203907 8.47022e-05 7.18034e-06
8.47022e-05 7.02483e-05 2.67628e-07
7.18034e-06 2.67628e-07 4.18755e-05
0.00114884 -1.14913e-05 -1.197e-05
-1.14913e-05 -2.70506e-05 -2.68585e-07
-1.197e-05 -2.68585e-07 -0.000149347
0.00191116 -3.65971e-06 2.21917e-06
-3.65971e-06 9.45143e-05 -3.42119e-08
2.21917e-06 -3.42119e-08 1.73835e-06
0.00200014 8.25597e-06 2.40885e-06
8.25597e-06 4.21606e-05 8.01271e-08
2.40885e-06 8.01271e-08 -4.9703e-06
0.00197222 -5.96516e-05 3.74582e-06
-5.96516e-05 0.000128304 1.79017e-07
3.74582e-06 1.79017e-07 3.55345e-05
0.00116178 -3.19666e-05 6.08849e-07
-3.19666e-05 -2.82995e-05 -8.01228e-08
6.08849e-07 -8.01228e-08 -0.000152804
0.000386775 -3.25285e-05 -1.89659e-05
-3.25285e-05 -0.000212495 7.75687e-07
-1.89659e-05 7.75687e-07 -0.000297442
0.00106353 -6.69017e-05 1.19807e-05
-6.69017e-05 -9.44579e-05 -1.14639e-06
1.19807e-05 -1.14639e-06 -0.000234077
0.000362719 2.3261e-06 4.5228e-07
2.3261e-06 -0.000230808 8.95088e-08
4.5228e-07 8.95088e-08 -0.000318519
0.0063554 -0.000126218 -0.000332527
-0.000126218 0.0036781 1.32117e-05
-0.000332527 1.32117e-05 0.00370015
0.000385255 -4.45129e-05 1.83783e-05
-4.45129e-05 -0.000213079 -2.94868e-06
1.83783e-05 -2.94868e-06 -0.000306855
0.00644705 -5.11742e-05 -3.05112e-06
-5.11742e-05 0.0037237 2.98903e-06
-3.05112e-06 2.98903e-06 0.00375048
0.00654506 -0.000111653 0.000331476
-0.000111653 0.00378555 -1.57418e-05
0.000331476 -1.57418e-05 0.00381
0.00189469 0.000114497 -9.3735e-08
0.000114497 7.66954e-05 3.08072e-07
-9.3735e-08 3.08072e-07 -3.05969e-05
0.00202877 0.000132048 -3.2231e-06
0.000132048 5.0945e-05 -4.66529e-07
-3.2231e-06 -4.66529e-07 -1.02735e-05
0.00196453 0.000134413 6.27317e-06
0.000134413 -5.29117e-06 7.0658e-07
6.27317e-06 7.0658e-07 -3.22204e-05
0.00117067 9.96033e-05 -1.17503e-05
9.96033e-05 -2.81598e-05 -1.00636e-06
-1.17503e-05 -1.00636e-06 -0.000174085
0.00196124 0.00018155 3.23435e-07
0.00018155 0.000116153 -1.40874e-07
3.23435e-07 -1.40874e-07 -4.58715e-06
0.00211293 0.000201524 3.32583e-06
0.000201524 9.88226e-05 -1.17983e-07
3.32583e-06 -1.17983e-07 2.83505e-05
0.000389949 4.94937e-05 -1.72731e-05
4.94937e-05 -0.000218112 -4.18479e-06
-1.72731e-05 -4.18479e-06 -0.000314624
0.00117797 0.000150533 2.71473e-07
0.000150533 -3.44179e-05 2.95404e-07
2.71473e-07 2.95404e-07 -0.000194923
0.00198033 0.00024882 8.83217e-07
0.00024882 0.000141998 -8.64441e-07
8.83217e-07 -8.64441e-07 8.41973e-07
0.00667776 0.000241379 -0.00035766
0.000241379 0.00388724 -2.97091e-05
-0.00035766 -2.97091e-05 0.0038973
0.000388021 7.83137e-05 7.84964e-07
7.83137e-05 -0.000221894 2.09629e-07
7.84964e-07 2.09629e-07 -0.000324275
0.00117097 0.000194121 9.27599e-06
0.000194121 -4.81136e-05 3.28225e-06
9.27599e-06 3.28225e-06 -0.00022236
0.00689687 0.000306655 5.72728e-06
0.000306655 0.00403099 3.49421e-06
5.72728e-06 3.49421e-06 0.00403058
0.00038586 0.000107166 1.74254e-05
0.000107166 -0.000224221 9.87604e-06
1.74254e-05 9.87604e-06 -0.000332669
0.0070708 0.000341272 0.0003494
0.000341272 0.0041464 4.64353e-05
0.0003494 4.64353e-05 0.0041376
0.0010822 2.80809e-05 -1.20823e-05
2.80809e-05 -6.73537e-05 -6.10896e-07
-1.20823e-05 -6.10896e-07 -0.000198342
0.0019029 5.02645e-05 2.42611e-06
5.02645e-05 8.81157e-05 1.09617e-08
2.42611e-06 1.09617e-08 -5.25573e-06
0.00204615 5.90001e-05 1.31942e-06
5.90001e-05 8.69691e-05 1.63412e-07
1.31942e-06 1.63412e-07 2.93298e-05
0.000425681 3.19498e-05 -1.9485e-05
3.19498e-05 -0.000195586 -9.74832e-07
-1.9485e-05 -9.74832e-07 -0.000271818
0.00112069 -6.09553e-06 3.95776e-07
-6.09553e-06 -4.77689e-05 2.95099e-08
3.95776e-07 2.95099e-08 -0.00017009
0.00194589 1.8475e-06 4.22884e-06
1.8475e-06 0.000119413 1.59626e-08
4.22884e-06 1.59626e-08 2.7105e-05
0.00113557 -3.29723e-05 1.26615e-05
-3.29723e-05 -4.84414e-05 -4.39826e-07
1.26615e-05 -4.39826e-07 -0.000173243
0.000383621 -5.93909e-06 4.76521e-07
-5.93909e-06 -0.000214681 3.7381e-07
4.76521e-07 3.7381e-07 -0.000299542
0.00623983 1.05291e-05 -0.000334308
1.05291e-05 0.00359783 2.01099e-06
-0.000334308 2.01099e-06 0.0036276
0.00033787 1.42327e-05 1.78382e-05
1.42327e-05 -0.00024814 -8.82972e-07
1.78382e-05 -8.82972e-07 -0.000334354
0.00631202 -0.000123668 -7.95807e-06
-0.000123668 0.00365275 2.09003e-06
-7.95807e-06 2.09003e-06 0.00367438
0.00637563 -3.33776e-05 0.000318506
-3.33776e-05 0.00367921 -8.5041e-06
0.000318506 -8.5041e-06 0.00370622
0.00114457 5.94901e-05 -1.19847e-05
5.94901e-05 -3.55813e-05 -1.03193e-06
-1.19847e-05 -1.03193e-06 -0.000171432
0.00193846 0.000111483 -2.8963e-07
0.000111483 0.000104056 -4.0805e-07
-2.8963e-07 -4.0805e-07 1.17679e-06
0.00201098 0.00012951 -1.54606e-07
0.00012951 3.17417e-05 -5.03552e-07
-1.54606e-07 -5.03552e-07 -2.41202e-05
0.00272108 6.61915e-05 -0.000153254
6.61915e-05 0.00125543 -5.49202e-06
-0.000153254 -5.49202e-06 0.00120133
0.0011487 0.000101729 2.82373e-07
0.000101729 -4.38989e-05 1.76989e-07
2.82373e-07 1.76989e-07 -0.000190768
0.00200443 0.000181036 1.10173e-06
0.000181036 0.000148641 -1.24041e-06
1.10173e-06 -1.24041e-06 2.80663e-05
0.0064946 0.000174315 -0.000354838
0.000174315 0.003766 -2.11101e-05
-0.000354838 -2.11101e-05 0.00378579
0.000400067 6.80036e-05 1.15334e-06
6.80036e-05 -0.000208381 5.01567e-07
1.15334e-06 5.01567e-07 -0.000307235
0.00118205 0.000152425 1.13871e-05
0.000152425 -3.09072e-05 2.18822e-06
1.13871e-05 2.18822e-06 -0.000192696
0.00675172 0.000256891 8.60734e-07
0.000256891 0.00393491 1.56504e-06
8.60734e-07 1.56504e-06 0.00394349
0.000391426 8.65779e-05 1.75891e-05
8.65779e-05 -0.000218718 7.43211e-06
1.75891e-05 7.43211e-06 -0.000323174
0.00697105 0.000342733 0.000359842
0.000342733 0.00409114 4.564e-05
0.000359842 4.564e-05 0.00408367
0.00051219 1.23989e-05 -1.54318e-05
1.23989e-05 -0.000130714 -2.05525e-06
-1.54318e-05 -2.05525e-06 -0.00021623
0.00109269 2.76449e-05 4.09938e-08
2.76449e-05 -6.52548e-05 1.78696e-07
4.09938e-08 1.78696e-07 -0.000193171
0.00196073 4.67165e-05 4.20743e-06
4.67165e-05 0.000124718 -1.35139e-07
4.20743e-06 -1.35139e-07 3.55639e-05
0.00605833 -0.000103536 -0.000315672
-0.000103536 0.00350296 4.43889e-06
-0.000315672 4.43889e-06 0.00352142
0.000382979 9.78829e-06 -5.83992e-07
9.78829e-06 -0.000218048 -1.4599e-07
-5.83992e-07 -1.4599e-07 -0.000296934
0.00110904 -1.98381e-06 1.26118e-05
-1.98381e-06 -5.82674e-05 2.98597e-08
1.26118e-05 2.98597e-08 -0.00018055
0.000341084 2.07958e-05 1.81674e-05
2.07958e-05 -0.000243088 4.98811e-07
1.81674e-05 4.98811e-07 -0.000326631
0.00617504 -2.4834e-05 1.87107e-06
-2.4834e-05 0.00356391 -1.70962e-06
1.87107e-06 -1.70962e-06 0.0035887
0.006298 -4.68086e-05 0.000322912
-4.68086e-05 0.00363168 -6.0518e-06
0.000322912 -6.0518e-06 0.00365952
0.00278637 1.82671e-05 -0.000146538
1.82671e-05 0.00129678 -3.09231e-06
-0.000146538 -3.09231e-06 0.00124716
0.00111426 6.25759e-05 8.1761e-08
6.25759e-05 -5.67995e-05 -8.42822e-08
8.1761e-08 -8.42822e-08 -0.000193459
0.00199857 0.000108921 1.66749e-06
0.000108921 0.00014286 -8.13093e-07
1.66749e-06 -8.13093e-07 4.46441e-05
0.00595129 -2.96882e-05 -0.00014183
-2.96882e-05 0.00343809 1.62081e-07
-0.00014183 1.62081e-07 0.00342721
0.00038814 5.9682e-05 2.22328e-07
5.9682e-05 -0.00021291 3.0465e-07
2.22328e-07 3.0465e-07 -0.000305344
0.00111053 0.000103652 1.1911e-05
0.000103652 -6.99909e-05 1.34739e-06
1.1911e-05 1.34739e-06 -0.00021785
0.00658422 0.000151489 -1.07545e-05
0.000151489 0.00381663 -1.85438e-06
-1.07545e-05 -1.85438e-06 0.00383755
0.000401219 9.01792e-05 1.91798e-05
9.01792e-05 -0.000205771 5.93936e-06
1.91798e-05 5.93936e-06 -0.000306109
0.00684818 0.000281555 0.000365746
0.000281555 0.00400105 3.83259e-05
0.000365746 3.83259e-05 0.00400728
0.00183513 -5.39015e-05 -0.000248707
-5.39015e-05 0.000805396 1.45887e-06
-0.000248707 1.45887e-06 0.000806335
0.00157686 3.2222e-05 -6.31775e-05
3.2222e-05 0.000533247 4.12119e-08
-6.31775e-05 4.12119e-08 0.000471076
0.00109649 2.98179e-05 1.26006e-05
2.98179e-05 -6.67308e-05 6.28803e-07
1.26006e-05 6.28803e-07 -0.000191652
0.00613281 -5.02602e-05 6.68407e-06
-5.02602e-05 0.00354303 2.81986e-06
6.68407e-06 2.81986e-06 0.00356719
0.000399936 -1.12306e-05 1.87989e-05
-1.12306e-05 -0.000200782 9.11904e-07
1.87989e-05 9.11904e-07 -0.000283637
0.00620807 -8.70588e-05 0.000334188
-8.70588e-05 0.00358912 -5.55417e-06
0.000334188 -5.55417e-06 0.00361337
0.00139758 2.35559e-05 -6.63632e-05
2.35559e-05 0.000557753 -1.20652e-06
-6.63632e-05 -1.20652e-06 0.000517741
0.00157262 2.03921e-05 -6.43762e-05
2.03921e-05 0.000532142 -1.57956e-06
-6.43762e-05 -1.57956e-06 0.000464943
0.00108101 6.42298e-05 1.19652e-05
6.42298e-05 -7.96863e-05 8.42716e-07
1.19652e-05 8.42716e-07 -0.000217141
0.00393354 7.21578e-05 0.000125526
7.21578e-05 0.00214523 3.96163e-06
0.000125526 3.96163e-06 0.00213839
0.000416845 7.01769e-05 1.9666e-05
7.01769e-05 -0.000195139 4.41592e-06
1.9666e-05 4.41592e-06 -0.000287468
0.00666576 0.000138665 0.000348061
0.000138665 0.00385953 2.29475e-05
0.000348061 2.29475e-05 0.00388422
0.00608289 -1.97664e-05 -8.74944e-06
-1.97664e-05 0.00351515 -3.37231e-06
-8.74944e-06 -3.37231e-06 0.00353792
0.000393793 5.11333e-05 2.0453e-05
5.11333e-05 -0.000216205 2.61522e-06
2.0453e-05 2.61522e-06 -0.000292018
0.00604312 3.42423e-05 0.000321891
3.42423e-05 0.00348209 1.82879e-07
0.000321891 1.82879e-07 0.00351005
0.00379019 3.38453e-05 0.000136532
3.38453e-05 0.00206093 5.50887e-06
0.000136532 5.50887e-06 0.00205661
0.000424518 1.01757e-05 1.88779e-05
1.01757e-05 -0.000189053 2.59359e-06
1.88779e-05 2.59359e-06 -0.00027434
0.00641795 6.98661e-06 0.00033421
6.98661e-06 0.00370553 1.03308e-05
0.00033421 1.03308e-05 0.00373256
0.00614298 -0.000116304 0.000320804
-0.000116304 0.00355653 -4.38901e-06
0.000320804 -4.38901e-06 0.00357513
0.00619717 1.31673e-05 0.000325422
1.31673e-05 0.00356847 6.03582e-06
0.000325422 6.03582e-06 0.00359852
