# vtk DataFile Version 2.0
Wound Healing Simulation
ASCII
DATASET UNSTRUCTURED_GRID
POINTS 3012 float
69.9759 18.75 4
67.2507 60.3285 4
69.976 18.75 2
73.0099 25.446 4
71.1327 20.9142 4
68.6801 16.6661 4
67.8276 19.9226 3.98885
67.2507 60.3286 2
71.1327 54.0858 4
68.6801 58.3339 4
65.6939 62.2254 4
65.314 59.0056 3.9903
74.6784 42.3946 4
73.7221 47.2057 4
69.9759 18.75 0
73.0099 25.446 2
68.6801 16.6661 2
71.1327 20.9142 2
67.8279 19.923 2
74.6792 32.6053 4
73.7222 27.7943 4
72.1454 23.1494 4
70.6165 26.2217 3.98779
68.8881 21.9562 3.98848
67.2507 14.6715 4
66.6389 17.9672 3.98958
65.8043 21.0183 3.98468
67.2507 60.3285 0
71.1327 54.0858 2
68.6801 58.3339 2
65.694 62.2255 2
65.3141 59.0057 2
72.1454 51.8506 4
69.9759 56.25 4
68.8391 53.1145 3.98845
64.0165 64.0165 4
66.6127 57.1378 3.98978
63.8873 60.7701 3.99126
63.5059 57.7815 3.98579
60.3285 67.2507 4
74.6792 42.3947 2
73.7222 47.2057 2
74.9194 39.9526 4
74.2788 44.8158 4
72.1698 42.0852 3.98682
73.0099 49.554 4
71.2516 46.5969 3.98788
73.0099 25.446 0
71.1327 20.9142 0
68.6801 16.6661 0
67.8276 19.9226 0.0111513
74.6792 32.6053 2
73.7222 27.7943 2
67.2508 14.6715 2
72.1455 23.1494 2
70.6166 26.2228 2
66.6392 17.9673 2
68.8884 21.957 2
65.8045 21.018 2
74.9197 35.0474 4
74.2794 30.1841 4
72.1864 32.9434 3.98704
71.2803 28.4323 3.98765
69.8181 24.0594 3.98817
68.3535 26.9499 3.98181
66.77 22.9284 3.98402
65.694 12.7746 4
65.3253 16.0985 3.99057
64.7203 19.1855 3.98547
63.8989 22.0239 3.98237
71.1327 54.0858 0
65.6939 62.2254 0
68.6801 58.3339 0
65.314 59.0056 0.00969848
72.1455 51.8506 2
69.9759 56.25 2
68.8394 53.1138 2
64.0165 64.0165 2
66.6129 57.1377 2
63.8874 60.7701 2
63.506 57.7818 2
62.2254 65.694 4
58.8942 65.4168 3.99253
69.7717 50.9888 3.98809
67.7862 55.1703 3.98917
66.6577 52.2135 3.98405
62.3372 62.4308 3.99197
64.6677 56.04 3.98591
62.2068 59.4147 3.98601
61.8325 56.6955 3.98382
58.3339 68.6801 4
60.3285 67.2508 2
73.7221 47.2057 0
74.6784 42.3946 0
74.9197 39.9526 2
74.2794 44.8159 2
72.1698 42.0851 2
73.0099 49.554 2
71.2517 46.5963 2
75 37.5 4
72.4067 39.802 3.98603
71.7845 44.3521 3.98752
69.8094 41.7892 3.98045
70.5778 48.8125 3.98801
68.9191 46.0151 3.98132
74.6792 32.6053 0
73.7222 27.7943 0
67.2507 14.6715 0
72.1454 23.1494 0
70.6165 26.2217 0.0122137
68.8881 21.9562 0.0115234
66.6389 17.9672 0.0104173
65.8043 21.0183 0.0153157
74.9197 35.0474 2
74.2794 30.1841 2
72.1864 32.9436 2
71.2803 28.4331 2
65.694 12.7745 2
65.3255 16.0984 2
69.8183 24.0604 2
68.3534 26.9499 2
64.7205 19.1852 2
66.7701 22.9282 2
63.8991 22.0237 2
72.4146 35.2241 3.98608
71.8058 30.6768 3.98759
69.8453 33.2683 3.98069
68.9724 29.0375 3.98111
67.6185 24.909 3.98303
66.2054 27.6302 3.97946
64.0165 10.9835 4
64.7689 23.8211 3.98179
63.8913 14.3228 3.99137
63.5184 17.4359 3.98625
62.9178 20.3065 3.98298
62.1089 22.928 3.98124
60.6845 11.0945 3.99218
57.6129 11.4388 3.98733
72.1454 51.8506 0
69.9759 56.25 0
68.8391 53.1145 0.0115467
64.0165 64.0165 0
63.8873 60.7701 0.00874411
66.6127 57.1378 0.0102206
63.5059 57.7815 0.0142148
62.2255 65.694 2
58.8943 65.4169 2
69.7719 50.9879 2
67.7865 55.17 2
66.6578 52.2138 2
62.3374 62.4309 2
64.6679 56.0403 2
62.2068 59.415 2
61.8326 56.6958 2
60.6692 63.98 3.99226
57.0246 66.7373 3.99288
57.5582 63.6981 3.98745
67.5155 50.1793 3.98298
65.7099 54.1798 3.98521
64.5512 51.3938 3.9814
60.7755 60.9474 3.98664
62.8317 55.081 3.98413
60.6653 58.1738 3.98378
60.3404 55.8034 3.98301
56.25 69.9759 4
58.3339 68.6801 2
60.3285 67.2507 0
58.9214 9.65289 3.99254
62.2254 9.30607 4
73.0099 49.554 0
74.2788 44.8158 0
71.2516 46.5969 0.0121223
72.1698 42.0852 0.0131807
74.9194 39.9526 0
75 37.5 2
72.4067 39.8021 2
71.7845 44.3518 2
69.8094 41.7891 2
70.5779 48.8116 2
68.919 46.0149 2
72.49 37.5119 3.98559
70.0455 39.6569 3.97946
69.4365 43.9072 3.981
67.6064 41.4984 3.97783
68.2734 48.1084 3.98206
66.721 45.4425 3.97904
74.9197 35.0474 0
74.2794 30.1841 0
72.1864 32.9434 0.012964
71.2803 28.4323 0.012347
65.694 12.7746 0
65.3253 16.0985 0.00942932
69.8181 24.0594 0.0118338
68.3535 26.9499 0.0181866
66.77 22.9284 0.0159777
64.7203 19.1855 0.0145318
63.8989 22.0239 0.0176325
72.4146 35.2242 2
71.8058 30.6772 2
69.8453 33.2684 2
68.9722 29.0376 2
64.0165 10.9835 2
63.8914 14.3228 2
63.5185 17.4356 2
67.6186 24.9089 2
66.2052 27.63 2
62.9181 20.3063 2
64.7689 23.8208 2
62.109 22.9278 2
60.6847 11.0944 2
57.6129 11.4384 2
70.0624 35.3919 3.97996
69.473 31.1493 3.98102
67.6645 33.5893 3.97803
66.7824 29.6196 3.97864
65.5359 25.6927 3.98068
64.1609 28.2479 3.97869
62.3425 12.6514 3.99186
62.8735 24.6244 3.9809
62.2023 15.774 3.98649
61.8224 18.6695 3.98397
61.2321 21.3242 3.98136
60.4454 23.7091 3.98103
59.2475 12.7696 3.98673
55.8745 10.2257 3.98843
56.4067 13.1011 3.98444
69.7717 50.9888 0.0119082
62.2254 65.694 0
58.8942 65.4168 0.00746883
67.7862 55.1703 0.0108269
66.6577 52.2135 0.0159527
62.3372 62.4308 0.00802718
62.2068 59.4147 0.0139854
64.6677 56.04 0.0140884
61.8325 56.6955 0.0161808
60.6694 63.98 2
57.0248 66.7374 2
57.5582 63.6986 2
67.5155 50.1794 2
65.7102 54.1801 2
64.5513 51.3942 2
60.7756 60.9479 2
62.8319 55.0814 2
60.6654 58.1742 2
60.3405 55.8036 2
55.0701 67.934 3.99321
59.2206 62.3743 3.98691
55.8041 64.915 3.98827
56.3284 62.0989 3.98464
65.3449 49.4144 3.98037
63.7192 53.3034 3.98292
62.4601 50.6642 3.98005
59.3378 59.57 3.98455
61.0922 54.3257 3.98334
59.2985 57.0301 3.98226
59.2564 55.2026 3.98324
48.1022 68.5818 3.99005
50.9479 69.9333 3.99373
54.0858 71.1327 4
56.25 69.976 2
58.3339 68.6801 0
57.0585 8.33287 3.99302
60.3285 7.74928 4
58.9216 9.65282 2
62.2255 9.30602 2
70.5778 48.8125 0.0119949
71.7845 44.3521 0.0124841
68.9191 46.0151 0.0186833
69.8094 41.7892 0.019546
72.4067 39.802 0.0139719
75 37.5 0
72.4899 37.5122 2
70.0455 39.6568 2
69.4364 43.9071 2
67.6064 41.4984 2
68.2734 48.1084 2
66.7208 45.4427 2
70.1333 37.5213 3.9791
67.8421 39.5125 3.97685
67.2339 43.4716 3.97853
65.5686 41.2122 3.97705
66.081 47.4221 3.9797
64.6674 44.8535 3.97824
72.4146 35.2241 0.0139185
71.8058 30.6768 0.012407
69.8453 33.2683 0.0193067
68.9724 29.0375 0.0188895
64.0165 10.9835 0
63.8913 14.3228 0.00862656
63.5184 17.4359 0.0137547
67.6185 24.909 0.0169702
66.2054 27.6302 0.0205424
64.7689 23.8211 0.0182075
62.9178 20.3065 0.0170222
62.1089 22.928 0.0187592
60.6845 11.0945 0.00781705
57.6129 11.4388 0.0126678
70.0624 35.3919 2
69.4729 31.1494 2
67.6644 33.5891 2
66.7821 29.6194 2
62.3427 12.6514 2
62.2024 15.7736 2
61.8226 18.6692 2
65.5358 25.6924 2
64.1607 28.2476 2
61.2323 21.3241 2
62.8735 24.6242 2
60.4454 23.7091 2
59.2474 12.7692 2
56.4067 13.1007 2
55.8745 10.2252 2
67.8785 35.5466 3.97745
67.2751 31.62 3.97856
65.7102 33.9243 3.97704
64.6767 30.1862 3.97753
63.5541 26.404 3.97976
62.2755 28.7671 3.97911
60.7772 14.2136 3.98651
61.0655 25.3216 3.98077
60.6184 17.1132 3.98465
60.234 19.798 3.98252
59.6787 22.2383 3.98024
59.0008 24.2996 3.98143
54.0375 9.12923 3.98921
57.9126 14.3191 3.98457
54.7875 12.0007 3.98507
55.3148 14.6317 3.98332
67.5155 50.1793 0.0170184
57.0246 66.7373 0.00711876
60.6692 63.98 0.00773702
57.5582 63.6981 0.0125537
65.7099 54.1798 0.0147877
64.5512 51.3938 0.0186036
60.7755 60.9474 0.0133649
60.6653 58.1738 0.0162192
62.8317 55.081 0.0158727
60.3404 55.8034 0.0169919
55.0703 67.9341 2
59.2206 62.3748 2
55.8041 64.9154 2
56.3284 62.0993 2
65.3449 49.4148 2
63.7194 53.3038 2
62.4602 50.6645 2
59.3379 59.5705 2
61.0925 54.326 2
59.2987 57.0304 2
59.2566 55.2028 2
53.042 69.0017 3.9935
53.9661 66.0169 3.98893
57.8835 60.8811 3.98465
54.684 63.2142 3.98522
55.214 60.6265 3.98337
63.2121 48.6706 3.97925
61.7592 52.5899 3.98176
60.2965 50.0347 3.97935
58.0245 58.2765 3.98311
59.3445 53.9665 3.98256
58.1384 55.8327 3.98079
50.1087 67.8599 3.98978
47.4625 66.5861 3.98764
46.0561 69.1613 3.99029
48.1023 68.5823 2
48.8022 70.7244 3.99394
50.9481 69.9334 2
51.8506 72.1454 4
54.0858 71.1327 2
56.25 69.9759 0
55.1028 7.13752 3.99336
58.3339 6.31992 4
57.0587 8.33276 2
60.3286 7.74926 2
58.9214 9.65289 0.00745547
62.2254 9.30607 0
68.2734 48.1084 0.017936
69.4365 43.9072 0.0189991
66.721 45.4425 0.0209638
67.6064 41.4984 0.0221707
70.0455 39.6569 0.0205378
72.49 37.5119 0.0144107
70.1332 37.5212 2
67.842 39.5124 2
67.2337 43.4717 2
65.5685 41.2122 2
66.0809 47.4224 2
64.6673 44.8537 2
67.9378 37.5216 3.97625
65.7985 39.3712 3.97617
65.19 43.029 3.97764
63.7717 40.9333 3.97701
63.9821 46.7238 3.97871
62.826 44.2236 3.97883
70.0624 35.3919 0.0200366
69.473 31.1493 0.0189839
67.6645 33.5893 0.0219743
66.7824 29.6196 0.0213615
62.3425 12.6514 0.00814382
62.2023 15.774 0.0135131
61.8224 18.6695 0.016032
65.5359 25.6927 0.0193186
64.1609 28.2479 0.0213079
62.8735 24.6244 0.0191045
61.2321 21.3242 0.018639
60.4454 23.7091 0.0189721
59.2475 12.7696 0.0132726
56.4067 13.1011 0.0155566
55.8745 10.2257 0.0115716
67.8785 35.5464 2
67.275 31.6198 2
65.7101 33.924 2
64.6764 30.186 2
60.7772 14.2131 2
60.6186 17.1128 2
60.2343 19.7978 2
63.5539 26.4038 2
62.2751 28.7669 2
59.6788 22.2383 2
61.0654 25.3216 2
59.0007 24.2998 2
57.9126 14.3188 2
55.3148 14.6314 2
54.0375 9.12877 2
54.7875 12.0002 2
65.8878 35.6652 3.97653
65.1997 32.1497 3.97735
64.2992 34.2463 3.97661
62.6124 30.6271 3.97749
61.671 27.0589 3.97949
60.8714 29.1275 3.98087
59.314 15.6555 3.98471
59.3549 25.7777 3.98202
59.131 18.3382 3.98372
58.754 20.8332 3.98101
58.3048 23.0703 3.97926
57.9922 24.6432 3.98224
52.1121 8.14802 3.98971
53.0582 11.0072 3.98604
56.6796 15.7273 3.98382
53.811 13.6673 3.98328
54.3791 15.9827 3.9832
55.0701 67.934 0.00679287
65.3449 49.4144 0.019626
55.8041 64.915 0.0117307
59.2206 62.3743 0.0130871
56.3284 62.0989 0.0153604
63.7192 53.3034 0.0170799
62.4601 50.6642 0.0199459
59.3378 59.57 0.0154453
59.2985 57.0301 0.0177428
61.0922 54.3257 0.0166572
59.2564 55.2026 0.0167648
53.0422 69.0018 2
53.9661 66.0173 2
57.8836 60.8815 2
54.684 63.2146 2
55.214 60.627 2
63.2121 48.671 2
61.7594 52.5902 2
60.2965 50.0349 2
58.0247 58.2769 2
59.3448 53.9667 2
58.1386 55.8329 2
52.0696 67.0032 3.98944
52.9528 64.2241 3.98593
56.6525 59.5017 3.98366
53.6823 61.6306 3.98375
54.2636 59.3331 3.98263
61.0162 47.8934 3.97856
59.7312 52.123 3.98147
58.0525 49.6354 3.98009
56.785 57.0058 3.98116
57.1377 54.1438 3.98043
50.1088 67.8603 2
49.3361 65.9262 3.98721
47.4625 66.5865 2
46.8915 64.7429 3.98579
45.5577 67.1036 3.98782
43.9733 69.594 3.99052
46.0562 69.1617 2
46.609 71.3689 3.99415
48.1022 68.5818 0.00995016
48.8024 70.7246 2
49.554 73.0099 4
50.9479 69.9333 0.0062727
51.8506 72.1455 2
54.0858 71.1327 0
53.0638 6.06915 3.99363
55.1029 7.13738 2
56.25 5.02411 4
58.3339 6.3199 2
57.0585 8.33287 0.00697839
60.3285 7.74928 0
66.081 47.4221 0.0203015
67.2339 43.4716 0.0214719
64.6674 44.8535 0.0217633
65.5686 41.2122 0.0229492
67.8421 39.5125 0.0231497
70.1333 37.5213 0.0208995
67.9376 37.5215 2
65.7985 39.3712 2
65.1899 43.0292 2
63.7716 40.9334 2
63.9821 46.7241 2
62.8259 44.2238 2
65.9006 37.5014 3.97519
63.9143 39.2686 3.97611
63.3465 42.5556 3.97755
62.4505 40.7023 3.97679
61.9884 45.9288 3.97869
61.4737 43.6922 3.98027
67.8785 35.5466 0.0225481
67.2751 31.62 0.0214379
65.7102 33.9243 0.0229583
64.6767 30.1862 0.022475
60.7772 14.2136 0.0134893
60.6184 17.1132 0.0153514
60.234 19.798 0.0174824
63.5541 26.404 0.0202405
62.2755 28.7671 0.0208852
61.0655 25.3216 0.0192285
59.6787 22.2383 0.0197636
59.0008 24.2996 0.0185745
57.9126 14.3191 0.015426
55.3148 14.6317 0.0166813
54.0375 9.12923 0.0107855
54.7875 12.0007 0.0149338
65.8877 35.665 2
65.1994 32.1494 2
64.2991 34.246 2
62.612 30.6268 2
59.3141 15.655 2
59.1313 18.3378 2
58.7543 20.8332 2
61.6707 27.0588 2
60.871 29.1273 2
58.3049 23.0705 2
59.3547 25.7778 2
57.992 24.6434 2
56.6796 15.727 2
54.3792 15.9823 2
53.811 13.6669 2
52.1122 8.14755 2
53.0582 11.0067 2
64.1055 35.6302 3.97605
62.9484 33.0402 3.97635
60.6364 30.6001 3.97786
59.5965 27.8941 3.98045
57.9437 16.9675 3.98404
57.7662 25.7049 3.98348
57.724 19.4566 3.98266
57.3869 21.818 3.9791
57.2084 23.9247 3.97914
50.1123 7.28037 3.98997
51.2324 10.1159 3.98678
52.1729 12.7847 3.98427
55.541 16.9556 3.9837
52.9798 15.2487 3.98202
53.7614 16.964 3.98343
53.042 69.0017 0.00649713
53.9661 66.0169 0.0110676
63.2121 48.6706 0.020749
54.684 63.2142 0.0147841
57.8835 60.8811 0.0153484
55.214 60.6265 0.0166348
61.7592 52.5899 0.0182434
60.2965 50.0347 0.0206452
58.0245 58.2765 0.0168864
58.1384 55.8327 0.019211
59.3445 53.9665 0.0174351
52.0697 67.0035 2
52.9527 64.2246 2
56.6526 59.5022 2
53.6822 61.6311 2
54.2637 59.3337 2
61.0162 47.8936 2
59.7313 52.1233 2
58.0524 49.6355 2
56.7852 57.0062 2
57.1379 54.1439 2
51.1671 65.1331 3.98661
52.0462 62.5455 3.98421
55.4857 58.2642 3.98319
52.8367 60.145 3.98285
53.6443 58.4838 3.98261
58.3356 46.8641 3.98107
57.5842 51.807 3.98021
56.2769 49.5736 3.98224
55.4822 55.8135 3.9796
55.3759 53.4043 3.97731
50.1087 67.8599 0.0102224
49.3361 65.9267 2
48.6173 64.1289 3.98536
47.4625 66.5861 0.0123578
45.5577 67.1041 2
46.8915 64.7433 2
46.3811 63.061 3.9844
45.1317 65.2046 3.98608
43.631 67.4748 3.98799
41.8606 69.8816 3.9906
43.9733 69.5944 2
44.3765 71.8638 3.99429
46.0561 69.1613 0.00971476
46.6092 71.3691 2
47.2057 73.7222 4
48.8022 70.7244 0.00606445
49.554 73.0099 2
51.8506 72.1454 0
50.9535 5.12969 3.99379
53.064 6.06898 2
54.0858 3.86728 4
55.1028 7.13752 0.00663899
56.25 5.02406 2
58.3339 6.31992 0
63.9821 46.7238 0.0212853
65.19 43.029 0.0223621
62.826 44.2236 0.0211729
63.7717 40.9333 0.0229865
65.7985 39.3712 0.0238343
67.9378 37.5216 0.0237505
65.9004 37.5013 2
63.9144 39.2685 2
63.3464 42.5557 2
62.4504 40.7023 2
61.9883 45.929 2
61.4736 43.6924 2
63.9735 37.4568 3.97516
62.1778 39.3577 3.97647
61.2413 41.9658 3.97771
60.2754 44.7812 3.98071
65.8878 35.6652 0.0234717
65.1997 32.1497 0.0226526
64.2992 34.2463 0.0233896
62.6124 30.6271 0.0225124
59.314 15.6555 0.0152927
59.131 18.3382 0.0162762
58.754 20.8332 0.0189861
61.671 27.0589 0.0205132
60.8714 29.1275 0.0191287
59.3549 25.7777 0.0179774
58.3048 23.0703 0.0207423
57.9922 24.6432 0.0177578
56.6796 15.7273 0.0161768
54.3791 15.9827 0.0167972
53.811 13.6673 0.0167236
52.1121 8.14802 0.01029
53.0582 11.0072 0.0139605
64.1055 35.63 2
62.9481 33.0399 2
60.6359 30.5998 2
57.9439 16.967 2
57.7244 19.4562 2
57.3872 21.8181 2
59.596 27.894 2
57.2084 23.9251 2
57.766 25.7051 2
50.1123 7.27993 2
55.5411 16.9553 2
53.7615 16.9636 2
52.9798 15.2482 2
52.1729 12.7841 2
51.2324 10.1154 2
62.2101 35.356 3.97563
60.3156 32.7369 3.97575
58.6494 30.0599 3.97845
57.3219 27.3603 3.98283
56.6412 18.1385 3.98376
56.319 25.0802 3.98021
56.368 20.501 3.98081
56.1276 22.8462 3.97635
48.0561 6.52368 3.9902
49.3242 9.32424 3.98742
50.4334 11.9832 3.98472
51.3794 14.4843 3.98255
54.419 17.9038 3.98342
52.364 17.0204 3.98218
52.0696 67.0032 0.0105569
52.9528 64.2241 0.0140694
61.0162 47.8934 0.0214398
53.6823 61.6306 0.0162489
56.6525 59.5017 0.0163392
54.2636 59.3331 0.0173715
59.7312 52.123 0.0185331
58.0525 49.6354 0.0199098
56.785 57.0058 0.0188379
57.1377 54.1438 0.0195653
51.167 65.1335 2
52.0462 62.5459 2
55.4859 58.2648 2
52.8366 60.1454 2
53.6444 58.4844 2
58.3355 46.8642 2
57.5842 51.8071 2
56.2768 49.5737 2
55.4825 55.8138 2
55.376 53.4044 2
50.3457 63.3869 3.98478
51.2451 60.9432 3.98277
54.2255 57.2794 3.98215
52.316 58.6453 3.98195
56.7551 44.1996 3.98055
55.5281 47.9144 3.98165
55.0952 51.4097 3.97759
54.0177 54.5659 3.97723
49.3361 65.9262 0.0127902
48.6173 64.1294 2
47.9615 62.4817 3.98401
45.5577 67.1036 0.012184
46.8915 64.7429 0.0142113
43.631 67.4753 2
46.3809 63.0614 2
45.1317 65.2051 2
45.9867 61.594 3.98324
44.7662 63.4625 3.98486
43.3557 65.5146 3.98612
41.6632 67.6941 3.98812
39.7023 70.0288 3.99058
41.8607 69.8821 2
42.111 72.2086 3.99427
43.9733 69.594 0.00948139
44.3767 71.864 2
44.8159 74.2794 4
46.609 71.3689 0.00585493
47.2057 73.7222 2
49.554 73.0099 0
48.7841 4.32081 3.994
50.9537 5.12949 2
51.8506 2.85458 4
53.0638 6.06915 0.00637442
54.0858 3.86728 2
56.25 5.02411 0
61.9884 45.9288 0.0213139
63.3465 42.5556 0.0224507
61.4737 43.6922 0.0197301
62.4505 40.7023 0.0232124
63.9143 39.2686 0.0238934
65.9006 37.5014 0.0248134
63.9732 37.4566 2
62.1778 39.3576 2
61.2411 41.9659 2
60.2754 44.7814 2
62.0153 37.4444 3.97564
60.2763 39.8523 3.97684
59.0258 42.9293 3.97871
64.1055 35.6302 0.0239455
62.9484 33.0402 0.0236503
60.6364 30.6001 0.0221442
57.9437 16.9675 0.0159639
57.724 19.4566 0.0173433
57.3869 21.818 0.0209019
59.5965 27.8941 0.0195499
57.7662 25.7049 0.016524
57.2084 23.9247 0.0208568
55.541 16.9556 0.0162982
53.7614 16.964 0.0165731
52.9798 15.2487 0.0179782
50.1123 7.28037 0.0100263
52.1729 12.7847 0.0157269
51.2324 10.1159 0.0132183
62.21 35.3559 2
60.3152 32.7366 2
58.6488 30.0597 2
56.6416 18.1381 2
56.3686 20.5007 2
56.1278 22.8466 2
57.3214 27.3604 2
56.3188 25.0808 2
48.0561 6.52331 2
49.3242 9.32375 2
54.4192 17.9035 2
52.3641 17.02 2
51.3793 14.4836 2
50.4334 11.9826 2
59.923 35.1153 3.97567
58.0272 32.2574 3.97608
56.5797 29.3185 3.97947
55.4807 26.5779 3.98375
55.3482 19.1719 3.98318
54.953 24.0337 3.97506
55.0147 21.5412 3.97929
45.9621 5.8789 3.99047
43.3734 7.46788 3.98851
47.3547 8.61831 3.98772
48.5999 11.2849 3.98544
49.7148 13.7315 3.98346
50.6357 16.1184 3.98106
53.1292 18.6435 3.98237
51.3062 18.0338 3.98353
51.1671 65.1331 0.0133942
52.0462 62.5455 0.0157894
58.3356 46.8641 0.0189252
52.8367 60.145 0.0171451
55.4857 58.2642 0.0168143
53.6443 58.4838 0.0173922
57.5842 51.807 0.0197936
56.2769 49.5736 0.0177552
55.4822 55.8135 0.0203985
55.3759 53.4043 0.0226938
50.3457 63.3873 2
51.245 60.9436 2
54.2258 57.2799 2
52.3161 58.6459 2
56.7551 44.1998 2
55.5279 47.9146 2
55.0952 51.4096 2
54.0181 54.5661 2
49.5918 61.7513 3.98344
55.6897 41.7203 3.97768
50.569 59.3371 3.9813
52.1917 56.5031 3.98023
54.2315 45.5827 3.98268
53.3777 49.3477 3.97853
52.688 52.8722 3.97596
48.6173 64.1289 0.0146352
47.9614 62.4822 2
47.3291 61.0166 3.98284
43.631 67.4748 0.012013
45.1317 65.2046 0.0139229
46.3811 63.061 0.0155996
41.6632 67.6947 2
43.3557 65.5152 2
45.9866 61.5943 2
44.7661 63.463 2
45.7659 60.6382 3.98237
44.4824 61.8439 3.98352
43.1454 63.7353 3.98481
41.5453 65.653 3.98643
39.6324 67.7743 3.9882
37.5259 70.0543 3.99062
39.7024 70.0293 2
39.8179 72.4057 3.99419
41.8606 69.8816 0.009404
42.1111 72.2089 2
42.3947 74.6792 4
44.3765 71.8638 0.00570795
44.8159 74.2794 2
47.2057 73.7222 0
43.8515 5.35601 3.99071
46.5702 3.64547 3.99419
48.7842 4.32063 2
49.554 1.99015 4
50.9535 5.12969 0.0062081
51.8506 2.85453 2
54.0858 3.86728 0
60.2754 44.7812 0.0192864
61.2413 41.9658 0.0222938
62.1778 39.3577 0.0235279
63.9735 37.4568 0.0248365
62.0149 37.4443 2
60.2764 39.8521 2
59.0257 42.9294 2
59.7944 37.5673 3.97669
58.041 40.6656 3.97707
55.1713 39.7295 3.9763
62.2101 35.356 0.0243667
60.3156 32.7369 0.0242505
58.6494 30.0599 0.0215466
56.6412 18.1385 0.016238
56.368 20.501 0.0191876
56.1276 22.8462 0.0236477
57.3219 27.3603 0.0171702
56.319 25.0802 0.0197934
54.419 17.9038 0.0165756
52.364 17.0204 0.017821
51.3794 14.4843 0.0174491
48.0561 6.52368 0.00979777
49.3242 9.32424 0.0125767
50.4334 11.9832 0.0152801
59.923 35.1151 2
45.9621 5.87852 2
43.3735 7.46751 2
58.0266 32.2571 2
56.5788 29.3183 2
55.3487 19.1714 2
55.0154 21.541 2
54.9531 24.0346 2
55.4802 26.5787 2
47.3547 8.61792 2
48.5999 11.2844 2
53.1295 18.6431 2
51.3063 18.0332 2
50.6357 16.1177 2
49.7148 13.731 2
57.4394 34.7538 3.97654
55.7696 31.5001 3.97625
54.5534 28.3805 3.98529
53.8023 25.4756 3.97826
53.976 20.1189 3.98313
53.5977 22.6855 3.97485
41.3985 7.07308 3.98867
45.3594 7.98982 3.9881
42.8651 9.4084 3.98684
46.6661 10.6459 3.9858
47.7456 13.092 3.98369
48.9329 15.3888 3.98244
50.0087 17.6874 3.97944
51.6573 19.3115 3.9849
50.3457 63.3869 0.0152183
51.2451 60.9432 0.0172314
56.7551 44.1996 0.0194519
55.5281 47.9144 0.0183535
52.316 58.6453 0.0180515
54.2255 57.2794 0.0178472
55.0952 51.4097 0.022414
54.0177 54.5659 0.0227728
49.5917 61.7518 2
55.6901 41.7194 2
50.5689 59.3375 2
52.1921 56.5038 2
54.2315 45.5831 2
53.3774 49.3471 2
52.6884 52.8713 2
48.8497 60.2092 3.98235
52.5995 42.6605 3.97651
49.793 57.6371 3.98105
50.6073 54.4385 3.97729
51.8725 47.2872 3.98039
51.2457 50.9654 3.97391
48.2833 43.7546 3.97925
47.9615 62.4817 0.0159879
47.329 61.017 2
46.6191 59.8031 3.9822
41.6632 67.6941 0.0118811
43.3557 65.5146 0.0138838
44.7662 63.4625 0.0151423
45.9867 61.594 0.0167623
39.6324 67.7747 2
41.5453 65.6535 2
45.7658 60.6385 2
43.1453 63.7357 2
44.4823 61.8443 2
44.6232 60.3007 3.9825
42.9495 62.0929 3.98411
41.5988 63.8294 3.98494
39.647 65.622 3.98666
37.5631 67.7571 3.98811
31.6974 65.141 3.98666
33.392 67.4947 3.98815
35.3333 69.9644 3.99061
37.5259 70.0547 2
37.5096 72.4604 3.9942
39.7023 70.0288 0.00942009
39.8179 72.406 2
39.9526 74.9197 4
42.111 72.2086 0.00572975
42.3947 74.6792 2
44.8159 74.2794 0
41.7361 4.96511 3.99095
43.8515 5.35563 2
44.3255 3.10881 3.99432
46.5703 3.64526 2
47.2057 1.27793 4
48.7841 4.32081 0.00600047
49.554 1.99013 2
51.8506 2.85458 0
59.0258 42.9293 0.0212898
60.2763 39.8523 0.0231556
62.0153 37.4444 0.0243639
59.794 37.5672 2
58.0411 40.6651 2
55.1706 39.7289 2
56.8782 37.8985 3.97855
49.7395 41.3145 3.97749
53.214 39.316 3.97664
39.4419 6.79662 3.98889
59.923 35.1153 0.024332
58.0272 32.2574 0.0239223
56.5797 29.3185 0.0205274
55.3482 19.1719 0.01682
55.0147 21.5412 0.0207055
54.953 24.0337 0.0249432
55.4807 26.5779 0.0162469
53.1292 18.6435 0.0176262
51.3062 18.0338 0.0164743
50.6357 16.1184 0.0189355
45.9621 5.8789 0.009528
49.7148 13.7315 0.0165444
47.3547 8.61831 0.0122773
48.5999 11.2849 0.0145642
43.3734 7.46788 0.0114851
57.4394 34.7538 2
41.3986 7.07262 2
45.3595 7.98948 2
42.8651 9.40804 2
55.7688 31.4996 2
54.5523 28.3811 2
53.9767 20.1185 2
53.5984 22.6854 2
53.802 25.477 2
46.6661 10.6456 2
47.7454 13.0916 2
51.6575 19.3108 2
50.0088 17.6868 2
48.9329 15.3883 2
54.9464 33.9582 3.9775
53.5485 30.4599 3.97957
52.6313 27.1785 3.98166
52.168 24.0669 3.97521
52.4011 21.0512 3.9808
41.0132 9.04165 3.98701
44.7232 9.98867 3.98633
42.4678 10.8942 3.98523
46.005 12.72 3.98433
47.6824 14.5735 3.98305
48.1154 16.9759 3.98085
49.8213 19.5858 3.97808
49.5918 61.7513 0.0165629
50.569 59.3371 0.0187041
55.6897 41.7203 0.022316
54.2315 45.5827 0.0173167
53.3777 49.3477 0.0214662
52.1917 56.5031 0.0197667
52.688 52.8722 0.0240385
48.8496 60.2096 2
52.6005 42.6596 2
49.7931 57.6375 2
50.6076 54.4397 2
51.8718 47.2869 2
51.2456 50.9636 2
48.2753 43.7568 2
47.9884 58.7513 3.98155
50.1891 45.2864 3.97858
48.6048 55.9288 3.98133
49.1497 52.6161 3.97796
49.7166 49.0648 3.9734
46.1562 39.8922 3.91701
46.5375 42.7284 3.96968
46.5931 45.7854 3.98398
43.9985 41.2159 3.95545
42.1102 41.9876 3.94981
47.3291 61.0166 0.017162
46.6189 59.8034 2
45.4689 58.7995 3.98156
39.6324 67.7743 0.0118032
41.5453 65.653 0.0135706
43.1454 63.7353 0.0151897
44.4824 61.8439 0.0164782
45.7659 60.6382 0.0176266
41.5987 63.8298 2
37.5631 67.7575 2
39.647 65.6225 2
44.6231 60.301 2
42.9494 62.0933 2
41.7525 62.5043 3.98444
42.4807 59.9932 3.98305
39.8923 63.5653 3.98492
37.6418 65.5214 3.98641
35.4633 67.6665 3.98817
33.5755 65.3547 3.98664
31.9597 63.3142 3.98518
29.8836 64.7316 3.98643
31.6974 65.1415 2
31.3767 67.2042 3.98819
33.3921 67.4952 2
33.1561 69.7577 3.99062
35.3332 69.9649 2
35.195 72.3748 3.99418
37.5259 70.0543 0.00938291
37.5096 72.4606 2
37.5 75 4
39.8179 72.4057 0.00580731
39.9526 74.9197 2
42.3947 74.6792 0
39.6237 4.71231 3.99105
41.7361 4.96469 2
42.062 2.71644 3.9945
43.8515 5.35601 0.00928794
44.3256 3.10858 2
44.8158 0.721173 4
46.5702 3.64547 0.00580605
47.2057 1.27779 2
49.554 1.99015 0
58.041 40.6656 0.0229305
59.7944 37.5673 0.0233114
55.1713 39.7295 0.0236992
49.7386 41.315 2
56.8774 37.8985 2
53.2127 39.3149 2
54.07 36.6228 3.97622
47.6689 40.4425 3.98893
50.7045 38.4942 3.97922
37.5157 6.6677 3.98888
39.4419 6.79615 2
39.2108 8.68416 3.98724
35.9413 8.48408 3.98734
57.4394 34.7538 0.0234596
55.7696 31.5001 0.0237459
54.5534 28.3805 0.0147127
53.976 20.1189 0.0168684
53.5977 22.6855 0.0251495
53.8023 25.4756 0.0217417
51.6573 19.3115 0.0151
50.0087 17.6874 0.0205635
48.9329 15.3888 0.0175612
45.3594 7.98982 0.0119
47.7456 13.092 0.0163112
46.6661 10.6459 0.0142049
41.3985 7.07308 0.0113321
42.8651 9.4084 0.0131582
54.9463 33.9582 2
41.0132 9.04113 2
44.7232 9.98839 2
42.4677 10.8939 2
53.547 30.4584 2
52.6306 27.181 2
52.4018 21.05 2
52.1683 24.0684 2
46.0048 12.7198 2
47.6823 14.5731 2
49.8215 19.5855 2
48.1155 16.9754 2
52.4946 32.8537 3.97784
51.3992 29.1347 3.98037
50.8267 25.7041 3.97215
49.9502 22.1642 3.97927
40.5686 11.5975 3.98469
43.8576 11.9091 3.98476
45.8034 15.4087 3.98279
47.5071 19.2087 3.97935
46.4917 37.4983 3.91616
48.8497 60.2092 0.0176542
49.793 57.6371 0.0189515
52.5995 42.6605 0.0234947
51.8725 47.2872 0.0196072
51.2457 50.9654 0.0260853
50.6073 54.4385 0.022713
48.2833 43.7546 0.0207524
47.9884 58.7517 2
50.1885 45.2889 2
48.6048 55.9293 2
49.1498 52.6174 2
49.7155 49.0628 2
46.1625 39.8953 2
46.5428 42.732 2
46.5869 45.7871 2
44.0055 41.2185 2
42.1186 41.9908 2
46.8411 57.3541 3.98277
44.7672 39.4899 3.95015
42.4887 40.8661 3.95973
48.16 47.2608 3.98068
47.1798 54.2625 3.98164
47.6195 50.7752 3.97759
44.8762 47.3527 3.99491
45.2177 42.0009 3.92069
45.0044 44.6335 3.96327
42.7982 42.7269 3.95212
40.9603 42.3464 3.9531
46.6191 59.8031 0.0177951
45.4688 58.7996 2
43.8769 57.724 3.98176
37.5631 67.7571 0.0118946
39.647 65.622 0.0133422
41.5988 63.8294 0.015061
42.9495 62.0929 0.0158928
44.6232 60.3007 0.0174984
35.4633 67.667 2
41.7524 62.5047 2
39.8923 63.5657 2
37.6418 65.5219 2
42.4807 59.9936 2
40.6223 61.6632 3.98387
40.4445 58.2255 3.98176
37.836 63.2273 3.98546
35.5728 65.4439 3.98656
33.5755 65.3552 2
31.9598 63.3147 2
33.6291 63.3544 3.9853
30.3787 62.8724 3.98495
32.123 62.0208 3.98415
26.8677 61.5148 3.9837
28.0624 64.1592 3.9861
29.8837 64.7321 2
29.4064 66.7676 3.9881
31.6974 65.141 0.0133354
31.3768 67.2047 2
31.0134 69.4226 3.9905
33.392 67.4947 0.0118526
33.1561 69.7582 2
32.8921 72.149 3.99421
35.3333 69.9644 0.00939223
35.1949 72.3751 2
35.0474 74.9194 4
37.5096 72.4604 0.00580191
37.5 75 2
39.9526 74.9197 0
35.6202 6.7188 3.9889
37.5229 4.61179 3.99113
39.6237 4.71191 2
39.7885 2.47293 3.99457
41.7361 4.96511 0.00904886
42.062 2.71618 2
42.3946 0.32156 4
44.3255 3.10881 0.00567784
44.8159 0.72056 2
47.2057 1.27793 0
49.7395 41.3145 0.0225064
56.8782 37.8985 0.0214521
53.214 39.316 0.0233625
47.6688 40.4405 2
50.7024 38.4939 2
54.0693 36.6226 2
51.4906 35.5693 3.96622
48.3375 37.761 3.98777
46.1576 35.1039 3.91583
43.9969 33.7779 3.95392
42.1028 33.0214 3.95058
37.4575 8.52588 3.98733
37.5157 6.66726 2
39.4419 6.79662 0.0111145
39.2108 8.68363 2
38.9757 10.1161 3.98648
35.8977 9.76317 3.98628
34.1497 8.81352 3.98706
35.9412 8.48356 2
54.9464 33.9582 0.0224959
53.5485 30.4599 0.0204266
52.6313 27.1785 0.0183435
52.4011 21.0512 0.0192027
52.168 24.0669 0.0247871
49.8213 19.5858 0.0219172
48.1154 16.9759 0.0191457
47.6824 14.5735 0.0169472
44.7232 9.98867 0.0136682
46.005 12.72 0.0156704
41.0132 9.04165 0.0129857
42.4678 10.8942 0.0147738
52.4946 32.8524 2
40.5686 11.5971 2
43.8575 11.9089 2
51.3975 29.1369 2
50.8268 25.7062 2
49.9509 22.1637 2
45.8033 15.4084 2
47.5071 19.2082 2
50.1067 31.3905 3.9717
49.3397 27.4597 3.97197
49.4307 24.3774 3.98064
47.193 21.9107 3.97787
38.3012 12.7222 3.98395
42.1009 14.2928 3.9827
44.8026 18.444 3.98089
45.0463 37.498 3.94681
46.5043 37.4997 2
47.9884 58.7513 0.0184476
48.6048 55.9288 0.0186707
50.1891 45.2864 0.0214232
49.7166 49.0648 0.026595
49.1497 52.6161 0.0220397
46.1562 39.8922 0.0829921
46.5375 42.7284 0.0303229
46.5931 45.7854 0.016016
43.9985 41.2159 0.0445456
42.1102 41.9876 0.0501929
46.8411 57.3546 2
44.7767 39.4888 2
42.4901 40.8673 2
48.1578 47.2577 2
47.1798 54.2626 2
47.6194 50.7748 2
44.8742 47.3443 2
45.221 42.0041 2
45.0122 44.6414 2
42.8098 42.7253 2
40.9683 42.3464 2
45.4016 55.9408 3.98074
42.8163 39.2573 3.9648
40.9274 40.8035 3.97095
46.144 48.9371 3.98008
45.5639 52.5638 3.98371
43.5136 48.4781 3.96236
43.4009 46.2017 3.97251
43.7673 43.8136 3.91586
41.2701 43.8886 3.95851
39.324 42.6625 3.95182
45.4689 58.7995 0.0184364
43.8767 57.7241 2
42.1075 56.3493 3.98213
35.4633 67.6665 0.0118275
37.6418 65.5214 0.0135894
39.8923 63.5653 0.0150778
41.7525 62.5043 0.0155628
42.4807 59.9932 0.0169548
35.5728 65.4444 2
40.6222 61.6636 2
37.836 63.2277 2
40.4445 58.2259 2
38.9259 56.5173 3.98271
38.2499 60.3483 3.9838
35.6067 63.2212 3.98536
33.5755 65.3547 0.0133586
31.9597 63.3142 0.014825
33.6292 63.3548 2
30.3788 62.8729 2
32.1231 62.0212 2
28.6809 62.2174 3.98471
33.3456 61.5339 3.98397
31.0658 61.2375 3.98348
27.5653 59.6124 3.98244
23.7869 59.1004 3.98404
25.0323 60.8871 3.98316
26.8678 61.5152 2
26.2287 63.4909 3.98551
28.0625 64.1596 2
27.463 66.1911 3.98795
29.8836 64.7316 0.0135748
29.4064 66.7681 2
28.9058 68.9479 3.9904
31.3767 67.2042 0.0118132
31.0134 69.423 2
30.6145 71.7801 3.9942
33.1561 69.7577 0.00938267
32.892 72.1493 2
32.6054 74.6784 4
35.195 72.3748 0.00581714
35.0474 74.9197 2
37.5 75 0
33.7229 6.97341 3.98863
35.4343 4.68223 3.99102
35.6202 6.71832 2
37.5141 2.38556 3.99464
37.5229 4.61141 2
39.6237 4.71231 0.00895498
39.7885 2.47266 2
39.9526 0.0806499 4
42.062 2.71644 0.00549939
42.3947 0.320817 2
44.8158 0.721173 0
44.7753 35.5034 3.94903
42.4861 34.1348 3.95921
47.6689 40.4425 0.0110658
50.7045 38.4942 0.0207825
54.07 36.6228 0.0237805
48.336 37.7598 2
51.4899 35.5685 2
46.1604 35.1021 2
44.0093 33.7742 2
42.1075 33.0208 2
48.5052 34.2548 4.00323
45.2104 32.9926 3.91477
42.7923 32.2801 3.95173
40.9512 32.6675 3.95708
37.3097 10.6191 3.98566
37.4575 8.52534 2
37.5157 6.6677 0.0111166
39.2108 8.68416 0.0127576
38.9757 10.1156 2
34.7528 10.3687 3.98559
35.8976 9.76264 2
32.3763 9.36016 3.98633
34.1496 8.81294 2
35.9413 8.48408 0.0126609
52.4946 32.8537 0.022164
51.3992 29.1347 0.019627
50.8267 25.7041 0.0278457
49.9502 22.1642 0.0207283
47.5071 19.2087 0.0206493
45.8034 15.4087 0.0172065
43.8576 11.9091 0.0152408
40.5686 11.5975 0.0153135
50.1045 31.3911 2
38.301 12.7214 2
42.1007 14.2927 2
49.3383 27.4612 2
49.4313 24.3768 2
47.1935 21.9119 2
44.8025 18.4436 2
47.8811 29.5916 3.96844
47.1334 25.1033 3.97872
44.2928 21.2972 3.97912
36.5809 12.9186 3.98383
38.6804 14.7921 3.98254
41.7507 17.8218 3.98049
42.9495 37.4899 3.96419
45.0617 37.4985 2
46.4917 37.4983 0.0838351
46.8411 57.3541 0.0172326
47.1798 54.2625 0.0183576
48.16 47.2608 0.0193157
47.6195 50.7752 0.022406
44.7672 39.4899 0.0498466
45.2177 42.0009 0.079312
45.0044 44.6335 0.036732
44.8762 47.3527 0.00508699
42.7982 42.7269 0.0478768
42.4887 40.8661 0.040268
40.9603 42.3464 0.0469016
45.4018 55.9411 2
42.8172 39.2575 2
40.9274 40.8042 2
46.144 48.9321 2
45.5641 52.5629 2
43.512 48.479 2
43.4282 46.2127 2
43.7739 43.8186 2
41.2771 43.8825 2
39.3278 42.667 2
43.7413 54.4522 3.98707
40.9936 39.1746 3.96435
39.2447 40.8624 3.94537
43.743 50.5368 3.98752
42.0133 47.7318 4.01143
41.9227 45.2079 3.91035
39.489 44.6478 3.96118
37.4972 42.7876 3.95018
43.8769 57.724 0.0182386
42.1073 56.3492 2
40.4213 54.9524 3.97956
35.5728 65.4439 0.0134384
37.836 63.2273 0.0145433
40.6223 61.6632 0.0161299
40.4445 58.2255 0.0182447
35.6067 63.2216 2
38.2498 60.3485 2
38.9257 56.5188 2
38.0001 55.2729 3.98194
36.9347 57.6508 3.98173
35.3632 60.9333 3.98408
33.6291 63.3544 0.0147015
30.3787 62.8724 0.0150464
32.123 62.0208 0.0158486
33.3457 61.5342 2
28.681 62.2178 2
31.0659 61.2379 2
29.4011 60.3069 3.98298
32.3552 59.7653 3.98325
28.017 58.3918 3.98303
27.5653 59.6127 2
25.3737 58.6121 3.98225
22.7491 58.2597 3.98089
23.3971 60.3667 3.98283
23.7869 59.1009 2
25.0324 60.8875 2
24.4309 62.7828 3.98483
26.8677 61.5148 0.0163049
26.2289 63.4913 2
25.5471 65.5008 3.98753
28.0624 64.1592 0.0138972
27.4631 66.1915 2
26.8356 68.3361 3.99025
29.4064 66.7676 0.011896
28.9057 68.9484 2
28.3697 71.2652 3.99414
31.0134 69.4226 0.00949713
30.6144 71.7803 2
30.1842 74.2788 4
32.8921 72.149 0.00578813
32.6053 74.6792 2
35.0474 74.9194 0
31.7873 7.41307 3.98825
33.3462 4.92138 3.99085
33.7228 6.97284 2
35.2443 2.46172 3.99456
35.4343 4.6818 2
35.6202 6.7188 0.0111013
37.5 0 4
37.5141 2.3853 2
37.5229 4.61179 0.00887488
39.7885 2.47293 0.0054268
39.9526 0.0802889 2
42.3946 0.32156 0
42.822 35.7302 3.96397
44.7811 35.5063 2
40.9252 34.2067 3.97162
42.4869 34.1348 2
48.3375 37.761 0.0122323
51.4906 35.5693 0.0337838
46.1576 35.1039 0.0841687
43.9969 33.7779 0.0460813
42.1028 33.0214 0.049415
48.506 34.2544 2
45.2173 32.9872 2
42.8034 32.2779 2
40.956 32.6649 2
46.425 31.5025 3.98538
43.7554 31.1886 3.91468
41.2654 31.1273 3.95102
39.3126 32.3531 3.94861
35.6911 11.7635 3.98415
37.3096 10.6185 2
37.4575 8.52588 0.0126746
38.9757 10.1161 0.0135227
33.0967 11.2054 3.98459
34.7528 10.3682 2
35.8977 9.76317 0.0137163
30.481 10.0082 3.98586
32.3762 9.35965 2
34.1497 8.81352 0.0129417
50.1067 31.3905 0.0283006
49.3397 27.4597 0.0280269
49.4307 24.3774 0.0193595
47.193 21.9107 0.0221272
44.8026 18.444 0.0191129
42.1009 14.2928 0.0173033
38.3012 12.7222 0.0160489
36.5807 12.9183 2
47.8771 29.5925 2
38.6801 14.7913 2
41.7504 17.8216 2
47.1339 25.1037 2
44.2931 21.2966 2
45.6306 27.7956 3.97582
43.821 24.0303 3.98121
41.3441 20.6993 3.9802
35.7705 14.7433 3.98283
38.6811 17.5786 3.98081
41.0373 37.4867 3.95957
42.9521 37.491 2
45.0463 37.498 0.053189
45.4016 55.9408 0.0192568
45.5639 52.5638 0.0162949
46.144 48.9371 0.0199242
42.8163 39.2573 0.0352028
43.7673 43.8136 0.0841403
43.4009 46.2017 0.0274887
43.5136 48.4781 0.0376418
41.2701 43.8886 0.0414943
40.9274 40.8035 0.0290515
39.324 42.6625 0.0481762
43.7417 54.4527 2
40.9932 39.1751 2
39.244 40.8667 2
43.7425 50.5381 2
42.0138 47.7357 2
41.9354 45.2097 2
37.4981 42.797 2
39.5014 44.6527 2
41.8914 53.02 3.9879
39.2351 39.1629 3.92803
37.5005 40.9061 3.92019
35.676 42.6764 3.9515
40.983 49.7592 3.99593
39.8155 46.0874 3.91193
37.498 44.9159 3.96233
42.1075 56.3493 0.0178707
40.4211 54.9524 2
38.7299 53.8828 3.98407
35.6067 63.2212 0.0146448
38.2499 60.3483 0.0161982
38.9259 56.5173 0.0172885
35.3632 60.9335 2
36.9345 57.6508 2
37.9997 55.2731 2
36.319 55.4094 3.98315
34.4868 58.5439 3.98259
33.3456 61.5339 0.0160308
28.6809 62.2174 0.015287
31.0658 61.2375 0.0165243
32.3552 59.7656 2
29.4012 60.3072 2
30.2932 57.8375 3.98269
28.017 58.3921 2
26.9348 56.842 3.98083
27.5653 59.6124 0.0175632
25.3737 58.6125 2
23.8278 56.8253 3.97917
21.3238 57.4201 3.98166
21.9883 59.6395 3.98327
22.749 58.2602 2
22.7339 62.0339 3.98416
23.3971 60.3672 2
23.7869 59.1004 0.015959
25.0323 60.8871 0.016836
24.4309 62.7833 2
23.6809 64.7188 3.9868
26.2287 63.4909 0.0144935
25.5472 65.5013 2
24.808 67.5971 3.99007
27.463 66.1911 0.0120496
26.8355 68.3365 2
26.165 70.606 3.99403
28.9058 68.9479 0.00960429
28.3695 71.2655 2
27.7943 73.7221 4
30.6145 71.7801 0.00580371
30.1841 74.2794 2
32.6054 74.6784 0
29.8098 7.98624 3.98774
31.2514 5.32843 3.99055
31.7872 7.41252 2
32.9801 2.69982 3.99445
33.3462 4.92088 2
33.7229 6.97341 0.0113735
35.0474 0.080333 4
35.2443 2.46145 2
35.4343 4.68223 0.00897568
37.5 0 2
37.5141 2.38556 0.00536144
39.9526 0.0806499 0
41 35.8109 3.9643
42.8216 35.7313 2
44.7753 35.5034 0.0509719
28.5419 10.6836 3.98554
39.2408 34.153 3.94568
40.9236 34.2058 2
42.4861 34.1348 0.040791
48.5052 34.2548 -0.00322752
45.2104 32.9926 0.0852287
42.7923 32.2801 0.0482743
40.9512 32.6675 0.0429192
46.4352 31.4987 2
43.7581 31.1827 2
41.2753 31.1245 2
39.3173 32.3475 2
44.4451 29.6714 3.97462
41.913 29.8099 3.91686
39.4818 30.3791 3.96019
37.4816 32.2319 3.94578
34.0908 12.9215 3.98348
35.6911 11.7631 2
37.3097 10.6191 0.0143413
31.1847 11.9736 3.98455
33.0967 11.2049 2
34.7528 10.3687 0.0144149
30.4809 10.0077 2
32.3763 9.36016 0.0136704
47.8811 29.5916 0.0315569
47.1334 25.1033 0.0212841
36.5809 12.9186 0.0161742
44.2928 21.2972 0.0208757
41.7507 17.8218 0.0195095
38.6804 14.7921 0.0174576
35.7703 14.7434 2
45.628 27.7982 2
38.6807 17.5778 2
41.3438 20.6987 2
43.8214 24.0343 2
33.6057 15.8604 3.98289
43.1085 26.5208 3.98851
40.9259 23.2721 3.98037
38.4223 20.3069 3.98163
35.8467 17.4917 3.98172
39.245 37.489 3.92675
41.0369 37.4865 2
42.9495 37.4899 0.0358063
43.7413 54.4522 0.0129336
43.743 50.5368 0.0124792
40.9936 39.1746 0.0356483
41.9227 45.2079 0.0896536
42.0133 47.7318 -0.011433
39.489 44.6478 0.0388174
39.2447 40.8624 0.0546274
37.4972 42.7876 0.0498203
41.8916 53.0212 2
39.2347 39.1652 2
37.5008 40.9125 2
40.9817 49.7602 2
35.672 42.6812 2
39.8294 46.096 2
37.498 44.8999 2
39.8316 51.9424 3.99119
37.4995 39.178 3.92161
35.7587 40.8784 3.94361
34.0398 42.3583 3.95541
35.4943 44.6537 3.95927
38.769 48.776 4.02589
37.5043 46.3977 3.90797
40.4213 54.9524 0.020441
38.7296 53.8822 2
36.7173 53.2388 3.99032
35.3632 60.9333 0.0159171
36.9347 57.6508 0.0182712
38.0001 55.2729 0.0180606
34.4867 58.544 2
36.3186 55.4089 2
33.2218 55.5258 3.98223
32.3552 59.7653 0.0167501
29.4011 60.3069 0.0170166
30.2931 57.8377 2
28.6742 55.33 3.97925
28.017 58.3918 0.0169746
26.9347 56.8424 2
25.2925 55.1634 3.97852
21.7909 55.3695 3.97902
25.3737 58.6121 0.0177472
23.8276 56.8259 2
20.2069 57.0511 3.98339
20.638 58.7983 3.98304
21.3236 57.4206 2
21.1631 61.1841 3.98426
21.9883 59.64 2
22.7491 58.2597 0.0191065
21.8939 63.8465 3.98614
22.734 62.0343 2
23.3971 60.3667 0.0171707
24.4309 62.7828 0.0151695
23.681 64.7193 2
22.8363 66.7408 3.98977
25.5471 65.5008 0.0124671
24.8079 67.5975 2
24.0093 69.8072 3.99389
26.8356 68.3361 0.00975323
26.1648 70.6062 2
25.446 73.0099 4
28.3697 71.2652 0.00586169
27.7943 73.7222 2
30.1842 74.2788 0
27.8198 8.6459 3.98745
29.1533 5.87411 3.99018
29.8097 7.98575 2
30.7254 3.09691 3.99426
31.2513 5.32795 2
31.7873 7.41307 0.0117526
32.6053 0.320823 4
32.9801 2.69953 2
33.3462 4.92138 0.00914557
35.0474 0.0802903 2
35.2443 2.46172 0.00543725
37.5 0 0
39.2414 35.8276 3.92761
40.9989 35.81 2
42.822 35.7302 0.0360322
28.5419 10.6832 2
26.6208 11.379 3.98522
29.2236 12.6303 3.98435
37.4949 34.1124 3.9219
39.2391 34.1483 2
40.9252 34.2067 0.0283828
46.425 31.5025 0.0146225
43.7554 31.1886 0.0853177
41.2654 31.1273 0.0489844
39.3126 32.3531 0.0513905
44.4562 29.6633 2
41.9272 29.8024 2
39.4909 30.3743 2
37.4833 32.2177 2
42.3586 28.3527 3.97708
39.8172 28.9308 3.91598
37.4828 30.1072 3.96193
35.6575 32.3436 3.94931
31.9122 14.467 3.9832
34.0909 12.9211 2
35.6911 11.7635 0.0158451
31.1847 11.9731 2
33.0967 11.2054 0.0154095
30.481 10.0082 0.0141407
45.6306 27.7956 0.0241764
43.821 24.0303 0.0187852
35.7705 14.7433 0.0171679
41.3441 20.6993 0.0198021
38.6811 17.5786 0.0191872
33.6056 15.8607 2
35.8464 17.492 2
43.107 26.5248 2
38.4221 20.3069 2
40.9262 23.271 2
33.5476 17.3686 3.98333
40.4806 25.6179 4.0022
38.0826 22.8354 3.98834
35.5823 20.0588 3.98307
37.5013 37.4994 3.92396
39.2447 37.4893 2
41.0373 37.4867 0.040433
41.8914 53.02 0.0121041
40.983 49.7592 0.00407295
39.2351 39.1629 0.0719656
39.8155 46.0874 0.0880725
37.498 44.9159 0.0376724
37.5005 40.9061 0.0798088
35.676 42.6764 0.048498
39.8321 51.9424 2
37.5 39.1805 2
35.7604 40.8834 2
38.765 48.785 2
34.0335 42.3603 2
35.4903 44.6567 2
37.5014 46.4102 2
37.6689 51.0293 3.98657
35.7686 39.1826 3.92583
34.0822 40.8213 3.96958
32.8879 41.9997 3.95004
33.7138 43.9019 3.95337
35.1801 46.0973 3.91577
36.8966 48.4179 4.01034
38.7299 53.8828 0.0159268
36.7169 53.2379 2
34.3507 52.4969 3.98193
34.4868 58.5439 0.017412
36.319 55.4094 0.0168538
33.2217 55.5256 2
30.5 53.4263 3.98028
30.2932 57.8375 0.0173093
28.6739 55.33 2
26.8562 53.4668 3.97767
26.9348 56.842 0.0191655
25.2921 55.164 2
23.5453 53.5071 3.97641
20.4395 53.2537 3.97724
19.9164 55.8557 3.98228
21.7904 55.37 2
23.8278 56.8253 0.0208339
19.4289 57.9117 3.98287
20.2066 57.0515 2
19.7015 60.2186 3.98371
20.6379 58.7988 2
21.3238 57.4201 0.0183442
20.2056 62.8679 3.98564
21.1631 61.1845 2
21.9883 59.6395 0.0167297
20.9378 65.7699 3.98927
21.894 63.847 2
22.7339 62.0339 0.0158401
23.6809 64.7188 0.0132048
22.8363 66.7412 2
21.9119 68.8743 3.99373
24.808 67.5971 0.00992616
24.0091 69.8073 2
23.1494 72.1454 4
26.165 70.606 0.0059742
25.446 73.0099 2
27.7943 73.7221 0
25.8591 9.37393 3.98691
27.0682 6.53818 3.9898
27.8197 8.64546 2
28.4876 3.64276 3.99402
29.1532 5.87367 2
29.8098 7.98624 0.0122607
30.1841 0.720592 4
30.7253 3.09665 2
31.2514 5.32843 0.00944511
32.6053 0.320817 2
32.9801 2.69982 0.00555212
35.0474 0.080333 0
37.5023 35.8267 3.92049
39.2403 35.8258 2
41 35.8109 0.0357
24.7756 12.062 3.98506
23.7491 14.3461 3.98387
28.5419 10.6836 0.0144565
26.6209 11.3787 2
29.2237 12.6301 2
27.2897 13.3635 3.98425
29.7782 14.1892 3.98355
35.7545 34.14 3.94652
37.4952 34.1032 2
39.2408 34.153 0.0543198
37.4816 32.2319 0.0542205
44.4451 29.6714 0.0253757
41.913 29.8099 0.0831374
39.4818 30.3791 0.0398064
42.367 28.3405 2
39.8317 28.9243 2
37.4818 30.1208 2
35.6558 32.3386 2
40.0403 27.5292 3.98992
37.4912 28.6188 3.91162
35.477 30.3729 3.95836
34.0268 32.6562 3.95485
30.9232 16.8239 3.98272
31.9123 14.4666 2
34.0908 12.9215 0.0165192
31.1847 11.9736 0.0154533
43.1085 26.5208 0.0114868
40.9259 23.2721 0.0196345
33.6057 15.8604 0.0171115
35.8467 17.4917 0.0182766
38.4223 20.3069 0.0183746
33.5473 17.3692 2
35.5824 20.059 2
40.4779 25.6227 2
38.0828 22.8373 2
32.8598 19.775 3.98201
37.7883 25.13 4.01917
35.2029 22.6168 3.97901
35.7605 37.5056 3.92473
37.502 37.4987 2
39.245 37.489 0.0732478
39.8316 51.9424 0.00880908
38.769 48.776 -0.0258941
37.4995 39.178 0.0783917
37.5043 46.3977 0.0920281
35.4943 44.6537 0.0407346
35.7587 40.8784 0.0563911
34.0398 42.3583 0.044592
37.6696 51.0392 2
35.7702 39.185 2
34.0836 40.8222 2
36.8935 48.4223 2
32.8824 42.0011 2
33.7093 43.9009 2
35.1659 46.1059 2
35.423 50.1632 3.98855
34.0178 39.1973 3.96004
32.5122 40.8808 3.96067
32.1928 42.7342 3.95329
33.0832 45.2159 3.91746
34.282 47.5151 3.98779
36.7173 53.2388 0.00967772
34.3504 52.4977 2
31.9679 51.2209 3.97859
33.2218 55.5258 0.0177703
30.4999 53.428 2
28.392 51.6496 3.97952
28.6742 55.33 0.0207452
26.8557 53.4682 2
25.0402 51.7949 3.97398
25.2925 55.1634 0.0214804
23.5447 53.5079 2
21.9269 51.8411 3.97485
19.167 51.6639 3.97668
18.8997 54.3337 3.97962
20.4391 53.2538 2
18.4347 56.7447 3.9835
19.9159 55.856 2
21.7909 55.3695 0.0209844
18.362 59.1272 3.98304
19.4287 57.912 2
20.2069 57.0511 0.0166105
18.6156 61.7763 3.9851
19.7014 60.219 2
20.638 58.7983 0.0169645
19.1264 64.6809 3.9886
20.2057 62.8684 2
21.1631 61.1841 0.0157389
19.886 67.811 3.99341
20.9378 65.7703 2
21.8939 63.8465 0.0138646
22.8363 66.7408 0.0102256
21.9117 68.8745 2
20.9142 71.1327 4
24.0093 69.8072 0.00610715
23.1494 72.1455 2
25.446 73.0099 0
23.0947 12.7766 3.98467
23.9717 10.1605 3.98657
25.0221 7.30812 3.98957
25.8591 9.37352 2
26.2794 4.32694 3.99372
27.0681 6.53777 2
27.8198 8.6459 0.0125535
27.7943 1.27781 4
28.4875 3.64255 2
29.1533 5.87411 0.00981983
30.1841 0.720551 2
30.7254 3.09691 0.0057444
32.6053 0.320823 0
35.7658 35.8308 3.92558
37.5024 35.8225 2
39.2414 35.8276 0.0723913
24.7757 12.0617 2
23.7493 14.3461 2
22.4772 15.0224 3.98363
25.3556 13.8955 3.98399
24.0216 15.6078 3.98331
26.6208 11.379 0.0147814
29.2236 12.6303 0.0156511
27.2898 13.3632 2
29.7783 14.1889 2
28.3538 15.9634 3.98334
34.0836 34.1982 3.96961
35.7566 34.1359 2
37.4949 34.1124 0.0781
35.6575 32.3436 0.0506938
37.4828 30.1072 0.0380715
42.3586 28.3527 0.0229201
39.8172 28.9308 0.0840202
40.0427 27.5256 2
37.4913 28.6067 2
35.4702 30.3683 2
34.027 32.6527 2
37.625 27.2216 3.99316
35.1464 28.9217 3.91529
33.6951 31.1202 3.95328
32.8809 33.0168 3.94907
30.203 19.3271 3.98363
30.9232 16.8236 2
31.9122 14.467 0.0167998
40.4806 25.6179 -0.00220107
38.0826 22.8354 0.0116574
33.5476 17.3686 0.0166713
35.5823 20.0588 0.0169274
32.8596 19.7761 2
35.2033 22.6162 2
37.7874 25.1354 2
32.304 22.3894 3.98121
34.9402 25.1462 3.99422
33.9746 37.508 3.95627
35.7622 37.506 2
37.5013 37.4994 0.0760447
37.6689 51.0293 0.01343
36.8966 48.4179 -0.0103352
35.7686 39.1826 0.0741688
35.1801 46.0973 0.0842314
33.7138 43.9019 0.0466342
34.0822 40.8213 0.0304239
32.8879 41.9997 0.0499649
35.4228 50.1706 2
34.0196 39.1979 2
32.5117 40.88 2
34.2749 47.528 2
32.1827 42.7324 2
33.07 45.223 2
33.1823 49.1474 3.98776
32.1841 39.2777 3.96469
30.9936 41.2291 3.95364
31.2326 43.8175 3.91808
32.2222 46.4389 3.97677
34.3507 52.4969 0.0180705
31.9678 51.2236 2
29.7953 49.7469 3.97695
30.5 53.4263 0.0197213
28.3915 51.6484 2
26.4504 50.0344 3.97453
26.8562 53.4668 0.0223308
25.0396 51.7941 2
23.2896 50.235 3.97604
23.5453 53.5071 0.0235914
21.9265 51.8408 2
20.4224 50.3471 3.97635
17.9537 50.355 3.97843
17.8072 52.8168 3.97851
19.167 51.6635 2
17.4204 55.3619 3.98168
18.8993 54.3338 2
20.4395 53.2537 0.0227635
17.1261 57.8905 3.98389
18.4343 56.7451 2
19.9164 55.8557 0.0177154
17.132 60.5607 3.98436
18.3619 59.1276 2
19.4289 57.9117 0.0171263
17.4063 63.4741 3.98794
18.6157 61.7767 2
19.7015 60.2186 0.0162887
17.9421 66.6195 3.99307
19.1265 64.6813 2
20.2056 62.8679 0.0143612
18.75 69.9759 4
19.8858 67.8111 2
20.9378 65.7699 0.0107269
21.9119 68.8743 0.00626918
20.9142 71.1327 2
23.1494 72.1454 0
21.5851 13.5966 3.98434
22.1897 11.0196 3.986
23.0949 12.7765 2
23.0403 8.1734 3.98935
23.9718 10.1602 2
24.1171 5.14153 3.99357
25.022 7.30776 2
25.8591 9.37393 0.0130932
25.446 1.99014 4
26.2792 4.32677 2
27.0682 6.53818 0.010205
27.7943 1.27778 2
28.4876 3.64276 0.00598134
30.1841 0.720592 0
34.0128 35.8197 3.96031
35.7671 35.8292 2
37.5023 35.8267 0.0795064
21.3017 15.8178 3.98336
24.7756 12.062 0.0149377
23.7491 14.3461 0.0161253
25.3558 13.8954 2
22.4775 15.0226 2
24.0219 15.6079 2
23.2602 16.239 3.98307
25.3769 16.0756 3.9836
27.2897 13.3635 0.0157467
29.7782 14.1892 0.0164523
28.354 15.9634 2
27.4345 18.785 3.98352
32.5227 34.1368 3.96051
34.0854 34.1965 2
35.7545 34.14 0.0534849
34.0268 32.6562 0.0451515
35.477 30.3729 0.0416374
37.4912 28.6188 0.0883819
40.0403 27.5292 0.0100764
37.6211 27.1934 2
32.8812 33.0173 2
35.1285 28.9135 2
33.6858 31.1139 2
35.0512 27.3331 3.99434
33.0449 29.8065 3.91905
32.1785 32.2751 3.95332
29.5643 21.922 3.98867
30.2033 19.3275 2
30.9232 16.8239 0.0172779
37.7883 25.13 -0.019172
35.2029 22.6168 0.0209852
32.8598 19.775 0.017985
32.3043 22.3914 2
34.9418 25.1545 2
31.6343 25.606 3.98759
32.0575 37.5101 3.96363
33.9765 37.5077 2
35.7605 37.5056 0.0752668
35.423 50.1632 0.0114546
34.282 47.5151 0.0122053
34.0178 39.1973 0.0399572
33.0832 45.2159 0.0825355
32.1928 42.7342 0.0467108
32.5122 40.8808 0.0393283
33.183 49.1332 2
32.1842 39.2766 2
30.9823 41.2302 2
32.2071 46.4502 2
31.2259 43.8214 2
31.0534 47.9096 3.98987
30.221 39.4974 3.94859
29.7782 42.0099 3.91422
30.333 45.0125 3.97741
31.9679 51.2209 0.0214126
29.7956 49.7456 2
27.7868 48.2261 3.98182
28.392 51.6496 0.0204772
26.4501 50.0328 2
24.5791 48.5108 3.97477
25.0402 51.7949 0.0260236
23.2895 50.2342 2
21.5953 48.8253 3.9781
21.9269 51.8411 0.0251511
20.4226 50.3462 2
18.9906 49.119 3.9803
16.8614 49.3527 3.98125
16.7463 51.4294 3.97885
17.9539 50.3547 2
16.3697 53.8914 3.98034
17.807 52.8167 2
19.167 51.6639 0.0233186
15.9654 56.4928 3.98316
17.4201 55.3621 2
18.8997 54.3337 0.0203835
15.7443 59.2224 3.98446
17.1258 57.8909 2
18.4347 56.7447 0.0165035
15.7862 62.1453 3.98711
17.132 60.5613 2
18.362 59.1272 0.0169642
16.0885 65.3023 3.99284
17.4063 63.4745 2
18.6156 61.7763 0.0149016
16.6661 68.6801 4
17.9419 66.6196 2
19.1264 64.6809 0.0113978
18.75 69.9759 2
19.886 67.811 0.00659131
20.9142 71.1327 0
20.2165 14.5852 3.98392
21.5853 13.5966 2
20.5287 11.9893 3.98553
21.1434 9.14285 3.98913
22.1898 11.0194 2
23.0947 12.7766 0.0153256
22.0162 6.08046 3.99338
23.0402 8.17309 2
23.9717 10.1605 0.0134349
23.1494 2.85457 4
24.1168 5.14142 2
25.0221 7.30812 0.010434
25.446 1.99012 2
26.2794 4.32694 0.00628032
27.7943 1.27781 0
32.1897 35.74 3.96372
34.0143 35.8186 2
35.7658 35.8308 0.074415
21.3019 15.8179 2
20.2978 16.9508 3.98407
22.0929 16.6231 3.98289
25.3556 13.8955 0.0160092
22.4772 15.0224 0.0163707
24.0216 15.6078 0.0166925
25.3772 16.0757 2
23.2606 16.2393 2
24.1985 18.4375 3.98198
27.0007 21.4439 3.98245
28.3538 15.9634 0.0166573
27.4348 18.7854 2
31.0011 33.7845 3.95015
32.5218 34.1386 2
34.0836 34.1982 0.0303938
32.8809 33.0168 0.0509294
33.6951 31.1202 0.0467179
35.1464 28.9217 0.0847121
37.625 27.2216 0.00684131
35.0403 27.3211 2
32.1792 32.2775 2
33.0375 29.7969 2
32.4712 28.0546 4.00046
31.2018 31.1979 3.92103
28.7531 24.3867 3.98696
29.5646 21.9234 2
30.203 19.3271 0.0163728
34.9402 25.1462 0.00578214
32.304 22.3894 0.0187899
31.6347 25.5963 2
29.5641 27.2935 3.9816
29.9523 37.5058 3.94737
32.0582 37.5095 2
33.9746 37.508 0.0437298
33.1823 49.1474 0.0122416
32.2222 46.4389 0.0232279
32.1841 39.2777 0.0353107
31.2326 43.8175 0.08192
30.9936 41.2291 0.0463556
31.0565 47.9015 2
30.2136 39.4996 2
29.7718 42.0146 2
30.3189 45.022 2
29.0606 46.4819 3.97918
28.8349 39.8978 3.91335
28.5251 43.2344 3.98212
29.7953 49.7469 0.0230455
27.787 48.2234 2
25.8474 46.693 3.97487
26.4504 50.0344 0.0254739
24.5795 48.5095 2
22.7282 47.1193 3.98376
23.2896 50.235 0.0239648
21.5959 48.824 2
19.9329 47.6474 3.98368
20.4224 50.3471 0.0236532
18.9911 49.1184 2
17.6341 48.2004 3.98287
16.1132 48.7022 3.98313
16.8617 49.3526 2
15.8239 50.1894 3.98041
15.3579 52.4343 3.9799
16.7464 51.4293 2
17.9537 50.355 0.0215669
14.8551 54.9937 3.98184
16.3695 53.8915 2
17.8072 52.8168 0.02149
14.4524 57.7518 3.98425
15.9651 56.4932 2
17.4204 55.3619 0.0183204
14.2637 60.7001 3.98645
15.7443 59.2229 2
17.1261 57.8905 0.0161093
14.3326 63.8616 3.9925
15.7862 62.1459 2
17.132 60.5607 0.0156376
14.6715 67.2507 4
16.0884 65.3024 2
17.4063 63.4741 0.012056
16.6661 68.6801 2
17.9421 66.6195 0.00693289
18.75 69.9759 0
18.9293 15.7715 3.98393
20.2167 14.5852 2
18.978 13.1001 3.98501
21.5851 13.5966 0.0156563
20.5289 11.9892 2
19.3427 10.2305 3.98866
19.9908 7.145 3.99332
21.1434 9.14261 2
22.1897 11.0196 0.0140032
20.9142 3.86727 4
22.0159 6.08042 2
23.0403 8.1734 0.0106528
23.1494 2.85451 2
24.1171 5.14153 0.00642998
25.446 1.99014 0
30.2367 35.5244 3.95269
32.1886 35.7404 2
34.0128 35.8197 0.0396873
21.3017 15.8178 0.0166391
22.0932 16.6231 2
20.2979 16.9507 2
19.2353 18.3966 3.98375
21.7762 17.8381 3.98319
25.3769 16.0756 0.0163999
23.2602 16.239 0.0169267
24.1989 18.438 2
22.2674 19.8781 3.98229
24.5767 21.3075 3.98283
26.3803 23.7093 3.98244
27.0017 21.4449 2
27.4345 18.785 0.0164826
29.7768 32.9994 3.91845
30.9904 33.778 2
32.5227 34.1368 0.0394857
32.1785 32.2751 0.0466751
33.0449 29.8065 0.0809529
35.0512 27.3331 0.00566082
32.4568 28.0511 2
31.2099 31.1998 2
30.0101 29.4987 3.99453
27.8069 26.5336 3.97021
28.7535 24.392 2
29.5643 21.922 0.0113339
31.6343 25.606 0.0124061
29.5559 27.2593 2
28.5053 37.5049 3.91865
29.9452 37.509 2
32.0575 37.5101 0.0363712
31.0534 47.9096 0.0101319
30.333 45.0125 0.0225899
30.221 39.4974 0.0514057
29.7782 42.0099 0.0857753
29.0649 46.4854 2
28.8292 39.8984 2
28.5148 43.2398 2
27.1344 44.8064 3.96604
26.6144 40.6444 4.00636
27.7868 48.2261 0.0181847
25.8492 46.6911 2
23.8765 45.248 3.97498
24.5791 48.5108 0.0252261
22.7293 47.1174 2
20.8598 45.9297 3.98454
21.5953 48.8253 0.0219041
19.9337 47.6468 2
18.2776 46.7608 3.98443
18.9906 49.119 0.0196974
17.6346 48.2003 2
16.3024 47.732 3.98287
16.1135 48.7022 2
15.1705 49.0324 3.98178
16.8614 49.3527 0.0187542
15.8241 50.1894 2
14.4714 51.0008 3.98033
13.816 53.4488 3.98106
15.3578 52.4343 2
16.7463 51.4294 0.0211451
13.2462 56.1794 3.98341
14.8549 54.9939 2
16.3697 53.8914 0.0196566
12.8455 59.1339 3.98625
14.4522 57.7522 2
15.9654 56.4928 0.0168428
12.6778 62.3043 3.99188
14.2637 60.7006 2
15.7443 59.2224 0.0155366
12.7746 65.6939 4
14.3324 63.8617 2
15.7862 62.1453 0.0128915
14.6714 67.2507 2
16.0885 65.3023 0.00716193
16.6661 68.6801 0
17.6625 17.1461 3.98381
18.9295 15.7713 2
17.5088 14.3637 3.98476
20.2165 14.5852 0.0160839
18.9782 13.0999 2
17.6382 11.4493 3.98786
20.5287 11.9893 0.0144687
19.3429 10.2303 2
18.051 8.33779 3.99311
18.75 5.0241 4
19.9905 7.14503 2
21.1434 9.14285 0.0108738
20.9142 3.86727 2
22.0162 6.08046 0.00661734
23.1494 2.85457 0
28.8432 35.1127 3.91804
30.2286 35.5244 2
32.1897 35.74 0.0362814
22.0929 16.6231 0.0171123
20.2978 16.9508 0.0159325
21.7764 17.8379 2
19.2354 18.3963 2
17.9688 19.9275 3.98344
20.8667 19.3644 3.98355
24.1985 18.4375 0.0180245
22.2679 19.8777 2
24.5777 21.3082 2
22.3398 21.7019 3.9834
24.6652 23.1526 3.98256
25.3974 25.9378 3.97336
26.3815 23.7092 2
27.0007 21.4439 0.0175499
28.1656 32.2692 3.97521
29.7719 32.9992 2
31.0011 33.7845 0.0498453
31.2018 31.1979 0.0789717
32.4712 28.0546 -0.000461738
29.9846 29.4928 2
26.908 29.1286 3.97846
27.8026 26.5319 2
28.7531 24.3867 0.0130405
29.5641 27.2935 0.0183989
26.7339 37.3585 3.98445
28.5004 37.5031 2
29.9523 37.5058 0.0526281
29.0606 46.4819 0.0208246
28.5251 43.2344 0.0178783
28.8349 39.8978 0.0866536
27.1399 44.8071 2
26.6139 40.6474 2
25.1009 43.1982 3.97304
23.861 39.4341 3.96701
25.8474 46.693 0.0251282
23.8776 45.2477 2
21.8315 43.9818 3.98078
22.7282 47.1193 0.016235
20.861 45.9296 2
18.9355 44.9939 3.98096
19.9329 47.6474 0.0163225
18.2782 46.761 2
16.5916 46.2306 3.98114
17.6341 48.2004 0.0171275
16.3027 47.7321 2
14.8996 47.6856 3.98148
16.1132 48.7022 0.0168724
15.1707 49.0325 2
13.7693 49.5599 3.98089
15.8239 50.1894 0.0195948
14.4715 51.0008 2
12.8826 51.886 3.9808
12.133 54.537 3.98262
13.8159 53.4489 2
15.3579 52.4343 0.0200966
11.5293 57.4658 3.98575
13.2459 56.1797 2
14.8551 54.9937 0.0181556
11.1323 60.6307 3.99131
12.8454 59.1343 2
14.4524 57.7518 0.0157521
10.9835 64.0165 4
12.6777 62.3044 2
14.2637 60.7001 0.0135498
12.7745 65.694 2
14.3326 63.8616 0.00749986
14.6715 67.2507 0
16.3934 18.639 3.98388
17.6626 17.1458 2
16.099 15.772 3.98476
18.9293 15.7715 0.0160672
17.5089 14.3633 2
16.0195 12.8024 3.987
18.978 13.1001 0.0149864
17.6384 11.449 2
16.2021 9.66083 3.99276
19.3427 10.2305 0.0113398
18.0508 8.33786 2
16.6661 6.31991 4
18.75 5.02404 2
19.9908 7.145 0.00668236
20.9142 3.86727 0
27.2406 34.7362 3.97246
28.8356 35.1114 2
30.2367 35.5244 0.0473106
16.6664 21.362 3.98157
21.7762 17.8381 0.0168053
19.2353 18.3966 0.0162528
20.867 19.3641 2
17.969 19.9273 2
19.7076 21.5559 3.98522
22.2674 19.8781 0.017709
24.5767 21.3075 0.0171727
22.3406 21.7008 2
24.6655 23.1528 2
22.8059 24.5856 3.97761
24.4564 28.5147 3.97204
25.3948 25.9363 2
26.3803 23.7093 0.017562
26.0035 31.6987 3.98319
28.1587 32.2644 2
29.7768 32.9994 0.0815503
30.0101 29.4987 0.005469
26.912 29.131 2
27.8069 26.5336 0.0297941
24.5491 36.8625 3.97925
26.7336 37.3628 2
28.5053 37.5049 0.081348
27.1344 44.8064 0.0339615
26.6144 40.6444 -0.00635742
25.1017 43.1995 2
23.8613 39.4347 2
22.878 41.8201 3.97756
21.6173 38.5027 3.97573
23.8765 45.248 0.0250214
21.8321 43.9831 2
19.6828 42.9074 3.97727
20.8598 45.9297 0.0154573
18.9363 44.9946 2
16.919 44.3963 3.97816
18.2776 46.7608 0.0155687
16.5921 46.2309 2
14.82 46.1045 3.97942
16.3024 47.732 0.0171281
14.8999 47.6858 2
13.2762 48.0207 3.98036
15.1705 49.0324 0.018216
13.7695 49.56 2
12.1017 50.2627 3.98077
14.4714 51.0008 0.019674
12.8826 51.8861 2
11.1284 52.8444 3.98201
10.3194 55.7169 3.98503
12.1328 54.5372 2
13.816 53.4488 0.0189378
9.69877 58.8533 3.99041
11.5292 57.4661 2
13.2462 56.1794 0.0165884
9.30605 62.2254 4
11.1322 60.6308 2
12.8455 59.1339 0.0137511
10.9835 64.0165 2
12.6778 62.3043 0.00811823
12.7746 65.6939 0
15.1365 20.1725 3.98268
16.3935 18.6387 2
14.7437 17.2942 3.9843
17.6625 17.1461 0.0161874
16.0991 15.7716 2
14.4814 14.2838 3.98651
17.5088 14.3637 0.0152416
16.0196 12.802 2
14.4447 11.1119 3.99239
17.6382 11.4493 0.0121448
16.2019 9.66084 2
14.6715 7.74927 4
18.051 8.33779 0.00688956
16.6661 6.31988 2
18.75 5.0241 0
25.1866 34.2647 3.98426
27.2383 34.7378 2
28.8432 35.1127 0.0819618
17.8364 22.3066 3.98577
15.5093 22.9053 3.97994
16.6665 21.3616 2
20.8667 19.3644 0.0164511
17.9688 19.9275 0.0165643
19.7081 21.5553 2
19.6313 24.3614 3.98061
22.3398 21.7019 0.0166033
24.6652 23.1526 0.0174364
22.8043 24.584 2
21.8424 27.8066 3.97325
23.6246 31.1738 3.97321
24.459 28.517 2
25.3974 25.9378 0.0266448
26.0094 31.6961 2
28.1656 32.2692 0.0247905
26.908 29.1286 0.0215419
22.3285 36.2667 3.98157
24.5501 36.8628 2
26.7339 37.3585 0.0155547
25.1009 43.1982 0.0269586
23.861 39.4341 0.0329888
22.8774 41.8208 2
21.6175 38.5029 2
20.6017 40.641 3.9767
19.9817 37.7818 3.9789
21.8315 43.9818 0.0192222
19.6829 42.9078 2
17.3115 42.1129 3.97684
18.9355 44.9939 0.0190358
16.9196 44.3968 2
14.8206 44.2125 3.97702
16.5916 46.2306 0.018858
14.8204 46.1048 2
12.9486 46.3059 3.9785
14.8996 47.6856 0.0185224
13.2764 48.021 2
11.4732 48.5581 3.98012
13.7693 49.5599 0.0191132
12.1017 50.2629 2
10.2542 51.0864 3.98155
12.8826 51.886 0.0191997
11.1283 52.8447 2
9.22814 53.8937 3.98441
8.38226 56.9857 3.9894
10.3192 55.7172 2
12.133 54.537 0.0173793
7.74927 60.3285 4
9.69862 58.8534 2
11.5293 57.4658 0.0142489
9.306 62.2255 2
11.1323 60.6307 0.00868665
10.9835 64.0165 0
13.9472 21.7389 3.98151
15.1366 20.172 2
13.4433 18.8907 3.9837
16.3934 18.639 0.0161189
14.7438 17.2937 2
13.0263 15.8761 3.9861
16.099 15.772 0.0152397
14.4815 14.2833 2
12.7818 12.685 3.99193
16.0195 12.8024 0.0130009
14.4446 11.1119 2
12.7746 9.30605 4
16.2021 9.66083 0.00723884
14.6715 7.74924 2
16.6661 6.31991 0
22.9211 33.7881 3.98109
25.1853 34.2628 2
27.2406 34.7362 0.0275378
17.6007 24.0255 3.98145
17.8364 22.3059 2
14.2907 24.4379 3.97841
15.5087 22.9045 2
16.6664 21.362 0.0184327
18.9833 27.1844 3.97276
19.7076 21.5559 0.0147762
19.6302 24.3612 2
21.076 30.6476 3.97444
22.8059 24.5856 0.0223916
21.8443 27.8073 2
23.6234 31.1737 2
24.4564 28.5147 0.0279631
26.0035 31.6987 0.0168076
20.0968 35.9153 3.98163
22.3289 36.2677 2
24.5491 36.8625 0.0207544
22.878 41.8201 0.0224405
21.6173 38.5027 0.0242691
20.6014 40.641 2
19.9817 37.782 2
17.9805 39.0055 3.97762
19.6828 42.9074 0.0227271
17.3116 42.1133 2
14.7663 41.9271 3.97637
16.919 44.3963 0.0218403
14.821 44.213 2
12.6883 44.4004 3.97692
14.82 46.1045 0.020578
12.9488 46.3062 2
10.9754 46.7403 3.97858
13.2762 48.0207 0.0196403
11.4733 48.5584 2
9.51769 49.2448 3.98082
12.1017 50.2627 0.0192343
10.2542 51.0867 2
8.26114 52.0053 3.98384
11.1284 52.8444 0.0179872
9.22797 53.894 2
7.19118 55.0351 3.98867
6.31991 58.3339 4
8.38205 56.9856 2
10.3194 55.7169 0.0149736
7.74924 60.3285 2
9.69877 58.8533 0.00959398
9.30605 62.2254 0
13.2119 25.3526 3.98248
12.8135 23.2689 3.98038
13.9469 21.7381 2
12.2277 20.5398 3.98315
15.1365 20.1725 0.0173172
13.4434 18.8902 2
11.6554 17.5569 3.98593
14.7437 17.2942 0.0157023
13.0264 15.8757 2
11.2191 14.3696 3.99128
14.4814 14.2838 0.0134922
12.7817 12.685 2
10.9835 10.9835 4
14.4447 11.1119 0.00760637
12.7745 9.306 2
14.6715 7.74927 0
20.4849 33.3814 3.97869
22.9213 33.7881 2
25.1866 34.2647 0.0157447
15.8717 26.3877 3.97608
17.6 24.0247 2
17.8364 22.3066 0.0142319
14.2907 24.4379 2
15.5093 22.9053 0.0200628
18.3216 30.1583 3.97351
18.9847 27.1847 2
19.6313 24.3614 0.0193946
21.0749 30.6469 2
21.8424 27.8066 0.0267494
23.6246 31.1738 0.0267869
17.6033 35.96 3.97981
20.0972 35.9155 2
22.3285 36.2667 0.0184271
20.6017 40.641 0.0232952
19.9817 37.7818 0.0211042
17.9802 39.0056 2
14.2707 39.1802 3.97743
17.3115 42.1129 0.0231605
14.7663 41.9275 2
12.3746 42.2832 3.9767
14.8206 44.2125 0.0229802
12.6886 44.4008 2
10.5525 44.8079 3.97756
12.9486 46.3059 0.0214983
10.9756 46.7407 2
8.90068 47.3226 3.97954
11.4732 48.5581 0.0198832
9.51772 49.2451 2
7.4283 50.0373 3.98303
10.2542 51.0864 0.0184496
8.26103 52.0055 2
6.1317 53.0086 3.98826
9.22814 53.8937 0.0155853
7.19092 55.0347 2
5.0241 56.25 4
6.31988 58.3339 2
8.38226 56.9857 0.0105972
7.74927 60.3285 0
13.4476 26.8048 3.97746
11.9273 24.7796 3.97959
13.2121 25.3523 2
11.1302 22.2256 3.98209
12.8135 23.2685 2
13.9472 21.7389 0.01849
12.2275 20.539 2
10.3851 19.3121 3.98566
13.4433 18.8907 0.0163049
11.6555 17.5565 2
9.75978 16.1528 3.99053
13.0263 15.8761 0.0139039
11.219 14.3695 2
9.30607 12.7746 4
12.7818 12.685 0.00806651
10.9835 10.9835 2
12.7746 9.30605 0
17.7857 33.1012 3.97623
20.4851 33.3818 2
22.9211 33.7881 0.018906
15.4592 29.6265 3.97516
15.8726 26.3878 2
17.6007 24.0255 0.0185519
14.2907 24.4379 0.0215901
18.3208 30.1578 2
18.9833 27.1844 0.0272427
21.076 30.6476 0.0255648
14.863 36.016 3.97801
17.6036 35.9601 2
20.0968 35.9153 0.0183716
12.57 37.8306 3.97715
17.9805 39.0055 0.0223751
14.2705 39.1805 2
11.8876 40.1453 3.97736
14.7663 41.9271 0.0236262
12.3746 42.2837 2
10.1515 42.7823 3.97713
12.6883 44.4004 0.0230766
10.5528 44.8083 2
8.37887 45.3237 3.97874
10.9754 46.7403 0.0214196
8.90079 47.323 2
6.72002 48.0015 3.98191
9.51769 49.2448 0.0191833
7.42826 50.0376 2
5.20845 50.9106 3.98801
8.26114 52.0053 0.0161568
6.13143 53.008 2
3.86727 54.0858 4
7.19118 55.0351 0.0113271
5.02404 56.25 2
6.31991 58.3339 0
12.9034 29.026 3.97432
11.3572 26.481 3.97854
13.4481 26.8041 2
10.1898 23.9615 3.98055
11.9274 24.7791 2
13.2119 25.3526 0.0175214
9.23696 21.1322 3.98471
11.1301 22.225 2
12.8135 23.2689 0.0196207
12.2277 20.5398 0.0168512
10.3849 19.3114 2
8.4155 18.024 3.98975
11.6554 17.5569 0.0140726
9.75972 16.1526 2
7.74928 14.6715 4
11.2191 14.3696 0.00871513
9.30602 12.7745 2
10.9835 10.9835 0
14.4504 32.8555 3.97626
17.7859 33.1013 2
20.4849 33.3814 0.0213121
15.4585 29.626 2
15.8717 26.3877 0.0239168
18.3216 30.1583 0.0264924
12.8582 36.2077 3.97641
14.8632 36.0162 2
17.6033 35.96 0.0201904
12.57 37.8306 2
11.2463 38.3119 3.9766
14.2707 39.1802 0.0225718
11.8875 40.1456 2
9.7371 40.7576 3.97742
12.3746 42.2832 0.0232954
10.1515 42.7827 2
7.92813 43.2721 3.9783
10.5525 44.8079 0.0224385
8.37907 45.324 2
6.12652 45.906 3.98119
8.90068 47.3226 0.0204553
6.72007 48.0016 2
4.42015 48.7506 3.98782
7.4283 50.0373 0.0169698
5.20823 50.9097 2
2.85457 51.8506 4
6.1317 53.0086 0.0117449
3.86727 54.0858 2
5.0241 56.25 0
12.0441 31.2511 3.97655
10.7705 28.4103 3.97655
12.9028 29.0253 2
9.40499 25.7937 3.97962
11.3575 26.4806 2
13.4476 26.8048 0.0225449
8.22437 23.0193 3.98314
10.1898 23.9609 2
11.9273 24.7796 0.0204066
7.19748 19.9748 3.98892
9.23683 21.1316 2
11.1302 22.2256 0.0179126
10.3851 19.3121 0.0143393
8.4153 18.0239 2
6.31992 16.6661 4
9.75978 16.1528 0.00946898
7.74926 14.6714 2
9.30607 12.7746 0
12.0621 34.2914 3.97613
14.4506 32.8556 2
17.7857 33.1012 0.023765
15.4592 29.6265 0.0248393
10.8112 36.6107 3.97572
12.8584 36.2077 2
14.863 36.016 0.0219894
12.57 37.8306 0.022849
11.2462 38.312 2
9.33304 38.8255 3.97702
11.8876 40.1453 0.0226432
9.73707 40.7579 2
7.53985 41.2128 3.97814
10.1515 42.7823 0.0228724
7.92819 43.2724 2
5.63866 43.7687 3.98112
8.37887 45.3237 0.0212594
6.12666 45.906 2
3.766 46.5362 3.98772
6.72002 48.0015 0.0180871
4.42003 48.7496 2
1.99014 49.554 4
5.20845 50.9106 0.0119869
2.85451 51.8506 2
3.86727 54.0858 0
10.9078 32.9156 3.9773
10.0838 30.3784 3.97691
12.0441 31.2511 2
8.71376 27.7291 3.97842
10.7701 28.4097 2
12.9034 29.026 0.0256807
7.35012 24.9801 3.98217
9.40521 25.7933 2
11.3572 26.481 0.0214585
6.11442 22 3.98797
8.22431 23.0188 2
10.1898 23.9615 0.0194482
5.02411 18.75 4
7.19721 19.9751 2
9.23696 21.1322 0.015294
8.4155 18.024 0.0102482
6.3199 16.6661 2
7.74928 14.6715 0
10.4229 34.9984 3.97681
12.0623 34.2913 2
14.4504 32.8555 0.0237425
9.00711 36.9853 3.97564
10.8113 36.6106 2
12.8582 36.2077 0.0235907
11.2463 38.3119 0.0234021
9.33304 38.8256 2
7.22141 39.183 3.97785
9.7371 40.7576 0.0225848
7.53987 41.2131 2
5.25442 41.6142 3.98072
7.92813 43.2721 0.0216965
5.63871 43.7687 2
3.24391 44.2815 3.98763
6.12652 45.906 0.01881
3.76599 46.5355 2
1.27781 47.2057 4
4.42015 48.7506 0.012181
1.99012 49.554 2
2.85457 51.8506 0
10.0758 33.8792 3.97722
9.37771 32.1518 3.97742
10.9079 32.9155 2
8.06352 29.6935 3.97808
10.0838 30.3783 2
12.0441 31.2511 0.0234452
6.59426 27.0073 3.98126
8.71358 27.7285 2
10.7705 28.4103 0.0234473
5.16965 24.0944 3.98756
7.35027 24.9798 2
9.40499 25.7937 0.0203833
3.86728 20.9142 4
6.11414 22.0007 2
8.22437 23.0193 0.0168637
5.02406 18.75 2
7.19748 19.9748 0.0110767
6.31992 16.6661 0
8.83357 35.2787 3.97665
10.423 34.9983 2
12.0621 34.2914 0.0238737
7.00674 37.2061 3.97676
9.00721 36.9853 2
10.8112 36.6107 0.0242841
9.33304 38.8255 0.0229779
7.22146 39.1831 2
4.98294 39.4675 3.9801
7.53985 41.2128 0.0218598
5.25445 41.6142 2
2.85464 42.0023 3.98717
5.63866 43.7687 0.0188839
3.24389 44.2811 2
0.720592 44.8159 4
3.766 46.5362 0.0122777
1.27778 47.2057 2
1.99014 49.554 0
8.87491 33.696 3.97735
10.0759 33.8791 2
7.50167 31.6079 3.97817
9.37772 32.1517 2
10.9078 32.9156 0.022695
5.93985 29.0691 3.98069
8.06351 29.6933 2
10.0838 30.3784 0.0230853
4.35741 26.248 3.98746
6.5942 27.007 2
8.71376 27.7291 0.0215763
2.85458 23.1494 4
5.16952 24.0954 2
7.35012 24.9801 0.0178302
3.86728 20.9142 2
6.11442 22 0.0120302
5.02411 18.75 0
6.95718 35.3058 3.97705
8.83369 35.2786 2
10.4229 34.9984 0.0231909
4.8339 37.3399 3.97951
7.00685 37.2062 2
9.00711 36.9853 0.024362
7.22141 39.183 0.0221504
4.983 39.4675 2
2.60302 39.7142 3.98634
5.25442 41.6142 0.0192751
2.85464 42.002 2
0.320823 42.3947 4
3.24391 44.2815 0.0123652
0.720551 44.8159 2
1.27781 47.2057 0
7.11638 33.4602 3.97784
8.87497 33.6959 2
10.0758 33.8792 0.0227829
5.41119 31.1335 3.98053
7.50165 31.6077 2
9.37771 32.1518 0.0225754
3.67935 28.4442 3.98736
5.93987 29.0691 2
8.06352 29.6935 0.0219236
1.99015 25.446 4
4.35726 26.2489 2
6.59426 27.0073 0.0187442
2.85453 23.1494 2
5.16965 24.0944 0.0124397
3.86728 20.9142 0
4.84838 35.2517 3.97958
6.9573 35.3058 2
8.83357 35.2787 0.023353
2.49467 37.4288 3.98601
4.83401 37.34 2
7.00674 37.2061 0.0232365
4.98294 39.4675 0.0198984
2.60305 39.7141 2
0.080333 39.9526 4
2.85464 42.0023 0.0128284
0.320817 42.3947 2
0.720592 44.8159 0
5.04125 33.1904 3.98021
7.11642 33.4601 2
8.87491 33.696 0.0226501
3.14395 30.6667 3.98705
5.41118 31.1337 2
7.50167 31.6079 0.021834
1.27793 27.7943 4
3.67929 28.4449 2
5.93985 29.0691 0.0193099
1.99013 25.446 2
4.35741 26.248 0.0125364
2.85458 23.1494 0
2.54688 35.1593 3.98596
4.84847 35.2519 2
6.95718 35.3058 0.0229502
0 37.5 4
2.49474 37.4289 2
4.8339 37.3399 0.0204868
2.60302 39.7142 0.0136641
0.0802903 39.9526 2
0.320823 42.3947 0
2.76428 32.9061 3.98646
5.04127 33.1906 2
7.11638 33.4602 0.0221648
0.721173 30.1842 4
3.14391 30.6672 2
5.41119 31.1335 0.0194676
1.27779 27.7943 2
3.67935 28.4442 0.0126383
1.99015 25.446 0
0.0806499 35.0474 4
2.54692 35.1596 2
4.84838 35.2517 0.0204236
0 37.5 2
2.49467 37.4288 0.0139885
0.080333 39.9526 0
0.32156 32.6054 4
2.76428 32.9065 2
5.04125 33.1904 0.0197861
0.72056 30.1841 2
3.14395 30.6667 0.0129541
1.27793 27.7943 0
0.0802889 35.0474 2
2.54688 35.1593 0.0140415
0 37.5 0
0.320817 32.6053 2
2.76428 32.9061 0.0135359
0.721173 30.1842 0
0.0806499 35.0474 0
0.32156 32.6054 0
CELLS 1910 17190
8 18 6 25 56 2 0 5 16
8 57 23 6 18 17 4 0 2
8 78 36 9 29 31 11 1 7
8 31 11 1 7 79 37 10 30
8 110 57 18 50 48 17 2 14
8 50 18 56 111 14 2 16 49
8 116 62 22 55 52 20 3 15
8 56 25 67 118 16 5 24 53
8 119 63 23 57 54 21 4 17
8 55 22 63 119 15 3 21 54
8 58 26 68 121 18 6 25 56
8 122 65 26 58 57 23 6 18
8 73 31 7 27 142 79 30 71
8 143 78 29 72 73 31 7 27
8 83 147 76 34 32 74 28 8
8 84 148 78 36 33 75 29 9
8 76 34 8 28 148 84 33 75
8 37 79 150 86 10 30 77 35
8 151 87 36 78 80 38 11 31
8 80 38 11 31 152 88 37 79
8 175 100 42 94 96 44 12 40
8 44 96 176 101 12 40 95 43
8 101 176 98 46 43 95 41 13
8 46 98 178 103 13 41 97 45
8 178 103 45 97 147 83 32 74
8 189 116 55 109 106 52 15 47
8 111 56 118 191 49 16 53 107
8 192 119 57 110 108 54 17 48
8 109 55 119 192 47 15 54 108
8 194 122 58 112 110 57 18 50
8 112 58 121 195 50 18 56 111
8 115 61 19 51 197 124 59 113
8 115 61 125 198 51 19 60 114
8 198 125 62 116 114 60 20 52
8 200 127 64 120 116 62 22 55
8 118 67 132 202 53 24 66 117
8 121 68 133 203 56 25 67 118
8 120 64 128 204 55 22 63 119
8 204 128 65 122 119 63 23 57
8 206 134 68 121 123 69 26 58
8 123 69 26 58 207 131 65 122
8 226 147 74 138 140 76 28 70
8 229 148 75 139 143 78 29 72
8 140 76 28 70 229 148 75 139
8 142 79 30 71 231 150 77 141
8 144 80 31 73 232 152 79 142
8 233 151 78 143 144 80 31 73
8 150 86 35 77 235 154 81 145
8 235 154 81 145 146 82 39 91
8 146 82 39 91 236 155 90 165
8 238 157 83 147 149 85 34 76
8 239 158 84 148 151 87 36 78
8 149 85 34 76 239 158 84 148
8 152 88 37 79 241 160 86 150
8 242 161 87 151 153 89 38 80
8 153 89 38 80 243 162 88 152
8 171 98 41 92 265 178 97 169
8 265 178 97 169 226 147 74 138
8 172 96 40 93 266 176 95 170
8 266 176 95 170 171 98 41 92
8 269 175 94 173 172 96 40 93
8 271 180 99 174 175 100 42 94
8 197 124 59 113 271 180 99 174
8 272 181 100 175 177 102 44 96
8 273 182 101 176 179 104 46 98
8 177 102 44 96 273 182 101 176
8 179 104 46 98 275 184 103 178
8 275 184 103 178 238 157 83 147
8 188 115 51 105 283 197 113 186
8 188 115 198 284 105 51 114 187
8 284 198 116 189 187 114 52 106
8 286 200 120 193 189 116 55 109
8 191 118 202 288 107 53 117 190
8 195 121 203 289 111 56 118 191
8 193 120 204 290 109 55 119 192
8 290 204 122 194 192 119 57 110
8 196 123 58 112 292 207 122 194
8 293 206 121 195 196 123 58 112
8 199 126 61 115 297 211 124 197
8 298 212 127 200 198 125 62 116
8 199 126 212 298 115 61 125 198
8 205 129 64 120 300 214 127 200
8 301 217 130 201 202 132 66 117
8 209 136 168 264 301 217 130 201
8 302 219 132 202 203 133 67 118
8 303 220 133 203 206 134 68 121
8 205 129 215 304 120 64 128 204
8 304 215 131 207 204 128 65 122
8 306 221 134 206 208 135 69 123
8 208 135 69 123 307 218 131 207
8 210 137 167 263 309 223 136 209
8 328 238 147 226 230 149 76 140
8 228 146 91 166 329 236 165 260
8 231 150 77 141 330 235 145 227
8 330 235 145 227 228 146 91 166
8 332 239 148 229 233 151 78 143
8 230 149 76 140 332 239 148 229
8 232 152 79 142 334 241 150 231
8 234 153 80 144 335 243 152 232
8 336 242 151 233 234 153 80 144
8 236 155 90 165 338 245 164 259
8 241 160 86 150 339 246 154 235
8 339 246 154 235 237 156 82 146
8 237 156 82 146 340 247 155 236
8 342 249 157 238 240 159 85 149
8 343 250 158 239 242 161 87 151
8 240 159 85 149 343 250 158 239
8 243 162 88 152 345 252 160 241
8 244 163 253 346 153 89 161 242
8 244 163 89 153 347 254 162 243
8 311 224 261 371 210 137 167 263
8 263 167 262 372 209 136 168 264
8 267 179 98 171 375 275 178 265
8 375 275 178 265 328 238 147 226
8 376 273 176 266 267 179 98 171
8 268 177 96 172 376 273 176 266
8 379 272 175 269 268 177 96 172
8 380 271 174 270 269 175 94 173
8 283 197 113 186 380 271 174 270
8 381 277 180 271 272 181 100 175
8 297 211 124 197 381 277 180 271
8 382 278 181 272 274 183 102 177
8 274 183 102 177 383 279 182 273
8 383 279 182 273 276 185 104 179
8 385 281 184 275 342 249 157 238
8 276 185 104 179 385 281 184 275
8 285 199 115 188 393 297 197 283
8 394 298 200 286 284 198 116 189
8 285 199 298 394 188 115 198 284
8 291 205 120 193 396 300 200 286
8 397 301 201 287 288 202 117 190
8 295 209 264 374 397 301 201 287
8 398 302 202 288 289 203 118 191
8 399 303 203 289 293 206 121 195
8 291 205 304 400 193 120 204 290
8 400 304 207 292 290 204 122 194
8 294 208 123 196 402 307 207 292
8 403 306 206 293 294 208 123 196
8 296 210 263 373 405 309 209 295
8 408 312 213 299 297 211 126 199
8 299 213 313 409 199 126 212 298
8 409 313 214 300 298 212 127 200
8 305 216 129 205 411 315 214 300
8 412 318 217 301 302 219 132 202
8 309 223 136 209 412 318 217 301
8 413 320 219 302 303 220 133 203
8 306 221 321 414 206 134 220 303
8 307 218 131 207 415 316 215 304
8 305 216 316 415 205 129 215 304
8 417 322 221 306 308 222 135 208
8 308 222 135 208 418 319 218 307
8 310 225 137 210 420 325 223 309
8 423 326 224 311 310 225 137 210
8 329 236 165 260 441 338 259 368
8 442 342 238 328 333 240 149 230
8 331 237 146 228 443 340 236 329
8 334 241 150 231 444 339 235 330
8 444 339 235 330 331 237 146 228
8 446 343 239 332 336 242 151 233
8 333 240 149 230 446 343 239 332
8 335 243 152 232 448 345 241 334
8 337 244 153 234 449 347 243 335
8 337 244 346 450 234 153 242 336
8 338 245 164 259 452 349 258 367
8 340 247 155 236 453 350 245 338
8 345 252 160 241 454 351 246 339
8 454 351 246 339 341 248 156 237
8 341 248 156 237 455 352 247 340
8 240 159 251 344 342 249 354 457
8 242 161 253 346 343 250 355 458
8 343 250 355 458 240 159 251 344
8 347 254 162 243 460 357 252 345
8 348 255 358 461 244 163 253 346
8 348 255 163 244 462 359 254 347
8 473 360 257 365 363 256 364 482
8 452 349 258 367 365 257 366 485
8 422 324 369 488 311 224 261 371
8 371 261 370 490 263 167 262 372
8 407 311 371 491 296 210 263 373
8 373 263 372 492 295 209 264 374
8 493 385 275 375 442 342 238 328
8 377 276 179 267 493 385 275 375
8 378 274 177 268 494 383 273 376
8 494 383 273 376 377 276 179 267
8 497 382 272 379 378 274 177 268
8 498 381 271 380 379 272 175 269
8 393 297 197 283 498 381 271 380
8 499 387 277 381 382 278 181 272
8 408 312 211 297 499 387 277 381
8 500 388 278 382 384 280 183 274
8 501 389 279 383 386 282 185 276
8 384 280 183 274 501 389 279 383
8 386 282 185 276 503 391 281 385
8 503 391 281 385 457 354 249 342
8 511 408 299 395 393 297 199 285
8 395 299 409 512 285 199 298 394
8 512 409 300 396 394 298 200 286
8 401 305 205 291 514 411 300 396
8 515 412 301 397 398 302 202 288
8 405 309 209 295 515 412 301 397
8 516 413 302 398 399 303 203 289
8 403 306 414 517 293 206 303 399
8 402 307 207 292 518 415 304 400
8 401 305 415 518 291 205 304 400
8 404 308 208 294 520 418 307 402
8 521 417 306 403 404 308 208 294
8 406 310 210 296 523 420 309 405
8 526 423 311 407 406 310 210 296
8 410 314 213 299 527 424 312 408
8 528 425 315 411 409 313 214 300
8 410 314 425 528 299 213 313 409
8 416 317 216 305 530 427 315 411
8 531 430 318 412 413 320 219 302
8 420 325 223 309 531 430 318 412
8 532 432 320 413 414 321 220 303
8 417 322 433 533 306 221 321 414
8 418 319 218 307 534 428 316 415
8 416 317 428 534 305 216 316 415
8 419 323 434 536 308 222 322 417
8 419 323 222 308 537 431 319 418
8 421 327 225 310 539 438 325 420
8 421 327 439 541 310 225 326 423
8 543 437 324 422 423 326 224 311
8 441 338 259 368 559 452 367 486
8 443 340 236 329 560 453 338 441
8 333 240 344 447 442 342 457 561
8 445 341 237 331 562 455 340 443
8 448 345 241 334 563 454 339 444
8 563 454 339 444 445 341 237 331
8 336 242 346 450 446 343 458 565
8 446 343 458 565 333 240 344 447
8 449 347 243 335 567 460 345 448
8 451 348 244 337 568 462 347 449
8 451 348 461 569 337 244 346 450
8 570 463 349 452 473 360 257 365
8 453 350 245 338 570 463 349 452
8 455 352 247 340 571 464 350 453
8 460 357 252 345 572 465 351 454
8 572 465 351 454 456 353 248 341
8 456 353 248 341 573 466 352 455
8 344 251 356 459 457 354 468 575
8 458 355 469 576 344 251 356 459
8 346 253 358 461 458 355 469 576
8 462 359 254 347 578 471 357 460
8 348 255 359 462 461 358 472 579
8 591 474 360 473 475 361 256 363
8 475 361 256 363 594 477 362 479
8 363 256 364 482 479 362 480 603
8 590 473 365 484 481 363 482 605
8 482 364 257 365 606 483 366 485
8 559 452 367 486 484 365 485 607
8 542 436 487 609 422 324 369 488
8 525 422 488 611 407 311 371 491
8 488 369 489 612 371 261 370 490
8 491 371 490 613 373 263 372 492
8 495 386 276 377 614 503 385 493
8 614 503 385 493 561 457 342 442
8 615 501 383 494 495 386 276 377
8 496 384 274 378 615 501 383 494
8 618 500 382 497 496 384 274 378
8 619 499 381 498 497 382 272 379
8 511 408 297 393 619 499 381 498
8 620 505 387 499 500 388 278 382
8 527 424 312 408 620 505 387 499
8 502 390 506 621 384 280 388 500
8 622 507 389 501 504 392 282 386
8 502 390 280 384 622 507 389 501
8 504 392 282 386 624 509 391 503
8 624 509 391 503 575 468 354 457
8 513 410 299 395 630 527 408 511
8 631 528 411 514 512 409 300 396
8 513 410 528 631 395 299 409 512
8 519 416 305 401 633 530 411 514
8 634 531 412 515 516 413 302 398
8 523 420 309 405 634 531 412 515
8 635 532 413 516 517 414 303 399
8 521 417 533 636 403 306 414 517
8 520 418 307 402 637 534 415 518
8 519 416 534 637 401 305 415 518
8 522 419 308 404 639 537 418 520
8 522 419 536 640 404 308 417 521
8 524 421 310 406 642 539 420 523
8 524 421 541 644 406 310 423 526
8 646 543 422 525 526 423 311 407
8 529 426 314 410 647 544 424 527
8 528 425 545 648 411 315 427 530
8 529 426 545 648 410 314 425 528
8 535 429 317 416 649 546 427 530
8 650 548 430 531 532 432 320 413
8 539 438 325 420 650 548 430 531
8 533 433 550 651 414 321 432 532
8 536 434 551 652 417 322 433 533
8 537 431 319 418 653 547 428 534
8 535 429 547 653 416 317 428 534
8 538 435 552 654 419 323 434 536
8 538 435 323 419 655 549 431 537
8 540 440 327 421 657 556 438 539
8 540 440 557 659 421 327 439 541
8 541 439 555 660 423 326 437 543
8 661 554 436 542 543 437 324 422
8 676 570 452 559 590 473 365 484
8 560 453 338 441 676 570 452 559
8 562 455 340 443 677 571 453 560
8 447 344 459 566 561 457 575 678
8 564 456 341 445 679 573 455 562
8 567 460 345 448 680 572 454 563
8 680 572 454 563 564 456 341 445
8 565 458 576 682 447 344 459 566
8 450 346 461 569 565 458 576 682
8 568 462 347 449 684 578 460 567
8 451 348 462 568 569 461 579 685
8 686 580 463 570 591 474 360 473
8 571 464 350 453 686 580 463 570
8 573 466 352 455 687 581 464 571
8 572 465 582 688 460 357 471 578
8 574 467 582 688 456 353 465 572
8 574 467 353 456 689 583 466 573
8 459 356 470 577 575 468 585 691
8 576 469 586 692 459 356 470 577
8 461 358 472 579 576 469 586 692
8 462 359 471 578 579 472 588 694
8 704 591 473 590 593 475 363 481
8 595 476 592 705 475 361 474 591
8 593 475 363 481 707 594 479 602
8 594 477 362 479 709 598 478 600
8 595 476 361 475 711 597 477 594
8 479 362 480 603 600 478 601 720
8 481 363 482 605 602 479 603 722
8 603 480 364 482 723 604 483 606
8 605 482 365 484 724 606 485 607
8 656 553 608 726 542 436 487 609
8 645 542 609 728 525 422 488 611
8 609 487 610 729 488 369 489 612
8 611 488 612 730 491 371 490 613
8 616 504 386 495 731 624 503 614
8 731 624 503 614 678 575 457 561
8 732 622 501 615 616 504 386 495
8 617 502 384 496 732 622 501 615
8 617 502 621 735 496 384 500 618
8 736 620 499 619 618 500 382 497
8 630 527 408 511 736 620 499 619
8 621 506 626 737 500 388 505 620
8 647 544 424 527 737 626 505 620
8 623 508 627 738 502 390 506 621
8 623 508 390 502 739 628 507 622
8 625 510 628 739 504 392 507 622
8 740 629 509 624 691 585 468 575
8 625 510 392 504 740 629 509 624
8 632 529 410 513 744 647 527 630
8 631 528 648 745 514 411 530 633
8 632 529 648 745 513 410 528 631
8 638 535 416 519 746 649 530 633
8 747 650 531 634 635 532 413 516
8 642 539 420 523 747 650 531 634
8 636 533 651 748 517 414 532 635
8 640 536 652 749 521 417 533 636
8 639 537 418 520 750 653 534 637
8 638 535 653 750 519 416 534 637
8 641 538 419 522 751 655 537 639
8 641 538 654 752 522 419 536 640
8 643 540 421 524 753 657 539 642
8 643 540 659 755 524 421 541 644
8 644 541 660 757 526 423 543 646
8 758 661 542 645 646 543 422 525
8 529 426 544 647 648 545 662 759
8 530 427 545 648 649 546 663 760
8 535 429 546 649 653 547 664 761
8 762 666 548 650 651 550 432 532
8 657 556 438 539 762 666 548 650
8 652 551 668 763 533 433 550 651
8 654 552 669 764 536 434 551 652
8 655 549 431 537 765 665 547 653
8 538 435 549 655 654 552 667 766
8 661 554 671 768 542 436 553 656
8 658 558 440 540 769 674 556 657
8 658 558 675 770 540 440 557 659
8 659 557 673 771 541 439 555 660
8 660 555 672 772 543 437 554 661
8 788 686 570 676 704 591 473 590
8 677 571 453 560 788 686 570 676
8 679 573 455 562 789 687 571 677
8 566 459 577 683 678 575 691 790
8 681 574 456 564 791 689 573 679
8 680 572 688 792 567 460 578 684
8 681 574 688 792 564 456 572 680
8 682 576 692 794 566 459 577 683
8 569 461 579 685 682 576 692 794
8 568 462 578 684 685 579 694 796
8 687 581 464 571 798 696 580 686
8 798 696 580 686 705 592 474 591
8 689 583 466 573 799 697 581 687
8 688 582 698 800 578 471 588 694
8 690 584 698 800 574 467 582 688
8 690 584 467 574 801 699 583 689
8 693 587 701 803 577 470 585 691
8 693 587 470 577 804 702 586 692
8 695 589 702 804 579 472 586 692
8 695 589 472 579 805 703 588 694
8 708 595 705 813 593 475 591 704
8 710 596 706 814 595 476 592 705
8 707 594 479 602 816 709 600 719
8 708 595 475 593 817 711 594 707
8 709 598 478 600 819 715 599 717
8 711 597 477 594 820 714 598 709
8 710 596 476 595 822 713 597 711
8 600 478 601 720 717 599 718 832
8 602 479 603 722 719 600 720 834
8 720 601 480 603 835 721 604 723
8 722 603 482 605 836 723 606 724
8 767 670 725 839 656 553 608 726
8 756 656 726 841 645 542 609 728
8 726 608 727 842 609 487 610 729
8 728 609 729 843 611 488 612 730
8 844 740 624 731 790 691 575 678
8 733 625 504 616 844 740 624 731
8 734 623 502 617 845 739 622 732
8 733 625 739 845 616 504 622 732
8 734 623 738 846 617 502 621 735
8 735 621 737 847 618 500 620 736
8 744 647 527 630 847 737 620 736
8 621 506 627 738 737 626 741 848
8 647 544 626 737 759 662 741 848
8 623 508 628 739 738 627 742 849
8 740 629 585 691 850 743 700 802
8 625 510 629 740 739 628 743 850
8 632 529 647 744 745 648 759 854
8 633 530 648 745 746 649 760 855
8 638 535 649 746 750 653 761 856
8 857 762 650 747 748 651 532 635
8 753 657 539 642 857 762 650 747
8 749 652 763 858 636 533 651 748
8 752 654 764 859 640 536 652 749
8 751 655 537 639 860 765 653 750
8 641 538 655 751 752 654 766 861
8 754 658 540 643 862 769 657 753
8 754 658 770 863 643 540 659 755
8 755 659 771 864 644 541 660 757
8 758 661 768 866 645 542 656 756
8 757 660 772 867 646 543 661 758
8 759 662 773 868 648 545 663 760
8 649 546 663 760 761 664 774 871
8 765 665 547 653 872 775 664 761
8 873 777 666 762 763 668 550 651
8 769 674 556 657 873 777 666 762
8 764 669 779 874 652 551 668 763
8 654 552 667 766 764 669 778 875
8 655 549 665 765 766 667 776 876
8 768 671 782 877 656 553 670 767
8 772 672 783 878 661 554 671 768
8 658 558 674 769 770 675 786 879
8 659 557 675 770 771 673 785 881
8 882 784 672 772 771 673 555 660
8 789 687 571 677 897 798 686 788
8 897 798 686 788 813 705 591 704
8 791 689 573 679 898 799 687 789
8 795 693 803 900 683 577 691 790
8 793 690 574 681 901 801 689 791
8 792 688 800 902 684 578 694 796
8 793 690 800 902 681 574 688 792
8 795 693 577 683 903 804 692 794
8 797 695 804 903 685 579 692 794
8 797 695 579 685 904 805 694 796
8 905 806 697 799 798 696 581 687
8 814 706 806 905 705 592 696 798
8 689 583 697 799 801 699 808 907
8 800 698 809 908 694 588 703 805
8 690 584 699 801 800 698 809 908
8 803 701 810 909 691 585 700 802
8 693 587 702 804 803 701 811 910
8 695 589 703 805 804 702 812 911
8 818 710 814 919 708 595 705 813
8 821 712 815 920 710 596 706 814
8 816 709 600 719 922 819 717 831
8 817 711 594 707 923 820 709 816
8 818 710 595 708 924 822 711 817
8 819 715 599 717 926 827 716 829
8 820 714 598 709 927 826 715 819
8 929 825 713 822 820 714 597 711
8 821 712 596 710 930 824 713 822
8 717 599 718 832 829 716 830 942
8 719 600 720 834 831 717 832 944
8 832 718 601 720 945 833 721 835
8 834 720 603 722 946 835 723 836
8 869 780 838 950 767 670 725 839
8 865 767 839 952 756 656 726 841
8 839 725 840 953 726 608 727 842
8 841 726 842 954 728 609 729 843
8 844 740 691 790 955 850 802 899
8 733 625 740 844 845 739 850 955
8 734 623 739 845 846 738 849 956
8 735 621 738 846 847 737 848 957
8 744 647 737 847 854 759 848 957
8 738 627 742 849 848 741 851 958
8 848 741 851 958 759 662 773 868
8 850 743 700 802 959 852 807 906
8 849 742 628 739 959 852 743 850
8 854 759 868 965 745 648 760 855
8 746 649 760 855 856 761 871 966
8 860 765 653 750 967 872 761 856
8 968 873 762 857 858 763 651 748
8 862 769 657 753 968 873 762 857
8 859 764 874 969 749 652 763 858
8 752 654 766 861 859 764 875 970
8 751 655 765 860 861 766 876 971
8 754 658 769 862 863 770 879 972
8 755 659 770 863 864 771 881 974
8 976 882 772 867 864 771 660 757
8 866 768 877 977 756 656 767 865
8 867 772 878 978 758 661 768 866
8 760 663 773 868 871 774 883 980
8 870 781 837 948 982 890 780 869
8 982 890 780 869 877 782 670 767
8 761 664 774 871 872 775 884 984
8 876 776 665 765 985 885 775 872
8 873 777 668 763 986 887 779 874
8 769 674 777 873 879 786 887 986
8 764 669 778 875 874 779 888 987
8 766 667 776 876 875 778 886 988
8 878 783 892 989 768 671 782 877
8 878 783 672 772 990 893 784 882
8 880 787 675 770 991 896 786 879
8 880 787 895 992 770 675 785 881
8 881 785 894 993 771 673 784 882
8 1006 905 799 898 897 798 687 789
8 919 814 905 1006 813 705 798 897
8 791 689 799 898 901 801 907 1007
8 900 803 909 1009 790 691 802 899
8 795 693 804 903 900 803 910 1010
8 902 800 908 1011 796 694 805 904
8 793 690 801 901 902 800 908 1011
8 797 695 805 904 903 804 911 1012
8 799 697 806 905 907 808 912 1013
8 920 815 912 1013 814 706 806 905
8 802 700 810 909 906 807 913 1014
8 801 699 808 907 908 809 914 1015
8 805 703 809 908 911 812 915 1016
8 803 701 811 910 909 810 916 1017
8 911 812 917 1018 804 702 811 910
8 925 821 920 1030 818 710 814 919
8 928 823 921 1031 821 712 815 920
8 922 819 717 831 1033 926 829 941
8 923 820 709 816 1034 927 819 922
8 1035 929 822 924 923 820 711 817
8 925 821 710 818 1036 930 822 924
8 1038 933 825 929 927 826 714 820
8 926 827 716 829 1039 935 828 939
8 927 826 715 819 1040 934 827 926
8 928 823 712 821 1041 931 824 930
8 1042 932 824 930 929 825 713 822
8 829 716 830 942 939 828 940 1058
8 831 717 832 944 941 829 942 1060
8 942 830 718 832 1061 943 833 945
8 944 832 720 834 1062 945 835 946
8 981 889 947 1064 870 781 837 948
8 948 837 949 1067 869 780 838 950
8 975 869 950 1069 865 767 839 952
8 950 838 951 1070 839 725 840 953
8 952 839 953 1071 841 726 842 954
8 955 850 802 899 1072 959 906 1008
8 956 849 739 845 1072 959 850 955
8 846 738 849 956 957 848 958 1073
8 957 848 958 1073 854 759 868 965
8 849 742 852 959 958 851 961 1076
8 960 853 961 1076 906 807 852 959
8 958 851 961 1076 868 773 883 980
8 960 853 807 906 1077 963 913 1014
8 855 760 868 965 966 871 980 1085
8 856 761 871 966 967 872 984 1086
8 971 876 765 860 1087 985 872 967
8 968 873 763 858 1088 986 874 969
8 862 769 873 968 972 879 986 1088
8 859 764 875 970 969 874 987 1089
8 861 766 876 971 970 875 988 1090
8 973 880 770 863 1091 991 879 972
8 973 880 992 1092 863 770 881 974
8 974 881 993 1093 864 771 882 976
8 979 870 948 1066 1094 982 869 975
8 1094 982 869 975 977 877 767 865
8 978 878 772 867 1095 990 882 976
8 978 878 989 1096 866 768 877 977
8 871 774 883 980 984 884 994 1099
8 983 891 999 1100 870 781 889 981
8 1101 1000 890 982 989 892 782 877
8 983 891 781 870 1101 1000 890 982
8 872 775 884 984 985 885 995 1103
8 876 776 885 985 988 886 996 1104
8 986 887 779 874 1105 998 888 987
8 879 786 887 986 991 896 998 1105
8 875 778 886 988 987 888 997 1106
8 990 893 1002 1107 878 783 892 989
8 1108 1003 893 990 993 894 784 882
8 880 787 896 991 992 895 1005 1109
8 993 894 785 881 1110 1004 895 992
8 898 799 905 1006 1007 907 1013 1120
8 1030 920 1013 1120 919 814 905 1006
8 901 801 907 1007 1011 908 1015 1121
8 899 802 909 1009 1008 906 1014 1122
8 900 803 910 1010 1009 909 1017 1123
8 1012 911 1018 1124 903 804 910 1010
8 904 805 908 1011 1012 911 1016 1125
8 1013 912 1020 1127 907 808 914 1015
8 1031 921 1020 1127 920 815 912 1013
8 1019 918 962 1075 1128 1021 913 1014
8 1128 1021 913 1014 1017 916 810 909
8 1015 914 1022 1129 908 809 915 1016
8 1016 915 1023 1130 911 812 917 1018
8 1018 917 1024 1131 910 811 916 1017
8 1037 928 1031 1148 925 821 920 1030
8 928 823 931 1041 1031 921 1032 1149
8 1033 926 829 941 1151 1039 939 1057
8 1034 927 819 922 1152 1040 926 1033
8 1153 1038 929 1035 1034 927 820 923
8 1154 1042 930 1036 1035 929 822 924
8 1037 928 821 925 1155 1041 930 1036
8 1039 935 828 939 1156 1047 938 1055
8 1157 1043 932 1042 1038 933 825 929
8 1038 933 826 927 1158 1045 934 1040
8 1040 934 827 926 1159 1046 935 1039
8 930 824 932 1042 1041 931 1044 1160
8 1051 936 1048 1165 1175 1052 937 1053
8 1156 1047 938 1055 1053 937 1054 1178
8 939 828 940 1058 1055 938 1056 1181
8 941 829 942 1060 1057 939 1058 1183
8 942 830 943 1061 1058 940 1059 1184
8 1060 942 832 944 1185 1061 945 1062
8 1082 964 1063 1188 981 889 947 1064
8 1097 981 1064 1190 979 870 948 1066
8 1064 947 1065 1191 948 837 949 1067
8 1066 948 1067 1193 975 869 950 1069
8 1067 949 1068 1194 950 838 951 1070
8 1069 950 1070 1195 952 839 953 1071
8 956 849 959 1072 1073 958 1076 1197
8 1074 960 1076 1197 1008 906 959 1072
8 1073 958 1076 1197 965 868 980 1085
8 1074 960 906 1008 1198 1077 1014 1122
8 1133 1026 1079 1199 1019 918 962 1075
8 1077 963 913 1014 1200 1080 962 1075
8 960 853 963 1077 1076 961 1078 1201
8 980 883 961 1076 1099 994 1078 1201
8 1210 1083 964 1082 1100 999 889 981
8 966 871 980 1085 1086 984 1099 1215
8 967 872 984 1086 1087 985 1103 1216
8 971 876 985 1087 1090 988 1104 1217
8 1088 986 874 969 1218 1105 987 1089
8 972 879 986 1088 1091 991 1105 1218
8 970 875 988 1090 1089 987 1106 1219
8 973 880 991 1091 1092 992 1109 1220
8 1093 993 881 974 1221 1110 992 1092
8 1222 1108 990 1095 1093 993 882 976
8 1223 1101 982 1094 1096 989 877 977
8 1098 983 870 979 1223 1101 982 1094
8 1095 990 1107 1224 978 878 989 1096
8 1098 983 1100 1225 979 870 981 1097
8 984 884 994 1099 1103 995 1111 1227
8 1102 1001 1115 1228 983 891 999 1100
8 1101 1000 892 989 1229 1116 1002 1107
8 1102 1001 891 983 1229 1116 1000 1101
8 985 885 995 1103 1104 996 1112 1230
8 988 886 996 1104 1106 997 1113 1231
8 1105 998 888 987 1232 1114 997 1106
8 991 896 998 1105 1109 1005 1114 1232
8 1108 1003 1117 1233 990 893 1002 1107
8 1108 1003 894 993 1233 1117 1004 1110
8 992 895 1005 1109 1110 1004 1118 1234
8 1120 1013 1127 1244 1007 907 1015 1121
8 1148 1031 1127 1244 1030 920 1013 1120
8 1121 1015 1129 1245 1011 908 1016 1125
8 1126 1019 1075 1196 1246 1128 1014 1122
8 1246 1128 1014 1122 1123 1017 909 1009
8 1124 1018 1131 1247 1010 910 1017 1123
8 1125 1016 1130 1248 1012 911 1018 1124
8 1127 1020 1137 1254 1015 914 1022 1129
8 1031 921 1032 1149 1127 1020 1137 1254
8 1134 1027 918 1019 1257 1140 1021 1128
8 1257 1140 1021 1128 1131 1024 916 1017
8 1129 1022 1141 1258 1016 915 1023 1130
8 1130 1023 1142 1259 1018 917 1024 1131
8 1261 1144 1025 1132 1133 1026 1079 1199
8 1255 1138 1025 1132 1135 1028 1144 1261
8 1133 1026 918 1019 1262 1145 1027 1134
8 1136 1029 1139 1256 1263 1146 1028 1135
8 1037 928 1041 1155 1148 1031 1149 1275
8 1041 931 1044 1160 1149 1032 1150 1276
8 1151 1039 939 1057 1278 1156 1055 1180
8 1152 1040 926 1033 1279 1159 1039 1151
8 1153 1038 927 1034 1280 1158 1040 1152
8 1281 1157 1042 1154 1153 1038 929 1035
8 1036 930 1042 1154 1155 1041 1160 1282
8 1283 1164 1046 1159 1156 1047 935 1039
8 1165 1048 1164 1283 1053 937 1047 1156
8 1157 1043 933 1038 1284 1161 1045 1158
8 1157 1043 1161 1284 1042 932 1044 1160
8 1040 934 1046 1159 1158 1045 1163 1285
8 1166 1049 1167 1292 1051 936 1048 1165
8 1166 1049 936 1051 1293 1168 1050 1172
8 1051 936 1052 1175 1172 1050 1173 1306
8 1174 1051 1165 1290 1308 1175 1053 1177
8 1053 937 1054 1178 1175 1052 1176 1309
8 1278 1156 1055 1180 1177 1053 1178 1311
8 1055 938 1056 1181 1178 1054 1179 1312
8 1057 939 1058 1183 1180 1055 1181 1314
8 1058 940 1059 1184 1181 1056 1182 1315
8 1060 942 1061 1185 1183 1058 1184 1316
8 1208 1081 1187 1321 1082 964 1063 1188
8 1209 1082 1188 1322 1097 981 1064 1190
8 1188 1063 1189 1323 1064 947 1065 1191
8 1190 1064 1191 1325 1066 948 1067 1193
8 1191 1065 1192 1326 1067 949 1068 1194
8 1067 1193 1069 950 1194 1327 1195 1070
8 1250 1133 1199 1330 1126 1019 1075 1196
8 1198 1077 1014 1122 1331 1200 1075 1196
8 1074 960 1077 1198 1197 1076 1201 1332
8 1085 980 1076 1197 1215 1099 1201 1332
8 1199 1079 1203 1333 1075 962 1080 1200
8 1132 1025 1119 1243 1199 1079 1203 1333
8 1201 1078 963 1077 1334 1202 1080 1200
8 1099 994 1078 1201 1227 1111 1202 1334
8 1343 1207 1081 1208 1210 1083 964 1082
8 1214 1084 1186 1319 1343 1207 1081 1208
8 1345 1210 1082 1209 1225 1100 981 1097
8 1346 1211 1083 1210 1228 1115 999 1100
8 1086 984 1099 1215 1216 1103 1227 1352
8 1087 985 1103 1216 1217 1104 1230 1353
8 1090 988 1104 1217 1219 1106 1231 1354
8 1218 1105 987 1089 1355 1232 1106 1219
8 1091 991 1105 1218 1220 1109 1232 1355
8 1092 992 1109 1220 1221 1110 1234 1356
8 1222 1108 1233 1357 1095 990 1107 1224
8 1222 1108 993 1093 1357 1233 1110 1221
8 1223 1101 989 1096 1358 1229 1107 1224
8 1226 1102 983 1098 1358 1229 1101 1223
8 1226 1102 1228 1359 1098 983 1100 1225
8 1103 995 1111 1227 1230 1112 1235 1360
8 1107 1002 1117 1233 1229 1116 1240 1362
8 1102 1001 1116 1229 1228 1115 1240 1362
8 1104 996 1112 1230 1231 1113 1236 1363
8 1364 1237 1114 1232 1231 1113 997 1106
8 1109 1005 1114 1232 1234 1118 1238 1365
8 1110 1004 1118 1234 1233 1117 1241 1366
8 1242 1374 1255 1138 1119 1243 1132 1025
8 1244 1127 1254 1376 1121 1015 1129 1245
8 1148 1031 1149 1275 1244 1127 1254 1376
8 1245 1129 1258 1377 1125 1016 1130 1248
8 1251 1134 1019 1126 1378 1257 1128 1246
8 1378 1257 1128 1246 1247 1131 1017 1123
8 1248 1130 1259 1379 1124 1018 1131 1247
8 1261 1381 1250 1133 1132 1249 1330 1199
8 1255 1380 1252 1135 1132 1249 1381 1261
8 1250 1133 1019 1126 1382 1262 1134 1251
8 1253 1136 1256 1385 1384 1263 1135 1252
8 1254 1137 1265 1387 1129 1022 1141 1258
8 1149 1032 1150 1276 1254 1137 1265 1387
8 1028 1135 1255 1138 1139 1256 1388 1266
8 1136 1029 1147 1264 1256 1139 1267 1389
8 1390 1268 1140 1257 1259 1142 1024 1131
8 1260 1143 1027 1134 1390 1268 1140 1257
8 1258 1141 1269 1391 1130 1023 1142 1259
8 1262 1145 1027 1134 1393 1271 1143 1260
8 1261 1144 1026 1133 1394 1272 1145 1262
8 1135 1028 1144 1261 1263 1146 1272 1394
8 1136 1029 1146 1263 1264 1147 1273 1395
8 1155 1041 1160 1282 1275 1149 1276 1405
8 1276 1150 1044 1160 1406 1277 1162 1286
8 1408 1283 1159 1279 1278 1156 1039 1151
8 1290 1165 1283 1408 1177 1053 1156 1278
8 1152 1040 1159 1279 1280 1158 1285 1409
8 1281 1157 1038 1153 1410 1284 1158 1280
8 1281 1157 1284 1410 1154 1042 1160 1282
8 1159 1046 1164 1283 1285 1163 1289 1412
8 1292 1167 1289 1412 1165 1048 1164 1283
8 1158 1045 1163 1285 1284 1161 1288 1413
8 1284 1161 1288 1413 1160 1044 1162 1286
8 1291 1166 1292 1418 1174 1051 1165 1290
8 1291 1166 1051 1174 1419 1293 1172 1305
8 1294 1169 1296 1421 1166 1049 1167 1292
8 1293 1168 1050 1172 1422 1295 1171 1303
8 1294 1169 1049 1166 1423 1297 1168 1293
8 1422 1295 1171 1303 1301 1170 1302 1435
8 1172 1050 1173 1306 1303 1171 1304 1438
8 1174 1051 1175 1308 1305 1172 1306 1440
8 1175 1052 1176 1309 1306 1173 1307 1441
8 1177 1053 1178 1311 1308 1175 1309 1443
8 1178 1054 1179 1312 1309 1176 1310 1444
8 1180 1055 1181 1314 1311 1178 1312 1446
8 1056 1181 1312 1179 1182 1315 1447 1313
8 1183 1058 1184 1316 1314 1181 1315 1448
8 1319 1186 1084 1214 1451 1317 1213 1350
8 1319 1186 1318 1453 1208 1081 1187 1321
8 1321 1187 1320 1456 1188 1063 1189 1323
8 1344 1208 1321 1457 1209 1082 1188 1322
8 1322 1188 1323 1458 1190 1064 1191 1325
8 1323 1189 1324 1459 1191 1065 1192 1326
8 1191 1325 1193 1067 1326 1460 1327 1194
8 1242 1374 1243 1119 1328 1462 1335 1204
8 1330 1199 1333 1465 1196 1075 1200 1331
8 1132 1249 1330 1199 1243 1375 1465 1333
8 1332 1201 1077 1198 1466 1334 1200 1331
8 1215 1099 1201 1332 1352 1227 1334 1466
8 1119 1243 1333 1203 1204 1335 1470 1338
8 1333 1203 1338 1470 1200 1080 1202 1334
8 1227 1111 1202 1334 1360 1235 1338 1470
8 1328 1462 1335 1204 1205 1336 1471 1339
8 1337 1206 1340 1472 1464 1329 1205 1336
8 1346 1211 1342 1479 1210 1083 1207 1343
8 1346 1211 1115 1228 1479 1342 1239 1361
8 1348 1212 1084 1214 1479 1342 1207 1343
8 1480 1343 1208 1344 1345 1210 1082 1209
8 1351 1214 1319 1454 1480 1343 1208 1344
8 1481 1346 1210 1345 1359 1228 1100 1225
8 1348 1212 1347 1483 1214 1084 1213 1350
8 1216 1103 1227 1352 1353 1230 1360 1488
8 1217 1104 1230 1353 1354 1231 1363 1489
8 1490 1364 1232 1355 1354 1231 1106 1219
8 1220 1109 1232 1355 1356 1234 1365 1491
8 1221 1110 1234 1356 1357 1233 1366 1492
8 1224 1107 1233 1357 1358 1229 1362 1493
8 1226 1102 1229 1358 1359 1228 1362 1493
8 1230 1112 1235 1360 1363 1236 1367 1496
8 1361 1239 1115 1228 1497 1371 1240 1362
8 1366 1241 1372 1498 1233 1117 1240 1362
8 1364 1237 1113 1231 1499 1368 1236 1363
8 1364 1237 1368 1499 1232 1114 1238 1365
8 1234 1118 1238 1365 1366 1241 1369 1500
8 1507 1373 1242 1374 1388 1266 1138 1255
8 1508 1374 1243 1375 1380 1255 1132 1249
8 1376 1254 1387 1509 1245 1129 1258 1377
8 1275 1149 1276 1405 1376 1254 1387 1509
8 1377 1258 1391 1510 1248 1130 1259 1379
8 1511 1390 1257 1378 1379 1259 1131 1247
8 1383 1260 1134 1251 1511 1390 1257 1378
8 1252 1135 1256 1385 1380 1255 1388 1512
8 1261 1381 1513 1394 1133 1250 1382 1262
8 1135 1252 1384 1263 1261 1381 1513 1394
8 1382 1262 1134 1251 1514 1393 1260 1383
8 1253 1136 1263 1384 1386 1264 1395 1516
8 1253 1136 1264 1386 1385 1256 1389 1517
8 1387 1265 1397 1519 1258 1141 1269 1391
8 1276 1150 1277 1406 1387 1265 1397 1519
8 1256 1139 1267 1389 1388 1266 1398 1520
8 1264 1147 1274 1396 1389 1267 1399 1521
8 1392 1270 1143 1260 1522 1400 1268 1390
8 1390 1268 1142 1259 1522 1400 1269 1391
8 1392 1270 1401 1523 1260 1143 1271 1393
8 1272 1394 1524 1402 1145 1262 1393 1271
8 1395 1273 1146 1263 1524 1402 1272 1394
8 1273 1395 1264 1147 1403 1526 1396 1274
8 1405 1276 1160 1282 1534 1406 1286 1411
8 1414 1287 1407 1535 1286 1162 1277 1406
8 1279 1159 1283 1408 1409 1285 1412 1537
8 1418 1292 1412 1537 1290 1165 1283 1408
8 1280 1158 1285 1409 1410 1284 1413 1538
8 1410 1284 1413 1538 1282 1160 1286 1411
8 1285 1163 1289 1412 1413 1288 1417 1540
8 1421 1296 1417 1540 1292 1167 1289 1412
8 1414 1287 1162 1286 1541 1416 1288 1413
8 1420 1294 1421 1545 1291 1166 1292 1418
8 1419 1293 1172 1305 1546 1422 1303 1437
8 1420 1294 1166 1291 1547 1423 1293 1419
8 1294 1169 1297 1423 1421 1296 1425 1548
8 1423 1297 1168 1293 1549 1424 1295 1422
8 1301 1170 1298 1427 1422 1295 1424 1549
8 1432 1300 1428 1554 1301 1170 1298 1427
8 1431 1299 1428 1554 1560 1430 1300 1432
8 1563 1433 1300 1432 1435 1302 1170 1301
8 1546 1422 1303 1437 1434 1301 1435 1565
8 1303 1171 1304 1438 1435 1302 1436 1566
8 1305 1172 1306 1440 1437 1303 1438 1568
8 1306 1173 1307 1441 1438 1304 1439 1569
8 1308 1175 1309 1443 1440 1306 1441 1571
8 1309 1176 1310 1444 1441 1307 1442 1572
8 1311 1178 1312 1446 1443 1309 1444 1574
8 1179 1312 1444 1310 1313 1447 1575 1445
8 1314 1181 1315 1448 1446 1312 1447 1576
8 1350 1213 1349 1486 1451 1317 1449 1579
8 1451 1317 1450 1581 1319 1186 1318 1453
8 1454 1319 1214 1351 1582 1451 1350 1487
8 1453 1318 1452 1584 1321 1187 1320 1456
8 1454 1319 1453 1585 1344 1208 1321 1457
8 1456 1320 1455 1586 1323 1189 1324 1459
8 1457 1321 1456 1587 1322 1188 1323 1458
8 1458 1323 1459 1588 1325 1191 1326 1460
8 1205 1336 1464 1329 1328 1462 1590 1461
8 1507 1373 1461 1590 1374 1242 1328 1462
8 1508 1374 1462 1591 1375 1243 1335 1467
8 1337 1206 1329 1464 1473 1341 1463 1594
8 1375 1243 1335 1467 1465 1333 1470 1596
8 1465 1333 1470 1596 1331 1200 1334 1466
8 1352 1227 1334 1466 1488 1360 1470 1596
8 1591 1462 1336 1468 1467 1335 1471 1597
8 1469 1337 1472 1598 1595 1464 1336 1468
8 1471 1339 1474 1600 1335 1204 1338 1470
8 1600 1474 1367 1496 1470 1338 1235 1360
8 1336 1205 1340 1472 1471 1339 1475 1601
8 1337 1206 1341 1473 1472 1340 1476 1602
8 1495 1370 1478 1609 1361 1239 1342 1479
8 1348 1212 1342 1479 1483 1347 1478 1609
8 1481 1346 1479 1610 1345 1210 1343 1480
8 1481 1346 1228 1359 1610 1479 1361 1494
8 1484 1348 1214 1351 1610 1479 1343 1480
8 1483 1347 1482 1612 1350 1213 1349 1486
8 1484 1348 1483 1613 1351 1214 1350 1487
8 1353 1230 1360 1488 1489 1363 1496 1616
8 1490 1364 1231 1354 1617 1499 1363 1489
8 1490 1364 1499 1617 1355 1232 1365 1491
8 1356 1234 1365 1491 1492 1366 1500 1619
8 1492 1366 1498 1620 1357 1233 1362 1493
8 1494 1361 1228 1359 1621 1497 1362 1493
8 1495 1370 1239 1361 1622 1504 1371 1497
8 1363 1236 1367 1496 1499 1368 1501 1623
8 1497 1371 1240 1362 1624 1505 1372 1498
8 1625 1503 1372 1498 1500 1369 1241 1366
8 1365 1238 1368 1499 1500 1369 1502 1626
8 1520 1398 1506 1633 1388 1266 1373 1507
8 1634 1507 1374 1508 1512 1388 1255 1380
8 1509 1387 1519 1635 1377 1258 1391 1510
8 1405 1276 1406 1534 1509 1387 1519 1635
8 1515 1392 1260 1383 1636 1522 1390 1511
8 1511 1390 1259 1379 1636 1522 1391 1510
8 1385 1256 1389 1517 1512 1388 1520 1637
8 1513 1394 1262 1382 1638 1524 1393 1514
8 1395 1516 1638 1524 1263 1384 1513 1394
8 1515 1392 1523 1639 1383 1260 1393 1514
8 1516 1395 1526 1640 1386 1264 1396 1518
8 1386 1264 1396 1518 1517 1389 1521 1641
8 1519 1397 1527 1643 1391 1269 1400 1522
8 1535 1407 1527 1643 1406 1277 1397 1519
8 1389 1267 1399 1521 1520 1398 1528 1644
8 1645 1529 1399 1521 1525 1404 1274 1396
8 1392 1270 1400 1522 1523 1401 1531 1646
8 1524 1402 1271 1393 1648 1532 1401 1523
8 1403 1526 1648 1532 1273 1395 1524 1402
8 1525 1404 1274 1396 1649 1533 1403 1526
8 1539 1414 1535 1657 1411 1286 1406 1534
8 1542 1415 1536 1658 1414 1287 1407 1535
8 1409 1285 1412 1537 1538 1413 1540 1660
8 1545 1421 1540 1660 1418 1292 1412 1537
8 1539 1414 1286 1411 1661 1541 1413 1538
8 1540 1417 1544 1663 1413 1288 1416 1541
8 1421 1296 1425 1548 1540 1417 1544 1663
8 1542 1415 1287 1414 1664 1543 1416 1541
8 1420 1294 1423 1547 1545 1421 1548 1666
8 1547 1423 1293 1419 1667 1549 1422 1546
8 1434 1301 1427 1553 1546 1422 1549 1667
8 1423 1297 1424 1549 1548 1425 1550 1668
8 1551 1426 1550 1668 1427 1298 1424 1549
8 1551 1426 1298 1427 1671 1552 1428 1554
8 1562 1432 1554 1674 1434 1301 1427 1553
8 1431 1299 1429 1558 1554 1428 1555 1675
8 1431 1299 1430 1560 1558 1429 1557 1680
8 1560 1430 1300 1432 1683 1559 1433 1563
8 1561 1431 1554 1674 1684 1560 1432 1562
8 1685 1563 1432 1562 1565 1435 1301 1434
8 1435 1302 1436 1566 1563 1433 1564 1686
8 1437 1303 1438 1568 1565 1435 1566 1688
8 1438 1304 1439 1569 1566 1436 1567 1689
8 1440 1306 1441 1571 1568 1438 1569 1691
8 1441 1307 1442 1572 1569 1439 1570 1692
8 1443 1309 1444 1574 1571 1441 1572 1694
8 1310 1444 1572 1442 1445 1575 1695 1573
8 1446 1312 1447 1576 1574 1444 1575 1696
8 1486 1349 1485 1614 1579 1449 1577 1699
8 1451 1317 1449 1579 1581 1450 1578 1701
8 1487 1350 1486 1615 1582 1451 1579 1702
8 1581 1450 1580 1704 1453 1318 1452 1584
8 1582 1451 1581 1705 1454 1319 1453 1585
8 1584 1452 1583 1706 1456 1320 1455 1586
8 1585 1453 1584 1707 1457 1321 1456 1587
8 1587 1456 1586 1708 1458 1323 1459 1588
8 1633 1506 1589 1710 1507 1373 1461 1590
8 1464 1329 1461 1590 1594 1463 1589 1710
8 1468 1336 1462 1591 1595 1464 1590 1711
8 1634 1507 1590 1711 1508 1374 1462 1591
8 1473 1341 1463 1594 1603 1477 1593 1716
8 1469 1337 1464 1595 1599 1473 1594 1717
8 1471 1597 1467 1335 1600 1718 1596 1470
8 1718 1600 1496 1616 1596 1470 1360 1488
8 1336 1468 1597 1471 1472 1598 1719 1601
8 1469 1337 1473 1599 1598 1472 1602 1720
8 1722 1604 1501 1623 1600 1474 1367 1496
8 1475 1601 1471 1339 1604 1722 1600 1474
8 1602 1476 1605 1723 1472 1340 1475 1601
8 1476 1602 1724 1606 1341 1473 1603 1477
8 1483 1347 1478 1609 1612 1482 1608 1731
8 1495 1370 1504 1622 1609 1478 1608 1731
8 1618 1495 1609 1732 1494 1361 1479 1610
8 1484 1348 1479 1610 1613 1483 1609 1732
8 1486 1349 1482 1612 1614 1485 1611 1733
8 1613 1483 1612 1734 1487 1350 1486 1615
8 1489 1363 1496 1616 1617 1499 1623 1736
8 1491 1365 1499 1617 1619 1500 1626 1737
8 1618 1495 1361 1494 1738 1622 1497 1621
8 1739 1625 1498 1620 1619 1500 1366 1492
8 1621 1497 1362 1493 1740 1624 1498 1620
8 1742 1631 1504 1622 1624 1505 1371 1497
8 1743 1628 1502 1626 1623 1501 1368 1499
8 1744 1630 1505 1624 1625 1503 1372 1498
8 1745 1629 1503 1625 1626 1502 1369 1500
8 1520 1398 1528 1644 1633 1506 1632 1751
8 1637 1520 1633 1752 1512 1388 1507 1634
8 1635 1519 1643 1753 1510 1391 1522 1636
8 1657 1535 1643 1753 1534 1406 1519 1635
8 1515 1392 1522 1636 1639 1523 1646 1754
8 1517 1389 1521 1641 1637 1520 1644 1755
8 1524 1638 1756 1648 1393 1514 1639 1523
8 1640 1526 1395 1516 1756 1648 1524 1638
8 1642 1525 1396 1518 1757 1649 1526 1640
8 1758 1645 1521 1641 1642 1525 1396 1518
8 1646 1531 1400 1522 1760 1650 1527 1643
8 1535 1407 1536 1658 1643 1527 1650 1760
8 1521 1399 1529 1645 1644 1528 1651 1761
8 1647 1530 1652 1762 1525 1404 1529 1645
8 1401 1523 1648 1532 1531 1646 1763 1655
8 1525 1404 1533 1649 1647 1530 1654 1765
8 1533 1649 1766 1656 1403 1526 1648 1532
8 1662 1542 1658 1774 1539 1414 1535 1657
8 1542 1415 1543 1664 1658 1536 1659 1775
8 1660 1540 1663 1777 1538 1413 1541 1661
8 1545 1421 1548 1666 1660 1540 1663 1777
8 1662 1542 1414 1539 1778 1664 1541 1661
8 1664 1543 1416 1541 1779 1665 1544 1663
8 1548 1425 1550 1668 1663 1544 1665 1779
8 1547 1423 1549 1667 1666 1548 1668 1781
8 1670 1551 1668 1781 1553 1427 1549 1667
8 1551 1426 1552 1671 1668 1550 1669 1782
8 1670 1551 1427 1553 1784 1671 1554 1674
8 1675 1555 1672 1785 1554 1428 1552 1671
8 1678 1556 1673 1789 1558 1429 1555 1675
8 1561 1431 1558 1681 1674 1554 1675 1790
8 1794 1677 1556 1678 1680 1557 1429 1558
8 1560 1430 1559 1683 1680 1557 1679 1797
8 1561 1431 1560 1684 1681 1558 1680 1798
8 1563 1433 1564 1686 1683 1559 1682 1800
8 1684 1560 1432 1562 1801 1683 1563 1685
8 1565 1435 1566 1688 1685 1563 1686 1802
8 1566 1436 1567 1689 1686 1564 1687 1803
8 1568 1438 1569 1691 1688 1566 1689 1805
8 1569 1439 1570 1692 1689 1567 1690 1806
8 1571 1441 1572 1694 1691 1569 1692 1808
8 1442 1572 1692 1570 1573 1695 1809 1693
8 1574 1444 1575 1696 1694 1572 1695 1810
8 1614 1485 1592 1712 1699 1577 1697 1813
8 1579 1449 1577 1699 1701 1578 1698 1815
8 1615 1486 1614 1735 1702 1579 1699 1816
8 1701 1578 1700 1818 1581 1450 1580 1704
8 1582 1451 1579 1702 1705 1581 1701 1819
8 1704 1580 1703 1820 1584 1452 1583 1706
8 1705 1581 1704 1821 1585 1453 1584 1707
8 1707 1584 1706 1822 1587 1456 1586 1708
8 1710 1589 1506 1633 1824 1709 1632 1751
8 1594 1463 1589 1710 1716 1593 1709 1824
8 1752 1633 1710 1825 1634 1507 1590 1711
8 1595 1464 1590 1711 1717 1594 1710 1825
8 1830 1714 1592 1712 1733 1611 1485 1614
8 1603 1477 1593 1716 1725 1607 1715 1834
8 1599 1473 1594 1717 1721 1603 1716 1835
8 1837 1722 1623 1736 1718 1600 1496 1616
8 1719 1601 1722 1837 1597 1471 1600 1718
8 1602 1720 1598 1472 1723 1838 1719 1601
8 1720 1602 1473 1599 1839 1724 1603 1721
8 1723 1605 1726 1840 1601 1475 1604 1722
8 1840 1726 1628 1743 1722 1604 1501 1623
8 1724 1606 1727 1841 1602 1476 1605 1723
8 1725 1607 1728 1842 1603 1477 1606 1724
8 1612 1482 1608 1731 1733 1611 1730 1849
8 1741 1627 1730 1849 1622 1504 1608 1731
8 1613 1483 1609 1732 1734 1612 1731 1850
8 1618 1495 1622 1738 1732 1609 1731 1850
8 1615 1486 1612 1734 1735 1614 1733 1851
8 1852 1743 1626 1737 1736 1623 1499 1617
8 1853 1745 1625 1739 1737 1626 1500 1619
8 1855 1742 1622 1738 1740 1624 1497 1621
8 1856 1744 1624 1740 1739 1625 1498 1620
8 1741 1627 1504 1622 1857 1746 1631 1742
8 1742 1631 1505 1624 1858 1749 1630 1744
8 1859 1747 1629 1745 1743 1628 1502 1626
8 1860 1748 1630 1744 1745 1629 1503 1625
8 1644 1528 1651 1761 1751 1632 1750 1865
8 1637 1520 1644 1755 1752 1633 1751 1866
8 1754 1646 1522 1636 1867 1760 1643 1753
8 1657 1535 1658 1774 1753 1643 1760 1867
8 1639 1523 1646 1754 1756 1648 1763 1868
8 1641 1521 1645 1758 1755 1644 1761 1869
8 1757 1649 1526 1640 1870 1766 1648 1756
8 1642 1525 1649 1757 1759 1647 1765 1871
8 1759 1647 1762 1872 1642 1525 1645 1758
8 1760 1650 1767 1874 1646 1531 1655 1763
8 1658 1536 1659 1775 1760 1650 1767 1874
8 1762 1652 1768 1875 1645 1529 1651 1761
8 1764 1653 1769 1876 1647 1530 1652 1762
8 1656 1766 1877 1773 1532 1648 1763 1655
8 1771 1879 1765 1654 1653 1764 1647 1530
8 1533 1649 1765 1654 1656 1766 1880 1772
8 1662 1542 1664 1778 1774 1658 1775 1887
8 1664 1543 1665 1779 1775 1659 1776 1888
8 1778 1664 1541 1661 1890 1779 1663 1777
8 1666 1548 1668 1781 1777 1663 1779 1890
8 1782 1669 1780 1891 1668 1550 1665 1779
8 1670 1551 1671 1784 1781 1668 1782 1893
8 1671 1552 1672 1785 1782 1669 1783 1894
8 1790 1675 1785 1896 1674 1554 1671 1784
8 1675 1555 1673 1789 1785 1672 1786 1897
8 1792 1676 1788 1903 1678 1556 1673 1789
8 1795 1678 1789 1904 1681 1558 1675 1790
8 1792 1676 1556 1678 1906 1791 1677 1794
8 1680 1557 1679 1797 1794 1677 1793 1909
8 1910 1794 1678 1795 1798 1680 1558 1681
8 1683 1559 1682 1800 1797 1679 1796 1912
8 1684 1560 1683 1801 1798 1680 1797 1913
8 1686 1564 1687 1803 1800 1682 1799 1915
8 1685 1563 1686 1802 1801 1683 1800 1916
8 1688 1566 1689 1805 1802 1686 1803 1917
8 1689 1567 1690 1806 1803 1687 1804 1918
8 1691 1569 1692 1808 1805 1689 1806 1920
8 1692 1570 1693 1809 1806 1690 1807 1921
8 1694 1572 1695 1810 1808 1692 1809 1922
8 1829 1713 1811 1926 1712 1592 1697 1813
8 1813 1697 1812 1928 1699 1577 1698 1815
8 1735 1614 1712 1828 1816 1699 1813 1929
8 1815 1698 1814 1931 1701 1578 1700 1818
8 1702 1579 1699 1816 1819 1701 1815 1932
8 1818 1700 1817 1933 1704 1580 1703 1820
8 1819 1701 1818 1934 1705 1581 1704 1821
8 1821 1704 1820 1935 1707 1584 1706 1822
8 1824 1709 1632 1751 1937 1823 1750 1865
8 1716 1593 1709 1824 1834 1715 1823 1937
8 1825 1710 1633 1752 1938 1824 1751 1866
8 1717 1594 1710 1825 1835 1716 1824 1938
8 1945 1830 1712 1828 1851 1733 1614 1735
8 1830 1714 1831 1946 1712 1592 1713 1829
8 1947 1832 1714 1830 1849 1730 1611 1733
8 1843 1729 1607 1725 1950 1833 1715 1834
8 1721 1603 1716 1835 1836 1725 1834 1951
8 1836 1725 1842 1953 1721 1603 1724 1839
8 1723 1838 1719 1601 1840 1954 1837 1722
8 1954 1840 1743 1852 1837 1722 1623 1736
8 1724 1839 1720 1602 1841 1955 1838 1723
8 1841 1727 1844 1956 1723 1605 1726 1840
8 1956 1844 1747 1859 1840 1726 1628 1743
8 1728 1842 1724 1606 1845 1957 1841 1727
8 1725 1607 1729 1843 1842 1728 1846 1958
8 1741 1627 1746 1857 1849 1730 1848 1965
8 1734 1612 1731 1850 1851 1733 1849 1966
8 1854 1741 1849 1966 1738 1622 1731 1850
8 1967 1859 1745 1853 1852 1743 1626 1737
8 1968 1860 1744 1856 1853 1745 1625 1739
8 1854 1741 1622 1738 1969 1857 1742 1855
8 1855 1742 1624 1740 1970 1858 1744 1856
8 1857 1746 1631 1742 1971 1861 1749 1858
8 1858 1749 1630 1744 1972 1863 1748 1860
8 1859 1747 1862 1973 1745 1629 1748 1860
8 1875 1768 1864 1977 1761 1651 1750 1865
8 1755 1644 1761 1869 1866 1751 1865 1978
8 1867 1760 1874 1979 1754 1646 1763 1868
8 1774 1658 1775 1887 1867 1760 1874 1979
8 1870 1766 1648 1756 1980 1877 1763 1868
8 1872 1762 1875 1981 1758 1645 1761 1869
8 1757 1649 1766 1870 1871 1765 1880 1982
8 1983 1879 1764 1873 1871 1765 1647 1759
8 1873 1764 1876 1984 1759 1647 1762 1872
8 1877 1773 1655 1763 1986 1881 1767 1874
8 1775 1659 1776 1888 1874 1767 1881 1986
8 1876 1769 1882 1987 1762 1652 1768 1875
8 1878 1770 1883 1988 1764 1653 1769 1876
8 1880 1772 1656 1766 1989 1886 1773 1877
8 1878 1770 1653 1764 1990 1884 1771 1879
8 1765 1654 1772 1880 1879 1771 1885 1991
8 1778 1664 1779 1890 1887 1775 1888 1997
8 1998 1889 1776 1888 1891 1780 1665 1779
8 1893 1782 1891 2000 1781 1668 1779 1890
8 1894 1783 1892 2001 1782 1669 1780 1891
8 1784 1671 1785 1896 1893 1782 1894 2003
8 1897 1786 1895 2004 1785 1672 1783 1894
8 1790 1675 1789 1904 1896 1785 1897 2006
8 1901 1787 1898 2007 1789 1673 1786 1897
8 1903 1788 1900 2013 1789 1673 1787 1901
8 1792 1676 1791 1906 1903 1788 1902 2016
8 1907 1792 1903 2017 1795 1678 1789 1904
8 1906 1791 1677 1794 2019 1905 1793 1909
8 1907 1792 1678 1795 2020 1906 1794 1910
8 1797 1679 1796 1912 1909 1793 1908 2022
8 1798 1680 1797 1913 1910 1794 1909 2023
8 1800 1682 1799 1915 1912 1796 1911 2025
8 1801 1683 1800 1916 1913 1797 1912 2026
8 1803 1687 1804 1918 1915 1799 1914 2028
8 1802 1686 1803 1917 1916 1800 1915 2029
8 1805 1689 1806 1920 1917 1803 1918 2030
8 1806 1690 1807 1921 1918 1804 1919 2031
8 1808 1692 1809 1922 1920 1806 1921 2032
8 1939 1826 1924 2037 1829 1713 1811 1926
8 1926 1811 1925 2039 1813 1697 1812 1928
8 1944 1829 1926 2040 1828 1712 1813 1929
8 1928 1812 1927 2042 1815 1698 1814 1931
8 1929 1813 1928 2043 1816 1699 1815 1932
8 1931 1814 1930 2044 1818 1700 1817 1933
8 1932 1815 1931 2045 1819 1701 1818 1934
8 1934 1818 1933 2046 1821 1704 1820 1935
8 2048 1936 1823 1937 1977 1864 1750 1865
8 1950 1833 1715 1834 2048 1936 1823 1937
8 1938 1824 1751 1866 2049 1937 1865 1978
8 1835 1716 1824 1938 1951 1834 1937 2049
8 1939 1826 1713 1829 2053 1942 1831 1946
8 1940 1827 1923 2035 2053 1942 1826 1939
8 1945 1830 1946 2058 1828 1712 1829 1944
8 2059 1947 1830 1945 1966 1849 1733 1851
8 1947 1832 1730 1849 2060 1948 1848 1965
8 1947 1832 1948 2060 1830 1714 1831 1946
8 1959 1847 1729 1843 2063 1949 1833 1950
8 1952 1843 1725 1836 2064 1950 1834 1951
8 1836 1725 1843 1952 1953 1842 1958 2066
8 1953 1842 1957 2067 1839 1724 1841 1955
8 1841 1955 1838 1723 1956 2068 1954 1840
8 2068 1956 1859 1967 1954 1840 1743 1852
8 1956 1844 1960 2069 1859 1747 1862 1973
8 1845 1957 1841 1727 1960 2069 1956 1844
8 1728 1842 1957 1845 1846 1958 2071 1961
8 1962 2072 1959 1847 1846 1958 1843 1729
8 1971 1861 1964 2077 1857 1746 1848 1965
8 1854 1741 1857 1969 1966 1849 1965 2078
8 1967 1859 1973 2079 1853 1745 1860 1968
8 1970 1858 1744 1856 2080 1972 1860 1968
8 1969 1857 1742 1855 2081 1971 1858 1970
8 1971 1861 1749 1858 2082 1974 1863 1972
8 1973 1862 1975 2083 1860 1748 1863 1972
8 1987 1882 1976 2086 1875 1768 1864 1977
8 1981 1875 1977 2087 1869 1761 1865 1978
8 1980 1877 1763 1868 2088 1986 1874 1979
8 1887 1775 1888 1997 1979 1874 1986 2088
8 1880 1982 2089 1989 1766 1870 1980 1877
8 1984 1876 1987 2090 1872 1762 1875 1981
8 1765 1871 1983 1879 1880 1982 2091 1991
8 1985 1878 1764 1873 2092 1990 1879 1983
8 1985 1878 1988 2093 1873 1764 1876 1984
8 2094 1992 1881 1986 1998 1889 1776 1888
8 1986 1881 1992 2094 1877 1773 1886 1989
8 1988 1883 1993 2095 1876 1769 1882 1987
8 1878 1770 1884 1990 1988 1883 1994 2096
8 1991 1885 1772 1880 2097 1996 1886 1989
8 1879 1771 1885 1991 1990 1884 1995 2098
8 2103 1998 1888 1997 2000 1891 1779 1890
8 2104 1999 1889 1998 2001 1892 1780 1891
8 2003 1894 2001 2106 1893 1782 1891 2000
8 2004 1895 2002 2107 1894 1783 1892 2001
8 2006 1897 2004 2109 1896 1785 1894 2003
8 2007 1898 2005 2110 1897 1786 1895 2004
8 2014 1901 2007 2112 1904 1789 1897 2006
8 2011 1899 2008 2113 1901 1787 1898 2007
8 2119 2010 1899 2011 2013 1900 1787 1901
8 2016 1902 2012 2122 1903 1788 1900 2013
8 2017 1903 2013 2123 1904 1789 1901 2014
8 1906 1791 1905 2019 2016 1902 2015 2125
8 1907 1792 1906 2020 2017 1903 2016 2126
8 1909 1793 1908 2022 2019 1905 2018 2128
8 2020 1906 1794 1910 2129 2019 1909 2023
8 1912 1796 1911 2025 2022 1908 2021 2131
8 1913 1797 1912 2026 2023 1909 2022 2132
8 1915 1799 1914 2028 2025 1911 2024 2134
8 1916 1800 1915 2029 2026 1912 2025 2135
8 1918 1804 1919 2031 2028 1914 2027 2136
8 1917 1803 1918 2030 2029 1915 2028 2137
8 1920 1806 1921 2032 2030 1918 2031 2138
8 1940 1827 1941 2054 2035 1923 2033 2140
8 2035 1923 2034 2143 1939 1826 1924 2037
8 2037 1924 2036 2146 1926 1811 1925 2039
8 2051 1939 2037 2147 1944 1829 1926 2040
8 2039 1925 2038 2149 1928 1812 1927 2042
8 2040 1926 2039 2150 1929 1813 1928 2043
8 2042 1927 2041 2151 1931 1814 1930 2044
8 2043 1928 2042 2152 1932 1815 1931 2045
8 2045 1931 2044 2153 1934 1818 1933 2046
8 2155 2047 1936 2048 2086 1976 1864 1977
8 2063 1949 1833 1950 2155 2047 1936 2048
8 2156 2048 1937 2049 2087 1977 1865 1978
8 2064 1950 1834 1951 2156 2048 1937 2049
8 2051 1939 1829 1944 2160 2053 1946 2058
8 2052 1940 2035 2144 2160 2053 1939 2051
8 2053 1942 1831 1946 2163 2057 1948 2060
8 2055 1943 1827 1940 2163 2057 1942 2053
8 2055 1943 2056 2164 1940 1827 1941 2054
8 2059 1947 1849 1966 2167 2060 1965 2078
8 2059 1947 2060 2167 1945 1830 1946 2058
8 2077 1964 2061 2168 1965 1848 1948 2060
8 2070 1963 1847 1959 2170 2062 1949 2063
8 2065 1959 1843 1952 2171 2063 1950 2064
8 2173 2072 1958 2066 2065 1959 1843 1952
8 1953 1842 1958 2066 2067 1957 2071 2174
8 2068 1956 2069 2175 1967 1859 1973 2079
8 2067 1957 2069 2175 1955 1841 1956 2068
8 1845 1957 2069 1960 1961 2071 2176 2073
8 2069 1960 2073 2176 1973 1862 1975 2083
8 2070 1963 2075 2177 1959 1847 1962 2072
8 1846 1958 2071 1961 1962 2072 2178 2074
8 2077 1964 1861 1971 2182 2076 1974 2082
8 2081 1971 2077 2183 1969 1857 1965 2078
8 2079 1973 2083 2184 1968 1860 1972 2080
8 2081 1971 1858 1970 2185 2082 1972 2080
8 2083 1975 2084 2186 1972 1863 1974 2082
8 2086 1976 1882 1987 2189 2085 1993 2095
8 2090 1987 2086 2190 1981 1875 1977 2087
8 2191 2094 1986 2088 2103 1998 1888 1997
8 2088 1986 2094 2191 1980 1877 1989 2089
8 1991 2091 2192 2097 1880 1982 2089 1989
8 2093 1988 2095 2193 1984 1876 1987 2090
8 1879 1983 2092 1990 1991 2091 2194 2098
8 1985 1878 1990 2092 2093 1988 2096 2195
8 2097 1996 1886 1989 2196 2099 1992 2094
8 2196 2099 1992 2094 2104 1999 1889 1998
8 1994 2096 1988 1883 2100 2197 2095 1993
8 2096 1994 1884 1990 2198 2101 1995 2098
8 1995 2098 2199 2102 1885 1991 2097 1996
8 2203 2104 1998 2103 2106 2001 1891 2000
8 2107 2002 2105 2204 2001 1892 1999 2104
8 2109 2004 2107 2206 2003 1894 2001 2106
8 2110 2005 2108 2207 2004 1895 2002 2107
8 2112 2007 2110 2209 2006 1897 2004 2109
8 2113 2008 2111 2210 2007 1898 2005 2110
8 2120 2011 2113 2212 2014 1901 2007 2112
8 2117 2009 2114 2213 2011 1899 2008 2113
8 2219 2116 2009 2117 2119 2010 1899 2011
8 2222 2118 2010 2119 2122 2012 1900 2013
8 2223 2119 2011 2120 2123 2013 1901 2014
8 2016 1902 2015 2125 2122 2012 2121 2225
8 2126 2016 2122 2226 2017 1903 2013 2123
8 2019 1905 2018 2128 2125 2015 2124 2228
8 2020 1906 2019 2129 2126 2016 2125 2229
8 2022 1908 2021 2131 2128 2018 2127 2231
8 2023 1909 2022 2132 2129 2019 2128 2232
8 2025 1911 2024 2134 2131 2021 2130 2234
8 2026 1912 2025 2135 2132 2022 2131 2235
8 1914 2028 2134 2024 2027 2136 2236 2133
8 2029 1915 2028 2137 2135 2025 2134 2237
8 2030 1918 2031 2138 2137 2028 2136 2238
8 2157 2050 2139 2240 2054 1941 2033 2140
8 2052 1940 2054 2161 2144 2035 2140 2242
8 2140 2033 2141 2243 2035 1923 2034 2143
8 2143 2034 2142 2246 2037 1924 2036 2146
8 2144 2035 2143 2247 2051 1939 2037 2147
8 2146 2036 2145 2249 2039 1925 2038 2149
8 2147 2037 2146 2250 2040 1926 2039 2150
8 2149 2038 2148 2251 2042 1927 2041 2151
8 2150 2039 2149 2252 2043 1928 2042 2152
8 2152 2042 2151 2253 2045 1931 2044 2153
8 2255 2154 2047 2155 2189 2085 1976 2086
8 2170 2062 1949 2063 2255 2154 2047 2155
8 2256 2155 2048 2156 2190 2086 1977 2087
8 2171 2063 1950 2064 2256 2155 2048 2156
8 2258 2159 2050 2157 2164 2056 1941 2054
8 2160 2053 1946 2058 2262 2163 2060 2167
8 2162 2055 1940 2052 2262 2163 2053 2160
8 2162 2055 2164 2263 2052 1940 2054 2161
8 2163 2057 1948 2060 2264 2165 2061 2168
8 2055 1943 2057 2163 2164 2056 2165 2264
8 2182 2076 2166 2268 2077 1964 2061 2168
8 2183 2077 2168 2269 2078 1965 2060 2167
8 2070 1963 2062 2170 2177 2075 2169 2271
8 2172 2070 1959 2065 2272 2170 2063 2171
8 2172 2070 2177 2273 2065 1959 2072 2173
8 2066 1958 2072 2173 2174 2071 2178 2274
8 2067 1957 2071 2174 2175 2069 2176 2275
8 2175 2069 2176 2275 2079 1973 2083 2184
8 2071 1961 2074 2178 2176 2073 2179 2276
8 2176 2073 2179 2276 2083 1975 2084 2186
8 2072 1962 2075 2177 2178 2074 2180 2277
8 2182 2076 1974 2082 2280 2181 2084 2186
8 2183 2077 1971 2081 2281 2182 2082 2185
8 2184 2083 2186 2282 2080 1972 2082 2185
8 2189 2085 1993 2095 2285 2188 2100 2197
8 2190 2086 1987 2090 2286 2189 2095 2193
8 2192 2097 1989 2089 2287 2196 2094 2191
8 2287 2196 2094 2191 2203 2104 1998 2103
8 2194 2098 1991 2091 2288 2199 2097 2192
8 2195 2096 2197 2289 2093 1988 2095 2193
8 2096 2195 2290 2198 1990 2092 2194 2098
8 2097 1996 2099 2196 2199 2102 2200 2291
8 2196 2099 1999 2104 2291 2200 2105 2204
8 2100 2197 2292 2201 1994 2096 2198 2101
8 1995 2098 2198 2101 2102 2199 2293 2202
8 2206 2107 2204 2296 2106 2001 2104 2203
8 2207 2108 2205 2297 2107 2002 2105 2204
8 2209 2110 2207 2299 2109 2004 2107 2206
8 2210 2111 2208 2300 2110 2005 2108 2207
8 2212 2113 2210 2302 2112 2007 2110 2209
8 2213 2114 2211 2303 2113 2008 2111 2210
8 2220 2117 2213 2305 2120 2011 2113 2212
8 2216 2115 2214 2306 2117 2009 2114 2213
8 2216 2115 2009 2117 2311 2217 2116 2219
8 2219 2116 2010 2119 2314 2218 2118 2222
8 2315 2219 2117 2220 2223 2119 2011 2120
8 2122 2012 2121 2225 2222 2118 2221 2317
8 2318 2222 2119 2223 2226 2122 2013 2123
8 2125 2015 2124 2228 2225 2121 2224 2320
8 2126 2016 2125 2229 2226 2122 2225 2321
8 2128 2018 2127 2231 2228 2124 2227 2323
8 2129 2019 2128 2232 2229 2125 2228 2324
8 2131 2021 2130 2234 2231 2127 2230 2326
8 2132 2022 2131 2235 2232 2128 2231 2327
8 2134 2024 2133 2236 2234 2130 2233 2328
8 2135 2025 2134 2237 2235 2131 2234 2329
8 2137 2028 2136 2238 2237 2134 2236 2330
8 2157 2050 2158 2259 2240 2139 2239 2332
8 2257 2157 2240 2334 2161 2054 2140 2242
8 2240 2139 2241 2335 2140 2033 2141 2243
8 2242 2140 2243 2337 2144 2035 2143 2247
8 2243 2141 2244 2338 2143 2034 2142 2246
8 2246 2142 2245 2341 2146 2036 2145 2249
8 2247 2143 2246 2342 2147 2037 2146 2250
8 2249 2145 2248 2343 2149 2038 2148 2251
8 2250 2146 2249 2344 2150 2039 2149 2252
8 2252 2149 2251 2345 2152 2042 2151 2253
8 2169 2271 2347 2254 2062 2170 2255 2154
8 2189 2085 2188 2285 2255 2154 2254 2347
8 2348 2255 2155 2256 2286 2189 2086 2190
8 2272 2170 2063 2171 2348 2255 2155 2256
8 2349 2258 2157 2257 2263 2164 2054 2161
8 2258 2159 2261 2351 2157 2050 2158 2259
8 2258 2159 2056 2164 2351 2261 2165 2264
8 2262 2163 2060 2167 2355 2264 2168 2269
8 2162 2055 2163 2262 2263 2164 2264 2355
8 2357 2266 2165 2264 2268 2166 2061 2168
8 2268 2166 2076 2182 2361 2267 2181 2280
8 2281 2182 2268 2362 2183 2077 2168 2269
8 2271 2169 2270 2364 2177 2075 2180 2277
8 2172 2070 2170 2272 2273 2177 2271 2365
8 2072 2173 2274 2178 2177 2273 2366 2277
8 2071 2174 2275 2176 2178 2274 2367 2276
8 2275 2176 2276 2367 2184 2083 2186 2282
8 2283 2187 2084 2186 2368 2278 2179 2276
8 2178 2074 2180 2277 2276 2179 2278 2368
8 2283 2187 2279 2370 2186 2084 2181 2280
8 2281 2182 2082 2185 2371 2280 2186 2282
8 2188 2285 2374 2284 2100 2197 2292 2201
8 2286 2189 2095 2193 2375 2285 2197 2289
8 2192 2097 2196 2287 2288 2199 2291 2376
8 2287 2196 2104 2203 2376 2291 2204 2296
8 2194 2098 2199 2288 2290 2198 2293 2377
8 2289 2197 2096 2195 2378 2292 2198 2290
8 2291 2200 2105 2204 2379 2294 2205 2297
8 2199 2102 2200 2291 2293 2202 2294 2379
8 2198 2101 2202 2293 2292 2201 2295 2380
8 2299 2207 2297 2383 2206 2107 2204 2296
8 2300 2208 2298 2384 2207 2108 2205 2297
8 2302 2210 2300 2386 2209 2110 2207 2299
8 2303 2211 2301 2387 2210 2111 2208 2300
8 2305 2213 2303 2389 2212 2113 2210 2302
8 2306 2214 2304 2390 2213 2114 2211 2303
8 2310 2216 2306 2392 2220 2117 2213 2305
8 2308 2215 2307 2393 2216 2115 2214 2306
8 2308 2215 2115 2216 2396 2309 2217 2311
8 2310 2216 2117 2220 2398 2311 2219 2315
8 2311 2217 2116 2219 2399 2312 2218 2314
8 2314 2218 2118 2222 2402 2313 2221 2317
8 2315 2219 2119 2223 2403 2314 2222 2318
8 2225 2121 2224 2320 2317 2221 2316 2405
8 2226 2122 2225 2321 2318 2222 2317 2406
8 2228 2124 2227 2323 2320 2224 2319 2408
8 2229 2125 2228 2324 2321 2225 2320 2409
8 2231 2127 2230 2326 2323 2227 2322 2411
8 2232 2128 2231 2327 2324 2228 2323 2412
8 2234 2130 2233 2328 2326 2230 2325 2413
8 2235 2131 2234 2329 2327 2231 2326 2414
8 2237 2134 2236 2330 2329 2234 2328 2415
8 2259 2158 2260 2352 2332 2239 2331 2417
8 2257 2157 2259 2350 2334 2240 2332 2419
8 2240 2139 2239 2332 2335 2241 2333 2420
8 2334 2240 2335 2422 2242 2140 2243 2337
8 2335 2241 2336 2423 2243 2141 2244 2338
8 2337 2243 2338 2425 2247 2143 2246 2342
8 2338 2244 2339 2426 2246 2142 2245 2341
8 2341 2245 2340 2428 2249 2145 2248 2343
8 2342 2246 2341 2429 2250 2146 2249 2344
8 2344 2249 2343 2430 2252 2149 2251 2345
8 2188 2285 2347 2254 2284 2374 2432 2346
8 2347 2254 2346 2432 2271 2169 2270 2364
8 2365 2271 2170 2272 2433 2347 2255 2348
8 2286 2189 2285 2375 2348 2255 2347 2433
8 2349 2258 2351 2435 2257 2157 2259 2350
8 2349 2258 2164 2263 2435 2351 2264 2355
8 2259 2158 2261 2351 2352 2260 2354 2437
8 2356 2265 2354 2437 2264 2165 2261 2351
8 2441 2357 2264 2355 2362 2268 2168 2269
8 2356 2265 2165 2264 2442 2358 2266 2357
8 2443 2359 2266 2357 2361 2267 2166 2268
8 2370 2279 2360 2446 2280 2181 2267 2361
8 2362 2268 2182 2281 2447 2361 2280 2371
8 2180 2277 2368 2278 2270 2364 2449 2363
8 2271 2365 2273 2177 2364 2450 2366 2277
8 2372 2283 2186 2282 2451 2368 2276 2367
8 2178 2274 2367 2276 2277 2366 2451 2368
8 2283 2187 2278 2368 2370 2279 2369 2452
8 2372 2283 2370 2453 2282 2186 2280 2371
8 2284 2374 2455 2373 2201 2292 2380 2295
8 2375 2285 2197 2289 2456 2374 2292 2378
8 2376 2291 2204 2296 2457 2379 2297 2383
8 2288 2199 2291 2376 2377 2293 2379 2457
8 2198 2290 2378 2292 2293 2377 2458 2380
8 2293 2202 2294 2379 2380 2295 2381 2459
8 2384 2298 2381 2459 2297 2205 2294 2379
8 2386 2300 2384 2463 2299 2207 2297 2383
8 2387 2301 2385 2464 2300 2208 2298 2384
8 2389 2303 2387 2466 2302 2210 2300 2386
8 2390 2304 2388 2467 2303 2211 2301 2387
8 2392 2306 2390 2469 2305 2213 2303 2389
8 2393 2307 2391 2470 2306 2214 2304 2390
8 2395 2308 2393 2472 2310 2216 2306 2392
8 2308 2215 2309 2396 2393 2307 2394 2473
8 2395 2308 2216 2310 2475 2396 2311 2398
8 2396 2309 2217 2311 2476 2397 2312 2399
8 2398 2311 2219 2315 2478 2399 2314 2403
8 2399 2312 2218 2314 2479 2400 2313 2402
8 2317 2221 2316 2405 2402 2313 2401 2482
8 2403 2314 2222 2318 2483 2402 2317 2406
8 2320 2224 2319 2408 2405 2316 2404 2485
8 2321 2225 2320 2409 2406 2317 2405 2486
8 2323 2227 2322 2411 2408 2319 2407 2488
8 2324 2228 2323 2412 2409 2320 2408 2489
8 2326 2230 2325 2413 2411 2322 2410 2490
8 2327 2231 2326 2414 2412 2323 2411 2491
8 2329 2234 2328 2415 2414 2326 2413 2492
8 2417 2331 2260 2352 2494 2416 2353 2438
8 2350 2259 2352 2436 2419 2332 2417 2496
8 2332 2239 2331 2417 2420 2333 2418 2497
8 2334 2240 2332 2419 2422 2335 2420 2499
8 2420 2333 2421 2500 2335 2241 2336 2423
8 2422 2335 2423 2502 2337 2243 2338 2425
8 2423 2336 2424 2503 2338 2244 2339 2426
8 2425 2338 2426 2505 2342 2246 2341 2429
8 2426 2339 2427 2506 2341 2245 2340 2428
8 2429 2341 2428 2507 2344 2249 2343 2430
8 2432 2346 2284 2374 2509 2431 2373 2455
8 2432 2346 2431 2509 2364 2270 2363 2449
8 2375 2285 2374 2456 2433 2347 2432 2510
8 2347 2433 2365 2271 2432 2510 2450 2364
8 2350 2259 2351 2435 2436 2352 2437 2514
8 2440 2356 2437 2514 2355 2264 2351 2435
8 2352 2260 2354 2437 2438 2353 2439 2516
8 2356 2265 2358 2442 2437 2354 2439 2516
8 2440 2356 2264 2355 2518 2442 2357 2441
8 2519 2443 2357 2441 2447 2361 2268 2362
8 2443 2359 2444 2520 2357 2266 2358 2442
8 2443 2359 2267 2361 2520 2444 2360 2446
8 2446 2360 2279 2370 2523 2445 2369 2452
8 2453 2370 2446 2524 2371 2280 2361 2447
8 2449 2363 2448 2525 2368 2278 2369 2452
8 2366 2277 2364 2450 2451 2368 2449 2526
8 2372 2283 2368 2451 2453 2370 2452 2527
8 2455 2373 2295 2380 2529 2454 2382 2460
8 2456 2374 2292 2378 2530 2455 2380 2458
8 2377 2293 2379 2457 2458 2380 2459 2531
8 2463 2384 2459 2531 2383 2297 2379 2457
8 2533 2461 2382 2460 2459 2381 2295 2380
8 2464 2385 2461 2533 2384 2298 2381 2459
8 2466 2387 2464 2537 2386 2300 2384 2463
8 2467 2388 2465 2538 2387 2301 2385 2464
8 2469 2390 2467 2540 2389 2303 2387 2466
8 2470 2391 2468 2541 2390 2304 2388 2467
8 2472 2393 2470 2543 2392 2306 2390 2469
8 2393 2307 2394 2473 2470 2391 2471 2544
8 2395 2308 2396 2475 2472 2393 2473 2546
8 2396 2309 2397 2476 2473 2394 2474 2547
8 2475 2396 2311 2398 2549 2476 2399 2478
8 2476 2397 2312 2399 2550 2477 2400 2479
8 2478 2399 2314 2403 2552 2479 2402 2483
8 2479 2400 2313 2402 2553 2480 2401 2482
8 2405 2316 2404 2485 2482 2401 2481 2556
8 2406 2317 2405 2486 2483 2402 2482 2557
8 2408 2319 2407 2488 2485 2404 2484 2559
8 2409 2320 2408 2489 2486 2405 2485 2560
8 2411 2322 2410 2490 2488 2407 2487 2561
8 2412 2323 2411 2491 2489 2408 2488 2562
8 2414 2326 2413 2492 2491 2411 2490 2563
8 2513 2434 2493 2565 2438 2353 2416 2494
8 2496 2417 2352 2436 2567 2494 2438 2515
8 2494 2416 2495 2568 2417 2331 2418 2497
8 2419 2332 2417 2496 2499 2420 2497 2570
8 2497 2418 2498 2571 2420 2333 2421 2500
8 2499 2420 2500 2573 2422 2335 2423 2502
8 2500 2421 2501 2574 2423 2336 2424 2503
8 2502 2423 2503 2576 2425 2338 2426 2505
8 2503 2424 2504 2577 2426 2339 2427 2506
8 2505 2426 2506 2578 2429 2341 2428 2507
8 2509 2431 2373 2455 2580 2508 2454 2529
8 2509 2431 2508 2580 2449 2363 2448 2525
8 2432 2510 2581 2509 2374 2456 2530 2455
8 2432 2510 2450 2364 2509 2581 2526 2449
8 2583 2511 2434 2513 2516 2439 2353 2438
8 2436 2352 2437 2514 2515 2438 2516 2588
8 2440 2356 2442 2518 2514 2437 2516 2588
8 2442 2358 2444 2520 2516 2439 2517 2589
8 2519 2443 2520 2591 2441 2357 2442 2518
8 2519 2443 2361 2447 2591 2520 2446 2524
8 2446 2360 2445 2523 2520 2444 2521 2592
8 2525 2448 2522 2593 2452 2369 2445 2523
8 2524 2446 2370 2453 2594 2523 2452 2527
8 2526 2449 2525 2595 2451 2368 2452 2527
8 2534 2462 2528 2597 2460 2382 2454 2529
8 2530 2455 2380 2458 2598 2529 2460 2532
8 2599 2533 2460 2532 2531 2459 2380 2458
8 2537 2464 2533 2599 2463 2384 2459 2531
8 2534 2462 2382 2460 2601 2535 2461 2533
8 2538 2465 2535 2601 2464 2385 2461 2533
8 2540 2467 2538 2604 2466 2387 2464 2537
8 2541 2468 2539 2605 2467 2388 2465 2538
8 2543 2470 2541 2607 2469 2390 2467 2540
8 2470 2391 2471 2544 2541 2468 2542 2608
8 2472 2393 2473 2546 2543 2470 2544 2610
8 2473 2394 2474 2547 2544 2471 2545 2611
8 2475 2396 2476 2549 2546 2473 2547 2613
8 2476 2397 2477 2550 2547 2474 2548 2614
8 2549 2476 2399 2478 2616 2550 2479 2552
8 2479 2400 2480 2553 2550 2477 2551 2617
8 2552 2479 2402 2483 2619 2553 2482 2557
8 2482 2401 2481 2556 2553 2480 2554 2620
8 2485 2404 2484 2559 2556 2481 2555 2623
8 2486 2405 2485 2560 2557 2482 2556 2624
8 2488 2407 2487 2561 2559 2484 2558 2625
8 2489 2408 2488 2562 2560 2485 2559 2626
8 2491 2411 2490 2563 2562 2488 2561 2627
8 2513 2434 2512 2585 2565 2493 2564 2630
8 2586 2513 2565 2632 2515 2438 2494 2567
8 2565 2493 2566 2633 2494 2416 2495 2568
8 2567 2494 2568 2635 2496 2417 2497 2570
8 2568 2495 2569 2636 2497 2418 2498 2571
8 2570 2497 2571 2638 2499 2420 2500 2573
8 2571 2498 2572 2639 2500 2421 2501 2574
8 2573 2500 2574 2641 2502 2423 2503 2576
8 2574 2501 2575 2642 2503 2424 2504 2577
8 2576 2503 2577 2643 2505 2426 2506 2578
8 2597 2528 2579 2645 2529 2454 2508 2580
8 2580 2508 2579 2645 2525 2448 2522 2593
8 2581 2509 2455 2530 2646 2580 2529 2598
8 2581 2509 2580 2646 2526 2449 2525 2595
8 2583 2511 2582 2648 2513 2434 2512 2585
8 2583 2511 2439 2516 2648 2582 2517 2589
8 2649 2583 2513 2586 2588 2516 2438 2515
8 2589 2517 2444 2520 2653 2587 2521 2592
8 2518 2442 2520 2591 2588 2516 2589 2654
8 2593 2522 2590 2655 2523 2445 2521 2592
8 2524 2446 2523 2594 2591 2520 2592 2656
8 2595 2525 2593 2657 2527 2452 2523 2594
8 2602 2536 2596 2659 2534 2462 2528 2597
8 2600 2534 2597 2660 2532 2460 2529 2598
8 2600 2534 2460 2532 2661 2601 2533 2599
8 2604 2538 2601 2661 2537 2464 2533 2599
8 2602 2536 2462 2534 2663 2603 2535 2601
8 2601 2535 2465 2538 2663 2603 2539 2605
8 2607 2541 2605 2665 2540 2467 2538 2604
8 2608 2542 2606 2666 2541 2468 2539 2605
8 2543 2470 2544 2610 2607 2541 2608 2668
8 2544 2471 2545 2611 2608 2542 2609 2669
8 2546 2473 2547 2613 2610 2544 2611 2671
8 2547 2474 2548 2614 2611 2545 2612 2672
8 2549 2476 2550 2616 2613 2547 2614 2674
8 2550 2477 2551 2617 2614 2548 2615 2675
8 2552 2479 2553 2619 2616 2550 2617 2677
8 2553 2480 2554 2620 2617 2551 2618 2678
8 2557 2482 2556 2624 2619 2553 2620 2680
8 2556 2481 2555 2623 2620 2554 2621 2681
8 2559 2484 2558 2625 2623 2555 2622 2683
8 2560 2485 2559 2626 2624 2556 2623 2684
8 2562 2488 2561 2627 2626 2559 2625 2685
8 2690 2629 2564 2630 2650 2584 2512 2585
8 2586 2513 2585 2651 2632 2565 2630 2691
8 2630 2564 2631 2692 2565 2493 2566 2633
8 2632 2565 2633 2694 2567 2494 2568 2635
8 2633 2566 2634 2695 2568 2495 2569 2636
8 2635 2568 2636 2697 2570 2497 2571 2638
8 2636 2569 2637 2698 2571 2498 2572 2639
8 2638 2571 2639 2700 2573 2500 2574 2641
8 2639 2572 2640 2701 2574 2501 2575 2642
8 2641 2574 2642 2702 2576 2503 2577 2643
8 2597 2528 2596 2659 2645 2579 2644 2704
8 2645 2579 2644 2704 2593 2522 2590 2655
8 2660 2597 2645 2705 2598 2529 2580 2646
8 2646 2580 2645 2705 2595 2525 2593 2657
8 2650 2584 2512 2585 2707 2647 2582 2648
8 2648 2582 2517 2589 2707 2647 2587 2653
8 2649 2583 2648 2708 2586 2513 2585 2651
8 2649 2583 2516 2588 2708 2648 2589 2654
8 2655 2590 2652 2710 2592 2521 2587 2653
8 2654 2589 2520 2591 2711 2653 2592 2656
8 2657 2593 2655 2712 2594 2523 2592 2656
8 2602 2536 2603 2663 2659 2596 2658 2714
8 2662 2602 2659 2715 2600 2534 2597 2660
8 2662 2602 2534 2600 2717 2663 2601 2661
8 2661 2601 2538 2604 2717 2663 2605 2665
8 2666 2606 2664 2718 2605 2539 2603 2663
8 2668 2608 2666 2720 2607 2541 2605 2665
8 2608 2542 2609 2669 2666 2606 2667 2721
8 2610 2544 2611 2671 2668 2608 2669 2723
8 2611 2545 2612 2672 2669 2609 2670 2724
8 2613 2547 2614 2674 2671 2611 2672 2726
8 2614 2548 2615 2675 2672 2612 2673 2727
8 2616 2550 2617 2677 2674 2614 2675 2729
8 2617 2551 2618 2678 2675 2615 2676 2730
8 2619 2553 2620 2680 2677 2617 2678 2732
8 2620 2554 2621 2681 2678 2618 2679 2733
8 2624 2556 2623 2684 2680 2620 2681 2735
8 2681 2621 2555 2623 2736 2682 2622 2683
8 2626 2559 2625 2685 2684 2623 2683 2737
8 2688 2628 2584 2650 2740 2686 2647 2707
8 2688 2628 2687 2742 2650 2584 2629 2690
8 2690 2629 2689 2745 2630 2564 2631 2692
8 2746 2690 2630 2691 2709 2650 2585 2651
8 2691 2630 2692 2747 2632 2565 2633 2694
8 2692 2631 2693 2748 2633 2566 2634 2695
8 2694 2633 2695 2750 2635 2568 2636 2697
8 2695 2634 2696 2751 2636 2569 2637 2698
8 2697 2636 2698 2753 2638 2571 2639 2700
8 2698 2637 2699 2754 2639 2572 2640 2701
8 2700 2639 2701 2755 2641 2574 2642 2702
8 2659 2596 2658 2714 2704 2644 2703 2757
8 2704 2644 2703 2757 2655 2590 2652 2710
8 2660 2597 2659 2715 2705 2645 2704 2758
8 2705 2645 2704 2758 2657 2593 2655 2712
8 2759 2706 2647 2707 2710 2652 2587 2653
8 2709 2650 2585 2651 2760 2707 2648 2708
8 2708 2648 2589 2654 2760 2707 2653 2711
8 2712 2655 2710 2761 2656 2592 2653 2711
8 2763 2713 2658 2714 2718 2664 2603 2663
8 2662 2602 2663 2717 2715 2659 2714 2764
8 2720 2666 2718 2767 2665 2605 2663 2717
8 2768 2719 2664 2718 2721 2667 2606 2666
8 2668 2608 2669 2723 2720 2666 2721 2770
8 2669 2609 2670 2724 2721 2667 2722 2771
8 2671 2611 2672 2726 2723 2669 2724 2773
8 2672 2612 2673 2727 2724 2670 2725 2774
8 2674 2614 2675 2729 2726 2672 2727 2776
8 2675 2615 2676 2730 2727 2673 2728 2777
8 2677 2617 2678 2732 2729 2675 2730 2779
8 2678 2618 2679 2733 2730 2676 2731 2780
8 2680 2620 2681 2735 2732 2678 2733 2782
8 2733 2679 2621 2681 2783 2734 2682 2736
8 2735 2681 2623 2684 2784 2736 2683 2737
8 2740 2686 2647 2707 2787 2738 2706 2759
8 2688 2628 2686 2740 2742 2687 2739 2789
8 2743 2688 2650 2709 2790 2740 2707 2760
8 2742 2687 2741 2792 2690 2629 2689 2745
8 2743 2688 2742 2793 2709 2650 2690 2746
8 2745 2689 2744 2795 2692 2631 2693 2748
8 2746 2690 2745 2796 2691 2630 2692 2747
8 2747 2692 2748 2797 2694 2633 2695 2750
8 2748 2693 2749 2798 2695 2634 2696 2751
8 2750 2695 2751 2800 2697 2636 2698 2753
8 2751 2696 2752 2801 2698 2637 2699 2754
8 2753 2698 2754 2802 2700 2639 2701 2755
8 2763 2713 2756 2804 2714 2658 2703 2757
8 2759 2706 2652 2710 2804 2756 2703 2757
8 2715 2659 2714 2764 2758 2704 2757 2805
8 2758 2704 2757 2805 2712 2655 2710 2761
8 2806 2759 2707 2760 2761 2710 2653 2711
8 2765 2716 2762 2808 2718 2664 2713 2763
8 2809 2763 2714 2764 2767 2718 2663 2717
8 2765 2716 2664 2718 2811 2766 2719 2768
8 2813 2768 2718 2767 2770 2721 2666 2720
8 2814 2769 2719 2768 2771 2722 2667 2721
8 2723 2669 2724 2773 2770 2721 2771 2816
8 2724 2670 2725 2774 2771 2722 2772 2817
8 2726 2672 2727 2776 2773 2724 2774 2819
8 2727 2673 2728 2777 2774 2725 2775 2820
8 2729 2675 2730 2779 2776 2727 2777 2822
8 2730 2676 2731 2780 2777 2728 2778 2823
8 2732 2678 2733 2782 2779 2730 2780 2825
8 2780 2731 2679 2733 2826 2781 2734 2783
8 2782 2733 2681 2735 2827 2783 2736 2784
8 2830 2785 2738 2787 2804 2756 2706 2759
8 2789 2739 2686 2740 2832 2786 2738 2787
8 2790 2740 2707 2760 2833 2787 2759 2806
8 2742 2687 2739 2789 2792 2741 2788 2835
8 2743 2688 2740 2790 2793 2742 2789 2836
8 2792 2741 2791 2838 2745 2689 2744 2795
8 2793 2742 2792 2839 2746 2690 2745 2796
8 2795 2744 2794 2841 2748 2693 2749 2798
8 2796 2745 2795 2842 2747 2692 2748 2797
8 2797 2748 2798 2843 2750 2695 2751 2800
8 2798 2749 2799 2844 2751 2696 2752 2801
8 2800 2751 2801 2845 2753 2698 2754 2802
8 2808 2762 2803 2847 2763 2713 2756 2804
8 2809 2763 2804 2848 2764 2714 2757 2805
8 2806 2759 2710 2761 2848 2804 2757 2805
8 2765 2716 2766 2811 2808 2762 2807 2850
8 2810 2765 2808 2851 2767 2718 2763 2809
8 2810 2765 2718 2767 2852 2811 2768 2813
8 2811 2766 2719 2768 2853 2812 2769 2814
8 2855 2814 2768 2813 2816 2771 2721 2770
8 2856 2815 2769 2814 2817 2772 2722 2771
8 2773 2724 2774 2819 2816 2771 2817 2858
8 2774 2725 2775 2820 2817 2772 2818 2859
8 2776 2727 2777 2822 2819 2774 2820 2861
8 2777 2728 2778 2823 2820 2775 2821 2862
8 2779 2730 2780 2825 2822 2777 2823 2864
8 2823 2778 2731 2780 2865 2824 2781 2826
8 2825 2780 2733 2782 2866 2826 2783 2827
8 2869 2828 2785 2830 2847 2803 2756 2804
8 2871 2829 2786 2832 2830 2785 2738 2787
8 2872 2830 2787 2833 2848 2804 2759 2806
8 2789 2739 2786 2832 2835 2788 2831 2874
8 2836 2789 2740 2790 2875 2832 2787 2833
8 2792 2741 2788 2835 2838 2791 2834 2877
8 2793 2742 2789 2836 2839 2792 2835 2878
8 2838 2791 2837 2880 2795 2744 2794 2841
8 2839 2792 2838 2881 2796 2745 2795 2842
8 2841 2794 2840 2882 2798 2749 2799 2844
8 2842 2795 2841 2883 2797 2748 2798 2843
8 2843 2798 2844 2884 2800 2751 2801 2845
8 2886 2846 2803 2847 2850 2807 2762 2808
8 2851 2808 2847 2887 2809 2763 2804 2848
8 2850 2807 2766 2811 2889 2849 2812 2853
8 2810 2765 2811 2852 2851 2808 2850 2890
8 2852 2811 2768 2813 2891 2853 2814 2855
8 2853 2812 2769 2814 2892 2854 2815 2856
8 2894 2856 2814 2855 2858 2817 2771 2816
8 2817 2772 2818 2859 2856 2815 2857 2895
8 2819 2774 2820 2861 2858 2817 2859 2897
8 2820 2775 2821 2862 2859 2818 2860 2898
8 2822 2777 2823 2864 2861 2820 2862 2900
8 2823 2778 2824 2865 2862 2821 2863 2901
8 2864 2823 2780 2825 2902 2865 2826 2866
8 2904 2867 2828 2869 2886 2846 2803 2847
8 2869 2828 2868 2906 2830 2785 2829 2871
8 2907 2869 2830 2872 2887 2847 2804 2848
8 2871 2829 2870 2909 2832 2786 2831 2874
8 2910 2871 2832 2875 2872 2830 2787 2833
8 2835 2788 2831 2874 2877 2834 2873 2912
8 2836 2789 2832 2875 2878 2835 2874 2913
8 2877 2834 2876 2915 2838 2791 2837 2880
8 2839 2792 2835 2878 2881 2838 2877 2916
8 2880 2837 2879 2917 2841 2794 2840 2882
8 2881 2838 2880 2918 2842 2795 2841 2883
8 2883 2841 2882 2919 2843 2798 2844 2884
8 2921 2885 2846 2886 2889 2849 2807 2850
8 2922 2886 2847 2887 2890 2850 2808 2851
8 2889 2849 2812 2853 2924 2888 2854 2892
8 2890 2850 2811 2852 2925 2889 2853 2891
8 2891 2853 2814 2855 2926 2892 2856 2894
8 2892 2854 2815 2856 2927 2893 2857 2895
8 2858 2817 2859 2897 2894 2856 2895 2929
8 2859 2818 2860 2898 2895 2857 2896 2930
8 2861 2820 2862 2900 2897 2859 2898 2932
8 2862 2821 2863 2901 2898 2860 2899 2933
8 2864 2823 2865 2902 2900 2862 2901 2934
8 2904 2867 2846 2886 2936 2903 2885 2921
8 2904 2867 2903 2936 2869 2828 2868 2906
8 2937 2904 2869 2907 2922 2886 2847 2887
8 2906 2868 2905 2939 2871 2829 2870 2909
8 2907 2869 2906 2940 2872 2830 2871 2910
8 2909 2870 2908 2942 2874 2831 2873 2912
8 2910 2871 2909 2943 2875 2832 2874 2913
8 2912 2873 2911 2945 2877 2834 2876 2915
8 2878 2835 2874 2913 2916 2877 2912 2946
8 2915 2876 2914 2947 2880 2837 2879 2917
8 2916 2877 2915 2948 2881 2838 2880 2918
8 2918 2880 2917 2949 2883 2841 2882 2919
8 2921 2885 2849 2889 2951 2920 2888 2924
8 2952 2921 2886 2922 2925 2889 2850 2890
8 2924 2888 2854 2892 2954 2923 2893 2927
8 2925 2889 2853 2891 2955 2924 2892 2926
8 2926 2892 2856 2894 2956 2927 2895 2929
8 2895 2857 2896 2930 2927 2893 2928 2957
8 2897 2859 2898 2932 2929 2895 2930 2959
8 2898 2860 2899 2933 2930 2896 2931 2960
8 2900 2862 2901 2934 2932 2898 2933 2961
8 2936 2903 2885 2921 2963 2935 2920 2951
8 2936 2903 2935 2963 2906 2868 2905 2939
8 2937 2904 2886 2922 2964 2936 2921 2952
8 2937 2904 2936 2964 2907 2869 2906 2940
8 2939 2905 2938 2966 2909 2870 2908 2942
8 2940 2906 2939 2967 2910 2871 2909 2943
8 2942 2908 2941 2969 2912 2873 2911 2945
8 2943 2909 2942 2970 2913 2874 2912 2946
8 2945 2911 2944 2971 2915 2876 2914 2947
8 2946 2912 2945 2972 2916 2877 2915 2948
8 2948 2915 2947 2973 2918 2880 2917 2949
8 2951 2920 2888 2924 2975 2950 2923 2954
8 2952 2921 2889 2925 2976 2951 2924 2955
8 2927 2893 2928 2957 2954 2923 2953 2978
8 2955 2924 2892 2926 2979 2954 2927 2956
8 2929 2895 2930 2959 2956 2927 2957 2980
8 2930 2896 2931 2960 2957 2928 2958 2981
8 2932 2898 2933 2961 2959 2930 2960 2982
8 2951 2920 2950 2975 2963 2935 2962 2984
8 2963 2935 2962 2984 2939 2905 2938 2966
8 2964 2936 2921 2952 2985 2963 2951 2976
8 2964 2936 2963 2985 2940 2906 2939 2967
8 2966 2938 2965 2987 2942 2908 2941 2969
8 2967 2939 2966 2988 2943 2909 2942 2970
8 2969 2941 2968 2989 2945 2911 2944 2971
8 2970 2942 2969 2990 2946 2912 2945 2972
8 2972 2945 2971 2991 2948 2915 2947 2973
8 2954 2923 2953 2978 2975 2950 2974 2993
8 2976 2951 2924 2955 2994 2975 2954 2979
8 2957 2928 2958 2981 2978 2953 2977 2995
8 2956 2927 2957 2980 2979 2954 2978 2996
8 2959 2930 2960 2982 2980 2957 2981 2997
8 2984 2962 2983 2999 2966 2938 2965 2987
8 2975 2950 2974 2993 2984 2962 2983 2999
8 2976 2951 2975 2994 2985 2963 2984 3000
8 2985 2963 2984 3000 2967 2939 2966 2988
8 2987 2965 2986 3001 2969 2941 2968 2989
8 2988 2966 2987 3002 2970 2942 2969 2990
8 2990 2969 2989 3003 2972 2945 2971 2991
8 2978 2953 2977 2995 2993 2974 2992 3004
8 2979 2954 2978 2996 2994 2975 2993 3005
8 2980 2957 2981 2997 2996 2978 2995 3006
8 2974 2993 2999 2983 2992 3004 3007 2998
8 2983 2999 2987 2965 2998 3007 3001 2986
8 3000 2984 2999 3008 2988 2966 2987 3002
8 2994 2975 2993 3005 3000 2984 2999 3008
8 3002 2987 3001 3009 2990 2969 2989 3003
8 2996 2978 2995 3006 3005 2993 3004 3010
8 3005 2993 3004 3010 3008 2999 3007 3011
8 3008 2999 3007 3011 3002 2987 3001 3009

CELL_TYPES 1910
12
12
12
12
12
12
12
12
12
12
12
12
12
12
12
12
12
12
12
12
12
12
12
12
12
12
12
12
12
12
12
12
12
12
12
12
12
12
12
12
12
12
12
12
12
12
12
12
12
12
12
12
12
12
12
12
12
12
12
12
12
12
12
12
12
12
12
12
12
12
12
12
12
12
12
12
12
12
12
12
12
12
12
12
12
12
12
12
12
12
12
12
12
12
12
12
12
12
12
12
12
12
12
12
12
12
12
12
12
12
12
12
12
12
12
12
12
12
12
12
12
12
12
12
12
12
12
12
12
12
12
12
12
12
12
12
12
12
12
12
12
12
12
12
12
12
12
12
12
12
12
12
12
12
12
12
12
12
12
12
12
12
12
12
12
12
12
12
12
12
12
12
12
12
12
12
12
12
12
12
12
12
12
12
12
12
12
12
12
12
12
12
12
12
12
12
12
12
12
12
12
12
12
12
12
12
12
12
12
12
12
12
12
12
12
12
12
12
12
12
12
12
12
12
12
12
12
12
12
12
12
12
12
12
12
12
12
12
12
12
12
12
12
12
12
12
12
12
12
12
12
12
12
12
12
12
12
12
12
12
12
12
12
12
12
12
12
12
12
12
12
12
12
12
12
12
12
12
12
12
12
12
12
12
12
12
12
12
12
12
12
12
12
12
12
12
12
12
12
12
12
12
12
12
12
12
12
12
12
12
12
12
12
12
12
12
12
12
12
12
12
12
12
12
12
12
12
12
12
12
12
12
12
12
12
12
12
12
12
12
12
12
12
12
12
12
12
12
12
12
12
12
12
12
12
12
12
12
12
12
12
12
12
12
12
12
12
12
12
12
12
12
12
12
12
12
12
12
12
12
12
12
12
12
12
12
12
12
12
12
12
12
12
12
12
12
12
12
12
12
12
12
12
12
12
12
12
12
12
12
12
12
12
12
12
12
12
12
12
12
12
12
12
12
12
12
12
12
12
12
12
12
12
12
12
12
12
12
12
12
12
12
12
12
12
12
12
12
12
12
12
12
12
12
12
12
12
12
12
12
12
12
12
12
12
12
12
12
12
12
12
12
12
12
12
12
12
12
12
12
12
12
12
12
12
12
12
12
12
12
12
12
12
12
12
12
12
12
12
12
12
12
12
12
12
12
12
12
12
12
12
12
12
12
12
12
12
12
12
12
12
12
12
12
12
12
12
12
12
12
12
12
12
12
12
12
12
12
12
12
12
12
12
12
12
12
12
12
12
12
12
12
12
12
12
12
12
12
12
12
12
12
12
12
12
12
12
12
12
12
12
12
12
12
12
12
12
12
12
12
12
12
12
12
12
12
12
12
12
12
12
12
12
12
12
12
12
12
12
12
12
12
12
12
12
12
12
12
12
12
12
12
12
12
12
12
12
12
12
12
12
12
12
12
12
12
12
12
12
12
12
12
12
12
12
12
12
12
12
12
12
12
12
12
12
12
12
12
12
12
12
12
12
12
12
12
12
12
12
12
12
12
12
12
12
12
12
12
12
12
12
12
12
12
12
12
12
12
12
12
12
12
12
12
12
12
12
12
12
12
12
12
12
12
12
12
12
12
12
12
12
12
12
12
12
12
12
12
12
12
12
12
12
12
12
12
12
12
12
12
12
12
12
12
12
12
12
12
12
12
12
12
12
12
12
12
12
12
12
12
12
12
12
12
12
12
12
12
12
12
12
12
12
12
12
12
12
12
12
12
12
12
12
12
12
12
12
12
12
12
12
12
12
12
12
12
12
12
12
12
12
12
12
12
12
12
12
12
12
12
12
12
12
12
12
12
12
12
12
12
12
12
12
12
12
12
12
12
12
12
12
12
12
12
12
12
12
12
12
12
12
12
12
12
12
12
12
12
12
12
12
12
12
12
12
12
12
12
12
12
12
12
12
12
12
12
12
12
12
12
12
12
12
12
12
12
12
12
12
12
12
12
12
12
12
12
12
12
12
12
12
12
12
12
12
12
12
12
12
12
12
12
12
12
12
12
12
12
12
12
12
12
12
12
12
12
12
12
12
12
12
12
12
12
12
12
12
12
12
12
12
12
12
12
12
12
12
12
12
12
12
12
12
12
12
12
12
12
12
12
12
12
12
12
12
12
12
12
12
12
12
12
12
12
12
12
12
12
12
12
12
12
12
12
12
12
12
12
12
12
12
12
12
12
12
12
12
12
12
12
12
12
12
12
12
12
12
12
12
12
12
12
12
12
12
12
12
12
12
12
12
12
12
12
12
12
12
12
12
12
12
12
12
12
12
12
12
12
12
12
12
12
12
12
12
12
12
12
12
12
12
12
12
12
12
12
12
12
12
12
12
12
12
12
12
12
12
12
12
12
12
12
12
12
12
12
12
12
12
12
12
12
12
12
12
12
12
12
12
12
12
12
12
12
12
12
12
12
12
12
12
12
12
12
12
12
12
12
12
12
12
12
12
12
12
12
12
12
12
12
12
12
12
12
12
12
12
12
12
12
12
12
12
12
12
12
12
12
12
12
12
12
12
12
12
12
12
12
12
12
12
12
12
12
12
12
12
12
12
12
12
12
12
12
12
12
12
12
12
12
12
12
12
12
12
12
12
12
12
12
12
12
12
12
12
12
12
12
12
12
12
12
12
12
12
12
12
12
12
12
12
12
12
12
12
12
12
12
12
12
12
12
12
12
12
12
12
12
12
12
12
12
12
12
12
12
12
12
12
12
12
12
12
12
12
12
12
12
12
12
12
12
12
12
12
12
12
12
12
12
12
12
12
12
12
12
12
12
12
12
12
12
12
12
12
12
12
12
12
12
12
12
12
12
12
12
12
12
12
12
12
12
12
12
12
12
12
12
12
12
12
12
12
12
12
12
12
12
12
12
12
12
12
12
12
12
12
12
12
12
12
12
12
12
12
12
12
12
12
12
12
12
12
12
12
12
12
12
12
12
12
12
12
12
12
12
12
12
12
12
12
12
12
12
12
12
12
12
12
12
12
12
12
12
12
12
12
12
12
12
12
12
12
12
12
12
12
12
12
12
12
12
12
12
12
12
12
12
12
12
12
12
12
12
12
12
12
12
12
12
12
12
12
12
12
12
12
12
12
12
12
12
12
12
12
12
12
12
12
12
12
12
12
12
12
12
12
12
12
12
12
12
12
12
12
12
12
12
12
12
12
12
12
12
12
12
12
12
12
12
12
12
12
12
12
12
12
12
12
12
12
12
12
12
12
12
12
12
12
12
12
12
12
12
12
12
12
12
12
12
12
12
12
12
12
12
12
12
12
12
12
12
12
12
12
12
12
12
12
12
12
12
12
12
12
12
12
12
12
12
12
12
12
12
12
12
12
12
12
12
12
12
12
12
12
12
12
12
12
12
12
12
12
12
12
12
12
12
12
12
12
12
12
12
12
12
12
12
12
12
12
12
12
12
12
12
12
12
12
12
12
12
12
12
12
12
12
12
12
12
12
12
12
12
12
12
12
12
12
12
12
12
12
12
12
12
12
12
12
12
12
12
12
12
12
12
12
12
12
12
12
12
12
12
12
12
12
12
12
12
12
12
12
12
12
12
12
12
12
12
12
12
12
12
12
12
12
12
12
12
12
12
12
12
12
12
12
12
12
12
12
12
12
12
12
12
12
12
12
12
12
12
12
12
12
12
12
12
12
12
12
12
12
12
12
12
12
12
12
12
12
12
12
12
12
12
12
12
12
12
12
12
12
12
12
12
12
12
12
12
12
12
12
12
12
12
12
12
12
12
12
12
12
12
12
12
12
12
12
12
12
12
12
12
12
12
12
12
12
12
12
12
12
12
12
12
12
12
12
12
12
12
12
12
12
12
12
12
12
12
12
12
12
12
12
12
12
12
12
12
12
12
12
12
12
12
12
12
12
12
12
12
12
12
12
12
12
12
12
12
12
12
12
12
12
12
12
12
12
12
12
12
12
12
12
12
12
12
12
12
12
12
12
12
12
12
12
12
12
12
12
12
12
12
12
12
12
12
12
12
12
12
12
12
12
12
12
12
12
12
12
12
12
12
12
12
12
12
12
12
12
12
12
12
12
12
12
12
12
12
12
12
12
12
12
12
12
12
12
12
12
12
12
12
12
12
12
12
12
12
12
12
12
12
12
12
12
12
12
12
12
12
12
12
12
12
12
12
12
12
12
12
12
12
12
12
12
12
12
12
12
12
12
12
12
12
12
12
12
12
12
12
12
12
12
12
12
12
12
12
12
12
12
12
12
12
12
12
12
12
12
12
12
12
12
12
12
12
12
12
12
12
12
12
12
12
12
12
12
12
12
12
12
12
12
12
12
12
12
12

POINT_DATA 3012
SCALARS Jp_lamdaP float 4
LOOKUP_TABLE default
1 1 1 1
1 1 1 1
1 1 1 1
1 1 1 1
1 1 1 1
1 1 1 1
0.999964 1 1 0.999964
1 1 1 1
1 1 1 1
1 1 1 1
1 1 1 1
0.999998 1 1 0.999998
1 1 1 1
1 1 1 1
1 1 1 1
1 1 1 1
1 1 1 1
1 1 1 1
0.999964 1 1 0.999964
1 1 1 1
1 1 1 1
1 1 1 1
0.99993 1 1 0.99993
0.999954 1 1 0.999954
1 1 1 1
0.999974 1 1 0.999974
0.999878 1 1 0.999878
1 1 1 1
1 1 1 1
1 1 1 1
1 1 1 1
0.999998 1 1 0.999998
1 1 1 1
1 1 1 1
0.999978 1 1 0.999978
1 1 1 1
0.999994 1 1 0.999994
1 1 1 1
0.999901 1 1 0.999901
1 1 1 1
1 1 1 1
1 1 1 1
1 1 1 1
1 1 1 1
0.999945 1 1 0.999945
1 1 1 1
0.999961 1 1 0.999961
1 1 1 1
1 1 1 1
1 1 1 1
0.999965 1 1 0.999965
1 1 1 1
1 1 1 1
1 1 1 1
1 1 1 1
0.999931 1 1 0.999931
0.999974 1 1 0.999974
0.999955 1 1 0.999955
0.999875 1 1 0.999875
1 1 1 1
1 1 1 1
0.99995 1 1 0.99995
0.999921 1 1 0.999921
0.999943 1 1 0.999943
0.999796 1 1 0.999796
0.999843 1 1 0.999843
1 1 1 1
0.999982 1 1 0.999982
0.999901 1 1 0.999901
0.999747 1 1 0.999747
1 1 1 1
1 1 1 1
1 1 1 1
0.999999 1 1 0.999999
1 1 1 1
1 1 1 1
0.999981 1 1 0.999981
1 1 1 1
0.999995 1 1 0.999995
1 1 1 1
0.9999 1 1 0.9999
1 1 1 1
1 1 1 1
0.99997 1 1 0.99997
0.999987 1 1 0.999987
0.999832 1 1 0.999832
1 1 1 1
0.999889 1 1 0.999889
0.999913 1 1 0.999913
0.999801 1 1 0.999801
1 1 1 1
1 1 1 1
1 1 1 1
1 1 1 1
1 1 1 1
1 1 1 1
0.999948 1 1 0.999948
1 1 1 1
0.999962 1 1 0.999962
1 1 1 1
0.999938 1 1 0.999938
0.999954 1 1 0.999954
0.999727 1 1 0.999727
0.999965 1 1 0.999965
0.999759 1 1 0.999759
1 1 1 1
1 1 1 1
1 1 1 1
1 1 1 1
0.999932 1 1 0.999932
0.999956 1 1 0.999956
0.999975 1 1 0.999975
0.999872 1 1 0.999872
1 1 1 1
1 1 1 1
0.999932 1 1 0.999932
0.999922 1 1 0.999922
1 1 1 1
0.999991 1 1 0.999991
0.999944 1 1 0.999944
0.999788 1 1 0.999788
0.999898 1 1 0.999898
0.999849 1 1 0.999849
0.999748 1 1 0.999748
0.999943 1 1 0.999943
0.99992 1 1 0.99992
0.999746 1 1 0.999746
0.999763 1 1 0.999763
0.999814 1 1 0.999814
0.999672 1 1 0.999672
1 1 1 1
0.999732 1 1 0.999732
1 1 1 1
0.999906 1 1 0.999906
0.999764 1 1 0.999764
0.999696 1 1 0.999696
1 1 1 1
0.999934 1 1 0.999934
1 1 1 1
1 1 1 1
0.999983 1 1 0.999983
1 1 1 1
1 1 1 1
0.999996 1 1 0.999996
0.9999 1 1 0.9999
1 1 1 1
1 1 1 1
0.999972 1 1 0.999972
0.999989 1 1 0.999989
0.999833 1 1 0.999833
1 1 1 1
0.999889 1 1 0.999889
0.999913 1 1 0.999913
0.999797 1 1 0.999797
1 1 1 1
1 1 1 1
0.999942 1 1 0.999942
0.999802 1 1 0.999802
0.999865 1 1 0.999865
0.999723 1 1 0.999723
0.999927 1 1 0.999927
0.999787 1 1 0.999787
0.999807 1 1 0.999807
0.999756 1 1 0.999756
1 1 1 1
1 1 1 1
1 1 1 1
1 1 1 1
1 1 1 1
1 1 1 1
1 1 1 1
0.999963 1 1 0.999963
0.999949 1 1 0.999949
1 1 1 1
1 1 1 1
0.999939 1 1 0.999939
0.999956 1 1 0.999956
0.999727 1 1 0.999727
0.999966 1 1 0.999966
0.999759 1 1 0.999759
0.999937 1 1 0.999937
0.999713 1 1 0.999713
0.999743 1 1 0.999743
0.999624 1 1 0.999624
0.999778 1 1 0.999778
0.999658 1 1 0.999658
1 1 1 1
1 1 1 1
0.999913 1 1 0.999913
0.999922 1 1 0.999922
1 1 1 1
0.999999 1 1 0.999999
0.999945 1 1 0.999945
0.999779 1 1 0.999779
0.999855 1 1 0.999855
0.999894 1 1 0.999894
0.999749 1 1 0.999749
0.999942 1 1 0.999942
0.99992 1 1 0.99992
0.999729 1 1 0.999729
0.999769 1 1 0.999769
1 1 1 1
1 1 1 1
0.999912 1 1 0.999912
0.999814 1 1 0.999814
0.999662 1 1 0.999662
0.999762 1 1 0.999762
0.999737 1 1 0.999737
0.999697 1 1 0.999697
1 1 1 1
0.999934 1 1 0.999934
0.999717 1 1 0.999717
0.999754 1 1 0.999754
0.999633 1 1 0.999633
0.99963 1 1 0.99963
0.999713 1 1 0.999713
0.999624 1 1 0.999624
1 1 1 1
0.999686 1 1 0.999686
0.999917 1 1 0.999917
0.999785 1 1 0.999785
0.999711 1 1 0.999711
0.999683 1 1 0.999683
0.999926 1 1 0.999926
0.999948 1 1 0.999948
0.999808 1 1 0.999808
0.999974 1 1 0.999974
1 1 1 1
1 1 1 1
0.999992 1 1 0.999992
0.999833 1 1 0.999833
1 1 1 1
0.999914 1 1 0.999914
0.999889 1 1 0.999889
0.999794 1 1 0.999794
1 1 1 1
1 1 1 1
0.999941 1 1 0.999941
0.999802 1 1 0.999802
0.999866 1 1 0.999866
0.999723 1 1 0.999723
0.999928 1 1 0.999928
0.99979 1 1 0.99979
0.999806 1 1 0.999806
0.999751 1 1 0.999751
1 1 1 1
0.999936 1 1 0.999936
0.999951 1 1 0.999951
0.999825 1 1 0.999825
0.999694 1 1 0.999694
0.999762 1 1 0.999762
0.999669 1 1 0.999669
0.999818 1 1 0.999818
0.999743 1 1 0.999743
0.999741 1 1 0.999741
0.999719 1 1 0.999719
0.999982 1 1 0.999982
1 1 1 1
1 1 1 1
1 1 1 1
1 1 1 1
1 1 1 1
1 1 1 1
1 1 1 1
1 1 1 1
0.999968 1 1 0.999968
0.999958 1 1 0.999958
0.999759 1 1 0.999759
0.999727 1 1 0.999727
0.99994 1 1 0.99994
1 1 1 1
0.999937 1 1 0.999937
0.999713 1 1 0.999713
0.999743 1 1 0.999743
0.999624 1 1 0.999624
0.999778 1 1 0.999778
0.999658 1 1 0.999658
0.99971 1 1 0.99971
0.999611 1 1 0.999611
0.99964 1 1 0.99964
0.999591 1 1 0.999591
0.999676 1 1 0.999676
0.999622 1 1 0.999622
0.99994 1 1 0.99994
0.99992 1 1 0.99992
0.999713 1 1 0.999713
0.999774 1 1 0.999774
1 1 1 1
1 1 1 1
0.999918 1 1 0.999918
0.999815 1 1 0.999815
0.999653 1 1 0.999653
0.999742 1 1 0.999742
0.99976 1 1 0.99976
0.999698 1 1 0.999698
1 1 1 1
0.999934 1 1 0.999934
0.999711 1 1 0.999711
0.999754 1 1 0.999754
0.99963 1 1 0.99963
0.99964 1 1 0.99964
1 1 1 1
0.999917 1 1 0.999917
0.999792 1 1 0.999792
0.999713 1 1 0.999713
0.999621 1 1 0.999621
0.999703 1 1 0.999703
0.999686 1 1 0.999686
0.999683 1 1 0.999683
0.999927 1 1 0.999927
0.999805 1 1 0.999805
0.999948 1 1 0.999948
0.999627 1 1 0.999627
0.999631 1 1 0.999631
0.99958 1 1 0.99958
0.99959 1 1 0.99959
0.999665 1 1 0.999665
0.999625 1 1 0.999625
0.999923 1 1 0.999923
0.999678 1 1 0.999678
0.999814 1 1 0.999814
0.999721 1 1 0.999721
0.999668 1 1 0.999668
0.999699 1 1 0.999699
0.999966 1 1 0.999966
0.999814 1 1 0.999814
0.999799 1 1 0.999799
0.999755 1 1 0.999755
0.999802 1 1 0.999802
1 1 1 1
1 1 1 1
0.999941 1 1 0.999941
0.999867 1 1 0.999867
0.999723 1 1 0.999723
0.999928 1 1 0.999928
0.999806 1 1 0.999806
0.999794 1 1 0.999794
0.999746 1 1 0.999746
1 1 1 1
0.999935 1 1 0.999935
0.999951 1 1 0.999951
0.999824 1 1 0.999824
0.999694 1 1 0.999694
0.999763 1 1 0.999763
0.999669 1 1 0.999669
0.999818 1 1 0.999818
0.999747 1 1 0.999747
0.99974 1 1 0.99974
0.999728 1 1 0.999728
1 1 1 1
0.999961 1 1 0.999961
0.999824 1 1 0.999824
0.999829 1 1 0.999829
0.999754 1 1 0.999754
0.999648 1 1 0.999648
0.99971 1 1 0.99971
0.999649 1 1 0.999649
0.999747 1 1 0.999747
0.999714 1 1 0.999714
0.999675 1 1 0.999675
0.999977 1 1 0.999977
0.999877 1 1 0.999877
0.999987 1 1 0.999987
0.999984 1 1 0.999984
1 1 1 1
1 1 1 1
1 1 1 1
1 1 1 1
1 1 1 1
1 1 1 1
1 1 1 1
1 1 1 1
1 1 1 1
1 1 1 1
1 1 1 1
0.999778 1 1 0.999778
0.999744 1 1 0.999744
0.999658 1 1 0.999658
0.999623 1 1 0.999623
0.999713 1 1 0.999713
0.999936 1 1 0.999936
0.99971 1 1 0.99971
0.999611 1 1 0.999611
0.99964 1 1 0.99964
0.99959 1 1 0.99959
0.999676 1 1 0.999676
0.999622 1 1 0.999622
0.999607 1 1 0.999607
0.999583 1 1 0.999583
0.999603 1 1 0.999603
0.999584 1 1 0.999584
0.999638 1 1 0.999638
0.999635 1 1 0.999635
0.999705 1 1 0.999705
0.999754 1 1 0.999754
0.999627 1 1 0.999627
0.999651 1 1 0.999651
1 1 1 1
0.999917 1 1 0.999917
0.999798 1 1 0.999798
0.999714 1 1 0.999714
0.999619 1 1 0.999619
0.999686 1 1 0.999686
0.999696 1 1 0.999696
0.999682 1 1 0.999682
0.999927 1 1 0.999927
0.999801 1 1 0.999801
0.999948 1 1 0.999948
0.99962 1 1 0.99962
0.999631 1 1 0.999631
0.999575 1 1 0.999575
0.999592 1 1 0.999592
0.999923 1 1 0.999923
0.999814 1 1 0.999814
0.999728 1 1 0.999728
0.999667 1 1 0.999667
0.999628 1 1 0.999628
0.999662 1 1 0.999662
0.999678 1 1 0.999678
0.999703 1 1 0.999703
0.999815 1 1 0.999815
0.999749 1 1 0.999749
0.999965 1 1 0.999965
0.9998 1 1 0.9998
0.999573 1 1 0.999573
0.999575 1 1 0.999575
0.999549 1 1 0.999549
0.999586 1 1 0.999586
0.999667 1 1 0.999667
0.999645 1 1 0.999645
0.999819 1 1 0.999819
0.999709 1 1 0.999709
0.999751 1 1 0.999751
0.999673 1 1 0.999673
0.999642 1 1 0.999642
0.999706 1 1 0.999706
0.999977 1 1 0.999977
0.999813 1 1 0.999813
0.999761 1 1 0.999761
0.999732 1 1 0.999732
0.999726 1 1 0.999726
1 1 1 1
0.999693 1 1 0.999693
0.999951 1 1 0.999951
0.999935 1 1 0.999935
0.999824 1 1 0.999824
0.999763 1 1 0.999763
0.999669 1 1 0.999669
0.999819 1 1 0.999819
0.999738 1 1 0.999738
0.999752 1 1 0.999752
0.999738 1 1 0.999738
1 1 1 1
0.999962 1 1 0.999962
0.999824 1 1 0.999824
0.999829 1 1 0.999829
0.999752 1 1 0.999752
0.999647 1 1 0.999647
0.99971 1 1 0.99971
0.999647 1 1 0.999647
0.999748 1 1 0.999748
0.999717 1 1 0.999717
0.99968 1 1 0.99968
0.99997 1 1 0.99997
0.999838 1 1 0.999838
0.999752 1 1 0.999752
0.999753 1 1 0.999753
0.999722 1 1 0.999722
0.999639 1 1 0.999639
0.999683 1 1 0.999683
0.999665 1 1 0.999665
0.999687 1 1 0.999687
0.999643 1 1 0.999643
0.999978 1 1 0.999978
0.999849 1 1 0.999849
0.99987 1 1 0.99987
0.999798 1 1 0.999798
0.999886 1 1 0.999886
0.99999 1 1 0.99999
0.999988 1 1 0.999988
1 1 1 1
0.999985 1 1 0.999985
1 1 1 1
1 1 1 1
1 1 1 1
1 1 1 1
1 1 1 1
1 1 1 1
1 1 1 1
1 1 1 1
1 1 1 1
1 1 1 1
1 1 1 1
0.999675 1 1 0.999675
0.99964 1 1 0.99964
0.999623 1 1 0.999623
0.99959 1 1 0.99959
0.999611 1 1 0.999611
0.99971 1 1 0.99971
0.999607 1 1 0.999607
0.999582 1 1 0.999582
0.999603 1 1 0.999603
0.999582 1 1 0.999582
0.999638 1 1 0.999638
0.999636 1 1 0.999636
0.999575 1 1 0.999575
0.999577 1 1 0.999577
0.9996 1 1 0.9996
0.999575 1 1 0.999575
0.999643 1 1 0.999643
0.999654 1 1 0.999654
0.999613 1 1 0.999613
0.999631 1 1 0.999631
0.99957 1 1 0.99957
0.999595 1 1 0.999595
0.999924 1 1 0.999924
0.999814 1 1 0.999814
0.999735 1 1 0.999735
0.99967 1 1 0.99967
0.999632 1 1 0.999632
0.999679 1 1 0.999679
0.999656 1 1 0.999656
0.999706 1 1 0.999706
0.999815 1 1 0.999815
0.999742 1 1 0.999742
0.999964 1 1 0.999964
0.999802 1 1 0.999802
0.999573 1 1 0.999573
0.999576 1 1 0.999576
0.999546 1 1 0.999546
0.999587 1 1 0.999587
0.999819 1 1 0.999819
0.999757 1 1 0.999757
0.999672 1 1 0.999672
0.999664 1 1 0.999664
0.999657 1 1 0.999657
0.999639 1 1 0.999639
0.999709 1 1 0.999709
0.999716 1 1 0.999716
0.999761 1 1 0.999761
0.999723 1 1 0.999723
0.999731 1 1 0.999731
0.999966 1 1 0.999966
0.999816 1 1 0.999816
0.999552 1 1 0.999552
0.999537 1 1 0.999537
0.999607 1 1 0.999607
0.99969 1 1 0.99969
0.999769 1 1 0.999769
0.999745 1 1 0.999745
0.999709 1 1 0.999709
0.999612 1 1 0.999612
0.999622 1 1 0.999622
0.999966 1 1 0.999966
0.999853 1 1 0.999853
0.999739 1 1 0.999739
0.999737 1 1 0.999737
0.999681 1 1 0.999681
0.999701 1 1 0.999701
1 1 1 1
0.999962 1 1 0.999962
0.999646 1 1 0.999646
0.999829 1 1 0.999829
0.999824 1 1 0.999824
0.99975 1 1 0.99975
0.99971 1 1 0.99971
0.999644 1 1 0.999644
0.999749 1 1 0.999749
0.999685 1 1 0.999685
0.99972 1 1 0.99972
0.999971 1 1 0.999971
0.999838 1 1 0.999838
0.999757 1 1 0.999757
0.999752 1 1 0.999752
0.999718 1 1 0.999718
0.999637 1 1 0.999637
0.999681 1 1 0.999681
0.999668 1 1 0.999668
0.999683 1 1 0.999683
0.999635 1 1 0.999635
0.999848 1 1 0.999848
0.999744 1 1 0.999744
0.999707 1 1 0.999707
0.999703 1 1 0.999703
0.999693 1 1 0.999693
0.999702 1 1 0.999702
0.999634 1 1 0.999634
0.999651 1 1 0.999651
0.99964 1 1 0.99964
0.999563 1 1 0.999563
0.99998 1 1 0.99998
0.999854 1 1 0.999854
0.999762 1 1 0.999762
0.999862 1 1 0.999862
0.999886 1 1 0.999886
0.999787 1 1 0.999787
0.999729 1 1 0.999729
0.999783 1 1 0.999783
0.999893 1 1 0.999893
0.999992 1 1 0.999992
0.999991 1 1 0.999991
1 1 1 1
0.999989 1 1 0.999989
1 1 1 1
1 1 1 1
1 1 1 1
1 1 1 1
1 1 1 1
1 1 1 1
1 1 1 1
1 1 1 1
1 1 1 1
1 1 1 1
1 1 1 1
0.999637 1 1 0.999637
0.999603 1 1 0.999603
0.999636 1 1 0.999636
0.99958 1 1 0.99958
0.99958 1 1 0.99958
0.999608 1 1 0.999608
0.999575 1 1 0.999575
0.999578 1 1 0.999578
0.999597 1 1 0.999597
0.999569 1 1 0.999569
0.999643 1 1 0.999643
0.999663 1 1 0.999663
0.999577 1 1 0.999577
0.999577 1 1 0.999577
0.999599 1 1 0.999599
0.999703 1 1 0.999703
0.999574 1 1 0.999574
0.999578 1 1 0.999578
0.999544 1 1 0.999544
0.999588 1 1 0.999588
0.99982 1 1 0.99982
0.999762 1 1 0.999762
0.999671 1 1 0.999671
0.999661 1 1 0.999661
0.999669 1 1 0.999669
0.99971 1 1 0.99971
0.999635 1 1 0.999635
0.999727 1 1 0.999727
0.999761 1 1 0.999761
0.999721 1 1 0.999721
0.99973 1 1 0.99973
0.999955 1 1 0.999955
0.999819 1 1 0.999819
0.999549 1 1 0.999549
0.999542 1 1 0.999542
0.999612 1 1 0.999612
0.999769 1 1 0.999769
0.999717 1 1 0.999717
0.999611 1 1 0.999611
0.999685 1 1 0.999685
0.999636 1 1 0.999636
0.999742 1 1 0.999742
0.999966 1 1 0.999966
0.999737 1 1 0.999737
0.999706 1 1 0.999706
0.999683 1 1 0.999683
0.999742 1 1 0.999742
0.999844 1 1 0.999844
0.999543 1 1 0.999543
0.999535 1 1 0.999535
0.999648 1 1 0.999648
0.999739 1 1 0.999739
0.999737 1 1 0.999737
0.999674 1 1 0.999674
0.999642 1 1 0.999642
0.999566 1 1 0.999566
0.999975 1 1 0.999975
0.999873 1 1 0.999873
0.999764 1 1 0.999764
0.999661 1 1 0.999661
0.999707 1 1 0.999707
0.999662 1 1 0.999662
0.999972 1 1 0.999972
0.999837 1 1 0.999837
0.999636 1 1 0.999636
0.999752 1 1 0.999752
0.999761 1 1 0.999761
0.999714 1 1 0.999714
0.99968 1 1 0.99968
0.99967 1 1 0.99967
0.999679 1 1 0.999679
0.999627 1 1 0.999627
0.999848 1 1 0.999848
0.999747 1 1 0.999747
0.999713 1 1 0.999713
0.999707 1 1 0.999707
0.999696 1 1 0.999696
0.999706 1 1 0.999706
0.999637 1 1 0.999637
0.999671 1 1 0.999671
0.999635 1 1 0.999635
0.999556 1 1 0.999556
0.99975 1 1 0.99975
0.999681 1 1 0.999681
0.999664 1 1 0.999664
0.999666 1 1 0.999666
0.999709 1 1 0.999709
0.999705 1 1 0.999705
0.999559 1 1 0.999559
0.999934 1 1.0004 0.999533
0.99986 1 1 0.99986
0.999768 1 1 0.999768
0.999712 1 1 0.999712
0.999886 1 1 0.999886
0.999776 1 1 0.999776
0.999893 1 1 0.999893
0.999721 1 1 0.999721
0.999788 1 1 0.999788
0.999677 1 1 0.999677
0.999717 1 1 0.999717
0.99979 1 1 0.99979
0.999897 1 1 0.999897
0.999993 1 1 0.999993
0.999992 1 1 0.999992
1 1 1 1
0.999991 1 1 0.999991
1 1 1 1
1 1 1 1
1 1 1 1
1 1 1 1
1 1 1 1
1 1 1 1
1 1 1 1
1 1 1 1
1 1 1 1
1 1 1 1
1 1 1 1
0.999643 1 1 0.999643
0.999593 1 1 0.999593
0.999673 1 1 0.999673
0.999562 1 1 0.999562
0.999578 1 1 0.999578
0.999574 1 1 0.999574
0.999575 1 1 0.999575
0.999576 1 1 0.999576
0.999605 1 1 0.999605
0.999699 1 1 0.999699
0.999577 1 1 0.999577
0.999591 1 1 0.999591
0.999655 1 1 0.999655
0.999547 1 1 0.999547
0.999547 1 1 0.999547
0.999616 1 1 0.999616
0.999768 1 1 0.999768
0.999724 1 1 0.999724
0.999609 1 1 0.999609
0.99968 1 1 0.99968
0.999739 1 1 0.999739
0.99965 1 1 0.99965
0.999736 1 1 0.999736
0.99971 1 1 0.99971
0.999684 1 1 0.999684
0.999967 1 1 0.999967
0.999746 1 1 0.999746
0.999835 1 1 0.999835
0.999549 1 1 0.999549
0.999533 1 1 0.999533
0.99964 1 1 0.99964
0.999736 1 1 0.999736
0.999652 1 1 0.999652
0.999571 1 1 0.999571
0.999745 1 1 0.999745
0.999673 1 1 0.999673
0.999983 1 1 0.999983
0.999873 1 1 0.999873
0.999707 1 1 0.999707
0.999664 1 1 0.999664
0.999666 1 1 0.999666
0.999758 1 1 0.999758
0.999563 1 1 0.999563
0.999551 1 1 0.999551
0.999674 1 0.999938 0.999736
0.999754 1 1 0.999754
0.999691 1 1 0.999691
1.00005 1 1.0005 0.999551
0.999591 1 1 0.999591
0.999997 1 1 0.999997
0.999917 1 1 0.999917
0.999877 1 1 0.999877
0.999768 1 1 0.999768
0.99968 1 1 0.99968
0.999619 1 1 0.999619
0.999683 1 1 0.999683
0.999634 1 1 0.999634
0.999848 1 1 0.999848
0.999751 1 1 0.999751
0.99971 1 1 0.99971
0.999712 1 1 0.999712
0.999719 1 1 0.999719
0.9997 1 1 0.9997
0.99964 1 1 0.99964
0.99969 1 1 0.99969
0.99963 1 1 0.99963
0.999549 1 1 0.999549
0.999749 1 1 0.999749
0.999688 1 1 0.999688
0.999669 1 1 0.999669
0.99967 1 1 0.99967
0.999711 1 1 0.999711
0.999701 1 1 0.999701
0.999568 1 1 0.999568
0.99976 1 1.00023 0.99953
0.999698 1 1 0.999698
0.999654 1 1 0.999654
0.999646 1 1 0.999646
0.999613 1 1 0.999613
0.999575 1 0.999848 0.999727
0.999541 1 1 0.999541
1.00017 1 1.00069 0.999487
0.999773 1 1 0.999773
0.999712 1 1 0.999712
0.999667 1 1 0.999667
0.999893 1 1 0.999893
0.999792 1 1 0.999792
0.999713 1 1 0.999713
0.999897 1 1 0.999897
0.999789 1 1 0.999789
0.999671 1 1 0.999671
0.999726 1 1 0.999726
0.99964 1 1 0.99964
0.999664 1 1 0.999664
0.999732 1 1 0.999732
0.9998 1 1 0.9998
0.999897 1 1 0.999897
0.999992 1 1 0.999992
0.999993 1 1 0.999993
1 1 1 1
0.999993 1 1 0.999993
1 1 1 1
1 1 1 1
1 1 1 1
1 1 1 1
1 1 1 1
0.999999 1 1 0.999999
1 1 1 1
1 1 1 1
1 1 1 1
1 1 1 1
1 1 1 1
1 1 1 1
0.999696 1 1 0.999696
0.99961 1 1 0.99961
0.999576 1 1 0.999576
0.999573 1 1 0.999573
0.999583 1 1 0.999583
0.999585 1 1 0.999585
0.999668 1 1 0.999668
0.999594 1 1 0.999594
0.999607 1 1 0.999607
0.999687 1 1 0.999687
0.999555 1 1 0.999555
0.99953 1 1 0.99953
0.999632 1 1 0.999632
0.999735 1 1 0.999735
0.999661 1 1 0.999661
0.999576 1 1 0.999576
0.999751 1 1 0.999751
0.999672 1 1 0.999672
0.999706 1 1 0.999706
0.999666 1 1 0.999666
0.999672 1 1 0.999672
0.999991 1 1 0.999991
0.999873 1 1 0.999873
0.999752 1 1 0.999752
0.999561 1 1 0.999561
0.999995 1 1 0.999995
0.999911 1 1 0.999911
0.999553 1 1 0.999553
0.99972 1 1 0.99972
0.999695 1 1 0.999695
0.999613 1 1.00003 0.999581
0.99975 1 1.00019 0.999555
0.999752 1 1 0.999752
0.999893 1 1 0.999893
0.999767 1 1 0.999767
0.999685 1 1 0.999685
0.999644 1 1 0.999644
0.999609 1 1 0.999609
0.999682 1 1 0.999682
0.999554 1 1 0.999554
0.999631 1 1 0.999631
0.999428 1 0.999601 0.999827
0.999628 1 1 0.999628
0.999657 1 1 0.999657
1.00084 1 1.00133 0.999513
0.999915 1 1 0.999915
0.999906 1 1 0.999906
0.999836 1 1 0.999836
0.999772 1 1 0.999772
0.9997 1 1 0.9997
0.999613 1 1 0.999613
0.999569 1 1 0.999569
0.999643 1 1 0.999643
0.999747 1 1 0.999747
0.999694 1 1 0.999694
0.999712 1 1 0.999712
0.999696 1 1 0.999696
0.999675 1 1 0.999675
0.999675 1 1 0.999675
0.999577 1 1 0.999577
0.999624 1 1.0001 0.999527
0.999698 1 1 0.999698
0.999671 1 1 0.999671
0.999646 1 1 0.999646
0.99965 1 1.00005 0.999603
0.999649 1.00001 0.99992 0.999722
0.999543 1 1 0.999543
1.0001 1 1.00062 0.999484
0.99965 1 1 0.99965
1.00104 1.00189 0.99947 0.999683
0.999615 1 1 0.999615
1.00002 1 1.0005 0.999526
0.999406 1 0.99986 0.999546
1.00064 1 1.0012 0.999449
0.995427 1.00574 0.990262 0.999475
0.999712 1 1 0.999712
0.999667 1 1 0.999667
0.999635 1 1 0.999635
0.999897 1 1 0.999897
0.999789 1 1 0.999789
0.999735 1 1 0.999735
0.999665 1 1 0.999665
0.999897 1 1 0.999897
0.999795 1 1 0.999795
0.999638 1 1 0.999638
0.999732 1 1 0.999732
0.999672 1 1 0.999672
0.999618 1 1 0.999618
0.999681 1 1 0.999681
0.999736 1 1 0.999736
0.999786 1 1 0.999786
0.999881 1 1 0.999881
0.999809 1 1 0.999809
0.999879 1 1 0.999879
0.999992 1 1 0.999992
0.999992 1 1 0.999992
1 1 1 1
0.999992 1 1 0.999992
1 1 1 1
1 1 1 1
1 1 1 1
1 1 1 1
1 1 1 1
1 1 1 1
0.999999 1 1 0.999999
1 1 1 1
1 1 1 1
1 1 1 1
1 1 1 1
1 1 1 1
1 1 1 1
0.99968 1 1 0.99968
0.999579 1 1 0.999579
0.999588 1 1 0.999588
0.999595 1 1 0.999595
0.999612 1 1 0.999612
0.999694 1 1 0.999694
0.999623 1 1 0.999623
0.997916 1.00286 0.995308 0.99976
0.999851 1.00036 0.999705 0.999786
0.999936 1 1 0.999936
0.999559 1 1 0.999559
0.999555 1 1 0.999555
0.999705 1 1 0.999705
0.9997 1 1 0.9997
0.999584 1 1.00001 0.999571
0.999559 1 1 0.999559
0.999749 1 1 0.999749
0.999686 1 1 0.999686
0.999653 1 1 0.999653
0.9996 1 1 0.9996
0.999994 1 1 0.999994
0.999684 1 1 0.999684
0.999909 1 1 0.999909
0.999767 1 1 0.999767
0.999905 1 1 0.999905
0.999546 1 1 0.999546
0.999923 1 1 0.999923
0.999906 1 1 0.999906
0.999824 1 1 0.999824
0.999633 1 1 0.999633
0.999297 1 0.999492 0.999805
0.99966 1 1 0.99966
1.00062 1 1.00111 0.999509
0.999646 1 1.00001 0.999632
0.999781 1 1 0.999781
0.999696 1 1 0.999696
0.999641 1 1 0.999641
0.999612 1 1.00003 0.999578
0.999619 1 1 0.999619
0.99958 1 1.00004 0.999535
0.997174 1 0.997412 0.999761
0.999416 1 0.999716 0.9997
1.00035 1 1.00082 0.999526
1.00054 1 1.00093 0.999604
0.999825 1 1 0.999825
0.999794 1 1 0.999794
0.999756 1 1 0.999756
0.999701 1 1 0.999701
0.999643 1 1 0.999643
0.999572 1 1 0.999572
1.00115 1 1.0016 0.999554
0.999698 1 1 0.999698
0.999645 1 1 0.999645
0.999688 1 1 0.999688
0.999657 1 0.99994 0.999717
0.999545 1 1 0.999545
0.999642 1 1.00005 0.999593
0.999968 1 1.00049 0.999481
0.999654 1 1 0.999654
1.00119 1.00203 0.999465 0.999692
0.999615 1 1 0.999615
0.999913 1 1.00039 0.999525
0.999469 1.00014 0.999767 0.999561
1.00128 1 1.00183 0.999447
0.998834 1.00825 0.991146 0.999511
0.999621 1 1 0.999621
1.0008 1.00217 0.999117 0.999516
0.999583 1 1 0.999583
1.0027 1 1.00322 0.999475
1.00045 1 1.00101 0.999442
0.961948 0.963823 1.00004 0.998014
0.994577 1.00115 0.993993 0.999435
0.985078 1.0089 0.976894 0.999482
0.949374 0.959292 0.990056 0.999601
0.959617 0.983757 0.975646 0.999811
0.999667 1 1 0.999667
0.999636 1 1 0.999636
0.999606 1 1 0.999606
0.999897 1 1 0.999897
0.999789 1 1 0.999789
0.999732 1 1 0.999732
0.999679 1 1 0.999679
0.999636 1 1 0.999636
0.999727 1 1 0.999727
0.999888 1 1 0.999888
0.999793 1 1 0.999793
0.999623 1 1 0.999623
0.999678 1 1 0.999678
0.999686 1 1 0.999686
0.999626 1 1 0.999626
0.99971 1 1 0.99971
0.999785 1 1 0.999785
0.99988 1 1 0.99988
0.999802 1 1 0.999802
0.999733 1 1 0.999733
0.999787 1 1 0.999787
0.999797 1 1 0.999797
0.99989 1 1 0.99989
0.999879 1 1 0.999879
0.999991 1 1 0.999991
0.999991 1 1 0.999991
1 1 1 1
0.999992 1 1 0.999992
1 1 1 1
1 1 1 1
1 1 1 1
1 1 1 1
1 1 1 1
1 1 1 1
1 1 1 1
1 1 1 1
0.999998 1 1 0.999998
1 1 1 1
1 1 1 1
1 1 1 1
1 1 1 1
1 1 1 1
0.999618 1 1 0.999618
0.999595 1 1 0.999595
0.999701 1 1 0.999701
0.997507 1.0025 0.995263 0.999759
0.99962 1 1 0.99962
0.999783 1.00017 0.999863 0.999751
0.999601 1 1.00004 0.999564
0.981054 0.984914 0.99692 0.999159
0.999895 1.00033 0.999727 0.999836
0.999941 1 1 0.999941
0.999936 1 1 0.999936
0.999849 1 1 0.999849
0.99986 1 1 0.99986
0.999538 1 1 0.999538
0.999635 1 1 0.999635
0.999274 1 0.999491 0.999783
0.999663 1 1 0.999663
1.00032 1 1.00081 0.999505
0.999636 1 1 0.999636
0.999638 1 1 0.999638
0.999639 1 1.00005 0.999587
0.999625 1 1 0.999625
0.999905 1 1 0.999905
0.999693 1 1 0.999693
0.99979 1 1 0.99979
0.99993 1 1 0.99993
0.999812 1 1 0.999812
0.999582 1 1.00003 0.999547
0.999837 1 1 0.999837
0.999802 1 1 0.999802
0.999757 1 1 0.999757
0.998147 1.00007 0.998319 0.999762
0.999247 1 0.999546 0.999701
1.00051 1 1.00091 0.999603
1.00037 1 1.00084 0.999528
0.999704 1 1 0.999704
0.999646 1 1 0.999646
1.00054 1 1.00099 0.999554
0.999595 1 1.00003 0.999569
0.999615 1.00005 0.999954 0.999606
0.997973 1.00051 0.997732 0.999735
0.999744 1 1.00024 0.9995
1.00054 1 1.001 0.999546
0.999733 1 1 0.999733
0.999718 1 1 0.999718
0.99961 1 1 0.99961
1.00157 1 1.00207 0.999501
0.959883 0.963719 0.998058 0.997957
0.999658 1 1 0.999658
0.999615 1 1 0.999615
1.0014 1.00211 0.999586 0.9997
0.999819 1.0003 0.999944 0.999577
1.00197 1 1.00253 0.999444
0.999885 1 1.00036 0.999524
1.00234 1.01059 0.992284 0.999547
0.999624 1 1 0.999624
1.00116 1.00285 0.998804 0.999513
0.999584 1 1 0.999584
1.00231 1 1.00283 0.999478
1.00011 1 1.00066 0.999453
0.962502 0.964303 0.999936 0.998196
0.990117 0.997861 0.993233 0.999
0.98915 1.01059 0.979277 0.999493
0.953764 0.961919 0.992144 0.999373
0.957577 0.980393 0.976908 0.999816
0.999613 1 1 0.999613
0.961034 0.964806 0.996977 0.999112
0.971476 0.984634 0.986773 0.999861
0.990936 1.00059 0.990871 0.99948
1.0014 1 1.00184 0.999566
1.00814 1 1.00866 0.999479
1.00156 1.01017 0.992032 0.999439
0.973632 0.971688 1.00412 0.997888
0.993931 1.00547 0.989563 0.998947
0.95157 0.964342 0.987212 0.999538
0.990941 1.00658 0.984583 0.999876
0.999637 1 1 0.999637
0.999607 1 1 0.999607
0.99958 1 1 0.99958
0.999895 1 1 0.999895
0.999799 1 1 0.999799
0.999718 1 1 0.999718
0.999675 1 1 0.999675
0.999628 1 1 0.999628
0.99988 1 1 0.99988
0.999684 1 1 0.999684
0.99972 1 1 0.99972
0.999792 1 1 0.999792
0.999619 1 1 0.999619
0.999655 1 1 0.999655
0.999779 1 1.0002 0.999582
0.999715 1 1 0.999715
0.999799 1 1 0.999799
0.999802 1 1 0.999802
0.999724 1 1 0.999724
0.999725 1 1 0.999725
0.999713 1 1 0.999713
0.999676 1 1 0.999676
0.999686 1 1 0.999686
0.999773 1 1 0.999773
0.999787 1 1 0.999787
0.999883 1 1 0.999883
0.999785 1 1 0.999785
0.999883 1 1 0.999883
0.99999 1 1 0.99999
0.99988 1 1 0.99988
0.999991 1 1 0.999991
1 1 1 1
0.999991 1 1 0.999991
1 1 1 1
1 1 1 1
1 1 1 1
1 1 1 1
1 1 1 1
0.999938 1 1 0.999938
1 1 1 1
1 1 1 1
1 1 1 1
1 1 1 1
1 1 1 1
1 1 1 1
1 1 1 1
1 1 1 1
1 1 1 1
0.997219 1.00252 0.994951 0.999757
0.999616 1 1 0.999616
0.999717 1 1 0.999717
0.981238 0.98446 0.997302 0.999424
0.9999 1.00018 0.999883 0.999836
0.99958 1 1.00003 0.999547
1.00122 1.00005 1.00159 0.999579
0.987397 0.986526 1.00163 0.999257
0.964793 0.967083 1.00011 0.997519
0.946988 0.959247 0.988146 0.999063
0.95818 0.977769 0.980134 0.999828
0.999846 1 1 0.999846
0.99994 1 1 0.99994
0.999936 1 1 0.999936
0.999845 1 1 0.999845
0.999787 1 1 0.999787
0.999803 1 1 0.999803
0.99985 1 1 0.99985
0.999854 1 1 0.999854
0.999586 1 1.00003 0.999559
0.998985 1.00009 0.999129 0.999763
0.999032 1 0.99933 0.999702
1.0005 1 1.0009 0.999602
1.00046 1 1.00093 0.99953
1 1 1.00045 0.999555
0.999634 1 1.00007 0.999565
0.999649 1 1 0.999649
0.99981 1 1 0.99981
0.999707 1 1 0.999707
0.99985 1 1 0.99985
0.999758 1 1 0.999758
0.999149 1.00009 0.999465 0.999596
0.999737 1 1 0.999737
0.99972 1 1 0.99972
0.997309 1.00027 0.997303 0.999733
0.999631 1 1.00012 0.999515
1.00098 1 1.00145 0.999531
0.999609 1 1 0.999609
1.00159 1 1.00208 0.999504
0.990886 1.00515 0.986212 0.999596
1.00217 1.00042 1.00221 0.999532
0.999793 1 1.00032 0.999474
1.00457 1 1.0051 0.999472
0.999681 1 1 0.999681
0.99964 1 1 0.99964
1.00007 1 1.00054 0.99953
0.960933 0.967719 0.993525 0.999459
0.963563 0.965575 0.99988 0.998036
0.999627 1 1 0.999627
0.999585 1 1 0.999585
1.00138 1.00369 0.99819 0.999511
0.999727 1 1.00026 0.999463
1.00183 1 1.00235 0.999481
0.962427 0.964993 0.999863 0.997478
0.99139 0.998094 0.993747 0.999533
0.993517 1.01272 0.981527 0.999503
0.94968 0.960857 0.989245 0.999112
0.95512 0.977062 0.977719 0.99982
0.999612 1 1 0.999612
0.958219 0.966495 0.991921 0.999512
0.97283 0.98323 0.989548 0.999873
0.992318 1.00065 0.992197 0.999475
1.00053 1 1.00096 0.999569
1.00736 1 1.00788 0.999491
0.997105 1.0076 0.990156 0.99942
0.974498 0.973153 1.00372 0.997666
0.989232 1.00085 0.988967 0.999421
0.951175 0.964567 0.987036 0.999067
0.985591 1.00499 0.980825 0.999869
0.999587 1 1 0.999587
0.98979 0.991619 0.99824 0.999916
1.01179 1.01365 0.998236 0.999929
1.00771 1 1.00822 0.9995
1.00597 1 1.00634 0.999633
1.00432 1.00361 1.00103 0.999682
0.990964 0.99935 0.99187 0.999736
0.97802 0.975224 1.0051 0.997779
0.965416 0.982023 0.984028 0.999045
1.00387 1.0154 0.98875 0.999898
0.999608 1 1 0.999608
0.999577 1 1 0.999577
0.999985 1 1.00042 0.999564
0.99988 1 1 0.99988
0.999799 1 1 0.999799
0.99973 1 1 0.99973
0.999682 1 1 0.999682
0.999611 1 1 0.999611
0.999799 1 1 0.999799
0.999661 1 1 0.999661
0.999715 1 1 0.999715
0.999821 1 1.00024 0.999576
1.0001 1 1.00055 0.999546
0.999718 1 1.00009 0.999631
0.99972 1 1 0.99972
0.999801 1 1 0.999801
0.999714 1 1 0.999714
0.999725 1 1 0.999725
0.999713 1 1 0.999713
0.999675 1 1 0.999675
0.999696 1 1 0.999696
0.999668 1 1 0.999668
0.999647 1 1 0.999647
0.999653 1 1 0.999653
0.999687 1 1 0.999687
0.999692 1 1 0.999692
0.999686 1 1 0.999686
0.999759 1 1 0.999759
0.999772 1 1 0.999772
0.999872 1 1 0.999872
0.999787 1 1 0.999787
0.999883 1 1 0.999883
0.999987 1 1 0.999987
0.999877 1 1 0.999877
0.999989 1 1 0.999989
1 1 1 1
0.99999 1 1 0.99999
1 1 1 1
1 1 1 1
1 1 1 1
1 1 1 1
1 1 1 1
0.999944 1 1 0.999944
1 1 1 1
0.999938 1 1 0.999938
1 1 1 1
1 1 1 1
1 1 1 1
1 1 1 1
1 1 1 1
1 1 1 1
1 1 1 1
1 1 1 1
0.955356 0.963626 0.991849 0.999566
0.976171 0.986232 0.989894 0.999904
0.982583 0.98512 0.997774 0.999651
0.999824 1 0.999984 0.999835
0.999558 1 1.00003 0.99953
0.986723 0.985026 1.00196 0.999769
1.00046 1.00007 1.0008 0.999589
0.968703 0.96931 1.00136 0.998021
0.951745 0.960625 0.991166 0.999586
0.956458 0.977654 0.978482 0.999834
0.999978 0.99559 1.00465 0.999758
0.973591 0.972805 1.00283 0.997982
0.95003 0.963349 0.986613 0.999556
0.982521 1.0028 0.979917 0.999853
0.999766 1 1 0.999766
0.999851 1 1 0.999851
0.99994 1 1 0.99994
0.999841 1 1 0.999841
0.999793 1 1 0.999793
0.99978 1 1 0.99978
0.999805 1 1 0.999805
0.99982 1 1 0.99982
0.999842 1 1 0.999842
0.999849 1 1 0.999849
0.998621 1.00001 0.999025 0.999586
0.996928 1.00013 0.997064 0.999731
0.999529 1 1 0.999529
1.00135 1 1.00184 0.999516
1.00148 1 1.00198 0.999507
0.999608 1 1 0.999608
0.999723 1 1 0.999723
0.999741 1 1 0.999741
0.99319 1.00397 0.989686 0.999573
0.999678 1 1 0.999678
0.999632 1 1 0.999632
1.00038 1.00025 1.0006 0.999529
1.00023 1 1.00075 0.999478
1.00362 1 1.00416 0.999463
1.00064 1 1.00112 0.999522
0.985822 1.01257 0.974122 0.999445
1.00817 1 1.00871 0.999471
1.00421 1 1.00476 0.999458
0.999675 1 1 0.999675
0.999622 1 1 0.999622
0.99956 1 1 0.99956
0.990328 0.993162 0.997283 0.999863
0.961383 0.966945 0.995185 0.999059
0.961594 0.965399 0.998115 0.99794
0.999611 1 1 0.999611
0.999674 1 1.0001 0.999571
0.993963 1.00065 0.993847 0.99947
1.00675 1 1.00725 0.999503
0.954818 0.964481 0.990915 0.999058
0.972206 0.97207 1.00174 0.998407
0.990788 1.00203 0.989779 0.998994
0.99359 1.00518 0.989056 0.999407
0.951993 0.964082 0.987869 0.999587
0.975642 0.985531 0.990111 0.999853
0.982052 1.00094 0.981272 0.999854
0.999585 1 1 0.999585
0.986663 0.990488 0.996246 0.999892
1.01239 1.01438 0.998105 0.999928
1.00703 1 1.00753 0.999503
1.00627 1 1.00664 0.999634
1.00752 1.00315 1.00501 0.999342
0.989318 0.99944 0.99077 0.999094
0.977218 0.97662 1.00288 0.997737
0.971439 0.983495 0.988111 0.999626
1.00004 1.01336 0.986969 0.99988
0.999661 1 1 0.999661
1.01206 1.01232 0.999791 0.999956
1.01151 1.01366 0.997917 0.999961
1.0075 1 1.00772 0.999782
0.99709 0.994515 1.00269 0.999896
0.986013 0.983171 1.00501 0.997887
0.983363 0.998111 0.985604 0.999614
1.00112 1.01647 0.985028 0.999869
0.999574 1 1 0.999574
0.999928 1 1.00036 0.999572
1.00089 1 1.0013 0.999584
0.999799 1 1 0.999799
0.999715 1 1 0.999715
0.999667 1 1 0.999667
0.999852 1 1.00028 0.99957
0.999719 1 1 0.999719
0.999663 1 1.00003 0.999632
1.00048 1 1.00093 0.999544
1.00042 1 1.00086 0.999566
0.99977 1 1.00021 0.999558
0.999657 1 1 0.999657
0.999724 1 1 0.999724
0.999712 1 1 0.999712
0.999674 1 1 0.999674
0.99967 1 1 0.99967
0.999697 1 1 0.999697
0.99965 1 1 0.99965
0.999637 1 1 0.999637
0.999625 1 1 0.999625
0.999629 1 1 0.999629
0.999654 1 1 0.999654
0.999661 1 1 0.999661
0.999666 1 1 0.999666
0.999732 1 1 0.999732
0.999705 1 1 0.999705
0.999697 1 1 0.999697
0.999747 1 1 0.999747
0.999687 1 1 0.999687
0.99976 1 1 0.99976
0.999858 1 1 0.999858
0.999772 1 1 0.999772
0.999872 1 1 0.999872
0.999984 1 1 0.999984
0.999883 1 1 0.999883
0.999987 1 1 0.999987
1 1 1 1
0.999988 1 1 0.999988
1 1 1 1
1 1 1 1
1 1 1 1
1 1 1 1
1 1 1 1
0.999916 1 1 0.999916
1 1 1 1
0.999931 1 1 0.999931
1 1 1 1
1 1 1 1
0.999938 1 1 0.999938
1 1 1 1
1 1 1 1
1 1 1 1
1 1 1 1
1 1 1 1
1 1 1 1
0.990011 0.992002 0.99807 0.999923
0.957876 0.964872 0.993433 0.999312
1.00961 1.01367 0.996051 0.999939
0.973038 0.982768 0.990203 0.999896
0.983457 0.983685 1.00054 0.99923
0.999797 1.00015 1.00004 0.999601
0.968946 0.969125 1.00127 0.998545
0.949511 0.960813 0.989142 0.999085
0.955219 0.978027 0.976836 0.99984
0.997053 0.99712 1.00037 0.999567
0.973045 0.970836 1.00439 0.997897
0.952334 0.966396 0.986368 0.999069
0.980787 1.00267 0.978316 0.999859
0.996327 1.00424 0.992388 0.999734
0.974942 0.972338 1.0049 0.997788
0.9701 0.98574 0.984518 0.999609
0.999193 1.01644 0.983134 0.999894
0.999721 1 1 0.999721
0.999774 1 1 0.999774
0.999857 1 1 0.999857
0.999799 1 1 0.999799
0.999738 1 1 0.999738
0.999785 1 1 0.999785
0.999808 1 1 0.999808
0.999811 1 1 0.999811
0.999827 1 1 0.999827
0.999835 1 1 0.999835
0.995838 1.00312 0.993186 0.99955
0.998463 1.00003 0.998908 0.999526
1.00066 1 1.00118 0.999482
1.00294 1 1.00349 0.999453
1.00127 1 1.00176 0.999514
0.999623 1 1 0.999623
0.999674 1 1 0.999674
0.999677 1 1 0.999677
0.987997 1.0102 0.978562 0.999446
0.999627 1 1 0.999627
0.999647 1 1.00009 0.999556
1.00765 1 1.00819 0.999464
1.00407 1 1.00462 0.999458
0.988184 1.01062 0.978342 0.999447
1.01745 1 1.01794 0.999518
1.00029 1 1.00078 0.999506
0.999634 1 1 0.999634
0.999566 1 1 0.999566
1.01132 1.01159 0.999768 0.999965
0.990801 0.992901 0.997989 0.999896
0.961747 0.967721 0.994293 0.999531
0.999583 1 1 0.999583
1.00639 1 1.00676 0.999635
1.00595 1 1.00645 0.999505
0.990537 0.992326 0.99828 0.999918
0.977036 0.974609 1.0048 0.997701
0.987926 0.998565 0.989661 0.999682
1.00886 1.002 1.00787 0.998982
0.965133 0.980558 0.985201 0.999053
1.0132 1.01533 0.997976 0.999927
1.00191 1.01348 0.988705 0.999877
0.99967 1 1 0.99967
1.01333 1.01345 0.999921 0.999957
1.01266 1.01505 0.997683 0.999962
1.00773 0.999985 1.00807 0.999686
0.996621 0.996033 1.00089 0.999697
0.988076 0.985247 1.00511 0.997776
1.00364 1.01705 0.986925 0.999889
0.981461 0.994312 0.987686 0.999382
0.999737 1 1 0.999737
1.00497 1.00575 0.999232 0.999991
1.00998 1.01191 0.998115 0.999974
1.00178 1.01531 0.986785 0.999893
1.00657 0.996475 1.01023 0.999906
0.982754 0.982267 1.00245 0.998052
0.9778 0.995249 0.982951 0.999509
0.999848 1 1.00027 0.999581
1.00066 1 1.00109 0.999565
1.00319 1 1.00355 0.999634
0.999719 1 1 0.999719
0.999633 1 1 0.999633
1.00092 1 1.00138 0.999542
0.999659 1 1 0.999659
0.999882 1 1.00033 0.999557
1.00082 1 1.00126 0.999552
0.999936 1 1.00035 0.999581
0.99959 1 1 0.99959
0.999672 1 1 0.999672
0.999697 1 1 0.999697
0.999653 1 1 0.999653
0.999625 1 1 0.999625
0.999637 1 1 0.999637
0.999612 1 1 0.999612
0.999647 1 1 0.999647
0.999767 1 1.00019 0.999576
0.999654 1 1 0.999654
0.999661 1 1 0.999661
0.999606 1 1 0.999606
0.999681 1 1 0.999681
0.999736 1 1 0.999736
0.999667 1 1 0.999667
0.999765 1 1 0.999765
0.999729 1 1 0.999729
0.999723 1 1 0.999723
0.999702 1 1 0.999702
0.999752 1 1 0.999752
0.999847 1 1 0.999847
0.99976 1 1 0.99976
0.999858 1 1 0.999858
0.99998 1 1 0.99998
0.999871 1 1 0.999871
0.999983 1 1 0.999983
1 1 1 1
0.999986 1 1 0.999986
1 1 1 1
1 1 1 1
1 1 1 1
1 1 1 1
1 1 1 1
0.999882 1 1 0.999882
0.999983 1 1 0.999983
0.999915 1 1 0.999915
1 1 1 1
0.999993 1 1 0.999993
0.999919 1 1 0.999919
1 1 1 1
1 1 1 1
1 1 1 1
1 1 1 1
1 1 1 1
1 1 1 1
1.01069 1.01096 0.999775 0.999962
0.986068 0.990435 0.995723 0.999868
0.95987 0.964999 0.995578 0.999103
0.99978 1 1 0.99978
1.01307 1.01447 0.998654 0.999969
1.01152 1.01453 0.997099 0.999938
0.970922 0.982632 0.988228 0.999853
0.99427 0.998213 0.99669 0.999357
0.975745 0.971501 1.00644 0.997939
0.956168 0.968414 0.987764 0.999586
0.980091 1.00059 0.979666 0.999845
0.994965 1.00777 0.988091 0.999189
0.976427 0.973758 1.00491 0.997841
0.968174 0.985227 0.983325 0.999355
0.998108 1.0161 0.982409 0.999878
0.977903 1.00019 0.978586 0.999112
0.980055 0.978183 1.00459 0.997331
0.9796 0.994317 0.9861 0.999086
0.998899 1.01791 0.981462 0.999855
0.999674 1 1 0.999674
0.999716 1 1 0.999716
0.999782 1 1 0.999782
0.999725 1 1 0.999725
0.999747 1 1 0.999747
0.99979 1 1 0.99979
0.999813 1 1 0.999813
0.999834 1 1 0.999834
0.989994 1.00768 0.982993 0.999446
1.00704 1 1.00759 0.999456
0.999678 1 1 0.999678
1.00383 1 1.00438 0.999458
0.999719 1 1.00017 0.999552
0.999632 1 1 0.999632
0.999635 1 1 0.999635
0.988943 1.00979 0.979902 0.999447
0.999568 1 1 0.999568
1.00111 1 1.0016 0.999503
1.01757 1 1.01807 0.999511
0.999629 1 1 0.999629
1.00369 1.00289 1.00118 0.999628
1.0132 1 1.01363 0.999578
0.999554 1 1 0.999554
0.999585 1 1 0.999585
1.00374 1.00386 0.999882 0.999994
1.01047 1.01073 0.999778 0.999966
0.99104 0.992544 0.998555 0.999929
0.999678 1 1 0.999678
1.00819 0.999979 1.00863 0.999592
1.01457 1.01462 0.999995 0.999958
0.984496 0.979492 1.00733 0.9978
1.00052 0.999742 1.0016 0.999179
0.977531 0.992812 0.985442 0.999154
1.01342 1.01601 0.997489 0.999963
1.00698 1.01776 0.989501 0.999909
0.999733 1 1.00001 0.999724
1.00456 1.00534 0.99924 0.999992
1.00872 1.01034 0.998422 0.999979
1.00479 0.996086 1.0088 0.999937
1.00034 1.01487 0.985799 0.999877
0.980775 0.985155 0.997331 0.998219
0.976212 0.993525 0.983502 0.999056
1.00616 0.998688 1.00769 0.999787
1.0001 1.00014 0.999963 1
1.01412 1.01477 0.999396 0.999966
0.984648 1.00241 0.982427 0.99985
0.980204 0.992461 0.988544 0.999096
0.999602 0.992867 1.00663 1.00015
0.976166 0.979999 0.998034 0.998051
1.00044 1 1.00089 0.999546
1.0023 1 1.00268 0.999623
1.01221 1 1.01262 0.999596
0.999661 1 1 0.999661
0.999922 1 1.00037 0.999556
1.00108 1 1.00154 0.999538
0.999591 1 1 0.999591
1.00001 1 1.00043 0.999579
1.00295 1 1.00337 0.999574
0.999626 1 1 0.999626
0.999636 1 1 0.999636
0.999786 1 1.00018 0.999607
1.00137 1 1.00183 0.999548
0.999665 1 1 0.999665
0.999699 1 1.00011 0.999586
0.999874 1 1.00034 0.999532
0.999601 1 1 0.999601
0.99966 1 1 0.99966
0.999599 1 1 0.999599
0.999712 1 1 0.999712
0.999734 1 1 0.999734
0.999689 1 1 0.999689
0.999776 1 1 0.999776
0.999735 1 1 0.999735
0.999668 1 1 0.999668
0.999844 1 1 0.999844
0.999762 1 1 0.999762
0.999725 1 1 0.999725
0.999757 1 1 0.999757
0.999848 1 1 0.999848
0.999974 1 1 0.999974
0.999858 1 1 0.999858
0.999979 1 1 0.999979
1 1 1 1
0.999982 1 1 0.999982
1 1 1 1
1 1 1 1
1 1 1 1
1 1 1 1
1 1 1 1
0.999864 1 1 0.999864
0.999974 1 1 0.999974
0.999889 1 1 0.999889
1 1 1 1
0.999982 1 1 0.999982
0.999915 1 1 0.999915
1 1 1 1
1 1 1 1
0.999987 1 1 0.999987
1 1 1 1
1 1 1 1
1 1 1 1
1.00541 1.00558 0.999845 0.999991
1.01049 1.01091 0.999615 0.999962
0.988049 0.991268 0.996887 0.999865
0.999783 1 1 0.999783
0.999762 1 1 0.999762
0.999725 1 1 0.999725
1.00848 1.01129 0.997249 0.999976
1.01384 1.0154 0.998492 0.999969
1.0137 1.0154 0.998391 0.999938
0.998572 1.01157 0.987449 0.999702
0.976001 0.972449 1.00585 0.997815
0.965702 0.982994 0.983319 0.999075
0.999849 1.01713 0.983118 0.999886
0.976303 0.998133 0.978496 0.999624
0.983708 0.979878 1.00602 0.997898
0.981389 0.998066 0.98373 0.999553
1.00109 1.01837 0.983151 0.999881
0.974482 0.99339 0.981201 0.999761
0.979493 0.980523 1.00096 0.997989
0.980704 0.998542 0.982691 0.999435
0.998135 1.01429 0.984171 0.9999
0.99966 1 1 0.99966
0.999674 1 1 0.999674
0.999711 1 1 0.999711
0.999724 1 1 0.999724
0.999755 1 1 0.999755
0.999816 1 1 0.999816
0.98964 1.00883 0.981525 0.999446
1.01744 1 1.01794 0.999505
0.999636 1 1 0.999636
1.00181 1 1.00231 0.9995
0.999569 1 1 0.999569
0.999628 1 1 0.999628
0.999581 1 1 0.999581
1.00057 1.0039 0.997063 0.99962
0.999561 1 1 0.999561
1.01371 1 1.01412 0.999595
0.999589 1 1 0.999589
1.02025 0.999047 1.02147 0.999759
1.00011 1 1.00044 0.999674
0.99955 1 1 0.99955
0.998988 0.998925 1.00006 1
1.0026 1.00275 0.999859 0.999996
1.00962 1.00987 0.99979 0.999967
0.99976 1 1.00005 0.999711
1.00218 0.995452 1.00677 0.999986
1.00414 1.00489 0.999261 0.999993
0.986288 0.988552 0.998758 0.998951
0.981552 0.998995 0.982981 0.999551
1.0078 1.00892 0.998903 0.999984
1.0022 1.01598 0.986548 0.999886
1.00516 0.99936 1.006 0.999798
0.999751 0.999659 1.00009 1
1.01498 1.01575 0.999279 0.999966
1.00193 0.992727 1.0096 0.99967
0.983456 1.00249 0.981155 0.999855
0.981604 0.996099 0.985875 0.999567
0.976034 0.980335 0.997512 0.998097
1.02056 1 1.02068 0.999882
1.00543 1.00551 0.99993 0.99999
1.01117 1.0141 0.997173 0.999935
0.958555 0.977314 0.980979 0.999823
0.971732 0.984107 0.987814 0.999606
0.989055 0.984962 1.00615 0.998014
0.979912 0.991437 0.98888 0.99949
1.00128 1 1.00167 0.999612
1.01337 1 1.01377 0.999601
1.01955 1 1.01998 0.999586
0.999592 1 1 0.999592
1.00013 1 1.00055 0.999576
1.00238 1 1.00281 0.999576
1.01017 1 1.01067 0.9995
0.999922 1 1.00032 0.999603
1.00166 1 1.00212 0.999537
1.00418 1 1.00472 0.999464
0.999596 1 1 0.999596
1.00024 1 1.00071 0.999529
1.00006 1 1.00056 0.999502
0.999566 1 1 0.999566
0.999675 1 1 0.999675
0.999593 1 1 0.999593
0.999592 1 1 0.999592
0.999747 1 1 0.999747
0.99972 1 1 0.99972
0.999772 1 1 0.999772
0.99974 1 1 0.99974
0.999696 1 1 0.999696
0.999846 1 1 0.999846
0.999777 1 1 0.999777
0.999734 1 1 0.999734
0.999968 1 1 0.999968
0.999845 1 1 0.999845
0.999759 1 1 0.999759
0.999848 1 1 0.999848
0.999973 1 1 0.999973
1 1 1 1
0.999977 1 1 0.999977
1 1 1 1
1 1 1 1
1 1 1 1
1 1 1 1
1 1 1 1
0.999863 1 1 0.999863
0.999983 1 1 0.999983
0.99987 1 1 0.99987
1 1 1 1
0.999983 1 1 0.999983
0.999895 1 1 0.999895
1 1 1 1
1 1 1 1
0.999982 1 1 0.999982
1 1 1 1
1 1 1 1
1 1 1 1
1.00016 1.00008 1.00008 1
1.00518 1.00537 0.99982 0.999991
1.01017 1.01086 0.99935 0.999963
0.999757 1 1 0.999757
0.999724 1 1 0.999724
0.999786 1 1 0.999786
0.999761 1 1 0.999761
0.999717 1 1 0.999717
0.999711 1 1 0.999711
0.999678 1 1 0.999678
1.01034 1.01247 0.997934 0.999963
1.00775 1.01005 0.997745 0.999981
1.01448 1.01635 0.998192 0.999969
1.00419 1.01874 0.985805 0.999907
0.980646 1.00327 0.978338 0.999094
0.984942 0.979719 1.00693 0.998415
0.97688 0.995175 0.982569 0.99903
0.979322 0.993288 0.986487 0.999445
0.984498 0.984477 1.00208 0.997946
0.979066 0.996712 0.983271 0.999008
0.996385 1.01381 0.982943 0.999867
0.985697 0.988466 0.997341 0.999859
0.976724 0.984676 0.99401 0.997902
0.984747 1.00167 0.983544 0.999549
0.988665 1.0053 0.98357 0.999879
0.999639 1 1 0.999639
0.999658 1 1 0.999658
0.999674 1 1 0.999674
0.999723 1 1 0.999723
0.996649 1.00489 0.992182 0.999612
1.01458 1 1.01497 0.999612
0.999627 1 1 0.999627
0.999577 1 1 0.999577
0.999568 1 1 0.999568
0.999593 1 1 0.999593
0.999545 1 1 0.999545
1.01106 0.997088 1.01424 0.999776
1.00014 1 1.00044 0.9997
0.999546 1 1 0.999546
1.02355 0.993422 1.03044 0.999897
1.00348 1 1.00395 0.999531
1.0037 1.00374 0.999962 0.999993
0.998893 0.998825 1.00007 1
1.00151 1.00163 0.999879 0.999997
1.00439 1 1.00458 0.999809
1.00216 0.992029 1.01011 1.00011
0.999368 0.999201 1.00017 1
0.976876 0.980152 0.998636 0.99802
0.976571 0.993197 0.984199 0.999046
1.01567 1.01673 0.998999 0.999966
0.983649 1.00029 0.983515 0.999843
1.02271 0.999581 1.02327 0.999866
1.00517 1.00529 0.999896 0.999991
1.01308 1.01495 0.998225 0.999934
0.984358 0.993809 0.990407 1.00008
0.956919 0.976978 0.979634 0.99983
0.968859 0.982772 0.986489 0.999346
0.99088 0.984212 1.00861 0.998181
1.00717 1 1.00733 0.999841
1.01111 1.01109 1.00006 0.999959
0.977772 0.986417 0.991334 0.999901
0.949231 0.962003 0.987171 0.999547
0.982751 0.978022 1.00701 0.997842
0.978171 0.996334 0.98248 0.999278
1.01473 1 1.01513 0.999605
1.02022 1 1.02065 0.999584
1.02004 1 1.02054 0.999515
1.00187 1 1.0023 0.999577
1.01063 1 1.01112 0.99951
1.00782 1 1.0084 0.999422
1.00213 1 1.0026 0.999526
1.00422 1 1.00478 0.999452
1.00266 1 1.00323 0.999429
1.0007 1 1.00118 0.999527
1.00021 1 1.00071 0.999493
0.999997 1 1.00049 0.999505
0.999573 1 1 0.999573
0.999631 1 1 0.999631
0.99956 1 1 0.99956
0.999726 1 1 0.999726
0.999681 1 1 0.999681
0.999584 1 1 0.999584
0.999768 1 1 0.999768
0.999744 1 1 0.999744
0.999728 1 1 0.999728
0.999841 1 1 0.999841
0.999775 1 1 0.999775
0.999746 1 1 0.999746
0.999962 1 1 0.999962
0.999846 1 1 0.999846
0.999777 1 1 0.999777
1 1 1 1
0.999968 1 1 0.999968
0.999845 1 1 0.999845
0.999972 1 1 0.999972
1 1 1 1
1 1 1 1
1 1 1 1
1 1 1 1
1 1 1 1
0.99976 1 1 0.99976
0.999849 1 1 0.999849
0.999977 1 1 0.999977
0.999863 1 1 0.999863
1 1 1 1
0.999985 1 1 0.999985
0.999876 1 1 0.999876
1 1 1 1
1 1 1 1
0.999991 1 1 0.999991
1 1 1 1
1 1 1 1
1 1 1 1
1.00493 1.00527 0.999674 0.999991
0.999836 0.999624 1.00021 1
1.00498 1.00515 0.999833 0.999992
0.99976 1 1 0.99976
0.99972 1 1 0.99972
0.999718 1 1 0.999718
0.999712 1 1 0.999712
0.9997 1 1 0.9997
0.99976 1 1 0.99976
0.999709 1 1 0.999709
0.999711 1 1 0.999711
0.999678 1 1 0.999678
0.999676 1 1 0.999676
1.01101 1.01175 0.999334 0.99993
1.01121 1.01362 0.997658 0.999964
1.00667 1.00856 0.998143 0.999985
0.997549 1.01375 0.984151 0.999865
0.983038 1.00091 0.982634 0.999497
0.983696 0.992887 0.991553 0.999183
0.978926 0.982821 0.998006 0.998027
0.989833 0.987892 1.00266 0.999309
0.97656 0.981955 0.996529 0.99797
0.981969 0.997849 0.984762 0.999313
0.98519 1.00379 0.981592 0.999875
1.00972 0.985739 1.02498 0.999363
0.982287 0.984286 0.999932 0.998037
0.963256 0.982046 0.981774 0.999076
0.961429 0.983456 0.977766 0.999832
0.999677 1 1 0.999677
0.999642 1 1 0.999642
0.999657 1 1 0.999657
1.00299 0.995396 1.00784 0.999793
1.00013 1 1.00041 0.999726
0.999598 1 1 0.999598
0.99954 1 1 0.99954
0.999584 1 1.00003 0.999551
1.00396 1 1.00444 0.999525
1.0237 0.995127 1.02882 0.999897
1.0039 1 1.00435 0.999543
1.01277 0.999006 1.01406 0.999721
1.01059 1.01063 1 0.999962
1.0026 1.00264 0.999966 0.999995
0.998793 0.998735 1.00006 1
1.02452 0.999151 1.02554 0.999851
0.986063 0.992737 0.993804 0.99947
1.00496 1.00505 0.999921 0.999991
0.982602 0.981804 1.00335 0.997467
0.967521 0.9814 0.986782 0.999063
1.01502 1.0158 0.999298 0.999934
0.956006 0.977431 0.97824 0.999837
1.00743 1 1.00758 0.999847
1.01098 1.01104 0.999975 0.999959
0.974046 0.982746 0.991253 0.999894
0.974234 0.993888 0.980634 0.999583
0.952173 0.965532 0.987086 0.999066
0.985523 0.979609 1.00854 0.99752
0.988311 1.00028 0.988308 0.999721
0.990853 0.99248 0.998442 0.999919
0.947114 0.959459 0.988063 0.999058
0.976097 0.973733 1.00467 0.997767
0.981656 0.999797 0.982267 0.999581
1.02044 1 1.02087 0.999581
1.02141 1 1.02191 0.999514
1.01165 1 1.01222 0.99944
1.01088 1 1.01137 0.999521
1.00738 1 1.00796 0.999426
1.0018 1 1.00237 0.999425
1.00403 1 1.0046 0.999441
1.00199 1 1.00256 0.999432
0.999528 1 1 0.999528
1.00026 1 1.00078 0.999483
0.999773 1 1.00026 0.99951
0.999594 1 1 0.999594
0.99963 1 1 0.99963
0.999609 1 1 0.999609
0.999577 1 1 0.999577
0.999689 1 1 0.999689
0.999621 1 1 0.999621
0.999553 1 1 0.999553
0.99977 1 1 0.99977
0.999733 1 1 0.999733
0.999688 1 1 0.999688
0.999829 1 1 0.999829
0.999768 1 1 0.999768
0.99974 1 1 0.99974
0.999955 1 1 0.999955
0.999841 1 1 0.999841
0.999778 1 1 0.999778
1 1 1 1
0.999962 1 1 0.999962
0.999847 1 1 0.999847
1 1 1 1
1 1 1 1
0.999968 1 1 0.999968
1 1 1 1
1 1 1 1
1 1 1 1
0.999752 1 1 0.999752
0.999837 1 1 0.999837
0.999757 1 1 0.999757
0.999972 1 1 0.999972
0.999849 1 1 0.999849
1 1 1 1
0.999979 1 1 0.999979
0.999863 1 1 0.999863
1 1 1 1
1 1 1 1
0.999987 1 1 0.999987
1 1 1 1
1 1 1 1
1 1 1 1
1.01078 1.01082 1 0.999958
1.00464 1.00497 0.999683 0.999992
0.999485 0.999192 1.00029 1
0.999729 1 1 0.999729
0.999763 1 1 0.999763
0.999716 1 1 0.999716
0.999717 1 1 0.999717
0.999723 1 1 0.999723
0.9997 1 1 0.9997
0.999694 1 1 0.999694
0.999685 1 1 0.999685
0.999712 1 1 0.999712
0.999678 1 1 0.999678
0.999676 1 1 0.999676
0.999667 1 1 0.999667
0.974209 0.985069 0.989114 0.99986
1.01131 1.01219 0.999201 0.999929
1.01247 1.0151 0.99745 0.999965
0.983388 1.00091 0.982636 0.999852
0.979759 0.997213 0.983406 0.999076
0.975515 0.98358 0.99388 0.997908
0.991775 0.984385 1.0076 0.999905
1.01052 0.985445 1.02552 0.999931
0.958592 0.979606 0.978705 0.99984
0.984017 0.985506 1.0008 0.997696
0.965042 0.981079 0.984037 0.99961
1.00287 0.993743 1.0093 0.999889
0.982471 0.979341 1.00517 0.998038
0.947785 0.96106 0.986581 0.9996
1.00015 1 1.00041 0.999738
0.999678 1 1 0.999678
0.999644 1 1 0.999644
1.02392 0.996991 1.02711 0.999898
1.00458 1 1.00506 0.99952
0.999606 1 1.00005 0.999555
1.00419 1 1.00465 0.999546
1.01181 0.999584 1.01251 0.999723
1.0091 1 1.00939 0.999721
0.989517 0.992231 0.997403 0.999861
1.00987 1.00991 0.999999 0.999966
1.00155 1.00155 1 0.999997
1.00761 1 1.00776 0.999854
0.973901 0.995524 0.978481 0.999795
1.01075 1.01101 0.999788 0.99996
0.989669 0.981102 1.01036 0.998389
0.955524 0.967626 0.987908 0.99958
0.971103 0.982386 0.988663 0.99985
0.986309 1.00103 0.985566 0.999721
0.986549 0.990852 0.995792 0.999864
0.951811 0.960472 0.991395 0.999584
0.981678 1.00006 0.982534 0.999069
0.978748 0.975974 1.00504 0.997811
0.984713 1.00817 0.977206 0.999514
0.956135 0.964463 0.991793 0.999569
0.973787 0.973214 1.00264 0.997956
0.984538 1.00464 0.980922 0.999054
1.02333 1 1.02383 0.999513
1.01116 1 1.01173 0.99944
1.00254 1 1.00305 0.999484
1.00718 1 1.00776 0.999431
1.00177 1 1.00234 0.999428
0.999614 1 1 0.999614
1.0015 1 1.00207 0.999436
0.99961 1 1.00007 0.999536
0.999696 1 1 0.999696
0.999575 1 1.00006 0.999516
0.999598 1 1 0.999598
0.999705 1 1 0.999705
0.999707 1 1 0.999707
0.999639 1 1 0.999639
0.999637 1 1 0.999637
0.999659 1 1 0.999659
0.999616 1 1 0.999616
0.99958 1 1 0.99958
0.999752 1 1 0.999752
0.999688 1 1 0.999688
0.99961 1 1 0.99961
0.999823 1 1 0.999823
0.99977 1 1 0.99977
0.99974 1 1 0.99974
0.999943 1 1 0.999943
0.99983 1 1 0.99983
0.999768 1 1 0.999768
1 1 1 1
0.999954 1 1 0.999954
0.99984 1 1 0.99984
1 1 1 1
1 1 1 1
0.999962 1 1 0.999962
1 1 1 1
1 1 1 1
1 1 1 1
0.999763 1 1 0.999763
0.999754 1 1 0.999754
0.999827 1 1 0.999827
0.999963 1 1 0.999963
0.999837 1 1 0.999837
0.999754 1 1 0.999754
1 1 1 1
0.999973 1 1 0.999973
0.999849 1 1 0.999849
1 1 1 1
1 1 1 1
0.999981 1 1 0.999981
1 1 1 1
1 1 1 1
1 1 1 1
0.988645 0.990612 0.998094 0.99992
1.012 1.01204 1 0.999958
1.00431 1.00462 0.999698 0.999993
0.999726 1 1 0.999726
0.999741 1 1 0.999741
0.999709 1 1 0.999709
0.999722 1 1 0.999722
0.999727 1 1 0.999727
0.9997 1 1 0.9997
0.999687 1 1 0.999687
0.999696 1 1 0.999696
0.999673 1 1 0.999673
0.999678 1 1 0.999678
0.999676 1 1 0.999676
0.999668 1 1 0.999668
0.951616 0.960592 0.991045 0.999607
0.973811 0.983691 0.990075 0.999879
1.01177 1.01269 0.999163 0.999928
0.956084 0.976392 0.979348 0.999848
0.960856 0.979225 0.982133 0.999092
0.988656 0.989142 1.001 0.998514
1.01592 0.985707 1.03133 0.999345
1.00309 0.993505 1.01034 0.999317
0.948671 0.96279 0.986193 0.999131
0.986137 0.982992 1.00494 0.998269
0.998417 0.993336 1.00582 0.999296
0.978541 0.976463 1.00413 0.99801
1.00784 1 1.00819 0.999656
1 1 1.00027 0.999738
0.999679 1 1 0.999679
1.01062 1 1.0109 0.999725
1.00449 1 1.00494 0.999549
1.0089 1 1.00918 0.99972
1.0017 1.00058 1.00147 0.999645
0.959698 0.968134 0.991801 0.999482
0.990173 0.992092 0.998172 0.999893
1.00908 1.00913 0.999977 0.999969
0.983605 1.00122 0.98268 0.999722
0.980983 0.998781 0.982542 0.999632
0.988513 0.991759 0.996865 0.999861
0.977928 0.974542 1.00568 0.997802
0.949342 0.960584 0.989211 0.999076
0.986249 1.00739 0.979467 0.999537
0.9584 0.965677 0.993156 0.999304
0.974648 0.972148 1.0047 0.99788
0.983736 1.00357 0.980654 0.999578
0.989903 1.01242 0.978327 0.99942
0.965031 0.967187 1.00026 0.997514
0.992148 1.00177 0.990679 0.999711
1.0107 1 1.01126 0.999441
1.00235 1 1.00287 0.999477
0.999187 1.00029 0.999258 0.999635
1.00166 1 1.00223 0.999431
0.999521 1 0.999906 0.999615
0.999237 1 0.999403 0.999834
0.999623 1 1.00008 0.999544
0.999697 1 1 0.999697
0.999811 1 1 0.999811
0.999601 1 1 0.999601
0.999705 1 1 0.999705
0.999766 1 1 0.999766
0.999743 1 1 0.999743
0.999715 1 1 0.999715
0.999697 1 1 0.999697
0.999666 1 1 0.999666
0.99964 1 1 0.99964
0.999644 1 1 0.999644
0.999714 1 1 0.999714
0.999667 1 1 0.999667
0.999624 1 1 0.999624
0.999812 1 1 0.999812
0.999751 1 1 0.999751
0.999687 1 1 0.999687
0.999931 1 1 0.999931
0.999824 1 1 0.999824
0.999769 1 1 0.999769
1 1 1 1
0.999943 1 1 0.999943
0.999831 1 1 0.999831
1 1 1 1
1 1 1 1
0.999954 1 1 0.999954
1 1 1 1
1 1 1 1
1 1 1 1
0.999767 1 1 0.999767
0.999757 1 1 0.999757
0.99982 1 1 0.99982
0.999756 1 1 0.999756
0.999827 1 1 0.999827
0.999952 1 1 0.999952
1 1 1 1
0.999964 1 1 0.999964
0.999836 1 1 0.999836
1 1 1 1
1 1 1 1
0.999974 1 1 0.999974
1 1 1 1
1 1 1 1
1 1 1 1
0.961495 0.966021 0.996167 0.999145
0.986877 0.989964 0.996987 0.999895
1.01327 1.01332 1 0.999957
0.999722 1 1 0.999722
0.999708 1 1 0.999708
0.999743 1 1 0.999743
0.999746 1 1 0.999746
0.999716 1 1 0.999716
0.999689 1 1 0.999689
0.999698 1 1 0.999698
0.999675 1 1 0.999675
0.999703 1 1 0.999703
0.999665 1 1 0.999665
0.999892 1 1.00026 0.999635
0.999672 1 1 0.999672
0.999668 1 1 0.999668
0.975285 0.97684 1.00086 0.997547
0.955152 0.963127 0.992339 0.999376
0.974659 0.984605 0.990041 0.999857
0.949149 0.963225 0.985752 0.999629
0.982614 0.979081 1.00619 0.997438
1.00603 0.994316 1.01188 0.9999
0.999333 0.994555 1.00521 0.999592
0.979373 0.977555 1.00379 0.998073
0.99274 0.999122 0.99422 0.999389
1.00633 1.00122 1.0057 0.999404
1.00631 1 1.00666 0.999648
0.999738 1 1 0.999738
1.00774 1 1.00802 0.99972
1.00071 1.00082 1.00018 0.999715
0.961215 0.965271 0.997794 0.998
0.960909 0.967505 0.994079 0.999098
0.990814 0.99197 0.998909 0.999925
0.987216 1.00691 0.980876 0.999561
0.987743 1.00828 0.980563 0.999051
0.960904 0.965791 0.995841 0.999094
0.976252 0.971796 1.00667 0.99793
0.987778 1.01103 0.977572 0.999416
0.968406 0.968883 1.00149 0.998016
0.990339 1.0042 0.987015 0.999172
0.983297 1.00994 0.974163 0.999441
0.998267 0.993008 1.00554 0.999758
1.00209 1 1.00263 0.99947
0.99828 1.00031 0.998341 0.99963
0.996927 1.00048 0.996675 0.999774
0.999354 1 0.999738 0.999616
0.998983 1 0.99915 0.999833
0.998968 1 0.999093 0.999875
0.999698 1 1 0.999698
0.999805 1 1 0.999805
0.999806 1 1 0.999806
0.999704 1 1 0.999704
0.999762 1 1 0.999762
0.999754 1 1 0.999754
0.999752 1 1 0.999752
0.999719 1 1 0.999719
0.999723 1 1 0.999723
0.999695 1 1 0.999695
0.999688 1 1 0.999688
0.999697 1 1 0.999697
0.999665 1 1 0.999665
0.999641 1 1 0.999641
0.999788 1 1 0.999788
0.999719 1 1 0.999719
0.999675 1 1 0.999675
0.999917 1 1 0.999917
0.999812 1 1 0.999812
0.999751 1 1 0.999751
1 1 1 1
0.999931 1 1 0.999931
0.999824 1 1 0.999824
1 1 1 1
1 1 1 1
0.999943 1 1 0.999943
1 1 1 1
1 1 1 1
1 1 1 1
0.99976 1 1 0.99976
0.999767 1 1 0.999767
0.999809 1 1 0.999809
0.999751 1 1 0.999751
0.999815 1 1 0.999815
0.99994 1 1 0.99994
0.999827 1 1 0.999827
0.999952 1 1 0.999952
1 1 1 1
1 1 1 1
1 1 1 1
0.999964 1 1 0.999964
1 1 1 1
1 1 1 1
1 1 1 1
0.969096 0.970669 1.00031 0.998071
0.960575 0.968049 0.992736 0.999541
0.989054 0.99115 0.997967 0.999918
0.999708 1 1 0.999708
0.999746 1 1 0.999746
0.999717 1 1 0.999717
0.999746 1 1 0.999746
0.999738 1 1 0.999738
0.999728 1 1 0.999728
0.999676 1 1 0.999676
0.999699 1 1 0.999699
0.999666 1 1 0.999666
0.999695 1 1 0.999695
0.999649 1 1 0.999649
0.999565 1 1.00011 0.999451
0.999691 1 1.00006 0.999634
0.999667 1 1 0.999667
0.991142 0.994079 0.997342 0.999703
0.972315 0.973864 1.0004 0.998009
0.952001 0.962089 0.990402 0.999104
0.976917 0.975295 1.00371 0.997961
0.997645 0.994152 1.00362 0.999896
0.993237 0.997067 0.996345 0.999813
0.996932 1.00419 0.993324 0.999447
1.00332 1.0005 1.00337 0.999441
1.00527 1 1.00563 0.99964
0.998485 1.00077 0.997932 0.999783
0.988048 0.986386 1.00245 0.99924
0.965367 0.966874 1.00035 0.998091
0.960509 0.967965 0.99274 0.999554
0.986498 1.00946 0.977827 0.999412
0.994644 1.00773 0.987336 0.999672
0.969049 0.96849 1.00205 0.998535
0.984038 1.00767 0.977091 0.999445
0.993721 0.993978 1.00018 0.99956
0.984368 1.00319 0.981634 0.999593
1.00199 1 1.00249 0.999503
0.997071 1.00022 0.997226 0.999625
0.996413 1.00035 0.99629 0.999775
0.997115 1.00003 0.997308 0.999775
0.998869 1 0.999038 0.999831
0.999084 1 0.999214 0.99987
0.999566 1 0.999799 0.999767
0.999799 1 1 0.999799
0.999801 1 1 0.999801
0.999722 1 1 0.999722
0.999758 1 1 0.999758
0.999756 1 1 0.999756
0.999703 1 1 0.999703
0.99976 1 1 0.99976
0.999724 1 1 0.999724
0.999694 1 1 0.999694
0.999694 1 1 0.999694
0.999687 1 1 0.999687
0.999704 1 1 0.999704
0.999756 1 1 0.999756
0.999702 1 1 0.999702
0.999663 1 1 0.999663
0.999897 1 1 0.999897
0.999788 1 1 0.999788
0.999724 1 1 0.999724
1 1 1 1
0.999917 1 1 0.999917
0.999811 1 1 0.999811
1 1 1 1
1 1 1 1
0.999931 1 1 0.999931
1 1 1 1
1 1 1 1
1 1 1 1
0.999755 1 1 0.999755
0.999765 1 1 0.999765
0.999805 1 1 0.999805
0.999768 1 1 0.999768
0.999809 1 1 0.999809
0.999929 1 1 0.999929
0.999811 1 1 0.999811
0.99994 1 1 0.99994
1 1 1 1
0.999952 1 1 0.999952
1 1 1 1
1 1 1 1
1 1 1 1
1 1 1 1
1 1 1 1
0.984525 0.986272 0.998582 0.999646
0.964859 0.967849 0.998878 0.998031
0.957936 0.966602 0.99193 0.999097
0.999718 1 1 0.999718
0.999719 1 1 0.999719
0.999746 1 1 0.999746
0.999727 1 1 0.999727
0.999736 1 1 0.999736
0.999749 1 1 0.999749
0.999696 1 1 0.999696
0.999668 1 1 0.999668
0.999701 1 1 0.999701
0.999667 1 1 0.999667
0.999551 1 1 0.999551
0.999305 1 1 0.999305
0.999586 1 1.00013 0.999457
0.999634 1 1 0.999634
0.996521 1.0005 0.996553 0.999469
0.991811 0.995444 0.996885 0.999464
0.974047 0.974818 1.00072 0.998493
0.996324 0.998571 0.99844 0.999309
1.00046 1.00433 0.996783 0.999363
1.00183 1 1.00235 0.999478
0.999768 1 1.00002 0.999748
0.988972 0.985341 1.00397 0.999712
0.962776 0.966694 0.997922 0.998021
0.984633 1.00531 0.979973 0.999449
0.990074 0.994537 0.996167 0.999343
0.988138 1.00246 0.986135 0.999574
1.00092 1 1.00136 0.999564
0.999245 1.00021 0.999492 0.999544
0.999505 1 1 0.999505
0.996051 1.00032 0.995951 0.999776
0.998008 1.00009 0.998138 0.999777
0.999663 1 1 0.999663
0.999249 1 0.999384 0.999865
0.999722 1 0.999957 0.999765
0.999657 1 1 0.999657
0.999796 1 1 0.999796
0.99973 1 1 0.99973
0.999649 1 1 0.999649
0.999758 1 1 0.999758
0.999703 1 1 0.999703
0.999671 1 1 0.999671
0.999729 1 1 0.999729
0.999696 1 1 0.999696
0.999693 1 1 0.999693
0.999685 1 1 0.999685
0.9997 1 1 0.9997
0.999746 1 1 0.999746
0.999874 1 1 0.999874
0.999762 1 1 0.999762
0.999707 1 1 0.999707
0.999999 1 1 0.999999
0.999897 1 1 0.999897
0.999788 1 1 0.999788
1 1 1 1
1 1 1 1
0.999916 1 1 0.999916
1 1 1 1
1 1 1 1
1 1 1 1
0.999737 1 1 0.999737
0.999756 1 1 0.999756
0.999802 1 1 0.999802
0.999769 1 1 0.999769
0.999808 1 1 0.999808
0.999918 1 1 0.999918
0.999808 1 1 0.999808
0.999929 1 1 0.999929
1 1 1 1
0.99994 1 1 0.99994
1 1 1 1
1 1 1 1
1 1 1 1
1 1 1 1
1 1 1 1
0.99791 1.00062 0.997578 0.999717
0.984808 0.987573 0.998008 0.999191
0.965916 0.968098 0.999659 0.998087
0.999728 1 1 0.999728
0.999666 1 1 0.999666
0.999721 1 1 0.999721
0.999727 1 1 0.999727
0.999735 1 1 0.999735
0.999744 1 1 0.999744
0.999597 1 1 0.999597
0.999707 1 1 0.999707
0.999686 1 1 0.999686
0.999554 1 1 0.999554
0.999389 1 1 0.999389
0.999614 1.00032 0.999817 0.99948
0.999475 1.00016 1 0.999316
0.999464 1 1 0.999464
0.998462 1.00223 0.996749 0.999485
0.990573 0.994916 0.996435 0.999197
1.00252 1.00431 0.998934 0.999279
0.999746 1 1 0.999746
1.00092 1 1.00116 0.999759
0.987264 0.98512 1.00298 0.999199
0.992355 1.00205 0.990765 0.999554
0.9999 1 1.00027 0.999626
0.999085 1.00034 0.999187 0.999554
0.999533 1 1 0.999533
0.999556 1 1 0.999556
0.999676 1 1 0.999676
0.998879 1.00015 0.998947 0.999779
0.999667 1 1 0.999668
0.999576 1 1 0.999576
0.999762 1 1 0.999762
0.999659 1 1 0.999659
0.999595 1 1 0.999595
0.999738 1 1 0.999738
0.999649 1 1 0.999649
0.999623 1 1 0.999623
0.999704 1 1 0.999704
0.999671 1 1 0.999671
0.999671 1 1 0.999671
0.999698 1 1 0.999698
0.999694 1 1 0.999694
0.999732 1 1 0.999732
0.999696 1 1 0.999696
0.999744 1 1 0.999744
0.999853 1 1 0.999853
0.999995 1 1 0.999995
0.999874 1 1 0.999874
0.999768 1 1 0.999768
1 1 1 1
0.999998 1 1 0.999998
0.999896 1 1 0.999896
1 1 1 1
1 1 1 1
1 1 1 1
0.999695 1 1 0.999695
0.999732 1 1 0.999732
0.999786 1 1 0.999786
0.999756 1 1 0.999756
0.999801 1 1 0.999801
0.999906 1 1 0.999906
0.999811 1 1 0.999811
0.999918 1 1 0.999918
1 1 1 1
0.999929 1 1 0.999929
1 1 1 1
1 1 1 1
1 1 1 1
1 1 1 1
1 1 1 1
0.999508 1 0.999795 0.999713
0.99744 1.00013 0.997577 0.999728
0.984221 0.986214 0.998319 0.999659
0.999636 1 1 0.999636
0.99975 1 1 0.99975
0.999587 1 1 0.999587
0.999663 1 1 0.999663
0.999724 1 1 0.999724
0.999464 1 1 0.999464
0.999739 1 1 0.999739
0.999596 1 1 0.999596
0.999464 1 1 0.999464
0.999557 1 1 0.999557
0.999375 1 1 0.999375
0.999473 1.0001 0.999897 0.999474
0.99934 1.00001 1 0.999327
0.999917 1.00337 0.997059 0.999501
0.999765 1 1 0.999765
0.999742 1 1 0.999742
1.00201 1 1.00224 0.999769
0.998907 1.00043 0.998911 0.999565
0.999562 1 1 0.999562
0.99955 1 1 0.99955
0.999681 1 1 0.999681
0.999643 1 1 0.999643
0.999673 1 1 0.999673
0.999581 1 1 0.999581
0.999569 1 1 0.999569
0.999662 1 1 0.999662
0.999592 1 1 0.999592
0.999579 1 1 0.999579
0.999649 1 1 0.999649
0.999622 1 1 0.999622
0.999631 1 1 0.999631
0.999671 1 1 0.999671
0.99967 1 1 0.99967
0.999707 1 1 0.999707
0.999694 1 1 0.999694
0.999732 1 1 0.999732
0.999833 1 1 0.999833
0.999742 1 1 0.999742
0.999853 1 1 0.999853
0.999988 1 1 0.999988
1 1 1 1
0.999993 1 1 0.999993
0.999874 1 1 0.999874
1 1 1 1
0.999997 1 1 0.999997
1 1 1 1
0.999603 1 1 0.999603
0.999656 1 1 0.999656
0.999689 1 1 0.999689
0.999766 1 1 0.999766
0.999727 1 1 0.999727
0.999787 1 1 0.999787
0.999894 1 1 0.999894
0.999801 1 1 0.999801
0.999906 1 1 0.999906
1 1 1 1
0.999918 1 1 0.999918
1 1 1 1
1 1 1 1
1 1 1 1
1 1 1 1
1 1 1 1
0.999656 1 1 0.999656
0.99986 1.00024 0.999908 0.999708
0.997696 1.00038 0.997581 0.999739
0.999516 1 1 0.999516
0.999658 1 1 0.999658
0.999772 1 1 0.999772
0.999597 1 1 0.999597
0.999659 1 1 0.999659
0.999445 1 1 0.999445
0.999453 1 1 0.999453
0.999596 1 1 0.999596
0.999459 1 1 0.999459
0.99936 1 1 0.99936
0.999956 1.00049 1 0.999468
0.999727 1 1 0.999727
0.99976 1 1 0.99976
0.999737 1 1 0.999737
0.999544 1 1 0.999544
0.999685 1 1 0.999685
0.999643 1 1 0.999643
0.999631 1 1 0.999631
0.999586 1 1 0.999586
0.999565 1 1 0.999565
0.999582 1 1 0.999582
0.99959 1 1 0.99959
0.999578 1 1 0.999578
0.999595 1 1 0.999595
0.999621 1 1 0.999621
0.999631 1 1 0.999631
0.999673 1 1 0.999673
0.99967 1 1 0.99967
0.999707 1 1 0.999707
0.999807 1 1 0.999807
0.999733 1 1 0.999733
0.999833 1 1 0.999833
0.999981 1 1 0.999981
0.999853 1 1 0.999853
0.999986 1 1 0.999986
1 1 1 1
1 1 1 1
0.999991 1 1 0.999991
1 1 1 1
0.999534 1 1 0.999534
0.999649 1 1 0.999649
0.999634 1 1 0.999634
0.999732 1 1 0.999732
0.999656 1 1 0.999656
0.999684 1 1 0.999684
0.999766 1 1 0.999766
0.999878 1 1 0.999878
0.999787 1 1 0.999787
0.999895 1 1 0.999895
0.999998 1 1 0.999998
0.999906 1 1 0.999906
1 1 1 1
1 1 1 1
1 1 1 1
1 1 1 1
1 1 1 1
0.999595 1 1 0.999595
0.999655 1 1 0.999655
0.999894 1.00019 1 0.999703
0.999477 1 1 0.999477
0.999516 1 1 0.999516
0.999679 1 1 0.999679
0.999606 1 1 0.999606
0.999446 1 1 0.999446
0.999443 1 1 0.999443
0.999453 1 1 0.999453
0.999678 1 1 0.999678
0.99971 1 1 0.99971
0.999755 1 1 0.999755
0.999626 1 1 0.999626
0.999643 1 1 0.999643
0.999629 1 1 0.999629
0.999616 1 1 0.999616
0.999561 1 1 0.999561
0.999583 1 1 0.999583
0.99959 1 1 0.99959
0.999577 1 1 0.999577
0.999595 1 1 0.999595
0.999643 1 1 0.999643
0.99963 1 1 0.99963
0.999673 1 1 0.999673
0.999777 1 1 0.999777
0.999707 1 1 0.999707
0.999807 1 1 0.999807
0.999975 1 1 0.999975
0.999833 1 1 0.999833
0.999979 1 1 0.999979
1 1 1 1
0.999984 1 1 0.999984
1 1 1 1
1 1 1 1
0.999496 1 1 0.999496
0.999579 1 1 0.999579
0.999546 1 1 0.999546
0.999707 1 1 0.999707
0.999647 1 1 0.999647
0.999665 1 1 0.999665
0.999846 1 1 0.999846
0.999731 1 1 0.999731
0.999656 1 1 0.999656
0.999767 1 1 0.999767
0.999879 1 1 0.999879
0.999992 1 1 0.999992
0.999895 1 1 0.999895
0.999999 1 1 0.999999
1 1 1 1
1 1 1 1
1 1 1 1
1 1 1 1
0.999574 1 1 0.999574
0.999582 1 1 0.999582
0.999655 1 1 0.999655
0.999469 1 1 0.999469
0.999517 1 1 0.999517
0.999447 1 1 0.999447
0.999627 1 1 0.999627
0.999681 1 1 0.999681
0.999694 1 1 0.999694
0.999623 1 1 0.999623
0.999608 1 1 0.999608
0.999627 1 1 0.999627
0.999616 1 1 0.999616
0.999613 1 1 0.999613
0.999583 1 1 0.999583
0.999591 1 1 0.999591
0.999631 1 1 0.999631
0.999595 1 1 0.999595
0.999643 1 1 0.999643
0.999752 1 1 0.999752
0.999672 1 1 0.999672
0.999776 1 1 0.999776
0.999968 1 1 0.999968
0.999807 1 1 0.999807
0.999973 1 1 0.999973
1 1 1 1
0.999977 1 1 0.999977
1 1 1 1
1 1 1 1
0.99957 1 1 0.99957
0.999529 1 1 0.999529
0.999492 1 1 0.999492
0.99965 1 1 0.99965
0.999585 1 1 0.999585
0.999558 1 1 0.999558
0.999807 1 1 0.999807
0.999695 1 1 0.999695
0.999645 1 1 0.999645
0.999982 1 1 0.999982
0.999847 1 1 0.999847
0.999731 1 1 0.999731
0.999879 1 1 0.999879
0.999994 1 1 0.999994
1 1 1 1
0.999999 1 1 0.999999
1 1 1 1
1 1 1 1
0.999568 1 1 0.999568
0.999569 1 1 0.999569
0.99957 1 1 0.99957
0.999461 1 1 0.999461
0.999593 1 1 0.999593
0.999631 1 1 0.999631
0.999684 1 1 0.999684
0.99962 1 1 0.99962
0.99961 1 1 0.99961
0.999621 1 1 0.999621
0.999616 1 1 0.999616
0.999615 1 1 0.999615
0.999635 1 1 0.999635
0.999592 1 1 0.999592
0.999631 1 1 0.999631
0.999739 1 1 0.999739
0.999642 1 1 0.999642
0.999752 1 1 0.999752
0.999962 1 1 0.999962
0.999776 1 1 0.999776
0.999966 1 1 0.999966
1 1 1 1
0.999971 1 1 0.999971
1 1 1 1
1 1 1 1
0.999578 1 1 0.999578
0.999569 1 1 0.999569
0.999569 1 1 0.999569
0.999593 1 1 0.999593
0.999539 1 1 0.999539
0.999488 1 1 0.999488
0.999749 1 1 0.999749
0.99965 1 1 0.99965
0.999591 1 1 0.999591
0.999968 1 1 0.999968
0.999797 1 1 0.999797
0.999683 1 1 0.999683
1 1 1 1
0.999985 1 1 0.999985
0.999848 1 1 0.999848
0.999996 1 1 0.999996
1 1 1 1
1 1 1 1
0.99958 1 1 0.99958
0.999577 1 1 0.999577
0.999565 1 1 0.999565
0.9996 1 1 0.9996
0.999592 1 1 0.999592
0.999636 1 1 0.999636
0.999611 1 1 0.999611
0.999622 1 1 0.999622
0.999658 1 1 0.999658
0.999616 1 1 0.999616
0.999643 1 1 0.999643
0.999725 1 1 0.999725
0.999632 1 1 0.999632
0.99974 1 1 0.99974
0.999958 1 1 0.999958
0.999751 1 1 0.999751
0.999961 1 1 0.999961
1 1 1 1
0.999964 1 1 0.999964
1 1 1 1
1 1 1 1
0.999582 1 1 0.999582
0.999594 1 1 0.999594
0.999578 1 1 0.999578
0.99961 1 1 0.99961
0.999572 1 1 0.999572
0.999569 1 1 0.999569
0.999712 1 1 0.999712
0.999605 1 1 0.999605
0.999549 1 1 0.999549
0.999957 1 1 0.999957
0.999744 1 1 0.999744
0.999649 1 1 0.999649
1 1 1 1
0.999972 1 1 0.999972
0.999787 1 1 0.999787
1 1 1 1
0.999989 1 1 0.999989
1 1 1 1
0.999593 1 1 0.999593
0.99958 1 1 0.99958
0.999586 1 1 0.999586
0.999637 1 1 0.999637
0.999599 1 1 0.999599
0.99959 1 1 0.99959
0.999622 1 1 0.999622
0.999658 1 1 0.999658
0.999725 1 1 0.999725
0.999651 1 1 0.999651
0.999731 1 1 0.999731
0.999953 1 1 0.999953
0.99974 1 1 0.99974
0.999957 1 1 0.999957
1 1 1 1
0.99996 1 1 0.99996
1 1 1 1
1 1 1 1
0.999602 1 1 0.999602
0.999578 1 1 0.999578
0.999626 1 1 0.999626
0.999595 1 1 0.999595
0.999577 1 1 0.999577
0.99972 1 1 0.99972
0.999609 1 1 0.999609
0.999575 1 1 0.999575
0.999951 1 1 0.999951
0.999718 1 1 0.999718
0.999618 1 1 0.999618
1 1 1 1
0.99996 1 1 0.99996
0.999739 1 1 0.999739
1 1 1 1
0.999976 1 1 0.999976
1 1 1 1
0.999635 1 1 0.999635
0.999595 1 1 0.999595
0.999581 1 1 0.999581
0.999713 1 1 0.999713
0.999637 1 1 0.999637
0.999599 1 1 0.999599
0.999658 1 1 0.999658
0.999726 1 1 0.999726
0.999947 1 1 0.999947
0.999738 1 1 0.999738
0.999952 1 1 0.999952
1 1 1 1
0.999955 1 1 0.999955
1 1 1 1
1 1 1 1
0.999631 1 1 0.999631
0.999598 1 1 0.999598
0.999574 1 1 0.999574
0.999725 1 1 0.999725
0.999626 1 1 0.999626
0.999596 1 1 0.999596
0.99995 1 1 0.99995
0.999719 1 1 0.999719
0.999607 1 1 0.999607
1 1 1 1
0.999952 1 1 0.999952
0.999724 1 1 0.999724
1 1 1 1
0.999963 1 1 0.999963
1 1 1 1
0.999724 1 1 0.999724
0.999628 1 1 0.999628
0.999596 1 1 0.999596
0.999943 1 1 0.999943
0.999714 1 1 0.999714
0.999637 1 1 0.999637
0.999727 1 1 0.999727
0.999946 1 1 0.999946
1 1 1 1
0.999951 1 1 0.999951
1 1 1 1
1 1 1 1
0.999727 1 1 0.999727
0.999629 1 1 0.999629
0.999595 1 1 0.999595
0.99995 1 1 0.99995
0.999725 1 1 0.999725
0.999625 1 1 0.999625
1 1 1 1
0.99995 1 1 0.99995
0.999719 1 1 0.999719
1 1 1 1
0.999954 1 1 0.999954
1 1 1 1
0.999941 1 1 0.999941
0.999718 1 1 0.999718
0.999621 1 1 0.999621
1 1 1 1
0.999942 1 1 0.999942
0.999716 1 1 0.999716
0.999945 1 1 0.999945
1 1 1 1
1 1 1 1
0.999946 1 1 0.999946
0.999727 1 1 0.999727
0.999626 1 1 0.999626
1 1 1 1
0.99995 1 1 0.99995
0.999725 1 1 0.999725
1 1 1 1
0.99995 1 1 0.99995
1 1 1 1
0.999998 1 1 0.999998
0.999943 1 1 0.999943
0.999711 1 1 0.999711
1 1 1 1
0.999941 1 1 0.999941
1 1 1 1
0.999999 1 1 0.999999
0.999947 1 1 0.999947
0.999727 1 1 0.999727
1 1 1 1
0.999949 1 1 0.999949
1 1 1 1
1 1 1 1
0.999943 1 1 0.999943
1 1 1 1
0.999999 1 1 0.999999
0.999947 1 1 0.999947
1 1 1 1
1 1 1 1
1 1 1 1

VECTORS lamdaE float
0.998996 0.999645 0.997155
0.999184 0.998658 0.998928
0.998954 0.999693 0.997194
0.99898 1.00009 0.996873
0.998912 0.999951 0.997054
0.99912 0.999185 0.997335
0.999501 1.00038 0.995331
0.999215 0.998568 0.998954
0.998776 0.999945 0.998781
0.999004 0.999049 0.998915
0.999348 0.998241 0.997774
0.999504 0.999993 0.995467
0.999254 0.999966 0.996613
0.998922 1.0001 0.996968
0.99891 0.99974 0.997236
0.998927 1.00015 0.996917
0.99909 0.999191 0.997379
0.998863 1.00002 0.99709
0.999528 1.00036 0.99533
0.999191 0.999988 0.998547
0.999069 1.00001 0.996832
0.9989 1.0001 0.996968
0.999941 1.00021 0.994737
0.999599 1.0004 0.995148
0.999274 0.998629 0.997576
0.999416 1.00024 0.995597
1.00044 1.00104 0.992921
0.999248 0.998469 0.99898
0.998814 0.999992 0.997925
0.999041 0.999154 0.998152
0.999339 0.998141 0.999032
0.999468 1.00003 0.995468
0.998877 1.00031 0.996976
0.998925 0.999826 0.99724
0.999672 1.00043 0.995457
0.999436 0.997745 0.999144
0.999506 1.00017 0.995935
0.999515 0.999684 0.99574
0.999973 1.00139 0.993183
0.999601 0.997327 0.999184
0.999237 1.00001 0.998513
0.99898 1.00007 0.997797
0.99936 0.999989 0.998421
0.999022 0.999992 0.996883
1.00036 0.999961 0.993739
0.998844 1.00018 0.99873
1.00009 1.00009 0.995079
0.998872 1.00023 0.996959
0.998813 1.0001 0.997129
0.999059 0.999189 0.997426
0.999556 1.00035 0.995328
0.999181 0.999971 0.997634
0.99902 1.00004 0.996874
0.999254 0.998594 0.997618
0.998851 1.00017 0.997007
0.999969 1.00019 0.994735
0.999438 1.00023 0.9956
0.999635 1.00037 0.995148
1.00048 1.00106 0.992876
0.999271 0.999994 0.998482
0.999123 0.999966 0.99679
1.0003 0.999964 0.994767
1.0001 1.00004 0.994628
0.99974 1.00035 0.994951
1.0015 1.00025 0.991743
1.00074 1.00071 0.992468
0.999452 0.998083 0.9978
0.999383 0.999922 0.99597
1.0001 1.00131 0.993281
1.00104 1.00102 0.991491
0.99884 0.999819 0.998761
0.999376 0.998048 0.999071
0.999083 0.998955 0.998901
0.999429 1.00008 0.995469
0.99887 1.00013 0.998687
0.998898 0.999592 0.9988
0.999598 1.00054 0.994665
0.999455 0.997788 0.998538
0.999461 1.00029 0.995222
0.999501 0.999632 0.996095
0.999966 1.0014 0.99317
0.999528 0.997542 0.999151
0.999759 0.998557 0.99639
0.999813 1.00041 0.99442
0.999546 1.00048 0.994887
1.00073 1.0008 0.992291
0.999573 0.999213 0.996654
1.00012 1.00123 0.993075
0.999898 1.00142 0.993306
1.00035 1.00163 0.99218
0.999665 0.997108 0.999221
0.99961 0.9973 0.999196
0.998975 1.00009 0.998657
0.999178 1.00001 0.998553
0.99933 0.999992 0.998443
0.99908 1.00001 0.997718
1.00034 0.99996 0.994247
0.998876 1.00014 0.997833
1.00005 1.00006 0.994675
0.999367 0.999986 0.998414
1.0005 0.999916 0.993488
1.00022 1.00001 0.994922
1.00206 0.999818 0.990642
0.999946 1.00023 0.995177
1.00165 1.00012 0.991157
0.999232 0.999938 0.996657
0.99897 1.00007 0.996915
0.999231 0.998547 0.997663
0.998797 1.00026 0.997049
0.999998 1.00016 0.994733
0.999672 1.00033 0.995146
0.999462 1.00023 0.995601
1.00053 1.00107 0.99283
0.999311 0.999993 0.998453
0.99908 0.999958 0.99684
1.00032 0.999941 0.994064
1.00012 1.00003 0.994616
0.99941 0.998046 0.998432
0.999421 0.999902 0.996096
0.999777 1.00032 0.994954
1.0015 1.00024 0.991648
1.00015 1.00134 0.993225
1.00077 1.00073 0.992527
1.00104 1.00102 0.991498
1.00044 0.999959 0.993553
1.00017 0.999947 0.994579
1.00203 0.999778 0.990987
1.00172 0.999964 0.991371
1.00112 1.00046 0.992026
1.00226 1.0001 0.990269
0.999508 0.997701 0.999126
1.00135 1.00064 0.991241
0.999524 0.99949 0.995894
0.999864 1.00138 0.993323
1.00071 1.0015 0.991744
1.00141 1.00089 0.990921
0.999712 0.99877 0.996228
1.00006 1.00048 0.993912
0.998839 1.00005 0.998703
0.998922 0.99943 0.998835
0.99955 1.00062 0.99467
0.999475 0.997736 0.999134
0.999484 0.999624 0.995798
0.999397 1.00039 0.995208
0.999961 1.00141 0.993157
0.999541 0.99752 0.999161
0.999766 0.998522 0.996401
0.999776 1.00038 0.994869
0.99949 1.00047 0.995314
1.00072 1.00079 0.992302
0.999588 0.99918 0.996099
1.00011 1.00122 0.993073
0.999878 1.00145 0.993298
1.00035 1.00162 0.992157
0.999674 0.998863 0.996249
0.999826 0.998269 0.996555
1.00006 1.00044 0.993939
1.0011 1.00051 0.991831
1.00036 1.00107 0.992764
1.00133 1.00084 0.991102
0.999952 1.0011 0.993514
1.00057 1.00129 0.99208
1.00018 1.00201 0.992231
1.00046 1.00188 0.991783
0.999726 0.996889 0.999259
0.999673 0.997078 0.999233
0.999619 0.997272 0.999207
0.999774 0.998474 0.996419
0.999575 0.99748 0.999167
0.998892 1.00012 0.998676
0.99907 1.00004 0.99862
1.00004 1.00005 0.994251
1.00031 0.999949 0.993806
0.999297 0.999994 0.998469
0.999372 0.999989 0.998409
1.00049 0.999919 0.993498
1.00018 0.999996 0.994521
1.00205 0.999823 0.990643
0.999896 1.00023 0.994351
1.00165 1.00013 0.991162
1.00054 0.999919 0.993377
1.00228 0.999723 0.990291
1.00185 0.999944 0.990934
1.00284 0.999624 0.989347
1.00141 1.0003 0.991447
1.00239 0.999909 0.989954
0.999345 0.999992 0.998426
0.999036 0.999944 0.996891
1.00033 0.999932 0.993388
1.00015 1.00002 0.994605
0.999357 0.998001 0.999082
0.999457 0.999897 0.996222
0.999815 1.00026 0.994955
1.0015 1.00023 0.991554
1.0008 1.00076 0.992586
1.00021 1.00136 0.99317
1.00103 1.00102 0.991505
1.00045 0.999954 0.993543
1.0002 0.999938 0.994564
1.00201 0.999777 0.990799
1.00173 1 0.991431
0.999488 0.997729 0.999113
0.999522 0.999498 0.996186
0.999918 1.00139 0.993443
1.00112 1.00047 0.992037
1.00224 1.00005 0.990161
1.00066 1.0015 0.991728
1.00139 1.00065 0.99128
1.0014 1.00088 0.990933
0.999698 0.998821 0.996222
1.00006 1.00047 0.993914
1.00224 0.999707 0.990386
1.00185 0.999832 0.991248
1.00281 0.999624 0.989649
1.00252 0.999708 0.989779
1.00172 1.00037 0.990879
1.00266 0.999738 0.989751
0.999615 0.999107 0.996061
1.00177 1.00038 0.9907
0.99987 1.00128 0.993449
1.00028 1.00171 0.992107
1.00106 1.00162 0.991145
1.00165 1.00063 0.990786
1.00003 1.00082 0.993642
1.00007 1.00007 0.994309
1.00021 1.00158 0.99254
0.999727 1.00045 0.994471
0.999554 0.997496 0.999172
0.999772 0.998488 0.996411
0.999419 1.0006 0.994949
1.00072 1.00077 0.992313
0.999583 0.999147 0.996085
0.999857 1.00147 0.993291
1.0001 1.00122 0.993071
1.00036 1.00161 0.992134
0.999683 0.998821 0.996255
0.999826 0.998245 0.996566
1.00006 1.00045 0.993939
1.0011 1.00051 0.991841
1.00035 1.00105 0.992774
1.00133 1.00084 0.991104
0.999924 1.00115 0.993513
1.00058 1.00129 0.992121
1.00017 1.00201 0.992226
1.00045 1.00188 0.99174
0.999878 0.998007 0.996721
1.00003 1.00073 0.99371
1.00007 1.00012 0.994247
1.00021 1.0015 0.992655
1.00177 1.00047 0.990612
1.00088 1.00114 0.991705
1.00166 1.00079 0.990499
1.00015 1.00189 0.992412
1.00077 1.00139 0.991688
1.00021 1.00256 0.991616
1.00057 1.00189 0.991423
1.00013 0.999141 0.995112
0.999958 0.9976 0.996967
0.999784 0.996687 0.999294
0.999734 0.996861 0.99927
0.999681 0.997048 0.999245
0.999818 0.998186 0.996632
0.999624 0.997257 0.999213
0.999766 0.998514 0.996406
0.999565 0.997502 0.999155
0.999892 1.00023 0.994359
1.00017 0.999972 0.994075
1.00163 1.00014 0.991167
1.00205 0.999828 0.990645
1.00047 0.999922 0.993507
0.999375 0.999992 0.998409
1.00055 0.999923 0.993373
1.00228 0.999721 0.990293
1.00184 0.999956 0.990936
1.00284 0.99963 0.989347
1.0014 1.00031 0.991455
1.0024 0.999906 0.989954
1.00236 0.999675 0.990188
1.00308 0.999544 0.988952
1.00263 0.999715 0.989679
1.00318 0.999336 0.988997
1.0021 1.00017 0.990252
1.00279 0.999546 0.989537
1.00046 0.999949 0.993532
1.00022 0.999938 0.994548
1.00199 0.999766 0.990612
1.00175 1.00004 0.991491
0.999469 0.997757 0.999098
0.999527 0.999507 0.996469
0.999973 1.00138 0.993562
1.00111 1.00048 0.992048
1.00222 1.00001 0.990053
1.00143 1.00065 0.991319
1.0006 1.00151 0.991712
1.00139 1.00088 0.990945
0.999685 0.99887 0.996215
1.00007 1.00045 0.993916
1.00223 0.999702 0.990323
1.00186 0.99984 0.991245
1.00281 0.9996 0.989594
1.00252 0.999759 0.989895
0.999609 0.99915 0.99606
0.999896 1.00126 0.993453
1.00028 1.00171 0.99218
1.00176 1.00039 0.990871
1.00265 0.999675 0.989728
1.00101 1.00163 0.991062
1.00177 1.00038 0.990701
1.00162 1.00061 0.990776
1.00004 1.00078 0.993649
1.00022 1.00155 0.992533
1.00007 1.00007 0.994303
1.00301 0.999576 0.98929
1.00268 0.99962 0.989783
1.00319 0.999443 0.988988
1.00296 0.999388 0.989364
1.00209 1 0.990329
1.00288 0.999198 0.989797
0.999942 1.00109 0.993526
1.00197 1.00004 0.990633
1.00019 1.00168 0.99249
1.00045 1.00207 0.991435
1.00123 1.00167 0.990618
1.00178 1.00034 0.990974
1.00009 0.999672 0.994668
1.00023 1.00156 0.992535
1.00019 1.00141 0.992663
1.00022 1.00211 0.992098
1.0011 1.00051 0.99185
0.999827 0.99822 0.996578
0.999694 0.998778 0.996262
1.00005 1.00047 0.993938
1.00034 1.00104 0.992784
1.00132 1.00084 0.991107
0.999896 1.0012 0.993511
1.00017 1.00201 0.992221
1.00059 1.0013 0.992163
1.00044 1.00188 0.991698
0.999875 0.997991 0.99673
1.00002 1.00076 0.993707
1.00007 1.00012 0.994252
1.0002 1.00151 0.992646
1.00177 1.00048 0.990608
1.00086 1.00115 0.991716
1.00166 1.00079 0.990502
1.00013 1.00191 0.992416
1.00078 1.0014 0.991732
1.00022 1.00257 0.991596
1.00054 1.00187 0.991543
0.999921 0.997784 0.996863
1.00008 0.999792 0.99455
1.00021 1.00161 0.992553
1.0002 1.00129 0.992879
1.00019 1.00215 0.992022
1.00213 1.00031 0.990047
1.00112 1.00119 0.991179
1.00179 1.00076 0.990283
1.00014 1.00259 0.991751
1.00086 1.00148 0.9914
1.0003 1.00283 0.990899
1.00012 0.9993 0.994972
1.00016 1.00027 0.993974
1.00014 0.999014 0.995228
1.00013 0.99915 0.995112
0.99998 0.997418 0.997507
0.999951 0.997584 0.997202
0.999867 0.996535 0.998423
0.999792 0.996662 0.999303
0.999741 0.996832 0.999281
0.999862 0.99793 0.99681
0.999675 0.997024 0.99926
0.999819 0.99821 0.996617
0.999619 0.997286 0.999198
0.999759 0.998554 0.996393
0.999554 0.997526 0.999143
1.0014 1.00032 0.991464
1.00184 0.999965 0.990937
1.0024 0.999911 0.989954
1.00285 0.999635 0.989346
1.00228 0.999718 0.990296
1.00055 0.999928 0.99337
1.00236 0.999671 0.990184
1.00308 0.999545 0.988956
1.00263 0.999723 0.989682
1.0032 0.999323 0.988962
1.00211 1.00017 0.990247
1.00279 0.999557 0.989537
1.00316 0.999509 0.988831
1.00338 0.999322 0.988588
1.00304 0.99934 0.989258
1.0034 0.999041 0.988937
1.00248 0.999907 0.989784
1.003 0.998932 0.989747
1.00221 0.999699 0.990261
1.00187 0.999839 0.991243
1.00281 0.999581 0.98954
1.00253 0.999811 0.990012
0.999604 0.999192 0.996058
0.999922 1.00123 0.993457
1.00029 1.0017 0.992254
1.0018 1.00041 0.990863
1.00263 0.99961 0.989706
1.00178 1.00037 0.990702
1.00095 1.00164 0.99098
1.00158 1.0006 0.990767
1.00006 1.00074 0.993656
1.00023 1.00152 0.992525
1.00006 1.00008 0.994297
1.00302 0.999566 0.98918
1.00269 0.999597 0.989784
1.00318 0.999418 0.988936
1.00298 0.999408 0.989383
0.999966 1.00104 0.993533
1.00022 1.00166 0.992481
1.00044 1.00208 0.991521
1.00211 1.00006 0.990361
1.00287 0.999096 0.989847
1.00117 1.00173 0.990541
1.00197 1.00003 0.990636
1.00174 1.00026 0.991008
1.00024 1.00155 0.992546
1.00023 1.0021 0.992048
1.00008 0.999687 0.994661
1.0002 1.00136 0.992717
1.00334 0.999421 0.988613
1.00314 0.999351 0.989156
1.00337 0.999301 0.988699
1.00319 0.998986 0.989288
1.00234 0.99953 0.990367
1.00311 0.998553 0.99001
1.00019 1.00161 0.992568
1.00205 0.999448 0.991042
1.00022 1.00205 0.991929
1.00062 1.00251 0.990834
1.00133 1.00176 0.990215
1.00189 1.00014 0.990969
1.0001 0.999434 0.994887
1.0002 1.00097 0.99307
1.00026 1.00191 0.992145
1.00016 1.00221 0.992042
1.00026 1.0022 0.991921
0.999872 0.997976 0.996739
1.00177 1.00049 0.990604
1.00007 1.00011 0.994256
1.00001 1.00081 0.993703
1.00019 1.00152 0.992637
1.00084 1.00115 0.991726
1.00166 1.00079 0.990505
1.00011 1.00192 0.99242
1.00023 1.00258 0.991576
1.00079 1.00141 0.991775
1.00052 1.00184 0.991664
0.999918 0.997771 0.99687
1.00009 0.999781 0.994555
1.0002 1.00162 0.992549
1.00019 1.0013 0.992874
1.00019 1.00215 0.992005
1.00214 1.00032 0.990041
1.00111 1.00119 0.991183
1.00179 1.00077 0.990259
1.00012 1.00259 0.991762
1.00087 1.00149 0.991429
1.00036 1.0028 0.990959
1.0001 0.999518 0.99479
1.0002 1.00096 0.993191
1.00022 1.00222 0.991936
1.00017 1.00208 0.992164
1.00017 1.00251 0.991726
1.0023 1.00011 0.989898
1.00124 1.0012 0.990918
1.00169 1.00058 0.990514
1.00011 1.00321 0.991122
1.00078 1.00252 0.990531
1.00012 0.999304 0.994975
1.00018 1.00044 0.993637
1.00016 1.00028 0.993901
1.00014 1.00114 0.993265
1.00014 1.00021 0.994058
1.00015 0.998916 0.995315
1.00014 0.999025 0.995227
1.00002 0.997257 0.997585
1.00013 0.999161 0.995112
0.999984 0.997409 0.997519
0.999921 0.996362 0.998485
0.999945 0.997569 0.997435
0.999853 0.996503 0.998878
0.999799 0.996639 0.999312
0.999902 0.997728 0.996935
0.999865 0.997943 0.9968
0.999732 0.996807 0.999297
0.99967 0.997057 0.999246
0.99982 0.998234 0.996603
0.999614 0.997317 0.999184
1.00211 1.00018 0.990243
1.00263 0.999725 0.989684
1.00279 0.999566 0.989536
1.00322 0.999311 0.988927
1.00309 0.999544 0.98896
1.00237 0.999668 0.99018
1.00317 0.999506 0.988832
1.0034 0.999343 0.988524
1.00304 0.999348 0.989263
1.00341 0.999007 0.988936
1.00248 0.999914 0.989772
1.00302 0.998898 0.989747
1.00349 0.999371 0.988337
1.00353 0.999209 0.988443
1.00327 0.998769 0.989291
1.0035 0.99892 0.98891
1.0027 0.999394 0.989808
1.00325 0.998403 0.989918
1.00302 0.999553 0.989071
1.00269 0.999578 0.989784
1.00318 0.999394 0.988885
1.00299 0.999426 0.989402
0.99999 1.001 0.993539
1.00025 1.00165 0.992472
1.00042 1.0021 0.991608
1.00214 1.00012 0.990394
1.00286 0.998994 0.989896
1.00198 1.00003 0.99064
1.00111 1.0018 0.990464
1.00171 1.00017 0.991042
1.00025 1.00154 0.992557
1.00024 1.00209 0.991998
1.00007 0.999701 0.994654
1.00021 1.00131 0.99277
1.00334 0.999422 0.988615
1.00314 0.999346 0.989171
1.00335 0.999296 0.988716
1.0032 0.998984 0.989301
1.00021 1.00159 0.992569
1.00022 1.00202 0.991997
1.0006 1.00255 0.990829
1.00236 0.999608 0.99033
1.00299 0.998481 0.990216
1.00132 1.00183 0.990173
1.00204 0.999464 0.991058
1.00184 0.999938 0.991087
1.00027 1.00191 0.992147
1.00026 1.00217 0.991914
1.00016 1.00224 0.992027
1.00009 0.999435 0.9948
1.00021 1.00092 0.993124
1.00353 0.999314 0.98837
1.00345 0.999117 0.988679
1.00338 0.998514 0.989406
1.00264 0.998648 0.990651
1.00023 1.0019 0.992207
1.0023 0.998808 0.991432
1.00015 1.00245 0.991517
1.00079 1.00303 0.989982
1.00159 1.00169 0.989833
1.00011 0.99927 0.994877
1.0002 1.00061 0.993591
1.00014 1.00186 0.99243
1.00028 1.00197 0.99206
1.00017 1.00269 0.991603
1.00031 1.00216 0.991786
0.999915 0.997759 0.996876
1.00009 0.999772 0.994561
1.00215 1.00032 0.990034
1.00018 1.00131 0.99287
1.00019 1.00163 0.992545
1.00019 1.00216 0.991988
1.00111 1.00119 0.991186
1.00179 1.00077 0.990236
1.0001 1.00258 0.991773
1.00042 1.00277 0.991019
1.00088 1.0015 0.991458
1.0001 0.999512 0.994795
1.0002 1.00096 0.99319
1.00021 1.00221 0.991974
1.00017 1.00209 0.992156
1.00016 1.00255 0.991689
1.00229 1.00015 0.989885
1.00126 1.00119 0.990898
1.00174 1.00052 0.990548
1.00009 1.00321 0.991077
1.00078 1.00264 0.990426
1.00019 1.00066 0.993496
1.00019 1.00183 0.992298
1.00018 1.00277 0.991517
1.00016 1.00256 0.991634
1.00022 1.00267 0.991444
1.00257 0.998731 0.990706
1.00132 1.00178 0.990314
1.00181 1 0.990452
1.00034 1.00356 0.9906
1.00069 1.00309 0.989563
1.00012 0.999307 0.994978
1.00018 1.00044 0.993686
1.00017 1.0013 0.992838
1.00017 1.00029 0.993827
1.00014 1.00022 0.994057
1.00015 1.00113 0.993162
1.00012 1.00178 0.992613
1.00013 1.00107 0.99316
1.00013 1.00016 0.994132
1.00016 0.998867 0.995356
1.00015 0.998918 0.995316
1.00005 0.997124 0.997643
1.00014 0.999035 0.995226
1.00002 0.997253 0.997596
0.999963 0.996217 0.998537
0.999989 0.997399 0.997531
0.999915 0.996336 0.998482
0.999835 0.996464 0.999336
0.999942 0.997557 0.997029
0.999907 0.997735 0.996929
0.999791 0.996618 0.999323
0.999869 0.997955 0.99679
0.999726 0.996835 0.999286
0.999666 0.997089 0.999231
1.00249 0.999922 0.989761
1.00304 0.999359 0.989267
1.00304 0.998864 0.989748
1.00341 0.998975 0.988935
1.00343 0.999362 0.98846
1.00317 0.999505 0.988832
1.0035 0.999379 0.988309
1.00351 0.999225 0.988467
1.0033 0.998791 0.989241
1.00349 0.998873 0.988892
1.00269 0.999441 0.989806
1.0032 0.998255 0.990068
1.00365 0.999289 0.98812
1.00354 0.999065 0.988587
1.00346 0.998453 0.989311
1.00304 0.998321 0.990336
1.00334 0.999423 0.988617
1.00314 0.999339 0.989187
1.00332 0.99929 0.988732
1.00321 0.998984 0.989314
1.00023 1.00157 0.99257
1.00023 1.002 0.992065
1.00059 1.00259 0.990823
1.00238 0.999684 0.990293
1.00288 0.998412 0.99042
1.00203 0.999479 0.991073
1.0013 1.0019 0.990131
1.00179 0.999748 0.991203
1.00028 1.0019 0.99215
1.00027 1.00214 0.991907
1.00015 1.00227 0.992011
1.00009 0.999438 0.994713
1.00022 1.00087 0.993177
1.00349 0.999296 0.988423
1.00344 0.99914 0.988707
1.00335 0.998542 0.989488
1.00025 1.00189 0.992199
1.00022 1.00242 0.991603
1.00076 1.0031 0.989967
1.00267 0.99871 0.990567
1.00155 1.00155 0.990023
1.00222 0.9988 0.991395
1.00011 0.999246 0.994897
1.00028 1.00198 0.992054
1.0003 1.00211 0.991844
1.00017 1.00271 0.991576
1.00015 1.00186 0.992463
1.0002 1.0006 0.99352
1.00356 0.999257 0.988397
1.00365 0.998893 0.988531
1.00329 0.998194 0.989785
1.00301 0.997419 0.991248
1.00024 1.00211 0.991995
1.00208 1.0002 0.990301
1.00027 1.0032 0.990679
1.00095 1.00353 0.989303
1.00011 0.999116 0.995023
1.00019 1.00036 0.99389
1.00017 1.00154 0.992791
1.00013 1.00266 0.99165
1.0003 1.00211 0.991879
1.00026 1.00256 0.991487
1.00011 0.999503 0.9948
1.0002 1.00097 0.993189
1.00228 1.0002 0.989871
1.00016 1.0021 0.992148
1.00019 1.0022 0.992012
1.00014 1.00258 0.991652
1.00128 1.00118 0.990877
1.00179 1.00045 0.990582
1.00007 1.00322 0.991031
1.00078 1.00276 0.990321
1.00019 1.00066 0.993498
1.00019 1.00184 0.992318
1.00016 1.00274 0.991575
1.00015 1.00259 0.991658
1.00018 1.0027 0.991487
1.00265 0.998757 0.990688
1.00136 1.00167 0.990343
1.00179 1.00005 0.990709
1.00028 1.00358 0.990542
1.00078 1.00332 0.989438
1.0002 1.00152 0.992609
1.00018 1.00251 0.99164
1.00019 1.0032 0.991063
1.00016 1.00291 0.991175
1.00364 0.997422 0.990376
1.00269 0.997999 0.991008
1.00141 1.00231 0.989464
1.00031 1.0043 0.989391
1.00018 1.00044 0.993735
1.00017 1.00132 0.992878
1.00016 1.00196 0.992305
1.00014 1.00022 0.994055
1.00015 1.00113 0.993058
1.00013 1.00016 0.994133
1.00014 1.00179 0.992529
1.00012 1.00107 0.9932
1.00014 1.00228 0.992057
1.00012 1.00169 0.992565
1.00011 1.00104 0.993232
1.00014 1.0001 0.994193
1.00015 0.99886 0.995366
1.00016 0.99886 0.995358
1.00007 0.997059 0.997654
1.00015 0.998918 0.995317
1.00005 0.997131 0.997647
0.999999 0.996103 0.998568
1.00002 0.997248 0.997606
0.999958 0.99619 0.998533
0.999908 0.996312 0.998477
0.999982 0.99739 0.997119
0.999946 0.997563 0.997025
0.999846 0.996447 0.999346
0.999912 0.997742 0.996923
0.999784 0.996641 0.999316
0.99972 0.996864 0.999275
1.00269 0.999487 0.989804
1.00333 0.998813 0.989191
1.00314 0.998105 0.990217
1.00348 0.998821 0.988874
1.0035 0.999237 0.988491
1.00352 0.99939 0.988281
1.00362 0.999294 0.988202
1.00352 0.999069 0.988588
1.00345 0.998446 0.989342
1.00305 0.998233 0.990303
1.00358 0.999229 0.988333
1.00358 0.998679 0.988958
1.00347 0.998023 0.989708
1.00346 0.999278 0.988475
1.00343 0.999161 0.988735
1.00331 0.998567 0.989571
1.00027 1.00189 0.992191
1.00029 1.0024 0.991688
1.00072 1.00318 0.989952
1.0027 0.998769 0.990484
1.00215 0.998792 0.991357
1.00152 1.0014 0.990214
1.00028 1.002 0.992047
1.00028 1.00207 0.991903
1.00017 1.00273 0.991549
1.00011 0.999223 0.994917
1.00016 1.00184 0.992497
1.00021 1.00059 0.993449
1.00355 0.999251 0.988372
1.00365 0.998875 0.988525
1.00334 0.998249 0.989674
1.00026 1.00211 0.991977
1.00024 1.00313 0.990834
1.00097 1.00349 0.989324
1.00295 0.997508 0.991301
1.0021 1.00009 0.990292
1.00011 0.999103 0.995112
1.00018 1.00036 0.993894
1.00027 1.00211 0.991873
1.00027 1.00253 0.991526
1.00013 1.00263 0.991676
1.00017 1.00156 0.992726
1.00359 0.999111 0.988427
1.00374 0.998605 0.988627
1.00351 0.996802 0.990763
1.00303 0.997675 0.991348
1.00012 1.00261 0.991627
1.00129 1.00334 0.988739
1.00045 1.00384 0.990061
1.00013 0.998956 0.995311
1.00013 0.999955 0.994327
1.00016 1.00022 0.993907
1.00015 1.00132 0.99297
1.00012 1.0023 0.99201
1.00011 1.00321 0.991123
1.00032 1.00194 0.991836
1.00021 1.00315 0.991423
1.0002 1.00065 0.9935
1.00019 1.00186 0.992339
1.00273 0.998779 0.99067
1.00015 1.00262 0.991681
1.00015 1.00271 0.991633
1.00014 1.00273 0.991529
1.00141 1.00156 0.990373
1.00178 1.0001 0.990965
1.00022 1.00359 0.990483
1.00087 1.00353 0.989312
1.00019 1.00155 0.992567
1.00017 1.0025 0.991685
1.00017 1.00316 0.99112
1.0002 1.00293 0.991223
1.00361 0.997337 0.990313
1.00262 0.998265 0.990978
1.00148 1.00222 0.989593
1.00039 1.00426 0.989322
1.00016 1.00222 0.992043
1.00386 0.997623 0.989393
1.00017 1.00309 0.991235
1.00022 1.00364 0.990532
1.00395 0.996249 0.990665
1.00227 1.00063 0.989364
1.00082 1.00436 0.988866
1.00017 1.00134 0.992919
1.00016 1.00197 0.992306
1.00014 1.0025 0.991805
1.00013 1.00016 0.994133
1.00012 1.00107 0.99324
1.00015 1.0018 0.992445
1.00014 1.00008 0.994196
1.00011 1.00104 0.993222
1.00015 1.00229 0.99199
1.00011 1.0017 0.992645
1.0002 1.00256 0.991658
1.00015 1.00219 0.99203
1.00011 1.00162 0.992756
1.0001 1.00093 0.993433
1.00015 1.00004 0.994224
1.00014 0.998866 0.99537
1.00015 0.998857 0.995366
1.00009 0.997049 0.997639
1.00016 0.998855 0.99536
1.00007 0.997079 0.997652
1.00003 0.996051 0.998564
1.00005 0.997138 0.997652
0.999997 0.996074 0.998568
0.999954 0.996163 0.998529
1.00014 0.998812 0.995431
1.00002 0.997231 0.997204
0.999984 0.9974 0.997115
0.999895 0.996289 0.999368
0.99995 0.99757 0.997021
0.999839 0.996471 0.999339
0.999777 0.996664 0.999308
1.00307 0.998149 0.99027
1.00343 0.998438 0.989374
1.00352 0.999074 0.98859
1.00357 0.999299 0.988285
1.00358 0.999232 0.988339
1.00358 0.998689 0.988906
1.00343 0.998005 0.989778
1.00353 0.999016 0.98867
1.00367 0.998329 0.98915
1.00372 0.99785 0.988925
1.00355 0.999246 0.988348
1.00367 0.998864 0.988518
1.0034 0.9983 0.989564
1.00028 1.00211 0.991959
1.00022 1.00306 0.990988
1.00098 1.00343 0.989344
1.00288 0.997592 0.991354
1.00212 0.999975 0.990283
1.00024 1.00211 0.991867
1.00027 1.00249 0.991566
1.00013 1.00261 0.991702
1.00012 0.999086 0.9952
1.00017 1.00035 0.993899
1.00016 1.00159 0.992662
1.00358 0.999083 0.988479
1.00013 0.998952 0.995309
1.00013 0.999954 0.994277
1.00377 0.998586 0.988623
1.00346 0.997011 0.990585
1.00011 1.00255 0.991709
1.00045 1.00398 0.989865
1.00128 1.00319 0.988801
1.00292 0.997627 0.991322
1.00015 1.00023 0.994049
1.00015 1.00132 0.99297
1.00037 1.00201 0.991788
1.00016 1.00279 0.991618
1.00009 1.0033 0.991032
1.00013 1.00228 0.992017
1.00358 0.998697 0.988867
1.00382 0.998161 0.98905
1.00385 0.995313 0.991793
1.00215 1.00056 0.989678
1.00019 1.00287 0.99139
1.00072 1.00471 0.988717
1.00012 0.999857 0.994337
1.00013 1.00009 0.994183
1.00008 1.00089 0.99365
1.00012 1.00119 0.993045
1.00012 1.00207 0.992333
1.00005 1.00292 0.991426
0.999993 1.00402 0.990664
1.00007 1.00269 0.991688
1.00019 1.00158 0.992525
1.00017 1.00249 0.99173
1.00358 0.997267 0.990251
1.00255 0.998547 0.990948
1.00023 1.00295 0.991271
1.00016 1.00314 0.991178
1.00154 1.00216 0.989722
1.00048 1.00425 0.989253
1.00015 1.00223 0.99204
1.00383 0.997578 0.989351
1.00015 1.00304 0.99125
1.00023 1.00361 0.990425
1.00383 0.99629 0.990553
1.00238 1.00057 0.989405
1.00076 1.00444 0.988881
1.00012 1.0029 0.991475
1.00471 0.996147 0.989396
1.00034 1.00323 0.990893
1.00046 1.00433 0.989695
1.00363 0.997344 0.989664
1.00119 1.00339 0.988643
1.00247 1.00084 0.989745
1.00015 1.00198 0.992307
1.00013 1.00251 0.991806
1.00021 1.00273 0.991484
1.00014 1.00007 0.9942
1.00011 1.00105 0.993212
1.00011 1.00171 0.992724
1.00017 1.0023 0.991922
1.00015 1.00004 0.994223
1.0001 1.00094 0.993376
1.0002 1.00255 0.991629
1.00011 1.00162 0.992752
1.00014 1.00219 0.992101
1.00027 1.00247 0.991585
1.0001 1.00201 0.992404
1.00012 1.00151 0.99288
1.00011 1.00086 0.993372
1.00015 1.00003 0.994114
1.00011 1.00085 0.993606
1.00014 1.00003 0.994138
1.00014 0.998869 0.995373
1.00014 0.998866 0.99537
1.0001 0.997066 0.997213
1.00015 0.998855 0.995367
1.00009 0.997068 0.997428
1.00002 0.995995 0.999387
1.00007 0.997097 0.997651
1.00003 0.996017 0.998566
0.999995 0.996044 0.998567
1.00015 0.9987 0.995529
1.00014 0.998809 0.995429
1.00005 0.997095 0.997279
1.00002 0.997239 0.997408
0.999939 0.996152 0.999388
0.999987 0.99741 0.997111
0.999889 0.996311 0.999362
0.999833 0.996492 0.999333
1.00339 0.997983 0.989849
1.00359 0.998705 0.988853
1.00357 0.999239 0.988346
1.00353 0.999 0.988667
1.00359 0.998345 0.989208
1.00387 0.998021 0.9888
1.00353 0.998475 0.989213
1.00356 0.99753 0.989986
1.00428 0.997389 0.988726
1.00012 0.999795 0.994511
1.00356 0.99905 0.988532
1.0038 0.998568 0.988619
1.00341 0.997217 0.990406
1.00009 1.00251 0.99179
1.00045 1.00416 0.989668
1.00128 1.00296 0.988863
1.00283 0.997614 0.991297
1.00042 1.00206 0.991739
1.00011 1.00245 0.991813
1.00006 1.00339 0.990941
1.00013 0.998951 0.995306
1.00015 1.00226 0.992024
1.00014 1.00023 0.994191
1.00015 1.00131 0.992971
1.00012 0.99995 0.994227
1.00361 0.998661 0.988856
1.00012 0.99985 0.994395
1.00013 1.0001 0.994179
1.00008 1.00087 0.993538
1.00387 0.997939 0.989091
1.00369 0.995677 0.991559
1.00022 1.00263 0.991444
1.00055 1.00484 0.988621
1.00213 1.00058 0.989733
1.00012 1.00118 0.993125
1.00012 1.00208 0.992294
1.00007 1.00276 0.991575
0.999989 1.00391 0.990752
1.00006 1.0029 0.991489
1.00373 0.998285 0.988835
1.00422 0.996791 0.989713
1.00358 0.997519 0.990217
1.00116 1.00354 0.988865
1.00009 1.00366 0.990715
1.00006 1.00076 0.993545
1.0001 1.00104 0.993268
1.00008 1.00157 0.992933
1.00008 1.00194 0.992484
1.00009 1.00257 0.99184
0.999966 1.00353 0.991102
0.999838 1.00436 0.990486
1.00014 1.00224 0.992038
1.00013 1.003 0.991265
1.00383 0.997508 0.98931
1.00372 0.996317 0.990441
1.0025 1.0005 0.989445
1.00024 1.0036 0.990318
1.0007 1.00449 0.988895
1.00011 1.00286 0.99153
1.00466 0.995967 0.989368
1.00027 1.0032 0.99093
1.00029 1.00442 0.989693
1.00373 0.997168 0.989842
1.00119 1.00355 0.988626
1.00255 1.00025 0.989594
1.00019 1.00305 0.991195
1.0048 0.995344 0.990176
1.00019 1.00361 0.990747
1.00009 1.0049 0.989433
1.00175 1.00144 0.988918
0.998359 0.997699 0.971143
0.998479 1.00209 0.98365
1.0021 0.999973 0.9912
0.995421 0.997136 0.975916
0.996382 0.994936 0.977805
1.00012 1.00252 0.991807
1.00019 1.00273 0.991505
1.00032 1.00255 0.991414
1.00015 1.00003 0.994223
1.0001 1.00095 0.993318
1.00011 1.00162 0.992747
1.00013 1.0022 0.992172
1.00021 1.00255 0.9916
1.00012 1.00152 0.992811
1.00015 1.00004 0.994164
1.00011 1.00086 0.993429
1.00024 1.00248 0.99162
1.00011 1.00199 0.992378
1.0001 1.00191 0.992472
1.00019 1.00228 0.991956
1.00015 1.00145 0.992732
1.00013 1.00081 0.9934
1.00014 1.00001 0.994129
1.00013 1.0008 0.993535
1.00013 1.00144 0.992956
1.0001 1.00093 0.993427
1.00011 1.00085 0.993509
1.00014 1.00004 0.994232
1.00014 1.00003 0.994137
1.00014 0.998878 0.995365
1.00014 0.998867 0.995374
1.0001 0.997091 0.997213
1.00014 0.998867 0.99537
1.0001 0.997067 0.997214
1.00002 0.995984 0.999387
1.0001 0.997089 0.997217
1.00003 0.995993 0.998969
1.00003 0.995983 0.998568
1.00016 0.998623 0.995591
1.00015 0.998693 0.995528
1.00008 0.996987 0.997344
1.00015 0.998805 0.995428
1.00005 0.997091 0.997482
0.999974 0.996038 0.999405
1.00002 0.997257 0.997189
0.999932 0.996191 0.999379
0.999883 0.996336 0.999355
1.00348 0.998361 0.989266
1.00353 0.998983 0.988665
1.00396 0.998211 0.988674
1.00346 0.997561 0.99014
1.00357 0.998448 0.989076
1.00412 0.997674 0.988681
1.00406 0.998651 0.987897
0.999014 0.998175 0.983975
1.00374 0.997644 0.990211
1.00012 0.999779 0.994536
1.00013 0.999792 0.99451
1.00006 1.00066 0.99378
1.00006 1.00063 0.993813
1.00364 0.998625 0.988845
1.0039 0.997769 0.989131
1.00353 0.996016 0.991323
1.00026 1.00243 0.991498
1.00037 1.005 0.988525
1.0021 1.00055 0.989789
1.00007 1.00284 0.991463
0.999985 1.00379 0.990839
1.00008 1.00289 0.991554
1.00013 1.00011 0.994175
1.00013 1.00208 0.992255
1.00012 1.00116 0.993206
1.00013 0.999844 0.994453
1.00008 1.00086 0.993426
1.00371 0.998309 0.988943
1.00006 1.00077 0.993658
1.00009 1.00101 0.993334
1.00008 1.00151 0.992911
1.00419 0.996561 0.989772
1.00342 0.997466 0.990207
1.00013 1.00358 0.990715
1.00111 1.00375 0.988753
1.00008 1.00194 0.992519
1.00009 1.00253 0.991849
0.999852 1.00433 0.990487
0.999988 1.00366 0.990999
1.00438 0.996746 0.988909
1.00458 0.996285 0.989136
1.00221 1.00242 0.988184
1.00004 1.00441 0.990085
1.00006 1.0017 0.992689
1.00005 1.00179 0.992647
1.00007 1.00274 0.991697
0.999982 1.00441 0.990212
0.997752 0.998254 0.967663
1.0001 1.00283 0.991585
1.00019 1.00316 0.990967
1.0046 0.99573 0.989339
1.00379 0.996862 0.990019
1.00117 1.00371 0.988609
1.00013 1.00448 0.989691
1.0025 0.999766 0.989444
1.00016 1.00306 0.991232
1.00475 0.995313 0.990058
1.00012 1.0036 0.990757
1.00008 1.00492 0.989467
1.00184 1.00138 0.988958
0.998168 0.997377 0.970539
0.998025 1.00165 0.980778
1.00215 0.999419 0.991554
0.995335 0.99786 0.975048
0.996369 0.994501 0.97701
1.0001 1.00306 0.991371
0.996297 0.995816 0.973596
0.997347 0.995449 0.979706
1.00347 0.997046 0.990661
1.00001 1.00359 0.990791
0.999984 1.00498 0.989989
1.00192 0.999403 0.992817
0.997309 0.999676 0.969603
0.997561 1.00307 0.979319
0.994873 0.999834 0.974942
1.00093 0.995384 0.978373
1.00016 1.00273 0.991527
1.0003 1.00258 0.991424
1.00043 1.00236 0.99146
1.00015 1.00004 0.994214
1.00012 1.00086 0.993486
1.00013 1.00152 0.992741
1.00013 1.00197 0.992352
1.00021 1.00249 0.991655
1.00015 1.00002 0.994127
1.0001 1.00187 0.99249
1.00015 1.00146 0.992816
1.00014 1.0008 0.993457
1.0002 1.00229 0.991881
1.00018 1.00195 0.992234
1.00015 1.00269 0.991683
1.00016 1.00134 0.992919
1.00014 1.00078 0.993527
1.00013 1.0008 0.993537
1.00013 1.00144 0.99287
1.00015 1.00135 0.992925
1.00012 1.00156 0.992765
1.00018 1.00181 0.992444
1.00003 1.00224 0.992236
1.0001 1.00108 0.993266
1.00009 1.00093 0.993426
1.00013 1.00009 0.994194
1.00011 1.00086 0.993413
1.00013 1.00005 0.994183
1.00014 0.998917 0.995333
1.00014 1.00003 0.994137
1.00014 0.998876 0.995365
1.00007 0.997114 0.997636
1.00014 0.998867 0.995374
1.00009 0.997083 0.997424
1.00005 0.995989 0.998548
1.0001 0.997069 0.997214
1.00002 0.995982 0.999386
1.00005 0.995991 0.998552
1.00012 0.999807 0.994508
1.00016 0.998605 0.99561
1.00016 0.998621 0.995591
1.00009 0.996916 0.997387
1.00016 0.998687 0.995527
1.00008 0.99698 0.997346
1 0.995948 0.99942
1.00004 0.997105 0.997673
0.999982 0.996077 0.998986
0.999958 0.996217 0.998542
1.00323 0.997671 0.990298
1.00364 0.998432 0.988939
1.00396 0.997934 0.988636
0.998725 0.99837 0.986123
1.00368 0.99788 0.990334
1.00405 0.998502 0.987839
1.00428 0.998479 0.989538
0.999301 0.998509 0.985287
0.997553 0.999206 0.966138
0.995911 0.997079 0.972449
0.99638 0.994246 0.977961
1.00005 1.00063 0.993715
1.00012 0.999782 0.994536
1.00013 0.999792 0.994509
1.00005 1.00067 0.993739
1.00003 1.00132 0.993213
1.00006 1.00117 0.993299
1.00007 1.00075 0.993701
1.00006 1.00064 0.993763
1.0037 0.998359 0.989052
1.00423 0.996263 0.989833
1.00326 0.997448 0.990197
1.00017 1.00346 0.990715
1.00108 1.00401 0.988639
0.999867 1.00431 0.99049
1.00001 1.00378 0.990896
1.00009 1.00248 0.991857
1.00009 1.00098 0.993399
1.00007 1.00195 0.992555
1.00007 1.00078 0.993772
1.00009 1.00145 0.99289
1.00437 0.997141 0.988742
1.00005 1.00169 0.992739
1.00005 1.0018 0.992643
1.00456 0.996329 0.989109
1.00189 1.00198 0.988463
1.00013 1.00446 0.989924
1.00009 1.00275 0.991643
1 1.00435 0.990236
1.00489 0.997576 0.988006
1.00328 1.00027 0.988216
1.00016 1.00463 0.989064
1.00004 1.00457 0.989957
1.00003 1.00214 0.992276
1.0001 1.00251 0.991856
1.0001 1.00361 0.990843
0.997129 0.995168 0.973276
0.998252 0.99881 0.970564
1.00013 1.00308 0.991269
1.00005 1.00359 0.990768
1.00474 0.995294 0.989939
1.00201 1.00133 0.988998
1.00006 1.00492 0.989502
0.99838 0.99787 0.966236
0.998183 1.00148 0.983633
1.00222 0.998978 0.991907
0.995252 0.99739 0.974002
0.996179 0.994279 0.976215
1.00013 1.00296 0.991364
0.996777 0.995029 0.974476
0.997002 0.995599 0.979543
1.00356 0.997293 0.990523
0.999942 1.00389 0.990819
0.999862 1.00493 0.989984
1.002 0.999361 0.99275
0.996966 0.999851 0.967719
0.997451 1.00464 0.981853
0.994876 0.999875 0.973159
1.00007 0.995806 0.978394
1.00045 1.00239 0.99128
0.997829 0.996698 0.981464
1.00593 0.996431 0.980687
1.00096 1.00026 0.992004
0.99968 1.00401 0.991843
1.00126 1.00316 0.995028
0.998275 1.00234 0.987027
0.995197 1.00264 0.967689
0.994936 0.999351 0.973689
1.00598 0.99783 0.975323
1.00028 1.00262 0.991435
1.00041 1.00239 0.99139
1.00011 1.00265 0.991466
1.00015 1.00002 0.994124
1.00014 1.00079 0.993514
1.00015 1.00149 0.992899
1.0001 1.00183 0.992508
1.00021 1.00229 0.991807
1.00014 1.00077 0.993529
1.00016 1.00195 0.9923
1.00015 1.00134 0.992917
1.00012 1.00271 0.991649
1.00016 1.00288 0.991535
1.00018 1.00206 0.992202
1.00015 1.00132 0.992942
1.00012 1.0008 0.993538
1.00014 1.00145 0.992784
1.00015 1.00134 0.992926
1.00011 1.00157 0.992761
1.00019 1.00177 0.99243
1.00008 1.00182 0.99256
1.0002 1.00175 0.992447
1.00022 1.00195 0.992114
1.00012 1.00266 0.991645
0.999875 1.00322 0.991466
0.999999 1.00253 0.991947
1.00003 1.00225 0.99224
1.00009 1.00137 0.993001
1.0001 1.0011 0.993261
1.00013 1.00018 0.994101
1.00009 1.00094 0.993424
1.00013 1.00009 0.994192
1.00013 0.998996 0.995282
1.00013 1.00005 0.994133
1.00014 0.998914 0.995334
1.00005 0.997166 0.997629
1.00014 0.998873 0.995366
1.00008 0.99711 0.997425
1.00003 0.995992 0.998552
1.0001 0.997075 0.997214
1.00002 0.995989 0.999386
1.00002 0.99598 0.999386
1.00013 0.999883 0.994577
1.00016 0.998645 0.995575
1.00012 0.999813 0.994508
1.0001 0.996898 0.9974
1.00016 0.998604 0.99561
1.00016 0.998616 0.99559
1.00009 0.996919 0.997386
1.00002 0.995894 0.999429
1.00007 0.996981 0.997738
1.00001 0.995962 0.999016
1 0.996085 0.998585
0.996793 0.995415 0.97516
0.997212 0.99507 0.980658
0.998956 0.998531 0.987786
1.00366 0.998204 0.990452
1.00402 0.998367 0.987781
0.999365 0.998445 0.989138
1.00436 0.998479 0.989418
0.998274 0.998221 0.969904
0.995293 0.997361 0.975239
0.996301 0.994139 0.977251
1.00093 0.99764 0.991796
0.996692 1.00096 0.970335
0.995086 0.999645 0.974454
0.999077 0.99749 0.977308
1.00003 1.00146 0.992991
1.00005 1.00063 0.99376
1.00012 0.99978 0.994535
1.00005 1.00068 0.993699
1.00002 1.00127 0.99327
1.00004 1.00147 0.993047
1.00006 1.00113 0.993307
1.00008 1.00103 0.993358
1.00007 1.00077 0.993634
1.00005 1.00066 0.993712
1.00438 0.997476 0.988578
1.00447 0.996325 0.989075
1.00154 1.00153 0.988743
1.00021 1.00448 0.989763
1.00003 1.00429 0.99026
1.00012 1.00276 0.991588
1.00005 1.00181 0.99264
1.00004 1.00168 0.992789
1.00498 0.997129 0.987826
1.00003 1.00218 0.992244
1.00012 1.00253 0.991762
1.00308 1.00038 0.987903
1.00011 1.00449 0.989559
1.0001 1.00454 0.989894
1.00015 1.00356 0.990788
1.00336 1.00231 0.986979
1.00057 1.00381 0.989922
1.00005 1.00419 0.990219
1.00004 1.00228 0.992181
1.00015 1.00259 0.991647
1.00027 1.00305 0.991006
0.999213 0.996531 0.979767
0.996822 0.996007 0.972282
0.997845 0.99831 0.967669
1.00017 1.00286 0.991357
0.999885 1.00417 0.990847
1.00364 0.99755 0.990385
0.999714 1.00486 0.989976
0.997241 0.995517 0.972665
0.996655 0.999467 0.971958
0.997421 1.00431 0.979089
1.00196 0.999155 0.992761
0.994939 0.99984 0.975257
0.997078 0.995668 0.979154
0.998849 0.995525 0.978843
1.00037 1.00262 0.991269
0.997853 0.996807 0.980751
1.00551 0.996535 0.980985
1.00105 1.00043 0.9921
0.99943 1.0038 0.991881
1.00192 1.00346 0.991729
0.998221 1.003 0.982735
0.995506 1.00376 0.968213
0.995791 0.999207 0.9763
1.00334 0.998245 0.976389
0.999755 1.00263 0.992742
1.00844 0.996994 0.98056
1.01584 0.99663 0.971462
0.998345 1.00448 0.99323
0.998558 1.00087 0.994079
0.99546 1.00229 0.968423
0.997365 0.999127 0.976959
1.00318 1.00055 0.975516
1.00039 1.00241 0.991321
1.00022 1.00257 0.991589
1.00022 1.00205 0.99206
1.00014 1.00077 0.99353
1.00015 1.00134 0.992914
1.00014 1.00195 0.992366
1.0001 1.00275 0.991614
1.00016 1.00132 0.992943
1.00018 1.00205 0.992203
1.00011 1.00283 0.99155
1.00004 1.00271 0.992019
1.00026 1.00242 0.991633
1.00021 1.00177 0.992422
1.00015 1.00134 0.992926
1.00011 1.00158 0.992757
1.00021 1.00172 0.992416
1.00021 1.00175 0.992452
1.00007 1.00185 0.992559
1.00023 1.00192 0.992148
1.0002 1.00226 0.991872
1.00028 1.00205 0.991959
1.00016 1.00279 0.991407
1.00014 1.00266 0.99167
0.999879 1.00325 0.991433
1.00013 1.00331 0.991027
1.00005 1.0026 0.991951
0.999836 1.00311 0.991686
1.00001 1.00252 0.992019
1.0001 1.00172 0.992567
1.00003 1.00226 0.992243
1.00009 1.00138 0.992997
1.00014 1.00036 0.993906
1.00009 1.00111 0.993256
1.00013 1.00019 0.994097
1.0001 0.999103 0.995214
1.00013 1.00009 0.99419
1.00013 0.998988 0.995282
1.00001 0.997257 0.997605
1.00014 0.99891 0.995334
1.00005 0.99717 0.997414
1 0.996061 0.998547
1.00009 0.997101 0.997215
1.00002 0.996005 0.998969
1.00001 0.995992 0.999387
1.00013 1.00007 0.994259
1.00015 0.998727 0.995505
1.00012 0.999891 0.994449
1.00009 0.996937 0.997375
1.00016 0.998644 0.995576
1.00011 0.999821 0.994507
1.00002 0.995882 0.99943
1.0001 0.996896 0.997401
1.00016 0.998602 0.99561
1.00009 0.996923 0.997385
1.00001 0.995901 0.999426
0.999998 0.995955 0.999417
0.998385 0.996577 0.981076
0.996595 0.995486 0.973621
1.00694 0.995171 0.979987
0.997158 0.995134 0.980257
0.999475 0.998795 0.984646
1.00445 0.998491 0.989262
0.997761 0.997554 0.973766
0.995781 0.998463 0.97281
0.996161 0.994074 0.976542
1.00078 0.998086 0.989539
0.996945 1.00002 0.967964
0.99501 0.999578 0.972452
0.999486 0.996852 0.977465
0.9992 0.9996 0.989739
0.995849 1.00197 0.967553
0.995101 1.00029 0.975085
1.0039 1.00079 0.974556
1.00006 1.00194 0.992537
1.00003 1.00144 0.993059
1.00006 1.00062 0.993806
1 1.00122 0.993327
1.00008 1.00174 0.992625
1.00005 1.00142 0.993101
1.00006 1.0011 0.993316
1.00012 1.00112 0.99327
1.00009 1.00102 0.993423
1.00007 1.00078 0.993567
1.00505 0.996723 0.987648
1.00288 1.00053 0.987594
1.00007 1.00431 0.990055
1.00017 1.00451 0.989831
1.00018 1.00351 0.990734
1.00013 1.00255 0.991668
1.00004 1.00221 0.992213
1.00005 1.00227 0.992192
1.00345 1.00146 0.987185
1.00013 1.00263 0.991701
1.00028 1.00311 0.990994
1.00058 1.00384 0.989678
1.00016 1.00414 0.990215
1.00137 1.00291 0.989054
0.999951 1.00363 0.991226
1.0003 1.00305 0.990828
1.00018 1.00241 0.991795
1.00034 1.00287 0.990998
1.01028 0.997282 0.978997
0.999103 0.996811 0.980296
0.996888 0.995592 0.974624
1.00029 1.00288 0.991256
0.999179 1.00364 0.991921
1.00118 1.00058 0.99218
0.99771 0.99706 0.981096
0.995483 1.00236 0.967067
0.998124 1.00362 0.984757
1.00275 1.00365 0.988287
0.995351 0.99939 0.973466
1.005 0.996639 0.98128
1.00267 0.998197 0.976792
0.999705 1.00234 0.99287
1.00833 0.997037 0.980827
1.01559 0.996649 0.971764
0.998463 1.00426 0.993061
0.99877 1.00135 0.992059
0.995503 1.0032 0.96716
1.00561 0.999481 0.974377
0.996202 0.998957 0.975829
0.999084 1.00232 0.993968
1.02379 0.992026 0.96734
1.02006 0.996129 0.967044
1.00381 1.00014 0.975526
0.996149 1.00283 0.996279
0.99559 0.999262 0.972482
0.994789 0.999759 0.978058
1.00034 1.00245 0.991711
1.00037 1.0022 0.991664
1.00025 1.00126 0.993051
1.00015 1.00132 0.992944
1.00017 1.00204 0.992204
1.00009 1.00273 0.991566
1.00021 1.00177 0.992433
1.00027 1.00239 0.991618
1.00009 1.00259 0.991859
0.999792 1.00237 0.992498
1.00034 1.00213 0.991759
1.00021 1.00174 0.992457
1.00006 1.00188 0.992557
1.00025 1.00189 0.992183
1.00028 1.00202 0.991964
1.00021 1.00221 0.991905
1.00008 1.00275 0.991639
1.00011 1.00277 0.991522
1.00004 1.00398 0.990536
1.00015 1.00266 0.991695
0.999971 1.00326 0.991404
1.0001 1.00369 0.990439
1.00014 1.00316 0.991096
1.00004 1.0027 0.991814
1.00008 1.00332 0.99105
1.0001 1.00198 0.992383
1.00005 1.00262 0.991907
0.999795 1.003 0.991905
1.00003 1.0025 0.992092
1.00009 1.00169 0.992645
1.00014 1.00065 0.993612
1.00009 1.00139 0.992994
1.00013 1.00038 0.9939
1.00008 0.999244 0.995114
1.00012 1.0002 0.994092
1.00011 0.999095 0.995212
0.999965 0.997386 0.997557
1.00013 0.998979 0.995282
1.00002 0.99727 0.997385
0.999958 0.996161 0.99853
1.00006 0.997164 0.997204
0.999989 0.996068 0.998967
0.999996 0.996029 0.999387
1.00015 1.00025 0.99389
1.00013 0.998883 0.995219
1.00014 1.00007 0.994256
1.00008 0.997024 0.997314
1.00014 0.998738 0.995421
1.00011 0.999899 0.994322
1.00001 0.995914 0.999421
1.00009 0.996929 0.997377
1.00016 0.998643 0.995576
1.00002 0.995881 0.99943
1.0001 0.996896 0.997401
1.00001 0.995907 0.999424
1.01082 0.996208 0.977613
0.998557 0.996247 0.980137
0.996726 0.995641 0.972891
1.00018 1.00118 0.993027
1.01669 0.994752 0.972502
1.00638 0.995952 0.980248
0.997459 0.995162 0.979557
1.00069 0.998224 0.987211
0.996887 1.00091 0.9704
0.99511 0.999539 0.97469
0.999799 0.995737 0.977132
0.998738 1.00003 0.984511
0.995415 1.00233 0.969243
0.995771 1.00026 0.97438
1.00302 0.99985 0.975659
0.997968 1.00242 0.981719
0.995299 1.00143 0.965929
0.9958 1.00028 0.973476
1.00383 1.00141 0.974331
1.00016 1.00209 0.992112
1.00006 1.00196 0.992496
1.00004 1.00143 0.993127
1.00013 1.00173 0.992546
1.00008 1.00171 0.992709
1.00005 1.00137 0.993156
1.00013 1.00112 0.993291
1.00009 1.00101 0.993488
1.0035 1.00065 0.987392
1.00059 1.00392 0.989434
1.00005 1.00224 0.992204
1.00026 1.00413 0.990212
1.00029 1.00315 0.990982
1.00011 1.00266 0.991755
1.00017 1.00243 0.991807
1.00165 1.00329 0.989187
1.00032 1.00283 0.991104
1.00032 1.00323 0.990776
0.999963 1.00339 0.991048
1.00027 1.00225 0.991869
1.00037 1.00041 0.993923
0.999502 1.0035 0.992168
1.00039 1.00236 0.991321
1.00031 1.00255 0.991506
1.02352 0.993175 0.967651
1.01108 0.996859 0.977934
0.998965 0.997089 0.980831
0.999641 1.00201 0.993
0.998572 1.00405 0.992896
1.00822 0.997052 0.981095
0.99552 1.00108 0.968835
0.99881 1.00197 0.985845
0.996323 0.999079 0.974036
1.01538 0.996619 0.972068
1.00811 0.998481 0.973239
0.999199 1.00259 0.993623
1.02393 0.992004 0.967224
1.02117 0.995868 0.966066
0.996409 1.00459 0.997428
1.00287 0.999352 0.976325
0.99519 0.999316 0.97153
0.995999 0.999565 0.974177
0.998598 1.00214 0.995816
1.02916 0.989854 0.962371
1.0169 0.994973 0.971744
0.999177 0.99752 0.97733
0.996045 0.999226 0.973824
0.996288 1.00032 1.00103
0.995091 1.00014 0.968547
1.00049 1.00243 0.991267
1.00026 1.00127 0.992915
0.998985 1.00218 0.993849
1.00022 1.00177 0.992445
1.00027 1.00237 0.991603
1.00013 1.00256 0.9917
1.00033 1.00214 0.991754
0.999878 1.00217 0.992513
0.999735 1.00357 0.991393
1.00029 1.002 0.991969
1.00022 1.00216 0.991938
1.00016 1.00279 0.991551
0.99983 1.00428 0.990616
1.00007 1.00275 0.991637
0.999948 1.00385 0.990683
1.00007 1.00471 0.989726
1.00055 1.00338 0.990137
1.00006 1.00327 0.991374
1.00016 1.00381 0.990314
1.00026 1.00275 0.991479
0.999947 1.00287 0.991683
1.00015 1.00305 0.991198
1.00008 1.00214 0.99229
1.00006 1.00269 0.991801
1.00002 1.00333 0.991073
1.00014 1.00098 0.993304
1.00011 1.00196 0.992366
1.00005 1.00265 0.991863
1.00009 1.00166 0.992724
1.00014 1.00065 0.993608
1.00005 0.999471 0.994951
1.00013 1.00039 0.993894
1.00008 0.999246 0.995109
0.999929 0.997546 0.997066
1.00011 0.999089 0.995211
0.99998 0.997398 0.997123
0.999877 0.996285 0.999368
1.00003 0.997265 0.997173
0.999949 0.996163 0.998957
0.999966 0.9961 0.999383
1.00018 1.00035 0.993722
1.00012 0.999089 0.995015
1.00016 1.00026 0.99396
1.00006 0.997159 0.997225
1.00013 0.998903 0.995195
1.00014 1.00008 0.994252
0.999996 0.995982 0.999406
1.00008 0.997015 0.997318
1.00014 0.99875 0.995338
1.00001 0.995905 0.999424
1.00009 0.996922 0.997379
1.00002 0.995881 0.99943
1.02292 0.992651 0.968171
1.01087 0.996041 0.977795
0.998572 0.995979 0.980272
1.00018 1.00119 0.993048
1.00022 1.00123 0.992845
1.00016 1.00176 0.992568
1.01964 0.996516 0.967088
1.01599 0.995819 0.972751
1.0058 0.996785 0.980509
0.998324 1.00035 0.988059
0.995748 1.00248 0.967381
0.995059 1.00028 0.972739
1.00359 0.998545 0.975828
0.997457 1.00228 0.985439
0.995307 1.00112 0.969017
0.994924 1.00038 0.977339
1.00576 1.00031 0.97327
0.997576 0.999969 0.986888
0.994924 1.00067 0.971224
0.994907 0.999879 0.97788
1.00522 0.999333 0.974629
1.00022 1.00215 0.992001
1.00015 1.00214 0.992105
1.00006 1.002 0.992456
1.00014 1.00174 0.99254
1.00008 1.00168 0.992794
1.00013 1.00112 0.993313
1.00196 1.00368 0.989319
0.999967 1.00316 0.990871
1.00017 1.00246 0.991819
1.00034 1.00333 0.990724
1.0003 1.00285 0.99121
1.00027 1.00219 0.991858
1.0003 1.00253 0.991494
1.00044 1.001 0.993831
1.00041 1.00235 0.99145
0.999216 1.00327 0.993147
1.00026 1.00215 0.99185
0.998318 1.00081 0.997183
0.999031 1.00044 0.996099
1.00028 1.00243 0.991476
1.02908 0.990862 0.962025
1.02455 0.992749 0.966248
1.0119 0.996399 0.976871
0.999311 1.00282 0.993277
0.996536 1.00204 0.997904
1.02404 0.99197 0.967108
0.995066 1.00015 0.980492
0.997178 0.999684 0.977026
1.0223 0.995508 0.965088
1.00346 0.998216 0.976555
0.998625 1.00196 0.995584
1.02919 0.989928 0.962163
1.01616 0.99628 0.971998
0.995994 1.00166 0.993639
0.999553 0.997035 0.977378
0.995116 0.999732 0.977299
0.995011 1.00012 0.972045
0.997812 1.00412 0.998216
1.02297 0.993463 0.967333
1.00688 0.995813 0.979344
0.996335 0.994743 0.97807
0.995095 0.999489 0.975557
0.995102 1.0001 0.971412
0.996191 1.0006 0.990872
1.00024 1.00126 0.99278
0.999096 1.00194 0.993866
0.998728 1.0046 0.992354
1.00031 1.00214 0.991748
0.999957 1.00195 0.992526
0.999612 1.00366 0.991512
0.999777 1.00449 0.990358
1.00024 1.00282 0.991463
1.00001 1.00425 0.990468
1.00011 1.00501 0.98933
0.999858 1.00371 0.99083
1.00011 1.00462 0.989731
1.00066 1.00463 0.98897
1.00085 1.00364 0.989385
1.00034 1.00267 0.99106
1.00053 1.00348 0.990035
1.00022 1.00392 0.99019
1.00021 1.00246 0.991817
1.0002 1.00262 0.991611
0.999992 1.00244 0.992058
0.999979 1.00283 0.991743
1.00016 1.00294 0.991301
1.00013 1.00127 0.993037
1.0001 1.00211 0.992299
1.00008 1.00268 0.991788
1.00002 0.999767 0.99471
1.00014 1.00096 0.993307
1.00012 1.00193 0.99235
1.00014 1.00066 0.993603
1.00005 0.999476 0.994944
0.999872 0.997746 0.996974
1.00008 0.999247 0.995103
0.999933 0.997553 0.997062
0.999835 0.996438 0.999354
0.999985 0.997399 0.997124
0.999896 0.996301 0.998936
0.999926 0.996199 0.999373
1.0002 1.00047 0.993662
1.00013 0.999249 0.995008
1.00018 1.00036 0.993774
1.00002 0.997338 0.99711
1.00013 0.999105 0.995081
1.00017 1.00026 0.994029
0.999969 0.996091 0.999383
1.00005 0.997148 0.99723
1.00013 0.998924 0.995171
0.999998 0.995972 0.999411
1.00008 0.997006 0.997322
1.00002 0.995897 0.999427
1.02889 0.990018 0.962473
1.02321 0.992491 0.968064
1.01092 0.995917 0.977976
1.00024 1.00134 0.992699
1.00023 1.00188 0.992288
1.00017 1.0012 0.993069
1.00022 1.00125 0.992826
1.00017 1.00176 0.9925
1.00019 1.00178 0.99242
1.00017 1.00209 0.992146
1.01534 0.997668 0.971171
1.02074 0.99626 0.966214
1.01528 0.996801 0.973
1.00816 0.999114 0.972208
0.996843 1.00201 0.982174
0.995339 1.00115 0.971971
0.99467 1.00067 0.974411
0.997138 0.999473 0.984863
0.994959 0.999805 0.969015
0.996153 0.999883 0.974113
1.00303 0.99958 0.975702
0.996158 0.997839 0.991588
0.994898 0.999916 0.96877
0.997332 1.00061 0.976031
1.00057 0.995963 0.978178
1.00028 1.00214 0.991925
1.00022 1.00212 0.991993
1.00013 1.00217 0.992099
1.00014 1.00176 0.992535
1.00054 1.00209 0.993736
0.998866 1.00311 0.994129
1.00028 1.00211 0.991847
1.00029 1.0025 0.991482
1.00043 1.00237 0.991578
1.00027 1.00217 0.991823
1.00029 1.00245 0.991406
0.997856 1.00166 0.997371
0.999137 1.00026 0.996419
1.00022 1.00257 0.991566
0.99637 0.999475 1.00116
0.99964 1.00297 0.993132
1.0235 0.994488 0.966517
1.0289 0.991026 0.961985
1.02557 0.992292 0.964844
0.998738 1.00173 0.995376
0.996085 1.00041 1.0008
1.0292 0.990061 0.961954
0.99494 1.00022 0.968798
0.994832 1.0002 0.97448
1.0154 0.997506 0.972252
0.999851 0.995652 0.977311
0.997749 1.00384 0.998151
1.02325 0.993287 0.967203
1.00628 0.996642 0.97965
0.996313 1.00073 0.996572
0.996302 0.994296 0.977259
0.995793 0.999816 0.974703
0.995165 1.00003 0.970995
0.997701 1.00531 0.995959
1.01084 0.997404 0.976505
0.997073 0.995445 0.980679
0.994907 0.999473 0.975145
0.995386 1.00101 0.970479
0.996076 1.00067 0.985799
0.999323 1.00165 0.993884
0.998691 1.00474 0.992326
1.00048 1.00296 0.991266
0.999488 1.00376 0.991631
0.999547 1.00455 0.990481
1.00023 1.00465 0.989607
1.00018 1.00421 0.990319
1.0002 1.00501 0.989232
1.00077 1.00454 0.988362
1.00015 1.00454 0.989737
1.00068 1.00464 0.988842
1.001 1.0043 0.988371
1.00125 1.00307 0.989073
1.0008 1.00296 0.990284
1.00086 1.00372 0.989257
1.00026 1.00225 0.991624
1.00035 1.00267 0.991134
1.00051 1.0036 0.989933
1.00015 1.00239 0.991933
1.00019 1.00249 0.9918
1.00013 1.00249 0.991743
1.0001 1.00156 0.992759
1.00001 1.00239 0.992102
1.00001 1.00278 0.991803
1.00001 1.00006 0.994424
1.00013 1.00125 0.993043
1.00011 1.00208 0.992308
0.999828 0.99797 0.996856
1.00001 0.999774 0.994707
1.00014 1.00095 0.993311
1.00005 0.99948 0.994938
0.999877 0.997756 0.996968
0.999772 0.996615 0.999334
0.999937 0.997561 0.997058
0.999827 0.996461 0.999348
0.999877 0.996329 0.99936
1.00024 1.00145 0.992636
1.00024 1.00059 0.993474
1.00012 0.999396 0.994875
1.00021 1.00047 0.993663
0.999989 0.997517 0.996996
1.00013 0.999256 0.99501
1.00017 1.00037 0.993826
0.999933 0.996237 0.999355
1.00002 0.997325 0.997116
1.00013 0.999118 0.995147
0.999972 0.996074 0.99939
1.00005 0.997138 0.997235
1 0.995958 0.999416
1.02339 0.993407 0.966598
1.02894 0.990206 0.962204
1.0235 0.992305 0.967956
1.00023 1.00135 0.992724
1.00023 1.00188 0.992242
1.00021 1.00208 0.992043
1.00021 1.00182 0.992272
1.00021 1.0022 0.992012
1.00021 1.00127 0.992808
1.00018 1.00175 0.992431
1.00018 1.00178 0.992424
1.00019 1.00206 0.992129
1.00016 1.00219 0.992091
1.006 0.996937 0.98016
1.01508 0.997845 0.971405
1.02178 0.996155 0.965341
1.00208 0.999469 0.976015
0.997016 0.9998 0.976707
0.996769 0.998589 0.983401
0.994966 0.999679 0.970892
0.995949 0.997388 0.986419
0.994947 0.999865 0.971001
0.995941 1.00026 0.975111
0.999729 0.996208 0.978364
0.995003 0.99713 0.989844
0.995023 0.999528 0.971751
0.995059 1.0003 0.973671
0.996375 0.99454 0.977804
1.00005 1.002 0.992431
1.00024 1.00222 0.991904
1.00022 1.00211 0.991985
0.997443 1.00196 0.997553
0.999251 1 0.996746
1.00028 1.0022 0.991796
1.0003 1.00249 0.991338
1.00019 1.00252 0.991627
0.99944 1.00302 0.992901
0.996614 0.998906 1.0012
0.999157 1.00366 0.99227
0.99815 1.00271 0.996053
1.01 0.998655 0.977958
1.02446 0.99389 0.965246
1.02872 0.991326 0.961946
0.997634 1.00359 0.998066
0.996401 1.00025 0.988775
1.02352 0.993096 0.967072
0.995342 0.999965 0.966141
0.995126 0.999861 0.973415
1.00568 0.997531 0.979957
0.996232 0.994052 0.97645
0.9979 1.00526 0.996127
1.0109 0.997148 0.976671
0.997007 0.995399 0.980308
0.996388 1.00098 0.988506
0.994959 0.999325 0.973021
0.995394 1.00069 0.967538
0.999253 1.0037 0.993007
0.998348 0.997106 0.980793
0.996046 0.996936 0.972503
0.996004 1.00096 0.968569
0.996668 1.00182 0.987339
0.998665 1.00488 0.992298
1.00027 1.00302 0.991235
1.00197 1.00099 0.990399
0.999333 1.00466 0.990603
1.00007 1.00455 0.989616
1.00104 1.00383 0.988628
1.0003 1.00499 0.989134
1.0008 1.0046 0.988351
1.00154 1.00318 0.98844
1.00069 1.00463 0.988714
1.001 1.00419 0.988415
1.00164 1.00246 0.988955
1.00179 1.00144 0.989587
1.00103 1.0027 0.989792
1.00126 1.00297 0.989117
1.00059 1.00247 0.991047
1.00074 1.00304 0.99014
1.00088 1.00379 0.989128
1.00024 1.00208 0.991998
1.00026 1.00222 0.991709
1.00036 1.00267 0.991209
1.0001 1.00183 0.992518
1.00013 1.00238 0.991952
1.00016 1.00252 0.991782
0.999987 1.00042 0.994109
1.00011 1.00157 0.992761
1.00004 1.00233 0.992147
0.999769 0.99821 0.997175
1 1.00008 0.99442
1.00014 1.00123 0.993049
0.99972 0.996846 0.998343
0.999822 0.997999 0.997066
1.00001 0.99978 0.994703
0.999881 0.997767 0.996962
0.999764 0.996646 0.999326
0.999819 0.996485 0.999343
1.00022 1.00172 0.992383
1.00025 1.00078 0.993263
1.00024 1.00148 0.992594
1.0001 0.99954 0.994761
1.00024 1.0006 0.993475
0.999951 0.997677 0.996905
1.00012 0.999401 0.994878
1.00021 1.00047 0.993663
0.99989 0.996391 0.999329
0.999986 0.997507 0.997001
1.00012 0.999266 0.995011
0.999937 0.996214 0.999364
1.00002 0.997313 0.997122
0.999976 0.996057 0.999397
1.00871 0.998526 0.979092
1.02351 0.993429 0.96648
1.02901 0.990492 0.961935
1.00018 1.00218 0.992051
1.00023 1.00137 0.992748
1.00024 1.00188 0.992197
1.00021 1.00184 0.992322
1.00021 1.00208 0.992083
1.00022 1.00215 0.991998
1.00021 1.00234 0.99183
1.00016 1.00223 0.99195
1.00017 1.00178 0.992427
1.0002 1.00203 0.992113
1.00016 1.00219 0.992085
1.00021 1.00251 0.991947
0.997522 0.995431 0.979167
1.00542 0.997243 0.980454
1.0149 0.997964 0.971639
0.998745 0.996123 0.978382
0.996015 1.00025 0.973633
0.994894 0.999928 0.968807
0.995632 0.996866 0.991274
0.994988 0.996968 0.994971
0.996397 0.994355 0.976937
0.994926 0.999833 0.967945
0.995432 0.999979 0.975493
0.996083 0.998577 0.993134
0.995344 0.999072 0.973237
0.995023 0.999168 0.975043
0.999548 1.00196 0.993364
1.00015 1.00192 0.992439
1.00019 1.0023 0.991883
0.996839 0.998244 1.00123
0.999367 1.00299 0.992662
1.00013 1.00249 0.991688
0.999382 1.00365 0.992207
0.997828 1.00286 0.996162
0.99894 1.00161 0.994533
0.998889 0.997008 0.979744
1.01104 0.998387 0.976557
1.02541 0.993261 0.963974
0.998064 1.00524 0.996341
0.996414 1.00094 0.990289
1.01095 0.997029 0.976836
0.99537 1.00021 0.972386
0.99491 0.99937 0.975127
0.99732 0.995308 0.979479
0.999189 1.00377 0.993233
0.998499 0.996777 0.979799
0.995372 0.9973 0.97533
0.996479 1.00189 0.983485
0.995664 1.00096 0.970117
1.00096 1.00111 0.992206
0.996871 0.995317 0.975174
0.9971 1.00031 0.969879
0.997421 1.0017 0.982205
1.00007 1.00312 0.991205
1.00165 1.00036 0.990707
1.00194 1.00069 0.989914
0.99988 1.00443 0.989624
1.0011 1.00369 0.988622
1.00256 1.00085 0.988878
1.00083 1.00461 0.98834
1.00149 1.00308 0.988503
1.00237 1.00028 0.989795
1.00101 1.00409 0.988459
1.00166 1.00225 0.989001
1.00231 0.999727 0.990323
1.00214 0.999725 0.99066
1.00156 1.0016 0.989909
1.00178 1.00133 0.989712
1.0008 1.00226 0.990513
1.00105 1.00267 0.989874
1.00126 1.00286 0.989161
1.00037 1.00208 0.991761
1.00051 1.00248 0.991039
1.00068 1.00311 0.989995
1.00016 1.00182 0.992428
1.00026 1.00208 0.99199
1.00026 1.0022 0.991795
0.999936 1.00088 0.993773
1.00011 1.00181 0.99253
1.00011 1.00236 0.991971
0.999723 0.998466 0.996535
0.999989 1.00042 0.994104
1.00012 1.00157 0.992764
0.999623 0.997067 0.999267
0.999774 0.998249 0.996663
1 1.00009 0.994416
0.999703 0.996845 0.999298
0.999826 0.998015 0.996819
0.999756 0.996678 0.999317
1.00018 1.00188 0.992354
1.00022 1.00173 0.992393
1.00021 1.00109 0.993033
1.00008 0.999718 0.994625
1.00024 1.00079 0.993264
1.00024 1.00151 0.992553
0.999915 0.997817 0.996835
1.00011 0.999533 0.994765
1.00023 1.00061 0.993476
0.999843 0.996539 0.999308
0.999948 0.99767 0.996909
1.00012 0.999402 0.99488
0.999895 0.99637 0.999336
0.999983 0.997496 0.997006
0.999941 0.996191 0.999372
0.998171 0.997071 0.980953
1.00855 0.998545 0.979282
1.02362 0.993446 0.966362
1.00018 1.0022 0.992017
1.00015 1.00224 0.992118
1.0002 1.00232 0.991868
1.0002 1.00185 0.992372
1.00021 1.00207 0.992124
1.00022 1.0021 0.991983
1.00017 1.00224 0.991953
1.0002 1.00233 0.991831
1.00008 1.00281 0.991625
1.00011 1.00237 0.99189
1.00015 1.00219 0.99208
1.00015 1.00243 0.99196
0.995309 0.997587 0.975191
0.997253 0.99565 0.979182
1.00479 0.997448 0.980747
0.996479 0.994152 0.97607
0.994857 1.00007 0.973401
0.995198 1.00003 0.974633
0.995029 0.996956 0.989622
0.995889 0.998546 0.988427
0.995137 0.998638 0.973049
0.995193 0.999442 0.972475
0.997804 0.996153 0.988435
0.995926 1.00018 0.969761
1.00022 1.00285 0.991919
0.999729 1.00172 0.993314
1.00025 1.00184 0.992449
0.997268 1.00308 0.996295
0.999595 1.00365 0.992145
0.99963 1.00176 0.994265
1.00182 0.999255 0.992534
0.997189 0.99484 0.97362
0.998769 0.997396 0.98004
1.01207 0.998015 0.975158
0.99939 1.00377 0.993417
0.996276 1.00188 0.986709
0.998526 0.996446 0.97993
0.995871 1.00114 0.968287
0.995819 0.99826 0.972934
1.00109 1.00096 0.992199
0.996775 0.995452 0.973421
0.997502 0.999295 0.967829
0.996852 1.00144 0.98622
1.00088 1.00317 0.98981
0.997747 0.999072 0.965813
0.999045 0.998417 0.989337
1.00131 0.99985 0.991014
1.00164 1.00135 0.989774
1.00336 0.998834 0.988511
1.0012 1.00355 0.988616
1.00257 1.00065 0.988791
1.00365 0.997074 0.990606
1.00144 1.00304 0.988566
1.00236 1.00004 0.989826
1.00312 0.997057 0.991413
1.00168 1.00204 0.989046
1.00231 0.999619 0.990337
1.00262 0.997949 0.9914
1.00234 0.99883 0.991303
1.00213 0.999604 0.990792
1.00191 1.00023 0.990612
1.00139 1.00151 0.990364
1.00156 1.00164 0.989922
1.00177 1.00121 0.989838
1.00064 1.00196 0.991172
1.00083 1.00226 0.990618
1.00107 1.00263 0.989956
1.00024 1.00177 0.992296
1.00038 1.00209 0.991746
1.00044 1.00249 0.991031
0.999912 1.00118 0.993509
1.00018 1.0018 0.992435
1.00028 1.00208 0.991983
0.999649 0.998783 0.996345
0.999952 1.00083 0.993775
1.00013 1.00179 0.992542
0.999583 0.997265 0.999235
0.999719 0.998497 0.996523
0.999992 1.00042 0.994099
0.999638 0.997082 0.998768
0.999777 0.998262 0.996663
0.999693 0.996898 0.999281
1.00016 1.00197 0.992299
1.00019 1.0019 0.992306
1.00017 1.00137 0.992832
1.00021 1.00174 0.992402
1.00021 1.0011 0.993029
1.00003 1.00002 0.994408
0.999872 0.997967 0.996766
1.00008 0.999707 0.99463
1.00023 1.00081 0.993264
0.999788 0.996684 0.999291
0.99991 0.997813 0.996839
1.00011 0.999527 0.994769
0.999848 0.996525 0.999314
0.999944 0.997663 0.996913
0.9999 0.996349 0.999344
0.996071 0.996787 0.973391
0.99797 0.997145 0.980445
1.00842 0.998569 0.979472
1.00018 1.00221 0.991984
1.00018 1.00238 0.991831
1.00011 1.00223 0.992154
1.00011 1.0023 0.992136
1.0001 1.00251 0.99189
1.00018 1.00224 0.991957
1.0002 1.00233 0.991831
1.00005 1.00275 0.991659
0.999929 1.00259 0.99179
1.00003 1.00274 0.991613
1.00075 1.00301 0.990567
1.00002 1.00267 0.991888
1.00011 1.00237 0.991973
0.997279 0.999739 0.96679
0.995334 0.998475 0.97435
0.997184 0.995863 0.978702
0.995289 0.998441 0.975041
0.995153 0.999903 0.967956
0.995812 0.998506 0.9938
0.997986 0.99629 0.991108
0.99602 0.998729 0.972529
1.00087 0.99598 0.987533
1.00229 1.00158 0.98873
0.999828 1.0028 0.991858
0.999875 1.00146 0.993262
1.00013 1.00191 0.993988
1.00233 0.998746 0.99203
0.997886 0.997793 0.96773
0.996956 0.995588 0.972672
0.998666 0.997887 0.980336
1.00128 1.00111 0.992199
0.996295 1.00207 0.982592
0.996933 0.995463 0.972704
0.997351 0.99927 0.970418
1.00147 1.0032 0.989867
0.998541 0.997898 0.969616
0.998652 0.999245 0.984576
1.00277 1.00364 0.986942
1.0008 0.996829 0.992084
1.00133 1.00162 0.989634
1.00317 0.99934 0.988403
1.00492 0.99629 0.988477
1.00252 1.00046 0.988709
1.00341 0.997136 0.990594
1.00391 0.995297 0.991565
1.00236 0.999766 0.989858
1.00308 0.997046 0.991348
1.00323 0.996374 0.991788
1.00231 0.999515 0.990351
1.00261 0.99803 0.99135
1.00267 0.997877 0.991455
1.00228 0.998687 0.991438
1.00222 0.999346 0.991028
1.00212 0.999496 0.990924
1.00191 1.00025 0.990585
1.00178 1.00054 0.99057
1.0011 1.00146 0.990807
1.00138 1.00155 0.990343
1.00156 1.00168 0.989935
1.00044 1.00171 0.991972
1.00063 1.00198 0.991243
1.00085 1.00227 0.990724
0.999908 1.00133 0.993323
1.00027 1.00176 0.992286
1.0004 1.00209 0.991731
0.999585 0.999134 0.996097
0.999935 1.00113 0.993517
1.0002 1.00177 0.992442
0.999521 0.997488 0.999198
0.999643 0.998828 0.996333
0.999964 1.0008 0.993778
0.999576 0.997291 0.999225
0.999715 0.998531 0.996512
0.999631 0.99711 0.999248
1.00014 1.00214 0.992194
1.00015 1.00197 0.992303
1.00015 1.0016 0.992619
1.00019 1.00191 0.992258
1.00017 1.00141 0.992783
1.00001 1.00038 0.994094
1.00021 1.00111 0.993026
1.00004 1.00001 0.994411
0.999813 0.998196 0.996654
0.999727 0.996842 0.999275
0.999868 0.997962 0.996772
1.00009 0.999694 0.994636
0.999796 0.996673 0.999296
0.999906 0.997807 0.996842
0.999854 0.996509 0.99932
0.997977 0.999465 0.9698
0.99625 0.995972 0.974996
0.997535 0.997278 0.980898
1.00015 1.00245 0.991795
1.00008 1.00221 0.99219
1.00011 1.00251 0.991912
1.0001 1.00229 0.99213
1.00008 1.00255 0.991935
0.999974 1.00246 0.992032
1.00003 1.00267 0.991694
0.999996 1.00273 0.991691
0.999947 1.00296 0.991581
1.00014 1.00232 0.991556
1.00105 1.0026 0.990859
1.00196 1.00222 0.98865
1.00058 1.00284 0.990677
0.999916 1.00298 0.991885
1.00039 0.997697 0.986617
0.996699 1.00039 0.96913
0.99557 0.997743 0.972717
0.996086 0.999857 0.969748
0.998204 0.996413 0.993606
1.00085 0.995968 0.991341
1.00424 0.99655 0.990533
1.00229 1.00102 0.989344
0.999653 1.00278 0.991793
1.00336 0.998448 0.99152
0.998957 1.00003 0.984805
0.998356 0.998565 0.970442
0.996941 0.995217 0.975025
1.00201 1.00319 0.989929
0.998254 0.999667 0.987596
0.998076 0.997265 0.973465
1.00302 1.00264 0.987215
1.00048 0.997857 0.989731
1.00483 0.998423 0.987929
1.00417 0.998316 0.989487
1.00306 1.00023 0.988293
1.00483 0.996307 0.988487
1.00444 0.996421 0.989544
1.0032 0.99717 0.990579
1.0038 0.995548 0.991538
1.00376 0.996431 0.990775
1.00305 0.99707 0.991283
1.00316 0.996579 0.991725
1.0032 0.997453 0.990871
1.00261 0.998118 0.991299
1.00259 0.997963 0.991488
1.00248 0.998854 0.990835
1.00222 0.99855 0.991573
1.00219 0.999237 0.991096
1.00211 0.999897 0.99069
1.00192 1.00026 0.990558
1.00178 1.00057 0.990547
1.00158 1.00077 0.990802
1.00075 1.00139 0.991513
1.00108 1.0015 0.990876
1.00136 1.00159 0.990322
0.999985 1.00144 0.993074
1.00045 1.00171 0.991965
1.00062 1.002 0.991314
0.999515 0.999551 0.995813
0.999937 1.00131 0.993327
1.00029 1.00175 0.992276
0.999468 0.997734 0.999143
0.999582 0.999179 0.996091
0.999958 1.00108 0.993526
0.999516 0.997519 0.999182
0.999638 0.99887 0.996322
0.999569 0.997317 0.999215
1.00014 1.00231 0.992026
1.00015 1.00212 0.992222
1.00011 1.00182 0.992514
1.00014 1.00197 0.992308
1.00014 1.00163 0.992603
0.999992 1.00073 0.993779
1.00017 1.00145 0.992734
1.00001 1.00038 0.994094
0.999748 0.998487 0.996486
1.00005 0.999991 0.994414
0.999813 0.998174 0.996664
0.999661 0.997045 0.999246
0.999737 0.996829 0.99928
0.999865 0.997955 0.996777
0.999803 0.996662 0.999301
0.999599 0.999669 0.985408
0.997756 0.998618 0.968053
0.996666 0.996219 0.972671
1.00039 1.00234 0.991538
1.00011 1.00252 0.991933
1.00009 1.00228 0.992125
1.00001 1.00252 0.992024
1.00005 1.00259 0.991912
1.00001 1.00206 0.99229
1.00007 1.00291 0.991593
0.999919 1.00321 0.991548
1.00026 1.00234 0.991665
1.00077 1.00252 0.991061
1.00183 1.00158 0.989453
1.0039 0.999428 0.987363
1.00202 1.00192 0.988578
1.00049 1.00258 0.990787
1.00448 0.995534 0.990885
1.00017 0.998148 0.984839
0.996662 1.00021 0.972015
1.00074 0.996008 0.986863
1.00431 0.99637 0.990484
1.00193 1.00029 0.989973
1.00301 0.999805 0.990356
0.998989 0.999543 0.988184
0.997986 0.998067 0.967923
1.00333 1.00141 0.987482
1.00035 0.998295 0.987342
1.00488 0.997666 0.987788
1.00411 0.998229 0.989946
1.00465 0.996625 0.988457
1.00372 0.998513 0.988164
1.00467 0.996238 0.988501
1.0044 0.996261 0.989591
1.00382 0.997728 0.989423
1.0037 0.995764 0.991512
1.00375 0.996474 0.990767
1.00356 0.997928 0.989751
1.00309 0.996779 0.991662
1.00308 0.997531 0.99101
1.00295 0.998671 0.990063
1.00251 0.998041 0.991521
1.00247 0.998864 0.990838
1.00236 0.999548 0.990387
1.00216 0.999127 0.991164
1.00209 0.999817 0.990717
1.00188 1.00027 0.990653
1.00178 1.0006 0.990524
1.00154 1.00078 0.990754
1.0012 1.00095 0.991293
1.00023 1.0013 0.992756
1.00074 1.00141 0.991583
1.00105 1.00153 0.990945
0.999458 1.00003 0.995458
1.00001 1.00143 0.993077
1.00047 1.00171 0.991958
0.999389 0.998025 0.999073
0.999533 0.999562 0.995807
0.999965 1.00128 0.993331
0.999455 0.997768 0.999122
0.999579 0.999221 0.996084
0.99951 0.997548 0.999166
1.00028 1.00226 0.991677
1.00013 1.00228 0.992034
1.00014 1.00194 0.992387
1.00016 1.00211 0.992251
1.0001 1.00182 0.992537
0.999941 1.00109 0.993534
1.00013 1.00167 0.992587
0.999979 1.00077 0.993775
0.999667 0.998828 0.996297
1.00001 1.00039 0.994095
0.999752 0.998453 0.996499
0.999594 0.997271 0.999207
0.999815 0.998153 0.996674
0.999672 0.997017 0.999256
0.999746 0.996817 0.999285
1.00363 0.996868 0.991086
0.999573 0.99972 0.982003
0.997843 0.999408 0.96974
1.00044 1.0018 0.991776
1.00113 1.00171 0.99073
1.00024 1.00237 0.991609
1.00005 1.00255 0.992015
1.00003 1.00264 0.991888
1.00016 1.00204 0.99219
1.00172 1.00116 0.990072
1.00034 1.00237 0.991774
1.00036 1.00244 0.991262
1.00178 1.00152 0.989579
1.00339 0.999803 0.98775
1.00472 0.996613 0.98837
1.0039 0.999362 0.987366
1.00211 1.00165 0.988507
1.00449 0.995554 0.991108
1.00011 0.998754 0.982201
1.00448 0.996278 0.990424
1.00328 0.998135 0.990477
1.00288 0.999266 0.99065
0.999237 0.999429 0.983379
1.00492 0.996916 0.987646
1.00412 0.998175 0.990366
1.00462 0.996751 0.988462
1.00382 0.998394 0.988401
1.00377 0.998282 0.988839
1.0034 0.99811 0.989618
1.00437 0.995998 0.989637
1.00387 0.997526 0.989467
1.00366 0.998462 0.988919
1.00374 0.99656 0.990758
1.00351 0.997891 0.989838
1.00336 0.998645 0.98927
1.00296 0.997604 0.991148
1.00296 0.998677 0.990054
1.00281 0.999324 0.989721
1.00246 0.998874 0.990841
1.00236 0.999543 0.990386
1.00215 1.00002 0.990325
1.00207 0.999737 0.990743
1.00185 1.00024 0.990659
1.00148 1.00058 0.991077
1.00151 1.00079 0.990706
1.00116 1.00095 0.991275
1.00055 1.00098 0.99246
0.999489 1.00032 0.995111
1.00023 1.00131 0.992759
1.00074 1.00142 0.991653
0.999267 0.99842 0.998987
0.999504 0.999984 0.995449
1.00003 1.00141 0.993079
0.999365 0.998083 0.999049
0.999549 0.999573 0.995801
0.999443 0.997807 0.999102
1.00061 1.00207 0.991029
1.00028 1.00223 0.991611
1.00032 1.00187 0.992114
1.00013 1.00225 0.992042
1.00012 1.00194 0.992391
0.999902 1.00138 0.993344
1.00009 1.00183 0.99256
0.999918 1.00114 0.993529
0.99958 0.999217 0.996079
0.999966 1.00081 0.993771
0.999676 0.998786 0.996307
0.999523 0.997516 0.999162
0.999757 0.998417 0.996512
0.999606 0.99724 0.99922
0.999683 0.996994 0.999265
1.00401 0.99626 0.990008
1.00364 0.997104 0.990932
0.99981 0.999567 0.984666
1.00179 1.00097 0.990423
1.00028 1.00176 0.992141
1.00177 1.00093 0.989758
1.00114 1.00172 0.990678
1.00008 1.00242 0.991681
1.00321 0.999979 0.988328
1.00031 1.00201 0.992091
1.0018 1.00106 0.99
1.00421 0.998078 0.988093
1.00175 1.00146 0.989705
1.00353 0.999851 0.987644
1.00461 0.996818 0.988373
1.00386 0.999366 0.987369
1.00455 0.995464 0.991316
1.00326 0.997867 0.990423
1.0032 0.997922 0.9904
1.00276 0.998706 0.990947
1.00456 0.996882 0.988468
1.00392 0.998338 0.988634
1.00387 0.998215 0.988782
1.00344 0.998172 0.989646
1.00344 0.998539 0.989314
1.0039 0.997398 0.989511
1.00368 0.998431 0.98895
1.00354 0.998775 0.988842
1.00345 0.997864 0.989925
1.00337 0.99867 0.989246
1.00323 0.999136 0.989094
1.00297 0.998685 0.990044
1.00282 0.999321 0.989707
1.00256 0.999767 0.989773
1.00237 0.999538 0.990385
1.00216 1.00001 0.990323
1.00179 1.00034 0.990712
1.00183 1.00022 0.990665
1.00148 1.00058 0.991082
1.00085 1.00067 0.992177
1.00112 1.00094 0.991257
1.00054 1.00099 0.99246
0.999538 1.00041 0.99559
0.99918 0.999059 0.997324
0.999536 1.00023 0.995469
1.00023 1.00131 0.992761
0.999244 0.998514 0.998955
0.999547 0.999949 0.99544
0.999345 0.998142 0.999023
1.00222 1.00009 0.989956
1.00107 1.00169 0.990521
1.0007 1.00205 0.99095
1.00056 1.00172 0.991785
1.00029 1.0022 0.991544
1.0003 1.00186 0.992128
0.999924 1.00151 0.993187
1.0001 1.00193 0.992396
0.999876 1.00141 0.993341
0.999514 0.999622 0.995813
0.999893 1.00119 0.993524
0.999584 0.999175 0.996086
0.999437 0.997796 0.999103
0.999684 0.998743 0.996317
0.999536 0.997483 0.999176
0.999617 0.997208 0.999232
1.00377 0.997647 0.989482
1.00398 0.996503 0.990147
1.0036 0.997462 0.99078
1.00297 0.999832 0.988893
1.00154 1.001 0.990722
1.00011 1.0017 0.992503
1.00193 1.00089 0.989876
1.00116 1.00174 0.990625
1.00407 0.998775 0.987769
1.00322 1.00003 0.988193
1.00187 1.00099 0.989928
1.00423 0.99818 0.988056
1.00371 0.999858 0.987539
1.00441 0.996972 0.988375
1.00324 0.998401 0.989725
1.00325 0.997861 0.990331
1.0031 0.997678 0.990324
1.00398 0.998131 0.988727
1.00348 0.998203 0.989674
1.00344 0.998528 0.989339
1.00333 0.998993 0.989054
1.00369 0.998387 0.98898
1.00355 0.99876 0.988838
1.00337 0.999057 0.988884
1.00339 0.998699 0.989222
1.00323 0.999137 0.989083
1.00294 0.999502 0.989295
1.00283 0.999319 0.989694
1.00257 0.999764 0.989763
1.00215 1.0001 0.990234
1.00216 1.00001 0.99032
1.00179 1.00033 0.99071
1.00113 1.00046 0.991826
1.00147 1.00057 0.991087
1.00085 1.00068 0.992173
0.999633 1.00043 0.995411
1.00053 1.00101 0.99246
0.999605 1.00038 0.995547
0.999043 0.99961 0.99711
0.999139 0.999041 0.998088
0.999591 1.00016 0.995814
0.999223 0.9986 0.998921
1.00302 0.999548 0.98906
1.00173 1.00084 0.990428
1.00208 0.999959 0.990384
1.00084 1.0016 0.991312
1.00119 1.00167 0.990507
1.0008 1.00203 0.990871
1.00052 1.00176 0.991793
1.00004 1.00151 0.992958
1.00027 1.00185 0.992142
0.999908 1.00151 0.993184
0.999476 1.00001 0.995513
0.999852 1.00143 0.993338
0.999503 0.9996 0.995819
0.99932 0.998156 0.999028
0.999588 0.999132 0.996093
0.999455 0.997756 0.999122
0.999549 0.997448 0.99919
1.00381 0.998318 0.988731
1.0038 0.997626 0.989467
1.00396 0.996753 0.990286
1.0038 0.998871 0.988107
1.00296 0.999863 0.988898
1.00132 1.00102 0.991022
1.00208 1.00082 0.989994
1.0041 0.998782 0.987786
1.00326 1.00007 0.988058
1.00424 0.998287 0.988019
1.00337 0.99879 0.989148
1.0033 0.998439 0.989583
1.00323 0.997882 0.990239
1.00331 0.999287 0.988822
1.00345 0.998525 0.989364
1.00334 0.998999 0.989041
1.00327 0.999223 0.988955
1.00357 0.998746 0.988834
1.00337 0.999064 0.988888
1.0031 0.999409 0.989088
1.00324 0.999139 0.989071
1.00294 0.999507 0.98929
1.00249 0.99984 0.989848
1.00258 0.999761 0.989754
1.00216 1.0001 0.990228
1.00143 1.0003 0.991422
1.0018 1.00033 0.990708
1.00114 1.00046 0.991815
0.999749 1.00035 0.995287
1.00084 1.00069 0.992169
0.999701 1.0004 0.995375
0.998958 0.999924 0.997002
0.999673 1.00035 0.995503
0.999004 0.999644 0.997149
0.999074 0.999002 0.998879
1.00351 0.999383 0.98841
1.00262 0.999911 0.989568
1.00293 0.999634 0.989209
1.00137 1.00108 0.990976
1.00171 1.00077 0.990426
1.00196 0.999864 0.990808
1.00031 1.00142 0.992514
1.00085 1.0016 0.991307
1.00129 1.00168 0.990492
1.00048 1.00179 0.991801
1.00003 1.00151 0.992958
0.999477 1.00035 0.995181
0.999893 1.0015 0.993182
0.999442 1.00003 0.995516
0.999168 0.998623 0.998944
0.999492 0.999576 0.995823
0.999347 0.998089 0.999053
0.999473 0.997714 0.999141
1.00383 0.99846 0.98858
1.00389 0.998297 0.988608
1.00385 0.997586 0.989451
1.00387 0.998801 0.988106
1.00296 0.999913 0.988902
1.00409 0.998788 0.987803
1.00345 0.999077 0.988732
1.00336 0.998832 0.989128
1.00338 0.998477 0.989441
1.0033 0.999261 0.988857
1.00324 0.999523 0.98875
1.00334 0.999003 0.989028
1.00327 0.999232 0.988959
1.00308 0.999487 0.989052
1.00337 0.999071 0.988892
1.00309 0.999411 0.989094
1.00265 0.999737 0.989633
1.00294 0.999511 0.989286
1.00248 0.999844 0.989843
1.00168 1.00009 0.991131
1.00216 1.0001 0.990223
1.00144 1.00029 0.991409
0.999917 1.0002 0.995175
1.00115 1.00046 0.991803
0.999815 1.00034 0.995251
0.998928 1.00008 0.996938
0.999771 1.00037 0.995338
0.998913 0.999979 0.997038
0.998965 0.999675 0.997191
1.00367 0.998675 0.988634
1.00313 0.999586 0.988855
1.00353 0.999324 0.988361
1.00203 1.00035 0.990329
1.00259 0.999959 0.989644
1.00283 0.999702 0.98936
1.00073 1.00103 0.992012
1.00135 1.00104 0.990853
1.0017 1.00069 0.990423
0.999544 1.0006 0.994798
1.0003 1.0014 0.99252
1.00085 1.0016 0.991303
1.00001 1.00152 0.992958
0.999414 1.00043 0.995188
0.999012 0.999168 0.99885
0.999405 1.00007 0.995519
0.999199 0.998531 0.998971
0.999377 0.998027 0.999076
1.00367 0.998709 0.988675
1.00385 0.998479 0.988553
1.00398 0.998279 0.988485
1.00395 0.998718 0.988106
1.00346 0.999283 0.988532
1.00346 0.999074 0.988757
1.00334 0.998874 0.989109
1.00329 0.999235 0.988892
1.00325 0.999492 0.988733
1.00311 0.999636 0.988896
1.00327 0.999242 0.988963
1.00307 0.999496 0.989089
1.0027 0.999719 0.989469
1.00308 0.999414 0.989101
1.00264 0.999736 0.989635
1.00182 0.999961 0.990977
1.00248 0.999851 0.989838
1.00169 1.00008 0.991123
1.00006 1.00004 0.994209
1.00145 1.00028 0.991396
0.99996 1.00021 0.994703
0.998956 1.0001 0.998656
0.999885 1.00032 0.995213
0.998882 1.00015 0.996972
0.998867 1.00004 0.997076
1.00359 0.998687 0.988858
1.00322 0.999238 0.988897
1.00365 0.998728 0.988671
1.00252 0.999821 0.989578
1.00309 0.999586 0.988929
1.00353 0.999282 0.988312
1.00122 1.00048 0.991359
1.00203 1.00034 0.990321
1.00254 1.00002 0.98972
0.99971 1.00061 0.994434
1.00074 1.001 0.991903
1.00132 1.001 0.99073
0.998919 0.999691 0.998745
0.999471 1.00067 0.994814
1.0003 1.00139 0.992525
0.999348 1.00051 0.995196
0.999035 0.999058 0.998882
0.999236 0.998432 0.998997
1.00355 0.998921 0.988695
1.00368 0.998691 0.988681
1.00386 0.998502 0.988527
1.00341 0.999487 0.988473
1.00347 0.999294 0.988492
1.00347 0.999069 0.988781
1.00325 0.99946 0.988716
1.00311 0.999619 0.988897
1.00282 0.999718 0.989403
1.00307 0.999506 0.989126
1.0027 0.999742 0.989584
1.00193 0.999901 0.990619
1.00264 0.999732 0.989637
1.00182 0.999952 0.990976
1.00015 0.999967 0.994121
1.00169 1.00008 0.991115
1.00006 1.00005 0.994204
0.999002 1.00006 0.998644
0.999987 1.00022 0.994254
0.998945 1.00014 0.997802
0.998831 1.00022 0.997009
1.00347 0.998918 0.98896
1.00326 0.999079 0.989079
1.00357 0.998665 0.98888
1.00272 0.999613 0.989563
1.00324 0.999216 0.988924
1.00363 0.99877 0.988709
1.00167 1.00006 0.990923
1.00255 0.999882 0.98972
1.00308 0.999578 0.989003
0.999903 1.00041 0.994204
1.00128 1.00046 0.991306
1.00204 1.00033 0.990312
0.998916 1.00004 0.998661
0.999648 1.00067 0.994451
1.00075 1.00097 0.991794
0.998916 0.999575 0.998782
0.999401 1.00075 0.99483
0.999057 0.998938 0.998911
1.0034 0.999241 0.988715
1.00354 0.998936 0.988702
1.00368 0.998676 0.988687
1.00308 0.999588 0.989021
1.00338 0.999507 0.988506
1.00348 0.999307 0.988451
1.00311 0.999605 0.988899
1.00282 0.999712 0.989407
1.00212 0.999832 0.990322
1.00269 0.999766 0.989699
1.00192 0.999912 0.99073
1.00024 0.999975 0.993928
1.00183 0.99994 0.990976
1.00015 0.99997 0.994119
0.999063 1.00002 0.998627
1.00006 1.00006 0.994199
0.999022 1.00006 0.998639
0.998969 1.0002 0.996898
1.00327 0.999178 0.9891
1.00345 0.99886 0.988984
1.00283 0.999475 0.989494
1.00327 0.999078 0.989071
1.00354 0.998641 0.988901
1.0019 0.999891 0.990878
1.00275 0.999594 0.989552
1.00325 0.999197 0.98895
1.00008 1.00014 0.994096
1.00168 1.00009 0.990993
1.00257 0.99994 0.989863
0.998977 1.00017 0.99862
0.999872 1.00044 0.994217
1.00133 1.00043 0.991252
0.998894 0.999955 0.998687
0.999592 1.00072 0.994467
0.998912 0.999459 0.998818
1.00303 0.999493 0.98923
1.00338 0.999263 0.988742
1.00354 0.998951 0.988709
1.00228 0.999738 0.99008
1.00308 0.999614 0.989019
1.00335 0.999526 0.988539
1.00282 0.999707 0.989411
1.00209 0.999836 0.990366
1.00037 0.999972 0.993663
1.0019 0.999919 0.990841
1.00025 0.999978 0.993921
0.999132 1 0.998585
1.00015 0.999975 0.994116
0.999086 1.00002 0.998615
0.999048 1.00007 0.998634
1.00291 0.999487 0.989382
1.00327 0.999122 0.989082
1.00342 0.998804 0.989009
1.00202 0.999786 0.990735
1.00285 0.999475 0.989488
1.00328 0.999075 0.989063
1.0002 0.999971 0.994011
1.0019 0.999896 0.990878
1.00278 0.999576 0.989541
0.999054 1.00013 0.998602
1.00006 1.00016 0.994107
1.0017 1.00013 0.991063
0.998941 1.00012 0.998631
0.999841 1.00046 0.994232
0.998863 0.999872 0.998717
1.00226 0.999734 0.990336
1.00304 0.999497 0.989112
1.00336 0.999282 0.988769
1.00047 0.999947 0.99349
1.00227 0.99974 0.990099
1.00307 0.999641 0.989018
1.00206 0.999838 0.99041
1.00038 0.999975 0.993655
0.999233 0.999997 0.998511
1.00025 0.999982 0.993914
0.999166 1 0.998559
0.99911 1.00002 0.998602
1.00214 0.999756 0.990542
1.00292 0.99946 0.989338
1.00327 0.999067 0.989064
1.00034 0.999922 0.994783
1.00203 0.999796 0.99073
1.00286 0.999475 0.989481
0.999139 1.00005 0.998576
1.0002 0.999962 0.994017
1.0019 0.999903 0.990877
0.999026 1.00012 0.998607
1.00004 1.00017 0.994118
0.998911 1.00008 0.998644
1.0005 0.999951 0.993453
1.00226 0.999718 0.99025
1.00305 0.999497 0.988993
0.999319 0.999992 0.998451
1.00048 0.999945 0.993485
1.00226 0.999742 0.990118
1.00038 0.999981 0.993647
0.999266 0.999998 0.998486
0.999202 1 0.998532
1.00046 0.999936 0.994564
1.00214 0.999752 0.990542
1.00293 0.999433 0.989295
0.99911 1.00001 0.998622
1.0003 0.999909 0.993888
1.00203 0.999804 0.990725
0.999109 1.00005 0.998586
1.0002 0.999954 0.994024
0.998987 1.00012 0.998613
0.999332 0.999983 0.996425
1.0005 0.999947 0.993975
1.00226 0.999707 0.990164
0.999328 0.999992 0.99844
1.00048 0.999943 0.993484
0.999296 0.999999 0.998464
0.999181 0.999957 0.996632
1.00042 0.999942 0.994139
1.00215 0.999748 0.990543
0.999147 0.999989 0.99764
1.00031 0.999906 0.993875
0.999084 1.00006 0.998595
0.999337 0.999991 0.998433
1.00048 0.999937 0.993498
0.99934 0.99999 0.998432
0.999237 0.999986 0.997536
1.0004 0.999938 0.993667
0.999165 1.00001 0.998563
0.999313 0.999989 0.998454
0.999244 0.999994 0.998509

TENSORS stress float
0.00117626 3.03688e-05 3.76639e-05
3.03688e-05 0.000239113 -6.07192e-06
3.76639e-05 -6.07192e-06 0.000221269
0.00288961 -6.41628e-05 3.43565e-05
-6.41628e-05 0.00109684 3.36654e-06
3.43565e-05 3.36654e-06 0.00109725
0.00117766 3.80532e-05 1.61094e-05
3.80532e-05 0.000243899 -2.05579e-06
1.61094e-05 -2.05579e-06 0.000224996
0.00136755 9.79853e-06 5.18706e-05
9.79853e-06 0.000340208 -4.70604e-06
5.18706e-05 -4.70604e-06 0.000319125
0.00122402 2.17059e-05 4.32077e-05
2.17059e-05 0.00027188 -5.76082e-06
4.32077e-05 -5.76082e-06 0.000252077
0.0011395 3.47074e-05 3.24837e-05
3.47074e-05 0.00020723 -6.3733e-06
3.24837e-05 -6.3733e-06 0.000193286
0.00112157 7.64673e-06 7.75795e-06
7.64673e-06 0.000174164 -2.73291e-06
7.75795e-06 -2.73291e-06 0.000135955
0.00288875 -6.54381e-05 5.59624e-07
-6.54381e-05 0.0010933 -1.58696e-07
5.59624e-07 -1.58696e-07 0.00109431
0.00333506 -9.87844e-05 1.00623e-05
-9.87844e-05 0.00136856 1.28076e-06
1.00623e-05 1.28076e-06 0.00135621
0.0029018 -7.87129e-05 1.22929e-05
-7.87129e-05 0.00112084 1.31048e-06
1.22929e-05 1.31048e-06 0.00111662
0.00109158 -3.41216e-05 2.72158e-05
-3.41216e-05 0.000157353 3.95014e-06
2.72158e-05 3.95014e-06 0.000153275
0.000775462 -1.06483e-05 5.97122e-06
-1.06483e-05 -8.20446e-06 3.38386e-06
5.97122e-06 3.38386e-06 -4.06858e-05
0.00163645 -8.14455e-06 6.38083e-05
-8.14455e-06 0.000456868 7.3925e-07
6.38083e-05 7.3925e-07 0.000435661
0.00134499 -2.98773e-05 8.69249e-06
-2.98773e-05 0.000333616 1.32385e-06
8.69249e-06 1.32385e-06 0.000310573
0.00117858 4.87274e-05 -7.10318e-06
4.87274e-05 0.000248727 1.90538e-06
-7.10318e-06 1.90538e-06 0.000228442
0.00136157 3.32259e-05 2.40474e-05
3.32259e-05 0.000343461 -1.39719e-06
2.40474e-05 -1.39719e-06 0.000319906
0.00112571 3.98905e-05 1.33711e-05
3.98905e-05 0.000202752 -2.25629e-06
1.33711e-05 -2.25629e-06 0.000188366
0.00123094 3.49184e-05 1.87569e-05
3.49184e-05 0.000280585 -1.80477e-06
1.87569e-05 -1.80477e-06 0.000259038
0.00118038 6.60683e-06 -6.11818e-06
6.60683e-06 0.000201739 4.2262e-07
-6.11818e-06 4.2262e-07 0.00016415
0.00432025 4.20766e-05 6.3307e-05
4.20766e-05 0.00183675 -5.73002e-07
6.3307e-05 -5.73002e-07 0.00182926
0.00145644 9.78259e-06 5.52673e-05
9.78259e-06 0.000378083 -3.65902e-06
5.52673e-05 -3.65902e-06 0.000357424
0.0012776 1.32459e-05 4.77698e-05
1.32459e-05 0.000300691 -5.41923e-06
4.77698e-05 -5.41923e-06 0.000279955
0.00133125 7.62273e-06 8.95066e-06
7.62273e-06 0.00024617 -3.0713e-06
8.95066e-06 -3.0713e-06 0.000203157
0.00118271 4.79442e-06 8.06088e-06
4.79442e-06 0.000198351 -2.94018e-06
8.06088e-06 -2.94018e-06 0.000158135
0.00114454 3.61475e-05 2.94388e-05
3.61475e-05 0.00019327 -6.42641e-06
2.94388e-05 -6.42641e-06 0.000184761
0.00105825 1.46629e-05 6.99114e-06
1.46629e-05 0.00014697 -2.6779e-06
6.99114e-06 -2.6779e-06 0.000112256
0.00143859 -4.57824e-05 2.62177e-06
-4.57824e-05 0.00026427 -1.06546e-06
2.62177e-06 -1.06546e-06 0.000202004
0.00288417 -6.64235e-05 -3.16163e-05
-6.64235e-05 0.00108758 -3.38667e-06
-3.16163e-05 -3.38667e-06 0.00108927
0.00226295 -5.92927e-05 -1.71767e-05
-5.92927e-05 0.000814635 -5.08272e-07
-1.71767e-05 -5.08272e-07 0.000798332
0.00205263 -5.70072e-05 -1.33065e-05
-5.70072e-05 0.00068239 -8.02522e-07
-1.33065e-05 -8.02522e-07 0.000673262
0.00275173 -6.06309e-05 3.89018e-07
-6.06309e-05 0.00101001 -9.14069e-08
3.89018e-07 -9.14069e-08 0.00101461
0.000721596 -1.51042e-05 1.75128e-08
-1.51042e-05 -3.20553e-05 -6.19536e-08
1.75128e-08 -6.19536e-08 -6.51012e-05
0.00152686 -1.17568e-05 4.65413e-05
-1.17568e-05 0.000431691 3.16113e-06
4.65413e-05 3.16113e-06 0.000409892
0.00135615 -2.61391e-05 3.84142e-05
-2.61391e-05 0.00033784 3.4164e-06
3.84142e-05 3.4164e-06 0.000320065
0.00190958 1.80912e-05 2.39808e-05
1.80912e-05 0.000564991 3.07223e-06
2.39808e-05 3.07223e-06 0.000528921
0.00262858 -6.17487e-05 1.10988e-05
-6.17487e-05 0.00093637 1.48322e-06
1.10988e-05 1.48322e-06 0.000943698
0.00171793 -8.9104e-06 1.82834e-05
-8.9104e-06 0.000476776 2.70278e-06
1.82834e-05 2.70278e-06 0.000446546
0.000752952 -2.69747e-05 6.59244e-06
-2.69747e-05 -2.17071e-05 5.28606e-06
6.59244e-06 5.28606e-06 -5.0651e-05
0.000903587 2.75045e-05 3.01299e-06
2.75045e-05 3.1554e-05 1.0704e-06
3.01299e-06 1.0704e-06 -3.08773e-05
0.00257378 -4.60248e-05 2.71074e-05
-4.60248e-05 0.000891581 3.86913e-06
2.71074e-05 3.86913e-06 0.000903614
0.00443318 -4.1404e-05 1.66342e-06
-4.1404e-05 0.00189153 -2.31693e-07
1.66342e-06 -2.31693e-07 0.00188386
0.00269781 -4.21128e-05 -2.39911e-05
-4.21128e-05 0.00102264 -1.89099e-07
-2.39911e-05 -1.89099e-07 0.00100672
0.00464531 -3.05551e-05 7.04089e-05
-3.05551e-05 0.00199113 1.35217e-07
7.04089e-05 1.35217e-07 0.0019836
0.00137272 -2.36102e-05 9.51428e-06
-2.36102e-05 0.000338834 9.39174e-07
9.51428e-06 9.39174e-07 0.000316143
0.00078301 -1.01245e-05 1.20476e-05
-1.01245e-05 -7.39178e-05 2.0727e-06
1.20476e-05 2.0727e-06 -0.000120478
0.00381051 -0.000107541 8.30602e-06
-0.000107541 0.00160859 1.0586e-06
8.30602e-06 1.0586e-06 0.00159412
0.00212889 -1.16675e-05 3.2094e-05
-1.16675e-05 0.00063915 2.84036e-06
3.2094e-05 2.84036e-06 0.000603619
0.00137617 4.54696e-05 -6.75081e-06
4.54696e-05 0.000355933 1.94082e-06
-6.75081e-06 1.94082e-06 0.000330805
0.00124932 5.15834e-05 -6.37855e-06
5.15834e-05 0.000295688 2.03592e-06
-6.37855e-06 2.03592e-06 0.000272002
0.00109723 4.61994e-05 -7.14797e-06
4.61994e-05 0.000190919 1.76589e-06
-7.14797e-06 1.76589e-06 0.00017597
0.00123937 3.72841e-06 -2.07488e-05
3.72841e-06 0.000229304 3.57806e-06
-2.07488e-05 3.57806e-06 0.00019248
0.00292057 3.66149e-05 -2.52679e-05
3.66149e-05 0.00112 -8.58368e-07
-2.52679e-05 -8.58368e-07 0.00110438
0.00141375 2.67354e-05 2.43283e-05
2.67354e-05 0.000361003 -1.11494e-06
2.43283e-05 -1.11494e-06 0.000338654
0.00109531 3.98664e-05 1.15902e-05
3.98664e-05 0.000169573 -2.30845e-06
1.15902e-05 -2.30845e-06 0.000161024
0.00129013 3.24193e-05 2.13607e-05
3.24193e-05 0.000312809 -1.60023e-06
2.13607e-05 -1.60023e-06 0.000289868
0.00139217 -3.05024e-06 -8.98744e-06
-3.05024e-06 0.000273596 9.95333e-08
-8.98744e-06 9.95333e-08 0.000232237
0.00111476 1.46123e-05 -4.97062e-06
1.46123e-05 0.000173925 4.66986e-07
-4.97062e-06 4.66986e-07 0.000139667
0.00124559 1.53473e-06 -7.52625e-06
1.53473e-06 0.000227054 3.56085e-07
-7.52625e-06 3.56085e-07 0.000187771
0.00151656 -4.90905e-05 -1.5038e-06
-4.90905e-05 0.000301194 5.65384e-07
-1.5038e-06 5.65384e-07 0.000238345
0.00447621 4.50194e-05 6.36334e-05
4.50194e-05 0.00191095 5.19105e-08
6.36334e-05 5.19105e-08 0.00190304
0.00149624 1.26804e-05 5.78324e-05
1.26804e-05 0.000394243 -2.70541e-06
5.78324e-05 -2.70541e-06 0.000373613
0.00210908 2.37469e-05 1.03771e-05
2.37469e-05 0.000611244 -1.1006e-06
1.03771e-05 -1.1006e-06 0.00057257
0.00139623 5.31386e-06 1.11005e-05
5.31386e-06 0.000264213 -2.36321e-06
1.11005e-05 -2.36321e-06 0.000222237
0.00124453 4.371e-06 8.38621e-06
4.371e-06 0.00021869 -3.2155e-06
8.38621e-06 -3.2155e-06 0.000176867
0.00176465 -4.75769e-05 3.92198e-06
-4.75769e-05 0.000339363 -1.70686e-06
3.92198e-06 -1.70686e-06 0.000271588
0.00120378 -4.33547e-05 3.5118e-06
-4.33547e-05 0.000117366 -1.68449e-06
3.5118e-06 -1.68449e-06 5.27728e-05
0.0012113 3.5709e-05 2.84769e-05
3.5709e-05 0.000209027 -6.29325e-06
2.84769e-05 -6.29325e-06 0.000206026
0.00103215 3.96216e-05 4.82125e-06
3.96216e-05 0.000135193 -2.76409e-06
4.82125e-06 -2.76409e-06 0.000104841
0.00131121 -3.48729e-05 2.21199e-06
-3.48729e-05 0.000228053 -9.87381e-07
2.21199e-06 -9.87381e-07 0.000167652
0.00112615 -6.06933e-05 2.06923e-06
-6.06933e-05 5.57708e-05 -8.73995e-07
2.06923e-06 -8.73995e-07 -2.15502e-05
0.00331362 -7.92308e-05 -3.81608e-05
-7.92308e-05 0.00135045 -2.67007e-06
-3.81608e-05 -2.67007e-06 0.00134135
0.00278447 -6.1424e-05 -2.99114e-05
-6.1424e-05 0.0010232 -3.47116e-06
-2.99114e-05 -3.47116e-06 0.0010286
0.00298144 -7.06909e-05 -3.36958e-05
-7.06909e-05 0.00115422 -3.17321e-06
-3.36958e-05 -3.17321e-06 0.00115194
0.00067748 -1.80171e-05 -4.71689e-06
-1.80171e-05 -5.1423e-05 -3.90417e-06
-4.71689e-06 -3.90417e-06 -8.45662e-05
0.00375873 -7.54708e-05 8.87191e-07
-7.54708e-05 0.0015781 -1.81025e-07
8.87191e-07 -1.81025e-07 0.00156709
0.00321123 -7.40069e-05 1.13627e-06
-7.40069e-05 0.0012915 -1.50702e-07
1.13627e-06 -1.50702e-07 0.00128449
0.00068432 2.71239e-05 -8.58655e-08
2.71239e-05 -5.68798e-05 -1.60499e-07
-8.58655e-08 -1.60499e-07 -9.99636e-05
0.00186731 -4.68718e-05 -1.11943e-05
-4.68718e-05 0.00054387 -9.84635e-07
-1.11943e-05 -9.84635e-07 0.000547484
0.000722308 1.30719e-06 -9.32812e-08
1.30719e-06 -2.97517e-05 -6.13574e-08
-9.32812e-08 -6.13574e-08 -6.60968e-05
0.00115299 -3.84132e-05 6.17751e-06
-3.84132e-05 0.000184822 5.11674e-07
6.17751e-06 5.11674e-07 0.000158614
0.000882242 2.39921e-05 1.14553e-07
2.39921e-05 2.09662e-05 -2.3748e-07
1.14553e-07 -2.3748e-07 -4.15288e-05
0.0026206 -5.0785e-05 2.83582e-05
-5.0785e-05 0.000923098 3.72389e-06
2.83582e-05 3.72389e-06 0.000933176
0.000792636 -3.27485e-05 3.81844e-06
-3.27485e-05 -2.90537e-05 3.87062e-06
3.81844e-06 3.87062e-06 -4.54594e-05
0.000779686 3.49021e-05 1.04956e-05
3.49021e-05 -2.57909e-05 4.86415e-06
1.04956e-05 4.86415e-06 -7.01547e-05
0.000768348 1.77766e-05 8.68913e-06
1.77766e-05 -1.0727e-05 4.99071e-06
8.68913e-06 4.99071e-06 -5.14284e-05
0.00101547 4.60994e-05 3.73774e-06
4.60994e-05 2.35097e-05 1.64491e-06
3.73774e-06 1.64491e-06 -4.3535e-05
0.00157219 -5.0635e-05 1.3225e-05
-5.0635e-05 0.000392172 3.43565e-06
1.3225e-05 3.43565e-06 0.000372401
0.000940481 3.8765e-05 2.9752e-06
3.8765e-05 3.7745e-05 1.19935e-06
2.9752e-06 1.19935e-06 -2.46837e-05
0.000900496 1.54482e-05 2.75421e-06
1.54482e-05 3.60178e-05 1.69356e-06
2.75421e-06 1.69356e-06 -2.54135e-05
0.000930015 5.47772e-05 1.59499e-06
5.47772e-05 1.6996e-05 -1.83475e-08
1.59499e-06 -1.83475e-08 -5.75661e-05
0.00249798 -4.12757e-05 2.5273e-05
-4.12757e-05 0.000845982 3.9765e-06
2.5273e-05 3.9765e-06 0.000859986
0.00257773 -4.61329e-05 3.94895e-07
-4.61329e-05 0.000892712 -8.82092e-08
3.94895e-07 -8.82092e-08 0.000904958
0.00396908 -5.11957e-05 -5.2636e-05
-5.11957e-05 0.00167427 -1.62323e-06
-5.2636e-05 -1.62323e-06 0.00166567
0.0043222 -3.98048e-05 -6.07737e-05
-3.98048e-05 0.00183879 -6.03611e-07
-6.07737e-05 -6.03611e-07 0.00183113
0.00459385 -2.03815e-05 2.97002e-06
-2.03815e-05 0.00196664 -3.14836e-07
2.97002e-06 -3.14836e-07 0.00195927
0.00280147 -3.5232e-05 -2.52241e-05
-3.5232e-05 0.00106711 -1.44262e-07
-2.52241e-05 -1.44262e-07 0.00105155
0.00148683 -1.08244e-06 1.41242e-05
-1.08244e-06 0.000288075 -1.47876e-08
1.41242e-05 -1.47876e-08 0.000246269
0.00253839 -5.27877e-05 -2.28269e-05
-5.27877e-05 0.000950995 -2.20162e-07
-2.28269e-05 -2.20162e-07 0.000933802
0.00136413 8.54068e-06 1.16962e-05
8.54068e-06 0.000251231 4.32919e-08
1.16962e-05 4.32919e-08 0.00021192
0.00465525 3.76977e-05 6.4949e-05
3.76977e-05 0.00199549 7.95131e-07
6.4949e-05 7.95131e-07 0.00198766
0.000768948 -1.32253e-06 1.02085e-05
-1.32253e-06 -9.34665e-05 6.03298e-07
1.02085e-05 6.03298e-07 -0.000141578
0.00216582 -2.97073e-05 3.43392e-05
-2.97073e-05 0.00064789 2.12901e-06
3.43392e-05 2.12901e-06 0.000611179
0.00121008 5.40048e-06 5.96242e-06
5.40048e-06 2.51798e-06 1.50441e-06
5.96242e-06 1.50441e-06 -7.19109e-05
0.00203036 2.14089e-05 2.8695e-05
2.14089e-05 0.000602716 2.76496e-06
2.8695e-05 2.76496e-06 0.00056653
0.00116173 2.87752e-05 5.46512e-06
2.87752e-05 1.55809e-05 1.59914e-06
5.46512e-06 1.59914e-06 -5.63715e-05
0.00159455 1.60986e-05 -6.16253e-05
1.60986e-05 0.000436982 5.79165e-07
-6.16253e-05 5.79165e-07 0.000415953
0.00137732 3.04474e-05 -9.22852e-06
3.04474e-05 0.000346102 1.49563e-06
-9.22852e-06 1.49563e-06 0.000322807
0.00102246 4.36502e-05 -6.89305e-06
4.36502e-05 0.000134009 1.64713e-06
-6.89305e-06 1.64713e-06 0.000125433
0.00132162 5.49238e-05 -5.34345e-06
5.49238e-05 0.000335553 2.12736e-06
-5.34345e-06 2.12736e-06 0.000309921
0.00143188 -7.60759e-06 -2.82457e-05
-7.60759e-06 0.00029076 3.28465e-06
-2.82457e-05 3.28465e-06 0.000250648
0.00129333 -3.51792e-06 -2.33567e-05
-3.51792e-06 0.000247738 3.55184e-06
-2.33567e-05 3.55184e-06 0.000209605
0.00118673 1.35813e-05 -1.77991e-05
1.35813e-05 0.000208592 3.58436e-06
-1.77991e-05 3.58436e-06 0.000174851
0.00159967 -5.2233e-05 -5.71902e-06
-5.2233e-05 0.000340611 2.24309e-06
-5.71902e-06 2.24309e-06 0.000277187
0.00455063 5.48821e-05 -2.8149e-06
5.48821e-05 0.00194695 -3.25055e-07
-2.8149e-06 -3.25055e-07 0.00193868
0.00143294 2.36867e-05 2.4835e-05
2.36867e-05 0.000365357 -7.65037e-07
2.4835e-05 -7.65037e-07 0.000343615
0.00112269 1.32545e-05 -1.53844e-05
1.32545e-05 0.000103609 2.21978e-07
-1.53844e-05 2.21978e-07 5.97971e-05
0.00144247 -1.87017e-06 -8.92152e-06
-1.87017e-06 0.000285063 7.18668e-08
-8.92152e-06 7.18668e-08 0.000244238
0.00195419 4.79777e-05 2.05184e-05
4.79777e-05 0.000593794 -1.87785e-06
2.05184e-05 -1.87785e-06 0.000595119
0.00130398 3.18594e-05 -4.06782e-06
3.18594e-05 0.000270406 4.42067e-07
-4.06782e-06 4.42067e-07 0.000242181
0.0013142 -1.18748e-06 -8.67393e-06
-1.18748e-06 0.000250638 2.13903e-07
-8.67393e-06 2.13903e-07 0.00020999
0.00160314 -4.41942e-05 -2.52678e-06
-4.41942e-05 0.000256324 5.28595e-07
-2.52678e-06 5.28595e-07 0.000187657
0.00143421 -4.04233e-05 -1.23011e-06
-4.04233e-05 0.000287158 6.42082e-07
-1.23011e-06 6.42082e-07 0.00022598
0.00139956 -4.79199e-05 -6.58206e-07
-4.79199e-05 0.000215768 1.37308e-07
-6.58206e-07 1.37308e-07 0.000151672
0.00112216 -6.02237e-05 -5.69538e-09
-6.02237e-05 5.40521e-05 -3.80454e-08
-5.69538e-09 -3.80454e-08 -2.31565e-05
0.000751288 3.91902e-06 1.00373e-05
3.91902e-06 -9.70017e-05 -1.5395e-06
1.00373e-05 -1.5395e-06 -0.000144822
0.00141834 1.01537e-05 1.18047e-05
1.01537e-05 0.000267977 -1.76745e-06
1.18047e-05 -1.76745e-06 0.000226732
0.00156124 8.34678e-06 5.37473e-06
8.34678e-06 0.00018551 -9.82452e-07
5.37473e-06 -9.82452e-07 0.000114512
0.00146301 -3.2094e-05 5.17024e-06
-3.2094e-05 0.00016349 -1.41466e-06
5.17024e-06 -1.41466e-06 9.42669e-05
0.00133787 -4.59776e-05 4.09082e-06
-4.59776e-05 0.00015363 -2.04913e-06
4.09082e-06 -2.04913e-06 8.65271e-05
0.00169214 -5.68054e-05 1.78903e-06
-5.68054e-05 0.000236811 -6.31716e-07
1.78903e-06 -6.31716e-07 0.00015506
0.00275841 5.634e-05 2.92366e-05
5.634e-05 0.00099645 -3.51281e-06
2.92366e-05 -3.51281e-06 0.00100492
0.00114015 -5.74432e-05 1.93629e-06
-5.74432e-05 3.47514e-05 -7.36587e-07
1.93629e-06 -7.36587e-07 -4.22092e-05
0.000720885 4.4015e-05 3.51002e-06
4.4015e-05 -3.8602e-05 -3.69461e-06
3.51002e-06 -3.69461e-06 -6.61366e-05
0.000765843 -2.05404e-05 2.29288e-06
-2.05404e-05 -3.14748e-05 -1.36948e-06
2.29288e-06 -1.36948e-06 -9.20472e-05
0.00118561 -6.48315e-05 2.01561e-06
-6.48315e-05 0.00011736 -1.29216e-06
2.01561e-06 -1.29216e-06 3.9124e-05
0.00122233 -6.88328e-05 1.34691e-06
-6.88328e-05 7.25558e-05 -3.70373e-07
1.34691e-06 -3.70373e-07 -1.01127e-05
0.000722545 3.44316e-05 4.16862e-06
3.44316e-05 -5.89558e-05 -3.90437e-06
4.16862e-06 -3.90437e-06 -7.82544e-05
0.000903954 6.01795e-06 2.11003e-06
6.01795e-06 1.69397e-05 -2.53173e-06
2.11003e-06 -2.53173e-06 -3.19018e-05
0.00356638 -7.89503e-05 -4.22092e-05
-7.89503e-05 0.00148168 -2.49844e-06
-4.22092e-05 -2.49844e-06 0.00147093
0.00309711 -7.57276e-05 -3.4788e-05
-7.57276e-05 0.00123002 -2.90015e-06
-3.4788e-05 -2.90015e-06 0.00122391
0.000654447 2.27215e-05 -6.6286e-06
2.27215e-05 -6.83233e-05 -3.95675e-06
-6.6286e-06 -3.95675e-06 -0.000111643
0.00271826 -5.61521e-05 -2.90941e-05
-5.61521e-05 0.000978963 -3.56352e-06
-2.90941e-05 -3.56352e-06 0.000987243
0.000653182 -4.23655e-05 -3.41858e-06
-4.23655e-05 -6.89842e-05 -4.07791e-06
-3.41858e-06 -4.07791e-06 -9.81102e-05
0.000655396 3.79028e-07 -6.06933e-06
3.79028e-07 -5.82921e-05 -3.52509e-06
-6.06933e-06 -3.52509e-06 -9.52999e-05
0.000854958 2.42953e-05 -2.75487e-06
2.42953e-05 6.74073e-06 -1.40137e-06
-2.75487e-06 -1.40137e-06 -5.54699e-05
0.00264176 -5.09448e-05 3.45685e-07
-5.09448e-05 0.000932754 -9.90485e-08
3.45685e-07 -9.90485e-08 0.000943016
0.000775521 -3.13711e-05 1.5438e-07
-3.13711e-05 -3.86858e-05 6.55924e-10
1.5438e-07 6.55924e-10 -5.47087e-05
0.00129108 2.83334e-05 9.98372e-06
2.83334e-05 0.000239085 1.21369e-08
9.98372e-06 1.21369e-08 0.000198756
0.00120292 7.77318e-06 7.56856e-06
7.77318e-06 0.000216416 2.81278e-07
7.56856e-06 2.81278e-07 0.000179297
0.000996404 4.61931e-05 1.8367e-07
4.61931e-05 1.40755e-05 -3.27731e-09
1.8367e-07 -3.27731e-09 -5.2826e-05
0.000760112 -4.10263e-05 -2.39914e-08
-4.10263e-05 -2.6362e-05 1.57584e-08
-2.39914e-08 1.57584e-08 -4.98986e-05
0.0009077 3.71894e-05 -5.49593e-08
3.71894e-05 2.12971e-05 1.06367e-07
-5.49593e-08 1.06367e-07 -4.09855e-05
0.000869817 1.30894e-05 2.58856e-08
1.30894e-05 2.1629e-05 -2.01816e-07
2.58856e-08 -2.01816e-07 -3.97626e-05
0.000894323 5.37763e-05 -5.27203e-08
5.37763e-05 -1.85084e-06 -1.48571e-07
-5.27203e-08 -1.48571e-07 -7.65561e-05
0.00077478 -3.73609e-05 3.84285e-06
-3.73609e-05 -2.85427e-05 3.81175e-06
3.84285e-06 3.81175e-06 -4.8448e-05
0.000813569 -2.81857e-05 3.59614e-06
-2.81857e-05 -2.6375e-05 3.84043e-06
3.59614e-06 3.84043e-06 -3.9255e-05
0.000875142 -1.28289e-07 2.78172e-06
-1.28289e-07 2.3579e-06 2.08546e-06
2.78172e-06 2.08546e-06 -4.62422e-05
0.00105888 4.24904e-05 4.26322e-06
4.24904e-05 1.25494e-05 1.71192e-06
4.26322e-06 1.71192e-06 -5.65499e-05
0.000980715 4.5206e-05 3.26044e-06
4.5206e-05 3.78938e-05 1.54543e-06
3.26044e-06 1.54543e-06 -2.65899e-05
0.00117854 6.20071e-05 2.10793e-06
6.20071e-05 5.70986e-05 1.02429e-06
2.10793e-06 1.02429e-06 -2.28016e-05
0.000900601 9.70492e-06 2.72314e-06
9.70492e-06 2.92421e-05 1.89996e-06
2.72314e-06 1.89996e-06 -2.79376e-05
0.000949154 5.76263e-05 1.27683e-06
5.76263e-05 6.59382e-06 3.18393e-07
1.27683e-06 3.18393e-07 -6.70675e-05
0.0010449 5.3506e-05 1.65851e-06
5.3506e-05 9.15623e-05 3.85984e-07
1.65851e-06 3.85984e-07 1.55248e-05
0.00107118 6.74948e-05 -7.5763e-08
6.74948e-05 8.12202e-05 -6.02076e-07
-7.5763e-08 -6.02076e-07 2.2381e-07
0.00241547 -3.67182e-05 2.30689e-05
-3.67182e-05 0.00079717 4.01165e-06
2.30689e-05 4.01165e-06 0.000813138
0.0024947 -4.14279e-05 4.48152e-07
-4.14279e-05 0.000843453 -7.52763e-08
4.48152e-07 -7.52763e-08 0.000857697
0.0025807 -4.62907e-05 -2.59863e-05
-4.62907e-05 0.000893312 -3.81132e-06
-2.59863e-05 -3.81132e-06 0.000905775
0.000757415 2.9848e-05 3.7014e-06
2.9848e-05 -4.89528e-05 -3.85444e-06
3.7014e-06 -3.85444e-06 -6.44412e-05
0.00269396 5.13274e-05 2.78058e-05
5.13274e-05 0.000956441 -3.65513e-06
2.78058e-05 -3.65513e-06 0.000966969
0.00378749 -6.40975e-05 -4.76145e-05
-6.40975e-05 0.00158923 -2.10885e-06
-4.76145e-05 -2.10885e-06 0.00157943
0.00413492 -4.4376e-05 -5.67647e-05
-4.4376e-05 0.00175123 -1.11261e-06
-5.67647e-05 -1.11261e-06 0.00174332
0.000687287 1.9758e-05 -8.68205e-06
1.9758e-05 -9.49739e-05 -2.96926e-06
-8.68205e-06 -2.96926e-06 -0.000137745
0.000728325 1.27504e-05 -9.61994e-06
1.27504e-05 -9.84608e-05 -1.78707e-06
-9.61994e-06 -1.78707e-06 -0.000144146
0.00453372 -2.26092e-05 -6.38403e-05
-2.26092e-05 0.00193792 -1.06148e-07
-6.38403e-05 -1.06148e-07 0.00193059
0.00466619 1.7904e-05 -1.02238e-06
1.7904e-05 0.00200078 3.2873e-07
-1.02238e-06 3.2873e-07 0.00199325
0.000758414 3.00977e-07 7.2843e-08
3.00977e-07 -9.8025e-05 -2.20008e-07
7.2843e-08 -2.20008e-07 -0.00014606
0.00142806 -4.57524e-06 1.28988e-05
-4.57524e-06 0.000272509 7.58561e-08
1.28988e-05 7.58561e-08 0.000232584
0.00121013 8.6578e-06 1.0452e-07
8.6578e-06 2.8798e-06 1.95102e-08
1.0452e-07 1.95102e-08 -7.15575e-05
0.000671706 2.63873e-05 -6.59792e-08
2.63873e-05 -8.97542e-05 -8.11524e-08
-6.59792e-08 -8.11524e-08 -0.00013303
0.00116426 2.97293e-05 9.88437e-08
2.97293e-05 1.76473e-05 -1.42351e-07
9.88437e-08 -1.42351e-07 -5.43948e-05
0.000748882 -2.32998e-06 1.03383e-05
-2.32998e-06 -0.000107433 -6.56913e-07
1.03383e-05 -6.56913e-07 -0.000156548
0.00124916 1.77785e-06 6.16536e-06
1.77785e-06 2.49681e-06 8.56959e-07
6.16536e-06 8.56959e-07 -7.46827e-05
0.0011888 1.72745e-05 5.75455e-06
1.72745e-05 1.07471e-05 1.48847e-06
5.75455e-06 1.48847e-06 -6.18651e-05
0.00142461 6.1471e-06 2.88743e-06
6.1471e-06 4.43056e-05 1.0876e-06
2.88743e-06 1.0876e-06 -4.17818e-05
0.0011139 3.63168e-05 4.86364e-06
3.63168e-05 1.32708e-05 1.80053e-06
4.86364e-06 1.80053e-06 -5.75521e-05
0.00135919 3.3015e-05 2.52498e-06
3.3015e-05 5.22236e-05 5.664e-07
2.52498e-06 5.664e-07 -3.04547e-05
0.00461155 4.79299e-05 -7.15246e-05
4.79299e-05 0.0019754 -5.24316e-07
-7.15246e-05 -5.24316e-07 0.00196752
0.00135436 2.38388e-05 -9.83955e-06
2.38388e-05 0.000327987 1.02552e-06
-9.83955e-06 1.02552e-06 0.000305674
0.000121898 3.07317e-06 -1.13232e-05
3.07317e-06 -0.000410165 2.2872e-06
-1.13232e-05 2.2872e-06 -0.000460137
0.00148472 -2.82061e-06 -3.00977e-05
-2.82061e-06 0.000304421 2.57418e-06
-3.00977e-05 2.57418e-06 0.000264344
0.00267489 6.67263e-05 -1.13759e-05
6.67263e-05 0.000968321 1.39653e-06
-1.13759e-05 1.39653e-06 0.000973118
0.00159444 3.57141e-05 -1.57567e-05
3.57141e-05 0.000415872 3.58991e-06
-1.57567e-05 3.58991e-06 0.000389325
0.00135801 -8.03256e-06 -2.57788e-05
-8.03256e-06 0.000268835 3.54775e-06
-2.57788e-05 3.54775e-06 0.000229667
0.00144797 -4.13921e-05 -8.56018e-06
-4.13921e-05 0.000176576 2.71219e-06
-8.56018e-06 2.71219e-06 0.000106983
0.00161078 -5.24677e-05 -5.19006e-06
-5.24677e-05 0.000322009 1.93465e-06
-5.19006e-06 1.93465e-06 0.000258383
0.00155194 -4.55859e-05 -5.17346e-06
-4.55859e-05 0.0003437 2.34583e-06
-5.17346e-06 2.34583e-06 0.000281736
0.00111938 -5.98378e-05 -1.75222e-06
-5.98378e-05 5.292e-05 7.06619e-07
-1.75222e-06 7.06619e-07 -2.41806e-05
0.000764903 5.10659e-06 -1.74824e-07
5.10659e-06 -9.11117e-05 -2.05213e-07
-1.74824e-07 -2.05213e-07 -0.000139006
0.00146132 6.70425e-06 -9.35696e-06
6.70425e-06 0.000287543 5.52772e-08
-9.35696e-06 5.52772e-08 0.000247159
0.00123372 6.69678e-06 -1.61995e-06
6.69678e-06 1.88666e-05 8.99235e-08
-1.61995e-06 8.99235e-08 -5.40236e-05
0.00164741 -3.37181e-05 -1.42293e-06
-3.37181e-05 0.000256964 1.21673e-07
-1.42293e-06 1.21673e-07 0.000188325
0.00271699 5.59756e-05 -3.08762e-07
5.59756e-05 0.000977074 -1.01939e-07
-3.08762e-07 -1.01939e-07 0.000985291
0.00115428 4.77525e-05 1.19112e-06
4.77525e-05 0.000183646 8.39212e-08
1.19112e-06 8.39212e-08 0.00015824
0.00111281 -2.07524e-05 1.20132e-07
-2.07524e-05 0.000142295 -4.24781e-08
1.20132e-07 -4.24781e-08 8.25104e-05
0.00133883 -4.56807e-05 -1.05129e-06
-4.56807e-05 0.000154631 1.1697e-07
-1.05129e-06 1.1697e-07 8.76566e-05
0.00141917 -5.24348e-05 -1.06306e-06
-5.24348e-05 9.77788e-05 4.47205e-07
-1.06306e-06 4.47205e-07 1.50429e-05
0.0010171 -5.98769e-05 -2.24472e-07
-5.98769e-05 3.4879e-05 -1.42731e-07
-2.24472e-07 -1.42731e-07 -4.34571e-05
0.00132874 -6.05747e-05 8.46562e-08
-6.05747e-05 0.000128156 1.08027e-07
8.46562e-08 1.08027e-07 5.1655e-05
0.00121189 -6.83249e-05 1.20283e-07
-6.83249e-05 6.78373e-05 1.93996e-08
1.20283e-07 1.93996e-08 -1.46717e-05
0.000744162 3.62597e-05 -1.34929e-07
3.62597e-05 -4.6298e-05 -1.23539e-08
-1.34929e-07 -1.23539e-08 -6.60877e-05
0.000886447 4.39764e-06 -3.10129e-07
4.39764e-06 7.72806e-06 -9.46162e-09
-3.10129e-07 -9.46162e-09 -4.10661e-05
0.00123733 3.67151e-06 5.91525e-06
3.67151e-06 1.63356e-07 -1.06306e-06
5.91525e-06 -1.06306e-06 -7.59506e-05
0.00149653 -7.29548e-06 5.27008e-06
-7.29548e-06 0.000167365 -1.10506e-06
5.27008e-06 -1.10506e-06 9.84975e-05
0.00177171 3.60758e-06 2.24557e-06
3.60758e-06 0.000225092 -2.56851e-07
2.24557e-06 -2.56851e-07 0.000142298
0.00119075 -3.5568e-05 3.50419e-06
-3.5568e-05 -4.59256e-05 -8.06744e-07
3.50419e-06 -8.06744e-07 -0.000129661
0.00133073 -5.82866e-05 1.67336e-06
-5.82866e-05 9.95089e-05 -9.644e-07
1.67336e-06 -9.644e-07 2.11421e-05
0.00165783 -5.66554e-05 7.49728e-07
-5.66554e-05 0.000180358 -2.63482e-07
7.49728e-07 -2.63482e-07 9.56266e-05
0.000677647 3.93772e-05 3.90257e-06
3.93772e-05 -7.10242e-05 -3.81501e-06
3.90257e-06 -3.81501e-06 -9.43202e-05
0.00126859 -6.47779e-05 9.10223e-07
-6.47779e-05 6.18774e-05 -4.11425e-07
9.10223e-07 -4.11425e-07 -1.91385e-05
0.000814807 -6.56287e-06 2.32789e-06
-6.56287e-06 -6.6424e-06 -1.30896e-06
2.32789e-06 -1.30896e-06 -6.58137e-05
0.000740599 -4.96285e-05 1.7055e-06
-4.96285e-05 -7.45749e-05 -1.47298e-06
1.7055e-06 -1.47298e-06 -0.00015041
0.00156498 -8.35766e-05 9.27819e-07
-8.35766e-05 0.000282921 -7.21496e-07
9.27819e-07 -7.21496e-07 0.00019712
0.00139549 -7.53757e-05 4.90739e-07
-7.53757e-05 0.000136947 5.9985e-07
4.90739e-07 5.9985e-07 5.44061e-05
0.000903353 -4.66014e-06 2.91148e-06
-4.66014e-06 2.23573e-05 -2.12781e-06
2.91148e-06 -2.12781e-06 -3.16331e-05
0.000893452 1.48368e-05 1.40166e-06
1.48368e-05 8.21406e-06 -2.35189e-06
1.40166e-06 -2.35189e-06 -3.44226e-05
0.000967572 -2.70378e-05 1.18966e-06
-2.70378e-05 4.61427e-05 -1.04139e-06
1.18966e-06 -1.04139e-06 -2.37342e-05
0.000663767 3.05694e-05 -7.53955e-06
3.05694e-05 -7.83984e-05 -3.87985e-06
-7.53955e-06 -3.87985e-06 -0.000122487
0.00265927 -5.11372e-05 -2.78584e-05
-5.11372e-05 0.000940571 -3.70382e-06
-2.78584e-05 -3.70382e-06 0.000951021
0.000761683 -3.00861e-05 -3.97536e-06
-3.00861e-05 -4.66367e-05 -3.85812e-06
-3.97536e-06 -3.85812e-06 -6.22964e-05
0.000641739 1.06397e-05 -6.06651e-06
1.06397e-05 -6.51972e-05 -3.66728e-06
-6.06651e-06 -3.66728e-06 -0.000105791
0.000982499 4.64835e-05 -3.59858e-06
4.64835e-05 7.29214e-06 -1.79841e-06
-3.59858e-06 -1.79841e-06 -5.949e-05
0.000674656 -3.88954e-05 -4.0357e-06
-3.88954e-05 -6.98623e-05 -3.92313e-06
-4.0357e-06 -3.92313e-06 -9.32242e-05
0.000830282 7.22716e-06 -2.30841e-06
7.22716e-06 3.23557e-06 -1.92261e-06
-2.30841e-06 -1.92261e-06 -5.83979e-05
0.000880103 3.5283e-05 -2.83877e-06
3.5283e-05 7.42334e-06 -9.21949e-07
-2.83877e-06 -9.21949e-07 -5.47126e-05
0.000856986 5.27419e-05 -1.82872e-06
5.27419e-05 -2.15587e-05 -2.85823e-07
-1.82872e-06 -2.85823e-07 -9.64011e-05
0.000750819 -3.6122e-05 1.04545e-07
-3.6122e-05 -4.18731e-05 -8.88493e-09
1.04545e-07 -8.88493e-09 -6.14008e-05
0.000796233 -2.72146e-05 1.29035e-07
-2.72146e-05 -3.55403e-05 3.35399e-08
1.29035e-07 3.35399e-08 -4.8139e-05
0.000883582 -4.57409e-06 1.23507e-07
-4.57409e-06 6.72861e-06 5.62593e-09
1.23507e-07 5.62593e-09 -4.17074e-05
0.00106148 4.3208e-05 2.3288e-07
4.3208e-05 1.41907e-05 -1.00549e-08
2.3288e-07 -1.00549e-08 -5.48646e-05
0.000942423 4.39099e-05 9.05798e-08
4.39099e-05 1.89259e-05 9.70536e-08
9.05798e-08 9.70536e-08 -4.53289e-05
0.00117021 6.21927e-05 1.39282e-07
6.21927e-05 5.34167e-05 4.75781e-08
1.39282e-07 4.75781e-08 -2.65353e-05
0.000880933 7.58054e-06 -2.36148e-07
7.58054e-06 2.17005e-05 1.6542e-08
-2.36148e-07 1.6542e-08 -3.57345e-05
0.00103807 6.04233e-05 -5.01044e-08
6.04233e-05 5.19754e-05 -7.42138e-08
-5.01044e-08 -7.42138e-08 -2.14198e-05
0.00102039 5.29199e-05 1.41179e-07
5.29199e-05 7.94536e-05 -2.17115e-07
1.41179e-07 -2.17115e-07 3.40284e-06
0.000979687 6.51131e-05 -5.60956e-07
6.51131e-05 3.49613e-05 2.34862e-07
-5.60956e-07 2.34862e-07 -4.64209e-05
0.000829487 -2.44745e-05 3.20458e-06
-2.44745e-05 -2.47874e-05 3.70072e-06
3.20458e-06 3.70072e-06 -3.43961e-05
0.000883324 4.68271e-06 2.92517e-06
4.68271e-06 1.09115e-05 1.76937e-06
2.92517e-06 1.76937e-06 -4.17485e-05
0.000873295 -8.20094e-06 2.15737e-06
-8.20094e-06 -1.67899e-06 2.33575e-06
2.15737e-06 2.33575e-06 -4.51861e-05
0.000994047 1.908e-05 1.37899e-06
1.908e-05 5.92171e-05 6.91995e-07
1.37899e-06 6.91995e-07 -8.56942e-06
0.00123903 5.37823e-05 2.64866e-06
5.37823e-05 4.87574e-05 9.17227e-07
2.64866e-06 9.17227e-07 -3.26079e-05
0.00112418 6.42283e-05 1.68111e-06
6.42283e-05 6.97824e-05 1.10006e-06
1.68111e-06 1.10006e-06 -6.72068e-06
0.00125511 6.82989e-05 1.06908e-06
6.82989e-05 6.61258e-05 1.02827e-06
1.06908e-06 1.02827e-06 -1.98711e-05
0.00105517 4.00706e-05 1.52857e-06
4.00706e-05 9.80458e-05 8.22309e-07
1.52857e-06 8.22309e-07 2.49412e-05
0.00113292 6.93088e-05 2.78529e-07
6.93088e-05 8.42168e-05 1.56027e-07
2.78529e-07 1.56027e-07 5.2898e-06
0.00105363 6.65033e-05 8.47395e-07
6.65033e-05 9.68324e-05 -4.63834e-07
8.47395e-07 -4.63834e-07 1.02551e-05
0.000884283 6.38746e-05 3.82038e-07
6.38746e-05 -2.47879e-05 -4.65262e-07
3.82038e-07 -4.65262e-07 -0.000109479
0.000904843 -7.87309e-06 9.0274e-07
-7.87309e-06 2.13555e-06 1.87598e-06
9.0274e-07 1.87598e-06 -2.73892e-05
0.000837342 -1.85568e-05 2.27896e-06
-1.85568e-05 -3.09111e-05 3.46223e-06
2.27896e-06 3.46223e-06 -3.55744e-05
0.0023465 -3.23978e-05 2.06888e-05
-3.23978e-05 0.000755602 4.01847e-06
2.06888e-05 4.01847e-06 0.000773364
0.00241438 -3.69215e-05 5.54507e-07
-3.69215e-05 0.0007958 -6.61069e-08
5.54507e-07 -6.61069e-08 0.000811981
0.00249336 -4.1581e-05 -2.38694e-05
-4.1581e-05 0.000841912 -3.86591e-06
-2.38694e-05 -3.86591e-06 0.000856391
0.000780646 2.67222e-05 3.18401e-06
2.67222e-05 -4.32536e-05 -3.60788e-06
3.18401e-06 -3.60788e-06 -5.49653e-05
0.00258092 4.65537e-05 2.53227e-05
4.65537e-05 0.00089297 -3.70683e-06
2.53227e-05 -3.70683e-06 0.000905548
0.000772152 3.13818e-05 -2.56002e-07
3.13818e-05 -4.03445e-05 4.67514e-09
-2.56002e-07 4.67514e-09 -5.6274e-05
0.00267731 5.10729e-05 -3.30917e-07
5.10729e-05 0.000948885 -9.48329e-08
-3.30917e-07 -9.48329e-08 0.000959227
0.000664339 2.92621e-05 -8.18904e-06
2.92621e-05 -9.30731e-05 -3.51381e-06
-8.18904e-06 -3.51381e-06 -0.000136461
0.000714869 1.94488e-05 -9.15666e-06
1.94488e-05 -9.26835e-05 -2.36218e-06
-9.15666e-06 -2.36218e-06 -0.000136346
0.00115241 2.93286e-05 -5.3587e-06
2.93286e-05 1.26349e-05 -1.82142e-06
-5.3587e-06 -1.82142e-06 -5.94757e-05
0.00120917 9.96152e-06 -5.79522e-06
9.96152e-06 2.7903e-06 -1.39191e-06
-5.79522e-06 -1.39191e-06 -7.16547e-05
0.000742069 4.33121e-06 -1.0192e-05
4.33121e-06 -0.000105282 -1.08627e-06
-1.0192e-05 -1.08627e-06 -0.000153326
0.00467881 2.21631e-05 -6.80042e-05
2.21631e-05 0.00200834 4.69913e-07
-6.80042e-05 4.69913e-07 0.00199991
0.00076357 2.22108e-08 2.7249e-08
2.22108e-08 -0.000100296 -3.57252e-07
2.7249e-08 -3.57252e-07 -0.000149451
0.0012498 5.23299e-06 2.17101e-08
5.23299e-06 2.81701e-06 -2.31257e-07
2.17101e-08 -2.31257e-07 -7.42892e-05
0.00118166 1.66839e-05 4.09466e-09
1.66839e-05 7.93804e-06 -3.3926e-08
4.09466e-09 -3.3926e-08 -6.47563e-05
0.00144928 5.40841e-06 8.45973e-08
5.40841e-06 5.65007e-05 5.51642e-08
8.45973e-08 5.51642e-08 -2.95849e-05
0.00111917 3.74916e-05 2.07329e-07
3.74916e-05 1.6783e-05 -3.38133e-08
2.07329e-07 -3.38133e-08 -5.4105e-05
0.00137149 3.51257e-05 3.35858e-08
3.51257e-05 5.82379e-05 -5.48855e-08
3.35858e-08 -5.48855e-08 -2.452e-05
0.00125969 8.89513e-07 6.16149e-06
8.89513e-07 1.18333e-06 -5.48372e-07
6.16149e-06 -5.48372e-07 -7.65976e-05
0.00147434 7.17406e-06 3.07382e-06
7.17406e-06 4.84471e-05 9.15019e-07
3.07382e-06 9.15019e-07 -4.10925e-05
0.00140513 1.98166e-05 2.78057e-06
1.98166e-05 5.33679e-05 7.7196e-07
2.78057e-06 7.7196e-07 -3.02919e-05
0.00154958 6.6407e-07 1.3097e-06
6.6407e-07 7.57968e-05 7.84439e-07
1.3097e-06 7.84439e-07 -1.1918e-05
0.00130276 4.52508e-05 2.26285e-06
4.52508e-05 5.01917e-05 5.5326e-07
2.26285e-06 5.5326e-07 -3.19573e-05
0.00145719 3.68442e-05 9.24065e-07
3.68442e-05 6.40698e-05 2.72209e-07
9.24065e-07 2.72209e-07 -2.05394e-05
0.000778164 9.07998e-06 -1.00484e-05
9.07998e-06 -8.51348e-05 1.085e-06
-1.00484e-05 1.085e-06 -0.000133291
0.0015199 9.45842e-06 -3.14152e-05
9.45842e-06 0.000315591 1.78158e-06
-3.14152e-05 1.78158e-06 0.000275712
0.000889494 6.34363e-06 -6.49914e-06
6.34363e-06 -0.000156285 1.21778e-06
-6.49914e-06 1.21778e-06 -0.000231099
0.00183271 -3.47616e-05 -8.40183e-06
-3.47616e-05 0.000350869 1.9317e-06
-8.40183e-06 1.9317e-06 0.000282852
0.00267799 5.55985e-05 -2.90548e-05
5.55985e-05 0.00095885 3.54874e-06
-2.90548e-05 3.54874e-06 0.00096682
0.00159516 3.99626e-05 -1.46122e-05
3.99626e-05 0.00040858 2.9587e-06
-1.46122e-05 2.9587e-06 0.00038608
0.00144638 -2.71221e-05 -3.70567e-06
-2.71221e-05 0.000308782 1.66495e-06
-3.70567e-06 1.66495e-06 0.000250135
0.00135527 -4.57825e-05 -6.0933e-06
-4.57825e-05 0.000163626 2.2795e-06
-6.0933e-06 2.2795e-06 9.67151e-05
0.00114732 -4.80656e-05 -3.61714e-06
-4.80656e-05 -4.06621e-05 1.40555e-06
-3.61714e-06 1.40555e-06 -0.000124388
0.00151172 -6.36921e-05 -2.13939e-06
-6.36921e-05 0.000218749 9.29137e-07
-2.13939e-06 9.29137e-07 0.000142713
0.000834912 -5.44385e-05 -1.74449e-06
-5.44385e-05 -5.42741e-05 1.00901e-06
-1.74449e-06 1.00901e-06 -0.000132692
0.00119921 -6.77463e-05 -8.32853e-07
-6.77463e-05 6.2013e-05 3.45961e-07
-8.32853e-07 3.45961e-07 -2.03328e-05
0.000767911 3.76723e-05 -3.60037e-06
3.76723e-05 -3.26903e-05 3.79669e-06
-3.60037e-06 3.79669e-06 -5.29253e-05
0.000869884 3.05068e-06 -2.65931e-06
3.05068e-06 -9.89266e-07 2.11705e-06
-2.65931e-06 2.11705e-06 -4.97439e-05
0.0010887 7.24184e-06 -1.86134e-07
7.24184e-06 -7.46637e-05 -6.38119e-10
-1.86134e-07 -6.38119e-10 -0.00015159
0.00152226 -1.02346e-05 -1.52509e-06
-1.02346e-05 0.000180129 1.8866e-07
-1.52509e-06 1.8866e-07 0.000111177
0.00166671 5.74535e-06 -1.18771e-06
5.74535e-06 0.000170819 2.43277e-07
-1.18771e-06 2.43277e-07 8.75111e-05
0.00145976 -3.84589e-05 5.60372e-07
-3.84589e-05 9.16009e-05 -3.67376e-07
5.60372e-07 -3.67376e-07 8.98935e-06
0.000722775 4.07004e-05 -2.23847e-08
4.07004e-05 -4.72653e-05 9.37888e-09
-2.23847e-08 9.37888e-09 -7.09059e-05
0.000865673 -1.21623e-05 1.37532e-07
-1.21623e-05 1.70684e-05 -8.3553e-08
1.37532e-07 -8.3553e-08 -4.18454e-05
0.000836443 -5.24203e-05 5.45148e-07
-5.24203e-05 -2.53077e-05 -3.58897e-07
5.45148e-07 -3.58897e-07 -0.00010044
0.00146979 -6.03576e-05 -5.25778e-07
-6.03576e-05 0.000167613 1.05074e-07
-5.25778e-07 1.05074e-07 8.91807e-05
0.00148594 -5.28413e-05 -3.28408e-07
-5.28413e-05 9.28896e-05 5.06204e-07
-3.28408e-07 5.06204e-07 8.2731e-06
0.00130651 -7.61278e-05 -6.89391e-07
-7.61278e-05 0.000154463 1.81437e-07
-6.89391e-07 1.81437e-07 6.78812e-05
0.00127384 -6.46437e-05 8.17619e-08
-6.46437e-05 6.41988e-05 2.00969e-07
8.17619e-08 2.00969e-07 -1.67509e-05
0.00126667 -7.18712e-05 3.76797e-07
-7.18712e-05 7.31997e-05 4.10413e-07
3.76797e-07 4.10413e-07 -9.31251e-06
0.000891037 -4.86726e-06 -3.59144e-08
-4.86726e-06 1.46643e-05 -7.22215e-08
-3.59144e-08 -7.22215e-08 -3.89991e-05
0.000941531 -2.44622e-05 -1.58967e-07
-2.44622e-05 3.1616e-05 -2.13671e-07
-1.58967e-07 -2.13671e-07 -3.79894e-05
0.000881136 1.33821e-05 -1.50439e-07
1.33821e-05 2.11369e-06 1.19535e-07
-1.50439e-07 1.19535e-07 -4.0605e-05
0.00178303 1.24549e-05 2.33973e-06
1.24549e-05 0.000213503 -3.88583e-07
2.33973e-06 -3.88583e-07 0.000127512
0.00156513 -1.35161e-05 3.04635e-06
-1.35161e-05 0.000130509 -2.91625e-07
3.04635e-06 -2.91625e-07 4.85742e-05
0.00171067 8.28031e-06 1.76566e-06
8.28031e-06 0.000159002 1.32015e-07
1.76566e-06 1.32015e-07 7.05221e-05
0.00149663 -3.27987e-05 1.59453e-06
-3.27987e-05 6.8537e-05 -6.87967e-07
1.59453e-06 -6.87967e-07 -1.69368e-05
0.00114303 -5.86891e-05 1.03966e-06
-5.86891e-05 -3.25932e-05 -1.01653e-06
1.03966e-06 -1.01653e-06 -0.000114452
0.00161627 -5.20725e-05 -4.96168e-07
-5.20725e-05 0.00013403 2.39931e-07
-4.96168e-07 2.39931e-07 5.35509e-05
0.000864336 -6.36587e-06 2.81327e-06
-6.36587e-06 1.17337e-05 -1.61678e-06
2.81327e-06 -1.61678e-06 -4.54214e-05
0.00129007 -6.73218e-05 -2.56311e-08
-6.73218e-05 5.11845e-05 -2.34716e-07
-2.56311e-08 -2.34716e-07 -2.84422e-05
0.000973515 -5.156e-05 1.15015e-06
-5.156e-05 5.22093e-05 -2.36326e-07
1.15015e-06 -2.36326e-07 -1.94566e-05
0.000822504 -6.26925e-05 1.41826e-06
-6.26925e-05 -4.48402e-05 -1.92938e-06
1.41826e-06 -1.92938e-06 -0.000130593
0.00141559 -8.31064e-05 1.68626e-06
-8.31064e-05 0.000189287 -3.92806e-08
1.68626e-06 -3.92806e-08 9.77849e-05
0.00165935 -8.30502e-05 -6.01647e-07
-8.30502e-05 0.000255986 1.58988e-06
-6.01647e-07 1.58988e-06 0.000177125
0.000892879 1.88629e-05 1.11624e-06
1.88629e-05 4.11894e-06 -2.03708e-06
1.11624e-06 -2.03708e-06 -3.29412e-05
0.000983676 -3.82812e-05 1.57401e-06
-3.82812e-05 5.30842e-05 -3.58501e-07
1.57401e-06 -3.58501e-07 -1.67412e-05
0.000830157 -1.51997e-05 1.34759e-06
-1.51997e-05 -2.4314e-05 -1.9029e-06
1.34759e-06 -1.9029e-06 -9.19391e-05
0.00112546 -6.45651e-05 3.31945e-07
-6.45651e-05 0.000131212 4.68052e-07
3.31945e-07 4.68052e-07 5.20457e-05
0.00106453 4.41142e-05 -4.41887e-06
4.41142e-05 1.62145e-05 -1.90784e-06
-4.41887e-06 -1.90784e-06 -5.28299e-05
0.000779239 -2.63754e-05 -3.4969e-06
-2.63754e-05 -4.45257e-05 -3.75972e-06
-3.4969e-06 -3.75972e-06 -5.68509e-05
0.000728556 -3.45708e-05 -4.27491e-06
-3.45708e-05 -5.44977e-05 -3.88016e-06
-4.27491e-06 -3.88016e-06 -7.3609e-05
0.000892644 -1.08033e-05 -2.16148e-06
-1.08033e-05 1.15245e-05 -2.36377e-06
-2.16148e-06 -2.36377e-06 -3.68188e-05
0.000908745 4.27508e-05 -2.82241e-06
4.27508e-05 2.26342e-06 -1.37629e-06
-2.82241e-06 -1.37629e-06 -6.1773e-05
0.00115262 6.2094e-05 -2.0697e-06
6.2094e-05 4.52157e-05 -1.00422e-06
-2.0697e-06 -1.00422e-06 -3.47812e-05
0.000864482 4.97045e-06 -2.75113e-06
4.97045e-06 1.58236e-05 -1.84307e-06
-2.75113e-06 -1.84307e-06 -4.18829e-05
0.000999965 5.2312e-05 -1.58395e-06
5.2312e-05 6.94538e-05 -9.10751e-07
-1.58395e-06 -9.10751e-07 -6.62661e-06
0.00113427 6.34145e-05 -1.36723e-06
6.34145e-05 0.000100836 -4.07455e-07
-1.36723e-06 -4.07455e-07 2.77146e-05
0.00088618 6.26656e-05 -1.72313e-06
6.26656e-05 -1.22484e-05 3.19843e-07
-1.72313e-06 3.19843e-07 -9.402e-05
0.000811068 -2.39053e-05 1.32364e-07
-2.39053e-05 -3.41306e-05 3.77041e-08
1.32364e-07 3.77041e-08 -4.35594e-05
0.000889862 3.51122e-06 -7.3861e-09
3.51122e-06 1.5743e-05 -3.81163e-08
-7.3861e-09 -3.81163e-08 -3.72418e-05
0.000881073 -1.23086e-05 4.36111e-08
-1.23086e-05 1.98169e-06 8.06352e-08
4.36111e-08 8.06352e-08 -4.13809e-05
0.000982926 1.81888e-05 1.75844e-07
1.81888e-05 5.40536e-05 -1.89601e-07
1.75844e-07 -1.89601e-07 -1.38563e-05
0.00124383 5.43225e-05 5.01427e-07
5.43225e-05 5.12805e-05 2.7286e-07
5.01427e-07 2.7286e-07 -3.02137e-05
0.00109492 6.38261e-05 5.82058e-08
6.38261e-05 5.62593e-05 2.87955e-08
5.82058e-08 2.87955e-08 -2.02144e-05
0.00124959 6.82234e-05 1.27948e-08
6.82234e-05 6.35272e-05 2.30735e-07
1.27948e-08 2.30735e-07 -2.24448e-05
0.00101429 4.17254e-05 9.92839e-09
4.17254e-05 7.85935e-05 1.04569e-07
9.92839e-09 1.04569e-07 5.63168e-06
0.00125109 7.26997e-05 -3.43154e-07
7.26997e-05 0.000144196 -5.22444e-07
-3.43154e-07 -5.22444e-07 6.55382e-05
0.00106998 6.73573e-05 2.03697e-07
6.73573e-05 0.000104529 -4.47862e-07
2.03697e-07 -4.47862e-07 1.76412e-05
0.000950935 6.57787e-05 -1.34335e-06
6.57787e-05 1.14853e-05 5.0185e-08
-1.34335e-06 5.0185e-08 -7.19223e-05
0.000841329 -2.14471e-05 2.72714e-06
-2.14471e-05 -2.42184e-05 3.56987e-06
2.72714e-06 3.56987e-06 -3.10553e-05
0.000877922 -1.33249e-05 1.61492e-06
-1.33249e-05 -2.77894e-06 2.30534e-06
1.61492e-06 2.30534e-06 -4.1483e-05
0.00103115 2.8023e-05 1.52322e-06
2.8023e-05 7.88386e-05 4.92853e-07
1.52322e-06 4.92853e-07 9.22462e-06
0.000974884 1.01109e-05 1.00236e-06
1.01109e-05 4.84913e-05 1.20973e-06
1.00236e-06 1.20973e-06 -1.56545e-05
0.000991467 4.92233e-05 9.61871e-07
4.92233e-05 6.30019e-05 -1.27851e-07
9.61871e-07 -1.27851e-07 -1.58329e-05
0.00131518 5.63626e-05 1.56289e-06
5.63626e-05 5.36634e-05 6.81925e-07
1.56289e-06 6.81925e-07 -3.24051e-05
0.00116514 7.09169e-05 6.5492e-07
7.09169e-05 6.90711e-05 1.11834e-06
6.5492e-07 1.11834e-06 -1.34564e-05
0.00131636 7.28229e-05 1.27321e-08
7.28229e-05 8.29885e-05 9.21554e-07
1.27321e-08 9.21554e-07 -5.26121e-06
0.0010867 6.41649e-05 1.69121e-06
6.41649e-05 0.000119371 1.48037e-06
1.69121e-06 1.48037e-06 3.42683e-05
0.00116326 7.35695e-05 1.39655e-06
7.35695e-05 8.93851e-05 2.60158e-07
1.39655e-06 2.60158e-07 6.77167e-06
0.000698176 5.91279e-05 1.2908e-06
5.91279e-05 -9.32863e-05 -7.53927e-07
1.2908e-06 -7.53927e-07 -0.000188665
0.000897653 -1.0953e-05 1.03581e-06
-1.0953e-05 6.30134e-07 2.0183e-06
1.03581e-06 2.0183e-06 -3.11813e-05
0.00095837 1.01815e-05 3.38001e-07
1.01815e-05 3.69786e-05 1.0861e-06
3.38001e-07 1.0861e-06 -1.077e-05
0.0009121 -3.88381e-06 7.58918e-07
-3.88381e-06 4.20287e-06 1.81354e-06
7.58918e-07 1.81354e-06 -2.34682e-05
0.000908377 -5.76414e-06 1.19421e-07
-5.76414e-06 4.31512e-06 1.17055e-08
1.19421e-07 1.17055e-08 -2.52692e-05
0.00142269 -2.00568e-05 2.28712e-06
-2.00568e-05 0.000266827 2.07417e-06
2.28712e-06 2.07417e-06 0.00026716
0.00113259 -2.04968e-05 7.23853e-07
-2.04968e-05 0.000121449 -2.98945e-09
7.23853e-07 -2.98945e-09 0.00011844
0.00111012 -1.96397e-05 1.72229e-05
-1.96397e-05 0.000111824 6.65005e-06
1.72229e-05 6.65005e-06 0.000125116
0.00234467 -3.25841e-05 6.65519e-07
-3.25841e-05 0.000753905 -5.8924e-08
6.65519e-07 -5.8924e-08 0.000771856
0.00241126 -3.70893e-05 -2.15557e-05
-3.70893e-05 0.000793396 -3.89093e-06
-2.15557e-05 -3.89093e-06 0.000809799
0.000797967 2.44513e-05 2.66506e-06
2.44513e-05 -4.01796e-05 -3.40622e-06
2.66506e-06 -3.40622e-06 -4.86489e-05
0.00245998 4.19279e-05 2.27894e-05
4.19279e-05 0.000825195 -3.70969e-06
2.27894e-05 -3.70969e-06 0.000839892
0.000797085 2.75186e-05 -1.38881e-07
2.75186e-05 -3.46292e-05 5.70458e-08
-1.38881e-07 5.70458e-08 -4.66336e-05
0.00258809 4.62621e-05 -4.37266e-07
4.62621e-05 0.000897201 -8.69129e-08
-4.37266e-07 -8.69129e-08 0.000909549
0.00078987 3.30089e-05 -3.53566e-06
3.30089e-05 -3.02568e-05 3.88448e-06
-3.53566e-06 3.88448e-06 -4.66393e-05
0.00266316 5.09978e-05 -2.83753e-05
5.09978e-05 0.000942607 3.68562e-06
-2.83753e-05 3.68562e-06 0.000952736
0.00112718 3.8701e-05 -5.01511e-06
3.8701e-05 2.16578e-05 -1.95081e-06
-5.01511e-06 -1.95081e-06 -4.92946e-05
0.00118095 1.91349e-05 -5.55589e-06
1.91349e-05 8.12155e-06 -1.43907e-06
-5.55589e-06 -1.43907e-06 -6.46482e-05
0.00137678 3.31416e-05 -2.51489e-06
3.31416e-05 6.09873e-05 -6.89544e-07
-2.51489e-06 -6.89544e-07 -2.1773e-05
0.00147456 4.98664e-06 -2.9465e-06
4.98664e-06 6.89578e-05 -9.57274e-07
-2.9465e-06 -9.57274e-07 -1.71208e-05
0.00124641 7.74161e-06 -6.13924e-06
7.74161e-06 1.20418e-06 -1.28925e-06
-6.13924e-06 -1.28925e-06 -7.58715e-05
0.000777221 1.09285e-06 -1.03941e-05
1.09285e-06 -9.36099e-05 -6.54501e-08
-1.03941e-05 -6.54501e-08 -0.000142799
0.00125912 2.7401e-06 -2.54131e-08
2.7401e-06 5.95097e-07 -4.14595e-07
-2.54131e-08 -4.14595e-07 -7.72516e-05
0.00148915 8.65644e-06 1.28228e-08
8.65644e-06 5.58139e-05 -1.31754e-07
1.28228e-08 -1.31754e-07 -3.36782e-05
0.0014119 1.63152e-05 9.81341e-08
1.63152e-05 5.70113e-05 2.6471e-08
9.81341e-08 2.6471e-08 -2.65882e-05
0.00154667 -1.02114e-07 -2.9211e-08
-1.02114e-07 7.22825e-05 1.21462e-07
-2.9211e-08 1.21462e-07 -1.5703e-05
0.00131205 4.55163e-05 -4.04455e-08
4.55163e-05 5.46836e-05 -2.43856e-08
-4.04455e-08 -2.43856e-08 -2.75356e-05
0.00147146 3.64014e-05 -9.73281e-09
3.64014e-05 7.14174e-05 7.59056e-08
-9.73281e-09 7.59056e-08 -1.32318e-05
0.00149657 7.41275e-06 3.47935e-06
7.41275e-06 5.26569e-05 -6.197e-07
3.47935e-06 -6.197e-07 -3.78145e-05
0.00152476 4.02015e-06 1.2339e-06
4.02015e-06 4.6755e-05 1.40684e-06
1.2339e-06 1.40684e-06 -4.51009e-05
0.00149038 1.91623e-05 1.24703e-06
1.91623e-05 5.83493e-05 4.2626e-07
1.24703e-06 4.2626e-07 -2.72105e-05
0.00169851 -6.34244e-06 1.23262e-06
-6.34244e-06 0.000130168 5.1501e-07
1.23262e-06 5.1501e-07 4.38973e-05
0.00139771 4.49118e-05 6.46213e-07
4.49118e-05 6.27938e-05 -5.15476e-08
6.46213e-07 -5.15476e-08 -2.21973e-05
0.0015165 2.71916e-05 -1.55362e-06
2.71916e-05 6.91811e-05 5.3786e-07
-1.55362e-06 5.3786e-07 -8.81023e-06
0.000945489 8.7046e-06 -5.97141e-06
8.7046e-06 -0.000146704 9.29001e-07
-5.97141e-06 9.29001e-07 -0.000224467
0.00153929 -1.51756e-05 -8.43173e-06
-1.51756e-05 0.000188155 1.38956e-06
-8.43173e-06 1.38956e-06 0.00011923
0.00156319 1.16588e-05 -4.47442e-06
1.16588e-05 0.000117493 7.46428e-07
-4.47442e-06 7.46428e-07 3.36427e-05
0.00173001 -4.14397e-05 -2.97061e-06
-4.14397e-05 0.000229791 2.58807e-07
-2.97061e-06 2.58807e-07 0.000148294
0.000767098 4.20684e-05 -3.46118e-06
4.20684e-05 -2.39261e-05 3.61971e-06
-3.46118e-06 3.61971e-06 -4.79045e-05
0.000913115 -1.44853e-05 -2.63643e-06
-1.44853e-05 3.94399e-05 1.41855e-06
-2.63643e-06 1.41855e-06 -1.9467e-05
0.000951031 -5.58793e-05 -8.4363e-07
-5.58793e-05 3.30609e-05 6.29544e-07
-8.4363e-07 6.29544e-07 -4.13894e-05
0.00161314 -6.24631e-05 -2.86971e-06
-6.24631e-05 0.000237893 1.21756e-06
-2.86971e-06 1.21756e-06 0.000159386
0.00131405 -4.90206e-05 -1.55223e-06
-4.90206e-05 5.38957e-06 1.09645e-06
-1.55223e-06 1.09645e-06 -7.91088e-05
0.00127699 -6.44676e-05 -7.84902e-07
-6.44676e-05 6.55038e-05 8.27918e-07
-7.84902e-07 8.27918e-07 -1.538e-05
0.00104942 -6.87478e-05 -1.59605e-06
-6.87478e-05 2.66701e-05 1.13289e-06
-1.59605e-06 1.13289e-06 -6.06941e-05
0.00112819 -6.81181e-05 2.04536e-07
-6.81181e-05 4.70861e-06 -1.80255e-07
2.04536e-07 -1.80255e-07 -7.77632e-05
0.000882096 -5.3841e-06 -2.94516e-06
-5.3841e-06 8.7225e-06 1.73972e-06
-2.94516e-06 1.73972e-06 -4.46116e-05
0.000915092 -2.13954e-05 -1.58746e-06
-2.13954e-05 1.67237e-05 6.14875e-07
-1.58746e-06 6.14875e-07 -5.25459e-05
0.000868622 1.22705e-05 -1.77925e-06
1.22705e-05 -4.09461e-06 2.33195e-06
-1.77925e-06 2.33195e-06 -4.69023e-05
0.00163998 1.28683e-05 -1.22987e-06
1.28683e-05 0.000139289 4.11012e-07
-1.22987e-06 4.11012e-07 5.2077e-05
0.00156111 -1.88455e-05 -5.13115e-07
-1.88455e-05 0.000127457 4.57794e-08
-5.13115e-07 4.57794e-08 4.5667e-05
0.00158529 1.07001e-05 -5.27154e-07
1.07001e-05 9.49656e-05 2.76625e-07
-5.27154e-07 2.76625e-07 5.94268e-06
0.00159566 -3.15238e-05 4.38394e-08
-3.15238e-05 0.000118136 -3.73971e-07
4.38394e-08 -3.73971e-07 3.2895e-05
0.00088207 -8.30499e-06 1.41369e-07
-8.30499e-06 1.85596e-05 -1.14279e-07
1.41369e-07 -1.14279e-07 -3.82501e-05
0.00102526 -5.35141e-05 -4.31287e-09
-5.35141e-05 7.64806e-05 1.4273e-07
-4.31287e-09 1.4273e-07 4.73137e-06
0.000914551 -6.49132e-05 3.66149e-07
-6.49132e-05 3.79608e-06 -5.08957e-07
3.66149e-07 -5.08957e-07 -8.11741e-05
0.00134569 -6.22014e-05 -1.148e-08
-6.22014e-05 6.97899e-05 -3.22644e-07
-1.148e-08 -3.22644e-07 -1.19909e-05
0.00150421 -5.03905e-05 3.64877e-07
-5.03905e-05 7.67365e-05 9.28902e-07
3.64877e-07 9.28902e-07 -2.64307e-06
0.00121856 -7.78419e-05 3.70029e-08
-7.78419e-05 9.34442e-05 1.11985e-07
3.70029e-08 1.11985e-07 8.01738e-07
0.00130105 -6.67737e-05 2.57209e-08
-6.67737e-05 5.6241e-05 3.41378e-07
2.57209e-08 3.41378e-07 -2.32273e-05
0.0014888 -7.85069e-05 6.372e-07
-7.85069e-05 0.000170824 4.38538e-07
6.372e-07 4.38538e-07 9.28575e-05
0.00100769 -3.71748e-05 -4.49635e-09
-3.71748e-05 6.47245e-05 -1.2308e-07
-4.49635e-09 -1.2308e-07 -4.9436e-06
0.00106864 -6.11077e-05 -3.20498e-07
-6.11077e-05 0.000100916 2.71979e-07
-3.20498e-07 2.71979e-07 2.15456e-05
0.000881218 1.79797e-05 -1.14493e-07
1.79797e-05 -1.31549e-06 9.05369e-08
-1.14493e-07 9.05369e-08 -3.85128e-05
0.000858561 -9.81754e-06 1.66191e-07
-9.81754e-06 -1.12467e-05 -5.49038e-07
1.66191e-07 -5.49038e-07 -7.76802e-05
0.00159784 1.21767e-05 2.23677e-06
1.21767e-05 8.81778e-05 -3.78655e-07
2.23677e-06 -3.78655e-07 -4.08303e-06
0.00167234 -1.1258e-05 1.93337e-06
-1.1258e-05 0.000142521 2.31707e-07
1.93337e-06 2.31707e-07 5.60824e-05
0.00163594 1.3243e-05 1.35949e-06
1.3243e-05 0.000103671 3.67786e-07
1.35949e-06 3.67786e-07 1.28888e-05
0.00151142 -2.6091e-05 2.80622e-07
-2.6091e-05 5.1619e-05 -1.33806e-06
2.80622e-07 -1.33806e-06 -3.17173e-05
0.00127619 -6.11652e-05 -5.16316e-07
-6.11652e-05 8.7402e-06 -3.70872e-07
-5.16316e-07 -3.70872e-07 -6.95214e-05
0.00169157 -4.97291e-05 1.42264e-06
-4.97291e-05 0.000145333 -2.83517e-07
1.42264e-06 -2.83517e-07 7.16885e-05
0.000981964 -4.8189e-05 1.3664e-06
-4.8189e-05 5.61141e-05 -4.83871e-08
1.3664e-06 -4.83871e-08 -1.40726e-05
0.00129204 -6.7261e-05 -1.3181e-06
-6.7261e-05 3.77412e-05 4.06226e-07
-1.3181e-06 4.06226e-07 -3.38588e-05
0.000802848 -5.89069e-05 4.05184e-07
-5.89069e-05 -3.53597e-05 -9.00748e-07
4.05184e-07 -9.00748e-07 -0.000115966
0.00110039 -7.48363e-05 1.63907e-06
-7.48363e-05 8.48343e-05 -1.80369e-06
1.63907e-06 -1.80369e-06 -9.93059e-06
0.00128299 -8.33765e-05 1.97916e-06
-8.33765e-05 0.000110153 1.41057e-06
1.97916e-06 1.41057e-06 1.39637e-05
0.00174353 -8.52869e-05 6.27512e-07
-8.52869e-05 0.000284392 8.10546e-07
6.27512e-07 8.10546e-07 0.000206792
0.000889027 1.59175e-05 1.18615e-06
1.59175e-05 -2.2043e-07 -1.85413e-06
1.18615e-06 -1.85413e-06 -3.37759e-05
0.000789531 -4.50399e-06 8.06334e-07
-4.50399e-06 -4.79794e-05 -1.91489e-06
8.06334e-07 -1.91489e-06 -0.000109145
0.00101968 -6.16165e-05 6.76911e-07
-6.16165e-05 7.27357e-05 5.75756e-07
6.76911e-07 5.75756e-07 -4.72736e-06
0.00102018 -5.45868e-05 1.03731e-06
-5.45868e-05 8.09719e-05 -2.94619e-07
1.03731e-06 -2.94619e-07 1.30185e-06
0.00112653 -6.63401e-05 2.87528e-07
-6.63401e-05 0.000128637 1.12247e-06
2.87528e-07 1.12247e-06 4.6911e-05
0.00079333 -2.3383e-05 -2.9736e-06
-2.3383e-05 -4.31382e-05 -3.65471e-06
-2.9736e-06 -3.65471e-06 -5.23898e-05
0.00125483 5.49979e-05 -1.7866e-06
5.49979e-05 5.68696e-05 -4.18294e-07
-1.7866e-06 -4.18294e-07 -2.47601e-05
0.000884668 -1.53749e-05 -1.66962e-06
-1.53749e-05 3.62122e-06 -2.37177e-06
-1.66962e-06 -2.37177e-06 -3.96674e-05
0.00089985 2.5146e-06 -2.75954e-06
2.5146e-06 2.22554e-05 -2.04601e-06
-2.75954e-06 -2.04601e-06 -3.09059e-05
0.000967503 1.79023e-05 -1.10108e-06
1.79023e-05 4.67195e-05 -1.0116e-06
-1.10108e-06 -1.0116e-06 -2.13532e-05
0.00106144 6.33253e-05 -1.69019e-06
6.33253e-05 4.06583e-05 -1.10005e-06
-1.69019e-06 -1.10005e-06 -3.57826e-05
0.00124397 6.81349e-05 -9.59723e-07
6.81349e-05 6.09084e-05 -5.49418e-07
-9.59723e-07 -5.49418e-07 -2.50424e-05
0.000977617 4.58537e-05 -1.41021e-06
4.58537e-05 6.17638e-05 -4.95786e-07
-1.41021e-06 -4.95786e-07 -1.1346e-05
0.0010935 6.84355e-05 -1.37943e-06
6.84355e-05 0.000115788 -8.98765e-07
-1.37943e-06 -8.98765e-07 2.85756e-05
0.00136763 7.60437e-05 -1.33559e-06
7.60437e-05 0.000203329 -9.27808e-07
-1.33559e-06 -9.27808e-07 0.000124948
0.00102483 6.78606e-05 -2.78174e-06
6.78606e-05 5.11941e-05 1.04424e-06
-2.78174e-06 1.04424e-06 -3.09187e-05
0.000823018 -2.10486e-05 1.17655e-07
-2.10486e-05 -3.34628e-05 3.51584e-08
1.17655e-07 3.51584e-08 -4.01667e-05
0.000883711 -1.42399e-05 2.95999e-08
-1.42399e-05 -1.47236e-07 6.14821e-08
2.95999e-08 6.14821e-08 -3.87245e-05
0.00100156 2.92686e-05 7.03741e-08
2.92686e-05 6.47037e-05 -5.61842e-08
7.03741e-08 -5.61842e-08 -5.00704e-06
0.00096823 9.99804e-06 1.29244e-07
9.99804e-06 4.56409e-05 -3.71789e-08
1.29244e-07 -3.71789e-08 -1.86176e-05
0.000968066 4.84025e-05 1.38213e-07
4.84025e-05 5.12522e-05 -2.27167e-07
1.38213e-07 -2.27167e-07 -2.77147e-05
0.00132882 5.7094e-05 6.29334e-07
5.7094e-05 6.00671e-05 5.00949e-07
6.29334e-07 5.00949e-07 -2.61126e-05
0.00116114 7.11919e-05 1.07327e-07
7.11919e-05 6.75612e-05 -4.69439e-09
1.07327e-07 -4.69439e-09 -1.50079e-05
0.00127916 7.29597e-05 7.35938e-07
7.29597e-05 6.42735e-05 4.43902e-07
7.35938e-07 4.43902e-07 -2.43472e-05
0.00104816 6.34049e-05 5.29436e-07
6.34049e-05 0.000101369 5.5083e-07
5.29436e-07 5.5083e-07 1.6312e-05
0.0012439 7.5397e-05 1.63689e-07
7.5397e-05 0.000130319 -4.56548e-07
1.63689e-07 -4.56548e-07 4.79487e-05
0.000936324 6.6662e-05 -9.45307e-07
6.6662e-05 2.37042e-05 -5.27204e-07
-9.45307e-07 -5.27204e-07 -7.10671e-05
0.000887528 -1.27949e-05 1.27802e-06
-1.27949e-05 -1.29615e-06 2.19153e-06
1.27802e-06 2.19153e-06 -3.61112e-05
0.000955633 4.65308e-06 7.69056e-07
4.65308e-06 3.58013e-05 1.34665e-06
7.69056e-07 1.34665e-06 -2.31258e-05
0.00105531 5.99339e-05 6.49083e-07
5.99339e-05 9.51286e-05 -1.25969e-07
6.49083e-07 -1.25969e-07 1.42094e-05
0.00102651 3.67957e-05 6.55508e-07
3.67957e-05 8.08557e-05 3.78415e-07
6.55508e-07 3.78415e-07 4.82675e-06
0.00103503 5.5384e-05 6.15337e-08
5.5384e-05 8.92273e-05 -7.62847e-07
6.15337e-08 -7.62847e-07 4.82741e-06
0.00133586 5.63902e-05 -1.3613e-06
5.63902e-05 4.54975e-05 -4.78453e-07
-1.3613e-06 -4.78453e-07 -4.06529e-05
0.00119146 7.69713e-05 1.13048e-06
7.69713e-05 6.87824e-05 9.49042e-07
1.13048e-06 9.49042e-07 -1.69045e-05
0.00107985 7.54559e-05 -7.43185e-07
7.54559e-05 -3.42109e-05 -4.02485e-07
-7.43185e-07 -4.02485e-07 -0.000119676
0.0010124 6.7096e-05 7.23839e-07
6.7096e-05 8.62025e-05 1.8322e-06
7.23839e-07 1.8322e-06 -9.25129e-06
0.00119139 7.87569e-05 2.70992e-06
7.87569e-05 0.000116071 -1.08952e-07
2.70992e-06 -1.08952e-07 1.82497e-05
0.000900389 -9.69599e-06 9.70589e-08
-9.69599e-06 2.27347e-06 1.73318e-08
9.70589e-08 1.73318e-08 -2.95262e-05
0.000797485 -2.88398e-06 5.71445e-07
-2.88398e-06 -4.75281e-05 1.72669e-06
5.71445e-07 1.72669e-06 -9.90202e-05
0.000883193 2.20418e-06 -3.82767e-07
2.20418e-06 -2.22309e-06 2.14566e-08
-3.82767e-07 2.14566e-08 -5.05514e-05
0.00116254 1.64473e-05 4.15934e-07
1.64473e-05 0.00014701 2.89186e-07
4.15934e-07 2.89186e-07 8.72586e-05
0.000934758 6.63943e-06 8.61106e-07
6.63943e-06 2.62333e-05 1.05094e-06
8.61106e-07 1.05094e-06 -2.05209e-05
0.000925676 8.37138e-07 6.15669e-07
8.37138e-07 9.63926e-06 1.75417e-06
6.15669e-07 1.75417e-06 -1.66577e-05
0.00091783 -4.38359e-06 1.22302e-07
-4.38359e-06 7.49958e-06 1.48129e-08
1.22302e-07 1.48129e-08 -2.02636e-05
0.00141082 -1.6563e-05 1.75478e-06
-1.6563e-05 0.000256418 2.01864e-06
1.75478e-06 2.01864e-06 0.000258568
0.000915074 -4.22482e-06 -1.02538e-06
-4.22482e-06 8.10644e-06 -1.86676e-06
-1.02538e-06 -1.86676e-06 -2.15495e-05
0.00143961 -1.88947e-05 -2.96736e-06
-1.88947e-05 0.000275158 -1.22962e-06
-2.96736e-06 -1.22962e-06 0.000275711
0.00110965 -1.698e-05 1.46557e-05
-1.698e-05 0.000105831 6.47011e-06
1.46557e-05 6.47011e-06 0.000120863
0.00143292 -2.09403e-05 -7.86809e-06
-2.09403e-05 0.000276409 -3.29593e-06
-7.86809e-06 -3.29593e-06 0.000275174
0.00168017 -2.41534e-05 1.27479e-05
-2.41534e-05 0.000405991 2.29437e-06
1.27479e-05 2.29437e-06 0.000422418
0.00234688 -3.27491e-05 -1.91757e-05
-3.27491e-05 0.000754305 -3.90472e-06
-1.91757e-05 -3.90472e-06 0.000772428
0.000807658 2.23901e-05 2.24955e-06
2.23901e-05 -4.03358e-05 -3.27189e-06
2.24955e-06 -3.27189e-06 -4.63378e-05
0.000813648 2.47725e-05 -1.52246e-07
2.47725e-05 -3.23159e-05 4.19693e-08
-1.52246e-07 4.19693e-08 -4.09426e-05
0.00237005 3.76448e-05 2.02494e-05
3.76448e-05 0.000772845 -3.71503e-06
2.02494e-05 -3.71503e-06 0.000789469
0.0024751 4.17302e-05 -4.88175e-07
4.17302e-05 0.000833506 -7.01842e-08
-4.88175e-07 -7.01842e-08 0.000847938
0.000813024 2.85022e-05 -3.25914e-06
2.85022e-05 -2.62663e-05 3.77431e-06
-3.25914e-06 3.77431e-06 -3.85721e-05
0.00259504 4.61189e-05 -2.69926e-05
4.61189e-05 0.00090138 3.8248e-06
-2.69926e-05 3.8248e-06 0.000913475
0.00132331 4.59406e-05 -2.39654e-06
4.59406e-05 6.01664e-05 -6.28978e-07
-2.39654e-06 -6.28978e-07 -2.2134e-05
0.00142224 1.65229e-05 -2.7231e-06
1.65229e-05 6.22788e-05 -7.06337e-07
-2.7231e-06 -7.06337e-07 -2.13409e-05
0.00148563 3.70816e-05 -8.67013e-07
3.70816e-05 7.86796e-05 -1.33247e-07
-8.67013e-07 -1.33247e-07 -6.03e-06
0.00153895 -9.55811e-07 -1.30408e-06
-9.55811e-07 6.64831e-05 -6.58421e-07
-1.30408e-06 -6.58421e-07 -2.17835e-05
0.00150764 1.20404e-05 -3.05148e-06
1.20404e-05 6.49848e-05 -1.1518e-06
-3.05148e-06 -1.1518e-06 -2.44918e-05
0.00126683 7.36614e-06 -6.13956e-06
7.36614e-06 3.96945e-06 -2.89775e-07
-6.13956e-06 -2.89775e-07 -7.38777e-05
0.00150899 1.1881e-05 5.37143e-08
1.1881e-05 5.86733e-05 -5.7905e-07
5.37143e-08 -5.7905e-07 -3.18385e-05
0.0015316 -3.8291e-06 1.36518e-07
-3.8291e-06 4.84346e-05 3.19088e-07
1.36518e-07 3.19088e-07 -4.41725e-05
0.00151467 1.82292e-05 4.96327e-08
1.82292e-05 7.05837e-05 -2.05586e-08
4.96327e-08 -2.05586e-08 -1.48988e-05
0.00167143 -7.21036e-06 4.6632e-08
-7.21036e-06 0.000115291 -2.81514e-07
4.6632e-08 -2.81514e-07 2.91796e-05
0.00140461 4.59144e-05 -3.95512e-08
4.59144e-05 6.60686e-05 -1.68052e-08
-3.95512e-08 -1.68052e-08 -1.91324e-05
0.00152336 2.73762e-05 -1.3422e-07
2.73762e-05 7.06617e-05 8.24541e-07
-1.3422e-07 8.24541e-07 -7.06601e-06
0.00156629 1.3571e-06 2.24847e-06
1.3571e-06 5.91838e-05 -3.00371e-07
2.24847e-06 -3.00371e-07 -3.55266e-05
0.00163604 3.39034e-06 8.88749e-07
3.39034e-06 8.91748e-05 7.55095e-07
8.88749e-07 7.55095e-07 -3.43383e-06
0.00143051 9.80397e-06 1.91996e-07
9.80397e-06 1.20206e-06 1.57723e-06
1.91996e-07 1.57723e-06 -8.01212e-05
0.00180341 -1.29858e-05 9.21525e-07
-1.29858e-05 0.000173266 3.57293e-07
9.21525e-07 3.57293e-07 8.75283e-05
0.00135788 4.05591e-05 -1.22222e-06
4.05591e-05 1.72584e-05 -9.26244e-07
-1.22222e-06 -9.26244e-07 -6.39226e-05
0.00178562 2.08276e-05 -1.54343e-07
2.08276e-05 0.00017792 1.5374e-07
-1.54343e-07 1.5374e-07 0.000105858
0.00148582 1.24765e-05 -4.37636e-06
1.24765e-05 5.9533e-05 1.11381e-06
-4.37636e-06 1.11381e-06 -2.88856e-05
0.0015529 -2.08372e-05 -4.08396e-06
-2.08372e-05 0.000122556 3.85652e-07
-4.08396e-06 3.85652e-07 4.08812e-05
0.0014691 1.09898e-05 -2.57981e-06
1.09898e-05 3.54103e-05 2.47841e-07
-2.57981e-06 2.47841e-07 -5.41541e-05
0.00168762 -3.07121e-05 -1.93674e-06
-3.07121e-05 0.000164183 -3.70074e-08
-1.93674e-06 -3.70074e-08 7.91874e-05
0.000896898 -1.0272e-05 -2.80364e-06
-1.0272e-05 2.39902e-05 1.41884e-06
-2.80364e-06 1.41884e-06 -3.24832e-05
0.00107328 -5.54314e-05 -1.38868e-06
-5.54314e-05 9.89971e-05 6.10288e-07
-1.38868e-06 6.10288e-07 2.71497e-05
0.000994199 -6.66574e-05 -5.53384e-07
-6.66574e-05 4.65263e-05 7.81692e-07
-5.53384e-07 7.81692e-07 -3.76596e-05
0.00155079 -6.57021e-05 -1.00434e-06
-6.57021e-05 0.000173383 4.98517e-07
-1.00434e-06 4.98517e-07 9.16804e-05
0.0013902 -4.86813e-05 -9.02969e-08
-4.86813e-05 1.84763e-05 9.86664e-07
-9.02969e-08 9.86664e-07 -5.97986e-05
0.00131268 -6.62834e-05 3.98104e-07
-6.62834e-05 6.16406e-05 8.37233e-07
3.98104e-07 8.37233e-07 -1.7676e-05
0.00102795 -7.27443e-05 -1.43447e-06
-7.27443e-05 6.89331e-07 6.84451e-07
-1.43447e-06 6.84451e-07 -9.30954e-05
0.00131784 -7.3945e-05 1.09567e-06
-7.3945e-05 8.53006e-05 -1.98755e-06
1.09567e-06 -1.98755e-06 8.24843e-06
0.00102907 -3.63002e-05 -1.53483e-06
-3.63002e-05 7.49286e-05 2.03048e-07
-1.53483e-06 2.03048e-07 5.47766e-06
0.00101706 -5.84599e-05 -1.36387e-06
-5.84599e-05 7.32609e-05 -1.33793e-07
-1.36387e-06 -1.33793e-07 -6.37649e-06
0.00086823 1.76074e-05 -1.33605e-06
1.76074e-05 -7.34667e-06 2.17158e-06
-1.33605e-06 2.17158e-06 -4.47308e-05
0.00089074 -5.68791e-06 -5.85982e-07
-5.68791e-06 4.15181e-06 8.37476e-07
-5.85982e-07 8.37476e-07 -6.13589e-05
0.00159554 1.263e-05 -1.17605e-07
1.263e-05 8.71966e-05 2.11319e-07
-1.17605e-07 2.11319e-07 -5.05784e-06
0.00168273 -8.82895e-06 -3.60551e-07
-8.82895e-06 0.00014794 1.14053e-07
-3.60551e-07 1.14053e-07 6.17471e-05
0.00159411 1.30237e-05 -7.41043e-07
1.30237e-05 8.38963e-05 3.31209e-07
-7.41043e-07 3.31209e-07 -6.75783e-06
0.0015457 -2.68432e-05 -1.96638e-07
-2.68432e-05 6.86758e-05 -3.60906e-07
-1.96638e-07 -3.60906e-07 -1.4483e-05
0.00101848 -4.74872e-05 1.66203e-08
-4.74872e-05 7.31696e-05 -8.02402e-09
1.66203e-08 -8.02402e-09 3.1133e-06
0.000867399 -6.01609e-05 3.44108e-07
-6.01609e-05 -2.52842e-06 -2.21236e-07
3.44108e-07 -2.21236e-07 -8.2282e-05
0.00110889 -7.48543e-05 5.28719e-08
-7.48543e-05 9.03863e-05 -1.69618e-07
5.28719e-08 -1.69618e-07 -4.61977e-06
0.00140403 -6.30106e-05 -6.33168e-07
-6.30106e-05 7.296e-05 -2.517e-07
-6.33168e-07 -2.517e-07 -6.07561e-06
0.00152405 -4.86951e-05 2.4708e-07
-4.86951e-05 6.94891e-05 8.68022e-07
2.4708e-07 8.68022e-07 -1.81335e-06
0.00128714 -8.29407e-05 -9.09636e-08
-8.29407e-05 0.000113884 5.59516e-07
-9.09636e-08 5.59516e-07 1.68337e-05
0.00130951 -6.69917e-05 -1.0129e-09
-6.69917e-05 4.75061e-05 6.49578e-07
-1.0129e-09 6.49578e-07 -2.4008e-05
0.00144834 -7.80914e-05 7.62635e-07
-7.80914e-05 0.000136831 -1.78734e-06
7.62635e-07 -1.78734e-06 6.17942e-05
0.00105117 -6.25178e-05 1.01961e-07
-6.25178e-05 8.80387e-05 -7.54907e-09
1.01961e-07 -7.54907e-09 1.05956e-05
0.00109311 -6.51378e-05 2.0995e-09
-6.51378e-05 0.000110738 1.1206e-07
2.0995e-09 1.1206e-07 2.91443e-05
0.0010309 -4.97911e-05 -2.87704e-07
-4.97911e-05 8.61909e-05 1.37142e-07
-2.87704e-07 1.37142e-07 6.60256e-06
0.000756983 2.05473e-05 -2.40962e-07
2.05473e-05 -6.75321e-05 2.8657e-08
-2.40962e-07 2.8657e-08 -0.000102192
0.000835221 3.13653e-06 1.67579e-07
3.13653e-06 -2.67286e-05 -4.3488e-07
1.67579e-07 -4.3488e-07 -8.65691e-05
0.00165845 1.80411e-05 1.57471e-06
1.80411e-05 0.000101823 -3.45645e-08
1.57471e-06 -3.45645e-08 7.64636e-06
0.00160524 6.59209e-06 2.05003e-06
6.59209e-06 7.8287e-05 1.88115e-07
2.05003e-06 1.88115e-07 -1.15777e-05
0.00158659 -3.03602e-05 1.82357e-06
-3.03602e-05 6.75774e-05 -2.15272e-06
1.82357e-06 -2.15272e-06 -1.1149e-05
0.00133591 -5.58861e-05 6.1634e-07
-5.58861e-05 3.43007e-06 -1.37855e-06
6.1634e-07 -1.37855e-06 -6.54297e-05
0.00100728 -6.25142e-05 3.00475e-07
-6.25142e-05 6.87471e-05 4.51814e-07
3.00475e-07 4.51814e-07 -8.20339e-06
0.00170383 -7.6837e-05 2.33346e-07
-7.6837e-05 0.000216956 6.93806e-07
2.33346e-07 6.93806e-07 0.000153588
0.000589595 -5.44207e-05 2.96478e-07
-5.44207e-05 -0.00013817 -1.90411e-06
2.96478e-07 -1.90411e-06 -0.000225337
0.00117389 -8.15695e-05 2.89072e-06
-8.15695e-05 0.0001081 -1.85905e-06
2.89072e-06 -1.85905e-06 1.45798e-06
0.0014366 -8.90094e-05 2.46966e-06
-8.90094e-05 0.000163333 1.62759e-06
2.46966e-06 1.62759e-06 6.37589e-05
0.000669611 1.54109e-05 9.76515e-07
1.54109e-05 -0.000114836 -2.36266e-06
9.76515e-07 -2.36266e-06 -0.000147751
0.00103652 -1.2895e-06 1.03306e-06
-1.2895e-06 7.65219e-05 -1.12122e-06
1.03306e-06 -1.12122e-06 2.24268e-05
0.00101902 -3.53554e-05 5.20192e-07
-3.53554e-05 7.74222e-05 -6.3728e-07
5.20192e-07 -6.3728e-07 4.83635e-06
0.00104972 -6.39175e-05 1.37348e-07
-6.39175e-05 8.61023e-05 9.28234e-07
1.37348e-07 9.28234e-07 7.15618e-06
0.0011244 -6.41104e-05 7.1271e-07
-6.41104e-05 0.00013572 8.76692e-07
7.1271e-07 8.76692e-07 4.82624e-05
0.00102916 -6.37157e-05 1.71491e-07
-6.37157e-05 7.35416e-05 7.5883e-07
1.71491e-07 7.5883e-07 -9.3231e-06
0.000805962 -2.06863e-05 -2.49478e-06
-2.06863e-05 -4.20603e-05 -3.54907e-06
-2.49478e-06 -3.54907e-06 -4.86349e-05
0.000892096 -1.48561e-05 -1.48645e-06
-1.48561e-05 3.87424e-06 -2.25292e-06
-1.48645e-06 -2.25292e-06 -3.46368e-05
0.00134402 5.79241e-05 -5.43244e-07
5.79241e-05 6.7177e-05 2.69838e-07
-5.43244e-07 2.69838e-07 -1.91113e-05
0.000965443 8.67145e-06 -8.20443e-07
8.67145e-06 4.46262e-05 -1.34641e-06
-8.20443e-07 -1.34641e-06 -1.96692e-05
0.000965232 2.82858e-05 -1.36729e-06
2.82858e-05 4.66925e-05 -4.38175e-07
-1.36729e-06 -4.38175e-07 -2.28069e-05
0.000945765 4.94147e-05 -5.7407e-07
4.94147e-05 4.03529e-05 -1.36445e-07
-5.7407e-07 -1.36445e-07 -3.89379e-05
0.00115556 7.13886e-05 -8.02412e-07
7.13886e-05 6.53045e-05 -1.22379e-06
-8.02412e-07 -1.22379e-06 -1.73027e-05
0.00123938 7.29582e-05 8.17988e-08
7.29582e-05 4.42846e-05 -2.94427e-07
8.17988e-08 -2.94427e-07 -4.46937e-05
0.000999829 6.22913e-05 -3.85398e-07
6.22913e-05 7.82923e-05 -2.5474e-07
-3.85398e-07 -2.5474e-07 -6.66808e-06
0.00116189 7.375e-05 -1.58422e-06
7.375e-05 0.000134464 -3.83447e-08
-1.58422e-06 -3.83447e-08 4.0324e-05
0.00131923 7.70885e-05 -2.02782e-06
7.70885e-05 0.000168776 -7.41344e-07
-2.02782e-06 -7.41344e-07 8.66387e-05
0.000892642 -1.27459e-05 1.11451e-07
-1.27459e-05 1.18263e-06 3.73997e-08
1.11451e-07 3.73997e-08 -3.35621e-05
0.000960271 3.51961e-06 2.3885e-08
3.51961e-06 3.82286e-05 3.0432e-08
2.3885e-08 3.0432e-08 -2.06937e-05
0.00104923 5.99239e-05 -2.36598e-07
5.99239e-05 9.31772e-05 -1.92467e-07
-2.36598e-07 -1.92467e-07 1.26843e-05
0.00102077 3.98262e-05 5.4324e-08
3.98262e-05 7.85087e-05 -4.9916e-08
5.4324e-08 -4.9916e-08 2.08848e-06
0.00098441 5.48136e-05 -2.4835e-07
5.48136e-05 6.46186e-05 -1.52881e-07
-2.4835e-07 -1.52881e-07 -2.03589e-05
0.00135566 5.85129e-05 -4.99994e-07
5.85129e-05 5.65963e-05 1.47757e-08
-4.99994e-07 1.47757e-08 -3.01166e-05
0.0012045 7.70423e-05 6.332e-07
7.70423e-05 7.40339e-05 -8.31125e-08
6.332e-07 -8.31125e-08 -1.17694e-05
0.00119712 7.70649e-05 3.05876e-07
7.70649e-05 2.08792e-05 5.16752e-07
3.05876e-07 5.16752e-07 -6.37264e-05
0.000884374 6.31511e-05 4.11544e-07
6.31511e-05 2.22895e-05 8.56767e-07
4.11544e-07 8.56767e-07 -7.35848e-05
0.00120141 7.91672e-05 -1.23879e-07
7.91672e-05 0.000121919 -3.65341e-07
-1.23879e-07 -3.65341e-07 2.23367e-05
0.000947353 3.09806e-06 6.97411e-07
3.09806e-06 3.00823e-05 1.3379e-06
6.97411e-07 1.3379e-06 -2.40814e-05
0.000916865 2.72224e-05 8.40784e-07
2.72224e-05 2.05802e-05 1.09078e-06
8.40784e-07 1.09078e-06 -5.2349e-05
0.00113517 6.93208e-05 -6.28095e-09
6.93208e-05 0.000142246 -1.37643e-07
-6.28095e-09 -1.37643e-07 5.317e-05
0.000945738 5.02886e-05 2.99969e-07
5.02886e-05 4.38235e-05 -1.96775e-07
2.99969e-07 -1.96775e-07 -4.14833e-05
0.00100078 5.79054e-05 -1.36673e-07
5.79054e-05 6.85659e-05 -7.44292e-07
-1.36673e-07 -7.44292e-07 -1.97895e-05
0.00137691 5.86072e-05 -1.02205e-06
5.86072e-05 2.66404e-05 -5.31807e-07
-1.02205e-06 -5.31807e-07 -4.21862e-05
0.00143997 9.01193e-05 1.37798e-06
9.01193e-05 0.000189127 -3.46465e-07
1.37798e-06 -3.46465e-07 9.33028e-05
0.000548847 6.62167e-05 8.51887e-07
6.62167e-05 -0.000322459 -6.86149e-07
8.51887e-07 -6.86149e-07 -0.00040527
0.00147212 8.38829e-05 2.68837e-06
8.38829e-05 0.000303281 2.87171e-06
2.68837e-06 2.87171e-06 0.000200288
0.000320443 5.71562e-05 6.21559e-07
5.71562e-05 -0.000319869 1.99501e-07
6.21559e-07 1.99501e-07 -0.000431179
0.000903196 -7.48466e-06 -1.20145e-06
-7.48466e-06 3.93718e-06 -1.93475e-06
-1.20145e-06 -1.93475e-06 -2.78449e-05
0.000865209 2.24444e-06 3.45523e-07
2.24444e-06 -1.21098e-05 5.87456e-07
3.45523e-07 5.87456e-07 -6.34469e-05
0.000882497 9.46088e-06 4.70232e-07
9.46088e-06 5.45344e-07 1.21034e-06
4.70232e-07 1.21034e-06 -6.37632e-05
0.000809861 -6.35358e-06 -4.85783e-07
-6.35358e-06 -4.05107e-05 -1.04842e-06
-4.85783e-07 -1.04842e-06 -8.9403e-05
0.000946205 1.03719e-05 1.59452e-07
1.03719e-05 3.20623e-05 -1.19388e-08
1.59452e-07 -1.19388e-08 -1.46618e-05
0.00102343 2.98072e-06 -2.02051e-08
2.98072e-06 7.40002e-05 -4.84808e-07
-2.02051e-08 -4.84808e-07 1.39466e-05
0.00111893 1.80618e-05 2.57008e-07
1.80618e-05 0.000127374 2.35744e-07
2.57008e-07 2.35744e-07 5.79892e-05
0.000867286 -1.0785e-05 8.18544e-08
-1.0785e-05 -4.35949e-06 1.01162e-06
8.18544e-08 1.01162e-06 -6.43931e-05
0.000942618 -1.71392e-05 6.68837e-08
-1.71392e-05 2.97809e-05 9.55928e-07
6.68837e-08 9.55928e-07 -1.53909e-05
0.000928656 5.31083e-06 6.5643e-07
5.31083e-06 1.04043e-05 1.65361e-06
6.5643e-07 1.65361e-06 -1.52552e-05
0.00092271 -3.89803e-06 -1.26332e-07
-3.89803e-06 8.36299e-06 3.04945e-08
-1.26332e-07 3.04945e-08 -1.79642e-05
0.00139966 -1.26188e-05 1.31181e-06
-1.26188e-05 0.000246833 1.94837e-06
1.31181e-06 1.94837e-06 0.000250444
0.000921563 -4.60425e-06 -5.33433e-07
-4.60425e-06 9.76041e-06 -1.84638e-06
-5.33433e-07 -1.84638e-06 -1.80705e-05
0.00142602 -1.55712e-05 -2.41477e-06
-1.55712e-05 0.000264073 -1.20459e-06
-2.41477e-06 -1.20459e-06 0.000266378
0.00109978 -1.42168e-05 1.18124e-05
-1.42168e-05 9.6213e-05 6.32823e-06
1.18124e-05 6.32823e-06 0.000112702
0.00145631 -1.80551e-05 -6.97619e-06
-1.80551e-05 0.000283391 -4.4996e-06
-6.97619e-06 -4.4996e-06 0.000284122
0.00104989 -1.80119e-05 4.80801e-06
-1.80119e-05 7.53051e-05 2.45773e-06
4.80801e-06 2.45773e-06 9.03107e-05
0.00223607 -3.15524e-05 -5.71717e-06
-3.15524e-05 0.000692927 -1.63998e-06
-5.71717e-06 -1.63998e-06 0.000712269
0.000817033 2.01475e-05 1.83932e-06
2.01475e-05 -4.03908e-05 -3.23375e-06
1.83932e-06 -3.23375e-06 -4.43761e-05
0.000823977 2.25223e-05 -1.11964e-07
2.25223e-05 -3.22806e-05 3.21115e-08
-1.11964e-07 3.21115e-08 -3.83643e-05
0.00230818 3.33462e-05 1.79028e-05
3.33462e-05 0.000735001 -3.74374e-06
1.79028e-05 -3.74374e-06 0.000753292
0.000828741 2.51295e-05 -2.96424e-06
2.51295e-05 -2.47609e-05 3.49891e-06
-2.96424e-06 3.49891e-06 -3.35422e-05
0.00237687 3.73967e-05 -6.48975e-07
3.73967e-05 0.000777028 -6.28095e-08
-6.48975e-07 -6.28095e-08 0.000793444
0.00248634 4.14335e-05 -2.4733e-05
4.14335e-05 0.000839864 3.87644e-06
-2.4733e-05 3.87644e-06 0.000854047
0.00141123 4.68532e-05 -1.18118e-06
4.68532e-05 6.92079e-05 -1.04864e-07
-1.18118e-06 -1.04864e-07 -1.62017e-05
0.00154432 1.6393e-05 -8.91234e-07
1.6393e-05 8.54813e-05 -4.1591e-07
-8.91234e-07 -4.1591e-07 9.56331e-08
0.00153405 2.7588e-05 1.51919e-06
2.7588e-05 7.4009e-05 3.81592e-07
1.51919e-06 3.81592e-07 -3.4538e-06
0.00164505 -8.1845e-06 -9.02419e-07
-8.1845e-06 0.000100892 -9.07999e-07
-9.02419e-07 -9.07999e-07 1.49211e-05
0.00155097 -8.47956e-06 -1.34777e-06
-8.47956e-06 5.61269e-05 -8.47649e-07
-1.34777e-06 -8.47649e-07 -3.7222e-05
0.00152019 1.53245e-05 -3.19213e-06
1.53245e-05 6.41012e-05 -5.00507e-07
-3.19213e-06 -5.00507e-07 -2.64274e-05
0.00159254 5.06654e-06 1.68456e-07
5.06654e-06 7.11568e-05 -3.88635e-07
1.68456e-07 -3.88635e-07 -2.38512e-05
0.00163193 -7.75927e-07 1.3649e-07
-7.75927e-07 8.88956e-05 -3.23764e-07
1.3649e-07 -3.23764e-07 -3.51956e-06
0.00148562 8.23037e-06 -8.94585e-08
8.23037e-06 2.68674e-05 2.31573e-07
-8.94585e-08 2.31573e-07 -5.5032e-05
0.00167857 -1.28229e-05 -1.32395e-07
-1.28229e-05 0.000110006 -5.39977e-07
-1.32395e-07 -5.39977e-07 2.41898e-05
0.001416 4.19113e-05 -3.26507e-07
4.19113e-05 4.75564e-05 -7.50068e-08
-3.26507e-07 -7.50068e-08 -3.39228e-05
0.00160841 2.0694e-05 1.55173e-06
2.0694e-05 9.11612e-05 -5.22338e-07
1.55173e-06 -5.22338e-07 2.14527e-05
0.00163966 1.23951e-05 1.07756e-06
1.23951e-05 8.1663e-05 3.47737e-07
1.07756e-06 3.47737e-07 -1.47576e-05
0.00164725 -7.9426e-06 8.87634e-07
-7.9426e-06 9.31766e-05 7.15318e-07
8.87634e-07 7.15318e-07 3.00684e-06
0.00160609 2.45358e-07 4.84807e-07
2.45358e-07 6.96182e-05 1.45906e-06
4.84807e-07 1.45906e-06 -9.0174e-06
0.00162702 3.70835e-05 -9.87356e-07
3.70835e-05 0.000112622 -4.40535e-07
-9.87356e-07 -4.40535e-07 4.47421e-05
0.00159032 1.30258e-05 -1.97565e-06
1.30258e-05 8.47991e-05 8.13892e-07
-1.97565e-06 8.13892e-07 -7.45146e-06
0.00169979 -8.13752e-06 -2.9971e-06
-8.13752e-06 0.000156536 1.7261e-07
-2.9971e-06 1.7261e-07 7.05889e-05
0.0015276 1.26452e-05 -2.81631e-06
1.26452e-05 5.21193e-05 2.18244e-07
-2.81631e-06 2.18244e-07 -3.84301e-05
0.00158856 -2.71757e-05 -1.14936e-06
-2.71757e-05 8.99728e-05 3.78635e-07
-1.14936e-06 3.78635e-07 6.98663e-06
0.00105429 -4.62925e-05 -1.36945e-06
-4.62925e-05 8.99341e-05 1.04559e-07
-1.36945e-06 1.04559e-07 1.99884e-05
0.000951524 -6.21018e-05 8.36664e-08
-6.21018e-05 3.97711e-05 2.19029e-07
8.36664e-08 2.19029e-07 -3.91446e-05
0.00111521 -7.47983e-05 -1.12581e-06
-7.47983e-05 9.49947e-05 1.91156e-06
-1.12581e-06 1.91156e-06 -2.63637e-07
0.00153163 -6.48152e-05 -4.4323e-07
-6.48152e-05 0.000137022 3.59225e-07
-4.4323e-07 3.59225e-07 5.72203e-05
0.00136978 -4.78513e-05 -3.85144e-07
-4.78513e-05 1.01189e-07 2.20457e-06
-3.85144e-07 2.20457e-06 -6.8868e-05
0.00131648 -6.65453e-05 1.25011e-06
-6.65453e-05 5.22061e-05 9.17422e-07
1.25011e-06 9.17422e-07 -1.92241e-05
0.00129146 -8.25003e-05 -1.85837e-06
-8.25003e-05 0.000117666 -2.6763e-08
-1.85837e-06 -2.6763e-08 1.97593e-05
0.00118284 -7.1515e-05 -1.38748e-06
-7.1515e-05 4.31627e-06 -5.21127e-06
-1.38748e-06 -5.21127e-06 -6.82566e-05
0.00108243 -6.35132e-05 -6.30019e-07
-6.35132e-05 0.000103225 -4.63322e-07
-6.30019e-07 -4.63322e-07 2.57924e-05
0.00105634 -6.38157e-05 -9.86126e-07
-6.38157e-05 9.11217e-05 -1.06164e-06
-9.86126e-07 -1.06164e-06 9.67559e-06
0.00104113 -4.3992e-05 -7.87471e-07
-4.3992e-05 9.10924e-05 7.58149e-07
-7.87471e-07 7.58149e-07 1.16795e-05
0.00062788 2.08511e-05 -9.11191e-07
2.08511e-05 -0.000133595 1.94661e-06
-9.11191e-07 1.94661e-06 -0.00016921
0.000884658 1.00804e-05 -1.9191e-07
1.00804e-05 -3.4961e-06 8.16949e-07
-1.9191e-07 8.16949e-07 -6.20974e-05
0.00159182 1.68669e-05 -1.6123e-07
1.68669e-05 7.08645e-05 1.71991e-07
-1.6123e-07 1.71991e-07 -2.27632e-05
0.00165041 5.64362e-06 -2.08464e-07
5.64362e-06 0.000102426 9.42365e-08
-2.08464e-07 9.42365e-08 1.27717e-05
0.00164449 -3.08527e-05 -1.01804e-06
-3.08527e-05 0.000100388 1.77153e-07
-1.01804e-06 1.77153e-07 2.23125e-05
0.00105668 -6.36455e-05 3.74377e-08
-6.36455e-05 9.21034e-05 1.27706e-07
3.74377e-08 1.27706e-07 1.51343e-05
0.000881125 -6.32561e-05 6.75579e-07
-6.32561e-05 5.69173e-06 -5.63935e-07
6.75579e-07 -5.63935e-07 -8.06185e-05
0.00114584 -8.03371e-05 -1.31887e-07
-8.03371e-05 9.70776e-05 -2.94762e-07
-1.31887e-07 -2.94762e-07 -1.00754e-05
0.00140973 -5.6526e-05 3.78492e-07
-5.6526e-05 3.87074e-05 -4.47584e-07
3.78492e-07 -4.47584e-07 -3.13297e-05
0.00138097 -8.54648e-05 -2.1128e-07
-8.54648e-05 0.000137591 -3.94907e-07
-2.1128e-07 -3.94907e-07 4.10007e-05
0.00139761 -7.32786e-05 -5.93463e-07
-7.32786e-05 6.74366e-05 -7.61276e-07
-5.93463e-07 -7.61276e-07 3.5468e-06
0.000661198 1.93312e-05 4.08339e-09
1.93312e-05 -0.00011919 -6.00214e-07
4.08339e-09 -6.00214e-07 -0.000151823
0.00106467 -6.43588e-05 3.95438e-08
-6.43588e-05 9.36593e-05 1.05458e-07
3.95438e-08 1.05458e-07 1.45622e-05
0.00100881 -6.28559e-05 -7.60536e-07
-6.28559e-05 6.36467e-05 -4.87181e-08
-7.60536e-07 -4.87181e-08 -1.83252e-05
0.00111424 -6.1622e-05 -3.97696e-07
-6.1622e-05 0.000130497 5.75301e-07
-3.97696e-07 5.75301e-07 4.28592e-05
0.00108464 -3.64128e-05 -2.21857e-08
-3.64128e-05 0.000110436 1.36939e-08
-2.21857e-08 1.36939e-08 3.8083e-05
0.000931584 1.9741e-06 2.01815e-08
1.9741e-06 2.15945e-05 1.70563e-07
2.01815e-08 1.70563e-07 -3.26665e-05
0.00173769 2.03362e-05 1.80308e-06
2.03362e-05 0.000137946 1.89146e-07
1.80308e-06 1.89146e-07 4.43929e-05
0.00166196 5.79915e-06 2.0334e-06
5.79915e-06 8.75044e-05 -1.62138e-07
2.0334e-06 -1.62138e-07 -2.36348e-06
0.0014212 -3.6762e-05 2.43219e-06
-3.6762e-05 -1.49272e-05 -3.11626e-06
2.43219e-06 -3.11626e-06 -8.79169e-05
0.00160529 -6.70961e-05 1.0878e-06
-6.70961e-05 9.20617e-05 -1.32726e-06
1.0878e-06 -1.32726e-06 3.75868e-05
0.00102897 -6.47736e-05 1.92478e-08
-6.47736e-05 7.93744e-05 2.54655e-07
1.92478e-08 2.54655e-07 -1.13747e-06
0.0014551 -8.54983e-05 3.27761e-06
-8.54983e-05 0.00011643 2.74124e-06
3.27761e-06 2.74124e-06 3.16374e-05
0.000838134 -6.58943e-05 -8.47958e-08
-6.58943e-05 -1.81846e-05 -2.69754e-06
-8.47958e-08 -2.69754e-06 -0.0001184
0.00141152 -9.14625e-05 2.19496e-06
-9.14625e-05 0.000216185 -3.91628e-07
2.19496e-06 -3.91628e-07 9.97232e-05
0.000670592 1.50176e-05 7.55065e-07
1.50176e-05 -0.000116201 -2.34535e-06
7.55065e-07 -2.34535e-06 -0.000146705
0.00105775 -3.54925e-07 9.17891e-07
-3.54925e-07 8.65979e-05 -1.04268e-06
9.17891e-07 -1.04268e-06 3.71648e-05
0.00114839 -3.07596e-05 1.05435e-07
-3.07596e-05 0.000139938 2.54888e-07
1.05435e-07 2.54888e-07 7.26723e-05
0.00103648 -4.51319e-05 5.76919e-07
-4.51319e-05 9.1346e-05 -9.22907e-07
5.76919e-07 -9.22907e-07 5.66085e-06
0.0010516 -6.48709e-05 1.1634e-07
-6.48709e-05 8.53656e-05 5.69461e-07
1.1634e-07 5.69461e-07 3.62363e-06
0.00103382 -6.44757e-05 5.50567e-07
-6.44757e-05 8.12107e-05 1.45851e-06
5.50567e-07 1.45851e-06 -7.0114e-06
0.000895064 -1.24993e-05 -1.30754e-06
-1.24993e-05 2.22828e-06 -2.09029e-06
-1.30754e-06 -2.09029e-06 -3.24211e-05
0.000964 2.80693e-06 -7.34283e-07
2.80693e-06 4.02629e-05 -1.4244e-06
-7.34283e-07 -1.4244e-06 -1.86804e-05
0.00137846 6.07542e-05 1.25484e-08
6.07542e-05 6.91856e-05 4.55194e-07
1.25484e-08 4.55194e-07 -1.81017e-05
0.00101598 4.00641e-05 -7.14604e-07
4.00641e-05 7.62156e-05 -5.61943e-07
-7.14604e-07 -5.61943e-07 -3.15416e-07
0.00104622 6.00717e-05 -5.19856e-07
6.00717e-05 9.29218e-05 -3.76676e-08
-5.19856e-07 -3.76676e-08 1.28231e-05
0.000939394 5.53809e-05 -6.69839e-07
5.53809e-05 4.30804e-05 1.15371e-07
-6.69839e-07 1.15371e-07 -4.26003e-05
0.00121951 7.71849e-05 -9.87606e-07
7.71849e-05 8.02393e-05 -1.30129e-06
-9.87606e-07 -1.30129e-06 -5.68363e-06
0.00131539 7.87441e-05 3.1119e-07
7.87441e-05 7.61515e-05 5.39638e-07
3.1119e-07 5.39638e-07 -7.56489e-06
0.00076088 5.93966e-05 -3.25444e-07
5.93966e-05 -3.92238e-05 -2.26959e-07
-3.25444e-07 -2.26959e-07 -0.000135551
0.00122918 8.01842e-05 -1.7668e-06
8.01842e-05 0.000136608 -3.00451e-07
-1.7668e-06 -3.00451e-07 3.52252e-05
0.000953713 1.90779e-06 6.77937e-09
1.90779e-06 3.31561e-05 5.60457e-08
6.77937e-09 5.60457e-08 -2.09973e-05
0.000960709 3.17815e-05 3.62637e-07
3.17815e-05 4.38727e-05 4.07062e-07
3.62637e-07 4.07062e-07 -2.92804e-05
0.00113116 6.91171e-05 -1.33747e-07
6.91171e-05 0.000141542 -5.92289e-07
-1.33747e-07 -5.92289e-07 5.31677e-05
0.000998439 5.08926e-05 -1.85935e-07
5.08926e-05 7.15134e-05 -4.25216e-08
-1.85935e-07 -4.25216e-08 -1.3599e-05
0.000991252 5.81109e-05 -9.11409e-07
5.81109e-05 6.70743e-05 -4.17282e-07
-9.11409e-07 -4.17282e-07 -2.10853e-05
0.00163592 6.13214e-05 -1.00346e-06
6.13214e-05 0.000151781 -4.32007e-07
-1.00346e-06 -4.32007e-07 8.28286e-05
0.00145846 9.03546e-05 9.33355e-07
9.03546e-05 0.000194216 3.66192e-08
9.33355e-07 3.66192e-08 9.93506e-05
0.000923144 7.4485e-05 -5.65644e-07
7.4485e-05 -0.000128762 8.05371e-07
-5.65644e-07 8.05371e-07 -0.000209238
0.00122985 7.64538e-05 1.0842e-06
7.64538e-05 0.000184162 1.13917e-06
1.0842e-06 1.13917e-06 8.05565e-05
0.000766883 7.0739e-05 -1.35114e-06
7.0739e-05 -9.80693e-05 -4.47105e-07
-1.35114e-06 -4.47105e-07 -0.000212013
0.000925968 2.18199e-05 7.96892e-07
2.18199e-05 2.28191e-05 1.25848e-06
7.96892e-07 1.25848e-06 -4.52571e-05
0.000919504 4.8558e-05 5.68942e-07
4.8558e-05 2.80913e-05 1.24949e-07
5.68942e-07 1.24949e-07 -5.68466e-05
0.00113447 7.01136e-05 3.72216e-07
7.01136e-05 0.000142527 3.26747e-07
3.72216e-07 3.26747e-07 4.64793e-05
0.000793199 5.34803e-05 7.13357e-07
5.34803e-05 -3.23264e-05 -1.50438e-07
7.13357e-07 -1.50438e-07 -0.000124828
0.00224619 4.79257e-05 9.64526e-08
4.79257e-05 0.000362643 9.81059e-07
9.64526e-08 9.81059e-07 0.000301516
0.00112421 7.26925e-05 2.42516e-06
7.26925e-05 -0.000122066 -7.7507e-07
2.42516e-06 -7.7507e-07 -0.000184244
0.00127863 9.13344e-05 1.82051e-06
9.13344e-05 9.94262e-05 -1.25172e-06
1.82051e-06 -1.25172e-06 -8.71178e-06
0.000693217 6.41027e-05 9.41931e-07
6.41027e-05 -8.81452e-05 1.98696e-06
9.41931e-07 1.98696e-06 -0.00021128
0.0009378 9.00545e-06 -1.84888e-07
9.00545e-06 2.59572e-05 -6.80199e-07
-1.84888e-07 -6.80199e-07 -2.53566e-05
0.000960854 1.74884e-05 1.30157e-07
1.74884e-05 4.14465e-05 4.39137e-07
1.30157e-07 4.39137e-07 -2.28465e-05
0.00104029 2.45858e-05 3.44304e-07
2.45858e-05 8.53343e-05 6.22517e-07
3.44304e-07 6.22517e-07 1.18077e-05
0.000952855 9.15032e-06 -5.96371e-07
9.15032e-06 3.51214e-05 -1.03342e-06
-5.96371e-07 -1.03342e-06 -1.13901e-05
0.000883576 -1.15643e-06 -1.24252e-07
-1.15643e-06 1.49956e-06 -1.26391e-06
-1.24252e-07 -1.26391e-06 -5.94685e-05
0.000947404 -5.03608e-06 4.24618e-07
-5.03608e-06 3.21754e-05 1.50279e-08
4.24618e-07 1.50279e-08 -1.30292e-05
0.00104508 2.26076e-05 -6.05786e-08
2.26076e-05 8.96561e-05 -4.05029e-07
-6.05786e-08 -4.05029e-07 1.86642e-05
0.000909627 1.60906e-07 1.86308e-07
1.60906e-07 1.84194e-05 3.83596e-07
1.86308e-07 3.83596e-07 -4.17626e-05
0.0010963 2.50716e-05 3.59503e-07
2.50716e-05 0.000116599 3.30798e-07
3.59503e-07 3.30798e-07 3.88482e-05
0.000876503 -1.10847e-05 -1.24281e-07
-1.10847e-05 3.75681e-06 9.52026e-07
-1.24281e-07 9.52026e-07 -6.58275e-05
0.000864573 2.59618e-05 3.89335e-07
2.59618e-05 -2.58449e-06 9.84273e-07
3.89335e-07 9.84273e-07 -6.29008e-05
0.000963504 -1.90007e-05 -3.98513e-07
-1.90007e-05 3.95354e-05 9.18878e-07
-3.98513e-07 9.18878e-07 -4.73358e-06
0.000914936 7.51816e-06 5.10804e-07
7.51816e-06 3.84591e-06 1.58418e-06
5.10804e-07 1.58418e-06 -2.17122e-05
0.000919803 -2.41367e-06 -2.59611e-07
-2.41367e-06 5.91404e-06 3.01579e-08
-2.59611e-07 3.01579e-08 -1.96989e-05
0.00139348 -8.32607e-06 1.02176e-06
-8.32607e-06 0.000241095 1.86382e-06
1.02176e-06 1.86382e-06 0.00024533
0.000917613 -9.52931e-06 -9.73392e-08
-9.52931e-06 5.94449e-06 -1.73716e-06
-9.73392e-08 -1.73716e-06 -2.03918e-05
0.0014169 -1.17889e-05 -1.88376e-06
-1.17889e-05 0.000255805 -1.1838e-06
-1.88376e-06 -1.1838e-06 0.000259423
0.00109016 -1.11333e-05 8.98246e-06
-1.11333e-05 8.73662e-05 6.19759e-06
8.98246e-06 6.19759e-06 0.000104947
0.00144218 -1.49166e-05 -5.18117e-06
-1.49166e-05 0.000272232 -4.3874e-06
-5.18117e-06 -4.3874e-06 0.000274649
0.00104339 -1.49845e-05 3.51715e-06
-1.49845e-05 6.72036e-05 2.41577e-06
3.51715e-06 2.41577e-06 8.37409e-05
0.000989746 -1.84039e-05 -2.37091e-06
-1.84039e-05 4.45604e-05 -1.62201e-06
-2.37091e-06 -1.62201e-06 5.96233e-05
0.000826151 1.75696e-05 1.46185e-06
1.75696e-05 -4.0529e-05 -3.2057e-06
1.46185e-06 -3.2057e-06 -4.25581e-05
0.000833064 2.02069e-05 -1.24129e-07
2.02069e-05 -3.24501e-05 1.9161e-08
-1.24129e-07 1.9161e-08 -3.64926e-05
0.00225607 2.88902e-05 1.54826e-05
2.88902e-05 0.000702504 -3.77199e-06
1.54826e-05 -3.77199e-06 0.000722306
0.00084103 2.26735e-05 -2.51195e-06
2.26735e-05 -2.38794e-05 3.30727e-06
-2.51195e-06 3.30727e-06 -3.00437e-05
0.00231035 3.32141e-05 -7.21867e-07
3.32141e-05 0.000736803 -5.56309e-08
-7.21867e-07 -5.56309e-08 0.000754926
0.00238475 3.71151e-05 -2.21311e-05
3.71151e-05 0.000781743 3.84121e-06
-2.21311e-05 3.84121e-06 0.00079795
0.00147167 4.33325e-05 9.57895e-07
4.33325e-05 7.66516e-05 8.83544e-07
9.57895e-07 8.83544e-07 -5.12994e-06
0.00154052 6.56528e-06 -4.38737e-07
6.56528e-06 5.23774e-05 -5.95921e-07
-4.38737e-07 -5.95921e-07 -3.00888e-05
0.00143053 2.05301e-05 2.52685e-06
2.05301e-05 4.01748e-06 -1.95841e-06
2.52685e-06 -1.95841e-06 -6.33284e-05
0.00154494 -1.25229e-05 -1.0745e-06
-1.25229e-05 4.2233e-05 -1.30725e-06
-1.0745e-06 -1.30725e-06 -4.36337e-05
0.00163919 -3.56581e-06 -6.0732e-07
-3.56581e-06 9.40788e-05 -1.44333e-06
-6.0732e-07 -1.44333e-06 1.82813e-06
0.00160583 4.13972e-06 -1.68407e-06
4.13972e-06 7.68886e-05 -5.19314e-07
-1.68407e-06 -5.19314e-07 -1.84241e-05
0.00165758 1.45362e-05 4.35982e-08
1.45362e-05 9.39497e-05 -3.61616e-08
4.35982e-08 -3.61616e-08 -1.65535e-06
0.00161353 -1.20569e-05 -3.76287e-08
-1.20569e-05 7.71537e-05 -2.44166e-07
-3.76287e-08 -2.44166e-07 -1.30745e-05
0.00159177 7.33378e-07 6.71129e-07
7.33378e-07 6.37104e-05 -1.1988e-07
6.71129e-07 -1.1988e-07 -1.45885e-05
0.00150185 3.36587e-05 8.80251e-09
3.36587e-05 4.68322e-05 -5.67242e-07
8.80251e-09 -5.67242e-07 -2.07928e-05
0.00165665 8.18158e-06 7.17124e-07
8.18158e-06 9.55613e-05 6.9439e-07
7.17124e-07 6.9439e-07 1.64275e-06
0.00179376 -1.98084e-05 1.03319e-06
-1.98084e-05 0.000157955 8.88783e-07
1.03319e-06 8.88783e-07 7.42259e-05
0.00160185 1.67112e-05 4.54919e-07
1.67112e-05 5.96992e-05 2.21817e-06
4.54919e-07 2.21817e-06 -1.19446e-05
0.00154628 1.59334e-05 -2.17132e-06
1.59334e-05 5.00914e-05 4.83331e-07
-2.17132e-06 4.83331e-07 -4.29607e-05
0.00168781 4.74614e-06 -2.09298e-06
4.74614e-06 0.00012278 4.70127e-07
-2.09298e-06 4.70127e-07 3.33342e-05
0.00169505 -3.14051e-05 -1.7698e-06
-3.14051e-05 0.000129558 1.63407e-06
-1.7698e-06 1.63407e-06 5.21416e-05
0.00109942 -6.44608e-05 -4.93053e-07
-6.44608e-05 0.000112151 -3.14003e-08
-4.93053e-07 -3.14003e-08 3.51876e-05
0.00118278 -7.24235e-05 -6.13959e-08
-7.24235e-05 0.000154439 6.59783e-07
-6.13959e-08 6.59783e-07 6.89801e-05
0.00111425 -7.89879e-05 -1.81313e-06
-7.89879e-05 8.44779e-05 2.50484e-06
-1.81313e-06 2.50484e-06 -2.31994e-05
0.00147325 -5.70735e-05 -6.90568e-07
-5.70735e-05 6.89895e-05 9.6625e-07
-6.90568e-07 9.6625e-07 -2.22187e-06
0.00110608 -6.98313e-05 -2.20011e-06
-6.98313e-05 -7.50063e-05 -1.0195e-06
-2.20011e-06 -1.0195e-06 -0.000139423
0.00132783 -8.22051e-05 -3.06587e-06
-8.22051e-05 0.000112988 -2.70861e-06
-3.06587e-06 -2.70861e-06 1.9394e-05
0.00108141 -6.48571e-05 -3.49403e-07
-6.48571e-05 0.00010212 -5.48138e-07
-3.49403e-07 -5.48138e-07 2.28668e-05
0.000978113 -6.16468e-05 -1.91063e-06
-6.16468e-05 4.87955e-05 -9.33704e-07
-1.91063e-06 -9.33704e-07 -3.22852e-05
0.00110032 -5.90151e-05 -6.65202e-07
-5.90151e-05 0.000123203 7.07413e-08
-6.65202e-07 7.07413e-08 3.54745e-05
0.000648522 2.11747e-05 -7.78116e-07
2.11747e-05 -0.000125559 1.12217e-06
-7.78116e-07 1.12217e-06 -0.000157954
0.00113575 -3.46967e-05 -4.66851e-07
-3.46967e-05 0.000135613 7.98799e-07
-4.66851e-07 7.98799e-07 6.38813e-05
0.000817352 8.08897e-06 6.27058e-08
8.08897e-06 -3.76423e-05 1.46268e-06
6.27058e-08 1.46268e-06 -9.22569e-05
0.00166033 1.99937e-05 1.76263e-08
1.99937e-05 9.93045e-05 -1.57462e-07
1.76263e-08 -1.57462e-07 5.48688e-06
0.00165432 4.05098e-06 5.15046e-07
4.05098e-06 8.24082e-05 -1.16132e-08
5.15046e-07 -1.16132e-08 -7.42016e-06
0.00149784 -3.71165e-05 -9.50943e-08
-3.71165e-05 2.04743e-05 -4.02299e-07
-9.50943e-08 -4.02299e-07 -5.39211e-05
0.00107229 -6.61319e-05 3.485e-08
-6.61319e-05 9.97765e-05 3.7492e-07
3.485e-08 3.7492e-07 1.90565e-05
0.000880497 -6.68887e-05 -9.32203e-08
-6.68887e-05 5.33718e-06 1.46124e-07
-9.32203e-08 1.46124e-07 -9.29671e-05
0.0014426 -9.18327e-05 -1.36476e-06
-9.18327e-05 0.000230609 1.48731e-06
-1.36476e-06 1.48731e-06 0.000114661
0.00162557 -6.89512e-05 -3.25277e-07
-6.89512e-05 0.000107856 6.1392e-07
-3.25277e-07 6.1392e-07 5.3123e-05
0.00133942 -8.26226e-05 3.77499e-07
-8.26226e-05 5.49254e-05 -9.18222e-07
3.77499e-07 -9.18222e-07 -2.9205e-05
0.000786168 1.52795e-05 1.06824e-07
1.52795e-05 -5.71809e-05 -5.74863e-07
1.06824e-07 -5.74863e-07 -8.6728e-05
0.0010401 9.64944e-06 -2.78431e-07
9.64944e-06 7.78674e-05 9.14058e-08
-2.78431e-07 9.14058e-08 2.86063e-05
0.000949237 -6.17572e-05 -6.51905e-07
-6.17572e-05 3.52163e-05 2.11151e-07
-6.51905e-07 2.11151e-07 -4.65098e-05
0.00106032 -6.51373e-05 5.305e-07
-6.51373e-05 9.40418e-05 1.81196e-07
5.305e-07 1.81196e-07 6.37616e-06
0.001023 -4.24747e-05 -9.75934e-08
-4.24747e-05 8.43366e-05 -2.71103e-07
-9.75934e-08 -2.71103e-07 -7.59574e-07
0.00107698 -3.21813e-05 -5.87665e-07
-3.21813e-05 0.000103879 9.64199e-07
-5.87665e-07 9.64199e-07 3.5753e-05
0.00166813 2.46601e-05 1.07383e-06
2.46601e-05 9.77811e-05 9.11494e-07
1.07383e-06 9.11494e-07 5.39799e-06
0.00167679 -4.04593e-06 2.13228e-06
-4.04593e-06 8.24974e-05 -2.59611e-07
2.13228e-06 -2.59611e-07 -4.36229e-06
0.00154441 -5.02867e-05 1.97089e-06
-5.02867e-05 1.00361e-05 -4.10328e-06
1.97089e-06 -4.10328e-06 -4.27913e-05
0.00223128 -9.39364e-05 2.20399e-06
-9.39364e-05 0.000402033 -4.41365e-07
2.20399e-06 -4.41365e-07 0.000345573
0.00087796 -6.1995e-05 -6.20522e-07
-6.1995e-05 1.28368e-05 -1.17158e-07
-6.20522e-07 -1.17158e-07 -7.43843e-05
0.00138041 -9.3631e-05 2.24373e-06
-9.3631e-05 0.000169239 2.74694e-06
2.24373e-06 2.74694e-06 4.45632e-05
0.00144125 -8.77499e-05 1.1734e-06
-8.77499e-05 0.000276475 -3.65144e-06
1.1734e-06 -3.65144e-06 0.000165997
0.000911026 1.22202e-05 6.06419e-07
1.22202e-05 4.10297e-06 -1.73466e-06
6.06419e-07 -1.73466e-06 -2.25822e-05
0.000942892 -2.8419e-05 8.23778e-07
-2.8419e-05 3.0773e-05 -1.06056e-06
8.23778e-07 -1.06056e-06 -1.28088e-05
0.000791764 1.29603e-05 1.76752e-07
1.29603e-05 -4.79293e-05 -1.68896e-06
1.76752e-07 -1.68896e-06 -9.65793e-05
0.00104274 -2.50653e-05 4.55875e-07
-2.50653e-05 8.5627e-05 -3.62714e-07
4.55875e-07 -3.62714e-07 2.15436e-05
0.000972283 -2.16461e-05 2.78605e-08
-2.16461e-05 5.53967e-05 -7.63803e-07
2.78605e-08 -7.63803e-07 -2.30446e-05
0.00101634 -6.48227e-05 1.95229e-06
-6.48227e-05 8.71518e-05 1.00808e-06
1.95229e-06 1.00808e-06 -8.59189e-06
0.00081085 -5.8699e-05 -1.27807e-07
-5.8699e-05 -4.22684e-05 8.68388e-07
-1.27807e-07 8.68388e-07 -0.000123496
0.00168992 -8.75919e-05 2.03463e-07
-8.75919e-05 0.000422755 1.51191e-06
2.03463e-07 1.51191e-06 0.000329757
0.00096003 2.79367e-07 -4.97397e-07
2.79367e-07 3.61944e-05 -1.35891e-06
-4.97397e-07 -1.35891e-06 -1.79276e-05
0.00100416 3.63533e-05 -3.98822e-07
3.63533e-05 6.68991e-05 -3.52332e-07
-3.98822e-07 -3.52332e-07 -6.44627e-06
0.00188294 6.3844e-05 3.95804e-07
6.3844e-05 0.000270925 2.28657e-07
3.95804e-07 2.28657e-07 0.000201875
0.00105795 5.20273e-05 -6.8269e-07
5.20273e-05 0.000102458 -4.30799e-08
-6.8269e-07 -4.30799e-08 1.75226e-05
0.00113041 6.9035e-05 -6.64227e-07
6.9035e-05 0.000142249 -1.22311e-06
-6.64227e-07 -1.22311e-06 5.45961e-05
0.000959986 5.83199e-05 -1.09967e-06
5.83199e-05 5.48816e-05 8.54407e-08
-1.09967e-06 8.54407e-08 -3.31204e-05
0.00146772 9.03044e-05 -4.80356e-07
9.03044e-05 0.000194594 -4.32878e-08
-4.80356e-07 -4.32878e-08 0.000100724
0.00131885 8.32699e-05 -1.49544e-07
8.32699e-05 7.509e-05 2.81791e-06
-1.49544e-07 2.81791e-06 -3.01789e-06
0.00097534 6.85576e-05 7.34116e-08
6.85576e-05 5.90385e-05 -1.35719e-07
7.34116e-08 -1.35719e-07 -4.51602e-05
0.00116408 8.28399e-05 -3.72173e-06
8.28399e-05 9.89981e-05 -8.04779e-07
-3.72173e-06 -8.04779e-07 -1.74671e-05
0.000907974 2.51392e-05 3.22632e-07
2.51392e-05 1.44519e-05 4.47111e-07
3.22632e-07 4.47111e-07 -5.45602e-05
0.000967186 5.29392e-05 -3.03452e-07
5.29392e-05 5.31304e-05 -5.52228e-07
-3.03452e-07 -5.52228e-07 -3.16477e-05
0.00111729 6.94979e-05 -2.64178e-07
6.94979e-05 0.000134989 -8.2753e-07
-2.64178e-07 -8.2753e-07 3.97013e-05
0.0009927 5.94892e-05 -1.31311e-07
5.94892e-05 6.74326e-05 -2.7199e-07
-1.31311e-07 -2.7199e-07 -2.47949e-05
0.00195003 4.30384e-05 -7.89877e-07
4.30384e-05 0.000214024 -3.47588e-07
-7.89877e-07 -3.47588e-07 0.000152874
0.00125515 7.43043e-05 6.88026e-07
7.43043e-05 -4.65506e-05 -2.42776e-07
6.88026e-07 -2.42776e-07 -0.000110895
0.001543 9.81843e-05 -9.20497e-07
9.81843e-05 0.000227545 -3.33379e-08
-9.20497e-07 -3.33379e-08 0.000121296
0.000812028 6.92551e-05 5.03717e-07
6.92551e-05 -3.61504e-05 5.79227e-07
5.03717e-07 5.79227e-07 -0.000158324
0.00104773 3.8357e-05 2.30712e-07
3.8357e-05 9.15091e-05 1.47484e-07
2.30712e-07 1.47484e-07 1.31857e-05
0.00169985 1.27497e-05 1.68932e-06
1.27497e-05 7.33839e-05 3.45619e-06
1.68932e-06 3.45619e-06 1.67164e-06
0.00116014 6.6073e-05 5.34596e-07
6.6073e-05 0.000155941 6.40536e-07
5.34596e-07 6.40536e-07 6.24931e-05
0.00110209 6.99661e-05 5.16366e-07
6.99661e-05 0.000123965 8.99572e-07
5.16366e-07 8.99572e-07 2.01324e-05
0.00208252 7.57638e-05 3.43905e-06
7.57638e-05 0.000225027 7.55257e-07
3.43905e-06 7.55257e-07 0.000175021
0.00134246 9.5475e-05 4.58797e-06
9.5475e-05 4.04458e-05 -1.44362e-06
4.58797e-06 -1.44362e-06 -5.85733e-05
0.00163731 9.94629e-05 9.86759e-07
9.94629e-05 0.000349097 2.08082e-06
9.86759e-07 2.08082e-06 0.000217761
0.00103482 2.38243e-05 -7.34308e-07
2.38243e-05 7.99379e-05 -3.80755e-07
-7.34308e-07 -3.80755e-07 1.57869e-05
0.00103971 2.41039e-05 1.46937e-09
2.41039e-05 8.5332e-05 -2.67461e-08
1.46937e-09 -2.67461e-08 1.18378e-05
0.00105263 3.12095e-05 4.7713e-07
3.12095e-05 9.55861e-05 3.64992e-07
4.7713e-07 3.64992e-07 1.38885e-05
0.000949826 7.10957e-06 4.28719e-08
7.10957e-06 3.39022e-05 -9.30856e-07
4.28719e-08 -9.30856e-07 -1.16627e-05
0.000958633 7.99277e-06 9.64404e-08
7.99277e-06 4.41605e-05 -2.20891e-07
9.64404e-08 -2.20891e-07 -1.59029e-05
0.0009651 2.02726e-05 -3.42284e-07
2.02726e-05 4.81167e-05 -1.17003e-06
-3.42284e-07 -1.17003e-06 -2.39944e-05
0.00094875 -1.96852e-05 1.11898e-07
-1.96852e-05 3.2372e-05 3.23898e-08
1.11898e-07 3.23898e-08 -1.21626e-05
0.000858519 3.06664e-07 -2.85714e-07
3.06664e-07 -6.78023e-06 3.97081e-07
-2.85714e-07 3.97081e-07 -6.64588e-05
0.00104716 2.01355e-05 1.11722e-07
2.01355e-05 9.04905e-05 -4.65152e-07
1.11722e-07 -4.65152e-07 1.19455e-05
0.000994947 1.10426e-05 1.00651e-07
1.10426e-05 6.6044e-05 4.46976e-07
1.00651e-07 4.46976e-07 -3.60134e-06
0.00109395 3.84391e-05 1.87818e-07
3.84391e-05 0.000113089 -8.44044e-08
1.87818e-07 -8.44044e-08 2.90912e-05
0.000952109 -1.46817e-07 5.60386e-08
-1.46817e-07 4.07593e-05 7.34969e-07
5.60386e-08 7.34969e-07 -3.65069e-05
0.00104193 1.68348e-05 1.04467e-07
1.68348e-05 8.8902e-05 9.84801e-08
1.04467e-07 9.84801e-08 2.1495e-05
0.000963203 1.83874e-05 5.41203e-07
1.83874e-05 4.95195e-05 6.52963e-07
5.41203e-07 6.52963e-07 -9.17521e-06
0.000961602 -6.45711e-06 -3.00976e-07
-6.45711e-06 3.71608e-05 8.26978e-07
-3.00976e-07 8.26978e-07 -6.2943e-06
0.000907524 1.0314e-05 3.14836e-07
1.0314e-05 7.96785e-07 1.55665e-06
3.14836e-07 1.55665e-06 -2.48235e-05
0.000912813 -2.893e-07 -2.05666e-07
-2.893e-07 2.68822e-06 2.02355e-08
-2.05666e-07 2.02355e-08 -2.28332e-05
0.00139628 -4.14249e-06 6.77686e-07
-4.14249e-06 0.000241298 1.81723e-06
6.77686e-07 1.81723e-06 0.000245544
0.000912918 -9.9462e-06 -1.00469e-08
-9.9462e-06 2.41117e-06 -1.5964e-06
-1.00469e-08 -1.5964e-06 -2.31538e-05
0.00141705 -7.64697e-06 -1.34726e-06
-7.64697e-06 0.000253506 -1.18634e-06
-1.34726e-06 -1.18634e-06 0.000257593
0.0010909 -7.7934e-06 6.42115e-06
-7.7934e-06 8.50244e-05 6.19639e-06
6.42115e-06 6.19639e-06 0.000102972
0.00143603 -1.12661e-05 -3.67414e-06
-1.12661e-05 0.000265732 -4.24753e-06
-3.67414e-06 -4.24753e-06 0.000269325
0.00104204 -1.16298e-05 2.35512e-06
-1.16298e-05 6.23548e-05 2.3771e-06
2.35512e-06 2.3771e-06 8.00773e-05
0.000986575 -1.50891e-05 -1.76993e-06
-1.50891e-05 3.79632e-05 -1.56407e-06
-1.76993e-06 -1.56407e-06 5.46239e-05
0.000913295 9.3922e-06 3.92878e-07
9.3922e-06 2.90928e-06 -1.70978e-06
3.92878e-07 -1.70978e-06 -2.17764e-05
0.00083631 1.45739e-05 1.11988e-06
1.45739e-05 -3.9984e-05 -3.14687e-06
1.11988e-06 -3.14687e-06 -4.01478e-05
0.000843072 1.76792e-05 -1.09031e-07
1.76792e-05 -3.19809e-05 2.46638e-08
-1.09031e-07 2.46638e-08 -3.4098e-05
0.00220752 2.42173e-05 1.30707e-05
2.42173e-05 0.000672328 -3.78789e-06
1.30707e-05 -3.78789e-06 0.000693549
0.000849623 2.02848e-05 -2.12392e-06
2.02848e-05 -2.42015e-05 3.20606e-06
-2.12392e-06 3.20606e-06 -2.83098e-05
0.00226102 2.8875e-05 -8.42467e-07
2.8875e-05 0.000705746 -4.9281e-08
-8.42467e-07 -4.9281e-08 0.000725369
0.00231178 3.29844e-05 -1.94997e-05
3.29844e-05 0.000738236 3.82989e-06
-1.94997e-05 3.82989e-06 0.000756202
0.00138007 3.0255e-05 7.62468e-07
3.0255e-05 -1.7193e-05 -5.57563e-07
7.62468e-07 -5.57563e-07 -8.45801e-05
0.00157263 1.19769e-06 -2.91336e-07
1.19769e-06 5.53997e-05 -1.52857e-06
-2.91336e-07 -1.52857e-06 -2.25533e-05
0.0015927 -1.22251e-05 -7.92529e-07
-1.22251e-05 6.72623e-05 -1.28887e-06
-7.92529e-07 -1.28887e-06 -2.29295e-05
0.00165386 1.66689e-05 -1.05125e-06
1.66689e-05 9.57019e-05 -6.43672e-07
-1.05125e-06 -6.43672e-07 9.45973e-07
0.00165515 8.75489e-06 4.23358e-08
8.75489e-06 9.52131e-05 2.06633e-07
4.23358e-08 2.06633e-07 1.46117e-06
0.00172971 -1.85111e-05 -9.11754e-09
-1.85111e-05 0.000125658 -1.16678e-07
-9.11754e-09 -1.16678e-07 4.12672e-05
0.00156187 1.69393e-05 -2.83646e-07
1.69393e-05 4.25284e-05 4.07243e-07
-2.83646e-07 4.07243e-07 -2.82365e-05
0.00167829 9.47924e-07 1.37412e-06
9.47924e-07 0.000108517 6.46998e-07
1.37412e-06 6.46998e-07 1.93313e-05
0.00184893 -1.11687e-05 1.38814e-06
-1.11687e-05 0.000173569 1.41221e-06
1.38814e-06 1.41221e-06 9.43733e-05
0.00110865 -1.03179e-05 2.1797e-06
-1.03179e-05 -0.000221006 1.44505e-06
2.1797e-06 1.44505e-06 -0.000299201
0.00160008 1.98567e-05 -1.16651e-06
1.98567e-05 6.89725e-05 -1.05957e-07
-1.16651e-06 -1.05957e-07 -2.50952e-05
0.00166997 2.15915e-06 -1.96455e-06
2.15915e-06 8.90045e-05 4.33965e-07
-1.96455e-06 4.33965e-07 -8.16407e-07
0.00158794 -3.76409e-05 -2.38319e-06
-3.76409e-05 6.21559e-05 1.15212e-06
-2.38319e-06 1.15212e-06 -1.36185e-05
0.00110907 -6.72848e-05 -3.1566e-07
-6.72848e-05 0.000116979 6.28966e-07
-3.1566e-07 6.28966e-07 3.60579e-05
0.000922521 -6.78722e-05 2.90266e-08
-6.78722e-05 2.84189e-05 2.55956e-06
2.90266e-08 2.55956e-06 -6.79458e-05
0.00142932 -9.08306e-05 -2.53867e-06
-9.08306e-05 0.000222473 3.53843e-06
-2.53867e-06 3.53843e-06 0.000107172
0.00160634 -7.02644e-05 1.9458e-06
-7.02644e-05 0.000104634 2.30792e-06
1.9458e-06 2.30792e-06 4.96621e-05
0.00122175 -7.96802e-05 -4.22317e-06
-7.96802e-05 -7.46819e-06 -2.95502e-06
-4.22317e-06 -2.95502e-06 -9.09396e-05
0.000850671 -5.87381e-05 -1.01854e-06
-5.87381e-05 -1.29671e-05 -1.06531e-07
-1.01854e-06 -1.06531e-07 -9.46925e-05
0.00108142 -6.56501e-05 -1.49649e-07
-6.56501e-05 0.000104165 -1.61142e-06
-1.49649e-07 -1.61142e-06 1.70675e-05
0.00102173 -2.95388e-05 -6.79345e-08
-2.95388e-05 8.21684e-05 8.31083e-08
-6.79345e-08 8.31083e-08 -1.48915e-06
0.000901985 1.51417e-05 -7.38557e-07
1.51417e-05 1.8166e-06 1.19538e-06
-7.38557e-07 1.19538e-06 -2.67475e-05
0.00102786 2.32738e-05 -2.88215e-07
2.32738e-05 7.20421e-05 1.19459e-06
-2.88215e-07 1.19459e-06 2.27908e-05
0.00101906 -2.59096e-05 -9.83819e-07
-2.59096e-05 7.40646e-05 1.77038e-06
-9.83819e-07 1.77038e-06 5.39596e-06
0.00166166 2.45737e-05 1.44459e-07
2.45737e-05 9.55001e-05 2.87948e-07
1.44459e-07 2.87948e-07 3.7968e-06
0.000911202 1.17555e-05 -2.26292e-08
1.17555e-05 3.92536e-06 1.12278e-08
-2.26292e-08 1.12278e-08 -2.27455e-05
0.00084921 -1.79606e-06 -4.84115e-07
-1.79606e-06 -1.78488e-05 2.78065e-08
-4.84115e-07 2.78065e-08 -6.12625e-05
0.00174935 -4.62108e-06 1.65233e-07
-4.62108e-06 0.000116109 -1.51591e-07
1.65233e-07 -1.51591e-07 2.9421e-05
0.00140902 -5.06707e-05 -7.26189e-07
-5.06707e-05 -5.09742e-05 -3.84921e-07
-7.26189e-07 -3.84921e-07 -0.000107934
0.00088159 -6.17677e-05 1.07303e-08
-6.17677e-05 1.53935e-05 9.67455e-07
1.07303e-08 9.67455e-07 -7.07142e-05
0.00136258 -8.5734e-05 -5.62407e-07
-8.5734e-05 0.000236814 3.23655e-07
-5.62407e-07 3.23655e-07 0.000123405
0.00121027 -8.66693e-05 9.33118e-07
-8.66693e-05 8.05156e-05 1.38754e-06
9.33118e-07 1.38754e-06 -4.00415e-05
0.00180409 -8.83199e-05 3.24973e-07
-8.83199e-05 0.000194501 -9.5778e-07
3.24973e-07 -9.5778e-07 0.000138111
0.000990237 -1.01786e-06 7.20942e-07
-1.01786e-06 5.44914e-05 -4.86036e-07
7.20942e-07 -4.86036e-07 7.11277e-06
0.00102208 -1.378e-05 -5.11029e-07
-1.378e-05 7.60604e-05 4.90759e-07
-5.11029e-07 4.90759e-07 1.14883e-05
0.000992094 -6.40735e-05 3.77877e-07
-6.40735e-05 4.73511e-05 4.45283e-07
3.77877e-07 4.45283e-07 -3.48498e-05
0.00126311 -7.41053e-05 -6.621e-07
-7.41053e-05 0.000206892 -5.18309e-07
-6.621e-07 -5.18309e-07 0.000118003
0.000929901 -4.97604e-05 2.55413e-07
-4.97604e-05 4.38945e-05 3.32805e-07
2.55413e-07 3.32805e-07 -5.21864e-05
0.00100217 -1.81022e-05 1.97989e-07
-1.81022e-05 6.93351e-05 -2.77751e-07
1.97989e-07 -2.77751e-07 -8.90819e-06
0.00166778 2.75693e-05 1.50517e-06
2.75693e-05 9.45141e-05 5.40026e-07
1.50517e-06 5.40026e-07 9.01119e-06
0.00192495 -1.63742e-05 2.41612e-06
-1.63742e-05 0.000193773 1.43011e-08
2.41612e-06 1.43011e-08 0.000114937
0.00198944 -8.25044e-05 -6.45237e-07
-8.25044e-05 0.000179634 -4.62009e-06
-6.45237e-07 -4.62009e-06 0.000149334
0.00134961 -9.59444e-05 3.40199e-06
-9.59444e-05 5.05689e-05 2.36709e-06
3.40199e-06 2.36709e-06 -4.39533e-05
0.00113307 -6.93435e-05 -9.96075e-07
-6.93435e-05 0.000137789 -1.06089e-06
-9.96075e-07 -1.06089e-06 4.66923e-05
0.00160859 -0.000103605 7.12983e-07
-0.000103605 0.000348083 -3.26101e-06
7.12983e-07 -3.26101e-06 0.000208334
0.000761983 2.04725e-05 -5.44977e-07
2.04725e-05 -6.27686e-05 -1.3881e-06
-5.44977e-07 -1.3881e-06 -0.000104755
0.000929683 -1.08988e-05 7.91589e-07
-1.08988e-05 2.32808e-05 -1.15766e-06
7.91589e-07 -1.15766e-06 -2.14243e-05
0.00116835 -2.27689e-05 2.69972e-07
-2.27689e-05 0.000156361 -5.87146e-07
2.69972e-07 -5.87146e-07 0.000100086
0.000860454 1.47344e-05 -5.71062e-07
1.47344e-05 -2.99809e-06 -1.06643e-06
-5.71062e-07 -1.06643e-06 -6.75937e-05
0.00113276 -2.0337e-05 -4.72095e-08
-2.0337e-05 0.000135803 -4.5033e-07
-4.72095e-08 -4.5033e-07 6.18647e-05
0.000837692 -2.50638e-05 2.75114e-08
-2.50638e-05 -4.52287e-06 -1.2354e-07
2.75114e-08 -1.2354e-07 -9.32292e-05
0.00118945 -5.42018e-05 3.01161e-06
-5.42018e-05 0.000185934 -1.26762e-07
3.01161e-06 -1.26762e-07 8.22209e-05
0.000947098 -6.91957e-05 -1.1567e-06
-6.91957e-05 5.01454e-05 1.0623e-06
-1.1567e-06 1.0623e-06 -3.7911e-05
0.000890538 2.92332e-05 -2.77124e-07
2.92332e-05 6.51145e-06 -4.12721e-07
-2.77124e-07 -4.12721e-07 -6.3496e-05
0.00101243 5.63201e-05 -1.34913e-06
5.63201e-05 7.69272e-05 -9.89722e-07
-1.34913e-06 -9.89722e-07 -7.62849e-06
0.00165112 3.80636e-05 -1.61651e-06
3.80636e-05 6.48127e-05 -2.3022e-06
-1.61651e-06 -2.3022e-06 3.53983e-06
0.00141867 7.62897e-05 -9.6593e-07
7.62897e-05 4.5329e-05 1.44784e-06
-9.6593e-07 1.44784e-06 -2.12739e-05
0.00120378 6.54023e-05 -1.09987e-06
6.54023e-05 0.000172805 -1.03102e-07
-1.09987e-06 -1.03102e-07 8.08924e-05
0.0011156 6.93072e-05 -1.13593e-06
6.93072e-05 0.000135213 -1.84721e-06
-1.13593e-06 -1.84721e-06 4.06541e-05
0.00185064 0.000106284 -1.85484e-06
0.000106284 0.00037778 4.20722e-07
-1.85484e-06 4.20722e-07 0.000273272
0.000966911 7.5367e-05 -8.10205e-07
7.5367e-05 3.43743e-05 -1.43446e-06
-8.10205e-07 -1.43446e-06 -8.73352e-05
0.00102446 4.29369e-05 -2.33061e-07
4.29369e-05 8.11325e-05 -4.47782e-07
-2.33061e-07 -4.47782e-07 2.26349e-06
0.0015449 1.12197e-05 8.40595e-07
1.12197e-05 -6.0767e-06 5.09197e-07
8.40595e-07 5.09197e-07 -7.79275e-05
0.00105592 6.28027e-05 2.92078e-07
6.28027e-05 0.000103886 5.27395e-07
2.92078e-07 5.27395e-07 1.08742e-05
0.000944334 6.46942e-05 2.21884e-07
6.46942e-05 4.25488e-05 -2.73785e-07
2.21884e-07 -2.73785e-07 -6.25897e-05
0.0016282 6.73228e-05 8.14235e-07
6.73228e-05 6.422e-06 -3.56324e-07
8.14235e-07 -3.56324e-07 -4.56171e-05
0.00165352 0.000105034 9.94385e-07
0.000105034 0.000186995 -5.04537e-07
9.94385e-07 -5.04537e-07 8.88583e-05
0.0015886 9.84102e-05 8.60318e-08
9.84102e-05 0.000329097 4.81617e-07
8.60318e-08 4.81617e-07 0.00019798
0.00109118 4.9236e-05 1.72331e-07
4.9236e-05 0.000121091 3.75263e-07
1.72331e-07 3.75263e-07 3.2494e-05
0.00202843 4.68718e-05 2.8702e-06
4.68718e-05 0.000136002 2.3527e-06
2.8702e-06 2.3527e-06 7.87309e-05
0.00141236 7.4742e-05 -3.1784e-07
7.4742e-05 0.000270542 -2.0447e-07
-3.1784e-07 -2.0447e-07 0.000172715
0.00166574 9.29002e-05 -1.49954e-06
9.29002e-05 0.000395208 1.69423e-06
-1.49954e-06 1.69423e-06 0.000275039
0.00141957 0.000106255 6.57695e-06
0.000106255 -8.7427e-05 -1.22298e-06
6.57695e-06 -1.22298e-06 -0.00015902
0.00103161 8.90869e-05 1.56197e-07
8.90869e-05 -1.94952e-07 2.36266e-06
1.56197e-07 2.36266e-06 -0.000132859
0.0017098 3.23232e-05 1.33953e-05
3.23232e-05 0.000127463 -2.41407e-06
1.33953e-05 -2.41407e-06 0.000108213
0.00104242 2.45746e-05 -3.65006e-07
2.45746e-05 8.69861e-05 -6.44992e-07
-3.65006e-07 -6.44992e-07 1.3472e-05
0.00103502 3.18987e-05 -1.20747e-08
3.18987e-05 8.76348e-05 -1.04411e-07
-1.20747e-08 -1.04411e-07 5.80276e-06
0.00113055 4.4859e-05 2.15021e-07
4.4859e-05 0.000132076 -1.4269e-07
2.15021e-07 -1.4269e-07 4.49984e-05
0.000938889 -1.5113e-05 4.03263e-07
-1.5113e-05 2.74916e-05 -8.28617e-07
4.03263e-07 -8.28617e-07 -1.71636e-05
0.000855625 -1.99817e-05 -2.10639e-08
-1.99817e-05 -8.51544e-06 -2.04929e-07
-2.10639e-08 -2.04929e-07 -6.81211e-05
0.00111401 3.30257e-05 -5.35008e-07
3.30257e-05 0.000128927 -9.72349e-08
-5.35008e-07 -9.72349e-08 5.90843e-05
0.00099663 1.68018e-05 -2.53678e-07
1.68018e-05 6.38681e-05 -1.12621e-06
-2.53678e-07 -1.12621e-06 -1.55363e-05
0.000950294 -1.62998e-05 -2.8106e-07
-1.62998e-05 3.27757e-05 2.39135e-08
-2.8106e-07 2.39135e-08 -1.16167e-05
0.000904687 3.52152e-06 1.86129e-07
3.52152e-06 1.72517e-05 5.875e-08
1.86129e-07 5.875e-08 -4.0736e-05
0.00104242 3.3487e-05 -2.47251e-07
3.3487e-05 8.62379e-05 -6.64304e-07
-2.47251e-07 -6.64304e-07 2.26941e-06
0.00103813 4.03192e-06 -2.29592e-07
4.03192e-06 8.68625e-05 -1.38892e-07
-2.29592e-07 -1.38892e-07 1.9401e-05
0.00102534 3.75267e-06 2.06077e-07
3.75267e-06 7.94405e-05 -7.06486e-09
2.06077e-07 -7.06486e-09 2.7424e-06
0.00106138 2.80723e-05 -2.06686e-07
2.80723e-05 8.98484e-05 5.61489e-07
-2.06686e-07 5.61489e-07 5.83789e-06
0.00106489 2.38471e-05 1.69593e-07
2.38471e-05 0.000103271 -9.1048e-08
1.69593e-07 -9.1048e-08 2.96896e-05
0.00108964 2.17708e-05 1.40424e-07
2.17708e-05 0.000112039 -1.04155e-07
1.40424e-07 -1.04155e-07 4.62629e-05
0.000818613 8.41163e-06 -3.9635e-07
8.41163e-06 -2.7162e-05 6.15981e-07
-3.9635e-07 6.15981e-07 -8.56143e-05
0.000792597 1.16444e-05 4.13277e-07
1.16444e-05 -4.90972e-05 1.21985e-06
4.13277e-07 1.21985e-06 -9.40819e-05
0.00112923 -1.61353e-06 2.45783e-07
-1.61353e-06 0.000134672 9.63414e-08
2.45783e-07 9.63414e-08 7.70241e-05
0.000789069 5.88709e-07 -3.69434e-07
5.88709e-07 -5.05365e-05 1.09488e-06
-3.69434e-07 1.09488e-06 -9.50404e-05
0.000910445 1.18414e-05 2.18668e-07
1.18414e-05 2.54719e-06 1.55453e-06
2.18668e-07 1.55453e-06 -2.3092e-05
0.000907413 1.68665e-06 -2.7587e-07
1.68665e-06 7.22809e-07 8.32043e-09
-2.7587e-07 8.32043e-09 -2.48668e-05
0.000859654 3.40647e-07 1.49297e-07
3.40647e-07 -3.62882e-05 2.96841e-06
1.49297e-07 2.96841e-06 -3.49474e-05
0.000911188 -8.33035e-06 2.32452e-07
-8.33035e-06 1.80484e-06 -1.57254e-06
2.32452e-07 -1.57254e-06 -2.36859e-05
0.00114022 -3.39141e-06 -7.97014e-07
-3.39141e-06 0.000109116 -1.2148e-06
-7.97014e-07 -1.2148e-06 0.000111837
0.00216809 -5.34584e-06 3.74787e-06
-5.34584e-06 0.000639922 3.89308e-06
3.74787e-06 3.89308e-06 0.000663682
0.00143823 -7.24792e-06 -2.26363e-06
-7.24792e-06 0.00026468 -4.17782e-06
-2.26363e-06 -4.17782e-06 0.000268614
0.001048 -8.01565e-06 1.25416e-06
-8.01565e-06 6.24287e-05 2.37581e-06
1.25416e-06 2.37581e-06 8.0615e-05
0.000991967 -1.15209e-05 -1.24956e-06
-1.15209e-05 3.63788e-05 -1.50731e-06
-1.24956e-06 -1.50731e-06 5.4298e-05
0.000921281 6.27923e-06 3.16625e-07
6.27923e-06 5.14784e-06 -1.65952e-06
3.16625e-07 -1.65952e-06 -1.79424e-05
0.000915464 9.00248e-06 -3.08419e-08
9.00248e-06 3.73343e-06 5.28847e-09
-3.08419e-08 5.28847e-09 -2.09301e-05
0.000845554 1.12885e-05 7.19043e-07
1.12885e-05 -3.91674e-05 -3.10106e-06
7.19043e-07 -3.10106e-06 -3.77132e-05
0.00112976 1.59536e-05 -4.45862e-07
1.59536e-05 0.000111501 2.85784e-08
-4.45862e-07 2.85784e-08 0.000112616
0.0021667 1.94078e-05 1.06264e-05
1.94078e-05 0.000646796 -3.813e-06
1.06264e-05 -3.813e-06 0.00066925
0.000859772 1.77893e-05 -1.69183e-06
1.77893e-05 -2.35326e-05 3.18136e-06
-1.69183e-06 3.18136e-06 -2.57368e-05
0.00221089 2.43114e-05 -9.2005e-07
2.43114e-05 0.000674738 -4.14445e-08
-9.2005e-07 -4.14445e-08 0.000695778
0.00226263 2.87828e-05 -1.69742e-05
2.87828e-05 0.00070725 3.83373e-06
-1.69742e-05 3.83373e-06 0.00072672
0.00150113 1.71666e-05 -9.31069e-07
1.71666e-05 1.51336e-05 -1.18055e-06
-9.31069e-07 -1.18055e-06 -5.47447e-05
0.00167559 -1.66502e-05 -6.07689e-07
-1.66502e-05 9.83735e-05 -1.03408e-06
-6.07689e-07 -1.03408e-06 1.33095e-05
0.00164343 5.1736e-06 -1.04167e-06
5.1736e-06 9.01467e-05 -4.95648e-07
-1.04167e-06 -4.95648e-07 -3.5474e-06
0.00166361 2.52825e-06 -1.01715e-07
2.52825e-06 0.000100568 -1.50856e-07
-1.01715e-07 -1.50856e-07 1.14819e-05
0.00167779 -1.08351e-05 -1.91269e-07
-1.08351e-05 9.45414e-05 3.29327e-07
-1.91269e-07 3.29327e-07 1.56001e-05
0.00145051 -1.49294e-05 5.65564e-07
-1.49294e-05 -4.80719e-05 -1.10843e-07
5.65564e-07 -1.10843e-07 -0.000128193
0.00164212 5.06925e-06 2.14697e-06
5.06925e-06 8.66734e-05 1.28722e-07
2.14697e-06 1.28722e-07 6.62166e-06
0.00174856 -3.51862e-05 -2.31148e-06
-3.51862e-05 3.34112e-05 -6.54775e-06
-2.31148e-06 -6.54775e-06 7.18428e-06
0.00180626 -5.79238e-06 3.30725e-06
-5.79238e-06 7.83105e-05 1.77259e-06
3.30725e-06 1.77259e-06 4.70941e-06
0.000949915 7.6751e-07 3.70316e-07
7.6751e-07 3.17875e-05 -8.85443e-07
3.70316e-07 -8.85443e-07 -7.56231e-06
0.00163616 2.43083e-05 -1.56275e-06
2.43083e-05 8.37921e-05 -5.16889e-07
-1.56275e-06 -5.16889e-07 -7.219e-06
0.00181219 -5.38937e-06 -2.20551e-06
-5.38937e-06 0.000145022 4.83964e-07
-2.20551e-06 4.83964e-07 5.85004e-05
0.001302 -5.12286e-05 -4.50855e-07
-5.12286e-05 -9.91965e-05 2.75754e-06
-4.50855e-07 2.75754e-06 -0.000159709
0.000887297 -6.16225e-05 5.27634e-07
-6.16225e-05 1.90676e-05 1.12366e-06
5.27634e-07 1.12366e-06 -6.59398e-05
0.00134497 -8.56189e-05 -9.63325e-07
-8.56189e-05 0.000228331 4.2822e-06
-9.63325e-07 4.2822e-06 0.000112168
0.000970257 -7.80638e-05 -1.16732e-06
-7.80638e-05 -4.40839e-05 5.0213e-07
-1.16732e-06 5.0213e-07 -0.00016114
0.0014559 -8.37802e-05 -2.35385e-06
-8.37802e-05 2.61361e-05 -2.53835e-06
-2.35385e-06 -2.53835e-06 -3.04296e-05
0.00114751 -6.86609e-05 1.14542e-06
-6.86609e-05 0.000123448 -1.05554e-06
1.14542e-06 -1.05554e-06 4.04245e-05
0.000889319 -6.23054e-05 -3.8412e-06
-6.23054e-05 1.79695e-05 -4.08444e-06
-3.8412e-06 -4.08444e-06 -6.699e-05
0.000846148 -4.67332e-05 4.72656e-08
-4.67332e-05 3.49595e-06 5.82087e-07
4.72656e-08 5.82087e-07 -9.3881e-05
0.000913894 1.14336e-05 -7.28026e-07
1.14336e-05 5.11025e-06 1.77296e-06
-7.28026e-07 1.77296e-06 -2.15669e-05
0.00102878 -2.14935e-05 4.54942e-08
-2.14935e-05 8.2124e-05 2.8856e-08
4.54942e-08 2.8856e-08 3.72715e-06
0.00119175 -2.16803e-05 -3.73625e-07
-2.16803e-05 0.000158895 6.58673e-07
-3.73625e-07 6.58673e-07 0.000112524
0.00100423 -1.68335e-06 -1.96313e-07
-1.68335e-06 6.76978e-05 1.47414e-06
-1.96313e-07 1.47414e-06 2.74792e-06
0.000755063 7.81687e-06 5.37692e-08
7.81687e-06 -6.74351e-05 1.03693e-06
5.37692e-08 1.03693e-06 -0.000110247
0.00168239 2.59793e-05 -1.25066e-07
2.59793e-05 9.91192e-05 2.58619e-07
-1.25066e-07 2.58619e-07 1.37761e-05
0.000862262 4.93717e-06 2.84532e-07
4.93717e-06 -1.19699e-05 -4.52107e-07
2.84532e-07 -4.52107e-07 -5.33823e-05
0.000935859 -1.24012e-05 -2.63676e-07
-1.24012e-05 2.70282e-05 2.55921e-08
-2.63676e-07 2.55921e-08 -1.81089e-05
0.000986387 -8.96645e-06 -6.70704e-07
-8.96645e-06 6.30016e-05 4.68227e-07
-6.70704e-07 4.68227e-07 5.62269e-06
0.00181179 -1.59965e-05 9.99086e-07
-1.59965e-05 0.00012975 4.17101e-07
9.99086e-07 4.17101e-07 5.28128e-05
0.0016773 -8.00862e-05 -1.71603e-06
-8.00862e-05 3.81169e-05 -9.684e-07
-1.71603e-06 -9.684e-07 3.8863e-06
0.00096544 -6.49353e-05 -4.45916e-07
-6.49353e-05 4.75667e-05 6.61138e-07
-4.45916e-07 6.61138e-07 -4.16253e-05
0.00113045 -8.78926e-05 6.5855e-07
-8.78926e-05 0.000119058 -6.68444e-07
6.5855e-07 -6.68444e-07 -2.15039e-05
0.00139835 -9.84734e-05 7.95037e-09
-9.84734e-05 7.6798e-05 9.23808e-07
7.95037e-09 9.23808e-07 -1.69512e-05
0.000952675 9.06581e-06 -1.68874e-07
9.06581e-06 4.36853e-05 4.67342e-08
-1.68874e-07 4.67342e-08 -1.95476e-05
0.00108637 -2.5469e-05 -5.24473e-08
-2.5469e-05 0.000113479 -2.45118e-08
-5.24473e-08 -2.45118e-08 3.81269e-05
0.000897134 -6.71724e-05 -2.15939e-06
-6.71724e-05 2.45529e-05 2.96732e-07
-2.15939e-06 2.96732e-07 -6.48419e-05
0.00114574 -4.69244e-05 2.21805e-07
-4.69244e-05 0.000163181 -2.47674e-07
2.21805e-07 -2.47674e-07 6.11781e-05
0.00095394 -3.34814e-05 2.61939e-08
-3.34814e-05 5.42056e-05 6.55871e-07
2.61939e-08 6.55871e-07 -3.40665e-05
0.00157616 2.1387e-05 1.80986e-06
2.1387e-05 2.43915e-05 8.71675e-08
1.80986e-06 8.71675e-08 -5.91814e-05
0.00232666 -5.02059e-05 3.18967e-06
-5.02059e-05 0.000313068 -2.75795e-06
3.18967e-06 -2.75795e-06 0.000271026
0.00206399 -0.000116756 6.26984e-06
-0.000116756 0.00025416 -1.5504e-06
6.26984e-06 -1.5504e-06 0.000189203
0.00146994 -0.000106701 -1.72542e-07
-0.000106701 0.000223876 -1.32891e-06
-1.72542e-07 -1.32891e-06 9.54157e-05
0.00102608 -7.66214e-05 3.43328e-07
-7.66214e-05 0.000100618 -2.23623e-06
3.43328e-07 -2.23623e-06 -1.1735e-05
0.000768621 1.35659e-05 8.58645e-08
1.35659e-05 -4.82993e-05 -1.06992e-06
8.58645e-08 -1.06992e-06 -0.000104524
0.000881696 1.72344e-05 3.12414e-07
1.72344e-05 9.84992e-06 -1.16279e-06
3.12414e-07 -1.16279e-06 -5.19134e-05
0.00112368 1.00222e-05 3.25803e-07
1.00222e-05 0.000136372 -1.99507e-08
3.25803e-07 -1.99507e-08 6.8785e-05
0.00103673 -3.6062e-05 6.45921e-07
-3.6062e-05 9.2772e-05 -7.68146e-07
6.45921e-07 -7.68146e-07 1.85877e-05
0.00106572 -2.30395e-05 1.73177e-08
-2.30395e-05 0.00010604 2.15969e-07
1.73177e-08 2.15969e-07 2.41897e-05
0.00102649 -3.38088e-05 -2.51307e-07
-3.38088e-05 0.000101034 -1.41635e-06
-2.51307e-07 -1.41635e-06 5.39069e-06
0.000959034 -5.48555e-05 4.6937e-06
-5.48555e-05 9.23829e-05 3.48114e-07
4.6937e-06 3.48114e-07 -2.83504e-05
0.00099788 4.64293e-05 -6.87412e-07
4.64293e-05 6.90035e-05 -1.11431e-06
-6.87412e-07 -1.11431e-06 -1.03252e-05
0.000946595 5.90026e-05 -4.55639e-09
5.90026e-05 4.92828e-05 2.08441e-07
-4.55639e-09 2.08441e-07 -4.32402e-05
0.00143203 8.92425e-06 -1.10592e-06
8.92425e-06 -6.63074e-05 -1.78829e-06
-1.10592e-06 -1.78829e-06 -0.000138091
0.00114311 5.86626e-05 -8.01127e-07
5.86626e-05 -0.000227493 -1.80435e-06
-8.01127e-07 -1.80435e-06 -0.000281051
0.00196421 0.000114892 -2.88155e-06
0.000114892 0.000332512 -8.22197e-09
-2.88155e-06 -8.22197e-09 0.000235305
0.000809212 6.02903e-05 -8.89417e-08
6.02903e-05 -2.72433e-05 -1.01635e-06
-8.89417e-08 -1.01635e-06 -0.000133414
0.00147053 9.538e-05 -4.8142e-07
9.538e-05 0.000274066 -5.98564e-07
-4.8142e-07 -5.98564e-07 0.000143787
0.0010883 4.86801e-05 8.40909e-08
4.86801e-05 0.000120122 8.88639e-08
8.40909e-08 8.88639e-08 3.23673e-05
0.00161238 4.36081e-05 -1.50202e-06
4.36081e-05 -7.59942e-05 1.7885e-07
-1.50202e-06 1.7885e-07 -0.000132267
0.00119441 6.85827e-05 -4.47348e-07
6.85827e-05 0.00016498 -2.624e-07
-4.47348e-07 -2.624e-07 6.76834e-05
0.0012802 7.93554e-05 -3.54606e-07
7.93554e-05 0.000212337 4.33776e-07
-3.54606e-07 4.33776e-07 9.23503e-05
0.00169033 0.000107731 1.78396e-06
0.000107731 3.7971e-05 -1.26151e-06
1.78396e-06 -1.26151e-06 -2.95891e-05
0.00125152 9.62538e-05 -1.09139e-06
9.62538e-05 0.000115827 1.28168e-06
-1.09139e-06 1.28168e-06 -2.31612e-05
0.00181747 1.67682e-05 -2.47769e-06
1.67682e-05 9.19899e-05 -3.1903e-06
-2.47769e-06 -3.1903e-06 7.4463e-05
0.0011265 5.71787e-05 -6.51618e-07
5.71787e-05 0.000134471 -7.56326e-07
-6.51618e-07 -7.56326e-07 4.16093e-05
0.00218412 0.000114686 9.36603e-06
0.000114686 0.000184149 -1.3719e-06
9.36603e-06 -1.3719e-06 0.000140012
0.00129539 7.65427e-05 -1.69378e-06
7.65427e-05 0.000223849 -6.50091e-07
-1.69378e-06 -6.50091e-07 0.000121786
0.00102457 7.79214e-05 -1.60593e-06
7.79214e-05 0.000111599 1.4092e-06
-1.60593e-06 1.4092e-06 -3.45583e-05
0.00052153 0.000106124 2.55668e-07
0.000106124 -0.00034011 1.82609e-07
2.55668e-07 1.82609e-07 -0.00046234
0.00608918 -0.000119215 -2.06561e-05
-0.000119215 0.00210657 -2.35778e-07
-2.06561e-05 -2.35778e-07 0.00158516
0.00265587 -0.000113159 5.84658e-05
-0.000113159 0.000282437 9.84799e-06
5.84658e-05 9.84799e-06 3.72179e-05
0.00119443 0.000117972 1.0478e-05
0.000117972 -0.000191481 5.10921e-06
1.0478e-05 5.10921e-06 -0.000113739
-0.00265746 -0.000164492 -4.00192e-05
-0.000164492 -0.00139827 -2.19203e-05
-4.00192e-05 -2.19203e-05 -0.00134591
0.00151724 -0.000238763 -1.2574e-05
-0.000238763 -5.06767e-05 -2.17392e-06
-1.2574e-05 -2.17392e-06 0.000520932
0.00102137 3.20922e-05 -3.90959e-07
3.20922e-05 8.14961e-05 -6.33178e-07
-3.90959e-07 -6.33178e-07 -4.26193e-07
0.00110028 4.28478e-05 6.36133e-08
4.28478e-05 0.000118248 -7.30497e-08
6.36133e-08 -7.30497e-08 3.14556e-05
0.0011108 4.66392e-05 1.78294e-07
4.66392e-05 0.000112417 1.16367e-07
1.78294e-07 1.16367e-07 2.51875e-05
0.000938644 -2.77653e-05 2.54623e-07
-2.77653e-05 2.82092e-05 -8.17712e-07
2.54623e-07 -8.17712e-07 -1.71162e-05
0.000838319 1.52216e-05 5.31767e-08
1.52216e-05 -1.63854e-05 -6.63491e-07
5.31767e-08 -6.63491e-07 -7.52853e-05
0.00103165 -1.08194e-05 9.34359e-08
-1.08194e-05 8.28477e-05 -3.84741e-07
9.34359e-08 -3.84741e-07 1.57639e-05
0.00109393 1.08258e-05 -8.9875e-08
1.08258e-05 0.000115909 -4.79455e-07
-8.9875e-08 -4.79455e-07 3.97929e-05
0.00101041 2.76112e-05 -4.54167e-07
2.76112e-05 6.88793e-05 -1.22072e-06
-4.54167e-07 -1.22072e-06 -1.50261e-05
0.00101213 2.73498e-05 -3.27465e-07
2.73498e-05 7.29728e-05 -4.34818e-07
-3.27465e-07 -4.34818e-07 5.82081e-06
0.000870193 6.48863e-06 1.54186e-07
6.48863e-06 -8.4129e-06 4.22324e-07
1.54186e-07 4.22324e-07 -5.34607e-05
0.000907624 3.79756e-06 -1.52335e-07
3.79756e-06 1.8815e-05 4.16943e-08
-1.52335e-07 4.16943e-08 -3.93636e-05
0.00104304 2.88174e-05 -4.5295e-08
2.88174e-05 8.27523e-05 1.74982e-07
-4.5295e-08 1.74982e-07 -9.00502e-07
0.00104382 2.18186e-05 2.35913e-08
2.18186e-05 9.11136e-05 -2.11377e-07
2.35913e-08 -2.11377e-07 1.75077e-05
0.00101107 3.94931e-05 4.3367e-08
3.94931e-05 7.62371e-05 -3.34048e-07
4.3367e-08 -3.34048e-07 3.3089e-06
0.00109168 4.8425e-05 2.26041e-07
4.8425e-05 0.000112743 5.36694e-07
2.26041e-07 5.36694e-07 3.15625e-05
0.000875794 1.86074e-05 1.37595e-07
1.86074e-05 -7.58128e-07 8.24852e-07
1.37595e-07 8.24852e-07 -6.7661e-05
0.000849824 3.59068e-06 3.60363e-07
3.59068e-06 -1.26269e-05 9.75691e-08
3.60363e-07 9.75691e-08 -7.07952e-05
0.000767192 -2.76407e-05 -1.13645e-06
-2.76407e-05 -6.07e-05 1.17866e-06
-1.13645e-06 1.17866e-06 -0.000106106
0.00101313 8.31554e-06 -6.32946e-08
8.31554e-06 7.18789e-05 3.97727e-07
-6.32946e-08 3.97727e-07 1.48047e-05
0.00112817 4.30673e-05 1.46944e-07
4.30673e-05 0.000132725 1.37819e-07
1.46944e-07 1.37819e-07 6.63746e-05
0.000963517 -3.34895e-06 -3.45048e-07
-3.34895e-06 4.90146e-05 6.11312e-07
-3.45048e-07 6.11312e-07 -9.62749e-06
0.000991884 7.9624e-06 3.4453e-07
7.9624e-06 6.23419e-05 -4.27479e-07
3.4453e-07 -4.27479e-07 5.12625e-06
0.000946364 -1.9613e-05 -8.54157e-07
-1.9613e-05 3.11859e-05 7.23651e-07
-8.54157e-07 7.23651e-07 -1.30295e-05
0.000787958 4.10295e-06 1.49904e-07
4.10295e-06 -4.97694e-05 4.00624e-07
1.49904e-07 4.00624e-07 -9.51482e-05
0.000912341 1.09507e-05 -5.8622e-08
1.09507e-05 3.49016e-06 1.55499e-06
-5.8622e-08 1.55499e-06 -2.2228e-05
0.000906662 3.01541e-06 -2.04538e-07
3.01541e-06 5.60997e-07 -5.50375e-10
-2.04538e-07 -5.50375e-10 -2.5002e-05
0.000877461 3.65713e-06 -3.5087e-07
3.65713e-06 -2.64453e-05 4.16512e-06
-3.5087e-07 4.16512e-06 -2.53075e-05
0.000906745 -7.22169e-06 3.85381e-07
-7.22169e-06 3.70026e-07 -1.55299e-06
3.85381e-07 -1.55299e-06 -2.51826e-05
0.000861692 3.01544e-07 9.47737e-08
3.01544e-07 -3.52516e-05 6.72535e-09
9.47737e-08 6.72535e-09 -3.39152e-05
0.00216733 -9.23145e-07 1.80585e-08
-9.23145e-07 0.000638948 3.90593e-06
1.80585e-08 3.90593e-06 0.000662793
0.000879452 -2.96516e-06 -4.61102e-07
-2.96516e-06 -2.54128e-05 -4.1984e-06
-4.61102e-07 -4.1984e-06 -2.42317e-05
0.00160467 -4.64609e-06 -1.57954e-07
-4.64609e-06 0.000348555 1.79533e-08
-1.57954e-07 1.79533e-08 0.000369587
0.00100461 -7.66853e-06 -7.78692e-07
-7.66853e-06 3.95968e-05 -1.47705e-06
-7.78692e-07 -1.47705e-06 5.80564e-05
0.000924612 3.16307e-06 1.15036e-07
3.16307e-06 5.47019e-06 -1.69448e-06
1.15036e-07 -1.69448e-06 -1.65679e-05
0.000919078 5.79821e-06 1.82975e-08
5.79821e-06 3.73086e-06 -2.17656e-09
1.82975e-08 -2.17656e-09 -1.93119e-05
0.000854264 7.71675e-06 4.85053e-07
7.71675e-06 -3.76286e-05 -3.05339e-06
4.85053e-07 -3.05339e-06 -3.48529e-05
0.000916919 8.64504e-06 -5.36869e-07
8.64504e-06 4.18042e-06 1.70995e-06
-5.36869e-07 1.70995e-06 -2.04559e-05
0.00112183 1.22576e-05 -1.76872e-07
1.22576e-05 0.000103357 -5.94461e-07
-1.76872e-07 -5.94461e-07 0.000106174
0.00213107 1.45668e-05 7.94499e-06
1.45668e-05 0.000624765 -3.81526e-06
7.94499e-06 -3.81526e-06 0.000648258
0.000858593 1.4832e-05 -1.30938e-06
1.4832e-05 -2.84867e-05 3.15826e-06
-1.30938e-06 3.15826e-06 -2.89345e-05
0.00219125 1.89972e-05 -4.21281e-06
1.89972e-05 0.000660383 1.1047e-06
-4.21281e-06 1.1047e-06 0.000682559
0.00221845 2.43642e-05 -1.44196e-05
2.43642e-05 0.000679285 3.86034e-06
-1.44196e-05 3.86034e-06 0.000700131
0.00146203 -9.56365e-06 -8.4409e-07
-9.56365e-06 -6.10082e-06 -5.32397e-07
-8.4409e-07 -5.32397e-07 -8.48168e-05
0.0016424 3.52073e-06 -1.33885e-06
3.52073e-06 8.94141e-05 -1.00922e-06
-1.33885e-06 -1.00922e-06 4.14193e-07
0.00165606 -1.75883e-05 -3.88091e-07
-1.75883e-05 5.96386e-05 -1.3204e-06
-3.88091e-07 -1.3204e-06 -2.26944e-05
0.00166031 -3.40914e-05 -1.93624e-06
-3.40914e-05 8.5747e-06 -6.3964e-07
-1.93624e-06 -6.3964e-07 -2.61994e-05
0.00153839 3.05515e-06 -9.5256e-07
3.05515e-06 2.93372e-05 -2.82989e-07
-9.5256e-07 -2.82989e-07 -5.20079e-05
0.00162626 -7.98589e-07 5.51062e-07
-7.98589e-07 6.91967e-06 2.12497e-07
5.51062e-07 2.12497e-07 -7.04594e-05
0.00216298 2.53801e-05 2.27583e-06
2.53801e-05 0.000276994 2.34259e-06
2.27583e-06 2.34259e-06 0.000180822
0.00193671 -9.97654e-05 0.000142779
-9.97654e-05 0.00017936 3.43046e-05
0.000142779 3.43046e-05 -4.3964e-05
0.00129469 -2.47594e-05 -7.7871e-06
-2.47594e-05 -6.66471e-05 2.07312e-06
-7.7871e-06 2.07312e-06 -0.000127763
0.000947338 5.11946e-06 -4.41423e-07
5.11946e-06 3.13949e-05 -9.47296e-07
-4.41423e-07 -9.47296e-07 -8.01421e-06
0.000950635 -1.48351e-05 4.05308e-07
-1.48351e-05 3.2897e-05 -1.56087e-08
4.05308e-07 -1.56087e-08 -7.07842e-06
0.000956024 -7.03647e-06 -1.37373e-07
-7.03647e-06 4.56713e-05 -3.84438e-07
-1.37373e-07 -3.84438e-07 -6.17908e-06
0.000965832 -1.84312e-05 -3.81704e-07
-1.84312e-05 5.38377e-05 -1.62938e-07
-3.81704e-07 -1.62938e-07 1.8684e-07
0.00170235 2.44012e-05 -1.07843e-06
2.44012e-05 0.000106296 -7.82428e-07
-1.07843e-06 -7.82428e-07 2.11134e-05
0.00174146 -1.59663e-05 -1.78235e-07
-1.59663e-05 8.88053e-05 1.46683e-06
-1.78235e-07 1.46683e-06 1.33791e-05
0.00133295 -7.77691e-05 -4.6489e-06
-7.77691e-05 -0.000119107 1.39114e-06
-4.6489e-06 1.39114e-06 -0.000158252
0.0008646 -6.25771e-05 2.88765e-07
-6.25771e-05 -8.43188e-06 2.59842e-06
2.88765e-07 2.59842e-06 -9.59803e-05
0.000701306 -7.32613e-05 9.55496e-07
-7.32613e-05 -8.56477e-05 2.35471e-06
9.55496e-07 2.35471e-06 -0.000226153
0.00134695 -9.85378e-05 -2.59014e-06
-9.85378e-05 5.29029e-05 -1.05108e-06
-2.59014e-06 -1.05108e-06 -3.95464e-05
0.00085286 -6.53108e-05 -4.40096e-06
-6.53108e-05 2.28966e-06 6.01779e-07
-4.40096e-06 6.01779e-07 -8.85471e-05
0.00107821 -3.80069e-05 -9.4713e-07
-3.80069e-05 0.000127968 -1.63027e-07
-9.4713e-07 -1.63027e-07 2.79517e-05
0.0010684 -4.24255e-05 -4.76553e-07
-4.24255e-05 0.000112151 1.39255e-06
-4.76553e-07 1.39255e-06 2.42852e-05
0.000940182 -6.48839e-07 -7.80271e-07
-6.48839e-07 2.92994e-05 1.18686e-06
-7.80271e-07 1.18686e-06 -1.59508e-05
0.00103915 -3.28819e-05 -9.34969e-08
-3.28819e-05 9.05926e-05 5.76342e-07
-9.34969e-08 5.76342e-07 1.39172e-05
0.00103841 1.03898e-05 -5.99796e-07
1.03898e-05 8.68823e-05 9.59557e-07
-5.99796e-07 9.59557e-07 2.51646e-05
0.00096144 -5.11518e-06 -8.20703e-08
-5.11518e-06 3.86245e-05 4.53645e-07
-8.20703e-08 4.53645e-07 -2.42167e-06
0.00079048 1.56697e-05 4.70189e-08
1.56697e-05 -3.64663e-05 1.4561e-06
4.70189e-08 1.4561e-06 -9.5398e-05
0.00167295 2.04879e-05 -4.03528e-07
2.04879e-05 7.7194e-05 1.26568e-06
-4.03528e-07 1.26568e-06 -5.12453e-06
0.000950016 1.15234e-05 2.2462e-07
1.15234e-05 4.3716e-05 -4.92389e-07
2.2462e-07 -4.92389e-07 -1.0776e-05
0.000921691 4.06209e-06 4.39832e-07
4.06209e-06 3.03554e-05 8.10524e-09
4.39832e-07 8.10524e-09 -3.04051e-05
0.00100456 2.64635e-05 -2.21893e-07
2.64635e-05 7.46094e-05 9.18794e-07
-2.21893e-07 9.18794e-07 7.51636e-06
0.0019621 -4.99807e-05 -3.01853e-06
-4.99807e-05 0.000135276 5.51756e-07
-3.01853e-06 5.51756e-07 8.87093e-05
0.00145378 -0.000102286 -8.87852e-07
-0.000102286 -3.94779e-05 -1.35949e-06
-8.87852e-07 -1.35949e-06 -0.000102725
0.00104369 -7.73645e-05 1.14247e-07
-7.73645e-05 0.000103436 -2.66694e-07
1.14247e-07 -2.66694e-07 -7.21202e-06
0.00148085 -0.000107124 1.15139e-07
-0.000107124 0.000234573 -4.13439e-07
1.15139e-07 -4.13439e-07 0.000103213
0.00107448 -2.07446e-05 -2.69843e-07
-2.07446e-05 0.000111047 8.92861e-08
-2.69843e-07 8.92861e-08 3.80954e-05
0.00101186 -2.65072e-05 -8.92461e-08
-2.65072e-05 7.90355e-05 7.35584e-07
-8.92461e-08 7.35584e-07 -2.90672e-06
0.000975482 -5.53696e-05 2.02421e-06
-5.53696e-05 9.47762e-05 -4.90903e-07
2.02421e-06 -4.90903e-07 -2.09815e-05
0.00113142 -4.33108e-05 9.21251e-08
-4.33108e-05 0.000154471 -5.66015e-07
9.21251e-08 -5.66015e-07 5.64115e-05
0.00120226 1.06883e-05 2.8816e-06
1.06883e-05 -0.000229923 9.58292e-08
2.8816e-06 9.58292e-08 -0.000300273
0.00223833 -0.000113711 1.16463e-05
-0.000113711 0.000188698 -5.44015e-06
1.16463e-05 -5.44015e-06 0.000138927
0.00200056 -0.000125423 4.271e-06
-0.000125423 0.000382482 -2.29817e-06
4.271e-06 -2.29817e-06 0.000259061
0.00111785 -9.14148e-05 -1.81965e-07
-9.14148e-05 0.000147055 -1.19317e-06
-1.81965e-07 -1.19317e-06 2.28201e-05
0.000920043 1.72262e-05 -6.07353e-07
1.72262e-05 3.40953e-05 -5.58082e-07
-6.07353e-07 -5.58082e-07 -3.70057e-05
0.00094555 -3.78702e-05 9.45045e-07
-3.78702e-05 4.92747e-05 -1.35864e-06
9.45045e-07 -1.35864e-06 -2.331e-05
0.00101307 -4.80424e-05 5.51459e-07
-4.80424e-05 8.39418e-05 -9.30258e-07
5.51459e-07 -9.30258e-07 -2.14899e-06
0.00108906 -2.41458e-05 -7.01176e-07
-2.41458e-05 0.000147942 -3.29472e-07
-7.01176e-07 -3.29472e-07 2.28635e-05
0.000390814 -9.08802e-06 -1.17966e-05
-9.08802e-06 -0.000522639 -9.31027e-07
-1.17966e-05 -9.31027e-07 -0.00103073
0.00107874 4.98551e-05 -1.60771e-07
4.98551e-05 0.000116257 -3.77815e-07
-1.60771e-07 -3.77815e-07 2.91205e-05
0.000958956 6.24278e-05 7.34482e-07
6.24278e-05 5.05629e-05 4.02453e-07
7.34482e-07 4.02453e-07 -4.61968e-05
0.00116969 4.05728e-05 -2.75328e-06
4.05728e-05 -0.000304836 -1.33947e-06
-2.75328e-06 -1.33947e-06 -0.000360629
0.00165747 0.000102179 -3.91266e-06
0.000102179 1.55956e-05 7.49965e-07
-3.91266e-06 7.49965e-07 -4.97423e-05
0.00141489 0.000102015 -2.47337e-06
0.000102015 0.000205818 -2.36607e-07
-2.47337e-06 -2.36607e-07 5.9755e-05
0.000870091 6.49633e-05 1.24812e-06
6.49633e-05 1.71756e-05 3.1674e-07
1.24812e-06 3.1674e-07 -0.000103098
0.00187142 1.13126e-05 -1.14217e-05
1.13126e-05 3.84299e-05 -4.41528e-07
-1.14217e-05 -4.41528e-07 2.31591e-05
0.00109883 5.73144e-05 1.06304e-07
5.73144e-05 0.000123384 -1.93102e-07
1.06304e-07 -1.93102e-07 3.0696e-05
0.00185861 0.000109749 -7.66613e-07
0.000109749 1.71472e-05 1.97805e-09
-7.66613e-07 1.97805e-09 -2.75713e-05
0.00108763 6.93917e-05 6.56303e-07
6.93917e-05 0.000123484 -2.76962e-08
6.56303e-07 -2.76962e-08 2.16715e-05
0.00105691 7.95604e-05 -2.27675e-07
7.95604e-05 0.000128532 -1.53858e-07
-2.27675e-07 -1.53858e-07 -1.5583e-05
0.000761731 0.000110419 -2.71199e-06
0.000110419 -0.000232335 -1.37982e-07
-2.71199e-06 -1.37982e-07 -0.000349671
0.00165179 -0.000129394 -1.42797e-05
-0.000129394 0.000102287 -5.30577e-06
-1.42797e-05 -5.30577e-06 -0.000407885
0.00275389 -0.000126923 5.19299e-06
-0.000126923 0.000210055 -5.91399e-06
5.19299e-06 -5.91399e-06 -0.00010679
0.000918303 0.000110125 3.13736e-06
0.000110125 -0.000341258 -3.21793e-07
3.13736e-06 -3.21793e-07 -0.00025742
-0.000369854 -0.000184814 -4.74495e-06
-0.000184814 -0.00038084 -3.4178e-06
-4.74495e-06 -3.4178e-06 -0.00043445
0.000449123 -0.000251796 7.85342e-07
-0.000251796 -0.000578298 4.17218e-07
7.85342e-07 4.17218e-07 -2.81833e-05
0.00110437 5.96441e-05 5.76197e-07
5.96441e-05 0.000130955 -6.05469e-07
5.76197e-07 -6.05469e-07 3.92088e-05
-0.000208193 3.21537e-05 -9.74345e-05
3.21537e-05 -0.000336462 -1.25596e-05
-9.74345e-05 -1.25596e-05 -0.000550254
0.00201071 -0.0001352 -9.64927e-06
-0.0001352 0.000694474 -9.26011e-06
-9.64927e-06 -9.26011e-06 0.000965995
0.00123809 0.000128316 3.81575e-06
0.000128316 -0.00020148 3.04383e-06
3.81575e-06 3.04383e-06 -0.000203556
0.000809083 3.27963e-05 -5.34746e-07
3.27963e-05 -4.95511e-06 -7.62104e-07
-5.34746e-07 -7.62104e-07 -0.000117081
0.00159273 7.10451e-05 -4.33661e-06
7.10451e-05 0.000437013 2.3018e-06
-4.33661e-06 2.3018e-06 0.000254298
0.00148024 0.000122476 2.84426e-06
0.000122476 0.000139569 8.43509e-06
2.84426e-06 8.43509e-06 9.95186e-05
0.00567052 -0.000243028 -6.62812e-05
-0.000243028 0.00173672 -1.84599e-05
-6.62812e-05 -1.84599e-05 0.000960645
0.00198891 -4.38692e-05 2.65736e-05
-4.38692e-05 -0.000240348 2.30486e-05
2.65736e-05 2.30486e-05 -0.000611023
-9.78105e-05 -0.000261606 -5.33844e-05
-0.000261606 -0.000185113 -2.51966e-05
-5.33844e-05 -2.51966e-05 -9.82369e-05
-0.000297884 -0.00012121 -7.57317e-06
-0.00012121 -0.00120808 7.79191e-07
-7.57317e-06 7.79191e-07 -0.000914373
0.00104315 3.84728e-05 -4.29486e-07
3.84728e-05 9.10382e-05 -4.79222e-07
-4.29486e-07 -4.79222e-07 4.71725e-06
0.00110667 4.89819e-05 -4.76481e-07
4.89819e-05 0.000112331 1.60339e-07
-4.76481e-07 1.60339e-07 2.48324e-05
0.00121952 6.4211e-05 -5.8789e-07
6.4211e-05 0.000159998 -3.62974e-07
-5.8789e-07 -3.62974e-07 7.26633e-05
0.000941826 2.89989e-06 4.34984e-08
2.89989e-06 2.9628e-05 -4.30833e-07
4.34984e-08 -4.30833e-07 -1.57182e-05
0.000991464 -1.04646e-05 1.09454e-07
-1.04646e-05 6.15095e-05 -5.98675e-07
1.09454e-07 -5.98675e-07 4.0221e-06
0.000942401 1.09192e-05 -1.92994e-07
1.09192e-05 3.50759e-05 -8.60459e-07
-1.92994e-07 -8.60459e-07 -3.17958e-05
0.00102708 2.08044e-05 1.52829e-07
2.08044e-05 8.1156e-05 -4.94741e-07
1.52829e-07 -4.94741e-07 7.4337e-06
0.00102237 2.59133e-05 -1.13618e-07
2.59133e-05 7.43614e-05 -4.31013e-07
-1.13618e-07 -4.31013e-07 -8.89289e-06
0.000781977 -4.83342e-06 2.8462e-07
-4.83342e-06 -5.35378e-05 4.05355e-07
2.8462e-07 4.05355e-07 -9.8892e-05
0.000989044 3.07321e-05 -2.41212e-07
3.07321e-05 6.41041e-05 -5.18567e-07
-2.41212e-07 -5.18567e-07 -8.16731e-06
0.001019 -6.5537e-07 -1.3931e-07
-6.5537e-07 7.34947e-05 4.23839e-07
-1.3931e-07 4.23839e-07 6.90304e-06
0.000929222 1.45374e-05 2.19134e-07
1.45374e-05 2.84474e-05 -2.64033e-07
2.19134e-07 -2.64033e-07 -2.95928e-05
0.00102145 4.54789e-05 4.31367e-09
4.54789e-05 7.55787e-05 1.52314e-07
4.31367e-09 1.52314e-07 -6.07408e-06
0.000977541 2.7523e-05 5.4886e-08
2.7523e-05 5.15904e-05 3.45116e-07
5.4886e-08 3.45116e-07 -2.3573e-05
0.00116614 5.41646e-05 -5.0671e-08
5.41646e-05 0.000156309 1.91554e-07
-5.0671e-08 1.91554e-07 6.8299e-05
0.00100209 -3.77128e-05 -3.14017e-07
-3.77128e-05 6.41231e-05 2.58642e-07
-3.14017e-07 2.58642e-07 -1.35715e-06
0.00101279 -2.34751e-05 -3.42717e-07
-2.34751e-05 7.02634e-05 -2.3759e-08
-3.42717e-07 -2.3759e-08 1.33761e-05
0.00102112 -1.78612e-07 -2.05819e-07
-1.78612e-07 7.50977e-05 -8.65425e-09
-2.05819e-07 -8.65425e-09 1.86191e-05
0.00102219 2.67548e-05 -2.40683e-07
2.67548e-05 7.64485e-05 -4.10335e-07
-2.40683e-07 -4.10335e-07 1.02782e-05
0.00101046 1.86885e-05 6.05143e-08
1.86885e-05 7.13786e-05 5.29877e-07
6.05143e-08 5.29877e-07 4.39385e-06
0.000996828 1.52101e-05 1.03176e-08
1.52101e-05 6.40044e-05 6.1068e-07
1.03176e-08 6.1068e-07 -3.115e-06
0.00107313 2.44422e-05 -5.84957e-08
2.44422e-05 9.97061e-05 -2.18326e-07
-5.84957e-08 -2.18326e-07 2.76767e-05
0.000966452 -1.51847e-05 4.53576e-08
-1.51847e-05 5.82633e-05 1.13439e-06
4.53576e-08 1.13439e-06 -1.74111e-05
0.00096105 1.08143e-06 -1.44126e-07
1.08143e-06 4.52367e-05 7.06164e-07
-1.44126e-07 7.06164e-07 -1.39864e-05
0.000956114 -4.51768e-06 3.72955e-08
-4.51768e-06 4.47111e-05 -3.28285e-08
3.72955e-08 -3.28285e-08 -1.351e-05
0.00094252 -4.36419e-06 -7.27635e-07
-4.36419e-06 2.99085e-05 7.58815e-07
-7.27635e-07 7.58815e-07 -1.4874e-05
0.000859343 1.13672e-05 1.46697e-07
1.13672e-05 -7.62962e-06 -8.53773e-07
1.46697e-07 -8.53773e-07 -6.44683e-05
0.00086895 -7.77776e-06 1.79501e-07
-7.77776e-06 -8.51379e-06 -1.34894e-09
1.79501e-07 -1.34894e-09 -5.31019e-05
0.000915934 9.40286e-06 -3.15161e-07
9.40286e-06 5.75237e-06 1.60547e-06
-3.15161e-07 1.60547e-06 -2.0461e-05
0.000795569 4.24717e-06 2.21417e-07
4.24717e-06 -4.58782e-05 -3.37674e-07
2.21417e-07 -3.37674e-07 -9.13179e-05
0.000911368 3.44777e-06 -1.80618e-07
3.44777e-06 2.88907e-06 -1.35244e-08
-1.80618e-07 -1.35244e-08 -2.2781e-05
0.00143395 7.7198e-06 -2.46129e-06
7.7198e-06 0.000262826 4.11582e-06
-2.46129e-06 4.11582e-06 0.000266528
0.0009039 -5.76467e-06 5.76012e-07
-5.76467e-06 -8.32052e-07 -1.53903e-06
5.76012e-07 -1.53903e-06 -2.63616e-05
0.00114964 3.98011e-06 -9.44711e-07
3.98011e-06 0.000114294 6.01792e-07
-9.44711e-07 6.01792e-07 0.000116877
0.001058 2.27433e-06 -2.07673e-06
2.27433e-06 6.52698e-05 3.77901e-06
-2.07673e-06 3.77901e-06 8.35831e-05
0.00086495 2.58848e-07 3.1236e-08
2.58848e-07 -3.35736e-05 -2.94829e-06
3.1236e-08 -2.94829e-06 -3.22492e-05
0.00216452 -6.52044e-07 1.34824e-06
-6.52044e-07 0.00063749 3.2198e-10
1.34824e-06 3.2198e-10 0.00066135
0.00105292 -3.17765e-06 -1.11111e-06
-3.17765e-06 6.30654e-05 -3.78642e-06
-1.11111e-06 -3.78642e-06 8.13905e-05
0.000944074 2.7048e-05 1.93934e-07
2.7048e-05 3.09786e-05 -3.99738e-07
1.93934e-07 -3.99738e-07 -9.53354e-06
0.000925857 3.50736e-07 4.81445e-08
3.50736e-07 5.9067e-06 -1.69721e-06
4.81445e-08 -1.69721e-06 -1.58368e-05
0.000923114 2.66872e-06 -5.20843e-08
2.66872e-06 4.60111e-06 -6.19845e-09
-5.20843e-08 -6.19845e-09 -1.74202e-05
0.000862711 3.94322e-06 1.85732e-07
3.94322e-06 -3.52274e-05 -3.04869e-06
1.85732e-07 -3.04869e-06 -3.15719e-05
0.000917323 5.34776e-06 -3.47532e-07
5.34776e-06 2.55141e-06 1.65537e-06
-3.47532e-07 1.65537e-06 -2.04481e-05
0.000857587 7.79886e-06 6.23291e-08
7.79886e-06 -3.62372e-05 -6.08634e-07
6.23291e-08 -6.08634e-07 -3.33854e-05
0.00209814 9.65732e-06 5.25533e-06
9.65732e-06 0.000605124 -3.82976e-06
5.25533e-06 -3.82976e-06 0.000629434
0.00139137 1.39758e-05 -1.26527e-06
1.39758e-05 0.000242986 1.9157e-06
-1.26527e-06 1.9157e-06 0.000246926
0.00160546 1.28165e-05 2.59381e-07
1.28165e-05 0.000353854 1.18699e-06
2.59381e-07 1.18699e-06 0.000374305
0.00109444 1.46569e-05 -1.12337e-05
1.46569e-05 9.37985e-05 6.27815e-06
-1.12337e-05 6.27815e-06 0.000110313
0.00124156 -2.66681e-05 -1.27136e-06
-2.66681e-05 -0.000176384 1.94395e-08
-1.27136e-06 1.94395e-08 -0.000212691
0.00154636 -2.70217e-07 -2.08662e-06
-2.70217e-07 2.65476e-05 -5.77307e-07
-2.08662e-06 -5.77307e-07 -5.60636e-05
0.00138946 2.76821e-06 -5.23944e-06
2.76821e-06 -9.25638e-05 -4.06873e-06
-5.23944e-06 -4.06873e-06 -0.000173561
0.000962487 -7.7692e-05 3.48336e-05
-7.7692e-05 -8.49096e-05 6.61472e-06
3.48336e-05 6.61472e-06 -0.000289267
0.00140761 -2.6628e-05 -3.04404e-06
-2.6628e-05 9.05446e-06 -5.28206e-07
-3.04404e-06 -5.28206e-07 -5.31849e-05
0.00183224 2.7292e-05 -1.93618e-06
2.7292e-05 0.000107458 -1.74699e-06
-1.93618e-06 -1.74699e-06 1.12966e-05
0.00140235 4.59683e-05 -3.28949e-07
4.59683e-05 3.98352e-05 1.33828e-06
-3.28949e-07 1.33828e-06 -3.52634e-05
0.0012032 -4.63691e-05 0.000106613
-4.63691e-05 2.73051e-06 7.19686e-06
0.000106613 7.19686e-06 -0.000255929
0.00532258 0.000100396 -2.45576e-05
0.000100396 0.00158312 -2.96989e-06
-2.45576e-05 -2.96989e-06 0.000902568
0.00291953 0.000278014 -3.85463e-05
0.000278014 0.0011846 1.64715e-05
-3.85463e-05 1.64715e-05 0.00120086
0.00113549 0.000220882 -1.16599e-05
0.000220882 -2.032e-05 5.85158e-06
-1.16599e-05 5.85158e-06 0.000460423
0.000771924 -1.38935e-05 9.38587e-07
-1.38935e-05 -4.5799e-05 -9.27848e-07
9.38587e-07 -9.27848e-07 -9.94204e-05
0.000951853 -8.76533e-06 1.61257e-09
-8.76533e-06 3.38966e-05 -3.87378e-09
1.61257e-09 -3.87378e-09 -5.66594e-06
0.000955855 -3.00586e-05 -7.22854e-07
-3.00586e-05 3.64713e-05 9.2042e-07
-7.22854e-07 9.2042e-07 -4.23368e-06
0.000894886 4.45311e-06 -2.58249e-07
4.45311e-06 1.555e-05 9.52713e-09
-2.58249e-07 9.52713e-09 -3.72801e-05
0.00102695 3.78544e-05 1.09521e-07
3.78544e-05 8.95554e-05 4.07109e-07
1.09521e-07 4.07109e-07 2.62238e-05
0.00101959 4.38921e-05 1.82058e-07
4.38921e-05 8.24529e-05 3.12143e-07
1.82058e-07 3.12143e-07 2.14443e-05
0.000997601 -3.52172e-06 5.44396e-07
-3.52172e-06 7.00336e-05 -1.29503e-06
5.44396e-07 -1.29503e-06 1.47739e-05
0.000902647 -2.80942e-05 -3.9443e-07
-2.80942e-05 2.04571e-05 4.73627e-07
-3.9443e-07 4.73627e-07 -3.29123e-05
0.00182048 1.9861e-05 -2.19592e-06
1.9861e-05 0.000155784 2.74226e-07
-2.19592e-06 2.74226e-07 7.45901e-05
0.00170976 -5.05128e-05 -3.13029e-06
-5.05128e-05 7.84586e-06 1.68746e-06
-3.13029e-06 1.68746e-06 -4.2676e-05
0.000910258 -8.95263e-05 -9.48901e-06
-8.95263e-05 -0.000300331 7.33289e-07
-9.48901e-06 7.33289e-07 -0.000361508
0.000996548 -7.60878e-05 3.24263e-07
-7.60878e-05 7.34243e-05 1.52515e-06
3.24263e-07 1.52515e-06 -3.56437e-05
0.00162296 -0.000111377 -6.98577e-07
-0.000111377 0.000311247 2.26614e-06
-6.98577e-07 2.26614e-06 0.000175955
0.000995914 -5.61934e-05 -4.27704e-07
-5.61934e-05 9.96883e-05 -4.86491e-08
-4.27704e-07 -4.86491e-08 -1.16749e-05
0.00123219 -5.30787e-05 1.80843e-07
-5.30787e-05 0.000205837 2.63289e-07
1.80843e-07 2.63289e-07 0.000105241
0.000953124 -2.96286e-05 -4.01765e-07
-2.96286e-05 4.94742e-05 9.34732e-07
-4.01765e-07 9.34732e-07 -3.24914e-05
0.000965011 -4.78243e-06 1.14586e-08
-4.78243e-06 5.25041e-05 1.02182e-06
1.14586e-08 1.02182e-06 -7.25753e-06
0.00112289 -1.15126e-05 -4.97474e-07
-1.15126e-05 0.000134629 7.43052e-07
-4.97474e-07 7.43052e-07 6.29597e-05
0.00115033 3.98375e-06 -4.05791e-08
3.98375e-06 0.000144951 2.12761e-07
-4.05791e-08 2.12761e-07 9.23327e-05
0.000911038 4.27389e-05 7.70633e-07
4.27389e-05 2.55603e-05 1.93658e-06
7.70633e-07 1.93658e-06 -4.1062e-05
0.00174117 1.99837e-05 1.85935e-06
1.99837e-05 3.15337e-05 -2.98237e-06
1.85935e-06 -2.98237e-06 -3.89117e-05
0.00094469 1.82313e-05 -2.86693e-07
1.82313e-05 4.72322e-05 3.29831e-07
-2.86693e-07 3.29831e-07 -2.30264e-05
0.000967279 -3.3089e-05 -3.79578e-08
-3.3089e-05 5.95531e-05 -4.32297e-07
-3.79578e-08 -4.32297e-07 -1.25875e-05
0.00220828 -0.000112824 -4.12887e-06
-0.000112824 0.000176749 -7.91219e-07
-4.12887e-06 -7.91219e-07 0.000130772
0.000850799 -9.70323e-05 1.48201e-06
-9.70323e-05 -0.000176755 1.92031e-06
1.48201e-06 1.92031e-06 -0.000294622
0.00120064 -9.55226e-05 9.7326e-07
-9.55226e-05 0.000185967 -7.43541e-07
9.7326e-07 -7.43541e-07 5.60508e-05
0.00103417 -4.23667e-05 7.1061e-08
-4.23667e-05 9.24799e-05 -1.62558e-07
7.1061e-08 -1.62558e-07 5.79121e-06
0.00110753 -3.17468e-05 -3.19948e-08
-3.17468e-05 0.000155949 2.84144e-07
-3.19948e-08 2.84144e-07 3.09467e-05
0.00244767 -5.35055e-05 -2.92741e-06
-5.35055e-05 0.000286675 9.54936e-06
-2.92741e-06 9.54936e-06 0.000261486
0.00268809 -0.000182545 1.09882e-05
-0.000182545 0.000568662 -4.42031e-06
1.09882e-05 -4.42031e-06 0.000445752
0.000442802 -9.07656e-05 -9.01826e-07
-9.07656e-05 -0.000224114 -2.50384e-06
-9.01826e-07 -2.50384e-06 -0.000355792
0.00118428 -6.66196e-05 1.71928e-08
-6.66196e-05 0.000207404 -1.62572e-07
1.71928e-08 -1.62572e-07 5.02135e-05
0.000862368 -3.94486e-05 4.00526e-07
-3.94486e-05 8.02122e-06 -3.54981e-07
4.00526e-07 -3.54981e-07 -6.90285e-05
0.00101773 -3.55183e-05 1.11649e-06
-3.55183e-05 8.22772e-05 -1.11529e-06
1.11649e-06 -1.11529e-06 -6.97982e-07
0.00119531 -1.9892e-05 -2.92033e-07
-1.9892e-05 0.000178002 -5.7949e-07
-2.92033e-07 -5.7949e-07 7.55863e-05
-0.0010432 -1.92946e-05 -8.14614e-05
-1.92946e-05 -0.000666093 -1.00218e-06
-8.14614e-05 -1.00218e-06 -0.000688624
0.00570341 -2.21221e-05 -2.26179e-05
-2.21221e-05 0.00193832 -2.58695e-06
-2.26179e-05 -2.58695e-06 0.00141818
0.00109673 5.83795e-05 4.91295e-07
5.83795e-05 0.000124741 2.41213e-07
4.91295e-07 2.41213e-07 3.22006e-05
0.000873029 6.19143e-05 1.39698e-06
6.19143e-05 1.94795e-05 -8.65222e-07
1.39698e-06 -8.65222e-07 -8.20259e-05
0.00163031 0.000107319 -9.76678e-06
0.000107319 -0.000108869 2.41933e-06
-9.76678e-06 2.41933e-06 -0.000150205
0.00127468 0.000122337 -3.31267e-06
0.000122337 3.54774e-06 -1.25183e-06
-3.31267e-06 -1.25183e-06 -0.000107927
0.00106726 8.02276e-05 1.49804e-06
8.02276e-05 0.000133979 -1.7507e-06
1.49804e-06 -1.7507e-06 -7.44053e-06
0.00500201 -4.41457e-05 2.49512e-05
-4.41457e-05 0.00147495 -9.76022e-06
2.49512e-05 -9.76022e-06 0.000832516
0.00216768 -0.000135505 -5.63163e-05
-0.000135505 1.98731e-05 -1.49743e-05
-5.63163e-05 -1.49743e-05 -0.000191924
0.000887909 9.49131e-05 -8.13334e-06
9.49131e-05 -0.000364129 -1.03837e-05
-8.13334e-06 -1.03837e-05 -0.000285841
0.00238926 -0.000246656 3.12034e-05
-0.000246656 0.00105037 1.54e-05
3.12034e-05 1.54e-05 0.00102491
-0.000662406 -0.000267058 1.44037e-05
-0.000267058 -0.00114867 1.18626e-05
1.44037e-05 1.18626e-05 -0.000611198
0.00105996 6.1648e-05 1.52202e-07
6.1648e-05 0.000105596 -2.99686e-07
1.52202e-07 -2.99686e-07 1.39375e-05
-0.00120386 -6.72688e-05 -1.15669e-05
-6.72688e-05 -0.000692788 -6.70757e-07
-1.15669e-05 -6.70757e-07 -0.00066409
0.000856909 -0.000126565 -2.55564e-06
-0.000126565 0.000109235 1.13022e-07
-2.55564e-06 1.13022e-07 0.00029773
0.00169018 0.000134001 5.54593e-07
0.000134001 2.30301e-05 7.72215e-07
5.54593e-07 7.72215e-07 1.09461e-05
0.00107869 4.86517e-05 -2.72375e-07
4.86517e-05 0.000136763 -1.1793e-06
-2.72375e-07 -1.1793e-06 2.85132e-05
0.00121569 7.56021e-05 5.77425e-07
7.56021e-05 0.000247829 1.58718e-07
5.77425e-07 1.58718e-07 6.57628e-05
0.00118256 8.70513e-05 -3.71628e-06
8.70513e-05 -2.13438e-05 -8.01968e-07
-3.71628e-06 -8.01968e-07 -3.43164e-05
0.00459208 -0.00016039 6.44032e-06
-0.00016039 0.00113482 5.5664e-06
6.44032e-06 5.5664e-06 0.000294501
0.00213416 -1.35563e-05 -1.27493e-05
-1.35563e-05 1.02314e-05 -1.41816e-05
-1.27493e-05 -1.41816e-05 -0.000142575
0.00308573 -0.000356088 5.9161e-06
-0.000356088 0.0010171 -9.97312e-07
5.9161e-06 -9.97312e-07 0.00100863
0.000133953 -0.000148221 -1.18986e-06
-0.000148221 -0.00104165 4.95525e-06
-1.18986e-06 4.95525e-06 -0.000649864
0.00105636 2.85348e-05 -1.99651e-06
2.85348e-05 7.29504e-05 -1.44506e-06
-1.99651e-06 -1.44506e-06 -1.46336e-05
9.32392e-05 -2.84691e-05 -5.99997e-06
-2.84691e-05 -0.000224064 -1.45296e-06
-5.99997e-06 -1.45296e-06 -0.000258229
0.00110181 -9.10539e-06 3.5707e-07
-9.10539e-06 9.45727e-05 -9.65214e-06
3.5707e-07 -9.65214e-06 5.03813e-05
7.64635e-05 0.000103551 4.04481e-06
0.000103551 -0.000410414 -3.8212e-06
4.04481e-06 -3.8212e-06 -0.000566149
0.00190388 5.36527e-05 -7.43096e-06
5.36527e-05 0.000615803 3.66631e-07
-7.43096e-06 3.66631e-07 0.000478301
0.00444903 -5.12745e-05 -1.17783e-05
-5.12745e-05 0.00196677 -5.87816e-07
-1.17783e-05 -5.87816e-07 0.00193033
0.00057978 0.000161606 -5.24512e-05
0.000161606 -0.000401242 1.08586e-05
-5.24512e-05 1.08586e-05 -0.000636947
0.0014511 -0.000247715 1.16589e-05
-0.000247715 -0.000182966 9.33827e-06
1.16589e-05 9.33827e-06 -0.00114629
0.00414078 -0.000378714 -4.28097e-05
-0.000378714 0.000957519 -1.73695e-05
-4.28097e-05 -1.73695e-05 0.00103675
0.00064873 -4.65177e-05 6.96925e-07
-4.65177e-05 -0.000489768 -1.26187e-06
6.96925e-07 -1.26187e-06 -0.000396324
0.0011125 5.37944e-05 5.14987e-08
5.37944e-05 0.000117738 9.42496e-07
5.14987e-08 9.42496e-07 2.96722e-05
0.00111194 5.95773e-05 8.72188e-07
5.95773e-05 0.000105962 6.37017e-07
8.72188e-07 6.37017e-07 1.79769e-05
0.000684423 5.31665e-05 1.70388e-06
5.31665e-05 -8.37974e-05 -4.25553e-07
1.70388e-06 -4.25553e-07 -0.000177102
0.000796999 1.30271e-05 1.68549e-07
1.30271e-05 -4.57552e-05 -3.87623e-07
1.68549e-07 -3.87623e-07 -9.1415e-05
0.00100832 2.1987e-05 -5.14066e-08
2.1987e-05 6.95291e-05 -6.01996e-07
-5.14066e-08 -6.01996e-07 1.15456e-05
0.00117037 -2.12299e-05 2.46519e-07
-2.12299e-05 0.000151814 3.41448e-09
2.46519e-07 3.41448e-09 8.55183e-05
0.000959336 2.47493e-05 -4.04964e-07
2.47493e-05 4.85957e-05 -7.0772e-07
-4.04964e-07 -7.0772e-07 -2.32097e-05
0.000945669 4.26122e-05 -1.71795e-07
4.26122e-05 3.56686e-05 -4.31449e-08
-1.71795e-07 -4.31449e-08 -4.64687e-05
0.00100042 8.04074e-06 3.63477e-07
8.04074e-06 6.50237e-05 -3.87017e-07
3.63477e-07 -3.87017e-07 7.59776e-06
0.00101267 2.37152e-05 -1.55482e-07
2.37152e-05 7.1348e-05 -1.18941e-07
-1.55482e-07 -1.18941e-07 -3.2465e-06
0.000985528 -1.98766e-05 5.92785e-08
-1.98766e-05 5.6293e-05 -3.78978e-08
5.92785e-08 -3.78978e-08 -9.41112e-06
0.0010869 4.5138e-05 7.93137e-08
4.5138e-05 0.000117689 4.09018e-07
7.93137e-08 4.09018e-07 2.90863e-05
0.00130645 -4.13956e-06 -1.33169e-07
-4.13956e-06 0.000225938 -7.1932e-07
-1.33169e-07 -7.1932e-07 0.000134212
0.00108375 1.32159e-05 -3.07847e-07
1.32159e-05 0.000108041 7.16592e-07
-3.07847e-07 7.16592e-07 3.00525e-05
0.00100953 9.37285e-06 1.6395e-07
9.37285e-06 7.05365e-05 3.07054e-07
1.6395e-07 3.07054e-07 3.81283e-06
0.00101409 -1.35696e-05 6.85723e-08
-1.35696e-05 7.29008e-05 -4.46118e-07
6.85723e-08 -4.46118e-07 1.57285e-05
0.000912213 3.47837e-06 -5.15655e-08
3.47837e-06 1.8352e-05 -1.04242e-06
-5.15655e-08 -1.04242e-06 -4.76231e-05
0.00100487 4.57817e-06 2.51153e-07
4.57817e-06 6.80818e-05 7.69929e-09
2.51153e-07 7.69929e-09 1.46394e-06
0.000986507 1.32538e-05 3.29969e-08
1.32538e-05 5.90941e-05 4.15311e-08
3.29969e-08 4.15311e-08 -8.04288e-06
0.00103518 1.27003e-05 -3.13862e-07
1.27003e-05 7.82683e-05 -7.32971e-07
-3.13862e-07 -7.32971e-07 6.72551e-06
0.000957406 1.81171e-06 -6.07094e-08
1.81171e-06 4.73528e-05 1.16151e-06
-6.07094e-08 1.16151e-06 -2.26502e-05
0.00106677 1.92124e-05 1.30052e-07
1.92124e-05 9.63005e-05 2.56814e-08
1.30052e-07 2.56814e-08 2.30842e-05
0.000920174 -3.82627e-06 5.06275e-08
-3.82627e-06 1.74846e-05 2.80639e-07
5.06275e-08 2.80639e-07 -5.78634e-05
0.000997532 -2.97776e-05 5.1746e-07
-2.97776e-05 7.04597e-05 -4.0408e-07
5.1746e-07 -4.0408e-07 -1.42616e-05
0.00079897 -4.76913e-05 2.66308e-07
-4.76913e-05 -5.78741e-06 -3.95902e-08
2.66308e-07 -3.95902e-08 -9.6567e-05
0.000871855 -2.80357e-05 -6.02545e-07
-2.80357e-05 1.54928e-05 -3.01717e-07
-6.02545e-07 -3.01717e-07 -6.50838e-05
0.000989351 -1.55721e-05 -2.03488e-08
-1.55721e-05 7.00062e-05 3.05787e-07
-2.03488e-08 3.05787e-07 -5.7132e-06
0.000976877 -1.00586e-05 -2.74045e-07
-1.00586e-05 5.5361e-05 1.30706e-06
-2.74045e-07 1.30706e-06 -7.82778e-06
0.000974406 -4.88606e-06 -6.58724e-08
-4.88606e-06 5.26886e-05 -6.16028e-08
-6.58724e-08 -6.16028e-08 -6.871e-06
0.000945078 9.67062e-06 -2.9295e-07
9.67062e-06 3.07192e-05 8.7188e-07
-2.9295e-07 8.7188e-07 -1.50271e-05
0.000961378 2.69131e-06 3.48382e-07
2.69131e-06 4.61213e-05 -5.10771e-07
3.48382e-07 -5.10771e-07 -1.12179e-05
0.000942875 1.2333e-06 5.78567e-08
1.2333e-06 2.96304e-05 7.12682e-09
5.78567e-08 7.12682e-09 -1.49337e-05
0.000914503 1.09755e-05 -6.11499e-07
1.09755e-05 6.82322e-06 1.59137e-06
-6.11499e-07 1.59137e-06 -2.03944e-05
0.000784729 1.26413e-05 1.398e-07
1.26413e-05 -5.22658e-05 -7.35843e-07
1.398e-07 -7.35843e-07 -9.67696e-05
0.000915618 4.54078e-06 -8.59418e-08
4.54078e-06 5.47616e-06 -1.24722e-08
-8.59418e-08 -1.24722e-08 -2.07162e-05
0.00143146 1.16121e-05 -3.84121e-06
1.16121e-05 0.000263893 4.13833e-06
-3.84121e-06 4.13833e-06 0.000267121
0.000910292 -2.90223e-06 6.30011e-07
-2.90223e-06 2.20982e-06 -1.53551e-06
6.30011e-07 -1.53551e-06 -2.34188e-05
0.00114715 7.69757e-06 -1.48799e-06
7.69757e-06 0.000114474 5.87442e-07
-1.48799e-06 5.87442e-07 0.000116837
0.00100834 7.17435e-06 -7.45168e-07
7.17435e-06 4.1138e-05 1.47311e-06
-7.45168e-07 1.47311e-06 5.94264e-05
0.000862628 3.6709e-06 3.7247e-07
3.6709e-06 -3.43912e-05 -2.94189e-06
3.7247e-07 -2.94189e-06 -3.31153e-05
0.00216369 4.22487e-06 1.29287e-06
4.22487e-06 0.000637405 9.34408e-09
1.29287e-06 9.34408e-09 0.000661209
0.00216197 -3.79002e-07 1.07249e-06
-3.79002e-07 0.000636158 -3.88197e-06
1.07249e-06 -3.88197e-06 0.000660033
0.0011868 1.98687e-05 -6.84353e-07
1.98687e-05 0.000154425 -7.21699e-07
-6.84353e-07 -7.21699e-07 0.000114559
0.00092406 -1.92706e-06 -1.37951e-07
-1.92706e-06 5.56712e-06 -1.64587e-06
-1.37951e-07 -1.64587e-06 -1.67254e-05
0.000944335 4.28685e-06 5.32615e-07
4.28685e-06 3.07327e-05 4.82635e-07
5.32615e-07 4.82635e-07 -9.38632e-06
0.000869013 1.15466e-07 -2.46969e-08
1.15466e-07 -3.25087e-05 -3.0507e-06
-2.46969e-08 -3.0507e-06 -2.86107e-05
0.000924798 -1.02505e-07 8.56878e-09
-1.02505e-07 5.34911e-06 -5.38348e-09
8.56878e-09 -5.38348e-09 -1.63921e-05
0.000919502 2.19497e-06 -2.87956e-07
2.19497e-06 2.62772e-06 1.67991e-06
-2.87956e-07 1.67991e-06 -1.9367e-05
0.000866441 4.05674e-06 -1.15648e-07
4.05674e-06 -3.33071e-05 3.7255e-09
-1.15648e-07 3.7255e-09 -2.96828e-05
0.00207685 4.81181e-06 2.27144e-06
4.81181e-06 0.00059255 -3.84174e-06
2.27144e-06 -3.84174e-06 0.000617362
0.00138125 9.55876e-06 -8.42688e-07
9.55876e-06 0.000234591 1.87327e-06
-8.42688e-07 1.87327e-06 0.000239984
0.00156778 8.81128e-06 1.53574e-06
8.81128e-06 0.000331123 2.53174e-08
1.53574e-06 2.53174e-08 0.000352696
0.00109126 1.09919e-05 -9.15537e-06
1.09919e-05 8.76568e-05 6.21678e-06
-9.15537e-06 6.21678e-06 0.000105504
-0.0027208 6.75367e-05 -5.41612e-05
6.75367e-05 -0.00164048 1.05083e-05
-5.41612e-05 1.05083e-05 -0.00160021
-0.00134311 9.43362e-05 -7.89408e-06
9.43362e-05 -0.00123151 7.55093e-06
-7.89408e-06 7.55093e-06 -0.00104799
0.00171192 -8.27077e-05 -6.10782e-05
-8.27077e-05 0.00030554 -1.16016e-05
-6.10782e-05 -1.16016e-05 0.000103256
0.00177647 -2.94963e-05 -1.69642e-06
-2.94963e-05 0.000211348 -1.16816e-06
-1.69642e-06 -1.16816e-06 0.000147838
0.00148059 3.09758e-05 -1.31561e-05
3.09758e-05 -7.13861e-05 -6.92611e-07
-1.31561e-05 -6.92611e-07 -0.000167542
0.000939598 -2.60492e-05 2.24701e-05
-2.60492e-05 4.70909e-05 -1.92943e-06
2.24701e-05 -1.92943e-06 -0.00011595
0.00177902 5.32677e-05 1.93473e-06
5.32677e-05 0.000212855 1.56254e-06
1.93473e-06 1.56254e-06 0.000133966
0.00482428 0.000167594 -3.02109e-05
0.000167594 0.00135867 -5.95487e-07
-3.02109e-05 -5.95487e-07 0.000748632
-0.00243139 0.000141186 1.58319e-06
0.000141186 -0.00114008 -3.96651e-06
1.58319e-06 -3.96651e-06 -0.00112725
0.000342645 0.000238194 3.45741e-06
0.000238194 -0.000536474 -5.14209e-06
3.45741e-06 -5.14209e-06 -1.93485e-05
0.000991488 4.01619e-05 3.10036e-05
4.01619e-05 0.000143024 -1.24443e-05
3.10036e-05 -1.24443e-05 -7.49375e-05
0.00575514 0.000297986 -1.16581e-05
0.000297986 0.00175056 9.58395e-06
-1.16581e-05 9.58395e-06 0.00105073
5.73391e-05 0.000247249 -5.43592e-05
0.000247249 -0.000122074 3.65197e-05
-5.43592e-05 3.65197e-05 -2.49467e-06
0.00195077 0.000149561 -1.30892e-05
0.000149561 4.60351e-06 9.78247e-06
-1.30892e-05 9.78247e-06 0.000416488
0.00090287 2.75547e-05 -3.89174e-07
2.75547e-05 2.74934e-05 -6.20463e-07
-3.89174e-07 -6.20463e-07 -3.94745e-05
0.000861389 2.49999e-06 5.68125e-08
2.49999e-06 -9.67102e-07 -4.30316e-07
5.68125e-08 -4.30316e-07 -5.3899e-05
0.000948764 -2.63859e-05 -6.8399e-07
-2.63859e-05 3.28003e-05 9.42187e-07
-6.8399e-07 9.42187e-07 -7.10249e-06
0.000827106 1.28816e-05 8.01547e-09
1.28816e-05 -1.84895e-05 5.57058e-07
8.01547e-09 5.57058e-07 -7.2004e-05
0.000995477 4.02396e-05 5.65164e-07
4.02396e-05 7.46679e-05 9.03856e-07
5.65164e-07 9.03856e-07 1.20441e-05
0.00103265 3.18691e-05 -3.40024e-07
3.18691e-05 9.38992e-05 -4.01332e-07
-3.40024e-07 -4.01332e-07 2.73028e-05
0.000972265 2.61714e-05 8.56794e-07
2.61714e-05 5.9615e-05 9.97188e-07
8.56794e-07 9.97188e-07 -2.05123e-06
0.000959599 3.94498e-06 5.91925e-07
3.94498e-06 5.03606e-05 -3.16089e-07
5.91925e-07 -3.16089e-07 -9.80648e-06
0.000923323 -1.0634e-05 2.34053e-07
-1.0634e-05 3.19629e-05 -5.24227e-07
2.34053e-07 -5.24227e-07 -2.40229e-05
0.00083086 -2.43661e-05 -4.01766e-07
-2.43661e-05 -1.60631e-05 1.02673e-06
-4.01766e-07 1.02673e-06 -6.98437e-05
0.00229881 2.99985e-05 -4.99454e-06
2.99985e-05 0.000298956 1.7323e-06
-4.99454e-06 1.7323e-06 0.000228493
0.00188974 -0.000109152 -1.42902e-05
-0.000109152 2.3182e-05 1.9591e-06
-1.42902e-05 1.9591e-06 -1.84824e-05
-0.00039711 -6.58284e-05 -7.34721e-07
-6.58284e-05 -0.000782594 4.09251e-06
-7.34721e-07 4.09251e-06 -0.000894609
0.00121532 -9.75674e-05 1.13118e-08
-9.75674e-05 0.000190543 1.62084e-06
1.13118e-08 1.62084e-06 5.57621e-05
0.0011165 -3.90344e-05 6.63327e-07
-3.90344e-05 0.000158211 3.61721e-07
6.63327e-07 3.61721e-07 3.42248e-05
0.00105418 -3.87195e-05 -2.39863e-07
-3.87195e-05 0.000100015 4.35481e-07
-2.39863e-07 4.35481e-07 1.30107e-05
0.000969729 -3.45724e-05 -5.675e-07
-3.45724e-05 6.05771e-05 5.41685e-07
-5.675e-07 5.41685e-07 -1.13705e-05
0.000964412 1.91191e-05 -1.47905e-07
1.91191e-05 5.79348e-05 7.88208e-07
-1.47905e-07 7.88208e-07 -1.14808e-05
0.00200467 -4.3644e-05 -4.45497e-06
-4.3644e-05 4.81002e-05 1.2218e-06
-4.45497e-06 1.2218e-06 1.56676e-05
0.000881328 -1.84424e-05 -1.63279e-07
-1.84424e-05 1.73493e-05 -3.75975e-09
-1.63279e-07 -3.75975e-09 -6.01469e-05
0.000961882 -3.82947e-05 4.59112e-07
-3.82947e-05 5.27682e-05 -5.33337e-07
4.59112e-07 -5.33337e-07 -3.15339e-05
0.00192881 -0.000156971 2.8873e-06
-0.000156971 0.000193755 2.22425e-07
2.8873e-06 2.22425e-07 7.90746e-05
0.000680908 -9.51047e-05 2.85999e-07
-9.51047e-05 -9.263e-05 2.52611e-06
2.85999e-07 2.52611e-06 -0.00022053
0.00117017 -6.45676e-05 8.57136e-07
-6.45676e-05 0.000192515 -2.30057e-07
8.57136e-07 -2.30057e-07 4.22401e-05
0.00117253 -2.49202e-05 -2.26316e-07
-2.49202e-05 0.000166311 -3.56641e-07
-2.26316e-07 -3.56641e-07 5.92676e-05
0.00295185 -0.000133486 5.11615e-06
-0.000133486 0.000581734 -1.4232e-06
5.11615e-06 -1.4232e-06 0.00058911
0.00204604 -0.000160301 -2.14453e-07
-0.000160301 0.000544746 -4.39488e-06
-2.14453e-07 -4.39488e-06 0.000377412
0.000902886 1.25665e-06 -1.57822e-06
1.25665e-06 7.12531e-05 -3.30158e-07
-1.57822e-06 -3.30158e-07 -7.56048e-05
0.000951495 3.35558e-05 2.34663e-07
3.35558e-05 5.40379e-05 3.04039e-07
2.34663e-07 3.04039e-07 -2.49317e-05
0.000981516 -5.39672e-05 7.8358e-07
-5.39672e-05 6.12055e-05 -4.6409e-07
7.8358e-07 -4.6409e-07 -2.51973e-05
0.00110406 -8.68961e-06 3.2853e-07
-8.68961e-06 0.000110707 1.33696e-07
3.2853e-07 1.33696e-07 1.83906e-05
0.00119417 -8.64553e-06 -6.85244e-06
-8.64553e-06 0.00037106 -5.25881e-09
-6.85244e-06 -5.25881e-09 0.000354252
0.00133322 -1.07158e-05 7.81153e-06
-1.07158e-05 0.000378449 -1.70706e-06
7.81153e-06 -1.70706e-06 0.000223625
0.000494741 9.33757e-05 -3.7515e-05
9.33757e-05 -0.000580364 4.47111e-06
-3.7515e-05 4.47111e-06 -0.00109327
0.00102701 6.24585e-05 1.81492e-07
6.24585e-05 8.54363e-05 1.41805e-07
1.81492e-07 1.41805e-07 -5.92809e-06
0.0013681 6.52776e-05 2.35485e-06
6.52776e-05 0.000286717 2.1145e-07
2.35485e-06 2.1145e-07 0.000182649
0.00210535 0.00013718 -3.35851e-06
0.00013718 0.000235417 -5.66465e-07
-3.35851e-06 -5.66465e-07 0.000209512
0.000726068 7.66704e-05 2.23071e-06
7.66704e-05 6.41937e-06 -4.03558e-06
2.23071e-06 -4.03558e-06 -0.000176928
0.00378372 -0.000187959 4.6072e-05
-0.000187959 0.00152762 6.46295e-06
4.6072e-05 6.46295e-06 0.00150312
0.000494244 -0.000214399 3.03897e-05
-0.000214399 -0.000591164 3.00577e-05
3.03897e-05 3.00577e-05 -0.00116717
0.00358664 2.25177e-06 -6.75138e-05
2.25177e-06 0.000420142 -5.32396e-05
-6.75138e-05 -5.32396e-05 0.000159919
0.000384953 7.33499e-05 4.72918e-06
7.33499e-05 -0.000423397 1.20204e-07
4.72918e-06 1.20204e-07 -0.000400848
-0.00164051 -0.000226678 5.4697e-05
-0.000226678 -0.00106436 2.64749e-05
5.4697e-05 2.64749e-05 -0.00100188
0.0021426 -0.000126658 1.34075e-05
-0.000126658 0.000780375 9.38243e-06
1.34075e-05 9.38243e-06 0.000947858
0.00166015 -0.000182876 1.17712e-05
-0.000182876 -0.000137315 7.95329e-06
1.17712e-05 7.95329e-06 0.000288706
0.00114581 4.13224e-05 -6.88582e-08
4.13224e-05 0.000125963 1.68398e-07
-6.88582e-08 1.68398e-07 3.66484e-05
0.000637359 -4.44042e-05 -4.10505e-06
-4.44042e-05 6.0577e-05 1.63175e-07
-4.10505e-06 1.63175e-07 8.03357e-05
0.000976188 -3.8442e-06 -2.75541e-06
-3.8442e-06 9.62963e-06 -4.42982e-06
-2.75541e-06 -4.42982e-06 -3.33723e-05
0.000849918 0.000105439 -1.99237e-06
0.000105439 -3.03845e-05 3.00624e-07
-1.99237e-06 3.00624e-07 -0.000191808
0.000861588 3.10513e-05 -2.48691e-07
3.10513e-05 0.00011321 -1.10466e-07
-2.48691e-07 -1.10466e-07 -3.03241e-05
0.00250204 4.02567e-06 1.68488e-05
4.02567e-06 0.000935019 -1.10298e-07
1.68488e-05 -1.10298e-07 0.000837708
0.00420484 0.000256793 -3.05065e-05
0.000256793 0.00106281 -1.83599e-05
-3.05065e-05 -1.83599e-05 0.000658391
0.00640483 -0.00027208 -5.48652e-07
-0.00027208 0.00184218 4.65357e-06
-5.48652e-07 4.65357e-06 0.0010112
9.6425e-05 -0.000258247 8.05003e-06
-0.000258247 -0.000691379 1.52898e-05
8.05003e-06 1.52898e-05 -0.000663933
0.00187946 -6.56482e-05 -3.44161e-07
-6.56482e-05 0.000173768 8.61378e-07
-3.44161e-07 8.61378e-07 0.000348694
0.00144916 7.07535e-05 -7.46544e-07
7.07535e-05 0.000330541 -3.60556e-06
-7.46544e-07 -3.60556e-06 0.000253612
0.00187872 9.45473e-06 6.92536e-06
9.45473e-06 0.000675335 2.9077e-06
6.92536e-06 2.9077e-06 0.000610743
0.0011216 1.44099e-05 4.70537e-06
1.44099e-05 0.000143156 -1.22158e-06
4.70537e-06 -1.22158e-06 4.72354e-05
0.000427485 -3.97351e-05 -9.09094e-06
-3.97351e-05 2.42242e-06 3.82571e-06
-9.09094e-06 3.82571e-06 -0.000139291
0.000797583 0.000132795 -2.62385e-05
0.000132795 0.00023369 4.32197e-05
-2.62385e-05 4.32197e-05 -2.57795e-05
0.00647069 -0.000167067 -1.57283e-05
-0.000167067 0.0014882 -1.81466e-05
-1.57283e-05 -1.81466e-05 0.000511206
-0.000167974 -0.000144158 -3.85787e-05
-0.000144158 -0.00127413 -4.50837e-05
-3.85787e-05 -4.50837e-05 -0.00112666
0.00223279 1.53763e-05 2.0612e-07
1.53763e-05 0.000407607 9.48635e-06
2.0612e-07 9.48635e-06 0.000566392
0.000986594 5.60626e-05 7.26202e-08
5.60626e-05 4.34416e-05 -3.06232e-08
7.26202e-08 -3.06232e-08 -4.53381e-05
0.00108292 6.26812e-05 5.45365e-07
6.26812e-05 0.000109691 -7.49903e-08
5.45365e-07 -7.49903e-08 1.89173e-05
0.00100568 5.0736e-05 -1.02694e-06
5.0736e-05 7.17782e-05 -2.17182e-06
-1.02694e-06 -2.17182e-06 -1.80999e-05
0.00100285 4.14475e-05 -4.78625e-07
4.14475e-05 6.59374e-05 -7.46194e-07
-4.78625e-07 -7.46194e-07 8.6761e-06
0.000980662 -1.09355e-05 3.25514e-07
-1.09355e-05 5.41576e-05 -3.18104e-07
3.25514e-07 -3.18104e-07 -1.18131e-05
0.00104306 2.03441e-05 -2.63126e-07
2.03441e-05 8.86521e-05 -2.38214e-07
-2.63126e-07 -2.38214e-07 1.47041e-05
0.0010192 3.5603e-05 2.75011e-07
3.5603e-05 8.47785e-05 5.50464e-08
2.75011e-07 5.50464e-08 -4.23556e-06
0.00101916 1.92013e-05 2.40901e-07
1.92013e-05 7.42881e-05 -6.54276e-09
2.40901e-07 -6.54276e-09 8.17942e-06
0.00107052 1.33003e-05 -7.68075e-08
1.33003e-05 0.000100087 4.3628e-07
-7.68075e-08 4.3628e-07 2.31222e-05
0.00109726 5.66132e-06 1.74489e-07
5.66132e-06 0.000126619 -3.64802e-07
1.74489e-07 -3.64802e-07 3.15856e-05
0.00136698 -9.54846e-06 -4.32234e-07
-9.54846e-06 0.000267408 -7.66008e-07
-4.32234e-07 -7.66008e-07 0.00017883
0.00107532 -3.44296e-05 3.80824e-07
-3.44296e-05 9.49924e-05 1.27701e-07
3.80824e-07 1.27701e-07 9.40589e-06
0.00107204 3.4463e-05 6.57594e-07
3.4463e-05 9.95274e-05 5.30031e-07
6.57594e-07 5.30031e-07 2.51421e-05
0.00100989 -3.93192e-06 4.85371e-07
-3.93192e-06 6.93547e-05 -4.84787e-07
4.85371e-07 -4.84787e-07 3.53807e-06
0.000976175 1.30361e-05 1.82114e-07
1.30361e-05 5.42435e-05 -6.2218e-07
1.82114e-07 -6.2218e-07 -1.2988e-05
0.00100356 6.95416e-06 -4.8319e-07
6.95416e-06 5.95499e-05 -1.28558e-06
-4.8319e-07 -1.28558e-06 -1.13277e-05
0.00108393 1.81356e-05 -2.00836e-07
1.81356e-05 0.000103494 -4.1134e-07
-2.00836e-07 -4.1134e-07 3.10892e-05
0.000974548 5.07283e-06 7.11641e-08
5.07283e-06 5.72044e-05 3.58132e-07
7.11641e-08 3.58132e-07 -1.32115e-05
0.000979491 6.55903e-06 6.52205e-09
6.55903e-06 4.60588e-05 -1.95632e-07
6.52205e-09 -1.95632e-07 -2.857e-05
0.000992263 -1.39994e-05 1.51867e-07
-1.39994e-05 5.69765e-05 5.76647e-07
1.51867e-07 5.76647e-07 -2.26124e-05
0.001043 -7.8157e-06 3.2858e-07
-7.8157e-06 7.47783e-05 1.47732e-07
3.2858e-07 1.47732e-07 -2.47596e-06
0.00096412 -4.88524e-05 3.51586e-07
-4.88524e-05 5.18939e-05 -9.46817e-08
3.51586e-07 -9.46817e-08 -3.74018e-05
0.00107501 -3.32221e-05 -2.62784e-07
-3.32221e-05 0.00010895 -5.02678e-08
-2.62784e-07 -5.02678e-08 2.43533e-05
0.000808847 -4.80896e-05 -8.03337e-08
-4.80896e-05 -1.39934e-06 1.21102e-06
-8.03337e-08 1.21102e-06 -9.28429e-05
0.00108142 -6.70721e-05 -1.11997e-06
-6.70721e-05 0.000118878 1.78854e-06
-1.11997e-06 1.78854e-06 2.21632e-05
0.0011237 -5.06287e-05 4.09015e-07
-5.06287e-05 0.000143666 -1.05386e-06
4.09015e-07 -1.05386e-06 6.1605e-05
0.000843737 -5.08858e-05 2.78029e-07
-5.08858e-05 2.01108e-05 -1.30077e-06
2.78029e-07 -1.30077e-06 -6.81579e-05
0.000994087 -3.06674e-05 9.53538e-08
-3.06674e-05 7.68934e-05 -5.61288e-07
9.53538e-08 -5.61288e-07 -2.82713e-06
0.000859977 -1.58301e-05 -2.83268e-07
-1.58301e-05 -2.5678e-06 8.6675e-07
-2.83268e-07 8.6675e-07 -7.18897e-05
0.00100782 -1.61879e-05 -1.67906e-07
-1.61879e-05 7.95223e-05 -2.06862e-07
-1.67906e-07 -2.06862e-07 3.7688e-06
0.000979309 -1.14354e-05 -5.20237e-08
-1.14354e-05 5.67505e-05 4.47446e-07
-5.20237e-08 4.47446e-07 -6.59046e-06
0.000939086 9.01697e-06 -2.69499e-07
9.01697e-06 2.80253e-05 1.09022e-06
-2.69499e-07 1.09022e-06 -2.05462e-05
0.000970051 -1.71357e-05 2.4051e-07
-1.71357e-05 5.22143e-05 -7.95298e-07
2.4051e-07 -7.95298e-07 -8.34939e-06
0.000935793 9.03823e-07 -2.223e-07
9.03823e-07 2.6689e-05 -3.36524e-08
-2.223e-07 -3.36524e-08 -1.93624e-05
0.000907831 1.25692e-05 -7.86679e-07
1.25692e-05 6.02177e-06 1.62095e-06
-7.86679e-07 1.62095e-06 -2.25345e-05
0.000942167 1.47922e-06 6.93318e-07
1.47922e-06 2.92722e-05 -8.28537e-07
6.93318e-07 -8.28537e-07 -1.53897e-05
0.000913058 6.23355e-06 -1.48776e-07
6.23355e-06 5.71388e-06 -2.57678e-09
-1.48776e-07 -2.57678e-09 -2.14292e-05
0.00143093 1.53656e-05 -5.28482e-06
1.53656e-05 0.000267114 4.17297e-06
-5.28482e-06 4.17297e-06 0.000269447
0.000913038 -1.19166e-06 9.01101e-07
-1.19166e-06 4.02713e-06 -1.5642e-06
9.01101e-07 -1.5642e-06 -2.21247e-05
0.00114349 1.13684e-05 -1.98134e-06
1.13684e-05 0.000115193 5.7375e-07
-1.98134e-06 5.7375e-07 0.000116989
0.00100372 1.10774e-05 -1.23834e-06
1.10774e-05 4.19899e-05 1.48874e-06
-1.23834e-06 1.48874e-06 5.96529e-05
0.000860171 7.14995e-06 6.43303e-07
7.14995e-06 -3.42539e-05 -2.97036e-06
6.43303e-07 -2.97036e-06 -3.32048e-05
0.00158737 8.59074e-06 3.01732e-06
8.59074e-06 0.000340587 -1.16804e-06
3.01732e-06 -1.16804e-06 0.000361528
0.0021603 4.67876e-06 3.92554e-06
4.67876e-06 0.000635922 -3.84584e-06
3.92554e-06 -3.84584e-06 0.000659713
0.00100932 -7.6922e-06 2.78169e-07
-7.6922e-06 6.40649e-05 -8.92839e-07
2.78169e-07 -8.92839e-07 2.01198e-05
0.000925009 -4.2012e-06 -2.45345e-07
-4.2012e-06 7.21706e-06 -1.57985e-06
-2.45345e-07 -1.57985e-06 -1.62095e-05
0.000989055 1.60489e-06 3.05813e-07
1.60489e-06 5.34638e-05 8.0843e-08
3.05813e-07 8.0843e-08 1.24922e-05
0.000872888 -3.58043e-06 -3.49099e-07
-3.58043e-06 -2.97828e-05 -3.04678e-06
-3.49099e-07 -3.04678e-06 -2.63579e-05
0.000924015 -2.39432e-06 -5.55382e-08
-2.39432e-06 5.52922e-06 -7.44516e-09
-5.55382e-08 -7.44516e-09 -1.67605e-05
0.000950219 -8.67913e-06 -4.95953e-07
-8.67913e-06 3.28241e-05 1.30059e-06
-4.95953e-07 1.30059e-06 -6.5638e-06
0.00207286 4.91727e-09 -7.76101e-07
4.91727e-09 0.000590087 -3.86994e-06
-7.76101e-07 -3.86994e-06 0.000615013
0.000867604 2.51847e-07 -7.60361e-08
2.51847e-07 -3.32678e-05 -4.66624e-09
-7.60361e-08 -4.66624e-09 -2.93566e-05
0.000922135 -5.77023e-07 -9.52433e-08
-5.77023e-07 3.94932e-06 1.6923e-06
-9.52433e-08 1.6923e-06 -1.77788e-05
0.000870246 4.16926e-06 -3.72644e-07
4.16926e-06 -3.13387e-05 3.02993e-06
-3.72644e-07 3.02993e-06 -2.77484e-05
0.00207927 5.00542e-06 -1.37445e-06
5.00542e-06 0.000593972 -8.81738e-09
-1.37445e-06 -8.81738e-09 0.000618724
0.00209944 9.61131e-06 -6.90174e-06
9.61131e-06 0.000605945 3.81747e-06
-6.90174e-06 3.81747e-06 0.000630226
-0.0010831 1.70678e-05 -2.46352e-06
1.70678e-05 -0.00093433 -1.00089e-06
-2.46352e-06 -1.00089e-06 -0.000963626
-0.000646645 0.000119574 2.44128e-05
0.000119574 -0.000464205 -2.03009e-06
2.44128e-05 -2.03009e-06 -0.000528364
0.00102227 1.1686e-05 -2.67701e-06
1.1686e-05 -2.40715e-05 5.73866e-06
-2.67701e-06 5.73866e-06 -3.20482e-05
-0.00116509 0.000106315 2.36754e-06
0.000106315 -0.00102566 2.23952e-07
2.36754e-06 2.23952e-07 -0.000842316
0.00210118 3.01117e-05 -7.65321e-05
3.01117e-05 0.000480553 -6.7936e-06
-7.65321e-05 -6.7936e-06 0.000241376
0.00181384 5.42164e-05 7.94212e-06
5.42164e-05 0.000227852 -2.50716e-06
7.94212e-06 -2.50716e-06 0.000145872
0.000779183 -1.12628e-05 -2.54357e-05
-1.12628e-05 -0.000402105 2.63559e-06
-2.54357e-05 2.63559e-06 -0.000877687
0.0043436 0.000217158 9.57147e-05
0.000217158 0.0019869 -2.9005e-05
9.57147e-05 -2.9005e-05 0.00197025
-0.000471536 0.000255822 1.47216e-05
0.000255822 -0.00107969 -1.17596e-05
1.47216e-05 -1.17596e-05 -0.000522585
0.00135087 6.04137e-05 -2.65251e-06
6.04137e-05 0.000135207 4.0872e-06
-2.65251e-06 4.0872e-06 -5.98745e-05
0.00262735 0.00019619 6.58971e-06
0.00019619 0.000389466 -7.45939e-06
6.58971e-06 -7.45939e-06 -0.000487064
0.00288968 0.000352082 2.28202e-06
0.000352082 0.000839982 -8.24128e-07
2.28202e-06 -8.24128e-07 0.000878634
0.00161545 0.000140582 -3.00487e-06
0.000140582 -0.000194676 1.35405e-06
-3.00487e-06 1.35405e-06 0.000231518
0.00185824 6.63369e-05 -2.08953e-06
6.63369e-05 0.000404047 9.54807e-07
-2.08953e-06 9.54807e-07 0.000146497
0.00331256 0.000243342 2.90858e-05
0.000243342 0.00072241 -1.61741e-05
2.90858e-05 -1.61741e-05 -0.000242363
-0.00227186 0.000234665 -5.63767e-05
0.000234665 -0.00204099 4.37194e-05
-5.63767e-05 4.37194e-05 -0.00190901
0.000855965 5.57779e-05 1.99513e-08
5.57779e-05 -0.000455037 3.58971e-06
1.99513e-08 3.58971e-06 -0.000285476
0.00104785 -3.22087e-06 7.66142e-07
-3.22087e-06 0.000102181 -5.17021e-07
7.66142e-07 -5.17021e-07 2.73842e-05
0.000985898 2.80692e-05 -8.3697e-07
2.80692e-05 6.9272e-05 -3.01578e-07
-8.3697e-07 -3.01578e-07 3.59663e-06
0.000947867 8.06357e-06 3.63154e-07
8.06357e-06 4.20388e-05 1.18237e-07
3.63154e-07 1.18237e-07 -9.95585e-06
0.000953346 4.22019e-05 1.19701e-06
4.22019e-05 5.44586e-05 1.34065e-06
1.19701e-06 1.34065e-06 -7.43903e-06
0.000930632 9.31157e-06 -2.42919e-07
9.31157e-06 3.96311e-05 -2.00579e-07
-2.42919e-07 -2.00579e-07 -3.26266e-05
0.00105816 3.03288e-05 1.70017e-07
3.03288e-05 0.000106592 5.10709e-07
1.70017e-07 5.10709e-07 4.06902e-05
0.000939214 5.08726e-06 -2.90114e-07
5.08726e-06 4.15885e-05 1.62336e-06
-2.90114e-07 1.62336e-06 -1.9189e-05
0.00107914 3.88174e-05 -8.18132e-07
3.88174e-05 0.000111033 -4.86627e-07
-8.18132e-07 -4.86627e-07 4.82207e-05
0.00105282 1.94606e-05 -1.31978e-07
1.94606e-05 9.89138e-05 4.50339e-07
-1.31978e-07 4.50339e-07 3.86989e-05
0.000857486 -1.70081e-05 -7.02495e-07
-1.70081e-05 -1.27696e-06 2.14986e-07
-7.02495e-07 2.14986e-07 -5.84696e-05
0.00150313 -4.0055e-05 -6.17045e-06
-4.0055e-05 -0.000216175 -1.89573e-07
-6.17045e-06 -1.89573e-07 -0.000255535
0.0012556 -0.00013204 -6.89662e-06
-0.00013204 -0.00013664 5.19764e-06
-6.89662e-06 5.19764e-06 -0.000243789
0.000917882 -0.00010018 3.99168e-06
-0.00010018 3.67024e-05 4.20283e-06
3.99168e-06 4.20283e-06 -8.78073e-05
0.00116936 -6.28237e-05 9.70334e-07
-6.28237e-05 0.000185813 1.12784e-06
9.70334e-07 1.12784e-06 4.04092e-05
0.00113956 -2.1544e-05 -9.59435e-08
-2.1544e-05 0.000150634 7.05064e-08
-9.59435e-08 7.05064e-08 3.83314e-05
0.000905048 -4.30197e-05 -2.80509e-07
-4.30197e-05 2.39456e-05 3.74648e-07
-2.80509e-07 3.74648e-07 -6.24034e-05
0.000905823 2.31979e-05 3.76065e-08
2.31979e-05 2.93138e-05 8.62022e-08
3.76065e-08 8.62022e-08 -4.85046e-05
0.000995901 -7.10584e-06 2.52688e-07
-7.10584e-06 7.58905e-05 6.30987e-07
2.52688e-07 6.30987e-07 -3.06924e-06
0.00195143 -0.000131662 1.15514e-06
-0.000131662 9.16295e-05 -2.59283e-08
1.15514e-06 -2.59283e-08 9.919e-05
0.00105615 -5.44892e-06 -1.76751e-07
-5.44892e-06 0.000100232 -2.29927e-07
-1.76751e-07 -2.29927e-07 1.48037e-05
0.00120265 -1.74593e-05 -1.6344e-07
-1.74593e-05 0.000162693 -4.29611e-08
-1.6344e-07 -4.29611e-08 6.83585e-05
0.00167302 -0.000145505 -4.22004e-07
-0.000145505 0.000373816 -1.96772e-06
-4.22004e-07 -1.96772e-06 0.000196816
0.00114517 -1.23731e-05 -4.66481e-07
-1.23731e-05 0.000183411 -1.49665e-08
-4.66481e-07 -1.49665e-08 3.94693e-05
0.000113477 -0.000132397 -6.42597e-06
-0.000132397 -0.000656322 -9.62768e-06
-6.42597e-06 -9.62768e-06 -0.00063081
0.00166404 -4.51904e-05 -2.26106e-06
-4.51904e-05 0.000491443 2.3876e-06
-2.26106e-06 2.3876e-06 0.00027187
0.000864371 3.06808e-05 -1.08737e-06
3.06808e-05 -4.69461e-06 1.86106e-06
-1.08737e-06 1.86106e-06 -0.000106183
0.0010091 2.71649e-05 1.24225e-09
2.71649e-05 7.07577e-05 -6.19615e-07
1.24225e-09 -6.19615e-07 -1.1753e-05
0.0010496 2.37968e-05 -2.48408e-07
2.37968e-05 7.87654e-05 2.1046e-07
-2.48408e-07 2.1046e-07 -1.41998e-05
0.00181643 -5.25213e-06 8.92138e-06
-5.25213e-06 0.000660929 7.73148e-07
8.92138e-06 7.73148e-07 0.000589701
7.27624e-05 -1.04365e-05 7.20738e-06
-1.04365e-05 -0.000255429 -3.88493e-07
7.20738e-06 -3.88493e-07 -0.000289358
-0.00316054 -2.24824e-05 7.44233e-05
-2.24824e-05 -0.00188892 4.83865e-07
7.44233e-05 4.83865e-07 -0.00192741
0.00128649 5.48951e-05 1.53427e-06
5.48951e-05 0.000205376 1.7255e-06
1.53427e-06 1.7255e-06 0.000114137
-0.000119373 1.34281e-05 2.17425e-06
1.34281e-05 -0.000358409 -1.38499e-06
2.17425e-06 -1.38499e-06 -0.000507211
0.00165534 0.000105956 1.50553e-06
0.000105956 0.000356348 -6.76508e-06
1.50553e-06 -6.76508e-06 0.000194803
-0.00115632 -2.2904e-05 4.9602e-06
-2.2904e-05 -0.000987048 1.3994e-06
4.9602e-06 1.3994e-06 -0.00102435
0.00221801 -0.000289263 2.50145e-05
-0.000289263 8.40393e-05 2.21807e-05
2.50145e-05 2.21807e-05 -0.000893181
0.00290369 0.000197408 5.90215e-05
0.000197408 0.000617109 -4.04773e-05
5.90215e-05 -4.04773e-05 0.000361639
0.0010723 2.4213e-06 3.4908e-05
2.4213e-06 0.000117948 1.3642e-05
3.4908e-05 1.3642e-05 -3.19199e-05
0.00429863 -0.000381353 4.40217e-05
-0.000381353 0.00117334 4.96783e-05
4.40217e-05 4.96783e-05 0.00117499
0.000760698 9.26589e-07 -2.94267e-06
9.26589e-07 -0.00013516 2.757e-07
-2.94267e-06 2.757e-07 -0.000176579
0.00115631 -5.26259e-05 4.61878e-07
-5.26259e-05 -0.000198392 -3.16848e-08
4.61878e-07 -3.16848e-08 -6.11047e-05
0.00102806 6.1699e-05 1.42117e-06
6.1699e-05 0.000119493 -6.98273e-07
1.42117e-06 -6.98273e-07 4.52527e-05
0.0012422 1.19847e-05 -5.07737e-07
1.19847e-05 0.000303822 6.69298e-07
-5.07737e-07 6.69298e-07 0.000238926
0.0010222 1.45149e-05 -2.63489e-06
1.45149e-05 7.41362e-05 -3.67963e-06
-2.63489e-06 -3.67963e-06 -1.98899e-05
-0.000172889 -6.98774e-06 1.01054e-05
-6.98774e-06 -0.000288635 -5.46912e-07
1.01054e-05 -5.46912e-07 -0.000443846
0.00291872 0.000214861 -3.87411e-05
0.000214861 0.000926232 -1.97826e-05
-3.87411e-05 -1.97826e-05 0.000709734
0.00587552 1.24956e-05 2.14968e-05
1.24956e-05 0.00115484 4.09268e-06
2.14968e-05 4.09268e-06 0.000160963
0.00138856 2.47785e-06 1.90005e-06
2.47785e-06 -5.10119e-05 -8.49675e-07
1.90005e-06 -8.49675e-07 5.2628e-05
0.00165913 -0.000223605 -1.4457e-06
-0.000223605 -0.000409712 2.52393e-05
-1.4457e-06 2.52393e-05 -0.00033842
0.000852017 3.32733e-05 -1.98895e-06
3.32733e-05 7.21348e-05 -6.25286e-06
-1.98895e-06 -6.25286e-06 1.00145e-05
0.00100398 1.34881e-05 1.23045e-05
1.34881e-05 8.19168e-05 5.17422e-06
1.23045e-05 5.17422e-06 -2.87003e-05
0.00150215 -5.44539e-06 -8.17867e-06
-5.44539e-06 0.000342549 -1.80058e-06
-8.17867e-06 -1.80058e-06 0.000224651
0.00089542 3.95214e-05 1.06142e-07
3.95214e-05 -0.00035309 -1.26737e-06
1.06142e-07 -1.26737e-06 -0.000237447
-0.00195207 4.771e-05 -6.66039e-07
4.771e-05 -0.00103897 -5.6511e-08
-6.66039e-07 -5.6511e-08 -0.00121926
0.00689074 -3.36274e-05 2.31769e-05
-3.36274e-05 0.00156412 1.56377e-05
2.31769e-05 1.56377e-05 0.0008878
0.000403988 3.84457e-06 -9.04991e-07
3.84457e-06 -0.00100527 -6.28713e-05
-9.04991e-07 -6.28713e-05 -0.000697415
0.00145374 7.35067e-05 1.28905e-06
7.35067e-05 0.000288369 2.46626e-06
1.28905e-06 2.46626e-06 0.000200241
0.00109859 5.51394e-05 -1.13321e-06
5.51394e-05 0.000106849 8.94854e-07
-1.13321e-06 8.94854e-07 1.39137e-05
0.00146737 5.18868e-05 -6.53494e-07
5.18868e-05 0.000299713 -3.51771e-06
-6.53494e-07 -3.51771e-06 0.000209232
0.00100455 4.51937e-05 -2.17688e-07
4.51937e-05 6.68543e-05 -3.33154e-07
-2.17688e-07 -3.33154e-07 9.65051e-07
0.001059 2.34708e-05 -1.23146e-07
2.34708e-05 9.32196e-05 -2.99926e-07
-1.23146e-07 -2.99926e-07 1.71719e-05
0.000884872 -3.99686e-06 -8.8094e-08
-3.99686e-06 2.34677e-05 1.20323e-06
-8.8094e-08 1.20323e-06 -7.49473e-05
0.00110756 3.37656e-05 -4.13402e-08
3.37656e-05 0.000115897 -1.32862e-07
-4.13402e-08 -1.32862e-07 4.25905e-05
0.00102493 -3.75444e-05 -6.19981e-08
-3.75444e-05 7.04134e-05 7.33618e-08
-6.19981e-08 7.33618e-08 -1.66459e-05
0.00111057 -3.13963e-05 1.53626e-06
-3.13963e-05 0.000134858 8.29832e-07
1.53626e-06 8.29832e-07 4.19039e-05
0.000847555 -1.16273e-05 3.42952e-07
-1.16273e-05 1.68971e-05 -5.47924e-07
3.42952e-07 -5.47924e-07 -6.24675e-05
0.00106481 -2.65404e-05 -2.92699e-07
-2.65404e-05 8.12493e-05 1.95981e-07
-2.92699e-07 1.95981e-07 6.63875e-07
0.00110164 1.83463e-05 -6.60023e-07
1.83463e-05 0.000110824 -7.32226e-07
-6.60023e-07 -7.32226e-07 3.93127e-05
0.000993751 8.52648e-06 -1.63389e-08
8.52648e-06 6.79939e-05 -2.75389e-07
-1.63389e-08 -2.75389e-07 -2.80665e-06
0.00103275 1.03971e-05 -2.76079e-07
1.03971e-05 7.19298e-05 -5.21383e-07
-2.76079e-07 -5.21383e-07 -2.19087e-06
0.00102054 -1.26051e-05 1.88783e-07
-1.26051e-05 6.30639e-05 -2.05823e-08
1.88783e-07 -2.05823e-08 -1.42003e-05
0.000998254 -1.26997e-05 8.64745e-08
-1.26997e-05 5.91047e-05 4.43552e-07
8.64745e-08 4.43552e-07 -2.00316e-05
0.00102642 -5.40162e-05 1.33803e-07
-5.40162e-05 8.89846e-05 9.53471e-07
1.33803e-07 9.53471e-07 1.61563e-06
0.000950804 -4.81397e-05 8.68519e-08
-4.81397e-05 4.89838e-05 -7.91736e-07
8.68519e-08 -7.91736e-07 -3.88693e-05
0.0011015 -6.6506e-05 5.5501e-07
-6.6506e-05 0.000139624 1.02781e-06
5.5501e-07 1.02781e-06 3.24498e-05
0.00116474 -3.72931e-05 -1.53995e-08
-3.72931e-05 0.000153722 -4.03499e-07
-1.53995e-08 -4.03499e-07 6.91806e-05
0.00106879 -5.61277e-05 -1.6146e-07
-5.61277e-05 0.000124186 9.51736e-07
-1.6146e-07 9.51736e-07 3.22518e-05
0.000680685 -5.73426e-05 -3.80235e-07
-5.73426e-05 -8.2271e-05 1.79382e-06
-3.80235e-07 1.79382e-06 -0.000187331
0.000992735 -6.5266e-05 -1.94971e-06
-6.5266e-05 7.23858e-05 1.37709e-07
-1.94971e-06 1.37709e-07 -2.28438e-05
0.00105276 -6.21265e-05 -1.05343e-06
-6.21265e-05 0.000110352 2.64804e-07
-1.05343e-06 2.64804e-07 2.51692e-05
0.000966152 -6.29971e-05 -2.39418e-07
-6.29971e-05 6.41998e-05 -5.51e-08
-2.39418e-07 -5.51e-08 -3.22529e-05
0.00100729 -3.49121e-05 -3.62553e-07
-3.49121e-05 7.58243e-05 7.09374e-07
-3.62553e-07 7.09374e-07 2.42116e-06
0.00109962 -5.14387e-05 -2.97003e-07
-5.14387e-05 0.000131522 -3.72421e-07
-2.97003e-07 -3.72421e-07 4.87337e-05
0.000877073 -5.31498e-05 -6.61363e-08
-5.31498e-05 4.01366e-05 -1.47483e-06
-6.61363e-08 -1.47483e-06 -4.55376e-05
0.00112037 -3.364e-05 2.02069e-07
-3.364e-05 0.00014036 -8.20734e-07
2.02069e-07 -8.20734e-07 6.14667e-05
0.000933279 -1.69076e-05 5.37914e-08
-1.69076e-05 3.48482e-05 -2.65607e-08
5.37914e-08 -2.65607e-08 -3.35218e-05
0.000955289 4.5248e-06 -3.43979e-07
4.5248e-06 3.77315e-05 1.29362e-06
-3.43979e-07 1.29362e-06 -1.52552e-05
0.000988074 -1.40467e-05 2.04662e-07
-1.40467e-05 6.17554e-05 -4.42897e-07
2.04662e-07 -4.42897e-07 -1.98951e-06
0.000942811 5.56638e-06 -1.20319e-07
5.56638e-06 3.03919e-05 -1.03584e-07
-1.20319e-07 -1.03584e-07 -1.83583e-05
0.000897931 1.54611e-05 -9.57074e-07
1.54611e-05 4.01228e-06 1.70083e-06
-9.57074e-07 1.70083e-06 -2.64106e-05
0.00093388 -3.19474e-06 5.03972e-07
-3.19474e-06 2.60286e-05 -9.76711e-07
5.03972e-07 -9.76711e-07 -2.01145e-05
0.00090418 1.15897e-05 -7.00416e-08
1.15897e-05 3.78541e-06 -3.50904e-09
-7.00416e-08 -3.50904e-09 -2.47298e-05
0.00140326 1.89338e-05 -5.97915e-06
1.89338e-05 0.00025799 3.02209e-06
-5.97915e-06 3.02209e-06 0.000258971
0.000910564 2.27245e-06 9.4366e-07
2.27245e-06 4.064e-06 -1.57699e-06
9.4366e-07 -1.57699e-06 -2.30013e-05
0.00114195 1.48933e-05 -2.47289e-06
1.48933e-05 0.000118114 5.55274e-07
-2.47289e-06 5.55274e-07 0.000118907
0.00099626 1.47943e-05 -1.74656e-06
1.47943e-05 4.24973e-05 1.50197e-06
-1.74656e-06 1.50197e-06 5.91984e-05
0.000859607 1.06321e-05 9.70402e-07
1.06321e-05 -3.18612e-05 -3.01044e-06
9.70402e-07 -3.01044e-06 -3.14146e-05
0.00158783 1.3022e-05 4.05216e-06
1.3022e-05 0.000343754 -1.13782e-06
4.05216e-06 -1.13782e-06 0.000364157
0.00215814 9.67461e-06 6.6157e-06
9.67461e-06 0.000636644 -3.80994e-06
6.6157e-06 -3.80994e-06 0.000660145
0.000781184 -4.19541e-07 -3.61475e-07
-4.19541e-07 -5.14066e-05 -1.46755e-06
-3.61475e-07 -1.46755e-06 -0.000100897
0.000676206 -7.17959e-06 -2.97393e-07
-7.17959e-06 -0.00011735 -2.16879e-06
-2.97393e-07 -2.16879e-06 -0.00014439
0.00102136 -1.80458e-06 -4.44472e-08
-1.80458e-06 7.06021e-05 4.06925e-08
-4.44472e-08 4.06925e-08 2.62388e-05
0.000873673 -7.13733e-06 -5.93869e-07
-7.13733e-06 -2.75822e-05 -3.05963e-06
-5.93869e-07 -3.05963e-06 -2.52609e-05
0.000799818 -4.72344e-06 3.66711e-08
-4.72344e-06 -5.63388e-05 -1.02962e-08
3.66711e-08 -1.02962e-08 -8.06219e-05
0.000790307 -1.92818e-05 -1.33366e-07
-1.92818e-05 -4.76914e-05 9.07479e-07
-1.33366e-07 9.07479e-07 -8.99818e-05
0.00208775 -4.73649e-06 -3.96533e-06
-4.73649e-06 0.000598496 -3.88854e-06
-3.96533e-06 -3.88854e-06 0.000623125
0.000866583 -3.46659e-06 -1.40024e-07
-3.46659e-06 -3.31288e-05 -1.57757e-08
-1.40024e-07 -1.57757e-08 -2.96366e-05
0.000923566 -2.91003e-06 -4.80295e-08
-2.91003e-06 5.29053e-06 1.66127e-06
-4.80295e-08 1.66127e-06 -1.6995e-05
0.00207181 1.88081e-07 -1.38954e-06
1.88081e-07 0.000589535 2.50327e-10
-1.38954e-06 2.50327e-10 0.00061447
0.000867821 3.85515e-07 -7.37296e-08
3.85515e-07 -3.31805e-05 3.0429e-06
-7.37296e-08 3.0429e-06 -2.9265e-05
0.00208105 5.19651e-06 -3.62405e-06
5.19651e-06 0.000595046 3.84802e-06
-3.62405e-06 3.84802e-06 0.000619742
0.00123651 -1.45491e-05 5.08356e-06
-1.45491e-05 0.000258961 2.94319e-07
5.08356e-06 2.94319e-07 0.000180634
0.00121791 3.97226e-05 1.47358e-06
3.97226e-05 0.000394327 -3.5793e-07
1.47358e-06 -3.5793e-07 0.00042661
0.000577148 7.16252e-06 0.00010583
7.16252e-06 -4.86931e-05 -1.62249e-05
0.00010583 -1.62249e-05 -0.000218033
0.000983555 1.85181e-05 -3.56794e-07
1.85181e-05 5.60382e-05 -6.54455e-07
-3.56794e-07 -6.54455e-07 -8.64556e-06
0.00111567 -2.79233e-06 1.52392e-05
-2.79233e-06 0.000130188 3.67245e-06
1.52392e-05 3.67245e-06 3.89877e-05
0.0011149 6.29145e-06 -6.55412e-06
6.29145e-06 6.35099e-05 2.43194e-06
-6.55412e-06 2.43194e-06 3.41358e-05
0.00139714 0.000128919 1.28142e-05
0.000128919 0.000411875 -7.95226e-06
1.28142e-05 -7.95226e-06 0.00065713
0.00193583 8.13592e-05 -4.02751e-05
8.13592e-05 0.000183293 1.48004e-05
-4.02751e-05 1.48004e-05 -3.2755e-05
0.0065723 0.000323239 1.56772e-05
0.000323239 0.00231462 -1.21811e-05
1.56772e-05 -1.21811e-05 0.00145077
-0.0014105 0.000244314 5.63744e-05
0.000244314 -0.00108547 -3.4945e-05
5.63744e-05 -3.4945e-05 -0.000998416
0.00228489 0.00014088 6.46584e-06
0.00014088 0.000244525 -8.47439e-06
6.46584e-06 -8.47439e-06 0.000643785
0.00170258 7.02532e-05 -2.54899e-05
7.02532e-05 -7.85187e-05 7.23973e-06
-2.54899e-05 7.23973e-06 -0.000390785
0.00489205 0.000234111 2.64912e-05
0.000234111 0.00138561 -1.78549e-05
2.64912e-05 -1.78549e-05 0.000487343
0.00161541 0.000284219 -6.54239e-06
0.000284219 -0.000399105 1.22403e-05
-6.54239e-06 1.22403e-05 -0.000261683
0.00208679 6.32052e-05 8.61155e-08
6.32052e-05 0.00020359 1.27775e-06
8.61155e-08 1.27775e-06 0.000420643
0.00380641 -9.27043e-05 1.64366e-05
-9.27043e-05 0.000877585 -3.17885e-05
1.64366e-05 -3.17885e-05 0.000527801
0.00765115 0.000246763 2.68377e-05
0.000246763 0.00219765 -3.81907e-06
2.68377e-05 -3.81907e-06 0.00113979
0.00165309 0.000257772 7.6616e-06
0.000257772 -0.000610631 5.81961e-05
7.6616e-06 5.81961e-05 -0.000582541
0.00276867 3.40024e-05 -6.21751e-07
3.40024e-05 0.00066411 -1.05041e-06
-6.21751e-07 -1.05041e-06 0.000863305
0.000950702 -6.4894e-06 1.47564e-07
-6.4894e-06 4.38103e-05 -7.02895e-07
1.47564e-07 -7.02895e-07 -3.51218e-05
0.00101406 -1.66408e-05 3.18226e-07
-1.66408e-05 8.52191e-05 -3.7037e-08
3.18226e-07 -3.7037e-08 9.79041e-06
0.00107161 3.42324e-05 -5.3079e-07
3.42324e-05 0.000113808 4.80788e-07
-5.3079e-07 4.80788e-07 4.83433e-05
0.0009702 6.02701e-06 -3.24014e-07
6.02701e-06 5.22694e-05 -9.8768e-07
-3.24014e-07 -9.8768e-07 -1.86411e-05
0.00102279 3.09898e-05 -3.51257e-07
3.09898e-05 8.62353e-05 3.70334e-07
-3.51257e-07 3.70334e-07 1.51623e-05
0.00107652 1.52428e-05 3.36621e-07
1.52428e-05 0.000114872 1.39222e-06
3.36621e-07 1.39222e-06 5.01474e-05
0.00112789 3.88112e-05 -3.67718e-07
3.88112e-05 0.00013553 8.92135e-08
-3.67718e-07 8.92135e-08 7.29228e-05
0.00114519 3.97493e-05 6.98613e-07
3.97493e-05 0.00014669 1.31112e-06
6.98613e-07 1.31112e-06 8.66514e-05
0.000916474 -0.000126307 3.39343e-06
-0.000126307 -0.000418216 -3.99734e-06
3.39343e-06 -3.99734e-06 -0.000408489
0.00137079 -0.000132156 -7.74525e-07
-0.000132156 0.000237198 3.05283e-06
-7.74525e-07 3.05283e-06 5.13527e-05
0.00097965 -6.43958e-05 -1.38396e-06
-6.43958e-05 6.92064e-05 8.83214e-07
-1.38396e-06 8.83214e-07 -1.09258e-05
0.00143697 -2.55077e-05 4.53627e-07
-2.55077e-05 0.000320103 1.46955e-07
4.53627e-07 1.46955e-07 0.000180016
0.0012671 -2.92728e-05 -8.2992e-07
-2.92728e-05 0.000195586 3.65459e-07
-8.2992e-07 3.65459e-07 0.000100187
0.00112106 3.31579e-06 -4.84392e-07
3.31579e-06 0.000133971 -3.94659e-07
-4.84392e-07 -3.94659e-07 4.98681e-05
0.00104735 2.40744e-05 9.00097e-08
2.40744e-05 9.17237e-05 2.31803e-07
9.00097e-08 2.31803e-07 8.46201e-06
0.00150795 -0.000169412 -2.41206e-06
-0.000169412 3.63452e-05 -7.14587e-07
-2.41206e-06 -7.14587e-07 5.03787e-05
0.00105489 1.10933e-05 5.24173e-09
1.10933e-05 8.57118e-05 -7.13806e-07
5.24173e-09 -7.13806e-07 -6.87069e-06
0.00110685 4.63718e-06 -4.10762e-07
4.63718e-06 0.000123522 1.53506e-07
-4.10762e-07 1.53506e-07 1.55421e-05
0.00108633 -3.52679e-05 -2.90689e-07
-3.52679e-05 0.000218178 3.72709e-07
-2.90689e-07 3.72709e-07 -1.77321e-05
0.00117495 2.3151e-05 5.46421e-08
2.3151e-05 0.000145717 -2.36347e-07
5.46421e-08 -2.36347e-07 6.55715e-05
3.99802e-05 -0.000148273 -2.30328e-05
-0.000148273 -0.00035689 -7.12735e-06
-2.30328e-05 -7.12735e-06 -0.000460503
0.00141685 5.17482e-05 -5.61506e-06
5.17482e-05 0.000411327 6.22532e-06
-5.61506e-06 6.22532e-06 0.000223119
0.000862582 1.80738e-05 -7.38188e-07
1.80738e-05 -2.25171e-05 1.04322e-06
-7.38188e-07 1.04322e-06 -0.000108931
0.00115461 5.78319e-05 -4.35111e-07
5.78319e-05 0.000138632 -3.11412e-07
-4.35111e-07 -3.11412e-07 5.10965e-05
0.0014441 -1.47305e-06 1.67976e-05
-1.47305e-06 0.00038468 -6.44847e-07
1.67976e-05 -6.44847e-07 0.000271073
0.00157492 -5.41253e-06 -4.41867e-07
-5.41253e-06 0.000500352 3.12205e-07
-4.41867e-07 3.12205e-07 0.000423916
-0.00109164 -8.6577e-06 1.02667e-05
-8.6577e-06 -0.000911664 7.43196e-07
1.02667e-05 7.43196e-07 -0.000959131
0.000521219 4.73355e-05 3.00264e-06
4.73355e-05 -0.000134721 1.16376e-06
3.00264e-06 1.16376e-06 -0.000205628
-0.000824846 1.56141e-05 -7.6136e-06
1.56141e-05 -0.000592 1.78151e-06
-7.6136e-06 1.78151e-06 -0.000763835
0.000588742 1.41073e-05 -9.0941e-06
1.41073e-05 -7.93161e-05 -2.05694e-06
-9.0941e-06 -2.05694e-06 -0.000143857
0.0039769 -0.000339275 4.79712e-05
-0.000339275 0.000686401 1.33963e-05
4.79712e-05 1.33963e-05 -0.000374132
0.00419076 0.000254383 -2.18017e-05
0.000254383 0.00116303 -7.53687e-05
-2.18017e-05 -7.53687e-05 0.00069403
0.00257047 -0.000281455 1.33692e-05
-0.000281455 -0.000269807 0.000102295
1.33692e-05 0.000102295 -0.000126447
0.000933745 1.49708e-05 -1.59585e-05
1.49708e-05 1.63613e-05 -5.56379e-06
-1.59585e-05 -5.56379e-06 -7.60068e-05
0.000656706 -3.47011e-06 -1.06074e-06
-3.47011e-06 -0.000450565 -1.82069e-06
-1.06074e-06 -1.82069e-06 -0.000403798
0.00107925 4.75688e-05 -1.43148e-06
4.75688e-05 0.000180662 -4.98796e-07
-1.43148e-06 -4.98796e-07 0.000113156
0.0010092 1.16374e-05 2.06107e-06
1.16374e-05 8.85336e-05 2.31437e-06
2.06107e-06 2.31437e-06 -2.30102e-05
0.00122845 -6.39279e-06 -6.07648e-06
-6.39279e-06 0.000198341 2.40628e-06
-6.07648e-06 2.40628e-06 7.20695e-05
-3.23601e-05 6.85787e-05 7.93091e-06
6.85787e-05 -3.14112e-05 -3.35361e-06
7.93091e-06 -3.35361e-06 -0.00015116
0.00198832 4.92312e-05 -2.83965e-07
4.92312e-05 0.0002176 -2.09099e-06
-2.83965e-07 -2.09099e-06 0.000383122
0.00532786 9.71392e-05 2.62725e-05
9.71392e-05 0.000509129 -3.0721e-06
2.62725e-05 -3.0721e-06 0.000100813
0.00321155 3.38065e-05 -3.04857e-05
3.38065e-05 0.000148021 -5.25659e-06
-3.04857e-05 -5.25659e-06 0.000367714
0.000790676 6.66303e-05 1.79771e-06
6.66303e-05 0.000173433 -8.20144e-06
1.79771e-06 -8.20144e-06 7.55055e-05
0.00140318 -4.66476e-06 2.18122e-06
-4.66476e-06 0.000258481 1.57924e-07
2.18122e-06 1.57924e-07 0.000126294
0.00102628 -1.67123e-05 -1.52067e-05
-1.67123e-05 6.94433e-05 -2.55504e-06
-1.52067e-05 -2.55504e-06 -3.14045e-05
0.00203741 0.000145922 1.07855e-05
0.000145922 0.000131064 -7.05326e-06
1.07855e-05 -7.05326e-06 0.000484985
0.00143479 0.000279964 -7.21622e-06
0.000279964 -0.000653328 -5.93288e-05
-7.21622e-06 -5.93288e-05 -0.000660114
0.00154739 0.000152134 1.22053e-05
0.000152134 0.000601211 -2.21335e-06
1.22053e-05 -2.21335e-06 0.000647237
0.00360696 -0.000159642 5.40037e-05
-0.000159642 0.000140598 1.85295e-05
5.40037e-05 1.85295e-05 -0.000420198
0.00123312 6.00918e-05 -1.31873e-06
6.00918e-05 0.000165122 4.30164e-06
-1.31873e-06 4.30164e-06 6.88616e-05
0.00128966 3.38137e-05 -4.22972e-07
3.38137e-05 0.000206289 1.20018e-06
-4.22972e-07 1.20018e-06 0.000121231
0.000238244 -1.87941e-05 1.22473e-06
-1.87941e-05 -0.000127445 -6.69243e-06
1.22473e-06 -6.69243e-06 -0.000310863
0.00115363 2.0539e-05 -5.03573e-07
2.0539e-05 0.00013723 -5.31274e-07
-5.03573e-07 -5.31274e-07 6.51118e-05
0.000983208 -3.88624e-05 -1.63747e-07
-3.88624e-05 4.96779e-05 5.14942e-07
-1.63747e-07 5.14942e-07 -3.80996e-05
0.000959877 -2.96777e-05 -2.63115e-07
-2.96777e-05 5.7141e-05 2.83206e-06
-2.63115e-07 2.83206e-06 -3.97474e-05
0.0010286 -3.6213e-05 -8.10208e-08
-3.6213e-05 6.5145e-05 1.18703e-07
-8.10208e-08 1.18703e-07 -1.62533e-05
0.000825057 -2.32269e-05 -7.77747e-07
-2.32269e-05 -2.27593e-06 1.395e-06
-7.77747e-07 1.395e-06 -8.10273e-05
0.000841431 -4.41209e-05 1.40867e-06
-4.41209e-05 5.39413e-05 -1.43408e-07
1.40867e-06 -1.43408e-07 -7.20621e-05
0.000991776 -1.71359e-05 7.07228e-08
-1.71359e-05 4.86357e-05 -2.93919e-07
7.07228e-08 -2.93919e-07 -2.88179e-05
0.00100842 -4.86992e-07 -1.15625e-07
-4.86992e-07 6.24603e-05 1.28312e-07
-1.15625e-07 1.28312e-07 -1.56372e-05
0.00117489 -5.43213e-05 1.05231e-08
-5.43213e-05 0.000159727 3.66126e-07
1.05231e-08 3.66126e-07 7.02236e-05
0.00101735 -6.59868e-05 2.83218e-07
-6.59868e-05 0.000126364 1.17991e-06
2.83218e-07 1.17991e-06 4.15073e-06
0.000942628 -4.71867e-05 -5.35831e-07
-4.71867e-05 4.87544e-05 -7.33609e-07
-5.35831e-07 -7.33609e-07 -3.7654e-05
0.000827053 -5.66019e-05 7.05494e-07
-5.66019e-05 5.09578e-06 -1.97721e-07
7.05494e-07 -1.97721e-07 -9.89308e-05
0.0010926 -7.35565e-05 8.85345e-07
-7.35565e-05 0.000134628 6.44295e-07
8.85345e-07 6.44295e-07 1.38521e-05
0.00116954 -7.75505e-05 -2.30476e-06
-7.75505e-05 0.000127735 1.89408e-06
-2.30476e-06 1.89408e-06 2.09473e-05
0.00131861 -6.38462e-05 -3.30071e-08
-6.38462e-05 0.000244753 -2.93968e-07
-3.30071e-08 -2.93968e-07 0.000152351
0.000862422 -6.33488e-05 -3.67231e-07
-6.33488e-05 6.10824e-06 2.34227e-08
-3.67231e-07 2.34227e-08 -0.000100867
0.00129095 -7.57366e-05 7.98549e-08
-7.57366e-05 0.000215118 -3.63286e-07
7.98549e-08 -3.63286e-07 0.000125568
0.000813241 -5.46002e-05 -1.05649e-06
-5.46002e-05 -4.20109e-06 -1.04722e-07
-1.05649e-06 -1.04722e-07 -9.13728e-05
0.000995614 -6.50878e-05 3.58002e-07
-6.50878e-05 7.31398e-05 3.98324e-08
3.58002e-07 3.98324e-08 -2.04712e-05
0.0010276 -4.29162e-05 -9.29189e-07
-4.29162e-05 8.99975e-05 3.46012e-07
-9.29189e-07 3.46012e-07 1.43954e-05
0.00108256 -6.21711e-05 -1.02189e-06
-6.21711e-05 0.000123588 6.60076e-07
-1.02189e-06 6.60076e-07 3.84253e-05
0.000851231 -5.8962e-05 -1.05643e-07
-5.8962e-05 9.86838e-06 -7.51603e-07
-1.05643e-07 -7.51603e-07 -8.63422e-05
0.000981987 -1.56635e-06 -7.36323e-07
-1.56635e-06 5.43233e-05 1.2993e-06
-7.36323e-07 1.2993e-06 -3.77863e-06
0.0009653 -3.31339e-05 2.85017e-07
-3.31339e-05 5.35149e-05 1.38393e-07
2.85017e-07 1.38393e-07 -1.98604e-05
0.00107682 -5.22398e-05 1.41204e-06
-5.22398e-05 0.000120005 -7.07195e-07
1.41204e-06 -7.07195e-07 3.64854e-05
0.00100232 -1.79237e-05 3.40248e-07
-1.79237e-05 7.01436e-05 -8.77248e-07
3.40248e-07 -8.77248e-07 2.73052e-06
0.000950952 4.4177e-06 1.12626e-07
4.4177e-06 3.54819e-05 -7.18273e-08
1.12626e-07 -7.18273e-08 -1.75065e-05
0.000896931 1.77327e-05 -1.05465e-06
1.77327e-05 7.69446e-06 1.87237e-06
-1.05465e-06 1.87237e-06 -2.56617e-05
0.000940289 1.84487e-06 3.01022e-07
1.84487e-06 2.95676e-05 -1.15752e-06
3.01022e-07 -1.15752e-06 -1.93329e-05
0.000896141 1.65069e-05 3.87112e-08
1.65069e-05 3.04244e-06 -2.51291e-08
3.87112e-08 -2.51291e-08 -2.74763e-05
0.000816761 1.95951e-05 -1.85664e-06
1.95951e-05 -3.95584e-05 3.18217e-06
-1.85664e-06 3.18217e-06 -4.31767e-05
0.000903752 1.00014e-05 8.34398e-07
1.00014e-05 3.18993e-06 -1.66316e-06
8.34398e-07 -1.66316e-06 -2.52783e-05
0.000837492 1.69225e-05 1.36938e-07
1.69225e-05 -3.44308e-05 5.8872e-09
1.36938e-07 5.8872e-09 -3.64483e-05
0.00214679 2.6096e-05 -4.44458e-06
2.6096e-05 0.000642244 1.5411e-06
-4.44458e-06 1.5411e-06 0.000663317
0.000857632 1.39444e-05 1.30519e-06
1.39444e-05 -2.91323e-05 -3.05103e-06
1.30519e-06 -3.05103e-06 -2.97192e-05
0.00159217 1.72981e-05 5.02493e-06
1.72981e-05 0.00035001 -1.11403e-06
5.02493e-06 -1.11403e-06 0.000369559
0.00216433 1.45232e-05 9.3029e-06
1.45232e-05 0.00064283 -3.78216e-06
9.3029e-06 -3.78216e-06 0.000665751
0.000787341 -9.55444e-06 -1.05753e-07
-9.55444e-06 -5.15804e-05 -1.4952e-06
-1.05753e-07 -1.4952e-06 -0.000102621
0.00065019 -9.20887e-06 -5.01398e-07
-9.20887e-06 -0.000128023 -2.27035e-06
-5.01398e-07 -2.27035e-06 -0.000158215
0.000916588 -1.61141e-06 -1.56213e-07
-1.61141e-06 1.72279e-05 -5.01645e-07
-1.56213e-07 -5.01645e-07 -3.15623e-05
0.000872636 -1.07412e-05 -8.06305e-07
-1.07412e-05 -2.50809e-05 -3.13284e-06
-8.06305e-07 -3.13284e-06 -2.44407e-05
0.000669214 -7.3664e-06 -6.25172e-08
-7.3664e-06 -0.000120712 -5.96777e-07
-6.25172e-08 -5.96777e-07 -0.000148101
0.00103244 2.79674e-07 2.28929e-08
2.79674e-07 7.68137e-05 9.80477e-07
2.28929e-08 9.80477e-07 3.19107e-05
0.00211467 -9.53867e-06 -6.8386e-06
-9.53867e-06 0.000614183 -3.90901e-06
-6.8386e-06 -3.90901e-06 0.000638178
0.000863696 -7.04924e-06 -1.05131e-07
-7.04924e-06 -3.27066e-05 -1.76656e-08
-1.05131e-07 -1.76656e-08 -3.03007e-05
0.000672822 -5.1324e-06 9.16904e-08
-5.1324e-06 -0.000120696 1.55799e-06
9.16904e-08 1.55799e-06 -0.000145848
0.00208446 -4.58515e-06 -1.46241e-06
-4.58515e-06 0.000596627 9.14972e-09
-1.46241e-06 9.14972e-09 0.000621333
0.000861058 -3.35539e-06 1.31509e-07
-3.35539e-06 -3.60574e-05 3.05117e-06
1.31509e-07 3.05117e-06 -3.25038e-05
0.00207302 3.77636e-07 -6.0815e-07
3.77636e-07 0.000590152 3.85626e-06
-6.0815e-07 3.85626e-06 0.000615084
0.0011783 -1.33458e-05 1.79594e-05
-1.33458e-05 0.000202077 -1.33768e-06
1.79594e-05 -1.33768e-06 9.0899e-05
0.0012579 -1.51441e-05 -6.25948e-06
-1.51441e-05 0.000273715 5.88758e-07
-6.25948e-06 5.88758e-07 0.000197606
0.00110515 1.9577e-05 1.09333e-05
1.9577e-05 0.000345978 1.89827e-06
1.09333e-05 1.89827e-06 0.00034393
0.00101726 2.45435e-05 3.0139e-08
2.45435e-05 7.28564e-05 7.00222e-08
3.0139e-08 7.00222e-08 8.90645e-06
0.000928259 1.0086e-05 -1.89415e-07
1.0086e-05 2.15844e-05 -5.81483e-07
-1.89415e-07 -5.81483e-07 -4.31557e-05
0.00110959 3.32541e-05 -2.87016e-07
3.32541e-05 0.000123033 8.00812e-09
-2.87016e-07 8.00812e-09 5.1443e-05
0.00133107 1.15636e-05 6.07217e-06
1.15636e-05 0.000238223 1.608e-06
6.07217e-06 1.608e-06 0.000126722
0.00114196 -6.43206e-06 6.73671e-07
-6.43206e-06 0.000172235 -4.79717e-07
6.73671e-07 -4.79717e-07 7.85478e-05
0.00122063 5.76605e-07 -1.04605e-05
5.76605e-07 0.000162644 -1.35508e-06
-1.04605e-05 -1.35508e-06 0.00010946
0.000690725 6.09177e-05 -3.65727e-05
6.09177e-05 -0.000531139 1.0659e-05
-3.65727e-05 1.0659e-05 -0.000675125
0.00251487 0.000205657 1.16901e-05
0.000205657 0.000480478 -1.78746e-05
1.16901e-05 -1.78746e-05 -0.000529004
0.00391397 0.000368792 4.19887e-05
0.000368792 0.000866038 -2.72911e-05
4.19887e-05 -2.72911e-05 0.000954305
0.000733763 4.45281e-05 1.31872e-06
4.45281e-05 -0.000611435 -4.89062e-06
1.31872e-06 -4.89062e-06 -0.000410526
0.00109079 -5.07439e-05 -8.81667e-06
-5.07439e-05 -0.000249645 8.00688e-06
-8.81667e-06 8.00688e-06 -0.000325291
0.0049866 0.000102652 3.33457e-05
0.000102652 0.00104536 -4.06462e-05
3.33457e-05 -4.06462e-05 4.48009e-05
0.00105851 0.000131547 -3.91449e-06
0.000131547 -0.000702376 1.23567e-05
-3.91449e-06 1.23567e-05 -0.000478338
0.00146529 2.23548e-05 7.79248e-07
2.23548e-05 -9.45128e-05 5.71572e-06
7.79248e-07 5.71572e-06 6.32049e-05
0.00346154 -0.000267708 1.52284e-05
-0.000267708 0.000648431 -5.67322e-05
1.52284e-05 -5.67322e-05 0.00054459
0.00827317 0.000148214 2.92894e-05
0.000148214 0.00230016 -3.1274e-05
2.92894e-05 -3.1274e-05 0.00162301
0.000315976 1.80047e-06 3.12354e-06
1.80047e-06 -0.0010874 5.99566e-05
3.12354e-06 5.99566e-05 -0.000810959
0.00048873 -2.3407e-05 -9.84512e-07
-2.3407e-05 -0.000655659 4.82812e-06
-9.84512e-07 4.82812e-06 -0.000477475
0.00105226 4.12776e-06 -8.30744e-08
4.12776e-06 8.83652e-05 -1.33834e-07
-8.30744e-08 -1.33834e-07 9.68792e-06
0.000964718 -5.27371e-06 -1.14445e-07
-5.27371e-06 5.25204e-05 -2.01186e-07
-1.14445e-07 -2.01186e-07 -2.69594e-05
0.0010158 -2.47245e-05 -2.40325e-07
-2.47245e-05 8.56539e-05 6.43983e-07
-2.40325e-07 6.43983e-07 1.00221e-05
0.000982427 1.76014e-05 -4.10272e-07
1.76014e-05 5.86641e-05 -6.07021e-07
-4.10272e-07 -6.07021e-07 -1.25568e-05
0.00110784 5.74579e-05 1.15376e-06
5.74579e-05 0.000129753 9.28506e-07
1.15376e-06 9.28506e-07 5.96174e-05
0.00117611 3.8938e-05 1.55226e-07
3.8938e-05 0.000159737 7.59211e-07
1.55226e-07 7.59211e-07 9.73289e-05
0.00296774 -0.000203929 4.71332e-06
-0.000203929 0.000773391 8.95247e-07
4.71332e-06 8.95247e-07 0.000765913
0.000502415 -1.87742e-05 1.64979e-06
-1.87742e-05 -6.09356e-05 3.21946e-06
1.64979e-06 3.21946e-06 -0.000310374
0.00111537 3.1825e-05 5.07826e-07
3.1825e-05 0.000127154 5.88023e-07
5.07826e-07 5.88023e-07 4.3466e-05
0.00124899 -2.61998e-05 9.34662e-07
-2.61998e-05 0.000200005 -8.15387e-07
9.34662e-07 -8.15387e-07 8.58335e-05
0.00113356 1.04013e-06 1.95832e-07
1.04013e-06 0.000128351 -4.22634e-07
1.95832e-07 -4.22634e-07 3.72598e-05
0.00107221 1.32785e-05 4.76794e-07
1.32785e-05 9.22142e-05 6.45301e-08
4.76794e-07 6.45301e-08 1.26986e-05
0.00109402 3.25608e-05 2.93975e-07
3.25608e-05 0.000106265 -2.56801e-07
2.93975e-07 -2.56801e-07 1.95654e-05
0.000897428 -0.00014658 -3.44254e-06
-0.00014658 3.08808e-05 2.90087e-06
-3.44254e-06 2.90087e-06 -4.56837e-05
0.00118109 -5.56171e-06 6.38296e-07
-5.56171e-06 0.000134531 -1.15399e-06
6.38296e-07 -1.15399e-06 4.94324e-05
0.00120467 4.78494e-05 -1.56976e-06
4.78494e-05 0.000345955 -9.82875e-07
-1.56976e-06 -9.82875e-07 0.000167473
0.000946676 -9.66126e-07 5.11026e-07
-9.66126e-07 2.8992e-05 -1.24757e-06
5.11026e-07 -1.24757e-06 -5.0726e-05
-0.000386617 -3.27529e-05 1.46205e-06
-3.27529e-05 -0.000231311 -8.48114e-06
1.46205e-06 -8.48114e-06 -0.000460151
0.000161471 1.22869e-05 -3.18837e-06
1.22869e-05 -0.000249578 1.40581e-05
-3.18837e-06 1.40581e-05 -0.00029206
0.00104892 -1.08722e-05 -1.66668e-08
-1.08722e-05 7.24093e-05 -2.36279e-07
-1.66668e-08 -2.36279e-07 -1.30211e-05
0.00139413 -2.72554e-06 3.13953e-07
-2.72554e-06 0.000273035 6.98365e-07
3.13953e-07 6.98365e-07 0.000136407
0.00112825 -2.28132e-06 6.19701e-06
-2.28132e-06 0.000176138 3.04819e-07
6.19701e-06 3.04819e-07 5.61283e-05
0.00131856 -5.23518e-06 -1.19134e-05
-5.23518e-06 0.000330836 1.01014e-06
-1.19134e-05 1.01014e-06 0.000248947
0.00123896 6.58019e-05 3.76149e-06
6.58019e-05 0.000255547 3.92795e-06
3.76149e-06 3.92795e-06 0.000181948
0.000225453 8.82377e-05 9.50063e-06
8.82377e-05 -1.83927e-05 -1.48975e-05
9.50063e-06 -1.48975e-05 -0.000126771
0.000997549 9.76473e-06 -1.34637e-05
9.76473e-06 8.46267e-05 -1.53258e-07
-1.34637e-05 -1.53258e-07 -2.75667e-05
0.0034571 -2.08977e-06 -1.89265e-05
-2.08977e-06 0.000194627 -9.63069e-06
-1.89265e-05 -9.63069e-06 -0.000151106
-0.00058583 3.02038e-05 -1.0009e-06
3.02038e-05 -0.0015792 7.0843e-05
-1.0009e-06 7.0843e-05 -0.00132379
0.000917789 -7.14033e-06 -4.66493e-06
-7.14033e-06 3.03328e-05 -2.89629e-06
-4.66493e-06 -2.89629e-06 -0.00010499
0.000778415 3.04719e-05 -1.15868e-06
3.04719e-05 -0.000503512 1.77858e-06
-1.15868e-06 1.77858e-06 -0.000359919
0.000604926 4.21283e-05 -2.82424e-06
4.21283e-05 5.91572e-05 -4.65383e-07
-2.82424e-06 -4.65383e-07 -3.48622e-05
0.00124153 -4.72675e-06 -1.12499e-06
-4.72675e-06 0.00016205 8.90366e-07
-1.12499e-06 8.90366e-07 2.8165e-05
0.00114923 -2.05861e-05 -7.26977e-07
-2.05861e-05 0.000175383 9.72096e-07
-7.26977e-07 9.72096e-07 7.18576e-05
0.00145219 0.000197255 3.54651e-05
0.000197255 0.000208495 1.76148e-06
3.54651e-05 1.76148e-06 0.000140292
0.00170395 0.000135227 2.07506e-06
0.000135227 -6.88644e-05 -2.58971e-06
2.07506e-06 -2.58971e-06 0.000290689
0.000809526 0.000152297 4.48437e-06
0.000152297 -0.000756428 -1.37096e-05
4.48437e-06 -1.37096e-05 -0.000574407
0.00678583 9.62191e-06 7.58078e-06
9.62191e-06 0.00165144 -1.7613e-05
7.58078e-06 -1.7613e-05 0.00120991
-0.000193143 1.41443e-05 -2.52018e-05
1.41443e-05 7.91483e-05 -1.26318e-05
-2.52018e-05 -1.26318e-05 -9.57523e-05
0.00120128 -1.95003e-05 -1.74848e-05
-1.95003e-05 0.000219088 1.92655e-06
-1.74848e-05 1.92655e-06 0.00010068
0.000946955 4.66772e-06 7.09117e-07
4.66772e-06 -5.91623e-05 -5.34701e-06
7.09117e-07 -5.34701e-06 -8.78336e-05
0.00138585 0.000229474 1.07363e-05
0.000229474 0.000172197 -3.23769e-06
1.07363e-05 -3.23769e-06 0.000624517
-0.00299041 0.000259493 4.89483e-05
0.000259493 -0.00220991 -3.77424e-05
4.89483e-05 -3.77424e-05 -0.00217464
0.00790022 0.000205175 4.42035e-06
0.000205175 0.0021568 -2.29982e-05
4.42035e-06 -2.29982e-05 0.00121684
0.0012969 -3.03817e-05 -2.68745e-05
-3.03817e-05 0.00013578 9.82204e-05
-2.68745e-05 9.82204e-05 -7.91774e-05
0.000998737 1.59057e-05 2.2995e-06
1.59057e-05 5.99432e-05 5.63987e-06
2.2995e-06 5.63987e-06 -2.0151e-05
0.000287582 -1.8127e-05 1.24809e-06
-1.8127e-05 -0.000102942 -1.34169e-06
1.24809e-06 -1.34169e-06 -0.000296398
0.000487991 -4.37536e-05 3.28515e-06
-4.37536e-05 9.8115e-05 -4.07765e-06
3.28515e-06 -4.07765e-06 -0.000160181
0.000975621 -4.18295e-05 1.49206e-07
-4.18295e-05 3.98437e-05 -5.34193e-07
1.49206e-07 -5.34193e-07 -4.20888e-05
0.000753596 -3.08663e-05 -5.49851e-07
-3.08663e-05 -4.55691e-05 3.69824e-06
-5.49851e-07 3.69824e-06 -0.000123932
0.000769498 -2.56278e-05 -1.59633e-07
-2.56278e-05 2.04537e-05 4.64383e-07
-1.59633e-07 4.64383e-07 -9.72178e-05
0.000868413 -7.85594e-05 1.8759e-06
-7.85594e-05 0.000118402 -9.11173e-07
1.8759e-06 -9.11173e-07 -8.41419e-05
0.00133459 -5.82885e-05 -4.13869e-07
-5.82885e-05 0.000235594 -4.06541e-08
-4.13869e-07 -4.06541e-08 0.000144352
0.00130115 -7.83067e-05 1.34953e-07
-7.83067e-05 0.000255648 3.00756e-07
1.34953e-07 3.00756e-07 0.000130941
0.00108063 -7.96507e-05 2.0573e-06
-7.96507e-05 0.000156654 1.58528e-06
2.0573e-06 1.58528e-06 -7.20191e-06
0.000559618 -4.71137e-05 -1.36331e-07
-4.71137e-05 -0.000126309 -1.38691e-06
-1.36331e-07 -1.38691e-06 -0.0002269
0.00107693 -7.27177e-05 -3.8948e-07
-7.27177e-05 0.000125304 -1.84193e-08
-3.8948e-07 -1.84193e-08 2.22345e-06
0.00168914 -0.000102006 -8.67979e-07
-0.000102006 0.000388762 1.71909e-06
-8.67979e-07 1.71909e-06 0.000258034
0.00139427 -9.0596e-05 -2.30511e-06
-9.0596e-05 0.000216997 2.72778e-06
-2.30511e-06 2.72778e-06 0.000100622
0.000812742 -6.38741e-05 -5.74223e-07
-6.38741e-05 -3.85735e-05 1.64098e-06
-5.74223e-07 1.64098e-06 -0.000131852
0.00111923 -7.64898e-05 -7.53881e-07
-7.64898e-05 0.000104092 5.80308e-07
-7.53881e-07 5.80308e-07 -4.39293e-06
0.00103678 -6.91639e-05 -3.16614e-07
-6.91639e-05 9.04574e-05 -6.74598e-07
-3.16614e-07 -6.74598e-07 -1.83851e-05
0.00122159 -7.12632e-05 5.04996e-07
-7.12632e-05 0.000182147 -8.71598e-07
5.04996e-07 -8.71598e-07 9.79118e-05
0.00110827 -6.95139e-05 1.35226e-06
-6.95139e-05 0.000125626 -6.25892e-07
1.35226e-06 -6.25892e-07 3.82537e-05
0.000871154 -4.41252e-05 -5.27914e-07
-4.41252e-05 1.8778e-05 6.09979e-07
-5.27914e-07 6.09979e-07 -6.1039e-05
0.000939107 -5.81776e-05 2.60233e-07
-5.81776e-05 5.76091e-05 -1.1529e-07
2.60233e-07 -1.1529e-07 -2.87856e-05
0.0010118 -6.53155e-05 2.98635e-06
-6.53155e-05 8.04563e-05 -1.25754e-06
2.98635e-06 -1.25754e-06 -1.15558e-05
0.000964196 6.37509e-07 -1.06624e-06
6.37509e-07 4.90836e-05 1.15412e-06
-1.06624e-06 1.15412e-06 -1.36682e-05
0.00104593 -4.46226e-05 -1.98913e-07
-4.46226e-05 9.83313e-05 -1.27913e-08
-1.98913e-07 -1.27913e-08 2.27669e-05
0.0011058 -6.31181e-05 3.29557e-07
-6.31181e-05 0.000133836 -1.77366e-09
3.29557e-07 -1.77366e-09 4.85812e-05
0.000888372 1.65066e-05 -1.35464e-06
1.65066e-05 7.70121e-06 2.06672e-06
-1.35464e-06 2.06672e-06 -2.95688e-05
0.000964265 -2.28187e-06 1.4067e-07
-2.28187e-06 4.48202e-05 1.78845e-08
1.4067e-07 1.78845e-08 -1.29511e-05
0.000930293 -3.25254e-05 1.05376e-06
-3.25254e-05 3.48059e-05 -4.44216e-07
1.05376e-06 -4.44216e-07 -3.86392e-05
0.00094936 3.77615e-06 6.51719e-07
3.77615e-06 3.46349e-05 -1.29153e-06
6.51719e-07 -1.29153e-06 -1.83408e-05
0.000889162 1.96519e-05 1.64256e-07
1.96519e-05 3.98798e-06 -4.07465e-08
1.64256e-07 -4.07465e-08 -2.95317e-05
0.000802654 2.23203e-05 -2.22729e-06
2.23203e-05 -4.03815e-05 3.25583e-06
-2.22729e-06 3.25583e-06 -4.62194e-05
0.00089407 1.7679e-05 7.85341e-07
1.7679e-05 1.88312e-06 -1.85573e-06
7.85341e-07 -1.85573e-06 -2.87147e-05
0.000833631 1.98354e-05 9.83983e-08
1.98354e-05 -3.11651e-05 -1.50977e-08
9.83983e-08 -1.50977e-08 -3.48526e-05
0.00222207 2.81523e-05 -1.54069e-05
2.81523e-05 0.000685767 3.67811e-06
-1.54069e-05 3.67811e-06 0.000705718
0.00085559 1.70673e-05 1.69392e-06
1.70673e-05 -2.55611e-05 -3.10551e-06
1.69392e-06 -3.10551e-06 -2.75698e-05
0.00160017 2.15404e-05 5.96652e-06
2.15404e-05 0.000359609 -1.07557e-06
5.96652e-06 -1.07557e-06 0.000377891
0.00217612 1.92231e-05 1.18638e-05
1.92231e-05 0.000652922 -3.76548e-06
1.18638e-05 -3.76548e-06 0.00067499
0.000939438 1.78751e-05 -6.71883e-07
1.78751e-05 2.63604e-05 -1.0812e-06
-6.71883e-07 -1.0812e-06 -2.64922e-05
0.000890884 -1.16523e-05 -7.02316e-07
-1.16523e-05 -3.58282e-06 -1.78453e-06
-7.02316e-07 -1.78453e-06 -3.47213e-05
0.00085685 9.99871e-06 -5.92193e-07
9.99871e-06 -1.39084e-05 -5.3526e-07
-5.92193e-07 -5.3526e-07 -6.53685e-05
0.000866252 -1.41663e-05 -1.01341e-06
-1.41663e-05 -2.40466e-05 -3.24165e-06
-1.01341e-06 -3.24165e-06 -2.56092e-05
0.000781506 -9.42659e-06 -2.1479e-07
-9.42659e-06 -6.08938e-05 -5.98505e-07
-2.1479e-07 -5.98505e-07 -9.05264e-05
0.0010539 -2.60376e-06 1.30321e-07
-2.60376e-06 8.68949e-05 4.84699e-07
1.30321e-07 4.84699e-07 3.88042e-05
0.00215963 -1.44038e-05 -9.50674e-06
-1.44038e-05 0.000640249 -3.93909e-06
-9.50674e-06 -3.93909e-06 0.000663245
0.000857689 -1.06114e-05 -9.99485e-08
-1.06114e-05 -3.2654e-05 -2.08123e-08
-9.99485e-08 -2.08123e-08 -3.19084e-05
0.000664364 -7.50658e-06 7.9477e-08
-7.50658e-06 -0.000123018 1.05778e-06
7.9477e-08 1.05778e-06 -0.000150755
0.00211419 -9.38253e-06 -1.30411e-06
-9.38253e-06 0.000613649 2.07296e-08
-1.30411e-06 2.07296e-08 0.000637743
0.000852419 -6.95734e-06 4.43601e-07
-6.95734e-06 -3.84874e-05 3.06224e-06
4.43601e-07 3.06224e-06 -3.59953e-05
0.00208191 -4.42767e-06 2.44464e-06
-4.42767e-06 0.000595112 3.84995e-06
2.44464e-06 3.84995e-06 0.000619892
0.0012767 1.09587e-06 -1.37863e-06
1.09587e-06 0.000185693 3.98108e-07
-1.37863e-06 3.98108e-07 5.31495e-05
0.00126925 -1.25913e-05 4.0974e-06
-1.25913e-05 0.000258016 -5.87044e-07
4.0974e-06 -5.87044e-07 0.000147617
0.00131207 -1.59916e-05 -1.70338e-05
-1.59916e-05 0.000307849 4.95513e-06
-1.70338e-05 4.95513e-06 0.000234989
0.000923642 -1.53639e-06 -9.96021e-08
-1.53639e-06 1.67644e-05 -7.88462e-07
-9.96021e-08 -7.88462e-07 -4.86871e-05
0.00109622 1.89505e-05 -1.72498e-07
1.89505e-05 0.000108589 -5.29117e-07
-1.72498e-07 -5.29117e-07 3.58348e-05
0.00105134 2.9085e-05 1.17002e-06
2.9085e-05 9.02411e-05 7.02892e-07
1.17002e-06 7.02892e-07 2.68522e-05
0.000914497 6.18303e-06 -4.56509e-09
6.18303e-06 1.4279e-05 2.06978e-08
-4.56509e-09 2.06978e-08 -5.02243e-05
0.00103973 1.89387e-05 1.64288e-07
1.89387e-05 8.50018e-05 3.47764e-07
1.64288e-07 3.47764e-07 1.35921e-05
0.00102283 2.24234e-05 -4.44549e-07
2.24234e-05 7.42093e-05 -3.49289e-07
-4.44549e-07 -3.49289e-07 2.24551e-06
0.00102279 5.83359e-05 -1.72508e-07
5.83359e-05 8.02363e-05 2.03005e-07
-1.72508e-07 2.03005e-07 1.3382e-06
0.00106873 2.73303e-05 -1.02837e-05
2.73303e-05 0.000125562 9.31612e-07
-1.02837e-05 9.31612e-07 2.60046e-05
0.00111216 1.09092e-05 3.81484e-06
1.09092e-05 0.000131503 -5.38367e-06
3.81484e-06 -5.38367e-06 8.69081e-06
0.00111019 -1.03898e-05 -1.3445e-05
-1.03898e-05 0.000174898 3.26648e-06
-1.3445e-05 3.26648e-06 7.95403e-05
0.000542623 1.38599e-05 6.22485e-06
1.38599e-05 -0.000594786 2.64356e-06
6.22485e-06 2.64356e-06 -0.000500486
0.000949716 -5.11687e-05 -6.12455e-05
-5.11687e-05 -0.000741665 5.62069e-05
-6.12455e-05 5.62069e-05 -0.000864927
0.00209264 8.12063e-05 5.18937e-05
8.12063e-05 7.69359e-06 -5.30303e-05
5.18937e-05 -5.30303e-05 -0.000901742
0.00496911 0.000245112 2.18633e-05
0.000245112 0.000957318 -2.42879e-05
2.18633e-05 -2.42879e-05 0.00112497
0.0017784 -0.000223988 -2.21465e-05
-0.000223988 -0.000206063 1.87614e-05
-2.21465e-05 1.87614e-05 -0.000454698
0.00301209 -6.85916e-05 2.52216e-05
-6.85916e-05 -0.000188946 -4.78157e-05
2.52216e-05 -4.78157e-05 -0.00099486
0.00345189 -1.51936e-05 -9.9144e-06
-1.51936e-05 0.000212169 4.14873e-06
-9.9144e-06 4.14873e-06 0.000372726
0.00211995 -3.69402e-05 2.62608e-06
-3.69402e-05 0.00022991 8.9277e-07
2.62608e-06 8.9277e-07 0.000481958
0.00219079 -0.000175012 2.82058e-05
-0.000175012 0.000380689 -2.25945e-05
2.82058e-05 -2.25945e-05 0.000267522
0.00347132 -0.000290749 -1.4248e-05
-0.000290749 -0.000519895 -0.000105228
-1.4248e-05 -0.000105228 -0.000775552
0.000267612 -0.000111427 3.10851e-05
-0.000111427 -0.0011046 4.31328e-05
3.10851e-05 4.31328e-05 -0.000968335
-0.000376742 -9.64144e-05 1.39885e-06
-9.64144e-05 -0.00126419 4.31028e-06
1.39885e-06 4.31028e-06 -0.000937523
0.0011275 -4.8574e-06 -3.33153e-07
-4.8574e-06 0.000118483 -1.22455e-08
-3.33153e-07 -1.22455e-08 4.06658e-05
0.000995919 7.37671e-06 7.99214e-08
7.37671e-06 6.03843e-05 -1.66723e-07
7.99214e-08 -1.66723e-07 -1.87804e-05
0.00095741 -6.45654e-07 -4.70983e-08
-6.45654e-07 5.07119e-05 2.37181e-08
-4.70983e-08 2.37181e-08 -2.94717e-05
0.00100246 2.21085e-05 7.31683e-08
2.21085e-05 6.87349e-05 -3.2136e-07
7.31683e-08 -3.2136e-07 -2.63879e-06
0.00253839 -0.000161266 1.27722e-05
-0.000161266 0.000805512 5.68919e-06
1.27722e-05 5.68919e-06 0.000762114
0.000867271 3.80715e-05 3.34179e-06
3.80715e-05 0.000233198 -1.28202e-06
3.34179e-06 -1.28202e-06 5.85203e-05
0.000954231 6.92866e-06 6.96128e-08
6.92866e-06 3.0673e-05 3.03993e-07
6.96128e-08 3.03993e-07 -4.83638e-05
0.00100763 2.44722e-05 2.74766e-07
2.44722e-05 6.21413e-05 2.778e-07
2.74766e-07 2.778e-07 -2.44493e-05
0.0015313 -1.43267e-06 1.09818e-07
-1.43267e-06 0.00030988 -1.79037e-06
1.09818e-07 -1.79037e-06 0.000225116
0.000970339 1.58103e-05 -5.96796e-07
1.58103e-05 4.08133e-05 4.66977e-09
-5.96796e-07 4.66977e-09 -3.93936e-05
0.000984651 -1.79299e-06 -1.24107e-06
-1.79299e-06 4.08371e-05 6.3423e-07
-1.24107e-06 6.3423e-07 -4.63053e-05
0.000485759 -5.202e-05 8.24403e-06
-5.202e-05 0.000201086 -2.35584e-06
8.24403e-06 -2.35584e-06 1.46419e-05
0.000818562 3.55814e-06 3.22757e-06
3.55814e-06 7.40051e-05 5.96453e-06
3.22757e-06 5.96453e-06 3.60644e-05
0.00114261 -5.9777e-07 1.62765e-07
-5.9777e-07 0.000130689 -2.22031e-06
1.62765e-07 -2.22031e-06 4.3848e-05
-0.00024173 2.08947e-05 4.59056e-06
2.08947e-05 0.000155669 -4.37686e-06
4.59056e-06 -4.37686e-06 -0.00021203
0.00165008 -3.71467e-05 8.18622e-06
-3.71467e-05 0.00048539 4.1813e-06
8.18622e-06 4.1813e-06 0.000382741
0.00152107 -1.87492e-06 -1.68799e-05
-1.87492e-06 0.000439146 6.66453e-07
-1.68799e-05 6.66453e-07 0.000315141
0.00119504 -3.2449e-06 3.32789e-07
-3.2449e-06 0.00015624 3.81551e-07
3.32789e-07 3.81551e-07 1.8567e-05
0.000795366 -3.02616e-06 -5.78376e-06
-3.02616e-06 -4.33384e-05 -5.24332e-07
-5.78376e-06 -5.24332e-07 -0.000169797
0.000673219 2.28801e-05 -1.34014e-06
2.28801e-05 5.94862e-05 6.19589e-06
-1.34014e-06 6.19589e-06 -2.92369e-05
0.00134732 0.000111322 -5.18206e-05
0.000111322 0.000470413 4.8093e-06
-5.18206e-05 4.8093e-06 0.000533753
0.00109653 -4.75451e-06 1.77929e-08
-4.75451e-06 7.61673e-05 2.63708e-06
1.77929e-08 2.63708e-06 -5.95759e-05
0.00352193 0.000186892 3.04906e-05
0.000186892 0.000102447 -8.32927e-05
3.04906e-05 -8.32927e-05 -0.000499751
0.00503461 0.0002695 -1.99073e-05
0.0002695 0.0010606 2.30416e-05
-1.99073e-05 2.30416e-05 0.00119075
0.00121633 -2.48087e-05 1.32965e-05
-2.48087e-05 0.00024384 -5.39271e-06
1.32965e-05 -5.39271e-06 0.000138292
0.00234097 0.000133096 -6.27497e-06
0.000133096 0.000378591 5.44812e-06
-6.27497e-06 5.44812e-06 0.00068576
-0.000153976 -9.99132e-06 2.08631e-05
-9.99132e-06 4.01169e-05 -3.68722e-07
2.08631e-05 -3.68722e-07 -0.000117113
0.00125621 -1.81488e-05 -4.30954e-06
-1.81488e-05 0.000252673 4.40405e-07
-4.30954e-06 4.40405e-07 0.000134893
0.00105513 -4.64243e-07 5.77695e-06
-4.64243e-07 4.03716e-05 -2.1869e-06
5.77695e-06 -2.1869e-06 -8.99795e-06
0.00193862 -4.22625e-05 -8.01891e-06
-4.22625e-05 0.000565687 1.90192e-05
-8.01891e-06 1.90192e-05 0.000520856
0.000379754 0.000244658 -2.582e-06
0.000244658 -0.000468148 3.70379e-06
-2.582e-06 3.70379e-06 2.15307e-05
0.00146835 0.000321029 4.25015e-06
0.000321029 -0.00031652 -1.00772e-05
4.25015e-06 -1.00772e-05 -0.000267713
0.00313161 1.55157e-05 2.26554e-05
1.55157e-05 0.000294362 -1.07505e-05
2.26554e-05 -1.07505e-05 -0.000806791
4.06983e-05 -4.86577e-05 5.63641e-06
-4.86577e-05 9.08795e-05 -1.35087e-05
5.63641e-06 -1.35087e-05 -9.58422e-05
0.00126554 -1.64194e-05 -6.8084e-06
-1.64194e-05 0.000283991 2.81508e-07
-6.8084e-06 2.81508e-07 0.00019357
-0.00130299 9.41137e-05 8.07325e-06
9.41137e-05 -0.00117179 -7.74328e-06
8.07325e-06 -7.74328e-06 -0.0010231
-0.000101777 0.000273986 5.08146e-05
0.000273986 -0.000107449 -2.62659e-05
5.08146e-05 -2.62659e-05 -2.72656e-06
0.00730854 0.000432136 2.84181e-05
0.000432136 0.00221177 -4.92335e-05
2.84181e-05 -4.92335e-05 0.00125408
0.00168754 -0.000168117 -6.0268e-05
-0.000168117 -9.87938e-05 0.000104009
-6.0268e-05 0.000104009 -0.000604156
0.000607451 -2.3522e-05 -1.99048e-06
-2.3522e-05 4.23832e-05 2.21152e-06
-1.99048e-06 2.21152e-06 -0.000155453
0.0005786 -2.64978e-05 3.9029e-07
-2.64978e-05 0.000145381 -1.07471e-06
3.9029e-07 -1.07471e-06 -0.00011293
0.00151316 -0.000122963 3.29572e-06
-0.000122963 0.000442352 -1.18771e-06
3.29572e-06 -1.18771e-06 0.000208525
0.000687319 -1.53569e-05 -1.87259e-06
-1.53569e-05 -1.60136e-05 -1.49571e-07
-1.87259e-06 -1.49571e-07 -0.000126833
0.000430502 -5.35055e-05 -1.34912e-07
-5.35055e-05 -7.66436e-05 3.04473e-07
-1.34912e-07 3.04473e-07 -0.000286427
0.0012954 -0.000102868 1.82982e-06
-0.000102868 0.000269172 3.48465e-06
1.82982e-06 3.48465e-06 8.26266e-05
0.0015678 -9.03302e-05 -1.43432e-06
-9.03302e-05 0.000377301 -6.75397e-08
-1.43432e-06 -6.75397e-08 0.000248757
0.00122546 -8.35228e-05 1.41679e-07
-8.35228e-05 0.000219625 5.9321e-07
1.41679e-07 5.9321e-07 5.62428e-05
0.0010585 -9.44127e-05 2.1012e-07
-9.44127e-05 6.82186e-05 3.32604e-07
2.1012e-07 3.32604e-07 -9.20076e-05
0.00110071 -7.31906e-05 -7.54518e-07
-7.31906e-05 0.000136007 -5.67691e-07
-7.54518e-07 -5.67691e-07 9.94458e-06
0.00157041 -9.90612e-05 4.95356e-08
-9.90612e-05 0.000327295 3.46849e-07
4.95356e-08 3.46849e-07 0.000194213
0.00135665 -9.6324e-05 -2.25925e-07
-9.6324e-05 0.000187797 1.49582e-07
-2.25925e-07 1.49582e-07 5.31451e-05
0.00132464 -8.81241e-05 -1.81249e-06
-8.81241e-05 0.00014396 -1.92101e-08
-1.81249e-06 -1.92101e-08 2.81405e-05
0.0015395 -9.03244e-05 -2.36156e-06
-9.03244e-05 0.000294946 3.04427e-06
-2.36156e-06 3.04427e-06 0.000191797
0.00135528 -9.00386e-05 -4.34344e-07
-9.00386e-05 0.000196457 4.99112e-07
-4.34344e-07 4.99112e-07 7.83251e-05
0.000777446 -6.01347e-05 1.95753e-07
-6.01347e-05 -5.1129e-05 -3.70143e-07
1.95753e-07 -3.70143e-07 -0.000136117
0.000949639 -6.78309e-05 1.03298e-06
-6.78309e-05 3.07387e-05 -3.34592e-07
1.03298e-06 -3.34592e-07 -6.18265e-05
0.00109137 -7.61573e-05 7.36519e-07
-7.61573e-05 9.18125e-05 -1.11096e-06
7.36519e-07 -1.11096e-06 -1.84339e-05
0.00109675 -6.11959e-05 -1.66125e-07
-6.11959e-05 0.00012256 -2.23218e-09
-1.66125e-07 -2.23218e-09 4.07424e-05
0.0011561 -6.89462e-05 -6.95894e-08
-6.89462e-05 0.000150755 -2.33682e-07
-6.95894e-08 -2.33682e-07 6.62436e-05
0.000909565 -6.2807e-05 2.15948e-06
-6.2807e-05 2.82384e-05 -1.43942e-07
2.15948e-06 -1.43942e-07 -5.69362e-05
0.000905719 1.92717e-06 -5.5465e-07
1.92717e-06 2.41768e-05 1.01051e-06
-5.5465e-07 1.01051e-06 -4.36622e-05
0.000921058 -4.23602e-05 -6.59576e-08
-4.23602e-05 4.19639e-05 2.47244e-07
-6.59576e-08 2.47244e-07 -3.69214e-05
0.00106693 -6.07029e-05 8.26755e-07
-6.07029e-05 0.000120162 -3.81968e-07
8.26755e-07 -3.81968e-07 3.46612e-05
0.000865256 2.1298e-05 -1.8265e-06
2.1298e-05 -7.23579e-07 2.16032e-06
-1.8265e-06 2.16032e-06 -4.26204e-05
0.000959995 -2.35785e-06 -1.81723e-07
-2.35785e-06 4.66487e-05 1.26225e-08
-1.81723e-07 1.26225e-08 -1.60987e-05
0.00105966 -4.38911e-05 4.53028e-07
-4.38911e-05 0.000103894 -3.29982e-07
4.53028e-07 -3.29982e-07 2.86689e-05
0.000824019 2.49429e-05 -3.70437e-06
2.49429e-05 -2.38706e-05 4.63108e-06
-3.70437e-06 4.63108e-06 -3.22772e-05
0.000878862 2.06762e-05 2.8597e-07
2.06762e-05 3.47354e-06 -5.2956e-08
2.8597e-07 -5.2956e-08 -3.40704e-05
0.000945272 -2.51018e-06 1.03723e-06
-2.51018e-06 3.46985e-05 -1.13059e-06
1.03723e-06 -1.13059e-06 -2.27754e-05
0.000880283 2.16362e-05 9.71927e-07
2.16362e-05 -3.20851e-07 -2.02157e-06
9.71927e-07 -2.02157e-06 -3.3983e-05
0.000822934 2.26998e-05 1.00558e-07
2.26998e-05 -3.02637e-05 -4.10524e-08
1.00558e-07 -4.10524e-08 -3.62147e-05
0.00226033 3.25939e-05 -1.75065e-05
3.25939e-05 0.000711883 3.64334e-06
-1.75065e-05 3.64334e-06 0.000730299
0.000851349 2.00937e-05 2.05362e-06
2.00937e-05 -2.23498e-05 -3.1831e-06
2.05362e-06 -3.1831e-06 -2.61075e-05
0.00222328 2.82022e-05 7.20711e-07
2.82022e-05 0.000687192 4.6048e-08
7.20711e-07 4.6048e-08 0.000706974
0.00219636 2.37794e-05 1.43121e-05
2.37794e-05 0.000668318 -3.74834e-06
1.43121e-05 -3.74834e-06 0.000689273
0.00101469 2.17001e-05 -4.27918e-07
2.17001e-05 6.52759e-05 -8.59846e-07
-4.27918e-07 -8.59846e-07 -2.53771e-06
0.000952056 1.5029e-05 -6.58063e-07
1.5029e-05 3.15648e-05 -1.3141e-06
-6.58063e-07 -1.3141e-06 -2.42812e-05
0.000883501 -1.80829e-05 -7.23231e-07
-1.80829e-05 -5.12474e-06 -1.92171e-06
-7.23231e-07 -1.92171e-06 -3.85493e-05
0.000948602 1.08737e-05 1.69017e-08
1.08737e-05 3.02155e-05 -4.46088e-08
1.69017e-08 -4.46088e-08 -2.21886e-05
0.000853473 -1.70478e-05 -1.4765e-06
-1.70478e-05 -2.60908e-05 -3.32451e-06
-1.4765e-06 -3.32451e-06 -2.98583e-05
0.000898195 -1.31092e-05 -4.38544e-08
-1.31092e-05 4.24176e-07 3.10307e-09
-4.38544e-08 3.10307e-09 -3.07867e-05
0.000928242 1.53166e-05 1.40434e-07
1.53166e-05 2.20763e-05 5.47586e-07
1.40434e-07 5.47586e-07 -2.81134e-05
0.0022239 -1.92549e-05 -1.21035e-05
-1.92549e-05 0.000677239 -3.98916e-06
-1.21035e-05 -3.98916e-06 0.000698897
0.000847672 -1.40179e-05 -9.60151e-08
-1.40179e-05 -3.34791e-05 -3.1573e-08
-9.60151e-08 -3.1573e-08 -3.49178e-05
0.000911074 -9.76415e-06 1.87581e-07
-9.76415e-06 5.2775e-06 1.16879e-06
1.87581e-07 1.16879e-06 -2.37854e-05
0.00215621 -1.42627e-05 -1.17045e-06
-1.42627e-05 0.000638083 3.24441e-08
-1.17045e-06 3.24441e-08 0.00066123
0.000842483 -1.04764e-05 6.5072e-07
-1.04764e-05 -4.03479e-05 3.12579e-06
6.5072e-07 3.12579e-06 -3.94976e-05
0.00210992 -9.20421e-06 5.59464e-06
-9.20421e-06 0.000611129 3.8595e-06
5.59464e-06 3.8595e-06 0.000635344
0.00097251 1.48078e-05 -1.25295e-05
1.48078e-05 7.58011e-05 -7.08372e-06
-1.25295e-05 -7.08372e-06 -4.48324e-05
0.00117963 8.74243e-07 1.53068e-06
8.74243e-07 0.000129757 -1.63472e-06
1.53068e-06 -1.63472e-06 -5.13116e-06
0.00135035 -1.17463e-05 -9.32299e-06
-1.17463e-05 0.00030823 -8.64688e-08
-9.32299e-06 -8.64688e-08 0.000198434
0.000960827 1.33658e-05 -1.01448e-07
1.33658e-05 3.80023e-05 7.44514e-09
-1.01448e-07 7.44514e-09 -2.84228e-05
0.0010491 1.68972e-05 8.72967e-09
1.68972e-05 8.37373e-05 2.43652e-07
8.72967e-09 2.43652e-07 1.05861e-05
0.000969309 2.1446e-05 -6.00966e-07
2.1446e-05 4.67237e-05 -1.31076e-06
-6.00966e-07 -1.31076e-06 -2.96463e-05
0.000923727 1.1575e-05 -1.46563e-07
1.1575e-05 2.12274e-05 -9.89239e-07
-1.46563e-07 -9.89239e-07 -5.14304e-05
0.00111443 3.95719e-05 -3.70181e-07
3.95719e-05 0.000122642 -5.13681e-07
-3.70181e-07 -5.13681e-07 4.38804e-05
0.000895915 8.06483e-06 8.16962e-08
8.06483e-06 5.44409e-06 6.55447e-07
8.16962e-08 6.55447e-07 -5.9431e-05
0.00096917 5.70973e-06 2.44617e-07
5.70973e-06 4.65336e-05 6.6267e-07
2.44617e-07 6.6267e-07 -2.4668e-05
0.00100619 3.26425e-05 -1.43689e-07
3.26425e-05 6.76524e-05 -2.4924e-08
-1.43689e-07 -2.4924e-08 -5.1181e-06
0.00102621 2.65347e-05 4.20127e-07
2.65347e-05 7.72657e-05 4.48653e-07
4.20127e-07 4.48653e-07 3.95434e-07
0.00107077 2.74359e-05 -2.82996e-07
2.74359e-05 0.000103007 -3.04765e-07
-2.82996e-07 -3.04765e-07 2.50924e-05
0.00110476 -1.52492e-07 -3.52237e-06
-1.52492e-07 0.000139121 9.06252e-06
-3.52237e-06 9.06252e-06 7.42505e-05
0.00100666 2.76969e-05 1.84755e-07
2.76969e-05 8.37798e-05 3.0729e-06
1.84755e-07 3.0729e-06 -1.38851e-05
0.000920632 1.06167e-05 1.31359e-06
1.06167e-05 4.5813e-05 -2.99336e-06
1.31359e-06 -2.99336e-06 -8.70343e-05
0.00104687 -2.91402e-05 5.10347e-06
-2.91402e-05 -0.000391355 -6.39843e-07
5.10347e-06 -6.39843e-07 -0.000152355
-0.00108696 2.286e-05 -1.48607e-06
2.286e-05 -0.00188503 -6.78622e-05
-1.48607e-06 -6.78622e-05 -0.00166164
0.00133702 -0.000253761 -7.08418e-05
-0.000253761 -0.000542025 9.0266e-05
-7.08418e-05 9.0266e-05 -0.000892883
0.00719075 0.0001484 -1.6592e-05
0.0001484 0.00152615 -4.36235e-05
-1.6592e-05 -4.36235e-05 0.00107692
0.00141298 -0.000216078 -3.51493e-05
-0.000216078 -0.000202999 3.31455e-05
-3.51493e-05 3.31455e-05 -0.000592503
0.00758724 -0.000119646 3.32443e-05
-0.000119646 0.00176082 1.77695e-06
3.32443e-05 1.77695e-06 0.00132925
0.00144835 -0.000191703 7.78053e-06
-0.000191703 -0.000565667 -2.14113e-05
7.78053e-06 -2.14113e-05 -0.000466018
4.24702e-05 -0.000110649 1.61373e-07
-0.000110649 -0.00105361 -5.13194e-06
1.61373e-07 -5.13194e-06 -0.000676918
0.00169546 -6.55981e-05 -3.47791e-05
-6.55981e-05 0.000221571 -5.68964e-05
-3.47791e-05 -5.68964e-05 -0.000228723
0.00722432 -0.000316311 -1.81461e-05
-0.000316311 0.00160592 4.6741e-05
-1.81461e-05 4.6741e-05 0.00106342
0.005945 -0.000380281 2.0301e-05
-0.000380281 0.0017743 2.62644e-05
2.0301e-05 2.62644e-05 0.00194708
0.00130692 -0.000194439 3.44364e-06
-0.000194439 -9.30167e-05 2.84579e-06
3.44364e-06 2.84579e-06 0.000423916
0.000933481 2.30907e-05 -6.60498e-07
2.30907e-05 3.98957e-05 2.71839e-07
-6.60498e-07 2.71839e-07 -3.42004e-05
0.00108534 -2.66166e-06 -1.02579e-07
-2.66166e-06 0.000101229 1.23853e-07
-1.02579e-07 1.23853e-07 2.24859e-05
0.00097312 6.92601e-06 2.83058e-07
6.92601e-06 4.85206e-05 3.295e-08
2.83058e-07 3.295e-08 -3.07649e-05
0.000983037 -5.3371e-05 2.14714e-05
-5.3371e-05 0.000422282 -2.48922e-06
2.14714e-05 -2.48922e-06 0.000284415
0.00139165 -1.3592e-05 -4.77919e-07
-1.3592e-05 0.000352939 -1.99637e-06
-4.77919e-07 -1.99637e-06 0.000319382
0.000993035 8.76281e-06 -1.33589e-07
8.76281e-06 5.11737e-05 1.1722e-06
-1.33589e-07 1.1722e-06 -2.88561e-05
0.000963466 -2.22004e-05 -7.3587e-07
-2.22004e-05 2.92229e-05 1.69956e-06
-7.3587e-07 1.69956e-06 -5.81998e-05
0.00102979 -7.88132e-06 -1.5263e-07
-7.88132e-06 7.65921e-05 6.25253e-08
-1.5263e-07 6.25253e-08 -9.27217e-06
0.000812883 -3.98499e-05 9.02652e-07
-3.98499e-05 8.42919e-05 3.00968e-06
9.02652e-07 3.00968e-06 -2.66735e-05
-0.000162814 1.80565e-05 4.15687e-06
1.80565e-05 0.00010985 -1.05395e-05
4.15687e-06 -1.05395e-05 -0.000240877
0.000335605 9.0381e-06 -1.1336e-06
9.0381e-06 -0.000139884 2.28613e-06
-1.1336e-06 2.28613e-06 -0.000268405
0.00150681 6.74798e-05 1.16523e-05
6.74798e-05 0.000611324 2.79565e-06
1.16523e-05 2.79565e-06 0.000414353
0.00180642 -4.57713e-06 -1.11176e-05
-4.57713e-06 0.000670552 -8.9774e-07
-1.11176e-05 -8.9774e-07 0.000587612
0.00112187 -2.19614e-06 -6.10613e-06
-2.19614e-06 0.000178598 -8.74643e-08
-6.10613e-06 -8.74643e-08 4.8916e-05
0.00107804 -3.48376e-06 4.44879e-07
-3.48376e-06 9.15452e-05 -7.62876e-07
4.44879e-07 -7.62876e-07 -4.74088e-05
-0.000918486 -1.2637e-05 -1.19389e-05
-1.2637e-05 -0.000325739 1.59452e-05
-1.19389e-05 1.59452e-05 -0.000481037
0.000411274 2.94228e-05 2.80775e-05
2.94228e-05 -0.000300661 -5.31145e-05
2.80775e-05 -5.31145e-05 -0.000690061
0.00130912 -1.67083e-05 8.55126e-06
-1.67083e-05 0.000285205 3.21651e-07
8.55126e-06 3.21651e-07 0.000167905
0.00864486 0.00020065 4.57373e-05
0.00020065 0.00232745 3.73065e-07
4.57373e-05 3.73065e-07 0.00132136
0.00414332 0.000424265 -3.36679e-05
0.000424265 0.00112522 2.12819e-05
-3.36679e-05 2.12819e-05 0.00109368
0.00119633 -5.88372e-06 1.06921e-05
-5.88372e-06 0.000159881 -1.86642e-07
1.06921e-05 -1.86642e-07 9.10631e-05
-0.000525488 0.00025977 -1.14756e-05
0.00025977 -0.00106339 1.06071e-05
-1.14756e-05 1.06071e-05 -0.000537946
-9.77644e-05 -2.09382e-05 -1.58818e-06
-2.09382e-05 7.2002e-05 -1.26748e-07
-1.58818e-06 -1.26748e-07 -0.000124352
0.00123728 -1.73894e-05 5.89924e-06
-1.73894e-05 0.000266464 -4.9181e-07
5.89924e-06 -4.9181e-07 0.000178122
-0.00118143 0.000108228 -1.8336e-06
0.000108228 -0.00100527 -3.20309e-07
-1.8336e-06 -3.20309e-07 -0.000846164
0.0021262 -0.000128057 1.39231e-05
-0.000128057 0.000448121 2.99231e-05
1.39231e-05 2.99231e-05 3.78028e-05
0.0029469 0.000389314 -2.02079e-06
0.000389314 0.000905954 -1.77874e-07
-2.02079e-06 -1.77874e-07 0.000923489
0.00557292 0.000152827 2.4673e-05
0.000152827 0.00135906 -1.30267e-05
2.4673e-05 -1.30267e-05 0.000121853
0.00155673 -7.30343e-05 6.23108e-06
-7.30343e-05 0.00028563 4.27218e-06
6.23108e-06 4.27218e-06 0.00034922
-0.00103681 1.7733e-05 1.22029e-06
1.7733e-05 -0.000903505 6.22624e-07
1.22029e-06 6.22624e-07 -0.000943525
0.00303845 0.000282744 4.17688e-05
0.000282744 0.00120216 -1.47563e-05
4.17688e-05 -1.47563e-05 0.00122345
0.00398008 0.000346179 -3.07263e-05
0.000346179 0.000827617 2.80475e-05
-3.07263e-05 2.80475e-05 -9.69902e-05
0.00199571 -0.000119549 -2.57757e-07
-0.000119549 0.000256194 4.05134e-05
-2.57757e-07 4.05134e-05 -3.53456e-05
0.000771486 -9.40538e-06 -2.3118e-06
-9.40538e-06 0.000235806 4.73102e-06
-2.3118e-06 4.73102e-06 -1.85711e-05
0.000941579 -0.000111369 1.59331e-06
-0.000111369 0.000189459 -2.57281e-06
1.59331e-06 -2.57281e-06 -7.21667e-05
0.00285928 -0.000194054 1.01727e-06
-0.000194054 0.000847146 -2.00464e-06
1.01727e-06 -2.00464e-06 0.00066644
9.67444e-05 -2.98238e-05 -1.13828e-06
-2.98238e-05 -0.000223921 1.43469e-06
-1.13828e-06 1.43469e-06 -0.000437114
0.000771855 -8.61545e-05 1.17341e-06
-8.61545e-05 1.60217e-05 -1.91544e-07
1.17341e-06 -1.91544e-07 -0.000173286
0.00120876 -0.000115933 1.64979e-06
-0.000115933 9.74617e-05 1.91656e-06
1.64979e-06 1.91656e-06 -4.98275e-05
0.00136619 -8.67269e-05 -1.81723e-06
-8.67269e-05 0.000278711 4.69931e-07
-1.81723e-06 4.69931e-07 0.000117837
0.00120846 -9.71435e-05 -1.04677e-06
-9.71435e-05 0.000136959 -4.90033e-07
-1.04677e-06 -4.90033e-07 -1.74418e-05
0.00153318 -0.000109633 -1.21281e-06
-0.000109633 0.000210926 -1.61372e-08
-1.21281e-06 -1.61372e-08 8.64937e-05
0.00140652 -9.44682e-05 -3.1209e-07
-9.44682e-05 0.000242504 -8.2991e-07
-3.1209e-07 -8.2991e-07 0.000107803
0.00127829 -9.24931e-05 3.56411e-07
-9.24931e-05 0.000145342 -8.29417e-07
3.56411e-07 -8.29417e-07 1.37159e-05
0.00146196 -9.18597e-05 -1.75837e-06
-9.18597e-05 0.00017299 -1.98785e-06
-1.75837e-06 -1.98785e-06 6.01153e-05
0.00132609 -8.23564e-05 -1.53913e-06
-8.23564e-05 8.82331e-05 -1.38149e-06
-1.53913e-06 -1.38149e-06 -1.16462e-05
0.00112376 -7.9046e-05 -1.43794e-06
-7.9046e-05 6.05559e-05 8.92963e-07
-1.43794e-06 8.92963e-07 -4.56922e-05
0.00125386 -8.54237e-05 3.71224e-07
-8.54237e-05 0.000106879 -9.02837e-07
3.71224e-07 -9.02837e-07 -7.82801e-06
0.00126189 -7.79321e-05 -1.00696e-06
-7.79321e-05 0.000169862 1.89231e-06
-1.00696e-06 1.89231e-06 7.75939e-05
0.00125099 -8.21278e-05 -2.6388e-07
-8.21278e-05 0.000152567 5.84986e-07
-2.6388e-07 5.84986e-07 4.75944e-05
0.0013094 -8.91623e-05 9.53636e-07
-8.91623e-05 0.000172206 -1.5372e-06
9.53636e-07 -1.5372e-06 5.2374e-05
0.00100003 -6.30821e-05 -3.80895e-07
-6.30821e-05 6.48058e-05 -6.88411e-07
-3.80895e-07 -6.88411e-07 -1.51269e-05
0.000859807 -6.23393e-05 -1.90001e-07
-6.23393e-05 -9.14804e-06 -7.83949e-07
-1.90001e-07 -7.83949e-07 -9.31379e-05
0.00109811 -7.21638e-05 2.47997e-06
-7.21638e-05 0.000105763 -2.02502e-06
2.47997e-06 -2.02502e-06 1.3893e-05
0.000946862 -2.26154e-05 -5.62405e-07
-2.26154e-05 4.65798e-05 8.1758e-07
-5.62405e-07 8.1758e-07 -2.51045e-05
0.00103765 -5.84346e-05 1.5129e-07
-5.84346e-05 9.38338e-05 3.50796e-07
1.5129e-07 3.50796e-07 1.23906e-05
0.00109051 -6.66475e-05 5.59225e-07
-6.66475e-05 0.000119248 7.13229e-07
5.59225e-07 7.13229e-07 3.44679e-05
0.00086103 3.6217e-05 -1.66759e-06
3.6217e-05 2.30641e-06 2.13691e-06
-1.66759e-06 2.13691e-06 -4.54561e-05
0.000957617 -1.48363e-06 -5.85423e-08
-1.48363e-06 5.01104e-05 6.88163e-09
-5.85423e-08 6.88163e-09 -1.79807e-05
0.000970125 -4.27375e-05 1.72417e-07
-4.27375e-05 6.52039e-05 -1.05773e-07
1.72417e-07 -1.05773e-07 -1.30129e-05
0.00145628 3.19353e-05 -1.09748e-05
3.19353e-05 0.000308163 3.21868e-06
-1.09748e-05 3.21868e-06 0.000300119
0.000867989 2.03731e-05 1.06017e-07
2.03731e-05 6.97485e-07 -5.46697e-08
1.06017e-07 -5.46697e-08 -4.11399e-05
0.000961111 -4.63439e-06 8.23673e-07
-4.63439e-06 4.6763e-05 -1.06559e-06
8.23673e-07 -1.06559e-06 -1.5879e-05
0.00100588 2.34062e-05 -1.63904e-05
2.34062e-05 7.26248e-05 3.72079e-06
-1.63904e-05 3.72079e-06 8.28186e-05
0.00115253 2.76759e-05 -4.1225e-06
2.76759e-05 0.000145779 4.66165e-07
-4.1225e-06 4.66165e-07 0.000138637
0.000869777 2.50135e-05 1.19972e-06
2.50135e-05 -6.82014e-07 -2.07812e-06
1.19972e-06 -2.07812e-06 -3.84123e-05
0.000843186 2.31103e-05 2.39888e-06
2.31103e-05 -2.01704e-05 -3.29753e-06
2.39888e-06 -3.29753e-06 -2.62336e-05
0.00227034 3.26182e-05 5.96274e-07
3.26182e-05 0.000717877 4.90344e-08
5.96274e-07 4.90344e-08 0.000736046
0.00222546 2.82013e-05 1.65879e-05
2.82013e-05 0.000689143 -3.72486e-06
1.65879e-05 -3.72486e-06 0.000708754
0.0009589 1.75107e-05 -6.33769e-07
1.75107e-05 3.91642e-05 -1.28957e-06
-6.33769e-07 -1.28957e-06 -3.19385e-05
0.000962774 -1.15134e-06 -5.16998e-07
-1.15134e-06 3.58895e-05 -1.53092e-06
-5.16998e-07 -1.53092e-06 -2.24191e-05
0.00099943 1.37248e-05 -1.03577e-07
1.37248e-05 5.68222e-05 -3.87427e-09
-1.03577e-07 -3.87427e-09 -1.10768e-05
0.000875701 -2.41032e-05 -7.78697e-07
-2.41032e-05 -6.3347e-06 -2.13629e-06
-7.78697e-07 -2.13629e-06 -4.19559e-05
0.000958462 4.7928e-06 3.35446e-07
4.7928e-06 3.42619e-05 -7.66768e-08
3.35446e-07 -7.66768e-08 -2.10541e-05
0.000841565 -1.95461e-05 -1.90133e-06
-1.95461e-05 -2.76509e-05 -3.40862e-06
-1.90133e-06 -3.40862e-06 -3.33225e-05
0.000891377 -1.43109e-05 -2.31544e-07
-1.43109e-05 -1.03859e-06 -5.1833e-10
-2.31544e-07 -5.1833e-10 -3.44122e-05
0.000959588 1.7972e-05 7.32953e-07
1.7972e-05 3.71363e-05 1.21599e-06
7.32953e-07 1.21599e-06 -1.62003e-05
0.002284 -2.38974e-05 -1.48063e-05
-2.38974e-05 0.000712632 -3.97578e-06
-1.48063e-05 -3.97578e-06 0.000732911
0.000836487 -1.68961e-05 -1.80849e-07
-1.68961e-05 -3.466e-05 -9.37811e-09
-1.80849e-07 -9.37811e-09 -3.8331e-05
0.000908229 -1.25271e-05 5.55617e-07
-1.25271e-05 5.76663e-06 1.77841e-06
5.55617e-07 1.77841e-06 -2.54702e-05
0.00221538 -1.91703e-05 -1.02558e-06
-1.91703e-05 0.000672347 4.03847e-08
-1.02558e-06 4.03847e-08 0.000694211
0.000830124 -1.38757e-05 8.65576e-07
-1.38757e-05 -4.23717e-05 3.23876e-06
8.65576e-07 3.23876e-06 -4.36922e-05
0.0021517 -1.40861e-05 8.3476e-06
-1.40861e-05 0.00063535 3.86331e-06
8.3476e-06 3.86331e-06 0.000658656
0.000670784 1.0031e-05 -8.55179e-06
1.0031e-05 -1.08761e-06 -4.07631e-06
-8.55179e-06 -4.07631e-06 -7.94799e-05
0.000997162 1.31588e-05 -2.08596e-06
1.31588e-05 9.54994e-05 -3.02814e-06
-2.08596e-06 -3.02814e-06 -2.61596e-05
0.00114629 6.7872e-07 6.49844e-08
6.7872e-07 0.000113542 -3.69792e-06
6.49844e-08 -3.69792e-06 -2.37475e-05
0.00103383 4.66596e-05 -8.38521e-07
4.66596e-05 8.57989e-05 -2.38018e-07
-8.38521e-07 -2.38018e-07 7.02789e-06
0.00101068 1.28718e-05 2.45551e-07
1.28718e-05 6.39923e-05 7.65218e-07
2.45551e-07 7.65218e-07 -2.31058e-06
0.00100903 1.65729e-05 2.32643e-07
1.65729e-05 6.25454e-05 9.58294e-07
2.32643e-07 9.58294e-07 -1.11325e-05
0.00101927 1.11819e-05 8.17388e-08
1.11819e-05 7.01369e-05 -2.12686e-07
8.17388e-08 -2.12686e-07 -2.02039e-06
0.00102024 3.19566e-05 -9.74959e-08
3.19566e-05 7.37686e-05 -1.94285e-07
-9.74959e-08 -1.94285e-07 -2.87823e-06
0.00103953 3.74836e-05 5.75817e-08
3.74836e-05 8.36677e-05 4.13926e-07
5.75817e-08 4.13926e-07 5.05562e-06
0.00103938 4.60124e-05 -8.85727e-07
4.60124e-05 8.61655e-05 -1.23745e-06
-8.85727e-07 -1.23745e-06 4.41613e-06
0.000926043 3.34856e-05 -2.59803e-07
3.34856e-05 2.9641e-05 -7.79982e-07
-2.59803e-07 -7.79982e-07 -4.9801e-05
0.000994636 4.32104e-05 5.17938e-07
4.32104e-05 6.3133e-05 3.81421e-07
5.17938e-07 3.81421e-07 -1.01692e-05
0.000992266 -2.35185e-06 3.61628e-07
-2.35185e-06 5.66929e-05 5.12984e-07
3.61628e-07 5.12984e-07 -1.8615e-05
0.0010476 2.70779e-05 -1.07393e-07
2.70779e-05 9.14324e-05 7.03879e-09
-1.07393e-07 7.03879e-09 1.35184e-05
0.00149277 3.22145e-05 1.4363e-06
3.22145e-05 0.000315687 -4.85431e-07
1.4363e-06 -4.85431e-07 0.000235183
0.00183833 -0.000104636 8.97618e-06
-0.000104636 0.000638444 9.08459e-06
8.97618e-06 9.08459e-06 0.00083463
0.00093057 4.75662e-06 2.35296e-06
4.75662e-06 2.7755e-05 4.59413e-06
2.35296e-06 4.59413e-06 -3.57464e-05
0.00100182 2.76004e-05 1.56283e-05
2.76004e-05 7.52965e-05 4.67183e-06
1.56283e-05 4.67183e-06 -2.13352e-05
0.00171288 -0.000136849 -3.2972e-06
-0.000136849 -5.59449e-05 -1.07045e-05
-3.2972e-06 -1.07045e-05 0.000324512
0.00288658 -0.00025827 -3.58827e-06
-0.00025827 -0.000264588 -9.05204e-05
-3.58827e-06 -9.05204e-05 -0.000140042
0.00338495 4.81697e-05 -3.67845e-05
4.81697e-05 -0.00050103 0.000106034
-3.67845e-05 0.000106034 -0.000744658
0.00116069 -0.000208386 -6.01734e-05
-0.000208386 -2.95722e-05 7.43278e-05
-6.01734e-05 7.43278e-05 -0.000316576
0.00232921 -6.07964e-05 -1.99027e-05
-6.07964e-05 0.000741605 5.26342e-06
-1.99027e-05 5.26342e-06 0.000454701
0.000368698 -0.000203605 -3.47597e-06
-0.000203605 -0.000536669 -2.85343e-06
-3.47597e-06 -2.85343e-06 -4.23676e-05
0.00535113 -9.86949e-05 1.63108e-05
-9.86949e-05 0.000693015 5.23582e-05
1.63108e-05 5.23582e-05 -6.15629e-05
-0.000628824 -0.000225398 -5.54889e-06
-0.000225398 -0.00102521 -1.02558e-05
-5.54889e-06 -1.02558e-05 -0.000870806
0.00267111 0.000142886 -5.93962e-05
0.000142886 0.000673038 -4.98625e-05
-5.93962e-05 -4.98625e-05 0.000432194
0.00739042 -0.000276926 3.43109e-06
-0.000276926 0.00218304 3.55373e-05
3.43109e-06 3.55373e-05 0.00137491
-9.42354e-05 -0.00021495 2.89611e-05
-0.00021495 -8.62013e-05 1.88149e-05
2.89611e-05 1.88149e-05 5.22598e-05
0.000781083 7.48721e-05 -3.18443e-06
7.48721e-05 -9.87095e-06 -1.77107e-06
-3.18443e-06 -1.77107e-06 -8.11331e-05
0.00115306 2.69058e-05 2.12328e-06
2.69058e-05 0.000143943 2.57171e-07
2.12328e-06 2.57171e-07 7.07488e-05
0.00104209 1.11142e-05 -3.20825e-07
1.11142e-05 8.42635e-05 -7.67804e-08
-3.20825e-07 -7.67804e-08 4.06838e-06
-0.000295787 1.34061e-05 -9.10273e-06
1.34061e-05 -3.65724e-05 -1.83804e-05
-9.10273e-06 -1.83804e-05 -0.000375047
0.000231143 -2.76622e-05 -1.21756e-06
-2.76622e-05 -0.000196833 2.59183e-07
-1.21756e-06 2.59183e-07 -0.000317271
0.000869213 6.52263e-06 2.15289e-06
6.52263e-06 6.6349e-07 3.0179e-06
2.15289e-06 3.0179e-06 -8.4855e-05
0.000976754 3.65276e-05 2.58938e-07
3.65276e-05 0.0001579 2.41772e-07
2.58938e-07 2.41772e-07 3.13013e-05
0.0008173 3.63524e-05 6.25876e-07
3.63524e-05 0.000268222 -4.09268e-06
6.25876e-07 -4.09268e-06 9.49891e-05
-0.00104746 5.47401e-05 1.72586e-06
5.47401e-05 -0.000737152 1.44443e-05
1.72586e-06 1.44443e-05 -0.000897915
0.00252314 -1.98572e-05 7.95184e-07
-1.98572e-05 0.00117701 -6.15733e-07
7.95184e-07 -6.15733e-07 0.00115937
0.00090853 -3.02892e-06 -2.35411e-07
-3.02892e-06 0.000125919 -1.17174e-06
-2.35411e-07 -1.17174e-06 3.59065e-05
0.000691833 -2.49221e-06 6.31353e-06
-2.49221e-06 -0.000101354 1.42568e-07
6.31353e-06 1.42568e-07 -0.000236742
0.000527205 -3.39242e-05 3.52123e-06
-3.39242e-05 0.000382731 1.20075e-05
3.52123e-06 1.20075e-05 0.000177614
0.00139415 -0.000109038 -8.10543e-07
-0.000109038 0.000141938 -4.69142e-05
-8.10543e-07 -4.69142e-05 -0.000155734
0.00129063 -1.83012e-05 1.81416e-05
-1.83012e-05 0.000300552 -5.19382e-06
1.81416e-05 -5.19382e-06 0.000214804
0.00193706 0.000168206 -1.96121e-05
0.000168206 -4.68837e-05 2.7057e-05
-1.96121e-05 2.7057e-05 -0.00115727
-0.00178814 0.000267433 -5.48591e-05
0.000267433 -0.00121355 2.63448e-05
-5.48591e-05 2.63448e-05 -0.00112849
0.00123892 0.000134548 -1.06047e-05
0.000134548 0.000330403 6.90546e-06
-1.06047e-05 6.90546e-06 0.000572085
0.00163135 -9.08441e-05 7.37106e-06
-9.08441e-05 0.000349385 2.41519e-06
7.37106e-06 2.41519e-06 0.000393776
0.00121332 3.76593e-05 -1.99433e-06
3.76593e-05 0.000385456 3.04632e-07
-1.99433e-06 3.04632e-07 0.000417135
-0.00228746 0.000143623 -2.58159e-06
0.000143623 -0.00107482 2.94637e-06
-2.58159e-06 2.94637e-06 -0.00106933
0.00338704 -0.000178751 -1.18991e-05
-0.000178751 0.000630719 2.01802e-05
-1.18991e-05 2.01802e-05 0.00019644
0.00535625 0.00028861 -7.93685e-06
0.00028861 0.00143515 3.19731e-06
-7.93685e-06 3.19731e-06 0.000550991
0.000690049 -0.000117998 2.33592e-06
-0.000117998 -0.00030007 7.45458e-06
2.33592e-06 7.45458e-06 -0.000238892
-0.00266923 6.52304e-05 5.20801e-05
6.52304e-05 -0.00166377 -1.57998e-05
5.20801e-05 -1.57998e-05 -0.0016217
0.0057979 0.00027433 5.73913e-06
0.00027433 0.00170797 -9.09772e-07
5.73913e-06 -9.09772e-07 0.00100346
0.00369785 6.26162e-07 -1.10048e-05
6.26162e-07 0.000559971 3.05127e-05
-1.10048e-05 3.05127e-05 0.000286797
0.000448709 -9.99577e-05 -2.53841e-06
-9.99577e-05 -1.97633e-05 -2.20361e-06
-2.53841e-06 -2.20361e-06 -0.000315179
0.00102117 -0.00014029 4.00287e-07
-0.00014029 -1.5157e-05 6.64653e-07
4.00287e-07 6.64653e-07 -0.000199156
0.00190968 -0.000174426 -5.75461e-07
-0.000174426 0.000288971 1.99746e-06
-5.75461e-07 1.99746e-06 0.000170413
8.54649e-05 -6.46277e-05 -1.36401e-06
-6.46277e-05 -0.000312492 -1.03822e-06
-1.36401e-06 -1.03822e-06 -0.000508602
0.00119349 -0.000114218 -3.69104e-07
-0.000114218 8.43908e-05 -7.48705e-07
-3.69104e-07 -7.48705e-07 -6.26635e-05
0.00189802 -0.000126592 -5.98084e-06
-0.000126592 0.000274308 -7.46845e-07
-5.98084e-06 -7.46845e-07 0.000169327
0.00128206 -9.81326e-05 -9.70542e-07
-9.81326e-05 0.000168538 -2.15147e-06
-9.70542e-07 -2.15147e-06 1.84871e-05
0.00131833 -0.000102752 6.87682e-07
-0.000102752 0.000107163 -8.10611e-07
6.87682e-07 -8.10611e-07 -1.6591e-05
0.00176719 -9.83579e-05 -2.43622e-06
-9.83579e-05 0.000241298 -3.06696e-06
-2.43622e-06 -3.06696e-06 0.000151582
0.00118899 -8.8366e-05 2.91952e-08
-8.8366e-05 9.83275e-05 -1.28536e-06
2.91952e-08 -1.28536e-06 -3.05815e-05
0.0012766 -8.57247e-05 -3.40134e-07
-8.57247e-05 7.56588e-05 -8.14076e-07
-3.40134e-07 -8.14076e-07 -3.54241e-05
0.00148211 -8.06856e-05 -1.50606e-06
-8.06856e-05 0.000107034 -2.93573e-06
-1.50606e-06 -2.93573e-06 2.65048e-05
0.00142966 -7.5721e-05 -1.44309e-06
-7.5721e-05 9.98867e-05 -1.92822e-06
-1.44309e-06 -1.92822e-06 2.26405e-05
0.00129752 -8.10668e-05 -1.93129e-06
-8.10668e-05 9.75832e-05 -5.73658e-07
-1.93129e-06 -5.73658e-07 -2.24862e-07
0.00131279 -8.00362e-05 6.69266e-07
-8.00362e-05 8.20947e-05 8.22278e-08
6.69266e-07 8.22278e-08 -1.5714e-05
0.00080571 -6.62269e-05 -1.33695e-06
-6.62269e-05 -8.31237e-05 1.41829e-06
-1.33695e-06 1.41829e-06 -0.000179261
0.00126603 -8.2506e-05 7.84287e-07
-8.2506e-05 0.000131394 -7.92642e-07
7.84287e-07 -7.92642e-07 2.62084e-05
0.0011542 -8.18449e-05 1.57861e-06
-8.18449e-05 5.56843e-05 -1.29554e-06
1.57861e-06 -1.29554e-06 -5.78799e-05
0.00104225 -6.77491e-05 -3.20791e-07
-6.77491e-05 7.58844e-05 6.95125e-07
-3.20791e-07 6.95125e-07 -6.72858e-06
0.00103398 -7.09547e-05 3.0837e-07
-7.09547e-05 5.93818e-05 -1.60915e-07
3.0837e-07 -1.60915e-07 -3.29442e-05
0.000959382 -7.38236e-05 9.79751e-07
-7.38236e-05 8.69567e-06 -1.74032e-06
9.79751e-07 -1.74032e-06 -9.81008e-05
0.000990727 -4.63541e-05 -1.31547e-06
-4.63541e-05 6.41908e-05 1.40106e-07
-1.31547e-06 1.40106e-07 -8.29439e-06
0.00105169 -6.4248e-05 -2.04888e-07
-6.4248e-05 8.94097e-05 -3.02796e-07
-2.04888e-07 -3.02796e-07 9.44447e-06
0.000951121 -6.48383e-05 7.51581e-08
-6.48383e-05 3.74203e-05 -1.04941e-06
7.51581e-08 -1.04941e-06 -4.56075e-05
0.000898311 9.68259e-06 -1.90433e-06
9.68259e-06 2.71195e-05 2.11135e-06
-1.90433e-06 2.11135e-06 -2.56911e-05
0.000983828 -2.4068e-05 4.30903e-07
-2.4068e-05 6.44195e-05 2.60059e-07
4.30903e-07 2.60059e-07 -7.15789e-06
0.000978783 -5.54815e-05 7.45692e-07
-5.54815e-05 6.51043e-05 5.88857e-07
7.45692e-07 5.88857e-07 -1.59374e-05
0.0007605 3.03491e-05 -3.86342e-06
3.03491e-05 -4.35198e-05 3.51875e-06
-3.86342e-06 3.51875e-06 -5.81286e-05
0.000867453 1.43522e-05 -2.01765e-07
1.43522e-05 3.95152e-06 -8.26124e-08
-2.01765e-07 -8.26124e-08 -4.29423e-05
0.00099807 -5.85699e-06 6.43205e-07
-5.85699e-06 7.03551e-05 -1.05893e-06
6.43205e-07 -1.05893e-06 1.98887e-06
0.0023797 4.57273e-05 -8.29448e-06
4.57273e-05 0.000788379 1.52238e-06
-8.29448e-06 1.52238e-06 0.000802231
0.000786004 2.76863e-05 1.75999e-07
2.76863e-05 -3.65821e-05 2.56281e-08
1.75999e-07 2.56281e-08 -4.85233e-05
0.000869102 1.9106e-05 2.00214e-06
1.9106e-05 1.67372e-06 -2.07132e-06
2.00214e-06 -2.07132e-06 -4.0388e-05
0.00233944 3.6881e-05 5.57909e-07
3.6881e-05 0.000759672 4.53274e-08
5.57909e-07 4.53274e-08 0.000776104
0.000830379 2.58747e-05 2.94435e-06
2.58747e-05 -2.01078e-05 -3.43436e-06
2.94435e-06 -3.43436e-06 -2.91102e-05
0.00228056 3.25687e-05 1.89483e-05
3.25687e-05 0.000723981 -3.74346e-06
1.89483e-05 -3.74346e-06 0.00074191
0.00105904 4.51215e-05 -6.5619e-07
4.51215e-05 9.70574e-05 -2.90179e-07
-6.5619e-07 -2.90179e-07 2.29888e-05
0.000978824 1.84027e-05 -5.86425e-08
1.84027e-05 4.96661e-05 -2.4933e-07
-5.86425e-08 -2.4933e-07 -2.14031e-05
0.00095849 -1.08215e-06 -8.0241e-07
-1.08215e-06 3.9259e-05 -1.62112e-06
-8.0241e-07 -1.62112e-06 -2.34228e-05
0.000869914 -2.35559e-05 -1.2849e-06
-2.35559e-05 -6.5208e-06 -2.37268e-06
-1.2849e-06 -2.37268e-06 -4.44792e-05
0.000954162 -2.90919e-06 1.71412e-07
-2.90919e-06 3.22598e-05 -1.68569e-08
1.71412e-07 -1.68569e-08 -2.6117e-05
0.000971449 1.93394e-05 5.28954e-07
1.93394e-05 4.3591e-05 1.01857e-06
5.28954e-07 1.01857e-06 -2.54037e-05
0.000832469 -2.18904e-05 -2.50262e-06
-2.18904e-05 -2.80112e-05 -3.49326e-06
-2.50262e-06 -3.49326e-06 -3.53041e-05
0.000882125 -1.89132e-05 -1.9484e-07
-1.89132e-05 -3.6257e-06 -7.90011e-09
-1.9484e-07 -7.90011e-09 -3.89673e-05
0.0009557 -2.25282e-06 6.2787e-07
-2.25282e-06 3.25508e-05 1.32402e-06
6.2787e-07 1.32402e-06 -2.24075e-05
0.00232621 -2.83276e-05 -1.72873e-05
-2.83276e-05 0.000739268 -3.95111e-06
-1.72873e-05 -3.95111e-06 0.000758243
0.00082537 -1.93423e-05 -1.28197e-07
-1.93423e-05 -3.57551e-05 -1.06287e-08
-1.28197e-07 -1.06287e-08 -4.13551e-05
0.000898431 -1.33165e-05 8.41787e-07
-1.33165e-05 2.44438e-06 1.84224e-06
8.41787e-07 1.84224e-06 -3.08201e-05
0.00227968 -2.38986e-05 -1.02248e-06
-2.38986e-05 0.000709877 5.11787e-08
-1.02248e-06 5.11787e-08 0.000730322
0.000818354 -1.67374e-05 1.14547e-06
-1.67374e-05 -4.38008e-05 3.35972e-06
1.14547e-06 3.35972e-06 -4.73732e-05
0.0022075 -1.90224e-05 1.08669e-05
-1.90224e-05 0.000667783 3.8818e-06
1.08669e-05 3.8818e-06 0.000689855
0.000137182 -3.28869e-05 3.83911e-06
-3.28869e-05 -0.000175659 3.95284e-07
3.83911e-06 3.95284e-07 -0.000210323
0.000609832 1.18155e-05 4.03264e-07
1.18155e-05 -4.30347e-05 -9.81643e-07
4.03264e-07 -9.81643e-07 -0.000120798
0.000998585 1.14996e-05 1.38546e-05
1.14996e-05 0.000100878 5.17225e-07
1.38546e-05 5.17225e-07 -2.14677e-05
0.0010171 4.33705e-05 -8.79338e-08
4.33705e-05 7.67023e-05 3.07838e-07
-8.79338e-08 3.07838e-07 -2.19342e-06
0.00114283 6.5129e-05 -6.61876e-07
6.5129e-05 0.000146353 4.15564e-07
-6.61876e-07 4.15564e-07 6.64247e-05
0.00105334 5.34873e-05 -7.13464e-07
5.34873e-05 9.49762e-05 -2.22707e-07
-7.13464e-07 -2.22707e-07 1.31361e-05
0.00110065 7.64618e-06 -2.20656e-08
7.64618e-06 0.000111715 2.09685e-07
-2.20656e-08 2.09685e-07 4.02934e-05
0.00107288 3.1538e-05 4.31392e-07
3.1538e-05 0.000100227 7.91046e-07
4.31392e-07 7.91046e-07 2.43348e-05
0.000962339 2.12857e-05 6.39274e-08
2.12857e-05 4.15533e-05 1.3274e-06
6.39274e-08 1.3274e-06 -3.55925e-05
0.000959392 2.91828e-05 -2.46538e-07
2.91828e-05 4.57703e-05 3.78145e-08
-2.46538e-07 3.78145e-08 -3.33927e-05
0.00102708 3.82877e-05 1.40567e-07
3.82877e-05 7.90563e-05 3.37817e-08
1.40567e-07 3.37817e-08 -2.00897e-06
0.0010674 4.67863e-05 -7.4901e-07
4.67863e-05 0.000112244 -1.23254e-06
-7.4901e-07 -1.23254e-06 2.55555e-05
0.000864825 4.06788e-05 -5.61695e-07
4.06788e-05 3.76959e-06 -1.722e-06
-5.61695e-07 -1.722e-06 -7.84234e-05
0.00102844 4.01525e-05 1.47022e-07
4.01525e-05 8.36389e-05 1.59114e-07
1.47022e-07 1.59114e-07 4.5295e-06
0.00120152 3.59363e-05 3.25361e-07
3.59363e-05 0.00017226 3.72782e-08
3.25361e-07 3.72782e-08 9.15365e-05
-0.00306533 -0.000130867 3.53169e-05
-0.000130867 -0.00158818 2.79251e-05
3.53169e-05 2.79251e-05 -0.00157408
0.000916507 -0.000103505 1.64506e-06
-0.000103505 0.000146445 2.24914e-07
1.64506e-06 2.24914e-07 0.000312384
0.000650712 9.96471e-06 6.59504e-06
9.96471e-06 -0.000151025 3.19719e-07
6.59504e-06 3.19719e-07 -0.000214326
-0.000505943 -0.000210784 -2.49564e-06
-0.000210784 -0.000966088 -8.206e-06
-2.49564e-06 -8.206e-06 -0.000484942
0.0040585 -0.000343164 -1.75707e-05
-0.000343164 0.00107871 -5.40758e-05
-1.75707e-05 -5.40758e-05 0.00121349
0.0048088 -9.02679e-05 3.89139e-05
-9.02679e-05 0.000627929 2.80374e-05
3.89139e-05 2.80374e-05 6.83654e-05
0.00105995 -6.12752e-05 -3.72231e-05
-6.12752e-05 3.9037e-05 7.29116e-05
-3.72231e-05 7.29116e-05 -0.000528762
0.0021206 0.000117574 -4.00701e-05
0.000117574 0.000239606 -2.64297e-05
-4.00701e-05 -2.64297e-05 -0.000171369
0.00267954 -0.00031061 -1.8786e-06
-0.00031061 0.000824832 3.56876e-07
-1.8786e-06 3.56876e-07 0.000890727
0.00307111 -0.000104111 3.07945e-05
-0.000104111 9.64959e-05 4.28273e-05
3.07945e-05 4.28273e-05 -0.000719633
0.00160437 0.000155436 -7.52715e-05
0.000155436 -3.43526e-05 -8.74045e-05
-7.52715e-05 -8.74045e-05 -0.000494693
0.00330753 -3.03809e-06 -4.70422e-05
-3.03809e-06 0.000535254 -9.19414e-06
-4.70422e-05 -9.19414e-06 -0.000306151
0.00229641 0.000166246 8.37628e-06
0.000166246 0.000696681 -6.88166e-06
8.37628e-06 -6.88166e-06 0.000560939
0.000909997 7.69702e-05 -4.93967e-07
7.69702e-05 4.28867e-05 -4.1462e-07
-4.93967e-07 -4.1462e-07 -2.63158e-05
0.00132182 3.70142e-05 1.40191e-06
3.70142e-05 0.000224764 -4.64526e-07
1.40191e-06 -4.64526e-07 0.000151089
-0.000461575 -1.05649e-05 -1.41235e-05
-1.05649e-05 -0.000341173 -8.47864e-06
-1.41235e-05 -8.47864e-06 -0.000497157
0.00163823 6.02412e-05 1.55179e-06
6.02412e-05 0.000462541 -1.94137e-06
1.55179e-06 -1.94137e-06 0.00033834
0.000935346 0.000116507 6.64332e-06
0.000116507 0.000157643 9.94106e-07
6.64332e-06 9.94106e-07 2.42771e-05
1.32166e-05 0.000120098 2.28007e-05
0.000120098 -0.00045451 1.97211e-05
2.28007e-05 1.97211e-05 -0.000572332
-0.000977854 -2.53865e-05 6.21872e-05
-2.53865e-05 -0.000721317 -8.14666e-06
6.21872e-05 -8.14666e-06 -0.000670662
0.000653893 -1.10623e-05 -6.00149e-06
-1.10623e-05 0.000102939 7.23204e-07
-6.00149e-06 7.23204e-07 6.37986e-05
-6.07695e-05 -1.63903e-06 1.30792e-05
-1.63903e-06 -0.000463545 -1.13066e-06
1.30792e-05 -1.13066e-06 -0.000560402
0.00185442 -9.49589e-05 -3.46547e-05
-9.49589e-05 0.000546333 -1.68265e-07
-3.46547e-05 -1.68265e-07 0.00050752
0.00160938 -0.000140583 -3.73295e-05
-0.000140583 -0.000122897 -7.49469e-06
-3.73295e-05 -7.49469e-06 -0.00030888
0.00107558 2.1991e-05 -9.11455e-06
2.1991e-05 0.000313753 -6.6346e-07
-9.11455e-06 -6.6346e-07 0.000314356
0.00239071 0.000269896 1.45848e-05
0.000269896 0.000202778 -3.17048e-05
1.45848e-05 -3.17048e-05 -0.000762933
0.00423038 0.000231563 -9.71858e-05
0.000231563 0.00191813 2.35071e-05
-9.71858e-05 2.35071e-05 0.00190254
0.00134496 -0.000138616 1.2177e-05
-0.000138616 -3.1436e-07 -1.06063e-06
1.2177e-05 -1.06063e-06 4.84207e-05
-0.000525163 0.000107832 -2.87563e-05
0.000107832 -0.000477768 2.07648e-06
-2.87563e-05 2.07648e-06 -0.000534846
0.00305348 0.000181612 -6.54301e-06
0.000181612 0.000481794 8.519e-06
-6.54301e-06 8.519e-06 -0.000405776
0.0016263 7.99978e-06 -9.55969e-06
7.99978e-06 -0.000254625 4.73259e-06
-9.55969e-06 4.73259e-06 -0.000289375
-0.000697351 -7.38174e-05 1.75023e-06
-7.38174e-05 -0.00100468 5.45629e-06
1.75023e-06 5.45629e-06 -0.000948362
0.00511603 9.51321e-05 1.8742e-05
9.51321e-05 0.00147195 5.44995e-06
1.8742e-05 5.44995e-06 0.000776112
0.00148288 8.11485e-05 -5.21799e-07
8.11485e-05 4.99788e-05 -3.5579e-06
-5.21799e-07 -3.5579e-06 -0.000184308
-0.000724736 -9.13952e-05 1.5223e-06
-9.13952e-05 -0.000826981 -4.90537e-06
1.5223e-06 -4.90537e-06 -0.00101613
0.00173375 -0.000164969 2.33287e-08
-0.000164969 0.000235367 -4.80548e-07
2.33287e-08 -4.80548e-07 0.000110003
0.00151394 -0.000147978 -1.51933e-05
-0.000147978 -6.51303e-05 9.44929e-06
-1.51933e-05 9.44929e-06 -0.000155868
0.00126572 -0.000114721 -2.73541e-06
-0.000114721 0.000111275 -2.27742e-06
-2.73541e-06 -2.27742e-06 -3.45263e-05
0.00148944 -0.000117722 -3.14294e-06
-0.000117722 6.74896e-05 5.19626e-07
-3.14294e-06 5.19626e-07 -3.59732e-05
0.00224879 -0.000108742 -8.31965e-06
-0.000108742 0.000330267 2.73867e-06
-8.31965e-06 2.73867e-06 0.00027618
0.00117151 -9.76062e-05 1.9712e-06
-9.76062e-05 3.79824e-05 -1.1246e-06
1.9712e-06 -1.1246e-06 -8.4715e-05
0.00144228 -9.04368e-05 -5.63399e-07
-9.04368e-05 7.50588e-05 -6.6883e-07
-5.63399e-07 -6.6883e-07 -1.26941e-05
0.00169766 -8.03419e-05 -1.56469e-06
-8.03419e-05 0.000117473 -1.0843e-06
-1.56469e-06 -1.0843e-06 6.71676e-05
0.00109545 -7.99813e-05 1.64432e-06
-7.99813e-05 -1.94402e-05 6.65767e-08
1.64432e-06 6.65767e-08 -0.000128741
0.00134768 -7.738e-05 1.3742e-07
-7.738e-05 3.7737e-05 1.48062e-07
1.3742e-07 1.48062e-07 -4.19308e-05
0.00138675 -7.0232e-05 -6.26303e-07
-7.0232e-05 1.92467e-05 -1.0098e-06
-6.26303e-07 -1.0098e-06 -3.79845e-05
0.0016434 -7.0573e-05 -4.83618e-07
-7.0573e-05 0.000186605 -8.28824e-07
-4.83618e-07 -8.28824e-07 0.000122351
0.00141674 -7.38046e-05 -7.16032e-07
-7.38046e-05 9.33252e-05 1.37318e-06
-7.16032e-07 1.37318e-06 1.82781e-05
0.00136183 -7.42027e-05 -8.25996e-07
-7.42027e-05 9.21629e-05 -2.54855e-06
-8.25996e-07 -2.54855e-06 1.09816e-05
0.00129067 -7.74544e-05 -1.75966e-06
-7.74544e-05 0.0001109 2.60449e-07
-1.75966e-06 2.60449e-07 1.83452e-05
0.00138156 -8.25416e-05 7.35446e-07
-8.25416e-05 0.0001409 -3.39325e-07
7.35446e-07 -3.39325e-07 4.30119e-05
0.00128715 -7.75959e-05 2.25621e-06
-7.75959e-05 6.95372e-05 1.60395e-06
2.25621e-06 1.60395e-06 -2.61446e-05
0.000852696 -6.42744e-05 -1.53595e-06
-6.42744e-05 -4.55742e-05 1.80918e-06
-1.53595e-06 1.80918e-06 -0.000133178
0.00106601 -7.30868e-05 9.75154e-08
-7.30868e-05 4.75752e-05 -6.88941e-08
9.75154e-08 -6.88941e-08 -4.7537e-05
0.00140158 -8.57475e-05 2.48731e-06
-8.57475e-05 0.000198774 -2.27992e-06
2.48731e-06 -2.27992e-06 9.46823e-05
0.000984399 -5.30178e-05 -1.0145e-06
-5.30178e-05 5.42411e-05 3.83224e-07
-1.0145e-06 3.83224e-07 -1.983e-05
0.00107972 -6.83721e-05 7.30384e-08
-6.83721e-05 9.34981e-05 -1.77414e-07
7.30384e-08 -1.77414e-07 1.07759e-05
0.000832084 -6.48111e-05 5.58347e-07
-6.48111e-05 -3.85534e-05 -2.10262e-06
5.58347e-07 -2.10262e-06 -0.000130944
0.000880325 -4.80833e-06 -2.55277e-06
-4.80833e-06 2.2316e-05 1.85032e-06
-2.55277e-06 1.85032e-06 -3.51574e-05
0.00102243 -4.79986e-05 -6.30763e-08
-4.79986e-05 7.88526e-05 9.52096e-09
-6.30763e-08 9.52096e-09 6.46421e-06
0.00109777 -6.5188e-05 5.54416e-07
-6.5188e-05 0.000111285 -2.2734e-07
5.54416e-07 -2.2734e-07 3.1298e-05
0.000722818 3.48476e-05 -3.85224e-06
3.48476e-05 -5.38884e-05 3.65864e-06
-3.85224e-06 3.65864e-06 -7.24467e-05
0.000883836 8.04965e-06 -2.05897e-08
8.04965e-06 1.89691e-05 1.92993e-08
-2.05897e-08 1.92993e-08 -3.41428e-05
0.0010244 -2.58956e-05 1.34333e-06
-2.58956e-05 8.4091e-05 -2.87845e-07
1.34333e-06 -2.87845e-07 1.25884e-05
0.00250171 4.62605e-05 -2.4051e-05
4.62605e-05 0.000855732 3.55302e-06
-2.4051e-05 3.55302e-06 0.000868355
0.000777808 3.14494e-05 -9.99769e-09
3.14494e-05 -3.40523e-05 -2.04833e-08
-9.99769e-09 -2.04833e-08 -4.89999e-05
0.000875289 4.62984e-06 2.49647e-06
4.62984e-06 7.45854e-06 -2.10703e-06
2.49647e-06 -2.10703e-06 -3.94057e-05
0.00171897 3.6431e-05 9.12258e-06
3.6431e-05 0.000447611 -9.74341e-07
9.12258e-06 -9.74341e-07 0.000458451
0.000814378 2.85764e-05 3.57923e-06
2.85764e-05 -2.22128e-05 -3.51905e-06
3.57923e-06 -3.51905e-06 -3.42593e-05
0.00236202 3.70229e-05 2.1339e-05
3.70229e-05 0.000772488 -3.75714e-06
2.1339e-05 -3.75714e-06 0.000788461
0.00104319 5.05279e-05 -3.35985e-07
5.05279e-05 9.10336e-05 4.91513e-07
-3.35985e-07 4.91513e-07 1.59127e-05
0.00101708 3.55458e-05 1.25813e-07
3.55458e-05 7.39617e-05 4.265e-07
1.25813e-07 4.265e-07 2.62341e-07
0.000959738 -2.43718e-06 -1.05299e-06
-2.43718e-06 4.49773e-05 -1.21275e-06
-1.05299e-06 -1.21275e-06 -2.14098e-05
0.00100375 2.79821e-05 5.10473e-07
2.79821e-05 6.36e-05 8.387e-07
5.10473e-07 8.387e-07 -8.107e-06
0.000964087 -9.69815e-06 -1.14757e-08
-9.69815e-06 4.14075e-05 3.45137e-08
-1.14757e-08 3.45137e-08 -2.07608e-05
0.00086354 -1.77803e-05 -1.82315e-06
-1.77803e-05 -4.68152e-06 -2.48396e-06
-1.82315e-06 -2.48396e-06 -4.62653e-05
0.00082198 -2.47186e-05 -2.93195e-06
-2.47186e-05 -2.8516e-05 -3.62795e-06
-2.93195e-06 -3.62795e-06 -3.7526e-05
0.000877966 -2.06369e-05 -2.0463e-07
-2.06369e-05 -2.99818e-06 -3.99178e-08
-2.0463e-07 -3.99178e-08 -4.06811e-05
0.000956251 -1.47188e-05 2.43842e-07
-1.47188e-05 3.30876e-05 1.60316e-06
2.43842e-07 1.60316e-06 -2.47095e-05
0.00235093 -3.25837e-05 -1.94471e-05
-3.25837e-05 0.000757416 -3.86759e-06
-1.94471e-05 -3.86759e-06 0.000775135
0.000817133 -2.16452e-05 -1.75073e-07
-2.16452e-05 -3.55567e-05 1.31729e-08
-1.75073e-07 1.31729e-08 -4.27935e-05
0.000892006 -1.23796e-05 1.43006e-06
-1.23796e-05 8.9745e-07 2.03404e-06
1.43006e-06 2.03404e-06 -3.41965e-05
0.00233083 -2.8421e-05 -8.32884e-07
-2.8421e-05 0.000741088 5.60333e-08
-8.32884e-07 5.60333e-08 0.000760165
0.000809536 -1.91647e-05 1.64507e-06
-1.91647e-05 -4.36256e-05 3.4266e-06
1.64507e-06 3.4266e-06 -4.91632e-05
0.00227463 -2.38885e-05 1.33068e-05
-2.38885e-05 0.000706745 3.90449e-06
1.33068e-05 3.90449e-06 0.00072736
0.000233589 5.347e-05 0.000100412
5.347e-05 -0.000194315 1.27014e-05
0.000100412 1.27014e-05 -0.000393231
0.00136878 -4.4333e-05 4.03361e-06
-4.4333e-05 0.000521334 4.69675e-07
4.03361e-06 4.69675e-07 0.000513107
0.000581569 1.36524e-05 1.12584e-05
1.36524e-05 -6.47512e-05 1.8146e-06
1.12584e-05 1.8146e-06 -0.000141948
0.000994157 4.06853e-05 9.77798e-07
4.06853e-05 6.45117e-05 6.59056e-07
9.77798e-07 6.59056e-07 -1.45708e-05
0.00100551 4.39195e-05 5.03052e-07
4.39195e-05 7.16673e-05 1.48697e-07
5.03052e-07 1.48697e-07 -1.00359e-05
0.00105737 6.22738e-05 -7.70709e-08
6.22738e-05 0.000105293 -4.51083e-08
-7.70709e-08 -4.51083e-08 2.58922e-05
0.00113257 6.80677e-05 -1.67562e-07
6.80677e-05 0.000144572 3.83049e-07
-1.67562e-07 3.83049e-07 6.41014e-05
0.00107147 5.90362e-05 -1.5352e-06
5.90362e-05 0.000113697 7.97864e-08
-1.5352e-06 7.97864e-08 3.04048e-05
0.00100042 3.26135e-05 3.43908e-07
3.26135e-05 6.63254e-05 1.12077e-06
3.43908e-07 1.12077e-06 -1.29711e-05
0.00100631 4.18359e-05 9.41786e-07
4.18359e-05 6.93302e-05 1.00479e-06
9.41786e-07 1.00479e-06 -1.20188e-05
0.000939162 5.29684e-05 -4.17407e-07
5.29684e-05 4.97572e-05 -3.92693e-07
-4.17407e-07 -3.92693e-07 -3.69981e-05
0.000499641 4.94373e-05 -1.2794e-06
4.94373e-05 -0.000165101 6.39778e-07
-1.2794e-06 6.39778e-07 -0.00025036
0.000825054 5.87356e-05 -1.47484e-06
5.87356e-05 -1.24292e-05 -1.28402e-06
-1.47484e-06 -1.28402e-06 -0.000100739
0.00184448 0.000114341 1.02274e-06
0.000114341 0.000446123 -3.77918e-06
1.02274e-06 -3.77918e-06 0.00034252
0.00104552 4.66303e-05 -1.51469e-06
4.66303e-05 0.000104438 -6.565e-08
-1.51469e-06 -6.565e-08 2.03251e-05
0.00101551 3.32176e-05 5.4618e-07
3.32176e-05 7.9759e-05 6.01446e-07
5.4618e-07 6.01446e-07 -6.6697e-07
0.00771554 -0.000113216 -1.06281e-05
-0.000113216 0.0021777 -1.01104e-05
-1.06281e-05 -1.01104e-05 0.00145606
-0.000244289 -0.000160705 3.45592e-06
-0.000160705 -0.000366187 5.47286e-06
3.45592e-06 5.47286e-06 -0.000433753
0.00205816 -0.000111952 -1.25677e-05
-0.000111952 0.000764717 -7.35623e-06
-1.25677e-05 -7.35623e-06 0.000926619
-0.00219844 -0.000187599 -2.84024e-05
-0.000187599 -0.0014077 -2.77169e-05
-2.84024e-05 -2.77169e-05 -0.0012422
0.00797761 -0.000260729 6.31168e-05
-0.000260729 0.00229484 4.19898e-05
6.31168e-05 4.19898e-05 0.0012061
0.00175797 0.000101692 3.00493e-05
0.000101692 0.000321193 1.34351e-05
3.00493e-05 1.34351e-05 7.90754e-05
0.00170371 0.000150219 -3.05267e-05
0.000150219 8.23637e-05 -2.44745e-05
-3.05267e-05 -2.44745e-05 -0.000267526
0.00541777 -0.000195412 2.84317e-05
-0.000195412 0.00135957 1.691e-05
2.84317e-05 1.691e-05 0.000643021
0.00148172 7.53045e-05 -3.82596e-05
7.53045e-05 -9.88062e-05 -4.74566e-05
-3.82596e-05 -4.74566e-05 -0.000415538
0.00222843 0.000196245 1.77715e-05
0.000196245 0.000455419 8.713e-06
1.77715e-05 8.713e-06 0.000300821
0.000896106 0.000111151 -1.23497e-07
0.000111151 5.9046e-05 -4.80193e-06
-1.23497e-07 -4.80193e-06 -8.93891e-05
0.000899885 5.95593e-05 3.8198e-07
5.95593e-05 2.69364e-05 2.23387e-06
3.8198e-07 2.23387e-06 -3.77884e-05
0.00192121 0.000152895 -2.44242e-05
0.000152895 0.000614443 -1.89216e-05
-2.44242e-05 -1.89216e-05 0.000491489
-5.71516e-06 0.00013687 -4.03795e-06
0.00013687 -0.000536076 1.18683e-05
-4.03795e-06 1.18683e-05 -0.000641398
0.000309052 2.15006e-05 -1.0579e-06
2.15006e-05 -0.000691991 -5.57592e-06
-1.0579e-06 -5.57592e-06 -0.00117905
0.00151308 4.70969e-06 -1.0422e-06
4.70969e-06 0.000375277 2.98855e-06
-1.0422e-06 2.98855e-06 0.000272781
-0.00114967 -5.50604e-06 -6.52987e-06
-5.50604e-06 -0.000932773 -8.05001e-08
-6.52987e-06 -8.05001e-08 -0.000992809
0.002814 -0.000175256 -3.86913e-05
-0.000175256 0.00068986 7.10018e-07
-3.86913e-05 7.10018e-07 0.00074207
0.00171027 -2.85414e-06 3.20997e-05
-2.85414e-06 -0.000561788 -2.64543e-05
3.20997e-05 -2.64543e-05 -0.000707569
0.000511425 -1.47149e-06 -0.000113019
-1.47149e-06 -0.000125858 2.34403e-05
-0.000113019 2.34403e-05 -0.000308866
0.00597602 0.0003098 -2.27896e-05
0.0003098 0.00195178 8.45646e-06
-2.27896e-05 8.45646e-06 0.0010874
0.00114253 -0.000117349 1.73287e-06
-0.000117349 -0.000124509 -2.15622e-06
1.73287e-06 -2.15622e-06 -6.92782e-05
0.00479131 0.00018023 2.76465e-05
0.00018023 0.00133435 3.50536e-06
2.76465e-05 3.50536e-06 0.000715296
0.00238176 8.71765e-05 3.09087e-05
8.71765e-05 0.000114907 -6.85161e-06
3.09087e-05 -6.85161e-06 -0.000172098
0.0023926 -6.03967e-05 -7.13883e-06
-6.03967e-05 0.000425203 -1.0343e-08
-7.13883e-06 -1.0343e-08 0.000403753
0.000911926 6.42251e-05 -3.19891e-05
6.42251e-05 0.000122338 8.73885e-06
-3.19891e-05 8.73885e-06 -0.000129013
0.000953238 -0.000139798 7.21393e-06
-0.000139798 -0.000117478 -6.28527e-06
7.21393e-06 -6.28527e-06 -0.000248328
0.0015911 -0.000145334 -3.70198e-06
-0.000145334 -1.671e-05 9.37939e-07
-3.70198e-06 9.37939e-07 -0.000102092
0.00233539 -0.000101808 -1.39125e-05
-0.000101808 0.00020157 2.16824e-06
-1.39125e-05 2.16824e-06 0.000154784
0.000914401 -0.000105263 3.25968e-06
-0.000105263 -0.000216619 -2.43769e-06
3.25968e-06 -2.43769e-06 -0.000317915
0.00152464 -9.57287e-05 2.12107e-06
-9.57287e-05 -1.12808e-05 1.10093e-06
2.12107e-06 1.10093e-06 -6.31865e-05
0.00178931 -6.88349e-05 -2.3954e-06
-6.88349e-05 7.02516e-05 4.07736e-06
-2.3954e-06 4.07736e-06 4.27117e-05
0.00108544 -8.23521e-05 1.98096e-06
-8.23521e-05 -0.000107801 1.67134e-06
1.98096e-06 1.67134e-06 -0.000193348
0.00147821 -7.76386e-05 8.09708e-08
-7.76386e-05 9.71929e-06 1.73558e-06
8.09708e-08 1.73558e-06 -4.11373e-05
0.00156803 -6.46703e-05 9.72059e-07
-6.46703e-05 4.11306e-05 2.22835e-06
9.72059e-07 2.22835e-06 9.17821e-08
0.00122766 -7.44564e-05 2.66427e-06
-7.44564e-05 -2.44687e-05 2.78705e-06
2.66427e-06 2.78705e-06 -0.000103296
0.00142098 -7.14739e-05 1.11276e-07
-7.14739e-05 3.77377e-05 1.15305e-06
1.11276e-07 1.15305e-06 -2.05876e-05
0.00148828 -6.3632e-05 2.33376e-07
-6.3632e-05 6.95841e-05 2.05227e-07
2.33376e-07 2.05227e-07 1.38312e-05
0.00145026 -6.77247e-05 -1.32614e-06
-6.77247e-05 9.18872e-05 1.14038e-06
-1.32614e-06 1.14038e-06 2.97898e-05
0.00161077 -6.96192e-05 1.10038e-06
-6.96192e-05 0.000187317 -1.66218e-06
1.10038e-06 -1.66218e-06 0.000116824
0.00142269 -7.23212e-05 1.70785e-06
-7.23212e-05 9.64716e-05 3.7613e-06
1.70785e-06 3.7613e-06 2.35497e-05
0.00137483 -7.38514e-05 1.02231e-07
-7.38514e-05 9.82457e-05 -5.12953e-07
1.02231e-07 -5.12953e-07 1.66969e-05
0.00135366 -7.18151e-05 -7.70974e-07
-7.18151e-05 0.000103582 -9.65332e-07
-7.70974e-07 -9.65332e-07 2.00655e-05
0.000961108 -6.57732e-05 -1.89922e-06
-6.57732e-05 -3.14571e-05 1.12984e-06
-1.89922e-06 1.12984e-06 -0.000119144
0.00128451 -7.6803e-05 4.77338e-08
-7.6803e-05 0.000109045 -1.30598e-07
4.77338e-08 -1.30598e-07 1.6042e-05
0.00146823 -8.41028e-05 2.30173e-06
-8.41028e-05 0.000185719 -2.89968e-07
2.30173e-06 -2.89968e-07 8.77198e-05
0.00102191 -5.97575e-05 -1.40855e-06
-5.97575e-05 5.72376e-05 1.03289e-06
-1.40855e-06 1.03289e-06 -2.00628e-05
0.000931907 -6.6194e-05 -4.29144e-07
-6.6194e-05 -3.67073e-06 4.91212e-07
-4.29144e-07 4.91212e-07 -9.06555e-05
0.00129528 -7.89526e-05 1.55257e-06
-7.89526e-05 0.000163153 -1.59214e-06
1.55257e-06 -1.59214e-06 6.90917e-05
0.00082728 -8.61307e-06 -2.31311e-06
-8.61307e-06 -3.33734e-06 1.4865e-06
-2.31311e-06 1.4865e-06 -6.36672e-05
0.00103564 -5.50281e-05 -5.8771e-09
-5.50281e-05 7.83826e-05 -1.2646e-07
-5.8771e-09 -1.2646e-07 4.19498e-06
0.00112169 -6.91611e-05 6.72894e-07
-6.91611e-05 0.000113383 -1.09158e-06
6.72894e-07 -1.09158e-06 3.05349e-05
0.000678618 3.89261e-05 -3.58541e-06
3.89261e-05 -6.80948e-05 3.81152e-06
-3.58541e-06 3.81152e-06 -9.12732e-05
0.000889611 -6.89098e-06 -1.27895e-08
-6.89098e-06 2.49213e-05 1.31669e-07
-1.27895e-08 1.31669e-07 -3.2198e-05
0.00105384 -4.92544e-05 1.28758e-06
-4.92544e-05 9.342e-05 -1.86966e-07
1.28758e-06 -1.86966e-07 2.11417e-05
0.00258869 5.15369e-05 -2.52726e-05
5.15369e-05 0.000906996 3.44582e-06
-2.52726e-05 3.44582e-06 0.00091755
0.00075276 3.63662e-05 -2.14757e-08
3.63662e-05 -3.76194e-05 -5.62045e-08
-2.14757e-08 -5.62045e-08 -5.66335e-05
0.000873742 -5.4966e-06 2.52446e-06
-5.4966e-06 1.18195e-05 -1.83021e-06
2.52446e-06 -1.83021e-06 -4.0617e-05
0.00250351 4.63974e-05 2.46847e-07
4.63974e-05 0.000857429 7.33628e-08
2.46847e-07 7.33628e-08 0.000869824
0.000799685 3.27157e-05 3.61532e-06
3.27157e-05 -2.22323e-05 -3.61183e-06
3.61532e-06 -3.61183e-06 -3.75455e-05
0.00243665 4.16332e-05 2.32695e-05
4.16332e-05 0.000817332 -3.68135e-06
2.32695e-05 -3.68135e-06 0.000831401
0.00106041 5.76111e-05 -5.08534e-07
5.76111e-05 0.000103634 1.83352e-07
-5.08534e-07 1.83352e-07 2.57718e-05
0.00100868 5.02636e-05 2.83227e-07
5.02636e-05 7.45387e-05 1.38099e-07
2.83227e-07 1.38099e-07 -6.36253e-07
0.000902807 -1.75845e-06 -1.39556e-06
-1.75845e-06 1.81619e-05 -6.25989e-07
-1.39556e-06 -6.25989e-07 -5.10602e-05
0.000973256 2.78092e-05 9.80465e-07
2.78092e-05 5.0403e-05 1.04523e-06
9.80465e-07 1.04523e-06 -2.33163e-05
0.000939724 -6.34214e-06 -8.23685e-08
-6.34214e-06 3.43452e-05 1.934e-07
-8.23685e-08 1.934e-07 -3.22087e-05
0.000864707 -1.27202e-05 -2.20496e-06
-1.27202e-05 -7.53466e-08 -2.22869e-06
-2.20496e-06 -2.22869e-06 -4.66397e-05
0.000957743 -1.12761e-05 6.61682e-07
-1.12761e-05 3.82762e-05 1.65689e-06
6.61682e-07 1.65689e-06 -2.38339e-05
0.000874631 -1.76234e-05 -8.55721e-08
-1.76234e-05 2.17442e-07 -7.86933e-08
-8.55721e-08 -7.86933e-08 -4.12228e-05
0.000812296 -2.84716e-05 -3.31208e-06
-2.84716e-05 -2.65237e-05 -3.76111e-06
-3.31208e-06 -3.76111e-06 -3.81878e-05
0.00237204 -3.68261e-05 -2.12368e-05
-3.68261e-05 0.000774428 -3.79113e-06
-2.12368e-05 -3.79113e-06 0.000790769
0.000810135 -2.42428e-05 -6.76786e-08
-2.42428e-05 -3.43175e-05 -4.92221e-09
-6.76786e-08 -4.92221e-09 -4.32415e-05
0.000883283 -1.83818e-05 1.38331e-06
-1.83818e-05 -8.20637e-07 2.26676e-06
1.38331e-06 2.26676e-06 -3.82844e-05
0.00236534 -3.27212e-05 -7.27753e-07
-3.27212e-05 0.00076413 6.70813e-08
-7.27753e-07 6.70813e-08 0.000781912
0.000802837 -2.14032e-05 2.11548e-06
-2.14032e-05 -4.26141e-05 3.52661e-06
2.11548e-06 3.52661e-06 -4.97924e-05
0.00233313 -2.84619e-05 1.59919e-05
-2.84619e-05 0.000741719 3.90339e-06
1.59919e-05 3.90339e-06 0.000760911
0.00601508 -3.74126e-06 3.05276e-05
-3.74126e-06 0.00178294 5.92196e-07
3.05276e-05 5.92196e-07 0.00121778
-0.000956196 -3.88123e-05 1.22108e-05
-3.88123e-05 -0.000563555 1.24844e-06
1.22108e-05 1.24844e-06 -0.000564411
6.99949e-05 -2.84478e-05 -1.92953e-06
-2.84478e-05 -0.000254495 3.0533e-08
-1.92953e-06 3.0533e-08 -0.000290369
0.000985523 3.61691e-05 1.23446e-06
3.61691e-05 6.2672e-05 5.36849e-07
1.23446e-06 5.36849e-07 -1.91626e-05
0.000975631 6.02806e-05 5.89038e-07
6.02806e-05 6.61629e-05 -7.50235e-08
5.89038e-07 -7.50235e-08 -1.28004e-05
0.00111595 6.18904e-05 1.97156e-07
6.18904e-05 0.000136356 -4.63447e-08
1.97156e-07 -4.63447e-08 5.30455e-05
0.0010784 6.65877e-05 -3.86773e-07
6.65877e-05 0.000117703 -1.81644e-07
-3.86773e-07 -1.81644e-07 3.72464e-05
0.00112646 6.96988e-05 2.59314e-06
6.96988e-05 0.000144042 9.56163e-07
2.59314e-06 9.56163e-07 6.01251e-05
0.000808995 5.87875e-05 -1.5535e-06
5.87875e-05 -1.02615e-05 8.35708e-07
-1.5535e-06 8.35708e-07 -9.25911e-05
0.00079202 5.06113e-05 9.39234e-07
5.06113e-05 -2.3611e-05 6.24957e-07
9.39234e-07 6.24957e-07 -0.000109806
0.000774635 5.80874e-05 6.00344e-07
5.80874e-05 -2.87394e-05 -1.25046e-07
6.00344e-07 -1.25046e-07 -0.000115903
0.000837376 5.58594e-05 7.68171e-07
5.58594e-05 2.1636e-06 9.87059e-08
7.68171e-07 9.87059e-08 -8.74495e-05
0.000441438 5.87759e-05 7.98854e-08
5.87759e-05 -0.000217067 2.45411e-07
7.98854e-08 2.45411e-07 -0.000304137
0.00263006 0.000133956 1.84921e-07
0.000133956 0.000816486 -5.19044e-07
1.84921e-07 -5.19044e-07 0.000719548
0.00178879 0.000129436 7.94186e-07
0.000129436 0.000289147 -3.3143e-06
7.94186e-07 -3.3143e-06 0.000169757
0.00124114 9.74819e-05 8.89665e-07
9.74819e-05 0.000154053 -8.23904e-08
8.89665e-07 -8.23904e-08 5.32521e-05
0.00119631 4.7683e-05 -1.31132e-06
4.7683e-05 0.000189754 8.9887e-07
-1.31132e-06 8.9887e-07 0.0001041
0.00120792 -5.47784e-05 -1.72138e-05
-5.47784e-05 -0.000244911 -1.80207e-05
-1.72138e-05 -1.80207e-05 -0.000391219
0.00389495 -0.000104678 -6.12088e-06
-0.000104678 0.000723322 -1.50936e-06
-6.12088e-06 -1.50936e-06 0.000113361
0.00286155 -0.000220854 -3.62316e-05
-0.000220854 0.00121808 -1.80787e-05
-3.62316e-05 -1.80787e-05 0.00117067
0.0045215 -0.000109668 0.000113178
-0.000109668 0.000984915 3.57017e-05
0.000113178 3.57017e-05 0.000163976
0.00295994 0.000177283 2.84689e-05
0.000177283 0.000764711 4.65667e-05
2.84689e-05 4.65667e-05 0.000572796
0.00123608 4.29504e-05 -2.06654e-05
4.29504e-05 -5.32142e-05 -7.70846e-06
-2.06654e-05 -7.70846e-06 -0.000203273
0.0011258 8.58478e-05 1.98549e-05
8.58478e-05 -0.0002111 1.22791e-05
1.98549e-05 1.22791e-05 -0.000257515
0.00189914 0.000191823 1.044e-07
0.000191823 0.000294888 6.24709e-06
1.044e-07 6.24709e-06 0.000160557
0.000270056 8.32562e-05 -1.6658e-06
8.32562e-05 -0.000237962 4.62557e-06
-1.6658e-06 4.62557e-06 -0.000383292
0.0020425 0.000213375 -6.08938e-05
0.000213375 0.000316456 -5.70493e-05
-6.08938e-05 -5.70493e-05 0.000256203
0.00221106 -9.28649e-06 -0.000115217
-9.28649e-06 0.000532405 -4.5342e-06
-0.000115217 -4.5342e-06 0.00023671
0.00571498 4.5007e-05 9.94957e-06
4.5007e-05 0.00187222 -1.77755e-06
9.94957e-06 -1.77755e-06 0.00134332
-0.00311161 -2.93056e-05 -5.86349e-05
-2.93056e-05 -0.00194777 7.09865e-06
-5.86349e-05 7.09865e-06 -0.00191745
0.00275728 -0.00015244 -5.28553e-07
-0.00015244 0.000653059 -6.94606e-07
-5.28553e-07 -6.94606e-07 0.000699228
0.00154529 8.23261e-05 3.79272e-05
8.23261e-05 -0.000215918 -6.62854e-06
3.79272e-05 -6.62854e-06 -0.000381372
0.000981704 -9.98497e-06 2.70394e-05
-9.98497e-06 -0.00028219 -7.0489e-07
2.70394e-05 -7.0489e-07 -0.000789804
0.00172554 -8.32587e-05 1.67954e-07
-8.32587e-05 5.87103e-05 2.70349e-06
1.67954e-07 2.70349e-06 7.28519e-05
0.00133913 9.63676e-05 2.30623e-06
9.63676e-05 0.000157089 -5.38011e-06
2.30623e-06 -5.38011e-06 -4.81924e-05
0.0030724 -9.94772e-06 1.55758e-06
-9.94772e-06 0.000643356 -1.40162e-05
1.55758e-06 -1.40162e-05 0.000607621
0.00102213 5.91066e-05 6.72648e-06
5.91066e-05 -0.00016562 -1.38965e-06
6.72648e-06 -1.38965e-06 -0.000242217
0.00245952 -0.000158616 6.01211e-06
-0.000158616 0.000423488 -3.54961e-06
6.01211e-06 -3.54961e-06 0.000339742
0.00213603 -0.000101017 2.17187e-06
-0.000101017 0.00010546 -9.55683e-07
2.17187e-06 -9.55683e-07 6.24033e-05
0.00223191 -2.5913e-05 -2.21722e-06
-2.5913e-05 0.000241983 1.72061e-06
-2.21722e-06 1.72061e-06 0.000202854
0.000871248 -8.49434e-05 1.02296e-05
-8.49434e-05 -0.000321528 -1.39487e-06
1.02296e-05 -1.39487e-06 -0.000371932
0.00177908 -6.93602e-05 3.10977e-06
-6.93602e-05 7.73623e-05 4.40119e-08
3.10977e-06 4.40119e-08 4.75206e-05
0.00177744 -4.02118e-05 -2.09247e-07
-4.02118e-05 0.000101572 2.77936e-06
-2.09247e-07 2.77936e-06 5.37129e-05
0.00131124 -7.56079e-05 4.25382e-06
-7.56079e-05 -7.13153e-05 2.52385e-06
4.25382e-06 2.52385e-06 -0.000123005
0.0015588 -6.50846e-05 9.61636e-07
-6.50846e-05 4.49158e-05 8.91526e-07
9.61636e-07 8.91526e-07 1.67506e-06
0.00166907 -5.27348e-05 -1.01915e-07
-5.27348e-05 0.000110761 1.43283e-06
-1.01915e-07 1.43283e-06 5.34044e-05
0.00146985 -7.28078e-05 1.41822e-06
-7.28078e-05 6.35499e-05 2.61189e-06
1.41822e-06 2.61189e-06 4.07812e-06
0.00142148 -6.46132e-05 -7.44985e-08
-6.46132e-05 4.29675e-05 -2.66265e-08
-7.44985e-08 -2.66265e-08 -1.32764e-05
0.00141853 -6.12709e-05 1.71604e-06
-6.12709e-05 6.22787e-05 2.26652e-07
1.71604e-06 2.26652e-07 -6.48037e-06
0.00127296 -6.50926e-05 -2.47657e-07
-6.50926e-05 4.99964e-06 2.80086e-06
-2.47657e-07 2.80086e-06 -5.49735e-05
0.00146578 -6.64854e-05 -9.12367e-07
-6.64854e-05 0.000114467 -6.5107e-07
-9.12367e-07 -6.5107e-07 4.53513e-05
0.00157136 -6.80251e-05 2.65812e-07
-6.80251e-05 0.000183698 -8.10937e-07
2.65812e-07 -8.10937e-07 0.000106257
0.00138616 -7.3476e-05 1.03672e-06
-7.3476e-05 0.000103379 1.39693e-06
1.03672e-06 1.39693e-06 2.14813e-05
0.0013542 -7.13179e-05 1.68763e-07
-7.13179e-05 0.000104345 -3.4505e-07
1.68763e-07 -3.4505e-07 2.04207e-05
0.00138895 -7.00586e-05 -1.01351e-06
-7.00586e-05 0.000143313 -1.06873e-07
-1.01351e-06 -1.06873e-07 6.07202e-05
0.000823829 -5.56231e-05 -2.42945e-06
-5.56231e-05 -7.24201e-05 1.42272e-06
-2.42945e-06 1.42272e-06 -0.000152067
0.00104868 -6.76105e-05 -3.43615e-07
-6.76105e-05 1.54785e-05 3.303e-07
-3.43615e-07 3.303e-07 -7.1742e-05
0.00127902 -7.61713e-05 1.55144e-06
-7.61713e-05 0.000107555 -7.90112e-07
1.55144e-06 -7.90112e-07 1.4099e-05
0.000849965 -2.4892e-05 -2.39091e-06
-2.4892e-05 2.21701e-06 1.55193e-06
-2.39091e-06 1.55193e-06 -6.08219e-05
0.00105363 -6.02461e-05 7.35476e-08
-6.02461e-05 7.23267e-05 4.16258e-09
7.35476e-08 4.16258e-09 -4.99436e-06
0.00103094 -6.87079e-05 4.99556e-07
-6.87079e-05 4.78617e-05 -7.12415e-07
4.99556e-07 -7.12415e-07 -3.85145e-05
0.000663735 4.21139e-05 -3.4983e-06
4.21139e-05 -6.66635e-05 3.70069e-06
-3.4983e-06 3.70069e-06 -9.51429e-05
0.000883942 -1.38188e-05 -8.1321e-08
-1.38188e-05 2.32658e-05 5.50325e-08
-8.1321e-08 5.50325e-08 -3.69171e-05
0.00108544 -5.68541e-05 1.36369e-06
-5.68541e-05 0.000101881 -7.82076e-07
1.36369e-06 -7.82076e-07 2.75764e-05
0.00270757 5.70754e-05 -2.68837e-05
5.70754e-05 0.000974046 3.37131e-06
-2.68837e-05 3.37131e-06 0.000982244
0.000729152 4.03615e-05 1.54281e-07
4.03615e-05 -4.17281e-05 -3.65954e-09
1.54281e-07 -3.65954e-09 -6.53073e-05
0.000896676 -8.88421e-06 2.67064e-06
-8.88421e-06 2.64623e-05 -1.51981e-06
2.67064e-06 -1.51981e-06 -3.03099e-05
0.00259575 5.15812e-05 2.38099e-07
5.15812e-05 0.000911225 8.0187e-08
2.38099e-07 8.0187e-08 0.000921491
0.000784087 3.75788e-05 3.28066e-06
3.75788e-05 -2.08722e-05 -3.70922e-06
3.28066e-06 -3.70922e-06 -4.02957e-05
0.00250565 4.64279e-05 2.47984e-05
4.64279e-05 0.000859261 -3.58307e-06
2.47984e-05 -3.58307e-06 0.000871443
0.00107603 6.31998e-05 -7.41287e-07
6.31998e-05 0.000112201 -5.42256e-07
-7.41287e-07 -5.42256e-07 3.12633e-05
0.00110688 5.93731e-05 1.56701e-07
5.93731e-05 0.000126787 1.09031e-07
1.56701e-07 1.09031e-07 4.92349e-05
0.000965192 2.44829e-05 -1.41835e-06
2.44829e-05 5.41273e-05 -3.65761e-07
-1.41835e-06 -3.65761e-07 -1.73174e-05
0.000977343 5.13525e-05 7.83996e-07
5.13525e-05 5.97604e-05 8.82253e-08
7.83996e-07 8.82253e-08 -1.55442e-05
0.000907871 3.33434e-06 -3.73395e-07
3.33434e-06 2.1582e-05 -2.2142e-08
-3.73395e-07 -2.2142e-08 -4.80384e-05
0.000864689 -2.35852e-06 -2.60328e-06
-2.35852e-06 4.22174e-06 -1.73469e-06
-2.60328e-06 -1.73469e-06 -4.77782e-05
0.000920501 -1.18286e-05 8.19449e-07
-1.18286e-05 2.46341e-05 1.35527e-06
8.19449e-07 1.35527e-06 -4.25564e-05
0.000870033 -1.4028e-05 -3.72336e-08
-1.4028e-05 2.78319e-06 -5.86007e-08
-3.72336e-08 -5.86007e-08 -4.3828e-05
0.000796427 -3.32449e-05 -3.49165e-06
-3.32449e-05 -2.66901e-05 -3.77335e-06
-3.49165e-06 -3.77335e-06 -4.19447e-05
0.000885578 -1.79592e-05 1.65912e-06
-1.79592e-05 5.08832e-06 2.50966e-06
1.65912e-06 2.50966e-06 -3.6222e-05
0.000795732 -2.75624e-05 -7.21139e-08
-2.75624e-05 -3.52784e-05 -2.74386e-08
-7.21139e-08 -2.74386e-08 -4.66858e-05
0.00242928 -4.13719e-05 -2.30484e-05
-4.13719e-05 0.000810598 -3.72194e-06
-2.30484e-05 -3.72194e-06 0.00082513
0.00239192 -3.70083e-05 -4.69046e-07
-3.70083e-05 0.000783704 6.6404e-08
-4.69046e-07 6.6404e-08 0.000800129
0.000797871 -2.37852e-05 2.75259e-06
-2.37852e-05 -4.04119e-05 3.58103e-06
2.75259e-06 3.58103e-06 -4.92382e-05
0.0023766 -3.28859e-05 1.83373e-05
-3.28859e-05 0.00076931 3.85111e-06
1.83373e-05 3.85111e-06 0.000787154
0.000968184 -3.24104e-05 -5.42088e-05
-3.24104e-05 -0.000154751 -6.56971e-06
-5.42088e-05 -6.56971e-06 -0.000327908
0.00157153 -5.96817e-05 -9.4884e-06
-5.96817e-05 -0.00018101 -5.42291e-06
-9.4884e-06 -5.42291e-06 -0.000716623
0.00315252 -0.000180936 -3.99559e-05
-0.000180936 0.00121433 -4.79616e-06
-3.99559e-05 -4.79616e-06 0.00116121
0.00118153 7.46472e-05 3.17951e-06
7.46472e-05 0.000144937 8.65104e-07
3.17951e-06 8.65104e-07 5.81735e-05
0.00114395 6.19097e-05 1.12207e-06
6.19097e-05 0.000150956 -2.38739e-07
1.12207e-06 -2.38739e-07 6.79106e-05
0.00101344 6.46698e-05 3.13573e-07
6.46698e-05 8.5415e-05 -2.74769e-07
3.13573e-07 -2.74769e-07 5.01521e-06
0.000990256 6.47529e-05 2.09371e-08
6.47529e-05 8.03911e-05 1.63235e-07
2.09371e-08 1.63235e-07 -2.55395e-06
0.00105588 6.78659e-05 -1.02651e-07
6.78659e-05 0.000110845 -3.79325e-07
-1.02651e-07 -3.79325e-07 2.64489e-05
0.00073135 6.21e-05 -1.26357e-06
6.21e-05 -5.84561e-05 9.94199e-07
-1.26357e-06 9.94199e-07 -0.000136419
0.00112316 6.94818e-05 2.06988e-06
6.94818e-05 0.000145338 -1.14683e-06
2.06988e-06 -1.14683e-06 5.59266e-05
0.00107678 5.82698e-05 6.84915e-07
5.82698e-05 0.000127444 7.74547e-07
6.84915e-07 7.74547e-07 3.63603e-05
0.00100964 7.63857e-05 -9.42192e-08
7.63857e-05 6.24787e-05 -1.30842e-07
-9.42192e-08 -1.30842e-07 -2.39297e-05
0.0019573 0.000114447 3.13785e-07
0.000114447 0.000497143 1.26678e-06
3.13785e-07 1.26678e-06 0.000402804
0.00153818 0.000110137 4.72228e-07
0.000110137 0.000181406 -1.6487e-06
4.72228e-07 -1.6487e-06 7.61907e-05
0.00201841 0.000112954 -3.18988e-06
0.000112954 0.000210402 -1.71569e-07
-3.18988e-06 -1.71569e-07 9.71135e-05
0.00137936 0.000117022 2.52683e-06
0.000117022 7.91202e-05 8.10641e-07
2.52683e-06 8.10641e-07 -3.94641e-05
0.000744019 8.1539e-05 -6.97798e-07
8.1539e-05 -9.25145e-05 3.86884e-06
-6.97798e-07 3.86884e-06 -0.00019039
0.00122817 -1.0478e-05 -7.31389e-06
-1.0478e-05 -0.000195927 2.97364e-06
-7.31389e-06 2.97364e-06 -0.000217213
0.00242638 -4.87857e-05 -1.36662e-06
-4.87857e-05 0.000134659 1.09151e-06
-1.36662e-06 1.09151e-06 -5.66262e-05
0.00100428 -0.000120741 -9.65004e-06
-0.000120741 -0.00049423 -4.80392e-06
-9.65004e-06 -4.80392e-06 -0.00101589
0.00257807 0.000118335 2.59034e-05
0.000118335 0.000191181 2.2824e-05
2.59034e-05 2.2824e-05 -6.38735e-05
0.00141981 8.89547e-05 1.67144e-06
8.89547e-05 -9.35922e-05 1.54513e-06
1.67144e-06 1.54513e-06 -0.000141704
0.000219473 0.000142134 -1.10867e-05
0.000142134 -0.000473703 -6.09471e-06
-1.10867e-05 -6.09471e-06 -0.000608936
0.00243096 -2.09465e-05 9.48714e-06
-2.09465e-05 0.000596262 -4.61619e-06
9.48714e-06 -4.61619e-06 0.000520484
0.000820679 -4.09413e-06 -2.29172e-05
-4.09413e-06 3.10518e-05 1.73423e-06
-2.29172e-05 1.73423e-06 -0.000196085
0.00114058 0.000136784 4.8551e-05
0.000136784 -0.000406617 -2.27197e-06
4.8551e-05 -2.27197e-06 -0.000897197
0.000889284 -9.54918e-05 -9.4836e-07
-9.54918e-05 -0.000395769 1.04853e-05
-9.4836e-07 1.04853e-05 -0.000350491
0.00205197 0.000116102 4.30881e-05
0.000116102 0.000292397 -1.45577e-05
4.30881e-05 -1.45577e-05 6.04133e-05
0.00205022 -1.13473e-05 5.91975e-06
-1.13473e-05 0.000101923 -1.74753e-06
5.91975e-06 -1.74753e-06 7.07223e-05
0.0014941 6.8964e-05 3.45087e-07
6.8964e-05 7.85033e-05 -3.85779e-06
3.45087e-07 -3.85779e-06 3.8006e-06
0.00135155 4.22831e-05 -4.00751e-06
4.22831e-05 -0.000192969 -8.1654e-07
-4.00751e-06 -8.1654e-07 -0.000265785
0.00115042 4.27582e-05 -4.3466e-06
4.27582e-05 -0.000204706 -3.86546e-06
-4.3466e-06 -3.86546e-06 -0.000298584
0.00161884 -9.44876e-05 1.17036e-05
-9.44876e-05 -0.000146403 -2.12293e-06
1.17036e-05 -2.12293e-06 -0.000182712
0.00191289 -2.67894e-05 3.76657e-06
-2.67894e-05 8.83488e-05 9.84643e-07
3.76657e-06 9.84643e-07 4.4562e-05
0.00185061 5.17335e-06 -8.298e-07
5.17335e-06 0.00015164 2.15045e-07
-8.298e-07 2.15045e-07 7.96707e-05
0.00174552 -7.02152e-05 2.69084e-06
-7.02152e-05 7.23678e-05 -4.93804e-07
2.69084e-06 -4.93804e-07 3.9691e-05
0.00179457 -4.1622e-05 3.89309e-09
-4.1622e-05 0.000112843 -3.70837e-07
3.89309e-09 -3.70837e-07 6.31375e-05
0.00179729 -2.60695e-05 -4.08316e-07
-2.60695e-05 0.000151116 1.45434e-06
-4.08316e-07 1.45434e-06 8.05806e-05
0.00153971 -6.52903e-05 2.65747e-07
-6.52903e-05 4.3696e-05 1.51144e-07
2.65747e-07 1.51144e-07 -1.70283e-06
0.00160936 -5.43414e-05 -8.67506e-07
-5.43414e-05 9.18235e-05 -1.11233e-06
-8.67506e-07 -1.11233e-06 3.50404e-05
0.00144946 -4.97339e-05 3.77074e-07
-4.97339e-05 3.65731e-05 1.85635e-06
3.77074e-07 1.85635e-06 -3.77815e-05
0.00134326 -6.5395e-05 -9.22215e-07
-6.5395e-05 1.05385e-05 -7.54463e-07
-9.22215e-07 -7.54463e-07 -4.61432e-05
0.00139676 -6.06691e-05 1.98204e-07
-6.06691e-05 5.23661e-05 -6.62748e-07
1.98204e-07 -6.62748e-07 -1.64207e-05
0.00139061 -6.10189e-05 4.64678e-07
-6.10189e-05 6.69442e-05 1.86024e-07
4.64678e-07 1.86024e-07 -1.09935e-05
0.00131813 -6.33691e-05 -1.72892e-06
-6.33691e-05 4.02796e-05 1.36043e-06
-1.72892e-06 1.36043e-06 -2.74557e-05
0.00143487 -6.45386e-05 -2.62543e-07
-6.45386e-05 0.000114618 -4.27217e-07
-2.62543e-07 -4.27217e-07 3.79839e-05
0.00135054 -6.19597e-05 -8.15308e-07
-6.19597e-05 9.47044e-05 -1.85318e-07
-8.15308e-07 -1.85318e-07 1.45264e-05
0.00135449 -7.08189e-05 1.09699e-06
-7.08189e-05 0.000104946 2.7221e-07
1.09699e-06 2.7221e-07 2.062e-05
0.0012333 -6.63545e-05 2.57e-07
-6.63545e-05 6.6172e-05 -1.87446e-07
2.57e-07 -1.87446e-07 -1.69751e-05
0.00122846 -6.16176e-05 -2.1016e-06
-6.16176e-05 9.49938e-05 7.91233e-07
-2.1016e-06 7.91233e-07 1.64546e-05
0.000914714 -3.70961e-05 -2.86745e-06
-3.70961e-05 1.55594e-05 1.58952e-06
-2.86745e-06 1.58952e-06 -4.99172e-05
0.000924005 -5.79467e-05 -5.83231e-07
-5.79467e-05 -2.01377e-05 4.07192e-07
-5.83231e-07 4.07192e-07 -9.92018e-05
0.00111867 -6.88888e-05 1.02486e-06
-6.88888e-05 5.38538e-05 -5.52542e-07
1.02486e-06 -5.52542e-07 -3.28864e-05
0.000674659 1.99212e-05 -4.38397e-06
1.99212e-05 -5.5433e-05 3.69621e-06
-4.38397e-06 3.69621e-06 -8.83679e-05
0.000899266 -2.59151e-05 8.89672e-08
-2.59151e-05 2.65605e-05 5.53071e-08
8.89672e-08 5.53071e-08 -3.68672e-05
0.00108652 -6.088e-05 1.65341e-06
-6.088e-05 8.7923e-05 -1.06615e-06
1.65341e-06 -1.06615e-06 1.05777e-05
0.00279318 6.19827e-05 -2.87698e-05
6.19827e-05 0.00102639 3.29348e-06
-2.87698e-05 3.29348e-06 0.00103188
0.000726117 3.29638e-05 1.62635e-07
3.29638e-05 -3.7466e-05 -6.96614e-08
1.62635e-07 -6.96614e-08 -6.52271e-05
0.000929061 -1.61949e-05 2.61575e-06
-1.61949e-05 4.4422e-05 -1.61376e-06
2.61575e-06 -1.61376e-06 -1.58206e-05
0.00268753 5.64872e-05 4.06784e-07
5.64872e-05 0.000965062 1.03168e-07
4.06784e-07 1.03168e-07 0.00097297
0.000771767 3.94302e-05 3.63055e-06
3.94302e-05 -1.9712e-05 -3.59321e-06
3.63055e-06 -3.59321e-06 -4.34459e-05
0.00259562 5.13441e-05 2.65286e-05
5.13441e-05 0.000911833 -3.56314e-06
2.65286e-05 -3.56314e-06 0.00092185
0.000924233 6.39314e-05 -6.61282e-07
6.39314e-05 2.21086e-05 -6.42815e-07
-6.61282e-07 -6.42815e-07 -6.22851e-05
0.00103064 6.157e-05 -3.01445e-08
6.157e-05 8.92544e-05 -3.06401e-07
-3.01445e-08 -3.06401e-07 8.60306e-06
0.00106762 4.86663e-05 -1.19903e-06
4.86663e-05 0.000104407 -3.09416e-07
-1.19903e-06 -3.09416e-07 3.0687e-05
0.00115512 6.13159e-05 5.42719e-07
6.13159e-05 0.000150792 -3.03726e-07
5.42719e-07 -3.03726e-07 7.35362e-05
0.000979383 2.78421e-05 -4.23139e-07
2.78421e-05 6.17271e-05 -1.60063e-07
-4.23139e-07 -1.60063e-07 -9.32953e-06
0.00088006 5.1239e-06 -2.51275e-06
5.1239e-06 1.90753e-05 -1.47878e-06
-2.51275e-06 -1.47878e-06 -3.78503e-05
0.000911293 1.01683e-05 7.34805e-07
1.01683e-05 2.35489e-05 3.06056e-07
7.34805e-07 3.06056e-07 -4.59515e-05
0.000872072 -9.64091e-06 -3.13252e-08
-9.64091e-06 9.12029e-06 4.47438e-08
-3.13252e-08 4.47438e-08 -4.29777e-05
0.000773334 -3.84896e-05 -3.36899e-06
-3.84896e-05 -2.88586e-05 -3.66196e-06
-3.36899e-06 -3.66196e-06 -4.82964e-05
0.000875432 -1.60627e-05 2.0536e-06
-1.60627e-05 5.78115e-06 2.47494e-06
2.0536e-06 2.47494e-06 -4.08711e-05
0.000777181 -3.18751e-05 -7.07079e-08
-3.18751e-05 -3.72554e-05 -1.72056e-08
-7.07079e-08 -1.72056e-08 -5.21087e-05
0.00250421 -4.62411e-05 -2.46973e-05
-4.62411e-05 0.000856054 -3.60497e-06
-2.46973e-05 -3.60497e-06 0.000868518
0.000784136 -2.68052e-05 3.23018e-06
-2.68052e-05 -4.15733e-05 3.6867e-06
3.23018e-06 3.6867e-06 -5.2731e-05
0.00243472 -4.1466e-05 -3.75493e-07
-4.1466e-05 0.000812319 6.73344e-08
-3.75493e-07 6.73344e-08 0.000827078
0.0024091 -3.71196e-05 2.05489e-05
-3.71196e-05 0.000791745 3.77689e-06
2.05489e-05 3.77689e-06 0.000808248
0.000940972 -4.40703e-05 -4.00735e-06
-4.40703e-05 -0.000253317 1.16945e-06
-4.00735e-06 1.16945e-06 -0.00028736
0.00245376 -1.26725e-05 -3.81994e-06
-1.26725e-05 0.00035053 7.47297e-06
-3.81994e-06 7.47297e-06 8.96818e-05
0.00491955 4.51742e-05 -6.93281e-05
4.51742e-05 0.00145443 -1.07883e-05
-6.93281e-05 -1.07883e-05 0.000917356
0.000883718 6.50533e-05 1.50665e-06
6.50533e-05 -1.67512e-05 8.35577e-07
1.50665e-06 8.35577e-07 -9.77635e-05
0.00134672 8.33797e-05 2.34076e-06
8.33797e-05 0.000161718 -9.86181e-07
2.34076e-06 -9.86181e-07 7.06005e-05
0.000866208 6.58791e-05 2.56894e-07
6.58791e-05 -4.21469e-06 -3.9767e-07
2.56894e-07 -3.9767e-07 -9.0402e-05
0.0011457 6.99105e-05 6.93006e-07
6.99105e-05 0.000157045 -1.16479e-06
6.93006e-07 -1.16479e-06 7.36877e-05
0.00101799 6.71375e-05 -8.28077e-08
6.71375e-05 9.36952e-05 -4.07696e-07
-8.28077e-08 -4.07696e-07 8.75574e-06
0.00100491 7.15998e-05 1.10363e-06
7.15998e-05 6.95332e-05 7.98478e-07
1.10363e-06 7.98478e-07 -9.60474e-06
0.00144356 9.84251e-05 -2.41289e-06
9.84251e-05 0.00014669 -2.96508e-06
-2.41289e-06 -2.96508e-06 5.08364e-05
0.00145399 9.00686e-05 2.05488e-06
9.00686e-05 0.000282878 4.65928e-08
2.05488e-06 4.65928e-08 0.000197096
0.000884817 8.33963e-05 -1.37032e-06
8.33963e-05 -1.42529e-05 3.783e-06
-1.37032e-06 3.783e-06 -0.00010597
0.0014493 0.000107529 -1.12716e-06
0.000107529 0.000142257 -2.41227e-07
-1.12716e-06 -2.41227e-07 3.83682e-05
0.00126423 9.07752e-05 -3.49444e-06
9.07752e-05 -0.000104311 -1.83255e-06
-3.49444e-06 -1.83255e-06 -0.000215203
0.00192307 3.02044e-05 -3.51352e-06
3.02044e-05 6.74371e-05 4.50876e-06
-3.51352e-06 4.50876e-06 -8.94484e-06
0.00190959 0.000110539 1.44568e-06
0.000110539 0.000153805 1.37321e-06
1.44568e-06 1.37321e-06 4.11979e-05
0.00113513 0.000108138 -7.39042e-07
0.000108138 -5.13643e-05 3.28925e-06
-7.39042e-07 3.28925e-06 -0.000168256
0.00143787 -1.01624e-05 5.03514e-07
-1.01624e-05 -8.91115e-05 1.20098e-07
5.03514e-07 1.20098e-07 -0.000110035
0.003309 -7.35498e-05 4.83422e-05
-7.35498e-05 0.000453173 2.58381e-05
4.83422e-05 2.58381e-05 0.000195047
0.0020628 9.66903e-05 -3.55272e-06
9.66903e-05 0.000200596 -3.21983e-06
-3.55272e-06 -3.21983e-06 0.000149168
0.00204358 1.18573e-05 -3.33228e-06
1.18573e-05 0.000312878 -3.07575e-06
-3.33228e-06 -3.07575e-06 0.000248648
0.00150124 -1.82641e-05 6.0004e-07
-1.82641e-05 0.000144277 -1.08304e-08
6.0004e-07 -1.08304e-08 6.75298e-05
0.000858659 5.46491e-05 5.54462e-05
5.46491e-05 -0.000168665 7.97254e-07
5.54462e-05 7.97254e-07 -0.000455566
0.000931731 -2.20995e-05 4.70309e-06
-2.20995e-05 -0.000481301 3.00051e-06
4.70309e-06 3.00051e-06 -0.000505153
0.00181325 7.564e-05 -9.52467e-06
7.564e-05 0.00025563 2.03462e-06
-9.52467e-06 2.03462e-06 0.000184384
0.00159018 4.55506e-05 -2.03647e-06
4.55506e-05 -8.08723e-05 4.14115e-06
-2.03647e-06 4.14115e-06 -0.000150723
0.00162667 5.12353e-05 5.03391e-07
5.12353e-05 2.82873e-05 1.03988e-06
5.03391e-07 1.03988e-06 -6.17734e-05
0.00171095 3.95276e-05 -3.8308e-06
3.95276e-05 8.79713e-05 -2.35448e-08
-3.8308e-06 -2.35448e-08 4.5319e-06
0.00144006 3.60525e-05 -2.08206e-06
3.60525e-05 -1.63382e-05 -1.85701e-06
-2.08206e-06 -1.85701e-06 -9.02928e-05
0.001488 -2.7177e-05 8.19747e-06
-2.7177e-05 -0.000121451 -1.29301e-06
8.19747e-06 -1.29301e-06 -0.000169076
0.00176601 4.31319e-06 -1.1533e-06
4.31319e-06 0.000102285 -6.39908e-07
-1.1533e-06 -6.39908e-07 3.21912e-05
0.00167729 1.58848e-05 -4.37855e-07
1.58848e-05 8.71821e-05 -4.63949e-07
-4.37855e-07 -4.63949e-07 4.20612e-06
0.00187112 -4.29632e-05 -1.86096e-06
-4.29632e-05 0.000153762 -2.00684e-06
-1.86096e-06 -2.00684e-06 0.000102832
0.00170801 -2.5984e-05 -1.43729e-07
-2.5984e-05 0.000109983 -4.87777e-07
-1.43729e-07 -4.87777e-07 4.04159e-05
0.00149605 -1.96143e-05 -4.49461e-07
-1.96143e-05 2.51984e-05 1.37438e-06
-4.49461e-07 1.37438e-06 -5.58446e-05
0.00154319 -5.57408e-05 -3.17592e-06
-5.57408e-05 6.94305e-05 -2.66118e-06
-3.17592e-06 -2.66118e-06 1.32714e-05
0.00148363 -4.93288e-05 3.07201e-07
-4.93288e-05 5.30178e-05 -5.66915e-08
3.07201e-07 -5.66915e-08 -2.13925e-05
0.0014527 -5.10427e-05 -1.15327e-07
-5.10427e-05 5.86305e-05 1.21351e-06
-1.15327e-07 1.21351e-06 -2.36972e-05
0.00137614 -6.00653e-05 -1.16081e-06
-6.00653e-05 4.29968e-05 -1.56763e-06
-1.16081e-06 -1.56763e-06 -2.58146e-05
0.001392 -6.03044e-05 6.25632e-08
-6.03044e-05 6.73078e-05 -4.60886e-07
6.25632e-08 -4.60886e-07 -1.05464e-05
0.00135084 -5.93466e-05 -6.72642e-07
-5.93466e-05 6.96477e-05 2.98782e-07
-6.72642e-07 2.98782e-07 -1.19364e-05
0.00129687 -6.10849e-05 -3.73287e-07
-6.10849e-05 4.47764e-05 4.22987e-07
-3.73287e-07 4.22987e-07 -3.1052e-05
0.00124396 -5.96988e-05 -1.89838e-07
-5.96988e-05 4.18652e-05 -1.88052e-07
-1.89838e-07 -1.88052e-07 -3.81166e-05
0.00121185 -5.6214e-05 -2.11109e-06
-5.6214e-05 6.03312e-05 5.22379e-07
-2.11109e-06 5.22379e-07 -1.74373e-05
0.00108052 -6.2735e-05 1.50578e-06
-6.2735e-05 -9.55881e-06 -3.51328e-07
1.50578e-06 -3.51328e-07 -9.32655e-05
0.00106369 -5.73398e-05 1.03506e-07
-5.73398e-05 1.36703e-05 5.04028e-08
1.03506e-07 5.04028e-08 -6.49736e-05
0.000972096 -4.13083e-05 -3.29321e-06
-4.13083e-05 1.70604e-05 1.46957e-06
-3.29321e-06 1.46957e-06 -4.91993e-05
0.000681368 1.20475e-06 -5.61783e-06
1.20475e-06 -5.29446e-05 3.70831e-06
-5.61783e-06 3.70831e-06 -9.02113e-05
0.000934489 -3.8757e-05 6.64253e-08
-3.8757e-05 2.56939e-05 7.65112e-08
6.64253e-08 7.65112e-08 -3.99237e-05
0.0010361 -6.06608e-05 1.17546e-06
-6.06608e-05 3.79069e-05 -6.0661e-07
1.17546e-06 -6.0661e-07 -4.05802e-05
0.00287828 6.71384e-05 -2.98477e-05
6.71384e-05 0.00108266 3.20628e-06
-2.98477e-05 3.20628e-06 0.0010846
0.000734912 1.70944e-05 -3.58144e-08
1.70944e-05 -2.84397e-05 -6.94359e-08
-3.58144e-08 -6.94359e-08 -6.13139e-05
0.000946904 -2.95732e-05 2.90203e-06
-2.95732e-05 4.95592e-05 -1.63709e-06
2.90203e-06 -1.63709e-06 -1.3987e-05
0.00277079 6.14967e-05 3.61661e-07
6.14967e-05 0.00101724 1.00215e-07
3.61661e-07 1.00215e-07 0.00102223
0.000785952 2.91867e-05 4.81481e-06
2.91867e-05 -8.35005e-06 -3.50204e-06
4.81481e-06 -3.50204e-06 -3.61299e-05
0.00267779 5.61892e-05 2.81302e-05
5.61892e-05 0.000961284 -3.48445e-06
2.81302e-05 -3.48445e-06 0.000968852
0.000719204 6.2749e-05 -3.37616e-07
6.2749e-05 -0.000112664 -5.94079e-07
-3.37616e-07 -5.94079e-07 -0.000202556
0.000799755 6.037e-05 -1.66893e-08
6.037e-05 -4.20011e-05 -1.03549e-07
-1.66893e-08 -1.03549e-07 -0.000126867
0.00110693 5.77226e-05 -1.46218e-06
5.77226e-05 0.000110271 -3.66446e-07
-1.46218e-06 -3.66446e-07 3.36852e-05
0.000983873 5.9886e-05 3.22581e-07
5.9886e-05 6.562e-05 -2.38759e-07
3.22581e-07 -2.38759e-07 -1.47383e-05
0.00100679 4.60164e-05 -7.65002e-08
4.60164e-05 7.46971e-05 -8.1126e-08
-7.65002e-08 -8.1126e-08 1.17938e-06
0.000910861 9.67611e-06 -2.61389e-06
9.67611e-06 4.0101e-05 -1.30147e-06
-2.61389e-06 -1.30147e-06 -2.05683e-05
0.000999157 3.05831e-05 8.42061e-07
3.05831e-05 7.21995e-05 -7.0051e-08
8.42061e-07 -7.0051e-08 1.49254e-06
0.00087606 -8.20195e-07 1.06657e-07
-8.20195e-07 1.90702e-05 5.69157e-08
1.06657e-07 5.69157e-08 -3.80519e-05
0.000762278 -4.3198e-05 -3.199e-06
-4.3198e-05 -2.42182e-05 -3.56156e-06
-3.199e-06 -3.56156e-06 -4.83511e-05
0.000878937 -1.54752e-05 2.2933e-06
-1.54752e-05 1.38538e-05 2.11147e-06
2.2933e-06 2.11147e-06 -3.83798e-05
0.0007519 -3.72555e-05 -3.17782e-08
-3.72555e-05 -4.08618e-05 -1.38191e-08
-3.17782e-08 -1.38191e-08 -5.98764e-05
0.00258173 -5.13568e-05 -2.61773e-05
-5.13568e-05 0.000903381 -3.47525e-06
-2.61773e-05 -3.47525e-06 0.000913585
0.000759578 -3.05965e-05 3.68853e-06
-3.05965e-05 -4.70314e-05 3.72326e-06
3.68853e-06 3.72326e-06 -6.14885e-05
0.00250957 -4.63077e-05 -3.21479e-07
-4.63077e-05 0.000857679 7.43652e-08
-3.21479e-07 7.43652e-08 0.000870412
0.00244903 -4.16031e-05 2.2184e-05
-4.16031e-05 0.000818619 3.66746e-06
2.2184e-05 3.66746e-06 0.000833563
0.00164408 -2.85492e-05 1.45336e-06
-2.85492e-05 -1.48291e-05 1.88943e-06
1.45336e-06 1.88943e-06 -6.92623e-05
0.00110632 -4.9627e-05 6.11281e-07
-4.9627e-05 -0.000166196 3.74363e-07
6.11281e-07 3.74363e-07 -0.000204006
0.000983982 -4.62475e-05 4.61539e-05
-4.62475e-05 -0.000185921 1.76826e-05
4.61539e-05 1.76826e-05 -0.000369519
0.00184502 9.5364e-05 5.97011e-07
9.5364e-05 0.000353414 -2.11104e-06
5.97011e-07 -2.11104e-06 0.000263886
0.00088124 6.63275e-05 -8.14961e-07
6.63275e-05 -5.42763e-06 4.19905e-07
-8.14961e-07 4.19905e-07 -8.29547e-05
0.00075105 7.01396e-05 -2.94586e-06
7.01396e-05 -0.00020528 4.47806e-08
-2.94586e-06 4.47806e-08 -0.00030138
0.00132849 8.29791e-05 2.09802e-07
8.29791e-05 0.000151602 9.51198e-08
2.09802e-07 9.51198e-08 5.98971e-05
0.000555023 5.70309e-05 -1.43415e-06
5.70309e-05 -0.000150443 6.75947e-07
-1.43415e-06 6.75947e-07 -0.000236155
0.0017243 9.08283e-05 -3.34217e-06
9.08283e-05 0.000155008 -3.87479e-06
-3.34217e-06 -3.87479e-06 5.06621e-05
0.00127132 8.06881e-05 1.1148e-07
8.06881e-05 0.000193791 -3.1428e-07
1.1148e-07 -3.1428e-07 0.000113575
0.0014266 9.64961e-05 -4.10857e-08
9.64961e-05 0.000132054 3.22343e-07
-4.10857e-08 3.22343e-07 3.63229e-05
0.00159195 3.77258e-05 -6.24653e-07
3.77258e-05 -1.1228e-05 3.09708e-06
-6.24653e-07 3.09708e-06 -0.000102275
0.00144005 0.000107093 1.76371e-06
0.000107093 0.000141579 2.88624e-06
1.76371e-06 2.88624e-06 3.89629e-05
0.00155136 9.79903e-05 -1.01859e-06
9.79903e-05 3.15015e-05 -7.97581e-07
-1.01859e-06 -7.97581e-07 -8.0601e-05
0.00191601 3.18529e-05 -1.32835e-07
3.18529e-05 7.56951e-05 1.15328e-06
-1.32835e-07 1.15328e-06 -2.95881e-06
0.00179583 0.000105737 2.81897e-06
0.000105737 0.00010163 1.62054e-06
2.81897e-06 1.62054e-06 -1.06952e-05
0.00162807 -3.48188e-06 -5.6758e-06
-3.48188e-06 5.8537e-06 -6.21699e-06
-5.6758e-06 -6.21699e-06 -1.37556e-05
0.00168703 2.01477e-07 -1.48696e-06
2.01477e-07 0.000125596 -1.57459e-06
-1.48696e-06 -1.57459e-06 6.23646e-05
0.00159659 8.88533e-06 7.4825e-07
8.88533e-06 7.94475e-05 2.27954e-07
7.4825e-07 2.27954e-07 1.53464e-05
0.000555729 -1.34772e-05 -1.27779e-09
-1.34772e-05 -0.000313749 2.51808e-06
-1.27779e-09 2.51808e-06 -0.000392302
0.00185087 4.95776e-05 7.29719e-07
4.95776e-05 4.07157e-05 -1.53625e-07
7.29719e-07 -1.53625e-07 -2.66187e-05
0.00216244 6.00664e-05 1.38102e-05
6.00664e-05 0.000293659 4.36638e-06
1.38102e-05 4.36638e-06 0.000207173
0.0018675 4.20715e-05 -3.07654e-06
4.20715e-05 0.000156017 -2.68364e-07
-3.07654e-06 -2.68364e-07 7.24575e-05
0.00159786 3.60436e-05 8.79809e-07
3.60436e-05 6.65302e-05 1.83454e-06
8.79809e-07 1.83454e-06 -7.1655e-06
0.00165748 3.47542e-05 -2.07721e-06
3.47542e-05 9.91748e-05 -1.74719e-06
-2.07721e-06 -1.74719e-06 1.95987e-05
0.00174438 3.11803e-06 -1.94662e-06
3.11803e-06 8.67797e-05 -1.54579e-06
-1.94662e-06 -1.54579e-06 1.80291e-05
0.00172111 1.5257e-05 -2.0409e-08
1.5257e-05 0.000107614 -2.07711e-07
-2.0409e-08 -2.07711e-07 2.52364e-05
0.00161336 1.97e-05 -1.54354e-06
1.97e-05 7.05594e-05 -8.40934e-07
-1.54354e-06 -8.40934e-07 -1.54792e-05
0.00162848 -2.61592e-05 -7.08325e-07
-2.61592e-05 7.41039e-05 -1.99078e-06
-7.08325e-07 -1.99078e-06 5.41772e-06
0.0015519 -1.98886e-05 2.13665e-07
-1.98886e-05 5.25063e-05 4.77211e-07
2.13665e-07 4.77211e-07 -2.88654e-05
0.00153818 -2.03991e-05 -1.02096e-06
-2.03991e-05 6.44023e-05 5.77879e-07
-1.02096e-06 5.77879e-07 -2.17535e-05
0.00151513 -4.88459e-05 -1.31831e-07
-4.88459e-05 6.81869e-05 -1.89258e-06
-1.31831e-07 -1.89258e-06 -6.27918e-06
0.00147034 -5.01127e-05 2.10081e-07
-5.01127e-05 6.64285e-05 7.8208e-08
2.10081e-07 7.8208e-08 -1.59356e-05
0.00141632 -5.17241e-05 -1.08752e-06
-5.17241e-05 6.62429e-05 8.26051e-07
-1.08752e-06 8.26051e-07 -1.85335e-05
0.0013938 -5.96542e-05 -3.43644e-07
-5.96542e-05 6.78743e-05 -1.09352e-06
-3.43644e-07 -1.09352e-06 -9.90013e-06
0.0013523 -5.89077e-05 1.30633e-08
-5.89077e-05 6.98657e-05 -2.6644e-07
1.30633e-08 -2.6644e-07 -1.16573e-05
0.00125346 -5.36989e-05 -2.01043e-06
-5.36989e-05 5.41374e-05 6.13181e-07
-2.01043e-06 6.13181e-07 -2.5328e-05
0.00113479 -5.73448e-05 6.64496e-07
-5.73448e-05 -1.22628e-05 -1.42342e-07
6.64496e-07 -1.42342e-07 -9.204e-05
0.0011999 -5.54848e-05 -1.18858e-08
-5.54848e-05 5.44669e-05 -5.0515e-08
-1.18858e-08 -5.0515e-08 -2.31809e-05
0.00102496 -4.10119e-05 -3.68675e-06
-4.10119e-05 1.71312e-05 1.44581e-06
-3.68675e-06 1.44581e-06 -4.96103e-05
0.000891103 -5.28057e-05 1.86177e-06
-5.28057e-05 -7.14652e-05 -6.07149e-07
1.86177e-06 -6.07149e-07 -0.000150205
0.000975746 -4.17678e-05 8.65174e-08
-4.17678e-05 1.95958e-05 3.57942e-08
8.65174e-08 3.57942e-08 -4.67823e-05
0.00166065 8.04889e-06 -6.95429e-06
8.04889e-06 0.000447109 2.13932e-06
-6.95429e-06 2.13932e-06 0.000411666
0.00112251 3.56853e-05 -3.07723e-05
3.56853e-05 0.00019267 6.16854e-06
-3.07723e-05 6.16854e-06 0.000179294
0.00122493 8.07981e-06 -1.25563e-06
8.07981e-06 0.000221834 -1.72355e-08
-1.25563e-06 -1.72355e-08 0.000187295
0.000960874 -4.03134e-05 3.1389e-06
-4.03134e-05 3.90904e-05 -1.4602e-06
3.1389e-06 -1.4602e-06 -2.66775e-05
0.00290025 6.66675e-05 4.5761e-07
6.66675e-05 0.00109643 1.29533e-07
4.5761e-07 1.29533e-07 0.00109763
0.000801307 1.22469e-05 5.62696e-06
1.22469e-05 1.34159e-06 -3.49626e-06
5.62696e-06 -3.49626e-06 -3.10928e-05
0.00275901 6.06921e-05 3.00441e-05
6.06921e-05 0.00101322 -3.42276e-06
3.00441e-05 -3.42276e-06 0.00101776
0.00118408 7.44324e-05 -1.21474e-06
7.44324e-05 -2.72754e-05 1.50868e-07
-1.21474e-06 1.50868e-07 -0.00011523
0.000814836 6.79291e-05 7.66112e-07
6.79291e-05 -0.000105143 4.06644e-07
7.66112e-07 4.06644e-07 -0.000197956
0.000842931 6.6763e-05 -1.39738e-07
6.6763e-05 -5.628e-05 -8.7911e-08
-1.39738e-07 -8.7911e-08 -0.000146951
0.00112506 6.35013e-05 -1.51447e-06
6.35013e-05 9.92485e-05 -6.01826e-07
-1.51447e-06 -6.01826e-07 2.00028e-05
0.000664923 5.64782e-05 2.20465e-07
5.64782e-05 -0.000111382 4.64763e-07
2.20465e-07 4.64763e-07 -0.000196681
0.00103527 5.4435e-05 -1.73468e-07
5.4435e-05 7.54225e-05 -4.8048e-08
-1.73468e-07 -4.8048e-08 -8.07377e-07
0.000937584 2.11516e-05 -2.78171e-06
2.11516e-05 5.25047e-05 -1.0337e-06
-2.78171e-06 -1.0337e-06 -1.02662e-05
0.000950619 4.35082e-05 1.17688e-06
4.35082e-05 4.72945e-05 2.33902e-07
1.17688e-06 2.33902e-07 -2.60307e-05
0.000866752 6.31455e-06 9.59327e-08
6.31455e-06 1.96957e-05 1.26062e-07
9.59327e-08 1.26062e-07 -4.11234e-05
0.000767882 -3.54858e-05 -4.27228e-06
-3.54858e-05 -1.41644e-05 -3.33538e-06
-4.27228e-06 -3.33538e-06 -4.24772e-05
0.000871281 -7.13364e-06 2.30903e-06
-7.13364e-06 1.87053e-05 1.61513e-06
2.30903e-06 1.61513e-06 -3.86097e-05
0.000721707 -4.18826e-05 -8.67541e-09
-4.18826e-05 -4.55671e-05 -4.12865e-08
-8.67541e-09 -4.12865e-08 -6.93221e-05
0.00264735 -5.64062e-05 -2.75605e-05
-5.64062e-05 0.000946101 -3.38916e-06
-2.75605e-05 -3.38916e-06 0.000953704
0.000727099 -3.56527e-05 3.89477e-06
-3.56527e-05 -5.4608e-05 3.68645e-06
3.89477e-06 3.68645e-06 -7.3162e-05
0.00259246 -5.14991e-05 -2.85983e-07
-5.14991e-05 0.000907616 8.2888e-08
-2.85983e-07 8.2888e-08 0.000918104
0.00251669 -4.63846e-05 2.38509e-05
-4.63846e-05 0.000860147 3.56514e-06
2.38509e-05 3.56514e-06 0.00087315
0.00159287 -2.02814e-05 9.63692e-07
-2.02814e-05 2.56588e-05 2.37644e-06
9.63692e-07 2.37644e-06 -4.57766e-05
0.00177985 -2.77298e-05 9.62671e-07
-2.77298e-05 7.49133e-05 -1.49055e-06
9.62671e-07 -1.49055e-06 1.94221e-05
0.00147775 -6.02528e-05 2.1928e-06
-6.02528e-05 1.61469e-05 -2.49335e-06
2.1928e-06 -2.49335e-06 -2.66441e-05
0.0015404 8.14348e-05 -5.04665e-06
8.14348e-05 8.67164e-05 -2.58351e-06
-5.04665e-06 -2.58351e-06 -1.01673e-05
0.00155431 8.78519e-05 -1.01292e-07
8.78519e-05 0.000226909 4.25513e-07
-1.01292e-07 4.25513e-07 0.000140112
0.00080538 6.59764e-05 -4.46777e-06
6.59764e-05 -3.06055e-05 3.08262e-07
-4.46777e-06 3.08262e-07 -0.00010456
0.00134814 8.40429e-05 1.13281e-06
8.40429e-05 8.64239e-05 1.10627e-06
1.13281e-06 1.10627e-06 -7.98089e-06
0.00134085 8.33148e-05 -1.69502e-06
8.33148e-05 0.000156762 6.3294e-07
-1.69502e-06 6.3294e-07 6.44154e-05
0.00174467 3.74979e-05 -4.12188e-07
3.74979e-05 8.54626e-05 1.73149e-06
-4.12188e-07 1.73149e-06 -1.36687e-05
0.00164105 9.06504e-05 -1.94093e-06
9.06504e-05 0.000111336 -1.63419e-06
-1.94093e-06 -1.63419e-06 4.96736e-06
0.00142142 9.5228e-05 2.11669e-06
9.5228e-05 0.000124211 4.45659e-06
2.11669e-06 4.45659e-06 2.83761e-05
0.00174432 3.7604e-05 -3.34698e-07
3.7604e-05 6.51338e-05 7.0745e-07
-3.34698e-07 7.0745e-07 -2.6862e-05
0.00191833 0.000106873 3.2495e-06
0.000106873 0.000203421 9.50641e-07
3.2495e-06 9.50641e-07 9.0443e-05
0.00157718 2.87255e-05 9.0549e-07
2.87255e-05 -8.22068e-05 -2.0841e-06
9.0549e-07 -2.0841e-06 -0.000163112
0.00147315 9.40928e-07 -8.924e-07
9.40928e-07 2.04225e-05 8.66903e-08
-8.924e-07 8.66903e-08 -5.36233e-05
0.00161105 1.30314e-06 -2.70934e-07
1.30314e-06 8.28976e-05 -6.39193e-07
-2.70934e-07 -6.39193e-07 1.86008e-05
0.0010524 4.84838e-06 4.82348e-06
4.84838e-06 -0.000202547 5.35766e-06
4.82348e-06 5.35766e-06 -0.000266304
0.00205473 4.49677e-05 3.00733e-06
4.49677e-05 0.000238238 -3.49517e-07
3.00733e-06 -3.49517e-07 0.000154707
0.00171037 3.58769e-05 6.6789e-06
3.58769e-05 0.000125865 5.48745e-06
6.6789e-06 5.48745e-06 5.25924e-05
0.00169557 3.49681e-05 -1.09718e-06
3.49681e-05 0.000118189 -4.07236e-07
-1.09718e-06 -4.07236e-07 3.89772e-05
0.00159887 2.98482e-05 -2.97389e-07
2.98482e-05 8.49186e-05 -8.12924e-07
-2.97389e-07 -8.12924e-07 -1.88111e-07
0.00175765 1.44287e-05 9.17858e-07
1.44287e-05 0.000123948 -3.50008e-07
9.17858e-07 -3.50008e-07 4.22553e-05
0.00163392 1.77668e-05 -5.29092e-07
1.77668e-05 7.94121e-05 -7.91586e-08
-5.29092e-07 -7.91586e-08 -6.52227e-06
0.00156889 1.09813e-05 -2.06973e-06
1.09813e-05 6.58758e-05 -1.02548e-06
-2.06973e-06 -1.02548e-06 -2.13288e-05
0.00160614 -2.0326e-05 5.92908e-07
-2.0326e-05 7.92458e-05 -2.00777e-07
5.92908e-07 -2.00777e-07 -2.49369e-06
0.00154692 -2.07637e-05 7.36047e-08
-2.07637e-05 6.82077e-05 3.99014e-07
7.36047e-08 3.99014e-07 -1.80502e-05
0.00149365 -2.81016e-05 -1.77372e-06
-2.81016e-05 7.0125e-05 2.68238e-07
-1.77372e-06 2.68238e-07 -1.65191e-05
0.00148893 -4.91212e-05 7.29215e-07
-4.91212e-05 7.46957e-05 -1.03869e-06
7.29215e-07 -1.03869e-06 -7.70015e-06
0.00142443 -5.13031e-05 1.15069e-07
-5.13031e-05 6.95432e-05 1.37746e-07
1.15069e-07 1.37746e-07 -1.52634e-05
0.00131944 -4.82444e-05 -2.3334e-06
-4.82444e-05 5.50294e-05 8.64337e-07
-2.3334e-06 8.64337e-07 -2.71073e-05
0.00135312 -5.85011e-05 7.44648e-07
-5.85011e-05 6.97889e-05 -8.22011e-07
7.44648e-07 -8.22011e-07 -1.16774e-05
0.00125715 -5.33375e-05 5.99192e-09
-5.33375e-05 5.55172e-05 -1.34305e-07
5.99192e-09 -1.34305e-07 -2.38871e-05
0.00107236 -4.00639e-05 -4.10142e-06
-4.00639e-05 1.67533e-05 1.64123e-06
-4.10142e-06 1.64123e-06 -5.18422e-05
0.00118691 -5.47472e-05 1.83829e-06
-5.47472e-05 4.81025e-05 -5.4593e-07
1.83829e-06 -5.4593e-07 -2.94262e-05
0.00101957 -4.08491e-05 1.27563e-07
-4.08491e-05 1.47536e-05 -5.22146e-08
1.27563e-07 -5.22146e-08 -5.2075e-05
0.00171927 2.3029e-06 -7.15712e-06
2.3029e-06 0.000470544 2.25256e-06
-7.15712e-06 2.25256e-06 0.000433085
0.000982351 -4.24664e-05 3.37286e-06
-4.24664e-05 2.3602e-05 -1.3082e-06
3.37286e-06 -1.3082e-06 -4.29073e-05
0.00175906 3.29745e-06 7.33644e-06
3.29745e-06 0.000491964 -9.30012e-07
7.33644e-06 -9.30012e-07 0.000456693
0.00120248 3.1539e-05 -3.72379e-05
3.1539e-05 0.000248409 5.99682e-06
-3.72379e-05 5.99682e-06 0.000230349
0.0020888 5.20546e-05 -2.47793e-05
5.20546e-05 0.000691907 1.63861e-06
-2.47793e-05 1.63861e-06 0.000683851
0.00179426 8.94683e-06 1.85017e-05
8.94683e-06 0.000508912 -2.84851e-06
1.85017e-05 -2.84851e-06 0.000477744
0.00291361 6.50927e-05 3.3266e-05
6.50927e-05 0.00110553 -3.33915e-06
3.3266e-05 -3.33915e-06 0.00110616
0.00152499 7.44768e-05 -3.3586e-06
7.44768e-05 7.47002e-05 -1.88667e-06
-3.3586e-06 -1.88667e-06 -1.79175e-05
0.00142831 8.02058e-05 1.82979e-06
8.02058e-05 0.000148497 1.71978e-07
1.82979e-06 1.71978e-07 6.05496e-05
0.00117773 7.4554e-05 1.15395e-06
7.4554e-05 -1.92026e-05 7.16385e-07
1.15395e-06 7.16385e-07 -0.000102038
0.00113708 6.83334e-05 -1.58166e-06
6.83334e-05 8.02675e-05 -9.24866e-07
-1.58166e-06 -9.24866e-07 -3.20663e-06
0.00113035 7.74444e-05 -4.18546e-07
7.74444e-05 4.67552e-05 2.15706e-07
-4.18546e-07 2.15706e-07 -4.62474e-05
0.00100042 7.19824e-05 3.54588e-07
7.19824e-05 1.63457e-05 6.30258e-07
3.54588e-07 6.30258e-07 -7.51127e-05
0.00108415 6.21183e-05 -8.702e-08
6.21183e-05 8.14711e-05 -1.22115e-07
-8.702e-08 -1.22115e-07 2.08792e-06
0.000966179 3.42358e-05 -2.70244e-06
3.42358e-05 5.71314e-05 -1.07653e-06
-2.70244e-06 -1.07653e-06 -7.76445e-06
0.000964094 5.1208e-05 9.96548e-07
5.1208e-05 4.08157e-05 2.06703e-07
9.96548e-07 2.06703e-07 -3.50638e-05
0.000882209 1.72718e-05 -9.30611e-08
1.72718e-05 2.52185e-05 8.9281e-08
-9.30611e-08 8.9281e-08 -3.74858e-05
0.000780544 -2.6834e-05 -5.04921e-06
-2.6834e-05 -2.15775e-06 -3.11071e-06
-5.04921e-06 -3.11071e-06 -3.53271e-05
0.000828353 3.08039e-06 2.26817e-06
3.08039e-06 2.0744e-06 1.34708e-06
2.26817e-06 1.34708e-06 -5.89005e-05
0.000709851 -4.51661e-05 -3.43847e-08
-4.51661e-05 -4.17181e-05 -4.24643e-08
-3.43847e-08 -4.24643e-08 -7.072e-05
0.00271201 -6.12224e-05 -2.92495e-05
-6.12224e-05 0.000991414 -3.28919e-06
-2.92495e-05 -3.28919e-06 0.000995798
0.000679999 -4.05249e-05 3.65306e-06
-4.05249e-05 -6.74857e-05 3.66976e-06
3.65306e-06 3.66976e-06 -9.08535e-05
0.00267077 -5.68204e-05 -2.88114e-07
-5.68204e-05 0.000956321 9.22649e-08
-2.88114e-07 9.22649e-08 0.000964273
0.00260237 -5.15703e-05 2.54157e-05
-5.15703e-05 0.000911372 3.43999e-06
2.54157e-05 3.43999e-06 0.000922161
0.00164947 -1.49569e-05 -9.0406e-07
-1.49569e-05 5.79712e-05 2.49761e-06
-9.0406e-07 2.49761e-06 -2.57703e-05
0.0016486 -1.94706e-05 4.56812e-07
-1.94706e-05 5.08636e-05 -3.31997e-07
4.56812e-07 -3.31997e-07 -2.04846e-05
0.00200864 -2.79506e-05 -1.64373e-06
-2.79506e-05 0.000211532 -4.78554e-06
-1.64373e-06 -4.78554e-06 0.000155003
0.00152766 4.00561e-05 -1.37053e-06
4.00561e-05 1.59789e-06 8.71494e-07
-1.37053e-06 8.71494e-07 -9.46143e-05
0.00158399 8.28176e-05 3.64064e-07
8.28176e-05 0.000109825 -6.69913e-07
3.64064e-07 -6.69913e-07 1.26838e-05
0.00133647 8.20728e-05 -1.38944e-06
8.20728e-05 0.000135148 1.77163e-06
-1.38944e-06 1.77163e-06 5.11737e-05
0.00186565 9.61318e-05 2.09208e-06
9.61318e-05 0.000338338 7.39949e-07
2.09208e-06 7.39949e-07 0.000245767
0.00188198 3.99191e-05 -4.93702e-07
3.99191e-05 0.000152506 -2.12899e-07
-4.93702e-07 -2.12899e-07 5.36602e-05
0.00162148 9.14138e-05 2.54109e-06
9.14138e-05 9.79083e-05 1.17234e-06
2.54109e-06 1.17234e-06 -1.02909e-05
0.00186406 3.69118e-05 1.15008e-06
3.69118e-05 0.0001263 -1.3082e-06
1.15008e-06 -1.3082e-06 3.32806e-05
0.00158473 7.39565e-07 8.99757e-07
7.39565e-07 7.10963e-05 5.52618e-07
8.99757e-07 5.52618e-07 -1.12774e-05
0.00150009 2.2576e-06 7.36845e-09
2.2576e-06 2.95989e-05 -3.33483e-07
7.36845e-09 -3.33483e-07 -4.61359e-05
0.00153626 3.49935e-06 9.15098e-07
3.49935e-06 4.2327e-05 1.12075e-06
9.15098e-07 1.12075e-06 -2.32346e-05
0.00159543 2.99675e-05 -2.46861e-08
2.99675e-05 8.96524e-05 -9.52607e-09
-2.46861e-08 -9.52607e-09 2.72913e-07
0.00172833 3.51183e-05 1.69064e-06
3.51183e-05 0.000135068 1.31444e-06
1.69064e-06 1.31444e-06 5.61549e-05
0.00160336 3.01929e-05 2.03573e-07
3.01929e-05 8.67175e-05 2.34275e-07
2.03573e-07 2.34275e-07 1.41353e-06
0.00160263 2.58668e-05 -2.70035e-07
2.58668e-05 9.38986e-05 -5.81694e-07
-2.70035e-07 -5.81694e-07 6.31367e-06
0.00167264 1.60518e-05 8.84836e-07
1.60518e-05 9.70639e-05 7.12823e-07
8.84836e-07 7.12823e-07 1.12486e-05
0.00157692 1.09132e-05 -6.77255e-07
1.09132e-05 7.03306e-05 -6.20532e-08
-6.77255e-07 -6.20532e-08 -1.6877e-05
0.00153377 4.36498e-06 -2.65692e-06
4.36498e-06 7.56662e-05 -4.8428e-07
-2.65692e-06 -4.8428e-07 -1.17812e-05
0.00155608 -2.04799e-05 1.76117e-06
-2.04799e-05 7.22165e-05 1.98076e-07
1.76117e-06 1.98076e-07 -1.41389e-05
0.00148784 -2.66416e-05 5.0465e-08
-2.66416e-05 6.74074e-05 1.88827e-07
5.0465e-08 1.88827e-07 -1.93286e-05
0.00139004 -3.3612e-05 -2.88798e-06
-3.3612e-05 6.00856e-05 4.45661e-07
-2.88798e-06 4.45661e-07 -2.33031e-05
0.00143426 -5.08507e-05 1.56638e-06
-5.08507e-05 7.36764e-05 -5.60402e-07
1.56638e-06 -5.60402e-07 -1.11555e-05
0.00132353 -4.78844e-05 6.31023e-08
-4.78844e-05 5.6634e-05 1.32872e-07
6.31023e-08 1.32872e-07 -2.5503e-05
0.00112849 -3.69366e-05 -4.7697e-06
-3.69366e-05 1.96435e-05 1.83677e-06
-4.7697e-06 1.83677e-06 -5.14469e-05
0.00126046 -5.29142e-05 2.04155e-06
-5.29142e-05 5.67251e-05 -8.56506e-07
2.04155e-06 -8.56506e-07 -2.26166e-05
0.00107222 -3.95549e-05 2.15634e-07
-3.95549e-05 1.59906e-05 -9.35367e-08
2.15634e-07 -9.35367e-08 -5.26526e-05
0.00177805 6.34218e-07 -7.04814e-06
6.34218e-07 0.000491436 2.37404e-06
-7.04814e-06 2.37404e-06 0.000453165
0.00101839 -4.07309e-05 3.62809e-06
-4.07309e-05 1.45327e-05 -1.38209e-06
3.62809e-06 -1.38209e-06 -5.23926e-05
0.00183216 -3.54924e-06 8.65631e-06
-3.54924e-06 0.000522638 -8.17847e-07
8.65631e-06 -8.17847e-07 0.000485598
0.00124762 2.48762e-05 -4.22013e-05
2.48762e-05 0.000280125 5.56163e-06
-4.22013e-05 5.56163e-06 0.000259864
0.00185868 -2.38004e-06 2.29985e-05
-2.38004e-06 0.000537257 -4.27304e-06
2.29985e-05 -4.27304e-06 0.000502316
0.00119421 3.87396e-05 -1.55805e-05
3.87396e-05 0.000247806 2.06868e-06
-1.55805e-05 2.06868e-06 0.000228839
0.00299351 7.98304e-05 1.23638e-05
7.98304e-05 0.00116163 -1.32681e-06
1.23638e-05 -1.32681e-06 0.00115749
0.00181862 5.11023e-05 -1.76312e-06
5.11023e-05 0.000181328 -5.6053e-07
-1.76312e-06 -5.6053e-07 8.51283e-05
0.00154462 7.30862e-05 -1.15664e-06
7.30862e-05 0.000125061 -1.76772e-06
-1.15664e-06 -1.76772e-06 3.54433e-05
0.00159477 7.72315e-05 -1.71281e-06
7.72315e-05 0.000118923 1.20293e-06
-1.71281e-06 1.20293e-06 2.71354e-05
0.00148274 7.60387e-05 -1.12895e-06
7.60387e-05 0.000210202 -1.26785e-07
-1.12895e-06 -1.26785e-07 0.000126783
0.00128374 7.78399e-05 4.32641e-07
7.78399e-05 7.51351e-05 -9.84186e-07
4.32641e-07 -9.84186e-07 -1.25611e-05
0.00127382 7.67588e-05 3.19303e-06
7.67588e-05 3.99401e-05 1.24593e-06
3.19303e-06 1.24593e-06 -3.79965e-05
0.00100119 4.69173e-05 -3.02623e-06
4.69173e-05 5.30596e-05 -1.51493e-06
-3.02623e-06 -1.51493e-06 -1.59801e-05
0.00112922 6.83063e-05 -7.94122e-08
6.83063e-05 7.62547e-05 -9.09643e-08
-7.94122e-08 -9.09643e-08 -7.28918e-06
0.00141579 8.59549e-05 1.70708e-06
8.59549e-05 0.000184685 9.87658e-07
1.70708e-06 9.87658e-07 9.14253e-05
0.00102551 6.01183e-05 1.17733e-06
6.01183e-05 5.48725e-05 2.67672e-07
1.17733e-06 2.67672e-07 -2.4606e-05
0.000917396 3.25741e-05 -7.18028e-08
3.25741e-05 3.3435e-05 -8.67632e-08
-7.18028e-08 -8.67632e-08 -3.13229e-05
0.000796169 -1.11506e-06 -5.81785e-06
-1.11506e-06 6.8067e-06 -3.21501e-06
-5.81785e-06 -3.21501e-06 -3.03031e-05
0.000814808 1.36502e-05 2.18382e-06
1.36502e-05 -8.31321e-06 9.85812e-07
2.18382e-06 9.85812e-07 -7.08788e-05
0.000718892 -2.41713e-05 -1.03048e-07
-2.41713e-05 -3.12877e-05 -4.31915e-08
-1.03048e-07 -4.31915e-08 -6.41596e-05
0.00281363 -6.5878e-05 -3.1818e-05
-6.5878e-05 0.00105927 -3.11984e-06
-3.1818e-05 -3.11984e-06 0.00105974
0.000645023 -4.36453e-05 3.35107e-06
-4.36453e-05 -7.40286e-05 3.61518e-06
3.35107e-06 3.61518e-06 -0.000102804
0.00273131 -6.18798e-05 -3.7943e-07
-6.18798e-05 0.000998615 1.03709e-07
-3.7943e-07 1.03709e-07 0.00100352
0.00269084 -5.70918e-05 2.67527e-05
-5.70918e-05 0.000964837 3.30157e-06
2.67527e-05 3.30157e-06 0.000973159
0.00168332 -3.3405e-06 -9.40282e-07
-3.3405e-06 7.72921e-05 8.1538e-07
-9.40282e-07 8.1538e-07 -8.75246e-06
0.00170193 -1.39558e-05 -1.63305e-07
-1.39558e-05 7.67574e-05 6.50949e-07
-1.63305e-07 6.50949e-07 -8.06488e-06
0.00170763 -1.91641e-05 1.65837e-07
-1.91641e-05 7.67918e-05 -3.0725e-06
1.65837e-07 -3.0725e-06 5.64619e-06
0.00164406 4.13964e-05 7.9553e-07
4.13964e-05 5.39832e-05 -1.83874e-08
7.9553e-07 -1.83874e-08 -4.16385e-05
0.00166176 8.50941e-05 1.94968e-06
8.50941e-05 0.000150289 6.45612e-07
1.94968e-06 6.45612e-07 5.27692e-05
0.0018951 4.10732e-05 1.28521e-06
4.10732e-05 0.000159718 -1.38125e-06
1.28521e-06 -1.38125e-06 6.10344e-05
0.00159934 2.70622e-06 -4.07494e-07
2.70622e-06 7.60706e-05 6.42161e-07
-4.07494e-07 6.42161e-07 -1.25691e-05
0.00156798 3.89399e-06 5.58792e-07
3.89399e-06 6.46677e-05 -3.1981e-07
5.58792e-07 -3.1981e-07 -1.81627e-05
0.00156458 3.69076e-06 5.75897e-07
3.69076e-06 5.68855e-05 -2.2331e-07
5.75897e-07 -2.2331e-07 -2.05064e-05
0.00158196 2.1439e-05 -6.98046e-07
2.1439e-05 8.3081e-05 -2.16099e-07
-6.98046e-07 -2.16099e-07 -5.60952e-06
0.00163168 1.90796e-05 2.92362e-07
1.90796e-05 0.000115473 2.34364e-07
2.92362e-07 2.34364e-07 2.39705e-05
0.00160461 3.06013e-05 8.11465e-07
3.06013e-05 8.69066e-05 6.49668e-07
8.11465e-07 6.49668e-07 1.40958e-06
0.00161243 2.58194e-05 4.13033e-07
2.58194e-05 9.93794e-05 1.40281e-07
4.13033e-07 1.40281e-07 1.17936e-05
0.00155278 2.05883e-05 -5.14557e-07
2.05883e-05 8.72364e-05 -3.40657e-07
-5.14557e-07 -3.40657e-07 -1.03302e-06
0.00158538 1.0195e-05 1.16405e-06
1.0195e-05 7.49956e-05 8.62511e-07
1.16405e-06 8.62511e-07 -1.22154e-05
0.00151905 3.26764e-06 -7.12608e-07
3.26764e-06 6.89098e-05 1.05276e-07
-7.12608e-07 1.05276e-07 -1.85374e-05
0.00142836 -4.57483e-06 -3.75333e-06
-4.57483e-06 6.40556e-05 1.51423e-07
-3.75333e-06 1.51423e-07 -2.0171e-05
0.00148463 -2.67154e-05 1.86417e-06
-2.67154e-05 6.58516e-05 1.1334e-07
1.86417e-06 1.1334e-07 -2.09693e-05
0.00138382 -3.27958e-05 9.32657e-08
-3.27958e-05 5.69864e-05 1.16963e-07
9.32657e-08 1.16963e-07 -2.64509e-05
0.00116224 -2.63145e-05 -5.41736e-06
-2.63145e-05 1.3787e-05 1.46681e-06
-5.41736e-06 1.46681e-06 -5.82546e-05
0.00132784 -4.74687e-05 2.60396e-06
-4.74687e-05 5.83554e-05 -5.89166e-07
2.60396e-06 -5.89166e-07 -2.37818e-05
0.0011278 -3.60393e-05 2.38085e-07
-3.60393e-05 1.81718e-05 9.42365e-08
2.38085e-07 9.42365e-08 -5.29123e-05
0.00190088 5.31469e-06 -7.15486e-06
5.31469e-06 0.00053993 2.32536e-06
-7.15486e-06 2.32536e-06 0.000501541
0.00107299 -3.91087e-05 4.14868e-06
-3.91087e-05 1.57828e-05 -1.66921e-06
4.14868e-06 -1.66921e-06 -5.29253e-05
0.00190918 -7.12375e-06 9.90641e-06
-7.12375e-06 0.000552868 -7.18453e-07
9.90641e-06 -7.18453e-07 0.000515121
0.00129557 1.76698e-05 -4.6285e-05
1.76698e-05 0.000307607 5.04289e-06
-4.6285e-05 5.04289e-06 0.000286465
0.0019417 -1.10337e-05 2.5566e-05
-1.10337e-05 0.00057267 -4.19207e-06
2.5566e-05 -4.19207e-06 0.000536226
0.00124671 3.6555e-05 -1.79131e-05
3.6555e-05 0.000284281 1.81152e-06
-1.79131e-05 1.81152e-06 0.000262495
0.00118445 4.8251e-05 7.53687e-06
4.8251e-05 0.000246702 -1.80282e-06
7.53687e-06 -1.80282e-06 0.000226567
0.00158843 1.01534e-05 -1.21774e-06
1.01534e-05 4.4066e-05 9.78277e-07
-1.21774e-06 9.78277e-07 -4.30498e-05
0.00156525 5.29262e-05 -2.21818e-06
5.29262e-05 8.89646e-05 -2.34845e-07
-2.21818e-06 -2.34845e-07 -4.27174e-06
0.00170481 4.97473e-05 -1.24452e-06
4.97473e-05 0.00012119 -9.59199e-07
-1.24452e-06 -9.59199e-07 2.46732e-05
0.00146625 6.95868e-05 -2.36446e-06
6.95868e-05 0.00014096 -7.15168e-07
-2.36446e-06 -7.15168e-07 5.63719e-05
0.00162208 7.49224e-05 8.09329e-07
7.49224e-05 0.000168245 6.32345e-07
8.09329e-07 6.32345e-07 7.91241e-05
0.00160457 7.86505e-05 3.88429e-06
7.86505e-05 0.000133571 2.42442e-06
3.88429e-06 2.42442e-06 4.27196e-05
0.000966968 5.07767e-05 -3.70732e-06
5.07767e-05 -1.41886e-06 -1.3991e-06
-3.70732e-06 -1.3991e-06 -7.30311e-05
0.00117648 6.95489e-05 1.05541e-06
6.95489e-05 5.47859e-05 6.47909e-07
1.05541e-06 6.47909e-07 -2.97242e-05
0.00111815 7.50361e-05 1.43713e-06
7.50361e-05 -9.48881e-06 1.08618e-06
1.43713e-06 1.08618e-06 -9.67851e-05
0.000804471 1.86064e-05 -6.8004e-06
1.86064e-05 8.09827e-06 -3.77064e-06
-6.8004e-06 -3.77064e-06 -3.40464e-05
0.000958903 4.46192e-05 -1.87871e-07
4.46192e-05 3.16749e-05 -1.55214e-07
-1.87871e-07 -1.55214e-07 -3.70592e-05
0.00113142 6.86183e-05 1.64527e-06
6.86183e-05 7.72554e-05 8.09578e-07
1.64527e-06 8.09578e-07 -6.38136e-06
0.000864554 3.01908e-05 2.42501e-06
3.01908e-05 7.72392e-06 8.46485e-07
2.42501e-06 8.46485e-07 -5.68899e-05
0.000731978 -4.5302e-06 -3.64481e-08
-4.5302e-06 -2.03915e-05 -4.44136e-08
-3.64481e-08 -4.44136e-08 -5.79461e-05
0.00300558 -6.80376e-05 -3.73828e-05
-6.80376e-05 0.00117417 -2.96334e-06
-3.73828e-05 -2.96334e-06 0.00117058
0.000668731 -3.47671e-05 3.51988e-06
-3.47671e-05 -5.26567e-05 3.44001e-06
3.51988e-06 3.44001e-06 -8.63956e-05
0.00280974 -6.69516e-05 -5.07028e-07
-6.69516e-05 0.00105414 1.23842e-07
-5.07028e-07 1.23842e-07 0.00105524
0.00276621 -6.25369e-05 2.80792e-05
-6.25369e-05 0.00101359 3.18284e-06
2.80792e-05 3.18284e-06 0.00101901
0.00168785 -1.0739e-05 -9.19852e-07
-1.0739e-05 9.70376e-05 -4.45799e-07
-9.19852e-07 -4.45799e-07 1.01783e-05
0.0017344 -3.81901e-06 -2.76845e-07
-3.81901e-06 0.000101489 2.55865e-07
-2.76845e-07 2.55865e-07 1.50415e-05
0.00178316 -1.30132e-05 -1.80965e-08
-1.30132e-05 0.000109579 -1.69843e-06
-1.80965e-08 -1.69843e-06 2.36945e-05
0.00176027 4.22219e-05 1.32148e-06
4.22219e-05 0.000105582 -8.93541e-07
1.32148e-06 -8.93541e-07 1.0658e-05
0.00164362 -1.73252e-06 -4.51204e-07
-1.73252e-06 9.96025e-05 -3.77721e-07
-4.51204e-07 -3.77721e-07 7.66404e-06
0.00166117 2.60813e-06 -2.58813e-07
2.60813e-06 0.000106804 -1.92002e-07
-2.58813e-07 -1.92002e-07 1.85371e-05
0.00154096 6.7924e-06 -8.4447e-08
6.7924e-06 5.32373e-05 -1.55965e-07
-8.4447e-08 -1.55965e-07 -3.00583e-05
0.00158416 1.64393e-05 -1.24729e-06
1.64393e-05 8.42637e-05 -6.89265e-07
-1.24729e-06 -6.89265e-07 -3.85029e-06
0.00158929 2.38597e-05 2.26735e-08
2.38597e-05 9.29467e-05 -3.4636e-07
2.26735e-08 -3.4636e-07 1.32487e-06
0.00160829 2.04111e-05 -1.10779e-06
2.04111e-05 0.000115608 6.25935e-07
-1.10779e-06 6.25935e-07 2.49389e-05
0.001627 2.58177e-05 1.27093e-06
2.58177e-05 0.000107241 8.41151e-07
1.27093e-06 8.41151e-07 1.96492e-05
0.0015908 2.13345e-05 5.03703e-07
2.13345e-05 0.000107673 4.07089e-08
5.03703e-07 4.07089e-08 1.97408e-05
0.00132773 1.72513e-05 -2.7105e-06
1.72513e-05 7.46822e-06 1.26096e-08
-2.7105e-06 1.26096e-08 -7.82646e-05
0.00149717 3.69627e-06 1.08123e-06
3.69627e-06 5.8771e-05 7.02153e-07
1.08123e-06 7.02153e-07 -2.86877e-05
0.00141031 -2.58539e-06 -3.9086e-07
-2.58539e-06 5.52258e-05 1.46274e-07
-3.9086e-07 1.46274e-07 -2.89402e-05
0.00117378 -6.45699e-06 -5.65155e-06
-6.45699e-06 6.25884e-06 9.64223e-07
-5.65155e-06 9.64223e-07 -6.6069e-05
0.00137677 -2.97863e-05 2.93805e-06
-2.97863e-05 5.35416e-05 -1.74908e-07
2.93805e-06 -1.74908e-07 -2.99011e-05
0.00116679 -2.73006e-05 1.19409e-07
-2.73006e-05 1.52806e-05 1.86668e-07
1.19409e-07 1.86668e-07 -5.67842e-05
0.000686766 -1.38966e-05 -8.56579e-06
-1.38966e-05 -9.74891e-05 3.04303e-06
-8.56579e-06 3.04303e-06 -0.000140348
0.0011274 -3.53195e-05 4.92532e-06
-3.53195e-05 1.6892e-05 -1.57349e-06
4.92532e-06 -1.57349e-06 -5.42012e-05
0.00135391 -1.97532e-05 1.16447e-05
-1.97532e-05 0.000254615 -3.73271e-07
1.16447e-05 -3.73271e-07 0.000214556
0.0039249 7.67028e-05 -4.91081e-05
7.67028e-05 0.00165574 2.05092e-06
-4.91081e-05 2.05092e-06 0.00164498
0.0020322 -1.62189e-05 2.80653e-05
-1.62189e-05 0.000609734 -4.05508e-06
2.80653e-05 -4.05508e-06 0.000572701
0.00130062 3.47808e-05 -2.01562e-05
3.47808e-05 0.000315542 1.53958e-06
-2.01562e-05 1.53958e-06 0.000292338
0.00125275 5.10151e-05 7.10887e-06
5.10151e-05 0.000292486 -1.88202e-06
7.10887e-06 -1.88202e-06 0.000268838
0.00167879 -2.01591e-06 -2.73545e-07
-2.01591e-06 9.88269e-05 -1.54094e-08
-2.73545e-07 -1.54094e-08 1.40564e-05
0.00141367 1.94997e-05 -1.42145e-06
1.94997e-05 -6.32614e-07 8.37141e-07
-1.42145e-06 8.37141e-07 -8.94138e-05
0.00164894 1.00316e-05 4.21938e-08
1.00316e-05 7.76838e-05 -6.81432e-09
4.21938e-08 -6.81432e-09 -9.34657e-06
0.00110809 4.97827e-05 -3.08822e-06
4.97827e-05 -8.93794e-05 -8.58209e-07
-3.08822e-06 -8.58209e-07 -0.000177201
0.00157457 5.29257e-05 4.51603e-08
5.29257e-05 9.66408e-05 -9.95658e-08
4.51603e-08 -9.95658e-08 4.18527e-06
0.00159316 4.83938e-05 7.13754e-07
4.83938e-05 6.28677e-05 -1.05959e-06
7.13754e-07 -1.05959e-06 -3.40747e-05
0.000676651 4.2599e-05 -5.66592e-06
4.2599e-05 -0.000194245 -1.97623e-06
-5.66592e-06 -1.97623e-06 -0.000268582
0.00146391 7.03642e-05 6.33663e-07
7.03642e-05 0.000139179 -4.43105e-09
6.33663e-07 -4.43105e-09 5.44832e-05
0.00168076 7.65474e-05 2.7444e-06
7.65474e-05 0.000203176 1.59744e-06
2.7444e-06 1.59744e-06 0.000114406
0.000783901 3.4611e-05 -8.14756e-06
3.4611e-05 -1.46091e-05 -4.00023e-06
-8.14756e-06 -4.00023e-06 -6.01768e-05
0.000798146 4.651e-05 -1.61393e-07
4.651e-05 -8.90795e-05 8.53264e-08
-1.61393e-07 8.53264e-08 -0.000161585
0.00087111 6.30842e-05 3.05004e-06
6.30842e-05 -0.000100241 1.57849e-06
3.05004e-06 1.57849e-06 -0.000185837
0.0033422 -6.18759e-05 -4.56184e-05
-6.18759e-05 0.00135721 -3.13151e-06
-4.56184e-05 -3.13151e-06 0.00135027
0.00072003 1.47448e-05 -1.07199e-07
1.47448e-05 -2.8959e-05 -3.35358e-08
-1.07199e-07 -3.35358e-08 -7.13181e-05
0.000927507 4.25372e-05 2.71172e-06
4.25372e-05 1.57714e-05 1.33073e-06
2.71172e-06 1.33073e-06 -5.26803e-05
0.000663152 -6.81862e-06 5.04983e-06
-6.81862e-06 -4.99171e-05 3.35008e-06
5.04983e-06 3.35008e-06 -8.77925e-05
0.00296127 -7.24781e-05 -8.52695e-07
-7.24781e-05 0.001149 1.61854e-07
-8.52695e-07 1.61854e-07 0.00114575
0.0028167 -6.74792e-05 2.93902e-05
-6.74792e-05 0.00105394 3.06654e-06
2.93902e-05 3.06654e-06 0.00105578
0.0016389 -1.19535e-05 -1.29815e-06
-1.19535e-05 8.53704e-05 -3.33117e-07
-1.29815e-06 -3.33117e-07 -2.68131e-06
0.00167661 -1.06689e-05 -4.18155e-07
-1.06689e-05 9.09479e-05 -2.16301e-07
-4.18155e-07 -2.16301e-07 4.3192e-06
0.00177687 -4.18739e-06 5.47623e-07
-4.18739e-06 0.000121695 -1.06326e-06
5.47623e-07 -1.06326e-06 3.48161e-05
0.00168917 1.22468e-05 -1.09295e-06
1.22468e-05 0.000129742 1.21324e-07
-1.09295e-06 1.21324e-07 3.59958e-05
0.00162832 2.03296e-06 -4.19799e-07
2.03296e-06 9.11053e-05 -3.45145e-07
-4.19799e-07 -3.45145e-07 -1.36457e-06
0.00171869 -2.79603e-07 -9.33979e-07
-2.79603e-07 0.000135207 -1.3348e-07
-9.33979e-07 -1.3348e-07 4.74232e-05
0.00153307 2.71225e-05 3.48702e-08
2.71225e-05 6.35443e-05 -1.06452e-06
3.48702e-08 -1.06452e-06 -2.81203e-05
0.00159655 2.25617e-05 3.93092e-07
2.25617e-05 0.00010922 5.16202e-08
3.93092e-07 5.16202e-08 1.86108e-05
0.00160307 1.67861e-05 -2.16762e-06
1.67861e-05 0.000138156 7.61858e-07
-2.16762e-06 7.61858e-07 5.21787e-05
0.00163324 2.21124e-05 1.97762e-06
2.21124e-05 0.000130238 5.52228e-07
1.97762e-06 5.52228e-07 4.26476e-05
0.00150528 1.97946e-05 3.32631e-08
1.97946e-05 9.93388e-05 6.23326e-08
3.32631e-08 6.23326e-08 1.4781e-05
0.00090807 1.17169e-05 -6.56188e-06
1.17169e-05 -0.000140315 1.05466e-06
-6.56188e-06 1.05466e-06 -0.000215928
0.00138847 -3.0108e-06 2.5605e-06
-3.0108e-06 4.45432e-05 1.71997e-07
2.5605e-06 1.71997e-07 -3.96228e-05
0.00117439 -4.52115e-06 -3.15499e-08
-4.52115e-06 6.0132e-06 1.68078e-08
-3.15499e-08 1.68078e-08 -6.62162e-05
0.00070691 -4.43025e-06 -8.74343e-06
-4.43025e-06 -9.52599e-05 2.33274e-06
-8.74343e-06 2.33274e-06 -0.000138137
0.00116545 -2.65011e-05 5.63345e-06
-2.65011e-05 1.38714e-05 -1.13715e-06
5.63345e-06 -1.13715e-06 -5.81739e-05
0.000697786 -1.13495e-05 -7.60313e-08
-1.13495e-05 -9.17976e-05 1.47911e-07
-7.60313e-08 1.47911e-07 -0.000134761
0.00398793 6.90876e-05 -5.15132e-05
6.90876e-05 0.00168271 1.43057e-06
-5.15132e-05 1.43057e-06 0.00167308
0.000782967 -2.69699e-05 1.08517e-05
-2.69699e-05 -4.02634e-05 -4.36695e-06
1.08517e-05 -4.36695e-06 -8.42051e-05
0.00270709 6.67856e-05 1.87163e-05
6.67856e-05 0.00103258 9.02539e-07
1.87163e-05 9.02539e-07 0.00101433
0.00131857 5.41264e-05 6.34294e-06
5.41264e-05 0.000330773 -1.90559e-06
6.34294e-06 -1.90559e-06 0.000305143
0.00178293 -1.09768e-05 -6.28051e-07
-1.09768e-05 0.000165624 1.92414e-08
-6.28051e-07 1.92414e-08 8.04544e-05
0.00153866 3.66821e-06 -9.86074e-07
3.66821e-06 6.00492e-05 1.38731e-07
-9.86074e-07 1.38731e-07 -2.51899e-05
0.00159855 -2.39262e-06 1.14674e-07
-2.39262e-06 5.98757e-05 1.83721e-07
1.14674e-07 1.83721e-07 -2.46387e-05
0.00137403 2.7978e-05 -2.63025e-06
2.7978e-05 2.77378e-05 7.14579e-08
-2.63025e-06 7.14579e-08 -5.70761e-05
0.00147267 1.94309e-05 3.96987e-07
1.94309e-05 2.80067e-05 -1.45575e-07
3.96987e-07 -1.45575e-07 -6.02264e-05
0.00169581 9.8395e-06 1.18727e-06
9.8395e-06 0.000104192 -7.72642e-07
1.18727e-06 -7.72642e-07 1.7302e-05
0.000784326 3.73377e-05 -6.30694e-06
3.73377e-05 -0.000179909 -1.92867e-06
-6.30694e-06 -1.92867e-06 -0.000255207
0.00147702 5.65365e-05 -9.30446e-07
5.65365e-05 9.81173e-05 -2.73787e-07
-9.30446e-07 -2.73787e-07 1.15912e-05
0.00163699 5.36839e-05 2.65096e-06
5.36839e-05 0.000129614 -3.56372e-07
2.65096e-06 -3.56372e-07 3.80476e-05
0.000748256 4.04066e-05 -9.30321e-06
4.04066e-05 -4.92699e-05 -3.91029e-06
-9.30321e-06 -3.91029e-06 -9.55128e-05
0.000746096 4.44012e-05 -1.47387e-06
4.44012e-05 -0.000163582 -5.78851e-07
-1.47387e-06 -5.78851e-07 -0.000238337
0.00146695 7.12744e-05 3.45928e-06
7.12744e-05 0.000140127 8.99992e-07
3.45928e-06 8.99992e-07 5.53082e-05
0.00372509 -6.28911e-05 -5.04765e-05
-6.28911e-05 0.00155594 -3.06668e-06
-5.04765e-05 -3.06668e-06 0.00154625
0.000711717 3.04172e-05 -1.38015e-07
3.04172e-05 -4.6557e-05 1.53403e-07
-1.38015e-07 1.53403e-07 -9.22243e-05
0.000630588 4.22676e-05 3.57984e-06
4.22676e-05 -0.000176127 1.80629e-06
3.57984e-06 1.80629e-06 -0.000249526
0.0032163 -7.43319e-05 -1.97908e-06
-7.43319e-05 0.00129296 1.58185e-07
-1.97908e-06 1.58185e-07 0.00128592
0.000641285 1.1311e-05 5.69266e-06
1.1311e-05 -6.34046e-05 3.72604e-06
5.69266e-06 3.72604e-06 -0.000105955
0.00289399 -7.25005e-05 3.07034e-05
-7.25005e-05 0.00111181 2.93827e-06
3.07034e-05 2.93827e-06 0.00110938
0.00167387 1.40017e-06 -1.04571e-06
1.40017e-06 0.000119945 -4.38462e-07
-1.04571e-06 -4.38462e-07 3.00854e-05
0.00165661 -1.0966e-05 2.20259e-07
-1.0966e-05 9.50329e-05 3.62253e-07
2.20259e-07 3.62253e-07 6.9825e-06
0.00166196 -1.04759e-05 2.53327e-07
-1.04759e-05 8.33644e-05 -2.71443e-07
2.53327e-07 -2.71443e-07 -3.05778e-06
0.00164377 8.51392e-07 -2.77375e-06
8.51392e-07 0.000135474 1.62869e-07
-2.77375e-06 1.62869e-07 4.66281e-05
0.00167749 1.19828e-05 4.0814e-07
1.19828e-05 0.000126517 -3.41272e-08
4.0814e-07 -3.41272e-08 3.29369e-05
0.00161603 8.23112e-06 8.56785e-07
8.23112e-06 8.43087e-05 -4.31674e-07
8.56785e-07 -4.31674e-07 -8.82235e-06
0.00159121 2.3474e-05 1.41327e-06
2.3474e-05 0.000105995 -6.68061e-07
1.41327e-06 -6.68061e-07 1.54759e-05
0.00159908 1.71509e-05 6.57526e-07
1.71509e-05 0.000135969 -6.74396e-08
6.57526e-07 -6.74396e-08 5.01083e-05
0.00093996 9.47003e-06 -6.43128e-06
9.47003e-06 -0.000140396 1.21261e-06
-6.43128e-06 1.21261e-06 -0.000218381
0.00169207 2.2346e-05 3.11023e-06
2.2346e-05 0.000195791 -5.10802e-08
3.11023e-06 -5.10802e-08 0.000112412
0.00104427 1.3828e-05 -1.15125e-06
1.3828e-05 -6.9254e-05 2.64215e-07
-1.15125e-06 2.64215e-07 -0.00014372
0.000724081 2.02898e-06 -9.19389e-06
2.02898e-06 -9.40649e-05 1.90637e-06
-9.19389e-06 1.90637e-06 -0.000138937
0.0011772 -4.63069e-06 5.54347e-06
-4.63069e-06 6.73378e-06 -1.01136e-06
5.54347e-06 -1.01136e-06 -6.54155e-05
0.000710296 2.95478e-06 2.07669e-07
2.95478e-06 -9.32291e-05 1.50966e-09
2.07669e-07 1.50966e-09 -0.000136409
0.00409353 6.7269e-05 -5.49169e-05
6.7269e-05 0.00173182 8.32223e-07
-5.49169e-05 8.32223e-07 0.00172271
0.000702915 -7.03647e-06 8.50533e-06
-7.03647e-06 -8.92601e-05 -2.77074e-06
8.50533e-06 -2.77074e-06 -0.000132094
0.00404463 7.40359e-05 -6.07279e-07
7.40359e-05 0.0017112 1.4617e-07
-6.07279e-07 1.4617e-07 0.00170117
0.00154092 1.54207e-05 4.85193e-05
1.54207e-05 0.000430793 -2.51621e-06
4.85193e-05 -2.51621e-06 0.000409121
0.00173482 -5.25285e-06 -9.31363e-07
-5.25285e-06 0.000161652 -2.54436e-07
-9.31363e-07 -2.54436e-07 7.62892e-05
0.00165757 -1.1185e-05 4.68324e-07
-1.1185e-05 0.000103224 3.13524e-07
4.68324e-07 3.13524e-07 1.84781e-05
0.00141369 4.02643e-06 -2.40175e-06
4.02643e-06 3.72876e-05 -3.05909e-07
-2.40175e-06 -3.05909e-07 -4.63855e-05
0.00155944 3.11949e-06 2.93991e-07
3.11949e-06 6.9696e-05 -1.45894e-07
2.93991e-07 -1.45894e-07 -1.55698e-05
0.00151669 -2.75586e-06 1.69344e-06
-2.75586e-06 2.00591e-05 -8.48761e-09
1.69344e-06 -8.48761e-09 -6.41887e-05
0.00118161 2.48858e-05 -5.71476e-06
2.48858e-05 2.49224e-06 -1.27e-06
-5.71476e-06 -1.27e-06 -7.08288e-05
0.00141656 2.83946e-05 -4.4402e-08
2.83946e-05 4.69495e-05 1.44493e-07
-4.4402e-08 1.44493e-07 -3.78107e-05
0.00151562 1.92012e-05 1.45616e-06
1.92012e-05 4.90764e-05 -5.61269e-07
1.45616e-06 -5.61269e-07 -3.86578e-05
0.000727718 3.50332e-05 -9.89626e-06
3.50332e-05 -7.65438e-05 -3.56394e-06
-9.89626e-06 -3.56394e-06 -0.000121503
0.000988184 4.11637e-05 -1.77343e-06
4.11637e-05 -7.64945e-05 -4.45796e-07
-1.77343e-06 -4.45796e-07 -0.000151204
0.00183511 6.30122e-05 2.57173e-06
6.30122e-05 0.000280253 2.48643e-07
2.57173e-06 2.48643e-07 0.000195036
0.0040415 -6.8057e-05 -5.31983e-05
-6.8057e-05 0.00171444 -2.74928e-06
-5.31983e-05 -2.74928e-06 0.0017034
0.000708063 3.72771e-05 8.57529e-08
3.72771e-05 -6.75108e-05 1.57857e-07
8.57529e-08 1.57857e-07 -0.000113734
0.000799184 4.59922e-05 3.46083e-06
4.59922e-05 -0.000140862 1.12209e-06
3.46083e-06 1.12209e-06 -0.000216046
0.00357111 -7.05749e-05 -1.78598e-06
-7.05749e-05 0.00147882 2.19418e-07
-1.78598e-06 2.19418e-07 0.00146926
0.000646101 2.60128e-05 6.80105e-06
2.60128e-05 -7.56935e-05 4.19819e-06
6.80105e-06 4.19819e-06 -0.000121434
0.00308504 -7.87794e-05 3.28846e-05
-7.87794e-05 0.00122551 2.82543e-06
3.28846e-05 2.82543e-06 0.00121877
0.00165038 6.20675e-06 -2.13561e-06
6.20675e-06 0.000142578 -6.56475e-07
-2.13561e-06 -6.56475e-07 5.64397e-05
0.00167802 -1.00757e-06 2.68245e-07
-1.00757e-06 0.00012414 2.28557e-07
2.68245e-07 2.28557e-07 3.44934e-05
0.00167545 -1.04583e-05 1.8034e-06
-1.04583e-05 0.00010522 1.01988e-06
1.8034e-06 1.01988e-06 1.71724e-05
0.00095895 -1.10599e-05 -7.0502e-06
-1.10599e-05 -0.000145481 4.06021e-07
-7.0502e-06 4.06021e-07 -0.000225365
0.00166124 7.70464e-06 6.85423e-07
7.70464e-06 0.000145161 1.20293e-07
6.85423e-07 1.20293e-07 5.61398e-05
0.00166121 1.19963e-05 1.9463e-06
1.19963e-05 0.000120978 -4.82943e-07
1.9463e-06 -4.82943e-07 2.75767e-05
0.00159673 1.7196e-05 3.33864e-06
1.7196e-05 0.000134626 -5.14532e-07
3.33864e-06 -5.14532e-07 4.8877e-05
0.000930815 9.22027e-06 -8.69294e-07
9.22027e-06 -0.000142935 2.41584e-07
-8.69294e-07 2.41584e-07 -0.00022051
0.000732892 8.23583e-06 -9.62824e-06
8.23583e-06 -0.00010104 1.30069e-06
-9.62824e-06 1.30069e-06 -0.000148047
0.00117319 1.67619e-05 4.44116e-06
1.67619e-05 -1.91066e-06 -7.68188e-07
4.44116e-06 -7.68188e-07 -7.52313e-05
0.000732293 1.13058e-05 2.85881e-07
1.13058e-05 -9.01298e-05 1.11391e-08
2.85881e-07 1.11391e-08 -0.000135178
0.00421609 6.52478e-05 -5.82182e-05
6.52478e-05 0.00178931 2.54707e-07
-5.82182e-05 2.54707e-07 0.0017805
0.00071465 1.14351e-05 8.64065e-06
1.14351e-05 -9.09219e-05 -2.21158e-06
8.64065e-06 -2.21158e-06 -0.000134193
0.00414632 6.97623e-05 2.25603e-07
6.97623e-05 0.00175759 1.62071e-07
2.25603e-07 1.62071e-07 0.00174839
0.00412534 7.60463e-05 5.51065e-05
7.60463e-05 0.00175088 -1.09952e-06
5.51065e-05 -1.09952e-06 0.00174083
0.00148709 -2.68172e-06 -2.58934e-06
-2.68172e-06 6.92306e-05 -7.4739e-07
-2.58934e-06 -7.4739e-07 -1.54503e-05
0.00163183 -6.4058e-06 2.78565e-07
-6.4058e-06 0.000108275 1.09596e-07
2.78565e-07 1.09596e-07 2.29365e-05
0.00153718 -1.12842e-05 1.06e-06
-1.12842e-05 4.33094e-05 6.32533e-07
1.06e-06 6.32533e-07 -4.1016e-05
0.00119399 2.324e-06 -5.66923e-06
2.324e-06 -2.7831e-06 -1.3221e-06
-5.66923e-06 -1.3221e-06 -7.61438e-05
0.00144116 3.87691e-06 1.38087e-07
3.87691e-06 5.02645e-05 -8.63114e-08
1.38087e-07 -8.63114e-08 -3.3446e-05
0.00158 2.55522e-06 1.09637e-06
2.55522e-06 7.91788e-05 -4.43182e-07
1.09637e-06 -4.43182e-07 -6.10674e-06
0.000722474 2.09301e-05 -9.85514e-06
2.09301e-05 -9.12047e-05 -3.0957e-06
-9.85514e-06 -3.0957e-06 -0.000135333
0.0011939 2.49868e-05 -1.0182e-07
2.49868e-05 8.7326e-06 1.64811e-07
-1.0182e-07 1.64811e-07 -6.46782e-05
0.00146378 2.88323e-05 2.89496e-06
2.88323e-05 6.84515e-05 2.76651e-07
2.89496e-06 2.76651e-07 -1.62573e-05
0.0041946 -6.18184e-05 -5.6916e-05
-6.18184e-05 0.00178517 -2.19294e-06
-5.6916e-05 -2.19294e-06 0.00177524
0.000708593 3.38601e-05 4.60601e-08
3.38601e-05 -8.46493e-05 1.36895e-07
4.60601e-08 1.36895e-07 -0.00012973
0.00120381 4.53871e-05 4.05874e-06
4.53871e-05 3.29549e-05 1.20303e-06
4.05874e-06 1.20303e-06 -4.12215e-05
0.00387508 -6.47924e-05 -3.57565e-07
-6.47924e-05 0.0016311 1.86758e-07
-3.57565e-07 1.86758e-07 0.00162077
0.000663224 3.48616e-05 8.26109e-06
3.48616e-05 -8.81936e-05 4.04749e-06
8.26109e-06 4.04749e-06 -0.000134347
0.00339795 -8.01664e-05 3.91747e-05
-8.01664e-05 0.00139273 2.78645e-06
3.91747e-05 2.78645e-06 0.00138301
0.00125554 -8.14825e-07 -6.039e-06
-8.14825e-07 8.31019e-06 -6.24662e-07
-6.039e-06 -6.24662e-07 -6.8577e-05
0.00151794 1.14315e-06 7.50211e-07
1.14315e-06 7.38017e-05 -1.11829e-07
7.50211e-07 -1.11829e-07 -1.36965e-05
0.00167965 -4.51804e-06 1.81144e-06
-4.51804e-06 0.000127006 1.13743e-06
1.81144e-06 1.13743e-06 3.75681e-05
0.000744253 1.05546e-05 -1.01582e-05
1.05546e-05 -0.000104594 2.21761e-07
-1.01582e-05 2.21761e-07 -0.000152475
0.000957423 -3.55687e-06 -1.07228e-06
-3.55687e-06 -0.000145518 3.23412e-07
-1.07228e-06 3.23412e-07 -0.000225141
0.00167973 1.41448e-05 4.04248e-06
1.41448e-05 0.000155391 -4.64864e-07
4.04248e-06 -4.64864e-07 6.61874e-05
0.000921549 9.34233e-06 4.3656e-06
9.34233e-06 -0.000145628 -5.33915e-07
4.3656e-06 -5.33915e-07 -0.000222777
0.000744417 1.09093e-05 2.28254e-07
1.09093e-05 -9.54878e-05 1.98789e-07
2.28254e-07 1.98789e-07 -0.000142691
0.00440485 6.45141e-05 -6.11921e-05
6.45141e-05 0.00187863 -3.09769e-07
-6.11921e-05 -3.09769e-07 0.00186981
0.000740399 1.89799e-05 9.09417e-06
1.89799e-05 -8.6016e-05 -1.75036e-06
9.09417e-06 -1.75036e-06 -0.000131387
0.00428238 6.693e-05 6.75063e-07
6.693e-05 0.00182114 2.01279e-07
6.75063e-07 2.01279e-07 0.00181227
0.00419335 7.23716e-05 5.9452e-05
7.23716e-05 0.00178041 -4.95066e-07
5.9452e-05 -4.95066e-07 0.00177115
0.00122881 -4.12443e-06 -5.95972e-06
-4.12443e-06 4.66309e-06 -1.36415e-06
-5.95972e-06 -1.36415e-06 -7.02438e-05
0.00142467 -4.11789e-06 -5.50387e-08
-4.11789e-06 3.59111e-05 -1.02971e-07
-5.50387e-08 -1.02971e-07 -4.91359e-05
0.00152816 -7.60739e-06 1.23049e-06
-7.60739e-06 5.46373e-05 3.74656e-07
1.23049e-06 3.74656e-07 -3.06881e-05
0.00219186 -3.34729e-06 -3.4245e-05
-3.34729e-06 0.000650246 -1.86415e-06
-3.4245e-05 -1.86415e-06 0.000613566
0.0012109 2.34483e-06 1.30212e-07
2.34483e-06 5.74977e-06 5.17211e-08
1.30212e-07 5.17211e-08 -6.77761e-05
0.00147299 3.54855e-06 2.74603e-06
3.54855e-06 6.53837e-05 1.8499e-07
2.74603e-06 1.8499e-07 -1.83664e-05
0.00429687 -5.02777e-05 -6.21414e-05
-5.02777e-05 0.00182886 -1.52923e-06
-6.21414e-05 -1.52923e-06 0.0018206
0.00071858 2.14683e-05 -6.20803e-08
2.14683e-05 -9.31581e-05 1.05797e-07
-6.20803e-08 1.05797e-07 -0.000137302
0.00120886 2.47093e-05 5.88408e-06
2.47093e-05 1.63203e-05 1.57123e-06
5.88408e-06 1.57123e-06 -5.72127e-05
0.00410308 -5.85313e-05 1.87309e-06
-5.85313e-05 0.00174038 1.40423e-07
1.87309e-06 1.40423e-07 0.0017305
0.000681713 3.20389e-05 9.05928e-06
3.20389e-05 -9.65978e-05 3.68168e-06
9.05928e-06 3.68168e-06 -0.000141801
0.00374709 -7.78536e-05 4.52451e-05
-7.78536e-05 0.00156911 2.77168e-06
4.52451e-05 2.77168e-06 0.00155794
0.000781091 5.09435e-06 -1.29443e-05
5.09435e-06 -8.75431e-05 -1.27317e-06
-1.29443e-05 -1.27317e-06 -0.000136113
0.00110406 -3.60299e-06 1.7341e-07
-3.60299e-06 -6.94235e-05 2.8141e-07
1.7341e-07 2.8141e-07 -0.000147176
0.00137756 -3.79181e-06 3.6532e-06
-3.79181e-06 9.02555e-07 6.26371e-07
3.6532e-06 6.26371e-07 -8.78923e-05
0.00456841 -2.08142e-05 -6.14393e-05
-2.08142e-05 0.00195801 -9.55635e-07
-6.14393e-05 -9.55635e-07 0.00194814
0.000756649 7.51883e-06 8.4722e-08
7.51883e-06 -9.83936e-05 2.27091e-07
8.4722e-08 2.27091e-07 -0.000146627
0.000954408 3.55253e-06 4.72904e-06
3.55253e-06 -0.000146262 -4.06571e-08
4.72904e-06 -4.06571e-08 -0.000225639
0.000755435 1.7794e-05 9.72961e-06
1.7794e-05 -8.98456e-05 -8.44422e-07
9.72961e-06 -8.44422e-07 -0.000137467
0.00446905 7.03979e-05 2.44257e-06
7.03979e-05 0.00190992 3.14509e-07
2.44257e-06 3.14509e-07 0.00190082
0.00434827 7.10472e-05 6.49165e-05
7.10472e-05 0.0018529 7.70287e-08
6.49165e-05 7.70287e-08 0.00184384
0.00227241 -1.95947e-05 -3.84351e-05
-1.95947e-05 0.00068136 -1.78142e-06
-3.84351e-05 -1.78142e-06 0.000642626
0.00123436 -2.70407e-06 -3.82053e-08
-2.70407e-06 7.18124e-06 1.44286e-08
-3.82053e-08 1.44286e-08 -6.76769e-05
0.00136135 -5.39186e-06 2.56219e-06
-5.39186e-06 2.08865e-06 5.58592e-07
2.56219e-06 5.58592e-07 -8.33126e-05
0.00421872 -5.95525e-05 -1.71787e-05
-5.95525e-05 0.00179038 -5.67987e-07
-1.71787e-05 -5.67987e-07 0.00178024
0.000744436 5.429e-06 -1.10685e-07
5.429e-06 -8.87145e-05 6.11402e-08
-1.10685e-07 6.11402e-08 -0.00013343
0.00123048 3.53884e-06 5.85426e-06
3.53884e-06 1.53931e-05 1.35639e-06
5.85426e-06 1.35639e-06 -5.82334e-05
0.00422485 -4.73692e-05 4.84176e-07
-4.73692e-05 0.00179418 2.04898e-07
4.84176e-07 2.04898e-07 0.00178587
0.000711804 2.29192e-05 9.82193e-06
2.29192e-05 -9.64991e-05 3.2725e-06
9.82193e-06 3.2725e-06 -0.000140624
0.00398412 -5.17989e-05 5.34021e-05
-5.17989e-05 0.00168128 2.36479e-06
5.34021e-05 2.36479e-06 0.00167212
0.00162297 -8.83237e-06 -6.42183e-05
-8.83237e-06 0.000444172 -2.19764e-07
-6.42183e-05 -2.19764e-07 0.000421295
0.00154473 -8.4734e-08 -1.48754e-05
-8.4734e-08 0.000304023 4.16425e-07
-1.48754e-05 4.16425e-07 0.000260435
0.00096438 -2.68913e-06 6.00224e-06
-2.68913e-06 -0.000141227 1.05241e-06
6.00224e-06 1.05241e-06 -0.000219826
0.00458156 -6.21055e-06 2.73865e-06
-6.21055e-06 0.00196382 -5.2205e-07
2.73865e-06 -5.2205e-07 0.00195434
0.000760158 5.96806e-06 1.03722e-05
5.96806e-06 -9.67356e-05 2.31378e-07
1.03722e-05 2.31378e-07 -0.00014505
0.00452863 6.4682e-05 6.76678e-05
6.4682e-05 0.00193808 7.00973e-07
6.76678e-05 7.00973e-07 0.00192929
0.00143269 -2.27181e-05 -9.7442e-06
-2.27181e-05 0.000356862 -9.05551e-07
-9.7442e-06 -9.05551e-07 0.000332455
0.00153323 -1.71442e-06 -1.40899e-05
-1.71442e-06 0.000305225 1.83895e-07
-1.40899e-05 1.83895e-07 0.000262842
0.00123836 -3.72718e-06 5.695e-06
-3.72718e-06 9.02155e-06 1.34374e-06
5.695e-06 1.34374e-06 -6.58453e-05
0.00285667 -3.48036e-05 2.61651e-05
-3.48036e-05 0.00108952 8.31423e-08
2.61651e-05 8.31423e-08 0.00107368
0.000746437 1.13943e-05 1.02025e-05
1.13943e-05 -8.8475e-05 2.8016e-06
1.02025e-05 2.8016e-06 -0.000133194
0.0041716 -4.20196e-05 5.86945e-05
-4.20196e-05 0.00176829 1.88677e-06
5.86945e-05 1.88677e-06 0.00176017
0.00459749 -6.36083e-05 -2.28537e-06
-6.36083e-05 0.00196993 3.24603e-07
-2.28537e-06 3.24603e-07 0.00196106
0.000764155 4.60524e-06 1.04764e-05
4.60524e-06 -9.46508e-05 1.44585e-06
1.04764e-05 1.44585e-06 -0.000142572
0.00460347 2.09966e-05 6.66157e-05
2.09966e-05 0.00197332 -6.88045e-07
6.66157e-05 -6.88045e-07 0.00196422
0.00297169 -3.79285e-05 2.68642e-05
-3.79285e-05 0.00114198 -4.91006e-08
2.68642e-05 -4.91006e-08 0.00112539
0.000770308 4.67062e-06 1.02374e-05
4.67062e-06 -8.42215e-05 2.26365e-06
1.02374e-05 2.26365e-06 -0.000130816
0.00429565 -4.23407e-05 6.14156e-05
-4.23407e-05 0.00182531 1.32172e-06
6.14156e-05 1.32172e-06 0.00181755
0.00455002 -8.37336e-05 6.2349e-05
-8.37336e-05 0.00194922 -3.80913e-08
6.2349e-05 -3.80913e-08 0.00193871
0.00443512 -4.61915e-05 6.32409e-05
-4.61915e-05 0.00189117 6.68137e-07
6.32409e-05 6.68137e-07 0.00188324
