# vtk DataFile Version 2.0
Wound Healing Simulation
ASCII
DATASET UNSTRUCTURED_GRID
POINTS 3012 float
69.9759 18.75 4
67.2507 60.3285 4
69.976 18.75 2
73.0099 25.446 4
71.1327 20.9142 4
68.6801 16.6661 4
67.8269 19.9258 3.98554
67.2507 60.3286 2
71.1327 54.0858 4
68.6801 58.3339 4
65.6939 62.2254 4
65.3136 59.0027 3.98661
74.6784 42.3946 4
73.7221 47.2057 4
69.9759 18.75 0
73.0099 25.446 2
68.6801 16.6661 2
71.1327 20.9142 2
67.8274 19.9281 2
74.6792 32.6053 4
73.7222 27.7943 4
72.1454 23.1494 4
70.6152 26.2217 3.98501
68.887 21.9586 3.98538
67.2507 14.6715 4
66.6386 17.9707 3.98612
65.8005 21.0239 3.97851
67.2507 60.3285 0
71.1327 54.0858 2
68.6801 58.3339 2
65.694 62.2255 2
65.3146 59.0011 2
72.1454 51.8506 4
69.9759 56.25 4
68.8374 53.1128 3.9845
64.0165 64.0165 4
66.6121 57.1348 3.98619
63.8871 60.7676 3.98828
63.5035 57.7754 3.98085
60.3285 67.2507 4
74.6792 42.3947 2
73.7222 47.2057 2
74.9194 39.9526 4
74.2788 44.8158 4
72.1687 42.0857 3.98311
73.0099 49.554 4
71.2502 46.5981 3.98416
73.0099 25.446 0
71.1327 20.9142 0
68.6801 16.6661 0
67.8269 19.9258 0.0144596
74.6792 32.6053 2
73.7222 27.7943 2
67.2508 14.6715 2
72.1455 23.1494 2
70.6152 26.2222 2
66.6394 17.9727 2
68.8873 21.9605 2
65.8002 21.0238 2
74.9197 35.0474 4
74.2794 30.1841 4
72.1854 32.9433 3.98348
71.2792 28.4317 3.98467
69.8167 24.0605 3.98515
68.3493 26.9514 3.97611
66.7653 22.9329 3.97714
65.694 12.7746 4
65.3252 16.1016 3.98739
64.7175 19.1919 3.98011
63.891 22.0332 3.97451
71.1327 54.0858 0
65.6939 62.2254 0
68.6801 58.3339 0
65.3136 59.0027 0.013394
72.1455 51.8506 2
69.9759 56.25 2
68.8377 53.1106 2
64.0165 64.0165 2
66.613 57.1325 2
63.888 60.7667 2
63.5037 57.7763 2
62.2254 65.694 4
58.8951 65.4151 3.99249
69.7698 50.9885 3.9843
67.7849 55.1677 3.9852
66.6516 52.2099 3.97606
62.3373 62.4288 3.99021
64.6643 56.0344 3.98028
62.2054 59.4089 3.98197
61.8272 56.6866 3.97744
58.3339 68.6801 4
60.3285 67.2508 2
73.7221 47.2057 0
74.6784 42.3946 0
74.9197 39.9526 2
74.2794 44.8159 2
72.1685 42.0856 2
73.0099 49.554 2
71.2502 46.5977 2
75 37.5 4
72.4058 39.8023 3.98287
71.7833 44.3531 3.98372
69.8054 41.7901 3.9741
70.576 48.8133 3.98421
68.9145 46.0156 3.97524
74.6792 32.6053 0
73.7222 27.7943 0
67.2507 14.6715 0
72.1454 23.1494 0
70.6152 26.2217 0.0149861
68.887 21.9586 0.0146171
66.6386 17.9707 0.0138766
65.8005 21.0239 0.0214938
74.9197 35.0474 2
74.2794 30.1841 2
72.1851 32.9434 2
71.2792 28.4318 2
65.694 12.7745 2
65.3261 16.1027 2
69.8168 24.0618 2
68.3492 26.9516 2
64.7176 19.1912 2
66.765 22.9331 2
63.8909 22.0327 2
72.4136 35.2242 3.98289
71.8046 30.6764 3.98392
69.8415 33.2682 3.97468
68.9686 29.0379 3.97594
67.6136 24.9121 3.97625
66.1974 27.6338 3.97278
64.0165 10.9835 4
64.7596 23.8291 3.97337
63.8914 14.3253 3.9888
63.5169 17.4422 3.98209
62.9117 20.3164 3.97586
62.0963 22.9408 3.97225
60.6848 11.0962 3.99096
57.6132 11.4428 3.98534
72.1454 51.8506 0
69.9759 56.25 0
68.8374 53.1128 0.0155021
64.0165 64.0165 0
63.8871 60.7676 0.0117234
66.6121 57.1348 0.0138101
63.5035 57.7754 0.0191509
62.2255 65.694 2
58.8956 65.4151 2
69.77 50.987 2
67.7855 55.1652 2
66.6514 52.2096 2
62.338 62.4284 2
64.6644 56.035 2
62.2056 59.4099 2
61.8274 56.6876 2
60.6697 63.9781 3.99151
57.0258 66.736 3.9931
57.5591 63.6953 3.9868
67.5093 50.1772 3.97516
65.7048 54.1747 3.9778
64.5396 51.3869 3.97186
60.7749 60.9424 3.98349
62.8246 55.0722 3.97705
60.6617 58.1657 3.97804
60.3322 55.7917 3.97651
56.25 69.9759 4
58.3339 68.6801 2
60.3285 67.2507 0
58.922 9.65457 3.99176
62.2254 9.30607 4
73.0099 49.554 0
74.2788 44.8158 0
71.2502 46.5981 0.0158409
72.1687 42.0857 0.016893
74.9194 39.9526 0
75 37.5 2
72.4057 39.8024 2
71.7832 44.3527 2
69.8052 41.79 2
70.5761 48.8125 2
68.9145 46.0153 2
72.4891 37.5121 3.98268
70.0421 39.6576 3.97348
69.4323 43.9082 3.97481
67.5988 41.4984 3.97063
68.2679 48.1078 3.97505
66.7125 45.4416 3.9718
74.9197 35.0474 0
74.2794 30.1841 0
72.1854 32.9433 0.0165186
71.2792 28.4317 0.0153253
65.694 12.7746 0
65.3252 16.1016 0.0126094
69.8167 24.0605 0.0148481
68.3493 26.9514 0.023889
66.7653 22.9329 0.022859
64.7175 19.1919 0.0198922
63.891 22.0332 0.0254913
72.4135 35.2241 2
71.8046 30.6765 2
69.8413 33.2684 2
68.9686 29.038 2
64.0165 10.9835 2
63.8921 14.326 2
63.5171 17.4413 2
67.6134 24.9123 2
66.1973 27.6337 2
62.9119 20.3156 2
64.7594 23.8288 2
62.0963 22.9404 2
60.6854 11.0966 2
57.6134 11.442 2
70.0588 35.3919 3.97369
69.4688 31.1493 3.97497
67.6572 33.5904 3.97128
66.7751 29.6217 3.97216
65.5265 25.6987 3.97277
64.1492 28.2541 3.97194
62.3426 12.6534 3.98991
62.8592 24.636 3.97152
62.2017 15.7796 3.98328
61.8185 18.6788 3.97808
61.222 21.3376 3.97321
60.4279 23.7251 3.97177
59.2474 12.7742 3.98376
55.8751 10.2295 3.98684
56.4062 13.107 3.98208
69.7698 50.9885 0.0157049
62.2254 65.694 0
58.8951 65.4151 0.00751425
67.7849 55.1677 0.0147993
66.6516 52.2099 0.0239355
62.3373 62.4288 0.00978605
62.2054 59.4089 0.0180272
64.6643 56.0344 0.0197234
61.8272 56.6866 0.0225592
60.6703 63.9779 2
57.0262 66.736 2
57.5591 63.6964 2
67.5092 50.1768 2
65.7047 54.1749 2
64.5394 51.387 2
60.7751 60.9435 2
62.8248 55.0731 2
60.662 58.1668 2
60.3325 55.7925 2
55.0713 67.9329 3.99335
59.2206 62.3702 3.98456
55.8058 64.9131 3.98878
56.3282 62.0957 3.98313
65.3335 49.4097 3.97125
63.7089 53.2948 3.97352
62.4425 50.6542 3.96984
59.3357 59.5633 3.98073
61.0811 54.314 3.97591
59.2925 57.0188 3.97509
59.2461 55.1884 3.97772
48.1037 68.5808 3.98986
50.9488 69.9326 3.99369
54.0858 71.1327 4
56.25 69.976 2
58.3339 68.6801 0
57.0592 8.33465 3.99206
60.3285 7.74928 4
58.9225 9.65478 2
62.2255 9.30602 2
70.576 48.8133 0.0157877
71.7833 44.3531 0.0162772
68.9145 46.0156 0.0247612
69.8054 41.7901 0.0258987
72.4058 39.8023 0.0171339
75 37.5 0
72.489 37.5121 2
70.042 39.6575 2
69.4322 43.908 2
67.5986 41.4984 2
68.2678 48.1074 2
66.7124 45.4416 2
70.1301 37.5216 3.97357
67.8353 39.5128 3.97007
67.2259 43.4713 3.97113
65.5574 41.2109 3.97016
66.0709 47.4196 3.9717
64.6551 44.8505 3.97057
72.4136 35.2242 0.0171144
71.8046 30.6764 0.0160754
69.8415 33.2682 0.0253165
68.9686 29.0379 0.0240593
64.0165 10.9835 0
63.8914 14.3253 0.0112036
63.5169 17.4422 0.0179053
67.6136 24.9121 0.0237488
66.1974 27.6338 0.0272181
64.7596 23.8291 0.0266341
62.9117 20.3164 0.0241368
62.0963 22.9408 0.0277547
60.6848 11.0962 0.00904322
57.6132 11.4428 0.0146642
70.0587 35.392 2
69.4689 31.1494 2
67.6571 33.5904 2
66.7752 29.6216 2
62.3432 12.6539 2
62.2017 15.7788 2
61.8188 18.6777 2
65.5263 25.6986 2
64.1491 28.254 2
61.2222 21.3369 2
62.8591 24.6358 2
60.4279 23.7248 2
59.2474 12.7737 2
56.4062 13.106 2
55.8752 10.2287 2
67.8714 35.5474 3.97029
67.2672 31.6218 3.97122
65.6995 33.9267 3.97052
64.6657 30.1907 3.97074
63.5402 26.4132 3.9717
62.2602 28.7761 3.97204
60.7769 14.2188 3.98347
61.046 25.3361 3.97109
60.6163 17.1212 3.98045
60.2269 19.8106 3.97529
59.6641 22.2549 3.97145
58.9788 24.3177 3.97283
54.0381 9.13269 3.98758
57.9116 14.3258 3.98181
54.7874 12.0062 3.98347
55.3134 14.6389 3.9806
67.5093 50.1772 0.0248366
57.0258 66.736 0.00690398
60.6697 63.9781 0.00848918
57.5591 63.6953 0.013203
65.7048 54.1747 0.0221957
64.5396 51.3869 0.0281412
60.7749 60.9424 0.0165132
60.6617 58.1657 0.0219584
62.8246 55.0722 0.0229508
60.3322 55.7917 0.0234938
55.0715 67.933 2
59.2207 62.3713 2
55.8057 64.914 2
56.3282 62.0969 2
65.3333 49.4096 2
63.709 53.2953 2
62.4423 50.6543 2
59.3359 59.5647 2
61.0815 54.3148 2
59.2929 57.0196 2
59.2466 55.1889 2
53.0431 69.0008 3.99358
53.9681 66.0153 3.98941
57.8823 60.8759 3.98195
54.685 63.2127 3.98508
55.2127 60.6231 3.98135
63.195 48.6633 3.96982
61.743 52.5781 3.97123
60.2722 50.0222 3.96877
58.0206 58.2676 3.9774
59.3303 53.9516 3.97541
58.1293 55.8168 3.97319
50.1104 67.8588 3.98981
47.4643 66.5848 3.98749
46.0573 69.1602 3.98994
48.1037 68.5813 2
48.803 70.7238 3.99377
50.9491 69.9327 2
51.8506 72.1454 4
54.0858 71.1327 2
56.25 69.9759 0
55.1035 7.13917 3.99236
58.3339 6.31992 4
57.0596 8.33463 2
60.3286 7.74926 2
58.922 9.65457 0.00823815
62.2254 9.30607 0
68.2679 48.1078 0.0249472
69.4323 43.9082 0.025188
66.7125 45.4416 0.028204
67.5988 41.4984 0.0293744
70.0421 39.6576 0.0265247
72.4891 37.5121 0.0173205
70.13 37.5216 2
67.8353 39.5128 2
67.2258 43.4713 2
65.5572 41.2109 2
66.0708 47.4195 2
64.655 44.8505 2
67.9316 37.5221 3.97011
65.7884 39.3709 3.96981
65.1782 43.0269 3.97027
63.7535 40.9309 3.9711
63.9675 46.719 3.97046
62.8102 44.2189 3.97177
70.0588 35.3919 0.0263081
69.4688 31.1493 0.0250295
67.6572 33.5904 0.0287161
66.7751 29.6217 0.0278416
62.3426 12.6534 0.0100934
62.2017 15.7796 0.0167179
61.8185 18.6788 0.0219179
65.5265 25.6987 0.0272296
64.1492 28.2541 0.02806
62.8592 24.636 0.0284827
61.222 21.3376 0.0267853
60.4279 23.7251 0.0282333
59.2474 12.7742 0.0162416
56.4062 13.107 0.0179222
55.8751 10.2295 0.0131633
67.8713 35.5473 2
67.2673 31.6217 2
65.6994 33.9266 2
64.6658 30.1905 2
60.777 14.2182 2
60.6164 17.1201 2
60.2274 19.8096 2
63.5401 26.4131 2
62.2601 28.776 2
59.6644 22.2543 2
61.046 25.336 2
58.9789 24.3177 2
57.9114 14.325 2
55.3132 14.6379 2
54.0382 9.13201 2
54.7875 12.0051 2
65.8771 35.6666 3.96978
65.1877 32.1534 3.97003
64.2842 34.2494 3.97072
62.5977 30.6344 3.97118
61.6529 27.0706 3.97149
60.8528 29.1386 3.97306
59.3128 15.6626 3.98155
59.33 25.7942 3.97211
59.127 18.3488 3.97862
58.743 20.8492 3.9723
58.2858 23.0894 3.97086
57.9671 24.6623 3.97494
52.1128 8.15103 3.98817
53.0584 11.0124 3.98435
56.6779 15.7354 3.98088
53.81 13.6737 3.98189
54.3771 15.9909 3.98044
55.0713 67.9329 0.00664799
65.3335 49.4097 0.0287519
55.8058 64.9131 0.0112244
59.2206 62.3702 0.0154419
56.3282 62.0957 0.0168674
63.7089 53.2948 0.0264839
62.4425 50.6542 0.0301614
59.3357 59.5633 0.0192749
59.2925 57.0188 0.024909
61.0811 54.314 0.0240867
59.2461 55.1884 0.0222815
53.0433 69.0009 2
53.9679 66.016 2
57.8823 60.877 2
54.6849 63.2138 2
55.2127 60.6245 2
63.1949 48.6633 2
61.7433 52.5785 2
60.2719 50.0222 2
58.0211 58.2691 2
59.3309 53.952 2
58.1299 55.8169 2
52.0716 67.0019 3.98969
52.9543 64.2232 3.98656
56.65 59.4955 3.98009
53.6822 61.6292 3.98296
54.2615 59.3287 3.97921
60.9918 47.8835 3.96929
59.7088 52.1082 3.9713
58.0207 49.6203 3.9695
56.7789 56.9939 3.97451
57.1221 54.1246 3.97332
50.1104 67.8594 2
49.338 65.9252 3.98749
47.4641 66.5854 2
46.8932 64.7418 3.98617
45.5592 67.1022 3.98726
43.9741 69.5925 3.9898
46.0573 69.1606 2
46.6095 71.3683 3.99383
48.1037 68.5808 0.0101421
48.8032 70.724 2
49.554 73.0099 4
50.9488 69.9326 0.00631147
51.8506 72.1455 2
54.0858 71.1327 0
53.0645 6.07061 3.99263
55.1038 7.13909 2
56.25 5.02411 4
58.3339 6.3199 2
57.0592 8.33465 0.00793626
60.3285 7.74928 0
66.0709 47.4196 0.0282977
67.2259 43.4713 0.0288693
64.6551 44.8505 0.0294305
65.5574 41.2109 0.0298398
67.8353 39.5128 0.0299278
70.1301 37.5216 0.0264309
67.9316 37.5221 2
65.7883 39.3709 2
65.1781 43.0269 2
63.7536 40.9309 2
63.9674 46.719 2
62.8101 44.2188 2
65.8913 37.502 3.96965
63.8895 39.2675 3.97072
63.3292 42.552 3.97098
62.4208 40.6993 3.97231
61.9699 45.9221 3.97109
61.4505 43.6862 3.97315
67.8714 35.5474 0.029714
67.2672 31.6218 0.0287789
65.6995 33.9267 0.0294848
64.6657 30.1907 0.0292616
60.7769 14.2188 0.0165286
60.6163 17.1212 0.0195538
60.2269 19.8106 0.0247075
63.5402 26.4132 0.0282989
62.2602 28.7761 0.0279588
61.046 25.3361 0.0289114
59.6641 22.2549 0.028552
58.9788 24.3177 0.02717
57.9116 14.3258 0.0181902
55.3134 14.6389 0.0194024
54.0381 9.13269 0.0124166
54.7874 12.0062 0.0165304
65.877 35.6666 2
65.1878 32.1533 2
64.2843 34.2493 2
62.5978 30.6343 2
59.3126 15.6617 2
59.1273 18.3477 2
58.7435 20.8483 2
61.6527 27.0705 2
60.8527 29.1386 2
58.2861 23.0894 2
59.3301 25.7943 2
57.9673 24.6624 2
56.6776 15.7345 2
54.3768 15.99 2
53.81 13.6726 2
52.1127 8.15044 2
53.0584 11.0115 2
64.0847 35.6322 3.97046
62.9283 33.0456 3.97091
60.6168 30.6106 3.97279
59.57 27.9081 3.97253
57.9415 16.9764 3.98054
57.7371 25.7232 3.97302
57.7173 19.4698 3.97662
57.3714 21.8374 3.96993
57.1847 23.9456 3.97179
50.1128 7.28288 3.98863
51.2329 10.1205 3.98519
52.1723 12.791 3.98303
55.5386 16.9649 3.98068
52.978 15.2557 3.97996
53.7589 16.9729 3.98071
53.0431 69.0008 0.00642292
53.9681 66.0153 0.0105867
63.195 48.6633 0.0301837
54.685 63.2127 0.014924
57.8823 60.8759 0.0180452
55.2127 60.6231 0.0186508
61.743 52.5781 0.028772
60.2722 50.0222 0.0312349
58.0206 58.2676 0.0226034
58.1293 55.8168 0.0268134
59.3303 53.9516 0.0245873
52.0715 67.0025 2
52.9541 64.2241 2
56.6501 59.4968 2
53.6821 61.6305 2
54.2615 59.3304 2
60.9917 47.8835 2
59.7094 52.1084 2
58.0204 49.6201 2
56.7792 56.9962 2
57.1227 54.1247 2
51.1689 65.1322 3.98724
52.0471 62.545 3.98467
55.4824 58.2564 3.97913
52.8355 60.1427 3.98087
53.6411 58.4788 3.98006
58.3023 46.8523 3.97286
57.5562 51.7888 3.9713
56.2393 49.5561 3.97317
55.473 55.7938 3.97232
55.3545 53.382 3.96961
50.1104 67.8588 0.0101908
49.3378 65.9259 2
48.619 64.1283 3.9859
47.4643 66.5848 0.012514
45.559 67.1027 2
46.893 64.7424 2
46.3827 63.0603 3.98514
45.1335 65.2031 3.98613
43.6322 67.4728 3.98725
41.8611 69.8798 3.98959
43.9742 69.593 2
44.3769 71.8631 3.99371
46.0573 69.1602 0.0100611
46.6098 71.3685 2
47.2057 73.7222 4
48.803 70.7238 0.00622619
49.554 73.0099 2
51.8506 72.1454 0
50.9542 5.13091 3.99291
53.0648 6.0705 2
54.0858 3.86728 4
55.1035 7.13917 0.0076417
56.25 5.02406 2
58.3339 6.31992 0
63.9675 46.719 0.0295381
65.1782 43.0269 0.0297324
62.8102 44.2189 0.0282281
63.7535 40.9309 0.0289031
65.7884 39.3709 0.03019
67.9316 37.5221 0.0298885
65.8912 37.502 2
63.8895 39.2675 2
63.3291 42.552 2
62.421 40.6993 2
61.9698 45.922 2
61.4503 43.6861 2
63.9504 37.4573 3.97058
62.1367 39.3562 3.97185
61.207 41.9606 3.97285
60.2529 44.774 3.97358
65.8771 35.6666 0.0302212
65.1877 32.1534 0.0299691
64.2842 34.2494 0.0292823
62.5977 30.6344 0.0288197
59.3128 15.6626 0.018454
59.127 18.3488 0.0213831
58.743 20.8492 0.0276966
61.6529 27.0706 0.0285145
60.8528 29.1386 0.026938
59.33 25.7942 0.0278877
58.2858 23.0894 0.029139
57.9671 24.6623 0.0250578
56.6779 15.7354 0.019118
54.3771 15.9909 0.019557
53.81 13.6737 0.0181122
52.1128 8.15103 0.0118295
53.0584 11.0124 0.015655
64.0848 35.6322 2
62.9287 33.0456 2
60.6167 30.6105 2
57.9414 16.9754 2
57.7179 19.4687 2
57.3721 21.8373 2
59.5703 27.9082 2
57.185 23.9459 2
57.7374 25.7234 2
50.1128 7.28233 2
55.5384 16.9639 2
53.7586 16.9718 2
52.9779 15.2546 2
52.1723 12.7901 2
51.2328 10.1198 2
62.172 35.3595 3.97142
60.2806 32.7449 3.97272
58.6196 30.0743 3.97388
57.2814 27.3795 3.97382
56.6377 18.1493 3.98011
56.2878 25.0997 3.97309
56.358 20.5171 3.9721
56.1069 22.8694 3.96799
48.0565 6.52596 3.98905
49.3246 9.32825 3.98567
50.4333 11.9888 3.98349
51.3779 14.4913 3.98173
54.4157 17.9139 3.98109
52.3613 17.0285 3.97931
52.0716 67.0019 0.0103073
52.9543 64.2232 0.0134355
60.9918 47.8835 0.0307135
53.6822 61.6292 0.0170439
56.65 59.4955 0.0199099
54.2615 59.3287 0.0207912
59.7088 52.1082 0.0287009
58.0207 49.6203 0.0304954
56.7789 56.9939 0.0254931
57.1221 54.1246 0.0266788
51.1687 65.1329 2
52.0468 62.546 2
55.4824 58.2581 2
52.8354 60.1441 2
53.6411 58.4803 2
58.3023 46.8522 2
57.5569 51.7888 2
56.2391 49.5558 2
55.4737 55.7947 2
55.3553 53.3824 2
50.3471 63.3866 3.98543
51.245 60.9428 3.98246
54.2204 57.2728 3.979
52.3135 58.6416 3.9789
56.6986 44.1866 3.97637
55.4862 47.8991 3.97492
55.0613 51.387 3.9705
54.0025 54.5418 3.97077
49.338 65.9252 0.0125075
48.6188 64.129 2
47.9629 62.4815 3.98472
45.5592 67.1022 0.0127415
46.8932 64.7418 0.0138303
43.632 67.4734 2
46.3824 63.0611 2
45.1332 65.2036 2
45.9883 61.5936 3.98446
44.7679 63.4613 3.98559
43.3573 65.5126 3.98606
41.664 67.6915 3.98711
39.7026 70.027 3.98947
41.8612 69.8804 2
42.1112 72.2079 3.99355
43.9741 69.5925 0.0101971
44.3771 71.8634 2
44.8159 74.2794 4
46.6095 71.3683 0.00617015
47.2057 73.7222 2
49.554 73.0099 0
48.7846 4.3219 3.99315
50.9545 5.13073 2
51.8506 2.85458 4
53.0645 6.07061 0.00737449
54.0858 3.86728 2
56.25 5.02411 0
61.9699 45.9221 0.0289141
63.3292 42.552 0.0290237
61.4505 43.6862 0.0268538
62.4208 40.6993 0.0276874
63.8895 39.2675 0.0292778
65.8913 37.502 0.0303535
63.9501 37.4573 2
62.1367 39.3562 2
61.207 41.9605 2
60.2527 44.7738 2
61.9701 37.4452 3.97165
60.2241 39.8488 3.97358
58.977 42.9212 3.97417
64.0847 35.6322 0.0295437
62.9283 33.0456 0.029089
60.6168 30.6106 0.0272121
57.9415 16.9764 0.019459
57.7173 19.4698 0.0233829
57.3714 21.8374 0.0300651
59.57 27.9081 0.0274678
57.7371 25.7232 0.0269773
57.1847 23.9456 0.0282146
55.5386 16.9649 0.0193162
53.7589 16.9729 0.0192915
52.978 15.2557 0.0200417
50.1128 7.28288 0.0113725
52.1723 12.791 0.0169748
51.2329 10.1205 0.0148063
62.1718 35.3595 2
60.2813 32.7449 2
58.6187 30.0744 2
56.6379 18.1482 2
56.3587 20.5155 2
56.1076 22.8701 2
57.2826 27.3797 2
56.2879 25.1003 2
48.0565 6.52541 2
49.3245 9.32769 2
54.4156 17.9127 2
52.361 17.0276 2
51.3778 14.4902 2
50.4332 11.9881 2
59.8643 35.1198 3.97265
57.9811 32.2695 3.97527
56.5378 29.3387 3.97507
55.4365 26.5969 3.97482
55.3426 19.1835 3.9789
54.9246 24.0574 3.96987
54.9997 21.5609 3.97078
45.9623 5.88091 3.98941
43.3735 7.47131 3.98708
47.355 8.62191 3.98624
48.6001 11.2902 3.984
49.714 13.7382 3.98244
50.6334 16.1254 3.98019
53.1247 18.6531 3.97762
51.3018 18.0417 3.98475
51.1689 65.1322 0.0127605
52.0471 62.545 0.0153342
58.3023 46.8523 0.0271434
52.8355 60.1427 0.019127
55.4824 58.2564 0.020867
53.6411 58.4788 0.019943
57.5562 51.7888 0.0286986
56.2393 49.5561 0.0268253
55.473 55.7938 0.0276785
55.3545 53.382 0.0303904
50.3468 63.3873 2
51.2449 60.9439 2
54.2206 57.2745 2
52.3135 58.6428 2
56.6978 44.1864 2
55.4858 47.8986 2
55.0621 51.3867 2
54.0034 54.5436 2
49.5926 61.7515 3.9841
55.5956 41.7084 3.97681
50.5676 59.3359 3.9791
52.1851 56.496 3.97507
54.1586 45.5665 3.97703
53.3213 49.3289 3.97372
52.6615 52.8426 3.96784
48.619 64.1283 0.0140983
47.9626 62.4821 2
47.3301 61.0166 3.98404
43.6322 67.4728 0.0127526
45.1335 65.2031 0.0138658
46.3827 63.0603 0.0148622
41.6638 67.6922 2
43.3571 65.5132 2
45.9882 61.5945 2
44.7676 63.462 2
45.767 60.6383 3.98345
44.4842 61.8434 3.98428
43.1471 63.7335 3.9853
41.5466 65.6502 3.98575
39.6328 67.7713 3.98688
37.5259 70.0521 3.98935
39.7026 70.0276 2
39.8179 72.405 3.99345
41.8611 69.8798 0.0104074
42.1114 72.2082 2
42.3947 74.6792 4
44.3769 71.8631 0.00629294
44.8159 74.2794 2
47.2057 73.7222 0
43.8516 5.35798 3.98959
46.5706 3.64639 3.9934
48.7849 4.32167 2
49.554 1.99015 4
50.9542 5.13091 0.00708748
51.8506 2.85453 2
54.0858 3.86728 0
60.2529 44.774 0.0264243
61.207 41.9606 0.0271457
62.1367 39.3562 0.0281492
63.9504 37.4573 0.0294197
61.9698 37.4452 2
60.224 39.8488 2
58.9767 42.9211 2
59.7204 37.5675 3.97261
57.9602 40.6589 3.97428
55.0583 39.7231 3.9769
62.172 35.3595 0.0285824
60.2806 32.7449 0.0272759
58.6196 30.0743 0.0261214
56.6377 18.1493 0.0198909
56.358 20.5171 0.0278972
56.1069 22.8694 0.0320093
57.2814 27.3795 0.0261847
56.2878 25.0997 0.0269059
54.4157 17.9139 0.0189085
52.3613 17.0285 0.0206914
51.3779 14.4913 0.0182728
48.0565 6.52596 0.0109519
49.3246 9.32825 0.0143324
50.4333 11.9888 0.0165121
59.8636 35.1198 2
45.9623 5.88043 2
43.3735 7.47088 2
57.983 32.2695 2
56.5371 29.3388 2
55.3429 19.182 2
55.0006 21.5597 2
54.9249 24.0585 2
55.4343 26.5977 2
47.3549 8.62128 2
48.5999 11.2896 2
53.1248 18.6521 2
51.3017 18.0409 2
50.6332 16.1243 2
49.7138 13.7373 2
57.3574 34.7606 3.97589
55.7121 31.5191 3.97628
54.4747 28.404 3.97692
53.7636 25.4969 3.97492
53.9685 20.1328 3.97798
53.576 22.7128 3.96726
41.3985 7.0767 3.98745
45.3596 7.99315 3.98656
42.8654 9.41337 3.9854
46.6664 10.6508 3.9844
47.7453 13.0983 3.98283
48.931 15.3963 3.98119
50.0059 17.6947 3.97981
51.6495 19.3169 3.98732
50.3471 63.3866 0.0145651
51.245 60.9428 0.0175446
56.6986 44.1866 0.0236298
55.4862 47.8991 0.0250772
52.3135 58.6416 0.021097
54.2204 57.2728 0.0209958
55.0613 51.387 0.0294997
54.0025 54.5418 0.029229
49.5924 61.7521 2
55.5956 41.7083 2
50.5676 59.3371 2
52.1855 56.4973 2
54.1618 45.5661 2
53.3229 49.3277 2
52.6629 52.8424 2
48.8497 60.2094 3.98268
52.4787 42.6434 3.97721
49.7898 57.6337 3.97784
50.5894 54.4297 3.97269
51.7744 47.2696 3.97583
51.1997 50.9398 3.96946
48.1051 43.8065 3.99271
47.9629 62.4815 0.0152767
47.3299 61.0172 2
46.6195 59.8035 3.98313
41.664 67.6915 0.0128939
43.3573 65.5126 0.0139351
44.7679 63.4613 0.0144093
45.9883 61.5936 0.0155397
39.6328 67.7719 2
41.5464 65.6507 2
45.7669 60.6391 2
43.1469 63.7341 2
44.4841 61.8441 2
44.6243 60.301 3.98348
42.9512 62.0917 3.98456
41.6005 63.8269 3.98524
39.6479 65.6183 3.98535
37.5633 67.7536 3.98685
31.6964 65.137 3.9856
33.3917 67.4912 3.9868
35.333 69.9622 3.98934
37.5259 70.0527 2
37.5095 72.4595 3.99332
39.7026 70.027 0.010529
39.818 72.4053 2
39.9526 74.9197 4
42.1112 72.2079 0.00645483
42.3947 74.6792 2
44.8159 74.2794 0
41.7361 4.96725 3.98979
43.8516 5.35753 2
44.3258 3.10963 3.99353
46.5708 3.64615 2
47.2057 1.27793 4
48.7846 4.3219 0.00685243
49.554 1.99013 2
51.8506 2.85458 0
58.977 42.9212 0.0258322
60.2241 39.8488 0.0264208
61.9701 37.4452 0.0283524
59.7204 37.5675 2
57.9596 40.6588 2
55.0581 39.7231 2
56.7751 37.8968 3.97633
49.5134 41.3406 3.98788
53.0816 39.3059 3.97788
39.4419 6.80025 3.98749
59.8643 35.1198 0.0273484
57.9811 32.2695 0.0247254
56.5378 29.3387 0.0249349
55.3426 19.1835 0.0210963
54.9997 21.5609 0.0292168
54.9246 24.0574 0.0301263
55.4365 26.5969 0.0251825
53.1247 18.6531 0.0223845
51.3018 18.0417 0.0152457
50.6334 16.1254 0.019809
45.9623 5.88091 0.0105917
49.714 13.7382 0.0175576
47.355 8.62191 0.0137623
48.6001 11.2902 0.0160031
43.3735 7.47131 0.0129217
57.3566 34.7605 2
41.3986 7.07617 2
45.3596 7.9927 2
42.8653 9.41291 2
55.7108 31.5193 2
54.4764 28.4049 2
53.9691 20.1315 2
53.5765 22.7096 2
53.7628 25.4978 2
46.6662 10.6501 2
47.745 13.0976 2
51.6498 19.3161 2
50.0058 17.6937 2
48.9308 15.3953 2
54.8424 33.9725 3.97708
53.4602 30.487 3.97546
52.5669 27.1997 3.97554
52.1353 24.0976 3.97236
52.3876 21.0524 3.98077
41.0133 9.04657 3.9853
44.7235 9.99362 3.98466
42.4682 10.9 3.98403
46.005 12.7265 3.9825
47.6813 14.5808 3.98219
48.1132 16.9853 3.97893
49.8171 19.6057 3.97608
49.5926 61.7515 0.0159027
50.5676 59.3359 0.0209031
55.5956 41.7084 0.023188
54.1586 45.5665 0.0229654
53.3213 49.3289 0.0262811
52.1851 56.496 0.0249326
52.6615 52.8426 0.0321554
48.8495 60.2101 2
52.4796 42.6419 2
49.7898 57.6349 2
50.5902 54.4315 2
51.7738 47.2679 2
51.2015 50.9383 2
48.1063 43.8152 2
47.9877 58.751 3.98095
50.0437 45.2788 3.97638
48.5964 55.9243 3.97858
49.1199 52.5938 3.97218
49.6447 49.046 3.97414
45.9166 39.8799 3.8981
46.3491 42.6908 3.94292
46.4464 45.8578 3.995
43.7645 41.178 3.8806
41.9882 42.028 3.82381
47.3301 61.0166 0.0159648
46.6192 59.8041 2
45.4693 58.8003 3.98369
39.6328 67.7713 0.0131184
41.5466 65.6502 0.014245
43.1471 63.7335 0.0147008
44.4842 61.8434 0.0157196
45.767 60.6383 0.0165544
41.6003 63.8274 2
37.5632 67.7543 2
39.6477 65.6189 2
44.6241 60.3017 2
42.951 62.0923 2
41.7541 62.5024 3.98461
42.4819 59.9936 3.98514
39.8939 63.5619 3.98474
37.6423 65.5173 3.98492
35.4632 67.663 3.9868
33.5749 65.3503 3.98518
31.9588 63.3102 3.98475
29.8824 64.728 3.98587
31.6965 65.1377 2
31.3761 67.201 3.98692
33.3918 67.4919 2
33.1556 69.7555 3.98936
35.333 69.9628 2
35.1948 72.3739 3.99331
37.5259 70.0521 0.0106538
37.5095 72.4599 2
37.5 75 4
39.8179 72.405 0.00655038
39.9526 74.9197 2
42.3947 74.6792 0
39.6236 4.71437 3.98989
41.7362 4.96675 2
42.0621 2.71729 3.99359
43.8516 5.35798 0.0104132
44.326 3.10937 2
44.8158 0.721173 4
46.5706 3.64639 0.00659939
47.2057 1.27779 2
49.554 1.99015 0
57.9602 40.6589 0.025725
59.7204 37.5675 0.0273937
55.0583 39.7231 0.0231042
49.5256 41.3428 2
56.7749 37.8966 2
53.0808 39.3063 2
53.9323 36.6299 3.97783
47.4402 40.4212 3.94553
50.4533 38.5135 3.98669
37.5158 6.67123 3.98758
39.442 6.79972 2
39.2107 8.68917 3.98563
35.9411 8.4888 3.98588
57.3574 34.7606 0.0241101
55.7121 31.5191 0.0237193
54.4747 28.404 0.0230818
53.9685 20.1328 0.0220192
53.576 22.7128 0.0327419
53.7636 25.4969 0.0250848
51.6495 19.3169 0.0126751
50.0059 17.6947 0.0201868
48.931 15.3963 0.018806
45.3596 7.99315 0.0134393
47.7453 13.0983 0.0171711
46.6664 10.6508 0.0155991
41.3985 7.0767 0.0125468
42.8654 9.41337 0.0145977
54.8436 33.9725 2
41.0133 9.0461 2
44.7234 9.99327 2
42.4679 10.8996 2
53.4566 30.4874 2
52.5716 27.2006 2
52.3884 21.0513 2
52.1361 24.0985 2
46.0047 12.7256 2
47.6811 14.5799 2
49.8173 19.6045 2
48.1131 16.984 2
52.4007 32.8783 3.97934
51.2882 29.1589 3.97726
50.7732 25.7273 3.97161
49.937 22.1885 3.97762
40.5691 11.6041 3.98318
43.8578 11.9157 3.98349
45.8026 15.4177 3.98128
47.5035 19.221 3.97677
46.2494 37.4988 3.90338
48.8497 60.2094 0.0173237
49.7898 57.6337 0.0221632
52.4787 42.6434 0.0227869
51.7744 47.2696 0.0241679
51.1997 50.9398 0.0305387
50.5894 54.4297 0.0273124
48.1051 43.8065 0.00728947
47.9875 58.7519 2
50.0479 45.2806 2
48.5967 55.9257 2
49.1211 52.5963 2
49.6467 49.0448 2
45.937 39.8877 2
46.3644 42.7013 2
46.4465 45.8506 2
43.783 41.1913 2
41.9948 42.0339 2
46.8388 57.3539 3.98319
44.5101 39.4616 3.87283
42.3407 40.8925 3.84683
48.0436 47.2462 3.97607
47.163 54.2533 3.97841
47.5709 50.7489 3.97125
44.7661 47.4368 3.99504
45.0155 41.9734 3.90174
44.8883 44.5943 3.94913
42.6094 42.7025 3.88039
40.8784 42.3761 3.85314
46.6195 59.8035 0.0168693
45.4688 58.8011 2
43.8773 57.7266 3.98446
37.5633 67.7536 0.0131535
39.6479 65.6183 0.0146533
41.6005 63.8269 0.0147571
42.9512 62.0917 0.0154412
44.6243 60.301 0.0165168
35.4632 67.6637 2
41.7539 62.5029 2
39.8937 63.5624 2
37.6422 65.5179 2
42.4818 59.9944 2
40.6235 61.6611 3.98421
40.4459 58.2278 3.98593
37.8371 63.2229 3.98407
35.5727 65.4394 3.98505
33.575 65.3509 2
31.9588 63.3108 2
33.6286 63.35 3.98434
30.3776 62.8687 3.98496
32.1225 62.0172 3.98486
26.8673 61.5123 3.98448
28.0612 64.156 3.98589
29.8825 64.7287 2
29.4054 66.7647 3.98701
31.6964 65.137 0.0144036
31.3762 67.2017 2
31.0127 69.4205 3.98943
33.3917 67.4912 0.0132021
33.1556 69.7561 2
32.8917 72.1481 3.99335
35.333 69.9622 0.0106584
35.1947 72.3743 2
35.0474 74.9194 4
37.5095 72.4595 0.00668144
37.5 75 2
39.9526 74.9197 0
35.6203 6.72222 3.98756
37.5228 4.61385 3.99005
39.6237 4.71391 2
39.7885 2.4737 3.9937
41.7361 4.96725 0.0102115
42.0623 2.71699 2
42.3946 0.32156 4
44.3258 3.10963 0.00646892
44.8159 0.72056 2
47.2057 1.27793 0
49.5134 41.3406 0.0121245
56.7751 37.8968 0.0236722
53.0816 39.3059 0.0221151
47.4527 40.4307 2
50.4631 38.5128 2
53.9353 36.6305 2
51.2551 35.5846 3.97754
48.0949 37.7555 3.9631
45.9217 35.1426 3.90071
43.7742 33.8322 3.87691
41.9967 32.9874 3.82108
37.4574 8.53084 3.98558
37.5158 6.67054 2
39.4419 6.80025 0.01251
39.2108 8.68864 2
38.976 10.1221 3.98513
35.8978 9.76873 3.98455
34.1496 8.81821 3.9857
35.9412 8.48811 2
54.8424 33.9725 0.0229151
53.4602 30.487 0.0245442
52.5669 27.1997 0.0244571
52.3876 21.0524 0.0192265
52.1353 24.0976 0.0276435
49.8171 19.6057 0.0239157
48.1132 16.9853 0.0210665
47.6813 14.5808 0.0178109
44.7235 9.99362 0.0153429
46.005 12.7265 0.0174974
41.0133 9.04657 0.0146991
42.4682 10.9 0.0159724
52.4006 32.8784 2
40.5688 11.6038 2
43.8574 11.9153 2
51.3003 29.1589 2
50.774 25.7293 2
49.9381 22.1875 2
45.8021 15.4165 2
47.5037 19.2195 2
49.9319 31.415 3.96917
49.2599 27.4792 3.97621
49.3944 24.4018 3.97872
47.1852 21.9454 3.97544
38.3014 12.7291 3.98352
42.1013 14.3003 3.98253
44.8004 18.4554 3.97997
44.7991 37.5073 3.8711
46.2747 37.5062 2
47.9877 58.751 0.0190456
48.5964 55.9243 0.021423
50.0437 45.2788 0.0236158
49.6447 49.046 0.0258634
49.1199 52.5938 0.0278173
45.9166 39.8799 0.101901
46.3491 42.6908 0.0570819
46.4464 45.8578 0.00500356
43.7645 41.178 0.119395
41.9882 42.028 0.176194
46.8387 57.3551 2
44.5223 39.47 2
42.3378 40.893 2
48.0455 47.2475 2
47.1636 54.256 2
47.5729 50.7506 2
44.7702 47.413 2
45.0302 41.9843 2
44.9032 44.6083 2
42.633 42.7206 2
40.8772 42.3758 2
45.3976 55.9415 3.98575
42.6709 39.2777 3.86021
40.7988 40.8173 3.9082
46.0669 48.9216 3.98619
45.5333 52.5455 3.98086
43.428 48.4673 4.01148
43.3431 46.157 3.95103
43.6281 43.7908 3.89966
41.1263 43.8771 3.87564
39.296 42.7365 3.86759
45.4693 58.8003 0.0163115
43.8768 57.7272 2
42.1074 56.355 3.9882
35.4632 67.663 0.0132002
37.6423 65.5173 0.0150816
39.8939 63.5619 0.0152629
41.7541 62.5024 0.0153936
42.4819 59.9936 0.0148594
35.5728 65.4402 2
40.6233 61.6617 2
37.8369 63.2234 2
40.4457 58.2288 2
38.926 56.5258 3.99102
38.2505 60.3449 3.98461
35.6069 63.2165 3.9839
33.5749 65.3503 0.0148196
31.9588 63.3102 0.0152546
33.6285 63.3505 2
30.3777 62.8693 2
32.1224 62.0178 2
28.68 62.2141 3.98505
33.3453 61.5302 3.98454
31.0655 61.2346 3.98501
27.5665 59.6105 3.98292
23.7895 59.0951 3.98083
25.0328 60.8845 3.98334
26.8674 61.5127 2
26.2277 63.4883 3.9857
28.0614 64.1566 2
27.4618 66.1885 3.98715
29.8824 64.728 0.0141295
29.4055 66.7653 2
28.9048 68.9459 3.9895
31.3761 67.201 0.0130809
31.0127 69.421 2
30.614 71.7791 3.99343
33.1556 69.7555 0.0106352
32.8916 72.1485 2
32.6054 74.6784 4
35.1948 72.3739 0.00669347
35.0474 74.9197 2
37.5 75 0
33.7228 6.97671 3.98717
35.4341 4.68423 3.98993
35.6202 6.7216 2
37.5139 2.38635 3.99378
37.5228 4.61332 2
39.6236 4.71437 0.0101051
39.7886 2.47341 2
39.9526 0.0806499 4
42.0621 2.71729 0.0064076
42.3947 0.320817 2
44.8158 0.721173 0
44.5298 35.5493 3.86826
42.3527 34.1164 3.84378
47.4402 40.4212 0.0544706
50.4533 38.5135 0.0133147
53.9323 36.6299 0.0221737
48.1051 37.7608 2
51.2627 35.5836 2
45.9365 35.1282 2
43.7943 33.8177 2
42.003 32.9817 2
48.2776 34.2998 3.98281
45.0206 33.0403 3.89784
42.6171 32.3143 3.87837
40.8869 32.638 3.85109
37.31 10.6256 3.98413
37.4575 8.52995 2
37.5158 6.67123 0.0124221
39.2107 8.68917 0.0143731
38.9759 10.1215 2
34.7529 10.3743 3.98434
35.8978 9.76799 2
32.3762 9.36464 3.98519
34.1495 8.81744 2
35.9411 8.4888 0.0141214
52.4007 32.8783 0.0206555
51.2882 29.1589 0.0227399
50.7732 25.7273 0.0283931
49.937 22.1885 0.0223786
47.5035 19.221 0.0232339
45.8026 15.4177 0.0187192
43.8578 11.9157 0.0165133
40.5691 11.6041 0.016819
49.9355 31.4114 2
38.301 12.7286 2
42.1007 14.3001 2
49.2606 27.4816 2
49.3953 24.4011 2
47.1865 21.946 2
44.8005 18.4542 2
47.7578 29.5549 3.99107
47.0921 25.1368 3.98175
44.2891 21.3097 3.9769
36.581 12.9253 3.98308
38.6809 14.7982 3.9828
41.7498 17.8289 3.9813
42.8163 37.495 3.85981
44.8186 37.5054 2
46.2494 37.4988 0.0966228
46.8388 57.3539 0.0168148
47.163 54.2533 0.0215913
48.0436 47.2462 0.0239348
47.5709 50.7489 0.0287499
44.5101 39.4616 0.12717
45.0155 41.9734 0.098261
44.8883 44.5943 0.0508727
44.7661 47.4368 0.00495673
42.6094 42.7025 0.11961
42.3407 40.8925 0.153169
40.8784 42.3761 0.146855
45.3977 55.943 2
42.6721 39.2771 2
40.7952 40.8135 2
46.0683 48.9229 2
45.5351 52.5486 2
43.4311 48.4845 2
43.3655 46.1754 2
43.6446 43.8043 2
41.1443 43.8916 2
39.2916 42.7305 2
43.7352 54.4591 3.99548
40.9095 39.1805 3.93578
39.1865 40.909 3.93871
43.6872 50.5191 3.99669
41.9426 47.6975 3.98113
41.8612 45.2055 3.90137
39.387 44.614 3.88993
37.4903 42.8646 3.87563
43.8773 57.7266 0.015536
42.1067 56.3557 2
40.4192 54.9668 3.9908
35.5727 65.4394 0.0149469
37.8371 63.2229 0.0159322
40.6235 61.6611 0.0157852
40.4459 58.2278 0.0140672
35.6067 63.2172 2
38.2502 60.3455 2
38.9256 56.5278 2
37.9998 55.2847 3.99033
36.9346 57.6512 3.98632
35.3633 60.9293 3.98425
33.6286 63.35 0.0156632
30.3776 62.8687 0.0150393
32.1225 62.0172 0.0151425
33.3452 61.5308 2
28.6801 62.2146 2
31.0655 61.2351 2
29.4016 60.3045 3.98422
32.3553 59.7633 3.98555
28.0196 58.3902 3.98486
27.5665 59.6109 2
25.3765 58.6085 3.9804
22.7531 58.2521 3.97622
23.3986 60.3632 3.98109
23.7895 59.0961 2
25.033 60.8853 2
24.4302 62.7805 3.98507
26.8673 61.5123 0.0155177
26.2279 63.4888 2
25.5458 65.4985 3.98721
28.0612 64.156 0.0141062
27.4619 66.1891 2
26.8343 68.3342 3.98955
29.4054 66.7647 0.0129942
28.9048 68.9465 2
28.3691 71.2643 3.99349
31.0127 69.4205 0.0105657
30.6139 71.7795 2
30.1842 74.2788 4
32.8917 72.1481 0.00665187
32.6053 74.6792 2
35.0474 74.9194 0
31.7872 7.41642 3.98689
33.346 4.92335 3.98982
33.7228 6.97606 2
35.2441 2.46251 3.99374
35.4341 4.68371 2
35.6203 6.72222 0.0124423
37.5 0 4
37.514 2.38602 2
37.5228 4.61385 0.00994852
39.7885 2.4737 0.00629593
39.9526 0.0802889 2
42.3946 0.32156 0
42.6842 35.72 3.85954
44.5429 35.541 2
40.8101 34.1926 3.9071
42.3498 34.1173 2
48.0949 37.7555 0.0369028
51.2551 35.5846 0.0224552
45.9217 35.1426 0.0992857
43.7742 33.8322 0.123094
41.9967 32.9874 0.178918
48.2881 34.2897 2
45.0355 33.029 2
42.6372 32.2988 2
40.8846 32.6378 2
46.2765 31.5611 3.96333
43.632 31.2311 3.89742
41.1403 31.1436 3.87737
39.3029 32.2744 3.86711
35.6911 11.7698 3.98325
37.31 10.6249 2
37.4574 8.53084 0.0144186
38.976 10.1221 0.0148746
33.0966 11.2107 3.98323
34.7529 10.3735 2
35.8978 9.76873 0.0154548
30.4808 10.0125 3.98469
32.3761 9.36389 2
34.1496 8.81821 0.014297
49.9319 31.415 0.030826
49.2599 27.4792 0.0237881
49.3944 24.4018 0.021285
47.1852 21.9454 0.0245584
44.8004 18.4554 0.0200302
42.1013 14.3003 0.0174709
38.3014 12.7291 0.0164807
36.5806 12.9247 2
47.7587 29.5485 2
38.68 14.7979 2
41.7492 17.8281 2
47.0936 25.1375 2
44.2903 21.3074 2
45.5344 27.6499 3.99829
43.7971 24.0361 3.99715
41.341 20.7046 3.98173
35.7708 14.75 3.9828
38.6809 17.5839 3.98134
40.9592 37.4869 3.94712
42.8214 37.4968 2
44.7991 37.5073 0.128901
45.3976 55.9415 0.0142519
45.5333 52.5455 0.0191432
46.0669 48.9216 0.0138092
42.6709 39.2777 0.139789
43.6281 43.7908 0.100343
43.3431 46.157 0.0489694
43.428 48.4673 -0.0114772
41.1263 43.8771 0.124363
40.7988 40.8173 0.0918009
39.296 42.7365 0.132413
43.7357 54.461 2
40.9057 39.178 2
39.1827 40.9019 2
43.6893 50.5303 2
41.9471 47.7103 2
41.8843 45.2202 2
37.4916 42.8568 2
39.4073 44.6193 2
41.879 53.0365 3.99546
39.2009 39.1816 3.9669
37.4916 40.9595 3.9516
35.6918 42.7347 3.86811
40.9215 49.7528 4.00311
39.8031 46.1091 3.88369
37.493 44.8538 3.88764
42.1074 56.355 0.0118025
40.4185 54.9675 2
38.7292 53.9003 3.99363
35.6069 63.2165 0.0160989
38.2505 60.3449 0.0153897
38.926 56.5258 0.00897533
35.363 60.9298 2
36.9342 57.6517 2
37.9991 55.2857 2
36.319 55.4156 3.99268
34.4867 58.5423 3.98562
33.3453 61.5302 0.0154558
28.68 62.2141 0.0149493
31.0655 61.2346 0.0149906
32.3553 59.7638 2
29.4017 60.3049 2
30.2951 57.8368 3.98587
28.0195 58.3907 2
26.9412 56.8392 3.98012
27.5665 59.6105 0.0170752
25.3764 58.6093 2
23.8348 56.8144 3.97467
21.3295 57.41 3.97608
21.991 59.634 3.98046
22.7529 58.2532 2
22.7341 62.0314 3.98358
23.3987 60.3642 2
23.7895 59.0951 0.01917
25.0328 60.8845 0.0166582
24.4305 62.7812 2
23.6797 64.7166 3.98685
26.2277 63.4883 0.0142972
25.546 65.499 2
24.8065 67.5952 3.98953
27.4618 66.1885 0.0128541
26.8343 68.3347 2
26.1642 70.6051 3.99354
28.9048 68.9459 0.0105015
28.3688 71.2646 2
27.7943 73.7221 4
30.614 71.7791 0.00657339
30.1841 74.2794 2
32.6054 74.6784 0
29.8096 7.98953 3.98643
31.251 5.3305 3.98951
31.787 7.41571 2
32.9798 2.70064 3.99365
33.3459 4.92279 2
33.7228 6.97671 0.0128309
35.0474 0.080333 4
35.2441 2.46219 2
35.4341 4.68423 0.0100683
37.5 0 2
37.5139 2.38635 0.00622368
39.9526 0.0806499 0
40.9173 35.8052 3.93677
42.6853 35.7227 2
44.5298 35.5493 0.131739
28.5415 10.6875 3.98474
39.1938 34.1008 3.93858
40.8055 34.1968 2
42.3527 34.1164 0.156224
48.2776 34.2998 0.0171893
45.0206 33.0403 0.102163
42.6171 32.3143 0.121628
40.8869 32.638 0.148905
46.2909 31.5527 2
43.6422 31.2187 2
41.1579 31.1286 2
39.2992 32.2787 2
44.3908 29.7429 3.94944
41.8776 29.8135 3.90438
39.4039 30.3943 3.89042
37.4974 32.1444 3.8765
34.0909 12.9277 3.98261
35.691 11.769 2
37.31 10.6256 0.0158747
31.1845 11.9785 3.98377
33.0966 11.2099 2
34.7529 10.3743 0.0156597
30.4807 10.0116 2
32.3762 9.36464 0.0148086
47.7578 29.5549 0.00892798
47.0921 25.1368 0.0182513
36.581 12.9253 0.0169193
44.2891 21.3097 0.0230992
41.7498 17.8289 0.0187043
38.6809 14.7982 0.0171958
35.7701 14.7496 2
45.5349 27.6482 2
38.6799 17.5833 2
41.3412 20.7021 2
43.7989 24.0373 2
33.6058 15.8657 3.98264
43.0488 26.4713 3.99866
40.9163 23.2712 3.99738
38.4208 20.312 3.98281
35.847 17.4965 3.98387
39.2159 37.4865 3.97415
40.9517 37.4869 2
42.8163 37.495 0.140187
43.7352 54.4591 0.00451617
43.6872 50.5191 0.00331452
40.9095 39.1805 0.064219
41.8612 45.2055 0.0986328
41.9426 47.6975 0.0188659
39.387 44.614 0.110071
39.1865 40.909 0.0612889
37.4903 42.8646 0.124374
41.8807 53.0391 2
39.1971 39.1805 2
37.4917 40.9531 2
40.9258 49.7574 2
35.6948 42.7304 2
39.8261 46.1279 2
37.4913 44.8524 2
39.8196 51.9534 3.9958
37.4903 39.1957 3.98022
35.7968 40.9169 3.93799
34.1062 42.3721 3.85265
35.579 44.6146 3.88752
38.7126 48.765 3.99221
37.4865 46.4388 3.88626
40.4192 54.9668 0.00920346
38.7287 53.9003 2
36.72 53.2558 4.00622
35.3633 60.9293 0.0157526
36.9346 57.6512 0.0136832
37.9998 55.2847 0.00966584
34.4865 58.5426 2
36.3185 55.4161 2
33.2239 55.5287 3.98835
32.3553 59.7633 0.0144547
29.4016 60.3045 0.015783
30.2951 57.8373 2
28.6854 55.3292 3.97955
28.0196 58.3902 0.0151445
26.9408 56.8398 2
25.3049 55.1523 3.97563
21.803 55.3561 3.97156
25.3765 58.6085 0.0196033
23.8344 56.8158 2
20.2138 57.0378 3.97905
20.6418 58.791 3.97874
21.3291 57.4112 2
21.1643 61.1801 3.98215
21.991 59.6351 2
22.7531 58.2521 0.0237808
21.8931 63.8445 3.98615
22.7342 62.0323 2
23.3986 60.3632 0.0189127
24.4302 62.7805 0.0149287
23.6799 64.7173 2
22.8347 66.7388 3.9895
25.5458 65.4985 0.0127925
24.8066 67.5957 2
24.0084 69.8061 3.99351
26.8343 68.3342 0.0104503
26.164 70.6053 2
25.446 73.0099 4
28.3691 71.2643 0.00651431
27.7943 73.7222 2
30.1842 74.2788 0
27.8193 8.64906 3.98621
29.1529 5.87621 3.98917
29.8094 7.98877 2
30.7249 3.09782 3.99347
31.251 5.3299 2
31.7872 7.41642 0.0131078
32.6053 0.320823 4
32.9797 2.70031 2
33.346 4.92335 0.0101806
35.0474 0.0802903 2
35.2441 2.46251 0.00626023
37.5 0 0
39.2139 35.8039 3.96634
40.9129 35.8079 2
42.6842 35.72 0.140461
28.5414 10.6867 2
26.6202 11.3823 3.98483
29.2232 12.6346 3.98426
37.4969 34.0489 3.95192
39.1897 34.1072 2
40.8101 34.1926 0.0928988
46.2765 31.5611 0.0366668
43.632 31.2311 0.102576
41.1403 31.1436 0.12263
39.3029 32.2744 0.132889
44.4072 29.7299 2
41.8987 29.7963 2
39.4197 30.3847 2
37.4979 32.1523 2
42.3554 28.3802 3.93681
39.8508 28.8985 3.89881
37.5094 30.1437 3.88647
35.6955 32.2669 3.86689
31.9121 14.4718 3.98332
34.0908 12.9269 2
35.6911 11.7698 0.0167451
31.1845 11.9777 2
33.0966 11.2107 0.0167717
30.4808 10.0125 0.0153075
45.5344 27.6499 0.00171184
43.7971 24.0361 0.00284893
35.7708 14.75 0.0171974
41.341 20.7046 0.0182731
38.6809 17.5839 0.0186553
33.6052 15.8654 2
35.8459 17.4964 2
43.0516 26.4748 2
38.4202 20.3111 2
40.9166 23.2654 2
33.5479 17.3735 3.98434
40.4243 25.6126 4.00862
38.0762 22.8396 3.99353
35.5824 20.0603 3.98709
37.4963 37.4951 3.98627
39.2102 37.4865 2
40.9592 37.4869 0.0528756
41.879 53.0365 0.00453656
40.9215 49.7528 -0.00311459
39.2009 39.1816 0.0330959
39.8031 46.1091 0.116305
37.493 44.8538 0.112357
37.4916 40.9595 0.0483976
35.6918 42.7347 0.13189
39.8231 51.9563 2
37.4915 39.194 2
35.801 40.9109 2
38.7125 48.7945 2
34.1076 42.3712 2
35.5679 44.6287 2
37.4856 46.4587 2
37.6586 51.0534 4.0106
35.785 39.1966 3.96751
34.1882 40.8232 3.90791
32.9921 42.0235 3.82257
33.8424 43.8697 3.87481
35.1543 46.1007 3.89452
36.8474 48.4138 3.97459
38.7292 53.9003 0.00637166
36.7202 53.256 2
34.3602 52.5072 3.99337
34.4867 58.5423 0.0143767
36.319 55.4156 0.00731878
33.2235 55.5287 2
30.5143 53.4086 3.98228
30.2951 57.8368 0.0141256
28.6849 55.3305 2
26.8753 53.4427 3.97506
26.9412 56.8392 0.0198809
25.3045 55.1547 2
23.5662 53.4868 3.97009
20.4604 53.2253 3.96641
19.9264 55.8395 3.97514
21.8024 55.3573 2
23.8348 56.8144 0.0253251
19.4342 57.8999 3.97802
20.2133 57.0386 2
19.7038 60.2128 3.98097
20.6416 58.7923 2
21.3295 57.41 0.0239174
20.2056 62.8652 3.98452
21.1644 61.1812 2
21.991 59.634 0.0195355
20.9362 65.7679 3.98931
21.8932 63.8454 2
22.7341 62.0314 0.0164232
23.6797 64.7166 0.0131515
22.8348 66.7394 2
21.9109 68.8732 3.99346
24.8065 67.5952 0.0104747
24.0082 69.8063 2
23.1494 72.1454 4
26.1642 70.6051 0.00645887
25.446 73.0099 2
27.7943 73.7221 0
25.8583 9.37694 3.98605
27.0676 6.54026 3.98881
27.8192 8.64821 2
28.4871 3.64376 3.99329
29.1528 5.87557 2
29.8096 7.98953 0.0135702
30.1841 0.720592 4
30.7248 3.0975 2
31.251 5.3305 0.0104945
32.6053 0.320817 2
32.9798 2.70064 0.00634563
35.0474 0.080333 0
37.4995 35.8005 3.98088
39.2074 35.805 2
40.9173 35.8052 0.0632316
24.7751 12.065 3.98494
23.7494 14.3491 3.98404
28.5415 10.6875 0.015263
26.6203 11.3816 2
29.2232 12.6337 2
27.2893 13.3668 3.98432
29.7779 14.1933 3.98367
35.8056 34.0898 3.93883
37.4971 34.0551 2
39.1938 34.1008 0.0614225
37.4974 32.1444 0.123502
44.3908 29.7429 0.0505574
41.8776 29.8135 0.0956153
39.4039 30.3943 0.109581
42.3735 28.3636 2
39.8661 28.8774 2
37.5103 30.1441 2
35.7003 32.2717 2
40.0441 27.5245 3.93549
37.5211 28.5652 3.89559
35.5997 30.3908 3.89063
34.116 32.6248 3.85106
30.9235 16.827 3.98374
31.9119 14.471 2
34.0909 12.9277 0.0173874
31.1845 11.9785 0.0162348
43.0488 26.4713 0.00134454
40.9163 23.2712 0.00262389
33.6058 15.8657 0.0173612
35.847 17.4965 0.0161272
38.4208 20.312 0.0171905
33.547 17.3735 2
35.582 20.0596 2
40.4252 25.6074 2
38.0761 22.8388 2
32.8606 19.7777 3.98535
37.8005 25.1495 4.01849
35.2009 22.6123 3.99294
35.7803 37.5002 3.97557
37.496 37.4946 2
39.2159 37.4865 0.0258464
39.8196 51.9534 0.00420021
38.7126 48.765 0.00778701
37.4903 39.1957 0.0197766
37.4865 46.4388 0.113736
35.579 44.6146 0.11248
35.7968 40.9169 0.062011
34.1062 42.3721 0.147348
37.6631 51.0636 2
35.792 39.1947 2
34.1923 40.8189 2
36.8476 48.4297 2
32.9858 42.0276 2
33.8307 43.8795 2
35.1354 46.1151 2
35.4581 50.1848 4.01242
34.0858 39.1929 3.93698
32.6349 40.8926 3.845
32.3667 42.695 3.87949
33.1251 45.1963 3.90266
34.2639 47.4733 3.9456
36.72 53.2558 -0.00622451
34.3606 52.5094 2
31.9952 51.2169 3.99706
33.2239 55.5287 0.0116505
30.5136 53.4114 2
28.4205 51.6176 3.97864
28.6854 55.3292 0.0204472
26.8747 53.4443 2
25.0704 51.7574 3.96737
25.3049 55.1523 0.0243725
23.5655 53.4879 2
21.957 51.8073 3.96575
19.1935 51.6375 3.96914
18.9153 54.3131 3.96881
20.4596 53.225 2
18.4423 56.7309 3.97773
19.9256 55.8404 2
21.803 55.3561 0.0284399
18.366 59.1182 3.97778
19.4339 57.9009 2
20.2138 57.0378 0.0209507
18.6167 61.7718 3.98274
19.7038 60.2139 2
20.6418 58.791 0.0212634
19.1252 64.6785 3.98836
20.2057 62.8662 2
21.1643 61.1801 0.0178506
19.8849 67.8098 3.99332
20.9363 65.7686 2
21.8931 63.8445 0.013854
22.8347 66.7388 0.0105027
21.9106 68.8733 2
20.9142 71.1327 4
24.0084 69.8061 0.00648764
23.1494 72.1455 2
25.446 73.0099 0
23.0944 12.7794 3.98453
23.9708 10.1633 3.98597
25.0214 7.31034 3.98861
25.8583 9.37627 2
26.2788 4.32799 3.99311
27.0674 6.53955 2
27.8193 8.64906 0.0137938
27.7943 1.27781 4
28.4869 3.64346 2
29.1529 5.87621 0.0108332
30.1841 0.720551 2
30.7249 3.09782 0.00653112
32.6053 0.320823 0
35.7886 35.8062 3.96827
37.4987 35.8015 2
39.2139 35.8039 0.0336603
24.7753 12.0645 2
23.7497 14.3489 2
22.4781 15.0257 3.98348
25.3555 13.8986 3.98388
24.0225 15.6111 3.98291
26.6202 11.3823 0.0151725
29.2232 12.6346 0.0157367
27.2894 13.3664 2
29.7779 14.1925 2
28.3538 15.9665 3.98399
34.2012 34.1824 3.90705
35.8095 34.096 2
37.4969 34.0489 0.0480755
35.6955 32.2669 0.133107
37.5094 30.1437 0.11353
42.3554 28.3802 0.0631862
39.8508 28.8985 0.101193
40.0558 27.5102 2
37.5235 28.5442 2
35.5844 30.3793 2
34.1185 32.6243 2
37.619 27.2027 3.94397
35.1785 28.8848 3.89703
33.8532 31.1318 3.8769
33.0099 32.9743 3.82246
30.205 19.3283 3.98645
30.923 16.8266 2
31.9121 14.4718 0.01668
40.4243 25.6126 -0.00861717
38.0762 22.8396 0.00647298
33.5479 17.3735 0.0156584
35.5824 20.0603 0.0129063
32.8595 19.7782 2
35.198 22.6079 2
37.7893 25.1503 2
32.3082 22.3892 3.99017
34.9763 25.1386 4.00791
34.0381 37.5005 3.9466
35.7856 37.4996 2
37.4963 37.4951 0.0137293
37.6586 51.0534 -0.0105996
36.8474 48.4138 0.0254054
35.785 39.1966 0.0324942
35.1543 46.1007 0.105479
33.8424 43.8697 0.125188
34.1882 40.8232 0.0920915
32.9921 42.0235 0.177432
35.4559 50.195 2
34.0938 39.1902 2
32.6368 40.8913 2
34.2587 47.5058 2
32.3483 42.7082 2
33.1055 45.2146 2
33.2329 49.1757 4.0072
32.3068 39.2835 3.86103
31.2073 41.1732 3.87845
31.3593 43.7822 3.89895
32.2398 46.3915 3.94465
34.3602 52.5072 0.00663196
31.9943 51.2232 2
29.846 49.7311 3.98771
30.5143 53.4086 0.0177208
28.4193 51.6156 2
26.4977 49.9984 3.97107
26.8753 53.4427 0.0249402
25.0694 51.7562 2
23.3329 50.2028 3.97404
23.5662 53.4868 0.0299137
21.9565 51.8067 2
20.4567 50.3211 3.97129
17.9815 50.3341 3.97153
17.8279 52.7942 3.96767
19.193 51.6374 2
17.4317 55.3457 3.97285
18.9145 54.3136 2
20.4604 53.2253 0.0335933
17.1314 57.8795 3.97816
18.4418 56.7319 2
19.9264 55.8395 0.0248607
17.1343 60.554 3.9803
18.3658 59.1194 2
19.4342 57.8999 0.0219806
17.4059 63.4706 3.9865
18.6168 61.7729 2
19.7038 60.2128 0.0190333
17.941 66.6181 3.99304
19.1253 64.6793 2
20.2056 62.8652 0.0154835
18.75 69.9759 4
19.8846 67.8099 2
20.9362 65.7679 0.0106919
21.9109 68.8732 0.00654287
20.9142 71.1327 2
23.1494 72.1454 0
21.5853 13.5996 3.984
22.1888 11.0224 3.98564
23.0947 12.7793 2
23.0392 8.17562 3.9885
23.9709 10.1629 2
24.1164 5.1427 3.99294
25.0211 7.30981 2
25.8583 9.37694 0.0139538
25.446 1.99014 4
26.2784 4.32773 2
27.0676 6.54026 0.0111857
27.7943 1.27778 2
28.4871 3.64376 0.00670883
30.1841 0.720592 0
34.0849 35.8091 3.93566
35.7933 35.8071 2
37.4995 35.8005 0.0191196
21.3032 15.8213 3.98279
24.7751 12.065 0.0150644
23.7494 14.3491 0.0159597
25.3557 13.8982 2
22.4785 15.0256 2
24.0229 15.611 2
23.2617 16.2427 3.9827
25.3778 16.079 3.9838
27.2893 13.3668 0.0156806
29.7779 14.1933 0.0163281
28.354 15.9663 2
27.4368 18.7878 3.98508
32.6593 34.1066 3.84517
34.2065 34.1857 2
35.8056 34.0898 0.0611704
34.116 32.6248 0.148942
35.5997 30.3908 0.109367
37.5211 28.5652 0.104412
40.0441 27.5245 0.0645065
37.6192 27.1718 2
33.0028 32.9709 2
35.163 28.8658 2
33.8363 31.1128 2
35.0667 27.3289 3.94944
33.1348 29.8078 3.89688
32.3759 32.2959 3.87576
29.572 21.921 3.99495
30.2046 19.3291 2
30.9235 16.827 0.0162587
37.8005 25.1495 -0.018487
35.2009 22.6123 0.00706126
32.8606 19.7777 0.0146541
32.3053 22.3902 2
34.9853 25.139 2
31.6861 25.6031 4.00112
32.1721 37.503 3.8609
34.0465 37.5004 2
35.7803 37.5002 0.0244346
35.4581 50.1848 -0.0124249
34.2639 47.4733 0.0543967
34.0858 39.1929 0.0630177
33.1251 45.1963 0.0973442
32.3667 42.695 0.120506
32.6349 40.8926 0.155004
33.2295 49.1648 2
32.3065 39.2805 2
31.1878 41.1832 2
32.216 46.4113 2
31.3451 43.7943 2
31.1341 47.9998 3.99618
30.4573 39.4562 3.8695
29.9646 41.9692 3.89588
30.4123 44.9729 3.94811
31.9952 51.2169 0.00293654
29.8446 49.7286 2
27.8609 48.1958 3.97444
28.4205 51.6176 0.0213645
26.4969 49.9967 2
24.6394 48.483 3.97789
25.0704 51.7574 0.0326319
23.3325 50.2019 2
21.651 48.8004 3.97175
21.957 51.8073 0.0342504
20.4562 50.3207 2
19.0249 49.0994 3.97343
16.8873 49.3355 3.97279
16.7687 51.4088 3.9696
17.9816 50.3339 2
16.3851 53.873 3.96993
17.8274 52.7945 2
19.1935 51.6375 0.0308638
15.9728 56.4802 3.97585
17.4311 55.3466 2
18.9153 54.3131 0.0311896
15.7476 59.2142 3.9795
17.1311 57.8807 2
18.4423 56.7309 0.0222653
15.7867 62.1404 3.98389
17.1343 60.5552 2
18.366 59.1182 0.0222244
16.0878 65.3005 3.99234
17.4059 63.4715 2
18.6167 61.7718 0.017259
16.6661 68.6801 4
17.9407 66.6182 2
19.1252 64.6785 0.0116372
18.75 69.9759 2
19.8849 67.8098 0.00667782
20.9142 71.1327 0
20.2173 14.5884 3.98322
21.5856 13.5995 2
20.5281 11.9921 3.98503
21.1421 9.1453 3.98849
22.189 11.0221 2
23.0944 12.7794 0.0154723
22.0154 6.08165 3.99288
23.0391 8.17525 2
23.9708 10.1633 0.0140347
23.1494 2.85457 4
24.116 5.14257 2
25.0214 7.31034 0.0113853
25.446 1.99012 2
26.2788 4.32799 0.00689077
27.7943 1.27781 0
32.3186 35.7174 3.85995
34.0908 35.8116 2
35.7886 35.8062 0.0317316
21.3035 15.8209 2
20.3007 16.9558 3.98264
22.0949 16.6269 3.98121
25.3555 13.8986 0.0161218
22.4781 15.0257 0.0165205
24.0225 15.6111 0.0170939
25.3781 16.0789 2
23.2621 16.2427 2
24.2012 18.4421 3.98082
27.0095 21.4457 3.98756
28.3538 15.9665 0.0160103
27.4368 18.7877 2
31.2363 33.8277 3.87872
32.6599 34.1095 2
34.2012 34.1824 0.0929504
33.0099 32.9743 0.177536
33.8532 31.1318 0.123099
35.1785 28.8848 0.102966
37.619 27.2027 0.0560275
35.0501 27.3053 2
32.3642 32.2909 2
33.1163 29.7829 2
32.5381 28.0636 3.9683
31.3554 31.2228 3.89928
28.7948 24.3874 3.98591
29.5691 21.9231 2
30.205 19.3283 0.0135522
34.9763 25.1386 -0.00790832
32.3082 22.3892 0.00982939
31.6922 25.5906 2
29.6409 27.2964 3.96867
30.1815 37.4947 3.87194
32.173 37.5017 2
34.0381 37.5005 0.0533954
33.2329 49.1757 -0.0071962
32.2398 46.3915 0.055345
32.3068 39.2835 0.138966
31.3593 43.7822 0.101047
31.2073 41.1732 0.121554
31.1335 47.9997 2
30.443 39.4663 2
29.9503 41.9819 2
30.3903 44.9866 2
29.1704 46.5928 3.99984
29.0598 39.8578 3.89801
28.6863 43.1839 3.95442
29.846 49.7311 0.0122854
27.8601 48.1909 2
25.9383 46.6756 3.97671
26.4977 49.9984 0.0289333
24.6389 48.4814 2
22.8053 47.0916 3.9772
23.3329 50.2028 0.0259614
21.6505 48.7997 2
19.9722 47.6276 3.97678
20.4567 50.3211 0.028705
19.0256 49.0989 2
17.6639 48.1836 3.97458
16.1378 48.6862 3.97386
16.8876 49.3354 2
15.8462 50.1721 3.97251
15.3755 52.4167 3.97033
16.7685 51.4088 2
17.9815 50.3341 0.0284725
14.8657 54.9795 3.97279
16.3846 53.8736 2
17.8279 52.7942 0.0323315
14.4567 57.7426 3.97824
15.9724 56.4812 2
17.4317 55.3457 0.0271511
14.2649 60.6942 3.98247
15.7475 59.2154 2
17.1314 57.8795 0.0218414
14.3323 63.8597 3.9912
15.7866 62.1414 2
17.1343 60.554 0.0197022
14.6715 67.2507 4
16.0874 65.3005 2
17.4059 63.4706 0.0134974
16.6661 68.6801 2
17.941 66.6181 0.00696158
18.75 69.9759 0
18.9314 15.776 3.9822
20.2176 14.5881 2
18.9779 13.103 3.98418
21.5853 13.5996 0.0160022
20.5285 11.992 2
19.3415 10.2331 3.98825
19.9899 7.1463 3.99287
21.1422 9.14497 2
22.1888 11.0224 0.0143621
20.9142 3.86727 4
22.0149 6.08167 2
23.0392 8.17562 0.0114951
23.1494 2.85451 2
24.1164 5.1427 0.00706131
25.446 1.99014 0
30.481 35.5496 3.87382
32.3199 35.7198 2
34.0849 35.8091 0.0643403
21.3032 15.8213 0.0172082
22.0951 16.6266 2
20.3009 16.9551 2
19.2403 18.4032 3.98082
21.7793 17.8436 3.98166
25.3778 16.079 0.0161979
23.2617 16.2427 0.0172976
24.2014 18.4421 2
22.2746 19.8864 3.97763
24.5871 21.3145 3.98234
26.4127 23.7103 3.97792
27.0086 21.446 2
27.4368 18.7878 0.0149231
29.9838 33.029 3.89634
31.211 33.8059 2
32.6593 34.1066 0.154826
32.3759 32.2959 0.124238
33.1348 29.8078 0.103116
35.0667 27.3289 0.050559
32.5301 28.0549 2
31.3571 31.2161 2
30.1143 29.526 3.96271
27.8796 26.5294 3.97301
28.7966 24.3946 2
29.572 21.921 0.00504592
31.6861 25.6031 -0.00111938
29.637 27.2581 2
28.7271 37.5092 3.90342
30.1735 37.4963 2
32.1721 37.503 0.139099
31.1341 47.9998 0.00381655
30.4123 44.9729 0.0518887
30.4573 39.4562 0.130499
29.9646 41.9692 0.104115
29.1702 46.6073 2
29.0428 39.8692 2
28.6694 43.1958 2
27.275 44.8698 3.98766
26.8295 40.6016 3.97324
27.8609 48.1958 0.0255608
25.9368 46.6777 2
24.0068 45.2292 3.97874
24.6394 48.483 0.0221072
22.8052 47.0907 2
20.9329 45.9058 3.97886
21.651 48.8004 0.0282532
19.9739 47.6271 2
18.3138 46.7433 3.97671
19.0249 49.0994 0.0265731
17.6636 48.1834 2
16.3278 47.7166 3.97429
16.138 48.6861 2
15.1924 49.0173 3.97321
16.8873 49.3355 0.0272132
15.8463 50.172 2
14.4896 50.9854 3.9715
13.8288 53.4347 3.97184
15.3753 52.417 2
16.7687 51.4088 0.030405
13.2525 56.1691 3.97583
14.8653 54.9803 2
16.3851 53.873 0.030075
12.8473 59.1275 3.98183
14.4565 57.7437 2
15.9728 56.4802 0.0241463
12.6779 62.302 3.98936
14.2648 60.6951 2
15.7476 59.2142 0.0205029
12.7746 65.6939 4
14.3317 63.8595 2
15.7867 62.1404 0.0161063
14.6714 67.2507 2
16.0878 65.3005 0.00766067
16.6661 68.6801 0
17.6657 17.152 3.98079
18.9315 15.7755 2
17.5097 14.3679 3.98292
20.2173 14.5884 0.0167754
18.9782 13.1026 2
17.6372 11.4519 3.98744
20.5281 11.9921 0.014975
19.3417 10.2328 2
18.0501 8.33917 3.99279
18.75 5.0241 4
19.9895 7.14645 2
21.1421 9.1453 0.011513
20.9142 3.86727 2
22.0154 6.08165 0.00711794
23.1494 2.85457 0
29.0762 35.1201 3.89799
30.4633 35.5388 2
32.3186 35.7174 0.140051
22.0949 16.6269 0.018794
20.3007 16.9558 0.0173558
21.7794 17.8431 2
19.2404 18.4025 2
17.9773 19.9366 3.97807
20.8729 19.3727 3.98011
24.2012 18.4421 0.0191797
22.2748 19.8859 2
24.5869 21.3155 2
22.3533 21.7131 3.98
24.6906 23.1603 3.97548
25.4614 25.9385 3.96558
26.4153 23.7107 2
27.0095 21.4457 0.0124367
28.3563 32.3107 3.94538
29.9681 33.0226 2
31.2363 33.8277 0.121285
31.3554 31.2228 0.100725
32.5381 28.0636 0.0316969
30.0937 29.5118 2
27.0279 29.1227 3.99706
27.8761 26.5269 2
28.7948 24.3874 0.0140906
29.6409 27.2964 0.0313297
26.9559 37.3675 3.9591
28.7071 37.5026 2
30.1815 37.4947 0.128059
29.1704 46.5928 0.000161245
28.6863 43.1839 0.0455807
29.0598 39.8578 0.101986
27.2751 44.8786 2
26.8181 40.6149 2
25.2827 43.1826 3.97017
24.077 39.4272 3.97905
25.9383 46.6756 0.023295
24.0004 45.2295 2
21.909 43.9615 3.97839
22.8053 47.0916 0.0227971
20.9356 45.9052 2
18.976 44.9756 3.9778
19.9722 47.6276 0.0232226
18.3136 46.7431 2
16.618 46.2156 3.97439
17.6639 48.1836 0.0254238
16.3277 47.7165 2
14.9213 47.6721 3.97282
16.1378 48.6862 0.026139
15.1927 49.0172 2
13.7876 49.5468 3.97216
15.8462 50.1721 0.0274872
14.4897 50.9855 2
12.8962 51.8738 3.97196
12.141 54.5268 3.97438
13.8287 53.4352 2
15.3755 52.4167 0.0296713
11.5322 57.4591 3.98015
13.2522 56.1702 2
14.8657 54.9795 0.0272095
11.1326 60.628 3.98793
12.8471 59.1284 2
14.4567 57.7426 0.0217642
10.9835 64.0165 4
12.6773 62.3015 2
14.2649 60.6942 0.0175329
12.7745 65.694 2
14.3323 63.8597 0.00879502
14.6715 67.2507 0
16.3985 18.6469 3.97926
17.6657 17.1513 2
16.1007 15.7772 3.98227
18.9314 15.776 0.0178008
17.5099 14.3671 2
16.0192 12.8057 3.98543
18.9779 13.103 0.0158229
17.6375 11.4514 2
16.2012 9.66227 3.9926
19.3415 10.2331 0.0117475
18.0497 8.33943 2
16.6661 6.31991 4
18.75 5.02404 2
19.9899 7.1463 0.00713018
20.9142 3.86727 0
27.4684 34.7652 3.94431
29.0545 35.1101 2
30.481 35.5496 0.126175
16.6795 21.3747 3.97382
21.7793 17.8436 0.0183373
19.2403 18.4032 0.0191799
20.873 19.3721 2
17.9775 19.9359 2
19.7207 21.5687 3.98041
22.2746 19.8864 0.0223677
24.5871 21.3145 0.0176619
22.3536 21.7126 2
24.6917 23.1606 2
22.8421 24.5971 3.97093
24.57 28.5214 3.96932
25.4583 25.9373 2
26.4127 23.7103 0.0220845
26.1973 31.694 3.99123
28.34 32.2978 2
29.9838 33.029 0.103657
30.1143 29.526 0.0372928
27.0355 29.1222 2
27.8796 26.5294 0.0269895
24.7783 36.8552 3.98512
26.941 37.3681 2
28.7271 37.5092 0.0965788
27.275 44.8698 0.0123394
26.8295 40.6016 0.0267622
25.276 43.1867 2
24.0676 39.4275 2
22.9851 41.8036 3.98007
21.7939 38.5018 3.97652
24.0068 45.2292 0.0212621
21.9098 43.9612 2
19.7442 42.8923 3.97792
20.9329 45.9058 0.0211423
18.9752 44.9755 2
16.9527 44.3824 3.97421
18.3138 46.7433 0.0232851
16.6179 46.2155 2
14.8406 46.0923 3.9722
16.3278 47.7166 0.0257052
14.9214 47.6721 2
13.294 48.0096 3.97191
15.1924 49.0173 0.0267862
13.7878 49.5468 2
12.1156 50.2525 3.97204
14.4896 50.9854 0.0284969
12.8964 51.874 2
11.1373 52.8357 3.97381
10.3234 55.7105 3.97857
12.141 54.5275 2
13.8288 53.4347 0.028164
9.69931 58.8501 3.98642
11.532 57.46 2
13.2525 56.1691 0.024174
9.30605 62.2254 4
11.1317 60.6272 2
12.8473 59.1275 0.0181711
10.9835 64.0165 2
12.6779 62.302 0.0106425
12.7746 65.6939 0
15.1449 20.1831 3.97541
16.3986 18.6461 2
14.7465 17.3006 3.98035
17.6657 17.152 0.0192074
16.1009 15.7763 2
14.4818 14.288 3.98398
17.5097 14.3679 0.0170832
16.0194 12.805 2
14.4441 11.1134 3.99199
17.6372 11.4519 0.0125646
16.2009 9.66254 2
14.6715 7.74927 4
18.0501 8.33917 0.00721457
16.6661 6.31988 2
18.75 5.0241 0
25.42 34.2597 3.988
27.4523 34.7604 2
29.0762 35.1201 0.102009
17.854 22.3205 3.9824
15.527 22.9192 3.97053
16.6797 21.3739 2
20.8729 19.3727 0.0198853
17.9773 19.9366 0.0219256
19.721 21.568 2
19.6627 24.3782 3.97008
22.3533 21.7131 0.0199987
24.6906 23.1603 0.0245164
22.842 24.5961 2
21.9371 27.8177 3.97077
23.7652 31.1814 3.974
24.5747 28.521 2
25.4614 25.9385 0.0344197
26.1946 31.6868 2
28.3563 32.3107 0.0546242
27.0279 29.1227 0.00294072
22.5283 36.2736 3.9774
24.7645 36.8544 2
26.9559 37.3675 0.040903
25.2827 43.1826 0.0298269
24.077 39.4272 0.0209501
22.9822 41.8021 2
21.7908 38.5018 2
20.7212 40.6336 3.97705
20.1318 37.7819 3.97666
21.909 43.9615 0.0216115
19.745 42.8925 2
17.3721 42.1018 3.97448
18.976 44.9756 0.0222015
16.9527 44.3824 2
14.8452 44.2017 3.97186
16.618 46.2156 0.0256095
14.8405 46.0923 2
12.9648 46.2969 3.97118
14.9213 47.6721 0.0271794
13.2941 48.0097 2
11.4868 48.5499 3.97173
13.7876 49.5468 0.0278405
12.1158 50.2526 2
10.2635 51.0795 3.9734
12.8962 51.8738 0.0280437
11.1375 52.836 2
9.23272 53.8886 3.97774
8.38308 56.9824 3.98524
10.3233 55.711 2
12.141 54.5268 0.0256212
7.74927 60.3285 4
9.69831 58.8486 2
11.5322 57.4591 0.0198453
9.306 62.2255 2
11.1326 60.628 0.0120707
10.9835 64.0165 0
13.9587 21.7511 3.97205
15.1451 20.1822 2
13.448 18.8988 3.97767
16.3985 18.6469 0.0207397
14.7466 17.2995 2
13.0273 15.8811 3.98305
16.1007 15.7772 0.0177274
14.4819 14.2871 2
12.7816 12.6867 3.99071
16.0192 12.8057 0.0145704
14.4437 11.1138 2
12.7746 9.30605 4
16.2012 9.66227 0.00739717
14.6715 7.74924 2
16.6661 6.31991 0
23.0976 33.7959 3.97611
25.4048 34.2574 2
27.4684 34.7652 0.055687
17.6271 24.0402 3.97183
17.8542 22.3197 2
14.3106 24.45 3.97056
15.5272 22.9186 2
16.6795 21.3747 0.0261767
19.0481 27.1983 3.9703
19.7207 21.5687 0.0195879
19.6625 24.3779 2
21.1979 30.6581 3.97197
22.8421 24.5971 0.0290667
21.9385 27.8176 2
23.7572 31.1817 2
24.57 28.5214 0.0306783
26.1973 31.694 0.00876759
20.271 35.9201 3.97594
22.5268 36.2738 2
24.7783 36.8552 0.0148763
22.9851 41.8036 0.0199346
21.7939 38.5018 0.0234815
20.719 40.6338 2
20.1298 37.7819 2
18.0989 39.001 3.97496
19.7442 42.8923 0.0220811
17.3718 42.1018 2
14.8115 41.9185 3.97226
16.9527 44.3824 0.0257865
14.8451 44.2017 2
12.7045 44.3928 3.97037
14.8406 46.0923 0.0278032
12.9648 46.297 2
10.9877 46.7343 3.97118
13.294 48.0096 0.0280916
11.487 48.55 2
9.52689 49.2397 3.97288
12.1156 50.2525 0.0279595
10.2637 51.0797 2
8.26598 52.0016 3.97708
11.1373 52.8357 0.0261948
9.23296 53.8885 2
7.19221 55.0322 3.98494
6.31991 58.3339 4
8.38219 56.9801 2
10.3234 55.7105 0.021428
7.74924 60.3285 2
9.69931 58.8501 0.0135763
9.30605 62.2254 0
13.2288 25.362 3.97251
12.8273 23.2816 3.97134
13.959 21.7503 2
12.2345 20.5488 3.97568
15.1449 20.1831 0.0245872
13.4481 18.8976 2
11.6573 17.5626 3.98168
14.7465 17.3006 0.0196496
13.0273 15.8801 2
11.2191 14.3718 3.98899
14.4818 14.288 0.016023
12.7812 12.6871 2
10.9835 10.9835 4
14.4441 11.1134 0.00800954
12.7745 9.306 2
14.6715 7.74927 0
20.6374 33.3908 3.97435
23.1 33.796 2
25.42 34.2597 0.012004
15.9022 26.3974 3.97073
17.6272 24.0397 2
17.854 22.3205 0.0176049
14.3106 24.4496 2
15.527 22.9192 0.0294678
18.4018 30.1684 3.97242
19.0474 27.1981 2
19.6627 24.3782 0.0299239
21.2016 30.6581 2
21.9371 27.8177 0.0292314
23.7652 31.1814 0.0259999
17.7343 35.9619 3.97495
20.2727 35.9201 2
22.5283 36.2736 0.0226032
20.7212 40.6336 0.0229465
20.1318 37.7819 0.0233394
18.0995 39.001 2
14.3422 39.1757 3.97281
17.3721 42.1018 0.0255216
14.8113 41.9185 2
12.3978 42.2769 3.97028
14.8452 44.2017 0.0281401
12.7044 44.3929 2
10.5647 44.8031 3.97036
12.9648 46.2969 0.028815
10.9878 46.7344 2
8.90903 47.3193 3.97241
11.4868 48.5499 0.0282651
9.52707 49.2398 2
7.43319 50.035 3.97636
10.2635 51.0795 0.0265989
8.26628 52.0013 2
6.13293 53.0066 3.98514
9.23272 53.8886 0.0222641
7.19168 55.0297 2
5.0241 56.25 4
6.31988 58.3339 2
8.38308 56.9824 0.0147569
7.74927 60.3285 0
13.4653 26.8133 3.9704
11.9407 24.7884 3.97259
13.229 25.3618 2
11.1392 22.2347 3.97344
12.8276 23.2809 2
13.9587 21.7511 0.0279542
12.2349 20.5478 2
10.3881 19.3181 3.98
13.448 18.8988 0.0223347
11.6574 17.5615 2
9.76003 16.1555 3.98734
13.0273 15.8811 0.0169525
11.2185 14.3723 2
9.30607 12.7746 4
12.7816 12.6867 0.00928513
10.9835 10.9835 2
12.7746 9.30605 0
17.896 33.1075 3.9741
20.6387 33.3909 2
23.0976 33.7959 0.0238932
15.4994 29.6334 3.97178
15.9011 26.3971 2
17.6271 24.0402 0.028167
14.3106 24.45 0.0294421
18.4033 30.1684 2
19.0481 27.1983 0.0296984
21.1979 30.6581 0.0280271
14.949 36.0168 3.97337
17.7347 35.962 2
20.271 35.9201 0.0240558
12.6209 37.8288 3.97265
18.0989 39.001 0.0250442
14.3425 39.1757 2
11.9201 40.1404 3.97089
14.8115 41.9185 0.0277414
12.3975 42.2769 2
10.1649 42.7782 3.96967
12.7045 44.3928 0.0296296
10.5647 44.8032 2
8.38698 45.3214 3.97167
10.9877 46.7343 0.0288196
8.90908 47.3194 2
6.72447 48.0004 3.97592
9.52689 49.2397 0.0271237
7.43337 50.0347 2
5.20987 50.9098 3.9851
8.26598 52.0016 0.0229201
6.13265 53.0047 2
3.86727 54.0858 4
7.19221 55.0322 0.0150581
5.02404 56.25 2
6.31991 58.3339 0
12.9205 29.0315 3.9703
11.3703 26.487 3.97105
13.4651 26.8131 2
10.1989 23.9682 3.97272
11.941 24.788 2
13.2288 25.362 0.0274943
9.24134 21.138 3.97778
11.1396 22.2339 2
12.8273 23.2816 0.0286561
12.2345 20.5488 0.0243233
10.3884 19.3172 2
8.41597 18.0271 3.98612
11.6573 17.5626 0.0183158
9.75924 16.1566 2
7.74928 14.6715 4
11.2191 14.3718 0.0110098
9.30602 12.7745 2
10.9835 10.9835 0
14.5107 32.8603 3.97276
17.8974 33.1075 2
20.6374 33.3908 0.0256455
15.4995 29.6333 2
15.9022 26.3974 0.0292702
18.4018 30.1684 0.0275804
12.9149 36.2083 3.972
14.9493 36.0168 2
17.7343 35.9619 0.0250472
12.6211 37.8287 2
11.2771 38.3095 3.97147
14.3422 39.1757 0.0271917
11.9202 40.1403 2
9.75186 40.7545 3.96946
12.3978 42.2769 0.0297166
10.1649 42.7782 2
7.93704 43.2701 3.97048
10.5647 44.8031 0.0296374
8.38696 45.3215 2
6.13079 45.9056 3.97539
8.90903 47.3193 0.0275884
6.72453 48.0001 2
4.42154 48.7508 3.98493
7.43319 50.035 0.0236436
5.20971 50.9086 2
2.85457 51.8506 4
6.13293 53.0066 0.0148646
3.86727 54.0858 2
5.0241 56.25 0
12.0662 31.255 3.97112
10.7821 28.4142 3.97002
12.9203 29.0313 2
9.41365 25.7982 3.97242
11.3703 26.4867 2
13.4653 26.8133 0.0296048
8.22906 23.0234 3.97642
10.1993 23.9678 2
11.9407 24.7884 0.0274083
7.19837 19.978 3.98502
9.24183 21.1375 2
11.1392 22.2347 0.0265569
10.3881 19.3181 0.0200008
8.41528 18.0289 2
6.31992 16.6661 4
9.76003 16.1555 0.0126618
7.74926 14.6714 2
9.30607 12.7746 0
12.1005 34.2938 3.97205
14.5102 32.8603 2
17.896 33.1075 0.0259003
15.4994 29.6334 0.0282173
10.8404 36.6108 3.97127
12.9152 36.2082 2
14.949 36.0168 0.0266343
12.6209 37.8288 0.0273532
11.2772 38.3095 2
9.34789 38.8236 3.96971
11.9201 40.1404 0.0291087
9.75209 40.7545 2
7.5494 41.2113 3.96978
10.1649 42.7782 0.0303328
7.93705 43.2701 2
5.64332 43.7686 3.97452
8.38698 45.3214 0.0283307
6.13077 45.9055 2
3.76729 46.5369 3.98448
6.72447 48.0004 0.0240769
4.42146 48.7502 2
1.99014 49.554 4
5.20987 50.9098 0.014898
2.85451 51.8506 2
3.86727 54.0858 0
10.9241 32.9183 3.97157
10.0952 30.3815 3.96986
12.0661 31.255 2
8.72171 27.7317 3.97166
10.7821 28.414 2
12.9205 29.0315 0.0296951
7.35467 24.9825 3.97593
9.41378 25.7979 2
11.3703 26.487 0.0289472
6.11551 22.0024 3.98465
8.22958 23.0233 2
10.1989 23.9682 0.0272753
5.02411 18.75 4
7.19803 19.9801 2
9.24134 21.138 0.0222208
8.41597 18.0271 0.0138783
6.3199 16.6661 2
7.74928 14.6715 0
10.4481 34.9996 3.97108
12.1006 34.2937 2
14.5107 32.8603 0.0272414
9.01875 36.9849 3.96989
10.8409 36.6108 2
12.9149 36.2083 0.0279993
11.2771 38.3095 0.0285343
9.34791 38.8235 2
7.23017 39.182 3.96986
9.75186 40.7545 0.0305389
7.54958 41.2113 2
5.25943 41.6142 3.97334
7.93704 43.2701 0.0295185
5.64331 43.7684 2
3.24524 44.282 3.98371
6.13079 45.9056 0.0246059
3.76728 46.5367 2
1.27781 47.2057 4
4.42154 48.7508 0.0150708
1.99012 49.554 2
2.85457 51.8506 0
10.0903 33.881 3.97116
9.38824 32.1541 3.97046
10.9241 32.9183 2
8.07119 29.6953 3.97107
10.0951 30.3814 2
12.0662 31.255 0.0288819
6.59849 27.0085 3.97539
8.7217 27.7315 2
10.7821 28.4142 0.0299758
5.1709 24.0956 3.98487
7.35491 24.9825 2
9.41365 25.7982 0.0275828
3.86728 20.9142 4
6.11545 22.004 2
8.22906 23.0234 0.02358
5.02406 18.75 2
7.19837 19.978 0.0149765
6.31992 16.6661 0
8.84432 35.2792 3.9702
10.4482 34.9996 2
12.1005 34.2938 0.0279529
7.01391 37.2058 3.97002
9.01866 36.9848 2
10.8404 36.6108 0.0287293
9.34789 38.8236 0.0302857
7.23023 39.182 2
4.98758 39.4675 3.973
7.5494 41.2113 0.0302165
5.25961 41.6139 2
2.85604 42.0024 3.98275
5.64332 43.7686 0.0254788
3.24527 44.2819 2
0.720592 44.8159 4
3.76729 46.5369 0.0155236
1.27778 47.2057 2
1.99014 49.554 0
8.88474 33.6975 3.9709
10.0904 33.8809 2
7.5089 31.6089 3.97134
9.38819 32.154 2
10.9241 32.9183 0.028432
5.94394 29.0695 3.9749
8.0711 29.6952 2
10.0952 30.3815 0.0301372
4.35868 26.248 3.98461
6.59856 27.0085 2
8.72171 27.7317 0.0283369
2.85458 23.1494 4
5.17086 24.0964 2
7.35467 24.9825 0.0240713
3.86728 20.9142 2
6.11551 22.0024 0.0153452
5.02411 18.75 0
6.96415 35.3059 3.97017
8.84451 35.2791 2
10.4481 34.9996 0.0289196
4.83769 37.3399 3.97337
7.01399 37.2058 2
9.01875 36.9849 0.0301061
7.23017 39.182 0.030145
4.98762 39.4674 2
2.60431 39.7141 3.98218
5.25943 41.6142 0.0266591
2.85624 42.0026 2
0.320823 42.3947 4
3.24524 44.282 0.0162863
0.720551 44.8159 2
1.27781 47.2057 0
7.12323 33.4607 3.97119
8.8848 33.6974 2
10.0903 33.881 0.0288386
5.41507 31.1334 3.97474
7.50881 31.6088 2
9.38824 32.1541 0.0295353
3.68059 28.4437 3.98404
5.94387 29.0695 2
8.07119 29.6953 0.028933
1.99015 25.446 4
4.35868 26.2483 2
6.59849 27.0085 0.0246136
2.85453 23.1494 2
5.1709 24.0956 0.0151342
3.86728 20.9142 0
4.852 35.2516 3.9734
6.96434 35.3058 2
8.84432 35.2792 0.0297997
2.49569 37.4286 3.98254
4.83777 37.34 2
7.01391 37.2058 0.0299758
4.98758 39.4675 0.026996
2.60441 39.7144 2
0.080333 39.9526 4
2.85604 42.0024 0.0172514
0.320817 42.3947 2
0.720592 44.8159 0
5.04486 33.1901 3.97431
7.12328 33.4607 2
8.88474 33.6975 0.0291017
3.14506 30.6662 3.98344
5.41498 31.1335 2
7.5089 31.6089 0.0286614
1.27793 27.7943 4
3.68059 28.4437 2
5.94394 29.0695 0.0251013
1.99013 25.446 2
4.35868 26.248 0.0153908
2.85458 23.1494 0
2.54783 35.1591 3.98263
4.85218 35.2517 2
6.96415 35.3059 0.0298294
0 37.5 4
2.49584 37.4289 2
4.83769 37.3399 0.0266288
2.60431 39.7141 0.017824
0.0802903 39.9526 2
0.320823 42.3947 0
2.76524 32.9058 3.98309
5.04491 33.1903 2
7.12323 33.4607 0.0288099
0.721173 30.1842 4
3.14508 30.6664 2
5.41507 31.1334 0.0252605
1.27779 27.7943 2
3.68059 28.4437 0.0159564
1.99015 25.446 0
0.0806499 35.0474 4
2.54803 35.1594 2
4.852 35.2516 0.0265972
0 37.5 2
2.49569 37.4286 0.0174565
0.080333 39.9526 0
0.32156 32.6054 4
2.76535 32.9062 2
5.04486 33.1901 0.0256933
0.72056 30.1841 2
3.14506 30.6662 0.0165642
1.27793 27.7943 0
0.0802889 35.0474 2
2.54783 35.1591 0.0173731
0 37.5 0
0.320817 32.6053 2
2.76524 32.9058 0.016914
0.721173 30.1842 0
0.0806499 35.0474 0
0.32156 32.6054 0
CELLS 1910 17190
8 18 6 25 56 2 0 5 16
8 57 23 6 18 17 4 0 2
8 78 36 9 29 31 11 1 7
8 31 11 1 7 79 37 10 30
8 110 57 18 50 48 17 2 14
8 50 18 56 111 14 2 16 49
8 116 62 22 55 52 20 3 15
8 56 25 67 118 16 5 24 53
8 119 63 23 57 54 21 4 17
8 55 22 63 119 15 3 21 54
8 58 26 68 121 18 6 25 56
8 122 65 26 58 57 23 6 18
8 73 31 7 27 142 79 30 71
8 143 78 29 72 73 31 7 27
8 83 147 76 34 32 74 28 8
8 84 148 78 36 33 75 29 9
8 76 34 8 28 148 84 33 75
8 37 79 150 86 10 30 77 35
8 151 87 36 78 80 38 11 31
8 80 38 11 31 152 88 37 79
8 175 100 42 94 96 44 12 40
8 44 96 176 101 12 40 95 43
8 101 176 98 46 43 95 41 13
8 46 98 178 103 13 41 97 45
8 178 103 45 97 147 83 32 74
8 189 116 55 109 106 52 15 47
8 111 56 118 191 49 16 53 107
8 192 119 57 110 108 54 17 48
8 109 55 119 192 47 15 54 108
8 194 122 58 112 110 57 18 50
8 112 58 121 195 50 18 56 111
8 115 61 19 51 197 124 59 113
8 115 61 125 198 51 19 60 114
8 198 125 62 116 114 60 20 52
8 200 127 64 120 116 62 22 55
8 118 67 132 202 53 24 66 117
8 121 68 133 203 56 25 67 118
8 120 64 128 204 55 22 63 119
8 204 128 65 122 119 63 23 57
8 206 134 68 121 123 69 26 58
8 123 69 26 58 207 131 65 122
8 226 147 74 138 140 76 28 70
8 229 148 75 139 143 78 29 72
8 140 76 28 70 229 148 75 139
8 142 79 30 71 231 150 77 141
8 144 80 31 73 232 152 79 142
8 233 151 78 143 144 80 31 73
8 150 86 35 77 235 154 81 145
8 235 154 81 145 146 82 39 91
8 146 82 39 91 236 155 90 165
8 238 157 83 147 149 85 34 76
8 239 158 84 148 151 87 36 78
8 149 85 34 76 239 158 84 148
8 152 88 37 79 241 160 86 150
8 242 161 87 151 153 89 38 80
8 153 89 38 80 243 162 88 152
8 171 98 41 92 265 178 97 169
8 265 178 97 169 226 147 74 138
8 172 96 40 93 266 176 95 170
8 266 176 95 170 171 98 41 92
8 269 175 94 173 172 96 40 93
8 271 180 99 174 175 100 42 94
8 197 124 59 113 271 180 99 174
8 272 181 100 175 177 102 44 96
8 273 182 101 176 179 104 46 98
8 177 102 44 96 273 182 101 176
8 179 104 46 98 275 184 103 178
8 275 184 103 178 238 157 83 147
8 188 115 51 105 283 197 113 186
8 188 115 198 284 105 51 114 187
8 284 198 116 189 187 114 52 106
8 286 200 120 193 189 116 55 109
8 191 118 202 288 107 53 117 190
8 195 121 203 289 111 56 118 191
8 193 120 204 290 109 55 119 192
8 290 204 122 194 192 119 57 110
8 196 123 58 112 292 207 122 194
8 293 206 121 195 196 123 58 112
8 199 126 61 115 297 211 124 197
8 298 212 127 200 198 125 62 116
8 199 126 212 298 115 61 125 198
8 205 129 64 120 300 214 127 200
8 301 217 130 201 202 132 66 117
8 209 136 168 264 301 217 130 201
8 302 219 132 202 203 133 67 118
8 303 220 133 203 206 134 68 121
8 205 129 215 304 120 64 128 204
8 304 215 131 207 204 128 65 122
8 306 221 134 206 208 135 69 123
8 208 135 69 123 307 218 131 207
8 210 137 167 263 309 223 136 209
8 328 238 147 226 230 149 76 140
8 228 146 91 166 329 236 165 260
8 231 150 77 141 330 235 145 227
8 330 235 145 227 228 146 91 166
8 332 239 148 229 233 151 78 143
8 230 149 76 140 332 239 148 229
8 232 152 79 142 334 241 150 231
8 234 153 80 144 335 243 152 232
8 336 242 151 233 234 153 80 144
8 236 155 90 165 338 245 164 259
8 241 160 86 150 339 246 154 235
8 339 246 154 235 237 156 82 146
8 237 156 82 146 340 247 155 236
8 342 249 157 238 240 159 85 149
8 343 250 158 239 242 161 87 151
8 240 159 85 149 343 250 158 239
8 243 162 88 152 345 252 160 241
8 244 163 253 346 153 89 161 242
8 244 163 89 153 347 254 162 243
8 311 224 261 371 210 137 167 263
8 263 167 262 372 209 136 168 264
8 267 179 98 171 375 275 178 265
8 375 275 178 265 328 238 147 226
8 376 273 176 266 267 179 98 171
8 268 177 96 172 376 273 176 266
8 379 272 175 269 268 177 96 172
8 380 271 174 270 269 175 94 173
8 283 197 113 186 380 271 174 270
8 381 277 180 271 272 181 100 175
8 297 211 124 197 381 277 180 271
8 382 278 181 272 274 183 102 177
8 274 183 102 177 383 279 182 273
8 383 279 182 273 276 185 104 179
8 385 281 184 275 342 249 157 238
8 276 185 104 179 385 281 184 275
8 285 199 115 188 393 297 197 283
8 394 298 200 286 284 198 116 189
8 285 199 298 394 188 115 198 284
8 291 205 120 193 396 300 200 286
8 397 301 201 287 288 202 117 190
8 295 209 264 374 397 301 201 287
8 398 302 202 288 289 203 118 191
8 399 303 203 289 293 206 121 195
8 291 205 304 400 193 120 204 290
8 400 304 207 292 290 204 122 194
8 294 208 123 196 402 307 207 292
8 403 306 206 293 294 208 123 196
8 296 210 263 373 405 309 209 295
8 408 312 213 299 297 211 126 199
8 299 213 313 409 199 126 212 298
8 409 313 214 300 298 212 127 200
8 305 216 129 205 411 315 214 300
8 412 318 217 301 302 219 132 202
8 309 223 136 209 412 318 217 301
8 413 320 219 302 303 220 133 203
8 306 221 321 414 206 134 220 303
8 307 218 131 207 415 316 215 304
8 305 216 316 415 205 129 215 304
8 417 322 221 306 308 222 135 208
8 308 222 135 208 418 319 218 307
8 310 225 137 210 420 325 223 309
8 423 326 224 311 310 225 137 210
8 329 236 165 260 441 338 259 368
8 442 342 238 328 333 240 149 230
8 331 237 146 228 443 340 236 329
8 334 241 150 231 444 339 235 330
8 444 339 235 330 331 237 146 228
8 446 343 239 332 336 242 151 233
8 333 240 149 230 446 343 239 332
8 335 243 152 232 448 345 241 334
8 337 244 153 234 449 347 243 335
8 337 244 346 450 234 153 242 336
8 338 245 164 259 452 349 258 367
8 340 247 155 236 453 350 245 338
8 345 252 160 241 454 351 246 339
8 454 351 246 339 341 248 156 237
8 341 248 156 237 455 352 247 340
8 240 159 251 344 342 249 354 457
8 242 161 253 346 343 250 355 458
8 343 250 355 458 240 159 251 344
8 347 254 162 243 460 357 252 345
8 348 255 358 461 244 163 253 346
8 348 255 163 244 462 359 254 347
8 473 360 257 365 363 256 364 482
8 452 349 258 367 365 257 366 485
8 422 324 369 488 311 224 261 371
8 371 261 370 490 263 167 262 372
8 407 311 371 491 296 210 263 373
8 373 263 372 492 295 209 264 374
8 493 385 275 375 442 342 238 328
8 377 276 179 267 493 385 275 375
8 378 274 177 268 494 383 273 376
8 494 383 273 376 377 276 179 267
8 497 382 272 379 378 274 177 268
8 498 381 271 380 379 272 175 269
8 393 297 197 283 498 381 271 380
8 499 387 277 381 382 278 181 272
8 408 312 211 297 499 387 277 381
8 500 388 278 382 384 280 183 274
8 501 389 279 383 386 282 185 276
8 384 280 183 274 501 389 279 383
8 386 282 185 276 503 391 281 385
8 503 391 281 385 457 354 249 342
8 511 408 299 395 393 297 199 285
8 395 299 409 512 285 199 298 394
8 512 409 300 396 394 298 200 286
8 401 305 205 291 514 411 300 396
8 515 412 301 397 398 302 202 288
8 405 309 209 295 515 412 301 397
8 516 413 302 398 399 303 203 289
8 403 306 414 517 293 206 303 399
8 402 307 207 292 518 415 304 400
8 401 305 415 518 291 205 304 400
8 404 308 208 294 520 418 307 402
8 521 417 306 403 404 308 208 294
8 406 310 210 296 523 420 309 405
8 526 423 311 407 406 310 210 296
8 410 314 213 299 527 424 312 408
8 528 425 315 411 409 313 214 300
8 410 314 425 528 299 213 313 409
8 416 317 216 305 530 427 315 411
8 531 430 318 412 413 320 219 302
8 420 325 223 309 531 430 318 412
8 532 432 320 413 414 321 220 303
8 417 322 433 533 306 221 321 414
8 418 319 218 307 534 428 316 415
8 416 317 428 534 305 216 316 415
8 419 323 434 536 308 222 322 417
8 419 323 222 308 537 431 319 418
8 421 327 225 310 539 438 325 420
8 421 327 439 541 310 225 326 423
8 543 437 324 422 423 326 224 311
8 441 338 259 368 559 452 367 486
8 443 340 236 329 560 453 338 441
8 333 240 344 447 442 342 457 561
8 445 341 237 331 562 455 340 443
8 448 345 241 334 563 454 339 444
8 563 454 339 444 445 341 237 331
8 336 242 346 450 446 343 458 565
8 446 343 458 565 333 240 344 447
8 449 347 243 335 567 460 345 448
8 451 348 244 337 568 462 347 449
8 451 348 461 569 337 244 346 450
8 570 463 349 452 473 360 257 365
8 453 350 245 338 570 463 349 452
8 455 352 247 340 571 464 350 453
8 460 357 252 345 572 465 351 454
8 572 465 351 454 456 353 248 341
8 456 353 248 341 573 466 352 455
8 344 251 356 459 457 354 468 575
8 458 355 469 576 344 251 356 459
8 346 253 358 461 458 355 469 576
8 462 359 254 347 578 471 357 460
8 348 255 359 462 461 358 472 579
8 591 474 360 473 475 361 256 363
8 475 361 256 363 594 477 362 479
8 363 256 364 482 479 362 480 603
8 590 473 365 484 481 363 482 605
8 482 364 257 365 606 483 366 485
8 559 452 367 486 484 365 485 607
8 542 436 487 609 422 324 369 488
8 525 422 488 611 407 311 371 491
8 488 369 489 612 371 261 370 490
8 491 371 490 613 373 263 372 492
8 495 386 276 377 614 503 385 493
8 614 503 385 493 561 457 342 442
8 615 501 383 494 495 386 276 377
8 496 384 274 378 615 501 383 494
8 618 500 382 497 496 384 274 378
8 619 499 381 498 497 382 272 379
8 511 408 297 393 619 499 381 498
8 620 505 387 499 500 388 278 382
8 527 424 312 408 620 505 387 499
8 502 390 506 621 384 280 388 500
8 622 507 389 501 504 392 282 386
8 502 390 280 384 622 507 389 501
8 504 392 282 386 624 509 391 503
8 624 509 391 503 575 468 354 457
8 513 410 299 395 630 527 408 511
8 631 528 411 514 512 409 300 396
8 513 410 528 631 395 299 409 512
8 519 416 305 401 633 530 411 514
8 634 531 412 515 516 413 302 398
8 523 420 309 405 634 531 412 515
8 635 532 413 516 517 414 303 399
8 521 417 533 636 403 306 414 517
8 520 418 307 402 637 534 415 518
8 519 416 534 637 401 305 415 518
8 522 419 308 404 639 537 418 520
8 522 419 536 640 404 308 417 521
8 524 421 310 406 642 539 420 523
8 524 421 541 644 406 310 423 526
8 646 543 422 525 526 423 311 407
8 529 426 314 410 647 544 424 527
8 528 425 545 648 411 315 427 530
8 529 426 545 648 410 314 425 528
8 535 429 317 416 649 546 427 530
8 650 548 430 531 532 432 320 413
8 539 438 325 420 650 548 430 531
8 533 433 550 651 414 321 432 532
8 536 434 551 652 417 322 433 533
8 537 431 319 418 653 547 428 534
8 535 429 547 653 416 317 428 534
8 538 435 552 654 419 323 434 536
8 538 435 323 419 655 549 431 537
8 540 440 327 421 657 556 438 539
8 540 440 557 659 421 327 439 541
8 541 439 555 660 423 326 437 543
8 661 554 436 542 543 437 324 422
8 676 570 452 559 590 473 365 484
8 560 453 338 441 676 570 452 559
8 562 455 340 443 677 571 453 560
8 447 344 459 566 561 457 575 678
8 564 456 341 445 679 573 455 562
8 567 460 345 448 680 572 454 563
8 680 572 454 563 564 456 341 445
8 565 458 576 682 447 344 459 566
8 450 346 461 569 565 458 576 682
8 568 462 347 449 684 578 460 567
8 451 348 462 568 569 461 579 685
8 686 580 463 570 591 474 360 473
8 571 464 350 453 686 580 463 570
8 573 466 352 455 687 581 464 571
8 572 465 582 688 460 357 471 578
8 574 467 582 688 456 353 465 572
8 574 467 353 456 689 583 466 573
8 459 356 470 577 575 468 585 691
8 576 469 586 692 459 356 470 577
8 461 358 472 579 576 469 586 692
8 462 359 471 578 579 472 588 694
8 704 591 473 590 593 475 363 481
8 595 476 592 705 475 361 474 591
8 593 475 363 481 707 594 479 602
8 594 477 362 479 709 598 478 600
8 595 476 361 475 711 597 477 594
8 479 362 480 603 600 478 601 720
8 481 363 482 605 602 479 603 722
8 603 480 364 482 723 604 483 606
8 605 482 365 484 724 606 485 607
8 656 553 608 726 542 436 487 609
8 645 542 609 728 525 422 488 611
8 609 487 610 729 488 369 489 612
8 611 488 612 730 491 371 490 613
8 616 504 386 495 731 624 503 614
8 731 624 503 614 678 575 457 561
8 732 622 501 615 616 504 386 495
8 617 502 384 496 732 622 501 615
8 617 502 621 735 496 384 500 618
8 736 620 499 619 618 500 382 497
8 630 527 408 511 736 620 499 619
8 621 506 626 737 500 388 505 620
8 647 544 424 527 737 626 505 620
8 623 508 627 738 502 390 506 621
8 623 508 390 502 739 628 507 622
8 625 510 628 739 504 392 507 622
8 740 629 509 624 691 585 468 575
8 625 510 392 504 740 629 509 624
8 632 529 410 513 744 647 527 630
8 631 528 648 745 514 411 530 633
8 632 529 648 745 513 410 528 631
8 638 535 416 519 746 649 530 633
8 747 650 531 634 635 532 413 516
8 642 539 420 523 747 650 531 634
8 636 533 651 748 517 414 532 635
8 640 536 652 749 521 417 533 636
8 639 537 418 520 750 653 534 637
8 638 535 653 750 519 416 534 637
8 641 538 419 522 751 655 537 639
8 641 538 654 752 522 419 536 640
8 643 540 421 524 753 657 539 642
8 643 540 659 755 524 421 541 644
8 644 541 660 757 526 423 543 646
8 758 661 542 645 646 543 422 525
8 529 426 544 647 648 545 662 759
8 530 427 545 648 649 546 663 760
8 535 429 546 649 653 547 664 761
8 762 666 548 650 651 550 432 532
8 657 556 438 539 762 666 548 650
8 652 551 668 763 533 433 550 651
8 654 552 669 764 536 434 551 652
8 655 549 431 537 765 665 547 653
8 538 435 549 655 654 552 667 766
8 661 554 671 768 542 436 553 656
8 658 558 440 540 769 674 556 657
8 658 558 675 770 540 440 557 659
8 659 557 673 771 541 439 555 660
8 660 555 672 772 543 437 554 661
8 788 686 570 676 704 591 473 590
8 677 571 453 560 788 686 570 676
8 679 573 455 562 789 687 571 677
8 566 459 577 683 678 575 691 790
8 681 574 456 564 791 689 573 679
8 680 572 688 792 567 460 578 684
8 681 574 688 792 564 456 572 680
8 682 576 692 794 566 459 577 683
8 569 461 579 685 682 576 692 794
8 568 462 578 684 685 579 694 796
8 687 581 464 571 798 696 580 686
8 798 696 580 686 705 592 474 591
8 689 583 466 573 799 697 581 687
8 688 582 698 800 578 471 588 694
8 690 584 698 800 574 467 582 688
8 690 584 467 574 801 699 583 689
8 693 587 701 803 577 470 585 691
8 693 587 470 577 804 702 586 692
8 695 589 702 804 579 472 586 692
8 695 589 472 579 805 703 588 694
8 708 595 705 813 593 475 591 704
8 710 596 706 814 595 476 592 705
8 707 594 479 602 816 709 600 719
8 708 595 475 593 817 711 594 707
8 709 598 478 600 819 715 599 717
8 711 597 477 594 820 714 598 709
8 710 596 476 595 822 713 597 711
8 600 478 601 720 717 599 718 832
8 602 479 603 722 719 600 720 834
8 720 601 480 603 835 721 604 723
8 722 603 482 605 836 723 606 724
8 767 670 725 839 656 553 608 726
8 756 656 726 841 645 542 609 728
8 726 608 727 842 609 487 610 729
8 728 609 729 843 611 488 612 730
8 844 740 624 731 790 691 575 678
8 733 625 504 616 844 740 624 731
8 734 623 502 617 845 739 622 732
8 733 625 739 845 616 504 622 732
8 734 623 738 846 617 502 621 735
8 735 621 737 847 618 500 620 736
8 744 647 527 630 847 737 620 736
8 621 506 627 738 737 626 741 848
8 647 544 626 737 759 662 741 848
8 623 508 628 739 738 627 742 849
8 740 629 585 691 850 743 700 802
8 625 510 629 740 739 628 743 850
8 632 529 647 744 745 648 759 854
8 633 530 648 745 746 649 760 855
8 638 535 649 746 750 653 761 856
8 857 762 650 747 748 651 532 635
8 753 657 539 642 857 762 650 747
8 749 652 763 858 636 533 651 748
8 752 654 764 859 640 536 652 749
8 751 655 537 639 860 765 653 750
8 641 538 655 751 752 654 766 861
8 754 658 540 643 862 769 657 753
8 754 658 770 863 643 540 659 755
8 755 659 771 864 644 541 660 757
8 758 661 768 866 645 542 656 756
8 757 660 772 867 646 543 661 758
8 759 662 773 868 648 545 663 760
8 649 546 663 760 761 664 774 871
8 765 665 547 653 872 775 664 761
8 873 777 666 762 763 668 550 651
8 769 674 556 657 873 777 666 762
8 764 669 779 874 652 551 668 763
8 654 552 667 766 764 669 778 875
8 655 549 665 765 766 667 776 876
8 768 671 782 877 656 553 670 767
8 772 672 783 878 661 554 671 768
8 658 558 674 769 770 675 786 879
8 659 557 675 770 771 673 785 881
8 882 784 672 772 771 673 555 660
8 789 687 571 677 897 798 686 788
8 897 798 686 788 813 705 591 704
8 791 689 573 679 898 799 687 789
8 795 693 803 900 683 577 691 790
8 793 690 574 681 901 801 689 791
8 792 688 800 902 684 578 694 796
8 793 690 800 902 681 574 688 792
8 795 693 577 683 903 804 692 794
8 797 695 804 903 685 579 692 794
8 797 695 579 685 904 805 694 796
8 905 806 697 799 798 696 581 687
8 814 706 806 905 705 592 696 798
8 689 583 697 799 801 699 808 907
8 800 698 809 908 694 588 703 805
8 690 584 699 801 800 698 809 908
8 803 701 810 909 691 585 700 802
8 693 587 702 804 803 701 811 910
8 695 589 703 805 804 702 812 911
8 818 710 814 919 708 595 705 813
8 821 712 815 920 710 596 706 814
8 816 709 600 719 922 819 717 831
8 817 711 594 707 923 820 709 816
8 818 710 595 708 924 822 711 817
8 819 715 599 717 926 827 716 829
8 820 714 598 709 927 826 715 819
8 929 825 713 822 820 714 597 711
8 821 712 596 710 930 824 713 822
8 717 599 718 832 829 716 830 942
8 719 600 720 834 831 717 832 944
8 832 718 601 720 945 833 721 835
8 834 720 603 722 946 835 723 836
8 869 780 838 950 767 670 725 839
8 865 767 839 952 756 656 726 841
8 839 725 840 953 726 608 727 842
8 841 726 842 954 728 609 729 843
8 844 740 691 790 955 850 802 899
8 733 625 740 844 845 739 850 955
8 734 623 739 845 846 738 849 956
8 735 621 738 846 847 737 848 957
8 744 647 737 847 854 759 848 957
8 738 627 742 849 848 741 851 958
8 848 741 851 958 759 662 773 868
8 850 743 700 802 959 852 807 906
8 849 742 628 739 959 852 743 850
8 854 759 868 965 745 648 760 855
8 746 649 760 855 856 761 871 966
8 860 765 653 750 967 872 761 856
8 968 873 762 857 858 763 651 748
8 862 769 657 753 968 873 762 857
8 859 764 874 969 749 652 763 858
8 752 654 766 861 859 764 875 970
8 751 655 765 860 861 766 876 971
8 754 658 769 862 863 770 879 972
8 755 659 770 863 864 771 881 974
8 976 882 772 867 864 771 660 757
8 866 768 877 977 756 656 767 865
8 867 772 878 978 758 661 768 866
8 760 663 773 868 871 774 883 980
8 870 781 837 948 982 890 780 869
8 982 890 780 869 877 782 670 767
8 761 664 774 871 872 775 884 984
8 876 776 665 765 985 885 775 872
8 873 777 668 763 986 887 779 874
8 769 674 777 873 879 786 887 986
8 764 669 778 875 874 779 888 987
8 766 667 776 876 875 778 886 988
8 878 783 892 989 768 671 782 877
8 878 783 672 772 990 893 784 882
8 880 787 675 770 991 896 786 879
8 880 787 895 992 770 675 785 881
8 881 785 894 993 771 673 784 882
8 1006 905 799 898 897 798 687 789
8 919 814 905 1006 813 705 798 897
8 791 689 799 898 901 801 907 1007
8 900 803 909 1009 790 691 802 899
8 795 693 804 903 900 803 910 1010
8 902 800 908 1011 796 694 805 904
8 793 690 801 901 902 800 908 1011
8 797 695 805 904 903 804 911 1012
8 799 697 806 905 907 808 912 1013
8 920 815 912 1013 814 706 806 905
8 802 700 810 909 906 807 913 1014
8 801 699 808 907 908 809 914 1015
8 805 703 809 908 911 812 915 1016
8 803 701 811 910 909 810 916 1017
8 911 812 917 1018 804 702 811 910
8 925 821 920 1030 818 710 814 919
8 928 823 921 1031 821 712 815 920
8 922 819 717 831 1033 926 829 941
8 923 820 709 816 1034 927 819 922
8 1035 929 822 924 923 820 711 817
8 925 821 710 818 1036 930 822 924
8 1038 933 825 929 927 826 714 820
8 926 827 716 829 1039 935 828 939
8 927 826 715 819 1040 934 827 926
8 928 823 712 821 1041 931 824 930
8 1042 932 824 930 929 825 713 822
8 829 716 830 942 939 828 940 1058
8 831 717 832 944 941 829 942 1060
8 942 830 718 832 1061 943 833 945
8 944 832 720 834 1062 945 835 946
8 981 889 947 1064 870 781 837 948
8 948 837 949 1067 869 780 838 950
8 975 869 950 1069 865 767 839 952
8 950 838 951 1070 839 725 840 953
8 952 839 953 1071 841 726 842 954
8 955 850 802 899 1072 959 906 1008
8 956 849 739 845 1072 959 850 955
8 846 738 849 956 957 848 958 1073
8 957 848 958 1073 854 759 868 965
8 849 742 852 959 958 851 961 1076
8 960 853 961 1076 906 807 852 959
8 958 851 961 1076 868 773 883 980
8 960 853 807 906 1077 963 913 1014
8 855 760 868 965 966 871 980 1085
8 856 761 871 966 967 872 984 1086
8 971 876 765 860 1087 985 872 967
8 968 873 763 858 1088 986 874 969
8 862 769 873 968 972 879 986 1088
8 859 764 875 970 969 874 987 1089
8 861 766 876 971 970 875 988 1090
8 973 880 770 863 1091 991 879 972
8 973 880 992 1092 863 770 881 974
8 974 881 993 1093 864 771 882 976
8 979 870 948 1066 1094 982 869 975
8 1094 982 869 975 977 877 767 865
8 978 878 772 867 1095 990 882 976
8 978 878 989 1096 866 768 877 977
8 871 774 883 980 984 884 994 1099
8 983 891 999 1100 870 781 889 981
8 1101 1000 890 982 989 892 782 877
8 983 891 781 870 1101 1000 890 982
8 872 775 884 984 985 885 995 1103
8 876 776 885 985 988 886 996 1104
8 986 887 779 874 1105 998 888 987
8 879 786 887 986 991 896 998 1105
8 875 778 886 988 987 888 997 1106
8 990 893 1002 1107 878 783 892 989
8 1108 1003 893 990 993 894 784 882
8 880 787 896 991 992 895 1005 1109
8 993 894 785 881 1110 1004 895 992
8 898 799 905 1006 1007 907 1013 1120
8 1030 920 1013 1120 919 814 905 1006
8 901 801 907 1007 1011 908 1015 1121
8 899 802 909 1009 1008 906 1014 1122
8 900 803 910 1010 1009 909 1017 1123
8 1012 911 1018 1124 903 804 910 1010
8 904 805 908 1011 1012 911 1016 1125
8 1013 912 1020 1127 907 808 914 1015
8 1031 921 1020 1127 920 815 912 1013
8 1019 918 962 1075 1128 1021 913 1014
8 1128 1021 913 1014 1017 916 810 909
8 1015 914 1022 1129 908 809 915 1016
8 1016 915 1023 1130 911 812 917 1018
8 1018 917 1024 1131 910 811 916 1017
8 1037 928 1031 1148 925 821 920 1030
8 928 823 931 1041 1031 921 1032 1149
8 1033 926 829 941 1151 1039 939 1057
8 1034 927 819 922 1152 1040 926 1033
8 1153 1038 929 1035 1034 927 820 923
8 1154 1042 930 1036 1035 929 822 924
8 1037 928 821 925 1155 1041 930 1036
8 1039 935 828 939 1156 1047 938 1055
8 1157 1043 932 1042 1038 933 825 929
8 1038 933 826 927 1158 1045 934 1040
8 1040 934 827 926 1159 1046 935 1039
8 930 824 932 1042 1041 931 1044 1160
8 1051 936 1048 1165 1175 1052 937 1053
8 1156 1047 938 1055 1053 937 1054 1178
8 939 828 940 1058 1055 938 1056 1181
8 941 829 942 1060 1057 939 1058 1183
8 942 830 943 1061 1058 940 1059 1184
8 1060 942 832 944 1185 1061 945 1062
8 1082 964 1063 1188 981 889 947 1064
8 1097 981 1064 1190 979 870 948 1066
8 1064 947 1065 1191 948 837 949 1067
8 1066 948 1067 1193 975 869 950 1069
8 1067 949 1068 1194 950 838 951 1070
8 1069 950 1070 1195 952 839 953 1071
8 956 849 959 1072 1073 958 1076 1197
8 1074 960 1076 1197 1008 906 959 1072
8 1073 958 1076 1197 965 868 980 1085
8 1074 960 906 1008 1198 1077 1014 1122
8 1133 1026 1079 1199 1019 918 962 1075
8 1077 963 913 1014 1200 1080 962 1075
8 960 853 963 1077 1076 961 1078 1201
8 980 883 961 1076 1099 994 1078 1201
8 1210 1083 964 1082 1100 999 889 981
8 966 871 980 1085 1086 984 1099 1215
8 967 872 984 1086 1087 985 1103 1216
8 971 876 985 1087 1090 988 1104 1217
8 1088 986 874 969 1218 1105 987 1089
8 972 879 986 1088 1091 991 1105 1218
8 970 875 988 1090 1089 987 1106 1219
8 973 880 991 1091 1092 992 1109 1220
8 1093 993 881 974 1221 1110 992 1092
8 1222 1108 990 1095 1093 993 882 976
8 1223 1101 982 1094 1096 989 877 977
8 1098 983 870 979 1223 1101 982 1094
8 1095 990 1107 1224 978 878 989 1096
8 1098 983 1100 1225 979 870 981 1097
8 984 884 994 1099 1103 995 1111 1227
8 1102 1001 1115 1228 983 891 999 1100
8 1101 1000 892 989 1229 1116 1002 1107
8 1102 1001 891 983 1229 1116 1000 1101
8 985 885 995 1103 1104 996 1112 1230
8 988 886 996 1104 1106 997 1113 1231
8 1105 998 888 987 1232 1114 997 1106
8 991 896 998 1105 1109 1005 1114 1232
8 1108 1003 1117 1233 990 893 1002 1107
8 1108 1003 894 993 1233 1117 1004 1110
8 992 895 1005 1109 1110 1004 1118 1234
8 1120 1013 1127 1244 1007 907 1015 1121
8 1148 1031 1127 1244 1030 920 1013 1120
8 1121 1015 1129 1245 1011 908 1016 1125
8 1126 1019 1075 1196 1246 1128 1014 1122
8 1246 1128 1014 1122 1123 1017 909 1009
8 1124 1018 1131 1247 1010 910 1017 1123
8 1125 1016 1130 1248 1012 911 1018 1124
8 1127 1020 1137 1254 1015 914 1022 1129
8 1031 921 1032 1149 1127 1020 1137 1254
8 1134 1027 918 1019 1257 1140 1021 1128
8 1257 1140 1021 1128 1131 1024 916 1017
8 1129 1022 1141 1258 1016 915 1023 1130
8 1130 1023 1142 1259 1018 917 1024 1131
8 1261 1144 1025 1132 1133 1026 1079 1199
8 1255 1138 1025 1132 1135 1028 1144 1261
8 1133 1026 918 1019 1262 1145 1027 1134
8 1136 1029 1139 1256 1263 1146 1028 1135
8 1037 928 1041 1155 1148 1031 1149 1275
8 1041 931 1044 1160 1149 1032 1150 1276
8 1151 1039 939 1057 1278 1156 1055 1180
8 1152 1040 926 1033 1279 1159 1039 1151
8 1153 1038 927 1034 1280 1158 1040 1152
8 1281 1157 1042 1154 1153 1038 929 1035
8 1036 930 1042 1154 1155 1041 1160 1282
8 1283 1164 1046 1159 1156 1047 935 1039
8 1165 1048 1164 1283 1053 937 1047 1156
8 1157 1043 933 1038 1284 1161 1045 1158
8 1157 1043 1161 1284 1042 932 1044 1160
8 1040 934 1046 1159 1158 1045 1163 1285
8 1166 1049 1167 1292 1051 936 1048 1165
8 1166 1049 936 1051 1293 1168 1050 1172
8 1051 936 1052 1175 1172 1050 1173 1306
8 1174 1051 1165 1290 1308 1175 1053 1177
8 1053 937 1054 1178 1175 1052 1176 1309
8 1278 1156 1055 1180 1177 1053 1178 1311
8 1055 938 1056 1181 1178 1054 1179 1312
8 1057 939 1058 1183 1180 1055 1181 1314
8 1058 940 1059 1184 1181 1056 1182 1315
8 1060 942 1061 1185 1183 1058 1184 1316
8 1208 1081 1187 1321 1082 964 1063 1188
8 1209 1082 1188 1322 1097 981 1064 1190
8 1188 1063 1189 1323 1064 947 1065 1191
8 1190 1064 1191 1325 1066 948 1067 1193
8 1191 1065 1192 1326 1067 949 1068 1194
8 1067 1193 1069 950 1194 1327 1195 1070
8 1250 1133 1199 1330 1126 1019 1075 1196
8 1198 1077 1014 1122 1331 1200 1075 1196
8 1074 960 1077 1198 1197 1076 1201 1332
8 1085 980 1076 1197 1215 1099 1201 1332
8 1199 1079 1203 1333 1075 962 1080 1200
8 1132 1025 1119 1243 1199 1079 1203 1333
8 1201 1078 963 1077 1334 1202 1080 1200
8 1099 994 1078 1201 1227 1111 1202 1334
8 1343 1207 1081 1208 1210 1083 964 1082
8 1214 1084 1186 1319 1343 1207 1081 1208
8 1345 1210 1082 1209 1225 1100 981 1097
8 1346 1211 1083 1210 1228 1115 999 1100
8 1086 984 1099 1215 1216 1103 1227 1352
8 1087 985 1103 1216 1217 1104 1230 1353
8 1090 988 1104 1217 1219 1106 1231 1354
8 1218 1105 987 1089 1355 1232 1106 1219
8 1091 991 1105 1218 1220 1109 1232 1355
8 1092 992 1109 1220 1221 1110 1234 1356
8 1222 1108 1233 1357 1095 990 1107 1224
8 1222 1108 993 1093 1357 1233 1110 1221
8 1223 1101 989 1096 1358 1229 1107 1224
8 1226 1102 983 1098 1358 1229 1101 1223
8 1226 1102 1228 1359 1098 983 1100 1225
8 1103 995 1111 1227 1230 1112 1235 1360
8 1107 1002 1117 1233 1229 1116 1240 1362
8 1102 1001 1116 1229 1228 1115 1240 1362
8 1104 996 1112 1230 1231 1113 1236 1363
8 1364 1237 1114 1232 1231 1113 997 1106
8 1109 1005 1114 1232 1234 1118 1238 1365
8 1110 1004 1118 1234 1233 1117 1241 1366
8 1242 1374 1255 1138 1119 1243 1132 1025
8 1244 1127 1254 1376 1121 1015 1129 1245
8 1148 1031 1149 1275 1244 1127 1254 1376
8 1245 1129 1258 1377 1125 1016 1130 1248
8 1251 1134 1019 1126 1378 1257 1128 1246
8 1378 1257 1128 1246 1247 1131 1017 1123
8 1248 1130 1259 1379 1124 1018 1131 1247
8 1261 1381 1250 1133 1132 1249 1330 1199
8 1255 1380 1252 1135 1132 1249 1381 1261
8 1250 1133 1019 1126 1382 1262 1134 1251
8 1253 1136 1256 1385 1384 1263 1135 1252
8 1254 1137 1265 1387 1129 1022 1141 1258
8 1149 1032 1150 1276 1254 1137 1265 1387
8 1028 1135 1255 1138 1139 1256 1388 1266
8 1136 1029 1147 1264 1256 1139 1267 1389
8 1390 1268 1140 1257 1259 1142 1024 1131
8 1260 1143 1027 1134 1390 1268 1140 1257
8 1258 1141 1269 1391 1130 1023 1142 1259
8 1262 1145 1027 1134 1393 1271 1143 1260
8 1261 1144 1026 1133 1394 1272 1145 1262
8 1135 1028 1144 1261 1263 1146 1272 1394
8 1136 1029 1146 1263 1264 1147 1273 1395
8 1155 1041 1160 1282 1275 1149 1276 1405
8 1276 1150 1044 1160 1406 1277 1162 1286
8 1408 1283 1159 1279 1278 1156 1039 1151
8 1290 1165 1283 1408 1177 1053 1156 1278
8 1152 1040 1159 1279 1280 1158 1285 1409
8 1281 1157 1038 1153 1410 1284 1158 1280
8 1281 1157 1284 1410 1154 1042 1160 1282
8 1159 1046 1164 1283 1285 1163 1289 1412
8 1292 1167 1289 1412 1165 1048 1164 1283
8 1158 1045 1163 1285 1284 1161 1288 1413
8 1284 1161 1288 1413 1160 1044 1162 1286
8 1291 1166 1292 1418 1174 1051 1165 1290
8 1291 1166 1051 1174 1419 1293 1172 1305
8 1294 1169 1296 1421 1166 1049 1167 1292
8 1293 1168 1050 1172 1422 1295 1171 1303
8 1294 1169 1049 1166 1423 1297 1168 1293
8 1422 1295 1171 1303 1301 1170 1302 1435
8 1172 1050 1173 1306 1303 1171 1304 1438
8 1174 1051 1175 1308 1305 1172 1306 1440
8 1175 1052 1176 1309 1306 1173 1307 1441
8 1177 1053 1178 1311 1308 1175 1309 1443
8 1178 1054 1179 1312 1309 1176 1310 1444
8 1180 1055 1181 1314 1311 1178 1312 1446
8 1056 1181 1312 1179 1182 1315 1447 1313
8 1183 1058 1184 1316 1314 1181 1315 1448
8 1319 1186 1084 1214 1451 1317 1213 1350
8 1319 1186 1318 1453 1208 1081 1187 1321
8 1321 1187 1320 1456 1188 1063 1189 1323
8 1344 1208 1321 1457 1209 1082 1188 1322
8 1322 1188 1323 1458 1190 1064 1191 1325
8 1323 1189 1324 1459 1191 1065 1192 1326
8 1191 1325 1193 1067 1326 1460 1327 1194
8 1242 1374 1243 1119 1328 1462 1335 1204
8 1330 1199 1333 1465 1196 1075 1200 1331
8 1132 1249 1330 1199 1243 1375 1465 1333
8 1332 1201 1077 1198 1466 1334 1200 1331
8 1215 1099 1201 1332 1352 1227 1334 1466
8 1119 1243 1333 1203 1204 1335 1470 1338
8 1333 1203 1338 1470 1200 1080 1202 1334
8 1227 1111 1202 1334 1360 1235 1338 1470
8 1328 1462 1335 1204 1205 1336 1471 1339
8 1337 1206 1340 1472 1464 1329 1205 1336
8 1346 1211 1342 1479 1210 1083 1207 1343
8 1346 1211 1115 1228 1479 1342 1239 1361
8 1348 1212 1084 1214 1479 1342 1207 1343
8 1480 1343 1208 1344 1345 1210 1082 1209
8 1351 1214 1319 1454 1480 1343 1208 1344
8 1481 1346 1210 1345 1359 1228 1100 1225
8 1348 1212 1347 1483 1214 1084 1213 1350
8 1216 1103 1227 1352 1353 1230 1360 1488
8 1217 1104 1230 1353 1354 1231 1363 1489
8 1490 1364 1232 1355 1354 1231 1106 1219
8 1220 1109 1232 1355 1356 1234 1365 1491
8 1221 1110 1234 1356 1357 1233 1366 1492
8 1224 1107 1233 1357 1358 1229 1362 1493
8 1226 1102 1229 1358 1359 1228 1362 1493
8 1230 1112 1235 1360 1363 1236 1367 1496
8 1361 1239 1115 1228 1497 1371 1240 1362
8 1366 1241 1372 1498 1233 1117 1240 1362
8 1364 1237 1113 1231 1499 1368 1236 1363
8 1364 1237 1368 1499 1232 1114 1238 1365
8 1234 1118 1238 1365 1366 1241 1369 1500
8 1507 1373 1242 1374 1388 1266 1138 1255
8 1508 1374 1243 1375 1380 1255 1132 1249
8 1376 1254 1387 1509 1245 1129 1258 1377
8 1275 1149 1276 1405 1376 1254 1387 1509
8 1377 1258 1391 1510 1248 1130 1259 1379
8 1511 1390 1257 1378 1379 1259 1131 1247
8 1383 1260 1134 1251 1511 1390 1257 1378
8 1252 1135 1256 1385 1380 1255 1388 1512
8 1261 1381 1513 1394 1133 1250 1382 1262
8 1135 1252 1384 1263 1261 1381 1513 1394
8 1382 1262 1134 1251 1514 1393 1260 1383
8 1253 1136 1263 1384 1386 1264 1395 1516
8 1253 1136 1264 1386 1385 1256 1389 1517
8 1387 1265 1397 1519 1258 1141 1269 1391
8 1276 1150 1277 1406 1387 1265 1397 1519
8 1256 1139 1267 1389 1388 1266 1398 1520
8 1264 1147 1274 1396 1389 1267 1399 1521
8 1392 1270 1143 1260 1522 1400 1268 1390
8 1390 1268 1142 1259 1522 1400 1269 1391
8 1392 1270 1401 1523 1260 1143 1271 1393
8 1272 1394 1524 1402 1145 1262 1393 1271
8 1395 1273 1146 1263 1524 1402 1272 1394
8 1273 1395 1264 1147 1403 1526 1396 1274
8 1405 1276 1160 1282 1534 1406 1286 1411
8 1414 1287 1407 1535 1286 1162 1277 1406
8 1279 1159 1283 1408 1409 1285 1412 1537
8 1418 1292 1412 1537 1290 1165 1283 1408
8 1280 1158 1285 1409 1410 1284 1413 1538
8 1410 1284 1413 1538 1282 1160 1286 1411
8 1285 1163 1289 1412 1413 1288 1417 1540
8 1421 1296 1417 1540 1292 1167 1289 1412
8 1414 1287 1162 1286 1541 1416 1288 1413
8 1420 1294 1421 1545 1291 1166 1292 1418
8 1419 1293 1172 1305 1546 1422 1303 1437
8 1420 1294 1166 1291 1547 1423 1293 1419
8 1294 1169 1297 1423 1421 1296 1425 1548
8 1423 1297 1168 1293 1549 1424 1295 1422
8 1301 1170 1298 1427 1422 1295 1424 1549
8 1432 1300 1428 1554 1301 1170 1298 1427
8 1431 1299 1428 1554 1560 1430 1300 1432
8 1563 1433 1300 1432 1435 1302 1170 1301
8 1546 1422 1303 1437 1434 1301 1435 1565
8 1303 1171 1304 1438 1435 1302 1436 1566
8 1305 1172 1306 1440 1437 1303 1438 1568
8 1306 1173 1307 1441 1438 1304 1439 1569
8 1308 1175 1309 1443 1440 1306 1441 1571
8 1309 1176 1310 1444 1441 1307 1442 1572
8 1311 1178 1312 1446 1443 1309 1444 1574
8 1179 1312 1444 1310 1313 1447 1575 1445
8 1314 1181 1315 1448 1446 1312 1447 1576
8 1350 1213 1349 1486 1451 1317 1449 1579
8 1451 1317 1450 1581 1319 1186 1318 1453
8 1454 1319 1214 1351 1582 1451 1350 1487
8 1453 1318 1452 1584 1321 1187 1320 1456
8 1454 1319 1453 1585 1344 1208 1321 1457
8 1456 1320 1455 1586 1323 1189 1324 1459
8 1457 1321 1456 1587 1322 1188 1323 1458
8 1458 1323 1459 1588 1325 1191 1326 1460
8 1205 1336 1464 1329 1328 1462 1590 1461
8 1507 1373 1461 1590 1374 1242 1328 1462
8 1508 1374 1462 1591 1375 1243 1335 1467
8 1337 1206 1329 1464 1473 1341 1463 1594
8 1375 1243 1335 1467 1465 1333 1470 1596
8 1465 1333 1470 1596 1331 1200 1334 1466
8 1352 1227 1334 1466 1488 1360 1470 1596
8 1591 1462 1336 1468 1467 1335 1471 1597
8 1469 1337 1472 1598 1595 1464 1336 1468
8 1471 1339 1474 1600 1335 1204 1338 1470
8 1600 1474 1367 1496 1470 1338 1235 1360
8 1336 1205 1340 1472 1471 1339 1475 1601
8 1337 1206 1341 1473 1472 1340 1476 1602
8 1495 1370 1478 1609 1361 1239 1342 1479
8 1348 1212 1342 1479 1483 1347 1478 1609
8 1481 1346 1479 1610 1345 1210 1343 1480
8 1481 1346 1228 1359 1610 1479 1361 1494
8 1484 1348 1214 1351 1610 1479 1343 1480
8 1483 1347 1482 1612 1350 1213 1349 1486
8 1484 1348 1483 1613 1351 1214 1350 1487
8 1353 1230 1360 1488 1489 1363 1496 1616
8 1490 1364 1231 1354 1617 1499 1363 1489
8 1490 1364 1499 1617 1355 1232 1365 1491
8 1356 1234 1365 1491 1492 1366 1500 1619
8 1492 1366 1498 1620 1357 1233 1362 1493
8 1494 1361 1228 1359 1621 1497 1362 1493
8 1495 1370 1239 1361 1622 1504 1371 1497
8 1363 1236 1367 1496 1499 1368 1501 1623
8 1497 1371 1240 1362 1624 1505 1372 1498
8 1625 1503 1372 1498 1500 1369 1241 1366
8 1365 1238 1368 1499 1500 1369 1502 1626
8 1520 1398 1506 1633 1388 1266 1373 1507
8 1634 1507 1374 1508 1512 1388 1255 1380
8 1509 1387 1519 1635 1377 1258 1391 1510
8 1405 1276 1406 1534 1509 1387 1519 1635
8 1515 1392 1260 1383 1636 1522 1390 1511
8 1511 1390 1259 1379 1636 1522 1391 1510
8 1385 1256 1389 1517 1512 1388 1520 1637
8 1513 1394 1262 1382 1638 1524 1393 1514
8 1395 1516 1638 1524 1263 1384 1513 1394
8 1515 1392 1523 1639 1383 1260 1393 1514
8 1516 1395 1526 1640 1386 1264 1396 1518
8 1386 1264 1396 1518 1517 1389 1521 1641
8 1519 1397 1527 1643 1391 1269 1400 1522
8 1535 1407 1527 1643 1406 1277 1397 1519
8 1389 1267 1399 1521 1520 1398 1528 1644
8 1645 1529 1399 1521 1525 1404 1274 1396
8 1392 1270 1400 1522 1523 1401 1531 1646
8 1524 1402 1271 1393 1648 1532 1401 1523
8 1403 1526 1648 1532 1273 1395 1524 1402
8 1525 1404 1274 1396 1649 1533 1403 1526
8 1539 1414 1535 1657 1411 1286 1406 1534
8 1542 1415 1536 1658 1414 1287 1407 1535
8 1409 1285 1412 1537 1538 1413 1540 1660
8 1545 1421 1540 1660 1418 1292 1412 1537
8 1539 1414 1286 1411 1661 1541 1413 1538
8 1540 1417 1544 1663 1413 1288 1416 1541
8 1421 1296 1425 1548 1540 1417 1544 1663
8 1542 1415 1287 1414 1664 1543 1416 1541
8 1420 1294 1423 1547 1545 1421 1548 1666
8 1547 1423 1293 1419 1667 1549 1422 1546
8 1434 1301 1427 1553 1546 1422 1549 1667
8 1423 1297 1424 1549 1548 1425 1550 1668
8 1551 1426 1550 1668 1427 1298 1424 1549
8 1551 1426 1298 1427 1671 1552 1428 1554
8 1562 1432 1554 1674 1434 1301 1427 1553
8 1431 1299 1429 1558 1554 1428 1555 1675
8 1431 1299 1430 1560 1558 1429 1557 1680
8 1560 1430 1300 1432 1683 1559 1433 1563
8 1561 1431 1554 1674 1684 1560 1432 1562
8 1685 1563 1432 1562 1565 1435 1301 1434
8 1435 1302 1436 1566 1563 1433 1564 1686
8 1437 1303 1438 1568 1565 1435 1566 1688
8 1438 1304 1439 1569 1566 1436 1567 1689
8 1440 1306 1441 1571 1568 1438 1569 1691
8 1441 1307 1442 1572 1569 1439 1570 1692
8 1443 1309 1444 1574 1571 1441 1572 1694
8 1310 1444 1572 1442 1445 1575 1695 1573
8 1446 1312 1447 1576 1574 1444 1575 1696
8 1486 1349 1485 1614 1579 1449 1577 1699
8 1451 1317 1449 1579 1581 1450 1578 1701
8 1487 1350 1486 1615 1582 1451 1579 1702
8 1581 1450 1580 1704 1453 1318 1452 1584
8 1582 1451 1581 1705 1454 1319 1453 1585
8 1584 1452 1583 1706 1456 1320 1455 1586
8 1585 1453 1584 1707 1457 1321 1456 1587
8 1587 1456 1586 1708 1458 1323 1459 1588
8 1633 1506 1589 1710 1507 1373 1461 1590
8 1464 1329 1461 1590 1594 1463 1589 1710
8 1468 1336 1462 1591 1595 1464 1590 1711
8 1634 1507 1590 1711 1508 1374 1462 1591
8 1473 1341 1463 1594 1603 1477 1593 1716
8 1469 1337 1464 1595 1599 1473 1594 1717
8 1471 1597 1467 1335 1600 1718 1596 1470
8 1718 1600 1496 1616 1596 1470 1360 1488
8 1336 1468 1597 1471 1472 1598 1719 1601
8 1469 1337 1473 1599 1598 1472 1602 1720
8 1722 1604 1501 1623 1600 1474 1367 1496
8 1475 1601 1471 1339 1604 1722 1600 1474
8 1602 1476 1605 1723 1472 1340 1475 1601
8 1476 1602 1724 1606 1341 1473 1603 1477
8 1483 1347 1478 1609 1612 1482 1608 1731
8 1495 1370 1504 1622 1609 1478 1608 1731
8 1618 1495 1609 1732 1494 1361 1479 1610
8 1484 1348 1479 1610 1613 1483 1609 1732
8 1486 1349 1482 1612 1614 1485 1611 1733
8 1613 1483 1612 1734 1487 1350 1486 1615
8 1489 1363 1496 1616 1617 1499 1623 1736
8 1491 1365 1499 1617 1619 1500 1626 1737
8 1618 1495 1361 1494 1738 1622 1497 1621
8 1739 1625 1498 1620 1619 1500 1366 1492
8 1621 1497 1362 1493 1740 1624 1498 1620
8 1742 1631 1504 1622 1624 1505 1371 1497
8 1743 1628 1502 1626 1623 1501 1368 1499
8 1744 1630 1505 1624 1625 1503 1372 1498
8 1745 1629 1503 1625 1626 1502 1369 1500
8 1520 1398 1528 1644 1633 1506 1632 1751
8 1637 1520 1633 1752 1512 1388 1507 1634
8 1635 1519 1643 1753 1510 1391 1522 1636
8 1657 1535 1643 1753 1534 1406 1519 1635
8 1515 1392 1522 1636 1639 1523 1646 1754
8 1517 1389 1521 1641 1637 1520 1644 1755
8 1524 1638 1756 1648 1393 1514 1639 1523
8 1640 1526 1395 1516 1756 1648 1524 1638
8 1642 1525 1396 1518 1757 1649 1526 1640
8 1758 1645 1521 1641 1642 1525 1396 1518
8 1646 1531 1400 1522 1760 1650 1527 1643
8 1535 1407 1536 1658 1643 1527 1650 1760
8 1521 1399 1529 1645 1644 1528 1651 1761
8 1647 1530 1652 1762 1525 1404 1529 1645
8 1401 1523 1648 1532 1531 1646 1763 1655
8 1525 1404 1533 1649 1647 1530 1654 1765
8 1533 1649 1766 1656 1403 1526 1648 1532
8 1662 1542 1658 1774 1539 1414 1535 1657
8 1542 1415 1543 1664 1658 1536 1659 1775
8 1660 1540 1663 1777 1538 1413 1541 1661
8 1545 1421 1548 1666 1660 1540 1663 1777
8 1662 1542 1414 1539 1778 1664 1541 1661
8 1664 1543 1416 1541 1779 1665 1544 1663
8 1548 1425 1550 1668 1663 1544 1665 1779
8 1547 1423 1549 1667 1666 1548 1668 1781
8 1670 1551 1668 1781 1553 1427 1549 1667
8 1551 1426 1552 1671 1668 1550 1669 1782
8 1670 1551 1427 1553 1784 1671 1554 1674
8 1675 1555 1672 1785 1554 1428 1552 1671
8 1678 1556 1673 1789 1558 1429 1555 1675
8 1561 1431 1558 1681 1674 1554 1675 1790
8 1794 1677 1556 1678 1680 1557 1429 1558
8 1560 1430 1559 1683 1680 1557 1679 1797
8 1561 1431 1560 1684 1681 1558 1680 1798
8 1563 1433 1564 1686 1683 1559 1682 1800
8 1684 1560 1432 1562 1801 1683 1563 1685
8 1565 1435 1566 1688 1685 1563 1686 1802
8 1566 1436 1567 1689 1686 1564 1687 1803
8 1568 1438 1569 1691 1688 1566 1689 1805
8 1569 1439 1570 1692 1689 1567 1690 1806
8 1571 1441 1572 1694 1691 1569 1692 1808
8 1442 1572 1692 1570 1573 1695 1809 1693
8 1574 1444 1575 1696 1694 1572 1695 1810
8 1614 1485 1592 1712 1699 1577 1697 1813
8 1579 1449 1577 1699 1701 1578 1698 1815
8 1615 1486 1614 1735 1702 1579 1699 1816
8 1701 1578 1700 1818 1581 1450 1580 1704
8 1582 1451 1579 1702 1705 1581 1701 1819
8 1704 1580 1703 1820 1584 1452 1583 1706
8 1705 1581 1704 1821 1585 1453 1584 1707
8 1707 1584 1706 1822 1587 1456 1586 1708
8 1710 1589 1506 1633 1824 1709 1632 1751
8 1594 1463 1589 1710 1716 1593 1709 1824
8 1752 1633 1710 1825 1634 1507 1590 1711
8 1595 1464 1590 1711 1717 1594 1710 1825
8 1830 1714 1592 1712 1733 1611 1485 1614
8 1603 1477 1593 1716 1725 1607 1715 1834
8 1599 1473 1594 1717 1721 1603 1716 1835
8 1837 1722 1623 1736 1718 1600 1496 1616
8 1719 1601 1722 1837 1597 1471 1600 1718
8 1602 1720 1598 1472 1723 1838 1719 1601
8 1720 1602 1473 1599 1839 1724 1603 1721
8 1723 1605 1726 1840 1601 1475 1604 1722
8 1840 1726 1628 1743 1722 1604 1501 1623
8 1724 1606 1727 1841 1602 1476 1605 1723
8 1725 1607 1728 1842 1603 1477 1606 1724
8 1612 1482 1608 1731 1733 1611 1730 1849
8 1741 1627 1730 1849 1622 1504 1608 1731
8 1613 1483 1609 1732 1734 1612 1731 1850
8 1618 1495 1622 1738 1732 1609 1731 1850
8 1615 1486 1612 1734 1735 1614 1733 1851
8 1852 1743 1626 1737 1736 1623 1499 1617
8 1853 1745 1625 1739 1737 1626 1500 1619
8 1855 1742 1622 1738 1740 1624 1497 1621
8 1856 1744 1624 1740 1739 1625 1498 1620
8 1741 1627 1504 1622 1857 1746 1631 1742
8 1742 1631 1505 1624 1858 1749 1630 1744
8 1859 1747 1629 1745 1743 1628 1502 1626
8 1860 1748 1630 1744 1745 1629 1503 1625
8 1644 1528 1651 1761 1751 1632 1750 1865
8 1637 1520 1644 1755 1752 1633 1751 1866
8 1754 1646 1522 1636 1867 1760 1643 1753
8 1657 1535 1658 1774 1753 1643 1760 1867
8 1639 1523 1646 1754 1756 1648 1763 1868
8 1641 1521 1645 1758 1755 1644 1761 1869
8 1757 1649 1526 1640 1870 1766 1648 1756
8 1642 1525 1649 1757 1759 1647 1765 1871
8 1759 1647 1762 1872 1642 1525 1645 1758
8 1760 1650 1767 1874 1646 1531 1655 1763
8 1658 1536 1659 1775 1760 1650 1767 1874
8 1762 1652 1768 1875 1645 1529 1651 1761
8 1764 1653 1769 1876 1647 1530 1652 1762
8 1656 1766 1877 1773 1532 1648 1763 1655
8 1771 1879 1765 1654 1653 1764 1647 1530
8 1533 1649 1765 1654 1656 1766 1880 1772
8 1662 1542 1664 1778 1774 1658 1775 1887
8 1664 1543 1665 1779 1775 1659 1776 1888
8 1778 1664 1541 1661 1890 1779 1663 1777
8 1666 1548 1668 1781 1777 1663 1779 1890
8 1782 1669 1780 1891 1668 1550 1665 1779
8 1670 1551 1671 1784 1781 1668 1782 1893
8 1671 1552 1672 1785 1782 1669 1783 1894
8 1790 1675 1785 1896 1674 1554 1671 1784
8 1675 1555 1673 1789 1785 1672 1786 1897
8 1792 1676 1788 1903 1678 1556 1673 1789
8 1795 1678 1789 1904 1681 1558 1675 1790
8 1792 1676 1556 1678 1906 1791 1677 1794
8 1680 1557 1679 1797 1794 1677 1793 1909
8 1910 1794 1678 1795 1798 1680 1558 1681
8 1683 1559 1682 1800 1797 1679 1796 1912
8 1684 1560 1683 1801 1798 1680 1797 1913
8 1686 1564 1687 1803 1800 1682 1799 1915
8 1685 1563 1686 1802 1801 1683 1800 1916
8 1688 1566 1689 1805 1802 1686 1803 1917
8 1689 1567 1690 1806 1803 1687 1804 1918
8 1691 1569 1692 1808 1805 1689 1806 1920
8 1692 1570 1693 1809 1806 1690 1807 1921
8 1694 1572 1695 1810 1808 1692 1809 1922
8 1829 1713 1811 1926 1712 1592 1697 1813
8 1813 1697 1812 1928 1699 1577 1698 1815
8 1735 1614 1712 1828 1816 1699 1813 1929
8 1815 1698 1814 1931 1701 1578 1700 1818
8 1702 1579 1699 1816 1819 1701 1815 1932
8 1818 1700 1817 1933 1704 1580 1703 1820
8 1819 1701 1818 1934 1705 1581 1704 1821
8 1821 1704 1820 1935 1707 1584 1706 1822
8 1824 1709 1632 1751 1937 1823 1750 1865
8 1716 1593 1709 1824 1834 1715 1823 1937
8 1825 1710 1633 1752 1938 1824 1751 1866
8 1717 1594 1710 1825 1835 1716 1824 1938
8 1945 1830 1712 1828 1851 1733 1614 1735
8 1830 1714 1831 1946 1712 1592 1713 1829
8 1947 1832 1714 1830 1849 1730 1611 1733
8 1843 1729 1607 1725 1950 1833 1715 1834
8 1721 1603 1716 1835 1836 1725 1834 1951
8 1836 1725 1842 1953 1721 1603 1724 1839
8 1723 1838 1719 1601 1840 1954 1837 1722
8 1954 1840 1743 1852 1837 1722 1623 1736
8 1724 1839 1720 1602 1841 1955 1838 1723
8 1841 1727 1844 1956 1723 1605 1726 1840
8 1956 1844 1747 1859 1840 1726 1628 1743
8 1728 1842 1724 1606 1845 1957 1841 1727
8 1725 1607 1729 1843 1842 1728 1846 1958
8 1741 1627 1746 1857 1849 1730 1848 1965
8 1734 1612 1731 1850 1851 1733 1849 1966
8 1854 1741 1849 1966 1738 1622 1731 1850
8 1967 1859 1745 1853 1852 1743 1626 1737
8 1968 1860 1744 1856 1853 1745 1625 1739
8 1854 1741 1622 1738 1969 1857 1742 1855
8 1855 1742 1624 1740 1970 1858 1744 1856
8 1857 1746 1631 1742 1971 1861 1749 1858
8 1858 1749 1630 1744 1972 1863 1748 1860
8 1859 1747 1862 1973 1745 1629 1748 1860
8 1875 1768 1864 1977 1761 1651 1750 1865
8 1755 1644 1761 1869 1866 1751 1865 1978
8 1867 1760 1874 1979 1754 1646 1763 1868
8 1774 1658 1775 1887 1867 1760 1874 1979
8 1870 1766 1648 1756 1980 1877 1763 1868
8 1872 1762 1875 1981 1758 1645 1761 1869
8 1757 1649 1766 1870 1871 1765 1880 1982
8 1983 1879 1764 1873 1871 1765 1647 1759
8 1873 1764 1876 1984 1759 1647 1762 1872
8 1877 1773 1655 1763 1986 1881 1767 1874
8 1775 1659 1776 1888 1874 1767 1881 1986
8 1876 1769 1882 1987 1762 1652 1768 1875
8 1878 1770 1883 1988 1764 1653 1769 1876
8 1880 1772 1656 1766 1989 1886 1773 1877
8 1878 1770 1653 1764 1990 1884 1771 1879
8 1765 1654 1772 1880 1879 1771 1885 1991
8 1778 1664 1779 1890 1887 1775 1888 1997
8 1998 1889 1776 1888 1891 1780 1665 1779
8 1893 1782 1891 2000 1781 1668 1779 1890
8 1894 1783 1892 2001 1782 1669 1780 1891
8 1784 1671 1785 1896 1893 1782 1894 2003
8 1897 1786 1895 2004 1785 1672 1783 1894
8 1790 1675 1789 1904 1896 1785 1897 2006
8 1901 1787 1898 2007 1789 1673 1786 1897
8 1903 1788 1900 2013 1789 1673 1787 1901
8 1792 1676 1791 1906 1903 1788 1902 2016
8 1907 1792 1903 2017 1795 1678 1789 1904
8 1906 1791 1677 1794 2019 1905 1793 1909
8 1907 1792 1678 1795 2020 1906 1794 1910
8 1797 1679 1796 1912 1909 1793 1908 2022
8 1798 1680 1797 1913 1910 1794 1909 2023
8 1800 1682 1799 1915 1912 1796 1911 2025
8 1801 1683 1800 1916 1913 1797 1912 2026
8 1803 1687 1804 1918 1915 1799 1914 2028
8 1802 1686 1803 1917 1916 1800 1915 2029
8 1805 1689 1806 1920 1917 1803 1918 2030
8 1806 1690 1807 1921 1918 1804 1919 2031
8 1808 1692 1809 1922 1920 1806 1921 2032
8 1939 1826 1924 2037 1829 1713 1811 1926
8 1926 1811 1925 2039 1813 1697 1812 1928
8 1944 1829 1926 2040 1828 1712 1813 1929
8 1928 1812 1927 2042 1815 1698 1814 1931
8 1929 1813 1928 2043 1816 1699 1815 1932
8 1931 1814 1930 2044 1818 1700 1817 1933
8 1932 1815 1931 2045 1819 1701 1818 1934
8 1934 1818 1933 2046 1821 1704 1820 1935
8 2048 1936 1823 1937 1977 1864 1750 1865
8 1950 1833 1715 1834 2048 1936 1823 1937
8 1938 1824 1751 1866 2049 1937 1865 1978
8 1835 1716 1824 1938 1951 1834 1937 2049
8 1939 1826 1713 1829 2053 1942 1831 1946
8 1940 1827 1923 2035 2053 1942 1826 1939
8 1945 1830 1946 2058 1828 1712 1829 1944
8 2059 1947 1830 1945 1966 1849 1733 1851
8 1947 1832 1730 1849 2060 1948 1848 1965
8 1947 1832 1948 2060 1830 1714 1831 1946
8 1959 1847 1729 1843 2063 1949 1833 1950
8 1952 1843 1725 1836 2064 1950 1834 1951
8 1836 1725 1843 1952 1953 1842 1958 2066
8 1953 1842 1957 2067 1839 1724 1841 1955
8 1841 1955 1838 1723 1956 2068 1954 1840
8 2068 1956 1859 1967 1954 1840 1743 1852
8 1956 1844 1960 2069 1859 1747 1862 1973
8 1845 1957 1841 1727 1960 2069 1956 1844
8 1728 1842 1957 1845 1846 1958 2071 1961
8 1962 2072 1959 1847 1846 1958 1843 1729
8 1971 1861 1964 2077 1857 1746 1848 1965
8 1854 1741 1857 1969 1966 1849 1965 2078
8 1967 1859 1973 2079 1853 1745 1860 1968
8 1970 1858 1744 1856 2080 1972 1860 1968
8 1969 1857 1742 1855 2081 1971 1858 1970
8 1971 1861 1749 1858 2082 1974 1863 1972
8 1973 1862 1975 2083 1860 1748 1863 1972
8 1987 1882 1976 2086 1875 1768 1864 1977
8 1981 1875 1977 2087 1869 1761 1865 1978
8 1980 1877 1763 1868 2088 1986 1874 1979
8 1887 1775 1888 1997 1979 1874 1986 2088
8 1880 1982 2089 1989 1766 1870 1980 1877
8 1984 1876 1987 2090 1872 1762 1875 1981
8 1765 1871 1983 1879 1880 1982 2091 1991
8 1985 1878 1764 1873 2092 1990 1879 1983
8 1985 1878 1988 2093 1873 1764 1876 1984
8 2094 1992 1881 1986 1998 1889 1776 1888
8 1986 1881 1992 2094 1877 1773 1886 1989
8 1988 1883 1993 2095 1876 1769 1882 1987
8 1878 1770 1884 1990 1988 1883 1994 2096
8 1991 1885 1772 1880 2097 1996 1886 1989
8 1879 1771 1885 1991 1990 1884 1995 2098
8 2103 1998 1888 1997 2000 1891 1779 1890
8 2104 1999 1889 1998 2001 1892 1780 1891
8 2003 1894 2001 2106 1893 1782 1891 2000
8 2004 1895 2002 2107 1894 1783 1892 2001
8 2006 1897 2004 2109 1896 1785 1894 2003
8 2007 1898 2005 2110 1897 1786 1895 2004
8 2014 1901 2007 2112 1904 1789 1897 2006
8 2011 1899 2008 2113 1901 1787 1898 2007
8 2119 2010 1899 2011 2013 1900 1787 1901
8 2016 1902 2012 2122 1903 1788 1900 2013
8 2017 1903 2013 2123 1904 1789 1901 2014
8 1906 1791 1905 2019 2016 1902 2015 2125
8 1907 1792 1906 2020 2017 1903 2016 2126
8 1909 1793 1908 2022 2019 1905 2018 2128
8 2020 1906 1794 1910 2129 2019 1909 2023
8 1912 1796 1911 2025 2022 1908 2021 2131
8 1913 1797 1912 2026 2023 1909 2022 2132
8 1915 1799 1914 2028 2025 1911 2024 2134
8 1916 1800 1915 2029 2026 1912 2025 2135
8 1918 1804 1919 2031 2028 1914 2027 2136
8 1917 1803 1918 2030 2029 1915 2028 2137
8 1920 1806 1921 2032 2030 1918 2031 2138
8 1940 1827 1941 2054 2035 1923 2033 2140
8 2035 1923 2034 2143 1939 1826 1924 2037
8 2037 1924 2036 2146 1926 1811 1925 2039
8 2051 1939 2037 2147 1944 1829 1926 2040
8 2039 1925 2038 2149 1928 1812 1927 2042
8 2040 1926 2039 2150 1929 1813 1928 2043
8 2042 1927 2041 2151 1931 1814 1930 2044
8 2043 1928 2042 2152 1932 1815 1931 2045
8 2045 1931 2044 2153 1934 1818 1933 2046
8 2155 2047 1936 2048 2086 1976 1864 1977
8 2063 1949 1833 1950 2155 2047 1936 2048
8 2156 2048 1937 2049 2087 1977 1865 1978
8 2064 1950 1834 1951 2156 2048 1937 2049
8 2051 1939 1829 1944 2160 2053 1946 2058
8 2052 1940 2035 2144 2160 2053 1939 2051
8 2053 1942 1831 1946 2163 2057 1948 2060
8 2055 1943 1827 1940 2163 2057 1942 2053
8 2055 1943 2056 2164 1940 1827 1941 2054
8 2059 1947 1849 1966 2167 2060 1965 2078
8 2059 1947 2060 2167 1945 1830 1946 2058
8 2077 1964 2061 2168 1965 1848 1948 2060
8 2070 1963 1847 1959 2170 2062 1949 2063
8 2065 1959 1843 1952 2171 2063 1950 2064
8 2173 2072 1958 2066 2065 1959 1843 1952
8 1953 1842 1958 2066 2067 1957 2071 2174
8 2068 1956 2069 2175 1967 1859 1973 2079
8 2067 1957 2069 2175 1955 1841 1956 2068
8 1845 1957 2069 1960 1961 2071 2176 2073
8 2069 1960 2073 2176 1973 1862 1975 2083
8 2070 1963 2075 2177 1959 1847 1962 2072
8 1846 1958 2071 1961 1962 2072 2178 2074
8 2077 1964 1861 1971 2182 2076 1974 2082
8 2081 1971 2077 2183 1969 1857 1965 2078
8 2079 1973 2083 2184 1968 1860 1972 2080
8 2081 1971 1858 1970 2185 2082 1972 2080
8 2083 1975 2084 2186 1972 1863 1974 2082
8 2086 1976 1882 1987 2189 2085 1993 2095
8 2090 1987 2086 2190 1981 1875 1977 2087
8 2191 2094 1986 2088 2103 1998 1888 1997
8 2088 1986 2094 2191 1980 1877 1989 2089
8 1991 2091 2192 2097 1880 1982 2089 1989
8 2093 1988 2095 2193 1984 1876 1987 2090
8 1879 1983 2092 1990 1991 2091 2194 2098
8 1985 1878 1990 2092 2093 1988 2096 2195
8 2097 1996 1886 1989 2196 2099 1992 2094
8 2196 2099 1992 2094 2104 1999 1889 1998
8 1994 2096 1988 1883 2100 2197 2095 1993
8 2096 1994 1884 1990 2198 2101 1995 2098
8 1995 2098 2199 2102 1885 1991 2097 1996
8 2203 2104 1998 2103 2106 2001 1891 2000
8 2107 2002 2105 2204 2001 1892 1999 2104
8 2109 2004 2107 2206 2003 1894 2001 2106
8 2110 2005 2108 2207 2004 1895 2002 2107
8 2112 2007 2110 2209 2006 1897 2004 2109
8 2113 2008 2111 2210 2007 1898 2005 2110
8 2120 2011 2113 2212 2014 1901 2007 2112
8 2117 2009 2114 2213 2011 1899 2008 2113
8 2219 2116 2009 2117 2119 2010 1899 2011
8 2222 2118 2010 2119 2122 2012 1900 2013
8 2223 2119 2011 2120 2123 2013 1901 2014
8 2016 1902 2015 2125 2122 2012 2121 2225
8 2126 2016 2122 2226 2017 1903 2013 2123
8 2019 1905 2018 2128 2125 2015 2124 2228
8 2020 1906 2019 2129 2126 2016 2125 2229
8 2022 1908 2021 2131 2128 2018 2127 2231
8 2023 1909 2022 2132 2129 2019 2128 2232
8 2025 1911 2024 2134 2131 2021 2130 2234
8 2026 1912 2025 2135 2132 2022 2131 2235
8 1914 2028 2134 2024 2027 2136 2236 2133
8 2029 1915 2028 2137 2135 2025 2134 2237
8 2030 1918 2031 2138 2137 2028 2136 2238
8 2157 2050 2139 2240 2054 1941 2033 2140
8 2052 1940 2054 2161 2144 2035 2140 2242
8 2140 2033 2141 2243 2035 1923 2034 2143
8 2143 2034 2142 2246 2037 1924 2036 2146
8 2144 2035 2143 2247 2051 1939 2037 2147
8 2146 2036 2145 2249 2039 1925 2038 2149
8 2147 2037 2146 2250 2040 1926 2039 2150
8 2149 2038 2148 2251 2042 1927 2041 2151
8 2150 2039 2149 2252 2043 1928 2042 2152
8 2152 2042 2151 2253 2045 1931 2044 2153
8 2255 2154 2047 2155 2189 2085 1976 2086
8 2170 2062 1949 2063 2255 2154 2047 2155
8 2256 2155 2048 2156 2190 2086 1977 2087
8 2171 2063 1950 2064 2256 2155 2048 2156
8 2258 2159 2050 2157 2164 2056 1941 2054
8 2160 2053 1946 2058 2262 2163 2060 2167
8 2162 2055 1940 2052 2262 2163 2053 2160
8 2162 2055 2164 2263 2052 1940 2054 2161
8 2163 2057 1948 2060 2264 2165 2061 2168
8 2055 1943 2057 2163 2164 2056 2165 2264
8 2182 2076 2166 2268 2077 1964 2061 2168
8 2183 2077 2168 2269 2078 1965 2060 2167
8 2070 1963 2062 2170 2177 2075 2169 2271
8 2172 2070 1959 2065 2272 2170 2063 2171
8 2172 2070 2177 2273 2065 1959 2072 2173
8 2066 1958 2072 2173 2174 2071 2178 2274
8 2067 1957 2071 2174 2175 2069 2176 2275
8 2175 2069 2176 2275 2079 1973 2083 2184
8 2071 1961 2074 2178 2176 2073 2179 2276
8 2176 2073 2179 2276 2083 1975 2084 2186
8 2072 1962 2075 2177 2178 2074 2180 2277
8 2182 2076 1974 2082 2280 2181 2084 2186
8 2183 2077 1971 2081 2281 2182 2082 2185
8 2184 2083 2186 2282 2080 1972 2082 2185
8 2189 2085 1993 2095 2285 2188 2100 2197
8 2190 2086 1987 2090 2286 2189 2095 2193
8 2192 2097 1989 2089 2287 2196 2094 2191
8 2287 2196 2094 2191 2203 2104 1998 2103
8 2194 2098 1991 2091 2288 2199 2097 2192
8 2195 2096 2197 2289 2093 1988 2095 2193
8 2096 2195 2290 2198 1990 2092 2194 2098
8 2097 1996 2099 2196 2199 2102 2200 2291
8 2196 2099 1999 2104 2291 2200 2105 2204
8 2100 2197 2292 2201 1994 2096 2198 2101
8 1995 2098 2198 2101 2102 2199 2293 2202
8 2206 2107 2204 2296 2106 2001 2104 2203
8 2207 2108 2205 2297 2107 2002 2105 2204
8 2209 2110 2207 2299 2109 2004 2107 2206
8 2210 2111 2208 2300 2110 2005 2108 2207
8 2212 2113 2210 2302 2112 2007 2110 2209
8 2213 2114 2211 2303 2113 2008 2111 2210
8 2220 2117 2213 2305 2120 2011 2113 2212
8 2216 2115 2214 2306 2117 2009 2114 2213
8 2216 2115 2009 2117 2311 2217 2116 2219
8 2219 2116 2010 2119 2314 2218 2118 2222
8 2315 2219 2117 2220 2223 2119 2011 2120
8 2122 2012 2121 2225 2222 2118 2221 2317
8 2318 2222 2119 2223 2226 2122 2013 2123
8 2125 2015 2124 2228 2225 2121 2224 2320
8 2126 2016 2125 2229 2226 2122 2225 2321
8 2128 2018 2127 2231 2228 2124 2227 2323
8 2129 2019 2128 2232 2229 2125 2228 2324
8 2131 2021 2130 2234 2231 2127 2230 2326
8 2132 2022 2131 2235 2232 2128 2231 2327
8 2134 2024 2133 2236 2234 2130 2233 2328
8 2135 2025 2134 2237 2235 2131 2234 2329
8 2137 2028 2136 2238 2237 2134 2236 2330
8 2157 2050 2158 2259 2240 2139 2239 2332
8 2257 2157 2240 2334 2161 2054 2140 2242
8 2240 2139 2241 2335 2140 2033 2141 2243
8 2242 2140 2243 2337 2144 2035 2143 2247
8 2243 2141 2244 2338 2143 2034 2142 2246
8 2246 2142 2245 2341 2146 2036 2145 2249
8 2247 2143 2246 2342 2147 2037 2146 2250
8 2249 2145 2248 2343 2149 2038 2148 2251
8 2250 2146 2249 2344 2150 2039 2149 2252
8 2252 2149 2251 2345 2152 2042 2151 2253
8 2169 2271 2347 2254 2062 2170 2255 2154
8 2189 2085 2188 2285 2255 2154 2254 2347
8 2348 2255 2155 2256 2286 2189 2086 2190
8 2272 2170 2063 2171 2348 2255 2155 2256
8 2349 2258 2157 2257 2263 2164 2054 2161
8 2258 2159 2261 2351 2157 2050 2158 2259
8 2258 2159 2056 2164 2351 2261 2165 2264
8 2262 2163 2060 2167 2355 2264 2168 2269
8 2162 2055 2163 2262 2263 2164 2264 2355
8 2357 2266 2165 2264 2268 2166 2061 2168
8 2268 2166 2076 2182 2361 2267 2181 2280
8 2281 2182 2268 2362 2183 2077 2168 2269
8 2271 2169 2270 2364 2177 2075 2180 2277
8 2172 2070 2170 2272 2273 2177 2271 2365
8 2072 2173 2274 2178 2177 2273 2366 2277
8 2071 2174 2275 2176 2178 2274 2367 2276
8 2275 2176 2276 2367 2184 2083 2186 2282
8 2283 2187 2084 2186 2368 2278 2179 2276
8 2178 2074 2180 2277 2276 2179 2278 2368
8 2283 2187 2279 2370 2186 2084 2181 2280
8 2281 2182 2082 2185 2371 2280 2186 2282
8 2188 2285 2374 2284 2100 2197 2292 2201
8 2286 2189 2095 2193 2375 2285 2197 2289
8 2192 2097 2196 2287 2288 2199 2291 2376
8 2287 2196 2104 2203 2376 2291 2204 2296
8 2194 2098 2199 2288 2290 2198 2293 2377
8 2289 2197 2096 2195 2378 2292 2198 2290
8 2291 2200 2105 2204 2379 2294 2205 2297
8 2199 2102 2200 2291 2293 2202 2294 2379
8 2198 2101 2202 2293 2292 2201 2295 2380
8 2299 2207 2297 2383 2206 2107 2204 2296
8 2300 2208 2298 2384 2207 2108 2205 2297
8 2302 2210 2300 2386 2209 2110 2207 2299
8 2303 2211 2301 2387 2210 2111 2208 2300
8 2305 2213 2303 2389 2212 2113 2210 2302
8 2306 2214 2304 2390 2213 2114 2211 2303
8 2310 2216 2306 2392 2220 2117 2213 2305
8 2308 2215 2307 2393 2216 2115 2214 2306
8 2308 2215 2115 2216 2396 2309 2217 2311
8 2310 2216 2117 2220 2398 2311 2219 2315
8 2311 2217 2116 2219 2399 2312 2218 2314
8 2314 2218 2118 2222 2402 2313 2221 2317
8 2315 2219 2119 2223 2403 2314 2222 2318
8 2225 2121 2224 2320 2317 2221 2316 2405
8 2226 2122 2225 2321 2318 2222 2317 2406
8 2228 2124 2227 2323 2320 2224 2319 2408
8 2229 2125 2228 2324 2321 2225 2320 2409
8 2231 2127 2230 2326 2323 2227 2322 2411
8 2232 2128 2231 2327 2324 2228 2323 2412
8 2234 2130 2233 2328 2326 2230 2325 2413
8 2235 2131 2234 2329 2327 2231 2326 2414
8 2237 2134 2236 2330 2329 2234 2328 2415
8 2259 2158 2260 2352 2332 2239 2331 2417
8 2257 2157 2259 2350 2334 2240 2332 2419
8 2240 2139 2239 2332 2335 2241 2333 2420
8 2334 2240 2335 2422 2242 2140 2243 2337
8 2335 2241 2336 2423 2243 2141 2244 2338
8 2337 2243 2338 2425 2247 2143 2246 2342
8 2338 2244 2339 2426 2246 2142 2245 2341
8 2341 2245 2340 2428 2249 2145 2248 2343
8 2342 2246 2341 2429 2250 2146 2249 2344
8 2344 2249 2343 2430 2252 2149 2251 2345
8 2188 2285 2347 2254 2284 2374 2432 2346
8 2347 2254 2346 2432 2271 2169 2270 2364
8 2365 2271 2170 2272 2433 2347 2255 2348
8 2286 2189 2285 2375 2348 2255 2347 2433
8 2349 2258 2351 2435 2257 2157 2259 2350
8 2349 2258 2164 2263 2435 2351 2264 2355
8 2259 2158 2261 2351 2352 2260 2354 2437
8 2356 2265 2354 2437 2264 2165 2261 2351
8 2441 2357 2264 2355 2362 2268 2168 2269
8 2356 2265 2165 2264 2442 2358 2266 2357
8 2443 2359 2266 2357 2361 2267 2166 2268
8 2370 2279 2360 2446 2280 2181 2267 2361
8 2362 2268 2182 2281 2447 2361 2280 2371
8 2180 2277 2368 2278 2270 2364 2449 2363
8 2271 2365 2273 2177 2364 2450 2366 2277
8 2372 2283 2186 2282 2451 2368 2276 2367
8 2178 2274 2367 2276 2277 2366 2451 2368
8 2283 2187 2278 2368 2370 2279 2369 2452
8 2372 2283 2370 2453 2282 2186 2280 2371
8 2284 2374 2455 2373 2201 2292 2380 2295
8 2375 2285 2197 2289 2456 2374 2292 2378
8 2376 2291 2204 2296 2457 2379 2297 2383
8 2288 2199 2291 2376 2377 2293 2379 2457
8 2198 2290 2378 2292 2293 2377 2458 2380
8 2293 2202 2294 2379 2380 2295 2381 2459
8 2384 2298 2381 2459 2297 2205 2294 2379
8 2386 2300 2384 2463 2299 2207 2297 2383
8 2387 2301 2385 2464 2300 2208 2298 2384
8 2389 2303 2387 2466 2302 2210 2300 2386
8 2390 2304 2388 2467 2303 2211 2301 2387
8 2392 2306 2390 2469 2305 2213 2303 2389
8 2393 2307 2391 2470 2306 2214 2304 2390
8 2395 2308 2393 2472 2310 2216 2306 2392
8 2308 2215 2309 2396 2393 2307 2394 2473
8 2395 2308 2216 2310 2475 2396 2311 2398
8 2396 2309 2217 2311 2476 2397 2312 2399
8 2398 2311 2219 2315 2478 2399 2314 2403
8 2399 2312 2218 2314 2479 2400 2313 2402
8 2317 2221 2316 2405 2402 2313 2401 2482
8 2403 2314 2222 2318 2483 2402 2317 2406
8 2320 2224 2319 2408 2405 2316 2404 2485
8 2321 2225 2320 2409 2406 2317 2405 2486
8 2323 2227 2322 2411 2408 2319 2407 2488
8 2324 2228 2323 2412 2409 2320 2408 2489
8 2326 2230 2325 2413 2411 2322 2410 2490
8 2327 2231 2326 2414 2412 2323 2411 2491
8 2329 2234 2328 2415 2414 2326 2413 2492
8 2417 2331 2260 2352 2494 2416 2353 2438
8 2350 2259 2352 2436 2419 2332 2417 2496
8 2332 2239 2331 2417 2420 2333 2418 2497
8 2334 2240 2332 2419 2422 2335 2420 2499
8 2420 2333 2421 2500 2335 2241 2336 2423
8 2422 2335 2423 2502 2337 2243 2338 2425
8 2423 2336 2424 2503 2338 2244 2339 2426
8 2425 2338 2426 2505 2342 2246 2341 2429
8 2426 2339 2427 2506 2341 2245 2340 2428
8 2429 2341 2428 2507 2344 2249 2343 2430
8 2432 2346 2284 2374 2509 2431 2373 2455
8 2432 2346 2431 2509 2364 2270 2363 2449
8 2375 2285 2374 2456 2433 2347 2432 2510
8 2347 2433 2365 2271 2432 2510 2450 2364
8 2350 2259 2351 2435 2436 2352 2437 2514
8 2440 2356 2437 2514 2355 2264 2351 2435
8 2352 2260 2354 2437 2438 2353 2439 2516
8 2356 2265 2358 2442 2437 2354 2439 2516
8 2440 2356 2264 2355 2518 2442 2357 2441
8 2519 2443 2357 2441 2447 2361 2268 2362
8 2443 2359 2444 2520 2357 2266 2358 2442
8 2443 2359 2267 2361 2520 2444 2360 2446
8 2446 2360 2279 2370 2523 2445 2369 2452
8 2453 2370 2446 2524 2371 2280 2361 2447
8 2449 2363 2448 2525 2368 2278 2369 2452
8 2366 2277 2364 2450 2451 2368 2449 2526
8 2372 2283 2368 2451 2453 2370 2452 2527
8 2455 2373 2295 2380 2529 2454 2382 2460
8 2456 2374 2292 2378 2530 2455 2380 2458
8 2377 2293 2379 2457 2458 2380 2459 2531
8 2463 2384 2459 2531 2383 2297 2379 2457
8 2533 2461 2382 2460 2459 2381 2295 2380
8 2464 2385 2461 2533 2384 2298 2381 2459
8 2466 2387 2464 2537 2386 2300 2384 2463
8 2467 2388 2465 2538 2387 2301 2385 2464
8 2469 2390 2467 2540 2389 2303 2387 2466
8 2470 2391 2468 2541 2390 2304 2388 2467
8 2472 2393 2470 2543 2392 2306 2390 2469
8 2393 2307 2394 2473 2470 2391 2471 2544
8 2395 2308 2396 2475 2472 2393 2473 2546
8 2396 2309 2397 2476 2473 2394 2474 2547
8 2475 2396 2311 2398 2549 2476 2399 2478
8 2476 2397 2312 2399 2550 2477 2400 2479
8 2478 2399 2314 2403 2552 2479 2402 2483
8 2479 2400 2313 2402 2553 2480 2401 2482
8 2405 2316 2404 2485 2482 2401 2481 2556
8 2406 2317 2405 2486 2483 2402 2482 2557
8 2408 2319 2407 2488 2485 2404 2484 2559
8 2409 2320 2408 2489 2486 2405 2485 2560
8 2411 2322 2410 2490 2488 2407 2487 2561
8 2412 2323 2411 2491 2489 2408 2488 2562
8 2414 2326 2413 2492 2491 2411 2490 2563
8 2513 2434 2493 2565 2438 2353 2416 2494
8 2496 2417 2352 2436 2567 2494 2438 2515
8 2494 2416 2495 2568 2417 2331 2418 2497
8 2419 2332 2417 2496 2499 2420 2497 2570
8 2497 2418 2498 2571 2420 2333 2421 2500
8 2499 2420 2500 2573 2422 2335 2423 2502
8 2500 2421 2501 2574 2423 2336 2424 2503
8 2502 2423 2503 2576 2425 2338 2426 2505
8 2503 2424 2504 2577 2426 2339 2427 2506
8 2505 2426 2506 2578 2429 2341 2428 2507
8 2509 2431 2373 2455 2580 2508 2454 2529
8 2509 2431 2508 2580 2449 2363 2448 2525
8 2432 2510 2581 2509 2374 2456 2530 2455
8 2432 2510 2450 2364 2509 2581 2526 2449
8 2583 2511 2434 2513 2516 2439 2353 2438
8 2436 2352 2437 2514 2515 2438 2516 2588
8 2440 2356 2442 2518 2514 2437 2516 2588
8 2442 2358 2444 2520 2516 2439 2517 2589
8 2519 2443 2520 2591 2441 2357 2442 2518
8 2519 2443 2361 2447 2591 2520 2446 2524
8 2446 2360 2445 2523 2520 2444 2521 2592
8 2525 2448 2522 2593 2452 2369 2445 2523
8 2524 2446 2370 2453 2594 2523 2452 2527
8 2526 2449 2525 2595 2451 2368 2452 2527
8 2534 2462 2528 2597 2460 2382 2454 2529
8 2530 2455 2380 2458 2598 2529 2460 2532
8 2599 2533 2460 2532 2531 2459 2380 2458
8 2537 2464 2533 2599 2463 2384 2459 2531
8 2534 2462 2382 2460 2601 2535 2461 2533
8 2538 2465 2535 2601 2464 2385 2461 2533
8 2540 2467 2538 2604 2466 2387 2464 2537
8 2541 2468 2539 2605 2467 2388 2465 2538
8 2543 2470 2541 2607 2469 2390 2467 2540
8 2470 2391 2471 2544 2541 2468 2542 2608
8 2472 2393 2473 2546 2543 2470 2544 2610
8 2473 2394 2474 2547 2544 2471 2545 2611
8 2475 2396 2476 2549 2546 2473 2547 2613
8 2476 2397 2477 2550 2547 2474 2548 2614
8 2549 2476 2399 2478 2616 2550 2479 2552
8 2479 2400 2480 2553 2550 2477 2551 2617
8 2552 2479 2402 2483 2619 2553 2482 2557
8 2482 2401 2481 2556 2553 2480 2554 2620
8 2485 2404 2484 2559 2556 2481 2555 2623
8 2486 2405 2485 2560 2557 2482 2556 2624
8 2488 2407 2487 2561 2559 2484 2558 2625
8 2489 2408 2488 2562 2560 2485 2559 2626
8 2491 2411 2490 2563 2562 2488 2561 2627
8 2513 2434 2512 2585 2565 2493 2564 2630
8 2586 2513 2565 2632 2515 2438 2494 2567
8 2565 2493 2566 2633 2494 2416 2495 2568
8 2567 2494 2568 2635 2496 2417 2497 2570
8 2568 2495 2569 2636 2497 2418 2498 2571
8 2570 2497 2571 2638 2499 2420 2500 2573
8 2571 2498 2572 2639 2500 2421 2501 2574
8 2573 2500 2574 2641 2502 2423 2503 2576
8 2574 2501 2575 2642 2503 2424 2504 2577
8 2576 2503 2577 2643 2505 2426 2506 2578
8 2597 2528 2579 2645 2529 2454 2508 2580
8 2580 2508 2579 2645 2525 2448 2522 2593
8 2581 2509 2455 2530 2646 2580 2529 2598
8 2581 2509 2580 2646 2526 2449 2525 2595
8 2583 2511 2582 2648 2513 2434 2512 2585
8 2583 2511 2439 2516 2648 2582 2517 2589
8 2649 2583 2513 2586 2588 2516 2438 2515
8 2589 2517 2444 2520 2653 2587 2521 2592
8 2518 2442 2520 2591 2588 2516 2589 2654
8 2593 2522 2590 2655 2523 2445 2521 2592
8 2524 2446 2523 2594 2591 2520 2592 2656
8 2595 2525 2593 2657 2527 2452 2523 2594
8 2602 2536 2596 2659 2534 2462 2528 2597
8 2600 2534 2597 2660 2532 2460 2529 2598
8 2600 2534 2460 2532 2661 2601 2533 2599
8 2604 2538 2601 2661 2537 2464 2533 2599
8 2602 2536 2462 2534 2663 2603 2535 2601
8 2601 2535 2465 2538 2663 2603 2539 2605
8 2607 2541 2605 2665 2540 2467 2538 2604
8 2608 2542 2606 2666 2541 2468 2539 2605
8 2543 2470 2544 2610 2607 2541 2608 2668
8 2544 2471 2545 2611 2608 2542 2609 2669
8 2546 2473 2547 2613 2610 2544 2611 2671
8 2547 2474 2548 2614 2611 2545 2612 2672
8 2549 2476 2550 2616 2613 2547 2614 2674
8 2550 2477 2551 2617 2614 2548 2615 2675
8 2552 2479 2553 2619 2616 2550 2617 2677
8 2553 2480 2554 2620 2617 2551 2618 2678
8 2557 2482 2556 2624 2619 2553 2620 2680
8 2556 2481 2555 2623 2620 2554 2621 2681
8 2559 2484 2558 2625 2623 2555 2622 2683
8 2560 2485 2559 2626 2624 2556 2623 2684
8 2562 2488 2561 2627 2626 2559 2625 2685
8 2690 2629 2564 2630 2650 2584 2512 2585
8 2586 2513 2585 2651 2632 2565 2630 2691
8 2630 2564 2631 2692 2565 2493 2566 2633
8 2632 2565 2633 2694 2567 2494 2568 2635
8 2633 2566 2634 2695 2568 2495 2569 2636
8 2635 2568 2636 2697 2570 2497 2571 2638
8 2636 2569 2637 2698 2571 2498 2572 2639
8 2638 2571 2639 2700 2573 2500 2574 2641
8 2639 2572 2640 2701 2574 2501 2575 2642
8 2641 2574 2642 2702 2576 2503 2577 2643
8 2597 2528 2596 2659 2645 2579 2644 2704
8 2645 2579 2644 2704 2593 2522 2590 2655
8 2660 2597 2645 2705 2598 2529 2580 2646
8 2646 2580 2645 2705 2595 2525 2593 2657
8 2650 2584 2512 2585 2707 2647 2582 2648
8 2648 2582 2517 2589 2707 2647 2587 2653
8 2649 2583 2648 2708 2586 2513 2585 2651
8 2649 2583 2516 2588 2708 2648 2589 2654
8 2655 2590 2652 2710 2592 2521 2587 2653
8 2654 2589 2520 2591 2711 2653 2592 2656
8 2657 2593 2655 2712 2594 2523 2592 2656
8 2602 2536 2603 2663 2659 2596 2658 2714
8 2662 2602 2659 2715 2600 2534 2597 2660
8 2662 2602 2534 2600 2717 2663 2601 2661
8 2661 2601 2538 2604 2717 2663 2605 2665
8 2666 2606 2664 2718 2605 2539 2603 2663
8 2668 2608 2666 2720 2607 2541 2605 2665
8 2608 2542 2609 2669 2666 2606 2667 2721
8 2610 2544 2611 2671 2668 2608 2669 2723
8 2611 2545 2612 2672 2669 2609 2670 2724
8 2613 2547 2614 2674 2671 2611 2672 2726
8 2614 2548 2615 2675 2672 2612 2673 2727
8 2616 2550 2617 2677 2674 2614 2675 2729
8 2617 2551 2618 2678 2675 2615 2676 2730
8 2619 2553 2620 2680 2677 2617 2678 2732
8 2620 2554 2621 2681 2678 2618 2679 2733
8 2624 2556 2623 2684 2680 2620 2681 2735
8 2681 2621 2555 2623 2736 2682 2622 2683
8 2626 2559 2625 2685 2684 2623 2683 2737
8 2688 2628 2584 2650 2740 2686 2647 2707
8 2688 2628 2687 2742 2650 2584 2629 2690
8 2690 2629 2689 2745 2630 2564 2631 2692
8 2746 2690 2630 2691 2709 2650 2585 2651
8 2691 2630 2692 2747 2632 2565 2633 2694
8 2692 2631 2693 2748 2633 2566 2634 2695
8 2694 2633 2695 2750 2635 2568 2636 2697
8 2695 2634 2696 2751 2636 2569 2637 2698
8 2697 2636 2698 2753 2638 2571 2639 2700
8 2698 2637 2699 2754 2639 2572 2640 2701
8 2700 2639 2701 2755 2641 2574 2642 2702
8 2659 2596 2658 2714 2704 2644 2703 2757
8 2704 2644 2703 2757 2655 2590 2652 2710
8 2660 2597 2659 2715 2705 2645 2704 2758
8 2705 2645 2704 2758 2657 2593 2655 2712
8 2759 2706 2647 2707 2710 2652 2587 2653
8 2709 2650 2585 2651 2760 2707 2648 2708
8 2708 2648 2589 2654 2760 2707 2653 2711
8 2712 2655 2710 2761 2656 2592 2653 2711
8 2763 2713 2658 2714 2718 2664 2603 2663
8 2662 2602 2663 2717 2715 2659 2714 2764
8 2720 2666 2718 2767 2665 2605 2663 2717
8 2768 2719 2664 2718 2721 2667 2606 2666
8 2668 2608 2669 2723 2720 2666 2721 2770
8 2669 2609 2670 2724 2721 2667 2722 2771
8 2671 2611 2672 2726 2723 2669 2724 2773
8 2672 2612 2673 2727 2724 2670 2725 2774
8 2674 2614 2675 2729 2726 2672 2727 2776
8 2675 2615 2676 2730 2727 2673 2728 2777
8 2677 2617 2678 2732 2729 2675 2730 2779
8 2678 2618 2679 2733 2730 2676 2731 2780
8 2680 2620 2681 2735 2732 2678 2733 2782
8 2733 2679 2621 2681 2783 2734 2682 2736
8 2735 2681 2623 2684 2784 2736 2683 2737
8 2740 2686 2647 2707 2787 2738 2706 2759
8 2688 2628 2686 2740 2742 2687 2739 2789
8 2743 2688 2650 2709 2790 2740 2707 2760
8 2742 2687 2741 2792 2690 2629 2689 2745
8 2743 2688 2742 2793 2709 2650 2690 2746
8 2745 2689 2744 2795 2692 2631 2693 2748
8 2746 2690 2745 2796 2691 2630 2692 2747
8 2747 2692 2748 2797 2694 2633 2695 2750
8 2748 2693 2749 2798 2695 2634 2696 2751
8 2750 2695 2751 2800 2697 2636 2698 2753
8 2751 2696 2752 2801 2698 2637 2699 2754
8 2753 2698 2754 2802 2700 2639 2701 2755
8 2763 2713 2756 2804 2714 2658 2703 2757
8 2759 2706 2652 2710 2804 2756 2703 2757
8 2715 2659 2714 2764 2758 2704 2757 2805
8 2758 2704 2757 2805 2712 2655 2710 2761
8 2806 2759 2707 2760 2761 2710 2653 2711
8 2765 2716 2762 2808 2718 2664 2713 2763
8 2809 2763 2714 2764 2767 2718 2663 2717
8 2765 2716 2664 2718 2811 2766 2719 2768
8 2813 2768 2718 2767 2770 2721 2666 2720
8 2814 2769 2719 2768 2771 2722 2667 2721
8 2723 2669 2724 2773 2770 2721 2771 2816
8 2724 2670 2725 2774 2771 2722 2772 2817
8 2726 2672 2727 2776 2773 2724 2774 2819
8 2727 2673 2728 2777 2774 2725 2775 2820
8 2729 2675 2730 2779 2776 2727 2777 2822
8 2730 2676 2731 2780 2777 2728 2778 2823
8 2732 2678 2733 2782 2779 2730 2780 2825
8 2780 2731 2679 2733 2826 2781 2734 2783
8 2782 2733 2681 2735 2827 2783 2736 2784
8 2830 2785 2738 2787 2804 2756 2706 2759
8 2789 2739 2686 2740 2832 2786 2738 2787
8 2790 2740 2707 2760 2833 2787 2759 2806
8 2742 2687 2739 2789 2792 2741 2788 2835
8 2743 2688 2740 2790 2793 2742 2789 2836
8 2792 2741 2791 2838 2745 2689 2744 2795
8 2793 2742 2792 2839 2746 2690 2745 2796
8 2795 2744 2794 2841 2748 2693 2749 2798
8 2796 2745 2795 2842 2747 2692 2748 2797
8 2797 2748 2798 2843 2750 2695 2751 2800
8 2798 2749 2799 2844 2751 2696 2752 2801
8 2800 2751 2801 2845 2753 2698 2754 2802
8 2808 2762 2803 2847 2763 2713 2756 2804
8 2809 2763 2804 2848 2764 2714 2757 2805
8 2806 2759 2710 2761 2848 2804 2757 2805
8 2765 2716 2766 2811 2808 2762 2807 2850
8 2810 2765 2808 2851 2767 2718 2763 2809
8 2810 2765 2718 2767 2852 2811 2768 2813
8 2811 2766 2719 2768 2853 2812 2769 2814
8 2855 2814 2768 2813 2816 2771 2721 2770
8 2856 2815 2769 2814 2817 2772 2722 2771
8 2773 2724 2774 2819 2816 2771 2817 2858
8 2774 2725 2775 2820 2817 2772 2818 2859
8 2776 2727 2777 2822 2819 2774 2820 2861
8 2777 2728 2778 2823 2820 2775 2821 2862
8 2779 2730 2780 2825 2822 2777 2823 2864
8 2823 2778 2731 2780 2865 2824 2781 2826
8 2825 2780 2733 2782 2866 2826 2783 2827
8 2869 2828 2785 2830 2847 2803 2756 2804
8 2871 2829 2786 2832 2830 2785 2738 2787
8 2872 2830 2787 2833 2848 2804 2759 2806
8 2789 2739 2786 2832 2835 2788 2831 2874
8 2836 2789 2740 2790 2875 2832 2787 2833
8 2792 2741 2788 2835 2838 2791 2834 2877
8 2793 2742 2789 2836 2839 2792 2835 2878
8 2838 2791 2837 2880 2795 2744 2794 2841
8 2839 2792 2838 2881 2796 2745 2795 2842
8 2841 2794 2840 2882 2798 2749 2799 2844
8 2842 2795 2841 2883 2797 2748 2798 2843
8 2843 2798 2844 2884 2800 2751 2801 2845
8 2886 2846 2803 2847 2850 2807 2762 2808
8 2851 2808 2847 2887 2809 2763 2804 2848
8 2850 2807 2766 2811 2889 2849 2812 2853
8 2810 2765 2811 2852 2851 2808 2850 2890
8 2852 2811 2768 2813 2891 2853 2814 2855
8 2853 2812 2769 2814 2892 2854 2815 2856
8 2894 2856 2814 2855 2858 2817 2771 2816
8 2817 2772 2818 2859 2856 2815 2857 2895
8 2819 2774 2820 2861 2858 2817 2859 2897
8 2820 2775 2821 2862 2859 2818 2860 2898
8 2822 2777 2823 2864 2861 2820 2862 2900
8 2823 2778 2824 2865 2862 2821 2863 2901
8 2864 2823 2780 2825 2902 2865 2826 2866
8 2904 2867 2828 2869 2886 2846 2803 2847
8 2869 2828 2868 2906 2830 2785 2829 2871
8 2907 2869 2830 2872 2887 2847 2804 2848
8 2871 2829 2870 2909 2832 2786 2831 2874
8 2910 2871 2832 2875 2872 2830 2787 2833
8 2835 2788 2831 2874 2877 2834 2873 2912
8 2836 2789 2832 2875 2878 2835 2874 2913
8 2877 2834 2876 2915 2838 2791 2837 2880
8 2839 2792 2835 2878 2881 2838 2877 2916
8 2880 2837 2879 2917 2841 2794 2840 2882
8 2881 2838 2880 2918 2842 2795 2841 2883
8 2883 2841 2882 2919 2843 2798 2844 2884
8 2921 2885 2846 2886 2889 2849 2807 2850
8 2922 2886 2847 2887 2890 2850 2808 2851
8 2889 2849 2812 2853 2924 2888 2854 2892
8 2890 2850 2811 2852 2925 2889 2853 2891
8 2891 2853 2814 2855 2926 2892 2856 2894
8 2892 2854 2815 2856 2927 2893 2857 2895
8 2858 2817 2859 2897 2894 2856 2895 2929
8 2859 2818 2860 2898 2895 2857 2896 2930
8 2861 2820 2862 2900 2897 2859 2898 2932
8 2862 2821 2863 2901 2898 2860 2899 2933
8 2864 2823 2865 2902 2900 2862 2901 2934
8 2904 2867 2846 2886 2936 2903 2885 2921
8 2904 2867 2903 2936 2869 2828 2868 2906
8 2937 2904 2869 2907 2922 2886 2847 2887
8 2906 2868 2905 2939 2871 2829 2870 2909
8 2907 2869 2906 2940 2872 2830 2871 2910
8 2909 2870 2908 2942 2874 2831 2873 2912
8 2910 2871 2909 2943 2875 2832 2874 2913
8 2912 2873 2911 2945 2877 2834 2876 2915
8 2878 2835 2874 2913 2916 2877 2912 2946
8 2915 2876 2914 2947 2880 2837 2879 2917
8 2916 2877 2915 2948 2881 2838 2880 2918
8 2918 2880 2917 2949 2883 2841 2882 2919
8 2921 2885 2849 2889 2951 2920 2888 2924
8 2952 2921 2886 2922 2925 2889 2850 2890
8 2924 2888 2854 2892 2954 2923 2893 2927
8 2925 2889 2853 2891 2955 2924 2892 2926
8 2926 2892 2856 2894 2956 2927 2895 2929
8 2895 2857 2896 2930 2927 2893 2928 2957
8 2897 2859 2898 2932 2929 2895 2930 2959
8 2898 2860 2899 2933 2930 2896 2931 2960
8 2900 2862 2901 2934 2932 2898 2933 2961
8 2936 2903 2885 2921 2963 2935 2920 2951
8 2936 2903 2935 2963 2906 2868 2905 2939
8 2937 2904 2886 2922 2964 2936 2921 2952
8 2937 2904 2936 2964 2907 2869 2906 2940
8 2939 2905 2938 2966 2909 2870 2908 2942
8 2940 2906 2939 2967 2910 2871 2909 2943
8 2942 2908 2941 2969 2912 2873 2911 2945
8 2943 2909 2942 2970 2913 2874 2912 2946
8 2945 2911 2944 2971 2915 2876 2914 2947
8 2946 2912 2945 2972 2916 2877 2915 2948
8 2948 2915 2947 2973 2918 2880 2917 2949
8 2951 2920 2888 2924 2975 2950 2923 2954
8 2952 2921 2889 2925 2976 2951 2924 2955
8 2927 2893 2928 2957 2954 2923 2953 2978
8 2955 2924 2892 2926 2979 2954 2927 2956
8 2929 2895 2930 2959 2956 2927 2957 2980
8 2930 2896 2931 2960 2957 2928 2958 2981
8 2932 2898 2933 2961 2959 2930 2960 2982
8 2951 2920 2950 2975 2963 2935 2962 2984
8 2963 2935 2962 2984 2939 2905 2938 2966
8 2964 2936 2921 2952 2985 2963 2951 2976
8 2964 2936 2963 2985 2940 2906 2939 2967
8 2966 2938 2965 2987 2942 2908 2941 2969
8 2967 2939 2966 2988 2943 2909 2942 2970
8 2969 2941 2968 2989 2945 2911 2944 2971
8 2970 2942 2969 2990 2946 2912 2945 2972
8 2972 2945 2971 2991 2948 2915 2947 2973
8 2954 2923 2953 2978 2975 2950 2974 2993
8 2976 2951 2924 2955 2994 2975 2954 2979
8 2957 2928 2958 2981 2978 2953 2977 2995
8 2956 2927 2957 2980 2979 2954 2978 2996
8 2959 2930 2960 2982 2980 2957 2981 2997
8 2984 2962 2983 2999 2966 2938 2965 2987
8 2975 2950 2974 2993 2984 2962 2983 2999
8 2976 2951 2975 2994 2985 2963 2984 3000
8 2985 2963 2984 3000 2967 2939 2966 2988
8 2987 2965 2986 3001 2969 2941 2968 2989
8 2988 2966 2987 3002 2970 2942 2969 2990
8 2990 2969 2989 3003 2972 2945 2971 2991
8 2978 2953 2977 2995 2993 2974 2992 3004
8 2979 2954 2978 2996 2994 2975 2993 3005
8 2980 2957 2981 2997 2996 2978 2995 3006
8 2974 2993 2999 2983 2992 3004 3007 2998
8 2983 2999 2987 2965 2998 3007 3001 2986
8 3000 2984 2999 3008 2988 2966 2987 3002
8 2994 2975 2993 3005 3000 2984 2999 3008
8 3002 2987 3001 3009 2990 2969 2989 3003
8 2996 2978 2995 3006 3005 2993 3004 3010
8 3005 2993 3004 3010 3008 2999 3007 3011
8 3008 2999 3007 3011 3002 2987 3001 3009

CELL_TYPES 1910
12
12
12
12
12
12
12
12
12
12
12
12
12
12
12
12
12
12
12
12
12
12
12
12
12
12
12
12
12
12
12
12
12
12
12
12
12
12
12
12
12
12
12
12
12
12
12
12
12
12
12
12
12
12
12
12
12
12
12
12
12
12
12
12
12
12
12
12
12
12
12
12
12
12
12
12
12
12
12
12
12
12
12
12
12
12
12
12
12
12
12
12
12
12
12
12
12
12
12
12
12
12
12
12
12
12
12
12
12
12
12
12
12
12
12
12
12
12
12
12
12
12
12
12
12
12
12
12
12
12
12
12
12
12
12
12
12
12
12
12
12
12
12
12
12
12
12
12
12
12
12
12
12
12
12
12
12
12
12
12
12
12
12
12
12
12
12
12
12
12
12
12
12
12
12
12
12
12
12
12
12
12
12
12
12
12
12
12
12
12
12
12
12
12
12
12
12
12
12
12
12
12
12
12
12
12
12
12
12
12
12
12
12
12
12
12
12
12
12
12
12
12
12
12
12
12
12
12
12
12
12
12
12
12
12
12
12
12
12
12
12
12
12
12
12
12
12
12
12
12
12
12
12
12
12
12
12
12
12
12
12
12
12
12
12
12
12
12
12
12
12
12
12
12
12
12
12
12
12
12
12
12
12
12
12
12
12
12
12
12
12
12
12
12
12
12
12
12
12
12
12
12
12
12
12
12
12
12
12
12
12
12
12
12
12
12
12
12
12
12
12
12
12
12
12
12
12
12
12
12
12
12
12
12
12
12
12
12
12
12
12
12
12
12
12
12
12
12
12
12
12
12
12
12
12
12
12
12
12
12
12
12
12
12
12
12
12
12
12
12
12
12
12
12
12
12
12
12
12
12
12
12
12
12
12
12
12
12
12
12
12
12
12
12
12
12
12
12
12
12
12
12
12
12
12
12
12
12
12
12
12
12
12
12
12
12
12
12
12
12
12
12
12
12
12
12
12
12
12
12
12
12
12
12
12
12
12
12
12
12
12
12
12
12
12
12
12
12
12
12
12
12
12
12
12
12
12
12
12
12
12
12
12
12
12
12
12
12
12
12
12
12
12
12
12
12
12
12
12
12
12
12
12
12
12
12
12
12
12
12
12
12
12
12
12
12
12
12
12
12
12
12
12
12
12
12
12
12
12
12
12
12
12
12
12
12
12
12
12
12
12
12
12
12
12
12
12
12
12
12
12
12
12
12
12
12
12
12
12
12
12
12
12
12
12
12
12
12
12
12
12
12
12
12
12
12
12
12
12
12
12
12
12
12
12
12
12
12
12
12
12
12
12
12
12
12
12
12
12
12
12
12
12
12
12
12
12
12
12
12
12
12
12
12
12
12
12
12
12
12
12
12
12
12
12
12
12
12
12
12
12
12
12
12
12
12
12
12
12
12
12
12
12
12
12
12
12
12
12
12
12
12
12
12
12
12
12
12
12
12
12
12
12
12
12
12
12
12
12
12
12
12
12
12
12
12
12
12
12
12
12
12
12
12
12
12
12
12
12
12
12
12
12
12
12
12
12
12
12
12
12
12
12
12
12
12
12
12
12
12
12
12
12
12
12
12
12
12
12
12
12
12
12
12
12
12
12
12
12
12
12
12
12
12
12
12
12
12
12
12
12
12
12
12
12
12
12
12
12
12
12
12
12
12
12
12
12
12
12
12
12
12
12
12
12
12
12
12
12
12
12
12
12
12
12
12
12
12
12
12
12
12
12
12
12
12
12
12
12
12
12
12
12
12
12
12
12
12
12
12
12
12
12
12
12
12
12
12
12
12
12
12
12
12
12
12
12
12
12
12
12
12
12
12
12
12
12
12
12
12
12
12
12
12
12
12
12
12
12
12
12
12
12
12
12
12
12
12
12
12
12
12
12
12
12
12
12
12
12
12
12
12
12
12
12
12
12
12
12
12
12
12
12
12
12
12
12
12
12
12
12
12
12
12
12
12
12
12
12
12
12
12
12
12
12
12
12
12
12
12
12
12
12
12
12
12
12
12
12
12
12
12
12
12
12
12
12
12
12
12
12
12
12
12
12
12
12
12
12
12
12
12
12
12
12
12
12
12
12
12
12
12
12
12
12
12
12
12
12
12
12
12
12
12
12
12
12
12
12
12
12
12
12
12
12
12
12
12
12
12
12
12
12
12
12
12
12
12
12
12
12
12
12
12
12
12
12
12
12
12
12
12
12
12
12
12
12
12
12
12
12
12
12
12
12
12
12
12
12
12
12
12
12
12
12
12
12
12
12
12
12
12
12
12
12
12
12
12
12
12
12
12
12
12
12
12
12
12
12
12
12
12
12
12
12
12
12
12
12
12
12
12
12
12
12
12
12
12
12
12
12
12
12
12
12
12
12
12
12
12
12
12
12
12
12
12
12
12
12
12
12
12
12
12
12
12
12
12
12
12
12
12
12
12
12
12
12
12
12
12
12
12
12
12
12
12
12
12
12
12
12
12
12
12
12
12
12
12
12
12
12
12
12
12
12
12
12
12
12
12
12
12
12
12
12
12
12
12
12
12
12
12
12
12
12
12
12
12
12
12
12
12
12
12
12
12
12
12
12
12
12
12
12
12
12
12
12
12
12
12
12
12
12
12
12
12
12
12
12
12
12
12
12
12
12
12
12
12
12
12
12
12
12
12
12
12
12
12
12
12
12
12
12
12
12
12
12
12
12
12
12
12
12
12
12
12
12
12
12
12
12
12
12
12
12
12
12
12
12
12
12
12
12
12
12
12
12
12
12
12
12
12
12
12
12
12
12
12
12
12
12
12
12
12
12
12
12
12
12
12
12
12
12
12
12
12
12
12
12
12
12
12
12
12
12
12
12
12
12
12
12
12
12
12
12
12
12
12
12
12
12
12
12
12
12
12
12
12
12
12
12
12
12
12
12
12
12
12
12
12
12
12
12
12
12
12
12
12
12
12
12
12
12
12
12
12
12
12
12
12
12
12
12
12
12
12
12
12
12
12
12
12
12
12
12
12
12
12
12
12
12
12
12
12
12
12
12
12
12
12
12
12
12
12
12
12
12
12
12
12
12
12
12
12
12
12
12
12
12
12
12
12
12
12
12
12
12
12
12
12
12
12
12
12
12
12
12
12
12
12
12
12
12
12
12
12
12
12
12
12
12
12
12
12
12
12
12
12
12
12
12
12
12
12
12
12
12
12
12
12
12
12
12
12
12
12
12
12
12
12
12
12
12
12
12
12
12
12
12
12
12
12
12
12
12
12
12
12
12
12
12
12
12
12
12
12
12
12
12
12
12
12
12
12
12
12
12
12
12
12
12
12
12
12
12
12
12
12
12
12
12
12
12
12
12
12
12
12
12
12
12
12
12
12
12
12
12
12
12
12
12
12
12
12
12
12
12
12
12
12
12
12
12
12
12
12
12
12
12
12
12
12
12
12
12
12
12
12
12
12
12
12
12
12
12
12
12
12
12
12
12
12
12
12
12
12
12
12
12
12
12
12
12
12
12
12
12
12
12
12
12
12
12
12
12
12
12
12
12
12
12
12
12
12
12
12
12
12
12
12
12
12
12
12
12
12
12
12
12
12
12
12
12
12
12
12
12
12
12
12
12
12
12
12
12
12
12
12
12
12
12
12
12
12
12
12
12
12
12
12
12
12
12
12
12
12
12
12
12
12
12
12
12
12
12
12
12
12
12
12
12
12
12
12
12
12
12
12
12
12
12
12
12
12
12
12
12
12
12
12
12
12
12
12
12
12
12
12
12
12
12
12
12
12
12
12
12
12
12
12
12
12
12
12
12
12
12
12
12
12
12
12
12
12
12
12
12
12
12
12
12
12
12
12
12
12
12
12
12
12
12
12
12
12
12
12
12
12
12
12
12
12
12
12
12
12
12
12
12
12
12
12
12
12
12
12
12
12
12
12
12
12
12
12
12
12
12
12
12
12
12
12
12
12
12
12
12
12
12
12
12
12
12
12
12
12
12
12
12
12
12
12
12
12
12
12
12
12
12
12
12
12
12
12
12
12
12
12
12
12
12
12
12
12
12
12
12
12
12
12
12
12
12
12
12
12
12
12
12
12
12
12
12
12
12
12
12
12
12
12
12
12
12
12
12
12
12
12
12
12
12
12
12
12
12
12
12
12
12
12
12
12
12
12
12
12
12
12
12
12
12
12
12
12
12
12
12
12
12
12
12
12
12
12
12
12
12
12
12
12
12
12
12
12
12
12
12
12
12
12
12
12
12
12
12
12
12
12
12
12
12
12
12
12
12
12
12
12
12
12
12
12
12
12
12
12
12
12
12
12
12
12
12
12
12
12
12
12
12
12

POINT_DATA 3012
SCALARS Jp_lamdaP float 4
LOOKUP_TABLE default
0.99999 1 1 0.99999
1 1 1 1
0.999991 1 1 0.999991
0.999968 1 1 0.999968
0.999984 1 1 0.999984
0.999995 1 1 0.999995
0.999806 1 1 0.999806
1 1 1 1
1 1 1 1
1 1 1 1
1 1 1 1
0.999922 1 1 0.999922
0.99994 1 1 0.99994
0.999967 1 1 0.999967
0.999992 1 1 0.999992
0.999971 1 1 0.999971
0.999997 1 1 0.999997
0.999987 1 1 0.999987
0.999808 1 1 0.999808
1 1 1 1
0.999963 1 1 0.999963
0.999976 1 1 0.999976
0.999698 1 1 0.999698
0.999771 1 1 0.999771
1 1 1 1
0.999845 1 1 0.999845
0.999491 1 1 0.999491
1 1 1 1
0.999989 1 1 0.999989
0.999998 1 1 0.999998
1 1 1 1
0.999929 1 1 0.999929
0.999975 1 1 0.999975
0.999992 1 1 0.999992
0.999833 1 1 0.999833
1 1 1 1
0.999901 1 1 0.999901
0.99995 1 1 0.99995
0.999563 1 1 0.999563
1 1 1 1
1 1 1 1
0.999982 1 1 0.999982
1 1 1 1
0.999958 1 1 0.999958
0.99967 1 1 0.99967
1 1 1 1
0.999773 1 1 0.999773
0.999974 1 1 0.999974
0.999988 1 1 0.999988
0.999998 1 1 0.999998
0.999811 1 1 0.999811
0.999972 1 1 0.999972
0.999966 1 1 0.999966
1 1 1 1
0.999979 1 1 0.999979
0.9997 1 1 0.9997
0.999848 1 1 0.999848
0.999774 1 1 0.999774
0.999479 1 1 0.999479
1 1 1 1
0.999954 1 1 0.999954
0.999723 1 1 0.999723
0.999681 1 1 0.999681
0.999733 1 1 0.999733
0.999239 1 1 0.999239
0.999374 1 1 0.999374
1 1 1 1
0.999898 1 1 0.999898
0.999578 1 1 0.999578
0.999131 1 1 0.999131
1 1 1 1
1 1 1 1
1 1 1 1
0.999935 1 1 0.999935
1 1 1 1
1 1 1 1
0.99983 1 1 0.99983
1 1 1 1
0.999904 1 1 0.999904
0.999959 1 1 0.999959
0.999561 1 1 0.999561
1 1 1 1
1 1 1 1
0.999789 1 1 0.999789
0.999861 1 1 0.999861
0.999307 1 1 0.999307
0.999981 1 1 0.999981
0.999516 1 1 0.999516
0.999609 1 1 0.999609
0.999315 1 1 0.999315
1 1 1 1
1 1 1 1
1 1 1 1
1 1 1 1
1 1 1 1
0.999976 1 1 0.999976
0.999697 1 1 0.999697
0.999985 1 1 0.999985
0.999768 1 1 0.999768
1 1 1 1
0.999639 1 1 0.999639
0.999745 1 1 0.999745
0.999017 1 1 0.999017
0.999791 1 1 0.999791
0.999113 1 1 0.999113
0.999949 1 1 0.999949
0.999969 1 1 0.999969
1 1 1 1
0.999982 1 1 0.999982
0.999702 1 1 0.999702
0.999777 1 1 0.999777
0.99985 1 1 0.99985
0.999467 1 1 0.999467
1 1 1 1
0.999959 1 1 0.999959
0.99966 1 1 0.99966
0.999682 1 1 0.999682
1 1 1 1
0.999921 1 1 0.999921
0.999735 1 1 0.999735
0.999218 1 1 0.999218
0.999565 1 1 0.999565
0.999388 1 1 0.999388
0.999132 1 1 0.999132
0.999655 1 1 0.999655
0.999667 1 1 0.999667
0.999087 1 1 0.999087
0.99917 1 1 0.99917
0.999275 1 1 0.999275
0.998895 1 1 0.998895
1 1 1 1
0.999058 1 1 0.999058
0.999976 1 1 0.999976
0.99961 1 1 0.99961
0.999204 1 1 0.999204
0.99898 1 1 0.99898
0.999998 1 1 0.999998
0.999767 1 1 0.999767
1 1 1 1
1 1 1 1
0.999836 1 1 0.999836
1 1 1 1
0.999969 1 1 0.999969
0.999908 1 1 0.999908
0.99956 1 1 0.99956
1 1 1 1
1 1 1 1
0.999803 1 1 0.999803
0.999872 1 1 0.999872
0.999309 1 1 0.999309
0.999987 1 1 0.999987
0.999517 1 1 0.999517
0.999608 1 1 0.999608
0.999306 1 1 0.999306
0.999997 1 1 0.999997
1 1 1 1
0.999805 1 1 0.999805
0.999213 1 1 0.999213
0.999424 1 1 0.999424
0.999006 1 1 0.999006
0.999672 1 1 0.999672
0.999259 1 1 0.999259
0.999345 1 1 0.999345
0.999209 1 1 0.999209
1 1 1 1
1 1 1 1
1 1 1 1
1 1 1 1
1 1 1 1
1 1 1 1
1 1 1 1
0.99976 1 1 0.99976
0.999686 1 1 0.999686
1 1 1 1
1 1 1 1
0.999642 1 1 0.999642
0.99974 1 1 0.99974
0.999017 1 1 0.999017
0.999777 1 1 0.999777
0.999113 1 1 0.999113
0.999629 1 1 0.999629
0.99896 1 1 0.99896
0.999073 1 1 0.999073
0.998729 1 1 0.998728
0.999153 1 1 0.999153
0.998832 1 1 0.998832
1 1 1 1
0.999964 1 1 0.999964
0.999593 1 1 0.999593
0.999682 1 1 0.999682
1 1 1 1
0.999943 1 1 0.999943
0.999738 1 1 0.999738
0.999197 1 1 0.999197
0.999402 1 1 0.999402
0.999551 1 1 0.999551
0.999133 1 1 0.999133
0.999652 1 1 0.999652
0.999667 1 1 0.999667
0.999044 1 1 0.999044
0.999186 1 1 0.999186
1 1 1 1
0.99997 1 1 0.99997
0.999629 1 1 0.999629
0.999277 1 1 0.999277
0.998869 1 1 0.998869
0.999201 1 1 0.999201
0.99907 1 1 0.99907
0.998982 1 1 0.998982
0.999997 1 1 0.999997
0.999767 1 1 0.999767
0.998972 1 1 0.998972
0.999142 1 1 0.999142
0.998784 1 1 0.998784
0.998804 1 1 0.998804
0.998984 1 1 0.998984
0.998771 1 1 0.998771
0.999991 1 1 0.999991
0.998914 1 1 0.998914
0.99965 1 1 0.99965
0.999304 1 1 0.999304
0.999054 1 1 0.999054
0.99893 1 1 0.99893
0.999704 1 1 0.999704
0.999843 1 1 0.999843
0.999469 1 1 0.999469
0.9998 1 1 0.9998
1 1 1 1
1 1 1 1
0.999878 1 1 0.999878
0.999311 1 1 0.999311
0.999993 1 1 0.999993
0.999608 1 1 0.999608
0.999519 1 1 0.999519
0.999297 1 1 0.999297
0.999999 1 1 0.999999
1 1 1 1
0.999806 1 1 0.999806
0.999214 1 1 0.999214
0.999428 1 1 0.999428
0.999006 1 1 0.999006
0.999672 1 1 0.999672
0.999267 1 1 0.999267
0.999343 1 1 0.999343
0.999199 1 1 0.999199
1 1 1 1
0.999734 1 1 0.999734
0.999877 1 1 0.999877
0.999523 1 1 0.999523
0.998915 1 1 0.998915
0.99915 1 1 0.99915
0.998969 1.00011 1 0.998856
0.99941 1 1 0.99941
0.999153 1 1 0.999153
0.999397 1 1.00022 0.999177
0.99912 1 1 0.99912
0.999974 1 1 0.999974
1 1 1 1
1 1 1 1
1 1 1 1
1 1 1 1
1 1 1 1
1 1 1 1
1 1 1 1
1 1 1 1
0.999779 1 1 0.999779
0.99973 1 1 0.99973
0.999113 1 1 0.999113
0.999017 1 1 0.999017
0.999644 1 1 0.999644
1 1 1 1
0.999628 1 1 0.999628
0.99896 1 1 0.99896
0.999073 1 1 0.999073
0.998729 1 1 0.998728
0.999154 1 1 0.999154
0.998832 1 1 0.998832
0.998946 1 1 0.998946
0.998682 1.00001 1 0.99867
0.998786 1 1 0.998786
0.99979 1.00114 1 0.998649
0.99887 1 1 0.99887
0.998926 1.00019 1 0.998738
0.999649 1 1 0.999649
0.999668 1 1 0.999668
0.999001 1 1 0.999001
0.999202 1 1 0.999202
1 1 1 1
0.999963 1 1 0.999963
0.999647 1 1 0.999647
0.999278 1 1 0.999278
0.998844 1 1 0.998844
0.999082 1 1 0.999082
0.999197 1 1 0.999197
0.998985 1 1 0.998985
0.999995 1 1 0.999995
0.999767 1 1 0.999767
0.998957 1 1 0.998957
0.999142 1 1 0.999142
0.998773 1 1 0.998773
0.998831 1 1 0.998831
0.999987 1 1 0.999987
0.99965 1 1 0.99965
0.999323 1 1 0.999323
0.998984 1 1 0.998984
0.998765 1 1 0.998765
0.999034 1 1 0.999034
0.998914 1 1 0.998914
0.998931 1 1 0.998931
0.999705 1 1 0.999705
0.999466 1 1 0.999466
0.999842 1 1 0.999842
0.998736 1.00001 1 0.998729
0.998811 1 1 0.998811
0.999393 1.00075 1 0.998644
0.998752 1.00004 1 0.998708
0.99884 1 1 0.99884
0.999122 1.00036 1 0.998767
0.999673 1 1 0.999673
0.999003 1.00012 1 0.998881
0.999416 1 1 0.999416
0.999129 1 1 0.999129
0.998928 1 1 0.998928
0.998973 1 1 0.998973
0.999901 1 1 0.999901
0.999457 1 1 0.999457
0.999501 1 1 0.999501
0.999357 1 1 0.999357
0.999214 1 1 0.999214
1 1 1 1
1 1 1 1
0.999806 1 1 0.999806
0.999431 1 1 0.999431
0.999006 1 1 0.999006
0.999672 1 1 0.999672
0.999342 1 1 0.999342
0.999276 1 1 0.999276
0.999189 1 1 0.999189
1 1 1 1
0.999733 1 1 0.999733
0.99988 1 1 0.99988
0.999521 1 1 0.999521
0.998913 1 1 0.998913
0.999152 1 1 0.999152
0.998936 1.00008 1 0.998856
0.999411 1 1 0.999411
0.999164 1 1 0.999164
0.999265 1 1.00009 0.999171
0.999155 1 1 0.999155
1 1 1 1
0.999923 1 1 0.999923
0.999471 1 1 0.999471
0.999589 1 1 0.999589
0.999362 1 1 0.999362
0.998932 1.00015 1 0.998785
0.999013 1 1 0.999013
0.998964 1.00016 1 0.998803
0.999371 1 1.00015 0.999226
0.999092 1 1 0.999092
0.999256 1 1.00025 0.999004
0.999963 1 1 0.999963
0.999773 1 1 0.999773
0.999982 1 1 0.999982
0.999977 1 1 0.999977
1 1 1 1
1 1 1 1
1 1 1 1
1 1 1 1
1 1 1 1
1 1 1 1
1 1 1 1
1 1 1 1
1 1 1 1
1 1 1 1
1 1 1 1
0.999154 1 1 0.999154
0.999073 1 1 0.999073
0.998833 1 1 0.998833
0.998727 1 1 0.998727
0.998961 1 1 0.998961
0.999627 1 1 0.999627
0.998946 1 1 0.998946
0.998684 1.00001 1 0.998671
0.998787 1 1 0.998787
0.999686 1.00104 1 0.998645
0.998869 1 1 0.998869
0.998842 1.0001 1 0.998738
0.998673 1.00002 1 0.998655
1.00137 1.00278 1 0.998594
0.999323 1.00063 1 0.998692
1.00284 1.0042 1 0.998642
0.998804 1.00004 1 0.998767
1.00019 1.00142 1 0.99877
0.998943 1 1 0.998943
0.999141 1 1 0.999141
0.998762 1 1 0.998762
0.998858 1 1 0.998858
0.999984 1 1 0.999984
0.99965 1 1 0.99965
0.999342 1 1 0.999342
0.998984 1 1 0.998984
0.998759 1 1 0.998759
0.998915 1 1 0.998915
0.999013 1 1 0.999013
0.998931 1 1 0.998931
0.999706 1 1 0.999706
0.999463 1 1 0.999463
0.99984 1 1 0.99984
0.998714 1.00001 1 0.998706
0.99881 1 1 0.99881
0.999602 1.00097 1 0.998634
0.998848 1.00014 1 0.998713
0.999674 1 1 0.999674
0.999413 1 1 0.999413
0.999152 1 1 0.999152
0.99885 1 1 0.99885
0.999189 1.00042 1 0.998773
0.998913 1 1 0.998913
0.999087 1.00021 1 0.998882
0.998982 1 1 0.998981
0.99946 1 1 0.99946
0.999344 1 1 0.999344
0.999898 1 1 0.999898
0.999512 1 1 0.999512
1.00009 1.00151 1 0.998588
0.999141 1.00047 1 0.998676
1.00239 1.0038 1 0.998595
0.999477 1.00078 1 0.998695
0.999443 1.00062 1 0.998828
1.00057 1.00178 1 0.998794
0.999452 1 1 0.999452
0.999473 1.00051 1 0.998963
0.999265 1 1 0.999265
0.998984 1 1 0.998984
0.998848 1 1 0.998848
0.999077 1.0001 1 0.998979
0.99993 1 1 0.99993
0.999572 1 1 0.999572
0.999353 1 1 0.999353
0.999366 1 1 0.999366
0.999302 1 1 0.999302
1 1 1 1
0.998912 1 1 0.998912
0.999883 1 1 0.999883
0.999733 1 1 0.999733
0.99952 1 1 0.99952
0.999154 1 1 0.999154
0.9989 1.00004 1 0.998856
0.999413 1 1 0.999413
0.999179 1 1.00001 0.999165
0.999174 1 1 0.999174
0.999189 1 1 0.999189
1 1 1 1
0.999927 1 1 0.999927
0.999471 1 1 0.999471
0.999589 1 1 0.999589
0.999353 1 1 0.999353
0.998969 1.00019 1 0.998782
0.999014 1 1 0.999014
0.998978 1.00018 1 0.998799
0.999344 1 1.00012 0.999228
0.9991 1 1 0.9991
0.99942 1 1.0004 0.999019
0.999948 1 1 0.999948
0.999656 1 1 0.999656
0.999297 1 1 0.999297
0.999412 1 1 0.999412
0.999267 1 1 0.999267
0.999399 1.00065 1 0.998753
0.998978 1.00003 1 0.998952
0.999121 1.00024 1 0.99888
1.00049 1 1.00143 0.999059
0.998925 1 1 0.998925
0.999967 1 1 0.999967
0.999719 1 1 0.999719
0.999759 1 1 0.999759
0.999624 1 1 0.999624
0.999782 1 1 0.999782
0.999987 1 1 0.999987
0.999984 1 1 0.999984
1 1 1 1
0.999979 1 1 0.999979
1 1 1 1
1 1 1 1
1 1 1 1
1 1 1 1
1 1 1 1
1 1 1 1
1 1 1 1
1 1 1 1
1 1 1 1
1 1 1 1
1 1 1 1
0.998868 1 1 0.998868
0.998787 1 1 0.998787
0.998758 1.00002 1 0.998739
0.99957 1.00093 1 0.99864
0.998686 1.00002 1 0.998671
0.998945 1 1 0.998945
0.998676 1.00002 1 0.998655
1.00138 1.00279 1 0.998586
0.999166 1.00047 1 0.998692
1.0028 1.00416 1 0.998642
0.998873 1.00011 1 0.998765
0.999991 1.00122 1 0.99877
1.0011 1.00254 1 0.998563
1.00559 1.00702 1 0.998584
1.00168 1.00299 1 0.998697
1.00492 1.00628 1 0.998647
0.999849 1.00108 1 0.998772
1.00235 1.00355 1 0.998805
0.998692 1.00001 1 0.998683
0.99881 1 1 0.99881
0.999804 1.00118 1 0.998624
0.998938 1.00022 1 0.998718
0.999675 1 1 0.999675
0.999411 1 1 0.999411
0.999175 1 1 0.999175
0.998859 1 1 0.998859
0.999245 1.00047 1 0.99878
0.999181 1.0003 1 0.998882
0.998897 1 1 0.998897
0.998998 1.00001 1 0.998989
0.999462 1 1 0.999462
0.999331 1 1 0.999331
0.999895 1 1 0.999895
0.999522 1 1 0.999522
1.00043 1.00185 1 0.998589
0.999211 1.00053 1 0.998677
1.00196 1.00337 1 0.998597
0.999407 1.00071 1 0.998696
0.999452 1 1 0.999452
0.999284 1 1 0.999284
0.998992 1 1.00001 0.998981
0.999469 1.00065 1 0.998824
1.00052 1.0017 1 0.998823
0.99884 1 1 0.99884
0.999727 1.00076 1 0.998964
0.999059 1.00005 1 0.999008
0.999353 1 1 0.999353
0.999298 1 1 0.999298
0.999363 1 1 0.999363
0.999909 1 1 0.999909
0.999581 1 1 0.999581
1.00473 1.00618 1 0.998559
1.00229 1.00369 1 0.9986
1.00158 1.00286 1 0.998725
1.0011 1.00223 1 0.998877
0.999352 1 1 0.999352
1.00097 1.00194 1 0.999027
0.999159 1 1 0.999159
0.998999 1 1.0002 0.998799
0.998845 1.00007 1 0.998778
0.999913 1 1 0.999913
0.999668 1 1 0.999668
0.999434 1 1 0.999434
0.99932 1 1 0.99932
0.999259 1 1 0.999259
0.999262 1 1 0.999262
1 1 1 1
0.999932 1 1 0.999932
0.999008 1.00023 1 0.99878
0.999589 1 1 0.999589
0.999471 1 1 0.999471
0.999344 1 1 0.999344
0.999015 1 1 0.999015
0.998989 1.00019 1 0.998794
0.999272 1 1.00004 0.99923
0.999432 1 1.0004 0.999033
0.999108 1 1 0.999108
0.999952 1 1 0.999952
0.999657 1 1 0.999657
0.999306 1 1 0.999306
0.999411 1 1 0.999411
0.999255 1 1 0.999255
0.999364 1.00061 1 0.998751
0.998961 1.00001 1 0.998948
0.999135 1.00024 1 0.998893
1.00008 1 1.00103 0.999051
0.998935 1 1.00004 0.998898
0.999707 1 1 0.999707
0.999448 1 1 0.999448
0.999871 1 1.0007 0.999175
0.999262 1 1 0.999262
0.999182 1 1 0.999182
1.00182 1.0029 1 0.998925
0.998889 1.00004 1 0.998854
1.00013 1.00125 1 0.99889
1.00143 1 1.00248 0.998954
0.998718 1 1 0.998718
0.99997 1 1 0.99997
0.99973 1 1 0.99973
0.999546 1 1 0.999546
0.999744 1 1 0.999744
0.999782 1 1 0.999782
0.999603 1 1 0.999603
0.999493 1 1 0.999493
0.999599 1 1 0.999599
0.999791 1 1 0.999791
0.999988 1 1 0.999988
0.999987 1 1 0.999987
1 1 1 1
0.999985 1 1 0.999985
1 1 1 1
1 1 1 1
1 1 1 1
1 1 1 1
1 1 1 1
1 1 1 1
1 1 1 1
1 1 1 1
1 1 1 1
1 1 1 1
1 1 1 1
0.998942 1.00018 1 0.998762
0.99902 1.00033 1 0.998692
0.999805 1.00104 1 0.99877
1.00276 1.00412 1 0.998643
1.00139 1.00281 1 0.998579
0.99868 1.00002 1 0.998655
1.00124 1.00268 1 0.99856
1.00547 1.00689 1 0.998585
1.00181 1.00312 1 0.998688
1.00518 1.00654 1 0.998643
0.999607 1.00084 1 0.998773
1.00212 1.0033 1 0.998823
1.00603 1.00749 1 0.998554
1.00676 1.00816 1 0.998617
1.00535 1.00664 1 0.998716
1.0026 1.00373 1 0.998882
1.00077 1.00218 1 0.99859
0.999287 1.00061 1 0.998678
1.00156 1.00297 1 0.9986
0.999345 1.00065 1 0.998698
0.999452 1 1 0.999452
0.999302 1 1 0.999302
0.999111 1 1.00013 0.998979
0.99949 1.00067 1 0.998819
1.00053 1.00168 1 0.998852
0.999993 1.00103 1 0.998964
0.998831 1 1 0.998831
0.999037 1 1 0.999037
0.999354 1 1 0.999354
0.999294 1 1 0.999294
0.999361 1 1 0.999361
0.999887 1 1 0.999887
0.99959 1 1 0.99959
1.00434 1.00579 1 0.998563
1.00238 1.00377 1 0.998606
1.00154 1.00281 1 0.998734
0.99935 1 1 0.99935
0.999194 1 1.00001 0.999181
0.999225 1 1.00043 0.998794
1.0013 1.00243 1 0.998868
0.998849 1.00004 1 0.998813
1.00059 1.00156 1 0.999029
0.999914 1 1 0.999914
0.999319 1 1 0.999319
0.999272 1 1 0.999272
0.999256 1 1 0.999256
0.999441 1 1 0.999441
0.999652 1 1 0.999652
1.00603 1.00748 1 0.998569
1.00435 1.00574 1 0.998619
1.00338 1.0046 1 0.998779
1.00342 1.00447 1 0.998955
0.999291 1 1 0.999291
0.999757 1.0009 1 0.998862
0.999429 1 1.00049 0.998944
0.999606 1 1.00094 0.998665
0.999935 1 1 0.999935
0.999716 1 1 0.999716
0.999498 1 1 0.999498
0.999276 1 1 0.999276
0.999267 1 1 0.999267
0.999208 1 1 0.999208
0.999956 1 1 0.999956
0.999657 1 1 0.999657
0.99933 1.00058 1 0.998749
0.99941 1 1 0.99941
0.999314 1 1 0.999314
0.999243 1 1 0.999243
0.998944 1 1 0.998944
0.999152 1.00025 1 0.998906
0.999746 1 1.0007 0.999043
0.999029 1 1.00016 0.998872
0.999708 1 1 0.999708
0.999455 1 1 0.999455
0.999608 1 1.00042 0.99919
0.999268 1 1 0.999268
0.999188 1 1 0.999188
1.0018 1.00287 1 0.998927
0.998878 1.00002 1 0.998857
0.999824 1.00086 1 0.998965
1.00157 1 1.00263 0.998944
0.998709 1 1.00003 0.99868
0.99951 1 1 0.99951
0.999288 1 1 0.999288
1.00117 1 1.00209 0.999079
0.999126 1 1 0.999126
1.00771 1.00878 1 0.99894
1.00445 1.00558 0.999872 0.999
0.999397 1.00071 1 0.998684
1.00212 1 1.00343 0.998699
0.999741 1 1 0.999741
0.999556 1 1 0.999556
0.99944 1 1 0.99944
0.999782 1 1 0.999782
0.999582 1 1 0.999582
0.999791 1 1 0.999791
0.999477 1 1 0.999477
0.999606 1 1 0.999606
0.999386 1 1 0.999386
0.999478 1 1 0.999478
0.999608 1 1 0.999608
0.999793 1 1 0.999793
0.999986 1 1 0.999986
0.999987 1 1 0.999987
1 1 1 1
0.999988 1 1 0.999988
1 1 1 1
1 1 1 1
1 1 1 1
1 1 1 1
1 1 1 1
1 1 1 1
1 1 1 1
1 1 1 1
1 1 1 1
1 1 1 1
1 1 1 1
0.999363 1.00059 1 0.998773
1.00192 1.00325 1 0.998678
1.00189 1.00306 1 0.99884
1.00543 1.0068 1 0.998639
1.00534 1.00676 1 0.998585
1.00139 1.00283 1 0.998557
1.00575 1.0072 1 0.99856
1.00661 1.00801 1 0.998616
1.00525 1.00654 1 0.998721
1.00316 1.00428 1 0.998877
1.00771 1.00913 1 0.998589
1.00795 1.00927 1 0.998692
1.00655 1.00775 1 0.998808
1.00396 1.0054 1 0.998567
1.00248 1.00387 1 0.998613
1.00147 1.00273 1 0.998742
0.999348 1 1 0.999348
0.999203 1 1 0.999203
0.999335 1 1.00055 0.998789
1.00143 1.00258 1 0.998859
1.00025 1.00122 1 0.999031
0.998849 1 1 0.998849
0.999318 1 1 0.999318
0.999283 1 1 0.999283
0.999253 1 1 0.999253
0.999915 1 1 0.999915
0.999448 1 1 0.999448
0.999635 1 1 0.999635
1.00656 1.008 1 0.99857
1.00412 1.00551 1 0.998618
1.00336 1.0046 1 0.998766
0.999287 1 1 0.999287
0.999475 1 1.00049 0.998983
0.999552 1 1.00088 0.99867
1.00379 1.00482 1 0.998974
0.999888 1.00103 1 0.998856
0.999951 1 1 0.999951
0.999717 1 1 0.999717
0.999267 1 1 0.999267
0.999223 1 1 0.999223
0.999279 1 1 0.999279
0.999486 1 1 0.999486
1.00739 1.00877 1 0.998626
1.00575 1.00709 1 0.99867
1.00639 1.00758 0.999905 0.998918
1.00449 1.00549 1 0.99901
0.999418 1 1.00023 0.999187
1.00007 1.00007 1.0014 0.998601
1.00067 1 1.00186 0.998809
0.999984 1 1 0.999984
0.999811 1 1 0.999811
0.999719 1 1 0.999719
0.999518 1 1 0.999518
0.999337 1 1 0.999337
0.999161 1 1 0.999161
0.999276 1 1 0.999276
1.00051 1 1.00128 0.999233
0.999708 1 1 0.999708
0.999462 1 1 0.999462
1.0017 1.00278 1 0.998929
0.999273 1 1 0.999273
0.999381 1 1.00018 0.999205
0.999195 1 1 0.999195
0.998873 1.00001 1 0.99886
0.999498 1.00046 1 0.999039
1.00172 1 1.00279 0.998933
0.998642 1 1 0.998642
0.999503 1 1 0.999503
0.999297 1 1 0.999297
1.0014 1 1.00231 0.999091
0.999137 1 1 0.999137
1.00724 1.00832 1 0.998932
1.00388 1.00494 0.999949 0.998996
0.999644 1.00093 1 0.998716
1.00166 1 1.00299 0.99868
0.999389 1 1 0.999389
1.00796 1.00916 0.999942 0.998868
0.999174 1 1 0.999174
1.00072 1 1.00177 0.998959
1.01088 1.01216 0.999722 0.99901
1.00399 1.00529 1 0.998704
1.00179 1 1.00323 0.998569
0.999566 1 1 0.999566
0.99944 1 1 0.99944
0.99934 1 1 0.99934
0.999791 1 1 0.999791
0.999614 1 1 0.999614
0.999461 1 1 0.999461
0.999793 1 1 0.999793
0.999607 1 1 0.999607
0.999373 1 1 0.999373
0.999494 1 1 0.999494
0.999306 1 1 0.999306
0.999373 1 1 0.999373
0.999509 1 1 0.999509
0.999624 1 1 0.999624
0.999788 1 1 0.999788
0.999983 1 1 0.999983
0.999985 1 1 0.999985
1 1 1 1
0.999987 1 1 0.999987
1 1 1 1
1 1 1 1
1 1 1 1
1 1 1 1
1 1 1 1
0.999992 1 1 0.999992
1 1 1 1
1 1 1 1
1 1 1 1
1 1 1 1
1 1 1 1
1 1 1 1
1.00372 1.00486 1 0.998871
1.00515 1.00643 1 0.998727
1.00647 1.00787 1 0.998615
1.00546 1.00691 1 0.998565
1.0076 1.00901 1 0.998596
1.00838 1.00971 1 0.998682
1.00708 1.00827 1 0.998822
1.00759 1.00894 1 0.998668
1.00914 1.01039 1 0.998757
1.00638 1.00791 0.999574 0.998901
1.00703 1.00847 1 0.998572
1.00389 1.00528 1 0.998617
1.00344 1.0047 1 0.998753
0.999282 1 1 0.999282
0.999555 1 1.00053 0.999022
0.999451 1 1.00078 0.998676
1.00436 1.00538 1 0.998992
0.999918 1.00107 1 0.998851
0.999267 1 1 0.999267
0.999237 1 1 0.999237
0.999281 1 1 0.999281
0.999968 1 1 0.999968
0.999717 1 1 0.999717
0.999473 1 1 0.999473
1.00687 1.00825 1 0.998635
0.999981 1 1 0.999981
0.999799 1 1 0.999799
1.00556 1.0069 1 0.998669
1.00751 1.00863 1 0.998891
0.999387 1 1.00018 0.99921
1.00124 1 1.00247 0.998778
0.99961 1.00016 1.00084 0.998609
1.0041 1.0051 1 0.99901
0.999751 1 1 0.999751
0.999517 1 1 0.999517
0.999255 1 1 0.999255
0.999923 1 1.00064 0.999284
0.999142 1 1 0.999142
0.99934 1 1 0.99934
1.00791 1.0092 1 0.998728
1.0087 1.00995 1 0.998768
1.00835 1.00967 0.999601 0.999097
1.00039 1.00158 1 0.998804
1.00073 1 1.00157 0.999157
1.00345 1 1.00485 0.998601
0.999813 1 1 0.999813
0.999779 1 1 0.999779
0.999655 1 1 0.999655
0.999522 1 1 0.999522
0.999389 1 1 0.999389
0.999199 1 1 0.999199
1.00038 1 1.00132 0.999064
0.999296 1 1 0.999296
0.999496 1 1 0.999496
0.999305 1 1 0.999305
1.00698 1.00807 1 0.998924
1.0035 1.00451 1 0.998993
0.999149 1 1 0.999149
1.00157 1 1.00247 0.999103
0.999949 1.00117 1.00004 0.998749
1.00126 1 1.0026 0.998661
0.999387 1 1 0.999387
1.00818 1.00939 0.999916 0.998885
0.999177 1 1 0.999177
1.00086 1 1.00192 0.998941
1.01051 1.01179 0.99974 0.998997
1.0043 1.00559 1 0.998716
1.00202 1.00001 1.00343 0.998575
0.999251 1 1 0.999251
1.01723 1.01971 0.998555 0.999015
0.99907 1 1 0.99907
1.00206 1 1.00329 0.998776
1.0051 1.00912 0.997225 0.99879
1.0019 1.00114 1.00221 0.998551
1.00707 1.00935 0.998685 0.999053
0.999439 1 1 0.999439
0.999339 1 1 0.999339
0.999265 1 1 0.999265
0.999793 1 1 0.999793
0.999607 1 1 0.999607
0.999511 1 1 0.999511
0.999359 1 1 0.999359
0.999788 1 1 0.999788
0.999615 1 1 0.999615
0.999301 1 1 0.999301
0.999509 1 1 0.999509
0.999387 1 1 0.999387
0.99929 1 1 0.99929
0.999428 1 1 0.999428
0.999517 1 1 0.999517
0.999595 1 1 0.999595
0.999755 1 1 0.999755
0.999644 1 1 0.999644
0.999757 1 1 0.999757
0.999982 1 1 0.999982
0.999983 1 1 0.999983
1 1 1 1
0.999984 1 1 0.999984
1 1 1 1
1 1 1 1
1 1 1 1
1 1 1 1
1 1 1 1
0.999996 1 1 0.999996
0.99999 1 1 0.99999
1 1 1 1
1 1 1 1
1 1 1 1
1 1 1 1
1 1 1 1
1 1 1 1
1.00757 1.00874 1 0.998836
1.0088 1.01014 1 0.998673
1.00752 1.00893 1 0.998603
1.00803 1.00938 1 0.998667
1.00842 1.00967 1 0.998761
1.00711 1.00838 0.999836 0.998906
1.00805 1.00938 0.999872 0.998811
1.01042 1.0159 0.995639 0.998968
1.01976 1.02244 0.998301 0.999079
0.999854 1 1 0.999854
1.00642 1.00779 1 0.998645
1.00524 1.00658 1 0.998668
1.00833 1.00948 1 0.998864
0.999367 1 1.00013 0.999233
1.00195 1 1.00321 0.998748
0.99936 1.00029 1.00045 0.998616
1.00358 1.00458 1 0.999009
0.999234 1 1 0.999234
0.999336 1 1 0.999336
0.999122 1 1 0.999122
0.999978 1 1 0.999978
0.999343 1 1 0.999343
0.999783 1 1 0.999783
0.999516 1 1 0.999516
0.999788 1 1 0.999788
1.00807 1.00935 1 0.998727
0.999827 1 1 0.999827
0.999778 1 1 0.999778
0.99963 1 1 0.99963
1.00915 1.01039 1 0.998771
1.00689 1.00837 0.999469 0.999062
1.00009 1 1.00093 0.999168
1.00365 1 1.00506 0.998593
1.00059 1.00162 1.00016 0.998809
0.999539 1 1 0.999539
0.999382 1 1 0.999382
0.999643 1 1.00038 0.999265
1.00039 1 1.0013 0.999088
0.999213 1 1 0.999213
1.0098 1.01142 0.999643 0.998758
1.00863 1.0124 0.997374 0.998896
1.00307 1.00445 0.999716 0.99891
1.00249 1.00073 1.00306 0.998696
1.00332 1 1.00426 0.999068
0.999632 1 1 0.999632
0.99957 1 1 0.99957
0.999502 1 1 0.999502
0.9994 1 1 0.9994
0.999281 1 1 0.999281
0.999485 1 1.00037 0.999115
1.0034 1 1.00439 0.999019
0.999385 1 1 0.999385
0.99918 1 1 0.99918
1.00832 1.00951 0.999921 0.998902
1.00997 1.01129 0.999712 0.998984
1.00441 1.00569 1 0.998729
1.00097 1 1.00205 0.998923
1.00209 1 1.00352 0.998581
0.999266 1 1 0.999266
1.01706 1.02005 0.998047 0.999019
0.999076 1 1 0.999076
1.00224 1 1.00346 0.998784
1.00627 1.00963 0.99784 0.998829
1.00209 1.00085 1.00269 0.998545
1.00841 1.01067 0.998821 0.998945
0.999171 1 1 0.999171
1.00206 1.01265 0.99056 0.998972
1.00012 1 1.00108 0.999035
1.00487 1 1.00618 0.998701
1.00125 1.00155 1.00104 0.998653
0.960198 0.968613 0.997303 0.993993
0.999322 0.995726 1.00618 0.997445
0.987358 1.00658 0.981703 0.999182
0.917552 0.937197 0.982746 0.996227
0.91482 0.95332 0.962823 0.996667
0.999339 1 1 0.999339
0.999272 1 1 0.999272
0.999255 1 1 0.999255
0.999787 1 1 0.999787
0.999606 1 1 0.999606
0.999508 1 1 0.999508
0.999401 1 1 0.999401
0.999297 1 1 0.999297
0.999502 1 1 0.999502
0.999768 1 1 0.999768
0.999606 1 1 0.999606
0.999296 1 1 0.999296
0.999424 1 1 0.999424
0.999435 1 1 0.999435
0.999351 1 1 0.999351
0.999474 1 1 0.999474
0.999583 1 1 0.999583
0.999754 1 1 0.999754
0.999619 1 1 0.999619
0.999519 1 1 0.999519
0.999614 1 1 0.999614
0.999624 1 1 0.999624
0.999782 1 1 0.999782
0.999756 1 1 0.999756
0.999981 1 1 0.999981
0.999981 1 1 0.999981
1 1 1 1
0.999982 1 1 0.999982
1 1 1 1
1 1 1 1
1 1 1 1
1 1 1 1
1 1 1 1
0.999997 1 1 0.999997
0.999995 1 1 0.999995
1 1 1 1
0.999988 1 1 0.999988
1 1 1 1
1 1 1 1
1 1 1 1
1 1 1 1
1 1 1 1
1.00773 1.00898 1 0.998765
1.00842 1.00977 1 0.998666
1.00761 1.00871 1 0.99891
1.01081 1.01569 0.996198 0.998987
1.00792 1.00919 0.999928 0.99881
1.02054 1.02309 0.99847 0.999037
1.01993 1.02157 0.999649 0.998743
0.977232 0.984914 0.995272 0.996914
1.01662 1.01928 0.998263 0.999123
0.999861 1 1 0.999861
0.999853 1 1 0.999853
0.999681 1 1 0.999681
0.9997 1 1 0.9997
1.00827 1.00955 1 0.998727
1.00962 1.01086 1 0.998775
1.00541 1.00691 0.999481 0.999027
0.999317 1 1.00014 0.99918
1.00349 1 1.00491 0.998585
1.00075 1.0018 1.00013 0.998814
0.999986 1 1.00075 0.999233
1.00039 1 1.00128 0.999113
0.999227 1 1 0.999227
0.999777 1 1 0.999777
0.999375 1 1 0.999375
0.999556 1 1 0.999556
0.999841 1 1 0.999841
0.999605 1 1 0.999605
1.00834 1.0098 0.999783 0.998775
0.999657 1 1 0.999657
0.999584 1 1 0.999584
0.999498 1 1 0.999498
1.0101 1.01292 0.998305 0.998906
1.00171 1.00327 0.999541 0.998907
1.00302 1 1.00396 0.999065
1.00215 1.00078 1.00269 0.998682
0.999403 1 1 0.999403
0.999288 1 1 0.999288
1.00234 1 1.00332 0.999019
0.999915 1 1.00082 0.999097
1.01774 1.01938 0.999593 0.998798
1.00446 1.01036 0.995273 0.998879
1.00128 1.00191 1.00073 0.998645
1.00181 1 1.00287 0.998948
0.999455 1 1 0.999455
0.999439 1 1 0.999439
0.999238 1 1 0.999238
1.00404 1 1.00511 0.998935
0.949348 0.9654 0.989458 0.993849
0.999281 1 1 0.999281
0.999081 1 1 0.999081
1.01656 1.02022 0.997382 0.999024
1.00746 1.01004 0.99857 0.998867
1.00245 1.00062 1.0033 0.998538
1.0025 1 1.00371 0.998792
1.00929 1.01173 0.998752 0.998835
0.999182 1 1 0.999182
1.00137 1.01231 0.990219 0.99896
0.999796 1 1.00076 0.99904
1.00464 1 1.00594 0.998704
1.00104 1.00214 1.00023 0.998664
0.95779 0.967818 0.995392 0.99422
0.994219 0.99353 1.0042 0.996511
0.990235 1.00687 0.984235 0.999229
0.924529 0.940052 0.987589 0.995846
0.905069 0.946492 0.959671 0.99642
0.999356 1 1.00014 0.999211
0.928527 0.942149 0.990033 0.995463
0.934496 0.954993 0.98153 0.996951
0.978275 1.00296 0.976383 0.998977
1.00334 1 1.00431 0.999041
1.0089 1.00001 1.01009 0.998818
0.989944 1.00509 0.985612 0.999305
0.968823 0.971937 1.00311 0.993703
0.996278 0.99288 1.00717 0.996282
0.91375 0.942372 0.973416 0.996108
0.946117 0.979276 0.968462 0.997602
0.999278 1 1 0.999278
0.999255 1 1 0.999255
0.999295 1 1 0.999295
0.999782 1 1 0.999782
0.999617 1 1 0.999617
0.999488 1 1 0.999488
0.99942 1 1 0.99942
0.999303 1 1 0.999303
0.999754 1 1 0.999754
0.999436 1 1 0.999436
0.999489 1 1 0.999489
0.999597 1 1 0.999597
0.99934 1 1 0.99934
0.999389 1 1 0.999389
0.999525 1 1.0002 0.999328
0.999485 1 1 0.999485
0.999609 1 1 0.999609
0.999619 1 1 0.999619
0.999504 1 1 0.999504
0.999498 1 1 0.999498
0.999491 1 1 0.999491
0.999435 1 1 0.999435
0.999406 1 1 0.999406
0.99959 1 1 0.99959
0.999613 1 1 0.999613
0.999777 1 1 0.999777
0.999604 1 1 0.999604
0.999771 1 1 0.999771
0.99998 1 1 0.99998
0.999756 1 1 0.999756
0.999981 1 1 0.999981
1 1 1 1
0.999981 1 1 0.999981
1 1 1 1
1 1 1 1
1 1 1 1
1 1 1 1
1 1 1 1
0.999857 1 1 0.999857
0.999998 1 1 0.999998
0.999997 1 1 0.999997
1 1 1 1
0.999994 1 1 0.999994
1 1 1 1
1 1 1 1
1 1 1 1
1 1 1 1
1 1 1 1
1.01209 1.01592 0.997217 0.999006
1.0079 1.0091 1 0.998808
1.02165 1.02389 0.998822 0.998995
0.979632 0.984458 0.997622 0.99747
1.01635 1.01901 0.998231 0.999153
1.02066 1.02277 0.999207 0.99873
1.02054 1.02188 0.999817 0.998874
0.982492 0.986526 0.998376 0.997531
0.957934 0.968284 0.996175 0.99311
0.907255 0.934701 0.975429 0.995086
0.906777 0.94283 0.965037 0.996606
0.999673 1 1 0.999673
0.999861 1 1 0.999861
0.999853 1 1 0.999853
0.999674 1 1 0.999674
0.999564 1 1 0.999564
0.99959 1 1 0.99959
0.999683 1 1 0.999683
0.999689 1 1 0.999689
1.00672 1.00806 0.99988 0.998792
1.01203 1.01401 0.999126 0.998916
1.00061 1.0024 0.999317 0.998904
1.00299 1 1.00393 0.999063
1.00206 1.00067 1.00272 0.998668
1.00134 1 1.00232 0.999019
1.00035 1 1.00128 0.999078
0.999295 1 1 0.999295
0.999597 1 1 0.999597
0.999407 1 1 0.999407
0.999682 1 1 0.999682
0.999494 1 1 0.999494
1.01816 1.02023 0.999191 0.998774
0.999467 1 1 0.999467
0.999439 1 1 0.999439
1.00441 1.00941 0.996168 0.998873
1.00121 1.00211 1.0004 0.998699
1.00308 1 1.00417 0.998911
0.999231 1 1 0.999231
1.00379 1 1.00485 0.998938
1.01086 1.01984 0.992464 0.998728
0.994337 1.00225 0.993296 0.998804
0.999847 1 1.00103 0.998817
1.0059 1 1.00697 0.998941
0.999381 1 1 0.999381
0.999292 1 1 0.999292
0.999893 1 1.00082 0.999078
0.919075 0.941966 0.979802 0.995812
0.955537 0.967006 0.99389 0.994214
0.999192 1 1 0.999192
0.99955 1 1.00051 0.999045
1.00159 1.01244 0.990323 0.998948
1.00088 1.00279 0.999411 0.998675
1.00429 1 1.00559 0.998708
0.959197 0.969138 0.996718 0.993001
0.994443 0.994547 1.00266 0.997238
0.993392 1.00733 0.986879 0.999275
0.919107 0.941013 0.981254 0.99538
0.894549 0.938703 0.956624 0.996172
0.999312 1 1.0001 0.99921
0.92352 0.945347 0.980908 0.995925
0.936226 0.953266 0.98517 0.996909
0.980817 1.0035 0.978404 0.998967
1.00275 1 1.0037 0.999049
1.00805 1.00001 1.00921 0.998847
0.983646 1.00251 0.981861 0.99931
0.969525 0.973049 1.00309 0.993312
0.993918 0.99151 1.00525 0.997197
0.915808 0.941523 0.97735 0.995229
0.945342 0.979045 0.968072 0.997422
0.999727 1 1.00049 0.999236
0.949459 0.954831 0.996821 0.997545
0.996285 0.997677 0.999983 0.998622
0.986604 1.00001 0.987361 0.999219
1.00837 1 1.00912 0.999258
1.00522 0.999556 1.00604 0.999633
0.986615 0.988979 0.999509 0.9981
0.972741 0.971571 1.00779 0.993461
0.934596 0.963746 0.974415 0.995216
0.967856 0.998051 0.971502 0.998192
0.999256 1 1 0.999256
0.99928 1 1 0.99928
0.999776 1 1.00042 0.999355
0.999754 1 1 0.999754
0.999612 1 1 0.999612
0.999504 1 1 0.999504
0.999438 1 1 0.999438
0.99933 1 1 0.99933
0.999609 1 1 0.999609
0.9994 1 1 0.9994
0.999485 1 1 0.999485
0.999574 1 1.00024 0.99933
0.999913 1 1.00055 0.999359
0.999472 1 1.00009 0.999385
0.999488 1 1 0.999488
0.999618 1 1 0.999618
0.99949 1 1 0.99949
0.999499 1 1 0.999499
0.99949 1 1 0.99949
0.999432 1 1 0.999432
0.999458 1 1 0.999458
0.999423 1 1 0.999423
0.99939 1 1 0.99939
0.999288 1 1 0.999288
0.999523 1 1.00031 0.999212
0.999349 1 1 0.999349
0.999405 1 1 0.999405
0.999554 1 1 0.999554
0.999589 1 1 0.999589
0.999765 1 1 0.999765
0.999613 1 1 0.999613
0.999777 1 1 0.999777
0.999978 1 1 0.999978
0.999759 1 1 0.999759
0.99998 1 1 0.99998
1 1 1 1
0.99998 1 1 0.99998
1 1 1 1
1 1 1 1
1 1 1 1
1 1 1 1
1 1 1 1
0.999871 1 1 0.999871
0.999997 1 1 0.999997
0.999857 1 1 0.999857
1 1 1 1
0.999997 1 1 0.999997
0.999996 1 1 0.999996
1 1 1 1
1 1 1 1
1 1 1 1
1 1 1 1
1 1 1 1
0.920993 0.940425 0.983141 0.996132
0.94113 0.955997 0.987119 0.997295
0.98257 0.98512 0.999533 0.997879
1.0162 1.01869 0.998381 0.999182
1.02133 1.02388 0.998785 0.998717
0.982031 0.985026 0.998496 0.998461
1.02037 1.02167 0.999847 0.998882
0.960157 0.969759 0.995944 0.99413
0.917922 0.937483 0.983006 0.996062
0.899292 0.94021 0.959973 0.99636
0.999189 0.999595 1.00065 0.998942
0.96718 0.971198 1.00185 0.994028
0.908294 0.939262 0.970863 0.996052
0.945337 0.976753 0.970582 0.997171
0.999522 1 1 0.999522
0.999683 1 1 0.999683
0.999861 1 1 0.999861
0.999666 1 1 0.999666
0.999577 1 1 0.999577
0.999542 1 1 0.999542
0.99959 1 1 0.99959
0.999616 1 1 0.999616
0.999669 1 1 0.999669
0.999678 1 1 0.999678
1.01856 1.02097 0.998883 0.998751
1.00342 1.00757 0.997015 0.998866
1.00117 1.00229 1.00013 0.998752
1.00411 1 1.00524 0.998874
1.00338 1 1.00444 0.998942
0.999224 1 1 0.999224
0.999438 1 1 0.999438
0.99948 1 1 0.99948
1.01167 1.01989 0.993234 0.998703
0.999375 1 1 0.999375
0.999277 1 1 0.999277
0.995666 1.00238 0.994529 0.998766
1.00019 1 1.00133 0.99886
1.00476 1 1.00586 0.998907
1.00098 1 1.00191 0.999069
1.00944 1.01067 1.00002 0.998764
0.997809 1 0.998709 0.999099
1.00519 1 1.0062 0.998994
0.999363 1 1 0.999363
0.999268 1 1 0.999268
0.999141 1 1 0.999141
0.95054 0.958236 0.994329 0.997626
0.92311 0.941953 0.984663 0.995261
0.953466 0.967846 0.991269 0.993819
0.999209 1 1 0.999209
1.00218 1 1.00313 0.999058
0.983349 1.00391 0.980537 0.998958
1.00737 1 1.0085 0.998875
0.921014 0.944347 0.979992 0.995204
0.968127 0.972253 1.00115 0.994609
0.994243 0.993103 1.00483 0.996335
0.98092 1.00021 0.981375 0.999322
0.918698 0.940405 0.980699 0.996145
0.937547 0.955176 0.984689 0.996806
0.940988 0.977304 0.965543 0.997201
0.999764 1 1.00053 0.999235
0.947504 0.956292 0.993302 0.997491
0.996279 0.997426 1.00023 0.998624
0.989623 1 0.990377 0.999236
1.00838 1 1.00913 0.999257
1.00506 1.00043 1.00538 0.999247
0.987731 0.98868 1.00225 0.996798
0.970265 0.972462 1.00436 0.993407
0.93656 0.96571 0.973365 0.996353
0.96202 0.992363 0.97139 0.997976
1.0005 1 1.001 0.999502
0.998566 0.999757 0.999791 0.999016
1.00945 1.00588 1.00429 0.999259
1.00848 0.999646 1.00913 0.999715
0.993842 0.989192 1.00567 0.999038
0.973723 0.974995 1.00548 0.993249
0.963299 0.980484 0.98582 0.996605
0.967789 1.00157 0.96829 0.99792
0.999266 1 1 0.999266
0.999723 1 1.00036 0.999368
1.00075 1 1.0013 0.999451
0.999609 1 1 0.999609
0.999484 1 1 0.999484
0.999411 1 1 0.999411
0.999613 1 1.00028 0.999332
0.999488 1 1 0.999488
0.999415 1 1.00003 0.999384
1.0003 1 1.00093 0.999369
1.00031 1 1.00086 0.999456
0.999569 1 1.00021 0.999357
0.999412 1 1 0.999412
0.999499 1 1 0.999499
0.99949 1 1 0.99949
0.999429 1 1 0.999429
0.999425 1 1 0.999425
0.999457 1 1 0.999457
0.999395 1 1 0.999395
0.999353 1 1 0.999353
0.999373 1 1 0.999373
0.999264 1 1 0.999264
0.999294 1 1 0.999294
0.999558 1 1.00034 0.999216
0.999348 1 1.00026 0.999089
0.999343 1 1 0.999343
0.999429 1 1.00018 0.999254
0.999367 1 1 0.999367
0.999487 1 1 0.999487
0.999405 1 1 0.999405
0.999554 1 1 0.999554
0.999742 1 1 0.999742
0.999588 1 1 0.999588
0.999765 1 1 0.999765
0.999975 1 1 0.999975
0.999777 1 1 0.999777
0.999978 1 1 0.999978
1 1 1 1
0.999979 1 1 0.999979
1 1 1 1
1 1 1 1
1 1 1 1
1 1 1 1
1 1 1 1
0.999814 1 1 0.999814
0.999996 1 1 0.999996
0.999845 1 1 0.999845
1 1 1 1
0.999997 1 1 0.999997
0.999857 1 1 0.999857
1 1 1 1
1 1 1 1
0.999997 1 1 0.999997
1 1 1 1
1 1 1 1
1 1 1 1
0.953003 0.958288 0.996685 0.997792
0.921525 0.94129 0.983337 0.995591
0.995823 0.99883 0.99843 0.998557
0.935832 0.952508 0.98529 0.99716
0.978033 0.983685 0.996945 0.997302
1.01968 1.02148 0.999345 0.99889
0.960316 0.969855 0.994972 0.995168
0.915377 0.938789 0.97978 0.995183
0.891818 0.937775 0.954704 0.996114
0.996808 0.999446 0.998866 0.998492
0.967963 0.970303 1.00398 0.993633
0.91213 0.943082 0.971912 0.995131
0.942842 0.975744 0.969086 0.997104
0.995904 0.998647 0.998718 0.998534
0.970195 0.969964 1.00691 0.993375
0.938051 0.967059 0.973619 0.996287
0.966918 0.998637 0.970202 0.997976
0.999433 1 1 0.999433
0.999536 1 1 0.999536
0.999693 1 1 0.999693
0.999591 1 1 0.999591
0.999455 1 1 0.999455
0.999553 1 1 0.999553
0.999591 1 1 0.999591
0.999599 1 1 0.999599
0.999631 1 1 0.999631
0.999655 1 1 0.999655
1.01326 1.02073 0.993997 0.998678
0.997563 1.00292 0.995928 0.998728
1.00049 1 1.00159 0.998904
1.00391 1 1.00505 0.998873
1.00218 1 1.00312 0.999061
0.999262 1 1 0.999262
0.999369 1 1 0.999369
0.999364 1 1 0.999364
1.00482 1.00942 0.996652 0.998785
0.999278 1 1 0.999278
0.999228 1 1.00009 0.999137
0.996731 1 0.997676 0.999052
1.00446 1 1.00547 0.998992
0.994388 1.00441 0.990887 0.999123
1.01138 1 1.01206 0.999331
0.999892 1 1.00078 0.999112
0.99929 1 1 0.99929
0.999153 1 1 0.999153
0.999496 1.00053 0.999768 0.999199
0.952374 0.958088 0.996256 0.997771
0.922092 0.941951 0.982729 0.996121
0.99976 1 1.00053 0.999234
1.00825 1 1.009 0.999256
0.991071 1 0.991814 0.999251
0.953267 0.958454 0.996837 0.997744
0.97189 0.970835 1.00789 0.99325
0.989819 0.99003 1.002 0.997789
0.99962 1.00045 1.00033 0.998837
0.936108 0.963463 0.976282 0.995212
0.995575 0.996444 1.0005 0.998628
0.957091 0.988352 0.970296 0.998016
1.00075 1 1.00124 0.999512
0.997043 0.997917 0.999957 0.999168
1.01148 1.00756 1.00463 0.999269
1.00816 0.999609 1.00896 0.999593
0.993029 0.990167 1.00424 0.998653
0.977443 0.977074 1.00733 0.993098
0.969209 1.00504 0.966146 0.99814
0.947803 0.972569 0.978431 0.996019
1.0014 0.999539 1.00215 0.999711
1.01032 1.01021 1.00033 0.999779
1.01862 1.0141 1.0051 0.999364
0.968632 0.998725 0.971831 0.99798
1.00234 0.990045 1.01273 0.999692
0.978684 0.977566 1.00757 0.993623
0.942064 0.960445 0.984343 0.996464
0.999649 1 1.00027 0.999381
1.00051 1 1.00109 0.999414
1.00312 1 1.00355 0.999566
0.999488 1 1 0.999488
0.999383 1 1 0.999383
1.00075 1 1.00138 0.999379
0.999414 1 1 0.999414
0.999682 1 1.00033 0.999357
1.00069 1 1.00126 0.999429
0.999852 1 1.00035 0.999497
0.999356 1 1 0.999356
0.999427 1 1 0.999427
0.999456 1 1 0.999456
0.9994 1 1 0.9994
0.999372 1 1 0.999372
0.999359 1 1 0.999359
0.999359 1 1.00002 0.999343
0.999292 1 1 0.999292
1.00124 1 1.00218 0.999059
0.999301 1 1 0.999301
0.999469 1 1.00026 0.99921
0.999554 1 1.00059 0.998967
0.999385 1 1.0003 0.999083
0.99929 1 1 0.99929
0.999417 1 1.00032 0.999093
0.999454 1 1 0.999454
0.999329 1 1 0.999329
0.999295 1 1 0.999295
0.999385 1 1 0.999385
0.999502 1 1 0.999502
0.999706 1 1 0.999706
0.999553 1 1 0.999553
0.999741 1 1 0.999741
0.999969 1 1 0.999969
0.999764 1 1 0.999764
0.999974 1 1 0.999974
1 1 1 1
0.999977 1 1 0.999977
1 1 1 1
1 1 1 1
1 1 1 1
1 1 1 1
1 1 1 1
0.999737 1 1 0.999737
0.999958 1 1 0.999958
0.999812 1 1 0.999812
1 1 1 1
0.999981 1 1 0.999981
0.999819 1 1 0.999819
1 1 1 1
1 1 1 1
0.999997 1 1 0.999997
1 1 1 1
1 1 1 1
1 1 1 1
0.997261 0.998483 0.999662 0.999114
0.946194 0.957346 0.99084 0.997489
0.923505 0.94047 0.986572 0.995326
0.999549 1 1 0.999549
1.00765 1.00456 1.00369 0.999385
0.997539 0.99895 1.00003 0.99856
0.929727 0.951987 0.979605 0.99695
0.995002 0.99972 0.997272 0.998003
0.97047 0.972198 1.0043 0.993945
0.91618 0.94717 0.971122 0.996046
0.937863 0.973361 0.966462 0.996967
0.998364 1.00124 0.99983 0.997292
0.967544 0.969272 1.00466 0.993589
0.939919 0.966416 0.976604 0.995882
0.965921 0.998108 0.9699 0.997786
0.990612 0.991706 1.00227 0.99663
0.97527 0.970613 1.01254 0.992353
0.948843 0.974341 0.978124 0.995611
0.967458 1.00199 0.967564 0.997909
0.99935 1 1 0.99935
0.999424 1 1 0.999424
0.999551 1 1 0.999551
0.999443 1 1 0.999443
0.999473 1 1 0.999473
0.999564 1 1 0.999564
0.999604 1 1 0.999604
0.999646 1 1 0.999646
0.999777 1.00773 0.993292 0.998804
0.995397 1 0.996388 0.999006
0.999365 1 1 0.999365
1.0036 1 1.00461 0.998991
0.9993 1 1.00017 0.999133
0.999288 1 1 0.999288
0.999293 1 1 0.999293
0.998014 1.00572 0.993202 0.999128
0.999168 1 1 0.999168
1.00071 1 1.0016 0.999108
1.00765 1 1.00832 0.999328
0.999303 1 1 0.999303
0.987926 0.997665 0.990695 0.999539
1.01302 0.99994 1.01363 0.999454
0.999203 1 1 0.999203
0.999243 1 1 0.999243
1.01122 1.01205 0.99935 0.999827
0.998965 1.00003 0.999723 0.999211
0.954429 0.957803 0.998555 0.997919
1.0009 1 1.00138 0.999523
1.00881 0.999579 1.00977 0.999473
0.995564 0.996248 0.999995 0.999318
0.976778 0.974148 1.00938 0.993378
0.994196 0.989363 1.00753 0.997376
0.950254 0.974205 0.979816 0.995508
1.01341 1.00909 1.005 0.999279
0.972442 1.00978 0.964604 0.99836
1.00158 0.999528 1.00237 0.999678
1.00979 1.01006 0.999948 0.999785
1.01816 1.01378 1.00483 0.999494
1.00643 0.993726 1.01285 0.999931
0.966703 0.997999 0.970794 0.997784
0.977713 0.97667 1.00741 0.993699
0.947321 0.969824 0.981275 0.995436
1.00587 0.996549 1.00959 0.999771
1.01771 1.01673 1.00111 0.999848
1.00753 1.00536 1.00278 0.999387
0.947137 0.977676 0.971496 0.997188
0.947671 0.974976 0.976331 0.995559
0.995821 0.989333 1.00664 0.999917
0.979631 0.97186 1.01494 0.99316
1.00027 1 1.00089 0.999377
1.00223 1 1.00268 0.99955
1.0095 0.997333 1.01262 0.999582
0.999416 1 1 0.999416
0.999722 1 1.00037 0.999356
1.00094 1 1.00154 0.999403
0.999354 1 1 0.999354
0.99993 1 1.00043 0.999497
1.00383 1 1.00444 0.99939
0.999371 1 1 0.999371
0.999366 1 1 0.999366
0.999694 1 1.00037 0.999323
1.0047 1 1.00559 0.99911
0.99932 1 1 0.99932
1.00069 1 1.0016 0.999095
1.00271 1 1.00386 0.998849
1.00039 1 1.00155 0.998844
0.999383 1 1.00018 0.999203
0.999547 1 1.00061 0.998937
0.999475 1 1.00032 0.999152
0.999476 1 1.00024 0.999235
0.999349 1 1.00024 0.999107
0.999422 1 1 0.999422
0.999287 1 1 0.999287
0.999507 1 1.00041 0.999098
0.999659 1 1 0.999659
0.999448 1 1 0.999448
0.999315 1 1 0.999315
0.999518 1 1 0.999518
0.999705 1 1 0.999705
0.999958 1 1 0.999958
0.999741 1 1 0.999741
0.999967 1 1 0.999967
1 1 1 1
0.999973 1 1 0.999973
1 1 1 1
1 1 1 1
1 1 1 1
1 1 1 1
1 1 1 1
0.999705 1 1 0.999705
0.999936 1 1 0.999936
0.999752 1 1 0.999752
1 1 1 1
0.999957 1 1 0.999957
0.999811 1 1 0.999811
1 1 1 1
1 1 1 1
0.999967 1 1 0.999967
1 1 1 1
1 1 1 1
1 1 1 1
1.00998 1.0102 1.00002 0.999767
0.997207 0.998378 0.999705 0.999121
0.947037 0.95765 0.991391 0.997506
0.999554 1 1 0.999554
0.999517 1 1 0.999517
0.999453 1 1 0.999453
1.01873 1.01323 1.00608 0.999361
1.00804 1.00486 1.00377 0.999397
0.998878 0.99909 1.00123 0.998564
1.00426 1.00237 1.00359 0.998311
0.969519 0.969983 1.00612 0.993445
0.937638 0.964514 0.976805 0.99522
0.966687 0.999716 0.969028 0.997867
0.985731 0.986862 1.00113 0.997724
0.97138 0.970048 1.00811 0.993318
0.948959 0.971326 0.980397 0.996508
0.970053 1.00557 0.966482 0.998133
0.978927 0.982282 0.999054 0.997528
0.980896 0.973888 1.01383 0.993456
0.942639 0.960738 0.984655 0.996452
0.967133 0.996765 0.972048 0.998173
0.999335 1 1 0.999335
0.999349 1 1 0.999349
0.999416 1 1 0.999416
0.999441 1 1 0.999441
0.999492 1 1 0.999492
0.999608 1 1 0.999608
1.00198 1.00691 0.995966 0.999132
1.00402 1 1.0047 0.999325
0.999296 1 1 0.999296
1.00142 1 1.00231 0.999104
0.999184 1 1 0.999184
0.999295 1 1 0.999295
0.999245 1 1 0.999245
0.996601 0.999957 0.997113 0.99953
0.999235 1 1 0.999235
1.0104 0.997947 1.01301 0.99948
0.999303 1 1 0.999303
1.01044 0.992166 1.01867 0.999754
0.995802 0.995737 1.00044 0.999629
0.999277 1 1 0.999277
1.01889 1.0195 0.999502 0.999905
1.01126 1.01211 0.999306 0.999849
0.9985 0.999626 0.99965 0.999223
1.0017 0.99952 1.00254 0.999644
1.00086 0.994243 1.00674 0.999907
1.0094 1.01003 0.99959 0.999791
0.985526 0.980091 1.00984 0.995745
0.954255 0.970924 0.986119 0.996667
1.01754 1.01342 1.00444 0.999623
0.966797 0.999611 0.969239 0.99787
1.00521 0.997679 1.00777 0.999788
1.01797 1.01707 1.00102 0.999865
1.00826 1.00565 1.00319 0.999399
0.994955 0.986189 1.01046 0.998447
0.945143 0.976871 0.970314 0.997121
0.947094 0.972706 0.977142 0.996446
0.989509 0.977632 1.01868 0.993588
1.01901 0.99355 1.02574 0.99989
1.01042 1.01072 0.999943 0.999766
0.996735 0.999926 0.998243 0.998563
0.907809 0.943874 0.965043 0.996629
0.938739 0.966495 0.974874 0.996315
0.984781 0.976654 1.01494 0.99348
0.969493 0.980467 0.990805 0.997983
1.0012 1 1.00167 0.999534
1.01145 0.998205 1.01369 0.999586
1.0195 1 1.01998 0.999529
0.999351 1 1 0.999351
1.00005 1 1.00055 0.999497
1.00307 1 1.00366 0.999408
1.01264 1 1.01345 0.999195
0.999991 1 1.00069 0.999304
1.00469 1 1.00563 0.999069
1.00991 1 1.01116 0.998766
1.00023 1 1.0011 0.999132
1.00345 1 1.00461 0.998842
1.00364 1 1.00501 0.998641
1.00019 1 1.00153 0.998664
0.99982 1 1.00078 0.999037
1.00037 1 1.00154 0.998826
0.999571 1 1.00066 0.998907
0.99948 1 1.00024 0.999241
0.999514 1 1.00033 0.999181
0.999365 1 1.00002 0.999343
0.999468 1 1.00022 0.999253
0.999306 1 1.00018 0.999131
0.999602 1 1 0.999602
0.999423 1 1 0.999423
0.999284 1 1 0.999284
0.999938 1 1 0.999938
0.999659 1 1 0.999659
0.999443 1 1 0.999443
0.999704 1 1 0.999704
0.999955 1 1 0.999955
1 1 1 1
0.999965 1 1 0.999965
1 1 1 1
1 1 1 1
1 1 1 1
1 1 1 1
1 1 1 1
0.999702 1 1 0.999702
0.999956 1 1 0.999956
0.999716 1 1 0.999716
1 1 1 1
0.999955 1 1 0.999955
0.999767 1 1 0.999767
1 1 1 1
1 1 1 1
0.999957 1 1 0.999957
1 1 1 1
1 1 1 1
1 1 1 1
1.01853 1.01652 1.00214 0.999846
1.01131 1.01067 1.00086 0.999773
0.99738 0.998189 1.00006 0.999129
0.999501 1 1 0.999501
0.999425 1 1 0.999425
0.99956 1 1 0.99956
0.999515 1 1 0.999515
0.999439 1 1 0.999439
0.99943 1 1 0.99943
0.999373 1 1 0.999373
1.00916 1.00484 1.00505 0.999251
1.01741 1.01253 1.00533 0.99949
1.00875 1.00513 1.00419 0.999409
0.973885 1.01003 0.965803 0.998357
0.984537 0.986697 1.0011 0.996711
0.976957 0.974003 1.0088 0.994279
0.951085 0.967337 0.987751 0.995391
0.978351 0.982436 0.998857 0.996981
0.976281 0.972395 1.01076 0.99331
0.949321 0.970941 0.982114 0.995539
0.962477 0.992614 0.971641 0.99794
0.970078 0.977382 0.994451 0.998065
0.97308 0.974117 1.00579 0.993183
0.967078 0.983534 0.986661 0.996562
0.945013 0.977994 0.968635 0.997565
0.999342 1 1 0.999342
0.999333 1 1 0.999333
0.999347 1 1 0.999347
0.99944 1 1 0.99944
1.00407 1.00215 1.0024 0.999522
1.00839 0.996361 1.01257 0.999505
0.999286 1 1 0.999286
0.999246 1 1 0.999246
0.999266 1 1 0.999266
0.999301 1 1 0.999301
0.999266 1 1 0.999266
1.00568 0.990819 1.01536 0.999638
0.997427 0.997303 1.00044 0.999686
0.999297 1 1 0.999297
1.011 0.986739 1.02481 0.999782
1.00189 0.998487 1.00403 0.999389
1.01213 1.01256 0.999753 0.999824
1.01803 1.01866 0.999468 0.999914
1.01126 1.01207 0.999332 0.999871
1.00468 0.998749 1.00614 0.999805
0.996067 0.985861 1.01048 0.999873
1.01814 1.01734 1.00091 0.999881
0.978548 0.971405 1.01421 0.993238
0.951314 0.968547 0.986808 0.995338
1.00921 1.00595 1.00383 0.999411
0.940438 0.974411 0.968048 0.996991
1.02143 0.993125 1.02863 0.999873
1.01124 1.01098 1.00048 0.999772
0.998387 1.00006 0.999761 0.998567
0.973524 0.983446 0.990485 0.999421
0.901021 0.94151 0.960464 0.996388
0.938714 0.964828 0.976943 0.995897
0.988114 0.976999 1.01768 0.993804
1.00503 0.989426 1.01598 0.999785
0.998574 0.999422 1.00004 0.999115
0.942087 0.956831 0.987231 0.997326
0.910406 0.938965 0.973417 0.996063
0.97903 0.973045 1.01277 0.993461
0.965342 0.97884 0.988995 0.997184
1.01387 0.999422 1.01487 0.99959
1.0193 0.999142 1.02066 0.999523
1.01323 1 1.01383 0.999411
1.00237 1 1.00294 0.999426
1.01312 1 1.0139 0.999228
1.00916 1 1.01035 0.998828
1.00478 1 1.00576 0.999027
1.00983 1 1.01111 0.998735
1.00468 1 1.00614 0.998543
1.00413 1 1.0053 0.998834
1.0036 1 1.00499 0.998615
1.00187 1.00018 1.00316 0.99853
0.998664 1.00003 1 0.99863
0.999354 1 1.00053 0.99883
1.00045 1 1.00181 0.998635
0.999167 1 1 0.999167
0.9995 1 1.00044 0.999056
1.00029 1 1.00149 0.998808
0.999298 1 1.00002 0.999283
0.99959 1 1.00036 0.999234
0.999544 1 1.00033 0.99921
0.999525 1 1 0.999525
0.999377 1 1.00002 0.999358
0.999471 1 1.0002 0.99927
0.999894 1 1 0.999894
0.999603 1 1 0.999603
0.999424 1 1 0.999424
1 1 1 1
0.999934 1 1 0.999934
0.999659 1 1 0.999659
0.999951 1 1 0.999951
1 1 1 1
1 1 1 1
1 1 1 1
1 1 1 1
1 1 1 1
0.999499 1 1 0.999499
0.999674 1 1 0.999674
0.999944 1 1 0.999944
0.999701 1 1 0.999701
1 1 1 1
0.999959 1 1 0.999959
0.999727 1 1 0.999727
1 1 1 1
1 1 1 1
0.999974 1 1 0.999974
1 1 1 1
1 1 1 1
1 1 1 1
1.01092 1.00967 1.00146 0.999778
1.01883 1.01694 1.002 0.999863
1.01222 1.01116 1.00128 0.999779
0.999507 1 1 0.999507
0.999415 1 1 0.999415
0.999377 1 1 0.999377
0.999413 1 1 0.999413
0.999365 1 1 0.999365
0.999513 1 1 0.999513
0.999426 1 1 0.999426
0.999431 1 1 0.999431
0.999368 1 1 0.999368
0.999377 1 1 0.999377
0.995497 0.996173 1.00072 0.998597
1.0109 1.0063 1.00531 0.999261
1.01599 1.01191 1.00441 0.999619
0.958261 0.989175 0.970704 0.997984
0.952382 0.96951 0.985602 0.996684
0.972164 0.978271 0.997323 0.996425
0.9781 0.977058 1.0077 0.993413
0.971085 0.977343 0.996748 0.996838
0.981886 0.977888 1.0108 0.993364
0.952912 0.975688 0.980545 0.996034
0.944586 0.977925 0.968444 0.997382
0.9845 0.979628 1.00767 0.99732
0.975628 0.977319 1.00473 0.993573
0.935055 0.963963 0.9747 0.995191
0.912221 0.952189 0.961286 0.996609
0.999478 1 1 0.999478
0.999342 1 1 0.999342
0.999331 1 1 0.999331
1.00131 0.989063 1.01287 0.999521
0.997865 0.997712 1.00041 0.999747
0.999298 1 1 0.999298
0.999255 1 1 0.999255
0.99934 1 1.00003 0.999307
1.00266 0.998846 1.00444 0.999384
1.00933 0.986951 1.02288 0.999793
1.00375 1 1.00435 0.999402
1.00777 0.994279 1.01406 0.999521
0.998944 0.999771 1 0.999173
1.01219 1.01264 0.999712 0.999848
1.01725 1.01793 0.999408 0.999923
1.02356 0.992629 1.03131 0.999855
0.973021 0.983103 0.992108 0.997618
1.01179 1.01126 1.00075 0.999778
0.979062 0.97547 1.01158 0.992198
0.937722 0.963783 0.977579 0.995274
0.999714 1.00023 1.00091 0.99857
0.894372 0.939542 0.955605 0.996146
1.00574 0.990111 1.01598 0.999809
0.998679 0.999564 0.999993 0.999122
0.93687 0.953526 0.985301 0.99719
0.964331 0.979521 0.98658 0.997884
0.913601 0.943084 0.973446 0.995164
0.97194 0.971534 1.00762 0.992851
0.986063 0.99029 0.99629 0.999439
0.953189 0.958225 0.996919 0.997818
0.908715 0.935353 0.97629 0.995115
0.973373 0.971128 1.00899 0.993378
0.983546 0.986015 0.999545 0.99795
1.01853 0.998151 1.02091 0.999515
1.01557 1 1.01617 0.999404
0.993508 1 0.994388 0.999116
1.01339 1 1.01414 0.999262
1.00891 1 1.01005 0.998866
1.00197 1.0006 1.00272 0.998658
1.00958 1 1.01089 0.998703
1.004 1 1.00546 0.998549
0.998857 1.0002 1.00003 0.998619
1.00343 1 1.00485 0.998589
1.00143 1.00045 1.00243 0.998541
1.0003 1.00163 1 0.998673
0.999196 1.00043 1 0.998764
0.998747 1 1.00002 0.99873
0.998644 1.00001 1 0.998638
0.999006 1 1 0.999006
0.99957 1 1.00077 0.998799
1.00072 1 1.00212 0.998605
0.999273 1 1 0.999273
0.99919 1 1 0.99919
0.999216 1 1.00014 0.999075
0.999445 1 1 0.999445
0.999392 1 1.0001 0.999289
0.999694 1 1.00047 0.999227
0.999819 1 1 0.999819
0.999525 1 1 0.999525
0.999374 1 1 0.999374
1 1 1 1
0.999891 1 1 0.999891
0.999604 1 1 0.999604
1 1 1 1
1 1 1 1
0.99993 1 1 0.99993
1 1 1 1
1 1 1 1
1 1 1 1
0.999454 1 1 0.999454
0.999641 1 1 0.999641
0.999491 1 1 0.999491
0.999933 1 1 0.999933
0.999674 1 1 0.999674
1 1 1 1
0.999946 1 1 0.999946
0.999701 1 1 0.999701
1 1 1 1
1 1 1 1
0.999963 1 1 0.999963
1 1 1 1
1 1 1 1
1 1 1 1
0.998961 0.999669 1 0.999292
1.01067 1.00973 1.00115 0.999784
1.01906 1.01727 1.00188 0.99988
0.999374 1 1 0.999374
0.999514 1 1 0.999514
0.999406 1 1 0.999406
0.999423 1 1 0.999423
0.999387 1 1 0.999387
0.999362 1 1 0.999362
0.999324 1 1 0.999324
0.999348 1 1 0.999348
0.999432 1 1 0.999432
0.999363 1 1 0.999363
0.999374 1 1 0.999374
0.999376 1 1 0.999376
0.934877 0.954465 0.982513 0.996911
0.995545 0.995953 1.00099 0.998599
1.01236 1.00747 1.00559 0.999272
0.94105 0.976989 0.965977 0.99714
0.956743 0.978365 0.982216 0.995606
0.972796 0.973973 1.00562 0.99321
0.972975 0.975936 0.999024 0.99794
0.984319 0.978914 1.00703 0.998502
0.903331 0.94512 0.95926 0.996377
0.980791 0.976146 1.01203 0.992818
0.933523 0.963162 0.972882 0.996243
0.983754 0.985399 0.999701 0.99863
0.974794 0.972162 1.00892 0.99384
0.90888 0.938768 0.972049 0.996002
1.00007 1 1.00041 0.999662
0.99948 1 1 0.99948
0.999342 1 1 0.999342
1.01008 0.989732 1.02076 0.999798
1.0044 0.99996 1.00506 0.999379
0.999367 1 1.00005 0.999317
1.00405 1 1.00465 0.999406
1.00681 0.994784 1.01255 0.999542
1.00721 0.998238 1.00939 0.999609
0.951077 0.957979 0.995446 0.997337
0.999507 1.00018 0.999986 0.999343
1.01221 1.0126 0.999735 0.999872
1.00607 0.990434 1.01596 0.999834
0.96519 0.981479 0.984982 0.998398
0.998952 0.999656 1.00017 0.999129
0.975962 0.973987 1.00769 0.994377
0.917989 0.947158 0.973027 0.996071
0.930248 0.952927 0.979154 0.996983
0.985118 0.990714 0.994873 0.999476
0.946392 0.957296 0.991073 0.997515
0.919077 0.936939 0.984768 0.996108
0.982832 0.983059 1.00301 0.996772
0.971195 0.971884 1.00578 0.993549
0.975759 0.997538 0.9787 0.999455
0.921876 0.941609 0.982809 0.996169
0.970938 0.972182 1.00492 0.993827
0.994047 0.994478 1.00299 0.996586
1.01877 1 1.01939 0.999397
0.989935 1 0.990779 0.999148
0.981817 1.00089 0.981927 0.998999
1.00895 1 1.01006 0.998905
1.00198 1.00078 1.00253 0.998659
0.999719 1.00144 0.999428 0.998854
1.00344 1 1.00489 0.998555
0.999159 1.00015 1.00037 0.998633
1.0034 1.00452 1 0.998892
1.0011 1.00073 1.00183 0.998551
1.00015 1.00148 1 0.998679
1.00118 1.00226 1 0.998925
0.999505 1.00054 1 0.998961
0.998869 1.00008 1 0.998793
0.999143 1.00036 1 0.998782
0.998886 1 1 0.998886
0.998752 1 1 0.998752
0.998646 1 1 0.998646
0.999194 1 1 0.999194
0.999018 1 1.00001 0.999007
0.999761 1 1.00099 0.998768
0.9994 1 1 0.9994
0.999271 1 1 0.999271
0.999213 1 1 0.999213
0.999729 1 1 0.999729
0.999447 1 1 0.999447
0.999498 1 1.0002 0.999295
1 1 1 1
0.999817 1 1 0.999817
0.999525 1 1 0.999525
1 1 1 1
1 1 1 1
0.999889 1 1 0.999889
1 1 1 1
1 1 1 1
1 1 1 1
0.999448 1 1 0.999448
0.999457 1 1 0.999457
0.999601 1 1 0.999601
0.999917 1 1 0.999917
0.999641 1 1 0.999641
0.999483 1 1 0.999483
1 1 1 1
0.999935 1 1 0.999935
0.999674 1 1 0.999674
1 1 1 1
1 1 1 1
0.999949 1 1 0.999949
1 1 1 1
1 1 1 1
1 1 1 1
0.951025 0.956429 0.996786 0.997556
0.997991 0.998688 1 0.999302
1.01058 1.00994 1.00084 0.99979
0.999365 1 1 0.999365
0.999356 1 1 0.999356
0.999323 1 1 0.999323
0.999433 1 1 0.999433
0.999397 1 1 0.999397
0.99936 1 1 0.99936
0.999348 1 1 0.999348
0.999323 1 1 0.999323
0.999271 1 1 0.999271
0.999369 1 1 0.999369
0.999371 1 1 0.999371
0.999377 1 1 0.999377
0.916527 0.936925 0.982041 0.996118
0.935065 0.952413 0.984862 0.996877
0.995303 0.995393 1.00131 0.998602
0.894596 0.938208 0.957207 0.996144
0.932596 0.960915 0.975227 0.995183
0.988889 0.981775 1.01267 0.99464
0.98873 0.978159 1.01362 0.997221
0.982054 0.983282 1.00135 0.997405
0.911994 0.939551 0.975412 0.995139
0.97619 0.973295 1.00889 0.994138
0.98644 0.984878 1.00399 0.997604
0.974481 0.974423 1.00647 0.99363
1.00754 1 1.00819 0.99936
0.999915 1 1.00027 0.999648
0.999482 1 1 0.999482
1.00335 0.992969 1.0109 0.999562
1.00435 1 1.00494 0.99941
1.00757 0.998865 1.00918 0.999546
1.00126 1.00067 1.00146 0.999125
0.919672 0.943169 0.979147 0.995853
0.951851 0.95704 0.996945 0.997626
1.00023 1.0008 0.999918 0.999513
0.983039 0.990753 0.992692 0.999519
0.983214 0.983208 1.0023 0.997715
0.94758 0.957658 0.991925 0.997531
0.974441 0.971937 1.0092 0.993433
0.915911 0.938255 0.980886 0.995208
0.979317 0.998086 0.981845 0.999337
0.922249 0.941681 0.983691 0.995602
0.971165 0.971648 1.00601 0.993536
0.994297 0.990762 1.00595 0.997636
0.99554 1.00438 0.991966 0.999228
0.958586 0.969325 0.995891 0.993002
0.994893 0.996183 1.00058 0.998123
0.98636 1 0.987168 0.999181
0.983222 1.001 0.983242 0.998981
0.98398 1.00217 0.982842 0.998988
1.00164 1.00092 1.00207 0.998659
0.99946 1.00184 0.998769 0.998849
1.00409 1.00737 0.997591 0.999159
0.999482 1.00012 1.00071 0.998647
1.00394 1.00506 1 0.99889
1.00639 1.00727 1 0.999121
0.999998 1.00132 1 0.998684
1.00102 1.0021 1 0.998924
1.00099 1.00191 1 0.999083
0.999265 1.00021 1 0.999054
0.999346 1.00036 1 0.998982
0.998941 1 1 0.99894
0.998877 1 1 0.998877
0.998849 1.00005 1 0.998796
0.999022 1.00022 1 0.9988
0.999047 1 1 0.999047
0.99891 1 1 0.99891
0.998774 1 1 0.998774
0.999347 1 1 0.999347
0.999191 1 1 0.999191
0.999007 1 1 0.999007
0.999659 1 1 0.999659
0.999401 1 1 0.999401
0.999269 1 1 0.999269
0.999999 1 1 0.999999
0.999728 1 1 0.999728
0.99945 1 1 0.99945
1 1 1 1
1 1 1 1
0.999815 1 1 0.999815
1 1 1 1
1 1 1 1
1 1 1 1
0.999409 1 1 0.999409
0.999436 1 1 0.999436
0.99956 1 1 0.99956
0.99946 1 1 0.99946
0.999601 1 1 0.999601
0.999887 1 1 0.999887
1 1 1 1
0.999919 1 1 0.999919
0.999641 1 1 0.999641
1 1 1 1
1 1 1 1
0.999937 1 1 0.999937
1 1 1 1
1 1 1 1
1 1 1 1
0.928545 0.941816 0.990392 0.995474
0.948803 0.956989 0.994077 0.997354
0.996759 0.997444 1 0.999313
0.999357 1 1 0.999357
0.999313 1 1 0.999313
0.999366 1 1 0.999366
0.999326 1 1 0.999326
0.999302 1 1 0.999302
0.999347 1 1 0.999347
0.999323 1 1 0.999323
0.999277 1 1 0.999277
0.99926 1 1 0.99926
0.999274 1 1 0.999274
0.999298 1 1.00026 0.999041
0.999373 1 1 0.999373
0.999379 1 1 0.999379
0.969569 0.976892 0.999684 0.992818
0.922215 0.938798 0.986536 0.995743
0.935763 0.953307 0.984782 0.996765
0.912726 0.93917 0.975699 0.996049
0.976803 0.972092 1.01244 0.9925
0.983877 0.982862 1.00235 0.998689
0.989294 0.988001 1.00305 0.998267
0.973977 0.975706 1.00437 0.993887
0.989754 0.998069 0.994198 0.997456
1.00574 1.00132 1.0057 0.998728
1.006 1 1.00666 0.999347
0.999635 1 1 0.999635
1.00748 0.999957 1.00804 0.999487
1.0003 1.00101 1.00017 0.999119
0.95092 0.968048 0.988396 0.993839
0.923662 0.942978 0.984109 0.995334
0.953355 0.956302 0.999 0.997917
0.983108 0.999173 0.984695 0.999214
0.99514 0.990888 1.0077 0.996614
0.923929 0.940974 0.986506 0.995316
0.973155 0.972358 1.00707 0.993797
0.992595 1.00507 0.988365 0.999212
0.96133 0.970812 0.996217 0.993994
0.997438 0.998372 1.00204 0.997033
1.00444 1.00781 0.997771 0.998877
0.996448 0.996604 1.0011 0.998742
0.983977 1.00114 0.983881 0.998963
0.986864 1.00195 0.985975 0.998957
1.0039 1.01376 0.991249 0.999016
0.999377 1.00218 0.998358 0.998845
1.00285 1.00605 0.997663 0.999152
1.00938 1.0126 0.997623 0.9992
1.00445 1.00557 1 0.998889
1.00663 1.00753 0.999994 0.999108
1.00438 1.00527 0.999987 0.999126
1.0009 1.00198 1 0.998923
1.00095 1.00188 1 0.999072
1.0002 1.00115 1 0.999059
0.999245 1.00016 1 0.99908
0.999006 1.00002 1 0.99899
0.999245 1.00024 1 0.999004
0.99894 1 1 0.998936
0.998924 1 1 0.998924
0.99897 1 1 0.99897
0.998872 1 1 0.998872
0.998826 1.00003 1 0.998799
0.999255 1 1 0.999255
0.999063 1 1 0.999063
0.998934 1 1 0.998934
0.999607 1 1 0.999607
0.999344 1 1 0.999344
0.999188 1 1 0.999188
0.999987 1 1 0.999987
0.99966 1 1 0.99966
0.999402 1 1 0.999402
1 1 1 1
0.999996 1 1 0.999996
0.999728 1 1 0.999728
1 1 1 1
1 1 1 1
1 1 1 1
0.999349 1 1 0.999349
0.99941 1 1 0.99941
0.999495 1 1 0.999495
0.999424 1 1 0.999424
0.999547 1 1 0.999547
0.999829 1 1 0.999829
0.999601 1 1 0.999601
0.999888 1 1 0.999888
1 1 1 1
1 1 1 1
1 1 1 1
0.999921 1 1 0.999921
1 1 1 1
1 1 1 1
1 1 1 1
0.965149 0.972893 0.998139 0.99389
0.923616 0.944673 0.981638 0.995999
0.952894 0.958182 0.997024 0.99745
0.999302 1 1 0.999302
0.999376 1 1 0.999376
0.999308 1 1 0.999308
0.999328 1 1 0.999328
0.99925 1 1 0.99925
0.999304 1 1 0.999304
0.999283 1 1 0.999283
0.999232 1 1 0.999232
0.999262 1 1 0.999262
0.999183 1 1 0.999183
0.999584 1.00051 1 0.999073
0.998898 1.00018 1.00011 0.9986
0.999202 1.00008 1.00006 0.999064
0.999378 1 1 0.999378
0.987457 0.993936 0.995803 0.997667
0.968461 0.974345 1.00033 0.99363
0.916127 0.939482 0.979851 0.995192
0.974238 0.973978 1.00682 0.993493
0.985135 0.987854 0.998368 0.998877
0.992423 0.997044 0.996801 0.99856
0.99667 1.00479 0.993016 0.998896
1.00286 1.00067 1.00337 0.998818
1.00496 1 1.00563 0.999333
0.998159 1.00112 0.997932 0.999108
0.983063 0.986386 0.999264 0.997365
0.95843 0.969623 0.994229 0.994193
0.921997 0.942855 0.981629 0.996178
0.991387 1.00578 0.986485 0.999196
1.00288 0.99954 1.00546 0.997891
0.961418 0.970684 0.995407 0.995024
0.998638 1.0062 0.99358 0.998895
0.99435 0.996636 0.999402 0.998303
1.00864 1.01814 0.991862 0.998799
1.01237 1.01381 0.99981 0.998764
0.990019 1.00178 0.98932 0.998927
1.00479 1.01336 0.992529 0.999013
1.01213 1.01634 0.996848 0.998998
1.00172 1.00494 0.997659 0.999144
1.00976 1.01254 0.998062 0.999192
1.00696 1.00867 0.999305 0.999006
1.00688 1.00779 1 0.999096
1.00368 1.00457 1 0.999115
1.00178 1.00283 1 0.998946
1.00089 1.00183 1 0.999062
1.00008 1.00101 1 0.999069
0.999122 1.00019 1 0.998937
0.9992 1.00009 1 0.999106
0.999031 1.00003 1 0.999004
0.998925 1 1 0.998925
0.998933 1 1 0.998931
0.99892 1 1 0.99892
0.998974 1 1 0.998974
0.999142 1 1 0.999142
0.998986 1 1 0.998986
0.998867 1 1 0.998867
0.999537 1 1 0.999537
0.999254 1 1 0.999254
0.99908 1 1 0.99908
0.999964 1 1 0.999964
0.999607 1 1 0.999607
0.999342 1 1 0.999342
1 1 1 1
0.999981 1 1 0.999981
0.999661 1 1 0.999661
1 1 1 1
0.999993 1 1 0.999993
1 1 1 1
0.999284 1 1 0.999284
0.999358 1 1 0.999358
0.999444 1 1 0.999444
0.99941 1 1 0.99941
0.999488 1 1 0.999488
0.999755 1 1 0.999755
0.999534 1 1 0.999534
0.99983 1 1 0.99983
1 1 1 1
0.999889 1 1 0.999889
1 1 1 1
1 1 1 1
1 1 1 1
1 1 1 1
1 1 1 1
0.98075 0.986272 0.996701 0.997693
0.958807 0.970182 0.994481 0.99376
0.921694 0.944931 0.980085 0.995229
0.999136 1 1 0.999136
0.999314 1 1 0.999314
0.999329 1 1 0.999329
0.9993 1 1 0.9993
0.999245 1 1 0.999245
0.999324 1 1 0.999324
0.999204 1 1 0.999204
0.99925 1 1 0.99925
0.999208 1 1 0.999208
0.999383 1.00028 1 0.999098
0.999478 1.00074 1 0.998736
1.00375 1.00543 1 0.998322
0.998977 1.00026 1.00013 0.998593
0.999253 1.00017 1 0.999086
1.0006 1.00592 0.995574 0.999136
0.988762 0.99532 0.996221 0.99718
0.97139 0.976225 1.0005 0.994552
0.993931 0.997535 0.998794 0.997591
1.00156 1.00643 0.996226 0.998927
1.00142 1.0002 1.00231 0.998909
1.00502 1.0061 0.999947 0.99898
0.98365 0.985341 1.00007 0.998216
0.956208 0.969695 0.992167 0.993877
0.992173 1.00436 0.988943 0.998911
0.99321 0.996395 0.99899 0.997812
1.00967 1.01851 0.992523 0.998788
1.01091 1.01203 1.00003 0.998856
1.0196 1.02196 0.998941 0.998741
1.01212 1.01367 0.999806 0.998662
1.00552 1.01271 0.993892 0.99901
1.01343 1.01733 0.99716 0.999007
1.00616 1.00753 0.999782 0.998859
1.01013 1.0125 0.998479 0.999184
1.00784 1.00934 0.999504 0.999004
1.00239 1.00359 1 0.998797
1.003 1.0039 1 0.999105
1.00173 1.00276 1 0.998968
0.999895 1.00109 1 0.998802
0.999975 1.0009 1 0.999079
0.999198 1.00026 1 0.998936
0.998881 1.00002 1 0.998859
0.999066 1.00005 1 0.999018
0.998929 1 1 0.998929
0.998928 1 1 0.998928
0.998915 1 1 0.998915
0.998963 1 1 0.998963
0.999096 1 1 0.999096
0.999457 1 1 0.999457
0.999159 1 1 0.999159
0.999002 1 1 0.999002
0.99993 1 1 0.99993
0.999536 1 1 0.999536
0.999253 1 1 0.999253
1 1 1 1
0.999956 1 1 0.999956
0.999606 1 1 0.999606
1 1 1 1
0.999975 1 1 0.999975
1 1 1 1
0.999178 1 1 0.999178
0.999286 1 1 0.999286
0.999392 1 1 0.999392
0.999367 1 1 0.999367
0.99945 1 1 0.99945
0.999687 1 1 0.999687
0.999482 1 1 0.999482
0.999755 1 1 0.999755
0.999999 1 1 0.999999
0.999831 1 1 0.999831
1 1 1 1
1 1 1 1
1 1 1 1
1 1 1 1
1 1 1 1
1.00548 1.00918 0.997094 0.999238
0.98071 0.987573 0.996288 0.99675
0.962686 0.970159 0.998299 0.993989
0.999178 1 1 0.999178
0.998928 1 1 0.998928
0.999152 1 1 0.999152
0.999296 1 1 0.999296
0.999239 1 1 0.999239
0.999298 1 1 0.999298
1.00058 1.00174 1 0.998844
0.999234 1 1 0.999234
0.999124 1 1 0.999124
0.999697 1.00094 1 0.998761
1.00239 1.00401 1 0.998384
1.00894 1.01084 0.999519 0.998603
1.00256 1.00424 1 0.998334
0.998967 1.00038 1 0.998586
1.00361 1.00865 0.99582 0.999177
0.987158 0.994774 0.995743 0.996586
1.00477 1.00769 0.998143 0.998957
1.00837 1.00939 0.999925 0.999066
1.0041 1.00502 1.00006 0.999026
0.980597 0.98512 0.998283 0.99712
1.01082 1.01923 0.992956 0.998779
1.00891 1.01015 0.999825 0.998948
1.01932 1.02205 0.998557 0.99877
1.01349 1.0149 0.999918 0.998691
1.00889 1.01047 0.999695 0.998742
1.01106 1.01221 1 0.998861
1.01471 1.01841 0.997349 0.999016
1.00593 1.00753 0.999556 0.998864
1.00444 1.00575 1 0.998706
1.00858 1.00989 0.999702 0.999001
1.00227 1.00346 1 0.998807
1.00205 1.00336 1 0.998693
1.00166 1.00268 1 0.99899
0.999917 1.00112 1 0.9988
0.998953 1.0002 1 0.998751
0.999257 1.00032 1 0.998936
0.998903 1.00005 1 0.998858
0.998862 1 1 0.998862
0.998934 1 1 0.998934
0.998929 1 1 0.998929
0.999043 1 1 0.999043
0.998953 1 1 0.998953
0.999091 1 1 0.999091
0.999388 1 1 0.999388
0.999891 1 1 0.999891
0.999456 1 1 0.999456
0.999176 1 1 0.999176
1 1 1 1
0.999922 1 1 0.999922
0.999536 1 1 0.999536
1 1 1 1
0.999948 1 1 0.999948
1 1 1 1
0.999008 1 1 0.999008
0.99916 1 1 0.99916
0.9993 1 1 0.9993
0.999288 1 1 0.999288
0.999393 1 1 0.999393
0.999628 1 1 0.999628
0.999455 1 1 0.999455
0.999686 1 1 0.999686
0.999988 1 1 0.999988
0.999755 1 1 0.999755
1 1 1 1
1 1 1 1
1 1 1 1
1 1 1 1
1 1 1 1
1.00751 1.00923 0.999355 0.998937
1.00459 1.00838 0.997071 0.999164
0.980236 0.986214 0.996478 0.997451
1.00054 1.00167 1 0.998877
0.999266 1 1 0.999266
0.99925 1.0005 1 0.998754
0.998917 1 1 0.998917
0.999168 1 1 0.999168
1.00558 1.00709 1 0.998501
0.999273 1 1 0.999273
1.0005 1.00168 1 0.998822
1.00605 1.00757 1 0.998493
0.99986 1.00108 1 0.998787
1.00321 1.00486 1 0.998359
1.00676 1.00855 0.999616 0.998601
1.00085 1.00251 1 0.998345
1.00591 1.0106 0.996138 0.999219
1.01037 1.01141 1 0.998979
1.00852 1.00952 0.999947 0.999062
1.00366 1.00394 1.00065 0.999071
1.01927 1.02229 0.998242 0.998799
1.01498 1.01628 0.999998 0.99872
1.00931 1.01079 0.99979 0.998745
1.01141 1.01256 1 0.998869
1.00892 1.01014 1 0.998787
1.00577 1.00755 0.999365 0.99887
1.00424 1.00553 1 0.998711
1.00538 1.00673 1 0.998656
1.00218 1.00336 1 0.998816
1.00166 1.00297 1 0.998688
0.999943 1.00129 1 0.998658
0.999941 1.00114 1 0.998798
0.999118 1.00037 1 0.998749
0.998773 1 1 0.998773
0.998929 1.00007 1 0.998857
0.998861 1 1 0.998861
0.998966 1 1 0.998966
0.998931 1 1 0.998931
0.999044 1 1 0.999044
0.999323 1 1 0.999323
0.999085 1 1 0.999085
0.999388 1 1 0.999388
0.999866 1 1 0.999866
0.999989 1 1 0.999989
0.999886 1 1 0.999886
0.999456 1 1 0.999456
1 1 1 1
0.999913 1 1 0.999913
1 1 1 1
0.999645 1.00086 1 0.998789
0.998907 1 1 0.998907
0.99899 1 1 0.99899
0.999204 1 1 0.999204
0.999142 1 1 0.999142
0.999303 1 1 0.999303
0.999571 1 1 0.999571
0.999395 1 1 0.999395
0.999628 1 1 0.999628
0.999962 1 1 0.999962
0.999685 1 1 0.999685
0.999992 1 1 0.999992
1 1 1 1
1 1 1 1
1 1 1 1
1 1 1 1
1.00866 1.00988 1 0.998788
1.00999 1.01152 0.999497 0.998988
1.00479 1.00866 0.997069 0.999089
1.00318 1.00459 1 0.998596
0.999955 1.00102 1 0.998939
0.999353 1 1 0.999353
0.999437 1.00066 1 0.998778
0.998906 1 1 0.998906
1.01074 1.01231 1 0.998456
1.00527 1.0068 1 0.998473
1.00047 1.00167 1 0.9988
1.00673 1.00826 1 0.998485
1.00459 1.00627 1 0.998335
1.00618 1.00795 0.99965 0.9986
1.01229 1.01343 1 0.99887
1.01002 1.01106 1 0.998971
1.00882 1.0098 0.999973 0.999059
1.0096 1.01099 0.999884 0.998748
1.01197 1.01311 1 0.998876
1.00964 1.01085 1 0.998795
1.00971 1.01102 1 0.998702
1.00406 1.00535 1 0.998716
1.00476 1.00612 1 0.998653
1.00268 1.00406 1 0.998627
1.00127 1.00259 1 0.998682
1.00029 1.00163 1 0.998658
0.998788 1.00009 1 0.998696
0.999279 1.00053 1 0.998747
0.998772 1 1 0.998771
0.998884 1 1 0.998884
0.998861 1 1 0.998861
0.998966 1 1 0.998966
0.999246 1 1 0.999246
0.999045 1 1 0.999045
0.999322 1 1 0.999322
0.999847 1 1 0.999847
0.999387 1 1 0.999387
0.999861 1 1 0.999861
0.999985 1 1 0.999985
0.999995 1 1 0.999995
0.999882 1 1 0.999882
1 1 1 1
1.00103 1.00241 1 0.998619
0.998891 1 1 0.998891
0.999508 1.00063 1 0.998877
0.999092 1 1 0.999092
0.998905 1 1 0.998905
0.998972 1 1 0.998972
0.999205 1 1 0.999205
0.999498 1 1 0.999498
0.999306 1 1 0.999306
0.999572 1 1 0.999572
0.999931 1 1 0.999931
0.999629 1 1 0.999629
0.99997 1 1 0.99997
1 1 1 1
0.999996 1 1 0.999996
1 1 1 1
1 1 1 1
1.01209 1.01344 1 0.998669
1.00832 1.00954 1 0.998786
1.01125 1.01253 0.999695 0.999038
1.00774 1.00926 1 0.998497
1.00294 1.00434 1 0.998599
0.999386 1.00038 1 0.999002
0.999643 1.00084 1 0.998802
1.01048 1.01204 1 0.998454
1.0049 1.00647 1 0.998444
1.00647 1.00801 1 0.998478
1.01152 1.01278 1 0.998752
1.01217 1.01334 1 0.998843
1.00927 1.01032 1 0.998964
1.01057 1.01192 1 0.998665
1.01021 1.01142 1 0.998804
1.00963 1.01095 1 0.998702
1.0062 1.00757 1 0.998648
1.00413 1.00549 1 0.998649
1.00295 1.00433 1 0.998629
0.999456 1.00081 1 0.998649
1.00061 1.00196 1 0.998657
0.998946 1.00025 1 0.998696
0.998819 1 1 0.998819
0.998772 1 1 0.99877
0.998884 1 1 0.998884
0.999171 1 1 0.999171
0.998966 1 1 0.998966
0.999245 1 1 0.999245
0.999828 1 1 0.999828
0.999321 1 1 0.999321
0.999842 1 1 0.999842
0.999983 1 1 0.999983
0.999856 1 1 0.999856
0.999986 1 1 0.999986
1 1 1 1
1.00246 1.00395 1 0.998522
0.998917 1.0002 1 0.998714
1.00061 1.00197 1 0.99865
0.999024 1 1 0.999024
0.998889 1 1 0.998889
0.999371 1.00041 1 0.998964
0.99939 1 1 0.99939
0.999091 1 1 0.999091
0.998903 1 1 0.998903
0.999206 1 1 0.999206
0.9995 1 1 0.9995
0.999895 1 1 0.999895
0.999573 1 1 0.999573
0.999939 1 1 0.999939
1 1 1 1
0.999979 1 1 0.999979
1 1 1 1
1 1 1 1
1.0102 1.0116 1 0.998622
1.01216 1.01353 1 0.998651
1.00864 1.00987 1 0.998784
1.00774 1.00926 1 0.998497
1.00265 1.00405 1 0.998601
1.01027 1.01184 1 0.998451
1.01024 1.01159 1 0.998663
1.01173 1.013 1 0.99875
1.01223 1.01343 1 0.998816
1.01072 1.01207 1 0.998669
1.00782 1.00921 1 0.998624
1.00956 1.01087 1 0.998702
1.0063 1.00766 1 0.998644
1.00087 1.00223 1 0.998639
1.00323 1.00461 1 0.99863
0.99984 1.00119 1 0.998651
0.998764 1 1 0.998764
0.999116 1.00042 1 0.998696
0.998818 1 1 0.998818
0.999119 1 1 0.999119
0.998883 1 1 0.998883
0.99917 1 1 0.99917
0.999806 1 1 0.999806
0.999243 1 1 0.999243
0.999822 1 1 0.999822
0.999977 1 1 0.999977
0.999838 1 1 0.999838
0.999984 1 1 0.999984
0.999987 1 1 0.999987
1.00489 1.00629 1 0.998603
0.999135 1.00054 1 0.998597
1.00214 1.00363 1 0.998516
0.998881 1 1 0.998881
0.998868 1.00014 1 0.998725
1.00024 1.00156 1 0.998681
0.99928 1 1 0.99928
0.998994 1 1 0.998994
0.998888 1 1 0.998888
0.99985 1 1 0.99985
0.999392 1 1 0.999392
0.999089 1 1 0.999089
0.999501 1 1 0.999501
0.999903 1 1 0.999903
1 1 1 1
0.999948 1 1 0.999948
1 1 1 1
1 1 1 1
1.00883 1.01024 1 0.998609
1.01021 1.01161 1 0.998618
1.01213 1.01352 1 0.998632
1.00779 1.0093 1 0.998497
1.00825 1.00967 1 0.998598
1.0106 1.01195 1 0.998668
1.01194 1.01321 1 0.998748
1.01085 1.01219 1 0.998674
1.00777 1.00916 1 0.998626
1.00214 1.00351 1 0.998631
1.00639 1.00776 1 0.99864
1.00113 1.00248 1 0.998644
0.998803 1.00009 1 0.998717
1.00022 1.00157 1 0.998653
0.998776 1.00001 1 0.998765
0.999074 1 1 0.999074
0.998818 1 1 0.998818
0.999118 1 1 0.999118
0.999772 1 1 0.999772
0.999169 1 1 0.999169
0.999796 1 1 0.999796
1 1 1 1
0.999817 1 1 0.999817
0.99998 1 1 0.99998
0.999985 1 1 0.999985
1.00496 1.00635 1 0.998625
0.999682 1.00106 1 0.998622
1.00492 1.00632 1 0.998606
0.998743 1 1 0.998743
0.999042 1.00043 1 0.998611
1.00177 1.00326 1 0.998511
0.999133 1 1 0.999133
0.998879 1 1 0.998879
0.998819 1.00008 1 0.998737
0.999806 1 1 0.999806
0.999254 1 1 0.999254
0.998964 1 1 0.998964
1 1 1 1
0.999859 1 1 0.999859
0.999394 1 1 0.999394
0.999911 1 1 0.999911
1 1 1 1
1 1 1 1
1.00735 1.00876 1 0.998601
1.00925 1.01065 1 0.998617
1.0102 1.01161 1 0.998614
1.0028 1.00422 1 0.998586
1.00784 1.00926 1 0.998596
1.01098 1.01232 1 0.998674
1.00774 1.00913 1 0.998628
1.00216 1.00353 1 0.998631
0.999133 1.00041 1 0.998723
1.00138 1.00274 1 0.998649
0.99885 1.00011 1 0.998742
0.998979 1 1 0.998979
0.998789 1.00002 1 0.998765
0.999074 1 1 0.999074
0.999742 1 1 0.999742
0.999117 1 1 0.999117
0.99977 1 1 0.99977
1 1 1 1
0.999784 1 1 0.999784
0.999987 1 1 0.999987
0.999982 1 1 0.999982
1.00338 1.00476 1 0.99863
0.999695 1.00104 1 0.998658
1.00496 1.00634 1 0.998626
0.998751 1 1 0.998751
0.999859 1.00123 1 0.998626
1.00497 1.00637 1 0.998609
0.999051 1 1 0.999051
0.998775 1 1 0.998775
0.998948 1.00032 1 0.998626
0.999776 1 1 0.999776
0.999122 1 1 0.999122
0.998878 1 1 0.998878
1 1 1 1
0.999814 1 1 0.999814
0.999228 1 1 0.999228
1 1 1 1
0.999868 1 1 0.999868
1 1 1 1
1.00256 1.00396 1 0.998604
1.00698 1.00839 1 0.998602
1.0097 1.01109 1 0.998626
0.998989 1.0003 1 0.998686
1.00275 1.00416 1 0.99859
1.00746 1.00888 1 0.998594
1.00219 1.00356 1 0.998631
0.999118 1.0004 1 0.998724
0.998928 1 1 0.998928
0.998896 1.00013 1 0.998768
0.999003 1 1 0.999003
0.999691 1 1 0.999691
0.999074 1 1 0.999074
0.999739 1 1 0.999739
1 1 1 1
0.999768 1 1 0.999768
1 1 1 1
0.999977 1 1 0.999977
1.00001 1.00135 1 0.998665
1.00328 1.00465 1 0.998629
0.998751 1 1 0.998751
0.999787 1.00113 1 0.998658
1.00493 1.00631 1 0.998627
0.999055 1 1 0.999055
0.998749 1 1 0.998749
1.00003 1.00141 1 0.998629
0.999754 1 1 0.999754
0.999068 1 1 0.999068
0.998807 1 1 0.998807
1 1 1 1
0.999781 1 1 0.999781
0.999111 1 1 0.999111
1 1 1 1
0.999822 1 1 0.999822
1 1 1 1
0.998838 1.00013 1 0.998711
1.0024 1.0038 1 0.998607
1.00656 1.00796 1 0.998603
0.998905 1 1 0.998905
0.99898 1.00029 1 0.998686
1.00266 1.00407 1 0.998595
0.999103 1.00038 1 0.998724
0.998934 1 1 0.998934
0.999641 1 1 0.999641
0.999027 1 1 0.999027
0.999688 1 1 0.999688
1 1 1 1
0.999736 1 1 0.999736
1 1 1 1
1 1 1 1
0.998736 1 1 0.998736
0.999951 1.00129 1 0.998659
1.00318 1.00455 1 0.998629
0.999033 1 1 0.999033
0.99875 1 1 0.99875
0.999879 1.00122 1 0.998657
0.999731 1 1 0.999731
0.999054 1 1 0.999054
0.998746 1 1 0.998746
1 1 1 1
0.999757 1 1 0.999757
0.999085 1 1 0.999085
1 1 1 1
0.999785 1 1 0.999785
1 1 1 1
0.998957 1 1 0.998957
0.998814 1.00013 1 0.998687
1.00228 1.00367 1 0.998609
0.999621 1 1 0.999621
0.998907 1 1 0.998907
0.998972 1.00029 1 0.998686
0.998939 1 1 0.998939
0.99964 1 1 0.99964
1 1 1 1
0.999685 1 1 0.999685
1 1 1 1
1 1 1 1
0.998997 1 1 0.998997
0.998726 1 1 0.998726
0.99989 1.00124 1 0.998653
0.999731 1 1 0.999731
0.999032 1 1 0.999032
0.998748 1 1 0.998748
1 1 1 1
0.999731 1 1 0.999731
0.999053 1 1 0.999053
1 1 1 1
0.99976 1 1 0.99976
1 1 1 1
0.999619 1 1 0.999619
0.998939 1 1 0.998939
0.998791 1.00013 1 0.998662
1 1 1 1
0.99962 1 1 0.99962
0.998909 1 1 0.998909
0.999638 1 1 0.999638
1 1 1 1
1 1 1 1
0.99969 1 1 0.99969
0.998997 1 1 0.998997
0.998716 1 1 0.998716
1 1 1 1
0.999701 1 1 0.999701
0.99903 1 1 0.99903
1 1 1 1
0.999732 1 1 0.999732
1 1 1 1
0.999913 1 1 0.999913
0.99965 1 1 0.99965
0.99892 1 1 0.99892
1 1 1 1
0.99962 1 1 0.99962
1 1 1 1
0.99993 1 1 0.99993
0.999679 1 1 0.999679
0.998998 1 1 0.998998
0.99997 1 1 0.99997
0.999699 1 1 0.999699
1 1 1 1
1 1 1 1
0.99963 1 1 0.99963
1 1 1 1
0.999961 1 1 0.999961
0.999661 1 1 0.999661
1 1 1 1
1 1 1 1
1 1 1 1

VECTORS lamdaE float
0.999235 1.00028 0.996238
0.9993 0.999676 0.998449
0.999103 1.00043 0.996336
0.99965 0.999938 0.99604
0.999378 1.00019 0.996162
0.999215 1.00006 0.996404
1.00018 1.00075 0.993875
0.999301 0.999551 0.998497
0.99928 1.00036 0.998361
0.99902 1.00014 0.998535
0.999398 0.999222 0.996968
1 1.00074 0.993895
0.999827 1.00001 0.99563
0.999506 0.9999 0.99606
0.998962 1.00065 0.996418
0.999526 0.999917 0.996154
0.999105 1.00021 0.996484
0.999229 1.00031 0.996266
1.00027 1.00067 0.993859
0.999774 1 0.998039
0.999688 0.999964 0.995926
0.999557 1.00002 0.996094
1.00088 0.999908 0.993533
1.00051 1.00038 0.993686
0.999314 0.999542 0.996711
0.999846 1.00096 0.994188
1.00197 1.00096 0.990532
0.999291 0.999424 0.998555
0.999366 1.00023 0.99718
0.999129 1.00013 0.99745
0.999361 0.99905 0.99865
0.999909 1.00084 0.993904
0.999634 1 0.995926
0.999343 1.00046 0.996161
1.00084 1.00031 0.993857
0.999325 0.998456 0.998955
1.00025 1.00072 0.994441
0.999826 1.00055 0.994367
1.00093 1.00191 0.991061
0.999424 0.997875 0.999131
0.99982 1 0.997998
0.999605 0.999968 0.997083
0.999869 1 0.997955
0.999532 0.999994 0.995979
1.00125 1.00005 0.992198
0.999532 0.999997 0.998311
1.00115 0.999964 0.993632
0.999403 0.999879 0.996267
0.999087 1.00046 0.996357
0.998982 1.00039 0.996581
1.00035 1.00055 0.993851
0.999717 1.00001 0.996936
0.999564 0.999939 0.996058
0.999221 0.999624 0.996792
0.999418 1.00006 0.996201
1.00093 0.999877 0.993487
0.999933 1.0009 0.994185
1.00059 1.00032 0.99366
1.00203 1.001 0.990453
0.999813 1.00001 0.997999
0.999764 1 0.995744
1.00112 1.00001 0.993553
1.00091 0.99995 0.993422
1.00078 1.00005 0.993566
1.00306 0.999793 0.989736
1.00255 1.00032 0.989848
0.999488 0.998823 0.997115
0.99952 1.00089 0.994774
1.00123 1.00161 0.991159
1.00295 1.00099 0.988221
0.999441 1.00021 0.998226
0.999357 0.998861 0.998757
0.999221 0.999904 0.998422
0.999827 1.00094 0.993911
0.999661 1.00007 0.998161
0.999339 1.00029 0.998276
1.00074 1.0003 0.992836
0.999364 0.998542 0.998183
1.00009 1.00083 0.99355
0.999757 1.00054 0.99488
1.00092 1.00188 0.991054
0.999427 0.998174 0.999002
0.9996 0.999084 0.996267
1.00105 0.99996 0.992646
1.00052 1.0006 0.993068
1.00283 1.00034 0.989025
0.999657 1.00004 0.995901
1.0015 1.00141 0.9905
1.00046 1.00228 0.991569
1.00152 1.00219 0.989581
0.999462 0.997562 0.999219
0.999405 0.997821 0.999163
0.999704 0.999975 0.998135
0.999787 1 0.998031
0.999862 1 0.997966
0.999645 0.999995 0.997005
1.00125 1.00003 0.992811
0.999605 0.999963 0.997108
1.00111 0.999988 0.993123
0.999876 1 0.997958
1.00128 0.999988 0.992156
1.0012 1.00005 0.993484
1.00348 0.999864 0.988315
1.00111 0.999907 0.993709
1.0033 0.999843 0.9887
0.999797 1.00002 0.995695
0.999436 0.999886 0.996192
0.999126 0.99968 0.99689
0.999284 1.00011 0.996303
1.00099 0.999866 0.993442
1.00066 1.00024 0.99364
1.00003 1.00078 0.994175
1.00209 1.00105 0.990373
0.99985 1 0.997977
0.999624 0.999995 0.995887
1.00119 0.999999 0.992624
1.00096 0.999918 0.993379
0.999403 0.998853 0.997924
0.999668 1.0008 0.994896
1.00084 1.00001 0.993528
1.00307 0.999776 0.989616
1.00132 1.00166 0.991053
1.00256 1.00039 0.989929
1.00293 1.001 0.988229
1.00125 1.00002 0.992208
1.00102 0.999986 0.993168
1.00341 0.999802 0.988815
1.00308 0.999812 0.989391
1.00297 0.999886 0.989543
1.00415 0.999449 0.987783
0.999471 0.998329 0.998912
1.00357 1.00023 0.98782
0.999628 1.00047 0.994765
1.00048 1.00206 0.991572
1.00222 1.00194 0.988744
1.00361 1.00076 0.98722
0.999676 0.999551 0.995583
1.00011 1.00134 0.993073
0.999615 1.0001 0.998171
0.999249 1.00019 0.998328
1.00073 1.00029 0.992847
0.999384 0.998399 0.998947
0.999656 1.00066 0.994503
1.00002 1.00091 0.993542
1.00092 1.00186 0.991048
0.999398 0.998119 0.999048
0.999603 0.999022 0.996299
1.00105 0.999983 0.993201
1.00045 1.0006 0.993636
1.00284 1.00033 0.989033
0.999624 1.00002 0.995264
1.00148 1.00139 0.990518
1.00043 1.00228 0.991569
1.00153 1.00219 0.989519
0.999578 0.999582 0.995794
0.999684 0.998603 0.996611
0.999996 1.00094 0.993668
1.0032 0.999963 0.98872
1.00218 1.00092 0.989703
1.00391 1.00021 0.987166
1.00026 1.002 0.992203
1.00224 1.00151 0.988883
1.00095 1.00302 0.989994
1.00171 1.00247 0.989027
0.999546 0.997256 0.999268
0.999462 0.997501 0.999237
0.999389 0.997758 0.999193
0.999711 0.99914 0.995948
0.999485 0.998055 0.999025
0.999699 0.999999 0.99815
0.999719 0.999984 0.998098
1.00107 0.999986 0.992595
1.00119 1.00004 0.992279
0.999838 1 0.99798
0.999873 1 0.997954
1.00127 0.999999 0.992159
1.00114 1.00005 0.992992
1.00348 0.999864 0.988316
1.00107 0.999892 0.992643
1.00329 0.999851 0.9887
1.00129 0.999985 0.992128
1.00359 0.999813 0.98815
1.00334 0.999888 0.988559
1.00456 0.999488 0.986725
1.0033 0.999823 0.98869
1.00437 0.999514 0.987078
0.999864 0.999999 0.99796
0.999485 0.999986 0.996036
1.0012 0.999992 0.991761
1.00102 0.999915 0.993335
0.999262 0.998829 0.998808
0.999823 1.00071 0.995011
1.00089 0.999982 0.993493
1.00307 0.999749 0.989496
1.00258 1.00047 0.99001
1.00141 1.00174 0.990947
1.00292 1.00101 0.988238
1.00125 1 0.992202
1.00108 0.999987 0.993119
1.0034 0.99978 0.988563
1.0031 0.999843 0.989495
0.999462 0.998394 0.99887
0.999677 1.0004 0.995135
1.00059 1.00209 0.991669
1.00295 0.99993 0.989536
1.00416 0.999362 0.987646
1.00213 1.00193 0.988734
1.00357 1.00027 0.987932
1.00359 1.00076 0.987235
0.999658 0.999616 0.995569
1.00013 1.0013 0.993068
1.00358 0.999798 0.98819
1.00328 0.99983 0.989018
1.00448 0.99948 0.987176
1.00419 0.999417 0.987323
1.00403 0.999629 0.987758
1.00471 0.998906 0.987148
0.999653 1.00001 0.99515
1.00427 0.999753 0.987005
1.00024 1.00208 0.992019
1.00117 1.00256 0.989632
1.00286 1.00204 0.987763
1.00411 1.00018 0.986915
1.00018 1.00175 0.992566
1.00012 1.00079 0.993604
1.00034 1.00235 0.991676
1.00099 0.999974 0.99269
0.999375 0.998072 0.999092
0.999602 0.998969 0.99633
1.00031 1.0007 0.993182
1.00285 1.00031 0.989042
0.999602 1.00003 0.995223
1.0004 1.00227 0.991568
1.00145 1.00139 0.990536
1.00154 1.00218 0.989457
0.999586 0.999511 0.99582
0.999676 0.998576 0.99663
0.999979 1.00096 0.993679
1.0032 0.999974 0.988718
1.00216 1.00091 0.989727
1.00393 1.00021 0.987156
1.00022 1.00204 0.992208
1.00228 1.00153 0.988915
1.00093 1.00302 0.989982
1.0017 1.00245 0.988993
0.999774 0.998243 0.996803
1.00012 1.00151 0.992884
0.999976 1.00027 0.994381
1.00018 1.00211 0.992226
1.00429 0.999727 0.986961
1.00312 1.00097 0.987926
1.00458 0.999871 0.986288
1.00058 1.00298 0.990755
1.00268 1.00147 0.98829
1.001 1.00384 0.988935
1.00196 1.00224 0.988589
1.0002 0.999226 0.995039
0.999929 0.997783 0.996962
0.999646 0.99699 0.999297
0.999557 0.997203 0.999278
0.999465 0.997437 0.999253
0.999772 0.998817 0.99618
0.999502 0.997823 0.999101
0.999702 0.999201 0.995925
0.999496 0.998093 0.998989
1.00108 0.999895 0.992641
1.0011 1.00004 0.992458
1.00328 0.999857 0.9887
1.00348 0.999864 0.988318
1.00127 1.00001 0.992162
0.99988 1 0.997952
1.0013 0.999988 0.992127
1.00359 0.999817 0.98815
1.00334 0.999896 0.98856
1.00456 0.99949 0.986719
1.0033 0.999836 0.988685
1.00437 0.999512 0.987078
1.00362 0.999796 0.988126
1.00468 0.999408 0.986583
1.00442 0.999564 0.986931
1.005 0.998915 0.986487
1.00438 0.999494 0.987043
1.00487 0.999063 0.986592
1.00126 0.999985 0.992194
1.00113 0.999981 0.993068
1.0034 0.999751 0.988311
1.00312 0.999858 0.989599
0.999457 0.99846 0.998826
0.99974 1.00037 0.995471
1.00072 1.00211 0.991765
1.00293 0.99997 0.98953
1.00417 0.999272 0.987509
1.00357 1.00031 0.988043
1.00203 1.00192 0.988724
1.00357 1.00076 0.987249
0.999646 0.999677 0.995555
1.00015 1.00125 0.993064
1.00356 0.999773 0.988114
1.00329 0.999832 0.989009
1.0045 0.999433 0.987118
1.00421 0.999476 0.987474
0.999661 1.00003 0.995149
1.0003 1.00209 0.992011
1.00117 1.00254 0.989775
1.00402 0.99968 0.987775
1.00471 0.998825 0.987121
1.0028 1.00202 0.987626
1.00425 0.999751 0.987016
1.00407 1.00014 0.986939
1.00019 1.00169 0.992575
1.00032 1.00233 0.991689
1.00012 1.00079 0.993593
1.00462 0.999475 0.986895
1.00443 0.999461 0.987163
1.00499 0.998954 0.986595
1.00477 0.998992 0.986846
1.00465 0.998972 0.987019
1.00499 0.998321 0.987145
1.0002 1.00194 0.992292
1.00468 0.999029 0.986856
1.00074 1.00257 0.990728
1.0016 1.00308 0.988372
1.00324 1.00183 0.987038
1.00441 0.999473 0.987235
1.00015 1.00039 0.993963
1.00047 1.00231 0.991492
1.00027 1.00203 0.992083
1.00038 1.00283 0.991197
1.00321 0.999981 0.988716
0.999665 0.998553 0.99665
0.999599 0.999426 0.995844
0.999979 1.00097 0.99369
1.00213 1.00091 0.989752
1.00394 1.00022 0.987147
1.00016 1.00209 0.992214
1.00091 1.00302 0.98997
1.00231 1.00154 0.988948
1.00169 1.00243 0.988959
0.999764 0.998234 0.99681
1.00011 1.00154 0.992885
0.999986 1.00024 0.994398
1.00016 1.00217 0.992218
1.00431 0.999727 0.98695
1.0031 1.00097 0.987938
1.00456 0.999889 0.986286
1.00053 1.00298 0.990771
1.00271 1.00149 0.988328
1.00104 1.00393 0.988892
1.00192 1.00208 0.988868
0.999856 0.997983 0.996905
1.00005 0.999754 0.994782
1.00036 1.00256 0.991527
1.00014 1.00143 0.992963
1.00008 1.00311 0.991437
1.00488 0.999364 0.98627
1.00368 1.00077 0.987073
1.00487 0.999578 0.986069
1.00057 1.00418 0.989536
1.00285 1.00124 0.988143
1.0013 1.0037 0.98804
1.00017 0.999316 0.995013
1.00024 1.00022 0.994002
1.00024 0.999173 0.995031
1.0002 0.999243 0.995033
0.999972 0.997595 0.997453
0.999916 0.997771 0.997193
0.999798 0.996793 0.998408
0.99966 0.996944 0.999304
0.999569 0.997148 0.999287
0.999841 0.998543 0.996335
0.999554 0.997587 0.999145
0.999774 0.998844 0.996162
0.999513 0.997853 0.999079
0.999693 0.999254 0.995901
0.999509 0.998139 0.998952
1.0033 0.999845 0.988679
1.00333 0.999903 0.988561
1.00436 0.999519 0.987077
1.00457 0.999492 0.986712
1.00359 0.999821 0.98815
1.0013 0.999991 0.992126
1.00362 0.999793 0.988125
1.00468 0.999411 0.986582
1.00441 0.99958 0.986925
1.00501 0.998869 0.986506
1.00439 0.999485 0.987039
1.00486 0.999079 0.986588
1.0047 0.999394 0.986555
1.00508 0.998793 0.986461
1.00491 0.999012 0.986545
1.00514 0.998342 0.98681
1.00491 0.999127 0.986488
1.00501 0.998333 0.987005
1.00354 0.999749 0.988039
1.0033 0.999838 0.989
1.00451 0.99939 0.987061
1.00423 0.999535 0.987626
0.99967 1.00005 0.995148
1.00032 1.00211 0.992003
1.00117 1.00252 0.989917
1.00403 0.999732 0.987792
1.00472 0.998746 0.987094
1.00423 0.999751 0.987027
1.00274 1.002 0.987489
1.00402 1.00009 0.986963
1.0002 1.00163 0.992584
1.00032 1.00231 0.991703
1.00013 1.00079 0.993582
1.00464 0.999446 0.986759
1.00443 0.999463 0.987154
1.00499 0.998881 0.986591
1.00478 0.999019 0.986867
1.00023 1.00191 0.992297
1.0008 1.00256 0.990701
1.00153 1.0031 0.98856
1.00463 0.999063 0.98706
1.00498 0.998253 0.987184
1.00315 1.00188 0.986952
1.0047 0.999045 0.986857
1.00439 0.999283 0.98731
1.00048 1.00232 0.991504
1.00039 1.00285 0.991141
1.00014 1.0004 0.993957
1.00025 1.00196 0.992156
1.00506 0.998915 0.986412
1.00495 0.999 0.986674
1.00516 0.998461 0.98669
1.00506 0.998166 0.987115
1.00496 0.998378 0.987019
1.0051 0.997732 0.987446
1.00058 1.00232 0.991276
1.0049 0.998242 0.987241
1.00075 1.00329 0.989735
1.00203 1.00352 0.987413
1.00347 1.00142 0.986848
1.00476 0.998633 0.987437
1.00017 1.00013 0.994187
1.00024 1.00161 0.992533
1.00052 1.00269 0.991047
1.00026 1.00268 0.991556
1.00042 1.00294 0.990985
0.999755 0.998227 0.996817
1.00432 0.999727 0.986939
0.999998 1.00021 0.994414
1.00009 1.0016 0.992886
1.00013 1.00222 0.992209
1.00309 1.00098 0.98795
1.00454 0.999908 0.986284
1.0005 1.00296 0.990789
1.00107 1.00402 0.988848
1.00274 1.00152 0.988367
1.0019 1.00195 0.989145
0.99985 0.997977 0.996908
1.00006 0.999741 0.99479
1.00035 1.00254 0.991532
1.00013 1.00145 0.992969
1.00007 1.0032 0.991331
1.00487 0.999361 0.986253
1.00366 1.00078 0.987083
1.00484 0.999594 0.98605
1.00052 1.00422 0.989549
1.00288 1.00125 0.988184
1.00144 1.00367 0.98811
1.00012 0.999481 0.994946
1.00017 1.00079 0.993565
1.00035 1.00364 0.990482
1.00001 1.0026 0.992068
1.00012 1.00377 0.9908
1.00506 0.999011 0.986215
1.00399 1.00033 0.9869
1.00489 0.998968 0.986378
1.0005 1.00493 0.98871
1.00256 1.00231 0.987576
1.00016 0.999332 0.99501
1.00021 1.00027 0.99392
1.00023 1.00023 0.993966
1.00018 1.0009 0.993553
1.00026 1.00024 0.993946
1.00027 0.999171 0.994975
1.00024 0.999181 0.995028
1.00003 0.997459 0.997468
1.00019 0.999257 0.995028
0.99998 0.997591 0.997455
0.999898 0.996571 0.998436
0.999905 0.997762 0.99742
0.999773 0.996747 0.998866
0.999675 0.9969 0.999311
0.999905 0.998288 0.996474
0.999843 0.99856 0.996324
0.999629 0.997342 0.999181
0.999557 0.997629 0.999132
0.999774 0.998874 0.996146
0.999526 0.997885 0.999055
1.00441 0.999475 0.987035
1.00441 0.999588 0.986919
1.00485 0.999093 0.986584
1.00502 0.998823 0.986526
1.00467 0.999413 0.986582
1.00362 0.999791 0.988124
1.0047 0.999394 0.986557
1.00508 0.998795 0.98645
1.00491 0.999023 0.986541
1.00515 0.998269 0.986889
1.00489 0.999125 0.986475
1.00503 0.998258 0.987037
1.00509 0.998826 0.986409
1.00517 0.998355 0.986788
1.00507 0.998162 0.98705
1.00515 0.997862 0.98732
1.00505 0.99852 0.986717
1.00511 0.997748 0.987527
1.00465 0.999415 0.986624
1.00443 0.999473 0.987146
1.00498 0.998804 0.986588
1.0048 0.999046 0.986887
1.00027 1.00187 0.992301
1.00085 1.00255 0.990674
1.00146 1.00313 0.988748
1.00461 0.999152 0.987101
1.00497 0.998183 0.987223
1.00472 0.99906 0.986859
1.00306 1.00193 0.986866
1.00437 0.999094 0.987386
1.00047 1.00234 0.991515
1.00038 1.0029 0.991084
1.00014 1.00041 0.993951
1.00024 1.00189 0.992228
1.00504 0.998919 0.986419
1.00495 0.999016 0.986619
1.00515 0.998427 0.986704
1.00504 0.998236 0.987074
1.00061 1.00235 0.991263
1.00074 1.00322 0.989891
1.00197 1.00366 0.987383
1.00497 0.998446 0.986994
1.0051 0.997671 0.987495
1.00348 1.00143 0.986799
1.00489 0.998271 0.987235
1.0046 0.99842 0.987697
1.00055 1.00268 0.991048
1.00043 1.00295 0.990973
1.00024 1.0027 0.991551
1.00017 1.00013 0.994112
1.00023 1.00156 0.992582
1.00517 0.998367 0.986759
1.00515 0.998231 0.986899
1.00514 0.997377 0.987739
1.00509 0.997675 0.987408
1.00058 1.00284 0.990758
1.00508 0.997627 0.98762
1.00063 1.00396 0.989001
1.00241 1.00379 0.986467
1.0042 1.00021 0.986792
1.00018 0.999906 0.994225
1.00023 1.00129 0.993018
1.00019 1.0023 0.992076
1.00053 1.00279 0.990938
1.00028 1.00314 0.991098
1.00054 1.00282 0.990836
0.999843 0.997973 0.996911
1.00006 0.999728 0.994799
1.00486 0.999356 0.986237
1.00011 1.00148 0.992974
1.00032 1.00253 0.991538
1.00005 1.00329 0.991225
1.00363 1.00079 0.987092
1.0048 0.999609 0.986032
1.00048 1.00427 0.989562
1.00157 1.00369 0.988179
1.00291 1.00126 0.988227
1.00011 0.999487 0.994947
1.00017 1.00078 0.993577
1.00032 1.00365 0.990499
1.00001 1.00259 0.992068
1.00009 1.00379 0.990746
1.00506 0.999056 0.986192
1.00399 1.00033 0.986886
1.00488 0.998863 0.986545
1.0005 1.00495 0.988632
1.00258 1.0025 0.987426
1.00018 1.00045 0.993891
1.00004 1.00189 0.992607
1.00036 1.0042 0.989839
0.999979 1.00356 0.991055
1.00027 1.00389 0.990358
1.00511 0.997541 0.987448
1.00416 1.00036 0.98678
1.00482 0.998058 0.987126
1.00125 1.00467 0.988198
1.0025 1.00239 0.986784
1.00016 0.999349 0.995007
1.00021 1.00026 0.993967
1.00013 1.00103 0.99333
1.00022 1.00024 0.993929
1.00026 1.00025 0.993946
1.00015 1.00091 0.993492
1.00007 1.00144 0.99319
1.00014 1.00092 0.993441
1.00029 1.00027 0.993888
1.00027 0.999234 0.994895
1.00026 0.999177 0.994976
1.00009 0.997393 0.997439
1.00023 0.999187 0.995026
1.00004 0.997465 0.997465
0.999968 0.996426 0.998446
0.999988 0.997587 0.997458
0.999888 0.996545 0.998439
0.999745 0.996693 0.999332
0.999965 0.998052 0.996605
0.999909 0.998299 0.996466
0.999709 0.997099 0.999216
0.999845 0.998579 0.996314
0.999623 0.99739 0.99917
0.99956 0.99766 0.999119
1.00487 0.999123 0.986463
1.00492 0.999037 0.986536
1.00505 0.998182 0.98707
1.00515 0.998194 0.986969
1.00509 0.998797 0.986438
1.0047 0.999395 0.986558
1.00509 0.998862 0.986376
1.00517 0.998388 0.986751
1.0051 0.998205 0.986974
1.00515 0.99777 0.987372
1.00504 0.998544 0.98672
1.00512 0.997604 0.987576
1.00516 0.998422 0.986726
1.00515 0.997837 0.987299
1.00515 0.997441 0.987685
1.00512 0.997444 0.987761
1.00503 0.998922 0.986426
1.00496 0.999028 0.986564
1.00515 0.998397 0.986718
1.00502 0.998304 0.987033
1.00064 1.00236 0.991249
1.00075 1.00316 0.990047
1.00192 1.00376 0.987354
1.00498 0.998514 0.986968
1.00509 0.997607 0.987543
1.00489 0.9983 0.987228
1.00348 1.00144 0.98675
1.00445 0.998222 0.987954
1.00057 1.00269 0.991049
1.00046 1.00295 0.990961
1.00021 1.00272 0.991546
1.00016 1.00013 0.994037
1.00023 1.00151 0.992632
1.00517 0.998378 0.986759
1.00514 0.99824 0.986934
1.00513 0.997471 0.987662
1.00063 1.00284 0.990739
1.00076 1.00392 0.989169
1.00238 1.00382 0.986425
1.00509 0.997705 0.987433
1.00413 1.00007 0.986947
1.00502 0.997632 0.987621
1.00018 0.999877 0.994254
1.00056 1.00278 0.990926
1.00052 1.0028 0.9909
1.00028 1.00318 0.991052
1.00019 1.00229 0.992101
1.00023 1.00127 0.992953
1.00516 0.99802 0.987041
1.00512 0.997331 0.987835
1.00512 0.996937 0.988087
1.0051 0.997101 0.988044
1.00059 1.00323 0.990397
1.00489 0.997953 0.987409
1.00116 1.00497 0.987373
1.00311 1.00308 0.986059
1.00019 0.999675 0.994446
1.00023 1.00102 0.993277
1.00019 1.00204 0.992398
1.00015 1.00289 0.991522
1.0006 1.00302 0.990622
1.00058 1.0029 0.990722
1.00011 0.999492 0.994947
1.00016 1.00076 0.993588
1.00506 0.999102 0.986168
1 1.00259 0.992067
1.00029 1.00365 0.990515
1.00004 1.00384 0.990692
1.00399 1.00032 0.986873
1.00489 0.998759 0.986713
1.0005 1.00496 0.988552
1.00261 1.00268 0.987276
1.00018 1.00042 0.993897
1.00006 1.00186 0.992647
1.00032 1.00428 0.989896
0.999951 1.00364 0.991051
1.00019 1.00384 0.990488
1.0051 0.997577 0.987618
1.00422 1.00028 0.986701
1.00496 0.997935 0.987196
1.00109 1.00471 0.988124
1.00269 1.00257 0.986634
1.0001 1.00126 0.993145
0.999951 1.0029 0.991676
1.00053 1.00428 0.989504
0.999986 1.00421 0.990074
1.00514 0.996154 0.988899
1.00511 0.996771 0.988312
1.00423 0.999971 0.986678
1.00147 1.00427 0.986956
1.00022 1.00025 0.994013
1.00014 1.00104 0.993358
1.00001 1.00172 0.992966
1.00026 1.00024 0.993945
1.00014 1.00091 0.99343
1.00028 1.00026 0.993887
1.00005 1.00145 0.993142
1.00016 1.00089 0.993462
1.00001 1.00184 0.992841
1.0001 1.00135 0.993136
1.00018 1.00092 0.993363
1.00029 1.00033 0.993813
1.00027 0.999317 0.994825
1.00027 0.999239 0.994895
1.00012 0.997395 0.997384
1.00026 0.999179 0.994976
1.00009 0.997417 0.99743
1.00002 0.99636 0.998418
1.00005 0.997474 0.997463
0.999961 0.996401 0.998451
0.999879 0.996521 0.99844
1.00002 0.99783 0.996726
0.99997 0.998057 0.996598
0.999788 0.996868 0.999248
0.999913 0.998311 0.996458
0.999701 0.997146 0.999205
0.99962 0.997437 0.999158
1.00504 0.998567 0.986723
1.00513 0.998251 0.986897
1.00512 0.997462 0.987625
1.00515 0.997682 0.987425
1.00516 0.998421 0.986715
1.00509 0.998899 0.986344
1.00516 0.998417 0.986728
1.00514 0.997865 0.987273
1.00514 0.997452 0.987668
1.00514 0.997395 0.987765
1.00516 0.997993 0.987141
1.00514 0.997209 0.98797
1.00514 0.996866 0.988175
1.00516 0.998388 0.98676
1.00513 0.99825 0.986969
1.00512 0.997568 0.987585
1.00068 1.00284 0.990721
1.00089 1.00384 0.989336
1.00233 1.00392 0.986382
1.00509 0.997735 0.987458
1.00495 0.997637 0.987623
1.00406 0.999925 0.987104
1.00059 1.00278 0.990914
1.00048 1.0028 0.990965
1.00029 1.00322 0.991006
1.00018 0.999847 0.994283
1.00019 1.00229 0.992127
1.00023 1.00126 0.992888
1.00517 0.99806 0.987053
1.00513 0.997307 0.987882
1.00512 0.996979 0.988083
1.00063 1.00323 0.990351
1.00104 1.00483 0.98771
1.00312 1.00292 0.98611
1.0051 0.997103 0.988034
1.00492 0.998033 0.987354
1.00019 0.99965 0.994545
1.00023 1.00103 0.993277
1.00052 1.0029 0.990672
1.00058 1.00281 0.990903
1.00017 1.00287 0.991484
1.00017 1.00207 0.99235
1.00515 0.997345 0.987789
1.00509 0.996412 0.98875
1.00509 0.996412 0.988606
1.00507 0.996893 0.988398
1.00043 1.00403 0.989508
1.00402 1.0005 0.986584
1.00187 1.00481 0.986842
1.00021 0.999494 0.994767
1.00018 1.0006 0.993729
1.00021 1.00086 0.99333
1.00015 1.00189 0.992537
1.00007 1.00274 0.991827
1.00005 1.00337 0.991102
1.00089 1.00178 0.991106
1.00046 1.00277 0.991701
1.00019 1.0004 0.993903
1.00008 1.00184 0.992687
1.0051 0.997617 0.987789
0.999958 1.00369 0.991048
1.00028 1.00437 0.989954
1.00009 1.00379 0.990618
1.00426 1.00018 0.986621
1.00509 0.997798 0.987266
1.00093 1.00473 0.988051
1.00288 1.0027 0.986483
1.00011 1.00129 0.993102
0.999978 1.00293 0.991678
1.00047 1.00431 0.989548
1.0001 1.00422 0.990166
1.00513 0.996164 0.988976
1.00511 0.996896 0.988142
1.00431 0.999952 0.986731
1.00177 1.00421 0.986801
0.999986 1.0021 0.992613
1.00515 0.995512 0.989385
0.999992 1.00406 0.990842
1.00064 1.00462 0.988891
1.00512 0.995825 0.989311
1.00499 0.997498 0.987459
1.00308 1.00302 0.986314
1.00014 1.00106 0.993385
1.00001 1.00172 0.992959
0.999911 1.00227 0.992605
1.00028 1.00025 0.993887
1.00017 1.00087 0.993483
1.00003 1.00146 0.993094
1.00029 1.00032 0.993811
1.00018 1.00093 0.993376
1 1.00187 0.992791
1.00011 1.00132 0.993183
1 1.00208 0.99254
1.00011 1.00166 0.992787
1.00015 1.0013 0.993145
1.00027 1.00092 0.993261
1.00028 1.00042 0.99373
1.00025 0.999382 0.99478
1.00027 0.99932 0.994825
1.00014 0.997417 0.99733
1.00027 0.999247 0.994895
1.00012 0.997424 0.997375
1.00005 0.996338 0.998382
1.00009 0.997441 0.997421
1.00002 0.996327 0.998425
0.999953 0.996376 0.998454
1.00021 0.999371 0.994882
1.00007 0.997643 0.996827
1.00003 0.997836 0.99672
0.999861 0.996658 0.999277
0.999976 0.998063 0.996591
0.999779 0.996912 0.999238
0.999693 0.997195 0.999194
1.00515 0.997346 0.987768
1.00514 0.997461 0.98765
1.00514 0.997886 0.987246
1.00516 0.998413 0.98673
1.00516 0.997962 0.987185
1.00515 0.997208 0.98795
1.00515 0.996839 0.988169
1.00517 0.997243 0.987847
1.00513 0.996602 0.988652
1.00512 0.995224 0.989534
1.00517 0.9981 0.987065
1.00513 0.997281 0.987928
1.00512 0.997021 0.988079
1.00067 1.00324 0.990304
1.00094 1.0047 0.988046
1.00313 1.00274 0.986161
1.00509 0.997109 0.988025
1.00493 0.998097 0.987298
1.00045 1.00279 0.990721
1.00059 1.00272 0.991079
1.00014 1.00292 0.991447
1.0002 0.999622 0.994645
1.00023 1.00102 0.993277
1.00015 1.0021 0.992302
1.00515 0.997269 0.987891
1.00021 0.999487 0.994767
1.00016 1.00063 0.993684
1.00508 0.996476 0.988735
1.0051 0.996397 0.98855
1.00035 1.00408 0.989757
1.0018 1.00475 0.986742
1.00397 1.00047 0.986587
1.00501 0.996878 0.988344
1.00022 1.00084 0.993466
1.00015 1.00188 0.99253
1.00102 1.00198 0.990794
1.00026 1.00237 0.992064
1.00003 1.00345 0.991047
1.00008 1.0027 0.991838
1.00516 0.996132 0.988979
1.00511 0.996009 0.989183
1.00507 0.995859 0.98899
1.00475 0.997177 0.988123
1.00071 1.00345 0.989855
1.00263 1.00369 0.986472
1.00014 1.00054 0.993745
1.00019 1.00073 0.993577
1.00009 1.00153 0.993094
1.00013 1.00177 0.992546
1.00004 1.00263 0.992103
0.999913 1.00338 0.991219
0.999746 1.00433 0.990907
1.00041 1.00161 0.992201
1.00012 1.0013 0.993058
1.00001 1.00296 0.991681
1.00512 0.996159 0.989053
1.00511 0.997049 0.987971
1.00021 1.00423 0.990258
1.0004 1.00433 0.98959
1.00438 0.999951 0.986786
1.00206 1.00419 0.986646
0.999984 1.00211 0.992587
1.00514 0.995548 0.989405
0.999927 1.00395 0.990895
1.00064 1.00456 0.988798
1.00513 0.995745 0.989212
1.005 0.99745 0.987635
1.00297 1.0031 0.986382
0.999912 1.00322 0.991731
1.00507 0.995115 0.990648
1.0005 1.00431 0.990085
1.0014 1.00474 0.987948
1.00504 0.996541 0.988743
1.00357 1.00069 0.987146
0.999954 0.999325 0.992615
1 1.00173 0.992951
0.999903 1.00228 0.992595
1 1.00249 0.992231
1.00029 1.00032 0.993808
1.00017 1.00093 0.993388
1.00011 1.00129 0.99323
0.999999 1.0019 0.992741
1.00028 1.00042 0.993726
1.00025 1.00091 0.993258
1.00002 1.0021 0.992507
1.00015 1.0013 0.993141
1.00011 1.00168 0.992831
1.00013 1.00185 0.992572
1.00019 1.00136 0.992957
1.00021 1.00123 0.993079
1.00035 1.00096 0.993083
1.0003 1.00047 0.993569
1.00025 1.00101 0.993287
1.00028 1.00047 0.993594
1.00025 0.999408 0.994769
1.00025 0.999383 0.994781
1.00016 0.997475 0.996817
1.00026 0.999325 0.994826
1.00015 0.997447 0.99709
1.00003 0.996283 0.999307
1.00012 0.997452 0.997368
1.00006 0.996298 0.998388
1.00001 0.996295 0.99843
1.0002 0.999311 0.994965
1.00021 0.999369 0.994878
1.00011 0.99751 0.996895
1.00006 0.997645 0.99706
0.999924 0.996484 0.999301
1.00003 0.997841 0.996714
0.999852 0.996699 0.999269
0.999771 0.996956 0.999228
1.00516 0.996813 0.988163
1.00515 0.997205 0.987929
1.00516 0.997935 0.987228
1.00517 0.997236 0.987833
1.00513 0.996572 0.988603
1.00513 0.995345 0.989534
1.00514 0.99589 0.989104
1.00104 0.999921 0.988475
1.00509 0.994945 0.990852
1.00012 1.00053 0.99392
1.00515 0.997192 0.987992
1.00508 0.996533 0.988719
1.00512 0.996442 0.988495
1.00027 1.00412 0.990006
1.00173 1.00473 0.986643
1.00392 1.00049 0.98659
1.00495 0.996879 0.98829
1.00115 1.00217 0.990487
1.00004 1.00195 0.992436
1.00003 1.00349 0.990993
1.00021 0.999484 0.994766
1.0001 1.00266 0.991849
1.00022 1.00082 0.993603
1.00015 1.00188 0.992523
1.00015 1.00064 0.993639
1.00516 0.996023 0.989076
1.00014 1.00053 0.993815
1.0002 1.00073 0.993574
1.0001 1.00152 0.992999
1.00511 0.995906 0.989177
1.00505 0.99606 0.988896
1.0008 1.0032 0.989928
1.0023 1.00362 0.986562
1.00473 0.997451 0.988113
1.00013 1.00179 0.992604
1.00004 1.00261 0.992058
1.00033 1.00201 0.991872
0.999761 1.00412 0.991072
0.999956 1.00339 0.99128
1.00511 0.995317 0.989834
1.00501 0.996418 0.989095
1.00508 0.996266 0.98861
1.00332 1.00065 0.987985
1.00057 1.00338 0.990221
1.00011 1.0014 0.992956
1.00009 1.00165 0.992749
1.00006 1.00214 0.992517
1.00002 1.00254 0.99207
0.999938 1.00319 0.991593
0.999771 1.0042 0.990822
0.999719 1.00456 0.990528
0.999988 1.00213 0.99256
0.999853 1.00384 0.990949
1.00512 0.995595 0.989424
1.00515 0.995669 0.989113
1.00499 0.997368 0.987811
1.00064 1.00449 0.988706
1.00287 1.00316 0.986451
0.99988 1.00313 0.991877
1.00506 0.995094 0.990614
1.00027 1.00429 0.990147
1.0011 1.00482 0.988035
1.00504 0.996226 0.988849
1.00359 1.00066 0.987101
0.999887 0.999427 0.991036
1.00003 1.00357 0.991185
1.00473 0.995678 0.991221
1.00021 1.00452 0.990029
1.00149 1.00402 0.987907
1.00408 0.997276 0.988514
1.00149 0.995172 0.960094
0.996057 0.999681 0.978437
0.99907 1.00033 0.993234
0.999515 0.997204 0.939974
0.995016 0.998156 0.932503
0.999904 1.0023 0.992584
0.999954 1.00252 0.992293
1.00001 1.00219 0.99255
1.00028 1.00041 0.993722
1.00025 1.00089 0.993254
1.00015 1.0013 0.993136
1.00011 1.00169 0.992875
1.00005 1.00211 0.992475
1.00022 1.00121 0.993049
1.00028 1.00048 0.993624
1.00034 1.00095 0.993106
1.00013 1.00187 0.992587
1.00019 1.00138 0.992961
1.00023 1.00129 0.992924
1.00017 1.00126 0.993054
1.00033 1.0012 0.992906
1.00039 1.00103 0.992891
1.00029 1.00049 0.993565
1.00034 1.00101 0.99308
1.00028 1.00126 0.992969
1.00016 1.00106 0.993305
1.00026 1.00102 0.993227
1.00027 1.00042 0.993743
1.00028 1.00048 0.993587
1.00025 0.9994 0.994783
1.00025 0.999407 0.994769
1.00015 0.997527 0.996801
1.00025 0.999383 0.994782
1.00016 0.997479 0.996816
1.00003 0.996292 0.999299
1.00016 0.997476 0.99685
1.00005 0.996287 0.998834
1.00006 0.996259 0.998392
1.00019 0.999266 0.995029
1.0002 0.999304 0.994964
1.00013 0.997423 0.99694
1.00022 0.999366 0.994875
1.0001 0.997494 0.997129
0.999974 0.996361 0.999316
1.00007 0.997665 0.996812
0.999914 0.996544 0.999291
0.999844 0.996737 0.99926
1.00513 0.996539 0.988555
1.00517 0.997234 0.987818
1.00513 0.995504 0.989534
1.00102 0.999063 0.988594
1.00515 0.995923 0.989144
1.00509 0.995182 0.990775
1.00508 0.995883 0.990126
0.997607 0.999892 0.975233
1.00248 0.996681 0.989704
1.00012 1.0005 0.993944
1.00013 1.00051 0.99392
1.00008 1.00135 0.993151
1.00009 1.00129 0.993214
1.00517 0.995934 0.989172
1.00511 0.995821 0.98917
1.00509 0.996155 0.988801
1.00089 1.00298 0.990002
1.00199 1.0035 0.986652
1.00475 0.997781 0.988104
1.00026 1.00244 0.991531
0.999792 1.00391 0.991236
0.999998 1.0034 0.99134
1.00019 1.00075 0.993571
1.00005 1.00257 0.992012
1.00013 1.00181 0.992662
1.00014 1.00053 0.993885
1.00009 1.00152 0.992904
1.00508 0.995386 0.989809
1.0001 1.00142 0.993061
1.0001 1.00166 0.992793
1.00005 1.00209 0.992518
1.00504 0.996036 0.989149
1.00507 0.996227 0.988588
1.00067 1.00325 0.990197
1.00335 1.0008 0.987928
1.00003 1.00259 0.992069
0.999906 1.00318 0.991648
0.99975 1.00455 0.990527
0.999864 1.00425 0.990765
1.00505 0.996027 0.989474
1.00505 0.995653 0.98947
1.00414 0.998733 0.988232
1.00072 1.0035 0.98996
1.0001 1.00214 0.99231
1 1.00234 0.992292
0.999864 1.00351 0.991383
0.999886 1.00504 0.989805
1.00072 0.995028 0.956284
0.999841 1.00304 0.992023
1.00002 1.00427 0.990208
1.00505 0.995053 0.990575
1.00506 0.99589 0.988954
1.0036 1.00061 0.987055
1.00078 1.0049 0.988121
0.999806 0.999538 0.989432
0.999902 1.00362 0.991304
1.00471 0.995481 0.99116
1.00008 1.00452 0.990084
1.00145 1.00402 0.987873
1.00429 0.99734 0.988538
1.00185 0.995435 0.956432
0.995815 0.999564 0.974616
0.999147 1.00026 0.993379
0.998477 0.997518 0.94115
0.99478 0.998142 0.927714
0.999719 1.00359 0.991855
0.999986 0.994961 0.942734
0.994892 0.999671 0.933996
1.00422 0.996071 0.991439
0.999737 1.00487 0.990346
1.00208 1.00145 0.988808
0.998221 1.00041 0.995415
0.999065 0.997634 0.96053
0.994851 0.999576 0.973987
0.997709 0.99962 0.942094
0.994627 0.999888 0.937471
0.999889 1.00257 0.992354
0.999965 1.00227 0.992526
0.99998 1.00127 0.993638
1.00027 1.00047 0.993678
1.00034 1.00093 0.993129
1.00021 1.00122 0.993019
1.00019 1.0014 0.992964
1.00012 1.0019 0.992602
1.00029 1.00049 0.993564
1.00024 1.00132 0.992903
1.00032 1.00121 0.992926
1.00039 1.00102 0.992961
1.00018 1.00124 0.993091
1.00032 1.00118 0.992896
1.00027 1.00048 0.993673
1.00042 1.00121 0.992732
1.00038 1.00101 0.993
1.00035 1.001 0.993074
1.00029 1.00124 0.992957
1.0004 1.00116 0.992802
1.00017 1.00134 0.993015
1.00025 1.00127 0.992967
0.999898 1.00206 0.992757
1.00008 1.00115 0.99335
1.00016 1.00107 0.993306
1.00025 1.00041 0.993796
1.00026 1.00103 0.993167
1.00027 1.00043 0.993702
1.00025 0.999376 0.994813
1.00028 1.0005 0.99358
1.00025 0.999392 0.994783
1.00011 0.99755 0.997295
1.00025 0.999405 0.994768
1.00014 0.997518 0.997044
1.00008 0.996318 0.998329
1.00016 0.997484 0.996815
1.00003 0.996298 0.999297
1.00008 0.996291 0.998361
1.00015 1.00048 0.993918
1.00019 0.999228 0.995064
1.00019 0.999259 0.99503
1.00014 0.997358 0.996982
1.0002 0.999298 0.994963
1.00014 0.99741 0.996939
1.00001 0.996271 0.999326
1.00009 0.997499 0.997355
0.999987 0.996404 0.998843
0.999956 0.996583 0.998339
1.00085 0.998191 0.988728
1.00516 0.99593 0.989184
1.0051 0.995386 0.990697
0.997039 0.999052 0.977062
1.00232 0.997081 0.98995
1.00507 0.995449 0.99014
1.00436 0.995727 0.990351
0.998407 0.996726 0.979745
1.00039 0.995666 0.959197
0.998291 0.997279 0.942947
0.994661 0.998236 0.931446
1.00006 1.00137 0.993099
1.00013 1.0005 0.993943
1.00014 1.0005 0.99392
1.00009 1.00137 0.993118
1.00002 1.00191 0.992697
1.00013 1.00172 0.992784
1.00012 1.00131 0.993181
1.00008 1.00133 0.993165
1.00507 0.995441 0.989784
1.00506 0.995644 0.9892
1.005 0.996241 0.988567
1.00076 1.00305 0.990176
1.00335 1.00086 0.987868
0.999779 1.00452 0.990529
0.999951 1.00431 0.990708
0.999879 1.00317 0.991703
1.0001 1.00165 0.992836
1.00004 1.00265 0.992067
1.00011 1.00144 0.993167
1.00004 1.00203 0.992519
1.00505 0.995901 0.989466
1.00008 1.00213 0.992407
1.00002 1.00235 0.99229
1.00499 0.995682 0.989346
1.00378 0.998368 0.988563
1.00087 1.00341 0.989752
0.999918 1.00351 0.99138
0.999974 1.00495 0.989817
1.00355 1.00018 0.989674
1.00458 0.996174 0.990332
1.00172 1.00033 0.989617
1.00035 1.00378 0.990213
1.00009 1.00213 0.992281
1.00001 1.00277 0.991892
0.999861 1.0042 0.990764
0.999974 0.994951 0.94061
1.00127 0.994954 0.962258
0.999796 1.00366 0.991423
0.999972 1.0045 0.990139
1.00468 0.995267 0.991104
1.00448 0.997432 0.988561
1.00142 1.00405 0.98784
1.00086 0.994956 0.957964
0.996112 0.999958 0.974908
0.999167 1.00007 0.993529
0.997993 0.997301 0.945127
0.994646 0.998136 0.922926
0.999697 1.00347 0.991862
1.00001 0.995154 0.941116
0.994858 0.999662 0.931638
1.00426 0.996224 0.991405
0.999654 1.00487 0.990441
1.00174 1.00142 0.989317
0.998569 0.999704 0.996185
0.999676 0.998002 0.957362
0.995331 0.999315 0.97673
0.997216 0.999707 0.942485
0.994801 0.999893 0.935433
0.999324 1.00329 0.992797
0.994816 0.999749 0.936408
0.99455 1.00352 0.950836
1.00136 0.998114 0.994306
0.999263 1.00423 0.992228
0.997021 1.00209 0.996648
0.995324 0.999807 0.980301
0.996367 1.00013 0.956472
0.995656 0.999923 0.945315
0.994472 0.999921 0.945182
0.999949 1.00231 0.992502
0.999976 1.00143 0.993462
0.999729 0.99987 0.995156
1.00029 1.00049 0.993563
1.00038 1.001 0.993031
1.0003 1.00121 0.992946
1.00025 1.00134 0.992883
1.00018 1.00121 0.993128
1.00038 1.00102 0.992997
1.00032 1.00123 0.992901
1.00042 1.00121 0.99273
1.00017 1.00045 0.993858
1.00002 0.99963 0.995058
1.00044 1.00076 0.993106
1.00047 1.00119 0.992669
1.00036 1.001 0.993069
1.00029 1.00122 0.992945
1.0004 1.00116 0.992801
1.00018 1.00134 0.993009
1.00025 1.00126 0.992975
1.00005 1.00155 0.993005
1.00034 1.00116 0.992852
1.00013 1.00134 0.993104
0.999993 1.00255 0.992116
0.999657 1.00455 0.990552
0.99977 1.00273 0.99215
0.999892 1.00212 0.992735
1.00002 1.00137 0.993263
1.00009 1.00117 0.993346
1.00021 1.00042 0.993857
1.00016 1.00109 0.993307
1.00025 1.00041 0.993798
1.00023 0.999371 0.994848
1.00028 1.00044 0.993661
1.00025 0.999367 0.994814
1.00008 0.99758 0.997318
1.00025 0.999385 0.994783
1.00012 0.99754 0.997059
1.00005 0.99632 0.99834
1.00016 0.997505 0.996803
1.00003 0.99632 0.999293
1.00003 0.996303 0.999295
1.00018 1.00053 0.993992
1.0002 0.99924 0.995038
1.00014 1.0005 0.993915
1.00015 0.997329 0.997006
1.00019 0.999231 0.995064
1.00019 0.999254 0.995031
1.00014 0.997359 0.99698
1.00003 0.996213 0.999336
1.00011 0.997403 0.997398
1.00003 0.996286 0.998861
1.00002 0.996407 0.99838
0.999956 0.995201 0.939243
0.995189 0.999177 0.934567
0.997845 0.998277 0.978154
1.00217 0.997514 0.990193
1.00506 0.995058 0.990154
0.997788 0.996855 0.982212
1.00434 0.996038 0.99039
1.00105 0.995227 0.959845
0.998733 0.996947 0.939967
0.994639 0.998193 0.926573
0.999242 0.997396 0.985813
0.998443 0.997965 0.961965
0.997657 0.999516 0.941185
0.994677 0.999921 0.935097
1.00012 1.00191 0.992546
1.00006 1.00136 0.993131
1.00013 1.00049 0.993941
1.00009 1.00136 0.993085
1.00003 1.00184 0.992762
1.00014 1.00182 0.992635
1.00014 1.00169 0.992754
1.00016 1.00142 0.992942
1.00012 1.00131 0.993127
1.00008 1.00135 0.993116
1.00504 0.995718 0.989461
1.00494 0.995735 0.989231
1.00342 0.997946 0.988896
1.00102 1.00337 0.989543
1.00007 1.00485 0.989831
0.999969 1.00352 0.991377
1.00004 1.00237 0.992288
1.00005 1.00211 0.992505
1.00359 0.999129 0.989809
1.0001 1.00217 0.992272
1.00001 1.00274 0.991895
1.00448 0.995962 0.990111
1.00159 1.00084 0.989842
1.00046 1.00391 0.989906
0.999958 1.00417 0.990659
1.00073 1.00147 0.992953
1.00155 0.998909 0.993066
0.999876 1.0037 0.990858
1.00009 1.0023 0.992218
1.00016 1.00221 0.992068
1.00011 1.00285 0.99162
0.994695 0.99946 0.944101
0.99997 0.995314 0.943
1.00077 0.994937 0.955975
0.999646 1.00341 0.99187
0.999575 1.00484 0.990539
1.00435 0.996332 0.991366
1.00135 1.00149 0.989827
0.999966 0.995255 0.943832
0.998683 0.997741 0.958268
0.994879 0.999096 0.974019
0.998998 0.998459 0.996891
0.997704 0.999621 0.938466
0.994823 0.999638 0.932089
0.99497 0.999902 0.936087
0.999235 1.00333 0.992818
0.994862 0.999828 0.938948
0.994727 1.00363 0.950342
1.00149 0.998096 0.994389
0.99885 1.00446 0.992219
0.996662 0.999784 0.999704
0.995309 0.999484 0.977138
0.996484 1.0001 0.96141
0.997622 0.999927 0.941698
0.994506 0.999931 0.946248
0.998392 1.00241 0.99553
0.994262 1.00268 0.958934
0.993924 1.00389 0.964083
0.996849 1.00191 0.998293
0.995308 1.00031 0.98658
0.995401 1 0.960931
0.995118 0.999989 0.943505
0.994633 0.999841 0.944232
0.999959 1.00161 0.993288
0.999799 0.999852 0.995207
0.999356 0.99924 0.996485
1.00038 1.00102 0.992995
1.00043 1.00122 0.992728
1.00032 1.00127 0.992905
1.00008 1.00042 0.994043
1.00045 1.0012 0.992671
1.00043 1.00082 0.993066
1.00002 0.999385 0.995241
0.999328 0.999069 0.996756
1.00028 0.999859 0.994365
1.00043 1.00105 0.9928
1.0004 1.00116 0.9928
1.00018 1.00133 0.993003
1.00025 1.00125 0.992983
1.00033 1.00118 0.992865
1.00004 1.00159 0.992991
1.00014 1.00132 0.9931
1.00006 1.00169 0.992892
1.00005 1.0012 0.993362
0.999991 1.00235 0.992242
1.00002 1.00249 0.992191
0.999712 1.00394 0.991148
1.00032 1.00484 0.989316
0.999843 1.00368 0.991464
0.999632 1.00452 0.990687
0.999792 1.00275 0.992271
0.99994 1.0018 0.992825
0.999886 1.00219 0.992713
1.00002 1.00139 0.993253
1.00017 1.00048 0.993862
1.00009 1.00118 0.993342
1.00021 1.00042 0.993856
1.00019 0.999416 0.994872
1.00026 1.00041 0.9938
1.00023 0.999363 0.99485
1.00003 0.997635 0.997341
1.00025 0.999359 0.994815
1.00009 0.997574 0.997086
1.00001 0.996386 0.998358
1.00014 0.997522 0.99682
1.00003 0.996337 0.998815
1.00002 0.996328 0.999294
1.0002 1.0006 0.993743
1.0002 0.999296 0.994976
1.00016 1.00054 0.993868
1.00014 0.997355 0.996993
1.00019 0.999243 0.99504
1.00013 1.00051 0.993913
1.00003 0.996197 0.99934
1.00015 0.997329 0.997006
1.00019 0.999229 0.995064
1.00015 0.99736 0.996978
1.00002 0.996221 0.999333
1.00001 0.996286 0.999322
0.994787 0.999103 0.94136
0.999938 0.995213 0.940965
0.994894 1.00381 0.95001
0.995106 0.99949 0.932918
0.998584 0.996986 0.978209
1.0043 0.996563 0.990416
1.00085 0.995068 0.960468
0.999543 0.997778 0.943872
0.994636 0.998122 0.921695
0.99886 0.997599 0.984328
0.999564 0.997257 0.955904
0.997458 0.999514 0.941786
0.994656 0.999886 0.93247
0.995448 1.00029 0.982086
0.997949 1.00009 0.956067
0.995527 0.999853 0.940281
0.994557 0.999852 0.940748
1.00014 1.00216 0.992297
1.0001 1.0019 0.992601
1.00006 1.0014 0.993162
1.00004 1.00179 0.992826
1.0002 1.00192 0.992344
1.00014 1.0018 0.992669
1.00014 1.00168 0.992725
1.00023 1.00137 0.992942
1.00018 1.0014 0.993002
1.00013 1.00131 0.993074
1.00346 0.998093 0.989957
1.00441 0.995793 0.989893
1.00149 1.00136 0.990065
1.00059 1.00398 0.989603
1.00003 1.00414 0.990553
1.00003 1.00269 0.991897
1.00012 1.00219 0.992264
1.0001 1.00229 0.992205
1.00071 1.00064 0.993211
1.00015 1.00229 0.992093
1.00012 1.00293 0.991539
1.0016 0.999067 0.992706
1.00021 1.00348 0.990782
0.998983 0.999605 0.995654
0.999323 0.999696 0.996952
1.00009 1.00204 0.992069
1.00024 1.00208 0.992147
1.00024 1.00242 0.991787
0.993912 1.002 0.964006
0.994722 0.999917 0.943586
0.999929 0.99583 0.939651
0.999158 1.00342 0.992833
0.998514 1.00462 0.992196
1.00156 0.998141 0.99448
0.994878 0.999699 0.940647
0.997444 1.00009 0.956687
0.994874 0.999197 0.978385
0.996466 0.998702 1.00295
0.995813 0.999932 0.94481
0.994931 1.00376 0.949859
0.994493 0.999924 0.946483
0.998363 1.00226 0.99564
0.994317 1.00223 0.961119
0.993937 1.00399 0.963902
0.996911 1.00247 0.998358
0.995127 1.00021 0.986864
0.996357 1 0.956121
0.994553 0.999833 0.946119
0.995026 0.999969 0.94569
0.997104 1.00235 0.997974
0.993305 1.00325 0.980124
0.993978 1.00355 0.96628
0.994587 0.999842 0.940831
0.995013 1.00146 0.996058
0.996158 0.999043 0.962716
0.994712 1.00004 0.946496
0.999917 0.999807 0.995254
0.999436 0.999394 0.99626
0.998729 0.999153 0.997877
1.00045 1.00121 0.992674
1.00041 1.00088 0.993026
1.00002 0.999116 0.995427
1.00042 1.00109 0.992793
1.00027 0.999797 0.994364
0.999557 0.998977 0.996483
0.99909 0.998855 0.997412
1.00016 1.00072 0.993668
1.00032 1.0012 0.992878
1.00003 1.00163 0.992977
1.00016 1.0013 0.993097
1.00008 1.0012 0.993327
1.00007 1.00162 0.992938
0.999539 1.00226 0.993221
0.999778 1.00252 0.992478
1 1.00392 0.990597
1.00005 1.00241 0.992266
0.999902 1.00389 0.991063
1.00029 1.00487 0.988962
1.00031 1.00493 0.989075
0.999935 1.00406 0.990769
1.00024 1.00476 0.989389
0.999955 1.00255 0.992235
0.999832 1.00373 0.99134
0.999604 1.00452 0.990822
0.999814 1.00277 0.992393
0.999956 1.00176 0.99292
1.00013 1.00068 0.99373
1.00003 1.0014 0.993243
1.00017 1.0005 0.993856
1.00014 0.9995 0.994877
1.00022 1.00042 0.993855
1.0002 0.999402 0.994875
0.999963 0.997732 0.997356
1.00024 0.99935 0.994851
1.00004 0.997636 0.99711
0.999943 0.996482 0.998373
1.0001 0.997556 0.996848
0.999986 0.996397 0.998827
0.999994 0.996368 0.999299
1.00025 1.00069 0.993417
1.0002 0.999411 0.994695
1.00021 1.00061 0.993742
1.00012 0.997436 0.996944
1.0002 0.999306 0.994887
1.00015 1.00054 0.993744
1.00002 0.996234 0.999335
1.00014 0.997353 0.996995
1.00019 0.999245 0.995042
1.00003 0.996198 0.999339
1.00015 0.99733 0.997006
1.00002 0.996231 0.999331
0.993981 1.00228 0.962439
0.994801 0.998949 0.941972
0.999908 0.995015 0.94164
1.00028 1.00129 0.992869
0.993868 1.00376 0.965659
0.994904 1.00384 0.949561
0.995086 0.999722 0.934155
0.998942 0.998085 0.982773
0.998785 0.99871 0.961955
0.997724 0.999537 0.93776
0.994649 0.999893 0.932872
0.995582 0.999912 0.977885
0.99678 0.99999 0.960813
0.997581 0.999932 0.942647
0.994592 0.999884 0.940402
0.995254 0.999957 0.973961
0.995196 1.00036 0.959219
0.994762 0.99996 0.946063
0.99459 0.999795 0.944302
1.00022 1.00213 0.992159
1.00013 1.00217 0.992277
1.0001 1.00189 0.992656
1.00023 1.00178 0.992471
1.0002 1.00191 0.99242
1.00014 1.00178 0.992702
1.00024 1.00139 0.992944
1.00019 1.0014 0.993061
1.00081 0.999857 0.993444
1.00163 0.999237 0.992336
1.00011 1.00228 0.992192
1.00054 1.0034 0.990704
1.00014 1.00298 0.991457
1.00014 1.00236 0.992118
1.00023 1.00212 0.992171
0.998998 0.999709 0.99603
1.0002 1.00235 0.991951
1.00031 1.00196 0.992108
0.999384 0.998976 0.996921
1.00026 1.00192 0.992358
0.997586 0.999741 0.997024
0.99798 1.0006 0.998721
1.0002 1.00135 0.992655
1.00022 1.00162 0.992656
0.993138 1.00331 0.983075
0.99382 1.00246 0.964589
0.994767 1.0003 0.943094
0.998276 1.00213 0.995768
0.996908 1.0026 0.998392
0.994348 1.0019 0.963284
0.995447 1.00003 0.962027
0.994869 0.999327 0.982936
0.995334 0.999964 0.945225
0.993919 1.0041 0.963734
0.994487 0.999817 0.948002
0.997283 1.00233 0.997672
0.993208 1.0033 0.980151
0.993862 1.00363 0.969848
0.995256 1.00297 0.998805
0.994613 0.999852 0.94042
0.995393 0.999074 0.95987
0.994967 0.999971 0.946969
0.996775 1.00222 0.998857
0.993324 1.00282 0.984723
0.993947 1.00376 0.96566
0.9947 0.99985 0.935238
0.995333 0.999941 0.945251
0.995746 0.998756 0.992571
0.996347 1.00011 0.95454
0.999462 0.999532 0.996032
0.998643 0.999682 0.997616
0.997239 0.998834 1.00155
1.0004 1.00114 0.992785
1.00026 0.999728 0.994362
0.999756 0.99893 0.996208
1.00014 1.0008 0.993619
0.999189 0.99847 0.997491
0.998623 1.00222 0.994716
1.00012 1.00119 0.993292
1.00008 1.00156 0.992984
0.999718 1.00231 0.993087
0.999288 1.00441 0.991393
0.999547 1.00268 0.992711
0.999818 1.00382 0.990897
1.00047 1.00499 0.988826
1.00142 1.00472 0.987307
1.00009 1.00383 0.990975
1.00043 1.00487 0.988821
1.0006 1.00462 0.989232
0.99982 1.00462 0.990116
1.00034 1.00478 0.98922
0.999933 1.00315 0.991684
0.999974 1.00406 0.990756
1.00016 1.00468 0.989463
1.00009 1.00114 0.993357
0.99994 1.00252 0.992212
0.999822 1.00378 0.991215
0.99997 1.00172 0.993014
1.00013 1.0007 0.993716
1.00008 0.999642 0.994844
1.00017 1.00052 0.993851
1.00015 0.999492 0.994877
0.999909 0.997879 0.996886
1.0002 0.999387 0.994878
0.999987 0.997734 0.996893
0.999818 0.996603 0.999316
1.00006 0.997619 0.996876
0.999928 0.996488 0.998837
0.99995 0.996434 0.999304
1.0003 1.00067 0.993361
1.00021 0.999549 0.994524
1.00026 1.00068 0.993493
1.0001 0.997564 0.996865
1.0002 0.999421 0.994674
1.00022 1.00061 0.99374
0.999991 0.996318 0.999321
1.00012 0.997432 0.996947
1.00019 0.999317 0.994798
1.00002 0.996223 0.999337
1.00014 0.997352 0.996997
1.00003 0.996195 0.999339
0.993095 1.00289 0.980391
0.993996 1.00274 0.962246
0.994821 0.999127 0.941966
1.00026 1.00131 0.992897
1.00025 1.00129 0.99289
1.00022 1.00166 0.992656
0.993924 1.00336 0.966467
0.993924 1.00368 0.965498
0.994912 1.0041 0.949109
0.995117 1.00045 0.980576
0.997036 1.00021 0.955515
0.995067 0.999941 0.945574
0.994596 0.999915 0.939178
0.995714 0.999878 0.976702
0.99647 1.00006 0.958532
0.995303 1 0.946986
0.994525 0.9998 0.946183
0.995051 0.999932 0.97341
0.995788 1.00005 0.960539
0.99467 1.00005 0.946809
0.99445 0.999901 0.945004
1.00028 1.00188 0.992285
1.00022 1.00213 0.992135
1.00012 1.00218 0.992257
1.00024 1.00178 0.992461
1.0002 1.00191 0.992495
1.00025 1.0014 0.992947
0.99904 0.999795 0.996398
0.999258 0.998403 0.996896
1.00021 1.00219 0.992196
1.00054 1.00172 0.992148
1.00016 1.00235 0.992115
1.00031 1.00186 0.992272
1.00019 1.00164 0.992766
0.997605 0.999837 0.997314
1.00015 1.00135 0.993068
0.997881 1.00018 0.99907
1.00018 1.00154 0.992908
0.995953 0.999256 0.998463
0.997726 1.00131 0.998978
0.999934 1.00053 0.994427
0.993366 1.00344 0.988792
0.992961 1.00327 0.984543
0.993742 1.00294 0.965148
0.997568 1.00235 0.997356
0.996031 1.00255 0.996848
0.993139 1.00331 0.980175
0.995443 0.999122 0.96551
0.994723 1.00003 0.945158
0.993774 1.00371 0.973417
0.994623 0.999877 0.939373
0.996565 1.00265 0.999033
0.993261 1.00278 0.985982
0.993997 1.00368 0.965488
0.995178 0.999304 0.987884
0.994688 0.999809 0.932814
0.995505 0.999932 0.945988
0.995552 1.00013 0.960569
0.995578 1.00132 1.00152
0.993078 1.00276 0.980612
0.994838 1.00379 0.950351
0.99468 0.998194 0.931972
0.995575 0.999791 0.939855
0.995656 1.00002 0.96026
0.995771 0.998819 0.983634
0.998519 1.00035 0.997401
0.997314 0.99855 1.00141
0.997417 1.00059 0.999242
1.00012 1.0009 0.99357
0.999303 0.998083 0.997572
0.998477 1.00233 0.995027
0.998805 1.00368 0.993303
0.999903 1.00238 0.992953
0.999763 1.00432 0.991065
1.00052 1.00504 0.988639
0.999627 1.00372 0.9912
1.00053 1.00494 0.988751
1.00188 1.00496 0.986615
1.00274 1.00407 0.985715
1.001 1.00444 0.9881
1.00141 1.00483 0.987222
1.00057 1.00489 0.988679
1.00044 1.00432 0.989812
1.00043 1.00446 0.989514
0.999869 1.00403 0.99078
0.999902 1.00456 0.990236
1.00037 1.00462 0.989366
1.00004 1.00187 0.992707
0.999967 1.00308 0.991691
1.00001 1.00406 0.990743
1.00001 0.999915 0.994687
1.00009 1.00115 0.993343
0.999927 1.00249 0.992189
1.00014 1.00073 0.993703
1.00008 0.999643 0.994841
0.999821 0.998069 0.996856
1.00015 0.999485 0.994878
0.999913 0.99788 0.996885
0.999753 0.996769 0.999307
0.999994 0.997726 0.996891
0.999847 0.996626 0.998844
0.99989 0.996529 0.999308
1.00032 1.00067 0.993404
1.00023 0.999642 0.994556
1.0003 1.00068 0.993393
1.00006 0.99772 0.996776
1.00022 0.999553 0.994592
1.00027 1.00068 0.993568
0.999951 0.996443 0.999301
1.00009 0.997557 0.99687
1.00021 0.99943 0.994653
0.999995 0.9963 0.999326
1.00012 0.997429 0.996951
1.00002 0.996214 0.999339
0.993337 1.0026 0.984818
0.9932 1.0026 0.980427
0.994016 1.00288 0.962127
1.00021 1.00138 0.992849
1.00008 1.00202 0.992562
1.00025 1.00133 0.992926
1.00025 1.00129 0.992892
1.00021 1.00166 0.99263
1.00016 1.00168 0.992728
1.0002 1.00179 0.992543
0.993943 1.00359 0.964121
0.993791 1.00347 0.970054
0.993978 1.00348 0.965343
0.994473 0.999802 0.948066
0.994891 1.00007 0.974326
0.995344 1.00007 0.958665
0.994741 1 0.947723
0.995643 0.999977 0.972805
0.995452 1.00006 0.956647
0.994814 0.999979 0.948191
0.994505 0.999892 0.946147
0.995973 0.99788 0.977248
0.995139 1.00006 0.956172
0.995344 0.999956 0.944117
0.994629 0.999865 0.936886
1.00011 1.00169 0.992829
1.00027 1.00184 0.992301
1.00022 1.00213 0.992111
1.00025 1.00178 0.992451
0.997707 1.00011 0.997584
0.99784 0.999715 0.999402
1.00034 1.0018 0.992187
1.00016 1.00161 0.992876
1.00003 1.00139 0.993481
1.00016 1.00156 0.992839
0.999788 1.00057 0.99439
0.99581 1.00005 0.996458
0.997301 1.00163 0.999165
0.999602 1.00127 0.993993
0.995734 0.999339 0.996209
0.998097 1.00155 0.998277
0.993089 1.0031 0.983482
0.993245 1.00306 0.990076
0.992816 1.00327 0.986012
0.996461 1.00285 0.999159
0.995529 0.998649 0.993388
0.993214 1.00274 0.987246
0.996553 1.0001 0.955142
0.994933 0.999959 0.946727
0.994046 1.00351 0.965316
0.994673 0.999841 0.933079
0.995662 1.00078 1.00173
0.993175 1.00259 0.980636
0.994884 1.00376 0.949889
0.994925 0.998758 0.987415
0.994659 0.998169 0.927162
0.997733 0.999896 0.941978
0.995431 1.00005 0.956971
0.995906 1.00124 0.998895
0.994008 1.00212 0.962815
0.995096 0.999233 0.935134
0.997699 0.9994 0.941588
0.995299 1.0003 0.960817
0.994865 0.999304 0.977775
0.997505 0.998113 1.00119
0.997248 1.00122 0.9992
0.999424 0.99867 0.998085
0.99831 1.00243 0.995337
0.998308 1.00372 0.993611
1.00112 1.00245 0.990017
1.00025 1.00421 0.990735
1.00075 1.00503 0.988478
1.00219 1.0032 0.987013
1.0006 1.00488 0.988678
1.0019 1.00494 0.986479
1.00337 1.00249 0.985704
1.00402 1.00133 0.985865
1.00237 1.00464 0.986076
1.00279 1.00402 0.985519
1.00085 1.00394 0.988909
1.00099 1.00445 0.988294
1.00141 1.00495 0.987137
1.00039 1.00414 0.989915
1.00038 1.00433 0.989785
1.00025 1.00432 0.989796
1.00007 1.00265 0.991844
0.999897 1.00388 0.990937
0.999993 1.0045 0.990357
0.999958 1.00045 0.994252
1.00006 1.00184 0.992707
1 1.00302 0.991697
0.999739 0.998285 0.9968
1.00001 0.999937 0.994676
1.0001 1.00117 0.993329
1.00009 0.999642 0.994839
0.999827 0.998072 0.996854
0.999657 0.996962 0.999298
0.999917 0.997883 0.996884
0.99974 0.996802 0.999304
0.999816 0.996662 0.999308
1.0002 1.0015 0.992812
1.00033 1.00071 0.993355
1.00023 0.999737 0.994468
1.00032 1.00068 0.9934
1.00001 0.997888 0.99669
1.00023 0.999663 0.994553
1.00029 1.0007 0.993426
0.9999 0.996595 0.99928
1.00006 0.997713 0.996781
1.00022 0.999558 0.99466
0.999957 0.996418 0.999307
1.00009 0.997552 0.996875
1 0.99628 0.99933
0.993281 1.00278 0.980534
0.993256 1.00259 0.986064
0.993296 1.00245 0.980462
1.00023 1.00136 0.992875
1.00007 1.00202 0.99252
1.00004 1.00234 0.992207
1.00007 1.00189 0.992579
1.00003 1.00243 0.992271
1.00024 1.00129 0.992894
1.0002 1.00166 0.992605
1.00014 1.00169 0.992727
1.00021 1.00179 0.992524
1.00006 1.00193 0.992728
0.994596 1.00351 0.950378
0.993935 1.0037 0.963967
0.993678 1.00358 0.973636
0.99452 0.999888 0.946384
0.994664 1.00003 0.945743
0.994935 0.999971 0.971556
0.994972 1.00004 0.959925
0.995672 0.998026 0.973367
0.995825 1.00006 0.96006
0.994818 0.999947 0.946625
0.994824 0.999856 0.934749
0.996188 0.995546 0.977886
0.995382 1.00011 0.960835
0.995977 0.9999 0.945002
0.995064 0.998151 0.931449
0.99951 1.00121 0.994269
1.00008 1.00176 0.992832
1.00028 1.00181 0.992318
0.995677 1.00066 0.994472
0.997145 1.00181 0.999354
1.00017 1.00157 0.992768
0.999717 1.0007 0.994352
0.999598 1.00132 0.994001
0.998019 1.00105 0.998134
0.995375 0.999358 0.996389
0.998266 1.00121 0.996737
0.995877 1.00136 0.995268
0.99402 1.00222 0.963452
0.992926 1.00303 0.984957
0.992992 1.00269 0.99136
0.995561 1.0004 1.002
0.995253 0.998523 0.98135
0.993263 1.00252 0.980658
0.996469 1.00003 0.95716
0.995217 0.999933 0.94468
0.994889 1.00399 0.949438
0.994658 0.998079 0.922346
0.995958 1.0009 0.999126
0.994028 1.00259 0.962614
0.995044 0.999465 0.933494
0.994937 0.999201 0.979358
0.997433 0.999552 0.942081
0.996233 1.00002 0.957616
0.997483 0.999141 0.995105
0.99482 0.99914 0.941892
0.997973 0.997187 0.943231
0.997918 1.00019 0.95618
0.994851 0.999446 0.97919
0.997164 1.0017 0.999149
0.999241 0.998681 0.998135
1.00229 0.998471 0.99297
0.997851 1.00371 0.993908
1.00059 1.00272 0.990446
1.00303 0.999396 0.988735
1.00098 1.00499 0.988316
1.00222 1.00326 0.987078
1.00406 0.999721 0.987258
1.0019 1.00499 0.986344
1.00338 1.00253 0.985746
1.00479 0.998859 0.986641
1.00484 0.99884 0.986766
1.00326 1.0032 0.98545
1.00395 1.00131 0.98591
1.0019 1.00409 0.987245
1.00223 1.00466 0.98592
1.00282 1.00398 0.985323
1.00089 1.00349 0.989539
1.00081 1.00386 0.989116
1.00098 1.00444 0.988488
1.00036 1.00303 0.990971
1.00033 1.00408 0.990012
1.00032 1.00435 0.989758
0.999962 1.00122 0.993472
1.00011 1.00261 0.991845
0.99992 1.00373 0.991093
0.999635 0.998632 0.997097
0.999952 1.00047 0.994236
1.00008 1.00181 0.992708
0.999575 0.99722 0.99831
0.999738 0.998319 0.997015
1.00001 0.999956 0.994666
0.999834 0.998076 0.996852
0.999645 0.997005 0.999294
0.999728 0.996837 0.999302
1.00016 1.00183 0.992504
1.0003 1.00089 0.99323
1.00019 1.00155 0.992778
1.00019 0.99985 0.99442
1.00032 1.00074 0.993357
0.999956 0.998055 0.996623
1.00022 0.999761 0.994465
1.00033 1.00069 0.993397
0.999839 0.996763 0.999258
1.00001 0.997888 0.996695
1.00022 0.999687 0.994549
0.999906 0.996566 0.999286
1.00006 0.997708 0.996787
0.999962 0.996392 0.999314
0.994343 1.00191 0.964167
0.993193 1.00281 0.980569
0.99319 1.0026 0.987315
1.00001 1.00263 0.992057
1.00023 1.00138 0.992902
1.00007 1.00204 0.992477
1.00009 1.00191 0.992611
1.00008 1.0023 0.992252
1.00003 1.00242 0.992228
1.00003 1.00272 0.99193
0.999943 1.00241 0.99225
1.00014 1.0017 0.992726
1.0002 1.00179 0.992505
1.00002 1.00197 0.99269
0.999808 1.00237 0.993054
0.994934 0.999727 0.933402
0.9948 1.00364 0.94987
0.993907 1.0038 0.963818
0.995026 0.999863 0.935594
0.995352 0.999931 0.946611
0.995151 1.00008 0.956279
0.996014 0.998124 0.972151
0.996416 0.995291 0.979847
0.994807 0.998139 0.926753
0.995363 1.00009 0.957504
0.997255 0.999936 0.941553
0.995636 0.997737 0.980672
0.995981 1.00006 0.962244
0.997753 0.999498 0.940528
0.999227 1.00049 0.995537
0.999665 1.00115 0.994248
1.00003 1.00185 0.992835
0.995001 0.999203 0.996498
0.997963 1.0003 0.997993
0.999586 1.00132 0.994007
0.99883 1.00102 0.996572
0.995729 1.0013 0.995472
0.997816 1.00082 0.994968
0.994743 0.999868 0.938624
0.993889 1.00209 0.967328
0.992796 1.00295 0.986435
0.995936 1.00099 0.999412
0.994846 0.999223 0.980427
0.994048 1.00278 0.96247
0.995364 1.00007 0.958124
0.997697 0.999446 0.938258
0.995096 0.999552 0.934742
0.997441 0.999329 0.995185
0.994824 0.998872 0.942484
0.998592 0.99697 0.940443
0.99507 0.999476 0.975126
0.996664 1.00012 0.960813
0.99872 0.998971 0.995428
0.999967 0.995141 0.939693
0.998224 0.99916 0.960673
0.995198 0.999725 0.973904
0.998995 0.998773 0.998216
1.00176 0.998158 0.993717
1.00376 0.997112 0.990932
1.00006 1.00303 0.990876
1.003 0.999823 0.988658
1.00457 0.996795 0.988952
1.00224 1.00339 0.987144
1.0039 0.999888 0.987281
1.00498 0.997404 0.987992
1.0034 1.0025 0.985788
1.00481 0.998939 0.986616
1.00508 0.997379 0.987663
1.00499 0.997927 0.987337
1.00434 1.00055 0.986212
1.00484 0.998885 0.986737
1.00272 1.00305 0.986305
1.00323 1.00307 0.985615
1.00389 1.00128 0.985954
1.00144 1.00336 0.988659
1.00173 1.00412 0.987281
1.00208 1.00469 0.985763
1.0008 1.00286 0.990357
1.00094 1.00348 0.989517
1.00078 1.00379 0.989323
1.00009 1.00193 0.992545
1.00039 1.00301 0.990978
1.00028 1.00401 0.990109
0.999596 0.999057 0.996246
0.999982 1.00119 0.993455
1.00016 1.00258 0.991845
0.999432 0.997493 0.999258
0.999648 0.998683 0.996577
0.999949 1.00049 0.99422
0.999551 0.997215 0.999278
0.999747 0.998332 0.996767
0.999633 0.997046 0.999289
1.00013 1.00218 0.9923
1.00018 1.00183 0.992498
1.00026 1.00119 0.99299
1.00013 1.00001 0.994374
1.00029 1.00089 0.993235
1.00018 1.00155 0.992745
0.999893 0.99821 0.996589
1.00019 0.999854 0.994421
1.00031 1.00073 0.993358
0.99977 0.996934 0.999241
0.999952 0.998055 0.996626
1.00022 0.999778 0.994462
0.999845 0.996737 0.999265
1 0.997886 0.996699
0.999912 0.996537 0.999293
0.994763 0.999752 0.936564
0.994311 1.00193 0.963992
0.993124 1.00283 0.9806
0.999979 1.00271 0.992009
1.00008 1.0031 0.991569
0.999936 1.00305 0.99176
1.00011 1.00192 0.992643
1.0001 1.00224 0.992297
0.999991 1.00242 0.992186
0.999983 1.00242 0.99222
0.999999 1.00275 0.991892
0.999849 1.00347 0.991585
1.0001 1.00158 0.992851
1.00004 1.00196 0.992651
0.999772 1.00219 0.993034
0.999385 0.997219 0.939
0.994853 0.999764 0.930955
0.994986 1.00375 0.949393
0.994636 0.998084 0.922052
0.995829 0.999772 0.944452
0.996147 1.00002 0.959457
0.995992 0.995255 0.977355
0.995332 0.997804 0.978754
0.997334 0.999159 0.941526
0.996103 1.00005 0.957972
0.995972 0.997657 0.980123
0.997602 1.00038 0.955646
1.0013 0.999896 0.992991
0.999407 1.00036 0.995375
0.999777 1.00107 0.994233
0.995475 1.00147 0.995654
0.999193 1.00092 0.996402
0.998243 1.00117 0.994353
1.00112 0.999808 0.989826
0.999995 0.994892 0.940975
0.994767 1.0002 0.940885
0.993775 1.002 0.971163
0.997427 0.999318 0.995323
0.994854 0.999451 0.975381
0.994844 0.998949 0.942494
0.996574 1.00021 0.955628
0.999691 0.998632 0.944162
0.998649 0.999215 0.99406
0.999979 0.995287 0.941271
0.999647 0.998112 0.95529
0.995365 0.999399 0.976482
0.999469 0.997903 0.995106
1.00047 0.996707 0.958264
0.995956 1.00102 0.97907
1.00119 0.997791 0.994459
1.00363 0.996791 0.990898
1.00502 0.995123 0.990083
1.00297 1.0002 0.98858
1.00448 0.996763 0.988957
1.00488 0.995748 0.989532
1.00374 0.999973 0.987306
1.00489 0.997359 0.987941
1.00515 0.996229 0.98866
1.00482 0.999012 0.986593
1.00509 0.997366 0.987674
1.00511 0.996927 0.988075
1.00501 0.997649 0.987675
1.00503 0.997813 0.987399
1.00471 0.99879 0.987147
1.00384 1.00117 0.986459
1.00435 1.00051 0.9862
1.00483 0.998915 0.986708
1.0023 1.00276 0.987413
1.00273 1.00309 0.986458
1.00321 1.00292 0.985779
1.00119 1.00274 0.989714
1.00147 1.00336 0.98863
1.00157 1.00416 0.987317
1.00033 1.00217 0.991848
1.00084 1.00284 0.990357
1.00099 1.00346 0.989496
0.999605 0.999601 0.995657
1.00013 1.00185 0.992542
1.00044 1.00297 0.990985
0.999406 0.99777 0.999182
0.999595 0.999125 0.996212
1 1.00117 0.993438
0.999463 0.997529 0.998743
0.999658 0.9987 0.996564
0.999539 0.997293 0.999265
1.00016 1.0026 0.991808
1.00009 1.00225 0.992269
1.00017 1.00167 0.992683
1.0002 1.00183 0.992493
1.00025 1.0012 0.992992
1.00005 1.00028 0.994237
0.999821 0.998373 0.996567
1.00013 1 0.994379
1.00026 1.00092 0.99324
0.999691 0.997097 0.999231
0.999889 0.998207 0.99659
1.00019 0.999859 0.994421
0.999777 0.996911 0.999246
0.999948 0.998057 0.996628
0.999851 0.996705 0.999271
0.999928 0.99515 0.942572
0.994828 1.00015 0.936279
0.994286 1.00196 0.963808
0.999945 1.00279 0.991962
0.999923 1.00317 0.991638
0.999998 1.00307 0.991666
1.00036 1.00331 0.990859
0.999873 1.00366 0.991294
1.00001 1.00244 0.992191
0.999988 1.00277 0.991854
0.999807 1.00333 0.991619
0.999739 1.00392 0.990763
1.00023 1.00242 0.991801
1.00272 1.00059 0.989183
0.999865 1.00181 0.99304
0.999794 1.00199 0.993016
1.0002 0.997833 0.95736
0.998702 0.997315 0.940342
0.994811 0.99971 0.931485
0.997805 0.999638 0.937415
0.995774 1.00053 0.95846
0.9956 0.997918 0.981465
0.995717 0.997759 0.982126
0.997014 0.999681 0.96145
0.997765 1.00008 0.977582
1.00369 0.998089 0.989858
1.00094 0.999718 0.993001
0.999579 1.00026 0.995209
0.998484 1.00141 0.993778
1.00189 1.00074 0.988536
1.00066 0.995564 0.955898
0.999959 0.995271 0.943242
0.994794 1.00046 0.943187
0.99853 0.999495 0.99267
0.994883 0.99952 0.974029
0.999937 0.994931 0.941851
0.99878 0.99986 0.960904
0.999351 0.998758 0.99532
1.00163 0.995532 0.95864
0.99582 1.00041 0.975664
1.00093 1.00128 0.992106
1.00017 0.997506 0.983114
1.00351 0.996478 0.990869
1.00499 0.995043 0.989841
1.00504 0.995004 0.990038
1.00438 0.996766 0.98896
1.00477 0.995805 0.98953
1.00513 0.994998 0.989794
1.0048 0.997335 0.987889
1.00516 0.996154 0.988652
1.00512 0.996043 0.988932
1.00508 0.997366 0.987685
1.00512 0.996954 0.98805
1.00508 0.997118 0.988048
1.00501 0.99756 0.987702
1.0049 0.998166 0.987426
1.00505 0.997709 0.987461
1.00474 0.998723 0.987147
1.00436 0.999685 0.986979
1.0033 1.00144 0.986949
1.00382 1.00122 0.986421
1.00436 1.00049 0.986188
1.00181 1.00247 0.988848
1.00226 1.00281 0.987525
1.00273 1.00314 0.986613
1.00059 1.00215 0.991323
1.00124 1.00273 0.989693
1.0015 1.00336 0.988602
0.999688 1.00014 0.994955
1.00036 1.00213 0.991856
1.00086 1.00283 0.990357
0.999409 0.998089 0.999064
0.999604 0.999669 0.995629
1.00017 1.00178 0.992541
0.999425 0.997828 0.999149
0.999591 0.999195 0.996178
0.99947 0.997582 0.999212
1.00048 1.00287 0.990982
1.00016 1.00256 0.991806
1.00018 1.00215 0.992128
1.00007 1.00228 0.992238
1.00015 1.00174 0.992612
0.999997 1.00075 0.99385
1.00024 1.00121 0.992994
1.00006 1.00026 0.994245
0.999737 0.998592 0.996507
0.999604 0.997275 0.999222
0.999815 0.998371 0.996569
1.00013 0.999999 0.994384
0.999701 0.997078 0.999234
0.999886 0.998206 0.996592
0.999784 0.996887 0.999251
1.00172 0.995369 0.959715
0.999957 0.995161 0.941277
0.994869 1.00058 0.935172
0.999907 1.0033 0.991516
0.999921 1.00303 0.991764
0.999886 1.00366 0.99134
1.00031 1.00328 0.990902
1.00061 1.00379 0.98986
0.999919 1.00377 0.990872
0.999765 1.0032 0.991654
0.999994 1.00402 0.990449
1.00015 1.00271 0.991596
1.00083 1.00278 0.989761
1.00298 1.00077 0.989371
1.00402 0.999224 0.987428
1.00243 1.00059 0.989457
0.999596 1.00215 0.993227
0.997117 1.00016 0.976378
1.00015 0.997757 0.957298
0.998505 0.997495 0.944133
0.998741 1.00033 0.955668
0.995679 0.997931 0.983642
0.998282 0.999377 0.981906
1.00209 0.998519 0.990997
1.0036 0.998047 0.99025
1.00085 0.999496 0.993006
1.00319 1.00183 0.987208
0.998881 0.997171 0.978352
1.00129 0.995154 0.96169
0.999963 0.995738 0.940006
0.999293 0.999464 0.99549
0.995566 1.00074 0.978036
1.00115 0.995082 0.959135
1.00086 1.00058 0.992238
0.999393 0.997785 0.981848
1.00358 1.00113 0.989214
1.00451 0.995851 0.989788
1.00497 0.994976 0.989595
1.00502 0.994993 0.989978
1.00508 0.995049 0.990034
1.00468 0.995867 0.989531
1.00512 0.995112 0.989757
1.00512 0.995474 0.989524
1.00517 0.996059 0.988644
1.00512 0.99609 0.988901
1.00512 0.996767 0.9884
1.00512 0.996977 0.988024
1.00508 0.997136 0.988005
1.00502 0.997853 0.987444
1.00501 0.99747 0.987729
1.00489 0.998075 0.987476
1.00468 0.998967 0.987126
1.00478 0.998651 0.987148
1.00437 0.999681 0.986957
1.00397 1.00027 0.98718
1.00263 1.00152 0.988047
1.00325 1.00152 0.98704
1.00381 1.00126 0.986382
1.00104 1.00201 0.990671
1.00184 1.00245 0.988842
1.00222 1.00285 0.987636
0.999766 1.00065 0.994306
1.00063 1.00218 0.991317
1.00129 1.00272 0.989672
0.999447 0.998444 0.99889
0.999711 1.00016 0.994943
1.00039 1.00209 0.991863
0.999439 0.998154 0.99901
0.999607 0.999731 0.995599
0.999449 0.997888 0.999114
1.00075 1.00331 0.990058
1.0005 1.00284 0.991023
1.00041 1.00246 0.991479
1.00016 1.00254 0.991805
1.00019 1.00221 0.99205
1.00004 1.00129 0.993227
1.00014 1.00181 0.992541
1 1.00074 0.99386
0.999648 0.998919 0.996339
1.00007 1.00023 0.994253
0.999733 0.998575 0.996515
0.999519 0.997487 0.999205
0.999616 0.997252 0.999226
0.99981 0.998367 0.996571
0.99971 0.99706 0.999237
0.998183 0.998556 0.977762
1.00158 0.99582 0.954826
0.999943 0.995283 0.943729
1.00153 1.00331 0.988681
0.999907 1.00365 0.991386
1.00026 1.00326 0.990947
1 1.00385 0.9908
1.00055 1.00389 0.989813
1.00063 1.00292 0.990346
1.00024 1.00412 0.990135
1.00014 1.00297 0.991391
1.00101 1.00269 0.989993
1.00283 1.00084 0.989146
1.00416 0.999672 0.98707
1.00464 0.997864 0.987892
1.00415 0.999298 0.987044
1.00221 1.00052 0.989733
1.00108 0.998684 0.993338
0.997402 1.00021 0.974965
0.999513 0.997804 0.957616
0.998297 0.998658 0.980313
1.00207 0.997532 0.992866
1.00311 0.997965 0.990639
1.00287 0.996688 0.989025
0.998223 0.996175 0.981057
1.00075 0.995383 0.955691
1.00079 0.999969 0.992366
0.999457 0.997928 0.980459
1.00352 0.999318 0.989393
1.00449 0.996016 0.989713
1.00505 0.996184 0.989663
1.00506 0.996119 0.990122
1.00501 0.995018 0.989915
1.00507 0.995043 0.990074
1.00509 0.995387 0.989726
1.00511 0.995229 0.989719
1.00512 0.99554 0.989516
1.00514 0.996468 0.988634
1.00511 0.996154 0.98887
1.00511 0.996775 0.988362
1.00511 0.997794 0.987356
1.00508 0.997155 0.987962
1.00501 0.99786 0.987456
1.00487 0.998562 0.987067
1.00489 0.997988 0.987525
1.00467 0.998851 0.987158
1.00432 0.99957 0.987109
1.00437 0.999675 0.986935
1.00395 1.00025 0.987106
1.00334 1.00066 0.987878
1.0017 1.00144 0.990051
1.00259 1.00158 0.988145
1.00319 1.0016 0.987131
0.999907 1.00097 0.993721
1.00106 1.00202 0.990662
1.00186 1.00243 0.988837
0.999428 0.998878 0.9987
0.999852 1.00055 0.994297
1.00066 1.00218 0.991311
0.999463 0.998524 0.998825
0.999734 1.00017 0.994931
0.999473 0.998215 0.998951
1.00134 1.00325 0.988844
1.00073 1.00329 0.990074
1.00074 1.00271 0.990727
1.00052 1.00282 0.991065
1.00041 1.00244 0.991496
1.00015 1.00175 0.992599
1.0002 1.00226 0.991972
1.00001 1.00135 0.993227
0.999576 0.999383 0.995987
1 1.00074 0.993869
0.99965 0.998877 0.996359
0.999457 0.997724 0.999162
0.999732 0.998561 0.996523
0.999528 0.997451 0.999212
0.999626 0.99723 0.999229
1.00179 0.998442 0.991269
0.998202 0.998332 0.974344
1.00075 0.996007 0.960166
1.00169 1.00243 0.988872
1.00345 1.00133 0.98698
1.0013 1.00331 0.988818
1.00008 1.00391 0.990728
1.0005 1.00399 0.989761
1.00093 1.00283 0.990097
1.0039 0.999904 0.98766
1.00115 1.00262 0.990225
1.00247 1.00095 0.988922
1.00398 0.999802 0.987323
1.00505 0.998275 0.986931
1.00504 0.996135 0.988872
1.00473 0.997891 0.987743
1.00426 0.999454 0.986661
1.00139 0.998585 0.993491
0.997018 1.00075 0.972917
1.00224 0.99661 0.994731
1.0051 0.995806 0.990282
1.00268 0.996948 0.989196
0.998916 0.99597 0.977405
1.00348 0.997694 0.989583
1.00447 0.996501 0.989637
1.00505 0.995715 0.989798
1.00506 0.995763 0.989937
1.00508 0.995416 0.989652
1.00514 0.995541 0.989157
1.00508 0.995 0.990114
1.0051 0.99539 0.989717
1.00513 0.996433 0.988653
1.00512 0.995613 0.989507
1.00513 0.996573 0.988539
1.00516 0.997577 0.987514
1.0051 0.996782 0.988324
1.0051 0.997805 0.987369
1.005 0.998524 0.986866
1.00501 0.997868 0.987468
1.00487 0.998564 0.987067
1.00455 0.999223 0.98703
1.00466 0.998733 0.98719
1.0043 0.999537 0.98711
1.0037 1.00009 0.987739
1.00393 1.00024 0.987032
1.00329 1.00064 0.98784
1.00229 1.00074 0.989673
1.00014 1.0009 0.993288
1.0017 1.00145 0.990047
1.00256 1.00164 0.988243
0.999343 0.999404 0.998529
0.999994 1.00088 0.993705
1.00108 1.00205 0.990654
0.999431 0.99899 0.99864
0.999917 1.0005 0.994286
0.999484 0.998606 0.99876
1.00242 1.00245 0.987354
1.00134 1.00324 0.988705
1.00129 1.00272 0.989657
1.0007 1.00327 0.99009
1.00068 1.00272 0.99075
1.00032 1.00212 0.992002
1.0004 1.00242 0.991514
1.00012 1.00182 0.992596
0.999599 0.999883 0.995444
0.999994 1.0014 0.993228
0.99959 0.999311 0.996013
0.999434 0.997999 0.999063
0.999651 0.998836 0.996381
0.999456 0.997684 0.999178
0.999538 0.997421 0.999218
1.00511 0.995614 0.989444
1.0019 0.998143 0.990286
0.998122 0.997499 0.975032
1.00406 1.00008 0.987198
1.00141 1.00217 0.989655
1.00466 0.999101 0.986684
1.00354 1.00128 0.986933
1.00107 1.0033 0.988962
1.00509 0.99815 0.986934
1.00123 1.00272 0.989855
1.00404 0.999925 0.987281
1.00512 0.997269 0.987706
1.00389 0.999897 0.987575
1.00503 0.998165 0.987016
1.00499 0.996243 0.988961
1.0047 0.997953 0.987584
1.00154 0.998478 0.993679
1.00516 0.995962 0.98885
1.00511 0.995918 0.990304
1.0025 0.99687 0.989348
1.00505 0.995159 0.989939
1.00505 0.995443 0.989755
1.00507 0.995347 0.989803
1.00515 0.995597 0.989227
1.00515 0.996385 0.988604
1.0051 0.995386 0.989708
1.00513 0.996461 0.988661
1.00516 0.997408 0.987681
1.00513 0.996669 0.988445
1.00515 0.997653 0.98743
1.0051 0.998573 0.986658
1.00509 0.997815 0.987383
1.00499 0.998526 0.986872
1.00471 0.999119 0.986838
1.00487 0.998565 0.987067
1.00455 0.999222 0.987031
1.00397 0.999753 0.987586
1.00427 0.999503 0.987112
1.00369 1.0001 0.987747
1.00266 1.00029 0.989429
1.00323 1.00063 0.987802
1.00228 1.00076 0.989666
1.00036 1.00065 0.99415
0.999397 0.999848 0.996248
1.00023 1.00083 0.993798
1.00169 1.00148 0.990043
0.999361 0.999534 0.998465
1.0001 1.00076 0.993688
0.999436 0.999087 0.998575
1.00498 0.998703 0.986884
1.00356 1.00056 0.987028
1.0026 1.00241 0.98723
1.00199 1.00234 0.988663
1.00133 1.00324 0.988567
1.00123 1.00273 0.989686
1.00065 1.00221 0.991321
1.00063 1.00272 0.990772
1.00027 1.00213 0.992013
0.999713 1.00037 0.994779
1.00008 1.00189 0.992594
0.999593 0.999842 0.99546
0.999419 0.998356 0.9989
0.999601 0.999238 0.996038
0.999418 0.997947 0.9991
0.999456 0.997642 0.999193
1.00516 0.996501 0.988362
1.00513 0.995793 0.989873
1.00211 0.997984 0.989299
1.00511 0.998233 0.986819
1.00388 1.00007 0.987479
1.00114 1.00192 0.990426
1.00466 0.999231 0.986734
1.00363 1.00123 0.986887
1.00512 0.997453 0.987798
1.00509 0.99816 0.986878
1.00418 0.999972 0.9869
1.00512 0.997261 0.98769
1.00503 0.99807 0.9871
1.00498 0.996304 0.989068
1.00517 0.996603 0.988526
1.00517 0.995909 0.988915
1.00512 0.99603 0.99033
1.00507 0.995272 0.989952
1.00516 0.995657 0.989298
1.00515 0.996269 0.988755
1.00517 0.997431 0.987685
1.00513 0.996495 0.988669
1.00516 0.997429 0.987655
1.00515 0.998504 0.986632
1.00515 0.997727 0.987346
1.00508 0.998572 0.986671
1.00483 0.999181 0.986545
1.00499 0.99853 0.986877
1.00471 0.999119 0.986837
1.00414 0.999619 0.987397
1.00454 0.999221 0.987031
1.00396 0.999754 0.987588
1.0029 1.00006 0.989226
1.00367 1.0001 0.987755
1.00266 1.00029 0.989422
1.00059 1.00032 0.994136
1.00226 1.00078 0.98966
1.00049 1.0006 0.994098
0.999412 1.00015 0.996102
0.999315 1 0.997266
1.00036 1.00076 0.994236
0.999375 0.999652 0.9984
1.0051 0.998453 0.986715
1.00437 0.999399 0.987226
1.00494 0.998561 0.986953
1.00287 1.00136 0.987953
1.00368 1.00065 0.987005
1.00277 1.00235 0.987105
1.00199 1.00234 0.988664
1.0012 1.00196 0.990518
1.00118 1.00275 0.989715
1.00061 1.00218 0.991334
0.999868 1.00078 0.994118
1.00022 1.00214 0.992023
0.999659 1.0004 0.99479
0.999356 0.998876 0.998698
0.99959 0.999796 0.995476
0.999405 0.998283 0.998959
0.99941 0.997897 0.999133
1.00514 0.996984 0.988128
1.00515 0.996496 0.988357
1.00514 0.99591 0.990282
1.00515 0.99785 0.987274
1.00511 0.998292 0.986837
1.00371 1.00007 0.987764
1.00466 0.999361 0.986783
1.00512 0.997442 0.987705
1.00509 0.998171 0.986822
1.0051 0.997263 0.987675
1.00515 0.997272 0.987876
1.00516 0.996643 0.988451
1.00518 0.995859 0.98898
1.00514 0.997722 0.98739
1.00515 0.996152 0.988905
1.00517 0.997437 0.987681
1.00517 0.998307 0.986887
1.00516 0.99745 0.987628
1.00514 0.998502 0.986644
1.00499 0.999145 0.986287
1.00507 0.998573 0.986684
1.00482 0.999184 0.986553
1.00429 0.999659 0.98708
1.00471 0.99912 0.986836
1.00414 0.999619 0.987395
1.00304 0.999963 0.989049
1.00396 0.999755 0.98759
1.00291 1.00004 0.989222
1.00076 1.00006 0.994116
1.00266 1.00028 0.989415
1.00069 1.00028 0.994085
0.999471 1.00011 0.996106
1.00063 1.00052 0.994053
0.999269 1.0003 0.996189
0.999125 1.00014 0.998451
1.00512 0.998451 0.986702
1.0048 0.998907 0.986867
1.00511 0.998442 0.986746
1.00368 1.00027 0.987847
1.00442 0.999281 0.987185
1.00489 0.998424 0.98702
1.00194 1.0013 0.989743
1.00289 1.00138 0.987923
1.0038 1.00074 0.986984
1.00198 1.00234 0.988664
1.00118 1.00193 0.990532
1.00006 1.001 0.993547
1.00057 1.00216 0.991348
0.999772 1.00087 0.994135
0.999248 0.999525 0.998509
0.999606 1.00045 0.9948
0.999358 0.998762 0.998773
0.999397 0.998207 0.999013
1.00514 0.997534 0.987553
1.00514 0.996925 0.98815
1.00515 0.996489 0.988353
1.00514 0.997819 0.987302
1.00512 0.998347 0.986855
1.00512 0.997431 0.987612
1.00513 0.997742 0.987465
1.00514 0.997333 0.987835
1.00516 0.996684 0.988377
1.00515 0.997693 0.987456
1.00514 0.99828 0.986904
1.00517 0.997444 0.987677
1.00516 0.998372 0.986779
1.00509 0.99897 0.986299
1.00513 0.998496 0.986656
1.00497 0.999149 0.986303
1.0045 0.999671 0.986671
1.00481 0.999182 0.986561
1.00429 0.999657 0.98708
1.00317 0.999961 0.988802
1.00414 0.999618 0.987392
1.00305 0.999948 0.989046
1.00087 0.999971 0.994025
1.00292 1.00002 0.989217
1.00084 1.00004 0.994058
0.999572 1 0.996082
1.00079 1.00023 0.994042
0.999326 1.00021 0.996205
0.99912 1.00051 0.996266
1.00514 0.998124 0.987054
1.00492 0.998948 0.98654
1.00513 0.998376 0.986764
1.00416 0.99947 0.987588
1.0048 0.998948 0.986893
1.00512 0.998429 0.986779
1.00261 1.00048 0.989277
1.00369 1.00017 0.987708
1.00447 0.999157 0.987144
1.00032 1.00089 0.993115
1.00194 1.00129 0.989753
1.00291 1.0014 0.987893
1.00116 1.00191 0.990546
0.999946 1.0011 0.993571
0.999211 1.00012 0.998355
0.999675 1.00098 0.99415
0.999257 0.999381 0.998578
0.999363 0.998641 0.998838
1.00513 0.997815 0.987331
1.00513 0.997516 0.987583
1.00514 0.996867 0.988172
1.00513 0.997789 0.98733
1.00514 0.998283 0.986899
1.00513 0.997749 0.987475
1.00514 0.997392 0.987793
1.00516 0.997669 0.987522
1.00514 0.998239 0.98694
1.0051 0.998909 0.986435
1.00516 0.998435 0.986671
1.00507 0.999047 0.98626
1.00469 0.999512 0.986388
1.00495 0.999157 0.98632
1.00449 0.999672 0.986679
1.00337 0.999978 0.988413
1.00428 0.999659 0.98708
1.00318 0.99995 0.988798
1.00097 1 0.992738
1.00307 0.99993 0.989042
1.00093 0.99994 0.993428
0.999589 0.999992 0.99823
1.00091 1.00003 0.994002
0.999441 1.00003 0.996185
0.999191 1.00033 0.996286
1.00514 0.99813 0.987087
1.005 0.998803 0.98659
1.00513 0.998177 0.987023
1.00438 0.999286 0.987042
1.00492 0.998943 0.986621
1.00514 0.998301 0.986826
1.00302 0.999857 0.988857
1.00417 0.999507 0.987576
1.00481 0.998993 0.98692
1.00063 1.00045 0.992919
1.00263 1.00042 0.989162
1.0037 1.00007 0.98757
0.999282 1.00044 0.998256
1.00025 1.00095 0.993135
1.00193 1.00128 0.989764
0.999852 1.00118 0.993592
0.999177 0.999979 0.998411
0.999259 0.999221 0.998647
1.00514 0.998231 0.986946
1.00513 0.997807 0.987341
1.00513 0.997499 0.987613
1.0051 0.998859 0.986436
1.00513 0.998245 0.986941
1.00513 0.997754 0.987485
1.00514 0.998193 0.986977
1.0051 0.998902 0.986434
1.00478 0.999411 0.986577
1.00506 0.999127 0.986222
1.00468 0.999574 0.986506
1.00361 0.999872 0.987818
1.00448 0.999667 0.986687
1.00337 0.999973 0.988412
1.00109 1.00006 0.992434
1.0032 0.999942 0.988793
1.00098 0.999994 0.992728
0.999625 0.999984 0.998191
1.00095 0.999928 0.992886
0.999538 0.99996 0.997204
0.999313 1.00006 0.996282
1.00513 0.998328 0.986918
1.00502 0.998734 0.986627
1.00513 0.998111 0.987082
1.00448 0.999304 0.987012
1.00499 0.998833 0.986538
1.00513 0.99823 0.986991
1.00325 0.999648 0.988643
1.00439 0.999354 0.987198
1.00492 0.998937 0.986702
1.00086 1.00003 0.992886
1.00303 0.99986 0.98884
1.00417 0.999541 0.987565
0.999415 1.0004 0.998223
1.0006 1.00046 0.992934
1.00264 1.00037 0.989046
0.999231 1.00033 0.998285
1.00017 1.00098 0.993165
0.999149 0.999836 0.998471
1.0051 0.998729 0.986584
1.00514 0.998245 0.986915
1.00514 0.997798 0.98735
1.00475 0.999311 0.986707
1.0051 0.99882 0.986491
1.00513 0.998214 0.986983
1.0051 0.998894 0.986433
1.00478 0.999417 0.986573
1.00372 0.999763 0.987699
1.00467 0.999637 0.986625
1.00359 0.999905 0.987937
1.00127 1.00006 0.992108
1.00338 0.999964 0.988411
1.0011 1.00006 0.99242
0.999702 0.999991 0.998111
1.00098 0.999991 0.992718
0.99965 0.999979 0.998165
0.999592 0.999889 0.996065
1.00502 0.998755 0.986739
1.00513 0.998256 0.986925
1.00452 0.99926 0.987
1.005 0.998737 0.986628
1.00513 0.998091 0.987078
1.00337 0.99968 0.988703
1.0045 0.999298 0.987006
1.00498 0.998863 0.986486
1.00101 0.999849 0.992787
1.00325 0.999699 0.988744
1.0044 0.999428 0.987354
0.99957 1.00017 0.998204
1.00085 1.00002 0.992893
1.00304 0.99986 0.988822
0.999376 1.00036 0.998226
1.00058 1.00046 0.992946
0.999158 1.00027 0.998326
1.00469 0.999254 0.986877
1.0051 0.99875 0.986564
1.00514 0.99826 0.986884
1.00369 0.999707 0.987811
1.00475 0.999325 0.986705
1.0051 0.998777 0.986545
1.00478 0.999425 0.986569
1.00372 0.999761 0.987694
1.00137 1.00004 0.991951
1.00358 0.999934 0.988055
1.00127 1.00006 0.992099
0.999823 1.00001 0.998007
1.00112 1.00006 0.992407
0.999744 0.999993 0.998075
0.999679 0.999974 0.998134
1.00456 0.999263 0.98696
1.00501 0.998672 0.986753
1.00513 0.998184 0.986932
1.00342 0.999702 0.988575
1.00453 0.999261 0.986988
1.00499 0.99874 0.986629
1.00111 0.999863 0.99259
1.00336 0.99969 0.988698
1.00451 0.999292 0.987
0.999691 1 0.998151
1.00101 0.999848 0.992794
1.00325 0.999742 0.988844
0.999529 1.00019 0.99821
1.00085 1.00002 0.992899
0.999332 1.00034 0.998233
1.00363 0.99977 0.98814
1.00471 0.999229 0.986748
1.0051 0.99877 0.986543
1.00137 0.999988 0.992
1.0037 0.999704 0.987796
1.00475 0.999339 0.986704
1.00373 0.999758 0.987689
1.00137 1.00003 0.991953
0.999911 1.00001 0.997924
1.00127 1.00006 0.992089
0.999855 1.00001 0.99797
0.99978 0.999995 0.998036
1.00351 0.999749 0.988371
1.00458 0.99921 0.986919
1.005 0.998592 0.986767
1.00123 0.999965 0.993501
1.00343 0.999707 0.988568
1.00454 0.999263 0.986977
0.999763 0.999949 0.998078
1.00111 0.999881 0.992595
1.00336 0.999699 0.988692
0.999651 1.00003 0.998174
1.001 0.999857 0.992802
0.999497 1.0002 0.998211
1.00136 0.99999 0.992038
1.00363 0.999734 0.988043
1.00472 0.999201 0.986618
0.999927 1 0.997918
1.00136 0.999994 0.992001
1.00371 0.999702 0.987782
1.00137 1.00002 0.991953
0.999927 1.00001 0.997916
0.999898 1.00001 0.997942
1.00135 1 0.993295
1.00352 0.999743 0.988374
1.00459 0.999157 0.986878
0.999581 0.999981 0.998239
1.00117 0.999976 0.992407
1.00344 0.99971 0.988561
0.999736 0.999972 0.998108
1.0011 0.999904 0.992601
0.999621 1.00005 0.998193
0.999897 1.00001 0.995529
1.00136 0.999987 0.992653
1.00363 0.999701 0.987946
0.999921 1 0.997919
1.00135 0.999998 0.992005
0.999934 1.00001 0.997905
0.999614 1.00001 0.995847
1.00129 0.999999 0.992785
1.00352 0.999741 0.988377
0.99968 0.99999 0.996974
1.00117 0.999983 0.992403
0.999709 0.99999 0.998135
0.999897 0.999998 0.997936
1.00131 0.999989 0.992112
0.99991 1 0.997925
0.999735 0.999999 0.996899
1.00124 0.999999 0.992246
0.999767 0.999981 0.998067
0.99987 0.999994 0.997963
0.999815 0.999988 0.99801

TENSORS stress float
0.00130469 -3.84043e-05 0.000104205
-3.84043e-05 0.000376724 -1.19177e-05
0.000104205 -1.19177e-05 0.000356253
0.00383473 -9.03342e-05 9.78915e-05
-9.03342e-05 0.00176954 5.63287e-06
9.78915e-05 5.63287e-06 0.00176135
0.00131004 2.74271e-05 5.46338e-05
2.74271e-05 0.000394213 -3.52908e-06
5.46338e-05 -3.52908e-06 0.000364099
0.00168187 -3.03105e-05 0.00011477
-3.03105e-05 0.000554494 -8.4247e-06
0.00011477 -8.4247e-06 0.000534652
0.00147319 -3.86592e-05 0.000108166
-3.86592e-05 0.000460617 -1.15582e-05
0.000108166 -1.15582e-05 0.000439208
0.0011761 -1.6343e-05 9.36915e-05
-1.6343e-05 0.000304216 -1.04975e-05
9.36915e-05 -1.04975e-05 0.00028656
0.00122122 -7.99363e-06 9.61536e-06
-7.99363e-06 0.000280373 -6.70611e-06
9.61536e-06 -6.70611e-06 0.000217137
0.00372348 -0.000114119 5.19713e-06
-0.000114119 0.00170917 -5.78007e-07
5.19713e-06 -5.78007e-07 0.00169949
0.00468093 -0.000125643 1.78775e-05
-0.000125643 0.00222969 1.95456e-06
1.78775e-05 1.95456e-06 0.00221013
0.00385862 -0.000220418 1.09281e-07
-0.000220418 0.00182083 3.25336e-06
1.09281e-07 3.25336e-06 0.00178705
0.00129063 -1.75029e-05 8.12488e-05
-1.75029e-05 0.000353016 5.66842e-06
8.12488e-05 5.66842e-06 0.00034248
0.000754118 6.61478e-05 1.04109e-05
6.61478e-05 2.48973e-05 7.46228e-06
1.04109e-05 7.46228e-06 -2.90393e-05
0.00168634 -1.46046e-05 0.000131464
-1.46046e-05 0.000545223 1.49643e-06
0.000131464 1.49643e-06 0.000524933
0.00125975 1.58424e-05 1.79134e-05
1.58424e-05 0.000329803 1.92085e-06
1.79134e-05 1.92085e-06 0.000301126
0.00136579 8.60254e-05 -1.83082e-06
8.60254e-05 0.000436949 4.28604e-06
-1.83082e-06 4.28604e-06 0.000398911
0.00147914 -1.65057e-05 4.64453e-05
-1.65057e-05 0.00044888 -2.77434e-06
4.64453e-05 -2.77434e-06 0.000426017
0.00120361 3.41767e-05 4.6243e-05
3.41767e-05 0.000333134 -3.45377e-06
4.6243e-05 -3.45377e-06 0.000306295
0.00139076 1.30285e-05 5.28659e-05
1.30285e-05 0.000425686 -3.99235e-06
5.28659e-05 -3.99235e-06 0.000398237
0.00133083 -3.93422e-05 -2.19729e-05
-3.93422e-05 0.000329832 7.49395e-07
-2.19729e-05 7.49395e-07 0.000273045
0.00504732 -6.42568e-05 0.000137852
-6.42568e-05 0.00240178 -2.24757e-06
0.000137852 -2.24757e-06 0.00239727
0.00165931 -1.88345e-05 0.000117119
-1.88345e-05 0.000539418 -6.59281e-06
0.000117119 -6.59281e-06 0.000519403
0.00162061 -3.63357e-05 0.000112096
-3.63357e-05 0.000528224 -1.01855e-05
0.000112096 -1.01855e-05 0.000507633
0.00146106 -4.81309e-05 2.63017e-05
-4.81309e-05 0.000347388 -3.9519e-06
2.63017e-05 -3.9519e-06 0.000293843
0.00134763 -2.24518e-05 1.55678e-05
-2.24518e-05 0.000320048 -5.97617e-06
1.55678e-05 -5.97617e-06 0.000260653
0.00114209 2.67081e-05 7.45288e-05
2.67081e-05 0.000278716 -8.472e-06
7.45288e-05 -8.472e-06 0.000262183
0.00106711 -5.74624e-06 9.51881e-06
-5.74624e-06 0.000215312 -5.86612e-06
9.51881e-06 -5.86612e-06 0.000156132
0.00173065 -0.000136016 6.90291e-06
-0.000136016 0.000440284 -3.26297e-06
6.90291e-06 -3.26297e-06 0.000342761
0.00359113 -0.000132981 -7.44496e-05
-0.000132981 0.00163755 -3.39222e-06
-7.44496e-05 -3.39222e-06 0.00162604
0.00298993 -3.83997e-05 -6.35798e-05
-3.83997e-05 0.00129804 -1.75175e-06
-6.35798e-05 -1.75175e-06 0.00127569
0.00257061 -0.000101459 -3.98674e-05
-0.000101459 0.00109183 -1.38685e-06
-3.98674e-05 -1.38685e-06 0.00106618
0.00337612 -0.000114632 3.69296e-06
-0.000114632 0.00150896 -2.71742e-07
3.69296e-06 -2.71742e-07 0.0015029
0.000661861 5.58551e-05 -1.28512e-07
5.58551e-05 -2.0191e-05 -2.54875e-07
-1.28512e-07 -2.54875e-07 -7.37933e-05
0.0015705 4.26325e-05 0.000116673
4.26325e-05 0.000496105 7.83648e-06
0.000116673 7.83648e-06 0.000475165
0.0017709 5.65357e-05 0.000111875
5.65357e-05 0.000625296 9.91039e-06
0.000111875 9.91039e-06 0.000604803
0.0024352 0.000118592 6.99089e-05
0.000118592 0.000894175 8.2503e-06
6.99089e-05 8.2503e-06 0.000845054
0.00285049 -0.000124269 1.52732e-05
-0.000124269 0.00121737 1.38816e-06
1.52732e-05 1.38816e-06 0.00121146
0.00222158 8.54687e-05 5.70129e-05
8.54687e-05 0.000820038 7.58611e-06
5.70129e-05 7.58611e-06 0.000772269
0.000673027 2.18056e-05 9.72721e-06
2.18056e-05 -1.23579e-05 9.19346e-06
9.72721e-06 9.19346e-06 -5.9201e-05
0.000943117 9.98927e-05 4.5128e-06
9.98927e-05 8.41629e-05 1.83501e-06
4.5128e-06 1.83501e-06 -1.22595e-05
0.00252863 -8.22757e-05 4.8026e-05
-8.22757e-05 0.00102682 2.74266e-06
4.8026e-05 2.74266e-06 0.001033
0.00512157 2.65969e-05 3.21723e-07
2.65969e-05 0.00243755 -9.16002e-07
3.21723e-07 -9.16002e-07 0.00243453
0.00313396 2.42864e-05 -5.20591e-05
2.42864e-05 0.00135549 -1.11253e-06
-5.20591e-05 -1.11253e-06 0.00133908
0.00518939 6.37844e-05 0.000142697
6.37844e-05 0.00247461 9.73344e-07
0.000142697 9.73344e-07 0.00247034
0.00135119 -2.85041e-05 1.12743e-05
-2.85041e-05 0.000380244 1.18589e-06
1.12743e-05 1.18589e-06 0.000349489
0.000763544 -1.28969e-06 1.55377e-05
-1.28969e-06 -6.68932e-05 2.2703e-06
1.55377e-05 2.2703e-06 -0.000128185
0.00477651 6.33858e-05 4.89106e-05
6.33858e-05 0.00225919 2.74743e-06
4.89106e-05 2.74743e-06 0.00224779
0.0024425 2.30787e-05 7.21236e-05
2.30787e-05 0.000865463 4.45204e-06
7.21236e-05 4.45204e-06 0.000821981
0.00124663 -3.17789e-05 -2.49845e-05
-3.17789e-05 0.000329505 2.6607e-06
-2.49845e-05 2.6607e-06 0.00030233
0.00135026 1.61863e-05 -1.5072e-05
1.61863e-05 0.000406208 3.28387e-06
-1.5072e-05 3.28387e-06 0.000377529
0.00127217 0.000102163 -9.76806e-07
0.000102163 0.00038835 4.251e-06
-9.76806e-07 4.251e-06 0.000349621
0.00138858 -6.56042e-05 -5.68348e-05
-6.56042e-05 0.000351818 7.74134e-06
-5.68348e-05 7.74134e-06 0.000300823
0.00327889 3.96084e-05 -5.52267e-05
3.96084e-05 0.00143971 -1.01614e-06
-5.52267e-05 -1.01614e-06 0.00141579
0.00147144 -2.17908e-05 4.72373e-05
-2.17908e-05 0.000443792 -1.76108e-06
4.72373e-05 -1.76108e-06 0.00041983
0.0011264 4.89955e-05 3.58531e-05
4.89955e-05 0.000278967 -2.70645e-06
3.58531e-05 -2.70645e-06 0.000257461
0.00146102 -7.63848e-06 4.88056e-05
-7.63848e-06 0.000446879 -3.74199e-06
4.88056e-05 -3.74199e-06 0.000422933
0.00149842 -5.17722e-05 -1.72129e-05
-5.17722e-05 0.000365072 5.99308e-07
-1.72129e-05 5.99308e-07 0.000313799
0.00120665 -2.26957e-05 -2.02142e-05
-2.26957e-05 0.000284253 3.56628e-07
-2.02142e-05 3.56628e-07 0.000229152
0.00142751 -5.54987e-05 -1.89335e-05
-5.54987e-05 0.000355444 9.06047e-07
-1.89335e-05 9.06047e-07 0.000301435
0.00183342 -0.000140137 -3.44814e-06
-0.000140137 0.000492493 1.05162e-06
-3.44814e-06 1.05162e-06 0.000393832
0.00510655 5.00795e-05 0.00013258
5.00795e-05 0.00242962 6.17194e-08
0.00013258 6.17194e-08 0.00242679
0.00166294 -5.22582e-06 0.000122006
-5.22582e-06 0.000536761 -4.51608e-06
0.000122006 -4.51608e-06 0.000515941
0.00232789 6.50698e-05 1.42754e-05
6.50698e-05 0.000811317 -1.24033e-06
1.42754e-05 -1.24033e-06 0.000755604
0.00144055 -4.99015e-05 2.66872e-05
-4.99015e-05 0.000334157 -3.50116e-06
2.66872e-05 -3.50116e-06 0.000279716
0.0014408 -4.12867e-05 2.26064e-05
-4.12867e-05 0.000345651 -4.87929e-06
2.26064e-05 -4.87929e-06 0.000290463
0.00194668 -9.50702e-05 8.42701e-06
-9.50702e-05 0.000461274 -1.94867e-06
8.42701e-06 -1.94867e-06 0.000369849
0.00142455 -0.000115135 9.61234e-06
-0.000115135 0.000224168 -3.84253e-06
9.61234e-06 -3.84253e-06 0.000125721
0.00117022 4.73988e-05 5.83427e-05
4.73988e-05 0.000278715 -7.3705e-06
5.83427e-05 -7.3705e-06 0.000266466
0.000904976 2.08822e-05 7.93876e-06
2.08822e-05 0.000141133 -4.49084e-06
7.93876e-06 -4.49084e-06 9.1848e-05
0.0015048 -0.00012279 4.76207e-06
-0.00012279 0.000370006 -2.586e-06
4.76207e-06 -2.586e-06 0.000275448
0.00122159 -0.000136111 4.47896e-06
-0.000136111 8.73839e-05 -1.93013e-06
4.47896e-06 -1.93013e-06 -3.7648e-05
0.00470495 -1.92119e-05 -0.00011737
-1.92119e-05 0.00222969 -6.56602e-06
-0.00011737 -6.56602e-06 0.00222407
0.00324345 -0.000121468 -6.30422e-05
-0.000121468 0.00143527 -2.76096e-06
-6.30422e-05 -2.76096e-06 0.00142924
0.00390426 -0.000135206 -8.36078e-05
-0.000135206 0.00182098 -4.84945e-06
-8.36078e-05 -4.84945e-06 0.00180517
0.000578386 5.29821e-05 -8.97073e-06
5.29821e-05 -6.14432e-05 -7.89729e-06
-8.97073e-06 -7.89729e-06 -0.000114674
0.00502519 3.81948e-05 -2.73715e-06
3.81948e-05 0.00238934 -7.7445e-07
-2.73715e-06 -7.7445e-07 0.00238572
0.00459125 -8.55701e-05 -4.00582e-06
-8.55701e-05 0.00218846 3.76834e-07
-4.00582e-06 3.76834e-07 0.0021736
0.000612386 9.64902e-05 -6.66168e-07
9.64902e-05 -0.000100651 -2.41062e-07
-6.66168e-07 -2.41062e-07 -0.00016294
0.00196723 -8.3633e-05 -2.56652e-05
-8.3633e-05 0.000726549 -3.40443e-07
-2.56652e-05 -3.40443e-07 0.000719361
0.000629468 8.63198e-05 -2.34525e-07
8.63198e-05 -4.7825e-05 -8.45014e-08
-2.34525e-07 -8.45014e-08 -0.000105509
0.00121645 1.59219e-06 1.56283e-05
1.59219e-06 0.000292748 3.043e-07
1.56283e-05 3.043e-07 0.000250413
0.000874475 9.46726e-05 2.6216e-07
9.46726e-05 4.5657e-05 -1.82266e-07
2.6216e-07 -1.82266e-07 -4.9863e-05
0.00278842 -8.99486e-05 5.84156e-05
-8.99486e-05 0.00117227 2.84891e-06
5.84156e-05 2.84891e-06 0.00117578
0.00066066 -6.7994e-05 -1.22088e-06
-6.7994e-05 -5.12681e-06 5.06988e-06
-1.22088e-06 5.06988e-06 -3.14903e-05
0.000734489 7.04703e-05 1.61931e-05
7.04703e-05 -5.92701e-05 7.57036e-06
1.61931e-05 7.57036e-06 -0.000120328
0.000783228 0.000103588 1.85077e-05
0.000103588 9.83538e-06 1.08518e-05
1.85077e-05 1.08518e-05 -5.26797e-05
0.00106803 0.000105499 9.21002e-06
0.000105499 5.7071e-06 4.09038e-06
9.21002e-06 4.09038e-06 -0.000100429
0.00168075 -4.32813e-05 3.14131e-05
-4.32813e-05 0.000553895 4.30282e-06
3.14131e-05 4.30282e-06 0.000522468
0.000997103 0.000111006 5.57734e-06
0.000111006 7.24011e-05 3.52286e-06
5.57734e-06 3.52286e-06 -2.73576e-05
0.000921685 7.77347e-05 4.1772e-06
7.77347e-05 0.000105826 2.31117e-06
4.1772e-06 2.31117e-06 1.22489e-05
0.000866781 0.000122264 1.6681e-06
0.000122264 7.72717e-06 -2.52646e-07
1.6681e-06 -2.52646e-07 -0.000111195
0.00230526 -7.46778e-05 3.82521e-05
-7.46778e-05 0.000898498 2.79634e-06
3.82521e-05 2.79634e-06 0.000907333
0.00244368 -8.37167e-05 1.78642e-06
-8.37167e-05 0.000981061 -1.45476e-07
1.78642e-06 -1.45476e-07 0.00098703
0.00496145 4.41442e-05 -0.00013404
4.41442e-05 0.00235253 -5.08731e-06
-0.00013404 -5.08731e-06 0.00235022
0.00507328 4.66778e-05 -0.000134384
4.66778e-05 0.00241259 -2.32515e-06
-0.000134384 -2.32515e-06 0.00240951
0.00518593 6.76741e-05 3.68777e-06
6.76741e-05 0.00247568 -6.58438e-07
3.68777e-06 -6.58438e-07 0.00246976
0.00316892 -1.68506e-05 -5.91715e-05
-1.68506e-05 0.00137128 -1.08287e-06
-5.91715e-05 -1.08287e-06 0.00135543
0.00164279 1.18587e-05 3.1204e-05
1.18587e-05 0.000417401 2.26251e-07
3.1204e-05 2.26251e-07 0.000364027
0.00316515 4.04773e-05 -5.76891e-05
4.04773e-05 0.00137107 -2.35993e-06
-5.76891e-05 -2.35993e-06 0.00135491
0.00162377 3.80712e-05 2.90612e-05
3.80712e-05 0.000419864 7.39553e-07
2.90612e-05 7.39553e-07 0.000368184
0.00520539 0.000125267 0.000134828
0.000125267 0.00249146 1.94298e-06
0.000134828 1.94298e-06 0.00248158
0.000713459 -5.20716e-06 1.50843e-05
-5.20716e-06 -9.84173e-05 6.08065e-07
1.50843e-05 6.08065e-07 -0.000159638
0.00251203 -3.05688e-06 7.42035e-05
-3.05688e-06 0.000899381 3.26408e-06
7.42035e-05 3.26408e-06 0.000854724
0.001194 2.19458e-05 1.03026e-05
2.19458e-05 9.68233e-06 1.56227e-06
1.03026e-05 1.56227e-06 -9.31002e-05
0.00238378 6.74776e-05 7.15344e-05
6.74776e-05 0.000840165 5.20816e-06
7.15344e-05 5.20816e-06 0.000794697
0.00118244 5.66188e-05 9.84816e-06
5.66188e-05 2.19897e-05 2.42093e-06
9.84816e-06 2.42093e-06 -7.82701e-05
0.00170718 2.21517e-05 -0.000129786
2.21517e-05 0.00055879 6.35465e-07
-0.000129786 6.35465e-07 0.000538674
0.00123323 -4.30964e-05 -2.20904e-05
-4.30964e-05 0.000322289 2.21731e-06
-2.20904e-05 2.21731e-06 0.000293275
0.00108887 8.52709e-05 -6.23437e-06
8.52709e-05 0.000269327 3.08698e-06
-6.23437e-06 3.08698e-06 0.000240582
0.00130438 -1.40656e-05 -2.18743e-05
-1.40656e-05 0.000367591 3.01217e-06
-2.18743e-05 3.01217e-06 0.000340334
0.00156663 -4.13033e-05 -6.21445e-05
-4.13033e-05 0.000398509 4.86472e-06
-6.21445e-05 4.86472e-06 0.000350022
0.00148038 -6.34681e-05 -5.93136e-05
-6.34681e-05 0.000379549 7.52014e-06
-5.93136e-05 7.52014e-06 0.00032861
0.00128403 -4.74277e-05 -5.01246e-05
-4.74277e-05 0.000317143 6.94746e-06
-5.01246e-05 6.94746e-06 0.000267618
0.00195813 -0.000145568 -1.45362e-05
-0.000145568 0.000557 5.66316e-06
-1.45362e-05 5.66316e-06 0.000457012
0.00517142 -4.68522e-05 -2.25773e-06
-4.68522e-05 0.00246559 -6.58786e-07
-2.25773e-06 -6.58786e-07 0.00246115
0.00147259 1.05137e-05 5.41682e-05
1.05137e-05 0.000439827 -1.45554e-06
5.41682e-05 -1.45554e-06 0.000415226
0.00115668 5.74337e-06 -3.35489e-05
5.74337e-06 0.000154827 4.28353e-07
-3.35489e-05 4.28353e-07 9.91883e-05
0.00148151 -4.25837e-05 -1.84427e-05
-4.25837e-05 0.000353056 3.52078e-07
-1.84427e-05 3.52078e-07 0.000301287
0.00215245 7.70324e-05 5.3259e-05
7.70324e-05 0.000827573 -6.79597e-07
5.3259e-05 -6.79597e-07 0.00081959
0.00136055 1.16143e-05 -1.27993e-05
1.16143e-05 0.000383296 -1.69377e-07
-1.27993e-05 -1.69377e-07 0.000336175
0.00149148 -5.69017e-05 -1.76217e-05
-5.69017e-05 0.000370079 7.47133e-07
-1.76217e-05 7.47133e-07 0.000317588
0.00177032 -8.81374e-05 -5.79597e-06
-8.81374e-05 0.000363372 1.01074e-06
-5.79597e-06 1.01074e-06 0.000270904
0.00167732 -0.000133878 -2.55332e-06
-0.000133878 0.000459955 9.67866e-07
-2.55332e-06 9.67866e-07 0.000363067
0.00169536 -0.000124156 -1.77878e-06
-0.000124156 0.000371788 2.96511e-07
-1.77878e-06 2.96511e-07 0.000273777
0.00119998 -0.000134137 -8.42808e-08
-0.000134137 7.60936e-05 -1.12705e-07
-8.42808e-08 -1.12705e-07 -4.86122e-05
0.000733332 4.65426e-06 1.52824e-05
4.65426e-06 -8.40114e-05 -1.24625e-06
1.52824e-05 -1.24625e-06 -0.000144951
0.00144839 -1.16365e-05 2.21006e-05
-1.16365e-05 0.000328155 -2.38532e-06
2.21006e-05 -2.38532e-06 0.000272874
0.00162799 -1.58055e-05 9.9937e-06
-1.58055e-05 0.000253227 -1.42279e-06
9.9937e-06 -1.42279e-06 0.00015652
0.00152949 -6.64791e-05 9.48718e-06
-6.64791e-05 0.000227973 -2.09415e-06
9.48718e-06 -2.09415e-06 0.000134217
0.0015502 -0.000103948 1.02064e-05
-0.000103948 0.000255666 -3.04664e-06
1.02064e-05 -3.04664e-06 0.000159009
0.0017716 -0.000101902 2.95356e-06
-0.000101902 0.000277415 -5.64699e-07
2.95356e-06 -5.64699e-07 0.0001655
0.00300952 0.000105446 5.78322e-05
0.000105446 0.00129279 -2.59409e-06
5.78322e-05 -2.59409e-06 0.00129271
0.00129744 -0.000127956 4.80212e-06
-0.000127956 7.5068e-05 -1.83756e-06
4.80212e-06 -1.83756e-06 -4.70183e-05
0.000590532 3.64438e-05 3.78845e-06
3.64438e-05 -4.42289e-05 -5.87072e-06
3.78845e-06 -5.87072e-06 -8.73134e-05
0.000662679 -8.11152e-05 3.34791e-06
-8.11152e-05 -4.25806e-05 -2.06458e-06
3.34791e-06 -2.06458e-06 -0.000132851
0.00130964 -0.000148687 3.96448e-06
-0.000148687 0.000198127 -2.20365e-06
3.96448e-06 -2.20365e-06 7.0051e-05
0.00137434 -0.000151776 2.3594e-06
-0.000151776 0.000116337 -1.00864e-06
2.3594e-06 -1.00864e-06 -2.02847e-05
0.000553906 6.681e-05 -5.32678e-08
6.681e-05 -6.43505e-05 -5.84235e-06
-5.32678e-08 -5.84235e-06 -9.90861e-05
0.000732639 3.50387e-05 3.1067e-07
3.50387e-05 1.03582e-05 -2.84129e-06
3.1067e-07 -2.84129e-06 -5.42893e-05
0.00494394 4.06492e-05 -0.000133258
4.06492e-05 0.0023473 -7.06205e-06
-0.000133258 -7.06205e-06 0.00234382
0.00426779 -0.000108167 -9.28176e-05
-0.000108167 0.00201658 -6.22553e-06
-9.28176e-05 -6.22553e-06 0.00200188
0.000583399 8.61419e-05 -1.39143e-05
8.61419e-05 -0.000115939 -8.2316e-06
-1.39143e-05 -8.2316e-06 -0.00017833
0.00292044 -0.000105622 -5.53373e-05
-0.000105622 0.00125068 -2.5557e-06
-5.53373e-05 -2.5557e-06 0.00125008
0.000559137 -6.65598e-06 -4.05578e-06
-6.65598e-06 -6.51734e-05 -7.05817e-06
-4.05578e-06 -7.05817e-06 -0.000109577
0.000534232 7.82833e-05 -1.1245e-05
7.82833e-05 -9.56254e-05 -8.13006e-06
-1.1245e-05 -8.13006e-06 -0.000153415
0.000828607 9.0745e-05 -4.56685e-06
9.0745e-05 1.96716e-05 -2.40522e-06
-4.56685e-06 -2.40522e-06 -7.51862e-05
0.00269607 -9.22914e-05 1.98489e-06
-9.22914e-05 0.00112318 -1.76962e-07
1.98489e-06 -1.76962e-07 0.00112636
0.000623799 -6.42756e-05 4.956e-08
-6.42756e-05 -2.66895e-05 1.69505e-07
4.956e-08 1.69505e-07 -5.1876e-05
0.00155668 8.28731e-05 2.80561e-05
8.28731e-05 0.000394208 8.02734e-07
2.80561e-05 8.02734e-07 0.000339444
0.00141103 0.000100947 2.39346e-05
0.000100947 0.000359298 6.201e-07
2.39346e-05 6.201e-07 0.000304387
0.00107652 0.000107077 3.47712e-07
0.000107077 1.07849e-05 -2.4273e-07
3.47712e-07 -2.4273e-07 -9.55e-05
0.00064455 -4.00053e-05 -4.33385e-07
-4.00053e-05 -1.54677e-05 1.49546e-07
-4.33385e-07 1.49546e-07 -5.23519e-05
0.000933304 0.00010657 2.66568e-07
0.00010657 3.85655e-05 4.96045e-07
2.66568e-07 4.96045e-07 -6.05221e-05
0.000831871 7.12352e-05 3.25075e-07
7.12352e-05 5.63189e-05 -2.42798e-07
3.25075e-07 -2.42798e-07 -3.56636e-05
0.000808343 0.000118899 -6.62461e-08
0.000118899 -2.53686e-05 -4.57347e-08
-6.62461e-08 -4.57347e-08 -0.000144668
0.000640419 -5.25226e-05 2.44879e-06
-5.25226e-05 -1.47711e-05 5.30148e-06
2.44879e-06 5.30148e-06 -4.60226e-05
0.000695472 -5.6443e-05 6.63615e-07
-5.6443e-05 1.13616e-06 4.03794e-06
6.63615e-07 4.03794e-06 -1.72298e-05
0.000685443 -8.71643e-06 2.05393e-06
-8.71643e-06 -4.36457e-06 2.51311e-06
2.05393e-06 2.51311e-06 -6.55932e-05
0.00111038 8.99424e-05 9.75482e-06
8.99424e-05 -3.36589e-06 3.34279e-06
9.75482e-06 3.34279e-06 -0.000107801
0.00103828 0.000113678 7.67286e-06
0.000113678 4.28483e-05 4.23011e-06
7.67286e-06 4.23011e-06 -6.1716e-05
0.00130067 0.000132133 5.34383e-06
0.000132133 5.244e-05 2.11121e-06
5.34383e-06 2.11121e-06 -7.73162e-05
0.000862545 5.23422e-05 3.2509e-06
5.23422e-05 8.53631e-05 2.5937e-06
3.2509e-06 2.5937e-06 4.82504e-07
0.000906934 0.00012624 1.60501e-06
0.00012624 -2.78876e-05 1.39738e-06
1.60501e-06 1.39738e-06 -0.000149567
0.00110078 0.000131828 1.94424e-06
0.000131828 0.000180937 3.83578e-07
1.94424e-06 3.83578e-07 6.02497e-05
0.00105416 0.000143005 -2.02311e-06
0.000143005 9.76371e-05 -1.60878e-06
-2.02311e-06 -1.60878e-06 -3.256e-05
0.00216017 -6.63137e-05 3.21897e-05
-6.63137e-05 0.000810182 2.98924e-06
3.21897e-05 2.98924e-06 0.00082186
0.00223919 -7.45622e-05 1.03961e-06
-7.45622e-05 0.000861696 -1.14857e-07
1.03961e-06 -1.14857e-07 0.000870727
0.00234924 -8.34562e-05 -3.73828e-05
-8.34562e-05 0.000929691 -2.63902e-06
-3.73828e-05 -2.63902e-06 0.000935829
0.000585591 5.93651e-05 1.15238e-06
5.93651e-05 -5.46206e-05 -4.8795e-06
1.15238e-06 -4.8795e-06 -8.2382e-05
0.00281183 9.53697e-05 5.02469e-05
9.53697e-05 0.00118037 -2.73495e-06
5.02469e-05 -2.73495e-06 0.00118336
0.00500388 7.0936e-05 -0.000139904
7.0936e-05 0.00237694 -6.84873e-06
-0.000139904 -6.84873e-06 0.00237327
0.00495745 -2.47419e-05 -0.000127651
-2.47419e-05 0.00235149 -3.1702e-06
-0.000127651 -3.1702e-06 0.00234859
0.000735261 4.66989e-05 -1.50467e-05
4.66989e-05 -6.58721e-05 -3.92363e-06
-1.50467e-05 -3.92363e-06 -0.000124569
0.000712414 1.68863e-05 -1.52483e-05
1.68863e-05 -9.01521e-05 -2.33952e-06
-1.52483e-05 -2.33952e-06 -0.000151045
0.0051446 -6.01534e-05 -0.000132815
-6.01534e-05 0.00245092 -4.68303e-07
-0.000132815 -4.68303e-07 0.00244708
0.00519878 1.43595e-06 -1.15256e-06
1.43595e-06 0.00247779 4.7133e-07
-1.15256e-06 4.7133e-07 0.00247467
0.000710872 -3.43987e-06 -1.61582e-07
-3.43987e-06 -9.90516e-05 -2.521e-07
-1.61582e-07 -2.521e-07 -0.000160376
0.00161596 1.53851e-05 3.00742e-05
1.53851e-05 0.00041145 5.6695e-07
3.00742e-05 5.6695e-07 0.000359453
0.00120247 2.60178e-05 1.66725e-07
2.60178e-05 1.45223e-05 -1.38938e-07
1.66725e-07 -1.38938e-07 -8.83712e-05
0.00067611 4.94763e-05 2.40248e-07
4.94763e-05 -9.66196e-05 -1.28453e-07
2.40248e-07 -1.28453e-07 -0.000155323
0.0011699 5.86762e-05 -1.30096e-07
5.86762e-05 1.60453e-05 3.49308e-08
-1.30096e-07 3.49308e-08 -8.45267e-05
0.000702437 -1.30471e-05 1.54117e-05
-1.30471e-05 -0.000105318 -3.35434e-07
1.54117e-05 -3.35434e-07 -0.000166888
0.00121238 9.45039e-06 1.03639e-05
9.45039e-06 9.86591e-06 5.01757e-07
1.03639e-05 5.01757e-07 -9.44105e-05
0.00118243 3.94425e-05 9.98784e-06
3.94425e-05 1.5983e-05 2.11858e-06
9.98784e-06 2.11858e-06 -8.49811e-05
0.0014586 2.79695e-05 4.42236e-06
2.79695e-05 6.81143e-05 8.87507e-07
4.42236e-06 8.87507e-07 -5.06876e-05
0.00115056 7.23099e-05 9.86658e-06
7.23099e-05 7.04664e-06 2.60251e-06
9.86658e-06 2.60251e-06 -9.46451e-05
0.00145819 6.76189e-05 4.34977e-06
6.76189e-05 8.69735e-05 1.19043e-06
4.34977e-06 1.19043e-06 -3.01623e-05
0.00517993 -4.17178e-05 -0.000144102
-4.17178e-05 0.00246944 -5.92761e-07
-0.000144102 -5.92761e-07 0.00246521
0.00129074 -3.33925e-05 -1.60481e-05
-3.33925e-05 0.000348686 1.41016e-06
-1.60481e-05 1.41016e-06 0.000319391
-0.000104387 -5.02556e-07 -1.35559e-05
-5.02556e-07 -0.000538214 2.28058e-06
-1.35559e-05 2.28058e-06 -0.000605238
0.00157341 -2.70936e-05 -6.33403e-05
-2.70936e-05 0.000399161 3.53332e-06
-6.33403e-05 3.53332e-06 0.000350458
0.00300745 0.000139572 -1.6502e-05
0.000139572 0.00131202 1.34937e-06
-1.6502e-05 1.34937e-06 0.00130065
0.00184153 -2.76326e-05 -4.14463e-05
-2.76326e-05 0.000633365 5.72545e-06
-4.14463e-05 5.72545e-06 0.000592669
0.00154762 -5.51802e-05 -6.116e-05
-5.51802e-05 0.000397295 6.44735e-06
-6.116e-05 6.44735e-06 0.000347394
0.00157922 -8.10378e-05 -1.86133e-05
-8.10378e-05 0.000257293 3.5048e-06
-1.86133e-05 3.5048e-06 0.000163884
0.00197138 -0.000133897 -1.44961e-05
-0.000133897 0.000522527 4.83662e-06
-1.44961e-05 4.83662e-06 0.000424884
0.00189577 -0.000146075 -1.15439e-05
-0.000146075 0.000575135 5.13611e-06
-1.15439e-05 5.13611e-06 0.000475752
0.00118276 -0.000132436 -4.03271e-06
-0.000132436 6.72181e-05 1.55872e-06
-4.03271e-06 1.55872e-06 -5.72013e-05
0.000702653 7.22586e-06 3.96546e-08
7.22586e-06 -0.00010141 -2.39265e-07
3.96546e-08 -2.39265e-07 -0.0001622
0.00152871 -2.58295e-05 -2.11701e-05
-2.58295e-05 0.000369679 9.89135e-08
-2.11701e-05 9.89135e-08 0.000316519
0.00120462 -1.37977e-05 -3.97805e-06
-1.37977e-05 2.16957e-05 1.91168e-07
-3.97805e-06 1.91168e-07 -7.80376e-05
0.00179406 -6.93168e-05 -2.74211e-06
-6.93168e-05 0.000370967 3.62387e-07
-2.74211e-06 3.62387e-07 0.000278841
0.00301671 0.000103393 -1.13806e-06
0.000103393 0.00129771 -2.3532e-07
-1.13806e-06 -2.3532e-07 0.00129755
0.00115597 1.85928e-05 2.20206e-06
1.85928e-05 0.000263462 3.53703e-07
2.20206e-06 3.53703e-07 0.000222708
0.00115188 -9.63424e-05 4.19728e-07
-9.63424e-05 0.00022049 -2.43479e-07
4.19728e-07 -2.43479e-07 0.000129886
0.00155045 -0.000102869 -3.04495e-06
-0.000102869 0.000256904 5.69287e-07
-3.04495e-06 5.69287e-07 0.000160112
0.00147667 -9.34188e-05 -2.19669e-06
-9.34188e-05 0.00011417 6.33298e-07
-2.19669e-06 6.33298e-07 1.12494e-06
0.00101083 -0.000131894 -5.74443e-07
-0.000131894 3.86153e-05 -1.82526e-07
-5.74443e-07 -1.82526e-07 -8.81825e-05
0.00152188 -0.000134652 4.11869e-08
-0.000134652 0.000198051 -2.93819e-07
4.11869e-08 -2.93819e-07 7.70213e-05
0.00134431 -0.000149585 3.68159e-08
-0.000149585 0.000100654 -9.95235e-08
3.68159e-08 -9.95235e-08 -3.556e-05
0.000583456 5.6286e-05 -8.56001e-07
5.6286e-05 -5.03108e-05 3.91563e-08
-8.56001e-07 3.91563e-08 -8.36331e-05
0.000707346 2.03792e-05 -1.72872e-07
2.03792e-05 -5.40389e-06 1.90812e-07
-1.72872e-07 1.90812e-07 -6.96954e-05
0.00119704 -7.20633e-06 1.01351e-05
-7.20633e-06 2.95751e-06 -1.42717e-06
1.01351e-05 -1.42717e-06 -0.000100609
0.00158385 -3.66047e-05 9.55363e-06
-3.66047e-05 0.000240341 -1.58321e-06
9.55363e-06 -1.58321e-06 0.000145071
0.00186182 -2.14265e-05 3.2268e-06
-2.14265e-05 0.00029455 -4.15734e-07
3.2268e-06 -4.15734e-07 0.000182044
0.00118155 -6.56997e-05 4.95802e-06
-6.56997e-05 -5.28051e-05 -1.54413e-06
4.95802e-06 -1.54413e-06 -0.000167874
0.00163574 -0.000124717 4.3587e-06
-0.000124717 0.000219244 -8.84702e-07
4.3587e-06 -8.84702e-07 0.000102514
0.00170463 -9.91525e-05 6.89825e-07
-9.91525e-05 0.000187574 2.52181e-08
6.89825e-07 2.52181e-08 7.20107e-05
0.000535195 4.78846e-05 2.30901e-06
4.78846e-05 -7.58534e-05 -5.96854e-06
2.30901e-06 -5.96854e-06 -0.000113934
0.0014906 -0.0001407 2.08892e-06
-0.0001407 0.000118699 -7.26954e-07
2.08892e-06 -7.26954e-07 -1.05591e-05
0.000657942 -4.94313e-05 2.26901e-06
-4.94313e-05 -2.89681e-05 -1.52905e-06
2.26901e-06 -1.52905e-06 -0.000113793
0.000530372 -0.000102917 2.67301e-06
-0.000102917 -0.000153385 -2.69409e-06
2.67301e-06 -2.69409e-06 -0.000273059
0.0018809 -0.000190958 1.48846e-06
-0.000190958 0.000464844 -6.79513e-07
1.48846e-06 -6.79513e-07 0.000320776
0.00159495 -0.000166009 -6.32131e-07
-0.000166009 0.000187069 7.78329e-07
-6.32131e-07 7.78329e-07 4.98523e-05
0.000790844 -9.73447e-06 1.43887e-06
-9.73447e-06 4.60066e-05 -2.86865e-06
1.43887e-06 -2.86865e-06 -3.02808e-05
0.00071714 3.38761e-05 1.0801e-06
3.38761e-05 -1.68528e-06 -2.15312e-06
1.0801e-06 -2.15312e-06 -5.73449e-05
0.000831868 -3.95691e-05 2.61737e-07
-3.95691e-05 6.70067e-05 -7.47851e-07
2.61737e-07 -7.47851e-07 -2.72275e-05
0.000646147 7.20335e-05 -1.42485e-05
7.20335e-05 -0.000102978 -6.69445e-06
-1.42485e-05 -6.69445e-06 -0.000164134
0.0026263 -9.42211e-05 -4.57566e-05
-9.42211e-05 0.00108613 -2.51804e-06
-4.57566e-05 -2.51804e-06 0.00108904
0.000589068 -5.82224e-05 -1.3043e-06
-5.82224e-05 -4.75615e-05 -4.25911e-06
-1.3043e-06 -4.25911e-06 -7.12059e-05
0.000522925 9.16348e-05 -1.3276e-05
9.16348e-05 -0.000121544 -8.7086e-06
-1.3276e-05 -8.7086e-06 -0.000181866
0.00108246 0.000108918 -9.22063e-06
0.000108918 1.44979e-05 -4.62414e-06
-9.22063e-06 -4.62414e-06 -9.19826e-05
0.000529928 -5.23199e-05 -1.55302e-06
-5.23199e-05 -7.40661e-05 -6.1616e-06
-1.55302e-06 -6.1616e-06 -0.000112517
0.00072718 6.42927e-05 -2.84618e-06
6.42927e-05 -1.27785e-06 -2.4769e-06
-2.84618e-06 -2.4769e-06 -9.15981e-05
0.000874922 0.000102255 -5.1682e-06
0.000102255 7.99393e-06 -2.66116e-06
-5.1682e-06 -2.66116e-06 -9.04741e-05
0.000747542 0.000115468 -2.79574e-06
0.000115468 -5.98927e-05 -4.25248e-07
-2.79574e-06 -4.25248e-07 -0.000179544
0.000591037 -6.19326e-05 1.5817e-06
-6.19326e-05 -4.0496e-05 3.21155e-09
1.5817e-06 3.21155e-09 -7.23122e-05
0.000662435 -5.2353e-05 -1.7088e-07
-5.2353e-05 -1.76898e-05 1.2322e-07
-1.7088e-07 1.2322e-07 -3.51944e-05
0.000697314 -3.9433e-05 3.10602e-07
-3.9433e-05 -1.24975e-06 2.84146e-07
3.10602e-07 2.84146e-07 -5.93364e-05
0.00112779 9.219e-05 2.08378e-07
9.219e-05 6.60202e-06 -2.83258e-07
2.08378e-07 -2.83258e-07 -9.82258e-05
0.00100642 0.000112428 5.49903e-07
0.000112428 2.72709e-05 -1.36816e-07
5.49903e-07 -1.36816e-07 -7.70654e-05
0.00133859 0.000134888 3.17601e-07
0.000134888 7.26014e-05 5.92974e-08
3.17601e-07 5.92974e-08 -5.75687e-05
0.000801603 4.61886e-05 3.50802e-08
4.61886e-05 5.48108e-05 -2.59118e-08
3.50802e-08 -2.59118e-08 -2.9854e-05
0.00108938 0.000136238 -1.77817e-07
0.000136238 7.1501e-05 -1.37564e-07
-1.77817e-07 -1.37564e-07 -5.07811e-05
0.00102414 0.000126477 3.2493e-07
0.000126477 0.000139678 -4.39603e-07
3.2493e-07 -4.39603e-07 1.9461e-05
0.000963821 0.000139778 -8.15838e-07
0.000139778 4.80312e-05 7.6476e-07
-8.15838e-07 7.6476e-07 -8.2421e-05
0.000705712 -4.67791e-05 1.97159e-06
-4.67791e-05 -4.87739e-06 3.42889e-06
1.97159e-06 3.42889e-06 -1.78696e-05
0.000729395 1.85087e-05 2.33957e-06
1.85087e-05 1.41597e-05 2.23631e-06
2.33957e-06 2.23631e-06 -5.75503e-05
0.000693352 -5.26635e-05 2.11296e-08
-5.26635e-05 -6.61735e-06 2.21083e-06
2.11296e-08 2.21083e-06 -5.414e-05
0.000825627 2.7443e-05 4.02766e-07
2.7443e-05 7.23867e-05 7.09595e-07
4.02766e-07 7.09595e-07 -1.46718e-05
0.00135609 0.000110007 6.01347e-06
0.000110007 4.69032e-05 1.26778e-06
6.01347e-06 1.26778e-06 -7.80922e-05
0.001257 0.000143935 4.07887e-06
0.000143935 9.5552e-05 2.95702e-06
4.07887e-06 2.95702e-06 -3.35231e-05
0.00151212 0.000148043 2.90932e-06
0.000148043 0.00010888 1.53689e-06
2.90932e-06 1.53689e-06 -3.03725e-05
0.00109321 0.000100762 2.05499e-06
0.000100762 0.000199651 1.61411e-06
2.05499e-06 1.61411e-06 8.99924e-05
0.00129717 0.000157945 -7.78974e-07
0.000157945 0.000151288 1.07925e-06
-7.78974e-07 1.07925e-06 1.93786e-05
0.000951234 0.000136008 -1.18357e-07
0.000136008 9.79511e-05 -1.88145e-06
-1.18357e-07 -1.88145e-06 -4.30726e-05
0.000820664 0.000135768 -4.70318e-07
0.000135768 -5.56214e-05 -9.80965e-07
-4.70318e-07 -9.80965e-07 -0.000189342
0.000762588 -2.47652e-05 1.28542e-06
-2.47652e-05 4.22581e-06 1.61136e-06
1.28542e-06 1.61136e-06 -2.71988e-05
0.000705245 -3.55249e-05 1.46687e-06
-3.55249e-05 -2.17746e-05 3.33154e-06
1.46687e-06 3.33154e-06 -2.90933e-05
0.00209173 -5.85487e-05 2.77726e-05
-5.85487e-05 0.000763302 3.24385e-06
2.77726e-05 3.24385e-06 0.000777498
0.00212699 -6.59507e-05 1.26713e-06
-6.59507e-05 0.000790767 -1.13861e-07
1.26713e-06 -1.13861e-07 0.000802728
0.00217642 -7.35121e-05 -3.29889e-05
-7.35121e-05 0.000826454 -2.83763e-06
-3.29889e-05 -2.83763e-06 0.000835914
0.00062796 4.81971e-05 2.09914e-06
4.81971e-05 -4.16126e-05 -4.24106e-06
2.09914e-06 -4.24106e-06 -6.35714e-05
0.00262688 8.63386e-05 4.32496e-05
8.63386e-05 0.00107524 -2.94832e-06
4.32496e-05 -2.94832e-06 0.00108066
0.000616028 6.42902e-05 -3.00701e-07
6.42902e-05 -3.58232e-05 7.39033e-08
-3.00701e-07 7.39033e-08 -6.49482e-05
0.00284653 9.35101e-05 -1.32205e-06
9.35101e-05 0.00119884 -1.682e-07
-1.32205e-06 -1.682e-07 0.001202
0.000701139 5.72174e-05 -1.46976e-05
5.72174e-05 -8.25516e-05 -5.1063e-06
-1.46976e-05 -5.1063e-06 -0.00014195
0.000709077 2.98404e-05 -1.4812e-05
2.98404e-05 -8.38715e-05 -3.22202e-06
-1.4812e-05 -3.22202e-06 -0.000143627
0.0011597 5.99269e-05 -9.64469e-06
5.99269e-05 1.11681e-05 -2.26487e-06
-9.64469e-06 -2.26487e-06 -8.9629e-05
0.00120059 2.7941e-05 -1.02034e-05
2.7941e-05 1.38987e-05 -1.81264e-06
-1.02034e-05 -1.81264e-06 -8.90557e-05
0.000729044 7.10216e-07 -1.55818e-05
7.10216e-07 -8.93167e-05 -1.19996e-06
-1.55818e-05 -1.19996e-06 -0.00015035
0.00521721 -7.19612e-05 -0.00014117
-7.19612e-05 0.00248923 1.11621e-06
-0.00014117 1.11621e-06 0.00248526
0.000723591 -1.5793e-06 1.032e-07
-1.5793e-06 -9.45911e-05 -2.88137e-07
1.032e-07 -2.88137e-07 -0.00015593
0.0012171 1.36851e-05 1.77259e-08
1.36851e-05 1.26526e-05 -2.8563e-07
1.77259e-08 -2.8563e-07 -9.16606e-05
0.00117846 4.02569e-05 7.67877e-09
4.02569e-05 1.44901e-05 -6.06826e-08
7.67877e-09 -6.06826e-08 -8.66042e-05
0.00146877 2.77808e-05 2.87701e-08
2.77808e-05 7.32163e-05 -3.43074e-08
2.87701e-08 -3.43074e-08 -4.56313e-05
0.00115639 7.49401e-05 -1.56096e-08
7.49401e-05 1.07698e-05 -1.76593e-07
-1.56096e-08 -1.76593e-07 -9.13926e-05
0.00144539 6.96398e-05 -4.55292e-08
6.96398e-05 8.05163e-05 1.58564e-07
-4.55292e-08 1.58564e-07 -3.68581e-05
0.00122325 -6.95779e-07 1.03251e-05
-6.95779e-07 1.37026e-05 -2.8156e-07
1.03251e-05 -2.8156e-07 -9.06595e-05
0.0014859 1.76603e-05 4.39101e-06
1.76603e-05 7.2344e-05 2.81374e-07
4.39101e-06 2.81374e-07 -4.75541e-05
0.00145923 4.79563e-05 4.44188e-06
4.79563e-05 8.15783e-05 1.0375e-06
4.44188e-06 1.0375e-06 -3.61966e-05
0.00159591 2.82645e-05 9.52163e-07
2.82645e-05 9.0682e-05 3.13605e-07
9.52163e-07 3.13605e-07 -2.73548e-05
0.0014133 8.84962e-05 4.59646e-06
8.84962e-05 6.51187e-05 8.25438e-07
4.59646e-06 8.25438e-07 -5.44279e-05
0.00157714 7.37443e-05 9.99171e-07
7.37443e-05 0.000103033 3.16108e-07
9.99171e-07 3.16108e-07 -1.71516e-05
0.000710908 1.0516e-05 -1.48051e-05
1.0516e-05 -9.80056e-05 6.65224e-07
-1.48051e-05 6.65224e-07 -0.000158841
0.00159566 -9.5525e-06 -6.55234e-05
-9.5525e-06 0.000403385 2.54867e-06
-6.55234e-05 2.54867e-06 0.000352788
0.000777784 -1.02919e-05 -1.07532e-05
-1.02919e-05 -0.000211763 1.73709e-06
-1.07532e-05 1.73709e-06 -0.000314572
0.00203226 -7.07836e-05 -1.63251e-05
-7.07836e-05 0.000499317 2.71939e-06
-1.63251e-05 2.71939e-06 0.00040901
0.00303528 0.000100119 -6.49349e-05
0.000100119 0.00130844 2.81987e-06
-6.49349e-05 2.81987e-06 0.00130846
0.00178091 1.48911e-05 -3.45715e-05
1.48911e-05 0.00060432 4.05466e-06
-3.45715e-05 4.05466e-06 0.000567734
0.00167148 -0.000119412 -7.72416e-06
-0.000119412 0.000499586 3.25769e-06
-7.72416e-06 3.25769e-06 0.000407985
0.0015429 -0.000101512 -1.58146e-05
-0.000101512 0.000253857 4.06266e-06
-1.58146e-05 4.06266e-06 0.000157018
0.00117586 -8.46836e-05 -6.12934e-06
-8.46836e-05 -5.22908e-05 1.46532e-06
-6.12934e-06 1.46532e-06 -0.000166437
0.00174329 -0.000141307 -5.70674e-06
-0.000141307 0.000319467 1.54595e-06
-5.70674e-06 1.54595e-06 0.000199478
0.000706247 -0.00011461 -3.40172e-06
-0.00011461 -0.000123934 1.53545e-06
-3.40172e-06 1.53545e-06 -0.000249397
0.00131075 -0.000147219 -1.6684e-06
-0.000147219 8.30498e-05 6.49811e-07
-1.6684e-06 6.49811e-07 -5.27366e-05
0.000620342 5.09843e-05 -2.6781e-06
5.09843e-05 -2.95974e-05 5.51209e-06
-2.6781e-06 5.51209e-06 -6.32489e-05
0.000695891 5.74795e-06 -1.71048e-06
5.74795e-06 -1.23941e-05 2.54928e-06
-1.71048e-06 2.54928e-06 -7.72606e-05
0.00100542 -3.21288e-06 -4.73565e-07
-3.21288e-06 -0.000100553 -3.2782e-07
-4.73565e-07 -3.2782e-07 -0.000205288
0.00160457 -3.84171e-05 -3.26372e-06
-3.84171e-05 0.000251087 2.37805e-07
-3.26372e-06 2.37805e-07 0.000155724
0.00176923 -1.81394e-05 -2.15169e-06
-1.81394e-05 0.00024193 5.49104e-07
-2.15169e-06 5.49104e-07 0.000128909
0.00153897 -7.16483e-05 1.07282e-06
-7.16483e-05 0.000141506 -3.5772e-07
1.07282e-06 -3.5772e-07 2.84349e-05
0.000591024 3.74935e-05 1.63965e-07
3.74935e-05 -4.78485e-05 1.48312e-07
1.63965e-07 1.48312e-07 -8.51243e-05
0.000815489 -6.2562e-05 -2.02528e-07
-6.2562e-05 5.61057e-05 5.42585e-08
-2.02528e-07 5.42585e-08 -3.0374e-05
0.000701096 -0.000112562 1.03152e-06
-0.000112562 -5.85495e-05 -9.50955e-07
1.03152e-06 -9.50955e-07 -0.000177332
0.0017309 -0.000126147 -1.16457e-06
-0.000126147 0.000271334 3.03739e-07
-1.16457e-06 3.03739e-07 0.000154734
0.00156371 -9.40561e-05 -6.68796e-07
-9.40561e-05 0.000109012 5.33702e-07
-6.68796e-07 5.33702e-07 -6.30277e-06
0.00148863 -0.000169681 -1.37394e-06
-0.000169681 0.000251712 7.74312e-07
-1.37394e-06 7.74312e-07 0.000107747
0.00143703 -0.000137937 4.12038e-08
-0.000137937 9.08581e-05 -3.45694e-07
4.12038e-08 -3.45694e-07 -3.81101e-05
0.00143284 -0.000157879 3.90298e-07
-0.000157879 0.000100879 4.89819e-07
3.90298e-07 4.89819e-07 -3.53708e-05
0.00075046 -1.35214e-05 -2.17874e-07
-1.35214e-05 2.33351e-05 -1.36945e-07
-2.17874e-07 -1.36945e-07 -5.30196e-05
0.000765547 -1.15078e-05 -6.65292e-07
-1.15078e-05 2.5692e-05 -2.94795e-07
-6.65292e-07 -2.94795e-07 -6.41818e-05
0.000715667 2.54725e-05 4.66258e-07
2.54725e-05 -4.1014e-06 2.75347e-07
4.66258e-07 2.75347e-07 -5.92698e-05
0.00187458 -2.69785e-06 3.11157e-06
-2.69785e-06 0.000289196 -6.6163e-07
3.11157e-06 -6.6163e-07 0.000173752
0.00167474 -4.27355e-05 3.89053e-06
-4.27355e-05 0.000197458 -6.02495e-07
3.89053e-06 -6.02495e-07 8.372e-05
0.00177794 -1.78377e-05 1.00657e-06
-1.78377e-05 0.000195063 1.61828e-07
1.00657e-06 1.61828e-07 7.86428e-05
0.00156529 -6.73231e-05 1.01503e-06
-6.73231e-05 0.000102952 -1.07972e-06
1.01503e-06 -1.07972e-06 -1.3948e-05
0.00146938 -0.000121016 2.60136e-06
-0.000121016 6.77142e-05 1.53331e-07
2.60136e-06 1.53331e-07 -5.33278e-05
0.00170953 -9.14307e-05 -1.34988e-06
-9.14307e-05 0.000153521 5.63125e-07
-1.34988e-06 5.63125e-07 4.28288e-05
0.000743853 -3.37119e-05 2.19618e-06
-3.37119e-05 2.41258e-05 -1.98231e-06
2.19618e-06 -1.98231e-06 -5.93071e-05
0.00144351 -0.000140399 -7.32072e-07
-0.000140399 4.77505e-05 -1.17628e-07
-7.32072e-07 -1.17628e-07 -7.85022e-05
0.000884977 -0.000114877 1.08926e-06
-0.000114877 7.50949e-05 -3.9432e-07
1.08926e-06 -3.9432e-07 -3.37129e-05
0.000711414 -0.000128278 2.74854e-06
-0.000128278 -8.09306e-05 -3.33148e-06
2.74854e-06 -3.33148e-06 -0.000221623
0.00168763 -0.000189198 1.38654e-06
-0.000189198 0.000319816 7.01019e-07
1.38654e-06 7.01019e-07 0.000168174
0.0019401 -0.000184131 -4.04976e-06
-0.000184131 0.000337792 2.26046e-06
-4.04976e-06 2.26046e-06 0.000208095
0.000735566 2.25991e-05 1.3733e-06
2.25991e-05 2.99942e-06 -1.92165e-06
1.3733e-06 -1.92165e-06 -4.55561e-05
0.000853545 -6.21293e-05 1.10223e-06
-6.21293e-05 6.82912e-05 9.84849e-08
1.10223e-06 9.84849e-08 -2.58618e-05
0.000736601 3.93757e-06 3.46445e-07
3.93757e-06 1.37705e-05 -1.26897e-06
3.46445e-07 -1.26897e-06 -7.15373e-05
0.000960849 -0.000105043 -4.37026e-07
-0.000105043 0.000139241 1.14467e-06
-4.37026e-07 1.14467e-06 3.43826e-05
0.00114066 9.46402e-05 -1.01561e-05
9.46402e-05 1.41048e-05 -3.91448e-06
-1.01561e-05 -3.91448e-06 -9.11332e-05
0.000630366 -4.9295e-05 -2.14459e-06
-4.9295e-05 -3.55708e-05 -3.5504e-06
-2.14459e-06 -3.5504e-06 -5.24416e-05
0.000536379 -7.16162e-05 3.74668e-07
-7.16162e-05 -6.80045e-05 -5.45145e-06
3.74668e-07 -5.45145e-06 -0.000101179
0.000719986 -5.9496e-05 4.30221e-07
-5.9496e-05 1.36725e-05 -2.62862e-06
4.30221e-07 -2.62862e-06 -4.56731e-05
0.000964478 0.000110657 -6.57804e-06
0.000110657 6.51963e-06 -4.53558e-06
-6.57804e-06 -4.53558e-06 -9.75856e-05
0.0013488 0.00013616 -5.07224e-06
0.00013616 7.80962e-05 -2.08348e-06
-5.07224e-06 -2.08348e-06 -5.239e-05
0.000726175 3.84131e-05 -1.95859e-06
3.84131e-05 1.63078e-05 -2.24339e-06
-1.95859e-06 -2.24339e-06 -6.78935e-05
0.000965209 0.000122232 -2.38455e-06
0.000122232 0.000108204 -1.835e-06
-2.38455e-06 -1.835e-06 -1.1713e-05
0.0012632 0.000145877 -2.18987e-06
0.000145877 0.000166487 -1.62969e-06
-2.18987e-06 -1.62969e-06 4.36026e-05
0.00083071 0.000133971 -1.50365e-06
0.000133971 -2.45434e-05 1.03853e-06
-1.50365e-06 1.03853e-06 -0.000154969
0.000677526 -4.50975e-05 7.58335e-08
-4.50975e-05 -2.01966e-05 3.08784e-08
7.58335e-08 3.08784e-08 -3.29459e-05
0.00075098 1.30469e-05 1.30662e-07
1.30469e-05 3.04797e-05 -4.5721e-08
1.30662e-07 -4.5721e-08 -4.36329e-05
0.000705362 -5.52082e-05 -2.31571e-07
-5.52082e-05 -1.48817e-07 3.45566e-07
-2.31571e-07 3.45566e-07 -4.76465e-05
0.000830298 9.68714e-06 3.61774e-07
9.68714e-06 7.39993e-05 -2.25974e-07
3.61774e-07 -2.25974e-07 -1.16942e-05
0.00139579 0.000112084 1.05112e-06
0.000112084 6.73176e-05 1.5431e-08
1.05112e-06 1.5431e-08 -5.79198e-05
0.00120711 0.000142465 1.07653e-07
0.000142465 7.06079e-05 1.043e-07
1.07653e-07 1.043e-07 -5.84914e-05
0.00148413 0.000147046 4.69746e-08
0.000147046 9.53206e-05 4.39242e-07
4.69746e-08 4.39242e-07 -4.40898e-05
0.000987461 9.95903e-05 3.44489e-07
9.95903e-05 0.000143237 3.84903e-07
3.44489e-07 3.84903e-07 3.48222e-05
0.0014736 0.000167482 -6.46417e-07
0.000167482 0.000247917 -1.60884e-06
-6.46417e-07 -1.60884e-06 0.000115513
0.00110922 0.000146281 3.41028e-07
0.000146281 0.000183812 -1.17944e-06
3.41028e-07 -1.17944e-06 4.16658e-05
0.000895522 0.000140056 -1.89872e-06
0.000140056 -1.21117e-05 -1.80753e-07
-1.89872e-06 -1.80753e-07 -0.000142265
0.000707046 -4.09789e-05 1.77114e-06
-4.09789e-05 -1.3197e-05 3.33694e-06
1.77114e-06 3.33694e-06 -2.29004e-05
0.000727976 -4.8042e-05 5.19306e-07
-4.8042e-05 3.51466e-06 1.77586e-06
5.19306e-07 1.77586e-06 -3.62385e-05
0.000973039 5.47901e-05 1.53048e-06
5.47901e-05 0.000144066 6.97743e-07
1.53048e-06 6.97743e-07 4.72297e-05
0.000791543 1.28665e-05 1.69373e-07
1.28665e-05 4.77893e-05 1.21022e-06
1.69373e-07 1.21022e-06 -2.47984e-05
0.000895477 7.93833e-05 5.93056e-07
7.93833e-05 0.00012193 -1.94673e-07
5.93056e-07 -1.94673e-07 1.89489e-05
0.00158375 0.000118148 3.54517e-06
0.000118148 0.000115896 5.6113e-08
3.54517e-06 5.6113e-08 -1.503e-05
0.0013865 0.000160463 7.64061e-07
0.000160463 0.000117866 3.54567e-06
7.64061e-07 3.54567e-06 -2.19748e-05
0.00168843 0.000161258 3.55468e-08
0.000161258 0.000170562 1.53929e-06
3.55468e-08 1.53929e-06 2.92981e-05
0.00109556 0.000137547 2.4775e-06
0.000137547 0.000210108 2.86861e-06
2.4775e-06 2.86861e-06 7.43345e-05
0.00129769 0.0001675 1.07267e-06
0.0001675 0.000129365 1.49947e-06
1.07267e-06 1.49947e-06 -4.81672e-06
0.000299203 0.000104393 1.35298e-06
0.000104393 -0.000286802 -2.30128e-06
1.35298e-06 -2.30128e-06 -0.00043621
0.00075847 -2.93411e-05 1.48663e-06
-2.93411e-05 5.81894e-06 1.50423e-06
1.48663e-06 1.50423e-06 -2.68658e-05
0.00078158 4.58494e-06 4.73976e-07
4.58494e-06 2.78873e-05 5.42096e-07
4.73976e-07 5.42096e-07 -2.43424e-05
0.000773696 -1.82706e-05 9.22209e-07
-1.82706e-05 6.86625e-06 1.74447e-06
9.22209e-07 1.74447e-06 -2.38513e-05
0.000765938 -2.3875e-05 1.32844e-07
-2.3875e-05 6.43834e-06 -6.14274e-09
1.32844e-07 -6.14274e-09 -2.50844e-05
0.00125413 -3.82506e-05 1.67121e-06
-3.82506e-05 0.000276505 2.03455e-06
1.67121e-06 2.03455e-06 0.000274037
0.000981569 -3.90726e-05 7.85051e-07
-3.90726e-05 0.000131715 -2.63524e-08
7.85051e-07 -2.63524e-08 0.000125931
0.000956218 -3.40997e-05 2.28536e-05
-3.40997e-05 0.000123295 6.12706e-06
2.28536e-05 6.12706e-06 0.00013395
0.00207377 -5.81775e-05 1.33072e-06
-5.81775e-05 0.000752139 -1.04572e-07
1.33072e-06 -1.04572e-07 0.000766604
0.00209605 -6.53616e-05 -2.92549e-05
-6.53616e-05 0.000772504 -3.07688e-06
-2.92549e-05 -3.07688e-06 0.000784807
0.000647678 4.18058e-05 2.07432e-06
4.18058e-05 -3.9393e-05 -3.97394e-06
2.07432e-06 -3.97394e-06 -5.74417e-05
0.0024918 7.77342e-05 3.77725e-05
7.77342e-05 0.000995072 -3.21653e-06
3.77725e-05 -3.21653e-06 0.00100286
0.000645601 5.17496e-05 4.01135e-08
5.17496e-05 -3.08933e-05 4.17966e-08
4.01135e-08 4.17966e-08 -5.36005e-05
0.00267299 8.55471e-05 -1.50203e-06
8.55471e-05 0.00109995 -1.46803e-07
-1.50203e-06 -1.46803e-07 0.00110549
0.000637402 5.93594e-05 -2.25194e-07
5.93594e-05 -2.50602e-05 5.34222e-06
-2.25194e-07 5.34222e-06 -5.3609e-05
0.00289401 9.16365e-05 -5.86685e-05
9.16365e-05 0.00122424 2.96368e-06
-5.86685e-05 2.96368e-06 0.00122757
0.00116771 7.76668e-05 -1.0062e-05
7.76668e-05 1.71627e-05 -2.88916e-06
-1.0062e-05 -2.88916e-06 -8.54228e-05
0.00118295 4.38959e-05 -9.72601e-06
4.38959e-05 1.75602e-05 -2.18621e-06
-9.72601e-06 -2.18621e-06 -8.37684e-05
0.00142247 6.78441e-05 -4.505e-06
6.78441e-05 6.87122e-05 -8.92368e-07
-4.505e-06 -8.92368e-07 -4.8687e-05
0.00148434 2.78814e-05 -4.6281e-06
2.78814e-05 8.1109e-05 -9.39239e-07
-4.6281e-06 -9.39239e-07 -3.77756e-05
0.00122124 1.6583e-05 -1.04558e-05
1.6583e-05 1.51577e-05 -1.10196e-06
-1.04558e-05 -1.10196e-06 -8.92154e-05
0.000712757 9.92062e-06 -1.53597e-05
9.92062e-06 -9.99296e-05 -2.48046e-07
-1.53597e-05 -2.48046e-07 -0.000161446
0.0012167 1.33862e-06 1.66617e-08
1.33862e-06 1.01326e-05 -1.28333e-07
1.66617e-08 -1.28333e-07 -9.42774e-05
0.00148275 1.94342e-05 -5.05075e-08
1.94342e-05 7.08582e-05 -2.07263e-07
-5.05075e-08 -2.07263e-07 -4.91002e-05
0.00145368 4.53459e-05 9.30161e-08
4.53459e-05 7.8885e-05 -8.06285e-08
9.30161e-08 -8.06285e-08 -3.88974e-05
0.00159517 2.88291e-05 -1.50115e-07
2.88291e-05 8.91351e-05 8.98494e-08
-1.50115e-07 8.98494e-08 -2.84246e-05
0.00142338 8.91145e-05 -1.86933e-07
8.91145e-05 6.97091e-05 1.98779e-08
-1.86933e-07 1.98779e-08 -4.98571e-05
0.00156826 7.29307e-05 -1.11536e-07
7.29307e-05 9.95569e-05 1.57121e-07
-1.11536e-07 1.57121e-07 -2.0729e-05
0.00148821 6.12174e-06 4.65436e-06
6.12174e-06 7.16377e-05 -1.50781e-07
4.65436e-06 -1.50781e-07 -4.84009e-05
0.00161276 2.27366e-05 3.31093e-07
2.27366e-05 7.94041e-05 3.22481e-07
3.31093e-07 3.22481e-07 -3.85344e-05
0.00155866 5.04212e-05 1.05811e-06
5.04212e-05 8.34042e-05 1.37343e-07
1.05811e-06 1.37343e-07 -3.56698e-05
0.00171471 3.34649e-05 -4.69577e-07
3.34649e-05 0.000108261 1.03218e-07
-4.69577e-07 1.03218e-07 -2.71641e-06
0.00162867 9.13041e-05 1.05164e-06
9.13041e-05 0.000132667 -1.90137e-07
1.05164e-06 -1.90137e-07 9.483e-06
0.00159921 6.94611e-05 -2.40788e-06
6.94611e-05 7.8773e-05 1.19864e-07
-2.40788e-06 1.19864e-07 -3.14797e-05
0.000805791 -1.13286e-06 -1.00848e-05
-1.13286e-06 -0.000208169 7.17049e-07
-1.00848e-05 7.17049e-07 -0.000314123
0.00163796 -4.19666e-05 -1.60214e-05
-4.19666e-05 0.000268616 2.23768e-06
-1.60214e-05 2.23768e-06 0.000173154
0.00166983 -1.14706e-05 -7.17648e-06
-1.14706e-05 0.0001858 1.19014e-06
-7.17648e-06 1.19014e-06 7.23443e-05
0.00189582 -7.77847e-05 -4.62177e-06
-7.77847e-05 0.000335522 1.08919e-06
-4.62177e-06 1.08919e-06 0.000224438
0.000646056 2.7486e-05 -4.90758e-06
2.7486e-05 -1.84756e-05 5.49231e-06
-4.90758e-06 5.49231e-06 -5.60551e-05
0.000902249 -6.93248e-05 -3.77028e-06
-6.93248e-05 0.000103796 2.17383e-06
-3.77028e-06 2.17383e-06 1.60051e-05
0.000882744 -0.000123173 -7.86125e-07
-0.000123173 4.20805e-05 5.5864e-07
-7.86125e-07 5.5864e-07 -7.59332e-05
0.00183538 -0.000127921 -6.5748e-06
-0.000127921 0.000328392 1.53706e-06
-6.5748e-06 1.53706e-06 0.000211909
0.00142661 -8.90146e-05 -1.72979e-06
-8.90146e-05 3.25023e-05 7.76575e-07
-1.72979e-06 7.76575e-07 -8.25698e-05
0.00138566 -0.000135287 -2.27809e-06
-0.000135287 6.42467e-05 1.24567e-07
-2.27809e-06 1.24567e-07 -6.44488e-05
0.00109393 -0.000148329 -2.57708e-06
-0.000148329 3.72363e-05 1.80663e-06
-2.57708e-06 1.80663e-06 -0.000106617
0.00126581 -0.000149384 1.39329e-06
-0.000149384 1.179e-05 -2.44449e-07
1.39329e-06 -2.44449e-07 -0.000123407
0.000711354 -1.61715e-05 -2.41059e-06
-1.61715e-05 -1.77928e-07 2.296e-06
-2.41059e-06 2.296e-06 -7.55705e-05
0.000734118 -3.2505e-06 -1.12587e-06
-3.2505e-06 8.22552e-06 1.62205e-07
-1.12587e-06 1.62205e-07 -8.10907e-05
0.000712863 1.85255e-05 -9.57515e-07
1.85255e-05 -6.84352e-06 2.30119e-06
-9.57515e-07 2.30119e-06 -6.17759e-05
0.00167841 -1.53143e-06 -2.21708e-06
-1.53143e-06 0.000180826 1.06804e-07
-2.21708e-06 1.06804e-07 6.35364e-05
0.00167085 -4.75821e-05 -1.2601e-06
-4.75821e-05 0.000195457 1.65612e-07
-1.2601e-06 1.65612e-07 8.14125e-05
0.00164253 -1.47028e-05 -7.5632e-07
-1.47028e-05 0.000119339 3.03141e-07
-7.5632e-07 3.03141e-07 3.01504e-06
0.00168205 -6.67279e-05 -1.87018e-07
-6.67279e-05 0.000164672 -2.6443e-07
-1.87018e-07 -2.6443e-07 4.82306e-05
0.000778776 -3.9899e-05 4.06921e-08
-3.9899e-05 4.16377e-05 -2.10308e-07
4.06921e-08 -2.10308e-07 -4.17769e-05
0.000996625 -0.000122484 -2.94927e-07
-0.000122484 0.000133357 4.36282e-07
-2.94927e-07 4.36282e-07 2.35541e-05
0.000826286 -0.00013289 7.73403e-07
-0.00013289 -1.32533e-05 -1.41574e-06
7.73403e-07 -1.41574e-06 -0.000152168
0.00159905 -0.000124761 4.68843e-07
-0.000124761 0.000141194 -5.30464e-08
4.68843e-07 -5.30464e-08 2.01025e-05
0.0016411 -8.85948e-05 1.77104e-07
-8.85948e-05 0.000115179 4.35858e-07
1.77104e-07 4.35858e-07 5.45541e-06
0.00138816 -0.000173695 -2.57775e-07
-0.000173695 0.000161319 5.80256e-07
-2.57775e-07 5.80256e-07 9.20112e-06
0.0015314 -0.000142715 -2.53713e-07
-0.000142715 9.33575e-05 -3.33104e-07
-2.53713e-07 -3.33104e-07 -3.28725e-05
0.00172615 -0.000174183 1.23294e-06
-0.000174183 0.000220213 1.23918e-06
1.23294e-06 1.23918e-06 9.31298e-05
0.000916101 -6.79367e-05 -2.63326e-07
-6.79367e-05 0.000104576 -1.32958e-07
-2.63326e-07 -1.32958e-07 8.80899e-06
0.000936588 -0.000104277 -3.46492e-07
-0.000104277 0.000126791 3.90437e-07
-3.46492e-07 3.90437e-07 2.03857e-05
0.000737088 1.69877e-05 1.51858e-07
1.69877e-05 3.62343e-06 9.84655e-08
1.51858e-07 9.84655e-08 -4.49388e-05
0.00070206 2.27396e-05 -9.2684e-08
2.27396e-05 -9.28239e-06 -5.12785e-07
-9.2684e-08 -5.12785e-07 -9.02703e-05
0.00164309 -4.55939e-06 1.44594e-06
-4.55939e-06 0.000110011 -6.25734e-07
1.44594e-06 -6.25734e-07 -8.79851e-06
0.00184089 -4.2563e-05 7.12444e-07
-4.2563e-05 0.000234942 2.21156e-07
7.12444e-07 2.21156e-07 0.000118575
0.00172368 -2.46954e-05 1.38209e-07
-2.46954e-05 0.00011877 1.68332e-07
1.38209e-07 1.68332e-07 5.73394e-06
0.00163686 -6.59227e-05 -1.60937e-06
-6.59227e-05 0.000100519 -5.69877e-07
-1.60937e-06 -5.69877e-07 -7.58653e-06
0.00156157 -0.000117915 -8.92297e-07
-0.000117915 7.58099e-05 1.12272e-06
-8.92297e-07 1.12272e-06 -4.03698e-05
0.00168525 -8.59731e-05 9.13277e-08
-8.59731e-05 0.000107381 2.09274e-07
9.13277e-08 2.09274e-07 4.53436e-06
0.000873476 -0.000108987 1.14178e-06
-0.000108987 7.82949e-05 3.0986e-07
1.14178e-06 3.0986e-07 -2.25916e-05
0.00159621 -0.000147841 -4.57425e-06
-0.000147841 9.2807e-05 -4.34127e-07
-4.57425e-06 -4.34127e-07 -2.34858e-05
0.000560874 -0.000108439 -5.1885e-07
-0.000108439 -0.000101423 -2.31525e-06
-5.1885e-07 -2.31525e-06 -0.000226622
0.00124038 -0.000168639 2.55099e-06
-0.000168639 0.000178727 -2.10943e-06
2.55099e-06 -2.10943e-06 2.02297e-05
0.0015489 -0.000190295 2.86052e-07
-0.000190295 0.000213895 3.25452e-06
2.86052e-07 3.25452e-06 6.13218e-05
0.00210561 -0.000195138 -1.32553e-06
-0.000195138 0.000382455 4.18572e-07
-1.32553e-06 4.18572e-07 0.000259827
0.000744292 1.24011e-05 1.82292e-06
1.24011e-05 4.01603e-06 -1.90255e-06
1.82292e-06 -1.90255e-06 -4.04239e-05
0.000692874 9.84548e-06 2.87798e-07
9.84548e-06 -8.18306e-06 -1.18655e-06
2.87798e-07 -1.18655e-06 -8.71976e-05
0.000920212 -0.000121435 2.21562e-08
-0.000121435 0.000113133 1.41436e-06
2.21562e-08 1.41436e-06 4.16134e-06
0.000929422 -7.40259e-05 1.01662e-06
-7.40259e-05 0.000123252 9.36476e-08
1.01662e-06 9.36476e-08 2.62595e-05
0.000932837 -0.000122215 -9.7169e-07
-0.000122215 0.000126435 2.18957e-06
-9.7169e-07 2.18957e-06 1.47953e-05
0.000651417 -4.37015e-05 -2.05344e-06
-4.37015e-05 -3.42864e-05 -3.39918e-06
-2.05344e-06 -3.39918e-06 -4.68407e-05
0.00143046 0.000114043 -4.00808e-06
0.000114043 8.51383e-05 -1.23786e-06
-4.00808e-06 -1.23786e-06 -4.03578e-05
0.000709747 -5.75283e-05 -4.80141e-07
-5.75283e-05 2.27183e-06 -1.7583e-06
-4.80141e-07 -1.7583e-06 -4.52676e-05
0.000778645 -4.73179e-06 -2.41422e-07
-4.73179e-06 4.45725e-05 -2.64831e-06
-2.41422e-07 -2.64831e-06 -2.78981e-05
0.000837083 -7.5902e-06 7.87761e-07
-7.5902e-06 7.6515e-05 -9.08011e-07
7.87761e-07 -9.08011e-07 -7.6265e-06
0.00120646 0.000143409 -4.00082e-06
0.000143409 7.16491e-05 -2.81262e-06
-4.00082e-06 -2.81262e-06 -5.76218e-05
0.00145103 0.000145895 -2.24632e-06
0.000145895 7.92456e-05 -5.52646e-07
-2.24632e-06 -5.52646e-07 -6.03458e-05
0.000885758 0.000108789 -1.37934e-06
0.000108789 9.13762e-05 -8.03955e-07
-1.37934e-06 -8.03955e-07 -1.78227e-05
0.00126378 0.000156407 -1.82444e-06
0.000156407 0.000267878 -1.24956e-06
-1.82444e-06 -1.24956e-06 0.000124295
0.0016596 0.000177467 -1.3189e-06
0.000177467 0.000349588 -3.37053e-06
-1.3189e-06 -3.37053e-06 0.000216666
0.00103479 0.000147831 -3.35424e-06
0.000147831 6.64185e-05 1.56618e-06
-3.35424e-06 1.56618e-06 -6.05861e-05
0.000685898 -3.98761e-05 6.66486e-08
-3.98761e-05 -2.46592e-05 2.10714e-08
6.66486e-08 2.10714e-08 -3.42379e-05
0.000732782 -4.76193e-05 -2.57114e-07
-4.76193e-05 5.9328e-06 1.08755e-07
-2.57114e-07 1.08755e-07 -3.36642e-05
0.000920244 5.94179e-05 5.79727e-07
5.94179e-05 0.000116275 -6.17167e-08
5.79727e-07 -6.17167e-08 1.92612e-05
0.000793896 -1.7117e-05 -2.24328e-07
-1.7117e-05 4.74799e-05 1.65703e-07
-2.24328e-07 1.65703e-07 -2.33753e-05
0.000830766 5.77945e-05 6.48564e-07
5.77945e-05 8.37668e-05 -2.38911e-07
6.48564e-07 -2.38911e-07 -1.80551e-05
0.00152717 0.000116937 1.38655e-06
0.000116937 8.54988e-05 6.45261e-08
1.38655e-06 6.45261e-08 -4.56923e-05
0.00135158 0.000159651 -1.83714e-07
0.000159651 0.000100792 9.3279e-07
-1.83714e-07 9.3279e-07 -3.91321e-05
0.00157998 0.000158042 1.08271e-06
0.000158042 0.000114298 1.02011e-06
1.08271e-06 1.02011e-06 -2.7441e-05
0.0010143 0.000132127 1.13197e-06
0.000132127 0.000169092 1.21027e-06
1.13197e-06 1.21027e-06 3.39387e-05
0.00146697 0.000175629 1.17781e-06
0.000175629 0.000221238 -1.52557e-06
1.17781e-06 -1.52557e-06 8.69403e-05
0.000769523 0.000133251 -1.82699e-06
0.000133251 -3.56272e-05 -1.01364e-06
-1.82699e-06 -1.01364e-06 -0.000187624
0.00075116 -3.64291e-05 1.37304e-06
-3.64291e-05 7.87981e-06 1.52533e-06
1.37304e-06 1.52533e-06 -2.72017e-05
0.000797822 4.02452e-06 4.27866e-07
4.02452e-06 4.12442e-05 9.97742e-07
4.27866e-07 9.97742e-07 -1.79725e-05
0.00104072 0.000125544 -2.218e-07
0.000125544 0.000192228 -2.88184e-07
-2.218e-07 -2.88184e-07 7.22679e-05
0.000849064 1.04554e-05 3.61451e-07
1.04554e-05 8.7755e-05 4.62818e-07
3.61451e-07 4.62818e-07 1.20401e-06
0.00107221 6.13566e-05 -8.73529e-07
6.13566e-05 0.000213055 -2.50379e-06
-8.73529e-07 -2.50379e-06 0.000102372
0.00156555 0.000113956 -1.50325e-06
0.000113956 7.76249e-05 -2.11881e-06
-1.50325e-06 -2.11881e-06 -5.13662e-05
0.00149131 0.000177332 4.61175e-07
0.000177332 0.000136365 3.48625e-06
4.61175e-07 3.48625e-06 -5.29042e-06
0.00144033 0.000166687 -3.65066e-06
0.000166687 1.36087e-05 -4.2178e-07
-3.65066e-06 -4.2178e-07 -0.000122217
0.000835825 0.00012764 -9.99098e-08
0.00012764 7.99416e-05 2.0643e-06
-9.99098e-08 2.0643e-06 -7.98063e-05
0.00125999 0.000178133 2.94944e-06
0.000178133 0.000135637 -7.84499e-08
2.94944e-06 -7.84499e-08 -1.54198e-05
0.000758166 -2.85065e-05 1.61274e-08
-2.85065e-05 6.10647e-06 -3.89967e-09
1.61274e-08 -3.89967e-09 -2.66369e-05
0.000659681 -1.50666e-05 1.01611e-06
-1.50666e-05 -4.17981e-05 1.04445e-06
1.01611e-06 1.04445e-06 -9.26721e-05
0.000722429 -2.38489e-05 -6.84403e-07
-2.38489e-05 -6.3759e-06 -5.39665e-08
-6.84403e-07 -5.39665e-08 -5.7679e-05
0.000968782 1.80988e-05 1.20057e-06
1.80988e-05 0.000140881 -3.43737e-07
1.20057e-06 -3.43737e-07 7.67761e-05
0.000808131 1.85735e-05 1.72332e-06
1.85735e-05 3.80682e-05 7.11688e-07
1.72332e-06 7.11688e-07 -1.27959e-05
0.000775644 -8.45813e-06 9.74126e-07
-8.45813e-06 5.24612e-06 1.72197e-06
9.74126e-07 1.72197e-06 -2.55313e-05
0.000773357 -1.87094e-05 -5.97552e-08
-1.87094e-05 6.89103e-06 9.94115e-09
-5.97552e-08 9.94115e-09 -2.38884e-05
0.00125597 -3.09556e-05 1.13121e-06
-3.09556e-05 0.000271344 2.06089e-06
1.13121e-06 2.06089e-06 0.000270458
0.000766523 -2.33124e-05 -1.1987e-06
-2.33124e-05 7.11132e-06 -1.73182e-06
-1.1987e-06 -1.73182e-06 -2.45104e-05
0.0012745 -3.61077e-05 -4.29113e-06
-3.61077e-05 0.000287163 -1.17205e-06
-4.29113e-06 -1.17205e-06 0.000285003
0.000951403 -2.86745e-05 1.99315e-05
-2.86745e-05 0.000111869 6.27441e-06
1.99315e-05 6.27441e-06 0.000124594
0.00126282 -4.03847e-05 -9.5938e-06
-4.03847e-05 0.000288034 -3.07892e-06
-9.5938e-06 -3.07892e-06 0.00028412
0.00147807 -4.23436e-05 1.81769e-05
-4.23436e-05 0.000413176 1.94771e-06
1.81769e-05 1.94771e-06 0.000426819
0.00205983 -5.76955e-05 -2.58785e-05
-5.76955e-05 0.000743179 -3.31628e-06
-2.58785e-05 -3.31628e-06 0.00075793
0.000661851 3.75507e-05 1.73298e-06
3.75507e-05 -3.91106e-05 -3.83818e-06
1.73298e-06 -3.83818e-06 -5.38448e-05
0.000664349 4.32587e-05 -1.20671e-07
4.32587e-05 -2.99358e-05 3.32512e-08
-1.20671e-07 3.32512e-08 -4.82836e-05
0.0023939 6.93392e-05 3.29068e-05
6.93392e-05 0.000933773 -3.47231e-06
3.29068e-05 -3.47231e-06 0.000943992
0.00254251 7.7874e-05 -1.47766e-06
7.7874e-05 0.00102305 -1.47041e-07
-1.47766e-06 -1.47041e-07 0.00103075
0.000665539 5.55878e-05 -3.37319e-07
5.55878e-05 -1.87177e-05 4.66476e-06
-3.37319e-07 4.66476e-06 -4.23202e-05
0.00271931 8.3836e-05 -5.10767e-05
8.3836e-05 0.00112469 3.01489e-06
-5.10767e-05 3.01489e-06 0.00113053
0.00143552 8.99059e-05 -4.8051e-06
8.99059e-05 7.53634e-05 -7.4025e-07
-4.8051e-06 -7.4025e-07 -4.42324e-05
0.00145224 4.61494e-05 -4.54528e-06
4.61494e-05 7.84196e-05 -1.21322e-06
-4.54528e-06 -1.21322e-06 -3.95783e-05
0.00155247 7.30493e-05 -1.05444e-06
7.30493e-05 9.25117e-05 2.60655e-09
-1.05444e-06 2.60655e-09 -2.7948e-05
0.00159149 2.93169e-05 -9.63205e-07
2.93169e-05 8.61629e-05 -1.5695e-07
-9.63205e-07 -1.5695e-07 -3.09216e-05
0.00148032 2.27257e-05 -4.39471e-06
2.27257e-05 6.97868e-05 -6.80755e-07
-4.39471e-06 -6.80755e-07 -5.02709e-05
0.00122297 6.23975e-06 -1.02859e-05
6.23975e-06 1.31765e-05 -5.15667e-08
-1.02859e-05 -5.15667e-08 -9.12054e-05
0.00148786 1.00554e-05 6.8604e-08
1.00554e-05 7.16029e-05 -9.89397e-08
6.8604e-08 -9.89397e-08 -4.85117e-05
0.00162167 1.31298e-05 -2.28374e-07
1.31298e-05 8.37164e-05 7.44888e-09
-2.28374e-07 7.44888e-09 -3.42854e-05
0.00157839 4.98274e-05 -4.10309e-08
4.98274e-05 9.50501e-05 -1.10625e-07
-4.10309e-08 -1.10625e-07 -2.39885e-05
0.00173883 3.53701e-05 2.47354e-07
3.53701e-05 0.000119856 2.60653e-07
2.47354e-07 2.60653e-07 1.02662e-05
0.00155096 9.03474e-05 -1.80199e-07
9.03474e-05 9.12781e-05 1.3545e-07
-1.80199e-07 1.3545e-07 -3.22357e-05
0.00160723 7.00089e-05 -8.4338e-08
7.00089e-05 8.16285e-05 5.3499e-07
-8.4338e-08 5.3499e-07 -2.76843e-05
0.00162048 1.59845e-07 1.18223e-06
1.59845e-07 8.56039e-05 1.55012e-08
1.18223e-06 1.55012e-08 -3.31038e-05
0.00177051 3.09877e-05 -3.33887e-07
3.09877e-05 0.000116174 4.29507e-07
-3.33887e-07 4.29507e-07 4.27176e-06
0.00159653 5.10823e-05 -1.86251e-06
5.10823e-05 5.65251e-05 -8.10941e-08
-1.86251e-06 -8.10941e-08 -5.14383e-05
0.0018195 4.15399e-05 -3.88233e-07
4.15399e-05 0.00013823 9.11833e-08
-3.88233e-07 9.11833e-08 3.58538e-05
0.00155354 8.25772e-05 -1.73272e-06
8.25772e-05 5.83234e-05 -1.27706e-06
-1.73272e-06 -1.27706e-06 -5.77699e-05
0.00188131 7.43982e-05 -6.51702e-07
7.43982e-05 0.000192791 5.29909e-08
-6.51702e-07 5.29909e-08 9.2851e-05
0.00147893 -8.51197e-07 -6.34482e-06
-8.51197e-07 7.0664e-05 8.47474e-07
-6.34482e-06 8.47474e-07 -4.84706e-05
0.00166357 -4.9254e-05 -6.37304e-06
-4.9254e-05 0.000191826 1.11929e-06
-6.37304e-06 1.11929e-06 7.75427e-05
0.00150884 -1.35771e-05 -2.01635e-06
-1.35771e-05 4.45439e-05 4.45008e-07
-2.01635e-06 4.45008e-07 -7.17325e-05
0.00180069 -6.67341e-05 -1.50764e-06
-6.67341e-05 0.000227471 5.68808e-07
-1.50764e-06 5.68808e-07 0.000111465
0.000821819 -4.69943e-05 -2.94645e-06
-4.69943e-05 6.32443e-05 1.95339e-06
-2.94645e-06 1.95339e-06 -2.00925e-05
0.00110956 -0.000130133 -1.76126e-06
-0.000130133 0.000192412 1.31284e-06
-1.76126e-06 1.31284e-06 8.15884e-05
0.000924207 -0.00013624 -8.02811e-07
-0.00013624 4.53179e-05 7.91963e-07
-8.02811e-07 7.91963e-07 -9.16677e-05
0.00172463 -0.000128309 -2.04499e-06
-0.000128309 0.000212433 -1.75621e-08
-2.04499e-06 -1.75621e-08 9.13153e-05
0.0015717 -8.58623e-05 9.66538e-07
-8.58623e-05 7.63928e-05 1.05898e-07
9.66538e-07 1.05898e-07 -3.23729e-05
0.0016163 -0.000144958 3.8306e-07
-0.000144958 0.000137272 -5.17273e-07
3.8306e-07 -5.17273e-07 1.1068e-05
0.00108089 -0.000157792 -1.58218e-06
-0.000157792 -1.41885e-06 3.67673e-07
-1.58218e-06 3.67673e-07 -0.00015398
0.0015046 -0.000163975 4.54884e-06
-0.000163975 9.87071e-05 -1.3063e-06
4.54884e-06 -1.3063e-06 -2.57477e-05
0.000935503 -5.91062e-05 -1.24926e-06
-5.91062e-05 0.000114862 -3.1278e-07
-1.24926e-06 -3.1278e-07 1.98315e-05
0.000892239 -7.58694e-05 -6.16058e-07
-7.58694e-05 9.62837e-05 -5.96473e-07
-6.16058e-07 -5.96473e-07 -6.32653e-06
0.000734391 1.45882e-05 -1.39025e-06
1.45882e-05 1.97091e-06 2.00436e-06
-1.39025e-06 2.00436e-06 -4.66216e-05
0.000685101 3.41205e-05 1.14944e-07
3.41205e-05 -2.08261e-05 1.70909e-07
1.14944e-07 1.70909e-07 -9.9091e-05
0.00162597 -4.05941e-06 -3.58667e-08
-4.05941e-06 9.89546e-05 -2.2014e-07
-3.58667e-08 -2.2014e-07 -1.98816e-05
0.00179397 -3.99813e-05 -7.14557e-07
-3.99813e-05 0.000208734 3.29039e-07
-7.14557e-07 3.29039e-07 9.1694e-05
0.00167763 -2.39085e-05 -2.1913e-07
-2.39085e-05 9.74799e-05 -6.21071e-08
-2.1913e-07 -6.21071e-08 -1.52234e-05
0.00161818 -6.52081e-05 -1.14774e-07
-6.52081e-05 9.33879e-05 -2.11233e-07
-1.14774e-07 -2.11233e-07 -1.56446e-05
0.000961869 -9.85372e-05 -2.95294e-07
-9.85372e-05 0.000123091 2.67562e-07
-2.95294e-07 2.67562e-07 2.34893e-05
0.000675644 -0.000114081 6.08804e-07
-0.000114081 -3.81412e-05 -7.75759e-07
6.08804e-07 -7.75759e-07 -0.000161586
0.00124135 -0.000167483 -5.55761e-09
-0.000167483 0.000182739 1.56428e-07
-5.55761e-09 1.56428e-07 2.33481e-05
0.00164208 -0.00012126 -4.00285e-07
-0.00012126 0.000120085 2.28812e-07
-4.00285e-07 2.28812e-07 3.06515e-06
0.00163733 -8.49512e-05 7.48824e-07
-8.49512e-05 8.22999e-05 -3.21085e-07
7.48824e-07 -3.21085e-07 -1.94068e-05
0.00150634 -0.000186719 -6.21938e-07
-0.000186719 0.000189906 9.99862e-07
-6.21938e-07 9.99862e-07 3.69378e-05
0.00160694 -0.000148106 -5.71783e-07
-0.000148106 9.73333e-05 -3.80781e-07
-5.71783e-07 -3.80781e-07 -1.92546e-05
0.00170136 -0.000175913 2.03201e-06
-0.000175913 0.000174443 -1.21105e-06
2.03201e-06 -1.21105e-06 5.728e-05
0.000992083 -0.000126101 9.1951e-08
-0.000126101 0.000151565 6.69181e-08
9.1951e-08 6.69181e-08 4.21279e-05
0.000969727 -0.000116578 2.0786e-07
-0.000116578 0.000143599 2.86342e-07
2.0786e-07 2.86342e-07 3.32647e-05
0.000894067 -4.87271e-05 -2.7465e-07
-4.87271e-05 0.000101171 -1.04271e-07
-2.7465e-07 -1.04271e-07 6.71944e-06
0.000622437 2.14751e-05 -3.75126e-07
2.14751e-05 -6.21975e-05 4.6601e-08
-3.75126e-07 4.6601e-08 -0.000108039
0.000684192 2.6454e-05 9.94863e-08
2.6454e-05 -1.74437e-05 -3.87922e-07
9.94863e-08 -3.87922e-07 -9.26895e-05
0.00175932 -1.48536e-05 3.40692e-07
-1.48536e-05 0.000116054 -1.47783e-07
3.40692e-07 -1.47783e-07 3.98231e-06
0.00169256 -3.70993e-05 -5.70895e-07
-3.70993e-05 9.81447e-05 1.78993e-07
-5.70895e-07 1.78993e-07 -1.15362e-05
0.0016949 -7.56414e-05 -4.81838e-07
-7.56414e-05 9.52914e-05 -3.1506e-07
-4.81838e-07 -3.1506e-07 -1.25616e-06
0.0015648 -0.000110036 -9.18765e-07
-0.000110036 3.70292e-05 6.68049e-07
-9.18765e-07 6.68049e-07 -6.8684e-05
0.000886481 -0.000121858 -5.3396e-07
-0.000121858 9.07723e-05 9.02426e-07
-5.3396e-07 9.02426e-07 -2.20431e-05
0.0019404 -0.000173668 -2.12251e-06
-0.000173668 0.000228889 -1.73779e-06
-2.12251e-06 -1.73779e-06 0.000119249
0.000166133 -8.84137e-05 2.14817e-07
-8.84137e-05 -0.000311245 -3.98745e-06
2.14817e-07 -3.98745e-06 -0.000447213
0.00143012 -0.000190719 3.30468e-06
-0.000190719 0.000248664 -1.08131e-06
3.30468e-06 -1.08131e-06 7.31796e-05
0.00188772 -0.000211549 1.13477e-06
-0.000211549 0.000322137 1.93833e-06
1.13477e-06 1.93833e-06 0.000174931
0.000508266 2.30113e-05 1.25027e-06
2.30113e-05 -0.000127824 -2.60374e-06
1.25027e-06 -2.60374e-06 -0.000171443
0.000900135 -3.92961e-06 1.39984e-06
-3.92961e-06 0.000103334 -6.34654e-07
1.39984e-06 -6.34654e-07 3.27897e-05
0.000940839 -3.22148e-05 -1.57019e-07
-3.22148e-05 0.0001286 1.01697e-07
-1.57019e-07 1.01697e-07 4.21044e-05
0.000939685 -0.000123648 -1.23675e-06
-0.000123648 0.000122798 2.18739e-06
-1.23675e-06 2.18739e-06 1.16187e-05
0.000999122 -7.69995e-05 3.33697e-07
-7.69995e-05 0.000158365 1.47299e-06
3.33697e-07 1.47299e-06 5.47907e-05
0.000877527 -0.000119716 -5.85333e-07
-0.000119716 8.66269e-05 1.93039e-06
-5.85333e-07 1.93039e-06 -2.57773e-05
0.000667212 -3.89309e-05 -1.75412e-06
-3.89309e-05 -3.47234e-05 -3.3721e-06
-1.75412e-06 -3.3721e-06 -4.42019e-05
0.000735677 -4.52524e-05 -1.54382e-06
-4.52524e-05 6.80655e-06 -1.37419e-06
-1.54382e-06 -1.37419e-06 -3.23219e-05
0.00147826 0.000115986 -1.11433e-06
0.000115986 5.90547e-05 -2.69119e-08
-1.11433e-06 -2.69119e-08 -7.23977e-05
0.000806132 -4.89106e-05 5.45732e-07
-4.89106e-05 5.25356e-05 -1.01433e-06
5.45732e-07 -1.01433e-06 -1.66607e-05
0.000832962 5.25852e-05 -2.79281e-07
5.25852e-05 6.72639e-05 -3.27532e-07
-2.79281e-07 -3.27532e-07 -2.76197e-05
0.000752914 3.67773e-05 8.85696e-07
3.67773e-05 3.79323e-05 1.57531e-07
8.85696e-07 1.57531e-07 -6.23849e-05
0.0013171 0.000158743 -1.5865e-06
0.000158743 8.39192e-05 -1.85612e-06
-1.5865e-06 -1.85612e-06 -5.60657e-05
0.00146745 0.000154501 2.02598e-07
0.000154501 5.60322e-05 1.56147e-07
2.02598e-07 1.56147e-07 -8.61428e-05
0.00100315 0.000131095 9.77257e-08
0.000131095 0.000165916 -3.16049e-07
9.77257e-08 -3.16049e-07 3.12018e-05
0.00128096 0.000164529 -4.89253e-07
0.000164529 0.000237579 3.51477e-07
-4.89253e-07 3.51477e-07 8.37748e-05
0.00161382 0.00018279 -2.15829e-06
0.00018279 0.000301175 -3.47392e-06
-2.15829e-06 -3.47392e-06 0.000166834
0.000750986 -3.55499e-05 -6.8062e-08
-3.55499e-05 7.94007e-06 2.16984e-08
-6.8062e-08 2.16984e-08 -2.70972e-05
0.000789318 -2.58643e-05 -4.59357e-07
-2.58643e-05 3.6222e-05 2.79146e-07
-4.59357e-07 2.79146e-07 -2.24121e-05
0.000990531 0.000122467 -4.77579e-07
0.000122467 0.000166746 -5.54486e-08
-4.77579e-07 -5.54486e-08 4.72015e-05
0.000837688 -9.38974e-06 3.02885e-07
-9.38974e-06 7.83032e-05 1.92017e-08
3.02885e-07 1.92017e-08 -6.04786e-06
0.000913897 6.92392e-05 1.18512e-07
6.92392e-05 0.000131033 -6.69551e-07
1.18512e-07 -6.69551e-07 1.81063e-05
0.00159971 0.000117404 -6.83376e-07
0.000117404 9.68795e-05 -8.65073e-07
-6.83376e-07 -8.65073e-07 -3.30457e-05
0.00144693 0.000174752 9.65954e-07
0.000174752 0.000113434 7.09629e-07
9.65954e-07 7.09629e-07 -2.8172e-05
0.00149945 0.000166087 7.84025e-07
0.000166087 4.51416e-05 6.16536e-07
7.84025e-07 6.16536e-07 -8.75777e-05
0.000745105 0.000123047 6.18801e-07
0.000123047 2.82273e-05 1.93603e-06
6.18801e-07 1.93603e-06 -0.000129573
0.00137956 0.000185322 -1.14879e-06
0.000185322 0.000201509 -9.11122e-07
-1.14879e-06 -9.11122e-07 4.66112e-05
0.000796207 8.9452e-07 8.99609e-07
8.9452e-07 3.57327e-05 6.88266e-07
8.99609e-07 6.88266e-07 -1.64692e-05
0.000676563 -3.21108e-05 -8.13497e-07
-3.21108e-05 -1.68762e-05 1.36964e-06
-8.13497e-07 1.36964e-06 -9.07522e-05
0.000972239 0.000129143 -1.4776e-06
0.000129143 0.000158859 -1.84596e-06
-1.4776e-06 -1.84596e-06 2.20649e-05
0.00071167 2.3204e-05 -5.75194e-07
2.3204e-05 1.7711e-05 -6.41545e-07
-5.75194e-07 -6.41545e-07 -8.5236e-05
0.00102493 9.96124e-05 -7.37574e-07
9.96124e-05 0.000184849 -2.41527e-06
-7.37574e-07 -2.41527e-06 6.35315e-05
0.00153157 0.000121872 -3.28003e-06
0.000121872 4.7143e-06 -2.26261e-06
-3.28003e-06 -2.26261e-06 -0.000100634
0.00196528 0.000218419 -1.3456e-06
0.000218419 0.000367873 1.08195e-06
-1.3456e-06 1.08195e-06 0.000219113
0.00109842 0.00014941 -6.92e-07
0.00014941 -0.000194233 -2.82647e-07
-6.92e-07 -2.82647e-07 -0.000314849
0.00186389 0.000196393 3.32478e-06
0.000196393 0.000596909 4.18568e-06
3.32478e-06 4.18568e-06 0.000417811
0.000116092 0.000125596 -8.18727e-07
0.000125596 -0.00049294 -5.02379e-07
-8.18727e-07 -5.02379e-07 -0.000652951
0.000759414 -2.70566e-05 -1.62345e-06
-2.70566e-05 7.22494e-06 -1.50522e-06
-1.62345e-06 -1.50522e-06 -2.55536e-05
0.000729319 -1.23391e-05 1.63353e-07
-1.23391e-05 -2.43722e-06 4.71532e-07
1.63353e-07 4.71532e-07 -5.36326e-05
0.000713227 -4.27982e-05 -1.92461e-07
-4.27982e-05 -3.90692e-06 5.98795e-07
-1.92461e-07 5.98795e-07 -6.67134e-05
0.000666605 -4.36366e-05 -9.17682e-07
-4.36366e-05 -3.75075e-05 -4.42872e-07
-9.17682e-07 -4.42872e-07 -8.87519e-05
0.000804943 -4.38575e-06 1.61117e-07
-4.38575e-06 3.58923e-05 -1.77929e-08
1.61117e-07 -1.77929e-08 -1.45937e-05
0.00082476 -1.64887e-05 1.73925e-07
-1.64887e-05 5.66709e-05 -3.38518e-07
1.73925e-07 -3.38518e-07 -3.86168e-06
0.000930353 7.26886e-06 9.81323e-08
7.26886e-06 0.000121891 -7.3714e-07
9.81323e-08 -7.3714e-07 5.36411e-05
0.000737949 -3.60242e-05 5.03909e-07
-3.60242e-05 1.2224e-05 -3.94245e-09
5.03909e-07 -3.94245e-09 -5.04641e-05
0.000833112 -4.04107e-07 4.48198e-07
-4.04107e-07 4.65237e-05 5.43674e-07
4.48198e-07 5.43674e-07 -2.2902e-06
0.000768877 -6.44492e-07 9.41451e-07
-6.44492e-07 1.38101e-06 1.56683e-06
9.41451e-07 1.56683e-06 -3.03323e-05
0.000774697 -1.22155e-05 -1.57844e-07
-1.22155e-05 5.13551e-06 -4.39607e-09
-1.57844e-07 -4.39607e-09 -2.57548e-05
0.00126024 -2.28816e-05 1.0619e-06
-2.28816e-05 0.000269033 2.01116e-06
1.0619e-06 2.01116e-06 0.000268836
0.000772179 -1.90014e-05 -9.52333e-07
-1.90014e-05 6.45958e-06 -1.787e-06
-9.52333e-07 -1.787e-06 -2.43759e-05
0.00127642 -2.89317e-05 -3.64238e-06
-2.89317e-05 0.000282324 -1.20484e-06
-3.64238e-06 -1.20484e-06 0.000281561
0.000950934 -2.36416e-05 1.61987e-05
-2.36416e-05 0.000105481 6.42662e-06
1.61987e-05 6.42662e-06 0.000119475
0.00129307 -3.4536e-05 -8.1437e-06
-3.4536e-05 0.000296935 -4.45373e-06
-8.1437e-06 -4.45373e-06 0.000294938
0.000893388 -2.98735e-05 6.50892e-06
-2.98735e-05 7.99925e-05 2.41106e-06
6.50892e-06 2.41106e-06 9.24284e-05
0.00198738 -5.50539e-05 -6.1617e-06
-5.50539e-05 0.000695981 -1.51344e-06
-6.1617e-06 -1.51344e-06 0.000711925
0.000676624 3.34142e-05 1.2769e-06
3.34142e-05 -3.78786e-05 -3.68152e-06
1.2769e-06 -3.68152e-06 -4.95602e-05
0.000676818 3.83574e-05 -1.46673e-07
3.83574e-05 -3.08751e-05 3.20159e-08
-1.46673e-07 3.20159e-08 -4.57773e-05
0.00231241 6.09223e-05 2.82638e-05
6.09223e-05 0.000881181 -3.67984e-06
2.82638e-05 -3.67984e-06 0.000893815
0.000682053 4.51878e-05 -1.8352e-06
4.51878e-05 -1.96972e-05 4.08033e-06
-1.8352e-06 4.08033e-06 -3.84335e-05
0.00243257 6.96626e-05 -1.59691e-06
6.96626e-05 0.000955775 -1.2871e-07
-1.59691e-06 -1.2871e-07 0.00096577
0.00257819 7.70411e-05 -4.33834e-05
7.70411e-05 0.00104264 3.1177e-06
-4.33834e-05 3.1177e-06 0.00105046
0.00147289 8.93122e-05 -2.07273e-06
8.93122e-05 4.96806e-05 2.80176e-07
-2.07273e-06 2.80176e-07 -7.41601e-05
0.00160231 4.84541e-05 -6.98569e-07
4.84541e-05 0.000108781 -2.74718e-07
-6.98569e-07 -2.74718e-07 -1.01673e-05
0.00160884 7.05103e-05 2.31812e-06
7.05103e-05 8.09742e-05 9.22892e-07
2.31812e-06 9.22892e-07 -2.74019e-05
0.00176155 3.72491e-05 1.26878e-06
3.72491e-05 0.000130585 1.49244e-07
1.26878e-06 1.49244e-07 2.23904e-05
0.00162969 6.53645e-06 -1.02721e-06
6.53645e-06 8.75806e-05 -2.6584e-07
-1.02721e-06 -2.6584e-07 -3.05156e-05
0.00148475 1.32463e-05 -4.31141e-06
1.32463e-05 7.00909e-05 -2.21922e-08
-4.31141e-06 -2.21922e-08 -5.00646e-05
0.00162532 3.40447e-06 -1.36193e-07
3.40447e-06 8.75991e-05 -4.26517e-08
-1.36193e-07 -4.26517e-08 -3.17386e-05
0.0017566 2.50793e-05 3.51441e-07
2.50793e-05 0.000110623 -5.03569e-08
3.51441e-07 -5.03569e-08 -1.81543e-06
0.0016303 4.8786e-05 -5.64935e-07
4.8786e-05 7.23129e-05 -1.50856e-07
-5.64935e-07 -1.50856e-07 -3.66153e-05
0.00178061 4.19956e-05 9.12222e-07
4.19956e-05 0.000112922 -9.08236e-08
9.12222e-07 -9.08236e-08 1.15613e-05
0.00158561 8.35915e-05 -6.45654e-07
8.35915e-05 7.81264e-05 1.20408e-07
-6.45654e-07 1.20408e-07 -3.80463e-05
0.00175376 7.64783e-05 2.25195e-06
7.64783e-05 0.00012318 1.92059e-07
2.25195e-06 1.92059e-07 2.45085e-05
0.00176272 4.95359e-06 -1.8032e-07
4.95359e-06 0.000111074 1.55923e-07
-1.8032e-07 1.55923e-07 -2.07354e-06
0.00175364 3.42458e-05 -5.84567e-07
3.42458e-05 9.02709e-05 4.67041e-07
-5.84567e-07 4.67041e-07 -1.28071e-05
0.00178354 5.62604e-05 -1.0113e-06
5.62604e-05 0.000107017 5.99556e-08
-1.0113e-06 5.99556e-08 1.09482e-05
0.00183786 9.96757e-05 -1.80626e-06
9.96757e-05 0.000160991 -6.05097e-07
-1.80626e-06 -6.05097e-07 6.38717e-05
0.00160953 -3.58878e-06 -1.24735e-06
-3.58878e-06 8.83108e-05 1.93571e-07
-1.24735e-06 1.93571e-07 -3.05484e-05
0.00174956 -3.91019e-05 -2.28518e-06
-3.91019e-05 0.00018372 3.62216e-07
-2.28518e-06 3.62216e-07 6.59628e-05
0.00163396 -2.32313e-05 -6.52917e-07
-2.32313e-05 7.73757e-05 1.10368e-07
-6.52917e-07 1.10368e-07 -3.50115e-05
0.00159804 -6.38122e-05 6.97077e-07
-6.38122e-05 8.53537e-05 4.76568e-08
6.97077e-07 4.76568e-08 -2.45709e-05
0.00105836 -0.000100956 -1.33986e-06
-0.000100956 0.000174845 1.72119e-07
-1.33986e-06 1.72119e-07 7.44014e-05
0.000825947 -0.000122259 9.55564e-07
-0.000122259 4.44502e-05 3.85826e-07
9.55564e-07 3.85826e-07 -7.75768e-05
0.00119245 -0.000163105 -1.67901e-06
-0.000163105 0.000159725 2.84768e-06
-1.67901e-06 2.84768e-06 -1.04503e-06
0.0017168 -0.000124222 -4.37627e-07
-0.000124222 0.000161413 -4.41569e-07
-4.37627e-07 -4.41569e-07 4.35772e-05
0.00158954 -8.40753e-05 7.80152e-07
-8.40753e-05 5.68584e-05 -5.62211e-07
7.80152e-07 -5.62211e-07 -4.37038e-05
0.00162656 -0.000148717 2.59697e-06
-0.000148717 0.000106343 -2.28193e-07
2.59697e-06 -2.28193e-07 -1.05497e-05
0.00146098 -0.0001831 -8.76519e-07
-0.0001831 0.000164374 -1.03642e-06
-8.76519e-07 -1.03642e-06 1.1034e-05
0.00135241 -0.000159124 2.14202e-06
-0.000159124 -4.60777e-06 -1.88508e-06
2.14202e-06 -1.88508e-06 -0.000116553
0.00106642 -0.000130934 2.27034e-07
-0.000130934 0.000191515 -1.16119e-06
2.27034e-07 -1.16119e-06 8.15584e-05
0.00101733 -0.000120519 4.81806e-07
-0.000120519 0.000168219 -2.20799e-06
4.81806e-07 -2.20799e-06 5.76041e-05
0.000848763 -2.46179e-05 2.91147e-07
-2.46179e-05 7.51286e-05 -8.92379e-08
2.91147e-07 -8.92379e-08 -1.75971e-05
0.000499975 2.23137e-05 -1.61488e-06
2.23137e-05 -0.000129226 1.93212e-06
-1.61488e-06 1.93212e-06 -0.000176168
0.000681962 3.86787e-05 6.14713e-08
3.86787e-05 -2.17952e-05 2.18279e-07
6.14713e-08 2.18279e-07 -9.43038e-05
0.00175165 -1.5897e-05 1.59343e-07
-1.5897e-05 0.000115742 -3.21461e-08
1.59343e-07 -3.21461e-08 3.65322e-06
0.00172746 -3.8428e-05 2.27007e-07
-3.8428e-05 0.000117817 -5.2133e-08
2.27007e-07 -5.2133e-08 8.49523e-06
0.00170069 -7.55442e-05 -7.81056e-07
-7.55442e-05 0.000100548 -1.40593e-07
-7.81056e-07 -1.40593e-07 2.5701e-06
0.0010104 -0.000129237 -6.59328e-08
-0.000129237 0.000156083 4.61581e-07
-6.59328e-08 4.61581e-07 4.24363e-05
0.000725853 -0.00012167 1.83114e-06
-0.00012167 -1.1138e-05 -1.77e-06
1.83114e-06 -1.77e-06 -0.000147895
0.00131037 -0.000182031 -4.83621e-07
-0.000182031 0.000186664 3.79303e-07
-4.83621e-07 3.79303e-07 9.09807e-06
0.00163709 -0.000111251 7.52129e-07
-0.000111251 7.52941e-05 -1.25744e-07
7.52129e-07 -1.25744e-07 -3.03318e-05
0.00167554 -0.000197059 9.42814e-07
-0.000197059 0.000213154 -2.05266e-06
9.42814e-07 -2.05266e-06 7.01558e-05
0.00175115 -0.000169677 -1.11527e-06
-0.000169677 0.000135619 -3.90875e-07
-1.11527e-06 -3.90875e-07 2.55977e-05
0.000504956 2.65711e-05 1.32907e-08
2.65711e-05 -0.00012993 -6.63995e-07
1.32907e-08 -6.63995e-07 -0.000173047
0.00101074 -0.000128134 -2.53393e-08
-0.000128134 0.000160156 3.09629e-07
-2.53393e-08 3.09629e-07 4.84275e-05
0.000881274 -0.000119358 -5.73977e-07
-0.000119358 8.9832e-05 4.24625e-07
-5.73977e-07 4.24625e-07 -2.16479e-05
0.0010062 -8.28097e-05 -3.52304e-07
-8.28097e-05 0.000165569 8.20768e-07
-3.52304e-07 8.20768e-07 5.91474e-05
0.000958402 -2.92496e-05 -1.60496e-08
-2.92496e-05 0.000138551 3.17613e-08
-1.60496e-08 3.17613e-08 5.22547e-05
0.000779321 1.36131e-05 -1.96628e-07
1.36131e-05 3.35206e-05 2.91108e-07
-1.96628e-07 2.91108e-07 -3.54882e-05
0.001681 -2.61632e-05 -5.39219e-07
-2.61632e-05 5.51666e-05 3.17488e-08
-5.39219e-07 3.17488e-08 -5.19788e-05
0.00176894 -5.94343e-05 -2.03942e-06
-5.94343e-05 0.000105245 -8.13043e-08
-2.03942e-06 -8.13043e-08 1.10989e-05
0.00158035 -8.87191e-05 2.66318e-07
-8.87191e-05 1.05861e-05 4.23779e-07
2.66318e-07 4.23779e-07 -8.06588e-05
0.00190357 -0.000143236 -8.83568e-07
-0.000143236 0.000172185 6.64716e-08
-8.83568e-07 6.64716e-08 7.47117e-05
0.000976131 -0.000129601 -1.48093e-06
-0.000129601 0.00013976 6.55067e-07
-1.48093e-06 6.55067e-07 1.97628e-05
0.00160305 -0.000189398 1.06547e-06
-0.000189398 7.15964e-05 -3.23929e-07
1.06547e-06 -3.23929e-07 -4.95075e-05
0.000834087 -0.000140218 -1.10562e-07
-0.000140218 2.47428e-05 -3.61975e-06
-1.10562e-07 -3.61975e-06 -0.000144614
0.00184612 -0.000223317 5.51857e-07
-0.000223317 0.000415659 1.4972e-06
5.51857e-07 1.4972e-06 0.000230269
0.000525172 2.35648e-05 7.32068e-07
2.35648e-05 -0.000121892 -2.49186e-06
7.32068e-07 -2.49186e-06 -0.000161643
0.000898094 -1.96704e-06 1.18316e-06
-1.96704e-06 9.84946e-05 -8.40777e-07
1.18316e-06 -8.40777e-07 3.37115e-05
0.000997107 -4.6323e-05 6.91658e-08
-4.6323e-05 0.000161246 8.54243e-07
6.91658e-08 8.54243e-07 7.8565e-05
0.000902019 -1.74312e-05 2.80128e-07
-1.74312e-05 0.000107121 -3.46206e-07
2.80128e-07 -3.46206e-07 1.22563e-05
0.00101614 -0.000129972 -7.29793e-07
-0.000129972 0.000160626 1.9779e-06
-7.29793e-07 1.9779e-06 4.39764e-05
0.000955859 -0.000125969 -2.87822e-06
-0.000125969 0.000126238 3.07102e-06
-2.87822e-06 3.07102e-06 1.11203e-05
0.000751498 -3.46156e-05 -1.74483e-06
-3.46156e-05 8.2916e-06 -1.39403e-06
-1.74483e-06 -1.39403e-06 -2.66689e-05
0.000771155 -4.96005e-05 -1.53107e-07
-4.96005e-05 2.68038e-05 -6.96866e-07
-1.53107e-07 -6.96866e-07 -3.1882e-05
0.0016348 0.000121006 1.15752e-07
0.000121006 0.00011663 4.88896e-07
1.15752e-07 4.88896e-07 -1.42564e-05
0.000832072 -2.60258e-05 4.4592e-07
-2.60258e-05 7.20646e-05 -3.56114e-07
4.4592e-07 -3.56114e-07 -1.01317e-05
0.000916727 0.00011791 3.6908e-07
0.00011791 0.00012841 -2.36415e-07
3.6908e-07 -2.36415e-07 9.4585e-06
0.00075984 4.38e-05 5.95456e-07
4.38e-05 4.4741e-05 1.49446e-07
5.95456e-07 1.49446e-07 -6.54382e-05
0.00141203 0.000172746 -7.26834e-07
0.000172746 9.53282e-05 -2.47301e-06
-7.26834e-07 -2.47301e-06 -4.62753e-05
0.00161659 0.000168408 2.3847e-06
0.000168408 0.000106347 3.28429e-07
2.3847e-06 3.28429e-07 -2.34342e-05
0.00062293 0.000116247 4.57556e-07
0.000116247 -4.02652e-05 8.47806e-07
4.57556e-07 8.47806e-07 -0.000196313
0.00151066 0.000193029 -6.18172e-07
0.000193029 0.000273791 -3.56284e-07
-6.18172e-07 -3.56284e-07 0.000114406
0.000783496 -2.03472e-05 -4.72308e-07
-2.03472e-05 2.92732e-05 1.16554e-07
-4.72308e-07 1.16554e-07 -2.33087e-05
0.000750219 -1.54879e-05 -3.66416e-08
-1.54879e-05 2.27548e-05 7.88836e-07
-3.66416e-08 7.88836e-07 -5.09972e-05
0.00105802 0.000133742 -4.53015e-07
0.000133742 0.000208611 -1.55679e-06
-4.53015e-07 -1.55679e-06 7.3484e-05
0.000757779 -1.20855e-05 -1.71793e-07
-1.20855e-05 3.68494e-05 4.79011e-08
-1.71793e-07 4.79011e-08 -6.10769e-05
0.000888313 8.36149e-05 -9.48126e-07
8.36149e-05 0.000112233 -9.28602e-07
-9.48126e-07 -9.28602e-07 -5.5451e-06
0.00181439 0.000129395 -2.02958e-06
0.000129395 0.000158699 -8.5945e-07
-2.02958e-06 -8.5945e-07 5.49941e-05
0.00190726 0.000213905 1.15112e-06
0.000213905 0.00033174 5.93299e-07
1.15112e-06 5.93299e-07 0.000183261
0.00142112 0.000166312 6.01637e-07
0.000166312 -2.7314e-05 1.27569e-06
6.01637e-07 1.27569e-06 -0.00014659
0.00135487 0.000166639 1.6307e-06
0.000166639 0.000331085 2.37119e-06
1.6307e-06 2.37119e-06 0.00015092
0.000714935 0.000162116 -1.68554e-06
0.000162116 -0.000176933 -7.14542e-07
-1.68554e-06 -7.14542e-07 -0.000343172
0.000686337 -3.49236e-05 -1.15282e-07
-3.49236e-05 -1.6896e-05 8.89339e-07
-1.15282e-07 8.89339e-07 -8.2186e-05
0.000565441 2.57522e-05 -3.37594e-07
2.57522e-05 -6.26069e-05 1.50051e-07
-3.37594e-07 1.50051e-07 -0.00015642
0.00109023 0.000136205 -3.79269e-08
0.000136205 0.000222736 -4.1069e-07
-3.79269e-08 -4.1069e-07 6.88242e-05
0.000280283 3.8087e-05 3.56851e-07
3.8087e-05 -0.000214258 -2.1655e-07
3.56851e-07 -2.1655e-07 -0.000333084
0.0018888 0.000125773 -2.5115e-06
0.000125773 0.000113462 -5.91053e-07
-2.5115e-06 -5.91053e-07 3.50136e-05
0.00186244 0.000159799 2.04113e-07
0.000159799 0.000135179 -3.86172e-07
2.04113e-07 -3.86172e-07 4.18194e-05
0.00157708 0.000215117 -1.51176e-06
0.000215117 0.000132912 -1.67874e-06
-1.51176e-06 -1.67874e-06 -1.80297e-05
0.000150721 0.00010534 -8.18451e-07
0.00010534 -0.000358295 1.50595e-06
-8.18451e-07 1.50595e-06 -0.000558634
0.000795519 9.52998e-07 -8.6073e-07
9.52998e-07 3.77271e-05 -7.4878e-08
-8.6073e-07 -7.4878e-08 -1.56048e-05
0.000789689 -1.46203e-05 -2.39109e-07
-1.46203e-05 3.96088e-05 4.30302e-07
-2.39109e-07 4.30302e-07 -2.40857e-05
0.000887334 -3.4601e-05 -1.90066e-07
-3.4601e-05 9.88134e-05 -6.67102e-08
-1.90066e-07 -6.67102e-08 2.895e-05
0.000792627 -3.2681e-05 -9.72478e-07
-3.2681e-05 2.75012e-05 -6.16626e-07
-9.72478e-07 -6.16626e-07 -2.17793e-05
0.000688097 -4.23846e-05 -2.32355e-08
-4.23846e-05 -1.78567e-05 -1.58544e-07
-2.32355e-08 -1.58544e-07 -7.88347e-05
0.000812063 -1.23553e-05 3.32734e-08
-1.23553e-05 3.59075e-05 3.2862e-08
3.32734e-08 3.2862e-08 -1.34675e-05
0.000829591 1.63887e-05 -2.12764e-07
1.63887e-05 7.21987e-05 -3.19868e-07
-2.12764e-07 -3.19868e-07 3.44132e-07
0.00076033 -1.52214e-05 2.63847e-07
-1.52214e-05 2.6188e-05 2.2928e-07
2.63847e-07 2.2928e-07 -3.78201e-05
0.000864467 -1.43271e-05 2.29155e-07
-1.43271e-05 8.80259e-05 -3.86712e-07
2.29155e-07 -3.86712e-07 1.45397e-05
0.00081057 -4.26456e-05 -4.76752e-08
-4.26456e-05 5.60132e-05 2.63252e-08
-4.76752e-08 2.63252e-08 -1.37744e-05
0.000719805 5.76336e-06 4.71064e-07
5.76336e-06 -3.20219e-07 8.3005e-08
4.71064e-07 8.3005e-08 -6.31505e-05
0.000815461 1.30726e-05 5.81527e-07
1.30726e-05 3.75847e-05 4.62107e-07
5.81527e-07 4.62107e-07 -1.24207e-05
0.00076272 5.00745e-06 6.73921e-07
5.00745e-06 -6.85222e-07 1.48243e-06
6.73921e-07 1.48243e-06 -3.35421e-05
0.0007706 -6.76e-06 -1.955e-07
-6.76e-06 2.63178e-06 -3.69512e-09
-1.955e-07 -3.69512e-09 -2.92023e-05
0.00127479 -1.51565e-05 8.73942e-07
-1.51565e-05 0.000274361 1.96398e-06
8.73942e-07 1.96398e-06 0.00027405
0.000770592 -1.65967e-05 -6.00574e-07
-1.65967e-05 3.24592e-06 -1.67538e-06
-6.00574e-07 -1.67538e-06 -2.77565e-05
0.00128941 -2.11228e-05 -2.99074e-06
-2.11228e-05 0.00028522 -1.26978e-06
-2.99074e-06 -1.26978e-06 0.000284906
0.000958827 -1.80421e-05 1.33534e-05
-1.80421e-05 0.000105577 6.63619e-06
1.33534e-05 6.63619e-06 0.000120005
0.00130328 -2.74883e-05 -6.53646e-06
-2.74883e-05 0.000296856 -4.49668e-06
-6.53646e-06 -4.49668e-06 0.000296085
0.000903123 -2.44649e-05 5.14795e-06
-2.44649e-05 7.90121e-05 2.47339e-06
5.14795e-06 2.47339e-06 9.28961e-05
0.000838221 -2.99654e-05 -2.14004e-06
-2.99654e-05 4.95199e-05 -1.63966e-06
-2.14004e-06 -1.63966e-06 6.19505e-05
0.00068647 2.88092e-05 8.6586e-07
2.88092e-05 -3.89267e-05 -3.56518e-06
8.6586e-07 -3.56518e-06 -4.77468e-05
0.000688265 3.39631e-05 -1.64144e-07
3.39631e-05 -3.16676e-05 3.23859e-08
-1.64144e-07 3.23859e-08 -4.34409e-05
0.00224036 5.23536e-05 2.37465e-05
5.23536e-05 0.000834003 -3.8484e-06
2.37465e-05 -3.8484e-06 0.000848942
0.000693437 3.93231e-05 -1.83399e-06
3.93231e-05 -2.17067e-05 3.88097e-06
-1.83399e-06 3.88097e-06 -3.67965e-05
0.0023423 6.13326e-05 -1.7057e-06
6.13326e-05 0.000898543 -1.19926e-07
-1.7057e-06 -1.19926e-07 0.000910903
0.00247503 6.97028e-05 -3.72824e-05
6.97028e-05 0.000979693 3.38818e-06
-3.72824e-05 3.38818e-06 0.000989544
0.00161694 8.46562e-05 1.62954e-06
8.46562e-05 9.75372e-05 1.88461e-06
1.62954e-06 1.88461e-06 -1.8712e-05
0.00167124 4.65218e-05 5.38329e-07
4.65218e-05 9.19706e-05 -1.56931e-07
5.38329e-07 -1.56931e-07 -1.79138e-05
0.00163333 7.85905e-05 3.91912e-06
7.85905e-05 5.73676e-05 7.79724e-08
3.91912e-06 7.79724e-08 -4.00376e-05
0.00174392 4.2446e-05 2.2289e-06
4.2446e-05 8.90067e-05 -3.82448e-07
2.2289e-06 -3.82448e-07 -1.13536e-05
0.00174385 2.00858e-05 1.23647e-06
2.00858e-05 0.0001059 -2.93482e-07
1.23647e-06 -2.93482e-07 -7.14682e-06
0.00163203 2.16554e-06 -1.25194e-06
2.16554e-06 9.04307e-05 -9.27743e-08
-1.25194e-06 -9.27743e-08 -2.94929e-05
0.00175569 5.5193e-06 -1.30881e-07
5.5193e-06 0.000109442 -4.78925e-09
-1.30881e-07 -4.78925e-09 -3.60881e-06
0.00174012 3.00954e-05 4.58323e-07
3.00954e-05 8.45973e-05 -1.87389e-07
4.58323e-07 -1.87389e-07 -1.88548e-05
0.00176403 5.77224e-05 7.32891e-07
5.77224e-05 9.7263e-05 -9.30263e-08
7.32891e-07 -9.30263e-08 8.23494e-07
0.00182547 9.51589e-05 5.23198e-07
9.51589e-05 0.000147983 1.79509e-07
5.23198e-07 1.79509e-07 5.15351e-05
0.00176667 4.37947e-06 -1.04459e-06
4.37947e-06 9.30733e-05 3.81195e-07
-1.04459e-06 3.81195e-07 -1.28573e-05
0.00188374 4.30236e-05 -2.98245e-07
4.30236e-05 0.000135604 3.51841e-07
-2.98245e-07 3.51841e-07 4.47782e-05
0.001734 9.14431e-05 -7.44955e-07
9.14431e-05 5.6685e-05 2.71938e-07
-7.44955e-07 2.71938e-07 -3.20451e-05
0.00174487 -1.66716e-05 -1.22774e-08
-1.66716e-05 0.000115889 -1.25534e-07
-1.22774e-08 -1.25534e-07 3.78848e-06
0.00176434 -3.97194e-05 2.72652e-07
-3.97194e-05 0.000138488 -1.71377e-07
2.72652e-07 -1.71377e-07 2.9526e-05
0.0017067 -7.52066e-05 2.89947e-07
-7.52066e-05 0.000106283 -1.62632e-07
2.89947e-07 -1.62632e-07 6.88097e-06
0.00111368 -0.000135174 5.07337e-08
-0.000135174 0.000210059 2.65103e-07
5.07337e-08 2.65103e-07 9.57907e-05
0.00121776 -0.000151038 1.26183e-07
-0.000151038 0.000251308 1.32343e-06
1.26183e-07 1.32343e-06 0.000114571
0.00126068 -0.000177542 -2.36443e-06
-0.000177542 0.000163654 2.62284e-06
-2.36443e-06 2.62284e-06 -1.59209e-05
0.00170971 -0.00011241 5.27742e-07
-0.00011241 0.000114269 -5.80038e-07
5.27742e-07 -5.80038e-07 8.7224e-06
0.00156404 -0.00016622 4.21796e-07
-0.00016622 4.28678e-05 -1.96627e-07
4.21796e-07 -1.96627e-07 -6.75802e-05
0.00148417 -0.000184026 -1.40947e-06
-0.000184026 0.000115292 -4.23889e-06
-1.40947e-06 -4.23889e-06 -2.36487e-05
0.00106975 -0.00013183 8.4156e-07
-0.00013183 0.00019107 -1.3203e-06
8.4156e-07 -1.3203e-06 7.8878e-05
0.000849632 -0.000116483 -1.73403e-06
-0.000116483 7.46387e-05 -2.10582e-06
-1.73403e-06 -2.10582e-06 -3.57109e-05
0.00101544 -9.73669e-05 7.10702e-07
-9.73669e-05 0.000176027 2.06441e-07
7.10702e-07 2.06441e-07 6.51031e-05
0.000498805 2.46072e-05 -9.44359e-07
2.46072e-05 -0.000133661 1.17381e-06
-9.44359e-07 1.17381e-06 -0.000176188
0.000974125 -1.98653e-05 1.09917e-07
-1.98653e-05 0.000145118 -2.34879e-07
1.09917e-07 -2.34879e-07 6.06119e-05
0.000656095 2.74525e-05 2.11985e-07
2.74525e-05 -3.77259e-05 1.13283e-06
2.11985e-07 1.13283e-06 -0.000105114
0.00176872 -2.42308e-05 -7.41479e-08
-2.42308e-05 9.95722e-05 5.42653e-08
-7.41479e-08 5.42653e-08 -7.52176e-06
0.00180936 -6.18689e-05 4.68885e-07
-6.18689e-05 0.000128746 -2.90816e-08
4.68885e-07 -2.90816e-08 3.51568e-05
0.0016314 -8.81508e-05 -1.99771e-07
-8.81508e-05 3.90947e-05 1.10675e-07
-1.99771e-07 1.10675e-07 -5.23537e-05
0.00101308 -0.000131469 -3.99943e-08
-0.000131469 0.00015714 9.33082e-07
-3.99943e-08 9.33082e-07 3.66576e-05
0.000799294 -0.000136601 -3.58628e-07
-0.000136601 1.20295e-05 3.61134e-07
-3.58628e-07 3.61134e-07 -0.000152654
0.00173995 -0.000215378 -2.48113e-06
-0.000215378 0.000355122 1.23592e-06
-2.48113e-06 1.23592e-06 0.000172081
0.00187047 -0.000143498 5.15835e-07
-0.000143498 0.000152841 -3.46905e-07
5.15835e-07 -3.46905e-07 5.50924e-05
0.00171423 -0.000195194 9.50141e-07
-0.000195194 0.000129073 -1.16003e-06
9.50141e-07 -1.16003e-06 6.55231e-06
0.000636758 2.25408e-05 1.97712e-07
2.25408e-05 -6.09009e-05 -6.24146e-07
1.97712e-07 -6.24146e-07 -9.93334e-05
0.000890501 6.90631e-06 -2.82052e-07
6.90631e-06 9.32858e-05 2.05512e-07
-2.82052e-07 2.05512e-07 2.93468e-05
0.000698289 -0.00010955 -1.17888e-06
-0.00010955 -1.25094e-05 9.26478e-07
-1.17888e-06 9.26478e-07 -0.00012586
0.0010633 -0.000127407 1.02633e-06
-0.000127407 0.000184752 8.61638e-07
1.02633e-06 8.61638e-07 7.25933e-05
0.000874122 -2.70466e-05 1.67359e-07
-2.70466e-05 9.36079e-05 -3.66564e-07
1.67359e-07 -3.66564e-07 -3.36777e-06
0.000926196 -3.73191e-05 -6.55485e-07
-3.73191e-05 0.000122598 9.15378e-07
-6.55485e-07 9.15378e-07 3.98033e-05
0.00182287 -3.90338e-05 -1.2328e-06
-3.90338e-05 0.00010783 -1.17698e-07
-1.2328e-06 -1.17698e-07 1.37587e-05
0.00172785 -8.2093e-05 -2.91055e-06
-8.2093e-05 5.82311e-05 -5.77831e-08
-2.91055e-06 -5.77831e-08 -2.08701e-05
0.00167016 -0.000104372 -7.96605e-07
-0.000104372 1.39534e-05 1.83645e-07
-7.96605e-07 1.83645e-07 -6.80677e-05
0.0022247 -0.000207194 3.07503e-07
-0.000207194 0.000314368 -6.59866e-07
3.07503e-07 -6.59866e-07 0.000214163
0.000437756 -0.000100428 -1.99385e-06
-0.000100428 -0.000143436 -1.2233e-07
-1.99385e-06 -1.2233e-07 -0.000277732
0.00159547 -0.000218184 -2.07424e-06
-0.000218184 0.000173897 4.90076e-06
-2.07424e-06 4.90076e-06 5.90791e-06
0.00191733 -0.000217102 1.03462e-06
-0.000217102 0.000571011 -3.29087e-06
1.03462e-06 -3.29087e-06 0.000378144
0.000775866 1.63047e-05 8.16289e-07
1.63047e-05 1.23436e-05 -1.78557e-06
8.16289e-07 -1.78557e-06 -2.24971e-05
0.000774945 -6.08108e-05 1.18239e-06
-6.08108e-05 3.63931e-05 -1.20486e-06
1.18239e-06 -1.20486e-06 -2.38059e-05
0.000661397 9.40669e-06 6.23387e-07
9.40669e-06 -2.95687e-05 -1.56396e-06
6.23387e-07 -1.56396e-06 -9.3898e-05
0.000863054 -3.3789e-05 1.02413e-06
-3.3789e-05 9.13747e-05 1.14358e-07
1.02413e-06 1.14358e-07 9.99862e-06
0.000875306 5.46778e-06 2.64531e-07
5.46778e-06 9.33361e-05 -1.54009e-08
2.64531e-07 -1.54009e-08 6.21512e-06
0.00070194 -0.000107663 9.98324e-07
-0.000107663 2.05457e-05 2.40395e-06
9.98324e-07 2.40395e-06 -9.25758e-05
0.000730765 -0.00011147 -3.72266e-06
-0.00011147 -2.79518e-05 1.48826e-06
-3.72266e-06 1.48826e-06 -0.000129636
0.00184668 -0.000178051 -4.34862e-06
-0.000178051 0.000631596 3.33688e-06
-4.34862e-06 3.33688e-06 0.000511702
0.000782653 -4.65256e-05 -4.85624e-07
-4.65256e-05 2.8951e-05 -5.55943e-07
-4.85624e-07 -5.55943e-07 -2.37486e-05
0.000833212 -3.81129e-06 -1.89828e-07
-3.81129e-06 6.80107e-05 3.66335e-07
-1.89828e-07 3.66335e-07 -5.89106e-06
0.00209937 0.000136332 1.72796e-06
0.000136332 0.000314645 6.32546e-07
1.72796e-06 6.32546e-07 0.000212642
0.000838793 8.61128e-06 -1.83986e-07
8.61128e-06 8.42629e-05 -1.98515e-07
-1.83986e-07 -1.98515e-07 -1.6059e-05
0.00115885 0.00013947 1.62073e-08
0.00013947 0.000267088 -1.40956e-06
1.62073e-08 -1.40956e-06 0.000133198
0.000726975 6.67864e-05 -7.2954e-07
6.67864e-05 2.67304e-05 1.62678e-06
-7.2954e-07 1.62678e-06 -8.73815e-05
0.00175749 0.000204625 1.13329e-06
0.000204625 0.000247353 -1.20164e-06
1.13329e-06 -1.20164e-06 9.95661e-05
0.00168591 0.000180647 6.62981e-06
0.000180647 0.000109387 3.56589e-06
6.62981e-06 3.56589e-06 -8.2752e-06
0.000816758 0.000135308 1.17457e-06
0.000135308 4.92831e-05 6.58378e-07
1.17457e-06 6.58378e-07 -0.000131915
0.00122489 0.000193442 -3.17202e-06
0.000193442 9.00568e-05 -8.8602e-07
-3.17202e-06 -8.8602e-07 -8.12883e-05
0.000695475 -1.48487e-05 1.3015e-07
-1.48487e-05 -8.98751e-06 5.63223e-07
1.3015e-07 5.63223e-07 -7.72421e-05
0.000694288 4.03454e-05 -1.20548e-07
4.03454e-05 7.46077e-06 -1.16324e-06
-1.20548e-07 -1.16324e-06 -8.71267e-05
0.00101365 0.000132013 3.77097e-07
0.000132013 0.000187384 -1.31556e-06
3.77097e-07 -1.31556e-06 3.15345e-05
0.0007364 6.71895e-05 -6.03386e-07
6.71895e-05 3.17484e-05 -8.20641e-07
-6.03386e-07 -8.20641e-07 -8.88478e-05
0.0019585 0.000122812 9.07823e-08
0.000122812 0.000157552 -5.14866e-07
9.07823e-08 -5.14866e-07 8.0348e-05
0.00177948 0.000162215 1.72955e-06
0.000162215 9.97723e-05 2.95799e-07
1.72955e-06 2.95799e-07 2.41065e-06
0.00184755 0.000225763 -2.24045e-06
0.000225763 0.00027089 -4.44501e-07
-2.24045e-06 -4.44501e-07 0.000120741
0.000691114 0.000143197 8.5732e-07
0.000143197 -8.83889e-05 4.73777e-07
8.5732e-07 4.73777e-07 -0.000286669
0.000847732 -2.52663e-05 -2.5887e-08
-2.52663e-05 7.83123e-05 2.33128e-08
-2.5887e-08 2.33128e-08 3.76364e-06
0.00168799 8.74454e-05 -1.17276e-06
8.74454e-05 -5.92967e-06 6.88233e-07
-1.17276e-06 6.88233e-07 -7.1567e-05
0.00119264 0.000121805 -5.05184e-07
0.000121805 0.000297432 2.22523e-06
-5.05184e-07 2.22523e-06 0.000177284
0.00103455 0.00013723 3.59726e-07
0.00013723 0.000182997 1.08569e-06
3.59726e-07 1.08569e-06 2.04869e-05
0.00222156 0.000156545 -3.64955e-06
0.000156545 0.00024046 2.21314e-07
-3.64955e-06 2.21314e-07 0.000168083
0.00150488 0.000220095 -7.34951e-07
0.000220095 -4.91956e-05 -1.92686e-06
-7.34951e-07 -1.92686e-06 -0.000174205
0.00208826 0.000239641 -1.76826e-06
0.000239641 0.000561216 1.97389e-06
-1.76826e-06 1.97389e-06 0.000357377
0.000866549 -6.30363e-06 -1.51548e-06
-6.30363e-06 8.07668e-05 1.5934e-07
-1.51548e-06 1.5934e-07 1.79069e-05
0.000859778 -2.21746e-05 -5.24574e-08
-2.21746e-05 8.34697e-05 -3.88547e-08
-5.24574e-08 -3.88547e-08 1.3931e-05
0.000890706 -2.40271e-05 -2.46182e-07
-2.40271e-05 0.000106855 3.57926e-07
-2.46182e-07 3.57926e-07 3.04877e-05
0.000791202 -2.89554e-05 -5.00155e-07
-2.89554e-05 2.56911e-05 -6.38022e-07
-5.00155e-07 -6.38022e-07 -2.44209e-05
0.000794799 -3.15031e-06 9.46399e-09
-3.15031e-06 4.48575e-05 4.31051e-07
9.46399e-09 4.31051e-07 -1.91304e-05
0.000714278 -7.89774e-06 -3.70545e-07
-7.89774e-06 1.13824e-05 -2.17515e-07
-3.70545e-07 -2.17515e-07 -6.16569e-05
0.000802613 -1.75577e-05 -1.11805e-07
-1.75577e-05 3.36277e-05 2.2443e-08
-1.11805e-07 2.2443e-08 -1.85055e-05
0.00073995 -2.60926e-05 -5.29993e-07
-2.60926e-05 1.33962e-05 2.46699e-07
-5.29993e-07 2.46699e-07 -5.10615e-05
0.000822823 -4.32267e-05 3.86131e-07
-4.32267e-05 6.49501e-05 -3.90802e-07
3.86131e-07 -3.90802e-07 -8.85757e-06
0.00086048 5.58912e-06 1.60368e-07
5.58912e-06 8.73537e-05 5.44636e-07
1.60368e-07 5.44636e-07 1.5265e-05
0.000766452 -2.81191e-05 6.16545e-07
-2.81191e-05 3.16992e-05 -1.01024e-06
6.16545e-07 -1.01024e-06 -4.44723e-05
0.000794242 -5.87537e-05 7.03111e-08
-5.87537e-05 4.47753e-05 -2.11582e-08
7.03111e-08 -2.11582e-08 -2.98738e-05
0.000900467 1.1443e-05 6.53621e-07
1.1443e-05 0.000103543 -2.35783e-07
6.53621e-07 -2.35783e-07 3.35666e-05
0.000808735 1.20703e-05 1.36518e-06
1.20703e-05 4.93555e-05 -1.01029e-07
1.36518e-06 -1.01029e-07 -1.82667e-05
0.000809037 4.19316e-06 6.16191e-07
4.19316e-06 3.47635e-05 4.79923e-07
6.16191e-07 4.79923e-07 -1.63585e-05
0.00075612 9.83675e-06 4.27374e-07
9.83675e-06 -2.66548e-06 1.44105e-06
4.27374e-07 1.44105e-06 -3.64102e-05
0.000765508 -1.01501e-06 -1.64602e-07
-1.01501e-06 9.73955e-07 3.74882e-09
-1.64602e-07 3.74882e-09 -3.19005e-05
0.00128286 -7.36412e-06 6.47195e-07
-7.36412e-06 0.000277481 1.93344e-06
6.47195e-07 1.93344e-06 0.000276796
0.00077625 -1.26513e-05 -3.58046e-07
-1.26513e-05 6.0256e-06 -1.56486e-06
-3.58046e-07 -1.56486e-06 -2.59285e-05
0.00130517 -1.35672e-05 -2.22112e-06
-1.35672e-05 0.00029149 -1.31876e-06
-2.22112e-06 -1.31876e-06 0.000290978
0.000970577 -1.24109e-05 1.00419e-05
-1.24109e-05 0.000109362 6.84707e-06
1.00419e-05 6.84707e-06 0.000123784
0.00132152 -1.98859e-05 -4.92721e-06
-1.98859e-05 0.000302976 -4.53972e-06
-4.92721e-06 -4.53972e-06 0.000302453
0.000917344 -1.86305e-05 3.69434e-06
-1.86305e-05 8.21229e-05 2.56237e-06
3.69434e-06 2.56237e-06 9.66198e-05
0.000853253 -2.42976e-05 -1.56052e-06
-2.42976e-05 5.13619e-05 -1.65477e-06
-1.56052e-06 -1.65477e-06 6.53479e-05
0.000767678 1.05882e-05 4.34433e-07
1.05882e-05 6.03021e-06 -1.74906e-06
4.34433e-07 -1.74906e-06 -2.67794e-05
0.000700556 2.31492e-05 8.00273e-07
2.31492e-05 -3.68676e-05 -3.48676e-06
8.00273e-07 -3.48676e-06 -4.32105e-05
0.00069997 2.92868e-05 -1.53244e-07
2.92868e-05 -3.16701e-05 2.80009e-08
-1.53244e-07 2.80009e-08 -4.05776e-05
0.00217962 4.36093e-05 1.95075e-05
4.36093e-05 0.000793654 -3.98375e-06
1.95075e-05 -3.98375e-06 0.000810717
0.000703128 3.46489e-05 -1.48205e-06
3.46489e-05 -2.36636e-05 3.71281e-06
-1.48205e-06 3.71281e-06 -3.55507e-05
0.0022665 5.2889e-05 -1.90841e-06
5.2889e-05 0.000849332 -1.10127e-07
-1.90841e-06 -1.10127e-07 0.000863979
0.00237675 6.15953e-05 -3.16666e-05
6.15953e-05 0.000918383 3.64471e-06
-3.16666e-05 3.64471e-06 0.000930497
0.00181191 9.05807e-05 1.90519e-06
9.05807e-05 0.000134343 1.09419e-06
1.90519e-06 1.09419e-06 3.85589e-05
0.00174077 5.90421e-05 1.54353e-06
5.90421e-05 8.54906e-05 -3.572e-07
1.54353e-06 -3.572e-07 -1.13049e-05
0.00171892 2.95199e-05 1.46895e-06
2.95199e-05 7.45493e-05 -5.98858e-07
1.46895e-06 -5.98858e-07 -2.92808e-05
0.00174915 6.38069e-06 4.73458e-07
6.38069e-06 0.000108054 -1.67229e-07
4.73458e-07 -1.67229e-07 -4.83993e-06
0.00178454 4.51725e-06 -4.24806e-07
4.51725e-06 0.000102947 1.31359e-07
-4.24806e-07 1.31359e-07 -2.06323e-06
0.00186691 4.08458e-05 3.91208e-07
4.08458e-05 0.000123166 -3.13972e-07
3.91208e-07 -3.13972e-07 3.19928e-05
0.0017285 9.29615e-05 -1.39003e-07
9.29615e-05 4.78841e-05 -1.6445e-07
-1.39003e-07 -1.6445e-07 -4.07542e-05
0.00179583 4.04437e-06 -1.04916e-06
4.04437e-06 9.14609e-05 8.15207e-07
-1.04916e-06 8.15207e-07 -7.2137e-07
0.00196079 5.35157e-05 -1.26479e-06
5.35157e-05 0.00016207 2.901e-07
-1.26479e-06 2.901e-07 8.22458e-05
0.00154574 3.73651e-05 1.3058e-07
3.73651e-05 -8.19422e-05 5.52216e-09
1.3058e-07 5.52216e-09 -0.00013779
0.00185775 -2.25089e-05 1.96471e-07
-2.25089e-05 0.000145003 -9.19503e-08
1.96471e-07 -9.19503e-08 3.79733e-05
0.00185005 -6.49526e-05 3.29624e-06
-6.49526e-05 0.000152355 -2.03699e-08
3.29624e-06 -2.03699e-08 5.93171e-05
0.00169042 -8.90295e-05 -7.82296e-07
-8.90295e-05 7.07223e-05 -3.81518e-07
-7.82296e-07 -3.81518e-07 -2.10235e-05
0.00108179 -0.000135437 -3.94701e-07
-0.000135437 0.000191891 1.92909e-06
-3.94701e-07 1.92909e-06 7.06353e-05
0.000813211 -0.000135888 4.79538e-07
-0.000135888 2.55413e-05 4.11972e-06
4.79538e-07 4.11972e-06 -0.000134874
0.00155202 -0.000202606 -2.20818e-06
-0.000202606 0.000251041 1.97001e-06
-2.20818e-06 1.97001e-06 7.14367e-05
0.00184353 -0.0001428 3.82991e-06
-0.0001428 0.000135583 -6.86383e-07
3.82991e-06 -6.86383e-07 3.76601e-05
0.00176365 -0.000197052 -1.00351e-06
-0.000197052 0.00015549 -2.38776e-06
-1.00351e-06 -2.38776e-06 3.19416e-05
0.00039681 -9.02648e-05 -1.67039e-06
-9.02648e-05 -0.000176883 1.09569e-06
-1.67039e-06 1.09569e-06 -0.000287063
0.0012145 -0.000134128 6.25054e-06
-0.000134128 0.000267542 -3.4854e-06
6.25054e-06 -3.4854e-06 0.000157387
0.000792199 5.85114e-06 5.63286e-08
5.85114e-06 4.23234e-05 -6.70402e-07
5.63286e-08 -6.70402e-07 -4.92348e-05
0.000749303 2.2053e-05 -7.87418e-07
2.2053e-05 4.66799e-07 1.12226e-06
-7.87418e-07 1.12226e-06 -3.66564e-05
0.000890026 2.42821e-05 -5.79367e-07
2.42821e-05 9.28701e-05 1.18335e-06
-5.79367e-07 1.18335e-06 2.90435e-05
0.000849436 -1.45236e-05 -5.61462e-07
-1.45236e-05 8.11664e-05 8.8399e-07
-5.61462e-07 8.8399e-07 -1.89524e-06
0.00185319 -3.95125e-05 -1.58935e-07
-3.95125e-05 0.000127573 7.40747e-08
-1.58935e-07 7.40747e-08 3.52643e-05
0.00076817 1.46534e-05 1.33616e-07
1.46534e-05 7.95827e-06 1.77661e-08
1.33616e-07 1.77661e-08 -2.68231e-05
0.000708434 -1.34734e-05 -3.92673e-07
-1.34734e-05 -8.10687e-06 7.85303e-08
-3.92673e-07 7.85303e-08 -6.32633e-05
0.00178496 -8.38056e-05 -1.53573e-07
-8.38056e-05 9.13448e-05 -1.63251e-07
-1.53573e-07 -1.63251e-07 1.15442e-05
0.00158759 -0.0001023 -1.00221e-06
-0.0001023 -3.7124e-05 7.46234e-07
-1.00221e-06 7.46234e-07 -0.000120729
0.000656559 -0.000112715 -2.23032e-07
-0.000112715 -1.92359e-05 2.49706e-06
-2.23032e-07 2.49706e-06 -0.000151389
0.00148184 -0.000188553 -1.46248e-06
-0.000188553 0.000342076 6.35806e-07
-1.46248e-06 6.35806e-07 0.000144125
0.00141768 -0.000205102 1.16432e-06
-0.000205102 7.91888e-05 -3.05631e-08
1.16432e-06 -3.05631e-08 -8.3398e-05
0.0019614 -0.00020239 2.00853e-06
-0.00020239 0.000179404 -4.97955e-07
2.00853e-06 -4.97955e-07 7.84835e-05
0.00085409 -2.0452e-05 1.17061e-06
-2.0452e-05 7.50378e-05 -5.95595e-07
1.17061e-06 -5.95595e-07 1.28764e-05
0.000842574 -2.14047e-05 -3.63252e-07
-2.14047e-05 8.16825e-05 5.43989e-07
-3.63252e-07 5.43989e-07 -7.22782e-07
0.000916915 -0.000114609 2.98751e-07
-0.000114609 6.75963e-05 -1.1078e-07
2.98751e-07 -1.1078e-07 -3.7871e-05
0.00122752 -0.000141287 4.63291e-06
-0.000141287 0.000294267 -1.68444e-06
4.63291e-06 -1.68444e-06 0.000188996
0.000689771 -7.90669e-05 -7.02858e-07
-7.90669e-05 9.14787e-06 2.77147e-07
-7.02858e-07 2.77147e-07 -0.000100953
0.000873362 4.76094e-07 2.18481e-07
4.76094e-07 9.44717e-05 -3.84834e-07
2.18481e-07 -3.84834e-07 5.50827e-06
0.00190183 -4.7478e-05 -3.08074e-06
-4.7478e-05 0.000122965 -1.38556e-07
-3.08074e-06 -1.38556e-07 5.04831e-05
0.00189822 -7.61508e-05 2.13606e-06
-7.61508e-05 0.000121652 4.39383e-07
2.13606e-06 4.39383e-07 5.03354e-05
0.00174231 -0.000176939 -6.40265e-06
-0.000176939 -1.42058e-05 -1.33973e-06
-6.40265e-06 -1.33973e-06 -9.30577e-05
0.00130428 -0.000211793 -1.57628e-07
-0.000211793 -0.000116867 3.74859e-07
-1.57628e-07 3.74859e-07 -0.00023126
0.000901486 -0.000100132 -3.85616e-06
-0.000100132 9.04958e-05 -1.91721e-06
-3.85616e-06 -1.91721e-06 -4.42493e-05
0.00208274 -0.000246465 -3.074e-06
-0.000246465 0.000588307 1.37569e-06
-3.074e-06 1.37569e-06 0.000371312
0.000594921 4.39332e-05 -1.08744e-06
4.39332e-05 -6.60846e-05 -1.6976e-06
-1.08744e-06 -1.6976e-06 -0.000122256
0.000792872 -3.09578e-05 8.47157e-07
-3.09578e-05 3.7055e-05 -1.12233e-06
8.47157e-07 -1.12233e-06 -1.98336e-05
0.000979312 -3.97119e-05 1.01548e-06
-3.97119e-05 0.000157615 -3.84087e-07
1.01548e-06 -3.84087e-07 8.51081e-05
0.00064786 1.78142e-05 -3.65238e-07
1.78142e-05 -2.21945e-05 -3.62056e-07
-3.65238e-07 -3.62056e-07 -0.000105366
0.00103703 -2.03001e-05 2.55367e-07
-2.03001e-05 0.000187306 2.65999e-07
2.55367e-07 2.65999e-07 0.000101447
0.000506497 -2.24299e-05 4.64297e-07
-2.24299e-05 -9.02472e-05 7.59513e-07
4.64297e-07 7.59513e-07 -0.0001928
0.00100963 -8.12951e-05 5.61921e-06
-8.12951e-05 0.000214707 6.60517e-07
5.61921e-06 6.60517e-07 8.43977e-05
0.000743293 -0.00012169 -1.28345e-05
-0.00012169 1.19631e-06 4.0229e-06
-1.28345e-05 4.0229e-06 -9.19434e-05
0.000682348 4.54685e-06 -2.2038e-07
4.54685e-06 -1.33614e-05 1.57598e-07
-2.2038e-07 1.57598e-07 -8.44385e-05
0.000821198 5.25287e-05 -1.78183e-06
5.25287e-05 7.62724e-05 -1.9823e-06
-1.78183e-06 -1.9823e-06 -1.90325e-05
0.00200724 0.000120109 1.7899e-07
0.000120109 0.000188421 -3.31048e-07
1.7899e-07 -3.31048e-07 0.00011248
0.00173286 0.00016618 2.58663e-06
0.00016618 8.24547e-05 1.65484e-06
2.58663e-06 1.65484e-06 -1.90096e-05
0.00120801 7.74387e-05 -2.55749e-06
7.74387e-05 0.000282963 -2.67933e-07
-2.55749e-06 -2.67933e-07 0.000162657
0.000931855 0.000127124 -5.07408e-07
0.000127124 0.000148461 -2.93772e-06
-5.07408e-07 -2.93772e-06 -8.65195e-06
0.00213407 0.000236868 1.68778e-06
0.000236868 0.000418158 5.01095e-07
1.68778e-06 5.01095e-07 0.000268402
0.00129865 0.000184738 -6.92721e-07
0.000184738 0.000218927 -1.00411e-06
-6.92721e-07 -1.00411e-06 2.16522e-05
0.000828382 5.67292e-06 5.43797e-07
5.67292e-06 7.18706e-05 -6.01577e-07
5.43797e-07 -6.01577e-07 -5.60124e-06
0.00177477 8.5036e-05 -4.50589e-07
8.5036e-05 3.82538e-05 1.65434e-07
-4.50589e-07 1.65434e-07 -2.69332e-05
0.000922218 8.39031e-05 1.11542e-07
8.39031e-05 0.000146555 1.2707e-06
1.11542e-07 1.2707e-06 3.22597e-05
0.00079588 0.000121817 4.40492e-07
0.000121817 5.47037e-05 -2.3879e-07
4.40492e-07 -2.3879e-07 -0.000109902
0.00200033 0.000149998 2.30544e-06
0.000149998 0.000122114 -1.0771e-07
2.30544e-06 -1.0771e-07 4.92703e-05
0.00173449 0.000227059 -9.13602e-08
0.000227059 6.81473e-05 -1.26618e-06
-9.13602e-08 -1.26618e-06 -5.4599e-05
0.00199742 0.000237969 9.47329e-07
0.000237969 0.000521204 1.29251e-06
9.47329e-07 1.29251e-06 0.000317256
0.00101817 2.60253e-05 -1.50693e-06
2.60253e-05 0.000187497 9.30692e-07
-1.50693e-06 9.30692e-07 9.17969e-05
0.00200263 9.90185e-05 -1.17965e-05
9.90185e-05 0.000133505 -1.14504e-06
-1.17965e-05 -1.14504e-06 9.01093e-05
0.00191638 0.000166883 -2.90247e-06
0.000166883 0.000663591 2.22528e-07
-2.90247e-06 2.22528e-07 0.000529371
0.00207368 0.000217191 -4.10094e-06
0.000217191 0.000692835 1.29157e-06
-4.10094e-06 1.29157e-06 0.00050634
0.00244503 0.000257729 -1.31421e-06
0.000257729 0.000339626 -1.47003e-06
-1.31421e-06 -1.47003e-06 0.000255836
0.00149681 0.000228662 -3.86938e-06
0.000228662 0.00013333 1.76957e-07
-3.86938e-06 1.76957e-07 -4.09462e-05
0.00028181 0.000105656 1.19979e-05
0.000105656 -0.000467443 2.48418e-07
1.19979e-05 2.48418e-07 -0.000618849
0.000836436 -5.6782e-06 -4.08735e-09
-5.6782e-06 7.13803e-05 -8.95268e-08
-4.08735e-09 -8.95268e-08 1.52391e-06
0.000873228 -2.30304e-05 -1.34195e-07
-2.30304e-05 9.84971e-05 2.21202e-07
-1.34195e-07 2.21202e-07 2.15041e-05
0.000925257 -1.37382e-05 -7.93483e-09
-1.37382e-05 0.000119828 -1.03474e-06
-7.93483e-09 -1.03474e-06 3.84321e-05
0.000791824 -4.44206e-05 -2.79594e-07
-4.44206e-05 3.01277e-05 -6.21742e-07
-2.79594e-07 -6.21742e-07 -2.36876e-05
0.000759918 -5.10277e-05 -1.03425e-06
-5.10277e-05 2.39868e-05 4.27822e-07
-1.03425e-06 4.27822e-07 -4.00172e-05
0.000885949 5.68395e-05 -8.91661e-07
5.68395e-05 0.00010506 6.20835e-07
-8.91661e-07 6.20835e-07 3.10696e-05
0.00078325 -4.53157e-05 1.28608e-08
-4.53157e-05 4.45088e-05 9.07845e-08
1.28608e-08 9.07845e-08 -3.05908e-05
0.000791554 -2.52303e-05 -8.1331e-08
-2.52303e-05 3.08352e-05 3.88155e-08
-8.1331e-08 3.88155e-08 -2.40228e-05
0.000765143 6.1036e-06 3.43568e-08
6.1036e-06 1.88849e-05 -8.56418e-08
3.43568e-08 -8.56418e-08 -4.41338e-05
0.000808898 -3.17494e-05 4.02276e-07
-3.17494e-05 5.42809e-05 -5.05458e-07
4.02276e-07 -5.05458e-07 -2.25675e-05
0.000886902 -2.1784e-05 -5.79633e-08
-2.1784e-05 9.38094e-05 4.32217e-08
-5.79633e-08 4.32217e-08 2.53804e-05
0.00088501 -4.47428e-05 3.38289e-07
-4.47428e-05 9.41049e-05 -2.40259e-08
3.38289e-07 -2.40259e-08 2.02054e-05
0.000845106 -3.79154e-05 -5.9702e-08
-3.79154e-05 6.67821e-05 -8.27301e-07
-5.9702e-08 -8.27301e-07 -8.83353e-06
0.000832581 -1.27593e-05 5.80455e-07
-1.27593e-05 5.60453e-05 -1.10903e-06
5.80455e-07 -1.10903e-06 -1.26237e-05
0.000872022 6.86155e-06 7.21142e-07
6.86155e-06 7.78028e-05 -4.32396e-07
7.21142e-07 -4.32396e-07 1.1586e-05
0.000826271 2.37649e-05 2.09204e-07
2.37649e-05 5.56057e-05 6.24041e-09
2.09204e-07 6.24041e-09 -1.49106e-05
0.000698181 -8.77668e-06 5.15723e-08
-8.77668e-06 -2.69975e-05 9.31753e-07
5.15723e-08 9.31753e-07 -8.00837e-05
0.000924744 -5.21998e-06 3.08699e-07
-5.21998e-06 0.000123204 -5.80575e-07
3.08699e-07 -5.80575e-07 5.02178e-05
0.000672076 7.44275e-06 -5.07676e-07
7.44275e-06 -3.70941e-05 9.23242e-07
-5.07676e-07 9.23242e-07 -9.20357e-05
0.000757705 1.25484e-05 1.4937e-07
1.25484e-05 -9.56007e-07 1.38495e-06
1.4937e-07 1.38495e-06 -3.50339e-05
0.000757875 3.18571e-06 -1.48535e-07
3.18571e-06 -1.72373e-06 4.64418e-09
-1.48535e-07 4.64418e-09 -3.54116e-05
0.000706936 8.63676e-07 2.29598e-07
8.63676e-07 -4.21108e-05 3.25314e-06
2.29598e-07 3.25314e-06 -4.66004e-05
0.000770693 -7.23413e-06 -4.81139e-08
-7.23413e-06 3.95489e-06 -1.46302e-06
-4.81139e-08 -1.46302e-06 -2.89411e-05
0.00101381 -5.52356e-06 -1.43921e-06
-5.52356e-06 0.000128425 -1.38061e-06
-1.43921e-06 -1.38061e-06 0.000125956
0.00214178 -8.78961e-06 6.20023e-06
-8.78961e-06 0.000757551 4.31289e-06
6.20023e-06 4.31289e-06 0.000778549
0.00133618 -1.25104e-05 -2.96821e-06
-1.25104e-05 0.000308936 -4.58532e-06
-2.96821e-06 -4.58532e-06 0.000308161
0.000928192 -1.26492e-05 1.99129e-06
-1.26492e-05 8.50636e-05 2.64767e-06
1.99129e-06 2.64767e-06 9.96907e-05
0.000869928 -1.81673e-05 -1.04598e-06
-1.81673e-05 5.55217e-05 -1.6522e-06
-1.04598e-06 -1.6522e-06 7.02618e-05
0.000766531 7.74605e-06 2.86129e-07
7.74605e-06 5.28607e-06 -1.7126e-06
2.86129e-07 -1.7126e-06 -2.63462e-05
0.00077003 9.46463e-06 -3.47041e-08
9.46463e-06 7.0685e-06 4.84855e-09
-3.47041e-08 4.84855e-09 -2.57581e-05
0.00071233 1.72195e-05 4.73103e-07
1.72195e-05 -3.46947e-05 -3.43379e-06
4.73103e-07 -3.43379e-06 -3.92645e-05
0.00101258 2.64675e-05 -4.68063e-07
2.64675e-05 0.00013627 3.32341e-08
-4.68063e-07 3.32341e-08 0.000131395
0.00213487 3.44884e-05 1.61856e-05
3.44884e-05 0.000763154 -4.11691e-06
1.61856e-05 -4.11691e-06 0.000782033
0.000711869 2.97884e-05 -1.04649e-06
2.97884e-05 -2.52538e-05 3.57667e-06
-1.04649e-06 3.57667e-06 -3.42539e-05
0.00220153 4.42447e-05 -1.99679e-06
4.42447e-05 0.00080664 -9.6433e-08
-1.99679e-06 -9.6433e-08 0.000823403
0.00229166 5.32357e-05 -2.65364e-05
5.32357e-05 0.000864113 3.84224e-06
-2.65364e-05 3.84224e-06 0.000878501
0.001723 9.46595e-05 -3.39951e-07
9.46595e-05 3.94265e-05 -5.1684e-07
-3.39951e-07 -5.1684e-07 -4.91347e-05
0.00184414 3.94168e-05 9.41641e-07
3.94168e-05 0.000107594 -6.59053e-07
9.41641e-07 -6.59053e-07 1.6053e-05
0.00180814 1.25328e-06 1.06238e-07
1.25328e-06 0.000115736 -1.5429e-07
1.06238e-07 -1.5429e-07 1.16492e-05
0.00177142 6.04023e-06 4.01028e-07
6.04023e-06 7.49614e-05 2.46755e-07
4.01028e-07 2.46755e-07 -1.74856e-05
0.00184078 5.18004e-05 -8.82429e-07
5.18004e-05 0.000102745 8.69236e-08
-8.82429e-07 8.69236e-08 2.24418e-05
0.00169518 3.63582e-05 2.14727e-06
3.63582e-05 2.6321e-06 1.2011e-07
2.14727e-06 1.2011e-07 -5.61709e-05
0.0016102 7.63193e-06 -1.33796e-06
7.63193e-06 -2.82649e-05 -1.80987e-07
-1.33796e-06 -1.80987e-07 -9.58729e-05
0.00334145 3.17493e-05 1.25285e-05
3.17493e-05 0.000672641 2.72319e-06
1.25285e-05 2.72319e-06 0.000616905
0.00165317 3.48706e-05 -7.16925e-06
3.48706e-05 -3.38911e-05 -6.31256e-07
-7.16925e-06 -6.31256e-07 -6.46553e-05
0.000793372 3.30018e-05 -1.05349e-07
3.30018e-05 4.06369e-05 -9.37623e-07
-1.05349e-07 -9.37623e-07 -1.12229e-05
0.00188216 -3.98972e-05 1.8032e-06
-3.98972e-05 0.000146214 1.326e-07
1.8032e-06 1.326e-07 5.56485e-05
0.0018276 -8.32964e-05 1.67296e-06
-8.32964e-05 0.000118164 -3.36583e-07
1.67296e-06 -3.36583e-07 3.77872e-05
0.00159169 -0.00010186 1.23072e-06
-0.00010186 -3.91626e-05 4.53478e-08
1.23072e-06 4.53478e-08 -0.000123885
0.000855692 -0.00012362 1.87765e-06
-0.00012362 9.45185e-05 3.40669e-06
1.87765e-06 3.40669e-06 -3.54715e-05
0.00110435 -0.000163127 1.45742e-06
-0.000163127 0.000145679 4.40781e-06
1.45742e-06 4.40781e-06 -5.92403e-05
0.00127627 -0.000194991 3.86172e-07
-0.000194991 4.55356e-06 -3.02694e-06
3.86172e-07 -3.02694e-06 -0.00015425
0.00170435 -0.000199289 6.3125e-07
-0.000199289 4.8208e-05 -1.52468e-06
6.3125e-07 -1.52468e-06 -5.37297e-05
0.0010963 -0.000124104 7.87878e-06
-0.000124104 0.000161095 -3.48319e-06
7.87878e-06 -3.48319e-06 5.08456e-05
0.00054719 -0.000102322 1.66986e-06
-0.000102322 -7.46424e-05 -8.99986e-06
1.66986e-06 -8.99986e-06 -0.000165425
0.000669637 -7.51023e-05 -1.55776e-07
-7.51023e-05 -3.2684e-06 -8.81862e-07
-1.55776e-07 -8.81862e-07 -0.000113418
0.000764058 1.27186e-05 -8.96444e-07
1.27186e-05 5.61366e-06 1.83164e-06
-8.96444e-07 1.83164e-06 -2.91136e-05
0.000886033 -9.31551e-06 -7.97549e-09
-9.31551e-06 0.000103694 -7.25476e-07
-7.97549e-09 -7.25476e-07 1.26594e-05
0.00103708 -4.83907e-05 -3.56376e-07
-4.83907e-05 0.000178447 4.21922e-07
-3.56376e-07 4.21922e-07 0.000115729
0.000831485 -1.41998e-05 -8.47778e-07
-1.41998e-05 7.53525e-05 8.78793e-07
-8.47778e-07 8.78793e-07 -6.93707e-06
0.000636012 -9.66329e-06 -3.55769e-07
-9.66329e-06 -5.11512e-05 1.08459e-06
-3.55769e-07 1.08459e-06 -0.000104605
0.00189174 -4.99907e-05 -3.99785e-07
-4.99907e-05 0.000115558 -1.03644e-07
-3.99785e-07 -1.03644e-07 4.47917e-05
0.000690082 1.81975e-05 1.82317e-07
1.81975e-05 -1.26601e-05 -6.40446e-07
1.82317e-07 -6.40446e-07 -6.87554e-05
0.000795379 -4.27351e-05 -3.52624e-07
-4.27351e-05 4.30181e-05 5.85156e-08
-3.52624e-07 5.85156e-08 -1.71067e-05
0.000840482 -1.63405e-05 -6.2167e-07
-1.63405e-05 8.28109e-05 5.67228e-07
-6.2167e-07 5.67228e-07 7.96798e-06
0.00175604 -8.00706e-05 5.21532e-07
-8.00706e-05 3.65547e-05 -4.89287e-07
5.21532e-07 -4.89287e-07 -3.4318e-05
0.00180371 -0.000178954 2.05126e-07
-0.000178954 3.43581e-05 -1.77657e-07
2.05126e-07 -1.77657e-07 -4.64108e-05
0.000885315 -0.000109098 1.14925e-06
-0.000109098 6.86553e-05 -1.22167e-07
1.14925e-06 -1.22167e-07 -5.9142e-05
0.00113057 -0.000186513 1.1936e-06
-0.000186513 0.000109246 -1.92053e-07
1.1936e-06 -1.92053e-07 -0.000110453
0.00165983 -0.000234373 -8.38997e-07
-0.000234373 7.27695e-05 1.63611e-07
-8.38997e-07 1.63611e-07 -4.62226e-05
0.000750657 1.5644e-07 -1.87729e-07
1.5644e-07 3.47537e-05 -2.53174e-08
-1.87729e-07 -2.53174e-08 -4.78921e-05
0.000949529 -3.70587e-05 -4.13624e-08
-3.70587e-05 0.000143547 9.02592e-08
-4.13624e-08 9.02592e-08 5.42623e-05
0.000630184 -0.000116795 -5.73567e-06
-0.000116795 -4.97258e-05 1.24137e-06
-5.73567e-06 1.24137e-06 -0.000152076
0.000974155 -7.09966e-05 8.79479e-07
-7.09966e-05 0.00018962 -3.51392e-07
8.79479e-07 -3.51392e-07 6.52671e-05
0.000740977 -4.72401e-05 -4.78176e-07
-4.72401e-05 3.67439e-05 7.22844e-07
-4.78176e-07 7.22844e-07 -6.63589e-05
0.0019276 -0.00010145 -3.31301e-06
-0.00010145 8.30326e-05 1.2781e-07
-3.31301e-06 1.2781e-07 2.81026e-05
0.00228276 -0.000116652 -1.52337e-06
-0.000116652 0.000282828 4.57158e-07
-1.52337e-06 4.57158e-07 0.000225442
0.00202442 -0.000257956 -3.53189e-06
-0.000257956 0.000157218 -6.58166e-07
-3.53189e-06 -6.58166e-07 5.74793e-05
0.00192262 -0.000254123 -7.2314e-06
-0.000254123 0.000396689 6.76326e-07
-7.2314e-06 6.76326e-07 0.000228032
0.000945918 -0.00011082 -4.40015e-06
-0.00011082 0.000139402 -1.93533e-06
-4.40015e-06 -1.93533e-06 -2.49175e-05
0.000622544 1.41046e-05 4.99201e-07
1.41046e-05 -3.8862e-05 -1.25699e-06
4.99201e-07 -1.25699e-06 -0.000112637
0.000663035 5.3446e-05 -6.62105e-08
5.3446e-05 -1.50829e-05 -8.20641e-07
-6.62105e-08 -8.20641e-07 -9.30185e-05
0.000962952 1.54379e-05 1.001e-06
1.54379e-05 0.000150353 2.03041e-07
1.001e-06 2.03041e-07 6.81945e-05
0.000805687 -6.4095e-05 1.63007e-06
-6.4095e-05 6.96964e-05 1.36579e-07
1.63007e-06 1.36579e-07 -2.14774e-05
0.000856205 -4.66509e-06 5.40726e-07
-4.66509e-06 8.96198e-05 1.0953e-06
5.40726e-07 1.0953e-06 -1.22895e-06
0.000753457 -1.02886e-05 1.55119e-06
-1.02886e-05 5.69153e-05 -4.78963e-07
1.55119e-06 -4.78963e-07 -5.68398e-05
0.000720343 -8.96088e-05 8.42469e-06
-8.96088e-05 7.85115e-05 9.50869e-07
8.42469e-06 9.50869e-07 -8.70052e-05
0.00082195 4.02107e-05 4.07073e-07
4.02107e-05 7.33348e-05 -1.49846e-06
4.07073e-07 -1.49846e-06 -7.82418e-06
0.000622784 4.56962e-05 3.46855e-07
4.56962e-05 -1.95964e-05 4.19186e-08
3.46855e-07 4.19186e-08 -0.000128007
0.00187549 8.23117e-05 8.51068e-07
8.23117e-05 9.12925e-05 -5.78568e-07
8.51068e-07 -5.78568e-07 2.6222e-05
0.00178478 0.000143223 3.39025e-06
0.000143223 7.70539e-06 -4.3878e-07
3.39025e-06 -4.3878e-07 -6.52047e-05
0.00189905 0.000231044 1.98115e-06
0.000231044 0.000152222 -5.40052e-07
1.98115e-06 -5.40052e-07 3.21461e-05
0.000555753 0.00010685 1.72928e-06
0.00010685 -7.4453e-05 -4.95813e-07
1.72928e-06 -4.95813e-07 -0.000240988
0.00190989 0.000236545 2.31865e-06
0.000236545 0.000480942 1.69766e-06
2.31865e-06 1.69766e-06 0.000277823
0.00101056 1.6457e-05 -2.43835e-07
1.6457e-05 0.000181321 2.15e-07
-2.43835e-07 2.15e-07 9.01565e-05
0.00190115 9.58421e-05 -1.23064e-06
9.58421e-05 7.34503e-05 -2.20409e-07
-1.23064e-06 -2.20409e-07 3.59017e-05
0.00129281 0.000131937 -9.70863e-07
0.000131937 0.000333543 1.66921e-07
-9.70863e-07 1.66921e-07 0.000204082
0.00143008 0.000174678 -6.32477e-07
0.000174678 0.000369449 1.03465e-06
-6.32477e-07 1.03465e-06 0.000181022
0.00214501 0.000238863 1.25525e-06
0.000238863 0.000178576 -6.62362e-07
1.25525e-06 -6.62362e-07 9.68769e-05
0.00144557 0.00022683 -1.40721e-06
0.00022683 0.000108867 1.07291e-06
-1.40721e-06 1.07291e-06 -6.92956e-05
0.00133879 0.000121727 1.25938e-05
0.000121727 -0.000140701 1.75283e-06
1.25938e-05 1.75283e-06 -0.000323024
0.00107948 5.00601e-05 -1.89475e-06
5.00601e-05 0.000216592 -1.24722e-06
-1.89475e-06 -1.24722e-06 0.0001121
0.00266059 0.000165047 -1.56647e-05
0.000165047 0.000478593 -1.00039e-05
-1.56647e-05 -1.00039e-05 0.000476668
0.00134172 0.000161985 -5.12942e-06
0.000161985 0.000366294 -1.18572e-06
-5.12942e-06 -1.18572e-06 0.000222247
0.00135434 0.00018722 -6.09131e-06
0.00018722 0.000274572 -2.89894e-07
-6.09131e-06 -2.89894e-07 6.65056e-05
0.000492318 0.000240776 -7.77964e-06
0.000240776 -0.000540435 -1.32001e-06
-7.77964e-06 -1.32001e-06 -0.00067662
0.00754929 3.96881e-05 -7.51655e-05
3.96881e-05 0.00236162 -2.81844e-05
-7.51655e-05 -2.81844e-05 0.00149958
0.00387773 0.000207103 9.20139e-05
0.000207103 0.000579827 3.37405e-06
9.20139e-05 3.37405e-06 -8.79059e-05
0.00013306 0.000205455 8.63189e-06
0.000205455 -0.000594054 1.77935e-05
8.63189e-06 1.77935e-05 -0.000690076
-0.00166895 -0.000337782 4.02572e-05
-0.000337782 -0.000688691 -1.12003e-05
4.02572e-05 -1.12003e-05 -0.000808551
0.00321667 -0.000656985 -2.27807e-05
-0.000656985 0.000399521 -1.06445e-05
-2.27807e-05 -1.06445e-05 0.00158314
0.000877505 -1.79465e-05 3.06925e-07
-1.79465e-05 0.000100073 -1.17723e-07
3.06925e-07 -1.17723e-07 2.33746e-05
0.000923423 -2.18174e-05 7.15592e-07
-2.18174e-05 0.000122048 -3.24802e-07
7.15592e-07 -3.24802e-07 4.11529e-05
0.000951974 2.32717e-05 -2.23358e-07
2.32717e-05 0.000140173 -2.06767e-06
-2.23358e-07 -2.06767e-06 5.89358e-05
0.000778996 -4.91738e-05 1.16471e-07
-4.91738e-05 2.7751e-05 -6.6949e-07
1.16471e-07 -6.6949e-07 -2.96189e-05
0.000721259 4.31132e-05 -9.29174e-07
4.31132e-05 -3.14985e-06 8.71021e-08
-9.29174e-07 8.71021e-08 -6.75485e-05
0.000881213 -4.80958e-05 -1.29999e-07
-4.80958e-05 9.16106e-05 2.7938e-07
-1.29999e-07 2.7938e-07 2.24554e-05
0.000971071 -2.7884e-05 -6.64549e-07
-2.7884e-05 0.000139959 4.10115e-07
-6.64549e-07 4.10115e-07 6.741e-05
0.000840654 -3.6671e-05 1.94392e-07
-3.6671e-05 7.05935e-05 -3.35197e-07
1.94392e-07 -3.35197e-07 -6.9696e-06
0.00081993 3.17969e-05 -6.16199e-07
3.17969e-05 5.37846e-05 -2.24774e-07
-6.16199e-07 -2.24774e-07 -1.60173e-05
0.000736045 -4.22685e-06 -1.31828e-08
-4.22685e-06 -2.12765e-06 5.25094e-07
-1.31828e-08 5.25094e-07 -5.66487e-05
0.000826004 2.32719e-05 -3.01174e-07
2.32719e-05 5.45319e-05 -7.93393e-08
-3.01174e-07 -7.93393e-08 -1.47508e-05
0.000873678 -3.6836e-05 -2.47348e-07
-3.6836e-05 8.24008e-05 4.43984e-07
-2.47348e-07 4.43984e-07 7.18937e-06
0.000858117 -1.63256e-05 -8.24622e-08
-1.63256e-05 7.01366e-05 -2.07798e-07
-8.24622e-08 -2.07798e-07 1.51363e-06
0.000777511 1.3575e-05 4.65838e-07
1.3575e-05 2.17708e-05 -8.90763e-07
4.65838e-07 -8.90763e-07 -4.56468e-05
0.000792126 -1.99362e-05 7.62668e-07
-1.99362e-05 3.02139e-05 -1.78552e-06
7.62668e-07 -1.78552e-06 -3.59811e-05
0.000893529 2.01335e-05 1.39918e-06
2.01335e-05 8.3536e-05 -8.21734e-08
1.39918e-06 -8.21734e-08 1.48866e-05
0.000781259 2.45608e-06 1.02607e-06
2.45608e-06 2.21714e-05 -1.34441e-07
1.02607e-06 -1.34441e-07 -4.64757e-05
0.000681298 -3.68473e-05 -1.25494e-06
-3.68473e-05 -3.13006e-05 9.404e-07
-1.25494e-06 9.404e-07 -8.72487e-05
0.000877048 1.33471e-05 -3.90523e-07
1.33471e-05 8.44081e-05 -1.0683e-07
-3.90523e-07 -1.0683e-07 1.39832e-05
0.000938288 6.02869e-05 5.73611e-09
6.02869e-05 0.000118998 -1.07802e-06
5.73611e-09 -1.07802e-06 4.6201e-05
0.000777811 6.85975e-06 -6.6958e-07
6.85975e-06 3.94681e-05 -1.89109e-07
-6.6958e-07 -1.89109e-07 -2.85835e-05
0.000880871 1.14987e-05 5.96629e-07
1.14987e-05 9.2077e-05 -3.72294e-07
5.96629e-07 -3.72294e-07 2.24863e-05
0.000791587 -2.79902e-05 -1.4006e-06
-2.79902e-05 2.96896e-05 4.4086e-07
-1.4006e-06 4.4086e-07 -2.38507e-05
0.000684206 8.73432e-06 1.49638e-07
8.73432e-06 -2.70876e-05 4.6885e-07
1.49638e-07 4.6885e-07 -8.42912e-05
0.00076732 1.45156e-05 -2.11075e-07
1.45156e-05 4.2803e-06 1.40914e-06
-2.11075e-07 1.40914e-06 -2.96859e-05
0.000756222 5.64343e-06 -1.26149e-07
5.64343e-06 -1.96363e-06 1.58917e-09
-1.26149e-07 1.58917e-09 -3.59385e-05
0.000726507 6.35149e-06 -3.54689e-07
6.35149e-06 -3.00181e-05 4.63147e-06
-3.54689e-07 4.63147e-06 -3.50474e-05
0.000756617 -3.65962e-06 2.97856e-07
-3.65962e-06 -2.46736e-06 -1.41255e-06
2.97856e-07 -1.41255e-06 -3.60709e-05
0.000711038 1.07308e-06 2.30416e-07
1.07308e-06 -3.98281e-05 -7.28804e-09
2.30416e-07 -7.28804e-09 -4.4348e-05
0.00215794 -9.44603e-07 3.10562e-07
-9.44603e-07 0.000766075 4.37926e-06
3.10562e-07 4.37926e-06 0.000786944
0.000734724 -4.31218e-06 -5.53187e-07
-4.31218e-06 -2.62566e-05 -4.62348e-06
-5.53187e-07 -4.62348e-06 -3.05412e-05
0.00153706 -7.11309e-06 -3.71235e-07
-7.11309e-06 0.00042151 2.59684e-08
-3.71235e-07 2.59684e-08 0.000439293
0.000881974 -1.17931e-05 -5.36317e-07
-1.17931e-05 5.87349e-05 -1.65021e-06
-5.36317e-07 -1.65021e-06 7.3696e-05
0.000769294 4.66544e-06 -1.13448e-07
4.66544e-06 6.72681e-06 -1.73232e-06
-1.13448e-07 -1.73232e-06 -2.4009e-05
0.000765518 6.3588e-06 4.63597e-08
6.3588e-06 4.39158e-06 3.58282e-09
4.63597e-08 3.58282e-09 -2.71909e-05
0.000716426 1.1432e-05 2.2185e-07
1.1432e-05 -3.52082e-05 -3.42352e-06
2.2185e-07 -3.42352e-06 -3.8605e-05
0.000770618 8.22431e-06 -8.00849e-07
8.22431e-06 7.10716e-06 1.83944e-06
-8.00849e-07 1.83944e-06 -2.57176e-05
0.00100378 1.94852e-05 -2.35421e-07
1.94852e-05 0.000126783 -6.92321e-07
-2.35421e-07 -6.92321e-07 0.000123856
0.00211357 2.56152e-05 1.2239e-05
2.56152e-05 0.000746892 -4.26393e-06
1.2239e-05 -4.26393e-06 0.000767039
0.000713538 2.41024e-05 -7.14671e-07
2.41024e-05 -2.94356e-05 3.4946e-06
-7.14671e-07 3.4946e-06 -3.60726e-05
0.00217826 3.44734e-05 -6.92472e-06
3.44734e-05 0.000788573 1.14827e-06
-6.92472e-06 1.14827e-06 0.000807097
0.00222024 4.47217e-05 -2.15812e-05
4.47217e-05 0.000817834 3.98735e-06
-2.15812e-05 3.98735e-06 0.000834334
0.00171849 5.02595e-05 7.12817e-07
5.02595e-05 4.19629e-05 -1.8838e-07
7.12817e-07 -1.8838e-07 -3.88042e-05
0.00175273 7.31064e-06 1.04014e-06
7.31064e-06 6.18451e-05 -1.31993e-07
1.04014e-06 -1.31993e-07 -3.08472e-05
0.00189729 3.6174e-05 3.96902e-06
3.6174e-05 0.000116664 2.08322e-07
3.96902e-06 2.08322e-07 5.55713e-05
0.00203885 3.31268e-05 1.30383e-05
3.31268e-05 3.51502e-05 2.2964e-06
1.30383e-05 2.2964e-06 -3.51576e-05
0.00181891 6.91984e-06 -5.79261e-07
6.91984e-06 8.17744e-05 -2.67634e-08
-5.79261e-07 -2.67634e-08 1.40001e-05
0.00184999 3.38155e-05 1.68661e-06
3.38155e-05 8.33588e-05 5.44804e-07
1.68661e-06 5.44804e-07 4.96912e-05
0.00236187 7.10285e-06 -7.54233e-06
7.10285e-06 0.000353249 4.00393e-07
-7.54233e-06 4.00393e-07 0.000299286
0.00326171 -2.01668e-05 0.000136952
-2.01668e-05 0.000479906 2.2231e-06
0.000136952 2.2231e-06 0.000149456
0.00170233 -2.67518e-05 -8.57872e-06
-2.67518e-05 -9.68931e-05 -3.82686e-06
-8.57872e-06 -3.82686e-06 -0.00015981
0.000795813 3.94671e-05 -8.41136e-07
3.94671e-05 4.36038e-05 -9.25311e-07
-8.41136e-07 -9.25311e-07 -9.078e-06
0.000791917 -1.34761e-05 7.0162e-07
-1.34761e-05 4.31127e-05 -6.97706e-08
7.0162e-07 -6.97706e-08 -1.12781e-05
0.000786016 -5.32304e-05 1.47111e-07
-5.32304e-05 4.48309e-05 -3.0953e-07
1.47111e-07 -3.0953e-07 -2.14976e-05
0.000794091 -1.96768e-05 -1.3209e-06
-1.96768e-05 5.87658e-05 8.86975e-09
-1.3209e-06 8.86975e-09 -1.29366e-05
0.00191338 -5.35466e-05 1.8693e-06
-5.35466e-05 0.000124687 -2.23853e-07
1.8693e-06 -2.23853e-07 5.54957e-05
0.0016338 -8.52101e-05 -1.40704e-06
-8.52101e-05 -3.77372e-05 9.63323e-08
-1.40704e-06 9.63323e-08 -0.000108469
0.00187234 -0.000179957 -6.3401e-07
-0.000179957 8.26735e-05 9.99288e-07
-6.3401e-07 9.99288e-07 -3.63179e-07
0.00094325 -0.000135957 3.71411e-06
-0.000135957 9.19811e-05 2.35624e-06
3.71411e-06 2.35624e-06 -3.18681e-05
0.00015133 -0.000124859 3.98811e-06
-0.000124859 -0.000389978 -9.24035e-07
3.98811e-06 -9.24035e-07 -0.000608668
0.00220197 -0.000266555 7.38818e-07
-0.000266555 0.00035927 -2.21617e-06
7.38818e-07 -2.21617e-06 0.000235932
0.000572889 -0.000103101 -7.15685e-06
-0.000103101 -7.49791e-05 1.03532e-06
-7.15685e-06 1.03532e-06 -0.000184488
0.00100261 -6.30706e-05 -1.36537e-06
-6.30706e-05 0.000198889 -1.11453e-06
-1.36537e-06 -1.11453e-06 8.0151e-05
0.000962288 -7.20965e-05 -1.95147e-06
-7.20965e-05 0.000156918 8.9695e-07
-1.95147e-06 8.9695e-07 5.30592e-05
0.000803022 -1.82893e-05 -1.30388e-06
-1.82893e-05 4.50586e-05 1.19804e-06
-1.30388e-06 1.19804e-06 -1.36069e-05
0.000847978 -4.94803e-05 -4.98494e-07
-4.94803e-05 9.363e-05 -1.91374e-07
-4.98494e-07 -1.91374e-07 -1.30754e-07
0.00086238 -3.67608e-06 -9.05744e-07
-3.67608e-06 9.41964e-05 6.075e-07
-9.05744e-07 6.075e-07 1.36381e-05
0.000797321 -4.43014e-06 -2.13923e-08
-4.43014e-06 4.82025e-05 4.55249e-07
-2.13923e-08 4.55249e-07 -8.44134e-06
0.000697764 1.90776e-05 -1.63191e-07
1.90776e-05 6.73374e-06 1.39506e-06
-1.63191e-07 1.39506e-06 -7.06372e-05
0.00194384 -8.62348e-05 9.70192e-09
-8.62348e-05 0.000114208 2.55617e-07
9.70192e-09 2.55617e-07 5.75315e-05
0.000800814 9.20346e-06 6.09734e-07
9.20346e-06 5.91194e-05 -4.6391e-07
6.09734e-07 -4.6391e-07 -1.3375e-05
0.000749187 2.16118e-05 5.42919e-07
2.16118e-05 3.36256e-05 -5.49155e-08
5.42919e-07 -5.49155e-08 -4.49391e-05
0.000853461 5.62113e-05 -3.93697e-07
5.62113e-05 9.3854e-05 7.54254e-07
-3.93697e-07 7.54254e-07 1.02147e-05
0.00198167 -0.000111272 -2.86576e-06
-0.000111272 0.00010799 8.46038e-07
-2.86576e-06 8.46038e-07 4.67254e-05
0.00187027 -0.000242516 6.15143e-07
-0.000242516 8.8735e-05 -1.04935e-06
6.15143e-07 -1.04935e-06 -8.31305e-06
0.00100084 -0.000143194 -1.2739e-06
-0.000143194 0.000156633 7.41919e-08
-1.2739e-06 7.41919e-08 -6.68994e-06
0.00216017 -0.000267773 -6.1772e-07
-0.000267773 0.000517859 -7.23782e-09
-6.1772e-07 -7.23782e-09 0.000345372
0.000903929 -1.85649e-05 -3.19114e-07
-1.85649e-05 0.000119758 5.64294e-08
-3.19114e-07 5.64294e-08 3.05938e-05
0.000816919 -2.14043e-05 -4.76203e-08
-2.14043e-05 7.50389e-05 9.0937e-07
-4.76203e-08 9.0937e-07 -1.82583e-05
0.000801268 -9.3834e-05 3.78334e-06
-9.3834e-05 0.00011192 -1.08625e-06
3.78334e-06 -1.08625e-06 -4.49941e-05
0.00101444 -5.98228e-05 9.86712e-07
-5.98228e-05 0.000202313 -1.11266e-06
9.86712e-07 -1.11266e-06 7.99626e-05
0.00187993 -7.2485e-05 -4.09919e-06
-7.2485e-05 3.41206e-05 3.4225e-06
-4.09919e-06 3.4225e-06 -2.86236e-05
0.00231576 -0.000217444 -5.34177e-06
-0.000217444 0.00023208 -1.86266e-06
-5.34177e-06 -1.86266e-06 0.000186663
0.00225574 -0.000284893 -3.7707e-06
-0.000284893 0.000412537 -2.13833e-06
-3.7707e-06 -2.13833e-06 0.000272638
0.00131765 -0.000204102 -1.56526e-06
-0.000204102 0.000303202 -1.24654e-06
-1.56526e-06 -1.24654e-06 0.000130306
0.000760819 2.68118e-05 -3.87713e-07
2.68118e-05 4.34601e-05 -4.94234e-07
-3.87713e-07 -4.94234e-07 -4.54716e-05
0.000776373 -3.76619e-05 7.00345e-07
-3.76619e-05 5.70269e-05 -8.02488e-07
7.00345e-07 -8.02488e-07 -3.23319e-05
0.000812128 -2.32832e-05 2.56177e-07
-2.32832e-05 7.61287e-05 3.88618e-07
2.56177e-07 3.88618e-07 -2.22641e-05
0.000838888 5.01995e-08 -7.65936e-07
5.01995e-08 0.00013493 4.46846e-07
-7.65936e-07 4.46846e-07 -3.61158e-05
0.000442826 -0.000102209 7.56885e-06
-0.000102209 -0.00131381 -3.73103e-06
7.56885e-06 -3.73103e-06 -0.00178032
0.000990056 1.01963e-05 9.25121e-07
1.01963e-05 0.000167599 -1.03301e-06
9.25121e-07 -1.03301e-06 8.15816e-05
0.000654968 8.72396e-05 1.98069e-06
8.72396e-05 -5.6039e-06 1.16702e-06
1.98069e-06 1.16702e-06 -0.000129001
0.00176315 9.35367e-05 1.05656e-05
9.35367e-05 -5.85257e-06 5.53365e-07
1.05656e-05 5.53365e-07 -3.66716e-05
0.00189908 0.00022296 8.03068e-07
0.00022296 4.49458e-05 -1.17613e-06
8.03068e-07 -1.17613e-06 -3.45842e-05
0.00134069 0.000221926 3.81403e-06
0.000221926 5.75753e-05 2.5911e-06
3.81403e-06 2.5911e-06 -0.000126127
0.000764303 0.000130288 3.72087e-06
0.000130288 3.41605e-05 1.1686e-06
3.72087e-06 1.1686e-06 -0.000156328
0.00232782 0.00014652 1.09704e-05
0.00014652 0.000170422 1.01646e-06
1.09704e-05 1.01646e-06 -5.44404e-05
0.000966561 4.41578e-05 8.10224e-07
4.41578e-05 0.000161375 -7.76619e-07
8.10224e-07 -7.76619e-07 5.90396e-05
0.00219335 0.000154871 -6.28895e-06
0.000154871 0.000236108 -2.24539e-06
-6.28895e-06 -2.24539e-06 0.000245312
0.00106155 0.000142615 1.52958e-07
0.000142615 0.000221165 -2.6377e-07
1.52958e-07 -2.6377e-07 8.09029e-05
0.00117047 0.000181701 -3.09485e-07
0.000181701 0.000186613 7.43454e-07
-3.09485e-07 7.43454e-07 -2.3656e-05
0.00123898 0.000277785 -1.98769e-06
0.000277785 -0.000177105 -6.20089e-07
-1.98769e-06 -6.20089e-07 -0.000306747
0.00272347 -0.000149758 -5.20896e-05
-0.000149758 3.9475e-06 -1.65597e-05
-5.20896e-05 -1.65597e-05 -0.000800201
0.00353062 0.000141031 4.99229e-06
0.000141031 0.000266112 -1.47934e-05
4.99229e-06 -1.47934e-05 -0.000497929
0.000298693 0.000175433 6.39072e-06
0.000175433 -0.00050656 5.69979e-06
6.39072e-06 5.69979e-06 -0.000608348
-0.00189871 -0.000199403 4.68764e-05
-0.000199403 -0.000470361 1.22286e-05
4.68764e-05 1.22286e-05 -0.00091229
-0.000134736 -0.000675097 1.51902e-06
-0.000675097 -0.00123206 -1.0974e-05
1.51902e-06 -1.0974e-05 0.000142316
0.00120625 9.60404e-05 -2.47639e-06
9.60404e-05 0.00031252 -2.48226e-06
-2.47639e-06 -2.48226e-06 0.000208354
0.000755998 0.000146814 -5.13416e-05
0.000146814 0.000803922 -2.40405e-05
-5.13416e-05 -2.40405e-05 0.000325473
0.00147101 -0.000341993 -4.79502e-05
-0.000341993 0.000742558 -4.57265e-05
-4.79502e-05 -4.57265e-05 0.000872065
0.00212389 0.000218402 -2.02279e-05
0.000218402 0.000250689 -5.75435e-06
-2.02279e-05 -5.75435e-06 0.000271111
0.00103223 8.74415e-05 -7.81672e-06
8.74415e-05 0.000222067 -1.85469e-06
-7.81672e-06 -1.85469e-06 6.84334e-05
0.00101765 0.000265344 -1.35887e-05
0.000265344 2.49151e-05 -6.99193e-06
-1.35887e-05 -6.99193e-06 -0.000195681
-0.000241342 0.000225404 7.89229e-06
0.000225404 -0.000788124 4.67214e-05
7.89229e-06 4.67214e-05 -0.000769877
0.00731748 -9.96733e-05 -4.46469e-05
-9.96733e-05 0.00254385 -1.51258e-05
-4.46469e-05 -1.51258e-05 0.00122882
0.0036852 0.000343365 -7.3652e-06
0.000343365 0.00052627 2.07094e-05
-7.3652e-06 2.07094e-05 -0.00052948
0.000726532 -0.000541178 2.67089e-06
-0.000541178 -0.000127421 3.59662e-06
2.67089e-06 3.59662e-06 0.000186234
0.00108318 -0.000374204 -2.86936e-05
-0.000374204 -0.00159264 2.65667e-05
-2.86936e-05 2.65667e-05 -0.00051198
0.000900388 -2.92129e-05 9.50324e-07
-2.92129e-05 0.000113984 -3.66317e-07
9.50324e-07 -3.66317e-07 3.33336e-05
0.000931638 1.06092e-05 1.77929e-08
1.06092e-05 0.000129564 1.50112e-08
1.77929e-08 1.50112e-08 4.91294e-05
0.00111925 4.68437e-05 -7.41948e-07
4.68437e-05 0.000228396 -2.88013e-06
-7.41948e-07 -2.88013e-06 0.000162433
0.00077543 2.80515e-06 -1.28884e-07
2.80515e-06 2.9306e-05 -5.91458e-08
-1.28884e-07 -5.91458e-08 -3.04922e-05
0.000834146 1.70669e-05 -6.8627e-07
1.70669e-05 5.78344e-05 -8.95964e-08
-6.8627e-07 -8.95964e-08 -1.02084e-05
0.000769286 -3.2965e-05 -5.71462e-07
-3.2965e-05 2.03725e-05 1.73081e-07
-5.71462e-07 1.73081e-07 -4.58702e-05
0.000896792 -1.893e-05 4.73573e-08
-1.893e-05 9.15529e-05 4.18746e-07
4.73573e-08 4.18746e-07 2.27119e-05
0.000931834 -3.91679e-05 -2.0228e-07
-3.91679e-05 0.000114789 1.59769e-06
-2.0228e-07 1.59769e-06 3.95057e-05
0.000684525 -2.70866e-07 4.76379e-07
-2.70866e-07 -2.73251e-05 4.74197e-07
4.76379e-07 4.74197e-07 -8.48113e-05
0.000833768 -1.32978e-05 -1.43339e-07
-1.32978e-05 5.17114e-05 -1.64945e-07
-1.43339e-07 -1.64945e-07 -1.58144e-05
0.000901042 -1.25615e-05 -3.41038e-08
-1.25615e-05 8.9746e-05 2.73003e-07
-3.41038e-08 2.73003e-07 2.04821e-05
0.000854591 2.40932e-05 5.48561e-07
2.40932e-05 6.96634e-05 -2.22285e-07
5.48561e-07 -2.22285e-07 -2.65642e-06
0.000817888 -1.68209e-05 1.73445e-07
-1.68209e-05 4.38156e-05 -1.12025e-07
1.73445e-07 -1.12025e-07 -2.18106e-05
0.000828216 -2.24903e-05 5.88275e-07
-2.24903e-05 4.22502e-05 -9.35658e-07
5.88275e-07 -9.35658e-07 -2.45984e-05
0.000814614 1.38371e-05 -6.18327e-07
1.38371e-05 3.35851e-05 -3.88703e-06
-6.18327e-07 -3.88703e-06 -2.55958e-05
0.00091435 -5.70443e-05 2.13322e-07
-5.70443e-05 9.21819e-05 -4.67205e-07
2.13322e-07 -4.67205e-07 2.03024e-05
0.000889816 -4.367e-05 -4.77318e-07
-4.367e-05 9.12234e-05 -4.99306e-07
-4.77318e-07 -4.99306e-07 1.82747e-05
0.00089268 -8.52608e-06 -4.52593e-07
-8.52608e-06 9.33842e-05 -1.4766e-07
-4.52593e-07 -1.4766e-07 2.22027e-05
0.000917285 4.9023e-05 -4.392e-07
4.9023e-05 0.000104218 -2.85504e-07
-4.392e-07 -2.85504e-07 3.30451e-05
0.000878569 2.1325e-05 -3.83206e-07
2.1325e-05 8.57167e-05 -9.83959e-07
-3.83206e-07 -9.83959e-07 6.95269e-06
0.000833857 4.86137e-05 2.01278e-07
4.86137e-05 6.46956e-05 -6.67526e-07
2.01278e-07 -6.67526e-07 -6.19347e-06
0.000867598 5.35963e-05 -3.7235e-10
5.35963e-05 7.41953e-05 -1.15721e-06
-3.7235e-10 -1.15721e-06 4.93229e-06
0.000761297 4.29473e-05 1.41324e-06
4.29473e-05 3.88427e-05 1.01444e-06
1.41324e-06 1.01444e-06 -3.6058e-05
0.000780722 1.94578e-05 -2.85777e-07
1.94578e-05 3.62501e-05 -1.01083e-07
-2.85777e-07 -1.01083e-07 -2.60263e-05
0.000800875 1.48191e-06 -6.63131e-08
1.48191e-06 4.99598e-05 2.07828e-08
-6.63131e-08 2.07828e-08 -1.67952e-05
0.000788349 9.3882e-06 -1.05875e-06
9.3882e-06 2.54805e-05 3.48881e-07
-1.05875e-06 3.48881e-07 -2.51783e-05
0.000833166 1.5433e-05 7.17648e-07
1.5433e-05 5.77033e-05 -1.08923e-07
7.17648e-07 -1.08923e-07 -7.64465e-06
0.000758584 -2.29607e-05 -3.42475e-08
-2.29607e-05 1.1285e-05 1.71407e-08
-3.42475e-08 1.71407e-08 -4.27261e-05
0.000771959 1.66525e-05 -5.68833e-07
1.66525e-05 6.84738e-06 1.47361e-06
-5.68833e-07 1.47361e-06 -2.68245e-05
0.00069524 8.38893e-06 4.64432e-07
8.38893e-06 -1.79562e-05 -3.96627e-08
4.64432e-07 -3.96627e-08 -7.72069e-05
0.000761382 8.6649e-06 -1.1736e-07
8.6649e-06 6.35942e-07 1.47723e-09
-1.1736e-07 1.47723e-09 -3.31725e-05
0.00134614 1.41725e-05 -2.97199e-06
1.41725e-05 0.000315954 4.54272e-06
-2.97199e-06 4.54272e-06 0.000313918
0.000753539 -1.15273e-06 5.80317e-07
-1.15273e-06 -3.59319e-06 -1.39453e-06
5.80317e-07 -1.39453e-06 -3.74805e-05
0.00103077 7.51778e-06 -1.41769e-06
7.51778e-06 0.000138905 6.86293e-07
-1.41769e-06 6.86293e-07 0.000135574
0.000940765 3.59598e-06 -3.07095e-06
3.59598e-06 9.05775e-05 4.26225e-06
-3.07095e-06 4.26225e-06 0.000104786
0.000716327 1.27488e-06 1.3595e-08
1.27488e-06 -3.68679e-05 -3.23776e-06
1.3595e-08 -3.23776e-06 -4.14277e-05
0.00216224 -2.1415e-07 2.76945e-06
-2.1415e-07 0.000768495 -6.4181e-10
2.76945e-06 -6.4181e-10 0.000789318
0.000949922 -3.84141e-06 -2.58157e-06
-3.84141e-06 9.53795e-05 -4.25672e-06
-2.58157e-06 -4.25672e-06 0.000110019
0.000794135 5.55326e-05 5.85715e-07
5.55326e-05 4.59049e-05 -2.07424e-07
5.85715e-07 -2.07424e-07 -1.00834e-05
0.000767561 8.68945e-07 -7.55389e-08
8.68945e-07 5.32229e-06 -1.68075e-06
-7.55389e-08 -1.68075e-06 -2.48602e-05
0.000767209 3.47444e-06 -1.05954e-07
3.47444e-06 5.37558e-06 -6.37788e-09
-1.05954e-07 -6.37788e-09 -2.53073e-05
0.000720014 5.43888e-06 -7.23562e-08
5.43888e-06 -3.49e-05 -3.39005e-06
-7.23562e-08 -3.39005e-06 -3.73866e-05
0.00076605 5.07285e-06 -3.7988e-07
5.07285e-06 4.33476e-06 1.72057e-06
-3.7988e-07 1.72057e-06 -2.72067e-05
0.000711029 1.16095e-05 2.20207e-08
1.16095e-05 -3.8586e-05 -7.08551e-07
2.20207e-08 -7.08551e-07 -4.18888e-05
0.00209374 1.67251e-05 8.18426e-06
1.67251e-05 0.00073281 -4.36556e-06
8.18426e-06 -4.36556e-06 0.00075388
0.00129452 2.33586e-05 -1.18965e-06
2.33586e-05 0.000288574 2.07159e-06
-1.18965e-06 2.07159e-06 0.000287017
0.00153687 2.18781e-05 3.6576e-07
2.18781e-05 0.000427649 1.36229e-06
3.6576e-07 1.36229e-06 0.000444344
0.000989587 2.45402e-05 -1.63373e-05
2.45402e-05 0.000128867 6.87725e-06
-1.63373e-05 6.87725e-06 0.000140884
0.000295518 4.15099e-05 2.11994e-05
4.15099e-05 -0.000821719 8.75479e-06
2.11994e-05 8.75479e-06 -0.000915916
0.00199659 6.03613e-06 2.85234e-06
6.03613e-06 0.000174051 2.07212e-07
2.85234e-06 2.07212e-07 0.00010609
0.00201406 3.13384e-05 1.05777e-05
3.13384e-05 0.000182388 -4.45395e-07
1.05777e-05 -4.45395e-07 0.000144888
0.000894648 1.56408e-05 2.20251e-05
1.56408e-05 -0.000486134 -3.85467e-06
2.20251e-05 -3.85467e-06 -0.000839904
0.00177789 -2.01532e-05 5.53484e-07
-2.01532e-05 -8.53743e-06 6.47161e-07
5.53484e-07 6.47161e-07 -6.71756e-05
0.00200897 -2.51646e-06 -2.84046e-06
-2.51646e-06 0.000108915 -9.793e-07
-2.84046e-06 -9.793e-07 6.03465e-05
0.00213779 -1.77059e-05 -2.71496e-05
-1.77059e-05 0.000184427 2.27669e-06
-2.71496e-05 2.27669e-06 0.000135659
0.00176457 -9.8285e-05 0.000134541
-9.8285e-05 -8.97136e-05 -9.77827e-06
0.000134541 -9.77827e-06 -0.000401875
0.00808045 -4.48645e-05 -3.06691e-05
-4.48645e-05 0.00262985 2.76862e-06
-3.06691e-05 2.76862e-06 0.00173499
0.00360664 0.000682913 3.91582e-05
0.000682913 0.00173239 -1.05533e-05
3.91582e-05 -1.05533e-05 0.0019188
0.00208829 0.000640654 -1.23983e-05
0.000640654 0.000605209 1.25648e-05
-1.23983e-05 1.25648e-05 0.00162186
0.000655121 -5.86506e-05 1.17144e-06
-5.86506e-05 -2.20573e-05 -8.57271e-07
1.17144e-06 -8.57271e-07 -9.11026e-05
0.000797452 -9.6738e-06 3.76446e-07
-9.6738e-06 4.59502e-05 -4.98561e-08
3.76446e-07 -4.98561e-08 -7.75678e-06
0.000790456 -6.02316e-05 -1.15406e-06
-6.02316e-05 4.61732e-05 1.09555e-06
-1.15406e-06 1.09555e-06 -1.09987e-05
0.000773119 -2.5138e-05 -3.15422e-07
-2.5138e-05 4.19078e-05 5.47739e-08
-3.15422e-07 5.47739e-08 -2.7777e-05
0.000773787 4.09854e-05 1.9957e-07
4.09854e-05 5.45498e-05 6.08857e-07
1.9957e-07 6.08857e-07 -2.78563e-05
0.000919885 8.18218e-05 5.09592e-07
8.18218e-05 0.000123687 8.49892e-07
5.09592e-07 8.49892e-07 4.60424e-05
0.000849283 -2.37289e-05 7.29286e-07
-2.37289e-05 8.28479e-05 -9.42975e-07
7.29286e-07 -9.42975e-07 1.3522e-05
0.000756861 -3.55059e-05 -5.00699e-07
-3.55059e-05 3.41957e-05 6.18405e-07
-5.00699e-07 6.18405e-07 -3.50183e-05
0.00196668 -6.9923e-05 3.40841e-06
-6.9923e-05 0.000149542 -6.00597e-07
3.40841e-06 -6.00597e-07 9.17122e-05
0.00164607 -0.000109877 1.5679e-06
-0.000109877 -9.35221e-05 -1.01218e-07
1.5679e-06 -1.01218e-07 -0.000158188
0.00160059 -0.000225114 6.27928e-07
-0.000225114 -3.83611e-05 4.69442e-07
6.27928e-07 4.69442e-07 -0.000132816
0.000961663 -0.000156292 1.68953e-06
-0.000156292 0.000119955 2.68346e-06
1.68953e-06 2.68346e-06 -4.05743e-05
0.00215405 -0.000267614 1.44722e-06
-0.000267614 0.000513615 5.76046e-07
1.44722e-06 5.76046e-07 0.000336029
0.000838977 -9.53358e-05 -8.12492e-07
-9.53358e-05 0.00012308 -5.65999e-07
-8.12492e-07 -5.65999e-07 -2.56029e-05
0.00126278 -0.000106569 -3.06588e-07
-0.000106569 0.000341503 -5.71958e-07
-3.06588e-07 -5.71958e-07 0.000210403
0.000803515 -4.678e-05 -1.43722e-06
-4.678e-05 7.43248e-05 5.58697e-07
-1.43722e-06 5.58697e-07 -2.1497e-05
0.000802247 -2.59427e-06 6.05819e-08
-2.59427e-06 6.38141e-05 7.56673e-07
6.05819e-08 7.56673e-07 -1.48146e-05
0.00100673 1.25652e-05 -1.23024e-06
1.25652e-05 0.000172328 -2.4985e-07
-1.23024e-06 -2.4985e-07 8.52562e-05
0.00100821 -3.40739e-06 6.21733e-07
-3.40739e-06 0.00017197 3.88999e-07
6.21733e-07 3.88999e-07 0.00010108
0.000760861 9.2616e-05 1.07131e-06
9.2616e-05 4.59901e-05 1.65478e-06
1.07131e-06 1.65478e-06 -3.9281e-05
0.0016008 -7.35196e-05 -1.14725e-06
-7.35196e-05 -0.000122153 -2.1893e-06
-1.14725e-06 -2.1893e-06 -0.000180058
0.000829391 3.19208e-05 -4.55765e-07
3.19208e-05 8.1073e-05 2.74196e-07
-4.55765e-07 2.74196e-07 -5.87346e-06
0.000840994 -2.88137e-05 -4.13367e-07
-2.88137e-05 8.74451e-05 -3.4698e-07
-4.13367e-07 -3.4698e-07 5.26376e-07
0.00206339 -0.00021785 -2.05584e-07
-0.00021785 0.000106203 -1.02094e-06
-2.05584e-07 -1.02094e-06 5.33194e-05
0.00117537 -0.000230851 6.9274e-07
-0.000230851 -0.000137275 1.16066e-06
6.9274e-07 1.16066e-06 -0.000265637
0.00136507 -0.000208198 1.16965e-06
-0.000208198 0.000321282 -1.46189e-06
1.16965e-06 -1.46189e-06 0.00013712
0.000953202 -2.16861e-05 2.09131e-07
-2.16861e-05 0.000153846 -5.83259e-07
2.09131e-07 -5.83259e-07 5.28186e-05
0.000969109 -3.22133e-05 1.48624e-07
-3.22133e-05 0.000201164 5.40908e-07
1.48624e-07 5.40908e-07 3.08284e-05
0.00376595 -0.000180851 -1.07093e-05
-0.000180851 0.00114993 5.6132e-06
-1.07093e-05 5.6132e-06 0.0010725
0.00295864 -0.000309937 -1.21998e-05
-0.000309937 0.000640223 1.14821e-06
-1.21998e-05 1.14821e-06 0.000594744
-0.00057583 -0.000150364 -3.82663e-06
-0.000150364 -0.000854791 -1.50758e-06
-3.82663e-06 -1.50758e-06 -0.000994391
0.00115176 -0.000130781 -4.71832e-06
-0.000130781 0.000250475 3.53553e-06
-4.71832e-06 3.53553e-06 5.34436e-05
0.000715946 -7.61058e-05 1.1052e-06
-7.61058e-05 1.11634e-05 -1.6074e-07
1.1052e-06 -1.6074e-07 -7.46891e-05
0.00084743 -3.15251e-05 1.02619e-06
-3.15251e-05 8.74218e-05 3.01969e-08
1.02619e-06 3.01969e-08 -3.84653e-06
0.000920488 -7.08757e-06 -2.22356e-06
-7.08757e-06 0.000143487 5.28748e-07
-2.22356e-06 5.28748e-07 2.70355e-05
-0.00384685 -3.19328e-05 7.56339e-05
-3.19328e-05 -0.00173224 4.95464e-06
7.56339e-05 4.95464e-06 -0.00155186
0.00839398 -5.98759e-05 -3.08795e-05
-5.98759e-05 0.00286173 -7.83807e-07
-3.08795e-05 -7.83807e-07 0.00228046
0.000900877 4.25323e-05 2.29898e-06
4.25323e-05 0.00013214 -3.3861e-07
2.29898e-06 -3.3861e-07 3.09906e-05
0.000782608 0.000123492 3.41695e-06
0.000123492 7.61978e-05 -4.648e-08
3.41695e-06 -4.648e-08 -6.07035e-05
0.00171126 0.000137241 5.3105e-06
0.000137241 -1.94453e-05 6.16855e-06
5.3105e-06 6.16855e-06 3.84081e-06
0.00198105 0.000314713 3.18134e-06
0.000314713 0.0001842 1.06461e-06
3.18134e-06 1.06461e-06 6.15307e-05
0.00103158 0.000178054 5.68505e-06
0.000178054 0.000121182 1.9517e-06
5.68505e-06 1.9517e-06 -9.02445e-05
0.00539515 0.000196919 6.20655e-05
0.000196919 0.00126392 1.12645e-06
6.20655e-05 1.12645e-06 0.000310943
0.00545449 0.000203432 -8.72187e-05
0.000203432 0.00107811 -2.90623e-05
-8.72187e-05 -2.90623e-05 0.000443961
0.00011362 0.000135277 3.79506e-06
0.000135277 -0.000605806 -1.8925e-05
3.79506e-06 -1.8925e-05 -0.000700694
0.00392773 -0.000551042 1.39648e-05
-0.000551042 0.00195492 2.11137e-05
1.39648e-05 2.11137e-05 0.00184807
-0.00346566 -0.000713303 -4.01557e-05
-0.000713303 -0.00278795 -5.05976e-05
-4.01557e-05 -5.05976e-05 -0.00120816
0.000970136 0.000102672 3.72426e-07
0.000102672 0.000188607 -6.86675e-07
3.72426e-07 -6.86675e-07 8.3173e-05
-0.00253527 -0.000168496 2.4648e-05
-0.000168496 -0.0013678 3.20577e-06
2.4648e-05 3.20577e-06 -0.00134329
-0.000467049 -0.000311572 -2.95834e-05
-0.000311572 -4.14422e-05 -1.07444e-05
-2.95834e-05 -1.07444e-05 -0.000145283
0.0024678 0.000222453 -3.99002e-06
0.000222453 0.000404619 -3.23813e-06
-3.99002e-06 -3.23813e-06 0.000440727
0.000891793 0.000102359 -7.83673e-07
0.000102359 0.000163518 -6.45213e-07
-7.83673e-07 -6.45213e-07 7.9366e-06
0.000605671 0.000197869 1.51191e-06
0.000197869 -0.000162274 1.56231e-06
1.51191e-06 1.56231e-06 -0.00037358
0.000235687 0.000145975 1.47596e-05
0.000145975 -0.000476669 1.04969e-05
1.47596e-05 1.04969e-05 -0.000416164
0.00620233 -5.63104e-05 -7.16438e-06
-5.63104e-05 0.00187143 -4.73117e-06
-7.16438e-06 -4.73117e-06 0.00045545
0.00603872 0.000479374 -3.04441e-05
0.000479374 0.00152593 -1.69478e-05
-3.04441e-05 -1.69478e-05 0.000780293
0.00483484 -0.000786672 1.9312e-05
-0.000786672 0.00202674 -1.48935e-05
1.9312e-05 -1.48935e-05 0.00209224
0.00107081 -0.000434806 2.58896e-05
-0.000434806 -0.0017022 5.8846e-05
2.58896e-05 5.8846e-05 -0.000575189
0.00101059 6.02046e-05 -5.92175e-06
6.02046e-05 0.000228043 -5.45892e-06
-5.92175e-06 -5.45892e-06 0.000138227
-0.00224306 -9.10202e-05 -7.04719e-05
-9.10202e-05 -0.000330278 -2.08846e-05
-7.04719e-05 -2.08846e-05 -0.00093665
0.00191871 -1.35432e-05 -6.01051e-05
-1.35432e-05 0.000214656 -6.31133e-05
-6.01051e-05 -6.31133e-05 -0.000300059
0.000558723 0.000204335 -2.32063e-05
0.000204335 -0.000283148 -5.02945e-07
-2.32063e-05 -5.02945e-07 -0.000270564
0.00154626 0.000223317 -2.53629e-05
0.000223317 0.000567556 -7.16299e-06
-2.53629e-05 -7.16299e-06 0.000391681
0.00226612 0.000130787 -4.1276e-05
0.000130787 0.000867023 -1.49344e-06
-4.1276e-05 -1.49344e-06 0.000754584
0.0046191 0.000615402 -9.56418e-05
0.000615402 0.000966095 7.22142e-06
-9.56418e-05 7.22142e-06 0.000568706
-0.00114579 -4.09791e-05 4.44506e-05
-4.09791e-05 -0.0010316 4.66073e-05
4.44506e-05 4.66073e-05 -0.00288129
0.00654395 -0.000745711 -5.01626e-05
-0.000745711 0.00166507 2.47369e-05
-5.01626e-05 2.47369e-05 0.00179777
0.00168467 -0.000255864 -1.10742e-05
-0.000255864 -0.00183956 -1.62008e-05
-1.10742e-05 -1.62008e-05 -0.000742785
0.000903344 2.32158e-05 1.07787e-06
2.32158e-05 0.000118549 2.38831e-06
1.07787e-06 2.38831e-06 3.53835e-05
0.00108606 5.18032e-05 1.46568e-06
5.18032e-05 0.000212633 1.63148e-06
1.46568e-06 1.63148e-06 0.000143193
0.000566914 4.88614e-05 -5.57281e-08
4.88614e-05 -6.24713e-05 -5.98976e-06
-5.57281e-08 -5.98976e-06 -0.000111881
0.00068205 3.8386e-05 3.45217e-07
3.8386e-05 -2.88263e-05 1.31402e-09
3.45217e-07 1.31402e-09 -8.62235e-05
0.000917023 3.49721e-05 -7.55992e-07
3.49721e-05 0.000108279 -2.92638e-07
-7.55992e-07 -2.92638e-07 3.43775e-05
0.000894255 -2.7503e-05 -4.88756e-07
-2.7503e-05 8.69287e-05 6.23029e-07
-4.88756e-07 6.23029e-07 1.79713e-05
0.000863485 -2.52958e-05 -6.23529e-07
-2.52958e-05 6.85565e-05 9.29146e-08
-6.23529e-07 9.29146e-08 1.29303e-07
0.000837647 -1.81534e-05 -7.49049e-07
-1.81534e-05 5.42001e-05 1.98025e-06
-7.49049e-07 1.98025e-06 -1.08742e-05
0.00088541 2.76582e-05 3.05516e-07
2.76582e-05 8.93685e-05 -4.63731e-07
3.05516e-07 -4.63731e-07 1.61626e-05
0.000905977 -2.34114e-05 -7.47287e-08
-2.34114e-05 8.52566e-05 3.63927e-07
-7.47287e-08 3.63927e-07 1.8182e-05
0.000915052 -3.55887e-05 9.83816e-08
-3.55887e-05 9.53575e-05 2.76366e-07
9.83816e-08 2.76366e-07 2.15934e-05
0.000768829 -3.2685e-06 2.36969e-08
-3.2685e-06 1.35602e-05 -2.95272e-07
2.36969e-08 -2.95272e-07 -4.31967e-05
0.000891178 -3.28032e-05 2.07874e-06
-3.28032e-05 9.04787e-05 -3.27167e-06
2.07874e-06 -3.27167e-06 4.36451e-05
0.000887944 -3.14084e-05 1.75026e-07
-3.14084e-05 6.83562e-05 -2.74681e-06
1.75026e-07 -2.74681e-06 2.53334e-06
0.000911202 3.58197e-06 1.20544e-07
3.58197e-06 0.00010062 -7.72424e-07
1.20544e-07 -7.72424e-07 1.98475e-05
0.000901133 -3.3966e-05 7.77534e-08
-3.3966e-05 0.000100662 -2.61082e-07
7.77534e-08 -2.61082e-07 2.73422e-05
0.000897288 1.77047e-05 -3.96051e-07
1.77047e-05 8.85178e-05 5.27629e-07
-3.96051e-07 5.27629e-07 1.98462e-05
0.000875752 -7.40549e-06 2.45778e-07
-7.40549e-06 8.08381e-05 -2.99801e-07
2.45778e-07 -2.99801e-07 4.29694e-06
0.000831038 4.57512e-05 -1.12756e-07
4.57512e-05 6.16226e-05 -1.15404e-08
-1.12756e-07 -1.15404e-08 -8.54566e-06
0.00086451 2.36187e-05 -3.4379e-07
2.36187e-05 6.98286e-05 1.66192e-07
-3.4379e-07 1.66192e-07 2.52422e-06
0.000779914 5.44479e-05 7.49477e-07
5.44479e-05 4.02485e-05 1.63598e-08
7.49477e-07 1.63598e-08 -3.04771e-05
0.000797699 3.37304e-05 3.33877e-08
3.37304e-05 3.80744e-05 -1.38703e-06
3.33877e-08 -1.38703e-06 -3.72184e-05
0.000840001 3.72141e-05 3.98974e-07
3.72141e-05 6.38286e-05 -9.52541e-07
3.98974e-07 -9.52541e-07 -3.41056e-06
0.000818994 2.77778e-05 1.87663e-06
2.77778e-05 6.33164e-05 -5.64448e-07
1.87663e-06 -5.64448e-07 -1.99592e-05
0.000544434 -3.54645e-05 3.86642e-07
-3.54645e-05 -4.43935e-05 -8.16108e-08
3.86642e-07 -8.16108e-08 -0.000162932
0.000509234 2.73862e-05 4.95209e-07
2.73862e-05 -8.96734e-05 2.17962e-07
4.95209e-07 2.17962e-07 -0.000173305
0.000802249 4.14822e-05 4.40357e-07
4.14822e-05 6.13853e-05 5.24961e-07
4.40357e-07 5.24961e-07 -1.3788e-05
0.000789256 4.05463e-05 3.21759e-07
4.05463e-05 4.56147e-05 4.88005e-07
3.21759e-07 4.88005e-07 -1.91161e-05
0.000807602 1.36566e-05 -2.25972e-07
1.36566e-05 5.37779e-05 -5.47718e-08
-2.25972e-07 -5.47718e-08 -1.06129e-05
0.000783708 2.86129e-05 -6.77592e-07
2.86129e-05 2.68011e-05 3.70414e-07
-6.77592e-07 3.70414e-07 -2.44885e-05
0.000829735 1.33283e-05 5.76998e-07
1.33283e-05 6.35586e-05 3.07089e-07
5.76998e-07 3.07089e-07 -1.79686e-06
0.000805129 -1.40313e-06 -1.11725e-07
-1.40313e-06 3.66436e-05 1.57977e-08
-1.11725e-07 1.57977e-08 -1.54941e-05
0.000767108 2.17723e-05 -9.41079e-07
2.17723e-05 5.73058e-06 1.51088e-06
-9.41079e-07 1.51088e-06 -2.79358e-05
0.000722812 -1.44806e-05 6.7867e-07
-1.44806e-05 -1.04813e-05 -2.94178e-07
6.7867e-07 -2.94178e-07 -6.37702e-05
0.000765764 1.27803e-05 -6.75645e-08
1.27803e-05 3.09729e-06 4.54843e-09
-6.75645e-08 4.54843e-09 -3.04313e-05
0.00133787 2.13212e-05 -4.85596e-06
2.13212e-05 0.000314078 4.49128e-06
-4.85596e-06 4.49128e-06 0.000311774
0.000758413 3.59079e-06 7.63354e-07
3.59079e-06 -1.3464e-06 -1.40008e-06
7.63354e-07 -1.40008e-06 -3.50263e-05
0.00102875 1.40659e-05 -2.23307e-06
1.40659e-05 0.000139578 6.68097e-07
-2.23307e-06 6.68097e-07 0.000136055
0.000883447 1.17185e-05 -5.64278e-07
1.17185e-05 6.02182e-05 1.63043e-06
-5.64278e-07 1.63043e-06 7.43477e-05
0.000709733 6.88415e-06 2.79991e-07
6.88415e-06 -3.97187e-05 -3.22459e-06
2.79991e-07 -3.22459e-06 -4.4573e-05
0.00216741 8.49438e-06 2.45217e-06
8.49438e-06 0.000772026 2.18346e-08
2.45217e-06 2.18346e-08 0.000792637
0.00216721 5.20386e-07 7.27765e-07
5.20386e-07 0.000771272 -4.39897e-06
7.27765e-07 -4.39897e-06 0.00079203
0.00106468 4.22202e-05 -1.14852e-06
4.22202e-05 0.000189752 -6.19062e-07
-1.14852e-06 -6.19062e-07 0.000136274
0.000770141 -3.20153e-06 -2.9203e-07
-3.20153e-06 6.34013e-06 -1.71708e-06
-2.9203e-07 -1.71708e-06 -2.41464e-05
0.000788022 4.06642e-06 7.44541e-07
4.06642e-06 4.19199e-05 5.64437e-07
7.44541e-07 5.64437e-07 -1.33784e-05
0.000722614 -7.55907e-07 -1.22091e-07
-7.55907e-07 -3.39983e-05 -3.3702e-06
-1.22091e-07 -3.3702e-06 -3.60654e-05
0.000772985 -1.15718e-07 8.15318e-08
-1.15718e-07 8.29475e-06 -5.51226e-09
8.15318e-08 -5.51226e-09 -2.19047e-05
0.000766451 2.45887e-06 -2.4585e-07
2.45887e-06 4.77119e-06 1.67702e-06
-2.4585e-07 1.67702e-06 -2.58645e-05
0.000722517 5.72499e-06 -1.67486e-07
5.72499e-06 -3.35792e-05 5.02088e-09
-1.67486e-07 5.02088e-09 -3.60871e-05
0.0020756 7.84346e-06 3.77292e-06
7.84346e-06 0.000721018 -4.40705e-06
3.77292e-06 -4.40705e-06 0.000742702
0.00129092 1.5692e-05 -7.13964e-07
1.5692e-05 0.000283502 2.05306e-06
-7.13964e-07 2.05306e-06 0.000283242
0.00150183 1.47013e-05 2.22758e-06
1.47013e-05 0.000404224 5.49399e-08
2.22758e-06 5.49399e-08 0.000422069
0.000963335 1.7662e-05 -1.42125e-05
1.7662e-05 0.000108696 6.90423e-06
-1.42125e-05 6.90423e-06 0.00012255
-0.00597649 0.000122218 4.37597e-05
0.000122218 -0.00289859 -6.85439e-07
4.37597e-05 -6.85439e-07 -0.00299393
-0.00132636 0.000247916 2.51513e-05
0.000247916 -0.000367094 1.737e-05
2.51513e-05 1.737e-05 -0.000463907
0.00264665 2.22631e-05 -0.000132853
2.22631e-05 0.000334719 -2.93785e-06
-0.000132853 -2.93785e-06 -1.80112e-05
0.00193817 -1.78097e-05 1.92701e-05
-1.78097e-05 0.000131429 1.46532e-06
1.92701e-05 1.46532e-06 6.82201e-05
0.00170539 -1.20623e-05 2.52608e-06
-1.20623e-05 -0.000108092 1.08417e-07
2.52608e-06 1.08417e-07 -0.000151709
0.00122712 -3.17431e-07 2.70831e-05
-3.17431e-07 -0.000204122 -8.44072e-07
2.70831e-05 -8.44072e-07 -0.000404738
0.00210355 -2.50008e-05 -1.76257e-06
-2.50008e-05 0.00017186 8.90616e-07
-1.76257e-06 8.90616e-07 0.000116374
0.00574082 0.000214618 -1.43418e-05
0.000214618 0.00143029 -1.54744e-05
-1.43418e-05 -1.54744e-05 0.000666562
-0.00380553 0.000248234 -2.02203e-05
0.000248234 -0.00149507 -1.33846e-07
-2.02203e-05 -1.33846e-07 -0.00170946
-0.000764584 0.000681195 -1.18291e-05
0.000681195 -0.00115898 2.96782e-06
-1.18291e-05 2.96782e-06 0.000185325
0.00203143 -0.000109267 6.78397e-05
-0.000109267 0.000117026 1.49092e-06
6.78397e-05 1.49092e-06 -0.000119415
0.00708908 0.00032685 2.23894e-05
0.00032685 0.00239206 -3.2562e-06
2.23894e-05 -3.2562e-06 0.00123915
5.18417e-05 0.000525606 -1.2163e-05
0.000525606 -0.000413607 -2.88831e-05
-1.2163e-05 -2.88831e-05 3.46407e-05
0.00361524 0.000472163 -5.90725e-05
0.000472163 -5.55962e-05 3.99645e-05
-5.90725e-05 3.99645e-05 0.000808146
0.000811231 5.01427e-05 -6.70528e-07
5.01427e-05 7.08572e-05 8.91792e-08
-6.70528e-07 8.91792e-08 -1.47345e-05
0.000712705 3.76772e-06 -1.97048e-07
3.76772e-06 6.76206e-06 -3.22512e-07
-1.97048e-07 -3.22512e-07 -6.03019e-05
0.00078936 -5.7569e-05 -9.16832e-07
-5.7569e-05 4.45337e-05 9.59273e-07
-9.16832e-07 9.59273e-07 -1.13807e-05
0.000714211 6.49461e-07 1.63386e-07
6.49461e-07 1.20395e-05 5.76531e-07
1.63386e-07 5.76531e-07 -5.96989e-05
0.000791314 4.82979e-05 7.02156e-07
4.82979e-05 6.40967e-05 7.9563e-07
7.02156e-07 7.9563e-07 -1.76675e-05
0.000877321 4.23111e-05 -7.35322e-07
4.23111e-05 0.000103709 4.74884e-07
-7.35322e-07 4.74884e-07 2.06999e-05
0.000855616 5.8476e-05 1.43445e-06
5.8476e-05 9.20373e-05 1.0229e-06
1.43445e-06 1.0229e-06 1.14587e-05
0.000791349 -1.6883e-05 7.21685e-07
-1.6883e-05 4.67564e-05 1.58182e-07
7.21685e-07 1.58182e-07 -2.51862e-05
0.000788032 -2.35516e-05 3.89477e-07
-2.35516e-05 5.21023e-05 -5.78817e-07
3.89477e-07 -5.78817e-07 -1.9951e-05
0.00070858 -1.63407e-05 2.94791e-07
-1.63407e-05 3.72915e-06 7.00263e-07
2.94791e-07 7.00263e-07 -6.34355e-05
0.00125361 -7.26463e-05 1.36726e-06
-7.26463e-05 -0.000318818 -2.81841e-06
1.36726e-06 -2.81841e-06 -0.000372468
0.00191994 -0.000214977 6.43847e-06
-0.000214977 4.6689e-05 1.20842e-06
6.43847e-06 1.20842e-06 -1.31303e-05
3.35295e-05 -0.000173569 5.93804e-06
-0.000173569 -0.00072028 2.32151e-06
5.93804e-06 2.32151e-06 -0.000836071
0.00146013 -0.00021566 1.74263e-06
-0.00021566 0.000364926 8.52459e-07
1.74263e-06 8.52459e-07 0.000171128
0.00111733 -6.73853e-05 1.94142e-06
-6.73853e-05 0.000275092 -9.82668e-07
1.94142e-06 -9.82668e-07 0.00010695
0.00109876 -3.95774e-05 -1.78058e-07
-3.95774e-05 0.000234298 -7.94536e-07
-1.78058e-07 -7.94536e-07 0.000130571
0.000905104 -2.2771e-05 -1.14318e-06
-2.2771e-05 0.000116068 -2.33518e-07
-1.14318e-06 -2.33518e-07 3.26366e-05
0.000866644 3.83949e-05 -1.05567e-06
3.83949e-05 0.000101366 2.52549e-07
-1.05567e-06 2.52549e-07 1.68564e-05
0.00195162 -0.00014031 -2.99152e-06
-0.00014031 0.000191786 1.70522e-06
-2.99152e-06 1.70522e-06 0.000134623
0.000773898 -3.47593e-05 -1.19713e-07
-3.47593e-05 4.53002e-05 2.98402e-08
-1.19713e-07 2.98402e-08 -4.26558e-05
0.000829285 -3.23147e-05 4.41387e-07
-3.23147e-05 7.68408e-05 -3.69816e-07
4.41387e-07 -3.69816e-07 -1.44371e-05
0.0020968 -0.000277127 3.6028e-06
-0.000277127 0.000198052 -1.83053e-06
3.6028e-06 -1.83053e-06 0.000146165
0.000133905 -0.000185623 1.49221e-06
-0.000185623 -0.000471764 1.47088e-06
1.49221e-06 1.47088e-06 -0.000613652
0.00119656 -0.000128241 2.42944e-06
-0.000128241 0.00026775 -1.48859e-06
2.42944e-06 -1.48859e-06 7.689e-05
0.000978174 -3.62344e-05 -7.04775e-07
-3.62344e-05 0.000181661 -5.65247e-07
-7.04775e-07 -5.65247e-07 5.27035e-05
0.00282458 -0.000244488 2.87403e-06
-0.000244488 0.000940057 -7.22359e-06
2.87403e-06 -7.22359e-06 0.000751019
0.00177724 -0.000238218 -1.54009e-05
-0.000238218 0.00034802 1.44382e-06
-1.54009e-05 1.44382e-06 0.000269724
0.000454355 -1.43915e-05 -1.07757e-05
-1.43915e-05 -7.39473e-05 1.02722e-05
-1.07757e-05 1.02722e-05 -0.000239707
0.000858394 2.41663e-05 6.09119e-07
2.41663e-05 9.00763e-05 9.21292e-07
6.09119e-07 9.21292e-07 2.51453e-06
0.000681471 -7.29778e-05 1.49574e-06
-7.29778e-05 -1.21337e-05 3.94095e-07
1.49574e-06 3.94095e-07 -0.000101338
0.000865443 -1.9889e-05 3.21347e-07
-1.9889e-05 8.24228e-05 1.43598e-06
3.21347e-07 1.43598e-06 -8.5646e-06
0.000872983 8.24846e-06 -8.50802e-05
8.24846e-06 0.001312 -6.17422e-07
-8.50802e-05 -6.17422e-07 0.00096441
0.00179765 -8.22327e-05 1.35956e-05
-8.22327e-05 0.00118023 4.37401e-06
1.35956e-05 4.37401e-06 0.00105465
-0.000364672 0.000239945 -4.5988e-05
0.000239945 -0.00177742 2.21378e-05
-4.5988e-05 2.21378e-05 -0.00235754
0.000756739 8.64663e-05 3.24743e-06
8.64663e-05 7.34899e-05 1.19915e-06
3.24743e-06 1.19915e-06 -2.96032e-05
0.000732285 0.000116547 6.01666e-06
0.000116547 9.27774e-05 1.73551e-06
6.01666e-06 1.73551e-06 -6.40509e-05
0.00288934 0.000225382 1.02408e-05
0.000225382 0.000610201 2.53545e-06
1.02408e-05 2.53545e-06 0.000649491
0.000195493 0.000126101 1.0324e-05
0.000126101 -0.000345108 5.98433e-06
1.0324e-05 5.98433e-06 -0.000549377
0.00395888 -0.000321315 4.54339e-05
-0.000321315 0.00173294 1.34032e-05
4.54339e-05 1.34032e-05 0.00182117
-0.000210253 -0.000170075 -1.23221e-05
-0.000170075 -0.00127573 5.78792e-06
-1.23221e-05 5.78792e-06 -0.00244347
0.00389213 0.000407553 -6.56736e-05
0.000407553 0.000243127 -4.99599e-05
-6.56736e-05 -4.99599e-05 -0.000614254
4.2621e-05 8.33417e-05 2.28314e-05
8.33417e-05 -0.000499949 -1.41162e-05
2.28314e-05 -1.41162e-05 -0.000447436
-0.0029652 -0.000358147 2.21308e-05
-0.000358147 -0.00140075 5.92997e-06
2.21308e-05 5.92997e-06 -0.00147806
0.0010138 -0.000326635 2.39838e-05
-0.000326635 0.000530817 2.41545e-05
2.39838e-05 2.41545e-05 0.000411666
0.00422557 -0.000527074 6.78878e-05
-0.000527074 -1.58554e-05 5.01637e-05
6.78878e-05 5.01637e-05 0.00121556
0.000847673 7.07733e-05 9.96915e-07
7.07733e-05 0.000148156 -1.47533e-06
9.96915e-07 -1.47533e-06 5.51087e-05
-0.000188567 -0.000131225 -2.72624e-05
-0.000131225 0.000549434 -8.50111e-06
-2.72624e-05 -8.50111e-06 0.000160825
0.00213641 -1.42581e-05 -1.66017e-06
-1.42581e-05 0.000341254 -1.30465e-05
-1.66017e-06 -1.30465e-05 -0.000191316
0.000923681 0.000166312 -6.14615e-06
0.000166312 -3.17183e-05 1.57112e-06
-6.14615e-06 1.57112e-06 -7.31849e-05
0.000675571 0.000109584 -1.15102e-06
0.000109584 0.000135626 7.36421e-07
-1.15102e-06 7.36421e-07 -4.59544e-05
-9.36302e-05 0.000112288 2.51203e-05
0.000112288 -0.000308051 -1.70921e-05
2.51203e-05 -1.70921e-05 -0.000373879
0.00576159 0.000743827 -1.92366e-05
0.000743827 0.00155627 -1.52877e-06
-1.92366e-05 -1.52877e-06 0.000838673
0.00796387 -0.000327696 2.95056e-05
-0.000327696 0.00293173 1.0235e-05
2.95056e-05 1.0235e-05 0.00143222
0.0017231 -0.000448883 1.13177e-06
-0.000448883 -0.000921291 -6.44918e-06
1.13177e-06 -6.44918e-06 -0.000610948
0.00508524 -0.000331298 5.12117e-06
-0.000331298 0.000389685 -4.81428e-06
5.12117e-06 -4.81428e-06 0.00142619
0.00114598 0.00011709 -1.36163e-05
0.00011709 0.00035877 -8.77168e-06
-1.36163e-05 -8.77168e-06 0.000286262
0.00162604 -4.27319e-05 -5.29103e-05
-4.27319e-05 0.000108755 -2.4636e-05
-5.29103e-05 -2.4636e-05 -0.000270057
0.00149047 -1.04299e-06 -1.61532e-05
-1.04299e-06 0.00015485 -3.58953e-05
-1.61532e-05 -3.58953e-05 -0.000327781
-0.000908037 -1.0947e-05 -2.28599e-05
-1.0947e-05 -0.000542494 -1.73296e-05
-2.28599e-05 -1.73296e-05 -0.000648016
0.00308694 0.000342696 1.72491e-06
0.000342696 0.000877492 5.27652e-05
1.72491e-06 5.27652e-05 0.000456229
0.00809756 -0.000172755 2.05489e-05
-0.000172755 0.00274118 6.73624e-06
2.05489e-05 6.73624e-06 0.00108812
-0.00480282 -0.000341908 -5.57702e-05
-0.000341908 -0.00349631 -2.28579e-06
-5.57702e-05 -2.28579e-06 -0.00411499
0.00475919 4.1921e-05 -2.92607e-06
4.1921e-05 -0.000169389 -5.22724e-05
-2.92607e-06 -5.22724e-05 0.00101699
0.00103763 5.53166e-05 1.85228e-06
5.53166e-05 0.000188659 4.5217e-06
1.85228e-06 4.5217e-06 0.00011618
0.000815794 6.36469e-05 -1.78702e-06
6.36469e-05 7.12862e-05 -5.50796e-07
-1.78702e-06 -5.50796e-07 2.14414e-05
0.000581872 4.12676e-05 2.13771e-07
4.12676e-05 -3.0467e-05 -4.30236e-06
2.13771e-07 -4.30236e-06 -7.06257e-05
0.000897215 6.18848e-05 -1.29406e-06
6.18848e-05 9.03456e-05 -4.72509e-07
-1.29406e-06 -4.72509e-07 2.05939e-05
0.000928588 -2.86751e-05 -1.24559e-07
-2.86751e-05 0.000106952 1.09803e-06
-1.24559e-07 1.09803e-06 3.02064e-05
0.000989427 -1.55043e-05 -9.73012e-07
-1.55043e-05 0.000131041 1.51169e-06
-9.73012e-07 1.51169e-06 6.37771e-05
0.000749248 -1.70239e-05 -7.89577e-07
-1.70239e-05 8.89308e-06 3.0545e-06
-7.89577e-07 3.0545e-06 -4.65289e-05
0.000904505 1.12203e-05 4.23503e-07
1.12203e-05 8.89905e-05 1.93972e-08
4.23503e-07 1.93972e-08 1.37824e-05
0.000874188 -1.84854e-05 -1.13603e-07
-1.84854e-05 6.17962e-05 -1.96242e-07
-1.13603e-07 -1.96242e-07 -4.36176e-06
0.000803573 -2.52987e-05 1.42055e-07
-2.52987e-05 4.28417e-05 6.50625e-07
1.42055e-07 6.50625e-07 -3.66696e-06
0.000698441 -3.37341e-05 6.08644e-08
-3.37341e-05 2.40624e-05 -3.27394e-06
6.08644e-08 -3.27394e-06 -6.65274e-06
0.000929725 -2.95144e-05 3.18334e-06
-2.95144e-05 9.26893e-05 -4.34122e-06
3.18334e-06 -4.34122e-06 4.35948e-05
0.000796634 3.73577e-05 6.14845e-07
3.73577e-05 2.9811e-05 -1.53156e-06
6.14845e-07 -1.53156e-06 -4.44326e-05
0.000883002 -3.47161e-05 9.68737e-07
-3.47161e-05 7.99848e-05 3.92583e-07
9.68737e-07 3.92583e-07 6.52751e-06
0.000820139 5.03964e-05 -2.45827e-07
5.03964e-05 5.4782e-05 3.87109e-07
-2.45827e-07 3.87109e-07 -1.50179e-05
0.000860022 1.60215e-05 -4.53993e-07
1.60215e-05 6.73099e-05 1.33555e-06
-4.53993e-07 1.33555e-06 3.37771e-07
0.000818322 3.10925e-05 4.15366e-08
3.10925e-05 4.58847e-05 9.99603e-08
4.15366e-08 9.99603e-08 -2.65829e-05
0.000804918 5.39247e-05 3.10553e-07
5.39247e-05 5.48612e-05 2.95122e-07
3.10553e-07 2.95122e-07 -1.65011e-05
0.000851463 4.95617e-05 -1.68854e-07
4.95617e-05 7.08904e-05 -1.87113e-08
-1.68854e-07 -1.87113e-08 2.64892e-06
0.000861045 4.2235e-05 1.62679e-06
4.2235e-05 8.06174e-05 -3.49005e-07
1.62679e-06 -3.49005e-07 8.72146e-06
0.000792615 3.3522e-05 5.42409e-07
3.3522e-05 4.16437e-05 -1.46183e-06
5.42409e-07 -1.46183e-06 -2.22161e-05
0.000710195 -4.92951e-05 9.82578e-07
-4.92951e-05 1.28398e-05 -4.18614e-07
9.82578e-07 -4.18614e-07 -7.59079e-05
0.000906359 1.01538e-05 -5.02791e-07
1.01538e-05 0.000112288 -1.36268e-07
-5.02791e-07 -1.36268e-07 2.7929e-05
0.00066909 -3.91511e-05 1.30695e-06
-3.91511e-05 1.52081e-05 1.47995e-06
1.30695e-06 1.47995e-06 -9.37566e-05
0.00103935 -0.000134404 -1.40886e-06
-0.000134404 0.000196054 3.10668e-06
-1.40886e-06 3.10668e-06 5.26345e-05
0.001112 -2.32197e-05 1.08537e-06
-2.32197e-05 0.000245383 -5.87427e-07
1.08537e-06 -5.87427e-07 0.000146789
0.000631003 -4.73005e-05 -9.98504e-08
-4.73005e-05 4.88405e-06 -2.53197e-06
-9.98504e-08 -2.53197e-06 -0.00011165
0.000779091 3.12344e-05 -5.67898e-07
3.12344e-05 5.61227e-05 -5.30567e-07
-5.67898e-07 -5.30567e-07 -2.60146e-05
0.000583147 3.46291e-05 9.5032e-07
3.46291e-05 -6.11767e-05 6.76818e-07
9.5032e-07 6.76818e-07 -0.000132884
0.000851889 3.76925e-05 -4.08972e-07
3.76925e-05 8.84242e-05 -5.56824e-08
-4.08972e-07 -5.56824e-08 1.31419e-05
0.000820003 1.24843e-05 -2.68157e-07
1.24843e-05 6.33018e-05 3.23845e-07
-2.68157e-07 3.23845e-07 -2.40142e-06
0.000770913 3.79477e-05 -7.1117e-07
3.79477e-05 2.31262e-05 4.5759e-07
-7.1117e-07 4.5759e-07 -2.91664e-05
0.000838491 -1.33921e-05 4.16313e-07
-1.33921e-05 7.50197e-05 1.58041e-08
4.16313e-07 1.58041e-08 7.37962e-06
0.000798335 6.92461e-07 -4.05054e-07
6.92461e-07 3.5874e-05 4.58735e-08
-4.05054e-07 4.58735e-08 -1.64319e-05
0.000761634 2.71395e-05 -1.19e-06
2.71395e-05 6.18635e-06 1.52766e-06
-1.19e-06 1.52766e-06 -2.7979e-05
0.000827504 -2.3294e-05 1.23165e-06
-2.3294e-05 5.04251e-05 -3.5454e-07
1.23165e-06 -3.5454e-07 -2.92616e-06
0.000767873 1.76296e-05 -1.44279e-07
1.76296e-05 5.59308e-06 9.38669e-09
-1.44279e-07 9.38669e-09 -2.78589e-05
0.0013254 2.8533e-05 -6.67956e-06
2.8533e-05 0.000311198 4.42615e-06
-6.67956e-06 4.42615e-06 0.000308356
0.000761141 8.12068e-06 1.10795e-06
8.12068e-06 1.46399e-07 -1.44234e-06
1.10795e-06 -1.44234e-06 -3.32072e-05
0.00102217 2.0671e-05 -2.99824e-06
2.0671e-05 0.000138853 6.32259e-07
-2.99824e-06 6.32259e-07 0.000135045
0.000877114 1.81012e-05 -1.05938e-06
1.81012e-05 6.05716e-05 1.63026e-06
-1.05938e-06 1.63026e-06 7.41177e-05
0.000705125 1.2762e-05 4.61008e-07
1.2762e-05 -4.05921e-05 -3.2193e-06
4.61008e-07 -3.2193e-06 -4.5601e-05
0.00151952 1.55434e-05 4.70123e-06
1.55434e-05 0.000413765 -1.30134e-06
4.70123e-06 -1.30134e-06 0.00043096
0.00216957 9.71547e-06 4.88774e-06
9.71547e-06 0.000773569 -4.33297e-06
4.88774e-06 -4.33297e-06 0.000794114
0.000858753 -2.24144e-05 5.48112e-07
-2.24144e-05 7.25833e-05 -5.21927e-07
5.48112e-07 -5.21927e-07 1.79037e-05
0.000776239 -8.10368e-06 -2.62619e-07
-8.10368e-06 1.01256e-05 -1.7063e-06
-2.62619e-07 -1.7063e-06 -2.13277e-05
0.000847223 -4.06714e-06 4.0198e-07
-4.06714e-06 6.96251e-05 1.24795e-07
4.0198e-07 1.24795e-07 1.57643e-05
0.000724462 -6.85776e-06 -3.32267e-07
-6.85776e-06 -3.22058e-05 -3.35944e-06
-3.32267e-07 -3.35944e-06 -3.46112e-05
0.000773863 -4.0996e-06 -6.3778e-08
-4.0996e-06 8.49005e-06 -5.37694e-09
-6.3778e-08 -5.37694e-09 -2.20067e-05
0.000786092 -4.07906e-05 -1.3679e-06
-4.07906e-05 3.73044e-05 1.41776e-06
-1.3679e-06 1.41776e-06 -1.53654e-05
0.00206716 -1.09552e-06 -3.91866e-07
-1.09552e-06 0.000716015 -4.41805e-06
-3.91866e-07 -4.41805e-06 0.000737879
0.000724327 -4.48608e-07 -7.51518e-08
-4.48608e-07 -3.30899e-05 1.50678e-10
-7.51518e-08 1.50678e-10 -3.51598e-05
0.000772184 -1.16832e-06 1.0359e-07
-1.16832e-06 7.78628e-06 1.67779e-06
1.0359e-07 1.67779e-06 -2.24021e-05
0.000725939 6.01477e-06 -9.22448e-08
6.01477e-06 -3.17464e-05 3.38427e-06
-9.22448e-08 3.38427e-06 -3.42812e-05
0.00207708 8.51586e-06 -2.62488e-06
8.51586e-06 0.000722031 -2.3894e-08
-2.62488e-06 -2.3894e-08 0.000743655
0.00210252 1.69246e-05 -1.06894e-05
1.69246e-05 0.000737869 4.30915e-06
-1.06894e-05 4.30915e-06 0.000758906
-0.00154013 6.74676e-05 -4.12959e-05
6.74676e-05 -5.33792e-05 7.75694e-06
-4.12959e-05 7.75694e-06 -0.000562687
-0.000812884 0.000261837 -7.97201e-06
0.000261837 -0.000257938 4.75155e-06
-7.97201e-06 4.75155e-06 -0.000363078
0.00225343 5.05353e-05 -7.551e-05
5.05353e-05 0.000236587 5.48802e-05
-7.551e-05 5.48802e-05 -0.000214529
-0.00162814 0.000288245 6.69552e-05
0.000288245 -0.000393478 -2.77027e-05
6.69552e-05 -2.77027e-05 -0.000410288
0.00264032 9.39642e-05 -9.60034e-05
9.39642e-05 0.000369581 1.28375e-05
-9.60034e-05 1.28375e-05 6.29047e-05
0.00213166 -3.42659e-05 5.2545e-05
-3.42659e-05 0.000192777 -7.06522e-06
5.2545e-05 -7.06522e-06 0.000140276
0.00115494 -0.000274697 -7.48333e-05
-0.000274697 -0.000789484 -2.76328e-05
-7.48333e-05 -2.76328e-05 -0.00145529
0.00867383 0.000520904 5.70726e-05
0.000520904 0.00424281 -1.69559e-05
5.70726e-05 -1.69559e-05 0.00426556
-0.00362358 0.00073601 -4.12695e-05
0.00073601 -0.00295223 5.62849e-05
-4.12695e-05 5.62849e-05 -0.00125058
0.00142495 3.70134e-06 -6.08556e-06
3.70134e-06 -0.000328551 -3.11456e-06
-6.08556e-06 -3.11456e-06 -0.000543402
0.00199393 0.000152653 1.67674e-05
0.000152653 3.13182e-06 -1.91478e-05
1.67674e-05 -1.91478e-05 -0.00153247
0.00546638 0.000834354 -1.42046e-05
0.000834354 0.00175399 -2.06647e-05
-1.42046e-05 -2.06647e-05 0.00219049
0.00174224 0.00047011 -1.15577e-05
0.00047011 -0.00119006 2.6427e-05
-1.15577e-05 2.6427e-05 -0.000271628
0.00308999 -0.00015311 -2.50263e-05
-0.00015311 0.000332008 9.5682e-06
-2.50263e-05 9.5682e-06 -2.54843e-05
0.00431731 0.000207566 7.91033e-05
0.000207566 0.0013954 -5.20972e-05
7.91033e-05 -5.20972e-05 -0.000369759
-0.00607064 0.000171235 -7.41184e-05
0.000171235 -0.00447814 -3.76312e-05
-7.41184e-05 -3.76312e-05 -0.00421079
0.00137369 0.000301276 -1.95596e-05
0.000301276 -0.00220362 1.88515e-05
-1.95596e-05 1.88515e-05 -0.00115369
0.000889235 -1.99482e-05 1.04772e-06
-1.99482e-05 0.000111141 5.19078e-07
1.04772e-06 5.19078e-07 2.15057e-05
0.000855573 3.62669e-05 -1.54321e-06
3.62669e-05 9.4722e-05 -4.09956e-07
-1.54321e-06 -4.09956e-07 1.06719e-05
0.00080408 1.67859e-05 7.46834e-07
1.67859e-05 5.83595e-05 -1.50945e-07
7.46834e-07 -1.50945e-07 -9.20336e-06
0.000849725 5.58898e-05 1.79976e-06
5.58898e-05 9.62368e-05 1.15373e-06
1.79976e-06 1.15373e-06 1.48067e-05
0.00077093 1.61379e-05 -2.91166e-07
1.61379e-05 4.52756e-05 7.23334e-07
-2.91166e-07 7.23334e-07 -4.45201e-05
0.0009022 4.44651e-05 2.00045e-07
4.44651e-05 0.000118477 5.82079e-07
2.00045e-07 5.82079e-07 3.51992e-05
0.000799517 2.50881e-06 -5.64383e-08
2.50881e-06 5.85028e-05 1.19217e-06
-5.64383e-08 1.19217e-06 -2.03055e-05
0.000917741 7.35776e-05 -6.91253e-07
7.35776e-05 0.000126074 5.76895e-07
-6.91253e-07 5.76895e-07 4.43982e-05
0.000894057 3.35571e-05 -2.65627e-07
3.35571e-05 0.000113211 3.28385e-07
-2.65627e-07 3.28385e-07 3.4798e-05
0.000733578 -1.7371e-05 -8.65343e-07
-1.7371e-05 2.43969e-05 -2.57678e-07
-8.65343e-07 -2.57678e-07 -5.01965e-05
-0.000395338 -8.42395e-05 1.30732e-05
-8.42395e-05 -0.00102787 -6.25979e-06
1.30732e-05 -6.25979e-06 -0.00105976
0.00137964 -0.000255775 1.08359e-05
-0.000255775 -0.00017354 -2.05413e-07
1.08359e-05 -2.05413e-07 -0.000235058
0.000938014 -0.000226348 8.41399e-06
-0.000226348 -3.97713e-05 1.66368e-06
8.41399e-06 1.66368e-06 -0.000185085
0.00120042 -0.000122047 6.07514e-06
-0.000122047 0.000263785 -2.42504e-06
6.07514e-06 -2.42504e-06 7.60669e-05
0.000979314 -2.92502e-05 1.12441e-06
-2.92502e-05 0.000189248 -1.47836e-06
1.12441e-06 -1.47836e-06 4.81031e-05
0.000799753 -4.2056e-05 -7.09131e-07
-4.2056e-05 6.47829e-05 -3.58984e-07
-7.09131e-07 -3.58984e-07 -2.97897e-05
0.000847987 5.33896e-05 -2.96646e-07
5.33896e-05 8.83902e-05 -3.12549e-07
-2.96646e-07 -3.12549e-07 -2.16711e-06
0.000857226 -3.46054e-05 -3.08139e-07
-3.46054e-05 9.21594e-05 3.8227e-07
-3.08139e-07 3.8227e-07 2.25549e-06
0.00128718 -0.00016839 3.40247e-06
-0.00016839 0.000126354 -6.61265e-07
3.40247e-06 -6.61265e-07 9.44015e-06
0.000839633 7.61891e-06 -2.19492e-07
7.61891e-06 7.87249e-05 -2.60666e-07
-2.19492e-07 -2.60666e-07 -1.33386e-05
0.000895561 -2.94845e-05 2.32395e-09
-2.94845e-05 0.000105921 1.44331e-07
2.32395e-09 1.44331e-07 8.44051e-06
0.00157643 -0.000229681 -1.07165e-06
-0.000229681 0.00023881 5.00464e-07
-1.07165e-06 5.00464e-07 0.000167671
0.00100832 -3.7771e-05 -4.03951e-06
-3.7771e-05 0.000195637 1.99343e-06
-4.03951e-06 1.99343e-06 3.63974e-05
0.000193326 -0.000225641 -3.05834e-07
-0.000225641 -0.000476529 -1.27313e-05
-3.05834e-07 -1.27313e-05 -0.000508231
0.00154247 -8.1488e-05 -1.336e-05
-8.1488e-05 0.000518832 9.55336e-06
-1.336e-05 9.55336e-06 0.000403699
0.000420341 2.21469e-05 -3.25203e-06
2.21469e-05 -0.000161304 8.31691e-06
-3.25203e-06 8.31691e-06 -0.000253719
0.000847572 -4.18392e-06 5.93729e-07
-4.18392e-06 6.80866e-05 8.24443e-07
5.93729e-07 8.24443e-07 -1.63727e-05
0.000810859 2.60362e-05 -1.30463e-07
2.60362e-05 5.40399e-05 7.64593e-07
-1.30463e-07 7.64593e-07 -3.95511e-05
0.00124783 -2.37303e-06 -2.56912e-05
-2.37303e-06 -7.42542e-05 -3.73255e-06
-2.56912e-05 -3.73255e-06 -0.000381092
-0.000382827 -1.2082e-05 -3.10519e-05
-1.2082e-05 0.00069243 -1.30953e-06
-3.10519e-05 -1.30953e-06 0.000240174
-0.00613225 -0.000106946 -8.78178e-05
-0.000106946 -0.0030116 -8.06148e-07
-8.78178e-05 -8.06148e-07 -0.00300089
0.000783049 8.85704e-05 6.48683e-06
8.85704e-05 0.000121937 2.29763e-06
6.48683e-06 2.29763e-06 2.47858e-05
-9.95744e-05 9.13746e-06 6.54976e-06
9.13746e-06 -0.00025312 3.07268e-06
6.54976e-06 3.07268e-06 -0.000438859
0.00123156 0.00010916 1.69326e-05
0.00010916 0.000164494 -6.2317e-07
1.69326e-05 -6.2317e-07 9.96341e-05
-0.00148614 -5.26206e-05 1.51842e-05
-5.26206e-05 -4.19644e-05 7.22998e-06
1.51842e-05 7.22998e-06 -0.000577562
0.00394762 -0.000321355 -1.51128e-05
-0.000321355 0.00121649 -2.26757e-05
-1.51128e-05 -2.26757e-05 -0.000617625
0.00385446 0.000618873 4.38464e-05
0.000618873 0.000428956 -2.11318e-05
4.38464e-05 -2.11318e-05 -9.0229e-05
0.000296121 0.000108447 1.84867e-06
0.000108447 -6.54779e-05 -1.20577e-06
1.84867e-06 -1.20577e-06 -2.67267e-05
0.00585722 -0.000636284 3.45695e-05
-0.000636284 0.00158518 1.39935e-05
3.45695e-05 1.39935e-05 0.00164485
0.00236358 -2.15871e-05 5.25722e-05
-2.15871e-05 0.000507789 3.68044e-05
5.25722e-05 3.68044e-05 -4.1594e-05
0.00492038 -0.00030059 2.69891e-05
-0.00030059 0.000497405 1.28446e-05
2.69891e-05 1.28446e-05 0.00157395
0.000981764 0.000107222 1.90269e-06
0.000107222 0.000279352 -1.75752e-06
1.90269e-06 -1.75752e-06 0.000205994
0.00167838 -3.90302e-05 3.31952e-06
-3.90302e-05 0.000226378 -6.3171e-06
3.31952e-06 -6.3171e-06 -0.000112244
0.00164486 5.821e-06 2.30836e-06
5.821e-06 0.000154323 6.36053e-06
2.30836e-06 6.36053e-06 -0.000337902
0.000246858 7.80599e-05 -7.05231e-06
7.80599e-05 6.24887e-05 5.02724e-07
-7.05231e-06 5.02724e-07 -5.37984e-05
0.00311745 0.000423933 -2.30003e-05
0.000423933 0.000618353 -2.98289e-05
-2.30003e-05 -2.98289e-05 0.000304865
0.00334219 0.000323292 4.36186e-05
0.000323292 0.000515313 2.16921e-05
4.36186e-05 2.16921e-05 -0.00140901
0.00339389 1.96359e-05 -1.85909e-07
1.96359e-05 -0.00128357 -2.48886e-05
-1.85909e-07 -2.48886e-05 0.000103781
0.00037341 -0.000225864 -1.19832e-05
-0.000225864 -0.000820547 1.53899e-05
-1.19832e-05 1.53899e-05 -0.00101448
0.000744958 4.87808e-05 -4.2454e-06
4.87808e-05 0.000246839 -9.5573e-06
-4.2454e-06 -9.5573e-06 0.000194272
0.00128148 -2.21904e-05 -1.2941e-05
-2.21904e-05 0.00013257 -1.52329e-05
-1.2941e-05 -1.52329e-05 1.68454e-06
0.00180327 7.67411e-06 3.8763e-06
7.67411e-06 6.75669e-05 -3.40546e-05
3.8763e-06 -3.40546e-05 -0.00037845
0.00138166 0.000286104 1.77711e-05
0.000286104 -0.00210564 -2.112e-05
1.77711e-05 -2.112e-05 -0.00114879
-0.00190394 6.51277e-06 5.95149e-06
6.51277e-06 -0.000906794 -1.25772e-05
5.95149e-06 -1.25772e-05 -0.00119146
0.00919752 0.000217414 8.48366e-05
0.000217414 0.00338799 3.43644e-05
8.48366e-05 3.43644e-05 0.00161216
-0.00395812 -0.000108013 2.25169e-05
-0.000108013 -0.000924044 -3.16658e-06
2.25169e-05 -3.16658e-06 -0.00152495
0.00115369 9.13611e-05 6.48577e-06
9.13611e-05 0.000251341 6.41462e-06
6.48577e-06 6.41462e-06 0.000200404
0.000688232 6.38238e-05 -2.64283e-06
6.38238e-05 2.66228e-05 1.33058e-06
-2.64283e-06 1.33058e-06 -1.7783e-05
0.00040326 3.49638e-05 -5.92682e-06
3.49638e-05 -6.09632e-05 -7.12303e-06
-5.92682e-06 -7.12303e-06 -0.000106569
0.000891792 8.74071e-05 -1.89548e-07
8.74071e-05 8.65128e-05 7.9886e-07
-1.89548e-07 7.9886e-07 8.6948e-06
0.000861367 3.6965e-06 -6.07471e-07
3.6965e-06 5.44638e-05 1.71612e-06
-6.07471e-07 1.71612e-06 -1.1096e-05
0.000700983 -3.3602e-05 -2.3072e-06
-3.3602e-05 -1.25849e-05 7.20011e-06
-2.3072e-06 7.20011e-06 -5.94161e-05
0.000829117 4.23563e-05 4.15043e-08
4.23563e-05 4.63189e-05 3.23868e-08
4.15043e-08 3.23868e-08 -2.68445e-05
0.000805382 -3.70607e-05 2.7952e-07
-3.70607e-05 2.74247e-05 -1.02237e-06
2.7952e-07 -1.02237e-06 -2.30212e-05
0.000806267 -5.75281e-05 3.22205e-06
-5.75281e-05 7.22477e-05 2.57935e-06
3.22205e-06 2.57935e-06 3.37911e-05
0.000779605 -1.6786e-06 3.57535e-07
-1.6786e-06 7.54882e-05 -4.36828e-06
3.57535e-07 -4.36828e-06 5.25018e-05
0.000829838 9.77505e-06 -1.29843e-07
9.77505e-06 5.11653e-05 -3.36289e-06
-1.29843e-07 -3.36289e-06 -6.54548e-06
0.000843977 3.14277e-05 -1.66425e-07
3.14277e-05 5.5761e-05 1.43751e-06
-1.66425e-07 1.43751e-06 -1.35036e-05
0.000820704 5.47884e-05 -1.16016e-07
5.47884e-05 6.46022e-05 2.6484e-07
-1.16016e-07 2.6484e-07 -7.44667e-06
0.000861303 5.56952e-05 -1.12494e-06
5.56952e-05 7.64796e-05 1.16865e-06
-1.12494e-06 1.16865e-06 7.60219e-06
0.000830968 3.29006e-05 3.41533e-07
3.29006e-05 6.03812e-05 1.77152e-07
3.41533e-07 1.77152e-07 -3.73397e-06
0.000870801 4.3359e-05 6.57926e-07
4.3359e-05 8.54256e-05 1.80709e-07
6.57926e-07 1.80709e-07 1.3968e-05
0.000709768 -2.89528e-05 1.2082e-06
-2.89528e-05 3.93719e-05 5.10313e-07
1.2082e-06 5.10313e-07 -3.70105e-05
0.00071244 -2.58195e-05 -5.26749e-07
-2.58195e-05 2.28041e-05 -1.01211e-06
-5.26749e-07 -1.01211e-06 -6.05758e-05
0.000654135 -5.95257e-05 3.1199e-06
-5.95257e-05 4.16028e-06 4.46489e-07
3.1199e-06 4.46489e-07 -0.000128884
0.00100563 -7.4646e-06 -1.47541e-06
-7.4646e-06 0.000166565 -1.28044e-07
-1.47541e-06 -1.28044e-07 8.14802e-05
0.00100937 -6.28157e-05 -8.16808e-07
-6.28157e-05 0.000191096 8.01353e-07
-8.16808e-07 8.01353e-07 7.96748e-05
0.000524504 -0.000106734 -6.26776e-08
-0.000106734 -8.51137e-05 1.84957e-06
-6.26776e-08 1.84957e-06 -0.000234959
0.000809819 -0.00011888 -3.2251e-06
-0.00011888 7.06382e-05 6.08644e-08
-3.2251e-06 6.08644e-08 -7.48863e-05
0.000918084 -9.13808e-05 -1.13552e-06
-9.13808e-05 0.000145307 1.78464e-06
-1.13552e-06 1.78464e-06 3.04275e-05
0.00081075 -0.000118462 -6.72516e-08
-0.000118462 7.46248e-05 6.98619e-07
-6.72516e-08 6.98619e-07 -6.67269e-05
0.000875938 -1.03815e-06 1.00321e-06
-1.03815e-06 0.000102296 8.73812e-07
1.00321e-06 8.73812e-07 2.0311e-05
0.000970404 -2.64316e-05 -6.54867e-07
-2.64316e-05 0.000169608 -6.47292e-07
-6.54867e-07 -6.47292e-07 6.88418e-05
0.00073957 -6.02031e-05 4.9674e-07
-6.02031e-05 6.62551e-05 -4.04482e-06
4.9674e-07 -4.04482e-06 -4.8178e-05
0.00105005 3.55673e-05 -1.92742e-06
3.55673e-05 0.000202519 -1.31064e-06
-1.92742e-06 -1.31064e-06 0.000121853
0.000706935 2.68076e-05 1.24687e-07
2.68076e-05 5.73911e-06 -3.11145e-08
1.24687e-07 -3.11145e-08 -6.49223e-05
0.000765371 4.93469e-05 -1.5936e-07
4.93469e-05 2.51801e-05 6.02436e-07
-1.5936e-07 6.02436e-07 -3.11216e-05
0.000842929 -6.94863e-06 4.39948e-08
-6.94863e-06 7.78496e-05 7.13999e-08
4.39948e-08 7.13999e-08 1.03749e-05
0.000794604 1.20765e-05 -6.06527e-07
1.20765e-05 3.63201e-05 -6.43476e-08
-6.06527e-07 -6.43476e-08 -1.63459e-05
0.000755433 3.28664e-05 -1.38862e-06
3.28664e-05 7.53159e-06 1.4733e-06
-1.38862e-06 1.4733e-06 -2.76981e-05
0.000815068 -2.05227e-05 1.25371e-06
-2.05227e-05 4.56264e-05 -4.71156e-07
1.25371e-06 -4.71156e-07 -7.39579e-06
0.000763697 2.57261e-05 -1.24012e-07
2.57261e-05 6.6966e-06 5.20035e-09
-1.24012e-07 5.20035e-09 -2.7296e-05
0.00128964 3.56997e-05 -7.53454e-06
3.56997e-05 0.00029775 3.0766e-06
-7.53454e-06 3.0766e-06 0.000293885
0.000764531 1.40836e-05 1.2511e-06
1.40836e-05 3.1741e-06 -1.46106e-06
1.2511e-06 -1.46106e-06 -3.00649e-05
0.0010161 2.73428e-05 -3.69745e-06
2.73428e-05 0.000139745 5.85866e-07
-3.69745e-06 5.85866e-07 0.000135337
0.000864716 2.41767e-05 -1.5983e-06
2.41767e-05 5.90253e-05 1.62383e-06
-1.5983e-06 1.62383e-06 7.16481e-05
0.000703253 1.88499e-05 6.59234e-07
1.88499e-05 -3.8721e-05 -3.2287e-06
6.59234e-07 -3.2287e-06 -4.40209e-05
0.00150604 2.31717e-05 6.20235e-06
2.31717e-05 0.000409916 -1.21774e-06
6.20235e-06 -1.21774e-06 0.000426538
0.00215647 1.88061e-05 8.77042e-06
1.88061e-05 0.000768723 -4.2047e-06
8.77042e-06 -4.2047e-06 0.000788892
0.000649596 2.36274e-06 -4.08773e-07
2.36274e-06 -3.77732e-05 -1.05279e-06
-4.08773e-07 -1.05279e-06 -0.000101324
0.000528828 -1.29888e-05 -2.77169e-07
-1.29888e-05 -0.000124145 -2.24096e-06
-2.77169e-07 -2.24096e-06 -0.000159261
0.000884003 -8.92257e-06 -8.72827e-09
-8.92257e-06 8.85429e-05 7.80908e-08
-8.72827e-09 7.80908e-08 3.21616e-05
0.000722532 -1.29397e-05 -3.21066e-07
-1.29397e-05 -3.10897e-05 -3.36657e-06
-3.21066e-07 -3.36657e-06 -3.45838e-05
0.000649277 -8.55924e-06 9.86884e-08
-8.55924e-06 -5.92485e-05 4.64878e-09
9.86884e-08 4.64878e-09 -9.17159e-05
0.000634768 -4.61559e-05 2.41828e-07
-4.61559e-05 -4.51494e-05 8.98684e-07
2.41828e-07 8.98684e-07 -0.000101161
0.00207927 -9.91705e-06 -4.8355e-06
-9.91705e-06 0.000723805 -4.38616e-06
-4.8355e-06 -4.38616e-06 0.000745327
0.000722289 -6.56643e-06 -1.84338e-07
-6.56643e-06 -3.34048e-05 -2.66116e-09
-1.84338e-07 -2.66116e-09 -3.57832e-05
0.000776765 -5.15764e-06 1.80184e-08
-5.15764e-06 1.01969e-05 1.68094e-06
1.80184e-08 1.68094e-06 -2.03065e-05
0.00206775 -3.97943e-07 -2.52088e-06
-3.97943e-07 0.000716329 -4.60924e-10
-2.52088e-06 -4.60924e-10 0.000738194
0.000725747 -1.45259e-07 1.49027e-07
-1.45259e-07 -3.23362e-05 3.36603e-06
1.49027e-07 3.36603e-06 -3.44131e-05
0.00208281 9.18435e-06 -5.02583e-06
9.18435e-06 0.0007254 4.40998e-06
-5.02583e-06 4.40998e-06 0.000746928
0.00113053 1.58969e-05 -4.84126e-05
1.58969e-05 -8.95048e-05 1.88966e-05
-4.84126e-05 1.88966e-05 -0.00042805
0.00133054 0.000165372 -1.90838e-06
0.000165372 0.00129887 -5.01566e-06
-1.90838e-06 -5.01566e-06 0.00109873
0.000608805 -0.000112556 -4.58747e-06
-0.000112556 0.000656844 -1.26575e-05
-4.58747e-06 -1.26575e-05 0.000357339
0.000828626 2.65982e-05 -1.1499e-07
2.65982e-05 6.83508e-05 7.14735e-07
-1.1499e-07 7.14735e-07 -1.05856e-05
0.00215146 2.06555e-05 -2.24135e-05
2.06555e-05 0.000512095 3.85499e-05
-2.24135e-05 3.85499e-05 0.000130453
0.00224759 3.35385e-05 -1.9089e-05
3.35385e-05 0.000288586 2.88955e-06
-1.9089e-05 2.88955e-06 -0.00023597
0.00157977 0.000381337 6.75069e-05
0.000381337 0.00103456 -5.11997e-05
6.75069e-05 -5.11997e-05 0.00131202
0.00299634 -7.22173e-05 -2.36801e-05
-7.22173e-05 0.000252722 -4.96167e-06
-2.36801e-05 -4.96167e-06 1.76945e-05
0.0097005 0.000470182 2.67966e-05
0.000470182 0.00369962 -2.71305e-05
2.67966e-05 -2.71305e-05 0.00237705
-0.00258606 0.00043741 1.01931e-05
0.00043741 -0.00233805 7.75911e-06
1.01931e-05 7.75911e-06 -0.00176834
0.00311855 0.000511329 3.30666e-05
0.000511329 -0.000420977 -1.56641e-05
3.30666e-05 -1.56641e-05 0.00053585
0.00291385 -0.00024168 -4.82936e-05
-0.00024168 -4.93721e-05 1.82107e-06
-4.82936e-05 1.82107e-06 -0.000646551
0.00723108 0.000288742 2.59526e-05
0.000288742 0.00278085 -1.14639e-05
2.59526e-05 -1.14639e-05 0.00125726
0.00529654 0.00054888 3.23439e-06
0.00054888 0.000733436 -1.69677e-05
3.23439e-06 -1.69677e-05 0.000926488
0.00318486 0.000312498 -9.50369e-06
0.000312498 -0.00118595 1.57135e-06
-9.50369e-06 1.57135e-06 -0.000161336
0.00368781 -0.000462687 -4.56172e-06
-0.000462687 0.000353164 -1.60337e-05
-4.56172e-06 -1.60337e-05 -0.000471815
0.00768489 1.28048e-05 4.12835e-05
1.28048e-05 0.0034056 3.3513e-06
4.12835e-05 3.3513e-06 0.00117498
0.00120632 0.000109159 2.22795e-06
0.000109159 -0.000747914 3.60338e-06
2.22795e-06 3.60338e-06 -0.00082714
0.0047769 5.20663e-05 -3.12272e-06
5.20663e-05 -0.000230146 2.78818e-05
-3.12272e-06 2.78818e-05 0.000990327
0.000878819 -2.8615e-05 4.61768e-07
-2.8615e-05 9.82667e-05 6.84947e-07
4.61768e-07 6.84947e-07 7.50864e-06
0.000850404 -3.79255e-05 4.58815e-07
-3.79255e-05 9.28645e-05 4.24089e-08
4.58815e-07 4.24089e-08 1.25453e-06
0.000896608 5.57641e-05 -1.10991e-06
5.57641e-05 0.000119082 -1.57112e-07
-1.10991e-06 -1.57112e-07 3.476e-05
0.000829893 -1.19455e-05 -4.1645e-07
-1.19455e-05 6.4474e-05 4.91088e-07
-4.1645e-07 4.91088e-07 -1.64806e-05
0.000874112 4.87638e-05 -6.09993e-07
4.87638e-05 0.000101928 3.47148e-07
-6.09993e-07 3.47148e-07 1.30327e-05
0.000910777 2.85376e-05 6.81098e-07
2.85376e-05 0.000124204 8.80637e-07
6.81098e-07 8.80637e-07 4.10331e-05
0.000963891 6.70998e-05 -6.03882e-07
6.70998e-05 0.000149593 8.98491e-08
-6.03882e-07 8.98491e-08 6.90203e-05
0.00100381 7.48417e-05 9.34845e-07
7.48417e-05 0.00017759 9.65722e-07
9.34845e-07 9.65722e-07 9.67797e-05
0.000157282 -0.000106831 1.94453e-05
-0.000106831 -0.000487071 -8.03195e-06
1.94453e-05 -8.03195e-06 -0.000536538
0.00131742 -0.000219059 7.68339e-06
-0.000219059 9.79999e-05 -3.92153e-06
7.68339e-06 -3.92153e-06 3.87067e-05
0.000848619 -0.000114964 -1.81058e-06
-0.000114964 9.58609e-05 -3.54666e-07
-1.81058e-06 -3.54666e-07 4.42981e-08
0.00175788 -6.37081e-05 4.49605e-06
-6.37081e-05 0.000571149 -4.26788e-06
4.49605e-06 -4.26788e-06 0.000419441
0.000900698 -4.49249e-05 -2.83797e-07
-4.49249e-05 0.000112522 -7.5977e-07
-2.83797e-07 -7.5977e-07 1.06355e-05
0.000954599 -2.82671e-05 -1.23317e-06
-2.82671e-05 0.000136993 -1.79816e-07
-1.23317e-06 -1.79816e-07 4.84361e-05
0.000916958 1.04057e-05 5.45956e-08
1.04057e-05 0.00011246 -2.64414e-07
5.45956e-08 -2.64414e-07 2.44979e-05
0.000674841 -0.0002559 -5.28515e-06
-0.0002559 -0.000251351 5.32973e-08
-5.28515e-06 5.32973e-08 -0.000301899
0.000861667 2.49772e-05 -4.01751e-08
2.49772e-05 8.77746e-05 -3.70347e-07
-4.01751e-08 -3.70347e-07 -7.20532e-06
0.000983809 -2.45299e-05 4.62975e-07
-2.45299e-05 0.000133465 6.64141e-07
4.62975e-07 6.64141e-07 3.61709e-05
0.000552042 -7.15296e-05 7.24041e-07
-7.15296e-05 -2.16016e-05 3.17847e-06
7.24041e-07 3.17847e-06 -0.000110721
0.000990709 -1.59473e-05 5.39519e-07
-1.59473e-05 0.000137425 1.00787e-06
5.39519e-07 1.00787e-06 6.08983e-05
0.000166393 -0.000263037 4.20102e-05
-0.000263037 -0.000394833 -2.69662e-05
4.20102e-05 -2.69662e-05 -0.000362231
0.0011874 -4.18088e-05 -1.09857e-05
-4.18088e-05 0.00051084 1.51212e-05
-1.09857e-05 1.51212e-05 0.000391878
0.000500932 5.39912e-06 -1.11925e-06
5.39912e-06 -0.00012929 4.40529e-06
-1.11925e-06 4.40529e-06 -0.000205522
0.000876083 9.58064e-05 1.8261e-06
9.58064e-05 9.09092e-05 1.48725e-06
1.8261e-06 1.48725e-06 6.96862e-06
0.0014135 -7.34433e-06 -1.43299e-05
-7.34433e-06 0.000235148 1.38065e-07
-1.43299e-05 1.38065e-07 0.000147594
0.00114254 -1.5106e-05 2.7088e-05
-1.5106e-05 -8.97191e-05 -2.11014e-06
2.7088e-05 -2.11014e-06 -0.000395662
-0.00168678 -3.08595e-05 6.6847e-06
-3.08595e-05 6.626e-05 1.20188e-06
6.6847e-06 1.20188e-06 -0.000511148
0.000694986 8.54226e-05 1.10833e-05
8.54226e-05 0.000137273 2.51525e-06
1.10833e-05 2.51525e-06 6.42967e-05
0.00049594 0.000145332 2.1523e-05
0.000145332 0.000201387 1.04145e-05
2.1523e-05 1.04145e-05 6.9541e-05
0.00178774 -3.3958e-05 4.78199e-05
-3.3958e-05 0.000362509 1.10426e-05
4.78199e-05 1.10426e-05 7.01408e-05
0.0072732 -0.000356783 6.66776e-05
-0.000356783 0.00275948 3.11268e-05
6.66776e-05 3.11268e-05 0.000912537
0.00238608 0.000419839 -6.73015e-05
0.000419839 0.000318963 -8.07358e-05
-6.73015e-05 -8.07358e-05 -0.000395041
0.00344799 -0.000270489 2.51182e-05
-0.000270489 0.000349025 2.04892e-05
2.51182e-05 2.04892e-05 5.59638e-05
0.00178414 1.14347e-05 1.84507e-05
1.14347e-05 0.000145499 4.88232e-05
1.84507e-05 4.88232e-05 -0.000359058
0.00210155 8.53823e-06 2.76606e-06
8.53823e-06 -0.00239393 -1.25538e-05
2.76606e-06 -1.25538e-05 -0.000836809
0.000764551 8.28436e-05 8.94707e-07
8.28436e-05 0.000253101 -1.32101e-07
8.94707e-07 -1.32101e-07 0.000189933
0.00127378 -1.97186e-05 -3.61009e-07
-1.97186e-05 0.000112779 -4.9387e-06
-3.61009e-07 -4.9387e-06 -9.36494e-06
0.00193157 9.06039e-06 8.51349e-06
9.06039e-06 0.000251761 3.49255e-06
8.51349e-06 3.49255e-06 -0.000124578
-0.000657992 7.73105e-05 -1.30676e-05
7.73105e-05 -0.00025244 -3.93818e-06
-1.30676e-05 -3.93818e-06 -0.000454818
0.00316108 0.000304434 6.428e-06
0.000304434 -0.00114395 -1.5278e-06
6.428e-06 -1.5278e-06 -0.000166949
0.00538013 0.000561428 4.3212e-05
0.000561428 0.00155488 5.73304e-06
4.3212e-05 5.73304e-06 -0.000269222
0.00278208 0.000133189 -4.90531e-05
0.000133189 0.0010889 -4.10192e-06
-4.90531e-05 -4.10192e-06 0.000671097
0.000164587 7.87254e-05 -1.12483e-05
7.87254e-05 5.63085e-05 -1.17386e-05
-1.12483e-05 -1.17386e-05 -5.42523e-05
0.0012885 1.10673e-06 -6.63428e-07
1.10673e-06 0.000140594 -1.4547e-05
-6.63428e-07 -1.4547e-05 2.94714e-05
0.00219683 1.70833e-05 2.16505e-05
1.70833e-05 0.000498517 -3.8311e-05
2.16505e-05 -3.8311e-05 0.000142771
0.00362329 0.000468562 5.50234e-05
0.000468562 -4.15385e-05 -3.62114e-05
5.50234e-05 -3.62114e-05 0.000774163
0.00241192 0.000175916 -1.45529e-05
0.000175916 -0.000316345 -3.70824e-06
-1.45529e-05 -3.70824e-06 -0.00026613
0.00234461 0.000276805 1.57792e-05
0.000276805 0.000339838 -1.92244e-05
1.57792e-05 -1.92244e-05 0.000431503
0.00223717 -2.04054e-05 9.72485e-05
-2.04054e-05 0.0012142 3.15452e-05
9.72485e-05 3.15452e-05 -0.00131136
0.000615417 8.00659e-05 2.90724e-06
8.00659e-05 -1.14744e-05 6.29168e-06
2.90724e-06 6.29168e-06 -5.94156e-05
0.00063638 1.77651e-05 5.8364e-06
1.77651e-05 6.5001e-05 9.15427e-07
5.8364e-06 9.15427e-07 2.13626e-05
0.000415352 -1.76307e-05 1.12041e-05
-1.76307e-05 0.000132874 -1.14313e-05
1.12041e-05 -1.14313e-05 6.91266e-05
0.000846059 2.27266e-05 -2.75015e-07
2.27266e-05 5.08484e-05 1.59212e-06
-2.75015e-07 1.59212e-06 -1.87219e-05
0.000684132 -3.5501e-05 -1.12455e-06
-3.5501e-05 -3.86403e-05 3.50391e-06
-1.12455e-06 3.50391e-06 -8.87843e-05
0.00089043 -6.37653e-05 -4.19502e-06
-6.37653e-05 0.000106575 7.45746e-06
-4.19502e-06 7.45746e-06 6.34082e-05
0.000834093 -3.29616e-06 -1.7408e-07
-3.29616e-06 5.53143e-05 -2.88502e-07
-1.7408e-07 -2.88502e-07 -3.38831e-06
0.000606904 -1.00049e-05 -1.98629e-06
-1.00049e-05 -2.933e-05 2.6725e-06
-1.98629e-06 2.6725e-06 -4.85477e-05
0.000313017 -7.36776e-05 3.39594e-06
-7.36776e-05 -6.90474e-05 -4.2921e-06
3.39594e-06 -4.2921e-06 -0.000180412
0.000872181 2.71755e-05 5.70804e-08
2.71755e-05 8.08557e-05 1.56859e-06
5.70804e-08 1.56859e-06 1.64066e-05
0.00086835 5.48233e-05 -4.34186e-07
5.48233e-05 8.50723e-05 1.07165e-06
-4.34186e-07 1.07165e-06 1.34208e-05
0.00109216 -3.84023e-05 8.29523e-07
-3.84023e-05 0.000237132 6.75075e-07
8.29523e-07 6.75075e-07 0.000156114
0.000483404 -5.00611e-05 3.82647e-06
-5.00611e-05 -7.9342e-06 1.06917e-06
3.82647e-06 1.06917e-06 -0.00016874
0.000643254 -1.50768e-06 -4.04207e-06
-1.50768e-06 -4.76795e-06 -3.09932e-07
-4.04207e-06 -3.09932e-07 -8.30147e-05
0.000421515 -5.79972e-05 7.2243e-07
-5.79972e-05 -0.000115359 -3.32071e-07
7.2243e-07 -3.32071e-07 -0.00024023
0.00106478 -0.000149763 3.28213e-06
-0.000149763 0.000214403 -6.12494e-07
3.28213e-06 -6.12494e-07 3.21519e-05
0.00113177 -0.000155562 -2.02514e-06
-0.000155562 0.000174347 3.59994e-06
-2.02514e-06 3.59994e-06 -4.71676e-06
0.00134323 -8.64012e-05 -1.91192e-06
-8.64012e-05 0.000363572 -6.409e-07
-1.91192e-06 -6.409e-07 0.000249591
0.000727198 -0.000120583 -3.29246e-07
-0.000120583 1.67975e-05 5.40059e-08
-3.29246e-07 5.40059e-08 -0.000136027
0.00139194 -0.000159254 6.73962e-07
-0.000159254 0.000375454 -8.04983e-07
6.73962e-07 -8.04983e-07 0.000229596
0.000474106 -8.31629e-05 -1.35399e-06
-8.31629e-05 -8.56909e-05 -1.40168e-09
-1.35399e-06 -1.40168e-09 -0.000212511
0.000880455 -0.000123216 1.51099e-07
-0.000123216 0.000106932 3.00175e-07
1.51099e-07 3.00175e-07 -3.58832e-05
0.000895789 -7.37726e-06 -2.55216e-07
-7.37726e-06 0.000116855 6.18203e-07
-2.55216e-07 6.18203e-07 2.65025e-05
0.00100319 -9.00626e-05 -1.6019e-06
-9.00626e-05 0.000189742 1.35452e-06
-1.6019e-06 1.35452e-06 7.43845e-05
0.000575679 -0.000102123 -6.35007e-07
-0.000102123 -5.02094e-05 -7.46944e-07
-6.35007e-07 -7.46944e-07 -0.000189673
0.00077939 5.04951e-05 2.29086e-07
5.04951e-05 3.84921e-05 8.49229e-07
2.29086e-07 8.49229e-07 -2.47256e-05
0.000750584 1.57666e-07 7.47698e-07
1.57666e-07 3.47944e-05 -4.43118e-08
7.47698e-07 -4.43118e-08 -4.74752e-05
0.000833885 -2.98963e-05 7.10059e-07
-2.98963e-05 9.64978e-05 -2.30663e-06
7.10059e-07 -2.30663e-06 -6.44774e-06
0.000829991 1.75528e-05 -6.49859e-08
1.75528e-05 7.2181e-05 -5.73782e-07
-6.49859e-08 -5.73782e-07 2.6827e-06
0.000791919 2.40365e-05 -5.01654e-07
2.40365e-05 3.80847e-05 -1.63215e-07
-5.01654e-07 -1.63215e-07 -1.75595e-05
0.000746722 4.07721e-05 -1.40775e-06
4.07721e-05 9.22285e-06 1.35806e-06
-1.40775e-06 1.35806e-06 -2.81083e-05
0.000812064 -9.73684e-06 9.09992e-07
-9.73684e-06 4.61908e-05 -6.41993e-07
9.09992e-07 -6.41993e-07 -6.84713e-06
0.00075648 3.34789e-05 -7.08026e-08
3.34789e-05 7.88606e-06 1.71903e-10
-7.08026e-08 1.71903e-10 -2.73505e-05
0.000679112 3.56114e-05 -1.22622e-06
3.56114e-05 -3.43014e-05 3.30316e-06
-1.22622e-06 3.30316e-06 -4.29146e-05
0.000764659 2.38628e-05 1.2177e-06
2.38628e-05 6.56478e-06 -1.47822e-06
1.2177e-06 -1.47822e-06 -2.7229e-05
0.000697649 3.06368e-05 1.21568e-07
3.06368e-05 -3.12829e-05 2.32244e-08
1.21568e-07 2.32244e-08 -3.83245e-05
0.0020369 4.72273e-05 -4.75669e-06
4.72273e-05 0.000716998 1.57178e-06
-4.75669e-06 1.57178e-06 0.000734104
0.000701811 2.49635e-05 8.56467e-07
2.49635e-05 -3.52394e-05 -3.24127e-06
8.56467e-07 -3.24127e-06 -4.11426e-05
0.00148941 3.05276e-05 7.54044e-06
3.05276e-05 0.00040573 -1.1198e-06
7.54044e-06 -1.1198e-06 0.000421462
0.00213754 2.76422e-05 1.24655e-05
2.76422e-05 0.00076205 -4.03833e-06
1.24655e-05 -4.03833e-06 0.000781581
0.000676401 -1.80234e-05 -1.80446e-07
-1.80234e-05 -3.11823e-05 -6.34726e-07
-1.80446e-07 -6.34726e-07 -9.21191e-05
0.000507057 -1.60933e-05 -3.34852e-07
-1.60933e-05 -0.000134881 -2.15086e-06
-3.34852e-07 -2.15086e-06 -0.000172671
0.000772239 2.45768e-06 -3.42485e-07
2.45768e-06 2.81397e-05 -5.23544e-07
-3.42485e-07 -5.23544e-07 -3.38702e-05
0.000716955 -1.90623e-05 -3.5917e-07
-1.90623e-05 -3.06576e-05 -3.39565e-06
-3.5917e-07 -3.39565e-06 -3.58856e-05
0.000517803 -1.32697e-05 -6.24601e-09
-1.32697e-05 -0.000130203 -6.54658e-07
-6.24601e-09 -6.54658e-07 -0.000165607
0.000902941 2.0628e-06 -1.24641e-07
2.0628e-06 0.000102702 7.60362e-07
-1.24641e-07 7.60362e-07 4.35691e-05
0.00210745 -1.89089e-05 -8.68504e-06
-1.89089e-05 0.000741851 -4.33243e-06
-8.68504e-06 -4.33243e-06 0.000762538
0.000717925 -1.26204e-05 -1.09797e-07
-1.26204e-05 -3.36344e-05 -1.09204e-08
-1.09797e-07 -1.09204e-08 -3.70757e-05
0.000522007 -8.76991e-06 1.77958e-07
-8.76991e-06 -0.000128736 1.62599e-06
1.77958e-07 1.62599e-06 -0.000162213
0.00207288 -9.26981e-06 -2.70627e-06
-9.26981e-06 0.000720063 2.47233e-08
-2.70627e-06 2.47233e-08 0.00074168
0.000720996 -6.28033e-06 1.76905e-07
-6.28033e-06 -3.41083e-05 3.35377e-06
1.76905e-07 3.35377e-06 -3.6466e-05
0.0020639 3.01694e-07 -5.83864e-07
3.01694e-07 0.000714179 4.42349e-06
-5.83864e-07 4.42349e-06 0.000736054
0.00127243 2.08108e-05 -1.43215e-05
2.08108e-05 0.000106007 1.4042e-05
-1.43215e-05 1.4042e-05 -1.72317e-05
0.00139147 2.50035e-05 6.73963e-06
2.50035e-05 7.18385e-05 -2.16099e-06
6.73963e-06 -2.16099e-06 -0.000266028
0.00131001 0.000132845 4.57369e-05
0.000132845 0.00136554 -1.83626e-05
4.57369e-05 -1.83626e-05 0.00114555
0.000855409 2.49885e-05 1.43276e-07
2.49885e-05 7.99401e-05 6.72834e-08
1.43276e-07 6.72834e-08 3.99561e-06
0.000770644 -7.92039e-06 5.45797e-08
-7.92039e-06 2.9431e-05 4.39322e-07
5.45797e-08 4.39322e-07 -4.37886e-05
0.000914261 4.13958e-05 -3.14427e-07
4.13958e-05 0.000113353 1.2121e-06
-3.14427e-07 1.2121e-06 3.29077e-05
0.00176627 1.54351e-05 2.67398e-06
1.54351e-05 7.81599e-05 5.90971e-05
2.67398e-06 5.90971e-05 -0.000386295
0.00217409 2.69735e-05 -6.62895e-06
2.69735e-05 0.000518707 1.82227e-06
-6.62895e-06 1.82227e-06 0.000134961
0.00237891 2.54642e-05 3.95162e-05
2.54642e-05 0.000406992 -4.44868e-05
3.95162e-05 -4.44868e-05 -0.000170748
0.00430503 -0.000266307 -6.08187e-05
-0.000266307 0.000771967 2.75404e-06
-6.08187e-05 2.75404e-06 0.000210293
-0.000245888 2.30947e-07 -3.90883e-05
2.30947e-07 -0.000588592 2.06866e-05
-3.90883e-05 2.06866e-05 -0.00234096
0.00436325 0.000592489 6.15557e-05
0.000592489 0.000918321 -1.48063e-05
6.15557e-05 -1.48063e-05 0.000909522
0.00145707 0.000223302 1.09794e-05
0.000223302 -0.00226808 -2.95297e-05
1.09794e-05 -2.95297e-05 -0.00119138
0.00471495 -0.000555986 -9.1576e-06
-0.000555986 0.00114767 3.61401e-06
-9.1576e-06 3.61401e-06 0.000587022
0.00624926 -1.76607e-05 1.23284e-05
-1.76607e-05 0.00238215 -7.0124e-06
1.23284e-05 -7.0124e-06 0.000560743
-1.73904e-05 0.000116392 -1.05068e-05
0.000116392 -0.000680505 -1.12764e-05
-1.05068e-05 -1.12764e-05 -0.000905938
0.00342667 2.38541e-05 -5.52531e-06
2.38541e-05 -0.00128128 4.54038e-06
-5.52531e-06 4.54038e-06 7.33305e-05
0.0020209 -0.000460025 -3.06264e-05
-0.000460025 -0.000313374 -3.60627e-05
-3.06264e-05 -3.60627e-05 -0.000841843
0.00911137 -0.000349745 6.46487e-05
-0.000349745 0.00397684 9.13386e-06
6.46487e-05 9.13386e-06 0.0017528
-0.00396549 8.35498e-05 2.9848e-05
8.35498e-05 -0.00101203 -1.45556e-05
2.9848e-05 -1.45556e-05 -0.00159657
0.00161318 -0.000248171 4.36983e-06
-0.000248171 -0.00179848 1.74579e-06
4.36983e-06 1.74579e-06 -0.000735278
0.000865656 5.14136e-06 -8.59616e-08
5.14136e-06 8.18601e-05 1.31714e-06
-8.59616e-08 1.31714e-06 -3.75106e-06
0.000853435 -1.4821e-05 2.07139e-07
-1.4821e-05 8.69091e-05 -5.74274e-08
2.07139e-07 -5.74274e-08 -5.88026e-06
0.000821724 -4.82118e-05 -1.12261e-07
-4.82118e-05 7.83949e-05 -4.58961e-07
-1.12261e-07 -4.58961e-07 -1.41837e-05
0.000847758 1.19696e-05 -3.27437e-07
1.19696e-05 7.45573e-05 -2.43485e-07
-3.27437e-07 -2.43485e-07 -7.20285e-06
0.00097549 8.70364e-05 1.34996e-06
8.70364e-05 0.000156697 -5.67676e-08
1.34996e-06 -5.67676e-08 6.92591e-05
0.00101706 7.73445e-05 -8.73887e-08
7.73445e-05 0.000179323 4.43655e-11
-8.73887e-08 4.43655e-11 9.8006e-05
0.00123108 -0.000284711 -2.12895e-06
-0.000284711 2.3826e-05 6.96304e-06
-2.12895e-06 6.96304e-06 -5.64875e-05
-0.000773864 -5.37924e-05 8.37492e-06
-5.37924e-05 -0.000722367 -5.63738e-06
8.37492e-06 -5.63738e-06 -0.000792513
0.00101042 4.71905e-05 -6.7763e-07
4.71905e-05 0.000170865 -7.63307e-07
-6.7763e-07 -7.63307e-07 7.89511e-05
0.00135295 -7.26222e-05 8.21613e-06
-7.26222e-05 0.000320738 -9.80196e-06
8.21613e-06 -9.80196e-06 0.000219451
0.00100821 1.59964e-05 -4.25948e-07
1.59964e-05 0.000168868 -1.73979e-06
-4.25948e-07 -1.73979e-06 7.58127e-05
0.000905743 -4.85649e-06 1.68597e-08
-4.85649e-06 9.09975e-05 -3.70216e-07
1.68597e-08 -3.70216e-07 1.16886e-05
0.00097013 5.22283e-05 4.67435e-07
5.22283e-05 0.000139426 -3.78623e-07
4.67435e-07 -3.78623e-07 6.01644e-05
0.00058969 -0.000252059 -8.9569e-06
-0.000252059 -0.000186748 -1.82844e-06
-8.9569e-06 -1.82844e-06 -0.000203283
0.000951891 -2.03334e-05 9.0487e-07
-2.03334e-05 0.000123075 -1.72789e-06
9.0487e-07 -1.72789e-06 4.9575e-05
0.000592428 -1.95435e-05 7.5307e-06
-1.95435e-05 0.000203122 -1.38788e-06
7.5307e-06 -1.38788e-06 9.19036e-05
0.000976177 1.72658e-05 2.36822e-06
1.72658e-05 0.000139013 1.29988e-06
2.36822e-06 1.29988e-06 6.61923e-05
-0.00194195 -2.3919e-05 7.7703e-06
-2.3919e-05 -0.000950676 -2.6363e-05
7.7703e-06 -2.6363e-05 -0.00122634
0.00139435 5.0624e-06 1.00344e-05
5.0624e-06 0.000586109 1.908e-05
1.00344e-05 1.908e-05 0.00055056
0.001124 -1.49382e-05 1.47914e-06
-1.49382e-05 0.000226265 4.55183e-06
1.47914e-06 4.55183e-06 0.000170023
0.00142175 -6.04415e-06 -5.81206e-07
-6.04415e-06 0.000298551 1.6026e-07
-5.81206e-07 1.6026e-07 0.00024753
0.00106832 -5.30271e-06 -5.57451e-06
-5.30271e-06 6.02508e-05 -1.37607e-06
-5.57451e-06 -1.37607e-06 -1.54246e-05
0.00105094 -2.56654e-05 8.28204e-05
-2.56654e-05 -9.98514e-05 -1.21101e-06
8.28204e-05 -1.21101e-06 -0.00040565
0.00113349 0.000123947 1.55065e-05
0.000123947 0.000438024 1.10251e-05
1.55065e-05 1.10251e-05 0.000366098
0.00350823 0.000329518 4.54488e-06
0.000329518 0.0014857 -1.44749e-05
4.54488e-06 -1.44749e-05 0.00136901
0.00127259 -1.83168e-05 9.00748e-06
-1.83168e-05 9.60241e-05 5.3529e-06
9.00748e-06 5.3529e-06 -1.7237e-05
0.000744713 0.000246528 -9.39241e-06
0.000246528 -0.000286467 -1.9194e-07
-9.39241e-06 -1.9194e-07 -0.0020575
-0.00666779 1.97751e-05 -2.85153e-05
1.97751e-05 -0.00323768 2.72204e-06
-2.85153e-05 2.72204e-06 -0.00393104
0.00207408 1.36611e-05 9.6218e-06
1.36611e-05 0.000446308 3.17794e-05
9.6218e-06 3.17794e-05 0.000149119
0.00153218 0.00022422 -9.53456e-06
0.00022422 -0.00219814 2.93542e-05
-9.53456e-06 2.93542e-05 -0.0011332
0.000346031 6.12828e-05 -1.99636e-06
6.12828e-05 0.000147314 -1.74768e-06
-1.99636e-06 -1.74768e-06 5.54639e-05
0.00113734 -2.09469e-06 2.20869e-06
-2.09469e-06 7.58642e-05 -5.55484e-06
2.20869e-06 -5.55484e-06 -1.96606e-05
0.00220386 2.07227e-05 6.45894e-06
2.07227e-05 0.000503285 -1.73259e-06
6.45894e-06 -1.73259e-06 0.000136506
0.00154633 0.000262188 4.21179e-05
0.000262188 -0.000183847 -4.51553e-08
4.21179e-05 -4.51553e-08 -0.000286209
0.00183399 0.000461036 9.57622e-06
0.000461036 -0.00110824 -2.31617e-05
9.57622e-06 -2.31617e-05 -0.000262012
2.19405e-05 0.000121313 1.12311e-05
0.000121313 -0.000977082 7.91612e-06
1.12311e-05 7.91612e-06 -0.00097264
0.00662639 0.000130771 5.293e-05
0.000130771 0.00330105 -1.54807e-05
5.293e-05 -1.54807e-05 0.000540287
5.73289e-05 5.80411e-06 -9.1223e-06
5.80411e-06 0.000191043 -1.22117e-05
-9.1223e-06 -1.22117e-05 -8.15542e-06
0.00122013 1.69981e-05 1.33768e-05
1.69981e-05 6.28713e-05 -1.33735e-05
1.33768e-05 -1.33735e-05 -5.72967e-05
0.00226916 4.97765e-05 7.42449e-05
4.97765e-05 0.000203498 -5.32404e-05
7.42449e-05 -5.32404e-05 -0.0002384
0.00223754 0.000661177 1.10138e-05
0.000661177 0.000625003 -7.75057e-06
1.10138e-05 -7.75057e-06 0.00164471
-0.00638461 0.000135534 6.05273e-05
0.000135534 -0.00448758 4.15191e-05
6.05273e-05 4.15191e-05 -0.00427842
0.00857178 -8.98521e-05 3.56637e-05
-8.98521e-05 0.00349632 -5.07748e-05
3.56637e-05 -5.07748e-05 0.00121665
0.00444643 -0.000238888 -6.39201e-05
-0.000238888 0.000952663 0.000119462
-6.39201e-05 0.000119462 0.00106233
0.00103672 6.38446e-06 -1.22367e-06
6.38446e-06 0.000288888 6.92037e-06
-1.22367e-06 6.92037e-06 0.000245764
6.62511e-05 -1.39554e-05 2.65116e-06
-1.39554e-05 -5.30395e-05 -9.77294e-07
2.65116e-06 -9.77294e-07 -0.000133711
-0.000209018 -9.5634e-05 6.67832e-06
-9.5634e-05 -0.000130235 -1.03693e-05
6.67832e-06 -1.03693e-05 -0.000296165
0.000840543 -1.54506e-05 5.29866e-08
-1.54506e-05 6.31415e-05 1.58248e-06
5.29866e-08 1.58248e-06 1.94481e-06
0.000474695 -1.40032e-05 1.49945e-06
-1.40032e-05 -0.000112304 1.03531e-05
1.49945e-06 1.03531e-05 -0.000128416
0.000534604 -2.10813e-05 -7.80036e-08
-2.10813e-05 4.45677e-05 -1.8325e-09
-7.80036e-08 -1.8325e-09 -5.20115e-05
0.000912679 -0.000125942 1.29522e-05
-0.000125942 0.000312621 -7.6716e-06
1.29522e-05 -7.6716e-06 0.000100507
0.00153269 -5.29961e-05 -1.56732e-06
-5.29961e-05 0.00046599 1.46636e-06
-1.56732e-06 1.46636e-06 0.000380548
0.00125669 -0.000127044 9.42271e-07
-0.000127044 0.000375483 5.03327e-07
9.42271e-07 5.03327e-07 0.000210851
0.00100567 -0.000154931 5.38809e-06
-0.000154931 0.000235637 2.33606e-06
5.38809e-06 2.33606e-06 -2.05266e-05
0.000176127 -5.32452e-05 -1.77288e-06
-5.32452e-05 -0.000242469 -1.28888e-06
-1.77288e-06 -1.28888e-06 -0.000358545
0.00105195 -0.000146521 -2.74215e-07
-0.000146521 0.000204416 7.84164e-07
-2.74215e-07 7.84164e-07 1.62077e-05
0.0018983 -0.00022389 1.33033e-06
-0.00022389 0.000569349 1.83585e-06
1.33033e-06 1.83585e-06 0.000344271
0.00172523 -0.000214705 -2.97824e-06
-0.000214705 0.000390163 1.25129e-06
-2.97824e-06 1.25129e-06 0.000190406
0.000634672 -0.000119366 -2.33246e-07
-0.000119366 -7.09074e-05 4.39482e-06
-2.33246e-07 4.39482e-06 -0.000229611
0.0011455 -0.000157004 -1.75767e-06
-0.000157004 0.000181332 1.25113e-06
-1.75767e-06 1.25113e-06 8.16361e-07
0.000922433 -0.000133893 -2.4181e-06
-0.000133893 0.000115192 1.90251e-07
-2.4181e-06 1.90251e-07 -4.0776e-05
0.00132826 -0.000152094 2.07124e-06
-0.000152094 0.000350901 -1.78089e-06
2.07124e-06 -1.78089e-06 0.000214668
0.00108038 -0.000137446 2.16123e-06
-0.000137446 0.000213526 -1.67258e-06
2.16123e-06 -1.67258e-06 7.36138e-05
0.000702465 -3.87937e-05 4.46952e-07
-3.87937e-05 2.40316e-05 1.00806e-06
4.46952e-07 1.00806e-06 -8.41011e-05
0.000790442 -9.64231e-05 9.37541e-07
-9.64231e-05 8.36063e-05 -3.93253e-07
9.37541e-07 -3.93253e-07 -4.28345e-05
0.000942885 -0.000126869 4.1317e-06
-0.000126869 0.000138799 -2.63587e-06
4.1317e-06 -2.63587e-06 -1.20145e-06
0.000786093 5.32089e-05 5.42782e-07
5.32089e-05 4.97648e-05 1.26732e-06
5.42782e-07 1.26732e-06 -2.48946e-05
0.000898652 -2.57403e-05 -1.67278e-07
-2.57403e-05 0.000119752 8.42682e-08
-1.67278e-07 8.42682e-08 2.73299e-05
0.00107338 -8.79874e-05 -2.83004e-07
-8.79874e-05 0.000225962 -4.96628e-08
-2.83004e-07 -4.96628e-08 0.000110507
0.000723341 5.07426e-05 -9.93607e-07
5.07426e-05 5.06595e-06 1.45311e-06
-9.93607e-07 1.45311e-06 -3.68047e-05
0.000794041 2.84667e-05 -5.13724e-07
2.84667e-05 4.48515e-05 -2.55197e-07
-5.13724e-07 -2.55197e-07 -1.76753e-05
0.000630358 1.05435e-06 -8.48799e-09
1.05435e-06 -2.98926e-05 -7.96182e-07
-8.48799e-09 -7.96182e-07 -0.000112491
0.000819066 1.13875e-06 7.72111e-07
1.13875e-06 5.17479e-05 -9.15335e-07
7.72111e-07 -9.15335e-07 -3.54367e-06
0.000748195 4.34286e-05 -1.09804e-07
4.34286e-05 1.04911e-05 -2.82974e-08
-1.09804e-07 -2.82974e-08 -2.72096e-05
0.000664128 4.09282e-05 -1.46929e-06
4.09282e-05 -3.40417e-05 3.28412e-06
-1.46929e-06 3.28412e-06 -4.48081e-05
0.000760488 3.44016e-05 1.18963e-06
3.44016e-05 9.9199e-06 -1.51573e-06
1.18963e-06 -1.51573e-06 -2.53531e-05
0.000689882 3.6327e-05 8.6457e-08
3.6327e-05 -2.84889e-05 9.23094e-09
8.6457e-08 9.23094e-09 -3.71461e-05
0.00208188 5.12169e-05 -2.11809e-05
5.12169e-05 0.000748464 3.51944e-06
-2.11809e-05 3.51944e-06 0.000764444
0.000702512 3.11138e-05 1.02952e-06
3.11138e-05 -2.90054e-05 -3.26018e-06
1.02952e-06 -3.26018e-06 -3.60194e-05
0.00147719 3.8038e-05 8.81831e-06
3.8038e-05 0.00040592 -1.00646e-06
8.81831e-06 -1.00646e-06 0.000420272
0.00211598 3.61764e-05 1.58599e-05
3.61764e-05 0.00075529 -3.83483e-06
1.58599e-05 -3.83483e-06 0.000773879
0.000810437 2.46269e-05 -5.61405e-07
2.46269e-05 4.14892e-05 -2.99493e-07
-5.61405e-07 -2.99493e-07 -1.94777e-05
0.000740387 -1.95135e-05 -6.85165e-07
-1.95135e-05 -6.38177e-06 -1.48304e-06
-6.85165e-07 -1.48304e-06 -4.43331e-05
0.000726944 1.86983e-05 -7.60221e-07
1.86983e-05 1.02887e-06 -4.29401e-07
-7.60221e-07 -4.29401e-07 -6.22886e-05
0.00070679 -2.51747e-05 -2.9576e-07
-2.51747e-05 -3.15072e-05 -3.44882e-06
-2.9576e-07 -3.44882e-06 -3.88631e-05
0.000628932 -1.65825e-05 -2.00735e-07
-1.65825e-05 -6.81579e-05 -6.73851e-07
-2.00735e-07 -6.73851e-07 -0.000105187
0.000894788 -8.30151e-07 4.54879e-08
-8.30151e-07 9.57115e-05 -5.94629e-08
4.54879e-08 -5.94629e-08 3.41593e-05
0.0021504 -2.79038e-05 -1.25647e-05
-2.79038e-05 0.000769298 -4.23522e-06
-1.25647e-05 -4.23522e-06 0.000788728
0.00071049 -1.86883e-05 -1.78943e-07
-1.86883e-05 -3.42595e-05 -8.43675e-09
-1.78943e-07 -8.43675e-09 -3.94046e-05
0.000505879 -1.33719e-05 1.91795e-08
-1.33719e-05 -0.000136767 9.59269e-07
1.91795e-08 9.59269e-07 -0.000172447
0.0020984 -1.82154e-05 -2.45101e-06
-1.82154e-05 0.000736452 4.64139e-08
-2.45101e-06 4.64139e-08 0.000757302
0.000714057 -1.23191e-05 3.58175e-07
-1.23191e-05 -3.57606e-05 3.37089e-06
3.58175e-07 3.37089e-06 -3.91572e-05
0.00206904 -8.61672e-06 3.56247e-06
-8.61672e-06 0.000717729 4.39534e-06
3.56247e-06 4.39534e-06 0.00073941
0.00126342 8.96759e-07 -6.88057e-07
8.96759e-07 0.000145889 1.50206e-05
-6.88057e-07 1.50206e-05 1.55102e-05
0.00125132 1.71281e-05 -4.40109e-06
1.71281e-05 9.66947e-05 1.03624e-06
-4.40109e-06 1.03624e-06 -3.8464e-05
0.00148988 2.50621e-05 6.29282e-05
2.50621e-05 0.000148567 -1.56516e-05
6.29282e-05 -1.56516e-05 -0.000193373
0.000755444 -4.47207e-05 1.0006e-07
-4.47207e-05 1.65953e-05 -1.71206e-07
1.0006e-07 -1.71206e-07 -5.31078e-05
0.000907619 -1.03354e-05 -3.37864e-07
-1.03354e-05 0.000107645 -5.0134e-07
-3.37864e-07 -5.0134e-07 3.26288e-05
0.000878635 2.57902e-05 1.31379e-06
2.57902e-05 9.11304e-05 -4.59291e-07
1.31379e-06 -4.59291e-07 1.71962e-05
0.000779297 -2.14506e-05 9.26451e-08
-2.14506e-05 2.96038e-05 2.28728e-08
9.26451e-08 2.28728e-08 -4.05727e-05
0.000844842 9.23547e-06 1.54404e-08
9.23547e-06 7.42698e-05 2.06223e-07
1.54404e-08 2.06223e-07 -5.3857e-06
0.000880963 -9.69593e-06 -8.25476e-07
-9.69593e-06 9.40755e-05 4.88112e-07
-8.25476e-07 4.88112e-07 1.72836e-05
0.000878323 0.000112541 7.90774e-07
0.000112541 0.000103273 1.23012e-06
7.90774e-07 1.23012e-06 1.45781e-05
0.00144598 4.94761e-07 2.27112e-05
4.94761e-07 0.000167452 5.65149e-05
2.27112e-05 5.65149e-05 -0.000332957
0.00189288 1.8003e-05 -1.79634e-06
1.8003e-05 0.000265715 1.72185e-05
-1.79634e-06 1.72185e-05 -0.00011247
0.00212132 3.17843e-05 1.00305e-05
3.17843e-05 0.000486799 -3.42633e-05
1.00305e-05 -3.42633e-05 9.33502e-05
0.00210487 -3.15985e-06 -6.05176e-06
-3.15985e-06 -0.00233291 -6.48735e-06
-6.05176e-06 -6.48735e-06 -0.000854984
0.00291219 -0.000489153 -2.60485e-05
-0.000489153 0.000340796 4.91936e-05
-2.60485e-05 4.91936e-05 -0.000431257
-0.0010651 -0.000202648 4.75903e-05
-0.000202648 -0.00106077 -2.67076e-06
4.75903e-05 -2.67076e-06 -0.00293174
0.00472753 0.000500671 3.89591e-05
0.000500671 0.00215927 -2.51729e-05
3.89591e-05 -2.51729e-05 0.00137887
0.00498032 -0.000653814 -1.99818e-05
-0.000653814 0.00109987 4.08134e-06
-1.99818e-05 4.08134e-06 0.00044825
0.00154451 -0.000207344 4.11352e-05
-0.000207344 0.000330201 -1.89435e-05
4.11352e-05 -1.89435e-05 -0.00171505
0.00345103 -1.10845e-05 -2.27952e-05
-1.10845e-05 0.00127437 2.10962e-06
-2.27952e-05 2.10962e-06 0.00087785
0.0051092 -0.000323495 -1.14542e-05
-0.000323495 0.000405189 -1.73871e-05
-1.14542e-05 -1.73871e-05 0.00143467
0.00220301 -0.000162591 -1.87069e-05
-0.000162591 -0.000219 1.07419e-05
-1.87069e-05 1.07419e-05 -0.000196083
0.000910452 -0.00011973 3.69334e-05
-0.00011973 -0.000473712 -6.23129e-05
3.69334e-05 -6.23129e-05 -0.00210377
-0.00377445 -0.000362488 4.1356e-05
-0.000362488 -0.00315064 7.49985e-07
4.1356e-05 7.49985e-07 -0.00376733
0.000953346 -0.000364219 2.5086e-05
-0.000364219 -0.00161684 -2.71184e-05
2.5086e-05 -2.71184e-05 -0.000531099
0.000907753 -4.76228e-05 -3.93547e-07
-4.76228e-05 0.000104744 2.12246e-06
-3.93547e-07 2.12246e-06 3.18869e-05
0.000811905 4.44469e-06 1.94781e-07
4.44469e-06 5.2204e-05 2.33465e-08
1.94781e-07 2.33465e-08 -3.27463e-05
0.000811574 -8.37086e-07 -5.19833e-07
-8.37086e-07 6.69532e-05 -1.3406e-06
-5.19833e-07 -1.3406e-06 -2.79039e-05
0.000857756 2.33031e-05 -3.9502e-09
2.33031e-05 8.29127e-05 -1.49725e-06
-3.9502e-09 -1.49725e-06 -1.24913e-06
0.00148431 -0.000268815 6.57811e-07
-0.000268815 0.000242208 1.75822e-05
6.57811e-07 1.75822e-05 0.000192522
0.000133444 -1.88631e-05 4.55293e-06
-1.88631e-05 -3.12017e-05 -1.02936e-05
4.55293e-06 -1.02936e-05 -0.000130495
0.000786752 -2.66974e-05 -3.62446e-07
-2.66974e-05 2.00345e-05 -2.10676e-06
-3.62446e-07 -2.10676e-06 -5.76761e-05
0.000980035 6.67033e-05 -8.55617e-07
6.67033e-05 0.00015376 -2.32534e-06
-8.55617e-07 -2.32534e-06 7.14667e-05
0.00124885 1.80548e-06 5.1123e-06
1.80548e-06 0.000302251 -1.0309e-05
5.1123e-06 -1.0309e-05 0.000226834
0.000853709 -3.39485e-06 -4.99321e-07
-3.39485e-06 7.15701e-05 -3.09633e-08
-4.99321e-07 -3.09633e-08 -9.43393e-07
0.000734785 -5.87293e-06 1.88227e-07
-5.87293e-06 2.57435e-05 -6.73907e-07
1.88227e-07 -6.73907e-07 -3.38317e-05
-0.000715428 -4.21933e-05 -1.35118e-05
-4.21933e-05 -0.000371235 -9.52739e-06
-1.35118e-05 -9.52739e-06 -0.000678199
0.000904599 -2.17961e-05 -1.09512e-06
-2.17961e-05 0.000351368 1.72538e-06
-1.09512e-06 1.72538e-06 0.000322676
0.000758378 -1.16534e-05 3.30634e-06
-1.16534e-05 4.68979e-05 8.66358e-07
3.30634e-06 8.66358e-07 -1.76661e-05
0.000994213 1.84319e-05 -6.91642e-06
1.84319e-05 0.000983116 -4.83473e-05
-6.91642e-06 -4.83473e-05 0.000139829
0.00178428 -2.38744e-05 -9.79506e-07
-2.38744e-05 0.00078282 1.45505e-05
-9.79506e-07 1.45505e-05 0.000722647
0.00143423 -8.43778e-06 1.4258e-05
-8.43778e-06 0.000243897 4.26125e-07
1.4258e-05 4.26125e-07 0.000152286
0.000959986 -5.39304e-06 -1.28406e-07
-5.39304e-06 6.24465e-05 -5.9728e-08
-1.28406e-07 -5.9728e-08 1.93765e-05
0.000771841 -2.89761e-06 2.69338e-06
-2.89761e-06 -8.01069e-05 -1.08686e-06
2.69338e-06 -1.08686e-06 -0.00014498
0.000507685 5.09104e-05 6.83442e-06
5.09104e-05 0.000210776 8.14745e-06
6.83442e-06 8.14745e-06 0.00013991
0.00171573 0.000196604 -5.77209e-05
0.000196604 0.000150032 1.80565e-05
-5.77209e-05 1.80565e-05 0.000179808
0.000997323 -3.5384e-06 3.50302e-06
-3.5384e-06 1.94537e-05 3.54491e-06
3.50302e-06 3.54491e-06 -6.29421e-05
0.00333964 -0.000158969 0.000108579
-0.000158969 0.0016153 -0.000118111
0.000108579 -0.000118111 -0.000780757
0.00494612 0.000538238 -3.49727e-05
0.000538238 0.00204883 2.48682e-05
-3.49727e-05 2.48682e-05 0.00133209
0.00215013 2.0039e-05 -1.13124e-05
2.0039e-05 0.000475802 3.46438e-05
-1.13124e-05 3.46438e-05 9.26327e-05
0.00313332 0.000497729 -3.04529e-05
0.000497729 -0.000359707 1.57833e-05
-3.04529e-05 1.57833e-05 0.000516114
-0.000483901 -1.47451e-05 1.73475e-05
-1.47451e-05 -4.11753e-05 -5.55119e-07
1.73475e-05 -5.55119e-07 -0.000283967
0.00124544 1.31899e-05 4.82978e-06
1.31899e-05 8.22691e-05 -9.18293e-07
4.82978e-06 -9.18293e-07 -4.45455e-05
0.00225516 2.77103e-05 1.92711e-05
2.77103e-05 0.000245704 -2.75647e-06
1.92711e-05 -2.75647e-06 -0.000266057
0.00155881 -8.22318e-05 -1.76651e-05
-8.22318e-05 -0.000486829 2.56966e-05
-1.76651e-05 2.56966e-05 -0.000181311
-0.000563124 0.000694579 1.2363e-05
0.000694579 -0.00109616 -2.11582e-06
1.2363e-05 -2.11582e-06 0.000221592
0.0052986 0.000595643 -1.62191e-06
0.000595643 0.000758064 1.60238e-05
-1.62191e-06 1.60238e-05 0.000937322
0.000652419 -0.000303728 4.54979e-05
-0.000303728 7.45553e-05 -2.61032e-05
4.54979e-05 -2.61032e-05 -0.00257895
0.00109705 -5.58822e-05 4.70894e-05
-5.58822e-05 0.000455906 -9.53765e-06
4.70894e-05 -9.53765e-06 0.000416699
0.00110437 7.19254e-06 4.40247e-05
7.19254e-06 -0.000119022 -1.80489e-05
4.40247e-05 -1.80489e-05 -0.00046567
-0.00126539 0.000254017 -2.47927e-05
0.000254017 -0.000366839 -1.53881e-05
-2.47927e-05 -1.53881e-05 -0.000463146
0.000170366 0.000541789 1.82223e-06
0.000541789 -0.000190778 3.42965e-05
1.82223e-06 3.42965e-05 0.000114308
0.00711124 0.000267835 2.48833e-05
0.000267835 0.00286019 -3.56835e-05
2.48833e-05 -3.56835e-05 0.000748736
0.00283318 -0.000317474 -6.43426e-05
-0.000317474 0.000195626 7.95556e-05
-6.43426e-05 7.95556e-05 -9.99984e-05
-0.00030559 -1.66123e-05 -2.84591e-07
-1.66123e-05 -0.000253402 8.96326e-06
-2.84591e-07 8.96326e-06 -0.000354708
0.000222306 -4.696e-05 -1.7349e-06
-4.696e-05 0.000105665 -3.57208e-07
-1.7349e-06 -3.57208e-07 -5.49327e-05
0.0010486 -0.000156233 1.7616e-05
-0.000156233 0.000335376 -7.61423e-06
1.7616e-05 -7.61423e-06 0.000205759
0.000690937 2.61752e-05 -4.61849e-06
2.61752e-05 0.000125487 2.23034e-06
-4.61849e-06 2.23034e-06 4.28885e-05
3.59129e-06 -6.48372e-05 1.09373e-06
-6.48372e-05 -0.000137545 -2.26384e-06
1.09373e-06 -2.26384e-06 -0.000355559
0.00126428 -0.000193393 1.28055e-05
-0.000193393 0.000272227 1.03454e-06
1.28055e-05 1.03454e-06 5.5509e-05
0.0020267 -0.000205089 -3.80572e-06
-0.000205089 0.000756088 7.67015e-07
-3.80572e-06 7.67015e-07 0.00058686
0.00142425 -0.000177953 8.72743e-07
-0.000177953 0.00043508 1.20044e-06
8.72743e-07 1.20044e-06 0.000183449
0.000946135 -0.000189712 1.85709e-06
-0.000189712 3.86165e-06 -3.30889e-06
1.85709e-06 -3.30889e-06 -0.000222514
0.00106846 -0.000145653 -2.98195e-06
-0.000145653 0.000208616 -2.5243e-07
-2.98195e-06 -2.5243e-07 1.51042e-05
0.00173865 -0.000213019 1.38746e-06
-0.000213019 0.000476922 2.05639e-09
1.38746e-06 2.05639e-09 0.000252378
0.00134676 -0.000208382 1.53763e-06
-0.000208382 0.00011778 -3.82799e-06
1.53763e-06 -3.82799e-06 -8.83372e-05
0.00163848 -0.000212168 -4.70252e-08
-0.000212168 0.000213397 -2.81421e-06
-4.70252e-08 -2.81421e-06 4.5155e-05
0.00196445 -0.000219195 -4.9317e-06
-0.000219195 0.000553837 4.74916e-06
-4.9317e-06 4.74916e-06 0.000365267
0.00152409 -0.000203938 -9.60197e-07
-0.000203938 0.00027778 -1.32311e-08
-9.60197e-07 -1.32311e-08 7.41917e-05
0.000613379 -0.000116077 1.92479e-06
-0.000116077 -7.78171e-05 -3.75043e-08
1.92479e-06 -3.75043e-08 -0.000216755
0.000895591 -0.000134748 1.59444e-06
-0.000134748 7.01465e-05 -4.59193e-07
1.59444e-06 -4.59193e-07 -8.43789e-05
0.00120893 -0.000161705 -6.11239e-07
-0.000161705 0.000214113 -1.5431e-06
-6.11239e-07 -1.5431e-06 3.24847e-05
0.00105992 -0.000129414 8.9572e-07
-0.000129414 0.000202661 3.5063e-07
8.9572e-07 3.5063e-07 7.37208e-05
0.0011439 -0.000139092 -6.52473e-07
-0.000139092 0.000252643 -9.13695e-07
-6.52473e-07 -9.13695e-07 0.000116418
0.00077777 -0.000116343 2.30644e-06
-0.000116343 5.66289e-05 -2.11704e-06
2.30644e-06 -2.11704e-06 -7.73797e-05
0.000755487 1.62642e-05 1.05356e-06
1.62642e-05 4.06887e-05 1.24256e-06
1.05356e-06 1.24256e-06 -5.1205e-05
0.000779838 -4.48918e-05 -4.29407e-08
-4.48918e-05 6.69666e-05 7.18532e-07
-4.29407e-08 7.18532e-07 -4.07513e-05
0.00112344 -0.000110897 1.32388e-06
-0.000110897 0.000261946 -1.23599e-06
1.32388e-06 -1.23599e-06 0.000135469
0.000712136 6.49038e-05 -4.57619e-08
6.49038e-05 9.89023e-06 2.01771e-06
-4.57619e-08 2.01771e-06 -4.18302e-05
0.000787242 2.35211e-05 -2.81782e-07
2.35211e-05 5.1371e-05 -1.43962e-07
-2.81782e-07 -1.43962e-07 -2.46201e-05
0.000903008 -3.99535e-05 3.17446e-07
-3.99535e-05 0.000123498 -6.27435e-07
3.17446e-07 -6.27435e-07 2.89911e-05
0.000664279 4.60335e-05 -2.54208e-06
4.60335e-05 -2.53101e-05 4.549e-06
-2.54208e-06 4.549e-06 -3.86202e-05
0.000728545 5.5607e-05 -7.71701e-08
5.5607e-05 9.43994e-06 -1.504e-07
-7.71701e-08 -1.504e-07 -3.34392e-05
0.000807478 7.60178e-06 2.31427e-07
7.60178e-06 5.08075e-05 -1.17988e-06
2.31427e-07 -1.17988e-06 -1.12116e-05
0.000748604 4.64396e-05 7.14886e-07
4.64396e-05 1.12605e-05 -1.5926e-06
7.14886e-07 -1.5926e-06 -2.68676e-05
0.000683762 4.19702e-05 2.91345e-08
4.19702e-05 -2.34185e-05 -9.37265e-09
2.91345e-08 -9.37265e-09 -3.42804e-05
0.0020845 5.9065e-05 -2.4031e-05
5.9065e-05 0.000758323 3.27611e-06
-2.4031e-05 3.27611e-06 0.000772337
0.000704095 3.71653e-05 1.25055e-06
3.71653e-05 -2.07563e-05 -3.2539e-06
1.25055e-06 -3.2539e-06 -2.94798e-05
0.00209176 5.19129e-05 1.44838e-06
5.19129e-05 0.000754992 9.4993e-08
1.44838e-06 9.4993e-08 0.000770743
0.0021019 4.44722e-05 1.90068e-05
4.44722e-05 0.000754006 -3.62741e-06
1.90068e-05 -3.62741e-06 0.000771264
0.000840357 7.39179e-06 -3.17478e-08
7.39179e-06 7.04109e-05 -5.56461e-07
-3.17478e-08 -5.56461e-07 -4.2062e-06
0.000816585 3.75259e-05 -1.11153e-06
3.75259e-05 5.09421e-05 -9.36088e-07
-1.11153e-06 -9.36088e-07 -1.51254e-05
0.000740171 -2.80568e-05 -7.61599e-07
-2.80568e-05 -4.48125e-06 -1.64417e-06
-7.61599e-07 -1.64417e-06 -4.43934e-05
0.000809898 2.68276e-05 -4.57686e-08
2.68276e-05 4.1449e-05 -2.52938e-08
-4.57686e-08 -2.52938e-08 -1.96515e-05
0.000692332 -3.06645e-05 -4.98736e-07
-3.06645e-05 -3.3964e-05 -3.52515e-06
-4.98736e-07 -3.52515e-06 -4.35508e-05
0.000751936 -2.10968e-05 -1.35724e-07
-2.10968e-05 5.75737e-07 1.90405e-09
-1.35724e-07 1.90405e-09 -3.75828e-05
0.00077796 1.80366e-05 -4.58145e-08
1.80366e-05 2.16426e-05 -1.25781e-07
-4.58145e-08 -1.25781e-07 -3.60815e-05
0.00219805 -3.68175e-05 -1.62809e-05
-3.68175e-05 0.00080039 -4.10352e-06
-1.62809e-05 -4.10352e-06 0.000818287
0.000700732 -2.46379e-05 -1.56612e-07
-2.46379e-05 -3.49766e-05 -7.25103e-09
-1.56612e-07 -7.25103e-09 -4.22275e-05
0.000749706 -1.76109e-05 1.9204e-08
-1.76109e-05 -2.04869e-06 9.38981e-07
1.9204e-08 9.38981e-07 -3.83265e-05
0.00213689 -2.72591e-05 -2.46212e-06
-2.72591e-05 0.000761295 7.01911e-08
-2.46212e-06 7.01911e-08 0.000780942
0.000704632 -1.83444e-05 2.96737e-07
-1.83444e-05 -3.75024e-05 3.3925e-06
2.96737e-07 3.3925e-06 -4.25732e-05
0.0020879 -1.74792e-05 7.90532e-06
-1.74792e-05 0.000730246 4.34216e-06
7.90532e-06 4.34216e-06 0.000751259
0.00123837 -2.72932e-05 1.28676e-05
-2.72932e-05 0.000137231 1.67715e-05
1.28676e-05 1.67715e-05 -1.38063e-05
0.00110588 -6.19719e-07 -2.31627e-06
-6.19719e-07 7.23676e-05 5.73172e-06
-2.31627e-06 5.73172e-06 -3.9774e-05
0.00129597 1.37539e-05 6.03408e-06
1.37539e-05 0.00011974 -9.74745e-06
6.03408e-06 -9.74745e-06 -1.77637e-05
0.000803813 -3.74337e-06 -2.66094e-07
-3.74337e-06 4.84679e-05 -6.85673e-08
-2.66094e-07 -6.85673e-08 -2.51095e-05
0.00083431 -2.30168e-05 -1.74241e-07
-2.30168e-05 6.8002e-05 2.38884e-07
-1.74241e-07 2.38884e-07 -7.53672e-06
0.000776344 -3.03058e-05 2.97371e-07
-3.03058e-05 3.86828e-05 -1.69663e-06
2.97371e-07 -1.69663e-06 -4.16971e-05
0.000728146 -3.63119e-05 -1.32049e-08
-3.63119e-05 9.63895e-06 -6.58712e-07
-1.32049e-08 -6.58712e-07 -6.50644e-05
0.00096733 4.07653e-05 -6.36473e-07
4.07653e-05 0.000152173 -2.56862e-07
-6.36473e-07 -2.56862e-07 6.64112e-05
0.000770519 -3.52645e-05 3.6369e-09
-3.52645e-05 2.1895e-05 -2.24729e-07
3.6369e-09 -2.24729e-07 -4.6333e-05
0.000771144 -1.60117e-05 4.57529e-07
-1.60117e-05 3.11778e-05 -1.05108e-06
4.57529e-07 -1.05108e-06 -4.65788e-05
0.000844746 8.46337e-06 -1.28323e-07
8.46337e-06 7.45799e-05 -4.98441e-08
-1.28323e-07 -4.98441e-08 -1.8414e-06
0.000892712 3.04269e-05 -9.08455e-08
3.04269e-05 0.000101177 2.15861e-07
-9.08455e-08 2.15861e-07 1.83741e-05
0.000954299 1.18942e-05 6.45713e-08
1.18942e-05 0.000144473 8.19183e-07
6.45713e-08 8.19183e-07 6.31672e-05
0.00179249 -2.70577e-05 5.80868e-05
-2.70577e-05 0.000236215 6.49446e-05
5.80868e-05 6.49446e-05 -0.000322022
0.00159047 7.51182e-06 3.28081e-06
7.51182e-06 0.000166555 1.51079e-05
3.28081e-06 1.51079e-05 -0.000339784
0.0020415 2.41654e-05 -4.26973e-06
2.41654e-05 0.00045776 -1.45535e-05
-4.26973e-06 -1.45535e-05 0.000170399
0.00497265 -0.000297274 -2.7545e-05
-0.000297274 0.000504409 -4.34829e-05
-2.7545e-05 -4.34829e-05 0.00156489
-0.00656054 0.000206264 -2.55653e-05
0.000206264 -0.00319398 1.91649e-05
-2.55653e-05 1.91649e-05 -0.00383843
0.0038257 -0.000586488 -5.30191e-05
-0.000586488 0.000722961 5.34826e-05
-5.30191e-05 5.34826e-05 2.97121e-05
0.00636761 -8.51484e-05 -6.89809e-06
-8.51484e-05 0.00193749 -4.67481e-05
-6.89809e-06 -4.67481e-05 0.000281832
0.00358288 -0.000287727 -4.04441e-05
-0.000287727 0.000448334 4.1305e-05
-4.04441e-05 4.1305e-05 0.000146427
0.00942559 -0.000211928 5.81801e-05
-0.000211928 0.00382551 -1.09363e-05
5.81801e-05 -1.09363e-05 0.00174398
0.000173302 -0.000233955 2.18909e-05
-0.000233955 -0.000919987 -8.81969e-07
2.18909e-05 -8.81969e-07 -0.0011961
0.000930414 -0.000413674 -2.54219e-05
-0.000413674 -0.00172494 -6.03635e-05
-2.54219e-05 -6.03635e-05 -0.000602377
0.00439671 -1.35112e-05 -0.000109339
-1.35112e-05 0.000862033 -2.07177e-05
-0.000109339 -2.07177e-05 0.000605578
0.00805009 -0.000301748 -1.83535e-05
-0.000301748 0.00262698 4.68864e-05
-1.83535e-05 4.68864e-05 0.00115019
0.0076832 -0.000866168 1.27096e-05
-0.000866168 0.00214496 -1.65161e-05
1.27096e-05 -1.65161e-05 0.00227899
0.00303874 -0.000647446 1.55887e-05
-0.000647446 0.000299689 1.19089e-06
1.55887e-05 1.19089e-06 0.00158122
0.000654946 1.41029e-05 2.29394e-06
1.41029e-05 8.17344e-06 1.68533e-06
2.29394e-06 1.68533e-06 -5.44825e-05
0.000922822 -3.94646e-05 -9.27585e-08
-3.94646e-05 0.000116887 6.00273e-07
-9.27585e-08 6.00273e-07 4.25113e-05
0.000808031 4.71416e-06 -9.56496e-08
4.71416e-06 4.76342e-05 -1.41723e-06
-9.56496e-08 -1.41723e-06 -3.57104e-05
0.00018811 2.88601e-06 -1.39807e-05
2.88601e-06 4.25209e-05 1.61149e-05
-1.39807e-05 1.61149e-05 -0.000283821
0.000958891 -6.70727e-05 -1.4205e-05
-6.70727e-05 0.000395449 -7.48855e-06
-1.4205e-05 -7.48855e-06 0.000375017
0.000787155 -1.89688e-05 -1.4102e-06
-1.89688e-05 3.67054e-05 -9.70865e-07
-1.4102e-06 -9.70865e-07 -3.79451e-05
0.00069717 -5.11858e-05 -4.20505e-07
-5.11858e-05 4.47201e-06 -6.02071e-06
-4.20505e-07 -6.02071e-06 -5.29272e-05
0.000817933 -5.51838e-06 -5.12302e-07
-5.51838e-06 8.19291e-05 -1.32369e-06
-5.12302e-07 -1.32369e-06 1.61475e-05
0.000589561 -2.58308e-05 -5.67862e-07
-2.58308e-05 0.000146846 3.84527e-06
-5.67862e-07 3.84527e-06 8.66268e-05
9.83035e-05 -1.87859e-05 3.35041e-05
-1.87859e-05 0.000504234 -3.33376e-05
3.35041e-05 -3.33376e-05 -0.000312145
-0.000429544 -1.42396e-05 -4.04498e-06
-1.42396e-05 -0.000417479 8.03043e-06
-4.04498e-06 8.03043e-06 -0.000493441
0.00105496 0.00010968 -1.43966e-08
0.00010968 0.000495604 -2.96768e-05
-1.43966e-08 -2.96768e-05 2.40115e-05
0.00128809 -5.16228e-06 4.44005e-05
-5.16228e-06 -8.9061e-06 6.31258e-06
4.44005e-05 6.31258e-06 -0.000334051
0.00109446 -6.31526e-06 6.18787e-06
-6.31526e-06 7.38316e-05 1.3811e-06
6.18787e-06 1.3811e-06 -6.00586e-06
0.000388915 -4.61601e-06 4.40139e-08
-4.61601e-06 -0.000246221 -3.21818e-07
4.40139e-08 -3.21818e-07 -0.000281327
-0.00149235 -3.48626e-05 -3.60391e-05
-3.48626e-05 -0.000468091 1.23067e-05
-3.60391e-05 1.23067e-05 -0.00077627
0.00210432 5.22276e-05 1.14798e-05
5.22276e-05 -0.000321997 -4.24809e-05
1.14798e-05 -4.24809e-05 -0.000380407
0.00132357 9.40608e-06 -4.28397e-06
9.40608e-06 0.000129546 9.23529e-06
-4.28397e-06 9.23529e-06 2.31337e-06
0.0115972 -0.000206121 8.50025e-05
-0.000206121 0.00481041 -7.49098e-06
8.50025e-05 -7.49098e-06 0.00259401
0.00433642 0.000635937 -4.79047e-05
0.000635937 0.000888587 9.9053e-06
-4.79047e-05 9.9053e-06 0.000847471
0.00236772 1.59272e-05 -3.92349e-05
1.59272e-05 0.000348564 4.32693e-05
-3.92349e-05 4.32693e-05 -0.000214438
-0.00337677 0.000743163 4.20693e-05
0.000743163 -0.00287053 -5.98565e-05
4.20693e-05 -5.98565e-05 -0.00122511
0.000460615 -3.33241e-05 -1.12509e-05
-3.33241e-05 0.000164464 -1.39412e-06
-1.12509e-05 -1.39412e-06 9.02518e-05
0.00137832 1.17219e-05 -7.18459e-06
1.17219e-05 4.08879e-05 2.16618e-06
-7.18459e-06 2.16618e-06 -0.000303795
-0.00155716 0.000293957 -6.61009e-05
0.000293957 -0.00040956 2.72953e-05
-6.61009e-05 2.72953e-05 -0.000420946
0.00197219 -0.000296279 -2.07214e-05
-0.000296279 -0.000201461 2.94678e-05
-2.07214e-05 2.94678e-05 -0.000379209
0.00558735 0.000868208 1.30576e-05
0.000868208 0.00185961 2.11393e-05
1.30576e-05 2.11393e-05 0.002199
0.00718885 -6.05505e-05 5.05292e-05
-6.05505e-05 0.00249416 -2.82404e-05
5.05292e-05 -2.82404e-05 0.00058115
0.00180445 -0.00020217 2.12279e-05
-0.00020217 0.000334189 1.60947e-05
2.12279e-05 1.60947e-05 0.000484657
-0.00145824 5.83998e-05 3.66603e-05
5.83998e-05 1.83864e-05 -7.23584e-06
3.66603e-05 -7.23584e-06 -0.000491967
0.0022469 0.000589951 -3.60773e-05
0.000589951 0.00112981 1.36508e-05
-3.60773e-05 1.36508e-05 0.00125236
0.00507151 0.000293016 -6.71714e-05
0.000293016 0.00167702 5.61082e-05
-6.71714e-05 5.61082e-05 -0.000240246
0.00249852 -0.000541365 1.94805e-05
-0.000541365 9.82113e-05 9.5574e-06
1.94805e-05 9.5574e-06 -0.000484858
0.000642212 4.37495e-06 9.41528e-06
4.37495e-06 0.000336373 9.5897e-06
9.41528e-06 9.5897e-06 0.000183202
0.000650604 -0.000139411 -5.32447e-07
-0.000139411 0.000146858 -2.61585e-07
-5.32447e-07 -2.61585e-07 -1.74487e-06
0.00246043 -0.000247131 1.63466e-05
-0.000247131 0.000684857 2.40488e-06
1.63466e-05 2.40488e-06 0.000654035
-0.000881715 -7.9234e-06 -4.15213e-06
-7.9234e-06 -0.000578937 4.78207e-06
-4.15213e-06 4.78207e-06 -0.000801106
0.000656605 -0.000149977 3.96048e-06
-0.000149977 -1.13156e-05 -5.67877e-07
3.96048e-06 -5.67877e-07 -0.000229975
0.000774964 -0.00021256 1.42147e-06
-0.00021256 -0.000251456 -6.84491e-07
1.42147e-06 -6.84491e-07 -0.000410534
0.00180927 -0.000197747 -4.48601e-06
-0.000197747 0.000615748 4.74064e-07
-4.48601e-06 4.74064e-07 0.000370075
0.0012137 -0.000202304 -2.48176e-06
-0.000202304 0.00013854 -2.16205e-06
-2.48176e-06 -2.16205e-06 -8.00579e-05
0.0017286 -0.000252157 4.2234e-06
-0.000252157 0.000199537 -7.76278e-07
4.2234e-06 -7.76278e-07 4.93118e-05
0.00163183 -0.000204512 -1.65221e-06
-0.000204512 0.00041365 -1.0072e-06
-1.65221e-06 -1.0072e-06 0.000190145
0.00147046 -0.000212227 -3.40794e-07
-0.000212227 0.000179173 -1.90108e-06
-3.40794e-07 -1.90108e-06 -2.08565e-05
0.0015104 -0.000208553 6.09813e-08
-0.000208553 3.88485e-05 -2.76292e-06
6.09813e-08 -2.76292e-06 -0.000103741
0.00168482 -0.000188296 1.30692e-07
-0.000188296 0.000150162 -1.8739e-06
1.30692e-07 -1.8739e-06 1.54422e-05
0.00152089 -0.000196201 -9.86335e-07
-0.000196201 0.000228499 -1.1907e-06
-9.86335e-07 -1.1907e-06 4.71317e-05
0.00146826 -0.000200548 1.03559e-06
-0.000200548 0.000126656 -4.38053e-07
1.03559e-06 -4.38053e-07 -3.98347e-05
0.00143952 -0.000176772 -2.08037e-06
-0.000176772 0.000301099 3.83637e-06
-2.08037e-06 3.83637e-06 0.000137721
0.00136324 -0.000183567 -1.73253e-07
-0.000183567 0.00023614 6.841e-07
-1.73253e-07 6.841e-07 4.52598e-05
0.00127769 -0.000190172 -2.2875e-07
-0.000190172 0.000142935 -1.79512e-06
-2.2875e-07 -1.79512e-06 -6.48321e-05
0.000950933 -0.000130892 5.58395e-07
-0.000130892 0.000107382 -1.20848e-06
5.58395e-07 -1.20848e-06 -2.24673e-05
0.000698916 -0.000120153 -1.99681e-07
-0.000120153 -2.91266e-05 -1.52182e-06
-1.99681e-07 -1.52182e-06 -0.00016558
0.00114256 -0.000149323 4.01906e-06
-0.000149323 0.000203449 -4.25481e-06
4.01906e-06 -4.25481e-06 5.28749e-05
0.000854388 -6.87984e-05 2.74385e-07
-6.87984e-05 8.3353e-05 1.20374e-06
2.74385e-07 1.20374e-06 -2.35999e-05
0.000946637 -0.000112483 4.53813e-07
-0.000112483 0.000141506 5.23089e-07
4.53813e-07 5.23089e-07 1.53103e-05
0.000952624 -0.000125639 -5.23303e-07
-0.000125639 0.000150656 6.49125e-07
-5.23303e-07 6.49125e-07 1.45187e-05
0.000710123 8.17466e-05 9.6134e-07
8.17466e-05 1.78107e-05 2.84369e-06
9.6134e-07 2.84369e-06 -4.93616e-05
0.000826253 -5.3097e-06 2.56839e-08
-5.3097e-06 8.04129e-05 -1.1502e-07
2.56839e-08 -1.1502e-07 -1.39186e-05
0.000853615 -5.76006e-05 -9.3109e-07
-5.76006e-05 0.000107988 -3.25806e-08
-9.3109e-07 -3.25806e-08 9.08067e-07
0.00130162 6.25635e-05 -1.35681e-05
6.25635e-05 0.000338564 2.95664e-06
-1.35681e-05 2.95664e-06 0.000324045
0.000708921 5.3734e-05 -1.18158e-07
5.3734e-05 6.16135e-06 -2.9091e-07
-1.18158e-07 -2.9091e-07 -4.44523e-05
0.000797116 -5.95235e-06 2.6169e-07
-5.95235e-06 5.77971e-05 -1.30096e-06
2.6169e-07 -1.30096e-06 -1.96553e-05
0.000816283 3.76722e-05 -2.28352e-05
3.76722e-05 6.49891e-05 3.24841e-06
-2.28352e-05 3.24841e-06 7.1285e-05
0.00101923 5.33719e-05 -6.23675e-06
5.33719e-05 0.000171506 2.94579e-07
-6.23675e-06 2.94579e-07 0.0001593
0.000730213 5.98354e-05 -1.51669e-07
5.98354e-05 1.16005e-05 -1.94448e-06
-1.51669e-07 -1.94448e-06 -3.21049e-05
0.00070497 4.31768e-05 1.32255e-06
4.31768e-05 -1.19075e-05 -3.25523e-06
1.32255e-06 -3.25523e-06 -2.28897e-05
0.00210612 5.98422e-05 1.1875e-06
5.98422e-05 0.000771377 9.84149e-08
1.1875e-06 9.84149e-08 0.000785087
0.00210539 5.2553e-05 2.22228e-05
5.2553e-05 0.000763607 -3.39804e-06
2.22228e-05 -3.39804e-06 0.000779127
0.000763553 -1.87788e-05 2.75549e-07
-1.87788e-05 2.7272e-05 -1.0939e-06
2.75549e-07 -1.0939e-06 -4.94449e-05
0.000814751 1.53428e-05 -5.36083e-07
1.53428e-05 5.08013e-05 -1.39485e-06
-5.36083e-07 -1.39485e-06 -1.66658e-05
0.00082043 -1.84939e-05 1.03607e-07
-1.84939e-05 5.79786e-05 -4.21711e-08
1.03607e-07 -4.21711e-08 -1.56332e-05
0.000741788 -4.00248e-05 -7.92446e-07
-4.00248e-05 1.3628e-06 -1.94828e-06
-7.92446e-07 -1.94828e-06 -4.08086e-05
0.000817175 3.65984e-06 6.8197e-07
3.65984e-06 4.78453e-05 -7.61384e-08
6.8197e-07 -7.61384e-08 -1.53885e-05
0.000681235 -3.59306e-05 -7.11372e-07
-3.59306e-05 -3.39777e-05 -3.67065e-06
-7.11372e-07 -3.67065e-06 -4.57242e-05
0.000748858 -2.46524e-05 -1.63873e-07
-2.46524e-05 8.58839e-07 1.48725e-08
-1.63873e-07 1.48725e-08 -3.90912e-05
0.000829413 4.35007e-05 1.11652e-06
4.35007e-05 5.8826e-05 5.36148e-07
1.11652e-06 5.36148e-07 -6.72698e-06
0.00224383 -4.52859e-05 -2.05802e-05
-4.52859e-05 0.000831254 -3.94405e-06
-2.05802e-05 -3.94405e-06 0.000847486
0.000690064 -3.01728e-05 -2.84015e-07
-3.01728e-05 -3.51701e-05 4.62368e-09
-2.84015e-07 4.62368e-09 -4.47025e-05
0.000768375 -2.15318e-05 3.13688e-07
-2.15318e-05 1.01631e-05 1.57708e-06
3.13688e-07 1.57708e-06 -2.81707e-05
0.0021824 -3.62415e-05 -2.25468e-06
-3.62415e-05 0.000791136 8.85022e-08
-2.25468e-06 8.85022e-08 0.000809255
0.000695976 -2.41836e-05 3.34803e-07
-2.41836e-05 -3.76814e-05 3.43621e-06
3.34803e-07 3.43621e-06 -4.48455e-05
0.00212383 -2.65658e-05 1.15387e-05
-2.65658e-05 0.000753523 4.25396e-06
1.15387e-05 4.25396e-06 0.000773381
0.00191944 -4.47837e-05 4.59749e-05
-4.47837e-05 0.000356196 2.55877e-05
4.59749e-05 2.55877e-05 6.40523e-05
0.00123239 -2.35339e-05 6.13712e-07
-2.35339e-05 0.00011664 5.27801e-06
6.13712e-07 5.27801e-06 -2.73154e-05
0.000968524 -2.87567e-06 -2.73737e-06
-2.87567e-06 1.46197e-05 -4.1497e-06
-2.73737e-06 -4.1497e-06 -8.29132e-05
0.000901312 4.37742e-05 -8.91003e-07
4.37742e-05 0.000118884 -3.76187e-07
-8.91003e-07 -3.76187e-07 2.97176e-05
0.000877588 -5.45053e-06 1.5682e-07
-5.45053e-06 8.80449e-05 1.62725e-07
1.5682e-07 1.62725e-07 1.537e-05
0.000810579 -3.39505e-05 1.13765e-08
-3.39505e-05 5.52724e-05 4.64029e-07
1.13765e-08 4.64029e-07 -2.11052e-05
0.000856993 -3.07532e-05 1.01694e-07
-3.07532e-05 7.81833e-05 -1.35862e-07
1.01694e-07 -1.35862e-07 4.39252e-06
0.000871682 -3.21791e-06 1.93856e-07
-3.21791e-06 9.13045e-05 -4.14592e-07
1.93856e-07 -4.14592e-07 9.86124e-06
0.000869022 2.41798e-05 1.1548e-07
2.41798e-05 9.65186e-05 6.26248e-07
1.1548e-07 6.26248e-07 1.18956e-05
0.000891217 1.85424e-05 -1.12766e-07
1.85424e-05 0.0001092 -1.72537e-06
-1.12766e-07 -1.72537e-06 1.99839e-05
0.000662252 -2.5135e-05 4.46503e-07
-2.5135e-05 -1.79573e-05 -1.6057e-07
4.46503e-07 -1.6057e-07 -9.8655e-05
0.000828651 4.94405e-05 2.96473e-07
4.94405e-05 6.92157e-05 -4.9811e-07
2.96473e-07 -4.9811e-07 -9.21459e-06
0.000852008 -5.47853e-05 6.20697e-07
-5.47853e-05 7.04357e-05 -1.0359e-06
6.20697e-07 -1.0359e-06 -6.69664e-06
0.000872277 8.69064e-08 -1.60322e-07
8.69064e-08 9.81614e-05 1.4359e-07
-1.60322e-07 1.4359e-07 1.85836e-05
0.00139171 1.07097e-05 3.66355e-06
1.07097e-05 0.000398806 1.51487e-06
3.66355e-06 1.51487e-06 0.000319121
0.0013814 -0.000342615 5.37829e-05
-0.000342615 0.000791032 4.65183e-05
5.37829e-05 4.65183e-05 0.00086234
0.00203976 -2.25189e-05 2.7285e-06
-2.25189e-05 0.00037508 1.31236e-05
2.7285e-06 1.31236e-05 -0.000202234
0.00170735 1.35262e-05 -1.28262e-05
1.35262e-05 0.000160609 -2.61869e-05
-1.28262e-05 -2.61869e-05 -0.000350844
0.0042289 -0.000517116 -6.27332e-05
-0.000517116 2.76679e-05 -5.18068e-05
-6.27332e-05 -5.18068e-05 0.001252
0.00416526 -0.000228379 -1.43e-05
-0.000228379 0.000546228 -4.14693e-06
-1.43e-05 -4.14693e-06 0.000217385
0.00104457 -0.000298706 -9.63503e-05
-0.000298706 -0.000448987 6.11049e-05
-9.63503e-05 6.11049e-05 -0.0020512
0.00290418 -0.000229344 -4.44638e-05
-0.000229344 0.000315229 8.90777e-05
-4.44638e-05 8.90777e-05 -0.000109354
0.00399278 -0.000209391 -6.81785e-06
-0.000209391 0.000727098 3.18854e-05
-6.81785e-06 3.18854e-05 0.000598323
-0.000302152 -0.000654756 -1.96685e-07
-0.000654756 -0.00125088 1.03442e-05
-1.96685e-07 1.03442e-05 0.000161734
0.00494745 5.16821e-05 6.57123e-06
5.16821e-05 0.00186241 2.40911e-05
6.57123e-06 2.40911e-05 -0.000292548
0.0010338 -0.000428802 -2.99648e-06
-0.000428802 -0.00109923 1.05216e-05
-2.99648e-06 1.05216e-05 -0.000768568
0.00251295 0.000163347 -4.87814e-05
0.000163347 0.000111769 -2.06285e-05
-4.87814e-05 -2.06285e-05 -6.15034e-05
0.00939795 -0.000488737 -3.32145e-05
-0.000488737 0.00388428 3.69815e-05
-3.32145e-05 3.69815e-05 0.00208965
-0.000165259 -0.000496537 -3.90361e-05
-0.000496537 -0.000368718 -3.3396e-05
-3.90361e-05 -3.3396e-05 1.27144e-05
0.000609896 0.000138397 6.40842e-07
0.000138397 -2.56917e-05 -1.95717e-06
6.40842e-07 -1.95717e-06 -8.7668e-05
0.000956812 2.30448e-05 3.79897e-06
2.30448e-05 0.000163417 -6.44594e-08
3.79897e-06 -6.44594e-08 0.000102436
0.00093758 -2.27734e-05 -8.8421e-07
-2.27734e-05 0.000128542 -7.04629e-07
-8.8421e-07 -7.04629e-07 5.31011e-05
-0.00105984 -1.06943e-05 -3.71249e-05
-1.06943e-05 -0.000207149 -1.38915e-05
-3.71249e-05 -1.38915e-05 -0.000974916
-0.000914054 2.66516e-05 4.08386e-06
2.66516e-05 -0.000659805 -6.9698e-06
4.08386e-06 -6.9698e-06 -0.00072477
0.000798041 2.64006e-05 -4.43991e-07
2.64006e-05 7.38296e-05 -2.15819e-06
-4.43991e-07 -2.15819e-06 6.9297e-06
0.000796558 7.28013e-05 2.72016e-06
7.28013e-05 0.000188485 1.67506e-06
2.72016e-06 1.67506e-06 0.000106093
0.000631212 0.000142462 4.37714e-06
0.000142462 0.000187109 -1.99601e-05
4.37714e-06 -1.99601e-05 -0.000179143
0.000269879 0.000186776 1.73652e-05
0.000186776 -0.000207715 5.18698e-06
1.73652e-05 5.18698e-06 -0.000355399
0.000248698 -1.01324e-05 8.26557e-05
-1.01324e-05 0.000952712 3.68091e-07
8.26557e-05 3.68091e-07 0.000450432
0.00137783 -1.54884e-05 -4.67681e-06
-1.54884e-05 0.000102774 5.43074e-06
-4.67681e-06 5.43074e-06 -0.000163462
0.000786255 -4.09844e-06 -2.40029e-06
-4.09844e-06 -7.40393e-05 6.37465e-07
-2.40029e-06 6.37465e-07 -0.000143105
0.000547551 -3.71112e-05 -7.60933e-06
-3.71112e-05 0.000218077 5.33368e-06
-7.60933e-06 5.33368e-06 0.000138734
0.00112653 -0.000231857 5.89342e-06
-0.000231857 -0.000749651 -2.4803e-05
5.89342e-06 -2.4803e-05 -0.000762417
0.00150744 1.01718e-05 -5.83771e-05
1.01718e-05 0.000128744 1.49741e-05
-5.83771e-05 1.49741e-05 -0.000217763
-7.82944e-05 -0.000202681 2.07452e-05
-0.000202681 -0.000831783 -3.27451e-05
2.07452e-05 -3.27451e-05 -0.00265619
-0.00257552 0.00044648 -6.1959e-06
0.00044648 -0.00220789 -1.61093e-05
-6.1959e-06 -1.61093e-05 -0.00175223
0.0016525 0.000384283 -6.73669e-05
0.000384283 0.000989753 4.67151e-05
-6.73669e-05 4.67151e-05 0.00129534
0.00175117 -0.000141301 -5.52297e-06
-0.000141301 0.000203635 3.44613e-06
-5.52297e-06 3.44613e-06 0.000461835
0.00132098 0.000150771 1.2647e-06
0.000150771 0.00132003 5.01979e-06
1.2647e-06 5.01979e-06 0.00111707
-0.00420796 0.00022819 1.86182e-05
0.00022819 -0.00152129 5.18575e-07
1.86182e-05 5.18575e-07 -0.00184897
0.00418863 -0.000584987 -1.03817e-06
-0.000584987 0.00109277 4.15088e-06
-1.03817e-06 4.15088e-06 0.000178855
0.00784341 0.00029645 7.82e-06
0.00029645 0.00290343 -1.83009e-06
7.82e-06 -1.83009e-06 0.00130469
0.000342273 -0.000183898 -1.27233e-07
-0.000183898 -0.000418947 1.45174e-05
-1.27233e-07 1.45174e-05 -0.000345173
-0.00586971 0.00013707 -4.70009e-05
0.00013707 -0.00295951 1.09594e-06
-4.70009e-05 1.09594e-06 -0.0030352
0.00638222 0.000266884 7.12741e-07
0.000266884 0.00225135 4.36372e-06
7.12741e-07 4.36372e-06 0.000818353
0.00518447 -0.000478745 -7.72825e-07
-0.000478745 0.000843399 2.12953e-05
-7.72825e-07 2.12953e-05 -3.72963e-07
0.000228726 -0.000111357 -1.50134e-05
-0.000111357 -3.96169e-05 8.48217e-06
-1.50134e-05 8.48217e-06 -0.00021903
0.00118656 -0.000180983 -1.02242e-06
-0.000180983 3.24123e-05 4.76301e-07
-1.02242e-06 4.76301e-07 4.39786e-05
0.00205163 -0.000219061 1.03874e-05
-0.000219061 0.000209733 -1.49536e-06
1.03874e-05 -1.49536e-06 0.000257984
0.000142479 -0.00011193 -4.32098e-06
-0.00011193 -0.000245598 -1.5558e-06
-4.32098e-06 -1.5558e-06 -0.000468859
0.00123414 -0.000236956 -3.89545e-06
-0.000236956 -1.33342e-05 -1.46854e-06
-3.89545e-06 -1.46854e-06 -0.000174266
0.00193808 -0.000278601 6.11755e-07
-0.000278601 0.000167737 6.64279e-07
6.11755e-07 6.64279e-07 6.19821e-05
0.00154414 -0.000218947 -3.64886e-06
-0.000218947 0.000308946 -2.33274e-06
-3.64886e-06 -2.33274e-06 9.63509e-05
0.00153461 -0.000239731 2.70302e-06
-0.000239731 0.000110741 5.81599e-07
2.70302e-06 5.81599e-07 -4.20834e-05
0.00210589 -0.000230984 -6.68013e-07
-0.000230984 0.000274378 -3.48122e-06
-6.68013e-07 -3.48122e-06 0.000159227
0.00154435 -0.000213772 -3.1325e-06
-0.000213772 0.000213414 1.60753e-07
-3.1325e-06 1.60753e-07 1.87229e-05
0.001629 -0.000212482 -3.37313e-07
-0.000212482 0.000103572 7.91772e-07
-3.37313e-07 7.91772e-07 -3.96412e-05
0.00168246 -0.000174528 3.41688e-07
-0.000174528 8.18761e-05 -2.5835e-06
3.41688e-07 -2.5835e-06 -2.84234e-05
0.00160351 -0.00015451 -7.52777e-07
-0.00015451 8.04906e-05 -1.67834e-06
-7.52777e-07 -1.67834e-06 -3.38025e-05
0.00185174 -0.000196517 -8.96565e-07
-0.000196517 0.000306158 -1.93076e-06
-8.96565e-07 -1.93076e-06 0.0001538
0.0016723 -0.000185341 8.67507e-09
-0.000185341 0.000146422 9.91405e-07
8.67507e-09 9.91405e-07 1.17662e-05
0.000905616 -0.000152239 -2.64197e-06
-0.000152239 -6.07923e-05 1.29224e-06
-2.64197e-06 1.29224e-06 -0.000226917
0.00146933 -0.000190408 2.10121e-06
-0.000190408 0.00020206 -1.22149e-06
2.10121e-06 -1.22149e-06 2.43221e-05
0.00131471 -0.000189866 1.81189e-06
-0.000189866 4.82402e-05 1.77097e-06
1.81189e-06 1.77097e-06 -0.000116569
0.00106225 -0.000145511 -2.16172e-07
-0.000145511 0.000128485 1.41501e-06
-2.16172e-07 1.41501e-06 -1.17849e-05
0.00105275 -0.00015287 1.08199e-06
-0.00015287 9.87023e-05 -5.6542e-07
1.08199e-06 -5.6542e-07 -6.25614e-05
0.000746511 -0.000146851 3.30652e-07
-0.000146851 -9.00142e-05 -2.69887e-06
3.30652e-07 -2.69887e-06 -0.000282788
0.000944042 -0.00011465 -1.66769e-06
-0.00011465 0.000104327 2.34532e-07
-1.66769e-06 2.34532e-07 -9.02889e-06
0.00104901 -0.000136409 -1.24413e-07
-0.000136409 0.0001576 -6.05407e-07
-1.24413e-07 -6.05407e-07 2.72668e-05
0.000799599 -0.000125112 -4.76268e-07
-0.000125112 2.80252e-05 -2.89259e-06
-4.76268e-07 -2.89259e-06 -0.000106072
0.000778024 7.29832e-06 2.97039e-07
7.29832e-06 4.54214e-05 3.16005e-06
2.97039e-07 3.16005e-06 -3.21331e-05
0.000926724 -6.75252e-05 9.89641e-07
-6.75252e-05 0.000121074 4.50916e-07
9.89641e-07 4.50916e-07 1.41214e-05
0.00084027 -9.31078e-05 -2.38135e-08
-9.31078e-05 8.40515e-05 1.00856e-06
-2.38135e-08 1.00856e-06 -3.95974e-05
0.000580122 5.97818e-05 -9.22635e-07
5.97818e-05 -5.11339e-05 4.35051e-06
-9.22635e-07 4.35051e-06 -7.62738e-05
0.000715332 2.5722e-05 -6.93884e-07
2.5722e-05 1.23957e-05 -3.84965e-07
-6.93884e-07 -3.84965e-07 -5.0642e-05
0.000889281 -2.69524e-05 -7.78237e-08
-2.69524e-05 0.000115568 -1.68798e-06
-7.78237e-08 -1.68798e-06 1.90912e-05
0.00217923 8.26156e-05 -9.57808e-06
8.26156e-05 0.000830486 1.24381e-06
-9.57808e-06 1.24381e-06 0.000837546
0.000666233 5.42862e-05 -1.14255e-08
5.42862e-05 -1.27074e-05 -8.84459e-08
-1.14255e-08 -8.84459e-08 -3.15855e-05
0.000703346 4.09393e-05 1.10812e-06
4.09393e-05 1.97775e-06 -2.25908e-06
1.10812e-06 -2.25908e-06 -4.81337e-05
0.00212825 6.68774e-05 1.23747e-06
6.68774e-05 0.000791969 9.6703e-08
1.23747e-06 9.6703e-08 0.000803606
0.000708786 4.96721e-05 1.29016e-06
4.96721e-05 -2.6164e-07 -3.44728e-06
1.29016e-06 -3.44728e-06 -1.44819e-05
0.00212703 6.0398e-05 2.55434e-05
6.0398e-05 0.000784026 -3.1595e-06
2.55434e-05 -3.1595e-06 0.000797479
0.000903294 3.39276e-05 -3.07341e-07
3.39276e-05 0.000110964 -1.6371e-07
-3.07341e-07 -1.6371e-07 2.76902e-05
0.000798385 -1.03714e-05 6.54969e-08
-1.03714e-05 4.68572e-05 -2.68618e-07
6.54969e-08 -2.68618e-07 -3.08988e-05
0.000802506 2.49128e-06 -3.06055e-07
2.49128e-06 4.88284e-05 -1.63307e-06
-3.06055e-07 -1.63307e-06 -2.39775e-05
0.000729578 -4.45895e-05 -6.86236e-07
-4.45895e-05 6.56743e-07 -2.25823e-06
-6.86236e-07 -2.25823e-06 -4.35872e-05
0.000784922 -1.12023e-05 8.36844e-07
-1.12023e-05 3.48785e-05 -8.08406e-08
8.36844e-07 -8.08406e-08 -3.21896e-05
0.000764291 -7.17884e-06 4.36936e-07
-7.17884e-06 3.10874e-05 7.21038e-07
4.36936e-07 7.21038e-07 -4.53845e-05
0.000680393 -4.07914e-05 -1.2368e-06
-4.07914e-05 -2.79788e-05 -3.79465e-06
-1.2368e-06 -3.79465e-06 -4.15819e-05
0.000742069 -3.24708e-05 -1.99331e-07
-3.24708e-05 7.6152e-07 1.87659e-08
-1.99331e-07 1.87659e-08 -4.08207e-05
0.000786125 -7.12926e-06 1.16639e-06
-7.12926e-06 3.10192e-05 8.50098e-07
1.16639e-06 8.50098e-07 -3.19065e-05
0.00227535 -5.33583e-05 -2.45163e-05
-5.33583e-05 0.000854963 -3.73612e-06
-2.45163e-05 -3.73612e-06 0.0008695
0.000676206 -3.51339e-05 -2.21328e-07
-3.51339e-05 -3.66916e-05 2.60337e-08
-2.21328e-07 2.60337e-08 -4.837e-05
0.000755406 -2.3051e-05 8.56954e-07
-2.3051e-05 4.73573e-06 1.67982e-06
8.56954e-07 1.67982e-06 -3.51889e-05
0.00223227 -4.49267e-05 -2.37195e-06
-4.49267e-05 0.000824282 1.12485e-07
-2.37195e-06 1.12485e-07 0.000840676
0.000682885 -2.96137e-05 3.35623e-07
-2.96137e-05 -3.90458e-05 3.53665e-06
3.35623e-07 3.53665e-06 -4.85156e-05
0.00216741 -3.55669e-05 1.51924e-05
-3.55669e-05 0.000782203 4.14457e-06
1.51924e-05 4.14457e-06 0.000800556
-0.00229601 -0.000119758 3.59425e-05
-0.000119758 -0.000441473 1.8321e-05
3.59425e-05 1.8321e-05 -0.00104257
0.00187276 -5.21281e-05 2.14193e-06
-5.21281e-05 0.000350052 7.08622e-06
2.14193e-06 7.08622e-06 6.00888e-05
0.00123647 -1.9854e-05 -8.7136e-06
-1.9854e-05 0.000100049 -6.10785e-06
-8.7136e-06 -6.10785e-06 -3.63569e-05
0.000847395 9.59659e-06 -9.1636e-07
9.59659e-06 8.61942e-05 6.91999e-07
-9.1636e-07 6.91999e-07 -1.96546e-07
0.00107683 0.000118661 2.00237e-07
0.000118661 0.000225004 8.10261e-07
2.00237e-07 8.10261e-07 0.00011984
0.000862957 2.72374e-05 -3.83121e-07
2.72374e-05 0.000103153 7.63059e-08
-3.83121e-07 7.63059e-08 9.32063e-06
0.000958437 -3.94338e-05 2.86579e-07
-3.94338e-05 0.000133475 -3.59263e-07
2.86579e-07 -3.59263e-07 5.95622e-05
0.000925735 2.79415e-05 6.21945e-07
2.79415e-05 0.000118084 4.62445e-07
6.21945e-07 4.62445e-07 3.82223e-05
0.000715482 -2.08735e-05 -7.93269e-07
-2.08735e-05 7.70692e-06 1.60659e-06
-7.93269e-07 1.60659e-06 -7.27212e-05
0.000740455 2.89766e-06 -7.15568e-07
2.89766e-06 2.86127e-05 -7.31876e-09
-7.15568e-07 -7.31876e-09 -5.64923e-05
0.00080065 6.50521e-06 2.11854e-07
6.50521e-06 5.9184e-05 -1.47628e-07
2.11854e-07 -1.47628e-07 -2.89803e-05
0.000996595 5.34836e-05 1.45491e-06
5.34836e-05 0.000188232 -1.8631e-06
1.45491e-06 -1.8631e-06 8.48232e-05
0.000867158 6.84427e-05 4.23197e-06
6.84427e-05 7.87433e-05 -3.99299e-06
4.23197e-06 -3.99299e-06 -4.9201e-06
0.000849538 2.97357e-05 -2.5116e-07
2.97357e-05 8.73532e-05 -9.20228e-07
-2.5116e-07 -9.20228e-07 5.73481e-06
0.000992525 3.68572e-05 7.34704e-07
3.68572e-05 0.000183517 8.18845e-07
7.34704e-07 8.18845e-07 0.000103497
-0.00256258 -0.000353629 -4.21658e-05
-0.000353629 -0.0011092 1.70997e-05
-4.21658e-05 1.70997e-05 -0.0012277
-0.00058722 -0.000329437 3.10432e-05
-0.000329437 -5.2817e-05 1.13158e-05
3.10432e-05 1.13158e-05 -0.000147714
0.00224544 -3.02465e-05 -4.97965e-05
-3.02465e-05 0.000513204 -3.89858e-05
-4.97965e-05 -3.89858e-05 -8.26031e-05
-0.00361963 -0.000668471 3.44333e-05
-0.000668471 -0.00279471 5.48586e-05
3.44333e-05 5.48586e-05 -0.00124201
0.00546277 -0.000671375 -1.05619e-05
-0.000671375 0.0015574 -1.17127e-05
-1.05619e-05 -1.17127e-05 0.00166483
0.00316029 0.00034258 5.23723e-05
0.00034258 0.000840963 -5.45293e-06
5.23723e-05 -5.45293e-06 -0.00128116
0.00296862 -0.000253013 -0.000133922
-0.000253013 0.000342786 8.11282e-05
-0.000133922 8.11282e-05 -0.000217788
0.00326795 0.000130717 -2.83696e-05
0.000130717 0.000441376 4.83009e-06
-2.83696e-05 4.83009e-06 0.000160243
0.00435946 -0.000756325 -1.71082e-05
-0.000756325 0.0018144 2.18551e-05
-1.71082e-05 2.18551e-05 0.00197937
0.00169663 9.47758e-05 9.50989e-06
9.47758e-05 0.000243905 1.60116e-05
9.50989e-06 1.60116e-05 -0.00163655
0.00237791 0.000373381 -0.000107612
0.000373381 0.000527374 -8.05859e-05
-0.000107612 -8.05859e-05 -0.00022642
0.00207223 0.000412217 -0.000144325
0.000412217 0.000330156 -5.32042e-05
-0.000144325 -5.32042e-05 -0.00147545
0.00224271 0.000326735 1.22014e-05
0.000326735 0.000622725 -1.17117e-05
1.22014e-05 -1.17117e-05 0.000482088
0.000777643 0.000132927 -2.51019e-06
0.000132927 5.74954e-05 4.15776e-07
-2.51019e-06 4.15776e-07 -2.21141e-06
0.00111672 2.27133e-05 -1.32844e-06
2.27133e-05 0.000243366 -2.70714e-06
-1.32844e-06 -2.70714e-06 0.000183552
0.000238854 0.000128883 -3.28419e-05
0.000128883 -2.41712e-05 -1.44869e-05
-3.28419e-05 -1.44869e-05 -0.000296544
0.00158028 0.00012018 -6.12565e-06
0.00012018 0.00057003 -6.30121e-06
-6.12565e-06 -6.30121e-06 0.000482251
0.00121514 0.000248972 9.38707e-06
0.000248972 0.000195813 -7.29696e-07
9.38707e-06 -7.29696e-07 6.04794e-05
0.00172834 0.000349779 5.62994e-05
0.000349779 -9.32483e-06 3.07906e-05
5.62994e-05 3.07906e-05 -4.97629e-05
-0.0035313 -4.60537e-05 -9.26447e-05
-4.60537e-05 -0.00171857 -4.85646e-06
-9.26447e-05 -4.85646e-06 -0.00149103
-0.000600107 -1.21931e-05 2.76375e-05
-1.21931e-05 0.000609402 5.6695e-07
2.76375e-05 5.6695e-07 7.49763e-05
0.00149637 -2.3231e-05 -4.12225e-05
-2.3231e-05 0.000219156 4.20915e-06
-4.12225e-05 4.20915e-06 1.34066e-05
0.00165977 -0.000176165 -3.6502e-05
-0.000176165 0.000146522 -1.86158e-05
-3.6502e-05 -1.86158e-05 0.000397375
0.00352739 -0.000611095 -6.67589e-05
-0.000611095 0.000540336 -1.70209e-06
-6.67589e-05 -1.70209e-06 -0.000161053
0.00128387 0.000118173 -4.03295e-05
0.000118173 0.00137197 1.80677e-05
-4.03295e-05 1.80677e-05 0.00113117
-0.0013898 -6.07509e-05 5.281e-05
-6.07509e-05 -0.0010287 -5.5303e-05
5.281e-05 -5.5303e-05 -0.00302139
0.0100922 0.000532332 -7.73199e-05
0.000532332 0.00500549 1.05178e-05
-7.73199e-05 1.05178e-05 0.00497567
0.00168123 -0.000301375 4.81744e-06
-0.000301375 0.000175274 1.49721e-06
4.81744e-06 1.49721e-06 0.000156658
-0.000739353 0.000264439 -1.85853e-06
0.000264439 -0.000229836 -4.5558e-06
-1.85853e-06 -4.5558e-06 -0.000359779
0.00230486 0.000149019 -1.55589e-05
0.000149019 0.000236238 1.88274e-05
-1.55589e-05 1.88274e-05 -0.00146677
0.00516522 -0.000497569 -2.42854e-05
-0.000497569 0.00128844 8.85706e-06
-2.42854e-05 8.85706e-06 0.00049156
-0.000550372 -0.000131927 4.41675e-06
-0.000131927 -0.000770114 -3.34551e-06
4.41675e-06 -3.34551e-06 -0.000965503
0.00808374 -7.74293e-05 5.9434e-05
-7.74293e-05 0.00258685 -3.66987e-06
5.9434e-05 -3.66987e-06 0.00166836
0.0042156 -0.000113003 1.13626e-05
-0.000113003 0.000906399 -1.16891e-05
1.13626e-05 -1.16891e-05 0.000392849
-0.000237574 -0.000110838 -1.47827e-05
-0.000110838 -0.000696106 3.23923e-06
-1.47827e-05 3.23923e-06 -0.000642528
0.00109872 -0.000189472 -1.06761e-06
-0.000189472 -0.000280355 -7.19282e-07
-1.06761e-06 -7.19282e-07 -0.000224788
0.00207838 -0.000253094 6.29931e-06
-0.000253094 6.43618e-05 -1.05884e-05
6.29931e-06 -1.05884e-05 0.000115299
0.00159923 -0.000255111 -6.87583e-06
-0.000255111 0.000176012 -3.27236e-06
-6.87583e-06 -3.27236e-06 1.64578e-05
0.00164154 -0.000262848 -2.41079e-08
-0.000262848 1.06057e-05 1.23835e-06
-2.41079e-08 1.23835e-06 -8.76994e-05
0.00205821 -0.000240657 -4.35687e-06
-0.000240657 0.000140514 -4.45436e-07
-4.35687e-06 -4.45436e-07 7.77818e-05
0.00121287 -0.000220668 4.09709e-07
-0.000220668 -4.5567e-05 2.31234e-06
4.09709e-07 2.31234e-06 -0.000200335
0.00169663 -0.000214277 -2.37243e-06
-0.000214277 5.5263e-05 -7.8923e-07
-2.37243e-06 -7.8923e-07 -5.90659e-05
0.00189339 -0.000178518 -1.3943e-06
-0.000178518 0.000104397 -1.92353e-06
-1.3943e-06 -1.92353e-06 1.65288e-05
0.00174895 -0.000216112 2.04053e-06
-0.000216112 0.00016869 2.78191e-06
2.04053e-06 2.78191e-06 2.49716e-05
0.00168806 -0.000173402 2.51269e-07
-0.000173402 8.58677e-05 -2.77276e-08
2.51269e-07 -2.77276e-08 -2.39657e-05
0.00170419 -0.000143343 3.9978e-07
-0.000143343 8.46101e-05 -1.45166e-06
3.9978e-07 -1.45166e-06 -1.10175e-05
0.00171452 -0.00013736 1.17404e-07
-0.00013736 0.000137506 -5.29598e-07
1.17404e-07 -5.29598e-07 3.3098e-05
0.00160705 -0.000152002 -1.40935e-06
-0.000152002 8.11965e-05 1.20697e-06
-1.40935e-06 1.20697e-06 -3.09722e-05
0.00165905 -0.000160114 -1.11451e-07
-0.000160114 0.00015683 -2.49709e-06
-1.11451e-07 -2.49709e-06 3.34997e-05
0.00159141 -0.000179213 -2.97878e-06
-0.000179213 0.00021807 -1.23552e-06
-2.97878e-06 -1.23552e-06 6.61883e-05
0.00179784 -0.000192867 1.23814e-06
-0.000192867 0.000277245 1.02971e-07
1.23814e-06 1.02971e-07 0.00012526
0.00163603 -0.000181144 3.70316e-07
-0.000181144 0.000130162 4.30611e-06
3.70316e-07 4.30611e-06 -4.24667e-06
0.000832742 -0.000139577 -3.4852e-06
-0.000139577 -6.53046e-05 2.93222e-06
-3.4852e-06 2.93222e-06 -0.000215285
0.00122806 -0.000167809 4.7652e-07
-0.000167809 0.000115321 -1.99175e-07
4.7652e-07 -1.99175e-07 -4.99453e-05
0.00141362 -0.000184508 3.45638e-06
-0.000184508 0.000172872 -9.78098e-07
3.45638e-06 -9.78098e-07 -1.27781e-06
0.000954662 -0.000124177 -1.52885e-06
-0.000124177 8.34612e-05 7.53455e-07
-1.52885e-06 7.53455e-07 -3.75034e-05
0.00110851 -0.00014718 1.97731e-07
-0.00014718 0.000150869 -2.61751e-07
1.97731e-07 -2.61751e-07 1.04623e-05
0.000710263 -0.000131632 8.27376e-07
-0.000131632 -8.02523e-05 -4.30487e-06
8.27376e-07 -4.30487e-06 -0.000239458
0.000775227 -4.88696e-05 -2.74295e-06
-4.88696e-05 3.12208e-05 2.57025e-06
-2.74295e-06 2.57025e-06 -5.57829e-05
0.00102415 -0.00012051 8.04196e-08
-0.00012051 0.000146414 -1.08318e-07
8.04196e-08 -1.08318e-07 3.25051e-05
0.00113655 -0.000141271 6.87531e-07
-0.000141271 0.000202227 -7.65295e-07
6.87531e-07 -7.65295e-07 7.14699e-05
0.000540109 6.72304e-05 8.49206e-07
6.72304e-05 -6.70917e-05 5.58854e-06
8.49206e-07 5.58854e-06 -0.000101835
0.000761658 -9.34944e-06 9.65188e-08
-9.34944e-06 3.79386e-05 9.82056e-08
9.65188e-08 9.82056e-08 -4.20792e-05
0.00101692 -7.44346e-05 1.41196e-06
-7.44346e-05 0.000169543 -3.75673e-07
1.41196e-06 -3.75673e-07 6.1404e-05
0.00240026 8.56767e-05 -3.56166e-05
8.56767e-05 0.000956806 2.6099e-06
-3.56166e-05 2.6099e-06 0.000962475
0.000627493 6.52964e-05 -1.24181e-07
6.52964e-05 -2.33848e-05 -2.10418e-07
-1.24181e-07 -2.10418e-07 -5.00387e-05
0.000714119 -9.6608e-06 2.20869e-06
-9.6608e-06 9.16715e-06 -3.01801e-06
2.20869e-06 -3.01801e-06 -5.33544e-05
0.00157536 6.42961e-05 1.41677e-05
6.42961e-05 0.000494672 -5.49323e-07
1.41677e-05 -5.49323e-07 0.000499754
0.000700449 5.79705e-05 4.21659e-07
5.79705e-05 6.43895e-06 -4.05508e-06
4.21659e-07 -4.05508e-06 -1.31028e-05
0.0021926 6.82122e-05 2.99489e-05
6.82122e-05 0.00082878 -2.91696e-06
2.99489e-05 -2.91696e-06 0.000839858
0.000895702 5.1432e-05 5.29517e-07
5.1432e-05 0.000107672 4.22523e-07
5.29517e-07 4.22523e-07 1.61935e-05
0.000857302 -1.41853e-06 -2.72881e-07
-1.41853e-06 8.21092e-05 4.89822e-07
-2.72881e-07 4.89822e-07 2.08333e-06
0.000805713 -3.08526e-05 2.48112e-07
-3.08526e-05 5.51269e-05 -1.50751e-06
2.48112e-07 -1.50751e-06 -2.16743e-05
0.000869624 8.45101e-06 9.3917e-08
8.45101e-06 8.59172e-05 5.50606e-07
9.3917e-08 5.50606e-07 7.10868e-06
0.000790594 -2.93282e-05 4.19945e-07
-2.93282e-05 3.90098e-05 -8.27762e-08
4.19945e-07 -8.27762e-08 -3.10353e-05
0.000700364 -4.47038e-05 -6.56323e-07
-4.47038e-05 -8.97264e-06 -2.4839e-06
-6.56323e-07 -2.4839e-06 -5.65249e-05
0.000682949 -4.59867e-05 -1.60886e-06
-4.59867e-05 -1.93284e-05 -3.92431e-06
-1.60886e-06 -3.92431e-06 -3.4878e-05
0.00072931 -4.07767e-05 9.27047e-08
-4.07767e-05 4.5751e-08 -3.46061e-08
9.27047e-08 -3.46061e-08 -4.38237e-05
0.000775152 -5.17532e-05 -2.5577e-07
-5.17532e-05 2.61673e-05 1.28536e-06
-2.5577e-07 1.28536e-06 -3.7865e-05
0.00228072 -6.07994e-05 -2.83124e-05
-6.07994e-05 0.000864898 -3.46188e-06
-2.83124e-05 -3.46188e-06 0.000877827
0.000667885 -3.97816e-05 -2.42258e-07
-3.97816e-05 -3.48326e-05 3.98784e-08
-2.42258e-07 3.98784e-08 -4.83327e-05
0.000743851 -2.41556e-05 1.59355e-06
-2.41556e-05 1.12096e-06 1.88536e-06
1.59355e-06 1.88536e-06 -3.99538e-05
0.0022704 -5.31143e-05 -2.00856e-06
-5.31143e-05 0.000851573 1.28846e-07
-2.00856e-06 1.28846e-07 0.000866214
0.000671268 -3.4426e-05 6.47714e-07
-3.4426e-05 -3.92716e-05 3.70097e-06
6.47714e-07 3.70097e-06 -5.09068e-05
0.00221257 -4.44138e-05 1.86575e-05
-4.44138e-05 0.000812775 3.99588e-06
1.86575e-05 3.99588e-06 0.000829382
0.000807227 0.000144584 5.98755e-05
0.000144584 0.000829464 3.45672e-05
5.98755e-05 3.45672e-05 0.000314497
-0.000434021 -0.000160555 1.94647e-06
-0.000160555 0.000380086 6.32099e-06
1.94647e-06 6.32099e-06 -9.97885e-05
0.0018268 -5.82204e-05 -4.44205e-05
-5.82204e-05 0.000354619 -1.19187e-05
-4.44205e-05 -1.19187e-05 6.6948e-05
0.000811603 -2.29393e-05 -6.57687e-08
-2.29393e-05 6.50747e-05 7.08418e-07
-6.57687e-08 7.08418e-07 -1.96684e-05
0.000833839 9.23811e-07 -8.27541e-08
9.23811e-07 8.40744e-05 7.06303e-07
-8.27541e-08 7.06303e-07 -8.81537e-06
0.000932566 0.000104484 -1.18986e-07
0.000104484 0.000150551 2.76287e-07
-1.18986e-07 2.76287e-07 4.71567e-05
0.001119 0.000138879 1.09956e-06
0.000138879 0.000235013 2.26485e-07
1.09956e-06 2.26485e-07 0.000117711
0.000916251 8.46149e-05 -1.25697e-06
8.46149e-05 0.000149394 -5.69813e-07
-1.25697e-06 -5.69813e-07 4.01173e-05
0.000808333 3.4632e-05 4.36514e-07
3.4632e-05 6.47231e-05 1.16892e-06
4.36514e-07 1.16892e-06 -2.11108e-05
0.000741011 1.22791e-05 1.63663e-07
1.22791e-05 2.61212e-05 1.20667e-06
1.63663e-07 1.20667e-06 -6.16734e-05
0.00071481 5.57857e-05 -1.07058e-06
5.57857e-05 3.41926e-05 -1.09348e-06
-1.07058e-06 -1.09348e-06 -6.60845e-05
0.000150558 7.55182e-05 -8.95378e-08
7.55182e-05 -0.000261805 3.57223e-07
-8.95378e-08 3.57223e-07 -0.00037748
0.000922522 0.000118066 1.18567e-06
0.000118066 0.000101254 -3.85151e-06
1.18567e-06 -3.85151e-06 -1.17843e-06
0.0018791 0.000249939 6.26578e-06
0.000249939 0.000401942 -9.64742e-06
6.26578e-06 -9.64742e-06 0.000266107
0.000783808 6.75985e-05 -1.44175e-06
6.75985e-05 5.33446e-05 -3.40043e-07
-1.44175e-06 -3.40043e-07 -3.02388e-05
0.000736092 5.50372e-06 -5.94e-07
5.50372e-06 3.50514e-05 -8.92755e-07
-5.94e-07 -8.92755e-07 -3.99976e-05
0.00982417 -1.55942e-05 -4.397e-05
-1.55942e-05 0.00320016 -4.44186e-06
-4.397e-05 -4.44186e-06 0.00194541
-0.00195681 -0.000276252 -4.78461e-05
-0.000276252 -0.000525638 -7.59904e-06
-4.78461e-05 -7.59904e-06 -0.000915243
0.000891442 -0.000358801 -2.60063e-05
-0.000358801 0.000589653 -2.62195e-05
-2.60063e-05 -2.62195e-05 0.000459687
-0.00301927 -0.000363463 3.93675e-06
-0.000363463 -0.00161759 2.17672e-05
3.93675e-06 2.17672e-05 -0.00141728
0.00944827 -0.000361496 8.24326e-05
-0.000361496 0.00401536 3.78457e-06
8.24326e-05 3.78457e-06 0.00170393
0.00310608 0.000161438 -9.18245e-06
0.000161438 0.000485221 1.31328e-05
-9.18245e-06 1.31328e-05 0.000363153
0.00140212 0.000340326 -4.47687e-05
0.000340326 -0.000113543 -2.07532e-05
-4.47687e-05 -2.07532e-05 -0.000720486
0.00712118 -0.00027675 5.36684e-05
-0.00027675 0.00239223 1.72728e-05
5.36684e-05 1.72728e-05 0.000922678
0.00344154 0.000420252 6.03389e-06
0.000420252 0.00034734 -3.10775e-05
6.03389e-06 -3.10775e-05 -0.000205225
0.0020661 0.000374278 7.72959e-06
0.000374278 0.000316786 1.3264e-05
7.72959e-06 1.3264e-05 0.000156798
0.000881553 0.000224351 2.42497e-06
0.000224351 3.91995e-06 -5.2239e-06
2.42497e-06 -5.2239e-06 -0.000144084
0.00093264 0.000123796 -8.8235e-06
0.000123796 0.000137897 4.73737e-06
-8.8235e-06 4.73737e-06 8.17511e-05
0.00131148 0.000268217 -3.15935e-05
0.000268217 0.000180719 -1.51068e-05
-3.15935e-05 -1.51068e-05 5.8992e-05
0.00104567 0.000323508 -1.70039e-05
0.000323508 -0.000309756 1.46339e-05
-1.70039e-05 1.46339e-05 -0.000372975
0.000517031 -0.000121187 -1.02191e-05
-0.000121187 -0.00152449 -1.38572e-06
-1.02191e-05 -1.38572e-06 -0.00192279
0.00189786 -5.97194e-05 -3.46698e-06
-5.97194e-05 0.00111922 -3.87416e-06
-3.46698e-06 -3.87416e-06 0.00103575
-0.00150873 -2.00713e-05 3.8496e-06
-2.00713e-05 0.000258337 -1.25271e-07
3.8496e-06 -1.25271e-07 -0.000338703
0.0027645 -0.00038774 -5.28135e-05
-0.00038774 0.000643116 3.92113e-06
-5.28135e-05 3.92113e-06 0.000573154
0.00362666 -0.000456434 -1.82622e-05
-0.000456434 0.000650683 -1.5952e-05
-1.82622e-05 -1.5952e-05 -0.000459625
0.000278988 -9.2429e-05 -7.22238e-06
-9.2429e-05 0.000436375 1.53359e-05
-7.22238e-06 1.53359e-05 0.000151373
0.00980652 0.000333773 -4.34684e-05
0.000333773 0.00402204 2.90743e-05
-4.34684e-05 2.90743e-05 0.0024816
0.00058825 -0.000182711 -2.16179e-06
-0.000182711 -0.000255081 -6.3377e-07
-2.16179e-06 -6.3377e-07 -0.000388773
0.00612187 0.00013963 1.78358e-05
0.00013963 0.00156095 1.59949e-05
1.78358e-05 1.59949e-05 0.000739912
0.00353301 -0.000193936 4.12451e-05
-0.000193936 0.000291108 -1.38902e-06
4.12451e-05 -1.38902e-06 -0.000462918
0.00306234 -0.000222288 -3.39934e-06
-0.000222288 0.00103174 2.58482e-06
-3.39934e-06 2.58482e-06 0.000795465
0.00324203 -5.81514e-05 -8.85997e-05
-5.81514e-05 0.000687999 -7.65801e-06
-8.85997e-05 -7.65801e-06 0.000392098
0.000263903 -0.000162522 -9.72345e-06
-0.000162522 -0.000722771 3.16874e-06
-9.72345e-06 3.16874e-06 -0.000652772
0.00153614 -0.000243021 -2.61189e-08
-0.000243021 -0.000192132 6.11287e-07
-2.61189e-08 6.11287e-07 -0.000164648
0.00194122 -0.000170224 2.27133e-08
-0.000170224 -1.96963e-05 -6.99773e-07
2.27133e-08 -6.99773e-07 -1.41439e-05
0.00134126 -0.00024753 3.19798e-06
-0.00024753 -0.000143815 1.309e-06
3.19798e-06 1.309e-06 -0.000236934
0.00176872 -0.000219592 -5.31349e-07
-0.000219592 1.48899e-05 -4.24915e-07
-5.31349e-07 -4.24915e-07 -4.71421e-05
0.0018347 -0.000146553 -2.59601e-06
-0.000146553 -1.41375e-05 5.3322e-07
-2.59601e-06 5.3322e-07 -5.61789e-05
0.00134619 -0.000200086 -3.32221e-06
-0.000200086 -0.000133264 2.48965e-06
-3.32221e-06 2.48965e-06 -0.000247021
0.00178934 -0.00017361 2.77747e-07
-0.00017361 4.71079e-05 1.23342e-06
2.77747e-07 1.23342e-06 -4.01966e-05
0.0017992 -0.0001398 1.99812e-06
-0.0001398 8.33013e-05 5.66098e-08
1.99812e-06 5.66098e-08 4.92291e-06
0.00168113 -0.000171752 8.65341e-07
-0.000171752 8.37838e-05 2.93535e-06
8.65341e-07 2.93535e-06 -2.56535e-05
0.00171071 -0.000145031 -3.24973e-07
-0.000145031 8.94916e-05 6.8394e-07
-3.24973e-07 6.8394e-07 -6.94491e-06
0.00176078 -0.000127232 1.65632e-06
-0.000127232 0.000134019 -2.17674e-07
1.65632e-06 -2.17674e-07 3.91576e-05
0.00163271 -0.000135161 -2.3814e-06
-0.000135161 9.21558e-05 1.08573e-06
-2.3814e-06 1.08573e-06 -1.11353e-05
0.00169367 -0.000138166 2.06127e-06
-0.000138166 0.000152247 -9.58803e-07
2.06127e-06 -9.58803e-07 4.08116e-05
0.00161844 -0.000150137 -1.43932e-07
-0.000150137 8.59864e-05 2.73028e-06
-1.43932e-07 2.73028e-06 -2.41967e-05
0.00166261 -0.000159786 2.65039e-07
-0.000159786 0.000155545 -3.16083e-08
2.65039e-07 -3.16083e-08 3.27312e-05
0.00165262 -0.000159996 -2.54275e-07
-0.000159996 0.000196611 -1.63812e-06
-2.54275e-07 -1.63812e-06 6.51441e-05
0.00109455 -0.000149323 -4.15475e-06
-0.000149323 -5.9834e-06 9.73407e-07
-4.15475e-06 9.73407e-07 -0.000151775
0.00155492 -0.000176384 2.40529e-07
-0.000176384 0.000199238 -5.25632e-07
2.40529e-07 -5.25632e-07 4.68318e-05
0.00174577 -0.000189354 2.59806e-06
-0.000189354 0.000249706 2.5116e-06
2.59806e-06 2.5116e-06 9.80264e-05
0.00106631 -0.000137967 -2.72441e-06
-0.000137967 9.95113e-05 1.95021e-06
-2.72441e-06 1.95021e-06 -3.0557e-05
0.000943693 -0.000144287 -1.08644e-06
-0.000144287 -1.78055e-06 1.18808e-06
-1.08644e-06 1.18808e-06 -0.000150822
0.00152375 -0.000181709 3.41217e-06
-0.000181709 0.000277497 -1.89102e-06
3.41217e-06 -1.89102e-06 0.000113216
0.000736044 -6.87001e-05 -3.25736e-06
-6.87001e-05 -9.5225e-06 2.08516e-06
-3.25736e-06 2.08516e-06 -0.000101308
0.00105323 -0.00013085 1.48596e-07
-0.00013085 0.000134785 -3.28914e-07
1.48596e-07 -3.28914e-07 1.3007e-05
0.00116499 -0.000149581 1.3906e-06
-0.000149581 0.000178873 -2.15897e-06
1.3906e-06 -2.15897e-06 3.82263e-05
0.000545211 3.23404e-05 -2.37387e-06
3.23404e-05 -7.47573e-05 6.27496e-06
-2.37387e-06 6.27496e-06 -0.000113402
0.000818274 -5.32552e-05 2.0634e-07
-5.32552e-05 5.38317e-05 2.89996e-07
2.0634e-07 2.89996e-07 -3.37285e-05
0.0010856 -0.00011827 1.70848e-06
-0.00011827 0.000177524 -3.94027e-07
1.70848e-06 -3.94027e-07 6.42228e-05
0.00270445 9.82904e-05 -4.27709e-05
9.82904e-05 0.00112721 2.55049e-06
-4.27709e-05 2.55049e-06 0.00112922
0.000597853 5.15608e-05 7.58664e-07
5.15608e-05 -3.98572e-05 -2.07794e-07
7.58664e-07 -2.07794e-07 -7.24755e-05
0.0007658 -4.32832e-05 2.44171e-06
-4.32832e-05 3.58571e-05 -2.70828e-06
2.44171e-06 -2.70828e-06 -4.29815e-05
0.00249083 8.63697e-05 1.40572e-06
8.63697e-05 0.00100583 1.39972e-07
1.40572e-06 1.39972e-07 0.00101122
0.000671785 6.13062e-05 -2.29707e-07
6.13062e-05 -9.5249e-08 -4.95135e-06
-2.29707e-07 -4.95135e-06 -2.64222e-05
0.00234499 7.68414e-05 3.62128e-05
7.68414e-05 0.000920077 -2.75777e-06
3.62128e-05 -2.75777e-06 0.000928382
0.000998167 0.00012363 7.00869e-07
0.00012363 0.000156589 -3.16432e-07
7.00869e-07 -3.16432e-07 4.62079e-05
0.000842351 8.26013e-05 3.551e-07
8.26013e-05 8.30281e-05 6.89441e-08
3.551e-07 6.89441e-08 -1.15273e-05
0.000742677 -2.32625e-05 -3.69967e-07
-2.32625e-05 2.45802e-05 -9.55211e-07
-3.69967e-07 -9.55211e-07 -6.25241e-05
0.000793673 -3.19555e-05 -4.57783e-07
-3.19555e-05 4.71103e-05 9.23736e-07
-4.57783e-07 9.23736e-07 -3.22499e-05
0.000768465 -4.38676e-05 2.18731e-07
-4.38676e-05 3.37311e-05 5.31468e-08
2.18731e-07 5.31468e-08 -4.27962e-05
0.00067806 -4.36023e-05 -7.19608e-07
-4.36023e-05 -1.58068e-05 -2.68234e-06
-7.19608e-07 -2.68234e-06 -7.01414e-05
0.000763068 -5.07939e-05 -2.61094e-07
-5.07939e-05 2.31222e-05 1.57533e-06
-2.61094e-07 1.57533e-06 -4.58083e-05
0.000710709 -4.93334e-05 3.15041e-07
-4.93334e-05 -2.91436e-06 -1.56744e-07
3.15041e-07 -1.56744e-07 -5.08499e-05
0.000678622 -5.4296e-05 -1.24854e-06
-5.4296e-05 -1.22034e-05 -4.16602e-06
-1.24854e-06 -4.16602e-06 -3.09324e-05
0.00228432 -6.81609e-05 -3.16388e-05
-6.81609e-05 0.000874614 -3.15486e-06
-3.16388e-05 -3.15486e-06 0.000885742
0.000666551 -4.46762e-05 -4.68747e-08
-4.46762e-05 -2.82151e-05 2.00518e-08
-4.68747e-08 2.00518e-08 -4.36165e-05
0.000729564 -3.78643e-05 1.68923e-06
-3.78643e-05 -1.5392e-07 2.04287e-06
1.68923e-06 2.04287e-06 -4.3687e-05
0.00228433 -6.06522e-05 -1.76023e-06
-6.06522e-05 0.000866105 1.33826e-07
-1.76023e-06 1.33826e-07 0.000879079
0.000660891 -3.88718e-05 1.00528e-06
-3.88718e-05 -3.86521e-05 3.84609e-06
1.00528e-06 3.84609e-06 -5.20728e-05
0.00226137 -5.27605e-05 2.28104e-05
-5.27605e-05 0.00084597 3.82108e-06
2.28104e-05 3.82108e-06 0.000860738
0.008448 0.000157927 8.74504e-05
0.000157927 0.00257439 2.86611e-05
8.74504e-05 2.86611e-05 0.00165258
-0.0024627 -0.000175119 -2.18822e-05
-0.000175119 -0.00125498 -2.47351e-06
-2.18822e-05 -2.47351e-06 -0.00128104
-0.00176867 -8.63354e-05 -4.46086e-05
-8.63354e-05 -0.00024503 -8.04254e-06
-4.46086e-05 -8.04254e-06 -0.000892318
0.000801725 -2.85617e-05 2.92018e-07
-2.85617e-05 6.40225e-05 1.47475e-06
2.92018e-07 1.47475e-06 -2.82686e-05
0.00079112 0.000103404 -7.14885e-07
0.000103404 7.69666e-05 4.45078e-07
-7.14885e-07 4.45078e-07 -2.45114e-05
0.00100892 8.88859e-05 4.83334e-07
8.88859e-05 0.000199721 -8.16101e-08
4.83334e-07 -8.16101e-08 9.05249e-05
0.00100534 0.000131399 -1.13817e-06
0.000131399 0.000175012 1.16489e-07
-1.13817e-06 1.16489e-07 5.90543e-05
0.0011125 0.000143524 8.51258e-06
0.000143524 0.000212892 8.83812e-07
8.51258e-06 8.83812e-07 8.22417e-05
0.000597907 0.000105117 -7.92749e-07
0.000105117 -2.50385e-05 -1.68797e-08
-7.92749e-07 -1.68797e-08 -0.000141724
0.000447622 5.63322e-05 -9.87213e-07
5.63322e-05 -0.000108485 -3.84191e-08
-9.87213e-07 -3.84191e-08 -0.000207924
0.000558376 0.000103808 5.0024e-07
0.000103808 -5.1649e-05 6.26553e-07
5.0024e-07 6.26553e-07 -0.000174161
0.000832826 9.95061e-05 -7.79272e-07
9.95061e-05 5.80944e-05 -1.39723e-07
-7.79272e-07 -1.39723e-07 -4.69485e-05
0.000202677 0.000106514 1.48049e-06
0.000106514 -0.000322291 -1.3835e-06
1.48049e-06 -1.3835e-06 -0.000446665
0.00309845 0.000296799 -1.73023e-07
0.000296799 0.00104087 -3.04624e-06
-1.73023e-07 -3.04624e-06 0.000906951
0.00122078 0.000247764 3.67191e-06
0.000247764 -9.40175e-05 -1.77563e-06
3.67191e-06 -1.77563e-06 -0.0002414
0.00141416 0.000222675 2.38171e-06
0.000222675 0.000174481 -1.91946e-06
2.38171e-06 -1.91946e-06 4.43742e-05
0.000778165 7.35775e-05 -5.16767e-06
7.35775e-05 6.50421e-05 2.79917e-06
-5.16767e-06 2.79917e-06 -1.81432e-05
0.00298645 0.00010442 -3.46864e-06
0.00010442 -2.81303e-05 -9.77741e-07
-3.46864e-06 -9.77741e-07 -0.00031642
0.00577791 1.44302e-06 1.75096e-05
1.44302e-06 0.00145911 7.22019e-06
1.75096e-05 7.22019e-06 0.000239908
0.00502277 -0.000631217 -3.1058e-05
-0.000631217 0.00251741 -3.22e-05
-3.1058e-05 -3.22e-05 0.00247667
0.00726919 -2.81456e-05 0.000251838
-2.81456e-05 0.00249973 7.09425e-05
0.000251838 7.09425e-05 0.000672745
0.001857 0.00034049 2.97616e-05
0.00034049 -3.85849e-05 3.70331e-05
2.97616e-05 3.70331e-05 -0.00024369
0.00232403 0.000309745 -6.60426e-05
0.000309745 3.28447e-05 -2.01534e-05
-6.60426e-05 -2.01534e-05 -0.000338776
0.00262577 0.000349834 4.20368e-05
0.000349834 0.000399576 2.0877e-05
4.20368e-05 2.0877e-05 0.000399674
0.00213801 0.000371909 -5.82675e-07
0.000371909 0.000345793 5.33821e-06
-5.82675e-07 5.33821e-06 0.000207856
0.000337207 0.000179001 -2.62299e-06
0.000179001 -0.000255882 6.02288e-06
-2.62299e-06 6.02288e-06 -0.000396807
0.00225605 0.000408081 -7.56558e-05
0.000408081 0.000289262 -4.5911e-05
-7.56558e-05 -4.5911e-05 0.000205495
0.00297423 -0.000130459 -0.0001414
-0.000130459 0.000509665 6.7386e-08
-0.0001414 6.7386e-08 0.000122207
0.00816067 -7.03339e-05 1.56034e-05
-7.03339e-05 0.00261492 -6.20718e-07
1.56034e-05 -6.20718e-07 0.00200189
-0.00578354 -0.000134655 9.58423e-05
-0.000134655 -0.00300267 3.25854e-07
9.58423e-05 3.25854e-07 -0.00292066
0.00158957 -0.000218811 -4.40303e-06
-0.000218811 0.000223312 5.95124e-06
-4.40303e-06 5.95124e-06 0.000112434
0.00545258 -0.000247873 9.60549e-05
-0.000247873 0.00131387 8.09299e-07
9.60549e-05 8.09299e-07 0.000614938
0.000311757 -0.000282303 7.19142e-05
-0.000282303 -0.00126384 3.04407e-05
7.19142e-05 3.04407e-05 -0.00200679
0.00130476 -0.000141156 5.56495e-06
-0.000141156 0.000129275 -1.36041e-06
5.56495e-06 -1.36041e-06 -3.04609e-05
0.00168966 2.27736e-05 -4.73257e-06
2.27736e-05 -0.000222495 2.42742e-06
-4.73257e-06 2.42742e-06 -0.000506369
0.0049708 -0.000147698 4.96773e-06
-0.000147698 0.0018013 -2.68042e-06
4.96773e-06 -2.68042e-06 0.00170118
0.00206155 9.13156e-06 3.79475e-05
9.13156e-06 0.000166699 -3.57062e-06
3.79475e-05 -3.57062e-06 0.00010548
0.000991553 -0.000237031 -3.43802e-06
-0.000237031 -0.000448292 2.99722e-06
-3.43802e-06 2.99722e-06 -0.000445237
0.00188087 -0.000176561 -4.20397e-07
-0.000176561 -4.28564e-05 1.09325e-06
-4.20397e-07 1.09325e-06 -4.76313e-05
0.00181101 -6.95542e-05 3.46557e-06
-6.95542e-05 -2.60232e-05 3.31051e-07
3.46557e-06 3.31051e-07 -5.25379e-05
0.00154 -0.000202252 3.86243e-06
-0.000202252 -8.38007e-05 -2.24074e-07
3.86243e-06 -2.24074e-07 -0.000145052
0.0018808 -0.000148522 1.6927e-06
-0.000148522 2.1484e-05 4.88639e-07
1.6927e-06 4.88639e-07 -2.58018e-05
0.00171577 -8.65335e-05 2.29223e-06
-8.65335e-05 1.13007e-05 1.04327e-06
2.29223e-06 1.04327e-06 -4.63276e-05
0.00166077 -0.000167839 4.90407e-06
-0.000167839 -2.3608e-05 2.79619e-06
4.90407e-06 2.79619e-06 -0.000110303
0.00178466 -0.000136585 1.02893e-06
-0.000136585 8.53808e-05 4.8108e-07
1.02893e-06 4.8108e-07 6.40485e-06
0.00185079 -0.000105845 1.75608e-06
-0.000105845 0.000162015 4.49686e-07
1.75608e-06 4.49686e-07 7.55128e-05
0.00170957 -0.000146062 -7.50143e-07
-0.000146062 9.04212e-05 2.30943e-06
-7.50143e-07 2.30943e-06 -6.73698e-06
0.00171128 -0.000128627 -4.06563e-07
-0.000128627 0.00010982 3.45159e-07
-4.06563e-07 3.45159e-07 1.4026e-05
0.0016225 -0.000118953 2.81967e-06
-0.000118953 9.61203e-05 1.83109e-07
2.81967e-06 1.83109e-07 -1.07176e-05
0.0015355 -0.000132378 -1.79614e-06
-0.000132378 3.90813e-05 2.53468e-06
-1.79614e-06 2.53468e-06 -6.30639e-05
0.00162155 -0.000134958 -9.8072e-07
-0.000134958 0.000111545 -2.58893e-07
-9.8072e-07 -2.58893e-07 1.54105e-06
0.0017233 -0.000140509 7.3411e-07
-0.000140509 0.000202382 -7.60744e-07
7.3411e-07 -7.60744e-07 8.14536e-05
0.00166952 -0.000159668 3.81515e-07
-0.000159668 0.000155743 2.16802e-06
3.81515e-07 2.16802e-06 3.34794e-05
0.00162827 -0.000158303 6.01381e-07
-0.000158303 0.000182873 -7.34648e-07
6.01381e-07 -7.34648e-07 5.1301e-05
0.00160779 -0.000155614 -2.25168e-06
-0.000155614 0.000214838 -2.46181e-07
-2.25168e-06 -2.46181e-07 8.21969e-05
0.000826033 -0.000125862 -5.50462e-06
-0.000125862 -9.94208e-05 2.24924e-06
-5.50462e-06 2.24924e-06 -0.000230703
0.00118141 -0.000152008 -8.57815e-07
-0.000152008 4.62042e-05 3.85396e-07
-8.57815e-07 3.85396e-07 -9.90707e-05
0.00152119 -0.000173656 3.02717e-06
-0.000173656 0.000181893 3.61546e-08
3.02717e-06 3.61546e-08 2.89536e-05
0.00084223 -9.45321e-05 -4.30625e-06
-9.45321e-05 1.98443e-05 2.92969e-06
-4.30625e-06 2.92969e-06 -8.00241e-05
0.00109741 -0.000139129 3.13041e-07
-0.000139129 0.000114209 1.88928e-07
3.13041e-07 1.88928e-07 -1.56565e-05
0.001067 -0.000149696 9.88868e-07
-0.000149696 6.80433e-05 -4.94696e-07
9.88868e-07 -4.94696e-07 -8.00862e-05
0.000560802 8.71206e-06 -5.43162e-06
8.71206e-06 -7.15974e-05 6.59276e-06
-5.43162e-06 6.59276e-06 -0.000117226
0.000863016 -7.70324e-05 8.68032e-08
-7.70324e-05 5.95928e-05 -1.10903e-07
8.68032e-08 -1.10903e-07 -3.35508e-05
0.0011456 -0.000137043 2.33705e-06
-0.000137043 0.000182785 -1.58286e-06
2.33705e-06 -1.58286e-06 6.02477e-05
0.00307996 0.000111894 -5.33772e-05
0.000111894 0.00133472 2.5654e-06
-5.33772e-05 2.5654e-06 0.00133267
0.000615902 2.47191e-05 3.19057e-07
2.47191e-05 -3.77774e-05 -1.68642e-07
3.19057e-07 -1.68642e-07 -7.68438e-05
0.0008662 -5.94476e-05 3.71812e-06
-5.94476e-05 7.80502e-05 -2.1803e-06
3.71812e-06 -2.1803e-06 -9.53816e-06
0.00280705 9.74079e-05 1.71934e-06
9.74079e-05 0.00118199 1.61695e-07
1.71934e-06 1.61695e-07 0.00118395
0.000656968 4.96911e-05 2.33687e-06
4.96911e-05 -7.1895e-06 -5.511e-06
2.33687e-06 -5.511e-06 -4.07458e-05
0.00259196 8.57786e-05 4.51603e-05
8.57786e-05 0.0010603 -2.73115e-06
4.51603e-05 -2.73115e-06 0.0010657
0.00108023 0.00013639 -2.27407e-07
0.00013639 0.000184402 -2.4166e-06
-2.27407e-07 -2.4166e-06 6.03184e-05
0.00106569 0.000127979 3.51324e-07
0.000127979 0.00019345 1.99972e-07
3.51324e-07 1.99972e-07 8.31485e-05
0.000910691 6.27921e-05 -1.24864e-06
6.27921e-05 0.000106578 -1.05664e-06
-1.24864e-06 -1.05664e-06 8.09069e-06
0.000796548 0.000103595 -5.44647e-08
0.000103595 6.28866e-05 2.48649e-07
-5.44647e-08 2.48649e-07 -3.47177e-05
0.000735141 -1.85004e-06 -4.8645e-07
-1.85004e-06 2.0542e-05 -1.57311e-07
-4.8645e-07 -1.57311e-07 -6.8053e-05
0.000700489 7.19748e-06 -1.95883e-06
7.19748e-06 3.68062e-07 -2.35981e-06
-1.95883e-06 -2.35981e-06 -6.6152e-05
0.000741662 -6.12673e-05 -2.05352e-07
-6.12673e-05 2.07575e-05 1.38346e-06
-2.05352e-07 1.38346e-06 -5.74737e-05
0.000696095 -4.5795e-05 3.58613e-07
-4.5795e-05 -4.65821e-06 -3.61348e-07
3.58613e-07 -3.61348e-07 -5.97544e-05
0.000660263 -6.60498e-05 4.38325e-07
-6.60498e-05 -1.03376e-05 -4.8364e-06
4.38325e-07 -4.8364e-06 -3.47095e-05
0.000717767 -5.25606e-05 8.57642e-07
-5.25606e-05 1.01621e-06 2.31947e-06
8.57642e-07 2.31947e-06 -4.7068e-05
0.000656624 -5.13874e-05 1.72217e-07
-5.13874e-05 -2.49115e-05 -1.51082e-08
1.72217e-07 -1.51082e-08 -4.30863e-05
0.00233338 -7.60419e-05 -3.54062e-05
-7.60419e-05 0.000909538 -2.79697e-06
-3.54062e-05 -2.79697e-06 0.000918509
0.00228891 -6.80304e-05 -1.09129e-06
-6.80304e-05 0.000876182 1.25149e-07
-1.09129e-06 1.25149e-07 0.000887386
0.000651525 -4.3441e-05 1.63631e-06
-4.3441e-05 -3.64193e-05 3.94226e-06
1.63631e-06 3.94226e-06 -5.16769e-05
0.00228706 -6.05466e-05 2.66812e-05
-6.05466e-05 0.000866903 3.6049e-06
2.66812e-05 3.6049e-06 0.00087991
0.00235657 -1.09601e-05 -5.72072e-05
-1.09601e-05 5.88169e-05 1.01156e-05
-5.72072e-05 1.01156e-05 -0.000187729
0.00206287 -0.000169903 1.57102e-05
-0.000169903 -0.000552992 5.67943e-06
1.57102e-05 5.67943e-06 -0.00138655
0.00385715 -0.000360136 -4.67694e-05
-0.000360136 0.00165903 -2.13147e-05
-4.67694e-05 -2.13147e-05 0.00175122
0.00133209 0.000163506 8.38844e-06
0.000163506 0.000263059 1.63715e-06
8.38844e-06 1.63715e-06 0.000121369
0.00112579 9.29296e-05 3.37157e-07
9.29296e-05 0.000262936 3.20259e-07
3.37157e-07 3.20259e-07 0.000153677
0.000892141 0.000123913 -1.14284e-06
0.000123913 0.000115571 8.85236e-07
-1.14284e-06 8.85236e-07 9.16113e-07
0.000832873 0.000120931 4.01646e-07
0.000120931 0.000100505 6.984e-07
4.01646e-07 6.984e-07 -1.90744e-05
0.00101852 0.000138644 -2.98267e-07
0.000138644 0.000165796 -1.52727e-06
-2.98267e-07 -1.52727e-06 3.42697e-05
0.000683638 0.000124248 -3.44485e-07
0.000124248 -4.34477e-05 -5.1526e-08
-3.44485e-07 -5.1526e-08 -0.000162161
0.000941718 0.000131267 -9.69032e-07
0.000131267 0.000145972 -2.87991e-07
-9.69032e-07 -2.87991e-07 1.65502e-05
0.000892259 9.0505e-05 -2.91712e-06
9.0505e-05 8.9685e-05 3.80878e-06
-2.91712e-06 3.80878e-06 -1.85119e-05
0.000935264 0.000150214 5.00712e-07
0.000150214 6.2534e-05 1.07779e-08
5.00712e-07 1.07779e-08 -6.26493e-05
0.00238428 0.000256764 7.28602e-07
0.000256764 0.000674928 4.18066e-06
7.28602e-07 4.18066e-06 0.000541934
0.00169807 0.000245461 -1.55561e-06
0.000245461 0.000169502 -2.17988e-06
-1.55561e-06 -2.17988e-06 2.0852e-05
0.00157519 0.000220846 1.13484e-05
0.000220846 3.67359e-06 1.02612e-05
1.13484e-05 1.02612e-05 -0.000120982
0.00123598 0.000250343 -1.15711e-06
0.000250343 -9.54842e-05 -2.11882e-06
-1.15711e-06 -2.11882e-06 -0.000248578
0.00105665 0.000198122 -7.82515e-07
0.000198122 -4.84763e-06 7.21093e-06
-7.82515e-07 7.21093e-06 -0.000128844
0.000317767 0.000131282 3.68648e-06
0.000131282 -0.000418525 1.78718e-06
3.68648e-06 1.78718e-06 -0.000421048
0.00479745 0.000182211 -2.00664e-05
0.000182211 0.000696461 8.02546e-07
-2.00664e-05 8.02546e-07 0.000313059
0.000504614 -8.5368e-05 3.42709e-05
-8.5368e-05 -0.00112624 1.11574e-05
3.42709e-05 1.11574e-05 -0.00226451
0.00245216 0.000367984 6.14261e-05
0.000367984 1.5649e-05 1.47007e-05
6.14261e-05 1.47007e-05 -0.000523232
0.00155507 0.000272921 -1.67637e-05
0.000272921 4.2306e-05 -1.99832e-06
-1.67637e-05 -1.99832e-06 1.97677e-05
0.00084444 0.000279305 -2.67614e-05
0.000279305 -0.000229989 -1.76051e-05
-2.67614e-05 -1.76051e-05 -0.000371989
0.00225404 -9.46685e-05 1.47197e-05
-9.46685e-05 0.000251388 1.49299e-07
1.47197e-05 1.49299e-07 0.000154776
0.00119188 2.44734e-06 -1.9209e-05
2.44734e-06 -0.000267087 7.32207e-07
-1.9209e-05 7.32207e-07 -0.000549944
0.00015023 0.000239125 5.90755e-05
0.000239125 -0.00164834 -1.92375e-05
5.90755e-05 -1.92375e-05 -0.00228584
-0.000287991 -7.5872e-05 2.28634e-06
-7.5872e-05 -0.000714143 1.10437e-05
2.28634e-06 1.10437e-05 -0.000782872
0.00257122 1.83351e-05 1.72464e-05
1.83351e-05 9.0455e-05 1.01725e-05
1.72464e-05 1.01725e-05 -0.000270245
0.00171579 -8.43123e-05 -7.36938e-07
-8.43123e-05 5.98782e-05 -1.11057e-06
-7.36938e-07 -1.11057e-06 3.14279e-06
0.00215679 1.37359e-06 -4.86671e-07
1.37359e-06 0.000216125 -4.65968e-07
-4.86671e-07 -4.65968e-07 0.000147755
0.00186409 -1.81452e-05 1.15806e-05
-1.81452e-05 4.90075e-05 -1.74118e-06
1.15806e-05 -1.74118e-06 -8.71106e-06
0.00264591 -1.41291e-05 7.85346e-06
-1.41291e-05 0.000530114 -2.15286e-07
7.85346e-06 -2.15286e-07 0.00047351
0.00185116 -0.000180632 -1.61486e-06
-0.000180632 -4.3003e-05 -4.41647e-07
-1.61486e-06 -4.41647e-07 -5.89525e-05
0.00197033 -7.79522e-05 2.98323e-06
-7.79522e-05 4.74265e-05 -5.20381e-07
2.98323e-06 -5.20381e-07 1.75718e-05
0.00177776 -8.0807e-05 1.08993e-06
-8.0807e-05 5.39043e-05 4.47739e-07
1.08993e-06 4.47739e-07 -3.49696e-06
0.0019137 -0.000150423 3.54735e-06
-0.000150423 5.0295e-05 1.34154e-06
3.54735e-06 1.34154e-06 -1.98683e-06
0.00182081 -0.000100144 7.78838e-07
-0.000100144 6.30396e-05 7.2309e-08
7.78838e-07 7.2309e-08 2.28764e-06
0.0017625 -9.27151e-05 2.93739e-06
-9.27151e-05 0.000105632 5.43762e-07
2.93739e-06 5.43762e-07 2.47059e-05
0.00178851 -0.00013436 -1.70257e-06
-0.00013436 9.74171e-05 1.4129e-06
-1.70257e-06 1.4129e-06 1.77692e-05
0.00178028 -0.000110203 -1.25135e-06
-0.000110203 0.000125956 -3.14939e-08
-1.25135e-06 -3.14939e-08 3.84683e-05
0.00164102 -9.84694e-05 1.64781e-06
-9.84694e-05 9.07616e-05 6.29615e-07
1.64781e-06 6.29615e-07 -1.47919e-05
0.00166516 -0.000130219 -2.382e-06
-0.000130219 8.7225e-05 7.76196e-07
-2.382e-06 7.76196e-07 -9.51633e-06
0.00163901 -0.000119326 5.52966e-07
-0.000119326 0.000104988 -1.97766e-07
5.52966e-07 -1.97766e-07 -1.77849e-06
0.00158817 -0.000119651 8.29935e-07
-0.000119651 0.000107458 6.4123e-08
8.29935e-07 6.4123e-08 -9.1901e-06
0.00155971 -0.000132109 -3.6765e-06
-0.000132109 7.61436e-05 9.38312e-07
-3.6765e-06 9.38312e-07 -3.24668e-05
0.00157753 -0.00013429 -9.29289e-08
-0.00013429 0.000121807 -2.48704e-07
-9.29289e-08 -2.48704e-07 2.29747e-06
0.00148074 -0.00013096 -2.01746e-06
-0.00013096 0.000109402 1.25054e-07
-2.01746e-06 1.25054e-07 -1.56572e-05
0.0015993 -0.000156435 1.77526e-06
-0.000156435 0.000166687 8.22871e-07
1.77526e-06 8.22871e-07 3.50214e-05
0.00141902 -0.000147341 6.39938e-07
-0.000147341 0.000112262 -4.58972e-07
6.39938e-07 -4.58972e-07 -2.08164e-05
0.00134564 -0.000137257 -5.16107e-06
-0.000137257 0.000125457 1.57199e-06
-5.16107e-06 1.57199e-06 -1.979e-07
0.000954565 -0.000107703 -6.05917e-06
-0.000107703 3.45962e-05 3.51127e-06
-6.05917e-06 3.51127e-06 -6.95731e-05
0.000955446 -0.000131242 -1.32258e-06
-0.000131242 -2.57234e-05 7.66651e-07
-1.32258e-06 7.66651e-07 -0.000156388
0.0012554 -0.000153835 2.33211e-06
-0.000153835 9.15705e-05 -1.06293e-07
2.33211e-06 -1.06293e-07 -5.31014e-05
0.000576477 -5.51434e-05 -8.5839e-06
-5.51434e-05 -6.80495e-05 7.65661e-06
-8.5839e-06 7.65661e-06 -0.000122678
0.000901454 -9.94662e-05 2.94161e-07
-9.94662e-05 5.1784e-05 -4.62891e-09
2.94161e-07 -4.62891e-09 -4.88935e-05
0.00113002 -0.000140556 3.27333e-06
-0.000140556 0.000129671 -1.52778e-06
3.27333e-06 -1.52778e-06 -2.77818e-08
0.00338569 0.000124101 -6.48224e-05
0.000124101 0.00150856 2.68133e-06
-6.48224e-05 2.68133e-06 0.001502
0.000647052 -2.25224e-05 -1.03365e-07
-2.25224e-05 -2.87975e-05 -1.50771e-07
-1.03365e-07 -1.50771e-07 -7.52737e-05
0.000951792 -8.49875e-05 4.41913e-06
-8.49875e-05 0.000107854 -2.63209e-06
4.41913e-06 -2.63209e-06 1.35456e-05
0.00314692 0.000107214 2.0325e-06
0.000107214 0.00137068 2.45874e-07
2.0325e-06 2.45874e-07 0.00136908
0.000677336 8.08282e-06 6.21496e-06
8.08282e-06 -6.42377e-06 -5.86112e-06
6.21496e-06 -5.86112e-06 -4.54192e-05
0.00290272 9.30692e-05 5.77677e-05
9.30692e-05 0.00123249 -2.97886e-06
5.77677e-05 -2.97886e-06 0.00123503
0.000909999 0.00013479 -5.96147e-07
0.00013479 4.58312e-05 -2.08835e-06
-5.96147e-07 -2.08835e-06 -9.07684e-05
0.00100509 0.000131285 -8.34781e-08
0.000131285 0.000144505 -1.05114e-06
-8.34781e-08 -1.05114e-06 2.11985e-05
0.00110931 0.000123276 -9.15296e-07
0.000123276 0.000196874 -1.15888e-06
-9.15296e-07 -1.15888e-06 8.70673e-05
0.00113762 0.000132705 -5.6476e-07
0.000132705 0.000232461 2.76821e-08
-5.6476e-07 2.76821e-08 0.000122215
0.000895684 6.74835e-05 -1.00207e-06
6.74835e-05 9.7291e-05 -5.77804e-07
-1.00207e-06 -5.77804e-07 1.92423e-09
0.000772165 2.73816e-05 -2.1317e-06
2.73816e-05 3.89814e-05 -1.95784e-06
-2.1317e-06 -1.95784e-06 -3.91952e-05
0.000727723 1.99117e-05 -1.75611e-07
1.99117e-05 1.56593e-05 3.08591e-07
-1.75611e-07 3.08591e-07 -7.38275e-05
0.000709578 -3.06691e-05 -3.9628e-07
-3.06691e-05 5.96017e-06 -5.40319e-08
-3.9628e-07 -5.40319e-08 -5.97072e-05
0.000623561 -7.05743e-05 3.21381e-07
-7.05743e-05 -2.13737e-05 -5.2245e-06
3.21381e-07 -5.2245e-06 -5.23951e-05
0.000705398 -6.21809e-05 3.23684e-07
-6.21809e-05 3.28468e-06 2.6568e-06
3.23684e-07 2.6568e-06 -5.33239e-05
0.000633661 -6.24333e-05 2.23269e-07
-6.24333e-05 -2.62949e-05 -1.14176e-07
2.23269e-07 -1.14176e-07 -4.96334e-05
0.00244564 -8.4267e-05 -4.0818e-05
-8.4267e-05 0.000977864 -2.50402e-06
-4.0818e-05 -2.50402e-06 0.000984435
0.000642213 -4.92407e-05 2.01342e-06
-4.92407e-05 -3.33395e-05 4.02097e-06
2.01342e-06 4.02097e-06 -5.10931e-05
0.00231503 -7.58106e-05 -6.52292e-07
-7.58106e-05 0.000898552 1.14908e-07
-6.52292e-07 1.14908e-07 0.000907663
0.00228972 -6.76838e-05 3.05114e-05
-6.76838e-05 0.000875802 3.31172e-06
3.05114e-05 3.31172e-06 0.000887109
0.000366315 1.4682e-05 5.96297e-06
1.4682e-05 -0.000512441 2.29335e-06
5.96297e-06 2.29335e-06 -0.000542738
0.0036456 1.36919e-05 1.29284e-06
1.36919e-05 0.000454856 1.08339e-05
1.29284e-06 1.08339e-05 8.21469e-05
0.00649481 0.000227907 -9.31108e-05
0.000227907 0.00192231 -2.17681e-05
-9.31108e-05 -2.17681e-05 0.000983503
0.000779361 0.000128839 2.47028e-06
0.000128839 -6.66334e-05 4.23395e-07
2.47028e-06 4.23395e-07 -0.000196898
0.00148907 0.00017684 3.28483e-06
0.00017684 0.000188983 -2.98217e-06
3.28483e-06 -2.98217e-06 4.09405e-05
0.000884413 0.000139521 -1.18828e-07
0.000139521 3.15446e-05 -1.14039e-06
-1.18828e-07 -1.14039e-06 -0.000107109
0.00104784 0.000135345 -1.38705e-06
0.000135345 0.000215047 -4.80503e-07
-1.38705e-06 -4.80503e-07 9.27996e-05
0.000939192 0.000134455 -1.16202e-06
0.000134455 0.000126063 -7.16288e-07
-1.16202e-06 -7.16288e-07 -6.3652e-06
0.0010444 0.000149284 3.82851e-06
0.000149284 0.000133698 1.6574e-06
3.82851e-06 1.6574e-06 1.03011e-05
0.00196899 0.00023549 -5.4283e-06
0.00023549 0.000352264 -5.16523e-06
-5.4283e-06 -5.16523e-06 0.000212331
0.00157067 0.000188247 -4.52825e-08
0.000188247 0.000398866 1.93343e-06
-4.52825e-08 1.93343e-06 0.000273125
0.00109744 0.000185703 -7.09808e-08
0.000185703 1.71857e-05 1.0778e-05
-7.09808e-08 1.0778e-05 -0.000113017
0.00171493 0.000243502 -1.08788e-06
0.000243502 0.000193211 7.68976e-07
-1.08788e-06 7.68976e-07 4.65391e-05
0.00218625 0.000248084 -6.74588e-06
0.000248084 0.000310118 2.04371e-06
-6.74588e-06 2.04371e-06 0.000171444
0.00125515 9.39795e-05 1.35552e-05
9.39795e-05 -0.000230518 4.36346e-06
1.35552e-05 4.36346e-06 -0.000307097
0.00169234 0.00021967 8.17121e-06
0.00021967 6.7779e-05 2.76476e-06
8.17121e-06 2.76476e-06 -5.78338e-05
0.00127952 0.000249496 -6.31224e-06
0.000249496 -8.06415e-05 -1.04176e-06
-6.31224e-06 -1.04176e-06 -0.000237887
0.000905199 0.000120499 -3.52044e-06
0.000120499 -0.000126697 6.93437e-07
-3.52044e-06 6.93437e-07 -0.000136589
0.00463373 5.07668e-05 4.82222e-05
5.07668e-05 0.000496727 9.42506e-06
4.82222e-05 9.42506e-06 8.7051e-05
0.00114082 0.000226136 3.7525e-06
0.000226136 -1.87408e-05 -8.73519e-06
3.7525e-06 -8.73519e-06 -4.8516e-05
0.00165343 -2.60801e-05 1.06358e-05
-2.60801e-05 6.96792e-05 7.57756e-07
1.06358e-05 7.57756e-07 1.67456e-05
0.00204083 -4.95959e-05 -3.65135e-06
-4.95959e-05 0.000180117 -1.77679e-07
-3.65135e-06 -1.77679e-07 8.5257e-05
0.00181356 0.000115385 5.82689e-05
0.000115385 -0.00019263 -3.75383e-06
5.82689e-05 -3.75383e-06 -0.000523068
-0.00128175 -3.51423e-05 -1.13037e-05
-3.51423e-05 -0.00153067 7.08032e-06
-1.13037e-05 7.08032e-06 -0.0015474
0.00255249 -1.03974e-05 -4.82608e-05
-1.03974e-05 0.000425158 5.93167e-06
-4.82608e-05 5.93167e-06 0.000360151
0.00145107 -4.74104e-05 8.45475e-07
-4.74104e-05 -0.000204263 2.21379e-06
8.45475e-07 2.21379e-06 -0.000251075
0.00221386 -2.89787e-05 -3.57837e-07
-2.89787e-05 0.000258277 3.08312e-07
-3.57837e-07 3.08312e-07 0.000200398
0.00194224 -8.86776e-05 3.50859e-06
-8.86776e-05 8.863e-05 9.57324e-07
3.50859e-06 9.57324e-07 3.20672e-05
0.00159627 -3.3194e-05 1.469e-06
-3.3194e-05 -9.58327e-05 -1.00634e-07
1.469e-06 -1.00634e-07 -0.000161583
0.00208932 -8.64847e-05 2.37963e-06
-8.64847e-05 9.49464e-05 -2.8649e-08
2.37963e-06 -2.8649e-08 6.32876e-05
0.00180387 -8.01425e-05 -1.61992e-06
-8.01425e-05 6.33021e-05 -2.10195e-09
-1.61992e-06 -2.10195e-09 7.89334e-06
0.00178775 -8.50175e-05 3.18135e-06
-8.50175e-05 8.5391e-05 3.8865e-07
3.18135e-06 3.8865e-07 6.8195e-06
0.00194208 -0.000112157 -2.35613e-06
-0.000112157 0.000124706 -4.10422e-08
-2.35613e-06 -4.10422e-08 6.09098e-05
0.00176541 -9.2586e-05 -4.1609e-07
-9.2586e-05 0.000109213 -2.31866e-07
-4.1609e-07 -2.31866e-07 2.65778e-05
0.0017118 -8.11922e-05 1.88301e-06
-8.11922e-05 9.9496e-05 3.52413e-07
1.88301e-06 3.52413e-07 -1.00591e-06
0.00170956 -0.00011415 -5.78681e-06
-0.00011415 8.97239e-05 -9.82659e-08
-5.78681e-06 -9.82659e-08 1.29725e-06
0.00165531 -9.79593e-05 8.64993e-08
-9.79593e-05 9.8803e-05 5.90963e-08
8.64993e-08 5.90963e-08 -6.59797e-06
0.0016216 -9.59475e-05 1.85395e-07
-9.59475e-05 0.000110431 5.93248e-07
1.85395e-07 5.93248e-07 -5.54749e-06
0.00165696 -0.000119722 -2.02591e-06
-0.000119722 0.000114725 -5.46838e-07
-2.02591e-06 -5.46838e-07 8.03668e-06
0.00158886 -0.00011896 1.69848e-07
-0.00011896 0.000107659 -1.79195e-07
1.69848e-07 -1.79195e-07 -8.90439e-06
0.00151906 -0.000118438 -1.68064e-06
-0.000118438 0.000107471 4.1263e-07
-1.68064e-06 4.1263e-07 -1.42783e-05
0.00143462 -0.000128244 -4.5778e-07
-0.000128244 4.26601e-05 4.09213e-07
-4.5778e-07 4.09213e-07 -7.54324e-05
0.00137151 -0.000127039 -2.10042e-07
-0.000127039 5.07841e-05 -1.4075e-07
-2.10042e-07 -1.4075e-07 -7.39984e-05
0.00134347 -0.000123117 -5.15108e-06
-0.000123117 9.00642e-05 1.46518e-06
-5.15108e-06 1.46518e-06 -3.07724e-05
0.00123685 -0.000139418 3.33479e-06
-0.000139418 1.32709e-05 -4.1063e-07
3.33479e-06 -4.1063e-07 -0.000120287
0.00111477 -0.000126445 2.60441e-07
-0.000126445 1.79326e-06 -6.08894e-09
2.60441e-07 -6.08894e-09 -0.00012367
0.00102806 -0.000106806 -7.8519e-06
-0.000106806 2.82014e-05 3.68894e-06
-7.8519e-06 3.68894e-06 -7.45411e-05
0.000494877 -8.50013e-05 -1.1532e-05
-8.50013e-05 -0.000126418 8.42022e-06
-1.1532e-05 8.42022e-06 -0.000185716
0.000965334 -0.000109442 3.41725e-07
-0.000109442 4.0596e-05 1.50154e-07
3.41725e-07 1.50154e-07 -6.38735e-05
0.00109454 -0.000137284 2.5641e-06
-0.000137284 5.31782e-05 -5.02073e-07
2.5641e-06 -5.02073e-07 -7.69467e-05
0.00367057 0.000139857 -7.10063e-05
0.000139857 0.00167765 3.02002e-06
-7.10063e-05 3.02002e-06 0.0016651
0.000662843 -5.0133e-05 -1.61096e-07
-5.0133e-05 -2.53906e-05 4.96661e-08
-1.61096e-07 4.96661e-08 -8.06086e-05
0.000985346 -0.000104172 5.10447e-06
-0.000104172 9.76099e-05 -2.88229e-06
5.10447e-06 -2.88229e-06 -4.08599e-06
0.00347207 0.000119625 3.06972e-06
0.000119625 0.00155643 3.53107e-07
3.06972e-06 3.53107e-07 0.00155005
0.000743749 -2.48852e-05 8.21782e-06
-2.48852e-05 1.99077e-05 -6.64746e-06
8.21782e-06 -6.64746e-06 -2.68841e-05
0.00323079 0.000101666 6.93579e-05
0.000101666 0.00141542 -3.09133e-06
6.93579e-05 -3.09133e-06 0.00141435
0.000687905 0.000130881 -1.60418e-06
0.000130881 -0.000163148 -1.57983e-06
-1.60418e-06 -1.57983e-06 -0.00031114
0.000680243 0.00012203 -1.57557e-07
0.00012203 -8.00605e-05 -1.46459e-07
-1.57557e-07 -1.46459e-07 -0.000217246
0.00112915 0.000133947 -2.45806e-06
0.000133947 0.000169491 -1.53864e-06
-2.45806e-06 -1.53864e-06 4.72541e-05
0.00092175 0.000125669 -5.171e-07
0.000125669 0.000100119 1.10645e-07
-5.171e-07 1.10645e-07 -2.23316e-05
0.000985967 0.000114848 -2.90123e-07
0.000114848 0.000131875 -3.88492e-07
-2.90123e-07 -3.88492e-07 2.32077e-05
0.000910213 5.99239e-05 -3.32344e-06
5.99239e-05 0.000107225 -1.92575e-06
-3.32344e-06 -1.92575e-06 1.96807e-05
0.000874682 7.08048e-05 -8.64532e-08
7.08048e-05 8.5125e-05 -4.28787e-07
-8.64532e-08 -4.28787e-07 -1.11088e-05
0.000756489 1.24844e-05 -6.35194e-08
1.24844e-05 3.3182e-05 1.09624e-07
-6.35194e-08 1.09624e-07 -4.53234e-05
0.000632646 -4.77888e-05 -3.31999e-06
-4.77888e-05 -1.84997e-05 -5.23103e-06
-3.31999e-06 -5.23103e-06 -5.52024e-05
0.000725035 -5.58761e-05 2.66872e-07
-5.58761e-05 1.67265e-05 2.86752e-06
2.66872e-07 2.86752e-06 -4.95496e-05
0.000593269 -7.44336e-05 -6.71244e-08
-7.44336e-05 -3.73338e-05 -1.80042e-07
-6.71244e-08 -1.80042e-07 -6.88052e-05
0.00264143 -9.33581e-05 -4.83055e-05
-9.33581e-05 0.00108989 -2.39824e-06
-4.83055e-05 -2.39824e-06 0.00109359
0.000608557 -5.79073e-05 1.77939e-06
-5.79073e-05 -4.16908e-05 4.21815e-06
1.77939e-06 4.21815e-06 -6.38659e-05
0.00240646 -8.44618e-05 -6.79292e-07
-8.44618e-05 0.000956124 1.08887e-07
-6.79292e-07 1.08887e-07 0.000962747
0.0023065 -7.53402e-05 3.3454e-05
-7.53402e-05 0.000892988 2.97919e-06
3.3454e-05 2.97919e-06 0.000902277
0.00135889 3.1367e-05 1.09759e-05
3.1367e-05 -0.000168677 1.85292e-06
1.09759e-05 1.85292e-06 -0.000226216
0.00130134 -1.78027e-05 -2.95489e-06
-1.78027e-05 -0.000119598 3.80836e-06
-2.95489e-06 3.80836e-06 -0.000175929
0.00276 -2.53305e-05 6.87363e-05
-2.53305e-05 7.78078e-06 5.07046e-06
6.87363e-05 5.07046e-06 -0.000283165
0.00179943 0.000192925 8.07847e-11
0.000192925 0.000280011 -4.23893e-06
8.07847e-11 -4.23893e-06 0.000141954
0.000770797 0.000132493 -1.06978e-06
0.000132493 -5.32662e-05 1.38127e-06
-1.06978e-06 1.38127e-06 -0.000174917
0.00133925 0.000161062 -1.98451e-06
0.000161062 -1.51393e-05 1.22529e-06
-1.98451e-06 1.22529e-06 -0.000149889
0.00160471 0.00018373 6.58576e-07
0.00018373 0.000246723 2.12589e-07
6.58576e-07 2.12589e-07 9.79851e-05
0.000428515 0.000115056 -3.65564e-06
0.000115056 -0.000204299 2.17092e-06
-3.65564e-06 2.17092e-06 -0.000339862
0.00179341 0.000197706 -4.60155e-06
0.000197706 0.00011036 8.45823e-07
-4.60155e-06 8.45823e-07 -2.01828e-05
0.00136893 0.000172355 -6.02807e-07
0.000172355 0.000292052 1.01035e-06
-6.02807e-07 1.01035e-06 0.00016422
0.00184152 0.00022783 2.2853e-07
0.00022783 0.000276646 -2.3275e-06
2.2853e-07 -2.3275e-06 0.000133509
0.00181066 0.000132874 -2.73632e-06
0.000132874 8.44446e-05 1.758e-06
-2.73632e-06 1.758e-06 -1.99094e-05
0.00197459 0.000256028 3.01162e-06
0.000256028 0.00033984 4.05575e-06
3.01162e-06 4.05575e-06 0.000194228
0.00206942 0.000243463 -1.93472e-06
0.000243463 0.00024326 -4.87738e-08
-1.93472e-06 -4.87738e-08 0.000106197
0.00138659 0.000105271 -3.42045e-07
0.000105271 -0.000136626 -4.39184e-07
-3.42045e-07 -4.39184e-07 -0.000213947
0.00144721 0.000202644 -2.64737e-06
0.000202644 -4.25849e-05 -3.28006e-06
-2.64737e-06 -3.28006e-06 -0.000169264
0.00105065 0.000108492 -1.18368e-05
0.000108492 -5.20537e-05 -2.99338e-06
-1.18368e-05 -2.99338e-06 -6.81035e-05
0.00170773 -3.49695e-06 -9.18927e-07
-3.49695e-06 -1.96527e-05 4.20789e-07
-9.18927e-07 4.20789e-07 -9.02583e-05
0.0018999 -8.02513e-06 -1.85947e-06
-8.02513e-06 0.000204595 -4.12451e-07
-1.85947e-06 -4.12451e-07 0.000151861
0.00133815 3.79546e-06 -2.91518e-05
3.79546e-06 -0.000150906 8.15241e-07
-2.91518e-05 8.15241e-07 -0.000257531
0.000969063 -7.39902e-05 -6.46943e-06
-7.39902e-05 -0.000505596 9.00387e-07
-6.46943e-06 9.00387e-07 -0.000542066
0.00181512 -4.23264e-05 -3.43441e-06
-4.23264e-05 1.98013e-06 -4.88779e-07
-3.43441e-06 -4.88779e-07 -5.71315e-05
0.00197547 -8.48712e-05 -1.18084e-06
-8.48712e-05 0.000108825 2.48326e-07
-1.18084e-06 2.48326e-07 5.34372e-05
0.00174585 -3.45657e-05 1.18369e-06
-3.45657e-05 -1.34513e-05 1.08558e-08
1.18369e-06 1.08558e-08 -7.86585e-05
0.00173714 -4.8079e-05 1.12995e-06
-4.8079e-05 2.38795e-05 -2.13139e-07
1.12995e-06 -2.13139e-07 -5.36123e-05
0.00181096 -7.96251e-05 -2.87406e-06
-7.96251e-05 6.30616e-05 -8.41441e-07
-2.87406e-06 -8.41441e-07 9.34024e-06
0.00182902 -8.23845e-05 3.76954e-07
-8.23845e-05 0.000111615 -8.27671e-08
3.76954e-07 -8.27671e-08 3.29706e-05
0.00180615 -6.56878e-05 1.18896e-06
-6.56878e-05 0.000107398 -4.3957e-07
1.18896e-06 -4.3957e-07 1.18705e-05
0.00175363 -9.31351e-05 -4.84883e-06
-9.31351e-05 0.00010457 -4.37992e-07
-4.84883e-06 -4.37992e-07 2.02159e-05
0.00168076 -8.06182e-05 -1.48332e-07
-8.06182e-05 8.70173e-05 1.45375e-07
-1.48332e-07 1.45375e-07 -1.49213e-05
0.00167087 -6.62799e-05 1.5074e-07
-6.62799e-05 0.000116586 5.15153e-07
1.5074e-07 5.15153e-07 7.24389e-07
0.00167314 -9.74743e-05 -1.60259e-06
-9.74743e-05 0.000108671 -4.91435e-07
-1.60259e-06 -4.91435e-07 3.43245e-06
0.00161294 -9.47948e-05 6.55343e-08
-9.47948e-05 0.000104798 -1.54519e-08
6.55343e-08 -1.54519e-08 -1.10908e-05
0.00154395 -9.6723e-05 -1.73971e-06
-9.6723e-05 0.000104172 6.31902e-07
-1.73971e-06 6.31902e-07 -1.63869e-05
0.00158758 -0.000118252 -1.77645e-07
-0.000118252 0.000106843 -4.63361e-07
-1.77645e-07 -4.63361e-07 -9.64431e-06
0.00151169 -0.000117521 7.28775e-09
-0.000117521 0.000103512 -5.56554e-08
7.28775e-09 -5.56554e-08 -1.81261e-05
0.00137787 -0.000110058 -4.73333e-06
-0.000110058 8.36698e-05 1.36722e-06
-4.73333e-06 1.36722e-06 -3.46133e-05
0.00125945 -0.000122951 1.91266e-06
-0.000122951 -9.40776e-06 -2.7647e-07
1.91266e-06 -2.7647e-07 -0.000133889
0.00131583 -0.000121138 -2.51254e-08
-0.000121138 7.59043e-05 3.55655e-08
-2.51254e-08 3.55655e-08 -4.46901e-05
0.00108022 -9.86084e-05 -9.0385e-06
-9.86084e-05 2.43483e-05 3.7338e-06
-9.0385e-06 3.7338e-06 -7.62644e-05
0.000882888 -0.00011547 4.55949e-06
-0.00011547 -0.000122406 -1.12619e-06
4.55949e-06 -1.12619e-06 -0.000247657
0.00102488 -0.000106419 3.21699e-07
-0.000106419 2.66941e-05 6.83668e-08
3.21699e-07 6.83668e-08 -7.61113e-05
0.00200956 -2.42229e-05 -8.25062e-06
-2.42229e-05 0.000700967 6.15203e-06
-8.25062e-06 6.15203e-06 0.000641568
0.00114775 6.8694e-06 -8.85191e-05
6.8694e-06 0.000275563 9.13251e-06
-8.85191e-05 9.13251e-06 0.000256377
0.00137928 -5.36238e-05 5.52528e-07
-5.36238e-05 0.000359275 1.73084e-09
5.52528e-07 1.73084e-09 0.000299781
0.000985967 -0.000111612 6.42174e-06
-0.000111612 5.23112e-05 -3.01087e-06
6.42174e-06 -3.01087e-06 -5.25581e-05
0.00381902 0.000124333 6.12e-06
0.000124333 0.00175784 4.56638e-07
6.12e-06 4.56638e-07 0.00174684
0.000776116 -6.80727e-05 1.06986e-05
-6.80727e-05 2.9857e-05 -7.71933e-06
1.06986e-05 -7.71933e-06 -2.56737e-05
0.00353296 0.000101718 8.3685e-05
0.000101718 0.00158857 -3.60878e-06
8.3685e-05 -3.60878e-06 0.00158423
0.00197934 0.000163836 -2.68916e-07
0.000163836 0.000299604 4.5694e-07
-2.68916e-07 4.5694e-07 0.000173771
0.000726462 0.000132626 -5.89037e-07
0.000132626 -0.000240185 1.53341e-06
-5.89037e-07 1.53341e-06 -0.000379467
0.00094784 0.000146341 -2.95754e-07
0.000146341 -3.19065e-05 -1.63045e-07
-2.95754e-07 -1.63045e-07 -0.000182208
0.00113449 0.000139859 -3.33749e-06
0.000139859 0.000118622 -1.68296e-06
-3.33749e-06 -1.68296e-06 -1.2194e-05
0.000459084 0.000109831 3.27176e-07
0.000109831 -0.000201165 2.2473e-06
3.27176e-07 2.2473e-06 -0.000339032
0.00103953 0.000127394 -4.84984e-07
0.000127394 0.00012374 -4.23834e-08
-4.84984e-07 -4.23834e-08 2.39643e-06
0.00098267 8.94614e-05 -4.23076e-06
8.94614e-05 0.000123906 -2.1572e-06
-4.23076e-06 -2.1572e-06 2.91382e-05
0.000871225 0.000106864 8.85918e-07
0.000106864 7.15068e-05 6.66417e-07
8.85918e-07 6.66417e-07 -3.60659e-05
0.000804926 5.13658e-05 -2.58876e-07
5.13658e-05 5.17227e-05 5.51887e-08
-2.58876e-07 5.51887e-08 -3.51219e-05
0.000701873 -3.34712e-07 -6.39475e-06
-3.34712e-07 9.40141e-06 -5.67266e-06
-6.39475e-06 -5.67266e-06 -3.28964e-05
0.000746496 -2.45836e-06 1.05195e-06
-2.45836e-06 2.77898e-05 2.02176e-06
1.05195e-06 2.02176e-06 -4.92793e-05
0.000576793 -5.59235e-05 -7.04777e-07
-5.59235e-05 -4.85943e-05 -1.53367e-07
-7.04777e-07 -1.53367e-07 -8.4771e-05
0.00288654 -0.000102911 -5.77136e-05
-0.000102911 0.00122918 -2.40636e-06
-5.77136e-05 -2.40636e-06 0.00122924
0.000553746 -7.08138e-05 3.71931e-07
-7.08138e-05 -6.07713e-05 4.89443e-06
3.71931e-07 4.89443e-06 -9.09684e-05
0.00257443 -9.4286e-05 -9.82165e-07
-9.4286e-05 0.00105377 1.29984e-07
-9.82165e-07 1.29984e-07 0.00105744
0.00236863 -8.39095e-05 3.64003e-05
-8.39095e-05 0.000934944 2.62318e-06
3.64003e-05 2.62318e-06 0.000941793
0.00181089 6.48065e-05 -1.15788e-06
6.48065e-05 4.82321e-05 1.33238e-06
-1.15788e-06 1.33238e-06 -3.41072e-05
0.00188013 2.61387e-05 2.85562e-07
2.61387e-05 0.000127232 -7.051e-07
2.85562e-07 -7.051e-07 7.19839e-05
0.00279298 -5.49156e-05 -2.05526e-05
-5.49156e-05 0.000554722 -3.02071e-06
-2.05526e-05 -3.02071e-06 0.000469944
0.00164954 0.000161783 -2.95982e-06
0.000161783 6.69086e-05 4.50957e-07
-2.95982e-06 4.50957e-07 -5.90122e-05
0.00166613 0.000185577 -2.12204e-06
0.000185577 0.000228513 1.1251e-07
-2.12204e-06 1.1251e-07 9.41115e-05
0.000746682 0.00013555 -9.50934e-06
0.00013555 -4.88666e-05 3.26657e-06
-9.50934e-06 3.26657e-06 -0.00016185
0.00161149 0.000169285 1.41958e-06
0.000169285 0.000132639 1.61176e-07
1.41958e-06 1.61176e-07 -1.90151e-06
0.00171413 0.000190603 -1.55657e-06
0.000190603 0.000301953 5.34773e-07
-1.55657e-06 5.34773e-07 0.000152436
0.00205125 0.000133992 -3.5953e-06
0.000133992 0.000199663 1.25155e-06
-3.5953e-06 1.25155e-06 9.54151e-05
0.00174011 0.00019863 -1.76182e-06
0.00019863 8.23681e-05 2.88898e-07
-1.76182e-06 2.88898e-07 -4.95248e-05
0.00175647 0.00022261 2.9868e-06
0.00022261 0.000222842 1.11106e-06
2.9868e-06 1.11106e-06 7.61573e-05
0.00179169 0.000133281 -5.19222e-07
0.000133281 6.88887e-05 1.2605e-07
-5.19222e-07 1.2605e-07 -3.59123e-05
0.00201221 0.000240282 5.70399e-06
0.000240282 0.000203711 -4.5559e-07
5.70399e-06 -4.5559e-07 6.83502e-05
0.00160693 0.000116772 -1.70172e-05
0.000116772 -1.32569e-05 -6.22018e-06
-1.70172e-05 -6.22018e-06 -9.03141e-05
0.00194717 6.22769e-06 -4.70824e-08
6.22769e-06 0.000123792 1.65993e-07
-4.70824e-08 1.65993e-07 4.46511e-05
0.00177235 6.67943e-07 4.28795e-07
6.67943e-07 1.72903e-05 -4.27262e-07
4.28795e-07 -4.27262e-07 -5.22222e-05
0.00217672 9.8052e-06 -1.48933e-05
9.8052e-06 0.00035367 -8.15401e-07
-1.48933e-05 -8.15401e-07 0.00030109
0.00202354 -8.2624e-05 -7.96107e-06
-8.2624e-05 0.000136815 -9.95137e-07
-7.96107e-06 -9.95137e-07 8.26434e-05
0.00192985 -3.5062e-05 -1.16733e-06
-3.5062e-05 8.55636e-05 -1.95329e-08
-1.16733e-06 -1.95329e-08 2.09435e-05
0.0018138 -4.71484e-05 2.70818e-07
-4.71484e-05 5.76527e-05 -1.44954e-08
2.70818e-07 -1.44954e-08 -1.73534e-05
0.00185352 -2.88673e-05 2.88952e-07
-2.88673e-05 0.000107372 -2.84778e-07
2.88952e-07 -2.84778e-07 1.23386e-05
0.00188322 -8.02045e-05 -1.56133e-06
-8.02045e-05 0.000144326 -2.93499e-07
-1.56133e-06 -2.93499e-07 6.55714e-05
0.00179539 -6.67064e-05 -4.18606e-07
-6.67064e-05 0.00010761 -1.06382e-07
-4.18606e-07 -1.06382e-07 1.14532e-05
0.00173376 -4.66265e-05 8.41712e-07
-4.66265e-05 0.000117111 -6.5439e-07
8.41712e-07 -6.5439e-07 2.84794e-06
0.00164826 -8.00626e-05 -1.87807e-06
-8.00626e-05 7.36831e-05 1.40334e-07
-1.87807e-06 1.40334e-07 -2.96955e-05
0.0016488 -6.60997e-05 -7.12954e-08
-6.60997e-05 0.000102922 2.29208e-07
-7.12954e-08 2.29208e-07 -1.28866e-05
0.00157758 -6.62779e-05 -1.77591e-06
-6.62779e-05 0.000107691 7.84752e-07
-1.77591e-06 7.84752e-07 -1.34991e-05
0.00160575 -9.35808e-05 3.48541e-08
-9.35808e-05 9.99516e-05 -6.18352e-07
3.48541e-08 -6.18352e-07 -1.58351e-05
0.00154187 -9.5991e-05 -4.13067e-08
-9.5991e-05 0.00010289 -5.14703e-08
-4.13067e-08 -5.14703e-08 -1.76124e-05
0.00139967 -9.16828e-05 -4.58711e-06
-9.16828e-05 7.79809e-05 1.21208e-06
-4.58711e-06 1.21208e-06 -3.92035e-05
0.0015023 -0.000116564 1.92161e-06
-0.000116564 9.8503e-05 -5.52591e-07
1.92161e-06 -5.52591e-07 -2.30275e-05
0.00136851 -0.000108879 -9.41299e-09
-0.000108879 7.86777e-05 7.42874e-08
-9.41299e-09 7.42874e-08 -3.94373e-05
0.00111342 -8.86592e-05 -9.49416e-06
-8.86592e-05 2.1366e-05 3.40943e-06
-9.49416e-06 3.40943e-06 -7.84262e-05
0.00128863 -0.000119191 4.74797e-06
-0.000119191 6.19684e-05 -1.31795e-06
4.74797e-06 -1.31795e-06 -5.83869e-05
0.00107052 -9.7284e-05 3.2256e-07
-9.7284e-05 1.85257e-05 3.80592e-08
3.2256e-07 3.80592e-08 -8.19403e-05
0.00211861 -3.5603e-05 -1.29697e-05
-3.5603e-05 0.000739553 5.2685e-06
-1.29697e-05 5.2685e-06 0.000685054
0.00101232 -0.000105835 7.87038e-06
-0.000105835 2.03435e-05 -3.41411e-06
7.87038e-06 -3.41411e-06 -8.25578e-05
0.00221457 -6.46404e-05 2.60248e-05
-6.46404e-05 0.000801178 -1.71948e-06
2.60248e-05 -1.71948e-06 0.00074711
0.00141799 -3.48395e-05 -0.000108146
-3.48395e-05 0.000426047 1.18325e-05
-0.000108146 1.18325e-05 0.000405713
0.00263547 3.7368e-05 -9.06138e-05
3.7368e-05 0.00110607 2.48853e-06
-9.06138e-05 2.48853e-06 0.00109112
0.00228722 -8.57361e-05 5.83253e-05
-8.57361e-05 0.00084867 -7.33084e-06
5.83253e-05 -7.33084e-06 0.000799032
0.00393731 9.14636e-05 9.89542e-05
9.14636e-05 0.00182032 -5.51439e-06
9.89542e-05 -5.51439e-06 0.00181194
0.00170049 0.000129734 -3.14593e-06
0.000129734 0.000120294 -7.76028e-07
-3.14593e-06 -7.76028e-07 -2.29499e-06
0.0016117 0.000155197 1.57663e-06
0.000155197 0.000173223 4.33781e-07
1.57663e-06 4.33781e-07 4.59774e-05
0.00174084 0.00015451 1.06643e-06
0.00015451 0.000173822 5.09779e-07
1.06643e-06 5.09779e-07 5.08123e-05
0.00118232 0.0001442 -4.12808e-06
0.0001442 7.2501e-05 -7.10122e-07
-4.12808e-06 -7.10122e-07 -6.00063e-05
0.00116086 0.000155055 -2.82321e-07
0.000155055 -1.00631e-05 7.29685e-07
-2.82321e-07 7.29685e-07 -0.000151435
0.00115877 0.000159421 1.81937e-06
0.000159421 7.32257e-05 1.31365e-06
1.81937e-06 1.31365e-06 -7.91967e-05
0.00111187 0.000138925 -3.20608e-07
0.000138925 0.000107201 -6.46944e-08
-3.20608e-07 -6.46944e-08 -2.36871e-05
0.000995936 0.000107489 -5.38299e-06
0.000107489 9.23316e-05 -2.9855e-06
-5.38299e-06 -2.9855e-06 -1.01412e-05
0.000945491 0.000120576 1.35452e-06
0.000120576 7.55093e-05 1.32386e-06
1.35452e-06 1.32386e-06 -4.49026e-05
0.00085592 8.25974e-05 -3.28433e-07
8.25974e-05 5.54728e-05 -7.11924e-08
-3.28433e-07 -7.11924e-08 -3.79447e-05
0.000769472 3.8786e-05 -8.53129e-06
3.8786e-05 3.92188e-05 -6.52098e-06
-8.53129e-06 -6.52098e-06 -1.16483e-05
0.000685646 4.33518e-05 1.54532e-06
4.33518e-05 -1.18727e-05 1.54691e-06
1.54532e-06 1.54691e-06 -9.75929e-05
0.000613189 -2.18918e-05 2.94999e-07
-2.18918e-05 -3.36438e-05 -2.40082e-07
2.94999e-07 -2.40082e-07 -7.67858e-05
0.00317563 -0.000104443 -7.30559e-05
-0.000104443 0.00139657 -2.72108e-06
-7.30559e-05 -2.72108e-06 0.00139315
0.000515646 -8.11191e-05 -1.33241e-06
-8.11191e-05 -7.35867e-05 5.8354e-06
-1.33241e-06 5.8354e-06 -0.000114358
0.0028257 -0.000106268 -1.5518e-06
-0.000106268 0.00119637 2.0132e-07
-1.5518e-06 2.0132e-07 0.00119616
0.00252621 -9.43844e-05 4.05875e-05
-9.43844e-05 0.00102748 2.30904e-06
4.05875e-05 2.30904e-06 0.00103135
0.00187982 6.71481e-05 -1.899e-06
6.71481e-05 8.50143e-05 9.86234e-07
-1.899e-06 9.86234e-07 -4.20868e-06
0.00175648 6.43038e-05 8.0481e-07
6.43038e-05 2.43365e-05 -1.38169e-07
8.0481e-07 -1.38169e-07 -5.8056e-05
0.00223327 2.08075e-05 -2.74471e-05
2.08075e-05 0.000348508 -4.13178e-06
-2.74471e-05 -4.13178e-06 0.000295522
0.00187656 0.00012039 4.75923e-09
0.00012039 0.000138673 1.16004e-06
4.75923e-09 1.16004e-06 2.71558e-05
0.00176266 0.000163641 -8.5661e-07
0.000163641 0.00013168 -4.50156e-07
-8.5661e-07 -4.50156e-07 5.89841e-06
0.00156949 0.000179503 -1.66818e-06
0.000179503 0.000195721 1.73225e-06
-1.66818e-06 1.73225e-06 6.49871e-05
0.00186415 0.000176381 8.86578e-07
0.000176381 0.00026992 -9.32609e-07
8.86578e-07 -9.32609e-07 0.000135637
0.00189662 0.000128834 2.44561e-07
0.000128834 0.000116737 -2.55541e-08
2.44561e-07 -2.55541e-08 1.15263e-05
0.00167165 0.000198924 8.13056e-07
0.000198924 4.69969e-05 -7.00226e-07
8.13056e-07 -7.00226e-07 -8.61978e-05
0.00174084 0.000132633 4.14408e-06
0.000132633 4.53985e-05 -1.27456e-06
4.14408e-06 -1.27456e-06 -5.98836e-05
0.00184779 1.41809e-05 1.17948e-06
1.41809e-05 9.15201e-05 3.41036e-07
1.17948e-06 3.41036e-07 -3.80064e-07
0.00188556 6.93684e-06 -3.30622e-07
6.93684e-06 9.1393e-05 -4.64668e-08
-3.30622e-07 -4.64668e-08 1.07623e-05
0.0018126 4.57885e-06 -2.13929e-06
4.57885e-06 4.47396e-05 -9.03354e-07
-2.13929e-06 -9.03354e-07 -2.36998e-05
0.00170909 -3.80191e-06 -1.13444e-07
-3.80191e-06 3.65827e-05 1.26601e-09
-1.13444e-07 1.26601e-09 -6.43324e-05
0.00187611 -4.55748e-05 -1.1156e-06
-4.55748e-05 8.53049e-05 1.447e-07
-1.1156e-06 1.447e-07 1.27915e-05
0.00185344 -2.9151e-05 -2.2821e-07
-2.9151e-05 0.000107498 3.67908e-07
-2.2821e-07 3.67908e-07 1.23886e-05
0.00187621 -2.4963e-05 9.10798e-07
-2.4963e-05 0.000165276 -7.31995e-07
9.10798e-07 -7.31995e-07 5.57763e-05
0.00178436 -6.77606e-05 -2.02522e-06
-6.77606e-05 0.000107722 3.03769e-07
-2.02522e-06 3.03769e-07 1.09468e-05
0.0017181 -4.65474e-05 8.3521e-08
-4.65474e-05 0.000107439 -1.99781e-07
8.3521e-08 -1.99781e-07 -6.72272e-06
0.00161039 -3.445e-05 -2.1994e-06
-3.445e-05 0.000103914 6.1102e-07
-2.1994e-06 6.1102e-07 -1.7897e-05
0.00162812 -6.53371e-05 -7.40746e-08
-6.53371e-05 9.01383e-05 -6.54184e-08
-7.40746e-08 -6.54184e-08 -2.55859e-05
0.00156067 -6.44577e-05 -4.648e-08
-6.44577e-05 9.79555e-05 7.44883e-08
-4.648e-08 7.44883e-08 -2.31434e-05
0.00143134 -6.87341e-05 -4.54238e-06
-6.87341e-05 8.03358e-05 1.3709e-06
-4.54238e-06 1.3709e-06 -3.80391e-05
0.00153897 -9.51712e-05 1.92967e-06
-9.51712e-05 0.000101181 -7.58077e-07
1.92967e-06 -7.58077e-07 -1.92584e-05
0.00140458 -9.09721e-05 -7.59172e-08
-9.09721e-05 8.025e-05 -2.04311e-08
-7.59172e-08 -2.04311e-08 -3.6839e-05
0.00113211 -7.51479e-05 -9.60285e-06
-7.51479e-05 1.74344e-05 2.77982e-06
-9.60285e-06 2.77982e-06 -8.20602e-05
0.00135755 -0.000107601 4.79085e-06
-0.000107601 7.28237e-05 -1.23299e-06
4.79085e-06 -1.23299e-06 -4.51126e-05
0.00110915 -8.67386e-05 2.46459e-07
-8.67386e-05 1.78412e-05 1.53197e-07
2.46459e-07 1.53197e-07 -8.15979e-05
0.00221658 -5.73069e-05 -2.01509e-05
-5.73069e-05 0.000773925 4.26763e-06
-2.01509e-05 4.26763e-06 0.000724721
0.00105532 -9.58523e-05 8.90266e-06
-9.58523e-05 9.71269e-06 -3.59889e-06
8.90266e-06 -3.59889e-06 -9.05967e-05
0.00227782 -7.72975e-05 2.32316e-05
-7.72975e-05 0.000817012 -2.01912e-06
2.32316e-05 -2.01912e-06 0.000767413
0.00152979 -3.27558e-05 -0.000108827
-3.27558e-05 0.000484569 1.10939e-05
-0.000108827 1.10939e-05 0.000463492
0.00239608 -9.95533e-05 6.64929e-05
-9.95533e-05 0.000889849 -9.7217e-06
6.64929e-05 -9.7217e-06 0.000840102
0.00137087 3.15811e-05 -5.5913e-05
3.15811e-05 0.000416192 3.45921e-06
-5.5913e-05 3.45921e-06 0.00038565
0.00403098 0.000226823 8.36412e-07
0.000226823 0.00190896 -3.21463e-06
8.36412e-07 -3.21463e-06 0.00187424
0.00170159 0.000101479 -6.43892e-07
0.000101479 0.000105124 5.18391e-07
-6.43892e-07 5.18391e-07 -1.46321e-05
0.00163002 0.000125062 -1.72069e-06
0.000125062 0.00013634 -1.01838e-06
-1.72069e-06 -1.01838e-06 1.32635e-05
0.0017582 0.000134021 -2.1863e-06
0.000134021 0.000155443 2.04829e-07
-2.1863e-06 2.04829e-07 3.31649e-05
0.00173542 0.000156206 -2.80594e-06
0.000156206 0.000306775 -4.8356e-08
-2.80594e-06 -4.8356e-08 0.00018147
0.00152586 0.000154514 5.14266e-07
0.000154514 0.000120879 -6.14385e-07
5.14266e-07 -6.14385e-07 -6.37781e-06
0.001474 0.000143923 5.46052e-06
0.000143923 3.36179e-05 5.23704e-07
5.46052e-06 5.23704e-07 -8.64864e-05
0.00100443 0.000114442 -7.45546e-06
0.000114442 4.07135e-05 -3.25039e-06
-7.45546e-06 -3.25039e-06 -6.66357e-05
0.00122093 0.000147195 -4.23119e-07
0.000147195 9.33856e-05 3.90928e-07
-4.23119e-07 3.90928e-07 -4e-05
0.00161838 0.000178593 3.28023e-06
0.000178593 0.00023246 8.70965e-08
3.28023e-06 8.70965e-08 8.8905e-05
0.00109196 0.000138294 2.96039e-06
0.000138294 9.73352e-05 1.68234e-06
2.96039e-06 1.68234e-06 -3.36783e-05
0.000924159 0.000102494 -3.99264e-07
0.000102494 5.35968e-05 -2.13011e-07
-3.99264e-07 -2.13011e-07 -4.81088e-05
0.000791109 8.73571e-05 -1.24318e-05
8.73571e-05 4.37766e-05 -7.67519e-06
-1.24318e-05 -7.67519e-06 -1.55488e-05
0.000741135 7.58632e-05 3.02373e-06
7.58632e-05 -6.42433e-06 1.89171e-06
3.02373e-06 1.89171e-06 -9.86126e-05
0.000659411 3.39605e-05 1.57604e-08
3.39605e-05 -1.40202e-05 -2.3607e-08
1.57604e-08 -2.3607e-08 -6.51515e-05
0.00355337 -9.0994e-05 -8.91241e-05
-9.0994e-05 0.00161647 -4.53494e-06
-8.91241e-05 -4.53494e-06 0.00160907
0.000545466 -3.30682e-05 2.57141e-06
-3.30682e-05 -6.81988e-05 5.91119e-06
2.57141e-06 5.91119e-06 -0.000110355
0.0031248 -0.000120449 -2.73404e-06
-0.000120449 0.00136922 3.33988e-07
-2.73404e-06 3.33988e-07 0.00136379
0.00277116 -0.000107355 4.64458e-05
-0.000107355 0.0011664 2.14436e-06
4.64458e-05 2.14436e-06 0.00116642
0.00178757 6.34103e-05 9.72137e-07
6.34103e-05 6.38669e-05 9.66621e-07
9.72137e-07 9.66621e-07 -3.5836e-05
0.00183177 6.91018e-05 -4.93225e-07
6.91018e-05 5.71602e-05 1.7953e-07
-4.93225e-07 1.7953e-07 -3.18148e-05
0.00174561 6.43326e-05 1.21993e-06
6.43326e-05 1.68482e-05 -1.66766e-06
1.21993e-06 -1.66766e-06 -6.5551e-05
0.00186621 0.000118895 5.74022e-07
0.000118895 0.000131259 -8.00546e-08
5.74022e-07 -8.00546e-08 2.05217e-05
0.00189282 0.000166518 8.04914e-08
0.000166518 0.000205655 -1.11772e-06
8.04914e-08 -1.11772e-06 7.99551e-05
0.00175755 0.000123658 2.41043e-06
0.000123658 4.15323e-05 -1.34678e-06
2.41043e-06 -1.34678e-06 -6.45754e-05
0.00184238 1.65891e-05 3.04881e-07
1.65891e-05 0.000108654 3.28422e-07
3.04881e-07 3.28422e-07 8.5092e-06
0.00186991 1.5654e-05 3.55929e-07
1.5654e-05 0.000103379 -1.71377e-07
3.55929e-07 -1.71377e-07 1.05929e-05
0.00183384 8.2082e-06 8.01132e-07
8.2082e-06 6.25304e-05 -1.88962e-07
8.01132e-07 -1.88962e-07 -1.95899e-05
0.00178113 -1.09421e-05 -1.03691e-06
-1.09421e-05 7.49461e-05 1.45845e-07
-1.03691e-06 1.45845e-07 -2.49708e-05
0.00175137 -1.09112e-05 1.24895e-06
-1.09112e-05 9.14293e-05 -4.76909e-07
1.24895e-06 -4.76909e-07 -1.83992e-05
0.00185323 -2.93659e-05 -8.72408e-07
-2.93659e-05 0.000107641 6.06726e-07
-8.72408e-07 6.06726e-07 1.2444e-05
0.001794 -2.49558e-05 -1.16685e-07
-2.49558e-05 0.000120613 2.20622e-07
-1.16685e-07 2.20622e-07 9.30686e-06
0.00165812 -1.46145e-05 -6.65659e-08
-1.46145e-05 0.000109168 -3.86565e-07
-6.65659e-08 -3.86565e-07 -1.08469e-05
0.00169851 -4.70352e-05 -5.60327e-08
-4.70352e-05 9.55972e-05 1.84666e-07
-5.60327e-08 1.84666e-07 -1.84986e-05
0.001589 -3.57503e-05 -5.70373e-07
-3.57503e-05 9.07781e-05 2.55603e-07
-5.70373e-07 2.55603e-07 -3.10669e-05
0.00146953 -3.85638e-05 -5.55148e-06
-3.85638e-05 8.19801e-05 1.71961e-06
-5.55148e-06 1.71961e-06 -3.88817e-05
0.00154872 -6.42045e-05 1.52692e-06
-6.42045e-05 9.06633e-05 -6.41878e-07
1.52692e-06 -6.41878e-07 -3.03968e-05
0.00143028 -6.75215e-05 8.22002e-08
-6.75215e-05 7.94615e-05 -7.73855e-08
8.22002e-08 -7.73855e-08 -3.87986e-05
0.00113632 -5.70746e-05 -9.52979e-06
-5.70746e-05 7.20294e-06 2.47258e-06
-9.52979e-06 2.47258e-06 -9.29906e-05
0.00140749 -9.01498e-05 4.60899e-06
-9.01498e-05 8.14595e-05 -1.27532e-06
4.60899e-06 -1.27532e-06 -3.55288e-05
0.00113811 -7.30535e-05 2.08065e-08
-7.30535e-05 1.94182e-05 9.16082e-08
2.08065e-08 9.16082e-08 -7.97032e-05
0.00225068 -6.09356e-05 -2.35929e-05
-6.09356e-05 0.000782192 3.38292e-06
-2.35929e-05 3.38292e-06 0.000734178
0.00110239 -8.49117e-05 9.53193e-06
-8.49117e-05 1.28885e-05 -3.15423e-06
9.53193e-06 -3.15423e-06 -8.61936e-05
0.00231397 -7.7238e-05 2.22029e-05
-7.7238e-05 0.000823235 -1.74038e-06
2.22029e-05 -1.74038e-06 0.000776014
0.00162017 -3.02394e-05 -0.000110284
-3.02394e-05 0.000526349 9.61086e-06
-0.000110284 9.61086e-06 0.000505839
0.00242247 -9.36967e-05 6.7909e-05
-9.36967e-05 0.000891027 -8.86529e-06
6.7909e-05 -8.86529e-06 0.000843412
0.00141856 1.91733e-05 -5.32612e-05
1.91733e-05 0.000434563 3.71123e-06
-5.32612e-05 3.71123e-06 0.000406828
0.00137913 8.73793e-05 2.34053e-06
8.73793e-05 0.000433574 -4.46262e-06
2.34053e-06 -4.46262e-06 0.000395024
0.00182259 6.12646e-05 7.17581e-07
6.12646e-05 0.000139574 1.15333e-06
7.17581e-07 1.15333e-06 3.09229e-05
0.00155242 9.28147e-05 -2.32662e-06
9.28147e-05 7.75259e-05 -4.30683e-07
-2.32662e-06 -4.30683e-07 -4.6079e-05
0.00172035 0.000103063 -1.1562e-06
0.000103063 0.000115016 -1.04072e-07
-1.1562e-06 -1.04072e-07 -3.68353e-06
0.0015903 0.00012591 -3.96528e-06
0.00012591 0.000178123 -1.16934e-06
-3.96528e-06 -1.16934e-06 5.93503e-05
0.00172006 0.000128703 1.02314e-06
0.000128703 0.000187131 3.86068e-07
1.02314e-06 3.86068e-07 6.40721e-05
0.00180321 0.000138018 3.43271e-06
0.000138018 0.000183919 6.51746e-07
3.43271e-06 6.51746e-07 6.18878e-05
0.00102541 0.000110837 -9.05598e-06
0.000110837 -2.3685e-06 -2.92686e-06
-9.05598e-06 -2.92686e-06 -0.000108623
0.00142832 0.000145713 2.57293e-06
0.000145713 0.000136636 6.32393e-07
2.57293e-06 6.32393e-07 1.03878e-05
0.00146099 0.000154719 2.73586e-06
0.000154719 7.87155e-05 -5.08909e-07
2.73586e-06 -5.08909e-07 -4.85414e-05
0.000731771 0.00011217 -1.60339e-05
0.00011217 -4.1925e-06 -7.96235e-06
-1.60339e-05 -7.96235e-06 -6.80656e-05
0.00100299 0.000113497 -6.89336e-07
0.000113497 4.03017e-05 1.22659e-07
-6.89336e-07 1.22659e-07 -6.67924e-05
0.00125942 0.000150113 4.58565e-06
0.000150113 0.00011423 2.03161e-06
4.58565e-06 2.03161e-06 -2.00259e-05
0.000869549 9.83777e-05 4.81358e-06
9.83777e-05 2.45657e-05 2.77629e-06
4.81358e-06 2.77629e-06 -7.65184e-05
0.000661635 7.7856e-05 -1.66843e-07
7.7856e-05 -2.07437e-05 6.76329e-08
-1.66843e-07 6.76329e-08 -7.95958e-05
0.00409844 -7.82895e-05 -0.000100928
-7.82895e-05 0.00192705 -7.45496e-06
-0.000100928 -7.45496e-06 0.00191278
0.0005652 2.5495e-05 5.97031e-06
2.5495e-05 -6.12176e-05 6.50804e-06
5.97031e-06 6.50804e-06 -0.000111125
0.00346477 -0.000125552 -5.47538e-06
-0.000125552 0.00156919 3.77557e-07
-5.47538e-06 3.77557e-07 0.00155891
0.00305629 -0.000122901 5.37063e-05
-0.000122901 0.0013303 2.10054e-06
5.37063e-05 2.10054e-06 0.00132504
0.00179464 4.34356e-05 5.76862e-07
4.34356e-05 8.87896e-05 1.45604e-07
5.76862e-07 1.45604e-07 -1.41522e-05
0.00179094 6.26862e-05 -9.55808e-08
6.26862e-05 6.59761e-05 2.81234e-07
-9.55808e-08 2.81234e-07 -3.32792e-05
0.00177055 7.05437e-05 3.26048e-06
7.05437e-05 2.33356e-05 -6.7955e-07
3.26048e-06 -6.7955e-07 -6.54007e-05
0.00185395 0.000117244 8.19618e-07
0.000117244 0.000122613 -1.12958e-06
8.19618e-07 -1.12958e-06 1.26653e-05
0.00176598 -3.356e-06 9.72315e-07
-3.356e-06 9.4501e-05 2.07882e-08
9.72315e-07 2.07882e-08 -1.58e-05
0.00187641 1.34475e-05 -9.84853e-08
1.34475e-05 0.000125088 -8.26231e-08
-9.84853e-08 -8.26231e-08 2.50331e-05
0.00188899 1.65863e-05 -7.19832e-07
1.65863e-05 0.000113736 -4.75353e-08
-7.19832e-07 -4.75353e-08 2.00737e-05
0.00186104 -1.48174e-05 -2.35263e-06
-1.48174e-05 0.000117771 -8.92002e-08
-2.35263e-06 -8.92002e-08 1.88361e-05
0.00174718 -5.07612e-06 -6.74322e-07
-5.07612e-06 8.87256e-05 -8.96577e-08
-6.74322e-07 -8.96577e-08 -2.0395e-05
0.0017955 -1.88395e-07 5.65528e-07
-1.88395e-07 0.000173806 -3.44534e-07
5.65528e-07 -3.44534e-07 5.58381e-05
0.00171138 -2.5e-05 -6.98142e-07
-2.5e-05 7.5663e-05 9.32716e-07
-6.98142e-07 9.32716e-07 -3.7444e-05
0.00166862 -1.40877e-05 6.68113e-07
-1.40877e-05 0.000114844 -9.23709e-08
6.68113e-07 -9.23709e-08 -6.04235e-06
0.00136897 -1.17233e-05 -4.34326e-06
-1.17233e-05 9.34211e-06 6.69285e-07
-4.34326e-06 6.69285e-07 -0.000112983
0.00155519 -3.54446e-05 7.11753e-07
-3.54446e-05 7.132e-05 -7.67438e-08
7.11753e-07 -7.67438e-08 -5.05263e-05
0.00144706 -3.57389e-05 -5.34112e-07
-3.57389e-05 7.02789e-05 3.42601e-07
-5.34112e-07 3.42601e-07 -5.03694e-05
0.00117195 -3.49575e-05 -9.78958e-06
-3.49575e-05 9.42622e-06 2.40906e-06
-9.78958e-06 2.40906e-06 -9.33871e-05
0.00142416 -6.42477e-05 4.32908e-06
-6.42477e-05 7.59341e-05 -1.46963e-06
4.32908e-06 -1.46963e-06 -4.20909e-05
0.00115621 -5.68086e-05 -2.25548e-08
-5.68086e-05 1.6838e-05 1.47551e-08
-2.25548e-08 1.47551e-08 -8.32332e-05
0.000686629 -4.0827e-05 -1.45753e-05
-4.0827e-05 -8.59267e-05 3.61352e-06
-1.45753e-05 3.61352e-06 -0.000142966
0.00114604 -7.11512e-05 9.649e-06
-7.11512e-05 2.23115e-05 -2.70326e-06
9.649e-06 -2.70326e-06 -7.64287e-05
0.00150542 -5.74795e-05 2.782e-05
-5.74795e-05 0.000369646 -1.3914e-06
2.782e-05 -1.3914e-06 0.00031938
0.00480375 -5.65594e-05 -0.000132726
-5.65594e-05 0.0022728 6.08047e-06
-0.000132726 6.08047e-06 0.00226984
0.00241851 -7.88965e-05 6.86986e-05
-7.88965e-05 0.0008764 -7.37226e-06
6.86986e-05 -7.37226e-06 0.000831041
0.00145919 -3.73455e-06 -4.75725e-05
-3.73455e-06 0.000444125 3.43736e-06
-4.75725e-05 3.43736e-06 0.000420187
0.00134759 2.06916e-05 1.50155e-05
2.06916e-05 0.000397394 -3.26176e-06
1.50155e-05 -3.26176e-06 0.000368894
0.0018454 4.12486e-05 9.37085e-07
4.12486e-05 0.000154799 4.42673e-07
9.37085e-07 4.42673e-07 4.78429e-05
0.00162758 5.75671e-05 -1.05723e-06
5.75671e-05 0.0001031 7.54083e-07
-1.05723e-06 7.54083e-07 -1.5035e-05
0.00184163 5.88903e-05 -1.10923e-08
5.88903e-05 0.000151822 -7.29699e-08
-1.10923e-08 -7.29699e-08 4.26388e-05
0.00116238 8.74844e-05 -5.34104e-06
8.74844e-05 -7.95421e-05 -1.58305e-06
-5.34104e-06 -1.58305e-06 -0.000199927
0.00165783 9.57095e-05 -9.6669e-08
9.57095e-05 0.000136027 -2.44665e-08
-9.6669e-08 -2.44665e-08 1.35535e-05
0.00174367 0.000105043 -6.2297e-07
0.000105043 0.000127565 -8.47497e-07
-6.2297e-07 -8.47497e-07 9.90041e-06
0.000668623 8.22588e-05 -1.13689e-05
8.22588e-05 -0.000236287 -3.19014e-06
-1.13689e-05 -3.19014e-06 -0.000340529
0.00163706 0.000129481 1.21357e-06
0.000129481 0.000204134 1.94434e-07
1.21357e-06 1.94434e-07 8.46835e-05
0.00182673 0.000133084 3.67798e-06
0.000133084 0.000247024 1.07867e-06
3.67798e-06 1.07867e-06 0.000123925
0.000667631 0.000108161 -1.62804e-05
0.000108161 -6.35967e-05 -6.79448e-06
-1.62804e-05 -6.79448e-06 -0.000126005
0.000818443 0.000102586 1.04424e-07
0.000102586 -0.000117136 3.36489e-07
1.04424e-07 3.36489e-07 -0.000224209
0.00111548 0.000134953 6.95981e-06
0.000134953 -3.66336e-05 1.61248e-06
6.95981e-06 1.61248e-06 -0.000163795
0.00462132 -8.41648e-05 -0.000103995
-8.41648e-05 0.00221791 -9.41634e-06
-0.000103995 -9.41634e-06 0.00219647
0.000648669 0.000101894 8.89703e-07
0.000101894 -4.67667e-05 1.92019e-07
8.89703e-07 1.92019e-07 -0.000109823
0.000987806 0.000111864 6.90838e-06
0.000111864 3.2816e-05 3.73538e-06
6.90838e-06 3.73538e-06 -7.40134e-05
0.00053713 6.89231e-05 9.45163e-06
6.89231e-05 -8.36736e-05 7.38837e-06
9.45163e-06 7.38837e-06 -0.000142004
0.0038768 -0.000115731 -7.5798e-06
-0.000115731 0.00180792 4.31107e-07
-7.5798e-06 4.31107e-07 0.0017927
0.00333506 -0.000140248 6.10634e-05
-0.000140248 0.00149782 2.20697e-06
6.10634e-05 2.20697e-06 0.00148591
0.00180631 2.25829e-05 -3.99484e-07
2.25829e-05 0.000116813 -1.16559e-07
-3.99484e-07 -1.16559e-07 7.6345e-06
0.00180566 4.27355e-05 -2.03317e-07
4.27355e-05 9.11709e-05 1.601e-07
-2.03317e-07 1.601e-07 -1.15612e-05
0.00179877 6.24654e-05 -6.01363e-08
6.24654e-05 7.04739e-05 -5.15417e-07
-6.01363e-08 -5.15417e-07 -2.83478e-05
0.00174555 7.96158e-06 5.589e-07
7.96158e-06 0.000139198 -2.67494e-07
5.589e-07 -2.67494e-07 2.08538e-05
0.0017567 6.24281e-08 -1.4609e-07
6.24281e-08 9.21634e-05 4.4018e-08
-1.4609e-07 4.4018e-08 -1.73389e-05
0.00190672 7.76457e-06 -1.24704e-06
7.76457e-06 0.000139431 -1.7694e-08
-1.24704e-06 -1.7694e-08 3.94764e-05
0.00173448 -5.60905e-07 -1.65389e-06
-5.60905e-07 8.12074e-05 5.66319e-07
-1.65389e-06 5.66319e-07 -2.71826e-05
0.00178366 2.3622e-06 1.02506e-06
2.3622e-06 0.000167033 -2.13375e-07
1.02506e-06 -2.13375e-07 4.90462e-05
0.00176277 9.16365e-07 -2.89017e-06
9.16365e-07 0.000213211 8.11588e-08
-2.89017e-06 8.11588e-08 9.44921e-05
0.00169 -1.34982e-05 1.67522e-06
-1.34982e-05 0.000126286 1.54824e-08
1.67522e-06 1.54824e-08 4.53864e-06
0.00160885 -9.92675e-06 2.69559e-09
-9.92675e-06 0.000141018 6.35505e-08
2.69559e-09 6.35505e-08 2.0342e-05
0.000833137 -1.18335e-05 -1.18584e-05
-1.18335e-05 -0.000195562 2.10545e-06
-1.18584e-05 2.10545e-06 -0.000304276
0.00143791 -3.52055e-05 3.84818e-06
-3.52055e-05 6.55257e-05 -9.72455e-07
3.84818e-06 -9.72455e-07 -5.50205e-05
0.00117275 -3.23503e-05 4.42834e-08
-3.23503e-05 9.144e-06 5.35084e-08
4.42834e-08 5.35084e-08 -9.34776e-05
0.000689087 -1.93135e-05 -1.44959e-05
-1.93135e-05 -9.48756e-05 2.78782e-06
-1.44959e-05 2.78782e-06 -0.000154286
0.0011767 -5.53333e-05 9.85511e-06
-5.53333e-05 2.66941e-05 -2.53336e-06
9.85511e-06 -2.53336e-06 -7.31469e-05
0.000689995 -2.83374e-05 -2.22655e-07
-2.83374e-05 -8.50303e-05 1.13586e-07
-2.22655e-07 1.13586e-07 -0.000142007
0.00483313 -4.2288e-05 -0.000129685
-4.2288e-05 0.0022867 4.54656e-06
-0.000129685 4.54656e-06 0.00228417
0.000732346 -4.96661e-05 1.53595e-05
-4.96661e-05 -5.71115e-05 -5.31654e-06
1.53595e-05 -5.31654e-06 -0.000113673
0.00311362 -3.22719e-05 5.45907e-05
-3.22719e-05 0.00134604 -2.11003e-08
5.45907e-05 -2.11003e-08 0.00133106
0.00129003 -1.31261e-05 2.1653e-05
-1.31261e-05 0.000357529 -2.9597e-06
2.1653e-05 -2.9597e-06 0.000330453
0.0018339 2.9064e-05 9.27197e-08
2.9064e-05 0.000166483 4.37151e-08
9.27197e-08 4.37151e-08 5.70613e-05
0.00162694 3.19077e-05 -7.10255e-07
3.19077e-05 0.000100933 6.44989e-07
-7.10255e-07 6.44989e-07 -1.44771e-05
0.00180781 3.91391e-05 -3.57825e-07
3.91391e-05 0.000134443 -1.90829e-07
-3.57825e-07 -1.90829e-07 2.75307e-05
0.00141616 6.1574e-05 -4.33273e-06
6.1574e-05 4.82514e-05 -3.90971e-07
-4.33273e-06 -3.90971e-07 -6.87255e-05
0.00157821 5.57752e-05 3.92037e-07
5.57752e-05 7.56985e-05 1.60457e-07
3.92037e-07 1.60457e-07 -4.31653e-05
0.0018609 5.62471e-05 -1.03443e-06
5.62471e-05 0.000164035 -1.00606e-06
-1.03443e-06 -1.00606e-06 5.43339e-05
0.000700562 6.61784e-05 -1.15053e-05
6.61784e-05 -0.000240237 -3.04672e-06
-1.15053e-05 -3.04672e-06 -0.000343284
0.00151855 9.82801e-05 -1.44921e-06
9.82801e-05 0.000115122 -3.70127e-07
-1.44921e-06 -3.70127e-07 -3.71856e-06
0.00176308 9.84084e-05 2.53729e-06
9.84084e-05 0.00019435 1.014e-07
2.53729e-06 1.014e-07 7.30365e-05
0.000637917 8.04052e-05 -1.52702e-05
8.04052e-05 -9.92104e-05 -5.45191e-06
-1.52702e-05 -5.45191e-06 -0.000159063
0.000674991 8.33036e-05 -2.53946e-06
8.33036e-05 -0.000233 -6.15587e-07
-2.53946e-06 -6.15587e-07 -0.000337703
0.00168067 0.000132973 6.57169e-06
0.000132973 0.000228426 1.39625e-06
6.57169e-06 1.39625e-06 0.000108312
0.00489991 -3.01196e-05 -0.000117054
-3.01196e-05 0.00234533 -8.04676e-06
-0.000117054 -8.04676e-06 0.00233421
0.000624769 9.79557e-05 8.8568e-07
9.79557e-05 -8.45912e-05 3.7223e-07
8.8568e-07 3.7223e-07 -0.000147694
0.000605936 9.41836e-05 8.91252e-06
9.41836e-05 -0.000234897 3.39482e-06
8.91252e-06 3.39482e-06 -0.000342796
0.00437129 -6.84361e-05 5.4726e-07
-6.84361e-05 0.00207301 -1.19009e-07
5.4726e-07 -1.19009e-07 0.00205899
0.000526871 9.28141e-05 1.29255e-05
9.28141e-05 -0.00010949 7.77036e-06
1.29255e-05 7.77036e-06 -0.000172003
0.00367297 -0.000146109 7.16462e-05
-0.000146109 0.00169875 3.41163e-06
7.16462e-05 3.41163e-06 0.00168152
0.00178216 1.842e-05 -4.28288e-07
1.842e-05 0.000157376 -2.63665e-07
-4.28288e-07 -2.63665e-07 4.16778e-05
0.00177196 2.15858e-05 -8.0574e-08
2.15858e-05 0.000101852 6.18125e-08
-8.0574e-08 6.18125e-08 -7.80434e-06
0.00181641 4.19867e-05 -8.07225e-07
4.19867e-05 9.32225e-05 -1.13043e-07
-8.07225e-07 -1.13043e-07 -9.29889e-06
0.00173937 -1.69675e-06 -3.14591e-06
-1.69675e-06 0.000201127 -1.42942e-07
-3.14591e-06 -1.42942e-07 8.39372e-05
0.00177049 7.29243e-06 7.155e-07
7.29243e-06 0.000152947 -1.00472e-08
7.155e-07 -1.00472e-08 3.55295e-05
0.00176042 5.68839e-06 1.48165e-07
5.68839e-06 9.67875e-05 1.52848e-08
1.48165e-07 1.52848e-08 -1.19578e-05
0.00177197 3.76747e-06 1.05899e-06
3.76747e-06 0.00016034 2.18463e-07
1.05899e-06 2.18463e-07 4.23383e-05
0.00176245 1.28806e-06 1.52823e-06
1.28806e-06 0.000213158 -1.84747e-07
1.52823e-06 -1.84747e-07 9.43805e-05
0.000841274 -3.02514e-06 -1.13355e-05
-3.02514e-06 -0.000201561 8.44332e-07
-1.13355e-05 8.44332e-07 -0.000311113
0.00184592 -8.31501e-06 5.39912e-06
-8.31501e-06 0.000271343 -7.63312e-07
5.39912e-06 -7.63312e-07 0.000152306
0.00102173 -1.02289e-05 -2.39731e-06
-1.02289e-05 -9.17369e-05 5.26645e-07
-2.39731e-06 5.26645e-07 -0.000198756
0.000708694 -7.27892e-06 -1.50447e-05
-7.27892e-06 -9.71788e-05 2.08044e-06
-1.50447e-05 2.08044e-06 -0.000159575
0.00118302 -3.12134e-05 9.80296e-06
-3.12134e-05 1.3861e-05 -2.33551e-06
9.80296e-06 -2.33551e-06 -8.86435e-05
0.000701068 -1.43754e-05 2.73759e-07
-1.43754e-05 -8.94628e-05 -3.45536e-08
2.73759e-07 -3.45536e-08 -0.000148749
0.00494188 -2.87534e-05 -0.000129831
-2.87534e-05 0.00234231 3.03116e-06
-0.000129831 3.03116e-06 0.00233999
0.000684134 -2.13853e-05 1.37065e-05
-2.13853e-05 -8.94041e-05 -3.1767e-06
1.37065e-05 -3.1767e-06 -0.000145942
0.00485823 -8.04422e-06 7.01725e-06
-8.04422e-06 0.00229963 1.53434e-07
7.01725e-06 1.53434e-07 0.00229706
0.00148974 -1.59865e-05 0.000113556
-1.59865e-05 0.000453223 -5.04942e-06
0.000113556 -5.04942e-06 0.000434438
0.00180583 2.18622e-05 -4.67703e-07
2.18622e-05 0.00019737 -1.80676e-07
-4.67703e-07 -1.80676e-07 8.39161e-05
0.00175249 3.19263e-05 -3.09822e-07
3.19263e-05 0.000120922 1.7164e-07
-3.09822e-07 1.7164e-07 1.18348e-05
0.00144134 3.0697e-05 -3.79573e-06
3.0697e-05 5.67242e-05 -3.30663e-07
-3.79573e-06 -3.30663e-07 -5.77433e-05
0.00159121 3.12031e-05 3.97067e-07
3.12031e-05 8.18422e-05 -1.33395e-08
3.97067e-07 -1.33395e-08 -3.3654e-05
0.00176802 3.70817e-05 -3.31655e-07
3.70817e-05 0.000112996 -7.71914e-07
-3.31655e-07 -7.71914e-07 6.13075e-06
0.00117534 5.40266e-05 -9.87244e-06
5.40266e-05 7.9556e-06 -1.87464e-06
-9.87244e-06 -1.87464e-06 -9.16495e-05
0.00144244 6.21315e-05 -5.08389e-08
6.21315e-05 6.11536e-05 2.72256e-07
-5.08389e-08 2.72256e-07 -5.58086e-05
0.00152681 5.39751e-05 8.38605e-07
5.39751e-05 4.7296e-05 -2.4932e-07
8.38605e-07 -2.4932e-07 -7.23102e-05
0.000655282 5.57936e-05 -1.49404e-05
5.57936e-05 -0.000104812 -4.17713e-06
-1.49404e-05 -4.17713e-06 -0.000162617
0.000921831 7.35815e-05 -2.95215e-06
7.35815e-05 -0.000118509 -5.34231e-07
-2.95215e-06 -5.34231e-07 -0.000220785
0.0018824 0.000109282 4.76165e-06
0.000109282 0.000313983 9.96387e-07
4.76165e-06 9.96387e-07 0.000196666
0.00497456 3.77808e-05 -0.000134414
3.77808e-05 0.00236675 -6.96236e-06
-0.000134414 -6.96236e-06 0.00236323
0.000628418 7.58922e-05 1.34963e-07
7.58922e-05 -0.000103933 1.51694e-07
1.34963e-07 1.51694e-07 -0.000164081
0.000683056 8.4641e-05 6.78865e-06
8.4641e-05 -0.000228877 2.11549e-06
6.78865e-06 2.11549e-06 -0.000334064
0.00473083 -1.2241e-05 8.8966e-06
-1.2241e-05 0.00225551 1.89741e-07
8.8966e-06 1.89741e-07 0.00224466
0.000573901 8.71804e-05 1.39876e-05
8.71804e-05 -0.000110397 7.05442e-06
1.39876e-05 7.05442e-06 -0.000173857
0.00412482 -0.000108536 8.66086e-05
-0.000108536 0.00194399 5.62251e-06
8.66086e-05 5.62251e-06 0.00192841
0.00174134 1.58595e-05 -2.84667e-06
1.58595e-05 0.000206895 -6.03961e-07
-2.84667e-06 -6.03961e-07 9.20578e-05
0.00177751 1.48286e-05 9.25596e-08
1.48286e-05 0.00015703 9.9888e-08
9.25596e-08 9.9888e-08 4.10249e-05
0.00173785 2.02935e-05 -8.03956e-08
2.02935e-05 8.7447e-05 3.59099e-07
-8.03956e-08 3.59099e-07 -2.2676e-05
0.000836248 -1.08703e-05 -1.1844e-05
-1.08703e-05 -0.000202835 -7.76091e-08
-1.1844e-05 -7.76091e-08 -0.000311307
0.00176159 5.02121e-06 1.58197e-06
5.02121e-06 0.000213419 -4.34472e-08
1.58197e-06 -4.34472e-08 9.61589e-05
0.00178933 6.78159e-06 1.53199e-06
6.78159e-06 0.000163589 1.01335e-07
1.53199e-06 1.01335e-07 4.71134e-05
0.001764 1.42825e-06 5.78194e-06
1.42825e-06 0.000214154 -1.95252e-07
5.78194e-06 -1.95252e-07 9.53097e-05
0.000835456 -3.29594e-06 -1.8286e-06
-3.29594e-06 -0.000204818 2.22584e-07
-1.8286e-06 2.22584e-07 -0.000314386
0.00074454 -6.24891e-06 -1.54899e-05
-6.24891e-06 -8.65207e-05 8.21194e-07
-1.54899e-05 8.21194e-07 -0.000150161
0.0011977 -7.80641e-06 7.90067e-06
-7.80641e-06 5.2661e-06 -1.28289e-06
7.90067e-06 -1.28289e-06 -0.000100049
0.000715338 2.08676e-06 2.03122e-07
2.08676e-06 -9.4576e-05 1.65161e-07
2.03122e-07 1.65161e-07 -0.00015683
0.00514727 -5.2566e-05 -0.000135774
-5.2566e-05 0.00245186 1.90001e-06
-0.000135774 1.90001e-06 0.00244748
0.000721778 -2.10439e-06 1.42979e-05
-2.10439e-06 -7.94555e-05 -2.40321e-06
1.42979e-05 -2.40321e-06 -0.000138636
0.00500876 2.01563e-05 6.46317e-06
2.01563e-05 0.00237919 2.31238e-07
6.46317e-06 2.31238e-07 0.00237552
0.00488558 -4.03735e-05 0.000139857
-4.03735e-05 0.00231317 -3.57105e-06
0.000139857 -3.57105e-06 0.0023111
0.00150373 1.87814e-05 -3.84897e-06
1.87814e-05 8.79453e-05 -9.85973e-07
-3.84897e-06 -9.85973e-07 -2.64301e-05
0.00168675 2.29742e-05 4.97164e-07
2.29742e-05 0.000131914 1.68873e-08
4.97164e-07 1.68873e-08 1.88178e-05
0.00167127 3.4944e-05 -4.30149e-07
3.4944e-05 7.54247e-05 2.45569e-07
-4.30149e-07 2.45569e-07 -3.33293e-05
0.00118011 2.56145e-05 -9.56603e-06
2.56145e-05 4.32098e-06 -1.57136e-06
-9.56603e-06 -1.57136e-06 -9.48952e-05
0.00145809 3.09524e-05 2.32876e-07
3.09524e-05 6.48791e-05 -3.64024e-08
2.32876e-07 -3.64024e-08 -4.96903e-05
0.00155033 3.0463e-05 6.34404e-07
3.0463e-05 6.009e-05 -8.2839e-07
6.34404e-07 -8.2839e-07 -5.55043e-05
0.000681199 3.36876e-05 -1.44712e-05
3.36876e-05 -0.000101085 -3.14516e-06
-1.44712e-05 -3.14516e-06 -0.000158922
0.00117168 5.54107e-05 2.92582e-08
5.54107e-05 6.33277e-06 2.33482e-07
2.92582e-08 2.33482e-07 -9.35696e-05
0.00146791 6.26366e-05 4.59494e-06
6.26366e-05 7.35983e-05 9.92294e-07
4.59494e-06 9.92294e-07 -4.33485e-05
0.00498748 6.20773e-05 -0.000145675
6.20773e-05 0.00236718 -5.99978e-06
-0.000145675 -5.99978e-06 0.00236489
0.000661196 5.58992e-05 7.23169e-08
5.58992e-05 -0.000101343 1.00285e-07
7.23169e-08 1.00285e-07 -0.000159283
0.00113207 8.08384e-05 7.19931e-06
8.08384e-05 -2.75997e-06 2.06585e-06
7.19931e-06 2.06585e-06 -0.000104239
0.0048962 4.77435e-05 5.14516e-06
4.77435e-05 0.0023287 9.00354e-07
5.14516e-06 9.00354e-07 0.00232367
0.000622782 7.18996e-05 1.42152e-05
7.18996e-05 -0.000106685 5.48543e-06
1.42152e-05 5.48543e-06 -0.00016687
0.00459278 2.02242e-08 0.000115281
2.02242e-08 0.00217531 6.84994e-06
0.000115281 6.84994e-06 0.0021692
0.00123471 7.73117e-06 -1.0484e-05
7.73117e-06 1.88605e-05 -6.38208e-07
-1.0484e-05 -6.38208e-07 -8.52613e-05
0.00156206 1.1015e-05 1.71404e-06
1.1015e-05 0.00010784 2.30737e-08
1.71404e-06 2.30737e-08 -8.76755e-06
0.00177056 1.01298e-05 1.12739e-06
1.01298e-05 0.00015516 6.60127e-07
1.12739e-06 6.60127e-07 3.88449e-05
0.00072801 1.91428e-05 -1.58333e-05
1.91428e-05 -0.000100544 -2.62227e-07
-1.58333e-05 -2.62227e-07 -0.000160831
0.000834037 -4.55536e-06 -1.99302e-06
-4.55536e-06 -0.000204712 4.77646e-08
-1.99302e-06 4.77646e-08 -0.000313283
0.00178371 1.15462e-05 6.30189e-06
1.15462e-05 0.000225615 7.23416e-09
6.30189e-06 7.23416e-09 0.000108284
0.000828626 -3.1013e-06 7.55948e-06
-3.1013e-06 -0.000208659 -3.48616e-07
7.55948e-06 -3.48616e-07 -0.000318231
0.000714486 2.87223e-06 6.64988e-08
2.87223e-06 -0.000102952 3.08018e-07
6.64988e-08 3.08018e-07 -0.000166437
0.00528024 5.41884e-05 -0.000142184
5.41884e-05 0.00251883 -5.57761e-07
-0.000142184 -5.57761e-07 0.00251549
0.000702791 1.11513e-05 1.46186e-05
1.11513e-05 -0.000101951 -1.33444e-06
1.46186e-05 -1.33444e-06 -0.000164147
0.00518513 -3.05234e-05 -1.84981e-06
-3.05234e-05 0.00246896 8.62361e-07
-1.84981e-06 8.62361e-07 0.00246589
0.00505498 4.00987e-05 0.000136077
4.00987e-05 0.00240077 -1.42965e-06
0.000136077 -1.42965e-06 0.00239823
0.00120964 1.24694e-05 -1.01558e-05
1.24694e-05 1.34483e-05 -1.66626e-06
-1.01558e-05 -1.66626e-06 -8.78207e-05
0.0014091 1.70792e-05 3.3129e-08
1.70792e-05 3.4755e-05 -1.88889e-07
3.3129e-08 -1.88889e-07 -8.00057e-05
0.00157121 2.40173e-05 8.63081e-07
2.40173e-05 6.83704e-05 -1.44574e-07
8.63081e-07 -1.44574e-07 -4.43751e-05
0.00250832 1.5603e-05 -7.55597e-05
1.5603e-05 0.000893909 -2.11854e-06
-7.55597e-05 -2.11854e-06 0.000849543
0.00118749 2.75374e-05 1.57527e-07
2.75374e-05 8.08631e-06 6.67655e-08
1.57527e-07 6.67655e-08 -9.13455e-05
0.00147644 3.10919e-05 4.30747e-06
3.10919e-05 7.38851e-05 2.8256e-07
4.30747e-06 2.8256e-07 -4.07863e-05
0.0049999 6.37271e-05 -0.000150525
6.37271e-05 0.00237218 -4.57082e-06
-0.000150525 -4.57082e-06 0.00236937
0.000703659 3.61243e-05 1.63865e-07
3.61243e-05 -8.82026e-05 1.3799e-07
1.63865e-07 1.3799e-07 -0.000146262
0.00117432 5.69204e-05 9.90722e-06
5.69204e-05 7.92308e-06 2.30478e-06
9.90722e-06 2.30478e-06 -9.22552e-05
0.00495504 7.33587e-05 9.3222e-07
7.33587e-05 0.00235346 9.13335e-07
9.3222e-07 9.13335e-07 0.0023499
0.000669377 5.58445e-05 1.44578e-05
5.58445e-05 -9.63167e-05 4.4194e-06
1.44578e-05 4.4194e-06 -0.0001544
0.00481909 6.25509e-05 0.000132292
6.25509e-05 0.00228801 7.65143e-06
0.000132292 7.65143e-06 0.00228329
0.000764509 7.94151e-06 -1.57811e-05
7.94151e-06 -7.53639e-05 -1.61205e-06
-1.57811e-05 -1.61205e-06 -0.000138042
0.00104113 4.99265e-06 4.65778e-07
4.99265e-06 -8.68176e-05 4.288e-07
4.65778e-07 4.288e-07 -0.000192279
0.00137636 6.06662e-06 5.64133e-06
6.06662e-06 5.253e-06 6.48281e-07
5.64133e-06 6.48281e-07 -0.000113087
0.00529371 -7.75476e-05 -0.00013247
-7.75476e-05 0.00253621 -1.98267e-06
-0.00013247 -1.98267e-06 0.00252611
0.00072449 9.4679e-06 -1.81913e-07
9.4679e-06 -9.95697e-05 2.24921e-07
-1.81913e-07 2.24921e-07 -0.000161541
0.000841163 1.39992e-06 7.77701e-06
1.39992e-06 -0.000201633 9.51094e-08
7.77701e-06 9.51094e-08 -0.000310295
0.000703307 1.54397e-05 1.49719e-05
1.54397e-05 -0.000109186 -1.37466e-08
1.49719e-05 -1.37466e-08 -0.000172688
0.00530659 3.53405e-05 4.92704e-06
3.53405e-05 0.00253657 4.41978e-07
4.92704e-06 4.41978e-07 0.0025303
0.00526135 7.84191e-05 0.000137617
7.84191e-05 0.0025109 -4.54875e-08
0.000137617 -4.54875e-08 0.00250569
0.0025902 -5.22047e-06 -7.76178e-05
-5.22047e-06 0.000930277 -1.87653e-06
-7.76178e-05 -1.87653e-06 0.000884138
0.00121942 1.47097e-05 -7.36401e-08
1.47097e-05 1.85171e-05 -2.78996e-08
-7.36401e-08 -2.78996e-08 -8.27493e-05
0.00131428 1.55204e-05 4.03473e-06
1.55204e-05 -1.85734e-05 5.62131e-07
4.03473e-06 5.62131e-07 -0.000133713
0.00477868 -1.48575e-07 -3.059e-05
-1.48575e-07 0.00226016 -1.04911e-06
-3.059e-05 -1.04911e-06 0.00224878
0.000736823 2.0991e-05 -5.95076e-08
2.0991e-05 -7.51004e-05 1.94959e-07
-5.95076e-08 1.94959e-07 -0.000134637
0.00121094 3.01283e-05 9.81816e-06
3.01283e-05 2.01658e-05 1.76026e-06
9.81816e-06 1.76026e-06 -7.9435e-05
0.00500438 5.46964e-05 -5.95313e-06
5.46964e-05 0.00237487 3.3101e-07
-5.95313e-06 3.3101e-07 0.00237263
0.000729104 4.45486e-05 1.52678e-05
4.45486e-05 -7.29376e-05 3.69106e-06
1.52678e-05 3.69106e-06 -0.000131605
0.00492672 8.72543e-05 0.000141023
8.72543e-05 0.00234114 7.51423e-06
0.000141023 7.51423e-06 0.00233649
0.00172148 -2.41698e-05 -0.000132911
-2.41698e-05 0.000560553 2.7571e-07
-0.000132911 2.7571e-07 0.000538691
0.00166688 1.37315e-05 -3.17038e-05
1.37315e-05 0.000418823 4.0248e-07
-3.17038e-05 4.0248e-07 0.000365802
0.000848405 5.20296e-06 1.01866e-05
5.20296e-06 -0.000191943 1.33653e-06
1.01866e-05 1.33653e-06 -0.000298769
0.00528167 -3.06443e-05 7.04025e-06
-3.06443e-05 0.00252556 -9.93003e-07
7.04025e-06 -9.93003e-07 0.00251864
0.00071058 1.28914e-06 1.56597e-05
1.28914e-06 -0.000104897 7.64877e-07
1.56597e-05 7.64877e-07 -0.000167902
0.00530756 -3.54709e-05 0.000149679
-3.54709e-05 0.00253407 4.97449e-07
0.000149679 4.97449e-07 0.00252994
0.00141158 -6.75069e-05 -8.48363e-06
-6.75069e-05 0.000413752 -8.12395e-07
-8.48363e-06 -8.12395e-07 0.000378516
0.00165836 9.0737e-06 -3.10811e-05
9.0737e-06 0.000422299 -3.78128e-08
-3.10811e-05 -3.78128e-08 0.000369019
0.00122135 1.51264e-05 9.82883e-06
1.51264e-05 1.96154e-05 1.65369e-06
9.82883e-06 1.65369e-06 -8.16768e-05
0.00321358 3.51829e-05 5.41025e-05
3.51829e-05 0.00139566 4.71347e-07
5.41025e-05 4.71347e-07 0.00137825
0.000751701 2.95793e-05 1.55215e-05
2.95793e-05 -6.68287e-05 3.08136e-06
1.55215e-05 3.08136e-06 -0.000126691
0.00499343 9.15102e-05 0.000143099
9.15102e-05 0.00237428 6.36744e-06
0.000143099 6.36744e-06 0.00236945
0.00523291 -3.60218e-05 -8.89139e-06
-3.60218e-05 0.00250041 3.59532e-07
-8.89139e-06 3.59532e-07 0.00249338
0.000722507 2.3215e-05 1.60112e-05
2.3215e-05 -9.79684e-05 1.7065e-06
1.60112e-05 1.7065e-06 -0.000157892
0.00525918 6.75692e-05 0.000136122
6.75692e-05 0.00251553 -1.44028e-06
0.000136122 -1.44028e-06 0.00250748
0.00327033 2.10071e-05 6.57009e-05
2.10071e-05 0.00142384 7.56523e-07
6.57009e-05 7.56523e-07 0.00140617
0.000731129 9.64746e-06 1.52401e-05
9.64746e-06 -8.40013e-05 2.41249e-06
1.52401e-05 2.41249e-06 -0.00014492
0.00504364 -7.70164e-06 0.000134963
-7.70164e-06 0.00239414 3.30422e-06
0.000134963 3.30422e-06 0.00239231
0.00518845 -0.00012259 0.000129482
-0.00012259 0.00248265 -5.81822e-08
0.000129482 -5.81822e-08 0.00247182
0.00510092 -7.14496e-05 0.000130836
-7.14496e-05 0.00242857 1.37247e-06
0.000130836 1.37247e-06 0.00242326
