# vtk DataFile Version 2.0
Wound Healing Simulation
ASCII
DATASET UNSTRUCTURED_GRID
POINTS 3012 float
69.9759 18.75 4
67.2507 60.3285 4
69.976 18.75 2
73.0099 25.446 4
71.1327 20.9142 4
68.6801 16.6661 4
67.8233 19.9266 3.97707
67.2507 60.3286 2
71.1327 54.0858 4
68.6801 58.3339 4
65.6939 62.2254 4
65.3101 59.0001 3.97647
74.6784 42.3946 4
73.7221 47.2057 4
69.9759 18.75 0
73.0099 25.446 2
68.6801 16.6661 2
71.1327 20.9142 2
67.8238 19.9301 2
74.6792 32.6053 4
73.7222 27.7943 4
72.1454 23.1494 4
70.6124 26.2215 3.977
68.8836 21.9583 3.97756
67.2507 14.6715 4
66.6347 17.973 3.97601
65.7907 21.0287 3.96597
67.2507 60.3285 0
71.1327 54.0858 2
68.6801 58.3339 2
65.694 62.2255 2
65.3113 58.9954 2
72.1454 51.8506 4
69.9759 56.25 4
68.8341 53.1131 3.97674
64.0165 64.0165 4
66.6085 57.1329 3.97674
63.8831 60.7639 3.97642
63.4947 57.7655 3.96726
60.3285 67.2507 4
74.6792 42.3947 2
73.7222 47.2057 2
74.9194 39.9526 4
74.2788 44.8158 4
72.1669 42.0858 3.97765
73.0099 49.554 4
71.2475 46.598 3.97655
73.0099 25.446 0
71.1327 20.9142 0
68.6801 16.6661 0
67.8233 19.9266 0.0229251
74.6792 32.6053 2
73.7222 27.7943 2
67.2508 14.6715 2
72.1455 23.1494 2
70.6122 26.222 2
66.6356 17.9776 2
68.8838 21.9605 2
65.7898 21.0298 2
74.9197 35.0474 4
74.2794 30.1841 4
72.1836 32.9441 3.97792
71.2767 28.4321 3.9769
69.8136 24.0599 3.97738
68.3417 26.9539 3.966
66.7565 22.9359 3.96576
65.694 12.7746 4
65.3209 16.1052 3.9752
64.707 19.2002 3.96638
63.8291 22.0582 3.96472
71.1327 54.0858 0
65.6939 62.2254 0
68.6801 58.3339 0
65.3101 59.0001 0.0235299
72.1455 51.8506 2
69.9759 56.25 2
68.8342 53.111 2
64.0165 64.0165 2
66.6093 57.1287 2
63.8849 60.7593 2
63.4934 57.765 2
62.2254 65.694 4
58.8927 65.4132 3.98578
69.7667 50.989 3.9765
67.7814 55.167 3.97693
66.643 52.2074 3.96558
62.3333 62.4246 3.97866
64.6543 56.0276 3.96678
62.197 59.3936 3.96723
61.7968 56.6635 3.96283
58.3339 68.6801 4
60.3285 67.2508 2
73.7221 47.2057 0
74.6784 42.3946 0
74.9197 39.9526 2
74.2794 44.8159 2
72.1662 42.0855 2
73.0099 49.554 2
71.2472 46.5976 2
75 37.5 4
72.4043 39.8026 3.97851
71.781 44.3529 3.97735
69.7998 41.7901 3.96746
70.5731 48.8135 3.97631
68.9069 46.0143 3.96638
74.6792 32.6053 0
73.7222 27.7943 0
67.2507 14.6715 0
72.1454 23.1494 0
70.6124 26.2215 0.0230004
68.8836 21.9583 0.0224411
66.6347 17.973 0.0239933
65.7907 21.0287 0.0340334
74.9197 35.0474 2
74.2794 30.1841 2
72.1829 32.9444 2
71.2763 28.4326 2
65.694 12.7745 2
65.3225 16.1106 2
69.8135 24.0611 2
68.3414 26.9547 2
64.7059 19.2011 2
66.7559 22.9369 2
63.8292 22.0587 2
72.4121 35.2248 3.97852
71.8026 30.6771 3.9776
69.836 33.2706 3.96749
68.9614 29.0407 3.96641
67.6057 24.9145 3.96573
66.1231 27.6529 3.96757
64.0165 10.9835 4
64.6913 23.8518 3.96582
63.8869 14.33 3.97592
63.5064 17.4558 3.9669
62.8552 20.345 3.96338
61.9625 22.9918 3.96772
60.6817 11.1009 3.98012
57.6075 11.4655 3.97103
72.1454 51.8506 0
69.9759 56.25 0
68.8341 53.1131 0.0232606
64.0165 64.0165 0
63.8831 60.7639 0.0235761
66.6085 57.1329 0.0232585
63.4947 57.7655 0.0327362
62.2255 65.694 2
58.895 65.4103 2
69.7666 50.9878 2
67.7818 55.1638 2
66.6424 52.2065 2
62.3355 62.4207 2
64.6532 56.027 2
62.1956 59.3937 2
61.7986 56.6641 2
60.6666 63.9743 3.98191
57.0236 66.7343 3.98805
57.555 63.6829 3.97315
67.5013 50.1754 3.96546
65.6955 54.1708 3.96607
64.4619 51.3639 3.96551
60.7682 60.9214 3.96961
62.777 55.0493 3.96395
60.6433 58.1398 3.96201
60.2641 55.7512 3.96445
56.25 69.9759 4
58.3339 68.6801 2
60.3285 67.2507 0
58.9189 9.65848 3.9821
62.2254 9.30607 4
73.0099 49.554 0
74.2788 44.8158 0
71.2475 46.598 0.0234532
72.1669 42.0858 0.0223535
74.9194 39.9526 0
75 37.5 2
72.4041 39.8025 2
71.7808 44.3524 2
69.7991 41.7897 2
70.5728 48.813 2
68.9067 46.0136 2
72.4877 37.5126 3.97808
70.0374 39.6583 3.96777
69.4256 43.9074 3.96699
67.5264 41.4917 3.97
68.2601 48.1062 3.9658
66.6263 45.4257 3.96906
74.9197 35.0474 0
74.2794 30.1841 0
72.1836 32.9441 0.0220818
71.2767 28.4321 0.0231018
65.694 12.7746 0
65.3209 16.1052 0.0247969
69.8136 24.0599 0.0226179
68.3417 26.9539 0.0339961
66.7565 22.9359 0.0342421
64.707 19.2002 0.0336212
63.8291 22.0582 0.0352807
72.412 35.2248 2
71.8024 30.6776 2
69.8353 33.2711 2
68.9611 29.0414 2
64.0165 10.9835 2
63.8891 14.3353 2
63.505 17.4568 2
67.6052 24.9154 2
66.123 27.6535 2
62.8555 20.3453 2
64.6909 23.8524 2
61.9614 22.9926 2
60.6844 11.1053 2
57.609 11.4589 2
70.0541 35.3938 3.96774
69.4627 31.1519 3.96679
67.5934 33.5996 3.9697
66.7014 29.6384 3.96838
65.4537 25.7196 3.96662
63.9765 28.2945 3.97331
62.3387 12.6587 3.97803
62.7112 24.6837 3.96962
62.1927 15.7993 3.96831
61.7766 18.7106 3.96248
61.0986 21.3931 3.9653
60.2229 23.8005 3.9713
59.2408 12.807 3.96898
55.8706 10.2443 3.97356
56.3963 13.1622 3.96816
69.7667 50.989 0.0234966
62.2254 65.694 0
58.8927 65.4132 0.0142213
67.7814 55.167 0.0230657
66.643 52.2074 0.0344221
62.3333 62.4246 0.0213435
62.197 59.3936 0.0327737
64.6543 56.0276 0.033225
61.7968 56.6635 0.0371667
60.6687 63.9715 2
57.0257 66.7329 2
57.5557 63.684 2
67.5008 50.1745 2
65.6945 54.17 2
64.4619 51.3636 2
60.7671 60.9228 2
62.7774 55.0495 2
60.6444 58.1405 2
60.2641 55.7512 2
55.0695 67.9314 3.98977
59.2143 62.3438 3.97074
55.8021 64.9028 3.978
56.3191 62.0566 3.97083
65.2466 49.3877 3.96664
63.6432 53.2716 3.96455
62.2735 50.6064 3.96847
59.3221 59.5332 3.96567
60.9749 54.2698 3.96625
59.2369 56.9749 3.96264
59.1432 55.1361 3.96703
48.1005 68.5759 3.98563
50.9473 69.9314 3.99073
54.0858 71.1327 4
56.25 69.976 2
58.3339 68.6801 0
57.0564 8.33821 3.98431
60.3285 7.74928 4
58.9221 9.66235 2
62.2255 9.30602 2
70.5731 48.8135 0.0236894
71.781 44.3529 0.0226519
68.9069 46.0143 0.0336249
69.7998 41.7901 0.0325372
72.4043 39.8026 0.0214907
75 37.5 0
72.487 37.5125 2
70.0372 39.6582 2
69.4253 43.907 2
67.5257 41.4915 2
68.2597 48.1054 2
66.6249 45.4252 2
70.1254 37.523 3.96777
67.7696 39.5104 3.97031
67.146 43.46 3.96966
65.3816 41.1948 3.97695
65.9805 47.3999 3.96789
64.4561 44.8168 3.97416
72.4121 35.2248 0.0214793
71.8026 30.6771 0.022398
69.836 33.2706 0.0325091
68.9614 29.0407 0.0335923
64.0165 10.9835 0
63.8869 14.33 0.0240769
63.5064 17.4558 0.0330972
67.6057 24.9145 0.0342717
66.1231 27.6529 0.032425
64.6913 23.8518 0.034178
62.8552 20.345 0.0366174
61.9625 22.9918 0.0322821
60.6817 11.1009 0.0198775
57.6075 11.4655 0.0289695
70.054 35.3941 2
69.4625 31.1525 2
67.5928 33.5999 2
66.7007 29.6389 2
62.3414 12.6635 2
62.1911 15.8 2
61.7774 18.7105 2
65.4534 25.7202 2
63.9742 28.2953 2
61.0968 21.3939 2
62.7097 24.6846 2
60.2221 23.8015 2
59.2417 12.8073 2
56.3974 13.1595 2
55.8725 10.2451 2
67.8102 35.5528 3.97011
67.2011 31.6345 3.96919
65.5375 33.9439 3.97661
64.4924 30.2246 3.97483
63.3812 26.4575 3.97164
61.9981 28.8383 3.97628
60.7695 14.2449 3.96859
60.8211 25.408 3.97379
60.593 17.1553 3.9624
60.1166 19.8708 3.96253
59.4679 22.336 3.96739
58.7156 24.4148 3.97411
54.0348 9.1452 3.97627
57.899 14.3722 3.9677
54.7789 12.0484 3.97111
55.2962 14.7063 3.96526
67.5013 50.1754 0.0345351
57.0236 66.7343 0.0119525
60.6666 63.9743 0.0180919
57.555 63.6829 0.0268524
65.6955 54.1708 0.0339291
64.4619 51.3639 0.0344854
60.7682 60.9214 0.0303864
60.6433 58.1398 0.0379938
62.777 55.0493 0.036053
60.2641 55.7512 0.0355465
55.0711 67.9305 2
59.2147 62.3452 2
55.8025 64.9034 2
56.3178 62.0582 2
65.2463 49.3872 2
63.6435 53.2715 2
62.2728 50.6059 2
59.3209 59.5342 2
60.9747 54.2696 2
59.2404 56.9756 2
59.1451 55.1361 2
53.0415 68.9995 3.99047
53.9649 66.0079 3.98124
57.8704 60.8392 3.96885
54.6784 63.1928 3.97311
55.197 60.5731 3.96781
63.0108 48.6179 3.9704
61.6026 52.5313 3.96728
60.0166 49.9504 3.97075
57.9924 58.2295 3.96342
59.1778 53.8911 3.96819
58.0064 55.7562 3.96284
50.1072 67.8539 3.98481
47.4617 66.5741 3.98111
46.0543 69.155 3.98627
48.1006 68.5764 2
48.8012 70.7226 3.99105
50.9484 69.9309 2
51.8506 72.1454 4
54.0858 71.1327 2
56.25 69.9759 0
55.1014 7.14201 3.9874
58.3339 6.31992 4
57.0594 8.34013 2
60.3286 7.74926 2
58.9189 9.65848 0.0178984
62.2254 9.30607 0
68.2601 48.1062 0.0341999
69.4256 43.9074 0.0330126
66.6263 45.4257 0.0309438
67.5264 41.4917 0.0299981
70.0374 39.6583 0.0322309
72.4877 37.5126 0.0219235
70.1248 37.523 2
67.7684 39.5103 2
67.146 43.4597 2
65.3786 41.1942 2
65.9804 47.3995 2
64.4539 44.816 2
67.8708 37.5238 3.97038
65.6187 39.3636 3.97718
64.9967 43.0021 3.97614
63.487 40.9061 3.97709
63.7674 46.6777 3.97213
62.5171 44.1669 3.97643
70.0541 35.3938 0.0322587
69.4627 31.1519 0.0332131
67.5934 33.5996 0.0303042
66.7014 29.6384 0.0316219
62.3387 12.6587 0.0219693
62.1927 15.7993 0.031693
61.7766 18.7106 0.0375212
65.4537 25.7196 0.0333838
63.9765 28.2945 0.0266853
62.7112 24.6837 0.0303781
61.0986 21.3931 0.0347003
60.2229 23.8005 0.0287049
59.2408 12.807 0.0310248
56.3963 13.1622 0.031837
55.8706 10.2443 0.0264449
67.8089 35.5529 2
67.2012 31.6349 2
65.534 33.9444 2
64.4901 30.2254 2
60.7694 14.2455 2
60.5925 17.1553 2
60.1152 19.8714 2
63.3794 26.4583 2
61.9956 28.8394 2
59.4691 22.3367 2
60.8195 25.4091 2
58.7145 24.4162 2
57.8983 14.372 2
55.2967 14.7051 2
54.0367 9.14442 2
54.7796 12.0467 2
65.717 35.6762 3.97696
65.0163 32.1792 3.97587
64.0485 34.2729 3.97686
62.3183 30.6883 3.97625
61.4049 27.1387 3.97504
60.532 29.2177 3.9764
59.2975 15.701 3.96485
59.0344 25.8915 3.97621
59.0607 18.4066 3.96166
58.5723 20.9337 3.96352
58.0317 23.1924 3.96894
57.678 24.774 3.97507
52.1104 8.16042 3.97948
53.052 11.0416 3.9724
56.6578 15.7938 3.96552
53.7957 13.7366 3.96825
54.3466 16.067 3.96282
55.0695 67.9314 0.0102262
65.2466 49.3877 0.0333641
55.8021 64.9028 0.022003
59.2143 62.3438 0.029261
56.3191 62.0566 0.0291694
63.6432 53.2716 0.0354477
62.2735 50.6064 0.0315281
59.3221 59.5332 0.0343282
59.2369 56.9749 0.0373575
60.9749 54.2698 0.0337518
59.1432 55.1361 0.0329659
53.0429 68.9989 2
53.9651 66.0085 2
57.8688 60.8402 2
54.6778 63.1939 2
55.1957 60.5737 2
63.0096 48.6172 2
61.6025 52.531 2
60.017 49.9498 2
57.9916 58.2307 2
59.1804 53.891 2
58.0032 55.7547 2
52.0684 66.9963 3.9838
52.9503 64.2078 3.97804
56.63 59.453 3.96928
53.6695 61.5896 3.9732
54.236 59.2766 3.97536
60.6968 47.8126 3.97231
59.4957 52.0394 3.96892
57.6972 49.5267 3.97274
56.7193 56.9404 3.96405
56.9344 54.0488 3.96621
50.1073 67.8541 2
49.3355 65.9143 3.98112
47.4618 66.5744 2
46.8903 64.7253 3.97979
45.5569 67.0913 3.98144
43.9717 69.587 3.98692
46.0545 69.1554 2
46.6076 71.3671 3.99128
48.1005 68.5759 0.014374
48.8023 70.7225 2
49.554 73.0099 4
50.9473 69.9314 0.00926732
51.8506 72.1455 2
54.0858 71.1327 0
53.0636 6.07298 3.98995
55.1039 7.14303 2
56.25 5.02411 4
58.3339 6.3199 2
57.0564 8.33821 0.015688
60.3285 7.74928 0
65.9805 47.3999 0.0321101
67.146 43.46 0.0303407
64.4561 44.8168 0.0258352
65.3816 41.1948 0.0230536
67.7696 39.5104 0.0296852
70.1254 37.523 0.0322336
67.8701 37.5238 2
65.6154 39.3633 2
64.9937 43.0013 2
63.4849 40.9057 2
63.7655 46.677 2
62.515 44.166 2
65.727 37.5034 3.97704
63.6367 39.2567 3.97701
63.0455 42.5137 3.97653
62.0952 40.6684 3.9767
61.6644 45.8597 3.9746
61.0843 43.6228 3.97631
67.8102 35.5528 0.0298899
67.2011 31.6345 0.0308108
65.5375 33.9439 0.0233949
64.4924 30.2246 0.0251688
60.7695 14.2449 0.0314108
60.593 17.1553 0.0376009
60.1166 19.8708 0.0374658
63.3812 26.4575 0.0283555
61.9981 28.8383 0.0237194
60.8211 25.408 0.0262072
59.4679 22.336 0.032613
58.7156 24.4148 0.0258926
57.899 14.3722 0.0323036
55.2962 14.7063 0.0347434
54.0348 9.1452 0.0237326
54.7789 12.0484 0.0288858
65.7137 35.6765 2
65.0135 32.1799 2
64.046 34.2734 2
62.3161 30.6889 2
59.296 15.7015 2
59.0621 18.4062 2
58.5748 20.9343 2
61.4032 27.1397 2
60.5308 29.2181 2
58.0268 23.1947 2
59.0335 25.8929 2
57.6802 24.7762 2
56.6559 15.7935 2
54.3484 16.0678 2
53.7949 13.7297 2
52.1119 8.15969 2
53.0532 11.0392 2
63.8438 35.6459 3.97685
62.6407 33.0845 3.97644
60.2537 30.686 3.97614
59.237 28.0048 3.9764
57.9107 17.0317 3.96117
57.4032 25.8446 3.97613
57.5945 19.5521 3.961
57.1387 21.9456 3.96372
56.8711 24.0691 3.96986
50.1113 7.28974 3.98395
51.2286 10.1388 3.97482
52.1599 12.8367 3.97345
55.5033 17.037 3.962
52.9545 15.3317 3.96686
53.7193 17.0602 3.96353
53.0415 68.9995 0.00952883
53.9649 66.0079 0.018762
63.0108 48.6179 0.029601
54.6784 63.1928 0.0268891
57.8704 60.8392 0.031153
55.197 60.5731 0.0321934
61.6026 52.5313 0.0327239
60.0166 49.9504 0.0292518
57.9924 58.2295 0.0365848
58.0064 55.7562 0.0371607
59.1778 53.8911 0.0318062
52.0687 66.9968 2
52.95 64.2082 2
56.6287 59.4538 2
53.668 61.5903 2
54.2343 59.2779 2
60.6962 47.8118 2
59.4965 52.0389 2
57.694 49.5253 2
56.7167 56.944 2
56.9311 54.0471 2
51.1661 65.1199 3.97994
52.0383 62.5232 3.97503
55.4462 58.209 3.96609
52.8135 60.0823 3.97389
53.6048 58.4265 3.96841
57.8937 46.7516 3.97556
57.2962 51.7024 3.96926
55.8564 49.4479 3.97159
55.374 55.731 3.96493
55.1313 53.2999 3.96334
50.1072 67.8539 0.015187
49.3355 65.9143 2
48.6154 64.1122 3.97983
47.4617 66.5741 0.0188928
45.557 67.0918 2
46.8907 64.7252 2
46.3779 63.0395 3.98241
45.1312 65.1861 3.97931
43.6302 67.4625 3.98255
41.8594 69.874 3.98653
43.9718 69.5875 2
44.3748 71.8617 3.99143
46.0543 69.155 0.0137276
46.6085 71.367 2
47.2057 73.7222 4
48.8012 70.7226 0.00894908
49.554 73.0099 2
51.8506 72.1454 0
50.9543 5.13337 3.99118
53.0654 6.07343 2
54.0858 3.86728 4
55.1014 7.14201 0.0125988
56.25 5.02406 2
58.3339 6.31992 0
63.7674 46.6777 0.0278735
64.9967 43.0021 0.0238623
62.5171 44.1669 0.0235716
63.487 40.9061 0.0229094
65.6187 39.3636 0.0228186
67.8708 37.5238 0.0296221
65.7236 37.5036 2
63.6349 39.2566 2
63.0435 42.5132 2
62.0949 40.668 2
61.6625 45.8588 2
61.0829 43.6224 2
63.7 37.4581 3.97688
61.8077 39.3382 3.9769
60.8288 41.9102 3.9767
59.8568 44.6914 3.97669
65.717 35.6762 0.0230415
65.0163 32.1792 0.0241301
64.0485 34.2729 0.0231411
62.3183 30.6883 0.0237471
59.2975 15.701 0.035154
59.0607 18.4066 0.0383353
58.5723 20.9337 0.036481
61.4049 27.1387 0.0249616
60.532 29.2177 0.0236021
59.0344 25.8915 0.0237947
58.0317 23.1924 0.0310562
57.678 24.774 0.0249349
56.6578 15.7938 0.034482
54.3466 16.067 0.0371807
53.7957 13.7366 0.0317459
52.1104 8.16042 0.0205168
53.052 11.0416 0.0275982
63.8418 35.646 2
62.6396 33.085 2
60.2535 30.686 2
57.9085 17.0316 2
57.6018 19.5502 2
57.1352 21.9479 2
59.2356 28.0057 2
56.8801 24.0711 2
57.4033 25.8476 2
50.1125 7.28804 2
55.5031 17.0373 2
53.7201 17.0558 2
52.9545 15.3281 2
52.1609 12.8406 2
51.2302 10.1371 2
61.8488 35.3795 3.97656
59.8786 32.8033 3.97634
58.1923 30.1717 3.97617
56.8938 27.5108 3.97678
56.5745 18.2238 3.96159
55.9351 25.242 3.97532
56.1938 20.6206 3.9609
55.8198 22.9982 3.96328
48.0563 6.5299 3.98787
49.3226 9.34181 3.97859
50.4247 12.0229 3.97481
51.3571 14.551 3.9675
54.3583 18.0014 3.96022
52.3259 17.1308 3.95815
52.0684 66.9963 0.0161964
52.9503 64.2078 0.0219613
60.6968 47.8126 0.0276921
53.6695 61.5896 0.0267976
56.63 59.453 0.0307237
54.236 59.2766 0.0246429
59.4957 52.0394 0.0310805
57.6972 49.5267 0.0272642
56.7193 56.9404 0.0359481
56.9344 54.0488 0.0337858
51.166 65.1204 2
52.0372 62.5244 2
55.4453 58.2101 2
52.8121 60.0857 2
53.6037 58.4286 2
57.8928 46.7507 2
57.2942 51.7011 2
55.8507 49.4461 2
55.3724 55.7307 2
55.1335 53.3001 2
50.3421 63.3692 3.98034
51.2292 60.9019 3.97472
54.1656 57.2199 3.96801
52.2743 58.5795 3.97121
56.1462 44.0619 3.97692
55.0255 47.7758 3.97431
54.7358 51.2878 3.96566
53.8544 54.4725 3.96563
49.3355 65.9143 0.0188849
48.6155 64.1119 2
47.9556 62.4609 3.98025
45.5569 67.0913 0.01856
46.8903 64.7253 0.0202061
43.6302 67.4631 2
46.378 63.0395 2
45.1315 65.1864 2
45.9815 61.57 3.98806
44.7644 63.438 3.97853
43.3561 65.4965 3.97955
41.6625 67.6808 3.98208
39.7017 70.0197 3.98613
41.8595 69.8745 2
42.1093 72.2062 3.9918
43.9717 69.587 0.0130815
44.3756 71.8617 2
44.8159 74.2794 4
46.6076 71.3671 0.00872211
47.2057 73.7222 2
49.554 73.0099 0
48.7854 4.3237 3.99218
50.9555 5.13305 2
51.8506 2.85458 4
53.0636 6.07298 0.0100512
54.0858 3.86728 2
56.25 5.02411 0
61.6644 45.8597 0.0253988
63.0455 42.5137 0.0234685
61.0843 43.6228 0.0236936
62.0952 40.6684 0.0232985
63.6367 39.2567 0.022989
65.727 37.5034 0.0229573
63.6983 37.458 2
61.8079 39.3383 2
60.8293 41.9099 2
59.8564 44.6907 2
61.6385 37.4441 3.97695
59.7972 39.8147 3.9769
58.4937 42.8413 3.97638
63.8438 35.6459 0.0231486
62.6407 33.0845 0.0235608
60.2537 30.686 0.0238612
57.9107 17.0317 0.0388271
57.5945 19.5521 0.0389971
57.1387 21.9456 0.036283
59.237 28.0048 0.023602
57.4032 25.8446 0.0238651
56.8711 24.0691 0.0301397
55.5033 17.037 0.0380028
53.7193 17.0602 0.0364688
52.9545 15.3317 0.0331404
50.1113 7.28974 0.0160463
52.1599 12.8367 0.0265509
51.2286 10.1388 0.0251801
61.849 35.3796 2
59.8785 32.8032 2
58.1931 30.171 2
56.5779 18.223 2
56.2019 20.6167 2
55.8248 23.0025 2
56.8931 27.512 2
55.9341 25.2461 2
48.0571 6.52827 2
49.3239 9.33959 2
54.3613 18.0016 2
52.3232 17.1234 2
51.3552 14.549 2
50.4264 12.0211 2
59.4365 35.1483 3.97663
57.4758 32.3482 3.97581
56.0701 29.4681 3.9766
55.0001 26.7681 3.9759
55.2483 19.2753 3.96177
54.5977 24.2137 3.96822
54.7909 21.6847 3.95994
45.9628 5.88389 3.98895
43.3745 7.47664 3.98493
47.3551 8.62924 3.98288
48.5948 11.3106 3.97444
49.6958 13.778 3.97199
50.5999 16.1979 3.96898
53.0513 18.7636 3.95945
51.2519 18.1772 3.96968
51.1661 65.1199 0.0200633
52.0383 62.5232 0.0249666
57.8937 46.7516 0.0244393
52.8135 60.0823 0.0261145
55.4462 58.209 0.033906
53.6048 58.4265 0.0315883
57.2962 51.7024 0.0307402
55.8564 49.4479 0.0284068
55.374 55.731 0.0350684
55.1313 53.2999 0.0366559
50.3416 63.3687 2
51.2273 60.8997 2
54.1654 57.2215 2
52.2726 58.5811 2
56.1468 44.0617 2
55.0233 47.7745 2
54.7376 51.2874 2
53.8539 54.474 2
49.5825 61.7317 3.97739
54.9187 41.6469 3.97425
50.5365 59.2884 3.96981
52.1061 56.4362 3.96819
53.5744 45.4177 3.97434
52.8907 49.2057 3.96948
52.4222 52.7642 3.96124
48.6154 64.1122 0.0201675
47.9551 62.4599 2
47.3178 60.992 3.98677
43.6302 67.4625 0.0174489
45.1312 65.1861 0.0206873
46.3779 63.0395 0.0175882
41.6628 67.6805 2
43.3564 65.4973 2
45.9803 61.5704 2
44.7648 63.4381 2
45.7539 60.6153 3.98471
44.4796 61.8147 3.97985
43.145 63.7113 3.97879
41.5457 65.6339 3.9781
39.632 67.7581 3.98158
37.5259 70.044 3.98485
39.7017 70.02 2
39.8164 72.4026 3.99156
41.8594 69.874 0.0134735
42.1099 72.2064 2
42.3947 74.6792 4
44.3748 71.8617 0.00856649
44.8159 74.2794 2
47.2057 73.7222 0
43.852 5.36113 3.98827
46.5715 3.64797 3.99247
48.786 4.32314 2
49.554 1.99015 4
50.9543 5.13337 0.00881773
51.8506 2.85453 2
54.0858 3.86728 0
59.8568 44.6914 0.0233148
60.8288 41.9102 0.0233003
61.8077 39.3382 0.0230995
63.7 37.4581 0.0231151
61.6387 37.444 2
59.7979 39.8144 2
58.4943 42.8408 2
59.2903 37.566 3.9772
57.4293 40.6042 3.9771
54.3235 39.6608 3.97513
61.8488 35.3795 0.0234403
59.8786 32.8033 0.0236609
58.1923 30.1717 0.0238286
56.5745 18.2238 0.0384059
56.1938 20.6206 0.0391031
55.8198 22.9982 0.0367198
56.8938 27.5108 0.0232166
55.9351 25.242 0.0246842
54.3583 18.0014 0.0397787
52.3259 17.1308 0.0418536
51.3571 14.551 0.0325022
48.0563 6.5299 0.012126
49.3226 9.34181 0.0214128
50.4247 12.0229 0.025194
59.4373 35.148 2
45.9629 5.88305 2
43.3745 7.47545 2
57.4768 32.3485 2
56.07 29.4673 2
55.2397 19.2781 2
54.8071 21.6868 2
54.5927 24.2168 2
54.9974 26.7701 2
47.3559 8.62575 2
48.5965 11.308 2
53.0552 18.7509 2
51.2557 18.1732 2
50.5992 16.1975 2
49.6952 13.7799 2
56.8123 34.7998 3.97711
55.1491 31.6219 3.97587
53.9907 28.5723 3.97733
53.3791 25.6864 3.97546
53.8437 20.243 3.96105
53.3327 22.8717 3.95551
41.3998 7.08213 3.98444
45.3608 7.99624 3.9874
42.8666 9.42095 3.9806
46.6652 10.6628 3.98075
47.7311 13.1248 3.97578
48.9032 15.4475 3.96947
49.9543 17.7619 3.96294
51.5635 19.4579 3.96773
50.3421 63.3692 0.0196645
51.2292 60.9019 0.0252821
56.1462 44.0619 0.023084
55.0255 47.7758 0.0256871
52.2743 58.5795 0.0287878
54.1656 57.2199 0.0319915
54.7358 51.2878 0.0343437
53.8544 54.4725 0.0343673
49.581 61.7309 2
54.9109 41.6434 2
50.5344 59.2882 2
52.1091 56.4393 2
53.5707 45.4158 2
52.8981 49.2048 2
52.4235 52.7646 2
48.8282 60.1849 3.97586
51.7041 42.5171 3.98314
49.7337 57.5853 3.96721
50.4381 54.3664 3.96293
51.2442 47.1254 3.97469
50.8766 50.843 3.95476
47.3829 43.6079 3.9768
47.9556 62.4609 0.0197515
47.3162 60.9914 2
46.5992 59.7803 3.99243
41.6625 67.6808 0.0179185
43.3561 65.4965 0.0204535
44.7644 63.438 0.0214705
45.9815 61.57 0.0119415
39.6325 67.7588 2
41.546 65.6325 2
45.7527 60.6152 2
43.1455 63.7117 2
44.4783 61.8151 2
44.6102 60.2731 3.99352
42.9474 62.0636 3.97477
41.5998 63.8041 3.97798
39.6472 65.5984 3.9772
37.5631 67.7384 3.97952
31.6978 65.1146 3.97739
33.3925 67.4762 3.97944
35.3338 69.9542 3.98493
37.5257 70.0451 2
37.5089 72.457 3.992
39.7017 70.0197 0.0138672
39.8169 72.4029 2
39.9526 74.9197 4
42.1093 72.2062 0.00820257
42.3947 74.6792 2
44.8159 74.2794 0
41.7366 4.96978 3.98864
43.8522 5.35997 2
44.3268 3.11116 3.99279
46.5718 3.64764 2
47.2057 1.27793 4
48.7854 4.3237 0.00781947
49.554 1.99013 2
51.8506 2.85458 0
58.4937 42.8413 0.0236179
59.7972 39.8147 0.0231039
61.6385 37.4441 0.0230538
59.2914 37.5668 2
57.4291 40.6052 2
54.3161 39.6658 2
56.1753 37.8802 3.97685
48.7322 41.2297 3.97616
52.2985 39.3007 3.98379
39.4435 6.80559 3.98532
59.4365 35.1483 0.0233653
57.4758 32.3482 0.0241871
56.0701 29.4681 0.0234044
55.2483 19.2753 0.0382266
54.7909 21.6847 0.040064
54.5977 24.2137 0.031784
55.0001 26.7681 0.0241002
53.0513 18.7636 0.0405454
51.2519 18.1772 0.0303195
50.5999 16.1979 0.0310224
45.9628 5.88389 0.011047
49.6958 13.778 0.0280124
47.3551 8.62924 0.0171163
48.5948 11.3106 0.0255617
43.3745 7.47664 0.0150703
56.8119 34.8006 2
41.3999 7.08162 2
45.3605 7.99536 2
42.8667 9.42028 2
55.152 31.6202 2
53.9903 28.5713 2
53.846 20.2544 2
53.3267 22.869 2
53.3751 25.6863 2
46.6662 10.6567 2
47.7318 13.12 2
51.5736 19.4569 2
49.9541 17.7596 2
48.8996 15.4531 2
54.1472 33.996 3.97522
52.8694 30.6659 3.97621
52.0918 27.4135 3.97487
51.8467 24.3038 3.97836
52.2393 21.199 3.97162
41.0136 9.05555 3.97916
44.7267 9.9957 3.98602
42.4645 10.9054 3.99565
45.9937 12.7402 3.97329
47.6568 14.6184 3.96979
48.0612 17.0256 3.96649
49.758 19.8355 3.97182
49.5825 61.7317 0.0226108
50.5365 59.2884 0.0301895
54.9187 41.6469 0.0257482
53.5744 45.4177 0.0256622
52.8907 49.2057 0.0305212
52.1061 56.4362 0.0318097
52.4222 52.7642 0.0387576
48.8254 60.1829 2
51.7221 42.5268 2
49.7314 57.5854 2
50.4386 54.3691 2
51.2494 47.125 2
50.8792 50.842 2
47.3979 43.6382 2
47.9497 58.7109 3.97895
49.362 45.1397 3.98116
48.5005 55.875 3.96204
48.9055 52.5229 3.97617
49.2466 48.9251 3.97206
45.1318 39.8046 3.86133
45.6156 42.5056 3.89747
45.8585 45.6107 3.98276
42.9554 41.0271 3.69723
41.6257 41.8488 3.5039
47.3178 60.992 0.0132331
46.5968 59.779 2
45.4402 58.7846 3.99432
39.632 67.7581 0.0184211
41.5457 65.6339 0.0219048
43.145 63.7113 0.0212103
44.4796 61.8147 0.0201499
45.7539 60.6153 0.0152857
41.6002 63.803 2
37.5634 67.7393 2
39.6474 65.5994 2
44.6099 60.2729 2
42.9461 62.0639 2
41.7505 62.4716 3.97712
42.4719 59.9554 3.97956
39.8945 63.535 3.9763
37.6421 65.4939 3.97631
35.4635 67.6478 3.97934
33.5756 65.3271 3.97595
31.9605 63.2796 3.97586
29.885 64.7061 3.98052
31.6978 65.1153 2
31.3775 67.1863 3.97983
33.3926 67.4772 2
33.1573 69.7478 3.98505
35.3336 69.9552 2
35.1955 72.3715 3.99197
37.5259 70.044 0.0151463
37.5092 72.4576 2
37.5 75 4
39.8164 72.4026 0.00844357
39.9526 74.9197 2
42.3947 74.6792 0
39.6245 4.7176 3.98944
41.7368 4.96925 2
42.0632 2.71834 3.99315
43.852 5.36113 0.0117291
44.3269 3.11045 2
44.8158 0.721173 4
46.5715 3.64797 0.00752594
47.2057 1.27779 2
49.554 1.99015 0
57.4293 40.6042 0.0229017
59.2903 37.566 0.0228026
54.3235 39.6608 0.0248735
48.76 41.2467 2
56.1749 37.8774 2
52.2958 39.2664 2
53.1572 36.6202 3.97808
46.6603 40.3185 3.90003
49.679 38.509 3.98464
37.5175 6.67633 3.98553
39.4439 6.80415 2
39.2114 8.69683 3.98258
35.9436 8.49619 3.9842
56.8123 34.7998 0.0228935
55.1491 31.6219 0.024126
53.9907 28.5723 0.0226693
53.8437 20.243 0.0389476
53.3327 22.8717 0.0444921
53.3791 25.6864 0.0245448
51.5635 19.4579 0.0322749
49.9543 17.7619 0.0370648
48.9032 15.4475 0.0305327
45.3608 7.99624 0.0125998
47.7311 13.1248 0.0242211
46.6652 10.6628 0.0192489
41.3998 7.08213 0.0155597
42.8666 9.42095 0.0193992
54.1451 33.9963 2
41.0144 9.05604 2
44.7257 9.99545 2
42.4653 10.9066 2
52.8665 30.6642 2
52.0987 27.4138 2
52.2421 21.2029 2
51.8432 24.31 2
45.9945 12.7312 2
47.6535 14.6065 2
49.7696 19.8326 2
48.0574 17.0259 2
51.6619 32.9058 3.98235
50.69 29.3714 3.97758
50.3845 25.9187 3.97053
49.7979 22.4316 3.98502
40.5658 11.6171 3.9821
43.8502 11.9105 3.97977
45.7741 15.4552 3.98702
47.458 19.4411 3.97911
45.5869 37.4783 3.85677
48.8282 60.1849 0.0241444
49.7337 57.5853 0.0327935
51.7041 42.5171 0.016863
51.2442 47.1254 0.0253127
50.8766 50.843 0.0452412
50.4381 54.3664 0.0370661
47.3829 43.6079 0.0232006
47.9469 58.7135 2
49.3784 45.1548 2
48.4957 55.8773 2
48.9059 52.5273 2
49.2508 48.9263 2
45.2102 39.8186 2
45.6467 42.5438 2
45.8677 45.625 2
42.9915 41.0657 2
41.658 41.8733 2
46.7817 57.3161 3.97729
43.6872 39.3491 3.69862
41.9908 40.762 3.52962
47.5221 47.1663 3.98246
47.0258 54.1866 3.96192
47.2954 50.6681 3.97901
44.3578 47.2412 3.97662
44.2665 41.8465 3.85409
44.3496 44.3553 3.9002
41.9474 42.4667 3.73505
40.6228 42.1485 3.50406
46.5992 59.7803 0.00756839
45.4395 58.7813 2
43.8481 57.6758 3.98097
37.5631 67.7384 0.0204803
39.6472 65.5984 0.0228044
41.5998 63.8041 0.022017
42.9474 62.0636 0.0252285
44.6102 60.2731 0.00647884
35.4637 67.6487 2
41.7496 62.4741 2
39.8942 63.5358 2
37.6422 65.4947 2
42.4728 59.9538 2
40.6214 61.6154 3.98002
40.4356 58.1387 3.98033
37.8378 63.1909 3.97382
35.573 65.4164 3.97659
33.5759 65.328 2
31.9609 63.2812 2
33.6299 63.3186 3.97478
30.3796 62.8408 3.97986
32.1275 61.9824 3.9854
26.8782 61.4693 3.97753
28.0655 64.1351 3.9783
29.8846 64.7073 2
29.4074 66.7502 3.98079
31.6978 65.1146 0.0226097
31.3776 67.187 2
31.0151 69.4131 3.9848
33.3925 67.4762 0.0205578
33.157 69.7487 2
32.8934 72.1459 3.99154
35.3338 69.9542 0.0150658
35.1952 72.3721 2
35.0474 74.9194 4
37.5089 72.457 0.00800316
37.5 75 2
39.9526 74.9197 0
35.6221 6.72748 3.98518
37.5242 4.61692 3.98961
39.6247 4.71627 2
39.7897 2.47504 3.99313
41.7366 4.96978 0.0113642
42.0632 2.71794 2
42.3946 0.32156 4
44.3268 3.11116 0.00721116
44.8159 0.72056 2
47.2057 1.27793 0
48.7322 41.2297 0.0238364
56.1753 37.8802 0.0231477
52.2985 39.3007 0.0162062
46.686 40.3169 2
49.6801 38.5044 2
53.1558 36.641 2
50.4827 35.5674 3.97462
47.3299 37.7672 3.91334
45.1514 35.1698 3.85997
42.9863 33.9314 3.69406
41.6539 33.1148 3.50216
37.4589 8.53741 3.98462
37.5178 6.67529 2
39.4435 6.80559 0.0146769
39.2126 8.69515 2
38.9762 10.1326 3.98365
35.8997 9.77864 3.97989
34.1534 8.82816 3.98215
35.9438 8.49373 2
54.1472 33.996 0.0247825
52.8694 30.6659 0.0237893
52.0918 27.4135 0.0251319
52.2393 21.199 0.0283795
51.8467 24.3038 0.0216373
49.758 19.8355 0.028179
48.0612 17.0256 0.0335095
47.6568 14.6184 0.030208
44.7267 9.9957 0.0139835
45.9937 12.7402 0.0267052
41.0136 9.05555 0.0208442
42.4645 10.9054 0.00435005
51.6697 32.9039 2
40.568 11.6195 2
43.8489 11.9126 2
50.7117 29.3698 2
50.3831 25.9214 2
49.7963 22.4312 2
45.7666 15.4181 2
47.4622 19.4649 2
49.2377 31.5342 3.98722
48.7715 27.6862 3.97806
49.1089 24.5735 3.97597
47.0997 22.201 3.98888
38.3003 12.7463 3.97689
42.089 14.3095 3.97971
44.7681 18.5804 3.97591
44.1026 37.4848 3.70884
45.679 37.4822 2
47.9497 58.7109 0.0210483
48.5005 55.875 0.0379641
49.362 45.1397 0.0188401
49.2466 48.9251 0.027937
48.9055 52.5229 0.0238269
45.1318 39.8046 0.138674
45.6156 42.5056 0.102526
45.8585 45.6107 0.0172443
42.9554 41.0271 0.302774
41.6257 41.8488 0.496098
46.7781 57.3187 2
43.7458 39.3745 2
41.9938 40.7766 2
47.5296 47.1668 2
47.0205 54.1909 2
47.296 50.6781 2
44.3865 47.2256 2
44.3053 41.8785 2
44.3937 44.3799 2
41.999 42.5151 2
40.651 42.1593 2
45.3194 55.8994 3.99593
42.3335 39.2214 3.53963
40.5093 40.6409 3.64564
45.7143 48.8147 4.00248
45.3286 52.4556 3.9812
43.0948 48.2321 3.99382
43.005 45.8768 3.89235
43.1037 43.6122 3.83696
40.7264 43.5018 3.71348
39.1874 42.4099 3.53839
45.4402 58.7846 0.0056845
43.8453 57.6815 2
42.074 56.2622 3.98565
35.4635 67.6478 0.020655
37.6421 65.4939 0.023687
39.8945 63.535 0.0237011
41.7505 62.4716 0.0228811
42.4719 59.9554 0.0204421
35.5733 65.417 2
40.6217 61.6137 2
37.8381 63.1911 2
40.4357 58.1383 2
38.9108 56.422 3.9944
38.2496 60.3012 3.98001
35.6077 63.1852 3.97461
33.5756 65.3271 0.0240524
31.9605 63.2796 0.0241411
33.6302 63.3194 2
30.3799 62.8419 2
32.1285 61.9838 2
28.6868 62.1774 3.97998
33.3479 61.4894 3.97705
31.0752 61.2052 3.98048
27.587 59.5605 3.97962
23.819 59.0477 3.98937
25.0463 60.8423 3.97721
26.8789 61.4692 2
26.2341 63.464 3.97713
28.0653 64.1334 2
27.4644 66.1748 3.98031
29.885 64.7061 0.0194755
29.4073 66.7504 2
28.9076 68.9387 3.98438
31.3775 67.1863 0.0201693
31.0147 69.4135 2
30.6162 71.7773 3.99099
33.1573 69.7478 0.0149463
32.8927 72.1463 2
32.6054 74.6784 4
35.1955 72.3715 0.00802954
35.0474 74.9197 2
37.5 75 0
33.7252 6.98359 3.98397
35.4364 4.68708 3.98942
35.6223 6.72611 2
37.5154 2.38747 3.99322
37.5243 4.61608 2
39.6245 4.7176 0.0105619
39.7895 2.47432 2
39.9526 0.0806499 4
42.0632 2.71834 0.00684529
42.3947 0.320817 2
44.8158 0.721173 0
43.6993 35.6214 3.70131
42.0082 34.197 3.52029
46.6603 40.3185 0.0999683
49.679 38.509 0.0153555
53.1572 36.6202 0.0219244
47.3259 37.734 2
50.4895 35.5601 2
45.2214 35.1467 2
43.0255 33.891 2
41.6813 33.09 2
47.5212 34.3248 3.94691
44.3062 33.1099 3.83832
41.9876 32.4993 3.73296
40.6473 32.8258 3.50296
37.3114 10.6348 3.98119
37.4598 8.53615 2
37.5175 6.67633 0.0144715
39.2114 8.69683 0.0174231
38.9788 10.1313 2
34.756 10.3881 3.98092
35.9008 9.7739 2
32.3804 9.37507 3.97835
34.1522 8.8242 2
35.9436 8.49619 0.0157983
51.6619 32.9058 0.0176462
50.69 29.3714 0.0224213
50.3845 25.9187 0.029466
49.7979 22.4316 0.0149838
47.458 19.4411 0.0208881
45.7741 15.4552 0.0129813
43.8502 11.9105 0.020226
40.5658 11.6171 0.0179015
49.2568 31.5275 2
38.3007 12.7431 2
42.0928 14.3186 2
48.7802 27.691 2
49.1074 24.573 2
47.0873 22.1883 2
44.7702 18.6369 2
47.1299 29.6756 3.98556
46.7921 25.3061 3.96829
44.2267 21.5757 3.97913
36.5851 12.9557 3.97425
38.6814 14.8507 3.97479
41.7351 17.9206 3.97824
42.4856 37.4692 3.57467
44.155 37.4841 2
45.5869 37.4783 0.143231
46.7817 57.3161 0.0227141
47.0258 54.1866 0.0380841
47.5221 47.1663 0.0175386
47.2954 50.6681 0.0209874
43.6872 39.3491 0.301384
44.2665 41.8465 0.145912
44.3496 44.3553 0.0998024
44.3578 47.2412 0.0233814
41.9474 42.4667 0.264954
41.9908 40.762 0.470377
40.6228 42.1485 0.495945
45.3143 55.9021 2
42.3327 39.2264 2
40.5332 40.6252 2
45.7154 48.8332 2
45.3239 52.4572 2
43.1195 48.2506 2
43.0575 45.9201 2
43.1504 43.6443 2
40.7624 43.5612 2
39.1853 42.4226 2
43.6443 54.3692 3.99588
40.6148 39.0737 3.66214
39.078 40.7132 3.61734
43.4224 50.3144 4.00406
41.7249 47.3964 3.93013
41.637 44.9751 3.84894
39.3389 44.1571 3.6823
37.5008 42.5142 3.57476
43.8481 57.6758 0.0190251
42.075 56.2585 2
40.3835 54.834 3.99359
35.573 65.4164 0.0234123
37.8378 63.1909 0.0261845
40.6214 61.6154 0.0199819
40.4356 58.1387 0.0196663
35.6079 63.1852 2
38.2495 60.3017 2
38.9123 56.4133 2
37.987 55.1113 3.99472
36.9338 57.5988 3.99151
35.3656 60.8903 3.97915
33.6299 63.3186 0.0252187
30.3796 62.8408 0.0201395
32.1275 61.9824 0.0146001
33.3488 61.4897 2
28.6872 62.1798 2
31.0764 61.2075 2
29.4173 60.2586 3.97597
32.3665 59.7095 3.98945
28.0548 58.3438 4.00489
27.5894 59.5602 2
25.4069 58.5646 3.98005
22.7999 58.2017 3.96857
23.4154 60.3137 3.97932
23.8212 59.0476 2
25.0473 60.8415 2
24.4392 62.7513 3.97724
26.8782 61.4693 0.0224721
26.2347 63.4648 2
25.5495 65.4826 3.97876
28.0655 64.1351 0.0217017
27.4645 66.1746 2
26.8373 68.3273 3.98449
29.4074 66.7502 0.0192102
28.9072 68.9387 2
28.3715 71.2626 3.99041
31.0151 69.4131 0.0151976
30.6154 71.7773 2
30.1842 74.2788 4
32.8934 72.1459 0.00846079
32.6053 74.6792 2
35.0474 74.9194 0
31.7898 7.42312 3.98243
33.349 4.92688 3.98849
33.7248 6.98105 2
35.2458 2.46342 3.9932
35.4362 4.68637 2
35.6221 6.72748 0.0148177
37.5 0 4
37.515 2.38703 2
37.5242 4.61692 0.0103865
39.7897 2.47504 0.00686942
39.9526 0.0802889 2
42.3946 0.32156 0
42.3266 35.7161 3.5312
43.7702 35.5905 2
40.5392 34.3265 3.6454
42.0056 34.1805 2
47.3299 37.7672 0.0866551
50.4827 35.5674 0.0253779
45.1514 35.1698 0.140034
42.9863 33.9314 0.305945
41.6539 33.1148 0.49784
47.541 34.3473 2
44.3429 33.0861 2
42.0407 32.4494 2
40.674 32.8146 2
45.6103 31.7291 3.90979
43.1408 31.3521 3.83161
40.759 31.4705 3.71237
39.2061 32.5808 3.53464
35.6949 11.7851 3.97745
37.3143 10.6321 2
37.4589 8.53741 0.015383
38.9762 10.1326 0.0163483
33.1012 11.2274 3.97351
34.7549 10.3814 2
35.8997 9.77864 0.0201061
30.4856 10.0257 3.97808
32.3793 9.37382 2
34.1534 8.82816 0.0178468
49.2377 31.5342 0.0127752
48.7715 27.6862 0.0219423
49.1089 24.5735 0.0240263
47.0997 22.201 0.011118
44.7681 18.5804 0.0240923
42.089 14.3095 0.0202874
38.3003 12.7463 0.0231115
36.5818 12.9373 2
47.144 29.6216 2
38.6788 14.8296 2
41.727 17.9193 2
46.7978 25.3049 2
44.2131 21.5509 2
45.0776 27.8171 4.00627
43.613 24.2325 4.02753
41.2975 20.9343 3.98486
35.773 14.7965 3.97641
38.6737 17.653 3.98117
40.6707 37.458 3.67642
42.4946 37.4733 2
44.1026 37.4848 0.291158
45.3194 55.8994 0.00407325
45.3286 52.4556 0.0188043
45.7143 48.8147 -0.00248007
42.3335 39.2214 0.460374
43.1037 43.6122 0.163043
43.005 45.8768 0.107647
43.0948 48.2321 0.00617742
40.7264 43.5018 0.286524
40.5093 40.6409 0.354359
39.1874 42.4099 0.461606
43.6412 54.3647 2
40.6166 39.0726 2
39.0797 40.7049 2
43.4152 50.3307 2
41.7228 47.429 2
41.6634 45.0185 2
37.498 42.5319 2
39.3541 44.2162 2
41.7999 52.8531 3.99792
39.0892 39.1027 3.63128
37.5044 40.7677 3.64351
35.8187 42.419 3.53857
40.8312 49.4684 3.99502
39.7441 45.7401 3.82415
37.5003 44.4126 3.71109
42.074 56.2622 0.0143534
40.3817 54.8422 2
38.7229 53.6644 3.99546
35.6077 63.1852 0.0253942
38.2496 60.3012 0.0199927
38.9108 56.422 0.00560332
35.3661 60.8893 2
36.9346 57.597 2
37.9881 55.1138 2
36.3227 55.1728 3.995
34.4954 58.4968 3.99372
33.3479 61.4894 0.0229492
28.6868 62.1774 0.0200188
31.0752 61.2052 0.0195228
32.3677 59.7128 2
29.4188 60.2577 2
30.3282 57.7823 3.98473
28.058 58.3429 2
27.0116 56.7965 3.96626
27.587 59.5605 0.0203821
25.4101 58.5646 2
23.9159 56.7611 3.95976
21.4016 57.3488 3.96016
22.0151 59.5826 3.97369
22.8022 58.2026 2
22.745 62.0033 3.97381
23.4166 60.3129 2
23.819 59.0477 0.0106291
25.0463 60.8423 0.0227946
24.44 62.7538 2
23.6847 64.6986 3.97641
26.2341 63.464 0.0228679
25.5494 65.4841 2
24.8098 67.588 3.98343
27.4644 66.1748 0.0196933
26.837 68.328 2
26.1666 70.6036 3.99042
28.9076 68.9387 0.0156196
28.3705 71.2624 2
27.7943 73.7221 4
30.6162 71.7773 0.00900795
30.1841 74.2794 2
32.6054 74.6784 0
29.8126 7.99843 3.98079
31.2545 5.33356 3.98753
31.7891 7.42159 2
32.9818 2.70169 3.99282
33.3485 4.92535 2
33.7252 6.98359 0.0160346
35.0474 0.080333 4
35.2453 2.46318 2
35.4364 4.68708 0.0105832
37.5 0 2
37.5154 2.38747 0.00678162
39.9526 0.0806499 0
40.6475 35.8625 3.66265
42.3279 35.7179 2
43.6993 35.6214 0.29869
28.5459 10.701 3.9776
39.0864 34.2768 3.61613
40.546 34.3383 2
42.0082 34.197 0.479705
47.5212 34.3248 0.0530894
44.3062 33.1099 0.161681
41.9876 32.4993 0.267041
40.6473 32.8258 0.497044
45.6434 31.7099 2
43.1843 31.3188 2
40.7986 31.4094 2
39.2096 32.5699 2
43.9521 29.9303 3.90452
41.6501 29.9872 3.85108
39.3639 30.8247 3.68062
37.528 32.4876 3.57392
34.0972 12.9525 3.97363
35.6941 11.7734 2
37.3114 10.6348 0.0188097
31.1903 11.9973 3.97764
33.1011 11.2263 2
34.756 10.3881 0.0190776
30.484 10.0227 2
32.3804 9.37507 0.0216512
47.1299 29.6756 0.0144374
46.7921 25.3061 0.031707
36.5851 12.9557 0.0257499
44.2267 21.5757 0.0208727
41.7351 17.9206 0.0217605
38.6814 14.8507 0.0252145
35.7758 14.8049 2
45.0782 27.8143 2
38.6707 17.6584 2
41.2832 20.926 2
43.6077 24.2135 2
33.613 15.9042 3.98102
42.7676 26.6528 3.98476
40.7968 23.5243 3.99981
38.4016 20.4199 3.99359
35.8473 17.5525 3.98025
39.1052 37.4858 3.64776
40.6661 37.4603 2
42.4856 37.4692 0.425326
43.6443 54.3692 0.0041231
43.4224 50.3144 -0.00405547
40.6148 39.0737 0.337861
41.637 44.9751 0.151059
41.7249 47.3964 0.0698724
39.3389 44.1571 0.317703
39.078 40.7132 0.382656
37.5008 42.5142 0.42524
41.7893 52.856 2
39.0828 39.0892 2
37.5024 40.7545 2
40.8222 49.4895 2
35.8165 42.4304 2
39.761 45.7962 2
37.4915 44.4672 2
39.7392 51.6642 4.00259
37.5074 39.1085 3.66529
35.937 40.7278 3.6178
34.3803 42.1663 3.50504
35.6655 44.1744 3.67271
38.6657 48.3864 3.9433
37.5228 46.0291 3.85185
40.3835 54.834 0.00641028
38.7247 53.652 2
36.7492 52.9634 3.99695
35.3656 60.8903 0.0208495
36.9338 57.5988 0.00849012
37.987 55.1113 0.00527612
34.4965 58.4953 2
36.3253 55.1651 2
33.2548 55.3633 3.99166
32.3665 59.7095 0.0105457
29.4173 60.2586 0.0240252
30.3313 57.7795 2
28.7944 55.2809 3.98458
28.0548 58.3438 -0.00488815
27.0145 56.7959 2
25.4316 55.0912 3.96052
21.9344 55.2864 3.95998
25.4069 58.5646 0.0199516
23.9184 56.763 2
20.2739 56.9804 3.96302
20.6733 58.7362 3.96968
21.4036 57.3502 2
21.1788 61.1368 3.97437
22.0164 59.5829 2
22.7999 58.2017 0.0314298
21.8997 63.824 3.97637
22.7461 62.0043 2
23.4154 60.3137 0.0206771
24.4392 62.7513 0.0227562
23.6847 64.6989 2
22.8384 66.7305 3.98121
25.5495 65.4826 0.0212352
24.8095 67.589 2
24.0108 69.8048 3.99026
26.8373 68.3273 0.0155145
26.1654 70.6036 2
25.446 73.0099 4
28.3715 71.2626 0.00958775
27.7943 73.7222 2
30.1842 74.2788 0
27.8224 8.65832 3.98077
29.1567 5.88009 3.98586
29.8114 7.99592 2
30.7273 3.09851 3.99258
31.2538 5.3322 2
31.7898 7.42312 0.0175711
32.6053 0.320823 4
32.981 2.70111 2
33.349 4.92688 0.0115134
35.0474 0.0802903 2
35.2458 2.46342 0.00679524
37.5 0 0
39.0824 35.8801 3.63781
40.6309 35.8633 2
42.3266 35.7161 0.468803
28.5445 10.6988 2
26.6244 11.3973 3.978
29.2306 12.651 3.9808
37.5182 34.2375 3.64203
39.0976 34.2931 2
40.5392 34.3265 0.354596
45.6103 31.7291 0.0902121
43.1408 31.3521 0.168387
40.759 31.4705 0.287633
39.2061 32.5808 0.465364
43.9837 29.8993 2
41.6794 29.9482 2
39.371 30.7659 2
37.5277 32.4701 2
42.0787 28.6245 3.87714
39.7353 29.2315 3.84459
37.522 30.5915 3.70848
35.8381 32.5868 3.53963
31.9235 14.4967 3.9797
34.0983 12.9555 2
35.6949 11.7851 0.0225509
31.1894 11.9928 2
33.1012 11.2274 0.0264916
30.4856 10.0257 0.0219191
45.0776 27.8171 -0.00626898
43.613 24.2325 -0.027534
35.773 14.7965 0.0235923
41.2975 20.9343 0.0151429
38.6737 17.653 0.018829
33.6099 15.8967 2
35.8422 17.5562 2
42.7873 26.6444 2
38.3856 20.4746 2
40.7819 23.499 2
33.5524 17.4296 3.98134
40.215 25.9087 3.95496
38.0398 23.248 3.99985
35.5779 20.1498 3.99274
37.5114 37.4917 3.68143
39.0966 37.4803 2
40.6707 37.458 0.323575
41.7999 52.8531 0.0020812
40.8312 49.4684 0.00498439
39.0892 39.1027 0.368717
39.7441 45.7401 0.175854
37.5003 44.4126 0.28891
37.5044 40.7677 0.356487
35.8187 42.419 0.461426
39.7287 51.6727 2
37.5088 39.1025 2
35.9344 40.7168 2
38.6788 48.4415 2
34.3544 42.1773 2
35.6431 44.2333 2
37.5203 46.0824 2
37.6762 50.6858 3.99688
35.9372 39.1173 3.63682
34.5036 40.6666 3.64787
33.3718 41.8699 3.50612
34.2746 43.5133 3.70988
35.2251 45.7545 3.84134
36.9249 47.9946 3.90908
38.7229 53.6644 0.00453769
36.7581 52.9576 2
34.436 52.295 3.99869
34.4954 58.4968 0.00627763
36.3227 55.1728 0.00500413
33.2599 55.3698 2
30.6324 53.2708 3.99808
30.3282 57.7823 0.0152683
28.7968 55.2799 2
27.0565 53.378 3.95918
27.0116 56.7965 0.0337363
25.434 55.0935 2
23.774 53.4052 3.95721
20.7124 53.1338 3.95903
20.0296 55.7739 3.96234
21.932 55.289 2
23.9159 56.7611 0.0402369
19.473 57.8465 3.96618
20.2724 56.9821 2
19.7213 60.1595 3.97159
20.6725 58.7374 2
21.4016 57.3488 0.039837
20.2136 62.8438 3.9729
21.1799 61.1378 2
22.0151 59.5826 0.026311
20.9403 65.7574 3.97914
21.8998 63.8255 2
22.745 62.0033 0.0261864
23.6847 64.6986 0.0235861
22.8381 66.7308 2
21.9134 68.872 3.98959
24.8098 67.588 0.0165743
24.0093 69.8046 2
23.1494 72.1454 4
26.1666 70.6036 0.0095837
25.446 73.0099 2
27.7943 73.7221 0
25.8615 9.38737 3.97992
27.0715 6.54438 3.98458
27.8208 8.6567 2
28.4898 3.64444 3.99175
29.1557 5.87851 2
29.8126 7.99843 0.0192077
30.1841 0.720592 4
30.7261 3.09811 2
31.2545 5.33356 0.0124739
32.6053 0.320817 2
32.9818 2.70169 0.00717992
35.0474 0.080333 0
37.5101 35.8807 3.66235
39.0682 35.8808 2
40.6475 35.8625 0.337354
24.7808 12.0855 3.97655
23.7612 14.3803 3.97504
28.5459 10.701 0.0223955
26.6229 11.3951 2
29.2293 12.6492 2
27.2982 13.384 3.97906
29.7905 14.2118 3.98117
35.942 34.2812 3.61725
37.525 34.2515 2
39.0864 34.2768 0.383868
37.528 32.4876 0.426078
43.9521 29.9303 0.0954849
41.6501 29.9872 0.148922
39.3639 30.8247 0.319376
42.1072 28.575 2
39.7527 29.1784 2
37.5248 30.5363 2
35.8377 32.5744 2
39.899 27.8663 3.88321
37.4907 28.967 3.84703
35.6865 30.8446 3.68502
34.3998 32.8401 3.50622
30.9381 16.8559 3.98499
31.9216 14.4887 2
34.0972 12.9525 0.0263698
31.1903 11.9973 0.0223596
42.7676 26.6528 0.01524
40.7968 23.5243 0.000194963
33.613 15.9042 0.0189837
35.8473 17.5525 0.0197547
38.4016 20.4199 0.0064077
33.5476 17.4418 2
35.588 20.1436 2
40.2822 25.8988 2
38.0185 23.2084 2
32.8774 19.831 3.99398
37.6519 25.5555 3.97126
35.2185 22.908 3.99954
35.9184 37.4925 3.64979
37.5066 37.4918 2
39.1052 37.4858 0.352242
39.7392 51.6642 -0.00258699
38.6657 48.3864 0.0566957
37.5074 39.1085 0.334707
37.5228 46.0291 0.148149
35.6655 44.1744 0.327291
35.937 40.7278 0.382196
34.3803 42.1663 0.494962
37.6649 50.7174 2
35.9506 39.1046 2
34.4795 40.6552 2
36.9063 48.0507 2
33.3393 41.8945 2
34.2421 43.5705 2
35.2048 45.8042 2
35.5504 49.8697 3.98591
34.3973 39.114 3.66237
33.0152 40.788 3.52499
33.0471 42.4834 3.73754
33.3904 44.9832 3.84263
34.4331 47.1328 3.88113
36.7492 52.9634 0.00304894
34.433 52.3031 2
32.1864 51.0789 4.01707
33.2548 55.3633 0.00834174
30.6353 53.2751 2
28.6448 51.4982 3.99101
28.7944 55.2809 0.0154211
27.0587 53.3799 2
25.3395 51.6499 3.95477
25.4316 55.0912 0.0394756
23.773 53.41 2
22.2698 51.7004 3.95159
19.5455 51.5287 3.96094
19.1074 54.2325 3.96168
20.712 53.1331 2
18.5117 56.6734 3.96333
20.0269 55.7756 2
21.9344 55.2864 0.0400176
18.3879 59.0711 3.96817
19.472 57.8474 2
20.2739 56.9804 0.0369821
18.6282 61.732 3.97185
19.7218 60.1614 2
20.6733 58.7362 0.0303181
19.1297 64.6669 3.97802
20.214 62.845 2
21.1788 61.1368 0.0256275
19.8878 67.8082 3.98841
20.9397 65.7581 2
21.8997 63.824 0.023634
22.8384 66.7305 0.0187854
21.9117 68.8711 2
20.9142 71.1327 4
24.0108 69.8048 0.00974006
23.1494 72.1455 2
25.446 73.0099 0
23.1024 12.802 3.97702
23.9745 10.1767 3.97779
25.0251 7.31523 3.98335
25.8597 9.38593 2
26.2816 4.32855 3.99098
27.0701 6.54341 2
27.8224 8.65832 0.0192262
27.7943 1.27781 4
28.488 3.64427 2
29.1567 5.88009 0.0141429
30.1841 0.720551 2
30.7273 3.09851 0.0074248
32.6053 0.320823 0
35.9262 35.8744 3.62936
37.5215 35.8905 2
39.0824 35.8801 0.362192
24.7777 12.081 2
23.7612 14.3844 2
22.493 15.0632 3.98012
25.3659 13.9256 3.97297
24.0456 15.642 3.98385
26.6244 11.3973 0.022004
29.2306 12.651 0.0191999
27.2981 13.3816 2
29.787 14.2091 2
28.3732 15.9828 3.98269
34.5165 34.3457 3.6448
35.9387 34.2886 2
37.5182 34.2375 0.357967
35.8381 32.5868 0.460371
37.522 30.5915 0.291523
42.0787 28.6245 0.122864
39.7353 29.2315 0.155414
39.9329 27.8259 2
37.4884 28.911 2
35.6695 30.7787 2
34.3704 32.832 2
37.603 27.6019 3.88587
35.2612 29.2524 3.84443
34.2862 31.4919 3.70907
33.3898 33.1334 3.50402
30.2243 19.4112 3.98283
30.9337 16.8454 2
31.9235 14.4967 0.0202961
40.215 25.9087 0.0450423
38.0398 23.248 0.000145136
33.5524 17.4296 0.018658
35.5779 20.1498 0.00726019
32.8756 19.8487 2
35.2172 22.8928 2
37.7133 25.5341 2
32.3827 22.5625 3.99631
35.0829 25.4756 3.994
34.3489 37.5084 3.67849
35.9213 37.4978 2
37.5114 37.4917 0.31857
37.6762 50.6858 0.00312488
36.9249 47.9946 0.090916
35.9372 39.1173 0.36318
35.2251 45.7545 0.158661
34.2746 43.5133 0.290124
34.5036 40.6666 0.352132
33.3718 41.8699 0.493879
35.5388 49.8795 2
34.4001 39.1105 2
33.0127 40.8012 2
34.4272 47.1789 2
33.0054 42.5318 2
33.3643 45.025 2
33.3824 48.9365 3.97626
32.6866 39.261 3.53425
32.0358 41.0502 3.69636
31.8873 43.6296 3.83654
32.5794 46.1099 3.88449
34.436 52.295 0.0013137
32.1903 51.0915 2
30.1647 49.6593 4.00232
30.6324 53.2708 0.00192131
28.6453 51.4929 2
26.8375 49.8698 3.96971
27.0565 53.378 0.0408219
25.3375 51.6494 2
23.709 50.0612 3.9615
23.774 53.4052 0.0427923
22.2692 51.6989 2
20.8625 50.1918 3.96484
18.3433 50.2267 3.96904
18.1132 52.7016 3.96362
19.544 51.5279 2
17.5787 55.2761 3.96249
19.104 54.2326 2
20.7124 53.1338 0.0409714
17.1665 57.8345 3.9621
18.5088 56.6742 2
20.0296 55.7739 0.0376579
17.1468 60.512 3.96691
18.388 59.0717 2
19.473 57.8465 0.0338176
17.4112 63.457 3.97139
18.6289 61.733 2
19.7213 60.1595 0.0284064
17.9441 66.6164 3.98669
19.1292 64.6668 2
20.2136 62.8438 0.0270968
18.75 69.9759 4
19.8858 67.807 2
20.9403 65.7574 0.0208589
21.9134 68.872 0.0104061
20.9142 71.1327 2
23.1494 72.1454 0
21.5964 13.6291 3.97598
22.1933 11.0394 3.97485
23.1004 12.8063 2
23.0428 8.18189 3.98146
23.9718 10.1748 2
24.1192 5.14335 3.99034
25.0233 7.3145 2
25.8615 9.38737 0.0200761
25.446 1.99014 4
26.2794 4.3289 2
27.0715 6.54438 0.0154224
27.7943 1.27778 2
28.4898 3.64444 0.00825405
30.1841 0.720592 0
34.4104 35.899 3.66084
35.9357 35.8891 2
37.5101 35.8807 0.337646
21.3265 15.8698 3.98289
24.7808 12.0855 0.0234528
23.7612 14.3803 0.0249611
25.3649 13.9169 2
22.4939 15.0621 2
24.0479 15.6474 2
23.2919 16.2723 3.97195
25.4018 16.1125 3.98295
27.2982 13.384 0.0209408
29.7905 14.2118 0.0188277
28.3686 15.9879 2
27.464 18.8402 3.98083
33.0253 34.2227 3.53066
34.4929 34.3606 2
35.942 34.2812 0.382753
34.3998 32.8401 0.493781
35.6865 30.8446 0.314975
37.4907 28.967 0.152972
39.899 27.8663 0.11679
37.5782 27.5637 2
33.3613 33.1111 2
35.2628 29.1908 2
34.2453 31.4294 2
35.1605 27.6987 3.89491
33.388 30.0146 3.84405
33.0716 32.517 3.72944
29.6914 22.0117 4.00166
30.2258 19.4153 2
30.9381 16.8559 0.0150114
37.6519 25.5555 0.0287368
35.2185 22.908 0.000462478
32.8774 19.831 0.00601851
32.3884 22.5544 2
35.1147 25.466 2
31.9404 25.8172 4.00584
32.5233 37.5075 3.57509
34.3627 37.5042 2
35.9184 37.4925 0.35021
35.5504 49.8697 0.0140873
34.4331 47.1328 0.118865
34.3973 39.114 0.337631
33.3904 44.9832 0.157374
33.0471 42.4834 0.262456
33.0152 40.788 0.475011
33.372 48.9359 2
32.6968 39.2653 2
31.9978 41.0871 2
32.5407 46.1556 2
31.8445 43.6607 2
31.5077 47.7838 3.97946
31.3207 39.3682 3.70141
30.7209 41.879 3.84334
30.9379 44.7436 3.89904
32.1864 51.0789 -0.01707
30.1686 49.6843 2
28.2992 48.0447 3.96084
28.6448 51.4982 0.00898536
26.8365 49.871 2
25.0999 48.319 3.96669
25.3395 51.6499 0.0452267
23.7084 50.0594 2
22.1372 48.6444 3.97117
22.2698 51.7004 0.0484141
20.8605 50.1906 2
19.4475 48.9745 3.97329
17.2244 49.2382 3.97436
17.0647 51.3194 3.96803
18.3454 50.2252 2
16.5805 53.8002 3.96488
18.112 52.7011 2
19.5455 51.5287 0.0390621
16.0511 56.4304 3.96272
17.5758 55.2766 2
19.1074 54.2325 0.0383153
15.7619 59.1814 3.96661
17.166 57.8353 2
18.5117 56.6734 0.0366692
15.7932 62.1107 3.9695
17.1475 60.5137 2
18.3879 59.0711 0.031825
16.0909 65.2985 3.98523
17.4103 63.4586 2
18.6282 61.732 0.0281486
16.6661 68.6801 4
17.9419 66.6146 2
19.1297 64.6669 0.0219764
18.75 69.9759 2
19.8878 67.8082 0.0115929
20.9142 71.1327 0
20.2312 14.6352 3.97138
21.5953 13.6353 2
20.5344 12.0162 3.97544
21.1458 9.15377 3.97951
22.1909 11.0387 2
23.1024 12.802 0.0229798
22.0184 6.08223 3.98997
23.0403 8.18086 2
23.9745 10.1767 0.0222055
23.1494 2.85457 4
24.1166 5.1441 2
25.0251 7.31523 0.0166496
25.446 1.99012 2
26.2816 4.32855 0.00902243
27.7943 1.27781 0
32.6781 35.7577 3.5389
34.4083 35.9001 2
35.9262 35.8744 0.370639
21.3283 15.8653 2
20.3352 16.9997 3.97313
22.124 16.6686 3.96827
25.3659 13.9256 0.0270327
22.493 15.0632 0.019881
24.0456 15.642 0.0161499
25.4034 16.1048 2
23.2948 16.2722 2
24.2368 18.5328 3.96818
27.1253 21.6043 3.99457
28.3732 15.9828 0.0173071
27.4611 18.8787 2
32.0691 33.9638 3.69216
33.0271 34.205 2
34.5165 34.3457 0.355201
33.3898 33.1334 0.495978
34.2862 31.4919 0.290931
35.2612 29.2524 0.155573
37.603 27.6019 0.114126
35.166 27.6522 2
32.9981 32.4704 2
33.3618 29.9762 2
32.8264 28.3614 3.90564
31.8953 31.3785 3.82872
29.064 24.5063 3.99669
29.6884 22.0239 2
30.2243 19.4112 0.0171702
35.0829 25.4756 0.00599719
32.3827 22.5625 0.00368645
31.9338 25.791 2
30.0307 27.4655 3.9776
30.9086 37.5028 3.70633
32.5304 37.5062 2
34.3489 37.5084 0.321511
33.3824 48.9365 0.0237425
32.5794 46.1099 0.115507
32.6866 39.261 0.46575
31.8873 43.6296 0.163464
32.0358 41.0502 0.303641
31.4664 47.8039 2
31.2516 39.393 2
30.6851 41.9017 2
30.894 44.7822 2
29.7096 46.3927 3.9945
29.8641 39.8267 3.86277
29.4077 42.9931 3.90371
30.1647 49.6593 -0.00232458
28.2926 48.0383 2
26.4981 46.4911 3.98294
26.8375 49.8698 0.0302931
25.1004 48.317 2
23.373 46.91 3.97422
23.709 50.0612 0.0384975
22.1351 48.643 2
20.442 47.4867 3.97655
20.8625 50.1918 0.0351619
19.4486 48.9729 2
18.0478 48.0743 3.9769
16.4587 48.5972 3.9765
17.2261 49.237 2
16.1371 50.0887 3.97231
15.5954 52.3457 3.96782
17.0662 51.3183 2
18.3433 50.2267 0.0309609
14.9943 54.9256 3.96362
16.5823 53.7996 2
18.1132 52.7016 0.0363783
14.4809 57.7136 3.96254
16.051 56.4306 2
17.5787 55.2761 0.0375067
14.2719 60.6721 3.96797
15.7637 59.182 2
17.1665 57.8345 0.0379003
14.3358 63.8561 3.98091
15.7931 62.1125 2
17.1468 60.512 0.0330949
14.6715 67.2507 4
16.0881 65.296 2
17.4112 63.457 0.0286127
16.6661 68.6801 2
17.9441 66.6164 0.0133094
18.75 69.9759 0
18.9504 15.8205 3.97386
20.2319 14.6328 2
18.9872 13.1364 3.97465
21.5964 13.6291 0.0240154
20.533 12.0179 2
19.3459 10.2443 3.9773
19.9932 7.14717 3.98862
21.1429 9.15391 2
22.1933 11.0394 0.0251545
20.9142 3.86727 4
22.0151 6.08339 2
23.0428 8.18189 0.0185427
23.1494 2.85451 2
24.1192 5.14335 0.00966002
25.446 1.99014 0
31.3424 35.6409 3.69771
32.6849 35.751 2
34.4104 35.899 0.339163
21.3265 15.8698 0.0171133
22.1261 16.6654 2
20.3371 16.9945 2
19.3096 18.4582 3.95713
21.8141 17.9146 3.98046
25.4018 16.1125 0.0170475
23.2919 16.2723 0.0280526
24.2311 18.5529 2
22.3839 19.9774 3.96401
24.7076 21.4846 3.98627
26.6778 23.7993 3.97874
27.1318 21.5486 2
27.464 18.8402 0.0191676
30.7738 33.14 3.8534
32.0342 33.9145 2
33.0253 34.2227 0.46934
33.0716 32.517 0.270564
33.388 30.0146 0.155948
35.1605 27.6987 0.10509
32.7932 28.3333 2
31.8397 31.3401 2
30.6287 29.7521 3.93226
28.2905 26.6585 3.99556
29.0513 24.5134 2
29.6914 22.0117 -0.0016647
31.9404 25.8172 -0.00584303
30.0215 27.4417 2
29.416 37.5031 3.85758
30.8542 37.502 2
32.5233 37.5075 0.424908
31.5077 47.7838 0.0205414
30.9379 44.7436 0.100964
31.3207 39.3682 0.298586
30.7209 41.879 0.156664
29.7128 46.3901 2
29.7958 39.8413 2
29.3778 43.0333 2
27.9607 44.7175 3.97245
27.6258 40.5584 3.93648
28.2992 48.0447 0.0391556
26.4945 46.4882 2
24.6697 45.0278 3.97877
25.0999 48.319 0.0333121
23.3716 46.91 2
21.4547 45.7586 3.97795
22.1372 48.6444 0.0288318
20.4419 47.4852 2
18.7678 46.6234 3.9769
19.4475 48.9745 0.0267131
18.0486 48.0731 2
16.6891 47.6212 3.9766
16.4604 48.5962 2
15.4812 48.9394 3.97571
17.2244 49.2382 0.0256384
16.1394 50.0876 2
14.712 50.9198 3.97098
13.9692 53.3847 3.96594
15.5967 52.345 2
17.0647 51.3194 0.031967
13.3025 56.1406 3.96289
14.9946 54.9254 2
16.5805 53.8002 0.0351237
12.8564 59.111 3.9678
14.4839 57.7134 2
16.0511 56.4304 0.0372774
12.6819 62.2973 3.97719
14.2728 60.6718 2
15.7619 59.1814 0.0333863
12.7746 65.6939 4
14.3335 63.8526 2
15.7932 62.1107 0.0305032
14.6714 67.2507 2
16.0909 65.2985 0.0147692
16.6661 68.6801 0
17.7007 17.1962 3.96669
18.9504 15.8184 2
17.5225 14.4048 3.97126
20.2312 14.6352 0.0286162
18.9864 13.1388 2
17.6419 11.4639 3.97466
20.5344 12.0162 0.0245559
19.3429 10.2457 2
18.0534 8.3403 3.98668
18.75 5.0241 4
19.9894 7.14928 2
21.1458 9.15377 0.0204906
20.9142 3.86727 2
22.0184 6.08223 0.0100327
23.1494 2.85457 0
29.8898 35.1947 3.86186
31.2775 35.6184 2
32.6781 35.7577 0.4611
22.124 16.6686 0.0317308
20.3352 16.9997 0.0268732
21.8139 17.9141 2
19.309 18.4539 2
18.1273 20.0107 3.96139
20.9695 19.4493 3.96341
24.2368 18.5328 0.0318169
22.3794 19.9836 2
24.7132 21.4724 2
22.536 21.8201 3.98204
24.9493 23.2401 3.97415
25.889 26.0408 3.97905
26.6767 23.7924 2
27.1253 21.6043 0.00543265
29.1622 32.4881 3.90563
30.7143 33.1047 2
32.0691 33.9638 0.307838
31.8953 31.3785 0.171276
32.8264 28.3614 0.0943609
30.6054 29.7452 2
27.6201 29.2437 4.0137
28.2763 26.6674 2
29.064 24.5063 0.00331499
30.0307 27.4655 0.0224003
27.7521 37.3561 3.90985
29.347 37.4949 2
30.9086 37.5028 0.29367
29.7096 46.3927 0.00549825
29.4077 42.9931 0.0962949
29.8641 39.8267 0.137226
27.9533 44.7685 2
27.5981 40.5481 2
26.0298 43.0506 3.98903
24.8873 39.4482 3.97334
26.4981 46.4911 0.0170563
24.6592 45.0289 2
22.5742 43.7978 3.97708
23.373 46.91 0.0257778
21.4516 45.7596 2
19.5197 44.8609 3.9766
20.442 47.4867 0.0234535
18.7679 46.6235 2
17.0376 46.1173 3.97652
18.0478 48.0743 0.0230982
16.6905 47.6203 2
15.2416 47.5937 3.97621
16.4587 48.5972 0.0234991
15.4833 48.9384 2
14.0198 49.4852 3.97346
16.1371 50.0887 0.0276928
14.7133 50.9191 2
13.0407 51.8283 3.96805
12.2069 54.5006 3.96395
13.9695 53.3843 2
15.5954 52.3457 0.0321767
11.5428 57.448 3.96664
13.303 56.1405 2
14.9943 54.9256 0.0363776
11.1367 60.6236 3.97597
12.8576 59.1103 2
14.4809 57.7136 0.0374609
10.9835 64.0165 4
12.68 62.2933 2
14.2719 60.6721 0.0320315
12.7745 65.694 2
14.3358 63.8561 0.0190946
14.6715 67.2507 0
16.4795 18.6993 3.96156
17.7 17.1945 2
16.1179 15.8146 3.96627
18.9504 15.8205 0.026142
17.5216 14.4022 2
16.0256 12.8276 3.97223
18.9872 13.1364 0.025349
17.6402 11.4685 2
16.2044 9.66437 3.98509
19.3459 10.2443 0.0227044
18.0494 8.34401 2
16.6661 6.31991 4
18.75 5.02404 2
19.9932 7.14717 0.0113761
20.9142 3.86727 0
28.2835 34.8372 3.90313
29.8162 35.1654 2
31.3424 35.6409 0.302289
16.8556 21.4464 3.96685
21.8141 17.9146 0.0195421
19.3096 18.4582 0.0428737
20.9675 19.447 2
18.1244 20.0085 2
19.9279 21.661 3.97147
22.3839 19.9774 0.0359878
24.7076 21.4846 0.0137285
22.5323 21.826 2
24.9452 23.2401 2
23.2096 24.704 3.97309
25.1677 28.635 3.98227
25.8802 26.0436 2
26.6778 23.7993 0.0212591
27.0143 31.8395 3.98051
29.13 32.4689 2
30.7738 33.14 0.146603
30.6287 29.7521 0.0677365
27.6312 29.2235 2
28.2905 26.6585 0.00443513
25.5794 36.8542 3.97076
27.7369 37.3651 2
29.416 37.5031 0.142423
27.9607 44.7175 0.0275508
27.6258 40.5584 0.0635169
26.009 43.0716 2
24.8668 39.4532 2
23.7761 41.8018 3.98251
22.6076 38.5223 3.97877
24.6697 45.0278 0.0212278
22.5735 43.798 2
20.3852 42.8076 3.97584
21.4547 45.7586 0.0220544
19.5203 44.8613 2
17.4372 44.2946 3.97601
18.7678 46.6234 0.0231045
17.0388 46.1172 2
15.1986 46.0142 3.9761
16.6891 47.6212 0.0234045
15.2435 47.5928 2
13.5477 47.9505 3.97522
15.4812 48.9394 0.0242915
14.0214 49.4844 2
12.2701 50.2101 3.96984
14.712 50.9198 0.0290245
13.0415 51.8277 2
11.2052 52.8131 3.96513
10.3339 55.7044 3.96628
12.2071 54.5003 2
13.9692 53.3847 0.0340627
9.70338 58.8466 3.97525
11.5436 57.4473 2
13.3025 56.1406 0.0371133
9.30605 62.2254 4
11.1351 60.6195 2
12.8564 59.111 0.0322027
10.9835 64.0165 2
12.6819 62.2973 0.0228097
12.7746 65.6939 0
15.2644 20.2385 3.9634
16.4802 18.699 2
14.7685 17.334 3.964
17.7007 17.1962 0.0333129
16.1183 15.8128 2
14.4893 14.318 3.96862
17.5225 14.4048 0.0287447
16.0246 12.8235 2
14.4472 11.1162 3.98242
17.6419 11.4639 0.0253431
16.2006 9.66879 2
14.6715 7.74927 4
18.0534 8.3403 0.013316
16.6661 6.31988 2
18.75 5.0241 0
26.2444 34.34 3.97877
28.2645 34.8441 2
29.8898 35.1947 0.138138
18.095 22.4068 3.97331
15.7525 22.9909 3.96989
16.8558 21.4461 2
20.9695 19.4493 0.0365885
18.1273 20.0107 0.0386115
19.9252 21.658 2
20.0318 24.4945 3.97204
22.536 21.8201 0.0179646
24.9493 23.2401 0.0258493
23.205 24.7031 2
22.5296 27.9604 3.97191
24.577 31.3232 3.97967
25.172 28.6287 2
25.889 26.0408 0.0209495
26.9923 31.8046 2
29.1622 32.4881 0.0943657
27.6201 29.2437 -0.0137001
23.333 36.2886 3.98321
25.5633 36.8537 2
27.7521 37.3561 0.0901546
26.0298 43.0506 0.0109651
24.8873 39.4482 0.0266592
23.7594 41.8021 2
22.5976 38.52 2
21.468 40.6173 3.9752
20.8309 37.8036 3.97716
22.5742 43.7978 0.0229213
20.3841 42.809 2
17.9116 42.0376 3.9759
19.5197 44.8609 0.0233951
17.4375 44.2951 2
15.2446 44.1306 3.97584
17.0376 46.1173 0.0234847
15.1997 46.0139 2
13.2455 46.2399 3.97593
15.2416 47.5937 0.0237894
13.5493 47.9497 2
11.6575 48.5098 3.97167
14.0198 49.4852 0.0265404
12.2714 50.2094 2
10.3354 51.0592 3.96613
13.0407 51.8283 0.0319463
11.2059 52.8125 2
9.24269 53.8854 3.96604
8.38692 56.9804 3.976
10.3346 55.7033 2
12.2069 54.5006 0.0360538
7.74927 60.3285 4
9.70211 58.8423 2
11.5428 57.448 0.0333608
9.306 62.2255 2
11.1367 60.6236 0.0240307
10.9835 64.0165 0
14.0953 21.8029 3.96624
15.2631 20.2379 2
13.4876 18.9301 3.96369
16.4795 18.6993 0.0384373
14.7692 17.3327 2
13.0343 15.9053 3.97028
16.1179 15.8146 0.033726
14.4898 14.3155 2
12.7847 12.6913 3.97975
16.0256 12.8276 0.0277687
14.4442 11.1223 2
12.7746 9.30605 4
16.2044 9.66437 0.0149054
14.6715 7.74924 2
16.6661 6.31991 0
23.9201 33.8756 3.98223
26.223 34.3331 2
28.2835 34.8372 0.0968726
17.9618 24.1385 3.97169
18.1024 22.4072 2
14.5932 24.5233 3.97168
15.7548 22.991 2
16.8556 21.4464 0.0331525
19.5371 27.329 3.97417
19.9279 21.661 0.0285314
20.029 24.4943 2
21.8914 30.7947 3.97499
23.2096 24.704 0.0269084
22.53 27.9619 2
24.5491 31.3186 2
25.1677 28.635 0.0177306
27.0143 31.8395 0.0194874
20.9548 35.9632 3.97657
23.3339 36.2894 2
25.5794 36.8542 0.0292382
23.7761 41.8018 0.0174873
22.6076 38.5223 0.0212255
21.4725 40.6184 2
20.8314 37.8018 2
18.6654 38.9936 3.97705
20.3852 42.8076 0.0241645
17.9108 42.038 2
15.2303 41.8735 3.97626
17.4372 44.2946 0.023986
15.2447 44.1307 2
13.0083 44.3412 3.97612
15.1986 46.0142 0.0239028
13.247 46.2391 2
11.1741 46.6973 3.97329
13.5477 47.9505 0.0247807
11.6593 48.509 2
9.60501 49.2209 3.96694
12.2701 50.2101 0.0301576
10.3359 51.0586 2
8.27535 51.9999 3.96587
11.2052 52.8131 0.034872
9.24331 53.8843 2
7.19593 55.0318 3.97697
6.31991 58.3339 4
8.38599 56.9763 2
10.3339 55.7044 0.0337178
7.74924 60.3285 2
9.70338 58.8466 0.0247529
9.30605 62.2254 0
13.4627 25.422 3.97506
12.9975 23.3314 3.96911
14.0945 21.8025 2
12.2951 20.578 3.96423
15.2644 20.2385 0.0365978
13.4877 18.9291 2
11.6662 17.5796 3.96859
14.7685 17.334 0.036003
13.037 15.9046 2
11.223 14.3777 3.97569
14.4893 14.318 0.0313787
12.7824 12.6966 2
10.9835 10.9835 4
14.4472 11.1162 0.0175801
12.7745 9.306 2
14.6715 7.74927 0
21.3131 33.4804 3.97594
23.9228 33.8631 2
26.2444 34.34 0.0212275
16.2958 26.4948 3.97342
17.967 24.139 2
18.095 22.4068 0.0266915
14.5927 24.5234 2
15.7525 22.9909 0.030109
18.936 30.2952 3.97503
19.5375 27.3292 2
20.0318 24.4945 0.0279647
21.9053 30.7953 2
22.5296 27.9604 0.0280913
24.577 31.3232 0.0203264
18.275 35.9933 3.97759
20.957 35.9636 2
23.333 36.2886 0.0167936
21.468 40.6173 0.0247955
20.8309 37.8036 0.0228434
18.6633 38.9926 2
14.7298 39.164 3.9771
17.9116 42.0376 0.0240974
15.2298 41.8733 2
12.7049 42.2414 3.97639
15.2446 44.1306 0.0241635
13.0096 44.3407 2
10.7585 44.7722 3.97489
13.2455 46.2399 0.0240669
11.1762 46.6966 2
8.99115 47.3022 3.96773
11.6575 48.5098 0.02833
9.60541 49.2203 2
7.44192 50.0338 3.96572
10.3354 51.0592 0.0338673
8.2758 51.9988 2
6.13655 53.0073 3.97739
9.24269 53.8854 0.0339559
7.19537 55.0285 2
5.0241 56.25 4
6.31988 58.3339 2
8.38692 56.9804 0.024004
7.74927 60.3285 0
13.7368 26.8771 3.9755
12.1082 24.8326 3.97143
13.4616 25.4221 2
11.2212 22.2618 3.96545
12.998 23.3315 2
14.0953 21.8029 0.0337613
12.2958 20.5775 2
10.3987 19.329 3.96725
13.4876 18.9301 0.0363057
11.6685 17.5794 2
9.76352 16.1608 3.97559
13.0343 15.9053 0.0297198
11.2213 14.3832 2
9.30607 12.7746 4
12.7847 12.6913 0.0202544
10.9835 10.9835 2
12.7746 9.30605 0
18.4373 33.1804 3.97639
21.313 33.4832 2
23.9201 33.8756 0.0177667
15.9192 29.7276 3.97552
16.2961 26.4951 2
17.9618 24.1385 0.0283082
14.5932 24.5233 0.0283194
18.9344 30.2954 2
19.5371 27.329 0.0258338
21.8914 30.7947 0.025014
15.3585 36.0354 3.97724
18.2744 35.9937 2
20.9548 35.9632 0.0234315
12.9363 37.8298 3.9772
18.6654 38.9936 0.0229502
14.7293 39.1638 2
12.2083 40.1231 3.97687
15.2303 41.8735 0.0237426
12.706 42.241 2
10.3568 42.7553 3.9758
13.0083 44.3412 0.0238787
10.7605 44.7715 2
8.46856 45.3071 3.96852
11.1741 46.6973 0.0267062
8.99121 47.3017 2
6.73267 47.9992 3.96585
9.60501 49.2209 0.0330631
7.44227 50.0328 2
5.21325 50.9108 3.97715
8.27535 51.9999 0.0341256
6.13629 53.0051 2
3.86727 54.0858 4
7.19593 55.0318 0.023031
5.02404 56.25 2
6.31991 58.3339 0
13.2223 29.0908 3.97549
11.554 26.5293 3.97202
13.7359 26.8773 2
10.2788 23.9907 3.96696
12.1099 24.833 2
13.4627 25.422 0.02494
9.25134 21.1435 3.96648
11.2211 22.2615 2
12.9975 23.3314 0.0308886
12.2951 20.578 0.0357676
10.4006 19.3291 2
8.41946 18.0315 3.97558
11.6662 17.5796 0.0314051
9.76239 16.166 2
7.74928 14.6715 4
11.223 14.3777 0.0243066
9.30602 12.7745 2
10.9835 10.9835 0
14.9066 32.9169 3.97672
18.4359 33.1796 2
21.3131 33.4804 0.0240592
15.9201 29.7279 2
16.2958 26.4948 0.0265797
18.936 30.2952 0.0249731
13.2334 36.2216 3.97684
15.3576 36.0352 2
18.275 35.9933 0.0224089
12.9368 37.8296 2
11.5413 38.3071 3.9772
14.7298 39.164 0.0229
12.21 40.1229 2
9.93566 40.7408 3.97641
12.7049 42.2414 0.0236084
10.3599 42.7547 2
8.0157 43.2595 3.96899
10.7585 44.7722 0.0251076
8.46997 45.3065 2
6.13843 45.9044 3.96604
8.99115 47.3022 0.0322695
6.73303 47.9983 2
4.42456 48.7515 3.97676
7.44192 50.0338 0.0342798
5.21322 50.9095 2
2.85457 51.8506 4
6.13655 53.0073 0.0226087
3.86727 54.0858 2
5.0241 56.25 0
12.3534 31.3006 3.97627
10.9705 28.4516 3.97263
13.2226 29.0911 2
9.4963 25.818 3.9677
11.5554 26.5297 2
13.7368 26.8771 0.0245007
8.23794 23.0258 3.96623
10.2793 23.9908 2
12.1082 24.8326 0.0285687
7.2017 19.9804 3.97657
9.25284 21.1439 2
11.2212 22.2618 0.0345498
10.3987 19.329 0.0327509
8.41893 18.036 2
6.31992 16.6661 4
9.76352 16.1608 0.0244138
7.74926 14.6714 2
9.30607 12.7746 0
12.3911 34.3222 3.97669
14.9064 32.9176 2
18.4373 33.1804 0.0236075
15.9192 29.7276 0.0244825
11.0802 36.6195 3.97695
13.2336 36.2215 2
15.3585 36.0354 0.0227596
12.9363 37.8298 0.0228027
11.5434 38.3066 2
9.5188 38.8188 3.97664
12.2083 40.1231 0.0231266
9.93854 40.7404 2
7.62352 41.2046 3.96934
10.3568 42.7553 0.0241952
8.01565 43.2591 2
5.64994 43.7674 3.96641
8.46856 45.3071 0.0314822
6.13871 45.9036 2
3.76997 46.537 3.97663
6.73267 47.9992 0.0341515
4.42478 48.7506 2
1.99014 49.554 4
5.21325 50.9108 0.022855
2.85451 51.8506 2
3.86727 54.0858 0
11.1702 32.9494 3.97685
10.2781 30.4113 3.97363
12.3545 31.3011 2
8.80581 27.7491 3.96814
10.9722 28.452 2
13.2223 29.0908 0.0245077
7.36296 24.9838 3.96602
9.49645 25.8182 2
11.554 26.5293 0.0279771
6.11868 22.0028 3.97749
8.23888 23.0263 2
10.2788 23.9907 0.0330433
5.02411 18.75 4
7.20158 19.9836 2
9.25134 21.1435 0.0335164
8.41946 18.0315 0.0244157
6.3199 16.6661 2
7.74928 14.6715 0
10.6709 35.0153 3.9767
12.3917 34.3224 2
14.9066 32.9169 0.0232845
9.17956 36.9877 3.97651
11.0827 36.6194 2
13.2334 36.2216 0.0231614
11.5413 38.3071 0.0227952
9.52167 38.8185 2
7.29901 39.1791 3.96976
9.93566 40.7408 0.0235892
7.62435 41.2043 2
5.26465 41.6134 3.96684
8.0157 43.2595 0.0310118
5.6502 43.7668 2
3.24752 44.2817 3.97699
6.13843 45.9044 0.0339623
3.77029 46.5363 2
1.27781 47.2057 4
4.42456 48.7515 0.0232433
1.99012 49.554 2
2.85457 51.8506 0
10.3078 33.9015 3.97622
9.55647 32.1753 3.97466
11.1725 32.9499 2
8.14845 29.709 3.96866
10.2803 30.4118 2
12.3534 31.3006 0.0237319
6.60594 27.0094 3.96615
8.80601 27.7492 2
10.9705 28.4516 0.027367
5.174 24.0951 3.97743
7.36352 24.9842 2
9.4963 25.818 0.0322989
3.86728 20.9142 4
6.11877 22.0046 2
8.23794 23.0258 0.0337677
5.02406 18.75 2
7.2017 19.9804 0.0234258
6.31992 16.6661 0
8.99684 35.2881 3.97642
10.6735 35.0154 2
12.3911 34.3222 0.0233082
7.0752 37.2063 3.9699
9.18236 36.9876 2
11.0802 36.6195 0.0230528
9.5188 38.8188 0.0233594
7.30036 39.1789 2
4.99202 39.4671 3.96724
7.62352 41.2046 0.0306626
5.26529 41.613 2
2.85778 42.0019 3.97737
5.64994 43.7674 0.0335949
3.2477 44.2812 2
0.720592 44.8159 4
3.76997 46.537 0.0233735
1.27778 47.2057 2
1.99014 49.554 0
9.03953 33.7118 3.97609
10.3108 33.9018 2
7.57917 31.619 3.96917
9.55909 32.1757 2
11.1702 32.9494 0.0231489
5.95044 29.0704 3.96653
8.14858 29.7092 2
10.2781 30.4113 0.026368
4.36145 26.2474 3.97714
6.60631 27.0098 2
8.80581 27.7491 0.0318579
2.85458 23.1494 4
5.17421 24.0958 2
7.36296 24.9838 0.0339828
3.86728 20.9142 2
6.11868 22.0028 0.022511
5.02411 18.75 0
7.02284 35.3095 3.96987
8.99965 35.2882 2
10.6709 35.0153 0.0233038
4.84214 37.3399 3.96756
7.07684 37.2061 2
9.17956 36.9877 0.0234854
7.29901 39.1791 0.0302366
4.99266 39.4669 2
2.60571 39.7136 3.97759
5.26465 41.6134 0.0331628
2.85827 42.0017 2
0.320823 42.3947 4
3.24752 44.2817 0.0230092
0.720551 44.8159 2
1.27781 47.2057 0
7.18722 33.4674 3.9697
9.04214 33.7121 2
10.3078 33.9015 0.0237785
5.42084 31.1343 3.96702
7.57979 31.6191 2
9.55647 32.1753 0.0253387
3.68288 28.4434 3.97707
5.9508 29.0707 2
8.14845 29.709 0.0313438
1.99015 25.446 4
4.36175 26.2477 2
6.60594 27.0094 0.0338547
2.85453 23.1494 2
5.174 24.0951 0.0225734
3.86728 20.9142 0
4.85646 35.252 3.96747
7.02371 35.3094 2
8.99684 35.2881 0.0235845
2.49715 37.4282 3.97837
4.84227 37.34 2
7.0752 37.2063 0.0300957
4.99202 39.4671 0.0327624
2.60632 39.7138 2
0.080333 39.9526 4
2.85778 42.0019 0.0226338
0.320817 42.3947 2
0.720592 44.8159 0
5.04987 33.1908 3.96739
7.18812 33.4675 2
9.03953 33.7118 0.0239084
3.14699 30.6662 3.97737
5.42118 31.1347 2
7.57917 31.619 0.0308285
1.27793 27.7943 4
3.68329 28.4436 2
5.95044 29.0704 0.0334669
1.99013 25.446 2
4.36145 26.2474 0.0228626
2.85458 23.1494 0
2.54925 35.1589 3.97808
4.8572 35.2522 2
7.02284 35.3095 0.0301256
0 37.5 4
2.49728 37.4286 2
4.84214 37.3399 0.0324374
2.60571 39.7136 0.0224143
0.0802903 39.9526 2
0.320823 42.3947 0
2.7669 32.9058 3.97818
5.05018 33.1911 2
7.18722 33.4674 0.0302959
0.721173 30.1842 4
3.14741 30.6666 2
5.42084 31.1343 0.0329846
1.27779 27.7943 2
3.68288 28.4434 0.0229274
1.99015 25.446 0
0.0806499 35.0474 4
2.54995 35.1593 2
4.85646 35.252 0.0325301
0 37.5 2
2.49715 37.4282 0.0216335
0.080333 39.9526 0
0.32156 32.6054 4
2.76713 32.9063 2
5.04987 33.1908 0.0326107
0.72056 30.1841 2
3.14699 30.6662 0.0226329
1.27793 27.7943 0
0.0802889 35.0474 2
2.54925 35.1589 0.0219203
0 37.5 0
0.320817 32.6053 2
2.7669 32.9058 0.0218171
0.721173 30.1842 0
0.0806499 35.0474 0
0.32156 32.6054 0
CELLS 1910 17190
8 18 6 25 56 2 0 5 16
8 57 23 6 18 17 4 0 2
8 78 36 9 29 31 11 1 7
8 31 11 1 7 79 37 10 30
8 110 57 18 50 48 17 2 14
8 50 18 56 111 14 2 16 49
8 116 62 22 55 52 20 3 15
8 56 25 67 118 16 5 24 53
8 119 63 23 57 54 21 4 17
8 55 22 63 119 15 3 21 54
8 58 26 68 121 18 6 25 56
8 122 65 26 58 57 23 6 18
8 73 31 7 27 142 79 30 71
8 143 78 29 72 73 31 7 27
8 83 147 76 34 32 74 28 8
8 84 148 78 36 33 75 29 9
8 76 34 8 28 148 84 33 75
8 37 79 150 86 10 30 77 35
8 151 87 36 78 80 38 11 31
8 80 38 11 31 152 88 37 79
8 175 100 42 94 96 44 12 40
8 44 96 176 101 12 40 95 43
8 101 176 98 46 43 95 41 13
8 46 98 178 103 13 41 97 45
8 178 103 45 97 147 83 32 74
8 189 116 55 109 106 52 15 47
8 111 56 118 191 49 16 53 107
8 192 119 57 110 108 54 17 48
8 109 55 119 192 47 15 54 108
8 194 122 58 112 110 57 18 50
8 112 58 121 195 50 18 56 111
8 115 61 19 51 197 124 59 113
8 115 61 125 198 51 19 60 114
8 198 125 62 116 114 60 20 52
8 200 127 64 120 116 62 22 55
8 118 67 132 202 53 24 66 117
8 121 68 133 203 56 25 67 118
8 120 64 128 204 55 22 63 119
8 204 128 65 122 119 63 23 57
8 206 134 68 121 123 69 26 58
8 123 69 26 58 207 131 65 122
8 226 147 74 138 140 76 28 70
8 229 148 75 139 143 78 29 72
8 140 76 28 70 229 148 75 139
8 142 79 30 71 231 150 77 141
8 144 80 31 73 232 152 79 142
8 233 151 78 143 144 80 31 73
8 150 86 35 77 235 154 81 145
8 235 154 81 145 146 82 39 91
8 146 82 39 91 236 155 90 165
8 238 157 83 147 149 85 34 76
8 239 158 84 148 151 87 36 78
8 149 85 34 76 239 158 84 148
8 152 88 37 79 241 160 86 150
8 242 161 87 151 153 89 38 80
8 153 89 38 80 243 162 88 152
8 171 98 41 92 265 178 97 169
8 265 178 97 169 226 147 74 138
8 172 96 40 93 266 176 95 170
8 266 176 95 170 171 98 41 92
8 269 175 94 173 172 96 40 93
8 271 180 99 174 175 100 42 94
8 197 124 59 113 271 180 99 174
8 272 181 100 175 177 102 44 96
8 273 182 101 176 179 104 46 98
8 177 102 44 96 273 182 101 176
8 179 104 46 98 275 184 103 178
8 275 184 103 178 238 157 83 147
8 188 115 51 105 283 197 113 186
8 188 115 198 284 105 51 114 187
8 284 198 116 189 187 114 52 106
8 286 200 120 193 189 116 55 109
8 191 118 202 288 107 53 117 190
8 195 121 203 289 111 56 118 191
8 193 120 204 290 109 55 119 192
8 290 204 122 194 192 119 57 110
8 196 123 58 112 292 207 122 194
8 293 206 121 195 196 123 58 112
8 199 126 61 115 297 211 124 197
8 298 212 127 200 198 125 62 116
8 199 126 212 298 115 61 125 198
8 205 129 64 120 300 214 127 200
8 301 217 130 201 202 132 66 117
8 209 136 168 264 301 217 130 201
8 302 219 132 202 203 133 67 118
8 303 220 133 203 206 134 68 121
8 205 129 215 304 120 64 128 204
8 304 215 131 207 204 128 65 122
8 306 221 134 206 208 135 69 123
8 208 135 69 123 307 218 131 207
8 210 137 167 263 309 223 136 209
8 328 238 147 226 230 149 76 140
8 228 146 91 166 329 236 165 260
8 231 150 77 141 330 235 145 227
8 330 235 145 227 228 146 91 166
8 332 239 148 229 233 151 78 143
8 230 149 76 140 332 239 148 229
8 232 152 79 142 334 241 150 231
8 234 153 80 144 335 243 152 232
8 336 242 151 233 234 153 80 144
8 236 155 90 165 338 245 164 259
8 241 160 86 150 339 246 154 235
8 339 246 154 235 237 156 82 146
8 237 156 82 146 340 247 155 236
8 342 249 157 238 240 159 85 149
8 343 250 158 239 242 161 87 151
8 240 159 85 149 343 250 158 239
8 243 162 88 152 345 252 160 241
8 244 163 253 346 153 89 161 242
8 244 163 89 153 347 254 162 243
8 311 224 261 371 210 137 167 263
8 263 167 262 372 209 136 168 264
8 267 179 98 171 375 275 178 265
8 375 275 178 265 328 238 147 226
8 376 273 176 266 267 179 98 171
8 268 177 96 172 376 273 176 266
8 379 272 175 269 268 177 96 172
8 380 271 174 270 269 175 94 173
8 283 197 113 186 380 271 174 270
8 381 277 180 271 272 181 100 175
8 297 211 124 197 381 277 180 271
8 382 278 181 272 274 183 102 177
8 274 183 102 177 383 279 182 273
8 383 279 182 273 276 185 104 179
8 385 281 184 275 342 249 157 238
8 276 185 104 179 385 281 184 275
8 285 199 115 188 393 297 197 283
8 394 298 200 286 284 198 116 189
8 285 199 298 394 188 115 198 284
8 291 205 120 193 396 300 200 286
8 397 301 201 287 288 202 117 190
8 295 209 264 374 397 301 201 287
8 398 302 202 288 289 203 118 191
8 399 303 203 289 293 206 121 195
8 291 205 304 400 193 120 204 290
8 400 304 207 292 290 204 122 194
8 294 208 123 196 402 307 207 292
8 403 306 206 293 294 208 123 196
8 296 210 263 373 405 309 209 295
8 408 312 213 299 297 211 126 199
8 299 213 313 409 199 126 212 298
8 409 313 214 300 298 212 127 200
8 305 216 129 205 411 315 214 300
8 412 318 217 301 302 219 132 202
8 309 223 136 209 412 318 217 301
8 413 320 219 302 303 220 133 203
8 306 221 321 414 206 134 220 303
8 307 218 131 207 415 316 215 304
8 305 216 316 415 205 129 215 304
8 417 322 221 306 308 222 135 208
8 308 222 135 208 418 319 218 307
8 310 225 137 210 420 325 223 309
8 423 326 224 311 310 225 137 210
8 329 236 165 260 441 338 259 368
8 442 342 238 328 333 240 149 230
8 331 237 146 228 443 340 236 329
8 334 241 150 231 444 339 235 330
8 444 339 235 330 331 237 146 228
8 446 343 239 332 336 242 151 233
8 333 240 149 230 446 343 239 332
8 335 243 152 232 448 345 241 334
8 337 244 153 234 449 347 243 335
8 337 244 346 450 234 153 242 336
8 338 245 164 259 452 349 258 367
8 340 247 155 236 453 350 245 338
8 345 252 160 241 454 351 246 339
8 454 351 246 339 341 248 156 237
8 341 248 156 237 455 352 247 340
8 240 159 251 344 342 249 354 457
8 242 161 253 346 343 250 355 458
8 343 250 355 458 240 159 251 344
8 347 254 162 243 460 357 252 345
8 348 255 358 461 244 163 253 346
8 348 255 163 244 462 359 254 347
8 473 360 257 365 363 256 364 482
8 452 349 258 367 365 257 366 485
8 422 324 369 488 311 224 261 371
8 371 261 370 490 263 167 262 372
8 407 311 371 491 296 210 263 373
8 373 263 372 492 295 209 264 374
8 493 385 275 375 442 342 238 328
8 377 276 179 267 493 385 275 375
8 378 274 177 268 494 383 273 376
8 494 383 273 376 377 276 179 267
8 497 382 272 379 378 274 177 268
8 498 381 271 380 379 272 175 269
8 393 297 197 283 498 381 271 380
8 499 387 277 381 382 278 181 272
8 408 312 211 297 499 387 277 381
8 500 388 278 382 384 280 183 274
8 501 389 279 383 386 282 185 276
8 384 280 183 274 501 389 279 383
8 386 282 185 276 503 391 281 385
8 503 391 281 385 457 354 249 342
8 511 408 299 395 393 297 199 285
8 395 299 409 512 285 199 298 394
8 512 409 300 396 394 298 200 286
8 401 305 205 291 514 411 300 396
8 515 412 301 397 398 302 202 288
8 405 309 209 295 515 412 301 397
8 516 413 302 398 399 303 203 289
8 403 306 414 517 293 206 303 399
8 402 307 207 292 518 415 304 400
8 401 305 415 518 291 205 304 400
8 404 308 208 294 520 418 307 402
8 521 417 306 403 404 308 208 294
8 406 310 210 296 523 420 309 405
8 526 423 311 407 406 310 210 296
8 410 314 213 299 527 424 312 408
8 528 425 315 411 409 313 214 300
8 410 314 425 528 299 213 313 409
8 416 317 216 305 530 427 315 411
8 531 430 318 412 413 320 219 302
8 420 325 223 309 531 430 318 412
8 532 432 320 413 414 321 220 303
8 417 322 433 533 306 221 321 414
8 418 319 218 307 534 428 316 415
8 416 317 428 534 305 216 316 415
8 419 323 434 536 308 222 322 417
8 419 323 222 308 537 431 319 418
8 421 327 225 310 539 438 325 420
8 421 327 439 541 310 225 326 423
8 543 437 324 422 423 326 224 311
8 441 338 259 368 559 452 367 486
8 443 340 236 329 560 453 338 441
8 333 240 344 447 442 342 457 561
8 445 341 237 331 562 455 340 443
8 448 345 241 334 563 454 339 444
8 563 454 339 444 445 341 237 331
8 336 242 346 450 446 343 458 565
8 446 343 458 565 333 240 344 447
8 449 347 243 335 567 460 345 448
8 451 348 244 337 568 462 347 449
8 451 348 461 569 337 244 346 450
8 570 463 349 452 473 360 257 365
8 453 350 245 338 570 463 349 452
8 455 352 247 340 571 464 350 453
8 460 357 252 345 572 465 351 454
8 572 465 351 454 456 353 248 341
8 456 353 248 341 573 466 352 455
8 344 251 356 459 457 354 468 575
8 458 355 469 576 344 251 356 459
8 346 253 358 461 458 355 469 576
8 462 359 254 347 578 471 357 460
8 348 255 359 462 461 358 472 579
8 591 474 360 473 475 361 256 363
8 475 361 256 363 594 477 362 479
8 363 256 364 482 479 362 480 603
8 590 473 365 484 481 363 482 605
8 482 364 257 365 606 483 366 485
8 559 452 367 486 484 365 485 607
8 542 436 487 609 422 324 369 488
8 525 422 488 611 407 311 371 491
8 488 369 489 612 371 261 370 490
8 491 371 490 613 373 263 372 492
8 495 386 276 377 614 503 385 493
8 614 503 385 493 561 457 342 442
8 615 501 383 494 495 386 276 377
8 496 384 274 378 615 501 383 494
8 618 500 382 497 496 384 274 378
8 619 499 381 498 497 382 272 379
8 511 408 297 393 619 499 381 498
8 620 505 387 499 500 388 278 382
8 527 424 312 408 620 505 387 499
8 502 390 506 621 384 280 388 500
8 622 507 389 501 504 392 282 386
8 502 390 280 384 622 507 389 501
8 504 392 282 386 624 509 391 503
8 624 509 391 503 575 468 354 457
8 513 410 299 395 630 527 408 511
8 631 528 411 514 512 409 300 396
8 513 410 528 631 395 299 409 512
8 519 416 305 401 633 530 411 514
8 634 531 412 515 516 413 302 398
8 523 420 309 405 634 531 412 515
8 635 532 413 516 517 414 303 399
8 521 417 533 636 403 306 414 517
8 520 418 307 402 637 534 415 518
8 519 416 534 637 401 305 415 518
8 522 419 308 404 639 537 418 520
8 522 419 536 640 404 308 417 521
8 524 421 310 406 642 539 420 523
8 524 421 541 644 406 310 423 526
8 646 543 422 525 526 423 311 407
8 529 426 314 410 647 544 424 527
8 528 425 545 648 411 315 427 530
8 529 426 545 648 410 314 425 528
8 535 429 317 416 649 546 427 530
8 650 548 430 531 532 432 320 413
8 539 438 325 420 650 548 430 531
8 533 433 550 651 414 321 432 532
8 536 434 551 652 417 322 433 533
8 537 431 319 418 653 547 428 534
8 535 429 547 653 416 317 428 534
8 538 435 552 654 419 323 434 536
8 538 435 323 419 655 549 431 537
8 540 440 327 421 657 556 438 539
8 540 440 557 659 421 327 439 541
8 541 439 555 660 423 326 437 543
8 661 554 436 542 543 437 324 422
8 676 570 452 559 590 473 365 484
8 560 453 338 441 676 570 452 559
8 562 455 340 443 677 571 453 560
8 447 344 459 566 561 457 575 678
8 564 456 341 445 679 573 455 562
8 567 460 345 448 680 572 454 563
8 680 572 454 563 564 456 341 445
8 565 458 576 682 447 344 459 566
8 450 346 461 569 565 458 576 682
8 568 462 347 449 684 578 460 567
8 451 348 462 568 569 461 579 685
8 686 580 463 570 591 474 360 473
8 571 464 350 453 686 580 463 570
8 573 466 352 455 687 581 464 571
8 572 465 582 688 460 357 471 578
8 574 467 582 688 456 353 465 572
8 574 467 353 456 689 583 466 573
8 459 356 470 577 575 468 585 691
8 576 469 586 692 459 356 470 577
8 461 358 472 579 576 469 586 692
8 462 359 471 578 579 472 588 694
8 704 591 473 590 593 475 363 481
8 595 476 592 705 475 361 474 591
8 593 475 363 481 707 594 479 602
8 594 477 362 479 709 598 478 600
8 595 476 361 475 711 597 477 594
8 479 362 480 603 600 478 601 720
8 481 363 482 605 602 479 603 722
8 603 480 364 482 723 604 483 606
8 605 482 365 484 724 606 485 607
8 656 553 608 726 542 436 487 609
8 645 542 609 728 525 422 488 611
8 609 487 610 729 488 369 489 612
8 611 488 612 730 491 371 490 613
8 616 504 386 495 731 624 503 614
8 731 624 503 614 678 575 457 561
8 732 622 501 615 616 504 386 495
8 617 502 384 496 732 622 501 615
8 617 502 621 735 496 384 500 618
8 736 620 499 619 618 500 382 497
8 630 527 408 511 736 620 499 619
8 621 506 626 737 500 388 505 620
8 647 544 424 527 737 626 505 620
8 623 508 627 738 502 390 506 621
8 623 508 390 502 739 628 507 622
8 625 510 628 739 504 392 507 622
8 740 629 509 624 691 585 468 575
8 625 510 392 504 740 629 509 624
8 632 529 410 513 744 647 527 630
8 631 528 648 745 514 411 530 633
8 632 529 648 745 513 410 528 631
8 638 535 416 519 746 649 530 633
8 747 650 531 634 635 532 413 516
8 642 539 420 523 747 650 531 634
8 636 533 651 748 517 414 532 635
8 640 536 652 749 521 417 533 636
8 639 537 418 520 750 653 534 637
8 638 535 653 750 519 416 534 637
8 641 538 419 522 751 655 537 639
8 641 538 654 752 522 419 536 640
8 643 540 421 524 753 657 539 642
8 643 540 659 755 524 421 541 644
8 644 541 660 757 526 423 543 646
8 758 661 542 645 646 543 422 525
8 529 426 544 647 648 545 662 759
8 530 427 545 648 649 546 663 760
8 535 429 546 649 653 547 664 761
8 762 666 548 650 651 550 432 532
8 657 556 438 539 762 666 548 650
8 652 551 668 763 533 433 550 651
8 654 552 669 764 536 434 551 652
8 655 549 431 537 765 665 547 653
8 538 435 549 655 654 552 667 766
8 661 554 671 768 542 436 553 656
8 658 558 440 540 769 674 556 657
8 658 558 675 770 540 440 557 659
8 659 557 673 771 541 439 555 660
8 660 555 672 772 543 437 554 661
8 788 686 570 676 704 591 473 590
8 677 571 453 560 788 686 570 676
8 679 573 455 562 789 687 571 677
8 566 459 577 683 678 575 691 790
8 681 574 456 564 791 689 573 679
8 680 572 688 792 567 460 578 684
8 681 574 688 792 564 456 572 680
8 682 576 692 794 566 459 577 683
8 569 461 579 685 682 576 692 794
8 568 462 578 684 685 579 694 796
8 687 581 464 571 798 696 580 686
8 798 696 580 686 705 592 474 591
8 689 583 466 573 799 697 581 687
8 688 582 698 800 578 471 588 694
8 690 584 698 800 574 467 582 688
8 690 584 467 574 801 699 583 689
8 693 587 701 803 577 470 585 691
8 693 587 470 577 804 702 586 692
8 695 589 702 804 579 472 586 692
8 695 589 472 579 805 703 588 694
8 708 595 705 813 593 475 591 704
8 710 596 706 814 595 476 592 705
8 707 594 479 602 816 709 600 719
8 708 595 475 593 817 711 594 707
8 709 598 478 600 819 715 599 717
8 711 597 477 594 820 714 598 709
8 710 596 476 595 822 713 597 711
8 600 478 601 720 717 599 718 832
8 602 479 603 722 719 600 720 834
8 720 601 480 603 835 721 604 723
8 722 603 482 605 836 723 606 724
8 767 670 725 839 656 553 608 726
8 756 656 726 841 645 542 609 728
8 726 608 727 842 609 487 610 729
8 728 609 729 843 611 488 612 730
8 844 740 624 731 790 691 575 678
8 733 625 504 616 844 740 624 731
8 734 623 502 617 845 739 622 732
8 733 625 739 845 616 504 622 732
8 734 623 738 846 617 502 621 735
8 735 621 737 847 618 500 620 736
8 744 647 527 630 847 737 620 736
8 621 506 627 738 737 626 741 848
8 647 544 626 737 759 662 741 848
8 623 508 628 739 738 627 742 849
8 740 629 585 691 850 743 700 802
8 625 510 629 740 739 628 743 850
8 632 529 647 744 745 648 759 854
8 633 530 648 745 746 649 760 855
8 638 535 649 746 750 653 761 856
8 857 762 650 747 748 651 532 635
8 753 657 539 642 857 762 650 747
8 749 652 763 858 636 533 651 748
8 752 654 764 859 640 536 652 749
8 751 655 537 639 860 765 653 750
8 641 538 655 751 752 654 766 861
8 754 658 540 643 862 769 657 753
8 754 658 770 863 643 540 659 755
8 755 659 771 864 644 541 660 757
8 758 661 768 866 645 542 656 756
8 757 660 772 867 646 543 661 758
8 759 662 773 868 648 545 663 760
8 649 546 663 760 761 664 774 871
8 765 665 547 653 872 775 664 761
8 873 777 666 762 763 668 550 651
8 769 674 556 657 873 777 666 762
8 764 669 779 874 652 551 668 763
8 654 552 667 766 764 669 778 875
8 655 549 665 765 766 667 776 876
8 768 671 782 877 656 553 670 767
8 772 672 783 878 661 554 671 768
8 658 558 674 769 770 675 786 879
8 659 557 675 770 771 673 785 881
8 882 784 672 772 771 673 555 660
8 789 687 571 677 897 798 686 788
8 897 798 686 788 813 705 591 704
8 791 689 573 679 898 799 687 789
8 795 693 803 900 683 577 691 790
8 793 690 574 681 901 801 689 791
8 792 688 800 902 684 578 694 796
8 793 690 800 902 681 574 688 792
8 795 693 577 683 903 804 692 794
8 797 695 804 903 685 579 692 794
8 797 695 579 685 904 805 694 796
8 905 806 697 799 798 696 581 687
8 814 706 806 905 705 592 696 798
8 689 583 697 799 801 699 808 907
8 800 698 809 908 694 588 703 805
8 690 584 699 801 800 698 809 908
8 803 701 810 909 691 585 700 802
8 693 587 702 804 803 701 811 910
8 695 589 703 805 804 702 812 911
8 818 710 814 919 708 595 705 813
8 821 712 815 920 710 596 706 814
8 816 709 600 719 922 819 717 831
8 817 711 594 707 923 820 709 816
8 818 710 595 708 924 822 711 817
8 819 715 599 717 926 827 716 829
8 820 714 598 709 927 826 715 819
8 929 825 713 822 820 714 597 711
8 821 712 596 710 930 824 713 822
8 717 599 718 832 829 716 830 942
8 719 600 720 834 831 717 832 944
8 832 718 601 720 945 833 721 835
8 834 720 603 722 946 835 723 836
8 869 780 838 950 767 670 725 839
8 865 767 839 952 756 656 726 841
8 839 725 840 953 726 608 727 842
8 841 726 842 954 728 609 729 843
8 844 740 691 790 955 850 802 899
8 733 625 740 844 845 739 850 955
8 734 623 739 845 846 738 849 956
8 735 621 738 846 847 737 848 957
8 744 647 737 847 854 759 848 957
8 738 627 742 849 848 741 851 958
8 848 741 851 958 759 662 773 868
8 850 743 700 802 959 852 807 906
8 849 742 628 739 959 852 743 850
8 854 759 868 965 745 648 760 855
8 746 649 760 855 856 761 871 966
8 860 765 653 750 967 872 761 856
8 968 873 762 857 858 763 651 748
8 862 769 657 753 968 873 762 857
8 859 764 874 969 749 652 763 858
8 752 654 766 861 859 764 875 970
8 751 655 765 860 861 766 876 971
8 754 658 769 862 863 770 879 972
8 755 659 770 863 864 771 881 974
8 976 882 772 867 864 771 660 757
8 866 768 877 977 756 656 767 865
8 867 772 878 978 758 661 768 866
8 760 663 773 868 871 774 883 980
8 870 781 837 948 982 890 780 869
8 982 890 780 869 877 782 670 767
8 761 664 774 871 872 775 884 984
8 876 776 665 765 985 885 775 872
8 873 777 668 763 986 887 779 874
8 769 674 777 873 879 786 887 986
8 764 669 778 875 874 779 888 987
8 766 667 776 876 875 778 886 988
8 878 783 892 989 768 671 782 877
8 878 783 672 772 990 893 784 882
8 880 787 675 770 991 896 786 879
8 880 787 895 992 770 675 785 881
8 881 785 894 993 771 673 784 882
8 1006 905 799 898 897 798 687 789
8 919 814 905 1006 813 705 798 897
8 791 689 799 898 901 801 907 1007
8 900 803 909 1009 790 691 802 899
8 795 693 804 903 900 803 910 1010
8 902 800 908 1011 796 694 805 904
8 793 690 801 901 902 800 908 1011
8 797 695 805 904 903 804 911 1012
8 799 697 806 905 907 808 912 1013
8 920 815 912 1013 814 706 806 905
8 802 700 810 909 906 807 913 1014
8 801 699 808 907 908 809 914 1015
8 805 703 809 908 911 812 915 1016
8 803 701 811 910 909 810 916 1017
8 911 812 917 1018 804 702 811 910
8 925 821 920 1030 818 710 814 919
8 928 823 921 1031 821 712 815 920
8 922 819 717 831 1033 926 829 941
8 923 820 709 816 1034 927 819 922
8 1035 929 822 924 923 820 711 817
8 925 821 710 818 1036 930 822 924
8 1038 933 825 929 927 826 714 820
8 926 827 716 829 1039 935 828 939
8 927 826 715 819 1040 934 827 926
8 928 823 712 821 1041 931 824 930
8 1042 932 824 930 929 825 713 822
8 829 716 830 942 939 828 940 1058
8 831 717 832 944 941 829 942 1060
8 942 830 718 832 1061 943 833 945
8 944 832 720 834 1062 945 835 946
8 981 889 947 1064 870 781 837 948
8 948 837 949 1067 869 780 838 950
8 975 869 950 1069 865 767 839 952
8 950 838 951 1070 839 725 840 953
8 952 839 953 1071 841 726 842 954
8 955 850 802 899 1072 959 906 1008
8 956 849 739 845 1072 959 850 955
8 846 738 849 956 957 848 958 1073
8 957 848 958 1073 854 759 868 965
8 849 742 852 959 958 851 961 1076
8 960 853 961 1076 906 807 852 959
8 958 851 961 1076 868 773 883 980
8 960 853 807 906 1077 963 913 1014
8 855 760 868 965 966 871 980 1085
8 856 761 871 966 967 872 984 1086
8 971 876 765 860 1087 985 872 967
8 968 873 763 858 1088 986 874 969
8 862 769 873 968 972 879 986 1088
8 859 764 875 970 969 874 987 1089
8 861 766 876 971 970 875 988 1090
8 973 880 770 863 1091 991 879 972
8 973 880 992 1092 863 770 881 974
8 974 881 993 1093 864 771 882 976
8 979 870 948 1066 1094 982 869 975
8 1094 982 869 975 977 877 767 865
8 978 878 772 867 1095 990 882 976
8 978 878 989 1096 866 768 877 977
8 871 774 883 980 984 884 994 1099
8 983 891 999 1100 870 781 889 981
8 1101 1000 890 982 989 892 782 877
8 983 891 781 870 1101 1000 890 982
8 872 775 884 984 985 885 995 1103
8 876 776 885 985 988 886 996 1104
8 986 887 779 874 1105 998 888 987
8 879 786 887 986 991 896 998 1105
8 875 778 886 988 987 888 997 1106
8 990 893 1002 1107 878 783 892 989
8 1108 1003 893 990 993 894 784 882
8 880 787 896 991 992 895 1005 1109
8 993 894 785 881 1110 1004 895 992
8 898 799 905 1006 1007 907 1013 1120
8 1030 920 1013 1120 919 814 905 1006
8 901 801 907 1007 1011 908 1015 1121
8 899 802 909 1009 1008 906 1014 1122
8 900 803 910 1010 1009 909 1017 1123
8 1012 911 1018 1124 903 804 910 1010
8 904 805 908 1011 1012 911 1016 1125
8 1013 912 1020 1127 907 808 914 1015
8 1031 921 1020 1127 920 815 912 1013
8 1019 918 962 1075 1128 1021 913 1014
8 1128 1021 913 1014 1017 916 810 909
8 1015 914 1022 1129 908 809 915 1016
8 1016 915 1023 1130 911 812 917 1018
8 1018 917 1024 1131 910 811 916 1017
8 1037 928 1031 1148 925 821 920 1030
8 928 823 931 1041 1031 921 1032 1149
8 1033 926 829 941 1151 1039 939 1057
8 1034 927 819 922 1152 1040 926 1033
8 1153 1038 929 1035 1034 927 820 923
8 1154 1042 930 1036 1035 929 822 924
8 1037 928 821 925 1155 1041 930 1036
8 1039 935 828 939 1156 1047 938 1055
8 1157 1043 932 1042 1038 933 825 929
8 1038 933 826 927 1158 1045 934 1040
8 1040 934 827 926 1159 1046 935 1039
8 930 824 932 1042 1041 931 1044 1160
8 1051 936 1048 1165 1175 1052 937 1053
8 1156 1047 938 1055 1053 937 1054 1178
8 939 828 940 1058 1055 938 1056 1181
8 941 829 942 1060 1057 939 1058 1183
8 942 830 943 1061 1058 940 1059 1184
8 1060 942 832 944 1185 1061 945 1062
8 1082 964 1063 1188 981 889 947 1064
8 1097 981 1064 1190 979 870 948 1066
8 1064 947 1065 1191 948 837 949 1067
8 1066 948 1067 1193 975 869 950 1069
8 1067 949 1068 1194 950 838 951 1070
8 1069 950 1070 1195 952 839 953 1071
8 956 849 959 1072 1073 958 1076 1197
8 1074 960 1076 1197 1008 906 959 1072
8 1073 958 1076 1197 965 868 980 1085
8 1074 960 906 1008 1198 1077 1014 1122
8 1133 1026 1079 1199 1019 918 962 1075
8 1077 963 913 1014 1200 1080 962 1075
8 960 853 963 1077 1076 961 1078 1201
8 980 883 961 1076 1099 994 1078 1201
8 1210 1083 964 1082 1100 999 889 981
8 966 871 980 1085 1086 984 1099 1215
8 967 872 984 1086 1087 985 1103 1216
8 971 876 985 1087 1090 988 1104 1217
8 1088 986 874 969 1218 1105 987 1089
8 972 879 986 1088 1091 991 1105 1218
8 970 875 988 1090 1089 987 1106 1219
8 973 880 991 1091 1092 992 1109 1220
8 1093 993 881 974 1221 1110 992 1092
8 1222 1108 990 1095 1093 993 882 976
8 1223 1101 982 1094 1096 989 877 977
8 1098 983 870 979 1223 1101 982 1094
8 1095 990 1107 1224 978 878 989 1096
8 1098 983 1100 1225 979 870 981 1097
8 984 884 994 1099 1103 995 1111 1227
8 1102 1001 1115 1228 983 891 999 1100
8 1101 1000 892 989 1229 1116 1002 1107
8 1102 1001 891 983 1229 1116 1000 1101
8 985 885 995 1103 1104 996 1112 1230
8 988 886 996 1104 1106 997 1113 1231
8 1105 998 888 987 1232 1114 997 1106
8 991 896 998 1105 1109 1005 1114 1232
8 1108 1003 1117 1233 990 893 1002 1107
8 1108 1003 894 993 1233 1117 1004 1110
8 992 895 1005 1109 1110 1004 1118 1234
8 1120 1013 1127 1244 1007 907 1015 1121
8 1148 1031 1127 1244 1030 920 1013 1120
8 1121 1015 1129 1245 1011 908 1016 1125
8 1126 1019 1075 1196 1246 1128 1014 1122
8 1246 1128 1014 1122 1123 1017 909 1009
8 1124 1018 1131 1247 1010 910 1017 1123
8 1125 1016 1130 1248 1012 911 1018 1124
8 1127 1020 1137 1254 1015 914 1022 1129
8 1031 921 1032 1149 1127 1020 1137 1254
8 1134 1027 918 1019 1257 1140 1021 1128
8 1257 1140 1021 1128 1131 1024 916 1017
8 1129 1022 1141 1258 1016 915 1023 1130
8 1130 1023 1142 1259 1018 917 1024 1131
8 1261 1144 1025 1132 1133 1026 1079 1199
8 1255 1138 1025 1132 1135 1028 1144 1261
8 1133 1026 918 1019 1262 1145 1027 1134
8 1136 1029 1139 1256 1263 1146 1028 1135
8 1037 928 1041 1155 1148 1031 1149 1275
8 1041 931 1044 1160 1149 1032 1150 1276
8 1151 1039 939 1057 1278 1156 1055 1180
8 1152 1040 926 1033 1279 1159 1039 1151
8 1153 1038 927 1034 1280 1158 1040 1152
8 1281 1157 1042 1154 1153 1038 929 1035
8 1036 930 1042 1154 1155 1041 1160 1282
8 1283 1164 1046 1159 1156 1047 935 1039
8 1165 1048 1164 1283 1053 937 1047 1156
8 1157 1043 933 1038 1284 1161 1045 1158
8 1157 1043 1161 1284 1042 932 1044 1160
8 1040 934 1046 1159 1158 1045 1163 1285
8 1166 1049 1167 1292 1051 936 1048 1165
8 1166 1049 936 1051 1293 1168 1050 1172
8 1051 936 1052 1175 1172 1050 1173 1306
8 1174 1051 1165 1290 1308 1175 1053 1177
8 1053 937 1054 1178 1175 1052 1176 1309
8 1278 1156 1055 1180 1177 1053 1178 1311
8 1055 938 1056 1181 1178 1054 1179 1312
8 1057 939 1058 1183 1180 1055 1181 1314
8 1058 940 1059 1184 1181 1056 1182 1315
8 1060 942 1061 1185 1183 1058 1184 1316
8 1208 1081 1187 1321 1082 964 1063 1188
8 1209 1082 1188 1322 1097 981 1064 1190
8 1188 1063 1189 1323 1064 947 1065 1191
8 1190 1064 1191 1325 1066 948 1067 1193
8 1191 1065 1192 1326 1067 949 1068 1194
8 1067 1193 1069 950 1194 1327 1195 1070
8 1250 1133 1199 1330 1126 1019 1075 1196
8 1198 1077 1014 1122 1331 1200 1075 1196
8 1074 960 1077 1198 1197 1076 1201 1332
8 1085 980 1076 1197 1215 1099 1201 1332
8 1199 1079 1203 1333 1075 962 1080 1200
8 1132 1025 1119 1243 1199 1079 1203 1333
8 1201 1078 963 1077 1334 1202 1080 1200
8 1099 994 1078 1201 1227 1111 1202 1334
8 1343 1207 1081 1208 1210 1083 964 1082
8 1214 1084 1186 1319 1343 1207 1081 1208
8 1345 1210 1082 1209 1225 1100 981 1097
8 1346 1211 1083 1210 1228 1115 999 1100
8 1086 984 1099 1215 1216 1103 1227 1352
8 1087 985 1103 1216 1217 1104 1230 1353
8 1090 988 1104 1217 1219 1106 1231 1354
8 1218 1105 987 1089 1355 1232 1106 1219
8 1091 991 1105 1218 1220 1109 1232 1355
8 1092 992 1109 1220 1221 1110 1234 1356
8 1222 1108 1233 1357 1095 990 1107 1224
8 1222 1108 993 1093 1357 1233 1110 1221
8 1223 1101 989 1096 1358 1229 1107 1224
8 1226 1102 983 1098 1358 1229 1101 1223
8 1226 1102 1228 1359 1098 983 1100 1225
8 1103 995 1111 1227 1230 1112 1235 1360
8 1107 1002 1117 1233 1229 1116 1240 1362
8 1102 1001 1116 1229 1228 1115 1240 1362
8 1104 996 1112 1230 1231 1113 1236 1363
8 1364 1237 1114 1232 1231 1113 997 1106
8 1109 1005 1114 1232 1234 1118 1238 1365
8 1110 1004 1118 1234 1233 1117 1241 1366
8 1242 1374 1255 1138 1119 1243 1132 1025
8 1244 1127 1254 1376 1121 1015 1129 1245
8 1148 1031 1149 1275 1244 1127 1254 1376
8 1245 1129 1258 1377 1125 1016 1130 1248
8 1251 1134 1019 1126 1378 1257 1128 1246
8 1378 1257 1128 1246 1247 1131 1017 1123
8 1248 1130 1259 1379 1124 1018 1131 1247
8 1261 1381 1250 1133 1132 1249 1330 1199
8 1255 1380 1252 1135 1132 1249 1381 1261
8 1250 1133 1019 1126 1382 1262 1134 1251
8 1253 1136 1256 1385 1384 1263 1135 1252
8 1254 1137 1265 1387 1129 1022 1141 1258
8 1149 1032 1150 1276 1254 1137 1265 1387
8 1028 1135 1255 1138 1139 1256 1388 1266
8 1136 1029 1147 1264 1256 1139 1267 1389
8 1390 1268 1140 1257 1259 1142 1024 1131
8 1260 1143 1027 1134 1390 1268 1140 1257
8 1258 1141 1269 1391 1130 1023 1142 1259
8 1262 1145 1027 1134 1393 1271 1143 1260
8 1261 1144 1026 1133 1394 1272 1145 1262
8 1135 1028 1144 1261 1263 1146 1272 1394
8 1136 1029 1146 1263 1264 1147 1273 1395
8 1155 1041 1160 1282 1275 1149 1276 1405
8 1276 1150 1044 1160 1406 1277 1162 1286
8 1408 1283 1159 1279 1278 1156 1039 1151
8 1290 1165 1283 1408 1177 1053 1156 1278
8 1152 1040 1159 1279 1280 1158 1285 1409
8 1281 1157 1038 1153 1410 1284 1158 1280
8 1281 1157 1284 1410 1154 1042 1160 1282
8 1159 1046 1164 1283 1285 1163 1289 1412
8 1292 1167 1289 1412 1165 1048 1164 1283
8 1158 1045 1163 1285 1284 1161 1288 1413
8 1284 1161 1288 1413 1160 1044 1162 1286
8 1291 1166 1292 1418 1174 1051 1165 1290
8 1291 1166 1051 1174 1419 1293 1172 1305
8 1294 1169 1296 1421 1166 1049 1167 1292
8 1293 1168 1050 1172 1422 1295 1171 1303
8 1294 1169 1049 1166 1423 1297 1168 1293
8 1422 1295 1171 1303 1301 1170 1302 1435
8 1172 1050 1173 1306 1303 1171 1304 1438
8 1174 1051 1175 1308 1305 1172 1306 1440
8 1175 1052 1176 1309 1306 1173 1307 1441
8 1177 1053 1178 1311 1308 1175 1309 1443
8 1178 1054 1179 1312 1309 1176 1310 1444
8 1180 1055 1181 1314 1311 1178 1312 1446
8 1056 1181 1312 1179 1182 1315 1447 1313
8 1183 1058 1184 1316 1314 1181 1315 1448
8 1319 1186 1084 1214 1451 1317 1213 1350
8 1319 1186 1318 1453 1208 1081 1187 1321
8 1321 1187 1320 1456 1188 1063 1189 1323
8 1344 1208 1321 1457 1209 1082 1188 1322
8 1322 1188 1323 1458 1190 1064 1191 1325
8 1323 1189 1324 1459 1191 1065 1192 1326
8 1191 1325 1193 1067 1326 1460 1327 1194
8 1242 1374 1243 1119 1328 1462 1335 1204
8 1330 1199 1333 1465 1196 1075 1200 1331
8 1132 1249 1330 1199 1243 1375 1465 1333
8 1332 1201 1077 1198 1466 1334 1200 1331
8 1215 1099 1201 1332 1352 1227 1334 1466
8 1119 1243 1333 1203 1204 1335 1470 1338
8 1333 1203 1338 1470 1200 1080 1202 1334
8 1227 1111 1202 1334 1360 1235 1338 1470
8 1328 1462 1335 1204 1205 1336 1471 1339
8 1337 1206 1340 1472 1464 1329 1205 1336
8 1346 1211 1342 1479 1210 1083 1207 1343
8 1346 1211 1115 1228 1479 1342 1239 1361
8 1348 1212 1084 1214 1479 1342 1207 1343
8 1480 1343 1208 1344 1345 1210 1082 1209
8 1351 1214 1319 1454 1480 1343 1208 1344
8 1481 1346 1210 1345 1359 1228 1100 1225
8 1348 1212 1347 1483 1214 1084 1213 1350
8 1216 1103 1227 1352 1353 1230 1360 1488
8 1217 1104 1230 1353 1354 1231 1363 1489
8 1490 1364 1232 1355 1354 1231 1106 1219
8 1220 1109 1232 1355 1356 1234 1365 1491
8 1221 1110 1234 1356 1357 1233 1366 1492
8 1224 1107 1233 1357 1358 1229 1362 1493
8 1226 1102 1229 1358 1359 1228 1362 1493
8 1230 1112 1235 1360 1363 1236 1367 1496
8 1361 1239 1115 1228 1497 1371 1240 1362
8 1366 1241 1372 1498 1233 1117 1240 1362
8 1364 1237 1113 1231 1499 1368 1236 1363
8 1364 1237 1368 1499 1232 1114 1238 1365
8 1234 1118 1238 1365 1366 1241 1369 1500
8 1507 1373 1242 1374 1388 1266 1138 1255
8 1508 1374 1243 1375 1380 1255 1132 1249
8 1376 1254 1387 1509 1245 1129 1258 1377
8 1275 1149 1276 1405 1376 1254 1387 1509
8 1377 1258 1391 1510 1248 1130 1259 1379
8 1511 1390 1257 1378 1379 1259 1131 1247
8 1383 1260 1134 1251 1511 1390 1257 1378
8 1252 1135 1256 1385 1380 1255 1388 1512
8 1261 1381 1513 1394 1133 1250 1382 1262
8 1135 1252 1384 1263 1261 1381 1513 1394
8 1382 1262 1134 1251 1514 1393 1260 1383
8 1253 1136 1263 1384 1386 1264 1395 1516
8 1253 1136 1264 1386 1385 1256 1389 1517
8 1387 1265 1397 1519 1258 1141 1269 1391
8 1276 1150 1277 1406 1387 1265 1397 1519
8 1256 1139 1267 1389 1388 1266 1398 1520
8 1264 1147 1274 1396 1389 1267 1399 1521
8 1392 1270 1143 1260 1522 1400 1268 1390
8 1390 1268 1142 1259 1522 1400 1269 1391
8 1392 1270 1401 1523 1260 1143 1271 1393
8 1272 1394 1524 1402 1145 1262 1393 1271
8 1395 1273 1146 1263 1524 1402 1272 1394
8 1273 1395 1264 1147 1403 1526 1396 1274
8 1405 1276 1160 1282 1534 1406 1286 1411
8 1414 1287 1407 1535 1286 1162 1277 1406
8 1279 1159 1283 1408 1409 1285 1412 1537
8 1418 1292 1412 1537 1290 1165 1283 1408
8 1280 1158 1285 1409 1410 1284 1413 1538
8 1410 1284 1413 1538 1282 1160 1286 1411
8 1285 1163 1289 1412 1413 1288 1417 1540
8 1421 1296 1417 1540 1292 1167 1289 1412
8 1414 1287 1162 1286 1541 1416 1288 1413
8 1420 1294 1421 1545 1291 1166 1292 1418
8 1419 1293 1172 1305 1546 1422 1303 1437
8 1420 1294 1166 1291 1547 1423 1293 1419
8 1294 1169 1297 1423 1421 1296 1425 1548
8 1423 1297 1168 1293 1549 1424 1295 1422
8 1301 1170 1298 1427 1422 1295 1424 1549
8 1432 1300 1428 1554 1301 1170 1298 1427
8 1431 1299 1428 1554 1560 1430 1300 1432
8 1563 1433 1300 1432 1435 1302 1170 1301
8 1546 1422 1303 1437 1434 1301 1435 1565
8 1303 1171 1304 1438 1435 1302 1436 1566
8 1305 1172 1306 1440 1437 1303 1438 1568
8 1306 1173 1307 1441 1438 1304 1439 1569
8 1308 1175 1309 1443 1440 1306 1441 1571
8 1309 1176 1310 1444 1441 1307 1442 1572
8 1311 1178 1312 1446 1443 1309 1444 1574
8 1179 1312 1444 1310 1313 1447 1575 1445
8 1314 1181 1315 1448 1446 1312 1447 1576
8 1350 1213 1349 1486 1451 1317 1449 1579
8 1451 1317 1450 1581 1319 1186 1318 1453
8 1454 1319 1214 1351 1582 1451 1350 1487
8 1453 1318 1452 1584 1321 1187 1320 1456
8 1454 1319 1453 1585 1344 1208 1321 1457
8 1456 1320 1455 1586 1323 1189 1324 1459
8 1457 1321 1456 1587 1322 1188 1323 1458
8 1458 1323 1459 1588 1325 1191 1326 1460
8 1205 1336 1464 1329 1328 1462 1590 1461
8 1507 1373 1461 1590 1374 1242 1328 1462
8 1508 1374 1462 1591 1375 1243 1335 1467
8 1337 1206 1329 1464 1473 1341 1463 1594
8 1375 1243 1335 1467 1465 1333 1470 1596
8 1465 1333 1470 1596 1331 1200 1334 1466
8 1352 1227 1334 1466 1488 1360 1470 1596
8 1591 1462 1336 1468 1467 1335 1471 1597
8 1469 1337 1472 1598 1595 1464 1336 1468
8 1471 1339 1474 1600 1335 1204 1338 1470
8 1600 1474 1367 1496 1470 1338 1235 1360
8 1336 1205 1340 1472 1471 1339 1475 1601
8 1337 1206 1341 1473 1472 1340 1476 1602
8 1495 1370 1478 1609 1361 1239 1342 1479
8 1348 1212 1342 1479 1483 1347 1478 1609
8 1481 1346 1479 1610 1345 1210 1343 1480
8 1481 1346 1228 1359 1610 1479 1361 1494
8 1484 1348 1214 1351 1610 1479 1343 1480
8 1483 1347 1482 1612 1350 1213 1349 1486
8 1484 1348 1483 1613 1351 1214 1350 1487
8 1353 1230 1360 1488 1489 1363 1496 1616
8 1490 1364 1231 1354 1617 1499 1363 1489
8 1490 1364 1499 1617 1355 1232 1365 1491
8 1356 1234 1365 1491 1492 1366 1500 1619
8 1492 1366 1498 1620 1357 1233 1362 1493
8 1494 1361 1228 1359 1621 1497 1362 1493
8 1495 1370 1239 1361 1622 1504 1371 1497
8 1363 1236 1367 1496 1499 1368 1501 1623
8 1497 1371 1240 1362 1624 1505 1372 1498
8 1625 1503 1372 1498 1500 1369 1241 1366
8 1365 1238 1368 1499 1500 1369 1502 1626
8 1520 1398 1506 1633 1388 1266 1373 1507
8 1634 1507 1374 1508 1512 1388 1255 1380
8 1509 1387 1519 1635 1377 1258 1391 1510
8 1405 1276 1406 1534 1509 1387 1519 1635
8 1515 1392 1260 1383 1636 1522 1390 1511
8 1511 1390 1259 1379 1636 1522 1391 1510
8 1385 1256 1389 1517 1512 1388 1520 1637
8 1513 1394 1262 1382 1638 1524 1393 1514
8 1395 1516 1638 1524 1263 1384 1513 1394
8 1515 1392 1523 1639 1383 1260 1393 1514
8 1516 1395 1526 1640 1386 1264 1396 1518
8 1386 1264 1396 1518 1517 1389 1521 1641
8 1519 1397 1527 1643 1391 1269 1400 1522
8 1535 1407 1527 1643 1406 1277 1397 1519
8 1389 1267 1399 1521 1520 1398 1528 1644
8 1645 1529 1399 1521 1525 1404 1274 1396
8 1392 1270 1400 1522 1523 1401 1531 1646
8 1524 1402 1271 1393 1648 1532 1401 1523
8 1403 1526 1648 1532 1273 1395 1524 1402
8 1525 1404 1274 1396 1649 1533 1403 1526
8 1539 1414 1535 1657 1411 1286 1406 1534
8 1542 1415 1536 1658 1414 1287 1407 1535
8 1409 1285 1412 1537 1538 1413 1540 1660
8 1545 1421 1540 1660 1418 1292 1412 1537
8 1539 1414 1286 1411 1661 1541 1413 1538
8 1540 1417 1544 1663 1413 1288 1416 1541
8 1421 1296 1425 1548 1540 1417 1544 1663
8 1542 1415 1287 1414 1664 1543 1416 1541
8 1420 1294 1423 1547 1545 1421 1548 1666
8 1547 1423 1293 1419 1667 1549 1422 1546
8 1434 1301 1427 1553 1546 1422 1549 1667
8 1423 1297 1424 1549 1548 1425 1550 1668
8 1551 1426 1550 1668 1427 1298 1424 1549
8 1551 1426 1298 1427 1671 1552 1428 1554
8 1562 1432 1554 1674 1434 1301 1427 1553
8 1431 1299 1429 1558 1554 1428 1555 1675
8 1431 1299 1430 1560 1558 1429 1557 1680
8 1560 1430 1300 1432 1683 1559 1433 1563
8 1561 1431 1554 1674 1684 1560 1432 1562
8 1685 1563 1432 1562 1565 1435 1301 1434
8 1435 1302 1436 1566 1563 1433 1564 1686
8 1437 1303 1438 1568 1565 1435 1566 1688
8 1438 1304 1439 1569 1566 1436 1567 1689
8 1440 1306 1441 1571 1568 1438 1569 1691
8 1441 1307 1442 1572 1569 1439 1570 1692
8 1443 1309 1444 1574 1571 1441 1572 1694
8 1310 1444 1572 1442 1445 1575 1695 1573
8 1446 1312 1447 1576 1574 1444 1575 1696
8 1486 1349 1485 1614 1579 1449 1577 1699
8 1451 1317 1449 1579 1581 1450 1578 1701
8 1487 1350 1486 1615 1582 1451 1579 1702
8 1581 1450 1580 1704 1453 1318 1452 1584
8 1582 1451 1581 1705 1454 1319 1453 1585
8 1584 1452 1583 1706 1456 1320 1455 1586
8 1585 1453 1584 1707 1457 1321 1456 1587
8 1587 1456 1586 1708 1458 1323 1459 1588
8 1633 1506 1589 1710 1507 1373 1461 1590
8 1464 1329 1461 1590 1594 1463 1589 1710
8 1468 1336 1462 1591 1595 1464 1590 1711
8 1634 1507 1590 1711 1508 1374 1462 1591
8 1473 1341 1463 1594 1603 1477 1593 1716
8 1469 1337 1464 1595 1599 1473 1594 1717
8 1471 1597 1467 1335 1600 1718 1596 1470
8 1718 1600 1496 1616 1596 1470 1360 1488
8 1336 1468 1597 1471 1472 1598 1719 1601
8 1469 1337 1473 1599 1598 1472 1602 1720
8 1722 1604 1501 1623 1600 1474 1367 1496
8 1475 1601 1471 1339 1604 1722 1600 1474
8 1602 1476 1605 1723 1472 1340 1475 1601
8 1476 1602 1724 1606 1341 1473 1603 1477
8 1483 1347 1478 1609 1612 1482 1608 1731
8 1495 1370 1504 1622 1609 1478 1608 1731
8 1618 1495 1609 1732 1494 1361 1479 1610
8 1484 1348 1479 1610 1613 1483 1609 1732
8 1486 1349 1482 1612 1614 1485 1611 1733
8 1613 1483 1612 1734 1487 1350 1486 1615
8 1489 1363 1496 1616 1617 1499 1623 1736
8 1491 1365 1499 1617 1619 1500 1626 1737
8 1618 1495 1361 1494 1738 1622 1497 1621
8 1739 1625 1498 1620 1619 1500 1366 1492
8 1621 1497 1362 1493 1740 1624 1498 1620
8 1742 1631 1504 1622 1624 1505 1371 1497
8 1743 1628 1502 1626 1623 1501 1368 1499
8 1744 1630 1505 1624 1625 1503 1372 1498
8 1745 1629 1503 1625 1626 1502 1369 1500
8 1520 1398 1528 1644 1633 1506 1632 1751
8 1637 1520 1633 1752 1512 1388 1507 1634
8 1635 1519 1643 1753 1510 1391 1522 1636
8 1657 1535 1643 1753 1534 1406 1519 1635
8 1515 1392 1522 1636 1639 1523 1646 1754
8 1517 1389 1521 1641 1637 1520 1644 1755
8 1524 1638 1756 1648 1393 1514 1639 1523
8 1640 1526 1395 1516 1756 1648 1524 1638
8 1642 1525 1396 1518 1757 1649 1526 1640
8 1758 1645 1521 1641 1642 1525 1396 1518
8 1646 1531 1400 1522 1760 1650 1527 1643
8 1535 1407 1536 1658 1643 1527 1650 1760
8 1521 1399 1529 1645 1644 1528 1651 1761
8 1647 1530 1652 1762 1525 1404 1529 1645
8 1401 1523 1648 1532 1531 1646 1763 1655
8 1525 1404 1533 1649 1647 1530 1654 1765
8 1533 1649 1766 1656 1403 1526 1648 1532
8 1662 1542 1658 1774 1539 1414 1535 1657
8 1542 1415 1543 1664 1658 1536 1659 1775
8 1660 1540 1663 1777 1538 1413 1541 1661
8 1545 1421 1548 1666 1660 1540 1663 1777
8 1662 1542 1414 1539 1778 1664 1541 1661
8 1664 1543 1416 1541 1779 1665 1544 1663
8 1548 1425 1550 1668 1663 1544 1665 1779
8 1547 1423 1549 1667 1666 1548 1668 1781
8 1670 1551 1668 1781 1553 1427 1549 1667
8 1551 1426 1552 1671 1668 1550 1669 1782
8 1670 1551 1427 1553 1784 1671 1554 1674
8 1675 1555 1672 1785 1554 1428 1552 1671
8 1678 1556 1673 1789 1558 1429 1555 1675
8 1561 1431 1558 1681 1674 1554 1675 1790
8 1794 1677 1556 1678 1680 1557 1429 1558
8 1560 1430 1559 1683 1680 1557 1679 1797
8 1561 1431 1560 1684 1681 1558 1680 1798
8 1563 1433 1564 1686 1683 1559 1682 1800
8 1684 1560 1432 1562 1801 1683 1563 1685
8 1565 1435 1566 1688 1685 1563 1686 1802
8 1566 1436 1567 1689 1686 1564 1687 1803
8 1568 1438 1569 1691 1688 1566 1689 1805
8 1569 1439 1570 1692 1689 1567 1690 1806
8 1571 1441 1572 1694 1691 1569 1692 1808
8 1442 1572 1692 1570 1573 1695 1809 1693
8 1574 1444 1575 1696 1694 1572 1695 1810
8 1614 1485 1592 1712 1699 1577 1697 1813
8 1579 1449 1577 1699 1701 1578 1698 1815
8 1615 1486 1614 1735 1702 1579 1699 1816
8 1701 1578 1700 1818 1581 1450 1580 1704
8 1582 1451 1579 1702 1705 1581 1701 1819
8 1704 1580 1703 1820 1584 1452 1583 1706
8 1705 1581 1704 1821 1585 1453 1584 1707
8 1707 1584 1706 1822 1587 1456 1586 1708
8 1710 1589 1506 1633 1824 1709 1632 1751
8 1594 1463 1589 1710 1716 1593 1709 1824
8 1752 1633 1710 1825 1634 1507 1590 1711
8 1595 1464 1590 1711 1717 1594 1710 1825
8 1830 1714 1592 1712 1733 1611 1485 1614
8 1603 1477 1593 1716 1725 1607 1715 1834
8 1599 1473 1594 1717 1721 1603 1716 1835
8 1837 1722 1623 1736 1718 1600 1496 1616
8 1719 1601 1722 1837 1597 1471 1600 1718
8 1602 1720 1598 1472 1723 1838 1719 1601
8 1720 1602 1473 1599 1839 1724 1603 1721
8 1723 1605 1726 1840 1601 1475 1604 1722
8 1840 1726 1628 1743 1722 1604 1501 1623
8 1724 1606 1727 1841 1602 1476 1605 1723
8 1725 1607 1728 1842 1603 1477 1606 1724
8 1612 1482 1608 1731 1733 1611 1730 1849
8 1741 1627 1730 1849 1622 1504 1608 1731
8 1613 1483 1609 1732 1734 1612 1731 1850
8 1618 1495 1622 1738 1732 1609 1731 1850
8 1615 1486 1612 1734 1735 1614 1733 1851
8 1852 1743 1626 1737 1736 1623 1499 1617
8 1853 1745 1625 1739 1737 1626 1500 1619
8 1855 1742 1622 1738 1740 1624 1497 1621
8 1856 1744 1624 1740 1739 1625 1498 1620
8 1741 1627 1504 1622 1857 1746 1631 1742
8 1742 1631 1505 1624 1858 1749 1630 1744
8 1859 1747 1629 1745 1743 1628 1502 1626
8 1860 1748 1630 1744 1745 1629 1503 1625
8 1644 1528 1651 1761 1751 1632 1750 1865
8 1637 1520 1644 1755 1752 1633 1751 1866
8 1754 1646 1522 1636 1867 1760 1643 1753
8 1657 1535 1658 1774 1753 1643 1760 1867
8 1639 1523 1646 1754 1756 1648 1763 1868
8 1641 1521 1645 1758 1755 1644 1761 1869
8 1757 1649 1526 1640 1870 1766 1648 1756
8 1642 1525 1649 1757 1759 1647 1765 1871
8 1759 1647 1762 1872 1642 1525 1645 1758
8 1760 1650 1767 1874 1646 1531 1655 1763
8 1658 1536 1659 1775 1760 1650 1767 1874
8 1762 1652 1768 1875 1645 1529 1651 1761
8 1764 1653 1769 1876 1647 1530 1652 1762
8 1656 1766 1877 1773 1532 1648 1763 1655
8 1771 1879 1765 1654 1653 1764 1647 1530
8 1533 1649 1765 1654 1656 1766 1880 1772
8 1662 1542 1664 1778 1774 1658 1775 1887
8 1664 1543 1665 1779 1775 1659 1776 1888
8 1778 1664 1541 1661 1890 1779 1663 1777
8 1666 1548 1668 1781 1777 1663 1779 1890
8 1782 1669 1780 1891 1668 1550 1665 1779
8 1670 1551 1671 1784 1781 1668 1782 1893
8 1671 1552 1672 1785 1782 1669 1783 1894
8 1790 1675 1785 1896 1674 1554 1671 1784
8 1675 1555 1673 1789 1785 1672 1786 1897
8 1792 1676 1788 1903 1678 1556 1673 1789
8 1795 1678 1789 1904 1681 1558 1675 1790
8 1792 1676 1556 1678 1906 1791 1677 1794
8 1680 1557 1679 1797 1794 1677 1793 1909
8 1910 1794 1678 1795 1798 1680 1558 1681
8 1683 1559 1682 1800 1797 1679 1796 1912
8 1684 1560 1683 1801 1798 1680 1797 1913
8 1686 1564 1687 1803 1800 1682 1799 1915
8 1685 1563 1686 1802 1801 1683 1800 1916
8 1688 1566 1689 1805 1802 1686 1803 1917
8 1689 1567 1690 1806 1803 1687 1804 1918
8 1691 1569 1692 1808 1805 1689 1806 1920
8 1692 1570 1693 1809 1806 1690 1807 1921
8 1694 1572 1695 1810 1808 1692 1809 1922
8 1829 1713 1811 1926 1712 1592 1697 1813
8 1813 1697 1812 1928 1699 1577 1698 1815
8 1735 1614 1712 1828 1816 1699 1813 1929
8 1815 1698 1814 1931 1701 1578 1700 1818
8 1702 1579 1699 1816 1819 1701 1815 1932
8 1818 1700 1817 1933 1704 1580 1703 1820
8 1819 1701 1818 1934 1705 1581 1704 1821
8 1821 1704 1820 1935 1707 1584 1706 1822
8 1824 1709 1632 1751 1937 1823 1750 1865
8 1716 1593 1709 1824 1834 1715 1823 1937
8 1825 1710 1633 1752 1938 1824 1751 1866
8 1717 1594 1710 1825 1835 1716 1824 1938
8 1945 1830 1712 1828 1851 1733 1614 1735
8 1830 1714 1831 1946 1712 1592 1713 1829
8 1947 1832 1714 1830 1849 1730 1611 1733
8 1843 1729 1607 1725 1950 1833 1715 1834
8 1721 1603 1716 1835 1836 1725 1834 1951
8 1836 1725 1842 1953 1721 1603 1724 1839
8 1723 1838 1719 1601 1840 1954 1837 1722
8 1954 1840 1743 1852 1837 1722 1623 1736
8 1724 1839 1720 1602 1841 1955 1838 1723
8 1841 1727 1844 1956 1723 1605 1726 1840
8 1956 1844 1747 1859 1840 1726 1628 1743
8 1728 1842 1724 1606 1845 1957 1841 1727
8 1725 1607 1729 1843 1842 1728 1846 1958
8 1741 1627 1746 1857 1849 1730 1848 1965
8 1734 1612 1731 1850 1851 1733 1849 1966
8 1854 1741 1849 1966 1738 1622 1731 1850
8 1967 1859 1745 1853 1852 1743 1626 1737
8 1968 1860 1744 1856 1853 1745 1625 1739
8 1854 1741 1622 1738 1969 1857 1742 1855
8 1855 1742 1624 1740 1970 1858 1744 1856
8 1857 1746 1631 1742 1971 1861 1749 1858
8 1858 1749 1630 1744 1972 1863 1748 1860
8 1859 1747 1862 1973 1745 1629 1748 1860
8 1875 1768 1864 1977 1761 1651 1750 1865
8 1755 1644 1761 1869 1866 1751 1865 1978
8 1867 1760 1874 1979 1754 1646 1763 1868
8 1774 1658 1775 1887 1867 1760 1874 1979
8 1870 1766 1648 1756 1980 1877 1763 1868
8 1872 1762 1875 1981 1758 1645 1761 1869
8 1757 1649 1766 1870 1871 1765 1880 1982
8 1983 1879 1764 1873 1871 1765 1647 1759
8 1873 1764 1876 1984 1759 1647 1762 1872
8 1877 1773 1655 1763 1986 1881 1767 1874
8 1775 1659 1776 1888 1874 1767 1881 1986
8 1876 1769 1882 1987 1762 1652 1768 1875
8 1878 1770 1883 1988 1764 1653 1769 1876
8 1880 1772 1656 1766 1989 1886 1773 1877
8 1878 1770 1653 1764 1990 1884 1771 1879
8 1765 1654 1772 1880 1879 1771 1885 1991
8 1778 1664 1779 1890 1887 1775 1888 1997
8 1998 1889 1776 1888 1891 1780 1665 1779
8 1893 1782 1891 2000 1781 1668 1779 1890
8 1894 1783 1892 2001 1782 1669 1780 1891
8 1784 1671 1785 1896 1893 1782 1894 2003
8 1897 1786 1895 2004 1785 1672 1783 1894
8 1790 1675 1789 1904 1896 1785 1897 2006
8 1901 1787 1898 2007 1789 1673 1786 1897
8 1903 1788 1900 2013 1789 1673 1787 1901
8 1792 1676 1791 1906 1903 1788 1902 2016
8 1907 1792 1903 2017 1795 1678 1789 1904
8 1906 1791 1677 1794 2019 1905 1793 1909
8 1907 1792 1678 1795 2020 1906 1794 1910
8 1797 1679 1796 1912 1909 1793 1908 2022
8 1798 1680 1797 1913 1910 1794 1909 2023
8 1800 1682 1799 1915 1912 1796 1911 2025
8 1801 1683 1800 1916 1913 1797 1912 2026
8 1803 1687 1804 1918 1915 1799 1914 2028
8 1802 1686 1803 1917 1916 1800 1915 2029
8 1805 1689 1806 1920 1917 1803 1918 2030
8 1806 1690 1807 1921 1918 1804 1919 2031
8 1808 1692 1809 1922 1920 1806 1921 2032
8 1939 1826 1924 2037 1829 1713 1811 1926
8 1926 1811 1925 2039 1813 1697 1812 1928
8 1944 1829 1926 2040 1828 1712 1813 1929
8 1928 1812 1927 2042 1815 1698 1814 1931
8 1929 1813 1928 2043 1816 1699 1815 1932
8 1931 1814 1930 2044 1818 1700 1817 1933
8 1932 1815 1931 2045 1819 1701 1818 1934
8 1934 1818 1933 2046 1821 1704 1820 1935
8 2048 1936 1823 1937 1977 1864 1750 1865
8 1950 1833 1715 1834 2048 1936 1823 1937
8 1938 1824 1751 1866 2049 1937 1865 1978
8 1835 1716 1824 1938 1951 1834 1937 2049
8 1939 1826 1713 1829 2053 1942 1831 1946
8 1940 1827 1923 2035 2053 1942 1826 1939
8 1945 1830 1946 2058 1828 1712 1829 1944
8 2059 1947 1830 1945 1966 1849 1733 1851
8 1947 1832 1730 1849 2060 1948 1848 1965
8 1947 1832 1948 2060 1830 1714 1831 1946
8 1959 1847 1729 1843 2063 1949 1833 1950
8 1952 1843 1725 1836 2064 1950 1834 1951
8 1836 1725 1843 1952 1953 1842 1958 2066
8 1953 1842 1957 2067 1839 1724 1841 1955
8 1841 1955 1838 1723 1956 2068 1954 1840
8 2068 1956 1859 1967 1954 1840 1743 1852
8 1956 1844 1960 2069 1859 1747 1862 1973
8 1845 1957 1841 1727 1960 2069 1956 1844
8 1728 1842 1957 1845 1846 1958 2071 1961
8 1962 2072 1959 1847 1846 1958 1843 1729
8 1971 1861 1964 2077 1857 1746 1848 1965
8 1854 1741 1857 1969 1966 1849 1965 2078
8 1967 1859 1973 2079 1853 1745 1860 1968
8 1970 1858 1744 1856 2080 1972 1860 1968
8 1969 1857 1742 1855 2081 1971 1858 1970
8 1971 1861 1749 1858 2082 1974 1863 1972
8 1973 1862 1975 2083 1860 1748 1863 1972
8 1987 1882 1976 2086 1875 1768 1864 1977
8 1981 1875 1977 2087 1869 1761 1865 1978
8 1980 1877 1763 1868 2088 1986 1874 1979
8 1887 1775 1888 1997 1979 1874 1986 2088
8 1880 1982 2089 1989 1766 1870 1980 1877
8 1984 1876 1987 2090 1872 1762 1875 1981
8 1765 1871 1983 1879 1880 1982 2091 1991
8 1985 1878 1764 1873 2092 1990 1879 1983
8 1985 1878 1988 2093 1873 1764 1876 1984
8 2094 1992 1881 1986 1998 1889 1776 1888
8 1986 1881 1992 2094 1877 1773 1886 1989
8 1988 1883 1993 2095 1876 1769 1882 1987
8 1878 1770 1884 1990 1988 1883 1994 2096
8 1991 1885 1772 1880 2097 1996 1886 1989
8 1879 1771 1885 1991 1990 1884 1995 2098
8 2103 1998 1888 1997 2000 1891 1779 1890
8 2104 1999 1889 1998 2001 1892 1780 1891
8 2003 1894 2001 2106 1893 1782 1891 2000
8 2004 1895 2002 2107 1894 1783 1892 2001
8 2006 1897 2004 2109 1896 1785 1894 2003
8 2007 1898 2005 2110 1897 1786 1895 2004
8 2014 1901 2007 2112 1904 1789 1897 2006
8 2011 1899 2008 2113 1901 1787 1898 2007
8 2119 2010 1899 2011 2013 1900 1787 1901
8 2016 1902 2012 2122 1903 1788 1900 2013
8 2017 1903 2013 2123 1904 1789 1901 2014
8 1906 1791 1905 2019 2016 1902 2015 2125
8 1907 1792 1906 2020 2017 1903 2016 2126
8 1909 1793 1908 2022 2019 1905 2018 2128
8 2020 1906 1794 1910 2129 2019 1909 2023
8 1912 1796 1911 2025 2022 1908 2021 2131
8 1913 1797 1912 2026 2023 1909 2022 2132
8 1915 1799 1914 2028 2025 1911 2024 2134
8 1916 1800 1915 2029 2026 1912 2025 2135
8 1918 1804 1919 2031 2028 1914 2027 2136
8 1917 1803 1918 2030 2029 1915 2028 2137
8 1920 1806 1921 2032 2030 1918 2031 2138
8 1940 1827 1941 2054 2035 1923 2033 2140
8 2035 1923 2034 2143 1939 1826 1924 2037
8 2037 1924 2036 2146 1926 1811 1925 2039
8 2051 1939 2037 2147 1944 1829 1926 2040
8 2039 1925 2038 2149 1928 1812 1927 2042
8 2040 1926 2039 2150 1929 1813 1928 2043
8 2042 1927 2041 2151 1931 1814 1930 2044
8 2043 1928 2042 2152 1932 1815 1931 2045
8 2045 1931 2044 2153 1934 1818 1933 2046
8 2155 2047 1936 2048 2086 1976 1864 1977
8 2063 1949 1833 1950 2155 2047 1936 2048
8 2156 2048 1937 2049 2087 1977 1865 1978
8 2064 1950 1834 1951 2156 2048 1937 2049
8 2051 1939 1829 1944 2160 2053 1946 2058
8 2052 1940 2035 2144 2160 2053 1939 2051
8 2053 1942 1831 1946 2163 2057 1948 2060
8 2055 1943 1827 1940 2163 2057 1942 2053
8 2055 1943 2056 2164 1940 1827 1941 2054
8 2059 1947 1849 1966 2167 2060 1965 2078
8 2059 1947 2060 2167 1945 1830 1946 2058
8 2077 1964 2061 2168 1965 1848 1948 2060
8 2070 1963 1847 1959 2170 2062 1949 2063
8 2065 1959 1843 1952 2171 2063 1950 2064
8 2173 2072 1958 2066 2065 1959 1843 1952
8 1953 1842 1958 2066 2067 1957 2071 2174
8 2068 1956 2069 2175 1967 1859 1973 2079
8 2067 1957 2069 2175 1955 1841 1956 2068
8 1845 1957 2069 1960 1961 2071 2176 2073
8 2069 1960 2073 2176 1973 1862 1975 2083
8 2070 1963 2075 2177 1959 1847 1962 2072
8 1846 1958 2071 1961 1962 2072 2178 2074
8 2077 1964 1861 1971 2182 2076 1974 2082
8 2081 1971 2077 2183 1969 1857 1965 2078
8 2079 1973 2083 2184 1968 1860 1972 2080
8 2081 1971 1858 1970 2185 2082 1972 2080
8 2083 1975 2084 2186 1972 1863 1974 2082
8 2086 1976 1882 1987 2189 2085 1993 2095
8 2090 1987 2086 2190 1981 1875 1977 2087
8 2191 2094 1986 2088 2103 1998 1888 1997
8 2088 1986 2094 2191 1980 1877 1989 2089
8 1991 2091 2192 2097 1880 1982 2089 1989
8 2093 1988 2095 2193 1984 1876 1987 2090
8 1879 1983 2092 1990 1991 2091 2194 2098
8 1985 1878 1990 2092 2093 1988 2096 2195
8 2097 1996 1886 1989 2196 2099 1992 2094
8 2196 2099 1992 2094 2104 1999 1889 1998
8 1994 2096 1988 1883 2100 2197 2095 1993
8 2096 1994 1884 1990 2198 2101 1995 2098
8 1995 2098 2199 2102 1885 1991 2097 1996
8 2203 2104 1998 2103 2106 2001 1891 2000
8 2107 2002 2105 2204 2001 1892 1999 2104
8 2109 2004 2107 2206 2003 1894 2001 2106
8 2110 2005 2108 2207 2004 1895 2002 2107
8 2112 2007 2110 2209 2006 1897 2004 2109
8 2113 2008 2111 2210 2007 1898 2005 2110
8 2120 2011 2113 2212 2014 1901 2007 2112
8 2117 2009 2114 2213 2011 1899 2008 2113
8 2219 2116 2009 2117 2119 2010 1899 2011
8 2222 2118 2010 2119 2122 2012 1900 2013
8 2223 2119 2011 2120 2123 2013 1901 2014
8 2016 1902 2015 2125 2122 2012 2121 2225
8 2126 2016 2122 2226 2017 1903 2013 2123
8 2019 1905 2018 2128 2125 2015 2124 2228
8 2020 1906 2019 2129 2126 2016 2125 2229
8 2022 1908 2021 2131 2128 2018 2127 2231
8 2023 1909 2022 2132 2129 2019 2128 2232
8 2025 1911 2024 2134 2131 2021 2130 2234
8 2026 1912 2025 2135 2132 2022 2131 2235
8 1914 2028 2134 2024 2027 2136 2236 2133
8 2029 1915 2028 2137 2135 2025 2134 2237
8 2030 1918 2031 2138 2137 2028 2136 2238
8 2157 2050 2139 2240 2054 1941 2033 2140
8 2052 1940 2054 2161 2144 2035 2140 2242
8 2140 2033 2141 2243 2035 1923 2034 2143
8 2143 2034 2142 2246 2037 1924 2036 2146
8 2144 2035 2143 2247 2051 1939 2037 2147
8 2146 2036 2145 2249 2039 1925 2038 2149
8 2147 2037 2146 2250 2040 1926 2039 2150
8 2149 2038 2148 2251 2042 1927 2041 2151
8 2150 2039 2149 2252 2043 1928 2042 2152
8 2152 2042 2151 2253 2045 1931 2044 2153
8 2255 2154 2047 2155 2189 2085 1976 2086
8 2170 2062 1949 2063 2255 2154 2047 2155
8 2256 2155 2048 2156 2190 2086 1977 2087
8 2171 2063 1950 2064 2256 2155 2048 2156
8 2258 2159 2050 2157 2164 2056 1941 2054
8 2160 2053 1946 2058 2262 2163 2060 2167
8 2162 2055 1940 2052 2262 2163 2053 2160
8 2162 2055 2164 2263 2052 1940 2054 2161
8 2163 2057 1948 2060 2264 2165 2061 2168
8 2055 1943 2057 2163 2164 2056 2165 2264
8 2182 2076 2166 2268 2077 1964 2061 2168
8 2183 2077 2168 2269 2078 1965 2060 2167
8 2070 1963 2062 2170 2177 2075 2169 2271
8 2172 2070 1959 2065 2272 2170 2063 2171
8 2172 2070 2177 2273 2065 1959 2072 2173
8 2066 1958 2072 2173 2174 2071 2178 2274
8 2067 1957 2071 2174 2175 2069 2176 2275
8 2175 2069 2176 2275 2079 1973 2083 2184
8 2071 1961 2074 2178 2176 2073 2179 2276
8 2176 2073 2179 2276 2083 1975 2084 2186
8 2072 1962 2075 2177 2178 2074 2180 2277
8 2182 2076 1974 2082 2280 2181 2084 2186
8 2183 2077 1971 2081 2281 2182 2082 2185
8 2184 2083 2186 2282 2080 1972 2082 2185
8 2189 2085 1993 2095 2285 2188 2100 2197
8 2190 2086 1987 2090 2286 2189 2095 2193
8 2192 2097 1989 2089 2287 2196 2094 2191
8 2287 2196 2094 2191 2203 2104 1998 2103
8 2194 2098 1991 2091 2288 2199 2097 2192
8 2195 2096 2197 2289 2093 1988 2095 2193
8 2096 2195 2290 2198 1990 2092 2194 2098
8 2097 1996 2099 2196 2199 2102 2200 2291
8 2196 2099 1999 2104 2291 2200 2105 2204
8 2100 2197 2292 2201 1994 2096 2198 2101
8 1995 2098 2198 2101 2102 2199 2293 2202
8 2206 2107 2204 2296 2106 2001 2104 2203
8 2207 2108 2205 2297 2107 2002 2105 2204
8 2209 2110 2207 2299 2109 2004 2107 2206
8 2210 2111 2208 2300 2110 2005 2108 2207
8 2212 2113 2210 2302 2112 2007 2110 2209
8 2213 2114 2211 2303 2113 2008 2111 2210
8 2220 2117 2213 2305 2120 2011 2113 2212
8 2216 2115 2214 2306 2117 2009 2114 2213
8 2216 2115 2009 2117 2311 2217 2116 2219
8 2219 2116 2010 2119 2314 2218 2118 2222
8 2315 2219 2117 2220 2223 2119 2011 2120
8 2122 2012 2121 2225 2222 2118 2221 2317
8 2318 2222 2119 2223 2226 2122 2013 2123
8 2125 2015 2124 2228 2225 2121 2224 2320
8 2126 2016 2125 2229 2226 2122 2225 2321
8 2128 2018 2127 2231 2228 2124 2227 2323
8 2129 2019 2128 2232 2229 2125 2228 2324
8 2131 2021 2130 2234 2231 2127 2230 2326
8 2132 2022 2131 2235 2232 2128 2231 2327
8 2134 2024 2133 2236 2234 2130 2233 2328
8 2135 2025 2134 2237 2235 2131 2234 2329
8 2137 2028 2136 2238 2237 2134 2236 2330
8 2157 2050 2158 2259 2240 2139 2239 2332
8 2257 2157 2240 2334 2161 2054 2140 2242
8 2240 2139 2241 2335 2140 2033 2141 2243
8 2242 2140 2243 2337 2144 2035 2143 2247
8 2243 2141 2244 2338 2143 2034 2142 2246
8 2246 2142 2245 2341 2146 2036 2145 2249
8 2247 2143 2246 2342 2147 2037 2146 2250
8 2249 2145 2248 2343 2149 2038 2148 2251
8 2250 2146 2249 2344 2150 2039 2149 2252
8 2252 2149 2251 2345 2152 2042 2151 2253
8 2169 2271 2347 2254 2062 2170 2255 2154
8 2189 2085 2188 2285 2255 2154 2254 2347
8 2348 2255 2155 2256 2286 2189 2086 2190
8 2272 2170 2063 2171 2348 2255 2155 2256
8 2349 2258 2157 2257 2263 2164 2054 2161
8 2258 2159 2261 2351 2157 2050 2158 2259
8 2258 2159 2056 2164 2351 2261 2165 2264
8 2262 2163 2060 2167 2355 2264 2168 2269
8 2162 2055 2163 2262 2263 2164 2264 2355
8 2357 2266 2165 2264 2268 2166 2061 2168
8 2268 2166 2076 2182 2361 2267 2181 2280
8 2281 2182 2268 2362 2183 2077 2168 2269
8 2271 2169 2270 2364 2177 2075 2180 2277
8 2172 2070 2170 2272 2273 2177 2271 2365
8 2072 2173 2274 2178 2177 2273 2366 2277
8 2071 2174 2275 2176 2178 2274 2367 2276
8 2275 2176 2276 2367 2184 2083 2186 2282
8 2283 2187 2084 2186 2368 2278 2179 2276
8 2178 2074 2180 2277 2276 2179 2278 2368
8 2283 2187 2279 2370 2186 2084 2181 2280
8 2281 2182 2082 2185 2371 2280 2186 2282
8 2188 2285 2374 2284 2100 2197 2292 2201
8 2286 2189 2095 2193 2375 2285 2197 2289
8 2192 2097 2196 2287 2288 2199 2291 2376
8 2287 2196 2104 2203 2376 2291 2204 2296
8 2194 2098 2199 2288 2290 2198 2293 2377
8 2289 2197 2096 2195 2378 2292 2198 2290
8 2291 2200 2105 2204 2379 2294 2205 2297
8 2199 2102 2200 2291 2293 2202 2294 2379
8 2198 2101 2202 2293 2292 2201 2295 2380
8 2299 2207 2297 2383 2206 2107 2204 2296
8 2300 2208 2298 2384 2207 2108 2205 2297
8 2302 2210 2300 2386 2209 2110 2207 2299
8 2303 2211 2301 2387 2210 2111 2208 2300
8 2305 2213 2303 2389 2212 2113 2210 2302
8 2306 2214 2304 2390 2213 2114 2211 2303
8 2310 2216 2306 2392 2220 2117 2213 2305
8 2308 2215 2307 2393 2216 2115 2214 2306
8 2308 2215 2115 2216 2396 2309 2217 2311
8 2310 2216 2117 2220 2398 2311 2219 2315
8 2311 2217 2116 2219 2399 2312 2218 2314
8 2314 2218 2118 2222 2402 2313 2221 2317
8 2315 2219 2119 2223 2403 2314 2222 2318
8 2225 2121 2224 2320 2317 2221 2316 2405
8 2226 2122 2225 2321 2318 2222 2317 2406
8 2228 2124 2227 2323 2320 2224 2319 2408
8 2229 2125 2228 2324 2321 2225 2320 2409
8 2231 2127 2230 2326 2323 2227 2322 2411
8 2232 2128 2231 2327 2324 2228 2323 2412
8 2234 2130 2233 2328 2326 2230 2325 2413
8 2235 2131 2234 2329 2327 2231 2326 2414
8 2237 2134 2236 2330 2329 2234 2328 2415
8 2259 2158 2260 2352 2332 2239 2331 2417
8 2257 2157 2259 2350 2334 2240 2332 2419
8 2240 2139 2239 2332 2335 2241 2333 2420
8 2334 2240 2335 2422 2242 2140 2243 2337
8 2335 2241 2336 2423 2243 2141 2244 2338
8 2337 2243 2338 2425 2247 2143 2246 2342
8 2338 2244 2339 2426 2246 2142 2245 2341
8 2341 2245 2340 2428 2249 2145 2248 2343
8 2342 2246 2341 2429 2250 2146 2249 2344
8 2344 2249 2343 2430 2252 2149 2251 2345
8 2188 2285 2347 2254 2284 2374 2432 2346
8 2347 2254 2346 2432 2271 2169 2270 2364
8 2365 2271 2170 2272 2433 2347 2255 2348
8 2286 2189 2285 2375 2348 2255 2347 2433
8 2349 2258 2351 2435 2257 2157 2259 2350
8 2349 2258 2164 2263 2435 2351 2264 2355
8 2259 2158 2261 2351 2352 2260 2354 2437
8 2356 2265 2354 2437 2264 2165 2261 2351
8 2441 2357 2264 2355 2362 2268 2168 2269
8 2356 2265 2165 2264 2442 2358 2266 2357
8 2443 2359 2266 2357 2361 2267 2166 2268
8 2370 2279 2360 2446 2280 2181 2267 2361
8 2362 2268 2182 2281 2447 2361 2280 2371
8 2180 2277 2368 2278 2270 2364 2449 2363
8 2271 2365 2273 2177 2364 2450 2366 2277
8 2372 2283 2186 2282 2451 2368 2276 2367
8 2178 2274 2367 2276 2277 2366 2451 2368
8 2283 2187 2278 2368 2370 2279 2369 2452
8 2372 2283 2370 2453 2282 2186 2280 2371
8 2284 2374 2455 2373 2201 2292 2380 2295
8 2375 2285 2197 2289 2456 2374 2292 2378
8 2376 2291 2204 2296 2457 2379 2297 2383
8 2288 2199 2291 2376 2377 2293 2379 2457
8 2198 2290 2378 2292 2293 2377 2458 2380
8 2293 2202 2294 2379 2380 2295 2381 2459
8 2384 2298 2381 2459 2297 2205 2294 2379
8 2386 2300 2384 2463 2299 2207 2297 2383
8 2387 2301 2385 2464 2300 2208 2298 2384
8 2389 2303 2387 2466 2302 2210 2300 2386
8 2390 2304 2388 2467 2303 2211 2301 2387
8 2392 2306 2390 2469 2305 2213 2303 2389
8 2393 2307 2391 2470 2306 2214 2304 2390
8 2395 2308 2393 2472 2310 2216 2306 2392
8 2308 2215 2309 2396 2393 2307 2394 2473
8 2395 2308 2216 2310 2475 2396 2311 2398
8 2396 2309 2217 2311 2476 2397 2312 2399
8 2398 2311 2219 2315 2478 2399 2314 2403
8 2399 2312 2218 2314 2479 2400 2313 2402
8 2317 2221 2316 2405 2402 2313 2401 2482
8 2403 2314 2222 2318 2483 2402 2317 2406
8 2320 2224 2319 2408 2405 2316 2404 2485
8 2321 2225 2320 2409 2406 2317 2405 2486
8 2323 2227 2322 2411 2408 2319 2407 2488
8 2324 2228 2323 2412 2409 2320 2408 2489
8 2326 2230 2325 2413 2411 2322 2410 2490
8 2327 2231 2326 2414 2412 2323 2411 2491
8 2329 2234 2328 2415 2414 2326 2413 2492
8 2417 2331 2260 2352 2494 2416 2353 2438
8 2350 2259 2352 2436 2419 2332 2417 2496
8 2332 2239 2331 2417 2420 2333 2418 2497
8 2334 2240 2332 2419 2422 2335 2420 2499
8 2420 2333 2421 2500 2335 2241 2336 2423
8 2422 2335 2423 2502 2337 2243 2338 2425
8 2423 2336 2424 2503 2338 2244 2339 2426
8 2425 2338 2426 2505 2342 2246 2341 2429
8 2426 2339 2427 2506 2341 2245 2340 2428
8 2429 2341 2428 2507 2344 2249 2343 2430
8 2432 2346 2284 2374 2509 2431 2373 2455
8 2432 2346 2431 2509 2364 2270 2363 2449
8 2375 2285 2374 2456 2433 2347 2432 2510
8 2347 2433 2365 2271 2432 2510 2450 2364
8 2350 2259 2351 2435 2436 2352 2437 2514
8 2440 2356 2437 2514 2355 2264 2351 2435
8 2352 2260 2354 2437 2438 2353 2439 2516
8 2356 2265 2358 2442 2437 2354 2439 2516
8 2440 2356 2264 2355 2518 2442 2357 2441
8 2519 2443 2357 2441 2447 2361 2268 2362
8 2443 2359 2444 2520 2357 2266 2358 2442
8 2443 2359 2267 2361 2520 2444 2360 2446
8 2446 2360 2279 2370 2523 2445 2369 2452
8 2453 2370 2446 2524 2371 2280 2361 2447
8 2449 2363 2448 2525 2368 2278 2369 2452
8 2366 2277 2364 2450 2451 2368 2449 2526
8 2372 2283 2368 2451 2453 2370 2452 2527
8 2455 2373 2295 2380 2529 2454 2382 2460
8 2456 2374 2292 2378 2530 2455 2380 2458
8 2377 2293 2379 2457 2458 2380 2459 2531
8 2463 2384 2459 2531 2383 2297 2379 2457
8 2533 2461 2382 2460 2459 2381 2295 2380
8 2464 2385 2461 2533 2384 2298 2381 2459
8 2466 2387 2464 2537 2386 2300 2384 2463
8 2467 2388 2465 2538 2387 2301 2385 2464
8 2469 2390 2467 2540 2389 2303 2387 2466
8 2470 2391 2468 2541 2390 2304 2388 2467
8 2472 2393 2470 2543 2392 2306 2390 2469
8 2393 2307 2394 2473 2470 2391 2471 2544
8 2395 2308 2396 2475 2472 2393 2473 2546
8 2396 2309 2397 2476 2473 2394 2474 2547
8 2475 2396 2311 2398 2549 2476 2399 2478
8 2476 2397 2312 2399 2550 2477 2400 2479
8 2478 2399 2314 2403 2552 2479 2402 2483
8 2479 2400 2313 2402 2553 2480 2401 2482
8 2405 2316 2404 2485 2482 2401 2481 2556
8 2406 2317 2405 2486 2483 2402 2482 2557
8 2408 2319 2407 2488 2485 2404 2484 2559
8 2409 2320 2408 2489 2486 2405 2485 2560
8 2411 2322 2410 2490 2488 2407 2487 2561
8 2412 2323 2411 2491 2489 2408 2488 2562
8 2414 2326 2413 2492 2491 2411 2490 2563
8 2513 2434 2493 2565 2438 2353 2416 2494
8 2496 2417 2352 2436 2567 2494 2438 2515
8 2494 2416 2495 2568 2417 2331 2418 2497
8 2419 2332 2417 2496 2499 2420 2497 2570
8 2497 2418 2498 2571 2420 2333 2421 2500
8 2499 2420 2500 2573 2422 2335 2423 2502
8 2500 2421 2501 2574 2423 2336 2424 2503
8 2502 2423 2503 2576 2425 2338 2426 2505
8 2503 2424 2504 2577 2426 2339 2427 2506
8 2505 2426 2506 2578 2429 2341 2428 2507
8 2509 2431 2373 2455 2580 2508 2454 2529
8 2509 2431 2508 2580 2449 2363 2448 2525
8 2432 2510 2581 2509 2374 2456 2530 2455
8 2432 2510 2450 2364 2509 2581 2526 2449
8 2583 2511 2434 2513 2516 2439 2353 2438
8 2436 2352 2437 2514 2515 2438 2516 2588
8 2440 2356 2442 2518 2514 2437 2516 2588
8 2442 2358 2444 2520 2516 2439 2517 2589
8 2519 2443 2520 2591 2441 2357 2442 2518
8 2519 2443 2361 2447 2591 2520 2446 2524
8 2446 2360 2445 2523 2520 2444 2521 2592
8 2525 2448 2522 2593 2452 2369 2445 2523
8 2524 2446 2370 2453 2594 2523 2452 2527
8 2526 2449 2525 2595 2451 2368 2452 2527
8 2534 2462 2528 2597 2460 2382 2454 2529
8 2530 2455 2380 2458 2598 2529 2460 2532
8 2599 2533 2460 2532 2531 2459 2380 2458
8 2537 2464 2533 2599 2463 2384 2459 2531
8 2534 2462 2382 2460 2601 2535 2461 2533
8 2538 2465 2535 2601 2464 2385 2461 2533
8 2540 2467 2538 2604 2466 2387 2464 2537
8 2541 2468 2539 2605 2467 2388 2465 2538
8 2543 2470 2541 2607 2469 2390 2467 2540
8 2470 2391 2471 2544 2541 2468 2542 2608
8 2472 2393 2473 2546 2543 2470 2544 2610
8 2473 2394 2474 2547 2544 2471 2545 2611
8 2475 2396 2476 2549 2546 2473 2547 2613
8 2476 2397 2477 2550 2547 2474 2548 2614
8 2549 2476 2399 2478 2616 2550 2479 2552
8 2479 2400 2480 2553 2550 2477 2551 2617
8 2552 2479 2402 2483 2619 2553 2482 2557
8 2482 2401 2481 2556 2553 2480 2554 2620
8 2485 2404 2484 2559 2556 2481 2555 2623
8 2486 2405 2485 2560 2557 2482 2556 2624
8 2488 2407 2487 2561 2559 2484 2558 2625
8 2489 2408 2488 2562 2560 2485 2559 2626
8 2491 2411 2490 2563 2562 2488 2561 2627
8 2513 2434 2512 2585 2565 2493 2564 2630
8 2586 2513 2565 2632 2515 2438 2494 2567
8 2565 2493 2566 2633 2494 2416 2495 2568
8 2567 2494 2568 2635 2496 2417 2497 2570
8 2568 2495 2569 2636 2497 2418 2498 2571
8 2570 2497 2571 2638 2499 2420 2500 2573
8 2571 2498 2572 2639 2500 2421 2501 2574
8 2573 2500 2574 2641 2502 2423 2503 2576
8 2574 2501 2575 2642 2503 2424 2504 2577
8 2576 2503 2577 2643 2505 2426 2506 2578
8 2597 2528 2579 2645 2529 2454 2508 2580
8 2580 2508 2579 2645 2525 2448 2522 2593
8 2581 2509 2455 2530 2646 2580 2529 2598
8 2581 2509 2580 2646 2526 2449 2525 2595
8 2583 2511 2582 2648 2513 2434 2512 2585
8 2583 2511 2439 2516 2648 2582 2517 2589
8 2649 2583 2513 2586 2588 2516 2438 2515
8 2589 2517 2444 2520 2653 2587 2521 2592
8 2518 2442 2520 2591 2588 2516 2589 2654
8 2593 2522 2590 2655 2523 2445 2521 2592
8 2524 2446 2523 2594 2591 2520 2592 2656
8 2595 2525 2593 2657 2527 2452 2523 2594
8 2602 2536 2596 2659 2534 2462 2528 2597
8 2600 2534 2597 2660 2532 2460 2529 2598
8 2600 2534 2460 2532 2661 2601 2533 2599
8 2604 2538 2601 2661 2537 2464 2533 2599
8 2602 2536 2462 2534 2663 2603 2535 2601
8 2601 2535 2465 2538 2663 2603 2539 2605
8 2607 2541 2605 2665 2540 2467 2538 2604
8 2608 2542 2606 2666 2541 2468 2539 2605
8 2543 2470 2544 2610 2607 2541 2608 2668
8 2544 2471 2545 2611 2608 2542 2609 2669
8 2546 2473 2547 2613 2610 2544 2611 2671
8 2547 2474 2548 2614 2611 2545 2612 2672
8 2549 2476 2550 2616 2613 2547 2614 2674
8 2550 2477 2551 2617 2614 2548 2615 2675
8 2552 2479 2553 2619 2616 2550 2617 2677
8 2553 2480 2554 2620 2617 2551 2618 2678
8 2557 2482 2556 2624 2619 2553 2620 2680
8 2556 2481 2555 2623 2620 2554 2621 2681
8 2559 2484 2558 2625 2623 2555 2622 2683
8 2560 2485 2559 2626 2624 2556 2623 2684
8 2562 2488 2561 2627 2626 2559 2625 2685
8 2690 2629 2564 2630 2650 2584 2512 2585
8 2586 2513 2585 2651 2632 2565 2630 2691
8 2630 2564 2631 2692 2565 2493 2566 2633
8 2632 2565 2633 2694 2567 2494 2568 2635
8 2633 2566 2634 2695 2568 2495 2569 2636
8 2635 2568 2636 2697 2570 2497 2571 2638
8 2636 2569 2637 2698 2571 2498 2572 2639
8 2638 2571 2639 2700 2573 2500 2574 2641
8 2639 2572 2640 2701 2574 2501 2575 2642
8 2641 2574 2642 2702 2576 2503 2577 2643
8 2597 2528 2596 2659 2645 2579 2644 2704
8 2645 2579 2644 2704 2593 2522 2590 2655
8 2660 2597 2645 2705 2598 2529 2580 2646
8 2646 2580 2645 2705 2595 2525 2593 2657
8 2650 2584 2512 2585 2707 2647 2582 2648
8 2648 2582 2517 2589 2707 2647 2587 2653
8 2649 2583 2648 2708 2586 2513 2585 2651
8 2649 2583 2516 2588 2708 2648 2589 2654
8 2655 2590 2652 2710 2592 2521 2587 2653
8 2654 2589 2520 2591 2711 2653 2592 2656
8 2657 2593 2655 2712 2594 2523 2592 2656
8 2602 2536 2603 2663 2659 2596 2658 2714
8 2662 2602 2659 2715 2600 2534 2597 2660
8 2662 2602 2534 2600 2717 2663 2601 2661
8 2661 2601 2538 2604 2717 2663 2605 2665
8 2666 2606 2664 2718 2605 2539 2603 2663
8 2668 2608 2666 2720 2607 2541 2605 2665
8 2608 2542 2609 2669 2666 2606 2667 2721
8 2610 2544 2611 2671 2668 2608 2669 2723
8 2611 2545 2612 2672 2669 2609 2670 2724
8 2613 2547 2614 2674 2671 2611 2672 2726
8 2614 2548 2615 2675 2672 2612 2673 2727
8 2616 2550 2617 2677 2674 2614 2675 2729
8 2617 2551 2618 2678 2675 2615 2676 2730
8 2619 2553 2620 2680 2677 2617 2678 2732
8 2620 2554 2621 2681 2678 2618 2679 2733
8 2624 2556 2623 2684 2680 2620 2681 2735
8 2681 2621 2555 2623 2736 2682 2622 2683
8 2626 2559 2625 2685 2684 2623 2683 2737
8 2688 2628 2584 2650 2740 2686 2647 2707
8 2688 2628 2687 2742 2650 2584 2629 2690
8 2690 2629 2689 2745 2630 2564 2631 2692
8 2746 2690 2630 2691 2709 2650 2585 2651
8 2691 2630 2692 2747 2632 2565 2633 2694
8 2692 2631 2693 2748 2633 2566 2634 2695
8 2694 2633 2695 2750 2635 2568 2636 2697
8 2695 2634 2696 2751 2636 2569 2637 2698
8 2697 2636 2698 2753 2638 2571 2639 2700
8 2698 2637 2699 2754 2639 2572 2640 2701
8 2700 2639 2701 2755 2641 2574 2642 2702
8 2659 2596 2658 2714 2704 2644 2703 2757
8 2704 2644 2703 2757 2655 2590 2652 2710
8 2660 2597 2659 2715 2705 2645 2704 2758
8 2705 2645 2704 2758 2657 2593 2655 2712
8 2759 2706 2647 2707 2710 2652 2587 2653
8 2709 2650 2585 2651 2760 2707 2648 2708
8 2708 2648 2589 2654 2760 2707 2653 2711
8 2712 2655 2710 2761 2656 2592 2653 2711
8 2763 2713 2658 2714 2718 2664 2603 2663
8 2662 2602 2663 2717 2715 2659 2714 2764
8 2720 2666 2718 2767 2665 2605 2663 2717
8 2768 2719 2664 2718 2721 2667 2606 2666
8 2668 2608 2669 2723 2720 2666 2721 2770
8 2669 2609 2670 2724 2721 2667 2722 2771
8 2671 2611 2672 2726 2723 2669 2724 2773
8 2672 2612 2673 2727 2724 2670 2725 2774
8 2674 2614 2675 2729 2726 2672 2727 2776
8 2675 2615 2676 2730 2727 2673 2728 2777
8 2677 2617 2678 2732 2729 2675 2730 2779
8 2678 2618 2679 2733 2730 2676 2731 2780
8 2680 2620 2681 2735 2732 2678 2733 2782
8 2733 2679 2621 2681 2783 2734 2682 2736
8 2735 2681 2623 2684 2784 2736 2683 2737
8 2740 2686 2647 2707 2787 2738 2706 2759
8 2688 2628 2686 2740 2742 2687 2739 2789
8 2743 2688 2650 2709 2790 2740 2707 2760
8 2742 2687 2741 2792 2690 2629 2689 2745
8 2743 2688 2742 2793 2709 2650 2690 2746
8 2745 2689 2744 2795 2692 2631 2693 2748
8 2746 2690 2745 2796 2691 2630 2692 2747
8 2747 2692 2748 2797 2694 2633 2695 2750
8 2748 2693 2749 2798 2695 2634 2696 2751
8 2750 2695 2751 2800 2697 2636 2698 2753
8 2751 2696 2752 2801 2698 2637 2699 2754
8 2753 2698 2754 2802 2700 2639 2701 2755
8 2763 2713 2756 2804 2714 2658 2703 2757
8 2759 2706 2652 2710 2804 2756 2703 2757
8 2715 2659 2714 2764 2758 2704 2757 2805
8 2758 2704 2757 2805 2712 2655 2710 2761
8 2806 2759 2707 2760 2761 2710 2653 2711
8 2765 2716 2762 2808 2718 2664 2713 2763
8 2809 2763 2714 2764 2767 2718 2663 2717
8 2765 2716 2664 2718 2811 2766 2719 2768
8 2813 2768 2718 2767 2770 2721 2666 2720
8 2814 2769 2719 2768 2771 2722 2667 2721
8 2723 2669 2724 2773 2770 2721 2771 2816
8 2724 2670 2725 2774 2771 2722 2772 2817
8 2726 2672 2727 2776 2773 2724 2774 2819
8 2727 2673 2728 2777 2774 2725 2775 2820
8 2729 2675 2730 2779 2776 2727 2777 2822
8 2730 2676 2731 2780 2777 2728 2778 2823
8 2732 2678 2733 2782 2779 2730 2780 2825
8 2780 2731 2679 2733 2826 2781 2734 2783
8 2782 2733 2681 2735 2827 2783 2736 2784
8 2830 2785 2738 2787 2804 2756 2706 2759
8 2789 2739 2686 2740 2832 2786 2738 2787
8 2790 2740 2707 2760 2833 2787 2759 2806
8 2742 2687 2739 2789 2792 2741 2788 2835
8 2743 2688 2740 2790 2793 2742 2789 2836
8 2792 2741 2791 2838 2745 2689 2744 2795
8 2793 2742 2792 2839 2746 2690 2745 2796
8 2795 2744 2794 2841 2748 2693 2749 2798
8 2796 2745 2795 2842 2747 2692 2748 2797
8 2797 2748 2798 2843 2750 2695 2751 2800
8 2798 2749 2799 2844 2751 2696 2752 2801
8 2800 2751 2801 2845 2753 2698 2754 2802
8 2808 2762 2803 2847 2763 2713 2756 2804
8 2809 2763 2804 2848 2764 2714 2757 2805
8 2806 2759 2710 2761 2848 2804 2757 2805
8 2765 2716 2766 2811 2808 2762 2807 2850
8 2810 2765 2808 2851 2767 2718 2763 2809
8 2810 2765 2718 2767 2852 2811 2768 2813
8 2811 2766 2719 2768 2853 2812 2769 2814
8 2855 2814 2768 2813 2816 2771 2721 2770
8 2856 2815 2769 2814 2817 2772 2722 2771
8 2773 2724 2774 2819 2816 2771 2817 2858
8 2774 2725 2775 2820 2817 2772 2818 2859
8 2776 2727 2777 2822 2819 2774 2820 2861
8 2777 2728 2778 2823 2820 2775 2821 2862
8 2779 2730 2780 2825 2822 2777 2823 2864
8 2823 2778 2731 2780 2865 2824 2781 2826
8 2825 2780 2733 2782 2866 2826 2783 2827
8 2869 2828 2785 2830 2847 2803 2756 2804
8 2871 2829 2786 2832 2830 2785 2738 2787
8 2872 2830 2787 2833 2848 2804 2759 2806
8 2789 2739 2786 2832 2835 2788 2831 2874
8 2836 2789 2740 2790 2875 2832 2787 2833
8 2792 2741 2788 2835 2838 2791 2834 2877
8 2793 2742 2789 2836 2839 2792 2835 2878
8 2838 2791 2837 2880 2795 2744 2794 2841
8 2839 2792 2838 2881 2796 2745 2795 2842
8 2841 2794 2840 2882 2798 2749 2799 2844
8 2842 2795 2841 2883 2797 2748 2798 2843
8 2843 2798 2844 2884 2800 2751 2801 2845
8 2886 2846 2803 2847 2850 2807 2762 2808
8 2851 2808 2847 2887 2809 2763 2804 2848
8 2850 2807 2766 2811 2889 2849 2812 2853
8 2810 2765 2811 2852 2851 2808 2850 2890
8 2852 2811 2768 2813 2891 2853 2814 2855
8 2853 2812 2769 2814 2892 2854 2815 2856
8 2894 2856 2814 2855 2858 2817 2771 2816
8 2817 2772 2818 2859 2856 2815 2857 2895
8 2819 2774 2820 2861 2858 2817 2859 2897
8 2820 2775 2821 2862 2859 2818 2860 2898
8 2822 2777 2823 2864 2861 2820 2862 2900
8 2823 2778 2824 2865 2862 2821 2863 2901
8 2864 2823 2780 2825 2902 2865 2826 2866
8 2904 2867 2828 2869 2886 2846 2803 2847
8 2869 2828 2868 2906 2830 2785 2829 2871
8 2907 2869 2830 2872 2887 2847 2804 2848
8 2871 2829 2870 2909 2832 2786 2831 2874
8 2910 2871 2832 2875 2872 2830 2787 2833
8 2835 2788 2831 2874 2877 2834 2873 2912
8 2836 2789 2832 2875 2878 2835 2874 2913
8 2877 2834 2876 2915 2838 2791 2837 2880
8 2839 2792 2835 2878 2881 2838 2877 2916
8 2880 2837 2879 2917 2841 2794 2840 2882
8 2881 2838 2880 2918 2842 2795 2841 2883
8 2883 2841 2882 2919 2843 2798 2844 2884
8 2921 2885 2846 2886 2889 2849 2807 2850
8 2922 2886 2847 2887 2890 2850 2808 2851
8 2889 2849 2812 2853 2924 2888 2854 2892
8 2890 2850 2811 2852 2925 2889 2853 2891
8 2891 2853 2814 2855 2926 2892 2856 2894
8 2892 2854 2815 2856 2927 2893 2857 2895
8 2858 2817 2859 2897 2894 2856 2895 2929
8 2859 2818 2860 2898 2895 2857 2896 2930
8 2861 2820 2862 2900 2897 2859 2898 2932
8 2862 2821 2863 2901 2898 2860 2899 2933
8 2864 2823 2865 2902 2900 2862 2901 2934
8 2904 2867 2846 2886 2936 2903 2885 2921
8 2904 2867 2903 2936 2869 2828 2868 2906
8 2937 2904 2869 2907 2922 2886 2847 2887
8 2906 2868 2905 2939 2871 2829 2870 2909
8 2907 2869 2906 2940 2872 2830 2871 2910
8 2909 2870 2908 2942 2874 2831 2873 2912
8 2910 2871 2909 2943 2875 2832 2874 2913
8 2912 2873 2911 2945 2877 2834 2876 2915
8 2878 2835 2874 2913 2916 2877 2912 2946
8 2915 2876 2914 2947 2880 2837 2879 2917
8 2916 2877 2915 2948 2881 2838 2880 2918
8 2918 2880 2917 2949 2883 2841 2882 2919
8 2921 2885 2849 2889 2951 2920 2888 2924
8 2952 2921 2886 2922 2925 2889 2850 2890
8 2924 2888 2854 2892 2954 2923 2893 2927
8 2925 2889 2853 2891 2955 2924 2892 2926
8 2926 2892 2856 2894 2956 2927 2895 2929
8 2895 2857 2896 2930 2927 2893 2928 2957
8 2897 2859 2898 2932 2929 2895 2930 2959
8 2898 2860 2899 2933 2930 2896 2931 2960
8 2900 2862 2901 2934 2932 2898 2933 2961
8 2936 2903 2885 2921 2963 2935 2920 2951
8 2936 2903 2935 2963 2906 2868 2905 2939
8 2937 2904 2886 2922 2964 2936 2921 2952
8 2937 2904 2936 2964 2907 2869 2906 2940
8 2939 2905 2938 2966 2909 2870 2908 2942
8 2940 2906 2939 2967 2910 2871 2909 2943
8 2942 2908 2941 2969 2912 2873 2911 2945
8 2943 2909 2942 2970 2913 2874 2912 2946
8 2945 2911 2944 2971 2915 2876 2914 2947
8 2946 2912 2945 2972 2916 2877 2915 2948
8 2948 2915 2947 2973 2918 2880 2917 2949
8 2951 2920 2888 2924 2975 2950 2923 2954
8 2952 2921 2889 2925 2976 2951 2924 2955
8 2927 2893 2928 2957 2954 2923 2953 2978
8 2955 2924 2892 2926 2979 2954 2927 2956
8 2929 2895 2930 2959 2956 2927 2957 2980
8 2930 2896 2931 2960 2957 2928 2958 2981
8 2932 2898 2933 2961 2959 2930 2960 2982
8 2951 2920 2950 2975 2963 2935 2962 2984
8 2963 2935 2962 2984 2939 2905 2938 2966
8 2964 2936 2921 2952 2985 2963 2951 2976
8 2964 2936 2963 2985 2940 2906 2939 2967
8 2966 2938 2965 2987 2942 2908 2941 2969
8 2967 2939 2966 2988 2943 2909 2942 2970
8 2969 2941 2968 2989 2945 2911 2944 2971
8 2970 2942 2969 2990 2946 2912 2945 2972
8 2972 2945 2971 2991 2948 2915 2947 2973
8 2954 2923 2953 2978 2975 2950 2974 2993
8 2976 2951 2924 2955 2994 2975 2954 2979
8 2957 2928 2958 2981 2978 2953 2977 2995
8 2956 2927 2957 2980 2979 2954 2978 2996
8 2959 2930 2960 2982 2980 2957 2981 2997
8 2984 2962 2983 2999 2966 2938 2965 2987
8 2975 2950 2974 2993 2984 2962 2983 2999
8 2976 2951 2975 2994 2985 2963 2984 3000
8 2985 2963 2984 3000 2967 2939 2966 2988
8 2987 2965 2986 3001 2969 2941 2968 2989
8 2988 2966 2987 3002 2970 2942 2969 2990
8 2990 2969 2989 3003 2972 2945 2971 2991
8 2978 2953 2977 2995 2993 2974 2992 3004
8 2979 2954 2978 2996 2994 2975 2993 3005
8 2980 2957 2981 2997 2996 2978 2995 3006
8 2974 2993 2999 2983 2992 3004 3007 2998
8 2983 2999 2987 2965 2998 3007 3001 2986
8 3000 2984 2999 3008 2988 2966 2987 3002
8 2994 2975 2993 3005 3000 2984 2999 3008
8 3002 2987 3001 3009 2990 2969 2989 3003
8 2996 2978 2995 3006 3005 2993 3004 3010
8 3005 2993 3004 3010 3008 2999 3007 3011
8 3008 2999 3007 3011 3002 2987 3001 3009

CELL_TYPES 1910
12
12
12
12
12
12
12
12
12
12
12
12
12
12
12
12
12
12
12
12
12
12
12
12
12
12
12
12
12
12
12
12
12
12
12
12
12
12
12
12
12
12
12
12
12
12
12
12
12
12
12
12
12
12
12
12
12
12
12
12
12
12
12
12
12
12
12
12
12
12
12
12
12
12
12
12
12
12
12
12
12
12
12
12
12
12
12
12
12
12
12
12
12
12
12
12
12
12
12
12
12
12
12
12
12
12
12
12
12
12
12
12
12
12
12
12
12
12
12
12
12
12
12
12
12
12
12
12
12
12
12
12
12
12
12
12
12
12
12
12
12
12
12
12
12
12
12
12
12
12
12
12
12
12
12
12
12
12
12
12
12
12
12
12
12
12
12
12
12
12
12
12
12
12
12
12
12
12
12
12
12
12
12
12
12
12
12
12
12
12
12
12
12
12
12
12
12
12
12
12
12
12
12
12
12
12
12
12
12
12
12
12
12
12
12
12
12
12
12
12
12
12
12
12
12
12
12
12
12
12
12
12
12
12
12
12
12
12
12
12
12
12
12
12
12
12
12
12
12
12
12
12
12
12
12
12
12
12
12
12
12
12
12
12
12
12
12
12
12
12
12
12
12
12
12
12
12
12
12
12
12
12
12
12
12
12
12
12
12
12
12
12
12
12
12
12
12
12
12
12
12
12
12
12
12
12
12
12
12
12
12
12
12
12
12
12
12
12
12
12
12
12
12
12
12
12
12
12
12
12
12
12
12
12
12
12
12
12
12
12
12
12
12
12
12
12
12
12
12
12
12
12
12
12
12
12
12
12
12
12
12
12
12
12
12
12
12
12
12
12
12
12
12
12
12
12
12
12
12
12
12
12
12
12
12
12
12
12
12
12
12
12
12
12
12
12
12
12
12
12
12
12
12
12
12
12
12
12
12
12
12
12
12
12
12
12
12
12
12
12
12
12
12
12
12
12
12
12
12
12
12
12
12
12
12
12
12
12
12
12
12
12
12
12
12
12
12
12
12
12
12
12
12
12
12
12
12
12
12
12
12
12
12
12
12
12
12
12
12
12
12
12
12
12
12
12
12
12
12
12
12
12
12
12
12
12
12
12
12
12
12
12
12
12
12
12
12
12
12
12
12
12
12
12
12
12
12
12
12
12
12
12
12
12
12
12
12
12
12
12
12
12
12
12
12
12
12
12
12
12
12
12
12
12
12
12
12
12
12
12
12
12
12
12
12
12
12
12
12
12
12
12
12
12
12
12
12
12
12
12
12
12
12
12
12
12
12
12
12
12
12
12
12
12
12
12
12
12
12
12
12
12
12
12
12
12
12
12
12
12
12
12
12
12
12
12
12
12
12
12
12
12
12
12
12
12
12
12
12
12
12
12
12
12
12
12
12
12
12
12
12
12
12
12
12
12
12
12
12
12
12
12
12
12
12
12
12
12
12
12
12
12
12
12
12
12
12
12
12
12
12
12
12
12
12
12
12
12
12
12
12
12
12
12
12
12
12
12
12
12
12
12
12
12
12
12
12
12
12
12
12
12
12
12
12
12
12
12
12
12
12
12
12
12
12
12
12
12
12
12
12
12
12
12
12
12
12
12
12
12
12
12
12
12
12
12
12
12
12
12
12
12
12
12
12
12
12
12
12
12
12
12
12
12
12
12
12
12
12
12
12
12
12
12
12
12
12
12
12
12
12
12
12
12
12
12
12
12
12
12
12
12
12
12
12
12
12
12
12
12
12
12
12
12
12
12
12
12
12
12
12
12
12
12
12
12
12
12
12
12
12
12
12
12
12
12
12
12
12
12
12
12
12
12
12
12
12
12
12
12
12
12
12
12
12
12
12
12
12
12
12
12
12
12
12
12
12
12
12
12
12
12
12
12
12
12
12
12
12
12
12
12
12
12
12
12
12
12
12
12
12
12
12
12
12
12
12
12
12
12
12
12
12
12
12
12
12
12
12
12
12
12
12
12
12
12
12
12
12
12
12
12
12
12
12
12
12
12
12
12
12
12
12
12
12
12
12
12
12
12
12
12
12
12
12
12
12
12
12
12
12
12
12
12
12
12
12
12
12
12
12
12
12
12
12
12
12
12
12
12
12
12
12
12
12
12
12
12
12
12
12
12
12
12
12
12
12
12
12
12
12
12
12
12
12
12
12
12
12
12
12
12
12
12
12
12
12
12
12
12
12
12
12
12
12
12
12
12
12
12
12
12
12
12
12
12
12
12
12
12
12
12
12
12
12
12
12
12
12
12
12
12
12
12
12
12
12
12
12
12
12
12
12
12
12
12
12
12
12
12
12
12
12
12
12
12
12
12
12
12
12
12
12
12
12
12
12
12
12
12
12
12
12
12
12
12
12
12
12
12
12
12
12
12
12
12
12
12
12
12
12
12
12
12
12
12
12
12
12
12
12
12
12
12
12
12
12
12
12
12
12
12
12
12
12
12
12
12
12
12
12
12
12
12
12
12
12
12
12
12
12
12
12
12
12
12
12
12
12
12
12
12
12
12
12
12
12
12
12
12
12
12
12
12
12
12
12
12
12
12
12
12
12
12
12
12
12
12
12
12
12
12
12
12
12
12
12
12
12
12
12
12
12
12
12
12
12
12
12
12
12
12
12
12
12
12
12
12
12
12
12
12
12
12
12
12
12
12
12
12
12
12
12
12
12
12
12
12
12
12
12
12
12
12
12
12
12
12
12
12
12
12
12
12
12
12
12
12
12
12
12
12
12
12
12
12
12
12
12
12
12
12
12
12
12
12
12
12
12
12
12
12
12
12
12
12
12
12
12
12
12
12
12
12
12
12
12
12
12
12
12
12
12
12
12
12
12
12
12
12
12
12
12
12
12
12
12
12
12
12
12
12
12
12
12
12
12
12
12
12
12
12
12
12
12
12
12
12
12
12
12
12
12
12
12
12
12
12
12
12
12
12
12
12
12
12
12
12
12
12
12
12
12
12
12
12
12
12
12
12
12
12
12
12
12
12
12
12
12
12
12
12
12
12
12
12
12
12
12
12
12
12
12
12
12
12
12
12
12
12
12
12
12
12
12
12
12
12
12
12
12
12
12
12
12
12
12
12
12
12
12
12
12
12
12
12
12
12
12
12
12
12
12
12
12
12
12
12
12
12
12
12
12
12
12
12
12
12
12
12
12
12
12
12
12
12
12
12
12
12
12
12
12
12
12
12
12
12
12
12
12
12
12
12
12
12
12
12
12
12
12
12
12
12
12
12
12
12
12
12
12
12
12
12
12
12
12
12
12
12
12
12
12
12
12
12
12
12
12
12
12
12
12
12
12
12
12
12
12
12
12
12
12
12
12
12
12
12
12
12
12
12
12
12
12
12
12
12
12
12
12
12
12
12
12
12
12
12
12
12
12
12
12
12
12
12
12
12
12
12
12
12
12
12
12
12
12
12
12
12
12
12
12
12
12
12
12
12
12
12
12
12
12
12
12
12
12
12
12
12
12
12
12
12
12
12
12
12
12
12
12
12
12
12
12
12
12
12
12
12
12
12
12
12
12
12
12
12
12
12
12
12
12
12
12
12
12
12
12
12
12
12
12
12
12
12
12
12
12
12
12
12
12
12
12
12
12
12
12
12
12
12
12
12
12
12
12
12
12
12
12
12
12
12
12
12
12
12
12
12
12
12
12
12
12
12
12
12
12
12
12
12
12
12
12
12
12
12
12
12
12
12
12
12
12
12
12
12
12
12
12
12
12
12
12
12
12
12
12
12
12
12
12
12
12
12
12
12
12
12
12
12
12
12
12
12
12
12
12
12
12
12
12
12
12
12
12
12
12
12
12
12
12
12
12
12
12
12
12
12
12
12
12
12
12
12
12
12
12
12
12
12
12
12
12
12
12
12
12
12
12
12
12
12
12
12
12
12
12
12
12
12
12
12
12
12
12
12
12
12
12
12
12
12
12
12
12
12
12
12
12
12
12
12
12
12
12
12
12
12
12
12
12
12
12
12
12
12
12
12
12
12
12
12
12
12
12
12
12
12
12
12
12
12
12
12
12
12
12
12
12
12
12
12
12
12
12
12
12
12
12
12
12
12
12
12
12
12
12
12
12
12
12
12
12
12
12
12
12
12
12
12
12
12
12
12
12
12
12
12
12
12
12
12
12
12
12
12
12
12
12
12
12
12
12
12
12
12
12
12
12
12
12
12
12
12
12
12
12
12
12
12
12
12
12
12
12
12
12
12
12
12
12
12
12
12
12
12
12
12
12
12
12
12
12
12
12
12
12
12
12
12
12
12
12
12
12
12
12
12
12
12
12
12
12
12
12
12
12
12

POINT_DATA 3012
SCALARS Jp_lamdaP float 4
LOOKUP_TABLE default
0.999725 1 1 0.999725
1 1 1 1
0.999734 1 1 0.999734
0.999673 1 1 0.999673
0.999727 1 1 0.999727
0.99971 1 1 0.99971
0.998976 1 1 0.998976
1 1 1 1
1 1 1 1
1 1 1 1
0.9998 1 1 0.9998
0.999101 1 1 0.999101
0.999657 1 1 0.999657
0.999673 1 1 0.999673
0.999735 1 1 0.999735
0.999697 1 1 0.999697
0.999717 1 1 0.999717
0.999741 1 1 0.999741
0.998978 1 1 0.998978
1 1 1 1
0.999653 1 1 0.999653
0.999705 1 1 0.999705
0.998847 1 1 0.998847
0.998951 1 1 0.998951
0.999721 1 1 0.999721
0.998996 1 1 0.998996
1.00826 1.01047 1 0.997821
1 1 1 1
0.999853 1 1 0.999853
0.999867 1 1 0.999867
1 1 1 1
0.99911 1 1 0.99911
0.999699 1 1 0.999699
0.999725 1 1 0.999725
0.999107 1 1 0.999107
1 1 1 1
0.999192 1 1 0.999192
0.999202 1 1 0.999202
1.00223 1.00442 1 0.997813
1 1 1 1
1 1 1 1
0.999836 1 1 0.999836
1 1 1 1
0.999674 1 1 0.999674
0.998775 1 1 0.998775
1 1 1 1
0.999007 1 1 0.999007
0.999717 1 1 0.999717
0.999751 1 1 0.999751
0.999718 1 1 0.999718
0.998983 1 1 0.998983
0.999819 1 1 0.999819
0.999675 1 1 0.999675
0.999733 1 1 0.999733
0.999725 1 1 0.999725
0.998845 1 1 0.998845
0.998999 1 1 0.998999
0.998953 1 1 0.998953
1.00869 1.01091 1 0.997806
1 1 1 1
0.99965 1 1 0.99965
0.999018 1 1 0.999018
0.998814 1 1 0.998814
0.998902 1 1 0.998902
1.0116 1.01409 1 0.99754
1.00975 1.01212 1 0.99766
0.999784 1 1 0.999784
0.999102 1 1 0.999102
1.00573 1.00783 1 0.997916
1.02468 1.02781 1 0.996951
1 1 1 1
1 1 1 1
1 1 1 1
0.999118 1 1 0.999118
1 1 1 1
1 1 1 1
0.998958 1 1 0.998958
0.99993 1 1 0.99993
0.999063 1 1 0.999063
0.9993 1 1 0.9993
1.0013 1.0035 1 0.99781
1 1 1 1
1.00079 1 1.00096 0.999829
0.998885 1 1 0.998885
0.998993 1 1 0.998993
1.01225 1.0149 1 0.997387
0.999728 1 1.0002 0.999525
1.00621 1.00851 1 0.997712
0.999433 1.00148 1 0.997959
1.00745 1.01035 1 0.997129
1 1 1 1
1 1 1 1
1 1 1 1
1 1 1 1
1 1 1 1
0.999834 1 1 0.999834
0.998889 1 1 0.998889
0.999839 1 1 0.999839
0.998928 1 1 0.998928
1 1 1 1
0.998781 1 1 0.998781
0.998993 1 1 0.998993
1.01126 1.01414 1 0.997163
0.999043 1 1 0.999043
1.01355 1.01638 1 0.997215
0.999678 1 1 0.999678
0.999694 1 1 0.999694
0.999743 1 1 0.999743
0.999743 1 1 0.999743
0.998845 1 1 0.998845
0.998957 1 1 0.998957
0.999005 1 1 0.999005
1.0091 1.01133 1 0.997791
1 1 1 1
0.99967 1 1 0.99967
0.998808 1 1 0.998808
0.99881 1 1 0.99881
0.999892 1 1 0.999892
0.999174 1 1 0.999174
0.998902 1 1 0.998902
1.01153 1.01406 1 0.9975
1.00643 1.00855 1 0.997898
1.01001 1.01234 1 0.99769
1.0246 1.02773 1 0.996958
0.998803 1 1 0.998803
0.998804 1 1 0.998804
1.00998 1.01263 1 0.997385
1.01147 1.01407 1 0.997437
1.01129 1.01377 1 0.997552
1.03348 1.03675 1 0.996842
1 1 1 1
1.0276 1.03078 1 0.996911
0.999543 1 1.00022 0.99932
1.00183 1.00393 1 0.997909
1.02115 1.02423 1 0.996991
1.0325 1.03583 1 0.996784
1.00114 1 1.00153 0.999613
1.00601 1 1.00739 0.998629
1 1 1 1
1 1 1 1
0.998964 1 1 0.998964
1 1 1 1
0.999314 1 1.00005 0.999268
0.999069 1 1 0.999069
1.00028 1.00248 1 0.997806
1 1 1 1
1.00037 1 1.00052 0.999852
0.998981 1 1 0.998981
0.999082 1 1 0.999082
1.01164 1.01429 1 0.997388
0.999908 1 1.00042 0.999492
1.00502 1.00733 1 0.997715
0.998941 1.00099 1 0.997957
1.00787 1.01079 1 0.997114
1.00075 1 1.00108 0.99967
0.999928 1 1 0.999928
1.00227 1 1.00338 0.998897
1.01373 1.0165 1 0.997281
1.00982 1.0123 1 0.99755
1.03021 1.03355 1 0.996774
0.998806 1.00019 1.00039 0.998227
1.01611 1.01911 1 0.997053
1.00476 1.00699 1.00057 0.997221
1.01607 1.01919 1 0.996945
1 1 1 1
1 1 1 1
1 1 1 1
1.0001 1 1.00037 0.999737
1 1 1 1
1 1 1 1
1 1 1 1
0.998847 1 1 0.998847
0.998806 1 1 0.998806
1 1 1 1
1 1 1 1
0.998782 1 1 0.998782
0.998913 1 1 0.998913
1.01165 1.01453 1 0.997163
0.998869 1 1 0.998869
1.01378 1.01661 1 0.997215
0.998777 1 1 0.998777
1.01019 1.0131 1 0.997125
1.01245 1.01529 1 0.997201
1.03676 1.04016 1 0.996731
1.01409 1.0169 1 0.997231
1.03893 1.04231 1 0.996752
1 1 1 1
0.999692 1 1 0.999692
0.998577 1 1 0.998577
0.998807 1 1 0.998807
1 1 1 1
0.999248 1 1 0.999248
0.998904 1 1 0.998904
1.01144 1.01402 1 0.99746
1.01029 1.0126 1 0.997719
1.00714 1.00928 1 0.997881
1.02451 1.02763 1 0.996964
0.998801 1 1 0.998801
0.9988 1 1 0.9988
1.00984 1.01261 1 0.997267
1.01144 1.01402 1 0.997462
1 1 1 1
0.999441 1 1.00009 0.99935
1.00305 1.00508 1 0.997981
1.01124 1.01372 1 0.997549
1.03334 1.03664 1 0.996818
1.0205 1.02359 1 0.996982
1.0278 1.03095 1 0.996947
1.03213 1.03545 1 0.996792
1.00115 1 1.00155 0.999602
1.00439 1 1.00577 0.998631
1.00962 1.01251 1 0.997147
1.01028 1.01289 1 0.997418
1.03417 1.03748 1 0.996809
1.03373 1.03707 1 0.996778
1.03043 1.03361 1 0.996925
1.04236 1.04564 1 0.996857
1.00056 1 1.00109 0.99947
1.03493 1.03821 1 0.996837
0.999235 1.00104 1.00011 0.99809
1.01366 1.01662 1 0.997086
1.03006 1.03341 1 0.996757
1.03369 1.03688 1 0.996923
1.0031 1 1.00469 0.998418
1.00179 1 1.0029 0.998894
1.00342 1 1.00546 0.997974
0.998911 1 1 0.998911
1 1 1 1
0.999939 1 1.00006 0.999874
0.999025 1 1 0.999025
1.01103 1.01368 1 0.997389
1.00003 1 1.00053 0.999497
0.998401 1.00041 1.00004 0.997956
1.0039 1.00619 1 0.997718
1.00861 1.01154 1 0.9971
1.00057 1 1.00088 0.999692
0.999942 1 1 0.999942
1.00268 1 1.00378 0.998898
1.01337 1.01613 1 0.99728
1.00886 1.01133 1 0.997554
1.03033 1.03367 1 0.99677
0.998625 1.00003 1.00036 0.998231
1.01719 1.02019 1 0.997059
1.004 1.00633 1.00047 0.997216
1.01684 1.01997 1 0.996935
0.999973 1 1 0.999973
1.00077 1 1.00224 0.998538
1.00089 1 1.00164 0.999255
1.0029 1 1.00466 0.998241
1.03442 1.03782 1 0.996724
1.02446 1.02764 1 0.996911
1.03605 1.03951 1 0.996669
1.00138 1.00337 1.00049 0.997533
1.02392 1.02708 1 0.99692
1.01327 1.01483 1.00158 0.996889
1.02518 1.02844 1 0.99683
0.999733 1 1 0.999733
0.999998 1 1 0.999998
1 1 1 1
1 1 1 1
1 1 1 1
0.999844 1 1 0.999844
1 1 1 1
1.00082 1 1.00109 0.999724
1 1 1 1
0.998869 1 1 0.998869
0.99883 1 1 0.99883
1.01411 1.01694 1 0.997214
1.012 1.01488 1 0.997164
0.998784 1 1 0.998784
1 1 1 1
0.998776 1 1 0.998776
1.01048 1.0134 1 0.997125
1.01283 1.01567 1 0.9972
1.03634 1.03974 1 0.99673
1.01413 1.01695 1 0.997229
1.03891 1.0423 1 0.99675
1.00957 1.01248 1 0.997121
1.03577 1.0392 1 0.996697
1.03784 1.04122 1 0.996753
1.04731 1.05118 0.999363 0.996947
1.0383 1.0417 1 0.996733
1.04789 1.05122 0.999951 0.996874
0.998798 1 1 0.998798
0.998795 1 1 0.998795
1.00972 1.0126 1 0.997149
1.01144 1.01398 1 0.997488
1 1 1 1
0.99938 1 1 0.99938
1.00419 1.00615 1 0.998052
1.01119 1.01367 1 0.997545
1.03325 1.03657 1 0.996795
1.02796 1.03107 1 0.996982
1.01987 1.02297 1 0.996974
1.03188 1.0352 1 0.996801
1.00134 1 1.00175 0.999591
1.00363 1 1.00501 0.998632
1.00955 1.01246 1 0.997125
1.01028 1.0129 1 0.997413
1.03415 1.03744 1 0.996824
1.03386 1.03718 1 0.996798
1.00028 1 1.00083 0.999459
1 1.00185 1.00007 0.998087
1.01359 1.01652 1 0.997121
1.03073 1.03392 1 0.996913
1.04253 1.04578 1 0.996891
1.02953 1.03291 1 0.996732
1.03495 1.03823 1 0.996842
1.03389 1.03709 1 0.996922
1.00267 1.00003 1.00423 0.99842
1.00384 1 1.00587 0.997977
1.00277 1 1.00388 0.998891
1.03408 1.03743 1 0.99677
1.03401 1.03729 1 0.996842
1.04696 1.05069 0.999558 0.996898
1.044 1.0473 0.999972 0.996868
1.03793 1.04116 1 0.996891
1.03962 1.04369 0.998942 0.997155
0.998997 1.00013 1.0006 0.998268
1.03603 1.03911 1 0.99703
1.00439 1.007 1 0.997405
1.02115 1.02456 1 0.996672
1.03022 1.03365 1 0.996674
1.02922 1.03216 1 0.997154
1.00026 1 1.00112 0.999141
0.99877 1.00021 1.00067 0.997893
1.00725 1 1.00914 0.998125
1.0009 1.0005 1.00266 0.997747
1.01303 1.0158 1 0.997279
0.999957 1 1 0.999957
1.00046 1 1.00075 0.999713
1.00307 1 1.00417 0.9989
1.00789 1.01036 1 0.997558
1.03045 1.03379 1 0.996766
0.998539 1 1.0003 0.998235
1.00295 1.00542 1.00033 0.997211
1.01819 1.02118 1 0.997066
1.01701 1.02015 1 0.996925
0.99998 1 1 0.99998
1.0015 1 1.00296 0.998539
1.00043 1 1.00116 0.999264
1.00348 1 1.00525 0.998236
1.03433 1.03773 1 0.996719
1.02461 1.02779 1 0.99691
1.03573 1.0392 1 0.996666
1.00018 1.0022 1.00045 0.997539
1.02373 1.02689 1 0.996925
1.01322 1.01464 1.00173 0.996878
1.02507 1.02825 1 0.996906
0.999992 1 1 0.999992
0.999508 1 1.00001 0.999501
1.00012 1.00056 1.00164 0.99792
1.00286 1 1.00429 0.998575
1.00089 1 1.00296 0.997934
1.04035 1.04379 1 0.996699
1.03004 1.03338 1 0.996767
1.03222 1.03557 1 0.996764
1.00567 1.00653 1.00199 0.99715
1.02312 1.0263 1 0.996895
1.01437 1.01693 1.00086 0.996629
0.999699 1 1 0.999699
0.99922 1 1 0.99922
0.999758 1 1 0.999758
0.999735 1 1 0.999735
0.999999 1 1 0.999999
0.999998 1 1 0.999998
1 1 1 1
1 1 1 1
1 1 1 1
0.999929 1 1 0.999929
1 1 1 1
0.999829 1 1 0.999828
1 1 1 1
1.001 1 1.00129 0.99971
1 1 1 1
1.01413 1.01695 1 0.997227
1.01314 1.01599 1 0.9972
1.03865 1.04204 1 0.996747
1.03591 1.03931 1 0.996728
1.01085 1.01376 1 0.997125
0.998775 1 1 0.998775
1.00974 1.01266 1 0.99712
1.03548 1.03891 1 0.996698
1.03756 1.04095 1 0.996751
1.04733 1.05149 0.99908 0.996965
1.03763 1.04103 1 0.996729
1.0474 1.05071 0.99997 0.996872
1.03464 1.03808 1 0.996689
1.04608 1.05062 0.998706 0.996969
1.04863 1.0522 0.99968 0.996925
1.04526 1.052 0.996401 0.997181
1.0435 1.04686 1 0.996792
1.04561 1.05064 0.997999 0.997204
1.00951 1.01245 1 0.997103
1.0103 1.01293 1 0.997409
1.03414 1.03742 1 0.996838
1.03396 1.03726 1 0.996819
0.999991 1 1.00054 0.999448
1.00071 1.00262 1 0.998085
1.01377 1.01666 1 0.997156
1.03104 1.03425 1 0.9969
1.0427 1.04592 1 0.996925
1.03502 1.0383 1 0.996846
1.02883 1.03223 1 0.996707
1.03412 1.03731 1 0.996921
1.00189 1.00002 1.00345 0.998423
1.00407 1 1.0061 0.99798
1.00324 1 1.00436 0.998889
1.03417 1.03755 1 0.99674
1.03424 1.03752 1 0.99684
1.04634 1.05024 0.999355 0.996935
1.04427 1.04762 0.999942 0.996858
0.999296 1.00031 1.00072 0.998266
1.00579 1.00841 1 0.997399
1.01989 1.02321 1.00003 0.996719
1.03818 1.04144 1 0.996868
1.03952 1.0437 0.99879 0.997203
1.03064 1.03412 1 0.996638
1.03575 1.03883 1 0.997033
1.02985 1.03275 1 0.997187
0.999543 1.00048 1.00117 0.997894
1.00116 1.00067 1.00277 0.997721
1.00076 1 1.00162 0.999137
1.00673 1 1.00858 0.998162
1.04649 1.05037 0.999391 0.996916
1.0462 1.04986 0.999611 0.996903
1.0425 1.04917 0.996545 0.997094
1.04019 1.04674 0.996511 0.997223
1.03782 1.04106 0.999746 0.997145
1.03618 1.04241 0.996627 0.997386
0.999362 1.00166 1 0.997704
1.03081 1.03398 0.999558 0.997375
1.01009 1.01316 1 0.996967
1.02014 1.02358 1.00018 0.996458
1.03161 1.03508 1 0.996642
1.0302 1.03307 1 0.997224
0.999439 1 1.0001 0.999336
1.00501 1 1.00663 0.998386
0.999309 1.00167 1 0.997645
1.00411 1 1.00625 0.997871
1.00085 1.00102 1.00217 0.997669
0.999986 1 1 0.999986
1.03418 1.03759 1 0.996714
0.999914 1 1.00064 0.999272
1.00226 1 1.00373 0.99854
1.00414 1 1.00592 0.99823
1.02479 1.02796 1 0.996909
1.03544 1.03891 1 0.996663
0.999094 1.00105 1.00051 0.997545
1.01411 1.01533 1.00193 0.996867
1.02366 1.02681 1 0.996931
1.02534 1.02845 1 0.996982
0.999994 1 1 0.999994
0.99951 1 1 0.99951
0.999478 1.0003 1.00126 0.997921
1.00356 1 1.00499 0.998574
1.0013 1 1.00339 0.997915
1.04031 1.04376 1 0.996693
1.03002 1.03337 1 0.996766
1.03218 1.03554 1 0.996753
1.00507 1.00579 1.00213 0.997156
1.02558 1.02877 1 0.996894
1.01445 1.01689 1.00096 0.996649
0.999634 1 1 0.999634
1.0001 1 1.00121 0.998894
1.00019 1.00213 1.00048 0.997587
1.00501 1 1.00681 0.998208
0.999968 1.0002 1.00192 0.997851
1.03742 1.04068 1 0.996868
1.02677 1.03006 1 0.9968
1.03119 1.03433 1 0.996965
1.00268 1.00193 1.00379 0.996966
1.01276 1.01626 1 0.996561
0.999702 1 1 0.999702
0.999146 1 1 0.999146
0.999195 1 1 0.999195
0.998952 1 1 0.998952
0.999234 1 1 0.999234
0.999771 1 1 0.999771
0.99976 1 1 0.99976
1 1 1 1
0.999737 1 1 0.999737
1 1 1 1
1 1 1 1
0.999999 1 1 0.999999
1 1 1 1
1 1 1 1
0.999982 1 1 0.999982
0.999912 1 1 0.999912
1 1 1 1
1 1 1 1
1.00015 1 1.00034 0.999812
1 1 1 1
1.03708 1.04049 1 0.996725
1.03749 1.04088 1 0.996749
1.04709 1.05038 1 0.996869
1.04738 1.05183 0.998784 0.996984
1.03508 1.03851 1 0.996698
1.00983 1.01275 1 0.99712
1.03453 1.03797 1 0.99669
1.04607 1.05052 0.998796 0.996963
1.04842 1.05193 0.999733 0.996925
1.04456 1.05182 0.995872 0.997212
1.04423 1.0476 1 0.996785
1.04534 1.05059 0.997766 0.997226
1.04611 1.05034 0.999029 0.996937
1.04325 1.05044 0.995992 0.997154
1.04467 1.05176 0.995992 0.99726
1.04218 1.05176 0.99353 0.99734
1.043 1.04643 0.999664 0.997061
1.04274 1.05066 0.995015 0.997435
1.03415 1.03756 1 0.996711
1.03444 1.03772 1 0.996837
1.04571 1.04977 0.999158 0.996971
1.0445 1.04789 0.99991 0.996848
0.999707 1.00061 1.00084 0.998264
1.00691 1.00954 1 0.997394
1.01854 1.02166 1.00018 0.996765
1.0384 1.04169 1 0.996845
1.03939 1.04371 0.998601 0.997252
1.03538 1.03845 1 0.997036
1.0311 1.03462 1 0.996601
1.03001 1.03288 1 0.99722
1.00045 1.00077 1.00179 0.997896
1.00147 1.00088 1.0029 0.997695
1.00125 1 1.00212 0.999133
1.00577 1 1.00759 0.998199
1.04622 1.0501 0.999391 0.996916
1.04598 1.04953 0.999736 0.996881
1.04261 1.04936 0.996432 0.997126
1.04061 1.04673 0.99694 0.997206
1.00046 1.00277 1 0.997696
1.00868 1.01167 1.00003 0.997012
1.02069 1.02393 1.00039 0.996448
1.03739 1.04056 0.999855 0.997099
1.03529 1.04171 0.996385 0.997444
1.02914 1.03263 1 0.996627
1.03189 1.03498 0.99963 0.997377
1.03092 1.03373 1 0.99728
0.999736 1.0021 1 0.997642
1.00067 1.00154 1.00146 0.997672
1.00457 1 1.00671 0.997865
0.99966 1 1.00036 0.999299
1.00453 1 1.00612 0.99842
1.04202 1.04976 0.995475 0.997142
1.04151 1.0492 0.995479 0.997176
1.03613 1.04621 0.992911 0.997431
1.03245 1.03862 0.996603 0.997452
1.00204 1.00465 1 0.997398
1.03564 1.03893 0.99928 0.997554
1.00601 1.00904 1.00029 0.99671
1.0182 1.02152 1.00051 0.996243
1.02676 1.03024 1 0.996622
0.999465 1 1 0.999465
1.00175 1 1.00305 0.998709
1.00456 1 1.00643 0.99814
1.00106 1.00351 1 0.997562
1.004 1 1.0064 0.997617
1.00031 1.00177 1.001 0.997542
0.999996 1 1 0.999996
0.999519 1 1 0.999519
1.04029 1.04375 1 0.996687
1.00438 1 1.00582 0.998574
0.998704 1.00004 1.00074 0.997924
1.00169 1 1.00381 0.997896
1.0299 1.03324 1 0.996764
1.03197 1.03534 1 0.996741
1.00414 1.0047 1.00229 0.997161
1.01371 1.01631 1.00077 0.996669
1.02793 1.03114 1 0.996893
0.99964 1 1 0.99964
0.999889 1 1.00099 0.998898
0.999701 1.00171 1.00041 0.997583
1.0061 1 1.00791 0.998203
0.999892 1.00032 1.00172 0.997853
1.03742 1.04068 1 0.996861
1.02708 1.03039 1 0.996789
1.03096 1.03408 1 0.996991
1.00343 1.00327 1.00324 0.996927
1.01165 1.01512 1.00006 0.996532
0.999098 1 1 0.999098
1.0047 1 1.00624 0.998468
1.00192 1.00247 1.002 0.997462
1.00428 1.0005 1.00582 0.997964
1.0005 1.00176 1.001 0.997742
1.03747 1.04099 0.999276 0.997342
1.02575 1.02915 1 0.996702
1.02727 1.03036 1 0.996997
1.00498 1.00388 1.00433 0.996781
1.00377 1.00745 1 0.996343
0.999705 1 1 0.999705
0.999165 1 1 0.999165
0.998873 1 1 0.998873
0.999171 1 1 0.999171
0.999233 1 1 0.999233
0.998921 1 1 0.998921
0.998803 1 1 0.998803
0.998869 1 1 0.998869
0.999245 1 1 0.999245
0.999765 1 1 0.999765
0.999771 1 1 0.999771
1 1 1 1
0.999761 1 1 0.999761
1 1 1 1
1 1 1 1
1 1 1 1
1 1 1 1
1 1 1 1
0.999999 1 1 0.999999
0.99997 1 1 0.99997
1 1 1 1
0.999895 1 1 0.999895
1 1 1 1
1 1 1 1
1.04491 1.04829 1 0.996778
1.04802 1.05149 0.999774 0.996924
1.04506 1.05053 0.997545 0.997249
1.04381 1.05161 0.995328 0.997244
1.04612 1.05045 0.998913 0.996957
1.03456 1.03799 1 0.996691
1.04615 1.05023 0.999189 0.996917
1.04371 1.05054 0.996342 0.997147
1.04469 1.05159 0.996182 0.997243
1.04136 1.05138 0.993107 0.997352
1.04244 1.04575 0.999776 0.997061
1.04118 1.04977 0.994326 0.997476
1.04371 1.05031 0.996575 0.997129
1.04256 1.05279 0.992935 0.997335
1.04236 1.05311 0.992335 0.997444
1.03887 1.04694 0.994773 0.997506
1.04601 1.04989 0.99939 0.996916
1.04583 1.04928 0.999859 0.996859
1.04272 1.04954 0.996333 0.997159
1.04109 1.04677 0.997374 0.997188
1.0016 1.00391 1 0.997688
1.00751 1.01048 1 0.997056
1.02112 1.02418 1.00058 0.996438
1.03701 1.04008 1 0.997053
1.03436 1.04095 0.996152 0.997501
1.0332 1.03624 0.999692 0.997378
1.02717 1.03067 1 0.996613
1.03271 1.03547 1 0.997336
1.00032 1.00269 1 0.99764
1.00045 1.0021 1.00069 0.997675
1.00596 1 1.00812 0.997858
0.999889 1 1.00063 0.999263
1.0044 1 1.00595 0.998455
1.04261 1.05026 0.99556 0.997144
1.04175 1.04943 0.995497 0.997171
1.03592 1.04548 0.993416 0.997421
1.00255 1.00517 1 0.997392
1.00642 1.00944 1.00026 0.996755
1.01697 1.02003 1.00076 0.996231
1.03301 1.03901 0.996772 0.997439
1.02844 1.03182 1 0.996722
1.03239 1.03588 0.99911 0.997524
0.999493 1 1 0.999493
1.00156 1.00402 1 0.997551
0.999432 1.00125 1.00051 0.997671
1.00485 1 1.00726 0.997605
1.0048 1 1.00665 0.998161
1.00172 1 1.00305 0.998675
1.04082 1.0511 0.992974 0.997225
1.03918 1.05236 0.9901 0.997352
1.03008 1.04384 0.989278 0.997516
1.03263 1.04223 0.993123 0.997657
1.00359 1.0064 1 0.997203
1.02723 1.03022 0.999966 0.99714
1.00355 1.00563 1.00165 0.996288
1.00934 1.01226 1.00104 0.996078
0.999684 1 1 0.999684
0.999395 1 1.00043 0.998964
1.00277 1 1.0044 0.998378
1.00521 1 1.00747 0.997761
1.00173 1.00374 1.00061 0.997381
1.0064 1.00068 1.00838 0.997358
0.999645 1 1 0.999645
0.999575 1 1.00067 0.998902
1.03764 1.04091 1 0.996854
1.00688 1 1.0087 0.998198
0.999159 1.00131 1.00027 0.99758
0.999376 1 1.00152 0.997855
1.02765 1.03097 1 0.996777
1.0311 1.03418 1 0.997017
1.00446 1.00485 1.00273 0.996887
1.01056 1.01383 1.00027 0.996503
0.999101 1 1 0.999101
1.00469 1 1.00624 0.998465
1.00204 1.0026 1.00198 0.997471
1.00363 1.00001 1.00566 0.997973
1.00018 1.00189 1.00048 0.997828
1.03822 1.04194 0.999039 0.997387
1.02522 1.02859 1 0.996718
1.02895 1.03197 1 0.99707
1.00467 1.00335 1.00458 0.996744
1.00425 1.00797 1.00003 0.996279
0.99909 1 1.00032 0.998771
1.0056 1 1.00752 0.998092
1.00474 1.00363 1.00378 0.997334
1.0005 1.00128 1.00161 0.997625
1.03606 1.05385 0.985442 0.997639
1.03135 1.0344 0.999615 0.997433
1.0151 1.01873 1 0.996442
1.00579 1.00519 1.00426 0.996362
0.999183 1 1 0.999183
0.998885 1 1 0.998885
0.99879 1 1 0.99879
0.999232 1 1 0.999232
0.99889 1 1 0.99889
0.999243 1 1 0.999243
0.998799 1 1 0.998799
0.998882 1 1 0.998882
0.998784 1 1 0.998784
0.998703 1 1 0.998703
0.998833 1 1 0.998833
0.999226 1 1 0.999226
0.999744 1 1 0.999744
0.999764 1 1 0.999764
1 1 1 1
0.999771 1 1 0.999771
1 1 1 1
1 1 1 1
1 1 1 1
1 1 1 1
1 1 1 1
1 1 1 1
0.999995 1 1 0.999995
1 1 1 1
0.999958 1 1 0.999958
1 1 1 1
1 1 1 1
1.04179 1.04496 0.999899 0.997061
1.04475 1.05149 0.99635 0.997227
1.03967 1.04893 0.993637 0.997517
1.04061 1.05105 0.992682 0.997365
1.04418 1.05065 0.99669 0.997139
1.04611 1.05007 0.999335 0.996897
1.04352 1.05025 0.996458 0.997128
1.04235 1.05241 0.993093 0.997326
1.04147 1.05235 0.992197 0.997443
1.0404 1.04816 0.995066 0.997516
1.04327 1.05278 0.993674 0.997279
1.04398 1.05853 0.988728 0.997492
1.04363 1.05732 0.989453 0.997569
1.0432 1.05078 0.995626 0.997146
1.04194 1.04962 0.995505 0.997166
1.0358 1.04476 0.993992 0.997412
1.0028 1.00543 1 0.997385
1.00626 1.00931 1.00018 0.996798
1.01559 1.01858 1.00085 0.99622
1.03353 1.03939 0.996931 0.997425
1.02867 1.03236 0.998933 0.997493
1.02921 1.03249 1 0.996822
1.00108 1.00355 1 0.997539
0.99822 1.00042 1 0.9978
1.00534 1 1.00776 0.997592
0.999521 1 1 0.999521
1.0041 1 1.00593 0.998182
1.00162 1 1.00298 0.998641
1.04154 1.05157 0.993211 0.997233
1.03871 1.0522 0.989799 0.997359
1.03023 1.04342 0.989827 0.997508
1.00202 1.00484 1 0.997194
1.00355 1.0058 1.0014 0.996368
1.00963 1.01263 1.0009 0.996146
1.03277 1.04197 0.993493 0.997662
1.02596 1.02936 0.999577 0.997121
0.999738 1 1 0.999738
0.99933 1 1.00037 0.998963
0.999834 1.00241 1 0.997431
1.00862 1.00067 1.01048 0.997495
1.00502 1 1.00723 0.997801
1.00261 1 1.00427 0.998348
1.04149 1.05582 0.98899 0.997413
1.03118 1.05178 0.982899 0.997473
1.02763 1.0434 0.987155 0.997705
1.02269 1.0317 0.993581 0.997675
1.00175 1.0039 1.00098 0.996873
1.00816 1.01044 1.0014 0.996342
1.00309 1.00439 1.00264 0.996077
0.999868 1 1 0.999868
0.999412 1 1 0.999412
0.999163 1 1 0.999163
0.999837 1 1.00131 0.99853
1.00323 1 1.00521 0.998039
1.00838 1 1.01078 0.997624
0.999226 1.00175 1 0.99748
1.03117 1.00056 1.03296 0.997707
0.999104 1 1 0.999104
1.00496 1 1.00651 0.998461
1.03892 1.04283 0.998823 0.997431
1.00385 1 1.00588 0.997982
1.00238 1.00275 1.00215 0.99748
0.999727 1.00178 1.00004 0.997913
1.02427 1.02762 1 0.996735
1.03039 1.03334 1 0.997142
1.00441 1.00289 1.00482 0.996709
1.0048 1.00861 1 0.996216
0.999297 1 1.00056 0.998742
1.00537 1 1.00728 0.998107
1.00543 1.00392 1.00415 0.997363
1.00035 1.00128 1.00142 0.997662
1.0383 1.05569 0.985843 0.997658
1.0314 1.03432 0.999795 0.997384
1.01599 1.01957 1 0.996487
1.00684 1.00677 1.00377 0.996311
1.00028 1 1.00175 0.998531
1.03668 1.05913 0.981093 0.997664
1.00169 1 1.00392 0.997772
1.00406 1.00431 1.00268 0.997084
1.03351 1.04451 0.991702 0.997753
1.01403 1.0175 1 0.996582
1.00613 1.00679 1.00323 0.996129
0.998898 1 1 0.998898
0.998781 1 1 0.998781
0.998786 1 1 0.998786
0.999242 1 1 0.999242
0.998894 1 1 0.998894
0.998795 1 1 0.998795
0.999223 1 1 0.999223
0.998838 1 1 0.998838
0.998784 1 1 0.998784
0.998723 1 1 0.998723
0.998815 1 1 0.998815
0.998699 1 1 0.998699
0.998811 1 1.00019 0.998617
0.998791 1 1 0.998791
0.999173 1 1 0.999173
0.999716 1 1 0.999716
0.999742 1 1 0.999742
1 1 1 1
0.999762 1 1 0.999762
1 1 1 1
1 1 1 1
1 1 1 1
1 1 1 1
1 1 1 1
0.999895 1 1 0.999895
1 1 1 1
1 1 1 1
1 1 1 1
0.999992 1 1 0.999992
1 1 1 1
1 1 1 1
1.04193 1.04941 0.995337 0.997525
1.04055 1.0515 0.992123 0.997442
1.04208 1.05199 0.99325 0.997317
1.04336 1.05018 0.996363 0.997128
1.04292 1.05272 0.993382 0.997298
1.04395 1.05807 0.989144 0.997482
1.04199 1.05593 0.989189 0.997579
1.04355 1.05836 0.988509 0.997471
1.05122 1.06736 0.987258 0.99759
1.03909 1.05973 0.982636 0.997843
1.04225 1.05201 0.993463 0.99724
1.03824 1.05206 0.98947 0.997367
1.03025 1.04299 0.990264 0.9975
1.00204 1.00481 1.00006 0.997186
1.00411 1.00642 1.00126 0.99645
1.01079 1.01385 1.00078 0.996213
1.033 1.0418 0.993871 0.997668
1.02493 1.02871 0.999224 0.997103
0.999558 1.00208 1 0.997482
1.01121 1.00104 1.01256 0.997631
1.0058 1 1.00798 0.997841
0.999793 1 1 0.999793
0.999253 1 1.00029 0.998962
1.00278 1 1.00447 0.998318
1.04144 1.05611 0.988658 0.997424
0.999864 1 1 0.999864
0.999383 1 1 0.999383
1.03136 1.05097 0.98383 0.997474
1.02664 1.04299 0.986623 0.997674
1.00184 1.00357 1.00131 0.996962
1.00367 1.00433 1.0033 0.996063
1.00884 1.0117 1.00084 0.996337
1.02157 1.03088 0.9933 0.997652
0.999239 1 1 0.999239
0.999821 1 1.0013 0.998524
1.00018 1.00161 1.00119 0.997383
1.02608 1.00062 1.02763 0.99787
1.00657 1 1.00895 0.997639
1.00359 1 1.00554 0.998058
1.04926 1.06572 0.986981 0.997549
1.01393 1.04907 0.968822 0.997613
1.01892 1.03712 0.98456 0.997862
1.00376 1.01363 0.992873 0.997368
1.00235 1.00121 1.00414 0.997009
1.00358 1.00213 1.00547 0.996001
0.999368 1 1 0.999368
0.999366 1 1 0.999366
0.999088 1 1 0.999088
0.998665 1 1 0.998665
1.0012 1 1.00291 0.998288
1.00218 1.00008 1.00438 0.997738
1.04217 1 1.04463 0.997639
1.00237 1.00049 1.00399 0.9979
0.999549 1 1.00084 0.998713
1.00471 1 1.0066 0.998122
1.0398 1.05655 0.986443 0.997676
1.03127 1.03411 0.999915 0.997335
1.00021 1.00137 1.00115 0.997698
1.00623 1.00443 1.00441 0.997391
1.01726 1.02077 1.00004 0.996531
1.00793 1.00834 1.00335 0.996259
1.00049 1 1.00197 0.998518
1.03876 1.06179 0.980555 0.99771
1.00198 1 1.0042 0.997794
1.00356 1.00385 1.00269 0.997032
1.03218 1.04366 0.99125 0.997726
1.01401 1.01742 1 0.996656
1.0066 1.00699 1.00348 0.996145
1.00205 1 1.00385 0.998199
1.01659 1.04031 0.979036 0.998129
1.00263 1.00261 1.00251 0.997509
1.00368 1.00324 1.00379 0.996654
1.01629 1.02423 0.994906 0.997329
1.00186 1.00334 1.00221 0.996323
0.9878 1.00452 0.985536 0.997791
0.998772 1 1 0.998772
0.99917 1 1.00039 0.998784
0.998794 1 1.00011 0.998684
0.99922 1 1 0.99922
0.998843 1 1 0.998843
0.998743 1 1 0.998743
0.998784 1 1 0.998784
0.999172 1 1 0.999172
0.998781 1 1 0.998781
0.998782 1 1 0.998782
0.998686 1 1.00007 0.998617
0.998694 1 1 0.998694
0.99877 1 1 0.99877
0.99885 1 1.00041 0.998445
0.999289 1 1.00069 0.9986
0.998685 1 1 0.998685
0.999059 1 1 0.999059
0.998906 1 1.00006 0.998849
0.999039 1 1 0.999039
0.999701 1 1 0.999701
0.999714 1 1 0.999714
1 1 1 1
0.99974 1 1 0.99974
1 1 1 1
1 1 1 1
1 1 1 1
1 1 1 1
1 1 1 1
0.999916 1 1 0.999916
0.999894 1 1 0.999894
1 1 1 1
1 1 1 1
1 1 1 1
1 1 1 1
1 1 1 1
1 1 1 1
1.04052 1.05483 0.988819 0.997588
1.04386 1.05766 0.989454 0.997472
1.0426 1.05268 0.99309 0.997316
1.04359 1.05833 0.988571 0.997469
1.04899 1.06521 0.987154 0.997588
1.03896 1.05862 0.983611 0.997781
1.05166 1.07058 0.984635 0.997655
0.980945 1.01605 0.968939 0.996394
1.01072 1.03724 0.97591 0.998491
0.999479 1 1 0.999479
1.0414 1.0564 0.988329 0.997436
1.03174 1.05022 0.984888 0.997475
1.02573 1.04262 0.98613 0.997642
1.00006 1.0022 1.00082 0.99705
1.00386 1.0038 1.00402 0.996048
1.00931 1.01257 1.00045 0.996332
1.02031 1.02992 0.993029 0.997629
0.998914 1.0016 1.00004 0.997286
1.01971 1 1.02171 0.998036
1.00458 1 1.00694 0.997655
0.999859 1 1 0.999859
1.00398 1 1.00592 0.998076
0.999314 1 1 0.999314
0.999732 1 1.00122 0.998517
0.999354 1 1 0.999354
1.04655 1.06599 0.984171 0.997556
0.999407 1 1 0.999407
0.999365 1 1 0.999365
0.999053 1 1 0.999053
1.01751 1.04907 0.972244 0.997612
1.01969 1.03777 0.984733 0.997817
1.00054 1.00126 1.00225 0.997034
1.00442 1.00277 1.00556 0.9961
1.00328 1.01171 0.994306 0.997355
0.998712 1 1 0.998712
1.00131 1 1.00307 0.998247
1.00751 1.00031 1.00941 0.997809
1.03387 1 1.03628 0.997673
1.00174 1 1.00397 0.997778
1.03202 1.05622 0.979387 0.997654
1.00365 1.04383 0.963671 0.997752
1.01158 1.02313 0.991156 0.997538
0.993684 1.00452 0.992068 0.997119
1.00342 1 1.00596 0.997479
0.998962 1 1 0.998962
0.998883 1 1 0.998883
0.999124 1 1.00035 0.998773
1.0002 1 1.00176 0.998445
1.00236 1 1.00427 0.998098
1.03009 1 1.03241 0.997758
1.02709 1.00013 1.02931 0.99772
1.00049 1 1.00199 0.998503
1.00227 1 1.00446 0.997815
1.04015 1.06524 0.978638 0.997756
1.03111 1.04331 0.990591 0.997699
1.01374 1.01707 1 0.996729
1.00289 1.00324 1.00268 0.996981
1.00671 1.00696 1.0036 0.996162
1.002 1 1.00377 0.99824
1.01488 1.04034 0.977334 0.998157
1.0009 1.0017 1.00167 0.997525
1.00299 1.00227 1.00408 0.996661
1.01582 1.02436 0.994214 0.997434
1.00183 1.0028 1.00273 0.996313
0.987165 1.00441 0.985817 0.996971
1.00193 1.0005 1.00338 0.998056
1.00669 1.02165 0.987223 0.998106
1.00076 1.00135 1.00194 0.997469
1.00445 1.00121 1.00644 0.996818
0.99455 1.00591 0.99153 0.997155
0.933819 0.981164 0.971794 0.97937
0.937262 0.976629 0.969877 0.989498
0.977991 0.989141 0.990865 0.997843
0.778762 0.861556 0.937664 0.963994
0.709005 0.837672 0.887043 0.954181
0.999374 1 1.00059 0.998782
0.999391 1 1.00066 0.998729
0.999038 1 1.00032 0.998718
0.999172 1 1 0.999172
0.998772 1 1 0.998772
0.998618 1 1 0.998618
0.998688 1 1 0.998688
0.998749 1 1 0.998749
0.999967 1 1.00139 0.998575
0.99909 1 1 0.99909
0.998704 1 1 0.998704
0.998743 1 1 0.998743
0.999161 1 1.00069 0.998472
1.00114 1 1.00266 0.998483
1.00139 1 1.00287 0.998525
1.00019 1 1.00169 0.998504
0.998704 1 1.00007 0.998636
0.999032 1 1 0.999032
0.998715 1 1 0.998715
0.998685 1 1.00001 0.998673
0.998862 1 1.00001 0.998849
0.998857 1 1.00005 0.998812
0.999138 1 1 0.999138
0.999036 1 1 0.999036
0.999695 1 1 0.999695
0.9997 1 1 0.9997
1 1 1 1
0.999712 1 1 0.999712
1 1 1 1
1 1 1 1
1 1 1 1
1 1 1 1
1 1 1 1
0.999934 1 1 0.999934
0.999913 1 1 0.999913
1 1 1 1
0.999892 1 1 0.999892
1 1 1 1
1 1 1 1
1 1 1 1
1 1 1 1
1 1 1 1
1.04652 1.06283 0.987042 0.997585
1.04362 1.05827 0.988663 0.997467
1.03941 1.05786 0.984809 0.997719
0.984293 1.01587 0.972361 0.99646
1.04868 1.06793 0.98428 0.997654
1.02083 1.04029 0.982898 0.998373
1.03788 1.04958 0.991074 0.997766
0.94044 0.981954 0.968733 0.988635
0.996727 1.01935 0.980614 0.997135
0.999489 1 1 0.999489
0.999476 1 1 0.999476
0.99907 1 1 0.99907
0.999129 1 1 0.999129
1.04442 1.06623 0.981942 0.997564
1.02052 1.04863 0.975529 0.997612
1.02011 1.03816 0.984808 0.997771
0.999544 1.00073 1.00176 0.997059
1.00521 1.00367 1.00536 0.996199
1.00262 1.01022 0.995126 0.997341
1.01447 1 1.01679 0.997718
1.02657 1 1.02893 0.997707
1.00113 1 1.00332 0.997818
0.999364 1 1 0.999364
1.00099 1 1.00279 0.998206
0.99876 1 1 0.99876
0.999446 1 1 0.999446
0.999016 1 1 0.999016
1.0295 1.05596 0.97722 0.997668
0.999008 1 1 0.999008
0.998934 1 1 0.998934
0.998887 1 1 0.998887
1.00749 1.04614 0.965228 0.997747
1.01064 1.02289 0.990471 0.997536
1.00311 1.00005 1.00561 0.997462
0.995397 1.00491 0.993339 0.997177
0.999719 1 1.00131 0.998414
1.00192 1 1.00391 0.998022
1.03159 1.00048 1.03347 0.997705
1.03062 1.00004 1.03295 0.997706
0.998873 1.03906 0.963424 0.997825
0.996796 1.02946 0.970482 0.997724
1.00376 1.00912 0.997461 0.997219
0.988272 1.00066 0.989625 0.997971
0.998636 1 1 0.998636
0.999924 1 1.00136 0.998567
1.0106 1 1.01229 0.99833
1.04861 1 1.05104 0.997688
0.909049 0.97003 0.958942 0.977259
1.0024 1 1.00412 0.998281
0.999362 1.00073 1.00109 0.997541
1.01443 1.04013 0.977071 0.998186
1.01594 1.02465 0.993949 0.997539
1.00216 1.00257 1.0033 0.996301
1.00278 1.00166 1.00447 0.996667
0.987803 1.00495 0.986751 0.996131
1.00108 1.00022 1.00275 0.99811
1.00689 1.02273 0.986394 0.998094
1.00023 1.00132 1.00144 0.997483
1.00449 1.00157 1.00611 0.996818
0.997504 1.00684 0.99355 0.997162
0.932729 0.986818 0.967136 0.977307
0.932207 0.974012 0.969649 0.987036
0.979533 0.988429 0.993123 0.997862
0.777982 0.858582 0.939383 0.964595
0.694159 0.826754 0.88332 0.950527
1.00024 1.00013 1.0018 0.99831
0.807573 0.88123 0.948344 0.966333
0.749997 0.842957 0.931044 0.955617
0.990213 1.00688 0.985396 0.998021
1.00662 1.00132 1.0075 0.997819
1.01224 1.00455 1.01025 0.997432
0.971938 0.983391 0.990262 0.998073
0.92501 0.967818 0.977515 0.977753
0.909029 0.948337 0.972398 0.98576
0.763011 0.860209 0.918069 0.966166
0.770236 0.887743 0.90889 0.954608
1.00004 1 1.00127 0.998773
1.00016 1 1.00147 0.998697
1.00116 1 1.00229 0.998874
0.99912 1 1 0.99912
0.998723 1 1 0.998723
1.00021 1 1.00166 0.99855
0.999683 1 1.00119 0.998499
0.998717 1 1 0.998717
0.999033 1 1 0.999033
1.00097 1 1.0025 0.998474
1.00055 1 1.00204 0.998519
0.998684 1 1.00001 0.998669
1.00115 1 1.00261 0.99854
1.00309 1 1.0046 0.998499
1.00576 1 1.00716 0.998616
0.998767 1 1.0003 0.998468
0.998679 1 1 0.998679
0.998712 1 1 0.998712
0.998703 1 1.00003 0.998671
0.99864 1 1.00011 0.998532
0.999226 1 1.00054 0.998684
0.999521 1 1.00087 0.99865
1.00155 1 1.00307 0.998488
0.999452 1 1.00064 0.998812
0.998974 1 1.00012 0.998849
0.999168 1 1 0.999168
0.998774 1 1 0.998774
0.999112 1 1 0.999112
0.999687 1 1 0.999687
0.999033 1 1 0.999033
0.999696 1 1 0.999696
1 1 1 1
0.9997 1 1 0.9997
1 1 1 1
1 1 1 1
1 1 1 1
1 1 1 1
1 1 1 1
0.999452 1 1 0.999452
0.999935 1 1 0.999935
0.999931 1 1 0.999931
1 1 1 1
0.999909 1 1 0.999909
1 1 1 1
1 1 1 1
1 1 1 1
1 1 1 1
1 1 1 1
0.986998 1.01579 0.975039 0.99653
1.04638 1.06506 0.984771 0.997653
1.02676 1.04319 0.98597 0.998253
0.934134 0.975455 0.967608 0.989698
0.997128 1.01907 0.981137 0.99728
1.03859 1.053 0.988565 0.997721
1.01063 1.02636 0.987421 0.997215
0.948734 0.976426 0.980613 0.990848
0.931584 0.979066 0.973495 0.977409
0.77125 0.857887 0.930857 0.965789
0.682112 0.803168 0.890742 0.953449
0.999077 1 1 0.999077
0.999488 1 1 0.999488
0.999473 1 1 0.999473
0.999059 1 1 0.999059
0.998823 1 1 0.998823
0.998852 1 1 0.998852
0.999031 1 1 0.999031
0.999094 1 1 0.999094
1.026 1.05599 0.973851 0.997682
1.01216 1.04947 0.966632 0.997742
1.01018 1.02274 0.990161 0.997535
1.00276 1.00041 1.00492 0.997446
0.997407 1.00491 0.995288 0.997235
1.03414 1.00002 1.03651 0.997689
1.03133 1 1.03376 0.997653
1.0021 1 1.00416 0.997947
0.998985 1 1 0.998985
0.999602 1 1.00122 0.998381
0.999053 1 1 0.999053
0.999002 1 1 0.999002
0.998887 1.03977 0.962767 0.997829
0.99877 1 1.00011 0.998665
0.999533 1 1.00093 0.998609
0.99651 1.02847 0.971157 0.9977
1.00076 1.00888 0.994599 0.997346
0.990782 1.00104 0.991874 0.997865
1.01611 1 1.01795 0.998191
1.04403 1.00007 1.04635 0.997711
0.989004 1.02684 0.965266 0.997808
0.985097 1.00896 0.978557 0.997746
0.983153 1.00144 0.983932 0.99777
0.993357 1.00093 0.994328 0.998098
1.00187 1 1.00355 0.998326
1.00656 1 1.00823 0.99834
1.04442 1 1.04652 0.997993
0.802544 0.889972 0.931952 0.967607
0.926619 0.976363 0.968155 0.980268
1.00003 1 1.00186 0.998164
0.99957 1.00101 1.00107 0.997498
1.00681 1.02386 0.985235 0.998084
0.999869 1.00779 0.994959 0.99717
1.00463 1.00211 1.00571 0.99682
0.926803 0.975912 0.971291 0.97775
0.938478 0.980737 0.968868 0.987658
0.979922 0.986936 0.995009 0.997874
0.778446 0.860293 0.935939 0.966795
0.681614 0.816187 0.882068 0.946775
1.00028 1.00008 1.0019 0.998308
0.803793 0.886349 0.937857 0.966947
0.739859 0.83322 0.93103 0.95373
0.990266 1.00765 0.984702 0.998019
1.00672 1.00164 1.00724 0.997845
1.01064 1.00287 1.01018 0.997585
0.964321 0.977431 0.988352 0.998214
0.931767 0.977842 0.976676 0.975637
0.908825 0.95139 0.966791 0.988072
0.766516 0.856569 0.927861 0.964441
0.768225 0.892038 0.902987 0.953726
1.00211 1 1.00341 0.998704
0.782235 0.854587 0.956362 0.957102
0.855255 0.923399 0.960775 0.964017
0.989524 0.998268 0.992545 0.998686
1.01421 1.00261 1.01294 0.998641
0.974 0.968406 1.00772 0.998073
0.905067 0.935615 0.977922 0.989188
0.900048 0.940413 0.981921 0.974699
0.772257 0.856079 0.934646 0.965164
0.8091 0.925229 0.913235 0.957569
1.00135 0.999998 1.00268 0.998677
1.00094 1 1.0021 0.99884
1.00453 1 1.00545 0.999091
0.999034 1 1 0.999034
0.998702 1 1 0.998702
1.00119 1 1.00266 0.998534
1.00126 1 1.0028 0.998466
1.00086 1 1.0023 0.998555
0.998678 1 1 0.998678
1.0018 1 1.00332 0.99849
0.998771 1 1.0003 0.99847
1.00656 1 1.0079 0.998666
1.02185 0.999256 1.02353 0.999104
1.00247 1 1.00397 0.998503
0.998431 1 1 0.998431
0.998708 1 1 0.998708
0.9988 1 1.00013 0.998669
0.998841 1 1.00031 0.998526
0.999384 1 1.00071 0.998675
0.999238 1 1.00053 0.998707
1.00123 1 1.00262 0.99861
0.999537 1 1.00098 0.998561
1.00116 1 1.00245 0.998709
0.998911 1 1.00044 0.998471
0.998857 1 1.00093 0.99793
1.00125 1 1.00288 0.998377
1.00141 1 1.00293 0.998486
1.00117 1 1.00245 0.998722
0.999976 1 1.00117 0.998809
0.999153 1 1 0.999153
0.999284 1 1.00043 0.998849
0.999169 1 1 0.999169
0.999682 1 1 0.999682
0.999086 1 1 0.999086
0.999689 1 1 0.999689
0.999999 1 1 0.999999
0.999697 1 1 0.999697
1 1 1 1
1 1 1 1
1 1 1 1
1 1 1 1
1 1 1 1
0.999465 1 1 0.999465
0.999918 1 1 0.999918
0.999453 1 1 0.999453
1 1 1 1
0.999936 1 1 0.999936
0.999928 1 1 0.999928
1 1 1 1
1 1 1 1
1 1 1 1
1 1 1 1
1 1 1 1
0.799979 0.877339 0.945041 0.964852
0.746885 0.840866 0.929532 0.955569
0.935967 0.979801 0.964721 0.990196
0.998325 1.01871 0.982513 0.997429
1.04182 1.05665 0.988258 0.997677
0.930651 0.961474 0.975516 0.992236
1.01016 1.02581 0.987385 0.997331
0.941702 0.989684 0.972307 0.978619
0.775005 0.86136 0.93297 0.964389
0.679248 0.808704 0.88436 0.94975
0.962796 0.996245 0.972066 0.994196
0.930732 0.972437 0.978375 0.978268
0.759101 0.857821 0.916545 0.965492
0.754656 0.877352 0.902296 0.953292
0.999451 1 1.00076 0.998693
0.999107 1 1 0.999107
0.999487 1 1 0.999487
0.999048 1 1 0.999048
0.998869 1 1 0.998869
0.999488 1 1.00081 0.998681
0.998837 1 1 0.998837
0.998777 1 1 0.998777
0.998995 1 1 0.998995
0.99906 1 1 0.99906
0.999976 1.04 0.963608 0.997834
0.994088 1.02622 0.970946 0.997678
0.997833 1.00893 0.991505 0.997473
0.992669 1.00114 0.993769 0.997758
1.0387 1.00095 1.04007 0.997735
1.0223 1 1.0243 0.998053
0.998652 1 1 0.998652
0.998875 1 1.00018 0.998692
0.989601 1.02714 0.965526 0.997856
1.00273 1 1.00444 0.998297
1.00656 1 1.00827 0.998301
0.983349 1.00723 0.978563 0.997674
0.980839 1.00092 0.982033 0.997863
0.996057 1.00173 0.996314 0.998015
1.03875 1 1.04088 0.997956
0.986587 1.00412 0.984361 0.998148
0.977116 1.00024 0.978308 0.998538
1.01425 1.00083 1.01522 0.998216
1.00644 1 1.00819 0.998262
1.00576 1 1.00764 0.998133
1.02404 1 1.026 0.998088
0.802803 0.868462 0.959777 0.963136
0.811991 0.888909 0.944036 0.967621
0.915478 0.973112 0.962582 0.977343
1.0001 1 1.0018 0.998306
1.00674 1.00174 1.00714 0.99787
0.992528 1.00862 0.986 0.998017
1.00922 1.00149 1.01 0.997734
0.797579 0.88131 0.935183 0.967717
0.927802 0.97393 0.974665 0.9774
0.901629 0.947544 0.965189 0.985862
0.961261 0.973259 0.9893 0.998354
0.763905 0.855812 0.927103 0.962792
0.741068 0.836033 0.928986 0.954169
0.756519 0.881472 0.89845 0.955251
1.00266 1 1.00396 0.998705
0.78374 0.857737 0.952687 0.959107
0.864978 0.931876 0.963047 0.963828
0.991062 0.997458 0.994807 0.998775
1.01387 1.00143 1.01384 0.998604
0.971308 0.967419 1.00567 0.998359
0.902032 0.939296 0.97296 0.987016
0.90728 0.946022 0.981652 0.976973
0.793872 0.878852 0.937248 0.963785
0.796027 0.913061 0.909142 0.958951
1.00666 0.999329 1.0079 0.999434
0.874622 0.935293 0.964945 0.969102
0.847475 0.924428 0.946913 0.968151
0.991847 0.977848 1.01461 0.999715
0.927066 0.935926 0.997767 0.99275
0.914098 0.93835 0.998203 0.975907
0.830929 0.900468 0.958631 0.962596
0.826968 0.946072 0.912317 0.958118
1.00085 1 1.00205 0.998805
1.00448 0.999962 1.00544 0.999089
1.02157 0.999445 1.0228 0.999354
0.998676 1 1 0.998676
0.998668 1 1.0002 0.998471
1.00017 1 1.00169 0.998481
1.0072 1 1.00849 0.998718
0.99843 1 1 0.99843
1.00276 1 1.00427 0.998495
1.02695 0.999786 1.02802 0.999178
1.03989 0.996687 1.04393 0.999446
1.02937 0.999839 1.03049 0.999068
0.998459 1 1 0.998459
0.999024 1 1.0005 0.99852
0.999196 1 1.00053 0.998667
0.998763 1 1 0.998763
0.99921 1 1.00063 0.998577
1.00077 1 1.00216 0.998611
1.00157 1 1.00286 0.998722
1.00058 1 1.00198 0.998594
1.0064 1 1.00743 0.998983
0.998429 1.00003 0.999842 0.998558
0.999358 1.00032 1.00055 0.998497
0.998816 1 1.00069 0.998122
0.999724 1.00095 1.00153 0.997257
1.00151 1 1.00324 0.998282
0.998886 1 1.00079 0.998095
1.00098 1 1.00258 0.998401
1.00168 1 1.00311 0.998574
1.00107 1 1.00258 0.998485
1.00084 1 1.00212 0.998721
0.999136 1 1.00006 0.999077
1.00004 1 1.00124 0.998807
0.999151 1 1 0.999151
0.999672 1 1 0.999672
0.99917 1 1 0.99917
0.999683 1 1 0.999683
0.999996 1 1 0.999996
0.999691 1 1 0.999691
0.999998 1 1 0.999998
1 1 1 1
1 1 1 1
1 1 1 1
1 1 1 1
0.999263 1 1 0.999263
0.999887 1 1 0.999887
0.999398 1 1 0.999398
1 1 1 1
0.999922 1 1 0.999922
0.999453 1 1 0.999453
1 1 1 1
1 1 1 1
0.999937 1 1 0.999937
1 1 1 1
1 1 1 1
1 1 1 1
0.780055 0.855379 0.950242 0.959693
0.805247 0.884623 0.942411 0.965896
0.861201 0.931758 0.959295 0.963494
0.741337 0.836528 0.928597 0.95435
0.93119 0.969959 0.969783 0.989943
1.00787 1.02531 0.985497 0.997454
0.948271 0.988136 0.979567 0.979674
0.782618 0.865036 0.936543 0.966024
0.680932 0.817812 0.880164 0.94599
0.961297 0.991911 0.975589 0.993386
0.926344 0.972838 0.976786 0.974838
0.771555 0.866421 0.923819 0.963943
0.757397 0.882931 0.901514 0.951534
0.941774 0.979415 0.969872 0.991439
0.913466 0.944719 0.992482 0.974242
0.794462 0.884266 0.933599 0.962343
0.803066 0.92406 0.909934 0.955083
1.00071 1 1.00226 0.99846
0.99895 1 1.00022 0.998735
0.999137 1 1 0.999137
0.998916 1 1 0.998916
0.998738 1 1.00035 0.99839
0.998967 1 1.00025 0.998718
0.998822 1 1 0.998822
0.998744 1 1 0.998744
0.998812 1 1 0.998812
0.998959 1 1 0.998959
0.990888 1.02838 0.965564 0.997904
0.984766 1.00642 0.980835 0.997605
0.979088 1.00092 0.98019 0.997956
1.00038 1.0029 0.999556 0.997934
1.03202 1 1.03417 0.997918
1.00562 1 1.00737 0.998262
1.00325 1 1.00499 0.998269
1.00566 1 1.00744 0.998233
0.983884 1.00453 0.981263 0.998152
1.00455 1 1.00643 0.99813
1.0247 1 1.02668 0.998077
0.975856 1.00065 0.976696 0.998493
1.01216 1.0018 1.01219 0.998177
0.957292 0.986278 0.971972 0.9986
0.993482 0.996187 0.99805 0.999232
1.0368 0.999709 1.03874 0.998427
1.00266 1 1.00452 0.998141
1.01341 1 1.01531 0.998123
0.882599 0.938634 0.967509 0.971879
0.805819 0.868316 0.963902 0.962779
0.800855 0.883041 0.938682 0.966173
1.00308 1 1.00438 0.998706
1.01381 1.00021 1.01505 0.998566
0.989424 0.996129 0.9944 0.998863
0.789264 0.861379 0.954502 0.959956
0.912641 0.944623 0.991482 0.974444
0.903691 0.937347 0.975353 0.988457
0.961924 0.963601 0.999633 0.998626
0.792531 0.878078 0.934917 0.965406
0.871617 0.936861 0.965422 0.963682
0.800443 0.916596 0.91054 0.959077
1.00503 0.999092 1.00655 0.999397
0.871298 0.933753 0.96159 0.970387
0.848095 0.925012 0.946982 0.968179
0.994664 0.981835 1.01351 0.999557
0.937375 0.944544 0.999952 0.992458
0.892764 0.931218 0.984918 0.973386
0.828783 0.946466 0.913167 0.958927
0.843202 0.907697 0.964263 0.963376
1.00524 0.985816 1.02 0.999711
0.853862 0.919614 0.950663 0.976687
0.865669 0.942977 0.946967 0.969428
0.803468 0.923523 0.910754 0.955256
0.972857 0.960856 1.01442 0.998092
0.937974 0.951122 1.00941 0.976982
0.877186 0.931821 0.976058 0.964459
1.00442 0.999748 1.00559 0.999085
1.02146 0.999214 1.023 0.999272
1.02249 0.988567 1.03477 0.999566
0.998429 1 1 0.998429
1.00296 1 1.00448 0.998486
1.03263 1 1.0334 0.999251
0.99851 1 1.00004 0.998466
1.0287 0.999944 1.0297 0.999079
1.04072 0.996803 1.04466 0.999421
1.02981 0.994851 1.03567 0.999489
1.02099 0.999899 1.02206 0.999058
0.999129 1 1.00054 0.998594
1.00074 1 1.00213 0.998612
1.00214 1 1.0034 0.998736
1.00532 1 1.00637 0.998958
1.0001 1 1.00151 0.998596
1.00288 1 1.00399 0.998887
0.998735 1 0.999941 0.998794
1.00132 1 1.00355 0.997782
0.999747 1.00063 1.00059 0.998526
0.999023 1.00041 1.00057 0.998052
0.998332 1.00028 1.00101 0.997039
1.00822 1.0099 1.00129 0.997051
1.00132 1.00058 1.00276 0.997975
0.999412 1.00074 1.00138 0.997297
1.00468 1 1.00628 0.998403
1.00218 1.00003 1.0039 0.998263
0.998904 1 1.00065 0.998259
1.00078 1 1.00236 0.998425
1.00139 1 1.00278 0.998608
0.999068 1 1.0001 0.998971
1.00072 1 1.002 0.998719
0.999129 1 1.00005 0.999077
0.999631 1 1 0.999631
0.999149 1 1 0.999149
0.99967 1 1 0.99967
0.999994 1 1 0.999994
0.999683 1 1 0.999683
0.999995 1 1 0.999995
1 1 1 1
0.999997 1 1 0.999997
1 1 1 1
1 1 1 1
0.999051 1 1 0.999051
0.999724 1 1 0.999724
0.999261 1 1 0.999261
1 1 1 1
0.999843 1 1 0.999843
0.999332 1 1 0.999332
1 1 1 1
1 1 1 1
0.999926 1 1 0.999926
1 1 1 1
1 1 1 1
1 1 1 1
0.869343 0.935677 0.958038 0.9698
0.77482 0.854513 0.94362 0.960915
0.802951 0.880934 0.943959 0.96559
0.998625 1 1 0.998625
0.852558 0.921983 0.953231 0.970069
0.859907 0.931322 0.958423 0.963373
0.742245 0.84157 0.922957 0.955598
0.968274 0.994346 0.981278 0.992359
0.926381 0.968296 0.978502 0.977732
0.777592 0.878103 0.920295 0.962231
0.752519 0.873085 0.905076 0.952305
0.940557 0.977337 0.973345 0.988722
0.905519 0.942187 0.983914 0.976795
0.805573 0.889318 0.940987 0.96264
0.799431 0.918094 0.911383 0.955417
0.90687 0.945252 0.972887 0.986131
0.906894 0.931469 0.999167 0.974429
0.855738 0.919116 0.966289 0.963526
0.827203 0.945132 0.913528 0.958071
1.00054 1 1.00231 0.998237
1.00174 1 1.00332 0.99842
0.998777 1 1 0.998777
0.998427 1 1 0.998427
0.998851 1 1.0004 0.998448
0.998754 1 1 0.998754
0.998751 1 1 0.998751
0.998846 1 1 0.998846
0.979738 1.00529 0.976388 0.998154
0.972951 1.00052 0.973956 0.998453
1.00511 1 1.00692 0.998202
1.01081 1.00279 1.00988 0.998137
1.02656 1 1.02855 0.998065
1.00395 1 1.00583 0.998127
1.00302 1 1.00488 0.998149
0.963406 0.988199 0.976202 0.998677
1.01276 1 1.01463 0.998159
1.02715 1.00032 1.02841 0.998453
0.988949 0.996011 0.993621 0.999283
1.00287 1 1.00464 0.998236
0.957627 0.976019 0.982555 0.998576
1.00462 0.992094 1.01318 0.999461
1.04628 0.997811 1.0501 0.998545
1.00254 1 1.00424 0.998313
0.865302 0.922978 0.957852 0.978764
0.881683 0.938224 0.966893 0.971913
0.81033 0.868238 0.969748 0.962419
1.00309 0.998648 1.00509 0.999362
0.998674 0.985493 1.01398 0.999403
0.86963 0.933714 0.958542 0.971649
0.919073 0.935783 1.00571 0.976565
0.927973 0.941811 0.995777 0.989485
0.845064 0.910492 0.964575 0.962227
0.848798 0.925933 0.946807 0.968196
0.831686 0.947821 0.914284 0.959736
1.00822 0.990716 1.018 0.999669
0.855352 0.920654 0.951271 0.976662
0.864315 0.941006 0.94567 0.97127
0.982165 0.967084 1.01604 0.99956
0.79916 0.917244 0.911821 0.955519
0.918584 0.936351 1.00585 0.975324
0.88547 0.941152 0.975995 0.963976
1.00703 0.983397 1.02427 0.999763
0.874394 0.938024 0.952708 0.978438
0.850825 0.920287 0.952889 0.97023
0.752594 0.876235 0.900817 0.953462
0.855721 0.920105 0.965651 0.963107
0.958799 0.957235 1.00565 0.996004
0.94253 0.947215 1.02343 0.972275
1.01926 0.99956 1.02054 0.99919
1.02457 0.989986 1.03542 0.999534
1.00874 0.978686 1.03114 0.999582
0.998474 1 1 0.998474
1.02927 1 1.03021 0.999091
1.04118 0.998274 1.04361 0.999396
1.01579 0.999919 1.01684 0.999045
1.02906 0.996173 1.03355 0.999488
1.01272 0.992836 1.0208 0.999237
1.00393 1 1.005 0.998933
0.999603 1 1.00101 0.998599
1.00455 1 1.00569 0.998866
1.00793 1 1.00971 0.998237
0.999028 1 1 0.999028
1.00037 1.00002 1.00241 0.997946
1.00162 1.00066 1.00413 0.996838
1.00493 1.00666 1.00188 0.996415
0.99922 1.00084 1.0004 0.99798
0.998702 1.00073 1.00109 0.996881
1.0096 1.01196 1.00053 0.997145
1.00494 1.00476 1.00261 0.997575
1.00773 1.00937 1.00125 0.997129
1.00617 1 1.00797 0.998208
1.0026 1.00137 1.00327 0.997958
0.998863 1.00025 1.00128 0.997336
0.999657 1 1.00085 0.998805
1.0043 1 1.0059 0.99841
1.00285 1 1.00462 0.998244
1.00125 1 1.00261 0.998642
0.999144 1 1.00017 0.99897
0.999554 1 1 0.999554
0.999183 1 1.00011 0.999077
0.999628 1 1 0.999628
0.999991 1 1 0.999991
0.999667 1 1 0.999667
0.999993 1 1 0.999993
1 1 1 1
0.999995 1 1 0.999995
1 1 1 1
1 1 1 1
0.998968 1 1 0.998968
0.999604 1 1 0.999604
0.999091 1 1 0.999091
1 1 1 1
0.999712 1 1 0.999712
0.999259 1 1 0.999259
1 1 1 1
1 1 1 1
0.9998 1 1 0.9998
1 1 1 1
1 1 1 1
1 1 1 1
0.858928 0.921889 0.953443 0.9772
0.872224 0.935444 0.961472 0.969781
0.774918 0.854987 0.943066 0.961069
0.998653 1 1 0.998653
0.998585 1 1 0.998585
0.998503 1 1 0.998503
0.864405 0.944038 0.944681 0.969265
0.849451 0.921519 0.950203 0.970102
0.859822 0.930869 0.95891 0.963256
0.944263 0.980335 0.972316 0.990629
0.899375 0.94 0.982174 0.974148
0.793973 0.871895 0.943446 0.965217
0.812483 0.927448 0.917846 0.954455
0.910602 0.94847 0.971129 0.988616
0.908734 0.933526 0.998423 0.974979
0.834411 0.895813 0.96571 0.96453
0.827756 0.94634 0.912244 0.958836
0.901876 0.937216 0.975284 0.98668
0.92358 0.939584 1.00726 0.975878
0.876821 0.929958 0.977399 0.964664
0.812382 0.927323 0.914946 0.957488
0.998558 1 1.00029 0.998266
1.00114 1 1.00294 0.998215
1.00173 1 1.00335 0.99838
0.998418 1 1 0.998418
0.998658 1 1.00015 0.998506
0.998758 1 1 0.998758
0.968928 0.988214 0.981726 0.998736
0.984645 0.995981 0.989289 0.999322
1.00327 1 1.00512 0.998157
1.0194 1.00054 1.0204 0.998478
1.01379 1 1.01562 0.998196
1.00372 1 1.00552 0.998212
1.00239 1 1.00406 0.998337
0.964731 0.97676 0.989007 0.998662
1.04407 0.997823 1.04773 0.998683
1.0077 0.987918 1.02062 0.999414
1.00351 1 1.00504 0.998479
0.979833 0.966245 1.01555 0.998536
1.0075 0.981406 1.02715 0.999449
1.03296 0.995624 1.03874 0.998804
0.887172 0.942416 0.960015 0.980589
0.865982 0.92324 0.957854 0.979253
0.881089 0.937779 0.966669 0.971944
1.01233 0.995908 1.01686 0.999627
0.971731 0.964503 1.00892 0.998583
0.857038 0.921737 0.95205 0.976638
0.913318 0.924808 1.00849 0.979258
0.880241 0.937877 0.974465 0.96314
0.864097 0.939388 0.945267 0.973112
0.813738 0.927114 0.919419 0.954636
1.00251 0.980498 1.02267 0.999786
0.875632 0.938136 0.9533 0.979098
0.850383 0.921599 0.951004 0.970264
0.955869 0.953246 1.01026 0.992569
0.7557 0.881626 0.900584 0.951789
0.830563 0.895818 0.961807 0.963973
0.951714 0.951502 1.02489 0.975934
1.00127 0.965224 1.03823 0.99914
0.859613 0.921666 0.954313 0.977323
0.86612 0.935328 0.960812 0.963775
0.68049 0.800713 0.890927 0.9539
0.790526 0.880973 0.932461 0.962327
0.920877 0.936731 1.00801 0.975268
0.934893 0.948826 0.995068 0.990199
1.0287 0.991452 1.03809 0.999501
1.01229 0.98475 1.02839 0.999586
1.0129 0.989643 1.02399 0.999524
1.01059 0.999988 1.01158 0.999032
1.02791 0.997274 1.03125 0.999487
1.01565 0.991277 1.02528 0.99932
1.00869 1 1.00988 0.99882
1.00645 1 1.00761 0.998845
1.00717 1.00001 1.00908 0.998087
1.01581 1.00078 1.01815 0.996923
0.999455 1.00003 1.00131 0.998113
1.00306 1.00113 1.00513 0.996815
1.00439 1.00245 1.00596 0.995988
1.00445 1.00657 1.00191 0.995991
1.00596 1.00815 1.00108 0.996754
1.00469 1.00646 1.00189 0.996366
0.99897 1.00101 1.00124 0.996723
1.00348 1.00498 1.0011 0.997416
1.00962 1.01193 1.00048 0.997231
1.00247 1 1.00464 0.997843
1.00564 1.00527 1.00274 0.997632
1.00773 1.00937 1.00117 0.997207
1.00432 1 1.0058 0.998527
1.0052 1 1.007 0.998208
1.00394 1.00229 1.00372 0.997941
0.999441 1 1 0.999441
0.999845 1 1.00104 0.998803
1.00371 1 1.0053 0.998417
0.999005 1 1.00004 0.998968
0.999549 1 1 0.999549
0.999982 1 1 0.999982
0.999624 1 1 0.999624
0.999989 1 1 0.999989
1 1 1 1
0.999993 1 1 0.999993
1 1 1 1
1 1 1 1
0.99894 1 1 0.99894
0.999593 1 1 0.999593
0.998993 1 1 0.998993
1 1 1 1
0.999643 1 1 0.999643
0.99913 1 1 0.99913
1 1 1 1
1 1 1 1
0.9997 1 1 0.9997
1 1 1 1
1 1 1 1
1 1 1 1
0.874134 0.937956 0.952611 0.978318
0.860275 0.922496 0.954328 0.977181
0.873334 0.934777 0.963376 0.969787
0.998864 1 1.00036 0.998505
0.998833 1 1.00047 0.998366
0.998682 1 1 0.998682
0.998577 1 1 0.998577
0.998489 1 1 0.998489
0.998483 1 1 0.998483
0.998421 1 1 0.998421
0.846614 0.926068 0.944478 0.967945
0.865254 0.94176 0.946079 0.971126
0.846887 0.920423 0.948428 0.970138
0.828763 0.947665 0.91134 0.95961
0.90173 0.941007 0.971451 0.986422
0.908279 0.930675 1.00036 0.975587
0.843411 0.905812 0.964925 0.964957
0.893774 0.936725 0.967886 0.985806
0.919777 0.932853 1.01298 0.973354
0.885376 0.941257 0.975177 0.964575
0.797227 0.914419 0.909223 0.958885
0.91339 0.940802 0.982468 0.988189
0.930946 0.9417 1.01602 0.972992
0.835811 0.904429 0.959719 0.962917
0.770491 0.889483 0.907694 0.954312
1.00738 1 1.00893 0.998467
0.999259 1 1.00099 0.998275
1.00211 1 1.00392 0.998192
0.99841 1 1 0.99841
0.970633 0.976426 0.995291 0.99877
1.00847 0.984698 1.0248 0.999364
1.00274 1 1.00456 0.998188
1.0023 1 1.00395 0.998361
1.03709 0.996973 1.04147 0.998821
1.00266 1 1.00419 0.998473
1.03391 0.995175 1.04018 0.99879
0.977388 0.965011 1.01541 0.997457
1.00604 0.973836 1.0335 0.999583
1.0135 0.994501 1.02021 0.998917
0.961419 0.941173 1.02439 0.997193
1.02092 0.977156 1.04553 0.999296
0.865952 0.922729 0.958765 0.978831
0.884815 0.941647 0.957394 0.981463
0.866124 0.923187 0.957591 0.979739
0.996574 0.975825 1.02146 0.999805
0.962531 0.958415 1.00804 0.996283
0.875172 0.937338 0.952961 0.979765
0.949347 0.954813 1.02205 0.972825
0.834885 0.901235 0.960571 0.964404
0.84886 0.922574 0.948266 0.970298
0.751831 0.871764 0.905387 0.952549
1.00351 0.967878 1.03755 0.99929
0.859699 0.923037 0.953008 0.977307
0.861846 0.932428 0.959164 0.963655
0.937173 0.948412 0.995496 0.992619
0.678708 0.807334 0.884691 0.950251
0.799244 0.884165 0.939249 0.96242
0.919816 0.93272 1.0128 0.973699
0.99764 0.972609 1.02788 0.997913
0.869997 0.936462 0.957703 0.970057
0.746996 0.840269 0.929869 0.956045
0.760685 0.858989 0.9168 0.965924
0.899511 0.923577 0.998121 0.975776
0.906268 0.934107 0.982956 0.98702
1.01433 0.988282 1.02678 0.99959
1.01291 0.986995 1.02675 0.999519
0.990279 0.98567 1.00534 0.999342
1.01861 0.98976 1.02977 0.999402
1.00692 0.994447 1.01366 0.998901
1.00211 1.0008 1.00346 0.997857
1.00669 1.00002 1.00875 0.997937
1.01456 1.00073 1.01703 0.996842
1.00867 1.00044 1.01222 0.996058
1.00465 1.00184 1.00604 0.996793
1.00478 1.00226 1.00664 0.995899
1.00226 1.00217 1.00445 0.995665
1.01415 1.01811 1 0.996104
1.0096 1.01263 1.00077 0.996244
1.00489 1.00679 1.00218 0.995936
1.00245 1.0053 1.00013 0.99704
1.0049 1.00736 1.00074 0.996818
1.00447 1.00627 1.0019 0.996318
1.00027 1.00171 1.00112 0.997452
1.00373 1.00526 1.00108 0.997397
1.00936 1.01165 1.00043 0.997317
1.00511 1 1.00696 0.99816
1.0026 1.0001 1.0046 0.997899
1.0062 1.00564 1.00288 0.997689
0.999776 1 1.00056 0.999219
1.0036 1 1.00508 0.99853
1.00432 1 1.00613 0.998208
0.999968 1 1 0.999968
0.999433 1 1 0.999433
1.00017 1 1.00137 0.998801
0.999545 1 1 0.999545
0.999979 1 1 0.999979
1 1 1 1
0.999986 1 1 0.999986
1 1 1 1
1 1 1 1
0.999823 1 1.00133 0.998491
0.99883 1 1 0.99883
0.999497 1 1 0.999497
0.998938 1 1 0.998938
0.999994 1 1 0.999994
0.999596 1 1 0.999596
0.999018 1 1 0.999018
1 1 1 1
1 1 1 1
0.999682 1 1 0.999682
1 1 1 1
1 1 1 1
1 1 1 1
0.852767 0.919604 0.949562 0.976576
0.87343 0.936977 0.952184 0.978991
0.861222 0.924006 0.95384 0.977157
0.998768 1 1.00025 0.998517
0.999386 1 1.00103 0.998361
0.999366 1 1.00098 0.998384
0.998588 1 1.00022 0.998371
1.00329 1 1.00498 0.998311
0.998568 1 1 0.998568
0.998475 1 1 0.998475
0.998484 1 1 0.998484
0.998425 1 1 0.998425
1.00485 1 1.00639 0.998473
0.855471 0.924549 0.960102 0.963735
0.848329 0.926441 0.94596 0.967996
0.86666 0.940754 0.946822 0.972981
0.799339 0.91721 0.908724 0.959025
0.881 0.936817 0.976131 0.963415
0.886253 0.931469 0.966382 0.984556
0.927034 0.940041 1.01086 0.975572
0.910824 0.942927 0.980195 0.985471
0.941192 0.950884 1.01457 0.975589
0.846201 0.908599 0.965985 0.964119
0.769375 0.894201 0.902513 0.953343
0.923712 0.937769 0.997437 0.987541
0.926364 0.937466 1.0123 0.976154
0.77369 0.857942 0.934684 0.964815
0.708949 0.837818 0.88761 0.95333
1.00818 1 1.00919 0.999
1.00871 1 1.01025 0.998469
1.00077 1 1.00249 0.998284
0.978402 0.967732 1.01474 0.996342
1.00904 0.96874 1.04188 0.999725
1.00264 1 1.00419 0.998466
1.03597 0.994751 1.04271 0.998777
1.01474 0.996948 1.01894 0.998925
1.02534 0.982549 1.0443 0.999285
0.966609 0.949859 1.02052 0.997171
1.01906 0.995065 1.02478 0.999345
0.976831 0.963294 1.01673 0.99737
0.881084 0.938247 0.96652 0.971605
0.867161 0.923393 0.958943 0.97931
0.882559 0.940814 0.954947 0.982337
1.00664 0.973083 1.03508 0.999422
0.935425 0.948416 0.997529 0.988745
0.861993 0.924471 0.95409 0.977284
0.923872 0.941772 1.00813 0.973078
0.786707 0.865467 0.941983 0.964983
0.858537 0.92952 0.958577 0.963548
0.680642 0.816878 0.880286 0.946537
0.997126 0.971533 1.0283 0.998095
0.871864 0.935283 0.960989 0.970035
0.741512 0.836629 0.928224 0.954844
0.911573 0.940116 0.981067 0.988351
0.772438 0.866792 0.924117 0.964321
0.890337 0.925613 0.987665 0.973903
0.963095 0.96316 1.00327 0.99667
0.780193 0.856207 0.949082 0.960107
0.770964 0.857695 0.93027 0.966256
0.910378 0.944665 0.989099 0.974326
0.886227 0.9302 0.96325 0.989076
1.01199 0.984833 1.02808 0.999515
0.99483 0.985031 1.01064 0.999315
0.997602 0.996282 1.00282 0.998509
1.00508 0.988423 1.0179 0.998978
1.00156 1.00092 1.0027 0.997942
0.998483 1.00199 0.999441 0.997062
1.01286 1.00067 1.01547 0.996761
1.00701 1.0006 1.01037 0.996068
0.999205 1.00161 1.00137 0.996231
1.0048 1.00195 1.00706 0.995812
1.00243 1.00306 1.0037 0.995695
1.0133 1.01706 1 0.996305
1.03221 1.03572 1 0.996612
1.02258 1.02649 1.00002 0.996173
1.01401 1.01795 1 0.99613
1.00971 1.01323 1 0.996523
1.00807 1.01083 1.00107 0.996194
1.00542 1.00712 1.00244 0.995881
1.00226 1.00508 1 0.997201
1.00112 1.00399 1.00002 0.997114
1.00374 1.00656 1.00032 0.996882
1.00008 1.0002 1.00208 0.997804
1.0008 1.00203 1.0013 0.997485
1.00407 1.0056 1.0011 0.997378
1.0035 1 1.00467 0.998832
1.00466 1 1.00651 0.998163
1.0027 1.00014 1.00461 0.997955
0.999936 1 1 0.999936
1.00022 1 1.00101 0.999211
1.00305 1 1.00452 0.998533
1 1 1 1
0.999961 1 1 0.999961
0.999426 1 1 0.999426
0.999975 1 1 0.999975
1 1 1 1
1 1 1 1
1.0016 1 1.0032 0.99841
0.999165 1 1.00045 0.998711
0.999965 1 1.00149 0.998474
0.999403 1 1 0.999403
0.998881 1 1.00005 0.998829
0.999978 1 1 0.999978
0.9995 1 1 0.9995
0.998935 1 1 0.998935
1 1 1 1
0.999996 1 1 0.999996
0.999599 1 1 0.999599
1 1 1 1
1 1 1 1
1 1 1 1
0.870519 0.935638 0.957273 0.971929
0.855254 0.921241 0.950658 0.976556
0.873384 0.935501 0.952978 0.979667
0.998685 1 1.00029 0.998397
0.999081 1 1.00055 0.998529
0.99953 1 1.00117 0.998357
0.998686 1 1.00031 0.998373
0.999187 1 1.00078 0.998404
1.00169 1 1.00333 0.998367
1.00854 1 1.01044 0.998114
1.00994 1 1.01163 0.998325
0.998486 1 1 0.998486
0.998429 1 1 0.998429
1.00451 1 1.00606 0.99846
1.01562 1 1.01698 0.998671
0.750805 0.842823 0.932659 0.955142
0.864764 0.93306 0.961865 0.963549
0.849418 0.926308 0.947273 0.968035
0.759252 0.88512 0.898346 0.954861
0.850525 0.915107 0.964779 0.963358
0.933122 0.942975 1.01696 0.973052
0.913687 0.938335 0.987381 0.986176
0.922748 0.936769 0.995493 0.989492
0.695272 0.828374 0.883691 0.94979
0.920234 0.933999 1.01191 0.973665
0.792564 0.878366 0.936672 0.96332
0.920653 0.942511 0.986353 0.990324
0.912164 0.933949 0.999551 0.977112
0.76261 0.861633 0.91754 0.964617
0.999527 1 0.999981 0.999545
1.00782 1 1.00883 0.999006
1.00903 1 1.01058 0.99847
0.963661 0.94845 1.01889 0.997201
1.02968 0.987892 1.04306 0.999273
1.01528 0.998507 1.01788 0.998932
1.01897 0.996504 1.02321 0.999344
0.974211 0.962606 1.01468 0.997416
0.995036 0.988103 1.00881 0.998218
0.804625 0.868914 0.964153 0.960441
0.878629 0.937489 0.962939 0.973286
0.8665 0.923486 0.95765 0.979786
0.997856 0.970083 1.03046 0.998228
0.90204 0.935481 0.974786 0.989194
0.871174 0.934089 0.961454 0.970037
0.895075 0.918751 0.998981 0.975225
0.780533 0.880571 0.92075 0.962687
0.742409 0.841606 0.922662 0.956075
0.963957 0.961371 1.00597 0.99674
0.774874 0.855004 0.94276 0.961307
0.775743 0.861539 0.933184 0.964886
0.888811 0.931062 0.968007 0.986171
0.904778 0.944928 0.980222 0.976829
0.953518 0.970187 0.98443 0.998363
0.796665 0.874908 0.943419 0.965181
0.932022 0.974804 0.977503 0.978117
0.901233 0.945269 0.967006 0.985945
0.998956 0.983939 1.01598 0.999292
0.989622 0.995823 0.995157 0.998609
0.993843 1.00197 0.994138 0.997741
1.00162 1.00109 1.00251 0.998027
1.00153 1.00242 1.00207 0.997046
1.00023 1.00371 0.999428 0.997098
1.00577 1.0008 1.00892 0.996077
0.999132 1.00123 1.00167 0.996242
1.01888 1.02222 0.999692 0.99704
1.00287 1.00397 1.00319 0.995725
1.01238 1.01612 1 0.996316
1.03267 1.03565 0.999966 0.99716
1.03592 1.03884 1 0.997188
1.03479 1.0384 1 0.996531
1.03203 1.0355 1 0.996652
1.02314 1.02685 1 0.996389
1.02129 1.02515 1 0.996226
1.01366 1.01757 1 0.996155
1.012 1.01517 1 0.996885
1.00978 1.01314 1.00014 0.99655
1.00662 1.00903 1.00148 0.996143
0.99946 1.00195 1 0.997511
1.00286 1.00569 1 0.997195
0.999925 1.00275 1 0.997187
1.00278 1 1.00436 0.998423
1.0007 1.00062 1.00228 0.997803
1.00125 1.00229 1.00145 0.997519
1.00006 1 1.00021 0.999843
1.00293 1 1.00411 0.998829
1.00387 1 1.00571 0.998165
1 1 1 1
0.999922 1 1 0.999922
1.0006 1 1.0014 0.999203
1 1 1 1
0.999954 1 1 0.999954
1 1 1 1
0.999354 1 1.00102 0.998331
1.001 1 1.0026 0.998401
1.00117 1 1.00259 0.998583
0.999597 1 1.00029 0.999305
0.999417 1 1.00071 0.998709
0.999531 1 1.00107 0.998458
0.999955 1 1 0.999955
0.999407 1 1 0.999407
0.998828 1 1 0.998828
1 1 1 1
0.999983 1 1 0.999983
0.999504 1 1 0.999504
1 1 1 1
0.999999 1 1 0.999999
1 1 1 1
0.781804 0.854532 0.955536 0.957464
0.870233 0.935237 0.957364 0.971934
0.858201 0.923304 0.951822 0.976537
1.0006 1 1.00222 0.998379
1.00302 1.00088 1.00398 0.998164
1.007 1 1.00877 0.99825
0.999328 1 1.00095 0.998376
0.999048 1 1.00063 0.998424
1.00162 1 1.0032 0.998423
1.00866 1 1.01037 0.998302
1.00803 1 1.00991 0.998142
1.00961 1 1.01161 0.998023
0.99162 1.00048 0.992151 0.998982
1.00336 1 1.00492 0.998448
1.01235 0.999967 1.01377 0.99864
0.775048 0.857704 0.938147 0.963209
0.739081 0.832226 0.931645 0.953237
0.871426 0.938388 0.963908 0.963413
0.682948 0.817688 0.882738 0.946168
0.792998 0.877307 0.936748 0.964934
0.910989 0.930444 1.0034 0.975774
0.930493 0.943539 0.999116 0.987045
0.913162 0.937578 0.98552 0.988268
0.763768 0.85482 0.927303 0.963529
0.896371 0.9247 0.994069 0.975147
0.905162 0.942955 0.97031 0.989293
0.897395 0.945405 0.973771 0.974785
1.00471 1 1.00569 0.999021
0.99916 1 0.999673 0.999487
1.00755 1 1.00855 0.999012
0.972799 0.963106 1.01264 0.99746
1.01886 0.997936 1.02163 0.999344
0.995537 0.988913 1.00857 0.998144
0.985453 0.99332 0.99479 0.997276
0.803379 0.891931 0.93087 0.967609
0.80613 0.868112 0.966036 0.961249
0.879012 0.938246 0.960944 0.974944
0.966013 0.967198 1.0019 0.996878
0.890598 0.931491 0.968936 0.986752
0.775305 0.855871 0.9422 0.961439
0.896176 0.939326 0.979135 0.974393
0.78471 0.867635 0.935756 0.966516
0.957786 0.97254 0.987302 0.997496
0.804699 0.884246 0.941853 0.966223
0.929372 0.975748 0.976916 0.974977
0.906917 0.947444 0.968541 0.988316
0.96285 0.987015 0.977227 0.99825
0.935074 0.98119 0.974995 0.977441
0.940022 0.97965 0.969037 0.990208
0.980484 0.994334 0.987357 0.998699
0.990718 1.00227 0.990736 0.997715
0.981715 1.00743 0.976813 0.997607
1.00336 1.00278 1.00356 0.99703
0.999478 1.00375 0.998648 0.997094
1.0209 1.02994 0.993511 0.997697
0.998819 1.00071 1.00186 0.996255
1.01823 1.02214 0.999149 0.997023
1.03237 1.03859 0.996294 0.997705
1.01139 1.01512 1 0.996327
1.03197 1.03524 0.999691 0.997155
1.03666 1.04003 0.999107 0.997655
1.03344 1.036 1 0.997532
1.03682 1.03968 1 0.997253
1.03586 1.03894 1 0.997044
1.03564 1.03918 1 0.996596
1.03499 1.03858 1 0.996543
1.03195 1.03537 1 0.996692
1.02318 1.02662 1 0.996645
1.0247 1.02839 1 0.996421
1.02002 1.02383 1 0.996279
1.00575 1.00854 1 0.997235
1.01113 1.01429 1 0.996881
1.00985 1.01315 1.00017 0.996578
0.998502 1.0001 1.00026 0.99814
1.0009 1.0034 1 0.997508
1.00352 1.00635 1 0.997189
1.00067 1 1.00102 0.999647
1.00201 1 1.00359 0.998424
1.00158 1.00111 1.00268 0.997802
1 1 1 1
1.00049 1 1.00068 0.999819
1.00255 1 1.00373 0.998825
1 1 1 1
0.999908 1 1 0.999908
1 1 1 1
0.998315 1.00007 1 0.998241
1.00018 1 1.00184 0.998342
1.00188 1 1.00343 0.998456
1.00013 1 1.00174 0.998392
1.00136 1 1.00279 0.998582
1.00043 1 1.00126 0.999176
0.999927 1 1 0.999927
0.999484 1 1.00018 0.999308
0.999937 1 1.00123 0.998708
1 1 1 1
0.999962 1 1 0.999962
0.99941 1 1 0.99941
1 1 1 1
0.999989 1 1 0.999989
1 1 1 1
0.805797 0.880478 0.947205 0.966192
0.784652 0.857779 0.95513 0.957723
0.869455 0.934721 0.957037 0.971933
1.00265 1 1.0043 0.99836
1.00886 1 1.01075 0.998127
1.00144 1.00051 1.0027 0.998234
0.999632 1.00159 1.00055 0.997504
1.00845 1.00045 1.00991 0.998115
1.00787 1 1.0096 0.998281
1.00648 1 1.00832 0.99817
1.01226 1.00014 1.01406 0.998083
0.998066 1.00025 1 0.997816
0.982448 1.00076 0.983026 0.998652
0.983984 1.00035 0.985843 0.997764
0.992089 1.00032 0.992733 0.999028
1.0075 1 1.00891 0.998609
0.919879 0.9684 0.972808 0.976447
0.773919 0.854504 0.939439 0.96408
0.739376 0.834511 0.929056 0.953656
0.761867 0.856618 0.9248 0.961711
0.90821 0.935071 0.996685 0.974504
0.915616 0.933258 0.990581 0.990426
0.906898 0.942311 0.971348 0.990808
0.909173 0.947159 0.981758 0.97773
0.933794 0.973882 0.968613 0.989907
0.996709 1.00132 0.997173 0.998218
1.00434 1 1.00535 0.998999
0.998984 1 0.999556 0.999428
0.996793 0.99092 1.00784 0.998102
0.990235 0.996766 0.996056 0.997382
0.911104 0.968463 0.962643 0.977281
0.81257 0.890353 0.943078 0.967723
0.807389 0.866249 0.968787 0.962082
0.964575 0.977453 0.990208 0.996584
0.908015 0.948481 0.97083 0.986101
0.80435 0.881307 0.944899 0.9659
0.926382 0.968771 0.978124 0.977631
0.970583 0.986889 0.985134 0.998318
0.94309 0.989581 0.973996 0.978463
0.936529 0.976654 0.970664 0.987897
0.985832 1.00424 0.983926 0.997705
0.959593 0.993957 0.972021 0.993216
0.991703 1.00465 0.989386 0.997706
0.981836 1.00702 0.977379 0.997557
1.00013 1.03236 0.97085 0.997866
0.998988 1.00379 0.998123 0.99709
1.02143 1.03012 0.993878 0.997674
1.0311 1.04653 0.987258 0.997972
1.01759 1.02209 0.99859 0.997006
1.03184 1.03876 0.995642 0.997684
1.02907 1.03896 0.992572 0.997893
1.03126 1.03487 0.999364 0.997151
1.03673 1.04053 0.998705 0.997635
1.0344 1.03853 0.998292 0.997724
1.03403 1.03655 0.999987 0.997584
1.0327 1.03549 0.999966 0.997344
1.03771 1.0405 1 0.997318
1.03579 1.03887 1 0.997035
1.03768 1.04095 1 0.996862
1.03232 1.03578 1 0.99666
1.03545 1.039 1 0.996585
1.03515 1.03873 1 0.996556
1.01642 1.01946 1 0.997017
1.02254 1.02597 1 0.996659
1.02627 1.02993 1 0.996453
0.999303 1.00138 1 0.997929
1.00692 1.00971 1 0.997232
1.01018 1.01335 1 0.996876
1.00014 1 1.00072 0.999411
0.998935 1.00036 1.00043 0.998141
1.00233 1.00484 1 0.997505
1 1 1 1
1.00081 1 1.00119 0.999623
1.00118 1 1.00275 0.998426
1 1 1 1
1.00093 1 1.00113 0.999795
1 1 1 1
1.00144 1.00386 1 0.997595
0.998329 1.0001 1 0.998233
0.999963 1 1.00169 0.998273
1.00124 1 1.00289 0.998353
1.00161 1 1.00318 0.99843
1.00123 1 1.00226 0.998979
1.00159 1 1.00301 0.998581
1.00004 1 1.00087 0.999178
0.999892 1 1 0.999892
1 1 1 1
0.999936 1 1 0.999936
0.999341 1 1.00003 0.99931
1 1 1 1
0.999969 1 1 0.999969
1 1 1 1
0.93548 0.98244 0.972314 0.979314
0.803066 0.885661 0.937814 0.966868
0.791876 0.862344 0.959728 0.956816
1.01033 1 1.01235 0.998003
0.999593 1.00005 1.00124 0.998305
1.00685 1.00035 1.00842 0.99809
1.00086 1.00251 1.00079 0.997566
1.00812 1.01091 1.00016 0.997073
0.99839 1.00064 1 0.997755
1.01547 1.00027 1.01709 0.998141
0.998158 1.00053 1 0.997629
0.987365 1.00086 0.987871 0.99863
0.996042 1.00089 0.997377 0.997777
0.980091 1.00303 0.979182 0.997905
0.995838 1.00129 0.997174 0.997375
0.98461 1.00082 0.985875 0.9979
0.995579 1.00014 0.996366 0.999074
0.936507 0.978467 0.966795 0.989989
0.923551 0.971742 0.972954 0.976827
0.774878 0.855951 0.936945 0.966207
0.916947 0.952207 0.988321 0.97435
0.910273 0.941228 0.975154 0.991753
0.937886 0.97267 0.971111 0.992924
0.989485 1.00377 0.988071 0.997673
0.994605 1.00067 0.995719 0.998213
1.00403 1 1.00506 0.998978
0.991489 0.999257 0.994744 0.997469
0.946246 0.974898 0.980208 0.990208
0.926413 0.974903 0.969425 0.980233
0.800828 0.884273 0.937291 0.966226
0.971462 0.983648 0.989216 0.998378
0.938508 0.979778 0.968043 0.9895
0.949017 0.988636 0.980069 0.979447
0.978238 1.00266 0.977854 0.997739
0.958289 0.990321 0.974981 0.992486
0.97993 1.02425 0.958994 0.997636
1.00016 1.01635 0.987262 0.996769
0.981213 1.0066 0.977224 0.997501
0.998491 1.03108 0.970468 0.99786
1.00561 1.0491 0.960565 0.997894
1.02232 1.03074 0.994159 0.997651
1.03091 1.04635 0.987264 0.997954
1.02495 1.0421 0.985661 0.997844
1.03159 1.03907 0.995127 0.997662
1.0286 1.03828 0.992779 0.997875
1.034 1.04331 0.993372 0.997695
1.03686 1.04101 0.998392 0.997615
1.03266 1.03685 0.99824 0.997716
1.03409 1.03759 0.999176 0.997444
1.03461 1.03707 0.999988 0.997636
1.03298 1.0357 0.999985 0.997389
1.03633 1.03941 1 0.997039
1.03578 1.03886 1 0.997027
1.03764 1.04092 1 0.996852
1.03522 1.03853 1 0.996814
1.02403 1.02722 1 0.996898
1.03232 1.03577 1 0.996669
1.03521 1.03877 1 0.996574
1.0029 1.00517 1 0.99774
1.01589 1.01893 1 0.99702
1.02197 1.02538 1 0.996672
0.99921 1 1 0.99921
1.00028 1.00236 1 0.997927
1.00784 1.01064 1 0.997228
1 1 1 1
0.999906 1 1.00051 0.999395
0.999288 1.00059 1.00055 0.998141
1 1 1 1
1.00095 1 1.00136 0.999599
1 1 1 1
1.00911 1.01197 1 0.997171
1.00215 1.00454 1 0.997616
1.00231 1.00379 1.00066 0.997861
0.998408 1.00018 1 0.998224
0.99988 1 1.00165 0.998235
1.00086 1 1.00215 0.998713
1.00145 1 1.00305 0.998404
1.00105 1 1.00207 0.998981
1.00019 1 1.00035 0.999837
0.999751 1 1.00057 0.99918
0.999901 1 1 0.999901
1 1 1 1
1 1 1 1
0.999944 1 1 0.999944
1 1 1 1
0.937796 0.978631 0.967384 0.990582
0.928351 0.981958 0.967852 0.976811
0.795495 0.878875 0.935443 0.967594
1.021 1.02418 1.00007 0.996829
1.00539 1.00026 1.00707 0.998066
1.00234 1.00366 1.00106 0.997629
0.998282 1.00055 1 0.997729
1.00797 1.01052 1.00042 0.997056
1.002 1.00438 1 0.997633
0.99826 1.00082 1 0.997443
0.989776 1.00077 0.990393 0.998609
0.994262 1.00113 0.995332 0.997795
0.975123 1.0021 0.975198 0.997824
1.00101 1.0071 0.996808 0.997141
1.00118 1.00684 0.996996 0.997373
0.996607 1.00195 0.997324 0.997332
0.984597 1.00134 0.985218 0.998036
0.987997 1.00613 0.983781 0.998171
0.932697 0.977593 0.964864 0.988817
0.926389 0.973454 0.973436 0.977622
0.930963 0.967406 0.971169 0.990897
0.992598 1.00554 0.988837 0.998272
0.99469 1.0002 0.996282 0.998202
0.988459 1.00668 0.98528 0.996567
0.933027 0.961998 0.978081 0.99162
0.913669 0.971735 0.961989 0.977396
0.973509 1.00079 0.974917 0.997771
0.965065 0.992187 0.980979 0.991525
0.983206 1.0253 0.961136 0.997721
1.00064 1.01585 0.987995 0.99699
0.995207 1.03734 0.961572 0.997725
1.03986 1.04917 0.993524 0.997586
0.99604 1.02921 0.969856 0.997854
1.00907 1.05048 0.962622 0.997883
1.01413 1.05154 0.966645 0.997702
1.03 1.0456 0.987112 0.997936
1.02377 1.04132 0.985276 0.99784
1.03259 1.04823 0.987474 0.997581
1.02785 1.0375 0.99283 0.997857
1.03299 1.04235 0.993293 0.997707
1.03668 1.04253 0.996997 0.997391
1.0309 1.03519 0.998148 0.997709
1.03465 1.03808 0.999252 0.997442
1.03841 1.04144 0.999967 0.997121
1.03323 1.03589 1 0.997434
1.0366 1.03964 1 0.997077
1.03719 1.04047 1 0.996849
1.03757 1.04086 1 0.996841
1.03499 1.03832 1 0.996795
1.0272 1.03039 1 0.996911
1.00731 1.00972 1 0.997618
1.02335 1.02652 1 0.996918
1.03231 1.03575 1 0.996678
0.999066 1 1 0.999066
1.00427 1.00655 1 0.997739
1.01553 1.01856 1 0.997022
1 1 1 1
0.999197 1 1 0.999197
1.00137 1.00345 1 0.997925
1 1 1 1
0.999684 1 1.00031 0.999378
1 1 1 1
1.01858 1.0218 1 0.996852
1.01005 1.01291 1 0.997172
1.00787 1.01041 1 0.99748
1.00271 1.00508 1.00001 0.997638
1.00111 1.0027 1.00056 0.997857
1.00055 1.00045 1.00169 0.998417
0.999636 1 1.00144 0.998198
1.00165 1 1.00294 0.998713
1.0007 1 1.00096 0.999736
1.00045 1 1.00147 0.998982
0.999848 1 1 0.999848
1 1 1 1
0.99991 1 1 0.99991
1 1 1 1
1 1 1 1
0.98443 1.01057 0.976077 0.998013
0.932207 0.975585 0.966803 0.988347
0.924464 0.971932 0.970906 0.979663
1.01481 1.01766 1.00001 0.997192
1.02962 1.03289 1 0.996832
1.01881 1.02186 1.00013 0.99689
0.998157 1.00046 1 0.997703
1.00756 1.00981 1.00073 0.997038
1.00285 1.00591 0.99936 0.997599
1.01635 1.02029 0.999033 0.997102
0.993164 1.00149 0.993863 0.997813
0.971798 1.00128 0.972751 0.997742
1.00231 1.00881 0.996328 0.997218
1.0196 1.02598 0.996836 0.996928
1.00912 1.02379 0.988007 0.997631
1.00322 1.00846 0.997453 0.99734
0.997784 1.00262 0.997878 0.997289
0.992128 1.00808 0.985776 0.998375
0.936195 0.979238 0.968119 0.987527
0.992865 1.0062 0.98784 0.998891
1.02074 1.03759 0.985535 0.998202
0.987464 1.00539 0.985439 0.996682
0.937023 0.971912 0.974287 0.989547
0.986511 1.0267 0.962972 0.997802
1.00104 1.01575 0.988256 0.997223
0.994394 1.03796 0.960102 0.997839
1.03984 1.05053 0.992204 0.997598
1.03454 1.0583 0.979908 0.99759
1.06194 1.07403 0.991004 0.997717
1.01285 1.05268 0.964208 0.997871
1.01877 1.0521 0.970549 0.997704
1.03584 1.05665 0.982774 0.997484
1.02296 1.04071 0.985075 0.997836
1.03245 1.04748 0.988042 0.997579
1.03754 1.04813 0.992519 0.997357
1.032 1.04139 0.993246 0.99772
1.03718 1.04298 0.997044 0.997388
1.04146 1.04499 0.999514 0.997116
1.03516 1.03851 0.999331 0.997441
1.03858 1.04159 0.999988 0.997121
1.04023 1.04351 1 0.996853
1.03688 1.03988 1 0.997116
1.0368 1.04007 1 0.996861
1.02952 1.03275 1 0.99688
1.0348 1.03815 1 0.996775
1.02711 1.0303 1 0.996905
1.00952 1.012 1 0.997549
0.998999 1 1 0.998999
1.00795 1.01036 1 0.997617
1.02271 1.02585 1 0.996938
1 1 1 1
0.999054 1 1 0.999054
1.00558 1.00786 1 0.997739
1 1 1 1
0.999184 1 1 0.999184
1 1 1 1
1.02692 1.03028 1 0.996737
1.0188 1.02203 1 0.996836
1.01277 1.01564 1 0.997175
1.01091 1.01378 1 0.997173
1.00631 1.00885 1 0.997488
1.00056 1.00208 1.00034 0.998134
0.999688 1.00138 1.00046 0.997852
1.00094 1.00021 1.00231 0.998419
1.00046 1 1.00091 0.999555
1.00298 1 1.00427 0.998715
1.00055 1 1.0008 0.999751
1 1 1 1
0.999858 1 1 0.999858
1 1 1 1
1 1 1 1
1.00784 1.03454 0.97602 0.998119
0.981901 1.00952 0.97521 0.997366
0.931732 0.977314 0.963894 0.989072
1.02683 1.02993 1 0.996989
1.0159 1.01857 1 0.997378
1.04491 1.0482 1 0.99686
1.0303 1.03359 1 0.996817
1.01693 1.01986 1.00018 0.996952
1.03787 1.04177 0.999406 0.996844
1.00353 1.00755 0.998441 0.997565
1.01538 1.01903 0.99937 0.997039
1.0384 1.05261 0.989358 0.997106
1.00277 1.01042 0.995119 0.997296
1.02005 1.02654 0.996788 0.99688
1.01011 1.025 0.98779 0.997662
1.00369 1.0088 0.997618 0.997305
0.996574 1.00995 0.988174 0.998569
1.04869 1.06655 0.985448 0.99777
1.02113 1.03733 0.986133 0.998219
0.986179 1.00409 0.985324 0.99679
0.994358 1.03796 0.959958 0.997952
1.03892 1.05096 0.990918 0.997612
1.03062 1.05763 0.976794 0.99761
1.06251 1.07574 0.989959 0.997713
1.0523 1.06891 0.986815 0.997607
1.02293 1.05229 0.974339 0.997705
1.0364 1.05606 0.983854 0.997493
1.03891 1.05354 0.988711 0.997378
1.03223 1.04671 0.988565 0.997578
1.03726 1.04774 0.992638 0.997338
1.04265 1.04846 0.99736 0.997096
1.03771 1.04347 0.997093 0.997385
1.04156 1.04505 0.999547 0.997113
1.04356 1.04687 1 0.996842
1.03876 1.04176 1 0.997121
1.03998 1.04326 1 0.996856
1.03266 1.03595 1 0.996822
1.03642 1.03967 1 0.996873
1.02967 1.03289 1 0.996885
1.01049 1.01304 1 0.997475
1.02697 1.03016 1 0.996899
1.00972 1.0122 1 0.997547
0.999157 1 1 0.999157
0.999692 1 1 0.999692
0.999069 1 1 0.999069
1.00856 1.01097 1 0.997616
1 1 1 1
0.999043 1 1 0.999043
1 1 1 1
1.0517 1.05493 1 0.996937
1.03669 1.04002 1 0.996807
1.02778 1.03114 1 0.996736
1.01912 1.02217 1 0.997015
1.01925 1.0225 1 0.996821
1.01318 1.01605 1 0.997175
1.00347 1.00559 1 0.997898
1.00496 1.00749 1 0.997495
1.00005 1.00145 1.00047 0.998137
0.999439 1 1.00012 0.999318
1.00128 1.00004 1.00282 0.998421
1.0005 1 1.00093 0.999575
1 1 1 1
0.999967 1 1.0002 0.999767
1 1 1 1
1 1 1 1
1.04379 1.06506 0.982468 0.99752
1.01207 1.03937 0.975508 0.998184
0.979734 1.00962 0.973589 0.996726
1.04223 1.0455 1 0.996868
1.02508 1.02812 1 0.997045
1.01661 1.01909 1 0.99756
1.04366 1.04693 1 0.996878
1.03094 1.03425 1 0.996801
1.04682 1.05893 0.991454 0.997086
1.03441 1.0384 0.999349 0.996803
1.01456 1.01768 0.999957 0.996976
1.03741 1.05154 0.989433 0.997101
1.02279 1.02899 0.997138 0.996832
1.01421 1.02978 0.987152 0.997699
1.05204 1.0676 0.987697 0.997704
1.0512 1.06819 0.986259 0.997799
1.02142 1.03726 0.986469 0.998237
1.02794 1.05801 0.97389 0.997629
1.06391 1.0782 0.989011 0.997709
1.05225 1.06989 0.985863 0.997615
1.04418 1.05543 0.991853 0.997465
1.03689 1.05537 0.984942 0.997503
1.03904 1.05316 0.989202 0.997366
1.04405 1.05186 0.995436 0.997127
1.03698 1.04736 0.99275 0.997319
1.0431 1.0489 0.997368 0.997095
1.04618 1.04963 0.999891 0.996829
1.04166 1.04511 0.999589 0.99711
1.04375 1.04706 1 0.996843
1.03534 1.03871 1 0.996757
1.03975 1.04303 1 0.99686
1.03295 1.03624 1 0.996826
1.01161 1.01427 1 0.997378
1.02983 1.03304 1 0.99689
1.01078 1.01334 1 0.997474
0.999166 1 1 0.999166
1.00994 1.01242 1 0.997546
0.999152 1 1 0.999152
0.999712 1 1 0.999712
0.999852 1 1 0.999852
0.999144 1 1 0.999144
1 1 1 1
1.04708 1.05032 1 0.996909
1.04223 1.04551 1 0.996863
1.05071 1.05381 1 0.997056
1.02865 1.03182 1 0.996927
1.03868 1.04202 1 0.996795
1.02866 1.03203 1 0.996735
1.02005 1.02311 1 0.997009
1.00817 1.01049 1 0.99771
1.01358 1.01645 1 0.997176
1.00233 1.00444 1 0.997899
0.999123 1 1 0.999123
0.999421 1.00076 1.00052 0.99814
0.999695 1 1.00036 0.999337
1 1 1 1
1.00066 1 1.00106 0.999595
1 1 1 1
1 1 1 1
1.04467 1.06239 0.985878 0.99741
1.04226 1.06336 0.982596 0.997515
1.0147 1.04187 0.975642 0.99824
1.0479 1.05438 0.996848 0.996998
1.04025 1.04355 0.999967 0.996869
1.02355 1.02653 1 0.997101
1.04223 1.04547 1 0.996896
1.04541 1.05751 0.991473 0.997062
1.03078 1.03484 0.999314 0.996763
1.03293 1.0468 0.989623 0.997096
1.04672 1.05868 0.991157 0.997527
1.05089 1.06625 0.987897 0.997665
1.05353 1.06957 0.987142 0.997828
1.043 1.0516 0.994441 0.99736
1.05188 1.07057 0.984876 0.997624
1.04403 1.05552 0.991647 0.997452
1.04556 1.05324 0.995471 0.997227
1.03925 1.0528 0.989745 0.997354
1.04409 1.05192 0.995416 0.997129
1.04722 1.05088 0.999678 0.996835
1.04349 1.04928 0.997379 0.997094
1.04638 1.04983 0.999881 0.996831
1.03644 1.03986 1 0.99671
1.04384 1.04714 1 0.996844
1.03559 1.03896 1 0.996759
1.01241 1.01517 1 0.997281
1.03322 1.0365 1 0.996829
1.01185 1.01451 1 0.997377
0.99914 1 1 0.99914
1.01107 1.01363 1 0.997473
0.999155 1 1 0.999155
0.999716 1 1 0.999716
0.99915 1 1 0.99915
0.999718 1 1 0.999718
1 1 1 1
1.04715 1.05106 0.999463 0.996811
1.04372 1.04708 1 0.996788
1.0487 1.05197 0.999981 0.996911
1.03443 1.0376 1 0.996943
1.0433 1.04655 1 0.996889
1.0499 1.05287 1 0.997174
1.0117 1.01418 1 0.997554
1.02867 1.03185 1 0.996919
1.04082 1.04418 1 0.996783
1.02085 1.02392 1 0.997004
1.00674 1.00905 1 0.997711
0.999017 1 1 0.999017
1.00113 1.00324 1 0.9979
0.999137 1 1 0.999137
1 1 1 1
0.99992 1 1.00057 0.999355
1 1 1 1
1 1 1 1
1.04401 1.05497 0.992306 0.997275
1.04469 1.06272 0.985603 0.997393
1.0425 1.06364 0.982574 0.997511
1.04683 1.05358 0.996573 0.997014
1.03803 1.04137 0.999927 0.99687
1.04479 1.0569 0.991473 0.997038
1.04397 1.05341 0.993661 0.997362
1.04711 1.05879 0.991427 0.99752
1.04977 1.06502 0.988027 0.997626
1.04349 1.05198 0.99453 0.997381
1.04611 1.05259 0.996663 0.997169
1.04386 1.05562 0.991403 0.997438
1.04578 1.05318 0.995774 0.997185
1.04711 1.05141 0.99899 0.996919
1.04412 1.05197 0.995393 0.997131
1.04744 1.05117 0.999613 0.996838
1.0362 1.03966 1 0.996678
1.04678 1.05025 0.999869 0.996832
1.03676 1.04018 1 0.996711
1.01255 1.01538 1 0.997214
1.03599 1.03936 1 0.996762
1.01248 1.01524 1 0.997282
0.999086 1 1 0.999086
1.0121 1.01476 1 0.997377
0.999125 1 1 0.999125
0.999697 1 1 0.999697
0.999148 1 1 0.999148
0.999731 1 1 0.999731
0.99972 1 1 0.99972
1.04704 1.05258 0.997673 0.99706
1.04612 1.0496 1 0.996682
1.04791 1.05233 0.998961 0.996838
1.03644 1.03972 1 0.996847
1.04293 1.0463 1 0.996779
1.05025 1.05354 0.999967 0.996914
1.01276 1.01536 1 0.997445
1.03433 1.03754 1 0.996906
1.0442 1.04743 1 0.996915
0.998981 1 1 0.998981
1.01096 1.01344 1 0.997557
1.02879 1.03198 1 0.996911
1.00536 1.00766 1 0.997713
0.999027 1 1 0.999027
1 1 1 1
0.999151 1 1 0.999151
1 1 1 1
1 1 1 1
1.04175 1.05061 0.9943 0.997257
1.04384 1.05479 0.99233 0.997268
1.04436 1.06263 0.98539 0.997377
1.04579 1.05279 0.996309 0.997029
1.04585 1.0513 0.997674 0.997128
1.04439 1.05357 0.993893 0.997373
1.04756 1.05888 0.991772 0.997514
1.04401 1.05237 0.994639 0.997402
1.04595 1.05254 0.996554 0.99718
1.04727 1.05158 0.998984 0.996915
1.04607 1.05318 0.996098 0.997144
1.04728 1.05139 0.999217 0.996875
1.03591 1.03934 1 0.996708
1.04758 1.05138 0.999549 0.996841
1.03638 1.03983 1 0.996681
1.01206 1.01494 1 0.99716
1.03681 1.04023 1 0.996713
1.01237 1.0152 1 0.997214
0.998872 1 1 0.998872
1.01248 1.01524 1 0.997282
0.998997 1 1 0.998997
1 1 1 1
0.999111 1 1 0.999111
0.999717 1 1 0.999717
0.99974 1 1 0.99974
1.04457 1.05016 0.997526 0.997149
1.04651 1.05002 0.999853 0.996799
1.04718 1.0524 0.997986 0.997051
1.03727 1.04071 1 0.996693
1.04549 1.04899 0.999957 0.996701
1.04874 1.05367 0.998449 0.996866
1.01321 1.01599 1 0.997263
1.03663 1.0399 1 0.996847
1.04219 1.04557 1 0.99677
0.998976 1 1 0.998976
1.01268 1.01532 1 0.997402
1.03422 1.03746 1 0.99687
1 1 1 1
0.998991 1 1 0.998991
1.01017 1.01264 1 0.997559
0.999039 1 1 0.999039
1 1 1 1
1 1 1 1
1.0445 1.04989 0.997713 0.997143
1.04217 1.05092 0.994389 0.997264
1.04359 1.05458 0.992296 0.99726
1.04737 1.05113 0.999572 0.996852
1.04516 1.05094 0.997348 0.997141
1.04478 1.05373 0.994112 0.997383
1.04576 1.05248 0.996412 0.99719
1.047 1.05139 0.998908 0.996916
1.03493 1.03829 1 0.996771
1.04738 1.05131 0.99943 0.996832
1.03584 1.03926 1 0.996716
1.01153 1.01452 1 0.997055
1.03669 1.04014 1 0.996683
1.01195 1.01483 1 0.997161
0.998828 1 1 0.998828
1.01229 1.01512 1 0.997214
0.998869 1 1 0.998869
1 1 1 1
0.998894 1 1 0.998894
0.99984 1 1 0.99984
0.999733 1 1 0.999733
1.04497 1.04975 0.998344 0.9971
1.04738 1.05071 0.999963 0.996861
1.04491 1.05041 0.997594 0.997156
1.0374 1.04084 1 0.996691
1.04699 1.05044 0.999924 0.996784
1.04735 1.05224 0.998307 0.997041
1.01312 1.01599 1 0.997168
1.03715 1.04056 1 0.996723
1.04483 1.04836 0.99991 0.996721
0.998952 1 1 0.998952
1.01318 1.01598 1 0.99725
1.03681 1.04009 1 0.996847
1 1 1 1
0.998985 1 1 0.998985
1.01264 1.01532 1 0.997359
1 1 1 1
0.999003 1 1 0.999003
1 1 1 1
1.04754 1.05136 0.99947 0.996901
1.04392 1.04926 0.997781 0.997127
1.04255 1.0512 0.99449 0.99727
1.03453 1.03788 1 0.996766
1.04702 1.05102 0.999319 0.996875
1.04447 1.05057 0.997026 0.997155
1.04676 1.0512 0.998856 0.996917
1.035 1.03835 1 0.996771
1.01081 1.01382 1 0.997035
1.03578 1.03919 1 0.996723
1.01148 1.01443 1 0.997084
0.998774 1 1 0.998774
1.01177 1.01465 1 0.997162
0.998825 1 1 0.998825
1 1 1 1
0.998866 1 1 0.998866
1 1 1 1
0.999709 1 1 0.999709
1.04882 1.05225 0.999858 0.996883
1.04438 1.0496 0.997902 0.997123
1.03679 1.0402 1 0.996722
1.04747 1.0508 0.999973 0.99686
1.0453 1.05075 0.997646 0.997163
1.01229 1.01514 1 0.997196
1.03697 1.04042 1 0.996687
1.04743 1.05083 1 0.996768
0.9989 1 1 0.9989
1.01331 1.01616 1 0.997194
1.037 1.04038 1 0.996752
1 1 1 1
0.998958 1 1 0.998958
1.01315 1.01596 1 0.997237
1 1 1 1
0.998994 1 1 0.998994
1 1 1 1
1.03483 1.03816 1 0.996796
1.04755 1.05122 0.999617 0.996888
1.04337 1.04864 0.997852 0.997111
1.00976 1.01275 1 0.997047
1.03453 1.03789 1 0.996766
1.04666 1.05091 0.999057 0.996897
1.03506 1.03841 1 0.996771
1.01085 1.01385 1 0.997035
0.998741 1 1 0.998741
1.01144 1.01437 1 0.997113
0.998772 1 1 0.998772
1 1 1 1
0.998822 1 1 0.998822
1 1 1 1
1 1 1 1
1.03618 1.03957 1 0.996735
1.04827 1.05184 0.999678 0.996921
1.04371 1.04935 0.997473 0.997146
1.01135 1.01421 1 0.997187
1.03647 1.03989 1 0.996718
1.04755 1.05085 1 0.996859
0.998849 1 1 0.998849
1.01263 1.01548 1 0.997194
1.03658 1.04003 1 0.996684
1 1 1 1
0.998903 1 1 0.998903
1.0135 1.01633 1 0.997221
1 1 1 1
0.998963 1 1 0.998963
1 1 1 1
1.00965 1.01256 1 0.997127
1.03471 1.03807 1 0.996765
1.04756 1.05109 0.999765 0.996875
0.998753 1 1 0.998753
1.00986 1.01286 1 0.997044
1.03455 1.0379 1 0.996766
1.01088 1.01389 1 0.997035
0.998741 1 1 0.998741
1 1 1 1
0.998769 1 1 0.998769
1 1 1 1
1 1 1 1
1.01035 1.01322 1 0.997165
1.03584 1.03922 1 0.996749
1.04775 1.05149 0.999482 0.996958
0.999008 1 1 0.999008
1.01166 1.01452 1 0.997186
1.03617 1.03958 1 0.996715
1 1 1 1
0.99885 1 1 0.99885
1.01295 1.0158 1 0.997191
1 1 1 1
0.998907 1 1 0.998907
1 1 1 1
0.998746 1 1 0.998746
1.00981 1.01275 1 0.9971
1.0346 1.03799 1 0.996734
1 1 1 1
0.998752 1 1 0.998752
1.00995 1.01295 1 0.997042
0.99874 1 1 0.99874
1 1 1 1
1 1 1 1
0.998966 1 1 0.998966
1.01067 1.01354 1 0.997165
1.03548 1.03884 1 0.996764
1 1 1 1
0.998819 1 1 0.998819
1.01198 1.01484 1 0.997184
1 1 1 1
0.998852 1 1 0.998852
1 1 1 1
0.999646 1 1 0.999646
0.998863 1 1 0.998863
1.00996 1.01293 1 0.997073
1 1 1 1
0.998753 1 1 0.998753
1 1 1 1
0.999662 1 1 0.999662
0.998884 1 1 0.998884
1.01102 1.01389 1 0.997165
0.999831 1 1 0.999831
0.998819 1 1 0.998819
1 1 1 1
1 1 1 1
0.998776 1 1 0.998776
1 1 1 1
0.999829 1 1 0.999829
0.998798 1 1 0.998798
1 1 1 1
1 1 1 1
1 1 1 1

VECTORS lamdaE float
1.00112 1.00015 0.993925
1.00073 1.00068 0.99706
1.0007 1.00035 0.994205
1.00125 1.00003 0.993846
1.0012 0.999979 0.993991
1.00106 1.00038 0.993748
1.00248 1.00046 0.990947
1.00074 1.00061 0.997066
1.00071 1.00017 0.997466
1.0002 1.00089 0.997507
1.00064 1.00071 0.99397
1.00215 1.0013 0.989826
1.0009 0.999976 0.994257
1.00065 1.00001 0.994411
1.00031 1.00056 0.994457
1.00094 1.00001 0.994162
1.00059 1.00074 0.994003
1.00085 1.00003 0.994283
1.00269 1.00027 0.990822
1.00091 1.00002 0.997115
1.00121 1.00008 0.993843
1.00126 0.999959 0.993933
1.00261 1.00012 0.991074
1.0026 1.00015 0.991054
1.00104 1.00049 0.993623
1.00226 1.001 0.990748
1.00502 1.00059 0.986433
1.00074 1.00057 0.997086
1.00091 1.00006 0.995724
1.0005 1.00063 0.995747
1.00068 1.00059 0.997135
1.00205 1.00144 0.989836
1.0012 0.99982 0.993914
1.00094 1.00025 0.994014
1.00293 1.00006 0.991299
0.999898 1.00076 0.997757
1.00258 1.00078 0.99127
1.00185 1.00176 0.989828
1.00431 1.00148 0.985988
1.00002 0.999325 0.998154
1.00093 0.999987 0.997105
1.00087 1.00001 0.995725
1.00085 0.999975 0.997149
1.00052 1.00004 0.994585
1.0026 0.999937 0.990479
1.00081 0.999964 0.997399
1.00294 1.00005 0.991316
1.00063 0.999942 0.994478
1.00052 1.00006 0.994562
1.00012 1.00113 0.99424
1.00289 1.00009 0.990711
1.00073 1.00004 0.99584
1.00088 1.0001 0.994163
1.00052 1.00096 0.993854
1.00094 0.999934 0.994238
1.00274 1.00008 0.990925
1.00253 1.00073 0.990628
1.00277 1.00005 0.990924
1.00499 1.00061 0.986445
1.00082 1.00001 0.997152
1.0011 1.00007 0.993998
1.00235 1.00001 0.992139
1.00254 1.00014 0.991154
1.00264 1.00007 0.991066
1.00491 1.0002 0.986899
1.005 1.00021 0.986664
1.00086 1.00042 0.993896
1.00174 1.00193 0.990626
1.00494 1.0009 0.986286
1.00527 1.0003 0.985523
1.00116 1.00009 0.997035
1.00061 1.00051 0.997258
1.00081 1.0005 0.997061
1.00198 1.00152 0.989841
1.00125 0.999951 0.996982
1.00103 1.00028 0.99706
1.0028 1.00002 0.989921
1.00013 1.00057 0.996121
1.00234 1.00083 0.989905
1.00174 1.00201 0.990637
1.0044 1.00133 0.985978
1.0003 0.999966 0.997704
1.00011 1.00166 0.992963
1.00297 0.999941 0.989768
1.00276 1.00021 0.989898
1.00507 1.00023 0.985987
1.00123 1.00244 0.991903
1.00472 1.00078 0.985979
1.00357 1.00264 0.986142
1.00521 1.00131 0.984523
0.99988 0.9985 0.99855
0.999884 0.999111 0.998322
1.00116 0.999988 0.996978
1.00098 0.999985 0.997084
1.00089 0.999981 0.997148
1.00077 0.999994 0.99584
1.00264 0.999928 0.99115
1.00099 0.999972 0.995661
1.00287 1.00007 0.990643
1.00086 0.99999 0.99716
1.00245 0.99986 0.990746
1.00282 1.00003 0.991552
1.0049 0.999427 0.987169
1.00297 0.999991 0.99127
1.00504 0.999764 0.986605
1.00087 1 0.994294
1.00053 1.0001 0.994489
1.00001 1.00146 0.994085
1.00063 0.999884 0.994539
1.00288 1.00009 0.990777
1.00292 0.999967 0.990801
1.00279 1.00042 0.990517
1.00496 1.00061 0.986458
1.00088 0.99999 0.997156
1.00077 1.00007 0.994316
1.00251 0.99997 0.990998
1.00267 1.00013 0.990996
1.0006 1.00084 0.995487
1.00211 1.00169 0.990719
1.00278 1.00002 0.990928
1.00493 1.0001 0.986978
1.00488 1.00093 0.986301
1.005 1.00035 0.98661
1.00527 1.00029 0.985555
1.00243 0.999911 0.990747
1.00243 1.00006 0.991365
1.00478 0.999355 0.98792
1.00486 0.99984 0.987273
1.00497 1.00006 0.986869
1.00528 0.999021 0.987067
1.00025 1.00063 0.997473
1.00527 0.999774 0.986052
1.00129 1.00274 0.989667
1.00449 1.00132 0.985828
1.00527 1.00088 0.985
1.00521 0.998836 0.986961
1.00055 1.00289 0.990941
1.00128 1.0051 0.987381
1.00125 0.999977 0.996997
1.00099 1.0003 0.997054
1.00281 1.00001 0.989915
1.00028 1.00028 0.9976
1.0014 1.00237 0.98996
1.00232 1.00084 0.989921
1.00448 1.00119 0.985968
1.00011 0.999869 0.997874
0.99999 1.00182 0.992997
1.003 0.999979 0.990514
1.00277 1.00026 0.990598
1.00506 1.00024 0.985966
1.00087 1.00264 0.990625
1.00476 1.00074 0.985966
1.00368 1.00238 0.986151
1.00525 1.00123 0.984615
1.00034 1.00246 0.991692
1.00002 1.00079 0.994059
1.00127 1.00465 0.988454
1.0051 1.00009 0.986105
1.00497 1.00042 0.985954
1.00533 0.999641 0.986159
1.00279 1.00338 0.986688
1.0053 1.00055 0.985271
1.00495 1.00173 0.984581
1.00527 1.00071 0.985026
0.999864 0.998003 0.9988
0.999829 0.998428 0.998653
0.999789 0.998946 0.998465
1.00024 1.00262 0.991741
1.00006 1.00026 0.997753
1.00125 0.999964 0.996966
1.00105 0.99999 0.997026
1.00274 1.00009 0.990015
1.00253 0.999927 0.990541
1.00087 0.999979 0.99714
1.00084 0.999983 0.997158
1.00244 0.999872 0.99074
1.00274 1.00001 0.990886
1.00488 0.999427 0.987173
1.00285 1.00003 0.98986
1.00501 0.999773 0.986599
1.0024 0.999876 0.990792
1.00484 0.999335 0.987353
1.00497 0.999573 0.9869
1.00537 0.997514 0.988454
1.00508 0.999943 0.986323
1.00531 0.998162 0.987831
1.00084 0.99999 0.997152
1.00042 1.00012 0.994634
1.00254 0.999968 0.989991
1.00281 1.00012 0.990837
0.999948 1.00137 0.997465
1.00258 1.00128 0.990815
1.00292 0.999997 0.990792
1.00495 0.999977 0.987057
1.00499 1.00046 0.986556
1.00483 1.00098 0.986316
1.00527 1.00028 0.985587
1.00241 0.999905 0.990749
1.00258 1.00008 0.991204
1.00481 0.999341 0.987623
1.00489 0.99996 0.987168
1.00039 1.00068 0.997369
1.00151 1.0025 0.990475
1.00434 1.00166 0.986067
1.00498 1.0001 0.986831
1.00527 0.998714 0.987354
1.00527 1.00081 0.985063
1.00527 0.999866 0.986062
1.00521 0.998848 0.986983
1.00061 1.0028 0.990925
1.00145 1.005 0.987385
1.0048 0.999413 0.98734
1.00484 0.999626 0.987597
1.00532 0.997984 0.988078
1.00526 0.998082 0.988008
1.00529 0.999132 0.986815
1.00522 0.996718 0.989301
1.00088 1.00302 0.990199
1.00522 0.997906 0.987932
1.00374 1.00224 0.986055
1.00525 1.00133 0.984448
1.00521 1.00005 0.985892
1.00519 0.997212 0.988742
1.00239 1.00407 0.986696
1.00084 1.00508 0.988311
1.00287 1.00402 0.986145
1.00288 0.999966 0.989855
0.999935 0.999704 0.99806
0.9999 1.00189 0.99303
1.00262 1.00029 0.989953
1.00506 1.00025 0.985945
1.0008 1.00283 0.990582
1.00378 1.00208 0.986161
1.0048 1.00071 0.985953
1.00527 1.00116 0.984709
1.00031 1.00257 0.991701
0.999979 1.00069 0.994107
1.00095 1.00477 0.988436
1.00509 1.00011 0.986085
1.00498 1.00041 0.985938
1.00533 0.99965 0.986134
1.00289 1.00321 0.986697
1.00531 1.00062 0.985201
1.00502 1.00168 0.984563
1.00527 1.00051 0.985164
1.00001 0.999971 0.994848
1.00199 1.00423 0.987432
1.00068 1.004 0.989855
1.00193 1.00443 0.987292
1.00533 0.999115 0.986732
1.00532 1.00016 0.985612
1.00526 0.998182 0.987571
1.00441 1.00188 0.985336
1.00526 0.999562 0.986326
1.00518 1.00131 0.984792
1.00522 0.999941 0.985851
1.00022 1.00137 0.993114
1.00024 0.998896 0.995516
0.999908 0.997617 0.998937
0.999845 0.997916 0.998855
0.999794 0.998294 0.99874
1.00007 1.0019 0.992703
0.999934 0.999792 0.998029
1.00034 1.00248 0.991718
1.00016 1.00035 0.997648
1.00284 1.00006 0.989862
1.00265 1 0.990269
1.00499 0.999782 0.986595
1.00486 0.999433 0.987177
1.00245 0.999888 0.99074
1.00088 0.999973 0.997156
1.00242 0.99987 0.990795
1.00483 0.999344 0.987353
1.00495 0.999585 0.986902
1.00535 0.997526 0.988454
1.00506 0.99996 0.986307
1.00532 0.998159 0.987813
1.0048 0.999344 0.987391
1.00537 0.997343 0.988615
1.00533 0.997796 0.98821
1.00519 0.995109 0.991061
1.00533 0.998606 0.987306
1.00527 0.995979 0.989992
1.00242 0.999902 0.990756
1.00273 1.00005 0.991044
1.00484 0.999309 0.987329
1.00492 1.00007 0.987063
1.0005 1.00073 0.997258
1.00183 1.00231 0.991096
1.00431 1.00193 0.986303
1.00499 1.00013 0.986793
1.00527 0.998401 0.987641
1.00528 0.999959 0.986073
1.00527 1.00073 0.985127
1.00522 0.998857 0.987005
1.00065 1.00271 0.990911
1.00155 1.00488 0.987387
1.00481 0.999268 0.987439
1.00486 0.999602 0.987576
1.00532 0.997773 0.988328
1.00526 0.998398 0.987687
1.00095 1.0029 0.990202
1.00369 1.00245 0.986057
1.00524 1.00141 0.984394
1.00529 0.999313 0.986667
1.00523 0.996428 0.989574
1.00522 0.99989 0.986059
1.00522 0.997918 0.987942
1.00519 0.997144 0.988707
1.00234 1.00413 0.986698
1.00267 1.00384 0.986157
1.00092 1.00498 0.988322
1.00535 0.997752 0.988293
1.00527 0.997945 0.988247
1.00523 0.995572 0.990537
1.00523 0.995802 0.990147
1.00522 0.996896 0.988901
1.00526 0.995266 0.990555
1.00316 1.00304 0.986323
1.0052 0.996074 0.989608
1.00515 1.00193 0.984238
1.00522 1.00096 0.984772
1.00518 0.99868 0.987206
1.00516 0.996333 0.98959
1.00043 1.00471 0.98941
1.00411 1.00234 0.985617
1.00156 1.00497 0.986917
1.00453 1.00258 0.985258
1.00507 1.00013 0.986064
0.999966 1.00065 0.994153
1.00016 1.00273 0.991717
1.0006 1.00499 0.988418
1.00499 1.00039 0.985921
1.00533 0.999659 0.98611
1.0029 1.0031 0.986706
1.00516 1.00168 0.984541
1.00532 1.00069 0.985131
1.00526 1.00031 0.985301
1.00003 0.999861 0.994885
1.00186 1.00425 0.987423
1.0005 1.00413 0.989871
1.00181 1.00454 0.987272
1.00533 0.999122 0.98671
1.00533 1.00016 0.985586
1.00526 0.998174 0.987563
1.00457 1.00177 0.985352
1.00525 0.999681 0.986167
1.00517 1.00118 0.984759
1.00521 0.999851 0.985993
1.00015 0.999274 0.995303
1.00038 1.00308 0.991243
1.00321 1.00288 0.986395
1.00119 1.00503 0.988427
1.00316 1.00278 0.98707
1.00527 0.997431 0.988368
1.00526 0.99889 0.986816
1.00522 0.997055 0.988557
1.00475 1.0013 0.985205
1.0052 0.998786 0.987018
1.00493 1.00084 0.98544
1.0003 1.00158 0.992783
1.0003 1.00285 0.991537
1.00013 1.00127 0.993386
1.00021 1.00137 0.993111
1.00022 0.998658 0.996327
1.00022 0.998855 0.995871
1.00009 0.997306 0.997665
0.999911 0.997562 0.998955
0.999837 0.997832 0.998897
0.999886 1.00104 0.993846
0.999847 0.999177 0.998364
1.00012 1.00191 0.992679
1.00004 0.999844 0.997926
1.00046 1.00235 0.991697
1.00028 1.00045 0.997546
1.00504 0.999975 0.986291
1.00492 0.999592 0.986904
1.00532 0.998178 0.987793
1.00534 0.997538 0.988454
1.00481 0.999354 0.987353
1.00241 0.99986 0.990794
1.0048 0.999345 0.987393
1.00537 0.997347 0.988617
1.00532 0.997811 0.988199
1.00522 0.995072 0.991053
1.00533 0.998612 0.987288
1.00527 0.99597 0.989993
1.00536 0.99733 0.988643
1.00522 0.994983 0.991181
1.00521 0.99541 0.99068
1.00516 0.994951 0.991232
1.00528 0.996714 0.989181
1.00527 0.995027 0.990656
1.00481 0.999124 0.98754
1.00488 0.999593 0.987556
1.00532 0.997583 0.988578
1.00525 0.998722 0.987366
1.00102 1.00282 0.990209
1.00349 1.00279 0.986064
1.00523 1.00151 0.98434
1.00529 0.999495 0.986519
1.00524 0.996145 0.989848
1.00521 0.997929 0.987952
1.00522 0.999728 0.986225
1.00518 0.997073 0.988672
1.00236 1.0042 0.986698
1.0026 1.00368 0.986171
1.00104 1.00484 0.988333
1.00535 0.997611 0.988423
1.00527 0.997921 0.988246
1.00522 0.995392 0.990757
1.00523 0.99601 0.989946
1.00313 1.00318 0.986314
1.00509 1.00191 0.984269
1.00522 1.00107 0.984664
1.00522 0.997199 0.98862
1.00525 0.99515 0.990618
1.00519 0.998617 0.987158
1.0052 0.996113 0.989593
1.00516 0.996197 0.989671
1.00404 1.00252 0.985602
1.00433 1.00259 0.985096
1.00057 1.00448 0.989429
1.0014 1.00497 0.98707
1.00522 0.995052 0.991146
1.00524 0.995809 0.990161
1.00514 0.994955 0.991201
1.00527 0.99491 0.990831
1.00521 0.995413 0.990242
1.00528 0.994912 0.990699
1.00504 1.00169 0.984815
1.00521 0.995131 0.990377
1.00515 1.00201 0.98388
1.00518 1.00039 0.985277
1.00517 0.997924 0.987721
1.00519 0.996261 0.989584
1.00026 1.00384 0.990537
1.00086 1.00514 0.987985
1.00507 1.00187 0.984512
1.00248 1.00444 0.9864
1.00492 1.00321 0.984088
1.00002 0.999761 0.994922
1.00533 0.999129 0.986689
1.00033 1.00419 0.989887
1.0018 1.00425 0.987413
1.0017 1.0046 0.987254
1.00533 1.00017 0.985561
1.00526 0.998165 0.987556
1.00487 1.0014 0.985369
1.00519 1.00108 0.984728
1.00525 0.999796 0.986009
1.00521 0.999771 0.986135
1.00015 0.999219 0.995329
1.00029 1.00311 0.991267
1.00343 1.00275 0.986399
1.00081 1.00507 0.98842
1.00283 1.00277 0.987278
1.00527 0.997416 0.988362
1.00525 0.998879 0.98681
1.00523 0.997014 0.988544
1.00495 1.00126 0.985172
1.0052 0.998862 0.986869
1.005 1.00084 0.985515
1.00036 1.00208 0.992228
1.00066 1.00437 0.989851
1.00445 1.00114 0.986073
1.0014 1.00482 0.988177
1.00378 1.00062 0.988264
1.00524 0.996311 0.989374
1.00521 0.997849 0.987702
1.00524 0.996282 0.988934
1.00473 1.00106 0.985323
1.005 0.999533 0.986246
1.0003 1.00157 0.992785
1.00031 1.00289 0.991343
1.00015 1.003 0.991498
1.00045 1.00318 0.991166
1.00021 1.00285 0.99172
1.00005 1.00118 0.993574
1.00012 1.00124 0.993393
1.00021 0.998554 0.996442
1.0002 1.00139 0.993107
1.00023 0.99865 0.996346
1.00016 0.997069 0.997752
1.00021 0.998833 0.996218
1.00002 0.997316 0.998334
0.999921 0.997485 0.998972
0.999795 1.00013 0.994912
0.999919 1.00111 0.993819
0.999749 0.998514 0.998729
0.999938 0.999305 0.998234
1.00018 1.00191 0.992655
1.00013 0.999969 0.997819
1.00533 0.998615 0.98727
1.00532 0.997806 0.988189
1.00526 0.995947 0.989994
1.00524 0.995048 0.991045
1.00536 0.997353 0.988618
1.0048 0.999347 0.987395
1.00536 0.997333 0.988644
1.00521 0.994977 0.991189
1.00523 0.995387 0.990682
1.00515 0.994948 0.991198
1.00528 0.996678 0.989174
1.00527 0.995027 0.990668
1.00522 0.994996 0.991188
1.00513 0.994955 0.991317
1.00523 0.994931 0.990983
1.00523 0.994945 0.991061
1.00527 0.995578 0.990107
1.00528 0.994902 0.990755
1.00535 0.997468 0.988552
1.00527 0.997908 0.988245
1.00522 0.995203 0.990977
1.00524 0.996211 0.989744
1.00309 1.00332 0.986305
1.00507 1.00189 0.984296
1.00521 1.00112 0.984556
1.00521 0.997499 0.988339
1.00524 0.995033 0.99068
1.00521 0.996155 0.989577
1.00519 0.998557 0.987112
1.00516 0.996042 0.989754
1.00374 1.00287 0.985588
1.00387 1.00264 0.984934
1.00072 1.0043 0.989448
1.00135 1.00499 0.987225
1.00522 0.995059 0.99114
1.00523 0.995817 0.990192
1.00515 0.994953 0.9912
1.00526 0.994911 0.990824
1.00474 1.00206 0.984797
1.00515 1.00206 0.983833
1.00516 1.00037 0.985253
1.00522 0.995558 0.990114
1.00528 0.994902 0.99067
1.00515 0.997966 0.987706
1.0052 0.995139 0.99036
1.00518 0.996053 0.989719
1.00494 1.00201 0.98453
1.00468 1.00335 0.983934
1.00241 1.00449 0.986409
1.00026 1.00371 0.990533
1.00072 1.00514 0.988122
1.00514 0.994963 0.991237
1.00523 0.994938 0.991002
1.00527 0.994901 0.990636
1.00525 0.994907 0.990646
1.0051 1.00261 0.983808
1.00522 0.995114 0.990375
1.00505 1.0017 0.983975
1.00512 0.999943 0.985634
1.00514 0.997637 0.987887
0.999903 1.00269 0.991933
1.00048 1.00495 0.989165
1.0013 1.00509 0.987786
1.00511 1.00297 0.983513
1.00303 1.00431 0.985241
1.00496 1.00346 0.983074
1.00015 0.999181 0.995354
1.00021 1.00316 0.991292
1.00526 0.997402 0.988356
1.0004 1.00511 0.988411
1.00344 1.00286 0.986403
1.00253 1.00283 0.987486
1.00525 0.99887 0.986803
1.00523 0.996974 0.98853
1.00512 1.00119 0.985138
1.00505 1.00086 0.98559
1.00519 0.998925 0.986721
1.00031 1.0021 0.992239
1.00031 1.00454 0.989857
1.00459 1.00099 0.986127
1.00111 1.00501 0.988122
1.00356 1.00039 0.988253
1.00524 0.996267 0.989378
1.00522 0.997863 0.98768
1.00525 0.996334 0.988927
1.00477 1.00109 0.985351
1.00501 0.999639 0.986249
1.00044 1.00343 0.99091
0.999893 1.00505 0.989464
1.0049 1.0006 0.985905
1.00147 1.00275 0.988729
1.00501 0.999404 0.987558
1.00526 0.995348 0.989987
1.00523 0.997793 0.987579
1.00526 0.996522 0.98852
1.00477 1.00027 0.985963
1.00509 0.999481 0.986258
1.00029 1.00156 0.992787
1.00032 1.00294 0.991354
1.00005 1.00338 0.991196
1.00004 1.00309 0.991461
1.00012 1.00295 0.991709
1.00015 1.0034 0.991194
0.999986 1.0031 0.991859
1.00004 1.00363 0.990966
1.0001 1.00282 0.991917
1.00002 1.00128 0.993539
1.00005 1.00117 0.993574
1.00014 0.998551 0.996536
1.00011 1.0012 0.9934
1.00022 0.998552 0.996457
1.00018 0.996952 0.997812
1.00025 0.998631 0.996367
1.00013 0.997075 0.997755
0.999942 0.997311 0.999021
0.999853 0.999265 0.995708
0.999808 1.00021 0.994868
0.999697 0.998042 0.998951
0.99996 1.00113 0.993793
0.999816 0.998675 0.998598
1.00003 0.999359 0.998113
1.00528 0.996642 0.989167
1.00525 0.995376 0.990685
1.00527 0.995029 0.990681
1.00515 0.994945 0.991165
1.00521 0.994964 0.991197
1.00536 0.997337 0.988644
1.00522 0.994989 0.991208
1.00513 0.994963 0.991332
1.00522 0.994925 0.99102
1.00522 0.994941 0.991029
1.00526 0.995566 0.990129
1.00528 0.994898 0.990704
1.00514 0.994972 0.991301
1.00523 0.994936 0.991098
1.00526 0.994928 0.990863
1.00526 0.99498 0.990531
1.00521 0.995067 0.991135
1.00523 0.995816 0.990223
1.00517 0.99495 0.9912
1.00526 0.994911 0.990818
1.00458 1.00221 0.984781
1.00515 1.00211 0.983789
1.00516 1.00041 0.98523
1.00523 0.995691 0.989986
1.00528 0.994891 0.990643
1.0052 0.995148 0.990343
1.00513 0.997983 0.987689
1.00518 0.995843 0.989851
1.00477 1.00214 0.984548
1.00468 1.00306 0.983777
1.00225 1.00452 0.986418
1.00028 1.00352 0.990538
1.00063 1.00513 0.988261
1.00514 0.994963 0.991228
1.00524 0.994938 0.990995
1.00527 0.994901 0.990661
1.00497 1.00256 0.983849
1.00506 1.00185 0.983931
1.0051 0.999998 0.98562
1.00524 0.99492 0.990618
1.00517 0.997428 0.988175
1.0052 0.995156 0.990306
0.999968 1.00245 0.992156
1.00505 1.00273 0.983544
1.00469 1.00371 0.983227
1.00328 1.00416 0.985368
1.00133 1.00509 0.987895
1.00039 1.00499 0.989077
1.00522 0.994953 0.991073
1.00526 0.994917 0.990787
1.00526 0.99489 0.990601
1.00521 0.994879 0.990599
1.00509 1.0027 0.983514
1.00519 0.995692 0.989681
1.00501 1.00162 0.984204
1.00504 1.00028 0.985564
1.00002 1.00088 0.993617
0.999976 1.00435 0.99059
1.00083 1.0051 0.988854
1.00204 1.00503 0.98643
1.00499 1.00355 0.982974
1.0047 1.00402 0.983047
1.00026 1.00211 0.992249
1.00002 1.00462 0.989865
1.00524 0.996223 0.989382
1.00077 1.00514 0.988067
1.00477 1.00083 0.986181
1.00328 1.00042 0.988231
1.00522 0.997877 0.987658
1.00525 0.996392 0.988917
1.00484 1.00117 0.985378
1.00506 0.99976 0.986252
1.00029 1.0035 0.990917
1.00019 1.00502 0.989301
1.00501 1.00049 0.985905
1.00163 1.00294 0.98877
1.00489 0.99945 0.987187
1.00527 0.995349 0.990077
1.00524 0.997713 0.987747
1.00526 0.996671 0.988513
1.00474 1.00034 0.986036
1.00504 0.999657 0.986056
0.999668 1.00394 0.99079
1.00026 1.00504 0.988838
1.00488 1.00015 0.986262
1.0036 1.00023 0.987552
1.00531 0.994852 0.990265
1.00524 0.996092 0.989586
1.00513 0.998771 0.986585
1.00513 0.999478 0.986071
1.00036 1.00293 0.991364
1.00017 1.00336 0.991193
0.999596 1.00376 0.99204
1.00004 1.00309 0.991699
0.99984 1.00361 0.991223
1.00007 1.00286 0.991906
0.999764 1.00312 0.992095
1.00008 1.00372 0.990934
0.999612 1.002 0.993477
0.999829 1.00401 0.991219
0.999991 1.00384 0.990829
1.00016 1.00281 0.991848
0.999985 1.00153 0.993288
0.999995 1.00127 0.993533
1.00005 0.998623 0.996611
1.00004 1.00115 0.993575
1.00015 0.998571 0.996547
1.00014 0.996959 0.997864
1.00022 0.998558 0.996475
1.00016 0.996952 0.997814
1.0001 0.997089 0.997752
0.999985 0.998581 0.996207
0.999853 0.999377 0.995647
0.999713 0.997612 0.999089
0.999809 1.00034 0.994823
0.999736 0.998117 0.998895
0.999912 0.998794 0.998455
1.00526 0.995551 0.990151
1.00521 0.99492 0.991056
1.00528 0.994892 0.990654
1.00522 0.994936 0.990998
1.00513 0.994968 0.991348
1.00521 0.994976 0.991227
1.00513 0.994969 0.991309
1.00523 0.994938 0.991103
1.00525 0.994923 0.990857
1.00525 0.99497 0.990567
1.00523 0.994949 0.991127
1.00527 0.994919 0.990949
1.00529 0.994882 0.990689
1.00514 0.994964 0.991218
1.00524 0.994938 0.990988
1.00527 0.994903 0.990686
1.00488 1.00255 0.983887
1.00508 1.00196 0.983883
1.00506 0.999976 0.985603
1.00524 0.994941 0.99059
1.00519 0.995213 0.990236
1.00519 0.997172 0.988462
1.00499 1.00273 0.983573
1.00437 1.00375 0.983382
1.0036 1.00411 0.985495
1.00003 1.00225 0.992384
1.00123 1.00508 0.988002
1.00023 1.00507 0.988984
1.00523 0.994954 0.991083
1.00526 0.994917 0.990763
1.00526 0.994891 0.990592
1.005 1.00273 0.983561
1.00494 1.00158 0.984148
1.00506 0.999921 0.985919
1.00521 0.99488 0.990555
1.00516 0.995758 0.98962
1.00004 1.0008 0.993834
0.999951 1.00439 0.990567
1.00495 1.00297 0.982948
1.00425 1.00419 0.983728
1.00216 1.00496 0.986633
1.00069 1.0051 0.988703
1.00527 0.994924 0.990944
1.00529 0.994879 0.990515
1.00525 0.99487 0.990586
1.00515 0.995095 0.99034
1.00443 1.00272 0.983684
1.0051 0.998163 0.987479
1.00488 1.00216 0.984094
1.00022 1.00004 0.994457
1.00035 1.00112 0.993256
0.999789 1.00243 0.992561
1.00022 1.00506 0.989513
1.00093 1.00511 0.987872
1.00244 1.0044 0.985244
1.00454 1.00359 0.983436
1.00411 1.0043 0.98459
1.00013 1.0037 0.990923
1.00038 1.00512 0.989138
1.00528 0.995347 0.990166
1.00177 1.00286 0.988816
1.00508 1.00037 0.985909
1.00487 0.999554 0.986825
1.00525 0.997604 0.987918
1.00526 0.996782 0.988511
1.0048 1.00037 0.986105
1.005 0.999779 0.985857
0.999894 1.00397 0.990654
1.00041 1.00505 0.988807
1.00507 0.999991 0.986272
1.00394 1.00043 0.987581
1.00532 0.99485 0.990302
1.00525 0.996005 0.989475
1.00509 0.998729 0.986685
1.00513 0.999593 0.986024
0.999875 1.00414 0.990414
1.00535 0.9949 0.990294
1.00214 1.0042 0.987937
1.00481 0.999526 0.986855
1.00524 0.995225 0.990483
1.0051 0.997856 0.986596
1.00491 1.00075 0.985474
1.00023 1.00339 0.991189
0.999605 1.00358 0.991953
0.998949 1.0033 0.993948
1.00006 1.00282 0.991896
1.00011 1.00382 0.990902
0.999177 1.00351 0.992329
1.00013 1.00279 0.991839
0.999913 1.00396 0.990848
0.999066 1.00237 0.993731
0.999964 1.00386 0.991158
0.99938 1.0006 0.995933
0.99926 1.00294 0.993083
0.999768 1.00464 0.990393
1.00037 1.00382 0.990407
1.00016 1.00313 0.991453
0.999912 1.00196 0.992978
0.999926 1.00166 0.99327
0.999937 0.998859 0.996612
0.999964 1.00134 0.993526
1.00006 0.998673 0.996607
1.00005 0.997019 0.997932
1.00016 0.998584 0.99656
1.00015 0.996947 0.997862
1.00016 0.996954 0.997811
1.00019 1.00019 0.994405
1.00008 0.998212 0.996431
0.999985 0.998651 0.996168
0.999799 0.997231 0.999168
0.999849 0.999484 0.995587
0.999738 0.997709 0.999055
0.999784 0.998225 0.998815
1.00524 0.99496 0.990603
1.00525 0.994919 0.99085
1.00523 0.99494 0.991107
1.00513 0.994968 0.991317
1.00523 0.994948 0.99112
1.00527 0.994918 0.990964
1.00526 0.994889 0.990665
1.00528 0.994918 0.990992
1.00533 0.994921 0.990754
1.00538 0.994971 0.99113
1.00523 0.994955 0.991093
1.00525 0.994917 0.990739
1.00526 0.994892 0.990583
1.00487 1.00276 0.98361
1.00491 1.0019 0.984106
1.00492 0.999656 0.986274
1.0052 0.994882 0.990512
1.00511 0.995928 0.989559
1.0048 1.00312 0.982926
1.00381 1.00459 0.984401
1.00203 1.00484 0.986836
1.00003 1.00068 0.99405
1.00005 1.00434 0.990547
1.00066 1.0051 0.988548
1.00527 0.994923 0.990928
1.00018 1.00007 0.99445
1.00026 1.00119 0.993146
1.00529 0.994889 0.990528
1.00523 0.994869 0.990594
1.0049 1.00276 0.98359
1.00467 1.00211 0.984256
1.00507 0.997961 0.987382
1.00516 0.994995 0.990257
0.999836 1.00245 0.992734
1.00025 1.00501 0.989468
1.00462 1.0038 0.983198
1.00344 1.00398 0.98504
1.00276 1.00459 0.98545
1.00103 1.00509 0.987871
1.00534 0.994896 0.9907
1.00529 0.994839 0.990487
1.00518 0.994863 0.990403
1.00512 0.995025 0.990252
1.00415 1.00287 0.984418
1.00433 1.00198 0.985259
1.00006 1.00187 0.992635
1.00019 1.00109 0.993476
1.00104 1.00054 0.992913
1.0003 1.00327 0.991021
1.00043 1.00509 0.989104
1.0024 1.00439 0.986762
1.00167 1.00497 0.985676
1.00381 1.00062 0.986329
1.00024 1.00383 0.990518
1.00073 1.00505 0.988776
1.00533 0.994848 0.990338
1.00526 0.995992 0.989366
1.00433 1.00058 0.987607
1.00516 0.99986 0.98628
1.00506 0.998719 0.986781
1.00514 0.999715 0.98598
1.00023 1.00399 0.990333
1.00536 0.994896 0.990522
1.00179 1.00414 0.988072
1.00498 0.999634 0.986668
1.00524 0.995194 0.990486
1.00506 0.998075 0.986815
1.00489 1.00058 0.985486
1.00011 1.00487 0.99007
1.00484 0.994824 0.991082
1.00298 1.00253 0.987611
1.00466 1.00112 0.98529
1.00488 0.995953 0.98972
1.00373 1.00128 0.985954
0.998809 0.995918 0.987081
0.999493 1.00354 0.991869
0.99848 1.00344 0.993938
0.999146 1.00231 0.994893
1.00005 1.00287 0.99183
0.999864 1.00412 0.990868
1.00027 1.00353 0.991101
0.998742 1.00248 0.993993
1.00011 1.0032 0.991453
1.00025 1.00391 0.990445
0.999407 1.00073 0.99534
0.999866 1.00463 0.990403
0.999569 1.00284 0.992758
0.998822 1.00118 0.996357
1.00024 1.0046 0.989982
1.00012 1.00463 0.990216
1.00062 1.00399 0.989977
1.00014 1.00364 0.990794
1.0003 1.00425 0.990359
1.00012 1.00382 0.99059
0.999921 1.00208 0.99284
0.99994 1.00194 0.992958
0.999823 0.999021 0.996025
0.999933 1.00165 0.993249
0.999929 0.99892 0.996289
1.00001 0.997195 0.999113
1.00007 0.998724 0.996604
1.00007 0.996994 0.997933
1.00015 0.996937 0.997856
1.00008 1.00021 0.994474
1.0002 1.00008 0.994434
1.0001 0.998098 0.996553
1.00007 0.998227 0.996697
0.999877 0.997016 0.999211
0.999978 0.998727 0.99613
0.999797 0.997334 0.999149
0.999764 0.997773 0.999023
1.00524 0.994895 0.990641
1.00526 0.994915 0.99098
1.00523 0.994948 0.991113
1.00528 0.994918 0.990991
1.00533 0.994916 0.990749
1.00537 0.994954 0.990785
1.00537 0.994902 0.99078
1.00131 0.994949 0.982932
1.00455 0.994934 0.992582
1.00003 1.00158 0.993192
1.00527 0.994922 0.990912
1.00529 0.994898 0.990541
1.00522 0.994866 0.990601
1.00493 1.00236 0.983483
1.00486 1.00183 0.984409
1.0051 0.997874 0.987293
1.00518 0.994993 0.990175
1.0049 1.00355 0.982969
1.00317 1.00368 0.985501
1.00279 1.00476 0.985661
1.00014 1.00014 0.994444
1.00125 1.00511 0.98787
0.999831 1.00245 0.992897
1.00027 1.00502 0.98942
1.00026 1.00115 0.993035
1.00534 0.994882 0.990696
1.00005 1.00189 0.992749
1.00012 1.0012 0.993484
1.00084 1.00053 0.993103
1.0053 0.994844 0.990455
1.00517 0.994865 0.990372
1.00354 1.00349 0.984489
1.00462 1.00088 0.985812
1.00511 0.995184 0.990163
0.999971 1.00343 0.991193
1.00057 1.0051 0.988934
1.00377 1.00213 0.986048
1.00238 1.0048 0.985538
1.00227 1.00416 0.987004
1.00529 0.994827 0.990929
1.00518 0.994755 0.990825
1.00513 0.995079 0.989888
1.00494 0.997138 0.989751
1.00213 1.0028 0.987872
0.999672 1.00315 0.99196
1.00089 1.00082 0.992524
1.00002 1.00092 0.992935
1.00007 1.00463 0.99101
1.00026 1.00513 0.989421
1.00075 1.00452 0.987966
1.00254 1.00051 0.988899
1.00077 1.00378 0.990251
1.00121 1.00406 0.988208
1.00538 0.994886 0.990738
1.00525 0.995106 0.990482
1.00505 0.998222 0.987035
1.00503 0.999693 0.986479
1.00484 1.0004 0.985502
1.0005 1.00467 0.990076
1.00464 0.99484 0.991271
1.00303 1.00223 0.987537
1.00485 1.00106 0.985212
1.005 0.995767 0.989947
1.00393 1.00126 0.986036
0.998702 0.996842 0.985191
1.00017 1.0043 0.990359
1.00307 0.996445 0.991177
1.00362 1.00194 0.986111
1.00306 1.00112 0.987
1.00313 0.997622 0.990828
0.999963 0.994916 0.946629
0.995755 0.994818 0.966985
0.995588 1.00037 0.988229
0.999456 0.994793 0.86912
0.994708 0.994814 0.833887
0.998138 1.00357 0.993931
0.998321 1.00285 0.995184
0.998384 1.00267 0.995929
1.00008 1.00323 0.991454
1.00032 1.00369 0.990481
0.999985 1.00454 0.990415
0.999807 1.00276 0.992424
0.999408 1.00096 0.99474
1.00015 1.00444 0.990205
1.00014 1.00363 0.990884
1.00055 1.00396 0.990034
0.999022 1.0006 0.995812
0.999992 1.00459 0.990286
1.00032 1.00458 0.99031
0.999125 1.00477 0.991388
1.00012 1.00461 0.990182
1.00053 1.00443 0.989448
1.00024 1.00371 0.990584
1.0004 1.00464 0.989613
1.0005 1.00407 0.99027
0.999748 1.00451 0.990755
1.0002 1.00435 0.99027
1.00022 1.00355 0.990982
1.00016 1.00382 0.990576
0.999947 1.00207 0.99283
0.999935 1.00208 0.992843
0.999794 0.99912 0.996022
0.999918 1.00202 0.992941
0.999815 0.999061 0.996016
0.999961 0.997208 0.999136
0.999915 0.998991 0.995967
0.999997 0.997193 0.998516
1.00009 0.996971 0.997931
0.999966 1.00015 0.994701
1.00009 1.00023 0.994478
1.0001 0.99799 0.996677
1.00022 0.999986 0.994462
1.0001 0.998039 0.996822
0.999929 0.996801 0.999248
1.00007 0.998279 0.996406
0.999868 0.997098 0.999195
0.999803 0.997407 0.999131
1.00532 0.994911 0.990745
1.00528 0.994919 0.990991
1.00536 0.994963 0.990451
1.0008 0.994875 0.983057
1.00537 0.994897 0.990794
1.00445 0.995143 0.992267
1.00504 0.996347 0.991299
0.996365 0.99492 0.966086
1.00103 0.996109 0.985178
1.00008 1.00139 0.993361
1.00006 1.00162 0.993161
0.999672 1.00319 0.992121
0.999846 1.00229 0.992759
1.00534 0.994876 0.990692
1.00531 0.994854 0.990424
1.00517 0.994873 0.990341
1.00445 1.00368 0.984559
1.00453 0.99916 0.986365
1.00499 0.995382 0.990067
1.00336 1.00315 0.985772
1.00365 1.00467 0.985393
1.00215 1.00335 0.987238
1.00001 1.00142 0.993493
1.00056 1.00506 0.988767
1.00001 1.00348 0.991368
1.00001 1.00202 0.992862
1.00053 1.00065 0.99328
1.00529 0.994833 0.990934
0.999942 1.00304 0.991886
1.00098 1.00063 0.99275
0.999135 1.00129 0.994488
1.00518 0.994785 0.990728
1.00514 0.995092 0.989894
1.00324 1.00153 0.987841
1.00458 0.996456 0.990158
1.0003 1.00433 0.990517
1.00043 1.005 0.988809
1.00213 1.00241 0.988751
1.00214 1.00392 0.987472
1.00439 0.994896 0.991788
1.00501 0.994832 0.991232
1.00494 0.99618 0.989401
1.00301 0.997924 0.992209
0.998854 1.00404 0.992502
1.00075 1.00138 0.992025
0.998339 1.00474 0.992646
0.99913 1.00481 0.990511
0.999977 0.994892 0.93465
1.00065 1.00456 0.990077
1.00303 1.00222 0.987461
1.00436 0.994865 0.991488
1.00508 0.995667 0.990169
1.00406 1.00124 0.986101
1.00474 1.00106 0.98513
0.998568 0.997371 0.983179
1.00027 1.00416 0.990761
1.00292 0.996668 0.991129
1.00346 1.00225 0.986163
1.00363 1.00096 0.987055
1.00359 0.997686 0.990523
1.00031 0.994892 0.934606
0.996095 0.99481 0.963182
0.995672 1.00115 0.9883
0.998769 0.9948 0.873674
0.994708 0.994818 0.823459
1 1.00404 0.990981
0.999786 0.994846 0.880194
0.994708 0.994785 0.827636
1.00037 0.999927 0.992313
1.00187 1.00186 0.989244
1.00139 0.999446 0.992511
0.995033 1.00091 0.989997
0.998429 0.994851 0.9446
0.994894 0.994782 0.959703
0.996839 0.994859 0.888996
0.994723 0.994808 0.819178
0.99767 1.00324 0.995482
0.998094 1.00216 0.995783
0.998373 1.00431 0.994247
1.00019 1.00357 0.990973
1.00048 1.00398 0.990093
0.999737 1.00477 0.990195
0.999778 1.00461 0.99059
0.999351 0.999787 0.995269
1.00023 1.00373 0.990586
1.00007 1.00484 0.990244
1.00003 1.00471 0.990089
1.00066 1.00426 0.989577
0.999057 1.0047 0.991632
0.999561 1.00494 0.991107
0.998267 1.00492 0.992297
1.00026 1.00482 0.989599
1.00049 1.00447 0.989677
1.00046 1.00456 0.989611
1.00036 1.00387 0.99045
1.00044 1.00488 0.989506
0.999937 1.00411 0.990933
0.999599 1.00324 0.99117
0.999592 1.005 0.990497
0.999633 1.00472 0.99058
0.999891 1.00429 0.990784
1.0001 1.00346 0.991178
1.00011 1.00436 0.990182
1.00021 1.00353 0.990929
1.00001 1.00207 0.992747
1.00023 1.00378 0.990563
0.999945 1.00206 0.99284
0.999938 0.99909 0.996494
0.999916 1.0021 0.992846
0.999827 0.999088 0.996291
0.999919 0.997212 0.997976
0.999808 0.99908 0.996007
0.999958 0.997224 0.999142
0.999999 0.997212 0.997917
1.00016 1.00138 0.99318
0.999932 1.00012 0.994799
0.999976 1.00016 0.994696
1.00007 0.997959 0.996743
1.00008 1.00023 0.994481
1.00011 0.997948 0.996678
0.999971 0.996703 0.999271
1.00009 0.998028 0.997062
0.999942 0.996928 0.998708
0.999909 0.997164 0.998115
1.00031 0.994862 0.983178
1.00536 0.994895 0.990808
1.00416 0.995996 0.991944
0.996519 0.994929 0.966834
1.00099 0.995736 0.98553
1.00506 0.995729 0.991262
1.00337 0.996524 0.987037
0.99698 0.99546 0.969611
0.999979 0.994877 0.944276
0.998992 0.994841 0.890394
0.994652 0.99478 0.832744
0.999764 1.00238 0.992651
1.0001 1.00135 0.993349
1.00015 1.00156 0.99313
0.999839 1.00291 0.992191
0.999427 1.00378 0.992144
1.0004 1.00209 0.991951
1.00009 1.00287 0.992114
1.00002 1.00216 0.992602
1.0053 0.99482 0.990934
1.0052 0.994795 0.990633
1.00515 0.99505 0.989898
1.00327 1.0014 0.987814
1.00441 0.996019 0.990573
1.00237 1.00347 0.988586
1.00342 1.00386 0.986983
1.00089 1.00514 0.988204
1.00081 1.0005 0.992978
1.00027 1.00439 0.990006
1.00031 1.0028 0.991822
0.998572 1.00124 0.996019
1.0043 0.994797 0.992039
0.999109 1.00381 0.992485
1.00055 1.0018 0.992377
1.00484 0.994854 0.991187
1.00486 0.995772 0.989657
1.00262 0.997735 0.991815
0.999453 1.00515 0.99128
1.00068 1.00362 0.990712
1.00317 0.994796 0.99186
1.00418 0.997937 0.990446
1.00485 0.995676 0.990226
1.00098 0.998735 0.993202
0.999566 1.00483 0.99054
0.999183 1.0041 0.992018
0.999296 1.00519 0.991654
0.999805 0.99491 0.882894
1.0003 0.994873 0.947406
1.00047 1.00379 0.99116
1.00365 1.00234 0.98622
1.00283 0.99724 0.991076
1.00406 0.997811 0.990226
1.00406 1.00103 0.987129
0.999983 0.994887 0.945125
0.99613 0.994788 0.962778
0.995904 1.00202 0.988391
0.998318 0.994829 0.889628
0.994709 0.994811 0.812471
1.00001 1.00391 0.990943
0.999803 0.994854 0.879819
0.994675 0.994783 0.821039
1.0006 0.999912 0.992348
1.0019 1.00197 0.989252
1.00139 0.999607 0.992869
0.995295 1.00134 0.990641
0.999328 0.995648 0.938385
0.994851 0.9948 0.961944
0.996553 0.997258 0.888
0.994744 0.994792 0.817894
0.999268 1.00406 0.993383
0.994706 0.994819 0.820196
0.994744 0.99479 0.831525
0.997762 1.0019 0.9963
0.999857 1.00205 0.994026
0.995135 1.00097 0.988529
0.995071 0.995381 0.963003
0.99626 0.994805 0.933548
0.994742 0.998697 0.892651
0.994826 0.994826 0.822042
0.997864 1.00186 0.99564
0.998756 1.00359 0.993998
0.997717 1.00337 0.994868
1.00019 1.00378 0.990587
1.00076 1.00408 0.989705
1.00003 1.00479 0.989994
0.999848 1.00483 0.99018
0.998718 1.00459 0.991876
1.00046 1.00451 0.989671
0.999604 1.0047 0.990871
1.00037 1.00475 0.989598
0.997856 1.00486 0.992745
0.99597 1.00517 0.996152
0.999168 1.00484 0.991446
1.00044 1.0047 0.989607
1.00052 1.00449 0.989609
1.00035 1.00356 0.990624
1.0004 1.00485 0.98947
1.00001 1.00403 0.990863
0.999485 1.00325 0.991877
0.999226 1.00503 0.990916
0.999372 1.00471 0.990898
0.999056 1.00382 0.99225
1.00062 1.00191 0.992128
1.00142 1.00093 0.990675
0.99927 1.00482 0.990824
0.999713 1.00481 0.990537
0.999696 1.00501 0.990074
0.999678 1.00486 0.99058
1.00002 1.00372 0.991019
0.999902 1.00437 0.99081
1.00013 1.00347 0.991187
1.00005 1.00202 0.992667
1.00021 1.00356 0.990877
1 1.00205 0.992765
1.00004 0.999076 0.996319
0.99994 1.00206 0.992851
0.999919 0.999073 0.996154
1.00001 0.997157 0.997867
0.99982 0.999079 0.996
0.999961 0.997211 0.999147
0.999956 0.997226 0.999148
1.00021 1.00175 0.993055
0.999937 1.00026 0.99467
1.0001 1.00151 0.99319
1.00006 0.997946 0.996762
0.99993 1.00012 0.9948
0.999982 1.00019 0.994692
1.00008 0.997947 0.996736
0.999997 0.996643 0.999278
1.00009 0.997942 0.997158
0.999986 0.996706 0.998767
0.999961 0.996942 0.998206
0.999811 0.994846 0.868692
0.994676 0.994764 0.820756
0.996933 0.994898 0.967097
1.00093 0.995277 0.985952
1.00511 0.994959 0.991226
0.996645 0.995483 0.969757
1.00351 0.99567 0.987527
1.00106 0.994888 0.941536
0.999232 0.994793 0.87364
0.994689 0.994793 0.822489
0.998348 0.994866 0.974852
0.999453 0.994891 0.943795
0.996829 0.995208 0.888729
0.994734 0.994785 0.824104
1.00012 1.00326 0.991567
0.999863 1.00217 0.992779
1.00011 1.00136 0.993338
0.999926 1.00274 0.992261
0.999356 1.00367 0.992341
1.00008 1.00372 0.990952
1.00026 1.00276 0.991736
1.00037 1.00357 0.990578
1.00008 1.00284 0.991993
1 1.00233 0.992442
1.00416 0.994775 0.992276
1.00468 0.994814 0.991148
1.00467 0.99537 0.989911
1.00228 0.998162 0.991418
1.00102 1.00376 0.990914
0.99951 1.00523 0.989927
1.00044 1.00192 0.992765
0.999241 1.00382 0.99246
1.00259 0.994833 0.992262
0.99966 1.00499 0.990335
0.998896 1.00429 0.991867
1.00402 0.996846 0.990753
1.00476 0.995731 0.99007
1.001 0.998851 0.993611
0.99928 1.00514 0.991494
1.00048 0.994802 0.992271
1.002 0.998118 0.992732
0.999696 1.00107 0.994501
0.998651 1.00516 0.989927
0.999061 1.00512 0.990471
0.998766 1.00511 0.991794
0.99473 0.994851 0.842514
0.999802 0.994895 0.887645
0.999988 0.994889 0.934945
0.999805 1.00398 0.990894
1.00193 1.00195 0.989245
1.00064 0.999893 0.992386
1.00133 0.999681 0.993235
0.999811 0.994883 0.890824
0.998818 0.994858 0.934513
0.994865 0.994876 0.959825
0.995192 1.0019 0.991238
0.996978 0.994837 0.874363
0.994653 0.994787 0.82584
0.994762 0.994804 0.830427
0.998906 1.00343 0.993128
0.9947 0.99482 0.82967
0.994774 0.994795 0.831029
0.997262 1.00116 0.996954
0.99945 1.00205 0.993923
0.995088 0.999177 0.990974
0.995387 0.994863 0.961434
0.996761 0.998471 0.944181
0.994747 0.998529 0.87751
0.994914 0.994816 0.831973
0.997264 1.00391 0.996032
0.994791 0.994837 0.839832
0.994815 0.994787 0.828538
0.994937 1.00249 0.999971
0.995369 0.997221 0.969723
0.994898 0.999881 0.943822
0.995362 0.996744 0.869483
0.995059 0.99486 0.836748
0.999093 1.00287 0.993718
0.997889 1.00368 0.995057
0.995965 1.00409 0.997387
1.0004 1.00457 0.989665
1.00051 1.0047 0.989599
0.999729 1.00453 0.990635
0.997527 1.00479 0.993196
1.00032 1.00477 0.989628
0.999139 1.00488 0.991428
0.995897 1.0049 0.996561
0.99526 1.00498 0.997935
0.995853 1.00494 0.996729
0.999618 1.00439 0.991206
1.00034 1.00485 0.989432
1.00004 1.00389 0.990792
0.999241 1.00345 0.992569
0.999355 1.00478 0.990914
0.999334 1.00501 0.990934
0.999053 1.00403 0.992333
0.999142 1.00457 0.991593
0.997149 1.00493 0.994639
1.00253 0.997574 0.992478
1.00036 1.00172 0.99252
1.00103 1.00145 0.991321
1.00433 1.00102 0.986921
1.00101 1.00322 0.99051
1.00055 1.00104 0.992221
0.999734 1.00458 0.990603
0.999723 1.00509 0.989751
0.999883 1.00457 0.990578
0.999897 1.00501 0.990083
1.00003 1.00439 0.990362
0.999996 1.00471 0.99058
1.00019 1.00358 0.991003
1.00012 1.00207 0.992543
1.00029 1.00326 0.991197
1.00013 1.00198 0.992674
1.00014 0.999093 0.996145
1.00003 1.002 0.992782
1.00003 0.999079 0.995954
1.00008 0.997196 0.99773
0.999921 0.999054 0.995857
0.999991 0.997176 0.998506
0.999969 0.997197 0.999133
1.0002 1.00238 0.992116
1.00005 1.00039 0.994403
1.00014 1.00179 0.992876
1.00006 0.998006 0.996706
0.999953 1.00023 0.994674
1.00007 1.00155 0.993199
1.00002 0.996611 0.999282
1.00006 0.997946 0.996762
0.999937 1.00013 0.994801
1.00009 0.99793 0.996728
0.999997 0.996667 0.999277
0.999969 0.996691 0.999271
0.994684 0.994794 0.824732
0.999807 0.994856 0.879605
0.994759 0.994775 0.829005
0.994696 0.994771 0.819377
0.996567 0.994904 0.967548
1.0035 0.994888 0.98803
0.999978 0.994886 0.938174
0.999327 0.99483 0.890397
0.994724 0.994805 0.811877
0.998535 0.99488 0.974121
1.00071 0.99613 0.930528
0.996724 0.998052 0.886598
0.994729 0.994781 0.817376
0.995398 0.994877 0.967107
0.996703 0.997318 0.932241
0.9948 0.997418 0.870545
0.994817 0.994845 0.819577
1.00049 1.0046 0.990442
0.999912 1.00325 0.991675
0.999948 1.002 0.992905
0.999206 1.00349 0.992539
1.0006 1.00418 0.989496
0.999986 1.00364 0.991155
0.999989 1.00321 0.991525
1.00082 1.00307 0.990623
1.00046 1.00361 0.990667
1.00008 1.00272 0.991873
1.00223 0.994795 0.992664
1.004 0.995686 0.991087
1.00459 0.995944 0.989919
1.0009 0.997855 0.994042
1.00026 1.00473 0.991328
0.999181 1.00474 0.991725
0.999717 1.00498 0.990126
1 1.00513 0.989672
1.00003 0.994831 0.99262
0.999717 1.00504 0.990296
0.999367 1.00514 0.991686
1.00196 0.997554 0.993598
1.00035 1.00002 0.994263
0.996818 0.998414 0.992572
0.997038 0.997809 1.00087
0.997865 1.00293 0.994984
0.999845 1.00497 0.990172
0.998411 1.00516 0.992595
0.994823 0.994822 0.845431
0.994724 0.994837 0.838892
0.999804 0.994894 0.872257
0.998899 1.00277 0.992915
0.999254 1.00189 0.993801
0.997293 1.00037 0.997604
0.994679 0.994812 0.828709
0.996917 0.997263 0.93349
0.995449 0.994903 0.96181
0.995194 0.997438 0.99363
0.994781 0.997364 0.894577
0.994781 0.994799 0.830973
0.994967 0.994828 0.832721
0.997501 1.00388 0.99603
0.994795 0.994832 0.842724
0.994802 0.994786 0.829148
0.995296 1.00188 0.999026
0.995257 0.996785 0.971583
0.994937 0.997943 0.932575
0.994943 0.994857 0.833674
0.994923 0.999198 0.877164
0.994997 1.00493 0.999538
0.994792 0.994824 0.838837
0.994858 0.994822 0.834602
0.994807 0.994835 0.820395
0.994826 0.999256 0.990757
0.994875 0.998928 0.947416
0.996296 0.997421 0.884106
0.998306 1.00407 0.995267
0.996365 1.00442 0.997134
0.995024 1.0052 0.998868
1.00023 1.00485 0.989648
0.99903 1.00491 0.991406
0.995939 1.00481 0.996964
0.999394 1.0046 0.991126
0.996077 1.00499 0.996699
0.995335 1.00519 0.997965
0.995126 1.00524 0.997869
0.996264 1.0048 0.996283
0.999306 1.0048 0.990939
0.999391 1.00504 0.990952
0.999098 1.0043 0.992434
0.997454 1.00481 0.994509
0.999166 1.00472 0.991491
0.999087 1.00251 0.993682
1.00045 0.998316 0.995323
1.00253 1.00084 0.988521
1.00009 1.00154 0.99289
1.00157 1.00156 0.990834
1.0042 1.00202 0.986024
1.00519 1.00163 0.984435
1.00257 1.0015 0.989094
1.00352 1.00099 0.987212
1.00065 1.00508 0.988995
1.00066 1.0033 0.990831
0.999675 1.00122 0.993748
1.0002 1.00438 0.990382
0.999824 1.00508 0.98979
1.0002 1.00477 0.989698
1.00004 1.00505 0.990094
1.00016 1.00423 0.990378
1.00011 1.00251 0.992086
1.00026 1.00356 0.990987
1.00014 1.00204 0.992531
1.00016 0.999105 0.996069
1.00015 1.00194 0.992681
1.00013 0.999085 0.995789
1.00014 0.997241 0.99761
1.00005 0.999073 0.995637
1.00006 0.997195 0.998411
1.00002 0.997178 0.999086
1.00047 1.00257 0.991314
1.00009 1.00074 0.9937
1.00029 1.00231 0.99211
1.00011 0.998071 0.996559
1.00003 1.0004 0.994255
1.00012 1.00179 0.9927
1.00004 0.996647 0.999265
1.00007 0.99798 0.996715
0.999963 1.00017 0.994678
1.00002 0.996631 0.999281
1.00005 0.997952 0.996762
0.999998 0.996647 0.999276
0.994824 0.994826 0.836605
0.994695 0.994821 0.836099
0.999803 0.994837 0.879089
1.00099 1.00275 0.990504
0.994817 0.9948 0.835543
0.994758 0.994776 0.828959
0.994721 0.994784 0.830265
0.999079 0.99496 0.973192
0.9991 0.99487 0.942414
0.996641 0.994888 0.871982
0.994713 0.994796 0.824556
0.996571 0.994888 0.964335
0.996829 0.999498 0.942522
0.994767 0.998709 0.873551
0.994818 0.994831 0.823982
0.994867 0.994879 0.959542
0.994861 0.998396 0.941287
0.995283 0.999967 0.879969
0.995087 0.994867 0.836282
0.999941 1.00491 0.990047
1.00021 1.00437 0.990275
1.00004 1.00313 0.991784
1.00058 1.0034 0.990418
1.00044 1.00443 0.989776
0.999972 1.00383 0.991354
1.00082 1.00319 0.990588
1.00047 1.00366 0.990749
0.998907 0.995998 0.992797
1.00214 0.996986 0.994377
1.00035 1.00511 0.989414
1.00088 0.999835 0.99403
0.999614 1.00514 0.991577
1.0001 1.0051 0.990129
0.999559 1.00489 0.990289
0.996171 0.997263 0.9933
0.998662 1.00493 0.992697
0.99814 1.00305 0.995217
0.997252 0.998604 1.00106
0.999298 1.00486 0.991526
0.995176 1.00063 0.988587
0.99556 1.00125 1.00034
0.99638 1.00477 0.996159
0.998593 1.00478 0.993075
0.994784 0.994804 0.844517
0.994828 0.994821 0.84363
0.994715 0.994828 0.835211
0.997668 1.004 0.996023
0.995461 1.00086 0.998093
0.994807 0.994829 0.84546
0.994846 0.999796 0.944044
0.99536 0.996388 0.968955
0.994991 0.999287 0.875847
0.994803 0.994784 0.829608
0.994864 0.994852 0.830647
0.995311 1.00473 0.999225
0.994797 0.994823 0.83878
0.994853 0.994825 0.836479
0.994792 0.999753 0.994443
0.994807 0.994823 0.824499
0.994855 0.996821 0.940153
0.995595 0.997957 0.886294
0.99484 1.00356 0.998469
0.994826 0.99485 0.843792
0.994801 0.994805 0.836296
0.994724 0.994778 0.824623
0.995 0.999974 0.879772
0.994898 1.00045 0.976808
0.995396 0.998186 0.933241
0.99666 1.00462 0.996891
0.995181 1.00521 0.998826
0.994907 1.0052 0.998327
0.999243 1.00471 0.991047
0.996162 1.00522 0.996673
0.995135 1.00519 0.997981
0.996427 1.00463 0.996238
0.995194 1.00524 0.997947
0.997859 1.00162 0.997551
0.997673 1.00458 0.99437
0.999163 1.00488 0.9914
0.999056 1.0028 0.994189
0.999002 1.00316 0.992005
0.998402 0.999095 0.99807
1.00239 1.0004 0.989558
1.00418 1.00366 0.983596
1.00492 1.00249 0.98364
1.00209 1.00162 0.990319
1.0042 1.00226 0.985281
1.0052 1.00171 0.984388
1.00433 1.00045 0.986676
1.00488 1.0015 0.984785
1.00095 1.00445 0.988608
1.00255 1.0018 0.988912
1.00279 1.00093 0.987509
1.00026 1.00508 0.989104
1.00024 1.00508 0.989227
1.00036 1.00329 0.991158
0.999875 1.00508 0.989828
1.00025 1.00478 0.989706
1.00018 1.00322 0.991279
1.00028 1.00417 0.990395
1.00013 1.00255 0.992066
1.00012 0.999307 0.995251
1.0002 1.00208 0.99252
1.00018 0.999105 0.995376
1.00005 0.997221 0.998985
1.00014 0.9991 0.995461
1.0001 0.997241 0.998312
1.00006 0.997202 0.999024
1.00048 1.00269 0.991173
1.00024 1.00116 0.99306
1.00043 1.00263 0.991454
1.00017 0.998216 0.996326
1.00015 1.00073 0.993625
1.00031 1.00231 0.9921
1.00006 0.996655 0.999233
1.00011 0.998049 0.996573
1.00003 1.0004 0.994109
1.00004 0.996622 0.999272
1.00007 0.997952 0.996723
1.00002 0.996657 0.99928
0.9948 0.994831 0.843989
0.994823 0.994828 0.836783
0.994687 0.994831 0.836141
1.00089 1.00279 0.990679
1.00074 1.00295 0.990548
1.00097 1.00234 0.991163
0.994866 0.994828 0.833887
0.994817 0.994792 0.836031
0.994755 0.994769 0.828964
0.996864 0.994876 0.965558
0.99686 0.995195 0.931231
0.994779 0.999745 0.8929
0.99482 0.994828 0.818794
0.994985 0.994842 0.962631
0.994883 0.999339 0.937973
0.995202 0.99891 0.876408
0.994974 0.994856 0.833058
0.995173 0.995208 0.95928
0.994856 0.997893 0.942469
0.996449 0.997778 0.883394
0.994841 0.994831 0.822621
0.999941 1.00353 0.991226
1.0003 1.00458 0.989846
1.00041 1.00406 0.990105
1.00074 1.00328 0.990359
1.00019 1.00457 0.99006
1.00082 1.00332 0.990554
0.996055 0.99587 0.994106
0.996716 0.999542 1.00136
0.999704 1.00447 0.990401
0.998794 1.00242 0.995405
0.998759 1.00487 0.992793
0.998983 1.00465 0.991743
0.998123 1.0051 0.993151
0.995169 1.00091 0.988563
0.996097 1.00502 0.996712
0.996163 1.00173 0.999326
0.998147 1.00465 0.993758
0.994973 1.00274 0.985289
0.995407 1.004 0.996287
0.995973 1.00517 0.996912
0.994827 0.99483 0.844702
0.994786 0.994813 0.84421
0.994831 0.994818 0.841844
0.995525 1.00431 0.998867
0.994762 1.00015 0.99063
0.994795 0.994822 0.838735
0.994834 0.99874 0.940039
0.996026 0.997423 0.871903
0.994852 0.994823 0.838335
0.99481 0.99483 0.8197
0.994831 1.00341 0.998935
0.99482 0.994851 0.844499
0.994815 0.994803 0.836805
0.994889 0.999576 0.974165
0.994719 0.994779 0.81818
0.995601 0.999788 0.874679
0.995184 0.996105 0.946079
0.994901 1.00511 0.991661
0.994792 0.994843 0.844121
0.99478 0.994792 0.830001
0.994647 0.99479 0.834064
0.994755 0.997387 0.870239
0.994867 0.999352 0.941526
0.994886 1.00084 0.968218
0.995389 1.00519 0.998781
0.994995 1.00512 0.998359
0.997263 1.00241 0.997699
0.996686 1.00442 0.996193
0.995199 1.00523 0.997969
0.996498 1.00353 0.99748
0.999039 0.996999 0.999998
0.998997 1.00312 0.994684
1.00124 1.00235 0.991276
1.00233 1.00456 0.986215
1.00211 0.999987 0.990731
1.00417 1.00346 0.983909
1.0044 1.0044 0.982592
1.00497 1.0018 0.98391
1.00511 1.0018 0.984131
1.00484 1.00257 0.983617
1.00445 1.00239 0.984552
1.0051 1.00109 0.985455
1.00518 1.00178 0.984273
1.00273 1.00227 0.987604
1.00426 1.00055 0.986943
1.00445 1.0014 0.985139
1.0005 1.00507 0.988334
1.0012 1.00447 0.988569
1.00242 1.00219 0.98872
1.00029 1.00388 0.990515
1.00053 1.00495 0.989108
0.999976 1.00507 0.989459
1.00035 1.00468 0.989716
1.00026 1.00315 0.99128
1.00007 0.99975 0.994904
1.00022 1.00248 0.992046
1.00014 0.999344 0.995229
1.00004 0.997359 0.998952
1.00019 0.999136 0.995369
1.0001 0.997256 0.998282
1.00009 0.997235 0.998982
1.00055 1.00307 0.990951
1.00036 1.0014 0.992831
1.00057 1.00259 0.991235
1.00023 0.99845 0.995987
1.00024 1.00116 0.993145
1.00041 1.00265 0.991595
1.00009 0.996727 0.999179
1.00016 0.998182 0.996345
1.00018 1.00072 0.99355
1.00006 0.996667 0.999243
1.00011 0.998026 0.996588
1.00004 0.996634 0.999278
0.994829 0.994845 0.843205
0.994801 0.994846 0.843933
0.994819 0.994841 0.837033
1.00036 1.00422 0.989737
1.00116 1.00399 0.989679
1.00071 1.00288 0.990857
1.00067 1.00317 0.990454
1.00056 1.00253 0.991301
1.00037 1.00298 0.991179
1.00038 1.00211 0.992064
0.994834 0.994794 0.828444
0.994867 0.994832 0.83587
0.994813 0.994806 0.836534
0.994876 0.994848 0.829939
0.995016 0.994835 0.959771
0.994874 0.999897 0.933577
0.995406 0.996811 0.889681
0.995007 0.995799 0.958256
0.994885 0.999428 0.930692
0.995403 0.997937 0.886246
0.9949 0.994823 0.832451
0.995635 0.997009 0.96123
0.995089 0.999544 0.932358
0.995445 0.997123 0.869496
0.994737 0.99481 0.819788
0.998361 1.00486 0.992997
0.999787 1.00386 0.991399
1.00031 1.00478 0.989645
1.00082 1.00341 0.990304
0.995263 1.00051 0.988794
0.996758 1.00234 0.998188
0.998819 1.00494 0.991962
0.997877 1.00507 0.993232
0.996009 1.00515 0.997266
0.998044 1.00434 0.993708
0.996026 1.00504 0.996891
0.996525 1.00212 0.981815
0.994879 1.00497 0.996644
0.996265 1.00424 0.996624
0.99471 1.00447 0.982212
0.995472 1.00361 0.99851
0.994781 0.994814 0.844748
0.99483 0.99483 0.847583
0.994789 0.994824 0.84389
0.994825 1.0033 0.999364
0.994884 0.999064 0.977588
0.994813 0.994849 0.845254
0.995467 0.997481 0.934143
0.995564 0.997516 0.888879
0.994826 0.994814 0.837279
0.994715 0.994795 0.825262
0.994893 1.00443 0.992467
0.994804 0.994842 0.844088
0.994762 0.994788 0.829999
0.994893 1.0001 0.96831
0.994699 0.994798 0.82394
0.994739 0.99863 0.872534
0.995386 0.998849 0.930268
0.995291 1.00451 0.986351
0.994831 0.994825 0.836862
0.994672 0.994766 0.822118
0.996621 0.995135 0.890107
0.994812 0.99932 0.941157
0.994858 0.999989 0.96133
0.99518 1.00517 0.998686
0.996145 1.00329 0.997846
0.996609 0.999292 1.00084
0.995362 1.0052 0.997394
0.997504 0.998756 1.00016
1.00185 0.99813 0.994602
1.00352 1.00145 0.990554
1.00322 1.00426 0.985485
1.00351 1.00445 0.983599
1.00397 1.00348 0.984218
1.0045 1.00437 0.982534
1.00432 1.00428 0.98279
1.00512 1.0004 0.985118
1.0051 1.00111 0.984796
1.00496 1.00199 0.983888
1.00507 1.00169 0.984648
1.00509 1.00168 0.984141
1.00466 1.00274 0.983592
1.0048 1.00101 0.985998
1.00493 1.00127 0.985281
1.00516 1.00186 0.984161
1.0017 1.00461 0.987356
1.00272 1.00238 0.987732
1.00416 1.00059 0.987209
1.00041 1.00439 0.989475
1.00085 1.00506 0.988373
1.00134 1.00448 0.98853
1.00006 1.00021 0.994442
1.00036 1.00376 0.990518
1.00073 1.00489 0.989111
1.00028 1.00315 0.991281
1.00007 0.999809 0.994875
0.999992 0.997599 0.998893
1.00016 0.999371 0.995206
1.00004 0.997389 0.998939
1.00008 0.997252 0.998966
1.00008 1.00503 0.989779
1.00072 1.00363 0.990149
1.00045 1.00183 0.992269
1.00056 1.003 0.990938
1.00025 0.998752 0.995628
1.00035 1.00143 0.992823
1.00059 1.00258 0.991297
1.0001 0.996888 0.999096
1.00022 0.998436 0.996008
1.00024 1.00118 0.993228
1.00008 0.996723 0.999196
1.00016 0.998164 0.996365
1.00006 0.996644 0.999253
0.994795 0.994833 0.838611
0.994811 0.994841 0.84395
0.99481 0.994836 0.843869
1.00047 1.00446 0.989724
1.00077 1.00356 0.98984
1.00003 1.00257 0.990684
0.999972 1.0045 0.989926
1.00141 1.00351 0.990359
1.00073 1.00331 0.990357
1.00038 1.00269 0.991438
1.00044 1.00296 0.991199
1.00036 1.00239 0.992088
0.999233 1.00404 0.992207
0.994753 0.994787 0.831681
0.994816 0.994792 0.829104
0.994865 0.994823 0.837785
0.99497 0.994835 0.833141
0.996117 0.997785 0.871811
0.994898 0.996373 0.95675
0.994895 0.998784 0.942301
0.995024 0.997469 0.957872
0.994876 0.996329 0.943851
0.994922 0.999447 0.878015
0.994756 0.994798 0.818472
0.994781 0.998681 0.962135
0.994828 1.00036 0.943687
0.994735 0.999163 0.892068
0.994702 0.994813 0.83416
0.998191 1.00306 0.995059
0.998108 1.00472 0.993144
0.999788 1.00383 0.991577
0.997311 1.00221 0.978028
0.994761 1.00497 0.99711
0.997867 1.00443 0.993654
0.995861 1.00508 0.996874
0.996572 1.00415 0.996604
0.995275 1.00336 0.998795
0.99485 1.00212 0.981467
0.99578 1.00167 0.999423
0.995774 1.00026 0.987071
0.994819 0.994822 0.844405
0.994788 0.994823 0.844453
0.994829 0.99483 0.850484
0.994898 1.00372 0.992891
0.994863 0.999726 0.96561
0.994816 0.994846 0.844033
0.994884 0.999595 0.941438
0.994732 0.99972 0.891567
0.994743 0.994773 0.830094
0.994723 0.994801 0.813433
0.995565 1.00428 0.987045
0.994816 0.994831 0.836967
0.994697 0.994771 0.820845
0.995047 0.999526 0.962289
0.996581 0.997488 0.887625
0.994902 0.99915 0.936164
0.995142 1.00326 0.98468
0.994684 0.994793 0.82543
0.998962 0.994831 0.891506
0.996574 0.997266 0.932579
0.994862 0.996776 0.964083
0.995596 1.00422 0.997979
0.996269 0.999626 1.00084
0.99879 1.00236 0.996099
0.995954 1.00045 1.00029
1.00071 0.998674 0.995113
1.00334 0.999677 0.989454
1.00412 1.00389 0.98474
1.00353 1.00444 0.983471
1.00419 1.00175 0.984916
1.00471 1.00428 0.982479
1.00437 1.0039 0.982877
1.00487 1.00039 0.985703
1.00524 0.997859 0.987303
1.00521 0.999777 0.985508
1.00511 1.00029 0.985209
1.00513 1.00109 0.984944
1.0051 1.00113 0.984718
1.00497 1.00215 0.983863
1.0051 1.00175 0.98474
1.00491 1.00159 0.984675
1.00507 1.0016 0.984151
1.00372 1.00244 0.986299
1.00437 1.0014 0.986006
1.00478 1.00147 0.985107
1.0007 1.00507 0.987983
1.00176 1.00453 0.987373
1.00285 1.00248 0.987858
1.00009 1.00096 0.994568
1.00061 1.00439 0.989472
1.00117 1.00503 0.988413
0.999991 0.997999 0.997045
1.00007 1.00037 0.994745
1.00043 1.00366 0.990521
1.00007 0.999887 0.994846
0.999996 0.997655 0.99886
1.00004 0.997398 0.998924
1.00023 1.00512 0.989618
1.00062 1.0048 0.989414
0.999893 1.00502 0.989706
1.0005 1.00252 0.991522
1.00051 1.004 0.990131
1.00022 0.999101 0.995327
1.00045 1.00182 0.99228
1.00067 1.00291 0.990922
1.0001 0.997117 0.999014
1.00025 0.998732 0.995644
1.00035 1.00146 0.992816
1.0001 0.996874 0.999122
1.00021 0.998411 0.996029
1.00008 0.996718 0.999213
0.994791 0.994824 0.84612
0.994806 0.994836 0.83856
0.994799 0.994855 0.844725
1.00076 1.00239 0.990509
1.00015 1.00484 0.98971
1.00065 1.00336 0.990008
1.0005 1.00457 0.989699
1.00077 1.00247 0.990736
1.00075 1.00318 0.991219
1.00248 1.00231 0.988557
0.998793 1.00491 0.991133
1.00054 1.00287 0.991218
0.999998 1.0024 0.992111
0.999113 1.0039 0.992133
0.998239 1.00524 0.992724
0.994704 0.994797 0.827641
0.994781 0.994791 0.831215
0.994813 0.994789 0.829636
0.994769 0.994807 0.830625
0.994925 0.999436 0.877149
0.99551 0.998325 0.932351
0.994858 0.997275 0.957287
0.994922 0.998327 0.961785
0.994709 0.994812 0.823782
0.994845 0.997363 0.936425
0.99475 0.999657 0.87674
0.994913 0.996382 0.966321
0.994875 0.999913 0.944384
0.996559 0.995902 0.888052
0.999351 0.997687 0.998108
0.998177 1.00288 0.99502
0.99805 1.00452 0.993284
0.995041 1.00116 0.981275
0.994904 1.00302 0.999057
0.996982 1.00395 0.99658
0.996907 1.00147 0.9995
0.995232 0.999235 0.987239
0.996629 0.998149 0.992299
0.994721 0.994855 0.837115
0.994819 0.994813 0.846211
0.994795 0.994825 0.844107
0.995148 1.00416 0.987418
0.994872 0.999977 0.962134
0.994802 0.994838 0.83723
0.994845 0.999841 0.932349
0.996526 0.994858 0.873311
0.994729 0.994789 0.831485
0.994814 1.00411 0.984696
0.994696 0.994822 0.836642
0.998923 0.994798 0.874692
0.99486 0.995929 0.9598
0.996638 0.999019 0.943011
0.994828 1.00319 0.990037
0.999801 0.994845 0.868901
0.999305 0.994901 0.94468
0.994856 0.994844 0.959008
0.995933 0.999824 1.00089
0.998108 1.0014 0.995735
1.00153 1.00362 0.990743
0.999533 0.999353 0.995631
1.0027 1.00049 0.989293
1.00414 0.9999 0.987515
1.00352 1.00447 0.983343
1.0041 1.00196 0.984877
1.005 0.997174 0.987879
1.00438 1.00343 0.982963
1.00473 1.00019 0.98573
1.00526 0.996185 0.98888
1.00523 0.99617 0.989339
1.00524 0.998075 0.987184
1.00526 0.997763 0.987429
1.00522 0.999658 0.985676
1.0052 0.999755 0.985674
1.00511 1.00019 0.985301
1.00521 1.00133 0.984494
1.00514 1.001 0.984912
1.00511 1.00112 0.984637
1.005 1.00115 0.985354
1.00494 1.0017 0.984752
1.00472 1.00148 0.984699
1.00207 1.0043 0.986864
1.00361 1.0026 0.986251
1.00388 1.00177 0.986017
1.00003 1.002 0.992667
1.00122 1.00484 0.98799
1.00186 1.00453 0.987386
0.999819 0.998598 0.998596
1.00011 1.001 0.993573
1.00082 1.00426 0.989469
0.999982 0.997985 0.998744
1.00006 1.00044 0.994308
1.00001 0.997728 0.998824
1.00183 1.0037 0.988747
1.00026 1.00505 0.989476
1.00064 1.00508 0.989051
1.0004 1.00348 0.990697
1.00046 1.00473 0.989388
1.00008 1.00493 0.989635
1.00016 0.999566 0.994985
1.00046 1.00254 0.991544
1.0003 1.00412 0.990113
1.00007 0.997328 0.998948
1.00023 0.999046 0.995343
1.00045 1.00179 0.992291
1.00009 0.997081 0.999038
1.00024 0.998719 0.995659
1.00009 0.996842 0.999149
0.994711 0.994818 0.822288
0.994808 0.994826 0.846333
0.994812 0.994838 0.838525
1.00068 1.0028 0.990477
1.00406 1.00198 0.987537
1.00128 1.00357 0.989714
1.00051 1.0045 0.989471
1.00166 1.00227 0.990782
0.99977 1.00253 0.992064
0.999427 1.00477 0.990799
1.0017 1.00277 0.989045
1.00165 1.00407 0.988587
0.999561 0.999827 0.995253
0.999699 1.00382 0.992056
0.998559 1.00519 0.99254
0.999322 0.994821 0.868266
0.994675 0.994788 0.821274
0.994789 0.994794 0.831194
0.994718 0.994807 0.812885
0.994784 0.998434 0.893601
0.994804 0.99925 0.932069
0.994981 0.996232 0.959655
0.994864 0.996399 0.964574
0.996771 0.998397 0.886703
0.994845 0.998858 0.932957
0.994887 0.997065 0.967264
0.996429 0.996295 0.932464
1.00092 0.995983 0.998967
0.999259 0.998689 0.99806
0.998165 1.0028 0.994996
0.994863 0.99884 0.987509
0.99772 1.00101 0.999576
0.997115 0.998248 0.992006
0.997296 0.995685 0.990983
0.999804 0.994899 0.882015
0.994712 0.994841 0.835116
0.994826 0.994812 0.847891
0.994846 1.00421 0.984998
0.994849 0.995078 0.958318
0.994691 0.994832 0.836556
0.996702 0.995096 0.9325
0.999093 0.994835 0.891726
0.994855 1.0012 0.986922
0.999805 0.994861 0.879894
1.0001 0.995726 0.931832
0.994875 0.994815 0.961487
0.997091 0.998039 0.988699
0.999973 0.994888 0.945042
0.995443 0.994859 0.965354
0.997866 1.00048 0.995322
1.00067 1.00153 0.990857
1.00386 0.999379 0.990527
1.00214 1.00119 0.989143
1.00408 0.999676 0.987531
1.00512 0.996232 0.98923
1.00412 1.00209 0.984842
1.00495 0.99759 0.987815
1.00522 0.995186 0.989894
1.00463 0.999994 0.985755
1.00526 0.996284 0.988825
1.00523 0.995107 0.990257
1.00522 0.995474 0.990266
1.00523 0.996075 0.989515
1.00521 0.996638 0.98911
1.00527 0.998437 0.987094
1.00523 0.998139 0.987295
1.00527 0.997663 0.987557
1.00526 1.00031 0.985371
1.00523 0.999705 0.985637
1.00519 0.999715 0.98584
1.00519 1.00148 0.984679
1.00518 1.00136 0.984539
1.00513 1.00095 0.984882
1.0033 1.00285 0.986341
1.00485 1.0013 0.985326
1.00476 1.00168 0.984763
1.00037 1.00278 0.991307
1.00218 1.00421 0.986877
1.00359 1.00257 0.986204
0.999923 0.998951 0.998365
1.00016 1.00189 0.992626
1.00162 1.00472 0.987996
0.999921 0.998575 0.997621
1.00015 1.00108 0.993575
1 0.998133 0.998654
1.00326 1.0016 0.988021
1.0012 1.00371 0.988956
1.00058 1.00508 0.988696
1.00027 1.00501 0.989331
1.00041 1.00507 0.989062
1.00056 1.00421 0.98983
1.00011 1.00027 0.994413
1.00034 1.0036 0.990687
1.0002 1.00486 0.989364
1.00004 0.997579 0.998851
1.00015 0.999521 0.995007
1.0004 1.00259 0.991566
1.00007 0.997299 0.998966
1.00024 0.999002 0.995362
1.00009 0.997054 0.999062
0.999796 0.994837 0.87955
0.994701 0.994829 0.827514
0.994819 0.994826 0.846535
1.00057 1.00317 0.990445
1.00119 1.00414 0.98881
1.00326 1.0026 0.987797
1.00493 1.00365 0.983221
1.0013 1.00349 0.988776
0.99964 1.00485 0.990485
1.00119 1.00324 0.989533
1.00089 1.00405 0.989027
1.00366 0.999459 0.98785
1.00181 0.999737 0.992507
1.00346 0.995284 0.993066
1.00029 0.999467 0.995113
0.999333 1.00446 0.992363
0.998453 0.994875 0.942864
0.999515 0.994785 0.873051
0.994657 0.994789 0.825874
0.996829 0.996318 0.873436
0.994869 0.999847 0.941412
0.994855 0.995533 0.965579
0.994912 0.996816 0.968925
0.997042 0.999323 0.944195
0.995733 0.995082 0.968609
1.00034 0.995822 0.998548
1.00027 0.996382 0.998997
0.999062 0.999705 0.998
0.997795 0.997828 0.991816
0.997971 0.996696 0.991117
0.999974 0.99489 0.934552
0.999804 0.994884 0.887151
0.994696 0.994827 0.83322
0.994897 0.999633 0.983567
0.994961 0.994822 0.959112
0.999806 0.994836 0.8795
0.999054 0.994866 0.94334
0.996759 0.997987 0.988969
1.00073 0.994892 0.941763
0.996429 0.994884 0.962972
1.00065 0.995096 0.988943
0.998646 0.994864 0.972925
0.999487 0.99948 0.991056
1.00339 0.997639 0.990527
1.00483 0.995131 0.991672
1.00391 0.999389 0.987541
1.00501 0.996171 0.989093
1.00522 0.994885 0.990368
1.00482 0.998051 0.987753
1.00522 0.995243 0.989842
1.00523 0.994891 0.990446
1.00526 0.99639 0.988771
1.00524 0.995169 0.990221
1.00524 0.994988 0.990541
1.00522 0.995351 0.990337
1.0052 0.995681 0.990181
1.00523 0.995973 0.989693
1.00521 0.996635 0.989104
1.00523 0.997296 0.988386
1.00529 0.999314 0.986403
1.00527 0.9985 0.987073
1.00523 0.998202 0.987406
1.00529 1.00109 0.984675
1.00528 1.00037 0.985248
1.00524 0.999749 0.985596
1.00398 1.00192 0.986065
1.00504 1.00152 0.984706
1.00516 1.00139 0.984584
1.00102 1.00286 0.990167
1.00318 1.00303 0.986343
1.00454 1.00159 0.985302
1.00004 0.999737 0.997982
1.00051 1.00264 0.991295
1.00241 1.00415 0.986891
1.00001 0.999124 0.998241
1.00035 1.0017 0.992584
1.00002 0.998573 0.998445
1.0046 1.00245 0.984618
1.00329 1.00146 0.987901
1.00148 1.00416 0.987727
1.00059 1.00368 0.989174
1.00063 1.005 0.988548
1.00078 1.00479 0.988863
1.00029 1.00507 0.98907
1.00037 1.00437 0.989803
1.00014 1.00096 0.99365
1.00001 0.997999 0.998668
1.00008 1.00021 0.994435
1.00027 1.0037 0.990678
1.00003 0.99756 0.998886
1.00015 0.999462 0.995023
1.00007 0.997272 0.998986
0.999976 0.994888 0.946566
0.999816 0.994856 0.879267
0.994682 0.994821 0.822189
1.00104 1.00479 0.987899
1.00266 1.00292 0.988063
1.00224 1.00333 0.988287
1.00447 1.00348 0.98392
1.00499 1.00161 0.984339
1.00344 1.00139 0.986123
1.00028 1.00427 0.98945
1.00421 0.999674 0.986944
1.00176 0.999633 0.992715
1.00352 0.997041 0.990217
1.00431 0.995942 0.991823
1.00307 0.996252 0.992881
1.00305 0.995526 0.993242
0.999875 0.999832 0.994971
0.99602 0.994863 0.966766
0.999416 0.996134 0.938868
0.998325 0.994844 0.888484
0.996649 0.997345 0.932152
0.994908 0.996837 0.969439
0.995437 0.995726 0.974412
0.99926 0.995562 0.992805
1.00087 0.99532 0.998163
0.999641 0.996583 0.999046
0.998965 0.99832 0.991282
0.997086 0.99615 0.967817
1.0001 0.994877 0.947238
0.999805 0.99488 0.871661
0.996156 0.997816 0.989253
0.996895 0.99487 0.963897
0.999977 0.994877 0.938223
1.00009 0.995001 0.989165
0.998584 0.994894 0.972305
1.00298 0.994888 0.990759
1.00302 0.997295 0.985568
1.00268 0.996008 0.990501
1.00446 0.995127 0.991677
1.0051 0.994779 0.991029
1.00497 0.996213 0.988957
1.00521 0.994886 0.99032
1.00525 0.994887 0.990504
1.00523 0.995297 0.989788
1.00523 0.994897 0.990424
1.00526 0.994904 0.990517
1.00524 0.995222 0.990183
1.00523 0.994976 0.990526
1.00524 0.995018 0.990549
1.00521 0.995232 0.990407
1.0052 0.995557 0.990236
1.00522 0.996456 0.989419
1.00521 0.996636 0.989097
1.00523 0.997348 0.988367
1.00527 0.998537 0.987295
1.00531 1.00036 0.985387
1.00529 0.999445 0.986228
1.00526 0.998564 0.987051
1.00461 1.00102 0.985885
1.00527 1.0011 0.98471
1.00528 1.00043 0.985126
1.00151 1.0025 0.989624
1.00387 1.00215 0.986049
1.00491 1.00155 0.984728
1.00038 1.00037 0.997484
1.00109 1.00272 0.990161
1.00307 1.00318 0.986342
1.0002 0.999901 0.997781
1.00056 1.00249 0.99129
1.00013 0.999255 0.998083
1.00478 1.0019 0.984508
1.00482 1.00226 0.984793
1.00391 1.00229 0.98574
1.00309 1.00176 0.987779
1.00165 1.00399 0.987506
1.00157 1.00484 0.987716
1.00058 1.00494 0.988402
1.00069 1.00487 0.988862
1.00017 1.0018 0.992804
1.00026 1.00461 0.989777
1.00008 1.00101 0.99368
0.999959 0.998623 0.998445
0.999986 0.997957 0.998737
1.00003 1.0002 0.99446
1.00002 0.997508 0.998916
0.996965 0.99489 0.968082
0.999973 0.99487 0.933958
0.99981 0.994854 0.890191
1.00518 0.999416 0.986004
1.00328 1.0033 0.987809
1.00398 1.00332 0.984621
1.00413 1.00119 0.986411
1.005 1.0018 0.984259
1.00457 0.998745 0.987848
1.00477 1.00086 0.986038
1.00146 0.998994 0.992926
1.00402 0.997618 0.989902
1.00414 0.996041 0.991134
1.00478 0.995758 0.989958
1.00344 0.99525 0.9936
1.00309 0.995872 0.99292
1.00285 0.995777 0.993411
0.999063 0.995571 0.99109
0.995874 0.99487 0.965106
0.999007 0.99486 0.934565
0.995028 0.996377 0.972906
0.99896 0.995442 0.99535
1.00085 0.994931 0.997726
1.00155 0.996437 0.982819
0.997115 0.995444 0.96834
0.99998 0.994893 0.934568
0.999374 0.994875 0.989427
0.998903 0.994924 0.971494
1.00209 0.994981 0.991249
1.00296 0.996581 0.986322
1.00398 0.994938 0.991383
1.00455 0.997388 0.990878
1.00417 0.99498 0.991671
1.00508 0.994798 0.99092
1.00529 0.994827 0.990487
1.00521 0.994884 0.990273
1.00524 0.994883 0.990498
1.00529 0.994885 0.990475
1.00523 0.994904 0.990402
1.00526 0.994903 0.990522
1.00526 0.994912 0.990631
1.00521 0.994981 0.99051
1.00524 0.995005 0.990531
1.00522 0.995508 0.990235
1.00521 0.995436 0.990292
1.00522 0.996311 0.989571
1.00526 0.997776 0.988143
1.00523 0.997397 0.988349
1.00527 0.998491 0.987342
1.00531 0.999998 0.985858
1.00492 1.00053 0.985872
1.00531 1.00046 0.985277
1.00529 0.999571 0.986053
1.00215 1.00152 0.989529
1.00452 1.00116 0.985896
1.00525 1.00111 0.984746
1.00067 1.00062 0.99716
1.00173 1.00217 0.989623
1.00376 1.00232 0.986038
1.00052 1.00044 0.997341
1.00122 1.00253 0.990157
1.00037 1.00009 0.997587
1.00527 1.00068 0.984933
1.00503 1.00192 0.984414
1.00504 1.00133 0.984897
1.00511 1.00207 0.984967
1.00412 1.00225 0.985593
1.00254 1.00398 0.986861
1.00193 1.00364 0.987285
1.00128 1.00497 0.987738
1.00038 1.00242 0.991804
1.00053 1.00488 0.988859
1.00008 1.00179 0.992834
0.99994 0.999248 0.998175
1.00001 1.00095 0.993709
0.999945 0.998484 0.998526
0.999967 0.997878 0.998799
1.00075 0.994884 0.987456
0.99675 0.994897 0.964768
0.999975 0.994881 0.946421
1.00504 0.99804 0.987865
1.00526 0.997615 0.987901
1.00519 0.999205 0.98627
1.00478 1.00068 0.986693
1.00502 1.00205 0.984178
1.00461 0.998544 0.988185
1.0051 0.995738 0.98937
1.00461 0.997617 0.9896
1.00409 0.996501 0.990446
1.00467 0.996291 0.99028
1.0051 0.995113 0.990656
1.00378 0.995344 0.992511
1.00312 0.995523 0.993383
1.00339 0.995421 0.992971
0.999719 0.995488 0.991206
0.995727 0.99486 0.963572
0.998958 0.995391 0.998004
1.00443 0.995117 0.99094
1.00138 0.996576 0.98297
0.997154 0.994871 0.966455
1.00171 0.994799 0.991704
1.00285 0.995867 0.9871
1.00402 0.99485 0.992019
1.00457 0.996584 0.990957
1.00527 0.994821 0.990868
1.00537 0.994929 0.991062
1.00505 0.994811 0.990815
1.00531 0.994834 0.990457
1.00531 0.994865 0.9905
1.00523 0.994878 0.990492
1.00529 0.994886 0.990494
1.00526 0.994887 0.990648
1.00525 0.994901 0.990527
1.00527 0.994911 0.990623
1.00525 0.99508 0.990667
1.00524 0.994989 0.990513
1.00523 0.995517 0.990212
1.00526 0.997024 0.988844
1.00523 0.996163 0.989723
1.00526 0.997703 0.988205
1.00531 0.999561 0.986277
1.00527 0.998447 0.987388
1.00531 0.999924 0.985946
1.005 1.00035 0.985936
1.00252 1.00074 0.98965
1.0049 1.00058 0.985877
1.00531 1.00058 0.985166
1.00084 1.00064 0.997021
1.00219 1.00146 0.98952
1.0044 1.00137 0.985908
1.00074 1.00066 0.997094
1.00185 1.00198 0.989623
1.00062 1.00056 0.997221
1.00529 0.99899 0.986515
1.00525 1.00056 0.985115
1.0052 1.00095 0.98503
1.00516 1.00188 0.984318
1.00512 1.00127 0.984916
1.00334 1.00257 0.986684
1.0044 1.00221 0.985449
1.00244 1.00378 0.986869
1.00071 1.00283 0.990725
1.001 1.00505 0.98776
1.00026 1.0025 0.991837
1.00002 1.00005 0.997832
1.00003 1.00181 0.992863
0.999898 0.999161 0.99828
0.999919 0.998395 0.998603
1.00431 0.994843 0.992176
1.00088 0.99488 0.985328
0.996595 0.994917 0.963982
1.00514 0.996993 0.988889
1.00502 0.997626 0.988124
1.00528 0.996423 0.989094
1.00526 0.997638 0.987873
1.00519 0.998991 0.986531
1.00524 0.995112 0.989935
1.00469 0.998498 0.988512
1.00511 0.996105 0.989345
1.00525 0.994872 0.990451
1.00454 0.996647 0.9906
1.00506 0.995232 0.99037
1.00358 0.995366 0.99275
1.00255 0.99584 0.993168
1.00017 0.995335 0.991168
1.00532 0.994904 0.990803
1.0044 0.996124 0.991158
1.00124 0.996896 0.983164
1.00393 0.99477 0.992638
1.00456 0.995788 0.991041
1.00526 0.994809 0.990938
1.00538 0.994925 0.990995
1.00535 0.99489 0.990851
1.00532 0.994846 0.99043
1.00531 0.994873 0.990511
1.00524 0.994904 0.990776
1.00529 0.994889 0.990513
1.00526 0.99489 0.990645
1.00525 0.994909 0.990885
1.00527 0.99491 0.990614
1.00524 0.995078 0.990642
1.00525 0.996295 0.989614
1.00524 0.995535 0.990189
1.00525 0.99705 0.988847
1.00532 0.99911 0.986765
1.00526 0.99763 0.988267
1.00531 0.999564 0.986303
1.00501 1.00029 0.986003
1.00531 0.999848 0.986034
1.00501 1.00035 0.985945
1.0026 1.00033 0.991523
1.00118 1.0002 0.993747
1.00255 1.00073 0.99045
1.00487 1.00064 0.985883
1.00087 1.00066 0.996989
1.00233 1.00127 0.989507
1.00078 1.00069 0.997031
1.00525 0.99626 0.989536
1.00528 0.99787 0.987844
1.0053 0.998991 0.986686
1.00528 1.00036 0.985457
1.00523 1.00046 0.985298
1.00524 1.00096 0.98497
1.00404 1.00141 0.986514
1.00516 1.00123 0.984934
1.0035 1.00214 0.986669
1.00132 1.0027 0.989852
1.00242 1.0036 0.986875
1.00067 1.00294 0.990713
1.00024 1.00068 0.997402
1.00015 1.00256 0.991867
0.999935 0.999793 0.997969
0.999867 0.999005 0.998373
1.00533 0.994861 0.990731
1.00448 0.994825 0.991923
1.00127 0.99487 0.983258
1.00526 0.995633 0.989775
1.00508 0.996942 0.988772
1.00505 0.99718 0.988391
1.00527 0.996577 0.989078
1.00526 0.997647 0.987845
1.00533 0.994851 0.99052
1.00525 0.995092 0.989967
1.00512 0.996485 0.989322
1.00524 0.994877 0.990476
1.00504 0.995314 0.990082
1.00349 0.99538 0.992992
1.00531 0.994933 0.9909
1.00534 0.994911 0.990988
1.00438 0.996803 0.991378
1.00526 0.994796 0.990994
1.00539 0.994922 0.990933
1.00534 0.994891 0.990816
1.00524 0.994939 0.991026
1.00531 0.994881 0.990522
1.00525 0.994905 0.990747
1.00521 0.994922 0.99103
1.00527 0.994893 0.990642
1.00525 0.994908 0.990867
1.00525 0.995702 0.99025
1.00524 0.995067 0.990617
1.00526 0.996321 0.989608
1.00532 0.998693 0.987241
1.00525 0.997074 0.988851
1.00532 0.99911 0.986788
1.00501 1.00023 0.9861
1.00531 0.999566 0.986328
1.00504 1.00027 0.986018
1.00269 1.00008 0.991647
1.00503 1.00035 0.985953
1.00279 1.00023 0.991406
1.00123 0.99998 0.993924
1.00092 1.00049 0.995423
1.00275 1.00067 0.991085
1.00087 1.00071 0.996972
1.00522 0.995347 0.990533
1.00525 0.997545 0.988202
1.00524 0.996089 0.989709
1.00533 0.999672 0.986079
1.00528 0.997926 0.987831
1.0053 0.998992 0.986856
1.00529 1.00037 0.985402
1.0047 1.00055 0.98623
1.00526 1.00098 0.98491
1.00416 1.00116 0.98651
1.00192 1.00191 0.989536
1.0036 1.00176 0.986659
1.00115 1.00286 0.989846
1.00044 1.00116 0.997075
1.0005 1.00309 0.990717
1.00009 1.00054 0.997575
0.999868 0.999674 0.998096
1.0053 0.994879 0.990738
1.0053 0.99486 0.99073
1.00453 0.994815 0.991659
1.00526 0.994913 0.99062
1.00524 0.995677 0.989775
1.00499 0.99691 0.988659
1.00527 0.996733 0.989063
1.00531 0.994874 0.990506
1.00526 0.995068 0.989999
1.0052 0.994882 0.990502
1.00526 0.99496 0.991009
1.0053 0.99493 0.990887
1.00536 0.994917 0.991171
1.0052 0.994968 0.99115
1.00534 0.994891 0.990781
1.00524 0.994942 0.991015
1.00518 0.99496 0.991133
1.00525 0.994906 0.990719
1.00522 0.994923 0.991025
1.00525 0.995355 0.990681
1.00524 0.994907 0.99085
1.00525 0.995726 0.990242
1.00531 0.998334 0.987662
1.00527 0.99635 0.989602
1.00532 0.998691 0.98726
1.00498 1.00014 0.986254
1.00532 0.999111 0.986811
1.00503 1.00021 0.986118
1.00271 1.00006 0.991627
1.00507 1.00024 0.986031
1.00285 1.00001 0.991506
1.00129 0.999865 0.993968
1.00297 1.00011 0.991298
1.00083 1.00015 0.994194
1.00035 1.00083 0.997427
1.00523 0.99521 0.990574
1.00527 0.996754 0.989114
1.00523 0.995437 0.990367
1.00535 0.999342 0.986502
1.00526 0.997231 0.988453
1.00524 0.995921 0.989881
1.00506 1.00004 0.98617
1.00533 0.999678 0.986039
1.00528 0.997979 0.987818
1.0053 1.00039 0.985347
1.00475 1.00045 0.986222
1.00228 1.00116 0.989636
1.00429 1.0009 0.986507
1.00177 1.00211 0.989556
1.00055 1.00124 0.996978
1.00111 1.00298 0.989831
1.00036 1.001 0.997188
0.999975 1.00032 0.997735
1.00523 0.9949 0.990977
1.00529 0.994881 0.990711
1.0053 0.994859 0.990731
1.00527 0.994941 0.990632
1.00522 0.995723 0.989776
1.00531 0.994895 0.990492
1.00522 0.994972 0.991077
1.00526 0.994956 0.991016
1.00529 0.994927 0.990873
1.0052 0.994968 0.991148
1.00513 0.994966 0.991309
1.00524 0.994945 0.991004
1.00518 0.994961 0.991152
1.00525 0.995217 0.990886
1.00522 0.994923 0.991021
1.00523 0.995366 0.990678
1.00531 0.998031 0.98798
1.00525 0.99574 0.990235
1.00531 0.998325 0.987676
1.00496 1.00001 0.986451
1.00532 0.998688 0.98728
1.005 1.00013 0.986269
1.00266 1.00015 0.991574
1.00505 1.00018 0.986136
1.00285 1.00001 0.991475
1.00133 0.999886 0.993896
1.00299 0.999951 0.991375
1.00093 0.999919 0.994259
1.00045 1.00034 0.994447
1.00524 0.994938 0.990943
1.00527 0.996344 0.989535
1.00523 0.995086 0.990641
1.00534 0.998606 0.987281
1.00527 0.996857 0.988979
1.00524 0.995522 0.9902
1.00514 0.999889 0.986236
1.00534 0.999064 0.986714
1.00527 0.996923 0.988705
1.00256 1.00039 0.989886
1.00505 1.00002 0.986161
1.00532 0.999686 0.986
1.00481 1.00035 0.986214
1.00223 1.00123 0.989651
1.00067 1.0011 0.996995
1.00162 1.00232 0.989578
1.00053 1.00117 0.997006
1.00023 1.00091 0.997327
1.00521 0.994936 0.991079
1.00524 0.994903 0.990945
1.00527 0.994884 0.990683
1.00527 0.994971 0.990644
1.00516 0.994968 0.991265
1.00521 0.99497 0.991084
1.00527 0.994951 0.991022
1.00519 0.994967 0.991145
1.00514 0.994964 0.991291
1.00523 0.995605 0.990563
1.00519 0.994962 0.991172
1.00523 0.995461 0.990659
1.00533 0.997407 0.988645
1.00522 0.995385 0.990673
1.00532 0.998028 0.987983
1.00493 0.999823 0.986686
1.0053 0.99833 0.987689
1.00497 0.999991 0.986458
1.00266 1.00022 0.990007
1.00502 1.00011 0.986285
1.0028 1.00012 0.990662
1.00113 0.999958 0.997024
1.00299 0.999972 0.991323
1.001 0.999876 0.994196
1.0006 0.999957 0.994534
1.00524 0.994955 0.991028
1.00526 0.995905 0.990058
1.00524 0.995007 0.990878
1.00531 0.998087 0.987844
1.00526 0.996368 0.989471
1.00524 0.994964 0.990708
1.00511 0.999618 0.986509
1.00534 0.998595 0.987292
1.00526 0.996957 0.988844
1.00272 0.999891 0.990119
1.00511 0.99978 0.986302
1.00534 0.998775 0.986926
1.00085 1.00068 0.997076
1.00258 1.00037 0.989895
1.00505 0.999997 0.986151
1.00218 1.00129 0.989669
1.00067 1.00103 0.996982
1.00049 1.00111 0.997044
1.00518 0.994957 0.991171
1.00521 0.994938 0.991083
1.00525 0.994907 0.990913
1.00523 0.995607 0.990569
1.00516 0.994969 0.991257
1.00521 0.994968 0.991091
1.00515 0.994962 0.991274
1.00523 0.9956 0.990565
1.00535 0.997513 0.988599
1.00522 0.995702 0.99043
1.00534 0.997747 0.988294
1.00488 0.999384 0.98717
1.00533 0.99801 0.987987
1.00494 0.999812 0.986685
1.00262 1.00015 0.99016
1.00499 0.999977 0.986466
1.00267 1.0002 0.990013
1.00109 1.00001 0.997012
1.00283 1.0001 0.98988
1.001 0.999959 0.995633
1.00068 0.999846 0.994494
1.00523 0.99495 0.991068
1.00526 0.99577 0.990281
1.00523 0.994949 0.991039
1.00529 0.998226 0.987759
1.00527 0.995945 0.990009
1.00524 0.995082 0.990813
1.00504 0.99954 0.986712
1.00531 0.998367 0.987579
1.00525 0.996391 0.989408
1.00278 0.999771 0.990173
1.00507 0.999609 0.986526
1.00534 0.998587 0.987303
1.00103 1.00023 0.99711
1.00275 0.999865 0.990122
1.00508 0.999668 0.986366
1.00086 1.00067 0.997039
1.0026 1.00035 0.989904
1.00062 1.00102 0.996992
1.00522 0.995648 0.99049
1.00519 0.994957 0.991166
1.0052 0.994941 0.991086
1.00534 0.997463 0.988669
1.00523 0.995601 0.99056
1.00516 0.994969 0.991249
1.00522 0.995593 0.990566
1.00535 0.997488 0.988605
1.00483 0.999234 0.987415
1.00535 0.998092 0.987942
1.0049 0.99951 0.987036
1.00257 1.00003 0.990362
1.00495 0.999799 0.986685
1.0026 1.00016 0.990168
1.00103 1.00002 0.997013
1.00267 1.00019 0.990016
1.00107 1.00002 0.997006
1.00109 0.99992 0.993977
1.00526 0.995827 0.990208
1.00524 0.994943 0.991028
1.00528 0.998019 0.988019
1.00526 0.995766 0.99029
1.00522 0.994938 0.991049
1.00496 0.999759 0.986701
1.00529 0.998235 0.987754
1.00527 0.995984 0.989959
1.00276 0.999857 0.990154
1.00501 0.999684 0.986611
1.0053 0.998652 0.987314
1.00114 0.999988 0.997072
1.0028 0.999767 0.990172
1.00505 0.999593 0.986543
1.00101 1.00027 0.9971
1.00278 0.999855 0.990125
1.00087 1.00066 0.997005
1.00531 0.997539 0.9886
1.00522 0.995658 0.99049
1.00519 0.994957 0.991161
1.00481 0.999174 0.987508
1.00534 0.997443 0.988674
1.00523 0.995596 0.990551
1.00535 0.997467 0.988612
1.00485 0.999223 0.987386
1.00248 0.999983 0.99057
1.00491 0.999637 0.986902
1.00255 1.00004 0.99037
1.00099 1.00002 0.997046
1.0026 1.00017 0.990178
1.001 1.00005 0.997029
1.00105 1.00003 0.997007
1.00528 0.997827 0.988235
1.00525 0.995638 0.990417
1.00525 0.994937 0.990989
1.0049 0.999675 0.986919
1.00529 0.998027 0.988011
1.00526 0.99575 0.9903
1.00268 0.99998 0.990206
1.00493 0.999781 0.986697
1.00529 0.998244 0.987749
1.00114 0.999932 0.997024
1.00277 0.999872 0.99015
1.00499 0.999823 0.98651
1.00112 1.00003 0.997089
1.00282 0.999779 0.990171
1.00103 1.00028 0.997079
1.00482 0.999477 0.987234
1.00531 0.99738 0.988727
1.00522 0.995665 0.99049
1.00244 0.999909 0.990728
1.00482 0.999156 0.987499
1.00534 0.997418 0.988679
1.00487 0.999208 0.987358
1.00249 0.999958 0.990577
1.00093 1.00002 0.997073
1.00253 1.00005 0.990378
1.00096 1.00003 0.997051
1.00096 1.00006 0.997042
1.00485 0.999562 0.987117
1.00529 0.997629 0.988451
1.00525 0.995468 0.990626
1.00269 1.00002 0.991695
1.00487 0.999684 0.986921
1.00529 0.998037 0.988002
1.00107 0.999961 0.997014
1.00268 0.999997 0.990203
1.00491 0.999803 0.986693
1.00115 0.999958 0.997043
1.00278 0.999894 0.990146
1.00112 1.00006 0.997101
1.00253 0.999908 0.990627
1.00481 0.999334 0.987351
1.00531 0.997222 0.988854
1.00086 0.999985 0.997126
1.00243 0.999907 0.990723
1.00483 0.999143 0.987491
1.00248 0.999934 0.99058
1.00091 1.00001 0.99709
1.00094 1.00004 0.997062
1.00269 0.999963 0.991813
1.00483 0.999566 0.987118
1.00529 0.997424 0.988667
1.00054 1 0.997531
1.00258 1.00002 0.990365
1.00485 0.999691 0.986924
1.00109 0.999969 0.997023
1.00268 1.00002 0.990198
1.00115 0.999977 0.99706
1.00086 0.999955 0.994361
1.00255 0.999911 0.991306
1.00481 0.999191 0.987467
1.00089 0.999988 0.997131
1.00243 0.999909 0.990726
1.00092 0.999998 0.997103
1.0004 0.999992 0.994797
1.00259 0.99995 0.99119
1.00481 0.999576 0.987118
1.00075 0.999992 0.99586
1.00257 1.00002 0.990382
1.00111 0.999976 0.997034
1.00088 0.999975 0.997124
1.00243 0.999903 0.990725
1.00085 0.999989 0.997129
1.00066 0.999971 0.995966
1.0025 0.999943 0.990602
1.00102 0.999986 0.997044
1.0009 0.999974 0.997133
1.00092 0.999979 0.997095

TENSORS stress float
0.00206683 -0.000138558 0.000238506
-0.000138558 0.000948295 -3.86974e-05
0.000238506 -3.86974e-05 0.000923139
0.00644849 1.8524e-05 0.000264177
1.8524e-05 0.00367748 2.89448e-05
0.000264177 2.89448e-05 0.00367795
0.00176651 -7.03379e-05 0.000101883
-7.03379e-05 0.000761462 -1.54574e-05
0.000101883 -1.54574e-05 0.000725791
0.0021149 -7.94364e-05 0.000232371
-7.94364e-05 0.000953747 -2.25982e-05
0.000232371 -2.25982e-05 0.000937138
0.00211895 -0.000122456 0.000233439
-0.000122456 0.000970675 -3.40847e-05
0.000233439 -3.40847e-05 0.000948795
0.00201282 -0.000139591 0.000245728
-0.000139591 0.000916222 -3.99591e-05
0.000245728 -3.99591e-05 0.000891576
0.00176091 -0.000124796 4.51748e-05
-0.000124796 0.000671655 -1.24584e-05
4.51748e-05 -1.24584e-05 0.000566771
0.00638022 8.63681e-06 -7.06308e-06
8.63681e-06 0.00362592 -9.75525e-07
-7.06308e-06 -9.75525e-07 0.003631
0.00626841 0.000182906 0.00013265
0.000182906 0.0035455 1.18637e-05
0.00013265 1.18637e-05 0.00352263
0.00617005 -6.97262e-05 6.66401e-05
-6.97262e-05 0.00348266 3.18408e-06
6.66401e-05 3.18408e-06 0.00346149
0.00181374 0.000178015 0.000248305
0.000178015 0.000787826 2.95034e-05
0.000248305 2.95034e-05 0.000782527
0.000521927 0.000243059 2.62634e-05
0.000243059 -6.54371e-05 1.87739e-05
2.62634e-05 1.87739e-05 -0.000189233
0.00175271 -3.44053e-05 0.000232454
-3.44053e-05 0.000725609 3.7379e-06
0.000232454 3.7379e-06 0.000724784
0.00142944 -4.33041e-07 5.71999e-05
-4.33041e-07 0.000547877 1.63387e-06
5.71999e-05 1.63387e-06 0.000503997
0.00151604 -6.95028e-05 -5.11251e-05
-6.95028e-05 0.000613414 8.90863e-06
-5.11251e-05 8.90863e-06 0.000564174
0.00176853 -8.0204e-05 7.69239e-05
-8.0204e-05 0.000755543 -4.60312e-06
7.69239e-05 -4.60312e-06 0.000723144
0.00177409 -5.67966e-05 0.000110443
-5.67966e-05 0.00077326 -1.63111e-05
0.000110443 -1.63111e-05 0.000733865
0.00177691 -8.00583e-05 9.07543e-05
-8.00583e-05 0.000760369 -1.20915e-05
9.07543e-05 -1.20915e-05 0.000728074
0.00181256 -0.000161163 -3.8464e-05
-0.000161163 0.000700532 5.24997e-06
-3.8464e-05 5.24997e-06 0.000604681
0.00598585 -0.000135617 0.000297793
-0.000135617 0.00338097 -1.18684e-05
0.000297793 -1.18684e-05 0.00339562
0.00205661 -5.78301e-05 0.00023151
-5.78301e-05 0.000916657 -1.6847e-05
0.00023151 -1.6847e-05 0.000902336
0.00214488 -0.000102281 0.00023274
-0.000102281 0.000977395 -2.85515e-05
0.00023274 -2.85515e-05 0.000958663
0.00171915 -0.000130089 6.59286e-05
-0.000130089 0.000634013 -9.9344e-06
6.59286e-05 -9.9344e-06 0.000541621
0.00175453 -0.000132721 5.46918e-05
-0.000132721 0.00065657 -1.18895e-05
5.46918e-05 -1.18895e-05 0.00055923
0.00194106 -0.000115796 0.000243581
-0.000115796 0.000864229 -3.65649e-05
0.000243581 -3.65649e-05 0.00084332
0.00174626 -0.000118486 3.72888e-05
-0.000118486 0.000681243 -1.32493e-05
3.72888e-05 -1.32493e-05 0.000565732
0.00207362 -0.000295774 1.6427e-05
-0.000295774 0.00066874 -6.93676e-06
1.6427e-05 -6.93676e-06 0.000475857
0.00635509 -5.68304e-06 -0.000261797
-5.68304e-06 0.00360098 -1.95609e-05
-0.000261797 -1.95609e-05 0.00361085
0.00405845 0.000138458 -0.000136793
0.000138458 0.00217477 -1.47237e-05
-0.000136793 -1.47237e-05 0.00215342
0.00395067 4.4759e-05 -0.000133143
4.4759e-05 0.00212095 -1.16243e-05
-0.000133143 -1.16243e-05 0.00209972
0.00628962 -6.10729e-05 -4.0252e-06
-6.10729e-05 0.00358198 -1.50296e-07
-4.0252e-06 -1.50296e-07 0.00358202
0.000482663 0.00022462 -1.50806e-06
0.00022462 -8.70129e-05 -1.01588e-06
-1.50806e-06 -1.01588e-06 -0.000210448
0.00179279 6.52634e-05 0.000238626
6.52634e-05 0.000753746 2.11305e-05
0.000238626 2.11305e-05 0.00074039
0.00192756 0.000152504 0.000244157
0.000152504 0.000868955 3.27521e-05
0.000244157 3.27521e-05 0.000844997
0.00277964 0.000201833 0.000147057
0.000201833 0.00128298 2.04879e-05
0.000147057 2.04879e-05 0.00120475
0.00553505 -0.000329541 -2.05401e-06
-0.000329541 0.00318704 6.33165e-06
-2.05401e-06 6.33165e-06 0.00312317
0.00290155 0.00027292 0.000150274
0.00027292 0.00139784 2.52296e-05
0.000150274 2.52296e-05 0.00130618
0.000466776 0.000205891 2.71093e-05
0.000205891 -9.57489e-05 2.42124e-05
2.71093e-05 2.42124e-05 -0.000216664
0.000873846 0.000228579 1.22923e-05
0.000228579 2.83505e-05 6.20927e-06
1.22923e-05 6.20927e-06 -0.000173131
0.00429241 -0.000105996 0.000160995
-0.000105996 0.00237955 1.23727e-05
0.000160995 1.23727e-05 0.00238008
0.00597925 7.93329e-05 3.47053e-06
7.93329e-05 0.00336437 -1.7409e-06
3.47053e-06 -1.7409e-06 0.00338579
0.00386981 8.46129e-05 -0.000114171
8.46129e-05 0.00205493 -4.89111e-06
-0.000114171 -4.89111e-06 0.00204301
0.00583937 5.83936e-05 0.000290176
5.83936e-05 0.00328072 4.01641e-06
0.000290176 4.01641e-06 0.00330262
0.00139283 8.58241e-05 5.99431e-05
8.58241e-05 0.000526558 3.91898e-06
5.99431e-05 3.91898e-06 0.000487504
0.000555731 1.09391e-05 1.55645e-05
1.09391e-05 -0.000116741 1.93476e-06
1.55645e-05 1.93476e-06 -0.0001993
0.0060849 0.000223492 0.000163797
0.000223492 0.00345708 1.54682e-05
0.000163797 1.54682e-05 0.00343228
0.0027975 7.27814e-05 0.000139033
7.27814e-05 0.00126349 8.82566e-06
0.000139033 8.82566e-06 0.00120651
0.0013745 -8.26062e-05 -7.11546e-05
-8.26062e-05 0.000528717 8.83853e-06
-7.11546e-05 8.83853e-06 0.000479772
0.00142089 -0.000100828 -6.37774e-05
-0.000100828 0.000559895 1.0637e-05
-6.37774e-05 1.0637e-05 0.000508472
0.00159012 -2.53059e-05 -3.92721e-05
-2.53059e-05 0.000659977 7.99637e-06
-3.92721e-05 7.99637e-06 0.000609781
0.00184599 -0.000164623 -0.000128692
-0.000164623 0.000713921 2.28621e-05
-0.000128692 2.28621e-05 0.0006283
0.00374791 -1.28743e-05 -0.000116749
-1.28743e-05 0.00198906 -1.8297e-06
-0.000116749 -1.8297e-06 0.00197627
0.00174187 -6.23908e-05 8.2503e-05
-6.23908e-05 0.000734857 -3.77715e-06
8.2503e-05 -3.77715e-06 0.000706045
0.00172309 -3.38931e-05 0.000114134
-3.38931e-05 0.000744844 -1.46302e-05
0.000114134 -1.46302e-05 0.000704517
0.00178018 -8.1326e-05 8.24054e-05
-8.1326e-05 0.000760415 -7.97083e-06
8.24054e-05 -7.97083e-06 0.000728779
0.00178959 -0.000108629 -3.0811e-05
-0.000108629 0.000667592 1.97863e-06
-3.0811e-05 1.97863e-06 0.000585714
0.00179709 -0.00016122 -4.44442e-05
-0.00016122 0.000703438 5.8776e-06
-4.44442e-05 5.8776e-06 0.000600721
0.00180961 -0.000150807 -3.30573e-05
-0.000150807 0.00068988 3.71657e-06
-3.30573e-05 3.71657e-06 0.000599734
0.00205052 -0.000294807 -9.09128e-06
-0.000294807 0.00065019 2.43689e-06
-9.09128e-06 2.43689e-06 0.000457608
0.00581755 1.38179e-05 0.000285297
1.38179e-05 0.00326579 -1.56641e-06
0.000285297 -1.56641e-06 0.00328879
0.00200801 -3.48075e-05 0.000228964
-3.48075e-05 0.000889237 -1.15542e-05
0.000228964 -1.15542e-05 0.000878135
0.00244398 -2.89567e-06 4.86464e-05
-2.89567e-06 0.00106958 -8.43061e-07
4.86464e-05 -8.43061e-07 0.00100315
0.00169673 -0.000106003 5.8799e-05
-0.000106003 0.000613376 -6.65435e-06
5.8799e-05 -6.65435e-06 0.000528125
0.00173877 -0.000133396 6.20081e-05
-0.000133396 0.000644439 -1.12774e-05
6.20081e-05 -1.12774e-05 0.000550036
0.00188994 -0.000189048 1.13191e-05
-0.000189048 0.000485969 -2.7185e-06
1.13191e-05 -2.7185e-06 0.000330613
0.00184491 -0.000255301 1.6485e-05
-0.000255301 0.000489225 -5.34922e-06
1.6485e-05 -5.34922e-06 0.000311302
0.00178689 -7.3276e-05 0.000222719
-7.3276e-05 0.000768497 -2.87141e-05
0.000222719 -2.87141e-05 0.000752289
0.00164444 -8.26302e-05 2.79803e-05
-8.26302e-05 0.000638054 -1.29283e-05
2.79803e-05 -1.29283e-05 0.000521303
0.00207796 -0.000318484 1.64343e-05
-0.000318484 0.000714521 -8.00823e-06
1.64343e-05 -8.00823e-06 0.000508866
0.00156146 -0.000368504 6.10537e-06
-0.000368504 0.000152719 -8.20281e-07
6.10537e-06 -8.20281e-07 -8.60923e-05
0.00659827 0.000240215 -0.000318022
0.000240215 0.00375065 -3.36186e-05
-0.000318022 -3.36186e-05 0.00375521
0.0061756 -8.64551e-05 -0.000233223
-8.64551e-05 0.00351285 -1.55977e-05
-0.000233223 -1.55977e-05 0.0035142
0.00640448 7.13081e-05 -0.000277813
7.13081e-05 0.00362272 -2.38708e-05
-0.000277813 -2.38708e-05 0.00363584
0.000445559 0.00021734 -2.49395e-05
0.00021734 -0.000104868 -1.91538e-05
-2.49395e-05 -1.91538e-05 -0.000230522
0.00654174 0.000224551 -2.49013e-06
0.000224551 0.00371206 -2.27625e-06
-2.49013e-06 -2.27625e-06 0.00372006
0.00660273 0.000184889 -8.97947e-06
0.000184889 0.00374767 -2.58156e-06
-8.97947e-06 -2.58156e-06 0.00375498
0.000397356 0.000129192 1.98122e-07
0.000129192 -0.000194579 -3.0085e-07
1.98122e-07 -3.0085e-07 -0.000301993
0.00345601 -0.000111344 -0.000106787
-0.000111344 0.00185934 -3.58579e-06
-0.000106787 -3.58579e-06 0.00182523
0.000403855 0.000203736 1.22555e-07
0.000203736 -0.000144596 -4.64647e-07
1.22555e-07 -4.64647e-07 -0.000267563
0.00171402 0.000210747 5.26703e-05
0.000210747 0.000679727 2.85435e-06
5.26703e-05 2.85435e-06 0.00057892
0.000840832 0.000223831 2.84578e-07
0.000223831 9.94669e-06 -2.81645e-09
2.84578e-07 -2.81645e-09 -0.000189682
0.00524714 -0.000126377 0.000194714
-0.000126377 0.00297751 1.83396e-05
0.000194714 1.83396e-05 0.00296882
0.000516195 3.42438e-05 1.19407e-05
3.42438e-05 -2.80381e-06 1.26661e-05
1.19407e-05 1.26661e-05 -6.8397e-05
0.000491449 9.87526e-05 1.5602e-05
9.87526e-05 -0.000156296 9.73343e-06
1.5602e-05 9.73343e-06 -0.000257804
0.000530154 0.000157441 2.03985e-05
0.000157441 -9.85626e-05 1.72021e-05
2.03985e-05 1.72021e-05 -0.000212965
0.00109822 0.000218009 1.48959e-05
0.000218009 3.11955e-06 5.35612e-06
1.48959e-05 5.35612e-06 -0.000181368
0.00291372 0.000173298 0.00013155
0.000173298 0.00144019 1.76807e-05
0.00013155 1.76807e-05 0.00136655
0.000928621 0.000236692 1.40454e-05
0.000236692 -1.4466e-06 6.6339e-06
1.40454e-05 6.6339e-06 -0.000199682
0.000902397 0.000234073 1.19045e-05
0.000234073 0.000118759 5.95984e-06
1.19045e-05 5.95984e-06 -8.85106e-05
0.00110919 0.000342952 1.75829e-06
0.000342952 8.4263e-05 -6.65107e-07
1.75829e-06 -6.65107e-07 -0.000180447
0.00332251 -0.000120558 9.85989e-05
-0.000120558 0.00176888 5.28815e-06
9.85989e-05 5.28815e-06 0.00176843
0.00389028 -0.000156188 1.89647e-05
-0.000156188 0.0021379 -3.43023e-07
1.89647e-05 -3.43023e-07 0.00212664
0.00636535 5.34225e-05 -0.000304184
5.34225e-05 0.0035899 -1.46149e-05
-0.000304184 -1.46149e-05 0.00360994
0.00607482 7.02428e-05 -0.00030003
7.02428e-05 0.00341954 -8.99732e-06
-0.00030003 -8.99732e-06 0.0034421
0.00592842 8.39266e-05 -6.45239e-09
8.39266e-05 0.00334103 -3.58538e-06
-6.45239e-09 -3.58538e-06 0.00335948
0.00376451 2.85298e-05 -0.000126052
2.85298e-05 0.00198895 -6.29674e-06
-0.000126052 -6.29674e-06 0.00198192
0.00161863 3.76404e-05 5.99146e-05
3.76404e-05 0.000542077 1.54832e-06
5.99146e-05 1.54832e-06 0.000475535
0.00402189 0.000141017 -0.000116679
0.000141017 0.00215379 -6.66908e-06
-0.000116679 -6.66908e-06 0.00213463
0.00167106 9.00088e-05 6.08138e-05
9.00088e-05 0.000570451 2.88999e-06
6.08138e-05 2.88999e-06 0.000494507
0.00588811 0.000126177 0.000293053
0.000126177 0.00332543 7.13856e-06
0.000293053 7.13856e-06 0.00333857
0.000466124 1.06385e-05 1.87119e-05
1.06385e-05 -0.000166962 9.59523e-07
1.87119e-05 9.59523e-07 -0.000246703
0.00279305 3.69749e-05 0.000137511
3.69749e-05 0.00126234 5.98312e-06
0.000137511 5.98312e-06 0.00121056
0.00110148 5.7013e-05 1.22197e-05
5.7013e-05 -2.27533e-05 9.87884e-07
1.22197e-05 9.87884e-07 -0.00015429
0.00272759 0.000116462 0.000143641
0.000116462 0.00122549 1.15126e-05
0.000143641 1.15126e-05 0.00116247
0.00115795 0.000129087 1.21927e-05
0.000129087 -2.816e-07 2.13902e-06
1.21927e-05 2.13902e-06 -0.000150447
0.00178352 4.28014e-05 -0.000231738
4.28014e-05 0.000744013 2.61076e-06
-0.000231738 2.61076e-06 0.000744625
0.00138869 -1.30464e-05 -5.79516e-05
-1.30464e-05 0.000529064 2.47167e-06
-5.79516e-05 2.47167e-06 0.000485295
0.00157301 1.12128e-05 -3.0974e-05
1.12128e-05 0.000654652 7.81913e-06
-3.0974e-05 7.81913e-06 0.000602798
0.00137687 -9.69743e-05 -7.21759e-05
-9.69743e-05 0.00053252 1.06932e-05
-7.21759e-05 1.06932e-05 0.000482239
0.00191118 -8.79715e-05 -0.000123542
-8.79715e-05 0.00073295 1.12443e-05
-0.000123542 1.12443e-05 0.000661655
0.00189368 -0.000138926 -0.000125736
-0.000138926 0.000732063 1.92198e-05
-0.000125736 1.92198e-05 0.000653033
0.00180418 -0.000177678 -0.00013167
-0.000177678 0.000699719 2.45912e-05
-0.00013167 2.45912e-05 0.000607854
0.00201721 -0.000292742 -3.17218e-05
-0.000292742 0.00062568 1.07312e-05
-3.17218e-05 1.07312e-05 0.00043379
0.00592184 -0.000100865 2.29266e-06
-0.000100865 0.00334087 -1.80788e-06
2.29266e-06 -1.80788e-06 0.0033569
0.00166243 3.34246e-05 9.00563e-05
3.34246e-05 0.000679909 -4.24057e-06
9.00563e-05 -4.24057e-06 0.000658342
0.00115056 -8.55146e-06 -6.29842e-05
-8.55146e-06 0.00025908 1.75506e-06
-6.29842e-05 1.75506e-06 0.000191153
0.00176735 -7.02568e-05 -3.4116e-05
-7.02568e-05 0.000650203 2.58497e-06
-3.4116e-05 2.58497e-06 0.000573598
0.00409671 -1.36449e-05 0.000227946
-1.36449e-05 0.0022213 -1.26081e-05
0.000227946 -1.26081e-05 0.00221204
0.00232427 -0.000162561 -3.97229e-05
-0.000162561 0.00104351 2.88865e-06
-3.97229e-05 2.88865e-06 0.000939123
0.00180613 -0.000131592 -3.04767e-05
-0.000131592 0.000681322 2.58236e-06
-3.04767e-05 2.58236e-06 0.000595663
0.00191461 -0.000187557 -9.82211e-06
-0.000187557 0.000497203 1.78584e-06
-9.82211e-06 1.78584e-06 0.000343962
0.00203419 -0.000318801 -7.82641e-06
-0.000318801 0.000682497 2.321e-06
-7.82641e-06 2.321e-06 0.000476114
0.00194346 -0.000259675 -7.29264e-06
-0.000259675 0.000551383 1.92873e-06
-7.29264e-06 1.92873e-06 0.000372681
0.00159687 -0.000370376 6.07064e-07
-0.000370376 0.000175725 -1.93329e-07
6.07064e-07 -1.93329e-07 -6.26155e-05
0.000501393 1.06622e-05 1.94162e-05
1.06622e-05 -0.000148456 -7.39287e-07
1.94162e-05 -7.39287e-07 -0.000224914
0.00162223 1.21453e-06 4.96809e-05
1.21453e-06 0.000557919 -2.57995e-06
4.96809e-05 -2.57995e-06 0.000483443
0.00176213 -5.88169e-05 1.12458e-05
-5.88169e-05 0.000394779 -5.38105e-07
1.12458e-05 -5.38105e-07 0.000275449
0.00177926 -0.000147393 1.12821e-05
-0.000147393 0.000406805 -1.71921e-06
1.12821e-05 -1.71921e-06 0.000265182
0.00182613 -0.000221067 1.41601e-05
-0.000221067 0.000451311 -3.68052e-06
1.41601e-05 -3.68052e-06 0.000286834
0.00185471 -0.000260557 3.19377e-07
-0.000260557 0.000215714 2.98645e-08
3.19377e-07 2.98645e-08 4.65569e-05
0.00578694 0.000136545 0.000191989
0.000136545 0.0032998 -1.44199e-05
0.000191989 -1.44199e-05 0.00328812
0.00157936 -0.000339126 4.84908e-06
-0.000339126 0.000117504 -6.01753e-07
4.84908e-06 -6.01753e-07 -9.8452e-05
0.000310279 -0.000165038 2.07439e-05
-0.000165038 -0.000196172 -1.93329e-05
2.07439e-05 -1.93329e-05 -0.000302194
0.000888009 -0.000240154 1.30377e-05
-0.000240154 3.388e-05 -8.49257e-06
1.30377e-05 -8.49257e-06 -0.000172334
0.00161217 -0.00040801 7.3598e-06
-0.00040801 0.000245032 -1.59846e-06
7.3598e-06 -1.59846e-06 -2.21638e-05
0.00181924 -0.000443173 3.16636e-06
-0.000443173 0.000198548 1.75618e-06
3.16636e-06 1.75618e-06 -3.64747e-05
0.000487255 -0.000124871 2.08548e-05
-0.000124871 -4.84245e-05 -1.58859e-05
2.08548e-05 -1.58859e-05 -0.000138339
0.000410518 -9.86644e-05 -6.2841e-07
-9.86644e-05 -3.07388e-05 -1.86585e-06
-6.2841e-07 -1.86585e-06 -0.000256722
0.00659769 0.00024671 -0.000328657
0.00024671 0.0037523 -3.25349e-05
-0.000328657 -3.25349e-05 0.00375714
0.00653041 0.000169544 -0.000300214
0.000169544 0.00370116 -2.98127e-05
-0.000300214 -2.98127e-05 0.00371198
0.0004008 0.000126317 -1.85377e-05
0.000126317 -0.000194231 -1.20186e-05
-1.85377e-05 -1.20186e-05 -0.000301869
0.00552746 -0.000157927 -0.000180926
-0.000157927 0.00314621 -1.27516e-05
-0.000180926 -1.27516e-05 0.00313353
0.000425441 0.000185535 -2.37152e-05
0.000185535 -0.000120981 -1.81949e-05
-2.37152e-05 -1.81949e-05 -0.00022771
0.000391967 0.000189929 -2.09278e-05
0.000189929 -0.000149915 -1.76543e-05
-2.09278e-05 -1.76543e-05 -0.000274079
0.000821694 0.000219262 -1.34011e-05
0.000219262 7.88727e-07 -6.82391e-06
-1.34011e-05 -6.82391e-06 -0.000196928
0.00490093 -0.000136443 6.90769e-06
-0.000136443 0.00276225 -8.71326e-08
6.90769e-06 -8.71326e-08 0.00275424
0.000512639 2.12627e-05 1.32014e-06
2.12627e-05 -4.26637e-07 4.97268e-07
1.32014e-06 4.97268e-07 -6.26028e-05
0.00167516 0.000138048 6.26538e-05
0.000138048 0.000580487 5.18469e-06
6.26538e-05 5.18469e-06 0.000492937
0.00164492 0.000197382 6.23383e-05
0.000197382 0.000597647 5.60303e-06
6.23383e-05 5.60303e-06 0.000496205
0.00106084 0.000216263 5.01491e-08
0.000216263 -1.36444e-05 -2.84276e-07
5.01491e-08 -2.84276e-07 -0.000198704
0.000473849 0.000155338 -5.15097e-08
0.000155338 -7.28621e-05 -3.22804e-07
-5.15097e-08 -3.22804e-07 -0.000166531
0.00092766 0.000233431 7.56653e-07
0.000233431 5.55089e-06 5.62408e-08
7.56653e-07 5.62408e-08 -0.000191652
0.00079265 0.000217846 1.96889e-07
0.000217846 4.66241e-05 -7.62209e-07
1.96889e-07 -7.62209e-07 -0.000155827
0.00125149 0.000362981 2.32897e-07
0.000362981 0.000165177 -2.40712e-07
2.32897e-07 -2.40712e-07 -0.000103031
0.000436558 0.000105442 1.77855e-05
0.000105442 -6.28087e-05 1.51253e-05
1.77855e-05 1.51253e-05 -0.000148144
0.000612202 -1.34992e-05 5.58285e-06
-1.34992e-05 6.08271e-05 1.05604e-05
5.58285e-06 1.05604e-05 1.34484e-05
0.0012675 0.000150006 4.37478e-06
0.000150006 0.000491445 6.26904e-06
4.37478e-06 6.26904e-06 0.000301263
0.00114582 0.00019354 1.39657e-05
0.00019354 4.80974e-06 4.10261e-06
1.39657e-05 4.10261e-06 -0.000169151
0.00103335 0.000235199 1.49747e-05
0.000235199 5.57038e-06 6.28619e-06
1.49747e-05 6.28619e-06 -0.000187673
0.00174493 0.000364266 4.25925e-06
0.000364266 0.000196388 2.30309e-07
4.25925e-06 2.30309e-07 -2.51205e-05
0.000745117 0.000217553 9.27298e-06
0.000217553 8.36499e-05 6.22793e-06
9.27298e-06 6.22793e-06 -0.000120344
0.00157028 0.000406342 3.68679e-06
0.000406342 0.000256639 -1.90927e-07
3.68679e-06 -1.90927e-07 -5.24513e-06
0.00104007 0.000322349 2.6196e-06
0.000322349 0.00010787 2.3603e-07
2.6196e-06 2.3603e-07 -0.000161475
0.00148003 0.000455061 -5.62946e-06
0.000455061 0.000216958 -3.33834e-06
-5.62946e-06 -3.33834e-06 -7.66271e-05
0.00292587 -0.000128586 5.81098e-05
-0.000128586 0.00151679 3.4711e-06
5.81098e-05 3.4711e-06 0.00151439
0.0032461 -0.000152667 1.26778e-05
-0.000152667 0.00172698 -8.50148e-07
1.26778e-05 -8.50148e-07 0.00171778
0.00362887 -0.000184091 -7.37541e-05
-0.000184091 0.00197988 -4.60263e-06
-7.37541e-05 -4.60263e-06 0.00196098
0.000465172 -9.75709e-05 1.76118e-05
-9.75709e-05 -4.39185e-05 -1.41401e-05
1.76118e-05 -1.41401e-05 -0.000118414
0.00517141 0.000178758 0.000152091
0.000178758 0.00294946 -1.5443e-05
0.000152091 -1.5443e-05 0.00292528
0.00653222 0.000210575 -0.00032839
0.000210575 0.00370715 -2.72305e-05
-0.00032839 -2.72305e-05 0.00371744
0.00616337 8.93588e-05 -0.000301189
8.93588e-05 0.00347102 -1.26011e-05
-0.000301189 -1.26011e-05 0.00349213
0.000472383 9.69324e-05 -1.96289e-05
9.69324e-05 -0.00016979 -5.56721e-06
-1.96289e-05 -5.56721e-06 -0.000261016
0.000463619 4.3239e-05 -1.92641e-05
4.3239e-05 -0.000169073 -2.78243e-06
-1.92641e-05 -2.78243e-06 -0.00025244
0.00587386 -7.59628e-06 -0.00028724
-7.59628e-06 0.00329816 -2.36298e-06
-0.00028724 -2.36298e-06 0.0033216
0.00582444 8.73922e-06 -1.85417e-07
8.73922e-06 0.00326903 -9.02388e-07
-1.85417e-07 -9.02388e-07 0.00329246
0.000447554 8.10052e-07 -1.1705e-07
8.10052e-07 -0.000181174 1.11506e-07
-1.1705e-07 1.11506e-07 -0.000259079
0.00160947 3.85152e-05 6.05652e-05
3.85152e-05 0.000531291 2.57582e-06
6.05652e-05 2.57582e-06 0.000462785
0.0010594 6.03199e-05 -9.81382e-08
6.03199e-05 -5.04814e-05 -1.05546e-07
-9.81382e-08 -1.05546e-07 -0.000182782
0.000435773 8.25135e-05 -4.28941e-07
8.25135e-05 -0.000190988 -3.80014e-07
-4.28941e-07 -3.80014e-07 -0.000288074
0.00109129 0.000129739 -2.25494e-07
0.000129739 -4.15644e-05 -1.39677e-07
-2.25494e-07 -1.39677e-07 -0.000192821
0.000440381 -3.11465e-05 1.92798e-05
-3.11465e-05 -0.000187112 -7.00334e-07
1.92798e-05 -7.00334e-07 -0.00026254
0.00105914 2.43171e-05 1.19159e-05
2.43171e-05 -4.0388e-05 5.37388e-07
1.19159e-05 5.37388e-07 -0.000167649
0.0011092 9.27616e-05 1.19801e-05
9.27616e-05 -2.48575e-05 1.6022e-06
1.19801e-05 1.6022e-06 -0.000164461
0.00175592 9.78686e-05 -8.80691e-07
9.78686e-05 8.83249e-05 -3.43026e-07
-8.80691e-07 -3.43026e-07 -2.54583e-05
0.00116485 0.000162423 1.28967e-05
0.000162423 4.71296e-06 2.95224e-06
1.28967e-05 2.95224e-06 -0.000157223
0.00179772 0.000213951 5.75383e-07
0.000213951 0.000113565 -6.45341e-07
5.75383e-07 -6.45341e-07 -3.11258e-05
0.00584224 -6.18777e-05 -0.000292151
-6.18777e-05 0.0032859 2.42556e-06
-0.000292151 2.42556e-06 0.00330597
0.00133519 -0.000152721 -5.93972e-05
-0.000152721 0.000509072 6.9081e-06
-5.93972e-05 6.9081e-06 0.000461792
-0.000260872 -5.25419e-06 -1.22717e-05
-5.25419e-06 -0.000610352 1.77321e-06
-1.22717e-05 1.77321e-06 -0.000702507
0.00187786 -6.25167e-05 -0.000122443
-6.25167e-05 0.000712027 7.97893e-06
-0.000122443 7.97893e-06 0.000644151
0.00614414 0.000295334 -1.65674e-05
0.000295334 0.00353344 4.58053e-06
-1.65674e-05 4.58053e-06 0.0034769
0.00297015 -0.000248641 -0.000134776
-0.000248641 0.00143747 2.55784e-05
-0.000134776 2.55784e-05 0.00133846
0.00191604 -0.000113227 -0.000124506
-0.000113227 0.000738464 1.51335e-05
-0.000124506 1.51335e-05 0.000664019
0.00191455 -0.000184684 -2.97317e-05
-0.000184684 0.000492971 5.35568e-06
-2.97317e-05 5.35568e-06 0.000342118
0.00201756 -0.000262271 -3.0667e-05
-0.000262271 0.000597821 9.15067e-06
-3.0667e-05 9.15067e-06 0.0004188
0.00201027 -0.000320125 -2.94755e-05
-0.000320125 0.000663645 1.15711e-05
-2.94755e-05 1.15711e-05 0.000456396
0.00163345 -0.00037232 -4.60095e-06
-0.00037232 0.000199637 5.02816e-07
-4.60095e-06 5.02816e-07 -3.82526e-05
0.000443398 5.25697e-06 -2.45242e-08
5.25697e-06 -0.000182261 2.50166e-07
-2.45242e-08 2.50166e-07 -0.000259715
0.00175441 -8.21096e-05 -3.3128e-05
-8.21096e-05 0.000644542 3.93882e-07
-3.3128e-05 3.93882e-07 0.000571866
0.00139335 -5.43087e-05 -9.77194e-06
-5.43087e-05 0.000167448 5.65389e-07
-9.77194e-06 5.65389e-07 4.37272e-05
0.00187194 -0.000148038 -8.1208e-06
-0.000148038 0.000464098 1.28618e-06
-8.1208e-06 1.28618e-06 0.000321877
0.00604662 0.000135472 5.58813e-06
0.000135472 0.00346387 8.76082e-07
5.58813e-06 8.76082e-07 0.00345002
0.00166582 -0.000162191 2.82393e-06
-0.000162191 0.000656406 5.77294e-07
2.82393e-06 5.77294e-07 0.000540229
0.00135032 -0.000273564 1.27306e-06
-0.000273564 0.000322332 -1.09593e-06
1.27306e-06 -1.09593e-06 0.000113174
0.00186583 -0.000223236 -8.18684e-06
-0.000223236 0.000475558 2.01642e-06
-8.18684e-06 2.01642e-06 0.000310585
0.00183679 -0.000262779 -1.03984e-06
-0.000262779 0.000200073 7.26221e-08
-1.03984e-06 7.26221e-08 3.51297e-05
0.00160458 -0.000406376 1.07485e-06
-0.000406376 0.000244553 -2.91489e-07
1.07485e-06 -2.91489e-07 -2.12182e-05
0.00171966 -0.000345123 5.6686e-07
-0.000345123 0.000206691 -1.47094e-07
5.6686e-07 -1.47094e-07 -9.18675e-06
0.00186001 -0.000444588 7.14872e-07
-0.000444588 0.00022786 7.76365e-08
7.14872e-07 7.76365e-08 -6.85564e-06
0.000502872 -0.000129259 1.48232e-06
-0.000129259 -3.97224e-05 5.94297e-07
1.48232e-06 5.94297e-07 -0.000132752
0.000717578 -0.000132394 2.53766e-07
-0.000132394 0.000138874 3.47753e-08
2.53766e-07 3.47753e-08 -7.43153e-05
0.00104753 -2.69612e-05 1.20099e-05
-2.69612e-05 -3.98175e-05 -5.9852e-07
1.20099e-05 -5.9852e-07 -0.000167402
0.00183632 -9.93743e-05 1.02046e-05
-9.93743e-05 0.000442146 -1.02612e-06
1.02046e-05 -1.02612e-06 0.000314067
0.00176198 -9.77461e-05 -7.16143e-07
-9.77461e-05 0.000119374 3.59756e-07
-7.16143e-07 3.59756e-07 -1.01239e-07
0.00179535 -0.000210636 3.93727e-09
-0.000210636 0.000155331 1.02611e-06
3.93727e-09 1.02611e-06 1.4206e-05
0.00176621 -0.000311263 1.4518e-06
-0.000311263 0.000192981 3.57259e-07
1.4518e-06 3.57259e-07 4.04334e-06
0.00198794 -0.000306328 1.40347e-06
-0.000306328 0.000172232 2.59212e-07
1.40347e-06 2.59212e-07 3.28581e-05
0.000433853 -0.00015021 2.00424e-05
-0.00015021 -9.68817e-05 -1.86513e-05
2.00424e-05 -1.86513e-05 -0.000199682
0.0018859 -0.000407461 1.42494e-06
-0.000407461 0.000193409 1.53203e-06
1.42494e-06 1.53203e-06 -6.19756e-06
0.000596474 -0.000214522 9.18741e-06
-0.000214522 -7.25401e-05 -7.50954e-06
9.18741e-06 -7.50954e-06 -0.000276717
0.00129856 -0.000404262 1.00145e-05
-0.000404262 0.000147669 -2.52332e-06
1.00145e-05 -2.52332e-06 -0.000140237
0.00200497 -0.000501627 3.19904e-06
-0.000501627 0.00037628 9.81527e-07
3.19904e-06 9.81527e-07 9.53193e-05
0.002169 -0.000482692 -1.67846e-06
-0.000482692 0.000366875 4.09434e-06
-1.67846e-06 4.09434e-06 0.000158058
0.000707114 -0.000204306 1.96433e-06
-0.000204306 0.000114294 -4.31603e-06
1.96433e-06 -4.31603e-06 -0.000124172
0.000616032 -9.65618e-05 -2.16259e-07
-9.65618e-05 7.61782e-05 -4.29637e-06
-2.16259e-07 -4.29637e-06 -9.00132e-05
0.00103821 -0.000258953 -1.88168e-06
-0.000258953 0.000344302 5.8223e-07
-1.88168e-06 5.8223e-07 5.73569e-05
0.00042867 0.000105143 -1.79612e-05
0.000105143 -0.000190098 -9.18987e-06
-1.79612e-05 -9.18987e-06 -0.000292715
0.00449345 -0.000200189 -0.000115815
-0.000200189 0.00253164 -9.79559e-06
-0.000115815 -9.79559e-06 0.00250667
0.000428993 8.0474e-06 -6.85819e-06
8.0474e-06 -4.71911e-05 -1.20719e-05
-6.85819e-06 -1.20719e-05 -0.000106486
0.000386742 0.000157664 -1.9855e-05
0.000157664 -0.00017972 -1.50902e-05
-1.9855e-05 -1.50902e-05 -0.000295297
0.00102475 0.000214816 -1.54938e-05
0.000214816 -2.97533e-05 -5.92573e-06
-1.54938e-05 -5.92573e-06 -0.0002154
0.000511173 0.000145056 -2.26774e-05
0.000145056 -5.11767e-05 -1.68665e-05
-2.26774e-05 -1.68665e-05 -0.000142563
0.000596476 0.000201958 -9.93817e-06
0.000201958 -7.543e-05 -7.12957e-06
-9.93817e-06 -7.12957e-06 -0.000274287
0.000931266 0.000230784 -1.41333e-05
0.000230784 1.4995e-05 -6.9965e-06
-1.41333e-05 -6.9965e-06 -0.000181319
0.00136168 0.000380813 -3.83756e-06
0.000380813 0.000224026 -3.1073e-07
-3.83756e-06 -3.1073e-07 -4.74586e-05
0.000538992 9.43636e-05 9.59198e-07
9.43636e-05 -3.56401e-06 1.11287e-06
9.59198e-07 1.11287e-06 -8.38322e-05
0.000423297 -3.32903e-05 1.73083e-07
-3.32903e-05 -4.6658e-05 4.59016e-07
1.73083e-07 4.59016e-07 -9.67237e-05
0.000626819 9.11675e-05 1.85078e-06
9.11675e-05 8.30123e-05 -3.4353e-07
1.85078e-06 -3.4353e-07 -9.01935e-05
0.00110017 0.000192734 -1.47249e-07
0.000192734 -1.87593e-05 -3.1223e-07
-1.47249e-07 -3.1223e-07 -0.000193665
0.0010034 0.000231644 2.8898e-07
0.000231644 -5.0805e-06 -1.90912e-07
2.8898e-07 -1.90912e-07 -0.000197985
0.00172219 0.000362948 -9.26818e-08
0.000362948 0.000180907 -1.04411e-07
-9.26818e-08 -1.04411e-07 -4.09239e-05
0.000746805 0.000217363 -5.86228e-07
0.000217363 8.36937e-05 -8.51843e-08
-5.86228e-07 -8.51843e-08 -0.000119792
0.00157037 0.000404737 -1.33722e-07
0.000404737 0.000251135 -2.5376e-07
-1.33722e-07 -2.5376e-07 -1.13205e-05
0.00109717 0.000326684 9.98776e-07
0.000326684 0.000145979 -9.7648e-07
9.98776e-07 -9.7648e-07 -0.000123076
0.00143878 0.000463925 -3.57836e-07
0.000463925 0.000175965 1.21566e-06
-3.57836e-07 1.21566e-06 -0.000118893
0.00054184 -3.81452e-05 6.46731e-07
-3.81452e-05 2.02131e-05 8.4523e-06
6.46731e-07 8.4523e-06 -1.87977e-05
0.000995245 0.000164049 5.38064e-06
0.000164049 0.000292406 5.02162e-06
5.38064e-06 5.02162e-06 8.83707e-05
0.000874458 5.72942e-05 1.85037e-06
5.72942e-05 0.00022211 5.83919e-06
1.85037e-06 5.83919e-06 9.60904e-05
0.000920528 0.000140215 1.87431e-06
0.000140215 0.000305798 1.62091e-07
1.87431e-06 1.62091e-07 4.92502e-05
0.00180261 0.000324658 2.13368e-06
0.000324658 0.000174882 -1.017e-06
2.13368e-06 -1.017e-06 -2.00966e-05
0.00165 0.000392603 4.74934e-06
0.000392603 0.000212234 4.69966e-07
4.74934e-06 4.69966e-07 -3.36071e-05
0.00198825 0.00043626 1.06767e-06
0.00043626 0.000243381 -7.06863e-07
1.06767e-06 -7.06863e-07 2.66759e-05
0.000818362 0.000256049 3.47521e-06
0.000256049 2.28617e-05 2.87151e-06
3.47521e-06 2.87151e-06 -0.00021498
0.00209319 0.000539376 -2.36935e-06
0.000539376 0.000457854 -1.26148e-06
-2.36935e-06 -1.26148e-06 0.000173919
0.00163217 0.000469894 -3.15973e-06
0.000469894 0.000404425 -3.86351e-06
-3.15973e-06 -3.86351e-06 7.74187e-05
0.00171863 0.000512657 -2.1476e-07
0.000512657 0.000250418 -7.53367e-07
-2.1476e-07 -7.53367e-07 -4.30858e-05
0.000568614 3.49043e-05 2.60549e-06
3.49043e-05 3.9069e-05 3.47987e-06
2.60549e-06 3.47987e-06 -2.66153e-05
0.000488665 -2.95516e-05 1.20711e-06
-2.95516e-05 -3.19044e-05 6.27601e-06
1.20711e-06 6.27601e-06 -5.75891e-05
0.0026703 -0.000119891 3.6856e-05
-0.000119891 0.00135028 3.71837e-06
3.6856e-05 3.71837e-06 0.00135021
0.00283315 -0.000139437 6.94752e-06
-0.000139437 0.00146149 -7.12442e-07
6.94752e-06 -7.12442e-07 0.00145589
0.00309228 -0.000164883 -4.70198e-05
-0.000164883 0.00163405 -3.52453e-06
-4.70198e-05 -3.52453e-06 0.00162088
0.000393128 -6.75567e-05 1.16308e-05
-6.75567e-05 -7.49684e-05 -1.26722e-05
1.16308e-05 -1.26722e-05 -0.00013832
0.00457864 0.000165553 0.000127668
0.000165553 0.00257654 -1.23194e-05
0.000127668 -1.23194e-05 0.00255793
0.000477226 -9.50496e-05 -3.80734e-07
-9.50496e-05 -3.67783e-05 3.74332e-07
-3.80734e-07 3.74332e-07 -0.000117373
0.00539447 0.000144347 -1.5516e-06
0.000144347 0.00307197 -1.17248e-07
-1.5516e-06 -1.17248e-07 0.00305666
0.000468913 0.000108268 -1.92962e-05
0.000108268 -0.000168301 -7.35127e-06
-1.92962e-05 -7.35127e-06 -0.000267323
0.000479699 3.45342e-05 -1.82728e-05
3.45342e-05 -0.000165893 -3.5928e-06
-1.82728e-05 -3.5928e-06 -0.000251036
0.00104972 0.000130437 -1.21039e-05
0.000130437 -6.90058e-05 -2.38574e-06
-1.21039e-05 -2.38574e-06 -0.000221196
0.00102233 6.23711e-05 -1.19872e-05
6.23711e-05 -7.50133e-05 -1.10836e-06
-1.19872e-05 -1.10836e-06 -0.000207891
0.00050151 -7.73071e-06 -1.93808e-05
-7.73071e-06 -0.000151215 -9.46899e-07
-1.93808e-05 -9.46899e-07 -0.000227257
0.00591709 -9.8837e-05 -0.000298868
-9.8837e-05 0.00333708 5.02647e-06
-0.000298868 5.02647e-06 0.00335475
0.000488205 -1.99278e-06 7.82624e-08
-1.99278e-06 -0.000158436 -6.51539e-07
7.82624e-08 -6.51539e-07 -0.000233838
0.00104196 2.95785e-05 -8.68985e-08
2.95785e-05 -5.22211e-05 1.49366e-08
-8.68985e-08 1.49366e-08 -0.000179906
0.00108275 9.4481e-05 -1.93482e-07
9.4481e-05 -4.33483e-05 -7.68623e-08
-1.93482e-07 -7.68623e-08 -0.000183712
0.00173281 9.60261e-05 -5.25019e-08
9.60261e-05 7.73432e-05 1.06917e-07
-5.25019e-08 1.06917e-07 -3.65384e-05
0.00111209 0.000163379 -3.21442e-07
0.000163379 -2.64664e-05 -2.46114e-07
-3.21442e-07 -2.46114e-07 -0.000189744
0.00178235 0.000213152 -1.90267e-07
0.000213152 0.000103827 1.12357e-07
-1.90267e-07 1.12357e-07 -4.12227e-05
0.00103056 -3.14075e-06 1.18997e-05
-3.14075e-06 -5.14662e-05 -1.78446e-07
1.18997e-05 -1.78446e-07 -0.000178013
0.00171176 4.57342e-05 -3.04642e-07
4.57342e-05 6.38809e-05 -8.30241e-08
-3.04642e-07 -8.30241e-08 -4.30749e-05
0.00175802 0.000152844 -8.37741e-07
0.000152844 9.01035e-05 -4.44077e-07
-8.37741e-07 -4.44077e-07 -3.59638e-05
0.00190123 0.000124815 2.23645e-06
0.000124815 4.32385e-05 3.30965e-07
2.23645e-06 3.30965e-07 -2.25709e-05
0.00183482 0.00027572 1.64368e-06
0.00027572 0.000150037 -7.11718e-07
1.64368e-06 -7.11718e-07 -1.8895e-05
0.00201339 0.000251829 2.17956e-06
0.000251829 0.000126113 -1.13811e-06
2.17956e-06 -1.13811e-06 1.43773e-05
0.000473879 -2.04456e-06 -1.85415e-05
-2.04456e-06 -0.000160415 8.58483e-07
-1.85415e-05 8.58483e-07 -0.00024004
0.00184842 -3.81772e-05 -0.000120932
-3.81772e-05 0.000694132 5.30365e-06
-0.000120932 5.30365e-06 0.000630812
0.000987787 -4.87974e-05 -1.69626e-05
-4.87974e-05 -8.21055e-05 1.54697e-06
-1.69626e-05 1.54697e-06 -0.000210575
0.0019431 -0.000147643 -2.73804e-05
-0.000147643 0.000507539 4.05054e-06
-2.73804e-05 4.05054e-06 0.000364871
0.00623168 0.000117255 -0.000223039
0.000117255 0.0035731 2.13483e-05
-0.000223039 2.13483e-05 0.00356094
0.0030443 -0.00023265 -0.000141393
-0.00023265 0.00149991 2.09195e-05
-0.000141393 2.09195e-05 0.00141107
0.00203911 -0.000327409 -2.49003e-05
-0.000327409 0.000746559 1.06002e-05
-2.49003e-05 1.06002e-05 0.000530818
0.00188296 -0.000223733 -2.98905e-05
-0.000223733 0.000485446 7.28688e-06
-2.98905e-05 7.28688e-06 0.000320363
0.00181339 -0.00026487 -3.22248e-06
-0.00026487 0.000180283 -3.17021e-07
-3.22248e-06 -3.17021e-07 1.95579e-05
0.00186157 -0.000351216 -4.37758e-06
-0.000351216 0.000297503 8.33277e-07
-4.37758e-06 8.33277e-07 8.16859e-05
0.00159335 -0.000404566 -6.3595e-06
-0.000404566 0.00024087 7.91377e-07
-6.3595e-06 7.91377e-07 -2.34082e-05
0.00190295 -0.0004466 -1.30808e-06
-0.0004466 0.000257193 -1.74645e-06
-1.30808e-06 -1.74645e-06 2.26414e-05
0.000450772 -0.000137704 -1.86756e-05
-0.000137704 -6.65099e-05 1.72865e-05
-1.86756e-05 1.72865e-05 -0.000165725
0.000791826 -0.000164753 -7.39763e-07
-0.000164753 0.000181133 1.67321e-06
-7.39763e-07 1.67321e-06 -3.06439e-05
0.000999346 -2.18191e-05 8.72894e-08
-2.18191e-05 -7.18927e-05 -4.70287e-10
8.72894e-08 -4.70287e-10 -0.000197707
0.00183369 -9.98755e-05 -8.40342e-06
-9.98755e-05 0.000438806 9.87095e-07
-8.40342e-06 9.87095e-07 0.000310934
0.00182316 -9.47123e-05 -2.95678e-07
-9.47123e-05 0.000155717 3.03742e-08
-2.95678e-07 3.03742e-08 4.12079e-05
0.00175973 -0.000209171 -2.09306e-06
-0.000209171 0.000137094 6.93018e-07
-2.09306e-06 6.93018e-07 -9.32544e-06
0.000456848 -0.000170509 1.12169e-07
-0.000170509 -8.53765e-05 7.69159e-08
1.12169e-07 7.69159e-08 -0.000188678
0.000803878 -0.000226316 -2.47805e-07
-0.000226316 4.97711e-05 4.55232e-08
-2.47805e-07 4.55232e-08 -0.000156501
0.00129641 -0.000403015 1.67416e-06
-0.000403015 0.000150005 -5.11015e-07
1.67416e-06 -5.11015e-07 -0.000138265
0.00180129 -0.000311152 -3.20062e-06
-0.000311152 0.00021575 8.90234e-07
-3.20062e-06 8.90234e-07 2.43791e-05
0.00202197 -0.000310582 2.00114e-06
-0.000310582 0.000184778 -8.27022e-07
2.00114e-06 -8.27022e-07 5.01287e-05
0.00205285 -0.000510184 -7.84933e-07
-0.000510184 0.000403469 -4.13973e-07
-7.84933e-07 -4.13973e-07 0.000122775
0.00190543 -0.000408955 5.51602e-07
-0.000408955 0.000205721 -4.92816e-08
5.51602e-07 -4.92816e-08 5.93818e-06
0.00203774 -0.000476289 8.78651e-07
-0.000476289 0.000279498 7.39541e-07
8.78651e-07 7.39541e-07 7.08085e-05
0.000661058 -0.000191981 2.57863e-07
-0.000191981 8.61895e-05 -3.6936e-07
2.57863e-07 -3.6936e-07 -0.000147626
0.000305338 -0.000162928 -7.52423e-07
-0.000162928 -0.000128682 -5.59311e-07
-7.52423e-07 -5.59311e-07 -0.000394482
0.000692054 -0.000117618 8.02296e-07
-0.000117618 0.000127672 1.3358e-08
8.02296e-07 1.3358e-08 -4.88409e-05
0.00176797 -4.36507e-05 -7.99741e-07
-4.36507e-05 0.000118634 2.17597e-07
-7.99741e-07 2.17597e-07 6.9045e-06
0.00187855 -0.000148811 -2.50851e-06
-0.000148811 0.000198729 1.07277e-06
-2.50851e-06 1.07277e-06 7.52675e-05
0.00187204 -0.000117023 3.93197e-06
-0.000117023 3.30776e-05 -1.61176e-07
3.93197e-06 -1.61176e-07 -4.22982e-05
0.00187185 -0.000247408 -1.20285e-07
-0.000247408 6.43161e-05 1.11392e-06
-1.20285e-07 1.11392e-06 -4.43529e-05
0.00180794 -0.00036447 -4.52079e-07
-0.00036447 9.63432e-05 2.19663e-06
-4.52079e-07 2.19663e-06 -6.89957e-05
0.00212582 -0.000337847 3.42047e-06
-0.000337847 0.000202303 -7.91884e-07
3.42047e-06 -7.91884e-07 9.39174e-05
0.000620148 -0.000224286 5.53875e-06
-0.000224286 -3.95053e-07 -6.79582e-06
5.53875e-06 -6.79582e-06 -0.000212835
0.00188384 -0.00043725 -9.75208e-07
-0.00043725 0.000131295 1.82616e-06
-9.75208e-07 1.82616e-06 -4.32008e-05
0.00132302 -0.000374538 7.36805e-06
-0.000374538 0.000285531 -5.13807e-06
7.36805e-06 -5.13807e-06 8.54731e-07
0.00171618 -0.000553648 6.4301e-06
-0.000553648 0.000296911 7.29908e-07
6.4301e-06 7.29908e-07 -4.1184e-05
0.00213012 -0.000541781 3.29784e-06
-0.000541781 0.000397592 3.92628e-06
3.29784e-06 3.92628e-06 0.000128913
0.00222709 -0.000503053 -2.30513e-06
-0.000503053 0.000400132 2.47573e-06
-2.30513e-06 2.47573e-06 0.000204098
0.000616949 -8.11741e-05 -8.89357e-07
-8.11741e-05 9.21495e-05 -6.2837e-06
-8.89357e-07 -6.2837e-06 -4.86702e-05
0.00100672 -0.000268983 1.5775e-06
-0.000268983 0.000203767 -1.22088e-06
1.5775e-06 -1.22088e-06 -3.43369e-05
0.00023332 -0.000148841 -1.10349e-06
-0.000148841 -8.09601e-05 1.24239e-06
-1.10349e-06 1.24239e-06 -0.000371883
0.00190106 -0.000372266 -3.50095e-06
-0.000372266 0.000782614 1.02982e-06
-3.50095e-06 1.02982e-06 0.000495461
0.00105154 0.000192043 -1.45652e-05
0.000192043 -4.43772e-05 -4.66563e-06
-1.45652e-05 -4.66563e-06 -0.000220242
0.000392558 -5.23059e-05 3.431e-06
-5.23059e-05 -5.45216e-05 -1.098e-05
3.431e-06 -1.098e-05 -0.000109614
0.000420907 7.49782e-05 -1.66977e-05
7.49782e-05 -7.53011e-05 -1.38721e-05
-1.66977e-05 -1.38721e-05 -0.000149906
6.0518e-05 5.81241e-05 -1.28093e-06
5.81241e-05 -0.000255633 -6.09077e-06
-1.28093e-06 -6.09077e-06 -0.000426807
0.00097117 0.000228253 -1.52538e-05
0.000228253 -1.70284e-05 -6.77897e-06
-1.52538e-05 -6.77897e-06 -0.000209657
0.00170392 0.000361859 -4.23586e-06
0.000361859 0.000168161 -2.27492e-07
-4.23586e-06 -2.27492e-07 -5.39957e-05
0.000611404 0.000202213 -6.28732e-06
0.000202213 -1.96403e-06 -4.8043e-06
-6.28732e-06 -4.8043e-06 -0.000201565
0.00141443 0.000355396 -5.04457e-06
0.000355396 0.000347217 -3.99987e-06
-5.04457e-06 -3.99987e-06 7.41378e-05
0.00158223 0.000404043 -3.88938e-06
0.000404043 0.000253772 -1.99212e-07
-3.88938e-06 -1.99212e-07 -9.38989e-06
0.00138522 0.000469351 1.96972e-06
0.000469351 0.000132341 3.77016e-06
1.96972e-06 3.77016e-06 -0.00016272
0.00045399 -4.87912e-05 -3.1787e-06
-4.87912e-05 -2.8323e-05 9.0853e-07
-3.1787e-06 9.0853e-07 -6.99588e-05
0.00066547 0.000180326 -5.3157e-07
0.000180326 0.000103271 -7.53425e-07
-5.3157e-07 -7.53425e-07 -0.000108518
0.000632155 3.45503e-05 2.66815e-07
3.45503e-05 7.64368e-05 5.03363e-07
2.66815e-07 5.03363e-07 -4.41705e-05
0.000765305 0.000134486 1.78716e-06
0.000134486 0.000206954 -7.2909e-07
1.78716e-06 -7.2909e-07 -4.74298e-05
0.00177851 0.000322915 -8.55025e-07
0.000322915 0.000160192 -8.27408e-07
-8.55025e-07 -8.27408e-07 -3.4997e-05
0.00163171 0.000392296 -1.13632e-07
0.000392296 0.000199973 -1.61523e-07
-1.13632e-07 -1.61523e-07 -4.65765e-05
0.00195615 0.000432828 3.05407e-07
0.000432828 0.000226429 2.31205e-07
3.05407e-07 2.31205e-07 1.02652e-05
0.00106308 0.000282053 1.92633e-06
0.000282053 0.000184398 7.47955e-07
1.92633e-06 7.47955e-07 -5.73471e-05
0.00197955 0.000520651 -5.85828e-07
0.000520651 0.000395991 1.32568e-07
-5.85828e-07 1.32568e-07 0.00011436
0.0014162 0.000451546 -9.05465e-07
0.000451546 0.000268085 -1.76234e-06
-9.05465e-07 -1.76234e-06 -5.78672e-05
0.00175539 0.000508679 -3.57393e-06
0.000508679 0.000276547 1.51975e-06
-3.57393e-06 1.51975e-06 -1.12533e-05
0.000509487 -3.73446e-05 8.82662e-07
-3.73446e-05 -1.01836e-05 7.05743e-06
8.82662e-07 7.05743e-06 -4.09812e-05
0.000751516 3.08697e-05 1.40879e-06
3.08697e-05 0.000153572 5.29919e-06
1.40879e-06 5.29919e-06 5.8791e-05
0.000622733 0.000215496 2.91904e-06
0.000215496 2.76193e-06 1.51137e-06
2.91904e-06 1.51137e-06 -0.000224094
0.00157464 0.000134149 -1.14674e-06
0.000134149 0.000730328 3.15013e-06
-1.14674e-06 3.15013e-06 0.000501822
0.00137531 0.000304502 -1.13508e-06
0.000304502 0.000521739 -3.39433e-06
-1.13508e-06 -3.39433e-06 0.000260982
0.00203884 0.000389116 3.40447e-07
0.000389116 0.000213848 -2.60134e-06
3.40447e-07 -2.60134e-06 3.28202e-05
0.00194944 0.000487403 4.41599e-07
0.000487403 0.00028912 -7.13547e-07
4.41599e-07 -7.13547e-07 3.55588e-05
0.00200182 0.000474507 -1.05648e-06
0.000474507 0.000229086 -8.3766e-07
-1.05648e-06 -8.3766e-07 1.99838e-05
0.000969409 0.000368527 3.10385e-06
0.000368527 8.98654e-05 2.40214e-06
3.10385e-06 2.40214e-06 -0.000211956
0.00218318 0.000588901 -6.99274e-07
0.000588901 0.000463512 -5.20403e-07
-6.99274e-07 -5.20403e-07 0.00017703
0.00157285 0.000521058 5.68505e-06
0.000521058 0.00029797 -2.55351e-06
5.68505e-06 -2.55351e-06 -3.55178e-05
0.000596011 3.02837e-05 2.65795e-06
3.02837e-05 5.48679e-05 3.77122e-06
2.65795e-06 3.77122e-06 -1.56733e-05
0.000629073 7.55193e-05 -6.56537e-08
7.55193e-05 0.000112078 1.97055e-06
-6.56537e-08 1.97055e-06 -9.33898e-07
0.000588528 4.43332e-05 2.51422e-06
4.43332e-05 5.64629e-05 3.43835e-06
2.51422e-06 3.43835e-06 -7.28703e-06
0.000543578 2.25691e-06 -5.96325e-07
2.25691e-06 2.44815e-05 1.98942e-09
-5.96325e-07 1.98942e-09 -4.14544e-05
0.00127373 -4.31088e-05 1.00504e-06
-4.31088e-05 0.000454398 3.58579e-06
1.00504e-06 3.58579e-06 0.000435301
0.00088935 -4.06055e-05 4.37009e-07
-4.06055e-05 0.000218421 -1.54223e-07
4.37009e-07 -1.54223e-07 0.00019463
0.000851989 -5.23715e-05 2.8739e-05
-5.23715e-05 0.000201606 8.69364e-06
2.8739e-05 8.69364e-06 0.000200744
0.00262548 -0.000118544 6.10261e-06
-0.000118544 0.00132153 -5.8752e-07
6.10261e-06 -5.8752e-07 0.00132173
0.00275336 -0.000137721 -3.95868e-05
-0.000137721 0.0014114 -3.56149e-06
-3.95868e-05 -3.56149e-06 0.00140625
0.000341857 -3.70591e-05 5.95919e-06
-3.70591e-05 -9.8205e-05 -9.92952e-06
5.95919e-06 -9.92952e-06 -0.000147448
0.00396405 0.000153165 9.31616e-05
0.000153165 0.0021807 -7.12214e-06
9.31616e-05 -7.12214e-06 0.00216758
0.000498916 -7.20651e-05 -2.07596e-06
-7.20651e-05 -1.31923e-05 4.71222e-07
-2.07596e-06 4.71222e-07 -7.70071e-05
0.00476611 0.000144074 -1.2321e-05
0.000144074 0.00268613 -1.44918e-06
-1.2321e-05 -1.44918e-06 0.00267202
0.000574739 -9.99327e-05 -1.74018e-05
-9.99327e-05 1.64643e-05 1.43102e-05
-1.74018e-05 1.43102e-05 -6.55726e-05
0.00567966 0.000147197 -0.000192958
0.000147197 0.00325447 2.04496e-05
-0.000192958 2.04496e-05 0.00323625
0.00105995 0.0001641 -1.31849e-05
0.0001641 -5.70459e-05 -3.38918e-06
-1.31849e-05 -3.38918e-06 -0.000221544
0.00103445 9.7611e-05 -1.19075e-05
9.7611e-05 -7.40724e-05 -1.6762e-06
-1.19075e-05 -1.6762e-06 -0.00021551
0.00179568 0.000209527 -1.87431e-06
0.000209527 0.000113127 7.57865e-07
-1.87431e-06 7.57865e-07 -3.15781e-05
0.00171663 9.45509e-05 3.29943e-07
9.45509e-05 7.0829e-05 5.50672e-07
3.29943e-07 5.50672e-07 -4.31488e-05
0.0010279 3.42029e-05 -1.19745e-05
3.42029e-05 -6.27862e-05 -5.31074e-07
-1.19745e-05 -5.31074e-07 -0.000190911
0.000451992 2.90232e-05 -1.92793e-05
2.90232e-05 -0.000182291 -6.5126e-07
-1.92793e-05 -6.5126e-07 -0.000256539
0.00102788 3.43336e-07 -4.81639e-08
3.43336e-07 -5.40887e-05 -9.87759e-08
-4.81639e-08 -9.87759e-08 -0.000180683
0.00171884 4.64882e-05 -9.39847e-08
4.64882e-05 7.11585e-05 1.75416e-07
-9.39847e-08 1.75416e-07 -3.58399e-05
0.00175654 0.00015028 -3.31704e-08
0.00015028 8.97433e-05 1.56259e-07
-3.31704e-08 1.56259e-07 -3.62241e-05
0.00191747 0.000123517 -2.06439e-07
0.000123517 4.48572e-05 2.30094e-07
-2.06439e-07 2.30094e-07 -1.77595e-05
0.00181106 0.000273093 -3.93255e-07
0.000273093 0.000139708 -9.92535e-08
-3.93255e-07 -9.92535e-08 -2.91546e-05
0.00197714 0.000248366 -5.51481e-07
0.000248366 0.00010811 3.55775e-08
-5.51481e-07 3.55775e-08 -3.33844e-06
0.00169494 -7.7405e-07 -1.01473e-07
-7.7405e-07 6.15801e-05 1.93443e-07
-1.01473e-07 1.93443e-07 -4.37214e-05
0.00190206 5.89653e-05 1.78102e-06
5.89653e-05 4.03208e-05 3.80573e-07
1.78102e-06 3.80573e-07 -1.06737e-05
0.00192115 0.00018456 2.41026e-06
0.00018456 5.44601e-05 -2.86442e-07
2.41026e-06 -2.86442e-07 -2.97137e-05
0.00200159 0.000119762 7.17278e-06
0.000119762 5.44368e-05 9.08846e-07
7.17278e-06 9.08846e-07 2.16412e-05
0.0020802 0.000330577 1.02848e-06
0.000330577 0.000202367 -1.45161e-06
1.02848e-06 -1.45161e-06 5.63011e-05
0.00197057 0.00026952 2.76812e-06
0.00026952 2.85261e-05 6.4972e-07
2.76812e-06 6.4972e-07 -5.17225e-05
0.000951668 -1.803e-05 -1.21488e-05
-1.803e-05 -0.000103696 5.59258e-07
-1.21488e-05 5.59258e-07 -0.00022783
0.00185382 -0.00010121 -2.68164e-05
-0.00010121 0.000449639 2.87562e-06
-2.68164e-05 2.87562e-06 0.000321898
0.0019171 -9.02201e-05 -2.20464e-06
-9.02201e-05 0.000211943 -4.07724e-07
-2.20464e-06 -4.07724e-07 0.000102752
0.00173335 -0.000207614 -2.64439e-06
-0.000207614 0.000125185 5.36881e-07
-2.64439e-06 5.36881e-07 -2.64902e-05
0.000534834 -0.000190603 -2.41859e-05
-0.000190603 -3.61311e-05 1.86505e-05
-2.41859e-05 1.86505e-05 -0.000142483
0.000825135 -0.000227097 -1.10314e-05
-0.000227097 6.55078e-05 7.86077e-06
-1.10314e-05 7.86077e-06 -0.000141959
0.00131113 -0.000404165 -5.0696e-06
-0.000404165 0.000161927 1.88596e-06
-5.0696e-06 1.88596e-06 -0.000127411
0.0018373 -0.000310899 -5.8698e-06
-0.000310899 0.000239127 1.19969e-06
-5.8698e-06 1.19969e-06 4.53636e-05
0.00206709 -0.000315209 1.00189e-07
-0.000315209 0.000204574 -1.54827e-06
1.00189e-07 -1.54827e-06 7.46127e-05
0.00192713 -0.00041066 -1.02581e-06
-0.00041066 0.000218947 -1.38723e-06
-1.02581e-06 -1.38723e-06 1.89634e-05
0.00208997 -0.000517242 -3.69023e-06
-0.000517242 0.000426007 -2.77819e-06
-3.69023e-06 -2.77819e-06 0.000145925
0.00189792 -0.000467229 2.59425e-06
-0.000467229 0.000187257 -2.82414e-06
2.59425e-06 -2.82414e-06 -2.04948e-05
0.000807559 -0.000189166 -4.37313e-06
-0.000189166 0.000166275 4.60033e-06
-4.37313e-06 4.60033e-06 -5.78794e-05
-9.68198e-05 -0.00012581 -7.91779e-08
-0.00012581 -0.000377429 -1.1528e-06
-7.91779e-08 -1.1528e-06 -0.000640715
0.000806152 -0.000137084 -2.9333e-07
-0.000137084 0.000193939 3.93291e-06
-2.9333e-07 3.93291e-06 1.39219e-05
0.00176216 -4.0979e-05 -5.69808e-07
-4.0979e-05 0.000112602 7.26445e-08
-5.69808e-07 7.26445e-08 3.02645e-06
0.00185359 -0.000155935 -3.0467e-06
-0.000155935 0.000181379 5.06111e-07
-3.0467e-06 5.06111e-07 5.66342e-05
0.00193394 -0.000115652 2.97621e-06
-0.000115652 7.01259e-05 -4.11327e-07
2.97621e-06 -4.11327e-07 1.23306e-06
0.00188732 -0.000243161 -1.37977e-06
-0.000243161 7.32965e-05 5.79118e-07
-1.37977e-06 5.79118e-07 -3.77881e-05
0.000751137 -0.000230521 7.50596e-07
-0.000230521 8.08111e-05 -4.63091e-07
7.50596e-07 -4.63091e-07 -0.000134054
0.00119377 -0.000366313 -1.47782e-06
-0.000366313 0.000194002 -2.54485e-07
-1.47782e-06 -2.54485e-07 -8.90704e-05
0.00167994 -0.000544451 1.32693e-06
-0.000544451 0.000289915 3.63476e-07
1.32693e-06 3.63476e-07 -4.78399e-05
0.00180821 -0.000362615 -1.33225e-06
-0.000362615 0.000100659 9.97147e-07
-1.33225e-06 9.97147e-07 -6.97893e-05
0.00205144 -0.000335436 1.23204e-06
-0.000335436 0.000150014 -4.65656e-07
1.23204e-06 -4.65656e-07 4.5234e-05
0.00202333 -0.000541069 -3.77646e-07
-0.000541069 0.000322938 5.27405e-07
-3.77646e-07 5.27405e-07 5.18491e-05
0.00193189 -0.000439285 -9.72651e-08
-0.000439285 0.000162373 5.76305e-07
-9.72651e-08 5.76305e-07 -1.24998e-05
0.00216113 -0.000489761 1.53708e-06
-0.000489761 0.00035072 -6.12441e-07
1.53708e-06 -6.12441e-07 0.000160668
0.00105802 -0.00027465 4.18908e-08
-0.00027465 0.000243536 8.07384e-07
4.18908e-08 8.07384e-07 -2.68891e-06
0.00121103 -0.000316515 -1.18896e-06
-0.000316515 0.000360715 2.56044e-07
-1.18896e-06 2.56044e-07 7.47373e-05
0.000669249 -0.000103115 -3.05483e-07
-0.000103115 0.000120529 -4.25089e-08
-3.05483e-07 -4.25089e-08 -2.36521e-05
6.02598e-05 -8.8907e-05 2.94073e-07
-8.8907e-05 -0.000210844 -1.76893e-06
2.94073e-07 -1.76893e-06 -0.000476239
0.00194511 -6.10735e-05 2.80514e-06
-6.10735e-05 7.77408e-05 -3.09375e-09
2.80514e-06 -3.09375e-09 1.90261e-05
0.00182455 -0.000182369 2.38938e-06
-0.000182369 7.26674e-06 -1.95262e-07
2.38938e-06 -1.95262e-07 -8.3894e-05
0.00187055 -0.000113022 6.96648e-06
-0.000113022 -3.26209e-06 -7.4984e-07
6.96648e-06 -7.4984e-07 -3.74293e-05
0.00206336 -0.000278048 9.8133e-07
-0.000278048 9.83445e-05 -5.53234e-07
9.8133e-07 -5.53234e-07 3.34523e-05
0.00182993 -0.000387906 -1.50202e-06
-0.000387906 5.75599e-05 7.58682e-07
-1.50202e-06 7.58682e-07 -8.2854e-05
0.00203876 -0.000346578 4.65642e-06
-0.000346578 0.000107503 -1.34982e-06
4.65642e-06 -1.34982e-06 2.5063e-05
0.00129229 -0.000330348 4.81892e-06
-0.000330348 0.000329453 -5.08774e-06
4.81892e-06 -5.08774e-06 7.09851e-05
0.00187126 -0.000455758 -2.9038e-06
-0.000455758 0.000113827 3.42931e-07
-2.9038e-06 3.42931e-07 -4.27772e-05
0.00144599 -0.000521588 2.73737e-06
-0.000521588 0.000288364 3.44492e-07
2.73737e-06 3.44492e-07 -6.81613e-05
0.00189528 -0.000615714 3.49891e-06
-0.000615714 0.00035804 1.99499e-06
3.49891e-06 1.99499e-06 6.95699e-06
0.00197817 -0.000550281 1.83001e-06
-0.000550281 0.000249642 4.27006e-06
1.83001e-06 4.27006e-06 -1.2768e-05
0.00225206 -0.000510769 -4.27518e-06
-0.000510769 0.000382624 -1.81383e-06
-4.27518e-06 -1.81383e-06 0.000187938
0.000558467 -8.01503e-05 -1.07194e-06
-8.01503e-05 5.75983e-05 -5.80158e-06
-1.07194e-06 -5.80158e-06 -6.02015e-05
0.00027278 -0.000110372 -3.81696e-06
-0.000110372 -4.85378e-05 -1.4152e-06
-3.81696e-06 -1.4152e-06 -0.000296362
0.00125514 -0.00034986 1.8985e-06
-0.00034986 0.000315072 -1.71033e-06
1.8985e-06 -1.71033e-06 3.90112e-05
0.00106383 -0.000236617 -3.6242e-06
-0.000236617 0.000377712 3.63444e-06
-3.6242e-06 3.63444e-06 9.36809e-05
0.00223317 -0.000451916 -9.27732e-06
-0.000451916 0.000980951 1.31907e-06
-9.27732e-06 1.31907e-06 0.00065376
0.000346916 -5.24937e-05 -5.20085e-07
-5.24937e-05 -9.29182e-05 -7.78513e-06
-5.20085e-07 -7.78513e-06 -0.000134173
0.00175105 0.000320765 -3.69779e-06
0.000320765 0.000143879 -5.13363e-07
-3.69779e-06 -5.13363e-07 -5.14575e-05
0.000321102 1.10235e-05 1.321e-07
1.10235e-05 -0.000109149 -5.88124e-06
1.321e-07 -5.88124e-06 -0.000226308
0.00050855 0.000177829 -5.05211e-06
0.000177829 -7.67067e-06 -3.63421e-06
-5.05211e-06 -3.63421e-06 -0.000211967
0.000572561 0.000138015 1.03219e-06
0.000138015 8.58228e-05 -2.37205e-07
1.03219e-06 -2.37205e-07 -0.000167739
0.00160824 0.000391742 -4.72079e-06
0.000391742 0.000184222 -5.33863e-07
-4.72079e-06 -5.33863e-07 -6.30434e-05
0.00192526 0.000429571 1.571e-07
0.000429571 0.000210027 1.2998e-06
1.571e-07 1.2998e-06 -5.63706e-06
0.00127434 0.000311119 -4.2614e-06
0.000311119 0.00032531 -2.97045e-06
-4.2614e-06 -2.97045e-06 7.64917e-05
0.00132238 0.000451017 2.09954e-07
0.000451017 0.00019996 6.44505e-07
2.09954e-07 6.44505e-07 -0.000129708
0.0018674 0.000502115 5.44958e-07
0.000502115 0.000333856 2.07281e-06
5.44958e-07 2.07281e-06 5.4511e-05
0.00183372 0.000512505 9.8065e-07
0.000512505 0.000326793 6.92127e-06
9.8065e-07 6.92127e-06 4.22957e-05
0.000477063 -3.24296e-05 -3.29329e-07
-3.24296e-05 -3.12774e-05 1.44691e-07
-3.29329e-07 1.44691e-07 -6.10154e-05
0.000609568 1.72268e-05 -5.21029e-07
1.72268e-05 6.97332e-05 4.98089e-07
-5.21029e-07 4.98089e-07 -2.44694e-05
0.000998353 0.000256388 6.19223e-07
0.000256388 0.000236589 7.1947e-07
6.19223e-07 7.1947e-07 3.50382e-06
0.00069444 7.74323e-05 -7.88887e-07
7.74323e-05 0.000179809 -4.56864e-07
-7.88887e-07 -4.56864e-07 -3.42933e-05
0.000834078 0.000229746 2.3079e-08
0.000229746 0.000165342 4.67281e-07
2.3079e-08 4.67281e-07 -6.74979e-05
0.00201273 0.000388228 -1.2682e-06
0.000388228 0.000197364 -1.58229e-06
-1.2682e-06 -1.58229e-06 1.62396e-05
0.00190874 0.000483938 5.51357e-07
0.000483938 0.000265317 1.87911e-07
5.51357e-07 1.87911e-07 1.22502e-05
0.00194056 0.000471373 1.64785e-06
0.000471373 0.000193797 2.40449e-07
1.64785e-06 2.40449e-07 -1.53934e-05
0.00134122 0.000405122 1.9355e-06
0.000405122 0.000328735 1.04237e-06
1.9355e-06 1.04237e-06 1.80304e-05
0.00204676 0.00057368 1.94892e-06
0.00057368 0.000366968 1.95798e-07
1.94892e-06 1.95798e-07 8.16181e-05
0.00186741 0.000548051 -2.94541e-06
0.000548051 0.000480361 -1.83989e-07
-2.94541e-06 -1.83989e-07 0.000143321
0.000660507 2.64835e-05 1.57894e-06
2.64835e-05 9.55072e-05 4.18327e-06
1.57894e-06 4.18327e-06 1.6228e-05
0.00133999 0.00014909 8.51555e-07
0.00014909 0.000563238 3.12322e-06
8.51555e-07 3.12322e-06 0.000398715
0.000966184 0.00030922 -3.1577e-06
0.00030922 0.000142688 2.11183e-06
-3.1577e-06 2.11183e-06 -0.000106637
0.00148115 0.000168837 -1.35263e-06
0.000168837 0.000674304 -1.37181e-06
-1.35263e-06 -1.37181e-06 0.00041527
0.00159673 0.000283057 -5.51125e-06
0.000283057 0.000547995 1.38573e-08
-5.51125e-06 1.38573e-08 0.00034368
0.00200822 0.000405583 -3.55786e-06
0.000405583 0.000172572 -2.70745e-06
-3.55786e-06 -2.70745e-06 7.87954e-06
0.00200149 0.000538181 -3.12379e-07
0.000538181 0.000282926 1.71956e-08
-3.12379e-07 1.71956e-08 2.98753e-05
0.00179004 0.000509252 6.05203e-06
0.000509252 6.32482e-05 -1.09158e-07
6.05203e-06 -1.09158e-07 -0.000149041
0.00105634 0.000446265 5.7664e-06
0.000446265 0.000168715 -1.21506e-06
5.7664e-06 -1.21506e-06 -0.000183601
0.00151144 0.000545608 9.845e-06
0.000545608 0.000163246 -3.07064e-07
9.845e-06 -3.07064e-07 -0.000145812
0.000578427 2.34724e-05 -3.19164e-07
2.34724e-05 4.20561e-05 1.43517e-07
-3.19164e-07 1.43517e-07 -2.71076e-05
0.000424594 5.04523e-05 6.73522e-07
5.04523e-05 -2.85285e-05 2.37363e-06
6.73522e-07 2.37363e-06 -0.000135526
0.000427209 4.62429e-05 -5.95761e-07
4.62429e-05 -2.75462e-05 -2.39967e-07
-5.95761e-07 -2.39967e-07 -0.000128257
0.000956964 0.000135764 -1.01965e-06
0.000135764 0.000316913 -9.05851e-07
-1.01965e-06 -9.05851e-07 0.00018797
0.000667862 0.000103186 1.91001e-06
0.000103186 0.000137173 2.3375e-06
1.91001e-06 2.3375e-06 2.74769e-05
0.000545266 5.48052e-05 2.77354e-06
5.48052e-05 3.56461e-05 3.30863e-06
2.77354e-06 3.30863e-06 -2.79421e-05
0.00054149 8.79345e-06 -6.51926e-07
8.79345e-06 2.74958e-05 -2.49068e-08
-6.51926e-07 -2.49068e-08 -3.59399e-05
0.00124978 -2.86372e-05 8.6222e-07
-2.86372e-05 0.000437447 3.22632e-06
8.6222e-07 3.22632e-06 0.000421153
0.000557104 1.43663e-05 -1.79287e-06
1.43663e-05 2.84368e-05 -3.598e-06
-1.79287e-06 -3.598e-06 -3.46381e-05
0.00130872 -3.89695e-05 -7.19455e-06
-3.89695e-05 0.000475669 -1.50441e-06
-7.19455e-06 -1.50441e-06 0.000457675
0.000813927 -3.87367e-05 2.94916e-05
-3.87367e-05 0.000169804 8.5566e-06
2.94916e-05 8.5566e-06 0.000173244
0.00132613 -4.7408e-05 -1.22275e-05
-4.7408e-05 0.000491774 -4.9319e-06
-1.22275e-05 -4.9319e-06 0.00047081
0.00166391 -7.49215e-05 2.807e-05
-7.49215e-05 0.000710643 1.58856e-06
2.807e-05 1.58856e-06 0.000712637
0.00256019 -0.000114518 -3.48864e-05
-0.000114518 0.00127935 -3.97798e-06
-3.48864e-05 -3.97798e-06 0.00128051
0.000304981 8.2208e-05 -5.98769e-06
8.2208e-05 -9.27073e-05 -8.21441e-06
-5.98769e-06 -8.21441e-06 -0.000144467
0.000474709 -1.84477e-05 5.76915e-07
-1.84477e-05 -1.03383e-05 6.18348e-07
5.76915e-07 6.18348e-07 -6.55893e-05
0.00329108 0.000174509 1.0009e-05
0.000174509 0.00175952 -6.43719e-06
1.0009e-05 -6.43719e-06 0.00174139
0.00418077 0.000124348 -1.21693e-05
0.000124348 0.00231245 -1.05138e-06
-1.21693e-05 -1.05138e-06 0.00230595
0.000621818 -7.40689e-05 -1.25882e-05
-7.40689e-05 6.06176e-05 1.2304e-05
-1.25882e-05 1.2304e-05 -6.28854e-06
0.00500771 0.000122232 -0.000168955
0.000122232 0.00282911 1.70097e-05
-0.000168955 1.70097e-05 0.00281953
0.00178759 0.000270916 -2.56621e-06
0.000270916 0.000128592 5.49005e-07
-2.56621e-06 5.49005e-07 -4.03124e-05
0.00172303 0.000150068 -3.29761e-07
0.000150068 6.85964e-05 6.57223e-07
-3.29761e-07 6.57223e-07 -5.79099e-05
0.00193137 0.000246013 -2.02112e-06
0.000246013 8.29969e-05 1.54132e-06
-2.02112e-06 1.54132e-06 -2.84702e-05
0.00194457 0.000122168 -2.25836e-06
0.000122168 5.34211e-05 3.5958e-07
-2.25836e-06 3.5958e-07 -5.88731e-06
0.0017211 4.84754e-05 2.61576e-07
4.84754e-05 7.62936e-05 4.35861e-07
2.61576e-07 4.35861e-07 -3.07862e-05
0.00103299 5.20058e-06 -1.16764e-05
5.20058e-06 -5.15522e-05 -1.1716e-07
-1.16764e-05 -1.1716e-07 -0.0001781
0.00170592 2.77231e-06 5.83909e-08
2.77231e-06 7.03389e-05 1.75939e-07
5.83909e-08 1.75939e-07 -3.49785e-05
0.00188969 5.08987e-05 -7.62812e-07
5.08987e-05 3.40612e-05 1.23862e-08
-7.62812e-07 1.23862e-08 -1.73279e-05
0.00194338 0.000183594 -6.25042e-07
0.000183594 6.99064e-05 2.85407e-07
-6.25042e-07 2.85407e-07 -1.41138e-05
0.00195434 0.000117059 6.7418e-07
0.000117059 1.82184e-05 1.8242e-07
6.7418e-07 1.8242e-07 -9.23554e-06
0.00202886 0.00033019 -4.21015e-07
0.00033019 0.000163777 -1.65777e-07
-4.21015e-07 -1.65777e-07 1.73836e-05
0.00198113 0.000264776 5.28858e-08
0.000264776 3.43766e-05 4.05986e-07
5.28858e-08 4.05986e-07 -4.20535e-05
0.00190362 -5.31773e-06 2.45837e-06
-5.31773e-06 4.82132e-05 5.70218e-08
2.45837e-06 5.70218e-08 -4.26069e-06
0.0019385 5.00692e-05 6.50261e-06
5.00692e-05 3.08351e-05 2.58383e-07
6.50261e-06 2.58383e-07 8.61466e-06
0.00200548 0.000188617 3.44872e-06
0.000188617 3.6804e-05 3.43671e-07
3.44872e-06 3.43671e-07 -4.38909e-06
0.00204978 0.000115898 4.33468e-06
0.000115898 4.23052e-05 6.00062e-07
4.33468e-06 6.00062e-07 3.60564e-05
0.00195142 0.000325065 1.30576e-06
0.000325065 7.60583e-05 -7.7774e-07
1.30576e-06 -7.7774e-07 -4.44816e-05
0.002148 0.000273377 3.71293e-06
0.000273377 8.66233e-05 1.24329e-06
3.71293e-06 1.24329e-06 3.80112e-05
0.00175053 -3.83017e-05 -9.50921e-07
-3.83017e-05 0.000103827 -3.05205e-07
-9.50921e-07 -3.05205e-07 -3.57222e-06
0.00184851 -0.000161191 -3.53875e-06
-0.000161191 0.000175804 -3.52357e-08
-3.53875e-06 -3.52357e-08 5.01436e-05
0.00198288 -0.000115192 1.60143e-07
-0.000115192 9.93431e-05 -7.76038e-07
1.60143e-07 -7.76038e-07 3.66832e-05
0.00188222 -0.000238869 -1.92231e-06
-0.000238869 6.99119e-05 1.02329e-08
-1.92231e-06 1.02329e-08 -4.36713e-05
0.000834749 -0.000231395 -8.7139e-06
-0.000231395 0.000130836 7.68853e-06
-8.7139e-06 7.68853e-06 -8.50802e-05
0.0011802 -0.000368805 -7.55681e-06
-0.000368805 0.000175885 3.47274e-06
-7.55681e-06 3.47274e-06 -0.000107675
0.00154711 -0.000525135 -8.64795e-08
-0.000525135 0.000224974 -6.13764e-07
-8.64795e-08 -6.13764e-07 -0.000111001
0.0017996 -0.000360315 -1.45404e-06
-0.000360315 9.94536e-05 -1.58691e-07
-1.45404e-06 -1.58691e-07 -7.60596e-05
0.00197493 -0.00033234 -4.71252e-07
-0.00033234 9.61437e-05 8.03676e-08
-4.71252e-07 8.03676e-08 -4.56549e-06
0.00198186 -0.000441388 7.93392e-07
-0.000441388 0.000195522 -6.79045e-07
7.93392e-07 -6.79045e-07 2.02268e-05
0.00192075 -0.000542836 -2.35221e-06
-0.000542836 0.000250088 -2.9551e-06
-2.35221e-06 -2.9551e-06 -2.42273e-05
0.00205219 -0.000477233 6.64054e-06
-0.000477233 0.000279342 -4.63893e-06
6.64054e-06 -4.63893e-06 9.44548e-05
0.000835148 -0.000249532 -1.48056e-06
-0.000249532 0.000115855 2.05139e-06
-1.48056e-06 2.05139e-06 -0.000132136
-0.000102742 -0.000175388 -2.87405e-07
-0.000175388 -0.000462507 1.9249e-06
-2.87405e-07 1.9249e-06 -0.000726355
0.000820257 -0.000118484 -4.36003e-07
-0.000118484 0.000209175 5.57616e-06
-4.36003e-07 5.57616e-06 6.14464e-05
0.000192144 -6.13092e-05 3.1972e-06
-6.13092e-05 -0.000148204 -2.70738e-06
3.1972e-06 -2.70738e-06 -0.000392412
0.00193185 -6.05154e-05 -3.72747e-08
-6.05154e-05 7.18241e-05 2.05333e-07
-3.72747e-08 2.05333e-07 1.29672e-05
0.00185744 -0.000182717 2.4498e-06
-0.000182717 3.2243e-05 -7.98745e-07
2.4498e-06 -7.98745e-07 -5.98466e-05
0.00191282 -0.000113886 1.25392e-06
-0.000113886 1.89315e-05 -3.89112e-07
1.25392e-06 -3.89112e-07 -1.37647e-05
0.00200937 -0.000273594 -1.33973e-06
-0.000273594 7.2202e-05 2.01917e-07
-1.33973e-06 2.01917e-07 3.75656e-06
0.00109084 -0.000302362 -1.9461e-06
-0.000302362 0.000197295 5.06322e-07
-1.9461e-06 5.06322e-07 -5.47951e-05
0.00139071 -0.000505278 2.70012e-06
-0.000505278 0.000268691 -8.89687e-07
2.70012e-06 -8.89687e-07 -8.284e-05
0.00180985 -0.00061605 -1.49628e-07
-0.00061605 0.000301141 4.51702e-07
-1.49628e-07 4.51702e-07 -5.42384e-05
0.00186309 -0.000387285 -1.3892e-06
-0.000387285 8.62572e-05 7.174e-07
-1.3892e-06 7.174e-07 -5.76918e-05
0.00199189 -0.000346912 1.27611e-06
-0.000346912 8.04056e-05 -3.16058e-07
1.27611e-06 -3.16058e-07 2.25333e-07
0.00194473 -0.000551305 -1.50639e-07
-0.000551305 0.000247886 4.72119e-07
-1.50639e-07 4.72119e-07 -1.63953e-05
0.00185109 -0.000456073 -9.52483e-07
-0.000456073 9.32917e-05 1.05737e-06
-9.52483e-07 1.05737e-06 -6.44676e-05
0.00210708 -0.000495816 3.84971e-06
-0.000495816 0.000289799 -5.1733e-06
3.84971e-06 -5.1733e-06 0.000102102
0.0011607 -0.000340125 1.88859e-07
-0.000340125 0.000257851 1.15998e-06
1.88859e-07 1.15998e-06 -1.68905e-05
0.00163384 -0.000382646 2.51863e-06
-0.000382646 0.00059438 1.28831e-06
2.51863e-06 1.28831e-06 0.000283955
0.000987472 -0.000219694 -2.09447e-07
-0.000219694 0.000328703 2.17709e-07
-2.09447e-07 2.17709e-07 4.43762e-05
0.000355429 -4.84193e-05 -2.15018e-06
-4.84193e-05 -6.94258e-05 6.95432e-07
-2.15018e-06 6.95432e-07 -0.000187373
0.000123306 -5.96539e-05 -4.96449e-07
-5.96539e-05 -0.000154767 -6.66038e-07
-4.96449e-07 -6.66038e-07 -0.000385374
0.00188586 -6.16877e-05 5.72529e-06
-6.16877e-05 -5.50512e-06 -1.68357e-07
5.72529e-06 -1.68357e-07 -2.45659e-05
0.00197589 -0.000171279 4.8918e-06
-0.000171279 3.3474e-05 -7.8528e-07
4.8918e-06 -7.8528e-07 5.5363e-07
0.00204481 -0.000320699 1.72788e-06
-0.000320699 2.96334e-05 -2.48953e-07
1.72788e-06 -2.48953e-07 -1.13189e-05
0.00197828 -0.000398114 1.9389e-06
-0.000398114 9.93275e-05 -1.72169e-06
1.9389e-06 -1.72169e-06 -3.04102e-08
0.00160093 -0.000441337 1.86225e-06
-0.000441337 0.000506708 -4.09424e-06
1.86225e-06 -4.09424e-06 0.000183627
0.002173 -0.000549986 -1.15004e-06
-0.000549986 0.000205226 -3.99304e-06
-1.15004e-06 -3.99304e-06 3.09599e-05
0.00123965 -0.000573331 -4.41182e-06
-0.000573331 0.000151282 2.63362e-06
-4.41182e-06 2.63362e-06 -0.000234993
0.00193345 -0.000678859 3.60899e-06
-0.000678859 0.000333813 3.14362e-07
3.60899e-06 3.14362e-07 -3.6332e-05
0.00184228 -0.000528007 -6.07966e-06
-0.000528007 0.00017327 1.29322e-06
-6.07966e-06 1.29322e-06 -7.80826e-05
1.53795e-05 -1.006e-05 -2.31404e-06
-1.006e-05 -0.000273001 -5.14967e-06
-2.31404e-06 -5.14967e-06 -0.000366449
0.000728463 -0.000121243 -2.29758e-06
-0.000121243 0.00022445 2.19004e-07
-2.29758e-06 2.19004e-07 2.48497e-05
0.00103745 -0.000170336 -2.23643e-06
-0.000170336 0.000410177 -2.609e-06
-2.23643e-06 -2.609e-06 0.000151056
0.0017229 -0.000437428 -6.8813e-06
-0.000437428 0.000591557 -5.8765e-07
-6.8813e-06 -5.8765e-07 0.000269471
0.000710541 -0.000195992 1.27943e-08
-0.000195992 0.00010806 5.02099e-06
1.27943e-08 5.02099e-06 -0.00018289
0.00146567 -0.000401541 -4.92163e-06
-0.000401541 0.00045986 6.28992e-06
-4.92163e-06 6.28992e-06 0.000130662
0.000452615 -3.36072e-05 -1.4377e-06
-3.36072e-05 -4.62265e-05 -6.51505e-06
-1.4377e-06 -6.51505e-06 -7.57949e-05
0.00052543 9.9008e-06 -1.08812e-06
9.9008e-06 2.19054e-05 -4.92098e-06
-1.08812e-06 -4.92098e-06 -7.23792e-05
0.00198684 0.000387335 -2.5091e-06
0.000387335 0.000181125 -4.45265e-07
-2.5091e-06 -4.45265e-07 -9.32598e-08
-0.000291745 -1.51539e-05 6.34015e-07
-1.51539e-05 -0.000425236 -2.49974e-06
6.34015e-07 -2.49974e-06 -0.000630787
0.0011949 0.000270644 -3.06612e-06
0.000270644 0.000358304 -8.77529e-07
-3.06612e-06 -8.77529e-07 0.000127464
0.000500574 0.00017225 2.69844e-06
0.00017225 -6.10267e-05 3.84182e-07
2.69844e-06 3.84182e-07 -0.000269131
0.00186734 0.000480072 5.06741e-07
0.000480072 0.00024211 1.02603e-06
5.06741e-07 1.02603e-06 -1.03417e-05
0.00188244 0.000468073 1.46884e-06
0.000468073 0.000161579 7.43289e-07
1.46884e-06 7.43289e-07 -4.76066e-05
0.00158363 0.000426128 4.35812e-07
0.000426128 0.000491038 -9.02709e-07
4.35812e-07 -9.02709e-07 0.000174167
0.00210704 0.000565213 -4.31644e-06
0.000565213 0.000632393 1.50954e-06
-4.31644e-06 1.50954e-06 0.000296662
0.00188985 0.000556835 -6.36911e-07
0.000556835 0.000258101 1.18251e-06
-6.36911e-07 1.18251e-06 -2.58785e-05
0.000588302 2.54311e-05 -3.91922e-07
2.54311e-05 5.29712e-05 4.50425e-07
-3.91922e-07 4.50425e-07 -2.61441e-05
0.00073736 6.88488e-05 -8.37532e-07
6.88488e-05 0.00018418 2.99233e-07
-8.37532e-07 2.99233e-07 3.58531e-05
0.00116386 0.000327624 2.10602e-07
0.000327624 0.000265383 1.07225e-07
2.10602e-07 1.07225e-07 1.48745e-05
0.00094556 0.000118934 9.5082e-07
0.000118934 0.000336024 6.23961e-07
9.5082e-07 6.23961e-07 8.79077e-05
0.000707621 0.000227251 2.48023e-06
0.000227251 1.12422e-05 4.84045e-07
2.48023e-06 4.84045e-07 -0.000186295
0.00195665 0.000405547 -2.34008e-06
0.000405547 0.000143174 -1.71103e-06
-2.34008e-06 -1.71103e-06 -2.22762e-05
0.00199281 0.000536391 1.82167e-06
0.000536391 0.000277409 6.47191e-07
1.82167e-06 6.47191e-07 2.46037e-05
0.00187501 0.000510155 4.69329e-07
0.000510155 0.000114813 -9.97598e-08
4.69329e-07 -9.97598e-08 -9.63785e-05
0.00124905 0.000477023 2.65672e-06
0.000477023 0.000271057 2.54289e-06
2.65672e-06 2.54289e-06 -8.38317e-05
0.00170954 0.000568669 -2.48909e-06
0.000568669 0.000295158 -1.93184e-06
-2.48909e-06 -1.93184e-06 -2.12207e-05
0.000926502 8.67804e-05 7.85041e-07
8.67804e-05 0.000295212 2.76611e-06
7.85041e-07 2.76611e-06 0.000168573
-8.61626e-05 -3.97664e-06 -2.03902e-06
-3.97664e-06 -0.000273012 2.29491e-06
-2.03902e-06 2.29491e-06 -0.000474341
0.00129317 0.000380293 -2.48681e-06
0.000380293 0.000319038 -1.96924e-06
-2.48681e-06 -1.96924e-06 3.36643e-05
-0.000495003 0.000114883 1.82068e-06
0.000114883 -0.000594079 -7.64564e-08
1.82068e-06 -7.64564e-08 -0.00081666
0.00207477 0.000373295 -2.88968e-06
0.000373295 0.000763073 -1.99574e-06
-2.88968e-06 -1.99574e-06 0.00053872
0.00191795 0.000439997 5.63677e-07
0.000439997 4.15354e-05 -1.10468e-06
5.63677e-07 -1.10468e-06 -0.00010563
0.00207401 0.000594545 6.30906e-06
0.000594545 0.000300592 -1.45371e-06
6.30906e-06 -1.45371e-06 2.55798e-05
0.00182187 0.000535391 5.56861e-06
0.000535391 6.61227e-05 1.09846e-06
5.56861e-06 1.09846e-06 -0.000158789
0.00110718 0.000483513 8.20846e-06
0.000483513 0.000146793 1.85779e-06
8.20846e-06 1.85779e-06 -0.000210786
0.00195517 0.000642154 3.05657e-08
0.000642154 0.000445158 -2.96899e-07
3.05657e-08 -2.96899e-07 0.000105448
0.000541566 1.48e-05 -2.02876e-06
1.48e-05 1.82085e-05 -3.77245e-06
-2.02876e-06 -3.77245e-06 -4.99916e-05
0.000544426 5.9025e-05 1.26663e-06
5.9025e-05 4.83528e-05 4.57726e-07
1.26663e-06 4.57726e-07 -6.03679e-05
0.000339027 4.55483e-05 -3.43064e-07
4.55483e-05 -8.69787e-05 1.26398e-06
-3.43064e-07 1.26398e-06 -0.000192447
0.0002462 -2.09325e-05 -3.65398e-07
-2.09325e-05 -0.000134519 -2.55086e-06
-3.65398e-07 -2.55086e-06 -0.000236435
0.000606654 5.72013e-05 -3.60551e-07
5.72013e-05 9.87141e-05 3.21291e-08
-3.60551e-07 3.21291e-08 -8.79615e-06
0.000603978 8.33497e-05 -7.44884e-07
8.33497e-05 8.63806e-05 -1.00881e-07
-7.44884e-07 -1.00881e-07 -2.70942e-05
0.000748954 0.000121231 -3.12773e-06
0.000121231 0.000193126 -3.49876e-06
-3.12773e-06 -3.49876e-06 7.48416e-05
0.000329677 7.24187e-06 -1.402e-07
7.24187e-06 -6.56274e-05 -1.51523e-07
-1.402e-07 -1.51523e-07 -0.000190038
0.000673636 9.01814e-05 1.02754e-06
9.01814e-05 0.000132744 2.56337e-06
1.02754e-06 2.56337e-06 3.23268e-05
0.000575096 6.35659e-05 3.37829e-06
6.35659e-05 5.77928e-05 3.35041e-06
3.37829e-06 3.35041e-06 -8.16294e-06
0.000539116 1.77591e-05 -2.19403e-06
1.77591e-05 3.01786e-05 7.45514e-10
-2.19403e-06 7.45514e-10 -3.24217e-05
0.0012281 -1.3957e-05 1.2129e-06
-1.3957e-05 0.000425888 2.94908e-06
1.2129e-06 2.94908e-06 0.00041104
0.000463676 -6.00964e-05 1.41332e-06
-6.00964e-05 -1.43597e-05 -3.42738e-06
1.41332e-06 -3.42738e-06 -8.12714e-05
0.00129145 -2.4195e-05 -6.3275e-06
-2.4195e-05 0.000462903 -1.57012e-06
-6.3275e-06 -1.57012e-06 0.00044742
0.000782348 -2.90052e-05 2.5631e-05
-2.90052e-05 0.000146778 8.79252e-06
2.5631e-05 8.79252e-06 0.0001522
0.00133761 -3.60169e-05 -1.09144e-05
-3.60169e-05 0.000493104 -6.55874e-06
-1.09144e-05 -6.55874e-06 0.00047573
0.000769268 -4.18402e-05 9.91105e-06
-4.18402e-05 0.000141825 3.26032e-06
9.91105e-06 3.26032e-06 0.000143697
0.00244104 -0.000107761 -2.55642e-06
-0.000107761 0.00119713 -2.56149e-06
-2.55642e-06 -2.56149e-06 0.00119942
0.000357205 5.76538e-05 -3.23909e-06
5.76538e-05 -8.27672e-05 -5.09881e-06
-3.23909e-06 -5.09881e-06 -0.000115069
0.000417315 2.21643e-05 -3.31567e-06
2.21643e-05 -4.17794e-05 2.72565e-08
-3.31567e-06 2.72565e-08 -8.42978e-05
0.00280275 0.000136757 1.32867e-05
0.000136757 0.00144695 -5.00712e-06
1.32867e-05 -5.00712e-06 0.00143954
0.000573642 -4.81121e-05 -8.41186e-06
-4.81121e-05 4.1562e-05 1.0533e-05
-8.41186e-06 1.0533e-05 -1.05587e-05
0.00350055 0.000132938 -3.15901e-05
0.000132938 0.00188162 -4.82426e-07
-3.15901e-05 -4.82426e-07 0.00187413
0.00430615 9.8246e-05 -0.000146819
9.8246e-05 0.00238355 1.32153e-05
-0.000146819 1.32153e-05 0.00238254
0.00197647 0.000329576 -2.51165e-06
0.000329576 0.000124948 1.10707e-06
-2.51165e-06 1.10707e-06 -2.17274e-05
0.00197883 0.00018183 -1.73912e-06
0.00018183 9.48388e-05 1.2103e-06
-1.73912e-06 1.2103e-06 1.12445e-05
0.0019839 0.000259203 -1.55312e-06
0.000259203 3.56014e-05 8.72143e-07
-1.55312e-06 8.72143e-07 -3.7009e-05
0.00190796 0.000114552 -3.87065e-06
0.000114552 -1.7429e-05 -2.53129e-07
-3.87065e-06 -2.53129e-07 -3.94509e-05
0.00187296 4.44328e-05 -3.5269e-06
4.44328e-05 2.49615e-05 1.06244e-07
-3.5269e-06 1.06244e-07 -2.71077e-05
0.00171808 5.60078e-06 3.50165e-07
5.60078e-06 7.85299e-05 1.60472e-07
3.50165e-07 1.60472e-07 -2.675e-05
0.00190009 -5.19487e-06 -4.35342e-07
-5.19487e-06 4.95167e-05 2.95139e-08
-4.35342e-07 2.95139e-08 -4.40452e-06
0.00196035 5.0535e-05 1.33946e-06
5.0535e-05 4.90424e-05 1.19438e-08
1.33946e-06 1.19438e-08 2.3495e-05
0.00201491 0.000187325 -2.68829e-08
0.000187325 4.54983e-05 -6.95655e-08
-2.68829e-08 -6.95655e-08 3.1674e-06
0.00200541 0.000116419 7.36742e-07
0.000116419 1.05539e-05 2.45424e-07
7.36742e-07 2.45424e-07 8.20984e-06
0.00194261 0.000322846 -6.39341e-07
0.000322846 7.98741e-05 -2.62585e-08
-6.39341e-07 -2.62585e-08 -4.08462e-05
0.00209182 0.000275167 3.18362e-06
0.000275167 4.82842e-05 5.73534e-07
3.18362e-06 5.73534e-07 5.42455e-06
0.00191694 -1.01845e-05 5.88078e-06
-1.01845e-05 2.73639e-05 1.73916e-07
5.88078e-06 1.73916e-07 2.32868e-07
0.00198454 5.50471e-05 2.63993e-06
5.50471e-05 -4.571e-06 -6.7924e-08
2.63993e-06 -6.7924e-08 1.3321e-07
0.00206664 0.000184738 1.63066e-06
0.000184738 9.22582e-06 5.58346e-07
1.63066e-06 5.58346e-07 3.47263e-06
0.00209252 0.000360608 -2.32138e-07
0.000360608 6.31282e-05 7.0439e-07
-2.32138e-07 7.0439e-07 -6.53877e-06
0.00191524 -5.9884e-05 -3.32243e-06
-5.9884e-05 6.33293e-05 4.00183e-07
-3.32243e-06 4.00183e-07 4.32266e-06
0.0018822 -0.000184098 1.21084e-06
-0.000184098 5.1848e-05 -1.14186e-06
1.21084e-06 -1.14186e-06 -4.1316e-05
0.001953 -0.000114651 -4.74163e-06
-0.000114651 4.0404e-05 3.69446e-07
-4.74163e-06 3.69446e-07 9.01807e-06
0.00196364 -0.000269397 -5.15423e-06
-0.000269397 5.02433e-05 1.26222e-06
-5.15423e-06 1.26222e-06 -2.17632e-05
0.000918875 -0.000285668 -5.03649e-06
-0.000285668 8.42394e-05 4.50019e-06
-5.03649e-06 4.50019e-06 -0.00016577
0.00135635 -0.000491592 -1.40017e-07
-0.000491592 0.000258312 -4.53792e-07
-1.40017e-07 -4.53792e-07 -8.80506e-05
0.00182743 -0.000628095 -2.12449e-06
-0.000628095 0.000307095 -1.40092e-06
-2.12449e-06 -1.40092e-06 -5.54151e-05
0.00188683 -0.000386612 -2.31609e-06
-0.000386612 0.000108914 3.74563e-07
-2.31609e-06 3.74563e-07 -3.88623e-05
0.00193797 -0.000347361 -1.2375e-06
-0.000347361 4.96715e-05 8.79371e-07
-1.2375e-06 8.79371e-07 -2.83991e-05
0.00184527 -0.00045806 1.08867e-06
-0.00045806 7.8652e-05 1.57098e-06
1.08867e-06 1.57098e-06 -8.04588e-05
0.00190797 -0.000546127 -1.9211e-06
-0.000546127 0.000241028 -2.61788e-06
-1.9211e-06 -2.61788e-06 -2.28544e-05
0.00199402 -0.00048241 7.63626e-06
-0.00048241 0.000207184 -6.46451e-06
7.63626e-06 -6.46451e-06 2.64459e-05
0.000979745 -0.000322309 2.23033e-07
-0.000322309 0.000145189 2.5957e-06
2.23033e-07 2.5957e-06 -0.000126723
0.00101628 -0.000315803 5.41301e-06
-0.000315803 0.000177687 1.1218e-06
5.41301e-06 1.1218e-06 -0.000110227
0.000639992 -0.000181309 3.81586e-06
-0.000181309 0.000118855 -4.41653e-06
3.81586e-06 -4.41653e-06 -0.000168144
0.000137181 -2.99569e-05 4.00246e-07
-2.99569e-05 -0.00020481 4.75296e-06
4.00246e-07 4.75296e-06 -0.00032432
8.89019e-05 -1.64702e-05 3.65858e-06
-1.64702e-05 -0.000184888 1.89286e-07
3.65858e-06 1.89286e-07 -0.000404372
0.00189057 -6.95628e-05 -1.30127e-07
-6.95628e-05 -6.4689e-06 -1.45912e-07
-1.30127e-07 -1.45912e-07 -2.69991e-05
0.00198544 -0.000171644 1.10152e-06
-0.000171644 3.80785e-05 -1.26615e-07
1.10152e-06 -1.26615e-07 4.33337e-06
0.00203305 -0.000315108 -7.12296e-07
-0.000315108 3.72648e-05 5.41511e-08
-7.12296e-07 5.41511e-08 -7.27133e-06
0.0013044 -0.000412246 -1.82595e-06
-0.000412246 0.000315002 -8.1476e-07
-1.82595e-06 -8.1476e-07 -1.12606e-06
0.00137506 -0.000575469 2.88386e-06
-0.000575469 0.000232033 -9.66035e-07
2.88386e-06 -9.66035e-07 -0.000151911
0.00193329 -0.000681932 2.43568e-08
-0.000681932 0.000343229 -9.18963e-08
2.43568e-08 -9.18963e-08 -3.16805e-05
0.00193833 -0.000394556 1.65157e-07
-0.000394556 7.38406e-05 2.52571e-07
1.65157e-07 2.52571e-07 -2.68454e-05
0.00203485 -0.000556542 1.14536e-06
-0.000556542 0.000271202 -3.51372e-06
1.14536e-06 -3.51372e-06 2.02876e-05
0.00205585 -0.000531282 -1.05925e-06
-0.000531282 0.000165575 -4.84518e-07
-1.05925e-06 -4.84518e-07 -5.1903e-06
0.00014902 4.53116e-05 -1.62725e-06
4.53116e-05 -0.000199445 -7.75503e-07
-1.62725e-06 -7.75503e-07 -0.000286291
0.00125906 -0.000388854 -3.14269e-07
-0.000388854 0.000292408 -5.68058e-07
-3.14269e-07 -5.68058e-07 -1.68099e-05
0.00136441 -0.000392581 2.71284e-07
-0.000392581 0.00039942 2.39835e-06
2.71284e-07 2.39835e-06 7.72269e-05
0.00129359 -0.000284205 -4.72604e-07
-0.000284205 0.000483546 3.81169e-07
-4.72604e-07 3.81169e-07 0.000167502
0.00127716 -0.000170072 1.18566e-06
-0.000170072 0.000553854 -2.90787e-06
1.18566e-06 -2.90787e-06 0.00029676
0.000461216 -4.03909e-05 -7.75017e-07
-4.03909e-05 4.96153e-05 1.43106e-06
-7.75017e-07 1.43106e-06 -0.000142381
0.00198005 -8.72985e-05 3.36385e-06
-8.72985e-05 5.87229e-06 6.49205e-09
3.36385e-06 6.49205e-09 6.60913e-06
0.00209935 -0.000219846 1.17547e-06
-0.000219846 7.26566e-07 -7.94208e-08
1.17547e-06 -7.94208e-08 8.27341e-06
0.00210376 -0.000382817 1.43793e-06
-0.000382817 3.95692e-05 -3.29806e-07
1.43793e-06 -3.29806e-07 1.63683e-05
0.00216146 -0.000475296 2.53492e-06
-0.000475296 0.000114174 -1.90346e-06
2.53492e-06 -1.90346e-06 2.75153e-05
0.00160153 -0.000521026 -5.44217e-06
-0.000521026 0.000461737 7.85988e-08
-5.44217e-06 7.85988e-08 9.89054e-05
0.0020447 -0.000603799 3.27895e-06
-0.000603799 0.000199277 -2.56117e-06
3.27895e-06 -2.56117e-06 -2.341e-05
0.00174346 -0.000684113 -1.35074e-05
-0.000684113 0.000415574 2.68346e-06
-1.35074e-05 2.68346e-06 -1.36148e-05
0.00228634 -0.000746832 -1.00087e-05
-0.000746832 0.000562216 3.60452e-07
-1.00087e-05 3.60452e-07 0.000165364
8.48044e-05 5.65816e-05 -4.49371e-06
5.65816e-05 -0.000243954 -2.11296e-06
-4.49371e-06 -2.11296e-06 -0.000310064
0.000691408 2.65156e-06 -2.06697e-06
2.65156e-06 0.000180784 -4.01861e-07
-2.06697e-06 -4.01861e-07 3.76128e-05
0.0013972 -0.000194974 -4.98873e-06
-0.000194974 0.000649616 1.78158e-06
-4.98873e-06 1.78158e-06 0.000416144
0.000883399 -7.73977e-05 -1.64239e-06
-7.73977e-05 0.000266645 -1.48049e-06
-1.64239e-06 -1.48049e-06 -8.50208e-06
0.00179386 -0.000501296 -3.4117e-06
-0.000501296 0.000595942 2.29404e-06
-3.4117e-06 2.29404e-06 0.000234023
0.00159415 -0.000407734 -1.0669e-05
-0.000407734 0.000593557 1.58009e-05
-1.0669e-05 1.58009e-05 0.000203424
0.000485364 1.61508e-05 -1.95064e-06
1.61508e-05 -1.01468e-05 -3.9804e-06
-1.95064e-06 -3.9804e-06 -8.79927e-05
0.000164461 1.3582e-05 1.32286e-06
1.3582e-05 -0.000186778 -2.01604e-06
1.32286e-06 -2.01604e-06 -0.000313647
0.00191019 0.000406492 -2.34422e-06
0.000406492 0.000114884 -8.27417e-07
-2.34422e-06 -8.27417e-07 -5.15288e-05
0.00022641 5.73465e-05 4.04001e-07
5.73465e-05 -0.000117446 -1.88982e-08
4.04001e-07 -1.88982e-08 -0.000350315
0.00141591 0.000351723 -1.79689e-06
0.000351723 0.000421394 -9.84914e-07
-1.79689e-06 -9.84914e-07 0.000169549
1.37841e-05 0.000134961 2.6023e-06
0.000134961 -0.000435654 3.88168e-06
2.6023e-06 3.88168e-06 -0.000604269
0.00198551 0.000535164 1.29823e-06
0.000535164 0.000270879 6.94265e-07
1.29823e-06 6.94265e-07 1.81629e-05
0.00196511 0.000511523 -5.68921e-06
0.000511523 0.000166427 3.1137e-07
-5.68921e-06 3.1137e-07 -4.38248e-05
0.00157697 0.000522121 -2.39265e-06
0.000522121 0.000457141 2.58031e-06
-2.39265e-06 2.58031e-06 9.54954e-05
0.00201059 0.000601584 -4.80469e-06
0.000601584 0.000489792 -7.55053e-08
-4.80469e-06 -7.55053e-08 0.000163105
0.000687967 4.83678e-05 -8.28023e-07
4.83678e-05 0.000141652 1.307e-07
-8.28023e-07 1.307e-07 2.33293e-05
0.000371154 5.72736e-05 1.06832e-06
5.72736e-05 8.63824e-06 5.71933e-07
1.06832e-06 5.71933e-07 -0.000203631
0.00135594 0.000385143 -1.57679e-06
0.000385143 0.000358438 -1.21718e-06
-1.57679e-06 -1.21718e-06 7.30443e-05
0.000255826 0.000103988 -5.2021e-07
0.000103988 -0.000174575 -2.02725e-06
-5.2021e-07 -2.02725e-06 -0.000374768
0.00132718 0.000313332 1.90261e-06
0.000313332 0.000297036 -3.55076e-06
1.90261e-06 -3.55076e-06 8.45876e-05
0.00208483 0.000452378 -2.89739e-06
0.000452378 0.000132519 -1.19434e-06
-2.89739e-06 -1.19434e-06 -1.27169e-05
0.00220614 0.000595629 2.57072e-06
0.000595629 0.000383017 -3.74018e-07
2.57072e-06 -3.74018e-07 0.000113148
0.00204178 0.000560699 3.09737e-06
0.000560699 0.000184777 2.82903e-06
3.09737e-06 2.82903e-06 -4.56494e-05
0.00127728 0.000504178 3.65911e-06
0.000504178 0.00025605 1.58936e-06
3.65911e-06 1.58936e-06 -0.000107744
0.00179912 0.000643788 -4.49125e-06
0.000643788 0.000353934 3.67994e-08
-4.49125e-06 3.67994e-08 5.56761e-06
-0.000357873 9.88591e-06 -1.44029e-06
9.88591e-06 -0.000495372 4.38901e-06
-1.44029e-06 4.38901e-06 -0.000611889
-8.77367e-05 0.000149205 2.33478e-06
0.000149205 -0.000218701 3.07839e-06
2.33478e-06 3.07839e-06 -0.000488576
0.0012199 0.000390967 1.71321e-06
0.000390967 0.000269185 -1.13292e-06
1.71321e-06 -1.13292e-06 -3.6024e-05
-0.000285533 0.000139022 1.43761e-06
0.000139022 -0.000641027 1.42246e-07
1.43761e-06 1.42246e-07 -0.000832139
0.00216663 0.000454935 2.89509e-06
0.000454935 -8.16756e-05 1.5434e-06
2.89509e-06 1.5434e-06 -9.03025e-05
0.00275749 0.000574066 5.05393e-06
0.000574066 0.000543137 4.4042e-07
5.05393e-06 4.4042e-07 0.000352237
0.00205254 0.000665876 -2.60715e-06
0.000665876 0.000321034 -3.78651e-06
-2.60715e-06 -3.78651e-06 -2.51138e-06
0.00155241 0.000605775 1.15159e-06
0.000605775 0.000313452 -6.88743e-09
1.15159e-06 -6.88743e-09 -7.3295e-05
0.000651552 9.68352e-05 -8.53061e-07
9.68352e-05 0.000121699 -1.60979e-06
-8.53061e-07 -1.60979e-06 7.83755e-06
0.000584777 8.12213e-05 -5.10166e-07
8.12213e-05 7.73422e-05 -2.04345e-07
-5.10166e-07 -2.04345e-07 -3.88913e-05
0.00104216 7.99587e-05 -5.64034e-06
7.99587e-05 0.000360874 -2.30111e-06
-5.64034e-06 -2.30111e-06 0.000258473
0.000583318 3.77219e-05 -1.35294e-06
3.77219e-05 6.42999e-05 -2.60176e-06
-1.35294e-06 -2.60176e-06 -2.89469e-05
0.000205931 3.20527e-05 -1.86741e-07
3.20527e-05 -0.000158813 -7.33628e-07
-1.86741e-07 -7.33628e-07 -0.000264625
0.000615581 4.6786e-05 -4.47156e-07
4.6786e-05 9.94121e-05 1.18923e-07
-4.47156e-07 1.18923e-07 -1.78437e-06
0.00056193 0.000115181 -9.48783e-07
0.000115181 9.35183e-05 6.10122e-07
-9.48783e-07 6.10122e-07 -2.62117e-05
0.000513454 4.45721e-05 1.02236e-06
4.45721e-05 5.39047e-05 9.15954e-08
1.02236e-06 9.15954e-08 -7.60842e-05
0.000598561 8.72266e-05 3.1589e-06
8.72266e-05 8.5188e-05 -7.91433e-07
3.1589e-06 -7.91433e-07 -1.87198e-06
0.000762425 4.39908e-06 3.29036e-06
4.39908e-06 0.000205552 -3.6792e-06
3.29036e-06 -3.6792e-06 8.05165e-05
0.000329098 6.45587e-05 3.71126e-07
6.45587e-05 -6.07293e-05 1.85215e-06
3.71126e-07 1.85215e-06 -0.000189501
0.000670094 0.000103296 2.3419e-06
0.000103296 0.000134934 3.28981e-06
2.3419e-06 3.28981e-06 2.94578e-05
0.000483145 7.07097e-05 3.18694e-06
7.07097e-05 8.07762e-06 3.32504e-06
3.18694e-06 3.32504e-06 -6.42723e-05
0.000487132 1.09101e-05 -1.51693e-06
1.09101e-05 3.0347e-06 -2.38861e-07
-1.51693e-06 -2.38861e-07 -6.20457e-05
0.00120544 2.75725e-06 1.41719e-06
2.75725e-06 0.000417049 2.73427e-06
1.41719e-06 2.73427e-06 0.000402298
0.000486491 -4.48964e-05 -7.34163e-08
-4.48964e-05 -2.45961e-06 -2.9637e-06
-7.34163e-08 -2.9637e-06 -6.47881e-05
0.0012886 -8.93175e-06 -5.66464e-06
-8.93175e-06 0.000463462 -1.63356e-06
-5.66464e-06 -1.63356e-06 0.000449038
0.000769527 -1.91914e-05 2.30529e-05
-1.91914e-05 0.000139668 8.88406e-06
2.30529e-05 8.88406e-06 0.000145971
0.00133328 -2.05705e-05 -9.92998e-06
-2.05705e-05 0.00048898 -6.3342e-06
-9.92998e-06 -6.3342e-06 0.000473844
0.00075853 -3.16037e-05 8.59055e-06
-3.16037e-05 0.000130902 3.33466e-06
8.59055e-06 3.33466e-06 0.000135223
0.000719272 -4.18473e-05 -8.74168e-08
-4.18473e-05 0.000110446 -2.83432e-06
-8.74168e-08 -2.83432e-06 0.00011182
0.000421149 4.08211e-05 -8.26401e-07
4.08211e-05 -6.31965e-05 -3.55134e-06
-8.26401e-07 -3.55134e-06 -8.34147e-05
0.000430587 7.10108e-05 -2.8347e-07
7.10108e-05 -3.16716e-05 2.49552e-07
-2.8347e-07 2.49552e-07 -6.83695e-05
0.00241325 0.000107796 1.26226e-05
0.000107796 0.00119541 -4.38781e-06
1.26226e-05 -4.38781e-06 0.00119606
0.000530844 2.40904e-05 -4.56055e-06
2.40904e-05 3.21813e-05 8.62564e-06
-4.56055e-06 8.62564e-06 -1.40073e-05
0.00292386 0.000144263 -4.90794e-06
0.000144263 0.00152293 -5.93071e-07
-4.90794e-06 -5.93071e-07 0.00151353
0.00369551 8.43865e-05 -0.000120815
8.43865e-05 0.00199842 9.63819e-06
-0.000120815 9.63819e-06 0.00200259
0.00193219 0.000320365 -1.02262e-06
0.000320365 8.3653e-05 1.21854e-06
-1.02262e-06 1.21854e-06 -3.72854e-05
0.00203078 0.00018661 -5.27063e-06
0.00018661 5.75647e-05 -6.92062e-07
-5.27063e-06 -6.92062e-07 1.42226e-05
0.00204016 0.000277309 -4.40934e-07
0.000277309 1.22352e-05 -3.18785e-07
-4.40934e-07 -3.18785e-07 -2.49201e-05
0.00196413 0.0001172 -2.82832e-06
0.0001172 -1.97992e-05 -5.81417e-07
-2.82832e-06 -5.81417e-07 -1.82831e-05
0.00197709 5.13386e-05 -5.39591e-06
5.13386e-05 6.3745e-05 -3.77501e-07
-5.39591e-06 -3.77501e-07 3.49071e-05
0.00189046 -7.40166e-06 -4.10383e-06
-7.40166e-06 4.6819e-05 3.43558e-07
-4.10383e-06 3.43558e-07 -8.35771e-06
0.00191937 -8.07281e-06 -2.59821e-07
-8.07281e-06 2.89443e-05 -5.19457e-08
-2.59821e-07 -5.19457e-08 2.91536e-06
0.00199457 5.76092e-05 1.11018e-06
5.76092e-05 7.02642e-06 1.64913e-07
1.11018e-06 1.64913e-07 9.9598e-06
0.00206475 0.000189922 9.82204e-07
0.000189922 1.03136e-05 2.11368e-07
9.82204e-07 2.11368e-07 4.70454e-06
0.00210967 0.000354622 6.9219e-07
0.000354622 6.5028e-05 2.94491e-07
6.9219e-07 2.94491e-07 -4.50188e-06
0.00197727 -1.39479e-05 1.76284e-06
-1.39479e-05 5.7535e-06 -1.28288e-08
1.76284e-06 -1.28288e-08 5.03167e-06
0.00211717 0.000107984 3.08978e-07
0.000107984 -2.68287e-05 -2.56481e-07
3.08978e-07 -2.56481e-07 1.14708e-05
0.00227272 0.000290566 2.13891e-06
0.000290566 4.01734e-05 8.36963e-07
2.13891e-06 8.36963e-07 3.85211e-05
0.00189794 -7.75268e-05 -5.38609e-06
-7.75268e-05 -6.02906e-06 2.63972e-07
-5.38609e-06 2.63972e-07 -2.78702e-05
0.00199143 -0.000171672 -3.36258e-06
-0.000171672 4.07484e-05 2.15797e-07
-3.36258e-06 2.15797e-07 6.30754e-06
0.00202245 -0.000309303 -3.09821e-06
-0.000309303 4.61858e-05 5.56336e-07
-3.09821e-06 5.56336e-07 -2.51501e-06
0.00111859 -0.000393529 -4.39508e-06
-0.000393529 0.000194806 1.80336e-06
-4.39508e-06 1.80336e-06 -0.000116516
0.00145624 -0.000567638 8.80101e-06
-0.000567638 0.000285191 -3.16493e-06
8.80101e-06 -3.16493e-06 -9.28459e-05
0.00178497 -0.000669461 -2.56047e-06
-0.000669461 0.000268702 7.47047e-07
-2.56047e-06 7.47047e-07 -0.000106795
0.00191319 -0.000391517 -1.77641e-06
-0.000391517 5.74636e-05 1.08042e-06
-1.77641e-06 1.08042e-06 -4.44851e-05
0.00196114 -0.000512506 1.65101e-06
-0.000512506 0.000142208 1.862e-06
1.65101e-06 1.862e-06 -2.49712e-05
0.0021242 -0.000576357 5.73418e-06
-0.000576357 0.000315415 -6.81372e-06
5.73418e-06 -6.81372e-06 6.62249e-05
0.00116876 -0.000376218 1.20847e-06
-0.000376218 0.000240027 2.12873e-06
1.20847e-06 2.12873e-06 -6.53555e-05
0.000841511 -0.000337242 -7.68233e-06
-0.000337242 8.53361e-05 -9.09955e-07
-7.68233e-06 -9.09955e-07 -0.000218865
0.00216822 -0.000404385 1.43408e-06
-0.000404385 0.00105247 -2.10766e-06
1.43408e-06 -2.10766e-06 0.000701957
0.000341052 4.61466e-05 2.79502e-06
4.61466e-05 -8.40396e-05 1.37854e-06
2.79502e-06 1.37854e-06 -0.000167915
0.0011559 -0.000176238 3.56521e-06
-0.000176238 0.000459643 2.62082e-06
3.56521e-06 2.62082e-06 0.000221931
6.18316e-05 3.27495e-05 5.56518e-06
3.27495e-05 -0.000206988 1.01564e-06
5.56518e-06 1.01564e-06 -0.000388965
0.00199852 -8.63587e-05 -4.98336e-07
-8.63587e-05 1.69831e-05 1.2487e-07
-4.98336e-07 1.2487e-07 1.57082e-05
0.00207218 -0.000226322 9.9869e-08
-0.000226322 -1.88178e-05 -5.74301e-08
9.9869e-08 -5.74301e-08 -9.83278e-06
0.00208534 -0.000376835 -6.53165e-07
-0.000376835 3.5311e-05 2.81675e-07
-6.53165e-07 2.81675e-07 8.66137e-06
0.00147799 -0.000502082 -1.28051e-06
-0.000502082 0.00039521 1.75201e-07
-1.28051e-06 1.75201e-07 3.79025e-05
0.00137086 -0.000636948 2.53897e-06
-0.000636948 0.000201788 -1.40464e-06
2.53897e-06 -1.40464e-06 -0.000215657
0.00230908 -0.000740499 -5.006e-06
-0.000740499 0.00056755 2.94121e-07
-5.006e-06 2.94121e-07 0.000183005
0.00210064 -0.000480776 5.41438e-07
-0.000480776 7.99657e-05 -5.18e-07
5.41438e-07 -5.18e-07 -1.24312e-05
0.00195158 -0.000589053 1.51435e-06
-0.000589053 0.000150969 -2.50639e-06
1.51435e-06 -2.50639e-06 -6.6347e-05
0.000333493 5.9418e-05 -1.2298e-06
5.9418e-05 -9.33369e-05 -1.12247e-06
-1.2298e-06 -1.12247e-06 -0.000155131
0.000652467 -1.66271e-05 -8.71975e-07
-1.66271e-05 0.000151548 3.45239e-07
-8.71975e-07 3.45239e-07 1.24756e-05
0.000825027 -0.000396805 -4.72697e-06
-0.000396805 9.62699e-06 2.23219e-06
-4.72697e-06 2.23219e-06 -0.000323147
0.00163046 -0.000382714 2.6906e-06
-0.000382714 0.000646437 -4.97451e-07
2.6906e-06 -4.97451e-07 0.000256474
0.00135486 -0.000151166 -1.7733e-07
-0.000151166 0.000563222 -2.16699e-06
-1.7733e-07 -2.16699e-06 0.000282472
0.000846296 -0.00014069 -5.2487e-07
-0.00014069 0.000302842 9.28166e-07
-5.2487e-07 9.28166e-07 7.64656e-05
0.00206857 -0.000117802 -9.14836e-07
-0.000117802 -3.04487e-05 2.52657e-07
-9.14836e-07 2.52657e-07 4.54509e-06
0.00219321 -0.000323893 -1.61679e-06
-0.000323893 -4.67924e-05 8.52091e-07
-1.61679e-06 8.52091e-07 4.4611e-06
0.00217495 -0.000444415 2.10093e-06
-0.000444415 4.81986e-05 1.96474e-07
2.10093e-06 1.96474e-07 3.16396e-05
0.00241731 -0.000645557 8.27733e-06
-0.000645557 0.000260251 -1.94851e-06
8.27733e-06 -1.94851e-06 0.000110596
0.000561719 -0.000453528 9.23985e-07
-0.000453528 -0.000156964 -5.68242e-06
9.23985e-07 -5.68242e-06 -0.000528413
0.00237321 -0.000785938 1.03093e-06
-0.000785938 0.000526604 9.60045e-06
1.03093e-06 9.60045e-06 0.000165013
0.00230946 -0.000801548 -1.53415e-05
-0.000801548 0.000696738 -3.57557e-06
-1.53415e-05 -3.57557e-06 0.000222638
0.00057498 4.81874e-05 3.86936e-07
4.81874e-05 3.88752e-05 -5.76854e-07
3.86936e-07 -5.76854e-07 -7.89887e-06
0.000672657 -0.000134797 4.40959e-06
-0.000134797 0.000150027 -1.98392e-06
4.40959e-06 -1.98392e-06 5.11691e-05
0.000259404 7.1167e-05 -6.15316e-06
7.1167e-05 -0.00010355 4.54876e-07
-6.15316e-06 4.54876e-07 -0.00020355
0.000786004 -5.09663e-05 -3.85891e-06
-5.09663e-05 0.000260136 4.27616e-06
-3.85891e-06 4.27616e-06 7.2783e-05
0.000302992 -8.91747e-05 2.18235e-06
-8.91747e-05 -7.78747e-05 -3.92988e-06
2.18235e-06 -3.92988e-06 -0.000300215
-0.000770322 -2.68325e-05 2.4738e-06
-2.68325e-05 -0.00070933 -6.17733e-07
2.4738e-06 -6.17733e-07 -0.00105306
0.00147713 -0.000492503 -1.98494e-05
-0.000492503 0.000403927 1.30633e-05
-1.98494e-05 1.30633e-05 5.61422e-05
0.00291743 -0.000522397 -2.21866e-05
-0.000522397 0.00155402 1.27927e-05
-2.21866e-05 1.27927e-05 0.000977132
0.00059322 1.73695e-05 -5.31226e-07
1.73695e-05 7.62642e-05 -1.71878e-06
-5.31226e-07 -1.71878e-06 -3.33822e-05
0.000751444 0.00014117 -2.75542e-07
0.00014117 0.000243948 -8.46149e-07
-2.75542e-07 -8.46149e-07 2.12851e-05
0.00224231 0.000464371 -2.66441e-06
0.000464371 0.000218718 -1.3249e-06
-2.66441e-06 -1.3249e-06 7.53359e-05
0.000549652 0.000158737 -3.62919e-06
0.000158737 2.31734e-05 2.67954e-06
-3.62919e-06 2.67954e-06 -0.000193308
0.00133001 0.000381472 -2.08696e-06
0.000381472 0.000342434 1.2512e-07
-2.08696e-06 1.2512e-07 5.72528e-05
0.000927153 0.000273566 -4.51375e-06
0.000273566 3.9445e-05 -7.66295e-06
-4.51375e-06 -7.66295e-06 -0.000164266
0.00230045 0.000591363 -4.95355e-06
0.000591363 0.000446717 -5.23698e-07
-4.95355e-06 -5.23698e-07 0.000183432
0.00222219 0.000582535 -8.83198e-06
0.000582535 0.000282004 4.82537e-06
-8.83198e-06 4.82537e-06 4.70203e-05
0.00162982 0.000550312 -2.06228e-06
0.000550312 0.000469773 9.66432e-07
-2.06228e-06 9.66432e-07 9.6201e-05
0.00158521 0.000641224 -1.37522e-06
0.000641224 0.000225142 -3.45855e-07
-1.37522e-06 -3.45855e-07 -0.000130364
3.71025e-05 4.39793e-05 6.67095e-08
4.39793e-05 -0.000245849 1.45443e-06
6.67095e-08 1.45443e-06 -0.000375353
0.000237785 0.000181856 -7.80821e-07
0.000181856 -2.43525e-05 -3.36264e-06
-7.80821e-07 -3.36264e-06 -0.000292198
0.00150917 0.000432449 1.21891e-06
0.000432449 0.000432692 -4.48282e-07
1.21891e-06 -4.48282e-07 0.000118283
0.000906056 0.000251953 -1.74593e-06
0.000251953 9.56412e-05 1.52246e-06
-1.74593e-06 1.52246e-06 -0.000114284
0.00223571 0.000441773 7.71561e-07
0.000441773 -5.14123e-05 -9.91202e-07
7.71561e-07 -9.91202e-07 -5.71535e-05
0.00251519 0.000567297 3.24269e-06
0.000567297 0.000404438 4.68927e-07
3.24269e-06 4.68927e-07 0.000209083
0.00199516 0.000648595 -3.91676e-07
0.000648595 0.000292347 4.89945e-07
-3.91676e-07 4.89945e-07 -2.43126e-05
0.00166988 0.000616996 7.70757e-07
0.000616996 0.00036528 3.68074e-07
7.70757e-07 3.68074e-07 -1.8444e-05
-7.67836e-05 4.74715e-05 -9.7569e-07
4.74715e-05 -0.000321346 4.55597e-06
-9.7569e-07 4.55597e-06 -0.000459136
0.00217423 0.000347384 7.19432e-06
0.000347384 -0.000145753 3.40572e-06
7.19432e-06 3.40572e-06 -8.65044e-05
0.00217476 0.000421623 6.98229e-06
0.000421623 0.00110589 8.52352e-06
6.98229e-06 8.52352e-06 0.000802238
0.00127166 0.000427873 1.06695e-06
0.000427873 0.000241033 -1.05709e-06
1.06695e-06 -1.05709e-06 -5.46575e-05
0.00259294 0.000552685 -1.65941e-05
0.000552685 0.000300186 -7.20107e-06
-1.65941e-05 -7.20107e-06 0.000203984
0.0011256 0.000604329 -7.4009e-06
0.000604329 -0.000304291 -8.26878e-06
-7.4009e-06 -8.26878e-06 -0.000603677
0.00229529 0.00071213 -1.56062e-06
0.00071213 0.000669556 3.05187e-06
-1.56062e-06 3.05187e-06 0.00026034
0.000791223 9.91281e-05 -1.32447e-06
9.91281e-05 0.000203902 -1.42706e-06
-1.32447e-06 -1.42706e-06 8.69693e-05
0.000650086 9.34325e-05 -2.85184e-06
9.34325e-05 0.000130345 -9.39798e-07
-2.85184e-06 -9.39798e-07 2.221e-05
0.00155465 9.99623e-05 -3.08385e-06
9.99623e-05 0.000694028 -2.31261e-06
-3.08385e-06 -2.31261e-06 0.000608107
0.000530964 5.05159e-06 2.14193e-07
5.05159e-06 4.98311e-05 -3.28704e-06
2.14193e-07 -3.28704e-06 -5.2778e-05
0.000697972 7.77441e-05 1.68571e-06
7.77441e-05 0.000171963 -5.03962e-07
1.68571e-06 -5.03962e-07 3.7922e-05
2.92674e-05 5.93433e-05 -1.495e-06
5.93433e-05 -0.000218615 3.63781e-06
-1.495e-06 3.63781e-06 -0.000329794
0.000570989 1.8535e-05 -1.19288e-06
1.8535e-05 8.07664e-05 1.29646e-08
-1.19288e-06 1.29646e-08 -2.85167e-05
0.000336438 -1.5883e-05 -9.25612e-07
-1.5883e-05 -4.34752e-05 2.74479e-08
-9.25612e-07 2.74479e-08 -0.000177919
0.000158132 3.79405e-05 8.38009e-07
3.79405e-05 -0.000170539 5.76964e-07
8.38009e-07 5.76964e-07 -0.000248543
0.000778216 7.82245e-05 8.72477e-07
7.82245e-05 0.000229337 -9.67587e-07
8.72477e-07 -9.67587e-07 9.18404e-05
0.001561 0.000109253 -3.4133e-08
0.000109253 0.000661761 -2.216e-06
-3.4133e-08 -2.216e-06 0.000608135
0.000519798 1.25851e-05 8.69905e-06
1.25851e-05 4.60081e-05 -3.88474e-06
8.69905e-06 -3.88474e-06 -4.2613e-05
0.000333201 8.94337e-05 3.69201e-07
8.94337e-05 -3.73046e-05 2.06876e-06
3.69201e-07 2.06876e-06 -0.000183882
0.000605263 4.43192e-05 2.22294e-06
4.43192e-05 0.000121528 3.04661e-06
2.22294e-06 3.04661e-06 -2.89748e-05
0.000594382 3.51621e-05 2.57572e-06
3.51621e-05 8.8277e-05 3.06966e-06
2.57572e-06 3.06966e-06 -2.236e-05
0.000485643 -5.07136e-05 -2.36357e-07
-5.07136e-05 8.60451e-06 3.11201e-06
-2.36357e-07 3.11201e-06 -6.53484e-05
0.000508069 6.33187e-06 -1.43519e-08
6.33187e-06 1.7188e-05 -2.77677e-07
-1.43519e-08 -2.77677e-07 -5.03913e-05
0.00127962 2.03221e-05 2.55814e-06
2.03221e-05 0.00047067 2.82969e-06
2.55814e-06 2.82969e-06 0.000453586
0.000511195 -5.78829e-06 1.31219e-07
-5.78829e-06 1.09719e-05 -3.14428e-06
1.31219e-07 -3.14428e-06 -4.93426e-05
0.00129357 6.51587e-06 -4.92567e-06
6.51587e-06 0.000471926 -1.65104e-06
-4.92567e-06 -1.65104e-06 0.000456985
0.000749029 -1.1058e-05 1.81732e-05
-1.1058e-05 0.000130616 8.69186e-06
1.81732e-05 8.69186e-06 0.000137024
0.00134409 -9.89108e-06 -7.61761e-06
-9.89108e-06 0.000497876 -6.32285e-06
-7.61761e-06 -6.32285e-06 0.000483574
0.000778823 -2.22904e-05 6.38445e-06
-2.22904e-05 0.000142883 3.40314e-06
6.38445e-06 3.40314e-06 0.000148305
0.000748433 -3.22282e-05 -2.74945e-08
-3.22282e-05 0.000122777 -2.6789e-06
-2.74945e-08 -2.6789e-06 0.000126799
0.000643872 -4.09532e-06 1.73347e-06
-4.09532e-06 7.82612e-05 -1.75187e-06
1.73347e-06 -1.75187e-06 3.35656e-05
0.000457394 2.85137e-05 2.86482e-07
2.85137e-05 -5.20795e-05 -3.44349e-06
2.86482e-07 -3.44349e-06 -6.62723e-05
0.000466089 4.44175e-05 4.0027e-07
4.44175e-05 -3.32534e-05 2.45446e-07
4.0027e-07 2.45446e-07 -5.47579e-05
0.00218347 8.38479e-05 1.43023e-05
8.38479e-05 0.00104184 -4.13966e-06
1.43023e-05 -4.13966e-06 0.00104906
0.000494859 6.77431e-05 5.73794e-06
6.77431e-05 5.76293e-06 6.88352e-06
5.73794e-06 6.88352e-06 -3.05472e-05
0.00256686 0.000115042 -5.49999e-06
0.000115042 0.00129192 -5.59458e-07
-5.49999e-06 -5.59458e-07 0.00129083
0.00308674 0.000119891 -3.8554e-05
0.000119891 0.00161677 5.13296e-06
-3.8554e-05 5.13296e-06 0.00161254
0.00212359 0.000348923 -8.94715e-08
0.000348923 6.46006e-05 -1.95362e-07
-8.94715e-08 -1.95362e-07 -4.64655e-06
0.00206072 0.000194824 -2.26617e-06
0.000194824 1.13569e-05 -5.4833e-07
-2.26617e-06 -5.4833e-07 5.33466e-06
0.00200136 6.134e-05 -2.6758e-06
6.134e-05 1.72088e-05 -2.55167e-07
-2.6758e-06 -2.55167e-07 1.84039e-05
0.00192279 -5.85576e-06 -5.33401e-06
-5.85576e-06 3.14879e-05 -1.96358e-07
-5.33401e-06 -1.96358e-07 6.3957e-06
0.00196917 -8.97307e-06 -9.23601e-07
-8.97307e-06 -1.91284e-06 1.39237e-09
-9.23601e-07 1.39237e-09 1.72014e-07
0.00209643 0.000100951 -7.36117e-08
0.000100951 -3.03346e-05 1.37304e-07
-7.36117e-08 1.37304e-07 5.05859e-06
0.00220369 0.000295881 -1.11707e-06
0.000295881 5.2296e-06 -1.35046e-08
-1.11707e-06 -1.35046e-08 4.99963e-06
0.00207512 -1.04795e-05 -8.0502e-07
-1.04795e-05 -4.57406e-05 -3.19293e-07
-8.0502e-07 -3.19293e-07 -6.49166e-08
0.00227985 0.000153932 4.75449e-06
0.000153932 -3.48295e-05 -5.12769e-07
4.75449e-06 -5.12769e-07 1.17275e-05
0.00243889 0.000104522 6.56421e-06
0.000104522 0.000139942 1.25586e-05
6.56421e-06 1.25586e-05 0.000209413
0.00201251 -8.56785e-05 -3.11893e-06
-8.56785e-05 2.54682e-05 1.31039e-07
-3.11893e-06 1.31039e-07 2.20943e-05
0.00205047 -0.000234188 -1.55034e-06
-0.000234188 -3.58463e-05 -3.79664e-08
-1.55034e-06 -3.79664e-08 -2.55071e-05
0.00206745 -0.000370417 -1.2581e-06
-0.000370417 3.1161e-05 -1.41256e-07
-1.2581e-06 -1.41256e-07 2.02985e-06
0.00130055 -0.000483964 2.19268e-06
-0.000483964 0.000284419 1.80551e-07
2.19268e-06 1.80551e-07 -6.92948e-05
0.00166221 -0.000663846 8.35408e-06
-0.000663846 0.000371828 5.49814e-07
8.35408e-06 5.49814e-07 -5.03469e-05
0.00199494 -0.000692429 1.42302e-06
-0.000692429 0.000395187 -3.7007e-07
1.42302e-06 -3.7007e-07 2.94662e-05
0.00201203 -0.000483761 -5.36447e-07
-0.000483761 3.00087e-05 2.20655e-06
-5.36447e-07 2.20655e-06 -6.75535e-05
0.00195608 -0.00058325 -4.14369e-06
-0.00058325 0.000161609 -8.99814e-07
-4.14369e-06 -8.99814e-07 -5.25837e-05
0.000620083 -0.000370514 -4.92084e-06
-0.000370514 -0.000110273 -5.14984e-06
-4.92084e-06 -5.14984e-06 -0.00043729
0.00202543 -0.000398793 1.59775e-05
-0.000398793 0.000936072 -9.82676e-06
1.59775e-05 -9.82676e-06 0.000529089
0.00116804 -9.03294e-05 -5.39235e-07
-9.03294e-05 0.000424767 2.58687e-06
-5.39235e-07 2.58687e-06 0.000165643
0.000453299 1.64096e-05 2.05018e-06
1.64096e-05 -2.12298e-05 2.26039e-07
2.05018e-06 2.26039e-07 -7.8804e-05
0.00079374 3.98278e-05 5.7454e-06
3.98278e-05 0.000235129 7.83409e-07
5.7454e-06 7.83409e-07 9.55728e-05
0.000560733 -9.62355e-05 1.15955e-06
-9.62355e-05 0.000119346 3.84757e-06
1.15955e-06 3.84757e-06 -0.000104484
0.00207736 -0.000120615 5.74859e-07
-0.000120615 -3.33414e-05 -4.48294e-08
5.74859e-07 -4.48294e-08 3.79758e-06
0.000508889 1.2537e-05 1.49294e-06
1.2537e-05 -1.18711e-06 2.72867e-07
1.49294e-06 2.72867e-07 -4.78439e-05
0.000433467 -6.82716e-05 -2.0016e-06
-6.82716e-05 -2.58464e-05 -4.04393e-07
-2.0016e-06 -4.04393e-07 -0.000106718
0.00217715 -0.00031355 -2.33197e-07
-0.00031355 -3.60009e-05 1.85835e-07
-2.33197e-07 1.85835e-07 8.32883e-06
0.00211617 -0.000434835 -1.55578e-06
-0.000434835 1.65533e-05 1.32026e-07
-1.55578e-06 1.32026e-07 7.0348e-06
0.00172923 -0.000591073 -1.74717e-06
-0.000591073 0.000515334 1.26183e-06
-1.74717e-06 1.26183e-06 0.000113355
0.00185173 -0.000745737 3.24223e-06
-0.000745737 0.000457648 1.25877e-06
3.24223e-06 1.25877e-06 -1.20438e-05
0.00186035 -0.000728349 4.27954e-06
-0.000728349 0.000233672 -4.00013e-06
4.27954e-06 -4.00013e-06 -0.000113189
0.00218068 -0.000624091 2.92685e-06
-0.000624091 0.000132707 -1.04707e-06
2.92685e-06 -1.04707e-06 -1.06119e-05
0.000654492 1.67111e-06 -3.03614e-07
1.67111e-06 0.000151087 -1.30588e-06
-3.03614e-07 -1.30588e-06 4.59502e-05
0.000716519 -4.03246e-05 5.33069e-07
-4.03246e-05 0.000216506 1.86801e-06
5.33069e-07 1.86801e-06 2.90683e-05
0.00162443 -0.000493675 3.81252e-06
-0.000493675 0.000499817 1.26218e-06
3.81252e-06 1.26218e-06 0.000140201
0.00129251 -0.000352426 1.37782e-05
-0.000352426 0.000562682 -4.77316e-06
1.37782e-05 -4.77316e-06 6.85562e-05
0.000628842 -8.28688e-05 -3.0662e-06
-8.28688e-05 9.26535e-05 -1.06171e-06
-3.0662e-06 -1.06171e-06 -0.000212812
0.000513802 -6.39456e-05 9.96507e-07
-6.39456e-05 6.45207e-05 -2.07956e-06
9.96507e-07 -2.07956e-06 -0.000169788
0.00210609 -0.000139901 2.05133e-06
-0.000139901 -0.000133073 -1.08619e-06
2.05133e-06 -1.08619e-06 -8.20971e-05
0.00216406 -0.000400596 -1.78869e-06
-0.000400596 -0.000179264 2.29903e-06
-1.78869e-06 2.29903e-06 -9.5579e-06
0.00230514 -0.000592154 -4.54264e-06
-0.000592154 6.80057e-05 1.46569e-06
-4.54264e-06 1.46569e-06 2.69506e-05
0.00222483 -0.000798209 8.5192e-06
-0.000798209 0.000244017 -3.00125e-06
8.5192e-06 -3.00125e-06 3.2307e-05
0.00116252 -0.000559109 9.17738e-08
-0.000559109 0.000225517 -1.25738e-05
9.17738e-08 -1.25738e-05 -0.000187417
0.0025584 -0.000902868 -9.9867e-06
-0.000902868 0.000773078 1.155e-05
-9.9867e-06 1.155e-05 0.000268225
0.000192981 4.74683e-05 -1.68083e-06
4.74683e-05 -0.000163689 -3.92659e-06
-1.68083e-06 -3.92659e-06 -0.000252568
0.000588629 -5.34529e-05 5.01301e-06
-5.34529e-05 7.12975e-05 1.03918e-07
5.01301e-06 1.03918e-07 -5.35242e-06
0.00106784 -0.000139776 3.55348e-07
-0.000139776 0.000357755 7.3628e-06
3.55348e-07 7.3628e-06 0.000252467
0.000529183 2.52171e-05 -3.95566e-06
2.52171e-05 8.11299e-05 6.62083e-06
-3.95566e-06 6.62083e-06 -6.93716e-05
0.000795377 -9.35222e-05 -4.5637e-06
-9.35222e-05 0.000241364 7.60307e-06
-4.5637e-06 7.60307e-06 4.79565e-05
0.00131097 -4.4115e-05 6.96936e-06
-4.4115e-05 0.000460817 -5.1929e-06
6.96936e-06 -5.1929e-06 0.000237019
-0.00113061 -0.000199273 4.5945e-06
-0.000199273 -0.000600141 7.21104e-07
4.5945e-06 7.21104e-07 -0.00130124
-0.000179546 -0.000449631 -4.01326e-05
-0.000449631 -0.000615478 1.18136e-05
-4.01326e-05 1.18136e-05 -0.000947113
0.000481411 5.81956e-05 -7.33572e-07
5.81956e-05 3.87475e-05 -1.39432e-06
-7.33572e-07 -1.39432e-06 -0.000109896
0.000993849 0.000219838 -9.70858e-06
0.000219838 0.00042108 -6.54706e-06
-9.70858e-06 -6.54706e-06 0.00015944
0.00229084 0.000428053 -7.08104e-06
0.000428053 -2.20339e-05 -2.62343e-06
-7.08104e-06 -2.62343e-06 -2.66436e-05
0.002366 0.000565626 -5.41852e-06
0.000565626 0.000322207 6.57022e-09
-5.41852e-06 6.57022e-09 0.000121682
0.00212193 0.000354361 -6.86559e-06
0.000354361 0.00083157 -1.33314e-06
-6.86559e-06 -1.33314e-06 0.000610135
0.00159553 0.000448326 -4.1852e-06
0.000448326 0.000477318 -3.83566e-06
-4.1852e-06 -3.83566e-06 0.000158348
0.00201071 0.000639633 1.48805e-07
0.000639633 0.000302073 1.82804e-06
1.48805e-07 1.82804e-06 -9.79407e-06
0.00181613 0.0006285 -2.11224e-06
0.0006285 0.000436334 -8.72978e-07
-2.11224e-06 -8.72978e-07 5.51548e-05
0.00046434 9.02575e-05 8.43528e-07
9.02575e-05 2.97836e-05 -1.21027e-06
8.43528e-07 -1.21027e-06 -0.00013303
0.002319 0.000330651 -2.1195e-06
0.000330651 -5.57697e-05 -1.35761e-06
-2.1195e-06 -1.35761e-06 7.64543e-06
0.00141767 0.000297369 1.23363e-06
0.000297369 0.000616509 1.75806e-06
1.23363e-06 1.75806e-06 0.000348213
0.00153608 0.00045373 2.32573e-06
0.00045373 0.000420812 1.12175e-06
2.32573e-06 1.12175e-06 0.00011451
0.00254466 0.000549144 1.59517e-06
0.000549144 0.000281722 3.962e-07
1.59517e-06 3.962e-07 0.000186461
0.00162624 0.000642594 -1.80045e-06
0.000642594 -1.24665e-05 -4.67087e-06
-1.80045e-06 -4.67087e-06 -0.000314931
0.002019 0.000676475 4.70839e-07
0.000676475 0.000519691 4.25698e-07
4.70839e-07 4.25698e-07 0.000116384
0.00112337 0.000231098 -3.47716e-06
0.000231098 0.000482664 4.51464e-06
-3.47716e-06 4.51464e-06 0.000261667
0.00319752 0.000449278 -7.41634e-05
0.000449278 0.000496149 -2.00979e-05
-7.41634e-05 -2.00979e-05 0.000590245
0.00165477 0.000452253 -4.1659e-06
0.000452253 0.000668661 3.1505e-06
-4.1659e-06 3.1505e-06 0.00036792
0.00144859 0.000521353 -2.53316e-06
0.000521353 0.00028833 -5.43066e-06
-2.53316e-06 -5.43066e-06 -7.41289e-05
0.00183065 0.000678497 -3.37031e-05
0.000678497 -2.90314e-05 -1.95104e-05
-3.37031e-05 -1.95104e-05 -0.000231107
0.00109493 0.000603491 -2.53815e-05
0.000603491 -5.89022e-05 -2.71779e-06
-2.53815e-05 -2.71779e-06 -0.00043559
0.000361487 0.000658294 2.73181e-05
0.000658294 -0.00147833 -3.6936e-05
2.73181e-05 -3.6936e-05 -0.00134022
0.000177079 0.00010628 2.09581e-06
0.00010628 -0.00014085 -6.72386e-07
2.09581e-06 -6.72386e-07 -0.000256016
0.000554433 0.000103313 -5.84108e-07
0.000103313 0.000119448 9.41701e-07
-5.84108e-07 9.41701e-07 2.60701e-05
0.00198019 0.000152454 1.92772e-06
0.000152454 0.000944441 -2.97883e-06
1.92772e-06 -2.97883e-06 0.000860697
0.000463956 -6.39014e-05 4.39574e-07
-6.39014e-05 2.376e-05 -3.85223e-06
4.39574e-07 -3.85223e-06 -8.92949e-05
0.000472555 -4.31329e-05 -1.00007e-06
-4.31329e-05 3.82129e-05 -7.49067e-07
-1.00007e-06 -7.49067e-07 -9.34107e-05
0.000959036 0.000169367 -3.74917e-08
0.000169367 0.000345409 8.20308e-07
-3.74917e-08 8.20308e-07 0.000196632
-0.000107887 1.43739e-05 -4.70417e-06
1.43739e-05 -0.000316282 1.03982e-05
-4.70417e-06 1.03982e-05 -0.000393085
0.000550353 -1.50486e-05 -4.30891e-07
-1.50486e-05 7.68901e-05 -6.94373e-08
-4.30891e-07 -6.94373e-08 -4.23216e-05
0.000506744 6.22023e-05 1.29406e-07
6.22023e-05 4.2263e-05 -6.56855e-07
1.29406e-07 -6.56855e-07 -9.30503e-05
0.000950299 8.81413e-05 2.46849e-06
8.81413e-05 0.00028651 4.12494e-06
2.46849e-06 4.12494e-06 0.000228403
0.000583501 5.69933e-05 1.4917e-06
5.69933e-05 0.000100938 7.97964e-07
1.4917e-06 7.97964e-07 -3.82654e-05
0.000664233 3.82283e-05 -1.65203e-06
3.82283e-05 0.000127584 -1.90784e-06
-1.65203e-06 -1.90784e-06 3.21961e-05
0.00163105 0.000114954 -9.19752e-07
0.000114954 0.000720044 -9.44954e-06
-9.19752e-07 -9.44954e-06 0.000666848
0.000883748 0.00011806 -2.16917e-06
0.00011806 0.000258314 -2.08952e-06
-2.16917e-06 -2.08952e-06 0.000114783
0.000937312 0.0001204 1.23994e-06
0.0001204 0.000309999 1.36136e-06
1.23994e-06 1.36136e-06 0.000164429
0.000842097 7.9283e-05 3.98977e-07
7.9283e-05 0.000269231 1.8029e-06
3.98977e-07 1.8029e-06 0.000105752
0.000324054 -2.39615e-05 7.90761e-08
-2.39615e-05 -8.06389e-05 3.24387e-06
7.90761e-08 3.24387e-06 -0.000197837
0.00098402 -4.98996e-05 -2.15449e-07
-4.98996e-05 0.000389142 -1.10026e-06
-2.15449e-07 -1.10026e-06 0.000218421
0.00024652 -3.65443e-05 -1.91467e-06
-3.65443e-05 -0.000125017 2.98172e-06
-1.91467e-06 2.98172e-06 -0.00024671
0.000477615 3.47997e-06 -2.04122e-06
3.47997e-06 8.58102e-06 3.21051e-06
-2.04122e-06 3.21051e-06 -7.03893e-05
0.000496099 3.52662e-05 2.36199e-06
3.52662e-05 1.74323e-05 -1.47899e-07
2.36199e-06 -1.47899e-07 -5.8869e-05
0.000405785 2.15696e-05 5.86927e-07
2.15696e-05 -6.5171e-05 4.31656e-06
5.86927e-07 4.31656e-06 -8.70782e-05
0.000466655 6.97932e-06 -2.99457e-06
6.97932e-06 -2.02181e-06 -3.40013e-06
-2.99457e-06 -3.40013e-06 -7.39468e-05
0.000890941 1.59297e-05 -3.15641e-06
1.59297e-05 0.000229781 -1.58406e-06
-3.15641e-06 -1.58406e-06 0.000210973
0.00256926 -7.7478e-06 1.572e-05
-7.7478e-06 0.00126228 5.40784e-06
1.572e-05 5.40784e-06 0.00127561
0.00137992 1.30791e-05 -7.77511e-06
1.30791e-05 0.000526149 -6.30646e-06
-7.77511e-06 -6.30646e-06 0.000510721
0.000771611 -1.26067e-05 5.17253e-06
-1.26067e-05 0.000141366 3.34685e-06
5.17253e-06 3.34685e-06 0.000147444
0.000781286 -2.24795e-05 4.79137e-07
-2.24795e-05 0.000141559 -2.55144e-06
4.79137e-07 -2.55144e-06 0.000146911
0.000516054 1.52008e-05 -1.71667e-06
1.52008e-05 5.93442e-06 -2.13276e-06
-1.71667e-06 -2.13276e-06 -3.94351e-05
0.000563325 -1.75032e-05 9.12208e-07
-1.75032e-05 3.05396e-05 -3.11753e-07
9.12208e-07 -3.11753e-07 -1.52454e-05
0.000519973 2.28843e-05 3.31712e-07
2.28843e-05 -1.68778e-05 -3.47427e-06
3.31712e-07 -3.47427e-06 -2.87287e-05
0.000803364 3.71886e-05 -1.64134e-07
3.71886e-05 0.000165069 9.44213e-08
-1.64134e-07 9.44213e-08 0.000152037
0.00212098 6.65533e-05 1.11937e-05
6.65533e-05 0.000994949 -4.29323e-06
1.11937e-05 -4.29323e-06 0.00100608
0.000501154 5.18131e-05 3.69098e-06
5.18131e-05 -7.7614e-06 4.73848e-06
3.69098e-06 4.73848e-06 -3.17042e-05
0.00230296 9.00314e-05 -2.93061e-06
9.00314e-05 0.00111766 -2.57272e-07
-2.93061e-06 -2.57272e-07 0.0011233
0.00267637 0.000121606 -5.22879e-06
0.000121606 0.00136097 5.70188e-06
-5.22879e-06 5.70188e-06 0.00135827
0.00214656 0.000301769 -2.32653e-06
0.000301769 -2.51078e-05 -1.04762e-06
-2.32653e-06 -1.04762e-06 -2.30919e-05
0.00207523 9.54896e-05 9.37616e-07
9.54896e-05 -3.54169e-05 3.37734e-07
9.37616e-07 3.37734e-07 -1.99342e-06
0.00196646 -4.94953e-06 -1.9188e-06
-4.94953e-06 -6.41101e-06 -1.72743e-07
-1.9188e-06 -1.72743e-07 -1.50832e-06
0.00206648 -7.34108e-06 1.40344e-07
-7.34108e-06 -4.97941e-05 -1.82299e-07
1.40344e-07 -1.82299e-07 -4.38721e-06
0.00225857 0.000158268 -2.84531e-07
0.000158268 -3.18752e-05 3.36737e-07
-2.84531e-07 3.36737e-07 1.36678e-05
0.00214259 8.24496e-05 7.75667e-06
8.24496e-05 -5.85885e-05 -4.69724e-06
7.75667e-06 -4.69724e-06 6.51315e-06
0.00227663 -5.98832e-06 1.7272e-06
-5.98832e-06 -7.66974e-05 -7.59824e-07
1.7272e-06 -7.59824e-07 3.163e-06
0.0042633 0.000666714 4.47799e-05
0.000666714 -0.000347431 7.11692e-06
4.47799e-05 7.11692e-06 0.000190469
0.00249564 6.14192e-05 -2.73127e-05
6.14192e-05 0.000322323 2.99225e-05
-2.73127e-05 2.99225e-05 0.000495796
0.000494483 0.000102571 -1.80752e-06
0.000102571 3.37238e-05 -7.22403e-07
-1.80752e-06 -7.22403e-07 -5.42448e-05
0.00208428 -0.000121731 1.50745e-07
-0.000121731 -3.71111e-05 -2.816e-07
1.50745e-07 -2.816e-07 2.3123e-06
0.00215428 -0.000302942 1.76455e-06
-0.000302942 -2.94689e-05 -6.45508e-07
1.76455e-06 -6.45508e-07 7.10264e-06
0.00206309 -0.000427592 -3.4775e-07
-0.000427592 -1.30557e-05 -8.63024e-08
-3.4775e-07 -8.63024e-08 -1.63193e-05
0.0010376 -0.000518935 -9.0172e-06
-0.000518935 0.000108232 7.43354e-06
-9.0172e-06 7.43354e-06 -0.000276194
0.00219551 -0.000781302 9.52552e-06
-0.000781302 0.00064588 7.4735e-06
9.52552e-06 7.4735e-06 0.000171395
0.00169948 -0.000714182 -7.4075e-06
-0.000714182 0.000128945 -8.52879e-06
-7.4075e-06 -8.52879e-06 -0.000212189
0.00212774 -0.000617542 -6.25868e-06
-0.000617542 0.000110172 -8.59711e-07
-6.25868e-06 -8.59711e-07 -3.11317e-05
0.00165504 -0.000477661 2.36775e-05
-0.000477661 0.000481443 -2.00283e-05
2.36775e-05 -2.00283e-05 0.000138781
0.000805709 -0.00029271 2.25671e-05
-0.00029271 0.000247338 -1.85095e-05
2.25671e-05 -1.85095e-05 -0.000182372
0.00127859 -8.39148e-05 1.75319e-06
-8.39148e-05 0.000457157 1.19186e-06
1.75319e-06 1.19186e-06 0.000182963
0.000515428 8.92069e-06 8.51558e-07
8.92069e-06 4.07342e-06 1.10898e-06
8.51558e-07 1.10898e-06 -4.26849e-05
0.00107333 -5.04666e-05 1.55159e-06
-5.04666e-05 0.000416857 4.40078e-06
1.55159e-06 4.40078e-06 0.000169145
0.000869359 -2.26134e-05 5.68636e-06
-2.26134e-05 0.000295827 -1.98323e-06
5.68636e-06 -1.98323e-06 0.000186953
0.000730449 -3.85415e-05 2.96602e-06
-3.85415e-05 0.000218281 -2.83146e-06
2.96602e-06 -2.83146e-06 3.38093e-05
0.00020801 -4.17574e-05 -4.06785e-06
-4.17574e-05 -0.00017318 6.80957e-07
-4.06785e-06 6.80957e-07 -0.000250336
0.00216317 -0.000156701 -5.30803e-07
-0.000156701 -0.000128694 -9.08726e-08
-5.30803e-07 -9.08726e-08 -5.45116e-05
0.000374184 2.78028e-05 1.0363e-07
2.78028e-05 -3.96892e-05 -2.02961e-06
1.0363e-07 -2.02961e-06 -0.000134386
0.000586652 -5.57806e-05 2.2099e-06
-5.57806e-05 8.73527e-05 9.11778e-07
2.2099e-06 9.11778e-07 1.34366e-06
0.000847642 -0.000113215 2.31075e-06
-0.000113215 0.000218582 2.95893e-07
2.31075e-06 2.95893e-07 0.000121014
0.0021832 -0.000410081 1.81372e-06
-0.000410081 -0.000147251 -5.91218e-07
1.81372e-06 -5.91218e-07 -1.15472e-05
0.00222772 -0.00058947 6.90639e-07
-0.00058947 2.49398e-05 -1.1326e-06
6.90639e-07 -1.1326e-06 -1.72265e-05
0.000487112 -0.000427264 7.12536e-06
-0.000427264 -0.00016155 -2.84092e-08
7.12536e-06 -2.84092e-08 -0.000525559
0.00249959 -0.000903164 1.29828e-05
-0.000903164 0.000731867 -1.12514e-07
1.29828e-05 -1.12514e-07 0.000240159
0.00231458 -0.00080511 -1.71596e-06
-0.00080511 0.000314056 2.21692e-06
-1.71596e-06 2.21692e-06 8.65643e-05
0.000215834 -3.32573e-05 -9.58807e-07
-3.32573e-05 -0.000114472 -6.18092e-07
-9.58807e-07 -6.18092e-07 -0.000252382
0.000907882 -9.99692e-05 -1.09918e-06
-9.99692e-05 0.000325266 1.82271e-06
-1.09918e-06 1.82271e-06 0.000115109
0.00150988 -0.000638494 -4.88764e-06
-0.000638494 0.000371138 1.8951e-06
-4.88764e-06 1.8951e-06 -3.18287e-05
0.000319983 -0.000171042 1.45658e-07
-0.000171042 6.99267e-05 -1.56983e-06
1.45658e-07 -1.56983e-06 -0.000473791
0.000979395 -8.31082e-05 9.95287e-07
-8.31082e-05 0.000270023 3.21179e-06
9.95287e-07 3.21179e-06 4.77663e-05
0.00258381 -0.000295213 -4.17317e-06
-0.000295213 0.000116206 -5.14343e-07
-4.17317e-06 -5.14343e-07 0.000198353
0.00197298 -0.000448114 -1.81322e-05
-0.000448114 -0.000256007 6.01734e-06
-1.81322e-05 6.01734e-06 -6.01288e-05
0.00213765 -0.000730165 -8.82942e-06
-0.000730165 7.2609e-05 1.03304e-06
-8.82942e-06 1.03304e-06 -9.23913e-05
0.00388337 -0.00102371 -1.72713e-05
-0.00102371 0.001313 -2.23457e-06
-1.72713e-05 -2.23457e-06 0.00100059
0.000585752 -0.000562596 -2.36528e-05
-0.000562596 -0.000129101 -4.77248e-06
-2.36528e-05 -4.77248e-06 -0.000533884
0.000162804 -2.46035e-05 1.12299e-06
-2.46035e-05 -0.000166504 7.4567e-08
1.12299e-06 7.4567e-08 -0.000271137
0.000559249 9.71252e-06 -6.15683e-07
9.71252e-06 2.50829e-05 6.1646e-06
-6.15683e-07 6.1646e-06 -7.10025e-05
-0.00081806 -7.14775e-05 -2.96905e-06
-7.14775e-05 -0.000803105 -2.58829e-06
-2.96905e-06 -2.58829e-06 -0.000886607
0.00196913 -0.000256349 -1.46128e-05
-0.000256349 0.000993126 1.76562e-05
-1.46128e-05 1.76562e-05 0.000806501
0.000903877 -9.2759e-05 -5.65718e-06
-9.2759e-05 0.000291047 1.83712e-05
-5.65718e-06 1.83712e-05 0.000102867
-0.00130384 -0.000105932 2.57821e-06
-0.000105932 -0.000551561 3.19827e-06
2.57821e-06 3.19827e-06 -0.00121738
1.27076e-05 -0.000765372 -1.25214e-05
-0.000765372 -0.000127641 -2.7324e-07
-1.25214e-05 -2.7324e-07 -0.000788636
0.00136024 0.000166106 -1.83955e-06
0.000166106 0.000590973 -6.72573e-06
-1.83955e-06 -6.72573e-06 0.000401968
5.13165e-05 0.000106065 -4.5733e-06
0.000106065 -0.00024958 -2.96586e-06
-4.5733e-06 -2.96586e-06 -0.000466789
0.00244225 0.000306373 5.38615e-06
0.000306373 1.18515e-05 5.33459e-07
5.38615e-06 5.33459e-07 8.88929e-05
0.00243551 0.00054262 1.53344e-05
0.00054262 0.000223918 5.50007e-06
1.53344e-05 5.50007e-06 0.00013311
0.00213683 0.000682169 1.58168e-05
0.000682169 0.000283411 3.88051e-06
1.58168e-05 3.88051e-06 -2.16005e-05
0.00144701 0.000441477 -1.12804e-06
0.000441477 0.000381118 1.02716e-06
-1.12804e-06 1.02716e-06 7.32422e-05
0.00165109 0.000631453 2.19229e-06
0.000631453 0.000320671 2.95578e-06
2.19229e-06 2.95578e-06 -7.42003e-05
0.00181868 0.000239663 1.33509e-07
0.000239663 0.000863835 -1.44127e-07
1.33509e-07 -1.44127e-07 0.000659389
0.00262313 0.000370087 2.66934e-06
0.000370087 0.000200747 2.26164e-06
2.66934e-06 2.26164e-06 0.000318326
0.00122069 0.000361931 -2.57234e-06
0.000361931 0.000378792 2.00286e-06
-2.57234e-06 2.00286e-06 0.000110285
0.0017207 0.000557225 2.96904e-06
0.000557225 0.000481494 -3.93216e-07
2.96904e-06 -3.93216e-07 0.000100049
0.00215594 0.000692956 -3.89214e-06
0.000692956 0.000154463 -3.33667e-06
-3.89214e-06 -3.33667e-06 -3.58774e-05
0.00173306 0.000677331 -4.54464e-06
0.000677331 0.000308236 4.86561e-06
-4.54464e-06 4.86561e-06 -8.55581e-05
0.00310382 0.000933216 4.82195e-05
0.000933216 -0.000303638 5.18339e-06
4.82195e-05 5.18339e-06 -0.000314181
0.000885407 0.000267703 -4.02105e-06
0.000267703 0.00033801 2.6281e-06
-4.02105e-06 2.6281e-06 0.00011
0.00284255 0.000669149 -8.25657e-05
0.000669149 0.000428211 -3.61313e-05
-8.25657e-05 -3.61313e-05 0.000384683
0.000854334 0.000381065 -4.32645e-06
0.000381065 9.69442e-06 1.22288e-06
-4.32645e-06 1.22288e-06 -0.000282469
7.52601e-05 0.000413303 -5.94692e-07
0.000413303 -0.000488387 -1.48081e-05
-5.94692e-07 -1.48081e-05 -0.000847464
0.000840203 0.000687744 -3.4987e-05
0.000687744 -0.000359242 -1.27644e-05
-3.4987e-05 -1.27644e-05 -0.000588792
0.0138741 0.000347838 -0.000414914
0.000347838 0.00239181 -4.3348e-05
-0.000414914 -4.3348e-05 0.00169061
0.00453451 0.00146539 -1.0154e-05
0.00146539 -0.001066 -8.4114e-05
-1.0154e-05 -8.4114e-05 -0.000280415
-0.000373978 0.000994035 3.28966e-07
0.000994035 -0.00114677 6.30965e-09
3.28966e-07 6.30965e-09 -0.00141267
-0.000372097 -0.00175869 0.00119215
-0.00175869 0.0010598 0.000263124
0.00119215 0.000263124 -0.00175255
0.018355 -0.00686703 -1.01013e-05
-0.00686703 0.00634816 7.31004e-05
-1.01013e-05 7.31004e-05 0.0052555
-0.000152217 9.74178e-05 6.77828e-06
9.74178e-05 -0.000282099 1.97662e-06
6.77828e-06 1.97662e-06 -0.000381805
0.00110022 0.000108496 -1.34526e-07
0.000108496 0.000450631 -2.55362e-06
-1.34526e-07 -2.55362e-06 0.000368517
0.00205268 0.000236408 7.18523e-07
0.000236408 0.00104884 -2.86772e-07
7.18523e-07 -2.86772e-07 0.000939603
0.000514795 -5.63823e-05 -9.27785e-07
-5.63823e-05 6.41423e-05 -2.86576e-06
-9.27785e-07 -2.86576e-06 -6.00764e-05
0.000390375 6.11149e-05 -1.15475e-06
6.11149e-05 -2.94653e-05 -2.73622e-06
-1.15475e-06 -2.73622e-06 -0.000165856
0.000764665 -1.70188e-05 4.39452e-08
-1.70188e-05 0.000212686 -8.21224e-07
4.39452e-08 -8.21224e-07 7.03526e-05
0.000660781 6.24648e-05 -4.49785e-06
6.24648e-05 0.000119141 7.95951e-06
-4.49785e-06 7.95951e-06 1.88785e-05
0.000405075 6.60101e-05 2.95441e-06
6.60101e-05 -4.84811e-05 7.90323e-06
2.95441e-06 7.90323e-06 -0.000110902
0.000692104 0.000125214 -1.73088e-06
0.000125214 0.000182336 -4.45225e-07
-1.73088e-06 -4.45225e-07 1.92872e-05
0.000427555 -6.67343e-06 4.34205e-07
-6.67343e-06 -7.82674e-06 9.46605e-07
4.34205e-07 9.46605e-07 -0.000129283
0.000689065 4.17648e-05 -5.32297e-07
4.17648e-05 0.000167927 -4.12931e-08
-5.32297e-07 -4.12931e-08 1.17498e-05
0.0004732 7.8258e-05 -1.06017e-06
7.8258e-05 6.92548e-06 -1.94389e-07
-1.06017e-06 -1.94389e-07 -4.62428e-05
0.000681819 0.000104786 -1.32783e-06
0.000104786 0.000145159 -2.56441e-07
-1.32783e-06 -2.56441e-07 4.40594e-06
0.00151616 0.000180844 -1.66881e-06
0.000180844 0.000683107 -5.09969e-07
-1.66881e-06 -5.09969e-07 0.000508871
0.000372344 9.88344e-05 1.2125e-06
9.88344e-05 1.18126e-05 -2.01519e-06
1.2125e-06 -2.01519e-06 -0.00014195
0.000861476 0.000102735 2.67199e-06
0.000102735 0.000274216 6.95347e-07
2.67199e-06 6.95347e-07 0.000118129
0.000498247 -2.69246e-05 1.58455e-06
-2.69246e-05 3.40659e-05 7.64743e-07
1.58455e-06 7.64743e-07 -0.000118782
0.000355976 -6.85546e-05 -1.35206e-06
-6.85546e-05 -5.46928e-05 2.89269e-06
-1.35206e-06 2.89269e-06 -0.000180841
0.000739883 -2.76387e-05 -8.28774e-07
-2.76387e-05 0.000198634 -1.12562e-08
-8.28774e-07 -1.12562e-08 4.13511e-05
0.0011198 1.32697e-05 7.37862e-08
1.32697e-05 0.000424768 -8.06221e-06
7.37862e-08 -8.06221e-06 0.000272553
0.000589918 -3.57998e-05 -1.51553e-06
-3.57998e-05 0.00013661 -4.65447e-08
-1.51553e-06 -4.65447e-08 -1.08251e-05
0.000773273 -4.92038e-05 1.90158e-06
-4.92038e-05 0.000232859 -5.94506e-07
1.90158e-06 -5.94506e-07 7.97424e-05
0.000660118 -0.000116142 -2.60095e-06
-0.000116142 0.000140288 2.17184e-06
-2.60095e-06 2.17184e-06 1.53909e-05
0.000327411 -2.34634e-05 1.07163e-07
-2.34634e-05 -7.09148e-05 1.14638e-06
1.07163e-07 1.14638e-06 -0.000196341
0.000512451 -4.88141e-05 -2.33354e-06
-4.88141e-05 2.10331e-05 3.4622e-06
-2.33354e-06 3.4622e-06 -5.31116e-05
0.000514187 -3.42306e-05 1.82023e-06
-3.42306e-05 2.86305e-05 7.30212e-08
1.82023e-06 7.30212e-08 -4.91184e-05
0.000471066 3.82481e-06 2.03928e-06
3.82481e-06 -2.21757e-05 6.25421e-06
2.03928e-06 6.25421e-06 -4.52714e-05
0.000532237 4.51122e-05 -1.68769e-06
4.51122e-05 3.43633e-05 -3.40005e-06
-1.68769e-06 -3.40005e-06 -3.84747e-05
0.000431497 2.76057e-05 4.26125e-07
2.76057e-05 -4.79869e-05 6.77063e-08
4.26125e-07 6.77063e-08 -7.06441e-05
0.00250512 2.49703e-06 2.63989e-06
2.49703e-06 0.00122454 5.34835e-06
2.63989e-06 5.34835e-06 0.00123756
0.000497917 3.10467e-05 -2.88171e-06
3.10467e-05 -1.20485e-05 -6.8459e-06
-2.88171e-06 -6.8459e-06 -3.47242e-05
0.00169483 -6.87542e-06 -1.97209e-06
-6.87542e-06 0.000718468 1.46083e-07
-1.97209e-06 1.46083e-07 0.000727257
0.000799217 -1.25207e-05 5.93813e-07
-1.25207e-05 0.000154612 -2.3057e-06
5.93813e-07 -2.3057e-06 0.000160827
0.000482981 -1.83889e-06 1.5667e-07
-1.83889e-06 -1.57892e-05 -1.54927e-06
1.5667e-07 -1.54927e-06 -5.55493e-05
0.000556621 -3.48939e-05 1.55386e-07
-3.48939e-05 3.3547e-05 -2.59495e-08
1.55386e-07 -2.59495e-08 -1.36856e-05
0.000536616 1.30297e-05 9.15846e-07
1.30297e-05 -8.55024e-06 -3.19778e-06
9.15846e-07 -3.19778e-06 -1.80292e-05
0.000500593 -3.1413e-05 -1.82381e-06
-3.1413e-05 -8.34263e-06 9.04245e-07
-1.82381e-06 9.04245e-07 -5.41315e-05
0.000797776 2.71705e-05 -1.11608e-07
2.71705e-05 0.000156437 -7.28994e-07
-1.11608e-07 -7.28994e-07 0.000146694
0.00198878 4.94033e-05 7.59224e-06
4.94033e-05 0.000906832 -4.40807e-06
7.59224e-06 -4.40807e-06 0.000921361
0.000487269 3.2952e-05 1.52654e-07
3.2952e-05 -3.12321e-05 3.46248e-06
1.52654e-07 3.46248e-06 -4.64883e-05
0.00219384 7.05427e-05 -6.1499e-06
7.05427e-05 0.00104302 1.12197e-06
-6.1499e-06 1.12197e-06 0.00105315
0.00239732 9.61103e-05 -6.6374e-06
9.61103e-05 0.001178 4.89899e-06
-6.6374e-06 4.89899e-06 0.00118218
0.00223093 0.000163842 -2.88414e-06
0.000163842 -3.11816e-05 -1.12327e-06
-2.88414e-06 -1.12327e-06 1.35066e-05
0.00205809 -6.61041e-06 1.00684e-06
-6.61041e-06 -5.33166e-05 -6.63692e-08
1.00684e-06 -6.63692e-08 -8.45522e-06
0.00192592 5.97155e-05 -1.01346e-06
5.97155e-05 -0.000216412 1.03315e-06
-1.01346e-06 1.03315e-06 -0.00015416
0.00246109 0.000489074 7.78887e-05
0.000489074 -0.00117849 1.7487e-05
7.78887e-05 1.7487e-05 -0.000660747
0.00225663 -2.99177e-05 -1.11631e-06
-2.99177e-05 -6.89315e-05 -2.37831e-06
-1.11631e-06 -2.37831e-06 1.13326e-05
0.00215059 6.2113e-05 9.99655e-07
6.2113e-05 0.000127918 -8.67031e-06
9.99655e-07 -8.67031e-06 0.000248489
0.00330592 -3.51385e-05 -2.53506e-05
-3.51385e-05 0.000922507 3.15574e-06
-2.53506e-05 3.15574e-06 0.000930038
0.00298494 7.75188e-06 -8.97719e-06
7.75188e-06 -0.0017216 -2.70973e-05
-8.97719e-06 -2.70973e-05 -0.000875979
0.00269017 0.000176457 0.000103474
0.000176457 -0.000590624 5.55163e-05
0.000103474 5.55163e-05 -0.00013345
0.000584246 8.34322e-05 5.82474e-08
8.34322e-05 9.12496e-05 -3.71514e-07
5.82474e-08 -3.71514e-07 2.73863e-06
0.000581912 -4.71728e-06 4.79932e-07
-4.71728e-06 9.73973e-05 -1.12076e-07
4.79932e-07 -1.12076e-07 2.36327e-06
0.000449566 -9.90449e-05 -4.23253e-06
-9.90449e-05 2.22331e-05 7.11126e-07
-4.23253e-06 7.11126e-07 -8.75834e-05
0.000465421 -5.36525e-05 -2.59131e-06
-5.36525e-05 4.59759e-05 1.84871e-06
-2.59131e-06 1.84871e-06 -6.75774e-05
0.00223789 -0.000174851 -3.83545e-06
-0.000174851 -0.000107388 6.09938e-07
-3.83545e-06 6.09938e-07 -1.60524e-05
0.00219608 -0.000414784 2.05424e-06
-0.000414784 -0.000113144 -1.77418e-06
2.05424e-06 -1.77418e-06 -9.55916e-06
0.00215741 -0.000583448 -3.11369e-06
-0.000583448 -1.22182e-05 -4.34594e-07
-3.11369e-06 -4.34594e-07 -5.39424e-05
0.00336039 -0.000746214 1.09677e-05
-0.000746214 0.00148092 8.03772e-06
1.09677e-05 8.03772e-06 0.00106539
0.00046453 -0.000687627 4.38618e-06
-0.000687627 -0.000394537 -3.05161e-06
4.38618e-06 -3.05161e-06 -0.000844553
0.00210677 -0.000780429 2.72296e-06
-0.000780429 0.000222311 -3.58179e-06
2.72296e-06 -3.58179e-06 -9.89748e-06
0.00159553 -0.000677791 8.15619e-06
-0.000677791 0.00040198 -1.03883e-05
8.15619e-06 -1.03883e-05 -3.54104e-05
0.00331416 -0.000248054 6.92137e-06
-0.000248054 0.00162522 -3.65363e-06
6.92137e-06 -3.65363e-06 0.00125335
-0.000118502 -2.29311e-05 -3.03245e-06
-2.29311e-05 -0.00043598 3.00214e-06
-3.03245e-06 3.00214e-06 -0.000625516
0.000665128 -5.56666e-05 1.68025e-06
-5.56666e-05 0.000138867 9.04682e-08
1.68025e-06 9.04682e-08 5.25306e-05
0.000580629 -0.000113421 -6.06225e-07
-0.000113421 0.000139012 -8.13711e-06
-6.06225e-07 -8.13711e-06 -8.05842e-05
0.000635103 -1.43029e-05 4.10082e-06
-1.43029e-05 0.000151157 -2.71078e-06
4.10082e-06 -2.71078e-06 9.18239e-06
0.000620899 7.55323e-07 1.46258e-07
7.55323e-07 0.000132353 1.15927e-06
1.46258e-07 1.15927e-06 2.78589e-05
0.000545459 -5.21736e-05 -7.88474e-06
-5.21736e-05 2.65219e-05 1.91638e-06
-7.88474e-06 1.91638e-06 -5.89708e-05
0.00254774 -0.000278521 1.70421e-06
-0.000278521 0.000103849 1.1893e-06
1.70421e-06 1.1893e-06 0.000202615
0.000555845 -2.75625e-05 -5.28305e-08
-2.75625e-05 9.26328e-05 1.06568e-06
-5.28305e-08 1.06568e-06 -2.92416e-05
0.000831207 -2.70542e-05 5.65704e-06
-2.70542e-05 0.000210583 -3.97411e-07
5.65704e-06 -3.97411e-07 0.000102465
-0.000182826 -1.8202e-05 2.14652e-06
-1.8202e-05 -0.000383292 6.79671e-07
2.14652e-06 6.79671e-07 -0.000449653
0.0019341 -0.000455914 3.77839e-07
-0.000455914 -0.000306638 -1.20729e-06
3.77839e-07 -1.20729e-06 -0.000117859
0.00218252 -0.000730891 2.09625e-06
-0.000730891 9.38528e-05 -1.3195e-06
2.09625e-06 -1.3195e-06 -6.3001e-05
0.0018166 -0.00074131 -2.18399e-06
-0.00074131 0.000548742 -3.24424e-07
-2.18399e-06 -3.24424e-07 0.000118012
0.00245444 -0.00089527 -6.16311e-06
-0.00089527 0.000534688 1.30252e-06
-6.16311e-06 1.30252e-06 0.00023502
0.00138907 -0.000127466 3.45719e-07
-0.000127466 0.000606481 -1.17455e-07
3.45719e-07 -1.17455e-07 0.000434707
0.000249298 -3.91146e-05 5.32268e-06
-3.91146e-05 -0.000126924 2.71921e-06
5.32268e-06 2.71921e-06 -0.000311592
0.00144235 -0.000883564 4.12459e-06
-0.000883564 0.000706982 -2.0055e-06
4.12459e-06 -2.0055e-06 1.9394e-05
0.00114386 -0.000333104 -4.57545e-06
-0.000333104 0.000508483 -2.9181e-07
-4.57545e-06 -2.9181e-07 4.05576e-05
0.00315157 -0.000397441 -3.55835e-05
-0.000397441 0.000345441 -9.89902e-08
-3.55835e-05 -9.89902e-08 0.000583367
0.00231842 -0.000584283 -4.37454e-05
-0.000584283 9.02745e-05 1.12271e-05
-4.37454e-05 1.12271e-05 0.00015458
0.00236056 -0.000848388 -3.61937e-06
-0.000848388 0.000361037 -5.74712e-06
-3.61937e-06 -5.74712e-06 7.34089e-05
0.0027675 -0.000865349 -9.46431e-06
-0.000865349 0.000908204 7.27515e-07
-9.46431e-06 7.27515e-07 0.000602259
0.000265481 -4.30786e-05 -1.54299e-06
-4.30786e-05 -4.84042e-05 -5.20226e-06
-1.54299e-06 -5.20226e-06 -0.000169455
0.000353922 -0.000103882 -7.49658e-06
-0.000103882 -3.75669e-05 -9.12122e-06
-7.49658e-06 -9.12122e-06 -0.000194772
4.1949e-05 -0.00016282 -5.13239e-06
-0.00016282 2.57859e-05 3.41173e-05
-5.13239e-06 3.41173e-05 -0.0002722
-0.00114096 -0.000605112 -7.71153e-06
-0.000605112 -0.000195187 -2.54641e-05
-7.71153e-06 -2.54641e-05 -0.0011391
0.00202315 -0.000483047 4.33638e-05
-0.000483047 -0.00478733 -3.16279e-06
4.33638e-05 -3.16279e-06 -0.00482748
0.0020271 0.000228964 -1.58189e-06
0.000228964 0.000973147 -4.63617e-06
-1.58189e-06 -4.63617e-06 0.000774317
0.00108495 0.000315004 -1.24415e-06
0.000315004 0.000291477 -4.60907e-07
-1.24415e-06 -4.60907e-07 3.81547e-05
0.00193439 0.000309696 6.45056e-05
0.000309696 -0.000179029 1.74769e-05
6.45056e-05 1.74769e-05 -4.2824e-05
0.0024896 0.000705752 2.81923e-05
0.000705752 0.000344808 1.08808e-05
2.81923e-05 1.08808e-05 0.000163392
0.0021299 0.000725275 1.25369e-05
0.000725275 0.000544372 1.13659e-05
1.25369e-05 1.13659e-05 0.000136421
0.00130531 0.000514539 6.26324e-06
0.000514539 0.000262077 7.59123e-06
6.26324e-06 7.59123e-06 -0.000121554
0.00505893 0.00116802 0.000119858
0.00116802 0.00043883 4.38076e-05
0.000119858 4.38076e-05 0.000236836
0.00152918 0.000283222 4.7218e-06
0.000283222 0.000712822 -2.42991e-08
4.7218e-06 -2.42991e-08 0.000495829
0.00253119 0.00062692 -2.09648e-05
0.00062692 0.000257291 4.06434e-07
-2.09648e-05 4.06434e-07 0.000236224
0.000894866 0.000386988 -3.56465e-06
0.000386988 7.02612e-05 2.71087e-06
-3.56465e-06 2.71087e-06 -0.000227639
0.00144993 0.000588599 1.80722e-06
0.000588599 0.000301782 -5.39701e-06
1.80722e-06 -5.39701e-06 -9.12959e-05
0.00186701 0.000776938 -1.08631e-05
0.000776938 0.000183151 -1.69973e-07
-1.08631e-05 -1.69973e-07 -7.28781e-05
0.00427559 -0.000621967 -0.000159928
-0.000621967 -0.00413997 -6.76513e-05
-0.000159928 -6.76513e-05 -0.00512918
0.00715325 0.00143462 -0.000106533
0.00143462 0.000167024 -6.3621e-05
-0.000106533 -6.3621e-05 0.000678824
0.000968521 0.00101732 -7.02918e-06
0.00101732 -0.000395305 8.10835e-06
-7.02918e-06 8.10835e-06 -0.000742224
-0.000425052 -0.00153355 0.00043316
-0.00153355 0.00240646 0.000181911
0.00043316 0.000181911 -0.000238568
0.00992027 -0.00685581 -0.000401482
-0.00685581 0.00424812 -0.000375749
-0.000401482 -0.000375749 0.00306943
0.00124111 0.000269779 -1.29824e-05
0.000269779 0.000471029 1.13282e-06
-1.29824e-05 1.13282e-06 0.000271293
0.000724369 0.000530695 0.0006072
0.000530695 0.00359248 7.07984e-05
0.0006072 7.07984e-05 0.0017487
0.00247917 -0.00228727 -0.000166288
-0.00228727 0.00475246 -0.000221997
-0.000166288 -0.000221997 0.00050144
0.00253012 0.000952445 -4.68138e-05
0.000952445 0.000367494 -1.46242e-05
-4.68138e-05 -1.46242e-05 0.000236314
0.000892065 0.000308387 -2.3173e-05
0.000308387 7.87143e-05 -6.2956e-06
-2.3173e-05 -6.2956e-06 -0.000184521
0.00059735 0.000600204 -2.76242e-05
0.000600204 -0.000103459 -2.95855e-05
-2.76242e-05 -2.95855e-05 -0.000436695
0.00012973 0.000987504 4.27309e-05
0.000987504 -0.000671064 9.20734e-05
4.27309e-05 9.20734e-05 -0.00102597
0.0121688 0.00201928 4.36804e-05
0.00201928 0.00167449 -4.09921e-05
4.36804e-05 -4.09921e-05 0.000373871
0.00376418 0.00207721 -1.89501e-05
0.00207721 7.98334e-06 -4.61015e-05
-1.89501e-05 -4.61015e-05 -2.09741e-05
0.0115381 -0.00566336 0.000893095
-0.00566336 0.00324959 0.000490493
0.000893095 0.000490493 0.000824148
0.0113207 -0.00264163 -5.51998e-05
-0.00264163 0.00240647 0.000534129
-5.51998e-05 0.000534129 0.00146205
0.000465857 9.97777e-05 6.26309e-06
9.97777e-05 9.70506e-05 -1.47619e-06
6.26309e-06 -1.47619e-06 1.40955e-05
0.000344521 0.000126002 8.14714e-06
0.000126002 2.24654e-05 3.78242e-07
8.14714e-06 3.78242e-07 -7.74923e-05
0.00190634 0.000277683 3.71423e-06
0.000277683 0.000979388 -1.95218e-06
3.71423e-06 -1.95218e-06 0.000815321
0.000582664 1.07304e-05 8.06331e-07
1.07304e-05 0.000111416 -8.94123e-07
8.06331e-07 -8.94123e-07 -2.46795e-05
0.000637869 6.30415e-05 -1.17725e-06
6.30415e-05 0.000131286 -2.08206e-06
-1.17725e-06 -2.08206e-06 -1.91909e-05
0.000167648 2.59927e-05 -1.50775e-06
2.59927e-05 -0.000155987 5.16842e-07
-1.50775e-06 5.16842e-07 -0.00029948
0.000623166 9.84123e-05 -7.41383e-06
9.84123e-05 0.000124078 1.24086e-06
-7.41383e-06 1.24086e-06 -1.86162e-05
-0.000690968 4.29766e-05 -4.26701e-06
4.29766e-05 -0.000715626 -1.17759e-07
-4.26701e-06 -1.17759e-07 -0.000767675
0.000369901 -1.29323e-05 2.34609e-07
-1.29323e-05 -3.93746e-05 9.86894e-07
2.34609e-07 9.86894e-07 -0.00016935
0.00119441 0.000117371 1.40955e-06
0.000117371 0.000475622 -2.93141e-07
1.40955e-06 -2.93141e-07 0.000313588
0.000637067 5.05218e-05 4.56786e-07
5.05218e-05 0.000143967 1.93517e-07
4.56786e-07 1.93517e-07 -1.66566e-05
0.000734738 3.10482e-05 1.26334e-06
3.10482e-05 0.000201738 -4.75999e-07
1.26334e-06 -4.75999e-07 3.39877e-05
0.000465273 0.000103024 -3.53498e-07
0.000103024 6.85515e-05 -1.96367e-06
-3.53498e-07 -1.96367e-06 -8.19709e-05
0.00133652 0.000117711 -1.85002e-06
0.000117711 0.00058643 -1.22661e-06
-1.85002e-06 -1.22661e-06 0.000423035
-0.000256965 4.55228e-05 -5.65379e-06
4.55228e-05 -0.000286238 -3.60175e-06
-5.65379e-06 -3.60175e-06 -0.000474496
0.000644486 -9.77096e-05 -2.83719e-07
-9.77096e-05 0.000141783 -3.87513e-08
-2.83719e-07 -3.87513e-08 -1.85335e-05
0.00078399 -7.6897e-05 -6.9979e-07
-7.6897e-05 0.000242216 -3.04585e-08
-6.9979e-07 -3.04585e-08 7.33833e-05
0.000753224 -4.58249e-05 -1.01171e-07
-4.58249e-05 0.000219708 -4.40962e-07
-1.01171e-07 -4.40962e-07 5.30266e-05
0.000749362 -1.6796e-05 -2.91819e-06
-1.6796e-05 0.000181258 4.10528e-08
-2.91819e-06 4.10528e-08 4.43366e-05
0.00103156 4.56331e-06 -4.89444e-06
4.56331e-06 0.000414574 -3.80111e-06
-4.89444e-06 -3.80111e-06 0.000227332
0.000766073 -3.48379e-05 1.57385e-06
-3.48379e-05 0.000212548 -7.05195e-06
1.57385e-06 -7.05195e-06 7.55332e-05
-0.0010053 -1.10169e-05 -2.51426e-06
-1.10169e-05 -0.000886068 -4.9507e-06
-2.51426e-06 -4.9507e-06 -0.00100301
0.00062632 -4.33364e-05 1.14036e-06
-4.33364e-05 0.000126324 -1.03865e-06
1.14036e-06 -1.03865e-06 -2.44756e-05
0.00039302 -7.53571e-05 1.35954e-06
-7.53571e-05 -1.58347e-05 1.12167e-06
1.35954e-06 1.12167e-06 -0.000147291
0.000675844 -8.39485e-05 -1.08683e-06
-8.39485e-05 0.00017834 -2.47418e-07
-1.08683e-06 -2.47418e-07 3.345e-05
0.000524715 -7.82061e-05 -2.22969e-06
-7.82061e-05 3.99066e-05 1.79237e-06
-2.22969e-06 1.79237e-06 -6.91679e-05
0.000442582 -6.5613e-05 3.27095e-06
-6.5613e-05 -1.1732e-06 1.94393e-07
3.27095e-06 1.94393e-07 -0.000134094
0.000534394 -0.000105461 8.8798e-08
-0.000105461 5.94504e-05 2.44596e-07
8.8798e-08 2.44596e-07 -6.40209e-05
0.000548475 -4.81494e-05 -2.45566e-06
-4.81494e-05 4.09142e-05 3.91904e-06
-2.45566e-06 3.91904e-06 -3.40631e-05
0.000424277 -1.00597e-05 1.49486e-06
-1.00597e-05 2.8374e-06 -9.56537e-07
1.49486e-06 -9.56537e-07 -0.000133307
0.000508175 1.35564e-06 1.9411e-06
1.35564e-06 2.57225e-05 7.60287e-08
1.9411e-06 7.60287e-08 -5.27677e-05
0.00144167 -1.9603e-05 -7.44872e-06
-1.9603e-05 0.000573467 6.45704e-06
-7.44872e-06 6.45704e-06 0.000554385
0.000506571 6.07986e-05 -1.32182e-06
6.07986e-05 2.43671e-05 -3.29385e-06
-1.32182e-06 -3.29385e-06 -5.31621e-05
0.000885404 -1.15595e-05 -3.30204e-06
-1.15595e-05 0.000234204 7.38985e-07
-3.30204e-06 7.38985e-07 0.000213233
0.000777411 3.2224e-06 -3.38747e-06
3.2224e-06 0.000155084 4.85365e-06
-3.38747e-06 4.85365e-06 0.000160108
0.00042963 -9.46505e-06 2.66209e-06
-9.46505e-06 -4.93997e-05 -4.7176e-06
2.66209e-06 -4.7176e-06 -7.17249e-05
0.00253115 2.50937e-06 6.03913e-06
2.50937e-06 0.00124092 -1.57952e-08
6.03913e-06 -1.57952e-08 0.00125388
0.000890522 9.17714e-07 -6.84464e-06
9.17714e-07 0.000220665 -5.28942e-06
-6.84464e-06 -5.28942e-06 0.000225349
0.000507747 6.31915e-05 2.4113e-06
6.31915e-05 4.71921e-05 1.01889e-06
2.4113e-06 1.01889e-06 -4.76732e-05
0.000482294 4.73498e-05 -2.23186e-06
4.73498e-05 -5.9483e-06 -1.96377e-06
-2.23186e-06 -1.96377e-06 -5.04262e-05
0.000501917 -6.09746e-06 1.4969e-06
-6.09746e-06 5.63782e-06 5.65724e-08
1.4969e-06 5.65724e-08 -4.044e-05
0.000511297 8.62073e-06 8.41965e-07
8.62073e-06 -2.33997e-05 -3.04847e-06
8.41965e-07 -3.04847e-06 -3.19267e-05
0.000561636 -5.51584e-05 -1.76248e-06
-5.51584e-05 4.23349e-05 2.00179e-06
-1.76248e-06 2.00179e-06 -8.40589e-06
0.000495842 1.35225e-05 7.5664e-08
1.35225e-05 -3.43419e-05 -7.32729e-07
7.5664e-08 -7.32729e-07 -4.35309e-05
0.00198157 3.40561e-05 5.25018e-06
3.40561e-05 0.000898295 -4.53215e-06
5.25018e-06 -4.53215e-06 0.000914818
0.0010866 3.46863e-05 -5.05348e-07
3.46863e-05 0.000337525 1.6978e-06
-5.05348e-07 1.6978e-06 0.000329014
0.00144739 4.2792e-05 -1.62898e-07
4.2792e-05 0.000569916 1.40069e-06
-1.62898e-07 1.40069e-06 0.000579975
0.000872156 4.65312e-05 -9.04306e-06
4.65312e-05 0.000217136 7.52058e-06
-9.04306e-06 7.52058e-06 0.000220485
0.000860482 0.000333183 8.74866e-05
0.000333183 -0.00193037 1.67779e-05
8.74866e-05 1.67779e-05 -0.00141279
0.00221159 -4.73251e-05 -3.32603e-06
-4.73251e-05 -6.65425e-05 4.11922e-06
-3.32603e-06 4.11922e-06 6.86319e-06
0.00222706 7.20311e-05 3.47385e-05
7.20311e-05 0.000203436 -1.55922e-05
3.47385e-05 -1.55922e-05 0.000306893
0.00237959 0.000296122 -4.49819e-05
0.000296122 -0.00158871 -3.04616e-05
-4.49819e-05 -3.04616e-05 -0.000534205
0.0020746 0.000100207 3.46269e-05
0.000100207 -0.000706973 -2.05077e-06
3.46269e-05 -2.05077e-06 -0.00038845
0.00252742 -4.42122e-05 3.58568e-06
-4.42122e-05 0.000376135 -7.96081e-06
3.58568e-06 -7.96081e-06 0.000405908
0.00443618 -0.000270677 -5.03699e-05
-0.000270677 0.0010844 -1.41977e-05
-5.03699e-05 -1.41977e-05 0.00111544
0.0026975 -0.000145385 2.17193e-05
-0.000145385 -0.000189204 2.31023e-05
2.17193e-05 2.31023e-05 9.17075e-05
0.0142051 -0.000756416 2.25687e-05
-0.000756416 0.0025874 1.19701e-05
2.25687e-05 1.19701e-05 0.00130348
0.0144666 0.00445185 0.00114592
0.00445185 0.00573477 -0.00042577
0.00114592 -0.00042577 0.00357622
0.0150773 0.00517358 1.1357e-05
0.00517358 0.00987875 4.23387e-06
1.1357e-05 4.23387e-06 0.0080149
0.000262338 -9.83412e-05 5.28316e-07
-9.83412e-05 -9.16463e-05 -3.95153e-07
5.28316e-07 -3.95153e-07 -0.000197781
0.00056525 -9.66433e-06 1.33465e-06
-9.66433e-06 8.0273e-05 -1.39571e-07
1.33465e-06 -1.39571e-07 -9.2654e-06
0.000651852 -8.81816e-05 -6.55527e-07
-8.81816e-05 0.000148318 2.50443e-06
-6.55527e-07 2.50443e-06 4.61269e-05
0.00055831 -4.0093e-05 3.20937e-07
-4.0093e-05 8.44407e-05 5.41707e-07
3.20937e-07 5.41707e-07 -2.54856e-05
0.000768508 8.59963e-05 -3.54251e-06
8.59963e-05 0.000246815 1.37963e-06
-3.54251e-06 1.37963e-06 0.000119024
0.000385762 0.000116344 1.5193e-06
0.000116344 -4.23754e-05 7.18364e-06
1.5193e-06 7.18364e-06 -0.000157556
0.000983907 -1.91907e-05 3.44288e-06
-1.91907e-05 0.000369949 3.17095e-06
3.44288e-06 3.17095e-06 0.00023774
0.000500616 -2.80141e-05 -1.55322e-06
-2.80141e-05 4.94642e-05 1.28403e-06
-1.55322e-06 1.28403e-06 -5.96342e-05
0.00248936 -0.000263377 8.35188e-06
-0.000263377 6.31821e-05 6.99738e-07
8.35188e-06 6.99738e-07 0.000189982
0.00197833 -0.000475828 1.65925e-05
-0.000475828 -0.000316355 -6.05794e-06
1.65925e-05 -6.05794e-06 -0.000140694
0.00213037 -0.00072621 3.03279e-06
-0.00072621 6.24989e-05 1.0378e-06
3.03279e-06 1.0378e-06 -8.81499e-05
0.00176281 -0.000716774 2.01688e-05
-0.000716774 0.000496562 4.10989e-06
2.01688e-05 4.10989e-06 8.7648e-05
0.00194911 -0.000870345 -3.34544e-06
-0.000870345 0.000250317 5.65238e-06
-3.34544e-06 5.65238e-06 -5.20759e-05
0.00339456 -0.00105618 2.9521e-05
-0.00105618 0.00182694 -4.75879e-06
2.9521e-05 -4.75879e-06 0.0010906
0.00398277 -0.000605269 4.82742e-06
-0.000605269 0.00194477 -1.86497e-06
4.82742e-06 -1.86497e-06 0.00157911
0.000709015 -0.000165128 8.27312e-06
-0.000165128 0.000193528 -2.14518e-05
8.27312e-06 -2.14518e-05 -3.65175e-05
0.000563088 -6.19907e-05 9.60449e-07
-6.19907e-05 3.76581e-05 3.0984e-06
9.60449e-07 3.0984e-06 -5.89371e-05
0.000690274 -9.07294e-05 8.98004e-06
-9.07294e-05 0.000142713 -1.73829e-05
8.98004e-06 -1.73829e-05 -8.36745e-06
0.00101216 -4.26781e-05 2.67483e-06
-4.26781e-05 0.000369563 1.03213e-06
2.67483e-06 1.03213e-06 0.000240426
0.000600583 3.07979e-05 4.16774e-06
3.07979e-05 0.000107935 -7.61896e-07
4.16774e-06 -7.61896e-07 6.23176e-05
0.00230744 -0.000357598 -8.46027e-07
-0.000357598 -7.12439e-05 3.40128e-06
-8.46027e-07 3.40128e-06 0.000171026
0.000527137 -5.35308e-05 -2.49715e-06
-5.35308e-05 0.000106507 -6.56042e-07
-2.49715e-06 -6.56042e-07 -1.90546e-05
0.00100391 -0.000153981 -6.59196e-06
-0.000153981 0.000349246 5.71834e-06
-6.59196e-06 5.71834e-06 0.000208395
0.00176725 -0.000563737 5.81036e-06
-0.000563737 -0.000227345 -3.08036e-06
5.81036e-06 -3.08036e-06 -0.000141873
0.00172962 -0.000762942 9.92098e-07
-0.000762942 -3.89195e-08 -1.09054e-06
9.92098e-07 -1.09054e-06 -0.000225809
0.00088671 -0.000662756 3.47166e-08
-0.000662756 -0.000160614 -1.51681e-06
3.47166e-08 -1.51681e-06 -0.000429154
0.00163827 -0.00030363 8.12948e-07
-0.00030363 0.000882838 -1.87725e-05
8.12948e-07 -1.87725e-05 0.0005568
0.00168852 -0.000632519 -7.72735e-07
-0.000632519 0.00123781 2.74136e-06
-7.72735e-07 2.74136e-06 0.0004542
0.00444298 -0.000666817 -4.65196e-05
-0.000666817 0.000975329 1.58034e-05
-4.65196e-05 1.58034e-05 0.00113778
0.00383629 -0.000858999 -5.24432e-05
-0.000858999 0.00115184 1.39557e-05
-5.24432e-05 1.39557e-05 0.0010073
0.0019953 -0.000860604 -3.90953e-06
-0.000860604 0.000246514 -2.02026e-06
-3.90953e-06 -2.02026e-06 2.20242e-06
-0.000659216 -0.000409323 -1.17426e-05
-0.000409323 -0.00076234 1.90636e-05
-1.17426e-05 1.90636e-05 -0.000913448
0.000322496 -0.000129858 1.71816e-06
-0.000129858 1.13427e-05 7.77505e-06
1.71816e-06 7.77505e-06 -0.000184283
0.000432466 -0.000165849 4.36135e-06
-0.000165849 0.000130567 -7.04547e-07
4.36135e-06 -7.04547e-07 -9.56469e-05
0.00166648 -0.000235158 -3.46489e-06
-0.000235158 0.00120576 -2.00503e-05
-3.46489e-06 -2.00503e-05 0.000586417
-0.00637523 -0.000289164 0.000459859
-0.000289164 -0.00448962 -1.19128e-05
0.000459859 -1.19128e-05 -0.00360514
0.0112563 -0.000287646 5.56338e-05
-0.000287646 0.00171297 9.34597e-06
5.56338e-05 9.34597e-06 0.00149565
0.00210468 0.000279487 6.69973e-06
0.000279487 0.00102171 -6.89445e-06
6.69973e-06 -6.89445e-06 0.000831278
0.00153809 0.000462383 -4.14471e-06
0.000462383 0.000484405 4.38867e-06
-4.14471e-06 4.38867e-06 0.000166376
0.00281368 0.00059178 9.15802e-05
0.00059178 0.000449041 3.98095e-05
9.15802e-05 3.98095e-05 0.000438638
0.00304516 0.000886352 2.56265e-05
0.000886352 0.00080512 1.14481e-05
2.56265e-05 1.14481e-05 0.000521356
0.00275736 0.000750625 1.67422e-05
0.000750625 0.00105244 5.48203e-06
1.67422e-05 5.48203e-06 0.000630879
0.0145993 0.000684425 7.53075e-05
0.000684425 0.00309406 -3.62269e-05
7.53075e-05 -3.62269e-05 0.00221255
0.00842924 0.00192992 -0.00019633
0.00192992 -2.41169e-05 2.23353e-05
-0.00019633 2.23353e-05 0.000562841
0.00277415 0.00112579 2.32554e-06
0.00112579 0.000624371 -2.96711e-05
2.32554e-06 -2.96711e-05 0.000157143
0.0121928 -0.00343502 -0.000416689
-0.00343502 0.00519873 -2.39525e-05
-0.000416689 -2.39525e-05 0.0030931
-6.67773e-05 -0.0070375 -0.00201885
-0.0070375 0.00194454 -0.00132317
-0.00201885 -0.00132317 0.000324277
0.000909826 0.000283335 1.06621e-06
0.000283335 0.000329748 1.90835e-07
1.06621e-06 1.90835e-07 0.000104149
-0.00209416 -0.00201566 0.000372503
-0.00201566 -0.00270972 6.42517e-05
0.000372503 6.42517e-05 -0.00406883
-0.00309194 -0.00170078 -0.000396365
-0.00170078 0.00433117 -0.000178096
-0.000396365 -0.000178096 -0.0002315
0.00330145 0.000936196 -1.73358e-05
0.000936196 0.000749965 3.97686e-07
-1.73358e-05 3.97686e-07 0.000643365
0.00107234 0.000392695 -7.10156e-06
0.000392695 0.000228265 7.05857e-06
-7.10156e-06 7.05857e-06 -7.77216e-05
0.0012598 0.000698333 4.88873e-06
0.000698333 0.00025033 2.60467e-06
4.88873e-06 2.60467e-06 -0.000111596
0.00154176 0.000987069 4.64909e-05
0.000987069 0.000258451 2.72418e-05
4.64909e-05 2.72418e-05 2.58273e-06
0.0132756 0.00201343 -0.000133076
0.00201343 0.00121109 -8.05382e-05
-0.000133076 -8.05382e-05 -0.00067921
0.00495091 0.00261215 -5.90806e-05
0.00261215 -4.65671e-05 -4.78975e-05
-5.90806e-05 -4.78975e-05 0.000261685
0.0164381 -0.004206 0.000433377
-0.004206 0.00659003 -1.02397e-05
0.000433377 -1.02397e-05 0.00403167
0.0129427 -0.00357301 0.000193075
-0.00357301 0.00158238 0.000636534
0.000193075 0.000636534 0.000527966
0.00266996 0.000397317 -1.97812e-05
0.000397317 0.00135716 -1.31248e-05
-1.97812e-05 -1.31248e-05 0.00115436
-0.0102159 0.00104523 -0.000135693
0.00104523 0.00293896 -0.000124578
-0.000135693 -0.000124578 -0.00273594
0.00449987 0.000702873 -0.00032047
0.000702873 0.00343977 -0.000431562
-0.00032047 -0.000431562 -0.00100871
0.00316055 0.000745476 -2.63868e-05
0.000745476 0.000955328 2.99223e-06
-2.63868e-05 2.99223e-06 0.000918015
0.00205799 0.000692677 -6.53124e-05
0.000692677 0.00082924 -2.56131e-05
-6.53124e-05 -2.56131e-05 0.000490444
0.00155363 0.000751172 -8.35879e-05
0.000751172 0.00109291 -1.80659e-05
-8.35879e-05 -1.80659e-05 0.000413147
-0.000964326 0.00156437 -4.46863e-05
0.00156437 -0.000570179 -3.49672e-05
-4.46863e-05 -3.49672e-05 -0.000768208
-0.000562559 0.00234112 0.000338757
0.00234112 -0.00192714 0.000121383
0.000338757 0.000121383 -0.00475823
0.0176549 -0.0050229 0.000259733
-0.0050229 0.00831947 0.000613087
0.000259733 0.000613087 0.00518591
0.00814905 -0.00120929 -0.000141025
-0.00120929 -0.00203298 -0.000130374
-0.000141025 -0.000130374 -0.000920199
-0.000934782 9.02707e-05 2.54253e-06
9.02707e-05 -0.000701477 -8.74098e-06
2.54253e-06 -8.74098e-06 -0.000826768
0.00146909 0.000254278 1.15115e-05
0.000254278 0.000698497 2.95511e-06
1.15115e-05 2.95511e-06 0.000539185
-0.000339663 8.50401e-05 -1.11849e-06
8.50401e-05 -0.000328786 -6.33755e-06
-1.11849e-06 -6.33755e-06 -0.000476313
0.000349725 5.29357e-05 1.93125e-06
5.29357e-05 -5.11006e-05 -9.60306e-07
1.93125e-06 -9.60306e-07 -0.000180642
0.000916536 7.72599e-05 -1.02648e-06
7.72599e-05 0.00032187 -2.02005e-06
-1.02648e-06 -2.02005e-06 0.000148204
0.000616026 5.08647e-06 -1.55817e-06
5.08647e-06 0.000138219 1.57062e-06
-1.55817e-06 1.57062e-06 -3.00133e-05
0.000532465 6.92511e-05 4.70113e-06
6.92511e-05 7.71701e-05 2.92078e-06
4.70113e-06 2.92078e-06 -8.50234e-05
-0.000198943 6.11088e-05 -4.91284e-06
6.11088e-05 -0.000326294 -3.10249e-07
-4.91284e-06 -3.10249e-07 -0.000467986
0.000751481 4.79955e-05 1.01546e-07
4.79955e-05 0.000222731 -9.84069e-07
1.01546e-07 -9.84069e-07 5.42646e-05
0.000741726 7.54374e-05 8.25208e-07
7.54374e-05 0.000212498 -5.62686e-07
8.25208e-07 -5.62686e-07 5.7698e-05
0.000818957 -5.31436e-05 -8.73364e-07
-5.31436e-05 0.000248606 1.86074e-06
-8.73364e-07 1.86074e-06 8.57306e-05
-0.000730638 1.98544e-05 3.1521e-06
1.98544e-05 -0.000550354 5.19192e-07
3.1521e-06 5.19192e-07 -0.000738838
-0.000201275 4.53403e-05 -2.66918e-06
4.53403e-05 -2.76377e-06 3.95342e-06
-2.66918e-06 3.95342e-06 -0.000301547
0.000671904 -2.77369e-05 -4.02041e-06
-2.77369e-05 0.000215428 -6.75822e-06
-4.02041e-06 -6.75822e-06 5.10613e-05
0.000919699 -2.26355e-05 3.36583e-07
-2.26355e-05 0.000337206 -1.20867e-06
3.36583e-07 -1.20867e-06 0.000156762
0.000797245 -7.47977e-05 -1.57387e-07
-7.47977e-05 0.000254408 -1.24772e-06
-1.57387e-07 -1.24772e-06 8.15719e-05
0.000533095 -6.48715e-05 3.15935e-06
-6.48715e-05 3.67398e-05 4.54557e-06
3.15935e-06 4.54557e-06 -9.14783e-05
0.00083488 -7.57959e-05 9.50183e-07
-7.57959e-05 0.000277118 -1.31741e-06
9.50183e-07 -1.31741e-06 0.000100322
0.000737135 -3.40818e-05 -1.52216e-06
-3.40818e-05 0.000187684 2.57259e-07
-1.52216e-06 2.57259e-07 5.1612e-05
-0.000240538 -6.0085e-05 1.88206e-06
-6.0085e-05 -0.000407513 3.18813e-06
1.88206e-06 3.18813e-06 -0.000521377
0.00034528 -3.33686e-05 2.76253e-07
-3.33686e-05 -1.9302e-05 -1.14863e-06
2.76253e-07 -1.14863e-06 -0.000165687
0.000171303 -2.10476e-05 -6.51382e-06
-2.10476e-05 -9.5706e-05 -4.4544e-06
-6.51382e-06 -4.4544e-06 -0.000256531
5.69147e-05 -7.36362e-05 2.60416e-06
-7.36362e-05 -0.000188916 -3.62558e-06
2.60416e-06 -3.62558e-06 -0.000320833
0.00107716 -0.000104941 6.43729e-06
-0.000104941 0.000311188 -1.32522e-05
6.43729e-06 -1.32522e-05 0.000209911
-0.000329827 -4.6268e-05 7.38992e-08
-4.6268e-05 -0.000563018 3.64312e-06
7.38992e-08 3.64312e-06 -0.000694427
3.40168e-05 -4.67184e-05 -5.8221e-06
-4.67184e-05 -0.000222417 -2.1518e-06
-5.8221e-06 -2.1518e-06 -0.000370568
0.000714703 -6.29126e-05 7.74294e-07
-6.29126e-05 0.000176466 -9.01009e-07
7.74294e-07 -9.01009e-07 2.42628e-05
0.000254088 -3.98776e-05 3.49348e-07
-3.98776e-05 -0.000100477 -9.26959e-07
3.49348e-07 -9.26959e-07 -0.000247909
0.000698525 -9.34965e-05 2.3863e-07
-9.34965e-05 0.000194846 -3.35678e-08
2.3863e-07 -3.35678e-08 4.50317e-05
0.00048103 -1.99453e-05 2.33789e-07
-1.99453e-05 1.93e-05 1.71784e-06
2.33789e-07 1.71784e-06 -9.46077e-05
0.000860227 -8.58376e-05 -1.08886e-06
-8.58376e-05 0.00028771 5.73027e-07
-1.08886e-06 5.73027e-07 0.000143674
0.000631741 -7.5224e-05 -9.27475e-07
-7.5224e-05 0.000119109 8.09076e-08
-9.27475e-07 8.09076e-08 8.96825e-07
0.000445821 3.24846e-05 -9.0517e-07
3.24846e-05 -2.37211e-05 3.57067e-06
-9.0517e-07 3.57067e-06 -9.94014e-05
0.000493991 -9.73694e-05 2.11522e-06
-9.73694e-05 2.89985e-05 -1.10214e-06
2.11522e-06 -1.10214e-06 -9.1799e-05
0.000531468 -3.12033e-05 -3.07578e-07
-3.12033e-05 2.75338e-05 1.07901e-07
-3.07578e-07 1.07901e-07 -4.51819e-05
0.00142676 8.15907e-06 -6.94127e-06
8.15907e-06 0.000558274 6.78109e-06
-6.94127e-06 6.78109e-06 0.000538783
0.000511384 -5.29045e-05 1.53775e-06
-5.29045e-05 2.33349e-05 -3.14932e-06
1.53775e-06 -3.14932e-06 -5.22206e-05
0.000891071 -1.18822e-05 -5.48506e-06
-1.18822e-05 0.000232195 7.65371e-07
-5.48506e-06 7.65371e-07 0.000211189
0.000758357 1.30725e-05 7.35963e-07
1.30725e-05 0.000135495 2.12702e-06
7.35963e-07 2.12702e-06 0.000139833
0.000450301 -8.87626e-06 2.22077e-06
-8.87626e-06 -3.7946e-05 -4.46669e-06
2.22077e-06 -4.46669e-06 -5.99821e-05
0.00252478 1.36784e-05 6.5212e-06
1.36784e-05 0.00123698 4.35506e-08
6.5212e-06 4.35506e-08 0.00125002
0.00253869 2.30725e-06 -3.12242e-09
2.30725e-06 0.00124565 -5.11015e-06
-3.12242e-09 -5.11015e-06 0.00125858
0.00100605 7.62306e-05 -5.06592e-07
7.62306e-05 0.000353767 6.92173e-07
-5.06592e-07 6.92173e-07 0.000256471
0.000522355 5.61918e-05 -1.59902e-06
5.61918e-05 2.28619e-05 -2.11784e-06
-1.59902e-06 -2.11784e-06 -2.60962e-05
0.000558396 -1.44264e-05 1.31036e-07
-1.44264e-05 8.11564e-05 8.21213e-07
1.31036e-07 8.21213e-07 -1.38512e-05
0.000507245 5.94558e-06 8.55252e-07
5.94558e-06 -2.58145e-05 -3.26132e-06
8.55252e-07 -3.26132e-06 -3.39994e-05
0.000489563 -1.39577e-05 6.53925e-07
-1.39577e-05 -2.07368e-06 -1.32704e-07
6.53925e-07 -1.32704e-07 -4.61711e-05
0.000552641 -5.42826e-05 -1.3497e-06
-5.42826e-05 3.92195e-05 1.83749e-06
-1.3497e-06 1.83749e-06 -8.60935e-06
0.00050178 7.31316e-06 -4.13199e-07
7.31316e-06 -2.9687e-05 -2.15652e-08
-4.13199e-07 -2.15652e-08 -3.8136e-05
0.00196795 2.0338e-05 2.00357e-07
2.0338e-05 0.000887285 -4.64699e-06
2.00357e-07 -4.64699e-06 0.000904976
0.00110427 2.27144e-05 -7.18309e-07
2.27144e-05 0.000345886 1.93939e-06
-7.18309e-07 1.93939e-06 0.000339638
0.00131738 2.8015e-05 -7.55972e-07
2.8015e-05 0.000483101 6.11067e-09
-7.55972e-07 6.11067e-09 0.000496333
0.000809368 3.33838e-05 -9.8725e-06
3.33838e-05 0.000171677 7.15095e-06
-9.8725e-06 7.15095e-06 0.000178835
-0.00917417 0.000971319 0.00041378
0.000971319 -0.00338361 -1.83083e-05
0.00041378 -1.83083e-05 -0.00571509
-0.00177826 -1.75562e-05 0.000841578
-1.75562e-05 0.00518837 -0.000213296
0.000841578 -0.000213296 0.00199489
0.00279413 0.000285125 -0.000168491
0.000285125 -0.00168527 -2.40923e-05
-0.000168491 -2.40923e-05 -0.000356137
0.0013797 3.48177e-05 1.99671e-05
3.48177e-05 -0.00102889 -3.76651e-05
1.99671e-05 -3.76651e-05 -0.000683532
0.00162771 -6.56311e-05 6.25296e-06
-6.56311e-05 -0.000244621 1.21184e-05
6.25296e-06 1.21184e-05 -0.000213969
-0.000943528 4.60561e-05 -7.84886e-05
4.60561e-05 -0.0012335 -2.19943e-05
-7.84886e-05 -2.19943e-05 -0.000436747
0.00369725 -0.000318944 3.59607e-06
-0.000318944 0.00047955 5.02626e-06
3.59607e-06 5.02626e-06 0.000561208
0.0115587 -2.98732e-05 0.000154612
-2.98732e-05 -0.000110243 -5.91582e-05
0.000154612 -5.91582e-05 -0.000974336
0.000199643 0.00293476 -4.91659e-06
0.00293476 0.0005023 -5.41291e-05
-4.91659e-06 -5.41291e-05 -0.00237927
0.0085977 0.00580994 -0.000410266
0.00580994 0.00621995 0.000217509
-0.000410266 0.000217509 0.00468369
0.00215587 -0.000618858 5.69039e-05
-0.000618858 -0.00166388 -4.1286e-05
5.69039e-05 -4.1286e-05 -0.000794505
0.0149121 -0.00176104 0.000193345
-0.00176104 0.00215414 -7.23506e-05
0.000193345 -7.23506e-05 0.00057603
0.0122452 0.00542308 0.000349722
0.00542308 0.0034632 -0.000502692
0.000349722 -0.000502692 0.00114019
0.0161594 0.00355433 -0.000307517
0.00355433 0.00441165 0.000240349
-0.000307517 0.000240349 0.00295418
0.000865389 0.000145969 -2.26421e-06
0.000145969 0.000312259 3.96311e-06
-2.26421e-06 3.96311e-06 0.000152062
0.000385501 3.16614e-05 2.12134e-07
3.16614e-05 -2.7248e-05 -8.92428e-07
2.12134e-07 -8.92428e-07 -0.000126949
0.000578078 -9.47605e-05 6.43348e-07
-9.47605e-05 9.61323e-05 9.87126e-07
6.43348e-07 9.87126e-07 1.38446e-06
0.000618857 4.45328e-06 4.71907e-06
4.45328e-06 0.000127437 -4.83657e-07
4.71907e-06 -4.83657e-07 1.28467e-05
0.000711963 6.81823e-05 1.9189e-06
6.81823e-05 0.000221667 1.19097e-06
1.9189e-06 1.19097e-06 9.24089e-05
0.000541832 8.15314e-06 3.17548e-07
8.15314e-06 0.00010308 7.04715e-06
3.17548e-07 7.04715e-06 -5.38512e-05
0.000711111 9.00771e-05 1.20627e-06
9.00771e-05 0.00018103 2.91933e-06
1.20627e-06 2.91933e-06 5.1413e-05
0.000500747 5.31772e-05 5.11784e-06
5.31772e-05 3.6357e-05 8.88241e-07
5.11784e-06 8.88241e-07 -9.93282e-05
0.00073904 -3.95336e-05 2.67253e-06
-3.95336e-05 0.000217942 -1.19564e-06
2.67253e-06 -1.19564e-06 8.59531e-05
0.000477015 -1.15193e-05 8.85002e-07
-1.15193e-05 2.19295e-05 -2.4646e-06
8.85002e-07 -2.4646e-06 -8.07978e-05
0.0014496 -0.000310157 2.81117e-05
-0.000310157 -0.000480307 -1.8855e-06
2.81117e-05 -1.8855e-06 -0.000249728
0.00115475 -0.000523943 3.7162e-05
-0.000523943 -0.000570403 -8.28741e-06
3.7162e-05 -8.28741e-06 -0.000452667
0.000815073 -0.000647069 9.31092e-06
-0.000647069 -0.000521374 1.69768e-06
9.31092e-06 1.69768e-06 -0.00067118
3.55295e-05 -0.000581045 1.50743e-09
-0.000581045 -0.000619143 1.89745e-06
1.50743e-09 1.89745e-06 -0.000873674
0.00320622 -0.000544903 8.27695e-06
-0.000544903 0.00196994 3.06312e-05
8.27695e-06 3.06312e-05 0.00133893
5.33986e-05 -0.000419166 2.88747e-06
-0.000419166 -7.38824e-05 -2.26695e-06
2.88747e-06 -2.26695e-06 -0.000481923
0.00147799 -0.000203588 3.97836e-06
-0.000203588 0.000627115 -1.08578e-06
3.97836e-06 -1.08578e-06 0.000504998
0.000824517 -4.06946e-05 -1.66117e-06
-4.06946e-05 0.000287991 3.05337e-06
-1.66117e-06 3.05337e-06 0.000157474
0.00222476 -0.000491454 1.11029e-05
-0.000491454 -0.000176307 -8.03058e-06
1.11029e-05 -8.03058e-06 2.57215e-05
0.000489036 -5.75676e-05 2.6464e-07
-5.75676e-05 0.000122369 9.36018e-07
2.6464e-07 9.36018e-07 -8.85153e-05
-0.000227092 -0.000147019 -4.94839e-07
-0.000147019 -0.000260113 -4.10551e-06
-4.94839e-07 -4.10551e-06 -0.000485825
0.00194765 -0.000700296 1.7268e-05
-0.000700296 9.45363e-05 -3.18166e-06
1.7268e-05 -3.18166e-06 4.20757e-05
0.0018053 -0.000864235 -7.90694e-07
-0.000864235 5.15542e-05 3.68513e-06
-7.90694e-07 3.68513e-06 -0.000127592
0.000215819 -0.000593277 1.74556e-05
-0.000593277 -0.000239417 -1.05151e-05
1.74556e-05 -1.05151e-05 -0.000488303
0.0013642 -0.000318119 2.63262e-06
-0.000318119 0.0010256 -1.5143e-05
2.63262e-06 -1.5143e-05 0.000411078
0.00296816 -0.000842007 -6.16441e-05
-0.000842007 0.000632219 3.17713e-05
-6.16441e-05 3.17713e-05 0.00035076
0.000715707 -0.000588785 -4.30227e-05
-0.000588785 -0.000348978 1.13249e-05
-4.30227e-05 1.13249e-05 -0.000392197
0.000856613 -0.00058968 -7.06748e-05
-0.00058968 0.00044906 5.23477e-05
-7.06748e-05 5.23477e-05 5.43605e-05
-0.00237589 -0.000213452 -4.28392e-06
-0.000213452 -0.00160734 9.12288e-06
-4.28392e-06 9.12288e-06 -0.00182479
-0.000625765 -8.63009e-05 4.12023e-06
-8.63009e-05 -0.00048538 8.01577e-06
4.12023e-06 8.01577e-06 -0.000740356
0.000558743 -5.59127e-05 8.6385e-06
-5.59127e-05 0.000320059 -1.01415e-05
8.6385e-06 -1.01415e-05 -3.38214e-05
-0.00195064 0.00102943 -0.000337213
0.00102943 0.00644314 1.72306e-05
-0.000337213 1.72306e-05 0.00233551
0.000670498 -0.00120988 -5.20531e-06
-0.00120988 0.00199802 2.04444e-05
-5.20531e-06 2.04444e-05 0.00145322
0.00190925 0.00101922 -9.9654e-05
0.00101922 -0.00475155 -4.15229e-05
-9.9654e-05 -4.15229e-05 -0.00504717
0.000308925 0.000230575 8.56562e-06
0.000230575 -7.01134e-06 -3.82071e-06
8.56562e-06 -3.82071e-06 -0.000227801
0.00108711 0.000473514 7.95339e-06
0.000473514 0.000284244 1.85972e-05
7.95339e-06 1.85972e-05 -7.19089e-05
0.00356276 0.00084348 6.14557e-05
0.00084348 0.000889807 2.09611e-05
6.14557e-05 2.09611e-05 0.000806492
0.00157661 0.000758685 1.53756e-05
0.000758685 0.000440326 2.47074e-05
1.53756e-05 2.47074e-05 5.03145e-05
0.0114704 -0.0023175 0.000168043
-0.0023175 0.00403852 4.79483e-05
0.000168043 4.79483e-05 0.00355219
0.00397646 0.000972904 -0.000343443
0.000972904 -0.00357717 -5.21536e-05
-0.000343443 -5.21536e-05 -0.00542019
0.00499696 0.00246213 -1.47936e-05
0.00246213 0.000106771 1.92683e-05
-1.47936e-05 1.92683e-05 0.000372716
0.00213616 0.000882342 4.15413e-05
0.000882342 0.000802463 -2.28594e-05
4.15413e-05 -2.28594e-05 0.00060721
0.00309924 -0.00279243 -0.000361933
-0.00279243 0.00206979 -0.00032597
-0.000361933 -0.00032597 -0.000529366
-0.000639738 -0.00259353 -0.00051267
-0.00259353 0.00469902 -0.000174887
-0.00051267 -0.000174887 3.11789e-05
0.0199716 -0.00448355 0.000555814
-0.00448355 0.00515611 0.0003225
0.000555814 0.0003225 0.00398857
0.000412484 0.000208872 1.55417e-05
0.000208872 4.14631e-05 -4.06038e-06
1.55417e-05 -4.06038e-06 -0.000150693
-0.00402778 0.000391264 -0.000163726
0.000391264 0.00471748 -3.54674e-05
-0.000163726 -3.54674e-05 -5.34212e-05
0.00507769 0.000924543 -8.94761e-05
0.000924543 0.00295598 -0.000152391
-8.94761e-05 -0.000152391 -0.00186741
0.00156479 0.000714215 9.65274e-06
0.000714215 0.000206753 4.34451e-06
9.65274e-06 4.34451e-06 0.000123393
0.000589385 0.000525419 9.9567e-06
0.000525419 0.000124929 4.17024e-06
9.9567e-06 4.17024e-06 -0.000226864
0.000331021 0.000771023 -4.17917e-05
0.000771023 0.000264634 -5.80263e-05
-4.17917e-05 -5.80263e-05 -0.00026129
0.00362614 0.0025608 1.82065e-05
0.0025608 0.00105957 1.89343e-05
1.82065e-05 1.89343e-05 0.000793138
0.0165876 0.00321314 6.89789e-05
0.00321314 0.00429129 1.88479e-05
6.89789e-05 1.88479e-05 0.00219148
0.00639953 -0.00313734 7.63633e-05
-0.00313734 0.00195003 -7.10945e-05
7.63633e-05 -7.10945e-05 -0.00176121
0.013962 -0.00213125 -2.99893e-06
-0.00213125 0.00197903 -6.42371e-05
-2.99893e-06 -6.42371e-05 0.0032533
0.00061944 0.000373425 -1.08074e-05
0.000373425 0.00019903 -9.08813e-06
-1.08074e-05 -9.08813e-06 -4.20087e-05
0.00215574 0.00018556 -0.000282441
0.00018556 0.00186106 -6.18463e-05
-0.000282441 -6.18463e-05 -0.00210196
0.000560758 0.000532759 -9.4411e-05
0.000532759 -0.000168587 -0.000159994
-9.4411e-05 -0.000159994 -0.00172706
-0.000947745 0.00022646 3.73776e-06
0.00022646 -0.000335575 -2.23148e-05
3.73776e-06 -2.23148e-05 -0.000563931
-0.000461765 0.000485613 -0.000138913
0.000485613 0.00106256 2.08245e-06
-0.000138913 2.08245e-06 0.000216467
0.0141405 0.00391094 9.16519e-05
0.00391094 0.00466465 -3.19555e-05
9.16519e-05 -3.19555e-05 0.000696212
-0.00336635 -0.00442429 -7.59213e-08
-0.00442429 -0.000780462 0.000221565
-7.59213e-08 0.000221565 -0.0049432
0.0110464 0.000537116 4.81376e-05
0.000537116 -0.00146914 -0.000302567
4.81376e-05 -0.000302567 0.00111583
0.000881832 0.00017594 -4.72853e-06
0.00017594 0.000308555 1.44575e-05
-4.72853e-06 1.44575e-05 0.000173745
0.000820605 0.000197029 -9.84443e-06
0.000197029 0.000385812 -4.14316e-06
-9.84443e-06 -4.14316e-06 0.000212937
-0.000464581 8.16377e-05 2.54215e-06
8.16377e-05 -0.000174507 -1.91387e-06
2.54215e-06 -1.91387e-06 -0.00045385
0.000707979 8.61789e-05 -1.6146e-06
8.61789e-05 0.00018102 -2.09646e-06
-1.6146e-06 -2.09646e-06 2.30329e-05
0.00107565 -4.01086e-05 -1.05577e-06
-4.01086e-05 0.000413832 3.41769e-06
-1.05577e-06 3.41769e-06 0.000243293
0.00044773 7.04511e-05 2.67039e-06
7.04511e-05 2.11224e-05 1.30505e-06
2.67039e-06 1.30505e-06 -0.000126145
-0.00101022 1.44316e-05 2.02144e-06
1.44316e-05 -0.000698157 6.65487e-07
2.02144e-06 6.65487e-07 -0.000886476
0.000768566 -2.86861e-05 1.21923e-06
-2.86861e-05 0.000220476 1.89318e-07
1.21923e-06 1.89318e-07 5.79664e-05
0.000621116 8.01984e-06 -2.18261e-07
8.01984e-06 0.000186777 -2.50859e-06
-2.18261e-07 -2.50859e-06 2.05212e-05
-0.000215115 1.55695e-05 1.23783e-06
1.55695e-05 2.39998e-05 2.73408e-06
1.23783e-06 2.73408e-06 -0.000304319
-0.000233189 6.12942e-05 -5.5593e-06
6.12942e-05 0.000186122 8.91129e-06
-5.5593e-06 8.91129e-06 -0.000264453
4.82741e-05 -3.40672e-06 -2.77098e-06
-3.40672e-06 0.00021699 -1.71941e-06
-2.77098e-06 -1.71941e-06 -0.000141946
0.000765126 6.69474e-06 -1.55279e-06
6.69474e-06 0.000245204 -6.56371e-06
-1.55279e-06 -6.56371e-06 9.91829e-05
0.000649788 -0.000131135 1.5003e-06
-0.000131135 0.00014517 9.79252e-07
1.5003e-06 9.79252e-07 -1.95406e-05
0.000501686 -1.42873e-05 1.21839e-06
-1.42873e-05 3.25827e-05 1.75181e-06
1.21839e-06 1.75181e-06 -9.74829e-05
0.000463691 -8.99392e-05 1.11466e-06
-8.99392e-05 3.05922e-05 9.95982e-06
1.11466e-06 9.95982e-06 -7.37186e-05
0.000264403 -3.65713e-05 2.14606e-06
-3.65713e-05 -6.16124e-05 3.34094e-06
2.14606e-06 3.34094e-06 -0.00020623
0.000619366 -3.98985e-05 1.46036e-07
-3.98985e-05 0.000142377 4.13357e-07
1.46036e-07 4.13357e-07 -1.59106e-06
0.000496535 -4.56339e-05 1.2541e-07
-4.56339e-05 7.54663e-05 -1.83608e-06
1.2541e-07 -1.83608e-06 -5.44556e-05
0.000453866 -4.92527e-05 -7.18509e-06
-4.92527e-05 3.47152e-05 -4.50815e-06
-7.18509e-06 -4.50815e-06 -9.39413e-05
0.000372888 -5.80315e-05 6.4761e-06
-5.80315e-05 0.000146471 -6.6683e-06
6.4761e-06 -6.6683e-06 -1.84585e-05
0.000211567 -0.00015234 -3.90342e-07
-0.00015234 -0.000305319 3.19611e-06
-3.90342e-07 3.19611e-06 -0.000401352
0.000735325 -0.000131892 -9.04797e-06
-0.000131892 0.000124067 -7.81901e-07
-9.04797e-06 -7.81901e-07 1.42921e-05
0.000366646 -0.000157987 6.11393e-06
-0.000157987 -0.000105488 6.77831e-06
6.11393e-06 6.77831e-06 -0.000253673
0.00196339 -0.000459098 1.59851e-06
-0.000459098 0.000762624 1.7477e-05
1.59851e-06 1.7477e-05 0.000467678
0.00163046 -0.000204404 2.33555e-06
-0.000204404 0.000709812 -5.23405e-06
2.33555e-06 -5.23405e-06 0.000526306
-0.000165645 -7.40572e-05 -9.7911e-06
-7.40572e-05 -0.000418827 -4.72938e-06
-9.7911e-06 -4.72938e-06 -0.000541421
0.000531405 -6.74727e-05 1.31883e-07
-6.74727e-05 5.61064e-05 -3.27285e-07
1.31883e-07 -3.27285e-07 -9.08668e-05
-2.01496e-05 -4.82766e-05 -1.12422e-06
-4.82766e-05 -0.000263074 -2.11688e-06
-1.12422e-06 -2.11688e-06 -0.000423176
0.00085016 -8.46982e-05 -5.7317e-07
-8.46982e-05 0.000253515 9.71462e-07
-5.7317e-07 9.71462e-07 0.000100962
0.000753234 -0.000109251 -7.65104e-07
-0.000109251 0.000217446 7.16794e-07
-7.65104e-07 7.16794e-07 5.72168e-05
0.000551247 -5.49812e-05 -2.01815e-07
-5.49812e-05 5.077e-05 1.66157e-06
-2.01815e-07 1.66157e-06 -6.53871e-05
0.00126254 -0.000157909 -7.51635e-07
-0.000157909 0.00056179 -1.04928e-06
-7.51635e-07 -1.04928e-06 0.000389707
0.000666565 -9.3451e-05 -5.08807e-07
-9.3451e-05 0.000134949 -1.5691e-08
-5.08807e-07 -1.5691e-08 1.57074e-05
0.000512894 1.43954e-05 -2.32854e-06
1.43954e-05 1.49252e-05 2.95414e-06
-2.32854e-06 2.95414e-06 -6.20012e-05
0.000726354 -0.000122778 1.7895e-06
-0.000122778 0.000178263 -2.12848e-06
1.7895e-06 -2.12848e-06 5.57423e-05
0.000598889 -4.74351e-05 -2.12053e-07
-4.74351e-05 6.64428e-05 1.68303e-07
-2.12053e-07 1.68303e-07 -8.31457e-06
0.00144206 1.35441e-05 -1.15585e-05
1.35441e-05 0.000563484 7.01561e-06
-1.15585e-05 7.01561e-06 0.000542683
0.000554568 -6.16472e-05 2.48569e-06
-6.16472e-05 4.85389e-05 -3.45859e-06
2.48569e-06 -3.45859e-06 -2.8844e-05
0.000890443 -5.89151e-06 -6.65515e-06
-5.89151e-06 0.000226084 6.91735e-07
-6.65515e-06 6.91735e-07 0.000204019
0.000789363 2.23298e-05 7.65853e-07
2.23298e-05 0.000152522 2.6302e-06
7.65853e-07 2.6302e-06 0.000155049
0.000453835 -2.11882e-05 2.018e-06
-2.11882e-05 -4.05497e-05 -4.72489e-06
2.018e-06 -4.72489e-06 -6.36045e-05
0.00164606 2.2524e-05 9.1432e-06
2.2524e-05 0.000689738 -1.4925e-06
9.1432e-06 -1.4925e-06 0.000698319
0.00250483 1.41704e-05 8.74842e-06
1.41704e-05 0.00122414 -5.14142e-06
8.74842e-06 -5.14142e-06 0.0012372
0.000552583 4.28449e-05 1.98743e-06
4.28449e-05 5.50921e-05 -1.12624e-06
1.98743e-06 -1.12624e-06 -4.28285e-05
0.000604686 5.57369e-05 -9.26802e-07
5.57369e-05 6.85684e-05 -1.6746e-06
-9.26802e-07 -1.6746e-06 1.69931e-05
0.000611454 -7.3573e-07 1.15385e-06
-7.3573e-07 0.000104294 6.49584e-07
1.15385e-06 6.49584e-07 1.00118e-05
0.00049333 2.10789e-06 1.4049e-06
2.10789e-06 -3.32855e-05 -3.52878e-06
1.4049e-06 -3.52878e-06 -4.22267e-05
0.000511332 4.63788e-05 1.18321e-07
4.63788e-05 1.1857e-05 -1.18042e-07
1.18321e-07 -1.18042e-07 -3.46485e-05
0.000554339 -0.000108766 -3.15397e-06
-0.000108766 7.1147e-05 4.6982e-07
-3.15397e-06 4.6982e-07 -1.85463e-05
0.00198695 6.80333e-06 -4.89334e-06
6.80333e-06 0.000897274 -4.72244e-06
-4.89334e-06 -4.72244e-06 0.000915627
0.000486808 4.54646e-06 -2.44244e-07
4.54646e-06 -3.8047e-05 1.62024e-08
-2.44244e-07 1.62024e-08 -4.6215e-05
0.000515585 -1.68936e-05 -1.84755e-06
-1.68936e-05 1.20539e-05 1.86583e-06
-1.84755e-06 1.86583e-06 -3.09376e-05
0.000485191 6.21582e-06 -1.2501e-06
6.21582e-06 -4.04767e-05 3.24335e-06
-1.2501e-06 3.24335e-06 -4.88616e-05
0.00200221 2.18335e-05 -4.996e-06
2.18335e-05 0.000908781 -9.13389e-08
-4.996e-06 -9.13389e-08 0.000926256
0.00195896 3.50769e-05 -6.48032e-06
3.50769e-05 0.000884295 4.4626e-06
-6.48032e-06 4.4626e-06 0.000900923
-0.00653635 -0.00139592 -0.000146735
-0.00139592 0.00459047 4.91345e-05
-0.000146735 4.91345e-05 0.000801949
0.0012022 0.00110853 -0.00021306
0.00110853 0.000261802 6.29461e-05
-0.00021306 6.29461e-05 -0.00137484
0.0029417 -0.000881009 -0.000543763
-0.000881009 0.00120916 0.000243066
-0.000543763 0.000243066 -0.00319964
-0.00162111 0.000322685 0.000923551
0.000322685 0.00515485 -0.000314693
0.000923551 -0.000314693 0.00161953
0.00146982 0.000468896 -2.40375e-05
0.000468896 -0.00130927 -2.12846e-05
-2.40375e-05 -2.12846e-05 -0.000617839
0.00255168 -0.000385296 8.6389e-05
-0.000385296 -0.000267811 4.82223e-06
8.6389e-05 4.82223e-06 -0.000188574
0.000629656 -0.000360855 0.00022556
-0.000360855 -0.00419569 -6.69854e-05
0.00022556 -6.69854e-05 -0.00607467
0.0181083 0.00265834 -0.000600171
0.00265834 0.00818077 5.40614e-05
-0.000600171 5.40614e-05 0.00587523
0.000821055 0.00667981 -0.00192405
0.00667981 0.00185676 0.00130992
-0.00192405 0.00130992 0.000304681
0.00422161 -0.000490527 1.88267e-05
-0.000490527 -0.000359097 8.80704e-06
1.88267e-05 8.80704e-06 0.000159679
0.00889143 -0.00168098 0.000130031
-0.00168098 -0.000804689 -0.000116078
0.000130031 -0.000116078 -0.00314894
0.0190119 0.00464581 -0.000262156
0.00464581 0.00573017 -9.91797e-05
-0.000262156 -9.91797e-05 0.00357821
0.0120177 0.00369651 -5.6182e-05
0.00369651 0.00160785 0.000349073
-5.6182e-05 0.000349073 -7.33411e-05
0.00170901 -0.00140431 -0.000102705
-0.00140431 -0.00264084 1.86276e-05
-0.000102705 1.86276e-05 -0.0018321
0.00508815 -0.00280799 0.000334496
-0.00280799 -0.000182003 -0.000205989
0.000334496 -0.000205989 -0.00405652
0.0024864 0.00295993 8.74444e-05
0.00295993 -0.000398924 -0.000683415
8.74444e-05 -0.000683415 -0.00332524
0.00791147 0.0010775 -0.000223899
0.0010775 -0.00261364 5.59205e-06
-0.000223899 5.59205e-06 -0.00147794
0.00210391 -8.63366e-05 1.76336e-06
-8.63366e-05 0.00113829 1.3751e-05
1.76336e-06 1.3751e-05 0.000897379
0.000503781 0.000115016 -1.74801e-06
0.000115016 7.13544e-05 -2.37191e-06
-1.74801e-06 -2.37191e-06 -6.71329e-05
0.000532273 9.34679e-05 1.43217e-06
9.34679e-05 5.38629e-05 -1.85668e-06
1.43217e-06 -1.85668e-06 -4.04535e-05
0.000376539 2.92225e-05 6.21386e-06
2.92225e-05 1.11014e-05 -2.186e-07
6.21386e-06 -2.186e-07 -0.000107791
0.000418231 8.2346e-05 3.46391e-06
8.2346e-05 5.9325e-06 2.84674e-06
3.46391e-06 2.84674e-06 -0.000170532
0.000498526 3.63043e-05 -1.82393e-07
3.63043e-05 6.72477e-05 2.24575e-06
-1.82393e-07 2.24575e-06 -7.73513e-05
0.000401255 3.74183e-05 6.25333e-07
3.74183e-05 -6.67325e-06 -2.87403e-06
6.25333e-07 -2.87403e-06 -0.000134805
0.000914748 0.000167008 2.95792e-06
0.000167008 0.000322788 5.07892e-06
2.95792e-06 5.07892e-06 0.000156274
0.000871882 0.000120416 3.18576e-09
0.000120416 0.000302311 1.25709e-07
3.18576e-09 1.25709e-07 0.000141268
0.000399072 -1.74522e-05 -4.6703e-06
-1.74522e-05 -3.70718e-06 -5.40165e-06
-4.6703e-06 -5.40165e-06 -0.000129738
0.000519972 -0.000388439 7.2334e-05
-0.000388439 -0.00107068 -3.3398e-05
7.2334e-05 -3.3398e-05 -0.000835296
0.000423535 -0.000593552 2.87815e-05
-0.000593552 -0.000761709 -8.3831e-06
2.87815e-05 -8.3831e-06 -0.000762696
0.00159833 -0.000850519 -1.44729e-06
-0.000850519 -0.000117638 1.25655e-05
-1.44729e-06 1.25655e-05 -0.00023859
-0.000798556 -0.000582287 6.50706e-06
-0.000582287 -0.0007778 -1.7197e-05
6.50706e-06 -1.7197e-05 -0.00111004
0.00316988 -0.00040071 -1.65376e-05
-0.00040071 0.00190976 5.56741e-05
-1.65376e-05 5.56741e-05 0.00143651
0.000944805 -0.000168706 -2.73364e-06
-0.000168706 0.000463591 4.98829e-06
-2.73364e-06 4.98829e-06 0.00022111
0.000322099 0.000117632 -3.07921e-06
0.000117632 9.91516e-06 -1.3364e-05
-3.07921e-06 -1.3364e-05 -0.00019898
0.000600232 -9.74237e-05 -2.04634e-06
-9.74237e-05 0.000200869 8.5781e-06
-2.04634e-06 8.5781e-06 -4.8762e-05
0.00170614 -0.00068836 -6.4561e-07
-0.00068836 -0.000148947 -4.94167e-06
-6.4561e-07 -4.94167e-06 -0.000216599
0.000660993 -5.1461e-05 9.49317e-07
-5.1461e-05 0.000241778 4.72556e-06
9.49317e-07 4.72556e-06 7.05422e-06
0.0019852 -0.00025174 1.1054e-06
-0.00025174 0.00116913 -1.42938e-06
1.1054e-06 -1.42938e-06 0.000797297
0.00119103 -0.000645105 1.92156e-06
-0.000645105 -0.000108202 6.73065e-06
1.92156e-06 6.73065e-06 -0.000150891
0.000727578 -0.000612266 -2.20959e-05
-0.000612266 0.000306032 6.56117e-06
-2.20959e-05 6.56117e-06 -6.01683e-05
0.00279821 -0.00122874 3.14294e-05
-0.00122874 0.000404276 -1.46685e-05
3.14294e-05 -1.46685e-05 0.000427501
-0.00135431 -0.000359619 -5.33282e-06
-0.000359619 -0.00106422 2.23413e-05
-5.33282e-06 2.23413e-05 -0.00109206
-0.00078635 -9.18841e-05 1.08388e-05
-9.18841e-05 -0.000306325 3.06163e-06
1.08388e-05 3.06163e-06 -0.000770159
0.000702172 1.15274e-05 -3.27684e-06
1.15274e-05 0.000226002 -2.59621e-06
-3.27684e-06 -2.59621e-06 2.02054e-05
0.000923036 1.03614e-05 7.71089e-06
1.03614e-05 0.00051887 -7.40157e-06
7.71089e-06 -7.40157e-06 0.000232068
0.00133691 7.43341e-05 -3.07364e-05
7.43341e-05 0.00174688 -1.30623e-05
-3.07364e-05 -1.30623e-05 -0.0017932
-0.00577167 0.000360978 -0.000291333
0.000360978 0.00574685 -1.536e-05
-0.000291333 -1.536e-05 0.00122337
-0.0126225 -0.00194102 -0.00058078
-0.00194102 -0.00562029 -1.57073e-05
-0.00058078 -1.57073e-05 -0.00593369
-0.000920953 0.000129243 6.63487e-06
0.000129243 -0.000719278 -3.48975e-06
6.63487e-06 -3.48975e-06 -0.000923562
-0.000475943 0.000411548 -3.44013e-06
0.000411548 -0.000400112 1.00772e-05
-3.44013e-06 1.00772e-05 -0.000759235
0.00144852 0.000799348 2.71719e-05
0.000799348 0.000157524 2.28833e-05
2.71719e-05 2.28833e-05 4.92319e-05
-0.00549297 0.00155821 4.33057e-05
0.00155821 0.00497993 4.88041e-05
4.33057e-05 4.88041e-05 0.000810472
0.00580666 0.00274125 -0.000228415
0.00274125 0.000220907 -0.000138981
-0.000228415 -0.000138981 -0.00339137
0.00208532 0.00181811 0.000333381
0.00181811 0.000475922 0.000111774
0.000333381 0.000111774 0.000283753
-0.000139793 0.000737024 2.55204e-05
0.000737024 -0.000173252 -3.94729e-05
2.55204e-05 -3.94729e-05 -0.000381219
0.0223171 -0.00322731 -0.000159617
-0.00322731 0.007118 -0.000291799
-0.000159617 -0.000291799 0.00466594
0.00559196 0.001165 0.000417917
0.001165 0.00285357 0.000155329
0.000417917 0.000155329 -0.00234237
0.0133758 -0.00184372 0.00014187
-0.00184372 0.00214624 3.32825e-05
0.00014187 3.32825e-05 0.00352003
0.00114263 0.000423456 4.1705e-06
0.000423456 0.000565944 -1.46911e-06
4.1705e-06 -1.46911e-06 0.000312736
0.00377129 0.000407841 -9.87373e-08
0.000407841 0.00271053 1.43993e-05
-9.87373e-08 1.43993e-05 -0.000258565
0.00128558 0.000504437 5.23708e-05
0.000504437 4.46951e-05 5.90027e-06
5.23708e-05 5.90027e-06 -0.00154942
-0.000334777 0.000410213 -2.65794e-06
0.000410213 -0.00013259 -4.80032e-06
-2.65794e-06 -4.80032e-06 -0.000419522
0.000574695 0.000999793 -0.000105198
0.000999793 0.000971337 -4.78737e-05
-0.000105198 -4.78737e-05 -0.000233765
0.00111742 0.00359707 0.000161636
0.00359707 0.000517747 9.39377e-05
0.000161636 9.39377e-05 -0.00362168
0.00870016 0.000147188 -1.11222e-05
0.000147188 -0.00331261 -0.000196225
-1.11222e-05 -0.000196225 -0.000458043
0.00437233 -0.00235351 -6.33874e-05
-0.00235351 0.00263974 -0.000142891
-6.33874e-05 -0.000142891 -0.00142621
0.000997793 0.000332824 -4.99582e-06
0.000332824 0.000770113 -1.67205e-05
-4.99582e-06 -1.67205e-05 0.00047066
-0.00225134 0.000109867 8.5086e-06
0.000109867 -0.000111733 1.07268e-05
8.5086e-06 1.07268e-05 -0.000258127
0.00419312 -5.57423e-05 8.27766e-05
-5.57423e-05 -0.000245038 -0.000149608
8.27766e-05 -0.000149608 -0.00129631
0.00790627 0.00123665 0.000232914
0.00123665 -0.00230094 -2.15999e-05
0.000232914 -2.15999e-05 -0.00132269
-0.00206985 0.000119161 2.22876e-05
0.000119161 -7.85625e-05 -3.2834e-05
2.22876e-05 -3.2834e-05 -0.000825753
0.0128016 0.00286787 0.000247369
0.00286787 0.00588611 5.73596e-05
0.000247369 5.73596e-05 0.0010268
-0.00150745 -0.000446017 6.95068e-05
-0.000446017 0.00190492 0.000357832
6.95068e-05 0.000357832 -0.00129899
0.00276599 0.000389182 2.20013e-05
0.000389182 0.00158367 1.17934e-05
2.20013e-05 1.17934e-05 0.0013656
0.000621075 0.000205145 -5.47072e-06
0.000205145 0.000485631 -8.94617e-07
-5.47072e-06 -8.94617e-07 0.000170441
0.000133946 0.000115854 -1.50422e-07
0.000115854 0.000407995 9.97259e-07
-1.50422e-07 9.97259e-07 8.57999e-06
0.000675587 0.000155925 1.42312e-06
0.000155925 0.000180329 1.32799e-06
1.42312e-06 1.32799e-06 1.00194e-05
0.000375039 4.74983e-05 1.71144e-06
4.74983e-05 2.51845e-05 1.61091e-06
1.71144e-06 1.61091e-06 -0.000132633
0.000364507 -3.50301e-05 6.90514e-06
-3.50301e-05 0.000384287 -1.94264e-07
6.90514e-06 -1.94264e-07 4.06052e-05
0.000413947 2.18478e-05 2.97946e-07
2.18478e-05 2.1363e-05 -7.91908e-07
2.97946e-07 -7.91908e-07 -0.000114499
0.000628503 -2.64586e-05 -1.97177e-06
-2.64586e-05 0.000551018 -2.42117e-06
-1.97177e-06 -2.42117e-06 0.00020111
0.000495796 5.232e-05 6.35734e-07
5.232e-05 0.000600649 -1.84337e-06
6.35734e-07 -1.84337e-06 0.000167506
-0.000273032 2.00835e-05 -1.1356e-05
2.00835e-05 0.000105929 3.15332e-06
-1.1356e-05 3.15332e-06 -0.00026655
0.00029852 -2.22105e-05 4.82532e-09
-2.22105e-05 0.000288461 -4.84997e-06
4.82532e-09 -4.84997e-06 -5.9517e-06
0.000235656 -6.24536e-05 1.04843e-06
-6.24536e-05 -0.000102789 7.92019e-06
1.04843e-06 7.92019e-06 -0.000231185
0.000833072 -5.07136e-05 -7.12537e-07
-5.07136e-05 0.000270311 1.9154e-06
-7.12537e-07 1.9154e-06 0.000126238
0.00116849 -4.76554e-05 -1.07552e-05
-4.76554e-05 0.000485994 8.88247e-06
-1.07552e-05 8.88247e-06 0.000353586
0.000787267 -7.72823e-05 2.56249e-06
-7.72823e-05 0.000370813 -4.58659e-07
2.56249e-06 -4.58659e-07 0.000218126
0.000585274 -4.89885e-05 -7.9261e-07
-4.89885e-05 0.000111744 -6.53871e-07
-7.9261e-07 -6.53871e-07 -1.52459e-05
0.000278797 -0.000143744 -3.62217e-07
-0.000143744 -4.53226e-05 1.49947e-06
-3.62217e-07 1.49947e-06 -0.000190345
8.38213e-05 -0.000131898 -1.03043e-05
-0.000131898 -0.000288471 -1.82365e-06
-1.03043e-05 -1.82365e-06 -0.000356073
-0.000726388 -0.000270358 8.70329e-06
-0.000270358 -0.000729183 1.45745e-05
8.70329e-06 1.45745e-05 -0.000999479
0.000364464 -0.000168731 5.78343e-06
-0.000168731 -8.1042e-05 -1.31607e-06
5.78343e-06 -1.31607e-06 -0.000197441
0.00120535 -0.000261601 -2.88251e-06
-0.000261601 0.000394169 9.47268e-06
-2.88251e-06 9.47268e-06 0.000217256
0.00198489 -0.000498591 -9.28432e-06
-0.000498591 0.000797616 1.23779e-05
-9.28432e-06 1.23779e-05 0.000468995
0.00155194 -0.000448283 -6.22033e-06
-0.000448283 0.000401508 7.31006e-07
-6.22033e-06 7.31006e-07 7.39115e-05
0.00103181 -0.000282743 3.90745e-08
-0.000282743 0.000310204 4.16768e-06
3.90745e-08 4.16768e-06 7.74303e-05
0.000277172 -0.000258437 1.05213e-05
-0.000258437 -0.000260001 -4.12818e-06
1.05213e-05 -4.12818e-06 -0.000505592
0.00119118 -0.000145302 2.06072e-06
-0.000145302 0.000477004 -2.62069e-06
2.06072e-06 -2.62069e-06 0.000264722
0.00132273 -0.000209381 -7.12803e-06
-0.000209381 0.00055812 -3.78712e-07
-7.12803e-06 -3.78712e-07 0.000358835
7.31086e-05 -0.000111593 9.16024e-06
-0.000111593 -0.000231874 -1.54291e-05
9.16024e-06 -1.54291e-05 -0.00034713
0.00110198 -9.13198e-05 8.41124e-08
-9.13198e-05 0.000379309 1.67304e-06
8.41124e-08 1.67304e-06 0.000232648
0.000264928 -7.65718e-05 7.72443e-07
-7.65718e-05 -8.88705e-05 -7.74684e-07
7.72443e-07 -7.74684e-07 -0.000250363
0.000595224 -4.95582e-05 6.71452e-07
-4.95582e-05 6.79038e-05 8.23913e-07
6.71452e-07 8.23913e-07 -5.63962e-05
0.00118252 -0.000176934 -5.93794e-07
-0.000176934 0.000495579 5.77224e-07
-5.93794e-07 5.77224e-07 0.00032119
0.00065149 -8.10938e-05 -3.24791e-07
-8.10938e-05 0.000124646 -1.64067e-07
-3.24791e-07 -1.64067e-07 -2.58843e-06
0.000479498 1.73039e-05 1.22336e-06
1.73039e-05 3.67829e-06 3.57734e-06
1.22336e-06 3.57734e-06 -8.45336e-05
0.000776238 -0.000118649 4.3376e-07
-0.000118649 0.000214977 -2.37792e-06
4.3376e-07 -2.37792e-06 8.57943e-05
0.000514901 9.04273e-06 -1.92788e-06
9.04273e-06 2.12632e-05 -1.7338e-07
-1.92788e-06 -1.7338e-07 -5.95413e-05
0.0013964 1.92399e-05 -1.42646e-05
1.92399e-05 0.000535751 4.76227e-06
-1.42646e-05 4.76227e-06 0.000513942
0.000596143 -5.68391e-05 2.92302e-06
-5.68391e-05 6.77373e-05 -3.64356e-06
2.92302e-06 -3.64356e-06 -9.19816e-06
0.000901108 6.68511e-07 -7.15195e-06
6.68511e-07 0.000228158 6.14571e-07
-7.15195e-06 6.14571e-07 0.000204977
0.0008301 3.22905e-05 -3.48968e-09
3.22905e-05 0.000176442 2.84371e-06
-3.48968e-09 2.84371e-06 0.000176948
0.000466249 -1.29411e-05 2.06573e-06
-1.29411e-05 -3.93005e-05 -5.32986e-06
2.06573e-06 -5.32986e-06 -6.36596e-05
0.00169513 3.4663e-05 1.21822e-05
3.4663e-05 0.000718409 -1.29852e-06
1.21822e-05 -1.29852e-06 0.000725667
0.00252077 2.90246e-05 1.30737e-05
2.90246e-05 0.00123266 -5.35065e-06
1.30737e-05 -5.35065e-06 0.00124519
0.000320269 1.40201e-05 1.21605e-06
1.40201e-05 -7.48318e-05 -1.28599e-07
1.21605e-06 -1.28599e-07 -0.000198793
0.000195637 1.73722e-05 3.18786e-07
1.73722e-05 -0.000187346 -3.40358e-06
3.18786e-07 -3.40358e-06 -0.000246978
0.000641743 4.49061e-05 1.88566e-08
4.49061e-05 0.000119947 8.25852e-08
1.88566e-08 8.25852e-08 1.36453e-05
0.000491654 8.3992e-07 1.27111e-06
8.3992e-07 -3.56553e-05 -3.65516e-06
1.27111e-06 -3.65516e-06 -4.6135e-05
0.000350795 4.55307e-06 1.54176e-06
4.55307e-06 -9.30207e-05 -4.38968e-09
1.54176e-06 -4.38968e-09 -0.000142888
0.000310198 -9.3588e-05 -1.80099e-06
-9.3588e-05 -8.3007e-05 -6.43295e-07
-1.80099e-06 -6.43295e-07 -0.000178479
0.00205609 -7.06312e-06 -9.61325e-06
-7.06312e-06 0.000939744 -4.75327e-06
-9.61325e-06 -4.75327e-06 0.000957826
0.000488137 1.49323e-06 -2.88816e-08
1.49323e-06 -3.71932e-05 -6.19654e-08
-2.88816e-08 -6.19654e-08 -4.59123e-05
0.000466433 -1.71936e-05 -2.41011e-06
-1.71936e-05 -2.00037e-05 1.96073e-06
-2.41011e-06 1.96073e-06 -6.3897e-05
0.00200719 8.18443e-06 -4.47908e-06
8.18443e-06 0.000910176 1.0154e-08
-4.47908e-06 1.0154e-08 0.000928339
0.000475561 3.73483e-06 -1.14864e-06
3.73483e-06 -4.45434e-05 3.21019e-06
-1.14864e-06 3.21019e-06 -5.27392e-05
0.00197352 2.29635e-05 -1.82344e-09
2.29635e-05 0.000890885 4.64717e-06
-1.82344e-09 4.64717e-06 0.000908399
-4.57467e-05 -0.000585264 -0.00020506
-0.000585264 -0.000169426 6.82944e-05
-0.00020506 6.82944e-05 -0.00286206
0.00144232 0.000424846 -8.42067e-05
0.000424846 0.00642292 1.04838e-05
-8.42067e-05 1.04838e-05 0.00307335
0.00161742 -0.000174948 -0.000655356
-0.000174948 0.00337621 0.000113214
-0.000655356 0.000113214 0.00168757
0.00069667 0.000116552 3.69419e-06
0.000116552 0.000153741 4.5002e-06
3.69419e-06 4.5002e-06 3.11045e-06
0.00443053 -0.000701344 -5.13457e-05
-0.000701344 0.0029853 0.000195742
-5.13457e-05 0.000195742 0.00110058
0.00394505 -0.00106957 -0.000235708
-0.00106957 0.00160227 1.94385e-05
-0.000235708 1.94385e-05 -0.00274874
0.00808105 0.00228711 0.000329451
0.00228711 0.0065041 -0.000280969
0.000329451 -0.000280969 0.00328027
0.00652293 -0.000779749 9.08321e-05
-0.000779749 0.000830714 -2.26533e-05
9.08321e-05 -2.26533e-05 0.000915654
0.0125303 -0.00176724 0.000228084
-0.00176724 0.00121363 -9.91808e-05
0.000228084 -9.91808e-05 -0.000257684
0.00418087 0.00403793 -0.000484538
0.00403793 -0.00127198 0.000371441
-0.000484538 0.000371441 -0.00332769
0.0120047 0.00368801 5.47028e-05
0.00368801 0.00341754 0.000179094
5.47028e-05 0.000179094 0.00129303
0.00657016 -0.00172995 -0.000123381
-0.00172995 0.000177854 -7.58373e-06
-0.000123381 -7.58373e-06 0.000359447
0.0168804 -0.00299198 4.32565e-05
-0.00299198 0.00459052 -2.81236e-05
4.32565e-05 -2.81236e-05 0.00222545
0.00798906 0.00241808 0.000152005
0.00241808 0.00187883 -0.000291118
0.000152005 -0.000291118 -0.00116644
0.0103804 0.00119185 1.44214e-05
0.00119185 -0.00088048 3.23238e-05
1.44214e-05 3.23238e-05 -0.000275559
0.00312311 -0.00213534 -3.55521e-05
-0.00213534 -5.39043e-05 4.58758e-05
-3.55521e-05 4.58758e-05 -0.000318934
0.0116493 -0.0035126 0.000146492
-0.0035126 0.00486101 -9.65003e-05
0.000146492 -9.65003e-05 0.000623554
0.00805746 -0.00012497 0.000125492
-0.00012497 0.0034483 -0.000383918
0.000125492 -0.000383918 0.00122202
0.0109308 0.000660156 -0.000103018
0.000660156 -0.00137593 0.000210762
-0.000103018 0.000210762 0.000994652
0.000650958 1.44939e-05 2.67225e-06
1.44939e-05 0.000215803 5.87443e-06
2.67225e-06 5.87443e-06 4.96387e-06
0.000824224 -0.000125595 2.63079e-08
-0.000125595 0.00033787 1.65152e-08
2.63079e-08 1.65152e-08 0.000111796
0.000784437 0.000142737 4.14828e-07
0.000142737 0.000252829 -4.87355e-06
4.14828e-07 -4.87355e-06 0.000108499
0.00057013 0.000110112 1.75575e-07
0.000110112 6.55403e-05 7.18839e-06
1.75575e-07 7.18839e-06 -7.67323e-05
0.000792643 0.000160479 4.10422e-07
0.000160479 0.000259892 7.28913e-07
4.10422e-07 7.28913e-07 7.52511e-05
0.00101826 8.20586e-05 -5.44693e-06
8.20586e-05 0.000397715 -3.70504e-06
-5.44693e-06 -3.70504e-06 0.000249976
0.0010257 0.000160632 -1.33193e-06
0.000160632 0.000392241 -5.6407e-08
-1.33193e-06 -5.6407e-08 0.000224674
0.00108117 0.000176178 8.7466e-07
0.000176178 0.000449824 2.39012e-06
8.7466e-07 2.39012e-06 0.00027781
-0.000224503 -0.000439548 9.09992e-05
-0.000439548 -0.00123471 -5.60732e-05
9.09992e-05 -5.60732e-05 -0.00111177
0.0021564 -0.000757218 5.48264e-06
-0.000757218 0.00037522 -1.40039e-05
5.48264e-06 -1.40039e-05 0.000333774
0.00104141 -0.000229551 2.46693e-07
-0.000229551 0.000484673 -2.14309e-05
2.46693e-07 -2.14309e-05 0.000215973
0.00155168 -0.000666002 1.94599e-05
-0.000666002 0.000740772 -2.95738e-05
1.94599e-05 -2.95738e-05 0.00039425
0.00252949 -0.000398543 -1.62789e-05
-0.000398543 0.00143983 1.58283e-05
-1.62789e-05 1.58283e-05 0.00108077
0.00146752 -0.00013443 1.99918e-07
-0.00013443 0.000720556 -1.98806e-05
1.99918e-07 -1.98806e-05 0.000477459
6.24717e-05 -6.29085e-05 2.15405e-06
-6.29085e-05 -0.000167371 6.23635e-06
2.15405e-06 6.23635e-06 -0.000363936
0.000117899 -0.000927379 9.40557e-07
-0.000927379 -0.000936128 -1.60853e-06
9.40557e-07 -1.60853e-06 -0.000878148
0.00132347 4.87346e-05 -7.6727e-07
4.87346e-05 0.000760175 -1.19079e-06
-7.6727e-07 -1.19079e-06 0.000466374
0.000577743 -0.000218253 5.26368e-06
-0.000218253 0.000409083 2.31217e-06
5.26368e-06 2.31217e-06 -7.25054e-07
0.000651055 -0.000402881 8.52026e-06
-0.000402881 4.91257e-05 4.3052e-06
8.52026e-06 4.3052e-06 3.30282e-05
0.00117369 0.000121192 -5.38954e-07
0.000121192 0.000502328 -1.68265e-06
-5.38954e-07 -1.68265e-06 0.000335599
1.568e-05 -0.000795257 -2.64306e-05
-0.000795257 -0.000499519 -3.69718e-05
-2.64306e-05 -3.69718e-05 -0.000580216
-0.000875159 -0.000374123 -1.00204e-05
-0.000374123 -0.000535884 3.19452e-05
-1.00204e-05 3.19452e-05 -0.000733589
-0.000172356 0.000116503 2.08338e-05
0.000116503 0.000254696 -2.28038e-05
2.08338e-05 -2.28038e-05 -0.000291526
0.00149039 0.000254136 -1.97088e-06
0.000254136 0.000794973 -4.46706e-06
-1.97088e-06 -4.46706e-06 0.000589441
-0.000945028 6.60357e-05 6.95292e-05
6.60357e-05 0.00112246 8.40359e-06
6.95292e-05 8.40359e-06 0.000395722
0.000666409 -2.90988e-05 0.000132242
-2.90988e-05 0.00125873 -2.9246e-05
0.000132242 -2.9246e-05 -0.0022494
-0.00995436 -0.000268013 -0.000224671
-0.000268013 0.00519167 2.20593e-05
-0.000224671 2.20593e-05 0.000131753
0.00164153 0.000455538 1.8516e-05
0.000455538 0.000947353 1.03208e-06
1.8516e-05 1.03208e-06 0.000681313
-0.000914508 0.000551446 8.50336e-06
0.000551446 -0.00048957 1.49101e-05
8.50336e-06 1.49101e-05 -0.000878414
0.00520158 0.000515661 0.000237254
0.000515661 0.00332409 3.98867e-05
0.000237254 3.98867e-05 0.00130813
0.0105925 0.00299871 0.000263215
0.00299871 0.00373749 0.000171254
0.000263215 0.000171254 -0.000328651
0.00315345 0.00173194 -7.52942e-05
0.00173194 0.00198541 -8.19872e-05
-7.52942e-05 -8.19872e-05 0.00065538
0.00514585 -0.00197244 -0.000154279
-0.00197244 0.00352473 -0.000399275
-0.000154279 -0.000399275 0.000332202
0.00219598 0.000447493 0.000110989
0.000447493 0.000247491 0.000180393
0.000110989 0.000180393 -0.00131071
0.0065913 -0.000152346 -3.72292e-05
-0.000152346 -0.00522185 -0.000215431
-3.72292e-05 -0.000215431 -0.00195511
0.000767719 0.000368373 6.59305e-06
0.000368373 0.000616389 2.0325e-06
6.59305e-06 2.0325e-06 0.000294382
-0.00196134 3.63523e-05 -1.94553e-06
3.63523e-05 -6.52458e-05 2.38197e-07
-1.94553e-06 2.38197e-07 -0.000325081
0.00388015 1.91911e-05 8.97273e-05
1.91911e-05 -0.000231275 2.40639e-05
8.97273e-05 2.40639e-05 -0.000662104
-0.00152709 0.000348288 -1.14879e-05
0.000348288 -0.000340539 -8.93043e-06
-1.14879e-05 -8.93043e-06 -0.000989864
0.0101718 0.00132495 -7.05096e-06
0.00132495 -0.000762072 -2.95346e-05
-7.05096e-06 -2.95346e-05 -0.00027264
0.00284052 0.00159061 0.000180878
0.00159061 0.00342232 0.000117012
0.000180878 0.000117012 -0.00188172
0.00587995 0.000627575 -0.000149403
0.000627575 0.00298203 1.16202e-06
-0.000149403 1.16202e-06 -9.13555e-05
0.000479281 0.000361359 -7.1268e-06
0.000361359 0.000497813 -2.45341e-05
-7.1268e-06 -2.45341e-05 4.09833e-05
0.00127223 1.50309e-05 1.30785e-05
1.50309e-05 -0.000108623 -2.177e-05
1.30785e-05 -2.177e-05 -0.000132337
0.00374023 -0.000786599 3.97696e-05
-0.000786599 0.00292668 -0.000200843
3.97696e-05 -0.000200843 0.00122649
0.0160084 0.00386033 0.000286396
0.00386033 0.00425158 -0.000240122
0.000286396 -0.000240122 0.00287155
0.00745544 -5.17834e-05 -0.000102542
-5.17834e-05 0.0034076 0.000391992
-0.000102542 0.000391992 0.000970666
0.000635841 0.00037296 -9.43289e-06
0.00037296 0.000591785 -0.000120779
-9.43289e-06 -0.000120779 8.45308e-05
0.00310853 0.00151175 0.000234769
0.00151175 0.00515027 3.81801e-05
0.000234769 3.81801e-05 -0.00242409
0.00131635 0.000291957 3.7998e-06
0.000291957 0.000870287 1.12061e-05
3.7998e-06 1.12061e-05 0.000555042
0.000675294 0.000213871 3.16618e-06
0.000213871 0.000697631 -1.36646e-07
3.16618e-06 -1.36646e-07 0.000311039
2.57842e-05 -2.58102e-05 -1.19843e-05
-2.58102e-05 0.000411206 -6.41788e-06
-1.19843e-05 -6.41788e-06 9.80509e-05
0.000105204 -5.09064e-05 1.01777e-06
-5.09064e-05 -0.000184515 6.27832e-06
1.01777e-06 6.27832e-06 -0.000306946
0.00115224 -1.01255e-05 5.16938e-06
-1.01255e-05 0.000845657 -3.12604e-06
5.16938e-06 -3.12604e-06 0.000507378
4.46996e-05 7.33564e-05 3.63129e-06
7.33564e-05 0.000345422 -1.20437e-06
3.63129e-06 -1.20437e-06 -9.83951e-05
0.000413512 -3.45625e-05 1.12608e-06
-3.45625e-05 0.000297839 -1.52307e-07
1.12608e-06 -1.52307e-07 5.66458e-05
3.85792e-05 -9.77504e-06 5.52642e-06
-9.77504e-06 0.000276867 6.25185e-07
5.52642e-06 6.25185e-07 -9.22784e-05
0.00103387 -0.000248852 -1.23796e-06
-0.000248852 0.00067084 -1.23195e-05
-1.23796e-06 -1.23195e-05 0.000373242
0.000803348 -8.21346e-05 -5.15843e-06
-8.21346e-05 0.000355709 7.97781e-06
-5.15843e-06 7.97781e-06 0.000216634
0.000679176 -1.6873e-05 -7.87192e-07
-1.6873e-05 0.000165561 1.88732e-06
-7.87192e-07 1.88732e-06 4.14897e-05
0.00140595 -0.000241289 2.27143e-06
-0.000241289 0.000622437 4.33005e-06
2.27143e-06 4.33005e-06 0.000455081
-0.00167841 -0.000209193 1.7292e-05
-0.000209193 -0.0010889 1.05773e-05
1.7292e-05 1.05773e-05 -0.00139984
-2.98044e-05 -0.000115504 6.59683e-06
-0.000115504 -0.000272702 -3.18237e-06
6.59683e-06 -3.18237e-06 -0.000313362
-0.000140681 -0.000302268 -9.01597e-07
-0.000302268 -0.000413775 -3.52977e-06
-9.01597e-07 -3.52977e-06 -0.000657821
0.00127674 -0.000479816 1.85234e-06
-0.000479816 0.000314684 -2.56923e-06
1.85234e-06 -2.56923e-06 -8.25494e-05
0.00163066 -0.000554691 -3.90764e-06
-0.000554691 0.000405157 -1.23813e-06
-3.90764e-06 -1.23813e-06 1.44235e-05
0.00191029 -0.000355228 4.71475e-06
-0.000355228 0.00081282 -2.36807e-06
4.71475e-06 -2.36807e-06 0.000608608
0.00128493 -0.000420319 1.99119e-06
-0.000420319 0.000351044 5.38453e-07
1.99119e-06 5.38453e-07 2.89761e-05
0.00161139 -0.000458176 3.09457e-06
-0.000458176 0.000422623 -2.36345e-06
3.09457e-06 -2.36345e-06 0.000101524
0.000595095 -0.000273174 -3.30755e-06
-0.000273174 -9.74263e-05 4.96465e-06
-3.30755e-06 4.96465e-06 -0.000352117
0.00104031 -0.000384548 1.92537e-06
-0.000384548 0.000102306 -5.27768e-06
1.92537e-06 -5.27768e-06 -0.000205501
0.000452653 -0.000127663 5.61304e-07
-0.000127663 3.5888e-05 -3.24031e-06
5.61304e-07 -3.24031e-06 -0.000205401
0.00113792 -0.000315767 -6.2165e-06
-0.000315767 0.000388905 4.45909e-06
-6.2165e-06 4.45909e-06 0.000135856
-0.00126565 -7.37945e-05 -1.91397e-06
-7.37945e-05 -0.00119253 -8.5322e-06
-1.91397e-06 -8.5322e-06 -0.00139238
0.000327283 -4.7827e-05 4.4884e-07
-4.7827e-05 -9.45477e-05 -6.45429e-08
4.4884e-07 -6.45429e-08 -0.000234912
0.000506457 -0.000120163 9.66615e-08
-0.000120163 7.6751e-05 1.49462e-07
9.66615e-08 1.49462e-07 -0.000131733
0.00103034 -0.000221001 7.11268e-06
-0.000221001 0.000415698 -1.89716e-06
7.11268e-06 -1.89716e-06 0.000198908
0.000456146 -0.000106215 6.99822e-07
-0.000106215 2.86687e-05 2.2781e-06
6.99822e-07 2.2781e-06 -0.000133881
0.000710487 -8.00117e-05 -1.79075e-07
-8.00117e-05 0.000155103 3.49749e-07
-1.79075e-07 3.49749e-07 1.85484e-05
0.000530146 3.04007e-06 5.52972e-07
3.04007e-06 2.58089e-05 4.51665e-06
5.52972e-07 4.51665e-06 -6.84298e-05
0.000893372 -0.000110151 -6.54475e-07
-0.000110151 0.000286407 -9.75193e-07
-6.54475e-07 -9.75193e-07 0.000147502
0.000569874 3.6914e-06 -1.21178e-06
3.6914e-06 5.26711e-05 -2.9751e-07
-1.21178e-06 -2.9751e-07 -3.22393e-05
0.000429978 3.86332e-05 3.09215e-07
3.86332e-05 -5.78323e-05 6.0385e-06
3.09215e-07 6.0385e-06 -8.95994e-05
0.000687366 -5.36575e-05 2.20043e-06
-5.36575e-05 0.000121136 -3.37247e-06
2.20043e-06 -3.37247e-06 4.28468e-05
0.000472253 1.01122e-05 -6.57041e-07
1.01122e-05 -4.06118e-05 -4.91771e-08
-6.57041e-07 -4.91771e-08 -6.74488e-05
0.00252602 8.84689e-05 -2.77212e-06
8.84689e-05 0.00123916 2.42859e-06
-2.77212e-06 2.42859e-06 0.00124502
0.000481809 -3.57839e-06 2.33643e-06
-3.57839e-06 -3.40007e-05 -5.51962e-06
2.33643e-06 -5.51962e-06 -5.96568e-05
0.00172929 4.80436e-05 1.47217e-05
4.80436e-05 0.000739613 -1.07847e-06
1.47217e-05 -1.07847e-06 0.000744931
0.0025797 4.49712e-05 1.9693e-05
4.49712e-05 0.00126874 -5.4628e-06
1.9693e-05 -5.4628e-06 0.00128014
0.000301452 1.54501e-05 1.06392e-06
1.54501e-05 -0.000103313 -3.38207e-07
1.06392e-06 -3.38207e-07 -0.000219168
0.000226911 1.00306e-05 1.13056e-06
1.00306e-05 -0.000170206 -3.13316e-06
1.13056e-06 -3.13316e-06 -0.000239766
0.000493076 3.1739e-05 -5.32055e-07
3.1739e-05 3.02558e-05 -1.15833e-06
-5.32055e-07 -1.15833e-06 -8.95482e-05
0.000510928 -2.06392e-06 1.84864e-06
-2.06392e-06 -2.43644e-05 -4.13799e-06
1.84864e-06 -4.13799e-06 -3.75836e-05
0.000207386 1.36793e-05 -6.04384e-07
1.36793e-05 -0.000180505 -1.6991e-06
-6.04384e-07 -1.6991e-06 -0.000241867
0.000670345 5.27762e-05 -5.67919e-07
5.27762e-05 0.000149163 1.43145e-06
-5.67919e-07 1.43145e-06 3.50591e-05
0.00208324 -2.04327e-05 -1.4918e-05
-2.04327e-05 0.000955914 -4.64651e-06
-1.4918e-05 -4.64651e-06 0.000973621
0.000492547 -8.30556e-07 -5.15541e-07
-8.30556e-07 -3.54944e-05 -6.09714e-08
-5.15541e-07 -6.09714e-08 -4.56939e-05
0.000141807 1.23321e-05 9.8609e-07
1.23321e-05 -0.000219597 1.47256e-06
9.8609e-07 1.47256e-06 -0.00027302
0.00202972 -5.72297e-06 -3.97676e-06
-5.72297e-06 0.000923144 4.77259e-08
-3.97676e-06 4.77259e-08 0.000941436
0.000478485 1.10359e-06 -1.33615e-06
1.10359e-06 -4.36625e-05 3.40413e-06
-1.33615e-06 3.40413e-06 -5.2098e-05
0.00203775 9.6894e-06 5.27373e-06
9.6894e-06 0.000929525 4.76463e-06
5.27373e-06 4.76463e-06 0.000947388
0.000393081 -3.40023e-05 9.18918e-05
-3.40023e-05 0.00152604 2.75859e-05
9.18918e-05 2.75859e-05 0.00116554
-8.40841e-05 -0.000314564 -3.63083e-05
-0.000314564 0.000283408 -1.35838e-05
-3.63083e-05 -1.35838e-05 -0.00297196
0.000322777 0.000397738 8.73432e-06
0.000397738 0.0061078 -3.66023e-05
8.73432e-06 -3.66023e-05 0.00276043
0.000767788 0.000124656 2.51358e-07
0.000124656 0.000190617 1.92124e-07
2.51358e-07 1.92124e-07 4.89008e-05
0.000460225 8.66071e-05 4.6884e-06
8.66071e-05 -1.68113e-05 3.94985e-06
4.6884e-06 3.94985e-06 -0.000145758
0.00102165 0.000177893 5.51781e-06
0.000177893 0.000347905 6.05454e-06
5.51781e-06 6.05454e-06 0.00020362
0.00490336 -0.000152674 -4.36403e-05
-0.000152674 -0.00042839 0.000224861
-4.36403e-05 0.000224861 -0.0012364
0.0043669 -0.000733453 6.94179e-05
-0.000733453 0.00274128 -1.85501e-06
6.94179e-05 -1.85501e-06 0.00135586
0.00452439 -0.00133014 0.000144486
-0.00133014 0.00193079 -0.000216143
0.000144486 -0.000216143 -0.00254047
0.00819985 -0.00212487 -4.9907e-05
-0.00212487 0.000604988 -2.37853e-05
-4.9907e-05 -2.37853e-05 0.00101525
0.000441727 -0.00241574 -0.000312107
-0.00241574 -0.0017599 9.84178e-05
-0.000312107 9.84178e-05 -0.00479346
0.0228326 0.00340841 0.000156564
0.00340841 0.00903881 0.000128939
0.000156564 0.000128939 0.00563278
0.00632792 3.63641e-05 0.000222597
3.63641e-05 -0.00301842 -0.000198758
0.000222597 -0.000198758 -0.00288825
0.00475703 -0.00239949 -3.61601e-05
-0.00239949 0.000356652 1.5699e-05
-3.61601e-05 1.5699e-05 0.000373913
0.00713575 -0.00311798 -9.02205e-05
-0.00311798 0.00274566 2.20166e-05
-9.02205e-05 2.20166e-05 -0.00161111
-0.00329456 0.00316881 -8.26245e-05
0.00316881 0.00280855 -0.000268149
-8.26245e-05 -0.000268149 -0.00134583
0.00878667 0.000239176 -5.55142e-05
0.000239176 -0.00354813 0.000119991
-5.55142e-05 0.000119991 -0.000534531
0.00084947 -0.00144931 -0.000126037
-0.00144931 0.000294836 4.13109e-05
-0.000126037 4.13109e-05 -1.17393e-05
0.0102892 -0.00252821 -0.000242828
-0.00252821 0.00525599 0.000149595
-0.000242828 0.000149595 0.000475625
-0.00215456 -4.07696e-05 3.4482e-05
-4.07696e-05 0.00191177 -0.000328971
3.4482e-05 -0.000328971 -0.00142231
0.00813241 -0.00118571 0.000100419
-0.00118571 -0.00200849 4.86559e-05
0.000100419 4.86559e-05 -0.00110101
0.000359079 8.96342e-05 2.65242e-06
8.96342e-05 -2.71049e-05 1.32189e-05
2.65242e-06 1.32189e-05 -0.000173246
0.000771573 -2.01815e-05 2.684e-06
-2.01815e-05 0.000274604 -2.43158e-06
2.684e-06 -2.43158e-06 5.76493e-05
0.00068582 -0.000128294 6.72172e-08
-0.000128294 0.00019683 -9.17268e-06
6.72172e-08 -9.17268e-06 -6.78623e-06
0.000684114 0.000122913 -1.85864e-06
0.000122913 0.000139039 9.85245e-07
-1.85864e-06 9.85245e-07 -9.85564e-06
0.000777978 0.000142003 1.43384e-06
0.000142003 0.000253993 -3.5468e-06
1.43384e-06 -3.5468e-06 7.90517e-05
0.0011666 0.000182103 -3.48091e-06
0.000182103 0.000483799 -2.34153e-06
-3.48091e-06 -2.34153e-06 0.000312625
-0.00112531 -0.000789133 2.45459e-05
-0.000789133 -0.00157223 -7.42083e-06
2.45459e-05 -7.42083e-06 -0.00152567
0.00101138 -0.000346773 3.448e-05
-0.000346773 0.000254513 -2.87028e-05
3.448e-05 -2.87028e-05 0.000276242
-3.2486e-05 3.74217e-06 -1.52443e-06
3.74217e-06 -0.000217428 -1.01362e-05
-1.52443e-06 -1.01362e-05 -0.000419268
0.00175939 -0.000410064 5.00029e-05
-0.000410064 0.00102979 -2.52525e-05
5.00029e-05 -2.52525e-05 0.00064982
0.00160951 -5.81873e-05 -5.64814e-06
-5.81873e-05 0.000906986 5.27704e-06
-5.64814e-06 5.27704e-06 0.000629046
0.000370313 9.92215e-05 3.04261e-06
9.92215e-05 4.82525e-05 2.77399e-06
3.04261e-06 2.77399e-06 -0.000131647
0.000949484 0.000158209 -3.48575e-07
0.000158209 0.000456718 -2.32912e-06
-3.48575e-07 -2.32912e-06 0.00027849
0.00031378 -0.000945183 -2.53138e-06
-0.000945183 -0.000380424 -5.81072e-06
-2.53138e-06 -5.81072e-06 -0.000599996
0.000137977 3.77907e-06 -6.80993e-06
3.77907e-06 0.000415666 5.03799e-06
-6.80993e-06 5.03799e-06 -9.00381e-05
0.00167252 -0.000300713 8.44353e-06
-0.000300713 0.000805938 -9.52831e-06
8.44353e-06 -9.52831e-06 0.000576081
0.00125702 0.000169826 7.58959e-08
0.000169826 0.000636088 -1.07545e-05
7.58959e-08 -1.07545e-05 0.000466698
-0.00286964 -0.000111025 -0.000113856
-0.000111025 -0.000782871 -1.22434e-05
-0.000113856 -1.22434e-05 -0.00156902
-0.000200334 -0.000136238 -1.73937e-05
-0.000136238 0.000220869 8.00212e-06
-1.73937e-05 8.00212e-06 -0.000119112
0.000257592 0.000138874 -1.58843e-06
0.000138874 0.000438946 9.69567e-06
-1.58843e-06 9.69567e-06 3.94042e-05
-8.84449e-05 0.00010047 -5.40408e-06
0.00010047 -0.000605114 1.03781e-06
-5.40408e-06 1.03781e-06 -0.00132777
-0.00139964 9.56028e-05 2.68701e-05
9.56028e-05 0.000830158 -1.53793e-05
2.68701e-05 -1.53793e-05 0.00016964
-0.000117197 -0.000138387 0.000286165
-0.000138387 0.000763651 1.55893e-05
0.000286165 1.55893e-05 -0.0027558
-0.000149996 0.00032787 -3.07016e-06
0.00032787 6.26349e-05 1.69335e-05
-3.07016e-06 1.69335e-05 -0.00027763
0.000751339 0.000712697 -1.07242e-05
0.000712697 0.000411509 -3.44537e-06
-1.07242e-05 -3.44537e-06 -0.000132139
-0.00179647 5.50567e-06 -1.34122e-05
5.50567e-06 -4.84424e-05 -9.91247e-06
-1.34122e-05 -9.91247e-06 -0.000430968
-0.00405633 0.000683001 4.79553e-05
0.000683001 0.00205292 0.000157786
4.79553e-05 0.000157786 -0.00297661
-0.00381403 0.00127147 -0.000183016
0.00127147 -0.00238591 -0.000419124
-0.000183016 -0.000419124 -0.0062007
0.0032729 7.78235e-05 7.09049e-05
7.78235e-05 -0.000262841 0.000101816
7.09049e-05 0.000101816 -0.000214976
0.00606831 0.000144441 -0.000225751
0.000144441 -0.00274326 0.000203723
-0.000225751 0.000203723 -0.00284515
0.000329964 0.000290421 2.13773e-06
0.000290421 0.000467342 -1.19787e-06
2.13773e-06 -1.19787e-06 7.41633e-05
0.000980108 -7.69531e-06 2.63717e-05
-7.69531e-06 -0.000201583 -2.44348e-05
2.63717e-05 -2.44348e-05 -0.000199856
0.0037701 -0.000587301 -7.04266e-05
-0.000587301 0.00266198 5.45367e-06
-7.04266e-05 5.45367e-06 0.00128178
0.000234063 0.000544437 -0.000100784
0.000544437 0.001041 -6.26022e-06
-0.000100784 -6.26022e-06 -0.000135183
0.0115375 0.00395222 5.86913e-05
0.00395222 0.00152846 -0.000344869
5.86913e-05 -0.000344869 -5.09562e-05
-0.000778497 0.00242439 6.4624e-05
0.00242439 0.00300994 0.0002727
6.4624e-05 0.0002727 -0.000948906
0.00566906 0.000418523 5.0818e-05
0.000418523 0.00592211 -2.29038e-05
5.0818e-05 -2.29038e-05 -0.000918433
0.000873552 -8.52368e-06 3.03948e-05
-8.52368e-06 0.00136607 -2.80312e-05
3.03948e-05 -2.80312e-05 0.000502574
0.000128863 -9.51638e-05 -7.76032e-05
-9.51638e-05 0.00150074 3.71243e-06
-7.76032e-05 3.71243e-06 0.00107399
0.00233529 -0.000807459 0.000595985
-0.000807459 0.000825539 -0.000235077
0.000595985 -0.000235077 -0.00367932
0.0145691 0.00554938 -3.91478e-05
0.00554938 0.00994684 9.3107e-06
-3.91478e-05 9.3107e-06 0.00801866
0.00194924 0.00309597 -0.000152691
0.00309597 -0.000370282 0.000666362
-0.000152691 0.000666362 -0.00317236
0.0119172 -0.00276941 0.0002204
-0.00276941 0.00551705 -0.00019031
0.0002204 -0.00019031 0.000431505
0.00344874 -0.000696419 -6.97204e-05
-0.000696419 0.00261478 4.49814e-05
-6.97204e-05 4.49814e-05 0.00186737
0.00132754 0.000279751 5.78597e-06
0.000279751 0.00107469 5.27134e-06
5.78597e-06 5.27134e-06 0.000686412
-0.000137105 -3.06682e-05 -3.8134e-06
-3.06682e-05 0.000247582 -2.98586e-06
-3.8134e-06 -2.98586e-06 -7.41163e-05
0.00198949 -0.000459187 3.14267e-05
-0.000459187 0.00120971 -1.30595e-05
3.14267e-05 -1.30595e-05 0.00079617
0.000681277 -8.05945e-05 5.90757e-07
-8.05945e-05 0.000413269 3.34447e-06
5.90757e-07 3.34447e-06 0.000213819
0.000104574 -1.99962e-05 -4.08189e-07
-1.99962e-05 0.000298359 -3.62232e-06
-4.08189e-07 -3.62232e-06 -5.64612e-05
0.000203928 -0.000221709 -3.64383e-06
-0.000221709 0.000302151 3.97532e-07
-3.64383e-06 3.97532e-07 -1.22559e-05
0.000518961 -0.000436053 2.32596e-05
-0.000436053 0.000124456 -2.34351e-05
2.32596e-05 -2.34351e-05 -8.19158e-05
0.00249237 -0.000337834 -1.94529e-06
-0.000337834 0.00128129 2.5415e-06
-1.94529e-06 2.5415e-06 0.00108041
0.00227644 -0.000625711 1.38618e-05
-0.000625711 0.00106079 -3.85321e-06
1.38618e-05 -3.85321e-06 0.000703231
0.00156537 -0.000556435 9.97148e-06
-0.000556435 0.000625202 -2.74342e-06
9.97148e-06 -2.74342e-06 9.29908e-05
0.000355926 -0.000298201 -3.9603e-06
-0.000298201 -0.000156871 -2.46826e-06
-3.9603e-06 -2.46826e-06 -0.000358797
0.00151866 -0.00050572 -2.17742e-06
-0.00050572 0.000408637 2.59398e-07
-2.17742e-06 2.59398e-07 1.14678e-05
0.00216357 -0.000685913 -8.57306e-07
-0.000685913 0.000712264 6.42008e-07
-8.57306e-07 6.42008e-07 0.000216496
0.00181477 -0.000704282 -6.67833e-06
-0.000704282 0.000382564 1.70277e-06
-6.67833e-06 1.70277e-06 -5.25152e-05
0.00163278 -0.000572476 -1.12596e-06
-0.000572476 0.000403935 -5.36092e-07
-1.12596e-06 -5.36092e-07 2.47202e-05
0.0015265 -0.000546991 -4.71473e-06
-0.000546991 0.000336626 1.58181e-06
-4.71473e-06 1.58181e-06 -5.38378e-05
0.00112224 -0.000405495 -2.64216e-06
-0.000405495 0.000218769 -3.32142e-06
-2.64216e-06 -3.32142e-06 -0.000109281
0.00185584 -0.000449541 5.59155e-06
-0.000449541 0.000643945 1.5484e-06
5.59155e-06 1.5484e-06 0.000343598
0.00150507 -0.000451379 4.91028e-06
-0.000451379 0.000361413 -2.99829e-06
4.91028e-06 -2.99829e-06 3.98517e-05
0.000364165 -0.000175063 1.88687e-06
-0.000175063 -0.000123849 1.09671e-06
1.88687e-06 1.09671e-06 -0.000356665
0.000916361 -0.000318599 2.77394e-06
-0.000318599 0.000115983 -6.17073e-07
2.77394e-06 -6.17073e-07 -0.00014817
0.000275818 -0.000292479 -1.06479e-06
-0.000292479 -0.000353791 -7.96475e-06
-1.06479e-06 -7.96475e-06 -0.000636169
-0.00018868 -2.23026e-05 -1.14145e-07
-2.23026e-05 -0.000371024 7.68678e-07
-1.14145e-07 7.68678e-07 -0.000576025
0.00105691 -0.000191925 -4.79213e-07
-0.000191925 0.000412436 -2.17081e-07
-4.79213e-07 -2.17081e-07 0.000161617
0.00112911 -0.000338032 -1.20224e-07
-0.000338032 0.000400555 -2.48237e-06
-1.20224e-07 -2.48237e-06 0.000128424
0.000658407 -2.26332e-05 -1.10462e-06
-2.26332e-05 0.000102927 4.92452e-06
-1.10462e-06 4.92452e-06 -3.21796e-06
0.000817608 -0.000106821 -3.99194e-07
-0.000106821 0.000207212 -1.77972e-07
-3.99194e-07 -1.77972e-07 5.75575e-05
0.0001512 -9.58814e-05 1.30584e-06
-9.58814e-05 -0.000132445 1.37535e-06
1.30584e-06 1.37535e-06 -0.000333016
0.000832649 -0.000106454 1.12906e-06
-0.000106454 0.000237607 -9.44464e-07
1.12906e-06 -9.44464e-07 9.40432e-05
0.000614345 -3.92319e-05 -5.40397e-08
-3.92319e-05 7.53157e-05 -2.3044e-07
-5.40397e-08 -2.3044e-07 -1.93244e-05
0.000427694 3.13998e-05 7.547e-07
3.13998e-05 -5.3098e-05 7.49232e-06
7.547e-07 7.49232e-06 -9.02626e-05
0.000644914 -4.53609e-05 1.378e-06
-4.53609e-05 9.39651e-05 -3.76194e-06
1.378e-06 -3.76194e-06 9.87147e-06
0.000497673 2.23459e-05 -1.86572e-06
2.23459e-05 -1.89765e-05 -2.03737e-07
-1.86572e-06 -2.03737e-07 -4.97064e-05
0.00265455 9.60135e-05 -3.37284e-05
9.60135e-05 0.0013261 4.42994e-06
-3.37284e-05 4.42994e-06 0.00133108
0.000516627 5.79811e-06 2.26563e-06
5.79811e-06 -1.41654e-05 -5.59685e-06
2.26563e-06 -5.59685e-06 -4.08066e-05
0.00170819 6.30488e-05 1.69932e-05
6.30488e-05 0.000729268 -8.19576e-07
1.69932e-05 -8.19576e-07 0.000732644
0.00262288 6.30504e-05 2.45621e-05
6.30504e-05 0.00129699 -5.11745e-06
2.45621e-05 -5.11745e-06 0.0013067
0.000714685 8.72563e-05 3.40054e-06
8.72563e-05 0.000162558 5.20318e-07
3.40054e-06 5.20318e-07 3.45353e-05
0.000527863 4.28751e-05 1.47898e-06
4.28751e-05 1.58153e-05 -2.51917e-06
1.47898e-06 -2.51917e-06 -5.86847e-05
0.000465243 4.90285e-05 -1.11176e-06
4.90285e-05 1.11279e-05 -1.22139e-06
-1.11176e-06 -1.22139e-06 -0.000114448
0.000502595 -1.11221e-06 9.26791e-07
-1.11221e-06 -2.9068e-05 -5.02846e-06
9.26791e-07 -5.02846e-06 -4.65952e-05
0.000350146 3.41464e-05 -2.07882e-06
3.41464e-05 -9.25516e-05 -1.71436e-06
-2.07882e-06 -1.71436e-06 -0.00016155
0.000680452 6.94627e-05 -9.08685e-07
6.94627e-05 0.000149568 -1.41295e-06
-9.08685e-07 -1.41295e-06 2.98426e-05
0.00216922 -3.54302e-05 -1.91212e-05
-3.54302e-05 0.00100971 -4.73559e-06
-1.91212e-05 -4.73559e-06 0.00102604
0.000488759 -4.96572e-06 -9.49934e-08
-4.96572e-06 -3.83623e-05 -1.1476e-07
-9.49934e-08 -1.1476e-07 -5.12586e-05
0.000151134 1.22867e-05 -1.71715e-06
1.22867e-05 -0.000215662 4.31301e-07
-1.71715e-06 4.31301e-07 -0.000278207
0.00211245 -1.9694e-05 -5.09543e-06
-1.9694e-05 0.000974168 1.18926e-07
-5.09543e-06 1.18926e-07 0.000991811
0.000483682 -3.23362e-06 -2.0468e-06
-3.23362e-06 -4.12852e-05 3.46487e-06
-2.0468e-06 3.46487e-06 -5.12502e-05
0.00206196 -4.2789e-06 1.01525e-05
-4.2789e-06 0.000943164 4.77052e-06
1.01525e-05 4.77052e-06 0.000961332
0.00121111 -0.000170551 -3.99987e-05
-0.000170551 -0.000168168 2.96608e-05
-3.99987e-05 2.96608e-05 -0.00023364
-0.000242096 -0.000190705 4.67298e-05
-0.000190705 0.00128923 -2.82559e-06
4.67298e-05 -2.82559e-06 0.000861371
-0.000478437 -0.000339604 0.000146802
-0.000339604 0.000455175 -0.000106598
0.000146802 -0.000106598 -0.00309347
0.00023051 4.62907e-05 3.24408e-06
4.62907e-05 -0.000162984 2.86006e-06
3.24408e-06 2.86006e-06 -0.00029268
0.00182895 9.97871e-05 1.02169e-06
9.97871e-05 0.000808276 2.01419e-06
1.02169e-06 2.01419e-06 0.000654454
0.000723523 0.000133849 -1.81399e-06
0.000133849 0.000164173 -3.17625e-06
-1.81399e-06 -3.17625e-06 2.83305e-05
0.000464812 7.35197e-05 7.18598e-07
7.35197e-05 -2.65951e-05 8.13649e-07
7.18598e-07 8.13649e-07 -0.000147057
0.000511031 9.20138e-05 3.18741e-07
9.20138e-05 2.35224e-05 -4.0914e-07
3.18741e-07 -4.0914e-07 -0.000102624
0.000527441 8.39799e-05 4.75503e-06
8.39799e-05 2.49393e-05 3.19286e-06
4.75503e-06 3.19286e-06 -9.30062e-05
0.000550466 0.00016363 8.28938e-06
0.00016363 8.64727e-05 6.24095e-06
8.28938e-06 6.24095e-06 -5.31144e-05
0.00105044 0.000565753 0.000149877
0.000565753 -0.000445958 0.000238369
0.000149877 0.000238369 -0.00169625
0.00409392 -0.000118767 -3.48396e-05
-0.000118767 -0.000214606 5.7221e-05
-3.48396e-05 5.7221e-05 -0.000799726
0.00375241 -0.000543868 0.000136215
-0.000543868 0.0025178 -9.82351e-05
0.000136215 -9.82351e-05 0.0014593
0.00671714 -0.000108165 -6.0738e-06
-0.000108165 -0.00568182 0.000144998
-6.0738e-06 0.000144998 -0.00195826
0.0032176 -0.00211521 -9.30339e-05
-0.00211521 0.000411172 5.50301e-05
-9.30339e-05 5.50301e-05 0.00027372
0.0011023 -0.00317636 -0.000179586
-0.00317636 0.00134022 7.50265e-05
-0.000179586 7.50265e-05 -0.00379771
0.0135903 0.00358478 9.3383e-05
0.00358478 0.00661605 -0.000126069
9.3383e-05 -0.000126069 0.00284486
0.00281544 -0.00188311 -5.29734e-05
-0.00188311 0.00047078 2.28559e-05
-5.29734e-05 2.28559e-05 0.000586593
-0.00120257 -0.000632987 -4.01836e-05
-0.000632987 0.00322822 4.72771e-05
-4.01836e-05 4.72771e-05 -0.00312927
0.00627371 0.000532765 0.00014987
0.000532765 0.00273448 -1.97422e-05
0.00014987 -1.97422e-05 -0.000209061
0.0138093 -0.00207096 -6.49925e-05
-0.00207096 0.0018451 -2.46113e-05
-6.49925e-05 -2.46113e-05 0.00317207
-0.00209158 -0.000295077 -0.000172334
-0.000295077 -0.000623442 0.000121551
-0.000172334 0.000121551 -0.000569157
0.00345857 0.00195763 -0.000159981
0.00195763 0.00463936 -8.34327e-05
-0.000159981 -8.34327e-05 -0.00177091
-0.00330164 -0.00421613 2.99691e-05
-0.00421613 -0.00105845 -0.000222315
2.99691e-05 -0.000222315 -0.00521246
0.011497 -0.00254254 8.9699e-05
-0.00254254 0.00222335 -0.000527302
8.9699e-05 -0.000527302 0.00148918
0.000976352 2.87948e-05 9.54883e-06
2.87948e-05 0.000441727 3.05351e-06
9.54883e-06 3.05351e-06 0.000266362
0.000713407 0.000159521 -1.07871e-06
0.000159521 0.00020382 -1.76897e-06
-1.07871e-06 -1.76897e-06 5.02368e-05
0.000801553 -1.27552e-05 1.10736e-06
-1.27552e-05 0.000305623 -3.26203e-06
1.10736e-06 -3.26203e-06 7.20514e-05
0.000984808 0.000137067 -2.88716e-06
0.000137067 0.000349225 -7.12934e-06
-2.88716e-06 -7.12934e-06 0.000180843
0.000195364 -0.000764349 5.34397e-06
-0.000764349 -0.000389937 4.09964e-05
5.34397e-06 4.09964e-05 -0.000632571
0.00401413 -0.000335133 -4.02785e-06
-0.000335133 0.00222139 -2.75674e-05
-4.02785e-06 -2.75674e-05 0.00191511
0.000711471 8.10191e-05 -4.65902e-06
8.10191e-05 0.000236795 -9.43842e-06
-4.65902e-06 -9.43842e-06 7.84239e-05
0.000421153 0.00019653 -1.96291e-06
0.00019653 0.000143736 -1.19683e-06
-1.96291e-06 -1.19683e-06 -3.60856e-05
0.000802391 9.10651e-05 -1.17422e-05
9.10651e-05 0.000745384 1.1825e-05
-1.17422e-05 1.1825e-05 0.000340272
0.000487927 5.64244e-05 3.77527e-06
5.64244e-05 0.000127546 3.71077e-06
3.77527e-06 3.71077e-06 -8.84552e-06
0.000171411 0.000177286 8.93413e-08
0.000177286 0.000396804 1.05867e-06
8.93413e-08 1.05867e-06 -1.88436e-05
0.00136137 -0.000337312 5.21694e-06
-0.000337312 0.00127649 3.55347e-06
5.21694e-06 3.55347e-06 0.000285966
5.79944e-05 -0.000125272 1.91791e-05
-0.000125272 0.00053463 1.54191e-06
1.91791e-05 1.54191e-06 0.000170825
-0.000393645 0.000107759 9.17971e-07
0.000107759 -0.00014539 -7.42219e-06
9.17971e-07 -7.42219e-06 -0.000378687
0.00234907 -0.000122515 -3.01054e-05
-0.000122515 0.00321827 -4.17654e-05
-3.01054e-05 -4.17654e-05 0.00165737
0.00117694 0.000317572 -1.26524e-05
0.000317572 0.00111316 2.07448e-05
-1.26524e-05 2.07448e-05 0.000620431
-0.00122697 5.57922e-05 -5.53924e-05
5.57922e-05 0.00116368 3.95412e-06
-5.53924e-05 3.95412e-06 0.000364474
0.000882434 1.74512e-05 7.39382e-06
1.74512e-05 -0.000202676 2.42644e-06
7.39382e-06 2.42644e-06 -0.000379192
-0.00188339 0.000115189 -3.23259e-06
0.000115189 0.000510014 -4.39721e-05
-3.23259e-06 -4.39721e-05 -4.52791e-05
0.000203904 0.000199962 -1.23147e-05
0.000199962 0.00049429 9.55704e-06
-1.23147e-05 9.55704e-06 0.000181271
-0.00133016 0.00067626 0.000111887
0.00067626 -0.000442427 9.49615e-05
0.000111887 9.49615e-05 -0.00105272
0.000720219 4.43079e-06 4.3168e-05
4.43079e-06 -0.000287381 -5.16879e-06
4.3168e-05 -5.16879e-06 -0.000129308
0.0046079 -0.00176733 0.000174137
-0.00176733 0.00492558 -0.00017164
0.000174137 -0.00017164 -0.00256819
0.0151854 0.0031909 -0.000141256
0.0031909 0.00680669 0.000121938
-0.000141256 0.000121938 0.00332867
0.00341726 -0.000441284 -0.000130686
-0.000441284 0.00222036 0.000107624
-0.000130686 0.000107624 0.00128578
0.0113713 0.00383505 -2.73965e-05
0.00383505 0.00346334 -0.000169025
-2.73965e-05 -0.000169025 0.00126165
0.000392225 0.000155894 -5.31097e-05
0.000155894 0.000986573 1.14368e-05
-5.31097e-05 1.14368e-05 0.000138654
0.00019046 -0.000124809 -5.48924e-05
-0.000124809 0.00124834 1.34994e-06
-5.48924e-05 1.34994e-06 0.00100733
0.00343618 -0.00110169 0.000233126
-0.00110169 0.00146001 -2.5388e-05
0.000233126 -2.5388e-05 -0.00288249
-0.00181236 -0.000149114 3.43542e-05
-0.000149114 -0.000437323 2.97431e-05
3.43542e-05 2.97431e-05 -0.000791596
0.00800412 0.00613112 0.000444332
0.00613112 0.0062276 -0.000216506
0.000444332 -0.000216506 0.0046655
0.00676603 0.00250191 -0.000154921
0.00250191 0.00160173 0.000297972
-0.000154921 0.000297972 -0.00136907
-0.00262199 -0.00110639 0.00013575
-0.00110639 0.00232972 -0.000120915
0.00013575 -0.000120915 -0.00440898
-0.000186928 -0.00036204 1.75996e-05
-0.00036204 0.000578515 -2.20062e-05
1.75996e-05 -2.20062e-05 -0.000257747
0.000141727 -0.000548725 0.000220997
-0.000548725 -0.000272631 -5.15609e-05
0.000220997 -5.15609e-05 -0.00290739
-0.00182337 0.000118112 -0.000807315
0.000118112 0.00528826 0.000224995
-0.000807315 0.000224995 0.00211532
0.0123126 0.00566298 -0.000501084
0.00566298 0.00338573 0.000514695
-0.000501084 0.000514695 0.00108247
0.00903214 -0.00269368 -9.618e-05
-0.00269368 0.00361219 3.9436e-05
-9.618e-05 3.9436e-05 -1.11264e-05
0.00287217 -0.00116213 -1.97841e-05
-0.00116213 0.00203509 1.82968e-05
-1.97841e-05 1.82968e-05 0.001418
0.000650272 -6.18305e-05 7.58609e-06
-6.18305e-05 0.000633568 8.75786e-06
7.58609e-06 8.75786e-06 0.000321534
0.000264533 -0.000299079 -3.26498e-07
-0.000299079 0.000361739 -2.93287e-07
-3.26498e-07 -2.93287e-07 -6.31031e-05
0.0010196 -0.000603504 6.75223e-06
-0.000603504 0.000509356 -2.30954e-06
6.75223e-06 -2.30954e-06 0.00032115
-0.000416685 -0.000192949 2.66255e-06
-0.000192949 4.00312e-05 7.19852e-06
2.66255e-06 7.19852e-06 -0.000281981
-0.000763769 -0.000303414 1.13862e-06
-0.000303414 -0.000459466 -1.06199e-06
1.13862e-06 -1.06199e-06 -0.000674399
0.00272916 -0.000728221 4.19242e-05
-0.000728221 0.00110055 -4.51226e-06
4.19242e-05 -4.51226e-06 0.000799058
0.00619469 -0.00106426 -1.44827e-05
-0.00106426 0.00319278 4.95385e-06
-1.44827e-05 4.95385e-06 0.00277784
0.00267498 -0.000697587 7.21415e-06
-0.000697587 0.00114935 -4.44713e-07
7.21415e-06 -4.44713e-07 0.000621157
0.00165347 -0.000682513 1.10455e-05
-0.000682513 0.000417828 -9.52242e-06
1.10455e-05 -9.52242e-06 -0.000131899
0.0015421 -0.000503549 -7.98052e-06
-0.000503549 0.000385673 -3.99143e-06
-7.98052e-06 -3.99143e-06 -6.44556e-06
0.00235756 -0.000717879 3.0288e-06
-0.000717879 0.000796733 -8.31688e-07
3.0288e-06 -8.31688e-07 0.000292573
0.00234465 -0.000764081 2.10944e-06
-0.000764081 0.000719046 -9.70911e-06
2.10944e-06 -9.70911e-06 0.000217379
0.00209461 -0.000658717 -3.27195e-06
-0.000658717 0.000402388 -4.93198e-06
-3.27195e-06 -4.93198e-06 4.40541e-05
0.0022201 -0.000750202 -4.35702e-06
-0.000750202 0.00059031 1.6475e-06
-4.35702e-06 1.6475e-06 0.000173915
0.00207082 -0.000733943 -2.29636e-06
-0.000733943 0.000522642 -1.36632e-09
-2.29636e-06 -1.36632e-09 7.83275e-05
0.00187816 -0.000566238 7.62396e-06
-0.000566238 0.000595046 8.66826e-07
7.62396e-06 8.66826e-07 0.000241134
0.00135958 -0.000534777 1.68455e-06
-0.000534777 0.000245964 -1.93465e-07
1.68455e-06 -1.93465e-07 -0.000119009
0.00125668 -0.000518519 7.17241e-07
-0.000518519 0.000172993 2.41293e-07
7.17241e-07 2.41293e-07 -0.000212913
0.00161669 -0.000380043 3.8096e-06
-0.000380043 0.000535962 1.83742e-06
3.8096e-06 1.83742e-06 0.00026493
0.00143121 -0.000403307 -7.96187e-07
-0.000403307 0.000382417 -1.43285e-06
-7.96187e-07 -1.43285e-06 8.9226e-05
0.00140046 -0.000444154 9.24369e-06
-0.000444154 0.000302508 -2.9058e-06
9.24369e-06 -2.9058e-06 -1.90846e-05
0.000709035 -0.000171533 2.75993e-06
-0.000171533 0.000188557 -1.27417e-06
2.75993e-06 -1.27417e-06 -8.33695e-05
0.000673275 -0.000208969 -1.80304e-06
-0.000208969 8.03564e-05 1.18337e-06
-1.80304e-06 1.18337e-06 -0.000159864
0.00110581 -0.000344669 6.21383e-06
-0.000344669 0.0002444 -7.3867e-06
6.21383e-06 -7.3867e-06 -2.38332e-05
0.000216618 -3.16743e-05 -2.47174e-08
-3.16743e-05 -0.000177959 5.08325e-06
-2.47174e-08 5.08325e-06 -0.000299916
0.000711225 -7.68784e-05 -8.56824e-07
-7.68784e-05 0.000183384 3.92335e-07
-8.56824e-07 3.92335e-07 -3.03502e-05
0.00135055 -0.000262935 1.48387e-06
-0.000262935 0.000605586 4.90164e-08
1.48387e-06 4.90164e-08 0.000343304
0.000416361 1.15363e-05 -4.19934e-06
1.15363e-05 -6.22795e-05 1.10209e-05
-4.19934e-06 1.10209e-05 -0.000102906
0.000650961 -3.63424e-05 -1.76647e-07
-3.63424e-05 9.23396e-05 -5.94538e-08
-1.76647e-07 -5.94538e-08 -1.19522e-05
0.00124545 -0.000157472 9.76856e-08
-0.000157472 0.00047647 -5.68195e-07
9.76856e-08 -5.68195e-07 0.000314376
0.000664179 -4.37223e-05 1.28788e-06
-4.37223e-05 0.000104936 -4.08325e-06
1.28788e-06 -4.08325e-06 1.0289e-05
0.000479074 2.38944e-05 -9.18697e-08
2.38944e-05 -2.39994e-05 -2.24769e-07
-9.18697e-08 -2.24769e-07 -6.01804e-05
0.00278855 0.00011925 -3.50764e-05
0.00011925 0.00141836 4.22043e-06
-3.50764e-05 4.22043e-06 0.00141796
0.000546828 1.87692e-05 1.26258e-06
1.87692e-05 8.80008e-06 -6.46081e-06
1.26258e-06 -6.46081e-06 -2.12724e-05
0.0026727 9.93847e-05 4.10759e-06
9.93847e-05 0.0013381 4.52432e-07
4.10759e-06 4.52432e-07 0.00134237
0.00259789 8.07355e-05 2.80442e-05
8.07355e-05 0.00128528 -4.64189e-06
2.80442e-05 -4.64189e-06 0.00129303
0.000772031 8.48517e-05 2.73913e-06
8.48517e-05 0.000244877 -3.63711e-06
2.73913e-06 -3.63711e-06 6.96465e-05
0.000790513 0.000112451 5.62705e-06
0.000112451 0.000224133 3.62428e-08
5.62705e-06 3.62428e-08 7.15769e-05
0.000580111 3.50148e-05 2.61512e-06
3.50148e-05 4.5816e-05 -3.31341e-06
2.61512e-06 -3.31341e-06 -3.67435e-05
0.000630473 9.86566e-05 2.29138e-07
9.86566e-05 0.00010679 -2.29584e-07
2.29138e-07 -2.29584e-07 -1.90595e-05
0.000486383 -4.7567e-06 4.4008e-07
-4.7567e-06 -3.67018e-05 -6.06173e-06
4.4008e-07 -6.06173e-06 -5.91525e-05
0.000549139 4.60522e-05 2.03929e-07
4.60522e-05 2.92141e-05 -1.42394e-07
2.03929e-07 -1.42394e-07 -4.5337e-05
0.000589148 5.33285e-05 -3.62895e-06
5.33285e-05 7.44406e-05 -1.04867e-06
-3.62895e-06 -1.04867e-06 -4.24292e-05
0.00231745 -5.13901e-05 -2.49934e-05
-5.13901e-05 0.00110377 -4.84667e-06
-2.49934e-05 -4.84667e-06 0.00111771
0.000491559 -6.6464e-06 -7.15177e-07
-6.6464e-06 -3.54589e-05 -1.21508e-07
-7.15177e-07 -1.21508e-07 -5.27025e-05
0.000495923 5.20915e-05 -3.05715e-06
5.20915e-05 -9.66601e-07 7.62279e-07
-3.05715e-06 7.62279e-07 -6.93713e-05
0.00217956 -3.47113e-05 -4.62554e-06
-3.47113e-05 0.00101612 2.18395e-07
-4.62554e-06 2.18395e-07 0.00103253
0.000489322 -5.10331e-06 -2.16927e-06
-5.10331e-06 -3.81623e-05 3.82783e-06
-2.16927e-06 3.82783e-06 -5.07998e-05
0.0020953 -1.88423e-05 1.43242e-05
-1.88423e-05 0.000963274 4.66101e-06
1.43242e-05 4.66101e-06 0.000981034
-0.00174906 6.97035e-05 -1.34966e-05
6.97035e-05 -2.61135e-05 -1.46351e-05
-1.34966e-05 -1.46351e-05 -6.45626e-05
0.00122002 -0.000165595 -1.61886e-05
-0.000165595 -0.000118471 2.08695e-05
-1.61886e-05 2.08695e-05 -4.18204e-05
0.000139025 -0.000177708 7.31333e-06
-0.000177708 0.00123283 -3.00952e-05
7.31333e-06 -3.00952e-05 0.000857039
0.000815889 9.27841e-05 -3.61578e-07
9.27841e-05 0.000233384 7.52512e-07
-3.61578e-07 7.52512e-07 7.80338e-05
0.000480995 8.71848e-05 3.82852e-06
8.71848e-05 -2.00002e-05 -1.12447e-06
3.82852e-06 -1.12447e-06 -0.00016284
-0.00158011 -1.25531e-05 -3.54503e-06
-1.25531e-05 -0.00125944 -8.42748e-06
-3.54503e-06 -8.42748e-06 -0.00138119
-1.93125e-05 3.83723e-05 2.46892e-06
3.83723e-05 -0.000298675 1.01319e-05
2.46892e-06 1.01319e-05 -0.000431074
0.00279782 0.000367535 -2.41263e-06
0.000367535 0.00145081 -1.27387e-06
-2.41263e-06 -1.27387e-06 0.00122112
0.000700924 4.50446e-05 -5.07866e-06
4.50446e-05 0.000109456 -4.00254e-06
-5.07866e-06 -4.00254e-06 -8.37031e-06
0.000521107 8.79022e-05 -4.92766e-06
8.79022e-05 2.44337e-05 -7.88429e-06
-4.92766e-06 -7.88429e-06 -9.32208e-05
0.000702008 7.02349e-05 1.82694e-07
7.02349e-05 0.000133949 -3.77478e-07
1.82694e-07 -3.77478e-07 1.41147e-05
0.000960654 0.000147192 -2.72321e-07
0.000147192 0.000318558 -1.36546e-06
-2.72321e-07 -1.36546e-06 0.000190288
0.000736916 0.000109984 6.3262e-06
0.000109984 0.000287464 -1.13029e-05
6.3262e-06 -1.13029e-05 9.6253e-05
0.0047363 0.000698806 0.00032218
0.000698806 0.00334817 0.000420818
0.00032218 0.000420818 -0.00106377
0.00168729 0.000493932 1.70963e-05
0.000493932 -5.4378e-05 8.51466e-05
1.70963e-05 8.51466e-05 -0.00153873
0.00357154 -9.76429e-05 1.47336e-05
-9.76429e-05 -0.000122484 -1.51906e-05
1.47336e-05 -1.51906e-05 -0.000379206
0.0134764 -0.00176013 -0.000218613
-0.00176013 0.00190821 -0.000140039
-0.000218613 -0.000140039 0.00358513
-0.00430946 0.00160895 5.98235e-05
0.00160895 -0.00220139 0.000405815
5.98235e-05 0.000405815 -0.00616985
0.00347073 -0.00194308 -6.51273e-05
-0.00194308 0.00120575 1.65887e-06
-6.51273e-05 1.65887e-06 0.00126874
0.00977852 -0.00182679 -0.000122095
-0.00182679 0.00533546 1.55581e-05
-0.000122095 1.55581e-05 0.00067733
0.00100452 -0.00053578 -4.24572e-05
-0.00053578 0.000647605 8.66889e-05
-4.24572e-05 8.66889e-05 0.00039608
0.00948853 -0.000171381 -0.000116048
-0.000171381 0.005998 -3.18598e-06
-0.000116048 -3.18598e-06 1.52189e-05
0.00432539 -0.00231424 9.62376e-05
-0.00231424 0.0027168 0.000159582
9.62376e-05 0.000159582 -0.0012516
0.0129803 -0.00343732 -0.000182423
-0.00343732 0.00139542 -0.000623355
-0.000182423 -0.000623355 0.000459109
0.00387854 4.2985e-06 -9.53948e-05
4.2985e-06 0.00296819 9.02485e-05
-9.53948e-05 9.02485e-05 0.00212944
0.0125935 0.00225593 -0.000144772
0.00225593 0.00647525 2.82518e-05
-0.000144772 2.82518e-05 0.00182216
0.0173786 -0.00510965 -0.000201544
-0.00510965 0.00798672 -0.000588596
-0.000201544 -0.000588596 0.00498673
0.0182134 -0.00649259 7.31276e-05
-0.00649259 0.00637225 -5.53557e-05
7.31276e-05 -5.53557e-05 0.00526011
0.000698927 0.00020616 1.14197e-05
0.00020616 0.000344173 5.86514e-07
1.14197e-05 5.86514e-07 0.000115128
0.000311014 4.48078e-05 2.45332e-06
4.48078e-05 9.2434e-05 2.4679e-06
2.45332e-06 2.4679e-06 -0.000117143
0.000927529 0.000172035 -6.72437e-06
0.000172035 0.0003462 -1.04634e-05
-6.72437e-06 -1.04634e-05 0.000182491
0.004421 -0.000482802 -3.70284e-05
-0.000482802 0.00233957 3.61568e-05
-3.70284e-05 3.61568e-05 0.00122526
0.000188661 -8.79369e-05 -8.97785e-06
-8.79369e-05 0.000722756 -3.9675e-05
-8.97785e-06 -3.9675e-05 0.000325467
9.97393e-05 -6.66293e-07 -6.90205e-06
-6.66293e-07 -0.000112809 1.72735e-06
-6.90205e-06 1.72735e-06 -0.000242684
-0.00010724 7.16244e-05 3.63912e-06
7.16244e-05 0.000232541 -5.40927e-06
3.63912e-06 -5.40927e-06 -0.000178797
0.000230229 0.000109701 2.03459e-06
0.000109701 0.000202438 -1.17714e-06
2.03459e-06 -1.17714e-06 -4.36663e-05
0.000492821 0.000300785 9.18934e-06
0.000300785 0.000645485 -1.78656e-07
9.18934e-06 -1.78656e-07 0.000153723
-0.00183185 -0.000120168 0.00025316
-0.000120168 0.000702925 -1.2872e-05
0.00025316 -1.2872e-05 -0.000990013
-0.00180239 0.000205893 -1.74479e-05
0.000205893 -0.00092326 1.39693e-05
-1.74479e-05 1.39693e-05 -0.00126559
0.00286216 0.000739142 -0.000131328
0.000739142 0.00214707 -7.05569e-05
-0.000131328 -7.05569e-05 0.000918672
0.00148802 0.000189103 0.000148778
0.000189103 0.00161852 4.74022e-05
0.000148778 4.74022e-05 -0.00190143
-0.00156823 0.000101623 -2.80012e-05
0.000101623 0.000879179 1.74128e-05
-2.80012e-05 1.74128e-05 0.000108564
0.00192763 -0.000175796 -1.33797e-05
-0.000175796 0.000274552 7.45504e-08
-1.33797e-05 7.45504e-08 0.000585286
-0.000652046 0.000422375 0.000113906
0.000422375 0.000302804 1.63376e-05
0.000113906 1.63376e-05 -0.000623417
0.00145554 0.000298548 -7.00008e-05
0.000298548 0.00175748 7.18993e-05
-7.00008e-05 7.18993e-05 0.000559537
6.4594e-05 -0.000191988 -1.41757e-05
-0.000191988 0.00117365 3.98572e-06
-1.41757e-05 3.98572e-06 0.000795089
0.0162393 -0.00333689 0.000190868
-0.00333689 0.00771232 -8.83048e-05
0.000190868 -8.83048e-05 0.00227113
0.0207562 0.00372222 -6.40451e-05
0.00372222 0.0087756 -0.000120944
-6.40451e-05 -0.000120944 0.00540949
0.00464718 -0.00121678 -0.000185321
-0.00121678 0.00221447 0.000208104
-0.000185321 0.000208104 -0.00208839
0.00048491 0.00697896 0.00200111
0.00697896 0.00184924 -0.00134439
0.00200111 -0.00134439 0.000365659
0.000981506 -0.000409708 2.55437e-05
-0.000409708 0.00119836 -7.94796e-06
2.55437e-05 -7.94796e-06 0.000278195
-9.2486e-05 -0.000395952 3.09551e-05
-0.000395952 0.000212621 1.49385e-05
3.09551e-05 1.49385e-05 -0.00292436
-0.00159649 0.000463645 -0.000939867
0.000463645 0.00511729 0.000316904
-0.000939867 0.000316904 0.00170652
0.00095985 -0.000682838 -1.53003e-06
-0.000682838 0.000997 3.21635e-05
-1.53003e-06 3.21635e-05 0.000455357
0.0183405 0.00498199 0.000271289
0.00498199 0.00539417 8.43923e-05
0.000271289 8.43923e-05 0.00324035
0.00751161 -0.00369838 0.000155753
-0.00369838 0.00252959 -6.70144e-05
0.000155753 -6.70144e-05 -0.00109714
0.00206522 -0.00106117 -1.79977e-05
-0.00106117 0.00110954 3.03947e-05
-1.79977e-05 3.03947e-05 0.000522007
-0.00643455 -0.00137145 0.000111595
-0.00137145 0.0043793 -6.04764e-05
0.000111595 -6.04764e-05 0.000820219
0.0146705 0.00461725 -0.00119583
0.00461725 0.00578818 0.000478214
-0.00119583 0.000478214 0.00375694
0.00512381 -0.00265809 -0.000348923
-0.00265809 -0.00041877 0.000176644
-0.000348923 0.000176644 -0.00390853
0.00194906 -0.00173291 0.000182188
-0.00173291 0.000261043 -9.95498e-05
0.000182188 -9.95498e-05 0.00106257
0.000204853 -0.000354413 -7.17805e-05
-0.000354413 0.000288968 2.64863e-05
-7.17805e-05 2.64863e-05 -0.000100209
0.000674665 -0.000527481 -7.89683e-06
-0.000527481 0.000368808 1.23469e-05
-7.89683e-06 1.23469e-05 0.000106131
0.00344979 -0.000805298 2.76006e-05
-0.000805298 0.00159501 -3.51952e-06
2.76006e-05 -3.51952e-06 0.0012815
-0.0022059 -0.000172953 5.00336e-06
-0.000172953 -0.00111706 1.33511e-05
5.00336e-06 1.33511e-05 -0.00134195
0.000926247 -0.000516951 5.54372e-06
-0.000516951 0.0001561 -1.38831e-07
5.54372e-06 -1.38831e-07 -0.000124651
0.00241513 -0.000793896 9.16041e-06
-0.000793896 0.000649356 -3.67633e-07
9.16041e-06 -3.67633e-07 0.00031001
0.00365835 -0.000821214 -2.7305e-05
-0.000821214 0.0016093 6.59399e-06
-2.7305e-05 6.59399e-06 0.00108938
0.00147868 -0.000644626 -2.58344e-07
-0.000644626 0.000305124 -7.80553e-07
-2.58344e-07 -7.80553e-07 -0.000220366
0.00182121 -0.000785885 4.50257e-06
-0.000785885 0.000265831 -9.46017e-06
4.50257e-06 -9.46017e-06 -0.000161561
0.00279132 -0.000778489 -2.9199e-06
-0.000778489 0.00100967 3.62924e-06
-2.9199e-06 3.62924e-06 0.000495973
0.00202807 -0.000734783 2.46294e-07
-0.000734783 0.00052043 -4.96214e-06
2.46294e-07 -4.96214e-06 3.70959e-05
0.00251957 -0.000709582 1.30124e-06
-0.000709582 0.00058681 -8.83804e-06
1.30124e-06 -8.83804e-06 0.000235945
0.0017023 -0.000475356 -4.53443e-06
-0.000475356 2.61314e-05 -3.23043e-06
-4.53443e-06 -3.23043e-06 -0.000212817
0.00180294 -0.000651105 -8.03572e-07
-0.000651105 0.000189517 -9.15433e-07
-8.03572e-07 -9.15433e-07 -0.00016455
0.00201994 -0.000651144 2.63904e-06
-0.000651144 0.000354866 -2.99561e-06
2.63904e-06 -2.99561e-06 3.00052e-07
0.00207408 -0.000655651 -1.2865e-06
-0.000655651 0.00057271 -1.38708e-07
-1.2865e-06 -1.38708e-07 0.000198283
0.00217379 -0.000743944 -2.44491e-06
-0.000743944 0.000575119 5.55965e-08
-2.44491e-06 5.55965e-08 0.000154922
0.0023191 -0.000763989 2.94748e-06
-0.000763989 0.000657198 -3.15519e-06
2.94748e-06 -3.15519e-06 0.000203789
0.00183547 -0.000474192 4.20228e-06
-0.000474192 0.000618883 2.94293e-06
4.20228e-06 2.94293e-06 0.000304462
0.00132234 -0.000499449 2.10816e-06
-0.000499449 0.00027275 5.59292e-07
2.10816e-06 5.59292e-07 -6.38068e-05
0.00113395 -0.000503904 3.18866e-06
-0.000503904 0.000114971 8.0642e-07
3.18866e-06 8.0642e-07 -0.000236833
0.00119657 -0.000316487 -1.21516e-06
-0.000316487 0.00035949 8.47279e-07
-1.21516e-06 8.47279e-07 0.000103881
0.00111213 -0.000320521 2.2826e-08
-0.000320521 0.00023337 -8.77226e-07
2.2826e-08 -8.77226e-07 -2.6481e-05
0.00112394 -0.000368846 -4.97284e-06
-0.000368846 0.000193867 -3.16187e-06
-4.97284e-06 -3.16187e-06 -9.49132e-05
-0.000195914 -5.38024e-05 -1.31375e-06
-5.38024e-05 -0.000418845 5.65282e-06
-1.31375e-06 5.65282e-06 -0.000596879
0.00077892 -0.000191486 1.75485e-06
-0.000191486 0.000230487 -1.11427e-07
1.75485e-06 -1.11427e-07 -4.09888e-05
0.00131944 -0.000267828 -2.39655e-06
-0.000267828 0.000493533 1.58911e-06
-2.39655e-06 1.58911e-06 0.000238255
0.00173881 4.85956e-05 -3.58982e-05
4.85956e-05 0.000766531 7.04965e-06
-3.58982e-05 7.04965e-06 0.00072212
0.000711791 -7.48742e-05 1.29924e-07
-7.48742e-05 0.000120222 -7.96098e-07
1.29924e-07 -7.96098e-07 -6.06814e-06
0.00153263 -0.000130569 -2.14753e-06
-0.000130569 0.000691993 -9.17306e-07
-2.14753e-06 -9.17306e-07 0.000468158
0.000733214 4.18129e-05 -4.37877e-05
4.18129e-05 0.000138889 4.93961e-06
-4.37877e-05 4.93961e-06 0.000130926
0.00109017 3.05054e-05 -1.43122e-05
3.05054e-05 0.000359077 -5.35973e-07
-1.43122e-05 -5.35973e-07 0.000319313
0.000694221 -4.6976e-05 2.15801e-06
-4.6976e-05 0.000114 -4.72941e-06
2.15801e-06 -4.72941e-06 1.07426e-05
0.000562724 2.04124e-05 2.08053e-06
2.04124e-05 2.63783e-05 -7.75241e-06
2.08053e-06 -7.75241e-06 -9.73643e-06
0.00283012 0.00012013 7.05961e-06
0.00012013 0.00144468 6.37497e-07
7.05961e-06 6.37497e-07 0.00144416
0.00265818 0.000100197 3.11964e-05
0.000100197 0.00132962 -4.4696e-06
3.11964e-05 -4.4696e-06 0.00133376
0.00105925 0.000129073 7.53036e-06
0.000129073 0.000404283 7.44171e-07
7.53036e-06 7.44171e-07 0.000223708
0.00121186 0.00014297 3.65281e-06
0.00014297 0.000507142 -2.02998e-06
3.65281e-06 -2.02998e-06 0.000327778
0.000215243 6.6201e-05 -3.73299e-07
6.6201e-05 -0.000124269 1.0169e-06
-3.73299e-07 1.0169e-06 -0.000279221
0.000615852 2.82354e-05 3.04347e-06
2.82354e-05 6.81884e-05 -4.53674e-06
3.04347e-06 -4.53674e-06 -2.52134e-05
0.000810815 0.000101624 6.43734e-07
0.000101624 0.000229702 7.20256e-08
6.43734e-07 7.20256e-08 8.56117e-05
0.000475873 3.30493e-06 -1.29907e-06
3.30493e-06 -3.82299e-05 -7.24012e-06
-1.29907e-06 -7.24012e-06 -6.55271e-05
0.000556297 3.77368e-05 -1.15522e-07
3.77368e-05 3.34001e-05 -3.57752e-07
-1.15522e-07 -3.57752e-07 -4.99742e-05
0.000714832 6.70886e-05 -2.92412e-06
6.70886e-05 0.00018073 1.78393e-07
-2.92412e-06 1.78393e-07 3.8833e-05
0.0025192 -6.90297e-05 -3.27467e-05
-6.90297e-05 0.00123315 -4.76081e-06
-3.27467e-05 -4.76081e-06 0.00124399
0.000469697 -2.36953e-06 -7.3084e-07
-2.36953e-06 -4.65066e-05 -1.15731e-07
-7.3084e-07 -1.15731e-07 -6.87257e-05
0.000564265 5.02721e-05 -7.32699e-07
5.02721e-05 3.95317e-05 2.89023e-06
-7.32699e-07 2.89023e-06 -3.53646e-05
0.00232368 -5.12951e-05 -5.60191e-06
-5.12951e-05 0.00110761 3.32561e-07
-5.60191e-06 3.32561e-07 0.0011216
0.000465886 -1.16792e-05 -3.27114e-06
-1.16792e-05 -5.09867e-05 4.78308e-06
-3.27114e-06 4.78308e-06 -6.805e-05
0.00219187 -3.34152e-05 1.9809e-05
-3.34152e-05 0.00102376 4.59484e-06
1.9809e-05 4.59484e-06 0.00104029
0.0062381 0.000456237 0.000254846
0.000456237 0.0032584 5.19926e-05
0.000254846 5.19926e-05 0.00136743
-0.00153513 2.62138e-05 -1.39117e-06
2.62138e-05 -3.30399e-05 -5.08412e-06
-1.39117e-06 -5.08412e-06 -0.000243106
0.000796209 -1.92111e-05 -1.91574e-05
-1.92111e-05 -7.48734e-05 -1.91378e-06
-1.91574e-05 -1.91378e-06 2.32575e-05
-0.000299993 9.62248e-05 -7.04303e-06
9.62248e-05 -0.000484867 -8.3566e-07
-7.04303e-06 -8.3566e-07 -0.000624751
0.000571958 7.86623e-05 -5.59436e-06
7.86623e-05 7.80884e-05 -2.63511e-06
-5.59436e-06 -2.63511e-06 -6.69864e-05
0.000139564 6.44321e-05 -1.7276e-07
6.44321e-05 -0.000232138 -2.02776e-06
-1.7276e-07 -2.02776e-06 -0.00036891
0.00105741 6.64479e-05 9.58282e-07
6.64479e-05 0.000347475 -4.16726e-07
9.58282e-07 -4.16726e-07 0.00020564
0.000188947 8.75464e-05 -2.12905e-06
8.75464e-05 -0.000196194 -1.07122e-06
-2.12905e-06 -1.07122e-06 -0.000325221
0.00191421 0.00026769 -5.88677e-07
0.00026769 0.000907995 -2.98724e-06
-5.88677e-07 -2.98724e-06 0.000723473
0.00109506 0.000220813 -6.79385e-06
0.000220813 0.00037698 -1.58642e-05
-6.79385e-06 -1.58642e-05 0.000113968
-0.000662029 6.37649e-05 2.01736e-06
6.37649e-05 -0.000493216 5.75539e-07
2.01736e-06 5.75539e-07 -0.000761801
0.000827127 0.000145611 -4.57702e-06
0.000145611 0.000233133 -4.48947e-06
-4.57702e-06 -4.48947e-06 9.65336e-05
0.000147438 4.7536e-05 -5.83993e-06
4.7536e-05 -0.0002157 -6.77277e-06
-5.83993e-06 -6.77277e-06 -0.000311459
0.000132821 5.13868e-05 2.11068e-07
5.13868e-05 -9.7041e-05 8.67056e-07
2.11068e-07 8.67056e-07 -0.000275129
0.000781593 0.000219889 1.29679e-05
0.000219889 0.000441422 -2.41458e-06
1.29679e-05 -2.41458e-06 0.000127524
0.00206499 -0.00221015 0.00014077
-0.00221015 0.00475562 0.000253439
0.00014077 0.000253439 0.000244663
0.00545864 0.000957485 9.21914e-05
0.000957485 0.00286409 0.000151495
9.21914e-05 0.000151495 -0.00184958
0.0023352 0.000341418 -2.9283e-05
0.000341418 0.00039307 -7.92523e-05
-2.9283e-05 -7.92523e-05 -0.00130879
0.0198853 -0.00425909 -0.000570305
-0.00425909 0.00488735 -0.000324077
-0.000570305 -0.000324077 0.0038037
0.00616247 -0.00156189 0.000222911
-0.00156189 0.00316417 0.000422093
0.000222911 0.000422093 0.000222587
0.00320019 -0.00130156 -0.00018978
-0.00130156 0.00445411 8.73028e-05
-0.00018978 8.73028e-05 -0.0021056
-0.000160427 -0.000518406 0.00011367
-0.000518406 0.000985745 1.62804e-05
0.00011367 1.62804e-05 8.10566e-05
0.000356951 -0.000147325 5.41193e-05
-0.000147325 0.000914424 5.7101e-05
5.41193e-05 5.7101e-05 0.000412065
0.00999305 -0.00669327 0.000373026
-0.00669327 0.00414353 0.000356055
0.000373026 0.000356055 0.00287277
0.002499 0.00137708 -7.56211e-05
0.00137708 0.00393251 -7.00905e-05
-7.56211e-05 -7.00905e-05 -0.00201727
0.00640105 -0.00308002 -0.000106129
-0.00308002 0.00209044 8.72556e-05
-0.000106129 8.72556e-05 -0.0014738
0.00045282 0.000557969 -2.67862e-05
0.000557969 0.000867575 6.56959e-05
-2.67862e-05 6.56959e-05 0.000635197
0.011353 0.00304122 -0.000101535
0.00304122 0.00414391 9.36956e-06
-0.000101535 9.36956e-06 0.000535456
0.0112195 -0.00548621 -0.000686862
-0.00548621 0.00286937 -0.000467291
-0.000686862 -0.000467291 0.000330621
-0.000126909 0.000394975 -1.85438e-07
0.000394975 -0.000450011 -5.07825e-06
-1.85438e-07 -5.07825e-06 -0.000595199
0.000416101 0.00011525 7.52281e-06
0.00011525 0.000146888 2.83979e-06
7.52281e-06 2.83979e-06 -4.19322e-05
5.51647e-05 5.0585e-05 -6.66235e-06
5.0585e-05 -6.99517e-05 -4.71822e-06
-6.66235e-06 -4.71822e-06 -0.000275386
-0.0035677 -0.00032343 -0.000130279
-0.00032343 -0.000246505 -6.12333e-05
-0.000130279 -6.12333e-05 -0.00188419
-0.000943801 0.000217978 1.46767e-05
0.000217978 -0.000248569 -2.03123e-05
1.46767e-05 -2.03123e-05 -0.000735248
0.000928972 0.000150141 -6.41966e-06
0.000150141 0.000584077 6.72449e-06
-6.41966e-06 6.72449e-06 0.000332208
0.000970549 0.000554589 1.64297e-05
0.000554589 0.000523744 4.04817e-06
1.64297e-05 4.04817e-06 0.000153406
-0.000441864 0.000386453 4.86426e-05
0.000386453 0.000542601 -2.75462e-05
4.86426e-05 -2.75462e-05 -0.000519964
0.000308091 0.00101098 4.534e-05
0.00101098 -0.000231825 5.42766e-06
4.534e-05 5.42766e-06 -0.000904085
-0.00500886 0.000927756 0.000288383
0.000927756 0.00490845 1.09797e-05
0.000288383 1.09797e-05 -0.000777581
0.00226765 -6.99992e-05 -6.58431e-06
-6.99992e-05 0.00183314 5.39435e-05
-6.58431e-06 5.39435e-05 -0.000652753
-0.00193847 -4.99122e-05 -8.48386e-06
-4.99122e-05 0.00046844 3.7389e-05
-8.48386e-06 3.7389e-05 -7.12021e-05
-0.000474398 -0.000201088 -5.029e-05
-0.000201088 0.000558313 1.16869e-05
-5.029e-05 1.16869e-05 -0.000405717
-0.00127653 -0.000318866 -4.8914e-05
-0.000318866 -0.000590434 3.69241e-05
-4.8914e-05 3.69241e-05 -0.000292307
7.85622e-05 -0.000315888 -0.0001557
-0.000315888 0.000483981 9.06701e-05
-0.0001557 9.06701e-05 -0.0028122
1.56283e-05 -0.00305885 0.000218387
-0.00305885 0.00185897 -8.43992e-05
0.000218387 -8.43992e-05 -0.00331222
0.00502686 0.0042878 0.000536663
0.0042878 -0.00121096 -0.000395738
0.000536663 -0.000395738 -0.00324325
0.00752473 0.00235489 -0.000358113
0.00235489 0.00632683 0.000259651
-0.000358113 0.000259651 0.00316619
0.00131165 -0.000634529 -8.21018e-06
-0.000634529 0.00105553 -3.05661e-06
-8.21018e-06 -3.05661e-06 0.000508553
0.00148018 0.000389325 9.12091e-05
0.000389325 0.00619863 -1.05792e-05
9.12091e-05 -1.05792e-05 0.00299955
-0.000523339 0.00312074 1.31261e-05
0.00312074 0.000269503 5.57098e-05
1.31261e-05 5.57098e-05 -0.00262104
0.00239821 -0.00204 8.22448e-05
-0.00204 0.000660179 -3.19103e-05
8.22448e-05 -3.19103e-05 0.000743185
0.0166985 -0.00286591 2.42854e-05
-0.00286591 0.00395537 -9.58169e-06
2.42854e-05 -9.58169e-06 0.00206444
0.00328275 -0.00130936 9.83475e-06
-0.00130936 0.00130527 2.1655e-05
9.83475e-06 2.1655e-05 0.0010795
-0.00895838 0.000954327 -0.000439156
0.000954327 -0.00315408 5.48921e-05
-0.000439156 5.48921e-05 -0.00530582
0.0153973 -0.00183165 -0.00019427
-0.00183165 0.00245368 6.87266e-05
-0.00019427 6.87266e-05 0.000962092
0.00375776 -0.00230827 8.93059e-05
-0.00230827 -0.000159399 -6.32358e-05
8.93059e-05 -6.32358e-05 4.82904e-05
0.000204704 -0.000412169 -1.20401e-05
-0.000412169 0.000193826 1.72928e-05
-1.20401e-05 1.72928e-05 -0.000139527
0.000744059 -0.000635259 -3.54034e-06
-0.000635259 1.61349e-05 4.36427e-07
-3.54034e-06 4.36427e-07 -0.000159544
0.00568303 -0.000948467 2.62676e-05
-0.000948467 0.00246398 -5.74308e-06
2.62676e-05 -5.74308e-06 0.00211478
-0.000808522 -0.000320864 -9.56277e-06
-0.000320864 -0.00073877 7.20183e-06
-9.56277e-06 7.20183e-06 -0.00100727
0.00141122 -0.000682135 -5.70141e-06
-0.000682135 0.000155811 -2.81566e-06
-5.70141e-06 -2.81566e-06 -0.00019733
0.00258491 -0.000867759 5.40786e-06
-0.000867759 0.000558786 -7.13218e-06
5.40786e-06 -7.13218e-06 0.000206655
0.00129203 -0.000605979 -1.40863e-05
-0.000605979 0.000181142 4.25006e-06
-1.40863e-05 4.25006e-06 -0.00032383
0.00180779 -0.000769506 -1.64082e-06
-0.000769506 0.000269658 -4.22378e-07
-1.64082e-06 -4.22378e-07 -0.000161913
0.001615 -0.000633253 1.90662e-06
-0.000633253 -6.61895e-05 -4.69211e-06
1.90662e-06 -4.69211e-06 -0.000337083
0.00147808 -0.000680155 -6.29161e-06
-0.000680155 0.000195645 1.73803e-06
-6.29161e-06 1.73803e-06 -0.000268145
0.00185717 -0.000630376 -7.25583e-07
-0.000630376 0.000230065 1.359e-06
-7.25583e-07 1.359e-06 -0.000104368
0.00186181 -0.000484158 -1.14584e-06
-0.000484158 5.1034e-05 -3.96444e-06
-1.14584e-06 -3.96444e-06 -0.000147028
0.00180101 -0.000396762 -5.53555e-06
-0.000396762 6.5452e-05 -1.26381e-06
-5.53555e-06 -1.26381e-06 -9.91727e-05
0.00163898 -0.000482494 -5.51166e-06
-0.000482494 6.65812e-06 -1.83664e-06
-5.51166e-06 -1.83664e-06 -0.000241852
0.00174149 -0.000471574 1.2331e-06
-0.000471574 5.39714e-05 2.6583e-06
1.2331e-06 2.6583e-06 -0.000180584
0.0016003 -0.000562105 -4.8128e-06
-0.000562105 0.000126612 -1.70593e-06
-4.8128e-06 -1.70593e-06 -0.000193655
0.00196744 -0.000657729 2.50747e-06
-0.000657729 0.000302238 -4.47571e-07
2.50747e-06 -4.47571e-07 -4.83089e-05
0.00202959 -0.000651397 3.29189e-06
-0.000651397 0.000355353 1.13684e-06
3.29189e-06 1.13684e-06 3.42386e-06
0.00152327 -0.000530077 -2.27411e-06
-0.000530077 0.000294501 -1.88337e-07
-2.27411e-06 -1.88337e-07 -4.69767e-05
0.00192963 -0.000644904 1.15968e-06
-0.000644904 0.00048472 -4.05737e-07
1.15968e-06 -4.05737e-07 0.00011013
0.00208464 -0.000732093 -1.20903e-06
-0.000732093 0.000534777 -1.36878e-06
-1.20903e-06 -1.36878e-06 0.000111453
0.00129524 -0.000324087 -5.16222e-06
-0.000324087 0.000306056 1.31628e-06
-5.16222e-06 1.31628e-06 6.03605e-05
0.00139039 -0.000427652 2.21244e-06
-0.000427652 0.000335848 9.2757e-07
2.21244e-06 9.2757e-07 3.2419e-05
0.00067782 -0.00042242 -2.28487e-06
-0.00042242 -0.000103852 -2.6257e-07
-2.28487e-06 -2.6257e-07 -0.000421176
0.000502115 -0.000172857 -3.95692e-06
-0.000172857 -2.40835e-05 3.13038e-06
-3.95692e-06 3.13038e-06 -0.000241438
0.00109225 -0.00031825 -2.309e-08
-0.00031825 0.000284604 2.75265e-07
-2.309e-08 2.75265e-07 3.48377e-05
0.000441297 -0.000248774 -6.47174e-06
-0.000248774 -0.000170301 -1.42172e-06
-6.47174e-06 -1.42172e-06 -0.000416752
0.000387717 -2.1799e-05 -7.37686e-06
-2.1799e-05 -8.04006e-05 1.19183e-05
-7.37686e-06 1.19183e-05 -0.000143237
0.000767628 -0.000132641 5.59581e-07
-0.000132641 0.000173455 5.17856e-07
5.59581e-07 5.17856e-07 -1.86412e-05
0.00104882 -0.000221 1.20692e-06
-0.000221 0.000390333 -9.34662e-08
1.20692e-06 -9.34662e-08 0.000122545
0.00339754 0.000200906 8.92451e-08
0.000200906 0.00182621 3.96413e-06
8.92451e-08 3.96413e-06 0.0018009
0.000419607 -1.44501e-06 -4.67003e-08
-1.44501e-06 -6.15377e-05 -1.00105e-07
-4.67003e-08 -1.00105e-07 -0.000112733
0.00104419 -0.000106716 2.4143e-06
-0.000106716 0.000324431 -5.8424e-06
2.4143e-06 -5.8424e-06 0.000189983
0.00310792 0.00013882 7.23287e-06
0.00013882 0.00162492 5.63719e-07
7.23287e-06 5.63719e-07 0.00162004
0.000557794 1.01392e-05 3.34415e-06
1.01392e-05 2.52876e-05 -8.80467e-06
3.34415e-06 -8.80467e-06 -1.76473e-05
0.00290729 0.000119481 4.44591e-05
0.000119481 0.00149264 -4.05733e-06
4.44591e-05 -4.05733e-06 0.00149246
0.00169807 0.000251686 6.7714e-06
0.000251686 0.000747887 3.67916e-06
6.7714e-06 3.67916e-06 0.000548965
0.000818094 0.000133233 5.90814e-07
0.000133233 0.000265122 -1.68768e-06
5.90814e-07 -1.68768e-06 7.84069e-05
0.00115315 0.000133832 1.60158e-06
0.000133832 0.000485765 -5.10774e-06
1.60158e-06 -5.10774e-06 0.000280505
0.000610075 3.98817e-05 2.5599e-06
3.98817e-05 7.21497e-05 -5.83746e-06
2.5599e-06 -5.83746e-06 -3.66281e-05
0.000696195 8.20878e-05 -4.68409e-08
8.20878e-05 0.000172155 1.09913e-06
-4.68409e-08 1.09913e-06 7.15082e-06
0.00042328 9.96102e-05 -9.63662e-07
9.96102e-05 1.09205e-05 3.73127e-06
-9.63662e-07 3.73127e-06 -0.000152291
0.000506123 -4.68812e-06 -1.46935e-06
-4.68812e-06 -1.38554e-05 -8.60703e-06
-1.46935e-06 -8.60703e-06 -4.71174e-05
0.000590746 3.42435e-05 -4.27445e-08
3.42435e-05 5.74281e-05 -2.89898e-07
-4.27445e-08 -2.89898e-07 -3.77318e-05
0.000458905 8.07786e-05 -3.93133e-06
8.07786e-05 6.96054e-07 2.86617e-07
-3.93133e-06 2.86617e-07 -0.000130459
0.00267221 -8.5655e-05 -4.13093e-05
-8.5655e-05 0.00133367 -4.45037e-06
-4.13093e-05 -4.45037e-06 0.00134164
0.000444827 -2.00981e-05 2.17882e-06
-2.00981e-05 -5.62888e-05 -1.20286e-07
2.17882e-06 -1.20286e-07 -8.41442e-05
0.000526178 4.20152e-05 -1.93741e-06
4.20152e-05 1.60628e-05 3.35973e-06
-1.93741e-06 3.35973e-06 -6.77399e-05
0.00249598 -6.88777e-05 -6.05197e-06
-6.88777e-05 0.00121845 4.33067e-07
-6.05197e-06 4.33067e-07 0.00122929
0.000462591 -9.95419e-06 -2.27971e-06
-9.95419e-06 -5.06179e-05 5.8458e-06
-2.27971e-06 5.8458e-06 -7.26906e-05
0.00230448 -5.05015e-05 2.27889e-05
-5.05015e-05 0.00109551 4.60145e-06
2.27889e-05 4.60145e-06 0.00110973
-0.00939077 0.00090706 -6.9507e-05
0.00090706 0.00313077 7.97338e-05
-6.9507e-05 7.97338e-05 -0.00229377
0.00588023 0.000291118 -3.69462e-06
0.000291118 0.00325013 -2.53084e-06
-3.69462e-06 -2.53084e-06 0.00144385
-0.00126404 -1.07089e-05 2.11853e-05
-1.07089e-05 -3.72309e-05 3.67661e-06
2.11853e-05 3.67661e-06 -0.000425126
4.79228e-05 9.40893e-05 -2.30176e-06
9.40893e-05 -0.000256041 2.16763e-06
-2.30176e-06 2.16763e-06 -0.000414649
0.00326352 0.000572152 8.24172e-06
0.000572152 0.00164951 9.33631e-06
8.24172e-06 9.33631e-06 0.00133888
0.00153004 0.00016134 -7.56011e-06
0.00016134 0.000704826 -1.05297e-06
-7.56011e-06 -1.05297e-06 0.000460443
0.000642876 6.8043e-05 -6.36059e-06
6.8043e-05 9.12122e-05 -1.04099e-05
-6.36059e-06 -1.04099e-05 -5.27087e-05
0.00216752 0.000230307 2.89187e-06
0.000230307 0.000993054 -2.47642e-07
2.89187e-06 -2.47642e-07 0.000848859
-0.000296201 5.53742e-05 -7.83785e-06
5.53742e-05 -0.000447053 6.57291e-06
-7.83785e-06 6.57291e-06 -0.000579149
0.000264179 7.43444e-05 -1.51929e-06
7.43444e-05 1.06926e-05 4.83745e-06
-1.51929e-06 4.83745e-06 -0.000228809
0.000474167 0.000141724 -2.99215e-06
0.000141724 3.77174e-05 -4.99665e-06
-2.99215e-06 -4.99665e-06 -0.000223947
0.00185749 0.000388023 6.75909e-06
0.000388023 0.000907792 -2.64699e-05
6.75909e-06 -2.64699e-05 0.000535308
0.000305461 0.000408583 -1.15839e-05
0.000408583 -0.000169899 3.42679e-05
-1.15839e-05 3.42679e-05 -0.00031515
0.00137128 4.73633e-05 -9.00775e-06
4.73633e-05 0.00063533 1.10394e-05
-9.00775e-06 1.10394e-05 0.000459423
0.00116167 0.000204851 3.2309e-06
0.000204851 0.000678594 -7.21098e-06
3.2309e-06 -7.21098e-06 0.000370775
-0.00218924 -0.00185521 -0.00117092
-0.00185521 0.000712191 -0.00020227
-0.00117092 -0.00020227 -0.00235945
-0.00326277 -0.0016529 0.000406925
-0.0016529 0.00437711 0.000178548
0.000406925 0.000178548 -0.000360623
0.00613 0.00118437 -0.000413376
0.00118437 0.00273075 -0.000149303
-0.000413376 -0.000149303 -0.00229992
-0.000257843 -0.00697842 0.00193918
-0.00697842 0.00177977 0.00128893
0.00193918 0.00128893 -4.09221e-05
0.0217744 -0.00322195 4.44492e-05
-0.00322195 0.0071913 0.000290371
4.44492e-05 0.000290371 0.00482265
-0.00256552 0.0014456 -1.46448e-06
0.0014456 0.00179172 -0.000170577
-1.46448e-06 -0.000170577 -0.00347848
-0.00255259 0.000194489 -0.000388459
0.000194489 -2.80102e-05 -6.31847e-05
-0.000388459 -6.31847e-05 -0.00148416
0.00118694 0.000639175 6.75607e-05
0.000639175 0.00131191 4.79123e-05
6.75607e-05 4.79123e-05 0.00107265
0.0170898 -0.0040082 -0.000503468
-0.0040082 0.00703413 1.4077e-05
-0.000503468 1.4077e-05 0.00448918
-0.00218936 0.00231893 -8.22761e-05
0.00231893 0.000387851 -4.51888e-05
-8.22761e-05 -4.51888e-05 -0.00404738
0.0025976 0.00168853 -1.61047e-05
0.00168853 0.00072399 -6.92455e-05
-1.61047e-05 -6.92455e-05 0.00124944
0.00231087 0.00356621 -0.00030856
0.00356621 -0.00186332 -0.000105896
-0.00030856 -0.000105896 -0.00452993
0.003183 0.00104382 1.96309e-05
0.00104382 0.00113696 -1.13876e-05
1.96309e-05 -1.13876e-05 0.000817005
0.000977264 0.000488324 -6.09573e-06
0.000488324 0.000264469 -8.83933e-07
-6.09573e-06 -8.83933e-07 0.000100987
0.000277599 0.000141186 -4.45548e-06
0.000141186 6.41614e-05 -1.09236e-07
-4.45548e-06 -1.09236e-07 -0.000129551
-0.00202422 0.000232364 -6.87092e-05
0.000232364 -0.000312077 -6.91252e-05
-6.87092e-05 -6.91252e-05 -0.00123542
0.00240828 0.000738907 -2.87215e-05
0.000738907 0.00123743 -2.13279e-05
-2.87215e-05 -2.13279e-05 0.00084962
0.00149507 0.0011522 1.45569e-05
0.0011522 0.000297759 -6.66135e-06
1.45569e-05 -6.66135e-06 -0.000367189
-0.000327153 0.00132474 9.53816e-05
0.00132474 -0.00142032 3.95181e-05
9.53816e-05 3.95181e-05 -0.00170785
-0.0058067 -0.000342362 -0.000477717
-0.000342362 -0.00461299 2.98435e-05
-0.000477717 2.98435e-05 -0.00372707
-0.00729098 0.000430024 0.000303165
0.000430024 0.00491237 1.28916e-05
0.000303165 1.28916e-05 -0.000508477
0.0029109 -0.000114433 -0.000104782
-0.000114433 0.00198036 3.37679e-05
-0.000104782 3.37679e-05 0.00033153
0.00214318 -0.000764645 -3.5475e-05
-0.000764645 0.00112502 -5.08183e-05
-3.5475e-05 -5.08183e-05 0.000592258
-0.000127424 -0.00165438 -1.27197e-05
-0.00165438 -0.000630172 4.42659e-05
-1.27197e-05 4.42659e-05 -0.000445656
0.000660368 0.000437339 1.43225e-05
0.000437339 0.00592362 3.46285e-05
1.43225e-05 3.46285e-05 0.0027088
0.00149924 -0.00248252 0.000369988
-0.00248252 -0.0014996 -0.000129561
0.000369988 -0.000129561 -0.0041146
0.0182557 0.00277377 0.000603779
0.00277377 0.00806174 -8.51588e-05
0.000603779 -8.51588e-05 0.00583495
0.00171725 -0.00134508 -1.61865e-05
-0.00134508 0.000375315 5.84503e-06
-1.61865e-05 5.84503e-06 -8.4699e-05
0.00121059 0.00113016 0.000204694
0.00113016 0.000187989 -6.02158e-05
0.000204694 -6.02158e-05 -0.00137219
0.00784167 -0.00161136 -0.000127791
-0.00161136 -0.00141328 0.000119442
-0.000127791 0.000119442 -0.00368947
0.00459883 -0.00236774 -1.55021e-05
-0.00236774 0.000112372 2.59623e-05
-1.55021e-05 2.59623e-05 0.000388775
0.0025193 -0.00114359 6.99316e-05
-0.00114359 0.000283339 -1.39854e-05
6.99316e-05 -1.39854e-05 0.00018595
0.0147142 -0.000731893 -2.99304e-05
-0.000731893 0.00301961 2.14251e-05
-2.99304e-05 2.14251e-05 0.00164406
0.00222164 -0.0014147 0.000107381
-0.0014147 -0.00268305 -8.74775e-05
0.000107381 -8.74775e-05 -0.00180764
-0.000674573 -0.000517067 -3.4048e-05
-0.000517067 -0.000849649 2.22024e-05
-3.4048e-05 2.22024e-05 -0.000904452
0.000248089 -0.000486926 -3.34705e-05
-0.000486926 -0.000525242 2.31758e-06
-3.34705e-05 2.31758e-06 -0.000645197
0.00566515 -0.000982106 6.22761e-05
-0.000982106 0.00209584 -1.91811e-05
6.22761e-05 -1.91811e-05 0.00191599
0.0005408 -0.000577961 -2.03515e-05
-0.000577961 -0.00027617 -4.7603e-06
-2.03515e-05 -4.7603e-06 -0.00063476
0.00207548 -0.000806216 -1.03963e-06
-0.000806216 0.000288927 -2.79213e-06
-1.03963e-06 -2.79213e-06 -4.42023e-05
0.00269502 -0.00074621 1.22732e-06
-0.00074621 0.000343011 -4.22152e-06
1.22732e-06 -4.22152e-06 0.000151299
0.00200206 -0.000776205 -5.67863e-06
-0.000776205 0.000377459 5.26095e-06
-5.67863e-06 5.26095e-06 -5.97836e-05
0.00204089 -0.000671486 -4.47882e-07
-0.000671486 0.000162033 1.50091e-06
-4.47882e-07 1.50091e-06 -0.000113534
0.00206382 -0.000506612 8.32663e-07
-0.000506612 5.68562e-05 -2.42408e-07
8.32663e-07 -2.42408e-07 -7.96913e-05
0.00126959 -0.000559225 4.7337e-06
-0.000559225 -8.78437e-05 7.05144e-06
4.7337e-06 7.05144e-06 -0.000407145
0.00190412 -0.000479656 -3.67047e-07
-0.000479656 8.09075e-05 1.9114e-06
-3.67047e-07 1.9114e-06 -0.000113675
0.00192738 -0.000432238 -3.05233e-06
-0.000432238 5.67825e-05 1.06042e-06
-3.05233e-06 1.06042e-06 -8.08086e-05
0.00207234 -0.000413875 -5.04579e-06
-0.000413875 0.000231851 9.72703e-07
-5.04579e-06 9.72703e-07 8.80325e-05
0.00190431 -0.000402568 -2.96172e-06
-0.000402568 0.0001219 3.40631e-06
-2.96172e-06 3.40631e-06 -3.92991e-05
0.00196764 -0.000419683 -3.17095e-06
-0.000419683 0.000198979 -4.25338e-06
-3.17095e-06 -4.25338e-06 1.99707e-05
0.00190815 -0.000504057 -6.17783e-06
-0.000504057 0.000196758 -2.27556e-06
-6.17783e-06 -2.27556e-06 -5.84322e-05
0.00184839 -0.000498715 1.70263e-06
-0.000498715 0.000137915 7.46947e-07
1.70263e-06 7.46947e-07 -0.000111691
0.00177723 -0.000467569 6.20802e-06
-0.000467569 7.85063e-05 7.35063e-06
6.20802e-06 7.35063e-06 -0.000151602
0.00179039 -0.000545779 -7.06257e-06
-0.000545779 0.000306871 -9.82641e-07
-7.06257e-06 -9.82641e-07 -1.08465e-05
0.0016166 -0.000569214 -5.11492e-07
-0.000569214 0.0001242 1.4978e-07
-5.11492e-07 1.4978e-07 -0.000198826
0.00209015 -0.00066128 6.47846e-06
-0.00066128 0.000389807 2.81139e-07
6.47846e-06 2.81139e-07 4.31353e-05
0.0014725 -0.000391439 -9.01876e-06
-0.000391439 0.000347259 5.21641e-06
-9.01876e-06 5.21641e-06 6.80344e-05
0.0015802 -0.000531525 -4.19636e-07
-0.000531525 0.000333762 7.82659e-07
-4.19636e-07 7.82659e-07 -6.56736e-06
0.00182833 -0.000639661 2.04314e-06
-0.000639661 0.00042055 -8.88276e-08
2.04314e-06 -8.88276e-08 4.50726e-05
0.000747009 -0.000214106 -6.80231e-06
-0.000214106 5.37351e-05 5.6866e-06
-6.80231e-06 5.6866e-06 -0.00014992
0.00110838 -0.000312775 5.39075e-07
-0.000312775 0.000185887 -8.41748e-07
5.39075e-07 -8.41748e-07 -6.06748e-05
0.000940045 -0.000380426 1.30056e-06
-0.000380426 5.00526e-05 -8.44343e-07
1.30056e-06 -8.44343e-07 -0.000242483
0.000409736 -0.000100492 -1.83183e-05
-0.000100492 -9.38984e-05 1.46117e-05
-1.83183e-05 1.46117e-05 -0.000174649
0.000668214 -0.000175522 -4.25178e-07
-0.000175522 8.96998e-05 9.59731e-07
-4.25178e-07 9.59731e-07 -0.000135161
0.000949619 -0.00033362 2.37181e-06
-0.00033362 0.00019139 -3.97697e-07
2.37181e-06 -3.97697e-07 -6.06365e-05
0.0038175 0.000187733 -7.78677e-05
0.000187733 0.00209035 4.64217e-06
-7.78677e-05 4.64217e-06 0.00207113
0.000501058 -3.92154e-05 8.3548e-07
-3.92154e-05 -1.69651e-05 -4.72449e-07
8.3548e-07 -4.72449e-07 -8.31176e-05
0.00158596 -0.000189744 3.47494e-06
-0.000189744 0.000676528 -6.1016e-06
3.47494e-06 -6.1016e-06 0.000473236
0.0022151 0.000120324 4.30626e-05
0.000120324 0.00107842 1.19308e-06
4.30626e-05 1.19308e-06 0.0010614
0.000642167 -7.62789e-06 7.35522e-06
-7.62789e-06 7.19947e-05 -1.09374e-05
7.35522e-06 -1.09374e-05 2.06699e-05
0.0032396 0.000131893 6.72009e-05
0.000131893 0.00170589 -3.85818e-06
6.72009e-05 -3.85818e-06 0.0017029
0.00123698 0.000264801 5.80046e-06
0.000264801 0.000373147 1.45458e-07
5.80046e-06 1.45458e-07 0.000179578
0.000482769 0.000118904 -1.61973e-06
0.000118904 -1.53633e-05 -2.15597e-07
-1.61973e-06 -2.15597e-07 -0.000183941
0.00053341 0.000134973 2.03185e-06
0.000134973 6.89277e-05 -5.14853e-06
2.03185e-06 -5.14853e-06 -0.000125086
0.000581546 0.000123848 -2.1298e-06
0.000123848 0.000113973 5.44173e-06
-2.1298e-06 5.44173e-06 -6.70145e-05
0.000612895 8.23041e-05 6.35724e-07
8.23041e-05 0.000123342 2.25206e-07
6.35724e-07 2.25206e-07 -5.76851e-05
0.00082935 7.77736e-05 1.17279e-06
7.77736e-05 0.000201482 -8.36998e-06
1.17279e-06 -8.36998e-06 7.4834e-05
0.000586216 1.49272e-05 -3.65343e-06
1.49272e-05 3.95977e-05 -1.07346e-05
-3.65343e-06 -1.07346e-05 -1.97401e-06
0.000620052 3.74731e-05 3.2568e-07
3.74731e-05 8.37884e-05 -3.57929e-08
3.2568e-07 -3.57929e-08 -2.6403e-05
0.000223813 4.02846e-05 -4.68332e-06
4.02846e-05 -0.000145855 2.0385e-06
-4.68332e-06 2.0385e-06 -0.000289421
0.00282054 -9.94623e-05 -5.51881e-05
-9.94623e-05 0.00143262 -4.40721e-06
-5.51881e-05 -4.40721e-06 0.00143812
0.000445558 3.33219e-06 8.1881e-07
3.33219e-06 -4.92013e-05 -2.45554e-07
8.1881e-07 -2.45554e-07 -8.26601e-05
0.000552132 3.57154e-05 -2.92083e-06
3.57154e-05 3.99375e-05 4.41222e-06
-2.92083e-06 4.41222e-06 -5.7436e-05
0.00264584 -8.60338e-05 -6.6107e-06
-8.60338e-05 0.00131727 5.17322e-07
-6.6107e-06 5.17322e-07 0.00132491
0.000431726 -1.72019e-05 6.63235e-09
-1.72019e-05 -6.31332e-05 6.92415e-06
6.63235e-09 6.92415e-06 -9.12558e-05
0.00248701 -6.83394e-05 2.86626e-05
-6.83394e-05 0.00121256 4.72271e-06
2.86626e-05 4.72271e-06 0.00122345
0.000550911 0.000184981 -0.000642419
0.000184981 0.00320896 -3.9123e-05
-0.000642419 -3.9123e-05 0.00130155
-0.0054047 0.000170649 3.67887e-05
0.000170649 0.00401269 3.09096e-06
3.67887e-05 3.09096e-06 -0.00156904
0.00552055 0.000126506 -0.000181668
0.000126506 0.00320418 -4.77007e-05
-0.000181668 -4.77007e-05 0.0015214
0.000284759 4.92769e-05 1.17731e-06
4.92769e-05 -0.000113033 -6.03552e-06
1.17731e-06 -6.03552e-06 -0.000274615
0.000867049 7.80192e-05 5.77933e-06
7.80192e-05 0.000282378 5.60401e-06
5.77933e-06 5.60401e-06 3.5634e-05
0.00249073 0.000482008 -2.67679e-06
0.000482008 0.00121021 3.52249e-06
-2.67679e-06 3.52249e-06 0.000920513
0.00208699 0.000560878 7.94543e-06
0.000560878 0.000824056 1.46986e-06
7.94543e-06 1.46986e-06 0.00044049
0.000347392 0.000266927 2.72956e-07
0.000266927 9.32149e-06 -3.15732e-06
2.72956e-07 -3.15732e-06 -0.000298497
0.000460064 0.00010675 -5.27598e-06
0.00010675 0.00013013 8.78384e-06
-5.27598e-06 8.78384e-06 -0.000116803
0.000552261 0.000141664 1.00454e-05
0.000141664 0.000112826 1.15216e-05
1.00454e-05 1.15216e-05 -0.000139167
0.000461791 0.000312585 -6.43711e-06
0.000312585 0.000124843 -2.95432e-06
-6.43711e-06 -2.95432e-06 -0.000256713
-0.000480898 0.000393872 6.09256e-06
0.000393872 -0.000731131 -1.07373e-05
6.09256e-06 -1.07373e-05 -0.00102033
0.00221025 0.00068672 -4.48727e-06
0.00068672 0.000778394 1.78072e-05
-4.48727e-06 1.78072e-05 0.000596115
0.00129041 0.000754482 2.12697e-05
0.000754482 -4.72876e-05 7.42637e-06
2.12697e-05 7.42637e-06 -0.000192067
0.00143 0.000547708 -7.59367e-06
0.000547708 0.000516069 -3.26347e-06
-7.59367e-06 -3.26347e-06 0.000305731
0.00186757 0.000272915 -8.23443e-06
0.000272915 0.000992505 2.8353e-05
-8.23443e-06 2.8353e-05 0.000728901
0.013453 0.00202176 -0.000100769
0.00202176 0.00201517 6.62749e-05
-0.000100769 6.62749e-05 0.000657318
0.0011448 -0.00153934 -0.000452154
-0.00153934 0.00330464 -0.000171885
-0.000452154 -0.000171885 0.000617718
-0.00075638 -0.0026299 0.000544417
-0.0026299 0.00474542 0.000151658
0.000544417 0.000151658 -4.90409e-05
0.00399531 -0.00243501 0.000224062
-0.00243501 0.00198828 0.000301419
0.000224062 0.000301419 -0.00045229
0.0131645 0.00359146 -8.301e-05
0.00359146 0.00463615 -4.62096e-05
-8.301e-05 -4.62096e-05 0.000763315
-0.00286373 0.000183325 -5.73342e-05
0.000183325 -0.000413321 -5.31624e-05
-5.73342e-05 -5.31624e-05 -0.000691381
0.00206406 0.00152158 -3.78736e-05
0.00152158 0.000541271 -1.40838e-05
-3.78736e-05 -1.40838e-05 0.00108532
0.0168042 0.00339577 1.93775e-05
0.00339577 0.00436833 3.57578e-05
1.93775e-05 3.57578e-05 0.0020994
0.00620868 0.00291055 -4.17896e-05
0.00291055 0.0002106 -9.27472e-05
-4.17896e-05 -9.27472e-05 0.00032095
0.00179014 0.0010456 1.13434e-05
0.0010456 0.000218759 -2.3154e-06
1.13434e-05 -2.3154e-06 -1.25569e-05
0.00154202 0.000811457 8.09379e-06
0.000811457 0.000385126 -2.35664e-06
8.09379e-06 -2.35664e-06 0.000100148
0.00182945 0.000529561 -2.1662e-05
0.000529561 0.000817072 2.84048e-06
-2.1662e-05 2.84048e-06 0.000646096
0.00279486 0.00136483 -5.74349e-05
0.00136483 0.000854877 -2.3114e-05
-5.74349e-05 -2.3114e-05 0.000203873
0.00168091 0.00154632 5.38185e-05
0.00154632 -0.000585579 3.07382e-05
5.38185e-05 3.07382e-05 -0.000917688
0.00167899 -0.000348848 -9.78262e-05
-0.000348848 -0.00444828 4.51581e-05
-9.78262e-05 4.51581e-05 -0.00470482
0.00113195 -0.00131201 7.58245e-06
-0.00131201 0.00176021 -1.06559e-05
7.58245e-06 -1.06559e-05 0.00125975
-0.0101066 -0.000177982 0.00026111
-0.000177982 0.00509386 -2.26745e-05
0.00026111 -2.26745e-05 -2.49373e-05
4.01564e-05 -0.00138016 -4.33041e-05
-0.00138016 -0.000738578 5.85501e-06
-4.33041e-05 5.85501e-06 -0.00139732
0.00428768 -0.00245104 2.39072e-05
-0.00245104 0.000235916 3.62774e-05
2.39072e-05 3.62774e-05 0.000125059
0.00172091 -0.000155688 0.000686848
-0.000155688 0.00346122 -0.000151031
0.000686848 -0.000151031 0.00176407
0.0132112 -0.00187634 -0.000236539
-0.00187634 0.00165205 0.000113021
-0.000236539 0.000113021 0.000278293
0.00168557 -0.00114633 -3.20004e-05
-0.00114633 -8.1034e-05 -1.14088e-06
-3.20004e-05 -1.14088e-06 -0.000317796
0.0107801 -5.08498e-05 -0.000164892
-5.08498e-05 -0.000354852 4.94482e-05
-0.000164892 4.94482e-05 -0.00131395
0.00661172 -0.00165342 0.000100122
-0.00165342 -0.000140724 1.45271e-05
0.000100122 1.45271e-05 0.000275692
0.00421015 -0.00104308 6.5751e-05
-0.00104308 0.000902765 -3.45204e-05
6.5751e-05 -3.45204e-05 0.000639087
0.00302299 -0.000645361 -4.16044e-05
-0.000645361 -0.00128101 1.68771e-05
-4.16044e-05 1.68771e-05 -0.000447202
-0.00592938 2.36012e-05 4.32966e-06
2.36012e-05 -0.00387815 2.99548e-06
4.32966e-06 2.99548e-06 -0.00382635
0.00158361 -0.000650297 -1.294e-05
-0.000650297 -0.00014536 1.3484e-06
-1.294e-05 1.3484e-06 -0.000174189
0.00316844 -0.000651846 3.10158e-05
-0.000651846 0.00049389 -1.1201e-05
3.10158e-05 -1.1201e-05 0.00054927
0.0011631 -0.0007094 -7.78156e-06
-0.0007094 -0.000186496 6.99757e-06
-7.78156e-06 6.99757e-06 -0.000496175
0.0020122 -0.000682168 -3.12661e-06
-0.000682168 -1.00635e-05 2.91731e-06
-3.12661e-06 2.91731e-06 -0.000195388
0.00229434 -0.00055527 4.55888e-06
-0.00055527 9.86746e-06 -1.12168e-06
4.55888e-06 -1.12168e-06 -3.19834e-05
0.00224571 -0.000684727 -4.82794e-06
-0.000684727 0.000277584 8.82915e-06
-4.82794e-06 8.82915e-06 1.26679e-06
0.00204898 -0.00050329 2.41089e-07
-0.00050329 4.63731e-05 1.41085e-06
2.41089e-07 1.41085e-06 -8.50793e-05
0.00216907 -0.000488062 -9.1546e-07
-0.000488062 9.9973e-05 8.02929e-07
-9.1546e-07 8.02929e-07 1.84955e-05
0.00194155 -0.000475198 3.4611e-06
-0.000475198 0.000107967 6.10373e-06
3.4611e-06 6.10373e-06 -8.28724e-05
0.00195971 -0.000436392 -1.37653e-07
-0.000436392 7.29478e-05 1.2618e-06
-1.37653e-07 1.2618e-06 -6.32709e-05
0.0021194 -0.000465223 -2.70032e-06
-0.000465223 0.000170754 1.62623e-06
-2.70032e-06 1.62623e-06 4.03156e-05
0.00199712 -0.000415175 -4.09367e-06
-0.000415175 0.000178632 2.88616e-06
-4.09367e-06 2.88616e-06 3.59926e-05
0.00212178 -0.000420621 -1.38757e-06
-0.000420621 0.00028842 -1.45547e-06
-1.38757e-06 -1.45547e-06 0.000137308
0.0019959 -0.000408477 4.36722e-06
-0.000408477 0.00017158 6.53847e-06
4.36722e-06 6.53847e-06 1.36333e-05
0.00196753 -0.000419741 4.75098e-07
-0.000419741 0.000197542 -6.96716e-07
4.75098e-07 -6.96716e-07 1.84856e-05
0.0018644 -0.000432932 -3.03236e-06
-0.000432932 0.000141119 -3.19055e-06
-3.03236e-06 -3.19055e-06 -5.87257e-05
0.00192819 -0.000479523 -4.73393e-06
-0.000479523 0.000282948 -2.897e-06
-4.73393e-06 -2.897e-06 2.1939e-05
0.00197047 -0.000511179 -2.52499e-07
-0.000511179 0.000236891 -9.58676e-08
-2.52499e-07 -9.58676e-08 -2.07353e-05
0.00206408 -0.00051501 7.63291e-06
-0.00051501 0.000273932 3.623e-06
7.63291e-06 3.623e-06 2.32844e-05
0.00139631 -0.000416494 -9.25189e-06
-0.000416494 0.000174024 2.33372e-06
-9.25189e-06 2.33372e-06 -0.000110399
0.00170827 -0.000534356 -1.47863e-06
-0.000534356 0.000261804 -1.454e-07
-1.47863e-06 -1.454e-07 -5.51573e-05
0.00163667 -0.000575597 5.05264e-06
-0.000575597 0.000124696 1.1548e-06
5.05264e-06 1.1548e-06 -0.00020083
0.000742316 -0.000216011 -9.63845e-06
-0.000216011 -6.64306e-06 6.60806e-06
-9.63845e-06 6.60806e-06 -0.000207171
0.00120504 -0.000371509 1.89662e-06
-0.000371509 0.000175867 4.39644e-07
1.89662e-06 4.39644e-07 -0.000100687
0.00162788 -0.000531361 3.95435e-06
-0.000531361 0.000368394 4.8591e-07
3.95435e-06 4.8591e-07 2.96849e-05
0.000522664 -0.000166117 -2.18538e-05
-0.000166117 -4.64317e-05 1.77025e-05
-2.18538e-05 1.77025e-05 -0.000150578
0.000718291 -0.000219332 -4.38092e-07
-0.000219332 4.30084e-05 6.76495e-07
-4.38092e-07 6.76495e-07 -0.000164329
0.000740607 -0.000276056 3.78014e-06
-0.000276056 -4.76965e-05 -2.29607e-06
3.78014e-06 -2.29607e-06 -0.000288244
0.00469183 0.000200798 -0.000115301
0.000200798 0.00264338 8.36222e-06
-0.000115301 8.36222e-06 0.00261928
0.000555043 -0.000115153 -8.35833e-07
-0.000115153 -1.65814e-06 -9.10391e-07
-8.35833e-07 -9.10391e-07 -9.04187e-05
0.00115505 -0.000211475 4.42203e-06
-0.000211475 0.000393941 -4.42669e-06
4.42203e-06 -4.42669e-06 0.000162224
0.00410084 0.000167432 1.72833e-05
0.000167432 0.00226287 5.07784e-07
1.72833e-05 5.07784e-07 0.00224929
0.000627727 -5.7434e-05 1.45199e-05
-5.7434e-05 5.47832e-05 -1.32238e-05
1.45199e-05 -1.32238e-05 -1.58923e-05
0.00361848 0.000133206 9.94363e-05
0.000133206 0.00194701 -4.74043e-06
9.94363e-05 -4.74043e-06 0.00194411
0.00120107 0.000384734 3.34809e-06
0.000384734 0.000283575 -5.10971e-06
3.34809e-06 -5.10971e-06 -1.28745e-05
0.000929428 0.000242104 1.89255e-06
0.000242104 0.000186272 -1.6675e-06
1.89255e-06 -1.6675e-06 -7.18619e-06
5.38318e-05 0.000120326 4.43775e-06
0.000120326 -0.000283806 6.41201e-07
4.43775e-06 6.41201e-07 -0.000473223
-0.000759225 2.2601e-05 -3.08873e-06
2.2601e-05 -0.000760497 -7.86541e-07
-3.08873e-06 -7.86541e-07 -0.000922839
0.000343093 8.17105e-05 -5.92775e-08
8.17105e-05 -6.72579e-05 1.55791e-06
-5.92775e-08 1.55791e-06 -0.000250132
0.000845332 8.52954e-05 6.20262e-07
8.52954e-05 0.000209489 -8.35111e-06
6.20262e-07 -8.35111e-06 5.82896e-05
0.000342761 4.92461e-05 -2.38095e-06
4.92461e-05 -6.08953e-05 3.58191e-06
-2.38095e-06 3.58191e-06 -0.000227635
0.000559288 6.24044e-05 -1.75451e-07
6.24044e-05 4.1706e-05 -5.40797e-08
-1.75451e-07 -5.40797e-08 -8.26392e-05
0.000571858 1.76558e-05 -5.14941e-06
1.76558e-05 3.03906e-05 -1.33612e-05
-5.14941e-06 -1.33612e-05 -2.10136e-05
0.00307501 -0.000110407 -7.52043e-05
-0.000110407 0.00159936 -5.24985e-06
-7.52043e-05 -5.24985e-06 0.00160212
0.000448524 2.86436e-06 1.11467e-06
2.86436e-06 -4.1586e-05 -3.38978e-07
1.11467e-06 -3.38978e-07 -8.35678e-05
0.000573894 3.33306e-05 -3.10602e-06
3.33306e-05 6.03024e-05 6.40275e-06
-3.10602e-06 6.40275e-06 -5.04532e-05
0.00280828 -0.000104117 -7.38439e-06
-0.000104117 0.00142581 6.33144e-07
-7.38439e-06 6.33144e-07 0.00142968
0.000366148 -4.4688e-05 -4.74626e-06
-4.4688e-05 -9.28895e-05 8.17041e-06
-4.74626e-06 8.17041e-06 -0.000128822
0.0026412 -8.65647e-05 3.55642e-05
-8.65647e-05 0.00131391 4.66376e-06
3.55642e-05 4.66376e-06 0.00132126
0.0140497 0.000531894 0.000408403
0.000531894 0.0022415 0.000101004
0.000408403 0.000101004 0.0016573
-0.0018756 -0.00226046 -0.000383164
-0.00226046 -0.00267257 -6.75643e-05
-0.000383164 -6.75643e-05 -0.00418984
-0.00884388 0.00119769 -0.000163988
0.00119769 0.00326393 -0.000112691
-0.000163988 -0.000112691 -0.00277212
0.000117457 1.68185e-05 1.82615e-05
1.68185e-05 -0.000165742 2.0743e-07
1.82615e-05 2.0743e-07 -0.000435228
0.0017732 0.000383078 -1.24997e-05
0.000383078 0.00078779 1.21677e-06
-1.24997e-05 1.21677e-06 0.000526942
0.00184638 0.000437849 -7.97488e-06
0.000437849 0.000880302 -2.43431e-06
-7.97488e-06 -2.43431e-06 0.000533486
0.00163734 0.000509588 1.38312e-06
0.000509588 0.000565056 -1.06257e-07
1.38312e-06 -1.06257e-07 0.000197836
0.00125411 0.000522499 8.85581e-06
0.000522499 0.000172797 1.51091e-05
8.85581e-06 1.51091e-05 -0.00018371
-0.000657147 0.000324162 1.52966e-05
0.000324162 -0.000839358 1.60146e-06
1.52966e-05 1.60146e-06 -0.00113584
-0.000270512 0.000241385 -8.32273e-06
0.000241385 -0.000234242 1.05838e-05
-8.32273e-06 1.05838e-05 -0.000652233
5.07297e-05 0.00045369 9.27394e-06
0.00045369 -0.000443328 -5.15001e-07
9.27394e-06 -5.15001e-07 -0.000758145
0.00222385 0.000678179 2.56085e-06
0.000678179 0.00084385 5.7633e-06
2.56085e-06 5.7633e-06 0.000610778
-0.000350097 0.000458769 5.65608e-06
0.000458769 -0.000793628 8.35e-07
5.65608e-06 8.35e-07 -0.0010155
0.00301689 0.000862022 1.46744e-06
0.000862022 0.000862669 1.18432e-05
1.46744e-06 1.18432e-05 0.000720335
0.00138727 0.000777476 1.61679e-05
0.000777476 2.15899e-05 7.97762e-06
1.61679e-05 7.97762e-06 -0.000228436
0.000752757 0.000686041 3.23833e-06
0.000686041 -0.000360542 -6.34283e-07
3.23833e-06 -6.34283e-07 -0.000455907
0.000616739 0.000447706 4.08019e-06
0.000447706 5.91179e-05 -3.32841e-05
4.08019e-06 -3.32841e-05 -0.000141823
0.00547203 0.00140579 1.57389e-05
0.00140579 -0.000800286 1.62208e-05
1.57389e-05 1.62208e-05 0.000280845
0.0130932 0.00219054 0.000232181
0.00219054 0.00144604 0.000119047
0.000232181 0.000119047 -0.000189917
0.0103208 -0.00330698 0.000378176
-0.00330698 0.00490714 -4.5146e-05
0.000378176 -4.5146e-05 0.00251362
0.00504454 0.00365712 0.000454273
0.00365712 -0.000805454 0.000267206
0.000454273 0.000267206 -0.00490466
0.000215455 0.00102141 -4.98308e-05
0.00102141 9.69799e-05 -3.90324e-06
-4.98308e-05 -3.90324e-06 0.000614488
0.0037141 0.00213544 -0.000111416
0.00213544 -0.000432708 -4.77851e-05
-0.000111416 -4.77851e-05 -4.5119e-05
0.00563749 0.00182955 7.4592e-05
0.00182955 0.00113758 2.53942e-05
7.4592e-05 2.53942e-05 0.000909791
0.00387978 0.00131936 1.64476e-05
0.00131936 0.00113498 6.53503e-06
1.64476e-05 6.53503e-06 0.000861371
-0.000142345 0.000595391 -2.29823e-05
0.000595391 -0.000468324 9.64366e-06
-2.29823e-05 9.64366e-06 -0.000705063
0.00588866 0.00202049 -0.000167405
0.00202049 0.00134463 -2.12339e-05
-0.000167405 -2.12339e-05 0.00092109
0.0029441 -0.000412011 1.35267e-05
-0.000412011 -4.85916e-05 4.93622e-06
1.35267e-05 4.93622e-06 0.000243791
0.0110247 -0.000487472 -3.30071e-05
-0.000487472 0.00171725 -3.23589e-08
-3.30071e-05 -3.23589e-08 0.00139961
-0.0119481 -0.00205566 0.000610791
-0.00205566 -0.00564441 5.72071e-06
0.000610791 5.72071e-06 -0.0059545
-5.11486e-05 -0.00092724 -8.90795e-05
-0.00092724 -0.000890872 2.12111e-05
-8.90795e-05 2.12111e-05 -0.00110288
0.00875792 -0.002111 4.09169e-05
-0.002111 0.000445897 8.85888e-05
4.09169e-05 8.85888e-05 0.00117229
0.00101202 -0.000284501 -0.000229504
-0.000284501 -0.003959 3.62984e-05
-0.000229504 3.62984e-05 -0.0058989
0.00220177 -0.000811904 2.27157e-05
-0.000811904 -0.00023487 1.53692e-06
2.27157e-05 1.53692e-06 -0.000213485
0.00461267 -0.000539083 -3.75719e-05
-0.000539083 -0.000323835 -5.57561e-06
-3.75719e-05 -5.57561e-06 0.000211585
0.00532054 -0.000733338 3.39051e-05
-0.000733338 0.00120429 -2.73391e-05
3.39051e-05 -2.73391e-05 0.00146508
0.00510908 -0.000335946 9.06013e-05
-0.000335946 0.00132276 4.93292e-06
9.06013e-05 4.93292e-06 0.00135048
-0.00296532 -0.000322491 1.47902e-06
-0.000322491 -0.00272229 7.19707e-06
1.47902e-06 7.19707e-06 -0.00252166
0.00198707 -0.000575888 -4.12234e-06
-0.000575888 -0.000187175 8.00346e-07
-4.12234e-06 8.00346e-07 -5.90553e-05
0.00216082 -0.000431723 2.07659e-05
-0.000431723 -0.000233058 -5.33494e-06
2.07659e-05 -5.33494e-06 -6.69738e-08
0.00175286 -0.000661305 -6.16375e-07
-0.000661305 -0.000149534 6.77971e-06
-6.16375e-07 6.77971e-06 -0.000336052
0.00223308 -0.000552565 1.5156e-06
-0.000552565 -1.9884e-05 1.27055e-06
1.5156e-06 1.27055e-06 -6.35942e-05
0.0022405 -0.000478127 1.36005e-06
-0.000478127 2.09535e-05 -5.36029e-07
1.36005e-06 -5.36029e-07 1.91919e-05
0.00204434 -0.000501935 1.36171e-06
-0.000501935 4.04202e-05 3.7698e-06
1.36171e-06 3.7698e-06 -8.71774e-05
0.0021037 -0.00047791 4.06955e-07
-0.00047791 7.37583e-05 4.23014e-07
4.06955e-07 4.23014e-07 -7.74846e-06
0.00209825 -0.000428002 -2.94695e-06
-0.000428002 6.2162e-05 4.12469e-07
-2.94695e-06 4.12469e-07 -9.15685e-06
0.00198908 -0.00044026 3.94802e-06
-0.00044026 8.71578e-05 1.96214e-06
3.94802e-06 1.96214e-06 -4.82254e-05
0.0020209 -0.000456157 -1.4413e-07
-0.000456157 0.000129715 1.61457e-07
-1.4413e-07 1.61457e-07 3.91207e-07
0.00196331 -0.000416693 -1.78195e-07
-0.000416693 0.000129117 4.93993e-07
-1.78195e-07 4.93993e-07 -2.60326e-06
0.00192931 -0.00041672 6.1389e-07
-0.00041672 0.00013043 2.87806e-06
6.1389e-07 2.87806e-06 -1.11568e-05
0.00203253 -0.000410563 -2.04205e-06
-0.000410563 0.00022855 2.98427e-07
-2.04205e-06 2.98427e-07 8.13508e-05
0.00205169 -0.000414575 -9.38966e-07
-0.000414575 0.000248809 -1.40062e-06
-9.38966e-07 -1.40062e-06 8.0354e-05
0.00196698 -0.000418864 4.85973e-06
-0.000418864 0.00019623 3.13531e-06
4.85973e-06 3.13531e-06 1.74065e-05
0.00192221 -0.000438094 -1.52505e-08
-0.000438094 0.000177295 -3.28054e-07
-1.52505e-08 -3.28054e-07 -2.40786e-05
0.00195106 -0.000426016 -1.49346e-06
-0.000426016 0.000253631 -2.35301e-06
-1.49346e-06 -2.35301e-06 3.5158e-05
0.00155663 -0.000399476 -8.70241e-06
-0.000399476 0.00016997 6.17239e-07
-8.70241e-06 6.17239e-07 -8.60032e-05
0.00187008 -0.000479423 -8.47695e-07
-0.000479423 0.000247477 -8.41408e-07
-8.47695e-07 -8.41408e-07 -1.77277e-05
0.0020301 -0.000518405 5.04443e-06
-0.000518405 0.000275914 1.89103e-06
5.04443e-06 1.89103e-06 1.57671e-05
0.000842342 -0.000233308 -1.25542e-05
-0.000233308 -1.69064e-05 7.85721e-06
-1.25542e-05 7.85721e-06 -0.000219323
0.00142152 -0.000415261 -1.94653e-07
-0.000415261 0.000193616 5.16877e-07
-1.94653e-07 5.16877e-07 -8.91992e-05
0.00161916 -0.000522607 3.14685e-06
-0.000522607 0.000211968 8.75081e-07
3.14685e-06 8.75081e-07 -0.000104232
0.000428333 -0.000178127 -2.11843e-05
-0.000178127 -0.000122909 1.78769e-05
-2.11843e-05 1.78769e-05 -0.000235273
0.000786173 -0.00022224 3.39927e-07
-0.00022224 1.89956e-05 3.70145e-08
3.39927e-07 3.70145e-08 -0.000184383
0.000965142 -0.000353042 9.41133e-06
-0.000353042 2.32723e-05 -2.60031e-06
9.41133e-06 -2.60031e-06 -0.000250655
0.00573153 0.000135129 -0.000188076
0.000135129 0.00325447 1.08633e-05
-0.000188076 1.08633e-05 0.00324598
0.000467515 -0.000173566 -1.64578e-07
-0.000173566 -8.02054e-05 1.1822e-07
-1.64578e-07 1.1822e-07 -0.00018571
0.000660764 -0.000223929 8.8886e-06
-0.000223929 1.31775e-05 -5.95479e-06
8.8886e-06 -5.95479e-06 -0.000196643
0.00503804 0.000134469 4.70049e-06
0.000134469 0.00283671 -5.50428e-07
4.70049e-06 -5.50428e-07 0.0028281
0.000446942 -0.000122207 1.78693e-05
-0.000122207 -6.49872e-05 -1.59318e-05
1.78693e-05 -1.59318e-05 -0.000158239
0.00434639 0.000111544 0.000153301
0.000111544 0.00240452 -1.14223e-05
0.000153301 -1.14223e-05 0.00240308
0.00103867 0.000431293 -4.11e-06
0.000431293 7.45679e-05 5.34918e-07
-4.11e-06 5.34918e-07 -0.000242974
0.00169922 0.000433712 -7.51795e-07
0.000433712 0.000589277 -1.4877e-06
-7.51795e-07 -1.4877e-06 0.000286401
0.000657628 0.000246756 -1.44543e-06
0.000246756 -4.20768e-05 -1.86608e-06
-1.44543e-06 -1.86608e-06 -0.000276047
0.000691226 0.00023489 -5.87922e-06
0.00023489 6.20136e-05 -2.96849e-06
-5.87922e-06 -2.96849e-06 -0.000139557
-9.06642e-05 0.000121706 1.13688e-06
0.000121706 -0.000374593 -7.57432e-07
1.13688e-06 -7.57432e-07 -0.000569068
0.00121714 0.000230125 -2.75732e-06
0.000230125 0.000455637 -4.9721e-06
-2.75732e-06 -4.9721e-06 0.000252681
-6.04761e-05 4.40822e-05 -1.86149e-06
4.40822e-05 -0.000326695 1.90837e-06
-1.86149e-06 1.90837e-06 -0.00050179
0.000737221 9.51985e-05 3.34626e-07
9.51985e-05 0.000149169 -2.28944e-07
3.34626e-07 -2.28944e-07 -2.91502e-06
0.000655897 4.07723e-05 -9.63607e-06
4.07723e-05 7.94933e-05 -1.51554e-05
-9.63607e-06 -1.51554e-05 1.66683e-05
0.000600461 4.02626e-05 -2.27468e-06
4.02626e-05 7.55287e-05 9.33893e-06
-2.27468e-06 9.33893e-06 -5.01513e-05
0.000529974 2.26927e-05 2.19733e-07
2.26927e-05 8.03272e-06 -1.62736e-07
2.19733e-07 -1.62736e-07 -4.28607e-05
0.00354581 -0.000126937 -9.80137e-05
-0.000126937 0.00190354 -6.19017e-06
-9.80137e-05 -6.19017e-06 0.00190152
0.00307013 -0.000122912 -8.3385e-06
-0.000122912 0.00159826 7.69999e-07
-8.3385e-06 7.69999e-07 0.00159752
0.000357204 2.47473e-05 4.30354e-06
2.47473e-05 -9.68235e-05 1.0536e-05
4.30354e-06 1.0536e-05 -0.000137537
0.00275006 -0.000103584 4.34648e-05
-0.000103584 0.0013896 4.46869e-06
4.34648e-05 4.46869e-06 0.00139327
0.00403396 0.000133958 8.30918e-05
0.000133958 -0.000978972 2.39659e-05
8.30918e-05 2.39659e-05 0.000188744
0.00440939 -0.000876588 0.000138433
-0.000876588 -0.00378236 6.65941e-05
0.000138433 6.65941e-05 -0.00485929
0.0111578 -0.00241696 -0.000182019
-0.00241696 0.00421081 -8.28749e-05
-0.000182019 -8.28749e-05 0.00364137
0.00127176 0.000527243 9.34039e-06
0.000527243 2.52235e-06 7.72378e-06
9.34039e-06 7.72378e-06 -0.000308494
0.00380924 0.000649455 -6.73052e-06
0.000649455 0.00202816 6.08968e-06
-6.73052e-06 6.08968e-06 0.00164198
0.00113483 0.0004528 -1.52157e-06
0.0004528 0.000273903 -3.53651e-06
-1.52157e-06 -3.53651e-06 -7.65675e-05
0.00127078 0.000543926 2.86151e-06
0.000543926 0.000313372 7.30253e-07
2.86151e-06 7.30253e-07 -2.96468e-05
0.00144061 0.000542233 -1.9697e-06
0.000542233 0.000299849 3.39859e-06
-1.9697e-06 3.39859e-06 -6.66736e-05
0.00152745 0.000636357 1.83863e-05
0.000636357 0.000290649 1.50861e-05
1.83863e-05 1.50861e-05 -3.14413e-05
0.00201514 0.000659985 -2.7131e-05
0.000659985 0.000716527 -1.81115e-06
-2.7131e-05 -1.81115e-06 0.00033895
0.000781491 0.000545902 1.82784e-05
0.000545902 5.21845e-05 -2.28196e-05
1.82784e-05 -2.28196e-05 -0.000185093
0.00135454 0.000657312 2.54039e-06
0.000657312 0.00016663 -2.65019e-06
2.54039e-06 -2.65019e-06 -9.08047e-05
0.00167578 0.000734657 5.81597e-06
0.000734657 5.60504e-05 1.75052e-06
5.81597e-06 1.75052e-06 1.78114e-05
0.00179639 0.000766868 1.34459e-05
0.000766868 0.000128147 6.30837e-07
1.34459e-05 6.30837e-07 -0.000131006
0.00162562 0.000688981 2.35162e-05
0.000688981 0.00010553 1.64769e-05
2.35162e-05 1.64769e-05 -7.27534e-05
0.00092563 0.000732662 -4.85725e-06
0.000732662 -0.000228265 -4.98849e-06
-4.85725e-06 -4.98849e-06 -0.000463296
0.000768851 0.000678153 -9.61617e-06
0.000678153 -0.000344006 -1.99662e-05
-9.61617e-06 -1.99662e-05 -0.000421024
0.00118424 0.000665435 4.58238e-05
0.000665435 -0.000926323 3.60366e-05
4.58238e-05 3.60366e-05 -0.000696525
0.00595957 0.0014601 -8.54504e-05
0.0014601 -0.000901449 -2.5066e-05
-8.54504e-05 -2.5066e-05 0.000211658
0.00383072 0.00141673 0.000475029
0.00141673 -0.00364746 7.71344e-05
0.000475029 7.71344e-05 -0.00550617
0.00103138 0.00161463 -0.000121461
0.00161463 -0.00121872 -4.47713e-05
-0.000121461 -4.47713e-05 -0.000756756
0.00415699 0.00148413 -3.14019e-05
0.00148413 0.000749244 -8.65141e-06
-3.14019e-05 -8.65141e-06 0.000581109
0.00425907 0.00136654 -0.000126562
0.00136654 0.00126468 -3.49336e-05
-0.000126562 -3.49336e-05 0.000978514
0.00271207 -0.000269423 -5.46091e-05
-0.000269423 -0.000317007 -2.19442e-05
-5.46091e-05 -2.19442e-05 -5.159e-05
3.69771e-05 -0.000229163 6.16581e-05
-0.000229163 -0.000627925 1.35969e-05
6.16581e-05 1.35969e-05 -0.00010813
0.002246 0.000848539 0.000170449
0.000848539 -0.00463181 -6.72697e-06
0.000170449 -6.72697e-06 -0.00482855
-0.000305451 -0.000594497 -3.65554e-05
-0.000594497 -0.00154796 5.97919e-05
-3.65554e-05 5.97919e-05 -0.00133009
0.00611389 -0.000583805 -0.000130863
-0.000583805 0.000558828 3.89914e-05
-0.000130863 3.89914e-05 0.000658519
0.00246395 -0.000536954 -2.00719e-05
-0.000536954 -0.00031144 1.11058e-05
-2.00719e-05 1.11058e-05 4.63903e-06
0.00410241 -0.000358157 -4.74292e-06
-0.000358157 0.00067496 -2.98606e-06
-4.74292e-06 -2.98606e-06 0.000726026
0.00247775 -0.000316982 5.13674e-05
-0.000316982 -0.000148138 -6.98932e-06
5.13674e-05 -6.98932e-06 0.000162176
0.00357721 -9.47642e-05 3.75324e-05
-9.47642e-05 0.00108109 -1.09416e-06
3.75324e-05 -1.09416e-06 0.00106134
0.000788753 -0.000485285 -2.51803e-05
-0.000485285 -0.000849924 1.03734e-05
-2.51803e-05 1.03734e-05 -0.000656642
0.00204371 -0.000446141 -1.39051e-06
-0.000446141 -0.000328373 1.87657e-06
-1.39051e-06 1.87657e-06 -0.000100579
0.00231542 -0.000393366 4.02554e-06
-0.000393366 -0.000146496 -1.88705e-06
4.02554e-06 -1.88705e-06 3.77721e-05
0.0021613 -0.000544396 -1.93351e-06
-0.000544396 -4.93796e-05 3.48555e-06
-1.93351e-06 3.48555e-06 -9.29558e-05
0.00223456 -0.000472388 1.61386e-07
-0.000472388 2.882e-05 -1.98103e-07
1.61386e-07 -1.98103e-07 2.8549e-05
0.00217865 -0.000380654 -1.02638e-06
-0.000380654 8.81532e-06 -5.57919e-07
-1.02638e-06 -5.57919e-07 4.5514e-06
0.00203477 -0.000466584 4.90626e-07
-0.000466584 4.6039e-05 6.49158e-07
4.90626e-07 6.49158e-07 -3.41121e-05
0.00209141 -0.000434468 -8.51268e-07
-0.000434468 6.68503e-05 1.60303e-07
-8.51268e-07 1.60303e-07 -6.25829e-06
0.00200197 -0.000373629 -2.03749e-06
-0.000373629 8.2092e-05 9.48053e-07
-2.03749e-06 9.48053e-07 -1.3192e-05
0.00193582 -0.000447746 1.24167e-06
-0.000447746 9.68875e-05 -8.09758e-07
1.24167e-06 -8.09758e-07 -3.115e-05
0.00191799 -0.000414608 1.12659e-06
-0.000414608 9.77486e-05 -5.36502e-07
1.12659e-06 -5.36502e-07 -3.46027e-05
0.00193331 -0.000387654 1.98251e-07
-0.000387654 0.000131923 -1.22631e-06
1.98251e-07 -1.22631e-06 -1.06907e-05
0.00194281 -0.000400502 -1.90923e-06
-0.000400502 0.000168782 2.56547e-06
-1.90923e-06 2.56547e-06 2.54964e-05
0.00208413 -0.000414086 -1.8875e-06
-0.000414086 0.000262829 6.4792e-07
-1.8875e-06 6.4792e-07 9.82776e-05
0.00203964 -0.000401916 -1.14161e-06
-0.000401916 0.000272867 -1.81745e-06
-1.14161e-06 -1.81745e-06 8.24168e-05
0.0019788 -0.000443636 3.10795e-06
-0.000443636 0.000212444 2.46386e-06
3.10795e-06 2.46386e-06 9.42451e-06
0.0019629 -0.000428921 5.93472e-07
-0.000428921 0.000261294 -5.33903e-07
5.93472e-07 -5.33903e-07 4.25312e-05
0.00167005 -0.000360146 -6.61895e-06
-0.000360146 0.000193017 8.54742e-07
-6.61895e-06 8.54742e-07 -3.39878e-05
0.000920516 -0.000235991 -1.36659e-05
-0.000235991 -3.17329e-05 7.26794e-06
-1.36659e-05 7.26794e-06 -0.000229582
0.00153096 -0.000394947 -1.08612e-06
-0.000394947 0.000162061 -2.06053e-07
-1.08612e-06 -2.06053e-07 -9.46298e-05
0.00181182 -0.000479465 2.99118e-06
-0.000479465 0.000211503 7.08403e-07
2.99118e-06 7.08403e-07 -5.7948e-05
0.000422761 -0.000216848 -2.21003e-05
-0.000216848 -0.000129308 1.8477e-05
-2.21003e-05 1.8477e-05 -0.000257782
0.000853042 -0.000238175 7.71266e-07
-0.000238175 -1.57646e-05 1.1239e-07
7.71266e-07 1.1239e-07 -0.000220234
0.00144617 -0.000414618 8.54193e-06
-0.000414618 0.000211541 -1.39791e-06
8.54193e-06 -1.39791e-06 -6.98558e-05
0.00636606 9.0599e-05 -0.000233316
9.0599e-05 0.00362512 1.46261e-05
-0.000233316 1.46261e-05 0.00362401
0.000467654 -0.000220834 -1.11133e-06
-0.000220834 -9.26627e-05 4.11484e-07
-1.11133e-06 4.11484e-07 -0.00021396
0.000773685 -0.000227568 1.1276e-05
-0.000227568 1.02473e-05 -7.25108e-06
1.1276e-05 -7.25108e-06 -0.000196353
0.00598109 0.000117705 -5.5793e-06
0.000117705 0.0034113 -5.83729e-07
-5.5793e-06 -5.83729e-07 0.0034023
0.000515095 -0.000197479 2.33387e-05
-0.000197479 -4.8983e-05 -1.77495e-05
2.33387e-05 -1.77495e-05 -0.000159139
0.00543008 0.000124516 0.000194467
0.000124516 0.00308676 -1.91541e-05
0.000194467 -1.91541e-05 0.00307513
0.00144332 0.000486391 -1.05886e-06
0.000486391 0.000174171 4.13909e-06
-1.05886e-06 4.13909e-06 -0.000138505
0.0015491 0.000489305 -3.49869e-06
0.000489305 0.000382111 -6.35671e-07
-3.49869e-06 -6.35671e-07 5.01828e-05
0.00107422 0.000342206 -6.16673e-06
0.000342206 0.000105003 -3.71179e-07
-6.16673e-06 -3.71179e-07 -0.000158148
0.00237877 0.000501853 4.7534e-07
0.000501853 0.00100587 2.85314e-06
4.7534e-07 2.85314e-06 0.000692708
0.000898303 0.000270046 -2.76958e-06
0.000270046 0.000114281 -1.61127e-06
-2.76958e-06 -1.61127e-06 -0.000124464
0.00118624 0.000226927 -7.51693e-06
0.000226927 0.000384401 -2.04952e-06
-7.51693e-06 -2.04952e-06 0.000172145
-0.000226454 0.000105993 -3.34365e-06
0.000105993 -0.000471968 -1.99327e-06
-3.34365e-06 -1.99327e-06 -0.000665875
0.00074286 0.000129644 -9.49197e-07
0.000129644 0.000150833 -5.21398e-07
-9.49197e-07 -5.21398e-07 -3.75902e-05
0.000645004 7.67697e-05 -1.6341e-05
7.67697e-05 5.93125e-05 -1.63073e-05
-1.6341e-05 -1.63073e-05 -1.81124e-05
0.000353755 6.73182e-05 1.42665e-07
6.73182e-05 -9.44298e-05 8.55482e-06
1.42665e-07 8.55482e-06 -0.000234432
0.000453582 3.52955e-05 -4.13944e-07
3.52955e-05 -4.16461e-05 -4.93925e-07
-4.13944e-07 -4.93925e-07 -0.000101883
0.0040181 -0.000141065 -0.000120407
-0.000141065 0.00220823 -8.33513e-06
-0.000120407 -8.33513e-06 0.00220072
0.000303542 2.76071e-05 5.48361e-06
2.76071e-05 -0.000128089 1.30939e-05
5.48361e-06 1.30939e-05 -0.00017808
0.00342649 -0.000140159 -8.22776e-06
-0.000140159 0.00183118 8.16952e-07
-8.22776e-06 8.16952e-07 0.00182551
0.00299814 -0.000125903 5.23775e-05
-0.000125903 0.00155389 4.47171e-06
5.23775e-05 4.47171e-06 0.00155198
0.000456977 0.000112288 4.7223e-06
0.000112288 -0.00159892 1.36772e-05
4.7223e-06 1.36772e-05 -0.00108985
0.00521929 1.363e-05 6.4288e-05
1.363e-05 -0.000261368 1.35703e-05
6.4288e-05 1.35703e-05 0.000746212
0.0130794 0.000788357 -4.5854e-05
0.000788357 0.00253433 3.58349e-06
-4.5854e-05 3.58349e-06 0.00201922
0.00189964 0.000658862 1.81522e-06
0.000658862 0.000347558 4.80347e-06
1.81522e-06 4.80347e-06 3.77215e-05
0.00205664 0.000641085 -4.87032e-07
0.000641085 0.000293589 2.9653e-06
-4.87032e-07 2.9653e-06 7.21263e-06
0.00140587 0.000545033 -1.10573e-07
0.000545033 9.62184e-05 -3.2447e-06
-1.10573e-07 -3.2447e-06 -0.000214936
0.00265122 0.000704383 -4.52593e-06
0.000704383 0.00113045 5.88155e-06
-4.52593e-06 5.88155e-06 0.000756604
0.00175601 0.000573468 -4.89774e-06
0.000573468 0.000510316 -7.934e-06
-4.89774e-06 -7.934e-06 0.0001307
0.00185173 0.000679706 6.46646e-06
0.000679706 0.000446826 3.16349e-06
6.46646e-06 3.16349e-06 0.000126754
0.00173364 0.000706184 -2.11857e-06
0.000706184 5.05449e-05 -2.7071e-06
-2.11857e-06 -2.7071e-06 -0.000217153
0.00250933 0.000795006 -1.55089e-05
0.000795006 0.000785729 2.94628e-06
-1.55089e-05 2.94628e-06 0.000499517
0.00122552 0.000684329 -7.95376e-07
0.000684329 -0.000238011 9.05067e-06
-7.95376e-07 9.05067e-06 -0.000211655
0.00263751 0.000853133 -1.4516e-06
0.000853133 0.000604164 1.86406e-06
-1.4516e-06 1.86406e-06 0.000326381
0.00262589 0.000744682 -4.9341e-06
0.000744682 0.000424952 3.35782e-06
-4.9341e-06 3.35782e-06 0.000206281
0.00107322 0.000366378 2.96292e-05
0.000366378 -0.000367614 1.80875e-05
2.96292e-05 1.80875e-05 -0.000355745
0.000731942 0.000606731 1.01542e-05
0.000606731 -0.000350775 -2.40271e-06
1.01542e-05 -2.40271e-06 -0.000521312
0.00114751 0.000752863 -3.10702e-05
0.000752863 -0.000115844 -8.13612e-06
-3.10702e-05 -8.13612e-06 -0.000355327
0.00282451 0.000777483 2.56671e-06
0.000777483 -6.26891e-05 8.33197e-06
2.56671e-06 8.33197e-06 7.00207e-05
0.00615576 0.00103911 -1.26863e-05
0.00103911 -0.000736515 -3.38995e-05
-1.26863e-05 -3.38995e-05 -5.31646e-06
0.00380438 0.00123748 -3.068e-05
0.00123748 0.000922433 -4.49989e-05
-3.068e-05 -4.49989e-05 0.000818685
0.00128704 -6.06892e-05 2.7591e-05
-6.06892e-05 -0.000385349 2.01777e-06
2.7591e-05 2.01777e-06 -0.000285082
0.00234088 -0.00020974 -4.70784e-05
-0.00020974 -0.000418311 2.87378e-06
-4.70784e-05 2.87378e-06 -0.000219176
0.00250584 0.00029379 1.79025e-05
0.00029379 -0.000602039 -5.32578e-06
1.79025e-05 -5.32578e-06 -0.00028195
0.000502487 -0.000419812 -5.20506e-05
-0.000419812 -0.00132402 4.33943e-05
-5.20506e-05 4.33943e-05 -0.000998022
0.00292324 -0.000419508 -9.54204e-05
-0.000419508 -3.63121e-05 -5.31874e-06
-9.54204e-05 -5.31874e-06 1.72003e-05
0.00245975 -0.000327031 7.57678e-06
-0.000327031 -6.94764e-05 -3.8266e-06
7.57678e-06 -3.8266e-06 0.000222026
0.00248945 -9.21395e-05 -1.24618e-05
-9.21395e-05 0.00037628 4.05365e-07
-1.24618e-05 4.05365e-07 0.000371147
0.00229654 -0.000226739 1.05445e-05
-0.000226739 -3.44389e-05 -2.67991e-07
1.05445e-05 -2.67991e-07 5.85833e-05
0.00227408 -5.18662e-06 8.23553e-06
-5.18662e-06 -3.04437e-06 1.39674e-06
8.23553e-06 1.39674e-06 2.41433e-05
0.0019174 -0.000465968 -1.43381e-05
-0.000465968 -0.000443342 4.87725e-06
-1.43381e-05 4.87725e-06 -0.000216809
0.00232205 -0.000403168 -2.51497e-06
-0.000403168 -0.00013175 5.81814e-07
-2.51497e-06 5.81814e-07 1.93549e-05
0.00225275 -0.000283794 5.86081e-07
-0.000283794 -5.64769e-05 -1.27561e-06
5.86081e-07 -1.27561e-06 4.93112e-06
0.00222141 -0.000467699 -3.19562e-06
-0.000467699 3.01833e-05 9.7875e-07
-3.19562e-06 9.7875e-07 3.02673e-05
0.00217735 -0.000377769 -1.41156e-07
-0.000377769 2.0137e-05 -3.90652e-09
-1.41156e-07 -3.90652e-09 1.13348e-05
0.00208454 -0.000318418 -1.27153e-06
-0.000318418 2.79772e-05 2.89532e-07
-1.27153e-06 2.89532e-07 -9.73677e-06
0.0020886 -0.000441392 2.75696e-07
-0.000441392 7.35741e-05 -8.90906e-07
2.75696e-07 -8.90906e-07 -1.57555e-06
0.00200186 -0.000372169 5.59317e-07
-0.000372169 7.8309e-05 -1.82263e-07
5.59317e-07 -1.82263e-07 -1.70008e-05
0.00200246 -0.000343958 -1.29153e-06
-0.000343958 0.000123959 3.14918e-07
-1.29153e-06 3.14918e-07 8.71473e-06
0.00187801 -0.000412764 2.12992e-06
-0.000412764 6.97759e-05 -1.39913e-06
2.12992e-06 -1.39913e-06 -6.32187e-05
0.00193909 -0.000388302 3.51146e-07
-0.000388302 0.000132624 -5.58175e-07
3.51146e-07 -5.58175e-07 -1.0514e-05
0.00192614 -0.00036404 -6.32328e-07
-0.00036404 0.000163105 -1.56831e-06
-6.32328e-07 -1.56831e-06 -2.39091e-06
0.00211403 -0.000413455 -1.16105e-06
-0.000413455 0.00027505 3.27565e-06
-1.16105e-06 3.27565e-06 0.000114422
0.0020179 -0.000401166 -5.82207e-07
-0.000401166 0.000260579 -1.07648e-07
-5.82207e-07 -1.07648e-07 7.12521e-05
0.00164313 -0.000329559 -5.22326e-06
-0.000329559 0.000138827 6.38158e-07
-5.22326e-06 6.38158e-07 -6.82754e-05
0.0019776 -0.000431973 3.31807e-06
-0.000431973 0.000270717 1.53384e-06
3.31807e-06 1.53384e-06 5.16447e-05
0.00170093 -0.000363952 -5.40906e-07
-0.000363952 0.000212039 2.78642e-08
-5.40906e-07 2.78642e-08 -1.44012e-05
0.000976808 -0.000220967 -1.44673e-05
-0.000220967 -3.22972e-05 6.8539e-06
-1.44673e-05 6.8539e-06 -0.000220696
0.000362595 -0.000191891 -1.98235e-05
-0.000191891 -0.000183505 1.70924e-05
-1.98235e-05 1.70924e-05 -0.000308059
0.000964161 -0.000240408 2.05193e-07
-0.000240408 -9.00756e-06 6.42898e-08
2.05193e-07 6.42898e-08 -0.000207829
0.00150791 -0.000390661 5.77477e-06
-0.000390661 0.000155632 -1.24662e-06
5.77477e-06 -1.24662e-06 -0.000101829
0.00661507 1.19861e-05 -0.000262811
1.19861e-05 0.00375597 1.75964e-05
-0.000262811 1.75964e-05 0.00376442
0.000426775 -0.000211615 -1.3631e-06
-0.000211615 -0.000134615 1.07227e-06
-1.3631e-06 1.07227e-06 -0.000258505
0.000889196 -0.000243824 1.24551e-05
-0.000243824 2.18144e-06 -6.85628e-06
1.24551e-05 -6.85628e-06 -0.000204413
0.00647985 6.46621e-05 -1.32206e-06
6.46621e-05 0.0036937 2.9599e-07
-1.32206e-06 2.9599e-07 0.00369347
0.000493845 -0.000225096 2.47051e-05
-0.000225096 -8.16269e-05 -1.85283e-05
2.47051e-05 -1.85283e-05 -0.000202823
0.00622944 8.95223e-05 0.000231573
8.95223e-05 0.00355674 -1.97943e-05
0.000231573 -1.97943e-05 0.00355131
0.00168724 0.000547852 -8.58021e-07
0.000547852 0.000180965 4.67301e-06
-8.58021e-07 4.67301e-06 -0.000111954
0.00149298 0.000498549 3.96555e-07
0.000498549 0.000204564 6.3938e-07
3.96555e-07 6.3938e-07 -0.00010936
0.00132569 0.000391333 -6.76255e-06
0.000391333 0.000184683 3.10444e-07
-6.76255e-06 3.10444e-07 -8.74272e-05
0.0016878 0.000507787 7.90221e-07
0.000507787 0.000460944 4.40913e-07
7.90221e-07 4.40913e-07 0.000123312
0.00118908 0.000345791 -1.3633e-06
0.000345791 0.000184957 9.64685e-08
-1.3633e-06 9.64685e-08 -7.65856e-05
0.00093903 0.000223468 -1.07436e-05
0.000223468 0.000153249 -4.0914e-06
-1.07436e-05 -4.0914e-06 -4.62978e-05
0.00131362 0.000308861 -1.81092e-06
0.000308861 0.00037898 -1.05221e-06
-1.81092e-06 -1.05221e-06 0.000132397
0.000650075 0.000196178 4.51084e-07
0.000196178 5.85881e-05 1.39227e-06
4.51084e-07 1.39227e-06 -0.00015341
0.000522405 0.000154388 -2.46538e-05
0.000154388 -3.31766e-05 -1.71644e-05
-2.46538e-05 -1.71644e-05 -0.000127557
0.000188249 8.03581e-05 3.72818e-07
8.03581e-05 -0.000183758 3.72677e-06
3.72818e-07 3.72677e-06 -0.000372742
0.000506455 6.62466e-05 -1.05495e-06
6.62466e-05 -2.09164e-05 -3.86043e-07
-1.05495e-06 -3.86043e-07 -9.58188e-05
0.00487584 -0.0001572 -0.00015633
-0.0001572 0.00275283 -1.20052e-05
-0.00015633 -1.20052e-05 0.0027382
0.000395598 3.11072e-05 8.03689e-06
3.11072e-05 -7.28848e-05 1.52217e-05
8.03689e-06 1.52217e-05 -0.000133385
0.00394008 -0.000163616 -7.56037e-06
-0.000163616 0.00216515 8.20182e-07
-7.56037e-06 8.20182e-07 0.00215209
0.00334608 -0.000149083 6.80656e-05
-0.000149083 0.00178272 4.88683e-06
6.80656e-05 4.88683e-06 0.00177425
0.00104504 0.000121249 2.45183e-05
0.000121249 -0.000500488 1.87042e-05
2.45183e-05 1.87042e-05 -0.000325458
0.00260073 0.000136376 -1.11264e-05
0.000136376 -0.000713792 -3.52406e-06
-1.11264e-05 -3.52406e-06 -0.00016387
0.00390074 0.000206801 0.000191567
0.000206801 -0.00148257 5.52042e-05
0.000191567 5.52042e-05 2.38691e-05
0.00258392 0.000704546 -8.65418e-06
0.000704546 0.000554494 -4.35817e-07
-8.65418e-06 -4.35817e-07 0.000278559
0.00171069 0.000658895 -6.72076e-06
0.000658895 0.000219621 -4.34443e-06
-6.72076e-06 -4.34443e-06 -8.54066e-05
0.00209219 0.000527797 3.63755e-08
0.000527797 0.000171779 4.2457e-06
3.63755e-08 4.2457e-06 -4.45669e-05
0.00203955 0.00063031 1.12717e-06
0.00063031 0.000283641 3.40476e-07
1.12717e-06 3.40476e-07 1.94685e-07
0.00153011 0.000561226 -5.50327e-07
0.000561226 0.000181981 -1.0355e-05
-5.50327e-07 -1.0355e-05 -0.000129089
0.00189877 0.000550997 -3.51029e-06
0.000550997 -5.96447e-06 8.6117e-07
-3.51029e-06 8.6117e-07 -0.000202999
0.00247899 0.000756226 -7.10179e-06
0.000756226 0.000780558 -3.66e-06
-7.10179e-06 -3.66e-06 0.000456247
0.00223569 0.000739584 -3.86295e-07
0.000739584 0.000354438 -5.88153e-07
-3.86295e-07 -5.88153e-07 7.6901e-05
0.0019994 0.000397125 -1.05853e-05
0.000397125 -0.000107862 4.2921e-07
-1.05853e-05 4.2921e-07 -0.000148175
0.00315418 0.000915297 -3.32616e-06
0.000915297 0.000885145 4.55081e-06
-3.32616e-06 4.55081e-06 0.000603499
0.00238695 0.000725618 -2.71465e-07
0.000725618 0.000291004 -5.09933e-07
-2.71465e-07 -5.09933e-07 7.16947e-05
0.000664861 0.000356639 2.62377e-06
0.000356639 -0.000562328 2.41938e-06
2.62377e-06 2.41938e-06 -0.000553451
-0.000786309 0.000478279 -2.25968e-05
0.000478279 -0.00113966 -8.58515e-06
-2.25968e-05 -8.58515e-06 -0.00128923
0.00360617 0.000863806 -0.000103975
0.000863806 0.00031754 -3.37703e-05
-0.000103975 -3.37703e-05 0.000369811
0.002047 7.34442e-05 -1.36683e-06
7.34442e-05 -0.000171193 -7.47777e-07
-1.36683e-06 -7.47777e-07 -0.000102341
0.00253605 -7.01594e-05 7.9449e-06
-7.01594e-05 0.000430735 -8.65557e-08
7.9449e-06 -8.65557e-08 0.00050605
0.00241572 -0.000198554 -7.80578e-05
-0.000198554 -0.000309913 9.16964e-06
-7.80578e-05 9.16964e-06 -0.000132825
0.00216521 -0.000330932 -5.91138e-05
-0.000330932 -0.000156409 7.3513e-06
-5.91138e-05 7.3513e-06 0.000111101
0.00133619 -0.000101504 -1.07785e-05
-0.000101504 -0.00036489 2.29776e-06
-1.07785e-05 2.29776e-06 -0.000355705
0.00230035 -0.00022696 6.42568e-07
-0.00022696 -4.29376e-05 -1.57412e-06
6.42568e-07 -1.57412e-06 7.00106e-05
0.00230646 -5.19005e-06 -2.7924e-06
-5.19005e-06 -1.38953e-05 1.52457e-06
-2.7924e-06 1.52457e-06 2.07809e-05
0.0022981 -7.39882e-05 3.92093e-07
-7.39882e-05 -3.17782e-05 -4.70049e-08
3.92093e-07 -4.70049e-08 2.63325e-05
0.00233067 -0.000409664 -5.78011e-06
-0.000409664 -0.000110327 1.39418e-06
-5.78011e-06 1.39418e-06 8.4049e-06
0.00221514 -0.000273584 3.89148e-07
-0.000273584 -6.10222e-05 -2.24918e-07
3.89148e-07 -2.24918e-07 -7.53553e-06
0.00214693 -0.000213423 4.8529e-08
-0.000213423 -6.55064e-06 -2.10063e-07
4.8529e-08 -2.10063e-07 1.43664e-05
0.00217882 -0.000375064 3.72331e-07
-0.000375064 3.3365e-05 2.39847e-07
3.72331e-07 2.39847e-07 2.02077e-05
0.00208451 -0.000315753 6.05118e-08
-0.000315753 3.30187e-05 1.1117e-07
6.05118e-08 1.1117e-07 -5.3433e-06
0.00205165 -0.000272823 -2.40431e-06
-0.000272823 9.25534e-05 6.88156e-07
-2.40431e-06 6.88156e-07 2.00128e-05
0.00199426 -0.000370297 2.54762e-06
-0.000370297 6.96944e-05 -1.09223e-06
2.54762e-06 -1.09223e-06 -2.55897e-05
0.00195659 -0.000340601 5.09925e-07
-0.000340601 9.37506e-05 -3.07834e-07
5.09925e-07 -3.07834e-07 -2.15724e-05
0.00191574 -0.000310425 -4.78164e-07
-0.000310425 0.000113826 -1.07972e-06
-4.78164e-07 -1.07972e-06 -2.16719e-05
0.00195736 -0.000389754 9.56053e-07
-0.000389754 0.00014097 5.58174e-08
9.56053e-07 5.58174e-08 -2.76409e-06
0.0019573 -0.000365403 -3.84558e-07
-0.000365403 0.000184484 -1.21855e-07
-3.84558e-07 -1.21855e-07 1.88487e-05
0.0016919 -0.000299253 -3.22596e-06
-0.000299253 0.000130088 3.04555e-07
-3.22596e-06 3.04555e-07 -5.74013e-05
0.00199588 -0.000400285 7.08421e-07
-0.000400285 0.000247915 1.69422e-06
7.08421e-07 1.69422e-06 5.97688e-05
0.00167676 -0.00033175 -4.55139e-07
-0.00033175 0.000159518 8.3983e-08
-4.55139e-07 8.3983e-08 -4.74047e-05
0.00100008 -0.000199493 -1.45455e-05
-0.000199493 -3.80093e-05 6.06262e-06
-1.45455e-05 6.06262e-06 -0.000217306
0.0017301 -0.000367584 5.54947e-06
-0.000367584 0.000230068 -5.50751e-07
5.54947e-06 -5.50751e-07 4.23368e-06
0.00102484 -0.000223012 7.27769e-08
-0.000223012 -6.04663e-06 1.0818e-07
7.27769e-08 1.0818e-07 -0.000194127
0.00268793 -0.000166996 -4.48558e-05
-0.000166996 0.00123696 1.12102e-05
-4.48558e-05 1.12102e-05 0.00113965
0.00204922 -8.77976e-05 -0.000237723
-8.77976e-05 0.000920203 3.11794e-05
-0.000237723 3.11794e-05 0.000901219
0.00158852 -0.000193448 -1.15424e-05
-0.000193448 0.000569283 -2.42102e-07
-1.15424e-05 -2.42102e-07 0.000454564
0.0010049 -0.000244654 1.35628e-05
-0.000244654 1.23812e-05 -6.69097e-06
1.35628e-05 -6.69097e-06 -0.000187421
0.00666349 -5.10293e-06 -7.1285e-06
-5.10293e-06 0.00379266 7.59579e-07
-7.1285e-06 7.59579e-07 0.00379751
0.00046319 -0.000237111 2.4506e-05
-0.000237111 -0.000112394 -1.80714e-05
2.4506e-05 -1.80714e-05 -0.000238909
0.00655232 4.32491e-05 0.000254883
4.32491e-05 0.00374315 -2.34853e-05
0.000254883 -2.34853e-05 0.00374036
0.00210968 0.000404298 6.932e-07
0.000404298 0.000168262 9.89291e-07
6.932e-07 9.89291e-07 4.79845e-06
0.00201599 0.000524438 3.15621e-06
0.000524438 0.00026748 4.96841e-06
3.15621e-06 4.96841e-06 2.05654e-05
0.00198328 0.000573297 2.12654e-07
0.000573297 0.00035478 2.13711e-07
2.12654e-07 2.13711e-07 6.03792e-05
0.00154667 0.000427333 -5.96388e-06
0.000427333 0.00022134 1.21482e-06
-5.96388e-06 1.21482e-06 -4.70263e-05
0.00158581 0.000516694 3.34577e-06
0.000516694 0.000259532 -2.73027e-06
3.34577e-06 -2.73027e-06 -5.72755e-05
0.00134 0.000394466 -1.21159e-07
0.000394466 0.000188638 4.37184e-07
-1.21159e-07 4.37184e-07 -8.51233e-05
0.000863781 0.00022949 -1.24999e-05
0.00022949 2.46474e-05 -5.25246e-06
-1.24999e-05 -5.25246e-06 -0.000170991
0.00123291 0.000342781 5.72828e-06
0.000342781 0.00022079 1.3774e-06
5.72828e-06 1.3774e-06 -3.80447e-05
0.000702253 0.000204989 1.18358e-06
0.000204989 1.38335e-06 1.33203e-07
1.18358e-06 1.33203e-07 -0.000193814
0.000584343 0.000227542 -2.71041e-05
0.000227542 -9.14522e-06 -1.8325e-05
-2.71041e-05 -1.8325e-05 -0.000123903
0.000338839 0.000167402 3.42049e-06
0.000167402 -0.000140519 2.28807e-06
3.42049e-06 2.28807e-06 -0.000347754
0.000565982 0.000136002 -3.63897e-07
0.000136002 -7.79595e-06 -6.83842e-07
-3.63897e-07 -6.83842e-07 -9.90744e-05
0.005727 -0.000155124 -0.000197267
-0.000155124 0.00328749 -1.93313e-05
-0.000197267 -1.93313e-05 0.00326437
0.000367106 5.95045e-05 1.31898e-05
5.95045e-05 -0.000104615 1.63187e-05
1.31898e-05 1.63187e-05 -0.000173983
0.00449964 -0.000185415 -1.12137e-05
-0.000185415 0.0025254 1.02925e-06
-1.12137e-05 1.02925e-06 0.00250414
0.0037718 -0.000172946 8.69298e-05
-0.000172946 0.00206222 5.89217e-06
8.69298e-05 5.89217e-06 0.0020465
0.00217162 0.000204381 -4.50865e-06
0.000204381 -0.000123989 -3.87869e-07
-4.50865e-06 -3.87869e-07 -4.4658e-05
0.00211518 8.18428e-05 2.436e-05
8.18428e-05 2.78686e-05 -2.92965e-06
2.436e-05 -2.92965e-06 0.000206762
0.0054757 0.000210429 -0.00010982
0.000210429 0.000602887 -7.7505e-06
-0.00010982 -7.7505e-06 0.00116456
0.00206135 0.000478565 -4.51639e-06
0.000478565 0.000113083 1.49885e-06
-4.51639e-06 1.49885e-06 -6.78535e-05
0.00211073 0.000653107 -3.07613e-06
0.000653107 0.000306269 -1.76749e-07
-3.07613e-06 -1.76749e-07 3.8232e-05
0.00159396 0.00066578 -5.77103e-06
0.00066578 0.00013152 -9.067e-06
-5.77103e-06 -9.067e-06 -0.000168985
0.00222642 0.000522607 3.06532e-06
0.000522607 0.000271501 1.39219e-06
3.06532e-06 1.39219e-06 5.80952e-05
0.0020013 0.000618915 1.16811e-06
0.000618915 0.00026168 -3.9434e-06
1.16811e-06 -3.9434e-06 -1.8918e-05
0.00233124 0.000387924 -3.43473e-07
0.000387924 7.53895e-05 3.26895e-07
-3.43473e-07 3.26895e-07 2.5047e-05
0.00195547 0.000558865 -4.77575e-07
0.000558865 4.90713e-05 4.9172e-07
-4.77575e-07 4.9172e-07 -0.000149173
0.00274809 0.000774409 -2.81856e-06
0.000774409 0.000666853 -1.39805e-06
-2.81856e-06 -1.39805e-06 0.000376588
0.00202525 0.000392574 -2.10445e-07
0.000392574 -8.07798e-05 -5.09534e-07
-2.10445e-07 -5.09534e-07 -0.000120236
0.00217429 0.000705502 1.21273e-05
0.000705502 0.000163127 1.54551e-06
1.21273e-05 1.54551e-06 -5.7276e-05
0.000552941 0.000347044 -3.8844e-05
0.000347044 -0.000606198 -1.78123e-05
-3.8844e-05 -1.78123e-05 -0.000600347
0.00228185 7.83394e-05 5.57678e-07
7.83394e-05 -1.35831e-05 4.16306e-07
5.57678e-07 4.16306e-07 3.6999e-05
0.00222495 8.47209e-05 -2.03744e-06
8.47209e-05 -4.32607e-05 2.93333e-07
-2.03744e-06 2.93333e-07 1.89747e-05
0.00337962 -6.8055e-05 -4.24055e-05
-6.8055e-05 0.00100888 1.89443e-06
-4.24055e-05 1.89443e-06 0.00105919
0.00228356 -0.00022402 -1.73061e-05
-0.00022402 -6.75574e-05 2.23469e-06
-1.73061e-05 2.23469e-06 6.44308e-05
0.00234179 -1.67849e-06 -4.52481e-06
-1.67849e-06 -2.76669e-05 -3.31684e-06
-4.52481e-06 -3.31684e-06 1.41894e-05
0.00225864 -8.05214e-05 -4.96041e-07
-8.05214e-05 -7.36408e-05 -7.06225e-08
-4.96041e-07 -7.06225e-08 -7.70142e-06
0.00203354 -6.64581e-05 -1.80253e-07
-6.64581e-05 -1.67985e-05 3.0815e-07
-1.80253e-07 3.0815e-07 -3.127e-06
0.00217516 -0.000262432 -4.20035e-07
-0.000262432 -6.5786e-05 6.69624e-07
-4.20035e-07 6.69624e-07 -2.01483e-05
0.00210243 -0.00021732 -1.64501e-07
-0.00021732 -2.58299e-05 -1.83347e-08
-1.64501e-07 -1.83347e-08 -1.04177e-05
0.0020414 -0.000185359 -1.82597e-06
-0.000185359 4.87082e-05 3.0395e-08
-1.82597e-06 3.0395e-08 1.31719e-05
0.00208778 -0.000313316 1.52209e-06
-0.000313316 4.00164e-05 5.46424e-08
1.52209e-06 5.46424e-08 1.02368e-06
0.00201775 -0.000270481 3.41192e-07
-0.000270481 6.81299e-05 -4.78282e-08
3.41192e-07 -4.78282e-08 -4.38565e-06
0.00194753 -0.000247124 -1.1345e-06
-0.000247124 9.09179e-05 -6.98637e-07
-1.1345e-06 -6.98637e-07 -1.53752e-05
0.00190108 -0.00033659 2.10897e-06
-0.00033659 5.73795e-05 -7.81057e-07
2.10897e-06 -7.81057e-07 -5.79584e-05
0.00197 -0.000313621 -3.01751e-07
-0.000313621 0.000145789 -5.03066e-08
-3.01751e-07 -5.03066e-08 9.81778e-06
0.00173782 -0.000257483 -2.09536e-06
-0.000257483 0.000123469 -2.08125e-08
-2.09536e-06 -2.08125e-08 -4.32513e-05
0.00198513 -0.000366612 5.71791e-07
-0.000366612 0.000203777 1.08402e-06
5.71791e-07 1.08402e-06 3.80065e-05
0.00172519 -0.000301441 -3.50791e-07
-0.000301441 0.000149444 6.02179e-08
-3.50791e-07 6.02179e-08 -3.78557e-05
0.00102203 -0.000178309 -1.39299e-05
-0.000178309 -4.24656e-05 4.99976e-06
-1.39299e-05 4.99976e-06 -0.000213945
0.00171021 -0.000333994 4.10643e-06
-0.000333994 0.000179994 -5.07292e-07
4.10643e-06 -5.07292e-07 -2.67631e-05
0.00105448 -0.000201168 -7.88803e-08
-0.000201168 -9.23761e-06 1.71003e-07
-7.88803e-08 1.71003e-07 -0.000187814
0.00269644 -0.000164366 -5.30502e-05
-0.000164366 0.00123229 1.07086e-05
-5.30502e-05 1.07086e-05 0.00114331
0.00106961 -0.000225212 1.4544e-05
-0.000225212 1.81661e-05 -6.47192e-06
1.4544e-05 -6.47192e-06 -0.000169658
0.0028175 -0.000206378 4.62624e-05
-0.000206378 0.0013169 -6.98014e-06
4.62624e-05 -6.98014e-06 0.00122692
0.00210747 -0.000125583 -0.000239611
-0.000125583 0.000962506 3.59205e-05
-0.000239611 3.59205e-05 0.000941481
0.00426039 -9.28664e-05 -0.00023507
-9.28664e-05 0.00230664 2.23092e-05
-0.00023507 2.23092e-05 0.0022992
0.00289632 -0.000263274 0.000150334
-0.000263274 0.00138072 -2.37026e-05
0.000150334 -2.37026e-05 0.00129045
0.00671046 -2.06951e-05 0.000270577
-2.06951e-05 0.00383048 -2.7775e-05
0.000270577 -2.7775e-05 0.00383126
0.00229314 0.000402961 -1.64347e-06
0.000402961 0.000276389 3.22735e-08
-1.64347e-06 3.22735e-08 0.000135546
0.00182751 0.000403302 3.0525e-06
0.000403302 0.000106574 1.89051e-06
3.0525e-06 1.89051e-06 -8.76191e-05
0.00209208 0.0003949 5.03282e-07
0.0003949 0.000163155 -1.75051e-06
5.03282e-07 -1.75051e-06 6.64858e-06
0.00168988 0.000414648 -4.41519e-06
0.000414648 0.000198384 1.72052e-06
-4.41519e-06 1.72052e-06 -4.65071e-05
0.0020897 0.000530412 6.87137e-07
0.000530412 0.000298921 3.35174e-07
6.87137e-07 3.35174e-07 5.12905e-05
0.00227353 0.000598847 1.1191e-06
0.000598847 0.000525184 -3.96445e-06
1.1191e-06 -3.96445e-06 0.000229222
0.00151243 0.000427718 2.14951e-07
0.000427718 0.00019319 4.6451e-07
2.14951e-07 4.6451e-07 -7.6877e-05
0.000958085 0.00025374 -1.41703e-05
0.00025374 -2.20435e-07 -5.35261e-06
-1.41703e-05 -5.35261e-06 -0.000200107
0.00133772 0.000395959 7.95267e-06
0.000395959 0.000182502 1.09274e-06
7.95267e-06 1.09274e-06 -9.26078e-05
0.000779945 0.000222385 -5.98961e-07
0.000222385 -2.44142e-05 -8.50614e-08
-5.98961e-07 -8.50614e-08 -0.000217143
0.000449091 0.000240678 -2.57058e-05
0.000240678 -0.000105293 -1.87624e-05
-2.57058e-05 -1.87624e-05 -0.000230794
0.00034516 0.00018254 8.49014e-06
0.00018254 -0.000219844 2.4946e-06
8.49014e-06 2.4946e-06 -0.000410439
0.000367345 0.000191147 2.68088e-06
0.000191147 -0.000145613 4.14545e-07
2.68088e-06 4.14545e-07 -0.000253332
0.00643665 -8.98604e-05 -0.000234773
-8.98604e-05 0.00370276 -2.3786e-05
-0.000234773 -2.3786e-05 0.00368665
0.000350112 0.000101934 1.92366e-05
0.000101934 -0.000138762 1.61517e-05
1.92366e-05 1.61517e-05 -0.000224372
0.00540962 -0.000172914 -1.72196e-06
-0.000172914 0.00308249 -1.06312e-06
-1.72196e-06 -1.06312e-06 0.00306244
0.00434303 -0.000205831 0.000103645
-0.000205831 0.00243368 7.78468e-06
0.000103645 7.78468e-06 0.00240746
0.00231824 0.000236042 -1.70242e-07
0.000236042 2.59903e-07 4.56505e-07
-1.70242e-07 4.56505e-07 4.26413e-05
0.00211341 0.0002104 1.44041e-06
0.0002104 -0.000146294 6.69186e-08
1.44041e-06 6.69186e-08 -6.8447e-05
0.00286737 4.96313e-05 -8.11067e-05
4.96313e-05 0.000383777 -1.14181e-05
-8.11067e-05 -1.14181e-05 0.000572696
0.00204915 0.000340734 -1.6892e-07
0.000340734 1.73065e-05 1.76954e-07
-1.6892e-07 1.76954e-07 -7.31751e-05
0.00206138 0.000475741 -6.3752e-07
0.000475741 0.000136011 4.41885e-07
-6.3752e-07 4.41885e-07 -4.42631e-05
0.00160002 0.000596155 6.64421e-06
0.000596155 3.73857e-05 -2.0199e-06
6.64421e-06 -2.0199e-06 -0.00022164
0.00236156 0.000517217 -3.50183e-07
0.000517217 0.00037215 -3.17535e-06
-3.50183e-07 -3.17535e-06 0.000161802
0.00227206 0.000374377 -9.50611e-07
0.000374377 5.26629e-05 3.22169e-08
-9.50611e-07 3.22169e-08 4.74649e-06
0.00200156 0.000565881 -8.63287e-07
0.000565881 9.84522e-05 -5.56477e-08
-8.63287e-07 -5.56477e-08 -0.000100973
0.00194501 0.000381685 1.10225e-05
0.000381685 -8.7754e-05 -6.22706e-07
1.10225e-05 -6.22706e-07 -0.000125953
0.00210688 6.26674e-05 1.50483e-06
6.26674e-05 -1.35403e-06 4.75708e-07
1.50483e-06 4.75708e-07 1.89184e-05
0.0022141 7.42079e-05 9.32248e-08
7.42079e-05 -4.37571e-05 5.47537e-09
9.32248e-08 5.47537e-09 5.13919e-06
0.00238797 0.000100833 -8.27569e-06
0.000100833 7.84256e-05 -6.41621e-07
-8.27569e-06 -6.41621e-07 0.000133616
0.00197193 -1.23827e-05 -3.73009e-06
-1.23827e-05 1.71966e-05 4.8458e-07
-3.73009e-06 4.8458e-07 1.01134e-05
0.00222386 -9.2764e-05 3.43623e-07
-9.2764e-05 -0.00011134 -7.61802e-07
3.43623e-07 -7.61802e-07 -3.76318e-05
0.00205931 -6.93214e-05 -7.69665e-07
-6.93214e-05 -5.73135e-06 3.06653e-07
-7.69665e-07 3.06653e-07 8.66737e-06
0.00195086 -0.000105071 -3.89394e-06
-0.000105071 -3.32805e-06 4.16081e-07
-3.89394e-06 4.16081e-07 -2.64715e-05
0.00205668 -0.000221028 5.91645e-07
-0.000221028 -4.57836e-05 2.02404e-07
5.91645e-07 2.02404e-07 -3.63125e-05
0.00203741 -0.000184059 1.41582e-06
-0.000184059 4.60848e-05 -3.65334e-07
1.41582e-06 -3.65334e-07 1.08478e-05
0.00199354 -0.000177411 8.2627e-07
-0.000177411 9.86727e-05 -9.79109e-07
8.2627e-07 -9.79109e-07 1.62743e-05
0.00198138 -0.00026744 2.58583e-06
-0.00026744 4.24186e-05 -7.40892e-07
2.58583e-06 -7.40892e-07 -2.99471e-05
0.0019795 -0.000247282 -2.38448e-07
-0.000247282 0.000108894 -1.87054e-07
-2.38448e-07 -1.87054e-07 2.64108e-06
0.00174797 -0.000203694 -1.29572e-06
-0.000203694 0.000107996 -1.7074e-07
-1.29572e-06 -1.7074e-07 -3.83299e-05
0.00202791 -0.000316797 9.93755e-07
-0.000316797 0.000180862 7.20644e-07
9.93755e-07 7.20644e-07 4.44523e-05
0.00175355 -0.000257751 -3.06395e-07
-0.000257751 0.000132284 3.6737e-08
-3.06395e-07 3.6737e-08 -3.39973e-05
0.00104449 -0.000153894 -1.31856e-05
-0.000153894 -4.35387e-05 3.83563e-06
-1.31856e-05 3.83563e-06 -0.000206514
0.00175949 -0.000303566 2.34241e-06
-0.000303566 0.000169609 -2.03033e-07
2.34241e-06 -2.03033e-07 -1.74696e-05
0.00107404 -0.000178694 -2.02603e-07
-0.000178694 -1.4789e-05 2.64837e-07
-2.02603e-07 2.64837e-07 -0.000185195
0.00267437 -0.000160943 -6.05132e-05
-0.000160943 0.00121664 1.04408e-05
-6.05132e-05 1.04408e-05 0.00113117
0.00110984 -0.000202891 1.45823e-05
-0.000202891 1.99279e-05 -5.76324e-06
1.45823e-05 -5.76324e-06 -0.000157869
0.00277348 -0.000187717 4.23322e-05
-0.000187717 0.00128002 -5.5385e-06
4.23322e-05 -5.5385e-06 0.00119762
0.00214069 -0.00010747 -0.000233985
-0.00010747 0.000975437 3.15152e-05
-0.000233985 3.15152e-05 0.000956917
0.00292873 -0.000214803 0.000145828
-0.000214803 0.00138119 -2.48104e-05
0.000145828 -2.48104e-05 0.00130013
0.00179029 -6.36979e-05 -9.90456e-05
-6.36979e-05 0.000768424 1.38946e-05
-9.90456e-05 1.38946e-05 0.000735484
0.00633479 4.67028e-05 7.75644e-05
4.67028e-05 0.00357968 -3.47297e-06
7.75644e-05 -3.47297e-06 0.00355991
0.00208175 0.000341724 9.46918e-07
0.000341724 0.00012135 5.67015e-07
9.46918e-07 5.67015e-07 2.8126e-06
0.00214015 0.000378602 2.95336e-07
0.000378602 0.00024723 -1.73741e-08
2.95336e-07 -1.73741e-08 8.37545e-05
0.00219947 0.000400585 -3.87199e-06
0.000400585 0.000208162 -1.514e-07
-3.87199e-06 -1.514e-07 6.45896e-05
0.00183451 0.000369264 -1.76803e-06
0.000369264 0.000224501 8.45424e-07
-1.76803e-06 8.45424e-07 9.90314e-06
0.00182205 0.000409058 -6.85086e-07
0.000409058 8.55789e-05 -1.95262e-06
-6.85086e-07 -1.95262e-06 -0.000105181
0.00207347 0.000385563 -4.76437e-06
0.000385563 0.000157278 -5.56082e-06
-4.76437e-06 -5.56082e-06 7.72624e-06
0.00108538 0.000252798 -1.52736e-05
0.000252798 1.48826e-05 -5.01402e-06
-1.52736e-05 -5.01402e-06 -0.000178889
0.00164107 0.000411853 7.08587e-07
0.000411853 0.000167482 3.97227e-07
7.08587e-07 3.97227e-07 -7.79091e-05
0.00216542 0.000536107 1.88009e-06
0.000536107 0.000330666 -3.82756e-06
1.88009e-06 -3.82756e-06 8.24285e-05
0.00147806 0.000427773 7.02093e-06
0.000427773 0.000165769 -8.61423e-08
7.02093e-06 -8.61423e-08 -0.00010589
0.000903787 0.000244883 -8.7247e-07
0.000244883 -2.51619e-05 1.51653e-08
-8.7247e-07 1.51653e-08 -0.000222414
0.000382573 0.000236104 -2.50305e-05
0.000236104 -0.00015395 -1.75113e-05
-2.50305e-05 -1.75113e-05 -0.00028195
0.000689011 0.000212602 1.20952e-05
0.000212602 -7.78201e-05 5.7815e-06
1.20952e-05 5.7815e-06 -0.000267125
0.000409594 0.000228542 2.11167e-06
0.000228542 -0.000123534 7.12462e-07
2.11167e-06 7.12462e-07 -0.000249374
0.00670902 -1.9785e-06 -0.000257655
-1.9785e-06 0.00385482 -2.99293e-05
-0.000257655 -2.99293e-05 0.0038429
0.000437917 0.000174102 2.38908e-05
0.000174102 -0.000106116 1.84206e-05
2.38908e-05 1.84206e-05 -0.000211305
0.00619671 -0.000126266 3.6834e-06
-0.000126266 0.00355147 -1.06463e-06
3.6834e-06 -1.06463e-06 0.00353668
0.00502746 -0.00021519 0.000133806
-0.00021519 0.00285929 9.23421e-06
0.000133806 9.23421e-06 0.00282934
0.00208633 0.000185383 -8.15331e-07
0.000185383 1.12862e-05 -1.73551e-07
-8.15331e-07 -1.73551e-07 4.77699e-06
0.0022776 0.000237586 4.94563e-08
0.000237586 -3.19028e-05 5.7205e-07
4.94563e-08 5.7205e-07 1.31324e-05
0.00212213 0.000216083 3.69233e-06
0.000216083 -0.000145367 -1.65439e-07
3.69233e-06 -1.65439e-07 -6.83032e-05
0.00210165 0.00033923 -3.19529e-07
0.00033923 5.4833e-05 1.1504e-07
-3.19529e-07 1.1504e-07 -3.1425e-05
0.00205596 0.000471994 1.61747e-06
0.000471994 0.000158047 -6.81409e-07
1.61747e-06 -6.81409e-07 -2.13764e-05
0.00223927 0.00036284 1.82458e-06
0.00036284 3.99853e-05 -4.07106e-07
1.82458e-06 -4.07106e-07 -5.70587e-06
0.00199366 6.04466e-05 -1.65846e-06
6.04466e-05 2.34712e-06 3.37781e-07
-1.65846e-06 3.37781e-07 -4.03032e-08
0.00208948 5.76799e-05 3.52865e-07
5.76799e-05 -8.70687e-06 -1.013e-07
3.52865e-07 -1.013e-07 9.70296e-06
0.0021467 7.02211e-05 -5.87305e-07
7.02211e-05 -7.52089e-05 -4.20812e-07
-5.87305e-07 -4.20812e-07 -2.72534e-05
0.00196266 -1.20314e-05 -1.06457e-06
-1.20314e-05 8.36503e-06 2.61577e-08
-1.06457e-06 2.61577e-08 8.66704e-07
0.00195534 -3.90979e-05 -6.28924e-06
-3.90979e-05 3.08798e-05 6.40229e-07
-6.28924e-06 6.40229e-07 2.83584e-06
0.00208666 -7.19036e-05 3.60334e-07
-7.19036e-05 5.83042e-06 -6.62443e-08
3.60334e-07 -6.62443e-08 2.12765e-05
0.00197515 -0.000104921 -1.51635e-06
-0.000104921 1.75659e-05 2.66837e-07
-1.51635e-06 2.66837e-07 -8.61167e-06
0.00196178 -0.000113807 -4.32744e-06
-0.000113807 7.08734e-05 3.89616e-07
-4.32744e-06 3.89616e-07 7.73538e-06
0.00203607 -0.000183306 4.48398e-06
-0.000183306 4.56131e-05 -7.88355e-07
4.48398e-06 -7.88355e-07 1.05544e-05
0.00195686 -0.000177391 2.78883e-06
-0.000177391 7.4254e-05 -8.47383e-07
2.78883e-06 -8.47383e-07 -8.06956e-06
0.00172924 -0.000147617 1.68168e-06
-0.000147617 8.38372e-05 -6.06901e-07
1.68168e-06 -6.06901e-07 -4.62477e-05
0.00200071 -0.000248737 1.53685e-06
-0.000248737 0.000119022 1.66388e-07
1.53685e-06 1.66388e-07 1.25053e-05
0.00174645 -0.000204289 -2.09171e-07
-0.000204289 0.000104557 -7.18777e-08
-2.09171e-07 -7.18777e-08 -4.16098e-05
0.00105659 -0.000123535 -1.25378e-05
-0.000123535 -4.63593e-05 2.90392e-06
-1.25378e-05 2.90392e-06 -0.000199707
0.00177017 -0.000258264 1.22336e-06
-0.000258264 0.000140412 7.49365e-08
1.22336e-06 7.49365e-08 -2.54783e-05
0.0010833 -0.000152684 -3.34193e-07
-0.000152684 -2.19907e-05 2.14373e-07
-3.34193e-07 2.14373e-07 -0.0001838
0.00260706 -0.000164079 -6.29887e-05
-0.000164079 0.00117538 9.16393e-06
-6.29887e-05 9.16393e-06 0.00109187
0.00112539 -0.000179059 1.39587e-05
-0.000179059 1.22372e-05 -4.60013e-06
1.39587e-05 -4.60013e-06 -0.000157064
0.00273285 -0.000162458 4.05814e-05
-0.000162458 0.00124825 -4.20851e-06
4.05814e-05 -4.20851e-06 0.00117074
0.00215728 -8.99867e-05 -0.000232315
-8.99867e-05 0.000978918 2.65623e-05
-0.000232315 2.65623e-05 0.00096188
0.00285023 -0.000180941 0.000142675
-0.000180941 0.00132048 -2.11458e-05
0.000142675 -2.11458e-05 0.00124787
0.00178517 -6.87558e-05 -8.9757e-05
-6.87558e-05 0.000760055 1.11927e-05
-8.9757e-05 1.11927e-05 0.000729874
0.00151242 -6.13137e-05 5.47936e-05
-6.13137e-05 0.000606117 -8.47748e-06
5.47936e-05 -8.47748e-06 0.000558771
0.00202509 0.000217504 -6.47204e-07
0.000217504 5.27611e-05 4.45255e-07
-6.47204e-07 4.45255e-07 -1.03689e-05
0.00206702 0.000313821 -9.29927e-07
0.000313821 0.000168512 8.28017e-07
-9.29927e-07 8.28017e-07 3.15054e-05
0.0020504 0.000342771 -4.89435e-08
0.000342771 8.25223e-05 1.63702e-07
-4.89435e-08 1.63702e-07 -2.99408e-05
0.00194154 0.000336769 -5.70487e-07
0.000336769 0.000241045 7.98702e-07
-5.70487e-07 7.98702e-07 5.44739e-05
0.0020612 0.000371894 -8.1923e-07
0.000371894 0.000207038 -4.14086e-07
-8.1923e-07 -4.14086e-07 4.22978e-05
0.00209885 0.00039827 -7.35707e-08
0.00039827 0.000135568 -4.4476e-07
-7.35707e-08 -4.4476e-07 -1.08468e-05
0.00115663 0.000230808 -1.56759e-05
0.000230808 3.11159e-05 -4.66593e-06
-1.56759e-05 -4.66593e-06 -0.000151502
0.00176239 0.000369036 2.50486e-06
0.000369036 0.000172462 3.82735e-08
2.50486e-06 3.82735e-08 -3.92826e-05
0.00182971 0.000415757 -1.91161e-06
0.000415757 7.31679e-05 -4.0246e-06
-1.91161e-06 -4.0246e-06 -0.000114297
0.000317416 0.000185305 -2.23117e-05
0.000185305 -0.000216524 -1.43967e-05
-2.23117e-05 -1.43967e-05 -0.000334483
0.00101931 0.000246005 -5.25221e-07
0.000246005 -1.96747e-05 1.26663e-07
-5.25221e-07 1.26663e-07 -0.000212295
0.00159438 0.000409559 6.2744e-06
0.000409559 0.000137113 -8.88758e-07
6.2744e-06 -8.88758e-07 -0.000108921
0.000870379 0.000237954 1.42051e-05
0.000237954 -3.77529e-05 6.1174e-06
1.42051e-05 6.1174e-06 -0.000232749
0.00039669 0.000221553 7.31279e-07
0.000221553 -0.000142731 9.19362e-07
7.31279e-07 9.19362e-07 -0.000272058
0.00685312 9.89397e-05 -0.00027239
9.89397e-05 0.00392504 -3.41813e-05
-0.00027239 -3.41813e-05 0.00391736
0.000367707 0.000210806 2.23987e-05
0.000210806 -0.000146362 1.76156e-05
2.23987e-05 1.76156e-05 -0.000270451
0.00660142 -3.14986e-05 7.24338e-06
-3.14986e-05 0.00377612 -2.25381e-07
7.24338e-06 -2.25381e-07 0.0037713
0.00594428 -0.000158102 0.000187179
-0.000158102 0.00339356 1.0524e-05
0.000187179 1.0524e-05 0.00337785
0.00201716 0.000121607 -4.05534e-06
0.000121607 3.79566e-05 -9.20498e-07
-4.05534e-06 -9.20498e-07 2.37423e-05
0.00208782 0.000189086 9.0242e-07
0.000189086 1.13687e-05 3.45782e-07
9.0242e-07 3.45782e-07 3.81697e-06
0.00222515 0.000239361 -3.12284e-07
0.000239361 -6.80322e-05 -7.71359e-07
-3.12284e-07 -7.71359e-07 -2.08614e-05
0.00215792 0.000336857 2.65409e-06
0.000336857 9.48748e-05 -1.0272e-07
2.65409e-06 -1.0272e-07 1.29579e-05
0.00192969 1.23702e-05 -5.55645e-06
1.23702e-05 3.47235e-05 5.8498e-07
-5.55645e-06 5.8498e-07 -2.76911e-06
0.00197334 5.08263e-05 4.08559e-08
5.08263e-05 -8.69857e-06 6.98912e-08
4.08559e-08 6.98912e-08 -1.24584e-05
0.00207194 5.25905e-05 -7.9171e-07
5.25905e-05 -1.5215e-05 -3.17048e-07
-7.9171e-07 -3.17048e-07 6.13744e-07
0.00195137 -1.03998e-05 1.1683e-06
-1.03998e-05 -1.39645e-06 -7.27769e-07
1.1683e-06 -7.27769e-07 -9.55121e-06
0.00195287 -3.3689e-05 -8.82404e-07
-3.3689e-05 2.77104e-05 -1.27481e-07
-8.82404e-07 -1.27481e-07 7.36873e-07
0.00190701 -4.84983e-05 -2.76756e-06
-4.84983e-05 4.61688e-05 2.70445e-07
-2.76756e-06 2.70445e-07 -1.79818e-05
0.00199812 -0.000104957 3.38784e-06
-0.000104957 3.73662e-05 -7.34424e-08
3.38784e-06 -7.34424e-08 7.98376e-06
0.00193348 -0.000113547 -1.98964e-06
-0.000113547 5.96883e-05 5.86998e-07
-1.98964e-06 5.86998e-07 -1.01759e-05
0.00181537 -9.49623e-05 -6.81482e-07
-9.49623e-05 0.000127725 -2.28219e-07
-6.81482e-07 -2.28219e-07 1.73453e-05
0.00192907 -0.000176197 5.39554e-06
-0.000176197 5.53032e-05 -7.98083e-07
5.39554e-06 -7.98083e-07 -2.66766e-05
0.00174714 -0.000145972 2.01244e-06
-0.000145972 9.28442e-05 -5.132e-07
2.01244e-06 -5.132e-07 -3.65845e-05
0.00105143 -9.02342e-05 -1.21935e-05
-9.02342e-05 -5.43411e-05 2.03209e-06
-1.21935e-05 2.03209e-06 -0.000198397
0.00175948 -0.000202988 7.52433e-07
-0.000202988 0.000111881 1.49203e-08
7.52433e-07 1.49203e-08 -3.36708e-05
0.00106902 -0.000122553 -1.36066e-07
-0.000122553 -3.79773e-05 1.70346e-07
-1.36066e-07 1.70346e-07 -0.000190628
0.000449746 -8.85129e-05 -1.992e-05
-8.85129e-05 -0.000178561 5.85172e-06
-1.992e-05 5.85172e-06 -0.00026961
0.00111854 -0.000151204 1.30435e-05
-0.000151204 -2.17605e-06 -3.51127e-06
1.30435e-05 -3.51127e-06 -0.000162767
0.00157946 -0.00010693 5.91947e-05
-0.00010693 0.00052541 -4.39975e-06
5.91947e-05 -4.39975e-06 0.000445196
0.00632542 -0.00015315 -0.000306584
-0.00015315 0.00357391 2.20224e-05
-0.000306584 2.20224e-05 0.00358916
0.00280725 -0.000146131 0.000140259
-0.000146131 0.00128449 -1.67961e-05
0.000140259 -1.67961e-05 0.00121733
0.00178986 -6.97851e-05 -8.11287e-05
-6.97851e-05 0.000761402 7.31654e-06
-8.11287e-05 7.31654e-06 0.000731337
0.00142912 -8.97416e-05 6.64089e-05
-8.97416e-05 0.000558686 -1.00492e-05
6.64089e-05 -1.00492e-05 0.0005103
0.00199665 0.000159727 -3.09619e-06
0.000159727 6.19028e-05 -3.62408e-07
-3.09619e-06 -3.62408e-07 1.22345e-05
0.00203107 0.000234588 -3.1638e-07
0.000234588 0.000130158 1.40762e-06
-3.1638e-07 1.40762e-06 2.47136e-05
0.0020149 0.00021289 6.90287e-07
0.00021289 5.24821e-05 4.00754e-07
6.90287e-07 4.00754e-07 -1.42109e-05
0.00185983 0.000270798 -4.63747e-07
0.000270798 0.00016329 1.13189e-06
-4.63747e-07 1.13189e-06 4.52788e-06
0.00198564 0.000307501 8.61133e-07
0.000307501 0.000121245 1.04195e-07
8.61133e-07 1.04195e-07 -1.52074e-05
0.00202224 0.000344606 4.6009e-07
0.000344606 4.52618e-05 1.64445e-07
4.6009e-07 1.64445e-07 -6.12261e-05
0.00109899 0.000199914 -1.60364e-05
0.000199914 -2.82784e-05 -3.49678e-06
-1.60364e-05 -3.49678e-06 -0.000197681
0.00193575 0.000335114 2.42293e-06
0.000335114 0.000236794 5.91894e-07
2.42293e-06 5.91894e-07 5.08591e-05
0.0019712 0.000364227 -1.52954e-06
0.000364227 0.000160565 -1.56927e-06
-1.52954e-06 -1.56927e-06 -5.31405e-06
0.000327548 0.00013175 -1.95132e-05
0.00013175 -0.0002346 -1.06637e-05
-1.95132e-05 -1.06637e-05 -0.000339495
0.00102709 0.000224371 4.23232e-07
0.000224371 -4.99336e-05 3.58584e-07
4.23232e-07 3.58584e-07 -0.000231499
0.00167895 0.000367949 6.65739e-06
0.000367949 0.000113066 -1.08059e-06
6.65739e-06 -1.08059e-06 -9.56357e-05
0.00677859 0.000178699 -0.00028231
0.000178699 0.00386141 -3.38714e-05
-0.00028231 -3.38714e-05 0.00386007
0.000355474 0.00017843 2.88238e-07
0.00017843 -0.000194264 8.17983e-07
2.88238e-07 8.17983e-07 -0.000313179
0.000948314 0.000239004 1.53082e-05
0.000239004 -5.67236e-05 5.65821e-06
1.53082e-05 5.65821e-06 -0.000248162
0.000363065 0.000206755 2.13201e-05
0.000206755 -0.000160308 1.7294e-05
2.13201e-05 1.7294e-05 -0.000290713
0.00672765 8.85193e-05 1.00385e-05
8.85193e-05 0.00384038 7.30227e-07
1.00385e-05 7.30227e-07 0.00383958
0.00648291 -6.34153e-05 0.000240992
-6.34153e-05 0.00369408 1.50133e-05
0.000240992 1.50133e-05 0.00369383
0.00194414 6.65174e-05 -7.80099e-06
6.65174e-05 4.11509e-05 1.11321e-07
-7.80099e-06 1.11321e-07 2.56246e-07
0.00200388 0.000118556 2.33663e-07
0.000118556 2.86776e-05 4.2832e-08
2.33663e-07 4.2832e-08 1.40204e-05
0.00208945 0.000192874 1.19494e-06
0.000192874 1.13026e-05 3.56695e-07
1.19494e-06 3.56695e-07 3.2025e-06
0.0018856 4.49189e-06 -2.84668e-06
4.49189e-06 4.42951e-05 1.41048e-07
-2.84668e-06 1.41048e-07 -2.46465e-05
0.00193428 1.74017e-05 1.38675e-07
1.74017e-05 3.61244e-05 5.85175e-08
1.38675e-07 5.85175e-08 1.5438e-06
0.00195578 4.01117e-05 1.02041e-06
4.01117e-05 -1.82622e-05 -3.47526e-07
1.02041e-06 -3.47526e-07 -2.32529e-05
0.00195126 -2.91128e-05 3.53127e-06
-2.91128e-05 2.47154e-05 -4.97737e-07
3.53127e-06 -4.97737e-07 -8.49093e-07
0.00189241 -4.66688e-05 -1.3319e-06
-4.66688e-05 3.75446e-05 2.88654e-07
-1.3319e-06 2.88654e-07 -2.57446e-05
0.00188485 -4.2695e-05 1.79888e-06
-4.2695e-05 0.000183076 -5.7674e-07
1.79888e-06 -5.7674e-07 7.68293e-05
0.0018996 -0.000112971 -4.99576e-07
-0.000112971 4.53959e-05 6.4405e-07
-4.99576e-07 6.4405e-07 -3.10374e-05
0.00181012 -9.60267e-05 5.25118e-07
-9.60267e-05 0.000128532 2.4705e-08
5.25118e-07 2.4705e-08 1.22706e-05
0.000999293 -5.23357e-05 -1.29616e-05
-5.23357e-05 -9.22664e-05 9.96697e-07
-1.29616e-05 9.96697e-07 -0.000224818
0.00174832 -0.000146152 2.13481e-06
-0.000146152 9.09554e-05 -4.11298e-07
2.13481e-06 -4.11298e-07 -3.82498e-05
0.00106029 -8.65726e-05 -6.93298e-08
-8.65726e-05 -4.87769e-05 1.49801e-07
-6.93298e-08 1.49801e-07 -0.000192027
0.000459636 -2.29711e-05 -1.85285e-05
-2.29711e-05 -0.000176719 3.52178e-06
-1.85285e-05 3.52178e-06 -0.000262748
0.00110319 -0.000121149 1.23735e-05
-0.000121149 -1.76816e-05 -2.59385e-06
1.23735e-05 -2.59385e-06 -0.000169428
0.000457221 -7.28533e-05 -2.24734e-07
-7.28533e-05 -0.00017261 4.31979e-07
-2.24734e-07 4.31979e-07 -0.000264452
0.0062762 -4.56944e-05 -0.000296645
-4.56944e-05 0.00353819 1.35426e-05
-0.000296645 1.35426e-05 0.00355773
0.000497909 -7.46393e-05 1.49854e-05
-7.46393e-05 -0.000148776 -7.71924e-06
1.49854e-05 -7.71924e-06 -0.000244705
0.00397531 -0.000100036 0.000132123
-0.000100036 0.00212023 -6.52037e-06
0.000132123 -6.52037e-06 0.00210445
0.00139351 -8.57611e-05 7.22949e-05
-8.57611e-05 0.000536761 -1.0006e-05
7.22949e-05 -1.0006e-05 0.000488615
0.00197214 0.000123628 -6.74238e-06
0.000123628 6.04259e-05 -3.53293e-07
-6.74238e-06 -3.53293e-07 7.30882e-06
0.00199112 0.000169689 -6.58507e-07
0.000169689 0.000105423 1.78362e-06
-6.58507e-07 1.78362e-06 1.57963e-05
0.00198293 0.000154881 -6.75978e-07
0.000154881 5.17626e-05 -1.54145e-07
-6.75978e-07 -1.54145e-07 2.44678e-06
0.00179088 0.000204263 2.95141e-08
0.000204263 0.000111847 9.99862e-07
2.95141e-08 9.99862e-07 -3.22523e-05
0.00202603 0.000233979 3.78283e-07
0.000233979 0.000124473 2.03664e-07
3.78283e-07 2.03664e-07 1.76384e-05
0.00201053 0.000208161 2.44842e-06
0.000208161 5.59273e-05 3.13658e-07
2.44842e-06 3.13658e-07 -1.43492e-05
0.00108499 0.000162633 -1.45491e-05
0.000162633 -4.60785e-05 -2.48536e-06
-1.45491e-05 -2.48536e-06 -0.000202906
0.00185006 0.00026844 1.20397e-06
0.00026844 0.000163478 5.76711e-07
1.20397e-06 5.76711e-07 7.11008e-07
0.00190306 0.00030103 -2.11931e-07
0.00030103 7.31655e-05 -9.61675e-07
-2.11931e-07 -9.61675e-07 -6.26563e-05
0.000359532 9.38139e-05 -1.82149e-05
9.38139e-05 -0.000231325 -7.55745e-06
-1.82149e-05 -7.55745e-06 -0.000327434
0.00102572 0.000195265 -1.38804e-06
0.000195265 -7.16304e-05 1.29624e-07
-1.38804e-06 1.29624e-07 -0.000240567
0.00193572 0.000333929 5.49751e-06
0.000333929 0.000236131 4.61597e-07
5.49751e-06 4.61597e-07 5.07444e-05
0.00660873 0.000240221 -0.000298689
0.000240221 0.00375438 -3.26535e-05
-0.000298689 -3.26535e-05 0.00375573
0.000368387 0.000130907 -7.97267e-08
0.000130907 -0.000211378 4.16472e-07
-7.97267e-08 4.16472e-07 -0.000316852
0.00090522 0.000218742 1.49126e-05
0.000218742 -0.000126621 4.61422e-06
1.49126e-05 4.61422e-06 -0.000307221
0.00672607 0.000195338 1.37765e-05
0.000195338 0.00383574 3.19898e-06
1.37765e-05 3.19898e-06 0.00383287
0.000381233 0.000170034 1.99595e-05
0.000170034 -0.000179636 1.42902e-05
1.99595e-05 1.42902e-05 -0.000299316
0.00660252 5.20019e-05 0.00026592
5.20019e-05 0.00375082 2.2029e-05
0.00026592 2.2029e-05 0.00375768
0.0018747 4.83436e-05 -3.6591e-06
4.83436e-05 2.69382e-05 2.69835e-07
-3.6591e-06 2.69835e-07 -4.3015e-05
0.0019359 6.99996e-05 -7.81346e-07
6.99996e-05 4.37749e-05 -2.48541e-07
-7.81346e-07 -2.48541e-07 1.67861e-06
0.00198578 0.000115576 3.63575e-06
0.000115576 1.69587e-05 5.28862e-07
3.63575e-06 5.28862e-07 1.74886e-06
0.00187138 -3.78354e-06 2.35246e-06
-3.78354e-06 0.000177877 -4.30921e-07
2.35246e-06 -4.30921e-07 7.37562e-05
0.00186514 5.28805e-06 -1.81947e-06
5.28805e-06 2.85189e-05 2.42792e-07
-1.81947e-06 2.42792e-07 -3.80056e-05
0.00193926 2.37637e-05 6.95851e-06
2.37637e-05 3.7839e-05 -2.51819e-07
6.95851e-06 -2.51819e-07 6.07641e-06
0.00187554 -4.51363e-05 -1.33338e-07
-4.51363e-05 2.77616e-05 3.95741e-07
-1.33338e-07 3.95741e-07 -3.49072e-05
0.00185658 -4.1798e-05 3.15838e-06
-4.1798e-05 0.000163841 -2.43383e-07
3.15838e-06 -2.43383e-07 5.78228e-05
0.000996146 -2.08375e-05 -1.26347e-05
-2.08375e-05 -8.84747e-05 3.1134e-07
-1.26347e-05 3.1134e-07 -0.000215399
0.00181158 -9.74313e-05 5.77777e-08
-9.74313e-05 0.000133537 2.51003e-07
5.77777e-08 2.51003e-07 1.13601e-05
0.00102454 -5.23969e-05 -8.24611e-07
-5.23969e-05 -7.49129e-05 3.19178e-09
-8.24611e-07 3.19178e-09 -0.000209127
0.000466268 -8.02834e-06 -1.88461e-05
-8.02834e-06 -0.000173277 2.16224e-06
-1.88461e-05 2.16224e-06 -0.000256286
0.00106992 -8.41801e-05 1.17755e-05
-8.41801e-05 -4.20264e-05 -1.76377e-06
1.17755e-05 -1.76377e-06 -0.000184626
0.000438377 -3.53044e-05 8.68227e-07
-3.53044e-05 -0.000190052 -1.84044e-07
8.68227e-07 -1.84044e-07 -0.000275282
0.00614127 -0.000142251 -0.000301134
-0.000142251 0.00346887 1.48079e-05
-0.000301134 1.48079e-05 0.00348309
0.000427798 -5.61695e-05 1.79478e-05
-5.61695e-05 -0.000190772 -4.49947e-06
1.79478e-05 -4.49947e-06 -0.000282155
0.0062314 -8.2062e-05 7.57978e-06
-8.2062e-05 0.00351297 -4.31078e-08
7.57978e-06 -4.31078e-08 0.00353214
0.00174113 -3.20789e-05 0.000234047
-3.20789e-05 0.00072218 -1.50124e-05
0.000234047 -1.50124e-05 0.00071194
0.00186754 0.000112048 -2.65032e-06
0.000112048 1.73987e-05 3.29624e-07
-2.65032e-06 3.29624e-07 -6.57205e-05
0.00196878 0.000126443 -2.81541e-06
0.000126443 5.03191e-05 -5.36253e-07
-2.81541e-06 -5.36253e-07 8.86172e-07
0.00175499 0.0001411 9.64379e-07
0.0001411 8.64281e-05 1.18724e-06
9.64379e-07 1.18724e-06 -4.10168e-05
0.00199392 0.000168754 9.31515e-07
0.000168754 0.000106381 2.01821e-07
9.31515e-07 2.01821e-07 1.69176e-05
0.0019607 0.000149868 3.88166e-06
0.000149868 3.52198e-05 -8.11573e-08
3.88166e-06 -8.11573e-08 -1.36015e-05
0.00112491 0.000121803 -1.26619e-05
0.000121803 -1.35786e-05 -1.84909e-06
-1.26619e-05 -1.84909e-06 -0.000161713
0.0017877 0.00020296 1.74218e-07
0.00020296 0.00011339 4.72418e-08
1.74218e-07 4.72418e-08 -3.06994e-05
0.00201734 0.000233181 1.20005e-06
0.000233181 0.000116823 -1.26801e-06
1.20005e-06 -1.26801e-06 8.56918e-06
0.00040393 6.87404e-05 -1.78855e-05
6.87404e-05 -0.00021155 -5.39985e-06
-1.78855e-05 -5.39985e-06 -0.000302944
0.00106724 0.000162127 -1.29263e-06
0.000162127 -5.32191e-05 1.89408e-07
-1.29263e-06 1.89408e-07 -0.000211957
0.00184581 0.000266156 2.5272e-06
0.000266156 0.000167601 1.49644e-07
2.5272e-06 1.49644e-07 8.44829e-07
0.00645428 0.000260136 -0.000314834
0.000260136 0.00366834 -3.05813e-05
-0.000314834 -3.05813e-05 0.00366876
0.00040796 9.67298e-05 -1.07141e-07
9.67298e-05 -0.000203247 1.90535e-07
-1.07141e-07 1.90535e-07 -0.000299886
0.000954546 0.000190667 1.13951e-05
0.000190667 -0.000114086 3.49897e-06
1.13951e-05 3.49897e-06 -0.00028246
0.006611 0.000263183 1.09646e-05
0.000263183 0.00376788 4.48961e-06
1.09646e-05 4.48961e-06 0.00376356
0.000418061 0.000128701 1.88613e-05
0.000128701 -0.000183215 1.0838e-05
1.88613e-05 1.0838e-05 -0.000288931
0.00671031 0.000194626 0.000294895
0.000194626 0.00381639 3.13648e-05
0.000294895 3.13648e-05 0.00382006
0.00182801 4.20679e-05 3.57209e-06
4.20679e-05 0.000149374 3.44146e-08
3.57209e-06 3.44146e-08 4.30535e-05
0.00187013 4.73839e-05 -2.90522e-06
4.73839e-05 2.92218e-05 -5.00677e-08
-2.90522e-06 -5.00677e-08 -4.21688e-05
0.00192876 7.2951e-05 5.84891e-06
7.2951e-05 4.69401e-05 -1.50286e-07
5.84891e-06 -1.50286e-07 3.6937e-06
0.000987061 -8.97577e-06 -1.29333e-05
-8.97577e-06 -8.48316e-05 -1.00547e-07
-1.29333e-05 -1.00547e-07 -0.000209837
0.00184823 1.09257e-06 3.41916e-06
1.09257e-06 0.000162725 -1.21915e-07
3.41916e-06 -1.21915e-07 5.8678e-05
0.00184494 5.54108e-06 -3.51272e-07
5.54108e-06 1.29065e-05 2.8733e-07
-3.51272e-07 2.8733e-07 -5.11082e-05
0.00183314 -4.1201e-05 4.32531e-06
-4.1201e-05 0.000147771 1.53536e-07
4.32531e-06 1.53536e-07 4.19823e-05
0.000988523 -2.1916e-05 -5.08136e-07
-2.1916e-05 -9.49296e-05 -3.69965e-09
-5.08136e-07 -3.69965e-09 -0.000222131
0.000469315 -3.20727e-05 -1.93217e-05
-3.20727e-05 -0.00017018 1.04059e-06
-1.93217e-05 1.04059e-06 -0.00025012
0.00103023 -5.14924e-05 1.14175e-05
-5.14924e-05 -6.94411e-05 -1.2904e-06
1.14175e-05 -1.2904e-06 -0.000205344
0.000444426 3.37474e-06 3.61879e-07
3.37474e-06 -0.000187511 4.14713e-08
3.61879e-07 4.14713e-08 -0.000269454
0.00608191 -0.000114095 -0.000303596
-0.000114095 0.00343078 1.09245e-05
-0.000303596 1.09245e-05 0.00344802
0.000451808 -4.23075e-05 1.87918e-05
-4.23075e-05 -0.000179442 -3.06479e-06
1.87918e-05 -3.06479e-06 -0.000265831
0.00614367 -3.65833e-05 -3.01307e-06
-3.65833e-05 0.00345858 2.55061e-06
-3.01307e-06 2.55061e-06 0.00348006
0.00621095 -9.71136e-05 0.000300566
-9.71136e-05 0.00350075 -1.31347e-05
0.000300566 -1.31347e-05 0.00352041
0.00169473 8.53534e-05 1.08852e-06
8.53534e-05 5.50377e-05 4.6928e-07
1.08852e-06 4.6928e-07 -6.19521e-05
0.00191803 0.000111377 -3.13933e-06
0.000111377 4.60097e-05 -7.63584e-07
-3.13933e-06 -7.63584e-07 -3.11906e-05
0.00197075 0.000129797 3.43874e-06
0.000129797 4.44811e-05 -1.5186e-07
3.43874e-06 -1.5186e-07 -1.46548e-06
0.00111655 7.84797e-05 -1.21841e-05
7.84797e-05 -1.36684e-05 -1.26631e-06
-1.21841e-05 -1.26631e-06 -0.000151737
0.00176518 0.000140091 2.50529e-07
0.000140091 9.54867e-05 -9.63616e-09
2.50529e-07 -9.63616e-09 -3.20953e-05
0.0019876 0.000167594 7.73159e-07
0.000167594 0.000101765 -1.84647e-06
7.73159e-07 -1.84647e-06 1.23784e-05
0.000438347 4.61352e-05 -1.74779e-05
4.61352e-05 -0.000190909 -3.8985e-06
-1.74779e-05 -3.8985e-06 -0.000278837
0.00109258 0.000123308 3.74457e-07
0.000123308 -3.40597e-05 2.40493e-07
3.74457e-07 2.40493e-07 -0.00018324
0.00178557 0.000201696 7.32973e-07
0.000201696 0.000115229 -8.08292e-07
7.32973e-07 -8.08292e-07 -2.88637e-05
0.00628993 0.000222308 -0.000323329
0.000222308 0.00356761 -2.53157e-05
-0.000323329 -2.53157e-05 0.00357384
0.000439376 7.45163e-05 3.74104e-07
7.45163e-05 -0.000189807 1.66041e-07
3.74104e-07 1.66041e-07 -0.000282306
0.00104808 0.000161447 1.13698e-05
0.000161447 -6.15703e-05 2.8695e-06
1.13698e-05 2.8695e-06 -0.000222148
0.00649473 0.000275621 6.02855e-06
0.000275621 0.0036989 3.33981e-06
6.02855e-06 3.33981e-06 0.00369697
0.000460505 0.000101652 1.82438e-05
0.000101652 -0.000171486 8.25799e-06
1.82438e-05 8.25799e-06 -0.000269184
0.00663548 0.000294448 0.000311951
0.000294448 0.00378916 3.78633e-05
0.000311951 3.78633e-05 0.00378167
0.00103591 2.23966e-05 -1.25575e-05
2.23966e-05 -4.80804e-05 -5.06617e-07
-1.25575e-05 -5.06617e-07 -0.000177425
0.00179365 3.87588e-05 3.61661e-06
3.87588e-05 0.000125783 7.30386e-08
3.61661e-06 7.30386e-08 2.15376e-05
0.00186545 4.64001e-05 -2.40628e-06
4.64001e-05 3.12207e-05 -1.0726e-07
-2.40628e-06 -1.0726e-07 -4.16496e-05
0.000505928 3.18258e-05 -1.99108e-05
3.18258e-05 -0.000155751 -6.16481e-07
-1.99108e-05 -6.16481e-07 -0.000227801
0.000967286 -3.12787e-06 -6.4856e-07
-3.12787e-06 -9.87494e-05 -2.30488e-10
-6.4856e-07 -2.30488e-10 -0.000223886
0.0018195 7.23486e-06 4.49363e-06
7.23486e-06 0.000143805 1.27414e-07
4.49363e-06 1.27414e-07 3.98182e-05
0.000978242 -2.25731e-05 1.16748e-05
-2.25731e-05 -0.000103266 -5.61696e-07
1.16748e-05 -5.61696e-07 -0.000230722
0.000465887 -5.54072e-06 3.80827e-07
-5.54072e-06 -0.000172332 3.82402e-07
3.80827e-07 3.82402e-07 -0.000252357
0.00599122 2.02826e-05 -0.000305943
2.02826e-05 0.00336846 1.01186e-06
-0.000305943 1.01186e-06 0.00339195
0.000423013 1.50805e-05 1.83509e-05
1.50805e-05 -0.000202211 -1.2492e-06
1.83509e-05 -1.2492e-06 -0.000282795
0.00604249 -0.000112179 -7.7439e-06
-0.000112179 0.00340807 1.88128e-06
-7.7439e-06 1.88128e-06 0.00342474
0.00608178 -1.81291e-05 0.000288403
-1.81291e-05 0.00342066 -6.67285e-06
0.000288403 -6.67285e-06 0.00344209
0.00108072 4.5108e-05 -1.23904e-05
4.5108e-05 -2.68592e-05 -1.10024e-06
-1.23904e-05 -1.10024e-06 -0.000158652
0.0017472 8.28683e-05 -2.67706e-07
8.28683e-05 8.7827e-05 -3.46012e-07
-2.67706e-07 -3.46012e-07 -2.50414e-05
0.00198739 0.000110639 -2.97486e-06
0.000110639 8.65246e-05 -2.18118e-06
-2.97486e-06 -2.18118e-06 1.53619e-05
0.00267856 6.13143e-05 -0.000141972
6.13143e-05 0.00119677 -4.86297e-06
-0.000141972 -4.86297e-06 0.00114511
0.00106866 8.00471e-05 3.18351e-07
8.00471e-05 -4.39921e-05 1.47209e-07
3.18351e-07 1.47209e-07 -0.000182895
0.00177359 0.000138958 5.97853e-07
0.000138958 0.000103352 -1.04634e-06
5.97853e-07 -1.04634e-06 -2.43828e-05
0.00615046 0.000163125 -0.000322436
0.000163125 0.00347607 -1.81897e-05
-0.000322436 -1.81897e-05 0.00349044
0.000470035 6.51694e-05 8.92893e-07
6.51694e-05 -0.000169151 4.09509e-07
8.92893e-07 4.09509e-07 -0.0002591
0.00106187 0.000124716 1.26184e-05
0.000124716 -5.34293e-05 2.20338e-06
1.26184e-05 2.20338e-06 -0.000203624
0.00637771 0.000237286 1.36767e-06
0.000237286 0.00362303 1.60349e-06
1.36767e-06 1.60349e-06 0.00362803
0.000484939 8.31763e-05 1.84402e-05
8.31763e-05 -0.000160671 6.44928e-06
1.84402e-05 6.44928e-06 -0.000254939
0.00652467 0.00030922 0.00032175
0.00030922 0.0037301 3.80508e-05
0.00032175 3.80508e-05 0.00372138
0.000571745 1.15223e-05 -1.59269e-05
1.15223e-05 -0.000104417 -1.82072e-06
-1.59269e-05 -1.82072e-06 -0.00018565
0.000993603 2.16583e-05 3.24659e-07
2.16583e-05 -7.82624e-05 2.10862e-07
3.24659e-07 2.10862e-07 -0.000206024
0.00175981 3.44052e-05 3.76451e-06
3.44052e-05 0.000102385 -5.79834e-08
3.76451e-06 -5.79834e-08 2.59896e-07
0.00584229 -0.000100373 -0.000289092
-0.000100373 0.00329448 3.36168e-06
-0.000289092 3.36168e-06 0.00330713
0.000460997 9.24308e-06 -5.87858e-07
9.24308e-06 -0.000178968 -4.34241e-08
-5.87858e-07 -4.34241e-08 -0.000253662
0.0009661 1.56778e-06 1.15892e-05
1.56778e-06 -0.000101371 -5.28845e-08
1.15892e-05 -5.28845e-08 -0.000226576
0.000421813 2.09346e-05 1.85837e-05
2.09346e-05 -0.00020082 1.73619e-07
1.85837e-05 1.73619e-07 -0.000279784
0.0059356 -1.5399e-05 2.11019e-06
-1.5399e-05 0.00333994 -1.49232e-06
2.11019e-06 -1.49232e-06 0.00335906
0.00603065 -3.30192e-05 0.000294765
-3.30192e-05 0.00338928 -4.51554e-06
0.000294765 -4.51554e-06 0.00341182
0.00276044 1.49975e-05 -0.000136816
1.49975e-05 0.00124558 -2.77773e-06
-0.000136816 -2.77773e-06 0.00119684
0.00105651 4.83159e-05 9.37123e-08
4.83159e-05 -4.36373e-05 -1.72375e-08
9.37123e-08 -1.72375e-08 -0.000176074
0.00179131 8.05283e-05 7.49264e-07
8.05283e-05 0.00011554 -9.89698e-07
7.49264e-07 -9.89698e-07 6.8083e-06
0.00567323 -3.83099e-05 -0.000122934
-3.83099e-05 0.00319283 4.52527e-07
-0.000122934 4.52527e-07 0.00318102
0.000480124 5.74218e-05 1.45244e-07
5.74218e-05 -0.000162291 2.50727e-07
1.45244e-07 2.50727e-07 -0.000247315
0.00103732 8.22762e-05 1.21346e-05
8.22762e-05 -6.47276e-05 1.54009e-06
1.21346e-05 1.54009e-06 -0.000204413
0.00622498 0.000138412 -1.05905e-05
0.000138412 0.00351682 -1.71694e-06
-1.05905e-05 -1.71694e-06 0.00353247
0.000497328 8.82448e-05 1.96859e-05
8.82448e-05 -0.00015166 5.48273e-06
1.96859e-05 5.48273e-06 -0.000242622
0.00643622 0.000261412 0.000329546
0.000261412 0.00366567 3.27249e-05
0.000329546 3.27249e-05 0.00366781
0.00177145 -5.32799e-05 -0.000231896
-5.32799e-05 0.000741039 1.29697e-06
-0.000231896 1.29697e-06 0.000738983
0.00161466 3.05453e-05 -5.8486e-05
3.05453e-05 0.000534154 1.24906e-07
-5.8486e-05 1.24906e-07 0.000474309
0.000946339 2.35475e-05 1.24984e-05
2.35475e-05 -0.000111133 7.09294e-07
1.24984e-05 7.09294e-07 -0.000237385
0.00591935 -4.69691e-05 7.03505e-06
-4.69691e-05 0.00333553 2.41906e-06
7.03505e-06 2.41906e-06 0.0033535
0.00047672 -1.2019e-05 1.91946e-05
-1.2019e-05 -0.000162833 6.92612e-07
1.91946e-05 6.92612e-07 -0.000241426
0.00597671 -7.93751e-05 0.000307828
-7.93751e-05 0.00336851 -4.3776e-06
0.000307828 -4.3776e-06 0.00338749
0.00133984 2.08095e-05 -5.83121e-05
2.08095e-05 0.000500735 -9.09045e-07
-5.83121e-05 -9.09045e-07 0.000463166
0.00160215 1.78565e-05 -5.91378e-05
1.78565e-05 0.000529557 -1.27055e-06
-5.91378e-05 -1.27055e-06 0.000465598
0.00102256 5.00911e-05 1.22475e-05
5.00911e-05 -6.6201e-05 1.08461e-06
1.22475e-05 1.08461e-06 -0.000199303
0.00374274 6.53613e-05 0.000114173
6.53613e-05 0.00197862 3.31617e-06
0.000114173 3.31617e-06 0.00197044
0.000489588 6.79107e-05 1.99237e-05
6.79107e-05 -0.000156449 4.21041e-06
1.99237e-05 4.21041e-06 -0.000241437
0.00630593 0.000126307 0.000314027
0.000126307 0.0035592 1.95726e-05
0.000314027 1.95726e-05 0.00357855
0.0058729 -2.02624e-05 -8.90951e-06
-2.02624e-05 0.00330999 -3.00255e-06
-8.90951e-06 -3.00255e-06 0.00332672
0.000471328 4.95985e-05 2.07668e-05
4.95985e-05 -0.000176938 2.30184e-06
2.07668e-05 2.30184e-06 -0.000248545
0.00583103 3.93192e-05 0.000295795
3.93192e-05 0.00327681 2.09687e-07
0.000295795 2.09687e-07 0.00329834
0.00363885 3.11828e-05 0.000126461
3.11828e-05 0.00191903 4.83904e-06
0.000126461 4.83904e-06 0.00191256
0.00050216 8.33723e-06 1.91396e-05
8.33723e-06 -0.000148939 2.54454e-06
1.91396e-05 2.54454e-06 -0.000228847
0.00610668 -3.28645e-06 0.000301576
-3.28645e-06 0.00343781 8.60329e-06
0.000301576 8.60329e-06 0.00345851
0.00591949 -0.000120047 0.000293254
-0.000120047 0.00334321 -4.12467e-06
0.000293254 -4.12467e-06 0.00335543
0.0059297 6.07292e-06 0.000295053
6.07292e-06 0.00332856 4.9019e-06
0.000295053 4.9019e-06 0.00335235
