# vtk DataFile Version 2.0
Wound Healing Simulation
ASCII
DATASET UNSTRUCTURED_GRID
POINTS 3012 float
69.9759 18.75 4
67.2507 60.3285 4
69.976 18.75 2
73.0099 25.446 4
71.1327 20.9142 4
68.6801 16.6661 4
67.8248 19.9262 3.98082
67.2507 60.3286 2
71.1327 54.0858 4
68.6801 58.3339 4
65.6939 62.2254 4
65.3113 59.0007 3.97983
74.6784 42.3946 4
73.7221 47.2057 4
69.9759 18.75 0
73.0099 25.446 2
68.6801 16.6661 2
71.1327 20.9142 2
67.8253 19.9295 2
74.6792 32.6053 4
73.7222 27.7943 4
72.1454 23.1494 4
70.6135 26.2209 3.98041
68.885 21.958 3.98131
67.2507 14.6715 4
66.6362 17.9724 3.98
65.7943 21.0268 3.97033
67.2507 60.3285 0
71.1327 54.0858 2
68.6801 58.3339 2
65.694 62.2255 2
65.3125 58.9968 2
72.1454 51.8506 4
69.9759 56.25 4
68.8357 53.113 3.98046
64.0165 64.0165 4
66.61 57.1335 3.98058
63.8844 60.765 3.98022
63.4976 57.7683 3.97142
60.3285 67.2507 4
74.6792 42.3947 2
73.7222 47.2057 2
74.9194 39.9526 4
74.2788 44.8158 4
72.1678 42.0854 3.97999
73.0099 49.554 4
71.2487 46.5979 3.97965
73.0099 25.446 0
71.1327 20.9142 0
68.6801 16.6661 0
67.8248 19.9262 0.0191835
74.6792 32.6053 2
73.7222 27.7943 2
67.2508 14.6715 2
72.1455 23.1494 2
70.6135 26.2214 2
66.6372 17.9764 2
68.8853 21.9601 2
65.7937 21.0277 2
74.9197 35.0474 4
74.2794 30.1841 4
72.1844 32.9433 3.98029
71.2776 28.4313 3.97995
69.8149 24.0595 3.98105
68.3445 26.9521 3.96943
66.76 22.9342 3.96988
65.694 12.7746 4
65.3225 16.1044 3.97953
64.7107 19.1976 3.97099
63.8806 22.0397 3.96669
71.1327 54.0858 0
65.6939 62.2254 0
68.6801 58.3339 0
65.3113 59.0007 0.0201697
72.1455 51.8506 2
69.9759 56.25 2
68.8359 53.111 2
64.0165 64.0165 2
66.6109 57.1298 2
63.8861 60.7616 2
63.497 57.768 2
62.2254 65.694 4
58.894 65.4139 3.98958
69.7683 50.9888 3.9802
67.7829 55.167 3.98033
66.647 52.2079 3.96902
62.3352 62.427 3.98442
64.6582 56.0296 3.97098
62.1992 59.3981 3.96987
61.8168 56.6738 3.96653
58.3339 68.6801 4
60.3285 67.2508 2
73.7221 47.2057 0
74.6784 42.3946 0
74.9197 39.9526 2
74.2794 44.8159 2
72.1673 42.0854 2
73.0099 49.554 2
71.2486 46.5977 2
75 37.5 4
72.4051 39.8021 3.98058
71.7821 44.3527 3.98002
69.8022 41.7893 3.9695
70.5745 48.8134 3.97977
68.91 46.014 3.96911
74.6792 32.6053 0
73.7222 27.7943 0
67.2507 14.6715 0
72.1454 23.1494 0
70.6135 26.2209 0.0195899
68.885 21.958 0.0186915
66.6362 17.9724 0.0200035
65.7943 21.0268 0.029666
74.9197 35.0474 2
74.2794 30.1841 2
72.1839 32.9437 2
71.2775 28.4318 2
65.694 12.7745 2
65.324 16.1086 2
69.815 24.0606 2
68.3444 26.9527 2
64.7102 19.1984 2
66.7596 22.9351 2
63.88 22.0401 2
72.4129 35.2242 3.98063
71.8035 30.6762 3.98034
69.8382 33.2686 3.96973
68.9639 29.0387 3.96942
67.6089 24.9128 3.96956
66.1823 27.6378 3.96708
64.0165 10.9835 4
64.7483 23.8337 3.96684
63.8889 14.3284 3.98134
63.5098 17.4518 3.97117
62.9002 20.3266 3.9667
62.0587 22.9571 3.96681
60.6832 11.0986 3.98571
57.6112 11.453 3.9774
72.1454 51.8506 0
69.9759 56.25 0
68.8357 53.113 0.0195429
64.0165 64.0165 0
63.8844 60.765 0.019782
66.61 57.1335 0.0194211
63.4976 57.7683 0.0285794
62.2255 65.694 2
58.8954 65.4131 2
69.7682 50.9879 2
67.7834 55.164 2
66.6465 52.2071 2
62.3371 62.4245 2
64.6577 56.0291 2
62.1987 59.3985 2
61.8162 56.6737 2
60.6679 63.9764 3.98679
57.0252 66.7347 3.99105
57.5566 63.6883 3.97938
67.5051 50.1755 3.96878
65.6991 54.1718 3.96948
64.5269 51.3803 3.96599
60.7709 60.9328 3.9741
62.8142 55.0622 3.96683
60.6496 58.1479 3.96413
60.3181 55.7732 3.96618
56.25 69.9759 4
58.3339 68.6801 2
60.3285 67.2507 0
58.9205 9.65678 3.98732
62.2254 9.30607 4
73.0099 49.554 0
74.2788 44.8158 0
71.2487 46.5979 0.0203488
72.1678 42.0854 0.0200066
74.9194 39.9526 0
75 37.5 2
72.405 39.8023 2
71.782 44.3524 2
69.8017 41.789 2
70.5744 48.8131 2
68.91 46.0134 2
72.4884 37.512 3.98018
70.0395 39.6572 3.96958
69.4284 43.9069 3.9694
67.5847 41.4956 3.96822
68.2635 48.106 3.96879
66.6917 45.4358 3.96745
74.9197 35.0474 0
74.2794 30.1841 0
72.1844 32.9433 0.0197093
71.2776 28.4313 0.020047
65.694 12.7746 0
65.3225 16.1044 0.0204655
69.8149 24.0595 0.0189522
68.3445 26.9521 0.0305695
66.76 22.9342 0.0301202
64.7107 19.1976 0.029014
63.8806 22.0397 0.0333099
72.4129 35.2243 2
71.8035 30.6768 2
69.8376 33.269 2
68.9639 29.0392 2
64.0165 10.9835 2
63.8909 14.3321 2
63.5092 17.4527 2
67.6086 24.9136 2
66.1825 27.6382 2
62.8996 20.327 2
64.7479 23.8342 2
62.0581 22.9575 2
60.6855 11.1012 2
57.6121 11.4515 2
70.0562 35.3921 3.96974
69.4652 31.1498 3.96954
67.646 33.5923 3.96804
66.7593 29.6256 3.96735
65.513 25.7027 3.96693
64.0859 28.2679 3.96989
62.3408 12.6558 3.98437
62.8137 24.6509 3.96803
62.1956 15.7918 3.97178
61.8054 18.6943 3.96646
61.1887 21.3567 3.96541
60.3508 23.7525 3.96899
59.2445 12.7851 3.97504
55.8737 10.2381 3.97964
56.4031 13.1283 3.97397
69.7683 50.9888 0.0197965
62.2254 65.694 0
58.894 65.4139 0.0104241
67.7829 55.167 0.0196677
66.647 52.2079 0.0309794
62.3352 62.427 0.0155816
62.1992 59.3981 0.0301307
64.6582 56.0296 0.0290244
61.8168 56.6738 0.0334652
60.6696 63.9748 2
57.0261 66.7343 2
57.5568 63.69 2
67.5048 50.1747 2
65.6985 54.171 2
64.5268 51.38 2
60.7707 60.9337 2
62.8136 55.062 2
60.6494 58.1481 2
60.3176 55.773 2
55.0711 67.9315 3.99176
59.2172 62.3611 3.9753
55.8041 64.908 3.98396
56.3244 62.0803 3.97519
65.3161 49.4031 3.96634
63.6996 53.2876 3.96594
62.3899 50.6356 3.96717
59.3277 59.5468 3.96878
61.0613 54.2966 3.96579
59.2715 56.9942 3.96404
59.227 55.1663 3.96525
48.1018 68.5773 3.98723
50.9489 69.9312 3.99191
54.0858 71.1327 4
56.25 69.976 2
58.3339 68.6801 0
57.0581 8.33656 3.98869
60.3285 7.74928 4
58.9228 9.65828 2
62.2255 9.30602 2
70.5745 48.8134 0.0202251
71.7821 44.3527 0.0199785
68.91 46.014 0.0308873
69.8022 41.7893 0.0305011
72.4051 39.8021 0.0194181
75 37.5 0
72.4879 37.5122 2
70.0395 39.6571 2
69.4283 43.9065 2
67.5847 41.4954 2
68.2634 48.1054 2
66.6913 45.4354 2
70.1275 37.5215 3.96961
67.8247 39.5113 3.96828
67.2072 43.4669 3.96787
65.4863 41.203 3.97208
66.0504 47.4131 3.9669
64.5762 44.8356 3.97036
72.4129 35.2242 0.0193669
71.8035 30.6762 0.0196569
69.8382 33.2686 0.0302678
68.9639 29.0387 0.0305765
64.0165 10.9835 0
63.8889 14.3284 0.0186566
63.5098 17.4518 0.0288346
67.6089 24.9128 0.0304358
66.1823 27.6378 0.032919
64.7483 23.8337 0.0331607
62.9002 20.3266 0.0333024
62.0587 22.9571 0.0331942
60.6832 11.0986 0.0142852
57.6112 11.453 0.022596
70.0562 35.3923 2
69.4651 31.1503 2
67.6461 33.5925 2
66.7594 29.6259 2
62.3431 12.6592 2
62.1953 15.792 2
61.8046 18.6946 2
65.5128 25.7032 2
64.0848 28.2684 2
61.1878 21.3571 2
62.8131 24.6513 2
60.3505 23.7532 2
59.2454 12.7848 2
56.4037 13.1266 2
55.8744 10.2367 2
67.8628 35.5482 3.96826
67.2538 31.6246 3.96774
65.6397 33.932 3.97212
64.5994 30.2026 3.97064
63.4873 26.4273 3.96908
62.146 28.7988 3.97377
60.7734 14.2294 3.97458
60.9581 25.3621 3.97097
60.6038 17.141 3.96642
60.1981 19.8335 3.96381
59.5895 22.2853 3.96594
58.8699 24.3544 3.97146
54.0371 9.13918 3.98166
57.9069 14.345 3.97439
54.7851 12.0217 3.97497
55.3077 14.6676 3.97239
67.5051 50.1755 0.0312188
57.0252 66.7347 0.00894619
60.6679 63.9764 0.0132103
57.5566 63.6883 0.0206235
65.6991 54.1718 0.0305198
64.5269 51.3803 0.0340102
60.7709 60.9328 0.0259022
60.6496 58.1479 0.0358723
62.8142 55.0622 0.0331688
60.3181 55.7732 0.0338228
55.0717 67.9314 2
59.2174 62.3623 2
55.804 64.909 2
56.3239 62.0826 2
65.3159 49.4027 2
63.6991 53.2873 2
62.3899 50.6353 2
59.3271 59.5483 2
61.0615 54.2965 2
59.2718 56.9939 2
59.2272 55.1659 2
53.043 68.9993 3.99181
53.9665 66.0115 3.98544
57.8768 60.8593 3.97444
54.6828 63.2027 3.97884
55.2068 60.5995 3.97404
63.1306 48.6447 3.9683
61.7072 52.5603 3.96636
60.1712 49.991 3.96901
58.0054 58.2461 3.96611
59.2928 53.9269 3.96704
58.0909 55.79 3.96156
50.1085 67.8557 3.98694
47.4626 66.5777 3.98374
46.0555 69.1564 3.98742
48.1018 68.578 2
48.8029 70.7224 3.99202
50.9493 69.9312 2
51.8506 72.1454 4
54.0858 71.1327 2
56.25 69.9759 0
55.1029 7.1409 3.99031
58.3339 6.31992 4
57.0598 8.33731 2
60.3286 7.74926 2
58.9205 9.65678 0.012683
62.2254 9.30607 0
68.2635 48.106 0.0312064
69.4284 43.9069 0.0305957
66.6917 45.4358 0.0325496
67.5847 41.4956 0.0317825
70.0395 39.6572 0.03042
72.4884 37.512 0.019817
70.1271 37.5215 2
67.8246 39.5112 2
67.208 43.4666 2
65.4852 41.2028 2
66.0506 47.4128 2
64.575 44.8352 2
67.9234 37.5219 3.96831
65.7239 39.3665 3.97233
65.1049 43.0156 3.97156
63.6295 40.9183 3.9766
63.8911 46.7015 3.96929
62.6749 44.1956 3.97429
70.0562 35.3921 0.0302596
69.4652 31.1498 0.0304632
67.646 33.5923 0.031964
66.7593 29.6256 0.0326505
62.3408 12.6558 0.0156294
62.1956 15.7918 0.0282249
61.8054 18.6943 0.033541
65.513 25.7027 0.0330696
64.0859 28.2679 0.0301128
62.8137 24.6509 0.0319727
61.1887 21.3567 0.0345893
60.3508 23.7525 0.0310146
59.2445 12.7851 0.0249558
56.4031 13.1283 0.0260329
55.8737 10.2381 0.0203592
67.8625 35.5483 2
67.2542 31.6248 2
65.6389 33.9322 2
64.5984 30.2029 2
60.7735 14.2299 2
60.6035 17.1409 2
60.199 19.8335 2
63.4866 26.4278 2
62.1442 28.7994 2
59.5912 22.2859 2
60.9575 25.3628 2
58.8691 24.3555 2
57.9069 14.3439 2
55.308 14.6672 2
54.0375 9.13776 2
54.7856 12.0194 2
65.8152 35.6689 3.97229
65.1199 32.1623 3.97119
64.1827 34.2567 3.97653
62.4609 30.6548 3.97463
61.5503 27.0955 3.97217
60.701 29.1677 3.97726
59.3053 15.6808 3.97067
59.1984 25.8313 3.97439
59.1057 18.375 3.96431
58.6872 20.8812 3.96292
58.178 23.1291 3.96655
57.8389 24.7057 3.97353
52.1119 8.15586 3.9841
53.0571 11.0252 3.97702
56.6696 15.7614 3.97328
53.806 13.6993 3.97456
54.3669 16.0239 3.97402
55.0711 67.9315 0.00824164
65.3161 49.4031 0.0336594
55.8041 64.908 0.01604
59.2172 62.3611 0.0247039
56.3244 62.0803 0.0248122
63.6996 53.2876 0.0340633
62.3899 50.6356 0.0328283
59.3277 59.5468 0.0312165
59.2715 56.9942 0.0359586
61.0613 54.2966 0.0342105
59.227 55.1663 0.034747
53.0435 68.9993 2
53.9664 66.0123 2
57.8761 60.8609 2
54.6823 63.2036 2
55.2066 60.6012 2
63.1299 48.6443 2
61.708 52.5602 2
60.171 49.9904 2
58.0049 58.2474 2
59.2945 53.9266 2
58.0896 55.789 2
52.0698 66.9985 3.9866
52.9528 64.2148 3.98192
56.6405 59.4746 3.97346
53.6779 61.6141 3.97607
54.2507 59.3012 3.97406
60.8622 47.8518 3.96976
59.6312 52.0787 3.96779
57.882 49.5783 3.97069
56.7536 56.9643 3.96766
57.0637 54.0941 3.96479
50.1085 67.856 2
49.3366 65.9184 3.98367
47.4627 66.5783 2
46.8919 64.731 3.98206
45.5577 67.0946 3.98381
43.9726 69.5884 3.9876
46.0555 69.157 2
46.6094 71.3669 3.99206
48.1018 68.5773 0.0127704
48.8033 70.7226 2
49.554 73.0099 4
50.9489 69.9312 0.00809426
51.8506 72.1455 2
54.0858 71.1327 0
53.0645 6.07212 3.99134
55.1042 7.14104 2
56.25 5.02411 4
58.3339 6.3199 2
57.0581 8.33656 0.011312
60.3285 7.74928 0
66.0504 47.4131 0.0330965
67.2072 43.4669 0.0321273
64.5762 44.8356 0.0296373
65.4863 41.203 0.0279206
67.8247 39.5113 0.0317211
70.1275 37.5215 0.0303884
67.9233 37.5219 2
65.7226 39.3664 2
65.1038 43.0152 2
63.6273 40.9179 2
63.8899 46.701 2
62.6726 44.195 2
65.8297 37.501 3.97235
63.7801 39.2605 3.97684
63.1915 42.5335 3.97542
62.2593 40.6809 3.97706
61.8353 45.8942 3.97208
61.2725 43.657 3.97731
67.8628 35.5482 0.0317353
67.2538 31.6246 0.0322571
65.6397 33.932 0.0278797
64.5994 30.2026 0.0293555
60.7734 14.2294 0.0254159
60.6038 17.141 0.0335784
60.1981 19.8335 0.0361929
63.4873 26.4273 0.0309227
62.146 28.7988 0.0262261
60.9581 25.3621 0.0290285
59.5895 22.2853 0.0340596
58.8699 24.3544 0.0285369
57.9069 14.345 0.025612
55.3077 14.6676 0.0276129
54.0371 9.13918 0.0183361
54.7851 12.0217 0.0250338
65.8139 35.669 2
65.119 32.1626 2
64.1817 34.2569 2
62.4594 30.6552 2
59.3047 15.6809 2
59.1059 18.3748 2
58.692 20.8812 2
61.5491 27.0961 2
60.7001 29.1684 2
58.1767 23.1304 2
59.1976 25.8323 2
57.8386 24.7071 2
56.6695 15.7601 2
54.3669 16.024 2
53.8061 13.6951 2
52.1122 8.15477 2
53.0573 11.0237 2
63.9806 35.6358 3.97617
62.7936 33.0599 3.97558
60.4361 30.6396 3.97678
59.4148 27.9443 3.97543
57.9277 17.0023 3.96808
57.5912 25.7695 3.97617
57.682 19.5016 3.96113
57.2776 21.8794 3.96361
57.0424 23.994 3.96782
50.1123 7.28653 3.98659
51.2322 10.1304 3.97964
52.1693 12.8093 3.97633
55.5243 16.9959 3.97229
52.9716 15.2906 3.97176
53.7444 17.0093 3.97833
53.043 68.9993 0.00818883
53.9665 66.0115 0.0145639
63.1306 48.6447 0.0316991
54.6828 63.2027 0.0211589
57.8768 60.8593 0.0255574
55.2068 60.5995 0.0259587
61.7072 52.5603 0.0336353
60.1712 49.991 0.0309908
58.0054 58.2461 0.0338854
58.0909 55.79 0.0384409
59.2928 53.9269 0.0329605
52.0698 66.9992 2
52.9525 64.2156 2
56.6401 59.4757 2
53.6774 61.6144 2
54.2506 59.3031 2
60.861 47.8511 2
59.6312 52.0782 2
57.8794 49.5771 2
56.7524 56.9687 2
57.0617 54.0931 2
51.1677 65.1251 3.98364
52.0444 62.5325 3.97901
55.4663 58.2324 3.97464
52.8272 60.1167 3.97739
53.6251 58.4513 3.97908
58.1122 46.8069 3.97423
57.4583 51.7519 3.9672
56.0705 49.5088 3.97068
55.434 55.7639 3.96308
55.2746 53.3478 3.96324
50.1085 67.8557 0.013061
49.3365 65.9187 2
48.6177 64.1182 3.98258
47.4626 66.5777 0.0162604
45.5578 67.0952 2
46.892 64.7315 2
46.3814 63.0463 3.98214
45.1322 65.1915 3.9819
43.6309 67.4651 3.98394
41.8601 69.8756 3.98742
43.9726 69.589 2
44.3767 71.8617 3.99202
46.0555 69.1564 0.0125762
46.6098 71.3671 2
47.2057 73.7222 4
48.8029 70.7224 0.00798134
49.554 73.0099 2
51.8506 72.1454 0
50.9546 5.13251 3.99199
53.0654 6.07213 2
54.0858 3.86728 4
55.1029 7.1409 0.00969091
56.25 5.02406 2
58.3339 6.31992 0
63.8911 46.7015 0.030708
65.1049 43.0156 0.0284373
62.6749 44.1956 0.0257127
63.6295 40.9183 0.0233957
65.7239 39.3665 0.0276665
67.9234 37.5219 0.0316923
65.8286 37.501 2
63.7781 39.2603 2
63.1896 42.5329 2
62.2569 40.6804 2
61.8333 45.8934 2
61.2704 43.6561 2
63.8417 37.4559 3.97638
61.9787 39.3439 3.97704
61.0195 41.9338 3.97702
60.0643 44.738 3.97676
65.8152 35.6689 0.027711
65.1199 32.1623 0.0288055
64.1827 34.2567 0.0234689
62.4609 30.6548 0.0253739
59.3053 15.6808 0.0293347
59.1057 18.375 0.0356936
58.6872 20.8812 0.037085
61.5503 27.0955 0.0278321
60.701 29.1677 0.0227416
59.1984 25.8313 0.0256075
58.178 23.1291 0.0334483
57.8389 24.7057 0.0264741
56.6696 15.7614 0.0267223
54.3669 16.0239 0.0259756
53.806 13.6993 0.0254409
52.1119 8.15586 0.0158986
53.0571 11.0252 0.0229836
63.979 35.636 2
62.792 33.0603 2
60.4346 30.6403 2
57.9271 17.0024 2
57.6846 19.5008 2
57.2806 21.8801 2
59.4139 27.9452 2
57.0415 23.9957 2
57.5909 25.7709 2
50.1126 7.28497 2
55.5244 16.995 2
53.7442 17.0085 2
52.9717 15.2889 2
52.1698 12.8085 2
51.2325 10.129 2
62.017 35.3705 3.97692
60.0745 32.7713 3.97707
58.4088 30.1169 3.97701
57.0977 27.4306 3.97668
56.6149 18.1813 3.96675
56.1263 25.1567 3.97359
56.3025 20.5571 3.96005
55.9788 22.9197 3.96262
48.0567 6.52814 3.98847
49.3246 9.33543 3.98172
50.4318 12.0038 3.97694
51.3721 14.5162 3.97294
54.394 17.9484 3.97388
52.3479 17.0717 3.96946
52.0698 66.9985 0.013397
52.9528 64.2148 0.0180775
60.8622 47.8518 0.0302398
53.6779 61.6141 0.0239333
56.6405 59.4746 0.0265426
54.2507 59.3012 0.0259394
59.6312 52.0787 0.03221
57.882 49.5783 0.0293142
56.7536 56.9643 0.0323386
57.0637 54.0941 0.0352121
51.1676 65.1258 2
52.044 62.5331 2
55.4658 58.2336 2
52.827 60.1201 2
53.6248 58.4524 2
58.1111 46.8058 2
57.4569 51.7509 2
56.0676 49.5078 2
55.4338 55.7645 2
55.2771 53.3482 2
50.3457 63.3766 3.98221
51.2398 60.9253 3.97646
54.1952 57.2486 3.97485
52.2991 58.6098 3.97525
56.4286 44.1288 3.97745
55.2677 47.8431 3.97393
54.9369 51.3473 3.96606
53.9452 54.5107 3.96474
49.3366 65.9184 0.0163264
48.6177 64.1184 2
47.9612 62.4686 3.98181
45.5577 67.0946 0.01619
46.8919 64.731 0.0179374
43.631 67.4656 2
46.3816 63.0468 2
45.1323 65.1921 2
45.9865 61.5774 3.98359
44.7668 63.4456 3.9806
43.3564 65.5005 3.98158
41.6632 67.6836 3.9838
39.7021 70.0223 3.98758
41.86 69.8762 2
42.111 72.2065 3.99207
43.9726 69.5884 0.0123998
44.377 71.8619 2
44.8159 74.2794 4
46.6094 71.3669 0.00794202
47.2057 73.7222 2
49.554 73.0099 0
48.7853 4.32301 3.99259
50.9552 5.13198 2
51.8506 2.85458 4
53.0645 6.07212 0.00866222
54.0858 3.86728 2
56.25 5.02411 0
61.8353 45.8942 0.0279241
63.1915 42.5335 0.0245752
61.2725 43.657 0.0226888
62.2593 40.6809 0.0229415
63.7801 39.2605 0.0231558
65.8297 37.501 0.0276476
63.8398 37.4558 2
61.9766 39.3439 2
61.0176 41.9331 2
60.0633 44.7371 2
61.8155 37.444 3.97734
60.008 39.8265 3.97725
58.7328 42.8779 3.97699
63.9806 35.6358 0.0238281
62.7936 33.0599 0.0244179
60.4361 30.6396 0.0232244
57.9277 17.0023 0.0319179
57.682 19.5016 0.0388718
57.2776 21.8794 0.036392
59.4148 27.9443 0.0245669
57.5912 25.7695 0.0238345
57.0424 23.994 0.0321831
55.5243 16.9959 0.0277075
53.7444 17.0093 0.0216738
52.9716 15.2906 0.028242
50.1123 7.28653 0.0134116
52.1693 12.8093 0.0236673
51.2322 10.1304 0.0203636
62.0151 35.3708 2
60.0724 32.7716 2
58.4083 30.1179 2
56.6143 18.1813 2
56.3065 20.5545 2
55.9813 22.9211 2
57.0981 27.4318 2
56.1274 25.1584 2
48.0567 6.52705 2
49.325 9.33367 2
54.3944 17.9479 2
52.3478 17.0711 2
51.3717 14.512 2
50.4322 12.0022 2
59.6519 35.1349 3.97709
57.7136 32.3103 3.97666
56.3088 29.3956 3.97739
55.2162 26.6675 3.9773
55.307 19.2191 3.96231
54.7672 24.121 3.96378
54.9153 21.6097 3.95995
45.9627 5.88303 3.98893
43.3742 7.47438 3.98592
47.3556 8.62594 3.98424
48.5995 11.3011 3.97857
49.7091 13.7561 3.9764
50.6235 16.16 3.97563
53.0976 18.6962 3.96851
51.2816 18.0928 3.97817
51.1677 65.1251 0.0163578
52.0444 62.5325 0.0209907
58.1122 46.8069 0.0257726
52.8272 60.1167 0.0226137
55.4663 58.2324 0.0253619
53.6251 58.4513 0.0209188
57.4583 51.7519 0.0327986
56.0705 49.5088 0.0293193
55.434 55.7639 0.0369152
55.2746 53.3478 0.0367647
50.3454 63.3769 2
51.2392 60.9255 2
54.1951 57.2499 2
52.2987 58.6108 2
56.4275 44.1279 2
55.2672 47.8422 2
54.9386 51.3473 2
53.9459 54.5119 2
49.5903 61.7389 3.9807
55.2523 41.6702 3.97589
50.5566 59.3123 3.97389
52.1532 56.4656 3.96937
53.8704 45.4979 3.975
53.1325 49.2744 3.96985
52.568 52.8129 3.96213
48.6177 64.1182 0.0174209
47.9612 62.4683 2
47.3267 61.0015 3.98494
43.6309 67.4651 0.0160627
45.1322 65.1915 0.0181002
46.3814 63.0463 0.0178577
41.6634 67.6838 2
43.3564 65.5014 2
45.9868 61.578 2
44.767 63.4464 2
45.7631 60.6214 3.98298
44.4829 61.8244 3.98092
43.1461 63.7171 3.97992
41.546 65.638 3.98076
39.6326 67.7628 3.98345
37.526 70.0471 3.98708
39.702 70.0229 2
39.8177 72.4034 3.99188
41.8601 69.8756 0.0125804
42.1113 72.2068 2
42.3947 74.6792 4
44.3767 71.8617 0.00798167
44.8159 74.2794 2
47.2057 73.7222 0
43.8519 5.35994 3.98893
46.5712 3.64748 3.99272
48.7856 4.32257 2
49.554 1.99015 4
50.9546 5.13251 0.00801423
51.8506 2.85453 2
54.0858 3.86728 0
60.0643 44.738 0.0232414
61.0195 41.9338 0.0229796
61.9787 39.3439 0.0229631
63.8417 37.4559 0.0236154
61.814 37.4441 2
60.0072 39.8268 2
58.7316 42.877 2
59.5096 37.5649 3.97745
57.6879 40.6269 3.97744
54.678 39.6861 3.97539
62.017 35.3705 0.0230823
60.0745 32.7713 0.0229297
58.4088 30.1169 0.0229917
56.6149 18.1813 0.033248
56.3025 20.5571 0.0399522
55.9788 22.9197 0.0373826
57.0977 27.4306 0.023316
56.1263 25.1567 0.0264056
54.394 17.9484 0.0261158
52.3479 17.0717 0.0305377
51.3721 14.5162 0.027062
48.0567 6.52814 0.0115281
49.3246 9.33543 0.0182849
50.4318 12.0038 0.0230589
59.6514 35.1344 2
45.9626 5.88231 2
43.3741 7.47358 2
57.7132 32.3109 2
56.308 29.3969 2
55.3069 19.2197 2
54.9226 21.609 2
54.7666 24.1234 2
55.213 26.67 2
47.3557 8.62412 2
48.5999 11.2991 2
53.0989 18.6954 2
51.2823 18.0935 2
50.6239 16.1598 2
49.7091 13.7548 2
57.075 34.7777 3.9774
55.431 31.5681 3.97702
54.2283 28.4826 3.97763
53.5766 25.5782 3.97592
53.9196 20.1769 3.96286
53.4635 22.775 3.9555
41.3994 7.08019 3.98608
45.3604 7.9958 3.9865
42.8663 9.41774 3.98281
46.667 10.6573 3.98133
47.7421 13.1123 3.97834
48.9234 15.4192 3.97339
49.9881 17.7248 3.97525
51.6158 19.3707 3.97718
50.3457 63.3766 0.0177887
51.2398 60.9253 0.0235412
56.4286 44.1288 0.0225492
55.2677 47.8431 0.0260713
52.2991 58.6098 0.024752
54.1952 57.2486 0.025146
54.9369 51.3473 0.0339373
53.9452 54.5107 0.0352561
49.5898 61.7388 2
55.25 41.6688 2
50.5564 59.3137 2
52.153 56.4668 2
53.8732 45.4979 2
53.1392 49.2746 2
52.5683 52.812 2
48.8429 60.1949 3.97857
52.0988 42.5668 3.98114
49.7682 57.6051 3.97112
50.5259 54.4003 3.96353
51.5387 47.2061 3.9758
51.0622 50.9004 3.9569
47.7593 43.7033 3.9883
47.9612 62.4686 0.0181911
47.3269 61.0013 2
46.6133 59.7886 3.98531
41.6632 67.6836 0.0162012
43.3564 65.5005 0.0184164
44.7668 63.4456 0.0193954
45.9865 61.5774 0.016406
39.6329 67.7635 2
41.5459 65.6378 2
45.7632 60.6221 2
43.1463 63.7181 2
44.4831 61.8252 2
44.6199 60.2814 3.98394
42.9499 62.0711 3.9782
41.5998 63.8102 3.98001
39.6475 65.6049 3.97969
37.5634 67.7442 3.9826
31.6973 65.1243 3.98088
33.3925 67.4823 3.98237
35.3339 69.9573 3.98728
37.5259 70.048 2
37.5095 72.4579 3.99191
39.7021 70.0223 0.0124207
39.818 72.4038 2
39.9526 74.9197 4
42.111 72.2065 0.00792541
42.3947 74.6792 2
44.8159 74.2794 0
41.7365 4.96911 3.98911
43.8519 5.35912 2
44.3265 3.11063 3.99304
46.5714 3.64713 2
47.2057 1.27793 4
48.7853 4.32301 0.00741382
49.554 1.99013 2
51.8506 2.85458 0
58.7328 42.8779 0.0230126
60.008 39.8265 0.0227479
61.8155 37.444 0.0226626
59.51 37.5653 2
57.6877 40.6274 2
54.677 39.6864 2
56.465 37.8852 3.97718
49.131 41.2733 3.98666
52.6951 39.306 3.98344
39.4429 6.80401 3.98602
59.6519 35.1349 0.0229142
57.7136 32.3103 0.023341
56.3088 29.3956 0.0226093
55.307 19.2191 0.0376858
54.9153 21.6097 0.0400467
54.7672 24.121 0.036216
55.2162 26.6675 0.0227041
53.0976 18.6962 0.0314881
51.2816 18.0928 0.0218291
50.6235 16.16 0.0243661
45.9627 5.88303 0.0110726
49.7091 13.7561 0.0235983
47.3556 8.62594 0.0157557
48.5995 11.3011 0.0214319
43.3742 7.47438 0.0140767
57.0744 34.7773 2
41.3994 7.07903 2
45.3602 7.99507 2
42.8661 9.41703 2
55.434 31.5668 2
54.2283 28.4832 2
53.9208 20.1792 2
53.4632 22.7733 2
53.5747 25.5802 2
46.6671 10.6544 2
47.7424 13.1094 2
51.6175 19.371 2
49.9878 17.7227 2
48.9229 15.4194 2
54.4797 33.9762 3.97602
53.1727 30.5714 3.97756
52.3219 27.2962 3.97576
51.9945 24.1858 3.97725
52.322 21.1092 3.97376
41.0138 9.05166 3.98253
44.7254 9.99604 3.98458
42.4682 10.9043 3.98593
46.0033 12.7359 3.97725
47.6742 14.5972 3.97344
48.0952 17.0039 3.97305
49.7961 19.7121 3.97255
49.5903 61.7389 0.0192959
50.5566 59.3123 0.0261073
55.2523 41.6702 0.024108
53.8704 45.4979 0.0250018
53.1325 49.2744 0.0301479
52.1532 56.4656 0.0306296
52.568 52.8129 0.0378723
48.8425 60.1935 2
52.1123 42.5705 2
49.7677 57.606 2
50.5258 54.4019 2
51.542 47.2063 2
51.0627 50.8986 2
47.7696 43.7275 2
47.9736 58.7279 3.97897
49.7142 45.2092 3.97884
48.5563 55.8978 3.97562
49.0303 52.5612 3.97736
49.4718 48.9911 3.97399
45.5314 39.8401 3.88102
45.9933 42.5757 3.91259
46.1639 45.7398 3.98442
43.3408 41.0926 3.77306
41.8135 41.9754 3.61269
47.3267 61.0015 0.0150601
46.613 59.7883 2
45.4595 58.7833 3.98251
39.6326 67.7628 0.0165478
41.546 65.638 0.0192396
43.1461 63.7171 0.0200799
44.4829 61.8244 0.0190821
45.7631 60.6214 0.0170156
41.5998 63.8104 2
37.5637 67.7451 2
39.6474 65.6056 2
44.6202 60.282 2
42.9502 62.0719 2
41.753 62.482 3.97916
42.4782 59.9673 3.98177
39.8938 63.5427 3.97796
37.6422 65.5029 3.98029
35.4636 67.6537 3.98258
33.5756 65.3363 3.97981
31.9593 63.2931 3.98068
29.8835 64.7162 3.98209
31.6972 65.125 2
31.3771 67.1926 3.98304
33.3926 67.4831 2
33.1571 69.7512 3.98714
35.3337 69.9582 2
35.195 72.3723 3.99183
37.526 70.0471 0.0129219
37.5096 72.4585 2
37.5 75 4
39.8177 72.4034 0.00811586
39.9526 74.9197 2
42.3947 74.6792 0
39.6242 4.71663 3.98947
41.7365 4.96819 2
42.0628 2.71811 3.99328
43.8519 5.35994 0.0110733
44.3266 3.11013 2
44.8158 0.721173 4
46.5712 3.64748 0.00728168
47.2057 1.27779 2
49.554 1.99015 0
57.6879 40.6269 0.022562
59.5096 37.5649 0.0225546
54.678 39.6861 0.0246089
49.1526 41.2861 2
56.4659 37.8857 2
52.6941 39.2948 2
53.5398 36.6314 3.97729
47.0556 40.3631 3.919
50.0719 38.5225 3.99092
37.5168 6.6753 3.98594
39.4429 6.80271 2
39.2113 8.69473 3.98335
35.9427 8.49503 3.98389
57.075 34.7777 0.0226006
55.431 31.5681 0.0229844
54.2283 28.4826 0.0223684
53.9196 20.1769 0.0371376
53.4635 22.775 0.0444994
53.5766 25.5782 0.0240783
51.6158 19.3707 0.022819
49.9881 17.7248 0.0247505
48.9234 15.4192 0.0266057
45.3604 7.9958 0.0135024
47.7421 13.1123 0.0216558
46.667 10.6573 0.0186714
41.3994 7.08019 0.0139173
42.8663 9.41774 0.0171852
54.4761 33.9786 2
41.0139 9.05063 2
44.7247 9.99546 2
42.468 10.9043 2
53.1705 30.5711 2
52.3294 27.298 2
52.325 21.1096 2
51.9957 24.1885 2
46.0031 12.7314 2
47.6739 14.5941 2
49.798 19.7119 2
48.094 17.0019 2
52.024 32.8906 3.98001
50.9708 29.2574 3.97522
50.5722 25.8204 3.97302
49.8744 22.3022 3.98302
40.5688 11.6113 3.98079
43.8576 11.9165 3.98016
45.7935 15.4356 3.98143
47.4871 19.3249 3.97733
45.9184 37.4825 3.87895
48.8429 60.1949 0.0214314
49.7682 57.6051 0.0288848
52.0988 42.5668 0.0188554
51.5387 47.2061 0.0242024
51.0622 50.9004 0.0430975
50.5259 54.4003 0.0364696
47.7593 43.7033 0.0117039
47.9731 58.7295 2
49.7277 45.219 2
48.5549 55.9001 2
49.0294 52.5652 2
49.4748 48.9881 2
45.5746 39.8503 2
46.018 42.6011 2
46.1704 45.7453 2
43.3664 41.121 2
41.8331 41.9936 2
46.8171 57.33 3.9814
44.0929 39.3806 3.77185
42.1669 40.8501 3.66588
47.7968 47.1989 3.97917
47.1069 54.2124 3.97098
47.4527 50.714 3.9687
44.5652 47.3389 3.97644
44.6444 41.9105 3.86085
44.6384 44.4727 3.92886
42.2475 42.5897 3.78513
40.7515 42.2998 3.65081
46.6133 59.7886 0.0146852
45.46 58.7835 2
43.8642 57.7 3.98215
37.5634 67.7442 0.0173972
39.6475 65.6049 0.0203123
41.5998 63.8102 0.0199861
42.9499 62.0711 0.0218026
44.6199 60.2814 0.0160573
35.4638 67.6548 2
41.7532 62.4826 2
39.8936 63.5433 2
37.6423 65.5038 2
42.4787 59.968 2
40.6231 61.6366 3.98045
40.4405 58.1905 3.97928
37.8369 63.2034 3.97843
35.573 65.425 3.97986
33.5756 65.3369 2
31.959 63.2937 2
33.6286 63.3309 3.97898
30.3786 62.8528 3.98148
32.1238 61.9975 3.98363
26.871 61.4934 3.97894
28.0625 64.1444 3.98161
29.8834 64.7167 2
29.4066 66.7569 3.98372
31.6973 65.1243 0.0191207
31.3772 67.1934 2
31.0147 69.4162 3.98705
33.3925 67.4823 0.0176304
33.157 69.7518 2
32.8921 72.1467 3.99192
35.3339 69.9573 0.0127159
35.1949 72.3728 2
35.0474 74.9194 4
37.5095 72.4579 0.00808923
37.5 75 2
39.9526 74.9197 0
35.6215 6.72646 3.98551
37.5237 4.61613 3.98957
39.6242 4.7155 2
39.7893 2.47464 3.99326
41.7365 4.96911 0.0108911
42.0628 2.71758 2
42.3946 0.32156 4
44.3265 3.11063 0.00695633
44.8159 0.72056 2
47.2057 1.27793 0
49.131 41.2733 0.0133439
56.465 37.8852 0.0228191
52.6951 39.306 0.0165595
47.0762 40.3622 2
50.0789 38.5108 2
53.5461 36.6357 2
50.8597 35.5792 3.9762
47.723 37.7528 3.93398
45.5319 35.147 3.87816
43.3472 33.8935 3.7669
41.8141 33.0215 3.60863
37.4584 8.53655 3.98417
37.5168 6.67413 2
39.4429 6.80401 0.0139756
39.2115 8.69319 2
38.9763 10.1295 3.98367
35.899 9.77681 3.98151
34.1517 8.82565 3.98277
35.9423 8.49352 2
54.4797 33.9762 0.0239842
53.1727 30.5714 0.0224416
52.3219 27.2962 0.0242411
52.322 21.1092 0.0262351
51.9945 24.1858 0.0227483
49.7961 19.7121 0.0274493
48.0952 17.0039 0.0269513
47.6742 14.5972 0.0265627
44.7254 9.99604 0.0154211
46.0033 12.7359 0.0227511
41.0138 9.05166 0.0174697
42.4682 10.9043 0.0140742
52.0305 32.89 2
40.5696 11.6114 2
43.8566 11.9168 2
50.9883 29.2587 2
50.5772 25.8231 2
49.8754 22.2995 2
45.792 15.4245 2
47.4883 19.329 2
49.5689 31.4857 3.98675
49.001 27.592 3.97481
49.2516 24.4994 3.97806
47.1506 22.0693 3.98337
38.3023 12.7418 3.97798
42.0997 14.3068 3.97883
44.7888 18.5165 3.97784
44.4398 37.4912 3.78147
45.9853 37.4901 2
47.9736 58.7279 0.0210345
48.5563 55.8978 0.0243794
49.7142 45.2092 0.0211598
49.4718 48.9911 0.0260082
49.0303 52.5612 0.022642
45.5314 39.8401 0.118982
45.9933 42.5757 0.0874126
46.1639 45.7398 0.0155781
43.3408 41.0926 0.226944
41.8135 41.9754 0.38731
46.816 57.3311 2
44.1286 39.4021 2
42.1611 40.8603 2
47.8012 47.2001 2
47.1052 54.2165 2
47.4551 50.7177 2
44.5768 47.3175 2
44.6693 41.934 2
44.6619 44.4923 2
42.2957 42.6207 2
40.7613 42.2979 2
45.3651 55.9188 3.98944
42.4895 39.2646 3.67718
40.6345 40.7404 3.7685
45.9041 48.8706 3.99006
45.4453 52.5004 3.98281
43.2681 48.3472 3.9982
43.2051 46.0099 3.91015
43.376 43.6908 3.85919
40.8965 43.7017 3.76874
39.2479 42.5928 3.66562
45.4595 58.7833 0.0174936
43.8645 57.7011 2
42.0917 56.3111 3.98341
35.4636 67.6537 0.0174223
37.6422 65.5029 0.0197088
39.8938 63.5427 0.0220417
41.753 62.482 0.0208438
42.4782 59.9673 0.0182312
35.5731 65.4265 2
40.6234 61.6375 2
37.8366 63.204 2
40.4409 58.1921 2
38.9192 56.4822 3.99044
38.2506 60.3183 3.97911
35.6068 63.196 3.97674
33.5756 65.3363 0.0201947
31.9593 63.2931 0.0193189
33.6284 63.3317 2
30.3785 62.8532 2
32.1241 61.9982 2
28.682 62.1979 3.98096
33.3458 61.507 3.98059
31.0688 61.2151 3.98084
27.5752 59.5873 3.98087
23.8009 59.0741 3.9787
25.0375 60.8664 3.97917
26.8712 61.4942 2
26.2297 63.4749 3.98064
28.0625 64.1448 2
27.4633 66.181 3.98392
29.8835 64.7162 0.0179132
29.4067 66.7573 2
28.907 68.9423 3.98686
31.3771 67.1926 0.0169615
31.0146 69.4169 2
30.6145 71.7777 3.99174
33.1571 69.7512 0.0128612
32.8918 72.1471 2
32.6054 74.6784 4
35.195 72.3723 0.00817465
35.0474 74.9197 2
37.5 75 0
33.7243 6.9818 3.98484
35.4356 4.68641 3.98942
35.6213 6.72544 2
37.5149 2.38715 3.99325
37.5236 4.61531 2
39.6242 4.71663 0.0105339
39.7892 2.47402 2
39.9526 0.0806499 4
42.0628 2.71811 0.00672159
42.3947 0.320817 2
44.8158 0.721173 0
44.1041 35.599 3.76931
42.1703 34.139 3.66074
47.0556 40.3631 0.0809961
50.0719 38.5225 0.0090843
53.5398 36.6314 0.0227065
47.7233 37.7552 2
50.8725 35.5755 2
45.5674 35.1236 2
43.3775 33.8637 2
41.8346 33.0025 2
47.8907 34.3044 3.96127
44.6445 33.0618 3.85475
42.2496 32.407 3.77878
40.7532 32.7011 3.64759
37.3108 10.6341 3.98105
37.4584 8.53484 2
37.5168 6.6753 0.0140588
39.2113 8.69473 0.0166464
38.9774 10.1281 2
34.7548 10.3845 3.98133
35.8993 9.77427 2
32.3786 9.37322 3.98056
34.1508 8.82369 2
35.9427 8.49503 0.016109
52.024 32.8906 0.019988
50.9708 29.2574 0.024777
50.5722 25.8204 0.0269755
49.8744 22.3022 0.016976
47.4871 19.3249 0.0226669
45.7935 15.4356 0.0185669
43.8576 11.9165 0.019837
40.5688 11.6113 0.0192094
49.5831 31.4817 2
38.3024 12.74 2
42.1003 14.3099 2
49.0078 27.5929 2
49.2555 24.4969 2
47.1469 22.0622 2
44.7888 18.5348 2
47.4068 29.5895 3.98345
46.94 25.246 3.97937
44.2641 21.4517 3.977
36.5831 12.9409 3.97611
38.6828 14.8217 3.97592
41.7455 17.8792 3.97869
42.6093 37.4845 3.69258
44.4723 37.4903 2
45.9184 37.4825 0.121049
46.8171 57.33 0.0185971
47.1069 54.2124 0.0290214
47.7968 47.1989 0.0208267
47.4527 50.714 0.0313018
44.0929 39.3806 0.228145
44.6444 41.9105 0.139152
44.6384 44.4727 0.0711417
44.5652 47.3389 0.0235633
42.2475 42.5897 0.214867
42.1669 40.8501 0.334124
40.7515 42.2998 0.349188
45.3639 55.9184 2
42.4814 39.2637 2
40.6297 40.726 2
45.9056 48.8782 2
45.4444 52.5066 2
43.2732 48.3658 2
43.2409 46.0394 2
43.4105 43.7182 2
40.9294 43.7456 2
39.2458 42.5918 2
43.696 54.4149 3.99663
40.7313 39.1409 3.78717
39.1142 40.8077 3.7685
43.5683 50.4098 4.00452
41.8656 47.5533 3.94686
41.7739 45.1042 3.87405
39.3357 44.3808 3.77155
37.5051 42.6879 3.68931
43.8642 57.7 0.0178477
42.0919 56.3119 2
40.4035 54.8985 3.98222
35.573 65.425 0.0201365
37.8369 63.2034 0.0215669
40.6231 61.6366 0.0195473
40.4405 58.1905 0.0207218
35.6066 63.1972 2
38.251 60.319 2
38.9194 56.4829 2
37.9952 55.2205 3.99083
36.9337 57.615 3.98351
35.3635 60.9016 3.9767
33.6286 63.3309 0.0210187
30.3786 62.8528 0.0185217
32.1238 61.9975 0.0163694
33.3463 61.5078 2
28.6822 62.1981 2
31.0693 61.2156 2
29.4071 60.2839 3.97917
32.3609 59.7381 3.98835
28.0363 58.3685 3.99003
27.5759 59.5881 2
25.3897 58.5881 3.97738
22.7702 58.2282 3.96972
23.4052 60.3434 3.9791
23.8015 59.0751 2
25.0379 60.8672 2
24.4331 62.7664 3.98076
26.871 61.4934 0.0210621
26.2298 63.4757 2
25.5476 65.4902 3.98287
28.0625 64.1444 0.0183874
27.4633 66.1815 2
26.8365 68.3306 3.98687
29.4066 66.7569 0.0162788
28.9069 68.9425 2
28.3695 71.263 3.99174
31.0147 69.4162 0.0129524
30.6141 71.778 2
30.1842 74.2788 4
32.8921 72.1467 0.00807625
32.6053 74.6792 2
35.0474 74.9194 0
31.7888 7.42191 3.98362
33.348 4.92596 3.98885
33.724 6.98032 2
35.2451 2.4632 3.99316
35.4354 4.68578 2
35.6215 6.72646 0.0144935
37.5 0 4
37.5146 2.38671 2
37.5237 4.61613 0.0104333
39.7893 2.47464 0.00674369
39.9526 0.0802889 2
42.3946 0.32156 0
42.4804 35.7102 3.67635
44.1391 35.5776 2
40.6394 34.2563 3.76698
42.1609 34.1299 2
47.723 37.7528 0.0660205
50.8597 35.5792 0.0237973
45.5319 35.147 0.121836
43.3472 33.8935 0.233097
41.8141 33.0215 0.391367
47.9078 34.2998 2
44.672 33.0436 2
42.3018 32.3719 2
40.7649 32.7023 2
45.9197 31.6364 3.93322
43.3686 31.3078 3.86063
40.8954 31.2983 3.77063
39.2479 32.4184 3.66447
35.6934 11.7819 3.97942
37.3122 10.6316 2
37.4584 8.53655 0.015834
38.9763 10.1295 0.0163343
33.0995 11.2235 3.9772
34.7543 10.3813 2
35.899 9.77681 0.0184893
30.4837 10.0232 3.98017
32.3778 9.37253 2
34.1517 8.82565 0.0172337
49.5689 31.4857 0.0132455
49.001 27.592 0.0251869
49.2516 24.4994 0.0219428
47.1506 22.0693 0.0166344
44.7888 18.5165 0.0221607
42.0997 14.3068 0.0211715
38.3023 12.7418 0.0220212
36.5824 12.9354 2
47.4194 29.5652 2
38.6818 14.8145 2
41.7433 17.8792 2
46.9475 25.2458 2
44.2596 21.4356 2
45.2838 27.7166 4.00225
43.7037 24.1674 4.00918
41.3241 20.8382 3.98016
35.7737 14.7746 3.97723
38.682 17.6239 3.97844
40.7826 37.4781 3.79717
42.6067 37.4865 2
44.4398 37.4912 0.21853
45.3651 55.9188 0.0105604
45.4453 52.5004 0.0171885
45.9041 48.8706 0.00994059
42.4895 39.2646 0.322819
43.376 43.6908 0.14081
43.2051 46.0099 0.0898468
43.2681 48.3472 0.00180277
40.8965 43.7017 0.231263
40.6345 40.7404 0.231497
39.2479 42.5928 0.334382
43.6937 54.4144 2
40.7145 39.1347 2
39.1159 40.7901 2
43.5674 50.4268 2
41.8576 47.5745 2
41.7959 45.1358 2
37.5031 42.6899 2
39.3523 44.4185 2
41.8463 52.9544 3.99512
39.1333 39.1535 3.78947
37.505 40.8569 3.78272
35.7646 42.6006 3.66716
40.8582 49.6067 3.9972
39.7982 45.9422 3.85076
37.5039 44.6114 3.76799
42.0917 56.3111 0.0165851
40.4007 54.908 2
38.7219 53.7797 3.99677
35.6068 63.196 0.0232631
38.2506 60.3183 0.0208857
38.9192 56.4822 0.00956417
35.3638 60.9021 2
36.9346 57.6159 2
37.9945 55.2121 2
36.3247 55.2977 3.9985
34.489 58.5069 3.98511
33.3458 61.507 0.0194112
28.682 62.1979 0.0190363
31.0688 61.2151 0.0191631
32.3616 59.739 2
29.4079 60.284 2
30.3137 57.8129 3.98451
28.0369 58.3692 2
26.9709 56.8213 3.9754
27.5752 59.5873 0.019134
25.3904 58.5891 2
23.8648 56.7881 3.96242
21.3526 57.3806 3.96837
22.0011 59.6126 3.97709
22.7706 58.2299 2
22.7381 62.0163 3.97832
23.4056 60.3442 2
23.8009 59.0741 0.0212997
25.0375 60.8664 0.0208283
24.4333 62.7673 2
23.6819 64.7075 3.98233
26.2297 63.4749 0.0193634
25.5476 65.4912 2
24.8087 67.5918 3.9865
27.4633 66.181 0.0160846
26.8365 68.3314 2
26.1646 70.6037 3.99178
28.907 68.9423 0.0131373
28.3691 71.2631 2
27.7943 73.7221 4
30.6145 71.7777 0.00825966
30.1841 74.2794 2
32.6054 74.6784 0
29.8116 7.99663 3.98258
31.2534 5.33297 3.98793
31.7884 7.42094 2
32.9809 2.70149 3.99285
33.3476 4.92492 2
33.7243 6.9818 0.01516
35.0474 0.080333 4
35.2448 2.4629 2
35.4356 4.68641 0.0105841
37.5 0 2
37.5149 2.38715 0.00674639
39.9526 0.0806499 0
40.736 35.8301 3.78488
42.4723 35.7132 2
44.1041 35.599 0.23069
28.5444 10.6986 3.979
39.1105 34.202 3.76789
40.63 34.2706 2
42.1703 34.139 0.339263
47.8907 34.3044 0.0387255
44.6445 33.0618 0.145252
42.2496 32.407 0.221217
40.7532 32.7011 0.352414
45.9484 31.6197 2
43.402 31.276 2
40.9315 31.2546 2
39.2511 32.4204 2
44.1863 29.8318 3.92692
41.7681 29.8949 3.87242
39.3396 30.6247 3.77033
37.5082 32.3318 3.68888
34.0944 12.9447 3.97572
35.6931 11.7762 2
37.3108 10.6341 0.0189451
31.188 11.9938 3.97804
33.0996 11.2225 2
34.7548 10.3845 0.0186672
30.4824 10.0205 2
32.3786 9.37322 0.0194439
47.4068 29.5895 0.0165469
46.94 25.246 0.0206261
36.5831 12.9409 0.0238911
44.2641 21.4517 0.023001
41.7455 17.8792 0.0213087
38.6828 14.8217 0.0240826
35.7743 14.7802 2
45.2884 27.7162 2
38.6796 17.6259 2
41.3189 20.8291 2
43.7072 24.1585 2
33.6109 15.8934 3.97716
42.8923 26.5678 3.99461
40.8604 23.4053 4.00995
38.4125 20.4022 3.98455
35.8523 17.5286 3.97956
39.138 37.4892 3.81325
40.768 37.4783 2
42.6093 37.4845 0.30742
43.696 54.4149 0.00337238
43.5683 50.4098 -0.00451753
40.7313 39.1409 0.212833
41.7739 45.1042 0.125952
41.8656 47.5533 0.0531436
39.3357 44.3808 0.228455
39.1142 40.8077 0.231504
37.5051 42.6879 0.31069
41.8433 52.9518 2
39.123 39.1415 2
37.5046 40.8347 2
40.8623 49.6221 2
35.7612 42.599 2
39.8169 45.9815 2
37.4971 44.6445 2
39.7868 51.8198 4.00112
37.5018 39.1637 3.81697
35.8975 40.8212 3.76886
34.2591 42.3103 3.64779
35.671 44.3937 3.76764
38.6693 48.5884 3.96132
37.5178 46.2372 3.86776
40.4035 54.8985 0.0177761
38.7219 53.7729 2
36.7443 53.1162 3.99873
35.3635 60.9016 0.0232957
36.9337 57.615 0.0164917
37.9952 55.2205 0.0091662
34.4899 58.5074 2
36.3252 55.2999 2
33.2476 55.4814 3.99375
32.3609 59.7381 0.0116454
29.4071 60.2839 0.0208286
30.3145 57.8131 2
28.732 55.309 3.97922
28.0363 58.3685 0.00996692
26.9712 56.822 2
25.3561 55.1269 3.96907
21.8439 55.3283 3.96451
25.3897 58.5881 0.0226154
23.8648 56.7906 2
20.2388 57.0093 3.97078
20.6554 58.7641 3.97218
21.3525 57.3821 2
21.1703 61.1634 3.97681
22.0015 59.6136 2
22.7702 58.2282 0.0302823
21.8959 63.8345 3.98092
22.7383 62.0171 2
23.4052 60.3434 0.020903
24.4331 62.7664 0.0192363
23.682 64.7083 2
22.8371 66.7348 3.98557
25.5476 65.4902 0.0171271
24.8088 67.5927 2
24.0088 69.8049 3.99184
26.8365 68.3306 0.0131326
26.1641 70.604 2
25.446 73.0099 4
28.3695 71.263 0.00825711
27.7943 73.7222 2
30.1842 74.2788 0
27.8214 8.65625 3.9822
29.1556 5.87931 3.98679
29.8107 7.99453 2
30.7262 3.09853 3.99257
31.253 5.3321 2
31.7888 7.42191 0.0163813
32.6053 0.320823 4
32.9804 2.70099 2
33.348 4.92596 0.0111518
35.0474 0.0802903 2
35.2451 2.4632 0.00683664
37.5 0 0
39.1322 35.8367 3.7903
40.7178 35.8354 2
42.4804 35.7102 0.323652
28.5432 10.6976 2
26.6228 11.3947 3.97887
29.227 12.6499 3.97883
37.5013 34.165 3.78157
39.1126 34.2209 2
40.6394 34.2563 0.233022
45.9197 31.6364 0.0667843
43.3686 31.3078 0.139372
40.8954 31.2983 0.229373
39.2479 32.4184 0.335527
44.1886 29.8211 2
41.7857 29.867 2
39.3504 30.5865 2
37.51 32.329 2
42.2216 28.4959 3.89869
39.8009 29.0535 3.87173
37.5105 30.4044 3.76766
35.7702 32.4189 3.66541
31.9175 14.4941 3.97736
34.0951 12.945 2
35.6934 11.7819 0.0205763
31.187 11.9898 2
33.0995 11.2235 0.0228022
30.4837 10.0232 0.0198334
45.2838 27.7166 -0.00224796
43.7037 24.1674 -0.00917743
35.7737 14.7746 0.0227678
41.3241 20.8382 0.0198391
38.682 17.6239 0.0215596
33.6093 15.8889 2
35.8489 17.5313 2
42.9013 26.5693 2
38.41 20.4022 2
40.8554 23.3897 2
33.5556 17.4032 3.9783
40.3204 25.7695 3.98429
38.0663 23.0616 3.99822
35.5837 20.1153 3.98242
37.5002 37.4999 3.83558
39.1287 37.4882 2
40.7826 37.4781 0.202827
41.8463 52.9544 0.00488322
40.8582 49.6067 0.00280365
39.1333 39.1535 0.210526
39.7982 45.9422 0.14924
37.5039 44.6114 0.232009
37.505 40.8569 0.217276
35.7646 42.6006 0.332844
39.7871 51.8226 2
37.5021 39.1502 2
35.8958 40.8041 2
38.683 48.6303 2
34.2485 42.3094 2
35.6536 44.4333 2
37.5211 46.2779 2
37.6588 50.8818 4.00119
35.8752 39.1713 3.79039
34.3774 40.7614 3.76761
33.1921 41.9877 3.61205
34.1014 43.7038 3.7698
35.1902 45.9399 3.86399
36.9135 48.2117 3.93007
38.7219 53.7797 0.00322634
36.7396 53.119 2
34.3995 52.4232 3.99665
34.489 58.5069 0.0148853
36.3247 55.2977 0.00149857
33.248 55.484 2
30.565 53.3378 3.98268
30.3137 57.8129 0.0154909
28.7324 55.3107 2
26.9514 53.4227 3.97236
26.9709 56.8213 0.0245989
25.3561 55.1308 2
23.65 53.4579 3.95872
20.5574 53.1926 3.96185
19.9615 55.8104 3.96585
21.8425 55.3299 2
23.8648 56.7881 0.0375775
19.4519 57.8708 3.97128
20.2383 57.0107 2
19.7119 60.1899 3.97568
20.6555 58.7648 2
21.3526 57.3806 0.0316282
20.209 62.8543 3.97811
21.1708 61.1652 2
22.0011 59.6126 0.0229144
20.9385 65.7633 3.98455
21.896 63.8355 2
22.7381 62.0163 0.0216807
23.6819 64.7075 0.0176741
22.8371 66.7354 2
21.9114 68.8718 3.99147
24.8087 67.5918 0.0134992
24.0082 69.805 2
23.1494 72.1454 4
26.1646 70.6037 0.00822227
25.446 73.0099 2
27.7943 73.7221 0
25.8606 9.38513 3.98121
27.0703 6.54335 3.98573
27.8205 8.65534 2
28.4884 3.64459 3.99202
29.155 5.87795 2
29.8116 7.99663 0.0174186
30.1841 0.720592 4
30.7255 3.09816 2
31.2534 5.33297 0.0120659
32.6053 0.320817 2
32.9809 2.70149 0.00715259
35.0474 0.080333 0
37.5011 35.8424 3.81588
39.1199 35.8467 2
40.736 35.8301 0.21512
24.7778 12.0803 3.97869
23.7537 14.3701 3.97704
28.5444 10.6986 0.0210041
26.622 11.3946 2
29.2261 12.6489 2
27.2933 13.3833 3.97819
29.7838 14.2122 3.97844
35.8939 34.2011 3.76745
37.5031 34.1867 2
39.1105 34.202 0.232107
37.5082 32.3318 0.311122
44.1863 29.8318 0.0730809
41.7681 29.8949 0.127581
39.3396 30.6247 0.229672
42.2418 28.4655 2
39.8132 29.0177 2
37.5142 30.3685 2
35.7688 32.4202 2
39.9833 27.692 3.90318
37.5019 28.7713 3.86791
35.6782 30.6362 3.77338
34.2687 32.7077 3.64799
30.931 16.8559 3.978
31.9166 14.4873 2
34.0944 12.9447 0.0242826
31.188 11.9938 0.0219604
42.8923 26.5678 0.00538591
40.8604 23.4053 -0.00994808
33.6109 15.8934 0.0228373
35.8523 17.5286 0.0204421
38.4125 20.4022 0.0154495
33.5509 17.4158 2
35.5843 20.1188 2
40.3254 25.753 2
38.056 23.0509 2
32.87 19.8085 3.98824
37.7767 25.3678 3.99662
35.1941 22.7796 3.99409
35.8629 37.5039 3.81412
37.5 37.4999 2
39.138 37.4892 0.186747
39.7868 51.8198 -0.00111533
38.6693 48.5884 0.0386835
37.5018 39.1637 0.183027
37.5178 46.2372 0.132237
35.671 44.3937 0.23236
35.8975 40.8212 0.231135
34.2591 42.3103 0.352209
37.6481 50.9036 2
35.8874 39.1596 2
34.3813 40.748 2
36.8914 48.2548 2
33.1719 42.0047 2
34.0738 43.7444 2
35.1756 45.9714 2
35.5148 50.0489 3.99172
34.2808 39.1697 3.78691
32.8339 40.868 3.663
32.7556 42.6032 3.78101
33.2381 45.1072 3.86987
34.3502 47.3126 3.90474
36.7443 53.1162 0.00127065
34.3938 52.4295 2
32.0849 51.1526 4.01138
33.2476 55.4814 0.00624902
30.5649 53.342 2
28.5134 51.5585 3.98467
28.732 55.309 0.0207825
26.9509 53.4263 2
25.185 51.7098 3.95627
25.3561 55.1269 0.030933
23.6491 53.4604 2
22.0896 51.7663 3.95444
19.3386 51.5983 3.96247
18.9739 54.2831 3.96303
20.5568 53.1919 2
18.4677 56.7035 3.96766
19.9603 55.8118 2
21.8439 55.3283 0.0354906
18.3771 59.0933 3.9697
19.4515 57.8718 2
20.2388 57.0093 0.0292219
18.6218 61.7564 3.9745
19.7125 60.1913 2
20.6554 58.7641 0.0278193
19.1276 64.6728 3.98325
20.209 62.8556 2
21.1703 61.1634 0.0231935
19.8856 67.8085 3.99137
20.9384 65.7642 2
21.8959 63.8345 0.0190761
22.8371 66.7348 0.0144329
21.9107 68.8717 2
20.9142 71.1327 4
24.0088 69.8049 0.00816201
23.1494 72.1455 2
25.446 73.0099 0
23.0973 12.7961 3.97818
23.9731 10.1736 3.98026
25.0239 7.31404 3.9847
25.8598 9.38467 2
26.2802 4.32869 3.99151
27.0696 6.54266 2
27.8214 8.65625 0.0178006
27.7943 1.27781 4
28.4876 3.64417 2
29.1556 5.87931 0.0132115
30.1841 0.720551 2
30.7262 3.09853 0.00743379
32.6053 0.320823 0
35.8669 35.8406 3.78803
37.502 35.8562 2
39.1322 35.8367 0.209704
24.7771 12.0792 2
23.7542 14.3705 2
22.4832 15.0477 3.9786
25.3596 13.9186 3.97679
24.0308 15.6339 3.97934
26.6228 11.3947 0.0211339
29.227 12.6499 0.0211731
27.2933 13.3836 2
29.7818 14.2105 2
28.3622 15.9879 3.97781
34.3784 34.2644 3.76623
35.8922 34.2193 2
37.5013 34.165 0.218432
35.7702 32.4189 0.334587
37.5105 30.4044 0.232335
42.2216 28.4959 0.101313
39.8009 29.0535 0.128275
40.0023 27.6625 2
37.5023 28.7336 2
35.662 30.5926 2
34.2548 32.7106 2
37.5766 27.4061 3.91514
35.1993 29.0694 3.87034
34.1118 31.3127 3.76966
33.2076 33.0322 3.61083
30.2171 19.3725 3.98091
30.9289 16.8487 2
31.9175 14.4941 0.0226352
40.3204 25.7695 0.0157052
38.0663 23.0616 0.00177843
33.5556 17.4032 0.0216992
35.5837 20.1153 0.0175773
32.8681 19.8221 2
35.1893 22.768 2
37.7756 25.3553 2
32.3203 22.5034 3.99644
35.0231 25.3295 4.00036
34.2225 37.512 3.79836
35.8726 37.5048 2
37.5002 37.4999 0.164418
37.6588 50.8818 -0.00119188
36.9135 48.2117 0.0699288
35.8752 39.1713 0.209614
35.1902 45.9399 0.136014
34.1014 43.7038 0.230196
34.3774 40.7614 0.232389
33.1921 41.9877 0.387948
35.5036 50.0534 2
34.2991 39.1641 2
32.839 40.8753 2
34.3407 47.3532 2
32.7174 42.634 2
33.2209 45.1362 2
33.3366 49.0536 3.98304
32.5161 39.291 3.67879
31.6527 41.1091 3.77069
31.6284 43.7 3.86131
32.4112 46.2559 3.90307
34.3995 52.4232 0.00334902
32.0861 51.163 2
29.9922 49.6793 3.98836
30.565 53.3378 0.0173151
28.512 51.5566 2
26.649 49.937 3.96913
26.9514 53.4227 0.0276385
25.1836 51.7078 2
23.4982 50.1387 3.96405
23.65 53.4579 0.041285
22.0888 51.7645 2
20.6301 50.2688 3.96504
18.1451 50.2925 3.96793
17.9396 52.761 3.96428
19.3371 51.5976 2
17.4705 55.3201 3.96293
18.9704 54.2833 2
20.5574 53.1926 0.0381549
17.1475 57.8552 3.96631
18.4668 56.7037 2
19.9615 55.8104 0.0341452
17.1403 60.5335 3.9728
18.3771 59.0943 2
19.4519 57.8708 0.0287154
17.409 63.4635 3.97879
18.622 61.7574 2
19.7119 60.1899 0.024325
17.9422 66.617 3.99055
19.1275 64.674 2
20.209 62.8543 0.0218896
18.75 69.9759 4
19.8848 67.8083 2
20.9385 65.7633 0.0154537
21.9114 68.8718 0.00853212
20.9142 71.1327 2
23.1494 72.1454 0
21.5888 13.6178 3.9779
22.1912 11.0339 3.97928
23.0974 12.7966 2
23.0418 8.18053 3.98375
23.9724 10.1725 2
24.1178 5.14348 3.99098
25.0232 7.31341 2
25.8606 9.38513 0.0187908
25.446 1.99014 4
26.2791 4.32869 2
27.0703 6.54335 0.01427
27.7943 1.27778 2
28.4884 3.64459 0.00797822
30.1841 0.720592 0
34.2754 35.851 3.78654
35.8778 35.8522 2
37.5011 35.8424 0.18412
21.3108 15.8448 3.98078
24.7778 12.0803 0.021307
23.7537 14.3701 0.0229633
25.3597 13.9171 2
22.4839 15.0479 2
24.0313 15.6353 2
23.2722 16.2646 3.97555
25.3869 16.1041 3.979
27.2933 13.3833 0.0218124
29.7838 14.2122 0.0215638
28.3597 15.9915 2
27.4482 18.8247 3.97899
32.8422 34.1538 3.66358
34.3871 34.279 2
35.8939 34.2011 0.232546
34.2687 32.7077 0.352006
35.6782 30.6362 0.226622
37.5019 28.7713 0.132091
39.9833 27.692 0.09682
37.5796 27.3696 2
33.1866 33.0152 2
35.1925 29.0258 2
34.075 31.2655 2
35.0952 27.5237 3.9139
33.2359 29.909 3.86735
32.7705 32.4099 3.76805
29.6097 21.9705 3.99568
30.2161 19.3849 2
30.931 16.8559 0.0219952
37.7767 25.3678 0.00338465
35.1941 22.7796 0.00590746
32.87 19.8085 0.0117623
32.3199 22.4939 2
35.0409 25.3169 2
31.8048 25.7291 4.00799
32.3821 37.5132 3.69511
34.2419 37.512 2
35.8629 37.5039 0.185878
35.5148 50.0489 0.0082781
34.3502 47.3126 0.0952575
34.2808 39.1697 0.213088
33.2381 45.1072 0.130128
32.7556 42.6032 0.218993
32.8339 40.868 0.337003
33.3299 49.054 2
32.5307 39.29 2
31.6214 41.1354 2
32.3784 46.2884 2
31.5964 43.7278 2
31.3153 47.8927 3.98418
30.9018 39.4033 3.77104
30.3542 41.9407 3.85616
30.6581 44.8586 3.92485
32.0849 51.1526 -0.0113804
29.991 49.6872 2
28.074 48.1215 3.96146
28.5134 51.5585 0.0153275
26.6478 49.935 2
24.8529 48.4065 3.97206
25.185 51.7098 0.0437296
23.4977 50.1365 2
21.8751 48.7303 3.96974
22.0896 51.7663 0.0455551
20.6282 50.2677 2
19.2202 49.0479 3.97209
17.0409 49.2977 3.97309
16.8889 51.3769 3.96696
18.1469 50.2913 2
16.4462 53.8483 3.96451
17.9375 52.7607 2
19.3386 51.5983 0.0375347
15.9929 56.4596 3.96568
17.4678 55.3206 2
18.9739 54.2831 0.0369706
15.7568 59.1962 3.96914
17.1475 57.8559 2
18.4677 56.7035 0.0323426
15.7907 62.1303 3.97365
17.1407 60.5352 2
18.3771 59.0933 0.030302
16.0894 65.2994 3.98923
17.4087 63.4652 2
18.6218 61.7564 0.0254962
16.6661 68.6801 4
17.9411 66.6165 2
19.1276 64.6728 0.0167547
18.75 69.9759 2
19.8856 67.8085 0.00862894
20.9142 71.1327 0
20.2223 14.6087 3.97637
21.5891 13.6179 2
20.5307 12.0051 3.97857
21.1445 9.15093 3.98298
22.1908 11.0339 2
23.0973 12.7961 0.0218218
22.0169 6.08271 3.99036
23.0409 8.17959 2
23.9731 10.1736 0.019737
23.1494 2.85457 4
24.1165 5.14362 2
25.0239 7.31404 0.0153009
25.446 1.99012 2
26.2802 4.32869 0.00848917
27.7943 1.27781 0
32.5089 35.7323 3.67426
34.2943 35.8592 2
35.8669 35.8406 0.211971
21.3116 15.8443 2
20.3118 16.977 3.98024
22.1045 16.6509 3.9727
25.3596 13.9186 0.0232054
22.4832 15.0477 0.0213951
24.0308 15.6339 0.0206551
25.3866 16.1039 2
23.2728 16.2652 2
24.2139 18.4809 3.97351
27.0499 21.4931 3.99176
28.3622 15.9879 0.0221909
27.4492 18.8227 2
31.6689 33.9199 3.76752
32.8489 34.1433 2
34.3784 34.2644 0.233774
33.2076 33.0322 0.38917
34.1118 31.3127 0.230338
35.1993 29.0694 0.12966
37.5766 27.4061 0.0848608
35.0918 27.4822 2
32.7024 32.3784 2
33.2221 29.8895 2
32.6732 28.2305 3.92481
31.6289 31.3275 3.8617
28.9143 24.4531 3.98224
29.6042 21.9818 2
30.2171 19.3725 0.019085
35.0231 25.3295 -0.000358042
32.3203 22.5034 0.00356215
31.8066 25.7067 2
29.8152 27.3846 3.97425
30.5473 37.5086 3.7799
32.3942 37.512 2
34.2225 37.512 0.201645
33.3366 49.0536 0.0169629
32.4112 46.2559 0.0969325
32.5161 39.291 0.32121
31.6284 43.7 0.138686
31.6527 41.1091 0.229311
31.3122 47.8959 2
30.859 39.4248 2
30.328 41.9572 2
30.6349 44.8815 2
29.4407 46.4968 4.00138
29.459 39.8535 3.87989
29.0592 43.0904 3.92474
29.9922 49.6793 0.0116358
28.0713 48.1177 2
26.2087 46.5851 3.97638
26.649 49.937 0.0308737
24.8523 48.4038 2
23.0773 47.0071 3.97489
23.4982 50.1387 0.0359536
21.8738 48.7291 2
20.1972 47.5666 3.9772
20.6301 50.2688 0.034964
19.222 49.0464 2
17.8429 48.1402 3.97633
16.2792 48.6529 3.97612
17.0422 49.2968 2
15.969 50.1415 3.97059
15.4533 52.3928 3.96644
16.8896 51.3762 2
18.1451 50.2925 0.0320704
14.8948 54.9623 3.96471
16.4464 53.848 2
17.9396 52.761 0.0357178
14.4693 57.7265 3.96634
15.9934 56.4596 2
17.4705 55.3201 0.0370726
14.2698 60.684 3.97277
15.7572 59.1973 2
17.1475 57.8552 0.0336887
14.3346 63.858 3.98583
15.7905 62.1313 2
17.1403 60.5335 0.0271955
14.6715 67.2507 4
16.0878 65.2985 2
17.409 63.4635 0.0212122
16.6661 68.6801 2
17.9422 66.617 0.00945308
18.75 69.9759 0
18.9377 15.7954 3.97775
20.2227 14.6086 2
18.9811 13.1173 3.97713
21.5888 13.6178 0.0220961
20.5307 12.0051 2
19.3437 10.2397 3.98214
19.9914 7.1474 3.98984
21.1439 9.15076 2
22.1912 11.0339 0.0207247
20.9142 3.86727 4
22.0153 6.083 2
23.0418 8.18053 0.0162497
23.1494 2.85451 2
24.1178 5.14348 0.00901632
25.446 1.99014 0
30.92 35.6285 3.77241
32.5199 35.7346 2
34.2754 35.851 0.213465
21.3108 15.8448 0.0192206
22.1054 16.651 2
20.3124 16.9758 2
19.2624 18.4266 3.9729
21.7918 17.8711 3.98
25.3869 16.1041 0.0209995
23.2722 16.2646 0.0244491
24.2139 18.4824 2
22.3096 19.9228 3.96799
24.6317 21.3681 3.98839
26.5231 23.7603 3.97196
27.049 21.4888 2
27.4482 18.8247 0.0210134
30.386 33.0928 3.86973
31.6439 33.8827 2
32.8422 34.1538 0.336423
32.7705 32.4099 0.231949
33.2359 29.909 0.132655
35.0952 27.5237 0.0860971
32.6321 28.2023 2
31.5916 31.2914 2
30.3443 29.6449 3.94484
28.0638 26.5956 3.98867
28.9087 24.4692 2
29.6097 21.9705 0.00431995
31.8048 25.7291 -0.0079867
29.8103 27.3545 2
29.0669 37.5193 3.87963
30.5218 37.5093 2
32.3821 37.5132 0.304893
31.3153 47.8927 0.015821
30.6581 44.8586 0.0751461
30.9018 39.4033 0.22896
30.3542 41.9407 0.143836
29.4392 46.5088 2
29.4244 39.8734 2
29.0303 43.1188 2
27.6315 44.8039 3.97314
27.2291 40.5946 3.95055
28.074 48.1215 0.0385394
26.2046 46.5867 2
24.3351 45.1282 3.97603
24.8529 48.4065 0.0279435
23.0761 47.0063 2
21.179 45.8336 3.9781
21.8751 48.7303 0.0302558
20.1962 47.5653 2
18.5284 46.6927 3.97808
19.2202 49.0479 0.0279126
17.8442 48.1391 2
16.4884 47.6816 3.9771
16.2804 48.6521 2
15.3142 48.9889 3.97392
17.0409 49.2977 0.0269054
15.9706 50.1407 2
14.5725 50.963 3.96865
13.8666 53.42 3.96566
15.4544 52.3923 2
16.8889 51.3769 0.0330376
13.2647 56.158 3.96647
14.8941 54.9624 2
16.4462 53.8483 0.0354908
12.8537 59.1178 3.97109
14.4699 57.7266 2
15.9929 56.4596 0.0343225
12.6804 62.3001 3.98282
14.2698 60.6843 2
15.7568 59.1962 0.0308589
12.7746 65.6939 4
14.3327 63.8562 2
15.7907 62.1303 0.0263503
14.6714 67.2507 2
16.0894 65.2994 0.0107681
16.6661 68.6801 0
17.6782 17.1727 3.97182
18.9382 15.7949 2
17.5136 14.3826 3.97619
20.2223 14.6087 0.0236323
18.9814 13.1172 2
17.6394 11.4594 3.98072
20.5307 12.0051 0.0214331
19.3434 10.2395 2
18.0515 8.34041 3.98945
18.75 5.0241 4
19.9898 7.1484 2
21.1445 9.15093 0.0170208
20.9142 3.86727 2
22.0169 6.08271 0.00963796
23.1494 2.85457 0
29.4758 35.1656 3.88228
30.8697 35.6035 2
32.5089 35.7323 0.325743
22.1045 16.6509 0.0272991
20.3118 16.977 0.0197614
21.7925 17.87 2
19.2628 18.4253 2
18.0197 19.9646 3.96045
20.9038 19.4017 3.9729
24.2139 18.4809 0.0264924
22.3093 19.9226 2
24.6311 21.3698 2
22.4157 21.7552 3.97771
24.7917 23.2027 3.97625
25.6523 25.992 3.97706
26.525 23.7576 2
27.0499 21.4931 0.00823621
28.7651 32.4172 3.92863
30.3519 33.0704 2
31.6689 33.9199 0.232479
31.6289 31.3275 0.138296
32.6732 28.2305 0.0751865
30.3375 29.6453 2
27.2967 29.1848 4.00652
28.0552 26.6081 2
28.9143 24.4531 0.0177554
29.8152 27.3846 0.0257467
27.3398 37.3685 3.93102
29.0099 37.5073 2
30.5473 37.5086 0.220103
29.4407 46.4968 -0.00137654
29.0592 43.0904 0.075259
29.459 39.8535 0.120109
27.6212 44.8296 2
27.2105 40.5979 2
25.6596 43.1108 3.98848
24.4856 39.4538 3.97571
26.2087 46.5851 0.0236245
24.3268 45.1291 2
22.2221 43.8839 3.97789
23.0773 47.0071 0.0251136
21.1764 45.8328 2
19.2349 44.925 3.97769
20.1972 47.5666 0.0227971
18.529 46.6915 2
16.8115 46.1785 3.97706
17.8429 48.1402 0.0236716
16.4898 47.6808 2
15.0626 47.6439 3.97536
16.2792 48.6529 0.0238788
15.3158 48.9882 2
13.8756 49.5255 3.97081
15.969 50.1415 0.0294131
14.5734 50.9624 2
12.9381 51.8607 3.96687
12.1519 54.5202 3.96655
13.8665 53.4199 2
15.4533 52.3928 0.0335606
11.5392 57.4522 3.97073
13.2652 56.158 2
14.8948 54.9623 0.0352932
11.1353 60.6256 3.98048
12.8542 59.1174 2
14.4693 57.7265 0.0336594
10.9835 64.0165 4
12.6786 62.2973 2
14.2698 60.684 0.027231
12.7745 65.694 2
14.3346 63.858 0.0141673
14.6715 67.2507 0
16.4211 18.6702 3.96455
17.6784 17.1719 2
16.1066 15.7931 3.97328
18.9377 15.7954 0.0222479
17.5139 14.3819 2
16.0214 12.814 3.97854
18.9811 13.1173 0.0228747
17.6392 11.4593 2
16.2026 9.66358 3.98895
19.3437 10.2397 0.0178621
18.0498 8.34178 2
16.6661 6.31991 4
18.75 5.02404 2
19.9914 7.1474 0.0101562
20.9142 3.86727 0
27.8722 34.8069 3.92185
29.4405 35.1502 2
30.92 35.6285 0.22759
16.7312 21.4001 3.96519
21.7918 17.8711 0.0199954
19.2624 18.4266 0.0270978
20.9039 19.4004 2
18.02 19.9637 2
19.7872 21.6038 3.96925
22.3096 19.9228 0.0320109
24.6317 21.3681 0.0116066
22.4155 21.7553 2
24.7919 23.2019 2
22.9952 24.6414 3.97281
24.8381 28.5752 3.97875
25.6493 25.9892 2
26.5231 23.7603 0.0280374
26.6136 31.7697 3.98204
28.737 32.3939 2
30.386 33.0928 0.130267
30.3443 29.6449 0.0551615
27.3179 29.1665 2
28.0638 26.5956 0.0113336
25.17 36.8599 3.98134
27.3268 37.3607 2
29.0669 37.5193 0.120368
27.6315 44.8039 0.0268641
27.2291 40.5946 0.0494464
25.6425 43.1234 2
24.4691 39.4544 2
23.3794 41.8146 3.98012
22.2028 38.5223 3.97777
24.3351 45.1282 0.0239702
22.2208 43.8842 2
20.0635 42.8592 3.97678
21.179 45.8336 0.0218978
19.2351 44.9251 2
17.1856 44.3452 3.97707
18.5284 46.6927 0.0219225
16.8132 46.1776 2
15.0052 46.0647 3.97588
16.4884 47.6816 0.022899
15.0639 47.6433 2
13.395 47.989 3.97252
15.3142 48.9889 0.026077
13.8768 49.525 2
12.1621 50.2404 3.96805
14.5725 50.963 0.0313507
12.9384 51.8604 2
11.1481 52.8316 3.96663
10.3299 55.707 3.97034
12.1525 54.52 2
13.8666 53.42 0.0343414
9.70192 58.848 3.97938
11.5395 57.4518 2
13.2647 56.158 0.0335279
9.30605 62.2254 4
11.1337 60.6224 2
12.8537 59.1178 0.0289066
10.9835 64.0165 2
12.6804 62.3001 0.017178
12.7746 65.6939 0
15.1684 20.2019 3.96471
16.4211 18.6699 2
14.7582 17.3201 3.96705
17.6782 17.1727 0.0281797
16.107 15.7922 2
14.4847 14.2975 3.97617
17.5136 14.3826 0.0238114
16.0212 12.8135 2
14.4454 11.115 3.98797
17.6394 11.4594 0.0192786
16.2009 9.66536 2
14.6715 7.74927 4
18.0515 8.34041 0.0105515
16.6661 6.31988 2
18.75 5.0241 0
25.8319 34.2973 3.98899
27.8494 34.8154 2
29.4758 35.1656 0.117717
17.9364 22.351 3.97051
15.5948 22.9421 3.9679
16.7317 21.4 2
20.9038 19.4017 0.0270963
18.0197 19.9646 0.0395522
19.7874 21.6033 2
19.8249 24.4225 3.97069
22.4157 21.7552 0.0222942
24.7917 23.2027 0.0237472
22.994 24.6412 2
22.2057 27.8763 3.97294
24.1706 31.2482 3.97665
24.8519 28.575 2
25.6523 25.992 0.0229386
26.5963 31.7387 2
28.7651 32.4172 0.07137
27.2967 29.1848 -0.00651545
22.9233 36.2889 3.98245
25.1548 36.8632 2
27.3398 37.3685 0.0689845
25.6596 43.1108 0.0115173
24.4856 39.4538 0.0242889
23.3688 41.8138 2
22.195 38.5209 2
21.1012 40.6367 3.97557
20.4922 37.8037 3.97696
22.2221 43.8839 0.0221134
20.0623 42.8604 2
17.6462 42.0694 3.97643
19.2349 44.925 0.0223062
17.1872 44.3453 2
15.039 44.1753 3.97626
16.8115 46.1785 0.0229425
15.0063 46.0642 2
13.0841 46.2773 3.97381
15.0626 47.6439 0.0246423
13.3961 47.9886 2
11.541 48.5382 3.96899
13.8756 49.5255 0.0291906
12.1628 50.2401 2
10.2754 51.0765 3.96669
12.9381 51.8607 0.033128
11.1487 52.8313 2
9.23858 53.8871 3.97019
8.38534 56.9813 3.97986
10.3303 55.7063 2
12.1519 54.5202 0.0334458
7.74927 60.3285 4
9.70068 58.8445 2
11.5392 57.4522 0.0292745
9.306 62.2255 2
11.1353 60.6256 0.0195217
10.9835 64.0165 0
13.9932 21.7677 3.96508
15.1689 20.2018 2
13.4614 18.915 3.96681
16.4211 18.6702 0.0354535
14.7586 17.3194 2
13.0325 15.8936 3.9723
16.1066 15.7931 0.026718
14.4846 14.2968 2
12.7831 12.6888 3.98605
16.0214 12.814 0.0214647
14.4437 11.1171 2
12.7746 9.30605 4
16.2026 9.66358 0.0110526
14.6715 7.74924 2
16.6661 6.31991 0
23.5094 33.8383 3.98391
25.8069 34.2893 2
27.8722 34.8069 0.0781495
17.762 24.0758 3.96977
17.9375 22.351 2
14.4237 24.4757 3.96962
15.5962 22.9422 2
16.7312 21.4001 0.0348093
19.2812 27.2499 3.9721
19.7872 21.6038 0.0307524
19.8223 24.4223 2
21.5404 30.7188 3.9754
22.9952 24.6414 0.0271884
22.2142 27.8777 2
24.1507 31.247 2
24.8381 28.5752 0.0212458
26.6136 31.7697 0.0179559
20.6135 35.9541 3.97689
22.9232 36.2875 2
25.17 36.8599 0.0186585
23.3794 41.8146 0.0198778
22.2028 38.5223 0.0222268
21.1071 40.6361 2
20.4929 37.8026 2
18.3907 39.0056 3.97725
20.0635 42.8592 0.023222
17.647 42.0696 2
15.022 41.896 3.97675
17.1856 44.3452 0.0229317
15.0405 44.1748 2
12.846 44.376 3.9745
15.0052 46.0647 0.0241213
13.0855 46.2769 2
11.0511 46.7229 3.96973
13.395 47.989 0.0274796
11.5416 48.5379 2
9.54056 49.2369 3.96668
12.1621 50.2404 0.0319492
10.2759 51.0761 2
8.27135 52.0011 3.9699
11.1481 52.8316 0.0333734
9.23906 53.8863 2
7.1943 55.0322 3.9807
6.31991 58.3339 4
8.38443 56.9778 2
10.3299 55.707 0.0296607
7.74924 60.3285 2
9.70192 58.848 0.0206243
9.30605 62.2254 0
13.3166 25.3827 3.97244
12.8798 23.2968 3.96699
13.9925 21.7675 2
12.2467 20.5597 3.96742
15.1684 20.2019 0.0352882
13.4626 18.9149 2
11.6639 17.5738 3.97072
14.7582 17.3201 0.032954
13.0329 15.8925 2
11.2212 14.3748 3.98197
14.4847 14.2975 0.0238277
12.7811 12.6913 2
10.9835 10.9835 4
14.4454 11.115 0.0120254
12.7745 9.306 2
14.6715 7.74927 0
20.9748 33.4453 3.97599
23.5095 33.8407 2
25.8319 34.2973 0.0110087
16.0843 26.4351 3.972
17.7625 24.0759 2
17.9364 22.351 0.0294922
14.4239 24.476 2
15.5948 22.9421 0.0320955
18.6637 30.2188 3.97491
19.2794 27.2501 2
19.8249 24.4225 0.02931
21.5429 30.719 2
22.2057 27.8763 0.027057
24.1706 31.2482 0.0233492
18.0024 35.9855 3.97806
20.6143 35.9558 2
22.9233 36.2889 0.0175464
21.1012 40.6367 0.0244297
20.4922 37.8037 0.0230377
18.389 39.0053 2
14.5297 39.1703 3.97749
17.6462 42.0694 0.02357
15.0233 41.8956 2
12.5418 42.2658 3.97554
15.039 44.1753 0.0237398
12.8473 44.3756 2
10.6382 44.793 3.97038
13.0841 46.2773 0.0261854
11.0518 46.7226 2
8.925 47.3162 3.96667
11.541 48.5382 0.0310094
9.54071 49.2365 2
7.43822 50.0347 3.96948
10.2754 51.0765 0.0333107
8.2717 52.0003 2
6.13493 53.0074 3.98114
9.23858 53.8871 0.0298114
7.19375 55.0293 2
5.0241 56.25 4
6.31988 58.3339 2
8.38534 56.9813 0.0201381
7.74927 60.3285 0
13.5829 26.8368 3.97195
11.9891 24.8017 3.96885
13.3159 25.3828 2
11.1526 22.2415 3.96629
12.8802 23.297 2
13.9932 21.7677 0.0349182
12.2478 20.5597 2
10.3947 19.3258 3.97073
13.4614 18.915 0.0331913
11.665 17.574 2
9.76253 16.159 3.97943
13.0325 15.8936 0.0277005
11.2194 14.3783 2
9.30607 12.7746 4
12.7831 12.6888 0.0139549
10.9835 10.9835 2
12.7746 9.30605 0
18.1755 33.1523 3.97713
20.976 33.4465 2
23.5094 33.8383 0.0160889
15.7098 29.6697 3.97452
16.0836 26.4355 2
17.762 24.0758 0.0302309
14.4237 24.4757 0.0303845
18.6622 30.2191 2
19.2812 27.2499 0.0279035
21.5404 30.7188 0.0246031
15.1487 36.0352 3.97785
18.0036 35.9853 2
20.6135 35.9541 0.0231089
12.7684 37.8317 3.9775
18.3907 39.0056 0.0227473
14.5303 39.1701 2
12.045 40.1355 3.97631
15.022 41.896 0.0232466
12.5427 42.2655 2
10.2442 42.7705 3.9708
12.846 44.376 0.0254952
10.6388 44.7928 2
8.40403 45.3183 3.967
11.0511 46.7229 0.0302665
8.92477 47.3159 2
6.72939 48.0001 3.96914
9.54056 49.2369 0.0333238
7.43842 50.034 2
5.21174 50.9109 3.98084
8.27135 52.0011 0.0300975
6.13465 53.0055 2
3.86727 54.0858 4
7.1943 55.0322 0.0193027
5.02404 56.25 2
6.31991 58.3339 0
13.059 29.0543 3.97158
11.4333 26.5013 3.96917
13.5823 26.837 2
10.2128 23.9731 3.96678
11.9902 24.8019 2
13.3166 25.3827 0.0275554
9.24732 21.142 3.96997
11.1534 22.2416 2
12.8798 23.2968 0.0330101
12.2467 20.5597 0.0325803
10.3958 19.3261 2
8.41817 18.0299 3.97952
11.6639 17.5738 0.0292849
9.76116 16.1632 2
7.74928 14.6715 4
11.2212 14.3748 0.0180273
9.30602 12.7745 2
10.9835 10.9835 0
14.7046 32.8874 3.97674
18.1735 33.1524 2
20.9748 33.4453 0.0240085
15.7113 29.6703 2
16.0843 26.4351 0.0280045
18.6637 30.2188 0.0250859
13.0614 36.2178 3.9772
15.149 36.0352 2
18.0024 35.9855 0.0219378
12.7702 37.8315 2
11.3895 38.3096 3.97608
14.5297 39.1703 0.022514
12.0469 40.1353 2
9.82921 40.7498 3.97134
12.5418 42.2658 0.0244644
10.2454 42.7702 2
7.95391 43.2677 3.96737
10.6382 44.793 0.029618
8.40418 45.318 2
6.13541 45.9052 3.96901
8.925 47.3162 0.0333343
6.72956 47.9995 2
4.42324 48.7515 3.98022
7.43822 50.0347 0.0305237
5.21163 50.9098 2
2.85457 51.8506 4
6.13493 53.0074 0.0188583
3.86727 54.0858 2
5.0241 56.25 0
12.2035 31.274 3.97274
10.8555 28.4283 3.96944
13.0605 29.0547 2
9.43014 25.8027 3.96711
11.4338 26.5015 2
13.5829 26.8368 0.028054
8.23385 23.0253 3.96987
10.2134 23.9733 2
11.9891 24.8017 0.0311475
7.20028 19.9796 3.98004
9.24831 21.1426 2
11.1526 22.2415 0.0337087
10.3947 19.3258 0.0292738
8.41738 18.0339 2
6.31992 16.6661 4
9.76253 16.159 0.0205658
7.74926 14.6714 2
9.30607 12.7746 0
12.2294 34.3071 3.97698
14.7058 32.888 2
18.1755 33.1523 0.0228695
15.7098 29.6697 0.0254772
10.9446 36.6146 3.97536
13.0627 36.2179 2
15.1487 36.0352 0.0221547
12.7684 37.8317 0.022501
11.3914 38.3095 2
9.4177 38.8219 3.97182
12.045 40.1355 0.0236938
9.83027 40.7495 2
7.56527 41.2099 3.96775
10.2442 42.7705 0.0291993
7.95321 43.2675 2
5.64727 43.7682 3.96898
8.40403 45.3183 0.0329989
6.13554 45.9047 2
3.76878 46.5371 3.97982
6.72939 48.0001 0.0308643
4.42333 48.751 2
1.99014 49.554 4
5.21174 50.9109 0.0191559
2.85451 51.8506 2
3.86727 54.0858 0
11.0307 32.9309 3.97464
10.1727 30.3935 3.96997
12.2049 31.2744 2
8.74165 27.7362 3.96718
10.8563 28.4285 2
13.059 29.0543 0.0284222
7.35929 24.9837 3.96954
9.43031 25.8029 2
11.4333 26.5013 0.030827
6.11717 22.0026 3.98103
8.23449 23.0258 2
10.2128 23.9731 0.0332187
5.02411 18.75 4
7.19994 19.9828 2
9.24732 21.142 0.030031
8.41817 18.0299 0.0204756
6.3199 16.6661 2
7.74928 14.6715 0
10.5451 35.0064 3.97508
12.2315 34.3075 2
14.7046 32.8874 0.023263
9.08148 36.9861 3.97239
10.9461 36.6146 2
13.0614 36.2178 0.0228001
11.3895 38.3096 0.023924
9.4191 38.8217 2
7.24311 39.1818 3.96823
9.82921 40.7498 0.028662
7.56536 41.2097 2
5.26236 41.6139 3.9689
7.95391 43.2677 0.0326297
5.64734 43.7678 2
3.24649 44.2819 3.97981
6.13541 45.9052 0.0309881
3.76896 46.5368 2
1.27781 47.2057 4
4.42324 48.7515 0.0197844
1.99012 49.554 2
2.85457 51.8506 0
10.1809 33.8894 3.97541
9.45573 32.1629 3.97076
11.0323 32.9311 2
8.08961 29.6992 3.9675
10.1737 30.3938 2
12.2035 31.274 0.0272575
6.6028 27.0093 3.96936
8.74132 27.7364 2
10.8555 28.4283 0.0305562
5.17256 24.0951 3.98091
7.35962 24.9842 2
9.43014 25.8027 0.0328941
3.86728 20.9142 4
6.11705 22.0045 2
8.23385 23.0253 0.0301312
5.02406 18.75 2
7.20028 19.9796 0.0199649
6.31992 16.6661 0
8.90241 35.283 3.9724
10.5463 35.0065 2
12.2294 34.3071 0.0230183
7.02323 37.2064 3.96822
9.08241 36.986 2
10.9446 36.6146 0.0246392
9.4177 38.8219 0.0281797
7.24359 39.1816 2
4.98987 39.4674 3.96916
7.56527 41.2099 0.0322526
5.26278 41.6136 2
2.85691 42.0022 3.97982
5.64727 43.7682 0.0310167
3.24655 44.2816 2
0.720592 44.8159 4
3.76878 46.5371 0.0201791
1.27778 47.2057 2
1.99014 49.554 0
8.94269 33.7034 3.97196
10.1821 33.8896 2
7.52514 31.6119 3.96781
9.45692 32.1631 2
11.0307 32.9309 0.02536
5.94776 29.0702 3.96943
8.08905 29.6993 2
10.1727 30.3935 0.0300275
4.36022 26.2475 3.98044
6.60293 27.0097 2
8.74165 27.7362 0.0328174
2.85458 23.1494 4
5.17257 24.096 2
7.35929 24.9837 0.0304639
3.86728 20.9142 2
6.11717 22.0026 0.0189669
5.02411 18.75 0
6.97179 35.3073 3.96816
8.90327 35.283 2
10.5451 35.0064 0.0249166
4.83994 37.3398 3.96959
7.02365 37.2064 2
9.08148 36.9861 0.0276109
7.24311 39.1818 0.0317679
4.99028 39.4672 2
2.60492 39.7138 3.97985
5.26236 41.6139 0.031095
2.85725 42.0021 2
0.320823 42.3947 4
3.24649 44.2819 0.0201872
0.720551 44.8159 2
1.27781 47.2057 0
7.13493 33.4628 3.96801
8.94333 33.7035 2
10.1809 33.8894 0.024595
5.41839 31.1339 3.96968
7.52494 31.6121 2
9.45573 32.1629 0.0292411
3.68185 28.4434 3.98005
5.94788 29.0705 2
8.08961 29.6992 0.0325028
1.99015 25.446 4
4.36029 26.2478 2
6.6028 27.0093 0.0306362
2.85453 23.1494 2
5.17256 24.0951 0.0190863
3.86728 20.9142 0
4.85427 35.2517 3.96968
6.97179 35.3073 2
8.90241 35.283 0.0276046
2.49633 37.4284 3.98054
4.83997 37.3399 2
7.02323 37.2064 0.0317807
4.98987 39.4674 0.0308432
2.60534 39.7141 2
0.080333 39.9526 4
2.85691 42.0022 0.0201783
0.320817 42.3947 2
0.720592 44.8159 0
5.04771 33.1904 3.96969
7.13477 33.4629 2
8.94269 33.7034 0.0280383
3.14607 30.6661 3.98005
5.41851 31.1343 2
7.52514 31.6119 0.0321935
1.27793 27.7943 4
3.68204 28.4436 2
5.94776 29.0702 0.0305695
1.99013 25.446 2
4.36022 26.2475 0.0195572
2.85458 23.1494 0
2.54845 35.159 3.98034
4.85479 35.2519 2
6.97179 35.3073 0.0318353
0 37.5 4
2.49637 37.4288 2
4.83994 37.3398 0.0304085
2.60492 39.7138 0.0201505
0.0802903 39.9526 2
0.320823 42.3947 0
2.76608 32.9057 3.98045
5.04786 33.1908 2
7.13493 33.4628 0.0319878
0.721173 30.1842 4
3.14629 30.6665 2
5.41839 31.1339 0.0303198
1.27779 27.7943 2
3.68185 28.4434 0.0199463
1.99015 25.446 0
0.0806499 35.0474 4
2.54895 35.1594 2
4.85427 35.2517 0.030321
0 37.5 2
2.49633 37.4284 0.0194566
0.080333 39.9526 0
0.32156 32.6054 4
2.76618 32.9062 2
5.04771 33.1904 0.0303068
0.72056 30.1841 2
3.14607 30.6661 0.0199457
1.27793 27.7943 0
0.0802889 35.0474 2
2.54845 35.159 0.019661
0 37.5 0
0.320817 32.6053 2
2.76608 32.9057 0.0195496
0.721173 30.1842 0
0.0806499 35.0474 0
0.32156 32.6054 0
CELLS 1910 17190
8 18 6 25 56 2 0 5 16
8 57 23 6 18 17 4 0 2
8 78 36 9 29 31 11 1 7
8 31 11 1 7 79 37 10 30
8 110 57 18 50 48 17 2 14
8 50 18 56 111 14 2 16 49
8 116 62 22 55 52 20 3 15
8 56 25 67 118 16 5 24 53
8 119 63 23 57 54 21 4 17
8 55 22 63 119 15 3 21 54
8 58 26 68 121 18 6 25 56
8 122 65 26 58 57 23 6 18
8 73 31 7 27 142 79 30 71
8 143 78 29 72 73 31 7 27
8 83 147 76 34 32 74 28 8
8 84 148 78 36 33 75 29 9
8 76 34 8 28 148 84 33 75
8 37 79 150 86 10 30 77 35
8 151 87 36 78 80 38 11 31
8 80 38 11 31 152 88 37 79
8 175 100 42 94 96 44 12 40
8 44 96 176 101 12 40 95 43
8 101 176 98 46 43 95 41 13
8 46 98 178 103 13 41 97 45
8 178 103 45 97 147 83 32 74
8 189 116 55 109 106 52 15 47
8 111 56 118 191 49 16 53 107
8 192 119 57 110 108 54 17 48
8 109 55 119 192 47 15 54 108
8 194 122 58 112 110 57 18 50
8 112 58 121 195 50 18 56 111
8 115 61 19 51 197 124 59 113
8 115 61 125 198 51 19 60 114
8 198 125 62 116 114 60 20 52
8 200 127 64 120 116 62 22 55
8 118 67 132 202 53 24 66 117
8 121 68 133 203 56 25 67 118
8 120 64 128 204 55 22 63 119
8 204 128 65 122 119 63 23 57
8 206 134 68 121 123 69 26 58
8 123 69 26 58 207 131 65 122
8 226 147 74 138 140 76 28 70
8 229 148 75 139 143 78 29 72
8 140 76 28 70 229 148 75 139
8 142 79 30 71 231 150 77 141
8 144 80 31 73 232 152 79 142
8 233 151 78 143 144 80 31 73
8 150 86 35 77 235 154 81 145
8 235 154 81 145 146 82 39 91
8 146 82 39 91 236 155 90 165
8 238 157 83 147 149 85 34 76
8 239 158 84 148 151 87 36 78
8 149 85 34 76 239 158 84 148
8 152 88 37 79 241 160 86 150
8 242 161 87 151 153 89 38 80
8 153 89 38 80 243 162 88 152
8 171 98 41 92 265 178 97 169
8 265 178 97 169 226 147 74 138
8 172 96 40 93 266 176 95 170
8 266 176 95 170 171 98 41 92
8 269 175 94 173 172 96 40 93
8 271 180 99 174 175 100 42 94
8 197 124 59 113 271 180 99 174
8 272 181 100 175 177 102 44 96
8 273 182 101 176 179 104 46 98
8 177 102 44 96 273 182 101 176
8 179 104 46 98 275 184 103 178
8 275 184 103 178 238 157 83 147
8 188 115 51 105 283 197 113 186
8 188 115 198 284 105 51 114 187
8 284 198 116 189 187 114 52 106
8 286 200 120 193 189 116 55 109
8 191 118 202 288 107 53 117 190
8 195 121 203 289 111 56 118 191
8 193 120 204 290 109 55 119 192
8 290 204 122 194 192 119 57 110
8 196 123 58 112 292 207 122 194
8 293 206 121 195 196 123 58 112
8 199 126 61 115 297 211 124 197
8 298 212 127 200 198 125 62 116
8 199 126 212 298 115 61 125 198
8 205 129 64 120 300 214 127 200
8 301 217 130 201 202 132 66 117
8 209 136 168 264 301 217 130 201
8 302 219 132 202 203 133 67 118
8 303 220 133 203 206 134 68 121
8 205 129 215 304 120 64 128 204
8 304 215 131 207 204 128 65 122
8 306 221 134 206 208 135 69 123
8 208 135 69 123 307 218 131 207
8 210 137 167 263 309 223 136 209
8 328 238 147 226 230 149 76 140
8 228 146 91 166 329 236 165 260
8 231 150 77 141 330 235 145 227
8 330 235 145 227 228 146 91 166
8 332 239 148 229 233 151 78 143
8 230 149 76 140 332 239 148 229
8 232 152 79 142 334 241 150 231
8 234 153 80 144 335 243 152 232
8 336 242 151 233 234 153 80 144
8 236 155 90 165 338 245 164 259
8 241 160 86 150 339 246 154 235
8 339 246 154 235 237 156 82 146
8 237 156 82 146 340 247 155 236
8 342 249 157 238 240 159 85 149
8 343 250 158 239 242 161 87 151
8 240 159 85 149 343 250 158 239
8 243 162 88 152 345 252 160 241
8 244 163 253 346 153 89 161 242
8 244 163 89 153 347 254 162 243
8 311 224 261 371 210 137 167 263
8 263 167 262 372 209 136 168 264
8 267 179 98 171 375 275 178 265
8 375 275 178 265 328 238 147 226
8 376 273 176 266 267 179 98 171
8 268 177 96 172 376 273 176 266
8 379 272 175 269 268 177 96 172
8 380 271 174 270 269 175 94 173
8 283 197 113 186 380 271 174 270
8 381 277 180 271 272 181 100 175
8 297 211 124 197 381 277 180 271
8 382 278 181 272 274 183 102 177
8 274 183 102 177 383 279 182 273
8 383 279 182 273 276 185 104 179
8 385 281 184 275 342 249 157 238
8 276 185 104 179 385 281 184 275
8 285 199 115 188 393 297 197 283
8 394 298 200 286 284 198 116 189
8 285 199 298 394 188 115 198 284
8 291 205 120 193 396 300 200 286
8 397 301 201 287 288 202 117 190
8 295 209 264 374 397 301 201 287
8 398 302 202 288 289 203 118 191
8 399 303 203 289 293 206 121 195
8 291 205 304 400 193 120 204 290
8 400 304 207 292 290 204 122 194
8 294 208 123 196 402 307 207 292
8 403 306 206 293 294 208 123 196
8 296 210 263 373 405 309 209 295
8 408 312 213 299 297 211 126 199
8 299 213 313 409 199 126 212 298
8 409 313 214 300 298 212 127 200
8 305 216 129 205 411 315 214 300
8 412 318 217 301 302 219 132 202
8 309 223 136 209 412 318 217 301
8 413 320 219 302 303 220 133 203
8 306 221 321 414 206 134 220 303
8 307 218 131 207 415 316 215 304
8 305 216 316 415 205 129 215 304
8 417 322 221 306 308 222 135 208
8 308 222 135 208 418 319 218 307
8 310 225 137 210 420 325 223 309
8 423 326 224 311 310 225 137 210
8 329 236 165 260 441 338 259 368
8 442 342 238 328 333 240 149 230
8 331 237 146 228 443 340 236 329
8 334 241 150 231 444 339 235 330
8 444 339 235 330 331 237 146 228
8 446 343 239 332 336 242 151 233
8 333 240 149 230 446 343 239 332
8 335 243 152 232 448 345 241 334
8 337 244 153 234 449 347 243 335
8 337 244 346 450 234 153 242 336
8 338 245 164 259 452 349 258 367
8 340 247 155 236 453 350 245 338
8 345 252 160 241 454 351 246 339
8 454 351 246 339 341 248 156 237
8 341 248 156 237 455 352 247 340
8 240 159 251 344 342 249 354 457
8 242 161 253 346 343 250 355 458
8 343 250 355 458 240 159 251 344
8 347 254 162 243 460 357 252 345
8 348 255 358 461 244 163 253 346
8 348 255 163 244 462 359 254 347
8 473 360 257 365 363 256 364 482
8 452 349 258 367 365 257 366 485
8 422 324 369 488 311 224 261 371
8 371 261 370 490 263 167 262 372
8 407 311 371 491 296 210 263 373
8 373 263 372 492 295 209 264 374
8 493 385 275 375 442 342 238 328
8 377 276 179 267 493 385 275 375
8 378 274 177 268 494 383 273 376
8 494 383 273 376 377 276 179 267
8 497 382 272 379 378 274 177 268
8 498 381 271 380 379 272 175 269
8 393 297 197 283 498 381 271 380
8 499 387 277 381 382 278 181 272
8 408 312 211 297 499 387 277 381
8 500 388 278 382 384 280 183 274
8 501 389 279 383 386 282 185 276
8 384 280 183 274 501 389 279 383
8 386 282 185 276 503 391 281 385
8 503 391 281 385 457 354 249 342
8 511 408 299 395 393 297 199 285
8 395 299 409 512 285 199 298 394
8 512 409 300 396 394 298 200 286
8 401 305 205 291 514 411 300 396
8 515 412 301 397 398 302 202 288
8 405 309 209 295 515 412 301 397
8 516 413 302 398 399 303 203 289
8 403 306 414 517 293 206 303 399
8 402 307 207 292 518 415 304 400
8 401 305 415 518 291 205 304 400
8 404 308 208 294 520 418 307 402
8 521 417 306 403 404 308 208 294
8 406 310 210 296 523 420 309 405
8 526 423 311 407 406 310 210 296
8 410 314 213 299 527 424 312 408
8 528 425 315 411 409 313 214 300
8 410 314 425 528 299 213 313 409
8 416 317 216 305 530 427 315 411
8 531 430 318 412 413 320 219 302
8 420 325 223 309 531 430 318 412
8 532 432 320 413 414 321 220 303
8 417 322 433 533 306 221 321 414
8 418 319 218 307 534 428 316 415
8 416 317 428 534 305 216 316 415
8 419 323 434 536 308 222 322 417
8 419 323 222 308 537 431 319 418
8 421 327 225 310 539 438 325 420
8 421 327 439 541 310 225 326 423
8 543 437 324 422 423 326 224 311
8 441 338 259 368 559 452 367 486
8 443 340 236 329 560 453 338 441
8 333 240 344 447 442 342 457 561
8 445 341 237 331 562 455 340 443
8 448 345 241 334 563 454 339 444
8 563 454 339 444 445 341 237 331
8 336 242 346 450 446 343 458 565
8 446 343 458 565 333 240 344 447
8 449 347 243 335 567 460 345 448
8 451 348 244 337 568 462 347 449
8 451 348 461 569 337 244 346 450
8 570 463 349 452 473 360 257 365
8 453 350 245 338 570 463 349 452
8 455 352 247 340 571 464 350 453
8 460 357 252 345 572 465 351 454
8 572 465 351 454 456 353 248 341
8 456 353 248 341 573 466 352 455
8 344 251 356 459 457 354 468 575
8 458 355 469 576 344 251 356 459
8 346 253 358 461 458 355 469 576
8 462 359 254 347 578 471 357 460
8 348 255 359 462 461 358 472 579
8 591 474 360 473 475 361 256 363
8 475 361 256 363 594 477 362 479
8 363 256 364 482 479 362 480 603
8 590 473 365 484 481 363 482 605
8 482 364 257 365 606 483 366 485
8 559 452 367 486 484 365 485 607
8 542 436 487 609 422 324 369 488
8 525 422 488 611 407 311 371 491
8 488 369 489 612 371 261 370 490
8 491 371 490 613 373 263 372 492
8 495 386 276 377 614 503 385 493
8 614 503 385 493 561 457 342 442
8 615 501 383 494 495 386 276 377
8 496 384 274 378 615 501 383 494
8 618 500 382 497 496 384 274 378
8 619 499 381 498 497 382 272 379
8 511 408 297 393 619 499 381 498
8 620 505 387 499 500 388 278 382
8 527 424 312 408 620 505 387 499
8 502 390 506 621 384 280 388 500
8 622 507 389 501 504 392 282 386
8 502 390 280 384 622 507 389 501
8 504 392 282 386 624 509 391 503
8 624 509 391 503 575 468 354 457
8 513 410 299 395 630 527 408 511
8 631 528 411 514 512 409 300 396
8 513 410 528 631 395 299 409 512
8 519 416 305 401 633 530 411 514
8 634 531 412 515 516 413 302 398
8 523 420 309 405 634 531 412 515
8 635 532 413 516 517 414 303 399
8 521 417 533 636 403 306 414 517
8 520 418 307 402 637 534 415 518
8 519 416 534 637 401 305 415 518
8 522 419 308 404 639 537 418 520
8 522 419 536 640 404 308 417 521
8 524 421 310 406 642 539 420 523
8 524 421 541 644 406 310 423 526
8 646 543 422 525 526 423 311 407
8 529 426 314 410 647 544 424 527
8 528 425 545 648 411 315 427 530
8 529 426 545 648 410 314 425 528
8 535 429 317 416 649 546 427 530
8 650 548 430 531 532 432 320 413
8 539 438 325 420 650 548 430 531
8 533 433 550 651 414 321 432 532
8 536 434 551 652 417 322 433 533
8 537 431 319 418 653 547 428 534
8 535 429 547 653 416 317 428 534
8 538 435 552 654 419 323 434 536
8 538 435 323 419 655 549 431 537
8 540 440 327 421 657 556 438 539
8 540 440 557 659 421 327 439 541
8 541 439 555 660 423 326 437 543
8 661 554 436 542 543 437 324 422
8 676 570 452 559 590 473 365 484
8 560 453 338 441 676 570 452 559
8 562 455 340 443 677 571 453 560
8 447 344 459 566 561 457 575 678
8 564 456 341 445 679 573 455 562
8 567 460 345 448 680 572 454 563
8 680 572 454 563 564 456 341 445
8 565 458 576 682 447 344 459 566
8 450 346 461 569 565 458 576 682
8 568 462 347 449 684 578 460 567
8 451 348 462 568 569 461 579 685
8 686 580 463 570 591 474 360 473
8 571 464 350 453 686 580 463 570
8 573 466 352 455 687 581 464 571
8 572 465 582 688 460 357 471 578
8 574 467 582 688 456 353 465 572
8 574 467 353 456 689 583 466 573
8 459 356 470 577 575 468 585 691
8 576 469 586 692 459 356 470 577
8 461 358 472 579 576 469 586 692
8 462 359 471 578 579 472 588 694
8 704 591 473 590 593 475 363 481
8 595 476 592 705 475 361 474 591
8 593 475 363 481 707 594 479 602
8 594 477 362 479 709 598 478 600
8 595 476 361 475 711 597 477 594
8 479 362 480 603 600 478 601 720
8 481 363 482 605 602 479 603 722
8 603 480 364 482 723 604 483 606
8 605 482 365 484 724 606 485 607
8 656 553 608 726 542 436 487 609
8 645 542 609 728 525 422 488 611
8 609 487 610 729 488 369 489 612
8 611 488 612 730 491 371 490 613
8 616 504 386 495 731 624 503 614
8 731 624 503 614 678 575 457 561
8 732 622 501 615 616 504 386 495
8 617 502 384 496 732 622 501 615
8 617 502 621 735 496 384 500 618
8 736 620 499 619 618 500 382 497
8 630 527 408 511 736 620 499 619
8 621 506 626 737 500 388 505 620
8 647 544 424 527 737 626 505 620
8 623 508 627 738 502 390 506 621
8 623 508 390 502 739 628 507 622
8 625 510 628 739 504 392 507 622
8 740 629 509 624 691 585 468 575
8 625 510 392 504 740 629 509 624
8 632 529 410 513 744 647 527 630
8 631 528 648 745 514 411 530 633
8 632 529 648 745 513 410 528 631
8 638 535 416 519 746 649 530 633
8 747 650 531 634 635 532 413 516
8 642 539 420 523 747 650 531 634
8 636 533 651 748 517 414 532 635
8 640 536 652 749 521 417 533 636
8 639 537 418 520 750 653 534 637
8 638 535 653 750 519 416 534 637
8 641 538 419 522 751 655 537 639
8 641 538 654 752 522 419 536 640
8 643 540 421 524 753 657 539 642
8 643 540 659 755 524 421 541 644
8 644 541 660 757 526 423 543 646
8 758 661 542 645 646 543 422 525
8 529 426 544 647 648 545 662 759
8 530 427 545 648 649 546 663 760
8 535 429 546 649 653 547 664 761
8 762 666 548 650 651 550 432 532
8 657 556 438 539 762 666 548 650
8 652 551 668 763 533 433 550 651
8 654 552 669 764 536 434 551 652
8 655 549 431 537 765 665 547 653
8 538 435 549 655 654 552 667 766
8 661 554 671 768 542 436 553 656
8 658 558 440 540 769 674 556 657
8 658 558 675 770 540 440 557 659
8 659 557 673 771 541 439 555 660
8 660 555 672 772 543 437 554 661
8 788 686 570 676 704 591 473 590
8 677 571 453 560 788 686 570 676
8 679 573 455 562 789 687 571 677
8 566 459 577 683 678 575 691 790
8 681 574 456 564 791 689 573 679
8 680 572 688 792 567 460 578 684
8 681 574 688 792 564 456 572 680
8 682 576 692 794 566 459 577 683
8 569 461 579 685 682 576 692 794
8 568 462 578 684 685 579 694 796
8 687 581 464 571 798 696 580 686
8 798 696 580 686 705 592 474 591
8 689 583 466 573 799 697 581 687
8 688 582 698 800 578 471 588 694
8 690 584 698 800 574 467 582 688
8 690 584 467 574 801 699 583 689
8 693 587 701 803 577 470 585 691
8 693 587 470 577 804 702 586 692
8 695 589 702 804 579 472 586 692
8 695 589 472 579 805 703 588 694
8 708 595 705 813 593 475 591 704
8 710 596 706 814 595 476 592 705
8 707 594 479 602 816 709 600 719
8 708 595 475 593 817 711 594 707
8 709 598 478 600 819 715 599 717
8 711 597 477 594 820 714 598 709
8 710 596 476 595 822 713 597 711
8 600 478 601 720 717 599 718 832
8 602 479 603 722 719 600 720 834
8 720 601 480 603 835 721 604 723
8 722 603 482 605 836 723 606 724
8 767 670 725 839 656 553 608 726
8 756 656 726 841 645 542 609 728
8 726 608 727 842 609 487 610 729
8 728 609 729 843 611 488 612 730
8 844 740 624 731 790 691 575 678
8 733 625 504 616 844 740 624 731
8 734 623 502 617 845 739 622 732
8 733 625 739 845 616 504 622 732
8 734 623 738 846 617 502 621 735
8 735 621 737 847 618 500 620 736
8 744 647 527 630 847 737 620 736
8 621 506 627 738 737 626 741 848
8 647 544 626 737 759 662 741 848
8 623 508 628 739 738 627 742 849
8 740 629 585 691 850 743 700 802
8 625 510 629 740 739 628 743 850
8 632 529 647 744 745 648 759 854
8 633 530 648 745 746 649 760 855
8 638 535 649 746 750 653 761 856
8 857 762 650 747 748 651 532 635
8 753 657 539 642 857 762 650 747
8 749 652 763 858 636 533 651 748
8 752 654 764 859 640 536 652 749
8 751 655 537 639 860 765 653 750
8 641 538 655 751 752 654 766 861
8 754 658 540 643 862 769 657 753
8 754 658 770 863 643 540 659 755
8 755 659 771 864 644 541 660 757
8 758 661 768 866 645 542 656 756
8 757 660 772 867 646 543 661 758
8 759 662 773 868 648 545 663 760
8 649 546 663 760 761 664 774 871
8 765 665 547 653 872 775 664 761
8 873 777 666 762 763 668 550 651
8 769 674 556 657 873 777 666 762
8 764 669 779 874 652 551 668 763
8 654 552 667 766 764 669 778 875
8 655 549 665 765 766 667 776 876
8 768 671 782 877 656 553 670 767
8 772 672 783 878 661 554 671 768
8 658 558 674 769 770 675 786 879
8 659 557 675 770 771 673 785 881
8 882 784 672 772 771 673 555 660
8 789 687 571 677 897 798 686 788
8 897 798 686 788 813 705 591 704
8 791 689 573 679 898 799 687 789
8 795 693 803 900 683 577 691 790
8 793 690 574 681 901 801 689 791
8 792 688 800 902 684 578 694 796
8 793 690 800 902 681 574 688 792
8 795 693 577 683 903 804 692 794
8 797 695 804 903 685 579 692 794
8 797 695 579 685 904 805 694 796
8 905 806 697 799 798 696 581 687
8 814 706 806 905 705 592 696 798
8 689 583 697 799 801 699 808 907
8 800 698 809 908 694 588 703 805
8 690 584 699 801 800 698 809 908
8 803 701 810 909 691 585 700 802
8 693 587 702 804 803 701 811 910
8 695 589 703 805 804 702 812 911
8 818 710 814 919 708 595 705 813
8 821 712 815 920 710 596 706 814
8 816 709 600 719 922 819 717 831
8 817 711 594 707 923 820 709 816
8 818 710 595 708 924 822 711 817
8 819 715 599 717 926 827 716 829
8 820 714 598 709 927 826 715 819
8 929 825 713 822 820 714 597 711
8 821 712 596 710 930 824 713 822
8 717 599 718 832 829 716 830 942
8 719 600 720 834 831 717 832 944
8 832 718 601 720 945 833 721 835
8 834 720 603 722 946 835 723 836
8 869 780 838 950 767 670 725 839
8 865 767 839 952 756 656 726 841
8 839 725 840 953 726 608 727 842
8 841 726 842 954 728 609 729 843
8 844 740 691 790 955 850 802 899
8 733 625 740 844 845 739 850 955
8 734 623 739 845 846 738 849 956
8 735 621 738 846 847 737 848 957
8 744 647 737 847 854 759 848 957
8 738 627 742 849 848 741 851 958
8 848 741 851 958 759 662 773 868
8 850 743 700 802 959 852 807 906
8 849 742 628 739 959 852 743 850
8 854 759 868 965 745 648 760 855
8 746 649 760 855 856 761 871 966
8 860 765 653 750 967 872 761 856
8 968 873 762 857 858 763 651 748
8 862 769 657 753 968 873 762 857
8 859 764 874 969 749 652 763 858
8 752 654 766 861 859 764 875 970
8 751 655 765 860 861 766 876 971
8 754 658 769 862 863 770 879 972
8 755 659 770 863 864 771 881 974
8 976 882 772 867 864 771 660 757
8 866 768 877 977 756 656 767 865
8 867 772 878 978 758 661 768 866
8 760 663 773 868 871 774 883 980
8 870 781 837 948 982 890 780 869
8 982 890 780 869 877 782 670 767
8 761 664 774 871 872 775 884 984
8 876 776 665 765 985 885 775 872
8 873 777 668 763 986 887 779 874
8 769 674 777 873 879 786 887 986
8 764 669 778 875 874 779 888 987
8 766 667 776 876 875 778 886 988
8 878 783 892 989 768 671 782 877
8 878 783 672 772 990 893 784 882
8 880 787 675 770 991 896 786 879
8 880 787 895 992 770 675 785 881
8 881 785 894 993 771 673 784 882
8 1006 905 799 898 897 798 687 789
8 919 814 905 1006 813 705 798 897
8 791 689 799 898 901 801 907 1007
8 900 803 909 1009 790 691 802 899
8 795 693 804 903 900 803 910 1010
8 902 800 908 1011 796 694 805 904
8 793 690 801 901 902 800 908 1011
8 797 695 805 904 903 804 911 1012
8 799 697 806 905 907 808 912 1013
8 920 815 912 1013 814 706 806 905
8 802 700 810 909 906 807 913 1014
8 801 699 808 907 908 809 914 1015
8 805 703 809 908 911 812 915 1016
8 803 701 811 910 909 810 916 1017
8 911 812 917 1018 804 702 811 910
8 925 821 920 1030 818 710 814 919
8 928 823 921 1031 821 712 815 920
8 922 819 717 831 1033 926 829 941
8 923 820 709 816 1034 927 819 922
8 1035 929 822 924 923 820 711 817
8 925 821 710 818 1036 930 822 924
8 1038 933 825 929 927 826 714 820
8 926 827 716 829 1039 935 828 939
8 927 826 715 819 1040 934 827 926
8 928 823 712 821 1041 931 824 930
8 1042 932 824 930 929 825 713 822
8 829 716 830 942 939 828 940 1058
8 831 717 832 944 941 829 942 1060
8 942 830 718 832 1061 943 833 945
8 944 832 720 834 1062 945 835 946
8 981 889 947 1064 870 781 837 948
8 948 837 949 1067 869 780 838 950
8 975 869 950 1069 865 767 839 952
8 950 838 951 1070 839 725 840 953
8 952 839 953 1071 841 726 842 954
8 955 850 802 899 1072 959 906 1008
8 956 849 739 845 1072 959 850 955
8 846 738 849 956 957 848 958 1073
8 957 848 958 1073 854 759 868 965
8 849 742 852 959 958 851 961 1076
8 960 853 961 1076 906 807 852 959
8 958 851 961 1076 868 773 883 980
8 960 853 807 906 1077 963 913 1014
8 855 760 868 965 966 871 980 1085
8 856 761 871 966 967 872 984 1086
8 971 876 765 860 1087 985 872 967
8 968 873 763 858 1088 986 874 969
8 862 769 873 968 972 879 986 1088
8 859 764 875 970 969 874 987 1089
8 861 766 876 971 970 875 988 1090
8 973 880 770 863 1091 991 879 972
8 973 880 992 1092 863 770 881 974
8 974 881 993 1093 864 771 882 976
8 979 870 948 1066 1094 982 869 975
8 1094 982 869 975 977 877 767 865
8 978 878 772 867 1095 990 882 976
8 978 878 989 1096 866 768 877 977
8 871 774 883 980 984 884 994 1099
8 983 891 999 1100 870 781 889 981
8 1101 1000 890 982 989 892 782 877
8 983 891 781 870 1101 1000 890 982
8 872 775 884 984 985 885 995 1103
8 876 776 885 985 988 886 996 1104
8 986 887 779 874 1105 998 888 987
8 879 786 887 986 991 896 998 1105
8 875 778 886 988 987 888 997 1106
8 990 893 1002 1107 878 783 892 989
8 1108 1003 893 990 993 894 784 882
8 880 787 896 991 992 895 1005 1109
8 993 894 785 881 1110 1004 895 992
8 898 799 905 1006 1007 907 1013 1120
8 1030 920 1013 1120 919 814 905 1006
8 901 801 907 1007 1011 908 1015 1121
8 899 802 909 1009 1008 906 1014 1122
8 900 803 910 1010 1009 909 1017 1123
8 1012 911 1018 1124 903 804 910 1010
8 904 805 908 1011 1012 911 1016 1125
8 1013 912 1020 1127 907 808 914 1015
8 1031 921 1020 1127 920 815 912 1013
8 1019 918 962 1075 1128 1021 913 1014
8 1128 1021 913 1014 1017 916 810 909
8 1015 914 1022 1129 908 809 915 1016
8 1016 915 1023 1130 911 812 917 1018
8 1018 917 1024 1131 910 811 916 1017
8 1037 928 1031 1148 925 821 920 1030
8 928 823 931 1041 1031 921 1032 1149
8 1033 926 829 941 1151 1039 939 1057
8 1034 927 819 922 1152 1040 926 1033
8 1153 1038 929 1035 1034 927 820 923
8 1154 1042 930 1036 1035 929 822 924
8 1037 928 821 925 1155 1041 930 1036
8 1039 935 828 939 1156 1047 938 1055
8 1157 1043 932 1042 1038 933 825 929
8 1038 933 826 927 1158 1045 934 1040
8 1040 934 827 926 1159 1046 935 1039
8 930 824 932 1042 1041 931 1044 1160
8 1051 936 1048 1165 1175 1052 937 1053
8 1156 1047 938 1055 1053 937 1054 1178
8 939 828 940 1058 1055 938 1056 1181
8 941 829 942 1060 1057 939 1058 1183
8 942 830 943 1061 1058 940 1059 1184
8 1060 942 832 944 1185 1061 945 1062
8 1082 964 1063 1188 981 889 947 1064
8 1097 981 1064 1190 979 870 948 1066
8 1064 947 1065 1191 948 837 949 1067
8 1066 948 1067 1193 975 869 950 1069
8 1067 949 1068 1194 950 838 951 1070
8 1069 950 1070 1195 952 839 953 1071
8 956 849 959 1072 1073 958 1076 1197
8 1074 960 1076 1197 1008 906 959 1072
8 1073 958 1076 1197 965 868 980 1085
8 1074 960 906 1008 1198 1077 1014 1122
8 1133 1026 1079 1199 1019 918 962 1075
8 1077 963 913 1014 1200 1080 962 1075
8 960 853 963 1077 1076 961 1078 1201
8 980 883 961 1076 1099 994 1078 1201
8 1210 1083 964 1082 1100 999 889 981
8 966 871 980 1085 1086 984 1099 1215
8 967 872 984 1086 1087 985 1103 1216
8 971 876 985 1087 1090 988 1104 1217
8 1088 986 874 969 1218 1105 987 1089
8 972 879 986 1088 1091 991 1105 1218
8 970 875 988 1090 1089 987 1106 1219
8 973 880 991 1091 1092 992 1109 1220
8 1093 993 881 974 1221 1110 992 1092
8 1222 1108 990 1095 1093 993 882 976
8 1223 1101 982 1094 1096 989 877 977
8 1098 983 870 979 1223 1101 982 1094
8 1095 990 1107 1224 978 878 989 1096
8 1098 983 1100 1225 979 870 981 1097
8 984 884 994 1099 1103 995 1111 1227
8 1102 1001 1115 1228 983 891 999 1100
8 1101 1000 892 989 1229 1116 1002 1107
8 1102 1001 891 983 1229 1116 1000 1101
8 985 885 995 1103 1104 996 1112 1230
8 988 886 996 1104 1106 997 1113 1231
8 1105 998 888 987 1232 1114 997 1106
8 991 896 998 1105 1109 1005 1114 1232
8 1108 1003 1117 1233 990 893 1002 1107
8 1108 1003 894 993 1233 1117 1004 1110
8 992 895 1005 1109 1110 1004 1118 1234
8 1120 1013 1127 1244 1007 907 1015 1121
8 1148 1031 1127 1244 1030 920 1013 1120
8 1121 1015 1129 1245 1011 908 1016 1125
8 1126 1019 1075 1196 1246 1128 1014 1122
8 1246 1128 1014 1122 1123 1017 909 1009
8 1124 1018 1131 1247 1010 910 1017 1123
8 1125 1016 1130 1248 1012 911 1018 1124
8 1127 1020 1137 1254 1015 914 1022 1129
8 1031 921 1032 1149 1127 1020 1137 1254
8 1134 1027 918 1019 1257 1140 1021 1128
8 1257 1140 1021 1128 1131 1024 916 1017
8 1129 1022 1141 1258 1016 915 1023 1130
8 1130 1023 1142 1259 1018 917 1024 1131
8 1261 1144 1025 1132 1133 1026 1079 1199
8 1255 1138 1025 1132 1135 1028 1144 1261
8 1133 1026 918 1019 1262 1145 1027 1134
8 1136 1029 1139 1256 1263 1146 1028 1135
8 1037 928 1041 1155 1148 1031 1149 1275
8 1041 931 1044 1160 1149 1032 1150 1276
8 1151 1039 939 1057 1278 1156 1055 1180
8 1152 1040 926 1033 1279 1159 1039 1151
8 1153 1038 927 1034 1280 1158 1040 1152
8 1281 1157 1042 1154 1153 1038 929 1035
8 1036 930 1042 1154 1155 1041 1160 1282
8 1283 1164 1046 1159 1156 1047 935 1039
8 1165 1048 1164 1283 1053 937 1047 1156
8 1157 1043 933 1038 1284 1161 1045 1158
8 1157 1043 1161 1284 1042 932 1044 1160
8 1040 934 1046 1159 1158 1045 1163 1285
8 1166 1049 1167 1292 1051 936 1048 1165
8 1166 1049 936 1051 1293 1168 1050 1172
8 1051 936 1052 1175 1172 1050 1173 1306
8 1174 1051 1165 1290 1308 1175 1053 1177
8 1053 937 1054 1178 1175 1052 1176 1309
8 1278 1156 1055 1180 1177 1053 1178 1311
8 1055 938 1056 1181 1178 1054 1179 1312
8 1057 939 1058 1183 1180 1055 1181 1314
8 1058 940 1059 1184 1181 1056 1182 1315
8 1060 942 1061 1185 1183 1058 1184 1316
8 1208 1081 1187 1321 1082 964 1063 1188
8 1209 1082 1188 1322 1097 981 1064 1190
8 1188 1063 1189 1323 1064 947 1065 1191
8 1190 1064 1191 1325 1066 948 1067 1193
8 1191 1065 1192 1326 1067 949 1068 1194
8 1067 1193 1069 950 1194 1327 1195 1070
8 1250 1133 1199 1330 1126 1019 1075 1196
8 1198 1077 1014 1122 1331 1200 1075 1196
8 1074 960 1077 1198 1197 1076 1201 1332
8 1085 980 1076 1197 1215 1099 1201 1332
8 1199 1079 1203 1333 1075 962 1080 1200
8 1132 1025 1119 1243 1199 1079 1203 1333
8 1201 1078 963 1077 1334 1202 1080 1200
8 1099 994 1078 1201 1227 1111 1202 1334
8 1343 1207 1081 1208 1210 1083 964 1082
8 1214 1084 1186 1319 1343 1207 1081 1208
8 1345 1210 1082 1209 1225 1100 981 1097
8 1346 1211 1083 1210 1228 1115 999 1100
8 1086 984 1099 1215 1216 1103 1227 1352
8 1087 985 1103 1216 1217 1104 1230 1353
8 1090 988 1104 1217 1219 1106 1231 1354
8 1218 1105 987 1089 1355 1232 1106 1219
8 1091 991 1105 1218 1220 1109 1232 1355
8 1092 992 1109 1220 1221 1110 1234 1356
8 1222 1108 1233 1357 1095 990 1107 1224
8 1222 1108 993 1093 1357 1233 1110 1221
8 1223 1101 989 1096 1358 1229 1107 1224
8 1226 1102 983 1098 1358 1229 1101 1223
8 1226 1102 1228 1359 1098 983 1100 1225
8 1103 995 1111 1227 1230 1112 1235 1360
8 1107 1002 1117 1233 1229 1116 1240 1362
8 1102 1001 1116 1229 1228 1115 1240 1362
8 1104 996 1112 1230 1231 1113 1236 1363
8 1364 1237 1114 1232 1231 1113 997 1106
8 1109 1005 1114 1232 1234 1118 1238 1365
8 1110 1004 1118 1234 1233 1117 1241 1366
8 1242 1374 1255 1138 1119 1243 1132 1025
8 1244 1127 1254 1376 1121 1015 1129 1245
8 1148 1031 1149 1275 1244 1127 1254 1376
8 1245 1129 1258 1377 1125 1016 1130 1248
8 1251 1134 1019 1126 1378 1257 1128 1246
8 1378 1257 1128 1246 1247 1131 1017 1123
8 1248 1130 1259 1379 1124 1018 1131 1247
8 1261 1381 1250 1133 1132 1249 1330 1199
8 1255 1380 1252 1135 1132 1249 1381 1261
8 1250 1133 1019 1126 1382 1262 1134 1251
8 1253 1136 1256 1385 1384 1263 1135 1252
8 1254 1137 1265 1387 1129 1022 1141 1258
8 1149 1032 1150 1276 1254 1137 1265 1387
8 1028 1135 1255 1138 1139 1256 1388 1266
8 1136 1029 1147 1264 1256 1139 1267 1389
8 1390 1268 1140 1257 1259 1142 1024 1131
8 1260 1143 1027 1134 1390 1268 1140 1257
8 1258 1141 1269 1391 1130 1023 1142 1259
8 1262 1145 1027 1134 1393 1271 1143 1260
8 1261 1144 1026 1133 1394 1272 1145 1262
8 1135 1028 1144 1261 1263 1146 1272 1394
8 1136 1029 1146 1263 1264 1147 1273 1395
8 1155 1041 1160 1282 1275 1149 1276 1405
8 1276 1150 1044 1160 1406 1277 1162 1286
8 1408 1283 1159 1279 1278 1156 1039 1151
8 1290 1165 1283 1408 1177 1053 1156 1278
8 1152 1040 1159 1279 1280 1158 1285 1409
8 1281 1157 1038 1153 1410 1284 1158 1280
8 1281 1157 1284 1410 1154 1042 1160 1282
8 1159 1046 1164 1283 1285 1163 1289 1412
8 1292 1167 1289 1412 1165 1048 1164 1283
8 1158 1045 1163 1285 1284 1161 1288 1413
8 1284 1161 1288 1413 1160 1044 1162 1286
8 1291 1166 1292 1418 1174 1051 1165 1290
8 1291 1166 1051 1174 1419 1293 1172 1305
8 1294 1169 1296 1421 1166 1049 1167 1292
8 1293 1168 1050 1172 1422 1295 1171 1303
8 1294 1169 1049 1166 1423 1297 1168 1293
8 1422 1295 1171 1303 1301 1170 1302 1435
8 1172 1050 1173 1306 1303 1171 1304 1438
8 1174 1051 1175 1308 1305 1172 1306 1440
8 1175 1052 1176 1309 1306 1173 1307 1441
8 1177 1053 1178 1311 1308 1175 1309 1443
8 1178 1054 1179 1312 1309 1176 1310 1444
8 1180 1055 1181 1314 1311 1178 1312 1446
8 1056 1181 1312 1179 1182 1315 1447 1313
8 1183 1058 1184 1316 1314 1181 1315 1448
8 1319 1186 1084 1214 1451 1317 1213 1350
8 1319 1186 1318 1453 1208 1081 1187 1321
8 1321 1187 1320 1456 1188 1063 1189 1323
8 1344 1208 1321 1457 1209 1082 1188 1322
8 1322 1188 1323 1458 1190 1064 1191 1325
8 1323 1189 1324 1459 1191 1065 1192 1326
8 1191 1325 1193 1067 1326 1460 1327 1194
8 1242 1374 1243 1119 1328 1462 1335 1204
8 1330 1199 1333 1465 1196 1075 1200 1331
8 1132 1249 1330 1199 1243 1375 1465 1333
8 1332 1201 1077 1198 1466 1334 1200 1331
8 1215 1099 1201 1332 1352 1227 1334 1466
8 1119 1243 1333 1203 1204 1335 1470 1338
8 1333 1203 1338 1470 1200 1080 1202 1334
8 1227 1111 1202 1334 1360 1235 1338 1470
8 1328 1462 1335 1204 1205 1336 1471 1339
8 1337 1206 1340 1472 1464 1329 1205 1336
8 1346 1211 1342 1479 1210 1083 1207 1343
8 1346 1211 1115 1228 1479 1342 1239 1361
8 1348 1212 1084 1214 1479 1342 1207 1343
8 1480 1343 1208 1344 1345 1210 1082 1209
8 1351 1214 1319 1454 1480 1343 1208 1344
8 1481 1346 1210 1345 1359 1228 1100 1225
8 1348 1212 1347 1483 1214 1084 1213 1350
8 1216 1103 1227 1352 1353 1230 1360 1488
8 1217 1104 1230 1353 1354 1231 1363 1489
8 1490 1364 1232 1355 1354 1231 1106 1219
8 1220 1109 1232 1355 1356 1234 1365 1491
8 1221 1110 1234 1356 1357 1233 1366 1492
8 1224 1107 1233 1357 1358 1229 1362 1493
8 1226 1102 1229 1358 1359 1228 1362 1493
8 1230 1112 1235 1360 1363 1236 1367 1496
8 1361 1239 1115 1228 1497 1371 1240 1362
8 1366 1241 1372 1498 1233 1117 1240 1362
8 1364 1237 1113 1231 1499 1368 1236 1363
8 1364 1237 1368 1499 1232 1114 1238 1365
8 1234 1118 1238 1365 1366 1241 1369 1500
8 1507 1373 1242 1374 1388 1266 1138 1255
8 1508 1374 1243 1375 1380 1255 1132 1249
8 1376 1254 1387 1509 1245 1129 1258 1377
8 1275 1149 1276 1405 1376 1254 1387 1509
8 1377 1258 1391 1510 1248 1130 1259 1379
8 1511 1390 1257 1378 1379 1259 1131 1247
8 1383 1260 1134 1251 1511 1390 1257 1378
8 1252 1135 1256 1385 1380 1255 1388 1512
8 1261 1381 1513 1394 1133 1250 1382 1262
8 1135 1252 1384 1263 1261 1381 1513 1394
8 1382 1262 1134 1251 1514 1393 1260 1383
8 1253 1136 1263 1384 1386 1264 1395 1516
8 1253 1136 1264 1386 1385 1256 1389 1517
8 1387 1265 1397 1519 1258 1141 1269 1391
8 1276 1150 1277 1406 1387 1265 1397 1519
8 1256 1139 1267 1389 1388 1266 1398 1520
8 1264 1147 1274 1396 1389 1267 1399 1521
8 1392 1270 1143 1260 1522 1400 1268 1390
8 1390 1268 1142 1259 1522 1400 1269 1391
8 1392 1270 1401 1523 1260 1143 1271 1393
8 1272 1394 1524 1402 1145 1262 1393 1271
8 1395 1273 1146 1263 1524 1402 1272 1394
8 1273 1395 1264 1147 1403 1526 1396 1274
8 1405 1276 1160 1282 1534 1406 1286 1411
8 1414 1287 1407 1535 1286 1162 1277 1406
8 1279 1159 1283 1408 1409 1285 1412 1537
8 1418 1292 1412 1537 1290 1165 1283 1408
8 1280 1158 1285 1409 1410 1284 1413 1538
8 1410 1284 1413 1538 1282 1160 1286 1411
8 1285 1163 1289 1412 1413 1288 1417 1540
8 1421 1296 1417 1540 1292 1167 1289 1412
8 1414 1287 1162 1286 1541 1416 1288 1413
8 1420 1294 1421 1545 1291 1166 1292 1418
8 1419 1293 1172 1305 1546 1422 1303 1437
8 1420 1294 1166 1291 1547 1423 1293 1419
8 1294 1169 1297 1423 1421 1296 1425 1548
8 1423 1297 1168 1293 1549 1424 1295 1422
8 1301 1170 1298 1427 1422 1295 1424 1549
8 1432 1300 1428 1554 1301 1170 1298 1427
8 1431 1299 1428 1554 1560 1430 1300 1432
8 1563 1433 1300 1432 1435 1302 1170 1301
8 1546 1422 1303 1437 1434 1301 1435 1565
8 1303 1171 1304 1438 1435 1302 1436 1566
8 1305 1172 1306 1440 1437 1303 1438 1568
8 1306 1173 1307 1441 1438 1304 1439 1569
8 1308 1175 1309 1443 1440 1306 1441 1571
8 1309 1176 1310 1444 1441 1307 1442 1572
8 1311 1178 1312 1446 1443 1309 1444 1574
8 1179 1312 1444 1310 1313 1447 1575 1445
8 1314 1181 1315 1448 1446 1312 1447 1576
8 1350 1213 1349 1486 1451 1317 1449 1579
8 1451 1317 1450 1581 1319 1186 1318 1453
8 1454 1319 1214 1351 1582 1451 1350 1487
8 1453 1318 1452 1584 1321 1187 1320 1456
8 1454 1319 1453 1585 1344 1208 1321 1457
8 1456 1320 1455 1586 1323 1189 1324 1459
8 1457 1321 1456 1587 1322 1188 1323 1458
8 1458 1323 1459 1588 1325 1191 1326 1460
8 1205 1336 1464 1329 1328 1462 1590 1461
8 1507 1373 1461 1590 1374 1242 1328 1462
8 1508 1374 1462 1591 1375 1243 1335 1467
8 1337 1206 1329 1464 1473 1341 1463 1594
8 1375 1243 1335 1467 1465 1333 1470 1596
8 1465 1333 1470 1596 1331 1200 1334 1466
8 1352 1227 1334 1466 1488 1360 1470 1596
8 1591 1462 1336 1468 1467 1335 1471 1597
8 1469 1337 1472 1598 1595 1464 1336 1468
8 1471 1339 1474 1600 1335 1204 1338 1470
8 1600 1474 1367 1496 1470 1338 1235 1360
8 1336 1205 1340 1472 1471 1339 1475 1601
8 1337 1206 1341 1473 1472 1340 1476 1602
8 1495 1370 1478 1609 1361 1239 1342 1479
8 1348 1212 1342 1479 1483 1347 1478 1609
8 1481 1346 1479 1610 1345 1210 1343 1480
8 1481 1346 1228 1359 1610 1479 1361 1494
8 1484 1348 1214 1351 1610 1479 1343 1480
8 1483 1347 1482 1612 1350 1213 1349 1486
8 1484 1348 1483 1613 1351 1214 1350 1487
8 1353 1230 1360 1488 1489 1363 1496 1616
8 1490 1364 1231 1354 1617 1499 1363 1489
8 1490 1364 1499 1617 1355 1232 1365 1491
8 1356 1234 1365 1491 1492 1366 1500 1619
8 1492 1366 1498 1620 1357 1233 1362 1493
8 1494 1361 1228 1359 1621 1497 1362 1493
8 1495 1370 1239 1361 1622 1504 1371 1497
8 1363 1236 1367 1496 1499 1368 1501 1623
8 1497 1371 1240 1362 1624 1505 1372 1498
8 1625 1503 1372 1498 1500 1369 1241 1366
8 1365 1238 1368 1499 1500 1369 1502 1626
8 1520 1398 1506 1633 1388 1266 1373 1507
8 1634 1507 1374 1508 1512 1388 1255 1380
8 1509 1387 1519 1635 1377 1258 1391 1510
8 1405 1276 1406 1534 1509 1387 1519 1635
8 1515 1392 1260 1383 1636 1522 1390 1511
8 1511 1390 1259 1379 1636 1522 1391 1510
8 1385 1256 1389 1517 1512 1388 1520 1637
8 1513 1394 1262 1382 1638 1524 1393 1514
8 1395 1516 1638 1524 1263 1384 1513 1394
8 1515 1392 1523 1639 1383 1260 1393 1514
8 1516 1395 1526 1640 1386 1264 1396 1518
8 1386 1264 1396 1518 1517 1389 1521 1641
8 1519 1397 1527 1643 1391 1269 1400 1522
8 1535 1407 1527 1643 1406 1277 1397 1519
8 1389 1267 1399 1521 1520 1398 1528 1644
8 1645 1529 1399 1521 1525 1404 1274 1396
8 1392 1270 1400 1522 1523 1401 1531 1646
8 1524 1402 1271 1393 1648 1532 1401 1523
8 1403 1526 1648 1532 1273 1395 1524 1402
8 1525 1404 1274 1396 1649 1533 1403 1526
8 1539 1414 1535 1657 1411 1286 1406 1534
8 1542 1415 1536 1658 1414 1287 1407 1535
8 1409 1285 1412 1537 1538 1413 1540 1660
8 1545 1421 1540 1660 1418 1292 1412 1537
8 1539 1414 1286 1411 1661 1541 1413 1538
8 1540 1417 1544 1663 1413 1288 1416 1541
8 1421 1296 1425 1548 1540 1417 1544 1663
8 1542 1415 1287 1414 1664 1543 1416 1541
8 1420 1294 1423 1547 1545 1421 1548 1666
8 1547 1423 1293 1419 1667 1549 1422 1546
8 1434 1301 1427 1553 1546 1422 1549 1667
8 1423 1297 1424 1549 1548 1425 1550 1668
8 1551 1426 1550 1668 1427 1298 1424 1549
8 1551 1426 1298 1427 1671 1552 1428 1554
8 1562 1432 1554 1674 1434 1301 1427 1553
8 1431 1299 1429 1558 1554 1428 1555 1675
8 1431 1299 1430 1560 1558 1429 1557 1680
8 1560 1430 1300 1432 1683 1559 1433 1563
8 1561 1431 1554 1674 1684 1560 1432 1562
8 1685 1563 1432 1562 1565 1435 1301 1434
8 1435 1302 1436 1566 1563 1433 1564 1686
8 1437 1303 1438 1568 1565 1435 1566 1688
8 1438 1304 1439 1569 1566 1436 1567 1689
8 1440 1306 1441 1571 1568 1438 1569 1691
8 1441 1307 1442 1572 1569 1439 1570 1692
8 1443 1309 1444 1574 1571 1441 1572 1694
8 1310 1444 1572 1442 1445 1575 1695 1573
8 1446 1312 1447 1576 1574 1444 1575 1696
8 1486 1349 1485 1614 1579 1449 1577 1699
8 1451 1317 1449 1579 1581 1450 1578 1701
8 1487 1350 1486 1615 1582 1451 1579 1702
8 1581 1450 1580 1704 1453 1318 1452 1584
8 1582 1451 1581 1705 1454 1319 1453 1585
8 1584 1452 1583 1706 1456 1320 1455 1586
8 1585 1453 1584 1707 1457 1321 1456 1587
8 1587 1456 1586 1708 1458 1323 1459 1588
8 1633 1506 1589 1710 1507 1373 1461 1590
8 1464 1329 1461 1590 1594 1463 1589 1710
8 1468 1336 1462 1591 1595 1464 1590 1711
8 1634 1507 1590 1711 1508 1374 1462 1591
8 1473 1341 1463 1594 1603 1477 1593 1716
8 1469 1337 1464 1595 1599 1473 1594 1717
8 1471 1597 1467 1335 1600 1718 1596 1470
8 1718 1600 1496 1616 1596 1470 1360 1488
8 1336 1468 1597 1471 1472 1598 1719 1601
8 1469 1337 1473 1599 1598 1472 1602 1720
8 1722 1604 1501 1623 1600 1474 1367 1496
8 1475 1601 1471 1339 1604 1722 1600 1474
8 1602 1476 1605 1723 1472 1340 1475 1601
8 1476 1602 1724 1606 1341 1473 1603 1477
8 1483 1347 1478 1609 1612 1482 1608 1731
8 1495 1370 1504 1622 1609 1478 1608 1731
8 1618 1495 1609 1732 1494 1361 1479 1610
8 1484 1348 1479 1610 1613 1483 1609 1732
8 1486 1349 1482 1612 1614 1485 1611 1733
8 1613 1483 1612 1734 1487 1350 1486 1615
8 1489 1363 1496 1616 1617 1499 1623 1736
8 1491 1365 1499 1617 1619 1500 1626 1737
8 1618 1495 1361 1494 1738 1622 1497 1621
8 1739 1625 1498 1620 1619 1500 1366 1492
8 1621 1497 1362 1493 1740 1624 1498 1620
8 1742 1631 1504 1622 1624 1505 1371 1497
8 1743 1628 1502 1626 1623 1501 1368 1499
8 1744 1630 1505 1624 1625 1503 1372 1498
8 1745 1629 1503 1625 1626 1502 1369 1500
8 1520 1398 1528 1644 1633 1506 1632 1751
8 1637 1520 1633 1752 1512 1388 1507 1634
8 1635 1519 1643 1753 1510 1391 1522 1636
8 1657 1535 1643 1753 1534 1406 1519 1635
8 1515 1392 1522 1636 1639 1523 1646 1754
8 1517 1389 1521 1641 1637 1520 1644 1755
8 1524 1638 1756 1648 1393 1514 1639 1523
8 1640 1526 1395 1516 1756 1648 1524 1638
8 1642 1525 1396 1518 1757 1649 1526 1640
8 1758 1645 1521 1641 1642 1525 1396 1518
8 1646 1531 1400 1522 1760 1650 1527 1643
8 1535 1407 1536 1658 1643 1527 1650 1760
8 1521 1399 1529 1645 1644 1528 1651 1761
8 1647 1530 1652 1762 1525 1404 1529 1645
8 1401 1523 1648 1532 1531 1646 1763 1655
8 1525 1404 1533 1649 1647 1530 1654 1765
8 1533 1649 1766 1656 1403 1526 1648 1532
8 1662 1542 1658 1774 1539 1414 1535 1657
8 1542 1415 1543 1664 1658 1536 1659 1775
8 1660 1540 1663 1777 1538 1413 1541 1661
8 1545 1421 1548 1666 1660 1540 1663 1777
8 1662 1542 1414 1539 1778 1664 1541 1661
8 1664 1543 1416 1541 1779 1665 1544 1663
8 1548 1425 1550 1668 1663 1544 1665 1779
8 1547 1423 1549 1667 1666 1548 1668 1781
8 1670 1551 1668 1781 1553 1427 1549 1667
8 1551 1426 1552 1671 1668 1550 1669 1782
8 1670 1551 1427 1553 1784 1671 1554 1674
8 1675 1555 1672 1785 1554 1428 1552 1671
8 1678 1556 1673 1789 1558 1429 1555 1675
8 1561 1431 1558 1681 1674 1554 1675 1790
8 1794 1677 1556 1678 1680 1557 1429 1558
8 1560 1430 1559 1683 1680 1557 1679 1797
8 1561 1431 1560 1684 1681 1558 1680 1798
8 1563 1433 1564 1686 1683 1559 1682 1800
8 1684 1560 1432 1562 1801 1683 1563 1685
8 1565 1435 1566 1688 1685 1563 1686 1802
8 1566 1436 1567 1689 1686 1564 1687 1803
8 1568 1438 1569 1691 1688 1566 1689 1805
8 1569 1439 1570 1692 1689 1567 1690 1806
8 1571 1441 1572 1694 1691 1569 1692 1808
8 1442 1572 1692 1570 1573 1695 1809 1693
8 1574 1444 1575 1696 1694 1572 1695 1810
8 1614 1485 1592 1712 1699 1577 1697 1813
8 1579 1449 1577 1699 1701 1578 1698 1815
8 1615 1486 1614 1735 1702 1579 1699 1816
8 1701 1578 1700 1818 1581 1450 1580 1704
8 1582 1451 1579 1702 1705 1581 1701 1819
8 1704 1580 1703 1820 1584 1452 1583 1706
8 1705 1581 1704 1821 1585 1453 1584 1707
8 1707 1584 1706 1822 1587 1456 1586 1708
8 1710 1589 1506 1633 1824 1709 1632 1751
8 1594 1463 1589 1710 1716 1593 1709 1824
8 1752 1633 1710 1825 1634 1507 1590 1711
8 1595 1464 1590 1711 1717 1594 1710 1825
8 1830 1714 1592 1712 1733 1611 1485 1614
8 1603 1477 1593 1716 1725 1607 1715 1834
8 1599 1473 1594 1717 1721 1603 1716 1835
8 1837 1722 1623 1736 1718 1600 1496 1616
8 1719 1601 1722 1837 1597 1471 1600 1718
8 1602 1720 1598 1472 1723 1838 1719 1601
8 1720 1602 1473 1599 1839 1724 1603 1721
8 1723 1605 1726 1840 1601 1475 1604 1722
8 1840 1726 1628 1743 1722 1604 1501 1623
8 1724 1606 1727 1841 1602 1476 1605 1723
8 1725 1607 1728 1842 1603 1477 1606 1724
8 1612 1482 1608 1731 1733 1611 1730 1849
8 1741 1627 1730 1849 1622 1504 1608 1731
8 1613 1483 1609 1732 1734 1612 1731 1850
8 1618 1495 1622 1738 1732 1609 1731 1850
8 1615 1486 1612 1734 1735 1614 1733 1851
8 1852 1743 1626 1737 1736 1623 1499 1617
8 1853 1745 1625 1739 1737 1626 1500 1619
8 1855 1742 1622 1738 1740 1624 1497 1621
8 1856 1744 1624 1740 1739 1625 1498 1620
8 1741 1627 1504 1622 1857 1746 1631 1742
8 1742 1631 1505 1624 1858 1749 1630 1744
8 1859 1747 1629 1745 1743 1628 1502 1626
8 1860 1748 1630 1744 1745 1629 1503 1625
8 1644 1528 1651 1761 1751 1632 1750 1865
8 1637 1520 1644 1755 1752 1633 1751 1866
8 1754 1646 1522 1636 1867 1760 1643 1753
8 1657 1535 1658 1774 1753 1643 1760 1867
8 1639 1523 1646 1754 1756 1648 1763 1868
8 1641 1521 1645 1758 1755 1644 1761 1869
8 1757 1649 1526 1640 1870 1766 1648 1756
8 1642 1525 1649 1757 1759 1647 1765 1871
8 1759 1647 1762 1872 1642 1525 1645 1758
8 1760 1650 1767 1874 1646 1531 1655 1763
8 1658 1536 1659 1775 1760 1650 1767 1874
8 1762 1652 1768 1875 1645 1529 1651 1761
8 1764 1653 1769 1876 1647 1530 1652 1762
8 1656 1766 1877 1773 1532 1648 1763 1655
8 1771 1879 1765 1654 1653 1764 1647 1530
8 1533 1649 1765 1654 1656 1766 1880 1772
8 1662 1542 1664 1778 1774 1658 1775 1887
8 1664 1543 1665 1779 1775 1659 1776 1888
8 1778 1664 1541 1661 1890 1779 1663 1777
8 1666 1548 1668 1781 1777 1663 1779 1890
8 1782 1669 1780 1891 1668 1550 1665 1779
8 1670 1551 1671 1784 1781 1668 1782 1893
8 1671 1552 1672 1785 1782 1669 1783 1894
8 1790 1675 1785 1896 1674 1554 1671 1784
8 1675 1555 1673 1789 1785 1672 1786 1897
8 1792 1676 1788 1903 1678 1556 1673 1789
8 1795 1678 1789 1904 1681 1558 1675 1790
8 1792 1676 1556 1678 1906 1791 1677 1794
8 1680 1557 1679 1797 1794 1677 1793 1909
8 1910 1794 1678 1795 1798 1680 1558 1681
8 1683 1559 1682 1800 1797 1679 1796 1912
8 1684 1560 1683 1801 1798 1680 1797 1913
8 1686 1564 1687 1803 1800 1682 1799 1915
8 1685 1563 1686 1802 1801 1683 1800 1916
8 1688 1566 1689 1805 1802 1686 1803 1917
8 1689 1567 1690 1806 1803 1687 1804 1918
8 1691 1569 1692 1808 1805 1689 1806 1920
8 1692 1570 1693 1809 1806 1690 1807 1921
8 1694 1572 1695 1810 1808 1692 1809 1922
8 1829 1713 1811 1926 1712 1592 1697 1813
8 1813 1697 1812 1928 1699 1577 1698 1815
8 1735 1614 1712 1828 1816 1699 1813 1929
8 1815 1698 1814 1931 1701 1578 1700 1818
8 1702 1579 1699 1816 1819 1701 1815 1932
8 1818 1700 1817 1933 1704 1580 1703 1820
8 1819 1701 1818 1934 1705 1581 1704 1821
8 1821 1704 1820 1935 1707 1584 1706 1822
8 1824 1709 1632 1751 1937 1823 1750 1865
8 1716 1593 1709 1824 1834 1715 1823 1937
8 1825 1710 1633 1752 1938 1824 1751 1866
8 1717 1594 1710 1825 1835 1716 1824 1938
8 1945 1830 1712 1828 1851 1733 1614 1735
8 1830 1714 1831 1946 1712 1592 1713 1829
8 1947 1832 1714 1830 1849 1730 1611 1733
8 1843 1729 1607 1725 1950 1833 1715 1834
8 1721 1603 1716 1835 1836 1725 1834 1951
8 1836 1725 1842 1953 1721 1603 1724 1839
8 1723 1838 1719 1601 1840 1954 1837 1722
8 1954 1840 1743 1852 1837 1722 1623 1736
8 1724 1839 1720 1602 1841 1955 1838 1723
8 1841 1727 1844 1956 1723 1605 1726 1840
8 1956 1844 1747 1859 1840 1726 1628 1743
8 1728 1842 1724 1606 1845 1957 1841 1727
8 1725 1607 1729 1843 1842 1728 1846 1958
8 1741 1627 1746 1857 1849 1730 1848 1965
8 1734 1612 1731 1850 1851 1733 1849 1966
8 1854 1741 1849 1966 1738 1622 1731 1850
8 1967 1859 1745 1853 1852 1743 1626 1737
8 1968 1860 1744 1856 1853 1745 1625 1739
8 1854 1741 1622 1738 1969 1857 1742 1855
8 1855 1742 1624 1740 1970 1858 1744 1856
8 1857 1746 1631 1742 1971 1861 1749 1858
8 1858 1749 1630 1744 1972 1863 1748 1860
8 1859 1747 1862 1973 1745 1629 1748 1860
8 1875 1768 1864 1977 1761 1651 1750 1865
8 1755 1644 1761 1869 1866 1751 1865 1978
8 1867 1760 1874 1979 1754 1646 1763 1868
8 1774 1658 1775 1887 1867 1760 1874 1979
8 1870 1766 1648 1756 1980 1877 1763 1868
8 1872 1762 1875 1981 1758 1645 1761 1869
8 1757 1649 1766 1870 1871 1765 1880 1982
8 1983 1879 1764 1873 1871 1765 1647 1759
8 1873 1764 1876 1984 1759 1647 1762 1872
8 1877 1773 1655 1763 1986 1881 1767 1874
8 1775 1659 1776 1888 1874 1767 1881 1986
8 1876 1769 1882 1987 1762 1652 1768 1875
8 1878 1770 1883 1988 1764 1653 1769 1876
8 1880 1772 1656 1766 1989 1886 1773 1877
8 1878 1770 1653 1764 1990 1884 1771 1879
8 1765 1654 1772 1880 1879 1771 1885 1991
8 1778 1664 1779 1890 1887 1775 1888 1997
8 1998 1889 1776 1888 1891 1780 1665 1779
8 1893 1782 1891 2000 1781 1668 1779 1890
8 1894 1783 1892 2001 1782 1669 1780 1891
8 1784 1671 1785 1896 1893 1782 1894 2003
8 1897 1786 1895 2004 1785 1672 1783 1894
8 1790 1675 1789 1904 1896 1785 1897 2006
8 1901 1787 1898 2007 1789 1673 1786 1897
8 1903 1788 1900 2013 1789 1673 1787 1901
8 1792 1676 1791 1906 1903 1788 1902 2016
8 1907 1792 1903 2017 1795 1678 1789 1904
8 1906 1791 1677 1794 2019 1905 1793 1909
8 1907 1792 1678 1795 2020 1906 1794 1910
8 1797 1679 1796 1912 1909 1793 1908 2022
8 1798 1680 1797 1913 1910 1794 1909 2023
8 1800 1682 1799 1915 1912 1796 1911 2025
8 1801 1683 1800 1916 1913 1797 1912 2026
8 1803 1687 1804 1918 1915 1799 1914 2028
8 1802 1686 1803 1917 1916 1800 1915 2029
8 1805 1689 1806 1920 1917 1803 1918 2030
8 1806 1690 1807 1921 1918 1804 1919 2031
8 1808 1692 1809 1922 1920 1806 1921 2032
8 1939 1826 1924 2037 1829 1713 1811 1926
8 1926 1811 1925 2039 1813 1697 1812 1928
8 1944 1829 1926 2040 1828 1712 1813 1929
8 1928 1812 1927 2042 1815 1698 1814 1931
8 1929 1813 1928 2043 1816 1699 1815 1932
8 1931 1814 1930 2044 1818 1700 1817 1933
8 1932 1815 1931 2045 1819 1701 1818 1934
8 1934 1818 1933 2046 1821 1704 1820 1935
8 2048 1936 1823 1937 1977 1864 1750 1865
8 1950 1833 1715 1834 2048 1936 1823 1937
8 1938 1824 1751 1866 2049 1937 1865 1978
8 1835 1716 1824 1938 1951 1834 1937 2049
8 1939 1826 1713 1829 2053 1942 1831 1946
8 1940 1827 1923 2035 2053 1942 1826 1939
8 1945 1830 1946 2058 1828 1712 1829 1944
8 2059 1947 1830 1945 1966 1849 1733 1851
8 1947 1832 1730 1849 2060 1948 1848 1965
8 1947 1832 1948 2060 1830 1714 1831 1946
8 1959 1847 1729 1843 2063 1949 1833 1950
8 1952 1843 1725 1836 2064 1950 1834 1951
8 1836 1725 1843 1952 1953 1842 1958 2066
8 1953 1842 1957 2067 1839 1724 1841 1955
8 1841 1955 1838 1723 1956 2068 1954 1840
8 2068 1956 1859 1967 1954 1840 1743 1852
8 1956 1844 1960 2069 1859 1747 1862 1973
8 1845 1957 1841 1727 1960 2069 1956 1844
8 1728 1842 1957 1845 1846 1958 2071 1961
8 1962 2072 1959 1847 1846 1958 1843 1729
8 1971 1861 1964 2077 1857 1746 1848 1965
8 1854 1741 1857 1969 1966 1849 1965 2078
8 1967 1859 1973 2079 1853 1745 1860 1968
8 1970 1858 1744 1856 2080 1972 1860 1968
8 1969 1857 1742 1855 2081 1971 1858 1970
8 1971 1861 1749 1858 2082 1974 1863 1972
8 1973 1862 1975 2083 1860 1748 1863 1972
8 1987 1882 1976 2086 1875 1768 1864 1977
8 1981 1875 1977 2087 1869 1761 1865 1978
8 1980 1877 1763 1868 2088 1986 1874 1979
8 1887 1775 1888 1997 1979 1874 1986 2088
8 1880 1982 2089 1989 1766 1870 1980 1877
8 1984 1876 1987 2090 1872 1762 1875 1981
8 1765 1871 1983 1879 1880 1982 2091 1991
8 1985 1878 1764 1873 2092 1990 1879 1983
8 1985 1878 1988 2093 1873 1764 1876 1984
8 2094 1992 1881 1986 1998 1889 1776 1888
8 1986 1881 1992 2094 1877 1773 1886 1989
8 1988 1883 1993 2095 1876 1769 1882 1987
8 1878 1770 1884 1990 1988 1883 1994 2096
8 1991 1885 1772 1880 2097 1996 1886 1989
8 1879 1771 1885 1991 1990 1884 1995 2098
8 2103 1998 1888 1997 2000 1891 1779 1890
8 2104 1999 1889 1998 2001 1892 1780 1891
8 2003 1894 2001 2106 1893 1782 1891 2000
8 2004 1895 2002 2107 1894 1783 1892 2001
8 2006 1897 2004 2109 1896 1785 1894 2003
8 2007 1898 2005 2110 1897 1786 1895 2004
8 2014 1901 2007 2112 1904 1789 1897 2006
8 2011 1899 2008 2113 1901 1787 1898 2007
8 2119 2010 1899 2011 2013 1900 1787 1901
8 2016 1902 2012 2122 1903 1788 1900 2013
8 2017 1903 2013 2123 1904 1789 1901 2014
8 1906 1791 1905 2019 2016 1902 2015 2125
8 1907 1792 1906 2020 2017 1903 2016 2126
8 1909 1793 1908 2022 2019 1905 2018 2128
8 2020 1906 1794 1910 2129 2019 1909 2023
8 1912 1796 1911 2025 2022 1908 2021 2131
8 1913 1797 1912 2026 2023 1909 2022 2132
8 1915 1799 1914 2028 2025 1911 2024 2134
8 1916 1800 1915 2029 2026 1912 2025 2135
8 1918 1804 1919 2031 2028 1914 2027 2136
8 1917 1803 1918 2030 2029 1915 2028 2137
8 1920 1806 1921 2032 2030 1918 2031 2138
8 1940 1827 1941 2054 2035 1923 2033 2140
8 2035 1923 2034 2143 1939 1826 1924 2037
8 2037 1924 2036 2146 1926 1811 1925 2039
8 2051 1939 2037 2147 1944 1829 1926 2040
8 2039 1925 2038 2149 1928 1812 1927 2042
8 2040 1926 2039 2150 1929 1813 1928 2043
8 2042 1927 2041 2151 1931 1814 1930 2044
8 2043 1928 2042 2152 1932 1815 1931 2045
8 2045 1931 2044 2153 1934 1818 1933 2046
8 2155 2047 1936 2048 2086 1976 1864 1977
8 2063 1949 1833 1950 2155 2047 1936 2048
8 2156 2048 1937 2049 2087 1977 1865 1978
8 2064 1950 1834 1951 2156 2048 1937 2049
8 2051 1939 1829 1944 2160 2053 1946 2058
8 2052 1940 2035 2144 2160 2053 1939 2051
8 2053 1942 1831 1946 2163 2057 1948 2060
8 2055 1943 1827 1940 2163 2057 1942 2053
8 2055 1943 2056 2164 1940 1827 1941 2054
8 2059 1947 1849 1966 2167 2060 1965 2078
8 2059 1947 2060 2167 1945 1830 1946 2058
8 2077 1964 2061 2168 1965 1848 1948 2060
8 2070 1963 1847 1959 2170 2062 1949 2063
8 2065 1959 1843 1952 2171 2063 1950 2064
8 2173 2072 1958 2066 2065 1959 1843 1952
8 1953 1842 1958 2066 2067 1957 2071 2174
8 2068 1956 2069 2175 1967 1859 1973 2079
8 2067 1957 2069 2175 1955 1841 1956 2068
8 1845 1957 2069 1960 1961 2071 2176 2073
8 2069 1960 2073 2176 1973 1862 1975 2083
8 2070 1963 2075 2177 1959 1847 1962 2072
8 1846 1958 2071 1961 1962 2072 2178 2074
8 2077 1964 1861 1971 2182 2076 1974 2082
8 2081 1971 2077 2183 1969 1857 1965 2078
8 2079 1973 2083 2184 1968 1860 1972 2080
8 2081 1971 1858 1970 2185 2082 1972 2080
8 2083 1975 2084 2186 1972 1863 1974 2082
8 2086 1976 1882 1987 2189 2085 1993 2095
8 2090 1987 2086 2190 1981 1875 1977 2087
8 2191 2094 1986 2088 2103 1998 1888 1997
8 2088 1986 2094 2191 1980 1877 1989 2089
8 1991 2091 2192 2097 1880 1982 2089 1989
8 2093 1988 2095 2193 1984 1876 1987 2090
8 1879 1983 2092 1990 1991 2091 2194 2098
8 1985 1878 1990 2092 2093 1988 2096 2195
8 2097 1996 1886 1989 2196 2099 1992 2094
8 2196 2099 1992 2094 2104 1999 1889 1998
8 1994 2096 1988 1883 2100 2197 2095 1993
8 2096 1994 1884 1990 2198 2101 1995 2098
8 1995 2098 2199 2102 1885 1991 2097 1996
8 2203 2104 1998 2103 2106 2001 1891 2000
8 2107 2002 2105 2204 2001 1892 1999 2104
8 2109 2004 2107 2206 2003 1894 2001 2106
8 2110 2005 2108 2207 2004 1895 2002 2107
8 2112 2007 2110 2209 2006 1897 2004 2109
8 2113 2008 2111 2210 2007 1898 2005 2110
8 2120 2011 2113 2212 2014 1901 2007 2112
8 2117 2009 2114 2213 2011 1899 2008 2113
8 2219 2116 2009 2117 2119 2010 1899 2011
8 2222 2118 2010 2119 2122 2012 1900 2013
8 2223 2119 2011 2120 2123 2013 1901 2014
8 2016 1902 2015 2125 2122 2012 2121 2225
8 2126 2016 2122 2226 2017 1903 2013 2123
8 2019 1905 2018 2128 2125 2015 2124 2228
8 2020 1906 2019 2129 2126 2016 2125 2229
8 2022 1908 2021 2131 2128 2018 2127 2231
8 2023 1909 2022 2132 2129 2019 2128 2232
8 2025 1911 2024 2134 2131 2021 2130 2234
8 2026 1912 2025 2135 2132 2022 2131 2235
8 1914 2028 2134 2024 2027 2136 2236 2133
8 2029 1915 2028 2137 2135 2025 2134 2237
8 2030 1918 2031 2138 2137 2028 2136 2238
8 2157 2050 2139 2240 2054 1941 2033 2140
8 2052 1940 2054 2161 2144 2035 2140 2242
8 2140 2033 2141 2243 2035 1923 2034 2143
8 2143 2034 2142 2246 2037 1924 2036 2146
8 2144 2035 2143 2247 2051 1939 2037 2147
8 2146 2036 2145 2249 2039 1925 2038 2149
8 2147 2037 2146 2250 2040 1926 2039 2150
8 2149 2038 2148 2251 2042 1927 2041 2151
8 2150 2039 2149 2252 2043 1928 2042 2152
8 2152 2042 2151 2253 2045 1931 2044 2153
8 2255 2154 2047 2155 2189 2085 1976 2086
8 2170 2062 1949 2063 2255 2154 2047 2155
8 2256 2155 2048 2156 2190 2086 1977 2087
8 2171 2063 1950 2064 2256 2155 2048 2156
8 2258 2159 2050 2157 2164 2056 1941 2054
8 2160 2053 1946 2058 2262 2163 2060 2167
8 2162 2055 1940 2052 2262 2163 2053 2160
8 2162 2055 2164 2263 2052 1940 2054 2161
8 2163 2057 1948 2060 2264 2165 2061 2168
8 2055 1943 2057 2163 2164 2056 2165 2264
8 2182 2076 2166 2268 2077 1964 2061 2168
8 2183 2077 2168 2269 2078 1965 2060 2167
8 2070 1963 2062 2170 2177 2075 2169 2271
8 2172 2070 1959 2065 2272 2170 2063 2171
8 2172 2070 2177 2273 2065 1959 2072 2173
8 2066 1958 2072 2173 2174 2071 2178 2274
8 2067 1957 2071 2174 2175 2069 2176 2275
8 2175 2069 2176 2275 2079 1973 2083 2184
8 2071 1961 2074 2178 2176 2073 2179 2276
8 2176 2073 2179 2276 2083 1975 2084 2186
8 2072 1962 2075 2177 2178 2074 2180 2277
8 2182 2076 1974 2082 2280 2181 2084 2186
8 2183 2077 1971 2081 2281 2182 2082 2185
8 2184 2083 2186 2282 2080 1972 2082 2185
8 2189 2085 1993 2095 2285 2188 2100 2197
8 2190 2086 1987 2090 2286 2189 2095 2193
8 2192 2097 1989 2089 2287 2196 2094 2191
8 2287 2196 2094 2191 2203 2104 1998 2103
8 2194 2098 1991 2091 2288 2199 2097 2192
8 2195 2096 2197 2289 2093 1988 2095 2193
8 2096 2195 2290 2198 1990 2092 2194 2098
8 2097 1996 2099 2196 2199 2102 2200 2291
8 2196 2099 1999 2104 2291 2200 2105 2204
8 2100 2197 2292 2201 1994 2096 2198 2101
8 1995 2098 2198 2101 2102 2199 2293 2202
8 2206 2107 2204 2296 2106 2001 2104 2203
8 2207 2108 2205 2297 2107 2002 2105 2204
8 2209 2110 2207 2299 2109 2004 2107 2206
8 2210 2111 2208 2300 2110 2005 2108 2207
8 2212 2113 2210 2302 2112 2007 2110 2209
8 2213 2114 2211 2303 2113 2008 2111 2210
8 2220 2117 2213 2305 2120 2011 2113 2212
8 2216 2115 2214 2306 2117 2009 2114 2213
8 2216 2115 2009 2117 2311 2217 2116 2219
8 2219 2116 2010 2119 2314 2218 2118 2222
8 2315 2219 2117 2220 2223 2119 2011 2120
8 2122 2012 2121 2225 2222 2118 2221 2317
8 2318 2222 2119 2223 2226 2122 2013 2123
8 2125 2015 2124 2228 2225 2121 2224 2320
8 2126 2016 2125 2229 2226 2122 2225 2321
8 2128 2018 2127 2231 2228 2124 2227 2323
8 2129 2019 2128 2232 2229 2125 2228 2324
8 2131 2021 2130 2234 2231 2127 2230 2326
8 2132 2022 2131 2235 2232 2128 2231 2327
8 2134 2024 2133 2236 2234 2130 2233 2328
8 2135 2025 2134 2237 2235 2131 2234 2329
8 2137 2028 2136 2238 2237 2134 2236 2330
8 2157 2050 2158 2259 2240 2139 2239 2332
8 2257 2157 2240 2334 2161 2054 2140 2242
8 2240 2139 2241 2335 2140 2033 2141 2243
8 2242 2140 2243 2337 2144 2035 2143 2247
8 2243 2141 2244 2338 2143 2034 2142 2246
8 2246 2142 2245 2341 2146 2036 2145 2249
8 2247 2143 2246 2342 2147 2037 2146 2250
8 2249 2145 2248 2343 2149 2038 2148 2251
8 2250 2146 2249 2344 2150 2039 2149 2252
8 2252 2149 2251 2345 2152 2042 2151 2253
8 2169 2271 2347 2254 2062 2170 2255 2154
8 2189 2085 2188 2285 2255 2154 2254 2347
8 2348 2255 2155 2256 2286 2189 2086 2190
8 2272 2170 2063 2171 2348 2255 2155 2256
8 2349 2258 2157 2257 2263 2164 2054 2161
8 2258 2159 2261 2351 2157 2050 2158 2259
8 2258 2159 2056 2164 2351 2261 2165 2264
8 2262 2163 2060 2167 2355 2264 2168 2269
8 2162 2055 2163 2262 2263 2164 2264 2355
8 2357 2266 2165 2264 2268 2166 2061 2168
8 2268 2166 2076 2182 2361 2267 2181 2280
8 2281 2182 2268 2362 2183 2077 2168 2269
8 2271 2169 2270 2364 2177 2075 2180 2277
8 2172 2070 2170 2272 2273 2177 2271 2365
8 2072 2173 2274 2178 2177 2273 2366 2277
8 2071 2174 2275 2176 2178 2274 2367 2276
8 2275 2176 2276 2367 2184 2083 2186 2282
8 2283 2187 2084 2186 2368 2278 2179 2276
8 2178 2074 2180 2277 2276 2179 2278 2368
8 2283 2187 2279 2370 2186 2084 2181 2280
8 2281 2182 2082 2185 2371 2280 2186 2282
8 2188 2285 2374 2284 2100 2197 2292 2201
8 2286 2189 2095 2193 2375 2285 2197 2289
8 2192 2097 2196 2287 2288 2199 2291 2376
8 2287 2196 2104 2203 2376 2291 2204 2296
8 2194 2098 2199 2288 2290 2198 2293 2377
8 2289 2197 2096 2195 2378 2292 2198 2290
8 2291 2200 2105 2204 2379 2294 2205 2297
8 2199 2102 2200 2291 2293 2202 2294 2379
8 2198 2101 2202 2293 2292 2201 2295 2380
8 2299 2207 2297 2383 2206 2107 2204 2296
8 2300 2208 2298 2384 2207 2108 2205 2297
8 2302 2210 2300 2386 2209 2110 2207 2299
8 2303 2211 2301 2387 2210 2111 2208 2300
8 2305 2213 2303 2389 2212 2113 2210 2302
8 2306 2214 2304 2390 2213 2114 2211 2303
8 2310 2216 2306 2392 2220 2117 2213 2305
8 2308 2215 2307 2393 2216 2115 2214 2306
8 2308 2215 2115 2216 2396 2309 2217 2311
8 2310 2216 2117 2220 2398 2311 2219 2315
8 2311 2217 2116 2219 2399 2312 2218 2314
8 2314 2218 2118 2222 2402 2313 2221 2317
8 2315 2219 2119 2223 2403 2314 2222 2318
8 2225 2121 2224 2320 2317 2221 2316 2405
8 2226 2122 2225 2321 2318 2222 2317 2406
8 2228 2124 2227 2323 2320 2224 2319 2408
8 2229 2125 2228 2324 2321 2225 2320 2409
8 2231 2127 2230 2326 2323 2227 2322 2411
8 2232 2128 2231 2327 2324 2228 2323 2412
8 2234 2130 2233 2328 2326 2230 2325 2413
8 2235 2131 2234 2329 2327 2231 2326 2414
8 2237 2134 2236 2330 2329 2234 2328 2415
8 2259 2158 2260 2352 2332 2239 2331 2417
8 2257 2157 2259 2350 2334 2240 2332 2419
8 2240 2139 2239 2332 2335 2241 2333 2420
8 2334 2240 2335 2422 2242 2140 2243 2337
8 2335 2241 2336 2423 2243 2141 2244 2338
8 2337 2243 2338 2425 2247 2143 2246 2342
8 2338 2244 2339 2426 2246 2142 2245 2341
8 2341 2245 2340 2428 2249 2145 2248 2343
8 2342 2246 2341 2429 2250 2146 2249 2344
8 2344 2249 2343 2430 2252 2149 2251 2345
8 2188 2285 2347 2254 2284 2374 2432 2346
8 2347 2254 2346 2432 2271 2169 2270 2364
8 2365 2271 2170 2272 2433 2347 2255 2348
8 2286 2189 2285 2375 2348 2255 2347 2433
8 2349 2258 2351 2435 2257 2157 2259 2350
8 2349 2258 2164 2263 2435 2351 2264 2355
8 2259 2158 2261 2351 2352 2260 2354 2437
8 2356 2265 2354 2437 2264 2165 2261 2351
8 2441 2357 2264 2355 2362 2268 2168 2269
8 2356 2265 2165 2264 2442 2358 2266 2357
8 2443 2359 2266 2357 2361 2267 2166 2268
8 2370 2279 2360 2446 2280 2181 2267 2361
8 2362 2268 2182 2281 2447 2361 2280 2371
8 2180 2277 2368 2278 2270 2364 2449 2363
8 2271 2365 2273 2177 2364 2450 2366 2277
8 2372 2283 2186 2282 2451 2368 2276 2367
8 2178 2274 2367 2276 2277 2366 2451 2368
8 2283 2187 2278 2368 2370 2279 2369 2452
8 2372 2283 2370 2453 2282 2186 2280 2371
8 2284 2374 2455 2373 2201 2292 2380 2295
8 2375 2285 2197 2289 2456 2374 2292 2378
8 2376 2291 2204 2296 2457 2379 2297 2383
8 2288 2199 2291 2376 2377 2293 2379 2457
8 2198 2290 2378 2292 2293 2377 2458 2380
8 2293 2202 2294 2379 2380 2295 2381 2459
8 2384 2298 2381 2459 2297 2205 2294 2379
8 2386 2300 2384 2463 2299 2207 2297 2383
8 2387 2301 2385 2464 2300 2208 2298 2384
8 2389 2303 2387 2466 2302 2210 2300 2386
8 2390 2304 2388 2467 2303 2211 2301 2387
8 2392 2306 2390 2469 2305 2213 2303 2389
8 2393 2307 2391 2470 2306 2214 2304 2390
8 2395 2308 2393 2472 2310 2216 2306 2392
8 2308 2215 2309 2396 2393 2307 2394 2473
8 2395 2308 2216 2310 2475 2396 2311 2398
8 2396 2309 2217 2311 2476 2397 2312 2399
8 2398 2311 2219 2315 2478 2399 2314 2403
8 2399 2312 2218 2314 2479 2400 2313 2402
8 2317 2221 2316 2405 2402 2313 2401 2482
8 2403 2314 2222 2318 2483 2402 2317 2406
8 2320 2224 2319 2408 2405 2316 2404 2485
8 2321 2225 2320 2409 2406 2317 2405 2486
8 2323 2227 2322 2411 2408 2319 2407 2488
8 2324 2228 2323 2412 2409 2320 2408 2489
8 2326 2230 2325 2413 2411 2322 2410 2490
8 2327 2231 2326 2414 2412 2323 2411 2491
8 2329 2234 2328 2415 2414 2326 2413 2492
8 2417 2331 2260 2352 2494 2416 2353 2438
8 2350 2259 2352 2436 2419 2332 2417 2496
8 2332 2239 2331 2417 2420 2333 2418 2497
8 2334 2240 2332 2419 2422 2335 2420 2499
8 2420 2333 2421 2500 2335 2241 2336 2423
8 2422 2335 2423 2502 2337 2243 2338 2425
8 2423 2336 2424 2503 2338 2244 2339 2426
8 2425 2338 2426 2505 2342 2246 2341 2429
8 2426 2339 2427 2506 2341 2245 2340 2428
8 2429 2341 2428 2507 2344 2249 2343 2430
8 2432 2346 2284 2374 2509 2431 2373 2455
8 2432 2346 2431 2509 2364 2270 2363 2449
8 2375 2285 2374 2456 2433 2347 2432 2510
8 2347 2433 2365 2271 2432 2510 2450 2364
8 2350 2259 2351 2435 2436 2352 2437 2514
8 2440 2356 2437 2514 2355 2264 2351 2435
8 2352 2260 2354 2437 2438 2353 2439 2516
8 2356 2265 2358 2442 2437 2354 2439 2516
8 2440 2356 2264 2355 2518 2442 2357 2441
8 2519 2443 2357 2441 2447 2361 2268 2362
8 2443 2359 2444 2520 2357 2266 2358 2442
8 2443 2359 2267 2361 2520 2444 2360 2446
8 2446 2360 2279 2370 2523 2445 2369 2452
8 2453 2370 2446 2524 2371 2280 2361 2447
8 2449 2363 2448 2525 2368 2278 2369 2452
8 2366 2277 2364 2450 2451 2368 2449 2526
8 2372 2283 2368 2451 2453 2370 2452 2527
8 2455 2373 2295 2380 2529 2454 2382 2460
8 2456 2374 2292 2378 2530 2455 2380 2458
8 2377 2293 2379 2457 2458 2380 2459 2531
8 2463 2384 2459 2531 2383 2297 2379 2457
8 2533 2461 2382 2460 2459 2381 2295 2380
8 2464 2385 2461 2533 2384 2298 2381 2459
8 2466 2387 2464 2537 2386 2300 2384 2463
8 2467 2388 2465 2538 2387 2301 2385 2464
8 2469 2390 2467 2540 2389 2303 2387 2466
8 2470 2391 2468 2541 2390 2304 2388 2467
8 2472 2393 2470 2543 2392 2306 2390 2469
8 2393 2307 2394 2473 2470 2391 2471 2544
8 2395 2308 2396 2475 2472 2393 2473 2546
8 2396 2309 2397 2476 2473 2394 2474 2547
8 2475 2396 2311 2398 2549 2476 2399 2478
8 2476 2397 2312 2399 2550 2477 2400 2479
8 2478 2399 2314 2403 2552 2479 2402 2483
8 2479 2400 2313 2402 2553 2480 2401 2482
8 2405 2316 2404 2485 2482 2401 2481 2556
8 2406 2317 2405 2486 2483 2402 2482 2557
8 2408 2319 2407 2488 2485 2404 2484 2559
8 2409 2320 2408 2489 2486 2405 2485 2560
8 2411 2322 2410 2490 2488 2407 2487 2561
8 2412 2323 2411 2491 2489 2408 2488 2562
8 2414 2326 2413 2492 2491 2411 2490 2563
8 2513 2434 2493 2565 2438 2353 2416 2494
8 2496 2417 2352 2436 2567 2494 2438 2515
8 2494 2416 2495 2568 2417 2331 2418 2497
8 2419 2332 2417 2496 2499 2420 2497 2570
8 2497 2418 2498 2571 2420 2333 2421 2500
8 2499 2420 2500 2573 2422 2335 2423 2502
8 2500 2421 2501 2574 2423 2336 2424 2503
8 2502 2423 2503 2576 2425 2338 2426 2505
8 2503 2424 2504 2577 2426 2339 2427 2506
8 2505 2426 2506 2578 2429 2341 2428 2507
8 2509 2431 2373 2455 2580 2508 2454 2529
8 2509 2431 2508 2580 2449 2363 2448 2525
8 2432 2510 2581 2509 2374 2456 2530 2455
8 2432 2510 2450 2364 2509 2581 2526 2449
8 2583 2511 2434 2513 2516 2439 2353 2438
8 2436 2352 2437 2514 2515 2438 2516 2588
8 2440 2356 2442 2518 2514 2437 2516 2588
8 2442 2358 2444 2520 2516 2439 2517 2589
8 2519 2443 2520 2591 2441 2357 2442 2518
8 2519 2443 2361 2447 2591 2520 2446 2524
8 2446 2360 2445 2523 2520 2444 2521 2592
8 2525 2448 2522 2593 2452 2369 2445 2523
8 2524 2446 2370 2453 2594 2523 2452 2527
8 2526 2449 2525 2595 2451 2368 2452 2527
8 2534 2462 2528 2597 2460 2382 2454 2529
8 2530 2455 2380 2458 2598 2529 2460 2532
8 2599 2533 2460 2532 2531 2459 2380 2458
8 2537 2464 2533 2599 2463 2384 2459 2531
8 2534 2462 2382 2460 2601 2535 2461 2533
8 2538 2465 2535 2601 2464 2385 2461 2533
8 2540 2467 2538 2604 2466 2387 2464 2537
8 2541 2468 2539 2605 2467 2388 2465 2538
8 2543 2470 2541 2607 2469 2390 2467 2540
8 2470 2391 2471 2544 2541 2468 2542 2608
8 2472 2393 2473 2546 2543 2470 2544 2610
8 2473 2394 2474 2547 2544 2471 2545 2611
8 2475 2396 2476 2549 2546 2473 2547 2613
8 2476 2397 2477 2550 2547 2474 2548 2614
8 2549 2476 2399 2478 2616 2550 2479 2552
8 2479 2400 2480 2553 2550 2477 2551 2617
8 2552 2479 2402 2483 2619 2553 2482 2557
8 2482 2401 2481 2556 2553 2480 2554 2620
8 2485 2404 2484 2559 2556 2481 2555 2623
8 2486 2405 2485 2560 2557 2482 2556 2624
8 2488 2407 2487 2561 2559 2484 2558 2625
8 2489 2408 2488 2562 2560 2485 2559 2626
8 2491 2411 2490 2563 2562 2488 2561 2627
8 2513 2434 2512 2585 2565 2493 2564 2630
8 2586 2513 2565 2632 2515 2438 2494 2567
8 2565 2493 2566 2633 2494 2416 2495 2568
8 2567 2494 2568 2635 2496 2417 2497 2570
8 2568 2495 2569 2636 2497 2418 2498 2571
8 2570 2497 2571 2638 2499 2420 2500 2573
8 2571 2498 2572 2639 2500 2421 2501 2574
8 2573 2500 2574 2641 2502 2423 2503 2576
8 2574 2501 2575 2642 2503 2424 2504 2577
8 2576 2503 2577 2643 2505 2426 2506 2578
8 2597 2528 2579 2645 2529 2454 2508 2580
8 2580 2508 2579 2645 2525 2448 2522 2593
8 2581 2509 2455 2530 2646 2580 2529 2598
8 2581 2509 2580 2646 2526 2449 2525 2595
8 2583 2511 2582 2648 2513 2434 2512 2585
8 2583 2511 2439 2516 2648 2582 2517 2589
8 2649 2583 2513 2586 2588 2516 2438 2515
8 2589 2517 2444 2520 2653 2587 2521 2592
8 2518 2442 2520 2591 2588 2516 2589 2654
8 2593 2522 2590 2655 2523 2445 2521 2592
8 2524 2446 2523 2594 2591 2520 2592 2656
8 2595 2525 2593 2657 2527 2452 2523 2594
8 2602 2536 2596 2659 2534 2462 2528 2597
8 2600 2534 2597 2660 2532 2460 2529 2598
8 2600 2534 2460 2532 2661 2601 2533 2599
8 2604 2538 2601 2661 2537 2464 2533 2599
8 2602 2536 2462 2534 2663 2603 2535 2601
8 2601 2535 2465 2538 2663 2603 2539 2605
8 2607 2541 2605 2665 2540 2467 2538 2604
8 2608 2542 2606 2666 2541 2468 2539 2605
8 2543 2470 2544 2610 2607 2541 2608 2668
8 2544 2471 2545 2611 2608 2542 2609 2669
8 2546 2473 2547 2613 2610 2544 2611 2671
8 2547 2474 2548 2614 2611 2545 2612 2672
8 2549 2476 2550 2616 2613 2547 2614 2674
8 2550 2477 2551 2617 2614 2548 2615 2675
8 2552 2479 2553 2619 2616 2550 2617 2677
8 2553 2480 2554 2620 2617 2551 2618 2678
8 2557 2482 2556 2624 2619 2553 2620 2680
8 2556 2481 2555 2623 2620 2554 2621 2681
8 2559 2484 2558 2625 2623 2555 2622 2683
8 2560 2485 2559 2626 2624 2556 2623 2684
8 2562 2488 2561 2627 2626 2559 2625 2685
8 2690 2629 2564 2630 2650 2584 2512 2585
8 2586 2513 2585 2651 2632 2565 2630 2691
8 2630 2564 2631 2692 2565 2493 2566 2633
8 2632 2565 2633 2694 2567 2494 2568 2635
8 2633 2566 2634 2695 2568 2495 2569 2636
8 2635 2568 2636 2697 2570 2497 2571 2638
8 2636 2569 2637 2698 2571 2498 2572 2639
8 2638 2571 2639 2700 2573 2500 2574 2641
8 2639 2572 2640 2701 2574 2501 2575 2642
8 2641 2574 2642 2702 2576 2503 2577 2643
8 2597 2528 2596 2659 2645 2579 2644 2704
8 2645 2579 2644 2704 2593 2522 2590 2655
8 2660 2597 2645 2705 2598 2529 2580 2646
8 2646 2580 2645 2705 2595 2525 2593 2657
8 2650 2584 2512 2585 2707 2647 2582 2648
8 2648 2582 2517 2589 2707 2647 2587 2653
8 2649 2583 2648 2708 2586 2513 2585 2651
8 2649 2583 2516 2588 2708 2648 2589 2654
8 2655 2590 2652 2710 2592 2521 2587 2653
8 2654 2589 2520 2591 2711 2653 2592 2656
8 2657 2593 2655 2712 2594 2523 2592 2656
8 2602 2536 2603 2663 2659 2596 2658 2714
8 2662 2602 2659 2715 2600 2534 2597 2660
8 2662 2602 2534 2600 2717 2663 2601 2661
8 2661 2601 2538 2604 2717 2663 2605 2665
8 2666 2606 2664 2718 2605 2539 2603 2663
8 2668 2608 2666 2720 2607 2541 2605 2665
8 2608 2542 2609 2669 2666 2606 2667 2721
8 2610 2544 2611 2671 2668 2608 2669 2723
8 2611 2545 2612 2672 2669 2609 2670 2724
8 2613 2547 2614 2674 2671 2611 2672 2726
8 2614 2548 2615 2675 2672 2612 2673 2727
8 2616 2550 2617 2677 2674 2614 2675 2729
8 2617 2551 2618 2678 2675 2615 2676 2730
8 2619 2553 2620 2680 2677 2617 2678 2732
8 2620 2554 2621 2681 2678 2618 2679 2733
8 2624 2556 2623 2684 2680 2620 2681 2735
8 2681 2621 2555 2623 2736 2682 2622 2683
8 2626 2559 2625 2685 2684 2623 2683 2737
8 2688 2628 2584 2650 2740 2686 2647 2707
8 2688 2628 2687 2742 2650 2584 2629 2690
8 2690 2629 2689 2745 2630 2564 2631 2692
8 2746 2690 2630 2691 2709 2650 2585 2651
8 2691 2630 2692 2747 2632 2565 2633 2694
8 2692 2631 2693 2748 2633 2566 2634 2695
8 2694 2633 2695 2750 2635 2568 2636 2697
8 2695 2634 2696 2751 2636 2569 2637 2698
8 2697 2636 2698 2753 2638 2571 2639 2700
8 2698 2637 2699 2754 2639 2572 2640 2701
8 2700 2639 2701 2755 2641 2574 2642 2702
8 2659 2596 2658 2714 2704 2644 2703 2757
8 2704 2644 2703 2757 2655 2590 2652 2710
8 2660 2597 2659 2715 2705 2645 2704 2758
8 2705 2645 2704 2758 2657 2593 2655 2712
8 2759 2706 2647 2707 2710 2652 2587 2653
8 2709 2650 2585 2651 2760 2707 2648 2708
8 2708 2648 2589 2654 2760 2707 2653 2711
8 2712 2655 2710 2761 2656 2592 2653 2711
8 2763 2713 2658 2714 2718 2664 2603 2663
8 2662 2602 2663 2717 2715 2659 2714 2764
8 2720 2666 2718 2767 2665 2605 2663 2717
8 2768 2719 2664 2718 2721 2667 2606 2666
8 2668 2608 2669 2723 2720 2666 2721 2770
8 2669 2609 2670 2724 2721 2667 2722 2771
8 2671 2611 2672 2726 2723 2669 2724 2773
8 2672 2612 2673 2727 2724 2670 2725 2774
8 2674 2614 2675 2729 2726 2672 2727 2776
8 2675 2615 2676 2730 2727 2673 2728 2777
8 2677 2617 2678 2732 2729 2675 2730 2779
8 2678 2618 2679 2733 2730 2676 2731 2780
8 2680 2620 2681 2735 2732 2678 2733 2782
8 2733 2679 2621 2681 2783 2734 2682 2736
8 2735 2681 2623 2684 2784 2736 2683 2737
8 2740 2686 2647 2707 2787 2738 2706 2759
8 2688 2628 2686 2740 2742 2687 2739 2789
8 2743 2688 2650 2709 2790 2740 2707 2760
8 2742 2687 2741 2792 2690 2629 2689 2745
8 2743 2688 2742 2793 2709 2650 2690 2746
8 2745 2689 2744 2795 2692 2631 2693 2748
8 2746 2690 2745 2796 2691 2630 2692 2747
8 2747 2692 2748 2797 2694 2633 2695 2750
8 2748 2693 2749 2798 2695 2634 2696 2751
8 2750 2695 2751 2800 2697 2636 2698 2753
8 2751 2696 2752 2801 2698 2637 2699 2754
8 2753 2698 2754 2802 2700 2639 2701 2755
8 2763 2713 2756 2804 2714 2658 2703 2757
8 2759 2706 2652 2710 2804 2756 2703 2757
8 2715 2659 2714 2764 2758 2704 2757 2805
8 2758 2704 2757 2805 2712 2655 2710 2761
8 2806 2759 2707 2760 2761 2710 2653 2711
8 2765 2716 2762 2808 2718 2664 2713 2763
8 2809 2763 2714 2764 2767 2718 2663 2717
8 2765 2716 2664 2718 2811 2766 2719 2768
8 2813 2768 2718 2767 2770 2721 2666 2720
8 2814 2769 2719 2768 2771 2722 2667 2721
8 2723 2669 2724 2773 2770 2721 2771 2816
8 2724 2670 2725 2774 2771 2722 2772 2817
8 2726 2672 2727 2776 2773 2724 2774 2819
8 2727 2673 2728 2777 2774 2725 2775 2820
8 2729 2675 2730 2779 2776 2727 2777 2822
8 2730 2676 2731 2780 2777 2728 2778 2823
8 2732 2678 2733 2782 2779 2730 2780 2825
8 2780 2731 2679 2733 2826 2781 2734 2783
8 2782 2733 2681 2735 2827 2783 2736 2784
8 2830 2785 2738 2787 2804 2756 2706 2759
8 2789 2739 2686 2740 2832 2786 2738 2787
8 2790 2740 2707 2760 2833 2787 2759 2806
8 2742 2687 2739 2789 2792 2741 2788 2835
8 2743 2688 2740 2790 2793 2742 2789 2836
8 2792 2741 2791 2838 2745 2689 2744 2795
8 2793 2742 2792 2839 2746 2690 2745 2796
8 2795 2744 2794 2841 2748 2693 2749 2798
8 2796 2745 2795 2842 2747 2692 2748 2797
8 2797 2748 2798 2843 2750 2695 2751 2800
8 2798 2749 2799 2844 2751 2696 2752 2801
8 2800 2751 2801 2845 2753 2698 2754 2802
8 2808 2762 2803 2847 2763 2713 2756 2804
8 2809 2763 2804 2848 2764 2714 2757 2805
8 2806 2759 2710 2761 2848 2804 2757 2805
8 2765 2716 2766 2811 2808 2762 2807 2850
8 2810 2765 2808 2851 2767 2718 2763 2809
8 2810 2765 2718 2767 2852 2811 2768 2813
8 2811 2766 2719 2768 2853 2812 2769 2814
8 2855 2814 2768 2813 2816 2771 2721 2770
8 2856 2815 2769 2814 2817 2772 2722 2771
8 2773 2724 2774 2819 2816 2771 2817 2858
8 2774 2725 2775 2820 2817 2772 2818 2859
8 2776 2727 2777 2822 2819 2774 2820 2861
8 2777 2728 2778 2823 2820 2775 2821 2862
8 2779 2730 2780 2825 2822 2777 2823 2864
8 2823 2778 2731 2780 2865 2824 2781 2826
8 2825 2780 2733 2782 2866 2826 2783 2827
8 2869 2828 2785 2830 2847 2803 2756 2804
8 2871 2829 2786 2832 2830 2785 2738 2787
8 2872 2830 2787 2833 2848 2804 2759 2806
8 2789 2739 2786 2832 2835 2788 2831 2874
8 2836 2789 2740 2790 2875 2832 2787 2833
8 2792 2741 2788 2835 2838 2791 2834 2877
8 2793 2742 2789 2836 2839 2792 2835 2878
8 2838 2791 2837 2880 2795 2744 2794 2841
8 2839 2792 2838 2881 2796 2745 2795 2842
8 2841 2794 2840 2882 2798 2749 2799 2844
8 2842 2795 2841 2883 2797 2748 2798 2843
8 2843 2798 2844 2884 2800 2751 2801 2845
8 2886 2846 2803 2847 2850 2807 2762 2808
8 2851 2808 2847 2887 2809 2763 2804 2848
8 2850 2807 2766 2811 2889 2849 2812 2853
8 2810 2765 2811 2852 2851 2808 2850 2890
8 2852 2811 2768 2813 2891 2853 2814 2855
8 2853 2812 2769 2814 2892 2854 2815 2856
8 2894 2856 2814 2855 2858 2817 2771 2816
8 2817 2772 2818 2859 2856 2815 2857 2895
8 2819 2774 2820 2861 2858 2817 2859 2897
8 2820 2775 2821 2862 2859 2818 2860 2898
8 2822 2777 2823 2864 2861 2820 2862 2900
8 2823 2778 2824 2865 2862 2821 2863 2901
8 2864 2823 2780 2825 2902 2865 2826 2866
8 2904 2867 2828 2869 2886 2846 2803 2847
8 2869 2828 2868 2906 2830 2785 2829 2871
8 2907 2869 2830 2872 2887 2847 2804 2848
8 2871 2829 2870 2909 2832 2786 2831 2874
8 2910 2871 2832 2875 2872 2830 2787 2833
8 2835 2788 2831 2874 2877 2834 2873 2912
8 2836 2789 2832 2875 2878 2835 2874 2913
8 2877 2834 2876 2915 2838 2791 2837 2880
8 2839 2792 2835 2878 2881 2838 2877 2916
8 2880 2837 2879 2917 2841 2794 2840 2882
8 2881 2838 2880 2918 2842 2795 2841 2883
8 2883 2841 2882 2919 2843 2798 2844 2884
8 2921 2885 2846 2886 2889 2849 2807 2850
8 2922 2886 2847 2887 2890 2850 2808 2851
8 2889 2849 2812 2853 2924 2888 2854 2892
8 2890 2850 2811 2852 2925 2889 2853 2891
8 2891 2853 2814 2855 2926 2892 2856 2894
8 2892 2854 2815 2856 2927 2893 2857 2895
8 2858 2817 2859 2897 2894 2856 2895 2929
8 2859 2818 2860 2898 2895 2857 2896 2930
8 2861 2820 2862 2900 2897 2859 2898 2932
8 2862 2821 2863 2901 2898 2860 2899 2933
8 2864 2823 2865 2902 2900 2862 2901 2934
8 2904 2867 2846 2886 2936 2903 2885 2921
8 2904 2867 2903 2936 2869 2828 2868 2906
8 2937 2904 2869 2907 2922 2886 2847 2887
8 2906 2868 2905 2939 2871 2829 2870 2909
8 2907 2869 2906 2940 2872 2830 2871 2910
8 2909 2870 2908 2942 2874 2831 2873 2912
8 2910 2871 2909 2943 2875 2832 2874 2913
8 2912 2873 2911 2945 2877 2834 2876 2915
8 2878 2835 2874 2913 2916 2877 2912 2946
8 2915 2876 2914 2947 2880 2837 2879 2917
8 2916 2877 2915 2948 2881 2838 2880 2918
8 2918 2880 2917 2949 2883 2841 2882 2919
8 2921 2885 2849 2889 2951 2920 2888 2924
8 2952 2921 2886 2922 2925 2889 2850 2890
8 2924 2888 2854 2892 2954 2923 2893 2927
8 2925 2889 2853 2891 2955 2924 2892 2926
8 2926 2892 2856 2894 2956 2927 2895 2929
8 2895 2857 2896 2930 2927 2893 2928 2957
8 2897 2859 2898 2932 2929 2895 2930 2959
8 2898 2860 2899 2933 2930 2896 2931 2960
8 2900 2862 2901 2934 2932 2898 2933 2961
8 2936 2903 2885 2921 2963 2935 2920 2951
8 2936 2903 2935 2963 2906 2868 2905 2939
8 2937 2904 2886 2922 2964 2936 2921 2952
8 2937 2904 2936 2964 2907 2869 2906 2940
8 2939 2905 2938 2966 2909 2870 2908 2942
8 2940 2906 2939 2967 2910 2871 2909 2943
8 2942 2908 2941 2969 2912 2873 2911 2945
8 2943 2909 2942 2970 2913 2874 2912 2946
8 2945 2911 2944 2971 2915 2876 2914 2947
8 2946 2912 2945 2972 2916 2877 2915 2948
8 2948 2915 2947 2973 2918 2880 2917 2949
8 2951 2920 2888 2924 2975 2950 2923 2954
8 2952 2921 2889 2925 2976 2951 2924 2955
8 2927 2893 2928 2957 2954 2923 2953 2978
8 2955 2924 2892 2926 2979 2954 2927 2956
8 2929 2895 2930 2959 2956 2927 2957 2980
8 2930 2896 2931 2960 2957 2928 2958 2981
8 2932 2898 2933 2961 2959 2930 2960 2982
8 2951 2920 2950 2975 2963 2935 2962 2984
8 2963 2935 2962 2984 2939 2905 2938 2966
8 2964 2936 2921 2952 2985 2963 2951 2976
8 2964 2936 2963 2985 2940 2906 2939 2967
8 2966 2938 2965 2987 2942 2908 2941 2969
8 2967 2939 2966 2988 2943 2909 2942 2970
8 2969 2941 2968 2989 2945 2911 2944 2971
8 2970 2942 2969 2990 2946 2912 2945 2972
8 2972 2945 2971 2991 2948 2915 2947 2973
8 2954 2923 2953 2978 2975 2950 2974 2993
8 2976 2951 2924 2955 2994 2975 2954 2979
8 2957 2928 2958 2981 2978 2953 2977 2995
8 2956 2927 2957 2980 2979 2954 2978 2996
8 2959 2930 2960 2982 2980 2957 2981 2997
8 2984 2962 2983 2999 2966 2938 2965 2987
8 2975 2950 2974 2993 2984 2962 2983 2999
8 2976 2951 2975 2994 2985 2963 2984 3000
8 2985 2963 2984 3000 2967 2939 2966 2988
8 2987 2965 2986 3001 2969 2941 2968 2989
8 2988 2966 2987 3002 2970 2942 2969 2990
8 2990 2969 2989 3003 2972 2945 2971 2991
8 2978 2953 2977 2995 2993 2974 2992 3004
8 2979 2954 2978 2996 2994 2975 2993 3005
8 2980 2957 2981 2997 2996 2978 2995 3006
8 2974 2993 2999 2983 2992 3004 3007 2998
8 2983 2999 2987 2965 2998 3007 3001 2986
8 3000 2984 2999 3008 2988 2966 2987 3002
8 2994 2975 2993 3005 3000 2984 2999 3008
8 3002 2987 3001 3009 2990 2969 2989 3003
8 2996 2978 2995 3006 3005 2993 3004 3010
8 3005 2993 3004 3010 3008 2999 3007 3011
8 3008 2999 3007 3011 3002 2987 3001 3009

CELL_TYPES 1910
12
12
12
12
12
12
12
12
12
12
12
12
12
12
12
12
12
12
12
12
12
12
12
12
12
12
12
12
12
12
12
12
12
12
12
12
12
12
12
12
12
12
12
12
12
12
12
12
12
12
12
12
12
12
12
12
12
12
12
12
12
12
12
12
12
12
12
12
12
12
12
12
12
12
12
12
12
12
12
12
12
12
12
12
12
12
12
12
12
12
12
12
12
12
12
12
12
12
12
12
12
12
12
12
12
12
12
12
12
12
12
12
12
12
12
12
12
12
12
12
12
12
12
12
12
12
12
12
12
12
12
12
12
12
12
12
12
12
12
12
12
12
12
12
12
12
12
12
12
12
12
12
12
12
12
12
12
12
12
12
12
12
12
12
12
12
12
12
12
12
12
12
12
12
12
12
12
12
12
12
12
12
12
12
12
12
12
12
12
12
12
12
12
12
12
12
12
12
12
12
12
12
12
12
12
12
12
12
12
12
12
12
12
12
12
12
12
12
12
12
12
12
12
12
12
12
12
12
12
12
12
12
12
12
12
12
12
12
12
12
12
12
12
12
12
12
12
12
12
12
12
12
12
12
12
12
12
12
12
12
12
12
12
12
12
12
12
12
12
12
12
12
12
12
12
12
12
12
12
12
12
12
12
12
12
12
12
12
12
12
12
12
12
12
12
12
12
12
12
12
12
12
12
12
12
12
12
12
12
12
12
12
12
12
12
12
12
12
12
12
12
12
12
12
12
12
12
12
12
12
12
12
12
12
12
12
12
12
12
12
12
12
12
12
12
12
12
12
12
12
12
12
12
12
12
12
12
12
12
12
12
12
12
12
12
12
12
12
12
12
12
12
12
12
12
12
12
12
12
12
12
12
12
12
12
12
12
12
12
12
12
12
12
12
12
12
12
12
12
12
12
12
12
12
12
12
12
12
12
12
12
12
12
12
12
12
12
12
12
12
12
12
12
12
12
12
12
12
12
12
12
12
12
12
12
12
12
12
12
12
12
12
12
12
12
12
12
12
12
12
12
12
12
12
12
12
12
12
12
12
12
12
12
12
12
12
12
12
12
12
12
12
12
12
12
12
12
12
12
12
12
12
12
12
12
12
12
12
12
12
12
12
12
12
12
12
12
12
12
12
12
12
12
12
12
12
12
12
12
12
12
12
12
12
12
12
12
12
12
12
12
12
12
12
12
12
12
12
12
12
12
12
12
12
12
12
12
12
12
12
12
12
12
12
12
12
12
12
12
12
12
12
12
12
12
12
12
12
12
12
12
12
12
12
12
12
12
12
12
12
12
12
12
12
12
12
12
12
12
12
12
12
12
12
12
12
12
12
12
12
12
12
12
12
12
12
12
12
12
12
12
12
12
12
12
12
12
12
12
12
12
12
12
12
12
12
12
12
12
12
12
12
12
12
12
12
12
12
12
12
12
12
12
12
12
12
12
12
12
12
12
12
12
12
12
12
12
12
12
12
12
12
12
12
12
12
12
12
12
12
12
12
12
12
12
12
12
12
12
12
12
12
12
12
12
12
12
12
12
12
12
12
12
12
12
12
12
12
12
12
12
12
12
12
12
12
12
12
12
12
12
12
12
12
12
12
12
12
12
12
12
12
12
12
12
12
12
12
12
12
12
12
12
12
12
12
12
12
12
12
12
12
12
12
12
12
12
12
12
12
12
12
12
12
12
12
12
12
12
12
12
12
12
12
12
12
12
12
12
12
12
12
12
12
12
12
12
12
12
12
12
12
12
12
12
12
12
12
12
12
12
12
12
12
12
12
12
12
12
12
12
12
12
12
12
12
12
12
12
12
12
12
12
12
12
12
12
12
12
12
12
12
12
12
12
12
12
12
12
12
12
12
12
12
12
12
12
12
12
12
12
12
12
12
12
12
12
12
12
12
12
12
12
12
12
12
12
12
12
12
12
12
12
12
12
12
12
12
12
12
12
12
12
12
12
12
12
12
12
12
12
12
12
12
12
12
12
12
12
12
12
12
12
12
12
12
12
12
12
12
12
12
12
12
12
12
12
12
12
12
12
12
12
12
12
12
12
12
12
12
12
12
12
12
12
12
12
12
12
12
12
12
12
12
12
12
12
12
12
12
12
12
12
12
12
12
12
12
12
12
12
12
12
12
12
12
12
12
12
12
12
12
12
12
12
12
12
12
12
12
12
12
12
12
12
12
12
12
12
12
12
12
12
12
12
12
12
12
12
12
12
12
12
12
12
12
12
12
12
12
12
12
12
12
12
12
12
12
12
12
12
12
12
12
12
12
12
12
12
12
12
12
12
12
12
12
12
12
12
12
12
12
12
12
12
12
12
12
12
12
12
12
12
12
12
12
12
12
12
12
12
12
12
12
12
12
12
12
12
12
12
12
12
12
12
12
12
12
12
12
12
12
12
12
12
12
12
12
12
12
12
12
12
12
12
12
12
12
12
12
12
12
12
12
12
12
12
12
12
12
12
12
12
12
12
12
12
12
12
12
12
12
12
12
12
12
12
12
12
12
12
12
12
12
12
12
12
12
12
12
12
12
12
12
12
12
12
12
12
12
12
12
12
12
12
12
12
12
12
12
12
12
12
12
12
12
12
12
12
12
12
12
12
12
12
12
12
12
12
12
12
12
12
12
12
12
12
12
12
12
12
12
12
12
12
12
12
12
12
12
12
12
12
12
12
12
12
12
12
12
12
12
12
12
12
12
12
12
12
12
12
12
12
12
12
12
12
12
12
12
12
12
12
12
12
12
12
12
12
12
12
12
12
12
12
12
12
12
12
12
12
12
12
12
12
12
12
12
12
12
12
12
12
12
12
12
12
12
12
12
12
12
12
12
12
12
12
12
12
12
12
12
12
12
12
12
12
12
12
12
12
12
12
12
12
12
12
12
12
12
12
12
12
12
12
12
12
12
12
12
12
12
12
12
12
12
12
12
12
12
12
12
12
12
12
12
12
12
12
12
12
12
12
12
12
12
12
12
12
12
12
12
12
12
12
12
12
12
12
12
12
12
12
12
12
12
12
12
12
12
12
12
12
12
12
12
12
12
12
12
12
12
12
12
12
12
12
12
12
12
12
12
12
12
12
12
12
12
12
12
12
12
12
12
12
12
12
12
12
12
12
12
12
12
12
12
12
12
12
12
12
12
12
12
12
12
12
12
12
12
12
12
12
12
12
12
12
12
12
12
12
12
12
12
12
12
12
12
12
12
12
12
12
12
12
12
12
12
12
12
12
12
12
12
12
12
12
12
12
12
12
12
12
12
12
12
12
12
12
12
12
12
12
12
12
12
12
12
12
12
12
12
12
12
12
12
12
12
12
12
12
12
12
12
12
12
12
12
12
12
12
12
12
12
12
12
12
12
12
12
12
12
12
12
12
12
12
12
12
12
12
12
12
12
12
12
12
12
12
12
12
12
12
12
12
12
12
12
12
12
12
12
12
12
12
12
12
12
12
12
12
12
12
12
12
12
12
12
12
12
12
12
12
12
12
12
12
12
12
12
12
12
12
12
12
12
12
12
12
12
12
12
12
12
12
12
12
12
12
12
12
12
12
12
12
12
12
12
12
12
12
12
12
12
12
12
12
12
12
12
12
12
12
12
12
12
12
12
12
12
12
12
12
12
12
12
12
12
12
12
12
12
12
12
12
12
12
12
12
12
12
12
12
12
12
12
12
12
12
12
12
12
12
12
12
12
12
12
12
12
12
12
12
12
12
12
12
12
12
12
12
12
12
12
12
12
12
12
12
12
12
12
12
12
12
12
12
12
12
12
12
12
12
12
12
12
12
12
12
12
12
12
12
12
12
12
12
12
12
12
12
12
12
12
12
12
12
12
12
12
12
12
12
12
12
12
12
12
12
12
12
12
12
12
12
12
12
12
12
12
12
12
12
12
12
12
12
12
12
12
12
12
12
12
12
12
12
12
12
12
12
12
12
12
12
12
12
12
12
12
12
12
12
12
12
12
12
12
12
12
12
12
12
12
12
12
12
12
12
12
12
12
12
12
12
12
12
12
12
12
12
12
12
12
12
12
12
12
12
12
12
12
12
12
12
12
12
12
12
12
12
12
12
12
12
12
12
12
12
12
12
12
12
12
12
12
12
12
12
12
12
12
12
12
12
12
12
12
12
12
12
12
12
12
12
12
12
12
12
12
12
12
12
12
12
12
12
12
12
12
12
12
12
12
12
12
12
12
12
12
12
12
12
12
12
12
12
12
12
12
12
12
12
12
12
12
12
12
12
12
12
12
12
12
12
12
12
12
12
12
12
12
12
12
12
12
12
12
12
12
12
12
12
12
12
12
12
12
12
12

POINT_DATA 3012
SCALARS Jp_lamdaP float 4
LOOKUP_TABLE default
0.999865 1 1 0.999865
1 1 1 1
0.999869 1 1 0.999869
0.999823 1 1 0.999823
0.999864 1 1 0.999864
0.99986 1 1 0.99986
0.999353 1 1 0.999353
1 1 1 1
1 1 1 1
1 1 1 1
0.999937 1 1 0.999937
0.999514 1 1 0.999514
0.999785 1 1 0.999785
0.999815 1 1 0.999815
0.999869 1 1 0.999869
0.999838 1 1 0.999838
0.999865 1 1 0.999865
0.999872 1 1 0.999872
0.999356 1 1 0.999356
1 1 1 1
0.999804 1 1 0.999804
0.999847 1 1 0.999847
0.999224 1 1 0.999224
0.999321 1 1 0.999321
0.999881 1 1 0.999881
0.999387 1 1 0.999387
0.998633 1.00009 1 0.998542
1 1 1 1
0.999921 1 1 0.999921
0.999935 1 1 0.999935
1 1 1 1
0.999522 1 1 0.999522
0.999837 1 1 0.999837
0.99986 1 1 0.99986
0.999434 1 1 0.999434
1 1 1 1
0.999524 1 1 0.999524
0.999611 1 1 0.999611
0.99859 1 1 0.99859
1 1 1 1
1 1 1 1
0.999905 1 1 0.999905
1 1 1 1
0.999806 1 1 0.999806
0.999154 1 1 0.999154
1 1 1 1
0.999341 1 1 0.999341
0.99985 1 1 0.99985
0.999877 1 1 0.999877
0.999867 1 1 0.999867
0.999361 1 1 0.999361
0.99989 1 1 0.99989
0.999819 1 1 0.999819
0.999891 1 1 0.999891
0.999859 1 1 0.999859
0.999224 1 1 0.999224
0.999391 1 1 0.999391
0.999324 1 1 0.999324
0.998698 1.00017 1 0.998527
1 1 1 1
0.999792 1 1 0.999792
0.999314 1 1 0.999314
0.999189 1 1 0.999189
0.999273 1 1 0.999273
0.999836 1.0016 1 0.998244
0.998783 1.00041 1 0.998378
0.999935 1 1 0.999935
0.999502 1 1 0.999502
0.998647 1 1 0.998647
1.00349 1.00568 1 0.997818
1 1 1 1
1 1 1 1
1 1 1 1
0.999531 1 1 0.999531
1 1 1 1
1 1 1 1
0.999359 1 1 0.999359
0.999986 1 1 0.999986
0.999466 1 1 0.999466
0.99966 1 1 0.99966
0.998587 1 1 0.998587
1 1 1 1
0.999956 1 1 0.999956
0.9993 1 1 0.9993
0.999396 1 1 0.999396
0.99962 1.00145 1 0.998171
0.999794 1 1 0.999794
0.998495 1.00001 1 0.998489
0.998725 1 1 0.998725
0.998297 1.00024 1 0.998053
1 1 1 1
1 1 1 1
1 1 1 1
1 1 1 1
1 1 1 1
0.999899 1 1 0.999899
0.999229 1 1 0.999229
0.99991 1 1 0.99991
0.999299 1 1 0.999299
1 1 1 1
0.999139 1 1 0.999139
0.999313 1 1 0.999313
0.999696 1.00183 1 0.997874
0.999376 1 1 0.999376
1.00086 1.0029 1 0.997962
0.999803 1 1 0.999803
0.999831 1 1 0.999831
0.999899 1 1 0.999899
0.99987 1 1 0.99987
0.999226 1 1 0.999226
0.999329 1 1 0.999329
0.999397 1 1 0.999397
0.99876 1.00025 1 0.998512
1 1 1 1
0.999806 1 1 0.999806
0.999164 1 1 0.999164
0.999187 1 1 0.999187
0.999967 1 1 0.999967
0.999554 1 1 0.999554
0.999276 1 1 0.999276
0.999815 1.00161 1 0.998204
0.998634 1.00001 1 0.998628
0.998914 1.00051 1 0.998406
1.00388 1.00607 1 0.997822
0.999161 1 1 0.999161
0.999165 1 1 0.999165
0.999354 1.00132 1 0.998034
0.999892 1.00177 1 0.998128
0.999499 1.00124 1 0.998261
1.00994 1.01236 1 0.997608
1 1 1 1
1.00531 1.00758 1 0.997746
0.999722 1 1 0.999722
0.998687 1 1 0.998687
1.00223 1.00435 1 0.997888
1.01341 1.01587 1 0.997575
0.999881 1 1 0.999881
0.999418 1 1.00021 0.999211
1 1 1 1
1 1 1 1
0.999365 1 1 0.999365
1 1 1 1
0.999662 1 1 0.999662
0.999471 1 1 0.999471
0.998584 1 1 0.998584
1 1 1 1
0.999969 1 1 0.999969
0.999355 1 1 0.999355
0.999447 1 1 0.999447
0.999323 1.00115 1 0.998174
0.999809 1 1 0.999809
0.998492 1 1 0.998492
0.998724 1 1 0.998724
0.998403 1.00037 1 0.998037
0.999892 1 1 0.999892
0.999991 1 1 0.999991
0.999393 1 1 0.999393
1.00043 1.00237 1 0.99806
0.998797 1.00046 1 0.998333
1.00701 1.00942 1 0.997612
0.998937 1 1 0.998937
1.00066 1.00272 1 0.997942
0.998904 1.00019 1.00057 0.998146
1.00031 1.00244 1 0.997876
1 1 1 1
1 1 1 1
1 1 1 1
0.999929 1 1 0.999929
1 1 1 1
1 1 1 1
1 1 1 1
0.999253 1 1 0.999253
0.999179 1 1 0.999179
1 1 1 1
1 1 1 1
0.999141 1 1 0.999141
0.99927 1 1 0.99927
0.999905 1.00204 1 0.997874
0.999281 1 1 0.999281
1.00086 1.00291 1 0.997962
0.999131 1 1 0.999131
0.999113 1.00129 1 0.997824
1.00037 1.00244 1 0.997927
1.0131 1.01574 1 0.997403
1.00084 1.00285 1 0.997997
1.01341 1.01598 1 0.997477
1 1 1 1
0.99982 1 1 0.99982
0.999002 1 1 0.999002
0.999187 1 1 0.999187
1 1 1 1
0.999606 1 1 0.999606
0.999279 1 1 0.999279
0.999793 1.00163 1 0.998164
0.999044 1.00061 1 0.998435
0.998624 1.00001 1 0.99861
1.00425 1.00644 1 0.997826
0.999158 1 1 0.999158
0.999164 1 1 0.999164
0.999223 1.00128 1 0.997944
0.999927 1.00177 1 0.998156
1 1 1 1
0.999717 1 1 0.999717
0.998736 1 1 0.998736
0.999474 1.00122 1 0.99826
1.00985 1.01231 1 0.99757
1.00229 1.00442 1 0.997877
1.00569 1.00793 1 0.997776
1.01292 1.01537 1 0.997581
0.999871 1 1 0.999871
0.999424 1 1.00021 0.999213
0.998879 1.00104 1 0.997844
0.999739 1.00166 1 0.998086
1.01103 1.01356 1 0.997501
1.01046 1.013 1 0.997491
1.00735 1.00967 1 0.997702
1.02116 1.02374 1 0.997481
0.999813 1 1 0.999813
1.01533 1.01782 1 0.997558
0.998881 1 1.00003 0.998848
0.999459 1.00144 1 0.998019
1.01109 1.01351 1 0.997621
1.0171 1.01957 1 0.99758
0.999194 1 1.00012 0.999072
0.999393 1 1 0.999393
0.999793 1 1.00112 0.998677
0.999319 1 1 0.999319
1 1 1 1
0.999981 1 1 0.999981
0.999423 1 1 0.999423
0.999003 1.00083 1 0.998176
0.999819 1 1 0.999819
0.998761 1 1.00004 0.998723
0.998495 1 1 0.998495
0.998535 1.00051 1 0.998021
0.99991 1 1 0.99991
0.999995 1 1 0.999995
0.999442 1 1.00005 0.999396
1.00018 1.00213 1 0.99806
0.998639 1.0003 1 0.998338
1.00667 1.00908 1 0.99761
0.998959 1 1.00002 0.99894
1.00014 1.0022 1 0.997953
0.998952 1.00034 1.00047 0.998142
1.00042 1.00257 1 0.997862
1 1 1 1
0.999173 1 1.00002 0.999157
0.999637 1 1.00002 0.999621
0.999503 1 1.00065 0.998855
1.00983 1.01233 1 0.997525
1.00414 1.00637 1 0.997783
1.01611 1.01874 1 0.997417
0.998826 1 1.00044 0.998389
1.00478 1.00704 1 0.997763
1.00194 1.00253 1.00158 0.997835
1.0066 1.00889 1 0.997731
0.999869 1 1 0.999869
1 1 1 1
1 1 1 1
1 1 1 1
1 1 1 1
0.999964 1 1 0.999964
1 1 1 1
0.999918 1 1 0.999918
1 1 1 1
0.999282 1 1 0.999282
0.99922 1 1 0.99922
1.00094 1.00298 1 0.997961
1.0001 1.00223 1 0.997874
0.999142 1 1 0.999142
1 1 1 1
0.99913 1 1 0.99913
0.999259 1.00144 1 0.997824
1.00054 1.00262 1 0.997927
1.01295 1.01558 1 0.997402
1.00077 1.00278 1 0.997996
1.0134 1.01597 1 0.997476
0.998794 1.00098 1 0.997816
1.01216 1.01484 1 0.997357
1.01368 1.01628 1 0.997448
1.02684 1.0295 1 0.997419
1.0124 1.01495 1 0.997494
1.02558 1.02822 1 0.99744
0.999155 1 1 0.999155
0.999162 1 1 0.999162
0.9991 1.00125 1 0.997855
0.999963 1.00178 1 0.998184
1 1 1 1
0.999712 1 1 0.999712
0.998785 1 1 0.998785
0.999449 1.00119 1 0.998259
1.00977 1.01227 1 0.997532
1.00606 1.00827 1 0.997805
1.00233 1.00447 1 0.997865
1.01251 1.01496 1 0.997587
0.999861 1 1 0.999861
0.999502 1 1.00029 0.999214
0.998826 1.00101 1 0.997819
0.999703 1.00162 1 0.998084
1.01125 1.01378 1 0.997497
1.01062 1.01312 1 0.997528
0.999803 1 1 0.999803
0.998845 1 1 0.998845
0.999814 1.00176 1 0.998053
1.00759 1.00991 1 0.9977
1.02149 1.02406 1 0.99749
1.01042 1.01286 1 0.997587
1.01518 1.01766 1 0.997561
1.01742 1.01988 1 0.99758
0.999171 1 1.0001 0.999075
0.999848 1 1.00117 0.998679
0.999542 1 1.00015 0.99939
1.01126 1.01385 1 0.997445
1.01149 1.01399 1 0.997526
1.02495 1.02762 1 0.997409
1.02343 1.02606 1 0.997433
1.01739 1.0199 1 0.997537
1.02357 1.02601 1 0.997625
0.998981 1 1 0.998981
1.01907 1.02151 1 0.997611
0.998559 1.00023 1 0.998329
1.00334 1.00573 1 0.997628
1.01448 1.01707 1 0.997456
1.01679 1.01911 1 0.997723
0.999547 1 1 0.999547
0.998651 1 1 0.998651
1.00032 1 1.00156 0.998764
0.999386 1 1.00088 0.998508
0.999957 1.0019 1 0.99806
0.999998 1 1 0.999998
0.999927 1 1 0.999927
0.999483 1 1.00008 0.999398
0.998487 1.00014 1 0.998343
1.00632 1.00873 1 0.997608
0.998943 1 1 0.998943
0.998945 1.00048 1.00033 0.998138
0.999601 1.00164 1 0.997964
1.00043 1.00259 1 0.997848
1 1 1 1
0.999199 1 1.00004 0.999157
0.999628 1 1 0.999628
0.999575 1 1.00072 0.998851
1.00964 1.01214 1 0.997521
1.0032 1.00543 1 0.997784
1.01616 1.0188 1 0.997415
0.998843 1 1.00045 0.998394
1.00466 1.0069 1 0.997777
1.00198 1.00244 1.00173 0.997823
1.00658 1.0088 1 0.997798
1 1 1 1
0.999761 1 1 0.999761
0.998825 1 1.00018 0.998647
0.999594 1 1.00051 0.999082
0.999701 1 1.00112 0.998579
1.01944 1.02211 1 0.997389
1.01061 1.01307 1 0.997571
1.01631 1.01893 1 0.997428
1.00056 1.00054 1.00199 0.998031
1.00765 1.00998 1 0.997692
1.00508 1.00668 1.00086 0.997555
0.999852 1 1 0.999852
0.999489 1 1 0.999489
0.99988 1 1 0.99988
0.999871 1 1 0.999871
1 1 1 1
1 1 1 1
1 1 1 1
1 1 1 1
1 1 1 1
0.999988 1 1 0.999988
1 1 1 1
0.999955 1 1 0.999955
1 1 1 1
0.999908 1 1 0.999908
1 1 1 1
1.00067 1.00268 1 0.997995
1.00067 1.00275 1 0.997927
1.01326 1.01582 1 0.997475
1.01277 1.01541 1 0.997401
0.999442 1.00162 1 0.997824
0.99913 1 1 0.99913
0.99888 1.00107 1 0.997815
1.01213 1.01481 1 0.997358
1.01339 1.01598 1 0.997447
1.0271 1.02975 1 0.997429
1.01206 1.0146 1 0.997492
1.02507 1.0277 1 0.997439
1.01166 1.01435 1 0.997347
1.02597 1.02863 1 0.997408
1.02716 1.0298 1 0.997434
1.03148 1.03407 0.999926 0.997569
1.02185 1.02449 1 0.997421
1.02631 1.02872 1 0.997656
0.998795 1.001 1 0.997794
0.999671 1.00159 1 0.998081
1.01145 1.01399 1 0.997493
1.01077 1.01324 1 0.997565
0.999793 1 1 0.999793
0.998842 1 1 0.998842
1.00017 1.00208 1 0.998087
1.00784 1.01017 1 0.997697
1.02183 1.02439 1 0.997499
1.01504 1.01752 1 0.997565
1.00964 1.01212 1 0.997553
1.0177 1.02017 1 0.99758
0.999088 1 1.00001 0.999078
0.999851 1 1.00117 0.99868
0.999678 1 1.00029 0.999387
1.01138 1.01401 1 0.99741
1.01156 1.01408 1 0.997524
1.02459 1.02724 1 0.997421
1.0237 1.02633 1 0.997436
0.998996 1 1.00002 0.99898
0.998851 1.00053 1 0.998322
1.00303 1.00534 1.00003 0.997678
1.01755 1.02006 1 0.997537
1.02298 1.02539 1 0.997659
1.01453 1.01715 1 0.997425
1.01911 1.02155 1 0.997614
1.01629 1.01859 1 0.997747
0.998715 1 1.00006 0.998654
0.999364 1 1.00088 0.998489
0.999543 1 1 0.999543
1.00033 1 1.00154 0.998789
1.02487 1.02757 1 0.997374
1.02553 1.02817 1 0.997441
1.02789 1.03047 1 0.997494
1.02553 1.02804 0.999913 0.99764
1.02094 1.02333 1 0.997656
1.02227 1.02452 1 0.997803
0.998556 1 1 0.998556
1.01681 1.01899 1 0.997852
0.998602 1.00064 1 0.997968
1.00752 1.00998 1.00018 0.997392
1.01629 1.01895 1 0.997389
1.01529 1.01755 1 0.997781
0.999649 1 1 0.999649
0.999282 1 1.00034 0.998942
0.998477 1 1 0.998477
1.0006 1 1.00206 0.998546
0.998904 1 1.00044 0.99846
1 1 1 1
1.00938 1.01189 1 0.997518
0.999635 1 1 0.999635
0.999219 1 1.00006 0.999157
0.999745 1 1.0009 0.998847
1.00232 1.00454 1 0.997785
1.01628 1.01891 1 0.997413
0.998904 1 1.00051 0.998399
1.00227 1.00253 1.00193 0.997812
1.00466 1.00688 1 0.997791
1.00675 1.00891 1 0.997864
1 1 1 1
0.999767 1 1 0.999767
0.99887 1 1.00022 0.998648
0.999634 1 1.00055 0.999083
1.00008 1 1.00153 0.998558
1.01968 1.02236 1 0.997384
1.01082 1.01328 1 0.997571
1.01628 1.01891 1 0.997419
1.00047 1.00031 1.00213 0.998036
1.00986 1.01218 1 0.997703
1.00428 1.00576 1.00096 0.997574
0.999823 1 1 0.999823
0.999283 1 1 0.999283
0.998815 1 1.00048 0.998339
1.00057 1 1.00182 0.998755
0.999747 1 1.00131 0.998439
1.01989 1.02248 1 0.997462
1.01192 1.01442 1 0.997535
1.01453 1.01698 1 0.997592
1.00158 1 1.00379 0.997796
1.00544 1.00803 1 0.997433
0.999855 1 1 0.999855
0.999423 1 1 0.999423
0.999468 1 1 0.999468
0.999262 1 1 0.999262
0.999497 1 1 0.999497
0.999884 1 1 0.999884
0.999881 1 1 0.999881
1 1 1 1
0.999873 1 1 0.999873
1 1 1 1
1 1 1 1
1 1 1 1
1 1 1 1
1 1 1 1
0.999999 1 1 0.999999
0.999982 1 1 0.999982
1 1 1 1
1 1 1 1
0.999946 1 1 0.999946
1 1 1 1
1.01178 1.01433 1 0.997489
1.01323 1.01582 1 0.997446
1.02463 1.02727 1 0.997438
1.02741 1.03005 1 0.99744
1.01207 1.01475 1 0.997358
0.998925 1.00111 1 0.997815
1.01155 1.01424 1 0.997348
1.02589 1.02856 1 0.997401
1.02711 1.02975 1 0.997434
1.03054 1.03335 0.999689 0.997595
1.02233 1.02498 1 0.997416
1.02659 1.02899 0.999989 0.997673
1.02508 1.02778 1 0.997375
1.02943 1.03255 0.999441 0.997531
1.02937 1.03178 1 0.997659
1.02959 1.03301 0.998977 0.997713
1.02372 1.0262 1 0.99758
1.02693 1.02933 0.99982 0.997844
1.01148 1.01414 1 0.997375
1.01163 1.01414 1 0.997522
1.02422 1.02686 1 0.997433
1.02397 1.0266 1 0.997439
0.998979 1 1 0.998979
0.999182 1.00087 1 0.998316
1.00294 1.00504 1.00018 0.997728
1.0177 1.02022 1 0.997536
1.02235 1.02472 1 0.997693
1.01914 1.02157 1 0.997617
1.01464 1.01729 1 0.997394
1.01574 1.01801 1 0.99777
0.998807 1 1.00015 0.998656
0.99931 1 1.00084 0.998471
0.999538 1 1 0.999538
1.00019 1 1.00137 0.998814
1.02476 1.02746 1 0.997375
1.02509 1.02774 1 0.997427
1.02782 1.03038 1 0.997515
1.02522 1.02769 0.99997 0.997625
0.99855 1 1 0.99855
0.998799 1.00076 1.00003 0.998013
1.00774 1.00999 1.00039 0.997384
1.02066 1.02309 1 0.997627
1.02224 1.02444 0.999999 0.997853
1.01566 1.01833 1 0.997377
1.01699 1.01917 1 0.997855
1.01662 1.01884 1 0.997823
0.998475 1 1 0.998475
0.998671 1 1.00021 0.998463
1.00108 1 1.00254 0.99854
0.999616 1 1 0.999616
0.999169 1 1.0002 0.998966
1.02841 1.03161 0.999382 0.997511
1.02878 1.03143 0.999863 0.997566
1.02331 1.02634 0.999219 0.997832
1.01958 1.02175 0.999995 0.997879
0.998335 1 1 0.998335
1.01961 1.02165 1 0.998004
0.998296 1.00027 1.00029 0.997744
1.00899 1.01135 1.00051 0.997159
1.01503 1.01772 1 0.997359
0.99968 1 1 0.99968
0.999167 1 1 0.999167
0.999712 1 1.00099 0.998724
0.998433 1 1 0.998433
1.00142 1 1.00306 0.998369
0.998398 1 1 0.998398
1 1 1 1
0.999774 1 1 0.999774
1.01996 1.02264 1 0.997379
0.99964 1 1.00056 0.999083
0.998851 1 1.0002 0.99865
1.00058 1 1.00205 0.998536
1.01085 1.01331 1 0.99757
1.01609 1.01873 1 0.99741
1.00032 1 1.00229 0.99804
1.00303 1.00467 1.00077 0.997593
1.01182 1.01414 1 0.997715
0.999827 1 1 0.999827
0.999286 1 1 0.999286
0.998758 1 1.00041 0.998345
1.00091 1 1.00216 0.998752
0.999869 1 1.00144 0.998431
1.01984 1.02244 1 0.997457
1.01244 1.01495 1 0.997526
1.01437 1.01679 1 0.997617
1.00107 1.00007 1.00324 0.997767
1.00449 1.00705 1.00006 0.997403
0.999401 1 1 0.999401
0.99981 1 1.0009 0.998911
1.00017 1 1.002 0.998174
1.0013 1 1.00281 0.998487
0.999317 1 1.001 0.998323
1.02082 1.02302 1 0.99785
1.0106 1.01318 1 0.997448
1.01169 1.01408 1 0.997642
1.00345 1.00152 1.00433 0.997602
1.00072 1.00352 1 0.997204
0.999858 1 1 0.999858
0.999439 1 1 0.999439
0.999173 1 1 0.999173
0.999447 1 1 0.999447
0.999497 1 1 0.999497
0.999232 1 1 0.999232
0.999087 1 1 0.999087
0.999207 1 1 0.999207
0.999501 1 1 0.999501
0.999881 1 1 0.999881
0.999884 1 1 0.999884
1 1 1 1
0.999883 1 1 0.999883
1 1 1 1
1 1 1 1
1 1 1 1
1 1 1 1
1 1 1 1
1 1 1 1
0.999997 1 1 0.999997
1 1 1 1
0.999976 1 1 0.999976
1 1 1 1
1 1 1 1
1.02276 1.02541 1 0.997411
1.02696 1.02961 1 0.997434
1.02686 1.02927 0.999967 0.99769
1.02957 1.03262 0.999427 0.997622
1.02581 1.02849 1 0.997394
1.01149 1.01418 1 0.997349
1.02533 1.02804 1 0.99736
1.02974 1.03269 0.999614 0.997523
1.02904 1.03148 0.999999 0.997638
1.02912 1.03278 0.998724 0.997727
1.02308 1.02556 1 0.997579
1.02625 1.02862 0.999815 0.997882
1.02902 1.03178 0.999839 0.997494
1.02978 1.03489 0.997356 0.997703
1.02829 1.03181 0.998755 0.997832
1.02425 1.02648 0.999885 0.997939
1.02465 1.02735 1 0.997375
1.02465 1.02731 1 0.997413
1.02774 1.03028 1 0.997535
1.02493 1.02739 1 0.997609
0.998545 1 1 0.998545
0.998734 1.00068 1 0.998058
1.00784 1.0099 1.00058 0.997376
1.02033 1.02279 1 0.997598
1.02224 1.02439 1 0.997903
1.01722 1.0194 1 0.997857
1.0151 1.01778 1 0.997365
1.01786 1.02004 1 0.997865
0.998473 1 1 0.998473
0.998466 1 1 0.998466
1.00195 1 1.00342 0.998534
0.999583 1 1 0.999583
0.999145 1 1.00016 0.998989
1.02872 1.03166 0.999641 0.997514
1.02901 1.03161 0.999911 0.997568
1.02318 1.02606 0.999379 0.997821
0.998403 1.00007 1 0.998328
0.999405 1.00137 1.00026 0.997786
1.00859 1.0107 1.00076 0.997148
1.02019 1.02236 1 0.997869
1.0147 1.01732 1 0.997429
1.01828 1.02037 0.999965 0.997984
0.999692 1 1 0.999692
0.998426 1 1 0.998426
0.998464 1 1 0.998464
1.00128 1 1.00293 0.998355
0.999669 1 1.00094 0.998735
0.99914 1 1 0.99914
1.02933 1.03347 0.998391 0.997594
1.02725 1.03279 0.99689 0.997742
1.02053 1.02485 0.997862 0.997919
1.02458 1.02727 0.999316 0.998064
0.998359 1.00017 1 0.998188
1.01593 1.01828 1 0.997695
1.00142 1.00245 1.00165 0.997331
1.00584 1.00781 1.00104 0.997014
0.999785 1 1 0.999785
0.999305 1 1 0.999305
0.998887 1 1 0.998887
1.00165 1 1.00321 0.998446
0.998338 1 1 0.998338
0.999974 1 1.00172 0.998255
0.999831 1 1 0.999831
0.999289 1 1 0.999289
1.01993 1.02254 1 0.997451
1.00093 1 1.00219 0.998749
0.99862 1 1.00027 0.998351
0.999895 1 1.00147 0.998423
1.01321 1.01573 1 0.997517
1.01443 1.01683 1 0.997641
1.00065 1.00019 1.00273 0.997738
1.00366 1.00604 1.00027 0.997373
0.999403 1 1 0.999403
0.999454 1 1.00054 0.99892
1.00017 1 1.00198 0.998191
1.00156 1 1.00307 0.998492
0.998861 1 1.00048 0.998386
1.0211 1.02327 1 0.997882
1.01006 1.01264 1 0.997452
1.01302 1.01534 1 0.997716
1.00302 1.00088 1.00458 0.997569
1.00147 1.00429 1.00003 0.997158
0.999104 1 1 0.999104
1.00035 1 1.00176 0.998596
1.00195 1.00014 1.00378 0.998025
0.99976 1 1.00155 0.998209
1.02391 1.0309 0.995123 0.998084
1.01666 1.01887 0.999872 0.99796
1.00617 1.00894 1 0.997256
1.00322 1.00175 1.00426 0.997217
0.999456 1 1 0.999456
0.999186 1 1 0.999186
0.999042 1 1 0.999042
0.999497 1 1 0.999497
0.999202 1 1 0.999202
0.999501 1 1 0.999501
0.99907 1 1 0.99907
0.999219 1 1 0.999219
0.998971 1 1 0.998971
0.99904 1 1 0.99904
0.999193 1 1 0.999193
0.999489 1 1 0.999489
0.999874 1 1 0.999874
0.99988 1 1 0.99988
1 1 1 1
0.999884 1 1 0.999884
1 1 1 1
1 1 1 1
1 1 1 1
1 1 1 1
1 1 1 1
1 1 1 1
1 1 1 1
1 1 1 1
0.999994 1 1 0.999994
1 1 1 1
1 1 1 1
1.02239 1.02488 1 0.997579
1.02873 1.03119 1 0.997618
1.02561 1.02792 0.999825 0.997921
1.02866 1.03252 0.998513 0.997741
1.03004 1.03281 0.999805 0.997514
1.02558 1.02831 1 0.997345
1.02876 1.03176 0.999591 0.997499
1.02905 1.03395 0.997559 0.997694
1.02801 1.03168 0.99861 0.997832
1.02574 1.02794 0.999919 0.997942
1.02939 1.0343 0.997605 0.997644
1.02926 1.0365 0.995131 0.997873
1.02916 1.03366 0.997673 0.997972
1.02904 1.03171 0.9999 0.997517
1.02924 1.03176 0.999985 0.997571
1.02303 1.02572 0.999564 0.997811
0.998551 1.00023 1 0.998321
1.00052 1.00252 1.00018 0.997828
1.00794 1.00998 1.00085 0.997138
1.02077 1.02296 0.999999 0.997858
1.0171 1.01922 0.999954 0.997964
1.01469 1.01723 1 0.9975
0.998419 1 1 0.998419
0.99853 1 1 0.99853
1.00102 1 1.00268 0.998341
0.999704 1 1 0.999704
0.999331 1 1.00059 0.998745
0.999114 1 1 0.999114
1.03007 1.03385 0.998736 0.9976
1.02779 1.033 0.9972 0.99775
1.02074 1.02467 0.998257 0.997911
0.99865 1.00047 1 0.998177
1.00125 1.00244 1.0014 0.997416
1.00512 1.00719 1.0009 0.997052
1.02446 1.02697 0.999475 0.998074
1.01658 1.01897 0.999977 0.997683
0.999822 1 1 0.999822
0.999305 1 1 0.999305
0.998363 1 1 0.998363
1.00072 1 1.0024 0.998327
1.00158 1 1.00312 0.998464
0.998865 1 1 0.998865
1.02912 1.0357 0.99585 0.99779
1.0203 1.02978 0.992894 0.997882
1.02148 1.02658 0.996919 0.998107
1.01968 1.02269 0.998958 0.998101
0.999369 1.00053 1.00088 0.997956
1.00508 1.00655 1.0014 0.997142
1.00318 1.00341 1.00264 0.997135
0.99991 1 1 0.99991
0.999559 1 1 0.999559
0.999372 1 1 0.999372
0.998973 1 1 0.998973
0.999532 1 1.00091 0.998622
1.0012 1 1.00286 0.998337
0.998391 1 1 0.998391
1.01195 1 1.01351 0.998468
0.999405 1 1 0.999405
0.999285 1 1.00036 0.998928
1.02127 1.02341 1 0.997913
1.00209 1 1.0036 0.998496
1.00036 1 1.00215 0.998209
0.998484 1 1.00004 0.998449
1.00928 1.01185 1 0.997456
1.0142 1.01645 1 0.997791
1.00277 1.00042 1.00482 0.997536
1.00236 1.00527 1 0.997112
0.999086 1 1 0.999086
1.00066 1 1.00206 0.998608
1.00229 1.00009 1.00415 0.99805
0.999588 1 1.00135 0.998238
1.02532 1.0319 0.995517 0.998096
1.01643 1.0186 0.999949 0.997926
1.00712 1.00985 1 0.997295
1.00317 1.00223 1.00377 0.997177
0.999064 1 1.00016 0.998903
1.0226 1.03281 0.992003 0.998092
1.00097 1 1.00262 0.998359
1.00088 1.00042 1.00268 0.997792
1.02274 1.02614 0.998501 0.998186
1.00717 1.00981 1 0.997381
1.00456 1.0043 1.00323 0.997041
0.999198 1 1 0.999198
0.999038 1 1 0.999038
0.998932 1 1 0.998932
0.9995 1 1 0.9995
0.999231 1 1 0.999231
0.999052 1 1 0.999052
0.999488 1 1 0.999488
0.999196 1 1 0.999196
0.998956 1 1 0.998956
0.999062 1 1 0.999062
0.998887 1 1 0.998887
0.99893 1 1 0.99893
0.999034 1 1 0.999034
0.999181 1 1 0.999181
0.999463 1 1 0.999463
0.999865 1 1 0.999865
0.999873 1 1 0.999873
1 1 1 1
0.999879 1 1 0.999879
1 1 1 1
1 1 1 1
1 1 1 1
1 1 1 1
1 1 1 1
0.999936 1 1 0.999936
1 1 1 1
1 1 1 1
1 1 1 1
1 1 1 1
1 1 1 1
1 1 1 1
1.02726 1.02942 0.999954 0.997945
1.02772 1.03153 0.998468 0.997832
1.02832 1.03304 0.997743 0.997684
1.02851 1.03176 0.999344 0.997505
1.02901 1.03419 0.997327 0.997663
1.02953 1.03654 0.995372 0.997862
1.02864 1.03344 0.997362 0.997984
1.02911 1.03726 0.994287 0.997846
1.03235 1.04046 0.994206 0.997989
1.01673 1.03061 0.988307 0.998203
1.03084 1.03428 0.999069 0.997607
1.02837 1.03329 0.99747 0.997758
1.02089 1.02447 0.998595 0.997903
0.999055 1.00083 1.00006 0.998166
1.00108 1.00233 1.00126 0.997502
1.00445 1.0066 1.00078 0.997089
1.0244 1.0268 0.999584 0.998083
1.01669 1.01913 0.999931 0.997671
0.998387 1 1 0.998387
1.0015 1 1.00311 0.998397
1.00192 1 1.00344 0.998481
0.99986 1 1 0.99986
0.999304 1 1 0.999304
0.998948 1 1.00011 0.998842
1.02883 1.03581 0.995453 0.997803
0.999906 1 1 0.999906
0.999538 1 1 0.999538
1.02009 1.02898 0.993456 0.997882
1.02203 1.02731 0.996778 0.998075
0.99917 1.0003 1.00084 0.998036
1.00344 1.00304 1.0033 0.997111
1.00569 1.00772 1.00084 0.997144
1.01856 1.02166 0.998874 0.998084
0.999431 1 1 0.999431
0.99897 1 1 0.99897
0.998326 1 1 0.998326
1.00836 1 1.0098 0.998573
1.00111 1 1.00278 0.998329
0.999759 1 1.00113 0.998635
1.03195 1.03987 0.99443 0.99795
1.01119 1.0274 0.98618 0.998021
1.01894 1.02547 0.99533 0.998289
1.00561 1.00924 0.998582 0.99781
1.00038 1 1.00234 0.998038
1.00427 1.00183 1.00547 0.996984
0.999551 1 1 0.999551
0.999507 1 1 0.999507
0.999285 1 1 0.999285
0.999001 1 1 0.999001
0.998838 1 1.00006 0.998778
0.999754 1 1.00136 0.998393
1.01789 1 1.01963 0.998295
1.00041 1 1.0018 0.998608
0.999069 1 1 0.999069
1.00066 1 1.00204 0.998621
1.02656 1.03265 0.995979 0.998108
1.01636 1.01851 1 0.997891
0.999361 1 1.0011 0.998266
1.00248 1 1.00441 0.998073
1.00833 1.01099 1.00004 0.997334
1.00303 1.00255 1.00335 0.997136
0.999117 1 1.00022 0.998895
1.02368 1.03474 0.991167 0.998122
1.00079 1 1.00242 0.998376
1.00065 1.0002 1.00269 0.997763
1.02151 1.02524 0.9982 0.998159
1.00747 1.01007 1 0.997431
1.00444 1.00391 1.00348 0.997055
1.00016 1 1.00154 0.998628
1.0168 1.02866 0.989989 0.998462
1.0002 1.0003 1.00175 0.998157
1.00233 1.00105 1.00379 0.997499
1.01075 1.01596 0.997035 0.997836
1.00206 1.00268 1.00221 0.997171
1.00309 1.00738 0.997247 0.998491
0.999035 1 1 0.999035
0.999004 1 1.00007 0.99893
0.998915 1 1.0001 0.998812
0.999486 1 1 0.999486
0.999198 1 1 0.999198
0.999084 1 1 0.999084
0.998941 1 1 0.998941
0.999462 1 1 0.999462
0.999171 1 1 0.999171
0.998869 1 1 0.998869
0.999033 1 1 0.999033
0.998944 1 1 0.998944
0.998856 1 1 0.998856
0.998909 1 1 0.998909
0.999025 1 1 0.999025
0.999113 1 1 0.999113
0.999394 1 1 0.999394
0.999228 1 1 0.999228
0.999388 1 1 0.999388
0.999857 1 1 0.999857
0.999864 1 1 0.999864
1 1 1 1
0.999872 1 1 0.999872
1 1 1 1
1 1 1 1
1 1 1 1
1 1 1 1
1 1 1 1
0.999952 1 1 0.999952
0.999934 1 1 0.999934
1 1 1 1
1 1 1 1
1 1 1 1
1 1 1 1
1 1 1 1
1 1 1 1
1.02816 1.03332 0.997008 0.997996
1.02981 1.03659 0.995598 0.997851
1.02865 1.03408 0.997052 0.997682
1.02896 1.03708 0.994318 0.997844
1.03076 1.03877 0.994289 0.997986
1.01736 1.03022 0.989325 0.998175
1.03016 1.04071 0.9918 0.998053
0.995483 1.01596 0.982146 0.997659
1.00963 1.02635 0.985006 0.998684
0.99963 1 1 0.99963
1.0285 1.03585 0.995071 0.997816
1.0202 1.02829 0.994239 0.997882
1.02266 1.02799 0.996766 0.998043
0.998975 1.00004 1.00082 0.998116
1.00372 1.00263 1.00402 0.997086
1.00657 1.009 1.00045 0.997146
1.0175 1.02057 0.998918 0.998068
0.998261 1 1 0.998261
1.00474 1 1.00607 0.99868
1.00082 1 1.0025 0.998321
0.999901 1 1 0.999901
0.999821 1 1.00118 0.998648
0.999489 1 1 0.999489
0.998966 1 1 0.998966
0.999517 1 1 0.999517
1.03082 1.04038 0.992836 0.997957
0.99958 1 1 0.99958
0.999505 1 1 0.999505
0.999246 1 1 0.999246
1.01225 1.02696 0.987624 0.998023
1.01879 1.02528 0.995425 0.998242
0.999778 1.00005 1.00168 0.998058
1.00427 1.0017 1.00555 0.997029
1.00478 1.008 0.998995 0.997807
0.999034 1 1 0.999034
0.998933 1 1.00018 0.99875
1.00317 1 1.00464 0.998538
1.01447 1 1.01616 0.998333
0.999544 1 1.00113 0.998419
1.02052 1.03308 0.98979 0.998038
1.01165 1.03031 0.98372 0.998138
1.01146 1.01631 0.997217 0.998003
1.00239 1.00396 1.0008 0.997631
1.00306 1 1.00491 0.998167
0.999222 1 1 0.999222
0.999121 1 1 0.999121
0.999007 1 1 0.999007
0.99901 1 1.00021 0.9988
0.999409 1 1.00082 0.998586
1.013 1 1.0147 0.998329
1.01492 1 1.01668 0.998271
0.999171 1 1.00028 0.998887
1.00063 1 1.00224 0.998392
1.02452 1.03689 0.989896 0.998152
1.0202 1.02437 0.997792 0.998132
1.00737 1.00991 1 0.99748
1.00041 1 1.00268 0.997735
1.00407 1.0034 1.0036 0.997068
1.00011 1 1.00145 0.998665
1.01496 1.02814 0.988681 0.998475
0.999638 1.00014 1.00131 0.998185
1.00212 1.00054 1.00408 0.997511
1.0117 1.0165 0.997351 0.997917
1.00211 1.00227 1.00269 0.997157
1.00211 1.00753 0.996633 0.99798
1.00025 1 1.00175 0.998499
1.00597 1.01782 0.989891 0.998459
1.0001 1 1.00194 0.998163
1.00415 1.00029 1.00636 0.997512
1.00118 1.00562 0.997992 0.997591
0.951737 0.980678 0.984336 0.985933
0.971432 0.986063 0.991926 0.993181
0.982707 0.99813 0.985983 0.998545
0.849982 0.898592 0.963808 0.981424
0.807473 0.894903 0.922584 0.978016
0.998991 1 1.00006 0.998927
0.999131 1 1.0003 0.998829
0.998837 1 1 0.998837
0.999461 1 1 0.999461
0.999161 1 1 0.999161
0.999033 1 1 0.999033
0.998957 1 1 0.998957
0.99885 1 1 0.99885
0.999005 1 1 0.999005
0.999417 1 1 0.999417
0.999127 1 1 0.999127
0.998856 1 1 0.998856
0.998914 1 1 0.998914
0.998921 1 1 0.998921
0.998894 1 1 0.998894
0.998946 1 1 0.998946
0.999083 1 1 0.999083
0.99938 1 1 0.99938
0.999149 1 1 0.999149
0.999063 1 1 0.999063
0.99921 1 1 0.99921
0.999198 1 1 0.999198
0.999453 1 1 0.999453
0.999386 1 1 0.999386
0.999853 1 1 0.999853
0.999857 1 1 0.999857
1 1 1 1
0.999863 1 1 0.999863
1 1 1 1
1 1 1 1
1 1 1 1
1 1 1 1
1 1 1 1
0.999961 1 1 0.999961
0.999949 1 1 0.999949
1 1 1 1
0.999931 1 1 0.999931
1 1 1 1
1 1 1 1
1 1 1 1
1 1 1 1
1 1 1 1
1.02913 1.03702 0.994394 0.997983
1.02879 1.03687 0.994346 0.997842
1.01809 1.0297 0.990557 0.998146
0.998037 1.01572 0.984848 0.997704
1.02829 1.0389 0.991729 0.99805
1.01472 1.02847 0.988012 0.9986
1.02632 1.03304 0.995368 0.998109
0.959641 0.984637 0.982114 0.992364
1.00493 1.01935 0.987716 0.998114
0.999637 1 1 0.999637
0.999629 1 1 0.999629
0.999312 1 1 0.999312
0.999341 1 1 0.999341
1.0294 1.04074 0.991122 0.997965
1.01248 1.02606 0.988719 0.998025
1.01848 1.025 0.99543 0.998195
0.998963 1.00012 1.00077 0.998078
1.00407 1.00164 1.00536 0.997074
1.00393 1.00702 0.999131 0.997803
1.00579 1 1.00733 0.998466
1.01106 1 1.01271 0.99837
0.999336 1 1.00089 0.998444
0.999504 1 1 0.999504
0.998929 1 1.00021 0.998723
0.999067 1 1 0.999067
0.999609 1 1 0.999609
0.999207 1 1 0.999207
1.01864 1.03235 0.988642 0.998052
0.999265 1 1 0.999265
0.999154 1 1 0.999154
0.99904 1 1 0.99904
1.01407 1.03227 0.984203 0.998143
1.01008 1.01543 0.996724 0.998001
1.00284 1 1.0047 0.998155
1.00279 1.00429 1.00085 0.997648
0.999037 1 1.00024 0.998794
0.999094 1 1.00053 0.99856
1.01589 1 1.01765 0.998269
1.0138 1 1.01552 0.998302
1.00831 1.03044 0.980353 0.998127
1.00424 1.02431 0.982268 0.998104
1.00502 1.00761 0.999715 0.99771
0.998777 1.00034 1.00019 0.998252
0.998912 1 1 0.998912
0.999152 1 1.00029 0.998866
1.00412 1 1.00552 0.998602
1.02647 1 1.0284 0.99813
0.933228 0.972554 0.974093 0.985084
1.00026 1 1.00156 0.998702
0.999305 1 1.00109 0.998212
1.01295 1.02735 0.987476 0.998488
1.01284 1.01717 0.997742 0.997999
1.0026 1.00218 1.0033 0.997142
1.00198 1 1.00447 0.997522
1.00136 1.00747 0.99647 0.99746
1.00025 1 1.00173 0.998529
1.00589 1.01837 0.989277 0.998446
0.99961 1 1.00144 0.998175
1.00378 1.00017 1.00611 0.997512
1.00228 1.00649 0.998191 0.997616
0.950733 0.983409 0.981208 0.985288
0.966429 0.983595 0.991102 0.991369
0.983933 0.996128 0.98917 0.998571
0.85244 0.897597 0.967685 0.981405
0.791103 0.882869 0.917958 0.976145
0.999602 1 1.00092 0.998686
0.875178 0.918341 0.970536 0.981931
0.849237 0.899885 0.963677 0.979288
0.984422 1.00699 0.979212 0.998339
1.00502 1.00017 1.00657 0.998294
1.01109 1.00312 1.01019 0.997772
0.9784 0.991421 0.988151 0.9987
0.948929 0.971917 0.991195 0.985021
0.952394 0.965262 0.996022 0.990609
0.82929 0.898865 0.939683 0.981817
0.859214 0.933423 0.939435 0.979842
0.99946 1 1.00061 0.998846
0.999038 1 1.00021 0.998828
0.99932 1 1.00026 0.999058
0.999441 1 1 0.999441
0.999141 1 1 0.999141
0.998984 1 1 0.998984
0.998919 1 1 0.998919
0.998856 1 1 0.998856
0.999381 1 1 0.999381
0.998917 1 1 0.998917
0.998964 1 1 0.998964
0.999107 1 1 0.999107
0.998901 1 1.00001 0.998894
0.998888 1 1 0.998888
0.999122 1 1.0002 0.998918
0.998927 1 1 0.998927
0.999112 1 1 0.999112
0.999146 1 1 0.999146
0.999051 1 1 0.999051
0.99899 1 1 0.99899
0.999048 1 1 0.999048
0.998994 1 1 0.998994
0.998908 1 1 0.998908
0.999189 1 1 0.999189
0.999209 1 1 0.999209
0.999467 1 1 0.999467
0.999168 1 1 0.999168
0.999433 1 1 0.999433
0.999851 1 1 0.999851
0.999384 1 1 0.999384
0.999853 1 1 0.999853
1 1 1 1
0.999857 1 1 0.999857
1 1 1 1
1 1 1 1
1 1 1 1
1 1 1 1
1 1 1 1
0.999615 1 1 0.999615
0.99996 1 1 0.99996
0.999959 1 1 0.999959
1 1 1 1
0.999946 1 1 0.999946
1 1 1 1
1 1 1 1
1 1 1 1
1 1 1 1
1 1 1 1
1.00013 1.01579 0.986803 0.997753
1.02687 1.03724 0.991938 0.998049
1.01931 1.03079 0.990328 0.998515
0.95587 0.980125 0.981871 0.993259
1.00512 1.01907 0.988082 0.998208
1.02836 1.03595 0.99459 0.998072
1.01643 1.02405 0.994569 0.997985
0.966084 0.982724 0.989053 0.993949
0.95239 0.979096 0.988081 0.984457
0.831764 0.891245 0.951424 0.980909
0.788927 0.8685 0.929207 0.977586
0.999299 1 1 0.999299
0.999636 1 1 0.999636
0.999628 1 1 0.999628
0.9993 1 1 0.9993
0.999097 1 1 0.999097
0.999132 1 1 0.999132
0.999289 1 1 0.999289
0.999319 1 1 0.999319
1.01732 1.03207 0.987613 0.998066
1.01724 1.03506 0.984616 0.998147
1.00888 1.01463 0.996329 0.997999
1.00307 1.00006 1.00488 0.998144
1.00328 1.00437 1.00126 0.997666
1.01668 1 1.01845 0.998266
1.01499 1 1.01675 0.998276
0.998952 1 1.00042 0.998535
0.999187 1 1 0.999187
0.999042 1 1.00025 0.998788
0.999309 1 1 0.999309
0.999073 1 1 0.999073
1.00948 1.03058 0.981383 0.998112
0.998937 1 1 0.998937
0.999052 1 1.00017 0.998883
1.00506 1.0237 0.983675 0.998083
1.00362 1.00724 0.998583 0.997818
1.00069 1.00064 1.00187 0.998184
1.00602 1 1.00748 0.998552
1.02364 1 1.02554 0.998141
1.00732 1.02597 0.98368 0.998104
0.985983 1.00743 0.980542 0.998137
0.995843 1.00056 0.997136 0.998141
1.00583 1.00024 1.00731 0.99829
0.999022 1 1.00028 0.998739
1.00262 1 1.00397 0.998654
1.02259 1 1.02428 0.998346
0.863254 0.923126 0.951828 0.982469
0.946274 0.97654 0.982139 0.986629
0.999949 1 1.00139 0.998559
0.999252 1 1.00107 0.998187
1.0065 1.01937 0.988924 0.998434
1.00321 1.00732 0.998271 0.99764
1.00326 1.00005 1.00571 0.997512
0.947926 0.977285 0.985176 0.984553
0.969171 0.987991 0.988828 0.992035
0.985663 0.994714 0.992295 0.998594
0.846797 0.898543 0.959907 0.981773
0.777048 0.870393 0.916356 0.974246
0.99922 1 1.00053 0.998687
0.867489 0.92092 0.958931 0.982324
0.843626 0.893659 0.964795 0.97846
0.986467 1.0078 0.980473 0.998331
1.00462 1.00015 1.00617 0.998316
1.01 1.0016 1.01051 0.997897
0.970019 0.986447 0.984538 0.998789
0.954433 0.9798 0.99012 0.98383
0.954458 0.969065 0.992502 0.992368
0.832216 0.893326 0.950094 0.980527
0.858517 0.935306 0.937425 0.979171
1.00109 1 1.00216 0.998927
0.876172 0.908657 0.98301 0.980915
0.940452 0.962625 0.991326 0.985515
0.989341 1.00012 0.990394 0.998812
1.01244 1.00168 1.01196 0.998793
0.984736 0.978209 1.00772 0.998963
0.937386 0.955131 0.987917 0.993425
0.939617 0.956695 0.998546 0.983579
0.848019 0.908759 0.951319 0.980914
0.888037 0.955869 0.945805 0.98227
0.99908 1 1.00026 0.998818
0.999157 1 1.00012 0.999037
1.00107 1 1.00184 0.999234
0.999381 1 1 0.999381
0.999132 1 1 0.999132
0.998983 1 1 0.998983
0.998912 1 1 0.998912
0.998905 1 1.00001 0.998893
0.999111 1 1 0.999111
0.998893 1 1 0.998893
0.998928 1 1 0.998928
0.999611 1 1.00067 0.998943
1.00685 0.999994 1.00768 0.99918
0.99895 1 1.00009 0.998863
0.998909 1 1 0.998909
0.999144 1 1 0.999144
0.999038 1 1 0.999038
0.998988 1 1 0.998988
0.999044 1 1 0.999044
0.999004 1 1 0.999004
0.998998 1 1 0.998998
0.998947 1 1 0.998947
0.998987 1 1 0.998987
0.998768 1 1 0.998768
0.999338 1 1.00093 0.998411
0.998787 1 1 0.998787
0.998905 1 1 0.998905
0.999134 1 1 0.999134
0.999187 1 1 0.999187
0.999462 1 1 0.999462
0.999209 1 1 0.999209
0.999467 1 1 0.999467
0.999851 1 1 0.999851
0.999413 1 1 0.999413
0.999851 1 1 0.999851
1 1 1 1
0.999853 1 1 0.999853
1 1 1 1
1 1 1 1
1 1 1 1
1 1 1 1
1 1 1 1
0.999634 1 1 0.999634
0.999951 1 1 0.999951
0.999615 1 1 0.999615
1 1 1 1
0.999961 1 1 0.999961
0.999957 1 1 0.999957
1 1 1 1
1 1 1 1
1 1 1 1
1 1 1 1
1 1 1 1
0.863832 0.911371 0.965439 0.981768
0.853021 0.901686 0.965479 0.979855
0.958076 0.983272 0.980489 0.993765
1.00713 1.01871 0.990313 0.998303
1.03065 1.03855 0.994348 0.998036
0.95886 0.974856 0.988308 0.995227
1.01595 1.02366 0.994414 0.998041
0.956513 0.984118 0.985987 0.985762
0.84577 0.897542 0.960315 0.981259
0.780049 0.867648 0.921456 0.975672
0.98504 0.998485 0.989996 0.996504
0.950519 0.973252 0.991041 0.985471
0.821852 0.893204 0.937536 0.98142
0.851889 0.924977 0.941155 0.978568
0.99901 1 1 0.99901
0.999319 1 1 0.999319
0.999636 1 1 0.999636
0.999287 1 1 0.999287
0.999128 1 1 0.999128
0.999135 1 1.00011 0.99903
0.999131 1 1 0.999131
0.999147 1 1 0.999147
0.999263 1 1 0.999263
0.999297 1 1 0.999297
1.01045 1.03024 0.982659 0.998098
1.00474 1.02201 0.98501 0.998064
1.00244 1.00712 0.997414 0.997927
1.00229 1.00096 1.00321 0.998115
1.01994 1 1.02183 0.998152
1.00793 1 1.00944 0.998502
0.9989 1 1 0.9989
0.998962 1 1 0.998962
1.00679 1.02632 0.982825 0.998116
0.99919 1 1.00047 0.998725
1.00254 1 1.00392 0.998624
0.986578 1.00611 0.982495 0.998059
0.995311 1.00041 0.996638 0.998262
1.0069 1.00078 1.00794 0.998189
1.01986 1 1.02158 0.99832
0.998545 1.00489 0.995267 0.998411
0.987889 1 0.989073 0.998802
1.01361 1.00043 1.01484 0.998366
1.00136 1 1.00265 0.998704
1.00096 1 1.0024 0.998562
1.0135 1 1.01508 0.998435
0.883221 0.915342 0.981122 0.983474
0.871756 0.922192 0.962459 0.982181
0.939581 0.97669 0.976557 0.985099
0.998859 1 1.00017 0.998689
1.00422 1.00009 1.00581 0.998338
0.989118 1.00841 0.982512 0.998324
1.00907 1.00009 1.01099 0.998021
0.86096 0.915701 0.957393 0.982062
0.95475 0.978179 0.990317 0.985592
0.948998 0.968252 0.989331 0.990685
0.966153 0.982279 0.984686 0.99888
0.832625 0.893683 0.950136 0.980573
0.846023 0.898415 0.962476 0.978398
0.849616 0.929306 0.933539 0.979335
1.00176 1 1.00283 0.998933
0.877322 0.912292 0.979662 0.981632
0.9457 0.967064 0.992365 0.985431
0.991669 1.00017 0.992605 0.998886
1.01189 1.00043 1.0127 0.998771
0.982518 0.977396 1.00636 0.998892
0.938635 0.957252 0.98888 0.991578
0.94202 0.961297 0.99537 0.984506
0.859028 0.92038 0.951086 0.981341
0.877714 0.946834 0.943592 0.982414
1.00356 0.999757 1.00435 0.999463
0.943524 0.966896 0.987286 0.988395
0.928583 0.956265 0.981914 0.988937
1.00385 0.990339 1.01393 0.999715
0.957306 0.958931 1.00242 0.995894
0.947706 0.957081 1.00654 0.983772
0.895168 0.938505 0.971968 0.981331
0.89469 0.968426 0.941049 0.981734
0.999016 1 1 0.999016
1.00057 1 1.00134 0.999236
1.01202 1 1.01262 0.999405
0.99911 1 1 0.99911
0.998928 1 1 0.998928
0.998899 1 1 0.998899
0.999689 1 1.00072 0.998967
0.998907 1 1 0.998907
0.998892 1 1.00003 0.998859
1.00929 1 1.01007 0.999223
1.01756 0.99832 1.01983 0.999446
1.00715 1 1.00805 0.999108
0.99886 1 1 0.99886
0.998986 1 1 0.998986
0.999041 1 1 0.999041
0.999014 1 1 0.999014
0.998956 1 1 0.998956
0.998997 1 1 0.998997
0.998994 1 1 0.998994
0.998914 1 1 0.998914
0.999102 1 1 0.999102
0.998797 1 1 0.998797
0.998793 1 1 0.998793
0.999226 1 1.00069 0.998532
0.999534 1 1.00153 0.998011
0.999136 1 1.00044 0.998697
0.999292 1 1.00079 0.9985
0.998818 1 1 0.998818
0.999008 1 1 0.999008
0.998902 1 1 0.998902
0.999132 1 1 0.999132
0.999426 1 1 0.999426
0.999186 1 1 0.999186
0.999461 1 1 0.999461
0.999849 1 1 0.999849
0.999468 1 1 0.999468
0.999851 1 1 0.999851
1 1 1 1
0.999852 1 1 0.999852
1 1 1 1
1 1 1 1
1 1 1 1
1 1 1 1
1 1 1 1
0.999508 1 1 0.999508
0.999937 1 1 0.999937
0.999584 1 1 0.999584
1 1 1 1
0.999954 1 1 0.999954
0.999615 1 1 0.999615
1 1 1 1
1 1 1 1
0.999962 1 1 0.999962
1 1 1 1
1 1 1 1
1 1 1 1
0.879398 0.911882 0.98154 0.982515
0.867467 0.917251 0.963452 0.981599
0.942642 0.96801 0.988314 0.985307
0.84433 0.894597 0.96395 0.979107
0.955694 0.977951 0.983784 0.993349
1.01387 1.02341 0.99257 0.998099
0.960666 0.984298 0.988838 0.987008
0.847227 0.900726 0.958675 0.981151
0.774564 0.86933 0.915014 0.973744
0.981346 0.996141 0.989293 0.99581
0.949675 0.973733 0.991439 0.983714
0.833115 0.90024 0.944145 0.980185
0.850733 0.92692 0.938716 0.977725
0.964472 0.984481 0.984734 0.994862
0.952273 0.962867 1.00581 0.983285
0.857962 0.922641 0.948153 0.980746
0.883973 0.95704 0.941761 0.980773
0.999285 1 1.00044 0.998846
0.99904 1 1 0.99904
0.99934 1 1 0.99934
0.999159 1 1 0.999159
0.998854 1 1 0.998854
0.999052 1 1 0.999052
0.99913 1 1 0.99913
0.999116 1 1 0.999116
0.999175 1 1 0.999175
0.999237 1 1 0.999237
1.00721 1.0274 0.982193 0.998128
0.988773 1.00566 0.985197 0.997982
0.994714 1.00011 0.996219 0.998382
1.00876 1.00132 1.00935 0.99809
1.01731 1 1.01905 0.998294
1.0022 1 1.00361 0.998594
0.999423 1 1.00071 0.998711
1.00072 1 1.00202 0.998698
0.994651 1.00573 0.990544 0.998424
1.00081 1 1.00224 0.99857
1.01348 1 1.01508 0.998429
0.986504 1.00022 0.987549 0.998722
1.01368 1.0008 1.01456 0.998343
0.96735 0.991118 0.977083 0.998911
1.00361 0.998217 1.00614 0.999264
1.01875 1 1.02019 0.998582
1.00011 1 1.00153 0.99858
1.00785 1 1.00943 0.998438
0.944147 0.963113 0.99033 0.98988
0.887177 0.915289 0.985517 0.98353
0.864471 0.918164 0.958423 0.982366
1.00242 1 1.00348 0.998939
1.01142 0.999291 1.01341 0.998748
0.991599 1 0.992636 0.998956
0.887139 0.918215 0.983486 0.982379
0.951051 0.960773 1.00667 0.983326
0.941017 0.95813 0.989213 0.99285
0.972752 0.973899 1.00003 0.998795
0.860131 0.91965 0.953436 0.980959
0.950314 0.970798 0.993452 0.985352
0.877674 0.947268 0.943032 0.982503
1.00317 0.999436 1.0043 0.999439
0.941357 0.96501 0.986171 0.989169
0.930787 0.958215 0.982232 0.988948
1.00523 0.992352 1.01342 0.999568
0.961567 0.962074 1.00401 0.995485
0.937948 0.955101 0.999339 0.982691
0.897865 0.970445 0.941645 0.982547
0.89268 0.937208 0.970746 0.981192
1.0051 0.993909 1.01155 0.999711
0.924895 0.95302 0.97669 0.99365
0.939335 0.96889 0.979643 0.989642
0.885985 0.957832 0.94307 0.980828
0.98988 0.976401 1.01493 0.998895
0.963683 0.965452 1.01392 0.984461
0.899717 0.933747 0.981676 0.981541
1.00066 1 1.00142 0.999237
1.01106 1 1.01173 0.999345
1.01589 0.996904 1.01948 0.999566
0.998905 1 1 0.998905
0.998891 1 1.00004 0.998855
1.01292 1 1.01367 0.999266
0.99887 1 1 0.99887
1.00693 1 1.00782 0.999114
1.01914 0.998177 1.02159 0.999421
1.00767 0.997584 1.01063 0.999489
1.00448 1 1.00538 0.999108
0.998965 1 1 0.998965
0.998996 1 1 0.998996
0.999 1 1 0.999
0.999104 1 1.00002 0.999087
0.998922 1 1 0.998922
0.999368 1 1.00033 0.999036
0.998921 1 1 0.998921
1.00089 1 1.00259 0.998304
0.998818 1 1 0.998818
0.999063 1 1.00057 0.998498
0.998855 1 1.00101 0.997845
0.999227 1 1.00129 0.99794
1.00004 1 1.00154 0.998509
0.999412 1 1.00138 0.998032
0.998995 1 1.00011 0.998886
0.999191 1 1.00052 0.998669
0.999235 1 1.00065 0.99859
0.998849 1 1 0.998849
0.999038 1 1 0.999038
0.999361 1 1 0.999361
0.999131 1 1 0.999131
0.999425 1 1 0.999425
0.999836 1 1 0.999836
0.99946 1 1 0.99946
0.999848 1 1 0.999848
1 1 1 1
0.999851 1 1 0.999851
1 1 1 1
1 1 1 1
1 1 1 1
1 1 1 1
1 1 1 1
0.999356 1 1 0.999356
0.999833 1 1 0.999833
0.999507 1 1 0.999507
1 1 1 1
0.999905 1 1 0.999905
0.999534 1 1 0.999534
1 1 1 1
1 1 1 1
0.999957 1 1 0.999957
1 1 1 1
1 1 1 1
1 1 1 1
0.937507 0.962244 0.984995 0.989134
0.868595 0.90975 0.971821 0.982447
0.867615 0.914171 0.967029 0.981431
0.999024 1 1 0.999024
0.930055 0.95421 0.984717 0.989814
0.945512 0.968911 0.990465 0.985245
0.840449 0.896403 0.95754 0.979155
0.984008 0.997249 0.991708 0.994974
0.951459 0.972994 0.992551 0.985206
0.83945 0.91143 0.939617 0.980214
0.844823 0.920664 0.938485 0.977771
0.966442 0.985051 0.988321 0.992703
0.938731 0.956639 0.996724 0.984505
0.868235 0.926235 0.955847 0.980681
0.882324 0.953171 0.944044 0.98054
0.947033 0.964934 0.990386 0.990976
0.947676 0.952163 1.0129 0.982613
0.897486 0.942991 0.970229 0.980948
0.894245 0.96686 0.942114 0.981724
0.999318 1 1.00063 0.998685
0.999545 1 1.00072 0.998824
0.999071 1 1 0.999071
0.998851 1 1 0.998851
0.998943 1 1.00005 0.998891
0.999074 1 1 0.999074
0.999124 1 1 0.999124
0.999202 1 1 0.999202
0.988755 1.00569 0.984698 0.998436
0.984124 1.00014 0.985322 0.998643
0.999993 1 1.0013 0.998692
1.01384 1.00115 1.01438 0.998318
1.01411 1 1.01571 0.998422
1.00091 1 1.00234 0.998578
1.00035 1 1.00177 0.998589
0.971953 0.992714 0.980126 0.99894
1.00845 1 1.01 0.998465
1.01571 1.00001 1.01714 0.998586
0.998282 0.998601 1.00039 0.999296
1.00036 1 1.00174 0.998623
0.963124 0.983068 0.98047 0.999228
1.00861 0.995643 1.01358 0.999454
1.02618 1 1.02756 0.998661
1.00196 1 1.00338 0.998587
0.937574 0.955361 0.986819 0.99449
0.943482 0.962157 0.990502 0.989994
0.892274 0.91545 0.990944 0.983591
1.0022 0.999033 1.00375 0.999418
1.00806 0.994578 1.01414 0.999425
0.939858 0.963583 0.985293 0.989937
0.954723 0.956216 1.0144 0.984262
0.956154 0.960172 1.00271 0.993126
0.897273 0.941071 0.972588 0.980333
0.931601 0.958808 0.982473 0.988957
0.902121 0.973595 0.942271 0.983356
1.00627 0.995691 1.01096 0.999673
0.92503 0.952791 0.97706 0.993657
0.937018 0.966974 0.978111 0.990706
0.998503 0.982902 1.01607 0.999809
0.883555 0.95418 0.944337 0.980565
0.953058 0.958116 1.01112 0.983785
0.910358 0.947549 0.979578 0.980779
1.00684 0.991774 1.01542 0.999771
0.938332 0.966546 0.976133 0.994547
0.930577 0.955125 0.984275 0.989864
0.851951 0.926548 0.939551 0.978647
0.89726 0.944669 0.968565 0.980641
0.972799 0.96957 1.00523 0.998105
0.96635 0.959147 1.02609 0.981889
1.0088 1 1.00953 0.999284
1.01503 0.996327 1.01924 0.999541
1.00369 0.985885 1.01849 0.999582
0.99888 1 1 0.99888
1.0062 1 1.00709 0.99912
1.01989 0.998799 1.02173 0.999396
1.00232 1 1.00322 0.999096
1.00764 0.99829 1.00988 0.999488
1.00688 0.997429 1.01023 0.999254
0.999071 1 1 0.999071
0.998931 1 1 0.998931
1 1 1.001 0.999007
1.00638 1 1.00787 0.998516
0.999043 1 1 0.999043
1.00038 1 1.00198 0.998403
1.00187 1 1.00413 0.997748
1.00062 1.00134 1.00188 0.9974
0.998866 1 1.0004 0.998463
0.999023 1.00018 1.00109 0.997754
0.998557 1 1.00053 0.998033
1.00062 1 1.00232 0.998299
0.999247 1 1.00125 0.997996
1.00037 1 1.00163 0.998747
1.00004 1 1.00154 0.998501
0.99933 1 1.00128 0.998054
0.999248 1 1 0.999248
0.999128 1 1.00025 0.998881
0.999324 1 1.00068 0.998641
0.999068 1 1 0.999068
0.999359 1 1 0.999359
0.999806 1 1 0.999806
0.999424 1 1 0.999424
0.999833 1 1 0.999833
1 1 1 1
0.999846 1 1 0.999846
1 1 1 1
1 1 1 1
1 1 1 1
1 1 1 1
1 1 1 1
0.999293 1 1 0.999293
0.999762 1 1 0.999762
0.999385 1 1 0.999385
1 1 1 1
0.999827 1 1 0.999827
0.999505 1 1 0.999505
1 1 1 1
1 1 1 1
0.999874 1 1 0.999874
1 1 1 1
1 1 1 1
1 1 1 1
0.926829 0.953094 0.978606 0.993702
0.938834 0.962724 0.985905 0.989127
0.868617 0.910989 0.970427 0.982545
0.99904 1 1 0.99904
0.998992 1 1 0.998992
0.998889 1 1 0.998889
0.936127 0.967687 0.977565 0.989587
0.927924 0.953273 0.983405 0.989835
0.948655 0.969904 0.992803 0.985182
0.973043 0.987196 0.991322 0.994293
0.937255 0.956801 0.996223 0.983285
0.858777 0.91509 0.956667 0.98097
0.890568 0.958666 0.947677 0.980255
0.94942 0.965411 0.990514 0.992855
0.943416 0.951413 1.00822 0.983506
0.886663 0.928431 0.972414 0.982105
0.896259 0.969161 0.941231 0.98252
0.936212 0.954673 0.988938 0.991632
0.961762 0.962254 1.01583 0.983914
0.900619 0.932157 0.984161 0.981716
0.888631 0.955264 0.947121 0.982183
0.998673 1 1 0.998673
0.999535 1 1.00086 0.998679
0.999623 1 1.00082 0.998803
0.998847 1 1 0.998847
0.998927 1 1 0.998927
0.999132 1 1 0.999132
0.978763 0.995214 0.984493 0.998961
0.993575 0.998873 0.995369 0.999324
1.00052 1 1.00193 0.998598
1.01233 1.00003 1.01373 0.998591
1.00915 1 1.01067 0.998492
1.00015 1 1.00156 0.998599
1.00175 1 1.00315 0.998601
0.974553 0.986178 0.988945 0.999259
1.02305 1 1.02432 0.998763
1.00603 0.991053 1.01564 0.99948
1.00006 1 1.00135 0.998715
0.989163 0.975494 1.01459 0.999428
0.999267 0.988033 1.01185 0.999522
1.01876 1 1.0199 0.998887
0.953549 0.970439 0.986953 0.995586
0.937174 0.955505 0.985944 0.994798
0.943104 0.961095 0.991088 0.990104
1.00848 0.997818 1.01106 0.999635
0.993282 0.984604 1.00952 0.999296
0.925793 0.953178 0.977463 0.993664
0.953194 0.952386 1.01376 0.987263
0.909374 0.944511 0.980847 0.981599
0.935736 0.965457 0.977257 0.991772
0.891523 0.959255 0.948056 0.980312
1.00505 0.991394 1.01399 0.999788
0.939023 0.966859 0.976225 0.994863
0.929196 0.954474 0.983464 0.989886
0.971762 0.966286 1.01033 0.99538
0.849751 0.927343 0.937092 0.977843
0.884123 0.931161 0.967091 0.981795
0.975212 0.964514 1.02779 0.983751
1.00168 0.973821 1.029 0.999613
0.927582 0.953661 0.978754 0.993768
0.944301 0.969881 0.988023 0.985428
0.786787 0.866739 0.928345 0.977821
0.859662 0.924542 0.948054 0.980772
0.961694 0.962323 1.01602 0.983584
0.950063 0.961511 0.994224 0.993834
1.01422 0.995413 1.01939 0.999516
1.00701 0.989974 1.01763 0.999586
1.017 0.995034 1.02256 0.999529
1.00019 1 1.0011 0.999084
1.00784 0.99827 1.01011 0.999487
1.00813 0.997497 1.01134 0.999328
1.0162 1 1.01739 0.998829
1.00061 1 1.00163 0.998978
1.00667 1 1.00827 0.998414
1.01504 1 1.01743 0.997646
0.999947 1 1.00145 0.998503
1.0031 1.00032 1.00509 0.997706
1.00476 1.00174 1.00596 0.997073
1.00305 1.00416 1.00191 0.996991
0.998927 1.00014 1.00108 0.99771
1.00058 1.00133 1.00189 0.997363
0.999224 1.00032 1.00124 0.997663
0.999315 1 1.0011 0.99822
0.998601 1 1.00048 0.998122
1.00108 1 1.00259 0.998496
1.0007 1 1.00237 0.998337
0.99922 1 1.00117 0.998052
0.99974 1 1.00069 0.999055
1.00008 1 1.00133 0.998749
0.999944 1 1.00145 0.998494
0.999747 1 1 0.999747
0.999246 1 1 0.999246
0.999169 1 1.00029 0.998875
0.999357 1 1 0.999357
0.999802 1 1 0.999802
1 1 1 1
0.999831 1 1 0.999831
1 1 1 1
1 1 1 1
1 1 1 1
1 1 1 1
1 1 1 1
0.999284 1 1 0.999284
0.999769 1 1 0.999769
0.999312 1 1 0.999312
1 1 1 1
0.999793 1 1 0.999793
0.999413 1 1 0.999413
1 1 1 1
1 1 1 1
0.999821 1 1 0.999821
1 1 1 1
1 1 1 1
1 1 1 1
0.937699 0.965855 0.97621 0.994509
0.926825 0.953491 0.978185 0.993712
0.938488 0.96312 0.985132 0.989131
0.998968 1 1 0.998968
0.998853 1 1 0.998853
0.999057 1 1 0.999057
0.99899 1 1 0.99899
0.99887 1 1 0.99887
0.998877 1 1 0.998877
0.998777 1 1 0.998777
0.925804 0.955506 0.979847 0.988844
0.935639 0.965707 0.977999 0.990659
0.925915 0.952179 0.982381 0.989857
0.898845 0.972017 0.940411 0.983316
0.938211 0.955556 0.990587 0.991179
0.946425 0.952454 1.00928 0.984534
0.890858 0.929687 0.976624 0.98117
0.931784 0.954037 0.985622 0.990922
0.952565 0.95428 1.0156 0.982871
0.91254 0.948654 0.980314 0.981248
0.876959 0.946217 0.943473 0.982333
0.936497 0.955481 0.987252 0.992787
0.959138 0.95994 1.01697 0.982491
0.897333 0.940364 0.972225 0.981501
0.856762 0.931792 0.938614 0.979612
1.00008 1 1.00132 0.998766
0.998786 1 1.00011 0.998674
0.999866 1 1.00119 0.998673
0.998842 1 1 0.998842
0.983178 0.988428 0.995389 0.999296
1.00239 0.98718 1.01591 0.999505
0.998619 1 1.00004 0.998575
1.0015 1 1.00289 0.998615
1.01926 1 1.02041 0.998865
0.999518 1 1.00081 0.998708
1.01946 0.999792 1.02082 0.998873
0.984944 0.973733 1.01278 0.998754
1.00194 0.987529 1.01497 0.999633
1.00872 0.999184 1.01057 0.998979
0.990213 0.972289 1.01985 0.998616
1.01776 0.993579 1.02506 0.999299
0.938112 0.95564 0.98706 0.994527
0.949019 0.968477 0.983913 0.99593
0.936615 0.955657 0.984896 0.995105
1.00234 0.989975 1.01268 0.999805
0.974985 0.968065 1.00893 0.998238
0.938872 0.966512 0.976106 0.995182
0.968394 0.962778 1.02403 0.982229
0.887607 0.930807 0.97224 0.980816
0.927659 0.953813 0.982496 0.989907
0.844463 0.920784 0.937848 0.977892
1.00678 0.977409 1.03037 0.99969
0.927205 0.954007 0.977991 0.993778
0.946777 0.970419 0.990131 0.985362
0.952372 0.961393 0.994606 0.995989
0.78003 0.867241 0.921621 0.975931
0.865849 0.925403 0.954163 0.980593
0.959709 0.95751 1.01934 0.98328
0.999632 0.978719 1.02245 0.998947
0.93885 0.963413 0.985067 0.989277
0.853656 0.902018 0.965602 0.980098
0.824576 0.894293 0.939257 0.981672
0.945689 0.95013 1.01158 0.983929
0.932625 0.954127 0.98558 0.991766
1.01071 0.994092 1.01714 0.99959
1.01764 0.993567 1.02472 0.999522
1.01098 0.998692 1.01295 0.999359
1.00972 0.997801 1.01255 0.999402
1.01535 0.998537 1.01795 0.998904
1.00987 1.0008 1.01104 0.998045
1.00716 1 1.00886 0.998312
1.01411 1 1.01656 0.997594
1.00899 1.00017 1.0118 0.997052
1.00439 1.0007 1.00604 0.997663
1.00483 1.00137 1.00648 0.997004
1.0032 1.00209 1.00433 0.996788
1.00515 1.00815 1 0.997029
1.00496 1.00703 1.00077 0.997187
1.00358 1.00447 1.00218 0.996939
0.998511 1.00044 1.00013 0.997944
0.998736 1.00023 1.00074 0.997764
1.00057 1.00136 1.0019 0.997325
0.999358 1 1.00112 0.998245
0.999293 1 1.00108 0.998212
0.998635 1 1.00043 0.99821
1.00064 1 1.00185 0.998795
1.00096 1 1.00242 0.998536
1.00078 1 1.00241 0.998375
0.999612 1 1 0.999612
0.999584 1 1.00053 0.999056
0.999916 1 1.00117 0.998752
1 1 1 1
0.999741 1 1 0.999741
0.999244 1 1 0.999244
0.999797 1 1 0.999797
1 1 1 1
1 1 1 1
1 1 1 1
1 1 1 1
1 1 1 1
0.998962 1 1 0.998962
0.999229 1 1 0.999229
0.999716 1 1 0.999716
0.999282 1 1 0.999282
1 1 1 1
0.999772 1 1 0.999772
0.99933 1 1 0.99933
1 1 1 1
1 1 1 1
0.999825 1 1 0.999825
1 1 1 1
1 1 1 1
1 1 1 1
0.924359 0.953085 0.976082 0.993625
0.938177 0.966298 0.975944 0.99483
0.926958 0.953953 0.977844 0.993719
0.998979 1 1 0.998979
0.998838 1 1 0.998838
0.998779 1 1 0.998779
0.998839 1 1 0.998839
0.999158 1 1.00041 0.998749
0.998987 1 1 0.998987
0.998852 1 1 0.998852
0.998878 1 1 0.998878
0.998778 1 1 0.998778
0.99954 1 1.00072 0.998824
0.938502 0.961337 0.990788 0.985323
0.929471 0.957677 0.981478 0.988863
0.936133 0.964466 0.978718 0.99173
0.875506 0.946463 0.941568 0.982435
0.910059 0.942974 0.982985 0.9818
0.924371 0.949928 0.982952 0.989973
0.960803 0.961693 1.01563 0.983697
0.937228 0.957429 0.988092 0.990699
0.970284 0.969004 1.018 0.983614
0.894871 0.938156 0.971737 0.981605
0.857494 0.934435 0.93745 0.978891
0.957635 0.965309 0.999929 0.99212
0.960463 0.961668 1.0149 0.984087
0.846347 0.908494 0.949915 0.980712
0.809628 0.895839 0.924579 0.977489
1.00205 1 1.00289 0.999169
1.00162 1 1.00286 0.998766
0.999583 1 1.00091 0.998675
0.983183 0.972452 1.01299 0.998068
1.00455 0.986343 1.01871 0.999748
0.999852 1 1.00115 0.998701
1.02078 0.999695 1.02226 0.99886
1.0099 0.99963 1.0113 0.998987
1.01886 0.995613 1.02408 0.999289
0.986377 0.96904 1.01926 0.998653
1.01556 0.999084 1.01716 0.999345
0.992766 0.979316 1.01529 0.99847
0.946438 0.964963 0.990938 0.989772
0.937652 0.955629 0.986287 0.99483
0.944408 0.966587 0.980707 0.996275
1.01189 0.981247 1.03147 0.999761
0.951374 0.962339 0.995723 0.992852
0.927418 0.954329 0.977877 0.993787
0.960786 0.963726 1.01561 0.981629
0.858328 0.914579 0.956755 0.980914
0.949249 0.970964 0.99222 0.985301
0.776552 0.870378 0.915993 0.974026
0.998687 0.977328 1.02281 0.999062
0.940214 0.964032 0.985871 0.989271
0.845248 0.895604 0.96367 0.979354
0.935082 0.957225 0.983898 0.992855
0.835054 0.900796 0.945535 0.980416
0.934111 0.948086 1.00258 0.98272
0.974434 0.977555 0.998677 0.998128
0.879701 0.912752 0.980701 0.982755
0.83388 0.891953 0.952825 0.98118
0.950972 0.963025 1.00419 0.98336
0.931285 0.953597 0.98323 0.993259
1.01721 0.992199 1.0257 0.999515
1.01234 0.99721 1.01586 0.99933
0.995568 1.001 0.995871 0.998692
1.01401 0.996793 1.01831 0.998978
1.00991 1.0009 1.01089 0.998142
1.00216 1.00197 1.00259 0.99761
1.0129 1 1.01539 0.997543
1.00741 1.00032 1.01005 0.997068
0.999567 1.00147 1.00094 0.997162
1.00463 1.00097 1.00674 0.996935
1.00339 1.00301 1.00358 0.996809
1.00593 1.00876 1 0.997188
1.01509 1.01777 1 0.997366
1.00953 1.01249 1.00002 0.997067
1.00478 1.00776 1 0.997046
1.00194 1.00449 1 0.997467
1.00332 1.00511 1.00107 0.997141
1.00413 1.00481 1.00244 0.996887
0.998222 1.00012 1 0.998098
0.998321 1.00029 1.00002 0.998008
0.998443 1.00031 1.00032 0.997818
0.999786 1 1.00124 0.998546
0.999554 1 1.00129 0.998269
0.999297 1 1.0011 0.998204
0.999756 1 1.0004 0.999361
1.00046 1 1.00166 0.998796
1.00081 1 1.00223 0.998576
0.999996 1 1 0.999996
0.999606 1 1 0.999605
0.999468 1 1.00041 0.999057
1 1 1 1
0.999999 1 1 0.999999
0.999735 1 1 0.999735
1 1 1 1
1 1 1 1
1 1 1 1
0.998878 1 1 0.998878
0.999165 1 1 0.999165
0.998949 1 1 0.998949
0.999673 1 1 0.999673
0.999229 1 1 0.999229
0.999996 1 1 0.999996
0.999719 1 1 0.999719
0.99928 1 1 0.99928
1 1 1 1
1 1 1 1
0.999776 1 1 0.999776
1 1 1 1
1 1 1 1
1 1 1 1
0.942177 0.96718 0.983953 0.990036
0.924323 0.952715 0.976413 0.993635
0.938143 0.966023 0.975869 0.995152
0.998782 1 1 0.998782
0.998989 1 1 0.998989
0.998824 1 1 0.998824
0.998853 1 1 0.998853
0.998795 1 1 0.998795
0.998966 1 1.00021 0.998755
1.00005 1 1.0014 0.998645
1.00015 1 1.00143 0.998724
0.998878 1 1 0.998878
0.998778 1 1 0.998778
0.999693 1 1.00088 0.998815
1.00057 1 1.00161 0.99896
0.849025 0.90027 0.963334 0.978972
0.943813 0.966073 0.991595 0.985239
0.931207 0.957882 0.983082 0.988882
0.850857 0.929884 0.934588 0.979056
0.90194 0.945331 0.972551 0.981028
0.960322 0.960436 1.01764 0.982545
0.942292 0.958376 0.991669 0.991478
0.95709 0.962513 1.00054 0.993831
0.793186 0.883775 0.919872 0.975677
0.956178 0.957442 1.01638 0.982581
0.856122 0.919494 0.949071 0.981044
0.947537 0.960956 0.991726 0.994261
0.948493 0.95376 1.00989 0.984741
0.829054 0.899207 0.939858 0.980982
1.00031 1 1.00072 0.999591
1.00173 1 1.00256 0.999172
1.00277 1 1.00401 0.998765
0.983271 0.966722 1.01846 0.998687
1.0207 0.998461 1.02301 0.999278
1.01104 1 1.01206 0.998994
1.01482 0.999592 1.0159 0.999344
0.992806 0.980984 1.01355 0.998521
1.00021 0.991973 1.00939 0.998932
0.884981 0.916323 0.983633 0.981867
0.944659 0.963667 0.989347 0.99083
0.936798 0.955509 0.985213 0.995133
0.999071 0.975867 1.02463 0.999166
0.93097 0.957054 0.978998 0.993613
0.939821 0.964554 0.984924 0.989272
0.942594 0.948569 1.00946 0.984392
0.842998 0.913057 0.941651 0.980479
0.840644 0.896846 0.957038 0.979411
0.975996 0.978133 0.999627 0.998187
0.869021 0.9103 0.971478 0.982682
0.848567 0.898607 0.962052 0.981562
0.933399 0.953754 0.987467 0.99108
0.939582 0.959732 0.9944 0.984517
0.965007 0.986604 0.979088 0.999
0.863836 0.911725 0.964852 0.981989
0.953129 0.976067 0.99114 0.985229
0.945358 0.966251 0.987384 0.990877
1.01448 0.996184 1.01908 0.999301
0.990282 1.00047 0.991012 0.998796
0.984162 1.0026 0.983346 0.998236
1.01047 1.00103 1.01121 0.998239
1.00332 1.00238 1.00334 0.997601
1.00054 1.00336 0.999428 0.997763
1.00617 1.0005 1.00861 0.997083
0.999627 1.00111 1.00134 0.997175
1.01102 1.01334 1 0.997705
1.00375 1.00395 1.00299 0.99683
1.00556 1.00839 1 0.997195
1.01519 1.01746 1 0.997763
1.02052 1.02282 1 0.997758
1.01698 1.01973 1 0.997301
1.01456 1.01721 1 0.997393
1.00841 1.01116 1 0.997281
1.00873 1.01166 1 0.997109
1.0043 1.00726 1 0.997063
0.999844 1.00202 1 0.997832
1.00199 1.00437 1.00014 0.997489
1.0018 1.00323 1.00148 0.997094
0.998348 1 1 0.998348
0.99859 1.0005 1 0.998093
0.998073 1 1 0.998073
0.999382 1 1.00031 0.999075
0.999619 1 1.00107 0.998548
0.999737 1 1.00145 0.998294
0.999974 1 1 0.999974
0.999663 1 1.00031 0.999357
1.00015 1 1.00135 0.998798
1 1 1 1
0.999992 1 1 0.999992
0.999598 1 1 0.999598
1 1 1 1
0.999999 1 1 0.999999
1 1 1 1
0.998841 1 1 0.998841
0.998877 1 1 0.998877
0.999081 1 1 0.999081
0.99963 1 1 0.99963
0.999165 1 1 0.999165
0.998936 1 1 0.998936
0.99999 1 1 0.99999
0.999676 1 1 0.999676
0.999228 1 1 0.999228
1 1 1 1
0.999998 1 1 0.999998
0.999722 1 1 0.999722
1 1 1 1
1 1 1 1
1 1 1 1
0.874163 0.907383 0.98203 0.981019
0.940536 0.964975 0.984476 0.990043
0.925154 0.953228 0.976755 0.993645
0.998785 1 1.00002 0.998767
0.998705 1 1 0.998705
0.999495 1 1.00082 0.998681
0.998867 1 1 0.998867
0.998812 1 1 0.998812
0.999074 1 1.00031 0.99876
1.0001 1 1.00139 0.998719
0.999978 1 1.00133 0.998649
1.0005 1 1.00194 0.998559
0.998606 1 0.999547 0.999059
0.999419 1 1.00061 0.998806
0.999999 1 1.00106 0.998941
0.845055 0.89557 0.961904 0.980965
0.842578 0.893156 0.964476 0.978118
0.949101 0.970665 0.992511 0.985163
0.777838 0.869919 0.918165 0.973844
0.857214 0.917208 0.95298 0.980704
0.956758 0.959645 1.01226 0.984914
0.957945 0.960166 1.00589 0.991846
0.946314 0.960166 0.992997 0.992523
0.830425 0.892145 0.949792 0.980024
0.938784 0.94983 1.00422 0.984217
0.941524 0.961767 0.985703 0.993152
0.937561 0.961406 0.991327 0.983731
1.00719 1 1.00815 0.999045
0.99993 1 1.0004 0.99953
1.00101 1 1.00184 0.999175
0.991742 0.981319 1.01207 0.998566
1.01391 1 1.01457 0.999344
1.00081 0.992949 1.00909 0.99883
0.991638 0.996043 0.997499 0.998074
0.863151 0.924262 0.950489 0.982527
0.888791 0.916561 0.986791 0.982682
0.943716 0.962486 0.988526 0.991879
0.976279 0.98028 0.997633 0.998282
0.93279 0.953314 0.986509 0.991852
0.869302 0.911593 0.970324 0.982773
0.936706 0.956713 0.995607 0.983409
0.852079 0.90438 0.96 0.981427
0.968263 0.987259 0.98226 0.998471
0.868784 0.918325 0.963584 0.981806
0.953237 0.977128 0.991719 0.983696
0.951776 0.968068 0.990391 0.992709
0.978181 0.994035 0.985197 0.998837
0.954839 0.9815 0.988287 0.984366
0.962978 0.984766 0.98383 0.993947
0.985359 0.999977 0.986468 0.998898
0.984814 1.00341 0.983222 0.998213
0.983806 1.00655 0.979243 0.998118
1.00385 1.00271 1.00356 0.997593
0.999864 1.00347 0.998648 0.997758
1.01471 1.01942 0.997154 0.998214
0.999485 1.00064 1.00166 0.997189
1.01087 1.01321 1 0.997695
1.02024 1.02244 0.999654 0.998185
1.00503 1.00785 1 0.997202
1.01454 1.01682 1 0.997762
1.02088 1.02281 1 0.998114
1.01846 1.0205 1 0.998
1.02084 1.02309 1 0.997804
1.02027 1.02267 1 0.99765
1.01615 1.01882 1 0.997382
1.0176 1.02035 1 0.997306
1.01409 1.01671 1 0.99742
1.00443 1.00689 1 0.997552
1.00895 1.01167 1 0.997317
1.00794 1.01082 1 0.997151
0.998462 1.00033 1 0.998134
1.00059 1.00277 1 0.997825
1.00216 1.00449 1.00017 0.997511
0.998866 1 1 0.998866
0.998346 1 1 0.998346
0.999054 1.00097 1 0.998088
0.999895 1 1 0.999895
0.999423 1 1.00035 0.999075
0.999538 1 1.00099 0.99855
1 1 1 1
0.999957 1 1 0.999957
0.999654 1 1.0003 0.999353
1 1 1 1
0.999988 1 1 0.999988
1 1 1 1
0.998776 1 1 0.998776
0.998833 1 1 0.998833
0.998989 1 1 0.998989
0.998877 1 1 0.998877
0.99908 1 1 0.99908
0.999564 1 1 0.999564
0.999985 1 1 0.999985
0.999633 1 1 0.999633
0.999166 1 1 0.999166
1 1 1 1
0.999992 1 1 0.999992
0.999678 1 1 0.999678
1 1 1 1
0.999999 1 1 0.999999
1 1 1 1
0.871522 0.915681 0.969323 0.981897
0.876878 0.911816 0.980535 0.980773
0.939017 0.962997 0.984901 0.990048
0.998752 1 1 0.998752
0.999511 1 1.00087 0.998639
0.998746 1 1 0.998746
0.998426 1 1 0.998426
0.999341 1 1.00074 0.998606
1.00011 1 1.0014 0.998715
0.9997 1 1.00105 0.998653
1.00034 1 1.00175 0.998591
0.998438 1 1 0.998438
0.997593 1.00026 0.998467 0.998865
0.998641 1.00034 1.00026 0.998049
0.999354 1 1.00025 0.999109
0.999797 1 1.00088 0.998922
0.948137 0.975739 0.98769 0.983822
0.847866 0.894217 0.966455 0.981076
0.843466 0.896142 0.962328 0.978065
0.828745 0.893043 0.94697 0.979969
0.943784 0.953006 1.00782 0.982642
0.948973 0.958482 0.995658 0.994397
0.942651 0.960843 0.986654 0.994337
0.94366 0.962929 0.994749 0.985163
0.964776 0.98566 0.985368 0.993347
1.00072 1.00132 1.00116 0.998242
1.00568 1 1.00666 0.999023
0.99947 1 1 0.99947
1.00144 0.994702 1.00804 0.998746
0.996959 0.999799 0.999171 0.997987
0.934781 0.973698 0.974567 0.985085
0.872114 0.923542 0.961322 0.982308
0.893762 0.917194 0.990791 0.98351
0.971038 0.98835 0.984533 0.997919
0.946976 0.963568 0.991721 0.990985
0.86963 0.915965 0.967203 0.981607
0.95214 0.973777 0.99264 0.985029
0.978586 0.994114 0.985505 0.998859
0.957728 0.985202 0.986357 0.985559
0.963962 0.984772 0.986658 0.992106
0.997128 1.00476 0.994095 0.998296
0.978954 0.995945 0.987066 0.995819
0.985584 1.00439 0.983051 0.998196
0.985379 1.00604 0.981356 0.99807
1.00479 1.02624 0.980824 0.998246
0.999446 1.00358 0.998123 0.997752
1.01407 1.01899 0.996962 0.9982
1.02144 1.0292 0.994047 0.998403
1.01087 1.01322 1 0.997685
1.02003 1.0226 0.99931 0.998168
1.01951 1.02276 0.998509 0.998311
1.01409 1.01636 1 0.997762
1.02112 1.02313 0.999938 0.998098
1.01953 1.02143 1 0.998142
1.01913 1.02113 1 0.998043
1.01836 1.02056 1 0.997841
1.02114 1.02334 1 0.997851
1.02014 1.02255 1 0.997643
1.01898 1.02149 1 0.997545
1.0109 1.01343 1 0.997497
1.01599 1.01867 1 0.997373
1.01819 1.02093 1 0.997312
0.99985 1.00192 1 0.99793
1.00442 1.00686 1 0.997574
1.00943 1.01211 1 0.997352
0.998697 1 1 0.998697
0.9988 1.00067 1 0.99813
1.00104 1.00323 1 0.997818
0.999767 1 1 0.999767
0.998866 1 1 0.998866
0.998345 1 1 0.998345
1 1 1 1
0.999873 1 1 0.999873
0.999379 1 1.0003 0.999076
1 1 1 1
0.999941 1 1 0.999941
1 1 1 1
0.998732 1.00029 1 0.998439
0.998775 1 1 0.998775
0.998856 1 1 0.998856
0.998825 1 1 0.998825
0.998968 1 1 0.998968
0.99944 1 1 0.99944
0.99908 1 1 0.99908
0.999566 1 1 0.999566
0.999977 1 1 0.999977
1 1 1 1
0.999986 1 1 0.999986
0.999635 1 1 0.999635
1 1 1 1
0.999994 1 1 0.999994
1 1 1 1
0.954336 0.982034 0.985703 0.985892
0.864073 0.917805 0.958353 0.982369
0.887947 0.918256 0.986175 0.980549
0.999555 1 1.00096 0.998598
0.998786 1 1 0.998786
0.99926 1 1.00065 0.998614
0.998443 1 1 0.998443
1.00111 1.00303 1.00002 0.998068
0.998489 1 1 0.998489
1.00024 1 1.00162 0.998623
0.998335 1 1 0.998335
0.998458 1.00013 0.999498 0.998831
0.998382 1.00011 1 0.998272
0.9993 1.00248 0.998608 0.998219
0.998164 1.00129 0.999232 0.997646
0.998615 1.00081 0.999641 0.998169
1.00028 1 1.00112 0.99916
0.963192 0.986756 0.98249 0.993516
0.950794 0.976969 0.988433 0.984597
0.842843 0.89497 0.959627 0.981377
0.956183 0.969464 1.00294 0.983413
0.9423 0.960034 0.986266 0.995196
0.968713 0.986499 0.986379 0.995531
0.993349 1.00377 0.991388 0.998213
0.998507 1.00067 0.999549 0.998289
1.00462 1 1.00563 0.999001
0.99714 1.00112 0.998139 0.997881
0.965639 0.981719 0.990034 0.993521
0.947231 0.977297 0.982402 0.986598
0.863248 0.918637 0.956485 0.982457
0.980027 0.995021 0.986034 0.99888
0.968276 0.986842 0.987649 0.993456
0.961452 0.985463 0.988725 0.986762
0.990966 1.00388 0.988811 0.99831
0.976743 0.993807 0.987591 0.995179
0.997663 1.02328 0.976844 0.998072
1.00561 1.01515 0.992873 0.997714
0.986644 1.0054 0.983294 0.998018
1.0047 1.02567 0.981289 0.998237
1.00836 1.03338 0.977476 0.998279
1.01364 1.01887 0.996675 0.998187
1.02114 1.02902 0.993949 0.998388
1.01495 1.02371 0.99318 0.998256
1.0197 1.02267 0.998942 0.998152
1.01902 1.02243 0.998362 0.998295
1.02013 1.02347 0.998624 0.998105
1.02132 1.02342 0.999869 0.998082
1.01897 1.02094 0.999935 0.998139
1.0185 1.02066 1 0.997884
1.01983 1.02178 1 0.998087
1.01826 1.02043 1 0.997876
1.01936 1.02178 1 0.997634
1.02007 1.02248 1 0.997636
1.01886 1.02138 1 0.997536
1.01445 1.01691 1 0.997581
1.00225 1.00448 1 0.997779
1.01055 1.01307 1 0.997516
1.01583 1.01851 1 0.997363
0.998523 1 1 0.998523
1.00062 1.0027 1 0.99793
1.00464 1.00706 1 0.997595
0.999626 1 1 0.999626
0.998695 1 1 0.998695
0.999177 1.00105 1 0.998126
1 1 1 1
0.999752 1 1 0.999752
0.998866 1 1 0.998866
1 1 1 1
0.999852 1 1 0.999852
1 1 1 1
1.00061 1.0025 1 0.99812
0.998597 1.00015 1 0.998452
0.998627 1 1 0.998627
0.998774 1 1 0.998774
0.998835 1 1 0.998835
0.999268 1 1 0.999268
0.998947 1 1 0.998947
0.999442 1 1 0.999442
0.999961 1 1 0.999961
0.999568 1 1 0.999568
0.99998 1 1 0.99998
1 1 1 1
1 1 1 1
0.999988 1 1 0.999988
1 1 1 1
0.964725 0.984892 0.985545 0.993891
0.950533 0.98278 0.982132 0.984785
0.857615 0.913399 0.956088 0.982051
1.00654 1.00875 1.00007 0.997743
0.999194 1 1.00057 0.998622
0.99846 1 1 0.99846
0.998459 1 1 0.998459
1.00091 1.00274 1.00012 0.998057
1.00013 1.00177 1 0.998358
0.998233 1 1 0.998233
0.999188 1 1.00039 0.998798
0.998542 1.00028 0.999946 0.998313
0.998171 1.00168 0.998303 0.998193
1.00123 1.00362 1 0.997611
1.00297 1.0058 0.999583 0.997604
0.999246 1.00195 0.999697 0.997599
0.998711 1.00134 0.999087 0.99829
0.9951 1.00619 0.990262 0.998706
0.96254 0.987142 0.982314 0.992632
0.954752 0.978384 0.990036 0.985667
0.96278 0.982595 0.985808 0.99394
0.99742 1.00584 0.993048 0.998571
0.999199 1.0002 1.00067 0.998335
0.99785 1.00668 0.993432 0.99778
0.961154 0.975013 0.990962 0.994776
0.940176 0.976716 0.977069 0.98518
0.984393 1.00227 0.983823 0.998317
0.98027 0.994986 0.990775 0.994383
0.999079 1.02421 0.977309 0.998109
1.0045 1.01368 0.993077 0.997852
1.00586 1.03068 0.977806 0.998074
1.02201 1.02771 0.996463 0.997981
1.00442 1.02479 0.981869 0.998229
1.01086 1.03456 0.978783 0.998278
1.00808 1.02747 0.982974 0.998119
1.02053 1.02852 0.993854 0.998374
1.01545 1.0239 0.993483 0.998252
1.01953 1.0254 0.996273 0.997994
1.01857 1.02211 0.998254 0.99828
1.02002 1.02312 0.998854 0.998118
1.02054 1.02282 0.999964 0.997808
1.01838 1.02041 0.999876 0.998135
1.01846 1.02062 1 0.997884
1.02116 1.02358 1 0.997637
1.01813 1.02026 1 0.997911
1.01939 1.02179 1 0.997656
1.01624 1.01873 1 0.997557
1.01872 1.02124 1 0.997528
1.01427 1.01675 1 0.99756
1.00483 1.00708 1 0.997762
0.998429 1.00003 1 0.998398
1.00263 1.00484 1 0.997804
1.01016 1.01266 1 0.997535
0.999497 1 1 0.999497
0.998523 1 1 0.998523
1.00133 1.0034 1 0.99793
1 1 1 1
0.999614 1 1 0.999614
0.998694 1 1 0.998694
1 1 1 1
0.999736 1 1 0.999736
1 1 1 1
1.00224 1.00444 1 0.997809
1.00008 1.00195 1 0.998125
0.998557 1.00019 1 0.998367
0.998471 1 1.00001 0.998465
0.998634 1 1 0.998634
0.99908 1 1.00001 0.999074
0.998814 1 1 0.998814
0.999268 1 1 0.999268
0.999924 1 1 0.999924
0.999444 1 1 0.999444
0.999967 1 1 0.999967
1 1 1 1
0.999982 1 1 0.999982
1 1 1 1
1 1 1 1
0.999107 1.01054 0.990007 0.998668
0.959138 0.983038 0.983392 0.992166
0.949328 0.975694 0.986609 0.986183
1.00625 1.0083 1.00001 0.99795
1.01156 1.01403 1 0.997565
1.00565 1.00775 1.00013 0.997784
0.998429 1 1 0.998429
1.0007 1.00241 1.00024 0.998045
1.00083 1.00253 1 0.998302
1.00823 1.01056 1 0.99769
0.99863 1.00043 0.999848 0.998353
0.996983 1.00077 0.998047 0.998166
1.00193 1.00432 0.999939 0.997672
1.01037 1.01306 1 0.997354
1.01071 1.01768 0.99522 0.997919
1.0031 1.00614 0.999397 0.997578
1 1.00262 0.999831 0.997553
0.999237 1.00848 0.991995 0.998826
0.964731 0.987411 0.985309 0.991598
0.997849 1.00709 0.991874 0.998937
1.01415 1.02226 0.993516 0.998538
0.996785 1.00539 0.993563 0.997863
0.960892 0.979432 0.98792 0.993066
1.00107 1.02538 0.978105 0.998144
1.00261 1.01245 0.992264 0.997995
1.00507 1.03071 0.976946 0.998139
1.02381 1.02985 0.99614 0.99799
1.01925 1.03257 0.989093 0.997991
1.03483 1.04152 0.995467 0.998101
1.01353 1.03626 0.979754 0.998276
1.00937 1.02716 0.984536 0.998122
1.02242 1.03183 0.99296 0.997901
1.01601 1.02415 0.993795 0.998249
1.01975 1.02497 0.996907 0.997992
1.02427 1.02718 0.999397 0.997763
1.01987 1.02272 0.999079 0.998132
1.02082 1.02307 0.99999 0.997806
1.02375 1.02624 1 0.997577
1.01842 1.02058 1 0.997884
1.02103 1.02345 1 0.997637
1.01846 1.021 1 0.99751
1.01943 1.0218 1 0.997678
1.01606 1.01854 1 0.997563
1.00605 1.00836 1 0.997708
1.01413 1.01663 1 0.997539
1.00477 1.00703 1 0.997751
0.998538 1.00021 1 0.998324
0.999419 1 1 0.999419
0.99846 1.00006 1 0.998398
1.00304 1.00523 1 0.99783
1 1 1 1
0.999486 1 1 0.999486
0.998522 1 1 0.998522
1 1 1 1
0.999601 1 1 0.999601
1 1 1 1
1.00457 1.00701 1 0.997579
1.00222 1.00445 1 0.997782
0.999701 1.00163 1 0.998079
0.999526 1.0014 1 0.99813
0.998486 1.00011 1 0.998371
0.99886 1 1 0.99886
0.998641 1 1 0.998641
0.999146 1 1.00007 0.999075
0.999843 1 1 0.999843
0.999268 1 1 0.999268
0.999936 1 1 0.999936
1 1 1 1
0.999972 1 1 0.999972
1 1 1 1
1 1 1 1
1.01051 1.0226 0.989795 0.998366
0.99613 1.00952 0.988416 0.998301
0.956987 0.983729 0.979699 0.992974
1.01429 1.0167 1 0.99763
1.00602 1.00793 1 0.998111
1.02206 1.02465 1 0.997479
1.01172 1.01421 1 0.997551
1.00488 1.00689 1.00018 0.997826
1.02083 1.02353 1 0.997362
1.00155 1.00331 1 0.998247
1.00744 1.00983 1 0.997631
1.0261 1.02952 0.999132 0.997535
1.00252 1.00488 0.999914 0.997734
1.0114 1.01412 1 0.997322
1.0106 1.01722 0.995551 0.997935
1.00281 1.00576 0.999518 0.997551
1.00293 1.01035 0.993699 0.998947
1.02825 1.03714 0.993243 0.998174
1.01399 1.0222 0.993409 0.998542
0.996729 1.00409 0.994716 0.997941
1.00447 1.03033 0.976654 0.998205
1.02446 1.03113 0.995518 0.997999
1.01802 1.03286 0.987597 0.998006
1.03489 1.04245 0.994636 0.998103
1.0323 1.04137 0.993278 0.997999
1.01046 1.02664 0.986086 0.998126
1.02227 1.03138 0.993245 0.997909
1.02775 1.03351 0.996651 0.997772
1.01996 1.02457 0.997506 0.997989
1.02394 1.02667 0.999593 0.997745
1.02591 1.02847 1 0.997518
1.02118 1.02342 1 0.997805
1.02352 1.026 1 0.997576
1.0214 1.02402 1 0.997441
1.02093 1.02334 1 0.997638
1.01847 1.02101 1 0.997512
1.0077 1.01011 1 0.997621
1.01588 1.01835 1 0.997569
1.00621 1.00852 1 0.997711
0.998841 1.00059 1 0.998248
1.00469 1.00697 1 0.99774
0.998626 1.0003 1 0.998322
0.999481 1 1 0.999481
0.999842 1 1 0.999842
0.999452 1 1 0.999452
0.998493 1.0001 1 0.998397
1 1 1 1
0.999475 1 1 0.999475
1 1 1 1
1.02823 1.03078 1 0.997526
1.01421 1.01671 1 0.997541
1.00532 1.00777 1 0.997565
1.00275 1.00487 1 0.99789
1.00212 1.00437 1 0.997756
0.999192 1.00111 1 0.998082
0.998651 1 1 0.998651
0.998428 1.00005 1 0.998376
0.998866 1 1 0.998864
0.999707 1 1 0.999707
0.999076 1 1 0.999076
0.999862 1 1 0.999862
1 1 1 1
0.999948 1 1 0.999948
1 1 1 1
1 1 1 1
1.02907 1.03597 0.995404 0.997927
1.01396 1.02585 0.989941 0.99845
0.993895 1.00962 0.986464 0.997935
1.02367 1.02633 1 0.997411
1.01364 1.01598 1 0.997699
1.00568 1.00742 1 0.998269
1.02176 1.02432 1 0.997499
1.01188 1.01438 1 0.997537
1.03092 1.03369 0.999803 0.997517
1.01867 1.0214 1 0.997324
1.00678 1.00923 1 0.997572
1.02545 1.02872 0.999287 0.997529
1.01333 1.01609 1 0.99729
1.01251 1.01901 0.995653 0.997954
1.03465 1.04211 0.994741 0.998089
1.03014 1.03841 0.99384 0.998186
1.01456 1.02222 0.993957 0.998547
1.01759 1.03395 0.986128 0.998022
1.03576 1.04389 0.994096 0.998104
1.03243 1.04214 0.992655 0.998012
1.03107 1.03725 0.996201 0.997837
1.02197 1.0308 0.993495 0.997917
1.02747 1.03281 0.997059 0.997763
1.02831 1.03086 1 0.997521
1.02358 1.02611 0.999807 0.997727
1.02645 1.02901 1 0.997519
1.02445 1.02714 1 0.997381
1.02323 1.02572 1 0.997575
1.02149 1.02411 1 0.997441
1.00949 1.01199 1 0.997527
1.01848 1.02101 1 0.997514
1.00793 1.01033 1 0.997623
0.999212 1.00106 1 0.998149
1.00637 1.00868 1 0.997713
0.99896 1.00072 1 0.998246
0.99948 1 1 0.99948
0.998712 1.00039 1 0.99832
0.999477 1 1 0.999477
0.999852 1 1 0.999852
0.999923 1 1 0.999923
0.999486 1 1 0.999486
1 1 1 1
1.02753 1.03019 1 0.997413
1.01953 1.02202 1 0.997565
1.02804 1.03049 1 0.997627
1.00572 1.00797 1 0.997765
1.01561 1.01812 1 0.997533
1.00616 1.00863 1 0.99755
1.00173 1.00385 1 0.997888
0.998685 1.00021 1 0.998473
0.998715 1.00063 1 0.998086
0.998652 1 1 0.998652
0.999555 1 1 0.999555
0.999008 1 1.00014 0.998867
0.999726 1 1 0.999726
1 1 1 1
0.99988 1 1 0.99988
1 1 1 1
1 1 1 1
1.03332 1.0379 0.997769 0.997809
1.02896 1.03581 0.995459 0.997924
1.01559 1.02766 0.989711 0.998528
1.03068 1.03332 1 0.997447
1.0227 1.02535 1 0.997414
1.01313 1.0154 1 0.997769
1.02132 1.02386 1 0.997519
1.03063 1.03343 0.99979 0.997497
1.01653 1.0193 1 0.997285
1.02342 1.02653 0.999438 0.997523
1.03341 1.0389 0.996814 0.997899
1.03409 1.04125 0.99506 0.998051
1.03207 1.03985 0.994314 0.998199
1.03107 1.03542 0.998076 0.997724
1.03243 1.04274 0.99207 0.998024
1.03078 1.037 0.996171 0.997825
1.0299 1.03267 0.999718 0.997606
1.02725 1.03215 0.997492 0.997754
1.02936 1.03196 0.999956 0.997524
1.02582 1.02855 1 0.997352
1.02697 1.02952 1 0.997519
1.02417 1.02686 1 0.997382
1.01124 1.01383 1 0.99745
1.02153 1.02415 1 0.997442
1.00976 1.01226 1 0.997528
0.999594 1.00155 1 0.998049
1.00814 1.01054 1 0.997624
0.999343 1.0012 1 0.998148
0.999458 1 1 0.999458
0.999084 1.00084 1 0.998244
0.999472 1 1 0.999472
0.999855 1 1 0.999855
0.999474 1 1 0.999474
0.999855 1 1 0.999855
1 1 1 1
1.0282 1.03097 1 0.997315
1.02131 1.02396 1 0.997416
1.02815 1.0308 1 0.99743
1.00736 1.00963 1 0.997744
1.01976 1.02224 1 0.997571
1.02793 1.03027 1 0.997727
0.99911 1.00079 1 0.998319
1.00528 1.00754 1 0.99776
1.01713 1.01965 1 0.997524
1.0006 1.00272 1 0.997887
0.998575 1.0001 1 0.998474
0.999443 1 1 0.999443
0.998654 1 1 0.998654
0.999568 1 1 0.999568
1 1 1 1
0.999744 1 1 0.999744
1 1 1 1
1 1 1 1
1.03332 1.03644 0.999324 0.997665
1.03324 1.03821 0.997411 0.997794
1.02946 1.03622 0.99554 0.99792
1.03016 1.03279 1 0.997455
1.02167 1.02432 1 0.997417
1.03016 1.033 0.999773 0.997476
1.03157 1.03498 0.998972 0.997728
1.03352 1.03891 0.996908 0.997891
1.03341 1.04029 0.995367 0.998013
1.03173 1.03601 0.998124 0.997743
1.03019 1.03286 0.999867 0.997554
1.03049 1.03677 0.996115 0.997813
1.03032 1.03302 0.999813 0.997573
1.02566 1.02833 1 0.997398
1.03036 1.03301 0.999905 0.997526
1.02546 1.02818 1 0.997355
1.01266 1.01531 1 0.997391
1.02402 1.0267 1 0.997383
1.01163 1.01422 1 0.997451
0.999931 1.00196 1 0.997971
1.01009 1.01259 1 0.997529
0.999721 1.00168 1 0.998048
0.999413 1 1 0.999413
0.99948 1.00134 1 0.998146
0.999447 1 1 0.999447
0.999842 1 1 0.999842
0.999467 1 1 0.999467
0.999863 1 1 0.999863
0.999855 1 1 0.999855
1.02992 1.0325 1 0.997502
1.02362 1.02641 1 0.997286
1.02857 1.03132 1 0.99733
1.00984 1.01227 1 0.997593
1.02098 1.02362 1 0.997419
1.02873 1.03136 1 0.997448
0.999521 1.00132 1 0.998203
1.00736 1.00968 1 0.997698
1.01984 1.02232 1 0.997578
0.999384 1 1 0.999384
0.998937 1.00062 1 0.998321
1.00488 1.00714 1 0.997755
0.998476 1 1 0.998476
0.999453 1 1 0.999453
1 1 1 1
0.999581 1 1 0.999581
1 1 1 1
1 1 1 1
1.0301 1.03292 0.999645 0.997632
1.03249 1.03587 0.999068 0.997662
1.03326 1.03862 0.997058 0.997779
1.02962 1.03224 1 0.997463
1.03002 1.03258 1 0.997517
1.03234 1.03596 0.998758 0.997738
1.03356 1.03885 0.997021 0.997883
1.03242 1.03664 0.998165 0.997762
1.02948 1.03237 0.999641 0.997565
1.02537 1.02803 1 0.997409
1.03085 1.03348 0.999911 0.997539
1.02538 1.02807 1 0.99738
1.01349 1.01617 1 0.997368
1.02506 1.02778 1 0.997359
1.01287 1.01552 1 0.997393
1.00006 1.00217 1 0.997903
1.0119 1.01449 1 0.997451
0.999979 1.00201 1 0.997971
0.999277 1 1 0.999277
0.999821 1.00178 1 0.998048
0.999363 1 1 0.999363
1 1 1 1
0.999437 1 1 0.999437
0.999854 1 1 0.999854
0.999867 1 1 0.999867
1.02839 1.0309 1 0.997562
1.02463 1.02734 1 0.997356
1.02951 1.0321 1 0.997498
1.01242 1.01504 1 0.997411
1.02362 1.02638 1 0.997308
1.02903 1.03177 1 0.997345
0.999972 1.00196 1 0.998014
1.00992 1.01236 1 0.997592
1.02073 1.02337 1 0.997422
0.99936 1 1 0.99936
0.999364 1.0012 1 0.998161
1.00739 1.00976 1 0.997653
1 1 1 1
0.999395 1 1 0.999395
0.998748 1.00042 1 0.998324
0.999463 1 1 0.999463
1 1 1 1
1 1 1 1
1.02855 1.0311 1 0.997529
1.03054 1.03331 0.99968 0.99764
1.03164 1.03529 0.998807 0.99766
1.0264 1.02912 1 0.997355
1.02904 1.0316 1 0.997525
1.03305 1.0369 0.998537 0.997748
1.02877 1.03186 0.999427 0.997576
1.02539 1.02805 1 0.997409
1.01318 1.0158 1 0.997421
1.02502 1.02774 1 0.997361
1.01345 1.0161 1 0.997396
1.00012 1.00235 1 0.997774
1.01315 1.01579 1 0.997395
1.00013 1.00223 1 0.997904
0.999225 1 1 0.999225
1.00007 1.0021 1 0.99797
0.999274 1 1 0.999274
1 1 1 1
0.999305 1 1 0.999305
0.999915 1 1 0.999915
0.999863 1 1 0.999863
1.02608 1.02863 1 0.997521
1.02488 1.02755 1 0.997403
1.02815 1.03066 1 0.997565
1.01343 1.01606 1 0.997415
1.02515 1.02787 1 0.997348
1.02912 1.03171 1 0.997495
1.00059 1.00268 1 0.997908
1.01236 1.01495 1 0.997455
1.02356 1.0263 1 0.997329
0.999333 1 1 0.999333
0.999943 1.00195 1 0.998
1.01 1.01244 1 0.997591
1 1 1 1
0.999369 1 1 0.999369
0.999215 1.0011 1 0.998119
1 1 1 1
0.999405 1 1 0.999405
1 1 1 1
1.02686 1.02954 1 0.997398
1.02801 1.03057 1 0.997519
1.03105 1.03378 0.999712 0.997647
1.01234 1.01497 1 0.997409
1.02643 1.02913 1 0.997372
1.02813 1.03068 1 0.997532
1.02541 1.02807 1 0.99741
1.01322 1.01584 1 0.997421
0.99978 1.00205 1 0.997736
1.01342 1.01604 1 0.997425
1.00013 1.00233 1 0.997809
0.99916 1 1 0.99916
1.00016 1.00226 1 0.997904
0.999222 1 1 0.999222
1 1 1 1
0.999271 1 1 0.999271
1 1 1 1
0.999846 1 1 0.999846
1.02531 1.02796 1 0.997425
1.02614 1.02868 1 0.997534
1.01307 1.01568 1 0.997426
1.02496 1.02763 1 0.997402
1.02789 1.0304 1 0.997568
1.00058 1.00266 1 0.99793
1.01326 1.01588 1 0.997411
1.02565 1.02839 1 0.997339
0.999288 1 1 0.999288
1.00064 1.00271 1 0.997937
1.01229 1.01483 1 0.997498
1 1 1 1
0.999339 1 1 0.999339
0.999916 1.00193 1 0.997986
1 1 1 1
0.999378 1 1 0.999378
1 1 1 1
1.01211 1.0147 1 0.997445
1.02677 1.02946 1 0.997391
1.02738 1.02994 1 0.99751
0.999092 1.00136 1 0.997739
1.01238 1.01501 1 0.997409
1.02643 1.02912 1 0.997388
1.01327 1.01589 1 0.997421
0.999781 1.00205 1 0.997739
0.999113 1 1 0.999113
1.00016 1.00232 1 0.997843
0.999157 1 1 0.999157
1 1 1 1
0.999218 1 1 0.999218
1 1 1 1
1 1 1 1
1.01248 1.0151 1 0.997424
1.02497 1.0276 1 0.997439
1.02621 1.02873 1 0.997548
1.00009 1.00219 1 0.997908
1.01307 1.01569 1 0.997424
1.02501 1.02768 1 0.997401
0.999239 1 1 0.999239
1.00066 1.00274 1 0.997928
1.01312 1.01575 1 0.997408
1 1 1 1
0.999292 1 1 0.999292
1.0007 1.00274 1 0.997966
1 1 1 1
0.999345 1 1 0.999345
1 1 1 1
0.998831 1.001 1 0.997829
1.01203 1.01466 1 0.997409
1.0267 1.02939 1 0.997385
0.999111 1 1 0.999111
0.999117 1.00138 1 0.997737
1.01242 1.01505 1 0.997409
0.999782 1.00205 1 0.997741
0.999112 1 1 0.999112
1 1 1 1
0.999154 1 1 0.999154
1 1 1 1
1 1 1 1
0.999315 1.00145 1 0.997873
1.01228 1.01489 1 0.997423
1.02467 1.02729 1 0.997454
0.999315 1 1 0.999315
1.00027 1.00237 1 0.997906
1.01309 1.01571 1 0.997421
1 1 1 1
0.999241 1 1 0.999241
1.00072 1.0028 1 0.997926
1 1 1 1
0.999295 1 1 0.999295
1 1 1 1
0.999111 1 1 0.999111
0.998919 1.00112 1 0.997798
1.01196 1.01463 1 0.997372
1 1 1 1
0.99911 1 1 0.99911
0.999139 1.00141 1 0.997736
0.999111 1 1 0.999111
1 1 1 1
1 1 1 1
0.999268 1 1 0.999268
0.999556 1.00169 1 0.997873
1.01204 1.01466 1 0.997421
1 1 1 1
0.9992 1 1 0.9992
1.00045 1.00256 1 0.997904
1 1 1 1
0.999242 1 1 0.999242
1 1 1 1
0.999765 1 1 0.999765
0.99919 1 1 0.99919
0.999 1.00124 1 0.997767
1 1 1 1
0.999111 1 1 0.999111
1 1 1 1
0.999782 1 1 0.999782
0.999218 1 1 0.999218
0.999803 1.00193 1 0.997873
0.999894 1 1 0.999894
0.999199 1 1 0.999199
1 1 1 1
1 1 1 1
0.999133 1 1 0.999133
1 1 1 1
0.999888 1 1 0.999888
0.999163 1 1 0.999163
1 1 1 1
1 1 1 1
1 1 1 1

VECTORS lamdaE float
1.00032 1.00014 0.99493
1.00012 1.00044 0.997582
0.999988 1.00035 0.995123
1.00058 0.999938 0.994749
1.00042 0.999947 0.994997
1.00027 1.00032 0.994793
1.00159 1.00048 0.992081
1.00015 1.00035 0.997582
1.00004 1.00022 0.997886
0.999624 1.00074 0.997927
1.00013 1.00037 0.994969
1.00139 1.00122 0.991078
1.0004 1.00001 0.99484
1.00013 0.999996 0.995078
0.999691 1.00058 0.995289
1.00034 0.999916 0.994989
0.999917 1.00063 0.994963
1.00014 1.00002 0.995203
1.00176 1.00031 0.992
1.0004 1 0.997506
1.00059 0.999997 0.994655
1.00052 0.999883 0.99491
1.00192 1 0.991995
1.00176 1.00011 0.992156
1.00027 1.0003 0.99474
1.00135 1.001 0.99195
1.00428 1.00027 0.98774
1.00015 1.0003 0.997602
1.00019 1.0001 0.996394
0.999873 1.00056 0.996412
1.00013 1.00015 0.997681
1.00129 1.00136 0.991076
1.00047 0.999846 0.994835
1.00019 1.00037 0.9949
1.00203 1.00016 0.992395
0.999626 0.999598 0.998334
1.0017 1.00083 0.992376
1.00105 1.0017 0.991185
1.00343 1.00167 0.987083
0.999712 0.998527 0.99868
1.00041 1.00001 0.997485
1.00029 1.00001 0.996279
1.00038 0.999993 0.997505
1.00005 1.00004 0.995158
1.00203 1.00002 0.991194
1.00021 0.999966 0.997797
1.00219 1.0001 0.99221
1.0001 0.999855 0.995229
0.999886 1.00008 0.995396
0.999582 1.00098 0.995117
1.00191 1.00014 0.991932
1.00027 1.00002 0.996306
1.00034 1 0.994901
0.999913 1.00067 0.994899
1.00028 0.999868 0.995134
1.00202 0.999968 0.991894
1.00155 1.00079 0.99187
1.00189 1.00001 0.992071
1.00427 1.00029 0.987728
1.00035 1 0.997522
1.00052 1.00003 0.994729
1.00185 1 0.99273
1.00194 1.00003 0.991942
1.00187 0.999976 0.992105
1.00442 0.999963 0.987708
1.00437 0.999978 0.987597
1.00005 0.999863 0.995272
1.00088 1.00173 0.99193
1.00403 1.00072 0.987701
1.00515 1.00007 0.985678
1.00038 1.00013 0.997561
1 0.999929 0.997882
1.00012 1.0004 0.997582
1.00123 1.00146 0.991066
1.0005 0.999976 0.997519
1.00027 1.00032 0.997577
1.00192 1.00011 0.991181
0.999755 0.999673 0.997045
1.00147 1.00091 0.991192
1.00094 1.00175 0.992009
1.00351 1.00156 0.987066
0.999868 0.999004 0.998362
0.999777 1.00054 0.994654
1.00211 0.999995 0.991041
1.00185 1.00039 0.991146
1.00443 1.00024 0.986762
1.00051 1.00164 0.993511
1.00386 1.00093 0.987111
1.00246 1.00332 0.987153
1.00474 1.00131 0.985147
0.999621 0.998071 0.998943
0.999624 0.998439 0.998792
1.0005 0.999994 0.997468
1.00044 1.00001 0.997482
1.0004 0.999996 0.997505
1.00025 1.00001 0.996324
1.00206 1 0.991836
1.00034 0.999975 0.996285
1.00213 1.00012 0.991609
1.00039 0.999991 0.997514
1.00194 0.999936 0.991377
1.00215 1.0001 0.992309
1.00446 0.999672 0.987318
1.00217 1.00003 0.99228
1.00451 0.999879 0.987026
1.00037 1.00001 0.99489
1.00007 0.999998 0.995151
0.999553 1.00107 0.995065
1.00004 0.99983 0.995355
1.00213 0.99997 0.991792
1.00202 0.999927 0.991993
1.00176 1.00053 0.991799
1.00427 1.00031 0.987716
1.00039 0.999995 0.997517
1.00026 1.00003 0.994976
1.00197 0.999977 0.991652
1.00203 1.00002 0.99183
0.999924 1.00016 0.996511
1.00115 1.00158 0.99207
1.00198 0.999924 0.992014
1.00444 0.99994 0.987637
1.00402 1.00075 0.987702
1.00437 1.00005 0.987657
1.00512 1.00009 0.985703
1.00192 0.999967 0.991401
1.00186 1.00002 0.992046
1.00438 0.999643 0.987917
1.00443 0.999852 0.98763
1.00441 0.999887 0.987608
1.00521 0.999552 0.986367
0.999764 0.999579 0.998218
1.00518 0.999867 0.985833
1.00037 1.00219 0.991708
1.0034 1.00165 0.987127
1.00505 1.00043 0.985559
1.00523 0.999754 0.985836
0.99993 1.00151 0.993238
1.00025 1.00451 0.989811
1.00048 1 0.997539
1.00021 1.00031 0.997586
1.00194 1.00009 0.991175
0.99984 0.999358 0.998258
1.00066 1.00203 0.991422
1.00143 1.00094 0.991201
1.00358 1.00146 0.98705
0.999768 0.998922 0.998481
0.999752 1.00045 0.994709
1.00212 1.00003 0.991698
1.00183 1.00041 0.991791
1.00442 1.00025 0.986755
1.00026 1.00172 0.992575
1.00386 1.00091 0.987116
1.0025 1.00327 0.98714
1.00471 1.00126 0.985145
0.999988 1.0012 0.993627
0.999766 0.999721 0.99547
1.00033 1.00366 0.990681
1.0045 1.0001 0.986796
1.00422 1.00051 0.986864
1.00515 1.00013 0.985626
1.00151 1.00421 0.988021
1.00483 1.00075 0.985437
1.00408 1.00278 0.985033
1.00508 1.00112 0.984901
0.999633 0.99774 0.999072
0.999585 0.997997 0.998999
0.99956 0.99832 0.998886
0.999834 1.00104 0.993885
0.999699 0.999194 0.998426
1.00052 0.999977 0.997491
1.00045 1.00001 0.997469
1.00203 1.00013 0.991022
1.00197 1.00001 0.991258
1.00037 0.999999 0.997506
1.00037 0.999994 0.997511
1.00193 0.999944 0.991373
1.00208 1.00008 0.991706
1.00445 0.99967 0.987319
1.00207 1.00006 0.991019
1.0045 0.999877 0.98702
1.00191 0.999934 0.991411
1.00443 0.99961 0.987412
1.00448 0.999761 0.987187
1.00521 0.998844 0.986915
1.00453 0.999992 0.986881
1.00523 0.999262 0.986457
1.00037 0.999993 0.99751
1 1.00004 0.995223
1.00199 0.99997 0.990679
1.00214 1.00001 0.991715
0.999521 1.00047 0.998048
1.00149 1.00132 0.992208
1.00209 0.999897 0.991925
1.00445 0.999901 0.987566
1.00437 1.00011 0.987716
1.004 1.00081 0.987704
1.0051 1.0001 0.985728
1.00191 0.999952 0.991402
1.00198 1.00002 0.991929
1.00441 0.999623 0.9876
1.00445 0.999896 0.987659
0.999818 0.999671 0.998126
1.00061 1.00196 0.992319
1.0033 1.00188 0.987396
1.00442 0.99992 0.987582
1.00521 0.999407 0.986419
1.00502 1.00045 0.985524
1.00517 0.999911 0.985934
1.00523 0.999744 0.985868
0.99998 1.00151 0.993225
1.00035 1.00433 0.989829
1.0044 0.999629 0.987451
1.0044 0.999769 0.987778
1.0052 0.999027 0.986905
1.00521 0.999104 0.986651
1.0052 0.999569 0.986327
1.00523 0.99838 0.987336
1.00009 1.00192 0.992505
1.00522 0.999158 0.986465
1.00213 1.00344 0.987529
1.00479 1.00109 0.985152
1.00522 1.00047 0.985329
1.00518 0.998802 0.986973
1.00073 1.00441 0.989108
1.00019 1.00378 0.990651
1.00103 1.00472 0.988454
1.00203 1.00001 0.991109
0.999667 0.99883 0.998607
0.999734 1.00034 0.994763
1.0017 1.00046 0.991213
1.00442 1.00025 0.986748
1.00016 1.00183 0.992486
1.00251 1.00321 0.987128
1.00386 1.00089 0.987122
1.00466 1.0012 0.985142
0.999946 1.00116 0.993653
0.999777 0.999596 0.995513
1.00015 1.00381 0.990678
1.00449 1.00012 0.986784
1.00422 1.00051 0.986866
1.00517 1.00013 0.985607
1.00141 1.00428 0.988048
1.00488 1.00075 0.985448
1.00402 1.00277 0.985019
1.00504 1.00099 0.98487
0.999877 0.999068 0.995893
1.00088 1.00404 0.989258
1.00008 1.00258 0.992102
1.00054 1.0047 0.989246
1.00519 0.999829 0.985883
1.00503 1.00042 0.985496
1.00519 0.999482 0.98621
1.00271 1.00412 0.986218
1.00515 1.00048 0.98535
1.00457 1.00206 0.984663
1.00519 1.00093 0.98472
1.00027 1.0005 0.993803
1.0001 0.998446 0.996107
0.9997 0.997506 0.999112
0.999624 0.997702 0.999086
0.999562 0.997933 0.999038
0.999833 1.0004 0.994552
0.999659 0.998788 0.998614
0.999872 1.00107 0.99386
0.999759 0.999243 0.998355
1.00206 1.00009 0.991015
1.00202 1.00007 0.991122
1.0045 0.999876 0.987015
1.00444 0.999671 0.98732
1.00194 0.999953 0.991373
1.0004 0.999993 0.997507
1.00193 0.999936 0.991412
1.00442 0.999617 0.987413
1.00448 0.999765 0.987184
1.0052 0.998853 0.986912
1.00451 1 0.986869
1.00523 0.999266 0.986445
1.00441 0.999613 0.987452
1.0052 0.998741 0.987024
1.00521 0.999025 0.986721
1.00521 0.997238 0.988574
1.00522 0.999534 0.986165
1.00522 0.997968 0.987778
1.00192 0.999941 0.991405
1.00209 0.999992 0.991811
1.00443 0.999589 0.987286
1.00447 0.999932 0.987689
0.9999 0.999773 0.998017
1.00086 1.00184 0.992801
1.00331 1.00203 0.987662
1.00442 0.999941 0.987558
1.00521 0.999259 0.98647
1.00516 0.999958 0.986035
1.005 1.00047 0.985489
1.00523 0.999734 0.985899
1.00003 1.00149 0.99321
1.00044 1.00414 0.989845
1.0044 0.999569 0.987421
1.00442 0.999752 0.987761
1.0052 0.998895 0.987057
1.00521 0.999255 0.986573
1.00017 1.00189 0.992491
1.00222 1.00338 0.987533
1.00476 1.00114 0.9852
1.0052 0.999659 0.98625
1.00522 0.998188 0.987563
1.00522 1.00044 0.985336
1.00522 0.999153 0.986484
1.00519 0.998755 0.986964
1.00081 1.00426 0.989102
1.00088 1.00464 0.988474
1.00024 1.00371 0.990653
1.0052 0.9989 0.98703
1.00521 0.998976 0.986982
1.00522 0.997434 0.988327
1.00522 0.997887 0.98783
1.00521 0.99847 0.98717
1.00516 0.996758 0.988961
1.00126 1.00418 0.988376
1.00518 0.997828 0.987753
1.00374 1.00278 0.985528
1.00518 1.00122 0.984386
1.00521 0.999998 0.985744
1.00512 0.997896 0.987901
1.00019 1.00288 0.991549
1.00153 1.00407 0.98805
1.00045 1.00501 0.988834
1.00183 1.00384 0.988105
1.00448 1.00013 0.986771
0.999786 0.999488 0.995556
0.99989 1.00113 0.993678
1.00002 1.00392 0.990675
1.00421 1.0005 0.986867
1.00518 1.00013 0.98559
1.00132 1.00436 0.988076
1.00397 1.00278 0.985003
1.00494 1.00075 0.985459
1.00499 1.00087 0.984838
0.999892 0.998999 0.995912
1.00079 1.00416 0.989271
1.00005 1.00254 0.99213
1.00042 1.00489 0.989204
1.0052 0.999836 0.985868
1.00507 1.0004 0.985469
1.00519 0.999483 0.9862
1.00261 1.00408 0.986244
1.00516 1.00053 0.985327
1.00469 1.00186 0.984675
1.0052 1.00096 0.984693
1.00002 0.998657 0.996044
1.00022 1.0014 0.993017
1.00142 1.00449 0.987997
1.00026 1.00416 0.990377
1.00115 1.00427 0.988756
1.00519 0.998991 0.986727
1.00517 0.999975 0.985692
1.00513 0.998651 0.987033
1.00333 1.00317 0.985747
1.00516 1.00012 0.985647
1.00452 1.00185 0.984416
1.00029 1.00058 0.993703
1.00026 1.00189 0.992482
1.00022 1.00053 0.993881
1.00026 1.00051 0.993801
1.00012 0.998267 0.996741
1.00009 0.998429 0.996407
0.999856 0.997317 0.997961
0.999706 0.997468 0.999116
0.999621 0.997655 0.999099
0.999837 0.999767 0.995202
0.999652 0.99836 0.998812
0.99984 1.00047 0.994529
0.999715 0.998863 0.998548
0.99992 1.00108 0.993835
0.999809 0.999308 0.998283
1.00451 1.00001 0.986857
1.00447 0.999768 0.987181
1.00522 0.999283 0.986434
1.0052 0.998862 0.986909
1.00442 0.999624 0.987414
1.00191 0.999937 0.99141
1.0044 0.999612 0.987453
1.0052 0.998744 0.987023
1.00521 0.99904 0.986712
1.00521 0.997084 0.988728
1.00522 0.999544 0.986154
1.00522 0.997981 0.987761
1.0052 0.998725 0.987046
1.00519 0.996838 0.989051
1.00521 0.997499 0.98827
1.00516 0.995718 0.990052
1.0052 0.998508 0.987246
1.0052 0.99632 0.989224
1.00441 0.999512 0.987392
1.00445 0.999748 0.987744
1.0052 0.998776 0.987208
1.00521 0.999407 0.986494
1.00028 1.00185 0.992475
1.00219 1.00338 0.987538
1.00471 1.0012 0.985249
1.0052 0.99975 0.986173
1.00522 0.997995 0.98779
1.00522 0.999147 0.986504
1.00522 1.00041 0.985343
1.00519 0.998707 0.986954
1.0009 1.00415 0.989095
1.00084 1.00461 0.988494
1.00027 1.00359 0.990657
1.0052 0.998845 0.987019
1.00521 0.998976 0.986974
1.00521 0.997187 0.988613
1.00522 0.997988 0.987735
1.00131 1.00414 0.988347
1.00375 1.00275 0.985527
1.00516 1.00131 0.984407
1.00521 0.998665 0.986978
1.00517 0.996549 0.989177
1.0052 0.999988 0.985671
1.00518 0.997844 0.987762
1.00513 0.997773 0.988026
1.00163 1.00403 0.988037
1.00176 1.00388 0.988084
1.00022 1.00284 0.991538
1.00038 1.00492 0.988935
1.0052 0.997115 0.988731
1.00522 0.997612 0.988215
1.00515 0.995949 0.989855
1.00518 0.995892 0.989725
1.00516 0.997052 0.988585
1.00514 0.995866 0.989939
1.00252 1.00366 0.986808
1.00512 0.996477 0.989008
1.00447 1.00253 0.984378
1.00515 1.00138 0.984321
1.00517 0.999501 0.98603
1.00513 0.997517 0.988218
1.00014 1.00207 0.992388
1.00024 1.0046 0.989592
1.00233 1.00327 0.987475
1.00073 1.00504 0.988499
1.00218 1.00309 0.988316
0.9999 0.998944 0.995932
1.0052 0.999843 0.985853
1.00002 1.00248 0.992158
1.00064 1.00436 0.989283
1.0003 1.00501 0.989161
1.00511 1.00039 0.985443
1.00518 0.999485 0.98619
1.00263 1.00388 0.98627
1.0048 1.00167 0.98469
1.00518 1.00058 0.985305
1.00521 1.00099 0.984667
1.00002 0.998637 0.996056
1.00019 1.00142 0.993041
1.00142 1.00441 0.988015
1.00011 1.00421 0.990368
1.00097 1.00421 0.988763
1.00519 0.998984 0.986716
1.00518 0.999975 0.985672
1.00513 0.998624 0.987003
1.0034 1.00313 0.985764
1.00519 1.00016 0.985517
1.00484 1.00178 0.984379
1.00029 1.00083 0.993481
1.00023 1.00299 0.991543
1.0021 1.00349 0.987722
1.0004 1.00487 0.989542
1.0015 1.00323 0.989161
1.00516 0.997954 0.987715
1.00514 0.99931 0.986318
1.0051 0.997939 0.987408
1.00334 1.0023 0.986338
1.00498 1.00102 0.984724
1.00029 1.00057 0.993699
1.00027 1.00184 0.992434
1.00019 1.00196 0.992439
1.00028 1.00252 0.991965
1.0002 1.00197 0.992503
1.00015 1.00059 0.993918
1.00021 1.00052 0.993882
1.00014 0.998209 0.996769
1.00026 1.00053 0.993799
1.00013 0.998292 0.996745
0.99995 0.997095 0.997992
1.00008 0.998428 0.996701
0.999819 0.997276 0.998546
0.999716 0.997414 0.999119
0.999883 0.999147 0.995746
0.999832 0.999831 0.995174
0.999648 0.997953 0.998977
0.999688 0.99845 0.998737
0.999845 1.00055 0.994506
0.99977 0.998914 0.998477
1.00522 0.999553 0.986143
1.00521 0.999042 0.986703
1.00522 0.997988 0.987744
1.00521 0.996925 0.988883
1.0052 0.998748 0.987021
1.00441 0.999612 0.987454
1.0052 0.998727 0.987047
1.00519 0.996825 0.989063
1.00522 0.997508 0.988259
1.00516 0.99557 0.990207
1.00521 0.998498 0.987225
1.0052 0.996224 0.989352
1.00518 0.99685 0.98906
1.00516 0.99553 0.990288
1.00519 0.995625 0.990033
1.00517 0.994997 0.990692
1.00518 0.997145 0.988504
1.00518 0.99542 0.990154
1.0052 0.998785 0.987007
1.00521 0.998984 0.986965
1.0052 0.996932 0.988899
1.00521 0.998084 0.98764
1.00139 1.00412 0.98832
1.00377 1.00272 0.985524
1.00509 1.00135 0.984427
1.00521 0.998862 0.986787
1.00517 0.996343 0.989393
1.00518 0.99786 0.987773
1.0052 0.99999 0.9856
1.00513 0.997648 0.988151
1.00159 1.00406 0.988023
1.00153 1.00394 0.988062
1.00027 1.00282 0.991528
1.00032 1.00487 0.989036
1.00519 0.997123 0.988728
1.00521 0.997709 0.988087
1.00515 0.995732 0.990087
1.00518 0.995973 0.989628
1.00242 1.00388 0.98677
1.00442 1.00247 0.984434
1.00515 1.00136 0.984286
1.00516 0.997252 0.988377
1.00513 0.995579 0.990131
1.00516 0.999548 0.986004
1.00514 0.996495 0.989006
1.00513 0.997248 0.988381
1.00245 1.00319 0.987447
1.0021 1.00302 0.988403
1.00072 1.00505 0.988474
1.00015 1.00207 0.99232
1.00015 1.00459 0.989717
1.00515 0.995435 0.990473
1.00518 0.995645 0.990126
1.00516 0.995086 0.990463
1.00514 0.995745 0.989764
1.00322 1.00336 0.985906
1.00516 0.99601 0.989626
1.00505 1.00229 0.983561
1.00502 1.00131 0.984449
1.00512 0.99918 0.986242
1.00005 1.00131 0.99312
1.00008 1.00398 0.9907
1.00048 1.00492 0.989185
1.00274 1.0028 0.987364
1.00099 1.00478 0.988052
1.00241 1.00224 0.988166
1.00003 0.998623 0.996067
1.00016 1.00141 0.993065
1.00519 0.998978 0.986704
0.999947 1.00431 0.990359
1.0013 1.00449 0.988033
1.0008 1.00416 0.988768
1.00519 0.999976 0.985651
1.00513 0.998598 0.986973
1.00347 1.00309 0.985779
1.00512 1.00174 0.984339
1.00521 1.00019 0.985388
1.00027 1.00082 0.993488
1.00011 1.00306 0.991566
1.00214 1.00352 0.987671
1.00022 1.00494 0.989511
1.00141 1.00304 0.989278
1.00516 0.997966 0.98769
1.00513 0.999312 0.986292
1.0051 0.997974 0.987462
1.00352 1.00222 0.986102
1.00499 1.00107 0.984781
1.00024 1.0022 0.992266
0.9998 1.00436 0.990522
1.0028 1.00182 0.988189
1.00035 1.00461 0.989545
1.00204 1.0018 0.989305
1.00512 0.996487 0.988938
1.0051 0.999412 0.986177
1.00507 0.997819 0.987496
1.0041 1.00162 0.985889
1.00479 1.00087 0.985101
1.00029 1.00056 0.993696
1.00027 1.00186 0.992457
1.00008 1.00251 0.992044
1.00014 1.00202 0.992397
1.00016 1.00203 0.992497
1.00016 1.00261 0.991923
1.00011 1.00281 0.991882
1.0001 1.00282 0.991686
1.00012 1.00211 0.992504
1.00009 1.00072 0.993913
1.00015 1.00059 0.993918
1.00013 0.998217 0.996774
1.00021 1.00051 0.993882
1.00015 0.998235 0.996769
1.00001 0.996973 0.998003
1.00014 0.998305 0.996751
0.999939 0.997065 0.997998
0.999779 0.99723 0.999144
0.999935 0.998667 0.996152
0.999872 0.999227 0.995711
0.999674 0.997633 0.999085
0.999825 0.999915 0.995146
0.999675 0.998046 0.998927
0.999734 0.99852 0.99867
1.00521 0.998488 0.987204
1.00522 0.997521 0.988247
1.0052 0.996135 0.989479
1.00517 0.995427 0.990363
1.0052 0.996812 0.989074
1.0052 0.998728 0.987047
1.00518 0.996963 0.988927
1.00516 0.995558 0.990295
1.00519 0.995657 0.990029
1.00517 0.994989 0.99071
1.00518 0.997184 0.988496
1.00518 0.995239 0.990299
1.00516 0.995376 0.990518
1.00517 0.994967 0.990824
1.00519 0.994983 0.990609
1.00517 0.995542 0.989986
1.00519 0.997131 0.988724
1.00521 0.997802 0.987959
1.00515 0.995521 0.990319
1.00519 0.996062 0.98953
1.00244 1.00398 0.986731
1.00443 1.00241 0.98449
1.00515 1.00138 0.984253
1.00516 0.997449 0.988168
1.00513 0.995288 0.990322
1.00515 0.996513 0.989003
1.00515 0.999586 0.985978
1.00513 0.99699 0.988543
1.00257 1.00315 0.987418
1.0021 1.00275 0.988488
1.0007 1.00507 0.988448
1.00017 1.00204 0.992252
1.00012 1.00449 0.989844
1.00516 0.995442 0.990458
1.00518 0.995659 0.990066
1.00516 0.995191 0.990397
1.00319 1.00344 0.985888
1.00481 1.00237 0.983654
1.00504 1.00122 0.984438
1.00514 0.995756 0.989755
1.00513 0.99895 0.986554
1.00515 0.995978 0.989477
1.00008 1.00118 0.993244
1.00292 1.00259 0.987284
1.00221 1.00196 0.988812
1.00116 1.0049 0.987978
1.0005 1.00493 0.989232
1.0001 1.00393 0.990635
1.0052 0.994972 0.990675
1.00517 0.995108 0.990553
1.00515 0.99495 0.990433
1.00515 0.99522 0.990282
1.00404 1.00281 0.985167
1.00511 0.997127 0.98831
1.00508 1.0026 0.983002
1.00496 1.00142 0.984254
1.00014 1.00032 0.994009
1.00006 1.00295 0.991783
1.00027 1.00456 0.989918
1.00083 1.00505 0.988369
1.00291 1.00254 0.986826
1.0022 1.0036 0.987387
1.00025 1.00082 0.993496
1.00001 1.00309 0.99159
1.00515 0.997977 0.987666
1.00003 1.00503 0.989481
1.00219 1.00353 0.987618
1.00112 1.00296 0.989399
1.00513 0.999315 0.986267
1.0051 0.998016 0.987515
1.00372 1.0022 0.985864
1.00502 1.00111 0.984838
1.00019 1.00222 0.992279
0.999881 1.00447 0.990462
1.0029 1.00186 0.98813
1.00015 1.00479 0.989585
1.0019 1.00149 0.989763
1.00513 0.996438 0.989124
1.00509 0.999398 0.986265
1.00508 0.997922 0.987469
1.00404 1.00182 0.985754
1.00486 1.00091 0.984954
0.999856 1.00303 0.991768
0.999757 1.00504 0.989691
1.00339 1.00084 0.987983
1.00099 1.00315 0.98894
1.00519 0.99528 0.989972
1.00507 0.996858 0.988906
1.00495 0.999796 0.985833
1.00436 1.0009 0.985327
1.00028 1.00184 0.99248
1.00011 1.00251 0.992052
0.999834 1.00298 0.992248
1.00012 1.0021 0.992491
1.00004 1.00269 0.991881
1.0001 1.00213 0.992496
1.00003 1.00279 0.991943
1.00013 1.00281 0.991719
0.999988 1.0025 0.992355
1.00007 1.00317 0.991494
1.00012 1.00304 0.991455
1.00009 1.00222 0.992432
1.00003 1.00083 0.993863
1.00009 1.00069 0.993911
1.00011 0.998253 0.996774
1.00015 1.00057 0.993918
1.00014 0.998249 0.996773
1.00004 0.996914 0.998002
1.00015 0.998261 0.996772
1 0.99694 0.99801
0.999924 0.997041 0.998
1.00003 0.99825 0.99642
0.999942 0.998705 0.996118
0.999732 0.997299 0.999161
0.99986 0.999305 0.995674
0.999688 0.997681 0.999056
0.999708 0.998127 0.998856
1.00517 0.997222 0.988488
1.00519 0.995692 0.990026
1.00517 0.995051 0.990444
1.00517 0.994971 0.990727
1.00515 0.995586 0.990301
1.00518 0.997081 0.988794
1.00516 0.995492 0.9904
1.00518 0.994965 0.990819
1.00518 0.995036 0.990573
1.00518 0.995442 0.990079
1.00519 0.994944 0.990822
1.00518 0.99495 0.990732
1.00519 0.99495 0.990507
1.00517 0.995449 0.990443
1.00517 0.995666 0.990006
1.00515 0.995296 0.990331
1.00315 1.00353 0.98587
1.00466 1.00243 0.983743
1.00507 1.00114 0.984426
1.00514 0.995774 0.989746
1.00513 0.995924 0.989328
1.00513 0.998716 0.986868
1.00311 1.00242 0.987203
1.00196 1.0018 0.989456
1.00137 1.00503 0.987905
1.00009 1.00108 0.993367
1.00039 1.00497 0.989278
1.0001 1.00389 0.99057
1.00519 0.99499 0.990707
1.00517 0.995015 0.990593
1.00515 0.995015 0.990467
1.00387 1.00296 0.985141
1.00493 1.00264 0.98306
1.00497 1.00122 0.984569
1.00515 0.995203 0.990238
1.00511 0.997072 0.988244
1.00012 1.00029 0.994171
1.00007 1.00293 0.991782
1.00266 1.00237 0.987239
1.00204 1.00366 0.987896
1.00077 1.00505 0.988546
1.00024 1.00461 0.989862
1.00517 0.994931 0.99077
1.00517 0.994924 0.990527
1.00514 0.994994 0.990482
1.00509 0.995076 0.990143
1.00424 1.0031 0.983649
1.00476 1.00046 0.985567
1.00501 1.00286 0.98298
1.00021 0.999864 0.994555
1.00022 1.00099 0.993466
1.0001 1.00174 0.992762
1.00003 1.00403 0.990693
1.00032 1.0049 0.989198
1.0006 1.0046 0.988599
1.00274 1.00178 0.987479
1.00208 1.00364 0.988696
1.00012 1.00227 0.992293
0.999959 1.00458 0.990402
1.00514 0.996379 0.98931
1.00021 1.00484 0.989621
1.00298 1.00194 0.988073
1.00173 1.00123 0.990217
1.00508 0.999368 0.986355
1.00509 0.998006 0.987444
1.00396 1.00197 0.985624
1.00491 1.00095 0.984809
0.999892 1.00312 0.991657
0.999874 1.00499 0.989766
1.0034 1.0009 0.988066
1.00133 1.00325 0.989063
1.00519 0.99521 0.990082
1.00507 0.996871 0.988724
1.00498 0.999748 0.985846
1.00467 1.00096 0.985183
0.999705 1.00378 0.991321
1.00522 0.994896 0.990294
1.00082 1.00482 0.989051
1.00349 1.00133 0.987299
1.00514 0.995736 0.990025
1.00506 0.998411 0.986177
1.00494 1.00124 0.984793
1.00011 1.00255 0.99206
0.999798 1.00294 0.992211
0.999509 1.00292 0.992877
1.00011 1.00211 0.992488
1.00014 1.0028 0.991752
0.99982 1.0029 0.992002
1.00009 1.00221 0.992419
1.00008 1.00305 0.991481
0.999781 1.00263 0.99244
1.00016 1.00307 0.991506
0.999958 1.00215 0.993014
0.999892 1.00296 0.992013
1.00017 1.00356 0.990968
1.00027 1.00309 0.991222
1.00011 1.00237 0.992243
0.999995 1.00098 0.993778
1.00002 1.00086 0.993856
1.00009 0.99834 0.996741
1.00008 1.00071 0.99391
1.00012 0.998295 0.99677
1.00006 0.996881 0.998007
1.00014 0.998282 0.996774
1.00004 0.996881 0.998006
1 0.99691 0.998012
1.0002 0.999861 0.994605
1.00009 0.998015 0.99656
1.00003 0.998283 0.996402
0.999821 0.99702 0.999208
0.999944 0.998755 0.996085
0.999738 0.997386 0.99914
0.999708 0.997757 0.999027
1.00518 0.995347 0.990172
1.00516 0.995093 0.990537
1.00519 0.994962 0.990813
1.00515 0.995604 0.990282
1.00519 0.994938 0.990846
1.00517 0.994949 0.990749
1.00519 0.994965 0.990467
1.00517 0.994962 0.99078
1.00521 0.994944 0.990574
1.00525 0.994924 0.990894
1.00519 0.995009 0.990738
1.00517 0.994927 0.990632
1.00514 0.995068 0.990501
1.00361 1.00312 0.985118
1.00488 1.00275 0.983125
1.00497 1.00101 0.984884
1.00515 0.995209 0.990194
1.00511 0.997021 0.988179
1.00243 1.00228 0.987656
1.00197 1.0037 0.988402
1.00057 1.00505 0.988723
1.0001 1.00022 0.994334
1.00012 1.00289 0.991782
1.00023 1.0047 0.989804
1.00518 0.994934 0.990748
1.00019 0.999884 0.99455
1.00018 1.00104 0.993391
1.00516 0.994916 0.99054
1.00514 0.994985 0.990479
1.00402 1.00327 0.984013
1.00497 1.0028 0.983114
1.00483 1.00022 0.9855
1.00509 0.995259 0.990082
1.00008 1.00176 0.992948
1.0001 1.00398 0.990667
1.003 1.00238 0.987106
1.00146 1.00362 0.989097
1.00066 1.00462 0.988776
1.00028 1.00496 0.989281
1.00521 0.994937 0.99052
1.00517 0.994854 0.990539
1.00511 0.994925 0.990232
1.0047 0.995878 0.989858
1.00376 1.00332 0.984602
1.00434 1.00343 0.983858
1.0001 1.00126 0.993206
1.00018 1.00108 0.993421
1.00041 1.00148 0.992791
1.00016 1.00296 0.991399
1.00004 1.00472 0.990135
1.00116 1.00436 0.988546
0.999923 1.00487 0.989197
1.00213 1.00123 0.98903
0.999929 1.00319 0.991547
1.00007 1.00493 0.989844
1.00518 0.995151 0.990193
1.00508 0.996917 0.988543
1.00164 1.00334 0.989186
1.00341 1.00092 0.988147
1.005 0.999719 0.985856
1.00496 1.00105 0.985036
0.999806 1.00376 0.991271
1.00522 0.994905 0.990413
1.00061 1.00477 0.989104
1.00356 1.00132 0.987107
1.00514 0.995613 0.990014
1.00504 0.998542 0.986455
1.00488 1.00126 0.98483
0.999873 1.00466 0.990625
1.00454 0.99508 0.991609
1.00216 1.00334 0.988495
1.00405 1.00177 0.986241
1.00482 0.996488 0.989331
1.00383 1.00115 0.985761
0.998657 0.997502 0.990293
0.999722 1.00296 0.992176
0.999332 1.00307 0.992858
0.999628 1.00306 0.99286
1.00007 1.00225 0.992406
1.00006 1.00309 0.991506
1.00029 1.00294 0.991519
0.999666 1.00264 0.992526
1.0001 1.00238 0.992243
1.00022 1.00317 0.991211
0.999934 1.00212 0.99293
1.00013 1.00361 0.990973
1.00002 1.00288 0.99191
0.99992 1.00242 0.992679
1.00028 1.00366 0.990714
1.00018 1.00374 0.990813
1.00037 1.00326 0.990899
1.00014 1.00251 0.991917
1.00025 1.00297 0.991551
1.00015 1.00256 0.99181
0.999992 1.001 0.993742
0.999994 1.00098 0.993772
1.00009 0.998437 0.996128
1.00003 1.00084 0.993849
1.0001 0.998389 0.996442
1.00002 0.996882 0.999144
1.00012 0.998335 0.996768
1.00006 0.996843 0.998012
1.00004 0.996849 0.998007
1.00014 0.999855 0.994672
1.0002 0.999815 0.994615
1.0001 0.997897 0.996667
1.00007 0.998019 0.996817
0.999892 0.996839 0.999238
1.00002 0.998316 0.996384
0.999812 0.997086 0.999196
0.999745 0.99743 0.99912
1.00518 0.994975 0.990427
1.00516 0.994948 0.990766
1.00519 0.994933 0.990869
1.00517 0.994962 0.990781
1.00521 0.99494 0.990576
1.00525 0.994924 0.990531
1.00526 0.994952 0.990514
1.00106 0.994852 0.986442
1.00445 0.994881 0.993036
1.00003 1.0013 0.993424
1.00518 0.994936 0.990726
1.00516 0.994911 0.990553
1.00513 0.994976 0.990476
1.00377 1.00331 0.984371
1.00494 1.00272 0.983249
1.0049 1.00003 0.985438
1.00509 0.995439 0.990018
1.00343 1.00258 0.986737
1.0008 1.00358 0.989505
1.00078 1.00463 0.988954
1.00017 0.999924 0.994545
1.00029 1.005 0.989364
1.00006 1.00175 0.993132
1.00019 1.00392 0.990641
1.00017 1.00102 0.993315
1.00521 0.994931 0.990524
1.00011 1.00122 0.993304
1.00016 1.00112 0.993416
1.00037 1.0015 0.992743
1.00516 0.994874 0.990521
1.00512 0.994917 0.99026
1.00392 1.00323 0.984639
1.00428 1.00274 0.984432
1.00462 0.996367 0.989753
1.00005 1.00302 0.991551
1.00015 1.00462 0.989972
1.00207 1.00208 0.98874
1.00037 1.00473 0.989237
1.00103 1.00427 0.988667
1.00521 0.995074 0.990574
1.00514 0.994857 0.990567
1.00508 0.995497 0.989795
1.0044 0.998247 0.989031
1.00193 1.00351 0.988021
1.00011 1.0022 0.992264
1.00041 1.00169 0.992277
1.00015 1.00226 0.992062
0.999907 1.00442 0.990951
1.00009 1.00469 0.989727
1.00026 1.00458 0.989236
1.00073 1.0032 0.989612
0.999967 1.00369 0.991218
1.0003 1.00473 0.989156
1.00524 0.9949 0.990526
1.00514 0.995455 0.990001
1.00503 0.998704 0.986733
1.00367 1.00129 0.986916
1.00484 1.00121 0.984868
0.999976 1.00454 0.990724
1.00448 0.995089 0.99172
1.00189 1.00333 0.988497
1.00384 1.00182 0.986181
1.00498 0.995987 0.989588
1.00403 1.00133 0.985749
0.998669 0.997764 0.988139
1.00007 1.00444 0.990461
1.00267 0.997977 0.99161
1.00186 1.00261 0.988908
1.00251 1.00167 0.987736
1.00365 0.997477 0.989469
1.00006 0.995227 0.952456
0.997036 0.9949 0.971288
0.996429 1.00194 0.989542
0.999794 0.996285 0.894316
0.994679 0.996148 0.867918
0.999178 1.00321 0.99284
0.999209 1.00329 0.992984
0.9996 1.00312 0.992635
1.00009 1.00238 0.992243
1.00028 1.00307 0.991198
1.00011 1.00366 0.990979
1.00015 1.00281 0.991807
0.999865 1.00209 0.992846
1.00022 1.00369 0.990779
1.00014 1.00249 0.991988
1.00035 1.00325 0.990924
0.999938 1.00232 0.992573
1.00017 1.00369 0.990861
1.0002 1.00387 0.99084
0.999688 1.00356 0.991556
1.00026 1.00382 0.990595
1.00034 1.00325 0.990875
1.00019 1.00253 0.991794
1.00032 1.00328 0.991024
1.00015 1.00317 0.991455
1.0001 1.00292 0.991696
1.00023 1.003 0.991489
1.00022 1.00224 0.992195
1.00017 1.00257 0.991796
1.00005 1.00094 0.993726
0.999999 1.00101 0.993741
1.00008 0.998496 0.996112
0.999984 1.00101 0.993767
1.00008 0.998452 0.996126
1.00002 0.996878 0.999143
1.0001 0.998441 0.996143
1.00004 0.996879 0.998562
1.00006 0.996805 0.998014
1.00007 0.99988 0.994764
1.00015 0.999843 0.994676
1.00011 0.997805 0.996755
1.00021 0.999776 0.994625
1.0001 0.997855 0.996924
0.999942 0.996675 0.999269
1.00009 0.998053 0.996534
0.999882 0.996916 0.999224
0.999807 0.997154 0.999185
1.00521 0.994935 0.990578
1.00518 0.994961 0.990782
1.00525 0.994928 0.99017
1.00087 0.994951 0.986567
1.00525 0.99495 0.990513
1.00432 0.995237 0.992631
1.00504 0.996176 0.991122
0.996724 0.994882 0.97032
1.00053 0.996819 0.988369
1.00005 1.00132 0.993381
1.00009 1.00124 0.993416
1.00003 1.00229 0.99244
1.00001 1.00222 0.992543
1.0052 0.994927 0.990527
1.00516 0.994888 0.990503
1.00513 0.994911 0.990288
1.00439 1.00298 0.984673
1.00412 1.00185 0.984999
1.00455 0.996884 0.989643
1.00179 1.0032 0.988448
1.00094 1.00458 0.989275
1.0009 1.00409 0.988788
1.00012 1.0012 0.99341
1.00021 1.00458 0.989807
1.00006 1.00305 0.991705
1.00011 1.00122 0.993402
1.00027 1.00157 0.992692
1.00522 0.995007 0.990575
1.00014 1.00221 0.992347
1.00039 1.00168 0.99246
0.999908 1.00222 0.99254
1.00515 0.994848 0.990472
1.00494 0.995466 0.989818
1.00255 1.00266 0.987929
1.00405 0.998026 0.989465
1.00001 1.00423 0.990781
1.00023 1.00486 0.989327
1.00086 1.00382 0.989504
1.00091 1.00433 0.989109
1.00459 0.995011 0.991457
1.0051 0.995574 0.99022
1.00502 0.996089 0.989612
1.00201 0.999597 0.991644
0.999885 1.00326 0.991636
1.00023 1.0028 0.991486
0.999283 1.00477 0.991127
0.999558 1.00473 0.990149
0.999993 0.994887 0.944161
1.00002 1.00445 0.990823
1.00151 1.00343 0.988496
1.00448 0.995018 0.991835
1.0051 0.995579 0.989842
1.00415 1.00142 0.985728
1.00361 1.00195 0.986115
0.998776 0.99767 0.985923
0.999954 1.0046 0.990615
1.00278 0.997657 0.99165
1.0018 1.00268 0.988915
1.00308 1.00117 0.987695
1.00393 0.997509 0.989453
1.00116 0.995335 0.942623
0.996867 0.994944 0.96695
0.996462 1.00229 0.989351
0.99978 0.996217 0.897942
0.994691 0.996159 0.856904
0.999756 1.00393 0.991498
0.999828 0.994892 0.904766
0.994713 0.995871 0.867984
1.00151 1.00006 0.991352
1.00097 1.00237 0.990328
1.00197 1.00075 0.989496
0.996346 1.00275 0.98957
1.0007 0.996672 0.948696
0.994914 0.995941 0.964665
0.997679 0.998649 0.903457
0.994779 0.996782 0.862909
0.998918 1.00349 0.993107
0.999434 1.00328 0.992554
0.999427 1.00325 0.993088
1.00016 1.00245 0.992059
1.00035 1.00328 0.99095
1.00004 1.00386 0.990746
1.00007 1.00371 0.991007
1.00001 1.00221 0.992467
1.00019 1.00252 0.991801
1.00006 1.004 0.990789
1.00026 1.00382 0.990583
1.00039 1.00319 0.990937
0.999679 1.00359 0.991601
0.999904 1.00407 0.991214
0.999059 1.00438 0.991593
1.00039 1.00366 0.990482
1.00042 1.00332 0.990825
1.00036 1.00325 0.991001
1.00012 1.00315 0.991521
1.00039 1.00338 0.99083
0.999998 1.00323 0.991584
0.99973 1.00307 0.99178
0.999714 1.00428 0.990919
0.999936 1.00325 0.991625
1.00013 1.0029 0.991692
1.00015 1.00215 0.992394
1.00021 1.00301 0.991426
1.00023 1.00224 0.992127
1.00013 1.00086 0.99369
1.00019 1.00258 0.991782
1.00004 1.00096 0.99373
1.0001 0.998446 0.996705
0.999988 1.00103 0.993739
1.00008 0.998463 0.996412
1.00006 0.996892 0.997964
1.00008 0.998466 0.996123
1.00002 0.996889 0.999142
1.00007 0.996887 0.99798
1.00009 1.00141 0.993212
1.00001 0.999938 0.994792
1.00007 0.999867 0.994767
1.00011 0.997777 0.996786
1.00016 0.999818 0.99468
1.00012 0.997766 0.996758
0.999981 0.996572 0.999285
1.00009 0.997856 0.997158
0.999958 0.996761 0.998751
0.999925 0.996965 0.998182
1.00051 0.995164 0.986712
1.00523 0.994958 0.990513
1.00413 0.99598 0.99222
0.996713 0.994869 0.971533
1.00047 0.996504 0.988662
1.00506 0.995835 0.990971
1.00309 0.997275 0.988437
0.996509 0.996858 0.97434
1.00002 0.995577 0.949615
0.999399 0.997909 0.907113
0.994644 0.996498 0.866118
0.999934 1.0023 0.992452
1.00008 1.0013 0.993377
1.00015 1.00117 0.993407
1.00003 1.00228 0.992438
0.999777 1.00324 0.991909
1.00023 1.00251 0.991862
1.00003 1.00271 0.992174
0.999996 1.00231 0.992441
1.00522 0.994906 0.990571
1.00517 0.994851 0.990374
1.00487 0.995331 0.989843
1.00278 1.00215 0.987844
1.00374 0.997921 0.989906
1.001 1.00442 0.989391
1.00147 1.00419 0.988983
1.00049 1.00499 0.988929
1.00029 1.00166 0.992645
1.00002 1.00426 0.990609
1.00018 1.00224 0.992433
0.999805 1.00215 0.993017
1.00463 0.994924 0.991582
0.999873 1.00331 0.991692
1.00019 1.00293 0.991635
1.00503 0.995374 0.99018
1.00482 0.99565 0.989765
1.00197 0.999569 0.991286
0.999662 1.00499 0.990612
1.00024 1.00438 0.99023
1.00332 0.995755 0.991854
1.00461 0.996516 0.990449
1.00457 0.995133 0.991047
1.00155 0.999224 0.992402
0.999965 1.0044 0.990414
0.999556 1.00426 0.991132
0.999486 1.00508 0.99086
0.999856 0.994846 0.906251
1.00051 0.994945 0.954135
0.999895 1.00468 0.99077
1.00177 1.00261 0.988926
1.00281 0.997448 0.991697
1.00428 0.99762 0.98944
1.00374 1.00068 0.987666
1.00026 0.994921 0.950967
0.997196 0.99514 0.96622
0.996519 1.00259 0.989116
0.999573 0.996629 0.908631
0.994701 0.996267 0.845511
0.999788 1.00383 0.991476
0.999837 0.995617 0.903573
0.994751 0.995912 0.862409
1.00154 1.00002 0.991402
1.00108 1.00222 0.990386
1.00214 1.0005 0.990172
0.996545 1.00293 0.990193
1.00173 0.996687 0.941899
0.994917 0.995455 0.968489
0.99848 0.99911 0.903483
0.99479 0.996421 0.861124
0.999431 1.00356 0.992833
0.994883 0.995949 0.8658
0.994796 0.996331 0.880238
0.99927 1.0019 0.99365
0.999572 1.00279 0.993085
0.995749 1.00261 0.990074
0.994857 0.998065 0.967805
0.998019 0.998996 0.939314
0.994818 0.9998 0.909158
0.994845 0.994798 0.866834
0.999389 1.00339 0.992474
0.999595 1.0029 0.992984
0.998318 1.00434 0.992988
1.0002 1.00251 0.991809
1.00041 1.00315 0.990999
1.00026 1.00379 0.99057
0.999973 1.00413 0.990738
0.999585 1.0037 0.991645
1.0004 1.00334 0.990821
0.999934 1.00391 0.991103
1.00041 1.00363 0.990511
0.998792 1.00461 0.991773
0.997137 1.00509 0.993913
1.00005 1.00392 0.990877
1.00062 1.00384 0.990043
1.00039 1.00323 0.990977
1.00015 1.00306 0.991587
1.00039 1.00343 0.990788
1.00003 1.00323 0.991548
0.999737 1.00301 0.992037
0.999748 1.00388 0.991292
0.999826 1.00367 0.991207
0.999554 1.00307 0.992235
1.00026 1.00282 0.991527
1.00031 1.00435 0.989338
0.999582 1.00455 0.990709
0.999797 1.00422 0.990914
0.999786 1.00377 0.991352
0.99997 1.00326 0.991614
1.00003 1.00229 0.992401
1.00013 1.00295 0.991688
1.00015 1.00215 0.992401
1.0002 1.00071 0.993677
1.00024 1.00225 0.992058
1.00013 1.00084 0.993701
1.00013 0.998425 0.99667
1.00004 1.00096 0.993734
1.00011 0.998417 0.996404
1.00006 0.996839 0.997972
1.0001 0.998434 0.996119
1.00002 0.996893 0.999139
1.00002 0.996888 0.999142
1.00012 1.00164 0.993196
1 1.00007 0.994696
1.00008 1.00144 0.993218
1.00011 0.997784 0.996776
1.00002 0.999938 0.994795
1.00008 0.999872 0.99477
1.00011 0.997766 0.996783
1.00001 0.996513 0.999287
1.0001 0.997741 0.997236
0.999999 0.996585 0.998794
0.99998 0.996769 0.998263
0.999848 0.995614 0.89592
0.994667 0.996002 0.865321
0.998067 0.994873 0.971478
1.0005 0.995509 0.988978
1.00512 0.995128 0.990822
0.996198 0.995881 0.975351
1.00336 0.996281 0.988799
1.00123 0.995843 0.948333
0.999831 0.996824 0.896399
0.994672 0.996465 0.855096
0.998661 0.994907 0.979054
1.00002 0.997526 0.949207
0.998155 0.99898 0.901636
0.994761 0.996046 0.862984
1.00003 1.0033 0.991463
0.999927 1.00227 0.992535
1.00012 1.00125 0.993374
1.00002 1.00226 0.992436
0.999763 1.00307 0.992103
1.00003 1.00358 0.991262
1.00016 1.00279 0.991796
1.00026 1.00311 0.991199
1.00007 1.00265 0.992072
0.999965 1.00242 0.99234
1.00468 0.994864 0.991706
1.00503 0.995093 0.990154
1.00441 0.995371 0.989917
1.00179 0.999694 0.990928
1.00076 1.00427 0.990313
0.999832 1.00511 0.990097
1.00016 1.00294 0.991786
0.999816 1.00339 0.991745
1.0033 0.995484 0.992125
0.999915 1.00463 0.990285
0.999492 1.00437 0.991036
1.00476 0.996028 0.990306
1.00443 0.995285 0.990878
1.0014 0.999289 0.992471
0.999729 1.00492 0.990848
1.00071 0.997132 0.992335
1.00295 0.996011 0.993818
1.00038 1.00114 0.992633
0.999438 1.00476 0.990161
0.999613 1.00503 0.990149
0.999285 1.0051 0.990963
0.994743 0.99613 0.882297
0.999842 0.994867 0.909559
1 0.994898 0.944453
0.999641 1.00388 0.99145
1.00119 1.00212 0.990439
1.00156 1.00001 0.991454
1.00234 1.00026 0.990844
0.999827 0.995149 0.911463
1.00005 0.996498 0.941842
0.994892 0.994957 0.964827
0.99671 1.0021 0.990786
0.997874 0.998767 0.892499
0.994664 0.995891 0.864695
0.994773 0.995951 0.867937
0.999154 1.00345 0.992773
0.994721 0.995388 0.872582
0.994836 0.996393 0.879881
0.999286 1.00156 0.993765
0.999376 1.00265 0.993097
0.995697 0.999589 0.992893
0.994877 0.99764 0.966875
0.997422 0.999497 0.94924
0.997052 0.999907 0.897352
0.99482 0.994787 0.87414
0.99751 1.00376 0.99552
0.994828 0.9959 0.889476
0.994804 0.994768 0.884448
0.995677 1.00204 0.999655
0.994833 0.999584 0.974406
0.994905 0.999962 0.950039
0.994851 0.999431 0.893609
0.994871 0.99481 0.872392
0.999746 1.00255 0.992877
0.998581 1.00423 0.993307
0.996878 1.00505 0.995177
1.00036 1.00341 0.990816
1.00045 1.00358 0.99054
0.999994 1.00368 0.990991
0.998523 1.00496 0.99196
1.00052 1.00394 0.99003
1.00001 1.00404 0.99082
0.997293 1.00498 0.994362
0.995142 1.00532 0.997211
0.997969 1.00477 0.993808
1.00037 1.00398 0.99033
1.00041 1.00347 0.990744
1.00005 1.00324 0.991512
0.999682 1.00302 0.992291
0.99984 1.00359 0.99134
0.999797 1.00384 0.991304
0.999563 1.0032 0.992286
0.999955 1.00334 0.991737
0.99832 1.00373 0.993595
1.00143 0.999962 0.991998
1.00029 1.00266 0.991657
1.00058 1.00344 0.990134
1.00211 1.00412 0.987074
0.999955 1.00478 0.990487
1.00016 1.00445 0.989707
0.99973 1.00446 0.990744
0.999628 1.00421 0.991
0.999881 1.00417 0.99091
0.999892 1.00366 0.991352
0.999966 1.00268 0.992132
1.00007 1.00318 0.991603
1.00009 1.00226 0.992393
1.00022 1.00072 0.993641
1.00019 1.00211 0.992407
1.00021 1.00074 0.993683
1.00015 0.998407 0.996648
1.00013 1.00083 0.993712
1.00014 0.998406 0.996367
1.00004 0.996924 0.997937
1.00013 0.998393 0.996107
1.00004 0.996865 0.998556
1.00002 0.99688 0.999141
1.00015 1.00209 0.992483
1.00005 1.00019 0.994507
1.00009 1.00167 0.993019
1.00011 0.997846 0.996712
1.00001 1.00005 0.994698
1.00006 1.00148 0.993221
1.00003 0.996495 0.999283
1.00011 0.997782 0.996777
1.00002 0.999927 0.994797
1.00011 0.997756 0.996779
1.00001 0.996531 0.999288
0.999981 0.996571 0.999285
0.994686 0.99484 0.871644
0.999866 0.995429 0.902768
0.994811 0.996755 0.878928
0.994676 0.996056 0.862851
0.995933 0.995606 0.972754
1.00343 0.996153 0.989196
1.00005 0.996189 0.946475
0.999823 0.997167 0.90778
0.994704 0.996631 0.843819
0.998274 0.995652 0.978226
1.00142 0.997346 0.938189
0.998351 0.999312 0.902366
0.994788 0.996392 0.857491
0.995632 0.995891 0.972986
0.997704 0.998819 0.939852
0.995492 0.999855 0.892353
0.994844 0.994805 0.861757
1.00009 1.00413 0.990787
1.00001 1.00318 0.991598
0.999914 1.00231 0.992616
0.999749 1.00293 0.992297
1.0004 1.0039 0.990154
1 1.00342 0.991397
1.00001 1.003 0.991731
1.00046 1.00307 0.991078
1.00028 1.00315 0.991283
1.00009 1.00258 0.991969
1.00339 0.994879 0.992382
1.00481 0.995443 0.990177
1.00459 0.995284 0.990706
1.00137 0.999058 0.99255
1.00012 1.00458 0.990836
0.999594 1.0045 0.990943
0.999818 1.00477 0.990158
0.999951 1.00489 0.989947
1.00067 0.996679 0.992637
0.999873 1.00494 0.990048
0.999593 1.00508 0.990943
1.00308 0.995678 0.993779
1.00106 1.00042 0.992448
0.998351 0.996967 0.993656
0.998253 0.998629 0.999959
0.998495 1.00362 0.99286
1.00001 1.00478 0.989989
0.999289 1.005 0.991004
0.994839 0.996067 0.893939
0.994743 0.996043 0.879604
0.999828 0.994854 0.898916
0.998921 1.00332 0.992717
0.999188 1.00242 0.993097
0.999392 1.0014 0.993891
0.994697 0.994855 0.87287
0.997381 0.998789 0.9406
0.994858 0.99719 0.967058
0.995951 0.998084 0.995933
0.99521 0.999862 0.90959
0.99484 0.99659 0.879606
0.994835 0.994804 0.874424
0.997495 1.00367 0.995783
0.994821 0.995373 0.892293
0.994786 0.994766 0.884541
0.995816 1.00225 0.998641
0.994865 0.999267 0.975958
0.996057 0.99981 0.940538
0.994861 0.994812 0.871991
0.994844 0.999941 0.901015
0.995614 1.00482 0.998395
0.99473 0.994794 0.901962
0.994813 0.994778 0.887628
0.994837 0.994795 0.862394
0.995123 1.00016 0.992544
0.994946 0.999687 0.953383
0.994974 0.999792 0.901635
0.998948 1.00409 0.993624
0.997454 1.00509 0.994327
0.995172 1.00508 0.998506
1.00048 1.00397 0.990016
0.999944 1.00412 0.990761
0.997311 1.00479 0.9948
1.00022 1.00399 0.990389
0.997988 1.00461 0.993842
0.995471 1.00532 0.996942
0.995179 1.00518 0.99829
0.997831 1.00455 0.99377
0.999836 1.00353 0.991475
0.999842 1.00381 0.991317
0.99961 1.00331 0.992342
0.998584 1.00381 0.993454
0.999841 1.00327 0.991731
0.999579 1.00254 0.993062
1.00061 1.00044 0.993039
1.00147 1.00182 0.989636
1.00032 1.0025 0.991789
1.00103 1.00338 0.989819
1.0028 1.00309 0.986578
1.00283 1.00332 0.986432
1.00049 1.00461 0.989492
1.00178 1.00407 0.987159
0.999876 1.00482 0.990333
0.999845 1.00481 0.990443
0.999975 1.00453 0.990075
0.999872 1.00437 0.990779
0.999695 1.00408 0.991095
0.99997 1.00304 0.991769
0.999982 1.00355 0.991353
1.00002 1.00263 0.992136
1.00019 1.00097 0.993458
1.00013 1.00224 0.992387
1.00024 1.00073 0.993636
1.00013 0.998413 0.996654
1.00022 1.00072 0.99369
1.00015 0.998387 0.996351
1 0.997003 0.997937
1.00016 0.998358 0.996073
1.00002 0.996929 0.998536
1.00001 0.9969 0.999136
1.0003 1.00227 0.991863
1.0001 1.0005 0.993889
1.00017 1.00207 0.992482
1.00013 0.997941 0.996578
1.00005 1.0002 0.994365
1.00009 1.00166 0.992844
1.00003 0.996548 0.999265
1.00011 0.997834 0.996717
1.00001 1.00003 0.994701
1.00003 0.996506 0.999285
1.0001 0.997782 0.996777
1.00001 0.99653 0.999288
0.994823 0.994815 0.888968
0.994695 0.995397 0.878256
0.999848 0.995597 0.903481
1.00059 1.00317 0.990657
0.994791 0.995099 0.890284
0.994808 0.996184 0.878767
0.994704 0.996046 0.868558
0.998428 0.995955 0.976948
0.999628 0.997941 0.94839
0.998033 0.998717 0.890761
0.99478 0.996234 0.861008
0.996556 0.995367 0.969308
0.997426 0.99902 0.948735
0.996821 0.999893 0.896463
0.994828 0.994882 0.86492
0.994865 0.996099 0.965147
0.995286 0.999927 0.948272
0.994877 0.999981 0.901788
0.994876 0.994825 0.872108
1.00014 1.00458 0.989966
1.00007 1.00417 0.9906
1.00004 1.00308 0.991732
1.00039 1.00387 0.990245
1.00029 1.004 0.990355
1.00002 1.00338 0.991531
1.0005 1.00305 0.9911
1.00028 1.00316 0.991364
1.00027 0.997054 0.992866
1.00326 0.995528 0.993697
1.00009 1.00503 0.989734
1.00168 1.00003 0.992253
0.999885 1.0051 0.990921
1.00003 1.00501 0.989946
0.999918 1.00481 0.989985
0.997609 0.997383 0.994288
0.999555 1.00483 0.991117
0.999248 1.00337 0.992927
0.998262 0.998216 0.999978
0.999997 1.00484 0.990158
0.996011 0.999145 0.993146
0.994997 1.00159 1.00219
0.997748 1.0051 0.993159
0.999627 1.00468 0.991171
0.994725 0.994771 0.907183
0.994841 0.996029 0.893696
0.994736 0.995988 0.876896
0.997448 1.00368 0.996069
0.995663 1.00198 0.997616
0.994833 0.994814 0.895025
0.994985 0.999989 0.950227
0.994883 0.998827 0.973121
0.994847 0.999955 0.900472
0.994781 0.994763 0.884594
0.99485 0.994814 0.871591
0.995865 1.0047 0.998001
0.99474 0.994797 0.901765
0.994808 0.994767 0.891274
0.994953 1.00091 0.995913
0.994817 0.995019 0.865303
0.994906 0.99893 0.947669
0.994961 0.999797 0.906161
0.99508 1.00407 0.998581
0.994752 0.994795 0.905963
0.994785 0.995335 0.890712
0.994743 0.99617 0.863252
0.995703 0.999974 0.901349
0.994897 0.999877 0.981941
0.994957 1.00022 0.940328
0.998125 1.00501 0.993478
0.995505 1.00499 0.998009
0.994938 1.00506 0.999592
1.00006 1.00401 0.990449
0.997982 1.00449 0.993878
0.995971 1.0053 0.996681
0.998062 1.00447 0.993657
0.9953 1.00464 0.998259
0.997573 1.0033 0.996399
0.998872 1.00385 0.993308
0.999635 1.00328 0.991725
0.999625 1.00274 0.993188
0.999372 1.00346 0.991451
0.999791 1.00087 0.994061
1.00134 1.00166 0.990199
1.0031 1.00268 0.986452
1.00447 1.00198 0.984749
1.00149 1.00332 0.989499
1.00321 1.00319 0.985779
1.00381 1.00254 0.986349
1.00136 1.00398 0.98799
1.00276 1.00329 0.98662
0.999945 1.00503 0.989721
1.00051 1.00463 0.989442
1.00144 1.00402 0.987245
0.999985 1.00357 0.991144
0.999761 1.00475 0.990434
0.999755 1.00483 0.990397
0.999772 1.00395 0.991191
1.00002 1.003 0.991768
1.00019 1.0013 0.993112
1.00008 1.00259 0.992141
1.0002 1.00097 0.993451
1.00008 0.998564 0.996028
1.00025 1.00075 0.99363
1.00015 0.998412 0.996062
0.999884 0.997066 0.999131
1.00017 0.998371 0.996054
0.99998 0.997008 0.998527
0.999987 0.99696 0.999125
1.00033 1.00248 0.991559
1.00021 1.00082 0.993395
1.00027 1.00231 0.991967
1.00015 0.998105 0.996386
1.00013 1.00051 0.993829
1.00017 1.00209 0.992479
1.00003 0.996611 0.999234
1.00013 0.997928 0.996589
1.00006 1.00022 0.994224
1.00004 0.996523 0.999271
1.00011 0.99782 0.996723
1.00002 0.996521 0.999287
0.994743 0.994787 0.903301
0.994817 0.995413 0.888843
0.994693 0.995987 0.878466
1.0005 1.0032 0.990756
1.00047 1.00338 0.990494
1.00055 1.00358 0.990432
0.994819 0.994771 0.887116
0.994787 0.995134 0.890332
0.994805 0.996098 0.878599
0.996436 0.994866 0.971529
0.998254 0.999193 0.938568
0.995164 0.999905 0.908906
0.994848 0.995382 0.860989
0.994879 0.996316 0.968594
0.99594 0.999945 0.944839
0.99482 0.999785 0.901255
0.994868 0.994819 0.871588
0.994902 0.996558 0.964439
0.994909 0.999586 0.950071
0.995021 0.999923 0.901677
0.994858 0.994802 0.866704
1.00036 1.00418 0.989942
1.00022 1.00457 0.989824
1.00021 1.00411 0.990413
1.00049 1.00374 0.990216
1.00014 1.00405 0.990557
1.00052 1.00306 0.991123
0.996998 0.9977 0.994915
0.997898 0.997884 1.00003
1.00002 1.00458 0.989981
0.999899 1.0028 0.992998
0.999619 1.00475 0.99123
0.999932 1.00469 0.99012
0.999268 1.0047 0.991304
0.995715 0.9991 0.993417
0.997819 1.00514 0.993813
0.995264 1.00163 1.00119
0.999533 1.00416 0.991478
0.995212 0.998893 0.992615
0.995933 1.00245 0.998008
0.99813 1.00519 0.993687
0.994743 0.994744 0.911123
0.994726 0.994766 0.908163
0.994841 0.995961 0.893442
0.996019 1.00468 0.997589
0.994898 1.00098 0.992741
0.994747 0.994802 0.901573
0.994858 0.999249 0.949322
0.994957 0.999783 0.894972
0.994802 0.994763 0.894909
0.994845 0.99567 0.861519
0.995157 1.00387 0.999053
0.994749 0.994801 0.907455
0.994788 0.995265 0.890777
0.994913 0.99967 0.978631
0.99478 0.996648 0.857856
0.994809 0.99997 0.900519
0.994925 0.999949 0.950876
0.995114 1.00486 0.994643
0.994742 0.994791 0.903644
0.99482 0.997111 0.879421
0.994645 0.996748 0.866799
0.995836 0.999153 0.892206
0.995798 0.999956 0.94855
0.994929 1.00047 0.972637
0.995936 1.00502 0.997523
0.995277 1.0041 0.99953
0.996867 1.00302 0.998097
0.998231 1.00447 0.993548
0.99553 1.00412 0.998248
0.996545 1.00425 0.996731
0.999657 1.00059 0.995743
0.999685 1.00301 0.993313
1.00078 1.00295 0.991069
1.00194 1.00383 0.987513
1.00119 1.00154 0.990782
1.00321 1.00276 0.986349
1.00408 1.00388 0.983552
1.00487 1.00178 0.98416
1.00428 1.00187 0.985206
1.00446 1.00218 0.98456
1.00365 1.00326 0.984979
1.00328 1.00269 0.986852
1.00351 1.00241 0.986532
1.00067 1.00456 0.988507
1.00149 1.004 0.98815
1.00271 1.00328 0.986809
0.999957 1.00453 0.990055
1.00011 1.005 0.989714
1.00051 1.00467 0.989391
1.00018 1.0018 0.992663
1.00009 1.00353 0.991133
0.99965 1.00471 0.990536
1.00008 1.00296 0.991768
1.00021 1.00131 0.993105
1 0.998812 0.995913
1.00022 1.00097 0.993444
1.00009 0.99857 0.996018
0.999828 0.997227 0.999118
1.00015 0.99841 0.996058
0.99992 0.997097 0.998531
0.999945 0.997045 0.999122
1.00035 1.00282 0.991393
1.0003 1.00105 0.993206
1.00037 1.00247 0.991625
1.00017 0.998296 0.996143
1.0002 1.00082 0.993479
1.00028 1.00232 0.992073
1.00003 0.996735 0.99919
1.00015 0.998077 0.996402
1.00015 1.0005 0.993769
1.00004 0.996605 0.999243
1.00012 0.997919 0.9966
1.00004 0.996523 0.999278
0.994757 0.994801 0.905606
0.994747 0.994803 0.903112
0.99481 0.995972 0.888827
1.00034 1.00385 0.990226
1.00061 1.00397 0.989918
1.00043 1.00326 0.990857
1.00042 1.00352 0.990461
1.00039 1.00369 0.990409
1.0003 1.00399 0.99024
1.00038 1.00385 0.990253
0.994811 0.994759 0.883919
0.994813 0.99477 0.890822
0.994781 0.994755 0.890398
0.994852 0.994814 0.871103
0.994896 0.996107 0.965638
0.995165 0.99994 0.941729
0.99487 0.999535 0.90901
0.994984 0.996992 0.963528
0.994887 0.999872 0.940975
0.994958 0.999775 0.906561
0.994827 0.994789 0.874046
0.995195 0.996326 0.967452
0.99492 0.999951 0.941002
0.994858 0.999713 0.894206
0.994783 0.997043 0.862136
0.999562 1.00497 0.990693
1.00022 1.00438 0.989982
1.00028 1.00471 0.989682
1.0006 1.00363 0.990188
0.995506 0.999167 0.993826
0.995415 1.00275 1.00018
0.999877 1.00492 0.990084
0.999213 1.00469 0.991436
0.998257 1.00511 0.994459
0.999518 1.00433 0.991428
0.997845 1.00517 0.993689
0.995023 1.0005 0.989725
0.995385 1.0037 0.998343
0.997501 1.00482 0.994528
0.994959 0.998901 0.988955
0.997256 1.00412 0.997342
0.994716 0.994782 0.907313
0.994741 0.994743 0.913939
0.994726 0.994757 0.909139
0.995008 1.00358 0.999471
0.994931 0.998457 0.982658
0.994741 0.994798 0.908985
0.995876 0.9998 0.940989
0.994838 0.999869 0.908275
0.994792 0.994752 0.890852
0.994772 0.996634 0.861465
0.994941 1.00383 0.995292
0.994747 0.994798 0.903471
0.994802 0.996415 0.879264
0.994921 1.00056 0.973469
0.994667 0.996629 0.856022
0.996846 0.999895 0.896031
0.994859 0.999845 0.940312
0.995557 1.00461 0.989291
0.99482 0.994822 0.889654
0.994655 0.996109 0.866178
0.998542 0.99792 0.902304
0.995126 0.999946 0.948251
0.994976 1.00005 0.966142
0.995311 1.00332 0.999663
0.996131 1.00371 0.99809
0.997232 1.00098 0.998539
0.995578 1.00503 0.997056
0.998458 1.00082 0.996104
1.00271 0.999135 0.991865
1.00221 1.00235 0.990687
1.00238 1.00362 0.987467
1.00302 1.00428 0.984504
1.00329 1.00285 0.986248
1.00442 1.00386 0.983168
1.0043 1.00436 0.982639
1.00494 1.0012 0.984736
1.00504 1.00124 0.984565
1.00481 1.00194 0.984128
1.00408 1.00165 0.98557
1.00427 1.00178 0.98536
1.00441 1.00242 0.98437
1.00256 1.00387 0.986663
1.00313 1.00265 0.986824
1.00318 1.00227 0.986712
1.00043 1.00497 0.988827
1.00071 1.00461 0.98873
1.00163 1.004 0.988313
1.00005 1.00273 0.991828
1.00015 1.00445 0.990077
1.00026 1.00493 0.989707
0.999915 0.999093 0.995769
1.0002 1.00179 0.992644
1.00018 1.00352 0.991122
1.00023 1.00131 0.993098
0.999997 0.998839 0.995898
0.999747 0.997436 0.999097
1.00009 0.998571 0.996008
0.999822 0.997265 0.999113
0.999887 0.997126 0.999123
1.00033 1.00404 0.990177
1.00047 1.00306 0.990998
1.00033 1.00143 0.992781
1.00038 1.00279 0.991382
1.00017 0.998555 0.995881
1.00029 1.00107 0.993205
1.00032 1.00253 0.991689
1.00002 0.996883 0.999134
1.00016 0.998292 0.99616
1.0002 1.00082 0.993562
1.00003 0.996704 0.999204
1.00015 0.998059 0.996418
1.00004 0.996574 0.999253
0.994719 0.994789 0.901588
0.994752 0.9948 0.907135
0.994752 0.994821 0.902902
1.00041 1.00384 0.990253
1.00047 1.00401 0.989941
1.00027 1.00363 0.990276
1.00017 1.00429 0.989964
1.00055 1.00436 0.989941
1.00042 1.00359 0.990427
1.00033 1.0038 0.990387
1.00037 1.00394 0.990246
1.00042 1.00394 0.990301
1.00006 1.00466 0.990261
0.994783 0.996772 0.879439
0.994788 0.994761 0.884077
0.994817 0.994768 0.894503
0.994837 0.994799 0.874335
0.995006 0.999917 0.89509
0.994965 0.998165 0.961968
0.994904 0.99996 0.949863
0.995183 0.996456 0.964285
0.994915 0.999416 0.950496
0.99485 0.999973 0.902176
0.994797 0.996726 0.860122
0.994937 0.995131 0.969163
0.994908 0.999995 0.9504
0.995345 0.999868 0.907993
0.994692 0.996457 0.865582
0.99867 1.0039 0.992907
0.999687 1.00484 0.990632
1.00022 1.00439 0.990024
0.994987 1.00112 0.986654
0.995323 1.00415 0.998677
0.999454 1.00432 0.991378
0.997144 1.00521 0.993693
0.997595 1.00444 0.994545
0.996348 1.00371 0.997419
0.994945 0.999244 0.988981
0.996006 1.002 0.998746
0.99598 0.999829 0.99023
0.994838 0.995735 0.89354
0.994723 0.994775 0.90826
0.994743 0.994745 0.916759
0.994998 1.00266 0.995603
0.994943 1.0009 0.970097
0.994751 0.994821 0.90327
0.995829 0.999966 0.94771
0.99499 0.9999 0.908415
0.994783 0.996274 0.879118
0.9947 0.996668 0.844983
0.995494 1.00474 0.989846
0.994812 0.995196 0.889537
0.994677 0.996193 0.863722
0.994956 1.00004 0.967118
0.998402 0.999111 0.902996
0.995958 0.999933 0.943732
0.995014 1.00466 0.987045
0.994688 0.994838 0.872579
0.999783 0.997438 0.908062
0.997586 0.998683 0.939829
0.994882 0.997418 0.968982
0.995554 1.00461 0.998069
0.997075 1.00122 0.998475
1.00105 1.00217 0.992456
0.997281 1.00117 0.996395
1.00159 0.999717 0.992011
1.00373 0.999415 0.988559
1.00277 1.00338 0.987419
1.00311 1.00416 0.984506
1.00434 1.00174 0.984727
1.00475 1.00388 0.982785
1.00434 1.00397 0.982737
1.00475 1.00105 0.985087
1.00513 0.999124 0.986291
1.00508 1.00059 0.984954
1.00489 1.00108 0.984823
1.00507 1.00146 0.984471
1.00503 1.00127 0.984546
1.00475 1.00206 0.984097
1.00392 1.00257 0.985532
1.00405 1.0017 0.985688
1.00428 1.00171 0.985516
1.00163 1.00417 0.987642
1.00235 1.00382 0.986839
1.00299 1.00263 0.986795
1.00006 1.00414 0.990288
1.00059 1.00493 0.988846
1.00077 1.00468 0.98895
0.999841 0.999642 0.995999
1.00013 1.00277 0.991801
1.00035 1.00434 0.9901
0.99968 0.997688 0.99779
0.999911 0.99919 0.996016
1.00023 1.00177 0.992626
0.999992 0.998872 0.995884
0.999745 0.997474 0.999087
0.999815 0.997291 0.999107
1.00024 1.00429 0.990077
1.00043 1.00349 0.990639
1.00028 1.0041 0.990141
1.00036 1.00178 0.992377
1.00037 1.00319 0.990991
1.00014 0.998868 0.995616
1.00033 1.00141 0.992784
1.00044 1.00272 0.991371
0.999991 0.997083 0.999073
1.00017 0.998535 0.995897
1.00027 1.00109 0.993204
1.00002 0.99687 0.999151
1.00015 0.998279 0.996177
1.00003 0.996687 0.999217
0.994827 0.994825 0.895646
0.994737 0.994794 0.901407
0.994741 0.994799 0.908689
1.00056 1.00315 0.990502
1.00035 1.00398 0.99028
1.00038 1.00401 0.989964
1.00033 1.00433 0.989943
1.00056 1.00349 0.990329
1.00041 1.00413 0.990209
1.00093 1.00395 0.989281
0.999712 1.00476 0.990078
1.00044 1.00384 0.990253
1.00013 1.00402 0.990348
0.999918 1.00458 0.990244
0.999338 1.00494 0.9916
0.995021 0.996283 0.866766
0.994868 0.996689 0.879085
0.994775 0.994762 0.884198
0.994792 0.996255 0.867089
0.99485 0.999956 0.901994
0.994988 0.999776 0.94105
0.995097 0.996272 0.963016
0.994882 0.99519 0.970697
0.994707 0.996638 0.854971
0.994887 0.999701 0.945152
0.996895 0.999915 0.896419
0.994863 0.996202 0.971398
0.995159 0.999958 0.950617
0.999038 0.998556 0.898807
0.999157 1.00152 0.995133
0.998835 1.00395 0.992863
0.999574 1.00478 0.99057
0.994881 0.999584 0.989203
0.995626 1.00333 0.997492
0.997588 1.00411 0.99456
0.997176 1.00186 0.998604
0.995498 0.99966 0.990334
0.996943 0.998647 0.993554
0.994751 0.996923 0.876414
0.994834 0.995318 0.896884
0.994735 0.994763 0.909203
0.995328 1.00468 0.990167
0.994881 1.00003 0.967161
0.994803 0.995628 0.889523
0.995003 0.999957 0.941066
0.998394 0.997862 0.891623
0.994703 0.996162 0.869464
0.994981 1.00478 0.987028
0.9947 0.995227 0.879134
0.999824 0.996255 0.897535
0.995013 0.997107 0.965105
0.997431 0.998978 0.948603
0.996332 1.00274 0.990853
0.99984 0.995487 0.896622
1.00001 0.997444 0.949182
0.994888 0.99545 0.964567
0.996783 1.00133 0.99852
1.00036 1.00158 0.992576
1.0029 1.00204 0.988698
1.0005 1.00028 0.992165
1.00311 1.00012 0.988534
1.00451 0.998551 0.987796
1.00317 1.00405 0.984506
1.00422 1.0018 0.984709
1.00498 0.997779 0.987382
1.00437 1.00355 0.982833
1.00468 1.00086 0.985132
1.00509 0.997396 0.987955
1.00512 0.997337 0.988175
1.00516 0.999366 0.986037
1.00513 0.998992 0.98643
1.00511 1.00074 0.98485
1.00507 1.00059 0.985027
1.00485 1.00098 0.984911
1.00493 1.00126 0.984957
1.00495 1.00141 0.984595
1.00501 1.00127 0.984527
1.00306 1.00306 0.986365
1.00387 1.00254 0.985523
1.00405 1.00171 0.985806
1.00072 1.00476 0.988733
1.00173 1.00425 0.987614
1.00213 1.00373 0.987016
0.999783 1.00049 0.994518
1.00029 1.00399 0.990288
1.00078 1.0049 0.988863
0.999594 0.997985 0.998994
0.999829 0.999738 0.995281
1.00021 1.00275 0.991775
0.999685 0.997678 0.999056
0.999884 0.999263 0.995688
0.999744 0.997525 0.999078
1.00074 1.00376 0.989841
1.0003 1.00428 0.990025
1.00044 1.00385 0.990255
1.00031 1.00224 0.992016
1.00038 1.00353 0.990632
1.0003 1.00406 0.990104
1.00012 0.999175 0.995349
1.00033 1.00181 0.992381
1.0003 1.0033 0.990985
0.999955 0.997307 0.999007
1.00015 0.998827 0.99563
1.00033 1.00141 0.992787
0.999992 0.997045 0.999091
1.00017 0.998519 0.995913
1.00002 0.996827 0.999168
0.995084 0.99585 0.86627
0.994916 0.994819 0.89556
0.994744 0.9948 0.90123
1.0004 1.00346 0.990441
1.00155 1.00311 0.990034
1.00061 1.00361 0.990078
1.00036 1.00443 0.989922
1.00085 1.00334 0.990382
1.00012 1.00388 0.990476
0.999928 1.00479 0.989996
1.00071 1.00408 0.989427
1.00048 1.00469 0.989344
0.999958 1.00075 0.99372
1.00013 1.00452 0.990229
0.999425 1.00478 0.991265
0.999796 0.997321 0.892315
0.994862 0.996258 0.861181
0.99506 0.996787 0.878832
0.994711 0.996908 0.844042
0.996532 0.999121 0.908168
0.994843 0.999952 0.942708
0.994897 0.995418 0.968471
0.994912 0.996139 0.970108
0.998402 0.999447 0.901454
0.996003 0.999927 0.941461
0.994893 0.997468 0.971579
0.998469 0.998886 0.939715
1.00182 0.997764 0.994552
0.999085 1.0017 0.994994
0.99898 1.00407 0.992833
0.995005 0.999505 0.99039
0.998119 1.00173 0.998449
0.997536 0.998743 0.993112
0.998843 0.998224 0.990806
0.999862 0.994857 0.905856
0.994743 0.996307 0.876276
0.994821 0.994821 0.900132
0.995063 1.005 0.987186
0.994982 0.99696 0.962986
0.994696 0.995538 0.879287
0.99865 0.998523 0.938786
0.999835 0.996647 0.908854
0.995847 1.00225 0.988551
0.999859 0.995296 0.903567
1.00148 0.997035 0.938607
0.994941 0.995494 0.968001
0.998237 0.997404 0.99095
1.00002 0.99571 0.950027
0.996267 0.995755 0.970417
0.999569 1.00089 0.992625
1.00275 1.00043 0.988699
1.00488 0.998106 0.988819
1.00248 1.00081 0.988515
1.00424 0.998726 0.987811
1.0049 0.996319 0.98918
1.00421 1.00183 0.984692
1.00493 0.998097 0.987302
1.0051 0.995696 0.989506
1.00463 1.00067 0.985178
1.00509 0.997415 0.987938
1.00512 0.995809 0.989621
1.00511 0.9964 0.989399
1.00513 0.997154 0.988392
1.00513 0.998014 0.98768
1.00516 0.999807 0.985823
1.00516 0.999437 0.986086
1.00512 0.99886 0.98657
1.00515 1.00072 0.985015
1.00511 1.00074 0.984834
1.00506 1.00059 0.985099
1.00425 1.00185 0.985521
1.00482 1.00136 0.984959
1.0048 1.00141 0.98472
1.00168 1.00407 0.987793
1.00311 1.0031 0.986354
1.00381 1.00252 0.985514
0.999971 1.00138 0.993267
1.00086 1.00451 0.988738
1.00188 1.00424 0.987587
0.999648 0.998312 0.998835
0.999813 1.00058 0.994461
1.00047 1.0039 0.99029
0.999638 0.99801 0.998296
0.999824 0.999828 0.995264
0.999701 0.997753 0.999024
1.00112 1.00302 0.989924
1.00046 1.00392 0.989957
1.00037 1.00423 0.989851
1.0004 1.00426 0.989973
1.00035 1.00394 0.990252
1.00029 1.00266 0.991623
1.00006 0.999535 0.995108
1.00031 1.00222 0.99202
1.0003 1.00361 0.990626
0.999906 0.997535 0.998935
1.00011 0.999163 0.995361
1.00031 1.00184 0.992385
0.999956 0.997262 0.999027
1.00015 0.998797 0.995644
0.999994 0.997026 0.999109
0.999821 0.995017 0.904285
0.994914 0.995835 0.869369
0.99488 0.994813 0.895447
1.00025 1.00378 0.99038
1.00058 1.00421 0.989464
1.00117 1.00302 0.990299
1.00267 1.00337 0.986981
1.00055 1.0041 0.989903
1.0001 1.00483 0.989916
1.00059 1.00422 0.989575
1.00025 1.00464 0.989597
1.001 1.0034 0.988711
1.00139 0.999741 0.992821
1.00417 0.996992 0.990266
1.00025 1.00041 0.993785
0.999895 1.00404 0.990926
0.998697 0.997354 0.948981
0.99978 0.997758 0.897114
0.994746 0.996184 0.863317
0.998952 0.999748 0.889521
0.995525 0.999955 0.948065
0.99487 0.996071 0.971215
0.994879 0.997441 0.973313
0.997416 0.998825 0.950312
0.99588 0.997292 0.97272
1.00216 0.996059 0.994777
1.00112 0.998496 0.994626
0.999065 1.00193 0.994846
0.998296 0.998452 0.992762
0.999343 0.998132 0.990538
0.999988 0.99493 0.944251
0.999851 0.994884 0.909615
0.994734 0.995778 0.876251
0.995325 1.00209 0.986184
0.995081 0.995133 0.964842
0.999852 0.995495 0.904287
1.00043 0.997499 0.948146
0.997318 0.998638 0.991345
1.0012 0.995809 0.948281
0.996698 0.995176 0.967471
1.00141 0.99627 0.990118
0.999093 0.995573 0.976621
1.00261 0.998981 0.988782
1.00479 0.997053 0.988761
1.005 0.995876 0.990242
1.00396 0.998894 0.987823
1.00474 0.996511 0.989104
1.00517 0.994967 0.99015
1.00481 0.998419 0.987223
1.00509 0.99577 0.989457
1.00508 0.995008 0.990411
1.00508 0.99743 0.98792
1.00512 0.995845 0.989574
1.00515 0.995423 0.990178
1.00511 0.996159 0.989536
1.00511 0.996931 0.988857
1.00514 0.996971 0.98861
1.00513 0.998026 0.987658
1.00517 0.998868 0.986797
1.0052 1.00021 0.985468
1.00516 0.999852 0.985801
1.00515 0.999505 0.986135
1.00488 1.00078 0.985418
1.00511 1.00076 0.984978
1.00512 1.00074 0.984818
1.00276 1.00267 0.98725
1.00421 1.00192 0.985529
1.00469 1.00146 0.984963
1.00039 1.00181 0.992094
1.00173 1.00398 0.987782
1.00305 1.00325 0.986344
0.999774 0.998863 0.998534
1.00005 1.00138 0.993241
1.00106 1.00428 0.988743
0.999717 0.998428 0.998741
0.999862 1.00065 0.994403
0.999708 0.998048 0.998901
1.00268 1.00328 0.986978
1.0012 1.00287 0.989895
1.00056 1.00412 0.989474
1.0002 1.00403 0.990073
1.00032 1.00428 0.989819
1.00032 1.00314 0.991081
1.00027 1.00401 0.990248
1.00027 1.00266 0.991631
0.999982 0.999898 0.994881
0.999836 0.997816 0.998871
1.00005 0.999503 0.99512
1.0003 1.00219 0.992024
0.999909 0.997517 0.998958
1.0001 0.999152 0.995372
0.999961 0.997218 0.999048
1.00002 0.995334 0.952888
0.999839 0.994876 0.903418
0.99471 0.995812 0.865749
1.00056 1.00483 0.98885
1.00086 1.00285 0.990567
1.00082 1.00395 0.989759
1.00258 1.00339 0.987149
1.00409 1.00255 0.984694
1.00128 1.00358 0.988402
0.999992 1.00465 0.989847
1.00176 1.00332 0.987898
1.00111 0.999836 0.992895
1.00305 0.999855 0.988958
1.00476 0.996048 0.990874
1.00405 0.996481 0.990994
1.00371 0.996933 0.990836
0.999994 1.00052 0.993854
0.995987 0.995931 0.972
1.00005 0.997201 0.945996
0.998071 0.997418 0.907992
0.997668 0.999439 0.939694
0.994865 0.99783 0.973933
0.99577 0.997552 0.977591
0.999632 0.997704 0.992249
1.0025 0.99572 0.994667
1.00068 0.999051 0.994701
1.00069 0.998331 0.990253
0.996445 0.997491 0.972776
1.00023 0.995011 0.954096
0.999836 0.994876 0.898821
0.996576 0.999426 0.991571
0.996885 0.994898 0.969377
1.00004 0.996607 0.946319
1.00089 0.996207 0.990225
0.998462 0.995763 0.976013
1.00364 0.99559 0.990786
1.0027 0.998297 0.987218
1.00469 0.996074 0.988669
1.00487 0.995697 0.990262
1.00518 0.994841 0.990598
1.00461 0.996693 0.989029
1.00517 0.994975 0.990106
1.00512 0.994936 0.990521
1.00508 0.995847 0.989408
1.00507 0.995093 0.99038
1.00516 0.995061 0.990461
1.00512 0.995886 0.989526
1.00513 0.99541 0.990109
1.00512 0.995967 0.989621
1.00511 0.995924 0.989671
1.00512 0.996786 0.989001
1.00516 0.998126 0.987657
1.00513 0.998039 0.987634
1.00517 0.998921 0.98677
1.0052 0.999659 0.986112
1.00508 1.00024 0.985552
1.00519 1.00026 0.98543
1.00516 0.9999 0.985778
1.00368 1.00129 0.987052
1.00487 1.00082 0.985423
1.00508 1.0008 0.98494
1.00082 1.00188 0.991297
1.00273 1.00273 0.987254
1.00419 1.00198 0.985535
0.999988 0.999415 0.998143
1.0005 1.00176 0.992085
1.00179 1.00387 0.987771
0.999882 0.998978 0.998388
1.00011 1.00141 0.993215
0.999807 0.998513 0.998625
1.00419 1.00256 0.98507
1.0028 1.00326 0.986993
1.00169 1.00412 0.987596
1.00119 1.00281 0.989867
1.00067 1.00405 0.989345
1.00062 1.00345 0.990307
1.00025 1.00432 0.989787
1.00029 1.00316 0.991085
0.999905 1.00034 0.994576
1.00025 1.00266 0.991637
0.999975 0.999859 0.994896
0.999761 0.9981 0.998807
0.999842 0.997768 0.998892
1.00005 0.999474 0.995131
0.999908 0.997463 0.99898
0.996812 0.994885 0.973569
1.00004 0.995639 0.943289
0.999826 0.995276 0.911149
1.00513 1.00088 0.984634
1.0011 1.00377 0.989613
1.00252 1.00343 0.987319
1.00171 1.00348 0.988141
1.00419 1.00268 0.984675
1.00369 1.0008 0.987098
1.00248 1.00331 0.987087
1.00082 0.999899 0.992974
1.00345 0.999662 0.98882
1.00468 0.995871 0.990598
1.00484 0.99638 0.989196
1.00414 0.995579 0.991986
1.00395 0.996105 0.990945
1.00322 0.996814 0.991407
0.999898 0.997008 0.992216
0.995778 0.995707 0.970284
0.999401 0.996469 0.943615
0.995389 0.997218 0.976189
0.999833 0.996796 0.994332
1.00225 0.995402 0.994545
1.00054 0.997585 0.986537
0.996381 0.996173 0.974188
0.999997 0.994888 0.944365
1.00004 0.996645 0.990403
0.99845 0.99616 0.974899
1.00318 0.995514 0.991125
1.00277 0.997712 0.987679
1.00443 0.994842 0.991206
1.00455 0.997555 0.990682
1.00476 0.995498 0.990279
1.00518 0.994848 0.990483
1.00521 0.99485 0.990405
1.00517 0.995003 0.990062
1.00511 0.994932 0.990514
1.00516 0.994933 0.990523
1.00505 0.995174 0.990348
1.00515 0.995031 0.990431
1.00515 0.99552 0.990057
1.00512 0.995389 0.990041
1.00513 0.995978 0.989606
1.00515 0.997215 0.988502
1.00512 0.996643 0.989146
1.00516 0.997984 0.987835
1.0052 0.99921 0.98655
1.00517 0.998972 0.986744
1.0052 0.999673 0.986083
1.00515 1.00006 0.985715
1.0041 1.0005 0.987075
1.00506 1.00031 0.985561
1.00519 1.00031 0.985392
1.00133 1.00137 0.990969
1.00362 1.00135 0.987059
1.00486 1.00087 0.985429
1.00013 0.999883 0.99782
1.001 1.00166 0.991289
1.0027 1.00275 0.98726
1.00007 0.999513 0.998014
1.00062 1.00165 0.992081
0.99999 0.999085 0.99824
1.00507 1.00118 0.984644
1.00414 1.00249 0.985075
1.00329 1.00307 0.985982
1.00291 1.00323 0.987007
1.00179 1.00416 0.987542
1.00097 1.00412 0.989124
1.0008 1.00398 0.989216
1.00044 1.00367 0.990314
0.999887 1.00088 0.994067
1.00023 1.00321 0.99109
0.999895 1.00029 0.994598
0.999703 0.998428 0.998712
0.999969 0.999823 0.994912
0.999765 0.998051 0.998831
0.999848 0.997741 0.998912
1.00101 0.994889 0.990504
0.996737 0.99489 0.970155
0.999995 0.994909 0.953407
1.00486 0.999769 0.986116
1.00515 0.999367 0.986273
1.00509 1.00079 0.984784
1.00212 1.00332 0.987875
1.00428 1.00282 0.984652
1.00391 1.00061 0.987123
1.00506 0.997274 0.987997
1.00386 0.999459 0.988682
1.00453 0.995761 0.990315
1.00486 0.996465 0.989412
1.00499 0.995568 0.989908
1.00413 0.995436 0.99171
1.00385 0.995763 0.991864
1.00409 0.995823 0.990889
1.00017 0.99684 0.992344
0.995945 0.99562 0.968536
1.00017 0.996536 0.996494
1.00417 0.9956 0.991907
1.00045 0.997711 0.986725
0.996291 0.99583 0.971948
1.00305 0.994861 0.991438
1.0028 0.997572 0.988175
1.00449 0.994979 0.991567
1.00458 0.996764 0.990647
1.00523 0.994934 0.990414
1.00528 0.994974 0.990617
1.00519 0.994856 0.99037
1.00521 0.994871 0.990387
1.0052 0.994926 0.99039
1.0051 0.99493 0.990506
1.00516 0.994939 0.990507
1.00518 0.995169 0.990361
1.00515 0.995006 0.990402
1.00515 0.995523 0.990043
1.00515 0.996575 0.989138
1.00515 0.995991 0.98959
1.00515 0.997234 0.988503
1.00521 0.998739 0.986969
1.00516 0.997841 0.988013
1.0052 0.999154 0.986616
1.00517 0.999931 0.985809
1.0052 0.999688 0.986054
1.00514 1.00005 0.985736
1.00429 1.00017 0.987087
1.0016 1.00078 0.99103
1.00409 1.00053 0.987066
1.00504 1.00038 0.985569
1.00021 1.00021 0.997609
1.00138 1.00129 0.990968
1.00354 1.00145 0.987066
1.00019 0.999979 0.997725
1.0011 1.00155 0.991285
1.00015 0.999631 0.997889
1.00514 1.00027 0.985384
1.00507 1.00109 0.984683
1.00455 1.0013 0.985513
1.0041 1.00241 0.98508
1.00329 1.0031 0.985992
1.00184 1.00378 0.987827
1.00187 1.00422 0.98749
1.0008 1.00421 0.989149
1.00009 1.00157 0.993114
1.00031 1.00385 0.990322
0.999864 1.00085 0.99409
0.999695 0.998856 0.998537
0.99989 1.00024 0.99462
0.999695 0.998361 0.998751
0.999769 0.998002 0.998852
1.00407 0.994868 0.992537
1.00099 0.994962 0.988767
0.996568 0.994895 0.969579
1.00512 0.998472 0.987299
1.00501 0.999367 0.986285
1.00521 0.998073 0.987481
1.00516 0.999337 0.986281
1.00505 1.00068 0.984936
1.00513 0.996429 0.988843
1.00417 1.00044 0.987149
1.00504 0.997511 0.987982
1.00516 0.99513 0.99011
1.0049 0.996518 0.989631
1.00496 0.99567 0.989793
1.00416 0.995529 0.991842
1.00338 0.995896 0.991734
1.00042 0.996646 0.992387
1.00524 0.994895 0.990482
1.00414 0.996295 0.991976
1.00046 0.997462 0.986902
1.00453 0.995153 0.99192
1.00459 0.996028 0.990618
1.00523 0.994919 0.990459
1.00528 0.995031 0.990535
1.00523 0.994947 0.990605
1.00522 0.994892 0.990369
1.0052 0.994924 0.990408
1.0052 0.994984 0.990551
1.00516 0.994943 0.990491
1.00517 0.995174 0.990331
1.00515 0.996052 0.989617
1.00515 0.995538 0.99003
1.00514 0.996601 0.989136
1.00522 0.998286 0.987422
1.00514 0.997253 0.988505
1.0052 0.998744 0.98699
1.00519 0.999801 0.985932
1.0052 0.999095 0.986681
1.00517 0.99993 0.985829
1.00436 1.00008 0.98706
1.00513 1.00004 0.985758
1.00429 1.00017 0.98708
1.00169 1.00039 0.992647
1.00043 1.00007 0.994765
1.00165 1.00074 0.991728
1.00407 1.00057 0.987058
1.00024 1.00026 0.997569
1.00151 1.00112 0.990963
1.00023 1.00008 0.997639
1.00524 0.997969 0.987642
1.00521 0.99935 0.986285
1.00515 1.00028 0.985477
1.00489 1.00047 0.9857
1.00507 1.00102 0.984721
1.00461 1.00122 0.985493
1.00302 1.00227 0.987156
1.00329 1.00312 0.986002
1.00178 1.00385 0.987826
1.00056 1.00198 0.991859
1.00065 1.0044 0.989173
0.99997 1.00159 0.993145
0.999781 0.999458 0.99819
0.999841 1.00079 0.994112
0.999658 0.99875 0.998611
0.999692 0.998298 0.998784
1.00522 0.99487 0.990443
1.00442 0.994865 0.992463
1.00117 0.994911 0.987076
1.00514 0.997029 0.988376
1.00513 0.998412 0.987142
1.00513 0.998987 0.986452
1.0052 0.998203 0.987442
1.00518 0.999305 0.98629
1.00521 0.995471 0.990018
1.0051 0.996425 0.988804
1.00502 0.997764 0.987966
1.00516 0.995101 0.990116
1.00497 0.995768 0.989677
1.00418 0.995658 0.991996
1.00521 0.994903 0.990721
1.00523 0.994896 0.990647
1.0041 0.996999 0.99205
1.00523 0.994904 0.990497
1.00528 0.994969 0.990455
1.00523 0.994947 0.990553
1.00518 0.994945 0.990808
1.0052 0.994924 0.990425
1.00519 0.994965 0.990519
1.00515 0.995693 0.990013
1.00515 0.995166 0.990302
1.00516 0.996074 0.989615
1.00522 0.997936 0.987792
1.00514 0.996628 0.989134
1.00522 0.998291 0.987434
1.00521 0.999651 0.986085
1.0052 0.998748 0.987011
1.00519 0.999792 0.985949
1.0044 1.00008 0.986993
1.00517 0.999927 0.985848
1.00437 1.00007 0.987061
1.0018 1.0001 0.992771
1.0043 1.00018 0.987073
1.00184 1.0003 0.992572
1.00042 0.999986 0.994916
1.00023 1.00031 0.996183
1.00183 1.00067 0.992297
1.00024 1.00035 0.997541
1.00518 0.997318 0.98841
1.00524 0.998975 0.98656
1.00523 0.997775 0.987828
1.00505 1.00006 0.98578
1.00522 0.999428 0.986225
1.00517 1.0003 0.985568
1.00495 1.00041 0.985677
1.00385 1.0009 0.987043
1.00467 1.00114 0.985474
1.0031 1.00219 0.987134
1.0011 1.00178 0.991041
1.0017 1.00386 0.987825
1.00038 1.00215 0.991883
0.999927 1.00021 0.997772
0.999842 1.00167 0.993174
0.999688 0.999344 0.998336
0.999639 0.998653 0.998673
1.00522 0.994911 0.990478
1.00521 0.99487 0.990427
1.0047 0.994883 0.992356
1.00518 0.996133 0.989462
1.00513 0.997101 0.98836
1.00514 0.998355 0.986988
1.00518 0.998335 0.987403
1.0052 0.995483 0.98994
1.00508 0.996429 0.988764
1.00515 0.995086 0.990122
1.00516 0.994915 0.990861
1.00521 0.994908 0.990713
1.00522 0.994903 0.99081
1.00522 0.994949 0.990729
1.00523 0.994947 0.990501
1.00518 0.994956 0.990766
1.00516 0.99554 0.990312
1.00518 0.994946 0.990487
1.00517 0.995703 0.990012
1.00519 0.997731 0.988086
1.00518 0.9961 0.989613
1.00522 0.997938 0.987799
1.00521 0.999465 0.986292
1.00522 0.998297 0.987447
1.00521 0.999639 0.986098
1.00444 1.00006 0.986946
1.00519 0.999783 0.985967
1.00441 1.00007 0.987002
1.00187 1.00004 0.992718
1.00438 1.00006 0.987062
1.00193 1.00004 0.992668
1.00047 0.999885 0.994966
1.002 1.0002 0.992505
1.00012 1.00015 0.995102
0.999793 1.0006 0.997862
1.00517 0.997235 0.988403
1.00522 0.998429 0.987243
1.00518 0.997374 0.988265
1.00522 0.999786 0.986057
1.00525 0.998775 0.986735
1.00522 0.997586 0.988012
1.00426 1.00023 0.987038
1.00511 1.00005 0.98575
1.00524 0.999504 0.986165
1.00501 1.00035 0.985655
1.0039 1.00085 0.98705
1.00145 1.00124 0.990925
1.00317 1.00208 0.987113
1.00098 1.00191 0.991046
0.999986 1.00073 0.997553
1.00022 1.00226 0.991909
0.999817 1.00005 0.997932
0.999624 0.999172 0.998459
1.00516 0.995386 0.990292
1.00522 0.994907 0.990484
1.00521 0.994864 0.990412
1.00518 0.996041 0.989546
1.00512 0.997167 0.988343
1.00519 0.99549 0.989861
1.00521 0.994928 0.990802
1.00516 0.994924 0.990877
1.00521 0.994911 0.990705
1.00522 0.994945 0.990789
1.00522 0.995781 0.989971
1.00518 0.994973 0.990723
1.00516 0.995698 0.990128
1.00517 0.997338 0.988612
1.00518 0.995715 0.990012
1.00518 0.997706 0.988091
1.0052 0.999259 0.98652
1.00522 0.997929 0.987806
1.00521 0.999452 0.986301
1.00446 1.00001 0.98696
1.00521 0.999626 0.986111
1.00444 1.00006 0.986958
1.00192 1.00011 0.992557
1.00442 1.00005 0.987011
1.00199 0.999998 0.992594
1.00053 0.999885 0.994872
1.00205 0.999996 0.992575
1.00021 0.999936 0.995174
0.99984 1.00034 0.995271
1.00518 0.996562 0.9892
1.00521 0.998261 0.987416
1.00518 0.997041 0.988567
1.00523 0.999352 0.986476
1.00522 0.998525 0.98713
1.00519 0.99743 0.98812
1.00443 0.999919 0.987086
1.00522 0.999664 0.986053
1.00526 0.998578 0.986911
1.00164 1.00064 0.991136
1.00427 1.00021 0.987052
1.00516 1.00004 0.985718
1.00394 1.00081 0.987058
1.00138 1.00132 0.990928
1.00002 1.00086 0.997529
1.00087 1.00205 0.991056
0.999959 1.00058 0.997617
0.999706 0.999885 0.998094
1.00519 0.995159 0.990494
1.00516 0.99542 0.990236
1.00522 0.994904 0.990491
1.00518 0.995953 0.98963
1.0052 0.995916 0.98989
1.00521 0.994936 0.990816
1.00516 0.994933 0.990894
1.00522 0.994939 0.990849
1.00521 0.995742 0.990002
1.00519 0.997376 0.988533
1.00517 0.99584 0.989943
1.00517 0.99755 0.988329
1.0052 0.998869 0.986957
1.00518 0.99769 0.988096
1.0052 0.999254 0.986525
1.00447 0.999921 0.987019
1.0052 0.999446 0.98631
1.00446 1.00001 0.986969
1.00198 1.00017 0.991059
1.00445 1.00005 0.986969
1.00203 1.00008 0.991763
1.00045 0.999939 0.997539
1.00211 0.99997 0.992472
1.0003 0.999873 0.995093
0.99996 0.999982 0.995365
1.00518 0.996123 0.989669
1.00521 0.997918 0.987857
1.00518 0.996634 0.989164
1.00522 0.999113 0.986579
1.00521 0.998267 0.987409
1.00518 0.996844 0.988731
1.00447 0.999715 0.987015
1.00523 0.999356 0.986484
1.00522 0.998617 0.987018
1.00181 1.00011 0.991356
1.00442 0.999873 0.987015
1.00522 0.999533 0.986049
1.0001 1.00067 0.99759
1.00163 1.00065 0.991144
1.00428 1.00018 0.987067
1.00131 1.00138 0.990933
1.00002 1.00076 0.997526
0.999874 1.00049 0.99771
1.00518 0.995841 0.989976
1.0052 0.99522 0.990459
1.00516 0.995455 0.99018
1.00517 0.997445 0.988432
1.0052 0.995794 0.989975
1.00521 0.994942 0.990831
1.00521 0.995711 0.990033
1.00519 0.997345 0.988544
1.00517 0.998796 0.987219
1.00517 0.997763 0.988047
1.0052 0.999028 0.986844
1.00447 0.999706 0.987094
1.00519 0.99924 0.986531
1.00447 0.999919 0.987025
1.002 1.00014 0.991063
1.00446 1.00001 0.986979
1.00199 1.00016 0.99106
1.00045 0.999983 0.997505
1.00206 1.00006 0.991068
1.00035 0.999935 0.996292
1.00006 0.99984 0.995312
1.00518 0.996271 0.989483
1.0052 0.99775 0.988035
1.00519 0.996097 0.989724
1.00521 0.999154 0.986545
1.00521 0.997974 0.987776
1.00517 0.996709 0.989128
1.0045 0.999637 0.987071
1.00522 0.999239 0.986533
1.0052 0.998274 0.987402
1.00193 0.999879 0.991384
1.00446 0.999713 0.98702
1.00523 0.999362 0.986492
1.00026 1.0003 0.997626
1.00182 1.00009 0.991359
1.00441 0.999826 0.986942
1.00011 1.00062 0.997561
1.00162 1.00064 0.99115
0.999994 1.00072 0.997538
1.00518 0.997295 0.988578
1.00517 0.995926 0.989872
1.00521 0.995281 0.990425
1.00517 0.998689 0.987348
1.00517 0.997348 0.988526
1.0052 0.995666 0.99006
1.00519 0.997312 0.988554
1.00518 0.998801 0.987216
1.00443 0.999609 0.98728
1.00519 0.99919 0.986731
1.00448 0.999764 0.987096
1.00202 1.00005 0.991126
1.00448 0.999914 0.98703
1.00199 1.00015 0.991066
1.00043 1.00001 0.997469
1.00199 1.00015 0.991059
1.00044 0.999996 0.997487
1.00043 0.999893 0.994842
1.00521 0.99764 0.988099
1.00517 0.996091 0.989658
1.00521 0.999031 0.986702
1.00521 0.997756 0.98802
1.00519 0.996071 0.989779
1.00449 0.99969 0.987229
1.00521 0.999163 0.98654
1.00521 0.998029 0.987694
1.00202 0.999859 0.991271
1.00449 0.999683 0.98711
1.00522 0.999369 0.986486
1.00041 1.00005 0.997583
1.00194 0.999871 0.991386
1.00446 0.999703 0.987023
1.00023 1.00032 0.997615
1.00184 1.00008 0.991361
1.0001 1.0006 0.99754
1.00519 0.998671 0.987301
1.00518 0.997376 0.988481
1.00516 0.996018 0.989767
1.00439 0.999559 0.987395
1.00517 0.998694 0.987347
1.00517 0.99725 0.988621
1.00518 0.998808 0.987213
1.00444 0.999599 0.987254
1.00197 1.00001 0.991252
1.00448 0.999823 0.987097
1.002 1.00006 0.99113
1.00045 1.00001 0.997459
1.00199 1.00014 0.991068
1.00044 1.00002 0.997469
1.00045 1 0.997474
1.00521 0.998916 0.986826
1.00521 0.997414 0.988344
1.00515 0.995912 0.989832
1.00446 0.999672 0.987317
1.00521 0.999039 0.986692
1.00522 0.997762 0.988005
1.00202 0.999946 0.991195
1.00448 0.999695 0.987223
1.00521 0.999171 0.986536
1.00048 0.999947 0.997511
1.00202 0.999875 0.991271
1.00448 0.999722 0.987149
1.00037 1.00009 0.997603
1.00195 0.99988 0.991388
1.00024 1.00032 0.997593
1.00439 0.99965 0.987447
1.00519 0.998615 0.987289
1.00519 0.997456 0.988385
1.00193 0.999949 0.991396
1.0044 0.999542 0.987383
1.00517 0.998696 0.987346
1.00446 0.999585 0.987229
1.00197 0.999991 0.991259
1.00044 1.00001 0.997455
1.00198 1.00007 0.991133
1.00044 1.00002 0.997452
1.00042 1.00004 0.997466
1.00442 0.999655 0.987396
1.00521 0.998784 0.986968
1.00522 0.99719 0.988589
1.00208 0.999999 0.992458
1.00445 0.999672 0.987318
1.0052 0.999049 0.986681
1.00048 0.999955 0.997468
1.00203 0.999966 0.991195
1.00447 0.999701 0.987217
1.00047 0.999977 0.997539
1.00202 0.999899 0.991271
1.00035 1.0001 0.997618
1.00198 0.999951 0.991338
1.00439 0.999588 0.987421
1.00519 0.998556 0.987276
1.00038 0.999993 0.997495
1.00192 0.999949 0.991394
1.00441 0.999527 0.987371
1.00196 0.999975 0.991263
1.00042 1.00001 0.997467
1.00044 1.00003 0.997452
1.00211 0.999978 0.992484
1.00442 0.999653 0.987396
1.0052 0.998649 0.98711
1.00008 0.999992 0.997847
1.00199 1.00001 0.991232
1.00444 0.999668 0.987319
1.00048 0.999966 0.997489
1.00203 0.999987 0.991195
1.00045 0.999997 0.997564
1.00037 0.99998 0.99493
1.00201 0.999949 0.991972
1.00439 0.999528 0.987394
1.0004 0.999994 0.9975
1.00192 0.999951 0.991399
1.00043 1 0.997474
0.999998 0.999999 0.995285
1.00203 0.999972 0.991908
1.00441 0.999654 0.987395
1.00025 0.999989 0.99635
1.00199 1.00001 0.991242
1.00048 0.999977 0.99751
1.00039 0.999986 0.997499
1.00191 0.999945 0.991417
1.00037 0.999994 0.9975
1.0002 0.999985 0.996396
1.00195 0.99997 0.991348
1.00045 0.99998 0.997485
1.0004 0.999984 0.997509
1.00039 0.999984 0.997497

TENSORS stress float
0.0017713 -0.000102068 0.000188778
-0.000102068 0.000716376 -2.67101e-05
0.000188778 -2.67101e-05 0.000694505
0.0055644 -8.87193e-05 0.000185876
-8.87193e-05 0.00300617 1.95308e-05
0.000185876 1.95308e-05 0.00298896
0.00154175 -3.28451e-05 8.64229e-05
-3.28451e-05 0.000585707 -1.0555e-05
8.64229e-05 -1.0555e-05 0.000554546
0.00188845 -6.02924e-05 0.000187913
-6.02924e-05 0.00076152 -1.66032e-05
0.000187913 -1.66032e-05 0.000744084
0.00184298 -9.14319e-05 0.000185068
-9.14319e-05 0.000750174 -2.40169e-05
0.000185068 -2.40169e-05 0.000730269
0.00170892 -9.88866e-05 0.000193146
-9.88866e-05 0.000679083 -2.65883e-05
0.000193146 -2.65883e-05 0.000658702
0.00152385 -7.92239e-05 3.07204e-05
-7.92239e-05 0.000493275 -1.00749e-05
3.07204e-05 -1.00749e-05 0.000407146
0.00550138 -9.37938e-05 -6.93063e-06
-9.37938e-05 0.00295763 2.53687e-07
-6.93063e-06 2.53687e-07 0.00294609
0.00550092 8.29094e-05 8.74563e-05
8.29094e-05 0.00292385 5.66998e-06
8.74563e-05 5.66998e-06 0.00290909
0.00526143 -0.000186999 2.38214e-05
-0.000186999 0.00281881 2.71155e-06
2.38214e-05 2.71155e-06 0.00278705
0.00170733 0.000102197 0.000190952
0.000102197 0.00067376 1.86209e-05
0.000190952 1.86209e-05 0.000664768
0.000615227 0.000195829 2.34498e-05
0.000195829 -3.11264e-05 1.45947e-05
2.34498e-05 1.45947e-05 -0.000127274
0.00166219 -3.33393e-05 0.000196363
-3.33393e-05 0.000622467 2.64482e-06
0.000196363 2.64482e-06 0.0006152
0.00128965 -9.43141e-06 3.79538e-05
-9.43141e-06 0.00042295 1.11818e-06
3.79538e-05 1.11818e-06 0.000385033
0.00137783 -2.5099e-05 -3.26571e-05
-2.5099e-05 0.000490622 5.82171e-06
-3.26571e-05 5.82171e-06 0.000453018
0.00158833 -6.41296e-05 6.55003e-05
-6.41296e-05 0.000596392 -3.754e-06
6.55003e-05 -3.754e-06 0.000568097
0.001534 -1.55753e-05 9.3001e-05
-1.55753e-05 0.000588868 -1.01735e-05
9.3001e-05 -1.01735e-05 0.00055384
0.00156242 -4.80108e-05 7.68096e-05
-4.80108e-05 0.000586359 -8.99605e-06
7.68096e-05 -8.99605e-06 0.000559525
0.00158412 -0.000119583 -3.22026e-05
-0.000119583 0.000521301 3.40997e-06
-3.22026e-05 3.40997e-06 0.000443751
0.00553309 -0.00011294 0.000237469
-0.00011294 0.00295076 -7.41828e-06
0.000237469 -7.41828e-06 0.0029563
0.0018601 -4.19967e-05 0.000189971
-4.19967e-05 0.000742358 -1.23814e-05
0.000189971 -1.23814e-05 0.000725913
0.0018884 -7.76426e-05 0.000185762
-7.76426e-05 0.000767635 -2.05633e-05
0.000185762 -2.05633e-05 0.000749463
0.0015428 -0.000107265 5.19073e-05
-0.000107265 0.000478169 -7.91091e-06
5.19073e-05 -7.91091e-06 0.000400844
0.0015321 -9.27152e-05 3.98411e-05
-9.27152e-05 0.000480976 -9.2314e-06
3.98411e-05 -9.2314e-06 0.000402412
0.001626 -7.12384e-05 0.000186487
-7.12384e-05 0.000621755 -2.28771e-05
0.000186487 -2.28771e-05 0.000604803
0.0014733 -6.5308e-05 2.31213e-05
-6.5308e-05 0.000485059 -1.08553e-05
2.31213e-05 -1.08553e-05 0.000390357
0.00203392 -0.000225478 1.41964e-05
-0.000225478 0.000651827 -6.43508e-06
1.41964e-05 -6.43508e-06 0.000504213
0.00545355 -0.000108945 -0.000183162
-0.000108945 0.00292055 -1.14169e-05
-0.000183162 -1.14169e-05 0.00291316
0.00354524 7.90634e-05 -0.000108856
7.90634e-05 0.00176542 -9.34781e-06
-0.000108856 -9.34781e-06 0.00174683
0.00342975 -3.02175e-05 -0.000102444
-3.02175e-05 0.0017197 -5.58627e-06
-0.000102444 -5.58627e-06 0.00169549
0.00528336 -0.000150689 2.3497e-06
-0.000150689 0.00283925 1.94213e-07
2.3497e-06 1.94213e-07 0.00282148
0.000577991 0.000183469 -2.34053e-06
0.000183469 -5.30419e-05 -6.67451e-07
-2.34053e-06 -6.67451e-07 -0.000146953
0.00160512 5.47726e-05 0.00019153
5.47726e-05 0.000598877 1.50666e-05
0.00019153 1.50666e-05 0.000582899
0.00175792 0.000129418 0.000194122
0.000129418 0.000713574 2.25587e-05
0.000194122 2.25587e-05 0.000691641
0.0026308 0.000177112 0.000118309
0.000177112 0.00112922 1.52644e-05
0.000118309 1.52644e-05 0.00106234
0.00415059 -0.000275408 -2.47599e-06
-0.000275408 0.00219725 4.92612e-06
-2.47599e-06 4.92612e-06 0.00215102
0.00270493 0.000223342 0.000118051
0.000223342 0.00120109 1.75424e-05
0.000118051 1.75424e-05 0.00112872
0.000584026 0.000160431 2.73705e-05
0.000160431 -4.39556e-05 1.86042e-05
2.73705e-05 1.86042e-05 -0.000133479
0.00088463 0.000183074 1.04956e-05
0.000183074 3.57833e-05 5.2967e-06
1.04956e-05 5.2967e-06 -0.000128788
0.00330391 -0.000104717 0.00010826
-0.000104717 0.0016523 4.79998e-06
0.00010826 4.79998e-06 0.00165579
0.00554709 6.83424e-05 3.65449e-06
6.83424e-05 0.00294982 -1.38669e-06
3.65449e-06 -1.38669e-06 0.00296047
0.00349471 6.27737e-05 -9.00178e-05
6.27737e-05 0.00172943 -3.34026e-06
-9.00178e-05 -3.34026e-06 0.0017156
0.00545562 5.99293e-05 0.00023326
5.99293e-05 0.00289782 2.74724e-06
0.00023326 2.74724e-06 0.00290848
0.00129427 7.27888e-05 4.12946e-05
7.27888e-05 0.000423336 2.27285e-06
4.12946e-05 2.27285e-06 0.000390136
0.000663786 8.96079e-06 1.62017e-05
8.96079e-06 -7.2042e-05 1.67455e-06
1.62017e-05 1.67455e-06 -0.000145511
0.00541516 0.000191804 0.000120857
0.000191804 0.00289589 1.05871e-05
0.000120857 1.05871e-05 0.00287345
0.00269656 5.82534e-05 0.000115354
5.82534e-05 0.00113493 6.76964e-06
0.000115354 6.76964e-06 0.0010827
0.00122604 -7.37667e-05 -5.18575e-05
-7.37667e-05 0.000396524 6.45034e-06
-5.18575e-05 6.45034e-06 0.000355836
0.00128425 -6.72286e-05 -4.4639e-05
-6.72286e-05 0.000433537 6.86689e-06
-4.4639e-05 6.86689e-06 0.000395343
0.00143156 2.64938e-05 -2.08895e-05
2.64938e-05 0.000529376 5.75518e-06
-2.08895e-05 5.75518e-06 0.000487715
0.00160553 -0.000128718 -0.000102287
-0.000128718 0.00052747 1.65588e-05
-0.000102287 1.65588e-05 0.000457072
0.00347624 8.508e-06 -9.52179e-05
8.508e-06 0.00172506 -1.88502e-06
-9.52179e-05 -1.88502e-06 0.0017089
0.0015796 -4.78611e-05 7.21077e-05
-4.78611e-05 0.000586191 -3.1593e-06
7.21077e-05 -3.1593e-06 0.000560025
0.00149182 9.35313e-06 9.5662e-05
9.35313e-06 0.000566408 -8.09421e-06
9.5662e-05 -8.09421e-06 0.000530236
0.0015805 -5.73653e-05 6.9885e-05
-5.73653e-05 0.000591292 -6.3637e-06
6.9885e-05 -6.3637e-06 0.000565082
0.0015978 -8.87119e-05 -2.57989e-05
-8.87119e-05 0.000503519 1.20593e-06
-2.57989e-05 1.20593e-06 0.000433584
0.00156153 -0.000111794 -3.70971e-05
-0.000111794 0.000523006 3.4978e-06
-3.70971e-05 3.4978e-06 0.00044032
0.0015917 -0.000116689 -2.73276e-05
-0.000116689 0.000514084 2.4727e-06
-2.73276e-05 2.4727e-06 0.000440807
0.00202516 -0.00022368 -7.26222e-06
-0.00022368 0.000644395 1.91932e-06
-7.26222e-06 1.91932e-06 0.000497072
0.00541976 3.85509e-05 0.000227092
3.85509e-05 0.00287621 -2.30751e-07
0.000227092 -2.30751e-07 0.00288756
0.00182632 -2.27374e-05 0.000189434
-2.27374e-05 0.000724813 -8.48842e-06
0.000189434 -8.48842e-06 0.000710077
0.00241761 1.70482e-05 3.64117e-05
1.70482e-05 0.000986315 -9.51024e-07
3.64117e-05 -9.51024e-07 0.000925435
0.00154395 -8.64814e-05 4.54085e-05
-8.64814e-05 0.000470408 -5.34842e-06
4.54085e-05 -5.34842e-06 0.00039735
0.00153922 -0.0001016 4.72213e-05
-0.0001016 0.000477486 -8.69544e-06
4.72213e-05 -8.69544e-06 0.000400865
0.00190869 -0.000138517 1.15475e-05
-0.000138517 0.000524714 -3.0421e-06
1.15475e-05 -3.0421e-06 0.000397504
0.00165637 -0.000181373 1.57382e-05
-0.000181373 0.000405171 -5.67213e-06
1.57382e-05 -5.67213e-06 0.000265114
0.00118306 -2.99833e-05 0.000148078
-2.99833e-05 0.000361062 -1.6239e-05
0.000148078 -1.6239e-05 0.000348259
0.00132471 -2.06143e-05 1.43855e-05
-2.06143e-05 0.000419924 -1.1025e-05
1.43855e-05 -1.1025e-05 0.000325517
0.0019756 -0.000241848 1.31438e-05
-0.000241848 0.000645663 -6.78611e-06
1.31438e-05 -6.78611e-06 0.000488962
0.00129055 -0.000226167 7.77218e-06
-0.000226167 9.56984e-05 -2.69938e-06
7.77218e-06 -2.69938e-06 -8.53293e-05
0.00576968 0.000152556 -0.000241267
0.000152556 0.00308411 -2.05719e-05
-0.000241267 -2.05719e-05 0.003087
0.00493078 -0.000182238 -0.000139052
-0.000182238 0.00263725 -9.68175e-06
-0.000139052 -9.68175e-06 0.00261635
0.00552021 -3.1658e-05 -0.000202406
-3.1658e-05 0.00294726 -1.37681e-05
-0.000202406 -1.37681e-05 0.00294868
0.000540709 0.000178811 -2.40951e-05
0.000178811 -7.15954e-05 -1.48542e-05
-2.40951e-05 -1.48542e-05 -0.000166334
0.00577481 0.000168139 -2.93892e-06
0.000168139 0.00308626 -1.89827e-06
-2.93892e-06 -1.89827e-06 0.00308893
0.00578424 8.49565e-05 -8.65969e-06
8.49565e-05 0.00309526 -1.35763e-06
-8.65969e-06 -1.35763e-06 0.00309758
0.00052089 0.000121921 -1.0736e-07
0.000121921 -0.000125251 -2.24597e-07
-1.0736e-07 -2.24597e-07 -0.000213739
0.00272547 -0.000131538 -5.92909e-05
-0.000131538 0.0013232 -2.24246e-06
-5.92909e-05 -2.24246e-06 0.00129414
0.000521641 0.000180452 -5.53417e-07
0.000180452 -8.92937e-05 -3.10056e-07
-5.53417e-07 -3.10056e-07 -0.000184914
0.00157004 0.00013898 3.9401e-05
0.00013898 0.000551594 9.76229e-07
3.9401e-05 9.76229e-07 0.00047525
0.000884467 0.000180435 -1.63418e-08
0.000180435 3.14797e-05 1.65984e-07
-1.63418e-08 1.65984e-07 -0.000132278
0.00393628 -0.000111342 0.000134985
-0.000111342 0.00202824 7.58657e-06
0.000134985 7.58657e-06 0.00202832
0.000649423 -2.67292e-05 4.52831e-06
-2.67292e-05 5.54162e-05 8.75022e-06
4.52831e-06 8.75022e-06 1.23618e-05
0.000636912 9.17373e-05 1.69905e-05
9.17373e-05 -7.64956e-05 8.77601e-06
1.69905e-05 8.77601e-06 -0.0001604
0.000671666 0.000146768 2.18348e-05
0.000146768 -2.27907e-05 1.50749e-05
2.18348e-05 1.50749e-05 -0.000116893
0.000993819 0.000150937 1.36425e-05
0.000150937 -2.02475e-06 5.38571e-06
1.36425e-05 5.38571e-06 -0.000151271
0.00250086 7.26976e-05 8.6983e-05
7.26976e-05 0.00112595 1.16368e-05
8.6983e-05 1.16368e-05 0.00107116
0.000963552 0.000178426 1.16209e-05
0.000178426 4.69919e-05 6.61137e-06
1.16209e-05 6.61137e-06 -0.000110545
0.000863289 0.00019151 1.01156e-05
0.00019151 9.22389e-05 5.04286e-06
1.01156e-05 5.04286e-06 -8.27833e-05
0.001107 0.000233258 5.13983e-06
0.000233258 9.33506e-05 1.30132e-06
5.13983e-06 1.30132e-06 -0.000108409
0.00279144 -0.000120251 6.12592e-05
-0.000120251 0.00134655 2.32613e-06
6.12592e-05 2.32613e-06 0.00134642
0.00311556 -0.000137007 1.1819e-05
-0.000137007 0.00154607 -3.3658e-07
1.1819e-05 -3.3658e-07 0.00154132
0.0057158 2.5563e-05 -0.000234438
2.5563e-05 0.00304305 -9.87983e-06
-0.000234438 -9.87983e-06 0.00305241
0.00559859 5.86042e-05 -0.000237904
5.86042e-05 0.00297784 -5.93215e-06
-0.000237904 -5.93215e-06 0.00298929
0.00552605 8.36862e-05 -1.63875e-07
8.36862e-05 0.00294562 -2.70711e-06
-1.63875e-07 -2.70711e-06 0.00295222
0.00345045 1.41226e-05 -0.00010382
1.41226e-05 0.00170155 -4.19572e-06
-0.00010382 -4.19572e-06 0.00169111
0.00165215 3.28036e-05 4.94103e-05
3.28036e-05 0.000516731 9.85718e-07
4.94103e-05 9.85718e-07 0.000455551
0.00357499 0.000110323 -9.18423e-05
0.000110323 0.00178084 -4.65133e-06
-9.18423e-05 -4.65133e-06 0.0017625
0.0016883 7.72333e-05 4.86967e-05
7.72333e-05 0.000539757 1.91805e-06
4.86967e-05 1.91805e-06 0.00047332
0.00550113 0.000139433 0.000236082
0.000139433 0.00294083 5.85228e-06
0.000236082 5.85228e-06 0.00294129
0.000589643 1.02785e-05 1.85232e-05
1.02785e-05 -0.000112886 5.32329e-07
1.85232e-05 5.32329e-07 -0.000184588
0.00271555 2.56537e-05 0.000115392
2.56537e-05 0.0011453 4.5189e-06
0.000115392 4.5189e-06 0.0010961
0.00102336 3.62524e-05 1.24458e-05
3.62524e-05 -1.89226e-05 1.24339e-06
1.24458e-05 1.24339e-06 -0.000141239
0.00262203 0.000100628 0.000117629
0.000100628 0.00109853 8.68611e-06
0.000117629 8.68611e-06 0.00104228
0.00104488 8.60475e-05 1.21418e-05
8.60475e-05 -7.49091e-06 2.50733e-06
1.21418e-05 2.50733e-06 -0.000138859
0.00167177 4.18198e-05 -0.000194805
4.18198e-05 0.000629463 1.73967e-06
-0.000194805 1.73967e-06 0.000622577
0.0012693 -3.11738e-07 -3.87699e-05
-3.11738e-07 0.00041331 1.76509e-06
-3.87699e-05 1.76509e-06 0.000376283
0.00141854 7.55755e-05 -1.08484e-05
7.55755e-05 0.000536145 6.6086e-06
-1.08484e-05 6.6086e-06 0.000486752
0.0012335 -7.78015e-05 -5.24988e-05
-7.78015e-05 0.000402499 7.33202e-06
-5.24988e-05 7.33202e-06 0.000363009
0.00171381 -6.86445e-05 -0.000100811
-6.86445e-05 0.000564391 8.72142e-06
-0.000100811 8.72142e-06 0.000502343
0.00166118 -0.000109917 -0.000100404
-0.000109917 0.000548252 1.42954e-05
-0.000100404 1.42954e-05 0.000482265
0.00158386 -0.000135866 -0.00010355
-0.000135866 0.000527081 1.71157e-05
-0.00010355 1.71157e-05 0.000452717
0.00202372 -0.000222458 -2.71622e-05
-0.000222458 0.000641785 9.69064e-06
-2.71622e-05 9.69064e-06 0.000494759
0.00551029 -8.60766e-05 2.03701e-06
-8.60766e-05 0.00293699 -1.49072e-06
2.03701e-06 -1.49072e-06 0.00294319
0.00151855 4.38452e-05 8.04024e-05
4.38452e-05 0.000548906 -2.99942e-06
8.04024e-05 -2.99942e-06 0.000526005
0.00113251 -1.91476e-06 -5.23823e-05
-1.91476e-06 0.000212559 9.95333e-07
-5.23823e-05 9.95333e-07 0.00014991
0.00160303 -5.30249e-05 -2.97296e-05
-5.30249e-05 0.000500698 1.71316e-06
-2.97296e-05 1.71316e-06 0.000433514
0.0031054 3.93985e-05 0.000157939
3.93985e-05 0.00152946 -4.08972e-06
0.000157939 -4.08972e-06 0.00151767
0.00198114 -8.99711e-05 -3.31648e-05
-8.99711e-05 0.000792282 7.75017e-07
-3.31648e-05 7.75017e-07 0.000709678
0.00159959 -0.000105197 -2.51108e-05
-0.000105197 0.000510319 1.66201e-06
-2.51108e-05 1.66201e-06 0.000439239
0.00182717 -0.000132824 -8.84666e-06
-0.000132824 0.000474301 1.55607e-06
-8.84666e-06 1.55607e-06 0.000346777
0.00200297 -0.000244025 -5.9663e-06
-0.000244025 0.000660813 1.88032e-06
-5.9663e-06 1.88032e-06 0.000503698
0.00184433 -0.000189312 -4.60296e-06
-0.000189312 0.000515693 1.13438e-06
-4.60296e-06 1.13438e-06 0.000376157
0.00127736 -0.000225755 1.72995e-07
-0.000225755 8.63826e-05 -1.82802e-07
1.72995e-07 -1.82802e-07 -9.44381e-05
0.000625093 1.29631e-05 1.90625e-05
1.29631e-05 -9.42579e-05 -1.16748e-06
1.90625e-05 -1.16748e-06 -0.000162846
0.00148294 1.46282e-05 3.65254e-05
1.46282e-05 0.000429987 -2.57783e-06
3.65254e-05 -2.57783e-06 0.000362483
0.00164835 -3.36653e-05 1.2732e-05
-3.36653e-05 0.000357184 -1.07613e-06
1.2732e-05 -1.07613e-06 0.000243878
0.00165785 -0.000103702 1.25431e-05
-0.000103702 0.000367836 -2.38727e-06
1.25431e-05 -2.38727e-06 0.000243868
0.00164887 -0.000155315 1.44684e-05
-0.000155315 0.000380616 -4.31393e-06
1.44684e-05 -4.31393e-06 0.000247043
0.00172111 -0.00017104 1.62712e-06
-0.00017104 0.000256845 -7.18297e-07
1.62712e-06 -7.18297e-07 0.000105824
0.00430364 0.000166182 0.000120819
0.000166182 0.00226591 -6.86129e-06
0.000120819 -6.86129e-06 0.00225015
0.00132284 -0.00021053 6.47215e-06
-0.00021053 8.38326e-05 -2.00792e-06
6.47215e-06 -2.00792e-06 -8.85265e-05
0.000332336 -9.38873e-05 1.62278e-05
-9.38873e-05 -0.000174196 -1.42121e-05
1.62278e-05 -1.42121e-05 -0.000246296
0.000848197 -0.000181389 1.01556e-05
-0.000181389 1.70944e-05 -7.03236e-06
1.01556e-05 -7.03236e-06 -0.000147138
0.00133686 -0.000249257 8.89227e-06
-0.000249257 0.000159197 -3.09586e-06
8.89227e-06 -3.09586e-06 -3.34426e-05
0.0015575 -0.000293732 3.61125e-06
-0.000293732 0.000142002 3.62208e-07
3.61125e-06 3.62208e-07 -5.29904e-05
0.000403214 -2.96551e-05 8.7066e-06
-2.96551e-05 -0.000101357 -1.1331e-05
8.7066e-06 -1.1331e-05 -0.000157623
0.000676925 -4.19797e-05 1.14659e-06
-4.19797e-05 6.94487e-05 -4.02951e-06
1.14659e-06 -4.02951e-06 -4.95039e-05
0.00579001 0.000184487 -0.000252269
0.000184487 0.00309966 -2.10764e-05
-0.000252269 -2.10764e-05 0.00310018
0.00563672 6.6308e-05 -0.000220593
6.6308e-05 0.00300681 -1.72501e-05
-0.000220593 -1.72501e-05 0.00301214
0.000518337 0.000115514 -1.8363e-05
0.000115514 -0.000128757 -1.04186e-05
-1.8363e-05 -1.04186e-05 -0.000217102
0.00423005 -0.000172525 -0.000117694
-0.000172525 0.00221945 -6.1919e-06
-0.000117694 -6.1919e-06 0.00220459
0.000435768 0.000125901 -1.97278e-05
0.000125901 -0.000124862 -1.45418e-05
-1.97278e-05 -1.45418e-05 -0.000202667
0.000475258 0.000164915 -2.02835e-05
0.000164915 -0.000112496 -1.40629e-05
-2.02835e-05 -1.40629e-05 -0.000209695
0.000899117 0.000180518 -1.20969e-05
0.000180518 3.60957e-05 -5.24453e-06
-1.20969e-05 -5.24453e-06 -0.000127283
0.00373655 -0.000133018 8.32206e-06
-0.000133018 0.00191593 -5.17517e-07
8.32206e-06 -5.17517e-07 0.00191186
0.000528727 -3.7844e-05 3.62143e-07
-3.7844e-05 -1.17275e-05 4.99998e-07
3.62143e-07 4.99998e-07 -5.51042e-05
0.00165739 0.00012018 4.89415e-05
0.00012018 0.000533472 3.28637e-06
4.89415e-05 3.28637e-06 0.000459927
0.00160903 0.00017082 4.76728e-05
0.00017082 0.00053842 3.02401e-06
4.76728e-05 3.02401e-06 0.000455292
0.000973055 0.000151146 5.7873e-08
0.000151146 -1.06614e-05 -2.20545e-07
5.7873e-08 -2.20545e-07 -0.000160457
0.000613676 6.8369e-05 -5.98229e-07
6.8369e-05 4.73868e-06 1.53398e-07
-5.98229e-07 1.53398e-07 -6.04276e-05
0.000938236 0.000177295 4.61472e-07
0.000177295 3.28986e-05 2.87163e-07
4.61472e-07 2.87163e-07 -0.000124589
0.000859817 0.000180392 7.0088e-07
0.000180392 8.61933e-05 -1.50036e-06
7.0088e-07 -1.50036e-06 -8.67031e-05
0.000948329 0.000222173 -7.57664e-07
0.000222173 -1.24853e-06 4.34568e-07
-7.57664e-07 4.34568e-07 -0.000201698
0.000674762 2.50042e-05 1.12914e-05
2.50042e-05 5.74434e-05 1.0552e-05
1.12914e-05 1.0552e-05 3.37902e-06
0.000606588 -5.98417e-05 4.04989e-07
-5.98417e-05 3.49205e-05 6.95606e-06
4.04989e-07 6.95606e-06 -1.1722e-06
0.000869353 7.31109e-05 3.21844e-06
7.31109e-05 0.000197836 4.59633e-06
3.21844e-06 4.59633e-06 8.02905e-05
0.00101355 0.000130529 1.30817e-05
0.000130529 -9.5222e-06 4.37344e-06
1.30817e-05 4.37344e-06 -0.000152833
0.000981223 0.000168874 1.33681e-05
0.000168874 2.12394e-05 6.18698e-06
1.33681e-05 6.18698e-06 -0.00013329
0.0013581 0.000224641 5.79667e-06
0.000224641 9.3888e-05 1.53747e-06
5.79667e-06 1.53747e-06 -8.72911e-05
0.000895155 0.000182873 7.32256e-06
0.000182873 0.000173195 7.30703e-06
7.32256e-06 7.30703e-06 5.05426e-06
0.00102146 0.000223203 5.32278e-06
0.000223203 -1.90037e-06 2.54518e-06
5.32278e-06 2.54518e-06 -0.000193881
0.00134612 0.000263408 5.88391e-06
0.000263408 0.000298405 6.17036e-07
5.88391e-06 6.17036e-07 7.39137e-05
0.00156227 0.000288672 -1.45723e-07
0.000288672 0.000313332 -1.73252e-07
-1.45723e-07 -1.73252e-07 9.74048e-05
0.00252648 -0.000118298 3.35266e-05
-0.000118298 0.0011843 2.93403e-06
3.35266e-05 2.93403e-06 0.00118431
0.00267301 -0.00013298 6.78683e-06
-0.00013298 0.00127918 -5.97749e-07
6.78683e-06 -5.97749e-07 0.00127513
0.00291432 -0.00015239 -4.57339e-05
-0.00015239 0.00143069 -2.48916e-06
-4.57339e-05 -2.48916e-06 0.00142112
0.000405593 -1.10821e-05 6.3067e-06
-1.10821e-05 -9.27843e-05 -9.44985e-06
6.3067e-06 -9.44985e-06 -0.000142117
0.00388053 0.000145301 0.000105993
0.000145301 0.00200745 -5.50582e-06
0.000105993 -5.50582e-06 0.00199785
0.00578792 0.000173426 -0.000254994
0.000173426 0.00309759 -1.85631e-05
-0.000254994 -1.85631e-05 0.00309954
0.00560183 6.44326e-05 -0.000235181
6.44326e-05 0.00297792 -8.25683e-06
-0.000235181 -8.25683e-06 0.00298874
0.000606996 8.87261e-05 -1.96513e-05
8.87261e-05 -0.000101942 -4.71266e-06
-1.96513e-05 -4.71266e-06 -0.000179315
0.000587885 3.96795e-05 -1.91836e-05
3.96795e-05 -0.000111838 -2.30448e-06
-1.91836e-05 -2.30448e-06 -0.000186158
0.00546122 -1.50706e-05 -0.000228151
-1.50706e-05 0.00289801 -1.40613e-06
-0.000228151 -1.40613e-06 0.00291035
0.00544078 1.76121e-05 -6.41488e-07
1.76121e-05 0.00288696 -4.31695e-07
-6.41488e-07 -4.31695e-07 0.00289901
0.000571287 7.64749e-07 -1.45107e-07
7.64749e-07 -0.000125912 -3.87076e-08
-1.45107e-07 -3.87076e-08 -0.000196008
0.00163597 3.13888e-05 4.92635e-05
3.13888e-05 0.000505646 1.73117e-06
4.92635e-05 1.73117e-06 0.000443933
0.00100264 3.99885e-05 1.24883e-08
3.99885e-05 -3.16695e-05 -1.38384e-07
1.24883e-08 -1.38384e-07 -0.000154386
0.000575123 7.42242e-05 -4.13112e-07
7.42242e-05 -0.000116169 -3.06159e-07
-4.13112e-07 -3.06159e-07 -0.000197297
0.00100851 8.75397e-05 -1.06426e-07
8.75397e-05 -2.80178e-05 -1.40874e-07
-1.06426e-07 -1.40874e-07 -0.000159959
0.000564556 -2.73375e-05 1.90147e-05
-2.73375e-05 -0.000132013 -8.45504e-07
1.90147e-05 -8.45504e-07 -0.000199859
0.00100244 1.55695e-05 1.22691e-05
1.55695e-05 -2.78989e-05 5.55736e-07
1.22691e-05 5.55736e-07 -0.000148364
0.00101723 6.11155e-05 1.21521e-05
6.11155e-05 -2.37941e-05 1.94718e-06
1.21521e-05 1.94718e-06 -0.000149895
0.0014652 6.10519e-05 1.50948e-06
6.10519e-05 5.59335e-05 1.97293e-07
1.50948e-06 1.97293e-07 -7.16915e-05
0.00104214 0.000108473 1.2505e-05
0.000108473 -4.22356e-06 3.30326e-06
1.2505e-05 3.30326e-06 -0.000141451
0.00149747 0.000134703 2.46066e-06
0.000134703 8.34267e-05 2.21292e-07
2.46066e-06 2.21292e-07 -6.05827e-05
0.00544252 -4.62096e-05 -0.000234908
-4.62096e-05 0.00289113 6.48883e-07
-0.000234908 6.48883e-07 0.00290133
0.00125357 -0.000132749 -4.09776e-05
-0.000132749 0.000409692 4.26422e-06
-4.09776e-05 4.26422e-06 0.000372075
-0.000264315 -1.89192e-06 -1.29435e-05
-1.89192e-06 -0.000615135 2.15112e-06
-1.29435e-05 2.15112e-06 -0.000697089
0.00169192 -4.72703e-05 -0.00010102
-4.72703e-05 0.000548399 6.2742e-06
-0.00010102 6.2742e-06 0.000487508
0.00474006 0.00034916 1.4568e-05
0.00034916 0.00258179 7.51775e-06
1.4568e-05 7.51775e-06 0.00251156
0.00265303 -0.000178497 -0.000104141
-0.000178497 0.00117901 1.70477e-05
-0.000104141 1.70477e-05 0.00110422
0.00169999 -8.97242e-05 -0.000100346
-8.97242e-05 0.000561816 1.15155e-05
-0.000100346 1.15155e-05 0.000498588
0.00171944 -0.000126132 -2.7345e-05
-0.000126132 0.000408043 5.40039e-06
-2.7345e-05 5.40039e-06 0.000280428
0.00201749 -0.000196342 -2.57901e-05
-0.000196342 0.000617435 8.07217e-06
-2.57901e-05 8.07217e-06 0.000478685
0.00204645 -0.000247018 -2.47148e-05
-0.000247018 0.000686655 1.00308e-05
-2.47148e-05 1.00308e-05 0.000528909
0.00126901 -0.00022567 -6.43126e-06
-0.00022567 7.99295e-05 2.06556e-06
-6.43126e-06 2.06556e-06 -0.000100728
0.000567563 7.37433e-06 -5.44694e-08
7.37433e-06 -0.000126503 9.47633e-08
-5.44694e-08 9.47633e-08 -0.000196036
0.00160491 -6.61185e-05 -2.90478e-05
-6.61185e-05 0.000502101 3.29213e-07
-2.90478e-05 3.29213e-07 0.000437545
0.00122333 -2.91337e-05 -7.22984e-06
-2.91337e-05 0.000105511 3.76839e-07
-7.22984e-06 3.76839e-07 -1.2164e-05
0.00182306 -0.00010532 -5.484e-06
-0.00010532 0.000464005 8.30028e-07
-5.484e-06 8.30028e-07 0.000341322
0.00444302 0.000154975 -6.95269e-06
0.000154975 0.00234581 -9.73614e-07
-6.95269e-06 -9.73614e-07 0.0023319
0.00151013 -8.07521e-05 -2.9499e-06
-8.07521e-05 0.000538221 -1.57608e-07
-2.9499e-06 -1.57608e-07 0.000453022
0.00130941 -0.000207709 1.30851e-06
-0.000207709 0.000298846 -9.34385e-07
1.30851e-06 -9.34385e-07 0.00013446
0.00167882 -0.000155468 -5.80925e-06
-0.000155468 0.000398148 1.31004e-06
-5.80925e-06 1.31004e-06 0.000264502
0.00159447 -0.000168137 -2.35595e-06
-0.000168137 0.000179947 4.56069e-07
-2.35595e-06 4.56069e-07 2.97314e-05
0.00125048 -0.000244947 3.26192e-07
-0.000244947 0.000108424 3.12357e-08
3.26192e-07 3.12357e-08 -8.47922e-05
0.00150768 -0.000218777 3.26958e-07
-0.000218777 0.000191244 -1.58706e-07
3.26958e-07 -1.58706e-07 1.98195e-05
0.00157988 -0.000293462 6.51859e-07
-0.000293462 0.000160275 -1.10997e-07
6.51859e-07 -1.10997e-07 -3.39096e-05
0.000515304 -3.60492e-05 -9.05648e-07
-3.60492e-05 -3.81422e-05 1.24214e-07
-9.05648e-07 1.24214e-07 -9.51238e-05
0.000674985 -6.40695e-05 -2.69195e-07
-6.40695e-05 6.76691e-05 1.44417e-07
-2.69195e-07 1.44417e-07 -5.37341e-05
0.000990905 -1.3941e-05 1.22325e-05
-1.3941e-05 -3.04225e-05 -8.72395e-07
1.22325e-05 -8.72395e-07 -0.000150243
0.0016813 -6.36225e-05 1.20185e-05
-6.36225e-05 0.000376951 -1.64792e-06
1.20185e-05 -1.64792e-06 0.000259824
0.0016747 -5.3983e-05 6.27758e-07
-5.3983e-05 0.000199613 3.82451e-08
6.27758e-07 3.82451e-08 7.34144e-05
0.00148869 -0.00013268 2.76297e-06
-0.00013268 0.000101585 -2.35206e-07
2.76297e-06 -2.35206e-07 -3.86553e-05
0.00167523 -0.000206391 3.4885e-06
-0.000206391 0.000260026 -8.65626e-07
3.4885e-06 -8.65626e-07 0.000100348
0.00175206 -0.000208021 -5.39446e-07
-0.000208021 0.000147179 4.57467e-07
-5.39446e-07 4.57467e-07 5.70298e-06
0.000361353 -6.47409e-05 1.29958e-05
-6.47409e-05 -0.000137975 -1.29066e-05
1.29958e-05 -1.29066e-05 -0.000201775
0.00162409 -0.000272381 1.69901e-06
-0.000272381 0.000144808 6.9448e-07
1.69901e-06 6.9448e-07 -3.02746e-05
0.000698529 -0.000159368 5.79456e-06
-0.000159368 1.12468e-05 -7.57513e-06
5.79456e-06 -7.57513e-06 -0.000154686
0.000952197 -0.00023646 9.76681e-06
-0.00023646 -9.35233e-06 -3.56668e-06
9.76681e-06 -3.56668e-06 -0.000214351
0.00178624 -0.000334867 3.30294e-06
-0.000334867 0.000328277 -7.56006e-08
3.30294e-06 -7.56006e-08 0.000110196
0.00190716 -0.000330566 -1.58764e-06
-0.000330566 0.000292801 3.16657e-06
-1.58764e-06 3.16657e-06 0.000111326
0.000730521 -0.000105747 2.37669e-06
-0.000105747 9.76518e-05 -4.97909e-06
2.37669e-06 -4.97909e-06 -4.32642e-05
0.000661473 -2.70575e-05 6.99231e-07
-2.70575e-05 6.34009e-05 -3.66391e-06
6.99231e-07 -3.66391e-06 -4.16695e-05
0.00104461 -0.000164283 4.63196e-08
-0.000164283 0.00030261 5.02373e-07
4.63196e-08 5.02373e-07 0.000121865
0.000546099 9.43218e-05 -1.76805e-05
9.43218e-05 -0.000125355 -8.04706e-06
-1.76805e-05 -8.04706e-06 -0.000209804
0.00352924 -0.000159753 -8.28169e-05
-0.000159753 0.00179834 -3.04282e-06
-8.28169e-05 -3.04282e-06 0.00178754
0.000396897 -5.03023e-05 6.50287e-07
-5.03023e-05 -8.38167e-05 -8.20486e-06
6.50287e-07 -8.20486e-06 -0.000128759
0.000491619 0.00014242 -1.91917e-05
0.00014242 -0.000122327 -1.30374e-05
-1.91917e-05 -1.30374e-05 -0.000215989
0.000944572 0.000151038 -1.41392e-05
0.000151038 -2.36694e-05 -5.77199e-06
-1.41392e-05 -5.77199e-06 -0.000173979
0.000366646 6.10621e-05 -1.43576e-05
6.10621e-05 -0.00013977 -1.23991e-05
-1.43576e-05 -1.23991e-05 -0.00020237
0.000770953 0.000166805 -7.66102e-06
0.000166805 3.1248e-05 -7.48091e-06
-7.66102e-06 -7.48091e-06 -0.000139524
0.000912025 0.000175967 -1.15505e-05
0.000175967 1.8391e-05 -6.42516e-06
-1.15505e-05 -6.42516e-06 -0.000139031
0.000748673 0.0002075 -7.00473e-06
0.0002075 -0.000120032 -7.0766e-07
-7.00473e-06 -7.0766e-07 -0.000318591
0.000538268 1.39055e-05 2.02026e-06
1.39055e-05 -2.15832e-05 3.88495e-07
2.02026e-06 3.88495e-07 -7.39251e-05
0.000510103 -6.73511e-05 3.74082e-07
-6.73511e-05 -1.94262e-05 2.42325e-07
3.74082e-07 2.42325e-07 -5.66676e-05
0.000640504 2.68507e-05 7.84331e-07
2.68507e-05 5.33261e-05 4.42453e-07
7.84331e-07 4.42453e-07 -5.29471e-05
0.000994381 0.000131391 1.18871e-08
0.000131391 -1.78765e-05 -2.41113e-07
1.18871e-08 -2.41113e-07 -0.000161893
0.000953614 0.000168146 4.03016e-07
0.000168146 7.69236e-06 -3.31016e-07
4.03016e-07 -3.31016e-07 -0.000147114
0.00136757 0.000224812 2.49845e-07
0.000224812 0.000101333 6.65087e-09
2.49845e-07 6.65087e-09 -8.00674e-05
0.000793148 0.000163971 -5.95217e-07
0.000163971 0.000115114 2.621e-07
-5.95217e-07 2.621e-07 -5.03378e-05
0.00117378 0.000232123 2.36199e-07
0.000232123 9.09651e-05 1.61811e-08
2.36199e-07 1.61811e-08 -0.000101467
0.0011322 0.000244972 7.00219e-07
0.000244972 0.000173102 -1.78928e-06
7.00219e-07 -1.78928e-06 -4.87523e-05
0.00123199 0.000268583 -6.00209e-07
0.000268583 0.000115724 2.46254e-07
-6.00209e-07 2.46254e-07 -9.8325e-05
0.000549 -7.11587e-05 -2.34366e-06
-7.11587e-05 -4.79334e-06 5.88713e-06
-2.34366e-06 5.88713e-06 -3.62558e-05
0.000812382 0.000125053 5.36193e-06
0.000125053 0.000143205 4.82688e-06
5.36193e-06 4.82688e-06 2.42447e-06
0.000726802 9.43672e-07 1.00206e-06
9.43672e-07 9.92389e-05 4.22064e-06
1.00206e-06 4.22064e-06 1.81966e-05
0.000890697 0.000112243 1.56517e-06
0.000112243 0.000235023 -2.43772e-07
1.56517e-06 -2.43772e-07 6.75496e-05
0.00143309 0.000200939 4.439e-06
0.000200939 9.57619e-05 5.90982e-07
4.439e-06 5.90982e-07 -7.29323e-05
0.00123879 0.000234285 6.46835e-06
0.000234285 7.15839e-05 2.33521e-06
6.46835e-06 2.33521e-06 -0.000117654
0.00171976 0.000299507 1.34877e-06
0.000299507 0.000197155 -1.78662e-07
1.34877e-06 -1.78662e-07 8.66504e-06
0.00137044 0.000242886 3.36856e-06
0.000242886 0.000402724 3.92667e-06
3.36856e-06 3.92667e-06 0.000190138
0.00163128 0.000322103 -3.40632e-07
0.000322103 0.000286645 -3.96451e-07
-3.40632e-07 -3.96451e-07 7.17485e-05
0.00122136 0.000270731 1.9337e-06
0.000270731 0.000169211 -1.01879e-06
1.9337e-06 -1.01879e-06 -7.3082e-05
0.00152779 0.000303043 1.0782e-06
0.000303043 0.000210982 2.62314e-07
1.0782e-06 2.62314e-07 -1.05888e-05
0.000623886 6.8459e-06 2.29238e-06
6.8459e-06 1.77959e-05 2.33118e-06
2.29238e-06 2.33118e-06 -3.2798e-05
0.00054 -4.41982e-05 6.96595e-07
-4.41982e-05 -3.71044e-05 4.66344e-06
6.96595e-07 4.66344e-06 -5.70541e-05
0.00241408 -0.000102787 2.84004e-05
-0.000102787 0.00110877 3.31309e-06
2.84004e-05 3.31309e-06 0.00111264
0.00246812 -0.000115867 3.46174e-06
-0.000115867 0.00114916 -3.64592e-07
3.46174e-06 -3.64592e-07 0.00114962
0.00257526 -0.000131085 -3.56655e-05
-0.000131085 0.00122131 -2.71184e-06
-3.56655e-05 -2.71184e-06 0.0012175
0.00043394 -1.91249e-06 4.88049e-06
-1.91249e-06 -7.69528e-05 -7.91503e-06
4.88049e-06 -7.91503e-06 -0.000117774
0.00345718 0.000130723 8.85063e-05
0.000130723 0.00174976 -4.38885e-06
8.85063e-05 -4.38885e-06 0.00174437
0.000527104 -1.34358e-05 -3.18327e-07
-1.34358e-05 -2.37376e-05 2.35642e-07
-3.18327e-07 2.35642e-07 -7.34707e-05
0.00400243 0.000133558 -5.02588e-06
0.000133558 0.00207621 -7.38599e-07
-5.02588e-06 -7.38599e-07 0.00206933
0.00059954 9.81709e-05 -1.9157e-05
9.81709e-05 -0.000100004 -6.3508e-06
-1.9157e-05 -6.3508e-06 -0.000182537
0.000607522 3.28346e-05 -1.8419e-05
3.28346e-05 -0.000103741 -3.21966e-06
-1.8419e-05 -3.21966e-06 -0.000178183
0.000988941 8.88448e-05 -1.20339e-05
8.88448e-05 -3.95809e-05 -2.77863e-06
-1.20339e-05 -2.77863e-06 -0.000171976
0.000980782 4.19801e-05 -1.23421e-05
4.19801e-05 -4.51592e-05 -1.49606e-06
-1.23421e-05 -1.49606e-06 -0.000168141
0.000621125 -6.58392e-06 -1.92352e-05
-6.58392e-06 -0.000100062 -7.44414e-07
-1.92352e-05 -7.44414e-07 -0.000168127
0.00551534 -9.49115e-05 -0.000241806
-9.49115e-05 0.00293972 3.67346e-06
-0.000241806 3.67346e-06 0.00294693
0.000608358 -5.33676e-07 1.33431e-07
-5.33676e-07 -0.000106813 -5.00168e-07
1.33431e-07 -5.00168e-07 -0.000174666
0.000994384 2.03566e-05 -3.26791e-08
2.03566e-05 -3.30863e-05 -7.86268e-08
-3.26791e-08 -7.86268e-08 -0.000153749
0.00101096 6.28835e-05 -7.71548e-08
6.28835e-05 -2.82982e-05 -8.32053e-08
-7.71548e-08 -8.32053e-08 -0.000154759
0.00146345 6.01362e-05 -5.8352e-08
6.01362e-05 5.61764e-05 7.46054e-08
-5.8352e-08 7.46054e-08 -7.15505e-05
0.00100994 0.000110059 -1.16628e-07
0.000110059 -2.14348e-05 -2.41045e-07
-1.16628e-07 -2.41045e-07 -0.000159487
0.00148137 0.000135274 -4.33498e-08
0.000135274 7.41382e-05 -1.63654e-08
-4.33498e-08 -1.63654e-08 -7.04131e-05
0.000989976 -5.56294e-07 1.22504e-05
-5.56294e-07 -3.15537e-05 -3.23324e-07
1.22504e-05 -3.23324e-07 -0.000151451
0.00144782 3.18248e-05 1.70414e-06
3.18248e-05 5.11233e-05 1.53736e-07
1.70414e-06 1.53736e-07 -7.31069e-05
0.00147806 9.72508e-05 1.60006e-06
9.72508e-05 6.38759e-05 1.4544e-07
1.60006e-06 1.4544e-07 -7.05067e-05
0.00179101 8.56713e-05 -2.13462e-06
8.56713e-05 0.000101551 -3.46739e-07
-2.13462e-06 -3.46739e-07 -3.31072e-07
0.00148471 0.000171158 3.37193e-06
0.000171158 9.2428e-05 4.56145e-07
3.37193e-06 4.56145e-07 -6.35346e-05
0.00180147 0.000179164 -4.19757e-07
0.000179164 0.000130122 -1.29257e-06
-4.19757e-07 -1.29257e-06 2.2115e-06
0.000591802 1.03311e-06 -1.84041e-05
1.03311e-06 -0.000110279 1.11705e-06
-1.84041e-05 1.11705e-06 -0.000181487
0.00168368 -2.50774e-05 -0.000100543
-2.50774e-05 0.000543066 4.11125e-06
-0.000100543 4.11125e-06 0.000484686
0.000770228 -2.33132e-05 -1.4566e-05
-2.33132e-05 -0.000162234 1.73683e-06
-1.4566e-05 1.73683e-06 -0.000284495
0.001972 -0.000105673 -2.42517e-05
-0.000105673 0.000550219 3.86647e-06
-2.42517e-05 3.86647e-06 0.000429
0.00464584 0.000129085 -0.000153417
0.000129085 0.00245923 1.01687e-05
-0.000153417 1.01687e-05 0.00245003
0.00267619 -0.000127981 -9.78357e-05
-0.000127981 0.0012181 1.33897e-05
-9.78357e-05 1.33897e-05 0.00115134
0.00193378 -0.000251565 -1.97272e-05
-0.000251565 0.000673578 8.53806e-06
-1.97272e-05 8.53806e-06 0.000506307
0.00168979 -0.000154421 -2.56095e-05
-0.000154421 0.000404118 6.59261e-06
-2.56095e-05 6.59261e-06 0.000270693
0.00146403 -0.000165063 -5.61495e-06
-0.000165063 0.000100657 1.10796e-06
-5.61495e-06 1.10796e-06 -4.8736e-05
0.00169596 -0.000227341 -6.8317e-06
-0.000227341 0.000300793 2.04106e-06
-6.8317e-06 2.04106e-06 0.000130253
0.00117474 -0.000241716 -7.34373e-06
-0.000241716 6.40072e-05 2.53138e-06
-7.34373e-06 2.53138e-06 -0.000129993
0.00160515 -0.000293665 -2.13716e-06
-0.000293665 0.000179327 -6.4452e-07
-2.13716e-06 -6.4452e-07 -1.41436e-05
0.000621832 -4.61111e-05 -1.13471e-05
-4.61111e-05 2.32044e-05 1.15224e-05
-1.13471e-05 1.15224e-05 -3.53961e-05
0.000669896 -8.62419e-05 -1.86913e-06
-8.62419e-05 6.66639e-05 3.4046e-06
-1.86913e-06 3.4046e-06 -5.90922e-05
0.000873844 -9.22344e-06 -2.60331e-07
-9.22344e-06 -9.97515e-05 -4.15709e-08
-2.60331e-07 -4.15709e-08 -0.00022007
0.00168964 -6.4715e-05 -5.96581e-06
-6.4715e-05 0.000380667 6.28123e-07
-5.96581e-06 6.28123e-07 0.000263632
0.00170584 -5.02135e-05 -1.89968e-06
-5.02135e-05 0.000214449 2.81879e-07
-1.89968e-06 2.81879e-07 9.10802e-05
0.00157954 -0.000133959 -5.18918e-07
-0.000133959 0.000156507 2.14969e-07
-5.18918e-07 2.14969e-07 1.51597e-05
0.000518617 -7.6514e-05 -2.12071e-07
-7.6514e-05 -4.73277e-05 3.73814e-07
-2.12071e-07 3.73814e-07 -0.000113592
0.000846798 -0.000178392 -8.06758e-07
-0.000178392 9.70308e-05 -5.57809e-07
-8.06758e-07 -5.57809e-07 -7.14463e-05
0.0010177 -0.000241033 2.57222e-06
-0.000241033 3.01191e-05 -9.50021e-07
2.57222e-06 -9.50021e-07 -0.00017483
0.00168917 -0.000204781 -2.80583e-06
-0.000204781 0.000267623 7.30692e-07
-2.80583e-06 7.30692e-07 0.00010706
0.00181606 -0.000212368 7.45878e-07
-0.000212368 0.000178928 -1.55625e-07
7.45878e-07 -1.55625e-07 4.0934e-05
0.00177961 -0.000338723 -1.7771e-06
-0.000338723 0.000327102 3.15016e-07
-1.7771e-06 3.15016e-07 0.000107511
0.00164018 -0.000272729 5.2029e-07
-0.000272729 0.000155905 -3.6022e-08
5.2029e-07 -3.6022e-08 -1.88174e-05
0.00184803 -0.000328902 7.22723e-07
-0.000328902 0.000251877 5.88209e-07
7.22723e-07 5.88209e-07 7.02813e-05
0.000716258 -0.000118581 -2.44085e-07
-0.000118581 8.90427e-05 -2.02411e-07
-2.44085e-07 -2.02411e-07 -5.42563e-05
0.00056463 -0.000101384 -5.01093e-07
-0.000101384 4.40432e-06 -5.95436e-07
-5.01093e-07 -5.95436e-07 -0.000161301
0.000676951 -4.02007e-05 -5.92254e-08
-4.02007e-05 7.12967e-05 7.11829e-08
-5.92254e-08 7.11829e-08 -3.52586e-05
0.00165947 -2.08751e-05 4.76517e-07
-2.08751e-05 0.000185289 5.46024e-09
4.76517e-07 5.46024e-09 6.21845e-05
0.0017387 -8.88537e-05 2.54813e-07
-8.88537e-05 0.000235441 4.08899e-07
2.54813e-07 4.08899e-07 0.000107493
0.00169043 -7.22668e-05 -2.10488e-06
-7.22668e-05 6.00074e-05 1.13383e-06
-2.10488e-06 1.13383e-06 -4.44707e-05
0.00175065 -0.000170272 -2.35049e-06
-0.000170272 0.000112359 1.20105e-06
-2.35049e-06 1.20105e-06 -1.31197e-05
0.00163971 -0.000247334 -3.84813e-08
-0.000247334 0.000118817 1.50632e-06
-3.84813e-08 1.50632e-06 -3.57116e-05
0.00183463 -0.000235285 -1.23622e-06
-0.000235285 0.000134819 1.06134e-06
-1.23622e-06 1.06134e-06 1.91581e-05
0.000706472 -0.000141646 3.97608e-06
-0.000141646 6.85932e-05 -5.70803e-06
3.97608e-06 -5.70803e-06 -8.90125e-05
0.00171411 -0.000301141 -1.76065e-06
-0.000301141 0.00012925 1.88283e-06
-1.76065e-06 1.88283e-06 -2.84108e-05
0.00110652 -0.000242206 3.6713e-06
-0.000242206 0.000180295 -5.38177e-06
3.6713e-06 -5.38177e-06 -3.14515e-05
0.00135673 -0.000326952 4.79586e-06
-0.000326952 0.000163899 -1.39741e-06
4.79586e-06 -1.39741e-06 -7.84665e-05
0.00191834 -0.000377474 1.07533e-06
-0.000377474 0.00034738 3.17586e-06
1.07533e-06 3.17586e-06 0.000124588
0.00200107 -0.000352366 -3.11685e-06
-0.000352366 0.000317186 3.6319e-06
-3.11685e-06 3.6319e-06 0.000148997
0.000627167 -2.84104e-05 8.00466e-07
-2.84104e-05 4.37794e-05 -3.60904e-06
8.00466e-07 -3.60904e-06 -4.84464e-05
0.000786007 -0.000159019 4.6906e-07
-0.000159019 0.000108512 7.12145e-08
4.6906e-07 7.12145e-08 -6.15948e-05
0.000510678 -8.58473e-05 -4.50821e-07
-8.58473e-05 1.21827e-06 7.64592e-07
-4.50821e-07 7.64592e-07 -0.000164985
0.00131269 -0.000224907 -2.63204e-06
-0.000224907 0.0004283 2.31683e-06
-2.63204e-06 2.31683e-06 0.000235813
0.000973205 0.000132504 -1.37013e-05
0.000132504 -2.75771e-05 -4.78017e-06
-1.37013e-05 -4.78017e-06 -0.000172325
0.00043616 -6.79191e-05 1.57952e-06
-6.79191e-05 -6.33439e-05 -6.43438e-06
1.57952e-06 -6.43438e-06 -0.000100012
0.000390894 -4.57629e-06 -5.15112e-06
-4.57629e-06 -0.000104366 -1.03795e-05
-5.15112e-06 -1.03795e-05 -0.000156121
0.000463852 -8.86223e-06 3.71828e-07
-8.86223e-06 -4.87004e-05 -5.04407e-06
3.71828e-07 -5.04407e-06 -0.000152486
0.000929939 0.000168009 -1.29818e-05
0.000168009 -3.60583e-06 -6.93175e-06
-1.29818e-05 -6.93175e-06 -0.000158802
0.00137745 0.000224937 -5.62107e-06
0.000224937 0.000109004 -1.54093e-06
-5.62107e-06 -1.54093e-06 -7.26e-05
0.000711196 0.000141677 -4.77409e-06
0.000141677 6.73729e-05 -5.02131e-06
-4.77409e-06 -5.02131e-06 -9.42875e-05
0.00101281 0.000234485 -5.26326e-06
0.000234485 0.000103495 -4.68881e-06
-5.26326e-06 -4.68881e-06 -0.000116526
0.00132052 0.000240744 -6.12264e-06
0.000240744 0.000181073 -2.50729e-06
-6.12264e-06 -2.50729e-06 -1.18258e-05
0.000902815 0.00024819 -3.74596e-06
0.00024819 -8.0104e-05 3.24634e-07
-3.74596e-06 3.24634e-07 -0.000292229
0.000514203 -6.6813e-05 -2.4996e-07
-6.6813e-05 -2.83498e-05 1.66018e-07
-2.4996e-07 1.66018e-07 -5.81748e-05
0.00074638 0.000112883 2.86559e-07
0.000112883 0.000111991 -3.86314e-07
2.86559e-07 -3.86314e-07 -3.03816e-05
0.000605245 -1.66254e-05 -4.82544e-07
-1.66254e-05 2.95192e-05 7.91476e-07
-4.82544e-07 7.91476e-07 -5.10302e-05
0.000796551 8.63588e-05 1.37451e-06
8.63588e-05 0.000176466 -8.92696e-07
1.37451e-06 -8.92696e-07 1.38689e-05
0.0014299 0.000200575 1.59119e-08
0.000200575 9.49589e-05 -3.72251e-07
1.59119e-08 -3.72251e-07 -7.39952e-05
0.00127487 0.000235333 4.76601e-07
0.000235333 9.86222e-05 5.13356e-08
4.76601e-07 5.13356e-08 -9.0744e-05
0.0016943 0.000297904 2.35908e-07
0.000297904 0.000181574 1.04951e-07
2.35908e-07 1.04951e-07 -6.95491e-06
0.00107082 0.000219009 1.10439e-06
0.000219009 0.000228695 4.54841e-07
1.10439e-06 4.54841e-07 1.98793e-05
0.00169157 0.000322273 -1.20411e-06
0.000322273 0.000324556 -1.94795e-07
-1.20411e-06 -1.94795e-07 0.00011006
0.00126546 0.000279423 2.4214e-07
0.000279423 0.00018981 -1.85983e-06
2.4214e-07 -1.85983e-06 -5.48854e-05
0.00152883 0.000303698 -3.33313e-06
0.000303698 0.000213885 3.82705e-07
-3.33313e-06 3.82705e-07 -7.57236e-06
0.000532093 -5.69506e-05 -2.64721e-07
-5.69506e-05 -3.10892e-05 5.00475e-06
-2.64721e-07 5.00475e-06 -5.53419e-05
0.000672814 -8.9274e-06 1.60492e-06
-8.9274e-06 5.65548e-05 3.25986e-06
1.60492e-06 3.25986e-06 -8.28418e-06
0.00104769 0.000186627 1.2212e-06
0.000186627 0.000278509 1.81232e-06
1.2212e-06 1.81232e-06 9.77649e-05
0.000985149 6.22041e-05 -8.50814e-07
6.22041e-05 0.000293583 2.64049e-06
-8.50814e-07 2.64049e-06 0.000151419
0.00115065 0.000171615 -1.20885e-07
0.000171615 0.000367427 -1.77434e-06
-1.20885e-07 -1.77434e-06 0.000179573
0.0017655 0.000263625 9.73694e-07
0.000263625 0.000176387 -1.43767e-06
9.73694e-07 -1.43767e-06 9.47231e-06
0.00159694 0.000319415 1.2687e-06
0.000319415 0.000192269 1.43968e-07
1.2687e-06 1.43968e-07 -1.44234e-05
0.00182257 0.000335202 8.10009e-08
0.000335202 0.000218284 -2.64428e-07
8.10009e-08 -2.64428e-07 3.59972e-05
0.00106723 0.000256492 2.29389e-06
0.000256492 0.000183339 4.3313e-06
2.29389e-06 4.3313e-06 -5.66688e-05
0.00189227 0.000385348 1.52572e-06
0.000385348 0.000378769 -5.78967e-07
1.52572e-06 -5.78967e-07 0.000153477
0.000650485 0.00023875 4.15649e-06
0.00023875 -0.000235271 -1.33727e-06
4.15649e-06 -1.33727e-06 -0.000474856
0.000622708 2.07227e-06 2.58851e-06
2.07227e-06 1.76426e-05 2.36095e-06
2.58851e-06 2.36095e-06 -3.47274e-05
0.000679434 4.7081e-05 1.25103e-07
4.7081e-05 8.05626e-05 1.07251e-06
1.25103e-07 1.07251e-06 -5.73478e-06
0.000640033 1.69313e-05 2.07386e-06
1.69313e-05 3.0557e-05 2.31794e-06
2.07386e-06 2.31794e-06 -1.98034e-05
0.000609882 -1.63241e-05 -5.46561e-07
-1.63241e-05 1.16728e-05 3.23166e-09
-5.46561e-07 3.23166e-09 -3.99631e-05
0.00124583 -5.14696e-05 1.02927e-06
-5.14696e-05 0.000380205 2.68873e-06
1.02927e-06 2.68873e-06 0.000366216
0.000916213 -5.167e-05 5.42172e-07
-5.167e-05 0.000187885 -9.39385e-08
5.42172e-07 -9.39385e-08 0.000169831
0.000899413 -5.15321e-05 2.36557e-05
-5.15321e-05 0.000189616 7.46417e-06
2.36557e-05 7.46417e-06 0.000190949
0.00237888 -0.000100347 3.65121e-06
-0.000100347 0.00108673 -3.24745e-07
3.65121e-06 -3.24745e-07 0.00109113
0.00240787 -0.000112464 -3.27819e-05
-0.000112464 0.00111256 -3.02379e-06
-3.27819e-05 -3.02379e-06 0.00111375
0.000467195 2.08974e-05 1.15135e-06
2.08974e-05 -5.74914e-05 -6.44178e-06
1.15135e-06 -6.44178e-06 -9.12178e-05
0.00310545 0.000133276 5.6914e-05
0.000133276 0.00153484 -3.17099e-06
5.6914e-05 -3.17099e-06 0.00152953
0.000526405 -2.6571e-06 -4.02123e-07
-2.6571e-06 -2.279e-05 2.50692e-07
-4.02123e-07 2.50692e-07 -6.42771e-05
0.00361603 0.000121073 -5.65978e-06
0.000121073 0.00184123 -5.34191e-07
-5.65978e-06 -5.34191e-07 0.00183819
0.000630894 -1.57304e-05 -7.10134e-06
-1.57304e-05 3.4501e-05 9.77586e-06
-7.10134e-06 9.77586e-06 -1.58348e-05
0.00412221 0.000120438 -0.000131605
0.000120438 0.00214353 7.75426e-06
-0.000131605 7.75426e-06 0.00213945
0.000983087 0.000111681 -1.26966e-05
0.000111681 -3.5646e-05 -3.72624e-06
-1.26966e-05 -3.72624e-06 -0.000174438
0.000991437 6.66e-05 -1.21025e-05
6.66e-05 -3.96509e-05 -2.10307e-06
-1.21025e-05 -2.10307e-06 -0.000166704
0.00148077 0.00013268 -3.17557e-06
0.00013268 7.45091e-05 -3.05788e-07
-3.17557e-06 -3.05788e-07 -7.01054e-05
0.00146145 5.9418e-05 -1.85267e-06
5.9418e-05 5.64946e-05 -1.28986e-08
-1.85267e-06 -1.28986e-08 -7.1346e-05
0.000991361 2.41275e-05 -1.23512e-05
2.41275e-05 -3.57012e-05 -7.60771e-07
-1.23512e-05 -7.60771e-07 -0.000156567
0.000573884 2.72075e-05 -1.89996e-05
2.72075e-05 -0.000127048 -1.45789e-07
-1.89996e-05 -1.45789e-07 -0.000194635
0.000989174 1.95213e-06 7.28629e-11
1.95213e-06 -3.26866e-05 -1.53452e-07
7.28629e-11 -1.53452e-07 -0.00015262
0.00144802 3.33121e-05 -6.82767e-08
3.33121e-05 5.17025e-05 3.69694e-08
-6.82767e-08 3.69694e-08 -7.26525e-05
0.00148012 9.48515e-05 -2.38551e-09
9.48515e-05 6.68105e-05 2.8602e-08
-2.38551e-09 2.8602e-08 -6.75639e-05
0.00181103 8.49384e-05 6.38481e-08
8.49384e-05 0.000108245 2.42422e-07
6.38481e-08 2.42422e-07 9.18582e-06
0.00147184 0.000170291 -2.10772e-07
0.000170291 8.72663e-05 -8.23396e-08
-2.10772e-07 -8.23396e-08 -6.89053e-05
0.00178822 0.000176522 -2.98508e-07
0.000176522 0.000126529 -2.62048e-09
-2.98508e-07 -2.62048e-09 -1.31219e-06
0.00144136 5.5444e-06 1.975e-06
5.5444e-06 5.11403e-05 3.69167e-08
1.975e-06 3.69167e-08 -7.21617e-05
0.00181708 4.41181e-05 -3.58746e-06
4.41181e-05 0.000123583 -1.63667e-07
-3.58746e-06 -1.63667e-07 3.26688e-05
0.0018018 0.000136321 -1.58196e-06
0.000136321 0.000108337 -8.98625e-07
-1.58196e-06 -8.98625e-07 -4.46923e-06
0.00177321 8.54456e-05 2.86841e-06
8.54456e-05 2.34234e-05 2.73116e-07
2.86841e-06 2.73116e-07 -5.10189e-05
0.00179335 0.000220157 5.63684e-08
0.000220157 0.000162636 -1.15961e-06
5.63684e-08 -1.15961e-06 1.68946e-05
0.00174741 0.000197847 -6.17318e-07
0.000197847 4.07306e-05 -1.19842e-06
-6.17318e-07 -1.19842e-06 -6.14111e-05
0.000761278 -6.05903e-06 -1.21444e-05
-6.05903e-06 -0.000166445 7.18236e-07
-1.21444e-05 7.18236e-07 -0.000287315
0.00172073 -6.71633e-05 -2.38246e-05
-6.71633e-05 0.000397863 2.8644e-06
-2.38246e-05 2.8644e-06 0.000280873
0.00176106 -4.42465e-05 -5.18567e-06
-4.42465e-05 0.000243348 1.45945e-07
-5.18567e-06 1.45945e-07 0.000123046
0.00167212 -0.00013537 -4.14015e-06
-0.00013537 0.000212463 9.71342e-07
-4.14015e-06 9.71342e-07 6.99995e-05
0.000727684 -9.20477e-05 -1.5741e-05
-9.20477e-05 7.47756e-05 1.37925e-05
-1.5741e-05 1.37925e-05 4.7257e-06
0.000778775 -0.000184099 -8.45007e-06
-0.000184099 5.91336e-05 7.04365e-06
-8.45007e-06 7.04365e-06 -0.000110383
0.00104739 -0.000242286 -5.43337e-06
-0.000242286 4.86158e-05 2.41787e-06
-5.43337e-06 2.41787e-06 -0.000155709
0.00170279 -0.000203009 -7.91634e-06
-0.000203009 0.000274958 2.2764e-06
-7.91634e-06 2.2764e-06 0.000113545
0.00187956 -0.000216556 5.57121e-07
-0.000216556 0.000210259 -1.09117e-06
5.57121e-07 -1.09117e-06 7.57919e-05
0.00165495 -0.000272999 -1.18827e-06
-0.000272999 0.000166157 -6.2016e-07
-1.18827e-06 -6.2016e-07 -8.19714e-06
0.00175089 -0.00034059 -4.73347e-06
-0.00034059 0.000313509 -3.21793e-07
-4.73347e-06 -3.21793e-07 9.27888e-05
0.0017864 -0.000326222 3.0959e-06
-0.000326222 0.000209807 -2.54661e-06
3.0959e-06 -2.54661e-06 2.83659e-05
0.000778202 -0.000127544 -3.93465e-06
-0.000127544 0.000121049 4.94378e-06
-3.93465e-06 4.94378e-06 -2.17874e-05
0.000444485 -8.69384e-05 -5.84447e-07
-8.69384e-05 -6.57478e-05 -1.15899e-06
-5.84447e-07 -1.15899e-06 -0.000230221
0.000601672 -4.78537e-05 -1.5191e-06
-4.78537e-05 2.63729e-05 3.25176e-06
-1.5191e-06 3.25176e-06 -8.18749e-05
0.00156588 -1.86078e-05 -2.06158e-06
-1.86078e-05 0.000128649 1.44427e-07
-2.06158e-06 1.44427e-07 5.1809e-06
0.0017395 -9.64797e-05 -2.80933e-06
-9.64797e-05 0.000235105 4.4317e-07
-2.80933e-06 4.4317e-07 0.000106288
0.00173863 -6.91817e-05 1.59033e-06
-6.91817e-05 8.90345e-05 5.7117e-07
1.59033e-06 5.7117e-07 -1.01189e-05
0.00174902 -0.00016679 -1.66051e-06
-0.00016679 0.000110422 5.10338e-07
-1.66051e-06 5.10338e-07 -1.61778e-05
0.000751782 -0.000158048 4.06295e-07
-0.000158048 9.62808e-05 1.83496e-07
4.06295e-07 1.83496e-07 -6.44052e-05
0.00109226 -0.000241514 -1.58632e-06
-0.000241514 0.0001669 -6.93742e-07
-1.58632e-06 -6.93742e-07 -4.42995e-05
0.00142967 -0.000328944 2.42778e-06
-0.000328944 0.000214411 -3.23657e-07
2.42778e-06 -3.23657e-07 -2.78279e-05
0.00163617 -0.000245912 -8.63694e-07
-0.000245912 0.00011888 5.93463e-07
-8.63694e-07 5.93463e-07 -3.8838e-05
0.00187051 -0.000236723 1.65906e-06
-0.000236723 0.00015626 8.42706e-08
1.65906e-06 8.42706e-08 4.47451e-05
0.0018105 -0.000376494 -8.11431e-07
-0.000376494 0.00028033 3.84121e-07
-8.11431e-07 3.84121e-07 5.50556e-05
0.00174947 -0.000302252 7.98323e-08
-0.000302252 0.000149836 3.60956e-07
7.98323e-08 3.60956e-07 -7.70465e-06
0.00202579 -0.000349379 1.86709e-06
-0.000349379 0.000330791 -2.53894e-07
1.86709e-06 -2.53894e-07 0.000166166
0.000972781 -0.000183809 3.65592e-07
-0.000183809 0.000222027 8.75774e-07
3.65592e-07 8.75774e-07 4.55355e-05
0.00116927 -0.000221236 -3.29824e-07
-0.000221236 0.000350506 2.97955e-07
-3.29824e-07 2.97955e-07 0.000155331
0.000631022 -3.32629e-05 -2.4338e-08
-3.32629e-05 4.50896e-05 1.91029e-07
-2.4338e-08 1.91029e-07 -4.79313e-05
0.000357513 -4.47816e-05 -8.63507e-08
-4.47816e-05 -0.000100543 -6.49981e-07
-8.63507e-08 -6.49981e-07 -0.000255602
0.0017567 -3.78092e-05 -2.4517e-06
-3.78092e-05 9.88192e-05 2.11133e-07
-2.4517e-06 2.11133e-07 2.34187e-06
0.00184145 -0.000115454 -6.47917e-07
-0.000115454 0.000147834 1.41178e-06
-6.47917e-07 1.41178e-06 3.69968e-05
0.00172617 -7.94571e-05 1.89425e-06
-7.94571e-05 3.21377e-05 -1.0477e-07
1.89425e-06 -1.0477e-07 -4.63675e-05
0.00179834 -0.000193004 -3.21379e-06
-0.000193004 7.00559e-05 7.11969e-07
-3.21379e-06 7.11969e-07 -2.24252e-05
0.00172823 -0.00026829 -3.36038e-06
-0.00026829 0.00010504 2.64052e-06
-3.36038e-06 2.64052e-06 -2.70556e-05
0.00200771 -0.000244309 2.48308e-06
-0.000244309 0.000221919 -9.17919e-07
2.48308e-06 -9.17919e-07 0.000124755
0.000971015 -0.000213927 6.29976e-07
-0.000213927 0.000180908 -4.06016e-06
6.29976e-07 -4.06016e-06 -1.57691e-05
0.00165363 -0.00031293 -4.56802e-06
-0.00031293 7.26823e-05 2.29838e-06
-4.56802e-06 2.29838e-06 -6.2819e-05
0.00119643 -0.000294343 2.39643e-06
-0.000294343 0.000183395 -4.54435e-06
2.39643e-06 -4.54435e-06 -6.0469e-05
0.00168401 -0.000402795 -1.74077e-06
-0.000402795 0.000302272 1.63632e-06
-1.74077e-06 1.63632e-06 3.45638e-05
0.00175052 -0.000385171 1.31514e-06
-0.000385171 0.000199397 4.82193e-06
1.31514e-06 4.82193e-06 -2.16778e-05
0.00202356 -0.000336295 2.8291e-08
-0.000336295 0.000318572 8.54129e-07
2.8291e-08 8.54129e-07 0.000161668
0.000532522 -3.46562e-05 9.96945e-07
-3.46562e-05 -1.25617e-05 -3.31742e-06
9.96945e-07 -3.31742e-06 -9.23394e-05
0.000450326 -4.06798e-05 -1.57184e-06
-4.06798e-05 -3.52057e-05 -1.05247e-06
-1.57184e-06 -1.05247e-06 -0.000177601
0.000875709 -0.000214017 -1.4259e-06
-0.000214017 0.000136435 8.83237e-07
-1.4259e-06 8.83237e-07 -5.5546e-05
0.000819137 -0.000154485 4.08346e-07
-0.000154485 0.000191235 2.81326e-06
4.08346e-07 2.81326e-06 4.80141e-07
0.00147428 -0.000270387 -4.10663e-06
-0.000270387 0.00051364 4.58153e-06
-4.10663e-06 4.58153e-06 0.00031624
0.00048562 -6.14724e-05 -4.13591e-07
-6.14724e-05 -4.80667e-05 -5.05019e-06
-4.13591e-07 -5.05019e-06 -7.62602e-05
0.00142347 0.00019989 -4.48093e-06
0.00019989 9.28012e-05 -1.30689e-06
-4.48093e-06 -1.30689e-06 -7.63747e-05
0.000486137 -3.2989e-05 -2.79362e-07
-3.2989e-05 -3.78012e-05 -3.49293e-06
-2.79362e-07 -3.49293e-06 -0.000118668
0.000691717 8.50033e-05 -1.88487e-06
8.50033e-05 7.61763e-05 -4.7469e-06
-1.88487e-06 -4.7469e-06 -5.93428e-05
0.000597037 6.1745e-05 1.37025e-06
6.1745e-05 5.34543e-05 -8.58508e-07
1.37025e-06 -8.58508e-07 -0.000103169
0.00132522 0.000237582 -6.34243e-06
0.000237582 0.000133426 -2.42516e-06
-6.34243e-06 -2.42516e-06 -5.62437e-05
0.0016741 0.00029678 -3.34867e-08
0.00029678 0.000168578 6.07355e-07
-3.34867e-08 6.07355e-07 -2.00656e-05
0.000855829 0.00020554 -1.42987e-06
0.00020554 0.000104447 -3.97781e-06
-1.42987e-06 -3.97781e-06 -0.000103806
0.00133076 0.000290837 -2.514e-06
0.000290837 0.00022193 -1.66297e-06
-2.514e-06 -1.66297e-06 -2.62169e-05
0.00175466 0.000322906 -2.43905e-06
0.000322906 0.000363174 -3.58429e-07
-2.43905e-06 -3.58429e-07 0.000148972
0.00156032 0.000307838 -6.04147e-06
0.000307838 0.000234002 3.43793e-06
-6.04147e-06 3.43793e-06 1.19433e-05
0.000537752 -5.18662e-05 1.31611e-08
-5.18662e-05 -3.0246e-05 4.22585e-09
1.31611e-08 4.22585e-09 -5.31946e-05
0.000632074 -1.8294e-05 -6.23251e-07
-1.8294e-05 3.5181e-05 2.9047e-07
-6.23251e-07 2.9047e-07 -2.98681e-05
0.000958014 0.000178711 -2.13884e-07
0.000178711 0.000225053 1.07447e-06
-2.13884e-07 1.07447e-06 4.55851e-05
0.000675649 1.87851e-05 -5.00529e-07
1.87851e-05 0.000101355 1.44992e-07
-5.00529e-07 1.44992e-07 -3.05557e-05
0.000618398 0.000116699 6.44263e-07
0.000116699 4.39859e-05 -7.13448e-07
6.44263e-07 -7.13448e-07 -0.000132863
0.00174872 0.000264079 -2.4533e-07
0.000264079 0.000163748 -8.77087e-07
-2.4533e-07 -8.77087e-07 -3.57739e-06
0.00159262 0.000319941 4.86433e-07
0.000319941 0.000187424 1.91003e-07
4.86433e-07 1.91003e-07 -1.97434e-05
0.00174239 0.000331625 1.79251e-06
0.000331625 0.000172393 2.03592e-07
1.79251e-06 2.03592e-07 -1.02386e-05
0.00119415 0.000268963 1.30743e-06
0.000268963 0.000265083 8.04268e-07
1.30743e-06 8.04268e-07 2.09327e-05
0.00181917 0.000378212 9.64133e-07
0.000378212 0.000319088 1.28883e-07
9.64133e-07 1.28883e-07 9.35555e-05
0.00132796 0.000297994 -1.22051e-06
0.000297994 0.00016207 3.97396e-07
-1.22051e-06 3.97396e-07 -8.53306e-05
0.000681187 -4.55624e-06 2.12956e-06
-4.55624e-06 5.45275e-05 2.58374e-06
2.12956e-06 2.58374e-06 -1.8955e-06
0.000873385 5.73432e-05 6.8512e-07
5.73432e-05 0.000207441 2.74588e-06
6.8512e-07 2.74588e-06 9.86414e-05
0.00103784 0.000231181 -2.94112e-06
0.000231181 0.000239391 -6.762e-07
-2.94112e-06 -6.762e-07 4.02055e-05
0.00123224 9.20043e-05 -3.72506e-08
9.20043e-05 0.00043548 7.77851e-07
-3.72506e-08 7.77851e-07 0.000268343
0.00115097 0.000142963 -5.73828e-06
0.000142963 0.000315153 -6.34452e-06
-5.73828e-06 -6.34452e-06 0.000149376
0.00178077 0.000274837 -2.97221e-06
0.000274837 0.000149287 -2.60766e-06
-2.97221e-06 -2.60766e-06 -1.58096e-06
0.00180013 0.000379364 1.46871e-06
0.000379364 0.000253204 2.78302e-07
1.46871e-06 2.78302e-07 4.22945e-05
0.00153766 0.000351534 3.4616e-06
0.000351534 2.7296e-05 -8.02036e-07
3.4616e-06 -8.02036e-07 -0.000152767
0.000815016 0.000248325 -1.36453e-06
0.000248325 3.02994e-05 2.63658e-06
-1.36453e-06 2.63658e-06 -0.000218619
0.00142026 0.000352195 6.17953e-06
0.000352195 0.000135524 -1.20977e-06
6.17953e-06 -1.20977e-06 -0.000108158
0.00062493 -5.67539e-06 -1.85318e-07
-5.67539e-06 1.83459e-05 2.49795e-08
-1.85318e-07 2.49795e-08 -3.37352e-05
0.00055522 2.45301e-05 1.47945e-06
2.45301e-05 -3.9082e-06 1.5603e-06
1.47945e-06 1.5603e-06 -8.48668e-05
0.000543357 1.40108e-05 -6.03054e-07
1.40108e-05 -6.7696e-06 -1.02753e-07
-6.03054e-07 -1.02753e-07 -8.76105e-05
0.000926161 9.3328e-05 3.21689e-07
9.3328e-05 0.000232466 -5.49963e-07
3.21689e-07 -5.49963e-07 0.000131309
0.000678369 7.16854e-05 1.89747e-06
7.16854e-05 8.09314e-05 1.41472e-06
1.89747e-06 1.41472e-06 -4.20521e-06
0.000617047 2.91374e-05 2.16197e-06
2.91374e-05 2.22369e-05 2.39183e-06
2.16197e-06 2.39183e-06 -2.91906e-05
0.000614079 -8.44762e-06 -6.37154e-07
-8.44762e-06 1.63909e-05 -2.38603e-09
-6.37154e-07 -2.38603e-09 -3.44493e-05
0.00124465 -3.8783e-05 8.49451e-07
-3.8783e-05 0.000375924 2.55617e-06
8.49451e-07 2.55617e-06 0.000363854
0.000617233 -1.64067e-05 -1.243e-06
-1.64067e-05 1.46875e-05 -2.37727e-06
-1.243e-06 -2.37727e-06 -3.58589e-05
0.00129629 -4.82891e-05 -5.39502e-06
-4.82891e-05 0.000410045 -1.40344e-06
-5.39502e-06 -1.40344e-06 0.000396544
0.000861555 -4.05306e-05 2.32926e-05
-4.05306e-05 0.000158549 7.59265e-06
2.32926e-05 7.59265e-06 0.000163065
0.0013149 -5.71392e-05 -9.55673e-06
-5.71392e-05 0.000426992 -3.88831e-06
-9.55673e-06 -3.88831e-06 0.00041121
0.00158298 -6.8001e-05 2.09382e-05
-6.8001e-05 0.000600308 1.91085e-06
2.09382e-05 1.91085e-06 0.000604925
0.00232903 -9.73698e-05 -2.89277e-05
-9.73698e-05 0.00105573 -3.57253e-06
-2.89277e-05 -3.57253e-06 0.00106077
0.000466047 6.39426e-05 -2.28193e-06
6.39426e-05 -5.5245e-05 -5.30756e-06
-2.28193e-06 -5.30756e-06 -8.66806e-05
0.000508417 1.94183e-05 3.76938e-07
1.94183e-05 -3.21627e-05 3.37832e-07
3.76938e-07 3.37832e-07 -6.70114e-05
0.00273882 0.000121136 3.42573e-05
0.000121136 0.0013107 -3.47238e-06
3.42573e-05 -3.47238e-06 0.00130853
0.00321703 0.000110835 -7.04864e-06
0.000110835 0.0015984 -4.29582e-07
-7.04864e-06 -4.29582e-07 0.00159847
0.000628521 -4.062e-06 -5.60487e-06
-4.062e-06 3.70306e-05 8.02398e-06
-5.60487e-06 8.02398e-06 -5.16577e-06
0.00372622 0.000106707 -0.000116776
0.000106707 0.00190295 6.55547e-06
-0.000116776 6.55547e-06 0.00190315
0.00146131 0.00016981 -3.96142e-06
0.00016981 8.28541e-05 -6.1988e-07
-3.96142e-06 -6.1988e-07 -7.35852e-05
0.00146638 9.52739e-05 -2.21233e-06
9.52739e-05 5.99049e-05 -9.26061e-08
-2.21233e-06 -9.26061e-08 -7.48977e-05
0.00177098 0.000175051 -2.52838e-07
0.000175051 0.000120173 1.23833e-06
-2.52838e-07 1.23833e-06 -7.78112e-06
0.00182896 8.41359e-05 1.22202e-06
8.41359e-05 0.000113131 7.18552e-07
1.22202e-06 7.18552e-07 1.69411e-05
0.00144474 3.6198e-05 -1.83127e-06
3.6198e-05 5.06606e-05 -6.01669e-08
-1.83127e-06 -6.01669e-08 -7.3875e-05
0.000994038 6.54028e-06 -1.21315e-05
6.54028e-06 -3.03654e-05 -9.35424e-08
-1.21315e-05 -9.35424e-08 -0.000150265
0.00143571 9.09258e-06 7.14751e-08
9.09258e-06 4.92624e-05 2.96766e-08
7.14751e-08 2.96766e-08 -7.41456e-05
0.00181447 3.52412e-05 -1.99686e-06
3.52412e-05 0.000122807 -6.59465e-08
-1.99686e-06 -6.59465e-08 3.23447e-05
0.00180629 0.000135098 -2.77994e-07
0.000135098 0.000110925 2.04486e-07
-2.77994e-07 2.04486e-07 -1.79871e-06
0.00180879 8.38519e-05 2.27848e-06
8.38519e-05 4.49312e-05 7.72142e-07
2.27848e-06 7.72142e-07 -2.41396e-05
0.00176688 0.000220701 -2.8466e-07
0.000220701 0.000142394 -8.31221e-08
-2.8466e-07 -8.31221e-08 -3.95014e-06
0.0017813 0.000195194 -3.88898e-07
0.000195194 5.85454e-05 8.72117e-07
-3.88898e-07 8.72117e-07 -4.06502e-05
0.00177624 1.88228e-06 -2.73165e-06
1.88228e-06 0.000109904 1.92946e-07
-2.73165e-06 1.92946e-07 1.97397e-05
0.0017706 3.97777e-05 3.14356e-06
3.97777e-05 3.46836e-05 2.53905e-07
3.14356e-06 2.53905e-07 -2.87601e-05
0.00182664 0.000142167 -3.10665e-07
0.000142167 5.97525e-05 -6.45783e-07
-3.10665e-07 -6.45783e-07 -2.06149e-05
0.00180949 9.04269e-05 5.41794e-06
9.04269e-05 2.19629e-05 6.19217e-07
5.41794e-06 6.19217e-07 -3.12665e-05
0.00174763 0.000220344 -5.53839e-07
0.000220344 8.46142e-05 -2.30582e-06
-5.53839e-07 -2.30582e-06 -3.6469e-05
0.0019227 0.000204741 3.70657e-06
0.000204741 0.00010482 8.92307e-07
3.70657e-06 8.92307e-07 2.23295e-05
0.00145978 -1.65645e-05 -3.87013e-06
-1.65645e-05 6.4827e-05 8.32688e-08
-3.87013e-06 8.32688e-08 -5.90267e-05
0.00175056 -0.000101364 -6.00792e-06
-0.000101364 0.000240648 6.94985e-07
-6.00792e-06 6.94985e-07 0.000111233
0.00176661 -6.71435e-05 3.36446e-06
-6.71435e-05 0.000106224 -1.27734e-06
3.36446e-06 -1.27734e-06 1.22481e-05
0.00173849 -0.000163615 -2.33441e-07
-0.000163615 0.000103473 -1.22944e-07
-2.33441e-07 -1.22944e-07 -2.43288e-05
0.000877986 -0.000182049 -5.55178e-06
-0.000182049 0.000172178 7.51914e-06
-5.55178e-06 7.51914e-06 7.55223e-06
0.00111534 -0.0002443 -6.20305e-06
-0.0002443 0.000175424 3.77227e-06
-6.20305e-06 3.77227e-06 -3.58915e-05
0.00131296 -0.000313712 -7.42945e-07
-0.000313712 0.000152772 7.8148e-07
-7.42945e-07 7.8148e-07 -8.71812e-05
0.00163568 -0.000244653 -1.10177e-06
-0.000244653 0.000120753 1.51719e-07
-1.10177e-06 1.51719e-07 -4.01829e-05
0.00190755 -0.00023786 3.0769e-06
-0.00023786 0.000178955 -1.69658e-06
3.0769e-06 -1.69658e-06 7.16221e-05
0.00178751 -0.000303493 2.26119e-06
-0.000303493 0.000172116 -1.17332e-06
2.26119e-06 -1.17332e-06 1.46881e-05
0.00173041 -0.000378599 -3.49135e-07
-0.000378599 0.000228856 -1.824e-06
-3.49135e-07 -1.824e-06 4.75318e-07
0.00204373 -0.00034599 5.54652e-06
-0.00034599 0.000341135 -6.19312e-06
5.54652e-06 -6.19312e-06 0.000180121
0.000902996 -0.000183168 4.4312e-07
-0.000183168 0.000182671 1.53278e-06
4.4312e-07 1.53278e-06 5.35268e-06
0.000648712 -0.000157933 5.18514e-07
-0.000157933 3.22487e-05 -9.21909e-07
5.18514e-07 -9.21909e-07 -0.000148646
0.000700268 -3.86923e-05 -1.27197e-06
-3.86923e-05 8.37832e-05 3.51749e-06
-1.27197e-06 3.51749e-06 -9.50999e-06
0.000262131 -1.58822e-05 8.38926e-07
-1.58822e-05 -0.000162102 -2.12707e-06
8.38926e-07 -2.12707e-06 -0.000309462
0.0017458 -3.78869e-05 1.48233e-08
-3.78869e-05 9.36661e-05 1.18664e-07
1.48233e-08 1.18664e-07 -2.94555e-06
0.00178629 -0.000114661 5.58454e-07
-0.000114661 0.000118299 -3.4016e-07
5.58454e-07 -3.4016e-07 5.32998e-06
0.00174805 -7.78524e-05 2.13124e-06
-7.78524e-05 4.40773e-05 -6.07559e-07
2.13124e-06 -6.07559e-07 -3.00975e-05
0.00177013 -0.000189469 -1.75725e-06
-0.000189469 5.93672e-05 6.63134e-07
-1.75725e-06 6.63134e-07 -3.50836e-05
0.00100369 -0.000210418 -1.12487e-06
-0.000210418 0.00020085 6.96745e-07
-1.12487e-06 6.96745e-07 5.05993e-06
0.00103677 -0.000274736 1.4771e-06
-0.000274736 8.74286e-05 -1.90201e-06
1.4771e-06 -1.90201e-06 -0.000150573
0.00162303 -0.0004026 -2.41237e-07
-0.0004026 0.000264919 1.04876e-06
-2.41237e-07 1.04876e-06 -6.09686e-06
0.00169691 -0.000265476 -1.522e-06
-0.000265476 9.23424e-05 7.7236e-07
-1.522e-06 7.7236e-07 -4.33564e-05
0.00186086 -0.000240427 2.01054e-06
-0.000240427 0.000132493 -1.0162e-06
2.01054e-06 -1.0162e-06 3.96436e-05
0.00175212 -0.000387632 -5.87758e-07
-0.000387632 0.000205466 5.84113e-07
-5.87758e-07 5.84113e-07 -1.70726e-05
0.00171407 -0.000316459 -6.05366e-07
-0.000316459 0.000104033 1.06237e-06
-6.05366e-07 1.06237e-06 -3.19577e-05
0.00187689 -0.000327178 3.66597e-06
-0.000327178 0.000219854 -5.49164e-06
3.66597e-06 -5.49164e-06 6.82601e-05
0.00103946 -0.000230189 6.30695e-07
-0.000230189 0.000229132 1.48709e-06
6.30695e-07 1.48709e-06 3.44324e-05
0.0012744 -0.000244837 3.476e-06
-0.000244837 0.00038726 1.33646e-06
3.476e-06 1.33646e-06 0.00019951
0.000769049 -0.000119764 -2.3882e-07
-0.000119764 0.000157298 -2.59151e-07
-2.3882e-07 -2.59151e-07 -3.28177e-05
0.000461811 -9.61365e-06 -1.38276e-06
-9.61365e-06 -5.48416e-05 4.53744e-07
-1.38276e-06 4.53744e-07 -0.000136056
0.000373478 -7.69757e-06 -3.39703e-07
-7.69757e-06 -8.30794e-05 -6.46351e-07
-3.39703e-07 -6.46351e-07 -0.000218822
0.0018783 -5.04383e-05 1.59001e-06
-5.04383e-05 0.00010593 -6.78568e-07
1.59001e-06 -6.78568e-07 4.53097e-05
0.0018763 -0.000113157 2.96334e-06
-0.000113157 9.70769e-05 2.11545e-07
2.96334e-06 2.11545e-07 2.27006e-05
0.00182822 -0.000229147 7.85583e-07
-0.000229147 6.4101e-05 -1.72628e-06
7.85583e-07 -1.72628e-06 -1.15073e-05
0.00166238 -0.000265177 -5.40839e-07
-0.000265177 3.71139e-05 -1.23237e-07
-5.40839e-07 -1.23237e-07 -6.91476e-05
0.00113624 -0.000256193 -2.26574e-06
-0.000256193 0.000242135 -4.36823e-06
-2.26574e-06 -4.36823e-06 2.27248e-05
0.00223927 -0.000378752 -3.21525e-06
-0.000378752 0.000347075 4.04619e-07
-3.21525e-06 4.04619e-07 0.000213261
0.00139752 -0.000357475 2.60103e-06
-0.000357475 0.000261518 -4.30649e-06
2.60103e-06 -4.30649e-06 -1.3862e-05
0.00171876 -0.000449913 -4.39309e-07
-0.000449913 0.000281213 2.02079e-06
-4.39309e-07 2.02079e-06 -3.86237e-06
0.00163709 -0.000371909 1.89383e-06
-0.000371909 0.000112513 3.86006e-06
1.89383e-06 3.86006e-06 -0.000100594
0.000239091 1.05603e-05 1.78418e-07
1.05603e-05 -0.000186292 -3.52344e-06
1.78418e-07 -3.52344e-06 -0.000255474
0.000719641 -4.41745e-05 5.07182e-07
-4.41745e-05 0.000135832 -8.5152e-07
5.07182e-07 -8.5152e-07 8.5725e-06
0.000974767 -7.58079e-05 -1.39464e-06
-7.58079e-05 0.00027538 1.21695e-06
-1.39464e-06 1.21695e-06 0.000112734
0.00115864 -0.000251141 -6.86141e-06
-0.000251141 0.000280879 8.24071e-07
-6.86141e-06 8.24071e-07 8.19835e-05
0.000481352 -0.000128281 2.81926e-06
-0.000128281 -2.74199e-05 5.05117e-06
2.81926e-06 5.05117e-06 -0.000227956
0.000651847 -0.00020768 -1.55857e-06
-0.00020768 -1.35393e-05 9.69026e-07
-1.55857e-06 9.69026e-07 -0.000194697
0.000542008 -4.987e-05 -1.07225e-06
-4.987e-05 -2.88873e-05 -4.63555e-06
-1.07225e-06 -4.63555e-06 -5.13077e-05
0.000579596 -2.21433e-05 -1.74986e-06
-2.21433e-05 6.04139e-06 -2.70343e-06
-1.74986e-06 -2.70343e-06 -5.89093e-05
0.00173005 0.000264508 -1.42736e-06
0.000264508 0.000149737 -3.02826e-07
-1.42736e-06 -3.02826e-07 -1.8016e-05
0.000385263 -5.66453e-05 1.35352e-06
-5.66453e-05 -7.2398e-05 -2.57044e-06
1.35352e-06 -2.57044e-06 -0.000197779
0.000790545 0.000161577 -1.12789e-06
0.000161577 0.000127696 4.63282e-07
-1.12789e-06 4.63282e-07 -4.79498e-05
0.000121605 6.41266e-05 1.61626e-06
6.41266e-05 -0.000257694 1.57123e-06
1.61626e-06 1.57123e-06 -0.0004247
0.00158858 0.000320091 -1.0139e-07
0.000320091 0.000184149 3.70987e-07
-1.0139e-07 3.70987e-07 -2.33795e-05
0.00166046 0.000327526 4.3956e-07
0.000327526 0.000126806 1.37393e-07
4.3956e-07 1.37393e-07 -5.60444e-05
0.00131995 0.000281496 1.54758e-06
0.000281496 0.000346112 -1.63521e-06
1.54758e-06 -1.63521e-06 9.77962e-05
0.00194852 0.000351131 -1.15638e-06
0.000351131 0.000524702 -1.53733e-06
-1.15638e-06 -1.53733e-06 0.000272133
0.00173238 0.000369968 -2.8529e-06
0.000369968 0.000253166 -6.30598e-08
-2.8529e-06 -6.30598e-08 2.75616e-05
0.000622907 -4.91571e-06 -3.59253e-07
-4.91571e-06 2.11814e-05 2.38087e-07
-3.59253e-07 2.38087e-07 -3.51386e-05
0.000699083 3.74238e-07 -9.0949e-07
3.74238e-07 0.000102465 4.47744e-07
-9.0949e-07 4.47744e-07 -9.56798e-07
0.00110078 0.000237578 -6.0329e-07
0.000237578 0.000279048 2.21857e-07
-6.0329e-07 2.21857e-07 7.79304e-05
0.000829761 4.20356e-05 5.00844e-07
4.20356e-05 0.000192599 -9.70101e-08
5.00844e-07 -9.70101e-08 3.37654e-05
0.000809883 0.000153789 1.5398e-06
0.000153789 0.000130261 1.28254e-06
1.5398e-06 1.28254e-06 -4.18079e-05
0.00175409 0.000276008 -1.95443e-06
0.000276008 0.000135888 -1.4899e-06
-1.95443e-06 -1.4899e-06 -1.62086e-05
0.00175741 0.000375695 1.59249e-06
0.000375695 0.000225941 4.13321e-07
1.59249e-06 4.13321e-07 1.52833e-05
0.00167048 0.000355823 4.41416e-07
0.000355823 0.000105657 -8.26208e-08
4.41416e-07 -8.26208e-08 -7.32803e-05
0.000850033 0.000258694 8.76794e-07
0.000258694 4.13798e-05 3.20712e-06
8.76794e-07 3.20712e-06 -0.00020956
0.00160962 0.000368302 -2.33607e-06
0.000368302 0.000257263 -1.10654e-06
-2.33607e-06 -1.10654e-06 1.03637e-05
0.000780703 3.65058e-05 6.17414e-07
3.65058e-05 0.000142069 1.90747e-06
6.17414e-07 1.90747e-06 5.10448e-05
0.000335998 -4.43187e-06 -1.95795e-06
-4.43187e-06 -0.000101217 2.59132e-06
-1.95795e-06 2.59132e-06 -0.000225362
0.00120021 0.000262479 -3.79445e-06
0.000262479 0.000290043 -1.76366e-06
-3.79445e-06 -1.76366e-06 8.52625e-05
0.000723303 0.000122084 -5.44236e-06
0.000122084 0.00015026 -4.66995e-06
-5.44236e-06 -4.66995e-06 -3.48027e-05
0.000725817 0.000212366 -1.28485e-06
0.000212366 4.6907e-05 -2.85792e-06
-1.28485e-06 -2.85792e-06 -0.000128091
0.00164821 0.000294334 -6.44306e-07
0.000294334 8.51804e-06 -2.16063e-06
-6.44306e-07 -2.16063e-06 -0.000118865
0.00191398 0.000413673 3.493e-06
0.000413673 0.000301499 -1.96149e-06
3.493e-06 -1.96149e-06 7.80213e-05
0.00156253 0.000369072 2.40783e-06
0.000369072 3.304e-05 4.3336e-08
2.40783e-06 4.3336e-08 -0.000148206
0.00133105 0.000312558 1.79502e-06
0.000312558 0.000267038 7.96965e-06
1.79502e-06 7.96965e-06 -1.75413e-06
0.00140504 0.000377439 -9.88591e-07
0.000377439 0.000149287 -8.18837e-07
-9.88591e-07 -8.18837e-07 -0.000101069
0.000603803 -1.61528e-05 -1.5493e-06
-1.61528e-05 6.77578e-06 -2.48316e-06
-1.5493e-06 -2.48316e-06 -4.58611e-05
0.000616471 2.90195e-05 1.02399e-06
2.90195e-05 3.43257e-05 3.33932e-07
1.02399e-06 3.33932e-07 -4.73416e-05
0.000522821 8.23426e-06 -1.98257e-07
8.23426e-06 -2.07969e-05 1.00128e-06
-1.98257e-07 1.00128e-06 -0.000107627
0.000432987 -2.79255e-05 -6.90171e-07
-2.79255e-05 -7.25834e-05 -1.3958e-06
-6.90171e-07 -1.3958e-06 -0.000152524
0.000658353 3.66768e-05 -2.83529e-07
3.66768e-05 6.81672e-05 1.45194e-08
-2.83529e-07 1.45194e-08 -1.5445e-05
0.000685813 4.93117e-05 -3.40815e-07
4.93117e-05 7.89684e-05 -3.42562e-07
-3.40815e-07 -3.42562e-07 -1.23634e-05
0.000809451 8.05501e-05 -1.29662e-06
8.05501e-05 0.000160824 -1.89429e-06
-1.29662e-06 -1.89429e-06 6.05802e-05
0.00049974 -1.05919e-05 6.93628e-07
-1.05919e-05 -1.60304e-05 1.78318e-07
6.93628e-07 1.78318e-07 -0.000118141
0.000685707 6.05475e-05 9.53723e-07
6.05475e-05 8.13859e-05 1.54232e-06
9.53723e-07 1.54232e-06 9.39908e-07
0.000626133 3.58955e-05 2.26636e-06
3.58955e-05 3.23557e-05 2.40943e-06
2.26636e-06 2.40943e-06 -2.04359e-05
0.00061406 1.04846e-06 -1.22855e-06
1.04846e-06 2.03222e-05 2.98657e-09
-1.22855e-06 2.98657e-09 -3.0973e-05
0.0012512 -2.65471e-05 9.57437e-07
-2.65471e-05 0.000378616 2.50019e-06
9.57437e-07 2.50019e-06 0.00036747
0.000578415 -4.63732e-05 -4.40065e-08
-4.63732e-05 -1.0241e-06 -2.37531e-06
-4.40065e-08 -2.37531e-06 -5.392e-05
0.00129657 -3.56673e-05 -4.65844e-06
-3.56673e-05 0.000406645 -1.4569e-06
-4.65844e-06 -1.4569e-06 0.000394868
0.000855688 -3.27611e-05 1.96181e-05
-3.27611e-05 0.000149807 7.94714e-06
1.96181e-05 7.94714e-06 0.000155869
0.00133752 -4.60219e-05 -8.46013e-06
-4.60219e-05 0.000434314 -5.51793e-06
-8.46013e-06 -5.51793e-06 0.000421037
0.000805806 -4.14684e-05 7.14083e-06
-4.14684e-05 0.000124656 2.98438e-06
7.14083e-06 2.98438e-06 0.000128608
0.00226286 -9.11724e-05 -4.53638e-06
-9.11724e-05 0.00100794 -1.97892e-06
-4.53638e-06 -1.97892e-06 0.0010144
0.000496792 4.58358e-05 -7.84429e-07
4.58358e-05 -5.07874e-05 -3.95414e-06
-7.84429e-07 -3.95414e-06 -7.2303e-05
0.000508858 4.21987e-05 -1.15926e-06
4.21987e-05 -3.45242e-05 -7.51703e-09
-1.15926e-06 -7.51703e-09 -6.34814e-05
0.00249727 0.000103653 2.53764e-05
0.000103653 0.00115981 -3.66291e-06
2.53764e-05 -3.66291e-06 0.00116226
0.000578151 4.44212e-06 -4.45928e-06
4.44212e-06 6.30297e-06 6.7411e-06
-4.45928e-06 6.7411e-06 -2.73403e-05
0.00287271 0.000119336 -1.28869e-05
0.000119336 0.00138972 -6.53757e-07
-1.28869e-05 -6.53757e-07 0.00138823
0.00334061 9.81379e-05 -9.78024e-05
9.81379e-05 0.00166918 5.23411e-06
-9.78024e-05 5.23411e-06 0.00167218
0.00173991 0.000221068 -1.75845e-06
0.000221068 0.000122309 7.32284e-07
-1.75845e-06 7.32284e-07 -2.4606e-05
0.00180858 0.000132773 1.28194e-06
0.000132773 0.000112723 1.34465e-06
1.28194e-06 1.34465e-06 2.23884e-07
0.00182334 0.000192871 9.28238e-07
0.000192871 8.09534e-05 2.10311e-06
9.28238e-07 2.10311e-06 -1.52325e-05
0.00184287 8.22481e-05 1.09277e-06
8.22481e-05 6.549e-05 1.08207e-06
1.09277e-06 1.08207e-06 1.97827e-06
0.00181401 2.87774e-05 -4.583e-07
2.87774e-05 0.000123545 7.30975e-08
-4.583e-07 7.30975e-08 3.34655e-05
0.00143606 1.19322e-05 -1.73083e-06
1.19322e-05 5.03349e-05 3.8679e-08
-1.73083e-06 3.8679e-08 -7.30967e-05
0.00175021 2.96877e-06 -1.79688e-06
2.96877e-06 9.34679e-05 -2.34379e-09
-1.79688e-06 -2.34379e-09 8.86627e-07
0.00178785 3.81465e-05 2.15987e-06
3.81465e-05 4.81806e-05 1.05236e-07
2.15987e-06 1.05236e-07 -1.6901e-05
0.00185835 0.000141655 -1.40832e-06
0.000141655 8.12149e-05 -6.08524e-07
-1.40832e-06 -6.08524e-07 7.34047e-07
0.0018359 9.24747e-05 1.66055e-06
9.24747e-05 3.5352e-05 4.98648e-07
1.66055e-06 4.98648e-07 -1.52594e-05
0.00176898 0.000219172 -8.67076e-07
0.000219172 0.000105251 -2.26126e-07
-8.67076e-07 -2.26126e-07 -1.57479e-05
0.00188156 0.000205921 3.61956e-06
0.000205921 8.14296e-05 1.46819e-06
3.61956e-06 1.46819e-06 1.76433e-06
0.00180083 -6.95894e-06 1.04847e-06
-6.95894e-06 6.8841e-05 1.9311e-07
1.04847e-06 1.9311e-07 5.94597e-06
0.00186337 4.30924e-05 5.09306e-06
4.30924e-05 3.56657e-05 4.38902e-08
5.09306e-06 4.38902e-08 1.45154e-06
0.00188444 0.000145492 4.12497e-06
0.000145492 5.57946e-05 9.90938e-07
4.12497e-06 9.90938e-07 -7.60932e-07
0.00191505 0.000257367 3.9604e-07
0.000257367 0.000115163 -3.05066e-07
3.9604e-07 -3.05066e-07 2.09642e-05
0.00174144 -3.80667e-05 1.67238e-06
-3.80667e-05 9.23999e-05 5.13777e-08
1.67238e-06 5.13777e-08 -4.32018e-06
0.00172703 -0.000115368 2.35955e-06
-0.000115368 8.63838e-05 -1.20389e-06
2.35955e-06 -1.20389e-06 -2.88649e-05
0.00178003 -7.64354e-05 3.65912e-06
-7.64354e-05 6.22836e-05 -1.92307e-06
3.65912e-06 -1.92307e-06 -7.58735e-06
0.00176192 -0.000186142 -1.22814e-06
-0.000186142 5.94891e-05 2.52946e-07
-1.22814e-06 2.52946e-07 -3.66808e-05
0.00113521 -0.000222181 -1.56239e-06
-0.000222181 0.000279687 4.74155e-06
-1.56239e-06 4.74155e-06 8.09851e-05
0.00103733 -0.000269754 -9.00234e-07
-0.000269754 8.63342e-05 1.88072e-06
-9.00234e-07 1.88072e-06 -0.000147692
0.00161448 -0.000407713 1.07604e-06
-0.000407713 0.000260414 -6.17355e-07
1.07604e-06 -6.17355e-07 -1.50846e-05
0.00165774 -0.000262472 2.54158e-08
-0.000262472 7.53278e-05 -3.29815e-07
2.54158e-08 -3.29815e-07 -6.3964e-05
0.00170853 -0.00023661 2.92352e-06
-0.00023661 3.96124e-05 -1.35786e-06
2.92352e-06 -1.35786e-06 -4.89785e-05
0.00177837 -0.000320299 3.2466e-06
-0.000320299 0.000137088 -1.3517e-07
3.2466e-06 -1.3517e-07 5.7071e-07
0.0017414 -0.000388457 -1.97516e-06
-0.000388457 0.000203508 -2.32351e-06
-1.97516e-06 -2.32351e-06 -2.01017e-05
0.00174783 -0.000318884 2.2351e-06
-0.000318884 0.000132789 -1.14876e-05
2.2351e-06 -1.14876e-05 -1.36644e-05
0.00125784 -0.000251436 3.0401e-06
-0.000251436 0.000355635 2.25363e-06
3.0401e-06 2.25363e-06 0.000156995
0.00102173 -0.000219389 4.25655e-06
-0.000219389 0.000225318 -3.31841e-06
4.25655e-06 -3.31841e-06 4.75772e-05
0.000699916 -9.73791e-05 1.73615e-06
-9.73791e-05 0.000112863 -3.81906e-06
1.73615e-06 -3.81906e-06 -7.7988e-05
0.00036451 7.54145e-06 -1.03116e-06
7.54145e-06 -0.000112134 3.11289e-06
-1.03116e-06 3.11289e-06 -0.00019548
0.000341794 1.98024e-05 1.40781e-06
1.98024e-05 -0.00010444 -8.03573e-08
1.40781e-06 -8.03573e-08 -0.000235786
0.00189206 -5.59451e-05 -1.47721e-07
-5.59451e-05 0.00011536 -1.59782e-07
-1.47721e-07 -1.59782e-07 5.19669e-05
0.00181602 -0.000114803 1.35932e-06
-0.000114803 5.89974e-05 -6.95343e-07
1.35932e-06 -6.95343e-07 -1.71487e-05
0.00183949 -0.000223082 -2.12296e-06
-0.000223082 7.94585e-05 2.84746e-07
-2.12296e-06 2.84746e-07 1.47978e-06
0.00117113 -0.000257626 -1.29322e-06
-0.000257626 0.000261469 1.22148e-07
-1.29322e-06 1.22148e-07 4.18216e-05
0.00100419 -0.000311655 1.3972e-06
-0.000311655 2.72144e-05 -2.06377e-06
1.3972e-06 -2.06377e-06 -0.00023669
0.00162089 -0.00044714 -1.95301e-07
-0.00044714 0.000226238 -3.29012e-08
-1.95301e-07 -3.29012e-08 -6.18447e-05
0.00167585 -0.000265886 5.50559e-07
-0.000265886 3.95513e-05 -3.29323e-07
5.50559e-07 -3.29323e-07 -6.70468e-05
0.00173557 -0.000374879 8.87834e-07
-0.000374879 0.00017265 -2.37042e-06
8.87834e-07 -2.37042e-06 -3.39671e-05
0.00191424 -0.000356142 -4.30442e-07
-0.000356142 0.000174172 -1.11693e-06
-4.30442e-07 -1.11693e-06 4.14922e-05
0.000288709 3.54561e-05 -4.13747e-07
3.54561e-05 -0.0001622 -9.04135e-07
-4.13747e-07 -9.04135e-07 -0.000227271
0.00120532 -0.000253956 -1.52799e-07
-0.000253956 0.000295815 1.65905e-06
-1.52799e-07 1.65905e-06 9.7857e-05
0.000645325 -0.00020453 3.16614e-07
-0.00020453 -1.1887e-05 7.90465e-07
3.16614e-07 7.90465e-07 -0.000183393
0.000982135 -0.000171488 -6.55088e-07
-0.000171488 0.000272323 5.51608e-07
-6.55088e-07 5.51608e-07 6.21062e-05
0.00111079 -8.13085e-05 2.86171e-07
-8.13085e-05 0.000355446 -9.40903e-07
2.86171e-07 -9.40903e-07 0.000193061
0.000602539 -2.13053e-06 -5.12414e-07
-2.13053e-06 5.84235e-05 5.56132e-07
-5.12414e-07 5.56132e-07 -6.53524e-05
0.00173594 -6.39382e-05 3.166e-06
-6.39382e-05 -2.28741e-05 -2.73947e-07
3.166e-06 -2.73947e-07 -7.0025e-05
0.00203193 -0.000157267 2.48163e-06
-0.000157267 0.000111831 -9.98913e-08
2.48163e-06 -9.98913e-08 6.86852e-05
0.00167594 -0.000258299 1.80638e-06
-0.000258299 -3.7897e-05 -1.70253e-06
1.80638e-06 -1.70253e-06 -0.000106746
0.00206801 -0.000333903 -1.27348e-07
-0.000333903 0.000176945 -2.39718e-06
-1.27348e-07 -2.39718e-06 7.55267e-05
0.00154727 -0.000315949 -5.22478e-06
-0.000315949 0.000431451 -5.22982e-06
-5.22478e-06 -5.22982e-06 0.000192976
0.00188541 -0.000397957 1.09347e-06
-0.000397957 0.000184288 3.84743e-06
1.09347e-06 3.84743e-06 1.28522e-05
0.00149533 -0.000419775 -4.41876e-06
-0.000419775 0.000270229 1.60385e-06
-4.41876e-06 1.60385e-06 -4.81936e-05
0.00164579 -0.000465622 -3.82794e-06
-0.000465622 0.000236403 2.6491e-06
-3.82794e-06 2.6491e-06 -6.34391e-05
0.000292342 5.33125e-05 -2.01867e-06
5.33125e-05 -0.000164425 -2.31788e-06
-2.01867e-06 -2.31788e-06 -0.000218952
0.000706958 3.16089e-07 -1.82715e-07
3.16089e-07 0.000116984 -6.38858e-07
-1.82715e-07 -6.38858e-07 1.18573e-05
0.000964568 -0.000106902 -1.75482e-06
-0.000106902 0.00027598 2.14679e-06
-1.75482e-06 2.14679e-06 0.000130607
0.000917926 -3.07526e-05 -1.96436e-06
-3.07526e-05 0.000236969 4.28113e-06
-1.96436e-06 4.28113e-06 4.30374e-05
0.000530658 -0.0002154 -4.54325e-06
-0.0002154 -0.000118029 -3.67696e-06
-4.54325e-06 -3.67696e-06 -0.000319289
0.00098822 -0.000233669 -7.20906e-06
-0.000233669 0.000219488 2.3132e-06
-7.20906e-06 2.3132e-06 4.38101e-06
0.00056976 -1.27181e-05 -2.20743e-06
-1.27181e-05 -9.6406e-06 -2.3763e-06
-2.20743e-06 -2.3763e-06 -6.55991e-05
0.00051926 -3.59862e-05 5.14001e-07
-3.59862e-05 -1.05926e-05 -1.86101e-06
5.14001e-07 -1.86101e-06 -0.000106253
0.00173061 0.000277714 -2.18376e-06
0.000277714 0.000123039 -5.97686e-07
-2.18376e-06 -5.97686e-07 -3.03728e-05
0.000421594 -8.30182e-06 1.01284e-06
-8.30182e-06 -5.41905e-05 -1.14485e-06
1.01284e-06 -1.14485e-06 -0.000203003
0.00114886 0.000242194 1.79351e-06
0.000242194 0.000309715 -3.71264e-07
1.79351e-06 -3.71264e-07 0.000107603
0.000121093 7.60226e-05 3.3729e-06
7.60226e-05 -0.000288364 2.74676e-06
3.3729e-06 2.74676e-06 -0.000440263
0.0017231 0.000373046 -4.72737e-07
0.000373046 0.000201495 1.59775e-07
-4.72737e-07 1.59775e-07 -9.09556e-06
0.00181286 0.000361032 -2.18908e-06
0.000361032 0.00018713 1.11919e-06
-2.18908e-06 1.11919e-06 9.09847e-06
0.000993202 0.000277846 -8.95272e-07
0.000277846 0.000118083 3.55106e-07
-8.95272e-07 3.55106e-07 -0.00013613
0.0018311 0.000386336 -2.17724e-06
0.000386336 0.000398304 9.26076e-07
-2.17724e-06 9.26076e-07 0.000147016
0.000687401 1.36055e-05 -9.00339e-07
1.36055e-05 8.33161e-05 2.25426e-07
-9.00339e-07 2.25426e-07 -3.55688e-06
0.000613988 2.2083e-05 7.21158e-07
2.2083e-05 6.25828e-05 1.29198e-06
7.21158e-07 1.29198e-06 -6.31844e-05
0.00137666 0.00027861 -1.07536e-06
0.00027861 0.000405906 -2.68176e-06
-1.07536e-06 -2.68176e-06 0.000194583
0.0005643 3.87863e-05 -1.05792e-06
3.87863e-05 2.7421e-05 -3.63568e-07
-1.05792e-06 -3.63568e-07 -0.000132004
0.000563898 0.000178724 -1.74548e-06
0.000178724 -5.9925e-05 -6.60453e-07
-1.74548e-06 -6.60453e-07 -0.000214402
0.0018812 0.00030571 -2.90774e-06
0.00030571 0.000140604 -1.31484e-06
-2.90774e-06 -1.31484e-06 1.52212e-05
0.00199545 0.000414962 1.8267e-06
0.000414962 0.00035309 -3.18771e-07
1.8267e-06 -3.18771e-07 0.000131808
0.00172416 0.000387412 1.74275e-06
0.000387412 0.000115068 2.52797e-06
1.74275e-06 2.52797e-06 -6.95923e-05
0.00126898 0.000309911 3.63251e-06
0.000309911 0.000244353 4.48029e-06
3.63251e-06 4.48029e-06 -3.01512e-05
0.00147537 0.000391102 -3.16581e-06
0.000391102 0.000183573 4.65258e-07
-3.16581e-06 4.65258e-07 -7.30776e-05
0.000314092 -1.8011e-05 -1.16327e-06
-1.8011e-05 -0.000126168 2.68087e-06
-1.16327e-06 2.68087e-06 -0.000222783
2.34064e-05 7.63402e-05 3.53199e-07
7.63402e-05 -0.000250395 3.62418e-07
3.53199e-07 3.62418e-07 -0.000414561
0.00105564 0.000257507 1.93114e-06
0.000257507 0.000180117 3.13105e-06
1.93114e-06 3.13105e-06 -4.17113e-05
-0.000543678 7.5999e-05 3.66271e-06
7.5999e-05 -0.000666452 -7.34623e-07
3.66271e-06 -7.34623e-07 -0.000833076
0.00199561 0.000316522 -1.25403e-06
0.000316522 3.31371e-05 -9.39012e-08
-1.25403e-06 -9.39012e-08 -2.64154e-05
0.00233851 0.000389167 5.85177e-07
0.000389167 0.000398445 -9.86791e-07
5.85177e-07 -9.86791e-07 0.000252675
0.00180424 0.000443146 -2.61985e-06
0.000443146 0.000251084 -3.95029e-06
-2.61985e-06 -3.95029e-06 8.39109e-06
0.000439156 0.000274326 -1.20843e-06
0.000274326 -0.000303169 1.96985e-06
-1.20843e-06 1.96985e-06 -0.00058313
0.000668796 5.94909e-05 -9.6113e-07
5.94909e-05 7.0239e-05 -7.8044e-07
-9.6113e-07 -7.8044e-07 -1.44428e-05
0.000614797 3.7822e-05 -1.48541e-07
3.7822e-05 4.16542e-05 2.76363e-07
-1.48541e-07 2.76363e-07 -5.07983e-05
0.000918093 3.03822e-05 -2.31484e-06
3.03822e-05 0.000219091 -1.44796e-06
-2.31484e-06 -1.44796e-06 0.000132295
0.000649314 9.25403e-06 -1.48762e-06
9.25403e-06 5.21192e-05 -1.39178e-06
-1.48762e-06 -1.39178e-06 -2.3585e-05
0.000445212 -2.65705e-06 -2.47072e-07
-2.65705e-06 -6.02857e-05 -6.6739e-07
-2.47072e-07 -6.6739e-07 -0.000151093
0.000662821 2.73602e-05 -6.25881e-09
2.73602e-05 6.9985e-05 6.45879e-09
-6.25881e-09 6.45879e-09 -1.14951e-05
0.000672159 7.97169e-05 -6.96913e-07
7.97169e-05 8.97111e-05 -2.32046e-07
-6.96913e-07 -2.32046e-07 -1.42645e-05
0.000599396 2.28349e-05 7.98826e-07
2.28349e-05 4.57755e-05 3.61501e-07
7.98826e-07 3.61501e-07 -5.852e-05
0.000755293 5.26271e-05 8.42413e-07
5.26271e-05 0.000120005 -1.38254e-06
8.42413e-07 -1.38254e-06 3.02534e-05
0.00068278 -1.86852e-05 1.58832e-06
-1.86852e-05 9.38295e-05 -1.69698e-06
1.58832e-06 -1.69698e-06 -1.4721e-05
0.000528361 4.76603e-05 6.59994e-07
4.76603e-05 3.04508e-06 1.24224e-06
6.59994e-07 1.24224e-06 -0.000103691
0.000659833 7.21824e-05 1.29876e-06
7.21824e-05 7.1993e-05 1.96341e-06
1.29876e-06 1.96341e-06 -1.24008e-05
0.000570207 4.50489e-05 1.84294e-06
4.50489e-05 5.31714e-06 2.20996e-06
1.84294e-06 2.20996e-06 -5.02218e-05
0.000585305 -2.26677e-06 -1.12317e-06
-2.26677e-06 9.28322e-06 -1.04681e-08
-1.12317e-06 -1.04681e-08 -4.41889e-05
0.00125395 -1.47796e-05 7.77698e-07
-1.47796e-05 0.000380749 2.39873e-06
7.77698e-07 2.39873e-06 0.000369929
0.000582058 -4.32068e-05 9.38309e-08
-4.32068e-05 3.77776e-06 -2.37613e-06
9.38309e-08 -2.37613e-06 -4.89749e-05
0.00130249 -2.3599e-05 -3.92492e-06
-2.3599e-05 0.000409367 -1.53996e-06
-3.92492e-06 -1.53996e-06 0.000398312
0.000852796 -2.46008e-05 1.65405e-05
-2.46008e-05 0.000145007 8.25683e-06
1.65405e-05 8.25683e-06 0.000151979
0.00134444 -3.35168e-05 -7.11909e-06
-3.35168e-05 0.000435298 -5.54067e-06
-7.11909e-06 -5.54067e-06 0.000423535
0.000804032 -3.32434e-05 5.78655e-06
-3.32434e-05 0.000118121 3.08596e-06
5.78655e-06 3.08596e-06 0.000123898
0.000741943 -4.01353e-05 -1.21089e-06
-4.01353e-05 8.60197e-05 -2.16913e-06
-1.21089e-06 -2.16913e-06 9.00376e-05
0.000527316 3.69921e-05 2.36669e-07
3.69921e-05 -4.44226e-05 -3.3866e-06
2.36669e-07 -3.3866e-06 -5.97177e-05
0.000520907 5.36779e-05 1.87796e-08
5.36779e-05 -3.40255e-05 1.48528e-07
1.87796e-08 1.48528e-07 -5.7348e-05
0.00226575 8.5583e-05 2.01877e-05
8.5583e-05 0.00101351 -3.77808e-06
2.01877e-05 -3.77808e-06 0.00102076
0.000541462 3.53052e-05 -2.65382e-06
3.53052e-05 -1.54176e-05 5.68469e-06
-2.65382e-06 5.68469e-06 -4.43618e-05
0.00256121 0.000105435 -6.43044e-06
0.000105435 0.001198 -4.90465e-07
-6.43044e-06 -4.90465e-07 0.00120007
0.00297005 9.19608e-05 -7.63032e-05
9.19608e-05 0.00144429 4.12983e-06
-7.63032e-05 4.12983e-06 0.0014492
0.0017844 0.000217716 -1.51578e-07
0.000217716 0.000123038 2.07931e-06
-1.51578e-07 2.07931e-06 2.13284e-06
0.00190735 0.000141431 -1.9541e-06
0.000141431 0.000112884 4.96166e-07
-1.9541e-06 4.96166e-07 3.22874e-05
0.00182801 0.000206451 2.01222e-06
0.000206451 5.06306e-05 6.48458e-07
2.01222e-06 6.48458e-07 -2.62657e-05
0.00185383 9.44742e-05 -3.4001e-06
9.44742e-05 4.40696e-05 -4.25635e-07
-3.4001e-06 -4.25635e-07 -4.27747e-06
0.00180425 3.69684e-05 1.11523e-06
3.69684e-05 6.14706e-05 -2.43857e-07
1.11523e-06 -2.43857e-07 -5.44995e-06
0.00173005 9.72266e-07 -2.53706e-07
9.72266e-07 8.03385e-05 9.17276e-08
-2.53706e-07 9.17276e-08 -1.46079e-05
0.00179201 -4.09281e-06 -1.22229e-07
-4.09281e-06 6.27789e-05 -7.78106e-08
-1.22229e-07 -7.78106e-08 -3.74376e-09
0.00187241 4.26315e-05 9.28351e-07
4.26315e-05 5.06673e-05 1.7542e-07
9.28351e-07 1.7542e-07 1.44295e-05
0.00189916 0.000150974 5.44593e-07
0.000150974 6.33276e-05 -2.29135e-07
5.44593e-07 -2.29135e-07 6.56141e-06
0.00192645 0.000253704 2.07485e-07
0.000253704 0.000108295 9.92088e-08
2.07485e-07 9.92088e-08 1.64783e-05
0.00179349 -9.20148e-06 2.55694e-06
-9.20148e-06 9.34256e-06 -2.24354e-07
2.55694e-06 -2.24354e-07 -2.63512e-05
0.00193818 8.84888e-05 2.86302e-06
8.84888e-05 2.5501e-05 -2.12913e-07
2.86302e-06 -2.12913e-07 8.63378e-06
0.00199916 0.000222883 3.30404e-06
0.000222883 6.61998e-05 8.55815e-07
3.30404e-06 8.55815e-07 7.96364e-06
0.0019027 -6.13139e-05 -1.67064e-07
-6.13139e-05 0.000122848 1.91744e-07
-1.67064e-07 1.91744e-07 5.66941e-05
0.0017452 -0.000116193 -4.25509e-07
-0.000116193 1.50579e-05 -7.44177e-07
-4.25509e-07 -7.44177e-07 -6.30355e-05
0.00184648 -0.000216788 -2.30552e-06
-0.000216788 9.3297e-05 1.0139e-06
-2.30552e-06 1.0139e-06 1.27818e-05
0.00116982 -0.000255875 -5.95782e-07
-0.000255875 0.000258571 4.78377e-06
-5.95782e-07 4.78377e-06 3.92733e-05
0.000801009 -0.000283699 1.6541e-06
-0.000283699 -9.75991e-05 8.86324e-07
1.6541e-06 8.86324e-07 -0.000352553
0.00160762 -0.000452919 1.60425e-06
-0.000452919 0.000218283 -1.70317e-06
1.60425e-06 -1.70317e-06 -7.28721e-05
0.00169873 -0.00026691 2.32795e-08
-0.00026691 4.74927e-05 2.13559e-07
2.32795e-08 2.13559e-07 -5.94186e-05
0.00156291 -0.000334294 7.37148e-07
-0.000334294 -1.72482e-05 -2.45408e-06
7.37148e-07 -2.45408e-06 -0.000149253
0.00183619 -0.000379895 -2.3712e-06
-0.000379895 0.000231244 -7.70775e-06
-2.3712e-06 -7.70775e-06 3.05463e-05
0.00132574 -0.000263901 3.90322e-06
-0.000263901 0.000356415 4.60389e-06
3.90322e-06 4.60389e-06 0.000157648
0.000695115 -0.000205518 -7.52367e-06
-0.000205518 2.72141e-05 5.44281e-07
-7.52367e-06 5.44281e-07 -0.000136165
0.00162377 -0.000223463 1.16793e-06
-0.000223463 0.000665007 -1.22295e-06
1.16793e-06 -1.22295e-06 0.00043739
0.000356694 2.62234e-05 6.0091e-07
2.62234e-05 -0.000122891 7.65562e-07
6.0091e-07 7.65562e-07 -0.000186331
0.000940092 -8.69368e-05 1.86168e-06
-8.69368e-05 0.000250149 -1.14154e-06
1.86168e-06 -1.14154e-06 9.60737e-05
0.000448603 3.41179e-05 2.61844e-06
3.41179e-05 -4.0464e-05 1.63251e-06
2.61844e-06 1.63251e-06 -0.000160434
0.00178938 -6.40608e-05 -4.53972e-07
-6.40608e-05 1.03254e-05 1.99651e-07
-4.53972e-07 1.99651e-07 -3.95494e-05
0.00195711 -0.000162525 6.60511e-08
-0.000162525 6.65683e-05 -2.61107e-07
6.60511e-08 -2.61107e-07 2.09178e-05
0.00179663 -0.000260813 -2.0967e-07
-0.000260813 3.83797e-05 4.70066e-07
-2.0967e-07 4.70066e-07 -3.36799e-05
0.0013073 -0.000291979 -2.46669e-06
-0.000291979 0.000290533 4.31537e-07
-2.46669e-06 4.31537e-07 5.55497e-05
0.00118923 -0.000386299 1.15987e-07
-0.000386299 9.54496e-05 -9.81713e-07
1.15987e-07 -9.81713e-07 -0.000213434
0.00182078 -0.000473591 -3.68978e-06
-0.000473591 0.000337505 3.21556e-07
-3.68978e-06 3.21556e-07 4.48372e-05
0.0019661 -0.000334544 7.73412e-07
-0.000334544 0.000121836 -3.92194e-07
7.73412e-07 -3.92194e-07 1.74661e-05
0.00170901 -0.000389999 1.23579e-06
-0.000389999 7.39542e-05 -2.94787e-06
1.23579e-06 -2.94787e-06 -9.7231e-05
0.000450277 4.55667e-05 -3.47406e-07
4.55667e-05 -7.32423e-05 -9.81263e-07
-3.47406e-07 -9.81263e-07 -0.000123787
0.000727809 -9.73987e-06 -6.19187e-07
-9.73987e-06 0.000127527 2.93422e-07
-6.19187e-07 2.93422e-07 2.30283e-05
0.000230398 -0.000185233 -3.16131e-06
-0.000185233 -0.000291385 5.518e-06
-3.16131e-06 5.518e-06 -0.00048116
0.00139126 -0.000253359 5.87587e-07
-0.000253359 0.000470513 -5.96919e-07
5.87587e-07 -5.96919e-07 0.000254312
0.00100715 -7.68938e-05 -3.19567e-08
-7.68938e-05 0.000299246 -1.28255e-06
-3.19567e-08 -1.28255e-06 0.000103671
0.000867811 -8.24544e-05 -6.21794e-07
-8.24544e-05 0.000220051 1.38629e-06
-6.21794e-07 1.38629e-06 7.38302e-05
0.00190406 -8.0954e-05 1.89653e-06
-8.0954e-05 2.08864e-05 5.36773e-07
1.89653e-06 5.36773e-07 -1.45668e-06
0.0019981 -0.000234029 7.27638e-07
-0.000234029 4.05602e-05 -2.4685e-07
7.27638e-07 -2.4685e-07 2.45422e-05
0.00194083 -0.000282463 9.391e-07
-0.000282463 8.14273e-05 -1.93864e-06
9.391e-07 -1.93864e-06 1.86846e-05
0.00187995 -0.000435283 4.54704e-06
-0.000435283 4.32035e-05 -2.66214e-06
4.54704e-06 -2.66214e-06 -8.36846e-05
0.000557977 -0.000265473 -7.03964e-06
-0.000265473 -0.000178681 -7.13123e-06
-7.03964e-06 -7.13123e-06 -0.000447168
0.00183859 -0.000477223 -2.45198e-06
-0.000477223 0.000309204 1.18323e-05
-2.45198e-06 1.18323e-05 3.25352e-05
0.00191533 -0.000496521 -4.88017e-06
-0.000496521 0.000478619 -2.55524e-07
-4.88017e-06 -2.55524e-07 0.000130903
0.000612825 4.6287e-05 1.48483e-07
4.6287e-05 1.5202e-05 -1.24459e-06
1.48483e-07 -1.24459e-06 -2.76929e-05
0.000684258 -0.000107315 2.82586e-06
-0.000107315 9.63453e-05 -1.5181e-06
2.82586e-06 -1.5181e-06 1.41908e-05
0.000454649 4.89074e-05 -2.24141e-06
4.89074e-05 -4.32966e-05 -1.29418e-06
-2.24141e-06 -1.29418e-06 -0.000130641
0.000659502 -4.7424e-05 -9.7437e-07
-4.7424e-05 0.000105466 2.54212e-06
-9.7437e-07 2.54212e-06 -2.83128e-05
0.000579115 -3.35174e-05 1.21292e-06
-3.35174e-05 2.76526e-05 1.26821e-08
1.21292e-06 1.26821e-08 -0.000123562
-6.38828e-06 -8.44887e-05 -6.27615e-07
-8.44887e-05 -0.000300572 2.27167e-06
-6.27615e-07 2.27167e-06 -0.000488638
-4.50311e-05 -0.000183795 -4.5935e-06
-0.000183795 -0.000461977 -5.90429e-06
-4.5935e-06 -5.90429e-06 -0.000645202
0.0026654 -0.000369441 -1.22678e-05
-0.000369441 0.00129009 3.31155e-06
-1.22678e-05 3.31155e-06 0.000977161
0.00062772 -5.68611e-06 -1.0965e-06
-5.68611e-06 4.22555e-05 -8.87847e-07
-1.0965e-06 -8.87847e-07 -3.88558e-05
0.000887939 3.39882e-05 6.21892e-07
3.39882e-05 0.000228429 -1.40355e-06
6.21892e-07 -1.40355e-06 9.77391e-05
0.00209759 0.000315638 -1.35469e-06
0.000315638 0.000264419 -5.37631e-07
-1.35469e-06 -5.37631e-07 0.000141326
0.000826815 7.66122e-05 -1.13981e-06
7.66122e-05 0.000194101 3.21804e-06
-1.13981e-06 3.21804e-06 2.30717e-05
0.00161132 0.00030175 1.95819e-06
0.00030175 0.000556775 -9.21696e-07
1.95819e-06 -9.21696e-07 0.000335832
0.000407361 0.000146378 -4.12375e-07
0.000146378 -0.000160036 1.84645e-06
-4.12375e-07 1.84645e-06 -0.000295766
0.00205015 0.000412853 -3.09446e-06
0.000412853 0.000391943 6.9752e-08
-3.09446e-06 6.9752e-08 0.000173628
0.00184994 0.000403325 -1.37821e-06
0.000403325 0.000177778 5.54273e-06
-1.37821e-06 5.54273e-06 -9.81635e-06
0.00110251 0.000300019 -3.63332e-07
0.000300019 0.000158993 -5.27175e-07
-3.63332e-07 -5.27175e-07 -0.000120515
0.00148223 0.000399902 6.71562e-08
0.000399902 0.000179182 1.58952e-06
6.71562e-08 1.58952e-06 -8.25803e-05
0.000371328 1.14271e-05 -1.9044e-07
1.14271e-05 -8.47753e-05 1.17726e-06
-1.9044e-07 1.17726e-06 -0.000188495
0.000359728 0.000103975 -6.29004e-07
0.000103975 -4.78346e-05 -2.21447e-06
-6.29004e-07 -2.21447e-06 -0.000218354
0.00128073 0.000281826 3.43317e-06
0.000281826 0.000322003 -1.81162e-06
3.43317e-06 -1.81162e-06 9.20755e-05
0.000659701 0.000169316 -1.92644e-06
0.000169316 3.82561e-05 -3.10305e-06
-1.92644e-06 -3.10305e-06 -0.000138851
0.0020434 0.000308178 1.06431e-06
0.000308178 5.77769e-05 -8.37357e-07
1.06431e-06 -8.37357e-07 -1.09001e-06
0.00210065 0.000382294 3.01413e-06
0.000382294 0.000269208 6.86429e-07
3.01413e-06 6.86429e-07 0.000119344
0.00181682 0.000438017 -8.23772e-07
0.000438017 0.000250269 3.72592e-07
-8.23772e-07 3.72592e-07 1.02679e-05
0.0011818 0.000345824 1.48553e-07
0.000345824 0.000102655 4.0358e-07
1.48553e-07 4.0358e-07 -0.000181909
0.000410451 3.62024e-05 -1.33848e-06
3.62024e-05 -6.85793e-05 2.70374e-06
-1.33848e-06 2.70374e-06 -0.00017226
0.00196642 0.000249841 9.2505e-08
0.000249841 -3.03113e-05 2.3084e-06
9.2505e-08 2.3084e-06 -4.15305e-05
0.0015609 0.000272201 1.12039e-06
0.000272201 0.000651398 2.98886e-06
1.12039e-06 2.98886e-06 0.000432547
0.00120467 0.000287423 4.71643e-06
0.000287423 0.000240472 3.81102e-06
4.71643e-06 3.81102e-06 6.51563e-06
0.00250494 0.000380939 -1.73628e-05
0.000380939 0.000391016 -5.04617e-06
-1.73628e-05 -5.04617e-06 0.000287786
0.00104069 0.000407583 -4.42248e-06
0.000407583 -0.000280893 -7.62569e-06
-4.42248e-06 -7.62569e-06 -0.000502703
0.00205833 0.000456598 -1.09634e-06
0.000456598 0.000527266 2.95309e-06
-1.09634e-06 2.95309e-06 0.000226474
0.000684945 5.29869e-05 -1.26635e-06
5.29869e-05 8.30836e-05 -5.87865e-07
-1.26635e-06 -5.87865e-07 -8.92594e-06
0.000706426 4.58961e-05 -1.43984e-06
4.58961e-05 0.000101056 -5.25387e-07
-1.43984e-06 -5.25387e-07 1.09468e-05
0.000922277 3.38471e-05 -1.83437e-06
3.38471e-05 0.000234443 3.12094e-07
-1.83437e-06 3.12094e-07 0.000151392
0.000619272 -5.38445e-06 4.45219e-08
-5.38445e-06 4.67587e-05 -2.02968e-06
4.45219e-08 -2.02968e-06 -3.64495e-05
0.000664875 4.79634e-05 8.72018e-07
4.79634e-05 8.61005e-05 8.87925e-08
8.72018e-07 8.87925e-08 -1.91116e-05
0.000372464 1.86851e-05 -9.6947e-07
1.86851e-05 -7.47232e-05 1.3559e-06
-9.6947e-07 1.3559e-06 -0.000179809
0.000628503 3.72031e-06 -6.47001e-07
3.72031e-06 6.02757e-05 -5.86741e-09
-6.47001e-07 -5.86741e-09 -2.85138e-05
0.000479691 -2.09203e-05 -6.42374e-07
-2.09203e-05 -1.73598e-05 3.59421e-07
-6.42374e-07 3.59421e-07 -0.000127872
0.000539661 4.99287e-06 3.8901e-07
4.99287e-06 -1.62517e-06 2.18208e-07
3.8901e-07 2.18208e-07 -8.78637e-05
0.000767486 4.20391e-05 5.38848e-07
4.20391e-05 0.000154815 -2.61232e-07
5.38848e-07 -2.61232e-07 3.72222e-05
0.00113854 4.65539e-05 3.13451e-07
4.65539e-05 0.000334843 -1.08625e-06
3.13451e-07 -1.08625e-06 0.000257944
0.000681043 -2.08382e-05 2.12303e-06
-2.08382e-05 8.34662e-05 -2.39001e-06
2.12303e-06 -2.39001e-06 -1.15115e-05
0.000737432 3.93874e-05 1.66433e-08
3.93874e-05 0.000137462 -1.51472e-08
1.66433e-08 -1.51472e-08 1.31696e-05
0.000632449 3.59521e-05 2.10866e-06
3.59521e-05 7.54512e-05 1.55946e-06
2.10866e-06 1.55946e-06 -4.46059e-05
0.000655953 2.17832e-05 1.56724e-06
2.17832e-05 6.99214e-05 1.97967e-06
1.56724e-06 1.97967e-06 -1.73699e-05
0.00057558 -2.92456e-05 -1.79828e-07
-2.92456e-05 7.70477e-06 2.03117e-06
-1.79828e-07 2.03117e-06 -4.72595e-05
0.0005887 -7.16208e-06 -3.3815e-07
-7.16208e-06 1.34497e-05 1.1319e-08
-3.3815e-07 1.1319e-08 -4.01849e-05
0.00127626 -4.25548e-06 7.85813e-07
-4.25548e-06 0.000395645 2.28674e-06
7.85813e-07 2.28674e-06 0.000384267
0.000596479 -2.60586e-05 7.0826e-07
-2.60586e-05 1.40277e-05 -2.4865e-06
7.0826e-07 -2.4865e-06 -3.81078e-05
0.00130771 -1.20597e-05 -2.99285e-06
-1.20597e-05 0.000413393 -1.58419e-06
-2.99285e-06 -1.58419e-06 0.000402438
0.000845102 -1.6654e-05 1.2363e-05
-1.6654e-05 0.000138873 8.3563e-06
1.2363e-05 8.3563e-06 0.000146393
0.00135677 -2.17042e-05 -5.09811e-06
-2.17042e-05 0.000442027 -5.66517e-06
-5.09811e-06 -5.66517e-06 0.000430822
0.000815868 -2.52063e-05 3.84096e-06
-2.52063e-05 0.000121597 3.1984e-06
3.84096e-06 3.1984e-06 0.000128402
0.000764032 -3.21295e-05 -8.07429e-07
-3.21295e-05 9.28453e-05 -2.1545e-06
-8.07429e-07 -2.1545e-06 9.8817e-05
0.000656589 1.0627e-05 1.16059e-06
1.0627e-05 3.68522e-05 -1.39969e-06
1.16059e-06 -1.39969e-06 -2.53303e-06
0.00053959 2.84456e-05 3.97119e-07
2.84456e-05 -4.43284e-05 -3.44095e-06
3.97119e-07 -3.44095e-06 -5.59445e-05
0.000546541 3.80653e-05 1.52605e-07
3.80653e-05 -3.21951e-05 1.22675e-07
1.52605e-07 1.22675e-07 -4.7932e-05
0.00215432 6.93292e-05 1.81424e-05
6.93292e-05 0.000938164 -3.96974e-06
1.81424e-05 -3.96974e-06 0.000949499
0.00055116 5.79375e-05 2.99246e-06
5.79375e-05 -1.44319e-05 4.91403e-06
2.99246e-06 4.91403e-06 -3.92534e-05
0.00237858 8.95433e-05 -4.2881e-06
8.95433e-05 0.00108163 -3.33837e-07
-4.2881e-06 -3.33837e-07 0.00108789
0.00267997 0.000108172 -3.13832e-05
0.000108172 0.00126882 3.72704e-06
-3.13832e-05 3.72704e-06 0.0012703
0.00194673 0.000250585 -6.6532e-07
0.000250585 0.000106519 1.05874e-06
-6.6532e-07 1.05874e-06 1.70084e-05
0.00191305 0.000156401 -3.12104e-06
0.000156401 7.07309e-05 -4.62506e-07
-3.12104e-06 -4.62506e-07 1.36962e-05
0.00187857 4.43528e-05 -3.43256e-06
4.43528e-05 6.36507e-05 -6.03017e-08
-3.43256e-06 -6.03017e-08 2.55999e-05
0.00177498 -1.24039e-06 -6.24762e-07
-1.24039e-06 5.17282e-05 -6.19981e-08
-6.24762e-07 -6.19981e-08 -1.09604e-05
0.00182392 -5.81861e-06 -9.62177e-07
-5.81861e-06 2.55271e-05 -7.96908e-08
-9.62177e-07 -7.96908e-08 -7.12772e-06
0.00192359 8.39288e-05 1.4547e-07
8.39288e-05 2.09089e-05 -3.69345e-08
1.4547e-07 -3.69345e-08 2.49102e-06
0.00196259 0.000226011 -5.03452e-07
0.000226011 4.35002e-05 -6.29928e-08
-5.03452e-07 -6.29928e-08 -1.29307e-05
0.00192767 -1.03163e-06 1.58121e-06
-1.03163e-06 1.53592e-05 -3.00661e-07
1.58121e-06 -3.00661e-07 9.39463e-06
0.00203113 0.000128281 2.37129e-06
0.000128281 1.72132e-05 -8.66396e-07
2.37129e-06 -8.66396e-07 4.32687e-06
0.00223486 7.83353e-05 -3.793e-06
7.83353e-05 0.000186277 3.93249e-06
-3.793e-06 3.93249e-06 0.000221663
0.00184443 -6.44534e-05 -3.88817e-06
-6.44534e-05 4.40548e-05 2.87166e-08
-3.88817e-06 2.87166e-08 -8.45102e-06
0.00189512 -0.000169039 -3.71544e-06
-0.000169039 2.73548e-05 7.43744e-07
-3.71544e-06 7.43744e-07 -2.06605e-05
0.00190309 -0.00026262 -2.80486e-06
-0.00026262 0.000105695 1.9426e-06
-2.80486e-06 1.9426e-06 3.09355e-05
0.000835184 -0.000246201 1.45494e-06
-0.000246201 1.4635e-05 5.71982e-06
1.45494e-06 5.71982e-06 -0.000213557
0.0013086 -0.000393208 2.5704e-06
-0.000393208 0.000168397 -4.52408e-08
2.5704e-06 -4.52408e-08 -0.000138474
0.00193015 -0.000473486 -2.54229e-06
-0.000473486 0.000403629 -1.65146e-06
-2.54229e-06 -1.65146e-06 0.00011944
0.00188941 -0.000334562 2.29717e-06
-0.000334562 8.21559e-05 1.02434e-06
2.29717e-06 1.02434e-06 -2.44904e-05
0.00152521 -0.000376542 -3.3511e-06
-0.000376542 -3.34176e-05 -5.96218e-06
-3.3511e-06 -5.96218e-06 -0.00020283
9.74393e-05 -0.000169875 1.06167e-07
-0.000169875 -0.000364887 1.12432e-05
1.06167e-07 1.12432e-05 -0.000546058
0.00196897 -0.000292363 1.42215e-05
-0.000292363 0.000826564 -4.15893e-06
1.42215e-05 -4.15893e-06 0.000605173
0.00074839 -3.03081e-05 4.1e-07
-3.03081e-05 0.00013337 -1.51859e-06
4.1e-07 -1.51859e-06 -4.5383e-05
0.000551574 1.52705e-05 1.08273e-08
1.52705e-05 -1.44768e-05 6.10555e-07
1.08273e-08 6.10555e-07 -6.1656e-05
0.000799407 2.44661e-05 1.46449e-06
2.44661e-05 0.000166065 9.2641e-07
1.46449e-06 9.2641e-07 6.25003e-05
0.000878401 -5.42001e-05 6.45159e-07
-5.42001e-05 0.00022805 1.40609e-06
6.45159e-07 1.40609e-06 7.9571e-05
0.00192461 -8.36899e-05 2.35602e-07
-8.36899e-05 2.60129e-05 -1.25417e-07
2.35602e-07 -1.25417e-07 6.6327e-06
0.00059225 1.80956e-05 9.92953e-07
1.80956e-05 2.18461e-06 1.17082e-07
9.92953e-07 1.17082e-07 -3.99017e-05
0.000535616 -3.83715e-05 -1.74494e-06
-3.83715e-05 -9.54611e-06 -4.07784e-08
-1.74494e-06 -4.07784e-08 -8.02826e-05
0.00196903 -0.000224062 -1.79849e-07
-0.000224062 3.97873e-05 2.30724e-07
-1.79849e-07 2.30724e-07 1.97702e-05
0.00189638 -0.000281509 -1.40202e-06
-0.000281509 5.16836e-05 1.87991e-07
-1.40202e-06 1.87991e-07 -9.85939e-06
0.000721946 -0.000277427 -6.31897e-07
-0.000277427 -7.29326e-05 1.63741e-06
-6.31897e-07 1.63741e-06 -0.000337777
0.00187975 -0.000493053 1.78996e-07
-0.000493053 0.000467047 4.02024e-07
1.78996e-07 4.02024e-07 0.000115136
0.00157417 -0.000459111 3.16374e-06
-0.000459111 0.000138861 -1.43706e-06
3.16374e-06 -1.43706e-06 -0.000130091
0.0020564 -0.000442673 2.409e-06
-0.000442673 0.000154392 -9.87082e-07
2.409e-06 -9.87082e-07 2.52881e-05
0.000709344 -9.8652e-06 8.32545e-07
-9.8652e-06 0.000114159 -1.12083e-06
8.32545e-07 -1.12083e-06 2.59067e-05
0.000726495 -3.05372e-05 1.96988e-07
-3.05372e-05 0.00014541 1.28752e-06
1.96988e-07 1.28752e-06 9.15701e-06
0.000951496 -0.000249332 -3.83057e-06
-0.000249332 0.000119154 -1.56524e-06
-3.83057e-06 -1.56524e-06 -7.81892e-05
0.00161131 -0.000276009 1.42332e-05
-0.000276009 0.000663434 -3.33348e-06
1.42332e-05 -3.33348e-06 0.000400749
0.000453423 -8.59822e-05 -2.64121e-06
-8.59822e-05 -3.60397e-05 -2.69057e-07
-2.64121e-06 -2.69057e-07 -0.000221704
0.00067507 -3.00473e-05 6.27354e-07
-3.00473e-05 9.63018e-05 -8.75021e-07
6.27354e-07 -8.75021e-07 -6.09468e-05
0.00193416 -9.57727e-05 1.80201e-06
-9.57727e-05 -3.76597e-05 -1.12692e-06
1.80201e-06 -1.12692e-06 -5.0067e-05
0.00189932 -0.000261799 -5.01747e-07
-0.000261799 -5.95671e-05 1.53883e-07
-5.01747e-07 1.53883e-07 -1.53717e-05
0.0020368 -0.000392486 -3.69091e-06
-0.000392486 5.24722e-05 -2.18954e-06
-3.69091e-06 -2.18954e-06 -2.34371e-05
0.00155116 -0.000498622 1.08017e-06
-0.000498622 -1.3304e-05 -6.70892e-07
1.08017e-06 -6.70892e-07 -0.000176143
0.000959439 -0.000272159 -1.1174e-05
-0.000272159 9.06967e-05 -7.97389e-06
-1.1174e-05 -7.97389e-06 -0.000176476
0.00251109 -0.000587488 -9.32853e-06
-0.000587488 0.000798923 7.67433e-06
-9.32853e-06 7.67433e-06 0.000423248
0.000389789 5.23812e-05 -1.11628e-06
5.23812e-05 -8.72612e-05 -2.09822e-06
-1.11628e-06 -2.09822e-06 -0.000163127
0.000652525 -5.71117e-05 3.15364e-06
-5.71117e-05 6.13659e-05 -7.50752e-07
3.15364e-06 -7.50752e-07 -1.06318e-05
0.000933135 -8.95743e-05 1.41919e-06
-8.95743e-05 0.000239077 1.81889e-06
1.41919e-06 1.81889e-06 0.0001414
0.000447041 1.81158e-05 -1.68586e-06
1.81158e-05 -2.76448e-05 2.14737e-06
-1.68586e-06 2.14737e-06 -0.00015184
0.000939178 -7.06739e-05 -1.75599e-06
-7.06739e-05 0.000253929 2.70412e-06
-1.75599e-06 2.70412e-06 0.000117946
0.00102829 -5.03433e-05 1.93746e-06
-5.03433e-05 0.000259569 5.30624e-07
1.93746e-06 5.30624e-07 8.99047e-05
-0.00051436 -0.000102687 5.53625e-06
-0.000102687 -0.000436031 1.01354e-06
5.53625e-06 1.01354e-06 -0.000780663
-4.23933e-05 -0.000244493 -2.14629e-05
-0.000244493 -0.000447337 3.09123e-06
-2.14629e-05 3.09123e-06 -0.000642623
0.000414426 4.95921e-05 1.63339e-08
4.95921e-05 -5.38763e-05 -8.43163e-07
1.63339e-08 -8.43163e-07 -0.0001635
0.000883977 0.000144382 -4.52082e-06
0.000144382 0.000260769 -2.74892e-06
-4.52082e-06 -2.74892e-06 8.51694e-05
0.00208168 0.000300371 -3.72507e-06
0.000300371 7.90807e-05 -1.53852e-06
-3.72507e-06 -1.53852e-06 2.01637e-05
0.00192105 0.000378649 -1.92269e-07
0.000378649 0.000172077 1.69242e-06
-1.92269e-07 1.69242e-06 1.77341e-05
0.00179955 0.000233899 -7.23275e-06
0.000233899 0.00069242 -1.59067e-06
-7.23275e-06 -1.59067e-06 0.0005142
0.00145185 0.000299808 -3.69087e-06
0.000299808 0.000430622 -8.36489e-06
-3.69087e-06 -8.36489e-06 0.000195329
0.00183565 0.000433844 1.39856e-06
0.000433844 0.000252349 1.96471e-06
1.39856e-06 1.96471e-06 1.43509e-05
0.00188142 0.000411272 -3.45096e-07
0.000411272 0.000488421 -1.3311e-06
-3.45096e-07 -1.3311e-06 0.000198912
0.000562525 6.54274e-05 7.53477e-07
6.54274e-05 3.3512e-05 -9.62723e-07
7.53477e-07 -9.62723e-07 -8.16563e-05
0.00203877 0.000237305 -9.08587e-07
0.000237305 3.41071e-06 -7.08999e-07
-9.08587e-07 -7.08999e-07 -1.05331e-06
0.0010313 0.000197147 1.0314e-06
0.000197147 0.000329485 1.57215e-06
1.0314e-06 1.57215e-06 0.000128546
0.0010765 0.000277137 1.24738e-06
0.000277137 0.00017254 -3.17482e-07
1.24738e-06 -3.17482e-07 -6.41837e-05
0.00228696 0.000372491 2.92608e-06
0.000372491 0.000272681 6.43166e-07
2.92608e-06 6.43166e-07 0.000171951
0.00161491 0.000445908 -1.23041e-06
0.000445908 3.78865e-05 -3.82598e-06
-1.23041e-06 -3.82598e-06 -0.000184781
0.00196021 0.000447124 -1.20916e-07
0.000447124 0.000483891 2.87615e-07
-1.20916e-07 2.87615e-07 0.000183078
0.00115675 0.000150417 -3.97795e-06
0.000150417 0.000407757 3.07713e-06
-3.97795e-06 3.07713e-06 0.000250178
0.00243984 0.000272413 -4.54908e-05
0.000272413 0.000290611 -1.18953e-05
-4.54908e-05 -1.18953e-05 0.000309553
0.00222323 0.000383252 -6.0246e-06
0.000383252 0.000953552 2.88854e-07
-6.0246e-06 2.88854e-07 0.000721134
0.00213726 0.00041704 -7.7991e-06
0.00041704 0.000694634 -2.7041e-07
-7.7991e-06 -2.7041e-07 0.000422012
0.00183943 0.000483414 -2.24395e-05
0.000483414 5.99129e-05 -1.25727e-05
-2.24395e-05 -1.25727e-05 -9.22344e-05
0.000853502 0.000379803 -1.66751e-05
0.000379803 -0.000190098 -1.33167e-06
-1.66751e-05 -1.33167e-06 -0.000464784
0.000752973 0.000355991 3.14025e-05
0.000355991 -0.000593571 -2.11918e-05
3.14025e-05 -2.11918e-05 -0.000830931
0.000477324 6.03379e-05 1.02348e-06
6.03379e-05 -2.34335e-05 -5.31175e-07
1.02348e-06 -5.31175e-07 -0.000117874
0.000642305 4.07442e-05 -1.59581e-07
4.07442e-05 8.41265e-05 9.36914e-07
-1.59581e-07 9.36914e-07 -2.59225e-06
0.00141348 7.332e-05 3.13826e-07
7.332e-05 0.000522011 -6.39839e-08
3.13826e-07 -6.39839e-08 0.000432699
0.000593485 -6.0548e-05 2.13804e-07
-6.0548e-05 4.64177e-05 -2.51133e-06
2.13804e-07 -2.51133e-06 -4.62942e-05
0.000533809 -4.00966e-05 -1.11931e-06
-4.00966e-05 9.71863e-06 2.39344e-08
-1.11931e-06 2.39344e-08 -9.69084e-05
0.000921885 0.000129388 -1.26424e-07
0.000129388 0.000245765 8.76034e-07
-1.26424e-07 8.76034e-07 0.000125065
0.000376224 -8.82666e-06 -1.51536e-06
-8.82666e-06 -8.91869e-05 3.79334e-06
-1.51536e-06 3.79334e-06 -0.000176706
0.000625582 -2.29338e-05 -1.2927e-07
-2.29338e-05 6.39534e-05 -4.03839e-08
-1.2927e-07 -4.03839e-08 -3.0695e-05
0.000624591 4.27769e-05 -8.87289e-08
4.27769e-05 5.63222e-05 -4.37509e-07
-8.87289e-08 -4.37509e-07 -5.34637e-05
0.000909996 3.93771e-05 -1.30415e-06
3.93771e-05 0.000200916 3.88399e-07
-1.30415e-06 3.88399e-07 0.000123342
0.000738368 2.39954e-05 5.1161e-07
2.39954e-05 0.000125136 -2.80482e-08
5.1161e-07 -2.80482e-08 1.01503e-05
0.000750591 3.69395e-06 -1.76161e-07
3.69395e-06 0.000120748 -3.84724e-07
-1.76161e-07 -3.84724e-07 2.35518e-05
0.000949459 3.86772e-05 -4.39594e-07
3.86772e-05 0.000226331 -3.30584e-06
-4.39594e-07 -3.30584e-06 0.000144981
0.000799763 4.32984e-05 -1.76736e-06
4.32984e-05 0.000148627 -2.63033e-06
-1.76736e-06 -2.63033e-06 3.20531e-05
0.000809865 7.65817e-05 5.95183e-07
7.65817e-05 0.000160106 1.63919e-07
5.95183e-07 1.63919e-07 4.68271e-05
0.000682594 4.30185e-05 3.92042e-07
4.30185e-05 0.000105067 1.20455e-06
3.92042e-07 1.20455e-06 -2.17978e-05
0.00047251 -2.17919e-05 -2.13721e-07
-2.17919e-05 -4.21685e-05 2.15855e-06
-2.13721e-07 2.15855e-06 -0.000132562
0.000885666 -2.90068e-05 1.76412e-07
-2.90068e-05 0.000244891 -9.41503e-07
1.76412e-07 -9.41503e-07 0.000117396
0.000404325 -1.51007e-05 -8.8222e-07
-1.51007e-05 -7.90242e-05 2.30429e-06
-8.8222e-07 2.30429e-06 -0.000173235
0.000547066 5.72212e-06 -1.27248e-06
5.72212e-06 -6.25525e-06 2.06676e-06
-1.27248e-06 2.06676e-06 -6.34063e-05
0.000563965 2.20978e-05 1.34632e-06
2.20978e-05 2.80443e-06 -1.31161e-08
1.34632e-06 -1.31161e-08 -5.34423e-05
0.000532212 5.02474e-06 4.37927e-07
5.02474e-06 -4.69778e-05 3.76415e-06
4.37927e-07 3.76415e-06 -6.31671e-05
0.000571548 -3.70422e-07 -1.75306e-06
-3.70422e-07 5.27591e-06 -2.30702e-06
-1.75306e-06 -2.30702e-06 -4.98951e-05
0.000934085 -9.22851e-07 -2.01173e-06
-9.22851e-07 0.000192057 -1.65519e-06
-2.01173e-06 -1.65519e-06 0.000178368
0.00238412 -1.32754e-05 8.1852e-06
-1.32754e-05 0.00105793 5.2183e-06
8.1852e-06 5.2183e-06 0.00107335
0.00136183 -1.03108e-05 -3.17999e-06
-1.03108e-05 0.000446261 -5.5638e-06
-3.17999e-06 -5.5638e-06 0.000435028
0.000812163 -1.67119e-05 2.1124e-06
-1.67119e-05 0.000117503 3.24241e-06
2.1124e-06 3.24241e-06 0.0001251
0.00077844 -2.36466e-05 -2.45547e-07
-2.36466e-05 9.7649e-05 -2.18359e-06
-2.45547e-07 -2.18359e-06 0.000104738
0.000602555 9.2731e-06 -5.8456e-07
9.2731e-06 7.77174e-06 -1.40441e-06
-5.8456e-07 -1.40441e-06 -3.11349e-05
0.000619638 -4.12542e-06 1.05116e-06
-4.12542e-06 1.63605e-05 -1.18479e-07
1.05116e-06 -1.18479e-07 -2.40154e-05
0.000569114 2.16798e-05 3.419e-07
2.16798e-05 -3.0101e-05 -3.35462e-06
3.419e-07 -3.35462e-06 -3.94967e-05
0.000875987 3.47015e-05 -3.67221e-07
3.47015e-05 0.000157889 4.69225e-08
-3.67221e-07 4.69225e-08 0.000147702
0.00211642 5.54059e-05 1.42423e-05
5.54059e-05 0.000908764 -4.18429e-06
1.42423e-05 -4.18429e-06 0.000922848
0.000557529 4.10183e-05 8.11549e-07
4.10183e-05 -2.41399e-05 3.79359e-06
8.11549e-07 3.79359e-06 -4.06404e-05
0.0022099 7.24175e-05 -2.88865e-06
7.24175e-05 0.00097256 -1.91431e-07
-2.88865e-06 -1.91431e-07 0.000983084
0.00243244 9.20547e-05 -2.0749e-05
9.20547e-05 0.00111423 3.99673e-06
-2.0749e-05 3.99673e-06 0.00111984
0.00192355 0.000229144 -4.42783e-06
0.000229144 1.81122e-05 -1.70881e-06
-4.42783e-06 -1.70881e-06 -3.60989e-05
0.00190669 7.98751e-05 -1.92954e-06
7.98751e-05 1.47539e-05 5.3851e-07
-1.92954e-06 5.3851e-07 -5.08017e-06
0.00185648 -4.28961e-06 -4.0483e-06
-4.28961e-06 4.30253e-05 6.12011e-08
-4.0483e-06 6.12011e-08 1.34007e-05
0.00192276 -5.08083e-07 1.34943e-07
-5.08083e-07 1.51047e-05 -1.66976e-07
1.34943e-07 -1.66976e-07 9.00605e-06
0.00201157 0.00012857 1.34927e-07
0.00012857 2.06484e-05 1.72166e-07
1.34927e-07 1.72166e-07 6.61443e-06
0.00192462 6.58714e-05 5.00782e-06
6.58714e-05 -6.20845e-06 -4.91481e-07
5.00782e-06 -4.91481e-07 2.31545e-05
0.0020043 5.3372e-06 -1.64629e-06
5.3372e-06 -1.6808e-05 -1.46778e-06
-1.64629e-06 -1.46778e-06 -1.17808e-06
0.00294547 0.000335815 3.4656e-05
0.000335815 -0.000355564 5.88158e-06
3.4656e-05 5.88158e-06 -0.000142428
0.00224855 4.16077e-05 -2.92413e-05
4.16077e-05 0.000338246 1.31476e-05
-2.92413e-05 1.31476e-05 0.000414743
0.00059046 8.24826e-05 -8.76735e-07
8.24826e-05 3.54613e-05 -3.38469e-07
-8.76735e-07 -3.38469e-07 -3.77301e-05
0.0019405 -8.57774e-05 -1.76399e-06
-8.57774e-05 2.93601e-05 -2.70303e-07
-1.76399e-06 -2.70303e-07 1.28767e-05
0.00193209 -0.000214374 -6.65124e-07
-0.000214374 3.55293e-05 3.61758e-07
-6.65124e-07 3.61758e-07 9.80086e-06
0.00185512 -0.000282516 -2.11931e-07
-0.000282516 2.45872e-05 2.19047e-06
-2.11931e-07 2.19047e-06 -3.72044e-05
0.00064883 -0.000267505 7.27887e-07
-0.000267505 -0.00011175 8.43559e-06
7.27887e-07 8.43559e-06 -0.000368359
0.00185454 -0.000489797 4.74664e-06
-0.000489797 0.000460656 4.13867e-06
4.74664e-06 4.13867e-06 0.000105831
0.0014415 -0.000454307 1.51257e-06
-0.000454307 3.98783e-05 -7.96417e-06
1.51257e-06 -7.96417e-06 -0.000224868
0.00222401 -0.00045171 -2.93999e-06
-0.00045171 0.000260471 -1.12601e-06
-2.93999e-06 -1.12601e-06 0.00012753
0.00181725 -0.00030784 1.67751e-05
-0.00030784 0.000612615 -5.27361e-07
1.67751e-05 -5.27361e-07 0.000403203
0.000410146 -0.000171264 1.19566e-05
-0.000171264 -4.49702e-05 -5.78206e-06
1.19566e-05 -5.78206e-06 -0.000258724
0.00105366 -0.000116634 1.35546e-06
-0.000116634 0.00031314 -2.82288e-06
1.35546e-06 -2.82288e-06 0.000127573
0.000592596 4.78379e-06 -6.83254e-07
4.78379e-06 1.40529e-06 1.4709e-06
-6.83254e-07 1.4709e-06 -3.96308e-05
0.000852439 -2.00844e-05 1.68566e-06
-2.00844e-05 0.000211825 -1.36475e-06
1.68566e-06 -1.36475e-06 4.84365e-05
0.000910556 -3.91409e-05 2.11501e-06
-3.91409e-05 0.000241743 -3.49895e-07
2.11501e-06 -3.49895e-07 0.000151552
0.000838076 -2.71774e-05 9.28081e-07
-2.71774e-05 0.000208309 -7.4642e-07
9.28081e-07 -7.4642e-07 7.06735e-05
0.000379503 -2.719e-05 -2.06247e-06
-2.719e-05 -0.000108809 6.74452e-07
-2.06247e-06 6.74452e-07 -0.000176156
0.00196273 -0.000109915 -2.29843e-07
-0.000109915 -4.23631e-05 9.92629e-08
-2.29843e-07 9.92629e-08 -4.15608e-05
0.000488983 3.59947e-05 -1.41199e-09
3.59947e-05 -2.25933e-05 -1.32642e-06
-1.41199e-09 -1.32642e-06 -0.000101021
0.000643415 -5.44402e-05 8.69894e-07
-5.44402e-05 6.40126e-05 4.48482e-07
8.69894e-07 4.48482e-07 -1.26665e-05
0.000783098 -5.90645e-05 -6.67462e-08
-5.90645e-05 0.000148568 7.66312e-07
-6.67462e-08 7.66312e-07 5.22907e-05
0.0019266 -0.000264643 1.23028e-06
-0.000264643 -3.2095e-05 -1.54163e-07
1.23028e-06 -1.54163e-07 -2.03976e-06
0.00206446 -0.000393055 -2.59256e-07
-0.000393055 7.7307e-05 -4.93062e-07
-2.59256e-07 -4.93062e-07 -9.64398e-09
0.00130664 -0.000318499 6.57207e-06
-0.000318499 0.000273139 -8.70975e-08
6.57207e-06 -8.70975e-08 6.75562e-06
0.00207154 -0.000547629 5.96225e-06
-0.000547629 0.00056503 -1.76993e-08
5.96225e-06 -1.76993e-08 0.000201041
0.00188748 -0.000518551 -8.58953e-07
-0.000518551 0.000191736 1.52324e-06
-8.58953e-07 1.52324e-06 1.83498e-05
0.000479226 -1.12998e-05 -5.57768e-07
-1.12998e-05 -4.82245e-06 -1.13674e-07
-5.57768e-07 -1.13674e-07 -0.00012625
0.000840602 -8.05511e-05 -1.59076e-06
-8.05511e-05 0.000202998 5.42845e-07
-1.59076e-06 5.42845e-07 5.67927e-05
0.000619838 -0.000300016 -6.59972e-06
-0.000300016 -5.38101e-05 -4.0688e-07
-6.59972e-06 -4.0688e-07 -0.000288581
0.000545241 -0.000114005 -1.21026e-07
-0.000114005 0.000106592 -1.32611e-06
-1.21026e-07 -1.32611e-06 -0.000183238
0.000726494 -7.29027e-05 -1.55429e-07
-7.29027e-05 8.447e-05 1.08461e-07
-1.55429e-07 1.08461e-07 -8.0045e-05
0.00239322 -0.000225761 -3.151e-06
-0.000225761 0.00019034 -1.47478e-06
-3.151e-06 -1.47478e-06 0.000198948
0.00178322 -0.00027989 -1.19162e-05
-0.00027989 -0.000148731 1.57038e-06
-1.19162e-05 1.57038e-06 -9.00253e-05
0.00247308 -0.000551246 -8.9931e-06
-0.000551246 0.000337431 -3.05116e-06
-8.9931e-06 -3.05116e-06 0.000193298
0.0028151 -0.000633725 -2.21756e-05
-0.000633725 0.000820952 1.47488e-06
-2.21756e-05 1.47488e-06 0.000581347
0.00128509 -0.000349302 -1.92886e-05
-0.000349302 0.000314894 -2.96532e-06
-1.92886e-05 -2.96532e-06 3.71751e-05
0.000433002 2.31466e-06 1.23131e-06
2.31466e-06 -5.4298e-05 -3.00445e-07
1.23131e-06 -3.00445e-07 -0.000151038
0.000481664 4.26106e-05 5.25813e-07
4.26106e-05 -3.66928e-05 1.0528e-06
5.25813e-07 1.0528e-06 -0.000136626
0.000386562 -3.18119e-06 -7.19375e-08
-3.18119e-06 -8.14996e-05 -7.29194e-07
-7.19375e-08 -7.29194e-07 -0.00018771
0.00133212 -0.000158793 -2.6998e-06
-0.000158793 0.000512556 5.29657e-06
-2.6998e-06 5.29657e-06 0.000369786
0.000441082 -5.73831e-05 -1.1113e-06
-5.73831e-05 -5.64381e-05 6.62096e-06
-1.1113e-06 6.62096e-06 -0.000194018
-7.18875e-05 -8.49887e-05 1.48733e-06
-8.49887e-05 -0.000185959 4.2828e-06
1.48733e-06 4.2828e-06 -0.000505347
1.77517e-07 -0.000340353 2.58151e-06
-0.000340353 -0.000200491 9.56444e-07
2.58151e-06 9.56444e-07 -0.000574798
0.000783915 0.000104768 1.10189e-06
0.000104768 0.000178373 -4.37506e-06
1.10189e-06 -4.37506e-06 4.83e-05
0.000241383 9.4901e-05 -6.78278e-07
9.4901e-05 -0.000146636 -1.19791e-06
-6.78278e-07 -1.19791e-06 -0.000324426
0.00211623 0.000222454 7.4438e-06
0.000222454 3.6365e-05 1.03425e-07
7.4438e-06 1.03425e-07 4.21077e-05
0.00201943 0.000361505 1.3561e-05
0.000361505 0.000127373 3.6579e-06
1.3561e-05 3.6579e-06 3.06012e-05
0.00223747 0.000487216 1.1434e-05
0.000487216 0.000385268 3.80334e-06
1.1434e-05 3.80334e-06 0.000161403
0.00100865 0.000273291 3.20193e-08
0.000273291 0.000136772 -1.16752e-06
3.20193e-08 -1.16752e-06 -0.000102777
0.00186536 0.000437602 1.35778e-06
0.000437602 0.000439429 1.19954e-06
1.35778e-06 1.19954e-06 0.000139959
0.00138278 0.000130917 -2.99429e-08
0.000130917 0.000521781 2.88795e-07
-2.99429e-08 2.88795e-07 0.000376477
0.00225038 0.000236678 -2.62239e-06
0.000236678 0.000210751 6.58447e-07
-2.62239e-06 6.58447e-07 0.000236953
0.00149331 0.000290093 -1.91517e-06
0.000290093 0.000520953 5.83033e-07
-1.91517e-06 5.83033e-07 0.000309625
0.00152816 0.000360177 1.26714e-07
0.000360177 0.000373821 1.75654e-06
1.26714e-07 1.75654e-06 9.8455e-05
0.0019405 0.000480298 -1.78428e-06
0.000480298 0.000105589 -2.69874e-06
-1.78428e-06 -2.69874e-06 -3.51974e-05
0.00164647 0.000453296 -3.35739e-06
0.000453296 0.000252719 5.25115e-06
-3.35739e-06 5.25115e-06 -3.64144e-05
0.00225943 0.00047845 3.84516e-05
0.00047845 -8.42282e-05 4.48466e-06
3.84516e-05 4.48466e-06 -0.000399495
0.00111204 0.0001979 -5.56676e-06
0.0001979 0.000388203 -7.0006e-07
-5.56676e-06 -7.0006e-07 0.000216649
0.00256529 0.000398487 -5.54689e-05
0.000398487 0.000490368 -2.67203e-05
-5.54689e-05 -2.67203e-05 0.0004631
0.00119047 0.000285604 -5.04452e-06
0.000285604 0.000270933 -1.35106e-06
-5.04452e-06 -1.35106e-06 6.66749e-05
0.000444075 0.000285175 -9.58088e-07
0.000285175 -0.000256593 -4.63721e-06
-9.58088e-07 -4.63721e-06 -0.000526004
0.000344826 0.000438039 -1.79656e-05
0.000438039 -0.000602549 -3.96993e-06
-1.79656e-05 -3.96993e-06 -0.000792171
0.0107634 0.000393811 -0.000210095
0.000393811 0.00229416 -4.4505e-05
-0.000210095 -4.4505e-05 0.00141007
0.00592684 0.000870772 0.000125818
0.000870772 0.000766201 -2.80952e-05
0.000125818 -2.80952e-05 0.000505156
0.000426391 0.000597307 1.60695e-05
0.000597307 -0.00060568 7.99933e-06
1.60695e-05 7.99933e-06 -0.000852927
-0.00438714 -0.000850288 0.000442396
-0.000850288 -0.000844473 5.17594e-05
0.000442396 5.17594e-05 -0.00231648
0.00936346 -0.00282021 -2.24201e-05
-0.00282021 0.00216402 1.65586e-05
-2.24201e-05 1.65586e-05 0.00339642
0.000424257 4.94193e-05 3.80414e-06
4.94193e-05 -3.27388e-05 7.049e-07
3.80414e-06 7.049e-07 -0.000121671
0.000841873 4.60556e-05 1.2818e-06
4.60556e-05 0.000207431 -7.05358e-07
1.2818e-06 -7.05358e-07 0.000118602
0.00108014 0.000107755 -2.56969e-06
0.000107755 0.000347584 -6.50796e-07
-2.56969e-06 -6.50796e-07 0.000243611
0.000605346 -6.08448e-05 -1.00012e-07
-6.08448e-05 5.99852e-05 -1.86557e-06
-1.00012e-07 -1.86557e-06 -3.95148e-05
0.000608179 5.91089e-05 -1.25872e-06
5.91089e-05 5.01822e-05 -1.49073e-06
-1.25872e-06 -1.49073e-06 -6.36634e-05
0.000743783 -2.81202e-05 3.29689e-07
-2.81202e-05 0.000130696 -1.01608e-07
3.29689e-07 -1.01608e-07 1.50962e-05
0.000824145 2.84077e-05 -1.46558e-06
2.84077e-05 0.000160007 3.22615e-06
-1.46558e-06 3.22615e-06 6.07248e-05
0.000564695 2.75921e-05 -1.39108e-06
2.75921e-05 2.55709e-08 2.54491e-06
-1.39108e-06 2.54491e-06 -7.79471e-05
0.000775429 8.16662e-05 -1.62288e-06
8.16662e-05 0.000154573 -5.34578e-07
-1.62288e-06 -5.34578e-07 3.03872e-05
0.00054436 -9.41202e-06 1.60397e-08
-9.41202e-06 6.84691e-06 7.36959e-07
1.60397e-08 7.36959e-07 -8.66019e-05
0.000660193 2.17562e-05 1.77479e-07
2.17562e-05 8.81409e-05 1.29351e-07
1.77479e-07 1.29351e-07 -3.55364e-05
0.000699036 3.73812e-05 7.60078e-07
3.73812e-05 7.79454e-05 -5.2608e-07
7.60078e-07 -5.2608e-07 -4.25931e-06
0.00080196 4.95098e-05 -7.14247e-07
4.95098e-05 0.0001498 -1.09532e-07
-7.14247e-07 -1.09532e-07 3.78537e-05
0.00109519 9.81661e-05 -1.49231e-06
9.81661e-05 0.000329 -1.68173e-06
-1.49231e-06 -1.68173e-06 0.000212771
0.000380484 4.85176e-05 -5.35536e-08
4.85176e-05 -8.33661e-05 -3.08161e-06
-5.35536e-08 -3.08161e-06 -0.00018456
0.000812268 8.32457e-05 1.75652e-06
8.32457e-05 0.000161708 2.43123e-07
1.75652e-06 2.43123e-07 4.33648e-05
0.000565033 -2.15955e-05 1.2366e-06
-2.15955e-05 1.81272e-05 -4.00497e-08
1.2366e-06 -4.00497e-08 -9.7431e-05
0.000450219 -5.39903e-05 -1.21186e-06
-5.39903e-05 -5.02729e-05 1.87535e-06
-1.21186e-06 1.87535e-06 -0.000146857
0.000776255 -6.53798e-06 -7.88752e-07
-6.53798e-06 0.000154198 -6.76545e-08
-7.88752e-07 -6.76545e-08 3.45315e-05
0.000805422 3.312e-05 -3.77056e-08
3.312e-05 0.000174218 -2.99668e-06
-3.77056e-08 -2.99668e-06 5.94555e-05
0.000656669 -2.39105e-05 -7.29108e-07
-2.39105e-05 9.35927e-05 -2.18979e-08
-7.29108e-07 -2.18979e-08 -1.92441e-05
0.000791113 -2.47095e-05 1.16284e-06
-2.47095e-05 0.00017 -5.89583e-07
1.16284e-06 -5.89583e-07 5.3924e-05
0.000670685 -8.67352e-05 -2.42486e-06
-8.67352e-05 8.03728e-05 1.45645e-06
-2.42486e-06 1.45645e-06 -1.1647e-05
0.00045228 -1.18886e-05 1.28919e-07
-1.18886e-05 -4.85376e-05 8.37193e-07
1.28919e-07 8.37193e-07 -0.000144852
0.000584557 -2.12388e-05 -1.48329e-06
-2.12388e-05 8.85667e-06 2.39714e-06
-1.48329e-06 2.39714e-06 -4.56375e-05
0.000577114 -1.92698e-05 1.07475e-06
-1.92698e-05 1.01047e-05 1.43652e-09
1.07475e-06 1.43652e-09 -4.63774e-05
0.000573205 6.95779e-06 5.616e-08
6.95779e-06 -2.15503e-05 5.5002e-06
5.616e-08 5.5002e-06 -3.83095e-05
0.000577232 2.02471e-05 -9.51417e-07
2.02471e-05 8.30306e-06 -2.15571e-06
-9.51417e-07 -2.15571e-06 -4.63123e-05
0.000542991 5.10077e-06 3.58055e-07
5.10077e-06 -4.02293e-05 -1.2195e-09
3.58055e-07 -1.2195e-09 -5.65399e-05
0.00237242 -1.66124e-06 -7.98952e-07
-1.66124e-06 0.00105078 5.28589e-06
-7.98952e-07 5.28589e-06 0.00106621
0.000587362 2.16911e-06 -8.22565e-07
2.16911e-06 -1.49968e-05 -5.68104e-06
-8.22565e-07 -5.68104e-06 -3.1112e-05
0.00160045 -9.90898e-06 1.87864e-08
-9.90898e-06 0.000588384 8.41896e-08
1.87864e-08 8.41896e-08 0.000599746
0.000775146 -1.48363e-05 2.05348e-07
-1.48363e-05 9.36494e-05 -2.11546e-06
2.05348e-07 -2.11546e-06 0.000101607
0.000598317 -1.1621e-05 9.69468e-07
-1.1621e-05 7.71992e-06 -1.34822e-06
9.69468e-07 -1.34822e-06 -2.99632e-05
0.000620865 -1.96781e-05 3.99611e-07
-1.96781e-05 1.90397e-05 -4.59312e-08
3.99611e-07 -4.59312e-08 -2.05185e-05
0.000585668 1.4138e-05 4.51514e-07
1.4138e-05 -2.24697e-05 -3.11982e-06
4.51514e-07 -3.11982e-06 -3.00736e-05
0.000597229 -1.48391e-05 -1.3833e-06
-1.48391e-05 1.94566e-06 1.21904e-06
-1.3833e-06 1.21904e-06 -3.78355e-05
0.000858037 2.55321e-05 -6.45717e-08
2.55321e-05 0.000142925 -7.12008e-07
-6.45717e-08 -7.12008e-07 0.000135455
0.00204783 4.11656e-05 1.07446e-05
4.11656e-05 0.000862789 -4.30319e-06
1.07446e-05 -4.30319e-06 0.000879278
0.000553891 3.03658e-05 -4.00988e-07
3.03658e-05 -3.47853e-05 3.42147e-06
-4.00988e-07 3.42147e-06 -4.69978e-05
0.00217912 5.76339e-05 -7.17805e-06
5.76339e-05 0.000948377 1.11516e-06
-7.17805e-06 1.11516e-06 0.000961772
0.00228315 7.58564e-05 -1.61618e-05
7.58564e-05 0.00101747 4.07253e-06
-1.61618e-05 4.07253e-06 0.00102712
0.00198252 0.000128839 -2.45915e-06
0.000128839 1.91438e-05 -6.43286e-08
-2.45915e-06 -6.43286e-08 3.83583e-06
0.00192436 -5.89324e-07 -1.33993e-06
-5.89324e-07 1.88078e-05 1.14405e-07
-1.33993e-06 1.14405e-07 1.25717e-05
0.00162541 5.41914e-05 9.56434e-06
5.41914e-05 -0.000192427 -2.45183e-07
9.56434e-06 -2.45183e-07 -0.000169527
0.0023289 0.000244809 3.91065e-05
0.000244809 -0.000495499 8.40927e-06
3.91065e-05 8.40927e-06 -0.000365376
0.00197311 -8.83738e-06 -2.19704e-06
-8.83738e-06 -2.39513e-05 -4.085e-07
-2.19704e-06 -4.085e-07 -7.81898e-06
0.00190164 5.08411e-05 3.71949e-06
5.08411e-05 0.000140163 -2.28642e-06
3.71949e-06 -2.28642e-06 0.000200596
0.00279506 -1.71801e-05 -2.7357e-05
-1.71801e-05 0.00068385 3.87064e-06
-2.7357e-05 3.87064e-06 0.000662985
0.00199059 -2.95906e-05 5.52914e-05
-2.95906e-05 -0.00135768 -2.14414e-05
5.52914e-05 -2.14414e-05 -0.00117372
0.00252433 8.6622e-05 3.42956e-05
8.6622e-05 -8.71617e-05 1.96542e-05
3.42956e-05 1.96542e-05 6.33716e-05
0.000624343 7.01206e-05 8.75177e-08
7.01206e-05 5.88356e-05 -6.22055e-07
8.75177e-08 -6.22055e-07 -1.75131e-05
0.000648853 -8.68038e-06 5.9278e-07
-8.68038e-06 7.51832e-05 -2.01695e-07
5.9278e-07 -2.01695e-07 -2.93056e-06
0.000625955 -9.49553e-05 -7.46007e-07
-9.49553e-05 6.1413e-05 1.03503e-06
-7.46007e-07 1.03503e-06 -3.15642e-05
0.000609022 -4.12963e-05 -1.14181e-06
-4.12963e-05 7.28336e-05 1.07292e-06
-1.14181e-06 1.07292e-06 -3.10154e-05
0.00200505 -0.000122379 -3.7924e-06
-0.000122379 -3.86644e-05 6.69587e-07
-3.7924e-06 6.69587e-07 -2.36141e-05
0.00194118 -0.000262455 9.04789e-07
-0.000262455 -8.85831e-06 -1.29598e-07
9.04789e-07 -1.29598e-07 1.05428e-05
0.00208146 -0.000390398 -2.64748e-06
-0.000390398 9.61634e-05 2.51759e-06
-2.64748e-06 2.51759e-06 1.9013e-05
0.00228308 -0.000431752 1.01687e-05
-0.000431752 0.000813659 3.81017e-06
1.01687e-05 3.81017e-06 0.000537757
0.00109919 -0.000462355 1.15229e-05
-0.000462355 3.62641e-05 -3.77854e-06
1.15229e-05 -3.77854e-06 -0.000312729
0.00229043 -0.000543904 6.33305e-06
-0.000543904 0.000429404 -3.07855e-06
6.33305e-06 -3.07855e-06 0.00024669
0.00108021 -0.000327066 -4.17507e-06
-0.000327066 0.000225605 2.58102e-06
-4.17507e-06 2.58102e-06 -3.91763e-05
0.00192738 -0.000152619 1.09013e-06
-0.000152619 0.000835479 -1.05167e-06
1.09013e-06 -1.05167e-06 0.00059773
0.000295789 -8.04384e-05 -4.84028e-07
-8.04384e-05 -0.000171235 -1.36475e-06
-4.84028e-07 -1.36475e-06 -0.000326979
0.000678165 -3.91354e-05 -1.76124e-07
-3.91354e-05 8.2801e-05 1.10016e-06
-1.76124e-07 1.10016e-06 7.79942e-06
0.000684703 -8.85405e-05 3.77023e-07
-8.85405e-05 0.000121023 -2.58105e-06
3.77023e-07 -2.58105e-06 -3.51006e-05
0.000756276 -8.38205e-06 7.72213e-07
-8.38205e-06 0.000160164 -5.19457e-07
7.72213e-07 -5.19457e-07 3.95805e-05
0.000646687 7.80414e-06 1.78909e-07
7.80414e-06 7.74509e-05 -1.28341e-07
1.78909e-07 -1.28341e-07 -3.96813e-06
0.000549435 2.23758e-06 -3.04038e-06
2.23758e-06 1.07528e-05 2.18459e-06
-3.04038e-06 2.18459e-06 -8.39416e-05
0.00229825 -0.00020708 1.17311e-06
-0.00020708 0.000144897 5.77628e-07
1.17311e-06 5.77628e-07 0.000166829
0.000650389 -1.28729e-05 1.13997e-06
-1.28729e-05 8.50528e-05 -2.89287e-07
1.13997e-06 -2.89287e-07 -1.81612e-05
0.000686344 4.66235e-06 2.49148e-06
4.66235e-06 9.34191e-05 -1.12831e-07
2.49148e-06 -1.12831e-07 -9.78313e-06
0.000383572 3.5279e-05 1.90409e-07
3.5279e-05 -8.08482e-05 1.37183e-06
1.90409e-07 1.37183e-06 -0.000175803
0.00176606 -0.000282983 -8.6451e-07
-0.000282983 -0.000183836 -1.67972e-06
-8.6451e-07 -1.67972e-06 -0.000129432
0.00203484 -0.000513373 1.4419e-06
-0.000513373 0.000113476 -4.14161e-07
1.4419e-06 -4.14161e-07 -1.985e-05
0.00162468 -0.00041907 -1.02931e-06
-0.00041907 0.000491885 -7.93006e-08
-1.02931e-06 -7.93006e-08 0.000202502
0.00216104 -0.000583876 -5.50333e-06
-0.000583876 0.000470843 2.01002e-06
-5.50333e-06 2.01002e-06 0.00023521
0.00107805 -7.85711e-05 -9.55106e-07
-7.85711e-05 0.00034414 3.6435e-07
-9.55106e-07 3.6435e-07 0.00020938
0.000480993 -7.31419e-05 1.68813e-07
-7.31419e-05 -3.36136e-05 9.09951e-07
1.68813e-07 9.09951e-07 -0.000178743
0.00107986 -0.000413434 3.82077e-06
-0.000413434 0.000411765 -1.65453e-06
3.82077e-06 -1.65453e-06 2.2517e-05
0.00115734 -0.00019262 2.95789e-07
-0.00019262 0.000447978 -3.63132e-07
2.95789e-07 -3.63132e-07 0.000156119
0.00244961 -0.00024813 -2.31727e-05
-0.00024813 0.000146975 -4.87964e-07
-2.31727e-05 -4.87964e-07 0.000257802
0.00230749 -0.000419029 -2.70343e-05
-0.000419029 0.000150728 5.5896e-06
-2.70343e-05 5.5896e-06 0.000165251
0.00280083 -0.000670327 -1.19985e-05
-0.000670327 0.000618906 -6.04868e-06
-1.19985e-05 -6.04868e-06 0.000403627
0.00163672 -0.000498053 -8.77202e-06
-0.000498053 0.000379054 3.05519e-06
-8.77202e-06 3.05519e-06 0.000156062
0.000543789 -7.84901e-06 -1.61219e-06
-7.84901e-06 3.82147e-05 -2.07966e-06
-1.61219e-06 -2.07966e-06 -8.40965e-05
0.000548518 -8.02037e-05 -7.24211e-07
-8.02037e-05 3.03541e-05 -4.1691e-06
-7.24211e-07 -4.1691e-06 -0.000100398
0.000466703 -0.000117315 -2.6779e-06
-0.000117315 7.22229e-05 1.04449e-05
-2.6779e-06 1.04449e-05 -0.000117163
-0.000321825 -0.000199449 -2.55733e-06
-0.000199449 -0.000176918 -5.74963e-06
-2.55733e-06 -5.74963e-06 -0.000648498
0.00094732 -0.000395189 2.80231e-05
-0.000395189 -0.00324785 -5.11234e-06
2.80231e-05 -5.11234e-06 -0.00350048
0.00151566 0.000122495 8.42861e-07
0.000122495 0.000588881 -3.60462e-06
8.42861e-07 -3.60462e-06 0.000451724
0.000613435 0.000189179 3.24663e-06
0.000189179 1.05596e-05 1.65879e-06
3.24663e-06 1.65879e-06 -0.000182672
0.00208972 0.000210201 5.26441e-05
0.000210201 0.000142374 1.04226e-05
5.26441e-05 1.04226e-05 0.000171404
0.00208052 0.000477601 1.79626e-05
0.000477601 0.000173997 6.55517e-06
1.79626e-05 6.55517e-06 4.18856e-05
0.00204863 0.000492976 6.76737e-06
0.000492976 0.000488441 7.79608e-06
6.76737e-06 7.79608e-06 0.000186846
0.000963917 0.000307182 6.28586e-06
0.000307182 7.83854e-05 3.86898e-06
6.28586e-06 3.86898e-06 -0.000200915
0.00342391 0.000584396 7.9173e-05
0.000584396 0.000279789 2.747e-05
7.9173e-05 2.747e-05 -0.000157496
0.00126956 0.000182165 3.452e-06
0.000182165 0.000480997 5.92878e-07
3.452e-06 5.92878e-07 0.000313541
0.00236438 0.000386165 -1.28273e-05
0.000386165 0.000356197 -1.02023e-06
-1.28273e-05 -1.02023e-06 0.000349769
0.00110229 0.000277933 1.58712e-06
0.000277933 0.000241024 7.06469e-07
1.58712e-06 7.06469e-07 3.60342e-05
0.00118662 0.000371499 2.28173e-06
0.000371499 0.000158186 -2.54017e-06
2.28173e-06 -2.54017e-06 -0.000124242
0.00121623 0.000506709 -4.89998e-06
0.000506709 -0.000154884 -1.56313e-06
-4.89998e-06 -1.56313e-06 -0.000350746
0.00285862 -0.000313023 -0.00012205
-0.000313023 -0.00244925 -3.62513e-05
-0.00012205 -3.62513e-05 -0.00344139
0.00583366 0.000725163 -2.27077e-05
0.000725163 0.000547383 -4.43919e-05
-2.27077e-05 -4.43919e-05 9.21468e-05
0.000546323 0.000502768 -8.95388e-06
0.000502768 -0.000396967 7.41963e-06
-8.95388e-06 7.41963e-06 -0.000705738
-0.00186152 -0.000636205 0.000195191
-0.000636205 0.0011071 8.32598e-05
0.000195191 8.32598e-05 -0.000538291
0.00148402 -0.00281157 -0.00014219
-0.00281157 -0.000437227 -0.000152962
-0.00014219 -0.000152962 0.000976445
0.00109335 0.000200428 -6.38748e-06
0.000200428 0.000360673 -2.84225e-06
-6.38748e-06 -2.84225e-06 0.000208615
0.00053962 0.000435238 0.000222686
0.000435238 0.00197053 -8.62126e-06
0.000222686 -8.62126e-06 0.000732921
0.00105915 -0.000873122 -0.00012083
-0.000873122 0.00262428 -0.000187345
-0.00012083 -0.000187345 0.000540457
0.0026551 0.000594355 -3.10443e-05
0.000594355 0.00050164 -8.58172e-06
-3.10443e-05 -8.58172e-06 0.000530593
0.000757383 0.000172417 -1.37075e-05
0.000172417 4.08764e-05 -3.51878e-06
-1.37075e-05 -3.51878e-06 -0.000153732
0.000236229 0.000412431 -2.40345e-05
0.000412431 -0.000357599 -1.69042e-05
-2.40345e-05 -1.69042e-05 -0.000649634
0.000101822 0.000536361 3.26511e-05
0.000536361 -0.000686704 6.98386e-05
3.26511e-05 6.98386e-05 -0.000848845
0.0129108 0.000878254 -1.40746e-05
0.000878254 0.00379301 -4.15853e-05
-1.40746e-05 -4.15853e-05 0.00230681
0.00281337 0.00106764 1.38797e-05
0.00106764 0.000461862 5.23478e-06
1.38797e-05 5.23478e-06 -0.000630286
0.00359537 -0.00249236 0.000357396
-0.00249236 4.04694e-05 0.000248926
0.000357396 0.000248926 8.60999e-05
0.00643321 -0.00131129 -2.67479e-05
-0.00131129 -0.000195749 0.000270391
-2.67479e-05 0.000270391 0.000650379
0.000557081 2.86614e-05 2.31313e-06
2.86614e-05 5.7219e-05 -2.1463e-06
2.31313e-06 -2.1463e-06 -3.31942e-05
0.00075857 9.2072e-05 2.74392e-06
9.2072e-05 0.000165126 9.81709e-07
2.74392e-06 9.81709e-07 6.05704e-05
0.00147859 0.000162494 -2.9224e-06
0.000162494 0.000598751 -2.67235e-06
-2.9224e-06 -2.67235e-06 0.000488288
0.000620862 4.86564e-06 7.85011e-07
4.86564e-06 6.98487e-05 -4.23322e-07
7.85011e-07 -4.23322e-07 -3.41993e-05
0.000730978 3.62369e-05 -4.074e-08
3.62369e-05 0.000128133 -1.47065e-06
-4.074e-08 -1.47065e-06 6.14001e-06
0.000526741 -2.98957e-06 -1.42949e-06
-2.98957e-06 -5.09e-06 3.96785e-07
-1.42949e-06 3.96785e-07 -0.000116631
0.000782184 5.56785e-05 -9.67049e-07
5.56785e-05 0.000138721 1.8169e-06
-9.67049e-07 1.8169e-06 3.10232e-05
0.000572256 3.71021e-05 -8.29377e-07
3.71021e-05 -9.81065e-07 -5.3521e-08
-8.29377e-07 -5.3521e-08 -8.37248e-05
0.000438147 -3.81147e-06 2.51132e-07
-3.81147e-06 -5.31047e-05 7.87094e-07
2.51132e-07 7.87094e-07 -0.000152268
0.000857688 4.18655e-05 4.36767e-07
4.18655e-05 0.000191268 7.18183e-07
4.36767e-07 7.18183e-07 7.68959e-05
0.00078547 3.3198e-05 2.99823e-07
3.3198e-05 0.000146897 3.72941e-07
2.99823e-07 3.72941e-07 2.8087e-05
0.000690761 1.96101e-05 6.16147e-07
1.96101e-05 0.000108246 -3.31591e-07
6.16147e-07 -3.31591e-07 -1.7611e-05
0.000464854 5.25018e-05 -3.58231e-07
5.25018e-05 -3.22106e-05 -9.59165e-07
-3.58231e-07 -9.59165e-07 -0.000133713
0.00118396 6.51804e-05 -7.92395e-07
6.51804e-05 0.000384261 -2.91211e-06
-7.92395e-07 -2.91211e-06 0.000278297
1.23983e-05 4.49813e-05 -3.34751e-06
4.49813e-05 -0.000257387 -4.73763e-06
-3.34751e-06 -4.73763e-06 -0.000367666
0.000748334 -7.89064e-05 -9.23057e-09
-7.89064e-05 0.000125769 -1.97142e-07
-9.23057e-09 -1.97142e-07 1.79375e-06
0.000770721 -5.75576e-05 -8.36905e-07
-5.75576e-05 0.00016093 -7.9972e-07
-8.36905e-07 -7.9972e-07 2.97353e-05
0.000797668 -2.79331e-05 -5.12467e-07
-2.79331e-05 0.000176353 -3.86479e-07
-5.12467e-07 -3.86479e-07 4.9388e-05
0.000800834 3.82982e-06 -1.09339e-06
3.82982e-06 0.000162754 -1.83297e-07
-1.09339e-06 -1.83297e-07 5.49053e-05
0.000810029 1.22668e-05 -2.85842e-06
1.22668e-05 0.000190253 -2.35834e-06
-2.85842e-06 -2.35834e-06 5.33776e-05
0.000718066 8.82735e-06 1.21868e-06
8.82735e-06 0.000117823 -1.61325e-06
1.21868e-06 -1.61325e-06 1.05646e-05
8.06698e-05 -2.01495e-05 -1.58425e-07
-2.01495e-05 -0.000266757 -2.14957e-06
-1.58425e-07 -2.14957e-06 -0.000359688
0.000594842 -1.52469e-06 1.07728e-06
-1.52469e-06 3.55915e-05 -1.02847e-07
1.07728e-06 -1.02847e-07 -7.02041e-05
0.000643362 -4.85441e-05 2.51349e-07
-4.85441e-05 6.42967e-05 3.95221e-07
2.51349e-07 3.95221e-07 -3.24639e-05
0.000711724 -4.5575e-05 -2.39982e-07
-4.5575e-05 0.000119815 -4.25837e-08
-2.39982e-07 -4.25837e-08 9.75634e-06
0.00065918 -5.3069e-05 -2.02343e-06
-5.3069e-05 6.20857e-05 1.14537e-06
-2.02343e-06 1.14537e-06 -1.85413e-05
0.000682856 -3.69775e-05 1.45628e-06
-3.69775e-05 8.62173e-05 -3.9091e-07
1.45628e-06 -3.9091e-07 -1.81109e-05
0.000604779 -8.02399e-05 1.18834e-08
-8.02399e-05 3.88728e-05 2.30545e-07
1.18834e-08 2.30545e-07 -5.29138e-05
0.000622537 -1.96437e-05 -1.9813e-06
-1.96437e-05 2.68202e-05 2.62737e-06
-1.9813e-06 2.62737e-06 -2.74754e-05
0.000484399 -6.07831e-06 1.22907e-06
-6.07831e-06 -1.96763e-05 -6.81028e-07
1.22907e-06 -6.81028e-07 -0.000122877
0.000581883 3.39206e-06 1.27965e-06
3.39206e-06 1.12559e-05 -1.2195e-08
1.27965e-06 -1.2195e-08 -4.54769e-05
0.00138587 1.0715e-05 -3.12753e-06
1.0715e-05 0.000462858 5.43366e-06
-3.12753e-06 5.43366e-06 0.000450415
0.000573912 3.54184e-05 -6.59984e-07
3.54184e-05 8.36564e-06 -2.15472e-06
-6.59984e-07 -2.15472e-06 -4.79667e-05
0.000954114 3.74794e-06 -1.80905e-06
3.74794e-06 0.000205828 8.13848e-07
-1.80905e-06 8.13848e-07 0.000191433
0.000832742 3.21942e-06 -4.15367e-06
3.21942e-06 0.000130255 5.05498e-06
-4.15367e-06 5.05498e-06 0.000137533
0.000550637 -4.46061e-08 4.18822e-07
-4.46061e-08 -3.54612e-05 -3.78098e-06
4.18822e-07 -3.78098e-06 -5.18282e-05
0.00238417 1.19212e-07 4.58694e-06
1.19212e-07 0.0010579 -7.71137e-09
4.58694e-06 -7.71137e-09 0.00107327
0.000850628 -2.92799e-06 -4.21702e-06
-2.92799e-06 0.000140735 -5.17156e-06
-4.21702e-06 -5.17156e-06 0.000148172
0.000599665 6.44989e-05 1.95386e-06
6.44989e-05 5.07004e-05 1.36883e-07
1.95386e-06 1.36883e-07 -3.29206e-05
0.000578456 2.76976e-05 -1.2868e-06
2.76976e-05 1.21e-06 -1.77606e-06
-1.2868e-06 -1.77606e-06 -3.80483e-05
0.000589326 -6.45204e-06 1.00081e-06
-6.45204e-06 4.60088e-06 1.5714e-08
1.00081e-06 1.5714e-08 -3.45772e-05
0.000587326 8.24304e-06 3.73817e-07
8.24304e-06 -2.21519e-05 -3.08135e-06
3.73817e-07 -3.08135e-06 -2.90762e-05
0.000615954 -3.42473e-05 -1.76451e-06
-3.42473e-05 1.78114e-05 1.36341e-06
-1.76451e-06 1.36341e-06 -2.31924e-05
0.000556196 1.40929e-05 1.46428e-08
1.40929e-05 -4.06541e-05 -7.58262e-07
1.46428e-08 -7.58262e-07 -4.79517e-05
0.00202045 2.76353e-05 7.1918e-06
2.76353e-05 0.000842786 -4.45918e-06
7.1918e-06 -4.45918e-06 0.000860841
0.00115854 3.20444e-05 -6.47725e-07
3.20444e-05 0.000323724 1.82695e-06
-6.47725e-07 1.82695e-06 0.000317504
0.00148005 3.54068e-05 9.02522e-08
3.54068e-05 0.000522955 1.40852e-06
9.02522e-08 1.40852e-06 0.000535373
0.000887735 3.85817e-05 -1.32361e-05
3.85817e-05 0.000173289 7.17622e-06
-1.32361e-05 7.17622e-06 0.000179894
0.00149298 0.000159978 7.2632e-05
0.000159978 -0.000827716 1.49831e-05
7.2632e-05 1.49831e-05 -0.000710137
0.00194541 -2.20433e-05 2.66558e-06
-2.20433e-05 -2.72429e-05 1.1547e-06
2.66558e-06 1.1547e-06 -1.36065e-05
0.00194424 6.26767e-05 3.48032e-05
6.26767e-05 0.000182763 -1.10705e-05
3.48032e-05 -1.10705e-05 0.000233044
0.00149547 0.000130727 -1.77582e-05
0.000130727 -0.00120151 -1.12006e-05
-1.77582e-05 -1.12006e-05 -0.000851961
0.0018623 6.35884e-05 1.98216e-05
6.35884e-05 -0.00036117 4.72169e-08
1.98216e-05 4.72169e-08 -0.00021714
0.00236359 -2.10903e-05 3.07585e-07
-2.10903e-05 0.000377156 -2.41895e-06
3.07585e-07 -2.41895e-06 0.000359763
0.00349875 -8.83192e-05 -6.06342e-05
-8.83192e-05 0.00081264 2.38609e-06
-6.06342e-05 2.38609e-06 0.000786026
0.00297634 -7.15734e-05 8.04265e-05
-7.15734e-05 0.00028347 1.24107e-06
8.04265e-05 1.24107e-06 0.000220835
0.010254 -0.000484791 1.34017e-05
-0.000484791 0.00235845 3.89654e-05
1.34017e-05 3.89654e-05 0.000849425
0.0097784 0.00205928 0.000450543
0.00205928 0.00445792 -0.000195449
0.000450543 -0.000195449 0.00420191
0.00598353 0.00223499 -2.52912e-05
0.00223499 0.00443875 2.02854e-05
-2.52912e-05 2.02854e-05 0.00470912
0.000415034 -8.87425e-05 1.91666e-06
-8.87425e-05 -5.40182e-05 -1.1936e-07
1.91666e-06 -1.1936e-07 -0.000149935
0.0006446 -1.14221e-05 1.33764e-06
-1.14221e-05 7.27184e-05 -1.67601e-07
1.33764e-06 -1.67601e-07 -5.49632e-06
0.000686818 -7.97113e-05 -1.66997e-06
-7.97113e-05 0.000103755 1.11592e-06
-1.66997e-06 1.11592e-06 2.00838e-05
0.000625766 -4.23792e-05 -2.05984e-07
-4.23792e-05 6.30979e-05 2.3813e-07
-2.05984e-07 2.3813e-07 -3.12538e-05
0.000628405 6.03833e-05 -1.30197e-06
6.03833e-05 8.69467e-05 1.86891e-06
-1.30197e-06 1.86891e-06 -2.50111e-05
0.000633771 0.000119321 1.36639e-06
0.000119321 6.97296e-05 3.90004e-06
1.36639e-06 3.90004e-06 -4.05023e-05
0.00085107 -1.33823e-05 2.82934e-06
-1.33823e-05 0.000215079 1.3639e-07
2.82934e-06 1.3639e-07 0.000106375
0.000569451 -2.87413e-05 -1.05234e-06
-2.87413e-05 3.85411e-05 9.6876e-07
-1.05234e-06 9.6876e-07 -5.97372e-05
0.00214353 -0.000192043 5.01985e-06
-0.000192043 6.00076e-05 1.98718e-06
5.01985e-06 1.98718e-06 9.4685e-05
0.00181464 -0.000295537 9.35129e-06
-0.000295537 -0.000190772 -1.58613e-06
9.35129e-06 -1.58613e-06 -0.000142553
0.00163572 -0.000479424 5.73357e-06
-0.000479424 -9.35626e-05 4.22007e-06
5.73357e-06 4.22007e-06 -0.000217484
0.00143581 -0.000427431 1.40131e-05
-0.000427431 0.000370744 5.55767e-07
1.40131e-05 5.55767e-07 7.64941e-05
0.00177228 -0.000557098 6.13096e-06
-0.000557098 0.000268546 1.72908e-06
6.13096e-06 1.72908e-06 3.48591e-05
0.00218741 -0.000485029 7.18014e-06
-0.000485029 0.00103996 -2.64116e-06
7.18014e-06 -2.64116e-06 0.000633231
0.00231058 -0.000299561 9.39756e-07
-0.000299561 0.0010601 -2.95771e-06
9.39756e-07 -2.95771e-06 0.000781661
0.000765945 -0.000130696 3.85965e-06
-0.000130696 0.000141496 -3.88466e-06
3.85965e-06 -3.88466e-06 -2.13169e-05
0.000681051 -2.48374e-05 5.16743e-07
-2.48374e-05 9.04774e-05 2.09548e-06
5.16743e-07 2.09548e-06 -8.00059e-06
0.000900672 -4.23498e-05 1.69471e-06
-4.23498e-05 0.000223648 -6.41275e-06
1.69471e-06 -6.41275e-06 9.73808e-05
0.000919164 -2.3666e-05 1.59349e-06
-2.3666e-05 0.000247142 -4.19763e-08
1.59349e-06 -4.19763e-08 0.000141958
0.000712734 9.58518e-05 2.23011e-06
9.58518e-05 0.000117297 2.03649e-06
2.23011e-06 2.03649e-06 2.83711e-05
0.00201379 -0.00023595 -9.34197e-08
-0.00023595 -3.30098e-05 1.91597e-06
-9.34197e-08 1.91597e-06 6.12831e-05
0.000666875 1.15971e-05 -1.55731e-06
1.15971e-05 0.000111398 2.60746e-07
-1.55731e-06 2.60746e-07 -9.9687e-06
0.000841187 -8.83336e-05 -2.44647e-06
-8.83336e-05 0.000194694 1.36414e-06
-2.44647e-06 1.36414e-06 7.27307e-05
0.00178412 -0.000403713 2.06148e-06
-0.000403713 -0.000127152 -1.61827e-06
2.06148e-06 -1.61827e-06 -0.000118451
0.00166972 -0.000575191 4.76256e-07
-0.000575191 1.79587e-05 4.09851e-07
4.76256e-07 4.09851e-07 -0.000166904
0.00101184 -0.000441891 -1.02778e-06
-0.000441891 4.14149e-05 -1.82349e-06
-1.02778e-06 -1.82349e-06 -0.000194245
0.00105368 -0.00015926 2.27349e-07
-0.00015926 0.000399105 -5.34119e-06
2.27349e-07 -5.34119e-06 0.000189881
0.00114005 -0.000267877 -1.67279e-06
-0.000267877 0.000595904 1.36501e-06
-1.67279e-06 1.36501e-06 0.000165953
0.00325287 -0.000363371 -3.39832e-05
-0.000363371 0.000613412 5.20124e-06
-3.39832e-05 5.20124e-06 0.000643011
0.00282975 -0.00058002 -3.53137e-05
-0.00058002 0.000556839 4.95467e-06
-3.53137e-05 4.95467e-06 0.000524414
0.00170499 -0.000627199 -1.23649e-05
-0.000627199 0.00013292 -2.47267e-07
-1.23649e-05 -2.47267e-07 -5.67508e-05
0.000555883 -0.000310554 -1.40377e-05
-0.000310554 -7.14952e-05 1.70346e-05
-1.40377e-05 1.70346e-05 -0.000290252
0.000659099 -0.000135335 1.49525e-06
-0.000135335 0.000111913 1.42198e-06
1.49525e-06 1.42198e-06 -3.44547e-05
0.000433243 -0.000110757 2.82688e-06
-0.000110757 1.84435e-05 -8.99242e-07
2.82688e-06 -8.99242e-07 -0.000149058
0.00104807 -0.000112716 -1.28782e-07
-0.000112716 0.000554722 -4.6065e-06
-1.28782e-07 -4.6065e-06 0.000189462
-0.00508992 -0.000106617 0.000276284
-0.000106617 -0.00367633 2.99095e-06
0.000276284 2.99095e-06 -0.00259206
0.0103191 -0.000150241 1.1437e-05
-0.000150241 0.00273483 2.50807e-08
1.1437e-05 2.50807e-08 0.00217274
0.00146996 0.000161335 6.07475e-06
0.000161335 0.00058593 -2.98839e-06
6.07475e-06 -2.98839e-06 0.000429979
0.000888527 0.000258248 3.27169e-06
0.000258248 0.000134492 -1.38462e-06
3.27169e-06 -1.38462e-06 -6.86572e-05
0.0020822 0.000352881 4.74626e-05
0.000352881 0.000194734 2.42213e-05
4.74626e-05 2.42213e-05 0.000206658
0.00239179 0.000601564 1.42238e-05
0.000601564 0.000452828 5.16189e-06
1.42238e-05 5.16189e-06 0.00024892
0.00218864 0.00048227 1.05843e-05
0.00048227 0.000709117 2.88759e-07
1.05843e-05 2.88759e-07 0.000412802
0.0111394 0.000597011 4.792e-05
0.000597011 0.00283535 2.20537e-05
4.792e-05 2.20537e-05 0.00171925
0.00764043 0.0010538 -0.000164679
0.0010538 0.00092984 -2.60249e-05
-0.000164679 -2.60249e-05 0.000596774
0.000584483 0.000418851 7.25812e-06
0.000418851 -0.00024681 -1.87242e-05
7.25812e-06 -1.87242e-05 -0.00062058
0.00982277 -0.001657 -0.000118514
-0.001657 0.00451686 1.88941e-05
-0.000118514 1.88941e-05 0.00373837
-0.00736638 -0.00285121 -0.000761529
-0.00285121 -0.0031159 -0.000571733
-0.000761529 -0.000571733 -0.00182424
0.000981826 0.000194695 -6.70351e-07
0.000194695 0.000305531 -1.63664e-06
-6.70351e-07 -1.63664e-06 0.000153062
-0.00240505 -0.000850603 0.000153646
-0.000850603 -0.00223853 2.11933e-05
0.000153646 2.11933e-05 -0.00256354
-0.00300658 -0.000624277 -0.000180185
-0.000624277 0.00169576 -9.10584e-05
-0.000180185 -9.10584e-05 -0.000742521
0.00280311 0.000535349 -1.16113e-05
0.000535349 0.000594383 -1.23765e-06
-1.16113e-05 -1.23765e-06 0.000621399
0.000874444 0.00023326 -3.95214e-06
0.00023326 0.000138295 1.29892e-06
-3.95214e-06 1.29892e-06 -7.82785e-05
0.00120439 0.000487925 4.50276e-06
0.000487925 0.000167358 2.27989e-06
4.50276e-06 2.27989e-06 -0.000128434
0.00117341 0.000477119 1.86934e-05
0.000477119 1.24513e-05 1.56455e-05
1.86934e-05 1.56455e-05 -3.09271e-05
0.0094714 0.000698388 -6.58521e-05
0.000698388 0.00138684 -3.18543e-05
-6.58521e-05 -3.18543e-05 -0.000459984
0.00612574 0.00151435 -6.31073e-05
0.00151435 0.00144087 -2.79097e-05
-6.31073e-05 -2.79097e-05 0.000703861
0.0111998 -0.00193899 0.000154833
-0.00193899 0.00495807 -5.08959e-05
0.000154833 -5.08959e-05 0.00462002
0.00575705 -0.00162954 0.000159526
-0.00162954 -0.000979713 0.000346749
0.000159526 0.000346749 -0.000126798
0.0016164 0.000190571 -1.66368e-05
0.000190571 0.000681838 -8.73541e-06
-1.66368e-05 -8.73541e-06 0.000544817
-0.00637625 0.000385979 -9.5891e-05
0.000385979 0.00123364 -5.70429e-05
-9.5891e-05 -5.70429e-05 -0.0018713
0.00336308 0.000359718 -0.000181745
0.000359718 0.00199108 -0.000245238
-0.000181745 -0.000245238 -0.00105869
0.00174818 0.00047155 -1.87661e-05
0.00047155 0.000298392 6.77721e-06
-1.87661e-05 6.77721e-06 0.000295378
0.00133524 0.000431982 -5.01782e-05
0.000431982 0.000472346 -1.77591e-05
-5.01782e-05 -1.77591e-05 0.000221951
0.00230656 0.000419279 -6.12937e-05
0.000419279 0.00126035 -5.8629e-06
-6.12937e-05 -5.8629e-06 0.000838039
0.00172983 0.00102852 -4.10279e-05
0.00102852 6.92684e-05 -1.65968e-05
-4.10279e-05 -1.65968e-05 -0.000186623
0.000833163 0.000910287 0.000169276
0.000910287 -0.000356337 0.000119096
0.000169276 0.000119096 -0.00312411
0.0104553 -0.00227702 0.000106202
-0.00227702 0.00370039 0.000306524
0.000106202 0.000306524 0.00297029
0.00496904 -0.000957226 -5.61961e-05
-0.000957226 -0.00200812 -5.68386e-05
-5.61961e-05 -5.68386e-05 -0.000811763
0.000689807 0.000111301 3.73212e-06
0.000111301 0.000136226 1.60055e-06
3.73212e-06 1.60055e-06 2.29433e-05
0.0012496 0.000145977 5.95715e-06
0.000145977 0.000453734 3.15765e-06
5.95715e-06 3.15765e-06 0.000346569
2.47805e-05 5.63448e-05 2.14112e-06
5.63448e-05 -0.000193288 -7.33882e-06
2.14112e-06 -7.33882e-06 -0.000307164
0.00044719 4.55254e-05 1.38779e-06
4.55254e-05 -4.85267e-05 -2.0103e-07
1.38779e-06 -2.0103e-07 -0.000147254
0.000755179 5.2592e-05 -5.949e-07
5.2592e-05 0.000152708 -1.06163e-06
-5.949e-07 -1.06163e-06 2.33567e-05
0.000738382 -6.17336e-06 -5.71017e-07
-6.17336e-06 0.000118491 1.63987e-06
-5.71017e-07 1.63987e-06 -8.25518e-08
0.000753171 2.86413e-06 2.80805e-06
2.86413e-06 0.000138503 1.26278e-06
2.80805e-06 1.26278e-06 2.04314e-05
0.000450561 4.3797e-05 5.16097e-07
4.3797e-05 -3.72536e-05 2.37349e-06
5.16097e-07 2.37349e-06 -0.00013767
0.000762339 4.49784e-05 -1.11906e-08
4.49784e-05 0.000156828 -8.25907e-07
-1.11906e-08 -8.25907e-07 2.54743e-05
0.000864642 4.81321e-05 -1.47158e-08
4.81321e-05 0.000193363 1.1401e-07
-1.47158e-08 1.1401e-07 8.70434e-05
0.000779797 -3.65645e-05 -6.13775e-07
-3.65645e-05 0.000146728 6.50293e-07
-6.13775e-07 6.50293e-07 2.10605e-05
-9.14593e-05 3.20338e-05 3.18777e-07
3.20338e-05 -0.000303043 7.46258e-07
3.18777e-07 7.46258e-07 -0.000414623
-0.000598926 2.14689e-05 -7.5418e-07
2.14689e-05 -0.000442234 -2.18375e-06
-7.5418e-07 -2.18375e-06 -0.000609575
0.000835752 -3.89343e-06 -3.15716e-06
-3.89343e-06 0.000183817 -4.96611e-06
-3.15716e-06 -4.96611e-06 6.68489e-05
0.000937528 1.07636e-05 -5.7746e-07
1.07636e-05 0.000261733 -8.82031e-07
-5.7746e-07 -8.82031e-07 0.0001108
0.000801118 -5.73897e-05 -2.04683e-07
-5.73897e-05 0.000182591 -7.86011e-07
-2.04683e-07 -7.86011e-07 5.19153e-05
0.000859906 -3.76646e-05 5.62517e-08
-3.76646e-05 0.00019094 1.54908e-06
5.62517e-08 1.54908e-06 8.68645e-05
0.000826164 -5.31198e-05 2.36155e-07
-5.31198e-05 0.000188437 -6.42337e-07
2.36155e-07 -6.42337e-07 5.82269e-05
0.0007546 1.38511e-06 -3.58302e-07
1.38511e-06 0.000135173 -9.45206e-08
-3.58302e-07 -9.45206e-08 2.89695e-05
0.000380261 -4.87784e-05 5.28758e-07
-4.87784e-05 -8.44475e-05 1.47092e-06
5.28758e-07 1.47092e-06 -0.00017826
0.000611822 8.40642e-06 1.0794e-06
8.40642e-06 5.25836e-05 6.8218e-07
1.0794e-06 6.8218e-07 -5.11386e-05
0.000349027 -1.37771e-05 -2.57125e-06
-1.37771e-05 -8.05692e-05 -3.88916e-06
-2.57125e-06 -3.88916e-06 -0.000200252
0.000290688 -4.00042e-05 2.1017e-06
-4.00042e-05 -0.000132611 -1.09926e-06
2.1017e-06 -1.09926e-06 -0.000223109
0.000761796 -3.62222e-05 3.94889e-06
-3.62222e-05 9.92065e-05 -5.83243e-06
3.94889e-06 -5.83243e-06 2.21565e-06
3.0648e-05 -4.90812e-05 3.00382e-07
-4.90812e-05 -0.000306484 1.30422e-06
3.00382e-07 1.30422e-06 -0.00045769
0.000357467 6.59792e-06 -7.7583e-07
6.59792e-06 -9.53603e-05 -8.99073e-07
-7.7583e-07 -8.99073e-07 -0.000207777
0.000722138 -8.87349e-06 2.42071e-07
-8.87349e-06 0.000108671 2.89712e-07
2.42071e-07 2.89712e-07 8.02628e-07
0.000639042 -1.34623e-05 1.88494e-07
-1.34623e-05 6.17114e-05 6.19499e-07
1.88494e-07 6.19499e-07 -3.55473e-05
0.000717027 -3.04949e-05 -1.58276e-07
-3.04949e-05 0.000120861 -7.19647e-08
-1.58276e-07 -7.19647e-08 1.45147e-05
0.000567852 4.56043e-07 -5.64729e-07
4.56043e-07 1.61827e-05 9.68112e-07
-5.64729e-07 9.68112e-07 -6.67198e-05
0.000767025 -2.6757e-05 1.46567e-08
-2.6757e-05 0.000150228 -1.37857e-07
1.46567e-08 -1.37857e-07 4.15842e-05
0.000665578 -4.69953e-05 -4.88303e-07
-4.69953e-05 7.45211e-05 1.06048e-07
-4.88303e-07 1.06048e-07 -1.16512e-05
0.000562028 3.8881e-05 -8.37715e-07
3.8881e-05 -1.0433e-05 2.44626e-06
-8.37715e-07 2.44626e-06 -6.58775e-05
0.000539834 -7.0822e-05 1.7696e-06
-7.0822e-05 -4.7338e-06 -1.0976e-06
1.7696e-06 -1.0976e-06 -9.4518e-05
0.000596296 -4.59931e-06 -3.06993e-07
-4.59931e-06 1.06389e-05 -3.98851e-09
-3.06993e-07 -3.98851e-09 -4.30553e-05
0.00138268 2.14461e-05 -4.82543e-06
2.14461e-05 0.000459709 5.61022e-06
-4.82543e-06 5.61022e-06 0.000446785
0.000584037 -2.58805e-05 1.02683e-06
-2.58805e-05 1.04921e-05 -2.17633e-06
1.02683e-06 -2.17633e-06 -4.4882e-05
0.000946046 9.82256e-06 -2.78372e-06
9.82256e-06 0.000199401 7.44066e-07
-2.78372e-06 7.44066e-07 0.000185113
0.000761223 1.46835e-05 -4.19145e-08
1.46835e-05 8.56675e-05 2.01767e-06
-4.19145e-08 2.01767e-06 9.30678e-05
0.000540451 1.40004e-06 7.57761e-07
1.40004e-06 -4.26124e-05 -3.79721e-06
7.57761e-07 -3.79721e-06 -5.8815e-05
0.00238474 1.37068e-05 4.36298e-06
1.37068e-05 0.00105846 5.57441e-08
4.36298e-06 5.57441e-08 0.00107369
0.00238023 1.91932e-06 -5.42931e-07
1.91932e-06 0.0010556 -5.25544e-06
-5.42931e-07 -5.25544e-06 0.00107093
0.000992574 7.1942e-05 -9.75778e-07
7.1942e-05 0.000279337 -6.28642e-07
-9.75778e-07 -6.28642e-07 0.000197466
0.00059598 3.7508e-05 -1.17327e-06
3.7508e-05 1.49841e-05 -2.01057e-06
-1.17327e-06 -2.01057e-06 -2.72823e-05
0.000634106 -9.52795e-06 6.03028e-07
-9.52795e-06 7.03156e-05 8.77201e-07
6.03028e-07 8.77201e-07 -1.25978e-05
0.000588379 3.29998e-06 3.05743e-07
3.29998e-06 -2.17487e-05 -3.29365e-06
3.05743e-07 -3.29365e-06 -2.86747e-05
0.000588456 -1.30501e-05 1.86217e-07
-1.30501e-05 7.51056e-06 -2.49149e-08
1.86217e-07 -2.49149e-08 -3.20691e-05
0.000611529 -3.42709e-05 -1.50781e-06
-3.42709e-05 1.89172e-05 1.26399e-06
-1.50781e-06 1.26399e-06 -2.11974e-05
0.000570666 7.87298e-06 -2.29067e-07
7.87298e-06 -3.21014e-05 -2.00409e-08
-2.29067e-07 -2.00409e-08 -3.89652e-05
0.00200985 1.47981e-05 2.71109e-06
1.47981e-05 0.000834026 -4.6185e-06
2.71109e-06 -4.6185e-06 0.00085294
0.00114352 2.0968e-05 -6.96484e-07
2.0968e-05 0.000311742 1.80426e-06
-6.96484e-07 1.80426e-06 0.000307621
0.00139396 2.35147e-05 7.31142e-07
2.35147e-05 0.00046655 5.26368e-09
7.31142e-07 5.26368e-09 0.000481232
0.00086017 2.79466e-05 -1.25767e-05
2.79466e-05 0.000151124 7.03079e-06
-1.25767e-05 7.03079e-06 0.000160683
-0.0085682 0.000468204 0.000226902
0.000468204 -0.00371367 3.06104e-06
0.000226902 3.06104e-06 -0.00476329
-0.00209671 1.38192e-05 0.000303466
1.38192e-05 0.00232618 -1.23737e-05
0.000303466 -1.23737e-05 0.000537279
0.00451872 0.000235445 -0.000225678
0.000235445 0.000159943 -1.97272e-05
-0.000225678 -1.97272e-05 0.000636552
0.000462348 4.55978e-05 2.76326e-05
4.55978e-05 -0.00103255 -1.31871e-05
2.76326e-05 -1.31871e-05 -0.000962793
0.00150549 -3.11912e-05 1.836e-05
-3.11912e-05 -0.000193206 -5.33504e-07
1.836e-05 -5.33504e-07 -0.000208596
2.50721e-05 5.38637e-05 -1.66616e-05
5.38637e-05 -0.000818547 -7.97853e-06
-1.66616e-05 -7.97853e-06 -0.000714833
0.00265094 -0.000130218 -2.61189e-06
-0.000130218 0.000253413 4.33026e-06
-2.61189e-06 4.33026e-06 0.000218565
0.00947298 0.000112528 5.82666e-05
0.000112528 0.001293 -3.40865e-05
5.82666e-05 -3.40865e-05 0.000255772
-0.00309761 0.00125347 -2.20279e-05
0.00125347 -0.000714643 -1.73968e-05
-2.20279e-05 -1.73968e-05 -0.00212772
-0.000524584 0.0024299 -0.000154889
0.0024299 0.000822134 8.32691e-05
-0.000154889 8.32691e-05 0.00168153
0.00192476 -0.000274034 6.75582e-05
-0.000274034 -0.000717885 -5.42895e-06
6.75582e-05 -5.42895e-06 -0.000715975
0.0127675 -0.000502416 0.000108715
-0.000502416 0.00328591 -3.17844e-05
0.000108715 -3.17844e-05 0.00175823
0.00407412 0.00234976 0.000152796
0.00234976 0.000500808 -0.000290458
0.000152796 -0.000290458 0.000757693
0.0076219 0.00171793 -0.000227483
0.00171793 0.00127519 0.00013928
-0.000227483 0.00013928 0.00112473
0.000711525 9.11886e-05 -2.2879e-06
9.11886e-05 0.000143501 1.52741e-06
-2.2879e-06 1.52741e-06 1.32792e-05
0.000487251 1.68842e-05 -1.40572e-07
1.68842e-05 -1.63177e-05 -7.50721e-07
-1.40572e-07 -7.50721e-07 -0.000107862
0.000667685 -8.87658e-05 -9.81799e-07
-8.87658e-05 9.16502e-05 9.34001e-07
-9.81799e-07 9.34001e-07 9.04051e-06
0.000556512 -7.11557e-06 8.41536e-07
-7.11557e-06 2.92637e-05 -4.59536e-07
8.41536e-07 -4.59536e-07 -6.92391e-05
0.000625587 5.79299e-05 9.66787e-07
5.79299e-05 9.10372e-05 1.381e-06
9.66787e-07 1.381e-06 -2.15402e-05
0.00081405 5.89155e-05 1.16418e-07
5.89155e-05 0.000205816 2.75878e-06
1.16418e-07 2.75878e-06 7.32461e-05
0.000750821 8.89622e-05 1.52771e-06
8.89622e-05 0.000151206 1.93784e-06
1.52771e-06 1.93784e-06 3.45658e-05
0.000620519 1.99932e-05 3.18202e-06
1.99932e-05 5.8989e-05 3.25117e-07
3.18202e-06 3.25117e-07 -5.64379e-05
0.000710454 -2.58425e-05 1.36105e-06
-2.58425e-05 0.000132464 -9.391e-07
1.36105e-06 -9.391e-07 2.09582e-05
0.000522692 -8.80641e-06 -2.84836e-07
-8.80641e-06 3.69631e-07 -4.28818e-07
-2.84836e-07 -4.28818e-07 -9.18942e-05
0.00164798 -0.000219429 2.06432e-05
-0.000219429 -0.000169261 -6.23431e-07
2.06432e-05 -6.23431e-07 -9.27527e-05
0.001368 -0.000387454 2.60343e-05
-0.000387454 -0.000345677 -3.49031e-06
2.60343e-05 -3.49031e-06 -0.000340033
0.000122697 -0.000441548 1.52578e-05
-0.000441548 -0.000803347 3.5609e-06
1.52578e-05 3.5609e-06 -0.000949064
0.000176968 -0.000370928 7.30717e-06
-0.000370928 -0.000398594 -2.06889e-06
7.30717e-06 -2.06889e-06 -0.000637108
0.00254285 -0.000332916 3.65145e-06
-0.000332916 0.00133707 5.95356e-06
3.65145e-06 5.95356e-06 0.000952468
0.00094384 -0.000200328 3.25773e-06
-0.000200328 0.000340157 -1.4873e-06
3.25773e-06 -1.4873e-06 0.00010273
0.00101018 -9.81806e-05 -1.99691e-09
-9.81806e-05 0.000282234 -3.34109e-07
-1.99691e-09 -3.34109e-07 0.000171628
0.000709413 1.12108e-05 -1.57362e-06
1.12108e-05 0.000136283 1.68121e-06
-1.57362e-06 1.68121e-06 1.76334e-05
0.0020478 -0.000289676 6.62679e-06
-0.000289676 1.56611e-05 -3.44526e-06
6.62679e-06 -3.44526e-06 6.73362e-05
0.000679112 -6.65218e-05 -2.34281e-07
-6.65218e-05 0.000128466 -2.60433e-07
-2.34281e-07 -2.60433e-07 -2.18349e-05
0.000286837 -9.22715e-05 7.60353e-07
-9.22715e-05 -6.22271e-05 -1.90278e-06
7.60353e-07 -1.90278e-06 -0.000232424
0.00210838 -0.000532983 7.03899e-06
-0.000532983 0.000184643 -7.96458e-07
7.03899e-06 -7.96458e-07 0.000147969
0.00144545 -0.000612224 6.94807e-07
-0.000612224 -3.24201e-05 3.75575e-06
6.94807e-07 3.75575e-06 -0.000204896
0.000447115 -0.00034857 8.58194e-06
-0.00034857 -0.000122573 -4.76115e-06
8.58194e-06 -4.76115e-06 -0.000363712
0.00146875 -0.00017863 -7.40097e-07
-0.00017863 0.000764623 -4.57806e-06
-7.40097e-07 -4.57806e-06 0.000420785
0.0022246 -0.000462623 -3.31362e-05
-0.000462623 0.000501545 4.9858e-06
-3.31362e-05 4.9858e-06 0.000219487
0.00163911 -0.000489216 -4.33983e-05
-0.000489216 0.00021043 6.49439e-06
-4.33983e-05 6.49439e-06 0.000120119
0.00031522 -0.000255118 -2.90667e-05
-0.000255118 -2.18995e-05 3.86706e-05
-2.90667e-05 3.86706e-05 -0.000303762
-0.000543771 -2.41404e-05 -2.47691e-07
-2.41404e-05 -0.000577636 2.56117e-06
-2.47691e-07 2.56117e-06 -0.000731549
0.000276892 -0.000114257 2.8191e-06
-0.000114257 -7.24073e-05 1.2671e-06
2.8191e-06 1.2671e-06 -0.000247954
0.000750022 -9.65619e-05 4.27194e-06
-9.65619e-05 0.000286391 -1.31239e-06
4.27194e-06 -1.31239e-06 3.05703e-05
-9.54694e-05 0.000331601 -0.000177165
0.000331601 0.00413307 6.81796e-06
-0.000177165 6.81796e-06 0.00209963
0.00162115 -0.000487235 1.48562e-05
-0.000487235 0.00139694 2.51549e-05
1.48562e-05 2.51549e-05 0.00136444
0.00111323 0.00077642 -6.32008e-05
0.00077642 -0.00325156 5.43557e-06
-6.32008e-05 5.43557e-06 -0.00368839
0.000607343 0.000164048 6.19742e-06
0.000164048 9.74544e-05 2.02435e-06
6.19742e-06 2.02435e-06 -5.02879e-05
0.00103812 0.000298267 7.20182e-06
0.000298267 0.000258365 1.07001e-05
7.20182e-06 1.07001e-05 2.0952e-05
0.0029563 0.000466089 3.02902e-05
0.000466089 0.000703663 1.10496e-05
3.02902e-05 1.10496e-05 0.000719048
0.00221983 0.000545277 1.8692e-05
0.000545277 0.000719081 1.35804e-05
1.8692e-05 1.35804e-05 0.000420596
0.00755634 -0.000972325 7.98334e-05
-0.000972325 0.00273913 4.18238e-05
7.98334e-05 4.18238e-05 0.00293597
0.00291009 0.00014181 -0.000168292
0.00014181 -0.0020627 -9.10537e-06
-0.000168292 -9.10537e-06 -0.00384423
0.00287049 0.00136018 -6.42892e-05
0.00136018 -0.000415557 -1.08415e-05
-6.42892e-05 -1.08415e-05 -0.00106001
0.000552978 0.00031052 2.65864e-05
0.00031052 -0.000101477 -2.43336e-05
2.65864e-05 -2.43336e-05 -9.66093e-05
-0.00327098 -0.00112957 -0.000131434
-0.00112957 -0.000746458 -0.00015389
-0.000131434 -0.00015389 -0.0013663
-0.000916416 -0.00101203 -0.000122099
-0.00101203 0.00167476 -1.82093e-05
-0.000122099 -1.82093e-05 -0.000803972
0.0102858 -0.00209579 0.000247701
-0.00209579 0.00143584 0.000184274
0.000247701 0.000184274 0.00233739
0.000620344 0.000134452 7.45164e-06
0.000134452 0.000123443 -2.39848e-06
7.45164e-06 -2.39848e-06 -1.88328e-05
-0.00237183 0.00011617 -9.22877e-05
0.00011617 0.00233501 -2.53113e-05
-9.22877e-05 -2.53113e-05 -0.00028602
0.00372675 0.000411649 -2.12921e-05
0.000411649 0.0019415 -8.575e-05
-2.12921e-05 -8.575e-05 -0.00122454
0.0013391 0.00043966 -4.00927e-06
0.00043966 0.000128397 4.98884e-06
-4.00927e-06 4.98884e-06 8.88625e-05
0.000554604 0.000301696 3.10187e-06
0.000301696 8.84721e-05 2.26157e-06
3.10187e-06 2.26157e-06 -0.000162869
-0.000526749 0.000308277 1.45573e-05
0.000308277 -0.000310803 -4.03427e-05
1.45573e-05 -4.03427e-05 -0.000618731
0.00520634 0.00159776 -7.83793e-06
0.00159776 0.00180705 7.41712e-06
-7.83793e-06 7.41712e-06 0.00121936
0.0123083 0.00105634 6.33163e-05
0.00105634 0.00419504 2.2818e-05
6.33163e-05 2.2818e-05 0.00215344
0.00450394 -0.00148738 2.85717e-05
-0.00148738 -8.81019e-05 -4.90653e-05
2.85717e-05 -4.90653e-05 -0.000881054
0.00988997 -0.00131075 5.52246e-06
-0.00131075 0.0013027 -3.74407e-05
5.52246e-06 -3.74407e-05 0.00250794
0.000622617 0.000199844 -8.85058e-06
0.000199844 0.000177618 -1.12722e-05
-8.85058e-06 -1.12722e-05 3.83965e-05
0.00292078 9.72351e-05 -0.000130433
9.72351e-05 0.00114567 -2.96351e-05
-0.000130433 -2.96351e-05 -0.000825191
5.83548e-05 0.000120739 -3.43404e-05
0.000120739 5.36026e-05 -0.000100427
-3.43404e-05 -0.000100427 -0.00150674
-0.0008919 9.14354e-05 -1.09713e-05
9.14354e-05 -0.000406486 -1.7752e-05
-1.09713e-05 -1.7752e-05 -0.00057227
0.00138464 0.000378563 -4.59292e-05
0.000378563 0.000957031 4.16453e-05
-4.59292e-05 4.16453e-05 0.000238453
0.00984594 0.00149411 4.56131e-05
0.00149411 0.00387013 2.32774e-06
4.56131e-05 2.32774e-06 0.000725966
-0.00676662 -0.0021634 -4.04197e-05
-0.0021634 -0.0034801 0.000135521
-4.04197e-05 0.000135521 -0.00580839
0.00804359 0.000456351 2.27552e-05
0.000456351 -0.00101523 -0.000192151
2.27552e-05 -0.000192151 0.00105755
0.000977567 0.000114719 2.05522e-06
0.000114719 0.000276275 7.06677e-06
2.05522e-06 7.06677e-06 0.000177895
0.00101896 0.000137006 -5.82582e-06
0.000137006 0.000391517 -1.36467e-06
-5.82582e-06 -1.36467e-06 0.000269329
0.000319438 8.34281e-05 -1.79168e-06
8.34281e-05 0.000153479 -6.24782e-06
-1.79168e-06 -6.24782e-06 -4.30077e-05
0.000754319 7.94159e-05 -2.54403e-06
7.94159e-05 0.000141608 -1.00857e-06
-2.54403e-06 -1.00857e-06 1.79251e-05
0.000853442 -2.85013e-05 -9.58527e-07
-2.85013e-05 0.000200762 1.57759e-06
-9.58527e-07 1.57759e-06 6.77281e-05
0.000514127 3.74337e-05 1.22233e-06
3.74337e-05 -1.633e-05 2.50297e-06
1.22233e-06 2.50297e-06 -0.000123515
1.73535e-06 3.21057e-05 2.14786e-06
3.21057e-05 -0.000231838 4.02815e-06
2.14786e-06 4.02815e-06 -0.000343883
0.000811506 -5.20388e-06 1.11018e-06
-5.20388e-06 0.00016866 1.5262e-07
1.11018e-06 1.5262e-07 3.21916e-05
0.000839225 2.63375e-05 1.48328e-07
2.63375e-05 0.000190212 -1.05388e-06
1.48328e-07 -1.05388e-06 7.09607e-05
0.000298898 -6.35675e-06 1.54369e-06
-6.35675e-06 8.46888e-05 1.87534e-06
1.54369e-06 1.87534e-06 -8.90618e-05
-0.000900441 4.97793e-06 -1.92513e-06
4.97793e-06 -0.000379597 7.99998e-07
-1.92513e-06 7.99998e-07 -0.000639209
0.000973414 -2.25129e-06 -2.43175e-06
-2.25129e-06 0.000415882 -7.19688e-06
-2.43175e-06 -7.19688e-06 0.000264909
0.000928841 3.97422e-05 -1.83613e-06
3.97422e-05 0.000248091 -3.88302e-06
-1.83613e-06 -3.88302e-06 0.000110994
0.000885609 -0.000111946 1.57441e-06
-0.000111946 0.000211198 8.4371e-07
1.57441e-06 8.4371e-07 8.75916e-05
0.0007447 1.72659e-06 -4.89759e-07
1.72659e-06 0.000124688 -8.88218e-08
-4.89759e-07 -8.88218e-08 2.04912e-05
0.000618309 -5.86483e-05 -1.3277e-06
-5.86483e-05 6.05503e-05 3.60211e-06
-1.3277e-06 3.60211e-06 -3.1702e-05
0.00047388 -3.27702e-05 1.94913e-06
-3.27702e-05 -1.82584e-05 1.49558e-06
1.94913e-06 1.49558e-06 -0.000129713
0.000706968 3.38396e-06 3.63014e-07
3.38396e-06 0.000108575 -8.25373e-08
3.63014e-07 -8.25373e-08 3.07835e-06
0.000590035 -2.91297e-05 -7.21842e-07
-2.91297e-05 4.19185e-05 -5.05634e-08
-7.21842e-07 -5.05634e-08 -4.71451e-05
0.00100154 -2.73264e-05 -3.95809e-07
-2.73264e-05 0.00026199 -3.34079e-06
-3.95809e-07 -3.34079e-06 0.000167179
5.31068e-05 -3.97108e-05 3.73549e-06
-3.97108e-05 -0.000204914 -4.64828e-06
3.73549e-06 -4.64828e-06 -0.000286842
0.000331392 -0.000103789 1.28674e-06
-0.000103789 -0.000207984 -7.64693e-07
1.28674e-06 -7.64693e-07 -0.000304196
0.000790289 -6.55722e-05 -2.80321e-06
-6.55722e-05 0.000122558 -3.88205e-07
-2.80321e-06 -3.88205e-07 2.06212e-05
0.000523398 -0.000105683 5.19382e-06
-0.000105683 -2.74038e-05 3.32493e-06
5.19382e-06 3.32493e-06 -0.000171133
0.00120106 -0.000250285 -2.00162e-06
-0.000250285 0.000326502 7.98308e-06
-2.00162e-06 7.98308e-06 0.000100918
0.00134161 -0.000126413 1.3004e-06
-0.000126413 0.000494091 -1.12288e-06
1.3004e-06 -1.12288e-06 0.000353193
0.000291417 -8.00702e-05 -1.99381e-06
-8.00702e-05 -0.000137673 -4.88652e-06
-1.99381e-06 -4.88652e-06 -0.000290293
0.000660018 -1.21632e-05 -2.65099e-07
-1.21632e-05 7.31323e-05 2.71515e-08
-2.65099e-07 2.71515e-08 -3.7731e-05
0.00036646 -2.72742e-06 1.4895e-07
-2.72742e-06 -8.72217e-05 -4.00607e-08
1.4895e-07 -4.00607e-08 -0.000193548
0.00085623 -2.22102e-05 -7.50196e-07
-2.22102e-05 0.000186149 1.04838e-06
-7.50196e-07 1.04838e-06 7.59031e-05
0.000732847 -4.11267e-05 -5.65772e-07
-4.11267e-05 0.000127598 6.69616e-07
-5.65772e-07 6.69616e-07 2.02293e-05
0.000606754 -2.19294e-05 -5.50532e-07
-2.19294e-05 3.44812e-05 1.02083e-06
-5.50532e-07 1.02083e-06 -4.75936e-05
0.000841675 -6.0124e-05 -2.90369e-07
-6.0124e-05 0.000207443 -8.05813e-07
-2.90369e-07 -8.05813e-07 8.9578e-05
0.000673864 -5.42437e-05 -5.93101e-07
-5.42437e-05 8.01774e-05 -4.02066e-08
-5.93101e-07 -4.02066e-08 -5.37744e-06
0.000582859 2.9113e-05 -2.00578e-06
2.9113e-05 9.13617e-07 1.93048e-06
-2.00578e-06 1.93048e-06 -5.48763e-05
0.000708023 -8.55528e-05 1.88415e-06
-8.55528e-05 0.000102955 -1.27914e-06
1.88415e-06 -1.27914e-06 1.3805e-05
0.000639033 -1.41068e-05 -2.61267e-07
-1.41068e-05 3.15335e-05 4.21225e-08
-2.61267e-07 4.21225e-08 -2.19105e-05
0.00137598 3.14388e-05 -7.54329e-06
3.14388e-05 0.000455453 5.61969e-06
-7.54329e-06 5.61969e-06 0.000441942
0.000610468 -3.29121e-05 2.01486e-06
-3.29121e-05 2.1571e-05 -2.25685e-06
2.01486e-06 -2.25685e-06 -3.37987e-05
0.000952868 1.86096e-05 -3.71608e-06
1.86096e-05 0.000202273 7.1277e-07
-3.71608e-06 7.1277e-07 0.000187471
0.000771919 2.34118e-05 -3.07924e-07
2.34118e-05 9.46788e-05 2.1427e-06
-3.07924e-07 2.1427e-06 0.000100711
0.000539573 6.89197e-06 4.90811e-07
6.89197e-06 -4.48789e-05 -3.9218e-06
4.90811e-07 -3.9218e-06 -6.10305e-05
0.00156238 2.32069e-05 5.85226e-06
2.32069e-05 0.000566445 -1.49518e-06
5.85226e-06 -1.49518e-06 0.00057755
0.00236422 1.61558e-05 4.36681e-06
1.61558e-05 0.0010463 -5.15695e-06
4.36681e-06 -5.15695e-06 0.00106154
0.000690511 1.16254e-05 1.43719e-06
1.16254e-05 8.99783e-05 -1.34962e-06
1.43719e-06 -1.34962e-06 4.65099e-06
0.000642173 3.32615e-05 -6.71e-07
3.32615e-05 3.96634e-05 -1.87678e-06
-6.71e-07 -1.87678e-06 -4.51078e-06
0.00069093 -3.3384e-06 1.19304e-06
-3.3384e-06 9.7391e-05 3.41624e-07
1.19304e-06 3.41624e-07 1.59857e-05
0.000575895 -2.16845e-06 4.54066e-07
-2.16845e-06 -2.82949e-05 -3.48745e-06
4.54066e-07 -3.48745e-06 -3.61138e-05
0.000588872 2.60896e-05 8.05672e-08
2.60896e-05 8.89444e-06 -3.00254e-08
8.05672e-08 -3.00254e-08 -3.22528e-05
0.00065042 -9.1786e-05 -3.52874e-06
-9.1786e-05 7.41638e-05 1.40943e-06
-3.52874e-06 1.40943e-06 -4.47035e-06
0.00202495 2.07043e-06 -2.06518e-06
2.07043e-06 0.000841691 -4.73597e-06
-2.06518e-06 -4.73597e-06 0.000860906
0.000570402 2.83649e-06 -1.82239e-07
2.83649e-06 -3.2046e-05 -4.55095e-09
-1.82239e-07 -4.55095e-09 -3.89602e-05
0.00058739 -2.03958e-05 -1.56902e-06
-2.03958e-05 5.47222e-06 1.61979e-06
-1.56902e-06 1.61979e-06 -3.32941e-05
0.000553089 7.56158e-06 -6.03126e-07
7.56158e-06 -4.2593e-05 3.15912e-06
-6.03126e-07 3.15912e-06 -4.94153e-05
0.00203262 1.62869e-05 -3.95905e-06
1.62869e-05 0.000847837 -4.96325e-08
-3.95905e-06 -4.96325e-08 0.000866609
0.00201801 2.84601e-05 -9.32598e-06
2.84601e-05 0.000841348 4.33357e-06
-9.32598e-06 4.33357e-06 0.000859496
-0.00467885 -0.000468399 -5.79395e-05
-0.000468399 0.00185169 2.20694e-05
-5.79395e-05 2.20694e-05 -0.000617561
-0.000474949 0.000562391 -9.43509e-05
0.000562391 -0.000355358 2.23477e-05
-9.43509e-05 2.23477e-05 -0.00101318
0.00350886 -0.000445275 -0.000287893
-0.000445275 0.00115734 0.000179527
-0.000287893 0.000179527 -0.00163968
-0.00307286 8.11511e-05 0.000414748
8.11511e-05 0.00236229 -0.000175556
0.000414748 -0.000175556 0.000548389
0.000317587 0.000287191 -1.93021e-05
0.000287191 -0.00129221 2.94202e-06
-1.93021e-05 2.94202e-06 -0.00121188
0.00249893 -0.000184738 0.000100623
-0.000184738 8.58694e-05 -8.92142e-06
0.000100623 -8.92142e-06 8.35948e-05
0.000983749 -0.000403383 1.67188e-06
-0.000403383 -0.00239182 -7.05852e-05
1.67188e-06 -7.05852e-05 -0.00393912
0.0112671 0.00123256 -0.0001586
0.00123256 0.0054457 -1.48138e-05
-0.0001586 -1.48138e-05 0.00463585
-0.00749258 0.00273383 -0.000720349
0.00273383 -0.00316563 0.000557077
-0.000720349 0.000557077 -0.00179365
0.00288037 -0.000141834 -1.97861e-06
-0.000141834 -0.00025795 -4.78773e-06
-1.97861e-06 -4.78773e-06 -0.000300918
0.00525229 -0.000564078 5.91366e-05
-0.000564078 -0.000252424 -6.21077e-05
5.91366e-05 -6.21077e-05 -0.00242635
0.0118295 0.00223355 -9.80387e-05
0.00223355 0.00360727 -8.67955e-05
-9.80387e-05 -8.67955e-05 0.00391433
0.00457753 0.00169688 -7.60178e-05
0.00169688 -0.000857833 0.000194223
-7.60178e-05 0.000194223 -0.000921248
0.00289602 -0.000756965 -7.37785e-05
-0.000756965 -0.000799407 1.95603e-05
-7.37785e-05 1.95603e-05 -0.000675876
0.00300755 -0.00111231 0.000212325
-0.00111231 6.16429e-05 -0.000138255
0.000212325 -0.000138255 -0.00334167
-0.00390181 0.00131661 -7.20911e-05
0.00131661 -0.00382598 -0.000362823
-7.20911e-05 -0.000362823 -0.00424833
0.00432092 0.000921802 -9.62342e-05
0.000921802 -0.00297751 5.6223e-06
-9.62342e-05 5.6223e-06 -0.00172997
0.00109715 -3.52172e-05 7.58305e-07
-3.52172e-05 0.000388347 4.69146e-06
7.58305e-07 4.69146e-06 0.000232623
0.000670767 7.86141e-05 -1.72887e-06
7.86141e-05 0.000111428 -1.3356e-06
-1.72887e-06 -1.3356e-06 -1.09294e-05
0.000631183 6.82076e-05 1.17989e-07
6.82076e-05 6.44806e-05 -1.46475e-06
1.17989e-07 -1.46475e-06 -2.29654e-05
0.000656426 6.26322e-05 3.7315e-06
6.26322e-05 0.000112851 7.15631e-07
3.7315e-06 7.15631e-07 1.25156e-06
0.000628449 5.03992e-05 1.37858e-06
5.03992e-05 8.22803e-05 1.73078e-06
1.37858e-06 1.73078e-06 -6.66741e-05
0.000710023 6.2191e-05 -1.89901e-07
6.2191e-05 0.000140241 1.46168e-06
-1.89901e-07 1.46168e-06 1.33162e-05
0.000585921 3.06236e-05 4.73168e-07
3.06236e-05 5.49033e-05 -2.64284e-07
4.73168e-07 -2.64284e-07 -5.89736e-05
0.00087885 0.00013098 1.46444e-06
0.00013098 0.000236359 2.07679e-06
1.46444e-06 2.07679e-06 9.77666e-05
0.000839791 8.35295e-05 -1.04892e-07
8.35295e-05 0.000213646 3.52935e-07
-1.04892e-07 3.52935e-07 8.27474e-05
0.000505778 -9.94103e-06 -3.26038e-06
-9.94103e-06 8.9504e-06 -1.87392e-06
-3.26038e-06 -1.87392e-06 -0.000103041
0.000664231 -0.000221461 4.20155e-05
-0.000221461 -0.000701037 -1.79581e-05
4.20155e-05 -1.79581e-05 -0.000629955
0.00099315 -0.000473797 3.44086e-05
-0.000473797 -0.000405728 -4.56975e-06
3.44086e-05 -4.56975e-06 -0.00044441
0.00180884 -0.000651404 1.66821e-05
-0.000651404 0.000143902 3.63933e-06
1.66821e-05 3.63933e-06 -2.90925e-05
0.00030815 -0.000389829 8.27368e-06
-0.000389829 -0.000197953 -1.56753e-05
8.27368e-06 -1.56753e-05 -0.000474915
0.0020321 -0.000218725 -2.52901e-06
-0.000218725 0.0010287 1.5139e-05
-2.52901e-06 1.5139e-05 0.000723526
0.000607935 -9.93278e-05 -1.15266e-06
-9.93278e-05 0.000129827 2.01849e-06
-1.15266e-06 2.01849e-06 -4.67202e-05
0.000456876 7.75253e-05 -2.76051e-07
7.75253e-05 2.36209e-06 -3.67143e-06
-2.76051e-07 -3.67143e-06 -0.00015024
0.000661281 -6.20256e-05 -6.07654e-07
-6.20256e-05 0.000133183 3.41602e-06
-6.07654e-07 3.41602e-06 -3.81217e-05
0.00131006 -0.000362067 8.21632e-07
-0.000362067 -6.09371e-05 -1.43557e-06
8.21632e-07 -1.43557e-06 -0.000217579
0.000683015 -2.82774e-05 1.75261e-08
-2.82774e-05 0.000150982 1.49252e-06
1.75261e-08 1.49252e-06 -2.35273e-05
0.0015057 -0.000156095 -2.12446e-07
-0.000156095 0.000723745 -6.52412e-07
-2.12446e-07 -6.52412e-07 0.000460212
0.00160791 -0.000496087 1.69619e-06
-0.000496087 0.000151163 2.69228e-06
1.69619e-06 2.69228e-06 8.0632e-05
0.000848025 -0.000331255 -1.68669e-05
-0.000331255 0.000236775 4.87846e-06
-1.68669e-05 4.87846e-06 -4.35202e-05
0.00101629 -0.00060769 -7.48261e-06
-0.00060769 -0.000255124 -2.56808e-05
-7.48261e-06 -2.56808e-05 -0.00025942
0.00125869 -0.00029088 -1.86119e-05
-0.00029088 0.000477039 1.50735e-05
-1.86119e-05 1.50735e-05 0.000351416
-0.000906293 -4.11433e-05 3.33312e-06
-4.11433e-05 -0.000573132 1.99776e-05
3.33312e-06 1.99776e-05 -0.0008776
0.000718504 1.17383e-05 -7.03105e-07
1.17383e-05 0.000140366 -4.00061e-06
-7.03105e-07 -4.00061e-06 -1.49027e-05
0.000671725 4.1046e-05 3.06626e-06
4.1046e-05 0.000229609 -8.02974e-08
3.06626e-06 -8.02974e-08 -6.21707e-07
0.00176085 -5.08368e-05 -2.0208e-05
-5.08368e-05 0.00125339 -6.58797e-06
-2.0208e-05 -6.58797e-06 -0.0006427
-0.00293623 0.000125257 -0.000142194
0.000125257 0.00322885 -5.8009e-06
-0.000142194 -5.8009e-06 0.000754201
-0.0101108 -0.000711926 -0.00032281
-0.000711926 -0.00534199 1.00383e-06
-0.00032281 1.00383e-06 -0.00511611
-0.000275891 9.72243e-05 6.50613e-06
9.72243e-05 -0.000370391 -2.01456e-06
6.50613e-06 -2.01456e-06 -0.00052527
-0.000338586 0.000189783 2.00607e-06
0.000189783 -0.000369472 4.79598e-06
2.00607e-06 4.79598e-06 -0.000621955
0.0015202 0.000433201 2.27389e-05
0.000433201 0.000217935 8.03487e-06
2.27389e-05 8.03487e-06 0.00018755
-0.00407729 0.000570136 -1.65453e-05
0.000570136 0.0017811 1.94281e-05
-1.65453e-05 1.94281e-05 -0.0009153
0.0013526 0.000941622 -0.000100006
0.000941622 -0.000115185 -0.0001035
-0.000100006 -0.0001035 -0.00358021
0.00287987 0.00117443 0.000181708
0.00117443 0.000509417 4.57321e-05
0.000181708 4.57321e-05 9.77574e-05
0.000230416 0.000361041 8.78583e-06
0.000361041 -6.45724e-05 -2.94595e-05
8.78583e-06 -2.94595e-05 -0.000133917
0.0134056 -0.00162003 -1.13111e-05
-0.00162003 0.00387877 -0.000131084
-1.13111e-05 -0.000131084 0.00339504
0.0041708 0.000450528 0.000162072
0.000450528 0.00199694 7.78547e-05
0.000162072 7.78547e-05 -0.00128151
0.0100457 -0.00115695 6.64016e-05
-0.00115695 0.0015396 1.87543e-05
6.64016e-05 1.87543e-05 0.0028033
0.000818659 0.000211932 1.7369e-06
0.000211932 0.000343401 -2.21675e-06
1.7369e-06 -2.21675e-06 0.000194999
0.003533 0.000116096 1.13509e-05
0.000116096 0.0016649 1.05659e-06
1.13509e-05 1.05659e-06 5.78505e-05
0.000609651 0.000139447 1.83893e-05
0.000139447 9.89314e-05 1.04702e-05
1.83893e-05 1.04702e-05 -0.00150088
-0.000318323 0.000223402 -6.53998e-06
0.000223402 -0.000171323 -1.70392e-06
-6.53998e-06 -1.70392e-06 -0.000380469
0.00206455 0.000641738 -7.98142e-05
0.000641738 0.00105969 -3.96365e-05
-7.98142e-05 -3.96365e-05 0.000168769
0.00285508 0.00184048 8.77134e-05
0.00184048 0.0010182 6.13627e-05
8.77134e-05 6.13627e-05 -0.0023002
0.00615827 0.000175901 -1.14797e-05
0.000175901 -0.0025819 -0.000123616
-1.14797e-05 -0.000123616 -0.000187889
0.00231004 -0.00134572 -3.72562e-05
-0.00134572 0.000663689 -5.21704e-05
-3.72562e-05 -5.21704e-05 -0.00125289
0.000944464 0.000170554 -5.7883e-06
0.000170554 0.000611845 -1.23973e-05
-5.7883e-06 -1.23973e-05 0.000439541
0.000197805 -5.27335e-05 -2.44884e-06
-5.27335e-05 8.96956e-06 -6.88195e-06
-2.44884e-06 -6.88195e-06 4.42453e-05
0.00282043 2.14237e-05 3.26621e-05
2.14237e-05 0.000227241 -9.12101e-05
3.26621e-05 -9.12101e-05 -0.000895748
0.00439635 0.00096011 0.000101346
0.00096011 -0.00282394 -1.1601e-05
0.000101346 -1.1601e-05 -0.00173145
-0.000756616 0.000118764 -2.03812e-06
0.000118764 1.05377e-05 -1.87157e-05
-2.03812e-06 -1.87157e-05 -0.00053469
0.0106403 0.00140478 0.000137099
0.00140478 0.00518898 5.0199e-05
0.000137099 5.0199e-05 0.00140369
-0.0085994 -0.000388007 7.39155e-05
-0.000388007 -0.000373036 0.000216711
7.39155e-05 0.000216711 -0.00248946
0.00222367 0.00024283 1.89365e-05
0.00024283 0.00110746 1.25606e-05
1.89365e-05 1.25606e-05 0.000966875
0.000661184 0.000133062 -4.48412e-06
0.000133062 0.000326888 -1.81907e-06
-4.48412e-06 -1.81907e-06 0.000119256
-1.63219e-05 6.4508e-05 -1.83954e-06
6.4508e-05 0.000150075 -1.34629e-06
-1.83954e-06 -1.34629e-06 -8.51952e-05
0.000732933 0.000137142 5.30683e-07
0.000137142 0.000133887 9.82669e-07
5.30683e-07 9.82669e-07 -8.91187e-06
0.000693612 6.73927e-05 1.2025e-06
6.73927e-05 0.000100454 2.19146e-06
1.2025e-06 2.19146e-06 -1.49698e-05
0.000692399 3.44746e-07 7.10867e-06
3.44746e-07 0.000336607 7.15892e-06
7.10867e-06 7.15892e-06 0.000142907
0.000656066 4.5718e-05 -2.69137e-07
4.5718e-05 8.2203e-05 -3.68171e-07
-2.69137e-07 -3.68171e-07 -4.67907e-05
0.000812776 -1.86739e-05 -1.56581e-06
-1.86739e-05 0.000328858 -2.09557e-06
-1.56581e-06 -2.09557e-06 0.000173253
-0.000353394 3.09662e-05 3.51555e-06
3.09662e-05 -7.48466e-05 5.51389e-06
3.51555e-06 5.51389e-06 -0.000341055
0.000659519 4.42371e-06 -6.82352e-06
4.42371e-06 0.000399686 -6.14102e-06
-6.82352e-06 -6.14102e-06 0.000267019
0.000219176 -4.15639e-05 -3.68993e-06
-4.15639e-05 -2.9389e-05 -8.15305e-06
-3.68993e-06 -8.15305e-06 -0.000163809
0.000583385 -5.07941e-05 3.05274e-06
-5.07941e-05 3.38217e-05 4.12767e-06
3.05274e-06 4.12767e-06 -6.82129e-05
0.000793073 3.65683e-06 -9.26737e-07
3.65683e-06 0.000158955 4.32689e-08
-9.26737e-07 4.32689e-08 5.19967e-05
0.000955401 -2.55932e-05 -7.06177e-06
-2.55932e-05 0.000254542 4.92583e-06
-7.06177e-06 4.92583e-06 0.000166293
0.000653105 -4.80051e-05 3.92837e-06
-4.80051e-05 0.00013467 -4.63772e-07
3.92837e-06 -4.63772e-07 5.13802e-05
0.000590358 -1.74806e-05 -9.32406e-07
-1.74806e-05 2.76815e-05 1.39321e-07
-9.32406e-07 1.39321e-07 -6.82957e-05
0.000778014 -9.28891e-05 3.22811e-06
-9.28891e-05 0.000166659 -4.11038e-07
3.22811e-06 -4.11038e-07 6.85423e-05
0.000400095 -9.0656e-05 -2.50862e-06
-9.0656e-05 -0.000132403 -1.06476e-06
-2.50862e-06 -1.06476e-06 -0.000214656
-0.000232216 -0.000159669 7.99066e-06
-0.000159669 -0.000479152 1.43514e-06
7.99066e-06 1.43514e-06 -0.000661007
0.000835326 -9.23795e-05 -6.46092e-07
-9.23795e-05 0.000156225 1.21443e-06
-6.46092e-07 1.21443e-06 4.86952e-05
0.0011725 -0.000173868 -7.25239e-07
-0.000173868 0.000341913 2.85834e-06
-7.25239e-07 2.85834e-06 0.000183914
0.000885879 -0.000253488 -4.10807e-06
-0.000253488 0.000100564 4.91921e-06
-4.10807e-06 4.91921e-06 -0.000128526
0.000968366 -0.000238115 -4.24896e-06
-0.000238115 0.000147618 4.37258e-07
-4.24896e-06 4.37258e-07 -7.81949e-05
0.00103424 -0.000192686 -2.24238e-06
-0.000192686 0.000326121 4.68365e-06
-2.24238e-06 4.68365e-06 0.000141018
0.00035774 -0.000163109 2.17097e-06
-0.000163109 -0.00016514 -3.34471e-08
2.17097e-06 -3.34471e-08 -0.000373451
0.000941478 -7.95241e-05 1.28803e-06
-7.95241e-05 0.000251879 -4.80206e-07
1.28803e-06 -4.80206e-07 0.00012538
0.00104104 -0.000117853 -1.5338e-06
-0.000117853 0.000326969 -3.76461e-07
-1.5338e-06 -3.76461e-07 0.000182123
0.00045104 -0.000102628 4.23588e-06
-0.000102628 -2.9419e-05 -1.08299e-05
4.23588e-06 -1.08299e-05 -0.000181203
0.000951637 -3.10413e-05 -3.81413e-07
-3.10413e-05 0.000235409 -1.00857e-07
-3.81413e-07 -1.00857e-07 0.000126185
0.000476544 -1.20569e-05 3.7001e-07
-1.20569e-05 -2.03642e-05 -1.36424e-07
3.7001e-07 -1.36424e-07 -0.000128855
0.000608895 -1.10417e-05 -3.25627e-07
-1.10417e-05 3.55605e-05 7.46819e-07
-3.25627e-07 7.46819e-07 -5.19223e-05
0.000794747 -5.83851e-05 -2.43582e-07
-5.83851e-05 0.000174216 1.5791e-07
-2.43582e-07 1.5791e-07 5.75167e-05
0.000672604 -3.66316e-05 -9.57188e-08
-3.66316e-05 8.15941e-05 5.40542e-08
-9.57188e-08 5.40542e-08 -7.32147e-06
0.000585421 2.88361e-05 -3.95614e-07
2.88361e-05 7.66069e-06 2.00585e-06
-3.95614e-07 2.00585e-06 -5.24874e-05
0.000735045 -6.99686e-05 5.41013e-07
-6.99686e-05 0.000123924 -1.34317e-06
5.41013e-07 -1.34317e-06 3.23746e-05
0.000609744 2.03306e-05 -1.02044e-06
2.03306e-05 1.74818e-05 -7.16188e-08
-1.02044e-06 -7.16188e-08 -3.91396e-05
0.00133689 4.46325e-05 -8.5569e-06
4.46325e-05 0.000435301 3.74586e-06
-8.5569e-06 3.74586e-06 0.000420693
0.000645953 -2.58079e-05 2.30561e-06
-2.58079e-05 3.6956e-05 -2.28205e-06
2.30561e-06 -2.28205e-06 -1.74703e-05
0.000935944 2.82417e-05 -4.68428e-06
2.82417e-05 0.000192301 6.29173e-07
-4.68428e-06 6.29173e-07 0.000176891
0.000799111 3.2289e-05 -9.34862e-07
3.2289e-05 0.000114112 2.21858e-06
-9.34862e-07 2.21858e-06 0.000118864
0.0005244 1.42596e-05 8.01268e-07
1.42596e-05 -5.55036e-05 -4.1748e-06
8.01268e-07 -4.1748e-06 -7.19869e-05
0.00157552 3.48893e-05 7.98539e-06
3.48893e-05 0.000576786 -1.35317e-06
7.98539e-06 -1.35317e-06 0.000586702
0.00236208 3.10984e-05 7.9296e-06
3.10984e-05 0.00104653 -5.09802e-06
7.9296e-06 -5.09802e-06 0.00106114
0.000435735 6.39028e-06 9.85061e-07
6.39028e-06 -5.06725e-05 -4.69302e-07
9.85061e-07 -4.69302e-07 -0.00015536
0.00030818 5.03695e-06 2.91134e-09
5.03695e-06 -0.000159271 -3.24934e-06
2.91134e-09 -3.24934e-06 -0.000211593
0.000732674 2.17955e-05 1.73504e-08
2.17955e-05 0.000121038 1.21539e-07
1.73504e-08 1.21539e-07 3.10471e-05
0.00057102 -6.88947e-06 3.77931e-07
-6.88947e-06 -3.10221e-05 -3.64651e-06
3.77931e-07 -3.64651e-06 -4.0569e-05
0.000440278 2.62268e-06 1.1618e-06
2.62268e-06 -8.17828e-05 -6.9191e-08
1.1618e-06 -6.9191e-08 -0.000126465
0.000429848 -8.23307e-05 -1.4666e-06
-8.23307e-05 -5.70444e-05 7.76724e-07
-1.4666e-06 7.76724e-07 -0.000141221
0.00209066 -1.11453e-05 -6.46403e-06
-1.11453e-05 0.000881077 -4.78558e-06
-6.46403e-06 -4.78558e-06 0.000899727
0.00057097 -2.28317e-06 -1.03031e-07
-2.28317e-06 -3.14306e-05 -4.55147e-08
-1.03031e-07 -4.55147e-08 -3.91447e-05
0.000567826 -1.46888e-05 -1.69201e-06
-1.46888e-05 -5.26804e-06 1.86441e-06
-1.69201e-06 1.86441e-06 -4.52957e-05
0.00203864 3.45635e-06 -3.93684e-06
3.45635e-06 0.000850043 1.26451e-08
-3.93684e-06 1.26451e-08 0.000869185
0.000554048 2.556e-06 -4.9229e-07
2.556e-06 -4.13742e-05 3.27518e-06
-4.9229e-07 3.27518e-06 -4.82841e-05
0.00202801 1.76834e-05 -2.29648e-06
1.76834e-05 0.000845197 4.5299e-06
-2.29648e-06 4.5299e-06 0.000863921
0.000358676 -0.000207995 -0.000106338
-0.000207995 -0.000195315 3.11464e-05
-0.000106338 3.11464e-05 -0.00183617
0.00140701 0.000180232 -3.31264e-05
0.000180232 0.00377943 -6.5688e-06
-3.31264e-05 -6.5688e-06 0.00216545
0.00106027 -0.000341152 -0.000301424
-0.000341152 0.00213721 1.24087e-05
-0.000301424 1.24087e-05 0.00111818
0.000759105 8.43731e-05 2.07227e-06
8.43731e-05 0.000143853 6.35846e-07
2.07227e-06 6.35846e-07 9.98671e-06
0.00353724 -0.000283784 -2.70767e-05
-0.000283784 0.00235489 0.000102825
-2.70767e-05 0.000102825 0.000956595
0.00364597 -0.000503608 -0.000113645
-0.000503608 0.00129414 8.04076e-06
-0.000113645 8.04076e-06 -0.00170734
0.00278182 0.000790825 0.000206912
0.000790825 0.00365172 -0.000174868
0.000206912 -0.000174868 0.00230974
0.00410804 -0.000271653 3.2786e-05
-0.000271653 0.000248077 -3.58914e-05
3.2786e-05 -3.58914e-05 -2.82166e-05
0.0117516 -0.000542142 0.0001277
-0.000542142 0.00293216 -6.58007e-05
0.0001277 -6.58007e-05 0.00131355
-0.00148873 0.00184649 -0.000158317
0.00184649 -0.00349527 0.0001702
-0.000158317 0.0001702 -0.00297541
0.00586583 0.00182563 3.68068e-05
0.00182563 0.000354199 5.54574e-05
3.68068e-05 5.54574e-05 -2.70358e-05
0.00499005 -0.000888878 -9.15644e-05
-0.000888878 0.000211637 -1.56049e-06
-9.15644e-05 -1.56049e-06 -0.000117105
0.0112282 -0.00100008 5.67417e-05
-0.00100008 0.00394297 -1.50756e-05
5.67417e-05 -1.50756e-05 0.00178396
0.00711496 0.00120211 7.73131e-05
0.00120211 0.000744994 -0.000138682
7.73131e-05 -0.000138682 0.000117561
0.00600356 0.000853245 -8.66959e-07
0.000853245 -0.00158294 1.28183e-05
-8.66959e-07 1.28183e-05 -0.000663314
0.00346459 -0.00132684 1.85844e-05
-0.00132684 0.000190749 4.06012e-06
1.85844e-05 4.06012e-06 -0.000552477
0.0115735 -0.00160178 0.000101657
-0.00160178 0.00539128 -5.39991e-05
0.000101657 -5.39991e-05 0.00165581
0.00392324 -0.000112277 7.66497e-05
-0.000112277 0.000670667 -0.000209188
7.66497e-05 -0.000209188 -4.974e-06
0.00774411 0.000442503 -5.14689e-05
0.000442503 -0.000964972 0.000117499
-5.14689e-05 0.000117499 0.000967576
0.000703839 -2.15949e-05 1.60825e-06
-2.15949e-05 0.000141164 2.436e-06
1.60825e-06 2.436e-06 -1.7786e-05
0.000836229 -6.66115e-05 -2.66671e-07
-6.66115e-05 0.000236653 -5.47381e-08
-2.66671e-07 -5.47381e-08 7.68524e-05
0.000801894 0.000101407 -3.12326e-07
0.000101407 0.000194442 -2.58633e-06
-3.12326e-07 -2.58633e-06 6.9439e-05
0.000725417 5.14027e-05 9.70892e-07
5.14027e-05 0.000113759 2.99245e-06
9.70892e-07 2.99245e-06 -1.73947e-05
0.00079551 9.99383e-05 -4.59102e-07
9.99383e-05 0.000190994 7.27202e-07
-4.59102e-07 7.27202e-07 4.10449e-05
0.000890164 6.23374e-05 -1.96835e-06
6.23374e-05 0.000246309 -4.20095e-07
-1.96835e-06 -4.20095e-07 0.000120898
0.000995628 0.000123526 -9.70926e-07
0.000123526 0.000303761 -8.75711e-08
-9.70926e-07 -8.75711e-08 0.000165469
0.00097861 0.000131033 7.40603e-07
0.000131033 0.000307417 2.33968e-06
7.40603e-07 2.33968e-06 0.000170317
0.000410278 -0.000258083 5.44955e-05
-0.000258083 -0.000607113 -2.19267e-05
5.44955e-05 -2.19267e-05 -0.000614769
0.00190308 -0.000522317 1.18878e-05
-0.000522317 0.00027286 -1.05616e-05
1.18878e-05 -1.05616e-05 0.000217451
0.000932776 -0.000183256 -8.37905e-07
-0.000183256 0.000302521 -3.94915e-06
-8.37905e-07 -3.94915e-06 0.000120787
0.0017157 -0.000408332 1.78849e-05
-0.000408332 0.000696399 -2.32014e-05
1.78849e-05 -2.32014e-05 0.000417089
0.00227793 -0.000220354 -5.38099e-06
-0.000220354 0.0011623 4.41108e-06
-5.38099e-06 4.41108e-06 0.00089474
0.0010383 -8.11028e-05 -1.79393e-06
-8.11028e-05 0.000349312 -6.27212e-06
-1.79393e-06 -6.27212e-06 0.000174384
0.000516708 -1.06396e-05 8.80519e-07
-1.06396e-05 2.97766e-05 2.83308e-06
8.80519e-07 2.83308e-06 -0.000128739
0.000239601 -0.000553736 -5.33337e-06
-0.000553736 -0.000689422 -8.95358e-07
-5.33337e-06 -8.95358e-07 -0.000656717
0.00127893 4.74064e-05 3.36961e-07
4.74064e-05 0.000583175 4.05552e-07
3.36961e-07 4.05552e-07 0.00034484
0.000919826 -0.000180381 -1.39751e-05
-0.000180381 0.000408532 3.38913e-06
-1.39751e-05 3.38913e-06 0.000129384
0.000561487 -0.000207789 1.24717e-05
-0.000207789 6.04225e-05 3.50219e-06
1.24717e-05 3.50219e-06 -1.58905e-05
0.00103078 7.00092e-05 2.01038e-06
7.00092e-05 0.000303019 -2.4698e-06
2.01038e-06 -2.4698e-06 0.000164373
0.00112835 -0.000477202 1.95247e-05
-0.000477202 -5.54892e-05 -3.77918e-05
1.95247e-05 -3.77918e-05 8.90259e-05
-0.000137992 -0.000114378 1.23469e-05
-0.000114378 -4.9795e-05 2.12342e-05
1.23469e-05 2.12342e-05 -0.000173007
-0.000308108 4.89957e-05 4.98925e-06
4.89957e-05 -9.35562e-05 7.79161e-06
4.98925e-06 7.79161e-06 -0.000478392
0.00137494 0.000201568 2.40924e-06
0.000201568 0.000583686 -4.19921e-06
2.40924e-06 -4.19921e-06 0.000402184
0.000319753 -8.58078e-06 -7.78532e-07
-8.58078e-06 0.000733859 -9.14624e-06
-7.78532e-07 -9.14624e-06 9.23029e-05
0.00124191 -4.8344e-05 8.56995e-05
-4.8344e-05 0.00101136 -1.15584e-05
8.56995e-05 -1.15584e-05 -0.000906862
-0.00588666 -6.72317e-05 -0.000153858
-6.72317e-05 0.00240511 6.17082e-06
-0.000153858 6.17082e-06 -0.000583281
0.00108623 0.000220583 1.48916e-05
0.000220583 0.000559739 4.34435e-06
1.48916e-05 4.34435e-06 0.000402584
-0.00132837 0.000273835 5.79772e-06
0.000273835 -0.000743919 1.00089e-05
5.79772e-06 1.00089e-05 -0.00102116
0.00407683 0.000108235 9.80161e-05
0.000108235 0.0021257 5.04214e-06
9.80161e-05 5.04214e-06 0.000868635
0.00770738 0.000977339 0.000157433
0.000977339 0.00345969 8.36968e-05
0.000157433 8.36968e-05 -9.21093e-05
0.0033497 0.000938647 -0.000110253
0.000938647 0.00162327 -8.74247e-05
-0.000110253 -8.74247e-05 0.00053774
0.00471117 -0.000890067 -2.3634e-05
-0.000890067 0.0016138 -0.00022889
-2.3634e-05 -0.00022889 -3.92999e-05
0.00103448 0.000161147 5.59931e-05
0.000161147 0.00015746 0.000126607
5.59931e-05 0.000126607 -0.00142272
0.00444433 -5.00385e-05 -1.5778e-05
-5.00385e-05 -0.00422098 -0.000125623
-1.5778e-05 -0.000125623 -0.00140664
0.000678802 0.00018691 5.90616e-07
0.00018691 0.000462524 -2.20664e-06
5.90616e-07 -2.20664e-06 0.000271756
0.000165692 -5.12736e-05 9.38655e-07
-5.12736e-05 9.17636e-06 -1.18448e-06
9.38655e-07 -1.18448e-06 2.23997e-05
0.00287813 4.99765e-05 4.12786e-05
4.99765e-05 0.000375023 1.75542e-05
4.12786e-05 1.75542e-05 -0.000340083
-0.000955122 0.000170437 -8.4356e-06
0.000170437 -0.000337416 -5.61543e-06
-8.4356e-06 -5.61543e-06 -0.000777872
0.00619023 0.000941377 1.94189e-06
0.000941377 -0.0015232 -1.27665e-05
1.94189e-06 -1.27665e-05 -0.000656888
0.00486078 0.0010426 0.000124296
0.0010426 0.00310608 6.32049e-05
0.000124296 6.32049e-05 -0.000884465
0.00357988 0.000442765 -7.81717e-05
0.000442765 0.0024558 6.24379e-06
-7.81717e-05 6.24379e-06 0.00100962
0.000401335 0.000208245 -1.58815e-05
0.000208245 0.000330915 -1.60174e-05
-1.58815e-05 -1.60174e-05 5.96221e-05
0.00165199 7.28098e-05 1.0924e-05
7.28098e-05 -0.000245112 -1.51163e-05
1.0924e-05 -1.51163e-05 -3.20138e-05
0.00361449 -0.000235535 3.17459e-05
-0.000235535 0.00235838 -0.000104529
3.17459e-05 -0.000104529 0.00101316
0.00774556 0.0018352 0.000208352
0.0018352 0.00101295 -0.00013841
0.000208352 -0.00013841 0.00102465
0.0065569 -0.000141483 -9.29935e-05
-0.000141483 0.00158479 0.000206473
-9.29935e-05 0.000206473 0.00107595
0.000959937 0.000177398 -3.43117e-06
0.000177398 0.000187585 -7.08112e-05
-3.43117e-06 -7.08112e-05 3.75127e-05
-0.000618854 0.00109591 0.000126788
0.00109591 0.00278637 3.06343e-05
0.000126788 3.06343e-05 -0.00318592
0.00109855 0.000196235 3.78138e-06
0.000196235 0.000535822 1.68855e-05
3.78138e-06 1.68855e-05 0.000330009
0.000140849 9.93454e-05 2.70731e-06
9.93454e-05 0.000229215 1.1752e-06
2.70731e-06 1.1752e-06 -9.40847e-06
0.000999348 1.16391e-07 -8.33326e-06
1.16391e-07 0.000754895 -1.06821e-05
-8.33326e-06 -1.06821e-05 0.000603577
0.000357118 -2.34804e-05 1.30574e-06
-2.34804e-05 -0.000107456 4.15451e-06
1.30574e-06 4.15451e-06 -0.000222715
0.000667026 -1.97572e-05 2.10631e-06
-1.97572e-05 0.000245952 5.59845e-06
2.10631e-06 5.59845e-06 9.04491e-05
0.000604648 -1.43618e-05 2.78234e-06
-1.43618e-05 0.000440353 -2.43123e-06
2.78234e-06 -2.43123e-06 0.000183774
0.000548591 -6.04987e-05 3.5939e-07
-6.04987e-05 0.000135806 -1.51338e-07
3.5939e-07 -1.51338e-07 1.82423e-05
0.000119781 -1.27e-05 5.94526e-07
-1.27e-05 8.09416e-05 1.93207e-06
5.94526e-07 1.93207e-06 -5.35526e-05
0.00126013 -0.00022284 8.4692e-06
-0.00022284 0.000679214 -9.53936e-06
8.4692e-06 -9.53936e-06 0.000490884
0.00123493 -6.66247e-05 -1.25471e-06
-6.66247e-05 0.000465089 3.79076e-06
-1.25471e-06 3.79076e-06 0.000379167
6.14354e-05 -1.66876e-06 -1.2114e-06
-1.66876e-06 -0.000274099 1.91298e-06
-1.2114e-06 1.91298e-06 -0.000369659
0.00143348 -0.000155193 1.57462e-06
-0.000155193 0.000537768 2.02186e-06
1.57462e-06 2.02186e-06 0.000427071
-0.000771189 -0.000123419 5.66677e-06
-0.000123419 -0.000634586 1.12189e-06
5.66677e-06 1.12189e-06 -0.000860335
0.000373478 -7.07279e-05 -5.6329e-06
-7.07279e-05 -0.000113905 9.5915e-07
-5.6329e-06 9.5915e-07 -0.000181207
2.76582e-05 -0.000164886 2.7057e-06
-0.000164886 -0.000334287 -1.03918e-06
2.7057e-06 -1.03918e-06 -0.000502039
0.00109559 -0.000302412 1.04771e-05
-0.000302412 0.000193196 -3.7806e-06
1.04771e-05 -3.7806e-06 -7.22492e-05
0.00132903 -0.000340108 -4.09398e-06
-0.000340108 0.000214946 3.15609e-06
-4.09398e-06 3.15609e-06 -5.5119e-05
0.00183416 -0.000242706 -2.34204e-06
-0.000242706 0.00071926 3.49171e-07
-2.34204e-06 3.49171e-07 0.000546552
0.000977271 -0.000262978 -3.50985e-07
-0.000262978 0.000126413 4.53204e-07
-3.50985e-07 4.53204e-07 -0.000114763
0.00225996 -0.000370537 3.0293e-06
-0.000370537 0.000877347 -1.25968e-06
3.0293e-06 -1.25968e-06 0.000639914
0.000232787 -0.000137313 -1.48028e-06
-0.000137313 -0.000198561 2.42294e-06
-1.48028e-06 2.42294e-06 -0.000398452
0.000986214 -0.000235696 -2.96457e-07
-0.000235696 0.000164776 -5.05722e-07
-2.96457e-07 -5.05722e-07 -5.74832e-05
0.000544328 -7.08119e-05 2.44137e-07
-7.08119e-05 2.94128e-05 -1.34685e-06
2.44137e-07 -1.34685e-06 -0.000121153
0.00105742 -0.000205575 -4.02702e-06
-0.000205575 0.000342144 2.38277e-06
-4.02702e-06 2.38277e-06 0.000153256
-0.0004775 -7.69986e-05 -2.38779e-06
-7.69986e-05 -0.00065083 -4.14142e-06
-2.38779e-06 -4.14142e-06 -0.000843114
0.000537778 8.0335e-06 8.80847e-07
8.0335e-06 1.20105e-06 1.16046e-06
8.80847e-07 1.16046e-06 -0.000101184
0.000686231 -6.23678e-05 6.4767e-07
-6.23678e-05 0.000110411 -7.67272e-08
6.4767e-07 -7.67272e-08 -1.75146e-05
0.000761367 -0.000109686 3.83209e-06
-0.000109686 0.000171177 -2.5809e-06
3.83209e-06 -2.5809e-06 2.18152e-05
0.000622666 -2.33262e-05 1.63954e-07
-2.33262e-05 6.76144e-05 -3.31426e-07
1.63954e-07 -3.31426e-07 -4.32546e-05
0.000688375 -2.36624e-05 -6.44496e-07
-2.36624e-05 9.23542e-05 -1.21771e-07
-6.44496e-07 -1.21771e-07 -3.1315e-06
0.000574285 3.28737e-05 -3.8369e-07
3.28737e-05 2.40177e-06 2.50509e-06
-3.8369e-07 2.50509e-06 -6.243e-05
0.000758828 -4.93697e-05 4.73915e-07
-4.93697e-05 0.000139935 -8.38022e-07
4.73915e-07 -8.38022e-07 4.46921e-05
0.000610133 2.52218e-05 -8.93674e-07
2.52218e-05 2.0726e-05 -1.50795e-07
-8.93674e-07 -1.50795e-07 -3.88745e-05
0.00054387 4.14542e-05 -1.0103e-06
4.14542e-05 -3.3578e-05 4.29556e-06
-1.0103e-06 4.29556e-06 -5.45166e-05
0.000677399 -1.73099e-05 2.18295e-06
-1.73099e-05 5.35122e-05 -2.12054e-06
2.18295e-06 -2.12054e-06 -9.8697e-07
0.000551494 3.18798e-05 1.67616e-07
3.18798e-05 -3.60163e-05 -2.40537e-09
1.67616e-07 -2.40537e-09 -5.43978e-05
0.00227569 7.631e-05 -3.93082e-06
7.631e-05 0.00100609 1.94584e-06
-3.93082e-06 1.94584e-06 0.0010156
0.00052586 2.35173e-05 9.41588e-07
2.35173e-05 -5.37064e-05 -4.27319e-06
9.41588e-07 -4.27319e-06 -7.10772e-05
0.00158145 4.64546e-05 9.51011e-06
4.64546e-05 0.000584167 -1.15635e-06
9.51011e-06 -1.15635e-06 0.00059261
0.00237316 4.55117e-05 1.27089e-05
4.55117e-05 0.001056 -4.92102e-06
1.27089e-05 -4.92102e-06 0.00106943
0.00037903 5.26301e-06 8.09147e-07
5.26301e-06 -9.86866e-05 -1.77507e-06
8.09147e-07 -1.77507e-06 -0.000198963
0.000328812 1.23341e-06 3.12834e-07
1.23341e-06 -0.000149282 -2.80715e-06
3.12834e-07 -2.80715e-06 -0.000208767
0.000561443 1.71885e-05 -4.42537e-07
1.71885e-05 2.29183e-05 -1.09547e-06
-4.42537e-07 -1.09547e-06 -7.86558e-05
0.000574007 -1.25161e-05 5.86801e-07
-1.25161e-05 -2.78773e-05 -3.91164e-06
5.86801e-07 -3.91164e-06 -4.01557e-05
0.000295876 3.98807e-06 -4.53942e-07
3.98807e-06 -0.000167066 -1.26229e-06
-4.53942e-07 -1.26229e-06 -0.000220382
0.000732204 3.18963e-05 -3.03541e-07
3.18963e-05 0.000129817 1.61373e-06
-3.03541e-07 1.61373e-06 3.42713e-05
0.00214081 -2.42638e-05 -1.12325e-05
-2.42638e-05 0.0009118 -4.73005e-06
-1.12325e-05 -4.73005e-06 0.000929534
0.00056618 -7.35503e-06 -2.37893e-07
-7.35503e-06 -3.39534e-05 -4.86251e-08
-2.37893e-07 -4.86251e-08 -4.33425e-05
0.000261869 4.14744e-06 6.65321e-07
4.14744e-06 -0.000186379 1.7995e-06
6.65321e-07 1.7995e-06 -0.000233658
0.00206677 -9.64043e-06 -3.65441e-06
-9.64043e-06 0.000866533 4.32516e-08
-3.65441e-06 4.32516e-08 0.000885433
0.000561953 -2.3923e-06 -4.56705e-07
-2.3923e-06 -3.69488e-05 3.43639e-06
-4.56705e-07 3.43639e-06 -4.45213e-05
0.00205702 4.89431e-06 2.30522e-06
4.89431e-06 0.00086121 4.67045e-06
2.30522e-06 4.67045e-06 0.000880205
0.000740768 -3.42606e-06 1.65661e-05
-3.42606e-06 0.00050563 7.87944e-06
1.65661e-05 7.87944e-06 0.000392472
0.000746038 -0.000146451 -1.45907e-06
-0.000146451 0.000119851 -1.23736e-05
-1.45907e-06 -1.23736e-05 -0.00162775
0.00150825 8.84282e-05 2.9911e-05
8.84282e-05 0.00380188 -3.05473e-05
2.9911e-05 -3.05473e-05 0.00238043
0.000738121 9.08206e-05 -1.49176e-07
9.08206e-05 0.000124116 3.56812e-07
-1.49176e-07 3.56812e-07 -1.47805e-06
0.000545412 6.44811e-05 1.72072e-06
6.44811e-05 -5.34005e-06 -5.63223e-07
1.72072e-06 -5.63223e-07 -0.000123539
0.000967972 0.000129974 2.89735e-06
0.000129974 0.000261241 2.74851e-06
2.89735e-06 2.74851e-06 0.000125763
0.00282344 -5.48075e-05 1.56566e-06
-5.48075e-05 7.98169e-05 0.000168084
1.56566e-06 0.000168084 -0.000838686
0.00351587 -0.000253575 1.34391e-05
-0.000253575 0.00235766 -4.23398e-06
1.34391e-05 -4.23398e-06 0.00112174
0.00396962 -0.000562379 6.65545e-05
-0.000562379 0.0015366 -0.000128764
6.65545e-05 -0.000128764 -0.00168857
0.00597575 -0.00106183 -9.22975e-05
-0.00106183 0.000726108 -2.18679e-06
-9.22975e-05 -2.18679e-06 0.000425344
0.00223566 -0.00101286 -0.000138344
-0.00101286 -0.000106216 8.53786e-05
-0.000138344 8.53786e-05 -0.00275199
0.0122088 0.00170172 0.00010853
0.00170172 0.0042895 4.9323e-05
0.00010853 4.9323e-05 0.00338019
0.00321966 0.000254356 8.53791e-05
0.000254356 -0.00309571 -0.000104091
8.53791e-05 -0.000104091 -0.00235022
0.00534091 -0.00150722 -1.80423e-05
-0.00150722 0.00115184 4.81871e-06
-1.80423e-05 4.81871e-06 0.00055383
0.00644868 -0.00133479 -2.95931e-05
-0.00133479 0.00300048 2.18764e-05
-2.95931e-05 2.18764e-05 -0.00047521
-0.00310286 0.0013118 -3.68443e-05
0.0013118 0.000234625 -0.000140942
-3.68443e-05 -0.000140942 -0.00190977
0.00603933 0.000131006 -1.88458e-05
0.000131006 -0.00262908 5.71625e-05
-1.88458e-05 5.71625e-05 -0.000207851
0.00148887 -0.000872897 -4.02991e-05
-0.000872897 0.000183974 -1.60882e-05
-4.02991e-05 -1.60882e-05 -0.000335049
0.0113239 -0.00158296 -8.12145e-05
-0.00158296 0.00501805 6.06788e-05
-8.12145e-05 6.06788e-05 0.00113781
-0.00883443 -0.000118022 3.88834e-05
-0.000118022 -0.000179968 -0.000206053
3.88834e-05 -0.000206053 -0.00258029
0.00464814 -0.000971063 4.5305e-05
-0.000971063 -0.00195448 -1.08266e-05
4.5305e-05 -1.08266e-05 -0.00088917
0.000654678 5.7961e-05 1.24598e-06
5.7961e-05 7.72135e-05 8.47837e-06
1.24598e-06 8.47837e-06 -6.34291e-05
0.000691936 -4.88094e-06 1.1115e-06
-4.88094e-06 0.000133818 -9.03626e-07
1.1115e-06 -9.03626e-07 -3.01468e-05
0.00085906 -8.7453e-05 5.21818e-07
-8.7453e-05 0.000240907 -2.78275e-06
5.21818e-07 -2.78275e-06 7.9158e-05
0.000726441 7.04409e-05 -8.7523e-07
7.04409e-05 0.000114325 -5.25866e-07
-8.7523e-07 -5.25866e-07 -1.994e-05
0.000772327 0.000116046 7.23977e-07
0.000116046 0.000179753 -9.16191e-07
7.23977e-07 -9.16191e-07 3.56803e-05
0.00108797 0.00013594 -2.31472e-06
0.00013594 0.000361991 -1.10217e-06
-2.31472e-06 -1.10217e-06 0.000221227
-0.000230255 -0.000522191 1.91726e-05
-0.000522191 -0.000956334 1.03388e-05
1.91726e-05 1.03388e-05 -0.000947932
-0.000976169 -0.000123534 1.70239e-05
-0.000123534 -0.000813976 -1.5835e-05
1.70239e-05 -1.5835e-05 -0.000838595
0.000433425 3.91988e-05 -2.05215e-06
3.91988e-05 -1.44693e-05 -2.4417e-06
-2.05215e-06 -2.4417e-06 -0.000179344
0.00199038 -0.000298982 4.25366e-05
-0.000298982 0.000966673 -3.17245e-05
4.25366e-05 -3.17245e-05 0.000701588
0.00152427 8.47112e-06 -4.42347e-06
8.47112e-06 0.000715616 -2.94484e-06
-4.42347e-06 -2.94484e-06 0.000481054
0.000574564 4.95798e-05 -7.81169e-08
4.95798e-05 4.41555e-05 2.3352e-06
-7.81169e-08 2.3352e-06 -9.82362e-05
0.000660055 0.000119705 4.75534e-07
0.000119705 0.000164412 -1.47303e-06
4.75534e-07 -1.47303e-06 -7.16817e-07
0.000439293 -0.000508182 -1.03531e-06
-0.000508182 -0.000398117 -4.70975e-06
-1.03531e-06 -4.70975e-06 -0.000417187
0.000774507 -1.65977e-05 -1.71001e-06
-1.65977e-05 0.000466099 3.24673e-07
-1.71001e-06 3.24673e-07 0.000156851
0.000118509 -0.000103647 5.901e-06
-0.000103647 0.000148601 -2.0058e-06
5.901e-06 -2.0058e-06 -6.81179e-06
0.000789003 8.92997e-05 4.13253e-06
8.92997e-05 0.000187975 -1.16595e-05
4.13253e-06 -1.16595e-05 5.92292e-05
-0.00233194 5.23581e-05 -6.20735e-05
5.23581e-05 -0.000882547 -1.49807e-05
-6.20735e-05 -1.49807e-05 -0.00134425
-0.000493329 4.29743e-05 2.39932e-05
4.29743e-05 -0.000199415 2.40367e-05
2.39932e-05 2.40367e-05 -0.000356126
0.0013871 2.21392e-05 7.76301e-06
2.21392e-05 0.000756174 2.60197e-06
7.76301e-06 2.60197e-06 0.00051664
0.000816383 -1.30921e-05 -1.13918e-06
-1.30921e-05 -0.000181843 9.80906e-07
-1.13918e-06 9.80906e-07 -0.000671663
0.000123937 -6.4982e-06 -1.43376e-05
-6.4982e-06 0.000508883 -1.28097e-05
-1.43376e-05 -1.28097e-05 -2.34963e-05
0.000619816 -3.90088e-05 0.00018725
-3.90088e-05 0.000755267 -9.76548e-06
0.00018725 -9.76548e-06 -0.00121711
0.000287525 0.00018531 7.45888e-06
0.00018531 0.000233171 1.63759e-05
7.45888e-06 1.63759e-05 2.39894e-05
0.000945408 0.000434411 9.5007e-06
0.000434411 0.000201472 -1.25409e-05
9.5007e-06 -1.25409e-05 -0.000120438
0.000181812 -5.31794e-05 1.12014e-05
-5.31794e-05 -1.2387e-05 2.90117e-06
1.12014e-05 2.90117e-06 -2.52692e-05
-0.00293774 0.000563494 4.2094e-05
0.000563494 0.000462321 7.45338e-05
4.2094e-05 7.45338e-05 -0.00351519
-0.00984866 0.000604269 -9.13111e-05
0.000604269 -0.00361937 -0.000258352
-9.13111e-05 -0.000258352 -0.0059457
0.00282794 5.99034e-05 3.95644e-05
5.99034e-05 0.000526857 6.71726e-05
3.95644e-05 6.71726e-05 0.000138297
0.00343734 0.000324644 -8.77438e-05
0.000324644 -0.00293243 0.000105073
-8.77438e-05 0.000105073 -0.0022356
0.000555689 0.000187921 6.97965e-06
0.000187921 0.000419992 -9.13901e-07
6.97965e-06 -9.13901e-07 0.000186925
0.00145426 6.20306e-06 1.53651e-05
6.20306e-06 -0.000361606 -2.63248e-05
1.53651e-05 -2.63248e-05 -0.000118791
0.0035366 -0.000186874 -1.34566e-05
-0.000186874 0.00234491 3.99257e-06
-1.34566e-05 3.99257e-06 0.00111896
0.00107121 0.000243314 -5.09064e-05
0.000243314 0.000585952 -4.97951e-06
-5.09064e-05 -4.97951e-06 -8.79096e-05
0.00459745 0.00174817 6.90628e-05
0.00174817 -0.00102283 -0.000189686
6.90628e-05 -0.000189686 -0.000899622
-0.00268859 0.00119652 3.56173e-05
0.00119652 -0.00035812 0.000137076
3.56173e-05 0.000137076 -0.0020544
0.00709164 0.000102947 6.05318e-05
0.000102947 0.00571287 -2.67775e-05
6.05318e-05 -2.67775e-05 0.000253954
0.00158479 -6.87088e-05 5.56059e-05
-6.87088e-05 0.00137364 -2.07084e-05
5.56059e-05 -2.07084e-05 0.000871137
0.000829459 2.54175e-05 -1.78206e-05
2.54175e-05 0.000519105 -6.06342e-06
-1.78206e-05 -6.06342e-06 0.000404613
0.00356975 -0.000406175 0.000298626
-0.000406175 0.0010804 -0.000177933
0.000298626 -0.000177933 -0.00166637
0.00601399 0.00231505 1.13618e-06
0.00231505 0.0044776 -8.83863e-06
1.13618e-06 -8.83863e-06 0.00482226
-0.00343453 0.0012973 2.6048e-05
0.0012973 -0.00386517 0.00036391
2.6048e-05 0.00036391 -0.00423684
0.0133497 -0.00153001 0.000129225
-0.00153001 0.00550476 -0.000111216
0.000129225 -0.000111216 0.00157875
0.00311557 -0.000460073 -6.55951e-05
-0.000460073 0.00131874 7.07332e-05
-6.55951e-05 7.07332e-05 0.000953023
0.000776793 0.000163643 8.54055e-06
0.000163643 0.000581529 4.92485e-06
8.54055e-06 4.92485e-06 0.000339966
0.000252554 4.26916e-06 -2.80705e-05
4.26916e-06 0.000288094 1.2493e-06
-2.80705e-05 1.2493e-06 0.00012488
0.00128302 -0.000296287 2.07152e-05
-0.000296287 0.000847258 -7.5651e-06
2.07152e-05 -7.5651e-06 0.000535314
0.000830914 -8.03231e-05 1.40888e-06
-8.03231e-05 0.000279122 3.39085e-06
1.40888e-06 3.39085e-06 0.000176194
-5.69978e-05 -3.28606e-05 1.2889e-06
-3.28606e-05 -2.6157e-05 4.021e-06
1.2889e-06 4.021e-06 -0.000165931
0.000456305 -0.000205227 -9.11548e-07
-0.000205227 0.000270399 -7.61943e-07
-9.11548e-07 -7.61943e-07 8.69691e-05
0.00173333 -0.000363257 2.78131e-05
-0.000363257 0.00082758 -1.86794e-05
2.78131e-05 -1.86794e-05 0.000575895
0.00223181 -0.000219991 -6.4927e-06
-0.000219991 0.000991988 4.27575e-06
-6.4927e-06 4.27575e-06 0.000867634
0.0018416 -0.000370258 4.53922e-06
-0.000370258 0.000760557 -8.25588e-07
4.53922e-06 -8.25588e-07 0.00051371
0.00133317 -0.000349502 1.23836e-05
-0.000349502 0.000495692 1.74289e-06
1.23836e-05 1.74289e-06 8.63969e-05
0.000330527 -0.000162127 -3.00286e-06
-0.000162127 -0.0001677 -6.43843e-07
-3.00286e-06 -6.43843e-07 -0.000317781
0.00146059 -0.000335496 -1.71499e-06
-0.000335496 0.000370283 1.2429e-06
-1.71499e-06 1.2429e-06 9.54162e-05
0.00176044 -0.000432149 -4.38389e-07
-0.000432149 0.00047888 2.26352e-06
-4.38389e-07 2.26352e-06 0.0001174
0.00170341 -0.000449286 -3.75245e-06
-0.000449286 0.000329945 3.33609e-06
-3.75245e-06 3.33609e-06 2.28398e-05
0.0011096 -0.000301859 2.22235e-07
-0.000301859 0.00012464 3.75787e-06
2.22235e-07 3.75787e-06 -0.000121674
0.00132567 -0.000342133 -2.59981e-06
-0.000342133 0.000212996 1.65169e-06
-2.59981e-06 1.65169e-06 -6.16532e-05
0.00111726 -0.000277676 -7.40391e-06
-0.000277676 0.000177967 2.30193e-06
-7.40391e-06 2.30193e-06 -7.59851e-05
0.0017611 -0.000316538 5.23661e-06
-0.000316538 0.000615626 -8.40082e-07
5.23661e-06 -8.40082e-07 0.000389659
0.00154534 -0.000301708 2.91503e-06
-0.000301708 0.000458902 -2.95288e-06
2.91503e-06 -2.95288e-06 0.000237309
4.84273e-06 -6.5582e-05 1.32433e-06
-6.5582e-05 -0.000315549 3.07629e-07
1.32433e-06 3.07629e-07 -0.000492531
0.000825029 -0.000197727 1.91856e-06
-0.000197727 0.000157414 -1.26532e-06
1.91856e-06 -1.26532e-06 -5.10754e-05
0.00108621 -0.000241329 5.72871e-06
-0.000241329 0.000230822 -5.031e-06
5.72871e-06 -5.031e-06 1.09832e-05
0.000300051 6.6984e-06 1.1183e-06
6.6984e-06 -0.000130915 1.67351e-06
1.1183e-06 1.67351e-06 -0.000256504
0.00092061 -0.000109427 -4.38303e-07
-0.000109427 0.000257491 3.92278e-07
-4.38303e-07 3.92278e-07 9.77561e-05
0.00105072 -0.000214917 -1.15227e-06
-0.000214917 0.000341188 -8.6879e-07
-1.15227e-06 -8.6879e-07 0.000149686
0.00062135 1.61759e-05 -1.14471e-06
1.61759e-05 3.14388e-05 2.69618e-06
-1.14471e-06 2.69618e-06 -3.93511e-05
0.000722277 -2.75623e-05 -4.53151e-07
-2.75623e-05 0.000108721 -3.37802e-07
-4.53151e-07 -3.37802e-07 3.73463e-06
0.000485013 -4.43884e-05 2.28453e-08
-4.43884e-05 6.59967e-07 3.40393e-07
2.28453e-08 3.40393e-07 -0.000128442
0.000759373 -4.26113e-05 3.85474e-07
-4.26113e-05 0.000137765 -1.20971e-06
3.85474e-07 -1.20971e-06 3.82907e-05
0.000633767 1.20964e-06 -2.53146e-07
1.20964e-06 3.32183e-05 -1.83184e-07
-2.53146e-07 -1.83184e-07 -2.95708e-05
0.000530614 5.07563e-05 -3.21383e-07
5.07563e-05 -3.2227e-05 4.9014e-06
-3.21383e-07 4.9014e-06 -5.72029e-05
0.000646518 -8.02984e-06 1.79517e-06
-8.02984e-06 3.77835e-05 -2.04946e-06
1.79517e-06 -2.04946e-06 -1.95275e-05
0.000554779 4.35141e-05 -2.16077e-07
4.35141e-05 -2.67538e-05 -5.38291e-08
-2.16077e-07 -5.38291e-08 -4.80544e-05
0.00234355 8.41908e-05 -2.51356e-05
8.41908e-05 0.00105434 3.90128e-06
-2.51356e-05 3.90128e-06 0.00106235
0.000546245 3.28768e-05 9.96534e-07
3.28768e-05 -3.8963e-05 -4.21695e-06
9.96534e-07 -4.21695e-06 -5.74665e-05
0.00156204 5.82306e-05 1.14341e-05
5.82306e-05 0.000578287 -9.91628e-07
1.14341e-05 -9.91628e-07 0.000584946
0.00238459 6.02204e-05 1.67235e-05
6.02204e-05 0.00106732 -4.58261e-06
1.67235e-05 -4.58261e-06 0.00107911
0.000701761 6.75711e-05 6.25635e-07
6.75711e-05 9.96184e-05 -1.06931e-06
6.25635e-07 -1.06931e-06 -7.9121e-06
0.000618036 2.65928e-05 -1.43952e-07
2.65928e-05 2.05537e-05 -2.4348e-06
-1.43952e-07 -2.4348e-06 -4.17616e-05
0.000555084 4.08051e-05 -1.18019e-06
4.08051e-05 1.79491e-05 -1.15431e-06
-1.18019e-06 -1.15431e-06 -9.03194e-05
0.000557844 -1.73935e-05 6.12499e-07
-1.73935e-05 -3.59489e-05 -4.37051e-06
6.12499e-07 -4.37051e-06 -5.1622e-05
0.000435117 1.84582e-05 -1.49989e-06
1.84582e-05 -8.56425e-05 -1.25837e-06
-1.49989e-06 -1.25837e-06 -0.000143944
0.000767303 4.42934e-05 -4.44369e-07
4.42934e-05 0.00014546 -8.71085e-07
-4.44369e-07 -8.71085e-07 4.46077e-05
0.00224279 -3.8365e-05 -1.6004e-05
-3.8365e-05 0.000974614 -4.68862e-06
-1.6004e-05 -4.68862e-06 0.00099065
0.00055961 -1.26082e-05 -1.91007e-07
-1.26082e-05 -3.68425e-05 -7.56631e-08
-1.91007e-07 -7.56631e-08 -4.88491e-05
0.000240715 3.02976e-06 -9.30607e-07
3.02976e-06 -0.000200173 8.58033e-07
-9.30607e-07 8.58033e-07 -0.00025426
0.00214947 -2.31222e-05 -4.11962e-06
-2.31222e-05 0.00091675 9.83739e-08
-4.11962e-06 9.83739e-08 0.000934609
0.000561081 -8.00922e-06 -6.3546e-07
-8.00922e-06 -3.69732e-05 3.50529e-06
-6.3546e-07 3.50529e-06 -4.6245e-05
0.0020807 -8.16717e-06 7.02971e-06
-8.16717e-06 0.000874711 4.72799e-06
7.02971e-06 4.72799e-06 0.000893628
0.00152248 -4.69263e-05 -1.51684e-05
-4.69263e-05 -0.000265726 1.7773e-05
-1.51684e-05 1.7773e-05 -6.28385e-05
0.000771591 -3.757e-05 1.02218e-05
-3.757e-05 0.000466644 -2.09215e-06
1.02218e-05 -2.09215e-06 0.000384911
0.00121251 -0.000134747 0.000110743
-0.000134747 0.000339797 -3.42015e-05
0.000110743 -3.42015e-05 -0.00134994
0.000521443 2.41309e-05 7.25899e-07
2.41309e-05 -3.13974e-05 -5.16097e-07
7.25899e-07 -5.16097e-07 -0.000142238
0.000970582 5.88503e-05 -7.61936e-07
5.88503e-05 0.000229248 5.91631e-07
-7.61936e-07 5.91631e-07 0.000105325
0.000792071 0.000100393 -4.16913e-07
0.000100393 0.000155316 -1.56717e-08
-4.16913e-07 -1.56717e-08 3.3391e-05
0.000569458 4.72861e-05 2.19956e-07
4.72861e-05 1.36969e-06 2.82645e-07
2.19956e-07 2.82645e-07 -0.00011102
0.000687143 6.31051e-05 1.30241e-07
6.31051e-05 9.08583e-05 3.66815e-07
1.30241e-07 3.66815e-07 -3.74573e-05
0.000654946 5.81305e-05 1.45051e-06
5.81305e-05 6.32031e-05 -1.69974e-06
1.45051e-06 -1.69974e-06 -5.88932e-05
0.000653668 0.000149149 4.21792e-06
0.000149149 9.60281e-05 3.53746e-06
4.21792e-06 3.53746e-06 -5.17276e-05
5.01847e-05 7.70771e-05 6.12638e-05
7.70771e-05 -6.36284e-05 0.000165609
6.12638e-05 0.000165609 -0.0014698
0.00271833 -3.82948e-05 -1.10402e-05
-3.82948e-05 0.000374928 5.11748e-05
-1.10402e-05 5.11748e-05 -0.000361372
0.00317193 -0.000182932 3.68909e-05
-0.000182932 0.00223799 -6.82572e-05
3.68909e-05 -6.82572e-05 0.00113166
0.00432102 -0.000119745 -6.78432e-06
-0.000119745 -0.00434762 6.27166e-05
-6.78432e-06 6.27166e-05 -0.00137354
0.00293716 -0.0012228 -9.3524e-05
-0.0012228 0.000915673 6.77019e-05
-9.3524e-05 6.77019e-05 9.96883e-05
-0.00192648 -0.00147973 -3.36001e-05
-0.00147973 -0.000173908 8.46031e-05
-3.36001e-05 8.46031e-05 -0.00419716
0.00908601 0.00194565 7.63266e-05
0.00194565 0.00480328 -5.89523e-05
7.63266e-05 -5.89523e-05 0.0027077
0.00330628 -0.00111026 -2.7924e-05
-0.00111026 0.000861234 4.73385e-06
-2.7924e-05 4.73385e-06 0.000407212
-0.000524467 -0.00052538 2.95281e-05
-0.00052538 0.00170458 2.90422e-05
2.95281e-05 2.90422e-05 -0.00296644
0.00471117 0.000174706 2.27014e-05
0.000174706 0.00254754 -1.08323e-05
2.27014e-05 -1.08323e-05 0.00107631
0.00958226 -0.00131766 -3.35531e-05
-0.00131766 0.00125081 -3.84075e-05
-3.35531e-05 -3.84075e-05 0.00246097
-0.00139801 -4.04191e-05 -0.000153214
-4.04191e-05 -0.00128545 8.10102e-05
-0.000153214 8.10102e-05 -0.00112492
0.000758093 0.00137429 -5.7783e-05
0.00137429 0.00208013 -8.29592e-05
-5.7783e-05 -8.29592e-05 -0.00264595
-0.00653052 -0.00213254 4.94092e-05
-0.00213254 -0.00353698 -0.000140617
4.94092e-05 -0.000140617 -0.00580336
0.00603666 -0.001297 4.46272e-05
-0.001297 -0.000257537 -0.000274141
4.46272e-05 -0.000274141 0.000672891
0.000889158 2.46167e-05 4.93524e-06
2.46167e-05 0.000232295 -5.6961e-07
4.93524e-06 -5.6961e-07 0.000107306
0.000638552 7.18349e-05 5.85307e-09
7.18349e-05 7.56021e-05 -1.27121e-06
5.85307e-09 -1.27121e-06 -6.57908e-05
0.000841947 -9.46307e-06 2.65623e-07
-9.46307e-06 0.000236519 -2.80735e-06
2.65623e-07 -2.80735e-06 5.87185e-05
0.000812117 5.88719e-05 -1.5241e-06
5.88719e-05 0.000176033 -4.76054e-06
-1.5241e-06 -4.76054e-06 3.11634e-05
0.000403761 -0.000435247 -5.61618e-06
-0.000435247 -0.0004199 3.3382e-05
-5.61618e-06 3.3382e-05 -0.000509809
0.00169779 -8.33649e-05 -2.3324e-05
-8.33649e-05 0.00106434 -2.2581e-05
-2.3324e-05 -2.2581e-05 0.000891343
0.00073794 4.25952e-05 -3.31866e-06
4.25952e-05 0.00011988 -4.32343e-06
-3.31866e-06 -4.32343e-06 -3.02528e-06
0.00069118 0.000161685 -1.76717e-06
0.000161685 0.000194719 4.12987e-06
-1.76717e-06 4.12987e-06 2.48902e-05
0.00274994 -3.37116e-05 1.03016e-05
-3.37116e-05 0.00152129 -2.06201e-05
1.03016e-05 -2.06201e-05 0.00129614
0.000934819 7.13956e-05 2.31146e-06
7.13956e-05 0.00026266 3.59291e-06
2.31146e-06 3.59291e-06 0.000142661
0.000628124 0.000117538 -2.65105e-06
0.000117538 0.000350879 -1.24914e-06
-2.65105e-06 -1.24914e-06 8.36299e-05
0.000436825 -3.93809e-05 3.36204e-05
-3.93809e-05 0.00048112 -1.22968e-05
3.36204e-05 -1.22968e-05 -9.42323e-05
0.000201917 2.08275e-05 2.43391e-05
2.08275e-05 0.00022728 -1.02877e-06
2.43391e-05 -1.02877e-06 7.85404e-05
0.000712873 0.000136581 3.82205e-07
0.000136581 0.000342089 -7.38535e-06
3.82205e-07 -7.38535e-06 0.000157929
-0.00046843 -5.86819e-05 -3.37087e-05
-5.86819e-05 0.000450992 -4.60823e-05
-3.37087e-05 -4.60823e-05 -0.00080093
0.00387043 0.000164715 2.65411e-05
0.000164715 0.00215048 2.28774e-05
2.65411e-05 2.28774e-05 0.00191398
0.000346126 8.12098e-06 -5.33364e-06
8.12098e-06 0.000748823 1.31629e-05
-5.33364e-06 1.31629e-05 9.50843e-05
0.0012752 -2.83386e-05 -8.15506e-08
-2.83386e-05 4.05404e-05 6.19013e-07
-8.15506e-08 6.19013e-07 -0.000152958
-3.95618e-05 -8.85753e-06 1.73018e-06
-8.85753e-06 0.000280987 -1.84708e-05
1.73018e-06 -1.84708e-05 -0.000124876
-0.000159658 0.000107088 -7.38862e-07
0.000107088 7.85848e-05 5.53173e-06
-7.38862e-07 5.53173e-06 -0.000114975
-0.00107769 0.000333459 6.43428e-05
0.000333459 -0.000813284 5.25563e-05
6.43428e-05 5.25563e-05 -0.00109862
0.00126959 -2.3798e-05 1.94372e-05
-2.3798e-05 -0.000436103 -6.41614e-06
1.94372e-05 -6.41614e-06 -0.000147412
0.00311601 -0.00118124 0.000131833
-0.00118124 0.00365613 -0.000127443
0.000131833 -0.000127443 -0.00193288
0.00957961 0.00195345 -7.79787e-05
0.00195345 0.00446808 5.58149e-05
-7.79787e-05 5.58149e-05 0.00265731
0.00320207 -0.000120909 -4.18308e-05
-0.000120909 0.0021906 7.09724e-05
-4.18308e-05 7.09724e-05 0.00108482
0.00591748 0.00183031 -2.91209e-05
0.00183031 0.000367202 -5.41096e-05
-2.91209e-05 -5.41096e-05 6.37823e-05
-3.91055e-05 0.000124084 -3.97364e-05
0.000124084 0.000486353 1.02686e-05
-3.97364e-05 1.02686e-05 -7.82265e-05
0.000867048 2.31084e-06 -1.21178e-05
2.31084e-06 0.000464312 2.25037e-06
-1.21178e-05 2.25037e-06 0.000408671
0.00364306 -0.000464386 0.000111084
-0.000464386 0.00120261 -1.01093e-05
0.000111084 -1.01093e-05 -0.00174649
-0.000174016 -0.000199779 1.05727e-05
-0.000199779 -0.000448682 2.53213e-05
1.05727e-05 2.53213e-05 -0.000536666
-0.000507049 0.00249764 0.000160885
0.00249764 0.000869284 -7.76542e-05
0.000160885 -7.76542e-05 0.00173849
0.00723986 0.00118085 -7.19584e-05
0.00118085 0.000585734 0.000138002
-7.19584e-05 0.000138002 0.000130953
-0.00307917 -0.000794598 7.55544e-05
-0.000794598 0.000656621 -7.66895e-05
7.55544e-05 -7.66895e-05 -0.00463475
0.000465421 -0.000172045 4.01171e-05
-0.000172045 0.00045573 -8.49676e-06
4.01171e-05 -8.49676e-06 3.20232e-05
0.000525575 -0.000192949 9.60701e-05
-0.000192949 -0.000208763 -3.22452e-05
9.60701e-05 -3.22452e-05 -0.0018258
-0.00203055 7.1926e-05 -0.000297621
7.1926e-05 0.00233118 2.02636e-05
-0.000297621 2.02636e-05 0.000566117
0.00431574 0.00233737 -0.000231849
0.00233737 0.000523196 0.000304654
-0.000231849 0.000304654 0.000666307
0.008052 -0.000996124 -1.3973e-05
-0.000996124 0.00362232 4.92252e-06
-1.3973e-05 4.92252e-06 0.000221939
0.00302948 -0.000589309 -6.18132e-05
-0.000589309 0.00113427 4.59126e-05
-6.18132e-05 4.59126e-05 0.000748966
-0.000780665 3.87631e-05 2.5936e-05
3.87631e-05 -0.000308136 8.36998e-06
2.5936e-05 8.36998e-06 -0.000490868
0.000241279 -0.000210576 -9.39876e-07
-0.000210576 0.000295393 4.2596e-07
-9.39876e-07 4.2596e-07 -1.09451e-05
0.000806807 -0.00032943 1.65362e-05
-0.00032943 0.000316598 -4.35296e-06
1.65362e-05 -4.35296e-06 0.00015866
-0.000451533 -0.000177138 -6.76964e-06
-0.000177138 -0.000199393 6.15491e-06
-6.76964e-06 6.15491e-06 -0.000376697
-0.000609734 -0.000192358 -1.20643e-06
-0.000192358 -0.000415797 -4.10322e-06
-1.20643e-06 -4.10322e-06 -0.000665933
0.00316161 -0.000586495 3.13493e-05
-0.000586495 0.00126362 -1.0254e-06
3.13493e-05 -1.0254e-06 0.000984303
0.00437779 -0.000624232 -9.60565e-06
-0.000624232 0.0021074 3.83926e-06
-9.60565e-06 3.83926e-06 0.00183782
0.00227546 -0.000441122 6.72282e-06
-0.000441122 0.00094236 4.65442e-07
6.72282e-06 4.65442e-07 0.000556729
0.00121024 -0.000410618 8.47664e-06
-0.000410618 0.000206964 -5.85775e-06
8.47664e-06 -5.85775e-06 -0.000205526
0.00176793 -0.000364074 -8.31719e-06
-0.000364074 0.000513546 2.15755e-06
-8.31719e-06 2.15755e-06 0.000230463
0.00214599 -0.000478258 1.08146e-06
-0.000478258 0.000659347 5.39537e-07
1.08146e-06 5.39537e-07 0.000289186
0.00196342 -0.000486256 1.42184e-06
-0.000486256 0.000515106 -5.54958e-06
1.42184e-06 -5.54958e-06 0.000143484
0.00197136 -0.000457402 -1.31318e-06
-0.000457402 0.000402711 -2.83883e-06
-1.31318e-06 -2.83883e-06 0.00013105
0.00179863 -0.000452275 -1.25228e-06
-0.000452275 0.000365829 2.60067e-06
-1.25228e-06 2.60067e-06 7.91473e-05
0.00171547 -0.000454861 -9.61177e-07
-0.000454861 0.00033769 -1.56481e-07
-9.61177e-07 -1.56481e-07 2.46744e-05
0.000678104 -0.000244104 6.55423e-06
-0.000244104 -0.000120669 2.0414e-06
6.55423e-06 2.0414e-06 -0.000338604
0.00116207 -0.000299642 1.83737e-06
-0.000299642 0.000151166 3.66332e-08
1.83737e-06 3.66332e-08 -8.74079e-05
0.00129234 -0.000340617 6.34883e-07
-0.000340617 0.00019568 -2.33851e-06
6.34883e-07 -2.33851e-06 -8.31406e-05
0.00129883 -0.000257066 3.54803e-06
-0.000257066 0.000378899 1.88875e-06
3.54803e-06 1.88875e-06 0.000155776
0.00128949 -0.00026992 -2.12565e-06
-0.00026992 0.000332748 -1.73826e-06
-2.12565e-06 -1.73826e-06 0.000114608
0.000710298 -0.000221584 5.24889e-06
-0.000221584 -2.95943e-05 -5.37597e-06
5.24889e-06 -5.37597e-06 -0.000233368
0.000407 -8.2279e-05 2.09712e-06
-8.2279e-05 -5.98214e-05 8.56824e-07
2.09712e-06 8.56824e-07 -0.000229212
0.000487889 -0.000110486 -6.66304e-07
-0.000110486 -1.59821e-05 9.93549e-07
-6.66304e-07 9.93549e-07 -0.000201207
0.00141441 -0.000257934 2.89794e-06
-0.000257934 0.000511086 -4.47025e-06
2.89794e-06 -4.47025e-06 0.000293979
0.000451452 1.93044e-05 -4.25136e-08
1.93044e-05 -6.11506e-05 3.23599e-06
-4.25136e-08 3.23599e-06 -0.000145292
0.000716943 -3.4959e-05 -3.07294e-07
-3.4959e-05 0.000122539 -2.48121e-07
-3.07294e-07 -2.48121e-07 -1.31368e-05
0.00119402 -0.000149189 6.81414e-07
-0.000149189 0.000424896 -6.22189e-08
6.81414e-07 -6.22189e-08 0.0002562
0.000501508 5.59019e-05 -1.04872e-06
5.59019e-05 -3.99225e-05 7.06256e-06
-1.04872e-06 7.06256e-06 -6.89699e-05
0.00064251 1.15174e-05 -2.99759e-07
1.15174e-05 4.17281e-05 -2.35682e-07
-2.99759e-07 -2.35682e-07 -2.88548e-05
0.000922359 -5.31879e-05 -2.34678e-07
-5.31879e-05 0.000231266 -1.46885e-06
-2.34678e-07 -1.46885e-06 0.000120401
0.000665834 -1.91015e-07 1.49119e-06
-1.91015e-07 5.11493e-05 -2.47522e-06
1.49119e-06 -2.47522e-06 -1.16559e-05
0.000540091 5.32101e-05 2.25569e-07
5.32101e-05 -2.52837e-05 6.88296e-09
2.25569e-07 6.88296e-09 -5.09451e-05
0.00241179 0.000100436 -2.70357e-05
0.000100436 0.00110365 3.57131e-06
-2.70357e-05 3.57131e-06 0.00110796
0.000561497 4.72219e-05 -2.18837e-07
4.72219e-05 -2.20849e-05 -4.60961e-06
-2.18837e-07 -4.60961e-06 -4.4055e-05
0.00237646 8.72426e-05 2.73573e-06
8.72426e-05 0.0010749 2.55805e-07
2.73573e-06 2.55805e-07 0.00108228
0.00235502 7.39678e-05 2.02456e-05
7.39678e-05 0.00105542 -4.13381e-06
2.02456e-05 -4.13381e-06 0.00106538
0.000699057 6.08592e-05 -2.52113e-07
6.08592e-05 0.00010533 -9.6789e-07
-2.52113e-07 -9.6789e-07 -2.67861e-05
0.000771159 8.78739e-05 6.85413e-07
8.78739e-05 0.000151065 -1.38932e-06
6.85413e-07 -1.38932e-06 2.85388e-05
0.000637716 1.83498e-05 -4.22087e-08
1.83498e-05 3.24435e-05 -2.78729e-06
-4.22087e-08 -2.78729e-06 -3.59039e-05
0.000699883 7.9561e-05 -4.34646e-08
7.9561e-05 9.70048e-05 -3.34946e-08
-4.34646e-08 -3.34946e-08 -1.02453e-05
0.000548453 -2.04356e-05 -1.41479e-07
-2.04356e-05 -3.80222e-05 -5.01421e-06
-1.41479e-07 -5.01421e-06 -5.76603e-05
0.000620531 2.70479e-05 -8.11672e-10
2.70479e-05 2.27065e-05 -9.1983e-08
-8.11672e-10 -9.1983e-08 -3.96358e-05
0.000632203 4.28857e-05 -2.1621e-06
4.28857e-05 5.29428e-05 3.20525e-07
-2.1621e-06 3.20525e-07 -4.63874e-05
0.00234343 -5.26889e-05 -2.09915e-05
-5.26889e-05 0.00103757 -4.6384e-06
-2.09915e-05 -4.6384e-06 0.00105144
0.000557652 -1.82455e-05 -3.24362e-07
-1.82455e-05 -3.56839e-05 -6.84513e-08
-3.24362e-07 -6.84513e-08 -5.1272e-05
0.00055267 3.0181e-05 -1.44747e-06
3.0181e-05 -1.543e-05 8.04236e-07
-1.44747e-06 8.04236e-07 -7.25586e-05
0.00221995 -3.69557e-05 -4.09507e-06
-3.69557e-05 0.00096059 1.56791e-07
-4.09507e-06 1.56791e-07 0.000976959
0.000559403 -1.24761e-05 -6.85789e-07
-1.24761e-05 -3.7266e-05 3.70249e-06
-6.85789e-07 3.70249e-06 -4.90368e-05
0.00212476 -2.17834e-05 1.11438e-05
-2.17834e-05 0.000901626 4.68356e-06
1.11438e-05 4.68356e-06 0.000919745
0.000340654 -7.488e-05 -1.56165e-07
-7.488e-05 3.51099e-06 7.55725e-06
-1.56165e-07 7.55725e-06 7.70424e-05
0.00145069 -8.62706e-05 -1.61113e-05
-8.62706e-05 -0.000357559 2.59593e-05
-1.61113e-05 2.59593e-05 -0.000102647
0.000817737 -6.28077e-05 8.60627e-06
-6.28077e-05 0.000433975 -1.46437e-05
8.60627e-06 -1.46437e-05 0.000373169
0.000729304 6.19836e-05 -2.28559e-07
6.19836e-05 0.000112472 1.44925e-07
-2.28559e-07 1.44925e-07 -1.33016e-05
0.00071538 4.54248e-05 1.14825e-06
4.54248e-05 7.95791e-05 -2.6046e-07
1.14825e-06 -2.6046e-07 -4.07604e-05
0.000122102 3.1613e-05 -3.89403e-06
3.1613e-05 -0.000269179 -4.36965e-06
-3.89403e-06 -4.36965e-06 -0.000382045
0.000376642 1.23936e-05 3.67868e-07
1.23936e-05 -0.000105334 6.10402e-07
3.67868e-07 6.10402e-07 -0.000225161
0.00142962 0.000160956 -8.74167e-07
0.000160956 0.000534287 -9.75594e-07
-8.74167e-07 -9.75594e-07 0.000383567
0.000646997 2.98171e-05 -1.52296e-06
2.98171e-05 4.04105e-05 7.35708e-07
-1.52296e-06 7.35708e-07 -6.82836e-05
0.000668699 5.33829e-05 -2.3447e-06
5.33829e-05 7.11801e-05 -2.74791e-06
-2.3447e-06 -2.74791e-06 -5.05282e-05
0.000767408 6.36082e-05 -1.04921e-07
6.36082e-05 0.000130284 -2.08266e-07
-1.04921e-07 -2.08266e-07 5.71493e-06
0.00099225 0.000101721 1.721e-07
0.000101721 0.000273842 -1.82732e-08
1.721e-07 -1.82732e-08 0.000139119
0.00107501 7.98491e-05 2.61117e-06
7.98491e-05 0.000342338 -2.02101e-06
2.61117e-06 -2.02101e-06 0.000201157
0.00318605 0.000256402 0.000173068
0.000256402 0.00201809 0.000243239
0.000173068 0.000243239 -0.00103696
0.000552964 9.80682e-05 9.21084e-06
9.80682e-05 5.76224e-05 6.51599e-05
9.21084e-06 6.51599e-05 -0.00149489
0.00264471 -4.51099e-05 -1.12248e-05
-4.51099e-05 0.000628341 -5.14644e-06
-1.12248e-05 -5.14644e-06 8.88318e-05
0.00986995 -0.00115119 -9.98405e-05
-0.00115119 0.00138827 -0.000107232
-9.98405e-05 -0.000107232 0.00280285
-0.0100745 0.000921866 -2.32154e-05
0.000921866 -0.00338813 0.000255237
-2.32154e-05 0.000255237 -0.00594551
0.00523786 -0.00121646 -0.000126519
-0.00121646 0.00200045 4.27866e-05
-0.000126519 4.27866e-05 0.00156568
0.0109207 -0.00101346 -6.36603e-05
-0.00101346 0.00487719 -1.52434e-06
-6.36603e-05 -1.52434e-06 0.00124041
0.00220872 -0.000248251 -2.02653e-05
-0.000248251 0.000543807 6.38058e-05
-2.02653e-05 6.38058e-05 0.000299045
0.0115489 -0.000120114 -9.77296e-06
-0.000120114 0.00590688 -1.28007e-05
-9.77296e-06 -1.28007e-05 0.0014287
0.00247064 -0.00132308 5.43481e-05
-0.00132308 0.000705726 7.28989e-05
5.43481e-05 7.28989e-05 -0.00112887
0.00528107 -0.00157741 -0.000143985
-0.00157741 -0.00104822 -0.000332547
-0.000143985 -0.000332547 -0.000201642
0.00307341 6.70561e-05 -0.000123943
6.70561e-05 0.000882937 4.97025e-05
-0.000123943 4.97025e-05 0.000316628
0.00999494 0.00108547 -4.48201e-05
0.00108547 0.0046722 1.64961e-05
-4.48201e-05 1.64961e-05 0.00105512
0.0113294 -0.00229712 -8.08042e-05
-0.00229712 0.00390522 -0.00028738
-8.08042e-05 -0.00028738 0.00346364
0.00842448 -0.00258592 7.2443e-05
-0.00258592 0.0019685 1.14688e-06
7.2443e-05 1.14688e-06 0.00308961
0.000165298 7.60151e-05 4.21199e-06
7.60151e-05 -0.000111715 -5.21789e-06
4.21199e-06 -5.21789e-06 -0.000248798
0.000919501 2.50602e-05 1.02156e-06
2.50602e-05 0.000267186 2.97295e-06
1.02156e-06 2.97295e-06 0.000121612
0.000732624 8.47872e-05 -2.69076e-06
8.47872e-05 0.000133552 -6.1575e-06
-2.69076e-06 -6.1575e-06 -1.18187e-05
0.00173905 -0.000183362 -3.0143e-05
-0.000183362 0.001088 2.27174e-05
-3.0143e-05 2.27174e-05 0.000367665
0.00100379 -3.28983e-05 -6.89592e-05
-3.28983e-05 0.000697674 -2.24876e-05
-6.89592e-05 -2.24876e-05 0.000566537
0.000676934 8.95039e-06 -4.3714e-06
8.95039e-06 0.000111851 5.21186e-06
-4.3714e-06 5.21186e-06 -7.3519e-06
-0.00116516 0.000103844 -8.7067e-06
0.000103844 -0.000622673 -3.96436e-06
-8.7067e-06 -3.96436e-06 -0.000931893
0.000451436 7.65668e-05 5.76845e-07
7.65668e-05 0.000184785 -2.53175e-06
5.76845e-07 -2.53175e-06 -6.93805e-06
0.000620477 0.000139426 -6.51768e-07
0.000139426 0.000411292 2.91745e-06
-6.51768e-07 2.91745e-06 0.000128631
-0.000386446 -6.69694e-05 0.000124648
-6.69694e-05 0.000717927 -4.15769e-05
0.000124648 -4.15769e-05 -0.000515754
-0.0022597 1.07938e-05 -2.24458e-05
1.07938e-05 -0.00120407 1.32792e-05
-2.24458e-05 1.32792e-05 -0.00142156
0.00246808 0.000304069 -4.69572e-05
0.000304069 0.00156802 -4.4682e-05
-4.69572e-05 -4.4682e-05 0.000728212
0.00186989 3.56137e-05 8.64448e-05
3.56137e-05 0.00114542 1.39897e-05
8.64448e-05 1.39897e-05 -0.0008546
0.000132137 5.34124e-06 1.50306e-05
5.34124e-06 0.000532089 1.41544e-05
1.50306e-05 1.41544e-05 -2.12421e-05
0.00175623 -6.93968e-05 3.46581e-07
-6.93968e-05 0.000264472 -4.36433e-07
3.46581e-07 -4.36433e-07 0.000357856
-0.00178505 0.000274418 9.96797e-05
0.000274418 -0.000449457 8.01141e-06
9.96797e-05 8.01141e-06 -0.00112611
0.00319878 0.000143337 -2.85584e-05
0.000143337 0.0015514 1.32695e-05
-2.85584e-05 1.32695e-05 0.000828949
0.000857863 -3.47053e-05 -7.78978e-06
-3.47053e-05 0.00043378 1.1913e-05
-7.78978e-06 1.1913e-05 0.00038293
0.0161574 -0.00170138 0.000134007
-0.00170138 0.00701383 -4.22129e-05
0.000134007 -4.22129e-05 0.00289502
0.011337 0.00176318 -6.7934e-05
0.00176318 0.00397138 -5.34119e-05
-6.7934e-05 -5.34119e-05 0.00300113
0.00401203 -0.000512714 -8.05855e-05
-0.000512714 0.00147203 0.000129382
-8.05855e-05 0.000129382 -0.00166521
-0.00724641 0.00280242 0.000750798
0.00280242 -0.00309229 -0.000570096
0.000750798 -0.000570096 -0.00177375
0.000800883 -0.000188973 1.11253e-05
-0.000188973 0.000744196 -4.02958e-06
1.11253e-05 -4.02958e-06 0.000240468
0.000846978 -0.000150036 6.97233e-07
-0.000150036 4.38097e-05 1.19776e-05
6.97233e-07 1.19776e-05 -0.00167417
-0.00287312 0.000159218 -0.000417382
0.000159218 0.00232262 0.000175634
-0.000417382 0.000175634 0.000572341
0.00145506 -0.000371429 -2.36444e-05
-0.000371429 0.000366341 3.63598e-05
-2.36444e-05 3.63598e-05 1.38762e-05
0.0120687 0.00231545 0.000105349
0.00231545 0.00366856 8.08338e-05
0.000105349 8.08338e-05 0.00389274
0.00778387 -0.00162395 8.96789e-05
-0.00162395 0.00323036 -5.52911e-05
8.96789e-05 -5.52911e-05 0.000112394
0.0019583 -0.00045381 2.61874e-06
-0.00045381 0.000837216 2.19391e-05
2.61874e-06 2.19391e-05 0.000748094
-0.00441335 -0.000445405 4.10174e-05
-0.000445405 0.00182981 -2.55319e-05
4.10174e-05 -2.55319e-05 -0.000503824
0.0105271 0.00214216 -0.000459204
0.00214216 0.00478352 0.000215839
-0.000459204 0.000215839 0.00449879
0.00251861 -0.000998141 -0.000211266
-0.000998141 -0.000309845 0.000140967
-0.000211266 0.000140967 -0.00355631
0.0023175 -0.000952185 0.000101491
-0.000952185 0.00042047 -4.8339e-05
0.000101491 -4.8339e-05 0.000366208
-0.000132778 -0.00019278 -4.82571e-05
-0.00019278 7.284e-05 1.3458e-05
-4.82571e-05 1.3458e-05 -0.000210818
0.000634302 -0.000297 -6.84529e-06
-0.000297 0.000282743 8.39658e-06
-6.84529e-06 8.39658e-06 6.12378e-05
0.00366515 -0.000600583 3.13297e-05
-0.000600583 0.00151082 2.46873e-06
3.13297e-05 2.46873e-06 0.00135794
-0.00283234 -5.0347e-05 -2.35028e-06
-5.0347e-05 -0.00158482 1.00326e-05
-2.35028e-06 1.00326e-05 -0.00183327
0.000802111 -0.000347071 4.44673e-06
-0.000347071 5.52892e-05 2.37537e-06
4.44673e-06 2.37537e-06 -0.000224573
0.0021731 -0.000562139 5.40182e-06
-0.000562139 0.000487739 1.23833e-06
5.40182e-06 1.23833e-06 0.000226287
0.00301318 -0.00050987 -1.43575e-05
-0.00050987 0.0012773 5.01695e-06
-1.43575e-05 5.01695e-06 0.000918937
0.00129505 -0.000409679 -2.52068e-06
-0.000409679 0.000224181 -3.80091e-06
-2.52068e-06 -3.80091e-06 -0.000164824
0.00185103 -0.000539285 4.67104e-06
-0.000539285 0.000295256 -5.61247e-06
4.67104e-06 -5.61247e-06 -9.77456e-06
0.00258196 -0.000527727 -3.94509e-06
-0.000527727 0.000869954 -1.45927e-06
-3.94509e-06 -1.45927e-06 0.000492246
0.00163689 -0.000460123 1.20924e-07
-0.000460123 0.000308818 -3.53061e-06
1.20924e-07 -3.53061e-06 -4.77245e-05
0.00205834 -0.000471313 3.60309e-07
-0.000471313 0.000393154 -6.61739e-06
3.60309e-07 -6.61739e-06 0.00013059
0.00168657 -0.000366225 -3.1567e-06
-0.000366225 0.000127085 -3.23978e-06
-3.1567e-06 -3.23978e-06 -7.9849e-05
0.00160912 -0.000436334 1.75474e-06
-0.000436334 0.000178216 -6.65362e-07
1.75474e-06 -6.65362e-07 -8.80916e-05
0.00178243 -0.000440667 1.94381e-06
-0.000440667 0.000297584 -2.42534e-06
1.94381e-06 -2.42534e-06 3.02041e-05
0.00170444 -0.000382401 -2.8963e-07
-0.000382401 0.000371049 2.08903e-06
-2.8963e-07 2.08903e-06 0.000112522
0.00178208 -0.000451616 -1.98049e-06
-0.000451616 0.000374459 1.1698e-07
-1.98049e-06 1.1698e-07 8.33429e-05
0.00171824 -0.000460701 1.25091e-06
-0.000460701 0.000339508 -3.73085e-06
1.25091e-06 -3.73085e-06 2.07344e-05
0.00138143 -0.000285554 3.62889e-06
-0.000285554 0.000330756 1.19116e-06
3.62889e-06 1.19116e-06 0.000106266
0.000840121 -0.00025525 7.8551e-07
-0.00025525 -2.26045e-05 -1.65936e-07
7.8551e-07 -1.65936e-07 -0.000239012
0.00131762 -0.000307868 4.02331e-06
-0.000307868 0.000236942 -3.42512e-06
4.02331e-06 -3.42512e-06 4.97104e-06
0.00064485 -0.000181281 -1.46803e-07
-0.000181281 3.12234e-05 1.06826e-07
-1.46803e-07 1.06826e-07 -0.000161693
0.000917801 -0.000216773 1.97178e-08
-0.000216773 0.000155898 -4.57896e-07
1.97178e-08 -4.57896e-07 -5.8542e-05
0.00087431 -0.000228241 -3.86856e-06
-0.000228241 8.33942e-05 -1.48378e-06
-3.86856e-06 -1.48378e-06 -0.000127931
0.000324293 1.81895e-05 5.17478e-07
1.81895e-05 -0.000130519 4.95943e-06
5.17478e-07 4.95943e-06 -0.00024214
0.0007759 -0.000103517 1.10551e-06
-0.000103517 0.000165659 6.30932e-07
1.10551e-06 6.30932e-07 -1.32245e-05
0.0010586 -0.000159665 -2.40224e-06
-0.000159665 0.000335367 6.09206e-07
-2.40224e-06 6.09206e-07 0.000141047
0.00143188 9.04277e-05 -1.67485e-05
9.04277e-05 0.000529472 4.71788e-06
-1.67485e-05 4.71788e-06 0.000495576
0.00067902 -6.35244e-06 -2.54846e-07
-6.35244e-06 7.01452e-05 -6.74524e-07
-2.54846e-07 -6.74524e-07 -1.52142e-05
0.00109135 -6.9427e-05 -1.88737e-06
-6.9427e-05 0.000350511 -1.62733e-06
-1.88737e-06 -1.62733e-06 0.000204927
0.000744949 4.95449e-05 -2.89711e-05
4.95449e-05 0.000111249 3.70957e-06
-2.89711e-05 3.70957e-06 0.000108768
0.000986695 7.09954e-05 -8.80223e-06
7.09954e-05 0.000252312 -7.98737e-08
-8.80223e-06 -7.98737e-08 0.000223596
0.000671019 5.39691e-06 1.16941e-06
5.39691e-06 5.58851e-05 -3.15061e-06
1.16941e-06 -3.15061e-06 -1.43679e-05
0.000552132 5.66609e-05 -4.91467e-07
5.66609e-05 -1.64653e-05 -5.2327e-06
-4.91467e-07 -5.2327e-06 -4.30504e-05
0.00244588 0.000102504 3.96966e-06
0.000102504 0.00112478 3.59007e-07
3.96966e-06 3.59007e-07 0.00112869
0.00238727 8.93734e-05 2.27463e-05
8.93734e-05 0.00108233 -3.89213e-06
2.27463e-05 -3.89213e-06 0.00108925
0.000713324 6.08448e-05 4.9484e-07
6.08448e-05 9.76963e-05 5.77137e-07
4.9484e-07 5.77137e-07 -2.5451e-05
0.000789897 7.72058e-05 3.4666e-07
7.72058e-05 0.000160666 -1.97859e-06
3.4666e-07 -1.97859e-06 3.45512e-05
0.000613366 4.74282e-05 -2.77822e-07
4.74282e-05 3.77394e-05 3.72011e-07
-2.77822e-07 3.72011e-07 -8.26108e-05
0.000642259 7.56596e-06 -2.56876e-07
7.56596e-06 3.53431e-05 -3.0324e-06
-2.56876e-07 -3.0324e-06 -3.85595e-05
0.000726375 6.41054e-05 5.84544e-07
6.41054e-05 0.000112315 3.44762e-08
5.84544e-07 3.44762e-08 6.46284e-08
0.000547907 -2.20516e-05 -7.72374e-07
-2.20516e-05 -3.35535e-05 -5.55208e-06
-7.72374e-07 -5.55208e-06 -5.75364e-05
0.000615044 2.12654e-05 -2.38737e-08
2.12654e-05 2.01188e-05 -1.19243e-07
-2.38737e-08 -1.19243e-07 -4.86777e-05
0.000735648 6.77591e-05 -6.80491e-07
6.77591e-05 0.000134281 1.73456e-06
-6.80491e-07 1.73456e-06 1.50321e-05
0.0024844 -6.77439e-05 -2.74069e-05
-6.77439e-05 0.00112595 -4.50207e-06
-2.74069e-05 -4.50207e-06 0.00113714
0.000539586 -2.26496e-05 -4.65622e-07
-2.26496e-05 -4.31884e-05 -4.81821e-08
-4.65622e-07 -4.81821e-08 -6.27683e-05
0.000607547 2.95119e-05 2.69435e-07
2.95119e-05 1.584e-05 2.56374e-06
2.69435e-07 2.56374e-06 -4.65095e-05
0.00235086 -5.19654e-05 -4.35833e-06
-5.19654e-05 0.00104173 2.31625e-07
-4.35833e-06 2.31625e-07 0.00105577
0.000542205 -1.88471e-05 -9.49868e-07
-1.88471e-05 -4.46277e-05 4.19821e-06
-9.49868e-07 4.19821e-06 -6.0089e-05
0.00222161 -3.56529e-05 1.59994e-05
-3.56529e-05 0.000961196 4.60905e-06
1.59994e-05 4.60905e-06 0.000977768
0.00458877 8.80502e-05 0.000105429
8.80502e-05 0.00185169 2.4747e-05
0.000105429 2.4747e-05 0.000686709
0.000295912 -7.07511e-05 -8.9608e-07
-7.07511e-05 6.84592e-06 7.49495e-08
-8.9608e-07 7.49495e-08 6.17316e-05
0.00132594 -7.64673e-05 -1.70227e-05
-7.64673e-05 -0.00040662 4.34899e-06
-1.70227e-05 4.34899e-06 -0.000111127
0.000503022 0.000102801 -5.9128e-06
0.000102801 -3.66445e-05 -1.63515e-06
-5.9128e-06 -1.63515e-06 -0.000162122
0.0008231 6.33371e-05 -8.12531e-07
6.33371e-05 0.000164176 3.01364e-07
-8.12531e-07 3.01364e-07 4.28479e-05
0.000519629 3.53863e-05 7.44154e-07
3.53863e-05 -3.71862e-05 8.24817e-08
7.44154e-07 8.24817e-08 -0.000153966
0.000811386 3.84446e-05 5.24032e-08
3.84446e-05 0.000142676 -1.38113e-07
5.24032e-08 -1.38113e-07 2.32335e-05
0.000742106 7.8731e-05 -6.93307e-07
7.8731e-05 9.49349e-05 1.17886e-07
-6.93307e-07 1.17886e-07 -2.48797e-05
0.00113496 0.000133804 6.6729e-07
0.000133804 0.000356528 -3.35617e-07
6.6729e-07 -3.35617e-07 0.00021684
0.000868123 0.000104264 -1.30122e-06
0.000104264 0.000174304 -6.3171e-06
-1.30122e-06 -6.3171e-06 1.84463e-05
6.59354e-05 2.40543e-05 3.10078e-07
2.40543e-05 -0.000253353 2.21355e-07
3.10078e-07 2.21355e-07 -0.000389283
0.000803189 0.000116304 -1.61384e-06
0.000116304 0.000163413 1.3668e-06
-1.61384e-06 1.3668e-06 2.9249e-05
0.000437677 2.0858e-05 -2.95421e-06
2.0858e-05 -7.42081e-05 -2.3202e-06
-2.95421e-06 -2.3202e-06 -0.000186282
0.000554984 5.89275e-05 -1.374e-07
5.89275e-05 3.30068e-05 9.40059e-07
-1.374e-07 9.40059e-07 -0.000102496
0.00159575 0.000166576 9.0603e-06
0.000166576 0.000689845 6.17403e-06
9.0603e-06 6.17403e-06 0.000539955
0.00115396 -0.000924854 0.000121342
-0.000924854 0.00267456 0.000201091
0.000121342 0.000201091 0.000576562
0.00362729 0.000336277 2.47755e-05
0.000336277 0.00194383 8.55051e-05
2.47755e-05 8.55051e-05 -0.00120693
0.000844548 0.000103167 -2.25001e-05
0.000103167 0.000249156 -4.10962e-05
-2.25001e-05 -4.10962e-05 -0.00144565
0.00993199 -0.00201463 -0.00026502
-0.00201463 0.00144829 -0.000196444
-0.00026502 -0.000196444 0.002224
0.00566371 -0.000722867 6.87756e-05
-0.000722867 0.0014379 0.000249596
6.87756e-05 0.000249596 3.809e-05
0.00074145 -0.000827953 -0.000101477
-0.000827953 0.00193966 9.01361e-05
-0.000101477 9.01361e-05 -0.002868
0.000996357 -0.000339636 8.00326e-06
-0.000339636 0.000160951 6.1183e-05
8.00326e-06 6.1183e-05 -0.000406867
0.00235076 -0.000117366 2.84383e-05
-0.000117366 0.000653441 5.21593e-05
2.84383e-05 5.21593e-05 0.000271106
0.000957137 -0.0026505 0.000128381
-0.0026505 -0.000481019 0.000141103
0.000128381 0.000141103 0.000788714
0.00474232 0.000929631 -1.09e-05
0.000929631 0.00364124 -2.59934e-05
-1.09e-05 -2.59934e-05 -0.000819155
0.00310911 -0.00136326 -4.18982e-05
-0.00136326 -0.00068796 5.33754e-05
-4.18982e-05 5.33754e-05 -0.00127754
0.000685453 0.000333854 -5.94905e-06
0.000333854 -9.09235e-06 4.86831e-05
-5.94905e-06 4.86831e-05 -0.000121066
0.00826538 0.00106728 -4.28299e-05
0.00106728 0.00385627 -1.91417e-05
-4.28299e-05 -1.91417e-05 0.000659038
0.00391864 -0.00225255 -0.000248543
-0.00225255 7.82841e-05 -0.000216446
-0.000248543 -0.000216446 0.000131417
0.000906965 0.000329934 6.09492e-06
0.000329934 0.000215895 -1.29582e-05
6.09492e-06 -1.29582e-05 7.17915e-05
0.000642011 9.38065e-05 2.82194e-06
9.38065e-05 0.000154194 -4.25471e-07
2.82194e-06 -4.25471e-07 2.29137e-05
0.000449887 4.16671e-05 -3.46163e-06
4.16671e-05 1.46666e-06 -1.76909e-06
-3.46163e-06 -1.76909e-06 -0.000153212
-3.81905e-05 -7.51578e-05 -0.000166594
-7.51578e-05 0.00104498 -4.37905e-05
-0.000166594 -4.37905e-05 -0.000135333
-0.00206208 0.000145299 2.71316e-06
0.000145299 -0.00106748 -1.62743e-05
2.71316e-06 -1.62743e-05 -0.00137378
-3.04289e-05 0.000102797 -4.60925e-06
0.000102797 -8.05835e-05 5.05355e-06
-4.60925e-06 5.05355e-06 -0.000294917
0.000557121 0.00031465 1.17145e-05
0.00031465 0.000260764 3.31804e-06
1.17145e-05 3.31804e-06 2.35156e-05
0.000752534 0.000266054 -1.11271e-06
0.000266054 0.000586529 -3.37599e-05
-1.11271e-06 -3.37599e-05 -0.000135925
-5.90644e-05 0.000519384 3.04627e-05
0.000519384 -0.000444609 7.71221e-06
3.04627e-05 7.71221e-06 -0.000801279
-0.00141154 0.000343067 0.000164461
0.000343067 0.00342075 5.52929e-06
0.000164461 5.52929e-06 0.000670732
0.0020787 -1.61524e-05 -5.99164e-06
-1.61524e-05 0.00127706 2.33053e-05
-5.99164e-06 2.33053e-05 -0.000299912
-9.72205e-05 -1.71914e-05 1.05402e-06
-1.71914e-05 0.000293866 1.67214e-05
1.05402e-06 1.67214e-05 -0.000130729
0.000153812 -0.000135272 -5.24706e-05
-0.000135272 0.000502147 5.06536e-06
-5.24706e-05 5.06536e-06 -9.11031e-06
-0.000302196 -9.56087e-05 -6.22435e-05
-9.56087e-05 -0.00100312 2.1886e-05
-6.22435e-05 2.1886e-05 -0.000789761
0.00129807 -0.000121771 -9.58476e-05
-0.000121771 0.000220567 3.48208e-05
-9.58476e-05 3.48208e-05 -0.0014365
-0.0021658 -0.00146868 7.50708e-05
-0.00146868 -2.08585e-06 -0.000102292
7.50708e-05 -0.000102292 -0.00412055
-0.00090689 0.00187559 0.000207349
0.00187559 -0.00332579 -0.00018818
0.000207349 -0.00018818 -0.00294067
0.00278634 0.000865232 -0.00021021
0.000865232 0.00358739 0.000165499
-0.00021021 0.000165499 0.00231584
0.00151417 -0.000207727 -7.12273e-06
-0.000207727 0.000581028 -1.67301e-06
-7.12273e-06 -1.67301e-06 0.000580265
0.00150657 0.000192311 3.3923e-05
0.000192311 0.00372296 6.89537e-06
3.3923e-05 6.89537e-06 0.0021772
-0.00336958 0.00132469 2.62323e-05
0.00132469 -0.000808487 1.59246e-05
2.62323e-05 1.59246e-05 -0.00233981
0.00364918 -0.00115723 4.688e-05
-0.00115723 0.0012898 -1.36057e-05
4.688e-05 -1.36057e-05 0.000699491
0.0115942 -0.000903468 1.61427e-05
-0.000903468 0.00368712 -1.15945e-05
1.61427e-05 -1.15945e-05 0.00176008
0.00307782 -0.000693131 -9.93098e-06
-0.000693131 0.00103549 2.39954e-05
-9.93098e-06 2.39954e-05 0.00104192
-0.00834285 0.000505409 -0.000221589
0.000505409 -0.00375545 8.28893e-06
-0.000221589 8.28893e-06 -0.00473672
0.0125064 -0.0005203 -9.90477e-05
-0.0005203 0.00317226 3.0976e-05
-9.90477e-05 3.0976e-05 0.00161422
0.0033845 -0.00128293 2.43941e-05
-0.00128293 -0.000133297 -2.59449e-05
2.43941e-05 -2.59449e-05 -0.000609696
8.17221e-05 -0.000211868 -1.33196e-05
-0.000211868 4.79053e-05 1.68741e-05
-1.33196e-05 1.68741e-05 -0.000237197
0.00165009 -0.000464105 -2.93861e-06
-0.000464105 0.00033401 1.37729e-06
-2.93861e-06 1.37729e-06 0.000291205
0.00329482 -0.000556481 1.04578e-05
-0.000556481 0.00101425 -4.43936e-06
1.04578e-05 -4.43936e-06 0.000918812
-0.00148324 -0.000118244 -5.05723e-06
-0.000118244 -0.00111052 1.97789e-06
-5.05723e-06 1.97789e-06 -0.00139377
0.0013207 -0.000474613 -5.31569e-06
-0.000474613 7.9179e-05 -3.26254e-06
-5.31569e-06 -3.26254e-06 -0.00019059
0.00227197 -0.000591992 3.53583e-06
-0.000591992 0.000387384 -8.78042e-07
3.53583e-06 -8.78042e-07 0.000158405
0.00134553 -0.000407591 -1.53696e-05
-0.000407591 0.000229454 -2.03795e-06
-1.53696e-05 -2.03795e-06 -0.000139491
0.00154609 -0.000502508 1.05201e-07
-0.000502508 0.000143867 2.85902e-07
1.05201e-07 2.85902e-07 -0.000163046
0.00160867 -0.000448461 5.9352e-07
-0.000448461 1.16173e-06 -5.58531e-06
5.9352e-07 -5.58531e-06 -0.000202084
0.00126553 -0.000430973 -4.09716e-06
-0.000430973 7.87771e-05 -5.49409e-07
-4.09716e-06 -5.49409e-07 -0.000263799
0.00163181 -0.00043111 -4.20564e-07
-0.00043111 0.000158429 6.2588e-07
-4.20564e-07 6.2588e-07 -9.68005e-05
0.00174924 -0.000360719 -1.72399e-06
-0.000360719 9.95366e-05 -5.11719e-06
-1.72399e-06 -5.11719e-06 -6.73064e-05
0.0016365 -0.000288677 -4.30452e-06
-0.000288677 4.78899e-05 -2.9199e-06
-4.30452e-06 -2.9199e-06 -9.82126e-05
0.00153997 -0.000353456 -3.17179e-06
-0.000353456 6.26136e-05 -2.11316e-06
-3.17179e-06 -2.11316e-06 -0.000149231
0.00163736 -0.000354668 1.03494e-06
-0.000354668 0.00010574 1.62129e-06
1.03494e-06 1.62129e-06 -9.59153e-05
0.00146997 -0.000376332 -2.34086e-06
-0.000376332 0.000145838 -7.64654e-07
-2.34086e-06 -7.64654e-07 -0.000103393
0.00166698 -0.000435517 1.64804e-06
-0.000435517 0.000221718 -2.49286e-07
1.64804e-06 -2.49286e-07 -4.20007e-05
0.00164256 -0.00042768 1.60982e-06
-0.00042768 0.000220159 1.23396e-07
1.60982e-06 1.23396e-07 -4.33156e-05
0.00143745 -0.000309921 -1.54476e-06
-0.000309921 0.000270062 1.4515e-06
-1.54476e-06 1.4515e-06 4.09715e-05
0.00150842 -0.000366846 1.22816e-06
-0.000366846 0.000260047 -6.26042e-07
1.22816e-06 -6.26042e-07 4.16003e-06
0.00169295 -0.0004437 -2.44451e-06
-0.0004437 0.000341282 -1.76092e-06
-2.44451e-06 -1.76092e-06 4.63987e-05
0.000935945 -0.000216211 -1.40121e-06
-0.000216211 0.000116353 2.7949e-06
-1.40121e-06 2.7949e-06 -8.27214e-05
0.00119374 -0.000267285 1.28659e-06
-0.000267285 0.000214619 4.97642e-07
1.28659e-06 4.97642e-07 -6.05198e-06
0.00101762 -0.000267472 -1.07438e-06
-0.000267472 8.48745e-05 -3.6608e-06
-1.07438e-06 -3.6608e-06 -0.000130664
0.0006992 -8.52047e-05 -5.83916e-07
-8.52047e-05 7.80259e-05 5.4703e-06
-5.83916e-07 5.4703e-06 -6.82799e-05
0.000980838 -0.000188752 -2.16599e-08
-0.000188752 0.000227692 -2.80504e-08
-2.16599e-08 -2.80504e-08 3.21278e-05
0.000490005 -0.000173598 -4.01696e-06
-0.000173598 -9.53361e-05 -7.30767e-07
-4.01696e-06 -7.30767e-07 -0.000300468
0.000383113 3.94757e-05 -2.25544e-07
3.94757e-05 -9.76617e-05 8.18528e-06
-2.25544e-07 8.18528e-06 -0.000143266
0.00069935 -5.27866e-05 -7.27774e-07
-5.27866e-05 9.11779e-05 -5.18273e-07
-7.27774e-07 -5.18273e-07 -2.79182e-05
0.0012588 -0.000128907 8.40098e-07
-0.000128907 0.000456659 -1.55027e-06
8.40098e-07 -1.55027e-06 0.000268552
0.0026777 0.000145966 -6.45492e-06
0.000145966 0.00128083 1.95702e-06
-6.45492e-06 1.95702e-06 0.00127252
0.000519711 5.06537e-05 -3.39532e-07
5.06537e-05 -2.14181e-05 -2.35895e-07
-3.39532e-07 -2.35895e-07 -5.75915e-05
0.000822941 -3.00811e-05 2.2766e-06
-3.00811e-05 0.000154147 -4.21121e-06
2.2766e-06 -4.21121e-06 6.64065e-05
0.00254532 0.000115937 4.02817e-06
0.000115937 0.00119151 3.26191e-07
4.02817e-06 3.26191e-07 0.0011923
0.000560716 5.3939e-05 -3.30529e-09
5.3939e-05 -3.14994e-06 -5.71439e-06
-3.30529e-09 -5.71439e-06 -3.32629e-05
0.0025047 0.000104843 2.89976e-05
0.000104843 0.00116062 -3.35916e-06
2.89976e-05 -3.35916e-06 0.00116406
0.00088995 0.000124922 8.08857e-07
0.000124922 0.000195336 2.00217e-06
8.08857e-07 2.00217e-06 5.70937e-05
0.000776566 7.32035e-05 3.96398e-08
7.32035e-05 0.000137592 -6.6575e-08
3.96398e-08 -6.6575e-08 1.06306e-05
0.000809078 6.30789e-05 9.59259e-08
6.30789e-05 0.00017594 -2.64067e-06
9.59259e-08 -2.64067e-06 3.97475e-05
0.000651696 5.80576e-06 -7.24405e-07
5.80576e-06 4.56584e-05 -3.72983e-06
-7.24405e-07 -3.72983e-06 -3.46159e-05
0.000717439 4.6316e-05 3.04639e-07
4.6316e-05 0.000109559 2.48256e-07
3.04639e-07 2.48256e-07 -1.00382e-05
0.000566999 6.16848e-05 9.47895e-07
6.16848e-05 1.71777e-05 1.3388e-06
9.47895e-07 1.3388e-06 -0.000108717
0.000552639 -2.31976e-05 -1.35681e-06
-2.31976e-05 -2.68391e-05 -6.11861e-06
-1.35681e-06 -6.11861e-06 -5.50285e-05
0.000625128 1.38581e-05 -3.01056e-08
1.38581e-05 2.83315e-05 -8.17964e-08
-3.01056e-08 -8.17964e-08 -4.66835e-05
0.000690559 6.07961e-05 2.7184e-07
6.07961e-05 8.72679e-05 1.4883e-06
2.7184e-07 1.4883e-06 -2.04901e-05
0.00262336 -8.24508e-05 -3.52998e-05
-8.24508e-05 0.00121435 -4.24137e-06
-3.52998e-05 -4.24137e-06 0.00122262
0.000525636 -2.22672e-05 -1.8233e-07
-2.22672e-05 -4.72621e-05 -1.01917e-07
-1.8233e-07 -1.01917e-07 -7.08958e-05
0.000616737 2.41439e-05 2.38546e-07
2.41439e-05 2.18826e-05 2.8908e-06
2.38546e-07 2.8908e-06 -4.71921e-05
0.00245958 -6.67791e-05 -4.81625e-06
-6.67791e-05 0.00111066 3.02044e-07
-4.81625e-06 3.02044e-07 0.00112211
0.000531961 -2.31115e-05 -8.5715e-07
-2.31115e-05 -4.77046e-05 4.84923e-06
-8.5715e-07 4.84923e-06 -6.71187e-05
0.00231287 -5.04149e-05 2.01808e-05
-5.04149e-05 0.00101865 4.51675e-06
2.01808e-05 4.51675e-06 0.00103309
-0.00601568 0.000290026 -8.48251e-06
0.000290026 0.00143376 4.5006e-05
-8.48251e-06 4.5006e-05 -0.00151858
0.00444228 2.14577e-05 -3.96093e-06
2.14577e-05 0.0020657 5.1088e-06
-3.96093e-06 5.1088e-06 0.000884724
0.00033307 -7.39263e-05 -7.58646e-06
-7.39263e-05 -2.05633e-05 -5.83376e-06
-7.58646e-06 -5.83376e-06 1.24332e-05
0.000452679 7.26061e-05 -1.39185e-06
7.26061e-05 -7.00037e-05 1.37266e-06
-1.39185e-06 1.37266e-06 -0.000189186
0.00234084 0.000336406 -1.81855e-07
0.000336406 0.00106219 3.61636e-06
-1.81855e-07 3.61636e-06 0.00087557
0.000695875 7.50042e-05 -3.67559e-06
7.50042e-05 7.08621e-05 -3.52939e-07
-3.67559e-06 -3.52939e-07 -6.22541e-05
0.00103082 4.15222e-05 -7.10751e-07
4.15222e-05 0.000267179 -1.50469e-06
-7.10751e-07 -1.50469e-06 0.000149736
0.00134326 0.000133851 2.57362e-06
0.000133851 0.000445529 3.23509e-07
2.57362e-06 3.23509e-07 0.000320229
0.000413266 5.0698e-05 -2.29957e-06
5.0698e-05 -8.5131e-05 3.02709e-06
-2.29957e-06 3.02709e-06 -0.000201773
0.000537255 6.89811e-05 -1.14311e-06
6.89811e-05 3.05303e-05 1.21861e-06
-1.14311e-06 1.21861e-06 -0.000117341
0.000707593 8.237e-05 -1.61447e-06
8.237e-05 8.21835e-05 -1.93165e-06
-1.61447e-06 -1.93165e-06 -6.61944e-05
0.000945478 0.00015491 1.69855e-06
0.00015491 0.00026164 -4.47276e-06
1.69855e-06 -4.47276e-06 7.41375e-05
0.000533815 0.000228889 2.02356e-06
0.000228889 -6.60821e-05 -2.89955e-06
2.02356e-06 -2.89955e-06 -0.000176342
0.000994467 8.73736e-05 -2.71825e-06
8.73736e-05 0.000298295 5.06419e-07
-2.71825e-06 5.06419e-07 0.000152681
0.00107745 0.0001455 5.51781e-07
0.0001455 0.00039097 3.36559e-06
5.51781e-07 3.36559e-06 0.000239962
-0.00496775 -0.000979743 -0.000444922
-0.000979743 -0.000993689 -1.70519e-05
-0.000444922 -1.70519e-05 -0.00242994
-0.00317685 -0.000691122 0.000182351
-0.000691122 0.00166352 9.20645e-05
0.000182351 9.20645e-05 -0.000784007
0.0043385 0.000380533 -0.000156987
0.000380533 0.00204138 -7.70429e-05
-0.000156987 -7.70429e-05 -0.00120709
-0.00772223 -0.00271955 0.000631085
-0.00271955 -0.00295908 0.00049345
0.000631085 0.00049345 -0.0018283
0.0141076 -0.00159953 -5.01029e-05
-0.00159953 0.00432303 0.000148113
-5.01029e-05 0.000148113 0.00397427
-0.0015166 0.0010851 -3.60624e-06
0.0010851 0.000374007 -7.98721e-05
-3.60624e-06 -7.98721e-05 -0.00387823
0.0025091 -2.42687e-06 -0.000135832
-2.42687e-06 0.00111879 2.99753e-05
-0.000135832 2.99753e-05 0.000199141
0.00225922 0.000421916 1.39988e-06
0.000421916 0.000779925 2.48864e-05
1.39988e-06 2.48864e-05 0.000517482
0.0101046 -0.00176655 -0.000192108
-0.00176655 0.00474265 5.5968e-05
-0.000192108 5.5968e-05 0.00442388
-0.000208292 0.0011546 -1.53852e-05
0.0011546 0.000521349 -3.07914e-05
-1.53852e-05 -3.07914e-05 -0.00289741
0.00181601 0.000823029 -3.51217e-05
0.000823029 0.000337682 -6.03506e-05
-3.51217e-05 -6.03506e-05 0.000298599
0.00432476 0.00170645 -0.00019449
0.00170645 0.00017675 -0.000109828
-0.00019449 -0.000109828 -0.00218206
0.00224328 0.000653784 1.72641e-05
0.000653784 0.000623917 -2.08448e-05
1.72641e-05 -2.08448e-05 0.000384425
0.00082215 0.000303047 -4.48319e-06
0.000303047 0.000170508 5.73133e-07
-4.48319e-06 5.73133e-07 3.62061e-05
0.00118484 0.00010131 -6.1833e-06
0.00010131 0.00045618 4.51293e-06
-6.1833e-06 4.51293e-06 0.000335784
-0.0010445 0.000208214 -4.8039e-05
0.000208214 -0.000424788 -4.82798e-05
-4.8039e-05 -4.82798e-05 -0.00105378
0.00268428 0.000465765 -2.2022e-05
0.000465765 0.00135978 -1.55183e-05
-2.2022e-05 -1.55183e-05 0.00112087
0.001251 0.000638491 1.36022e-05
0.000638491 0.000167076 -3.9723e-06
1.36022e-05 -3.9723e-06 -0.000189774
0.00309603 0.00101314 0.000104051
0.00101314 0.000468085 3.30569e-05
0.000104051 3.30569e-05 0.000329837
-0.00478893 -9.87919e-05 -0.000294935
-9.87919e-05 -0.0038386 4.88401e-06
-0.000294935 4.88401e-06 -0.00265911
-0.00348913 0.000197293 0.000143198
0.000197293 0.00277652 2.5792e-06
0.000143198 2.5792e-06 -0.000103565
0.00218099 -5.61033e-05 -7.2808e-05
-5.61033e-05 0.00138749 3.03315e-05
-7.2808e-05 3.03315e-05 0.000173167
0.00231796 -0.000302899 -5.61569e-05
-0.000302899 0.000835259 -3.78288e-05
-5.61569e-05 -3.78288e-05 0.000820112
0.00141423 -0.00098549 -1.90305e-05
-0.00098549 -6.38974e-05 1.57387e-05
-1.90305e-05 1.57387e-05 -0.000471801
0.00155672 0.000141667 -1.98828e-05
0.000141667 0.00367032 3.27723e-05
-1.98828e-05 3.27723e-05 0.00226379
0.00280095 -0.00101256 0.000182868
-0.00101256 6.41639e-05 -0.000132969
0.000182868 -0.000132969 -0.00243763
0.0111153 0.00128801 0.000159184
0.00128801 0.00519721 -3.25284e-06
0.000159184 -3.25284e-06 0.00426539
0.002628 -0.000812561 -2.1133e-05
-0.000812561 0.000641278 7.49341e-06
-2.1133e-05 7.49341e-06 0.000488202
-0.000439228 0.000601842 8.91465e-05
0.000601842 -0.000446634 -2.20978e-05
8.91465e-05 -2.20978e-05 -0.00108767
0.00499014 -0.000483765 -5.93279e-05
-0.000483765 -0.000504593 5.94794e-05
-5.93279e-05 5.94794e-05 -0.00267042
0.00577718 -0.00142521 -3.46788e-05
-0.00142521 0.00113709 1.6146e-05
-3.46788e-05 1.6146e-05 0.000613657
0.00128848 -0.000558603 4.55348e-05
-0.000558603 -7.44349e-05 -1.0907e-05
4.55348e-05 -1.0907e-05 -0.000274821
0.0104594 -0.000470215 9.49914e-06
-0.000470215 0.00247181 -2.79401e-05
9.49914e-06 -2.79401e-05 0.000950004
0.0037072 -0.000755848 7.51172e-05
-0.000755848 -0.000627333 -4.34613e-05
7.51172e-05 -4.34613e-05 -0.000468566
-0.000881526 -0.000270833 -2.37847e-05
-0.000270833 -0.00109589 1.04833e-05
-2.37847e-05 1.04833e-05 -0.00103666
0.000426078 -0.000359383 -9.92537e-06
-0.000359383 -0.000546523 -1.14235e-06
-9.92537e-06 -1.14235e-06 -0.00057419
0.00352646 -0.000588289 3.13183e-05
-0.000588289 0.000907527 -1.81933e-05
3.13183e-05 -1.81933e-05 0.000852263
0.000443709 -0.000382631 -1.42617e-05
-0.000382631 -0.000345716 -7.47634e-06
-1.42617e-05 -7.47634e-06 -0.000616994
0.00174521 -0.000539945 -4.37125e-08
-0.000539945 0.000121906 -6.46702e-07
-4.37125e-08 -6.46702e-07 -9.46119e-05
0.00217117 -0.000492207 -8.60381e-07
-0.000492207 0.000166553 -8.00464e-07
-8.60381e-07 -8.00464e-07 2.76713e-05
0.00152977 -0.000490609 -2.75607e-06
-0.000490609 0.000140727 3.93097e-06
-2.75607e-06 3.93097e-06 -0.000169509
0.00184258 -0.000464576 -2.0511e-06
-0.000464576 0.000127466 6.97977e-07
-2.0511e-06 6.97977e-07 -8.01676e-05
0.00188272 -0.000362144 -1.0912e-07
-0.000362144 6.79606e-05 -9.97717e-07
-1.0912e-07 -9.97717e-07 -5.64518e-05
0.00126508 -0.000394986 3.84376e-06
-0.000394986 -4.31917e-05 4.383e-06
3.84376e-06 4.383e-06 -0.000291557
0.00172496 -0.000352379 -1.35301e-07
-0.000352379 9.34621e-05 9.44973e-07
-1.35301e-07 9.44973e-07 -7.15602e-05
0.00178886 -0.000298271 -3.47964e-06
-0.000298271 7.73904e-05 -1.24589e-06
-3.47964e-06 -1.24589e-06 -3.68473e-05
0.00197735 -0.000282715 -2.85873e-06
-0.000282715 0.000251398 -4.79375e-07
-2.85873e-06 -4.79375e-07 0.00013389
0.00171452 -0.000291072 -2.51353e-06
-0.000291072 8.86226e-05 3.14461e-06
-2.51353e-06 3.14461e-06 -5.29259e-05
0.00175494 -0.000305405 -1.49482e-06
-0.000305405 0.000150612 -5.41295e-06
-1.49482e-06 -5.41295e-06 -1.05865e-05
0.00167553 -0.000352326 -4.0973e-06
-0.000352326 0.000178855 -1.89646e-06
-4.0973e-06 -1.89646e-06 -3.60011e-05
0.00167906 -0.000363002 1.22912e-06
-0.000363002 0.000143643 4.41249e-07
1.22912e-06 4.41249e-07 -6.89945e-05
0.0015966 -0.000343629 3.63709e-06
-0.000343629 8.83521e-05 5.83531e-06
3.63709e-06 5.83531e-06 -0.000108045
0.00148423 -0.000326947 -6.33921e-06
-0.000326947 0.000218201 1.73826e-06
-6.33921e-06 1.73826e-06 -1.05153e-05
0.00146194 -0.000376444 -4.47669e-07
-0.000376444 0.000137205 2.76325e-07
-4.47669e-07 2.76325e-07 -0.000112024
0.00172832 -0.000435611 2.46255e-06
-0.000435611 0.000266469 4.28321e-07
2.46255e-06 4.28321e-07 5.0907e-06
0.00112103 -0.000242332 -4.22278e-06
-0.000242332 0.000145199 3.51988e-06
-4.22278e-06 3.51988e-06 -6.05343e-05
0.00130948 -0.00029982 2.24761e-07
-0.00029982 0.000192269 2.71289e-07
2.24761e-07 2.71289e-07 -3.59907e-05
0.00132093 -0.000352418 2.21468e-06
-0.000352418 0.000152815 -2.2776e-06
2.21468e-06 -2.2776e-06 -0.000100136
0.000811296 -0.000153486 -5.39371e-06
-0.000153486 0.000104938 5.02456e-06
-5.39371e-06 5.02456e-06 -5.92863e-05
0.0010906 -0.00023035 8.87732e-07
-0.00023035 0.000207802 -2.55472e-07
8.87732e-07 -2.55472e-07 6.09204e-06
0.00102456 -0.000251625 1.15736e-06
-0.000251625 0.00010945 -1.66405e-06
1.15736e-06 -1.66405e-06 -0.000108201
0.000361272 -1.57117e-05 -5.75831e-06
-1.57117e-05 -0.000128844 1.10787e-05
-5.75831e-06 1.10787e-05 -0.000184264
0.000708678 -0.000111185 5.42034e-07
-0.000111185 8.72261e-05 6.51592e-07
5.42034e-07 6.51592e-07 -6.61466e-05
0.00131103 -0.00020868 3.15321e-07
-0.00020868 0.000422493 -1.33204e-06
3.15321e-07 -1.33204e-06 0.000221096
0.00305607 0.000153627 -4.96804e-05
0.000153627 0.00150987 2.41046e-06
-4.96804e-05 2.41046e-06 0.00150064
0.000528206 2.48551e-05 -2.27654e-07
2.48551e-05 -1.75194e-05 -6.25954e-07
-2.27654e-07 -6.25954e-07 -6.23299e-05
0.00104481 -0.000101597 2.34717e-06
-0.000101597 0.000297297 -5.04536e-06
2.34717e-06 -5.04536e-06 0.000170706
0.00182614 0.00010346 2.38864e-05
0.00010346 0.00076711 4.03346e-07
2.38864e-05 4.03346e-07 0.000760029
0.000615878 4.37934e-05 1.6971e-06
4.37934e-05 3.33851e-05 -6.89037e-06
1.6971e-06 -6.89037e-06 -1.99111e-06
0.00264961 0.000118266 3.92615e-05
0.000118266 0.0012538 -2.77168e-06
3.92615e-05 -2.77168e-06 0.00125422
0.000901511 0.000136517 3.531e-06
0.000136517 0.000179004 8.65009e-07
3.531e-06 8.65009e-07 4.23339e-05
0.000566638 7.36564e-05 -1.95269e-07
7.36564e-05 -1.45016e-06 2.25861e-07
-1.95269e-07 2.25861e-07 -0.000126008
0.000643205 5.16514e-05 -4.16799e-07
5.16514e-05 5.44281e-05 -1.55685e-06
-4.16799e-07 -1.55685e-06 -7.22432e-05
0.000920083 9.58157e-05 5.96048e-07
9.58157e-05 0.000225984 5.74211e-07
5.96048e-07 5.74211e-07 9.34289e-05
0.000708254 3.88674e-05 2.11918e-07
3.88674e-05 9.59134e-05 5.35054e-08
2.11918e-07 5.35054e-08 -2.43875e-05
0.000665608 9.73423e-06 -1.12047e-06
9.73423e-06 5.55045e-05 -4.42739e-06
-1.12047e-06 -4.42739e-06 -3.17342e-05
0.000562221 -2.43932e-05 -2.04685e-06
-2.43932e-05 -1.49212e-05 -6.95296e-06
-2.04685e-06 -6.95296e-06 -4.7491e-05
0.00061775 6.47682e-06 2.39026e-07
6.47682e-06 2.68863e-05 -7.34375e-08
2.39026e-07 -7.34375e-08 -5.40156e-05
0.000637365 1.89995e-05 -3.37219e-07
1.89995e-05 4.16528e-05 1.83408e-06
-3.37219e-07 1.83408e-06 -6.26762e-05
0.00272636 -9.59496e-05 -4.42258e-05
-9.59496e-05 0.00128228 -3.92166e-06
-4.42258e-05 -3.92166e-06 0.00128775
0.000523304 -2.02887e-05 -8.91069e-08
-2.02887e-05 -4.35889e-05 -8.11797e-08
-8.91069e-08 -8.11797e-08 -7.15083e-05
0.000600045 1.80954e-05 6.25773e-07
1.80954e-05 1.69985e-05 3.15725e-06
6.25773e-07 3.15725e-06 -5.94335e-05
0.0025913 -8.19248e-05 -5.12841e-06
-8.19248e-05 0.00119471 3.46157e-07
-5.12841e-06 3.46157e-07 0.00120314
0.000514018 -2.60686e-05 -2.34101e-07
-2.60686e-05 -5.39242e-05 5.46416e-06
-2.34101e-07 5.46416e-06 -7.75964e-05
0.00246318 -6.61229e-05 2.52239e-05
-6.61229e-05 0.00111238 4.44609e-06
2.52239e-05 4.44609e-06 0.00112395
8.69671e-05 0.000320736 -0.000243513
0.000320736 0.00180602 2.18312e-05
-0.000243513 2.18312e-05 0.000615677
-0.0029182 1.14317e-05 1.59081e-05
1.14317e-05 0.00204373 1.40434e-05
1.59081e-05 1.40434e-05 -0.000922055
0.0041599 -3.32365e-05 -7.39191e-05
-3.32365e-05 0.00217242 -8.37953e-06
-7.39191e-05 -8.37953e-06 0.000983582
0.000476285 4.42494e-05 2.57377e-06
4.42494e-05 -5.96042e-05 -2.09885e-06
2.57377e-06 -2.09885e-06 -0.000173048
0.000631376 5.21165e-05 2.58438e-06
5.21165e-05 2.90361e-05 1.0013e-06
2.58438e-06 1.0013e-06 -0.000108395
0.00160295 0.000260447 -1.50432e-06
0.000260447 0.000630297 9.81833e-07
-1.50432e-06 9.81833e-07 0.000461381
0.00136183 0.000289538 3.25611e-06
0.000289538 0.000398041 -2.30297e-06
3.25611e-06 -2.30297e-06 0.000180107
0.00104886 0.000203359 -6.51576e-06
0.000203359 0.000330228 -4.91171e-07
-6.51576e-06 -4.91171e-07 0.000151654
0.000910961 0.000119316 6.61328e-07
0.000119316 0.000253193 3.17902e-06
6.61328e-07 3.17902e-06 9.73892e-05
0.000796143 0.00010317 4.71622e-06
0.00010317 0.000143843 3.25688e-06
4.71622e-06 3.25688e-06 -3.94867e-06
0.000604886 0.000157594 -4.60169e-06
0.000157594 7.45575e-05 -3.40995e-06
-4.60169e-06 -3.40995e-06 -0.00010698
-0.000426438 0.000139539 4.54856e-07
0.000139539 -0.000588476 -5.87402e-07
4.54856e-07 -5.87402e-07 -0.000768337
0.00158976 0.000336308 3.34627e-06
0.000336308 0.000461008 -2.59989e-06
3.34627e-06 -2.59989e-06 0.000331558
0.00203895 0.00055502 4.57714e-06
0.00055502 0.000432946 -7.90161e-06
4.57714e-06 -7.90161e-06 0.000225559
0.00079626 0.000257163 -5.93579e-06
0.000257163 9.8171e-05 -6.29344e-07
-5.93579e-06 -6.29344e-07 -2.39074e-05
0.000718355 0.000103378 -1.51241e-06
0.000103378 0.000133429 -2.47131e-06
-1.51241e-06 -2.47131e-06 -4.9408e-06
0.0114256 0.000932094 -9.87321e-05
0.000932094 0.00273965 3.87095e-05
-9.87321e-05 3.87095e-05 0.00127488
-0.000116159 -0.000778635 -0.00020974
-0.000778635 0.0021771 -7.14568e-05
-0.00020974 -7.14568e-05 0.000648837
-0.00136984 -0.00110831 0.000122437
-0.00110831 0.00168542 -2.91431e-07
0.000122437 -2.91431e-07 -0.000793924
-0.00116859 -0.000981758 4.13227e-05
-0.000981758 -0.000176354 0.000167282
4.13227e-05 0.000167282 -0.000562372
0.0112426 0.00128405 -2.07945e-06
0.00128405 0.00494585 1.68242e-06
-2.07945e-06 1.68242e-06 0.00166345
-2.75434e-05 0.000303141 -3.00997e-05
0.000303141 -0.000330147 -2.55538e-05
-3.00997e-05 -2.55538e-05 -0.000502081
0.00160863 0.000772535 -2.34934e-05
0.000772535 0.00031806 -1.19709e-05
-2.34934e-05 -1.19709e-05 0.000277677
0.010798 0.00114417 2.58054e-05
0.00114417 0.00342292 2.33854e-05
2.58054e-05 2.33854e-05 0.00143272
0.00582764 0.00159019 -4.3953e-05
0.00159019 0.000895527 -5.11303e-05
-4.3953e-05 -5.11303e-05 0.000489631
0.00164484 0.000667862 3.29992e-06
0.000667862 0.000160318 -6.5727e-06
3.29992e-06 -6.5727e-06 -1.37774e-05
0.00111081 0.000500287 5.93181e-06
0.000500287 0.000152069 -6.6792e-07
5.93181e-06 -6.6792e-07 -7.11792e-05
0.000903273 0.000279546 -1.74553e-05
0.000279546 0.000233061 1.75677e-05
-1.74553e-05 1.75677e-05 0.000108724
0.00269555 0.000807905 -4.63822e-05
0.000807905 0.000787441 -1.997e-05
-4.63822e-05 -1.997e-05 0.000444895
0.00205577 0.000921863 7.11053e-07
0.000921863 -0.000174451 1.9584e-05
7.11053e-07 1.9584e-05 -0.000316448
0.000994459 -0.000355834 -3.74242e-05
-0.000355834 -0.00324801 2.19773e-05
-3.74242e-05 2.19773e-05 -0.00347431
0.00210587 -0.000525878 -5.82721e-07
-0.000525878 0.00127505 -2.27854e-05
-5.82721e-07 -2.27854e-05 0.00135171
-0.00571541 2.82762e-05 0.000167604
2.82762e-05 0.00222181 -5.03455e-06
0.000167604 -5.03455e-06 -0.000822937
0.00197237 -0.000854465 -3.21587e-05
-0.000854465 0.000217976 6.95604e-06
-3.21587e-05 6.95604e-06 -3.64473e-05
0.00332936 -0.00127341 3.03404e-05
-0.00127341 0.000509478 -4.88953e-06
3.03404e-05 -4.88953e-06 -0.00031688
0.00123574 -0.000298512 0.00027896
-0.000298512 0.0021027 -2.19773e-05
0.00027896 -2.19773e-05 0.0011287
0.0127728 -0.000599616 -0.000144905
-0.000599616 0.00352774 6.87949e-05
-0.000144905 6.87949e-05 0.00192035
0.0009963 -0.00056435 -2.85401e-05
-0.00056435 -0.000257375 -3.42121e-06
-2.85401e-05 -3.42121e-06 -0.000407287
0.00879695 5.4182e-05 -6.87251e-05
5.4182e-05 0.00101347 3.08334e-05
-6.87251e-05 3.08334e-05 -4.66344e-05
0.00477734 -0.000830107 7.86716e-05
-0.000830107 -0.000116222 6.21023e-06
7.86716e-05 6.21023e-06 -0.000352263
0.00363125 -0.000582824 5.5512e-05
-0.000582824 0.00101269 -1.3253e-05
5.5512e-05 -1.3253e-05 0.000695646
0.00332009 -0.000304351 -9.14305e-05
-0.000304351 -0.000119043 6.87553e-06
-9.14305e-05 6.87553e-06 -4.97618e-05
-0.00199704 -0.000206543 -1.41948e-05
-0.000206543 -0.00188751 4.54784e-06
-1.41948e-05 4.54784e-06 -0.00184677
0.00152438 -0.000465399 -8.20236e-07
-0.000465399 -0.000159391 -6.01095e-07
-8.20236e-07 -6.01095e-07 -0.000186494
0.00243355 -0.000412234 1.74187e-05
-0.000412234 0.000183742 -9.60392e-06
1.74187e-05 -9.60392e-06 0.000216945
0.00118335 -0.00048864 -2.54707e-06
-0.00048864 -0.000160028 2.98838e-06
-2.54707e-06 2.98838e-06 -0.000366122
0.00181171 -0.000456288 -1.99873e-06
-0.000456288 -2.74422e-06 5.55978e-07
-1.99873e-06 5.55978e-07 -0.000138138
0.0020214 -0.000359748 1.8809e-06
-0.000359748 1.12472e-05 1.02112e-06
1.8809e-06 1.02112e-06 -3.99499e-05
0.00187652 -0.000464179 -4.26242e-06
-0.000464179 0.000149166 6.30737e-06
-4.26242e-06 6.30737e-06 -6.08646e-05
0.0018682 -0.000360579 3.67391e-07
-0.000360579 6.05087e-05 1.74724e-06
3.67391e-07 1.74724e-06 -6.21133e-05
0.00186828 -0.00032017 -4.02815e-07
-0.00032017 6.61847e-05 1.97964e-06
-4.02815e-07 1.97964e-06 -1.9894e-05
0.00169062 -0.000344513 3.76422e-06
-0.000344513 8.03023e-05 5.59729e-06
3.76422e-06 5.59729e-06 -8.30774e-05
0.00176923 -0.000300092 -4.20908e-07
-0.000300092 6.46198e-05 1.40452e-06
-4.20908e-07 1.40452e-06 -5.06847e-05
0.00200873 -0.000303898 -1.13361e-06
-0.000303898 0.000215481 5.35813e-07
-1.13361e-06 5.35813e-07 0.000111898
0.00184174 -0.000277393 -3.99326e-06
-0.000277393 0.000163408 3.48489e-06
-3.99326e-06 3.48489e-06 4.95699e-05
0.001874 -0.000288507 1.35315e-06
-0.000288507 0.000212329 -3.09642e-06
1.35315e-06 -3.09642e-06 8.11415e-05
0.00179212 -0.000294 2.86589e-06
-0.000294 0.000129229 7.76274e-06
2.86589e-06 7.76274e-06 -7.91876e-06
0.00175874 -0.000306774 3.31324e-07
-0.000306774 0.000151816 -8.09267e-07
3.31324e-07 -8.09267e-07 -9.99439e-06
0.00169069 -0.000304607 -1.54665e-06
-0.000304607 0.000146358 -3.31404e-06
-1.54665e-06 -3.31404e-06 -3.21432e-05
0.00157953 -0.000315261 -5.25575e-06
-0.000315261 0.00019297 -6.79131e-07
-5.25575e-06 -6.79131e-07 -1.82884e-05
0.00171757 -0.000356064 2.95968e-07
-0.000356064 0.000204871 -3.08304e-07
2.95968e-07 -3.08304e-07 -1.12848e-05
0.0018129 -0.000372299 4.19199e-06
-0.000372299 0.000222226 2.73814e-06
4.19199e-06 2.73814e-06 8.80361e-06
0.00112942 -0.000240198 -7.06339e-06
-0.000240198 7.94473e-05 2.50669e-06
-7.06339e-06 2.50669e-06 -0.000118756
0.00136685 -0.000315766 -8.97337e-07
-0.000315766 0.000151673 2.85708e-07
-8.97337e-07 2.85708e-07 -7.58034e-05
0.00144605 -0.000375374 2.69578e-06
-0.000375374 0.000124207 4.41309e-07
2.69578e-06 4.41309e-07 -0.000124757
0.000821719 -0.000167539 -7.34326e-06
-0.000167539 4.28253e-05 6.50823e-06
-7.34326e-06 6.50823e-06 -0.000122484
0.00113482 -0.000243597 8.62017e-07
-0.000243597 0.000152334 4.66165e-07
8.62017e-07 4.66165e-07 -5.37888e-05
0.00111986 -0.000282733 3.05568e-06
-0.000282733 8.04587e-05 -1.48572e-06
3.05568e-06 -1.48572e-06 -0.000145487
0.000395407 -8.73017e-05 -1.55934e-05
-8.73017e-05 -0.000134973 1.2978e-05
-1.55934e-05 1.2978e-05 -0.000202465
0.000789337 -0.000166683 -4.90148e-07
-0.000166683 9.13904e-05 3.12415e-07
-4.90148e-07 3.12415e-07 -7.46077e-05
0.00114677 -0.000230641 1.885e-06
-0.000230641 0.000241366 -2.04102e-06
1.885e-06 -2.04102e-06 4.02172e-05
0.00374551 0.000172584 -7.92124e-05
0.000172584 0.00192246 2.81824e-06
-7.92124e-05 2.81824e-06 0.00190885
0.000544022 -3.5558e-05 1.1672e-06
-3.5558e-05 -2.48326e-05 -3.59157e-07
1.1672e-06 -3.59157e-07 -8.17828e-05
0.000866092 -0.000158284 4.87252e-06
-0.000158284 0.000181311 -4.69574e-06
4.87252e-06 -4.69574e-06 2.1216e-05
0.00326525 0.000144532 9.43469e-06
0.000144532 0.00163051 3.82766e-07
9.43469e-06 3.82766e-07 0.00162438
0.000678378 6.97398e-06 6.51104e-06
6.97398e-06 6.58104e-05 -9.20216e-06
6.51104e-06 -9.20216e-06 2.12363e-05
0.00291653 0.000125287 6.16483e-05
0.000125287 0.00141677 -2.16666e-06
6.16483e-05 -2.16666e-06 0.00141598
0.00114306 0.000242027 4.34239e-06
0.000242027 0.000271056 -4.18598e-06
4.34239e-06 -4.18598e-06 6.94544e-05
0.000846413 0.000161087 1.21861e-06
0.000161087 0.000155939 -1.48751e-07
1.21861e-06 -1.48751e-07 1.09206e-05
0.000408283 5.76132e-05 4.91508e-07
5.76132e-05 -9.46051e-05 -8.02432e-07
4.91508e-07 -8.02432e-07 -0.000227174
0.000243322 3.36541e-05 -9.96097e-08
3.36541e-05 -0.000191464 -5.87568e-07
-9.96097e-08 -5.87568e-07 -0.000307612
0.000511567 2.39889e-05 -3.03989e-07
2.39889e-05 -2.68979e-05 6.79347e-07
-3.03989e-07 6.79347e-07 -0.000150051
0.00066502 1.72368e-05 -1.43927e-06
1.72368e-05 5.42224e-05 -4.56486e-06
-1.43927e-06 -4.56486e-06 -4.22428e-05
0.000608415 1.70969e-05 1.99112e-07
1.70969e-05 2.7226e-05 2.10734e-06
1.99112e-07 2.10734e-06 -8.45221e-05
0.000609951 3.06993e-06 3.20108e-07
3.06993e-06 2.45257e-05 -2.19356e-07
3.20108e-07 -2.19356e-07 -6.28031e-05
0.000567006 -2.70712e-05 -2.56901e-06
-2.70712e-05 -5.65745e-06 -7.81233e-06
-2.56901e-06 -7.81233e-06 -4.25854e-05
0.00286488 -0.000110559 -5.32442e-05
-0.000110559 0.00137326 -3.45794e-06
-5.32442e-05 -3.45794e-06 0.00137545
0.000516985 -2.24497e-05 1.47308e-07
-2.24497e-05 -4.16057e-05 -3.17817e-08
1.47308e-07 -3.17817e-08 -7.37926e-05
0.000581987 7.7339e-06 1.04806e-06
7.7339e-06 6.88994e-06 3.81729e-06
1.04806e-06 3.81729e-06 -7.4406e-05
0.00274126 -9.71305e-05 -5.51636e-06
-9.71305e-05 0.00129094 4.25191e-07
-5.51636e-06 4.25191e-07 0.00129606
0.000490257 -2.11267e-05 1.02679e-06
-2.11267e-05 -6.24044e-05 6.0799e-06
1.02679e-06 6.0799e-06 -9.02457e-05
0.00256992 -8.12092e-05 3.12396e-05
-8.12092e-05 0.00118122 4.29034e-06
3.12396e-05 4.29034e-06 0.00118986
0.0116796 0.000539841 0.000215112
0.000539841 0.00266231 5.93654e-05
0.000215112 5.93654e-05 0.00175947
-0.00329285 -0.00101253 -0.000150093
-0.00101253 -0.0025414 -2.13795e-05
-0.000150093 -2.13795e-05 -0.00287217
-0.00577784 0.000460757 -7.81255e-05
0.000460757 0.000868313 -4.29065e-05
-7.81255e-05 -4.29065e-05 -0.0026711
0.000598657 2.75907e-05 1.03457e-05
2.75907e-05 3.42875e-06 1.39204e-06
1.03457e-05 1.39204e-06 -0.000137376
0.000956785 0.000199356 -3.87176e-06
0.000199356 0.000251535 1.13574e-06
-3.87176e-06 1.13574e-06 9.87153e-05
0.001347 0.00022588 -4.97492e-07
0.00022588 0.00049041 -9.88639e-07
-4.97492e-07 -9.88639e-07 0.000309043
0.00139111 0.000289393 -4.34543e-06
0.000289393 0.000424873 1.20573e-06
-4.34543e-06 1.20573e-06 0.000208722
0.000821015 0.000276691 1.3558e-05
0.000276691 -5.75831e-05 1.83063e-06
1.3558e-05 1.83063e-06 -0.000297813
0.000140242 0.000183015 7.2179e-07
0.000183015 -0.000266651 -2.52671e-06
7.2179e-07 -2.52671e-06 -0.000455666
0.000307159 0.000144109 -3.18766e-06
0.000144109 -8.28999e-05 -2.60553e-06
-3.18766e-06 -2.60553e-06 -0.000260431
0.000311599 0.000218705 1.28032e-06
0.000218705 -0.000189035 1.80883e-06
1.28032e-06 1.80883e-06 -0.000392847
0.00110394 0.000308036 1.76661e-07
0.000308036 0.000203871 8.61222e-07
1.76661e-07 8.61222e-07 6.93107e-05
0.000747717 0.000331314 5.61847e-06
0.000331314 -0.000105726 2.00354e-06
5.61847e-06 2.00354e-06 -0.000297019
0.00318781 0.000615565 -2.90005e-06
0.000615565 0.00103783 -3.152e-06
-2.90005e-06 -3.152e-06 0.000849153
0.00206505 0.000585169 -3.89299e-06
0.000585169 0.000366323 5.40282e-06
-3.89299e-06 5.40282e-06 0.000173627
0.00144386 0.000501635 3.93834e-06
0.000501635 0.000125906 -3.28525e-06
3.93834e-06 -3.28525e-06 -6.16226e-05
0.000333711 0.000237484 -2.91937e-06
0.000237484 -0.000150695 1.86739e-06
-2.91937e-06 1.86739e-06 -0.000277656
0.00580214 0.000721056 -1.45235e-05
0.000721056 0.000312891 1.05922e-05
-1.45235e-05 1.05922e-05 0.000612172
0.00986649 0.000798621 0.000105804
0.000798621 0.00185773 5.34248e-05
0.000105804 5.34248e-05 0.000245825
0.00569443 -0.00155994 0.000116061
-0.00155994 0.00321031 -5.73155e-05
0.000116061 -5.73155e-05 0.0023188
0.00381401 0.00157348 0.000352287
0.00157348 -8.98768e-05 0.00016888
0.000352287 0.00016888 -0.00354509
0.000950649 0.000617986 -4.94934e-05
0.000617986 0.000102609 -4.22595e-06
-4.94934e-05 -4.22595e-06 0.00025072
0.00340052 0.00121502 -8.90082e-05
0.00121502 -8.34784e-05 -2.69567e-05
-8.90082e-05 -2.69567e-05 -0.000221903
0.00404266 0.00100186 4.31519e-05
0.00100186 0.000720832 2.04362e-05
4.31519e-05 2.04362e-05 0.00066631
0.00310953 0.000807029 9.54354e-06
0.000807029 0.000808545 5.94537e-06
9.54354e-06 5.94537e-06 0.000630717
0.000632971 0.00042919 -1.06782e-05
0.00042919 -4.85033e-05 1.85e-05
-1.06782e-05 1.85e-05 -0.000255127
0.0042291 0.00111501 -0.000126615
0.00111501 0.000849231 -2.69022e-05
-0.000126615 -2.69022e-05 0.00064047
0.0029122 -0.000234707 -5.82471e-05
-0.000234707 0.000352111 7.6857e-06
-5.82471e-05 7.6857e-06 0.000174621
0.0101198 -0.000305253 -1.2682e-05
-0.000305253 0.00251767 5.4745e-06
-1.2682e-05 5.4745e-06 0.00193773
-0.00960167 -0.000763888 0.00033369
-0.000763888 -0.00539589 -7.17303e-06
0.00033369 -7.17303e-06 -0.00503014
0.000363489 -0.000527325 -5.02211e-05
-0.000527325 -0.000667356 1.03483e-05
-5.02211e-05 1.03483e-05 -0.000759148
0.00709918 -0.00108234 0.000110954
-0.00108234 0.000949405 3.37558e-05
0.000110954 3.37558e-05 0.000836515
0.00147235 -0.00037076 -2.7291e-05
-0.00037076 -0.00223294 5.95363e-05
-2.7291e-05 5.95363e-05 -0.00377132
0.00161076 -0.000423058 1.72875e-05
-0.000423058 -0.000126903 1.31307e-06
1.72875e-05 1.31307e-06 -0.000263528
0.00293807 -0.00018153 -8.65833e-06
-0.00018153 -0.000369395 4.89961e-06
-8.65833e-06 4.89961e-06 -0.000380474
0.00433641 -0.000428342 2.42785e-05
-0.000428342 0.00101809 -1.05319e-05
2.42785e-05 -1.05319e-05 0.00111109
0.00367843 -0.000111719 7.04521e-05
-0.000111719 0.000859464 1.80949e-06
7.04521e-05 1.80949e-06 0.000818295
-0.000466518 -0.000354376 -7.74932e-06
-0.000354376 -0.0012299 7.78905e-06
-7.74932e-06 7.78905e-06 -0.00122024
0.00179006 -0.000382145 -3.43511e-07
-0.000382145 -0.000162843 4.9514e-07
-3.43511e-07 4.9514e-07 -0.000118049
0.00184191 -0.000268749 1.43594e-05
-0.000268749 -0.000202842 -3.14209e-06
1.43594e-05 -3.14209e-06 -8.21163e-05
0.00156468 -0.00043036 -2.52165e-08
-0.00043036 -0.000120729 2.0729e-06
-2.52165e-08 2.0729e-06 -0.000253519
0.00197195 -0.000358986 1.68208e-06
-0.000358986 -1.19217e-05 7.26751e-07
1.68208e-06 7.26751e-07 -6.40593e-05
0.00191556 -0.000295863 8.38461e-07
-0.000295863 2.9725e-05 9.46347e-07
8.38461e-07 9.46347e-07 4.73919e-06
0.0018565 -0.000358481 3.72504e-06
-0.000358481 5.44738e-05 3.74544e-06
3.72504e-06 3.74544e-06 -6.60262e-05
0.00186611 -0.000316648 7.58876e-07
-0.000316648 7.307e-05 3.10532e-07
7.58876e-07 3.10532e-07 -1.21005e-05
0.00194435 -0.0002858 -2.56938e-06
-0.0002858 0.000132997 1.69824e-06
-2.56938e-06 1.69824e-06 5.34949e-05
0.00175402 -0.000301575 4.23876e-06
-0.000301575 5.4822e-05 3.4398e-06
4.23876e-06 3.4398e-06 -6.13944e-05
0.00184105 -0.000296734 2.88946e-07
-0.000296734 0.000125841 4.99517e-07
2.88946e-07 4.99517e-07 2.21825e-05
0.00170476 -0.000276651 2.89492e-06
-0.000276651 8.19649e-05 -1.49168e-06
2.89492e-06 -1.49168e-06 -3.10634e-05
0.00170806 -0.00027219 -1.87937e-06
-0.00027219 7.67078e-05 6.85131e-06
-1.87937e-06 6.85131e-06 -3.35094e-05
0.0018914 -0.000285801 -2.20721e-06
-0.000285801 0.000219582 1.57786e-07
-2.20721e-06 1.57786e-07 9.21106e-05
0.00181555 -0.000282395 5.58041e-07
-0.000282395 0.000201941 -1.99493e-06
5.58041e-07 -1.99493e-06 4.81521e-05
0.00176239 -0.000307577 2.5373e-06
-0.000307577 0.000152833 3.69646e-06
2.5373e-06 3.69646e-06 -9.42571e-06
0.00173221 -0.000308044 5.26976e-07
-0.000308044 0.000172332 -6.11067e-07
5.26976e-07 -6.11067e-07 -7.32515e-06
0.00172076 -0.000286569 -2.10254e-06
-0.000286569 0.000228762 -1.49274e-06
-2.10254e-06 -1.49274e-06 4.26923e-05
0.00113909 -0.000230016 -8.96056e-06
-0.000230016 3.10791e-05 2.41073e-06
-8.96056e-06 2.41073e-06 -0.00015743
0.00158703 -0.000316317 -9.29412e-07
-0.000316317 0.000201339 -2.96676e-07
-9.29412e-07 -2.96676e-07 -1.0961e-05
0.00175582 -0.000359324 3.99901e-06
-0.000359324 0.000229108 9.32641e-07
3.99901e-06 9.32641e-07 1.17259e-05
0.000925803 -0.000181334 -1.06378e-05
-0.000181334 4.22288e-05 6.40394e-06
-1.06378e-05 6.40394e-06 -0.000120149
0.00118473 -0.000245795 -2.10681e-07
-0.000245795 0.000107034 2.17226e-07
-2.10681e-07 2.17226e-07 -9.22022e-05
0.00128248 -0.000308072 1.99587e-06
-0.000308072 0.00010299 -4.54573e-07
1.99587e-06 -4.54573e-07 -0.000123925
0.000437229 -0.000118113 -1.84272e-05
-0.000118113 -0.000132553 1.39453e-05
-1.84272e-05 1.39453e-05 -0.000210787
0.000843809 -0.000173588 5.81291e-07
-0.000173588 5.82125e-05 4.55142e-07
5.81291e-07 4.55142e-07 -0.000108457
0.00116472 -0.000246568 6.15683e-06
-0.000246568 0.00016821 -2.36847e-06
6.15683e-06 -2.36847e-06 -3.85584e-05
0.00452646 0.000183762 -0.000119107
0.000183762 0.00238864 5.66819e-06
-0.000119107 5.66819e-06 0.00237113
0.000565688 -9.24474e-05 6.22393e-08
-9.24474e-05 -3.474e-05 -3.03966e-07
6.22393e-08 -3.03966e-07 -0.000106082
0.000782762 -0.000180226 6.76285e-06
-0.000180226 8.50157e-05 -5.99129e-06
6.76285e-06 -5.99129e-06 -8.20413e-05
0.00397669 0.000144064 9.28902e-06
0.000144064 0.00205332 4.55945e-07
9.28902e-06 4.55945e-07 0.00204642
0.00071319 -4.51884e-05 1.19326e-05
-4.51884e-05 7.20003e-05 -1.12377e-05
1.19326e-05 -1.12377e-05 1.36248e-05
0.00344824 0.000112033 0.000105168
0.000112033 0.00173255 -4.41138e-06
0.000105168 -4.41138e-06 0.00173432
0.00142458 0.000293875 -3.84454e-06
0.000293875 0.000325341 -4.1639e-06
-3.84454e-06 -4.1639e-06 9.51404e-05
0.00142175 0.000267178 1.1121e-06
0.000267178 0.000439974 5.71275e-07
1.1121e-06 5.71275e-07 0.000233888
0.00065262 0.00015088 -8.64271e-09
0.00015088 1.53555e-05 -5.88921e-06
-8.64271e-09 -5.88921e-06 -0.000159495
0.000693305 0.000171861 -2.2297e-06
0.000171861 7.74226e-05 -1.8213e-07
-2.2297e-06 -1.8213e-07 -7.45358e-05
0.000416149 6.96701e-05 3.09905e-07
6.96701e-05 -9.01845e-05 -5.86094e-07
3.09905e-07 -5.86094e-07 -0.00022789
0.000785419 9.70215e-05 -2.96831e-06
9.70215e-05 0.00013351 -4.88147e-06
-2.96831e-06 -4.88147e-06 1.09384e-05
0.000372455 4.30331e-06 3.58707e-07
4.30331e-06 -0.000114198 1.64176e-06
3.58707e-07 1.64176e-06 -0.00023278
0.000633222 1.65378e-05 6.38659e-08
1.65378e-05 3.73607e-05 -2.52003e-07
6.38659e-08 -2.52003e-07 -5.92846e-05
0.000575912 -2.23656e-05 -3.45254e-06
-2.23656e-05 4.31905e-06 -8.71856e-06
-3.45254e-06 -8.71856e-06 -3.73224e-05
0.00056534 4.1921e-07 1.01481e-06
4.1921e-07 -1.51968e-06 4.39415e-06
1.01481e-06 4.39415e-06 -8.81049e-05
0.00051313 -2.47797e-05 2.81703e-07
-2.47797e-05 -3.73027e-05 -6.87597e-08
2.81703e-07 -6.87597e-08 -7.37716e-05
0.0029937 -0.000122785 -6.40158e-05
-0.000122785 0.00145877 -2.88299e-06
-6.40158e-05 -2.88299e-06 0.00145812
0.00284155 -0.000111191 -4.40622e-06
-0.000111191 0.00135879 4.32828e-07
-4.40622e-06 4.32828e-07 0.00136065
0.00048288 -1.59606e-05 2.85554e-06
-1.59606e-05 -6.21797e-05 6.91467e-06
2.85554e-06 6.91467e-06 -9.37064e-05
0.00269285 -9.63731e-05 3.83389e-05
-9.63731e-05 0.00126162 4.01813e-06
3.83389e-05 4.01813e-06 0.00126682
0.00354669 3.74035e-05 3.07404e-05
3.74035e-05 -0.000283547 1.11919e-05
3.07404e-05 1.11919e-05 -6.71628e-05
0.00300998 -0.000581738 6.89027e-05
-0.000581738 -0.0023182 3.11602e-05
6.89027e-05 3.11602e-05 -0.00339374
0.00797557 -0.00105552 -9.49067e-05
-0.00105552 0.003004 -5.99078e-05
-9.49067e-05 -5.99078e-05 0.00332047
0.00120929 0.000338746 6.23294e-06
0.000338746 4.2579e-05 4.82576e-06
6.23294e-06 4.82576e-06 -0.000200921
0.00159225 0.000251491 1.43277e-06
0.000251491 0.000620472 1.79106e-06
1.43277e-06 1.79106e-06 0.000435306
0.00150176 0.000297875 -5.87973e-06
0.000297875 0.000500386 7.57357e-06
-5.87973e-06 7.57357e-06 0.000284107
0.000755866 0.000247948 1.50554e-06
0.000247948 8.07119e-05 2.62799e-06
1.50554e-06 2.62799e-06 -0.000123681
0.00123725 0.000316867 -1.04743e-06
0.000316867 0.000197532 -1.55994e-06
-1.04743e-06 -1.55994e-06 -5.28568e-05
0.00105807 0.000359392 7.48678e-06
0.000359392 5.22635e-05 5.75041e-06
7.48678e-06 5.75041e-06 -0.000169537
0.00105906 0.000298678 -6.92553e-06
0.000298678 0.000219667 -3.62315e-06
-6.92553e-06 -3.62315e-06 -8.70926e-06
0.000563306 0.000277616 3.24815e-06
0.000277616 -8.6081e-05 3.64755e-06
3.24815e-06 3.64755e-06 -0.00022289
0.00132734 0.000390438 2.54454e-06
0.000390438 0.000209124 -1.01639e-06
2.54454e-06 -1.01639e-06 8.41499e-06
0.00222393 0.00053141 3.22175e-06
0.00053141 0.000509084 6.41508e-06
3.22175e-06 6.41508e-06 0.000339781
0.00171581 0.000523452 2.52809e-06
0.000523452 0.000143295 2.09169e-07
2.52809e-06 2.09169e-07 -5.79654e-05
0.00170777 0.00048849 6.22557e-06
0.00048849 0.000157602 8.73752e-06
6.22557e-06 8.73752e-06 2.00397e-05
0.00119835 0.000515003 -3.11178e-06
0.000515003 -9.56834e-05 -2.89595e-06
-3.11178e-06 -2.89595e-06 -0.000278158
0.000667006 0.000427756 -9.50746e-07
0.000427756 -0.000275747 -1.10164e-07
-9.50746e-07 -1.10164e-07 -0.000438664
0.00152147 0.000401817 3.04593e-05
0.000401817 -0.000264207 3.34291e-05
3.04593e-05 3.34291e-05 -0.000198614
0.00517782 0.000819594 -5.28492e-05
0.000819594 -0.000238144 -1.50032e-05
-5.28492e-05 -1.50032e-05 1.48622e-05
0.00217172 0.000496183 0.000301009
0.000496183 -0.00221641 3.91108e-05
0.000301009 3.91108e-05 -0.00402077
0.000375564 0.000886265 -2.15706e-05
0.000886265 -0.00131621 -2.52435e-05
-2.15706e-05 -2.52435e-05 -0.00139356
0.0027458 0.000804007 -2.60485e-05
0.000804007 0.000348148 -3.31846e-06
-2.60485e-05 -3.31846e-06 0.000277854
0.00262488 0.00075103 -6.6732e-05
0.00075103 0.000566724 -2.41087e-05
-6.6732e-05 -2.41087e-05 0.000385373
0.00231985 -0.000196619 -1.57441e-05
-0.000196619 -6.79252e-06 -9.12339e-06
-1.57441e-05 -9.12339e-06 2.59396e-06
0.000840273 -7.7142e-05 1.52293e-05
-7.7142e-05 -0.000266009 6.52115e-06
1.52293e-05 6.52115e-06 -0.0003804
0.00121371 0.000746236 9.64989e-05
0.000746236 -0.00322558 -2.09474e-05
9.64989e-05 -2.09474e-05 -0.00369061
-0.000506771 -0.000270407 -1.95325e-05
-0.000270407 -0.00127904 3.09033e-05
-1.95325e-05 3.09033e-05 -0.00123498
0.00384888 -0.000156903 -4.35728e-05
-0.000156903 6.79722e-05 3.71646e-05
-4.35728e-05 3.71646e-05 -0.000216493
0.00224944 -0.000309477 -1.67336e-05
-0.000309477 -5.1882e-05 6.03315e-06
-1.67336e-05 6.03315e-06 7.29048e-05
0.00318209 -0.000148977 -1.58499e-06
-0.000148977 0.000541735 -3.49338e-06
-1.58499e-06 -3.49338e-06 0.000498171
0.00156685 -0.00017701 3.20264e-05
-0.00017701 -0.000389827 -1.80578e-06
3.20264e-05 -1.80578e-06 -0.000232854
0.0032848 -4.33755e-05 2.5943e-05
-4.33755e-05 0.000991784 1.76102e-07
2.5943e-05 1.76102e-07 0.000951803
0.00114577 -0.000347919 -1.75667e-05
-0.000347919 -0.00050013 8.62005e-06
-1.75667e-05 8.62005e-06 -0.000447065
0.00180829 -0.000279215 4.35225e-07
-0.000279215 -0.000239029 2.19034e-06
4.35225e-07 2.19034e-06 -0.000129851
0.00199849 -0.000271082 1.93845e-06
-0.000271082 -6.17897e-05 -6.74696e-07
1.93845e-06 -6.74696e-07 8.7879e-06
0.00193088 -0.000356629 -2.6195e-07
-0.000356629 -2.62281e-05 1.76358e-06
-2.6195e-07 1.76358e-06 -7.9193e-05
0.00192214 -0.000301845 3.80567e-07
-0.000301845 3.25854e-05 7.13659e-08
3.80567e-07 7.13659e-08 2.73679e-06
0.00193657 -0.000267508 -1.76447e-06
-0.000267508 7.35738e-05 4.66931e-07
-1.76447e-06 4.66931e-07 2.20278e-05
0.00186613 -0.000313824 6.39319e-07
-0.000313824 8.13233e-05 2.7896e-07
6.39319e-07 2.7896e-07 -3.43879e-06
0.00185377 -0.000288403 -6.36665e-07
-0.000288403 8.54474e-05 6.76474e-08
-6.36665e-07 6.76474e-08 2.46958e-06
0.00177861 -0.000254792 2.48562e-08
-0.000254792 9.12848e-05 3.17234e-07
2.48562e-08 3.17234e-07 -6.56472e-06
0.0016636 -0.000289022 3.36412e-07
-0.000289022 3.08296e-05 6.97366e-07
3.36412e-07 6.97366e-07 -7.2876e-05
0.00173971 -0.000278594 8.17575e-07
-0.000278594 0.000100797 -6.66904e-07
8.17575e-07 -6.66904e-07 -1.26487e-05
0.00175671 -0.000265619 1.80649e-06
-0.000265619 0.000131178 -2.08024e-06
1.80649e-06 -2.08024e-06 -2.4984e-06
0.00190758 -0.000282812 -4.58801e-06
-0.000282812 0.000226552 4.79022e-06
-4.58801e-06 4.79022e-06 0.000102835
0.00187991 -0.000283845 -1.36467e-06
-0.000283845 0.000236734 3.87244e-07
-1.36467e-06 3.87244e-07 8.64055e-05
0.00170652 -0.00026021 -1.33662e-06
-0.00026021 0.000191055 -1.19983e-06
-1.33662e-06 -1.19983e-06 2.14083e-05
0.0017743 -0.000311897 2.54025e-06
-0.000311897 0.000198577 1.92568e-06
2.54025e-06 1.92568e-06 1.76639e-05
0.00170356 -0.000287726 9.12811e-07
-0.000287726 0.000219482 -6.7936e-07
9.12811e-07 -6.7936e-07 3.22388e-05
0.00131701 -0.000219403 -7.21546e-06
-0.000219403 9.72914e-05 2.08254e-06
-7.21546e-06 2.08254e-06 -8.08453e-05
0.000931614 -0.000172638 -1.17711e-05
-0.000172638 8.33407e-06 6.34169e-06
-1.17711e-05 6.34169e-06 -0.000145995
0.00119519 -0.000234188 -1.71942e-06
-0.000234188 6.4336e-05 3.99581e-07
-1.71942e-06 3.99581e-07 -0.000124851
0.00159929 -0.000317883 3.266e-06
-0.000317883 0.000212529 -3.65205e-07
3.266e-06 -3.65205e-07 -9.05341e-07
0.000518026 -0.000176328 -2.15955e-05
-0.000176328 -9.18087e-05 1.45565e-05
-2.15955e-05 1.45565e-05 -0.000186628
0.000873191 -0.000178409 4.44505e-07
-0.000178409 1.35221e-05 8.24669e-08
4.44505e-07 8.24669e-08 -0.000148623
0.00122974 -0.000250403 7.05247e-06
-0.000250403 0.000129024 -2.3002e-06
7.05247e-06 -2.3002e-06 -7.1053e-05
0.00510059 0.000184166 -0.000143897
0.000184166 0.00272963 8.8526e-06
-0.000143897 8.8526e-06 0.00270892
0.000568098 -0.000156088 -1.07609e-06
-0.000156088 -5.08853e-05 1.22577e-07
-1.07609e-06 1.22577e-07 -0.000137579
0.000802175 -0.000177076 8.99278e-06
-0.000177076 3.63488e-05 -6.1541e-06
8.99278e-06 -6.1541e-06 -0.00013152
0.00470025 0.000156811 9.97856e-06
0.000156811 0.00248638 1.26666e-06
9.97856e-06 1.26666e-06 0.00247312
0.000732201 -0.000113849 1.80718e-05
-0.000113849 6.21168e-05 -1.34692e-05
1.80718e-05 -1.34692e-05 -1.31355e-05
0.00419337 0.000111907 0.000139441
0.000111907 0.00217437 -8.08467e-06
0.000139441 -8.08467e-06 0.00217309
0.00126135 0.000296673 -3.88266e-06
0.000296673 0.00013251 1.35826e-07
-3.88266e-06 1.35826e-07 -9.66384e-05
0.00118858 0.000271035 -2.07522e-06
0.000271035 0.000188955 -6.87542e-07
-2.07522e-06 -6.87542e-07 -3.69445e-05
0.000994919 0.000218608 -4.22146e-06
0.000218608 0.000134076 -2.29168e-06
-4.22146e-06 -2.29168e-06 -6.73447e-05
0.00169911 0.000291897 -2.67542e-06
0.000291897 0.000608034 3.58167e-06
-2.67542e-06 3.58167e-06 0.00039758
0.000893335 0.000173324 -1.25831e-06
0.000173324 0.000159341 -2.01223e-06
-1.25831e-06 -2.01223e-06 -1.9836e-05
0.00095475 0.000148055 -4.09593e-06
0.000148055 0.000230134 -5.96294e-06
-4.09593e-06 -5.96294e-06 8.17718e-05
0.00046343 8.46219e-05 -3.34105e-07
8.46219e-05 -6.44703e-05 3.51011e-07
-3.34105e-07 3.51011e-07 -0.00020655
0.00066044 4.57696e-05 -6.59086e-07
4.57696e-05 5.21573e-05 -2.05439e-07
-6.59086e-07 -2.05439e-07 -6.02185e-05
0.000588674 -4.80077e-06 -5.95685e-06
-4.80077e-06 1.14438e-05 -9.72429e-06
-5.95685e-06 -9.72429e-06 -3.66858e-05
0.000548185 -2.19488e-06 1.0298e-06
-2.19488e-06 -1.13949e-05 4.72927e-06
1.0298e-06 4.72927e-06 -0.000106815
0.00050199 -2.58993e-05 3.95418e-07
-2.58993e-05 -3.77832e-05 -1.63141e-07
3.95418e-07 -1.63141e-07 -7.94078e-05
0.00318797 -0.000130699 -8.00064e-05
-0.000130699 0.00158223 -2.56914e-06
-8.00064e-05 -2.56914e-06 0.0015796
0.000464689 -2.26604e-05 2.99918e-06
-2.26604e-05 -6.58022e-05 7.66453e-06
2.99918e-06 7.66453e-06 -0.000101801
0.00296689 -0.000125702 -3.54932e-06
-0.000125702 0.00144264 3.98869e-07
-3.54932e-06 3.98869e-07 0.00144098
0.00284591 -0.000111665 4.73818e-05
-0.000111665 0.00136095 3.68081e-06
4.73818e-05 3.68081e-06 0.00136257
0.000325711 5.52382e-05 1.67076e-05
5.52382e-05 -0.00101377 9.33602e-06
1.67076e-05 9.33602e-06 -0.000913133
0.00476349 3.36199e-05 5.511e-05
3.36199e-05 0.000272507 1.14986e-06
5.511e-05 1.14986e-06 0.000406617
0.010877 0.000659961 -7.46554e-05
0.000659961 0.00296169 -1.63289e-05
-7.46554e-05 -1.63289e-05 0.00196028
0.00126492 0.000380244 2.84506e-06
0.000380244 4.04548e-05 2.81676e-06
2.84506e-06 2.81676e-06 -0.000187415
0.00174702 0.000410118 2.20693e-06
0.000410118 0.000244748 2.43821e-06
2.20693e-06 2.43821e-06 2.20835e-05
0.00123753 0.000348575 5.85333e-07
0.000348575 6.55822e-05 -1.69081e-06
5.85333e-07 -1.69081e-06 -0.000178996
0.00122638 0.000298941 -2.43887e-06
0.000298941 0.00034191 2.57322e-06
-2.43887e-06 2.57322e-06 0.000125105
0.00163527 0.000354328 -1.73202e-06
0.000354328 0.000441663 -1.15251e-06
-1.73202e-06 -1.15251e-06 0.000181702
0.00144615 0.000396765 7.30857e-06
0.000396765 0.000254925 9.76852e-07
7.30857e-06 9.76852e-07 2.87829e-05
0.00170988 0.000487541 -3.01056e-06
0.000487541 0.000119571 -1.53594e-06
-3.01056e-06 -1.53594e-06 -8.95506e-05
0.00195244 0.000453848 -6.37388e-06
0.000453848 0.000547478 6.75956e-07
-6.37388e-06 6.75956e-07 0.000336899
0.00117352 0.000441715 9.9137e-06
0.000441715 -6.69722e-05 1.6049e-05
9.9137e-06 1.6049e-05 -0.000217627
0.00218343 0.000558048 -2.74754e-06
0.000558048 0.000401775 6.60625e-07
-2.74754e-06 6.60625e-07 0.000198732
0.00193374 0.000489279 -1.02477e-05
0.000489279 0.000157677 1.30832e-06
-1.02477e-05 1.30832e-06 -9.73867e-06
0.000658962 0.000245554 1.62462e-05
0.000245554 -0.000510133 8.94317e-06
1.62462e-05 8.94317e-06 -0.000544034
0.000994347 0.000434069 1.02273e-05
0.000434069 -0.00020631 -2.29363e-07
1.02273e-05 -2.29363e-07 -0.000339671
0.00113274 0.000502203 -1.0489e-05
0.000502203 -0.00013699 -9.59121e-06
-1.0489e-05 -9.59121e-06 -0.000316961
0.00190496 0.000412577 3.82866e-06
0.000412577 -6.77801e-05 6.96069e-06
3.82866e-06 6.96069e-06 -5.13705e-05
0.00554982 0.00054533 2.84142e-05
0.00054533 1.38955e-05 -2.03654e-05
2.84142e-05 -2.03654e-05 -4.1226e-05
0.00287802 0.000707344 7.07658e-06
0.000707344 0.000680883 -3.15934e-05
7.07658e-06 -3.15934e-05 0.000623837
0.00149375 -4.33874e-05 2.39328e-05
-4.33874e-05 -2.29968e-05 -3.04144e-06
2.39328e-05 -3.04144e-06 -2.06635e-05
0.00216611 -0.000131407 -2.73526e-05
-0.000131407 -3.39009e-05 1.30322e-07
-2.73526e-05 1.30322e-07 -3.26717e-05
0.0015362 0.000185128 2.72056e-05
0.000185128 -0.000566587 -6.97927e-06
2.72056e-05 -6.97927e-06 -0.000730438
0.000197403 -0.000212882 -3.15999e-05
-0.000212882 -0.00111723 2.46362e-05
-3.15999e-05 2.46362e-05 -0.000977916
0.00328331 -0.000224826 -9.43882e-05
-0.000224826 0.00052086 -1.16812e-06
-9.43882e-05 -1.16812e-06 0.000516217
0.00190688 -0.000206789 3.944e-06
-0.000206789 -0.000147476 -3.01348e-06
3.944e-06 -3.01348e-06 -6.43006e-06
0.00233451 -6.18502e-05 -8.64419e-06
-6.18502e-05 0.000390362 3.73029e-07
-8.64419e-06 3.73029e-07 0.000356032
0.00206373 -0.000187413 4.34138e-06
-0.000187413 3.44983e-06 1.0854e-06
4.34138e-06 1.0854e-06 2.74252e-05
0.00204926 -2.3138e-05 5.52575e-06
-2.3138e-05 4.392e-05 1.46438e-07
5.52575e-06 1.46438e-07 2.904e-05
0.00180187 -0.000293926 -7.97902e-06
-0.000293926 -0.000268251 3.11835e-06
-7.97902e-06 3.11835e-06 -0.000168493
0.00202087 -0.000269465 -1.85256e-06
-0.000269465 -3.80416e-05 9.63729e-08
-1.85256e-06 9.63729e-08 1.95318e-05
0.00200354 -0.000208993 -1.77731e-06
-0.000208993 1.39636e-05 -4.1351e-07
-1.77731e-06 -4.1351e-07 6.90235e-07
0.00193033 -0.000307654 -1.65129e-06
-0.000307654 3.57294e-05 -6.05e-07
-1.65129e-06 -6.05e-07 1.18656e-06
0.001906 -0.00026287 1.32259e-07
-0.00026287 6.59722e-05 1.08178e-08
1.32259e-07 1.08178e-08 9.0902e-06
0.00191655 -0.000233105 -1.43919e-06
-0.000233105 0.000101845 4.04428e-07
-1.43919e-06 4.04428e-07 2.21641e-05
0.00177429 -0.000291208 -1.04776e-06
-0.000291208 4.4501e-05 -1.15722e-06
-1.04776e-06 -1.15722e-06 -4.18927e-05
0.0017777 -0.000254324 4.37108e-07
-0.000254324 8.71996e-05 -1.82645e-07
4.37108e-07 -1.82645e-07 -1.09306e-05
0.00177598 -0.0002392 1.23614e-06
-0.0002392 0.00010319 -1.02171e-06
1.23614e-06 -1.02171e-06 -1.20141e-05
0.00177852 -0.000280747 -9.24229e-07
-0.000280747 0.000121816 1.40849e-07
-9.24229e-07 1.40849e-07 7.94172e-06
0.00177966 -0.000266061 -3.30763e-08
-0.000266061 0.000145499 -3.09288e-07
-3.30763e-08 -3.09288e-07 1.18087e-05
0.00166303 -0.000238667 -1.75625e-07
-0.000238667 0.000134208 -1.04432e-06
-1.75625e-07 -1.04432e-06 -2.23447e-05
0.00194515 -0.000285416 -1.78122e-06
-0.000285416 0.000271873 3.52601e-06
-1.78122e-06 3.52601e-06 0.000124994
0.00172126 -0.000261508 -6.59e-07
-0.000261508 0.000200412 -1.04299e-07
-6.59e-07 -1.04299e-07 3.17031e-05
0.00133372 -0.000199723 -6.39094e-06
-0.000199723 8.46135e-05 1.77223e-06
-6.39094e-06 1.77223e-06 -8.54781e-05
0.00168625 -0.000288789 4.21253e-06
-0.000288789 0.000210021 3.27617e-07
4.21253e-06 3.27617e-07 2.16195e-05
0.00130883 -0.000220213 -1.47441e-07
-0.000220213 9.27179e-05 -4.82981e-08
-1.47441e-07 -4.82981e-08 -8.55407e-05
0.000949589 -0.00015633 -1.29539e-05
-0.00015633 -4.08447e-06 6.08592e-06
-1.29539e-05 6.08592e-06 -0.000150807
0.000442529 -0.000166796 -1.99488e-05
-0.000166796 -0.000146088 1.3844e-05
-1.99488e-05 1.3844e-05 -0.000242387
0.000930669 -0.000171922 2.51287e-07
-0.000171922 7.83124e-06 8.13163e-08
2.51287e-07 8.13163e-08 -0.000146469
0.00125205 -0.000238424 5.6586e-06
-0.000238424 9.79281e-05 -1.8796e-06
5.6586e-06 -1.8796e-06 -9.19506e-05
0.00550513 0.000116096 -0.000177044
0.000116096 0.00294532 9.53676e-06
-0.000177044 9.53676e-06 0.00293755
0.000548349 -0.0001714 -1.89174e-06
-0.0001714 -8.00108e-05 6.67817e-07
-1.89174e-06 6.67817e-07 -0.000172279
0.000838229 -0.00017766 1.04037e-05
-0.00017766 -3.69196e-06 -5.99346e-06
1.04037e-05 -5.99346e-06 -0.000165968
0.0052616 0.000147111 4.28758e-06
0.000147111 0.00281536 3.52571e-07
4.28758e-06 3.52571e-07 0.00280089
0.000670307 -0.000158675 2.1312e-05
-0.000158675 6.20094e-06 -1.44077e-05
2.1312e-05 -1.44077e-05 -8.20461e-05
0.00489536 0.000127855 0.000161112
0.000127855 0.00259414 -1.07555e-05
0.000161112 -1.07555e-05 0.00258544
0.00134693 0.000323004 -2.99983e-06
0.000323004 0.000124539 1.51338e-06
-2.99983e-06 1.51338e-06 -9.63898e-05
0.00117342 0.000289682 2.5531e-07
0.000289682 7.82615e-05 4.04779e-07
2.5531e-07 4.04779e-07 -0.000149075
0.0011039 0.00023726 -7.35936e-06
0.00023726 9.64346e-05 -1.55482e-06
-7.35936e-06 -1.55482e-06 -0.000103109
0.000950253 0.000248202 -8.29432e-07
0.000248202 5.09414e-05 2.71538e-06
-8.29432e-07 2.71538e-06 -0.000170549
0.00104831 0.000222401 -1.76486e-06
0.000222401 0.000168425 9.85188e-07
-1.76486e-06 9.85188e-07 -3.3748e-05
0.000881489 0.00017934 -6.81305e-06
0.00017934 0.000140915 -5.20522e-06
-6.81305e-06 -5.20522e-06 -2.59699e-05
0.00110104 0.000192433 -7.62067e-07
0.000192433 0.000284049 1.27098e-06
-7.62067e-07 1.27098e-06 0.000101043
0.000689545 0.000119249 -4.40896e-08
0.000119249 7.6008e-05 -3.39023e-07
-4.40896e-08 -3.39023e-07 -6.85189e-05
0.000744599 4.99533e-05 -1.19012e-05
4.99533e-05 9.50191e-05 -1.2108e-05
-1.19012e-05 -1.2108e-05 3.28751e-05
0.000585034 1.11989e-05 1.30422e-06
1.11989e-05 6.83609e-06 4.71034e-06
1.30422e-06 4.71034e-06 -0.000100742
0.000504591 -1.3318e-05 -1.71819e-07
-1.3318e-05 -3.57506e-05 -2.78504e-07
-1.71819e-07 -2.78504e-07 -8.36558e-05
0.00353782 -0.000131986 -0.00010433
-0.000131986 0.00179616 -3.37106e-06
-0.00010433 -3.37106e-06 0.00179241
0.000444596 -2.67637e-05 3.02419e-06
-2.67637e-05 -7.08914e-05 8.43134e-06
3.02419e-06 8.43134e-06 -0.00011221
0.00312499 -0.000138923 -3.48111e-06
-0.000138923 0.00154581 3.84985e-07
-3.48111e-06 3.84985e-07 0.00154075
0.00293717 -0.00012598 5.49454e-05
-0.00012598 0.00142449 3.24118e-06
5.49454e-05 3.24118e-06 0.00142253
0.000547162 6.50698e-05 2.03863e-05
6.50698e-05 -0.000590303 1.57028e-06
2.03863e-05 1.57028e-06 -0.000538252
0.00205051 3.53614e-05 -7.72451e-06
3.53614e-05 -0.000288107 -1.34286e-06
-7.72451e-06 -1.34286e-06 -0.000167166
0.00428176 5.13164e-05 0.00014488
5.13164e-05 -0.000384933 4.08588e-05
0.00014488 4.08588e-05 0.000141223
0.00220338 0.000473275 -2.00416e-06
0.000473275 0.000420571 5.33705e-07
-2.00416e-06 5.33705e-07 0.000207179
0.00142243 0.000412183 -1.09102e-06
0.000412183 0.000118138 -2.93777e-06
-1.09102e-06 -2.93777e-06 -0.000111602
0.00196326 0.000379495 -2.12177e-07
0.000379495 0.000236741 3.41139e-06
-2.12177e-07 3.41139e-06 5.09891e-05
0.00175236 0.00040791 8.39652e-07
0.00040791 0.000246241 2.73064e-07
8.39652e-07 2.73064e-07 2.44192e-05
0.00125476 0.000358214 1.58462e-06
0.000358214 7.99506e-05 -6.25157e-06
1.58462e-06 -6.25157e-06 -0.000165738
0.00184944 0.00040364 -1.25458e-06
0.00040364 8.49585e-05 1.38223e-06
-1.25458e-06 1.38223e-06 -7.96362e-05
0.0019291 0.000443662 -3.7459e-06
0.000443662 0.000513153 -1.84158e-06
-3.7459e-06 -1.84158e-06 0.000280765
0.00194332 0.000497938 -2.49797e-08
0.000497938 0.000265288 -2.91956e-07
-2.49797e-08 -2.91956e-07 5.40581e-05
0.00180728 0.000289815 -4.0119e-06
0.000289815 -2.04892e-05 5.81585e-08
-4.0119e-06 5.81585e-08 -0.000118865
0.0026371 0.000592033 3.69985e-06
0.000592033 0.00065106 2.22259e-06
3.69985e-06 2.22259e-06 0.000446365
0.00192623 0.000491764 -1.63497e-06
0.000491764 0.000143723 1.14057e-07
-1.63497e-06 1.14057e-07 -2.6708e-05
0.000894393 0.000261363 4.55017e-06
0.000261363 -0.000346584 3.09581e-06
4.55017e-06 3.09581e-06 -0.00039049
-0.000331736 0.000338565 -3.45345e-06
0.000338565 -0.000885347 -4.3601e-06
-3.45345e-06 -4.3601e-06 -0.00101014
0.00204194 0.000425624 -5.60219e-05
0.000425624 -6.30778e-06 -2.77011e-05
-5.60219e-05 -2.77011e-05 -3.01269e-05
0.00186867 4.39445e-05 5.82562e-07
4.39445e-05 -7.04571e-05 -1.82937e-06
5.82562e-07 -1.82937e-06 -6.76666e-05
0.0021884 -3.72749e-05 1.18708e-06
-3.72749e-05 0.000405925 1.727e-06
1.18708e-06 1.727e-06 0.000409951
0.00171528 -6.34967e-05 -5.64881e-05
-6.34967e-05 -0.000178842 -6.92798e-07
-5.64881e-05 -6.92798e-07 -0.000265845
0.00227723 -0.000236035 -3.51735e-05
-0.000236035 0.000109664 2.65695e-06
-3.51735e-05 2.65695e-06 0.000229639
0.00140462 -7.54129e-05 -8.88302e-06
-7.54129e-05 -0.000192235 1.11874e-06
-8.88302e-06 1.11874e-06 -0.000220364
0.00200117 -0.000181026 3.19092e-08
-0.000181026 -3.58201e-05 -7.40735e-07
3.19092e-08 -7.40735e-07 -2.15708e-07
0.00211243 -2.43286e-05 -2.39641e-06
-2.43286e-05 6.07848e-05 1.39668e-06
-2.39641e-06 1.39668e-06 5.1936e-05
0.00208246 -6.71929e-05 -2.5723e-06
-6.71929e-05 3.27798e-05 -1.26756e-07
-2.5723e-06 -1.26756e-07 3.30097e-05
0.00203426 -0.000266116 -3.90553e-06
-0.000266116 -1.62383e-05 4.41567e-07
-3.90553e-06 4.41567e-07 2.85088e-05
0.0019801 -0.000200726 4.45849e-07
-0.000200726 1.14547e-05 -2.17119e-07
4.45849e-07 -2.17119e-07 -3.30914e-06
0.00203411 -0.000165698 -1.60866e-06
-0.000165698 8.51678e-05 -1.51056e-07
-1.60866e-06 -1.51056e-07 4.45698e-05
0.00187435 -0.000258784 1.11693e-06
-0.000258784 5.71039e-05 -1.05133e-06
1.11693e-06 -1.05133e-06 -4.95919e-06
0.00183792 -0.000228278 1.92408e-07
-0.000228278 6.25215e-05 -7.17871e-08
1.92408e-07 -7.17871e-08 -1.90633e-05
0.00176638 -0.000189714 5.53664e-07
-0.000189714 5.756e-05 -4.06622e-07
5.53664e-07 -4.06622e-07 -3.88095e-05
0.0017924 -0.000254518 7.28079e-07
-0.000254518 9.14128e-05 -5.27349e-07
7.28079e-07 -5.27349e-07 -6.95625e-06
0.00180109 -0.00023939 1.39395e-08
-0.00023939 0.000119428 -2.56858e-07
1.39395e-08 -2.56858e-07 4.19464e-06
0.00170584 -0.000212685 7.67954e-07
-0.000212685 0.000120079 -8.51173e-07
7.67954e-07 -8.51173e-07 -2.18599e-05
0.00180108 -0.00026648 -1.13033e-06
-0.00026648 0.000158753 1.28265e-06
-1.13033e-06 1.28265e-06 2.5041e-05
0.00168925 -0.000239447 -3.02101e-07
-0.000239447 0.000150244 -7.0124e-08
-3.02101e-07 -7.0124e-08 -6.01445e-06
0.00137579 -0.000181819 -4.79682e-06
-0.000181819 8.55793e-05 1.36578e-06
-4.79682e-06 1.36578e-06 -7.75729e-05
0.00173423 -0.000262645 8.99501e-07
-0.000262645 0.000208571 1.09581e-06
8.99501e-07 1.09581e-06 4.0838e-05
0.00135079 -0.000200495 -2.02575e-07
-0.000200495 9.3577e-05 6.91859e-08
-2.02575e-07 6.91859e-08 -7.62138e-05
0.000965008 -0.000139058 -1.35256e-05
-0.000139058 -9.36079e-06 5.66001e-06
-1.35256e-05 5.66001e-06 -0.000151129
0.00130519 -0.000221341 6.35585e-06
-0.000221341 9.08312e-05 -1.62368e-06
6.35585e-06 -1.62368e-06 -8.75935e-05
0.000964162 -0.000155891 1.81563e-07
-0.000155891 3.12288e-06 5.582e-08
1.81563e-07 5.582e-08 -0.00014336
0.0024446 -0.000116604 -3.05539e-05
-0.000116604 0.00103368 8.65838e-06
-3.05539e-05 8.65838e-06 0.000954709
0.00171062 -5.04469e-05 -0.000183742
-5.04469e-05 0.000664561 2.03556e-05
-0.000183742 2.03556e-05 0.000646653
0.001538 -0.000151304 -5.74801e-06
-0.000151304 0.000500853 -3.26924e-07
-5.74801e-06 -3.26924e-07 0.000410788
0.000933901 -0.000171522 1.18137e-05
-0.000171522 9.90207e-06 -5.94328e-06
1.18137e-05 -5.94328e-06 -0.000144448
0.0055973 9.93421e-05 -6.07158e-06
9.93421e-05 0.00300612 -5.91174e-07
-6.07158e-06 -5.91174e-07 0.00299527
0.000614412 -0.000192909 2.29529e-05
-0.000192909 -4.0963e-05 -1.4324e-05
2.29529e-05 -1.4324e-05 -0.00013672
0.00539948 0.000137416 0.000172851
0.000137416 0.00290603 -1.54179e-05
0.000172851 -1.54179e-05 0.00288654
0.00194787 0.000301516 7.95698e-07
0.000301516 0.000195336 5.23306e-07
7.95698e-07 5.23306e-07 3.71844e-05
0.00166836 0.000338949 1.15879e-06
0.000338949 0.000193737 3.04211e-06
1.15879e-06 3.04211e-06 -8.10985e-06
0.00157632 0.000346465 -1.28364e-08
0.000346465 0.00025093 -6.23919e-09
-1.28364e-08 -6.23919e-09 2.69365e-05
0.00117549 0.000246555 -6.18833e-06
0.000246555 7.32461e-05 -2.02135e-06
-6.18833e-06 -2.02135e-06 -0.000120324
0.00111855 0.00028575 5.18273e-06
0.00028575 4.46042e-05 8.34372e-07
5.18273e-06 8.34372e-07 -0.000181559
0.0011229 0.0002373 -2.95054e-07
0.0002373 0.000108521 3.17497e-07
-2.95054e-07 3.17497e-07 -9.04907e-05
0.000801644 0.000175444 -9.44346e-06
0.000175444 1.24499e-05 -4.68281e-06
-9.44346e-06 -4.68281e-06 -0.000153213
0.00109797 0.000225993 2.14207e-06
0.000225993 0.000199795 4.61215e-06
2.14207e-06 4.61215e-06 -3.01843e-06
0.000823202 0.000163168 -3.827e-07
0.000163168 0.000107341 5.912e-07
-3.827e-07 5.912e-07 -5.75103e-05
0.00073664 0.000133423 -1.93544e-05
0.000133423 7.17966e-05 -1.39767e-05
-1.93544e-05 -1.39767e-05 -9.52942e-06
0.000615365 8.59184e-05 2.02898e-06
8.59184e-05 2.78755e-05 4.55616e-06
2.02898e-06 4.55616e-06 -0.000108652
0.00050707 3.61424e-05 -1.18571e-06
3.61424e-05 -4.21509e-05 -6.4097e-07
-1.18571e-06 -6.4097e-07 -0.000101057
0.00413166 -0.000125786 -0.000138283
-0.000125786 0.00215277 -6.82822e-06
-0.000138283 -6.82822e-06 0.00214652
0.000388681 -2.08498e-05 3.36477e-06
-2.08498e-05 -0.000100827 9.46513e-06
3.36477e-06 9.46513e-06 -0.000148902
0.00339452 -0.000150297 -4.69521e-06
-0.000150297 0.00171423 3.90889e-07
-4.69521e-06 3.90889e-07 0.00170589
0.00307447 -0.000141387 6.29055e-05
-0.000141387 0.00151585 2.63605e-06
6.29055e-05 2.63605e-06 0.00150989
0.00191925 0.000154851 1.07863e-06
0.000154851 -3.19623e-05 -9.38289e-07
1.07863e-06 -9.38289e-07 -5.95587e-05
0.00191002 4.95531e-05 1.65214e-05
4.95531e-05 0.000126389 -1.59601e-08
1.65214e-05 -1.59601e-08 0.000166908
0.00425094 3.5682e-05 -9.80019e-05
3.5682e-05 0.000652948 -1.40221e-05
-9.80019e-05 -1.40221e-05 0.000816951
0.00178046 0.00034724 -2.51286e-06
0.00034724 6.36404e-05 1.44247e-06
-2.51286e-06 1.44247e-06 -9.45884e-05
0.00187495 0.000444641 -2.29585e-06
0.000444641 0.000246046 -9.66185e-08
-2.29585e-06 -9.66185e-08 3.52925e-05
0.00149481 0.00043518 -1.17887e-05
0.00043518 0.00014914 -7.43476e-06
-1.17887e-05 -7.43476e-06 -8.05016e-05
0.00201207 0.000370818 2.7372e-06
0.000370818 0.00027607 1.00535e-06
2.7372e-06 1.00535e-06 9.25685e-05
0.00174742 0.000405021 -1.28324e-06
0.000405021 0.000242804 -2.67386e-06
-1.28324e-06 -2.67386e-06 2.18301e-05
0.00218921 0.000287936 9.64032e-07
0.000287936 0.000202916 8.31158e-07
9.64032e-07 8.31158e-07 0.000100013
0.0017267 0.000396887 -8.45532e-07
0.000396887 3.25194e-05 7.58271e-07
-8.45532e-07 7.58271e-07 -0.000132494
0.00220956 0.000511282 -1.42089e-06
0.000511282 0.000428557 -6.80391e-07
-1.42089e-06 -6.80391e-07 0.000214632
0.00180763 0.000294516 -9.92746e-07
0.000294516 -1.39613e-05 -1.47711e-07
-9.92746e-07 -1.47711e-07 -0.000114142
0.00204678 0.000503064 1.71454e-05
0.000503064 0.000189925 1.81271e-06
1.71454e-05 1.81271e-06 1.58449e-05
0.00120928 0.000268295 -2.69388e-05
0.000268295 -0.000152629 -6.75426e-06
-2.69388e-05 -6.75426e-06 -0.000204125
0.00203272 5.20087e-05 -2.84846e-06
5.20087e-05 2.40925e-05 2.53986e-07
-2.84846e-06 2.53986e-07 1.51568e-05
0.00196697 5.37736e-05 -2.13892e-06
5.37736e-05 -5.3183e-06 2.73471e-07
-2.13892e-06 2.73471e-07 -6.27411e-06
0.00289245 -2.66446e-05 -3.87576e-05
-2.66446e-05 0.000846294 2.94505e-06
-3.87576e-05 2.94505e-06 0.000845708
0.00192006 -0.000173337 -9.06452e-06
-0.000173337 -9.0754e-05 -9.07705e-07
-9.06452e-06 -9.07705e-07 -4.36175e-05
0.00202474 -2.37843e-05 -1.54527e-07
-2.37843e-05 -1.6408e-05 -1.20097e-06
-1.54527e-07 -1.20097e-06 -2.05472e-05
0.00204865 -7.12797e-05 -3.65743e-07
-7.12797e-05 -2.61779e-06 6.7259e-08
-3.65743e-07 6.7259e-08 2.64454e-06
0.00193891 -5.58356e-05 -2.07664e-06
-5.58356e-05 3.9989e-05 1.40028e-07
-2.07664e-06 1.40028e-07 1.66341e-05
0.00195526 -0.00019136 2.14521e-06
-0.00019136 9.35803e-06 7.62487e-08
2.14521e-06 7.62487e-08 -6.52598e-06
0.00191576 -0.000165131 2.1094e-07
-0.000165131 2.68451e-05 -2.35392e-08
2.1094e-07 -2.35392e-08 -1.80288e-05
0.00179398 -0.000125899 2.58602e-06
-0.000125899 4.70759e-05 -1.50038e-06
2.58602e-06 -1.50038e-06 -3.27493e-05
0.00174357 -0.000222721 1.62799e-06
-0.000222721 1.44842e-05 -4.71555e-07
1.62799e-06 -4.71555e-07 -6.90584e-05
0.00183248 -0.000192499 -4.64987e-08
-0.000192499 9.17021e-05 5.65904e-08
-4.64987e-08 5.65904e-08 -4.87909e-06
0.00178664 -0.000175807 1.04324e-06
-0.000175807 0.000125236 -6.58813e-07
1.04324e-06 -6.58813e-07 -2.30104e-06
0.00182533 -0.000239397 -5.24671e-07
-0.000239397 0.000135525 4.12473e-07
-5.24671e-07 4.12473e-07 2.02925e-05
0.00173833 -0.00021362 -2.35202e-07
-0.00021362 0.000138959 -5.19137e-08
-2.35202e-07 -5.19137e-08 -2.78577e-06
0.00142527 -0.000159588 -3.68486e-06
-0.000159588 8.90676e-05 9.48493e-07
-3.68486e-06 9.48493e-07 -6.64902e-05
0.00171495 -0.000240226 -3.19214e-07
-0.000240226 0.000166042 8.61617e-07
-3.19214e-07 8.61617e-07 1.00754e-05
0.00139005 -0.000182287 -1.67521e-07
-0.000182287 9.20703e-05 6.70268e-08
-1.67521e-07 6.70268e-08 -7.07133e-05
0.000974539 -0.000123154 -1.32878e-05
-0.000123154 -1.48429e-05 4.89886e-06
-1.32878e-05 4.89886e-06 -0.000153977
0.00136567 -0.000201182 5.52886e-06
-0.000201182 0.000101258 -1.49419e-06
5.52886e-06 -1.49419e-06 -6.82312e-05
0.000980213 -0.000138173 1.22556e-07
-0.000138173 -2.39358e-06 1.12995e-07
1.22556e-07 1.12995e-07 -0.000143652
0.00248335 -0.000122599 -3.82057e-05
-0.000122599 0.00104401 7.92538e-06
-3.82057e-05 7.92538e-06 0.000972475
0.000970168 -0.000155225 1.30757e-05
-0.000155225 5.48194e-06 -5.92888e-06
1.30757e-05 -5.92888e-06 -0.000140777
0.0026037 -0.000161278 3.8083e-05
-0.000161278 0.00112372 -4.88408e-06
3.8083e-05 -4.88408e-06 0.00105105
0.001793 -9.05057e-05 -0.000188198
-9.05057e-05 0.000719806 2.47035e-05
-0.000188198 2.47035e-05 0.000700431
0.00361767 -2.49772e-05 -0.000184895
-2.49772e-05 0.00181935 1.22582e-05
-0.000184895 1.22582e-05 0.00180664
0.00269603 -0.000214169 0.000117614
-0.000214169 0.00118494 -1.62733e-05
0.000117614 -1.62733e-05 0.00111416
0.00567575 8.48617e-05 0.000189479
8.48617e-05 0.00306203 -1.83373e-05
0.000189479 -1.83373e-05 0.00304673
0.00207539 0.000297106 -1.86531e-06
0.000297106 0.00024753 -7.20561e-07
-1.86531e-06 -7.20561e-07 0.000105465
0.00157907 0.00027523 2.73391e-06
0.00027523 8.34067e-05 1.12629e-06
2.73391e-06 1.12629e-06 -9.12774e-05
0.00193365 0.000299347 3.83378e-07
0.000299347 0.00018473 -1.21719e-06
3.83378e-07 -1.21719e-06 3.12702e-05
0.00119421 0.00023777 -6.22331e-06
0.00023777 2.9879e-05 -1.03313e-06
-6.22331e-06 -1.03313e-06 -0.000156195
0.00173294 0.000341394 6.66062e-07
0.000341394 0.000222413 5.42847e-07
6.66062e-07 5.42847e-07 1.97672e-05
0.0018072 0.000370395 2.51493e-06
0.000370395 0.000377452 -1.03956e-06
2.51493e-06 -1.03956e-06 0.00015031
0.00119891 0.000245008 -1.35234e-08
0.000245008 9.15357e-05 -2.88381e-07
-1.35234e-08 -2.88381e-07 -0.000101123
0.000842552 0.000173596 -1.12648e-05
0.000173596 -2.76524e-05 -5.69734e-06
-1.12648e-05 -5.69734e-06 -0.000185937
0.00113232 0.000236672 7.03209e-06
0.000236672 0.000114983 2.14724e-06
7.03209e-06 2.14724e-06 -8.34573e-05
0.000839354 0.00017329 -5.41859e-07
0.00017329 3.08105e-05 4.39845e-07
-5.41859e-07 4.39845e-07 -0.000134152
0.000635469 0.000183877 -2.27604e-05
0.000183877 -9.25371e-06 -1.4574e-05
-2.27604e-05 -1.4574e-05 -0.000103675
0.000617362 0.000149695 3.97191e-06
0.000149695 -1.07579e-05 5.80961e-06
3.97191e-06 5.80961e-06 -0.000174858
0.000554325 0.000105644 -3.85711e-07
0.000105644 -3.24868e-05 6.45691e-08
-3.85711e-07 6.45691e-08 -0.00010918
0.00499857 -0.000124365 -0.000169387
-0.000124365 0.00267748 -1.31037e-05
-0.000169387 -1.31037e-05 0.00266148
0.00032332 9.15609e-06 6.0636e-06
9.15609e-06 -0.000143701 1.10313e-05
6.0636e-06 1.10313e-05 -0.000201648
0.00393955 -0.00016507 -8.51115e-06
-0.00016507 0.00204748 5.69112e-07
-8.51115e-06 5.69112e-07 0.00203359
0.00329672 -0.000158084 7.2924e-05
-0.000158084 0.0016573 2.20119e-06
7.2924e-05 2.20119e-06 0.00164678
0.00195327 0.000169051 -8.30534e-07
0.000169051 3.72337e-06 5.42727e-07
-8.30534e-07 5.42727e-07 -4.80313e-05
0.00186225 0.000155095 8.18697e-07
0.000155095 -6.29136e-05 -2.16237e-07
8.18697e-07 -2.16237e-07 -9.1041e-05
0.00303252 3.74935e-05 -6.90047e-05
3.74935e-05 0.000723647 -6.52344e-06
-6.90047e-05 -6.52344e-06 0.000759553
0.00202045 0.000254989 1.004e-06
0.000254989 0.000145187 8.31655e-07
1.004e-06 8.31655e-07 3.35546e-05
0.00179294 0.000343616 -5.3767e-07
0.000343616 8.79783e-05 3.45408e-07
-5.3767e-07 3.45408e-07 -6.99064e-05
0.00155529 0.000416675 -2.05517e-07
0.000416675 7.50286e-05 -2.29436e-06
-2.05517e-07 -2.29436e-06 -0.000133187
0.00206285 0.000361888 -6.4831e-07
0.000361888 0.000317087 -2.43407e-06
-6.4831e-07 -2.43407e-06 0.000135947
0.00204827 0.000278243 -9.40668e-07
0.000278243 0.000123404 -1.53838e-07
-9.40668e-07 -1.53838e-07 2.04755e-05
0.00160616 0.000390016 -1.83336e-06
0.000390016 -1.92375e-05 -9.3095e-08
-1.83336e-06 -9.3095e-08 -0.000184631
0.00177036 0.000295827 6.45274e-06
0.000295827 -1.53612e-05 -2.6587e-07
6.45274e-06 -2.6587e-07 -0.000117113
0.00190473 4.79156e-05 -9.74012e-07
4.79156e-05 1.41201e-05 4.43727e-07
-9.74012e-07 4.43727e-07 -1.32232e-05
0.00199294 5.1833e-05 3.8498e-07
5.1833e-05 1.10117e-05 -9.61746e-08
3.8498e-07 -9.61746e-08 -1.17002e-06
0.00202249 6.34743e-05 -7.34187e-06
6.34743e-05 3.37922e-05 7.07448e-07
-7.34187e-06 7.07448e-07 3.0559e-05
0.00176718 -1.35525e-05 -3.29502e-06
-1.35525e-05 -1.70247e-05 2.02224e-07
-3.29502e-06 2.02224e-07 -5.7228e-05
0.00201332 -7.95743e-05 2.78796e-06
-7.95743e-05 -3.81623e-05 -5.66829e-07
2.78796e-06 -5.66829e-07 -2.84772e-05
0.00191807 -5.85236e-05 -7.96361e-07
-5.85236e-05 2.65942e-05 2.76476e-07
-7.96361e-07 2.76476e-07 2.3654e-06
0.00187835 -7.20655e-05 -1.43492e-06
-7.20655e-05 9.30614e-05 -2.63082e-07
-1.43492e-06 -2.63082e-07 2.64974e-05
0.00180138 -0.000164584 2.6797e-06
-0.000164584 -2.94417e-05 -2.97026e-07
2.6797e-06 -2.97026e-07 -7.88027e-05
0.00185453 -0.000127874 2.15779e-06
-0.000127874 7.34451e-05 -7.74437e-07
2.15779e-06 -7.74437e-07 -6.02605e-06
0.00183494 -0.000123614 3.06387e-06
-0.000123614 0.000134014 -1.32245e-06
3.06387e-06 -1.32245e-06 1.93178e-05
0.00190504 -0.000194978 -9.5259e-08
-0.000194978 0.000129722 4.75617e-07
-9.5259e-08 4.75617e-07 3.30091e-05
0.00179457 -0.000174409 -1.08799e-07
-0.000174409 0.000132238 -5.19351e-08
-1.08799e-07 -5.19351e-08 5.06444e-06
0.00146626 -0.00012959 -2.84604e-06
-0.00012959 8.77163e-05 4.54785e-07
-2.84604e-06 4.54785e-07 -5.88816e-05
0.00177005 -0.000214403 -8.59581e-07
-0.000214403 0.000157679 6.75883e-07
-8.59581e-07 6.75883e-07 1.61548e-05
0.00142583 -0.000159092 -1.6114e-07
-0.000159092 8.72246e-05 1.42301e-07
-1.6114e-07 1.42301e-07 -6.79291e-05
0.000982567 -0.00010524 -1.28179e-05
-0.00010524 -2.10044e-05 3.96174e-06
-1.28179e-05 3.96174e-06 -0.000157469
0.00140296 -0.000182606 4.24151e-06
-0.000182606 9.78564e-05 -1.19105e-06
4.24151e-06 -1.19105e-06 -6.45337e-05
0.000992005 -0.000121656 2.26289e-08
-0.000121656 -6.68927e-06 1.94361e-07
2.26289e-08 1.94361e-07 -0.000145114
0.0025104 -0.000130254 -4.59798e-05
-0.000130254 0.00105429 7.7013e-06
-4.59798e-05 7.7013e-06 0.000985081
0.000995801 -0.000137346 1.34482e-05
-0.000137346 4.6049e-06 -5.47962e-06
1.34482e-05 -5.47962e-06 -0.000136112
0.00258618 -0.000152798 3.46135e-05
-0.000152798 0.00110351 -4.06754e-06
3.46135e-05 -4.06754e-06 0.00103637
0.00183782 -7.85402e-05 -0.000183876
-7.85402e-05 0.00074159 2.20691e-05
-0.000183876 2.20691e-05 0.000723367
0.00274088 -0.000177465 0.00011643
-0.000177465 0.0012012 -1.81933e-05
0.00011643 -1.81933e-05 0.00113396
0.00155438 -2.78203e-05 -8.34654e-05
-2.78203e-05 0.000584324 9.63729e-06
-8.34654e-05 9.63729e-06 0.000555213
0.00539543 0.000164564 3.33842e-05
0.000164564 0.00288567 -2.24077e-06
3.33842e-05 -2.24077e-06 0.002858
0.00187921 0.000242718 5.97398e-07
0.000242718 0.000116549 3.66385e-07
5.97398e-07 3.66385e-07 -1.37912e-05
0.00185428 0.000267789 7.50953e-09
0.000267789 0.000200178 -6.44049e-07
7.50953e-09 -6.44049e-07 4.24509e-05
0.00194918 0.000291999 -3.42086e-06
0.000291999 0.000170276 4.49402e-08
-3.42086e-06 4.49402e-08 2.62694e-05
0.00165898 0.000239253 -3.58703e-06
0.000239253 0.000264675 -5.79398e-07
-3.58703e-06 -5.79398e-07 9.06269e-05
0.00161466 0.000282353 3.85006e-07
0.000282353 9.56507e-05 -1.44109e-06
3.85006e-07 -1.44109e-06 -7.72344e-05
0.00192287 0.000297527 -2.92852e-06
0.000297527 0.000176172 -3.49323e-06
-2.92852e-06 -3.49323e-06 2.73777e-05
0.000955785 0.000171789 -1.33039e-05
0.000171789 -8.12601e-07 -5.51666e-06
-1.33039e-05 -5.51666e-06 -0.00015321
0.00127342 0.000242914 -3.61289e-07
0.000242914 7.7137e-05 3.86695e-07
-3.61289e-07 3.86695e-07 -0.000109709
0.00179527 0.000343636 2.82954e-06
0.000343636 0.000248796 -1.82439e-06
2.82954e-06 -1.82439e-06 4.53679e-05
0.00123069 0.000243952 7.73847e-06
0.000243952 0.000115598 2.01182e-06
7.73847e-06 2.01182e-06 -7.61914e-05
0.000889452 0.000176577 -5.5509e-07
0.000176577 -3.24422e-07 -2.04125e-07
-5.5509e-07 -2.04125e-07 -0.000158687
0.00057896 0.000210902 -2.49441e-05
0.000210902 -5.58942e-05 -1.43237e-05
-2.49441e-05 -1.43237e-05 -0.00015421
0.000824829 0.000170194 8.83718e-06
0.000170194 1.85674e-05 5.66478e-06
8.83718e-06 5.66478e-06 -0.000145583
0.000541603 0.000176183 1.91057e-06
0.000176183 -6.20979e-05 4.51106e-07
1.91057e-06 4.51106e-07 -0.000154644
0.00558369 -0.000112035 -0.00017958
-0.000112035 0.00303747 -1.96918e-05
-0.00017958 -1.96918e-05 0.00300944
0.000348366 9.00542e-05 1.4036e-05
9.00542e-05 -0.000153775 1.34801e-05
1.4036e-05 1.34801e-05 -0.00022491
0.00471225 -0.000170246 -1.12549e-05
-0.000170246 0.00251222 8.98285e-07
-1.12549e-05 8.98285e-07 0.00249237
0.00370551 -0.0001795 8.77015e-05
-0.0001795 0.00191103 2.56454e-06
8.77015e-05 2.56454e-06 0.00189394
0.00192306 0.000137569 -9.79122e-07
0.000137569 5.5012e-05 1.40986e-06
-9.79122e-07 1.40986e-06 -1.35586e-05
0.00197974 0.000172731 7.74757e-07
0.000172731 1.30288e-05 3.36227e-07
7.74757e-07 3.36227e-07 -3.59562e-05
0.00185378 0.000159914 -3.60198e-07
0.000159914 -7.34234e-05 7.5379e-07
-3.60198e-07 7.5379e-07 -0.000102713
0.00199684 0.000250168 1.78187e-07
0.000250168 0.000135169 -3.96548e-08
1.78187e-07 -3.96548e-08 2.61739e-05
0.00179448 0.00033932 -1.05647e-06
0.00033932 0.00010677 -1.03022e-06
-1.05647e-06 -1.03022e-06 -5.07056e-05
0.00191457 0.000268381 -2.54853e-07
0.000268381 4.94688e-05 -9.34947e-07
-2.54853e-07 -9.34947e-07 -5.33416e-05
0.00188181 5.2255e-05 -1.27902e-06
5.2255e-05 5.71744e-05 -9.85501e-08
-1.27902e-06 -9.85501e-08 8.5513e-06
0.00192604 4.58127e-05 4.19497e-07
4.58127e-05 3.0148e-05 -1.24617e-07
4.19497e-07 -1.24617e-07 2.03695e-06
0.00198691 5.23834e-05 2.21194e-06
5.23834e-05 1.85972e-05 5.69481e-08
2.21194e-06 5.69481e-08 3.11999e-06
0.00184457 -1.84812e-05 -2.20084e-06
-1.84812e-05 2.62198e-05 9.82457e-08
-2.20084e-06 9.82457e-08 -1.34756e-05
0.00176649 -3.69926e-05 -1.4753e-06
-3.69926e-05 3.6593e-05 -1.77401e-07
-1.4753e-06 -1.77401e-07 -3.49781e-05
0.00190306 -6.11931e-05 1.34326e-06
-6.11931e-05 1.65813e-05 1.28408e-07
1.34326e-06 1.28408e-07 -8.34697e-06
0.00184186 -7.16774e-05 -1.68997e-06
-7.16774e-05 7.10588e-05 5.64695e-07
-1.68997e-06 5.64695e-07 2.75522e-07
0.00188347 -7.2597e-05 3.75947e-07
-7.2597e-05 0.000167686 -4.08363e-07
3.75947e-07 -4.08363e-07 6.70094e-05
0.00191084 -0.000130115 2.27566e-06
-0.000130115 9.80602e-05 -9.81143e-08
2.27566e-06 -9.81143e-08 1.88837e-05
0.00178502 -0.000123778 2.14525e-06
-0.000123778 0.000107957 -7.22328e-07
2.14525e-06 -7.22328e-07 -6.86544e-06
0.00148475 -9.17978e-05 -1.74219e-06
-9.17978e-05 7.64322e-05 -4.38517e-08
-1.74219e-06 -4.38517e-08 -6.1405e-05
0.00178993 -0.000174413 -1.23977e-06
-0.000174413 0.000131127 5.43374e-07
-1.23977e-06 5.43374e-07 4.05001e-06
0.00145636 -0.00012913 -1.06125e-07
-0.00012913 7.87384e-05 5.48788e-08
-1.06125e-07 5.48788e-08 -6.76217e-05
0.000988186 -8.32129e-05 -1.24441e-05
-8.32129e-05 -2.83144e-05 3.0095e-06
-1.24441e-05 3.0095e-06 -0.000161036
0.00143123 -0.000158821 3.25897e-06
-0.000158821 8.76442e-05 -6.85818e-07
3.25897e-06 -6.85818e-07 -6.7113e-05
0.000999817 -0.000103414 -1.06411e-07
-0.000103414 -1.2593e-05 2.39548e-07
-1.06411e-07 2.39548e-07 -0.000148387
0.00249247 -0.000142707 -4.96539e-05
-0.000142707 0.00104023 6.93127e-06
-4.96539e-05 6.93127e-06 0.000970638
0.00100913 -0.000120216 1.32174e-05
-0.000120216 1.09071e-06 -4.59972e-06
1.32174e-05 -4.59972e-06 -0.000136606
0.00257782 -0.000137374 3.32731e-05
-0.000137374 0.00109081 -3.07806e-06
3.32731e-05 -3.07806e-06 0.00102621
0.00187144 -6.69692e-05 -0.000183753
-6.69692e-05 0.000755179 1.89303e-05
-0.000183753 1.89303e-05 0.000737464
0.00268714 -0.000152215 0.00011466
-0.000152215 0.0011583 -1.57868e-05
0.00011466 -1.57868e-05 0.00109712
0.00155791 -3.94362e-05 -7.56233e-05
-3.94362e-05 0.000579838 8.3262e-06
-7.56233e-05 8.3262e-06 0.000553849
0.00136941 -2.03596e-05 3.49889e-05
-2.03596e-05 0.000478802 -5.42716e-06
3.49889e-05 -5.42716e-06 0.000442226
0.00193691 0.00014521 -7.23111e-07
0.00014521 0.000129217 1.66002e-06
-7.23111e-07 1.66002e-06 3.25209e-05
0.00182032 0.000224069 -1.09668e-06
0.000224069 0.000149092 3.05237e-07
-1.09668e-06 3.05237e-07 4.55243e-06
0.00187272 0.000242944 -7.24902e-07
0.000242944 0.000105193 -9.02159e-08
-7.24902e-07 -9.02159e-08 -2.21253e-05
0.00174096 0.000222078 -2.81895e-06
0.000222078 0.000267729 -4.35809e-07
-2.81895e-06 -4.35809e-07 0.000106661
0.00179772 0.000263038 3.39311e-07
0.000263038 0.000172504 -4.22216e-08
3.39311e-07 -4.22216e-08 1.36109e-05
0.00182274 0.000287058 4.67762e-07
0.000287058 9.32238e-05 1.03114e-07
4.67762e-07 1.03114e-07 -5.27951e-05
0.00101264 0.000158321 -1.39378e-05
0.000158321 8.35475e-06 -5.1591e-06
-1.39378e-05 -5.1591e-06 -0.000137234
0.001509 0.000235858 3.24459e-06
0.000235858 0.000171805 6.5523e-07
3.24459e-06 6.5523e-07 -2.63861e-06
0.00165687 0.000289845 2.21283e-07
0.000289845 0.000112307 -2.32287e-06
2.21283e-07 -2.32287e-06 -5.87953e-05
0.000508241 0.000177135 -2.25914e-05
0.000177135 -0.000107741 -1.25721e-05
-2.25914e-05 -1.25721e-05 -0.00020333
0.00095702 0.000171735 -6.72167e-07
0.000171735 1.24875e-06 1.902e-07
-6.72167e-07 1.902e-07 -0.000150931
0.00136459 0.000248924 7.80463e-06
0.000248924 0.000131171 2.68624e-06
7.80463e-06 2.68624e-06 -5.65786e-05
0.000938902 0.000179808 1.15656e-05
0.000179808 2.87128e-05 5.48991e-06
1.15656e-05 5.48991e-06 -0.000129844
0.000539076 0.00019243 1.55405e-06
0.00019243 -7.49632e-05 5.41516e-07
1.55405e-06 5.41516e-07 -0.000174715
0.00583672 -1.85463e-05 -0.000196962
-1.85463e-05 0.00316503 -2.22439e-05
-0.000196962 -2.22439e-05 0.00314693
0.000462256 0.000164378 2.0749e-05
0.000164378 -0.000108815 1.44342e-05
2.0749e-05 1.44342e-05 -0.00019809
0.00540067 -0.000124332 1.15253e-06
-0.000124332 0.00291219 -6.87258e-07
1.15253e-06 -6.87258e-07 0.00289449
0.00442125 -0.000212224 0.000107964
-0.000212224 0.00235136 5.36137e-06
0.000107964 5.36137e-06 0.00232281
0.00178994 9.51745e-05 -2.82557e-06
9.51745e-05 1.89603e-05 1.09784e-06
-2.82557e-06 1.09784e-06 -4.43216e-05
0.00189101 0.000136793 1.20835e-06
0.000136793 3.8745e-05 7.83432e-07
1.20835e-06 7.83432e-07 -2.8398e-05
0.00198298 0.000176239 -5.83122e-07
0.000176239 8.26358e-06 -2.45425e-07
-5.83122e-07 -2.45425e-07 -3.79697e-05
0.00197661 0.00024508 2.15086e-06
0.00024508 0.000127106 -4.87693e-07
2.15086e-06 -4.87693e-07 2.0829e-05
0.00178696 5.4752e-07 1.20689e-06
5.4752e-07 5.70426e-05 -2.33028e-07
1.20689e-06 -2.33028e-07 -1.76753e-05
0.00191161 4.58044e-05 5.25845e-07
4.58044e-05 6.70678e-05 -4.62051e-08
5.25845e-07 -4.62051e-08 2.07504e-05
0.00194698 4.3831e-05 2.05463e-06
4.3831e-05 4.67838e-05 -1.16743e-07
2.05463e-06 -1.16743e-07 1.77505e-05
0.00192349 -2.1054e-05 -6.25129e-07
-2.1054e-05 6.99912e-05 -1.35099e-07
-6.25129e-07 -1.35099e-07 3.08359e-05
0.00174995 -2.98235e-05 -2.04308e-06
-2.98235e-05 2.8319e-05 -3.27031e-08
-2.04308e-06 -3.27031e-08 -4.04391e-05
0.00181115 -3.06168e-05 2.18383e-06
-3.06168e-05 0.000132332 -7.11976e-07
2.18383e-06 -7.11976e-07 3.30337e-05
0.00178877 -7.11472e-05 -1.53899e-06
-7.11472e-05 3.78642e-05 1.14808e-06
-1.53899e-06 1.14808e-06 -3.71146e-05
0.00177468 -7.2086e-05 -3.40624e-07
-7.2086e-05 0.000106619 3.42026e-07
-3.40624e-07 3.42026e-07 1.04982e-06
0.00155506 -5.33143e-05 -2.54875e-06
-5.33143e-05 0.000103396 -7.15493e-08
-2.54875e-06 -7.15493e-08 -2.32999e-05
0.0017522 -0.00012276 1.15192e-06
-0.00012276 9.18725e-05 -1.01767e-07
1.15192e-06 -1.01767e-07 -2.28185e-05
0.00147704 -8.96715e-05 6.31634e-07
-8.96715e-05 7.01597e-05 -2.31505e-07
6.31634e-07 -2.31505e-07 -6.72432e-05
0.00098471 -5.76146e-05 -1.22393e-05
-5.76146e-05 -3.87634e-05 2.24768e-06
-1.22393e-05 2.24768e-06 -0.000167678
0.00145094 -0.000126621 2.57701e-06
-0.000126621 7.30807e-05 -4.01009e-07
2.57701e-06 -4.01009e-07 -7.27461e-05
0.000994123 -8.23885e-05 -5.47658e-08
-8.23885e-05 -2.53777e-05 1.62556e-07
-5.47658e-08 1.62556e-07 -0.000157777
0.000584327 -8.17255e-05 -1.97278e-05
-8.17255e-05 -0.00011319 4.86651e-06
-1.97278e-05 4.86651e-06 -0.000188829
0.00101704 -0.000101582 1.27123e-05
-0.000101582 -4.10559e-06 -3.53745e-06
1.27123e-05 -3.53745e-06 -0.000139203
0.00158187 -9.12865e-05 4.68619e-05
-9.12865e-05 0.000488169 -3.0838e-06
4.68619e-05 -3.0838e-06 0.000420236
0.00562125 -0.000121068 -0.000236134
-0.000121068 0.00299269 1.49132e-05
-0.000236134 1.49132e-05 0.00299936
0.00266316 -0.000124112 0.000113749
-0.000124112 0.00113336 -1.27856e-05
0.000113749 -1.27856e-05 0.00107571
0.00157206 -4.96701e-05 -6.81564e-05
-4.96701e-05 0.000584802 5.74516e-06
-6.81564e-05 5.74516e-06 0.000558783
0.00128305 -6.11205e-05 4.6069e-05
-6.11205e-05 0.000428282 -6.43392e-06
4.6069e-05 -6.43392e-06 0.000391414
0.00188753 0.000101435 -7.75761e-07
0.000101435 0.000116577 1.82878e-06
-7.75761e-07 1.82878e-06 3.42071e-05
0.00187141 0.000157001 3.64783e-07
0.000157001 0.000164568 1.44794e-06
3.64783e-07 1.44794e-06 4.1213e-05
0.0019678 0.000142245 4.39974e-07
0.000142245 0.000154375 4.15234e-08
4.39974e-07 4.15234e-08 5.70493e-05
0.0015385 0.000177998 -3.26173e-06
0.000177998 0.000111173 -2.79336e-07
-3.26173e-06 -2.79336e-07 -3.96468e-05
0.00180213 0.000220815 3.80001e-07
0.000220815 0.00013872 2.98128e-09
3.80001e-07 2.98128e-09 -5.16347e-06
0.00186071 0.000243306 3.47636e-07
0.000243306 8.98704e-05 -2.378e-07
3.47636e-07 -2.378e-07 -3.45016e-05
0.00073205 0.00012485 -1.55524e-05
0.00012485 -0.000176833 -4.54588e-06
-1.55524e-05 -4.54588e-06 -0.0003173
0.00175985 0.00022318 2.4879e-06
0.00022318 0.000278728 6.58444e-07
2.4879e-06 6.58444e-07 0.000117714
0.00173459 0.000257832 2.00824e-07
0.000257832 0.000140841 -4.66629e-07
2.00824e-07 -4.66629e-07 -1.919e-05
0.00048766 0.000130318 -1.95975e-05
0.000130318 -0.000138507 -9.90148e-06
-1.95975e-05 -9.90148e-06 -0.0002258
0.000817378 0.000148611 5.07385e-07
0.000148611 -0.000106559 2.9498e-07
5.07385e-07 2.9498e-07 -0.000252631
0.0013457 0.000231618 9.20865e-06
0.000231618 7.07461e-05 1.55111e-06
9.20865e-06 1.55111e-06 -0.000103966
0.00587076 6.58269e-05 -0.000209114
6.58269e-05 0.00316046 -2.15498e-05
-0.000209114 -2.15498e-05 0.00315388
0.000505018 0.000164919 1.0621e-06
0.000164919 -0.000108954 7.18143e-07
1.0621e-06 7.18143e-07 -0.000205431
0.00095499 0.000171771 1.29894e-05
0.000171771 1.51833e-06 5.98594e-06
1.29894e-05 5.98594e-06 -0.000150483
0.000455091 0.000175663 2.08621e-05
0.000175663 -0.000119956 1.41895e-05
2.08621e-05 1.41895e-05 -0.00022088
0.00570811 -3.00835e-05 8.75622e-06
-3.00835e-05 0.00307903 -6.52981e-07
8.75622e-06 -6.52981e-07 0.00306803
0.0051851 -0.000169132 0.000150003
-0.000169132 0.00278624 7.75199e-06
0.000150003 7.75199e-06 0.00276615
0.00187054 6.30085e-05 -1.92011e-06
6.30085e-05 0.000106062 -5.53712e-07
-1.92011e-06 -5.53712e-07 3.09332e-05
0.00185497 9.5905e-05 4.23622e-07
9.5905e-05 5.48189e-05 6.2428e-07
4.23622e-07 6.2428e-07 -9.33465e-06
0.00186116 0.000135969 1.88459e-06
0.000135969 2.39453e-05 8.80272e-08
1.88459e-06 8.80272e-08 -4.17325e-05
0.00168951 4.00443e-06 2.42955e-06
4.00443e-06 5.32895e-05 -5.42474e-07
2.42955e-06 -5.42474e-07 -4.80675e-05
0.00173603 2.79233e-06 6.46338e-07
2.79233e-06 3.16537e-05 9.77957e-08
6.46338e-07 9.77957e-08 -4.13228e-05
0.00193439 3.77817e-05 1.53153e-06
3.77817e-05 7.30607e-05 -5.69193e-08
1.53153e-06 -5.69193e-08 2.91052e-05
0.00174218 -2.38062e-05 -2.15873e-06
-2.38062e-05 2.55899e-05 7.12281e-07
-2.15873e-06 7.12281e-07 -4.04785e-05
0.00177853 -2.66271e-05 9.40612e-07
-2.66271e-05 0.000112277 -5.35989e-08
9.40612e-07 -5.35989e-08 1.33219e-05
0.00174107 -1.99412e-05 -5.15544e-07
-1.99412e-05 0.000217277 -5.41013e-07
-5.15544e-07 -5.41013e-07 9.6843e-05
0.00166551 -7.15302e-05 -2.12858e-06
-7.15302e-05 4.60174e-05 1.08409e-06
-2.12858e-06 1.08409e-06 -6.44576e-05
0.00161076 -5.35115e-05 7.01824e-08
-5.35115e-05 0.000138147 6.03571e-08
7.01824e-08 6.03571e-08 9.77518e-06
0.00079028 -2.82328e-05 -1.37561e-05
-2.82328e-05 -0.000161412 1.39384e-06
-1.37561e-05 1.39384e-06 -0.000287717
0.00146158 -8.95753e-05 2.83353e-06
-8.95753e-05 5.91414e-05 -4.6598e-07
2.83353e-06 -4.6598e-07 -7.81231e-05
0.00099067 -5.45833e-05 -3.83692e-08
-5.45833e-05 -3.64083e-05 1.2573e-07
-3.83692e-08 1.2573e-07 -0.00016487
0.000587451 -2.07031e-05 -1.8413e-05
-2.07031e-05 -0.000114783 3.17669e-06
-1.8413e-05 3.17669e-06 -0.000189466
0.00101369 -8.09501e-05 1.23094e-05
-8.09501e-05 -1.51423e-05 -2.67481e-06
1.23094e-05 -2.67481e-06 -0.000147065
0.000590513 -6.40973e-05 -2.26423e-07
-6.40973e-05 -0.00010708 3.39608e-07
-2.26423e-07 3.39608e-07 -0.000184454
0.00562833 -1.58692e-05 -0.000227375
-1.58692e-05 0.00299345 9.04911e-06
-0.000227375 9.04911e-06 0.00300245
0.000621296 -6.7291e-05 1.59868e-05
-6.7291e-05 -8.70372e-05 -6.77971e-06
1.59868e-05 -6.77971e-06 -0.000166622
0.00354359 -7.95808e-05 0.000105601
-7.95808e-05 0.00175905 -3.97795e-06
0.000105601 -3.97795e-06 0.001743
0.00123921 -7.31272e-05 5.2273e-05
-7.31272e-05 0.000404005 -6.95676e-06
5.2273e-05 -6.95676e-06 0.000364831
0.00180008 9.21004e-05 -1.15398e-06
9.21004e-05 8.54762e-05 2.14168e-07
-1.15398e-06 2.14168e-07 4.30159e-07
0.00175269 9.64753e-05 2.40875e-06
9.64753e-05 9.70573e-05 2.38142e-06
2.40875e-06 2.38142e-06 -1.47657e-05
0.00193806 9.88226e-05 4.96113e-08
9.88226e-05 0.000148164 -3.58763e-07
4.96113e-08 -3.58763e-07 6.69982e-05
0.00149293 0.000127357 -2.02827e-06
0.000127357 7.00206e-05 -5.78363e-08
-2.02827e-06 -5.78363e-08 -7.18239e-05
0.00184397 0.000156114 5.46112e-07
0.000156114 0.00014412 1.78928e-07
5.46112e-07 1.78928e-07 1.95012e-05
0.00200346 0.000139152 3.10744e-07
0.000139152 0.000182308 -1.72106e-06
3.10744e-07 -1.72106e-06 8.43923e-05
0.000788252 0.000103831 -1.46452e-05
0.000103831 -0.000159525 -3.47536e-06
-1.46452e-05 -3.47536e-06 -0.000294528
0.0016358 0.000179592 -2.88296e-08
0.000179592 0.000172104 2.36065e-07
-2.88296e-08 2.36065e-07 2.08151e-05
0.00178703 0.000217647 7.37863e-07
0.000217647 0.000130568 -4.92547e-07
7.37863e-07 -4.92547e-07 -1.26472e-05
0.000509389 9.2451e-05 -1.79867e-05
9.2451e-05 -0.000143519 -7.26318e-06
-1.79867e-05 -7.26318e-06 -0.000224074
0.000712436 0.000124177 -2.78925e-06
0.000124177 -0.000187633 -3.63929e-07
-2.78925e-06 -3.63929e-07 -0.000328251
0.00178296 0.00022474 7.97972e-06
0.00022474 0.000292242 1.85328e-06
7.97972e-06 1.85328e-06 0.000131206
0.00579857 0.00014244 -0.000227081
0.00014244 0.0031033 -2.05963e-05
-0.000227081 -2.05963e-05 0.00310396
0.000500665 0.00012488 3.55274e-07
0.00012488 -0.00013173 3.47373e-07
3.55274e-07 3.47373e-07 -0.000219475
0.000629848 0.000139567 1.36706e-05
0.000139567 -0.000217118 5.05002e-06
1.36706e-05 5.05002e-06 -0.000363747
0.00577894 8.04307e-05 1.27492e-05
8.04307e-05 0.0031075 1.30975e-06
1.27492e-05 1.30975e-06 0.00310177
0.000484547 0.000151951 1.93768e-05
0.000151951 -0.000120304 1.25698e-05
1.93768e-05 1.25698e-05 -0.000217516
0.00559471 -6.17765e-05 0.000190289
-6.17765e-05 0.00300193 1.18034e-05
0.000190289 1.18034e-05 0.00299731
0.00180247 4.43554e-05 1.06639e-06
4.43554e-05 0.000108072 -4.86582e-07
1.06639e-06 -4.86582e-07 8.62705e-06
0.00179413 6.04299e-05 -1.75568e-06
6.04299e-05 6.78381e-05 4.35558e-07
-1.75568e-06 4.35558e-07 -9.10157e-06
0.00191953 9.63274e-05 2.30553e-06
9.63274e-05 9.00177e-05 1.77261e-07
2.30553e-06 1.77261e-07 2.50406e-05
0.001744 -1.91209e-06 5.91575e-07
-1.91209e-06 0.000225188 -3.30967e-07
5.91575e-07 -3.30967e-07 0.000107046
0.00169714 2.33504e-06 8.96392e-08
2.33504e-06 5.62177e-05 2.73313e-08
8.96392e-08 2.73313e-08 -4.33981e-05
0.00168129 6.29093e-06 1.36457e-06
6.29093e-06 3.35009e-06 2.73163e-07
1.36457e-06 2.73163e-07 -6.78604e-05
0.00173903 -2.29505e-05 -4.1083e-07
-2.29505e-05 8.82256e-05 6.62329e-07
-4.1083e-07 6.62329e-07 -1.04077e-05
0.00174627 -1.98788e-05 2.74225e-06
-1.98788e-05 0.000219766 -2.46521e-07
2.74225e-06 -2.46521e-07 9.93044e-05
0.000806577 -9.42843e-06 -1.32843e-05
-9.42843e-06 -0.000149469 5.40597e-07
-1.32843e-05 5.40597e-07 -0.000272681
0.00166938 -5.38756e-05 2.85458e-06
-5.38756e-05 0.000174578 2.38499e-08
2.85458e-06 2.38499e-08 4.4524e-05
0.000894207 -2.78777e-05 -2.21779e-06
-2.78777e-05 -9.98313e-05 2.15388e-07
-2.21779e-06 2.15388e-07 -0.000225677
0.000591291 -6.48577e-06 -1.86661e-05
-6.48577e-06 -0.000116416 2.06375e-06
-1.86661e-05 2.06375e-06 -0.000189657
0.00100089 -5.27251e-05 1.1863e-05
-5.27251e-05 -3.11627e-05 -1.96458e-06
1.1863e-05 -1.96458e-06 -0.000159281
0.000570881 -3.17138e-05 8.43657e-07
-3.17138e-05 -0.000126426 -5.07123e-08
8.43657e-07 -5.07123e-08 -0.000199691
0.00557813 -0.00011341 -0.000235865
-0.00011341 0.0029721 9.51204e-06
-0.000235865 9.51204e-06 0.0029778
0.000566536 -4.75494e-05 1.78031e-05
-4.75494e-05 -0.000121382 -3.83038e-06
1.78031e-05 -3.83038e-06 -0.000198531
0.00560602 -5.18906e-05 7.75603e-06
-5.18906e-05 0.00298119 -5.25499e-08
7.75603e-06 -5.25499e-08 0.00299034
0.00157276 -2.03817e-05 0.000189429
-2.03817e-05 0.000577258 -1.0476e-05
0.000189429 -1.0476e-05 0.000564179
0.00167341 6.93041e-05 2.54575e-06
6.93041e-05 4.56331e-05 5.33745e-07
2.54575e-06 5.33745e-07 -6.24614e-05
0.00178607 9.61635e-05 -3.19827e-06
9.61635e-05 7.21882e-05 -8.22784e-07
-3.19827e-06 -8.22784e-07 -1.01185e-05
0.00149374 7.87356e-05 -1.09169e-06
7.87356e-05 6.95706e-05 1.99408e-07
-1.09169e-06 1.99408e-07 -6.27983e-05
0.00175675 9.54025e-05 6.2948e-07
9.54025e-05 9.83246e-05 1.81607e-07
6.2948e-07 1.81607e-07 -1.3595e-05
0.00198837 9.645e-05 -3.47034e-07
9.645e-05 0.000179521 -3.0548e-06
-3.47034e-07 -3.0548e-06 9.954e-05
0.00104397 8.06305e-05 -1.24648e-05
8.06305e-05 -1.23167e-05 -2.35097e-06
-1.24648e-05 -2.35097e-06 -0.000140034
0.00149048 0.000127038 9.17771e-08
0.000127038 7.01306e-05 7.23171e-08
9.17771e-08 7.23171e-08 -7.18736e-05
0.00181183 0.000155057 2.07844e-07
0.000155057 0.000121035 -9.10445e-07
2.07844e-07 -9.10445e-07 -4.84939e-06
0.000534508 6.5586e-05 -1.75444e-05
6.5586e-05 -0.00014162 -5.24201e-06
-1.75444e-05 -5.24201e-06 -0.00021853
0.000879058 0.000107511 -2.97723e-06
0.000107511 -0.000104208 -2.79419e-07
-2.97723e-06 -2.79419e-07 -0.000238866
0.00173645 0.000181069 4.22758e-06
0.000181069 0.000235219 1.07135e-06
4.22758e-06 1.07135e-06 8.34967e-05
0.00574424 0.000186034 -0.00024556
0.000186034 0.00307242 -1.98123e-05
-0.00024556 -1.98123e-05 0.00307255
0.000530231 9.17965e-05 2.86672e-08
9.17965e-05 -0.000132149 1.80194e-07
2.86672e-08 1.80194e-07 -0.000212867
0.000692054 0.000123547 9.60552e-06
0.000123547 -0.00019913 3.6543e-06
9.60552e-06 3.6543e-06 -0.000339848
0.00575211 0.000162642 1.07694e-05
0.000162642 0.00308503 2.9084e-06
1.07694e-05 2.9084e-06 0.00308145
0.00051826 0.000118084 1.8418e-05
0.000118084 -0.00012279 9.79881e-06
1.8418e-05 9.79881e-06 -0.000210538
0.005716 7.51412e-05 0.000216106
7.51412e-05 0.00305931 1.76052e-05
0.000216106 1.76052e-05 0.0030611
0.00172792 3.02547e-05 1.37196e-06
3.02547e-05 0.000214906 -1.57459e-09
1.37196e-06 -1.57459e-09 9.61452e-05
0.00176367 3.97144e-05 -1.38965e-06
3.97144e-05 8.813e-05 7.92416e-08
-1.38965e-06 7.92416e-08 -1.27631e-05
0.00172601 5.76606e-05 -1.36069e-06
5.76606e-05 3.52355e-05 3.42947e-07
-1.36069e-06 3.42947e-07 -4.34835e-05
0.000798263 -7.59928e-06 -1.37685e-05
-7.59928e-06 -0.000147161 -1.32614e-07
-1.37685e-05 -1.32614e-07 -0.000268804
0.001748 3.95761e-06 3.15915e-06
3.95761e-06 0.000227433 -1.95862e-07
3.15915e-06 -1.95862e-07 0.000109248
0.00170519 5.28462e-07 -1.53616e-06
5.28462e-07 5.94525e-05 5.24573e-07
-1.53616e-06 5.24573e-07 -3.84055e-05
0.00175617 -2.01964e-05 5.82653e-06
-2.01964e-05 0.000225058 7.40238e-08
5.82653e-06 7.40238e-08 0.000104568
0.000797916 -9.53589e-06 -1.65948e-06
-9.53589e-06 -0.00015554 7.80202e-08
-1.65948e-06 7.80202e-08 -0.000278997
0.000593773 -2.89111e-05 -1.90517e-05
-2.89111e-05 -0.000115815 8.0845e-07
-1.90517e-05 8.0845e-07 -0.000186863
0.000981171 -2.66945e-05 1.02109e-05
-2.66945e-05 -4.81684e-05 -1.20552e-06
1.02109e-05 -1.20552e-06 -0.000173577
0.000571725 4.38744e-06 3.2518e-07
4.38744e-06 -0.000128357 8.11384e-08
3.2518e-07 8.11384e-08 -0.000200944
0.00560949 -9.03937e-05 -0.000242516
-9.03937e-05 0.00298833 6.74898e-06
-0.000242516 6.74898e-06 0.00299625
0.000583391 -3.4691e-05 1.86082e-05
-3.4691e-05 -0.000117268 -2.60379e-06
1.86082e-05 -2.60379e-06 -0.000191757
0.00561146 -7.26666e-06 -3.03456e-06
-7.26666e-06 0.00298284 1.636e-06
-3.03456e-06 1.636e-06 0.00299384
0.00561239 -6.99418e-05 0.000235982
-6.99418e-05 0.00298362 -8.45137e-06
0.000235982 -8.45137e-06 0.00299394
0.00146571 4.71544e-05 -9.28799e-07
4.71544e-05 5.83363e-05 5.84789e-08
-9.28799e-07 5.84789e-08 -6.92748e-05
0.00173475 7.2559e-05 -1.50486e-06
7.2559e-05 8.00966e-05 -1.2693e-06
-1.50486e-06 -1.2693e-06 -2.37553e-05
0.00177225 0.000100569 -4.18958e-06
0.000100569 5.9041e-05 -1.77809e-06
-4.18958e-06 -1.77809e-06 -2.05691e-05
0.00104603 4.67958e-05 -1.22073e-05
4.67958e-05 -9.73234e-06 -1.82025e-06
-1.22073e-05 -1.82025e-06 -0.000132563
0.00147895 7.84487e-05 1.87191e-07
7.84487e-05 6.10942e-05 9.49361e-09
1.87191e-07 9.49361e-09 -7.16664e-05
0.00176177 9.42628e-05 -9.824e-07
9.42628e-05 0.000100519 -1.80155e-06
-9.824e-07 -1.80155e-06 -1.14886e-05
0.000561737 4.11454e-05 -1.71384e-05
4.11454e-05 -0.000130856 -3.7712e-06
-1.71384e-05 -3.7712e-06 -0.000205545
0.00101263 8.18065e-05 2.28964e-07
8.18065e-05 -3.03681e-05 2.36669e-07
2.28964e-07 2.36669e-07 -0.000158624
0.00148895 0.000126773 2.6423e-06
0.000126773 7.04279e-05 2.63401e-07
2.6423e-06 2.63401e-07 -7.17509e-05
0.00567411 0.000176543 -0.000257369
0.000176543 0.00303298 -1.71257e-05
-0.000257369 -1.71257e-05 0.0030342
0.00056025 6.86564e-05 3.27661e-07
6.86564e-05 -0.000126393 1.51224e-07
3.27661e-07 1.51224e-07 -0.000203827
0.000967507 0.000111158 9.65464e-06
0.000111158 -5.04791e-05 3.04425e-06
9.65464e-06 3.04425e-06 -0.000184754
0.00572822 0.000199619 6.20901e-06
0.000199619 0.00306962 2.70713e-06
6.20901e-06 2.70713e-06 0.00306705
0.000554262 9.23843e-05 1.76106e-05
9.23843e-05 -0.000118282 7.67488e-06
1.76106e-05 7.67488e-06 -0.000199332
0.00573685 0.000185879 0.000235231
0.000185879 0.00307618 2.26759e-05
0.000235231 2.26759e-05 0.00307302
0.00100824 1.42036e-05 -1.28605e-05
1.42036e-05 -2.03042e-05 -7.15601e-07
-1.28605e-05 -7.15601e-07 -0.000140536
0.00162209 2.58651e-05 3.61272e-06
2.58651e-05 0.000152982 1.11985e-07
3.61272e-06 1.11985e-07 3.38543e-05
0.0017252 3.44781e-05 -4.17174e-06
3.44781e-05 6.80928e-05 9.5764e-08
-4.17174e-06 9.5764e-08 -3.42675e-05
0.000621891 2.98304e-05 -1.95412e-05
2.98304e-05 -0.000106151 -4.65566e-07
-1.95412e-05 -4.65566e-07 -0.000170236
0.000777718 -2.02203e-06 -1.87055e-06
-2.02203e-06 -0.000160134 5.41506e-08
-1.87055e-06 5.41506e-08 -0.000281928
0.00174861 1.02884e-05 5.81673e-06
1.02884e-05 0.000227613 1.22207e-07
5.81673e-06 1.22207e-07 0.000109368
0.000786851 -9.27202e-06 1.00395e-05
-9.27202e-06 -0.000163152 -4.07643e-07
1.00395e-05 -4.07643e-07 -0.000286832
0.00058681 -4.45899e-06 2.80908e-07
-4.45899e-06 -0.000119633 3.20603e-07
2.80908e-07 3.20603e-07 -0.000190894
0.0055781 3.89765e-05 -0.000248005
3.89765e-05 0.00296554 -4.59868e-07
-0.000248005 -4.59868e-07 0.00297731
0.000548347 1.57184e-05 1.81159e-05
1.57184e-05 -0.000143143 -1.21427e-06
1.81159e-05 -1.21427e-06 -0.000214741
0.00558948 -8.91107e-05 -7.84748e-06
-8.91107e-05 0.00297724 1.55602e-06
-7.84748e-06 1.55602e-06 0.00298483
0.00557745 1.24723e-05 0.000227465
1.24723e-05 0.00296301 -3.80598e-06
0.000227465 -3.80598e-06 0.00297373
0.00102263 2.49726e-05 -1.26417e-05
2.49726e-05 -1.68395e-05 -1.37409e-06
-1.26417e-05 -1.37409e-06 -0.000137422
0.0014725 4.65135e-05 -1.48487e-07
4.65135e-05 6.2251e-05 -7.05991e-08
-1.48487e-07 -7.05991e-08 -6.302e-05
0.0017974 7.55393e-05 -4.539e-06
7.55393e-05 0.000115095 -2.12512e-06
-4.539e-06 -2.12512e-06 1.55029e-05
0.00262197 5.03216e-05 -0.000118914
5.03216e-05 0.00109231 -3.80032e-06
-0.000118914 -3.80032e-06 0.00104393
0.00101333 4.86662e-05 2.66e-07
4.86662e-05 -2.94414e-05 1.12751e-07
2.66e-07 1.12751e-07 -0.000152661
0.00146543 7.81075e-05 2.28117e-06
7.81075e-05 5.33259e-05 -4.28735e-08
2.28117e-06 -4.28735e-08 -7.98342e-05
0.00560481 0.000138919 -0.000259326
0.000138919 0.00298979 -1.27156e-05
-0.000259326 -1.27156e-05 0.00299483
0.000594934 5.80378e-05 8.26548e-07
5.80378e-05 -0.000109326 3.47484e-07
8.26548e-07 3.47484e-07 -0.000185541
0.000985154 8.31179e-05 1.23551e-05
8.31179e-05 -4.60851e-05 2.77846e-06
1.23551e-05 2.77846e-06 -0.000174858
0.00571533 0.000188536 1.75687e-06
0.000188536 0.00305941 1.65498e-06
1.75687e-06 1.65498e-06 0.00305958
0.00059634 7.43568e-05 1.7969e-05
7.43568e-05 -0.000103988 6.02449e-06
1.7969e-05 6.02449e-06 -0.000182528
0.00571301 0.000226639 0.000246305
0.000226639 0.00306908 2.40884e-05
0.000246305 2.40884e-05 0.00306206
0.000667425 9.3641e-06 -1.63448e-05
9.3641e-06 -6.86808e-05 -1.7653e-06
-1.63448e-05 -1.7653e-06 -0.000140796
0.000885868 1.24547e-05 6.64493e-07
1.24547e-05 -9.36136e-05 2.52855e-07
6.64493e-07 2.52855e-07 -0.000214472
0.00151326 2.09614e-05 4.99709e-06
2.09614e-05 8.91641e-05 8.38e-08
4.99709e-06 8.38e-08 -3.02947e-05
0.00544749 -9.36095e-05 -0.000231664
-9.36095e-05 0.00290455 1.12258e-06
-0.000231664 1.12258e-06 0.00290659
0.000582782 7.80739e-06 -5.14917e-07
7.80739e-06 -0.000124531 1.27685e-07
-5.14917e-07 1.27685e-07 -0.00019126
0.000769854 2.95914e-06 9.90176e-06
2.95914e-06 -0.000165808 9.82849e-08
9.90176e-06 9.82849e-08 -0.000287713
0.000546305 2.06913e-05 1.8346e-05
2.06913e-05 -0.000144007 1.49292e-07
1.8346e-05 1.49292e-07 -0.000214661
0.00553119 3.13273e-06 2.48277e-06
3.13273e-06 0.00294225 -9.13018e-07
2.48277e-06 -9.13018e-07 0.00295066
0.0056001 -4.16984e-06 0.00023665
-4.16984e-06 0.0029742 -1.93976e-06
0.00023665 -1.93976e-06 0.00298643
0.00269101 7.81334e-06 -0.000115598
7.81334e-06 0.00113025 -2.35696e-06
-0.000115598 -2.35696e-06 0.00108326
0.00101771 2.78992e-05 4.79054e-08
2.78992e-05 -2.13292e-05 9.90639e-08
4.79054e-08 9.90639e-08 -0.000142175
0.00147491 4.60231e-05 1.98532e-06
4.60231e-05 6.38082e-05 -2.0924e-07
1.98532e-06 -2.0924e-07 -5.91189e-05
0.00520408 -5.61611e-05 -8.16146e-05
-5.61611e-05 0.00276291 4.89874e-07
-8.16146e-05 4.89874e-07 0.00274904
0.000610642 5.04043e-05 5.92142e-08
5.04043e-05 -0.000101708 2.09398e-07
5.92142e-08 2.09398e-07 -0.000175058
0.000997324 5.10757e-05 1.21268e-05
5.10757e-05 -3.98614e-05 2.08346e-06
1.21268e-05 2.08346e-06 -0.000163412
0.00565559 0.000109399 -1.08507e-05
0.000109399 0.00301532 -1.19704e-06
-1.08507e-05 -1.19704e-06 0.00302208
0.000625226 8.00982e-05 1.94003e-05
8.00982e-05 -9.0833e-05 5.04478e-06
1.94003e-05 5.04478e-06 -0.000167692
0.00572885 0.000212695 0.000257226
0.000212695 0.00307475 2.21208e-05
0.000257226 2.21208e-05 0.00307141
0.00166993 -5.00295e-05 -0.000195147
-5.00295e-05 0.000629846 7.41561e-07
-0.000195147 7.41561e-07 0.000621642
0.00164801 2.57817e-05 -4.82631e-05
2.57817e-05 0.000507799 2.07545e-07
-4.82631e-05 2.07545e-07 0.0004527
0.000761336 1.31493e-05 1.24128e-05
1.31493e-05 -0.000167926 9.24151e-07
1.24128e-05 9.24151e-07 -0.000289472
0.00550614 -4.04263e-05 7.73389e-06
-4.04263e-05 0.00293395 1.37028e-06
7.73389e-06 1.37028e-06 0.00294018
0.00059876 -1.24582e-05 1.88824e-05
-1.24582e-05 -0.000109828 7.98786e-07
1.88824e-05 7.98786e-07 -0.000179751
0.00556354 -6.43803e-05 0.00025076
-6.43803e-05 0.00296262 -2.18891e-06
0.00025076 -2.18891e-06 0.00297155
0.00126742 1.06931e-05 -3.9816e-05
1.06931e-05 0.00041394 -6.72888e-07
-3.9816e-05 -6.72888e-07 0.00037988
0.00163856 1.27755e-05 -4.86595e-05
1.27755e-05 0.000505767 -6.63108e-07
-4.86595e-05 -6.63108e-07 0.000447515
0.00100175 2.94364e-05 1.23658e-05
2.94364e-05 -3.20246e-05 1.62238e-06
1.23658e-05 1.62238e-06 -0.000153163
0.00344302 5.07644e-05 9.21442e-05
5.07644e-05 0.00169869 2.20494e-06
9.21442e-05 2.20494e-06 0.00168755
0.000618096 6.05268e-05 1.96586e-05
6.05268e-05 -9.71678e-05 3.88909e-06
1.96586e-05 3.88909e-06 -0.000170594
0.00570693 9.9068e-05 0.00024594
9.9068e-05 0.00304031 1.3418e-05
0.00024594 1.3418e-05 0.00304997
0.00545557 -2.17478e-05 -8.87706e-06
-2.17478e-05 0.00290646 -1.99469e-06
-8.87706e-06 -1.99469e-06 0.00291187
0.000600736 4.35561e-05 2.02715e-05
4.35561e-05 -0.000116998 1.96909e-06
2.02715e-05 1.96909e-06 -0.000180909
0.00542338 4.95475e-05 0.00023753
4.95475e-05 0.00288182 4.33179e-08
0.00023753 4.33179e-08 0.0028909
0.00338353 2.66119e-05 0.000105803
2.66119e-05 0.00166745 3.29804e-06
0.000105803 3.29804e-06 0.00165663
0.000629884 5.09975e-06 1.88425e-05
5.09975e-06 -9.17292e-05 2.64671e-06
1.88425e-05 2.64671e-06 -0.000162052
0.00559236 -2.4246e-05 0.000237102
-2.4246e-05 0.00297498 5.91657e-06
0.000237102 5.91657e-06 0.00298411
0.00549156 -0.000126675 0.000233795
-0.000126675 0.00293329 -3.01266e-06
0.000233795 -3.01266e-06 0.00293386
0.0054787 -9.57944e-06 0.000233242
-9.57944e-06 0.00290561 3.10209e-06
0.000233242 3.10209e-06 0.00291798
