# vtk DataFile Version 2.0
Wound Healing Simulation
ASCII
DATASET UNSTRUCTURED_GRID
POINTS 3012 float
69.9759 18.75 4
67.2507 60.3285 4
69.976 18.75 2
73.0099 25.446 4
71.1327 20.9142 4
68.6801 16.6661 4
67.8265 19.9149 3.99281
67.2507 60.3286 2
71.1327 54.0858 4
68.6801 58.3339 4
65.6939 62.2254 4
65.3131 59.0103 3.99362
74.6784 42.3946 4
73.7221 47.2057 4
69.9759 18.75 0
73.0099 25.446 2
68.6801 16.6661 2
71.1327 20.9142 2
67.8265 19.9144 2
74.6792 32.6053 4
73.7222 27.7943 4
72.1454 23.1494 4
70.6164 26.2118 3.99129
68.8872 21.9472 3.99238
67.2507 14.6715 4
66.6379 17.9611 3.99324
65.8044 21.0062 3.98838
67.2507 60.3285 0
71.1327 54.0858 2
68.6801 58.3339 2
65.694 62.2255 2
65.3131 59.0107 2
72.1454 51.8506 4
69.9759 56.25 4
68.8379 53.1239 3.99216
64.0165 64.0165 4
66.6116 57.1439 3.99331
63.8866 60.7735 3.99397
63.5046 57.792 3.98942
60.3285 67.2507 4
74.6792 42.3947 2
73.7222 47.2057 2
74.9194 39.9526 4
74.2788 44.8158 4
72.1714 42.0907 3.98997
73.0099 49.554 4
71.252 46.6066 3.99079
73.0099 25.446 0
71.1327 20.9142 0
68.6801 16.6661 0
67.8265 19.9149 0.00719468
74.6792 32.6053 2
73.7222 27.7943 2
67.2508 14.6715 2
72.1455 23.1494 2
70.6165 26.2115 2
66.6378 17.9607 2
68.8871 21.9467 2
65.8044 21.0058 2
74.9197 35.0474 4
74.2794 30.1841 4
72.1878 32.9382 3.98992
71.2807 28.4232 3.99069
69.8175 24.0495 3.9919
68.3568 26.9393 3.98711
66.771 22.9165 3.98794
65.694 12.7746 4
65.3244 16.0939 3.99361
64.7195 19.174 3.98891
63.9012 22.0095 3.98664
71.1327 54.0858 0
65.6939 62.2254 0
68.6801 58.3339 0
65.3131 59.0103 0.00638046
72.1455 51.8506 2
69.9759 56.25 2
68.8379 53.1243 2
64.0165 64.0165 2
66.6115 57.1443 2
63.8865 60.7739 2
63.5046 57.7924 2
62.2254 65.694 4
58.8937 65.4188 3.99423
69.7709 50.9992 3.9916
67.7849 55.1781 3.99283
66.6582 52.2258 3.98761
62.3366 62.4336 3.99416
64.6666 56.0514 3.98901
62.2054 59.4239 3.98995
61.832 56.7083 3.98731
58.3339 68.6801 4
60.3285 67.2508 2
73.7221 47.2057 0
74.6784 42.3946 0
74.9197 39.9526 2
74.2794 44.8159 2
72.1714 42.0909 2
73.0099 49.554 2
71.252 46.6069 2
75 37.5 4
72.4088 39.8048 3.9898
71.7855 44.3599 3.99041
69.8154 41.7954 3.98661
70.5775 48.8231 3.99118
68.9231 46.0255 3.98707
74.6792 32.6053 0
73.7222 27.7943 0
67.2507 14.6715 0
72.1454 23.1494 0
70.6164 26.2118 0.00870607
68.8872 21.9472 0.00761878
66.6379 17.9611 0.00676177
65.8044 21.0062 0.0116246
74.9197 35.0474 2
74.2794 30.1841 2
72.1878 32.938 2
71.2808 28.423 2
65.694 12.7745 2
65.3243 16.0935 2
69.8175 24.0491 2
68.3569 26.9391 2
64.7195 19.1735 2
66.7711 22.9161 2
63.9013 22.0092 2
72.4166 35.2212 3.98982
71.8067 30.6694 3.99028
69.8507 33.2628 3.9865
68.9764 29.0282 3.9868
67.6206 24.8976 3.98754
66.2127 27.6179 3.98563
64.0165 10.9835 4
64.7726 23.807 3.9864
63.8905 14.3194 3.99384
63.517 17.4254 3.98949
62.9187 20.2925 3.98691
62.1138 22.9113 3.98588
60.684 11.092 3.99405
57.6122 11.434 3.99026
72.1454 51.8506 0
69.9759 56.25 0
68.8379 53.1239 0.00783591
64.0165 64.0165 0
63.8866 60.7735 0.00603438
66.6116 57.1439 0.00669208
63.5046 57.792 0.0105786
62.2255 65.694 2
58.8936 65.4191 2
69.7709 50.9996 2
67.7849 55.1786 2
66.6582 52.2261 2
62.3366 62.434 2
64.6666 56.0518 2
62.2054 59.4243 2
61.832 56.7087 2
60.6687 63.9823 3.9942
57.0242 66.7389 3.99428
57.5576 63.7029 3.99046
67.5171 50.1913 3.98725
65.7094 54.1918 3.98832
64.5541 51.4084 3.9858
60.7743 60.9549 3.99036
62.8316 55.0946 3.98721
60.6645 58.1855 3.98746
60.3406 55.8183 3.98641
56.25 69.9759 4
58.3339 68.6801 2
60.3285 67.2507 0
58.9209 9.65084 3.9941
62.2254 9.30607 4
73.0099 49.554 0
74.2788 44.8158 0
71.252 46.6066 0.00920649
72.1714 42.0907 0.0100307
74.9194 39.9526 0
75 37.5 2
72.4088 39.8049 2
71.7856 44.3602 2
69.8155 41.7955 2
70.5775 48.8234 2
68.9232 46.0256 2
72.4921 37.5118 3.98956
70.0527 39.6602 3.98669
69.4415 43.9159 3.98685
67.6179 41.5051 3.9854
68.2763 48.1198 3.98716
66.7296 45.4542 3.98553
74.9197 35.0474 0
74.2794 30.1841 0
72.1878 32.9382 0.0100791
71.2807 28.4232 0.00931204
65.694 12.7746 0
65.3244 16.0939 0.00638975
69.8175 24.0495 0.00809665
68.3568 26.9393 0.0128853
66.771 22.9165 0.0120567
64.7195 19.174 0.0110864
63.9012 22.0095 0.0133618
72.4166 35.2212 2
71.8067 30.6692 2
69.8508 33.2628 2
68.9765 29.0281 2
64.0165 10.9835 2
63.8905 14.319 2
63.517 17.425 2
67.6207 24.8972 2
66.2129 27.6177 2
62.9188 20.2922 2
64.7727 23.8067 2
62.1139 22.9111 2
60.6839 11.0916 2
57.6122 11.4336 2
70.0691 35.3889 3.98661
69.4776 31.1417 3.98669
67.6749 33.5839 3.98496
66.791 29.6092 3.9852
65.5414 25.6793 3.98608
64.1729 28.2343 3.98502
62.3419 12.6485 3.99398
62.8805 24.6082 3.98577
62.2007 15.7647 3.98991
61.822 18.6567 3.9873
61.235 21.3079 3.98587
60.4532 23.6905 3.98565
59.2465 12.7634 3.99022
55.8739 10.2222 3.99034
56.4062 13.0943 3.98777
69.7709 50.9992 0.00840169
62.2254 65.694 0
58.8937 65.4188 0.00576724
67.7849 55.1781 0.0071698
66.6582 52.2258 0.0123933
62.3366 62.4336 0.00583988
62.2054 59.4239 0.0100477
64.6666 56.0514 0.0109862
61.832 56.7083 0.0126909
60.6686 63.9827 2
57.0241 66.7392 2
57.5575 63.7033 2
67.5172 50.1916 2
65.7095 54.1922 2
64.5542 51.4086 2
60.7743 60.9553 2
62.8317 55.0949 2
60.6646 58.1858 2
60.3407 55.8186 2
55.0697 67.9352 3.99432
59.2197 62.3803 3.99043
55.8036 64.9186 3.99052
56.328 62.1058 3.98798
65.3498 49.4287 3.98559
63.7203 53.3177 3.98647
62.466 50.6809 3.98495
59.3369 59.5798 3.98784
61.0932 54.3413 3.98637
59.2983 57.0439 3.98612
59.2573 55.2188 3.98636
48.1022 68.583 3.99075
50.9477 69.934 3.99437
54.0858 71.1327 4
56.25 69.976 2
58.3339 68.6801 0
57.0579 8.33129 3.99415
60.3285 7.74928 4
58.9208 9.65048 2
62.2255 9.30602 2
70.5775 48.8231 0.00881582
71.7855 44.3599 0.00959152
68.9231 46.0255 0.0129319
69.8154 41.7954 0.0133856
72.4088 39.8048 0.0101989
75 37.5 0
72.4922 37.5118 2
70.0527 39.6602 2
69.4416 43.9161 2
67.618 41.5051 2
68.2763 48.12 2
66.7297 45.4543 2
70.1406 37.5213 3.98667
67.8553 39.5162 3.98569
67.2438 43.4809 3.98533
65.5858 41.2193 3.98498
66.0878 47.4355 3.98564
64.6811 44.8666 3.98507
72.4166 35.2212 0.0101774
71.8067 30.6694 0.00972379
69.8507 33.2628 0.0134998
68.9764 29.0282 0.0131961
64.0165 10.9835 0
63.8905 14.3194 0.00615561
63.517 17.4254 0.0105114
67.6206 24.8976 0.0124639
66.2127 27.6179 0.0143678
64.7726 23.807 0.0135974
62.9187 20.2925 0.0130922
62.1138 22.9113 0.0141214
60.684 11.092 0.00594934
57.6122 11.434 0.00973785
70.0691 35.3889 2
69.4777 31.1416 2
67.675 33.5838 2
66.7911 29.6091 2
62.3419 12.6481 2
62.2007 15.7643 2
61.8221 18.6564 2
65.5416 25.6791 2
64.1731 28.2342 2
61.2351 21.3077 2
62.8807 24.6081 2
60.4533 23.6903 2
59.2464 12.763 2
56.4062 13.094 2
55.8739 10.2218 2
67.8907 35.5439 3.98521
67.2845 31.612 3.985
65.7258 33.919 3.98449
64.6905 30.1751 3.98435
63.5636 26.3888 3.98551
62.2922 28.7528 3.98507
60.7759 14.2058 3.99013
61.0761 25.3039 3.98554
60.6174 17.1017 3.98761
60.2349 19.783 3.98621
59.6841 22.2198 3.9853
59.0112 24.2793 3.9859
54.0369 9.12669 3.99043
57.9117 14.3107 3.98781
54.7872 11.9959 3.9878
55.3142 14.6233 3.98654
67.5171 50.1913 0.0127473
57.0242 66.7389 0.00572301
60.6687 63.9823 0.00580107
57.5576 63.7029 0.00954225
65.7094 54.1918 0.0116798
64.5541 51.4084 0.0141977
60.7743 60.9549 0.0096387
60.6645 58.1855 0.0125377
62.8316 55.0946 0.0127877
60.3406 55.8183 0.0135932
55.0697 67.9355 2
59.2197 62.3808 2
55.8036 64.919 2
56.328 62.1062 2
65.3499 49.4289 2
63.7204 53.3179 2
62.4661 50.6811 2
59.3369 59.5802 2
61.0933 54.3415 2
59.2984 57.0442 2
59.2574 55.219 2
53.0417 69.0026 3.99435
53.9657 66.0196 3.99059
57.8828 60.8894 3.98796
54.6839 63.2194 3.98807
55.2136 60.6352 3.98653
63.221 48.687 3.98504
61.7622 52.6062 3.98545
60.3058 50.0534 3.98442
58.0237 58.2883 3.98643
59.3463 53.9837 3.98586
58.1389 55.8487 3.98498
50.1085 67.8615 3.99069
47.4628 66.5876 3.98835
46.0561 69.162 3.99078
48.1021 68.5834 2
48.8021 70.725 3.9944
50.9477 69.9343 2
51.8506 72.1454 4
54.0858 71.1327 2
56.25 69.9759 0
55.1022 7.13632 3.99418
58.3339 6.31992 4
57.0579 8.33095 2
60.3286 7.74926 2
58.9209 9.65084 0.00589815
62.2254 9.30607 0
68.2763 48.1198 0.0128358
69.4415 43.9159 0.0131533
66.7296 45.4542 0.014467
67.6179 41.5051 0.0145957
70.0527 39.6602 0.0133081
72.4921 37.5118 0.0104446
70.1406 37.5214 2
67.8554 39.5162 2
67.2439 43.481 2
65.5859 41.2193 2
66.0879 47.4356 2
64.6812 44.8666 2
67.9514 37.522 3.9857
65.8182 39.3752 3.98547
65.2053 43.0392 3.98471
63.7945 40.9406 3.98492
63.9938 46.739 3.98524
62.845 44.2378 3.98509
70.0691 35.3889 0.0133923
69.4776 31.1417 0.013313
67.6749 33.5839 0.0150412
66.791 29.6092 0.0147965
62.3419 12.6485 0.00602168
62.2007 15.7647 0.0100929
61.822 18.6567 0.0126976
65.5414 25.6793 0.0139156
64.1729 28.2343 0.0149752
62.8805 24.6082 0.0142261
61.235 21.3079 0.0141259
60.4532 23.6905 0.0143546
59.2465 12.7634 0.00978303
56.4062 13.0943 0.0122271
55.8739 10.2222 0.00965744
67.8908 35.5439 2
67.2846 31.612 2
65.7259 33.9189 2
64.6906 30.1751 2
60.7759 14.2053 2
60.6174 17.1014 2
60.235 19.7828 2
63.5638 26.3887 2
62.2923 28.7527 2
59.6842 22.2197 2
61.0762 25.3037 2
59.0114 24.2792 2
57.9118 14.3104 2
55.3143 14.623 2
54.0368 9.12628 2
54.7872 11.9956 2
65.9055 35.6626 3.98447
65.2143 32.1417 3.98411
64.319 34.2409 3.98391
62.6316 30.6156 3.98441
61.685 27.0424 3.98534
60.8917 29.113 3.98548
59.3129 15.6455 3.98776
59.3687 25.7583 3.98603
59.1306 18.3249 3.98662
58.7566 20.8164 3.9854
58.3129 23.0498 3.98503
58.0044 24.6215 3.98655
52.1115 8.1461 3.99045
53.058 11.0039 3.9879
56.6787 15.7173 3.98674
53.8107 13.6611 3.98635
54.3783 15.9728 3.98602
55.0697 67.9352 0.00568418
65.3498 49.4287 0.0144051
55.8036 64.9186 0.00947591
59.2197 62.3803 0.00957475
56.328 62.1058 0.0120187
63.7203 53.3177 0.0135287
62.466 50.6809 0.0150521
59.3369 59.5798 0.0121551
59.2983 57.0439 0.0138774
61.0932 54.3413 0.0136348
59.2573 55.2188 0.0136441
53.0417 69.0029 2
53.9657 66.02 2
57.8828 60.8898 2
54.6839 63.2198 2
55.2136 60.6355 2
63.2211 48.6871 2
61.7623 52.6064 2
60.3059 50.0535 2
58.0238 58.2886 2
59.3465 53.9839 2
58.1391 55.8489 2
52.0693 67.0052 3.99064
52.9528 64.228 3.98814
56.6518 59.5118 3.98671
53.6821 61.6374 3.98655
54.2631 59.3432 3.98577
61.03 47.9118 3.98489
59.7359 52.1412 3.98515
58.0647 49.6571 3.98559
56.7846 57.0195 3.98508
57.14 54.1625 3.98462
50.1084 67.8619 2
49.3364 65.9282 3.98823
47.4628 66.5879 2
46.8919 64.7448 3.98678
45.558 67.1047 3.98842
43.9734 69.5944 3.99078
46.0561 69.1624 2
46.6089 71.3692 3.99441
48.1022 68.583 0.00924642
48.8021 70.7252 2
49.554 73.0099 4
50.9477 69.934 0.00562774
51.8506 72.1455 2
54.0858 71.1327 0
53.0633 6.06823 3.99419
55.1022 7.13599 2
56.25 5.02411 4
58.3339 6.3199 2
57.0579 8.33129 0.00584781
60.3285 7.74928 0
66.0878 47.4355 0.0143642
67.2438 43.4809 0.0146725
64.6811 44.8666 0.0149284
65.5858 41.2193 0.015016
67.8553 39.5162 0.0143058
70.1406 37.5213 0.0133318
67.9515 37.522 2
65.8182 39.3752 2
65.2054 43.0393 2
63.7945 40.9406 2
63.9938 46.739 2
62.845 44.2378 2
65.9209 37.5021 3.98552
63.9401 39.2726 3.98529
63.3673 42.5662 3.9845
62.4777 40.7095 3.98384
62.0054 45.9459 3.98561
61.497 43.7069 3.98516
67.8907 35.5439 0.0147863
67.2845 31.612 0.0149975
65.7258 33.919 0.0155068
64.6905 30.1751 0.0156479
60.7759 14.2058 0.00987009
60.6174 17.1017 0.0123859
60.2349 19.783 0.0137928
63.5636 26.3888 0.0144936
62.2922 28.7528 0.0149299
61.0761 25.3039 0.0144552
59.6841 22.2198 0.0146993
59.0112 24.2793 0.0141049
57.9117 14.3107 0.0121901
55.3142 14.6233 0.0134641
54.0369 9.12669 0.009566
54.7872 11.9959 0.0122032
65.9056 35.6626 2
65.2143 32.1417 2
64.319 34.241 2
62.6318 30.6156 2
59.313 15.6451 2
59.1307 18.3246 2
58.7568 20.8162 2
61.6851 27.0423 2
60.8919 29.1129 2
58.3131 23.0497 2
59.3689 25.7582 2
58.0046 24.6215 2
56.6788 15.717 2
54.3784 15.9726 2
53.8107 13.6607 2
52.1115 8.14569 2
53.058 11.0035 2
64.1282 35.6273 3.98384
62.9695 33.0326 3.98373
60.6605 30.5883 3.98476
59.6162 27.8765 3.98566
57.9428 16.9558 3.98677
57.7816 25.6833 3.98678
57.7246 19.4419 3.98588
57.3919 21.7994 3.98458
57.2195 23.9022 3.98525
50.1117 7.27868 3.99058
51.2323 10.1136 3.98802
52.1727 12.7804 3.98623
55.5401 16.9444 3.98616
52.9791 15.2406 3.9856
53.7606 16.9534 3.98568
53.0417 69.0026 0.00565134
53.9657 66.0196 0.00940976
63.221 48.687 0.0149636
54.6839 63.2194 0.011928
57.8828 60.8894 0.0120366
55.2136 60.6352 0.0134736
61.7622 52.6062 0.0145507
60.3058 50.0534 0.0155758
58.0237 58.2883 0.0135726
58.1389 55.8487 0.0150193
59.3463 53.9837 0.0141381
52.0693 67.0056 2
52.9528 64.2284 2
56.6518 59.5122 2
53.6821 61.6377 2
54.2632 59.3436 2
61.0301 47.9118 2
59.7361 52.1413 2
58.0648 49.657 2
56.7848 57.0197 2
57.1401 54.1625 2
51.1672 65.1358 3.98815
52.0462 62.5505 3.98649
55.485 58.2758 3.986
52.8363 60.153 3.98583
53.6437 58.4947 3.98548
58.3556 46.8863 3.98655
57.5905 51.8272 3.9847
56.2908 49.5973 3.98654
55.4828 55.8291 3.98421
55.3799 53.4242 3.98303
50.1085 67.8615 0.00930539
49.3364 65.9286 2
48.6177 64.1314 3.98663
47.4628 66.5876 0.0116493
45.558 67.1051 2
46.8919 64.7451 2
46.3815 63.0635 3.9857
45.1322 65.2062 3.98689
43.6313 67.4755 3.98845
41.8609 69.8821 3.99075
43.9734 69.5948 2
44.3765 71.864 3.99442
46.0561 69.162 0.00922014
46.6089 71.3695 2
47.2057 73.7222 4
48.8021 70.725 0.0056023
49.554 73.0099 2
51.8506 72.1454 0
50.9531 5.12889 3.99431
53.0633 6.06791 2
54.0858 3.86728 4
55.1022 7.13632 0.00581712
56.25 5.02406 2
58.3339 6.31992 0
63.9938 46.739 0.0147625
65.2053 43.0392 0.0152861
62.845 44.2378 0.0149122
63.7945 40.9406 0.0150808
65.8182 39.3752 0.0145309
67.9514 37.522 0.0142983
65.9209 37.5021 2
63.9401 39.2726 2
63.3674 42.5662 2
62.4777 40.7095 2
62.0055 45.946 2
61.4971 43.7069 2
64.0004 37.4574 3.98575
62.2088 39.3616 3.98474
61.2689 41.9767 3.98411
60.2988 44.8 3.9865
65.9055 35.6626 0.0155306
65.2143 32.1417 0.0158875
64.319 34.2409 0.0160865
62.6316 30.6156 0.0155898
59.3129 15.6455 0.0122357
59.1306 18.3249 0.0133788
58.7566 20.8164 0.014605
61.685 27.0424 0.0146611
60.8917 29.113 0.0145194
59.3687 25.7583 0.013975
58.3129 23.0498 0.0149697
58.0044 24.6215 0.0134526
56.6787 15.7173 0.0132576
54.3783 15.9728 0.0139833
53.8107 13.6611 0.0136462
52.1115 8.1461 0.00954716
53.058 11.0039 0.0120987
64.1282 35.6273 2
62.9696 33.0327 2
60.6606 30.5883 2
57.9429 16.9555 2
57.7247 19.4416 2
57.392 21.7992 2
59.6164 27.8764 2
57.2197 23.9021 2
57.7818 25.6833 2
50.1117 7.27826 2
55.5402 16.9441 2
53.7607 16.9532 2
52.9792 15.2403 2
52.1727 12.7801 2
51.2324 10.1132 2
62.2375 35.3522 3.98392
60.3432 32.7281 3.98357
58.6774 30.0456 3.98529
57.3438 27.3408 3.98636
56.6407 18.1256 3.98614
56.3342 25.0556 3.98627
56.3702 20.4849 3.98506
56.1359 22.8253 3.98387
48.0555 6.52236 3.99074
49.3242 9.3224 3.98802
50.4334 11.9801 3.98638
51.3788 14.479 3.98521
54.4183 17.8921 3.9856
52.3632 17.0101 3.98506
52.0693 67.0052 0.00936101
52.9528 64.228 0.0118613
61.03 47.9118 0.0151108
53.6821 61.6374 0.0134454
56.6518 59.5118 0.0132931
54.2631 59.3432 0.0142303
59.7359 52.1412 0.0148511
58.0647 49.6571 0.0144083
56.7846 57.0195 0.0149182
57.14 54.1625 0.0153777
51.1672 65.1362 2
52.0462 62.5508 2
55.4851 58.2761 2
52.8363 60.1533 2
53.6438 58.4951 2
58.3557 46.8863 2
57.5906 51.8272 2
56.2909 49.5971 2
55.4829 55.8293 2
55.3801 53.4242 2
50.3459 63.3904 3.98648
51.245 60.9491 3.98533
54.2248 57.292 3.98511
52.3154 58.655 3.98523
56.7883 44.2185 3.98696
55.5483 47.9383 3.98652
55.1037 51.4334 3.98364
54.02 54.5837 3.98329
49.3364 65.9282 0.011766
48.6177 64.1318 2
47.9618 62.4848 3.98558
45.558 67.1047 0.0115834
46.8919 64.7448 0.0132163
43.6313 67.4759 2
46.3815 63.0638 2
45.1322 65.2065 2
45.9871 61.5971 3.98491
44.7667 63.4646 3.98583
43.3561 65.5159 3.9869
41.6636 67.6948 3.98842
39.7027 70.0294 3.99072
41.8608 69.8824 2
42.111 72.2089 3.99441
43.9734 69.5944 0.00921782
44.3765 71.8643 2
44.8159 74.2794 4
46.6089 71.3692 0.00558969
47.2057 73.7222 2
49.554 73.0099 0
48.7837 4.32019 3.9944
50.9531 5.12858 2
51.8506 2.85458 4
53.0633 6.06823 0.00580738
54.0858 3.86728 2
56.25 5.02411 0
62.0054 45.9459 0.0143919
63.3673 42.5662 0.0154952
61.497 43.7069 0.0148395
62.4777 40.7095 0.0161606
63.9401 39.2726 0.0147082
65.9209 37.5021 0.0144752
64.0005 37.4574 2
62.2089 39.3617 2
61.269 41.9767 2
60.2988 44.8 2
62.0491 37.4444 3.98615
60.3123 39.8575 3.98385
59.0575 42.946 3.98598
64.1282 35.6273 0.0161606
62.9695 33.0326 0.0162672
60.6605 30.5883 0.0152425
57.9428 16.9558 0.0132306
57.7246 19.4419 0.0141218
57.3919 21.7994 0.0154245
59.6162 27.8765 0.0143431
57.7816 25.6833 0.0132169
57.2195 23.9022 0.0147512
55.5401 16.9444 0.0138379
53.7606 16.9534 0.0143207
52.9791 15.2406 0.0143954
50.1117 7.27868 0.00942071
52.1727 12.7804 0.0137738
51.2323 10.1136 0.0119782
62.2376 35.3523 2
60.3432 32.7282 2
58.6775 30.0456 2
56.6408 18.1254 2
56.3703 20.4848 2
56.136 22.8253 2
57.3441 27.3408 2
56.3344 25.0555 2
48.0555 6.52195 2
49.3243 9.32198 2
54.4185 17.8918 2
52.3633 17.0099 2
51.3789 14.4787 2
50.4334 11.9797 2
59.9566 35.1104 3.98419
58.0603 32.2461 3.98408
56.6106 29.3025 3.98613
55.5026 26.5525 3.98737
55.3484 19.1585 3.98555
54.966 24.0094 3.98404
55.0192 21.5237 3.98422
45.9616 5.87801 3.99083
43.3735 7.46705 3.98859
47.3547 8.6168 3.98825
48.6 11.2829 3.98611
49.7146 13.7277 3.98544
50.6346 16.1113 3.98448
53.1287 18.6313 3.98511
51.3056 18.0232 3.98472
51.1672 65.1358 0.0118475
52.0462 62.5505 0.013515
58.3556 46.8863 0.0134524
52.8363 60.153 0.0141681
55.485 58.2758 0.0139981
53.6437 58.4947 0.0145223
57.5905 51.8272 0.0153005
56.2908 49.5973 0.013464
55.4828 55.8291 0.0157868
55.3799 53.4242 0.0169656
50.3459 63.3908 2
51.245 60.9495 2
54.225 57.2923 2
52.3155 58.6553 2
56.7883 44.2184 2
55.5485 47.9381 2
55.1039 51.4333 2
54.0202 54.5839 2
49.5919 61.7555 3.98537
55.7347 41.7331 3.98424
50.5686 59.3443 3.98428
52.1912 56.5158 3.98402
54.2648 45.6042 3.98774
53.395 49.3755 3.98469
52.6932 52.8957 3.98218
48.6177 64.1314 0.0133746
47.9618 62.4851 2
47.3293 61.0204 3.9849
43.6313 67.4755 0.0115467
45.1322 65.2062 0.013112
46.3815 63.0635 0.0143008
41.6636 67.6952 2
43.3562 65.5162 2
45.9871 61.5974 2
44.7667 63.4649 2
45.7661 60.6419 3.98449
44.4828 61.8466 3.9849
43.1459 63.7371 3.98582
41.5457 65.654 3.98688
39.6329 67.775 3.98835
37.5263 70.0548 3.99067
39.7027 70.0298 2
39.8179 72.406 3.99439
41.8609 69.8821 0.00924551
42.111 72.2091 2
42.3947 74.6792 4
44.3765 71.864 0.0055838
44.8159 74.2794 2
47.2057 73.7222 0
43.8511 5.35523 3.991
46.5699 3.64501 3.99444
48.7837 4.31989 2
49.554 1.99015 4
50.9531 5.12889 0.00569021
51.8506 2.85453 2
54.0858 3.86728 0
60.2988 44.8 0.0134995
61.2689 41.9767 0.01589
62.2088 39.3616 0.0152566
64.0004 37.4574 0.0142549
62.0491 37.4445 2
60.3123 39.8575 2
59.0575 42.946 2
59.8362 37.5665 3.9866
58.0827 40.6777 3.98456
55.2255 39.7371 3.98985
62.2375 35.3522 0.0160764
60.3432 32.7281 0.0164277
58.6774 30.0456 0.0147069
56.6407 18.1256 0.013857
56.3702 20.4849 0.0149408
56.1359 22.8253 0.0161304
57.3438 27.3408 0.0136363
56.3342 25.0556 0.0137251
54.4183 17.8921 0.0143971
52.3632 17.0101 0.0149364
51.3788 14.479 0.0147945
48.0555 6.52236 0.0092601
49.3242 9.3224 0.0119772
50.4334 11.9801 0.0136155
59.9566 35.1105 2
45.9616 5.87761 2
43.3735 7.46665 2
58.0603 32.2462 2
56.6108 29.3026 2
55.3485 19.1582 2
55.0194 21.5236 2
54.9661 24.0095 2
55.5029 26.5524 2
47.3548 8.61638 2
48.6 11.2825 2
53.1289 18.6311 2
51.3057 18.023 2
50.6348 16.111 2
49.7147 13.7273 2
57.4793 34.7476 3.98274
55.8078 31.4866 3.98523
54.5861 28.3586 3.98846
53.8214 25.4467 3.98561
53.9768 20.1047 3.98503
53.6057 22.6661 3.98319
41.3986 7.07247 3.98883
45.3595 7.9888 3.9885
42.8653 9.40767 3.98679
46.6663 10.6442 3.98641
47.7455 13.0899 3.98515
48.9319 15.384 3.98423
50.0076 17.6778 3.98404
51.6576 19.3004 3.98501
50.3459 63.3904 0.0135234
51.245 60.9491 0.014669
56.7883 44.2185 0.0130412
55.5483 47.9383 0.0134794
52.3154 58.655 0.0147745
54.2248 57.292 0.0148852
55.1037 51.4334 0.0163602
54.02 54.5837 0.0167114
49.5919 61.7558 2
55.7347 41.7331 2
50.5686 59.3446 2
52.1914 56.5163 2
54.2648 45.604 2
53.3952 49.3752 2
52.6935 52.8958 2
48.8495 60.2141 3.98466
52.6513 42.6768 3.98991
49.7921 57.6459 3.98382
50.6091 54.4531 3.98252
51.9018 47.3166 3.98551
51.2574 50.9935 3.98067
48.3609 43.7654 3.97685
47.9618 62.4848 0.0144203
47.3293 61.0207 2
46.6189 59.8076 3.98449
41.6636 67.6948 0.0115831
43.3561 65.5159 0.0130977
44.7667 63.4646 0.0141721
45.9871 61.5971 0.015091
39.6329 67.7753 2
41.5457 65.6543 2
45.7661 60.6422 2
43.1459 63.7375 2
44.4828 61.8469 2
44.6233 60.3043 3.98421
42.95 62.0953 3.98495
41.5992 63.8307 3.98574
39.6474 65.6227 3.98676
37.5636 67.7577 3.98832
31.6981 65.1417 3.98675
33.3928 67.4954 3.98833
35.3337 69.965 3.99066
37.5263 70.0551 2
37.5097 72.4607 3.99436
39.7027 70.0294 0.00928198
39.8179 72.4063 2
39.9526 74.9197 4
42.111 72.2089 0.00558802
42.3947 74.6792 2
44.8159 74.2794 0
41.7359 4.9646 3.99112
43.8511 5.35485 2
44.3253 3.1084 3.99458
46.5698 3.64472 2
47.2057 1.27793 4
48.7837 4.32019 0.00560191
49.554 1.99013 2
51.8506 2.85458 0
59.0575 42.946 0.014023
60.3123 39.8575 0.0161472
62.0491 37.4444 0.0138484
59.8362 37.5666 2
58.0826 40.6777 2
55.2255 39.7371 2
56.9301 37.9024 3.98499
49.8277 41.3219 3.98897
53.2792 39.3249 3.99382
39.442 6.79596 3.9889
59.9566 35.1104 0.0158075
58.0603 32.2461 0.0159175
56.6106 29.3025 0.0138712
55.3484 19.1585 0.0144547
55.0192 21.5237 0.0157822
54.966 24.0094 0.0159593
55.5026 26.5525 0.0126344
53.1287 18.6313 0.0148907
51.3056 18.0232 0.0152754
50.6346 16.1113 0.0155179
45.9616 5.87801 0.00917078
49.7146 13.7277 0.014563
47.3547 8.6168 0.0117541
48.6 11.2829 0.0138894
43.3735 7.46705 0.011409
57.4792 34.7477 2
41.3986 7.07207 2
45.3595 7.98838 2
42.8653 9.40725 2
55.8079 31.4867 2
54.5865 28.3585 2
53.977 20.1044 2
53.6059 22.666 2
53.8216 25.4469 2
46.6664 10.6438 2
47.7456 13.0895 2
51.6578 19.3001 2
50.0078 17.6776 2
48.932 15.3836 2
54.9908 33.9487 3.98228
53.591 30.4438 3.988
52.6616 27.1463 3.98771
52.1813 24.0359 3.98411
52.404 21.0397 3.98439
41.0132 9.04079 3.98714
44.7235 9.98742 3.9868
42.468 10.8933 3.9861
46.0051 12.7183 3.9846
47.6816 14.5703 3.98461
48.1138 16.9704 3.98304
49.8203 19.5702 3.98372
49.5919 61.7555 0.0146276
50.5686 59.3443 0.0157221
55.7347 41.7331 0.0157586
54.2648 45.6042 0.0122644
53.395 49.3755 0.0153121
52.1912 56.5158 0.0159783
52.6932 52.8957 0.0178184
48.8495 60.2144 2
52.6512 42.6766 2
49.7922 57.6463 2
50.6094 54.4535 2
51.9019 47.3161 2
51.2577 50.9934 2
48.3607 43.7643 2
47.9878 58.7572 3.98422
50.2354 45.3132 3.98416
48.6049 55.9374 3.98369
49.1554 52.6317 3.98053
49.7385 49.0977 3.98007
46.1868 39.9088 3.94209
46.6226 42.7835 4.00098
46.6502 45.7673 3.97528
44.0549 41.2494 3.99171
42.0839 41.9839 4.00608
47.3293 61.0204 0.015104
46.6188 59.8079 2
45.4687 58.8042 3.98418
39.6329 67.775 0.0116494
41.5457 65.654 0.013118
43.1459 63.7371 0.0141822
44.4828 61.8466 0.0150983
45.7661 60.6419 0.0155074
41.5992 63.831 2
37.5636 67.7581 2
39.6474 65.623 2
44.6233 60.3046 2
42.95 62.0956 2
41.7529 62.506 3.98506
42.4809 59.9962 3.9842
39.8929 63.566 3.98555
37.6423 65.5221 3.98672
35.4639 67.6672 3.98831
33.5762 65.3553 3.98675
31.9605 63.315 3.9856
29.8843 64.7326 3.98667
31.6981 65.1421 2
31.3776 67.205 3.98832
33.3928 67.4958 2
33.1567 69.7583 3.99067
35.3337 69.9654 2
35.1952 72.3751 3.99435
37.5263 70.0548 0.00933168
37.5097 72.4609 2
37.5 75 4
39.8179 72.406 0.00560814
39.9526 74.9197 2
42.3947 74.6792 0
39.6236 4.7118 3.99125
41.7359 4.96423 2
42.0618 2.71614 3.99466
43.8511 5.35523 0.00899967
44.3253 3.10812 2
44.8158 0.721173 4
46.5699 3.64501 0.0055628
47.2057 1.27779 2
49.554 1.99015 0
58.0827 40.6777 0.0154429
59.8362 37.5665 0.0134019
55.2255 39.7371 0.0101483
49.8276 41.3209 2
56.93 37.9024 2
53.2791 39.325 2
54.1274 36.6241 3.98263
47.7534 40.4668 4.00711
50.7814 38.4927 3.99074
37.5158 6.66709 3.98919
39.442 6.79557 2
39.2107 8.68339 3.98733
35.9411 8.48294 3.98777
57.4793 34.7476 0.0172646
55.8078 31.4866 0.0147709
54.5861 28.3586 0.0115406
53.9768 20.1047 0.0149718
53.6057 22.6661 0.0168109
53.8214 25.4467 0.0143899
51.6576 19.3004 0.0149933
50.0076 17.6778 0.0159569
48.9319 15.384 0.0157737
45.3595 7.9888 0.0115009
47.7455 13.0899 0.0148534
46.6663 10.6442 0.0135871
41.3986 7.07247 0.0111661
42.8653 9.40767 0.0132117
54.9908 33.9491 2
41.0132 9.04036 2
44.7235 9.98698 2
42.468 10.8929 2
53.5912 30.4434 2
52.6618 27.1466 2
52.4043 21.0395 2
52.1815 24.036 2
46.0051 12.7179 2
47.6818 14.5699 2
49.8205 19.57 2
48.114 16.97 2
52.543 32.8368 3.98533
51.4444 29.102 3.99349
50.8505 25.668 3.98255
49.9538 22.1402 3.9843
40.5689 11.5963 3.98541
43.8578 11.9079 3.98499
45.8021 15.4067 3.98345
47.5052 19.2013 3.9823
46.519 37.5092 3.94579
48.8495 60.2141 0.0153438
49.7921 57.6459 0.0161767
52.6513 42.6768 0.0100943
51.9018 47.3166 0.0144891
51.2574 50.9935 0.0193348
50.6091 54.4531 0.0174788
48.3609 43.7654 0.0231495
47.9878 58.7575 2
50.2353 45.3127 2
48.605 55.9378 2
49.1558 52.6322 2
49.7388 49.0972 2
46.1839 39.9092 2
46.6234 42.7834 2
46.6502 45.7649 2
44.054 41.2453 2
42.0839 41.983 2
46.8406 57.3604 3.98447
44.8039 39.5047 3.99384
42.4461 40.8579 4.00345
48.1929 47.3002 3.98103
47.1802 54.2724 3.98399
47.6305 50.8124 3.97755
44.9161 47.3954 3.97342
45.2781 42.028 3.93418
45.1248 44.6628 4.00351
42.8597 42.7418 3.99081
40.9295 42.3397 4.00472
46.6189 59.8076 0.0155098
45.4687 58.8044 2
43.8773 57.7284 3.984
37.5636 67.7577 0.0116781
39.6474 65.6227 0.0132408
41.5992 63.8307 0.0142568
42.95 62.0953 0.015046
44.6233 60.3043 0.0157945
35.4639 67.6676 2
41.7529 62.5063 2
39.8929 63.5664 2
37.6423 65.5225 2
42.4809 59.9964 2
40.6226 61.6646 3.98467
40.4449 58.2283 3.98414
37.8366 63.2278 3.9854
35.5734 65.4445 3.98673
33.5762 65.3557 2
31.9604 63.3153 2
33.6298 63.3549 3.98553
30.3795 62.8735 3.98553
32.1238 62.0216 3.98508
26.8686 61.5174 3.985
28.0631 64.1605 3.9865
29.8843 64.7329 2
29.4072 66.7686 3.98826
31.6981 65.1417 0.0132473
31.3775 67.2054 2
31.0141 69.4233 3.99067
33.3928 67.4954 0.0116691
33.1567 69.7587 2
32.8924 72.1494 3.99434
35.3337 69.965 0.0093382
35.1952 72.3754 2
35.0474 74.9194 4
37.5097 72.4607 0.00564167
37.5 75 2
39.9526 74.9197 0
35.6202 6.71798 3.98907
37.5229 4.61146 3.99129
39.6236 4.71144 2
39.7884 2.47264 3.99477
41.7359 4.9646 0.00888081
42.0618 2.71587 2
42.3946 0.32156 4
44.3253 3.1084 0.00541613
44.8159 0.72056 2
47.2057 1.27793 0
49.8277 41.3219 0.0110305
56.9301 37.9024 0.0150101
53.2792 39.3249 0.00618097
47.7537 40.4655 2
50.7812 38.4923 2
54.1271 36.6244 2
51.5539 35.5631 3.97587
48.4209 37.772 4.00541
46.1791 35.1115 3.94471
44.0425 33.7624 3.99419
42.0802 33.0166 3.99775
37.4574 8.52468 3.98782
37.5158 6.66669 2
39.442 6.79596 0.0111027
39.2107 8.68297 2
38.9758 10.1151 3.98672
35.8976 9.76162 3.98698
34.1494 8.81211 3.98755
35.9411 8.48252 2
54.9908 33.9487 0.0177234
53.591 30.4438 0.0119959
52.6616 27.1463 0.0122884
52.404 21.0397 0.0156102
52.1813 24.0359 0.0158893
49.8203 19.5702 0.0162848
48.1138 16.9704 0.0169618
47.6816 14.5703 0.01539
44.7235 9.98742 0.0132007
46.0051 12.7183 0.0153988
41.0132 9.04079 0.0128634
42.468 10.8933 0.013899
52.5432 32.8364 2
40.569 11.5958 2
43.8578 11.9075 2
51.4446 29.1025 2
50.8508 25.6684 2
49.9541 22.14 2
45.8022 15.4063 2
47.5054 19.201 2
50.1607 31.3679 3.98918
49.3793 27.4168 3.98477
49.4452 24.348 3.98249
47.1938 21.8799 3.98185
38.3012 12.7201 3.98413
42.1002 14.2914 3.98373
44.8002 18.4422 3.98197
45.0822 37.51 3.99232
46.5174 37.5106 2
47.9878 58.7572 0.0157796
48.6049 55.9374 0.0163149
50.2354 45.3132 0.0158398
49.7385 49.0977 0.0199294
49.1554 52.6317 0.0194744
46.1868 39.9088 0.0579103
46.6226 42.7835 -0.000983269
46.6502 45.7673 0.024719
44.0549 41.2494 0.00829353
42.0839 41.9839 -0.00607578
46.8406 57.3606 2
44.8029 39.5007 2
42.4449 40.857 2
48.1931 47.2994 2
47.1804 54.2729 2
47.6311 50.8127 2
44.9174 47.3926 2
45.2759 42.028 2
45.1289 44.6655 2
42.8614 42.7364 2
40.9291 42.3405 2
45.4018 55.9464 3.98427
42.7755 39.2581 3.99306
40.8839 40.8073 3.96445
46.1637 48.9982 3.98126
45.5692 52.5636 3.98299
43.5433 48.5013 3.96214
43.5016 46.2109 4.01572
43.8362 43.8233 3.93104
41.3279 43.902 3.99002
39.3031 42.6619 3.97271
45.4687 58.8042 0.0158177
43.8772 57.7286 2
42.1084 56.3545 3.98401
35.4639 67.6672 0.0116921
37.6423 65.5221 0.0132768
39.8929 63.566 0.0144471
41.7529 62.506 0.0149384
42.4809 59.9962 0.0157995
35.5734 65.4449 2
40.6226 61.6649 2
37.8366 63.2281 2
40.4449 58.2285 2
38.9263 56.5229 3.98412
38.2501 60.3483 3.98429
35.6073 63.2215 3.98546
33.5762 65.3553 0.0132486
31.9605 63.315 0.0144011
33.6298 63.3552 2
30.3795 62.8738 2
32.1238 62.0219 2
28.6817 62.2188 3.98534
33.3463 61.5343 3.98457
31.0667 61.2387 3.98459
27.5671 59.616 3.98476
23.7881 59.1095 3.98604
25.0332 60.892 3.98557
26.8686 61.5177 2
26.2295 63.493 3.98629
28.0631 64.1609 2
27.4639 66.1924 3.98817
29.8843 64.7326 0.013326
29.4072 66.7689 2
28.9066 68.9488 3.99064
31.3776 67.205 0.0116839
31.0141 69.4236 2
30.6149 71.7805 3.99433
33.1567 69.7583 0.00933458
32.8924 72.1496 2
32.6054 74.6784 4
35.1952 72.3751 0.00565251
35.0474 74.9197 2
37.5 75 0
33.7228 6.97232 3.98896
35.4344 4.68169 3.99129
35.6202 6.71759 2
37.5141 2.38535 3.99474
37.5229 4.61111 2
39.6236 4.7118 0.00874967
39.7884 2.47238 2
39.9526 0.0806499 4
42.0618 2.71614 0.00534318
42.3947 0.320817 2
44.8158 0.721173 0
44.8027 35.5128 3.99001
42.4363 34.1462 4.00599
47.7534 40.4668 -0.00710787
50.7814 38.4927 0.00926058
54.1274 36.6241 0.017369
48.421 37.7707 2
51.5535 35.5624 2
46.1771 35.1119 2
44.0428 33.7664 2
42.0803 33.0175 2
48.577 34.2403 3.9967
45.2681 32.9944 3.93732
42.8627 32.2581 3.99025
40.927 32.6589 4.00292
37.3097 10.6173 3.98614
37.4574 8.52425 2
37.5158 6.66709 0.0108068
39.2107 8.68339 0.012669
38.9758 10.1146 2
34.7527 10.367 3.98616
35.8976 9.76118 2
32.3761 9.35836 3.98711
34.1494 8.8117 2
35.9411 8.48294 0.012232
52.543 32.8368 0.0146654
51.4444 29.102 0.00650533
50.8505 25.668 0.0174461
49.9538 22.1402 0.0156976
47.5052 19.2013 0.017701
45.8021 15.4067 0.0165469
43.8578 11.9079 0.0150052
40.5689 11.5963 0.0145924
50.1608 31.3699 2
38.3012 12.7197 2
42.1003 14.291 2
49.3796 27.4176 2
49.4456 24.3481 2
47.1942 21.8797 2
44.8003 18.4417 2
47.941 29.5217 3.98393
47.1483 25.0583 3.98245
44.2925 21.2935 3.97992
36.5808 12.9167 3.98421
38.6797 14.7903 3.98326
41.7489 17.8195 3.98257
42.9057 37.4952 3.99024
45.0826 37.5097 2
46.519 37.5092 0.0542097
46.8406 57.3604 0.0155331
47.1802 54.2724 0.0160097
48.1929 47.3002 0.0189688
47.6305 50.8124 0.0224531
44.8039 39.5047 0.00615587
45.2781 42.028 0.0658214
45.1248 44.6628 -0.00351051
44.9161 47.3954 0.0265812
42.8597 42.7418 0.00918933
42.4461 40.8579 -0.00345026
40.9295 42.3397 -0.00471633
45.4018 55.9466 2
42.7745 39.2575 2
40.8823 40.8083 2
46.1645 48.998 2
45.5696 52.5642 2
43.5442 48.5028 2
43.5036 46.2139 2
43.8373 43.8245 2
41.3286 43.898 2
39.3024 42.666 2
43.7438 54.456 3.98459
40.9621 39.1783 3.95523
39.229 40.8769 3.95356
43.7522 50.5467 3.989
42.0598 47.7464 4.01276
41.9959 45.2201 3.92089
39.5336 44.6724 3.98053
37.5053 42.7873 3.95387
43.8773 57.7284 0.0159966
42.1083 56.3547 2
40.4224 54.9626 3.98405
35.5734 65.4445 0.013273
37.8366 63.2278 0.0145968
40.6226 61.6646 0.0153318
40.4449 58.2283 0.0158563
35.6073 63.2219 2
38.2501 60.3486 2
38.9262 56.523 2
38.0012 55.2775 3.98428
36.9346 57.6505 3.98359
35.3636 60.9332 3.98437
33.6298 63.3549 0.0144708
30.3795 62.8735 0.0144732
32.1238 62.0216 0.0149215
33.3463 61.5345 2
28.6817 62.2191 2
31.0667 61.239 2
29.4025 60.3086 3.98434
32.356 59.766 3.98443
28.0189 58.396 3.98536
27.567 59.6163 2
25.3756 58.62 3.98506
22.7499 58.2712 3.98509
23.398 60.3741 3.98606
23.7881 59.1099 2
25.0332 60.8923 2
24.4315 62.7865 3.9865
26.8686 61.5174 0.0150002
26.2295 63.4933 2
25.5479 65.5027 3.98807
28.0631 64.1605 0.0135024
27.4639 66.1928 2
26.8365 68.3373 3.99062
29.4072 66.7686 0.0117399
28.9066 68.9492 2
28.3701 71.2657 3.9943
31.0141 69.4233 0.00933056
30.6149 71.7807 2
30.1842 74.2788 4
32.8924 72.1494 0.0056635
32.6053 74.6792 2
35.0474 74.9194 0
31.7872 7.41166 3.98876
33.3465 4.92061 3.99121
33.7228 6.97192 2
35.2444 2.46144 3.99476
35.4344 4.68133 2
35.6202 6.71798 0.0109254
37.5 0 4
37.5141 2.3851 2
37.5229 4.61146 0.00871059
39.7884 2.47264 0.00523114
39.9526 0.0802889 2
42.3946 0.32156 0
42.7731 35.7364 3.99202
44.8023 35.5162 2
40.8747 34.1913 3.96534
42.436 34.1467 2
48.4209 37.772 -0.00540553
51.5539 35.5631 0.0241253
46.1791 35.1115 0.0552921
44.0425 33.7624 0.00581011
42.0802 33.0166 0.00224603
48.5761 34.2419 2
45.2663 32.9936 2
42.864 32.2633 2
40.927 32.6568 2
46.5516 31.4942 3.99898
43.8441 31.1829 3.93093
41.3337 31.0968 3.98902
39.2977 32.3465 3.97171
35.6912 11.7615 3.98494
37.3096 10.6168 2
37.4574 8.52468 0.0121786
38.9758 10.1151 0.0132755
33.0966 11.203 3.98557
34.7527 10.3666 2
35.8976 9.76162 0.013022
30.4808 10.006 3.98672
32.376 9.35795 2
34.1494 8.81211 0.0124543
50.1607 31.3679 0.010823
49.3793 27.4168 0.0152317
49.4452 24.348 0.0175123
47.1938 21.8799 0.0181461
44.8002 18.4422 0.0180328
42.1002 14.2914 0.0162676
38.3012 12.7201 0.0158663
36.5808 12.9162 2
47.9415 29.5235 2
38.6797 14.7898 2
41.749 17.8191 2
47.149 25.0583 2
44.2928 21.293 2
45.6735 27.7078 3.9794
43.8262 23.9951 3.98187
41.3432 20.6968 3.98117
35.7701 14.7413 3.98359
38.68 17.5767 3.98239
41.0066 37.4835 3.94937
42.9056 37.4949 2
45.0822 37.51 0.00767552
45.4018 55.9464 0.0157337
45.5692 52.5636 0.017011
46.1637 48.9982 0.018736
42.7755 39.2581 0.00693853
43.8362 43.8233 0.0689569
43.5016 46.2109 -0.0157211
43.5433 48.5013 0.0378586
41.3279 43.902 0.00997959
40.8839 40.8073 0.0355479
39.3031 42.6619 0.0272943
43.7439 54.4563 2
40.9608 39.1785 2
39.2279 40.8798 2
43.7528 50.548 2
42.0603 47.7469 2
41.9954 45.2181 2
37.5049 42.7921 2
39.5341 44.6759 2
41.8909 53.028 3.98222
39.2234 39.169 3.94894
37.5068 40.917 3.95303
35.7075 42.6668 3.9783
40.9953 49.7718 3.9945
39.8721 46.1023 3.95438
37.4969 44.9659 3.96121
42.1084 56.3545 0.01599
40.4223 54.9627 2
38.7327 53.8952 3.98512
35.6073 63.2215 0.0145423
38.2501 60.3483 0.0157113
38.9263 56.5229 0.015876
35.3636 60.9335 2
36.9345 57.6508 2
38.0013 55.2775 2
36.3203 55.4085 3.98354
34.4872 58.5436 3.98369
33.3463 61.5343 0.0154337
28.6817 62.2188 0.014664
31.0667 61.2387 0.0154067
32.356 59.7662 2
29.4025 60.3088 2
30.2949 57.8389 3.98413
28.0188 58.3962 2
26.9361 56.8503 3.98432
27.5671 59.616 0.0152425
25.3756 58.6203 2
23.8276 56.8395 3.98431
21.324 57.434 3.98552
21.9893 59.6491 3.98637
22.7498 58.2715 2
22.7346 62.0395 3.98665
23.398 60.3744 2
23.7881 59.1095 0.0139607
25.0332 60.892 0.014428
24.4315 62.7868 2
23.6817 64.7217 3.98805
26.2295 63.493 0.0137126
25.5479 65.5031 2
24.8091 67.5988 3.9906
27.4639 66.1924 0.0118285
26.8366 68.3377 2
26.1655 70.6066 3.99431
28.9066 68.9488 0.00936018
28.3701 71.266 2
27.7943 73.7221 4
30.6149 71.7805 0.00567364
30.1841 74.2794 2
32.6054 74.6784 0
29.8098 7.98444 3.98846
31.2517 5.32738 3.99106
31.7872 7.41125 2
32.9803 2.69944 3.99471
33.3465 4.92025 2
33.7228 6.97232 0.0110439
35.0474 0.080333 4
35.2444 2.46118 2
35.4344 4.68169 0.00871129
37.5 0 2
37.5141 2.38535 0.00525852
39.9526 0.0806499 0
40.9606 35.7995 3.95213
42.7726 35.7365 2
44.8027 35.5128 0.00999323
28.5419 10.681 3.9864
39.2195 34.1334 3.9572
40.8737 34.1894 2
42.4363 34.1462 -0.00598942
48.577 34.2403 0.00329521
45.2681 32.9944 0.0626758
42.8627 32.2581 0.00975133
40.927 32.6589 -0.0029203
46.5524 31.4943 2
43.843 31.1843 2
41.3358 31.0985 2
39.2977 32.3421 2
44.6025 29.6596 4.00393
42.0062 29.7847 3.92737
39.5405 30.3314 3.97361
37.4984 32.2212 3.95021
34.0909 12.9186 3.98436
35.6912 11.7611 2
37.3097 10.6173 0.0138643
31.1847 11.9709 3.98532
33.0965 11.2026 2
34.7527 10.367 0.01384
30.4808 10.0055 2
32.3761 9.35836 0.0128927
47.941 29.5217 0.0160675
47.1483 25.0583 0.0175509
36.5808 12.9167 0.0157893
44.2925 21.2935 0.0200816
41.7489 17.8195 0.0174306
38.6797 14.7903 0.0167445
35.7701 14.7408 2
45.6744 27.7081 2
38.6801 17.5762 2
41.3434 20.6964 2
43.8269 23.9947 2
33.6059 15.858 3.98322
43.1387 26.3945 3.98168
40.9278 23.2717 3.98205
38.4224 20.3067 3.98097
35.8465 17.4904 3.98273
39.2306 37.4866 3.94564
41.006 37.483 2
42.9057 37.4952 0.00976366
43.7438 54.456 0.0154051
43.7522 50.5467 0.0109953
40.9621 39.1783 0.0447741
41.9959 45.2201 0.079114
42.0598 47.7464 -0.0127593
39.5336 44.6724 0.019467
39.229 40.8769 0.046443
37.5053 42.7873 0.0461325
41.891 53.0282 2
39.2226 39.1703 2
37.5065 40.92 2
40.9962 49.7708 2
35.7073 42.6709 2
39.8716 46.105 2
37.4967 44.9714 2
39.8298 51.944 3.98327
37.5028 39.1805 3.951
35.7875 40.89 3.95589
34.0783 42.3489 4.0063
35.4601 44.6654 3.98235
38.75 48.905 4.02059
37.4949 46.399 3.95864
40.4224 54.9626 0.0159527
38.7329 53.8949 2
36.7191 53.2365 3.98648
35.3636 60.9332 0.0156287
36.9346 57.6505 0.0164051
38.0012 55.2775 0.0157197
34.4872 58.5438 2
36.3204 55.4087 2
33.2232 55.5252 3.98295
32.356 59.766 0.015571
29.4025 60.3086 0.0156604
30.2949 57.8391 2
28.673 55.3349 3.98336
28.0189 58.396 0.0146439
26.936 56.8506 2
25.2901 55.1805 3.98356
21.7889 55.3871 3.9842
25.3756 58.62 0.0149411
23.8275 56.8399 2
20.2067 57.0661 3.98586
20.6387 58.8103 3.98637
21.3239 57.4343 2
21.1638 61.1919 3.98707
21.9892 59.6494 2
22.7499 58.2712 0.0149077
21.8947 63.8509 3.98815
22.7346 62.0398 2
23.398 60.3741 0.0139428
24.4315 62.7865 0.0135022
23.6817 64.722 2
22.8375 66.7431 3.99056
25.5479 65.5027 0.0119307
24.8091 67.5992 2
24.0099 69.808 3.99431
26.8365 68.3373 0.00937749
26.1655 70.6069 2
25.446 73.0099 4
28.3701 71.2657 0.00569618
27.7943 73.7222 2
30.1842 74.2788 0
27.8198 8.64358 3.98822
29.1538 5.87271 3.99085
29.8098 7.98402 2
30.7256 3.09642 3.99462
31.2517 5.32699 2
31.7872 7.41166 0.0112404
32.6053 0.320823 4
32.9803 2.69918 2
33.3465 4.92061 0.0087894
35.0474 0.0802903 2
35.2444 2.46144 0.0052437
37.5 0 0
39.2224 35.8165 3.94909
40.9596 35.7983 2
42.7731 35.7364 0.00798363
28.5418 10.6806 2
26.621 11.3755 3.98649
29.2237 12.6275 3.98537
37.4964 34.0978 3.95314
39.2189 34.1303 2
40.8747 34.1913 0.0346591
46.5516 31.4942 0.00101905
43.8441 31.1829 0.0690665
41.3337 31.0968 0.0109775
39.2977 32.3465 0.0282898
44.6051 29.659 2
42.005 29.7855 2
39.5415 30.3274 2
37.4989 32.2161 2
42.4523 28.3262 4.00912
39.8814 28.8946 3.94826
37.5005 30.0336 3.95346
35.7011 32.3424 3.97052
31.9126 14.4637 3.98423
34.0909 12.9182 2
35.6912 11.7615 0.0150574
31.1846 11.9705 2
33.0966 11.203 0.0144251
30.4808 10.006 0.0132785
45.6735 27.7078 0.0205965
43.8262 23.9951 0.0181307
35.7701 14.7413 0.0164091
41.3432 20.6968 0.0188298
38.68 17.5767 0.0176141
33.6059 15.8576 2
35.8465 17.4899 2
43.1396 26.3938 2
38.4225 20.306 2
40.9284 23.2711 2
33.5479 17.3675 3.98265
40.4947 25.575 3.97832
38.0838 22.8414 3.98384
35.5829 20.059 3.98152
37.5004 37.498 3.95053
39.2303 37.4864 2
41.0066 37.4835 0.0506309
41.8909 53.028 0.0177772
40.9953 49.7718 0.00550141
39.2234 39.169 0.0510636
39.8721 46.1023 0.0456171
37.4969 44.9659 0.0387851
37.5068 40.917 0.0469672
35.7075 42.6668 0.0217034
39.8303 51.9434 2
37.5027 39.1818 2
35.788 40.8931 2
38.7511 48.9061 2
34.078 42.3517 2
35.459 44.6682 2
37.4937 46.4027 2
37.6606 51.091 3.98183
35.7865 39.1888 3.94836
34.1387 40.8237 3.9653
32.9234 41.9928 4.0014
33.6677 43.9051 3.98935
35.124 46.0989 3.94796
36.8658 48.5002 4.033
38.7327 53.8952 0.0148796
36.7192 53.2368 2
34.3472 52.5101 3.985
34.4872 58.5436 0.0163121
36.3203 55.4085 0.0164618
33.2232 55.5253 2
30.4959 53.4442 3.9824
30.2949 57.8389 0.0158699
28.6729 55.3352 2
26.8506 53.4865 3.98231
26.9361 56.8503 0.0156778
25.29 55.1809 2
23.539 53.5288 3.98275
20.4331 53.2746 3.98344
19.9152 55.8719 3.98549
21.7888 55.3874 2
23.8276 56.8395 0.0156855
19.4291 57.9257 3.98617
20.2066 57.0664 2
19.7022 60.2286 3.987
20.6387 58.8106 2
21.324 57.434 0.0144763
20.2064 62.8742 3.98834
21.1638 61.1923 2
21.9893 59.6491 0.0136271
20.9389 65.7732 3.9906
21.8947 63.8513 2
22.7346 62.0395 0.0133504
23.6817 64.7217 0.0119478
22.8375 66.7435 2
21.9126 68.8754 3.99429
24.8091 67.5988 0.00940494
24.0099 69.8083 2
23.1494 72.1454 4
26.1655 70.6066 0.00569445
25.446 73.0099 2
27.7943 73.7221 0
25.8592 9.37114 3.98814
27.0687 6.53629 3.99068
27.8198 8.64317 2
28.4879 3.64214 3.99449
29.1538 5.87231 2
29.8098 7.98444 0.0115399
30.1841 0.720592 4
30.7257 3.09615 2
31.2517 5.32738 0.0089444
32.6053 0.320817 2
32.9803 2.69944 0.00528657
35.0474 0.080333 0
37.4987 35.8212 3.95005
39.2219 35.8149 2
40.9606 35.7995 0.0478735
24.7759 12.0577 3.98662
23.7496 14.34 3.9861
28.5419 10.681 0.0135994
26.6209 11.3751 2
29.2237 12.6271 2
27.2899 13.3595 3.9854
29.7786 14.1857 3.98503
35.7776 34.1263 3.9556
37.4966 34.0947 2
39.2195 34.1334 0.042803
37.4984 32.2212 0.0497909
44.6025 29.6596 -0.00393181
42.0062 29.7847 0.0726347
39.5405 30.3314 0.0263934
42.4543 28.3251 2
39.881 28.8921 2
37.5009 30.0272 2
35.702 32.338 2
40.1009 27.4787 4.02196
37.5003 28.5942 3.95558
35.46 30.3288 3.97362
34.0756 32.6578 4.00176
30.9241 16.8196 3.98439
31.9126 14.4633 2
34.0909 12.9186 0.0156401
31.1847 11.9709 0.0146788
43.1387 26.3945 0.0183189
40.9278 23.2717 0.0179456
33.6059 15.858 0.0167751
35.8465 17.4904 0.0172722
38.4224 20.3067 0.01903
33.5479 17.3671 2
35.5828 20.0583 2
40.4954 25.5732 2
38.084 22.8402 2
32.8602 19.7762 3.98116
37.7863 25.1596 3.97969
35.205 22.6193 3.98114
35.773 37.505 3.94485
37.5005 37.498 2
39.2306 37.4866 0.0543595
39.8298 51.944 0.0167269
38.75 48.905 -0.0205901
37.5028 39.1805 0.0490023
37.4949 46.399 0.0413624
35.4601 44.6654 0.0176545
35.7875 40.89 0.0441064
34.0783 42.3489 -0.00630293
37.661 51.0917 2
35.7871 39.1902 2
34.1397 40.826 2
36.8669 48.5034 2
32.9232 41.9921 2
33.6654 43.9041 2
35.1248 46.1009 2
35.4029 50.2677 3.98245
34.0554 39.2003 3.95315
32.5675 40.8657 4.00651
32.1381 42.7503 3.9904
33.0018 45.2201 3.92633
34.2269 47.5204 4.02232
36.7191 53.2365 0.0135232
34.3471 52.5106 2
31.9576 51.2861 3.98339
33.2232 55.5252 0.0170479
30.4957 53.4446 2
28.3818 51.6906 3.98101
28.673 55.3349 0.0166443
26.8504 53.4869 2
25.0296 51.8296 3.98111
25.2901 55.1805 0.0164399
23.5388 53.5291 2
21.9162 51.8664 3.98289
19.1568 51.6871 3.98365
18.896 54.3518 3.98448
20.433 53.2747 2
18.4344 56.7597 3.98621
19.9151 55.8721 2
21.7889 55.3871 0.0157979
18.3627 59.1393 3.98675
19.429 57.9259 2
20.2067 57.0661 0.0141434
18.6164 61.7842 3.98828
19.7022 60.2289 2
20.6387 58.8103 0.0136316
19.1275 64.6853 3.99066
20.2064 62.8745 2
21.1638 61.1919 0.0129306
19.8867 67.8125 3.99431
20.9389 65.7735 2
21.8947 63.8509 0.011852
22.8375 66.7431 0.00943738
21.9126 68.8757 2
20.9142 71.1327 4
24.0099 69.808 0.00569411
23.1494 72.1455 2
25.446 73.0099 0
23.0952 12.7715 3.98669
23.972 10.1571 3.9881
25.0228 7.30595 3.99058
25.8592 9.37076 2
26.2797 4.32613 3.99436
27.0687 6.53589 2
27.8198 8.64358 0.0117769
27.7943 1.27781 4
28.4879 3.64185 2
29.1538 5.87271 0.00914962
30.1841 0.720551 2
30.7256 3.09642 0.00538387
32.6053 0.320823 0
35.7771 35.8232 3.94784
37.4989 35.8198 2
39.2224 35.8165 0.050909
24.7758 12.0574 2
23.7496 14.3397 2
22.4779 15.0151 3.98626
25.356 13.8904 3.98583
24.0224 15.6006 3.98578
26.621 11.3755 0.0135089
29.2237 12.6275 0.0146281
27.2898 13.3591 2
29.7785 14.1854 2
28.3547 15.9587 3.98495
34.1312 34.1894 3.96422
35.7785 34.1233 2
37.4964 34.0978 0.0468637
35.7011 32.3424 0.0294846
37.5005 30.0336 0.0465361
42.4523 28.3262 -0.00911727
39.8814 28.8946 0.0517427
40.1021 27.4751 2
37.5007 28.5869 2
35.4599 30.325 2
34.0766 32.6559 2
37.5997 27.1221 4.03387
35.1174 28.89 3.94665
33.667 31.0969 3.98941
32.9227 33.0203 4.00067
30.2046 19.3213 3.98512
30.9241 16.8192 2
31.9126 14.4637 0.0157675
40.4947 25.575 0.0216761
38.0838 22.8414 0.0161608
33.5479 17.3675 0.0173459
35.5829 20.059 0.0184779
32.86 19.7758 2
35.2049 22.6185 2
37.7862 25.1574 2
32.3061 22.3919 3.98168
34.9314 25.1256 3.97562
34.0029 37.5064 3.94902
35.7736 37.505 2
37.5004 37.498 0.0494688
37.6606 51.091 0.0181662
36.8658 48.5002 -0.0330033
35.7865 39.1888 0.0516436
35.124 46.0989 0.0520431
33.6677 43.9051 0.0106516
34.1387 40.8237 0.0346992
32.9234 41.9928 -0.00140143
35.4028 50.2689 2
34.0566 39.2015 2
32.568 40.865 2
34.2268 47.524 2
32.1365 42.7445 2
33.0027 45.2204 2
33.1509 49.261 3.98261
32.2322 39.273 3.9939
30.9542 41.2533 3.99502
31.1599 43.8317 3.92905
32.1241 46.4498 4.01428
34.3472 52.5101 0.0150016
31.9573 51.2865 2
29.7773 49.813 3.98068
30.4959 53.4442 0.0176015
28.3814 51.6908 2
26.4317 50.077 3.97881
26.8506 53.4865 0.017691
25.0293 51.8298 2
23.273 50.2666 3.98331
23.539 53.5288 0.017246
21.9161 51.8663 2
20.4076 50.3742 3.98416
17.9406 50.3791 3.98498
17.8005 52.837 3.98423
19.1568 51.6871 2
17.4188 55.3784 3.98545
18.8959 54.352 2
20.4331 53.2746 0.0165599
17.1265 57.9038 3.98685
18.4343 56.76 2
19.9152 55.8719 0.0145068
17.1328 60.5702 3.98798
18.3626 59.1396 2
19.4291 57.9257 0.0138316
17.4073 63.4795 3.99065
18.6164 61.7845 2
19.7022 60.2286 0.0130018
17.9428 66.6215 3.99433
19.1275 64.6856 2
20.2064 62.8742 0.0116618
18.75 69.9759 4
19.8867 67.8128 2
20.9389 65.7732 0.00939878
21.9126 68.8754 0.00570568
20.9142 71.1327 2
23.1494 72.1454 0
21.5858 13.5903 3.98679
22.1902 11.0155 3.98809
23.0952 12.7711 2
23.041 8.17077 3.99054
23.972 10.1567 2
24.1175 5.14062 3.99426
25.0228 7.30556 2
25.8592 9.37114 0.0118567
25.446 1.99014 4
26.2798 4.32584 2
27.0687 6.53629 0.00932284
27.7943 1.27778 2
28.4879 3.64214 0.00550748
30.1841 0.720592 0
34.044 35.8122 3.9519
35.778 35.8217 2
37.4987 35.8212 0.049953
21.3025 15.8089 3.98613
24.7759 12.0577 0.0133817
23.7496 14.34 0.0139025
25.3559 13.8901 2
22.4779 15.0148 2
24.0223 15.6003 2
23.2612 16.2308 3.98564
25.3778 16.0688 3.98552
27.2899 13.3595 0.014603
29.7786 14.1857 0.0149728
28.3547 15.9583 2
27.4358 18.7777 3.98508
32.5663 34.1509 4.00638
34.1326 34.1878 2
35.7776 34.1263 0.0443981
34.0756 32.6578 -0.00175863
35.46 30.3288 0.0263848
37.5003 28.5942 0.0444162
40.1009 27.4787 -0.0219626
37.5996 27.1172 2
32.9235 33.0212 2
35.1186 28.8875 2
33.6657 31.0986 2
35.0037 27.28 4.01827
32.9932 29.7883 3.92839
32.1413 32.2645 3.99189
29.5652 21.9158 3.98624
30.2045 19.3209 2
30.9241 16.8196 0.0156093
37.7863 25.1596 0.0203113
35.205 22.6193 0.0188552
32.8602 19.7762 0.0188369
32.3061 22.3916 2
34.9306 25.1241 2
31.6123 25.5656 3.98076
32.0968 37.5108 3.98998
34.0039 37.5066 2
35.773 37.505 0.0551535
35.4029 50.2677 0.0175521
34.2269 47.5204 -0.0223242
34.0554 39.2003 0.0468547
33.0018 45.2201 0.0736666
32.1381 42.7503 0.00959598
32.5675 40.8657 -0.00651078
33.1502 49.2621 2
32.233 39.2726 2
30.9541 41.2489 2
32.123 46.454 2
31.1603 43.8307 2
31.0159 47.9936 3.97979
30.1947 39.5065 3.99239
29.7311 42.0265 3.93687
30.2082 45.0499 4.00561
31.9576 51.2861 0.0166102
29.7768 49.8132 2
27.7594 48.2769 3.98029
28.3818 51.6906 0.0189925
26.4313 50.0771 2
24.5526 48.5495 3.98405
25.0296 51.8296 0.0188851
23.2728 50.2665 2
21.5733 48.8564 3.986
21.9162 51.8664 0.0171071
20.4075 50.3741 2
18.973 49.1456 3.98631
16.8468 49.3756 3.98615
16.7369 51.4508 3.9848
17.9405 50.3791 2
16.3659 53.9095 3.98502
17.8004 52.8371 2
19.1568 51.6871 0.0163549
15.9651 56.5074 3.98648
17.4187 55.3786 2
18.896 54.3518 0.0155242
15.7451 59.2334 3.98784
17.1264 57.9041 2
18.4344 56.7597 0.0137932
15.7873 62.1519 3.99047
17.1328 60.5705 2
18.3627 59.1393 0.0132527
16.0893 65.3046 3.99434
17.4074 63.4799 2
18.6164 61.7842 0.0117209
16.6661 68.6801 4
17.9429 66.6218 2
19.1275 64.6853 0.00934239
18.75 69.9759 2
19.8867 67.8125 0.00569062
20.9142 71.1327 0
20.2173 14.5772 3.98668
21.5857 13.59 2
20.5295 11.9842 3.98811
21.1442 9.13992 3.99052
22.1902 11.0152 2
23.0952 12.7715 0.0133065
22.0166 6.07937 3.99423
23.041 8.17038 2
23.972 10.1571 0.0118996
23.1494 2.85457 4
24.1175 5.14032 2
25.0228 7.30595 0.0094249
25.446 1.99012 2
26.2797 4.32613 0.0056407
27.7943 1.27781 0
32.2276 35.7472 3.99274
34.0454 35.8116 2
35.7771 35.8232 0.0521603
21.3024 15.8086 2
20.2987 16.9401 3.98629
22.0939 16.6135 3.98591
25.356 13.8904 0.0141677
22.4779 15.0151 0.0137399
24.0224 15.6006 0.0142197
25.3777 16.0685 2
23.2611 16.2305 2
24.1999 18.4274 3.98515
27.0026 21.4344 3.98507
28.3547 15.9587 0.0150513
27.4357 18.7773 2
30.9567 33.7719 3.99137
32.567 34.1512 2
34.1312 34.1894 0.0357773
32.9227 33.0203 -0.000665945
33.667 31.0969 0.0105939
35.1174 28.89 0.053353
37.5997 27.1221 -0.0338715
35.0024 27.2771 2
32.1415 32.269 2
32.9953 29.789 2
32.4014 28.0229 4.01041
31.158 31.1935 3.93492
28.7345 24.3848 3.98686
29.5652 21.9154 2
30.2046 19.3213 0.0148805
34.9314 25.1256 0.024382
32.3061 22.3919 0.018319
31.6109 25.5653 2
29.515 27.194 3.99081
29.9128 37.5136 3.9927
32.0974 37.5107 2
34.0029 37.5064 0.0509773
33.1509 49.261 0.0173861
32.1241 46.4498 -0.0142834
32.2322 39.273 0.00609659
31.1599 43.8317 0.0709521
30.9542 41.2533 0.00498367
31.0152 47.9916 2
30.1954 39.5033 2
29.7329 42.0272 2
30.2052 45.0539 2
29.0176 46.527 3.97703
28.8165 39.9085 3.94338
28.4316 43.264 4.0009
29.7773 49.813 0.0193153
27.7588 48.2765 2
25.8049 46.7394 3.98852
26.4317 50.077 0.0211935
24.5524 48.5491 2
22.6954 47.1536 3.99017
23.273 50.2666 0.0166947
21.5732 48.8562 2
19.9082 47.6749 3.98825
20.4076 50.3742 0.015836
18.9728 49.1456 2
17.6154 48.2241 3.98687
16.098 48.7232 3.98652
16.8467 49.3756 2
15.8124 50.2106 3.98568
15.3517 52.4535 3.98512
16.7368 51.4508 2
17.9406 50.3791 0.0150152
14.8535 55.0098 3.98593
16.3658 53.9097 2
17.8005 52.837 0.0157732
14.453 57.764 3.98761
15.965 56.5077 2
17.4188 55.3784 0.0145504
14.2649 60.7084 3.99025
15.7451 59.2338 2
17.1265 57.9038 0.0131473
14.3333 63.8644 3.99424
15.7873 62.1524 2
17.1328 60.5702 0.0120207
14.6715 67.2507 4
16.0893 65.305 2
17.4073 63.4795 0.00935004
16.6661 68.6801 2
17.9428 66.6215 0.00566995
18.75 69.9759 0
18.9302 15.7616 3.98668
20.2172 14.5769 2
18.9789 13.0933 3.98802
21.5858 13.5903 0.0132133
20.5294 11.9838 2
19.3437 10.2269 3.99049
19.9913 7.14376 3.99423
21.1443 9.13951 2
22.1902 11.0155 0.0119148
20.9142 3.86727 4
22.0166 6.07906 2
23.041 8.17077 0.00945928
23.1494 2.85451 2
24.1175 5.14062 0.00574472
25.446 1.99014 0
30.1941 35.5202 3.99172
32.2288 35.7474 2
34.044 35.8122 0.0481003
21.3025 15.8089 0.0138741
22.0938 16.6132 2
20.2986 16.9398 2
19.2359 18.3838 3.98622
21.7774 17.8266 3.98585
25.3778 16.0688 0.0144806
23.2612 16.2308 0.0143555
24.1998 18.4271 2
22.2679 19.864 3.98564
24.5777 21.2924 3.98484
26.3679 23.6913 3.98704
27.0026 21.4341 2
27.4358 18.7777 0.0149196
29.7352 33.0031 3.93646
30.9571 33.7767 2
32.5663 34.1509 -0.00637935
32.1413 32.2645 0.0081065
32.9932 29.7883 0.0716083
35.0037 27.28 -0.0182672
32.4 28.021 2
31.1599 31.1963 2
29.9052 29.4751 4.00303
27.7677 26.5058 3.97926
28.7337 24.3841 2
29.5652 21.9158 0.0137636
31.6123 25.5656 0.0192394
29.5135 27.194 2
28.4743 37.5119 3.94816
29.913 37.5139 2
32.0968 37.5108 0.010018
31.0159 47.9936 0.02021
30.2082 45.0499 -0.00561245
30.1947 39.5065 0.00761235
29.7311 42.0265 0.0631272
29.0167 46.5247 2
28.8187 39.9082 2
28.4307 43.264 2
27.0777 44.8818 3.98068
26.5436 40.6595 3.99931
27.7594 48.2769 0.0197074
25.8047 46.7387 2
23.8303 45.2841 3.99458
24.5526 48.5495 0.0159495
22.6953 47.1532 2
20.8247 45.9553 3.9905
21.5733 48.8564 0.0139998
19.908 47.6749 2
18.2523 46.7828 3.98753
18.973 49.1456 0.0136884
17.6152 48.2241 2
16.2843 47.752 3.9863
16.0978 48.7233 2
15.1572 49.0522 3.98604
16.8468 49.3756 0.0138486
15.8123 50.2106 2
14.463 51.02 3.98551
13.8126 53.4658 3.98571
15.3516 52.4537 2
16.7369 51.4508 0.015196
13.2461 56.193 3.98717
14.8534 55.01 2
16.3659 53.9095 0.0149832
12.8468 59.1435 3.98994
14.4529 57.7644 2
15.9651 56.5074 0.0135184
12.6784 62.3075 3.99407
14.2649 60.7088 2
15.7451 59.2334 0.0121617
12.7746 65.6939 4
14.3333 63.8647 2
15.7873 62.1519 0.00953468
14.6714 67.2507 2
16.0893 65.3046 0.00566083
16.6661 68.6801 0
17.6634 17.1343 3.9866
18.9301 15.7612 2
17.5097 14.3551 3.98785
20.2173 14.5772 0.013325
18.9789 13.0929 2
17.6392 11.4446 3.99042
20.5295 11.9842 0.0118916
19.3437 10.2265 2
18.0516 8.33622 3.99423
18.75 5.0241 4
19.9914 7.14342 2
21.1442 9.13992 0.009484
20.9142 3.86727 2
22.0166 6.07937 0.00577218
23.1494 2.85457 0
28.8053 35.1191 3.94349
30.1952 35.5241 2
32.2276 35.7472 0.00726078
22.0939 16.6135 0.0140932
20.2987 16.9401 0.0137102
21.7773 17.8263 2
19.2358 18.3835 2
17.9684 19.9125 3.98621
20.8674 19.3502 3.98587
24.1999 18.4274 0.0148476
22.2678 19.8637 2
24.5776 21.292 2
22.3387 21.6846 3.98563
24.6555 23.1354 3.98661
25.3661 25.9165 3.98233
26.3672 23.6907 2
27.0026 21.4344 0.0149264
28.0966 32.26 4.00699
29.7369 33.0035 2
30.9567 33.7719 0.00863186
31.158 31.1935 0.0650787
32.4014 28.0229 -0.0104091
29.904 29.4746 2
26.8626 29.114 3.96749
27.7663 26.5054 2
28.7345 24.3848 0.0131401
29.515 27.194 0.00919105
26.6497 37.3475 4.00613
28.4764 37.511 2
29.9128 37.5136 0.00730434
29.0176 46.527 0.0229668
28.4316 43.264 -0.000898674
28.8165 39.9085 0.0566248
27.0774 44.8797 2
26.5446 40.6577 2
25.0425 43.2264 3.98928
23.7964 39.4444 3.97664
25.8049 46.7394 0.0114842
23.8303 45.284 2
21.7877 44.004 3.98841
22.6954 47.1536 0.00982727
20.8244 45.9555 2
18.9024 45.0126 3.98717
19.9082 47.6749 0.0117535
18.2521 46.7827 2
16.5678 46.2482 3.98592
17.6154 48.2241 0.0131307
16.2841 47.752 2
14.8835 47.7038 3.98577
16.098 48.7232 0.0134825
15.1571 49.0523 2
13.759 49.5782 3.98567
15.8124 50.2106 0.0143249
14.463 51.0202 2
12.8774 51.9032 3.98574
12.1317 54.5515 3.98679
13.8125 53.466 2
15.3517 52.4535 0.0148848
11.5305 57.4767 3.9894
13.246 56.1933 2
14.8535 55.0098 0.014073
11.133 60.6344 3.99389
12.8468 59.1439 2
14.453 57.764 0.0123942
10.9835 64.0165 4
12.6785 62.3079 2
14.2649 60.7084 0.0097536
12.7745 65.694 2
14.3333 63.8644 0.00575953
14.6715 67.2507 0
16.3938 18.6251 3.98665
17.6634 17.134 2
16.1001 15.7619 3.98766
18.9302 15.7616 0.0133224
17.5097 14.3547 2
16.0206 12.7963 3.99026
18.9789 13.0933 0.011977
17.6392 11.4441 2
16.2027 9.65879 3.9942
19.3437 10.2269 0.00950858
18.0516 8.33587 2
16.6661 6.31991 4
18.75 5.02404 2
19.9913 7.14376 0.00576791
20.9142 3.86727 0
27.1624 34.7201 4.01232
28.8074 35.1186 2
30.1941 35.5202 0.00828399
16.6639 21.344 3.98557
21.7774 17.8266 0.0141472
19.2359 18.3838 0.0137786
20.8673 19.3499 2
17.9682 19.9122 2
19.706 21.539 3.9863
22.2679 19.864 0.0143614
24.5777 21.2924 0.0151639
22.3386 21.6842 2
24.655 23.135 2
22.7874 24.5652 3.98405
24.4163 28.4978 3.979
25.3651 25.9161 2
26.3679 23.6913 0.012963
25.9437 31.6989 3.9774
28.0962 32.2604 2
29.7352 33.0031 0.0635444
29.9052 29.4751 -0.00303319
26.8616 29.1147 2
27.7677 26.5058 0.0207371
24.4707 36.867 3.98496
26.6496 37.3489 2
28.4743 37.5119 0.0518428
27.0777 44.8818 0.0193173
26.5436 40.6595 0.000691339
25.0424 43.2242 2
23.797 39.4453 2
22.8266 41.8398 3.98367
21.5581 38.5079 3.98351
23.8303 45.2841 0.0054204
21.7876 44.0046 2
19.6431 42.9239 3.98549
20.8247 45.9553 0.00949685
18.9022 45.0125 2
16.8896 44.411 3.98522
18.2523 46.7828 0.0124717
16.5676 46.2482 2
14.7995 46.1206 3.98508
16.2843 47.752 0.0136957
14.8833 47.704 2
13.2634 48.0377 3.98536
15.1572 49.0522 0.0139605
13.7589 49.5784 2
12.0946 50.2794 3.98574
14.463 51.02 0.0144856
12.8773 51.9034 2
11.1259 52.8592 3.98654
10.32 55.7288 3.98879
12.1317 54.5518 2
13.8126 53.4658 0.0142935
9.69967 58.858 3.9936
11.5305 57.4771 2
13.2461 56.193 0.0128334
9.30605 62.2254 4
11.1331 60.6348 2
12.8468 59.1435 0.010059
10.9835 64.0165 2
12.6784 62.3075 0.00592983
12.7746 65.6939 0
15.1357 20.1568 3.98628
16.3938 18.6248 2
14.7447 17.2823 3.98741
17.6634 17.1343 0.0134044
16.1001 15.7615 2
14.4828 14.276 3.99006
17.5097 14.3551 0.0121454
16.0206 12.7958 2
14.4454 11.1094 3.99409
17.6392 11.4446 0.00957659
16.2028 9.65842 2
14.6715 7.74927 4
18.0516 8.33622 0.00576719
16.6661 6.31988 2
18.75 5.0241 0
25.114 34.2719 3.99006
27.162 34.7206 2
28.8053 35.1191 0.05651
17.8316 22.2878 3.98655
15.5036 22.8857 3.9849
16.6638 21.3437 2
20.8674 19.3502 0.0141312
17.9684 19.9125 0.013792
19.7059 21.5386 2
19.617 24.3442 3.98536
22.3387 21.6846 0.0143736
24.6555 23.1354 0.0133878
22.7867 24.5648 2
21.809 27.7896 3.97887
23.5755 31.1604 3.98253
24.4155 28.4981 2
25.3661 25.9165 0.0176726
25.9436 31.7006 2
28.0966 32.26 -0.00698678
26.8626 29.114 0.0325089
22.2593 36.2609 3.99228
24.4709 36.8679 2
26.6497 37.3475 -0.00612922
25.0425 43.2264 0.0107178
23.7964 39.4444 0.0233637
22.8263 41.8403 2
21.5585 38.5079 2
20.5533 40.6533 3.98211
19.9259 37.7845 3.98663
21.7877 44.004 0.0115918
19.6431 42.9239 2
17.2769 42.1242 3.98408
18.9024 45.0126 0.012831
16.8894 44.411 2
14.796 44.2257 3.98393
16.5678 46.2482 0.014079
14.7993 46.1207 2
12.9323 46.3212 3.98474
14.8835 47.7038 0.0142328
13.2632 48.0378 2
11.4641 48.5738 3.98545
13.759 49.5782 0.0143251
12.0945 50.2796 2
10.2503 51.101 3.98633
12.8774 51.9032 0.014256
11.1258 52.8595 2
9.22794 53.9061 3.9883
8.38328 56.9919 3.99319
10.32 55.7292 2
12.1317 54.5515 0.0132064
7.74927 60.3285 4
9.69971 58.8585 2
11.5305 57.4767 0.0106002
9.306 62.2255 2
11.133 60.6344 0.00610682
10.9835 64.0165 0
13.9445 21.7218 3.98589
15.1356 20.1564 2
13.4438 18.8774 3.98715
16.3938 18.6251 0.0133489
14.7446 17.2819 2
13.0278 15.8667 3.98976
16.1001 15.7619 0.0123432
14.4828 14.2756 2
12.7825 12.6821 3.99393
16.0206 12.7963 0.00973644
14.4454 11.109 2
12.7746 9.30605 4
16.2027 9.65879 0.00580079
14.6715 7.74924 2
16.6661 6.31991 0
22.8595 33.7778 3.99237
25.114 34.2733 2
27.1624 34.7201 -0.0123222
17.5898 24.006 3.98561
17.8314 22.2875 2
14.2822 24.4183 3.98394
15.5033 22.8854 2
16.6639 21.344 0.0144322
18.9576 27.1675 3.98077
19.706 21.539 0.0136986
19.6165 24.3438 2
21.0349 30.6357 3.98049
22.7874 24.5652 0.0159539
21.8083 27.7897 2
23.5753 31.1612 2
24.4163 28.4978 0.0210003
25.9437 31.6989 0.0226048
20.0354 35.9128 3.98994
22.2593 36.2611 2
24.4707 36.867 0.0150433
22.8266 41.8398 0.0163266
21.5581 38.5079 0.0164898
20.5533 40.653 2
19.9261 37.7846 2
17.9349 39.0103 3.98526
19.6431 42.9239 0.014507
17.2769 42.1241 2
14.738 41.9361 3.98353
16.8896 44.411 0.0147795
14.7959 44.2256 2
12.6692 44.4131 3.98382
14.7995 46.1206 0.0149229
12.9321 46.3213 2
10.9638 46.7547 3.98491
13.2634 48.0377 0.0146395
11.464 48.574 2
9.51233 49.2587 3.98601
12.0946 50.2794 0.0142635
10.2502 51.1013 2
8.26007 52.0175 3.9879
11.1259 52.8592 0.0134598
9.22792 53.9065 2
7.19222 55.0428 3.99276
6.31991 58.3339 4
8.38331 56.9923 2
10.32 55.7288 0.0112065
7.74924 60.3285 2
9.69967 58.858 0.00639708
9.30605 62.2254 0
13.2022 25.3345 3.98542
12.8087 23.2514 3.98535
13.9443 21.7215 2
12.2272 20.5253 3.98696
15.1357 20.1568 0.0137216
13.4437 18.877 2
11.6569 17.5462 3.9894
14.7447 17.2823 0.0125942
13.0278 15.8662 2
11.2198 14.3661 3.99371
14.4828 14.276 0.00994467
12.7826 12.6816 2
10.9835 10.9835 4
14.4454 11.1094 0.00591154
12.7745 9.306 2
14.6715 7.74927 0
20.4326 33.3737 3.9876
22.8593 33.7784 2
25.114 34.2719 0.00994493
15.8549 26.3683 3.98263
17.5894 24.0057 2
17.8316 22.2878 0.0134469
14.2819 24.418 2
15.5036 22.8857 0.0150969
18.2888 30.1452 3.98013
18.9571 27.1674 2
19.617 24.3442 0.0146352
21.0348 30.6363 2
21.809 27.7896 0.0211276
23.5755 31.1604 0.0174688
17.5506 35.9577 3.99046
20.0352 35.9132 2
22.2593 36.2609 0.00771993
20.5533 40.6533 0.0178946
19.9259 37.7845 0.0133729
17.935 39.0102 2
14.2368 39.1842 3.986
17.2769 42.1242 0.0159247
14.738 41.9361 2
12.3533 42.2926 3.98444
14.796 44.2257 0.0160732
12.6691 44.4131 2
10.5389 44.8201 3.9843
12.9323 46.3212 0.0152624
10.9637 46.7548 2
8.89361 47.3354 3.98552
11.4641 48.5738 0.0145488
9.51222 49.2589 2
7.42626 50.0492 3.98751
10.2503 51.101 0.0136696
8.26003 52.0179 2
6.13263 53.0178 3.99236
9.22794 53.9061 0.0116965
7.19225 55.0433 2
5.0241 56.25 4
6.31988 58.3339 2
8.38328 56.9919 0.0068146
7.74927 60.3285 0
13.4342 26.788 3.98328
11.9202 24.7623 3.98462
13.2019 25.3343 2
11.1281 22.2104 3.98657
12.8084 23.2511 2
13.9445 21.7218 0.0141136
12.227 20.5249 2
10.386 19.3003 3.98901
13.4438 18.8774 0.0128514
11.6569 17.5457 2
9.76072 16.1483 3.99351
13.0278 15.8667 0.0102426
11.2199 14.3656 2
9.30607 12.7746 4
12.7825 12.6821 0.00607437
10.9835 10.9835 2
12.7746 9.30605 0
17.7433 33.0931 3.98556
20.4324 33.3743 2
22.8595 33.7778 0.00762563
15.4344 29.6118 3.98152
15.8545 26.3682 2
17.5898 24.006 0.0143935
14.2822 24.4183 0.0160597
18.2886 30.1456 2
18.9576 27.1675 0.0192341
21.0349 30.6357 0.0195134
14.8208 36.014 3.98908
17.5505 35.958 2
20.0354 35.9128 0.0100647
12.5388 37.8326 3.98558
17.9349 39.0103 0.0147427
14.2369 39.1842 2
11.8631 40.152 3.98635
14.738 41.9361 0.0164734
12.3533 42.2926 2
10.1365 42.7916 3.98419
12.6692 44.4131 0.0161818
10.5388 44.8202 2
8.37036 45.3348 3.98511
10.9638 46.7547 0.0150912
8.89348 47.3356 2
6.71695 48.0126 3.98708
9.51233 49.2587 0.0139868
7.42619 50.0495 2
5.20909 50.9208 3.99189
8.26007 52.0175 0.012097
6.13265 53.0183 2
3.86727 54.0858 4
7.19222 55.0428 0.00723852
5.02404 56.25 2
6.31991 58.3339 0
12.8859 29.0117 3.98187
11.348 26.4651 3.98394
13.4339 26.788 2
10.1859 23.9462 3.98563
11.9199 24.762 2
13.2022 25.3345 0.0145772
9.23703 21.1198 3.98841
11.1279 22.21 2
12.8087 23.2514 0.0146504
12.2272 20.5253 0.0130359
10.386 19.2998 2
8.41657 18.0181 3.99329
11.6569 17.5462 0.0105997
9.76077 16.1478 2
7.74928 14.6715 4
11.2198 14.3661 0.00628655
9.30602 12.7745 2
10.9835 10.9835 0
14.4193 32.8461 3.98481
17.7431 33.0935 2
20.4326 33.3737 0.0123997
15.4343 29.612 2
15.8549 26.3683 0.0173654
18.2888 30.1452 0.0198701
12.8235 36.2065 3.98699
14.8206 36.0142 2
17.5506 35.9577 0.00954225
12.5387 37.8328 2
11.2199 38.316 3.98564
14.2368 39.1842 0.0139997
11.8631 40.152 2
9.71973 40.7642 3.98562
12.3533 42.2926 0.0155569
10.1364 42.7916 2
7.91872 43.2809 3.98479
10.5389 44.8201 0.0156975
8.37026 45.335 2
6.12257 45.916 3.9868
8.89361 47.3354 0.0144802
6.71686 48.0129 2
4.42032 48.7609 3.99128
7.42626 50.0492 0.0124924
5.20909 50.9212 2
2.85457 51.8506 4
6.13263 53.0178 0.00764464
3.86727 54.0858 2
5.0241 56.25 0
12.0239 31.2395 3.98512
10.7588 28.3966 3.98273
12.8858 29.0117 2
9.39963 25.7795 3.98491
11.3478 26.465 2
13.4342 26.788 0.0167162
8.22325 23.0067 3.98747
10.1857 23.9459 2
11.9202 24.7623 0.0153817
7.19856 19.9673 3.9929
9.23696 21.1193 2
11.1281 22.2104 0.0134348
10.386 19.3003 0.0109913
8.41661 18.0176 2
6.31992 16.6661 4
9.76072 16.1483 0.0064924
7.74926 14.6714 2
9.30607 12.7746 0
12.0346 34.2851 3.98379
14.4191 32.8463 2
17.7433 33.0931 0.0144447
15.4344 29.6118 0.0184832
10.7841 36.6118 3.98643
12.8233 36.2067 2
14.8208 36.014 0.0109157
12.5388 37.8326 0.0144236
11.2198 38.3161 2
9.31314 38.8295 3.98606
11.8631 40.152 0.0136463
9.71969 40.7642 2
7.52879 41.2192 3.98557
10.1365 42.7916 0.0158091
7.91862 43.2809 2
5.63411 43.777 3.98649
8.37036 45.3348 0.0148901
6.12249 45.9162 2
3.76566 46.5458 3.99068
6.71695 48.0126 0.012921
4.4203 48.7613 2
1.99014 49.554 4
5.20909 50.9208 0.00811142
2.85451 51.8506 2
3.86727 54.0858 0
10.8868 32.9066 3.9851
10.0701 30.3675 3.98413
12.0238 31.2396 2
8.70688 27.7165 3.98395
10.7587 28.3966 2
12.8859 29.0117 0.0181285
7.3481 24.9681 3.98681
9.39943 25.7792 2
11.348 26.4651 0.01606
6.11527 21.991 3.99218
8.22314 23.0063 2
10.1859 23.9462 0.0143696
5.02411 18.75 4
7.19857 19.9668 2
9.23703 21.1198 0.0115928
8.41657 18.0181 0.0067146
6.3199 16.6661 2
7.74928 14.6715 0
10.3992 34.9953 3.98423
12.0344 34.2853 2
14.4193 32.8461 0.0151904
8.98652 36.9863 3.98627
10.7839 36.612 2
12.8235 36.2065 0.0130065
11.2199 38.316 0.0143587
9.31304 38.8296 2
7.20802 39.1868 3.98631
9.71973 40.7642 0.0143761
7.52873 41.2193 2
5.24889 41.6204 3.98667
7.91872 43.2809 0.0152118
5.63402 43.7771 2
3.24307 44.2895 3.99012
6.12257 45.916 0.0131968
3.76563 46.5462 2
1.27781 47.2057 4
4.42032 48.7609 0.00871673
1.99012 49.554 2
2.85457 51.8506 0
10.0553 33.8731 3.9839
9.36209 32.1432 3.98521
10.8866 32.9066 2
8.05527 29.6833 3.98429
10.07 30.3675 2
12.0239 31.2395 0.0148839
6.59134 26.9965 3.98612
8.70676 27.7165 2
10.7588 28.3966 0.0172695
5.17023 24.0846 3.9914
7.34797 24.9678 2
9.39963 25.7795 0.0150908
3.86728 20.9142 4
6.11526 21.9905 2
8.22325 23.0067 0.0125337
5.02406 18.75 2
7.19856 19.9673 0.00710424
6.31992 16.6661 0
8.81446 35.2761 3.98533
10.399 34.9954 2
12.0346 34.2851 0.0162104
6.99291 37.2068 3.98644
8.98634 36.9864 2
10.7841 36.6118 0.0135724
9.31314 38.8295 0.0139418
7.20791 39.1869 2
4.97571 39.4713 3.9874
7.52879 41.2192 0.014434
5.24882 41.6205 2
2.85329 42.008 3.98983
5.63411 43.777 0.0135112
3.24303 44.2898 2
0.720592 44.8159 4
3.76566 46.5458 0.00931876
1.27778 47.2057 2
1.99014 49.554 0
8.85819 33.6903 3.98505
10.0551 33.8732 2
7.49153 31.5998 3.98538
9.36192 32.1432 2
10.8868 32.9066 0.014899
5.93611 29.0598 3.98597
8.05515 29.6833 2
10.0701 30.3675 0.0158694
4.35756 26.2383 3.99063
6.59125 26.9963 2
8.70688 27.7165 0.0160538
2.85458 23.1494 4
5.17021 24.0842 2
7.3481 24.9681 0.0131859
3.86728 20.9142 2
6.11527 21.991 0.00782077
5.02411 18.75 0
6.94385 35.3032 3.98614
8.81427 35.2762 2
10.3992 34.9953 0.0157738
4.82651 37.3406 3.98726
6.99275 37.2068 2
8.98652 36.9863 0.0137307
7.20802 39.1868 0.0136903
4.97562 39.4714 2
2.60087 39.7174 3.99031
5.24889 41.6204 0.013328
2.85325 42.0082 2
0.320823 42.3947 4
3.24307 44.2895 0.00987871
0.720551 44.8159 2
1.27781 47.2057 0
7.10478 33.4547 3.98564
8.85804 33.6903 2
10.0553 33.8731 0.0160963
5.40616 31.1258 3.98663
7.49138 31.5998 2
9.36209 32.1432 0.0147871
3.67902 28.4354 3.99015
5.93601 29.0596 2
8.05527 29.6833 0.0157128
1.99015 25.446 4
4.35754 26.2379 2
6.59134 26.9965 0.0138841
2.85453 23.1494 2
5.17023 24.0846 0.00860052
3.86728 20.9142 0
4.84108 35.2492 3.98722
6.94369 35.3033 2
8.81446 35.2761 0.0146715
2.49247 37.429 3.98999
4.82638 37.3407 2
6.99291 37.2068 0.0135573
4.97571 39.4713 0.0126047
2.60082 39.7175 2
0.080333 39.9526 4
2.85329 42.008 0.01017
0.320817 42.3947 2
0.720592 44.8159 0
5.03504 33.185 3.98685
7.10464 33.4547 2
8.85819 33.6903 0.0149515
3.14293 30.6595 3.99021
5.40603 31.1257 2
7.49153 31.5998 0.014617
1.27793 27.7943 4
3.67898 28.4351 2
5.93611 29.0598 0.0140304
1.99013 25.446 2
4.35756 26.2383 0.00937153
2.85458 23.1494 0
2.5447 35.1567 3.99022
4.84095 35.2492 2
6.94385 35.3032 0.0138558
0 37.5 4
2.4924 37.4291 2
4.82651 37.3406 0.0127392
2.60087 39.7174 0.00969337
0.0802903 39.9526 2
0.320823 42.3947 0
2.7626 32.9009 3.9902
5.03492 33.1849 2
7.10478 33.4547 0.0143627
0.721173 30.1842 4
3.14287 30.6592 2
5.40616 31.1258 0.0133746
1.27779 27.7943 2
3.67902 28.4354 0.00985316
1.99015 25.446 0
0.0806499 35.0474 4
2.54463 35.1566 2
4.84108 35.2492 0.0127811
0 37.5 2
2.49247 37.429 0.0100066
0.080333 39.9526 0
0.32156 32.6054 4
2.76253 32.9008 2
5.03504 33.185 0.0131467
0.72056 30.1841 2
3.14293 30.6595 0.00978814
1.27793 27.7943 0
0.0802889 35.0474 2
2.5447 35.1567 0.00977774
0 37.5 0
0.320817 32.6053 2
2.7626 32.9009 0.00979972
0.721173 30.1842 0
0.0806499 35.0474 0
0.32156 32.6054 0
CELLS 1910 17190
8 18 6 25 56 2 0 5 16
8 57 23 6 18 17 4 0 2
8 78 36 9 29 31 11 1 7
8 31 11 1 7 79 37 10 30
8 110 57 18 50 48 17 2 14
8 50 18 56 111 14 2 16 49
8 116 62 22 55 52 20 3 15
8 56 25 67 118 16 5 24 53
8 119 63 23 57 54 21 4 17
8 55 22 63 119 15 3 21 54
8 58 26 68 121 18 6 25 56
8 122 65 26 58 57 23 6 18
8 73 31 7 27 142 79 30 71
8 143 78 29 72 73 31 7 27
8 83 147 76 34 32 74 28 8
8 84 148 78 36 33 75 29 9
8 76 34 8 28 148 84 33 75
8 37 79 150 86 10 30 77 35
8 151 87 36 78 80 38 11 31
8 80 38 11 31 152 88 37 79
8 175 100 42 94 96 44 12 40
8 44 96 176 101 12 40 95 43
8 101 176 98 46 43 95 41 13
8 46 98 178 103 13 41 97 45
8 178 103 45 97 147 83 32 74
8 189 116 55 109 106 52 15 47
8 111 56 118 191 49 16 53 107
8 192 119 57 110 108 54 17 48
8 109 55 119 192 47 15 54 108
8 194 122 58 112 110 57 18 50
8 112 58 121 195 50 18 56 111
8 115 61 19 51 197 124 59 113
8 115 61 125 198 51 19 60 114
8 198 125 62 116 114 60 20 52
8 200 127 64 120 116 62 22 55
8 118 67 132 202 53 24 66 117
8 121 68 133 203 56 25 67 118
8 120 64 128 204 55 22 63 119
8 204 128 65 122 119 63 23 57
8 206 134 68 121 123 69 26 58
8 123 69 26 58 207 131 65 122
8 226 147 74 138 140 76 28 70
8 229 148 75 139 143 78 29 72
8 140 76 28 70 229 148 75 139
8 142 79 30 71 231 150 77 141
8 144 80 31 73 232 152 79 142
8 233 151 78 143 144 80 31 73
8 150 86 35 77 235 154 81 145
8 235 154 81 145 146 82 39 91
8 146 82 39 91 236 155 90 165
8 238 157 83 147 149 85 34 76
8 239 158 84 148 151 87 36 78
8 149 85 34 76 239 158 84 148
8 152 88 37 79 241 160 86 150
8 242 161 87 151 153 89 38 80
8 153 89 38 80 243 162 88 152
8 171 98 41 92 265 178 97 169
8 265 178 97 169 226 147 74 138
8 172 96 40 93 266 176 95 170
8 266 176 95 170 171 98 41 92
8 269 175 94 173 172 96 40 93
8 271 180 99 174 175 100 42 94
8 197 124 59 113 271 180 99 174
8 272 181 100 175 177 102 44 96
8 273 182 101 176 179 104 46 98
8 177 102 44 96 273 182 101 176
8 179 104 46 98 275 184 103 178
8 275 184 103 178 238 157 83 147
8 188 115 51 105 283 197 113 186
8 188 115 198 284 105 51 114 187
8 284 198 116 189 187 114 52 106
8 286 200 120 193 189 116 55 109
8 191 118 202 288 107 53 117 190
8 195 121 203 289 111 56 118 191
8 193 120 204 290 109 55 119 192
8 290 204 122 194 192 119 57 110
8 196 123 58 112 292 207 122 194
8 293 206 121 195 196 123 58 112
8 199 126 61 115 297 211 124 197
8 298 212 127 200 198 125 62 116
8 199 126 212 298 115 61 125 198
8 205 129 64 120 300 214 127 200
8 301 217 130 201 202 132 66 117
8 209 136 168 264 301 217 130 201
8 302 219 132 202 203 133 67 118
8 303 220 133 203 206 134 68 121
8 205 129 215 304 120 64 128 204
8 304 215 131 207 204 128 65 122
8 306 221 134 206 208 135 69 123
8 208 135 69 123 307 218 131 207
8 210 137 167 263 309 223 136 209
8 328 238 147 226 230 149 76 140
8 228 146 91 166 329 236 165 260
8 231 150 77 141 330 235 145 227
8 330 235 145 227 228 146 91 166
8 332 239 148 229 233 151 78 143
8 230 149 76 140 332 239 148 229
8 232 152 79 142 334 241 150 231
8 234 153 80 144 335 243 152 232
8 336 242 151 233 234 153 80 144
8 236 155 90 165 338 245 164 259
8 241 160 86 150 339 246 154 235
8 339 246 154 235 237 156 82 146
8 237 156 82 146 340 247 155 236
8 342 249 157 238 240 159 85 149
8 343 250 158 239 242 161 87 151
8 240 159 85 149 343 250 158 239
8 243 162 88 152 345 252 160 241
8 244 163 253 346 153 89 161 242
8 244 163 89 153 347 254 162 243
8 311 224 261 371 210 137 167 263
8 263 167 262 372 209 136 168 264
8 267 179 98 171 375 275 178 265
8 375 275 178 265 328 238 147 226
8 376 273 176 266 267 179 98 171
8 268 177 96 172 376 273 176 266
8 379 272 175 269 268 177 96 172
8 380 271 174 270 269 175 94 173
8 283 197 113 186 380 271 174 270
8 381 277 180 271 272 181 100 175
8 297 211 124 197 381 277 180 271
8 382 278 181 272 274 183 102 177
8 274 183 102 177 383 279 182 273
8 383 279 182 273 276 185 104 179
8 385 281 184 275 342 249 157 238
8 276 185 104 179 385 281 184 275
8 285 199 115 188 393 297 197 283
8 394 298 200 286 284 198 116 189
8 285 199 298 394 188 115 198 284
8 291 205 120 193 396 300 200 286
8 397 301 201 287 288 202 117 190
8 295 209 264 374 397 301 201 287
8 398 302 202 288 289 203 118 191
8 399 303 203 289 293 206 121 195
8 291 205 304 400 193 120 204 290
8 400 304 207 292 290 204 122 194
8 294 208 123 196 402 307 207 292
8 403 306 206 293 294 208 123 196
8 296 210 263 373 405 309 209 295
8 408 312 213 299 297 211 126 199
8 299 213 313 409 199 126 212 298
8 409 313 214 300 298 212 127 200
8 305 216 129 205 411 315 214 300
8 412 318 217 301 302 219 132 202
8 309 223 136 209 412 318 217 301
8 413 320 219 302 303 220 133 203
8 306 221 321 414 206 134 220 303
8 307 218 131 207 415 316 215 304
8 305 216 316 415 205 129 215 304
8 417 322 221 306 308 222 135 208
8 308 222 135 208 418 319 218 307
8 310 225 137 210 420 325 223 309
8 423 326 224 311 310 225 137 210
8 329 236 165 260 441 338 259 368
8 442 342 238 328 333 240 149 230
8 331 237 146 228 443 340 236 329
8 334 241 150 231 444 339 235 330
8 444 339 235 330 331 237 146 228
8 446 343 239 332 336 242 151 233
8 333 240 149 230 446 343 239 332
8 335 243 152 232 448 345 241 334
8 337 244 153 234 449 347 243 335
8 337 244 346 450 234 153 242 336
8 338 245 164 259 452 349 258 367
8 340 247 155 236 453 350 245 338
8 345 252 160 241 454 351 246 339
8 454 351 246 339 341 248 156 237
8 341 248 156 237 455 352 247 340
8 240 159 251 344 342 249 354 457
8 242 161 253 346 343 250 355 458
8 343 250 355 458 240 159 251 344
8 347 254 162 243 460 357 252 345
8 348 255 358 461 244 163 253 346
8 348 255 163 244 462 359 254 347
8 473 360 257 365 363 256 364 482
8 452 349 258 367 365 257 366 485
8 422 324 369 488 311 224 261 371
8 371 261 370 490 263 167 262 372
8 407 311 371 491 296 210 263 373
8 373 263 372 492 295 209 264 374
8 493 385 275 375 442 342 238 328
8 377 276 179 267 493 385 275 375
8 378 274 177 268 494 383 273 376
8 494 383 273 376 377 276 179 267
8 497 382 272 379 378 274 177 268
8 498 381 271 380 379 272 175 269
8 393 297 197 283 498 381 271 380
8 499 387 277 381 382 278 181 272
8 408 312 211 297 499 387 277 381
8 500 388 278 382 384 280 183 274
8 501 389 279 383 386 282 185 276
8 384 280 183 274 501 389 279 383
8 386 282 185 276 503 391 281 385
8 503 391 281 385 457 354 249 342
8 511 408 299 395 393 297 199 285
8 395 299 409 512 285 199 298 394
8 512 409 300 396 394 298 200 286
8 401 305 205 291 514 411 300 396
8 515 412 301 397 398 302 202 288
8 405 309 209 295 515 412 301 397
8 516 413 302 398 399 303 203 289
8 403 306 414 517 293 206 303 399
8 402 307 207 292 518 415 304 400
8 401 305 415 518 291 205 304 400
8 404 308 208 294 520 418 307 402
8 521 417 306 403 404 308 208 294
8 406 310 210 296 523 420 309 405
8 526 423 311 407 406 310 210 296
8 410 314 213 299 527 424 312 408
8 528 425 315 411 409 313 214 300
8 410 314 425 528 299 213 313 409
8 416 317 216 305 530 427 315 411
8 531 430 318 412 413 320 219 302
8 420 325 223 309 531 430 318 412
8 532 432 320 413 414 321 220 303
8 417 322 433 533 306 221 321 414
8 418 319 218 307 534 428 316 415
8 416 317 428 534 305 216 316 415
8 419 323 434 536 308 222 322 417
8 419 323 222 308 537 431 319 418
8 421 327 225 310 539 438 325 420
8 421 327 439 541 310 225 326 423
8 543 437 324 422 423 326 224 311
8 441 338 259 368 559 452 367 486
8 443 340 236 329 560 453 338 441
8 333 240 344 447 442 342 457 561
8 445 341 237 331 562 455 340 443
8 448 345 241 334 563 454 339 444
8 563 454 339 444 445 341 237 331
8 336 242 346 450 446 343 458 565
8 446 343 458 565 333 240 344 447
8 449 347 243 335 567 460 345 448
8 451 348 244 337 568 462 347 449
8 451 348 461 569 337 244 346 450
8 570 463 349 452 473 360 257 365
8 453 350 245 338 570 463 349 452
8 455 352 247 340 571 464 350 453
8 460 357 252 345 572 465 351 454
8 572 465 351 454 456 353 248 341
8 456 353 248 341 573 466 352 455
8 344 251 356 459 457 354 468 575
8 458 355 469 576 344 251 356 459
8 346 253 358 461 458 355 469 576
8 462 359 254 347 578 471 357 460
8 348 255 359 462 461 358 472 579
8 591 474 360 473 475 361 256 363
8 475 361 256 363 594 477 362 479
8 363 256 364 482 479 362 480 603
8 590 473 365 484 481 363 482 605
8 482 364 257 365 606 483 366 485
8 559 452 367 486 484 365 485 607
8 542 436 487 609 422 324 369 488
8 525 422 488 611 407 311 371 491
8 488 369 489 612 371 261 370 490
8 491 371 490 613 373 263 372 492
8 495 386 276 377 614 503 385 493
8 614 503 385 493 561 457 342 442
8 615 501 383 494 495 386 276 377
8 496 384 274 378 615 501 383 494
8 618 500 382 497 496 384 274 378
8 619 499 381 498 497 382 272 379
8 511 408 297 393 619 499 381 498
8 620 505 387 499 500 388 278 382
8 527 424 312 408 620 505 387 499
8 502 390 506 621 384 280 388 500
8 622 507 389 501 504 392 282 386
8 502 390 280 384 622 507 389 501
8 504 392 282 386 624 509 391 503
8 624 509 391 503 575 468 354 457
8 513 410 299 395 630 527 408 511
8 631 528 411 514 512 409 300 396
8 513 410 528 631 395 299 409 512
8 519 416 305 401 633 530 411 514
8 634 531 412 515 516 413 302 398
8 523 420 309 405 634 531 412 515
8 635 532 413 516 517 414 303 399
8 521 417 533 636 403 306 414 517
8 520 418 307 402 637 534 415 518
8 519 416 534 637 401 305 415 518
8 522 419 308 404 639 537 418 520
8 522 419 536 640 404 308 417 521
8 524 421 310 406 642 539 420 523
8 524 421 541 644 406 310 423 526
8 646 543 422 525 526 423 311 407
8 529 426 314 410 647 544 424 527
8 528 425 545 648 411 315 427 530
8 529 426 545 648 410 314 425 528
8 535 429 317 416 649 546 427 530
8 650 548 430 531 532 432 320 413
8 539 438 325 420 650 548 430 531
8 533 433 550 651 414 321 432 532
8 536 434 551 652 417 322 433 533
8 537 431 319 418 653 547 428 534
8 535 429 547 653 416 317 428 534
8 538 435 552 654 419 323 434 536
8 538 435 323 419 655 549 431 537
8 540 440 327 421 657 556 438 539
8 540 440 557 659 421 327 439 541
8 541 439 555 660 423 326 437 543
8 661 554 436 542 543 437 324 422
8 676 570 452 559 590 473 365 484
8 560 453 338 441 676 570 452 559
8 562 455 340 443 677 571 453 560
8 447 344 459 566 561 457 575 678
8 564 456 341 445 679 573 455 562
8 567 460 345 448 680 572 454 563
8 680 572 454 563 564 456 341 445
8 565 458 576 682 447 344 459 566
8 450 346 461 569 565 458 576 682
8 568 462 347 449 684 578 460 567
8 451 348 462 568 569 461 579 685
8 686 580 463 570 591 474 360 473
8 571 464 350 453 686 580 463 570
8 573 466 352 455 687 581 464 571
8 572 465 582 688 460 357 471 578
8 574 467 582 688 456 353 465 572
8 574 467 353 456 689 583 466 573
8 459 356 470 577 575 468 585 691
8 576 469 586 692 459 356 470 577
8 461 358 472 579 576 469 586 692
8 462 359 471 578 579 472 588 694
8 704 591 473 590 593 475 363 481
8 595 476 592 705 475 361 474 591
8 593 475 363 481 707 594 479 602
8 594 477 362 479 709 598 478 600
8 595 476 361 475 711 597 477 594
8 479 362 480 603 600 478 601 720
8 481 363 482 605 602 479 603 722
8 603 480 364 482 723 604 483 606
8 605 482 365 484 724 606 485 607
8 656 553 608 726 542 436 487 609
8 645 542 609 728 525 422 488 611
8 609 487 610 729 488 369 489 612
8 611 488 612 730 491 371 490 613
8 616 504 386 495 731 624 503 614
8 731 624 503 614 678 575 457 561
8 732 622 501 615 616 504 386 495
8 617 502 384 496 732 622 501 615
8 617 502 621 735 496 384 500 618
8 736 620 499 619 618 500 382 497
8 630 527 408 511 736 620 499 619
8 621 506 626 737 500 388 505 620
8 647 544 424 527 737 626 505 620
8 623 508 627 738 502 390 506 621
8 623 508 390 502 739 628 507 622
8 625 510 628 739 504 392 507 622
8 740 629 509 624 691 585 468 575
8 625 510 392 504 740 629 509 624
8 632 529 410 513 744 647 527 630
8 631 528 648 745 514 411 530 633
8 632 529 648 745 513 410 528 631
8 638 535 416 519 746 649 530 633
8 747 650 531 634 635 532 413 516
8 642 539 420 523 747 650 531 634
8 636 533 651 748 517 414 532 635
8 640 536 652 749 521 417 533 636
8 639 537 418 520 750 653 534 637
8 638 535 653 750 519 416 534 637
8 641 538 419 522 751 655 537 639
8 641 538 654 752 522 419 536 640
8 643 540 421 524 753 657 539 642
8 643 540 659 755 524 421 541 644
8 644 541 660 757 526 423 543 646
8 758 661 542 645 646 543 422 525
8 529 426 544 647 648 545 662 759
8 530 427 545 648 649 546 663 760
8 535 429 546 649 653 547 664 761
8 762 666 548 650 651 550 432 532
8 657 556 438 539 762 666 548 650
8 652 551 668 763 533 433 550 651
8 654 552 669 764 536 434 551 652
8 655 549 431 537 765 665 547 653
8 538 435 549 655 654 552 667 766
8 661 554 671 768 542 436 553 656
8 658 558 440 540 769 674 556 657
8 658 558 675 770 540 440 557 659
8 659 557 673 771 541 439 555 660
8 660 555 672 772 543 437 554 661
8 788 686 570 676 704 591 473 590
8 677 571 453 560 788 686 570 676
8 679 573 455 562 789 687 571 677
8 566 459 577 683 678 575 691 790
8 681 574 456 564 791 689 573 679
8 680 572 688 792 567 460 578 684
8 681 574 688 792 564 456 572 680
8 682 576 692 794 566 459 577 683
8 569 461 579 685 682 576 692 794
8 568 462 578 684 685 579 694 796
8 687 581 464 571 798 696 580 686
8 798 696 580 686 705 592 474 591
8 689 583 466 573 799 697 581 687
8 688 582 698 800 578 471 588 694
8 690 584 698 800 574 467 582 688
8 690 584 467 574 801 699 583 689
8 693 587 701 803 577 470 585 691
8 693 587 470 577 804 702 586 692
8 695 589 702 804 579 472 586 692
8 695 589 472 579 805 703 588 694
8 708 595 705 813 593 475 591 704
8 710 596 706 814 595 476 592 705
8 707 594 479 602 816 709 600 719
8 708 595 475 593 817 711 594 707
8 709 598 478 600 819 715 599 717
8 711 597 477 594 820 714 598 709
8 710 596 476 595 822 713 597 711
8 600 478 601 720 717 599 718 832
8 602 479 603 722 719 600 720 834
8 720 601 480 603 835 721 604 723
8 722 603 482 605 836 723 606 724
8 767 670 725 839 656 553 608 726
8 756 656 726 841 645 542 609 728
8 726 608 727 842 609 487 610 729
8 728 609 729 843 611 488 612 730
8 844 740 624 731 790 691 575 678
8 733 625 504 616 844 740 624 731
8 734 623 502 617 845 739 622 732
8 733 625 739 845 616 504 622 732
8 734 623 738 846 617 502 621 735
8 735 621 737 847 618 500 620 736
8 744 647 527 630 847 737 620 736
8 621 506 627 738 737 626 741 848
8 647 544 626 737 759 662 741 848
8 623 508 628 739 738 627 742 849
8 740 629 585 691 850 743 700 802
8 625 510 629 740 739 628 743 850
8 632 529 647 744 745 648 759 854
8 633 530 648 745 746 649 760 855
8 638 535 649 746 750 653 761 856
8 857 762 650 747 748 651 532 635
8 753 657 539 642 857 762 650 747
8 749 652 763 858 636 533 651 748
8 752 654 764 859 640 536 652 749
8 751 655 537 639 860 765 653 750
8 641 538 655 751 752 654 766 861
8 754 658 540 643 862 769 657 753
8 754 658 770 863 643 540 659 755
8 755 659 771 864 644 541 660 757
8 758 661 768 866 645 542 656 756
8 757 660 772 867 646 543 661 758
8 759 662 773 868 648 545 663 760
8 649 546 663 760 761 664 774 871
8 765 665 547 653 872 775 664 761
8 873 777 666 762 763 668 550 651
8 769 674 556 657 873 777 666 762
8 764 669 779 874 652 551 668 763
8 654 552 667 766 764 669 778 875
8 655 549 665 765 766 667 776 876
8 768 671 782 877 656 553 670 767
8 772 672 783 878 661 554 671 768
8 658 558 674 769 770 675 786 879
8 659 557 675 770 771 673 785 881
8 882 784 672 772 771 673 555 660
8 789 687 571 677 897 798 686 788
8 897 798 686 788 813 705 591 704
8 791 689 573 679 898 799 687 789
8 795 693 803 900 683 577 691 790
8 793 690 574 681 901 801 689 791
8 792 688 800 902 684 578 694 796
8 793 690 800 902 681 574 688 792
8 795 693 577 683 903 804 692 794
8 797 695 804 903 685 579 692 794
8 797 695 579 685 904 805 694 796
8 905 806 697 799 798 696 581 687
8 814 706 806 905 705 592 696 798
8 689 583 697 799 801 699 808 907
8 800 698 809 908 694 588 703 805
8 690 584 699 801 800 698 809 908
8 803 701 810 909 691 585 700 802
8 693 587 702 804 803 701 811 910
8 695 589 703 805 804 702 812 911
8 818 710 814 919 708 595 705 813
8 821 712 815 920 710 596 706 814
8 816 709 600 719 922 819 717 831
8 817 711 594 707 923 820 709 816
8 818 710 595 708 924 822 711 817
8 819 715 599 717 926 827 716 829
8 820 714 598 709 927 826 715 819
8 929 825 713 822 820 714 597 711
8 821 712 596 710 930 824 713 822
8 717 599 718 832 829 716 830 942
8 719 600 720 834 831 717 832 944
8 832 718 601 720 945 833 721 835
8 834 720 603 722 946 835 723 836
8 869 780 838 950 767 670 725 839
8 865 767 839 952 756 656 726 841
8 839 725 840 953 726 608 727 842
8 841 726 842 954 728 609 729 843
8 844 740 691 790 955 850 802 899
8 733 625 740 844 845 739 850 955
8 734 623 739 845 846 738 849 956
8 735 621 738 846 847 737 848 957
8 744 647 737 847 854 759 848 957
8 738 627 742 849 848 741 851 958
8 848 741 851 958 759 662 773 868
8 850 743 700 802 959 852 807 906
8 849 742 628 739 959 852 743 850
8 854 759 868 965 745 648 760 855
8 746 649 760 855 856 761 871 966
8 860 765 653 750 967 872 761 856
8 968 873 762 857 858 763 651 748
8 862 769 657 753 968 873 762 857
8 859 764 874 969 749 652 763 858
8 752 654 766 861 859 764 875 970
8 751 655 765 860 861 766 876 971
8 754 658 769 862 863 770 879 972
8 755 659 770 863 864 771 881 974
8 976 882 772 867 864 771 660 757
8 866 768 877 977 756 656 767 865
8 867 772 878 978 758 661 768 866
8 760 663 773 868 871 774 883 980
8 870 781 837 948 982 890 780 869
8 982 890 780 869 877 782 670 767
8 761 664 774 871 872 775 884 984
8 876 776 665 765 985 885 775 872
8 873 777 668 763 986 887 779 874
8 769 674 777 873 879 786 887 986
8 764 669 778 875 874 779 888 987
8 766 667 776 876 875 778 886 988
8 878 783 892 989 768 671 782 877
8 878 783 672 772 990 893 784 882
8 880 787 675 770 991 896 786 879
8 880 787 895 992 770 675 785 881
8 881 785 894 993 771 673 784 882
8 1006 905 799 898 897 798 687 789
8 919 814 905 1006 813 705 798 897
8 791 689 799 898 901 801 907 1007
8 900 803 909 1009 790 691 802 899
8 795 693 804 903 900 803 910 1010
8 902 800 908 1011 796 694 805 904
8 793 690 801 901 902 800 908 1011
8 797 695 805 904 903 804 911 1012
8 799 697 806 905 907 808 912 1013
8 920 815 912 1013 814 706 806 905
8 802 700 810 909 906 807 913 1014
8 801 699 808 907 908 809 914 1015
8 805 703 809 908 911 812 915 1016
8 803 701 811 910 909 810 916 1017
8 911 812 917 1018 804 702 811 910
8 925 821 920 1030 818 710 814 919
8 928 823 921 1031 821 712 815 920
8 922 819 717 831 1033 926 829 941
8 923 820 709 816 1034 927 819 922
8 1035 929 822 924 923 820 711 817
8 925 821 710 818 1036 930 822 924
8 1038 933 825 929 927 826 714 820
8 926 827 716 829 1039 935 828 939
8 927 826 715 819 1040 934 827 926
8 928 823 712 821 1041 931 824 930
8 1042 932 824 930 929 825 713 822
8 829 716 830 942 939 828 940 1058
8 831 717 832 944 941 829 942 1060
8 942 830 718 832 1061 943 833 945
8 944 832 720 834 1062 945 835 946
8 981 889 947 1064 870 781 837 948
8 948 837 949 1067 869 780 838 950
8 975 869 950 1069 865 767 839 952
8 950 838 951 1070 839 725 840 953
8 952 839 953 1071 841 726 842 954
8 955 850 802 899 1072 959 906 1008
8 956 849 739 845 1072 959 850 955
8 846 738 849 956 957 848 958 1073
8 957 848 958 1073 854 759 868 965
8 849 742 852 959 958 851 961 1076
8 960 853 961 1076 906 807 852 959
8 958 851 961 1076 868 773 883 980
8 960 853 807 906 1077 963 913 1014
8 855 760 868 965 966 871 980 1085
8 856 761 871 966 967 872 984 1086
8 971 876 765 860 1087 985 872 967
8 968 873 763 858 1088 986 874 969
8 862 769 873 968 972 879 986 1088
8 859 764 875 970 969 874 987 1089
8 861 766 876 971 970 875 988 1090
8 973 880 770 863 1091 991 879 972
8 973 880 992 1092 863 770 881 974
8 974 881 993 1093 864 771 882 976
8 979 870 948 1066 1094 982 869 975
8 1094 982 869 975 977 877 767 865
8 978 878 772 867 1095 990 882 976
8 978 878 989 1096 866 768 877 977
8 871 774 883 980 984 884 994 1099
8 983 891 999 1100 870 781 889 981
8 1101 1000 890 982 989 892 782 877
8 983 891 781 870 1101 1000 890 982
8 872 775 884 984 985 885 995 1103
8 876 776 885 985 988 886 996 1104
8 986 887 779 874 1105 998 888 987
8 879 786 887 986 991 896 998 1105
8 875 778 886 988 987 888 997 1106
8 990 893 1002 1107 878 783 892 989
8 1108 1003 893 990 993 894 784 882
8 880 787 896 991 992 895 1005 1109
8 993 894 785 881 1110 1004 895 992
8 898 799 905 1006 1007 907 1013 1120
8 1030 920 1013 1120 919 814 905 1006
8 901 801 907 1007 1011 908 1015 1121
8 899 802 909 1009 1008 906 1014 1122
8 900 803 910 1010 1009 909 1017 1123
8 1012 911 1018 1124 903 804 910 1010
8 904 805 908 1011 1012 911 1016 1125
8 1013 912 1020 1127 907 808 914 1015
8 1031 921 1020 1127 920 815 912 1013
8 1019 918 962 1075 1128 1021 913 1014
8 1128 1021 913 1014 1017 916 810 909
8 1015 914 1022 1129 908 809 915 1016
8 1016 915 1023 1130 911 812 917 1018
8 1018 917 1024 1131 910 811 916 1017
8 1037 928 1031 1148 925 821 920 1030
8 928 823 931 1041 1031 921 1032 1149
8 1033 926 829 941 1151 1039 939 1057
8 1034 927 819 922 1152 1040 926 1033
8 1153 1038 929 1035 1034 927 820 923
8 1154 1042 930 1036 1035 929 822 924
8 1037 928 821 925 1155 1041 930 1036
8 1039 935 828 939 1156 1047 938 1055
8 1157 1043 932 1042 1038 933 825 929
8 1038 933 826 927 1158 1045 934 1040
8 1040 934 827 926 1159 1046 935 1039
8 930 824 932 1042 1041 931 1044 1160
8 1051 936 1048 1165 1175 1052 937 1053
8 1156 1047 938 1055 1053 937 1054 1178
8 939 828 940 1058 1055 938 1056 1181
8 941 829 942 1060 1057 939 1058 1183
8 942 830 943 1061 1058 940 1059 1184
8 1060 942 832 944 1185 1061 945 1062
8 1082 964 1063 1188 981 889 947 1064
8 1097 981 1064 1190 979 870 948 1066
8 1064 947 1065 1191 948 837 949 1067
8 1066 948 1067 1193 975 869 950 1069
8 1067 949 1068 1194 950 838 951 1070
8 1069 950 1070 1195 952 839 953 1071
8 956 849 959 1072 1073 958 1076 1197
8 1074 960 1076 1197 1008 906 959 1072
8 1073 958 1076 1197 965 868 980 1085
8 1074 960 906 1008 1198 1077 1014 1122
8 1133 1026 1079 1199 1019 918 962 1075
8 1077 963 913 1014 1200 1080 962 1075
8 960 853 963 1077 1076 961 1078 1201
8 980 883 961 1076 1099 994 1078 1201
8 1210 1083 964 1082 1100 999 889 981
8 966 871 980 1085 1086 984 1099 1215
8 967 872 984 1086 1087 985 1103 1216
8 971 876 985 1087 1090 988 1104 1217
8 1088 986 874 969 1218 1105 987 1089
8 972 879 986 1088 1091 991 1105 1218
8 970 875 988 1090 1089 987 1106 1219
8 973 880 991 1091 1092 992 1109 1220
8 1093 993 881 974 1221 1110 992 1092
8 1222 1108 990 1095 1093 993 882 976
8 1223 1101 982 1094 1096 989 877 977
8 1098 983 870 979 1223 1101 982 1094
8 1095 990 1107 1224 978 878 989 1096
8 1098 983 1100 1225 979 870 981 1097
8 984 884 994 1099 1103 995 1111 1227
8 1102 1001 1115 1228 983 891 999 1100
8 1101 1000 892 989 1229 1116 1002 1107
8 1102 1001 891 983 1229 1116 1000 1101
8 985 885 995 1103 1104 996 1112 1230
8 988 886 996 1104 1106 997 1113 1231
8 1105 998 888 987 1232 1114 997 1106
8 991 896 998 1105 1109 1005 1114 1232
8 1108 1003 1117 1233 990 893 1002 1107
8 1108 1003 894 993 1233 1117 1004 1110
8 992 895 1005 1109 1110 1004 1118 1234
8 1120 1013 1127 1244 1007 907 1015 1121
8 1148 1031 1127 1244 1030 920 1013 1120
8 1121 1015 1129 1245 1011 908 1016 1125
8 1126 1019 1075 1196 1246 1128 1014 1122
8 1246 1128 1014 1122 1123 1017 909 1009
8 1124 1018 1131 1247 1010 910 1017 1123
8 1125 1016 1130 1248 1012 911 1018 1124
8 1127 1020 1137 1254 1015 914 1022 1129
8 1031 921 1032 1149 1127 1020 1137 1254
8 1134 1027 918 1019 1257 1140 1021 1128
8 1257 1140 1021 1128 1131 1024 916 1017
8 1129 1022 1141 1258 1016 915 1023 1130
8 1130 1023 1142 1259 1018 917 1024 1131
8 1261 1144 1025 1132 1133 1026 1079 1199
8 1255 1138 1025 1132 1135 1028 1144 1261
8 1133 1026 918 1019 1262 1145 1027 1134
8 1136 1029 1139 1256 1263 1146 1028 1135
8 1037 928 1041 1155 1148 1031 1149 1275
8 1041 931 1044 1160 1149 1032 1150 1276
8 1151 1039 939 1057 1278 1156 1055 1180
8 1152 1040 926 1033 1279 1159 1039 1151
8 1153 1038 927 1034 1280 1158 1040 1152
8 1281 1157 1042 1154 1153 1038 929 1035
8 1036 930 1042 1154 1155 1041 1160 1282
8 1283 1164 1046 1159 1156 1047 935 1039
8 1165 1048 1164 1283 1053 937 1047 1156
8 1157 1043 933 1038 1284 1161 1045 1158
8 1157 1043 1161 1284 1042 932 1044 1160
8 1040 934 1046 1159 1158 1045 1163 1285
8 1166 1049 1167 1292 1051 936 1048 1165
8 1166 1049 936 1051 1293 1168 1050 1172
8 1051 936 1052 1175 1172 1050 1173 1306
8 1174 1051 1165 1290 1308 1175 1053 1177
8 1053 937 1054 1178 1175 1052 1176 1309
8 1278 1156 1055 1180 1177 1053 1178 1311
8 1055 938 1056 1181 1178 1054 1179 1312
8 1057 939 1058 1183 1180 1055 1181 1314
8 1058 940 1059 1184 1181 1056 1182 1315
8 1060 942 1061 1185 1183 1058 1184 1316
8 1208 1081 1187 1321 1082 964 1063 1188
8 1209 1082 1188 1322 1097 981 1064 1190
8 1188 1063 1189 1323 1064 947 1065 1191
8 1190 1064 1191 1325 1066 948 1067 1193
8 1191 1065 1192 1326 1067 949 1068 1194
8 1067 1193 1069 950 1194 1327 1195 1070
8 1250 1133 1199 1330 1126 1019 1075 1196
8 1198 1077 1014 1122 1331 1200 1075 1196
8 1074 960 1077 1198 1197 1076 1201 1332
8 1085 980 1076 1197 1215 1099 1201 1332
8 1199 1079 1203 1333 1075 962 1080 1200
8 1132 1025 1119 1243 1199 1079 1203 1333
8 1201 1078 963 1077 1334 1202 1080 1200
8 1099 994 1078 1201 1227 1111 1202 1334
8 1343 1207 1081 1208 1210 1083 964 1082
8 1214 1084 1186 1319 1343 1207 1081 1208
8 1345 1210 1082 1209 1225 1100 981 1097
8 1346 1211 1083 1210 1228 1115 999 1100
8 1086 984 1099 1215 1216 1103 1227 1352
8 1087 985 1103 1216 1217 1104 1230 1353
8 1090 988 1104 1217 1219 1106 1231 1354
8 1218 1105 987 1089 1355 1232 1106 1219
8 1091 991 1105 1218 1220 1109 1232 1355
8 1092 992 1109 1220 1221 1110 1234 1356
8 1222 1108 1233 1357 1095 990 1107 1224
8 1222 1108 993 1093 1357 1233 1110 1221
8 1223 1101 989 1096 1358 1229 1107 1224
8 1226 1102 983 1098 1358 1229 1101 1223
8 1226 1102 1228 1359 1098 983 1100 1225
8 1103 995 1111 1227 1230 1112 1235 1360
8 1107 1002 1117 1233 1229 1116 1240 1362
8 1102 1001 1116 1229 1228 1115 1240 1362
8 1104 996 1112 1230 1231 1113 1236 1363
8 1364 1237 1114 1232 1231 1113 997 1106
8 1109 1005 1114 1232 1234 1118 1238 1365
8 1110 1004 1118 1234 1233 1117 1241 1366
8 1242 1374 1255 1138 1119 1243 1132 1025
8 1244 1127 1254 1376 1121 1015 1129 1245
8 1148 1031 1149 1275 1244 1127 1254 1376
8 1245 1129 1258 1377 1125 1016 1130 1248
8 1251 1134 1019 1126 1378 1257 1128 1246
8 1378 1257 1128 1246 1247 1131 1017 1123
8 1248 1130 1259 1379 1124 1018 1131 1247
8 1261 1381 1250 1133 1132 1249 1330 1199
8 1255 1380 1252 1135 1132 1249 1381 1261
8 1250 1133 1019 1126 1382 1262 1134 1251
8 1253 1136 1256 1385 1384 1263 1135 1252
8 1254 1137 1265 1387 1129 1022 1141 1258
8 1149 1032 1150 1276 1254 1137 1265 1387
8 1028 1135 1255 1138 1139 1256 1388 1266
8 1136 1029 1147 1264 1256 1139 1267 1389
8 1390 1268 1140 1257 1259 1142 1024 1131
8 1260 1143 1027 1134 1390 1268 1140 1257
8 1258 1141 1269 1391 1130 1023 1142 1259
8 1262 1145 1027 1134 1393 1271 1143 1260
8 1261 1144 1026 1133 1394 1272 1145 1262
8 1135 1028 1144 1261 1263 1146 1272 1394
8 1136 1029 1146 1263 1264 1147 1273 1395
8 1155 1041 1160 1282 1275 1149 1276 1405
8 1276 1150 1044 1160 1406 1277 1162 1286
8 1408 1283 1159 1279 1278 1156 1039 1151
8 1290 1165 1283 1408 1177 1053 1156 1278
8 1152 1040 1159 1279 1280 1158 1285 1409
8 1281 1157 1038 1153 1410 1284 1158 1280
8 1281 1157 1284 1410 1154 1042 1160 1282
8 1159 1046 1164 1283 1285 1163 1289 1412
8 1292 1167 1289 1412 1165 1048 1164 1283
8 1158 1045 1163 1285 1284 1161 1288 1413
8 1284 1161 1288 1413 1160 1044 1162 1286
8 1291 1166 1292 1418 1174 1051 1165 1290
8 1291 1166 1051 1174 1419 1293 1172 1305
8 1294 1169 1296 1421 1166 1049 1167 1292
8 1293 1168 1050 1172 1422 1295 1171 1303
8 1294 1169 1049 1166 1423 1297 1168 1293
8 1422 1295 1171 1303 1301 1170 1302 1435
8 1172 1050 1173 1306 1303 1171 1304 1438
8 1174 1051 1175 1308 1305 1172 1306 1440
8 1175 1052 1176 1309 1306 1173 1307 1441
8 1177 1053 1178 1311 1308 1175 1309 1443
8 1178 1054 1179 1312 1309 1176 1310 1444
8 1180 1055 1181 1314 1311 1178 1312 1446
8 1056 1181 1312 1179 1182 1315 1447 1313
8 1183 1058 1184 1316 1314 1181 1315 1448
8 1319 1186 1084 1214 1451 1317 1213 1350
8 1319 1186 1318 1453 1208 1081 1187 1321
8 1321 1187 1320 1456 1188 1063 1189 1323
8 1344 1208 1321 1457 1209 1082 1188 1322
8 1322 1188 1323 1458 1190 1064 1191 1325
8 1323 1189 1324 1459 1191 1065 1192 1326
8 1191 1325 1193 1067 1326 1460 1327 1194
8 1242 1374 1243 1119 1328 1462 1335 1204
8 1330 1199 1333 1465 1196 1075 1200 1331
8 1132 1249 1330 1199 1243 1375 1465 1333
8 1332 1201 1077 1198 1466 1334 1200 1331
8 1215 1099 1201 1332 1352 1227 1334 1466
8 1119 1243 1333 1203 1204 1335 1470 1338
8 1333 1203 1338 1470 1200 1080 1202 1334
8 1227 1111 1202 1334 1360 1235 1338 1470
8 1328 1462 1335 1204 1205 1336 1471 1339
8 1337 1206 1340 1472 1464 1329 1205 1336
8 1346 1211 1342 1479 1210 1083 1207 1343
8 1346 1211 1115 1228 1479 1342 1239 1361
8 1348 1212 1084 1214 1479 1342 1207 1343
8 1480 1343 1208 1344 1345 1210 1082 1209
8 1351 1214 1319 1454 1480 1343 1208 1344
8 1481 1346 1210 1345 1359 1228 1100 1225
8 1348 1212 1347 1483 1214 1084 1213 1350
8 1216 1103 1227 1352 1353 1230 1360 1488
8 1217 1104 1230 1353 1354 1231 1363 1489
8 1490 1364 1232 1355 1354 1231 1106 1219
8 1220 1109 1232 1355 1356 1234 1365 1491
8 1221 1110 1234 1356 1357 1233 1366 1492
8 1224 1107 1233 1357 1358 1229 1362 1493
8 1226 1102 1229 1358 1359 1228 1362 1493
8 1230 1112 1235 1360 1363 1236 1367 1496
8 1361 1239 1115 1228 1497 1371 1240 1362
8 1366 1241 1372 1498 1233 1117 1240 1362
8 1364 1237 1113 1231 1499 1368 1236 1363
8 1364 1237 1368 1499 1232 1114 1238 1365
8 1234 1118 1238 1365 1366 1241 1369 1500
8 1507 1373 1242 1374 1388 1266 1138 1255
8 1508 1374 1243 1375 1380 1255 1132 1249
8 1376 1254 1387 1509 1245 1129 1258 1377
8 1275 1149 1276 1405 1376 1254 1387 1509
8 1377 1258 1391 1510 1248 1130 1259 1379
8 1511 1390 1257 1378 1379 1259 1131 1247
8 1383 1260 1134 1251 1511 1390 1257 1378
8 1252 1135 1256 1385 1380 1255 1388 1512
8 1261 1381 1513 1394 1133 1250 1382 1262
8 1135 1252 1384 1263 1261 1381 1513 1394
8 1382 1262 1134 1251 1514 1393 1260 1383
8 1253 1136 1263 1384 1386 1264 1395 1516
8 1253 1136 1264 1386 1385 1256 1389 1517
8 1387 1265 1397 1519 1258 1141 1269 1391
8 1276 1150 1277 1406 1387 1265 1397 1519
8 1256 1139 1267 1389 1388 1266 1398 1520
8 1264 1147 1274 1396 1389 1267 1399 1521
8 1392 1270 1143 1260 1522 1400 1268 1390
8 1390 1268 1142 1259 1522 1400 1269 1391
8 1392 1270 1401 1523 1260 1143 1271 1393
8 1272 1394 1524 1402 1145 1262 1393 1271
8 1395 1273 1146 1263 1524 1402 1272 1394
8 1273 1395 1264 1147 1403 1526 1396 1274
8 1405 1276 1160 1282 1534 1406 1286 1411
8 1414 1287 1407 1535 1286 1162 1277 1406
8 1279 1159 1283 1408 1409 1285 1412 1537
8 1418 1292 1412 1537 1290 1165 1283 1408
8 1280 1158 1285 1409 1410 1284 1413 1538
8 1410 1284 1413 1538 1282 1160 1286 1411
8 1285 1163 1289 1412 1413 1288 1417 1540
8 1421 1296 1417 1540 1292 1167 1289 1412
8 1414 1287 1162 1286 1541 1416 1288 1413
8 1420 1294 1421 1545 1291 1166 1292 1418
8 1419 1293 1172 1305 1546 1422 1303 1437
8 1420 1294 1166 1291 1547 1423 1293 1419
8 1294 1169 1297 1423 1421 1296 1425 1548
8 1423 1297 1168 1293 1549 1424 1295 1422
8 1301 1170 1298 1427 1422 1295 1424 1549
8 1432 1300 1428 1554 1301 1170 1298 1427
8 1431 1299 1428 1554 1560 1430 1300 1432
8 1563 1433 1300 1432 1435 1302 1170 1301
8 1546 1422 1303 1437 1434 1301 1435 1565
8 1303 1171 1304 1438 1435 1302 1436 1566
8 1305 1172 1306 1440 1437 1303 1438 1568
8 1306 1173 1307 1441 1438 1304 1439 1569
8 1308 1175 1309 1443 1440 1306 1441 1571
8 1309 1176 1310 1444 1441 1307 1442 1572
8 1311 1178 1312 1446 1443 1309 1444 1574
8 1179 1312 1444 1310 1313 1447 1575 1445
8 1314 1181 1315 1448 1446 1312 1447 1576
8 1350 1213 1349 1486 1451 1317 1449 1579
8 1451 1317 1450 1581 1319 1186 1318 1453
8 1454 1319 1214 1351 1582 1451 1350 1487
8 1453 1318 1452 1584 1321 1187 1320 1456
8 1454 1319 1453 1585 1344 1208 1321 1457
8 1456 1320 1455 1586 1323 1189 1324 1459
8 1457 1321 1456 1587 1322 1188 1323 1458
8 1458 1323 1459 1588 1325 1191 1326 1460
8 1205 1336 1464 1329 1328 1462 1590 1461
8 1507 1373 1461 1590 1374 1242 1328 1462
8 1508 1374 1462 1591 1375 1243 1335 1467
8 1337 1206 1329 1464 1473 1341 1463 1594
8 1375 1243 1335 1467 1465 1333 1470 1596
8 1465 1333 1470 1596 1331 1200 1334 1466
8 1352 1227 1334 1466 1488 1360 1470 1596
8 1591 1462 1336 1468 1467 1335 1471 1597
8 1469 1337 1472 1598 1595 1464 1336 1468
8 1471 1339 1474 1600 1335 1204 1338 1470
8 1600 1474 1367 1496 1470 1338 1235 1360
8 1336 1205 1340 1472 1471 1339 1475 1601
8 1337 1206 1341 1473 1472 1340 1476 1602
8 1495 1370 1478 1609 1361 1239 1342 1479
8 1348 1212 1342 1479 1483 1347 1478 1609
8 1481 1346 1479 1610 1345 1210 1343 1480
8 1481 1346 1228 1359 1610 1479 1361 1494
8 1484 1348 1214 1351 1610 1479 1343 1480
8 1483 1347 1482 1612 1350 1213 1349 1486
8 1484 1348 1483 1613 1351 1214 1350 1487
8 1353 1230 1360 1488 1489 1363 1496 1616
8 1490 1364 1231 1354 1617 1499 1363 1489
8 1490 1364 1499 1617 1355 1232 1365 1491
8 1356 1234 1365 1491 1492 1366 1500 1619
8 1492 1366 1498 1620 1357 1233 1362 1493
8 1494 1361 1228 1359 1621 1497 1362 1493
8 1495 1370 1239 1361 1622 1504 1371 1497
8 1363 1236 1367 1496 1499 1368 1501 1623
8 1497 1371 1240 1362 1624 1505 1372 1498
8 1625 1503 1372 1498 1500 1369 1241 1366
8 1365 1238 1368 1499 1500 1369 1502 1626
8 1520 1398 1506 1633 1388 1266 1373 1507
8 1634 1507 1374 1508 1512 1388 1255 1380
8 1509 1387 1519 1635 1377 1258 1391 1510
8 1405 1276 1406 1534 1509 1387 1519 1635
8 1515 1392 1260 1383 1636 1522 1390 1511
8 1511 1390 1259 1379 1636 1522 1391 1510
8 1385 1256 1389 1517 1512 1388 1520 1637
8 1513 1394 1262 1382 1638 1524 1393 1514
8 1395 1516 1638 1524 1263 1384 1513 1394
8 1515 1392 1523 1639 1383 1260 1393 1514
8 1516 1395 1526 1640 1386 1264 1396 1518
8 1386 1264 1396 1518 1517 1389 1521 1641
8 1519 1397 1527 1643 1391 1269 1400 1522
8 1535 1407 1527 1643 1406 1277 1397 1519
8 1389 1267 1399 1521 1520 1398 1528 1644
8 1645 1529 1399 1521 1525 1404 1274 1396
8 1392 1270 1400 1522 1523 1401 1531 1646
8 1524 1402 1271 1393 1648 1532 1401 1523
8 1403 1526 1648 1532 1273 1395 1524 1402
8 1525 1404 1274 1396 1649 1533 1403 1526
8 1539 1414 1535 1657 1411 1286 1406 1534
8 1542 1415 1536 1658 1414 1287 1407 1535
8 1409 1285 1412 1537 1538 1413 1540 1660
8 1545 1421 1540 1660 1418 1292 1412 1537
8 1539 1414 1286 1411 1661 1541 1413 1538
8 1540 1417 1544 1663 1413 1288 1416 1541
8 1421 1296 1425 1548 1540 1417 1544 1663
8 1542 1415 1287 1414 1664 1543 1416 1541
8 1420 1294 1423 1547 1545 1421 1548 1666
8 1547 1423 1293 1419 1667 1549 1422 1546
8 1434 1301 1427 1553 1546 1422 1549 1667
8 1423 1297 1424 1549 1548 1425 1550 1668
8 1551 1426 1550 1668 1427 1298 1424 1549
8 1551 1426 1298 1427 1671 1552 1428 1554
8 1562 1432 1554 1674 1434 1301 1427 1553
8 1431 1299 1429 1558 1554 1428 1555 1675
8 1431 1299 1430 1560 1558 1429 1557 1680
8 1560 1430 1300 1432 1683 1559 1433 1563
8 1561 1431 1554 1674 1684 1560 1432 1562
8 1685 1563 1432 1562 1565 1435 1301 1434
8 1435 1302 1436 1566 1563 1433 1564 1686
8 1437 1303 1438 1568 1565 1435 1566 1688
8 1438 1304 1439 1569 1566 1436 1567 1689
8 1440 1306 1441 1571 1568 1438 1569 1691
8 1441 1307 1442 1572 1569 1439 1570 1692
8 1443 1309 1444 1574 1571 1441 1572 1694
8 1310 1444 1572 1442 1445 1575 1695 1573
8 1446 1312 1447 1576 1574 1444 1575 1696
8 1486 1349 1485 1614 1579 1449 1577 1699
8 1451 1317 1449 1579 1581 1450 1578 1701
8 1487 1350 1486 1615 1582 1451 1579 1702
8 1581 1450 1580 1704 1453 1318 1452 1584
8 1582 1451 1581 1705 1454 1319 1453 1585
8 1584 1452 1583 1706 1456 1320 1455 1586
8 1585 1453 1584 1707 1457 1321 1456 1587
8 1587 1456 1586 1708 1458 1323 1459 1588
8 1633 1506 1589 1710 1507 1373 1461 1590
8 1464 1329 1461 1590 1594 1463 1589 1710
8 1468 1336 1462 1591 1595 1464 1590 1711
8 1634 1507 1590 1711 1508 1374 1462 1591
8 1473 1341 1463 1594 1603 1477 1593 1716
8 1469 1337 1464 1595 1599 1473 1594 1717
8 1471 1597 1467 1335 1600 1718 1596 1470
8 1718 1600 1496 1616 1596 1470 1360 1488
8 1336 1468 1597 1471 1472 1598 1719 1601
8 1469 1337 1473 1599 1598 1472 1602 1720
8 1722 1604 1501 1623 1600 1474 1367 1496
8 1475 1601 1471 1339 1604 1722 1600 1474
8 1602 1476 1605 1723 1472 1340 1475 1601
8 1476 1602 1724 1606 1341 1473 1603 1477
8 1483 1347 1478 1609 1612 1482 1608 1731
8 1495 1370 1504 1622 1609 1478 1608 1731
8 1618 1495 1609 1732 1494 1361 1479 1610
8 1484 1348 1479 1610 1613 1483 1609 1732
8 1486 1349 1482 1612 1614 1485 1611 1733
8 1613 1483 1612 1734 1487 1350 1486 1615
8 1489 1363 1496 1616 1617 1499 1623 1736
8 1491 1365 1499 1617 1619 1500 1626 1737
8 1618 1495 1361 1494 1738 1622 1497 1621
8 1739 1625 1498 1620 1619 1500 1366 1492
8 1621 1497 1362 1493 1740 1624 1498 1620
8 1742 1631 1504 1622 1624 1505 1371 1497
8 1743 1628 1502 1626 1623 1501 1368 1499
8 1744 1630 1505 1624 1625 1503 1372 1498
8 1745 1629 1503 1625 1626 1502 1369 1500
8 1520 1398 1528 1644 1633 1506 1632 1751
8 1637 1520 1633 1752 1512 1388 1507 1634
8 1635 1519 1643 1753 1510 1391 1522 1636
8 1657 1535 1643 1753 1534 1406 1519 1635
8 1515 1392 1522 1636 1639 1523 1646 1754
8 1517 1389 1521 1641 1637 1520 1644 1755
8 1524 1638 1756 1648 1393 1514 1639 1523
8 1640 1526 1395 1516 1756 1648 1524 1638
8 1642 1525 1396 1518 1757 1649 1526 1640
8 1758 1645 1521 1641 1642 1525 1396 1518
8 1646 1531 1400 1522 1760 1650 1527 1643
8 1535 1407 1536 1658 1643 1527 1650 1760
8 1521 1399 1529 1645 1644 1528 1651 1761
8 1647 1530 1652 1762 1525 1404 1529 1645
8 1401 1523 1648 1532 1531 1646 1763 1655
8 1525 1404 1533 1649 1647 1530 1654 1765
8 1533 1649 1766 1656 1403 1526 1648 1532
8 1662 1542 1658 1774 1539 1414 1535 1657
8 1542 1415 1543 1664 1658 1536 1659 1775
8 1660 1540 1663 1777 1538 1413 1541 1661
8 1545 1421 1548 1666 1660 1540 1663 1777
8 1662 1542 1414 1539 1778 1664 1541 1661
8 1664 1543 1416 1541 1779 1665 1544 1663
8 1548 1425 1550 1668 1663 1544 1665 1779
8 1547 1423 1549 1667 1666 1548 1668 1781
8 1670 1551 1668 1781 1553 1427 1549 1667
8 1551 1426 1552 1671 1668 1550 1669 1782
8 1670 1551 1427 1553 1784 1671 1554 1674
8 1675 1555 1672 1785 1554 1428 1552 1671
8 1678 1556 1673 1789 1558 1429 1555 1675
8 1561 1431 1558 1681 1674 1554 1675 1790
8 1794 1677 1556 1678 1680 1557 1429 1558
8 1560 1430 1559 1683 1680 1557 1679 1797
8 1561 1431 1560 1684 1681 1558 1680 1798
8 1563 1433 1564 1686 1683 1559 1682 1800
8 1684 1560 1432 1562 1801 1683 1563 1685
8 1565 1435 1566 1688 1685 1563 1686 1802
8 1566 1436 1567 1689 1686 1564 1687 1803
8 1568 1438 1569 1691 1688 1566 1689 1805
8 1569 1439 1570 1692 1689 1567 1690 1806
8 1571 1441 1572 1694 1691 1569 1692 1808
8 1442 1572 1692 1570 1573 1695 1809 1693
8 1574 1444 1575 1696 1694 1572 1695 1810
8 1614 1485 1592 1712 1699 1577 1697 1813
8 1579 1449 1577 1699 1701 1578 1698 1815
8 1615 1486 1614 1735 1702 1579 1699 1816
8 1701 1578 1700 1818 1581 1450 1580 1704
8 1582 1451 1579 1702 1705 1581 1701 1819
8 1704 1580 1703 1820 1584 1452 1583 1706
8 1705 1581 1704 1821 1585 1453 1584 1707
8 1707 1584 1706 1822 1587 1456 1586 1708
8 1710 1589 1506 1633 1824 1709 1632 1751
8 1594 1463 1589 1710 1716 1593 1709 1824
8 1752 1633 1710 1825 1634 1507 1590 1711
8 1595 1464 1590 1711 1717 1594 1710 1825
8 1830 1714 1592 1712 1733 1611 1485 1614
8 1603 1477 1593 1716 1725 1607 1715 1834
8 1599 1473 1594 1717 1721 1603 1716 1835
8 1837 1722 1623 1736 1718 1600 1496 1616
8 1719 1601 1722 1837 1597 1471 1600 1718
8 1602 1720 1598 1472 1723 1838 1719 1601
8 1720 1602 1473 1599 1839 1724 1603 1721
8 1723 1605 1726 1840 1601 1475 1604 1722
8 1840 1726 1628 1743 1722 1604 1501 1623
8 1724 1606 1727 1841 1602 1476 1605 1723
8 1725 1607 1728 1842 1603 1477 1606 1724
8 1612 1482 1608 1731 1733 1611 1730 1849
8 1741 1627 1730 1849 1622 1504 1608 1731
8 1613 1483 1609 1732 1734 1612 1731 1850
8 1618 1495 1622 1738 1732 1609 1731 1850
8 1615 1486 1612 1734 1735 1614 1733 1851
8 1852 1743 1626 1737 1736 1623 1499 1617
8 1853 1745 1625 1739 1737 1626 1500 1619
8 1855 1742 1622 1738 1740 1624 1497 1621
8 1856 1744 1624 1740 1739 1625 1498 1620
8 1741 1627 1504 1622 1857 1746 1631 1742
8 1742 1631 1505 1624 1858 1749 1630 1744
8 1859 1747 1629 1745 1743 1628 1502 1626
8 1860 1748 1630 1744 1745 1629 1503 1625
8 1644 1528 1651 1761 1751 1632 1750 1865
8 1637 1520 1644 1755 1752 1633 1751 1866
8 1754 1646 1522 1636 1867 1760 1643 1753
8 1657 1535 1658 1774 1753 1643 1760 1867
8 1639 1523 1646 1754 1756 1648 1763 1868
8 1641 1521 1645 1758 1755 1644 1761 1869
8 1757 1649 1526 1640 1870 1766 1648 1756
8 1642 1525 1649 1757 1759 1647 1765 1871
8 1759 1647 1762 1872 1642 1525 1645 1758
8 1760 1650 1767 1874 1646 1531 1655 1763
8 1658 1536 1659 1775 1760 1650 1767 1874
8 1762 1652 1768 1875 1645 1529 1651 1761
8 1764 1653 1769 1876 1647 1530 1652 1762
8 1656 1766 1877 1773 1532 1648 1763 1655
8 1771 1879 1765 1654 1653 1764 1647 1530
8 1533 1649 1765 1654 1656 1766 1880 1772
8 1662 1542 1664 1778 1774 1658 1775 1887
8 1664 1543 1665 1779 1775 1659 1776 1888
8 1778 1664 1541 1661 1890 1779 1663 1777
8 1666 1548 1668 1781 1777 1663 1779 1890
8 1782 1669 1780 1891 1668 1550 1665 1779
8 1670 1551 1671 1784 1781 1668 1782 1893
8 1671 1552 1672 1785 1782 1669 1783 1894
8 1790 1675 1785 1896 1674 1554 1671 1784
8 1675 1555 1673 1789 1785 1672 1786 1897
8 1792 1676 1788 1903 1678 1556 1673 1789
8 1795 1678 1789 1904 1681 1558 1675 1790
8 1792 1676 1556 1678 1906 1791 1677 1794
8 1680 1557 1679 1797 1794 1677 1793 1909
8 1910 1794 1678 1795 1798 1680 1558 1681
8 1683 1559 1682 1800 1797 1679 1796 1912
8 1684 1560 1683 1801 1798 1680 1797 1913
8 1686 1564 1687 1803 1800 1682 1799 1915
8 1685 1563 1686 1802 1801 1683 1800 1916
8 1688 1566 1689 1805 1802 1686 1803 1917
8 1689 1567 1690 1806 1803 1687 1804 1918
8 1691 1569 1692 1808 1805 1689 1806 1920
8 1692 1570 1693 1809 1806 1690 1807 1921
8 1694 1572 1695 1810 1808 1692 1809 1922
8 1829 1713 1811 1926 1712 1592 1697 1813
8 1813 1697 1812 1928 1699 1577 1698 1815
8 1735 1614 1712 1828 1816 1699 1813 1929
8 1815 1698 1814 1931 1701 1578 1700 1818
8 1702 1579 1699 1816 1819 1701 1815 1932
8 1818 1700 1817 1933 1704 1580 1703 1820
8 1819 1701 1818 1934 1705 1581 1704 1821
8 1821 1704 1820 1935 1707 1584 1706 1822
8 1824 1709 1632 1751 1937 1823 1750 1865
8 1716 1593 1709 1824 1834 1715 1823 1937
8 1825 1710 1633 1752 1938 1824 1751 1866
8 1717 1594 1710 1825 1835 1716 1824 1938
8 1945 1830 1712 1828 1851 1733 1614 1735
8 1830 1714 1831 1946 1712 1592 1713 1829
8 1947 1832 1714 1830 1849 1730 1611 1733
8 1843 1729 1607 1725 1950 1833 1715 1834
8 1721 1603 1716 1835 1836 1725 1834 1951
8 1836 1725 1842 1953 1721 1603 1724 1839
8 1723 1838 1719 1601 1840 1954 1837 1722
8 1954 1840 1743 1852 1837 1722 1623 1736
8 1724 1839 1720 1602 1841 1955 1838 1723
8 1841 1727 1844 1956 1723 1605 1726 1840
8 1956 1844 1747 1859 1840 1726 1628 1743
8 1728 1842 1724 1606 1845 1957 1841 1727
8 1725 1607 1729 1843 1842 1728 1846 1958
8 1741 1627 1746 1857 1849 1730 1848 1965
8 1734 1612 1731 1850 1851 1733 1849 1966
8 1854 1741 1849 1966 1738 1622 1731 1850
8 1967 1859 1745 1853 1852 1743 1626 1737
8 1968 1860 1744 1856 1853 1745 1625 1739
8 1854 1741 1622 1738 1969 1857 1742 1855
8 1855 1742 1624 1740 1970 1858 1744 1856
8 1857 1746 1631 1742 1971 1861 1749 1858
8 1858 1749 1630 1744 1972 1863 1748 1860
8 1859 1747 1862 1973 1745 1629 1748 1860
8 1875 1768 1864 1977 1761 1651 1750 1865
8 1755 1644 1761 1869 1866 1751 1865 1978
8 1867 1760 1874 1979 1754 1646 1763 1868
8 1774 1658 1775 1887 1867 1760 1874 1979
8 1870 1766 1648 1756 1980 1877 1763 1868
8 1872 1762 1875 1981 1758 1645 1761 1869
8 1757 1649 1766 1870 1871 1765 1880 1982
8 1983 1879 1764 1873 1871 1765 1647 1759
8 1873 1764 1876 1984 1759 1647 1762 1872
8 1877 1773 1655 1763 1986 1881 1767 1874
8 1775 1659 1776 1888 1874 1767 1881 1986
8 1876 1769 1882 1987 1762 1652 1768 1875
8 1878 1770 1883 1988 1764 1653 1769 1876
8 1880 1772 1656 1766 1989 1886 1773 1877
8 1878 1770 1653 1764 1990 1884 1771 1879
8 1765 1654 1772 1880 1879 1771 1885 1991
8 1778 1664 1779 1890 1887 1775 1888 1997
8 1998 1889 1776 1888 1891 1780 1665 1779
8 1893 1782 1891 2000 1781 1668 1779 1890
8 1894 1783 1892 2001 1782 1669 1780 1891
8 1784 1671 1785 1896 1893 1782 1894 2003
8 1897 1786 1895 2004 1785 1672 1783 1894
8 1790 1675 1789 1904 1896 1785 1897 2006
8 1901 1787 1898 2007 1789 1673 1786 1897
8 1903 1788 1900 2013 1789 1673 1787 1901
8 1792 1676 1791 1906 1903 1788 1902 2016
8 1907 1792 1903 2017 1795 1678 1789 1904
8 1906 1791 1677 1794 2019 1905 1793 1909
8 1907 1792 1678 1795 2020 1906 1794 1910
8 1797 1679 1796 1912 1909 1793 1908 2022
8 1798 1680 1797 1913 1910 1794 1909 2023
8 1800 1682 1799 1915 1912 1796 1911 2025
8 1801 1683 1800 1916 1913 1797 1912 2026
8 1803 1687 1804 1918 1915 1799 1914 2028
8 1802 1686 1803 1917 1916 1800 1915 2029
8 1805 1689 1806 1920 1917 1803 1918 2030
8 1806 1690 1807 1921 1918 1804 1919 2031
8 1808 1692 1809 1922 1920 1806 1921 2032
8 1939 1826 1924 2037 1829 1713 1811 1926
8 1926 1811 1925 2039 1813 1697 1812 1928
8 1944 1829 1926 2040 1828 1712 1813 1929
8 1928 1812 1927 2042 1815 1698 1814 1931
8 1929 1813 1928 2043 1816 1699 1815 1932
8 1931 1814 1930 2044 1818 1700 1817 1933
8 1932 1815 1931 2045 1819 1701 1818 1934
8 1934 1818 1933 2046 1821 1704 1820 1935
8 2048 1936 1823 1937 1977 1864 1750 1865
8 1950 1833 1715 1834 2048 1936 1823 1937
8 1938 1824 1751 1866 2049 1937 1865 1978
8 1835 1716 1824 1938 1951 1834 1937 2049
8 1939 1826 1713 1829 2053 1942 1831 1946
8 1940 1827 1923 2035 2053 1942 1826 1939
8 1945 1830 1946 2058 1828 1712 1829 1944
8 2059 1947 1830 1945 1966 1849 1733 1851
8 1947 1832 1730 1849 2060 1948 1848 1965
8 1947 1832 1948 2060 1830 1714 1831 1946
8 1959 1847 1729 1843 2063 1949 1833 1950
8 1952 1843 1725 1836 2064 1950 1834 1951
8 1836 1725 1843 1952 1953 1842 1958 2066
8 1953 1842 1957 2067 1839 1724 1841 1955
8 1841 1955 1838 1723 1956 2068 1954 1840
8 2068 1956 1859 1967 1954 1840 1743 1852
8 1956 1844 1960 2069 1859 1747 1862 1973
8 1845 1957 1841 1727 1960 2069 1956 1844
8 1728 1842 1957 1845 1846 1958 2071 1961
8 1962 2072 1959 1847 1846 1958 1843 1729
8 1971 1861 1964 2077 1857 1746 1848 1965
8 1854 1741 1857 1969 1966 1849 1965 2078
8 1967 1859 1973 2079 1853 1745 1860 1968
8 1970 1858 1744 1856 2080 1972 1860 1968
8 1969 1857 1742 1855 2081 1971 1858 1970
8 1971 1861 1749 1858 2082 1974 1863 1972
8 1973 1862 1975 2083 1860 1748 1863 1972
8 1987 1882 1976 2086 1875 1768 1864 1977
8 1981 1875 1977 2087 1869 1761 1865 1978
8 1980 1877 1763 1868 2088 1986 1874 1979
8 1887 1775 1888 1997 1979 1874 1986 2088
8 1880 1982 2089 1989 1766 1870 1980 1877
8 1984 1876 1987 2090 1872 1762 1875 1981
8 1765 1871 1983 1879 1880 1982 2091 1991
8 1985 1878 1764 1873 2092 1990 1879 1983
8 1985 1878 1988 2093 1873 1764 1876 1984
8 2094 1992 1881 1986 1998 1889 1776 1888
8 1986 1881 1992 2094 1877 1773 1886 1989
8 1988 1883 1993 2095 1876 1769 1882 1987
8 1878 1770 1884 1990 1988 1883 1994 2096
8 1991 1885 1772 1880 2097 1996 1886 1989
8 1879 1771 1885 1991 1990 1884 1995 2098
8 2103 1998 1888 1997 2000 1891 1779 1890
8 2104 1999 1889 1998 2001 1892 1780 1891
8 2003 1894 2001 2106 1893 1782 1891 2000
8 2004 1895 2002 2107 1894 1783 1892 2001
8 2006 1897 2004 2109 1896 1785 1894 2003
8 2007 1898 2005 2110 1897 1786 1895 2004
8 2014 1901 2007 2112 1904 1789 1897 2006
8 2011 1899 2008 2113 1901 1787 1898 2007
8 2119 2010 1899 2011 2013 1900 1787 1901
8 2016 1902 2012 2122 1903 1788 1900 2013
8 2017 1903 2013 2123 1904 1789 1901 2014
8 1906 1791 1905 2019 2016 1902 2015 2125
8 1907 1792 1906 2020 2017 1903 2016 2126
8 1909 1793 1908 2022 2019 1905 2018 2128
8 2020 1906 1794 1910 2129 2019 1909 2023
8 1912 1796 1911 2025 2022 1908 2021 2131
8 1913 1797 1912 2026 2023 1909 2022 2132
8 1915 1799 1914 2028 2025 1911 2024 2134
8 1916 1800 1915 2029 2026 1912 2025 2135
8 1918 1804 1919 2031 2028 1914 2027 2136
8 1917 1803 1918 2030 2029 1915 2028 2137
8 1920 1806 1921 2032 2030 1918 2031 2138
8 1940 1827 1941 2054 2035 1923 2033 2140
8 2035 1923 2034 2143 1939 1826 1924 2037
8 2037 1924 2036 2146 1926 1811 1925 2039
8 2051 1939 2037 2147 1944 1829 1926 2040
8 2039 1925 2038 2149 1928 1812 1927 2042
8 2040 1926 2039 2150 1929 1813 1928 2043
8 2042 1927 2041 2151 1931 1814 1930 2044
8 2043 1928 2042 2152 1932 1815 1931 2045
8 2045 1931 2044 2153 1934 1818 1933 2046
8 2155 2047 1936 2048 2086 1976 1864 1977
8 2063 1949 1833 1950 2155 2047 1936 2048
8 2156 2048 1937 2049 2087 1977 1865 1978
8 2064 1950 1834 1951 2156 2048 1937 2049
8 2051 1939 1829 1944 2160 2053 1946 2058
8 2052 1940 2035 2144 2160 2053 1939 2051
8 2053 1942 1831 1946 2163 2057 1948 2060
8 2055 1943 1827 1940 2163 2057 1942 2053
8 2055 1943 2056 2164 1940 1827 1941 2054
8 2059 1947 1849 1966 2167 2060 1965 2078
8 2059 1947 2060 2167 1945 1830 1946 2058
8 2077 1964 2061 2168 1965 1848 1948 2060
8 2070 1963 1847 1959 2170 2062 1949 2063
8 2065 1959 1843 1952 2171 2063 1950 2064
8 2173 2072 1958 2066 2065 1959 1843 1952
8 1953 1842 1958 2066 2067 1957 2071 2174
8 2068 1956 2069 2175 1967 1859 1973 2079
8 2067 1957 2069 2175 1955 1841 1956 2068
8 1845 1957 2069 1960 1961 2071 2176 2073
8 2069 1960 2073 2176 1973 1862 1975 2083
8 2070 1963 2075 2177 1959 1847 1962 2072
8 1846 1958 2071 1961 1962 2072 2178 2074
8 2077 1964 1861 1971 2182 2076 1974 2082
8 2081 1971 2077 2183 1969 1857 1965 2078
8 2079 1973 2083 2184 1968 1860 1972 2080
8 2081 1971 1858 1970 2185 2082 1972 2080
8 2083 1975 2084 2186 1972 1863 1974 2082
8 2086 1976 1882 1987 2189 2085 1993 2095
8 2090 1987 2086 2190 1981 1875 1977 2087
8 2191 2094 1986 2088 2103 1998 1888 1997
8 2088 1986 2094 2191 1980 1877 1989 2089
8 1991 2091 2192 2097 1880 1982 2089 1989
8 2093 1988 2095 2193 1984 1876 1987 2090
8 1879 1983 2092 1990 1991 2091 2194 2098
8 1985 1878 1990 2092 2093 1988 2096 2195
8 2097 1996 1886 1989 2196 2099 1992 2094
8 2196 2099 1992 2094 2104 1999 1889 1998
8 1994 2096 1988 1883 2100 2197 2095 1993
8 2096 1994 1884 1990 2198 2101 1995 2098
8 1995 2098 2199 2102 1885 1991 2097 1996
8 2203 2104 1998 2103 2106 2001 1891 2000
8 2107 2002 2105 2204 2001 1892 1999 2104
8 2109 2004 2107 2206 2003 1894 2001 2106
8 2110 2005 2108 2207 2004 1895 2002 2107
8 2112 2007 2110 2209 2006 1897 2004 2109
8 2113 2008 2111 2210 2007 1898 2005 2110
8 2120 2011 2113 2212 2014 1901 2007 2112
8 2117 2009 2114 2213 2011 1899 2008 2113
8 2219 2116 2009 2117 2119 2010 1899 2011
8 2222 2118 2010 2119 2122 2012 1900 2013
8 2223 2119 2011 2120 2123 2013 1901 2014
8 2016 1902 2015 2125 2122 2012 2121 2225
8 2126 2016 2122 2226 2017 1903 2013 2123
8 2019 1905 2018 2128 2125 2015 2124 2228
8 2020 1906 2019 2129 2126 2016 2125 2229
8 2022 1908 2021 2131 2128 2018 2127 2231
8 2023 1909 2022 2132 2129 2019 2128 2232
8 2025 1911 2024 2134 2131 2021 2130 2234
8 2026 1912 2025 2135 2132 2022 2131 2235
8 1914 2028 2134 2024 2027 2136 2236 2133
8 2029 1915 2028 2137 2135 2025 2134 2237
8 2030 1918 2031 2138 2137 2028 2136 2238
8 2157 2050 2139 2240 2054 1941 2033 2140
8 2052 1940 2054 2161 2144 2035 2140 2242
8 2140 2033 2141 2243 2035 1923 2034 2143
8 2143 2034 2142 2246 2037 1924 2036 2146
8 2144 2035 2143 2247 2051 1939 2037 2147
8 2146 2036 2145 2249 2039 1925 2038 2149
8 2147 2037 2146 2250 2040 1926 2039 2150
8 2149 2038 2148 2251 2042 1927 2041 2151
8 2150 2039 2149 2252 2043 1928 2042 2152
8 2152 2042 2151 2253 2045 1931 2044 2153
8 2255 2154 2047 2155 2189 2085 1976 2086
8 2170 2062 1949 2063 2255 2154 2047 2155
8 2256 2155 2048 2156 2190 2086 1977 2087
8 2171 2063 1950 2064 2256 2155 2048 2156
8 2258 2159 2050 2157 2164 2056 1941 2054
8 2160 2053 1946 2058 2262 2163 2060 2167
8 2162 2055 1940 2052 2262 2163 2053 2160
8 2162 2055 2164 2263 2052 1940 2054 2161
8 2163 2057 1948 2060 2264 2165 2061 2168
8 2055 1943 2057 2163 2164 2056 2165 2264
8 2182 2076 2166 2268 2077 1964 2061 2168
8 2183 2077 2168 2269 2078 1965 2060 2167
8 2070 1963 2062 2170 2177 2075 2169 2271
8 2172 2070 1959 2065 2272 2170 2063 2171
8 2172 2070 2177 2273 2065 1959 2072 2173
8 2066 1958 2072 2173 2174 2071 2178 2274
8 2067 1957 2071 2174 2175 2069 2176 2275
8 2175 2069 2176 2275 2079 1973 2083 2184
8 2071 1961 2074 2178 2176 2073 2179 2276
8 2176 2073 2179 2276 2083 1975 2084 2186
8 2072 1962 2075 2177 2178 2074 2180 2277
8 2182 2076 1974 2082 2280 2181 2084 2186
8 2183 2077 1971 2081 2281 2182 2082 2185
8 2184 2083 2186 2282 2080 1972 2082 2185
8 2189 2085 1993 2095 2285 2188 2100 2197
8 2190 2086 1987 2090 2286 2189 2095 2193
8 2192 2097 1989 2089 2287 2196 2094 2191
8 2287 2196 2094 2191 2203 2104 1998 2103
8 2194 2098 1991 2091 2288 2199 2097 2192
8 2195 2096 2197 2289 2093 1988 2095 2193
8 2096 2195 2290 2198 1990 2092 2194 2098
8 2097 1996 2099 2196 2199 2102 2200 2291
8 2196 2099 1999 2104 2291 2200 2105 2204
8 2100 2197 2292 2201 1994 2096 2198 2101
8 1995 2098 2198 2101 2102 2199 2293 2202
8 2206 2107 2204 2296 2106 2001 2104 2203
8 2207 2108 2205 2297 2107 2002 2105 2204
8 2209 2110 2207 2299 2109 2004 2107 2206
8 2210 2111 2208 2300 2110 2005 2108 2207
8 2212 2113 2210 2302 2112 2007 2110 2209
8 2213 2114 2211 2303 2113 2008 2111 2210
8 2220 2117 2213 2305 2120 2011 2113 2212
8 2216 2115 2214 2306 2117 2009 2114 2213
8 2216 2115 2009 2117 2311 2217 2116 2219
8 2219 2116 2010 2119 2314 2218 2118 2222
8 2315 2219 2117 2220 2223 2119 2011 2120
8 2122 2012 2121 2225 2222 2118 2221 2317
8 2318 2222 2119 2223 2226 2122 2013 2123
8 2125 2015 2124 2228 2225 2121 2224 2320
8 2126 2016 2125 2229 2226 2122 2225 2321
8 2128 2018 2127 2231 2228 2124 2227 2323
8 2129 2019 2128 2232 2229 2125 2228 2324
8 2131 2021 2130 2234 2231 2127 2230 2326
8 2132 2022 2131 2235 2232 2128 2231 2327
8 2134 2024 2133 2236 2234 2130 2233 2328
8 2135 2025 2134 2237 2235 2131 2234 2329
8 2137 2028 2136 2238 2237 2134 2236 2330
8 2157 2050 2158 2259 2240 2139 2239 2332
8 2257 2157 2240 2334 2161 2054 2140 2242
8 2240 2139 2241 2335 2140 2033 2141 2243
8 2242 2140 2243 2337 2144 2035 2143 2247
8 2243 2141 2244 2338 2143 2034 2142 2246
8 2246 2142 2245 2341 2146 2036 2145 2249
8 2247 2143 2246 2342 2147 2037 2146 2250
8 2249 2145 2248 2343 2149 2038 2148 2251
8 2250 2146 2249 2344 2150 2039 2149 2252
8 2252 2149 2251 2345 2152 2042 2151 2253
8 2169 2271 2347 2254 2062 2170 2255 2154
8 2189 2085 2188 2285 2255 2154 2254 2347
8 2348 2255 2155 2256 2286 2189 2086 2190
8 2272 2170 2063 2171 2348 2255 2155 2256
8 2349 2258 2157 2257 2263 2164 2054 2161
8 2258 2159 2261 2351 2157 2050 2158 2259
8 2258 2159 2056 2164 2351 2261 2165 2264
8 2262 2163 2060 2167 2355 2264 2168 2269
8 2162 2055 2163 2262 2263 2164 2264 2355
8 2357 2266 2165 2264 2268 2166 2061 2168
8 2268 2166 2076 2182 2361 2267 2181 2280
8 2281 2182 2268 2362 2183 2077 2168 2269
8 2271 2169 2270 2364 2177 2075 2180 2277
8 2172 2070 2170 2272 2273 2177 2271 2365
8 2072 2173 2274 2178 2177 2273 2366 2277
8 2071 2174 2275 2176 2178 2274 2367 2276
8 2275 2176 2276 2367 2184 2083 2186 2282
8 2283 2187 2084 2186 2368 2278 2179 2276
8 2178 2074 2180 2277 2276 2179 2278 2368
8 2283 2187 2279 2370 2186 2084 2181 2280
8 2281 2182 2082 2185 2371 2280 2186 2282
8 2188 2285 2374 2284 2100 2197 2292 2201
8 2286 2189 2095 2193 2375 2285 2197 2289
8 2192 2097 2196 2287 2288 2199 2291 2376
8 2287 2196 2104 2203 2376 2291 2204 2296
8 2194 2098 2199 2288 2290 2198 2293 2377
8 2289 2197 2096 2195 2378 2292 2198 2290
8 2291 2200 2105 2204 2379 2294 2205 2297
8 2199 2102 2200 2291 2293 2202 2294 2379
8 2198 2101 2202 2293 2292 2201 2295 2380
8 2299 2207 2297 2383 2206 2107 2204 2296
8 2300 2208 2298 2384 2207 2108 2205 2297
8 2302 2210 2300 2386 2209 2110 2207 2299
8 2303 2211 2301 2387 2210 2111 2208 2300
8 2305 2213 2303 2389 2212 2113 2210 2302
8 2306 2214 2304 2390 2213 2114 2211 2303
8 2310 2216 2306 2392 2220 2117 2213 2305
8 2308 2215 2307 2393 2216 2115 2214 2306
8 2308 2215 2115 2216 2396 2309 2217 2311
8 2310 2216 2117 2220 2398 2311 2219 2315
8 2311 2217 2116 2219 2399 2312 2218 2314
8 2314 2218 2118 2222 2402 2313 2221 2317
8 2315 2219 2119 2223 2403 2314 2222 2318
8 2225 2121 2224 2320 2317 2221 2316 2405
8 2226 2122 2225 2321 2318 2222 2317 2406
8 2228 2124 2227 2323 2320 2224 2319 2408
8 2229 2125 2228 2324 2321 2225 2320 2409
8 2231 2127 2230 2326 2323 2227 2322 2411
8 2232 2128 2231 2327 2324 2228 2323 2412
8 2234 2130 2233 2328 2326 2230 2325 2413
8 2235 2131 2234 2329 2327 2231 2326 2414
8 2237 2134 2236 2330 2329 2234 2328 2415
8 2259 2158 2260 2352 2332 2239 2331 2417
8 2257 2157 2259 2350 2334 2240 2332 2419
8 2240 2139 2239 2332 2335 2241 2333 2420
8 2334 2240 2335 2422 2242 2140 2243 2337
8 2335 2241 2336 2423 2243 2141 2244 2338
8 2337 2243 2338 2425 2247 2143 2246 2342
8 2338 2244 2339 2426 2246 2142 2245 2341
8 2341 2245 2340 2428 2249 2145 2248 2343
8 2342 2246 2341 2429 2250 2146 2249 2344
8 2344 2249 2343 2430 2252 2149 2251 2345
8 2188 2285 2347 2254 2284 2374 2432 2346
8 2347 2254 2346 2432 2271 2169 2270 2364
8 2365 2271 2170 2272 2433 2347 2255 2348
8 2286 2189 2285 2375 2348 2255 2347 2433
8 2349 2258 2351 2435 2257 2157 2259 2350
8 2349 2258 2164 2263 2435 2351 2264 2355
8 2259 2158 2261 2351 2352 2260 2354 2437
8 2356 2265 2354 2437 2264 2165 2261 2351
8 2441 2357 2264 2355 2362 2268 2168 2269
8 2356 2265 2165 2264 2442 2358 2266 2357
8 2443 2359 2266 2357 2361 2267 2166 2268
8 2370 2279 2360 2446 2280 2181 2267 2361
8 2362 2268 2182 2281 2447 2361 2280 2371
8 2180 2277 2368 2278 2270 2364 2449 2363
8 2271 2365 2273 2177 2364 2450 2366 2277
8 2372 2283 2186 2282 2451 2368 2276 2367
8 2178 2274 2367 2276 2277 2366 2451 2368
8 2283 2187 2278 2368 2370 2279 2369 2452
8 2372 2283 2370 2453 2282 2186 2280 2371
8 2284 2374 2455 2373 2201 2292 2380 2295
8 2375 2285 2197 2289 2456 2374 2292 2378
8 2376 2291 2204 2296 2457 2379 2297 2383
8 2288 2199 2291 2376 2377 2293 2379 2457
8 2198 2290 2378 2292 2293 2377 2458 2380
8 2293 2202 2294 2379 2380 2295 2381 2459
8 2384 2298 2381 2459 2297 2205 2294 2379
8 2386 2300 2384 2463 2299 2207 2297 2383
8 2387 2301 2385 2464 2300 2208 2298 2384
8 2389 2303 2387 2466 2302 2210 2300 2386
8 2390 2304 2388 2467 2303 2211 2301 2387
8 2392 2306 2390 2469 2305 2213 2303 2389
8 2393 2307 2391 2470 2306 2214 2304 2390
8 2395 2308 2393 2472 2310 2216 2306 2392
8 2308 2215 2309 2396 2393 2307 2394 2473
8 2395 2308 2216 2310 2475 2396 2311 2398
8 2396 2309 2217 2311 2476 2397 2312 2399
8 2398 2311 2219 2315 2478 2399 2314 2403
8 2399 2312 2218 2314 2479 2400 2313 2402
8 2317 2221 2316 2405 2402 2313 2401 2482
8 2403 2314 2222 2318 2483 2402 2317 2406
8 2320 2224 2319 2408 2405 2316 2404 2485
8 2321 2225 2320 2409 2406 2317 2405 2486
8 2323 2227 2322 2411 2408 2319 2407 2488
8 2324 2228 2323 2412 2409 2320 2408 2489
8 2326 2230 2325 2413 2411 2322 2410 2490
8 2327 2231 2326 2414 2412 2323 2411 2491
8 2329 2234 2328 2415 2414 2326 2413 2492
8 2417 2331 2260 2352 2494 2416 2353 2438
8 2350 2259 2352 2436 2419 2332 2417 2496
8 2332 2239 2331 2417 2420 2333 2418 2497
8 2334 2240 2332 2419 2422 2335 2420 2499
8 2420 2333 2421 2500 2335 2241 2336 2423
8 2422 2335 2423 2502 2337 2243 2338 2425
8 2423 2336 2424 2503 2338 2244 2339 2426
8 2425 2338 2426 2505 2342 2246 2341 2429
8 2426 2339 2427 2506 2341 2245 2340 2428
8 2429 2341 2428 2507 2344 2249 2343 2430
8 2432 2346 2284 2374 2509 2431 2373 2455
8 2432 2346 2431 2509 2364 2270 2363 2449
8 2375 2285 2374 2456 2433 2347 2432 2510
8 2347 2433 2365 2271 2432 2510 2450 2364
8 2350 2259 2351 2435 2436 2352 2437 2514
8 2440 2356 2437 2514 2355 2264 2351 2435
8 2352 2260 2354 2437 2438 2353 2439 2516
8 2356 2265 2358 2442 2437 2354 2439 2516
8 2440 2356 2264 2355 2518 2442 2357 2441
8 2519 2443 2357 2441 2447 2361 2268 2362
8 2443 2359 2444 2520 2357 2266 2358 2442
8 2443 2359 2267 2361 2520 2444 2360 2446
8 2446 2360 2279 2370 2523 2445 2369 2452
8 2453 2370 2446 2524 2371 2280 2361 2447
8 2449 2363 2448 2525 2368 2278 2369 2452
8 2366 2277 2364 2450 2451 2368 2449 2526
8 2372 2283 2368 2451 2453 2370 2452 2527
8 2455 2373 2295 2380 2529 2454 2382 2460
8 2456 2374 2292 2378 2530 2455 2380 2458
8 2377 2293 2379 2457 2458 2380 2459 2531
8 2463 2384 2459 2531 2383 2297 2379 2457
8 2533 2461 2382 2460 2459 2381 2295 2380
8 2464 2385 2461 2533 2384 2298 2381 2459
8 2466 2387 2464 2537 2386 2300 2384 2463
8 2467 2388 2465 2538 2387 2301 2385 2464
8 2469 2390 2467 2540 2389 2303 2387 2466
8 2470 2391 2468 2541 2390 2304 2388 2467
8 2472 2393 2470 2543 2392 2306 2390 2469
8 2393 2307 2394 2473 2470 2391 2471 2544
8 2395 2308 2396 2475 2472 2393 2473 2546
8 2396 2309 2397 2476 2473 2394 2474 2547
8 2475 2396 2311 2398 2549 2476 2399 2478
8 2476 2397 2312 2399 2550 2477 2400 2479
8 2478 2399 2314 2403 2552 2479 2402 2483
8 2479 2400 2313 2402 2553 2480 2401 2482
8 2405 2316 2404 2485 2482 2401 2481 2556
8 2406 2317 2405 2486 2483 2402 2482 2557
8 2408 2319 2407 2488 2485 2404 2484 2559
8 2409 2320 2408 2489 2486 2405 2485 2560
8 2411 2322 2410 2490 2488 2407 2487 2561
8 2412 2323 2411 2491 2489 2408 2488 2562
8 2414 2326 2413 2492 2491 2411 2490 2563
8 2513 2434 2493 2565 2438 2353 2416 2494
8 2496 2417 2352 2436 2567 2494 2438 2515
8 2494 2416 2495 2568 2417 2331 2418 2497
8 2419 2332 2417 2496 2499 2420 2497 2570
8 2497 2418 2498 2571 2420 2333 2421 2500
8 2499 2420 2500 2573 2422 2335 2423 2502
8 2500 2421 2501 2574 2423 2336 2424 2503
8 2502 2423 2503 2576 2425 2338 2426 2505
8 2503 2424 2504 2577 2426 2339 2427 2506
8 2505 2426 2506 2578 2429 2341 2428 2507
8 2509 2431 2373 2455 2580 2508 2454 2529
8 2509 2431 2508 2580 2449 2363 2448 2525
8 2432 2510 2581 2509 2374 2456 2530 2455
8 2432 2510 2450 2364 2509 2581 2526 2449
8 2583 2511 2434 2513 2516 2439 2353 2438
8 2436 2352 2437 2514 2515 2438 2516 2588
8 2440 2356 2442 2518 2514 2437 2516 2588
8 2442 2358 2444 2520 2516 2439 2517 2589
8 2519 2443 2520 2591 2441 2357 2442 2518
8 2519 2443 2361 2447 2591 2520 2446 2524
8 2446 2360 2445 2523 2520 2444 2521 2592
8 2525 2448 2522 2593 2452 2369 2445 2523
8 2524 2446 2370 2453 2594 2523 2452 2527
8 2526 2449 2525 2595 2451 2368 2452 2527
8 2534 2462 2528 2597 2460 2382 2454 2529
8 2530 2455 2380 2458 2598 2529 2460 2532
8 2599 2533 2460 2532 2531 2459 2380 2458
8 2537 2464 2533 2599 2463 2384 2459 2531
8 2534 2462 2382 2460 2601 2535 2461 2533
8 2538 2465 2535 2601 2464 2385 2461 2533
8 2540 2467 2538 2604 2466 2387 2464 2537
8 2541 2468 2539 2605 2467 2388 2465 2538
8 2543 2470 2541 2607 2469 2390 2467 2540
8 2470 2391 2471 2544 2541 2468 2542 2608
8 2472 2393 2473 2546 2543 2470 2544 2610
8 2473 2394 2474 2547 2544 2471 2545 2611
8 2475 2396 2476 2549 2546 2473 2547 2613
8 2476 2397 2477 2550 2547 2474 2548 2614
8 2549 2476 2399 2478 2616 2550 2479 2552
8 2479 2400 2480 2553 2550 2477 2551 2617
8 2552 2479 2402 2483 2619 2553 2482 2557
8 2482 2401 2481 2556 2553 2480 2554 2620
8 2485 2404 2484 2559 2556 2481 2555 2623
8 2486 2405 2485 2560 2557 2482 2556 2624
8 2488 2407 2487 2561 2559 2484 2558 2625
8 2489 2408 2488 2562 2560 2485 2559 2626
8 2491 2411 2490 2563 2562 2488 2561 2627
8 2513 2434 2512 2585 2565 2493 2564 2630
8 2586 2513 2565 2632 2515 2438 2494 2567
8 2565 2493 2566 2633 2494 2416 2495 2568
8 2567 2494 2568 2635 2496 2417 2497 2570
8 2568 2495 2569 2636 2497 2418 2498 2571
8 2570 2497 2571 2638 2499 2420 2500 2573
8 2571 2498 2572 2639 2500 2421 2501 2574
8 2573 2500 2574 2641 2502 2423 2503 2576
8 2574 2501 2575 2642 2503 2424 2504 2577
8 2576 2503 2577 2643 2505 2426 2506 2578
8 2597 2528 2579 2645 2529 2454 2508 2580
8 2580 2508 2579 2645 2525 2448 2522 2593
8 2581 2509 2455 2530 2646 2580 2529 2598
8 2581 2509 2580 2646 2526 2449 2525 2595
8 2583 2511 2582 2648 2513 2434 2512 2585
8 2583 2511 2439 2516 2648 2582 2517 2589
8 2649 2583 2513 2586 2588 2516 2438 2515
8 2589 2517 2444 2520 2653 2587 2521 2592
8 2518 2442 2520 2591 2588 2516 2589 2654
8 2593 2522 2590 2655 2523 2445 2521 2592
8 2524 2446 2523 2594 2591 2520 2592 2656
8 2595 2525 2593 2657 2527 2452 2523 2594
8 2602 2536 2596 2659 2534 2462 2528 2597
8 2600 2534 2597 2660 2532 2460 2529 2598
8 2600 2534 2460 2532 2661 2601 2533 2599
8 2604 2538 2601 2661 2537 2464 2533 2599
8 2602 2536 2462 2534 2663 2603 2535 2601
8 2601 2535 2465 2538 2663 2603 2539 2605
8 2607 2541 2605 2665 2540 2467 2538 2604
8 2608 2542 2606 2666 2541 2468 2539 2605
8 2543 2470 2544 2610 2607 2541 2608 2668
8 2544 2471 2545 2611 2608 2542 2609 2669
8 2546 2473 2547 2613 2610 2544 2611 2671
8 2547 2474 2548 2614 2611 2545 2612 2672
8 2549 2476 2550 2616 2613 2547 2614 2674
8 2550 2477 2551 2617 2614 2548 2615 2675
8 2552 2479 2553 2619 2616 2550 2617 2677
8 2553 2480 2554 2620 2617 2551 2618 2678
8 2557 2482 2556 2624 2619 2553 2620 2680
8 2556 2481 2555 2623 2620 2554 2621 2681
8 2559 2484 2558 2625 2623 2555 2622 2683
8 2560 2485 2559 2626 2624 2556 2623 2684
8 2562 2488 2561 2627 2626 2559 2625 2685
8 2690 2629 2564 2630 2650 2584 2512 2585
8 2586 2513 2585 2651 2632 2565 2630 2691
8 2630 2564 2631 2692 2565 2493 2566 2633
8 2632 2565 2633 2694 2567 2494 2568 2635
8 2633 2566 2634 2695 2568 2495 2569 2636
8 2635 2568 2636 2697 2570 2497 2571 2638
8 2636 2569 2637 2698 2571 2498 2572 2639
8 2638 2571 2639 2700 2573 2500 2574 2641
8 2639 2572 2640 2701 2574 2501 2575 2642
8 2641 2574 2642 2702 2576 2503 2577 2643
8 2597 2528 2596 2659 2645 2579 2644 2704
8 2645 2579 2644 2704 2593 2522 2590 2655
8 2660 2597 2645 2705 2598 2529 2580 2646
8 2646 2580 2645 2705 2595 2525 2593 2657
8 2650 2584 2512 2585 2707 2647 2582 2648
8 2648 2582 2517 2589 2707 2647 2587 2653
8 2649 2583 2648 2708 2586 2513 2585 2651
8 2649 2583 2516 2588 2708 2648 2589 2654
8 2655 2590 2652 2710 2592 2521 2587 2653
8 2654 2589 2520 2591 2711 2653 2592 2656
8 2657 2593 2655 2712 2594 2523 2592 2656
8 2602 2536 2603 2663 2659 2596 2658 2714
8 2662 2602 2659 2715 2600 2534 2597 2660
8 2662 2602 2534 2600 2717 2663 2601 2661
8 2661 2601 2538 2604 2717 2663 2605 2665
8 2666 2606 2664 2718 2605 2539 2603 2663
8 2668 2608 2666 2720 2607 2541 2605 2665
8 2608 2542 2609 2669 2666 2606 2667 2721
8 2610 2544 2611 2671 2668 2608 2669 2723
8 2611 2545 2612 2672 2669 2609 2670 2724
8 2613 2547 2614 2674 2671 2611 2672 2726
8 2614 2548 2615 2675 2672 2612 2673 2727
8 2616 2550 2617 2677 2674 2614 2675 2729
8 2617 2551 2618 2678 2675 2615 2676 2730
8 2619 2553 2620 2680 2677 2617 2678 2732
8 2620 2554 2621 2681 2678 2618 2679 2733
8 2624 2556 2623 2684 2680 2620 2681 2735
8 2681 2621 2555 2623 2736 2682 2622 2683
8 2626 2559 2625 2685 2684 2623 2683 2737
8 2688 2628 2584 2650 2740 2686 2647 2707
8 2688 2628 2687 2742 2650 2584 2629 2690
8 2690 2629 2689 2745 2630 2564 2631 2692
8 2746 2690 2630 2691 2709 2650 2585 2651
8 2691 2630 2692 2747 2632 2565 2633 2694
8 2692 2631 2693 2748 2633 2566 2634 2695
8 2694 2633 2695 2750 2635 2568 2636 2697
8 2695 2634 2696 2751 2636 2569 2637 2698
8 2697 2636 2698 2753 2638 2571 2639 2700
8 2698 2637 2699 2754 2639 2572 2640 2701
8 2700 2639 2701 2755 2641 2574 2642 2702
8 2659 2596 2658 2714 2704 2644 2703 2757
8 2704 2644 2703 2757 2655 2590 2652 2710
8 2660 2597 2659 2715 2705 2645 2704 2758
8 2705 2645 2704 2758 2657 2593 2655 2712
8 2759 2706 2647 2707 2710 2652 2587 2653
8 2709 2650 2585 2651 2760 2707 2648 2708
8 2708 2648 2589 2654 2760 2707 2653 2711
8 2712 2655 2710 2761 2656 2592 2653 2711
8 2763 2713 2658 2714 2718 2664 2603 2663
8 2662 2602 2663 2717 2715 2659 2714 2764
8 2720 2666 2718 2767 2665 2605 2663 2717
8 2768 2719 2664 2718 2721 2667 2606 2666
8 2668 2608 2669 2723 2720 2666 2721 2770
8 2669 2609 2670 2724 2721 2667 2722 2771
8 2671 2611 2672 2726 2723 2669 2724 2773
8 2672 2612 2673 2727 2724 2670 2725 2774
8 2674 2614 2675 2729 2726 2672 2727 2776
8 2675 2615 2676 2730 2727 2673 2728 2777
8 2677 2617 2678 2732 2729 2675 2730 2779
8 2678 2618 2679 2733 2730 2676 2731 2780
8 2680 2620 2681 2735 2732 2678 2733 2782
8 2733 2679 2621 2681 2783 2734 2682 2736
8 2735 2681 2623 2684 2784 2736 2683 2737
8 2740 2686 2647 2707 2787 2738 2706 2759
8 2688 2628 2686 2740 2742 2687 2739 2789
8 2743 2688 2650 2709 2790 2740 2707 2760
8 2742 2687 2741 2792 2690 2629 2689 2745
8 2743 2688 2742 2793 2709 2650 2690 2746
8 2745 2689 2744 2795 2692 2631 2693 2748
8 2746 2690 2745 2796 2691 2630 2692 2747
8 2747 2692 2748 2797 2694 2633 2695 2750
8 2748 2693 2749 2798 2695 2634 2696 2751
8 2750 2695 2751 2800 2697 2636 2698 2753
8 2751 2696 2752 2801 2698 2637 2699 2754
8 2753 2698 2754 2802 2700 2639 2701 2755
8 2763 2713 2756 2804 2714 2658 2703 2757
8 2759 2706 2652 2710 2804 2756 2703 2757
8 2715 2659 2714 2764 2758 2704 2757 2805
8 2758 2704 2757 2805 2712 2655 2710 2761
8 2806 2759 2707 2760 2761 2710 2653 2711
8 2765 2716 2762 2808 2718 2664 2713 2763
8 2809 2763 2714 2764 2767 2718 2663 2717
8 2765 2716 2664 2718 2811 2766 2719 2768
8 2813 2768 2718 2767 2770 2721 2666 2720
8 2814 2769 2719 2768 2771 2722 2667 2721
8 2723 2669 2724 2773 2770 2721 2771 2816
8 2724 2670 2725 2774 2771 2722 2772 2817
8 2726 2672 2727 2776 2773 2724 2774 2819
8 2727 2673 2728 2777 2774 2725 2775 2820
8 2729 2675 2730 2779 2776 2727 2777 2822
8 2730 2676 2731 2780 2777 2728 2778 2823
8 2732 2678 2733 2782 2779 2730 2780 2825
8 2780 2731 2679 2733 2826 2781 2734 2783
8 2782 2733 2681 2735 2827 2783 2736 2784
8 2830 2785 2738 2787 2804 2756 2706 2759
8 2789 2739 2686 2740 2832 2786 2738 2787
8 2790 2740 2707 2760 2833 2787 2759 2806
8 2742 2687 2739 2789 2792 2741 2788 2835
8 2743 2688 2740 2790 2793 2742 2789 2836
8 2792 2741 2791 2838 2745 2689 2744 2795
8 2793 2742 2792 2839 2746 2690 2745 2796
8 2795 2744 2794 2841 2748 2693 2749 2798
8 2796 2745 2795 2842 2747 2692 2748 2797
8 2797 2748 2798 2843 2750 2695 2751 2800
8 2798 2749 2799 2844 2751 2696 2752 2801
8 2800 2751 2801 2845 2753 2698 2754 2802
8 2808 2762 2803 2847 2763 2713 2756 2804
8 2809 2763 2804 2848 2764 2714 2757 2805
8 2806 2759 2710 2761 2848 2804 2757 2805
8 2765 2716 2766 2811 2808 2762 2807 2850
8 2810 2765 2808 2851 2767 2718 2763 2809
8 2810 2765 2718 2767 2852 2811 2768 2813
8 2811 2766 2719 2768 2853 2812 2769 2814
8 2855 2814 2768 2813 2816 2771 2721 2770
8 2856 2815 2769 2814 2817 2772 2722 2771
8 2773 2724 2774 2819 2816 2771 2817 2858
8 2774 2725 2775 2820 2817 2772 2818 2859
8 2776 2727 2777 2822 2819 2774 2820 2861
8 2777 2728 2778 2823 2820 2775 2821 2862
8 2779 2730 2780 2825 2822 2777 2823 2864
8 2823 2778 2731 2780 2865 2824 2781 2826
8 2825 2780 2733 2782 2866 2826 2783 2827
8 2869 2828 2785 2830 2847 2803 2756 2804
8 2871 2829 2786 2832 2830 2785 2738 2787
8 2872 2830 2787 2833 2848 2804 2759 2806
8 2789 2739 2786 2832 2835 2788 2831 2874
8 2836 2789 2740 2790 2875 2832 2787 2833
8 2792 2741 2788 2835 2838 2791 2834 2877
8 2793 2742 2789 2836 2839 2792 2835 2878
8 2838 2791 2837 2880 2795 2744 2794 2841
8 2839 2792 2838 2881 2796 2745 2795 2842
8 2841 2794 2840 2882 2798 2749 2799 2844
8 2842 2795 2841 2883 2797 2748 2798 2843
8 2843 2798 2844 2884 2800 2751 2801 2845
8 2886 2846 2803 2847 2850 2807 2762 2808
8 2851 2808 2847 2887 2809 2763 2804 2848
8 2850 2807 2766 2811 2889 2849 2812 2853
8 2810 2765 2811 2852 2851 2808 2850 2890
8 2852 2811 2768 2813 2891 2853 2814 2855
8 2853 2812 2769 2814 2892 2854 2815 2856
8 2894 2856 2814 2855 2858 2817 2771 2816
8 2817 2772 2818 2859 2856 2815 2857 2895
8 2819 2774 2820 2861 2858 2817 2859 2897
8 2820 2775 2821 2862 2859 2818 2860 2898
8 2822 2777 2823 2864 2861 2820 2862 2900
8 2823 2778 2824 2865 2862 2821 2863 2901
8 2864 2823 2780 2825 2902 2865 2826 2866
8 2904 2867 2828 2869 2886 2846 2803 2847
8 2869 2828 2868 2906 2830 2785 2829 2871
8 2907 2869 2830 2872 2887 2847 2804 2848
8 2871 2829 2870 2909 2832 2786 2831 2874
8 2910 2871 2832 2875 2872 2830 2787 2833
8 2835 2788 2831 2874 2877 2834 2873 2912
8 2836 2789 2832 2875 2878 2835 2874 2913
8 2877 2834 2876 2915 2838 2791 2837 2880
8 2839 2792 2835 2878 2881 2838 2877 2916
8 2880 2837 2879 2917 2841 2794 2840 2882
8 2881 2838 2880 2918 2842 2795 2841 2883
8 2883 2841 2882 2919 2843 2798 2844 2884
8 2921 2885 2846 2886 2889 2849 2807 2850
8 2922 2886 2847 2887 2890 2850 2808 2851
8 2889 2849 2812 2853 2924 2888 2854 2892
8 2890 2850 2811 2852 2925 2889 2853 2891
8 2891 2853 2814 2855 2926 2892 2856 2894
8 2892 2854 2815 2856 2927 2893 2857 2895
8 2858 2817 2859 2897 2894 2856 2895 2929
8 2859 2818 2860 2898 2895 2857 2896 2930
8 2861 2820 2862 2900 2897 2859 2898 2932
8 2862 2821 2863 2901 2898 2860 2899 2933
8 2864 2823 2865 2902 2900 2862 2901 2934
8 2904 2867 2846 2886 2936 2903 2885 2921
8 2904 2867 2903 2936 2869 2828 2868 2906
8 2937 2904 2869 2907 2922 2886 2847 2887
8 2906 2868 2905 2939 2871 2829 2870 2909
8 2907 2869 2906 2940 2872 2830 2871 2910
8 2909 2870 2908 2942 2874 2831 2873 2912
8 2910 2871 2909 2943 2875 2832 2874 2913
8 2912 2873 2911 2945 2877 2834 2876 2915
8 2878 2835 2874 2913 2916 2877 2912 2946
8 2915 2876 2914 2947 2880 2837 2879 2917
8 2916 2877 2915 2948 2881 2838 2880 2918
8 2918 2880 2917 2949 2883 2841 2882 2919
8 2921 2885 2849 2889 2951 2920 2888 2924
8 2952 2921 2886 2922 2925 2889 2850 2890
8 2924 2888 2854 2892 2954 2923 2893 2927
8 2925 2889 2853 2891 2955 2924 2892 2926
8 2926 2892 2856 2894 2956 2927 2895 2929
8 2895 2857 2896 2930 2927 2893 2928 2957
8 2897 2859 2898 2932 2929 2895 2930 2959
8 2898 2860 2899 2933 2930 2896 2931 2960
8 2900 2862 2901 2934 2932 2898 2933 2961
8 2936 2903 2885 2921 2963 2935 2920 2951
8 2936 2903 2935 2963 2906 2868 2905 2939
8 2937 2904 2886 2922 2964 2936 2921 2952
8 2937 2904 2936 2964 2907 2869 2906 2940
8 2939 2905 2938 2966 2909 2870 2908 2942
8 2940 2906 2939 2967 2910 2871 2909 2943
8 2942 2908 2941 2969 2912 2873 2911 2945
8 2943 2909 2942 2970 2913 2874 2912 2946
8 2945 2911 2944 2971 2915 2876 2914 2947
8 2946 2912 2945 2972 2916 2877 2915 2948
8 2948 2915 2947 2973 2918 2880 2917 2949
8 2951 2920 2888 2924 2975 2950 2923 2954
8 2952 2921 2889 2925 2976 2951 2924 2955
8 2927 2893 2928 2957 2954 2923 2953 2978
8 2955 2924 2892 2926 2979 2954 2927 2956
8 2929 2895 2930 2959 2956 2927 2957 2980
8 2930 2896 2931 2960 2957 2928 2958 2981
8 2932 2898 2933 2961 2959 2930 2960 2982
8 2951 2920 2950 2975 2963 2935 2962 2984
8 2963 2935 2962 2984 2939 2905 2938 2966
8 2964 2936 2921 2952 2985 2963 2951 2976
8 2964 2936 2963 2985 2940 2906 2939 2967
8 2966 2938 2965 2987 2942 2908 2941 2969
8 2967 2939 2966 2988 2943 2909 2942 2970
8 2969 2941 2968 2989 2945 2911 2944 2971
8 2970 2942 2969 2990 2946 2912 2945 2972
8 2972 2945 2971 2991 2948 2915 2947 2973
8 2954 2923 2953 2978 2975 2950 2974 2993
8 2976 2951 2924 2955 2994 2975 2954 2979
8 2957 2928 2958 2981 2978 2953 2977 2995
8 2956 2927 2957 2980 2979 2954 2978 2996
8 2959 2930 2960 2982 2980 2957 2981 2997
8 2984 2962 2983 2999 2966 2938 2965 2987
8 2975 2950 2974 2993 2984 2962 2983 2999
8 2976 2951 2975 2994 2985 2963 2984 3000
8 2985 2963 2984 3000 2967 2939 2966 2988
8 2987 2965 2986 3001 2969 2941 2968 2989
8 2988 2966 2987 3002 2970 2942 2969 2990
8 2990 2969 2989 3003 2972 2945 2971 2991
8 2978 2953 2977 2995 2993 2974 2992 3004
8 2979 2954 2978 2996 2994 2975 2993 3005
8 2980 2957 2981 2997 2996 2978 2995 3006
8 2974 2993 2999 2983 2992 3004 3007 2998
8 2983 2999 2987 2965 2998 3007 3001 2986
8 3000 2984 2999 3008 2988 2966 2987 3002
8 2994 2975 2993 3005 3000 2984 2999 3008
8 3002 2987 3001 3009 2990 2969 2989 3003
8 2996 2978 2995 3006 3005 2993 3004 3010
8 3005 2993 3004 3010 3008 2999 3007 3011
8 3008 2999 3007 3011 3002 2987 3001 3009

CELL_TYPES 1910
12
12
12
12
12
12
12
12
12
12
12
12
12
12
12
12
12
12
12
12
12
12
12
12
12
12
12
12
12
12
12
12
12
12
12
12
12
12
12
12
12
12
12
12
12
12
12
12
12
12
12
12
12
12
12
12
12
12
12
12
12
12
12
12
12
12
12
12
12
12
12
12
12
12
12
12
12
12
12
12
12
12
12
12
12
12
12
12
12
12
12
12
12
12
12
12
12
12
12
12
12
12
12
12
12
12
12
12
12
12
12
12
12
12
12
12
12
12
12
12
12
12
12
12
12
12
12
12
12
12
12
12
12
12
12
12
12
12
12
12
12
12
12
12
12
12
12
12
12
12
12
12
12
12
12
12
12
12
12
12
12
12
12
12
12
12
12
12
12
12
12
12
12
12
12
12
12
12
12
12
12
12
12
12
12
12
12
12
12
12
12
12
12
12
12
12
12
12
12
12
12
12
12
12
12
12
12
12
12
12
12
12
12
12
12
12
12
12
12
12
12
12
12
12
12
12
12
12
12
12
12
12
12
12
12
12
12
12
12
12
12
12
12
12
12
12
12
12
12
12
12
12
12
12
12
12
12
12
12
12
12
12
12
12
12
12
12
12
12
12
12
12
12
12
12
12
12
12
12
12
12
12
12
12
12
12
12
12
12
12
12
12
12
12
12
12
12
12
12
12
12
12
12
12
12
12
12
12
12
12
12
12
12
12
12
12
12
12
12
12
12
12
12
12
12
12
12
12
12
12
12
12
12
12
12
12
12
12
12
12
12
12
12
12
12
12
12
12
12
12
12
12
12
12
12
12
12
12
12
12
12
12
12
12
12
12
12
12
12
12
12
12
12
12
12
12
12
12
12
12
12
12
12
12
12
12
12
12
12
12
12
12
12
12
12
12
12
12
12
12
12
12
12
12
12
12
12
12
12
12
12
12
12
12
12
12
12
12
12
12
12
12
12
12
12
12
12
12
12
12
12
12
12
12
12
12
12
12
12
12
12
12
12
12
12
12
12
12
12
12
12
12
12
12
12
12
12
12
12
12
12
12
12
12
12
12
12
12
12
12
12
12
12
12
12
12
12
12
12
12
12
12
12
12
12
12
12
12
12
12
12
12
12
12
12
12
12
12
12
12
12
12
12
12
12
12
12
12
12
12
12
12
12
12
12
12
12
12
12
12
12
12
12
12
12
12
12
12
12
12
12
12
12
12
12
12
12
12
12
12
12
12
12
12
12
12
12
12
12
12
12
12
12
12
12
12
12
12
12
12
12
12
12
12
12
12
12
12
12
12
12
12
12
12
12
12
12
12
12
12
12
12
12
12
12
12
12
12
12
12
12
12
12
12
12
12
12
12
12
12
12
12
12
12
12
12
12
12
12
12
12
12
12
12
12
12
12
12
12
12
12
12
12
12
12
12
12
12
12
12
12
12
12
12
12
12
12
12
12
12
12
12
12
12
12
12
12
12
12
12
12
12
12
12
12
12
12
12
12
12
12
12
12
12
12
12
12
12
12
12
12
12
12
12
12
12
12
12
12
12
12
12
12
12
12
12
12
12
12
12
12
12
12
12
12
12
12
12
12
12
12
12
12
12
12
12
12
12
12
12
12
12
12
12
12
12
12
12
12
12
12
12
12
12
12
12
12
12
12
12
12
12
12
12
12
12
12
12
12
12
12
12
12
12
12
12
12
12
12
12
12
12
12
12
12
12
12
12
12
12
12
12
12
12
12
12
12
12
12
12
12
12
12
12
12
12
12
12
12
12
12
12
12
12
12
12
12
12
12
12
12
12
12
12
12
12
12
12
12
12
12
12
12
12
12
12
12
12
12
12
12
12
12
12
12
12
12
12
12
12
12
12
12
12
12
12
12
12
12
12
12
12
12
12
12
12
12
12
12
12
12
12
12
12
12
12
12
12
12
12
12
12
12
12
12
12
12
12
12
12
12
12
12
12
12
12
12
12
12
12
12
12
12
12
12
12
12
12
12
12
12
12
12
12
12
12
12
12
12
12
12
12
12
12
12
12
12
12
12
12
12
12
12
12
12
12
12
12
12
12
12
12
12
12
12
12
12
12
12
12
12
12
12
12
12
12
12
12
12
12
12
12
12
12
12
12
12
12
12
12
12
12
12
12
12
12
12
12
12
12
12
12
12
12
12
12
12
12
12
12
12
12
12
12
12
12
12
12
12
12
12
12
12
12
12
12
12
12
12
12
12
12
12
12
12
12
12
12
12
12
12
12
12
12
12
12
12
12
12
12
12
12
12
12
12
12
12
12
12
12
12
12
12
12
12
12
12
12
12
12
12
12
12
12
12
12
12
12
12
12
12
12
12
12
12
12
12
12
12
12
12
12
12
12
12
12
12
12
12
12
12
12
12
12
12
12
12
12
12
12
12
12
12
12
12
12
12
12
12
12
12
12
12
12
12
12
12
12
12
12
12
12
12
12
12
12
12
12
12
12
12
12
12
12
12
12
12
12
12
12
12
12
12
12
12
12
12
12
12
12
12
12
12
12
12
12
12
12
12
12
12
12
12
12
12
12
12
12
12
12
12
12
12
12
12
12
12
12
12
12
12
12
12
12
12
12
12
12
12
12
12
12
12
12
12
12
12
12
12
12
12
12
12
12
12
12
12
12
12
12
12
12
12
12
12
12
12
12
12
12
12
12
12
12
12
12
12
12
12
12
12
12
12
12
12
12
12
12
12
12
12
12
12
12
12
12
12
12
12
12
12
12
12
12
12
12
12
12
12
12
12
12
12
12
12
12
12
12
12
12
12
12
12
12
12
12
12
12
12
12
12
12
12
12
12
12
12
12
12
12
12
12
12
12
12
12
12
12
12
12
12
12
12
12
12
12
12
12
12
12
12
12
12
12
12
12
12
12
12
12
12
12
12
12
12
12
12
12
12
12
12
12
12
12
12
12
12
12
12
12
12
12
12
12
12
12
12
12
12
12
12
12
12
12
12
12
12
12
12
12
12
12
12
12
12
12
12
12
12
12
12
12
12
12
12
12
12
12
12
12
12
12
12
12
12
12
12
12
12
12
12
12
12
12
12
12
12
12
12
12
12
12
12
12
12
12
12
12
12
12
12
12
12
12
12
12
12
12
12
12
12
12
12
12
12
12
12
12
12
12
12
12
12
12
12
12
12
12
12
12
12
12
12
12
12
12
12
12
12
12
12
12
12
12
12
12
12
12
12
12
12
12
12
12
12
12
12
12
12
12
12
12
12
12
12
12
12
12
12
12
12
12
12
12
12
12
12
12
12
12
12
12
12
12
12
12
12
12
12
12
12
12
12
12
12
12
12
12
12
12
12
12
12
12
12
12
12
12
12
12
12
12
12
12
12
12
12
12
12
12
12
12
12
12
12
12
12
12
12
12
12
12
12
12
12
12
12
12
12
12
12
12
12
12
12
12
12
12
12
12
12
12
12
12
12
12
12
12
12
12
12
12
12
12
12
12
12
12
12
12
12
12
12
12
12
12
12
12
12
12
12
12
12
12
12
12
12
12
12
12
12
12
12
12
12
12
12
12
12
12
12
12
12
12
12
12
12
12
12
12
12
12
12
12
12
12
12
12
12
12
12
12
12
12
12
12
12
12
12
12
12
12
12
12
12
12
12
12
12
12
12
12
12
12
12
12
12
12
12
12
12
12
12
12
12
12
12
12
12
12
12
12
12
12
12
12
12
12
12
12
12
12
12
12
12
12
12
12
12
12
12
12
12
12
12
12
12
12
12
12
12
12
12
12
12
12
12
12
12
12
12
12
12
12
12
12
12
12
12
12
12
12
12
12
12
12
12
12
12
12
12
12
12
12
12
12
12
12
12
12
12
12
12
12
12
12
12
12
12
12
12
12
12
12
12
12
12
12
12
12
12
12
12
12
12
12
12
12
12
12
12
12
12
12
12
12
12
12
12
12
12
12
12
12
12
12
12
12
12
12
12
12
12
12
12
12
12
12
12
12
12
12
12
12
12
12
12
12
12
12
12
12
12
12
12
12
12
12
12
12
12
12
12
12
12
12
12
12
12
12
12
12
12
12
12
12
12
12
12
12
12
12
12
12
12
12
12
12
12
12
12
12
12
12
12
12
12
12
12
12
12
12
12
12
12
12
12
12
12
12
12
12
12
12
12
12
12
12
12
12
12
12
12
12
12
12
12
12
12
12
12
12
12
12
12
12
12
12
12
12
12
12
12
12
12
12
12
12
12
12
12
12
12
12
12
12
12
12
12
12
12
12
12
12
12
12
12
12
12
12
12
12
12
12
12
12
12
12
12
12
12
12
12
12
12
12
12
12
12
12

POINT_DATA 3012
SCALARS Jp_lamdaP float 4
LOOKUP_TABLE default
1 1 1 1
1 1 1 1
1 1 1 1
1 1 1 1
1 1 1 1
1 1 1 1
1 1 1 1
1 1 1 1
1 1 1 1
1 1 1 1
1 1 1 1
1 1 1 1
1 1 1 1
1 1 1 1
1 1 1 1
1 1 1 1
1 1 1 1
1 1 1 1
1 1 1 1
1 1 1 1
1 1 1 1
1 1 1 1
0.999996 1 1 0.999996
0.999999 1 1 0.999999
1 1 1 1
1 1 1 1
0.999994 1 1 0.999994
1 1 1 1
1 1 1 1
1 1 1 1
1 1 1 1
1 1 1 1
1 1 1 1
1 1 1 1
1 1 1 1
1 1 1 1
1 1 1 1
1 1 1 1
0.999998 1 1 0.999998
1 1 1 1
1 1 1 1
1 1 1 1
1 1 1 1
1 1 1 1
0.999999 1 1 0.999999
1 1 1 1
1 1 1 1
1 1 1 1
1 1 1 1
1 1 1 1
1 1 1 1
1 1 1 1
1 1 1 1
1 1 1 1
1 1 1 1
0.999997 1 1 0.999997
1 1 1 1
0.999999 1 1 0.999999
0.999994 1 1 0.999994
1 1 1 1
1 1 1 1
0.999998 1 1 0.999998
0.999995 1 1 0.999995
0.999998 1 1 0.999998
0.999983 1 1 0.999983
0.999988 1 1 0.999988
1 1 1 1
1 1 1 1
0.999997 1 1 0.999997
0.999972 1 1 0.999972
1 1 1 1
1 1 1 1
1 1 1 1
1 1 1 1
1 1 1 1
1 1 1 1
1 1 1 1
1 1 1 1
1 1 1 1
1 1 1 1
0.999998 1 1 0.999998
1 1 1 1
1 1 1 1
1 1 1 1
1 1 1 1
0.999986 1 1 0.999986
1 1 1 1
0.999996 1 1 0.999996
0.999999 1 1 0.999999
0.999982 1 1 0.999982
1 1 1 1
1 1 1 1
1 1 1 1
1 1 1 1
1 1 1 1
1 1 1 1
0.999999 1 1 0.999999
1 1 1 1
1 1 1 1
1 1 1 1
0.999999 1 1 0.999999
0.999999 1 1 0.999999
0.999975 1 1 0.999975
1 1 1 1
0.999977 1 1 0.999977
1 1 1 1
1 1 1 1
1 1 1 1
1 1 1 1
0.999997 1 1 0.999997
0.999999 1 1 0.999999
1 1 1 1
0.999993 1 1 0.999993
1 1 1 1
1 1 1 1
0.999996 1 1 0.999996
0.999995 1 1 0.999995
1 1 1 1
1 1 1 1
0.999998 1 1 0.999998
0.999981 1 1 0.999981
0.999996 1 1 0.999996
0.999989 1 1 0.999989
0.999972 1 1 0.999972
0.999998 1 1 0.999998
0.999994 1 1 0.999994
0.999975 1 1 0.999975
0.999978 1 1 0.999978
0.999984 1 1 0.999984
0.999962 1 1 0.999962
1 1 1 1
0.999969 1 1 0.999969
1 1 1 1
0.999999 1 1 0.999999
0.999975 1 1 0.999975
0.999961 1 1 0.999961
1 1 1 1
1 1 1 1
1 1 1 1
1 1 1 1
1 1 1 1
1 1 1 1
1 1 1 1
1 1 1 1
0.999999 1 1 0.999999
1 1 1 1
1 1 1 1
1 1 1 1
1 1 1 1
0.999987 1 1 0.999987
1 1 1 1
0.999996 1 1 0.999996
0.999999 1 1 0.999999
0.999981 1 1 0.999981
1 1 1 1
1 1 1 1
1 1 1 1
0.999982 1 1 0.999982
0.999992 1 1 0.999992
0.999964 1 1 0.999964
1 1 1 1
0.999975 1 1 0.999975
0.999984 1 1 0.999984
0.999971 1 1 0.999971
1 1 1 1
1 1 1 1
1 1 1 1
1 1 1 1
1 1 1 1
1 1 1 1
1 1 1 1
1 1 1 1
0.999999 1 1 0.999999
1 1 1 1
1 1 1 1
0.999999 1 1 0.999999
0.999999 1 1 0.999999
0.999975 1 1 0.999975
1 1 1 1
0.999977 1 1 0.999977
0.999998 1 1 0.999998
0.999977 1 1 0.999977
0.999975 1 1 0.999975
0.999961 1 1 0.999961
0.999979 1 1 0.999979
0.99996 1 1 0.99996
1 1 1 1
1 1 1 1
0.999993 1 1 0.999993
0.999995 1 1 0.999995
1 1 1 1
1 1 1 1
0.999998 1 1 0.999998
0.99998 1 1 0.99998
0.999991 1 1 0.999991
0.999996 1 1 0.999996
0.999972 1 1 0.999972
0.999998 1 1 0.999998
0.999994 1 1 0.999994
0.999973 1 1 0.999973
0.999979 1 1 0.999979
1 1 1 1
1 1 1 1
0.999998 1 1 0.999998
0.999984 1 1 0.999984
0.99996 1 1 0.99996
0.999974 1 1 0.999974
0.99997 1 1 0.99997
0.999961 1 1 0.999961
1 1 1 1
1 1 1 1
0.999975 1 1 0.999975
0.999975 1 1 0.999975
0.999959 1 1 0.999959
0.999956 1 1 0.999956
0.999967 1 1 0.999967
0.999953 1 1 0.999953
1 1 1 1
0.999959 1 1 0.999959
0.999999 1 1 0.999999
0.999978 1 1 0.999978
0.999964 1 1 0.999964
0.999958 1 1 0.999958
1 1 1 1
1 1 1 1
0.999988 1 1 0.999988
1 1 1 1
1 1 1 1
1 1 1 1
1 1 1 1
0.999987 1 1 0.999987
1 1 1 1
1 1 1 1
0.999997 1 1 0.999997
0.99998 1 1 0.99998
1 1 1 1
1 1 1 1
1 1 1 1
0.999982 1 1 0.999982
0.999992 1 1 0.999992
0.999964 1 1 0.999964
1 1 1 1
0.999976 1 1 0.999976
0.999984 1 1 0.999984
0.99997 1 1 0.99997
1 1 1 1
1 1 1 1
1 1 1 1
0.99999 1 1 0.99999
0.999962 1 1 0.999962
0.99997 1 1 0.99997
0.999954 1 1 0.999954
0.999987 1 1 0.999987
0.999964 1 1 0.999964
0.999969 1 1 0.999969
0.999962 1 1 0.999962
1 1 1 1
1 1 1 1
1 1 1 1
1 1 1 1
1 1 1 1
1 1 1 1
1 1 1 1
1 1 1 1
1 1 1 1
1 1 1 1
1 1 1 1
0.999977 1 1 0.999977
0.999975 1 1 0.999975
0.999999 1 1 0.999999
1 1 1 1
0.999998 1 1 0.999998
0.999977 1 1 0.999977
0.999975 1 1 0.999975
0.999961 1 1 0.999961
0.999979 1 1 0.999979
0.99996 1 1 0.99996
0.999978 1 1 0.999978
0.999965 1 1 0.999965
0.999959 1 1 0.999959
0.999956 1 1 0.999956
0.999961 1 1 0.999961
0.999955 1 1 0.999955
0.999998 1 1 0.999998
0.999994 1 1 0.999994
0.99997 1 1 0.99997
0.99998 1 1 0.99998
1 1 1 1
1 1 1 1
0.999998 1 1 0.999998
0.999985 1 1 0.999985
0.999959 1 1 0.999959
0.999971 1 1 0.999971
0.999974 1 1 0.999974
0.999962 1 1 0.999962
1 1 1 1
1 1 1 1
0.999974 1 1 0.999974
0.999975 1 1 0.999975
0.999959 1 1 0.999959
0.999957 1 1 0.999957
1 1 1 1
0.999999 1 1 0.999999
0.999979 1 1 0.999979
0.999967 1 1 0.999967
0.999952 1 1 0.999952
0.999963 1 1 0.999963
0.999959 1 1 0.999959
0.999958 1 1 0.999958
1 1 1 1
0.999987 1 1 0.999987
1 1 1 1
0.999963 1 1 0.999963
0.999956 1 1 0.999956
0.999952 1 1 0.999952
0.999948 1 1 0.999948
0.999957 1 1 0.999957
0.999951 1 1 0.999951
1 1 1 1
0.999956 1 1 0.999956
0.999983 1 1 0.999983
0.999965 1 1 0.999965
0.999958 1 1 0.999958
0.999959 1 1 0.999959
1 1 1 1
0.999987 1 1 0.999987
0.999986 1 1 0.999986
0.999975 1 1 0.999975
0.999982 1 1 0.999982
1 1 1 1
1 1 1 1
1 1 1 1
0.999993 1 1 0.999993
0.999964 1 1 0.999964
1 1 1 1
0.999984 1 1 0.999984
0.999977 1 1 0.999977
0.999968 1 1 0.999968
1 1 1 1
1 1 1 1
1 1 1 1
0.99999 1 1 0.99999
0.999962 1 1 0.999962
0.99997 1 1 0.99997
0.999954 1 1 0.999954
0.999987 1 1 0.999987
0.999965 1 1 0.999965
0.999969 1 1 0.999969
0.999963 1 1 0.999963
1 1 1 1
1 1 1 1
0.999989 1 1 0.999989
0.99999 1 1 0.99999
0.999974 1 1 0.999974
0.999954 1 1 0.999954
0.999959 1 1 0.999959
0.999952 1 1 0.999952
0.999971 1 1 0.999971
0.999959 1 1 0.999959
0.999957 1 1 0.999957
1 1 1 1
0.999992 1 1 0.999992
1 1 1 1
1 1 1 1
1 1 1 1
1 1 1 1
1 1 1 1
1 1 1 1
1 1 1 1
1 1 1 1
1 1 1 1
1 1 1 1
1 1 1 1
1 1 1 1
1 1 1 1
0.999979 1 1 0.999979
0.999975 1 1 0.999975
0.99996 1 1 0.99996
0.999961 1 1 0.999961
0.999977 1 1 0.999977
0.999998 1 1 0.999998
0.999978 1 1 0.999978
0.999965 1 1 0.999965
0.999959 1 1 0.999959
0.999956 1 1 0.999956
0.999961 1 1 0.999961
0.999955 1 1 0.999955
0.999966 1 1 0.999966
0.999961 1 1 0.999961
0.999954 1 1 0.999954
0.999953 1 1 0.999953
0.999956 1 1 0.999956
0.999954 1 1 0.999954
0.999973 1 1 0.999973
0.999975 1 1 0.999975
0.999959 1 1 0.999959
0.999959 1 1 0.999959
1 1 1 1
0.999999 1 1 0.999999
0.99998 1 1 0.99998
0.999967 1 1 0.999967
0.999952 1 1 0.999952
0.999959 1 1 0.999959
0.999962 1 1 0.999962
0.999958 1 1 0.999958
1 1 1 1
0.999986 1 1 0.999986
1 1 1 1
0.999963 1 1 0.999963
0.999956 1 1 0.999956
0.999951 1 1 0.999951
0.999949 1 1 0.999949
1 1 1 1
0.999983 1 1 0.999983
0.999966 1 1 0.999966
0.999958 1 1 0.999958
0.999951 1 1 0.999951
0.999957 1 1 0.999957
0.999956 1 1 0.999956
0.99996 1 1 0.99996
0.999987 1 1 0.999987
0.999974 1 1 0.999974
1 1 1 1
0.999986 1 1 0.999986
0.999956 1 1 0.999956
0.999948 1 1 0.999948
0.999948 1 1 0.999948
0.999947 1 1 0.999947
0.999955 1 1 0.999955
0.999952 1 1 0.999952
0.999986 1 1 0.999986
0.999959 1 1 0.999959
0.999968 1 1 0.999968
0.999958 1 1 0.999958
0.999956 1 1 0.999956
0.999962 1 1 0.999962
1 1 1 1
0.999986 1 1 0.999986
0.999973 1 1 0.999973
0.999973 1 1 0.999973
0.999966 1 1 0.999966
1 1 1 1
0.999962 1 1 0.999962
1 1 1 1
1 1 1 1
0.99999 1 1 0.99999
0.99997 1 1 0.99997
0.999954 1 1 0.999954
0.999987 1 1 0.999987
0.999969 1 1 0.999969
0.999966 1 1 0.999966
0.999965 1 1 0.999965
1 1 1 1
1 1 1 1
0.999989 1 1 0.999989
0.99999 1 1 0.99999
0.999974 1 1 0.999974
0.999954 1 1 0.999954
0.999959 1 1 0.999959
0.999951 1 1 0.999951
0.999971 1 1 0.999971
0.99996 1 1 0.99996
0.999957 1 1 0.999957
1 1 1 1
0.999991 1 1 0.999991
0.999972 1 1 0.999972
0.999975 1 1 0.999975
0.999966 1 1 0.999966
0.999955 1 1 0.999955
0.999954 1 1 0.999954
0.999959 1 1 0.999959
0.999959 1 1 0.999959
0.999951 1 1 0.999951
1 1 1 1
0.999989 1 1 0.999989
0.999991 1 1 0.999991
0.999978 1 1 0.999978
0.999992 1 1 0.999992
1 1 1 1
1 1 1 1
1 1 1 1
1 1 1 1
1 1 1 1
1 1 1 1
1 1 1 1
1 1 1 1
1 1 1 1
1 1 1 1
1 1 1 1
1 1 1 1
1 1 1 1
1 1 1 1
1 1 1 1
0.999961 1 1 0.999961
0.999959 1 1 0.999959
0.999955 1 1 0.999955
0.999957 1 1 0.999957
0.999965 1 1 0.999965
0.999978 1 1 0.999978
0.999966 1 1 0.999966
0.999962 1 1 0.999962
0.999954 1 1 0.999954
0.999952 1 1 0.999952
0.999956 1 1 0.999956
0.999954 1 1 0.999954
0.999962 1 1 0.999962
0.99996 1 1 0.99996
0.99995 1 1 0.99995
0.999948 1 1 0.999948
0.999957 1 1 0.999957
0.999954 1 1 0.999954
0.999962 1 1 0.999962
0.999956 1 1 0.999956
0.999951 1 1 0.999951
0.99995 1 1 0.99995
1 1 1 1
0.999983 1 1 0.999983
0.999967 1 1 0.999967
0.999958 1 1 0.999958
0.999951 1 1 0.999951
0.999956 1 1 0.999956
0.999956 1 1 0.999956
0.99996 1 1 0.99996
0.999987 1 1 0.999987
0.999972 1 1 0.999972
1 1 1 1
0.999986 1 1 0.999986
0.999956 1 1 0.999956
0.999948 1 1 0.999948
0.999947 1 1 0.999947
0.999948 1 1 0.999948
0.999986 1 1 0.999986
0.999969 1 1 0.999969
0.999958 1 1 0.999958
0.999955 1 1 0.999955
0.999952 1 1 0.999952
0.999956 1 1 0.999956
0.999959 1 1 0.999959
0.999963 1 1 0.999963
0.999973 1 1 0.999973
0.999965 1 1 0.999965
0.999973 1 1 0.999973
0.999999 1 1 0.999999
0.999986 1 1 0.999986
0.999953 1 1 0.999953
0.999945 1 1 0.999945
0.999948 1 1 0.999948
0.999956 1 1 0.999956
0.999972 1 1 0.999972
0.999965 1 1 0.999965
0.99996 1 1 0.99996
0.999952 1 1 0.999952
0.999956 1 1 0.999956
0.999998 1 1 0.999998
0.999988 1 1 0.999988
0.999972 1 1 0.999972
0.999965 1 1 0.999965
0.999963 1 1 0.999963
0.99996 1 1 0.99996
1 1 1 1
1 1 1 1
0.999954 1 1 0.999954
0.99999 1 1 0.99999
0.999989 1 1 0.999989
0.999973 1 1 0.999973
0.999959 1 1 0.999959
0.999951 1 1 0.999951
0.999971 1 1 0.999971
0.999958 1 1 0.999958
0.999961 1 1 0.999961
1 1 1 1
0.999991 1 1 0.999991
0.999973 1 1 0.999973
0.999974 1 1 0.999974
0.999965 1 1 0.999965
0.999955 1 1 0.999955
0.999954 1 1 0.999954
0.99996 1 1 0.99996
0.999958 1 1 0.999958
0.99995 1 1 0.99995
0.999991 1 1 0.999991
0.999973 1 1 0.999973
0.999962 1 1 0.999962
0.999964 1 1 0.999964
0.99996 1 1 0.99996
0.999966 1 1 0.999966
0.999952 1 1 0.999952
0.99996 1 1 0.99996
0.999952 1 1 0.999952
0.999944 1 1 0.999944
1 1 1 1
0.99999 1 1 0.99999
0.999974 1 1 0.999974
0.99999 1 1 0.99999
0.999992 1 1 0.999992
0.999976 1 1 0.999976
0.999966 1 1 0.999966
0.999975 1 1 0.999975
0.999992 1 1 0.999992
1 1 1 1
1 1 1 1
1 1 1 1
1 1 1 1
1 1 1 1
1 1 1 1
1 1 1 1
1 1 1 1
1 1 1 1
1 1 1 1
1 1 1 1
1 1 1 1
1 1 1 1
1 1 1 1
1 1 1 1
0.999956 1 1 0.999956
0.999954 1 1 0.999954
0.999954 1 1 0.999954
0.999951 1 1 0.999951
0.999962 1 1 0.999962
0.999966 1 1 0.999966
0.999962 1 1 0.999962
0.99996 1 1 0.99996
0.999951 1 1 0.999951
0.999946 1 1 0.999946
0.999957 1 1 0.999957
0.999953 1 1 0.999953
0.999964 1 1 0.999964
0.999955 1 1 0.999955
0.999946 1 1 0.999946
0.999963 1 1 0.999963
0.999956 1 1 0.999956
0.999949 1 1 0.999949
0.999946 1 1 0.999946
0.999948 1 1 0.999948
0.999986 1 1 0.999986
0.99997 1 1 0.99997
0.999957 1 1 0.999957
0.999955 1 1 0.999955
0.999951 1 1 0.999951
0.999959 1 1 0.999959
0.999956 1 1 0.999956
0.999964 1 1 0.999964
0.999973 1 1 0.999973
0.999964 1 1 0.999964
0.999973 1 1 0.999973
0.999998 1 1 0.999998
0.999986 1 1 0.999986
0.999951 1 1 0.999951
0.999945 1 1 0.999945
0.999949 1 1 0.999949
0.999972 1 1 0.999972
0.999961 1 1 0.999961
0.999952 1 1 0.999952
0.999956 1 1 0.999956
0.999957 1 1 0.999957
0.999965 1 1 0.999965
0.999998 1 1 0.999998
0.999965 1 1 0.999965
0.99996 1 1 0.99996
0.999963 1 1 0.999963
0.999973 1 1 0.999973
0.999987 1 1 0.999987
0.99995 1 1 0.99995
0.999944 1 1 0.999944
0.999953 1 1 0.999953
0.999963 1 1 0.999963
0.999963 1 1 0.999963
0.999963 1 1 0.999963
0.999952 1 1 0.999952
0.999948 1 1 0.999948
0.999998 1 1 0.999998
0.999987 1 1 0.999987
0.999974 1 1 0.999974
0.99996 1 1 0.99996
0.999958 1 1 0.999958
0.999956 1 1 0.999956
1 1 1 1
0.999991 1 1 0.999991
0.999955 1 1 0.999955
0.999974 1 1 0.999974
0.999973 1 1 0.999973
0.999964 1 1 0.999964
0.999954 1 1 0.999954
0.99996 1 1 0.99996
0.999958 1 1 0.999958
0.999949 1 1 0.999949
0.999991 1 1 0.999991
0.999974 1 1 0.999974
0.999963 1 1 0.999963
0.999964 1 1 0.999964
0.99996 1 1 0.99996
0.999967 1 1 0.999967
0.999952 1 1 0.999952
0.999963 1 1 0.999963
0.999951 1 1 0.999951
0.999942 1 1 0.999942
0.999973 1 1 0.999973
0.999961 1 1 0.999961
0.999955 1 1 0.999955
0.999956 1 1 0.999956
0.999967 1 1 0.999967
0.99997 1 1 0.99997
0.999946 1 1 0.999946
0.999941 1 1 0.999941
0.999992 1 1 0.999992
0.999975 1 1 0.999975
0.999965 1 1 0.999965
0.999992 1 1 0.999992
0.999974 1 1 0.999974
0.999992 1 1 0.999992
0.999965 1 1 0.999965
0.999975 1 1 0.999975
0.999958 1 1 0.999958
0.999964 1 1 0.999964
0.999975 1 1 0.999975
0.999991 1 1 0.999991
1 1 1 1
1 1 1 1
1 1 1 1
1 1 1 1
1 1 1 1
1 1 1 1
1 1 1 1
1 1 1 1
1 1 1 1
1 1 1 1
1 1 1 1
1 1 1 1
1 1 1 1
1 1 1 1
1 1 1 1
0.999958 1 1 0.999958
0.999951 1 1 0.999951
0.999952 1 1 0.999952
0.999944 1 1 0.999944
0.99996 1 1 0.99996
0.999962 1 1 0.999962
0.999962 1 1 0.999962
0.999955 1 1 0.999955
0.999947 1 1 0.999947
0.999962 1 1 0.999962
0.99996 1 1 0.99996
0.999952 1 1 0.999952
0.999956 1 1 0.999956
0.99995 1 1 0.99995
0.999946 1 1 0.999946
0.999949 1 1 0.999949
0.999972 1 1 0.999972
0.999962 1 1 0.999962
0.999951 1 1 0.999951
0.999955 1 1 0.999955
0.999965 1 1 0.999965
0.999958 1 1 0.999958
0.999965 1 1 0.999965
0.999961 1 1 0.999961
0.999964 1 1 0.999964
0.999998 1 1 0.999998
0.999974 1 1 0.999974
0.999986 1 1 0.999986
0.999952 1 1 0.999952
0.999944 1 1 0.999944
0.999952 1 1 0.999952
0.999963 1 1 0.999963
0.999953 1 1 0.999953
0.999949 1 1 0.999949
0.999964 1 1 0.999964
0.999962 1 1 0.999962
0.999999 1 1 0.999999
0.999987 1 1 0.999987
0.999958 1 1 0.999958
0.999956 1 1 0.999956
0.999961 1 1 0.999961
0.999973 1 1 0.999973
0.999954 1 1 0.999954
0.999943 1 1 0.999943
0.999963 1 1 0.999963
0.999969 1 1 0.999969
0.999955 1 1 0.999955
0.999952 1 1 0.999952
0.999948 1 1 0.999948
1 1 1 1
0.999992 1 1 0.999992
0.999988 1 1 0.999988
0.999971 1 1 0.999971
0.99996 1 1 0.99996
0.999953 1 1 0.999953
0.999955 1 1 0.999955
0.999951 1 1 0.999951
0.999991 1 1 0.999991
0.999975 1 1 0.999975
0.999967 1 1 0.999967
0.999965 1 1 0.999965
0.999964 1 1 0.999964
0.99996 1 1 0.99996
0.999952 1 1 0.999952
0.999966 1 1 0.999966
0.999951 1 1 0.999951
0.99994 1 1 0.99994
0.999973 1 1 0.999973
0.999962 1 1 0.999962
0.999956 1 1 0.999956
0.999957 1 1 0.999957
0.999966 1 1 0.999966
0.999969 1 1 0.999969
0.999947 1 1 0.999947
0.999941 1 1 0.999941
0.999964 1 1 0.999964
0.999963 1 1 0.999963
0.999955 1 1 0.999955
0.999949 1 1 0.999949
0.999979 1 1 0.999979
0.999948 1 1 0.999948
0.999938 1 1 0.999938
0.999976 1 1 0.999976
0.999965 1 1 0.999965
0.999957 1 1 0.999957
0.999992 1 1 0.999992
0.999976 1 1 0.999976
0.999964 1 1 0.999964
0.999991 1 1 0.999991
0.999975 1 1 0.999975
0.999958 1 1 0.999958
0.999965 1 1 0.999965
0.999954 1 1 0.999954
0.999956 1 1 0.999956
0.999966 1 1 0.999966
0.999975 1 1 0.999975
0.99999 1 1 0.99999
1 1 1 1
1 1 1 1
1 1 1 1
1 1 1 1
1 1 1 1
1 1 1 1
1 1 1 1
1 1 1 1
1 1 1 1
1 1 1 1
1 1 1 1
1 1 1 1
1 1 1 1
1 1 1 1
1 1 1 1
1 1 1 1
0.999961 1 1 0.999961
0.999949 1 1 0.999949
0.999955 1 1 0.999955
0.999961 1 1 0.999961
0.999962 1 1 0.999962
0.999951 1 1 0.999951
0.999958 1 1 0.999958
0.999958 1 1 0.999958
0.999954 1 1 0.999954
0.999974 1 1 0.999974
0.999954 1 1 0.999954
0.999943 1 1 0.999943
0.999951 1 1 0.999951
0.999963 1 1 0.999963
0.999954 1 1 0.999954
0.99995 1 1 0.99995
0.999965 1 1 0.999965
0.999962 1 1 0.999962
0.999959 1 1 0.999959
0.999956 1 1 0.999956
0.999961 1 1 0.999961
1 1 1 1
0.999987 1 1 0.999987
0.999973 1 1 0.999973
0.999952 1 1 0.999952
1 1 1 1
0.999991 1 1 0.999991
0.999944 1 1 0.999944
0.999961 1 1 0.999961
0.999956 1 1 0.999956
0.999947 1 1 0.999947
0.999952 1 1 0.999952
0.999969 1 1 0.999969
0.99999 1 1 0.99999
0.999971 1 1 0.999971
0.999955 1 1 0.999955
0.999951 1 1 0.999951
0.999952 1 1 0.999952
0.999961 1 1 0.999961
0.999939 1 1 0.999939
0.999952 1 1 0.999952
0.999978 1 1 0.999978
0.999961 1 1 0.999961
0.999951 1 1 0.999951
0.999945 1 1 0.999945
0.999991 1 1 0.999991
0.999991 1 1 0.999991
0.999977 1 1 0.999977
0.999969 1 1 0.999969
0.999961 1 1 0.999961
0.999949 1 1 0.999949
0.999947 1 1 0.999947
0.99995 1 1 0.99995
0.999973 1 1 0.999973
0.999964 1 1 0.999964
0.999965 1 1 0.999965
0.999968 1 1 0.999968
0.999958 1 1 0.999958
0.999957 1 1 0.999957
0.999948 1 1 0.999948
0.99994 1 1 0.99994
0.999964 1 1 0.999964
0.999969 1 1 0.999969
0.999955 1 1 0.999955
0.999948 1 1 0.999948
0.999977 1 1 0.999977
0.999949 1 1 0.999949
0.999937 1 1 0.999937
0.999955 1 1 0.999955
0.999983 1 1 0.999983
0.999949 1 1 0.999949
0.999939 1 1 0.999939
0.999949 1 1 0.999949
0.999931 1 1 0.999931
0.989253 1.00003 0.989295 0.999928
0.999965 1 1 0.999965
0.999957 1 1 0.999957
0.999953 1 1 0.999953
0.999991 1 1 0.999991
0.999975 1 1 0.999975
0.999967 1 1 0.999967
0.999957 1 1 0.999957
0.99999 1 1 0.99999
0.999974 1 1 0.999974
0.999954 1 1 0.999954
0.999966 1 1 0.999966
0.999957 1 1 0.999957
0.999951 1 1 0.999951
0.999958 1 1 0.999958
0.999966 1 1 0.999966
0.999972 1 1 0.999972
0.999987 1 1 0.999987
0.999976 1 1 0.999976
0.999987 1 1 0.999987
1 1 1 1
1 1 1 1
1 1 1 1
1 1 1 1
1 1 1 1
1 1 1 1
1 1 1 1
1 1 1 1
1 1 1 1
1 1 1 1
1 1 1 1
1 1 1 1
1 1 1 1
1 1 1 1
1 1 1 1
1 1 1 1
1 1 1 1
0.99996 1 1 0.99996
0.999951 1 1 0.999951
0.999963 1 1 0.999963
0.999959 1 1 0.999959
0.999954 1 1 0.999954
0.999984 1 1 0.999984
0.999956 1 1 0.999956
0.999384 1 0.999389 0.999995
1 1 1 1
0.999995 1 1 0.999995
0.999951 1 1 0.999951
0.999944 1 1 0.999944
0.99996 1 1 0.99996
0.999956 1 1 0.999956
0.999947 1 1 0.999947
0.999953 1 1 0.999953
0.999969 1 1 0.999969
0.999955 1 1 0.999955
0.999951 1 1 0.999951
0.999951 1 1 0.999951
1 1 1 1
0.999961 1 1 0.999961
0.999992 1 1 0.999992
0.999971 1 1 0.999971
0.999989 1 1 0.999989
0.999937 1 1 0.999937
0.999992 1 1 0.999992
0.999991 1 1 0.999991
0.999975 1 1 0.999975
0.999952 1 1 0.999952
0.999975 1 1 0.999975
0.999951 1 1 0.999951
0.999945 1 1 0.999945
0.999961 1 1 0.999961
0.99997 1 1 0.99997
0.99996 1 1 0.99996
0.99995 1 1 0.99995
0.999947 1 1 0.999947
0.99995 1 1 0.99995
0.999974 1 1.00004 0.999929
0.999976 1 1 0.999976
0.999971 1 1 0.999971
0.999948 1 1 0.999948
0.999948 1 1 0.999948
0.999974 1 1 0.999974
0.999971 1 1 0.999971
0.999964 1 1 0.999964
0.999956 1 1 0.999956
0.999951 1 1 0.999951
0.999942 1 1 0.999942
0.999944 1 1 0.999944
0.999963 1 1 0.999963
0.999954 1 1 0.999954
0.999976 1 1 0.999976
0.999976 1 1 0.999976
0.999949 1 1 0.999949
0.999947 1 1 0.999947
0.999936 1 1 0.999936
0.999956 1 1 0.999956
0.999986 1 1 0.999986
0.999949 1 1 0.999949
0.999939 1 1 0.999939
0.999954 1 1 0.999954
0.99993 1 1 0.99993
0.991628 1.00069 0.991008 0.999932
0.99995 1 1 0.99995
0.999941 1 1 0.999941
0.999944 1 1 0.999944
0.999927 1 1 0.999927
0.999916 1 1 0.999916
0.979527 0.98002 0.999681 0.999816
0.993906 1.00131 0.99267 0.999938
0.989064 1.00061 0.988568 0.999896
0.979068 0.982007 0.997003 1
0.992913 1.00028 0.992638 1
0.999957 1 1 0.999957
0.999953 1 1 0.999953
0.99995 1 1 0.99995
0.99999 1 1 0.99999
0.999974 1 1 0.999974
0.999966 1 1 0.999966
0.999958 1 1 0.999958
0.999954 1 1 0.999954
0.999964 1 1 0.999964
0.999988 1 1 0.999988
0.999973 1 1 0.999973
0.999952 1 1 0.999952
0.999958 1 1 0.999958
0.999958 1 1 0.999958
0.999951 1 1 0.999951
0.999961 1 1 0.999961
0.999971 1 1 0.999971
0.999987 1 1 0.999987
0.999974 1 1 0.999974
0.999964 1 1 0.999964
0.999974 1 1 0.999974
0.999974 1 1 0.999974
0.99999 1 1 0.99999
0.999987 1 1 0.999987
1 1 1 1
1 1 1 1
1 1 1 1
1 1 1 1
1 1 1 1
1 1 1 1
1 1 1 1
1 1 1 1
1 1 1 1
1 1 1 1
1 1 1 1
1 1 1 1
1 1 1 1
1 1 1 1
1 1 1 1
1 1 1 1
1 1 1 1
1 1 1 1
0.999953 1 1 0.999953
0.999959 1 1 0.999959
0.999994 1 1 0.999994
0.998514 1 0.998519 0.999996
0.999956 1 1 0.999956
0.999993 1 1 0.999993
0.999985 1 1.00004 0.999947
0.998947 0.999518 0.999509 0.999919
0.999999 1 1 0.999999
0.999996 1 1 0.999996
0.999995 1 1 0.999995
0.999978 1 1 0.999978
0.999982 1 1 0.999982
0.999934 1 1 0.999934
0.999952 1 1 0.999952
0.999972 1 1 0.999972
0.999951 1 1 0.999951
0.999945 1 1 0.999945
0.999961 1 1 0.999961
0.99995 1 1 0.99995
0.999948 1 1 0.999948
0.999951 1 1 0.999951
0.999991 1 1 0.999991
0.99996 1 1 0.99996
0.999972 1 1 0.999972
0.999993 1 1 0.999993
0.999973 1 1 0.999973
0.999966 1 1.00003 0.999931
0.999976 1 1 0.999976
0.999972 1 1 0.999972
0.999965 1 1 0.999965
0.999975 1 1 0.999975
0.999971 1 1 0.999971
0.999948 1 1 0.999948
0.999949 1 1 0.999949
0.999957 1 1 0.999957
0.999952 1 1 0.999952
0.999944 1 1 0.999944
0.999943 1 1 0.999943
0.999983 1 1.00003 0.999953
0.999988 1 1 0.999988
0.99995 1 1 0.99995
0.999945 1 1 0.999945
0.99996 1 1 0.99996
0.999958 1 1 0.999958
0.999943 1 1 0.999943
0.999935 1 1 0.999935
0.977526 0.97958 0.998058 0.999843
0.999956 1 1 0.999956
0.999948 1 1 0.999948
0.999989 1 1 0.999989
0.999958 1 1 0.999958
0.999929 1 1 0.999929
0.999939 1 1 0.999939
0.994198 1.00141 0.992864 0.999936
0.99995 1 1 0.99995
0.999942 1 1 0.999942
0.999944 1 1 0.999944
0.999927 1 1 0.999927
0.99992 1 1 0.99992
0.98015 0.979664 1.00067 0.999831
0.992646 1.001 0.991785 0.99987
0.991187 1.00122 0.990089 0.999893
0.979052 0.982354 0.996667 0.999971
0.994371 1.0004 0.993978 1
0.999949 1 1 0.999949
0.978079 0.979896 0.998189 0.999956
0.996665 0.999529 0.997134 1
0.999903 1 1 0.999903
0.999938 1 1 0.999938
1.00057 1 1.00067 0.999908
0.998534 1.00066 0.997995 0.999876
0.985387 0.982329 1.00338 0.999736
0.993225 1.00245 0.990954 0.999846
0.979199 0.986679 0.99242 0.999998
0.998875 1.00028 0.998598 1
0.999953 1 1 0.999953
0.99995 1 1 0.99995
0.999949 1 1 0.999949
0.99999 1 1 0.99999
0.999974 1 1 0.999974
0.999963 1 1 0.999963
0.999957 1 1 0.999957
0.999953 1 1 0.999953
0.999987 1 1 0.999987
0.999958 1 1 0.999958
0.999963 1 1 0.999963
0.999972 1 1 0.999972
0.999951 1 1 0.999951
0.999953 1 1 0.999953
0.999948 1 1 0.999948
0.99996 1 1 0.99996
0.999973 1 1 0.999973
0.999974 1 1 0.999974
0.999963 1 1 0.999963
0.999962 1 1 0.999962
0.999962 1 1 0.999962
0.999957 1 1 0.999957
0.99996 1 1 0.99996
0.999973 1 1 0.999973
0.999974 1 1 0.999974
0.99999 1 1 0.99999
0.999972 1 1 0.999972
0.999989 1 1 0.999989
1 1 1 1
0.999987 1 1 0.999987
1 1 1 1
1 1 1 1
1 1 1 1
1 1 1 1
1 1 1 1
1 1 1 1
1 1 1 1
1 1 1 1
0.999996 1 1 0.999996
1 1 1 1
1 1 1 1
1 1 1 1
1 1 1 1
1 1 1 1
1 1 1 1
1 1 1 1
1 1 1 1
1 1 1 1
0.99763 1 0.997634 0.999996
0.999957 1 1 0.999957
0.999986 1 1 0.999986
1.00018 0.999689 1.00053 0.999957
1.0006 1 1.0006 0.999998
0.999975 1 1.00003 0.999941
1.00138 1 1.00144 0.999937
1.0013 1 1.00137 0.999925
0.978727 0.979357 0.999597 0.99976
0.976627 0.98147 0.995134 0.999932
0.993439 1.00008 0.993356 1
0.999979 1 1 0.999979
0.999996 1 1 0.999996
0.999994 1 1 0.999994
0.999978 1 1 0.999978
0.999968 1 1 0.999968
0.999972 1 1 0.999972
0.999981 1 1 0.999981
0.999981 1 1 0.999981
0.999959 1 1.00003 0.999932
0.999974 1 1 0.999974
0.99997 1 1 0.99997
0.999948 1 1 0.999948
0.99995 1 1 0.99995
0.999944 1 1 0.999944
0.999943 1 1 0.999943
0.999952 1 1 0.999952
0.999973 1 1 0.999973
0.999957 1 1 0.999957
0.999979 1 1 0.999979
0.999967 1 1 0.999967
0.999988 1 1.00004 0.999953
0.999961 1 1 0.999961
0.999959 1 1 0.999959
0.999909 1 0.999923 0.999987
0.999952 1 1 0.999952
0.999943 1 1 0.999943
0.999943 1 1 0.999943
0.999935 1 1 0.999935
0.996389 1 0.996409 0.99998
0.99996 1 1 0.99996
0.999938 1 1 0.999938
0.999929 1 1 0.999929
0.999949 1 1 0.999949
0.999946 1 1 0.999946
0.999932 1 1 0.999932
0.97502 0.980813 0.994076 1.00002
0.979932 0.980386 0.999693 0.999844
0.999951 1 1 0.999951
0.999945 1 1 0.999945
0.999943 1 1 0.999943
0.999924 1 1 0.999924
0.999927 1 1 0.999927
0.97977 0.980278 0.999724 0.999758
0.993945 1.00037 0.993628 0.99995
0.993028 1.00164 0.991514 0.999891
0.976357 0.981926 0.994401 0.999927
0.995647 1.00048 0.995167 1
0.999949 1 1 0.999949
0.975991 0.980445 0.995442 1.00002
0.997012 0.999657 0.997354 1
0.999903 1 1 0.999903
0.999939 1 1 0.999939
1.00035 1 1.00044 0.999911
0.998664 1.00046 0.998334 0.999874
0.983058 0.981628 1.00177 0.99969
0.98956 1.00123 0.988405 0.999939
0.980114 0.986832 0.993285 0.999907
0.99794 1.00031 0.997635 1
0.999948 1 1 0.999948
0.99891 0.999286 0.999624 1
0.99997 0.99965 1.00032 1
1.00217 1 1.00227 0.999895
1.00057 1 1.00064 0.999932
1.00299 1 1.00307 0.999923
0.999775 1.00029 0.999542 0.999945
0.989163 0.986482 1.00303 0.999691
0.987591 0.995885 0.99178 0.999891
0.999745 0.999941 0.999804 1
0.99995 1 1 0.99995
0.999949 1 1 0.999949
0.999946 1 1 0.999946
0.999987 1 1 0.999987
0.999973 1 1 0.999973
0.999964 1 1 0.999964
0.999958 1 1 0.999958
0.99995 1 1 0.99995
0.999973 1 1 0.999973
0.999954 1 1 0.999954
0.99996 1 1 0.99996
0.999948 1 1 0.999948
0.999946 1 1 0.999946
0.999951 1 1 0.999951
0.99996 1 1 0.99996
0.999974 1 1 0.999974
0.999962 1 1 0.999962
0.999962 1 1 0.999962
0.999962 1 1 0.999962
0.999957 1 1 0.999957
0.999961 1 1 0.999961
0.999954 1 1 0.999954
0.999954 1 1 0.999954
0.999955 1 1 0.999955
0.99996 1 1 0.99996
0.999961 1 1 0.999961
0.99996 1 1 0.99996
0.999972 1 1 0.999972
0.999973 1 1 0.999973
0.99999 1 1 0.99999
0.999974 1 1 0.999974
0.99999 1 1 0.99999
1 1 1 1
0.999988 1 1 0.999988
1 1 1 1
1 1 1 1
1 1 1 1
1 1 1 1
1 1 1 1
1 1 1 1
1 1 1 1
1 1 1 1
0.999995 1 1 0.999995
1 1 1 1
0.999996 1 1 0.999996
1 1 1 1
1 1 1 1
1 1 1 1
1 1 1 1
1 1 1 1
1 1 1 1
1 1 1 1
1 1 1 1
0.976424 0.98013 0.996203 1.00002
0.998963 0.999817 0.999145 1
1.00023 0.999267 1.00098 0.999978
1.0011 1 1.0011 0.999997
0.999964 1 1.00003 0.999935
1.00189 0.999991 1.00191 0.999992
1.00062 1 1.00069 0.999938
0.979296 0.979435 1.00004 0.999817
0.978007 0.98183 0.996097 1.00001
0.995037 1.00028 0.99476 1
1.00404 1 1.00409 0.999949
0.983058 0.981754 1.00157 0.999758
0.978584 0.985821 0.99266 0.999999
0.996959 1.00159 0.995381 1
0.999964 1 1 0.999964
0.99998 1 1 0.99998
0.999996 1 1 0.999996
0.999978 1 1 0.999978
0.99997 1 1 0.99997
0.999968 1 1 0.999968
0.999972 1 1 0.999972
0.999976 1 1 0.999976
0.999979 1 1 0.999979
0.99998 1 1 0.99998
0.999993 1 1.00004 0.999953
0.999779 1 0.999793 0.999986
0.999953 1 1 0.999953
0.999941 1 1 0.999941
0.999936 1 1 0.999936
0.999944 1 1 0.999944
0.99996 1 1 0.99996
0.999961 1 1 0.999961
0.997615 1 0.997637 0.999978
0.999948 1 1 0.999948
0.999944 1 1 0.999944
0.999861 1 0.999896 0.999964
0.999935 1 1 0.999935
0.999929 1 1 0.999929
0.999931 1 1 0.999931
0.994094 1.0001 0.994026 0.999965
0.999926 1 1 0.999926
0.999919 1 1 0.999919
0.999948 1 1 0.999948
0.99994 1 1 0.99994
0.999933 1 1 0.999933
0.997767 0.999488 0.998276 1
0.976118 0.980093 0.995978 0.999965
0.978196 0.980203 0.998115 0.999837
0.999949 1 1 0.999949
0.99994 1 1 0.99994
0.999902 1 1 0.999902
1.00016 1 1.00024 0.999914
0.975297 0.980698 0.994538 0.999954
0.981958 0.982045 1.00009 0.999826
0.98763 1.00118 0.98661 0.999854
0.99895 1.00033 0.998744 0.999873
0.981501 0.986706 0.994728 0.999997
0.996027 0.999785 0.996241 1
0.996276 1.00141 0.99487 1
0.999948 1 1 0.999948
0.998354 0.999493 0.99886 1
0.999932 0.999558 1.00037 1
1.00245 1 1.00255 0.999894
1.00039 1 1.00045 0.999932
1.0031 1 1.00321 0.999889
0.998494 1.00017 0.998472 0.999854
0.987027 0.985635 1.00173 0.999682
0.991158 0.995099 0.996051 0.999989
0.999557 1.00074 0.998817 0.999999
0.999945 1 1 0.999945
0.999629 0.999629 1 1
0.999761 0.999576 1.00018 1
1.002 1 1.00206 0.999944
1.00649 1 1.00654 0.999959
0.994083 0.990861 1.00354 0.999714
0.988414 1.00176 0.986705 0.999974
0.999724 0.999761 0.999965 0.999998
0.999949 1 1 0.999949
0.999947 1 1 0.999947
0.999943 1 1 0.999943
0.999973 1 1 0.999973
0.99996 1 1 0.99996
0.999955 1 1 0.999955
0.999948 1 1 0.999948
0.99996 1 1 0.99996
0.999951 1 1 0.999951
0.999946 1 1 0.999946
0.999948 1 1 0.999948
0.999945 1 1 0.999945
0.999952 1 1 0.999952
0.999962 1 1 0.999962
0.999962 1 1 0.999962
0.999957 1 1 0.999957
0.999955 1 1 0.999955
0.999961 1 1 0.999961
0.999954 1 1 0.999954
0.999952 1 1 0.999952
0.99995 1 1 0.99995
0.999951 1 1 0.999951
0.999955 1 1 0.999955
0.999956 1 1 0.999956
0.999957 1 1 0.999957
0.999968 1 1 0.999968
0.999961 1 1 0.999961
0.999963 1 1 0.999963
0.999972 1 1 0.999972
0.99996 1 1 0.99996
0.999972 1 1 0.999972
0.999989 1 1 0.999989
0.999973 1 1 0.999973
0.99999 1 1 0.99999
1 1 1 1
0.99999 1 1 0.99999
1 1 1 1
1 1 1 1
1 1 1 1
1 1 1 1
1 1 1 1
1 1 1 1
1 1 1 1
1 1 1 1
0.999992 1 1 0.999992
1 1 1 1
0.999994 1 1 0.999994
1 1 1 1
1 1 1 1
0.999996 1 1 0.999996
1 1 1 1
1 1 1 1
1 1 1 1
1 1 1 1
1 1 1 1
1 1 1 1
0.999203 0.999592 0.999611 1
0.975589 0.979343 0.996179 0.999988
1.00007 0.999764 1.0003 1
0.998544 0.999761 0.998783 1
1.00099 0.999819 1.00124 0.999936
0.999982 1 1.00004 0.99994
0.979848 0.979025 1.00096 0.999881
0.976995 0.981591 0.995382 0.999935
0.996533 1.00046 0.996072 1
1.00156 1.00013 1.0015 0.999936
0.983822 0.981573 1.00255 0.999742
0.980147 0.986077 0.994076 0.99991
0.996717 1.00031 0.996409 1
1.00002 1.00015 0.999938 0.999939
0.989591 0.985868 1.0041 0.999678
0.991588 0.995644 0.995934 0.999991
0.999332 0.999468 0.999863 1
0.999956 1 1 0.999956
0.999966 1 1 0.999966
0.999981 1 1 0.999981
0.999971 1 1 0.999971
0.999962 1 1 0.999962
0.999969 1 1 0.999969
0.999973 1 1 0.999973
0.999976 1 1 0.999976
0.999977 1 1 0.999977
0.999978 1 1 0.999978
0.998937 1 0.998961 0.999975
0.999813 1 0.999845 0.999968
0.999933 1 1 0.999933
0.999929 1 1 0.999929
0.99993 1 1 0.99993
0.999943 1 1 0.999943
0.999947 1 1 0.999947
0.999948 1 1 0.999948
0.994805 1.00002 0.994824 0.999963
0.99994 1 1 0.99994
0.999933 1 1 0.999933
0.999928 1 1 0.999928
0.999919 1 1 0.999919
0.997662 1.00004 0.997693 0.999932
0.999989 1 1.00007 0.999915
0.999921 1 1 0.999921
0.999942 1 1 0.999942
0.999933 1 1 0.999933
0.999591 0.99959 1 1
0.99864 0.999494 0.999145 1
0.976346 0.980813 0.99543 1.00002
0.999948 1 1 0.999948
1.00016 1 1.00023 0.999932
1.00263 1 1.00274 0.999893
0.999332 0.999689 0.999643 1
0.988781 0.986407 1.00273 0.999672
0.996944 1.00037 0.99663 0.999945
1.00313 1 1.00327 0.999856
0.98611 0.992955 0.993202 0.999904
0.999901 0.999478 1.00042 1
0.99974 1.00031 0.999434 0.999999
0.999946 1 1 0.999946
0.999755 0.999755 1 1
0.999682 0.999539 1.00014 1
1.00216 1 1.00223 0.999935
1.00652 0.999888 1.00669 0.999939
0.996385 0.992817 1.0039 0.999691
0.99982 0.999751 1.00007 0.999999
0.994244 1.00054 0.99376 0.999948
0.999943 1 1 0.999943
1.00012 1.00012 0.999998 1
0.999583 0.999521 1.00006 1
0.999284 0.999445 0.999838 1
1.00374 0.999999 1.00378 0.999964
1.00682 0.996185 1.0109 0.99978
0.984287 1.00164 0.982716 0.999959
0.999947 1 1 0.999947
0.999943 1 1 0.999943
0.999946 1 1 0.999946
0.99996 1 1 0.99996
0.999951 1 1 0.999951
0.999946 1 1 0.999946
0.999952 1 1 0.999952
0.999945 1 1 0.999945
0.999948 1 1 0.999948
0.999948 1 1 0.999948
0.999946 1 1 0.999946
0.999955 1 1 0.999955
0.999961 1 1 0.999961
0.999954 1 1 0.999954
0.99995 1 1 0.99995
0.999952 1 1 0.999952
0.999948 1 1 0.999948
0.999953 1 1 0.999953
0.999944 1 1 0.999944
0.999955 1 1 0.999955
0.999956 1 1 0.999956
0.999949 1 1 0.999949
0.999957 1 1 0.999957
0.999967 1 1 0.999967
0.999957 1 1 0.999957
0.999975 1 1 0.999975
0.999967 1 1 0.999967
0.999963 1 1 0.999963
0.999964 1 1 0.999964
0.999972 1 1 0.999972
0.99999 1 1 0.99999
0.999972 1 1 0.999972
0.999989 1 1 0.999989
1 1 1 1
0.99999 1 1 0.99999
1 1 1 1
1 1 1 1
1 1 1 1
1 1 1 1
1 1 1 1
1 1 1 1
1 1 1 1
1 1 1 1
0.999989 1 1 0.999989
0.999999 1 1 0.999999
0.999991 1 1 0.999991
1 1 1 1
1 1 1 1
0.999993 1 1 0.999993
1 1 1 1
1 1 1 1
1 1 1 1
1 1 1 1
1 1 1 1
1 1 1 1
0.999693 0.99962 1.00007 1
0.997621 0.999561 0.998058 1
0.97719 0.979409 0.997769 0.999965
0.999971 1 1 0.999971
1.00005 0.999967 1.00008 1
0.99997 0.999707 1.00026 1
0.996701 0.999704 0.996995 1
0.99988 1.00022 0.999755 0.99991
0.985214 0.981549 1.00401 0.999721
0.981894 0.986029 0.995807 0.999999
0.996057 1.00035 0.995707 1
0.998892 1.00058 0.998446 0.999868
0.989368 0.985455 1.00429 0.999685
0.9899 0.994436 0.995496 0.999942
0.999347 1.00024 0.999111 1
0.998174 1.00007 0.998247 0.999853
0.996701 0.992536 1.00459 0.999603
0.996742 1.00029 0.996543 0.999911
0.999958 1.00004 0.999918 0.999998
0.999949 1 1 0.999949
0.999955 1 1 0.999955
0.999968 1 1 0.999968
0.99996 1 1 0.99996
0.999963 1 1 0.999963
0.99997 1 1 0.99997
0.999976 1 1 0.999976
0.999979 1 1 0.999979
0.995477 1 0.995516 0.999961
0.999931 1 1 0.999931
0.999948 1 1 0.999948
0.999919 1 1 0.999919
0.999933 1 1 0.999933
0.999941 1 1 0.999941
0.999942 1 1 0.999942
0.996544 1.00005 0.996561 0.99993
0.999933 1 1 0.999933
0.999921 1 1 0.999921
0.999992 1 1.00008 0.999915
0.99994 1 1 0.99994
1.00102 1 1.0011 0.999918
0.999948 1 1.00003 0.999917
0.999928 1 1 0.999928
0.999932 1 1 0.999932
1.00008 1.00008 1 1
0.999564 0.999563 1 1
0.999329 0.9995 0.999828 1
0.999947 1 1 0.999947
1.00239 1 1.00246 0.999925
0.99989 0.99989 1 1
0.995789 0.990847 1.00532 0.999673
1.00598 1 1.0061 0.99988
0.9931 1.00003 0.993144 0.999929
0.999616 0.999471 1.00015 1
0.999931 0.999727 1.0002 1
0.999944 1 1 0.999944
1.00014 1.00014 0.999999 1
0.99977 0.999718 1.00005 1
1.00234 0.999839 1.00253 0.999974
0.999098 1.00019 0.998904 1
1.00379 0.997905 1.0061 0.999797
0.987209 1.00067 0.986625 0.99992
0.999955 1 1 0.999955
1.00009 1.0001 0.999987 1
1.00006 0.99996 1.0001 1
0.996547 1.00152 0.995036 1
0.994078 0.998683 0.995467 0.999921
1.01089 0.999731 1.01117 0.99999
1.00685 0.997183 1.00988 0.999825
0.999944 1 1 0.999944
0.999945 1 1 0.999945
0.999952 1 1 0.999952
0.999953 1 1 0.999953
0.999945 1 1 0.999945
0.999947 1 1 0.999947
0.999946 1 1 0.999946
0.999949 1 1 0.999949
0.999939 1 1 0.999939
0.99995 1 1 0.99995
0.999952 1 1 0.999952
0.999947 1 1 0.999947
0.99994 1 1 0.99994
0.999955 1 1 0.999955
0.999946 1 1 0.999946
0.99994 1 1 0.99994
0.999946 1 1 0.999946
0.999956 1 1 0.999956
0.999948 1 1 0.999948
0.999959 1 1 0.999959
0.999965 1 1 0.999965
0.999958 1 1 0.999958
0.999976 1 1 0.999976
0.999967 1 1 0.999967
0.999957 1 1 0.999957
0.99999 1 1 0.99999
0.999974 1 1 0.999974
0.999966 1 1 0.999966
0.999973 1 1 0.999973
0.99999 1 1 0.99999
1 1 1 1
0.999989 1 1 0.999989
1 1 1 1
1 1 1 1
1 1 1 1
1 1 1 1
1 1 1 1
1 1 1 1
1 1 1 1
1 1 1 1
0.999987 1 1 0.999987
0.999999 1 1 0.999999
0.999989 1 1 0.999989
1 1 1 1
0.999999 1 1 0.999999
0.999991 1 1 0.999991
1 1 1 1
1 1 1 1
0.999999 1 1 0.999999
1 1 1 1
1 1 1 1
1 1 1 1
1.00006 1.00006 1 1
0.99966 0.999618 1.00004 1
0.997732 0.999548 0.998181 1
0.999972 1 1 0.999972
0.99997 1 1 0.99997
0.999962 1 1 0.999962
0.999545 0.999523 1.00002 1
1.00002 0.99996 1.00006 1
0.999882 0.999652 1.00023 1
1.00045 1.00102 0.999496 0.999935
0.990078 0.986023 1.00442 0.999695
0.98826 0.995728 0.992602 0.999897
0.999622 0.999505 1.00012 1
0.999859 1.00021 0.99971 0.999934
0.997471 0.991347 1.00648 0.999698
0.997266 1.00262 0.994698 0.999965
0.999904 0.999881 1.00002 0.999999
1.00537 0.999993 1.00542 0.999958
1.00141 0.997582 1.00411 0.999729
0.986911 1.00235 0.98465 0.999949
0.999811 0.999972 0.999839 1
0.999948 1 1 0.999948
0.99995 1 1 0.99995
0.999954 1 1 0.999954
0.99996 1 1 0.99996
0.999964 1 1 0.999964
0.999976 1 1 0.999976
0.995334 1 0.995405 0.999929
1.00002 1 1.00011 0.999915
0.999941 1 1 0.999941
0.99992 1 1 0.99992
0.999932 1 1 0.999932
0.999939 1 1 0.999939
0.999931 1 1 0.999931
1.0001 1 1.00019 0.999916
0.999928 1 1 0.999928
1.00001 1 1.00009 0.999916
0.999931 1 1 0.999931
1.00242 1 1.0025 0.999926
0.999943 1 1.00002 0.999925
0.999922 1 1 0.999922
0.999987 0.999985 1 1
1.00006 1.00006 1 1
0.999535 0.999534 1 1
0.999945 1 1 0.999945
1.00433 0.999771 1.00458 0.999979
1.00015 1.00015 0.999999 1
1.00435 0.999277 1.0052 0.999878
0.98315 1.00102 0.982182 0.999963
0.999946 0.999932 1.00001 1
0.99966 0.999484 1.00018 1
0.999956 1 1 0.999956
1.00006 1.00007 0.999994 1
1.00003 0.999953 1.00008 1
1.01288 0.999657 1.01328 0.999947
0.996514 1.00029 0.996225 1
0.994896 1.00244 0.992502 0.999975
0.999813 0.99772 1.00229 0.999811
1.00003 1 1.00006 0.99997
1.00006 1.00006 0.999999 1
1.0001 0.999743 1.00036 1
0.992921 1.00005 0.992872 1
0.990557 0.994886 0.995656 0.999993
1.00491 0.996389 1.00879 0.999764
1.01841 0.998727 1.01977 0.999941
0.999944 1 1 0.999944
0.999952 1 1 0.999952
0.999955 1 1.00002 0.999936
0.999946 1 1 0.999946
0.999949 1 1 0.999949
0.99994 1 1 0.99994
0.999923 1 1 0.999923
0.999946 1 1 0.999946
0.999938 1 1 0.999938
0.99993 1 1 0.99993
0.999947 1 1 0.999947
0.999939 1 1 0.999939
0.999937 1 1 0.999937
0.999942 1 1 0.999942
0.999954 1 1 0.999954
0.999946 1 1 0.999946
0.999948 1 1 0.999948
0.999966 1 1 0.999966
0.99996 1 1 0.99996
0.999974 1 1 0.999974
0.999967 1 1 0.999967
0.999959 1 1 0.999959
0.999991 1 1 0.999991
0.999976 1 1 0.999976
0.999967 1 1 0.999967
1 1 1 1
0.99999 1 1 0.99999
0.999974 1 1 0.999974
0.99999 1 1 0.99999
1 1 1 1
1 1 1 1
1 1 1 1
1 1 1 1
1 1 1 1
1 1 1 1
1 1 1 1
1 1 1 1
0.99999 1 1 0.99999
1 1 1 1
0.999988 1 1 0.999988
1 1 1 1
0.999999 1 1 0.999999
0.999989 1 1 0.999989
1 1 1 1
1 1 1 1
0.999999 1 1 0.999999
1 1 1 1
1 1 1 1
1 1 1 1
1.0001 1.0001 0.999993 1
1.00007 1.00007 0.999999 1
0.999598 0.999597 1 1
0.999972 1 1 0.999972
0.999968 1 1 0.999968
0.999973 1 1 0.999973
0.999971 1 1 0.999971
0.99996 1 1 0.99996
0.999961 1 1 0.999961
0.999954 1 1 0.999954
0.999767 0.999574 1.00019 1
0.999747 0.999744 1 1
0.999983 0.999953 1.00003 1
0.999849 0.999745 1.0001 1
1.00154 1.00081 1.00088 0.999844
1 0.993711 1.00656 0.999773
0.988263 1.00143 0.986962 0.999893
1.00524 0.999767 1.00557 0.999904
1.00159 0.998067 1.00378 0.999752
0.990435 1.00158 0.988969 0.9999
0.999875 1.00099 0.998885 0.999998
1.01147 0.999671 1.01184 0.999968
1.00515 0.998986 1.00639 0.99978
0.990262 1.00214 0.988184 0.999966
0.998947 1.00029 0.998655 1
0.999944 1 1 0.999944
0.999948 1 1 0.999948
0.99995 1 1 0.99995
0.99996 1 1 0.99996
0.99922 1 0.999306 0.999914
1.00004 1 1.00012 0.999916
0.999939 1 1 0.999939
0.99993 1 1 0.99993
0.999928 1 1 0.999928
0.999932 1 1 0.999932
0.999922 1 1 0.999922
1.00208 1 1.00215 0.999927
0.999954 1 1.00003 0.999928
0.999924 1 1 0.999924
1.00329 1 1.00333 0.999959
0.999907 1 1 0.999907
1.00008 1.00008 1 1
0.999979 0.999976 1 1
1.00004 1.00004 1 1
0.999956 1 1 0.999956
1.01082 0.999731 1.01111 0.99999
1.00003 1.00003 0.999998 1
1.00704 0.996845 1.01041 0.999816
0.984766 1.00048 0.984386 0.999903
0.999993 0.999945 1.00005 1
0.995684 1.00032 0.995361 1
1 1 1.00003 0.99997
1.00007 1.00007 0.999998 1
1.00001 0.999681 1.00033 1
1.02365 0.999613 1.02406 0.999984
0.994592 1.00025 0.994341 1
0.988321 0.993697 0.994644 0.999945
1.00358 0.996737 1.00708 0.999789
1.00137 1 1.00141 0.999961
0.999735 0.999608 1.00013 1
0.99882 0.999801 0.999018 1
0.977829 0.985512 0.992205 1
0.997301 0.991736 1.00592 0.999694
1.01752 1 1.01763 0.999893
0.999952 1 1 0.999952
0.999948 1 1.00001 0.999936
1.00123 1 1.00131 0.999918
0.999941 1 1 0.999941
0.999925 1 1 0.999925
0.999912 1 1 0.999912
0.999936 1 1 0.999936
0.999928 1 1 0.999928
0.999927 1 1 0.999927
0.999939 1 1 0.999939
0.999936 1 1 0.999936
0.999938 1 1 0.999938
0.999945 1 1 0.999945
0.999949 1 1 0.999949
0.999942 1 1 0.999942
0.999961 1 1 0.999961
0.999955 1 1 0.999955
0.999945 1 1 0.999945
0.999973 1 1 0.999973
0.999965 1 1 0.999965
0.99996 1 1 0.99996
0.999991 1 1 0.999991
0.999975 1 1 0.999975
0.999968 1 1 0.999968
1 1 1 1
0.999991 1 1 0.999991
0.999976 1 1 0.999976
1 1 1 1
1 1 1 1
0.999991 1 1 0.999991
1 1 1 1
1 1 1 1
1 1 1 1
1 1 1 1
1 1 1 1
1 1 1 1
0.999975 1 1 0.999975
0.99999 1 1 0.99999
1 1 1 1
0.99999 1 1 0.99999
1 1 1 1
1 1 1 1
0.999989 1 1 0.999989
1 1 1 1
1 1 1 1
1 1 1 1
1 1 1 1
1 1 1 1
1 1 1 1
1.00013 1.00013 0.999999 1
1.00006 1.00007 0.999998 1
1.00008 1.00008 0.999999 1
0.999973 1 1 0.999973
0.999967 1 1 0.999967
0.999967 1 1 0.999967
0.999964 1 1 0.999964
0.999962 1 1 0.999962
0.999971 1 1 0.999971
0.999959 1 1 0.999959
0.999961 1 1 0.999961
0.999955 1 1 0.999955
0.999955 1 1 0.999955
0.99996 0.999684 1.00028 1
0.999688 0.999539 1.00015 1
0.99994 0.999941 0.999999 1
1.00015 1.00058 0.999579 0.999998
0.985926 1.00154 0.984459 0.999954
1.00623 1 1.00636 0.999865
1.00473 0.997581 1.0074 0.999771
1.01229 0.999541 1.01285 0.999905
0.997215 0.999204 0.998236 0.999773
0.996223 1.00102 0.995272 0.999936
0.99806 1.0003 0.99776 1
1.0158 0.999172 1.01671 0.999932
1.00403 0.996274 1.00802 0.999764
0.987493 0.995668 0.991893 0.999896
0.994169 1.00024 0.993926 1
0.999948 1 1 0.999948
0.999945 1 1 0.999945
0.999948 1 1 0.999948
1.00174 1 1.00181 0.999928
0.999965 1 1.00004 0.99993
0.999934 1 1 0.999934
0.999921 1 1 0.999921
0.999925 1 1 0.999925
0.999907 1 1 0.999907
1.00329 1 1.00333 0.999959
0.999918 1 1 0.999918
1.00107 1 1.00114 0.999928
0.99958 0.99958 1 1
1.00006 1.00006 1 1
0.999971 0.999967 1 1
0.99997 1 1 0.99997
1.02313 0.999514 1.02369 0.999937
1.00008 1.00008 0.999997 1
1.00484 0.995122 1.01004 0.999724
0.986717 0.994934 0.991842 0.999898
0.999935 0.999623 1.00031 1
0.996168 1.00045 0.995721 1
1.00138 1 1.00142 0.99996
0.999678 0.999608 1.00007 1
0.998395 0.999742 0.998653 1
1.01842 0.999313 1.01918 0.999934
0.979437 0.985783 0.993655 0.999908
0.997383 0.990542 1.00727 0.999642
1.00343 1 1.00349 0.999938
0.999158 0.999579 0.999578 1
0.976234 0.98158 0.994623 0.99993
0.989073 0.985561 1.00389 0.999675
1.00221 1 1.00227 0.999935
0.999937 1 1 0.999937
1.00114 1 1.00122 0.999918
1.00254 1 1.00263 0.999906
0.999927 1 1 0.999927
0.999914 1 1 0.999913
0.999921 1 1 0.999921
0.999927 1 1 0.999927
0.999928 1 1 0.999928
0.999942 1 1 0.999942
0.999935 1 1 0.999935
0.999939 1 1 0.999939
0.999951 1 1 0.999951
0.999953 1 1 0.999953
0.999947 1 1 0.999947
0.999946 1 1 0.999946
0.999956 1 1 0.999956
0.999948 1 1 0.999948
0.999941 1 1 0.999941
0.999971 1 1 0.999971
0.999962 1 1 0.999962
0.999955 1 1 0.999955
0.999988 1 1 0.999988
0.999973 1 1 0.999973
0.999964 1 1 0.999964
1 1 1 1
0.99999 1 1 0.99999
0.999976 1 1 0.999976
1 1 1 1
1 1 1 1
0.999991 1 1 0.999991
1 1 1 1
1 1 1 1
1 1 1 1
1 1 1 1
1 1 1 1
1 1 1 1
0.999975 1 1 0.999975
0.99999 1 1 0.99999
0.999975 1 1 0.999975
1 1 1 1
0.99999 1 1 0.99999
1 1 1 1
1 1 1 1
0.999989 1 1 0.999989
1 1 1 1
1 1 1 1
1 1 1 1
1 1 1 1
1 1 1 1
1 1 1 1
0.999929 0.999929 1 1
1.00014 1.00014 0.999999 1
1.00003 1.00003 1 1
0.999969 1 1 0.999969
0.999974 1 1 0.999974
0.999966 1 1 0.999966
0.999965 1 1 0.999965
0.999968 1 1 0.999968
0.999963 1 1 0.999963
0.999961 1 1 0.999961
0.999959 1 1 0.999959
0.999961 1 1 0.999961
0.999955 1 1 0.999955
0.999955 1 1 0.999955
0.999954 1 1 0.999954
0.996654 0.999509 0.997142 1
0.999911 0.999583 1.00033 1
0.999608 0.99951 1.0001 1
0.996597 1.00153 0.995073 1
0.99594 1.00089 0.995151 0.999906
1.00509 0.998939 1.00638 0.99978
1.01199 0.999664 1.01235 0.999979
1.02007 0.999294 1.0208 0.99999
0.995316 1.00028 0.995033 1
0.999061 0.997954 1.00139 0.999723
0.989812 0.994763 0.995032 0.999991
1.00899 0.999727 1.0093 0.999968
0.997358 0.991104 1.00661 0.999701
0.978878 0.986057 0.992716 1
0.999953 1 1 0.999953
0.999948 1 1 0.999948
0.999946 1 1 0.999946
1.00329 1 1.00334 0.999959
0.999907 1 1 0.999907
0.999925 1 1 0.999925
0.999919 1 1 0.999919
1.00104 1 1.00111 0.999929
0.999939 1 1 0.999939
0.997137 0.999116 0.998017 1
0.999726 0.999726 1 1
1.00004 1.00004 1 1
1.00121 1 1.00125 0.99996
1.01708 1 1.01713 0.999954
0.999588 0.999589 1 1
1.00204 0.992971 1.00934 0.9998
0.981434 0.985757 0.995616 0.999999
0.996448 0.999681 0.996764 1
1.0034 1 1.00346 0.999938
0.99739 0.999549 0.997839 1
0.977402 0.981642 0.995672 1.00001
1.00334 0.999931 1.00355 0.999852
0.989027 0.985203 1.0042 0.999683
0.999236 1 0.999329 0.999907
0.976518 0.980602 0.995819 1.00002
0.982811 0.981637 1.00144 0.999754
0.992257 1.0004 0.992012 0.999851
1.00099 1 1.00108 0.999919
1.00251 1 1.00261 0.999903
1.001 1 1.00107 0.999924
0.99992 1 1.00001 0.999913
0.999923 1 1 0.999922
0.999953 1 1 0.999953
0.999929 1 1 0.999929
0.999943 1 1 0.999943
0.999964 1 1 0.999964
0.99994 1 1 0.99994
0.999951 1 1 0.999951
0.999963 1 1 0.999963
0.99996 1 1 0.99996
0.999952 1 1 0.999952
0.999954 1 1 0.999954
0.999953 1 1 0.999953
0.999948 1 1 0.999948
0.999946 1 1 0.999946
0.999968 1 1 0.999968
0.999956 1 1 0.999956
0.999946 1 1 0.999946
0.999986 1 1 0.999986
0.999971 1 1 0.999971
0.999963 1 1 0.999963
1 1 1 1
0.999988 1 1 0.999988
0.999972 1 1 0.999972
1 1 1 1
1 1 1 1
0.99999 1 1 0.99999
1 1 1 1
1 1 1 1
1 1 1 1
1 1 1 1
1 1 1 1
1 1 1 1
0.999977 1 1 0.999977
0.999975 1 1 0.999975
0.99999 1 1 0.99999
1 1 1 1
0.99999 1 1 0.99999
0.999974 1 1 0.999974
1 1 1 1
1 1 1 1
0.99999 1 1 0.99999
1 1 1 1
1 1 1 1
1 1 1 1
1 1 1 1
1 1 1 1
1 1 1 1
0.998768 0.999206 0.999561 1
0.99991 0.99991 1 1
1.00015 1.00015 1 1
0.999968 1 1 0.999968
0.999967 1 1 0.999967
0.999963 1 1 0.999963
0.999966 1 1 0.999966
0.999969 1 1 0.999969
0.999963 1 1 0.999963
0.999959 1 1 0.999959
0.999962 1 1 0.999962
0.999957 1 1 0.999957
0.999957 1 1 0.999957
0.999955 1 1 0.999955
0.999954 1 1 0.999954
0.97959 0.982507 0.997024 1.00001
0.997459 0.999642 0.997816 1
0.999868 0.999496 1.00037 1
0.996359 1.00033 0.996033 1
0.985395 0.993034 0.992398 0.999909
1.00312 0.999277 1.00405 0.999803
1.0171 0.999181 1.01801 0.99993
1.0107 0.999648 1.01116 0.999899
0.979371 0.985903 0.993455 0.99992
0.998767 0.992925 1.00613 0.999759
1.00624 1 1.00637 0.999868
0.989376 0.985593 1.00411 0.999728
0.999946 1 1 0.999946
0.999953 1 1 0.999953
0.999949 1 1 0.999949
1.00101 1 1.00108 0.99993
0.99992 1 1 0.99992
0.999953 1 1.00001 0.99994
0.99994 1 1 0.99994
0.974871 0.981479 0.993251 1.00002
0.998307 0.99932 0.998985 1
0.999881 0.99988 1 1
1.00369 1 1.00376 0.999937
1.00427 1.00003 1.0043 0.999946
0.997423 0.999538 0.997882 1
0.989548 0.985736 1.00418 0.99969
0.976442 0.981476 0.994938 0.999933
0.998391 1 0.998481 0.99991
0.975525 0.979722 0.995729 0.999987
0.984163 0.981579 1.0029 0.999737
0.993486 1.00058 0.992969 0.999938
0.992116 1.00045 0.991749 0.999919
0.978878 0.97956 0.999551 0.999753
0.99841 1.00051 0.997955 0.999941
1.00251 1 1.00261 0.999901
1.00077 1 1.00085 0.999924
0.999912 1 0.999945 0.999967
0.999923 1 1 0.999923
0.999954 1 1 0.999954
0.999983 1 1 0.999983
0.999944 1 1 0.999944
0.999964 1 1 0.999964
0.999975 1 1 0.999975
0.999952 1 1 0.999952
0.999963 1 1 0.999963
0.999966 1 1 0.999966
0.99996 1 1 0.99996
0.99996 1 1 0.99996
0.999958 1 1 0.999958
0.999955 1 1 0.999955
0.999952 1 1 0.999952
0.999954 1 1 0.999954
0.999962 1 1 0.999962
0.999954 1 1 0.999954
0.999949 1 1 0.999949
0.999982 1 1 0.999982
0.999968 1 1 0.999968
0.999956 1 1 0.999956
1 1 1 1
0.999986 1 1 0.999986
0.999971 1 1 0.999971
1 1 1 1
1 1 1 1
0.999988 1 1 0.999988
1 1 1 1
1 1 1 1
1 1 1 1
1 1 1 1
1 1 1 1
1 1 1 1
0.999975 1 1 0.999975
0.999976 1 1 0.999976
0.99999 1 1 0.99999
0.999976 1 1 0.999976
0.99999 1 1 0.99999
1 1 1 1
1 1 1 1
1 1 1 1
0.99999 1 1 0.99999
1 1 1 1
1 1 1 1
1 1 1 1
1 1 1 1
1 1 1 1
1 1 1 1
0.979135 0.98129 0.997847 0.999958
0.998 0.999285 0.998713 1
0.999892 0.999891 1 1
0.999967 1 1 0.999967
0.999963 1 1 0.999963
0.999967 1 1 0.999967
0.999966 1 1 0.999966
0.999962 1 1 0.999962
0.99996 1 1 0.99996
0.999962 1 1 0.999962
0.999956 1 1 0.999956
0.999958 1 1 0.999958
0.999954 1 1 0.999954
0.999952 1 1 0.999952
0.999956 1 1 0.999956
0.999953 1 1 0.999953
0.983698 0.983145 1.00086 0.999699
0.979697 0.982738 0.996929 0.999976
0.996744 0.999777 0.996965 1
0.980947 0.986331 0.994539 1
0.997065 0.990901 1.00661 0.999612
1.00899 0.999727 1.0093 0.99997
1.00629 0.999891 1.00649 0.999908
0.988991 0.985561 1.00376 0.999721
1.00271 1 1.00282 0.999895
0.999921 1 1 0.999921
0.999991 1 1.00005 0.999945
0.999953 1 1 0.999953
0.999966 1 1.00002 0.999942
0.999953 1 1 0.999953
0.977963 0.980184 0.997893 0.999841
0.976409 0.980944 0.995412 0.999965
0.999287 0.999513 0.999773 1
0.997453 1 0.99754 0.999913
0.995466 1.00135 0.994284 0.999842
0.977361 0.979902 0.997444 0.999964
0.986018 0.981423 1.00497 0.999717
0.991006 1.00029 0.990804 0.999917
0.980174 0.979984 1.00038 0.999813
0.996077 1.00106 0.995151 0.999868
0.988212 1.00057 0.987687 0.999958
1.00607 1 1.00611 0.999952
1.00057 1 1.00065 0.999925
0.999519 1 0.999551 0.999968
0.99982 1 0.999827 0.999993
0.999955 1 1 0.999955
0.999983 1 1 0.999983
0.999985 1 1 0.999985
0.999964 1 1 0.999964
0.999974 1 1 0.999974
0.999969 1 1 0.999969
0.999963 1 1 0.999963
0.999965 1 1 0.999965
0.99996 1 1 0.99996
0.999961 1 1 0.999961
0.999957 1 1 0.999957
0.999961 1 1 0.999961
0.999958 1 1 0.999958
0.999958 1 1 0.999958
0.99996 1 1 0.99996
0.999955 1 1 0.999955
0.999953 1 1 0.999953
0.999978 1 1 0.999978
0.999963 1 1 0.999963
0.999955 1 1 0.999955
0.999999 1 1 0.999999
0.999982 1 1 0.999982
0.999968 1 1 0.999968
1 1 1 1
1 1 1 1
0.999986 1 1 0.999986
1 1 1 1
1 1 1 1
1 1 1 1
1 1 1 1
1 1 1 1
1 1 1 1
0.999971 1 1 0.999971
0.999975 1 1 0.999975
0.999986 1 1 0.999986
0.999974 1 1 0.999974
0.999989 1 1 0.999989
1 1 1 1
0.99999 1 1 0.99999
1 1 1 1
1 1 1 1
1 1 1 1
1 1 1 1
1 1 1 1
1 1 1 1
1 1 1 1
1 1 1 1
0.98181 0.982024 0.999964 0.999818
0.977313 0.982382 0.994827 1.00001
0.998952 0.999361 0.999591 1
0.999964 1 1 0.999964
0.999968 1 1 0.999968
0.999963 1 1 0.999963
0.999966 1 1 0.999966
0.999964 1 1 0.999964
0.999962 1 1 0.999962
0.999956 1 1 0.999956
0.999958 1 1 0.999958
0.999955 1 1 0.999955
0.999955 1 1 0.999955
0.999953 1 1 0.999953
0.999926 1 1 0.999926
0.999952 1 1 0.999952
0.999955 1 1 0.999955
0.998594 0.999996 0.998619 0.999979
0.982409 0.982592 1.00004 0.999773
0.976645 0.981735 0.994877 0.999938
0.98958 0.986227 1.00369 0.999707
1.00645 1 1.00649 0.999959
1.00292 0.99984 1.00313 0.99995
0.999908 1 1 0.999908
0.999979 1 1.00006 0.999921
1.00006 1 1.00012 0.999944
0.999966 1 1 0.999966
1.00203 0.999878 1.00224 0.99992
0.980769 0.98085 1.00007 0.999844
0.976372 0.981479 0.994781 1.00002
0.989609 1 0.989693 0.999915
0.997427 1.00164 0.99586 0.999936
0.981018 0.979493 1.00168 0.999878
0.989544 1.00023 0.989365 0.999956
1.00238 1.00019 1.00226 0.999937
0.993589 1 0.993613 0.999976
1.00225 1 1.00232 0.999936
0.999219 1 0.999251 0.999968
0.999559 1 0.999567 0.999992
0.999917 1 0.999938 0.999978
0.999982 1 1 0.999982
0.999984 1 1 0.999984
0.999968 1 1 0.999968
0.999974 1 1 0.999974
0.999968 1 1 0.999968
0.999958 1 1 0.999958
0.999965 1 1 0.999965
0.99996 1 1 0.99996
0.999954 1 1 0.999954
0.999961 1 1 0.999961
0.999958 1 1 0.999958
0.999956 1 1 0.999956
0.999958 1 1 0.999958
0.999958 1 1 0.999958
0.999961 1 1 0.999961
0.999972 1 1 0.999972
0.999961 1 1 0.999961
0.999955 1 1 0.999955
0.999998 1 1 0.999998
0.999978 1 1 0.999978
0.999964 1 1 0.999964
1 1 1 1
0.999999 1 1 0.999999
0.999982 1 1 0.999982
1 1 1 1
1 1 1 1
1 1 1 1
1 1 1 1
1 1 1 1
1 1 1 1
0.99997 1 1 0.99997
0.999973 1 1 0.999973
0.999984 1 1 0.999984
0.999975 1 1 0.999975
0.999986 1 1 0.999986
1 1 1 1
0.999988 1 1 0.999988
1 1 1 1
1 1 1 1
1 1 1 1
1 1 1 1
1 1 1 1
1 1 1 1
1 1 1 1
1 1 1 1
0.997822 0.999558 0.998269 0.999994
0.980219 0.981478 0.998896 0.999822
0.976349 0.982428 0.993855 0.999957
0.999961 1 1 0.999961
0.999963 1 1 0.999963
0.999967 1 1 0.999967
0.999962 1 1 0.999962
0.999964 1 1 0.999964
0.999961 1 1 0.999961
0.999958 1 1 0.999958
0.999955 1 1 0.999955
0.999956 1 1 0.999956
0.999956 1 1 0.999956
0.99994 1 1 0.99994
0.999902 1 1 0.999902
0.999928 1 1 0.999928
0.999952 1 1 0.999952
0.998292 1 0.998371 0.999922
0.998043 1 0.998108 0.999935
0.982559 0.982028 1.0007 0.999844
1.00239 1 1.00251 0.999877
0.999891 1 1 0.999891
1.00001 1 1.00009 0.999921
1.00001 1 1.00002 0.999989
1.00315 0.999866 1.0033 0.999985
0.978784 0.980982 0.997922 0.999838
0.991065 1 0.99111 0.999954
1.00009 1.00035 0.999838 0.99991
0.995567 1 0.995592 0.999974
1.00123 1 1.00129 0.999943
0.999947 1 1 0.999947
0.999942 1 1 0.999942
0.999163 1 0.999173 0.999991
0.999926 1 0.999949 0.999977
0.999955 1 1 0.999955
0.999983 1 1 0.999983
0.999968 1 1 0.999968
0.999954 1 1 0.999954
0.999968 1 1 0.999968
0.999958 1 1 0.999958
0.999949 1 1 0.999949
0.999961 1 1 0.999961
0.999954 1 1 0.999954
0.999952 1 1 0.999952
0.999958 1 1 0.999958
0.999956 1 1 0.999956
0.999958 1 1 0.999958
0.999957 1 1 0.999957
0.999961 1 1 0.999961
0.99997 1 1 0.99997
0.999996 1 1 0.999996
0.999973 1 1 0.999973
0.999962 1 1 0.999962
1 1 1 1
0.999998 1 1 0.999998
0.999978 1 1 0.999978
1 1 1 1
1 1 1 1
0.999999 1 1 0.999999
1 1 1 1
1 1 1 1
1 1 1 1
0.999967 1 1 0.999967
0.99997 1 1 0.99997
0.999983 1 1 0.999983
0.999974 1 1 0.999974
0.999985 1 1 0.999985
0.999999 1 1 0.999999
0.999986 1 1 0.999986
1 1 1 1
1 1 1 1
1 1 1 1
1 1 1 1
1 1 1 1
1 1 1 1
1 1 1 1
1 1 1 1
0.998312 1 0.998332 0.999981
0.997485 0.999723 0.997835 0.999927
0.981972 0.982467 0.999659 0.999836
0.999959 1 1 0.999959
0.999955 1 1 0.999955
0.999961 1 1 0.999961
0.999961 1 1 0.999961
0.999964 1 1 0.999964
0.99996 1 1 0.99996
0.999942 1 1 0.999942
0.999957 1 1 0.999957
0.999958 1 1 0.999958
0.999939 1 1 0.999939
0.999913 1 1 0.999913
0.999941 1 1 0.999941
0.999904 1 1 0.999904
0.999931 1 1 0.999931
0.998425 1 0.998501 0.999925
0.997642 1 0.997736 0.999905
0.999874 1 1 0.999874
0.999995 1 1 0.999995
1.00107 1 1.00108 0.99999
1.00196 0.999518 1.00251 0.999936
0.997613 1 0.997641 0.999973
1.00028 1 1.00033 0.99995
0.999949 1 1 0.999949
0.999947 1 1 0.999947
0.999941 1 1 0.999941
0.999974 1 1 0.999974
0.999976 1 1 0.999976
0.999956 1 1 0.999956
0.999946 1 1 0.999946
0.999968 1 1 0.999968
0.999954 1 1 0.999954
0.999946 1 1 0.999946
0.999959 1 1 0.999959
0.999949 1 1 0.999949
0.999947 1 1 0.999947
0.999954 1 1 0.999954
0.999952 1 1 0.999952
0.999955 1 1 0.999955
0.999956 1 1 0.999956
0.999958 1 1 0.999958
0.999968 1 1 0.999968
0.99996 1 1 0.99996
0.99997 1 1 0.99997
0.999993 1 1 0.999993
1 1 1 1
0.999995 1 1 0.999995
0.999974 1 1 0.999974
1 1 1 1
1 1 1 1
0.999997 1 1 0.999997
1 1 1 1
1 1 1 1
1 1 1 1
0.999961 1 1 0.999961
0.999966 1 1 0.999966
0.999979 1 1 0.999979
0.99997 1 1 0.99997
0.999983 1 1 0.999983
0.999999 1 1 0.999999
0.999985 1 1 0.999985
1 1 1 1
1 1 1 1
1 1 1 1
1 1 1 1
1 1 1 1
1 1 1 1
1 1 1 1
1 1 1 1
0.999987 1 1 0.999987
0.998482 1 0.998498 0.999984
0.997583 0.999612 0.997975 0.999996
0.999949 1 1 0.999949
0.999961 1 1 0.999961
0.999944 1 1 0.999944
0.999955 1 1 0.999955
0.999961 1 1 0.999961
0.999924 1 1 0.999924
0.999959 1 1 0.999959
0.999942 1 1 0.999942
0.99993 1 1 0.99993
0.999939 1 1 0.999939
0.99991 1 1 0.99991
0.99994 1 1 0.99994
0.999907 1 1 0.999907
0.998553 1 0.998625 0.999927
0.999996 1 1 0.999996
0.999993 1 1 0.999993
1.00202 1 1.00203 0.99999
0.999951 1 1 0.999951
0.999951 1 1 0.999951
0.999939 1 1 0.999939
0.999975 1 1 0.999975
0.999967 1 1 0.999967
0.999957 1 1 0.999957
0.999947 1 1 0.999947
0.999948 1 1 0.999948
0.999953 1 1 0.999953
0.999945 1 1 0.999945
0.999946 1 1 0.999946
0.999949 1 1 0.999949
0.999947 1 1 0.999947
0.99995 1 1 0.99995
0.999952 1 1 0.999952
0.999955 1 1 0.999955
0.999963 1 1 0.999963
0.999958 1 1 0.999958
0.999968 1 1 0.999968
0.999989 1 1 0.999989
0.99997 1 1 0.99997
0.999992 1 1 0.999992
1 1 1 1
1 1 1 1
1 1 1 1
0.999995 1 1 0.999995
1 1 1 1
1 1 1 1
1 1 1 1
0.999944 1 1 0.999944
0.999955 1 1 0.999955
0.99996 1 1 0.99996
0.999975 1 1 0.999975
0.999965 1 1 0.999965
0.999979 1 1 0.999979
0.999998 1 1 0.999998
0.999983 1 1 0.999983
0.999999 1 1 0.999999
1 1 1 1
1 1 1 1
1 1 1 1
1 1 1 1
1 1 1 1
1 1 1 1
1 1 1 1
0.999973 1 1 0.999973
0.999987 1 1 0.999987
0.998657 1 0.99867 0.999987
0.999933 1 1 0.999933
0.999951 1 1 0.999951
0.999962 1 1 0.999962
0.999945 1 1 0.999945
0.999954 1 1 0.999954
0.999925 1 1 0.999925
0.999923 1 1 0.999923
0.999942 1 1 0.999942
0.999929 1 1 0.999929
0.999907 1 1 0.999907
0.999938 1 1 0.999938
0.999991 1 1 0.999991
0.999995 1 1 0.999995
0.999991 1 1 0.999991
0.999938 1 1 0.999938
0.999976 1 1 0.999976
0.999967 1 1 0.999967
0.999967 1 1 0.999967
0.999948 1 1 0.999948
0.999947 1 1 0.999947
0.999953 1 1 0.999953
0.999945 1 1 0.999945
0.999945 1 1 0.999945
0.999948 1 1 0.999948
0.999947 1 1 0.999947
0.99995 1 1 0.99995
0.999959 1 1 0.999959
0.999955 1 1 0.999955
0.999963 1 1 0.999963
0.999984 1 1 0.999984
0.999968 1 1 0.999968
0.999989 1 1 0.999989
1 1 1 1
0.999992 1 1 0.999992
1 1 1 1
1 1 1 1
1 1 1 1
1 1 1 1
1 1 1 1
0.999934 1 1 0.999934
0.999953 1 1 0.999953
0.999947 1 1 0.999947
0.99997 1 1 0.99997
0.999955 1 1 0.999955
0.99996 1 1 0.99996
0.999975 1 1 0.999975
0.999996 1 1 0.999996
0.999979 1 1 0.999979
0.999998 1 1 0.999998
1 1 1 1
0.999999 1 1 0.999999
1 1 1 1
1 1 1 1
1 1 1 1
1 1 1 1
1 1 1 1
0.999961 1 1 0.999961
0.999973 1 1 0.999973
0.999986 1 1 0.999986
0.99993 1 1 0.99993
0.999933 1 1 0.999933
0.999954 1 1 0.999954
0.999946 1 1 0.999946
0.999925 1 1 0.999925
0.999922 1 1 0.999922
0.999927 1 1 0.999927
0.999983 1 1 0.999983
0.999988 1 1 0.999988
0.999994 1 1 0.999994
0.999971 1 1 0.999971
0.999966 1 1 0.999966
0.999967 1 1 0.999967
0.999963 1 1 0.999963
0.999945 1 1 0.999945
0.999953 1 1 0.999953
0.999952 1 1 0.999952
0.999945 1 1 0.999945
0.999948 1 1 0.999948
0.999955 1 1 0.999955
0.99995 1 1 0.99995
0.999959 1 1 0.999959
0.999978 1 1 0.999978
0.999963 1 1 0.999963
0.999984 1 1 0.999984
1 1 1 1
0.999989 1 1 0.999989
1 1 1 1
1 1 1 1
1 1 1 1
1 1 1 1
1 1 1 1
0.999932 1 1 0.999932
0.999941 1 1 0.999941
0.999936 1 1 0.999936
0.999966 1 1 0.999966
0.999952 1 1 0.999952
0.99995 1 1 0.99995
0.999992 1 1 0.999992
0.99997 1 1 0.99997
0.999956 1 1 0.999956
0.999975 1 1 0.999975
0.999996 1 1 0.999996
1 1 1 1
0.999998 1 1 0.999998
1 1 1 1
1 1 1 1
1 1 1 1
1 1 1 1
1 1 1 1
0.999956 1 1 0.999956
0.999958 1 1 0.999958
0.999974 1 1 0.999974
0.999928 1 1 0.999928
0.999933 1 1 0.999933
0.999925 1 1 0.999925
0.999972 1 1 0.999972
0.999985 1 1 0.999985
0.999985 1 1 0.999985
0.999969 1 1 0.999969
0.999967 1 1 0.999967
0.999967 1 1 0.999967
0.999963 1 1 0.999963
0.999961 1 1 0.999961
0.999953 1 1 0.999953
0.999952 1 1 0.999952
0.999956 1 1 0.999956
0.999948 1 1 0.999948
0.999955 1 1 0.999955
0.999973 1 1 0.999973
0.999959 1 1 0.999959
0.999978 1 1 0.999978
1 1 1 1
0.999984 1 1 0.999984
1 1 1 1
1 1 1 1
1 1 1 1
1 1 1 1
1 1 1 1
0.999954 1 1 0.999954
0.999935 1 1 0.999935
0.999931 1 1 0.999931
0.999955 1 1 0.999955
0.999942 1 1 0.999942
0.999937 1 1 0.999937
0.999986 1 1 0.999986
0.999964 1 1 0.999964
0.999951 1 1 0.999951
1 1 1 1
0.999992 1 1 0.999992
0.99997 1 1 0.99997
0.999997 1 1 0.999997
1 1 1 1
1 1 1 1
1 1 1 1
1 1 1 1
1 1 1 1
0.999951 1 1 0.999951
0.999955 1 1 0.999955
0.999956 1 1 0.999956
0.999925 1 1 0.999925
0.999966 1 1 0.999966
0.999974 1 1 0.999974
0.999987 1 1 0.999987
0.999967 1 1 0.999967
0.999968 1 1 0.999968
0.999969 1 1 0.999969
0.999963 1 1 0.999963
0.999961 1 1 0.999961
0.999962 1 1 0.999962
0.999953 1 1 0.999953
0.999956 1 1 0.999956
0.999972 1 1 0.999972
0.999955 1 1 0.999955
0.999973 1 1 0.999973
1 1 1 1
0.999978 1 1 0.999978
1 1 1 1
1 1 1 1
1 1 1 1
1 1 1 1
1 1 1 1
0.999953 1 1 0.999953
0.999949 1 1 0.999949
0.999953 1 1 0.999953
0.999945 1 1 0.999945
0.999937 1 1 0.999937
0.999931 1 1 0.999931
0.999975 1 1 0.999975
0.999955 1 1 0.999955
0.999943 1 1 0.999943
1 1 1 1
0.999984 1 1 0.999984
0.999962 1 1 0.999962
1 1 1 1
1 1 1 1
0.999993 1 1 0.999993
1 1 1 1
1 1 1 1
1 1 1 1
0.999955 1 1 0.999955
0.999955 1 1 0.999955
0.999954 1 1 0.999954
0.999972 1 1 0.999972
0.999966 1 1 0.999966
0.999975 1 1 0.999975
0.999969 1 1 0.999969
0.999969 1 1 0.999969
0.999972 1 1 0.999972
0.999961 1 1 0.999961
0.999962 1 1 0.999962
0.999974 1 1 0.999974
0.999957 1 1 0.999957
0.999972 1 1 0.999972
0.999999 1 1 0.999999
0.999974 1 1 0.999974
1 1 1 1
1 1 1 1
1 1 1 1
1 1 1 1
1 1 1 1
0.999952 1 1 0.999952
0.999955 1 1 0.999955
0.999953 1 1 0.999953
0.999952 1 1 0.999952
0.999949 1 1 0.999949
0.999953 1 1 0.999953
0.999967 1 1 0.999967
0.999947 1 1 0.999947
0.99994 1 1 0.99994
1 1 1 1
0.999974 1 1 0.999974
0.999955 1 1 0.999955
1 1 1 1
1 1 1 1
0.999983 1 1 0.999983
1 1 1 1
1 1 1 1
1 1 1 1
0.999962 1 1 0.999962
0.999955 1 1 0.999955
0.999958 1 1 0.999958
0.999976 1 1 0.999976
0.999971 1 1 0.999971
0.999967 1 1 0.999967
0.999969 1 1 0.999969
0.999972 1 1 0.999972
0.999981 1 1 0.999981
0.999963 1 1 0.999963
0.999974 1 1 0.999974
0.999999 1 1 0.999999
0.999972 1 1 0.999972
0.999999 1 1 0.999999
1 1 1 1
0.999999 1 1 0.999999
1 1 1 1
1 1 1 1
0.999958 1 1 0.999958
0.99995 1 1 0.99995
0.999959 1 1 0.999959
0.999956 1 1 0.999956
0.999952 1 1 0.999952
0.99997 1 1 0.99997
0.999951 1 1 0.999951
0.99995 1 1 0.99995
0.999999 1 1 0.999999
0.999968 1 1 0.999968
0.99995 1 1 0.99995
1 1 1 1
1 1 1 1
0.999973 1 1 0.999973
1 1 1 1
1 1 1 1
1 1 1 1
0.999969 1 1 0.999969
0.999962 1 1 0.999962
0.999956 1 1 0.999956
0.999984 1 1 0.999984
0.999976 1 1 0.999976
0.99997 1 1 0.99997
0.999972 1 1 0.999972
0.99998 1 1 0.99998
0.999999 1 1 0.999999
0.999974 1 1 0.999974
0.999999 1 1 0.999999
1 1 1 1
0.999999 1 1 0.999999
1 1 1 1
1 1 1 1
0.999964 1 1 0.999964
0.999956 1 1 0.999956
0.999947 1 1 0.999947
0.999974 1 1 0.999974
0.999959 1 1 0.999959
0.999956 1 1 0.999956
0.999999 1 1 0.999999
0.999969 1 1 0.999969
0.999951 1 1 0.999951
1 1 1 1
1 1 1 1
0.999969 1 1 0.999969
1 1 1 1
1 1 1 1
1 1 1 1
0.999983 1 1 0.999983
0.999969 1 1 0.999969
0.999962 1 1 0.999962
1 1 1 1
0.999984 1 1 0.999984
0.999976 1 1 0.999976
0.999979 1 1 0.999979
0.999999 1 1 0.999999
1 1 1 1
0.999999 1 1 0.999999
1 1 1 1
1 1 1 1
0.999979 1 1 0.999979
0.999964 1 1 0.999964
0.999955 1 1 0.999955
0.999999 1 1 0.999999
0.999974 1 1 0.999974
0.999959 1 1 0.999959
1 1 1 1
0.999999 1 1 0.999999
0.999969 1 1 0.999969
1 1 1 1
1 1 1 1
1 1 1 1
1 1 1 1
0.999982 1 1 0.999982
0.999969 1 1 0.999969
1 1 1 1
1 1 1 1
0.999983 1 1 0.999983
1 1 1 1
1 1 1 1
1 1 1 1
1 1 1 1
0.999979 1 1 0.999979
0.999964 1 1 0.999964
1 1 1 1
0.999999 1 1 0.999999
0.999974 1 1 0.999974
1 1 1 1
0.999999 1 1 0.999999
1 1 1 1
1 1 1 1
1 1 1 1
0.999981 1 1 0.999981
1 1 1 1
1 1 1 1
1 1 1 1
1 1 1 1
0.999999 1 1 0.999999
0.999979 1 1 0.999979
1 1 1 1
0.999999 1 1 0.999999
1 1 1 1
1 1 1 1
1 1 1 1
1 1 1 1
1 1 1 1
0.999999 1 1 0.999999
1 1 1 1
1 1 1 1
1 1 1 1

VECTORS lamdaE float
0.999336 0.99782 0.998183
0.999455 0.997262 0.999313
0.999335 0.997788 0.998198
0.999023 0.998921 0.997797
0.999244 0.998141 0.998074
0.999413 0.997532 0.99829
0.999534 0.9988 0.996742
0.999466 0.997268 0.999323
0.99927 0.998039 0.999172
0.999404 0.997467 0.99929
0.999525 0.997037 0.998482
0.999617 0.99827 0.996922
0.998527 1.00022 0.997495
0.998873 0.999274 0.99771
0.999335 0.997755 0.998214
0.999016 0.998888 0.997819
0.999414 0.997497 0.998305
0.999242 0.998108 0.99809
0.99953 0.998811 0.996748
0.998591 0.99988 0.998929
0.998895 0.999357 0.997653
0.999137 0.998508 0.997949
0.999372 0.999709 0.996212
0.999479 0.999092 0.996581
0.999488 0.997269 0.998385
0.999578 0.99852 0.996914
0.999895 1.00022 0.994693
0.999476 0.997273 0.999333
0.999271 0.998072 0.998598
0.999407 0.997488 0.998796
0.99952 0.99705 0.999352
0.999612 0.998246 0.996929
0.999152 0.998446 0.9979
0.999333 0.99777 0.998195
0.999533 0.999057 0.996833
0.999591 0.996831 0.999381
0.999578 0.99851 0.99724
0.999649 0.998064 0.997053
0.999862 0.999872 0.994839
0.999693 0.996587 0.999387
0.998534 0.999929 0.998932
0.998845 0.999274 0.998348
0.998447 1.00017 0.998906
0.998692 0.999754 0.997613
0.999116 1.00079 0.995341
0.999032 0.998742 0.999068
0.999304 0.999975 0.996327
0.99901 0.998854 0.997842
0.99924 0.998074 0.998107
0.999415 0.997462 0.99832
0.999526 0.998823 0.996755
0.998576 1.00001 0.998208
0.998886 0.999326 0.997672
0.999491 0.997231 0.998396
0.999134 0.998475 0.997969
0.999371 0.999719 0.996216
0.999575 0.99853 0.996921
0.999476 0.999101 0.996586
0.999907 1.00021 0.994663
0.998506 1.00009 0.998917
0.998745 0.999788 0.997549
0.999159 1.00058 0.996042
0.999327 0.999998 0.996031
0.999418 0.999401 0.99641
1.00001 1.00061 0.994026
0.999924 1.00034 0.994375
0.999582 0.99705 0.998453
0.99963 0.998229 0.997094
0.999855 1.00006 0.994932
1.00022 1.00061 0.993395
0.999283 0.998056 0.999189
0.999535 0.997063 0.999363
0.999415 0.997506 0.999297
0.999608 0.998222 0.996936
0.99916 0.998402 0.999102
0.99933 0.997768 0.999226
0.999529 0.999055 0.996285
0.999594 0.996848 0.998953
0.999578 0.998485 0.996773
0.999648 0.998041 0.997287
0.999853 0.999886 0.994836
0.999638 0.996707 0.999383
0.999795 0.997597 0.997222
0.999494 0.999372 0.995994
0.999546 0.998804 0.996497
1.00002 1.00035 0.994008
0.9997 0.997853 0.997587
0.9999 1.00003 0.994603
0.999842 0.999713 0.995046
1.00003 1.00061 0.993755
0.999741 0.99648 0.999391
0.999701 0.996602 0.999388
0.99891 0.999124 0.999033
0.998584 0.999869 0.998949
0.998461 1.00014 0.998911
0.998671 0.999717 0.998277
0.999117 1.00072 0.995725
0.999038 0.998818 0.998424
0.999322 1.00003 0.996023
0.998444 1.00022 0.998901
0.999066 1.001 0.995267
0.999202 1.00032 0.996187
0.999933 1.00106 0.993489
0.999425 0.99962 0.996485
1.00002 1.0007 0.993663
0.998565 1.00015 0.997481
0.998878 0.999295 0.997692
0.999494 0.997192 0.998408
0.99913 0.99844 0.997988
0.99937 0.99973 0.996219
0.999474 0.99911 0.996591
0.999571 0.99854 0.996928
0.99992 1.00021 0.994633
0.998487 1.00011 0.99891
0.998737 0.999757 0.997565
0.999171 1.00062 0.995558
0.999326 1.00001 0.996033
0.999571 0.997012 0.998899
0.999625 0.998234 0.997239
0.999417 0.999409 0.996414
1.00002 1.00061 0.993958
0.999869 1.00006 0.994898
0.999932 1.00035 0.994414
1.00021 1.0006 0.993402
0.999098 1.00093 0.995261
0.999255 1.00028 0.995909
1.00005 1.0009 0.993534
1.00006 1.00068 0.993748
0.99996 1.00049 0.994147
1.00044 1.00068 0.992978
0.999639 0.996847 0.999362
1.00028 1.00058 0.993291
0.999692 0.997982 0.997044
0.999845 0.99987 0.994869
1.00014 1.00065 0.993514
1.00042 1.00063 0.992984
0.99979 0.997666 0.997135
0.999975 0.99926 0.995206
0.9992 0.998378 0.999126
0.999349 0.997766 0.999251
0.99951 0.999045 0.996277
0.999598 0.996885 0.999379
0.999647 0.998008 0.997079
0.999567 0.99846 0.996768
0.999843 0.999902 0.994832
0.999648 0.996724 0.999384
0.999795 0.997585 0.997222
0.999489 0.999351 0.996328
0.99954 0.998774 0.99679
1.00002 1.00037 0.994005
0.999705 0.997834 0.997173
0.999884 1.00005 0.994603
0.999836 0.999712 0.995046
1.00004 1.00061 0.993711
0.999754 0.997702 0.997204
0.999832 0.997502 0.99724
0.999943 0.999242 0.995301
1.00007 1.00042 0.993824
0.999949 1.00022 0.994303
1.00039 1.00059 0.99305
0.999871 0.999494 0.995207
1.00012 1.00058 0.993541
0.999985 1.00064 0.993843
1.00015 1.00091 0.993304
0.999783 0.996381 0.999396
0.999747 0.996492 0.999393
0.999708 0.996617 0.99939
0.999826 0.99757 0.99716
0.999695 0.99671 0.99937
0.999073 0.998735 0.999076
0.998736 0.999519 0.998991
0.999292 1.00009 0.995686
0.999102 1.00081 0.995369
0.998474 1.00012 0.998918
0.99844 1.00022 0.998902
0.999058 1.00101 0.995267
0.999215 1.0004 0.995871
0.99994 1.00106 0.993482
0.999427 0.999681 0.995857
1.00002 1.0007 0.993659
0.999055 1.00105 0.995228
0.999896 1.00115 0.993471
0.999978 1.00089 0.993563
1.00031 1.00099 0.992817
1.00006 1.00053 0.993737
1.00043 1.00071 0.992847
0.998468 1.00013 0.998906
0.998729 0.999727 0.997582
0.99918 1.00067 0.995075
0.999326 1.00001 0.996034
0.99956 0.996973 0.999348
0.99962 0.998239 0.997383
0.999416 0.999418 0.996419
1.00003 1.00061 0.993891
0.99994 1.00035 0.994453
0.999883 1.00006 0.994864
1.00021 1.0006 0.993408
0.999101 1.00092 0.995263
0.999257 1.00028 0.995909
1.00006 1.0009 0.993408
1.00007 1.00069 0.993788
0.999627 0.996832 0.999359
0.999689 0.997998 0.997256
0.999855 0.999856 0.994999
0.999963 1.00049 0.994144
1.00043 1.00067 0.992902
1.00012 1.00065 0.993496
1.00029 1.00058 0.993336
1.00041 1.00062 0.992989
0.99979 0.99768 0.997134
0.999974 0.999265 0.995207
0.999975 1.00103 0.993422
1.00008 1.00078 0.993611
1.00047 1.00088 0.992702
1.0005 1.00071 0.992671
1.00034 1.00062 0.993201
1.00061 1.00067 0.992582
0.999742 0.997798 0.997097
1.00048 1.00055 0.992928
0.999867 0.999657 0.995019
1.00004 1.00062 0.993642
1.00034 1.00079 0.993086
1.0005 1.00058 0.99286
0.999948 0.99934 0.995177
0.999993 0.999191 0.99524
1.00008 1.0003 0.993969
0.999477 0.999353 0.996034
0.999658 0.99674 0.999385
0.999795 0.997573 0.997223
0.999529 0.998745 0.996546
1.00001 1.00039 0.994002
0.999699 0.997816 0.997171
0.99983 0.999712 0.995046
0.999868 1.00008 0.994603
1.00004 1.00062 0.993668
0.999753 0.997689 0.997205
0.999832 0.997491 0.997241
0.999943 0.999236 0.995302
1.00007 1.00043 0.993818
0.999932 1.00025 0.994305
1.00039 1.00059 0.993045
0.999867 0.999486 0.995209
1.00013 1.00059 0.993567
0.99998 1.00065 0.993836
1.00014 1.00091 0.993256
0.999866 0.997412 0.997259
0.999913 0.99933 0.995277
0.999966 0.999165 0.99533
1.00005 1.00028 0.994067
1.00048 1.00051 0.992928
1.00024 1.00063 0.993321
1.00059 1.00061 0.992622
1 1.00049 0.993962
1.00028 1.00076 0.993103
1.00006 1.00115 0.993197
1.00021 1.00102 0.992959
1.00004 0.998904 0.995437
0.99993 0.997248 0.997287
0.999823 0.996288 0.9994
0.999788 0.99639 0.999397
0.999752 0.996505 0.999394
0.999857 0.997487 0.997183
0.999738 0.996596 0.999376
0.999826 0.997582 0.997159
0.999685 0.996692 0.999368
0.9994 0.9997 0.995848
0.999186 1.00048 0.99552
1.00002 1.0007 0.993656
0.999948 1.00106 0.993475
0.99905 1.00102 0.995266
0.998437 1.00022 0.998901
0.999052 1.00106 0.995228
0.999903 1.00115 0.993465
0.999981 1.00089 0.993558
1.00032 1.00098 0.99281
1.00006 1.00054 0.993732
1.00043 1.00071 0.992849
0.999914 1.00115 0.993451
1.00023 1.00109 0.992891
1.00039 1.00086 0.992791
1.00049 1.00092 0.992548
1.00048 1.00056 0.992899
1.0006 1.00064 0.992579
0.999105 1.00091 0.995264
0.99926 1.00028 0.995909
1.00006 1.0009 0.993281
1.00007 1.0007 0.993829
0.999614 0.996818 0.999356
0.999686 0.998014 0.997468
0.999865 0.999842 0.99513
0.999965 1.00049 0.994141
1.00043 1.00066 0.992826
1.00029 1.00058 0.993381
1.00011 1.00065 0.993479
1.00041 1.00062 0.992995
0.999789 0.997694 0.997132
0.999972 0.999271 0.995207
0.999974 1.00103 0.993375
1.00008 1.00078 0.993607
1.00046 1.00088 0.992687
1.0005 1.00071 0.992756
0.999744 0.997813 0.997095
0.999873 0.999658 0.995018
1.00004 1.00061 0.993695
1.00035 1.00062 0.99321
1.00061 1.00064 0.992559
1.00032 1.00078 0.993031
1.00048 1.00055 0.99293
1.0005 1.00056 0.992857
0.999947 0.999347 0.995178
1.00009 1.00029 0.993927
0.999991 0.999197 0.99524
1.00036 1.00102 0.99281
1.00053 1.00077 0.992659
1.00063 1.00086 0.992314
1.0007 1.00071 0.992343
1.00052 1.00056 0.992817
1.0007 1.00052 0.992535
0.999908 0.999468 0.995128
1.00056 1.00048 0.992833
1.00003 1.00051 0.99387
1.0002 1.00088 0.993104
1.00042 1.00086 0.992784
1.00055 1.00044 0.992966
1.00001 0.999121 0.995275
1.00007 1.00032 0.993974
1.00009 1.0003 0.993871
1.00015 1.00081 0.993435
1.00007 1.00045 0.993811
0.999832 0.997481 0.997242
0.999752 0.997677 0.997206
0.999944 0.99923 0.995302
0.999915 1.00028 0.994306
1.0004 1.00059 0.99304
0.999864 0.999478 0.995211
0.999976 1.00067 0.993829
1.00013 1.00059 0.993594
1.00014 1.00091 0.993208
0.999866 0.997404 0.99726
0.999913 0.999323 0.995277
0.999966 0.999161 0.99533
1.00005 1.00028 0.994065
1.00049 1.00052 0.992923
1.00024 1.00064 0.993321
1.00059 1.00061 0.992617
0.999993 1.00051 0.993962
1.00028 1.00077 0.993147
1.00006 1.00116 0.993183
1.0002 1.00099 0.993028
0.999899 0.997328 0.997275
0.999987 0.999092 0.99536
1.00004 1.00033 0.99404
1.00006 1.00023 0.994093
1.0001 1.00091 0.99334
1.00067 1.00044 0.992613
1.00041 1.00076 0.992845
1.00068 1.00058 0.992493
1.00005 1.00113 0.993247
1.00033 1.00089 0.992881
1.00012 1.00147 0.992621
1.00002 0.998967 0.995411
1.0001 1.00002 0.994229
1.00006 0.998847 0.995453
1.00004 0.998901 0.995438
0.999956 0.997156 0.997704
0.999927 0.997244 0.997491
0.999871 0.996234 0.998591
0.999827 0.996294 0.999401
0.999793 0.9964 0.999398
0.999887 0.997411 0.997198
0.999777 0.996491 0.999381
0.999857 0.997498 0.997181
0.999732 0.996579 0.999374
0.999825 0.997594 0.997158
0.999676 0.996675 0.999366
1.00007 1.00055 0.993726
0.999985 1.00089 0.993553
1.00043 1.00071 0.99285
1.00033 1.00098 0.992803
0.999909 1.00115 0.99346
0.999049 1.00106 0.995229
0.99991 1.00115 0.993454
1.00023 1.00109 0.992887
1.00039 1.00086 0.992788
1.00049 1.00092 0.992558
1.00048 1.00057 0.992897
1.0006 1.00064 0.992585
1.00024 1.00112 0.992856
1.00034 1.00106 0.992714
1.00056 1.0008 0.992503
1.00057 1.00088 0.992437
1.00065 1.00046 0.992651
1.00071 1.00043 0.992622
0.999973 1.00103 0.993328
1.00008 1.00079 0.993603
1.00046 1.00087 0.992672
1.0005 1.00071 0.992841
0.999745 0.997828 0.997093
0.99988 0.99966 0.995018
1.00004 1.0006 0.993749
1.00035 1.00062 0.993219
1.00061 1.00062 0.992536
1.00048 1.00054 0.992932
1.00031 1.00078 0.992977
1.0005 1.00055 0.992854
0.999947 0.999353 0.995179
1.0001 1.00027 0.993885
0.999989 0.999203 0.995239
1.00034 1.00102 0.992774
1.00053 1.00077 0.992655
1.00065 1.00085 0.992273
1.0007 1.0007 0.992359
0.99991 0.999474 0.995128
1.00004 1.00049 0.99387
1.00019 1.00088 0.993154
1.00052 1.00058 0.992843
1.00069 1.00048 0.992548
1.00041 1.00088 0.992744
1.00056 1.00047 0.992834
1.00054 1.00038 0.992993
1.00008 1.0003 0.993977
1.00015 1.0008 0.993371
1.00001 0.999126 0.995274
1.00009 1.00029 0.993873
1.00051 1.00103 0.992412
1.00077 1.00074 0.992223
1.00072 1.00085 0.992066
1.00079 1.00052 0.992295
1.0006 1.00044 0.992779
1.00076 1.00028 0.992643
1.00005 1.00039 0.993953
1.0006 1.00022 0.993008
1.00014 1.00082 0.993272
1.00027 1.00116 0.992768
1.00046 1.00089 0.992654
1.00059 1.00024 0.993057
1.00002 0.999082 0.995299
1.00009 1.00026 0.993887
1.00016 1.00073 0.993402
1.00013 1.00094 0.9933
1.0002 1.00102 0.993089
0.999866 0.997395 0.997261
1.00049 1.00053 0.992918
0.999966 0.999156 0.995331
0.999913 0.999316 0.995278
1.00004 1.00028 0.994063
1.00023 1.00064 0.993321
1.0006 1.00062 0.992612
0.999982 1.00052 0.993963
1.00007 1.00117 0.99317
1.00028 1.00077 0.993191
1.00019 1.00096 0.993097
0.999899 0.997322 0.997276
0.999987 0.999088 0.99536
1.00003 1.00034 0.99404
1.00006 1.00023 0.994091
1.00009 1.00091 0.993318
1.00068 1.00045 0.992603
1.00041 1.00076 0.992845
1.00067 1.0006 0.992476
1.00004 1.00113 0.993251
1.00034 1.00089 0.992905
1.00015 1.00145 0.99266
1.00001 0.999028 0.995385
1.00007 1.00018 0.994117
1.00009 1.00096 0.993293
1.0001 1.00092 0.993332
1.00011 1.00127 0.993011
1.00079 1.00021 0.992603
1.00048 1.00082 0.992645
1.00063 1.0003 0.992778
1.00006 1.00163 0.992705
1.00032 1.00146 0.992373
1.00002 0.998964 0.995412
1.00009 1.00009 0.994059
1.0001 1.00002 0.99417
1.0001 1.0008 0.993557
1.0001 0.999982 0.994255
1.00008 0.998806 0.995456
1.00006 0.998847 0.995454
0.999985 0.997086 0.997711
1.00004 0.998899 0.995439
0.999956 0.997169 0.997705
0.999914 0.99615 0.998598
0.999924 0.997239 0.997695
0.999869 0.996201 0.998998
0.999832 0.9963 0.999402
0.999917 0.997333 0.997218
0.999888 0.997418 0.997197
0.999815 0.99639 0.999384
0.999772 0.996478 0.999379
0.999857 0.997508 0.99718
0.999726 0.996562 0.999372
1.00048 1.00057 0.992895
1.00039 1.00086 0.992785
1.0006 1.00064 0.992591
1.00048 1.00092 0.992568
1.00024 1.00109 0.992884
0.999906 1.00115 0.993458
1.00023 1.00112 0.992862
1.00032 1.00106 0.992733
1.00056 1.0008 0.992503
1.00058 1.0009 0.992404
1.00065 1.00047 0.992649
1.00071 1.00043 0.992611
1.00033 1.00113 0.992677
1.0003 1.00114 0.992676
1.00067 1.00068 0.992378
1.00059 1.00106 0.992281
1.00077 1.00013 0.992719
1.00078 1.00031 0.992667
1.00033 1.00101 0.992738
1.00052 1.00078 0.992652
1.00066 1.00084 0.992232
1.0007 1.0007 0.992376
0.999912 0.99948 0.995128
1.00005 1.00048 0.993871
1.00019 1.00089 0.993205
1.00052 1.0006 0.992869
1.00069 1.00044 0.992562
1.00057 1.00046 0.992835
1.0004 1.0009 0.992704
1.00054 1.00033 0.99302
1.00009 1.00029 0.99398
1.00015 1.00079 0.993307
1.00001 0.999131 0.995273
1.00009 1.00029 0.993874
1.0005 1.00103 0.99242
1.00076 1.00074 0.992223
1.00074 1.00087 0.99205
1.00079 1.00054 0.992307
1.00006 1.00037 0.993954
1.00014 1.00082 0.993311
1.00026 1.00118 0.992762
1.00061 1.00047 0.99277
1.00074 1.00026 0.992684
1.00045 1.00092 0.992636
1.0006 1.00022 0.993009
1.00059 1.00014 0.993127
1.00016 1.00073 0.993403
1.00021 1.001 0.993054
1.00013 1.00094 0.993293
1.00002 0.99908 0.995215
1.00009 1.00025 0.993893
1.00056 1.00106 0.99224
1.00088 1.00069 0.991977
1.00085 1.00027 0.992454
1.0007 1.00011 0.992901
1.00015 1.00073 0.993411
1.00069 0.999776 0.993286
1.00015 1.00114 0.992928
1.00032 1.00142 0.992415
1.00054 1.00079 0.992586
1.00003 0.999024 0.995164
1.00009 1.00022 0.994109
1.00011 1.001 0.993254
1.00021 1.00093 0.993101
1.00019 1.00126 0.992842
1.00025 1.00112 0.992835
0.999898 0.997315 0.997277
0.999987 0.999085 0.99536
1.00069 1.00046 0.992593
1.00006 1.00023 0.99409
1.00003 1.00035 0.99404
1.00009 1.00092 0.993297
1.00041 1.00077 0.992846
1.00067 1.00061 0.992459
1.00004 1.00113 0.993255
1.00017 1.00142 0.992698
1.00034 1.00089 0.992928
1.00001 0.999024 0.995385
1.00007 1.00017 0.994116
1.00008 1.00095 0.993329
1.0001 1.00093 0.993327
1.00011 1.00128 0.992968
1.00078 1.00025 0.992598
1.00049 1.00082 0.992627
1.00065 1.00026 0.992807
1.00005 1.00164 0.992678
1.00032 1.0015 0.992323
1.00009 1.00013 0.994136
1.00012 1.0009 0.99323
1.00009 1.00142 0.992855
1.00012 1.00131 0.992851
1.00017 1.00142 0.992727
1.00092 0.999399 0.993181
1.0005 1.00107 0.992428
1.00069 1.00006 0.992777
1.00016 1.0019 0.992353
1.00031 1.00178 0.9919
1.00002 0.99896 0.995413
1.00009 1.00009 0.994113
1.00011 1.00087 0.993293
1.0001 1.00003 0.994111
1.0001 0.999983 0.994256
1.0001 1.0008 0.993464
1.00009 1.00135 0.992985
1.00011 1.00076 0.993406
1.0001 0.999964 0.994268
1.00009 0.998785 0.995446
1.00008 0.998809 0.995456
1.00001 0.997027 0.997713
1.00006 0.998847 0.995455
0.999985 0.997099 0.997711
0.99995 0.99607 0.998602
0.999956 0.997181 0.997706
0.999914 0.996115 0.998598
0.999867 0.996168 0.999405
0.999947 0.997232 0.997258
0.999918 0.997339 0.997217
0.999853 0.99628 0.99939
0.999889 0.997426 0.997196
0.99981 0.996381 0.999383
0.999767 0.996465 0.999378
1.00065 1.00048 0.992647
1.00057 1.0008 0.992503
1.00071 1.00042 0.9926
1.00059 1.00092 0.992371
1.00031 1.00106 0.992752
1.00022 1.00112 0.992869
1.00032 1.00113 0.992684
1.00032 1.00112 0.992679
1.00067 1.00067 0.992373
1.00058 1.00112 0.992199
1.00076 1.00015 0.99273
1.00077 1.00027 0.992655
1.00024 1.00116 0.992793
1.0003 1.00126 0.992558
1.00065 1.0009 0.992225
1.00086 0.999664 0.993114
1.00049 1.00103 0.992428
1.00076 1.00074 0.992223
1.00075 1.00088 0.992035
1.00078 1.00055 0.992319
1.00007 1.00035 0.993955
1.00014 1.00082 0.993351
1.00025 1.0012 0.992757
1.00061 1.00049 0.992762
1.00072 1.00023 0.992725
1.0006 1.00022 0.99301
1.00045 1.00095 0.992617
1.00058 1.00004 0.993197
1.00016 1.00072 0.993404
1.00021 1.00099 0.993018
1.00013 1.00094 0.993286
1.00002 0.999077 0.99513
1.0001 1.00025 0.993899
1.0006 1.00105 0.992177
1.00087 1.0007 0.992015
1.00084 1.00029 0.992468
1.00016 1.00073 0.99341
1.00017 1.00113 0.992981
1.0003 1.00146 0.992403
1.00071 1.00014 0.992874
1.00053 1.00072 0.992671
1.00068 0.999797 0.993276
1.00003 0.999014 0.995174
1.00021 1.00094 0.993098
1.00025 1.00109 0.992847
1.00019 1.00125 0.992872
1.00011 1.00101 0.99328
1.00009 1.00021 0.994023
1.00069 1.00099 0.992105
1.00093 1.00058 0.992005
1.00088 0.999914 0.992724
1.00083 0.999551 0.993223
1.00019 1.00099 0.99308
1.00071 1.00002 0.992985
1.00018 1.00152 0.992519
1.00036 1.0016 0.992177
1.00005 0.998897 0.995247
1.00009 1.00021 0.99412
1.0001 1.001 0.993355
1.00015 1.00147 0.992688
1.00024 1.00114 0.992806
1.00025 1.00135 0.992588
1.00001 0.999021 0.995386
1.00008 1.00017 0.994114
1.00077 1.00029 0.992594
1.0001 1.00094 0.993323
1.00007 1.00094 0.993365
1.00011 1.00129 0.992925
1.0005 1.00081 0.99261
1.00066 1.00023 0.992836
1.00004 1.00164 0.99265
1.00032 1.00155 0.992273
1.00009 1.00013 0.994136
1.00012 1.00091 0.993266
1.00009 1.00141 0.992911
1.00012 1.00131 0.992888
1.00015 1.00142 0.992742
1.00092 0.999401 0.993214
1.00052 1.00103 0.99244
1.00065 1.00009 0.992918
1.00014 1.00191 0.992315
1.00034 1.00188 0.991814
1.00013 1.0009 0.993234
1.00013 1.00147 0.992669
1.00013 1.00171 0.992503
1.00016 1.00153 0.992522
1.00107 0.999154 0.993278
1.001 0.999085 0.993313
1.00053 1.00139 0.991982
1.00018 1.00228 0.9917
1.00009 1.00009 0.994166
1.00011 1.00087 0.993344
1.00009 1.00143 0.992865
1.0001 0.999985 0.994256
1.00011 1.0008 0.993371
1.0001 0.999968 0.994268
1.0001 1.00135 0.992919
1.00011 1.00076 0.993443
1.00011 1.0017 0.99257
1.00011 1.00131 0.992878
1.00011 1.00075 0.993418
1.0001 0.999972 0.994256
1.0001 0.998782 0.995427
1.00009 0.998788 0.995446
1.00003 0.996981 0.997711
1.00008 0.998811 0.995456
1.00001 0.997039 0.997713
0.999982 0.996001 0.998603
0.999985 0.997111 0.997712
0.99995 0.996037 0.998602
0.999914 0.996081 0.998598
0.999981 0.997124 0.997298
0.999949 0.997239 0.997256
0.999891 0.996163 0.9994
0.99992 0.997345 0.997216
0.999848 0.99628 0.999388
0.999806 0.996372 0.999382
1.00075 1.00016 0.99274
1.00068 1.00067 0.992368
1.00077 1.00024 0.992644
1.00057 1.00118 0.992116
1.00033 1.0011 0.992681
1.00031 1.00113 0.992691
1.00029 1.00116 0.992716
1.00033 1.00125 0.992541
1.00062 1.00085 0.992302
1.00085 0.999651 0.993066
1.0003 1.00118 0.992649
1.00028 1.00142 0.992429
1.00079 1.00012 0.992741
1.00064 1.00104 0.992114
1.00085 1.0007 0.992054
1.00083 1.00032 0.992482
1.00016 1.00073 0.993409
1.00018 1.00112 0.993034
1.00029 1.0015 0.992391
1.00071 1.00017 0.992846
1.00066 0.999815 0.993265
1.00052 1.00066 0.992757
1.00021 1.00095 0.993096
1.00026 1.00106 0.992858
1.00018 1.00124 0.992901
1.00003 0.999005 0.995183
1.00011 1.00103 0.993307
1.0001 1.0002 0.993937
1.00064 1.00098 0.99219
1.00094 1.00054 0.992
1.00088 0.999975 0.992677
1.00019 1.001 0.993077
1.00017 1.00151 0.992565
1.00035 1.00157 0.992221
1.00082 0.999542 0.993273
1.00071 1.00003 0.992971
1.00005 0.998892 0.995341
1.00008 1.00021 0.994118
1.00024 1.00114 0.992808
1.00025 1.00136 0.992596
1.00015 1.00145 0.992716
1.00011 1.00099 0.993313
1.00064 1.00086 0.992327
1.00099 1.00031 0.992146
1.00095 0.999185 0.99331
1.00091 0.999201 0.99347
1.00019 1.00131 0.992724
1.00048 1.00123 0.992287
1.00022 1.00185 0.992238
1.00007 0.998796 0.995491
1.0001 0.999905 0.994336
1.00008 1.00009 0.994058
1.0001 1.00109 0.993225
1.00013 1.0015 0.992686
1.0002 1.0017 0.992386
1.00023 1.00134 0.992625
1.00024 1.0017 0.99238
1.00009 1.00013 0.994137
1.00012 1.00093 0.993303
1.00093 0.999404 0.993247
1.00011 1.00132 0.992925
1.00008 1.00139 0.992968
1.00013 1.00142 0.992757
1.00054 1.00097 0.992451
1.00062 1.00011 0.99306
1.00012 1.00192 0.992277
1.00036 1.00197 0.991728
1.00012 1.00091 0.993229
1.00013 1.00146 0.992724
1.00012 1.00169 0.992547
1.00017 1.00155 0.992554
1.00107 0.999106 0.993237
1.00094 0.999224 0.993264
1.00056 1.00137 0.992045
1.00021 1.00226 0.991684
1.0001 1.00151 0.992779
1.00068 1 0.993017
1.00015 1.00188 0.992346
1.00019 1.002 0.992115
1.00137 0.998068 0.993844
1.00084 1.00066 0.991972
1.00031 1.0025 0.991428
1.00011 1.00088 0.993396
1.00009 1.00143 0.992865
1.00009 1.00179 0.992514
1.0001 0.99997 0.994268
1.0001 1.00076 0.993481
1.0001 1.00136 0.992853
1.0001 0.999976 0.994255
1.00011 1.00075 0.993419
1.00012 1.00171 0.992525
1.0001 1.00132 0.992947
1.00014 1.00189 0.99232
1.00014 1.00168 0.992463
1.00011 1.00128 0.99297
1.0001 1.00077 0.993474
1.00011 0.999994 0.994231
1.00011 0.998788 0.99541
1.0001 0.998784 0.995427
1.00005 0.996952 0.997702
1.00009 0.998791 0.995445
1.00003 0.996994 0.99771
1.00001 0.995944 0.998602
1.00001 0.997052 0.997713
0.999981 0.995968 0.998604
0.999949 0.996003 0.998602
1.00008 0.998703 0.995559
1.00001 0.997031 0.997335
0.999983 0.997131 0.997296
0.999928 0.996059 0.999408
0.999952 0.997246 0.997254
0.999886 0.996168 0.999397
0.999844 0.99628 0.999385
1.00085 0.999637 0.993018
1.0006 1.0008 0.992379
1.00036 1.00123 0.992524
1.00033 1.00115 0.99264
1.00028 1.00117 0.992724
1.00028 1.00148 0.992402
1.00075 1.00007 0.992848
1.00027 1.00129 0.992633
1.00038 1.00107 0.992521
1.00034 1.0001 0.993883
1.0006 1.00097 0.992276
1.00096 1.0005 0.991994
1.00087 1.00004 0.992631
1.0002 1.001 0.993074
1.00017 1.00149 0.992611
1.00034 1.00153 0.992265
1.00081 0.999535 0.993322
1.0007 1.00004 0.992956
1.00024 1.00114 0.99281
1.00025 1.00136 0.992604
1.00014 1.00144 0.992744
1.00005 0.998887 0.995434
1.00008 1.00022 0.994116
1.00011 1.00099 0.993272
1.00064 1.00085 0.992273
1.00007 0.998798 0.995489
1.0001 0.999898 0.994282
1.00099 1.00029 0.99217
1.00094 0.999309 0.993203
1.00019 1.00129 0.992744
1.00022 1.00186 0.992202
1.00048 1.00115 0.992304
1.00091 0.999196 0.993454
1.00008 1.00009 0.994211
1.00009 1.00109 0.993217
1.00024 1.00134 0.992636
1.00024 1.00162 0.99239
1.0002 1.00171 0.992331
1.00013 1.00149 0.992704
1.0007 1.00124 0.991837
1.00103 0.999605 0.992776
1.00109 0.998164 0.994082
1.00072 1.0002 0.992836
1.00017 1.00159 0.992505
1.00027 1.00208 0.991961
1.00011 0.999793 0.994316
1.00009 0.999979 0.994272
1.0001 1.00078 0.993609
1.00007 1.00108 0.993129
1.00012 1.00158 0.992701
1.00018 1.00189 0.992122
1.00019 1.0021 0.992032
1.00019 1.00168 0.992382
1.00012 1.00092 0.993223
1.00013 1.00144 0.99278
1.00106 0.999056 0.993197
1.00089 0.999359 0.993215
1.00018 1.00156 0.992586
1.00012 1.00169 0.992592
1.00058 1.00136 0.992109
1.00024 1.00226 0.991669
1.0001 1.0015 0.992776
1.00059 0.999833 0.993338
1.00015 1.00184 0.992339
1.00019 1.00198 0.992056
1.00126 0.998167 0.993772
1.00091 1.00067 0.992003
1.00031 1.00257 0.991382
1.00009 1.00195 0.99238
1.00096 0.998243 0.994024
1.00021 1.00209 0.992075
1.00026 1.00263 0.991492
1.00154 0.999084 0.992061
1.00046 1.00247 0.990947
1.0034 0.996175 0.991091
1.00009 1.00144 0.992865
1.00008 1.0018 0.992514
1.00011 1.00199 0.992305
1.0001 0.99998 0.994255
1.00011 1.00075 0.993419
1.0001 1.00132 0.993016
1.00012 1.00172 0.99248
1.00011 0.999996 0.994231
1.0001 1.00077 0.993434
1.00014 1.00187 0.992312
1.00011 1.00128 0.992969
1.00013 1.00169 0.992518
1.00018 1.00189 0.992195
1.00013 1.00165 0.992592
1.00012 1.00129 0.99299
1.0001 1.00081 0.99335
1.0001 1.00001 0.994101
1.0001 1.00085 0.993525
1.0001 1.00002 0.994102
1.00011 0.998797 0.995403
1.00011 0.998789 0.99541
1.00007 0.996961 0.997286
1.0001 0.998785 0.995427
1.00006 0.996968 0.997498
1.00001 0.995878 0.999407
1.00003 0.997008 0.997709
1.00001 0.995914 0.998602
0.999981 0.995936 0.998604
1.00009 0.99861 0.995626
1.00008 0.998704 0.995558
1.00003 0.996942 0.997383
1.00001 0.997037 0.997533
0.999959 0.995966 0.999418
0.999985 0.997137 0.997294
0.999922 0.996062 0.999406
0.999881 0.996174 0.999393
1.00072 1.00002 0.992954
1.00028 1.00154 0.992376
1.00026 1.00117 0.992799
1.00027 1.00128 0.99264
1.00038 1.0011 0.992526
1.00002 1.00029 0.99418
1.00033 1.00133 0.992548
1.00164 0.996321 0.996511
0.999406 0.999975 0.995567
1.00011 0.999685 0.994525
1.00065 1.00084 0.992218
1.00099 1.00026 0.992194
1.00091 0.999429 0.993096
1.00019 1.00127 0.992764
1.00021 1.00188 0.992166
1.00049 1.00106 0.992321
1.0009 0.999192 0.993438
1.00025 1.00135 0.992646
1.00024 1.00154 0.992401
1.00021 1.00172 0.992276
1.00007 0.9988 0.995488
1.00014 1.00148 0.992723
1.00008 1.00009 0.994364
1.00009 1.0011 0.993209
1.0001 0.999891 0.994228
1.00076 1.00117 0.991746
1.00011 0.99978 0.994384
1.00009 0.999982 0.994272
1.0001 1.00079 0.993506
1.00101 0.999634 0.99278
1.00108 0.998309 0.993913
1.00019 1.00156 0.992515
1.00023 1.00204 0.991967
1.0007 1.00015 0.992857
1.00007 1.00107 0.993201
1.00013 1.00158 0.992677
1.00019 1.00168 0.992377
1.0002 1.00201 0.992094
1.00018 1.00191 0.992165
1.00085 1.00117 0.991594
1.0012 0.997742 0.994187
1.00109 0.998798 0.99346
1.00042 1.00163 0.992143
1.00009 1.00194 0.99229
1.00009 1.00063 0.993518
1.00009 1.00091 0.99327
1.00005 1.00144 0.992945
1.0001 1.0018 0.99251
1.00017 1.00183 0.992221
1.00017 1.00241 0.991773
1.00017 1.00223 0.991907
1.0001 1.00149 0.992772
1.00015 1.0018 0.992332
1.00049 0.999664 0.993658
1.00115 0.998269 0.9937
1.00097 1.00068 0.992035
1.0002 1.00196 0.991997
1.0003 1.00263 0.991335
1.00009 1.00193 0.992406
1.00084 0.998238 0.994192
1.00019 1.00205 0.99206
1.00022 1.0026 0.991478
1.00157 0.998957 0.992284
1.00046 1.00262 0.990896
1.00357 0.996203 0.991921
1.0001 1.00217 0.992149
1.00197 0.998268 0.991513
1.00013 1.00245 0.991823
1.00007 1.00369 0.990744
1.0009 1.0019 0.990329
0.994717 1.00333 0.981749
0.999957 0.99965 0.994609
1.00329 0.997511 0.990087
0.997996 0.995396 0.994241
1.00772 0.983023 0.998898
1.00007 1.00181 0.992515
1.0001 1.00199 0.99231
1.00012 1.00205 0.992183
1.00011 0.999997 0.99423
1.00011 1.00077 0.993394
1.00011 1.00128 0.992968
1.00013 1.00169 0.992572
1.00014 1.00186 0.992303
1.00013 1.00129 0.992923
1.00011 1.00001 0.994157
1.0001 1.00081 0.993394
1.00017 1.00189 0.99223
1.00014 1.00163 0.992571
1.00014 1.00161 0.992603
1.0002 1.00184 0.992253
1.00014 1.00135 0.992784
1.0001 1.00085 0.993314
1.0001 1.00002 0.994097
1.0001 1.00084 0.993446
1.0001 1.0014 0.992935
1.0001 1.00088 0.993376
1.0001 1.00085 0.993428
1.0001 1.00003 0.994204
1.0001 1.00002 0.994102
1.0001 0.99881 0.995403
1.00011 0.998796 0.995403
1.00007 0.996983 0.997279
1.00011 0.998789 0.99541
1.00007 0.996962 0.997285
1.00001 0.995867 0.999405
1.00006 0.996984 0.997295
1.00002 0.995878 0.999002
1.00001 0.995883 0.998603
1.0001 0.998538 0.995681
1.00009 0.998612 0.995625
1.00004 0.996866 0.99743
1.00008 0.998705 0.995557
1.00003 0.996939 0.99758
0.999983 0.995884 0.999429
1.00001 0.997049 0.997323
0.999952 0.995993 0.999412
0.999917 0.996066 0.999404
1.00039 1.00114 0.992532
1.00028 1.00127 0.992647
0.999717 1.00047 0.994477
1.00148 0.996648 0.996471
1.00026 1.00131 0.992587
0.999448 1.0003 0.995018
1.00009 1.00174 0.992157
0.998438 0.999941 0.992768
0.999638 1.0004 0.996879
1.00012 0.999614 0.994593
1.00011 0.999693 0.994521
1.0001 1.00052 0.993729
1.00008 1.00036 0.993917
1.00082 1.0011 0.991656
1.001 0.999659 0.992784
1.00107 0.998461 0.993744
1.0002 1.00154 0.992524
1.00019 1.00199 0.991972
1.00068 1.0001 0.992879
1.0002 1.00168 0.992372
1.0002 1.00192 0.992155
1.00018 1.00192 0.992207
1.00009 0.999985 0.994271
1.00014 1.00158 0.992652
1.00007 1.00106 0.993273
1.00011 0.999767 0.994452
1.0001 1.0008 0.993404
1.00087 1.00105 0.991692
1.00009 1.00064 0.993623
1.00009 1.00089 0.993339
1.00005 1.00137 0.992981
1.00116 0.997978 0.994147
1.00109 0.998701 0.99346
1.00011 1.00196 0.99228
1.00036 1.00158 0.992196
1.00009 1.00181 0.992527
1.00018 1.00181 0.992256
1.00017 1.00221 0.991914
1.00016 1.0024 0.991797
1.00103 0.999442 0.992877
1.0015 0.996796 0.99468
1.00077 1.00081 0.992099
1.00014 1.00216 0.992034
1.00006 1.00153 0.992776
1.00008 1.00166 0.992603
1.00012 1.00238 0.991815
1.00016 1.00284 0.991333
0.995173 1.00039 0.981678
1.00009 1.0019 0.992432
1.00018 1.00201 0.992044
1.00073 0.998234 0.99436
1.0016 0.998826 0.992507
1.00046 1.00277 0.990844
1.00018 1.00258 0.991464
1.00378 0.996215 0.99275
1.00008 1.00216 0.992173
1.00207 0.998285 0.991558
1.00011 1.0024 0.991849
1.00006 1.00359 0.990755
1.00097 1.00175 0.990544
0.994624 1.00209 0.982777
1.00021 0.999438 0.990884
1.0034 0.997425 0.990104
0.998176 0.996218 0.992334
1.00712 0.983216 1.00017
1.00001 1.00232 0.992151
0.99789 0.996928 0.990109
1.00649 0.988704 0.997512
1.00131 1.0014 0.98993
0.999865 1.00327 0.991578
0.999871 1.00477 0.989975
1.00256 0.999973 0.989484
0.995346 1.00362 0.979253
1.00051 0.999244 0.99189
0.998713 0.99666 0.992987
1.01213 0.984065 0.993736
1.00009 1.00198 0.992316
1.00012 1.00206 0.99218
1.00017 1.002 0.992122
1.00011 1.00001 0.994214
1.0001 1.00082 0.993438
1.00013 1.00129 0.992855
1.00015 1.00162 0.992549
1.00017 1.0019 0.992264
1.0001 1.00002 0.994097
1.00015 1.00158 0.992594
1.00013 1.00135 0.992858
1.0001 1.00085 0.993372
1.0002 1.00184 0.992226
1.00018 1.00169 0.992378
1.0002 1.00193 0.992142
1.00012 1.00145 0.992777
1.0001 1.00085 0.993431
1.0001 1.00085 0.993445
1.00011 1.0014 0.992869
1.00011 1.00142 0.992844
1.0001 1.00146 0.992806
1.0001 1.00174 0.992536
1.00011 1.00154 0.992683
1.0001 1.00095 0.9933
1.0001 1.00089 0.993375
1.0001 1.00005 0.994179
1.0001 1.00085 0.993331
1.0001 1.00003 0.994149
1.00009 0.998836 0.9954
1.0001 1.00002 0.994101
1.0001 0.998808 0.995403
1.00005 0.997003 0.997683
1.00011 0.998795 0.995403
1.00006 0.996976 0.997482
1.00004 0.995871 0.998587
1.00007 0.996964 0.997285
1.00001 0.995865 0.999405
1.00003 0.995877 0.998597
1.00011 0.999636 0.994585
1.0001 0.998502 0.995709
1.0001 0.998542 0.995679
1.00005 0.99682 0.997461
1.00009 0.998613 0.995624
1.00005 0.996864 0.99743
0.999999 0.995822 0.999439
1.00002 0.99694 0.997768
0.999986 0.995909 0.999031
0.999966 0.996013 0.998613
1.00133 0.996965 0.996432
1.00019 1.00129 0.992625
0.999484 1.00062 0.994469
0.998551 0.999915 0.99507
0.999477 1.0003 0.996857
1.00031 1.00175 0.991784
1.00028 1.00275 0.992285
0.997629 1.00225 0.992353
0.995295 1.00189 0.977339
0.997533 0.997284 0.989704
1.0049 0.988965 0.99829
1.00009 1.0004 0.99377
1.00012 0.999619 0.994591
1.00011 0.999701 0.994518
1.00009 1.00052 0.993706
1.00009 1.00112 0.993219
1.00009 1.00089 0.993403
1.00008 1.00052 0.993814
1.00008 1.00038 0.993871
1.00089 1.00093 0.991789
1.00112 0.998242 0.994107
1.00108 0.9986 0.99346
1.00013 1.00199 0.99227
1.00031 1.00154 0.992249
1.00017 1.00219 0.99192
1.00016 1.00238 0.991821
1.00019 1.00178 0.992291
1.00009 1.00088 0.993408
1.00009 1.00183 0.992543
1.00009 1.00066 0.993728
1.00005 1.0013 0.993017
1.00101 0.999584 0.992832
1.00006 1.00152 0.992798
1.00008 1.00167 0.992644
1.00149 0.996842 0.994646
1.00073 1.00065 0.992215
1.00017 1.00221 0.991916
1.00012 1.00238 0.991838
1.00017 1.00278 0.991361
1.00206 0.996117 0.994106
1.00106 0.999734 0.99281
1.00033 1.00197 0.991601
1.00022 1.00297 0.991125
1.00006 1.00208 0.992241
1.00006 1.00234 0.992021
1.0001 1.00314 0.991245
0.998382 0.995564 0.993491
0.995188 1.00199 0.982419
1.00007 1.00214 0.992197
1.00009 1.00234 0.991876
1.00217 0.99833 0.991603
1.00104 1.0016 0.99076
1.00005 1.00349 0.990765
0.994948 1.00247 0.977304
1.0001 0.999762 0.99613
1.00348 0.997341 0.990121
0.997943 0.996901 0.989351
1.00639 0.983474 1.00143
1.00002 1.00231 0.992146
0.997903 0.99629 0.993912
1.00632 0.988859 0.998466
1.00143 1.00141 0.989896
0.999866 1.00314 0.991616
0.999797 1.00467 0.990191
1.00228 1.00048 0.989346
0.995116 1.0039 0.976152
1.00047 0.998454 0.997053
0.998817 0.995849 0.989161
1.01154 0.981962 0.995873
0.999966 1.00245 0.992113
1.00627 0.993487 0.994887
1.01404 0.991312 0.986778
0.999655 1.00508 0.989869
0.999549 1.00407 0.991342
1.00115 1.00169 0.993924
1.00023 0.997052 0.999839
0.995443 1.00413 0.977146
1.00026 0.995954 0.987142
1.01466 0.990048 0.985205
1.00013 1.00206 0.992178
1.00017 1.00201 0.992114
1.00016 1.00206 0.992084
1.0001 1.00002 0.994096
1.0001 1.00085 0.99343
1.00013 1.00135 0.992933
1.00015 1.00155 0.992586
1.0002 1.00184 0.9922
1.0001 1.00085 0.99343
1.00017 1.00168 0.992424
1.00012 1.00145 0.992779
1.0002 1.00194 0.992133
1.00015 1.0021 0.992073
1.00016 1.00187 0.992286
1.00012 1.00145 0.992795
1.0001 1.00085 0.993444
1.00011 1.0014 0.992803
1.00011 1.00142 0.992839
1.0001 1.00146 0.992802
1.0001 1.00171 0.992546
1.00009 1.00157 0.992706
1.00012 1.00183 0.992431
1.0001 1.00185 0.992362
1.00015 1.00167 0.992481
1.00013 1.00135 0.992796
1.00014 1.00136 0.992779
1.00012 1.00153 0.992688
1.0001 1.00099 0.993249
1.0001 1.00096 0.993298
1.0001 1.0001 0.994138
1.0001 1.00089 0.993374
1.0001 1.00006 0.994178
1.00008 0.998871 0.99539
1.0001 1.00003 0.994093
1.00009 0.998834 0.9954
1.00004 0.997041 0.997679
1.0001 0.998806 0.995403
1.00006 0.996998 0.997478
1.00003 0.995863 0.998584
1.00007 0.99697 0.997278
1.00001 0.99587 0.999403
1.00001 0.995864 0.999404
1.0001 0.999704 0.994694
1.0001 0.998522 0.995701
1.00011 0.999632 0.994586
1.00006 0.996807 0.99747
1.0001 0.998505 0.995708
1.0001 0.998547 0.995677
1.00005 0.996824 0.99746
1.00001 0.995789 0.999445
1.00004 0.996862 0.997813
1.00001 0.995827 0.99905
0.999997 0.995921 0.998647
0.997902 0.996077 0.993657
1.00552 0.991186 0.995608
0.998421 1.00059 0.99685
0.999312 1.00021 0.996836
1.00054 1.00177 0.991411
0.997552 1.00266 0.997181
1.00044 1.00236 0.992248
0.995431 1.00208 0.980915
0.997376 0.997274 0.994182
1.00551 0.98768 0.998581
0.999158 1.00264 0.994462
0.99545 1.00302 0.980141
0.998422 0.99759 0.992596
1.0105 0.986165 0.994665
1.00006 1.00124 0.993048
1.00009 1.00039 0.99383
1.00012 0.999625 0.994588
1.00009 1.00052 0.993683
1.00008 1.00105 0.993265
1.00008 1.00115 0.993193
1.00009 1.00085 0.993433
1.00007 1.00075 0.993573
1.00008 1.00053 0.99375
1.00008 1.00041 0.993824
1.00097 0.99968 0.992788
1.00148 0.996896 0.994613
1.00068 1.00048 0.992332
1.0002 1.00226 0.991798
1.00017 1.00272 0.99139
1.00012 1.00238 0.991861
1.00007 1.00169 0.992685
1.00007 1.0015 0.99282
1.00185 0.996347 0.993908
1.00005 1.00212 0.992202
1.00006 1.00236 0.991958
1.00106 0.999455 0.99297
1.00038 1.00204 0.991519
1.00021 1.00301 0.991043
1.0001 1.00314 0.991186
1.00283 0.995752 0.993168
1.0001 1.00302 0.991238
1.00014 1.00358 0.990582
1.00004 1.00214 0.992192
1.00005 1.00264 0.991749
1.00007 1.00303 0.991359
1.00626 0.996056 0.990673
0.998409 0.996249 0.990095
0.995028 1.0007 0.981463
1.00002 1.00229 0.992142
0.999872 1.00301 0.991655
1.00155 1.00141 0.989862
0.99971 1.00456 0.990406
0.997818 0.996844 0.990233
0.994994 1.00293 0.983553
1.0011 0.997729 0.992125
1.00203 1.00123 0.989215
0.998976 0.994971 0.993987
1.00658 0.989766 0.998205
1.01003 0.985474 0.995327
0.999964 1.00247 0.992117
1.00605 0.994193 0.993984
1.01389 0.991222 0.98686
0.99965 1.00497 0.989884
0.999508 1.00415 0.991321
1.0013 1.00321 0.990408
1.00061 0.997909 0.993287
0.995928 1.00326 0.977757
1.00023 0.996569 0.991737
1.01336 0.989699 0.986278
0.999837 1.00264 0.992004
1.01387 0.997448 0.982546
1.01774 0.992578 0.979509
0.998673 1.00418 0.99281
0.998064 1.0011 1.00002
0.996139 1.00262 0.979403
1.00495 0.994141 0.987437
1.01394 0.993391 0.98158
1.00017 1.00202 0.992106
1.00017 1.00206 0.992085
1.00018 1.00218 0.992017
1.0001 1.00085 0.99343
1.00012 1.00145 0.992781
1.00017 1.00167 0.99247
1.0002 1.00195 0.992124
1.00012 1.00145 0.992793
1.00016 1.00188 0.992284
1.00014 1.00209 0.992078
1.00002 1.00219 0.992221
1.00016 1.00219 0.99196
1.00014 1.00189 0.992336
1.00012 1.00142 0.992833
1.0001 1.00146 0.992799
1.0001 1.00168 0.992557
1.00012 1.0018 0.992453
1.00009 1.00157 0.99271
1.0001 1.00184 0.992382
1.00012 1.0019 0.99231
1.00009 1.0021 0.992185
1.00015 1.00187 0.992317
1.00015 1.00168 0.992475
1.00015 1.00154 0.992562
1.00018 1.0014 0.992699
1.00014 1.00108 0.993147
1.00012 1.00131 0.992866
1.00014 1.00136 0.992824
1.00012 1.00092 0.993236
1.00012 1.00152 0.992693
1.0001 1.00099 0.993252
1.0001 1.00015 0.994098
1.0001 1.00097 0.993295
1.0001 1.0001 0.994135
1.00006 0.998913 0.995377
1.0001 1.00006 0.994176
1.00008 0.998872 0.995389
1.00001 0.997095 0.997672
1.00009 0.998832 0.995399
1.00004 0.997038 0.997473
1.00001 0.995905 0.998581
1.00006 0.996992 0.997274
1.00002 0.995877 0.998993
1.00001 0.995869 0.999403
1.00008 0.999851 0.99447
1.00009 0.998568 0.995672
1.0001 0.999708 0.994562
1.00005 0.996821 0.997465
1.0001 0.998518 0.995702
1.00011 0.999628 0.994588
1.00001 0.995781 0.999445
1.00006 0.996808 0.99747
1.0001 0.998508 0.995706
1.00005 0.996828 0.997459
1.00001 0.99579 0.999444
0.999997 0.995829 0.999436
1.00633 0.994524 0.991503
0.99836 0.996397 0.991367
1.01312 0.991941 0.98704
1.00534 0.990505 0.996546
0.997281 1.002 0.993117
1.0006 1.00192 0.992209
0.995371 1.00233 0.984742
0.997232 0.997554 0.990028
1.00607 0.986708 0.998872
0.999407 1.00199 0.993077
0.995239 1.00322 0.979164
0.998613 0.996704 0.988993
1.01098 0.983999 0.996087
1.00032 0.999802 0.995564
0.995373 1.00403 0.976869
1.00107 0.994799 0.992374
1.01451 0.991432 0.984305
1.00006 1.00171 0.992644
1.00007 1.0012 0.993123
1.00009 1.00038 0.993891
1.00008 1.00098 0.993311
1.0001 1.0014 0.992843
1.00009 1.00111 0.99324
1.00008 1.00081 0.993463
1.00008 1.00087 0.993517
1.00008 1.00073 0.993637
1.00008 1.00054 0.993686
1.00166 0.996575 0.993709
1.00105 0.999128 0.993131
1.00044 1.00212 0.991437
1.0002 1.00304 0.990962
1.00011 1.00315 0.991127
1.00006 1.00239 0.991895
1.00004 1.00216 0.992163
1.00004 1.00217 0.99218
1.00236 0.995985 0.993032
1.00004 1.00265 0.991778
1.00007 1.00306 0.991344
1.00012 1.00306 0.991275
1.00016 1.00355 0.990587
1.00203 0.998678 0.992018
0.999642 1.00427 0.990946
1.00012 1.00352 0.990663
1.00006 1.0025 0.991849
1.0001 1.00302 0.991261
1.01369 1.00007 0.980003
1.00626 0.996046 0.990521
0.998349 0.995325 0.993534
0.999961 1.00249 0.992121
0.999466 1.00425 0.9913
0.999636 1.00481 0.989898
1.00608 0.99448 0.992658
0.995489 1.00412 0.976239
1.00055 0.996528 0.999517
1.00144 1.00441 0.986894
1.00003 0.996969 0.987815
1.0137 0.991137 0.986942
1.01316 0.990609 0.985163
0.99985 1.00269 0.992034
1.01374 0.99811 0.981306
1.01778 0.992468 0.979153
0.99886 1.00425 0.992307
0.99863 1.00098 0.997617
0.996498 1.00298 0.976845
1.01476 0.994285 0.981001
1.00293 0.996406 0.986492
0.999807 1.00226 0.992326
1.01818 0.995593 0.975202
1.01892 0.991923 0.977685
1.01465 0.988426 0.986853
0.99804 1.00199 0.996098
0.995361 1.00044 0.984172
1.00455 0.997822 0.981968
1.00018 1.00207 0.992086
1.00015 1.0022 0.992033
0.999972 1.00228 0.992289
1.00012 1.00145 0.992791
1.00017 1.00189 0.992281
1.00013 1.0021 0.992084
1.00014 1.00188 0.992348
1.00015 1.00222 0.991948
1.00005 1.00215 0.99221
1.00005 1.00229 0.99214
1.00011 1.00226 0.991981
1.00013 1.00178 0.992475
1.00009 1.00157 0.992714
1.00011 1.00183 0.992402
1.0001 1.00208 0.99219
1.00012 1.00189 0.992304
1.00008 1.00221 0.992117
1.00013 1.00178 0.992428
1.00013 1.00207 0.992079
1.00015 1.00169 0.992469
1.00018 1.00156 0.992569
1.00022 1.00167 0.992291
1.00013 1.00143 0.992759
1.00012 1.00105 0.993175
1.00016 1.0014 0.992693
1.00013 1.00076 0.993435
1.00014 1.00109 0.993109
1.00012 1.00127 0.992937
1.00014 1.00135 0.99287
1.00012 1.00091 0.993265
1.0001 1.00015 0.994096
1.0001 1.00099 0.993255
1.0001 1.00014 0.994098
1.00005 0.998965 0.995361
1.0001 1.00011 0.994133
1.00006 0.998916 0.995375
0.999985 0.997138 0.99767
1.00008 0.998872 0.995388
1.00002 0.997091 0.997466
0.999982 0.995964 0.998576
1.00005 0.997032 0.997268
1 0.995919 0.998991
1 0.995894 0.999401
1.00008 1.00001 0.994155
1.00008 0.998673 0.995438
1.00009 0.999854 0.994466
1.00004 0.996862 0.997443
1.00009 0.998572 0.995586
1.00009 0.99971 0.99443
1.00001 0.995788 0.999444
1.00005 0.996818 0.997465
1.0001 0.998513 0.995704
1.00001 0.99578 0.999446
1.00006 0.996808 0.99747
1.00001 0.995791 0.999442
1.01359 0.997736 0.981201
1.00613 0.995103 0.991745
0.998416 0.996222 0.98999
1.00012 1.00091 0.993288
1.01699 0.992495 0.979908
1.01325 0.99205 0.987169
1.00584 0.990678 0.995923
0.999571 1.00139 0.991284
0.995482 1.00354 0.979215
0.998729 0.995899 0.993573
1.01045 0.987685 0.994737
1.00054 0.99945 0.991376
0.995549 1.00358 0.978184
1.00171 0.993964 0.989319
1.01391 0.991047 0.986087
1.00031 0.998814 0.991909
0.995291 1.00294 0.973695
1.00209 0.998001 0.983014
1.01373 0.996215 0.979203
1.00011 1.00197 0.99225
1.00007 1.00175 0.99259
1.00008 1.00117 0.993198
1.00011 1.00145 0.99277
1.0001 1.00138 0.992915
1.00009 1.00107 0.993287
1.00009 1.00086 0.993537
1.00008 1.00072 0.9937
1.00183 0.996288 0.992895
1.00013 1.00313 0.991312
1.00005 1.00221 0.992168
1.00018 1.00353 0.990592
1.00008 1.0031 0.991329
1.00003 1.00265 0.991807
1.00006 1.00251 0.991849
1.00162 0.998656 0.991922
1.0001 1.00302 0.991265
1.00014 1.00353 0.990652
0.99968 1.0043 0.990949
1.0001 1.00241 0.991811
1.0005 1.00157 0.992072
0.999681 1.00442 0.990921
1.00016 1.00326 0.990905
1.00011 1.00291 0.99133
1.01804 0.997619 0.97414
1.01368 0.999627 0.98005
1.00626 0.99608 0.99037
0.999863 1.00271 0.992065
0.999052 1.00433 0.991803
1.01362 0.998727 0.980065
0.99533 1.00413 0.977784
0.999321 1.00104 0.993072
1.00242 0.994598 0.986297
1.01781 0.99231 0.978798
1.01564 0.995045 0.980422
0.999853 1.00245 0.99236
1.01807 0.9956 0.975106
1.01902 0.992323 0.977216
0.997922 1.00208 0.996354
1.01402 0.988659 0.988419
0.995851 0.999282 0.984182
1.00275 0.997519 0.982954
0.999973 1.00082 0.993748
1.01953 0.992963 0.975426
1.01785 0.99109 0.979907
1.01051 0.984674 0.996222
1.00183 0.996742 0.985118
0.997784 0.999125 1.00217
0.996846 0.995905 0.983756
1.00011 1.00221 0.992049
0.999992 1.00227 0.992233
0.999659 1.00252 0.992297
1.00014 1.00186 0.992361
1.00015 1.00224 0.991937
1.00008 1.00208 0.992199
1.00011 1.00224 0.991983
1.00005 1.00227 0.992171
1 1.00272 0.991832
1.00011 1.00206 0.992195
1.00011 1.00188 0.992297
1.00009 1.00222 0.992095
0.999963 1.00262 0.99185
1.0001 1.00168 0.992539
1.00011 1.00206 0.992133
1.00021 1.00225 0.991815
1.00024 1.00175 0.992238
1.00019 1.00158 0.992576
1.00023 1.0017 0.992268
1.00012 1.00139 0.992904
1.00005 1.00118 0.993138
1.00013 1.0014 0.992803
1.0001 1.00072 0.993531
1.00012 1.00106 0.993168
1.00015 1.00141 0.992688
1.0001 1.0001 0.994143
1.00013 1.00076 0.993408
1.00015 1.0011 0.993071
1.00012 1.00091 0.993295
1.0001 1.00014 0.994098
1.00003 0.999002 0.995354
1.0001 1.00014 0.994099
1.00005 0.998966 0.995361
0.999963 0.997203 0.997257
1.00006 0.998918 0.995374
0.999994 0.997141 0.997259
0.999935 0.996032 0.999398
1.00002 0.997086 0.997261
0.999976 0.995979 0.998988
0.999984 0.995938 0.999399
1.00009 1.00008 0.99405
1.00006 0.998814 0.995323
1.00008 1.00001 0.994231
1.00003 0.996938 0.997398
1.00007 0.998683 0.995425
1.00009 0.999857 0.994463
0.999996 0.99582 0.999438
1.00004 0.996856 0.997445
1.00009 0.998576 0.9955
1.00001 0.99579 0.999444
1.00005 0.996815 0.997466
1.00001 0.99578 0.999446
1.01772 0.996124 0.975455
1.01363 0.997634 0.981169
1.00634 0.994807 0.991423
1.00012 1.0009 0.993326
1.00016 1.00084 0.993227
1.00014 1.0014 0.992834
1.01808 0.993449 0.977359
1.01705 0.993456 0.979522
1.01338 0.992109 0.987298
1.00062 0.999601 0.99581
0.995446 1.00415 0.977589
1.00033 0.997178 0.987017
1.01442 0.991935 0.985961
1.00004 0.999041 0.996948
0.995793 1.00318 0.978439
1.004 0.997235 0.984444
1.01452 0.996745 0.978933
0.998579 0.998291 0.999944
0.995013 0.998888 0.983029
1.00556 0.999312 0.978546
1.01437 0.99161 0.984297
1.00015 1.00194 0.99222
1.00011 1.00197 0.992258
1.00007 1.00178 0.992536
1.00011 1.00146 0.99276
1.0001 1.00135 0.992987
1.00009 1.00084 0.993557
1.00123 0.998613 0.991826
0.999715 1.0043 0.990952
1.00006 1.00251 0.991848
1.00016 1.00354 0.990641
1.0001 1.00301 0.991268
1.0001 1.00249 0.991771
1.00011 1.0029 0.991314
1.00049 1.00103 0.991935
1.00015 1.0033 0.99092
0.999685 1.00434 0.990868
1.0001 1.00283 0.991351
0.999615 1.00316 0.992396
0.999883 1.00351 0.990861
1.00012 1.00326 0.990973
1.01967 0.994246 0.974218
1.01805 0.996928 0.974116
1.01366 0.999144 0.980097
0.999903 1.00262 0.992394
0.997863 1.00168 0.99723
1.01795 0.995607 0.97501
0.996068 1.00027 0.990659
1.00613 0.996297 0.983001
1.01911 0.99278 0.976747
1.01456 0.989268 0.988312
1.00001 1.00086 0.993525
1.01952 0.993284 0.975229
1.01792 0.992037 0.979524
0.997728 0.998376 0.997811
1.01099 0.982509 0.997603
1.00268 0.996423 0.987751
0.994809 0.99648 0.987747
0.999984 0.999948 0.996502
1.01802 0.995635 0.975446
1.01384 0.990632 0.98718
1.00502 0.987787 0.999076
1.00087 0.994402 0.993194
0.995369 0.998112 0.984799
0.997737 0.996486 0.999299
1.00002 1.00225 0.992177
0.999717 1.0025 0.992293
0.999352 1.00342 0.991994
1.00012 1.00223 0.991986
1.00004 1.00226 0.992202
1 1.0027 0.991842
0.99983 1.00361 0.991293
1.00009 1.00223 0.992072
1.00001 1.00272 0.991785
1.00007 1.00306 0.991297
1.0001 1.00205 0.992186
1.00021 1.00227 0.9918
1.00029 1.00237 0.991639
1.0003 1.00195 0.991982
1.00014 1.00147 0.992644
1.00024 1.00178 0.992189
1.00024 1.00173 0.992244
1.0001 1.00114 0.993186
1.00011 1.00134 0.992922
1.00003 1.00084 0.99349
1.00006 1.00116 0.99319
1.00013 1.00136 0.992847
1.00007 1.00009 0.994199
1.00011 1.00071 0.993533
1.00013 1.00106 0.993162
1.00002 0.99902 0.995368
1.0001 1.00009 0.994147
1.00014 1.00075 0.99338
1.0001 1.00014 0.994101
1.00003 0.999003 0.995355
0.999932 0.997268 0.997255
1.00005 0.998968 0.99536
0.999964 0.997207 0.997256
0.999905 0.996144 0.999397
0.999996 0.997145 0.997258
0.999943 0.996047 0.998987
0.999959 0.995996 0.999398
1.00011 1.00009 0.994131
1.00005 0.998909 0.995412
1.00009 1.00009 0.994104
1.00001 0.997037 0.997341
1.00006 0.998816 0.995402
1.00009 1.00001 0.994306
0.999979 0.995879 0.999427
1.00003 0.996929 0.997401
1.00007 0.998692 0.995412
0.999998 0.995819 0.99944
1.00004 0.996849 0.997446
1.00001 0.995792 0.999445
1.01908 0.993623 0.97536
1.01772 0.996417 0.975353
1.01369 0.997671 0.981137
1.00017 1.00074 0.993311
1.00019 1.001 0.993115
1.00012 1.00089 0.993363
1.00016 1.00083 0.993234
1.00014 1.00141 0.992776
1.00017 1.0013 0.992835
1.00016 1.00164 0.992501
1.01706 0.993754 0.979465
1.01815 0.99394 0.97701
1.01712 0.994422 0.979135
1.01534 0.997206 0.978662
1.00032 0.999536 0.991717
0.995299 1.00375 0.982135
1.00337 0.995668 0.983187
0.998555 0.999926 0.996433
0.99672 0.998625 0.980481
1.00367 0.998665 0.979959
1.01319 0.991051 0.985107
0.997268 0.998299 1.00073
0.997211 0.99552 0.981488
1.00564 0.995498 0.985222
1.01155 0.986057 0.992627
1.00012 1.00211 0.992105
1.00014 1.00198 0.992208
1.00011 1.00197 0.992265
1.00012 1.00148 0.992749
1.00048 1.00054 0.991798
0.999706 1.00425 0.990816
1.00009 1.00257 0.991731
1.00011 1.0029 0.991297
1.00014 1.00333 0.990934
1.00009 1.00282 0.991444
1.00014 1.00327 0.990955
0.999239 1.00291 0.993813
0.999914 1.00339 0.990973
1.00011 1.00323 0.991073
0.998364 1.00319 0.996618
1.00005 1.00395 0.990209
1.01802 0.99791 0.973779
1.01961 0.993839 0.974499
1.01806 0.996276 0.974092
1.00003 1.00093 0.993302
0.997634 0.998973 1.00157
1.01949 0.99362 0.975032
0.996768 0.995853 0.9833
1.00282 0.994831 0.985476
1.01798 0.992978 0.97914
1.0104 0.985838 0.996379
1 0.999742 0.996205
1.01802 0.99595 0.975341
1.01397 0.990695 0.987351
0.997819 0.995295 1.00537
1.00561 0.986328 0.999658
1.00132 0.99348 0.990517
0.996075 0.998613 0.983552
0.999693 0.999881 0.997609
1.01375 0.997191 0.981491
1.00586 0.989972 0.996129
0.998406 0.997347 0.992778
0.995513 1.00217 0.979704
0.99858 0.995926 0.99663
0.999781 1.00249 0.992289
0.999414 1.00336 0.991979
0.999103 1.00448 0.99147
1 1.00269 0.991852
0.999813 1.00347 0.991378
0.999905 1.00423 0.990478
1.00005 1.00283 0.99172
1.00009 1.00316 0.991205
1.00029 1.00287 0.99101
1.00022 1.00229 0.991785
1.0003 1.00237 0.991583
1.00036 1.00215 0.991648
1.00048 1.00147 0.992046
1.00029 1.00161 0.99237
1.00029 1.00197 0.991934
1.00011 1.00117 0.992998
1.00015 1.00146 0.992686
1.00023 1.00182 0.99214
1.00007 1.00088 0.993456
1.0001 1.00115 0.993147
1.0001 1.00129 0.992941
1.00002 1.00021 0.994179
1.00004 1.00082 0.993521
1.00006 1.00114 0.993241
0.999989 0.999049 0.99539
1.00007 1.00009 0.994201
1.00011 1.0007 0.993534
0.999903 0.997351 0.997258
1.00001 0.99902 0.99537
1.0001 1.00009 0.994151
1.00003 0.999004 0.995355
0.999932 0.997272 0.997255
0.999869 0.996232 0.999396
0.999965 0.99721 0.997256
0.9999 0.996141 0.999397
0.999929 0.996063 0.999397
1.00017 1.00071 0.99341
1.00011 1.00009 0.994115
1.00004 0.998976 0.995362
1.00011 1.00009 0.994128
0.999986 0.997143 0.997285
1.00005 0.998911 0.995413
1.00009 1.00009 0.994159
0.999954 0.995962 0.999413
1.00001 0.997028 0.997344
1.00006 0.998818 0.995481
0.999982 0.995876 0.99943
1.00003 0.996919 0.997404
1 0.995819 0.999442
1.01773 0.996506 0.97499
1.01915 0.993965 0.975136
1.01773 0.996703 0.975251
1.00016 1.00075 0.993342
1.00019 1.001 0.99308
1.00018 1.00096 0.993103
1.00019 1.00108 0.992962
1.00021 1.00115 0.992916
1.00015 1.00083 0.99324
1.00014 1.00143 0.992718
1.00017 1.0013 0.992838
1.00017 1.00161 0.992515
1.00018 1.00157 0.992585
1.01315 0.993355 0.986095
1.01699 0.993771 0.979086
1.01822 0.994444 0.976661
1.01308 0.991832 0.983908
1.007 0.997771 0.979783
0.998519 1.00022 0.99419
0.994887 0.997351 0.985033
0.996813 0.999066 0.997228
0.994941 0.996468 0.986321
1.00373 0.997253 0.984078
1.01104 0.98387 0.994791
0.995952 0.998788 0.998399
0.99492 0.998963 0.983678
1.00055 0.996527 0.9868
1.00648 0.985721 0.998531
1.00005 1.0019 0.992455
1.00012 1.00206 0.992178
1.00014 1.00201 0.992197
0.998863 1.00261 0.995235
0.999947 1.00327 0.991085
1.00008 1.0028 0.991537
1.00016 1.00328 0.990937
1.00008 1.00328 0.991098
1.00004 1.00392 0.990216
0.998389 1.00302 0.996602
0.99986 1.00364 0.990859
0.998909 1.00395 0.994442
1.0137 1.00028 0.979978
1.01802 0.997219 0.97378
1.01958 0.993423 0.97478
1.00003 0.999603 0.995917
0.997771 0.995065 0.999403
1.01801 0.996253 0.975236
0.995245 0.997994 0.98024
1.00009 0.996986 0.987523
1.01411 0.990696 0.987522
1.00614 0.985223 1.00024
0.999728 0.99972 0.997574
1.0138 0.997095 0.981449
1.00573 0.989315 0.997054
0.998343 0.995778 0.999985
0.998635 0.996372 0.989201
0.99649 1.00233 0.974811
0.999826 1.00001 0.996246
1.0062 0.993969 0.992197
0.99758 0.996858 0.990064
0.995522 1.004 0.976525
1.00023 0.995859 0.997708
0.999467 1.00331 0.991964
0.999146 1.00439 0.991476
0.999528 1.00536 0.990445
0.999799 1.00334 0.991463
0.999864 1.00429 0.990529
1.00041 1.00301 0.990523
1.00012 1.00325 0.991112
1.00029 1.00284 0.991038
1.00055 1.00171 0.991728
1.0003 1.00237 0.991527
1.00035 1.00206 0.991689
1.00062 1.00096 0.99227
1.00068 1.0006 0.992476
1.0004 1.0014 0.992232
1.00047 1.00141 0.992069
1.00021 1.0013 0.992755
1.00026 1.00165 0.992304
1.00029 1.00199 0.991886
1.0001 1.00084 0.993417
1.00011 1.00115 0.993046
1.00015 1.00144 0.992729
0.999999 1.00036 0.994085
1.00006 1.00088 0.993446
1.00009 1.00116 0.993108
0.999946 0.999151 0.995374
1.00003 1.00021 0.994178
1.00005 1.0008 0.993552
0.999858 0.997396 0.997677
0.999989 0.999053 0.99539
1.00008 1.00009 0.994204
0.999842 0.996314 0.998576
0.999897 0.997343 0.997464
1.00001 0.999019 0.995372
0.999933 0.997276 0.997255
0.999863 0.996225 0.999396
0.999895 0.996138 0.999396
1.00016 1.0007 0.993397
1.00011 1.0001 0.994113
1.00016 1.00071 0.99339
1.00003 0.999021 0.995338
1.00011 1.00009 0.994113
0.999959 0.997235 0.997244
1.00004 0.998977 0.995362
1.00011 1.0001 0.994126
0.999925 0.99606 0.9994
0.999984 0.997136 0.997287
1.00005 0.998913 0.995414
0.999959 0.995957 0.999417
1.00001 0.997018 0.997347
0.999985 0.995873 0.999434
1.01324 0.999917 0.979074
1.01764 0.996506 0.974894
1.01922 0.994321 0.974911
1.00016 1.00099 0.993169
1.00016 1.00076 0.993373
1.00019 1.001 0.993045
1.00018 1.00109 0.993003
1.00018 1.00097 0.993139
1.00021 1.00112 0.992919
1.0002 1.00115 0.992888
1.00019 1.00128 0.992767
1.00017 1.00129 0.99284
1.00017 1.00157 0.992529
1.00018 1.00155 0.992579
1.0002 1.00156 0.992603
1.00564 0.990407 0.997674
1.01305 0.993325 0.986208
1.01694 0.993795 0.978707
1.00955 0.987609 0.99428
1.0029 0.995539 0.983652
0.997171 0.995418 0.981604
0.99608 0.99923 1.00467
0.995892 0.998076 1.00493
1.00606 0.986093 0.999165
0.996205 0.999033 0.979287
1.00035 0.996616 0.991251
0.99639 1.001 1.00056
0.995286 1.00374 0.978719
0.997951 0.997686 0.99327
0.999915 1.00181 0.992803
1.00009 1.00183 0.992463
1.00012 1.002 0.99225
0.99841 1.00285 0.996587
1.00002 1.0039 0.990223
1.00005 1.00333 0.991124
0.999884 1.00369 0.990916
0.999037 1.00387 0.994283
0.999493 1.002 0.994014
1.00667 0.994866 0.993553
1.01349 1.00052 0.978348
1.01801 0.996559 0.973781
0.999782 0.999659 0.997536
0.998314 0.99674 1.0016
1.01387 0.997167 0.981407
0.995792 1.00143 0.983929
0.998822 0.995501 0.993992
1.0062 0.989572 0.996544
0.999886 1.00028 0.996359
1.00605 0.994603 0.99242
0.997364 0.996806 0.994607
1.00032 0.996478 0.993362
0.995799 1.00321 0.977999
1.00159 0.999427 0.99176
0.997831 0.995412 0.994276
0.995352 1.00336 0.980167
1.00091 0.997087 0.992476
0.999196 1.00432 0.991481
0.999392 1.00539 0.99041
1.00035 1.00293 0.99102
0.999819 1.00438 0.99058
1.00044 1.00293 0.990574
1.00107 1.00011 0.992262
1.00029 1.0028 0.991066
1.00054 1.00155 0.991803
1.00085 0.999749 0.993027
1.00035 1.00197 0.991729
1.00061 1.00089 0.992296
1.00082 0.999727 0.993034
1.0007 1.00003 0.992981
1.00059 1.00081 0.992482
1.00067 1.00056 0.992516
1.00032 1.00117 0.992569
1.00039 1.00138 0.992287
1.00047 1.00135 0.992092
1.00013 1.00091 0.993265
1.00019 1.00131 0.992749
1.00024 1.00169 0.992237
1 1.00045 0.99399
1.0001 1.00084 0.993414
1.00011 1.00114 0.993093
0.999903 0.999313 0.9953
1.00001 1.00035 0.994087
1.00005 1.00088 0.993435
0.999818 0.997488 0.997262
0.999948 0.999158 0.995372
1.00004 1.0002 0.994177
0.999782 0.99637 0.9994
0.999861 0.997396 0.997269
0.999989 0.999056 0.995391
0.999827 0.996318 0.999397
0.9999 0.997337 0.99726
0.999857 0.996219 0.999396
1.00013 1.00076 0.993511
1.00015 1.00071 0.993419
1.00009 1.00015 0.994106
1.00002 0.99906 0.995326
1.00011 1.00011 0.994111
1.00016 1.00072 0.99337
0.999931 0.997307 0.997226
1.00003 0.999017 0.995338
1.00011 1.0001 0.994111
0.999892 0.996157 0.999392
0.999958 0.99723 0.997245
1.00004 0.998978 0.995362
0.99993 0.996056 0.999404
0.999983 0.997128 0.997289
0.999963 0.995952 0.999421
1.0065 0.993386 0.994467
1.01324 0.999993 0.979031
1.01754 0.996505 0.974798
1.00017 1.00099 0.993139
1.00015 1.00102 0.993161
1.00019 1.00108 0.992979
1.00018 1.0011 0.993044
1.00018 1.00098 0.993175
1.00021 1.0011 0.992922
1.0002 1.00127 0.992787
1.0002 1.00115 0.992906
1.00016 1.00145 0.992708
1.00017 1.00137 0.992821
1.00017 1.00153 0.992574
1.00018 1.00154 0.992587
0.997413 0.996072 0.994496
1.00534 0.990201 0.998656
1.0129 0.993301 0.98632
1.00561 0.986571 0.9998
1.00006 0.997084 0.987991
0.995857 0.999818 0.984935
0.995839 0.998756 0.998632
0.996637 1.00101 0.99529
0.998385 0.996771 0.989414
0.99576 1.00337 0.981122
0.997848 1.00154 0.991947
0.995574 1.0038 0.978391
0.999699 1.00287 0.992507
0.99995 1.00172 0.992821
1.00012 1.00177 0.992471
0.999139 1.00378 0.994124
0.999903 1.00373 0.990974
0.999859 1.00187 0.994048
1.00022 1.00057 0.994209
0.998557 0.995093 0.993717
1.00649 0.995356 0.99204
1.01327 1.00068 0.976718
0.999908 1.00037 0.996466
0.999986 0.995709 1.0008
1.00623 0.99426 0.992147
0.995451 1.0043 0.977263
0.99732 0.997611 0.990212
1.0012 0.999417 0.992945
0.998209 0.996032 0.992019
0.995073 1.00321 0.979102
1.00029 0.998099 0.997653
1.00266 0.997431 0.991231
0.995219 1.00198 0.977439
1.00029 0.999555 0.99624
0.999259 1.00544 0.990375
1.00033 1.00282 0.991003
1.00163 0.997743 0.993497
1.00047 1.00283 0.990625
1.00108 0.999827 0.992333
1.00132 0.997381 0.994415
1.00053 1.00138 0.991878
1.00085 0.999633 0.99305
1.00101 0.998498 0.993847
1.00061 1.00081 0.992321
1.00082 0.999727 0.993026
1.00082 0.999387 0.993362
1.0007 0.999887 0.993146
1.00071 0.99999 0.993022
1.00063 1.00029 0.992899
1.00051 1.00079 0.992665
1.00057 1.00083 0.992493
1.00066 1.00052 0.992556
1.00023 1.0009 0.992995
1.00032 1.00118 0.992625
1.00038 1.00137 0.992342
1.00002 1.00055 0.993859
1.00014 1.00092 0.993261
1.00016 1.00131 0.992742
0.999876 0.999474 0.995188
1.00001 1.00043 0.993992
1.00011 1.00084 0.993411
0.999767 0.99763 0.99722
0.999905 0.999319 0.995298
1.00001 1.00033 0.994089
0.999738 0.996526 0.999398
0.999818 0.9975 0.99726
0.99995 0.999165 0.99537
0.999786 0.996382 0.99899
0.999863 0.997407 0.997268
0.999817 0.996301 0.999397
1.0001 1.00084 0.993453
1.00013 1.00077 0.993447
1.00006 1.00023 0.99408
1.00014 1.00072 0.993441
1.00009 1.00015 0.994106
0.999998 0.999116 0.995311
0.999901 0.997371 0.997223
1.00002 0.999054 0.995326
1.00011 1.00011 0.994109
0.999857 0.996242 0.999389
0.99993 0.997301 0.997227
1.00003 0.999013 0.995338
0.999897 0.996157 0.999394
0.999956 0.997224 0.997246
0.999934 0.996052 0.999408
0.998362 0.995861 0.99018
1.00628 0.993588 0.99522
1.01324 1.00007 0.978988
1.00017 1.001 0.993109
1.00019 1.00108 0.992981
1.00015 1.00101 0.993178
1.00012 1.00108 0.993157
1.00017 1.00115 0.992966
1.0002 1.00126 0.992806
1.0002 1.00114 0.992924
1.00016 1.00143 0.992701
1.00011 1.00132 0.992833
1.00013 1.00157 0.992638
1.00008 1.00161 0.992802
1.00016 1.00141 0.992757
1.00016 1.00152 0.992571
0.996177 1.00195 0.975571
0.997634 0.997026 0.992511
1.00556 0.990836 0.997997
0.998587 0.995951 0.993892
0.995305 1.004 0.973339
0.996742 1.00115 1.00018
0.998176 1.00145 0.99443
0.995461 1.00311 0.979113
0.999917 0.999471 0.993224
1.00018 1.00343 0.99083
0.999641 1.00297 0.992418
0.999989 1.00163 0.992839
1.00025 1.00173 0.994079
1.0002 0.999513 0.994531
0.995089 0.999925 0.982162
0.998635 0.995561 0.99029
1.00632 0.995946 0.990528
1.00087 0.999364 0.994134
1.00084 0.998687 0.99228
0.998308 0.995621 0.9906
0.995321 1.00381 0.979207
1.00247 0.997636 0.991073
0.995269 1.00199 0.981141
1.00051 0.999323 0.99181
1.00333 0.994747 0.992518
0.99895 1.00261 0.995172
1.00029 1.00271 0.990985
1.00152 0.997895 0.993503
1.00176 0.995446 0.995339
1.00107 0.999539 0.992403
1.00128 0.997363 0.994377
1.00124 0.997089 0.994759
1.00086 0.999519 0.993073
1.00101 0.998556 0.993804
1.00093 0.998823 0.993697
1.00082 0.999732 0.993019
1.00082 0.999443 0.993333
1.00076 0.999682 0.993208
1.00069 0.999845 0.993188
1.00066 1.00014 0.992992
1.00071 0.999946 0.993063
1.00064 1.00029 0.992891
1.00059 1.00044 0.992844
1.00039 1.00071 0.992895
1.0005 1.00082 0.992652
1.00056 1.00085 0.992503
1.00007 1.00062 0.993665
1.00023 1.00091 0.993034
1.00032 1.0012 0.992682
0.999856 0.999669 0.99503
1.00003 1.00053 0.993858
1.00014 1.00092 0.993257
0.999719 0.997796 0.997148
0.99988 0.999479 0.995188
1.00002 1.00041 0.993994
0.999682 0.996664 0.999391
0.999769 0.997644 0.997217
0.999907 0.999326 0.995297
0.999728 0.996514 0.999397
0.999819 0.997512 0.997259
0.999771 0.99639 0.999399
1.00007 1.00094 0.993344
1.00009 1.00084 0.993457
1.00003 1.00038 0.993929
1.00013 1.00077 0.993383
1.00006 1.00025 0.994028
0.999966 0.999223 0.995272
1.00009 1.00014 0.994105
0.999998 0.99911 0.995311
0.999867 0.997446 0.997218
0.999819 0.996323 0.999389
0.999901 0.997363 0.997224
1.00002 0.999049 0.995326
0.999863 0.99625 0.999389
0.99993 0.997295 0.997227
0.999902 0.996158 0.999396
0.995677 1.00133 0.982251
0.998428 0.996096 0.993412
1.00642 0.993099 0.99549
1.00019 1.00109 0.992984
1.00014 1.00101 0.993195
1.00017 1.00115 0.99298
1.00012 1.00107 0.993169
1.00008 1.00123 0.993106
1.00012 1.0012 0.992994
1.00015 1.0014 0.992693
1.00012 1.00134 0.99284
1.00009 1.00159 0.992671
1.00007 1.0014 0.992786
1.00029 1.00145 0.992729
1.00048 1.00233 0.99122
1.00006 1.00158 0.992766
1.00014 1.00145 0.992692
0.999682 0.998671 0.998291
0.995325 1.00205 0.979966
0.997425 0.997321 0.989597
0.995478 1.00363 0.977818
0.998404 1.00071 0.997902
0.999791 0.999732 0.995905
1.00225 0.999696 0.990748
1.0001 1.00297 0.990956
0.999572 1.00304 0.992329
1.00015 0.998534 0.994854
0.997317 1.00275 0.992462
0.995168 1.00136 0.983134
0.998504 0.994838 0.993573
1.00233 0.997849 0.990917
1.00053 0.999334 0.996392
0.995236 1.00207 0.985064
1.00305 0.995167 0.992367
0.999213 1.00204 0.993645
1.00223 0.996079 0.993816
1.00009 1.00293 0.992217
1.00142 0.997962 0.993511
1.00172 0.995682 0.995314
1.00132 0.997202 0.994444
1.00123 0.997357 0.994339
1.00119 0.997319 0.99468
1.00104 0.998635 0.993707
1.00101 0.998619 0.993761
1.00092 0.998915 0.993657
1.00087 0.999581 0.993085
1.00082 0.999498 0.993304
1.00075 0.999711 0.993217
1.0007 1.00014 0.992886
1.00069 0.999805 0.993229
1.00066 1.00009 0.993022
1.00062 1.00036 0.992864
1.00064 1.00029 0.992884
1.00059 1.00044 0.992835
1.00049 1.0005 0.992982
1.00018 1.00058 0.993408
1.00038 1.00073 0.992935
1.00049 1.00084 0.99264
0.999857 0.999905 0.994799
1.00008 1.00062 0.993668
1.00022 1.00093 0.993072
0.999669 0.99799 0.997052
0.999865 0.999668 0.995029
1.00004 1.00052 0.993858
0.999621 0.996833 0.999376
0.999723 0.997812 0.997144
0.999883 0.999483 0.995188
0.999671 0.996656 0.999387
0.999772 0.997659 0.997214
0.999719 0.996502 0.999395
1.00006 1.00104 0.99332
1.00008 1.00094 0.993394
0.999999 1.00055 0.993836
1.00009 1.00085 0.99346
1.00002 1.0004 0.993918
0.999924 0.999383 0.9952
1.00006 1.00026 0.993976
0.999965 0.999218 0.995273
0.999826 0.997557 0.997195
0.999998 0.999105 0.995311
0.999868 0.997436 0.997219
0.999775 0.996413 0.999387
0.999825 0.996337 0.999389
0.999901 0.997356 0.997224
0.999868 0.996259 0.99939
0.998609 0.999035 0.998615
0.99508 1.00064 0.981359
0.99812 0.996334 0.990203
1.00011 1.00128 0.993001
1.00017 1.00115 0.992995
1.00012 1.00106 0.993181
1.00013 1.00122 0.99299
1.00007 1.00125 0.993098
1.00004 1.00127 0.993054
1.00014 1.00136 0.992847
1.00005 1.00161 0.992704
1.00011 1.00143 0.992811
1.00014 1.00142 0.992904
1.00042 1.00163 0.992025
1.00149 1.00174 0.989778
1.00039 1.00226 0.991392
1.00005 1.00155 0.99273
1.00251 0.997341 0.990951
0.999964 0.998333 0.995715
0.995472 1.00184 0.984078
0.999989 1.00004 0.991092
1.0023 1.0005 0.989309
1.00003 1.00248 0.991084
0.999571 1.00173 0.995868
0.997306 1.00337 0.997196
0.995071 0.999572 0.98215
1.00266 0.995612 0.992213
0.999292 1.00152 0.991681
1.00205 0.996177 0.993635
1.00013 1.00264 0.992533
1.00109 0.999627 0.992271
1.00005 1.00214 0.991542
1.00167 0.995972 0.995288
1.00128 0.997476 0.994413
1.00097 0.999676 0.992877
1.00114 0.997551 0.9946
1.00102 0.998714 0.993691
1.00098 0.999676 0.992801
1.00092 0.999004 0.993618
1.00085 0.999604 0.993119
1.00081 1.00024 0.992559
1.00074 0.999739 0.993226
1.0007 1.00014 0.992889
1.00065 1.00041 0.992716
1.00066 1.00004 0.993051
1.00062 1.00031 0.992872
1.00054 1.00044 0.992902
1.00059 1.00045 0.992826
1.00049 1.0005 0.992949
1.00029 1.00051 0.993335
0.999895 1.00009 0.994538
1.00017 1.00059 0.993458
1.00037 1.00075 0.992975
0.999621 0.998221 0.996912
0.999868 0.999892 0.994799
1.00008 1.00061 0.993671
0.999555 0.997028 0.999356
0.999675 0.998007 0.997045
0.999872 0.999668 0.995028
0.999609 0.996827 0.99937
0.999727 0.997827 0.99714
0.999661 0.996648 0.999383
1.00007 1.00109 0.993205
1.00005 1.00103 0.993321
0.999986 1.00068 0.9938
1.00008 1.00093 0.993443
0.999992 1.00056 0.993864
0.99988 0.999579 0.995095
1.00002 1.00042 0.993907
0.999922 0.999377 0.995201
0.999777 0.997711 0.997145
0.999964 0.999212 0.995274
0.999826 0.997544 0.997197
0.999722 0.99653 0.99938
0.999868 0.997426 0.99722
0.999783 0.996429 0.999388
0.999831 0.996351 0.999389
1.00124 0.99653 0.994854
0.998638 0.999298 0.99449
0.99527 1.00004 0.98304
1.00009 1.00122 0.992986
1.0003 1.00122 0.992693
1.00007 1.00129 0.993003
1.00014 1.00123 0.992987
1.00006 1.00126 0.993091
1.00007 1.00129 0.993033
1.00046 1.00138 0.992141
1.00014 1.00145 0.992836
1 1.00139 0.993079
1.0004 1.00163 0.991988
1.00123 1.00138 0.990464
1.00173 0.999266 0.991781
1.00149 1.00164 0.989907
1.00031 1.00219 0.991565
1.00261 0.997493 0.990976
0.999501 0.99894 0.993781
1.00238 1.00137 0.987868
0.999512 1.00056 0.994655
0.999504 1.00137 0.995839
0.997308 1.00243 0.993376
1.00191 0.996334 0.993452
1.0002 1.00235 0.992848
1.00113 0.9996 0.992399
1.00017 1.00211 0.991795
1.00073 1.00122 0.991807
0.999999 1.00141 0.993346
1.00125 0.997751 0.994381
1.00096 0.999597 0.992928
1.00093 1.00041 0.992222
1.001 0.998791 0.993676
1.00096 0.999723 0.992791
1.0009 1.00029 0.992262
1.00083 0.999626 0.993153
1.00081 1.00024 0.992562
1.00074 1.00052 0.992417
1.0007 1.00014 0.992891
1.00065 1.00041 0.992715
1.00057 1.00052 0.992765
1.00062 1.00026 0.99288
1.00054 1.00043 0.9929
1.00035 1.0005 0.993231
1.00049 1.00049 0.992917
1.00028 1.0005 0.993318
0.999946 1.00022 0.994308
0.999591 0.998467 0.996753
0.999907 1.00007 0.99454
1.00017 1.0006 0.993508
0.999486 0.997248 0.999328
0.999627 0.998242 0.996903
0.999879 0.999879 0.994798
0.999542 0.997024 0.999349
0.99968 0.998024 0.997039
0.999598 0.996821 0.999365
1.00014 1.00113 0.992936
1.00007 1.00108 0.993168
1.00001 1.00076 0.993674
1.00005 1.00102 0.993322
0.999976 1.0007 0.993797
0.999846 0.999788 0.994958
0.999984 1.00058 0.993893
0.999877 0.999574 0.995095
0.999721 0.997905 0.997068
0.999921 0.999372 0.995201
0.999775 0.997697 0.997148
0.999658 0.996685 0.999367
0.999826 0.99753 0.997199
0.999733 0.996543 0.999383
0.999791 0.996445 0.999388
1.00093 0.998128 0.994616
1.00129 0.996853 0.995559
0.998154 0.999807 1.00068
1.00051 1.00112 0.992438
1.00006 1.00122 0.993078
1.00048 1.00119 0.992089
1.0003 1.00123 0.992671
1.00002 1.00131 0.993004
1.00111 1.00113 0.991094
1.00009 1.00131 0.993011
1.00047 1.00133 0.992166
1.00161 0.999814 0.991173
1.00038 1.00162 0.99195
1.00134 1.00142 0.990262
1.00181 0.9992 0.991677
1.00149 1.00153 0.990036
1.00269 0.997625 0.991003
0.99993 1.00016 0.994576
0.999436 1.00052 0.99468
0.999433 1.00102 0.99581
1.00115 0.999509 0.992527
1.00029 1.00208 0.992049
1.00082 1.00113 0.991732
1.00006 1.00122 0.993327
1.00027 1.00086 0.993085
1.00094 0.999531 0.992979
1.00093 1.00031 0.992276
1.00084 1.00057 0.992221
1.00094 0.999769 0.99278
1.00091 1.00034 0.99223
1.00084 1.00058 0.99217
1.00081 1.00024 0.992566
1.00075 1.00052 0.992412
1.00064 1.00061 0.992523
1.00066 1.0004 0.992714
1.00057 1.00052 0.992764
1.0004 1.00056 0.993071
1.00054 1.00041 0.992899
1.00035 1.00049 0.993235
0.999981 1.00035 0.99411
1.00027 1.00049 0.993301
0.999956 1.00019 0.994311
0.999557 0.9987 0.997076
0.99943 0.997525 0.998291
0.999592 0.998489 0.996982
0.999918 1.00005 0.994542
0.999476 0.997248 0.999317
0.999634 0.998263 0.996894
0.99953 0.997021 0.999341
1.00061 1.00098 0.992154
1.00024 1.00121 0.992634
1.00017 1.00113 0.992901
1.00005 1.00082 0.993532
1.00007 1.00108 0.993132
1 1.00077 0.993674
0.99983 0.999985 0.994798
0.999965 1.00071 0.993795
0.999841 0.999785 0.994958
0.99966 0.998127 0.996974
0.999875 0.999569 0.995096
0.999717 0.997891 0.997072
0.999583 0.99688 0.999348
0.999774 0.997682 0.997151
0.999671 0.996693 0.999371
0.999743 0.996557 0.999385
1.00098 0.99913 0.993357
1.0009 0.998216 0.994468
1.00134 0.99722 0.996265
1.00098 1.00093 0.991554
1.00042 1.00112 0.992572
1.00002 1.00121 0.993169
1.00056 1.00115 0.99215
1.00029 1.00123 0.992649
1.00146 1.00044 0.990957
1.0011 1.00119 0.991053
1.00047 1.00129 0.992192
1.0017 0.999805 0.991109
1.00146 1.00144 0.990061
1.00188 0.999141 0.991572
0.999728 1.00049 0.994297
0.999865 1.00031 0.994524
0.999356 1.00048 0.994704
1.00092 1.00105 0.991658
1.0001 1.00104 0.993308
1.00031 1.00082 0.99305
1.00031 1.00078 0.993033
1.00093 1.0002 0.992329
1.0009 1.0005 0.99216
1.0008 1.00044 0.992386
1.00092 1.00039 0.992198
1.00084 1.00058 0.992163
1.00072 1.00069 0.992287
1.00075 1.00051 0.992407
1.00065 1.00061 0.992518
1.00046 1.00064 0.992864
1.00058 1.00051 0.992763
1.0004 1.00055 0.993071
1.00001 1.00049 0.993913
1.00035 1.00049 0.993239
0.99999 1.00032 0.994113
0.999511 0.998973 0.996918
0.999966 1.00017 0.994314
0.999554 0.998736 0.99705
0.999356 0.997791 0.998173
0.999423 0.997494 0.998784
0.999594 0.998512 0.997209
0.999465 0.997248 0.999306
1.00097 1.00081 0.991638
1.00044 1.00108 0.992563
1.00058 1.00091 0.992319
1.0001 1.00095 0.993288
1.00027 1.00122 0.992645
1.00019 1.00113 0.992865
1.00004 1.00084 0.993532
0.999824 1.0002 0.994601
0.999988 1.00078 0.993675
0.99982 0.999991 0.994797
0.999593 0.998369 0.996871
0.999836 0.999782 0.994959
0.999654 0.998113 0.996979
0.999497 0.997107 0.999326
0.999714 0.997876 0.997076
0.999599 0.996881 0.999354
0.999685 0.9967 0.999376
1.00078 1.00014 0.992734
1.00095 0.99914 0.993361
1.00087 0.998303 0.994319
1.00127 1.00039 0.991289
1.00098 1.00093 0.991547
1.00034 1.00112 0.992706
1.00064 1.00111 0.992212
1.00149 1.00044 0.990987
1.00109 1.00125 0.991013
1.00179 0.999796 0.991044
0.99987 1.00083 0.993841
0.999866 1.00055 0.9941
0.99981 1.00045 0.994472
1.00013 1.00101 0.993172
1.00036 1.0008 0.993016
1.0003 1.0008 0.99304
1.00052 1.00056 0.992857
1.00095 1.00044 0.992099
1.00078 1.00046 0.992392
1.00071 1.00067 0.992356
1.00084 1.00059 0.992157
1.00072 1.00069 0.99229
1.00052 1.00072 0.992662
1.00065 1.00061 0.992513
1.00046 1.00063 0.99286
1.00004 1.0006 0.993715
1.0004 1.00055 0.993071
1.00001 1.00047 0.993915
0.999452 0.999283 0.996746
0.999998 1.00029 0.994116
0.999509 0.999 0.996892
0.999274 0.998092 0.998068
0.999552 0.998772 0.997025
0.999356 0.99776 0.998188
0.999415 0.997461 0.999279
1.00127 1.00051 0.991396
1.0008 1.00086 0.991984
1.00094 1.00083 0.991719
1.00026 1.00094 0.993104
1.00043 1.00107 0.992527
1.00054 1.00084 0.992483
0.99985 1.00044 0.994305
1.0001 1.00096 0.993286
1.0003 1.00124 0.992655
1.00003 1.00084 0.993531
0.999809 1.00022 0.9946
0.999525 0.998639 0.996743
0.99981 0.999997 0.994797
0.999586 0.998355 0.996877
0.999405 0.997358 0.999303
0.999648 0.998099 0.996984
0.999515 0.997103 0.999333
0.999615 0.996882 0.99936
1.00084 1.00034 0.992443
1.0009 1.0001 0.992582
1.00091 0.999151 0.993366
1.00141 1.00034 0.991156
1.00098 1.00093 0.991541
1.00153 1.00043 0.991017
0.999925 1.0013 0.993273
0.999809 1.00091 0.993918
1 1.00061 0.993903
1.00016 1.00108 0.993068
1.00022 1.00106 0.992956
1.0003 1.00081 0.993046
1.00051 1.00056 0.992858
1.00055 1.00065 0.992754
1.00077 1.00048 0.992397
1.00069 1.00067 0.992371
1.00051 1.00079 0.99262
1.00071 1.00069 0.992294
1.00052 1.00072 0.992661
1.00008 1.0007 0.993538
1.00047 1.00063 0.992857
1.00005 1.00059 0.993717
0.999378 0.99964 0.996507
1.00002 1.00045 0.993917
0.999455 0.999299 0.996716
0.99917 0.99845 0.997946
0.999507 0.999028 0.996867
0.999272 0.998058 0.998084
0.999356 0.997728 0.998203
1.00112 0.999902 0.992351
1.00108 1.00065 0.991591
1.0013 1.00049 0.991367
1.00053 1.00081 0.992606
1.00078 1.00087 0.992039
1.0009 1.00086 0.991801
0.999934 1.00057 0.993976
1.00026 1.00094 0.993002
1.00042 1.00106 0.992491
0.999482 0.998938 0.996536
0.999831 1.00047 0.994306
1.0001 1.00096 0.993284
0.999793 1.00024 0.994599
0.999515 0.998622 0.996751
0.999316 0.997628 0.999273
0.999579 0.998341 0.996882
0.999423 0.997351 0.99931
0.999534 0.997098 0.999339
1.0005 1.00115 0.992314
1.00088 1.00031 0.992391
1.00101 1.00007 0.99243
1.00154 1.00029 0.991022
1.00004 1.00145 0.992904
0.999907 1.00131 0.993329
0.999749 1.00098 0.993994
1.00018 1.00115 0.992965
1.0002 1.00108 0.992988
1.00022 1.00098 0.993039
1.0005 1.00057 0.992859
1.00054 1.00065 0.992745
1.00041 1.00082 0.992812
1.00068 1.00066 0.992387
1.0005 1.00079 0.992631
1.00008 1.00081 0.993432
1.00051 1.00072 0.99266
1.00008 1.0007 0.993541
0.999325 1.00006 0.995635
1.00005 1.00058 0.993719
0.999396 0.999666 0.996173
0.999035 0.998735 0.999073
0.999457 0.999317 0.996686
0.999167 0.998413 0.997965
0.999271 0.998023 0.9981
1.0008 1.00054 0.99239
1.00104 1.00017 0.992169
1.00106 0.999951 0.992331
1.00073 1.00069 0.992107
1.00106 1.00062 0.991701
1.00132 1.00046 0.991337
1.00009 1.00058 0.993483
1.00053 1.00082 0.992602
1.00077 1.00087 0.992094
0.999488 0.999215 0.996238
0.999925 1.0006 0.993888
1.00025 1.00093 0.9929
0.999247 0.997916 0.999219
0.999467 0.998917 0.996548
0.99981 1.0005 0.994307
0.999506 0.998606 0.996759
0.999332 0.997619 0.999282
0.999443 0.997342 0.999317
1.0002 1.00154 0.992475
1.00041 1.00111 0.992468
1.00091 1.00027 0.99234
1.00002 1.00128 0.993126
1.00005 1.00145 0.992921
0.999889 1.00132 0.993385
1.00018 1.00109 0.99302
1.00022 1.00096 0.993045
1.00009 1.00107 0.993257
1.00052 1.00066 0.992737
1.00039 1.00083 0.992861
0.99999 1.00092 0.993444
1.00048 1.00079 0.992642
1.00007 1.00081 0.993442
0.999251 1.00044 0.995424
1.00008 1.0007 0.993544
0.999347 1.00004 0.995631
0.998931 0.9991 0.999028
0.999413 0.99969 0.99584
0.999023 0.998784 0.998446
0.999164 0.998375 0.997984
1.00052 1.00119 0.992368
1.00077 1.00039 0.992485
1.00077 1.00053 0.992368
1.00075 1.0005 0.992368
1.00099 1.0002 0.992198
1.00101 0.999999 0.99231
1.00025 1.00058 0.993142
1.00075 1.00069 0.992211
1.00104 1.00058 0.991811
0.999524 0.999459 0.9959
1.00011 1.00061 0.993431
1.00054 1.00082 0.992598
0.999198 0.998215 0.999144
0.999468 0.999199 0.99625
0.999916 1.00063 0.993801
0.999255 0.997904 0.999237
0.999451 0.998897 0.99656
0.999347 0.997608 0.999292
1.00016 1.0013 0.992779
1.00022 1.0015 0.992498
1.00033 1.00107 0.992622
0.999962 1.00127 0.993296
1.00006 1.00128 0.993089
1.00006 1.00145 0.992938
1.00023 1.00094 0.993051
1.00009 1.00105 0.993256
0.999762 1.00113 0.993683
1.00038 1.00085 0.99291
0.999995 1.00093 0.993467
0.999136 1.00076 0.995361
1.00006 1.00082 0.993451
0.999268 1.00041 0.995423
0.998782 0.999491 0.99897
0.99937 1.00003 0.995626
0.998894 0.999136 0.99901
0.999013 0.998837 0.997815
1.00048 1.00093 0.992617
1.00051 1.00123 0.99227
1.00057 1.00059 0.992684
1.00076 1.00038 0.992504
1.00073 1.00052 0.992346
1.00028 1.00055 0.993257
1.00077 1.0005 0.992353
1.00095 1.00022 0.992226
0.999542 0.999699 0.995599
1.00027 1.00059 0.993185
1.00078 1.00069 0.992315
0.999145 0.998526 0.999061
0.999502 0.999455 0.995911
1.00012 1.00064 0.993379
0.999202 0.998201 0.999167
0.999448 0.999183 0.996262
0.999264 0.997891 0.999254
1.00012 1.00118 0.993093
1.0002 1.00127 0.992779
1.00025 1.00146 0.992521
0.9997 1.00127 0.99369
0.999966 1.00126 0.9933
1.0001 1.00127 0.993053
1.0001 1.00103 0.993256
0.999781 1.00112 0.993663
0.998985 1.00102 0.995418
0.999998 1.00094 0.993491
0.99914 1.00073 0.995368
0.998623 0.99984 0.998935
0.999286 1.00039 0.995423
0.998744 0.999531 0.998956
0.998859 0.999172 0.998991
1.00034 1.00092 0.992884
1.00049 1.00095 0.992565
1.0005 1.00126 0.992171
1.00014 1.00069 0.993418
1.00057 1.00059 0.992684
1.00075 1.00038 0.992523
0.999481 0.999954 0.995441
1.00029 1.00055 0.993243
1.00079 1.0005 0.992339
0.999062 0.998855 0.998991
0.999522 0.999705 0.995606
1.00028 1.00059 0.993229
0.999154 0.99851 0.999086
0.999479 0.999451 0.995921
0.999206 0.998187 0.999191
0.999777 1.0012 0.993691
1.0001 1.00118 0.993077
1.00023 1.00124 0.992779
0.998917 1.00114 0.995437
0.999696 1.00127 0.993696
0.999969 1.00125 0.993304
0.999799 1.00112 0.993644
0.998987 1.001 0.995422
0.998448 1.0001 0.998944
0.999145 1.00071 0.995375
0.998573 0.999875 0.998937
0.998705 0.99957 0.998942
0.999928 1.00098 0.993583
1.00032 1.00092 0.992881
1.00049 1.00098 0.992513
0.999314 1.00018 0.996131
1.00015 1.00069 0.993408
1.00057 1.00059 0.992683
0.998911 0.999201 0.998959
0.999471 0.999971 0.995437
1.00031 1.00055 0.993229
0.999082 0.998833 0.999011
0.999503 0.999711 0.995612
0.999162 0.998493 0.99911
0.998955 1.00103 0.995443
0.99978 1.0012 0.993651
1.00008 1.00118 0.993061
0.998354 1.00023 0.99895
0.998919 1.00113 0.995435
0.999693 1.00127 0.993702
0.998989 1.00098 0.995427
0.998418 1.00013 0.998946
0.998524 0.99991 0.99894
0.999093 1.00056 0.996152
0.999933 1.00098 0.993578
1.0003 1.00093 0.992878
0.998747 0.999524 0.998964
0.999329 1.00031 0.99542
1.00016 1.00069 0.993398
0.998954 0.999174 0.998966
0.999462 0.999988 0.995433
0.999103 0.998812 0.999031
0.998382 1.00049 0.99754
0.998974 1.00094 0.995791
0.999783 1.00119 0.993611
0.998355 1.00023 0.998951
0.99892 1.00113 0.995435
0.998386 1.00015 0.998952
0.998541 1.00012 0.99755
0.999128 1.00065 0.995796
0.999939 1.00098 0.993572
0.99876 0.999649 0.998253
0.999308 1.00034 0.995413
0.998998 0.999147 0.998973
0.998382 1.00015 0.998952
0.998969 1.00104 0.995436
0.998358 1.00023 0.998947
0.998518 1.00006 0.998254
0.99911 1.00074 0.995441
0.998818 0.9995 0.998955
0.99843 1.00011 0.998955
0.998603 0.999845 0.998957

TENSORS stress float
0.00118832 2.20782e-05 1.07111e-05
2.20782e-05 0.000141831 -3.8485e-06
1.07111e-05 -3.8485e-06 0.000143899
0.00241517 -2.44179e-05 8.21324e-06
-2.44179e-05 0.000723103 2.65985e-06
8.21324e-06 2.65985e-06 0.000736937
0.00116291 2.26606e-05 3.9024e-06
2.26606e-05 0.000129345 -1.55998e-06
3.9024e-06 -1.55998e-06 0.000131735
0.00123285 2.27282e-05 1.28813e-05
2.27282e-05 0.000200802 -3.04314e-06
1.28813e-05 -3.04314e-06 0.000192375
0.00120518 2.26785e-05 1.1338e-05
2.26785e-05 0.00016093 -3.57462e-06
1.1338e-05 -3.57462e-06 0.000159927
0.00117152 2.13015e-05 1.00595e-05
2.13015e-05 0.000124371 -4.09284e-06
1.00595e-05 -4.09284e-06 0.000129293
0.00115761 1.76668e-05 4.18475e-06
1.76668e-05 0.00011489 -1.55577e-06
4.18475e-06 -1.55577e-06 9.97408e-05
0.00247133 -2.45457e-05 1.26691e-07
-2.45457e-05 0.000749478 -8.10418e-08
1.26691e-07 -8.10418e-08 0.000763326
0.00275424 -2.97125e-05 4.14011e-06
-2.97125e-05 0.000910531 8.53177e-07
4.14011e-06 8.53177e-07 0.000917827
0.0025197 -2.68199e-05 3.70986e-06
-2.68199e-05 0.000780142 9.67904e-07
3.70986e-06 9.67904e-07 0.000792276
0.00108882 -1.93374e-05 7.06066e-06
-1.93374e-05 7.00575e-05 2.6658e-06
7.06066e-06 2.6658e-06 8.00149e-05
0.000909303 -1.56348e-05 4.18507e-06
-1.56348e-05 -1.7618e-05 1.94559e-06
4.18507e-06 1.94559e-06 -2.71691e-05
0.0010994 -1.65647e-05 1.16615e-05
-1.65647e-05 0.000192438 6.47314e-07
1.16615e-05 6.47314e-07 0.000173331
0.00113846 -2.35168e-05 3.69855e-06
-2.35168e-05 0.000171901 4.73742e-07
3.69855e-06 4.73742e-07 0.000160376
0.0011355 2.32591e-05 -2.98742e-06
2.32591e-05 0.000115926 7.42536e-07
-2.98742e-06 7.42536e-07 0.000118641
0.00119495 2.33427e-05 4.76434e-06
2.33427e-05 0.000182884 -1.22036e-06
4.76434e-06 -1.22036e-06 0.000174816
0.00114708 2.18619e-05 3.66092e-06
2.18619e-05 0.000112144 -1.63781e-06
3.66092e-06 -1.63781e-06 0.000117402
0.00117593 2.32759e-05 4.14807e-06
2.32759e-05 0.000146731 -1.44377e-06
4.14807e-06 -1.44377e-06 0.000146053
0.00117056 1.76486e-05 -9.94661e-07
1.76486e-05 0.000121616 1.96081e-07
-9.94661e-07 1.96081e-07 0.000106456
0.00291696 2.76573e-05 1.25879e-05
2.76573e-05 0.00106666 -9.13542e-07
1.25879e-05 -9.13542e-07 0.00106025
0.00124855 2.18678e-05 1.38833e-05
2.18678e-05 0.000223633 -2.58423e-06
1.38833e-05 -2.58423e-06 0.000211224
0.00121714 2.29437e-05 1.2004e-05
2.29437e-05 0.000179452 -3.33345e-06
1.2004e-05 -3.33345e-06 0.000174966
0.00119307 1.85709e-05 4.06022e-06
1.85709e-05 0.000153809 -1.09939e-06
4.06022e-06 -1.09939e-06 0.000128385
0.00117207 1.80818e-05 4.25098e-06
1.80818e-05 0.000129205 -1.3673e-06
4.25098e-06 -1.3673e-06 0.000110818
0.00116818 2.0388e-05 9.5224e-06
2.0388e-05 0.000113714 -4.27909e-06
9.5224e-06 -4.27909e-06 0.000121236
0.00113844 1.72244e-05 3.99613e-06
1.72244e-05 9.94582e-05 -1.72558e-06
3.99613e-06 -1.72558e-06 8.7554e-05
0.00139789 5.99418e-06 1.45575e-06
5.99418e-06 0.000207084 -2.73506e-07
1.45575e-06 -2.73506e-07 0.000167277
0.00252833 -2.46888e-05 -8.01982e-06
-2.46888e-05 0.000776215 -2.67903e-06
-8.01982e-06 -2.67903e-06 0.000790079
0.00196177 -2.61498e-05 -3.11588e-06
-2.61498e-05 0.000525598 -8.15733e-07
-3.11588e-06 -8.15733e-07 0.000528676
0.00183228 -2.40024e-05 -2.74357e-06
-2.40024e-05 0.000445839 -8.96665e-07
-2.74357e-06 -8.96665e-07 0.000454493
0.00236966 -2.29774e-05 9.8094e-08
-2.29774e-05 0.000693467 -6.12433e-08
9.8094e-08 -6.12433e-08 0.000709106
0.000869765 -1.5632e-05 9.17288e-08
-1.5632e-05 -3.65566e-05 -4.02005e-08
9.17288e-08 -4.02005e-08 -4.58897e-05
0.00110238 -2.27675e-05 9.31696e-06
-2.27675e-05 0.000121902 1.84309e-06
9.31696e-06 1.84309e-06 0.000117534
0.00112532 -2.2125e-05 8.27567e-06
-2.2125e-05 0.000111149 2.2308e-06
8.27567e-06 2.2308e-06 0.000113707
0.00166671 -1.94497e-05 6.17825e-06
-1.94497e-05 0.000364035 1.50875e-06
6.17825e-06 1.50875e-06 0.000348117
0.00231751 -2.21249e-05 3.29941e-06
-2.21249e-05 0.000659984 1.15885e-06
3.29941e-06 1.15885e-06 0.000677388
0.0016058 -1.80509e-05 5.84501e-06
-1.80509e-05 0.000326305 1.80323e-06
5.84501e-06 1.80323e-06 0.000317164
0.000902199 -1.50981e-05 4.97434e-06
-1.50981e-05 -2.55963e-05 3.09655e-06
4.97434e-06 3.09655e-06 -3.27291e-05
0.000997999 -6.35549e-06 2.31812e-06
-6.35549e-06 1.37411e-05 1.01809e-06
2.31812e-06 1.01809e-06 -2.26868e-05
0.00229937 -1.80894e-05 7.09869e-06
-1.80894e-05 0.000639736 3.23039e-06
7.09869e-06 3.23039e-06 0.00065906
0.00280912 -2.66841e-05 2.74975e-07
-2.66841e-05 0.00102007 -1.35553e-07
2.74975e-07 -1.35553e-07 0.00101338
0.00198606 -2.62985e-05 -3.61989e-06
-2.62985e-05 0.000586171 -5.44269e-07
-3.61989e-06 -5.44269e-07 0.000579302
0.00283849 -2.44829e-05 1.17448e-05
-2.44829e-05 0.00104456 2.60502e-07
1.17448e-05 2.60502e-07 0.00103624
0.00111901 -2.18377e-05 3.84574e-06
-2.18377e-05 0.000182993 3.82811e-07
3.84574e-06 3.82811e-07 0.000167588
0.000682135 -1.46583e-05 6.7383e-06
-1.46583e-05 -6.30602e-05 8.89947e-07
6.7383e-06 8.89947e-07 -0.000101644
0.00286483 -3.14092e-05 4.55903e-06
-3.14092e-05 0.000991619 6.6495e-07
4.55903e-06 6.6495e-07 0.000993412
0.00153573 -2.0518e-05 8.22272e-06
-2.0518e-05 0.000328338 1.48706e-06
8.22272e-06 1.48706e-06 0.00030238
0.00115595 2.40266e-05 -3.50979e-06
2.40266e-05 0.000164439 5.85449e-07
-3.50979e-06 5.85449e-07 0.000156732
0.00114364 2.38891e-05 -3.13902e-06
2.38891e-05 0.000131081 6.67261e-07
-3.13902e-06 6.67261e-07 0.000130739
0.00112174 2.24402e-05 -2.82515e-06
2.24402e-05 9.95013e-05 8.05285e-07
-2.82515e-06 8.05285e-07 0.000105097
0.00118425 1.76217e-05 -6.19386e-06
1.76217e-05 0.000128693 1.97657e-06
-6.19386e-06 1.97657e-06 0.000113519
0.00200116 2.32336e-05 -2.52013e-06
2.32336e-05 0.00062421 -2.38226e-07
-2.52013e-06 -2.38226e-07 0.000611604
0.00120371 2.25126e-05 5.15546e-06
2.25126e-05 0.000202563 -1.062e-06
5.15546e-06 -1.062e-06 0.000190465
0.00113885 2.09135e-05 3.45599e-06
2.09135e-05 9.89274e-05 -1.6925e-06
3.45599e-06 -1.6925e-06 0.000106791
0.00118461 2.35536e-05 4.42014e-06
2.35536e-05 0.000163846 -1.32594e-06
4.42014e-06 -1.32594e-06 0.000159712
0.00120931 1.85394e-05 -1.52961e-06
1.85394e-05 0.000161832 2.18563e-07
-1.52961e-06 2.18563e-07 0.000136411
0.00115318 1.72004e-05 -9.13922e-07
1.72004e-05 0.000106994 1.90211e-07
-9.13922e-07 1.90211e-07 9.5092e-05
0.00118419 1.80928e-05 -1.11609e-06
1.80928e-05 0.000135363 2.12037e-07
-1.11609e-06 2.12037e-07 0.000116979
0.00138661 5.15497e-06 -9.61671e-07
5.15497e-06 0.000200399 5.41891e-07
-9.61671e-07 5.41891e-07 0.000160365
0.00293673 2.67104e-05 1.25992e-05
2.67104e-05 0.00108587 -4.88956e-07
1.25992e-05 -4.88956e-07 0.00107807
0.00124525 2.01458e-05 1.47615e-05
2.01458e-05 0.00023929 -2.04904e-06
1.47615e-05 -2.04904e-06 0.000223309
0.00153925 1.75035e-05 3.28964e-06
1.75035e-05 0.000347817 -3.70086e-07
3.28964e-06 -3.70086e-07 0.000315785
0.00120995 1.70777e-05 4.04931e-06
1.70777e-05 0.000168164 -8.8623e-07
4.04931e-06 -8.8623e-07 0.000139442
0.00117994 1.84108e-05 4.17972e-06
1.84108e-05 0.000140927 -1.23383e-06
4.17972e-06 -1.23383e-06 0.000119109
0.00138584 3.32871e-06 1.10393e-06
3.32871e-06 0.000192495 -1.85146e-07
1.10393e-06 -1.85146e-07 0.000144617
0.00121253 5.38318e-06 1.65967e-06
5.38318e-06 0.000115112 -3.95934e-07
1.65967e-06 -3.95934e-07 7.17154e-05
0.00124648 1.93336e-05 9.28741e-06
1.93336e-05 0.000141372 -4.44913e-06
9.28741e-06 -4.44913e-06 0.000150982
0.00114357 1.67711e-05 3.77448e-06
1.67711e-05 9.49792e-05 -1.7896e-06
3.77448e-06 -1.7896e-06 8.64718e-05
0.00138655 8.35829e-06 1.45639e-06
8.35829e-06 0.000204289 -4.04132e-07
1.45639e-06 -4.04132e-07 0.000167432
0.00111035 -8.56201e-06 8.32408e-07
-8.56201e-06 3.93346e-05 -2.92571e-07
8.32408e-07 -2.92571e-07 -1.3925e-05
0.00284698 -2.91214e-05 -9.24167e-06
-2.91214e-05 0.00095439 -2.22132e-06
-9.24167e-06 -2.22132e-06 0.000961716
0.00245426 -2.31177e-05 -7.71225e-06
-2.31177e-05 0.000733231 -2.81148e-06
-7.71225e-06 -2.81148e-06 0.000748833
0.00261922 -2.62111e-05 -8.41305e-06
-2.62111e-05 0.000827714 -2.52567e-06
-8.41305e-06 -2.52567e-06 0.000839651
0.000830676 -1.56297e-05 -3.97536e-06
-1.56297e-05 -5.52752e-05 -2.07918e-06
-3.97536e-06 -2.07918e-06 -6.43921e-05
0.00282775 -2.96201e-05 1.41865e-07
-2.96201e-05 0.000959079 -1.03938e-07
1.41865e-07 -1.03938e-07 0.000963474
0.0026278 -2.73851e-05 1.08121e-07
-2.73851e-05 0.000841592 -7.70611e-08
1.08121e-07 -7.70611e-08 0.000851208
0.000846159 -1.67339e-05 1.04533e-07
-1.67339e-05 -3.42992e-05 -7.16388e-08
1.04533e-07 -7.16388e-08 -5.40541e-05
0.00172541 -2.00277e-05 -2.43618e-06
-2.00277e-05 0.000371805 -9.97522e-07
-2.43618e-06 -9.97522e-07 0.000386265
0.000880419 -1.60354e-05 3.64329e-08
-1.60354e-05 -2.63881e-05 -2.56595e-08
3.64329e-08 -2.56595e-08 -3.85434e-05
0.00121162 -1.59236e-05 1.30921e-06
-1.59236e-05 0.000124739 4.76975e-07
1.30921e-06 4.76975e-07 0.000119343
0.000984368 -7.40873e-06 1.09482e-07
-7.40873e-06 8.13323e-06 -6.17146e-08
1.09482e-07 -6.17146e-08 -2.84324e-05
0.00229239 -1.97449e-05 7.31437e-06
-1.97449e-05 0.000642373 3.06555e-06
7.31437e-06 3.06555e-06 0.000660769
0.000936626 -1.24444e-05 3.22793e-06
-1.24444e-05 -2.62026e-05 2.43041e-06
3.22793e-06 2.43041e-06 -2.87486e-05
0.00076936 -1.7011e-05 6.17271e-06
-1.7011e-05 -6.59778e-05 2.12105e-06
6.17271e-06 2.12105e-06 -9.01322e-05
0.000841601 -1.60334e-05 5.75446e-06
-1.60334e-05 -3.99057e-05 2.65345e-06
5.75446e-06 2.65345e-06 -5.632e-05
0.000999739 7.16332e-07 2.2452e-06
7.16332e-07 2.4612e-06 7.0806e-07
2.2452e-06 7.0806e-07 -4.39797e-05
0.00154396 -1.58961e-05 5.13408e-06
-1.58961e-05 0.000280008 2.17731e-06
5.13408e-06 2.17731e-06 0.000278002
0.00100542 -2.34597e-06 2.28213e-06
-2.34597e-06 1.4818e-05 1.01111e-06
2.28213e-06 1.01111e-06 -2.45685e-05
0.00100456 -9.68891e-06 2.17745e-06
-9.68891e-06 1.77514e-05 1.28189e-06
2.17745e-06 1.28189e-06 -1.59837e-05
0.00104403 5.00786e-06 1.17043e-06
5.00786e-06 2.47245e-05 3.15576e-07
1.17043e-06 3.15576e-07 -2.54869e-05
0.00230137 -1.64344e-05 6.79441e-06
-1.64344e-05 0.000635499 3.36929e-06
6.79441e-06 3.36929e-06 0.000655659
0.00234754 -1.81043e-05 1.28205e-07
-1.81043e-05 0.000662563 -5.4196e-08
1.28205e-07 -5.4196e-08 0.000681772
0.0029856 -3.08821e-05 -1.08817e-05
-3.08821e-05 0.00106423 -1.51675e-06
-1.08817e-05 -1.51675e-06 0.00106333
0.00290735 -2.82866e-05 -1.19511e-05
-2.82866e-05 0.00106247 -8.77215e-07
-1.19511e-05 -8.77215e-07 0.00105625
0.00285712 -2.52147e-05 5.5131e-07
-2.52147e-05 0.00105193 -1.34585e-07
5.5131e-07 -1.34585e-07 0.0010438
0.00197307 -2.48206e-05 -3.83662e-06
-2.48206e-05 0.000599493 -4.31003e-07
-3.83662e-06 -4.31003e-07 0.000589236
0.00115067 -1.67926e-05 2.16127e-06
-1.67926e-05 0.000163922 1.82369e-08
2.16127e-06 1.82369e-08 0.000128669
0.00205113 -2.71969e-05 -3.4529e-06
-2.71969e-05 0.000596237 -6.53043e-07
-3.4529e-06 -6.53043e-07 0.000592939
0.00122362 -1.94154e-05 1.85884e-06
-1.94154e-05 0.000175399 1.95888e-07
1.85884e-06 1.95888e-07 0.000146915
0.00289615 -1.3128e-06 1.2215e-05
-1.3128e-06 0.00107313 -9.41387e-08
1.2215e-05 -9.41387e-08 0.00106448
0.00071605 -1.19078e-05 4.65319e-06
-1.19078e-05 -4.06829e-05 2.48531e-07
4.65319e-06 2.48531e-07 -8.10567e-05
0.00151378 -1.984e-05 8.53132e-06
-1.984e-05 0.000329673 1.21994e-06
8.53132e-06 1.21994e-06 0.000300381
0.000998432 -1.39361e-05 1.72305e-06
-1.39361e-05 1.44917e-05 3.34414e-08
1.72305e-06 3.34414e-08 -4.09022e-05
0.00163414 -2.09808e-05 6.35766e-06
-2.09808e-05 0.000362286 1.03338e-06
6.35766e-06 1.03338e-06 0.000339913
0.00100619 -5.92225e-06 1.86836e-06
-5.92225e-06 7.77116e-06 3.69613e-07
1.86836e-06 3.69613e-07 -4.38157e-05
0.00109928 1.66547e-05 -1.19268e-05
1.66547e-05 0.000188298 6.58899e-07
-1.19268e-05 6.58899e-07 0.000169539
0.00115946 2.32683e-05 -3.75468e-06
2.32683e-05 0.000181789 5.29935e-07
-3.75468e-06 5.29935e-07 0.000169998
0.00110896 2.14493e-05 -2.68732e-06
2.14493e-05 8.38788e-05 8.56184e-07
-2.68732e-06 8.56184e-07 9.20868e-05
0.00114949 2.41979e-05 -3.2986e-06
2.41979e-05 0.000146987 6.1351e-07
-3.2986e-06 6.1351e-07 0.000143215
0.00122702 1.8468e-05 -7.15007e-06
1.8468e-05 0.000170542 1.54878e-06
-7.15007e-06 1.54878e-06 0.000145122
0.00119781 1.80854e-05 -6.49294e-06
1.80854e-05 0.000142238 1.79678e-06
-6.49294e-06 1.79678e-06 0.000123851
0.0011681 1.7169e-05 -5.85003e-06
1.7169e-05 0.000114621 2.11865e-06
-5.85003e-06 2.11865e-06 0.00010272
0.00137681 4.27105e-06 -3.24063e-06
4.27105e-06 0.000194392 1.34931e-06
-3.24063e-06 1.34931e-06 0.000154133
0.00289739 2.56915e-05 -5.7845e-07
2.56915e-05 0.00106883 -1.3188e-07
-5.7845e-07 -1.3188e-07 0.00106088
0.00120037 2.09329e-05 5.52141e-06
2.09329e-05 0.000218132 -8.21707e-07
5.52141e-06 -8.21707e-07 0.000202413
0.000930953 1.40859e-05 -3.1814e-06
1.40859e-05 5.16019e-05 2.04377e-07
-3.1814e-06 2.04377e-07 1.54934e-05
0.00122059 1.7065e-05 -1.74079e-06
1.7065e-05 0.000173406 2.16185e-07
-1.74079e-06 2.16185e-07 0.000144679
0.00181379 2.12851e-05 4.70335e-06
2.12851e-05 0.000417971 -1.77497e-06
4.70335e-06 -1.77497e-06 0.000430849
0.00134727 1.72676e-05 -7.25163e-07
1.72676e-05 0.00019437 2.41802e-07
-7.25163e-07 2.41802e-07 0.000187006
0.00119491 1.84413e-05 -1.29689e-06
1.84413e-05 0.00014831 2.19187e-07
-1.29689e-06 2.19187e-07 0.000126509
0.00131049 3.60201e-06 -8.46496e-07
3.60201e-06 0.000155234 3.38865e-07
-8.46496e-07 3.38865e-07 0.000106714
0.00138172 7.09884e-06 -9.27874e-07
7.09884e-06 0.000200606 5.97866e-07
-9.27874e-07 5.97866e-07 0.000163477
0.00130197 4.88434e-06 -6.16343e-07
4.88434e-06 0.000157789 2.76154e-07
-6.16343e-07 2.76154e-07 0.000114769
0.00110035 -7.99475e-06 4.07765e-08
-7.99475e-06 3.49005e-05 -5.18765e-08
4.07765e-08 -5.18765e-08 -1.82899e-05
0.000712854 1.25543e-05 4.83308e-06
1.25543e-05 -4.54923e-05 -4.2994e-07
4.83308e-06 -4.2994e-07 -8.55236e-05
0.00121497 1.57484e-05 4.03955e-06
1.57484e-05 0.000179343 -6.93499e-07
4.03955e-06 -6.93499e-07 0.000147832
0.00121925 1.06669e-05 1.50803e-06
1.06669e-05 0.000109304 -1.12216e-07
1.50803e-06 -1.12216e-07 5.53495e-05
0.00124502 3.76188e-06 1.4694e-06
3.76188e-06 0.000119518 -3.22491e-07
1.4694e-06 -3.22491e-07 6.87704e-05
0.00120602 4.13492e-06 1.48201e-06
4.13492e-06 0.000109442 -3.79316e-07
1.48201e-06 -3.79316e-07 6.32153e-05
0.00131843 -9.38266e-06 1.97924e-07
-9.38266e-06 0.000119919 -1.32025e-07
1.97924e-07 -1.32025e-07 6.2643e-05
0.00247074 2.15228e-05 7.59454e-06
2.15228e-05 0.000729838 -2.98602e-06
7.59454e-06 -2.98602e-06 0.000747022
0.00113356 -8.14415e-06 6.44618e-07
-8.14415e-06 4.42913e-05 -1.66659e-07
6.44618e-07 -1.66659e-07 -9.72011e-06
0.000909397 1.5306e-05 3.72752e-06
1.5306e-05 -2.69011e-05 -2.04932e-06
3.72752e-06 -2.04932e-06 -3.35174e-05
0.000984787 1.01456e-05 2.09863e-06
1.01456e-05 8.95985e-06 -1.13667e-06
2.09863e-06 -1.13667e-06 -2.72524e-05
0.00109789 -7.89181e-06 8.98519e-07
-7.89181e-06 4.13131e-05 -5.1181e-07
8.98519e-07 -5.1181e-07 -1.12481e-05
0.00117534 -1.5238e-05 3.07962e-07
-1.5238e-05 5.22247e-05 5.72704e-08
3.07962e-07 5.72704e-08 -4.84586e-06
0.000894499 1.31088e-05 3.33074e-06
1.31088e-05 -4.57107e-05 -2.3694e-06
3.33074e-06 -2.3694e-06 -4.93761e-05
0.00100022 7.37783e-06 1.94e-06
7.37783e-06 -1.98916e-07 -1.48177e-06
1.94e-06 -1.48177e-06 -2.96419e-05
0.00295739 -3.02889e-05 -9.91444e-06
-3.02889e-05 0.00101805 -2.03765e-06
-9.91444e-06 -2.03765e-06 0.00102275
0.00272024 -2.77089e-05 -8.73364e-06
-2.77089e-05 0.000884762 -2.36476e-06
-8.73364e-06 -2.36476e-06 0.000894539
0.000756385 -1.63897e-05 -4.52079e-06
-1.63897e-05 -7.60625e-05 -1.78927e-06
-4.52079e-06 -1.78927e-06 -9.58171e-05
0.00241954 -2.14752e-05 -7.55282e-06
-2.14752e-05 0.000709171 -2.96703e-06
-7.55282e-06 -2.96703e-06 0.000726198
0.000850907 -1.51869e-05 -3.71593e-06
-1.51869e-05 -5.06972e-05 -2.14922e-06
-3.71593e-06 -2.14922e-06 -5.7246e-05
0.000801866 -1.59043e-05 -4.25259e-06
-1.59043e-05 -6.36894e-05 -1.90317e-06
-4.25259e-06 -1.90317e-06 -7.57175e-05
0.000970942 -8.50918e-06 -2.22716e-06
-8.50918e-06 2.64904e-06 -1.27195e-06
-2.22716e-06 -1.27195e-06 -3.40559e-05
0.00235008 -1.97692e-05 1.23765e-07
-1.97692e-05 0.000669622 -5.96096e-08
1.23765e-07 -5.96096e-08 0.000687888
0.000920325 -1.24282e-05 7.56409e-08
-1.24282e-05 -3.42033e-05 -3.0342e-08
7.56409e-08 -3.0342e-08 -3.66531e-05
0.00121574 -1.85255e-05 1.73887e-06
-1.85255e-05 0.000151144 2.92182e-07
1.73887e-06 2.92182e-07 0.00012953
0.00120754 -1.72867e-05 1.49817e-06
-1.72867e-05 0.000138339 4.25448e-07
1.49817e-06 4.25448e-07 0.000124159
0.00100406 7.23989e-07 -8.7925e-09
7.23989e-07 5.44836e-06 -1.23119e-07
-8.7925e-09 -1.23119e-07 -4.11469e-05
0.000921978 -1.44832e-05 2.76676e-08
-1.44832e-05 -2.29988e-05 -2.26488e-08
2.76676e-08 -2.26488e-08 -2.76288e-05
0.000989674 -3.102e-06 5.84137e-09
-3.102e-06 8.86665e-06 2.58603e-08
5.84137e-09 2.58603e-08 -3.06753e-05
0.000982958 -1.04276e-05 6.45039e-08
-1.04276e-05 7.8681e-06 -4.05223e-10
6.45039e-08 -4.05223e-10 -2.58854e-05
0.000995854 5.03112e-06 -3.34392e-08
5.03112e-06 1.20594e-06 -1.04554e-07
-3.34392e-08 -1.04554e-07 -4.94418e-05
0.000930418 -1.34731e-05 3.5017e-06
-1.34731e-05 -2.44953e-05 2.2668e-06
3.5017e-06 2.2668e-06 -2.79381e-05
0.000943308 -1.14149e-05 2.92627e-06
-1.14149e-05 -2.7156e-05 2.57348e-06
2.92627e-06 2.57348e-06 -2.8864e-05
0.00100971 -8.46766e-06 2.07331e-06
-8.46766e-06 7.35488e-06 1.40214e-06
2.07331e-06 1.40214e-06 -2.12184e-05
0.000997551 -9.48116e-07 2.15742e-06
-9.48116e-07 -2.93278e-06 4.30993e-07
2.15742e-06 4.30993e-07 -5.13891e-05
0.00100765 3.84782e-07 2.24775e-06
3.84782e-07 1.25937e-05 9.78233e-07
2.24775e-06 9.78233e-07 -3.05535e-05
0.00112189 1.12187e-05 8.36964e-07
1.12187e-05 2.85527e-05 3.55891e-07
8.36964e-07 3.55891e-07 -2.76274e-05
0.00101029 -1.05499e-05 2.12258e-06
-1.05499e-05 1.62921e-05 1.35014e-06
2.12258e-06 1.35014e-06 -1.473e-05
0.000982235 8.45191e-06 9.25708e-07
8.45191e-06 -1.39894e-05 4.04977e-07
9.25708e-07 4.04977e-07 -6.59438e-05
0.00106584 3.04896e-06 1.1906e-06
3.04896e-06 4.02003e-05 5.89305e-07
1.1906e-06 5.89305e-07 -9.44918e-06
0.0011994 1.64319e-05 1.27297e-07
1.64319e-05 9.10979e-05 -2.68682e-07
1.27297e-07 -2.68682e-07 3.51056e-05
0.00230004 -1.47855e-05 6.41196e-06
-1.47855e-05 0.00063016 3.48374e-06
6.41196e-06 3.48374e-06 0.000651096
0.00234097 -1.64467e-05 1.31828e-07
-1.64467e-05 0.000654292 -4.83471e-08
1.31828e-07 -4.83471e-08 0.000674356
0.00239643 -1.81282e-05 -7.05065e-06
-1.81282e-05 0.000685732 -3.27881e-06
-7.05065e-06 -3.27881e-06 0.000704823
0.000906578 1.20631e-05 3.04084e-06
1.20631e-05 -4.39623e-05 -2.52115e-06
3.04084e-06 -2.52115e-06 -4.67317e-05
0.00245928 1.9777e-05 7.40204e-06
1.9777e-05 0.000718135 -3.15435e-06
7.40204e-06 -3.15435e-06 0.000736389
0.00300068 -3.09524e-05 -1.04605e-05
-3.09524e-05 0.00105344 -1.79388e-06
-1.04605e-05 -1.79388e-06 0.0010554
0.00294225 -2.99336e-05 -1.13571e-05
-2.99336e-05 0.00106252 -1.21286e-06
-1.13571e-05 -1.21286e-06 0.00105878
0.000721084 -1.69724e-05 -4.63464e-06
-1.69724e-05 -6.53261e-05 -1.1058e-06
-4.63464e-06 -1.1058e-06 -9.66573e-05
0.000707248 -1.42447e-05 -4.73965e-06
-1.42447e-05 -4.93193e-05 -7.48909e-07
-4.73965e-06 -7.48909e-07 -8.7766e-05
0.00287532 -2.61004e-05 -1.2241e-05
-2.61004e-05 0.00105924 -4.84058e-07
-1.2241e-05 -4.84058e-07 0.00105128
0.00288385 3.94994e-07 2.49194e-07
3.94994e-07 0.00106761 -1.13134e-07
2.49194e-07 -1.13134e-07 0.00105895
0.000707739 -1.15705e-05 1.94205e-08
-1.15705e-05 -4.3821e-05 -7.52764e-08
1.94205e-08 -7.52764e-08 -8.42713e-05
0.00119848 -1.86667e-05 1.98208e-06
-1.86667e-05 0.000175782 1.38747e-07
1.98208e-06 1.38747e-07 0.000143729
0.00101087 -1.37742e-05 -1.02707e-09
-1.37742e-05 1.98485e-05 -1.07102e-07
-1.02707e-09 -1.07102e-07 -3.55917e-05
0.000809681 -1.78375e-05 6.01641e-08
-1.78375e-05 -3.79774e-05 -7.40054e-08
6.01641e-08 -7.40054e-08 -6.52755e-05
0.00100743 -5.20815e-06 -6.31942e-08
-5.20815e-06 8.21318e-06 -1.8467e-08
-6.31942e-08 -1.8467e-08 -4.33981e-05
0.000708452 3.01101e-07 4.75137e-06
3.01101e-07 -4.2942e-05 -2.19855e-07
4.75137e-06 -2.19855e-07 -8.39716e-05
0.000994351 -1.17106e-05 1.53663e-06
-1.17106e-05 1.64118e-05 5.81099e-10
1.53663e-06 5.81099e-10 -3.9658e-05
0.00100398 -1.00187e-05 1.7499e-06
-1.00187e-05 1.1903e-05 3.03154e-07
1.7499e-06 3.03154e-07 -4.17731e-05
0.0011228 -1.54812e-05 6.64318e-07
-1.54812e-05 3.85572e-05 -2.32401e-07
6.64318e-07 -2.32401e-07 -2.22276e-05
0.00100074 -3.57035e-06 2.01106e-06
-3.57035e-06 2.69652e-07 3.46744e-07
2.01106e-06 3.46744e-07 -4.96199e-05
0.00115892 -3.7885e-06 6.22188e-07
-3.7885e-06 4.2476e-05 1.87432e-07
6.22188e-07 1.87432e-07 -1.61423e-05
0.00285838 2.51906e-05 -1.23899e-05
2.51906e-05 0.00105207 2.67243e-07
-1.23899e-05 2.67243e-07 0.00104394
0.00115425 2.18551e-05 -3.95314e-06
2.18551e-05 0.000196427 4.25299e-07
-3.95314e-06 4.25299e-07 0.000180963
0.000313444 1.14801e-05 -6.79432e-06
1.14801e-05 -0.000248957 9.02552e-07
-6.79432e-06 9.02552e-07 -0.000289151
0.00123235 1.69301e-05 -7.60655e-06
1.69301e-05 0.000179182 1.35614e-06
-7.60655e-06 1.35614e-06 0.000150452
0.00237754 2.3817e-05 -3.38114e-06
2.3817e-05 0.00069298 1.08847e-06
-3.38114e-06 1.08847e-06 0.000709107
0.00155046 1.78334e-05 -5.67853e-06
1.78334e-05 0.000293511 2.19946e-06
-5.67853e-06 2.19946e-06 0.000287288
0.00121164 1.84363e-05 -6.77789e-06
1.84363e-05 0.000156526 1.65788e-06
-6.77789e-06 1.65788e-06 0.000134738
0.00123051 3.8553e-06 -2.7642e-06
3.8553e-06 0.000115817 9.90515e-07
-2.7642e-06 9.90515e-07 6.66567e-05
0.00139171 4.42854e-06 -2.82357e-06
4.42854e-06 0.000200628 9.12267e-07
-2.82357e-06 9.12267e-07 0.000157983
0.00137795 5.88392e-06 -3.22414e-06
5.88392e-06 0.000197417 1.58379e-06
-3.22414e-06 1.58379e-06 0.000160014
0.0010901 -7.46999e-06 -7.37059e-07
-7.46999e-06 3.03416e-05 1.88927e-07
-7.37059e-07 1.88927e-07 -2.27798e-05
0.000708589 1.30086e-05 -2.41725e-08
1.30086e-05 -4.79648e-05 -6.29602e-08
-2.41725e-08 -6.29602e-08 -8.79332e-05
0.00121811 1.55594e-05 -1.93565e-06
1.55594e-05 0.00018057 1.95787e-07
-1.93565e-06 1.95787e-07 0.000149115
0.00104777 1.13482e-05 -3.56639e-07
1.13482e-05 2.54989e-05 7.50211e-08
-3.56639e-07 7.50211e-08 -2.96211e-05
0.00133485 3.13641e-06 -4.1775e-07
3.13641e-06 0.000162772 1.41425e-07
-4.1775e-07 1.41425e-07 0.000112385
0.00240422 2.14692e-05 -1.18394e-07
2.14692e-05 0.000698601 -6.22009e-08
-1.18394e-07 -6.22009e-08 0.000715882
0.00123405 1.62187e-05 1.57076e-07
1.62187e-05 0.000131389 -7.08812e-08
1.57076e-07 -7.08812e-08 0.000126069
0.00118846 9.55254e-06 3.28799e-08
9.55254e-06 0.000106773 5.57112e-09
3.28799e-08 5.57112e-09 7.17324e-05
0.0012125 4.33769e-06 -5.89894e-07
4.33769e-06 0.000112336 2.37803e-07
-5.89894e-07 2.37803e-07 6.60905e-05
0.00118356 -8.86863e-06 -3.56484e-07
-8.86863e-06 5.44332e-05 1.86783e-07
-3.56484e-07 1.86783e-07 -3.51668e-06
0.00102182 -6.8135e-06 -4.90643e-09
-6.8135e-06 5.62963e-06 -8.84542e-08
-4.90643e-09 -8.84542e-08 -4.71107e-05
0.00121497 -8.01845e-06 3.44535e-08
-8.01845e-06 8.33766e-05 9.97346e-10
3.44535e-08 9.97346e-10 2.9805e-05
0.00116808 -1.51012e-05 6.84502e-08
-1.51012e-05 4.89659e-05 -1.16573e-09
6.84502e-08 -1.16573e-09 -8.03398e-06
0.000912086 1.31301e-05 -5.82546e-08
1.31301e-05 -3.70256e-05 -3.42685e-08
-5.82546e-08 -3.42685e-08 -4.0806e-05
0.00100474 7.48474e-06 -7.30976e-08
7.48474e-06 2.17887e-06 -3.34081e-08
-7.30976e-08 -3.34081e-08 -2.72925e-05
0.000992963 1.21216e-05 1.78259e-06
1.21216e-05 7.55186e-06 -7.24885e-08
1.78259e-06 -7.24885e-08 -4.81988e-05
0.00124571 7.93585e-06 1.55514e-06
7.93585e-06 0.000118836 -2.71363e-07
1.55514e-06 -2.71363e-07 6.6292e-05
0.00132571 1.30972e-05 4.26469e-07
1.30972e-05 0.000120895 1.77424e-08
4.26469e-07 1.77424e-08 5.99058e-05
0.00111714 -5.30823e-06 8.86995e-07
-5.30823e-06 1.58263e-05 -5.12581e-07
8.86995e-07 -5.12581e-07 -4.44054e-05
0.00124289 -8.28558e-06 3.10494e-07
-8.28558e-06 9.21145e-05 -1.57303e-07
3.10494e-07 -1.57303e-07 3.71275e-05
0.00127727 -1.04116e-05 -2.64666e-07
-1.04116e-05 8.29992e-05 -1.52912e-07
-2.64666e-07 -1.52912e-07 2.22958e-05
0.00087896 1.42018e-05 3.54928e-06
1.42018e-05 -4.77407e-05 -2.19843e-06
3.54928e-06 -2.19843e-06 -5.26398e-05
0.00118214 -1.38324e-05 3.50678e-08
-1.38324e-05 4.90534e-05 3.08065e-08
3.50678e-08 3.08065e-08 -8.00155e-06
0.000961369 1.06139e-05 2.17154e-06
1.06139e-05 -5.91986e-06 -1.14692e-06
2.17154e-06 -1.14692e-06 -3.95473e-05
0.000923618 -4.2954e-06 1.15234e-06
-4.2954e-06 -3.44051e-05 -8.16969e-07
1.15234e-06 -8.16969e-07 -8.57678e-05
0.0013097 -1.73431e-05 1.39682e-07
-1.73431e-05 0.000126127 -5.91524e-11
1.39682e-07 -5.91524e-11 6.89943e-05
0.00120495 -1.67802e-05 -2.13365e-07
-1.67802e-05 5.80025e-05 4.96264e-07
-2.13365e-07 4.96264e-07 1.00503e-07
0.000989198 8.13271e-06 2.13994e-06
8.13271e-06 -2.41559e-06 -1.33605e-06
2.13994e-06 -1.33605e-06 -3.26311e-05
0.0010067 6.83094e-06 1.70364e-06
6.83094e-06 7.86685e-07 -1.5635e-06
1.70364e-06 -1.5635e-06 -2.79157e-05
0.00106579 -3.42977e-06 1.14136e-06
-3.42977e-06 2.87491e-05 -7.49723e-07
1.14136e-06 -7.49723e-07 -1.76481e-05
0.000747358 -1.68429e-05 -4.67261e-06
-1.68429e-05 -7.51489e-05 -1.55759e-06
-4.67261e-06 -1.55759e-06 -9.88657e-05
0.00240798 -1.98004e-05 -7.35086e-06
-1.98004e-05 0.000696957 -3.1327e-06
-7.35086e-06 -3.1327e-06 0.000715096
0.000904084 -1.24125e-05 -3.04415e-06
-1.24125e-05 -4.21763e-05 -2.51203e-06
-3.04415e-06 -2.51203e-06 -4.45298e-05
0.00077172 -1.61229e-05 -4.36194e-06
-1.61229e-05 -7.26112e-05 -1.84537e-06
-4.36194e-06 -1.84537e-06 -8.82652e-05
0.00100862 7.53775e-07 -2.21717e-06
7.53775e-07 8.53291e-06 -9.49924e-07
-2.21717e-06 -9.49924e-07 -3.82155e-05
0.000872454 -1.44177e-05 -3.5593e-06
-1.44177e-05 -4.66237e-05 -2.20838e-06
-3.5593e-06 -2.20838e-06 -5.11288e-05
0.000961306 -1.11603e-05 -2.17654e-06
-1.11603e-05 -2.03112e-06 -1.39289e-06
-2.17654e-06 -1.39289e-06 -3.58067e-05
0.000973634 -3.91837e-06 -2.31382e-06
-3.91837e-06 2.79805e-06 -1.02191e-06
-2.31382e-06 -1.02191e-06 -3.69003e-05
0.000946669 5.2201e-06 -1.17047e-06
5.2201e-06 -2.28155e-05 -4.98799e-07
-1.17047e-06 -4.98799e-07 -7.38932e-05
0.000911048 -1.34533e-05 6.29476e-08
-1.34533e-05 -3.39326e-05 -3.6328e-08
6.29476e-08 -3.6328e-08 -3.7274e-05
0.000929076 -1.1403e-05 7.52785e-08
-1.1403e-05 -3.41329e-05 -2.25536e-08
7.52785e-08 -2.25536e-08 -3.57537e-05
0.00100315 -8.38455e-06 6.78261e-08
-8.38455e-06 4.09548e-06 -2.88985e-08
6.78261e-08 -2.88985e-08 -2.44419e-05
0.00101017 -7.22962e-07 -6.0119e-08
-7.22962e-07 3.30444e-06 -1.10338e-07
-6.0119e-08 -1.10338e-07 -4.52839e-05
0.000995366 -9.84576e-08 1.06743e-08
-9.84576e-08 8.40385e-06 -3.21424e-08
1.06743e-08 -3.21424e-08 -3.48914e-05
0.001135 1.15798e-05 5.31126e-08
1.15798e-05 3.45093e-05 1.6391e-08
5.31126e-08 1.6391e-08 -2.17316e-05
0.000989996 -1.03258e-05 -2.41215e-08
-1.03258e-05 6.72174e-06 3.59433e-08
-2.41215e-08 3.59433e-08 -2.42418e-05
0.00103645 9.30875e-06 -4.45201e-08
9.30875e-06 1.21044e-05 -6.26144e-08
-4.45201e-08 -6.26144e-08 -3.96165e-05
0.00106242 2.74281e-06 2.62782e-08
2.74281e-06 3.90768e-05 -1.13593e-07
2.62782e-08 -1.13593e-07 -1.07134e-05
0.00111566 1.61065e-05 -4.12408e-07
1.61065e-05 5.07456e-05 -6.77912e-09
-4.12408e-07 -6.77912e-09 -5.7089e-06
0.000949689 -1.03686e-05 2.62543e-06
-1.03686e-05 -2.79674e-05 2.68475e-06
2.62543e-06 2.68475e-06 -2.88774e-05
0.0010083 -9.25114e-06 2.22928e-06
-9.25114e-06 1.01207e-05 1.30408e-06
2.22928e-06 1.30408e-06 -1.92479e-05
0.00101372 -7.77057e-06 1.85477e-06
-7.77057e-06 6.52621e-06 1.51363e-06
1.85477e-06 1.51363e-06 -2.13023e-05
0.00106528 -3.20601e-06 1.2273e-06
-3.20601e-06 3.14303e-05 7.11674e-07
1.2273e-06 7.11674e-07 -1.39206e-05
0.00113276 6.98184e-06 8.57087e-07
6.98184e-06 2.44802e-05 5.6051e-08
8.57087e-07 5.6051e-08 -3.22288e-05
0.0011087 1.18836e-05 8.85336e-07
1.18836e-05 3.67664e-05 6.18637e-07
8.85336e-07 6.18637e-07 -1.73787e-05
0.00118328 1.48851e-05 2.991e-07
1.48851e-05 3.92606e-05 2.8825e-07
2.991e-07 2.8825e-07 -2.0913e-05
0.00108109 2.08558e-06 1.19546e-06
2.08558e-06 4.48773e-05 8.29607e-07
1.19546e-06 8.29607e-07 -2.78968e-06
0.00110197 1.70069e-05 7.67914e-08
1.70069e-05 3.06129e-05 1.36323e-07
7.67914e-08 1.36323e-07 -2.63545e-05
0.00111057 1.47238e-05 7.38882e-07
1.47238e-05 5.78706e-05 -8.11905e-08
7.38882e-07 -8.11905e-08 -5.37736e-07
0.00106587 1.85724e-05 1.86112e-07
1.85724e-05 2.04614e-05 -2.79564e-07
1.86112e-07 -2.79564e-07 -3.93939e-05
0.00102892 -4.72671e-06 1.05707e-06
-4.72671e-06 4.88086e-06 1.72362e-06
1.05707e-06 1.72362e-06 -2.03048e-05
0.000954202 -8.20583e-06 2.03106e-06
-8.20583e-06 -3.30183e-05 2.85556e-06
2.03106e-06 2.85556e-06 -3.251e-05
0.0022972 -1.31296e-05 5.96086e-06
-1.31296e-05 0.000624363 3.58202e-06
5.96086e-06 3.58202e-06 0.000646031
0.00233152 -1.47919e-05 1.37763e-07
-1.47919e-05 0.000645063 -4.26779e-08
1.37763e-07 -4.26779e-08 0.000665928
0.00238053 -1.64646e-05 -6.67444e-06
-1.64646e-05 0.000673061 -3.4031e-06
-6.67444e-06 -3.4031e-06 0.000693029
0.000916462 1.10789e-05 2.73516e-06
1.10789e-05 -4.26409e-05 -2.6234e-06
2.73516e-06 -2.6234e-06 -4.4642e-05
0.00244122 1.80485e-05 7.10401e-06
1.80485e-05 0.000704451 -3.29783e-06
7.10401e-06 -3.29783e-06 0.000723605
0.000921624 1.2077e-05 -7.71474e-08
1.2077e-05 -3.65104e-05 -3.14336e-08
-7.71474e-08 -3.14336e-08 -3.93829e-05
0.00239983 1.97486e-05 -1.23238e-07
1.97486e-05 0.000689989 -5.79095e-08
-1.23238e-07 -5.79095e-08 0.000708376
0.000734026 -1.71902e-05 -4.68736e-06
-1.71902e-05 -7.18428e-05 -1.29537e-06
-4.68736e-06 -1.29537e-06 -9.93474e-05
0.000712273 -1.59394e-05 -4.63161e-06
-1.59394e-05 -5.69269e-05 -9.41533e-07
-4.63161e-06 -9.41533e-07 -9.21039e-05
0.00100656 -4.68026e-06 -1.87726e-06
-4.68026e-06 7.66065e-06 -3.85429e-07
-1.87726e-06 -3.85429e-07 -4.39737e-05
0.00102573 -1.4138e-05 -1.74001e-06
-1.4138e-05 2.63359e-05 -2.66708e-07
-1.74001e-06 -2.66708e-07 -2.91635e-05
0.00070088 -1.07112e-05 -4.80674e-06
-1.07112e-05 -4.6346e-05 -4.01677e-07
-4.80674e-06 -4.01677e-07 -8.68585e-05
0.00287173 1.79144e-06 -1.19773e-05
1.79144e-06 0.00106197 -8.02108e-08
-1.19773e-05 -8.02108e-08 0.00105331
0.000701727 1.63082e-06 1.25254e-08
1.63082e-06 -4.59584e-05 -1.83994e-07
1.25254e-08 -1.83994e-07 -8.69847e-05
0.00100875 -9.28999e-06 -7.50299e-08
-9.28999e-06 2.2716e-05 -3.5938e-09
-7.50299e-08 -3.5938e-09 -3.33622e-05
0.00100812 -1.00735e-05 -2.79321e-08
-1.00735e-05 1.36201e-05 -4.46654e-08
-2.79321e-08 -4.46654e-08 -4.01001e-05
0.00113966 -1.56192e-05 -2.30979e-08
-1.56192e-05 4.58559e-05 -8.10698e-08
-2.30979e-08 -8.10698e-08 -1.49668e-05
0.00100917 -3.10379e-06 -8.96643e-08
-3.10379e-06 4.2524e-06 -4.67878e-08
-8.96643e-08 -4.67878e-08 -4.57219e-05
0.00116126 -1.60821e-06 -2.12749e-08
-1.60821e-06 4.3749e-05 1.93973e-08
-2.12749e-08 1.93973e-08 -1.48587e-05
0.00101361 3.38062e-06 1.61582e-06
3.38062e-06 2.39457e-05 -1.93717e-08
1.61582e-06 -1.93717e-08 -3.22191e-05
0.00111478 -7.10052e-06 4.62291e-07
-7.10052e-06 4.3024e-05 -9.87102e-08
4.62291e-07 -9.87102e-08 -1.76187e-05
0.00114701 -8.67264e-06 6.98953e-07
-8.67264e-06 4.22746e-05 1.06131e-08
6.98953e-07 1.06131e-08 -1.78704e-05
0.00121949 -1.65695e-05 3.13086e-07
-1.65695e-05 6.76398e-05 -4.39249e-07
3.13086e-07 -4.39249e-07 4.92236e-06
0.00115222 2.61512e-06 6.18048e-07
2.61512e-06 3.44007e-05 4.2353e-08
6.18048e-07 4.2353e-08 -2.28209e-05
0.00121191 -2.24169e-06 -6.27229e-09
-2.24169e-06 5.15373e-05 2.49659e-07
-6.27229e-09 2.49659e-07 -8.97055e-06
0.00070587 1.36678e-05 -4.69896e-06
1.36678e-05 -4.97536e-05 3.04525e-07
-4.69896e-06 3.04525e-07 -8.96617e-05
0.00122274 1.5232e-05 -8.03649e-06
1.5232e-05 0.000182517 1.07048e-06
-8.03649e-06 1.07048e-06 0.000151116
0.00087961 1.04895e-05 -2.25606e-06
1.04895e-05 -5.68068e-05 2.8137e-07
-2.25606e-06 2.8137e-07 -0.000113062
0.00142627 2.63785e-06 -2.34208e-06
2.63785e-06 0.000206713 6.09477e-07
-2.34208e-06 6.09477e-07 0.000156691
0.00233783 2.14112e-05 -7.51539e-06
2.14112e-05 0.000667406 2.91889e-06
-7.51539e-06 2.91889e-06 0.000684787
0.00156004 1.68305e-05 -5.27734e-06
1.68305e-05 0.000290272 1.99505e-06
-5.27734e-06 1.99505e-06 0.000286259
0.00139323 9.14216e-06 -2.39398e-06
9.14216e-06 0.000205137 1.0238e-06
-2.39398e-06 1.0238e-06 0.000171261
0.0012193 4.52729e-06 -2.60007e-06
4.52729e-06 0.000115383 8.50137e-07
-2.60007e-06 8.50137e-07 6.91177e-05
0.00104957 -8.35315e-06 -9.11837e-07
-8.35315e-06 -1.06321e-05 6.03821e-07
-9.11837e-07 6.03821e-07 -6.92574e-05
0.00129489 -7.95269e-06 -5.86922e-07
-7.95269e-06 0.000121766 1.41545e-07
-5.86922e-07 1.41545e-07 6.86358e-05
0.000944545 -5.63181e-06 -8.88171e-07
-5.63181e-06 -3.06097e-05 3.77064e-07
-8.88171e-07 3.77064e-07 -8.35289e-05
0.00116007 -1.49579e-05 -1.70278e-07
-1.49579e-05 4.53662e-05 -5.96579e-08
-1.70278e-07 -5.96579e-08 -1.15629e-05
0.00092995 1.31503e-05 -3.47805e-06
1.31503e-05 -2.82116e-05 2.27268e-06
-3.47805e-06 2.27268e-06 -3.2107e-05
0.00100924 7.59196e-06 -2.04875e-06
7.59196e-06 4.53969e-06 1.38695e-06
-2.04875e-06 1.38695e-06 -2.49586e-05
0.000924655 1.35389e-05 6.47271e-08
1.35389e-05 -2.5495e-05 -9.66944e-09
6.47271e-08 -9.66944e-09 -8.17557e-05
0.00124813 6.67705e-06 -3.68782e-07
6.67705e-06 0.00011981 9.21822e-08
-3.68782e-07 9.21822e-08 6.72521e-05
0.00126958 1.29888e-05 -3.70321e-07
1.29888e-05 9.43738e-05 4.72973e-08
-3.70321e-07 4.72973e-08 3.3247e-05
0.00123921 -5.99353e-06 1.92912e-07
-5.99353e-06 7.52561e-05 -1.55094e-07
1.92912e-07 -1.55094e-07 1.58496e-05
0.000902355 1.42243e-05 -3.97349e-08
1.42243e-05 -3.64254e-05 -3.00359e-08
-3.97349e-08 -3.00359e-08 -4.14526e-05
0.000983738 1.04368e-05 -5.30431e-09
1.04368e-05 4.3094e-06 1.05576e-08
-5.30431e-09 1.05576e-08 -2.93152e-05
0.00099267 -4.42019e-06 3.06254e-07
-4.42019e-06 -9.40372e-07 -2.64793e-07
3.06254e-07 -2.64793e-07 -5.17636e-05
0.00127715 -8.48218e-06 -1.80271e-07
-8.48218e-06 0.000108055 8.34902e-08
-1.80271e-07 8.34902e-08 5.31871e-05
0.00120944 -9.45699e-06 -1.58444e-07
-9.45699e-06 4.98419e-05 2.21454e-07
-1.58444e-07 2.21454e-07 -1.09544e-05
0.00118361 -1.64292e-05 -2.57176e-07
-1.64292e-05 6.59111e-05 1.27561e-07
-2.57176e-07 1.27561e-07 8.26812e-06
0.00118122 -1.37309e-05 4.2099e-08
-1.37309e-05 4.85648e-05 2.23189e-08
4.2099e-08 2.23189e-08 -8.45403e-06
0.00117441 -1.63916e-05 1.57766e-07
-1.63916e-05 4.30354e-05 1.71076e-07
1.57766e-07 1.71076e-07 -1.47954e-05
0.00099853 8.29265e-06 -3.2665e-08
8.29265e-06 2.22689e-06 -2.94382e-08
-3.2665e-08 -2.94382e-08 -2.80239e-05
0.00100534 -2.83162e-06 -5.05121e-08
-2.83162e-06 -1.35194e-06 -4.31538e-08
-5.05121e-08 -4.31538e-08 -4.80521e-05
0.00100958 6.90264e-06 -7.08688e-08
6.90264e-06 2.3896e-06 -1.46597e-08
-7.08688e-08 -1.46597e-08 -2.63535e-05
0.00131473 1.70613e-05 4.40863e-07
1.70613e-05 0.000127316 1.54196e-07
4.40863e-07 1.54196e-07 6.64004e-05
0.00127114 5.22361e-06 7.89826e-07
5.22361e-06 8.84708e-05 -9.28815e-08
7.89826e-07 -9.28815e-08 2.77961e-05
0.00124173 1.48012e-05 3.76457e-07
1.48012e-05 6.45343e-05 3.96631e-08
3.76457e-07 3.96631e-08 1.54047e-07
0.00126567 -2.7999e-06 1.71629e-08
-2.7999e-06 6.91848e-05 -5.54695e-07
1.71629e-08 -5.54695e-07 6.12876e-06
0.00115393 -1.23434e-05 -6.4716e-08
-1.23434e-05 3.16571e-05 -2.09663e-07
-6.4716e-08 -2.09663e-07 -2.64123e-05
0.00126817 -8.56102e-06 -6.36632e-07
-8.56102e-06 6.92535e-05 -8.9873e-08
-6.36632e-07 -8.9873e-08 9.0754e-06
0.000973513 9.33228e-06 2.20221e-06
9.33228e-06 -5.24554e-06 -1.20764e-06
2.20221e-06 -1.20764e-06 -3.6729e-05
0.0012008 -1.44993e-05 -5.18712e-07
-1.44993e-05 4.98295e-05 1.40709e-07
-5.18712e-07 1.40709e-07 -7.62934e-06
0.00105727 -3.06528e-06 9.98249e-07
-3.06528e-06 3.08707e-05 -4.99357e-07
9.98249e-07 -4.99357e-07 -1.77542e-05
0.00101772 -1.56042e-05 6.39032e-07
-1.56042e-05 -2.00684e-06 -6.04516e-07
6.39032e-07 -6.04516e-07 -5.96899e-05
0.00123714 -1.87013e-05 1.72907e-07
-1.87013e-05 8.32932e-05 4.14586e-07
1.72907e-07 4.14586e-07 2.2993e-05
0.00129797 -1.76156e-05 -8.29501e-07
-1.76156e-05 9.78279e-05 9.74394e-07
-8.29501e-07 9.74394e-07 4.18028e-05
0.00101238 6.14379e-06 1.51826e-06
6.14379e-06 1.3745e-06 -1.55935e-06
1.51826e-06 -1.55935e-06 -2.65744e-05
0.0010661 -3.06462e-06 1.23624e-06
-3.06462e-06 2.98338e-05 -6.0637e-07
1.23624e-06 -6.0637e-07 -1.66234e-05
0.000928594 -2.46558e-06 1.33657e-06
-2.46558e-06 -3.83205e-05 -1.22135e-06
1.33657e-06 -1.22135e-06 -8.55966e-05
0.00124292 -1.40894e-05 3.10994e-07
-1.40894e-05 0.000112009 1.97343e-07
3.10994e-07 1.97343e-07 5.78327e-05
0.00102284 -3.94747e-07 -2.18831e-06
-3.94747e-07 9.55827e-06 -6.31136e-07
-2.18831e-06 -6.31136e-07 -3.9162e-05
0.000914713 -1.1391e-05 -2.74547e-06
-1.1391e-05 -4.11751e-05 -2.63383e-06
-2.74547e-06 -2.63383e-06 -4.27077e-05
0.000891398 -1.34322e-05 -3.33167e-06
-1.34322e-05 -4.35025e-05 -2.35788e-06
-3.33167e-06 -2.35788e-06 -4.67419e-05
0.000996764 -8.30481e-06 -1.95119e-06
-8.30481e-06 9.1172e-07 -1.4626e-06
-1.95119e-06 -1.4626e-06 -2.75897e-05
0.000983662 -5.41081e-07 -2.18598e-06
-5.41081e-07 4.48326e-06 -1.05764e-06
-2.18598e-06 -1.05764e-06 -3.89599e-05
0.00114744 1.18847e-05 -8.13179e-07
1.18847e-05 4.01595e-05 -3.53356e-07
-8.13179e-07 -3.53356e-07 -1.61414e-05
0.000969024 -1.01021e-05 -2.24275e-06
-1.01021e-05 -3.1671e-06 -1.30071e-06
-2.24275e-06 -1.30071e-06 -3.40715e-05
0.00105956 2.34213e-06 -1.13665e-06
2.34213e-06 3.82235e-05 -8.25432e-07
-1.13665e-06 -8.25432e-07 -1.17101e-05
0.00109339 1.01459e-05 -9.07306e-07
1.01459e-05 3.94342e-05 -4.62465e-07
-9.07306e-07 -4.62465e-07 -1.20502e-05
0.00103126 1.57739e-05 -1.11673e-06
1.57739e-05 1.00981e-05 -1.3534e-07
-1.11673e-06 -1.3534e-07 -4.68201e-05
0.000937491 -1.03554e-05 7.11711e-08
-1.03554e-05 -3.39287e-05 -1.84544e-08
7.11711e-08 -1.84544e-08 -3.47668e-05
0.000997802 -9.13171e-06 4.34095e-08
-9.13171e-06 5.00753e-06 -2.39931e-08
4.34095e-08 -2.39931e-08 -2.43166e-05
0.00100835 -7.71578e-06 5.86015e-08
-7.71578e-06 3.88911e-06 -1.5596e-08
5.86015e-08 -1.5596e-08 -2.39095e-05
0.00106075 -3.45419e-06 7.53286e-08
-3.45419e-06 2.94513e-05 -2.98483e-08
7.53286e-08 -2.98483e-08 -1.59399e-05
0.00115753 7.35537e-06 1.57788e-07
7.35537e-06 3.59991e-05 2.36131e-08
1.57788e-07 2.36131e-08 -2.08014e-05
0.00110396 1.22191e-05 2.4509e-08
1.22191e-05 3.47116e-05 8.21744e-09
2.4509e-08 8.21744e-09 -1.94483e-05
0.00119571 1.49542e-05 -3.62911e-10
1.49542e-05 4.47772e-05 1.6488e-07
-3.62911e-10 1.6488e-07 -1.54354e-05
0.0010659 9.71138e-07 -4.37477e-08
9.71138e-07 3.86199e-05 2.79641e-08
-4.37477e-08 2.79641e-08 -9.11845e-06
0.00118888 1.75665e-05 -1.97238e-07
1.75665e-05 7.24515e-05 -3.40641e-07
-1.97238e-07 -3.40641e-07 1.58886e-05
0.00111751 1.52121e-05 1.07052e-07
1.52121e-05 6.0871e-05 -2.01802e-07
1.07052e-07 -2.01802e-07 2.2871e-06
0.00107802 1.84893e-05 -7.04235e-07
1.84893e-05 2.74808e-05 -1.25148e-07
-7.04235e-07 -1.25148e-07 -3.15628e-05
0.000956856 -9.29169e-06 2.3339e-06
-9.29169e-06 -2.82679e-05 2.77631e-06
2.3339e-06 2.77631e-06 -2.84417e-05
0.0010166 -6.95512e-06 1.65917e-06
-6.95512e-06 5.42955e-06 1.58314e-06
1.65917e-06 1.58314e-06 -2.16596e-05
0.00107557 -1.87462e-07 1.2949e-06
-1.87462e-07 3.76917e-05 7.09844e-07
1.2949e-06 7.09844e-07 -8.25671e-06
0.00106449 -4.62157e-06 1.08406e-06
-4.62157e-06 2.99748e-05 8.63167e-07
1.08406e-06 8.63167e-07 -1.48783e-05
0.00108972 5.06961e-06 7.81547e-07
5.06961e-06 4.28344e-05 1.67182e-07
7.81547e-07 1.67182e-07 -1.27795e-05
0.00119398 6.97115e-06 3.08408e-07
6.97115e-06 3.52803e-05 -2.73406e-07
3.08408e-07 -2.73406e-07 -2.37829e-05
0.00116303 1.76649e-05 2.30688e-07
1.76649e-05 4.68473e-05 6.18136e-07
2.30688e-07 6.18136e-07 -1.23098e-05
0.00124637 1.47732e-05 -5.95885e-07
1.47732e-05 6.04411e-05 1.07545e-07
-5.95885e-07 1.07545e-07 -6.14047e-07
0.00112603 1.20109e-05 9.80436e-07
1.20109e-05 6.61551e-05 9.42478e-07
9.80436e-07 9.42478e-07 8.36175e-06
0.00115112 2.00993e-05 4.23798e-07
2.00993e-05 4.93881e-05 1.5739e-07
4.23798e-07 1.5739e-07 -1.03332e-05
0.000948529 1.79576e-05 7.72406e-07
1.79576e-05 -2.52104e-05 -3.54521e-07
7.72406e-07 -3.54521e-07 -9.08612e-05
0.00102554 -5.39788e-06 1.28321e-06
-5.39788e-06 5.42194e-06 1.69711e-06
1.28321e-06 1.69711e-06 -2.04025e-05
0.00107251 -6.18018e-07 6.02691e-07
-6.18018e-07 2.86347e-05 1.02514e-06
6.02691e-07 1.02514e-06 -1.367e-05
0.00103173 -3.95103e-06 8.55227e-07
-3.95103e-06 3.99355e-06 1.7378e-06
8.55227e-07 1.7378e-06 -2.06727e-05
0.00102632 -4.71092e-06 5.29949e-08
-4.71092e-06 3.6258e-06 -9.22318e-10
5.29949e-08 -9.22318e-10 -2.15393e-05
0.00151636 -7.83836e-06 1.49436e-06
-7.83836e-06 0.0002373 1.79478e-06
1.49436e-06 1.79478e-06 0.000241232
0.00123829 -8.57988e-06 2.30358e-07
-8.57988e-06 0.00010544 9.429e-09
2.30358e-07 9.429e-09 0.000107319
0.0011852 -9.92697e-06 5.85373e-06
-9.92697e-06 7.83969e-05 5.91861e-06
5.85373e-06 5.91861e-06 9.51857e-05
0.002322 -1.31264e-05 1.53274e-07
-1.31264e-05 0.000636033 -3.75662e-08
1.53274e-07 -3.75662e-08 0.000657655
0.00236349 -1.47995e-05 -6.24109e-06
-1.47995e-05 0.000660203 -3.51148e-06
-6.24109e-06 -3.51148e-06 0.000680994
0.000926809 1.00905e-05 2.45389e-06
1.00905e-05 -4.11132e-05 -2.70488e-06
2.45389e-06 -2.70488e-06 -4.24404e-05
0.00241904 1.63486e-05 6.72943e-06
1.63486e-05 0.000689321 -3.41744e-06
6.72943e-06 -3.41744e-06 0.000709298
0.00093081 1.10867e-05 -7.53689e-08
1.10867e-05 -3.56179e-05 -2.20567e-08
-7.53689e-08 -2.20567e-08 -3.77094e-05
0.00239371 1.80277e-05 -1.28875e-07
1.80277e-05 0.000681823 -5.32407e-08
-1.28875e-07 -5.32407e-08 0.000701103
0.000936696 1.20921e-05 -3.22389e-06
1.20921e-05 -2.90505e-05 2.43786e-06
-3.22389e-06 2.43786e-06 -3.20256e-05
0.00234145 1.97252e-05 -7.35032e-06
1.97252e-05 0.000662352 3.08735e-06
-7.35032e-06 3.08735e-06 0.000680869
0.00101898 -2.73869e-06 -2.05005e-06
-2.73869e-06 8.85777e-06 -4.10533e-07
-2.05005e-06 -4.10533e-07 -4.11993e-05
0.00101209 -9.39073e-06 -1.7897e-06
-9.39073e-06 1.52491e-05 -4.0027e-07
-1.7897e-06 -4.0027e-07 -3.8501e-05
0.00116187 -2.76188e-06 -6.02882e-07
-2.76188e-06 4.43132e-05 -1.41319e-07
-6.02882e-07 -1.41319e-07 -1.4325e-05
0.00115566 -1.57522e-05 -6.96387e-07
-1.57522e-05 5.27647e-05 6.9283e-08
-6.96387e-07 6.9283e-08 -8.09604e-06
0.00102138 -7.72926e-06 -1.65286e-06
-7.72926e-06 2.82441e-05 -1.77635e-08
-1.65286e-06 -1.77635e-08 -2.78621e-05
0.000692315 2.23866e-06 -4.70351e-06
2.23866e-06 -5.0177e-05 -1.45038e-07
-4.70351e-06 -1.45038e-07 -9.12073e-05
0.0010063 3.36165e-06 3.5092e-08
3.36165e-06 2.07361e-05 -2.48017e-08
3.5092e-08 -2.48017e-08 -3.53763e-05
0.00112845 -7.0731e-06 -6.5396e-08
-7.0731e-06 4.90823e-05 6.23987e-08
-6.5396e-08 6.23987e-08 -1.15817e-05
0.00115166 -1.14368e-05 9.01555e-09
-1.14368e-05 4.43941e-05 -9.67666e-08
9.01555e-09 -9.67666e-08 -1.58182e-05
0.00122267 -1.6616e-05 -3.24645e-08
-1.6616e-05 6.95348e-05 -5.66784e-08
-3.24645e-08 -5.66784e-08 6.90488e-06
0.00116276 2.66538e-06 -4.31776e-08
2.66538e-06 3.94244e-05 2.61485e-08
-4.31776e-08 2.61485e-08 -1.78404e-05
0.00121709 -3.22689e-06 5.89409e-09
-3.22689e-06 5.42838e-05 5.72027e-08
5.89409e-09 5.72027e-08 -6.19564e-06
0.00113997 8.74734e-06 7.03019e-07
8.74734e-06 5.43485e-05 3.17558e-07
7.03019e-07 3.17558e-07 -6.75599e-06
0.00117145 -8.45947e-06 2.21254e-07
-8.45947e-06 5.98366e-05 -3.10977e-07
2.21254e-07 -3.10977e-07 -2.1903e-06
0.00119926 -9.23311e-06 2.41898e-07
-9.23311e-06 5.04319e-05 -1.67027e-07
2.41898e-07 -1.67027e-07 -1.1857e-05
0.00125464 -1.70464e-05 7.45188e-07
-1.70464e-05 7.68343e-05 -3.23787e-07
7.45188e-07 -3.23787e-07 1.33736e-05
0.00121544 4.66929e-07 -1.06499e-07
4.66929e-07 4.7625e-05 -2.40081e-08
-1.06499e-07 -2.40081e-08 -1.11482e-05
0.0013173 -8.50046e-06 -4.88509e-07
-8.50046e-06 9.11631e-05 5.20376e-07
-4.88509e-07 5.20376e-07 3.23226e-05
0.000853599 1.29983e-05 -1.66925e-06
1.29983e-05 -5.98846e-05 -1.37922e-08
-1.66925e-06 -1.37922e-08 -0.000116611
0.00124976 5.17544e-06 -2.31025e-06
5.17544e-06 0.000120401 4.87308e-07
-2.31025e-06 4.87308e-07 6.78309e-05
0.00121419 1.62887e-05 -1.27459e-06
1.62887e-05 6.82709e-05 1.87829e-08
-1.27459e-06 1.87829e-08 6.93762e-06
0.00136056 -6.66386e-06 -5.49298e-07
-6.66386e-06 0.000134361 1.19916e-07
-5.49298e-07 1.19916e-07 7.57781e-05
0.000925356 1.42438e-05 -3.67613e-06
1.42438e-05 -2.5293e-05 2.11463e-06
-3.67613e-06 2.11463e-06 -3.04484e-05
0.00100542 1.00041e-05 -2.10401e-06
1.00041e-05 1.4215e-05 1.10825e-06
-2.10401e-06 1.10825e-06 -1.94036e-05
0.00106392 -4.75903e-06 -6.7087e-07
-4.75903e-06 3.35127e-05 3.05027e-07
-6.7087e-07 3.05027e-07 -1.67664e-05
0.00131188 -8.65321e-06 -6.60278e-07
-8.65321e-06 0.000124211 2.68193e-07
-6.60278e-07 2.68193e-07 6.94618e-05
0.00114261 -8.48514e-06 2.19184e-08
-8.48514e-06 1.71708e-05 6.01214e-07
2.19184e-08 6.01214e-07 -4.3721e-05
0.00117987 -1.36274e-05 2.05866e-08
-1.36274e-05 4.7884e-05 2.50693e-08
2.05866e-08 2.50693e-08 -9.09902e-06
0.00105863 -1.55312e-05 -6.18486e-07
-1.55312e-05 6.19051e-06 2.51896e-07
-6.18486e-07 2.51896e-07 -5.19613e-05
0.0011451 -1.59956e-05 3.89305e-07
-1.59956e-05 2.86357e-05 -3.02563e-07
3.89305e-07 -3.02563e-07 -2.91241e-05
0.0010079 8.45506e-06 -2.16553e-06
8.45506e-06 6.88833e-06 1.25475e-06
-2.16553e-06 1.25475e-06 -2.33977e-05
0.000946317 -2.24054e-06 -1.21654e-06
-2.24054e-06 -3.07979e-05 6.43121e-07
-1.21654e-06 6.43121e-07 -7.78014e-05
0.00101291 6.97452e-06 -1.82065e-06
6.97452e-06 4.20126e-06 1.51176e-06
-1.82065e-06 1.51176e-06 -2.45831e-05
0.00120828 1.6305e-05 -3.40333e-07
1.6305e-05 7.70378e-05 -1.11455e-07
-3.40333e-07 -1.11455e-07 1.57574e-05
0.00126943 2.02198e-06 -1.70208e-07
2.02198e-06 8.77143e-05 1.58341e-08
-1.70208e-07 1.58341e-08 2.70453e-05
0.00121037 1.65026e-05 -2.35551e-07
1.65026e-05 4.80692e-05 -1.62147e-08
-2.35551e-07 -1.62147e-08 -1.66919e-05
0.00129131 -1.67371e-06 -2.97459e-08
-1.67371e-06 8.14312e-05 -1.80583e-07
-2.97459e-08 -1.80583e-07 1.85564e-05
0.000990584 9.53647e-06 -5.77593e-09
9.53647e-06 2.84954e-06 -1.24987e-08
-5.77593e-09 -1.24987e-08 -2.86658e-05
0.001066 -3.44721e-06 5.82318e-08
-3.44721e-06 3.41399e-05 -4.46294e-09
5.82318e-08 -4.46294e-09 -1.43855e-05
0.00108565 -1.58459e-05 1.56518e-07
-1.58459e-05 3.15603e-05 -2.21889e-07
1.56518e-07 -2.21889e-07 -2.56814e-05
0.00122746 -1.26456e-05 4.09555e-08
-1.26456e-05 6.72828e-05 -7.41234e-08
4.09555e-08 -7.41234e-08 9.37048e-06
0.00122341 -8.62737e-06 6.10907e-08
-8.62737e-06 4.75776e-05 2.55442e-07
6.10907e-08 2.55442e-07 -1.2281e-05
0.00117734 -1.84505e-05 8.97208e-09
-1.84505e-05 5.53281e-05 1.22677e-07
8.97208e-09 1.22677e-07 -5.49757e-06
0.00120462 -1.41511e-05 2.38293e-08
-1.41511e-05 5.12105e-05 4.04423e-08
2.38293e-08 4.04423e-08 -6.17825e-06
0.00124707 -1.70766e-05 2.53812e-07
-1.70766e-05 7.29384e-05 2.60902e-07
2.53812e-07 2.60902e-07 1.74828e-05
0.00106972 -3.24342e-06 1.28111e-08
-3.24342e-06 3.08763e-05 -2.26471e-08
1.28111e-08 -2.26471e-08 -1.54646e-05
0.00114393 -1.34483e-05 -2.96561e-07
-1.34483e-05 6.34843e-05 2.44404e-07
-2.96561e-07 2.44404e-07 8.7621e-06
0.00101367 6.19117e-06 -4.27292e-08
6.19117e-06 2.15587e-06 -1.80563e-09
-4.27292e-08 -1.80563e-09 -2.58355e-05
0.000932659 -2.16009e-06 2.79513e-07
-2.16009e-06 -3.67471e-05 -3.40591e-07
2.79513e-07 -3.40591e-07 -8.39571e-05
0.00122932 1.72379e-05 5.9651e-07
1.72379e-05 7.15457e-05 1.65194e-07
5.9651e-07 1.65194e-07 6.95187e-06
0.00137564 6.41006e-06 1.73958e-07
6.41006e-06 0.000115691 -3.72669e-08
1.73958e-07 -3.72669e-08 5.14227e-05
0.00114174 1.63402e-05 1.08211e-07
1.63402e-05 7.5882e-06 -3.00653e-08
1.08211e-07 -3.00653e-08 -5.90849e-05
0.00122184 7.73068e-07 -5.34132e-07
7.73068e-07 3.76679e-05 -7.86668e-07
-5.34132e-07 -7.86668e-07 -2.46825e-05
0.0012117 -1.2139e-05 -7.32591e-07
-1.2139e-05 5.04621e-05 5.44106e-09
-7.32591e-07 5.44106e-09 -7.18166e-06
0.00127369 -7.16697e-06 -5.14992e-07
-7.16697e-06 6.46528e-05 -1.36209e-07
-5.14992e-07 -1.36209e-07 6.9247e-06
0.00106183 -2.63112e-06 1.13105e-06
-2.63112e-06 3.06756e-05 -5.15661e-07
1.13105e-06 -5.15661e-07 -1.6465e-05
0.00119395 -1.35994e-05 -1.28098e-06
-1.35994e-05 4.0897e-05 3.19755e-07
-1.28098e-06 3.19755e-07 -1.33403e-05
0.00100009 -1.49058e-05 5.35953e-07
-1.49058e-05 -5.45402e-06 -4.78355e-07
5.35953e-07 -4.78355e-07 -6.13284e-05
0.00116668 -1.88188e-05 4.08453e-07
-1.88188e-05 6.5262e-05 -2.65838e-07
4.08453e-07 -2.65838e-07 2.92915e-06
0.00122031 -1.9931e-05 1.42459e-07
-1.9931e-05 7.12877e-05 1.24729e-06
1.42459e-07 1.24729e-06 9.63379e-06
0.00128635 -1.72757e-05 -5.92761e-07
-1.72757e-05 8.59586e-05 6.58137e-07
-5.92761e-07 6.58137e-07 3.20378e-05
0.00101702 5.87092e-06 1.24765e-06
5.87092e-06 2.49652e-06 -1.60797e-06
1.24765e-06 -1.60797e-06 -2.49938e-05
0.000912862 -2.80326e-06 1.20915e-06
-2.80326e-06 -4.67347e-05 -1.37826e-06
1.20915e-06 -1.37826e-06 -9.36335e-05
0.00111115 -1.37503e-05 5.95628e-07
-1.37503e-05 4.61203e-05 4.16959e-09
5.95628e-07 4.16959e-09 -7.90179e-06
0.00116052 -1.27545e-05 6.24745e-07
-1.27545e-05 7.46434e-05 -7.78317e-08
6.24745e-07 -7.78317e-08 1.85064e-05
0.0012161 -1.72673e-05 2.1762e-07
-1.72673e-05 9.47969e-05 2.92887e-07
2.1762e-07 2.92887e-07 3.62612e-05
0.000925375 -1.03413e-05 -2.46052e-06
-1.03413e-05 -3.98536e-05 -2.73715e-06
-2.46052e-06 -2.73715e-06 -4.06194e-05
0.00118071 7.73354e-06 -5.76724e-07
7.73354e-06 4.67929e-05 -3.14628e-08
-5.76724e-07 -3.14628e-08 -1.01008e-05
0.00100272 -7.65907e-06 -1.74718e-06
-7.65907e-06 1.12253e-06 -1.55024e-06
-1.74718e-06 -1.55024e-06 -2.66451e-05
0.000987154 -9.01299e-06 -2.15481e-06
-9.01299e-06 -1.77232e-07 -1.34783e-06
-2.15481e-06 -1.34783e-06 -2.94565e-05
0.00105631 -3.6987e-06 -1.13023e-06
-3.6987e-06 2.75097e-05 -8.33194e-07
-1.13023e-06 -8.33194e-07 -1.79217e-05
0.00109921 1.25965e-05 -8.52574e-07
1.25965e-05 3.26468e-05 -6.03624e-07
-8.52574e-07 -6.03624e-07 -2.15287e-05
0.00120841 1.50077e-05 -2.13371e-07
1.50077e-05 5.04168e-05 6.97817e-08
-2.13371e-07 6.97817e-08 -9.83484e-06
0.00105121 -1.65195e-07 -1.18179e-06
-1.65195e-07 3.26187e-05 -7.48332e-07
-1.18179e-06 -7.48332e-07 -1.5193e-05
0.00112604 1.567e-05 -8.07082e-07
1.567e-05 6.46212e-05 -5.32522e-07
-8.07082e-07 -5.32522e-07 5.86016e-06
0.00127504 1.81503e-05 -6.53492e-07
1.81503e-05 0.000113925 -6.71851e-07
-6.53492e-07 -6.71851e-07 5.77681e-05
0.00109152 1.84164e-05 -1.57534e-06
1.84164e-05 3.50911e-05 3.7798e-07
-1.57534e-06 3.7798e-07 -2.31378e-05
0.000946221 -9.27945e-06 7.49874e-08
-9.27945e-06 -3.34092e-05 -1.66577e-08
7.49874e-08 -1.66577e-08 -3.35284e-05
0.00101291 -6.90123e-06 4.02867e-08
-6.90123e-06 3.57195e-06 -1.00132e-08
4.02867e-08 -1.00132e-08 -2.34958e-05
0.00106468 -1.04391e-06 1.26339e-08
-1.04391e-06 3.31113e-05 7.68066e-09
1.26339e-08 7.68066e-09 -1.28843e-05
0.00106141 -4.69364e-06 3.59414e-08
-4.69364e-06 2.85233e-05 -5.86788e-09
3.59414e-08 -5.86788e-09 -1.63457e-05
0.00105442 4.42319e-06 7.90909e-08
4.42319e-06 2.58884e-05 -9.0858e-08
7.90909e-08 -9.0858e-08 -2.99435e-05
0.00121414 7.39804e-06 2.46967e-07
7.39804e-06 4.4498e-05 -1.01088e-08
2.46967e-07 -1.01088e-08 -1.46994e-05
0.00116337 1.78561e-05 1.86503e-08
1.78561e-05 4.72726e-05 1.12766e-07
1.86503e-08 1.12766e-07 -1.19201e-05
0.00122474 1.55178e-05 1.87209e-07
1.55178e-05 5.06881e-05 2.89174e-07
1.87209e-07 2.89174e-07 -1.06529e-05
0.00110628 1.26246e-05 2.75293e-07
1.26246e-05 5.72581e-05 3.10751e-07
2.75293e-07 3.10751e-07 -5.11583e-07
0.00120362 2.01798e-05 1.68303e-07
2.01798e-05 7.4363e-05 -2.70584e-07
1.68303e-07 -2.70584e-07 1.48859e-05
0.00104242 1.86182e-05 -4.13082e-07
1.86182e-05 1.80006e-05 -3.01611e-07
-4.13082e-07 -3.01611e-07 -4.70917e-05
0.00102052 -6.10235e-06 1.49756e-06
-6.10235e-06 5.06702e-06 1.64162e-06
1.49756e-06 1.64162e-06 -2.13792e-05
0.00106557 -3.90123e-06 1.00562e-06
-3.90123e-06 2.8592e-05 9.34063e-07
1.00562e-06 9.34063e-07 -1.56719e-05
0.00106426 9.05592e-06 6.20541e-07
9.05592e-06 3.14351e-05 2.16403e-07
6.20541e-07 2.16403e-07 -2.49342e-05
0.00110087 1.51166e-06 6.01201e-07
1.51166e-06 4.78115e-05 3.34612e-07
6.01201e-07 3.34612e-07 -7.84326e-06
0.00117831 1.29768e-05 2.21778e-07
1.29768e-05 8.66352e-05 -2.99919e-07
2.21778e-07 -2.99919e-07 2.59408e-05
0.00122518 4.5545e-06 -6.44871e-07
4.5545e-06 3.71662e-05 -9.39785e-07
-6.44871e-07 -9.39785e-07 -2.04676e-05
0.00118942 2.06397e-05 4.85571e-08
2.06397e-05 5.3074e-05 4.63474e-07
4.85571e-08 4.63474e-07 -8.29519e-06
0.00109739 1.82815e-05 -8.66903e-07
1.82815e-05 -9.66228e-06 -5.52444e-07
-8.66903e-07 -5.52444e-07 -6.65207e-05
0.00110274 1.81138e-05 3.84799e-07
1.81138e-05 5.68646e-05 9.91708e-07
3.84799e-07 9.91708e-07 -8.86211e-06
0.00120126 2.17044e-05 1.10925e-06
2.17044e-05 7.8337e-05 -1.42265e-07
1.10925e-06 -1.42265e-07 1.06928e-05
0.00102183 -5.37271e-06 6.35395e-08
-5.37271e-06 3.61375e-06 -6.05328e-09
6.35395e-08 -6.05328e-09 -2.21831e-05
0.000916438 -2.15939e-06 8.92142e-07
-2.15939e-06 -4.64287e-05 1.47568e-06
8.92142e-07 1.47568e-06 -9.07087e-05
0.000996511 -9.40053e-07 5.31369e-09
-9.40053e-07 -8.25294e-06 1.76787e-08
5.31369e-09 1.76787e-08 -5.11488e-05
0.00125409 5.64427e-06 2.6337e-07
5.64427e-06 0.000121501 1.74709e-07
2.6337e-07 1.74709e-07 6.8597e-05
0.0010734 -9.58952e-07 4.90521e-07
-9.58952e-07 2.84681e-05 1.01816e-06
4.90521e-07 1.01816e-06 -1.33972e-05
0.00103499 -3.12179e-06 6.5588e-07
-3.12179e-06 3.55396e-06 1.75649e-06
6.5588e-07 1.75649e-06 -2.08102e-05
0.00103138 -3.9477e-06 5.11e-08
-3.9477e-06 3.87468e-06 -7.54525e-10
5.11e-08 -7.54525e-10 -2.07905e-05
0.00151793 -6.49673e-06 1.22339e-06
-6.49673e-06 0.000234778 1.82288e-06
1.22339e-06 1.82288e-06 0.000239278
0.00102398 -4.69569e-06 -9.48157e-07
-4.69569e-06 2.50526e-06 -1.71615e-06
-9.48157e-07 -1.71615e-06 -2.26411e-05
0.0015358 -7.63172e-06 -9.24873e-07
-7.63172e-06 0.000246864 -1.15225e-06
-9.24873e-07 -1.15225e-06 0.000250706
0.00121132 -8.4622e-06 5.13576e-06
-8.4622e-06 8.64012e-05 5.99721e-06
5.13576e-06 5.99721e-06 0.000103872
0.00152154 -8.70538e-06 -3.07585e-06
-8.70538e-06 0.000243492 -2.86309e-06
-3.07585e-06 -2.86309e-06 0.000246751
0.00172792 -1.06989e-05 3.36542e-06
-1.06989e-05 0.000342412 2.23453e-06
3.36542e-06 2.23453e-06 0.000362109
0.002347 -1.31233e-05 -5.73767e-06
-1.31233e-05 0.000647804 -3.60484e-06
-5.73767e-06 -3.60484e-06 0.000669379
0.000936137 9.19623e-06 2.06641e-06
9.19623e-06 -3.99473e-05 -2.79931e-06
2.06641e-06 -2.79931e-06 -4.05507e-05
0.000939552 1.00967e-05 -6.8932e-08
1.00967e-05 -3.49714e-05 -1.78593e-08
-6.8932e-08 -1.78593e-08 -3.63599e-05
0.00239771 1.46546e-05 6.29921e-06
1.46546e-05 0.000674642 -3.52491e-06
6.29921e-06 -3.52491e-06 0.000695406
0.00238209 1.63349e-05 -1.31454e-07
1.63349e-05 0.000671711 -4.69776e-08
-1.31454e-07 -4.69776e-08 0.000691788
0.000945012 1.10951e-05 -2.92256e-06
1.10951e-05 -2.86665e-05 2.57541e-06
-2.92256e-06 2.57541e-06 -3.08476e-05
0.00234628 1.80165e-05 -7.14374e-06
1.80165e-05 0.000659243 3.24825e-06
-7.14374e-06 3.24825e-06 0.000678648
0.00117434 2.84504e-06 -6.83889e-07
2.84504e-06 4.49354e-05 1.8593e-09
-6.83889e-07 1.8593e-09 -1.23725e-05
0.00115784 -1.09971e-05 -6.17979e-07
-1.09971e-05 4.71379e-05 -1.93696e-07
-6.17979e-07 -1.93696e-07 -1.31011e-05
0.00122135 -3.22522e-06 1.43045e-07
-3.22522e-06 5.65655e-05 -1.1233e-07
1.43045e-07 -1.1233e-07 -3.85914e-06
0.00122289 -1.66413e-05 -3.05788e-07
-1.66413e-05 7.00676e-05 3.03709e-07
-3.05788e-07 3.03709e-07 7.52474e-06
0.00114191 -7.0732e-06 -6.06027e-07
-7.0732e-06 5.50544e-05 2.15571e-07
-6.06027e-07 2.15571e-07 -5.6316e-06
0.000999387 6.15064e-06 -1.48483e-06
6.15064e-06 1.77475e-05 -3.79776e-08
-1.48483e-06 -3.79776e-08 -3.8337e-05
0.00113197 8.60041e-06 9.01359e-08
8.60041e-06 5.10593e-05 1.26753e-07
9.01359e-08 1.26753e-07 -9.99607e-06
0.00115862 -1.08322e-05 2.93157e-08
-1.08322e-05 5.48316e-05 -8.21774e-08
2.93157e-08 -8.21774e-08 -7.05178e-06
0.00121182 -1.04584e-05 6.85338e-08
-1.04584e-05 5.62623e-05 -1.79917e-07
6.85338e-08 -1.79917e-07 -6.03126e-06
0.00126978 -1.72251e-05 -4.06986e-08
-1.72251e-05 8.32813e-05 -1.23929e-07
-4.06986e-08 -1.23929e-07 1.94064e-05
0.00121928 8.92124e-07 -6.53945e-08
8.92124e-07 4.96234e-05 1.04808e-07
-6.53945e-08 1.04808e-07 -9.20493e-06
0.00129465 -8.69528e-06 9.40352e-08
-8.69528e-06 8.00786e-05 1.32051e-07
9.40352e-08 1.32051e-07 2.115e-05
0.00121272 5.55758e-06 4.16118e-07
5.55758e-06 8.04918e-05 6.57304e-07
4.16118e-07 6.57304e-07 1.77215e-05
0.00113315 -6.99142e-06 3.64129e-07
-6.99142e-06 4.46212e-05 -6.20721e-07
3.64129e-07 -6.20721e-07 -1.82586e-05
0.0011829 -1.30672e-05 4.96064e-07
-1.30672e-05 3.1616e-05 3.09307e-07
4.96064e-07 3.09307e-07 -3.11359e-05
0.00136496 -1.83644e-05 2.84029e-07
-1.83644e-05 0.000129223 -1.85511e-07
2.84029e-07 -1.85511e-07 6.32922e-05
0.00120426 -2.69156e-06 -7.49655e-07
-2.69156e-06 2.88179e-05 1.27014e-07
-7.49655e-07 1.27014e-07 -2.72975e-05
0.00141029 -1.32704e-05 -6.11818e-07
-1.32704e-05 0.000129133 3.22947e-07
-6.11818e-07 3.22947e-07 7.14322e-05
0.00109988 1.55299e-05 -1.13436e-06
1.55299e-05 2.59033e-05 -3.97414e-07
-1.13436e-06 -3.97414e-07 -3.57471e-05
0.00126825 8.87364e-07 -1.101e-06
8.87364e-07 8.72508e-05 3.01624e-07
-1.101e-06 3.01624e-07 2.65497e-05
0.00117964 1.64589e-05 -6.87823e-07
1.64589e-05 3.18628e-05 2.31757e-10
-6.87823e-07 2.31757e-10 -3.32457e-05
0.00131768 -1.04908e-06 -1.13587e-07
-1.04908e-06 9.39963e-05 1.93572e-07
-1.13587e-07 1.93572e-07 3.1315e-05
0.00100718 9.74464e-06 -2.14897e-06
9.74464e-06 1.07278e-05 1.15029e-06
-2.14897e-06 1.15029e-06 -2.08199e-05
0.00107473 -3.90331e-06 -1.0024e-06
-3.90331e-06 3.74204e-05 5.46809e-07
-1.0024e-06 5.46809e-07 -1.10126e-05
0.00115071 -1.60532e-05 -2.52422e-07
-1.60532e-05 6.38456e-05 1.61791e-07
-2.52422e-07 1.61791e-07 7.04097e-06
0.0013004 -1.29028e-05 1.37315e-07
-1.29028e-05 0.00010262 3.45418e-08
1.37315e-07 3.45418e-08 4.48683e-05
0.00118031 -8.68593e-06 6.379e-07
-8.68593e-06 2.66611e-05 5.27266e-07
6.379e-07 5.27266e-07 -3.2876e-05
0.00120853 -1.38065e-05 5.352e-07
-1.38065e-05 5.26262e-05 -5.67766e-08
5.352e-07 -5.67766e-08 -4.69196e-06
0.00111694 -1.82039e-05 -2.80482e-07
-1.82039e-05 2.70862e-05 -1.08833e-07
-2.80482e-07 -1.08833e-07 -3.42648e-05
0.00119724 -1.65567e-05 9.69409e-07
-1.65567e-05 4.86076e-05 -1.01036e-06
9.69409e-07 -1.01036e-06 -6.28676e-06
0.00107257 -3.41701e-06 -1.18868e-06
-3.41701e-06 3.15562e-05 5.36053e-07
-1.18868e-06 5.36053e-07 -1.46674e-05
0.00104427 -1.28051e-05 -9.81781e-07
-1.28051e-05 1.4672e-05 3.20333e-07
-9.81781e-07 3.20333e-07 -4.05979e-05
0.00101515 6.23853e-06 -1.60698e-06
6.23853e-06 3.02439e-06 1.57111e-06
-1.60698e-06 1.57111e-06 -2.50101e-05
0.000936749 -1.98583e-06 -7.84829e-07
-1.98583e-06 -3.51433e-05 5.21456e-07
-7.84829e-07 5.21456e-07 -8.22923e-05
0.00122077 1.71748e-05 -1.97808e-08
1.71748e-05 6.80875e-05 -3.25037e-07
-1.97808e-08 -3.25037e-07 3.5509e-06
0.0013574 8.23733e-06 -1.30861e-07
8.23733e-06 0.000107511 1.06865e-07
-1.30861e-07 1.06865e-07 4.3194e-05
0.00120166 1.68166e-05 -3.28263e-07
1.68166e-05 3.50805e-05 -6.94805e-08
-3.28263e-07 -6.94805e-08 -3.18059e-05
0.00125723 1.17825e-07 -6.66682e-08
1.17825e-07 5.52949e-05 -8.66166e-08
-6.66682e-08 -8.66166e-08 -7.03533e-06
0.00106804 -3.21769e-06 3.51903e-08
-3.21769e-06 3.27127e-05 -1.60732e-08
3.51903e-08 -1.60732e-08 -1.43122e-05
0.00105293 -1.45771e-05 1.88954e-07
-1.45771e-05 2.02086e-05 -1.64711e-07
1.88954e-07 -1.64711e-07 -3.52505e-05
0.00117059 -1.88475e-05 -2.37166e-08
-1.88475e-05 6.79111e-05 -2.19591e-08
-2.37166e-08 -2.19591e-08 5.40136e-06
0.00125005 -1.21278e-05 -8.32273e-08
-1.21278e-05 6.89026e-05 -2.83126e-08
-8.32273e-08 -2.83126e-08 1.10505e-05
0.00124603 -7.55159e-06 1.77209e-07
-7.55159e-06 5.26143e-05 2.52384e-07
1.77209e-07 2.52384e-07 -4.62818e-06
0.00122905 -1.99797e-05 -1.64929e-08
-1.99797e-05 7.59566e-05 2.72397e-07
-1.64929e-08 2.72397e-07 1.39599e-05
0.00120501 -1.33854e-05 -6.59958e-09
-1.33854e-05 4.61421e-05 1.54497e-07
-6.59958e-09 1.54497e-07 -8.09567e-06
0.00123066 -1.70934e-05 2.80027e-07
-1.70934e-05 5.87313e-05 -7.62173e-07
2.80027e-07 -7.62173e-07 5.99907e-06
0.00111746 -1.36062e-05 5.05938e-08
-1.36062e-05 4.90131e-05 -1.09681e-08
5.05938e-08 -1.09681e-08 -4.98943e-06
0.0011641 -1.69351e-05 -1.67814e-07
-1.69351e-05 6.88596e-05 1.28835e-07
-1.67814e-07 1.28835e-07 1.00609e-05
0.00115689 -1.3062e-05 -6.05229e-08
-1.3062e-05 7.28347e-05 1.74516e-07
-6.05229e-08 1.74516e-07 1.66086e-05
0.000892441 5.68212e-06 -1.03433e-07
5.68212e-06 -5.81034e-05 -2.38333e-08
-1.03433e-07 -2.38333e-08 -8.63209e-05
0.000922447 -2.36654e-06 2.33804e-07
-2.36654e-06 -4.23734e-05 -3.87005e-07
2.33804e-07 -3.87005e-07 -8.91777e-05
0.00121687 1.82067e-05 2.23736e-07
1.82067e-05 5.98771e-05 2.72149e-07
2.23736e-07 2.72149e-07 -6.50656e-06
0.00129201 1.4723e-05 2.25444e-08
1.4723e-05 6.4452e-05 -8.16769e-08
2.25444e-08 -8.16769e-08 -1.91112e-06
0.00126732 -2.12763e-09 -5.63011e-07
-2.12763e-09 5.26403e-05 -9.54921e-07
-5.63011e-07 -9.54921e-07 -6.65851e-06
0.00122113 -8.66422e-06 -9.83322e-07
-8.66422e-06 4.33489e-05 -2.45992e-07
-9.83322e-07 -2.45992e-07 -1.10691e-05
0.00110916 -1.45463e-05 4.68159e-07
-1.45463e-05 4.60583e-05 -5.76718e-08
4.68159e-07 -5.76718e-08 -7.97165e-06
0.00126143 -1.4266e-05 -1.02061e-06
-1.4266e-05 6.13787e-05 2.98353e-07
-1.02061e-06 2.98353e-07 1.24445e-05
0.000987984 -1.68628e-05 3.342e-07
-1.68628e-05 -1.03899e-05 -6.07452e-07
3.342e-07 -6.07452e-07 -7.12762e-05
0.00119847 -2.06708e-05 5.28561e-07
-2.06708e-05 7.73222e-05 1.65394e-08
5.28561e-07 1.65394e-08 1.02692e-05
0.00122534 -2.0341e-05 8.55872e-08
-2.0341e-05 6.5044e-05 1.30927e-06
8.55872e-08 1.30927e-06 3.46691e-06
0.000777051 5.19283e-06 1.22364e-06
5.19283e-06 -0.000115748 -2.23325e-06
1.22364e-06 -2.23325e-06 -0.000144058
0.00115641 -1.78353e-06 8.08105e-07
-1.78353e-06 7.18005e-05 -7.96547e-07
8.08105e-07 -7.96547e-07 2.71321e-05
0.00113953 -1.25435e-05 5.25835e-07
-1.25435e-05 6.63048e-05 -2.80967e-07
5.25835e-07 -2.80967e-07 9.35354e-06
0.00113817 -1.6766e-05 3.31033e-07
-1.6766e-05 5.5472e-05 1.0134e-07
3.31033e-07 1.0134e-07 -2.4902e-06
0.00118933 -1.74548e-05 3.09685e-07
-1.74548e-05 8.41853e-05 2.58754e-07
3.09685e-07 2.58754e-07 2.19593e-05
0.00114665 -1.75643e-05 -2.3097e-08
-1.75643e-05 5.74085e-05 3.15231e-07
-2.3097e-08 3.15231e-07 -4.08963e-06
0.000935651 -9.26735e-06 -2.1654e-06
-9.26735e-06 -3.85228e-05 -2.82072e-06
-2.1654e-06 -2.82072e-06 -3.85872e-05
0.00100945 -6.84487e-06 -1.59222e-06
-6.84487e-06 1.82264e-06 -1.61956e-06
-1.59222e-06 -1.61956e-06 -2.52235e-05
0.00123441 7.90278e-06 8.82857e-08
7.90278e-06 5.37632e-05 2.12218e-07
8.82857e-08 2.12218e-07 -5.56902e-06
0.00105796 -4.80305e-06 -1.0529e-06
-4.80305e-06 2.69056e-05 -9.25853e-07
-1.0529e-06 -9.25853e-07 -1.79797e-05
0.00105268 -1.92981e-06 -1.24808e-06
-1.92981e-06 2.80168e-05 -7.13771e-07
-1.24808e-06 -7.13771e-07 -1.8028e-05
0.00101914 3.65134e-06 -5.37399e-07
3.65134e-06 8.95166e-06 -2.52795e-07
-5.37399e-07 -2.52795e-07 -4.70927e-05
0.00116332 1.79861e-05 -2.2855e-07
1.79861e-05 4.75164e-05 -4.00465e-07
-2.2855e-07 -4.00465e-07 -1.17106e-05
0.00120215 1.62036e-05 5.96129e-07
1.62036e-05 4.04718e-05 3.81202e-07
5.96129e-07 3.81202e-07 -2.1152e-05
0.00108303 1.32224e-05 -3.5691e-07
1.32224e-05 4.66511e-05 -2.43815e-07
-3.5691e-07 -2.43815e-07 -1.1086e-05
0.00113341 1.92453e-05 -8.65455e-07
1.92453e-05 5.98597e-05 -6.97002e-08
-8.65455e-07 -6.97002e-08 -4.67289e-06
0.00125525 2.02555e-05 -7.16179e-07
2.02555e-05 9.89781e-05 -4.80201e-07
-7.16179e-07 -4.80201e-07 3.97411e-05
0.00101727 -6.05692e-06 5.81233e-08
-6.05692e-06 3.4395e-06 -1.35239e-08
5.81233e-08 -1.35239e-08 -2.29856e-05
0.00106587 -3.68437e-06 -5.76306e-11
-3.68437e-06 2.86315e-05 -8.12873e-09
-5.76306e-11 -8.12873e-09 -1.56413e-05
0.00108081 9.58287e-06 -5.2047e-08
9.58287e-06 4.0113e-05 -9.61397e-08
-5.2047e-08 -9.61397e-08 -1.58789e-05
0.00110069 2.53318e-06 -3.95059e-08
2.53318e-06 4.80718e-05 -1.02703e-08
-3.95059e-08 -1.02703e-08 -7.70916e-06
0.0011222 1.2919e-05 -1.78548e-07
1.2919e-05 5.95954e-05 -1.54848e-07
-1.78548e-07 -1.54848e-07 -1.56734e-06
0.00123903 5.42594e-06 -2.86608e-07
5.42594e-06 4.51513e-05 -3.71417e-07
-2.86608e-07 -3.71417e-07 -1.27591e-05
0.00118214 2.05379e-05 3.69945e-07
2.05379e-05 4.87838e-05 1.14913e-07
3.69945e-07 1.14913e-07 -1.27257e-05
0.00113908 1.78565e-05 5.47568e-08
1.78565e-05 8.94332e-06 2.58637e-07
5.47568e-08 2.58637e-07 -4.74151e-05
0.00103626 1.76962e-05 2.33818e-07
1.76962e-05 2.55502e-05 5.08721e-07
2.33818e-07 5.08721e-07 -4.04993e-05
0.00120283 2.17548e-05 2.88555e-08
2.17548e-05 7.90785e-05 -1.88575e-07
2.88555e-08 -1.88575e-07 1.07169e-05
0.00106871 -2.22831e-06 9.69154e-07
-2.22831e-06 2.84818e-05 1.00512e-06
9.69154e-07 1.00512e-06 -1.53122e-05
0.000993767 4.14467e-06 8.85832e-07
4.14467e-06 -6.17659e-06 7.15933e-07
8.85832e-07 7.15933e-07 -6.273e-05
0.00111686 1.75038e-05 1.00137e-07
1.75038e-05 5.93801e-05 2.0781e-08
1.00137e-07 2.0781e-08 -3.73307e-06
0.00102829 1.21552e-05 3.49267e-07
1.21552e-05 1.31104e-05 -3.64834e-08
3.49267e-07 -3.64834e-08 -4.93157e-05
0.00116265 1.59581e-05 -5.36795e-08
1.59581e-05 7.45526e-05 -3.84869e-07
-5.36795e-08 -3.84869e-07 1.04014e-05
0.00128495 7.39298e-06 -1.15258e-06
7.39298e-06 4.82509e-05 -5.01062e-07
-1.15258e-06 -5.01062e-07 1.00563e-06
0.00129483 2.38176e-05 1.64509e-07
2.38176e-05 0.000103814 -6.29327e-07
1.64509e-07 -6.29327e-07 3.90334e-05
0.000916743 1.89395e-05 -1.69462e-07
1.89395e-05 -0.000103865 -2.57193e-07
-1.69462e-07 -2.57193e-07 -0.000159391
0.00131925 2.09285e-05 7.7554e-07
2.09285e-05 0.000153252 1.16254e-06
7.7554e-07 1.16254e-06 8.29564e-05
0.000949712 2.12743e-05 1.52763e-08
2.12743e-05 -4.1148e-05 -1.80968e-08
1.52763e-08 -1.80968e-08 -0.000115178
0.00101824 -5.3478e-06 -1.15645e-06
-5.3478e-06 1.86256e-06 -1.70806e-06
-1.15645e-06 -1.70806e-06 -2.39073e-05
0.000993569 -1.88177e-06 2.16331e-07
-1.88177e-06 -8.75788e-06 4.14636e-07
2.16331e-07 4.14636e-07 -5.25558e-05
0.00100272 3.98197e-06 5.73612e-07
3.98197e-06 -1.19389e-06 9.06198e-07
5.73612e-07 9.06198e-07 -5.69541e-05
0.000920771 -2.17797e-06 -5.46758e-07
-2.17797e-06 -4.50201e-05 -1.02638e-06
-5.46758e-07 -1.02638e-06 -8.85125e-05
0.00107428 5.19623e-08 3.70444e-08
5.19623e-08 2.89705e-05 9.74412e-09
3.70444e-08 9.74412e-09 -1.28996e-05
0.00112741 3.92e-06 -1.25916e-07
3.92e-06 5.96598e-05 -4.06641e-07
-1.25916e-07 -4.06641e-07 5.89156e-06
0.00120843 1.07361e-05 1.49038e-07
1.07361e-05 0.000103404 6.03175e-08
1.49038e-07 6.03175e-08 4.20736e-05
0.000995368 1.34258e-06 3.12281e-07
1.34258e-06 -4.86337e-06 9.09142e-07
3.12281e-07 9.09142e-07 -5.89749e-05
0.0010707 -1.16814e-06 3.6944e-07
-1.16814e-06 2.69105e-05 1.00947e-06
3.6944e-07 1.00947e-06 -1.47417e-05
0.00103827 -2.30838e-06 4.51207e-07
-2.30838e-06 3.52403e-06 1.76355e-06
4.51207e-07 1.76355e-06 -2.0764e-05
0.00103662 -3.12944e-06 4.91028e-08
-3.12944e-06 4.4184e-06 7.62547e-10
4.91028e-08 7.62547e-10 -1.99632e-05
0.00151999 -5.08562e-06 9.42835e-07
-5.08562e-06 0.000232801 1.84656e-06
9.42835e-07 1.84656e-06 0.000237763
0.00103105 -3.94598e-06 -7.51002e-07
-3.94598e-06 3.77398e-06 -1.72782e-06
-7.51002e-07 -1.72782e-06 -2.08916e-05
0.00153671 -6.30668e-06 -7.80125e-07
-6.30668e-06 0.000244 -1.16115e-06
-7.80125e-07 -1.16115e-06 0.000248404
0.00121633 -6.98134e-06 4.29369e-06
-6.98134e-06 8.47937e-05 6.06689e-06
4.29369e-06 6.06689e-06 0.000102898
0.00155482 -7.46518e-06 -3.1113e-06
-7.46518e-06 0.000256229 -4.08335e-06
-3.1113e-06 -4.08335e-06 0.000259981
0.00116117 -8.61072e-06 1.70067e-06
-8.61072e-06 6.17671e-05 2.29056e-06
1.70067e-06 2.29056e-06 7.94965e-05
0.00227138 -1.19758e-05 -2.20908e-06
-1.19758e-05 0.000606798 -1.49032e-06
-2.20908e-06 -1.49032e-06 0.000629384
0.000945254 8.25606e-06 1.73917e-06
8.25606e-06 -3.91714e-05 -2.82782e-06
1.73917e-06 -2.82782e-06 -3.87502e-05
0.000949253 9.19235e-06 -1.15631e-07
9.19235e-06 -3.37027e-05 -1.5889e-08
-1.15631e-07 -1.5889e-08 -3.43586e-05
0.00236789 1.29967e-05 5.66686e-06
1.29967e-05 0.000655792 -3.58571e-06
5.66686e-06 -3.58571e-06 0.000677428
0.000952239 1.01021e-05 -2.62455e-06
1.01021e-05 -2.88558e-05 2.66913e-06
-2.62455e-06 2.66913e-06 -3.03056e-05
0.00236887 1.46534e-05 -1.38338e-07
1.46534e-05 0.000660999 -4.09698e-08
-1.38338e-07 -4.09698e-08 0.000681832
0.00234507 1.63262e-05 -6.84791e-06
1.63262e-05 0.000654073 3.38523e-06
-6.84791e-06 3.38523e-06 0.000674249
0.00122295 1.27585e-06 -3.00614e-08
1.27585e-06 5.15555e-05 2.17117e-07
-3.00614e-08 2.17117e-07 -7.32906e-06
0.00122819 -1.26723e-05 -5.27314e-08
-1.26723e-05 6.38882e-05 -1.92874e-07
-5.27314e-08 -1.92874e-07 1.56542e-06
0.00127329 -8.90197e-06 8.35965e-07
-8.90197e-06 6.95533e-05 -3.65408e-07
8.35965e-07 -3.65408e-07 1.05417e-05
0.0012844 -1.74171e-05 -5.97831e-07
-1.74171e-05 8.95174e-05 5.39575e-07
-5.97831e-07 5.39575e-07 2.52258e-05
0.00114399 -1.20608e-05 -1.50188e-07
-1.20608e-05 4.89247e-05 2.91004e-07
-1.50188e-07 2.91004e-07 -1.27907e-05
0.00112532 8.49426e-06 -4.73475e-07
8.49426e-06 4.83845e-05 -7.03696e-08
-4.73475e-07 -7.03696e-08 -1.26207e-05
0.00117961 6.44472e-06 9.34299e-08
6.44472e-06 6.55763e-05 3.09475e-07
9.34299e-08 3.09475e-07 2.87476e-06
0.00114679 -8.1103e-06 1.32391e-07
-8.1103e-06 4.98689e-05 1.18612e-07
1.32391e-07 1.18612e-07 -1.28477e-05
0.00119001 -1.33197e-05 1.35704e-07
-1.33197e-05 3.42998e-05 -6.1625e-08
1.35704e-07 -6.1625e-08 -2.84472e-05
0.00129725 -1.82376e-05 -5.00058e-07
-1.82376e-05 9.75274e-05 1.76927e-07
-5.00058e-07 1.76927e-07 3.04586e-05
0.00121668 -2.98355e-06 -2.26261e-07
-2.98355e-06 3.57016e-05 2.65632e-07
-2.26261e-07 2.65632e-07 -2.04089e-05
0.00133035 -1.26287e-05 6.72112e-07
-1.26287e-05 9.0486e-05 -4.5878e-07
6.72112e-07 -4.5878e-07 3.28596e-05
0.00113939 8.02365e-06 -6.86168e-08
8.02365e-06 5.34765e-05 5.09482e-07
-6.86168e-08 5.09482e-07 -8.48686e-06
0.00112141 -1.26144e-05 3.5127e-07
-1.26144e-05 4.01373e-05 -8.26426e-07
3.5127e-07 -8.26426e-07 -2.45892e-05
0.00123137 -1.68587e-05 -4.98269e-07
-1.68587e-05 5.73897e-05 6.46563e-07
-4.98269e-07 6.46563e-07 -8.07859e-06
0.00138309 -5.42412e-06 -1.16144e-06
-5.42412e-06 0.000103557 3.61962e-07
-1.16144e-06 3.61962e-07 5.40216e-05
0.00121135 1.71073e-05 -4.33039e-07
1.71073e-05 6.42264e-05 -8.23552e-07
-4.33039e-07 -8.23552e-07 -2.53295e-07
0.00133739 8.70817e-06 -5.83885e-07
8.70817e-06 9.84676e-05 2.78898e-07
-5.83885e-07 2.78898e-07 3.41284e-05
0.0012582 1.72773e-05 -7.56334e-07
1.72773e-05 6.10313e-05 1.65931e-07
-7.56334e-07 1.65931e-07 -6.07114e-06
0.00128866 -1.07016e-07 4.04468e-07
-1.07016e-07 7.10973e-05 4.02104e-07
4.04468e-07 4.02104e-07 8.77894e-06
0.00107389 -3.55706e-06 -1.10063e-06
-3.55706e-06 3.45831e-05 4.94701e-07
-1.10063e-06 4.94701e-07 -1.2322e-05
0.00110932 -1.42596e-05 -1.67032e-07
-1.42596e-05 4.7486e-05 8.19385e-08
-1.67032e-07 8.19385e-08 -7.55521e-06
0.00117388 -1.88746e-05 -2.96031e-07
-1.88746e-05 7.02891e-05 4.50011e-07
-2.96031e-07 4.50011e-07 7.60046e-06
0.00128874 -1.21154e-05 4.78778e-07
-1.21154e-05 8.74885e-05 1.91069e-08
4.78778e-07 1.91069e-08 2.94281e-05
0.00121676 -8.01088e-06 8.49765e-07
-8.01088e-06 3.98111e-05 7.28291e-07
8.49765e-07 7.28291e-07 -1.6944e-05
0.00121995 -1.31501e-05 1.10401e-06
-1.31501e-05 5.31676e-05 1.35297e-08
1.10401e-06 1.35297e-08 -1.06888e-06
0.00123618 -2.00194e-05 -1.36633e-07
-2.00194e-05 7.97644e-05 -6.08051e-07
-1.36633e-07 -6.08051e-07 1.74385e-05
0.00116976 -1.68821e-05 4.43425e-07
-1.68821e-05 2.89361e-05 -2.19757e-06
4.43425e-07 -2.19757e-06 -2.25866e-05
0.00112411 -1.35892e-05 -5.63011e-07
-1.35892e-05 5.20504e-05 4.18643e-08
-5.63011e-07 4.18643e-08 -1.93303e-06
0.00111211 -1.66055e-05 -6.51774e-07
-1.66055e-05 4.29103e-05 -4.2808e-08
-6.51774e-07 -4.2808e-08 -1.61501e-05
0.00115331 -1.32402e-05 -7.54555e-07
-1.32402e-05 7.10385e-05 4.25414e-07
-7.54555e-07 4.25414e-07 1.47274e-05
0.000766753 5.45983e-06 -1.38989e-06
5.45983e-06 -0.000119226 1.58369e-06
-1.38989e-06 1.58369e-06 -0.000148169
0.000932166 -1.73869e-06 -6.39028e-07
-1.73869e-06 -3.79618e-05 5.77936e-07
-6.39028e-07 5.77936e-07 -8.46691e-05
0.0012281 1.82244e-05 1.18107e-07
1.82244e-05 6.18122e-05 -5.18444e-07
1.18107e-07 -5.18444e-07 -5.07167e-06
0.00131736 1.44279e-05 -5.8573e-08
1.44279e-05 7.79852e-05 1.57576e-07
-5.8573e-08 1.57576e-07 1.1962e-05
0.00129152 3.77479e-07 -7.58355e-08
3.77479e-07 6.57066e-05 9.61813e-08
-7.58355e-08 9.61813e-08 6.3693e-06
0.00112085 -1.40339e-05 3.15296e-08
-1.40339e-05 5.13492e-05 1.39195e-08
3.15296e-08 1.39195e-08 -2.66744e-06
0.00110947 -1.76404e-05 1.99505e-07
-1.76404e-05 4.70262e-05 -2.04475e-07
1.99505e-07 -2.04475e-07 -1.32725e-05
0.00118778 -2.06055e-05 -4.53056e-08
-2.06055e-05 7.37942e-05 2.91017e-08
-4.53056e-08 2.91017e-08 6.40073e-06
0.00124418 -8.67711e-06 1.27993e-08
-8.67711e-06 5.41238e-05 -1.11546e-07
1.27993e-08 -1.11546e-07 -7.05176e-07
0.00122015 -1.97962e-05 -5.19466e-08
-1.97962e-05 6.30104e-05 -4.56595e-07
-5.19466e-08 -4.56595e-07 2.61611e-06
0.0012303 -1.50779e-05 -1.24424e-07
-1.50779e-05 4.77437e-05 -1.53381e-07
-1.24424e-07 -1.53381e-07 -1.44568e-06
0.000767696 5.32353e-06 1.68723e-07
5.32353e-06 -0.000120108 -5.74572e-07
1.68723e-07 -5.74572e-07 -0.00014828
0.00114495 -1.68374e-05 1.04731e-08
-1.68374e-05 5.88773e-05 2.62752e-08
1.04731e-08 2.62752e-08 8.41388e-07
0.00113905 -1.74905e-05 -4.71186e-07
-1.74905e-05 5.29306e-05 1.94301e-07
-4.71186e-07 1.94301e-07 -8.28758e-06
0.0012002 -1.74559e-05 -2.49888e-07
-1.74559e-05 8.97755e-05 1.8045e-07
-2.49888e-07 1.8045e-07 2.78948e-05
0.00120242 -1.29781e-05 -9.95574e-08
-1.29781e-05 9.67292e-05 1.36177e-07
-9.95574e-08 1.36177e-07 3.99804e-05
0.00103817 -1.72713e-06 6.89059e-09
-1.72713e-06 1.37679e-05 1.76535e-07
6.89059e-09 1.76535e-07 -3.16076e-05
0.00132659 1.96255e-05 -1.26195e-07
1.96255e-05 0.000100409 1.38348e-06
-1.26195e-07 1.38348e-06 3.33119e-05
0.00133744 1.45522e-05 -1.03339e-07
1.45522e-05 8.07256e-05 -4.16041e-07
-1.03339e-07 -4.16041e-07 1.53288e-05
0.00124954 -1.21017e-06 -8.78923e-07
-1.21017e-06 3.84685e-05 -1.09415e-06
-8.78923e-07 -1.09415e-06 -1.61928e-05
0.0012957 -1.04497e-05 -1.12404e-06
-1.04497e-05 6.28496e-05 -3.45792e-07
-1.12404e-06 -3.45792e-07 1.49029e-05
0.00113277 -1.71805e-05 2.68455e-07
-1.71805e-05 5.52082e-05 -5.28613e-08
2.68455e-07 -5.28613e-08 -3.34842e-06
0.00124779 -1.90419e-05 -2.17966e-07
-1.90419e-05 5.37413e-05 1.23569e-06
-2.17966e-07 1.23569e-06 5.76113e-07
0.00104296 -1.88754e-05 1.2716e-07
-1.88754e-05 1.5934e-05 -5.905e-07
1.2716e-07 -5.905e-07 -5.08972e-05
0.00126293 -2.21161e-05 2.51657e-07
-2.21161e-05 0.000104935 6.62622e-07
2.51657e-07 6.62622e-07 3.47606e-05
0.000764918 4.43558e-06 9.85442e-07
4.43558e-06 -0.000124139 -2.2047e-06
9.85442e-07 -2.2047e-06 -0.000150929
0.00116499 -4.00498e-07 7.26106e-07
-4.00498e-07 7.57113e-05 -8.6576e-07
7.26106e-07 -8.6576e-07 3.1195e-05
0.00125911 -1.17381e-05 5.97339e-08
-1.17381e-05 0.000125177 2.22841e-07
5.97339e-08 2.22841e-07 6.922e-05
0.00112363 -1.66908e-05 4.74617e-07
-1.66908e-05 5.75283e-05 -3.83557e-07
4.74617e-07 -3.83557e-07 -7.29904e-06
0.00110732 -1.76871e-05 7.32352e-08
-1.76871e-05 3.89071e-05 1.27068e-07
7.32352e-08 1.27068e-07 -2.29869e-05
0.00115244 -1.82239e-05 3.64915e-07
-1.82239e-05 6.06864e-05 2.88516e-07
3.64915e-07 2.88516e-07 -4.40115e-06
0.00101437 -6.01222e-06 -1.39067e-06
-6.01222e-06 1.97841e-06 -1.68157e-06
-1.39067e-06 -1.68157e-06 -2.44263e-05
0.00106631 -3.46675e-06 -1.04526e-06
-3.46675e-06 2.87416e-05 -9.80335e-07
-1.04526e-06 -9.80335e-07 -1.55411e-05
0.00125277 6.33146e-06 4.57943e-07
6.33146e-06 5.31419e-05 3.1803e-07
4.57943e-07 3.1803e-07 -5.05201e-06
0.00110134 2.89588e-06 -7.17628e-07
2.89588e-06 4.87311e-05 -4.00906e-07
-7.17628e-07 -4.00906e-07 -7.17133e-06
0.00109926 1.01656e-05 -5.56492e-07
1.01656e-05 4.97366e-05 -2.77606e-07
-5.56492e-07 -2.77606e-07 -5.8844e-06
0.0010693 1.29741e-05 -5.03534e-07
1.29741e-05 3.41104e-05 -1.57223e-07
-5.03534e-07 -1.57223e-07 -2.75307e-05
0.00117601 2.04475e-05 1.01307e-08
2.04475e-05 4.50097e-05 -3.68326e-07
1.01307e-08 -3.68326e-07 -1.66375e-05
0.00118251 1.7483e-05 7.33335e-07
1.7483e-05 2.83591e-05 6.40412e-07
7.33335e-07 6.40412e-07 -2.74998e-05
0.00097057 1.72927e-05 -1.8564e-07
1.72927e-05 -5.36916e-06 -9.67907e-08
-1.8564e-07 -9.67907e-08 -7.17456e-05
0.00121064 2.18531e-05 -4.1951e-07
2.18531e-05 8.28504e-05 -1.52908e-08
-4.1951e-07 -1.52908e-08 1.37558e-05
0.0010694 -1.94393e-06 5.01807e-08
-1.94393e-06 2.87679e-05 -1.99673e-08
5.01807e-08 -1.99673e-08 -1.50203e-05
0.00105601 5.02305e-06 2.4586e-07
5.02305e-06 2.44055e-05 2.64651e-07
2.4586e-07 2.64651e-07 -3.18817e-05
0.00116012 1.7765e-05 -5.17673e-08
1.7765e-05 8.08656e-05 -3.37137e-07
-5.17673e-08 -3.37137e-07 1.83639e-05
0.00108093 1.18622e-05 -2.30214e-07
1.18622e-05 3.91817e-05 1.99773e-08
-2.30214e-07 1.99773e-08 -2.29154e-05
0.00113099 1.58477e-05 -4.19201e-07
1.58477e-05 6.10454e-05 -3.53867e-07
-4.19201e-07 -3.53867e-07 -3.03492e-06
0.00135352 6.93006e-06 -3.14922e-07
6.93006e-06 8.10501e-05 -3.13526e-07
-3.14922e-07 -3.13526e-07 3.41063e-05
0.00130933 2.3827e-05 2.9464e-07
2.3827e-05 0.00010857 -3.44696e-08
2.9464e-07 -3.44696e-08 4.41913e-05
0.00105887 1.94324e-05 -2.56999e-07
1.94324e-05 -3.16914e-05 6.6018e-07
-2.56999e-07 6.6018e-07 -8.60239e-05
0.00121759 2.02837e-05 3.99133e-07
2.02837e-05 0.000105898 4.78791e-07
3.99133e-07 4.78791e-07 3.51072e-05
0.00105718 2.20132e-05 -5.83643e-07
2.20132e-05 9.05e-06 -9.10103e-08
-5.83643e-07 -9.10103e-08 -6.62716e-05
0.00100918 7.20258e-06 8.25741e-07
7.20258e-06 9.76715e-07 8.98809e-07
8.25741e-07 8.98809e-07 -5.55438e-05
0.00103475 1.58204e-05 5.00599e-07
1.58204e-05 1.65283e-05 -2.16347e-08
5.00599e-07 -2.16347e-08 -4.85483e-05
0.00115026 1.85452e-05 6.85509e-08
1.85452e-05 7.34005e-05 1.43608e-07
6.85509e-08 1.43608e-07 5.46952e-06
0.00100729 1.641e-05 5.50916e-07
1.641e-05 4.78745e-07 -1.00878e-07
5.50916e-07 -1.00878e-07 -6.63276e-05
0.00158766 -1.09085e-06 -9.46083e-07
-1.09085e-06 0.000177497 3.7948e-07
-9.46083e-07 3.7948e-07 0.000132803
0.00130951 1.64345e-05 2.98113e-07
1.64345e-05 4.83397e-05 -2.12343e-07
2.98113e-07 -2.12343e-07 4.27295e-06
0.00120858 2.4346e-05 4.29636e-07
2.4346e-05 6.06302e-05 -1.11967e-06
4.29636e-07 -1.11967e-06 -1.00956e-05
0.000972351 2.05547e-05 1.81932e-07
2.05547e-05 -1.46514e-05 6.01386e-07
1.81932e-07 6.01386e-07 -9.33816e-05
0.00107081 -1.52778e-06 -5.26403e-07
-1.52778e-06 2.8958e-05 -6.34789e-07
-5.26403e-07 -6.34789e-07 -1.43555e-05
0.00108078 4.45334e-06 1.48915e-07
4.45334e-06 3.7042e-05 3.15449e-07
1.48915e-07 3.15449e-07 -1.82711e-05
0.0011531 1.26971e-05 2.76685e-07
1.26971e-05 7.6904e-05 2.3223e-07
2.76685e-07 2.3223e-07 1.39594e-05
0.00107625 4.86061e-07 -4.31588e-07
4.86061e-07 2.99997e-05 -1.0135e-06
-4.31588e-07 -1.0135e-06 -1.18799e-05
0.00100081 2.735e-06 -4.11212e-07
2.735e-06 -2.12252e-06 -1.02471e-06
-4.11212e-07 -1.02471e-06 -5.67567e-05
0.0010744 -1.31609e-06 5.23168e-08
-1.31609e-06 2.87608e-05 9.80502e-09
5.23168e-08 9.80502e-09 -1.29086e-05
0.00113149 9.10127e-06 -5.42342e-08
9.10127e-06 6.55851e-05 -3.19843e-07
-5.42342e-08 -3.19843e-07 3.60152e-06
0.00104824 2.69961e-06 8.99383e-08
2.69961e-06 2.09647e-05 3.12142e-07
8.99383e-08 3.12142e-07 -3.2811e-05
0.00118425 1.31035e-05 1.65231e-07
1.31035e-05 9.16484e-05 -2.43561e-08
1.65231e-07 -2.43561e-08 2.45237e-05
0.00103111 -1.33042e-06 1.682e-07
-1.33042e-06 1.5859e-05 7.14937e-07
1.682e-07 7.14937e-07 -4.62524e-05
0.000997795 8.5302e-06 3.84173e-07
8.5302e-06 -3.94781e-06 9.105e-07
3.84173e-07 9.105e-07 -5.79181e-05
0.00106964 -3.3838e-06 2.42749e-07
-3.3838e-06 2.63281e-05 1.00092e-06
2.42749e-07 1.00092e-06 -1.54864e-05
0.00104051 -1.35268e-06 2.26776e-07
-1.35268e-06 3.57468e-06 1.75302e-06
2.26776e-07 1.75302e-06 -2.08343e-05
0.00104036 -2.32297e-06 5.93944e-08
-2.32297e-06 4.61977e-06 3.09329e-09
5.93944e-08 3.09329e-09 -1.96955e-05
0.00152173 -3.60392e-06 6.45965e-07
-3.60392e-06 0.000231159 1.86052e-06
6.45965e-07 1.86052e-06 0.000236452
0.00103798 -3.13923e-06 -5.57481e-07
-3.13923e-06 5.15443e-06 -1.74492e-06
-5.57481e-07 -1.74492e-06 -1.92443e-05
0.00153839 -4.91407e-06 -6.14461e-07
-4.91407e-06 0.000241824 -1.16375e-06
-6.14461e-07 -1.16375e-06 0.000246684
0.00122014 -5.43769e-06 3.35598e-06
-5.43769e-06 8.30418e-05 6.10335e-06
3.35598e-06 6.10335e-06 0.000101692
0.00155478 -6.16321e-06 -2.4978e-06
-6.16321e-06 0.000252891 -4.13574e-06
-2.4978e-06 -4.13574e-06 0.000257199
0.00116613 -7.09738e-06 1.3556e-06
-7.09738e-06 6.01875e-05 2.31267e-06
1.3556e-06 2.31267e-06 7.85485e-05
0.00111146 -8.67921e-06 -1.30281e-06
-8.67921e-06 3.7324e-05 -1.4124e-06
-1.30281e-06 -1.4124e-06 5.53151e-05
0.000955569 7.02479e-06 1.50332e-06
7.02479e-06 -3.82347e-05 -2.84939e-06
1.50332e-06 -2.84939e-06 -3.67296e-05
0.000959883 8.24321e-06 -7.96786e-08
8.24321e-06 -3.22338e-05 5.13028e-09
-7.96786e-08 5.13028e-09 -3.18767e-05
0.00233219 1.12852e-05 5.00717e-06
1.12852e-05 0.000634028 -3.62181e-06
5.00717e-06 -3.62181e-06 0.000656627
0.000962363 9.18923e-06 -2.311e-06
9.18923e-06 -2.74562e-05 2.74213e-06
-2.311e-06 2.74213e-06 -2.81649e-05
0.00234879 1.29838e-05 -1.83713e-07
1.29838e-05 0.00064695 -3.81686e-08
-1.83713e-07 -3.81686e-08 0.000668585
0.00233992 1.46532e-05 -6.46787e-06
1.46532e-05 0.000647299 3.49421e-06
-6.46787e-06 3.49421e-06 0.000668201
0.00122933 -3.19773e-06 7.33101e-07
-3.19773e-06 4.26742e-05 5.82577e-07
7.33101e-07 5.82577e-07 -1.3429e-05
0.00119648 -1.36128e-05 3.28201e-08
-1.36128e-05 3.67014e-05 -2.04261e-07
3.28201e-08 -2.04261e-07 -2.60433e-05
0.00125277 -1.20375e-05 1.69874e-06
-1.20375e-05 5.30046e-05 -1.70363e-06
1.69874e-06 -1.70363e-06 -4.55763e-06
0.00123305 -1.81192e-05 -1.15157e-06
-1.81192e-05 6.73915e-05 5.50151e-07
-1.15157e-06 5.50151e-07 -8.09001e-07
0.00116447 -9.9017e-06 -3.65768e-07
-9.9017e-06 5.70124e-05 6.7334e-07
-3.65768e-07 6.7334e-07 -5.55387e-06
0.00114992 6.11959e-06 -6.36149e-08
6.11959e-06 5.23042e-05 -1.56638e-07
-6.36149e-08 -1.56638e-07 -1.0352e-05
0.00116291 9.03025e-06 2.23542e-07
9.03025e-06 6.05879e-05 -4.1216e-08
2.23542e-07 -4.1216e-08 -2.02049e-06
0.00117761 -1.41951e-05 -3.81831e-07
-1.41951e-05 6.41512e-05 5.03957e-07
-3.81831e-07 5.03957e-07 -6.14261e-07
0.00118787 -1.63333e-05 1.51733e-07
-1.63333e-05 3.85103e-05 5.83988e-08
1.51733e-07 5.83988e-08 -2.60088e-05
0.00127419 -5.85809e-06 3.29518e-07
-5.85809e-06 5.11018e-05 2.06362e-08
3.29518e-07 2.06362e-08 1.15655e-06
0.00112319 4.0383e-06 1.74198e-07
4.0383e-06 4.04522e-05 -2.28577e-07
1.74198e-07 -2.28577e-07 -2.29663e-05
0.00109741 -1.82359e-05 8.56059e-08
-1.82359e-05 3.10338e-05 -3.13686e-07
8.56059e-08 -3.13686e-07 -3.59015e-05
0.0012804 -1.18733e-05 -1.2566e-06
-1.18733e-05 6.34735e-05 1.14172e-06
-1.2566e-06 1.14172e-06 7.61603e-06
0.00124239 1.82654e-05 -2.91807e-07
1.82654e-05 6.51011e-05 -1.39674e-06
-2.91807e-07 -1.39674e-06 -2.27612e-06
0.00134616 1.41801e-05 -7.03739e-08
1.41801e-05 9.31176e-05 4.32286e-07
-7.03739e-08 4.32286e-07 2.74342e-05
0.00131658 6.66198e-07 6.24835e-07
6.66198e-07 7.91355e-05 8.05229e-07
6.24835e-07 8.05229e-07 1.97673e-05
0.00113113 -1.3407e-05 -4.42258e-07
-1.3407e-05 5.59669e-05 1.32021e-07
-4.42258e-07 1.32021e-07 1.96785e-06
0.0012317 -1.84225e-05 -2.83547e-08
-1.84225e-05 0.000104777 1.3985e-07
-2.83547e-08 1.3985e-07 4.50661e-05
0.00117667 -2.05401e-05 -3.37335e-07
-2.05401e-05 7.01076e-05 4.0755e-07
-3.37335e-07 4.0755e-07 2.36873e-06
0.00126908 -8.66957e-06 8.64261e-07
-8.66957e-06 6.57657e-05 2.24788e-07
8.64261e-07 2.24788e-07 1.05236e-05
0.00119148 -1.58502e-05 8.97083e-07
-1.58502e-05 3.04615e-05 -4.69427e-07
8.97083e-07 -4.69427e-07 -1.89686e-05
0.00122698 -1.93558e-05 -3.40486e-07
-1.93558e-05 6.68187e-05 -1.97015e-06
-3.40486e-07 -1.97015e-06 7.5698e-06
0.00115211 -1.69108e-05 -3.14605e-07
-1.69108e-05 6.24592e-05 -4.15201e-08
-3.14605e-07 -4.15201e-08 4.3496e-06
0.00113083 -1.74069e-05 -9.27347e-07
-1.74069e-05 4.81917e-05 1.34771e-07
-9.27347e-07 1.34771e-07 -1.27486e-05
0.00121052 -1.74523e-05 -7.69717e-07
-1.74523e-05 9.50963e-05 7.47053e-08
-7.69717e-07 7.47053e-08 3.35629e-05
0.000760018 5.45666e-06 -8.41871e-07
5.45666e-06 -0.000123686 1.06858e-06
-8.41871e-07 1.06858e-06 -0.000151722
0.00126588 -1.36136e-05 -6.17572e-07
-1.36136e-05 0.000127458 6.31306e-07
-6.17572e-07 6.31306e-07 7.09058e-05
0.000920841 -2.84564e-06 -8.13069e-07
-2.84564e-06 -4.38219e-05 1.09181e-06
-8.13069e-07 1.09181e-06 -8.99201e-05
0.00128132 1.92699e-05 -2.04287e-08
1.92699e-05 8.29275e-05 5.32762e-07
-2.04287e-08 5.32762e-07 1.66343e-05
0.00131992 1.38839e-05 8.05971e-08
1.38839e-05 7.03874e-05 2.18557e-07
8.05971e-08 2.18557e-07 5.1987e-06
0.00126028 -8.55562e-07 -7.98434e-08
-8.55562e-07 4.44316e-05 -1.57297e-07
-7.98434e-08 -1.57297e-07 -1.10238e-05
0.00114513 -1.7296e-05 2.59844e-08
-1.7296e-05 6.09035e-05 6.47466e-08
2.59844e-08 6.47466e-08 2.30291e-06
0.00108234 -1.90753e-05 -2.2904e-08
-1.90753e-05 3.5091e-05 3.7205e-08
-2.2904e-08 3.7205e-08 -3.12039e-05
0.00124899 -2.17362e-05 -3.40103e-07
-2.17362e-05 9.88592e-05 4.0784e-07
-3.40103e-07 4.0784e-07 2.9275e-05
0.00131138 -1.09244e-05 1.98711e-07
-1.09244e-05 7.16983e-05 1.43192e-07
1.98711e-07 1.43192e-07 2.42396e-05
0.00121907 -1.89132e-05 -1.73807e-07
-1.89132e-05 4.05279e-05 -5.25178e-07
-1.73807e-07 -5.25178e-07 -1.28441e-05
0.000897591 4.62184e-06 1.78942e-07
4.62184e-06 -5.98076e-05 -5.58306e-07
1.78942e-07 -5.58306e-07 -8.57484e-05
0.00115752 1.72403e-07 -4.2931e-08
1.72403e-07 7.25379e-05 1.17809e-07
-4.2931e-08 1.17809e-07 2.79577e-05
0.00110596 -1.76732e-05 -1.98164e-07
-1.76732e-05 3.8384e-05 1.33185e-07
-1.98164e-07 1.33185e-07 -2.34943e-05
0.00116442 -1.8334e-05 -6.52703e-08
-1.8334e-05 6.65243e-05 3.27948e-08
-6.52703e-08 3.27948e-08 1.50701e-06
0.00113124 -1.66518e-05 1.39184e-07
-1.66518e-05 6.15533e-05 -1.75172e-07
1.39184e-07 -1.75172e-07 -2.94532e-06
0.00120947 -1.30025e-05 -4.36983e-07
-1.30025e-05 0.000100445 6.37088e-07
-4.36983e-07 6.37088e-07 4.41064e-05
0.00126535 1.98558e-05 6.0378e-07
1.98558e-05 7.54535e-05 1.31484e-06
6.0378e-07 1.31484e-06 1.1112e-05
0.00135485 1.14466e-05 -3.09136e-07
1.14466e-05 8.12711e-05 -1.17745e-06
-3.09136e-07 -1.17745e-06 1.88511e-05
0.00127764 -5.2154e-06 -1.85162e-06
-5.2154e-06 3.97512e-05 -8.53833e-07
-1.85162e-06 -8.53833e-07 -4.99503e-06
0.00137791 -1.65912e-05 -1.07065e-06
-1.65912e-05 9.30079e-05 3.56884e-07
-1.07065e-06 3.56884e-07 4.94674e-05
0.00107592 -1.81798e-05 -4.09344e-08
-1.81798e-05 2.94955e-05 -7.20885e-09
-4.09344e-08 -7.20885e-09 -3.4211e-05
0.00126818 -2.19941e-05 2.74346e-07
-2.19941e-05 9.35315e-05 2.06035e-06
2.74346e-07 2.06035e-06 2.66281e-05
0.00127303 -2.18987e-05 9.18193e-08
-2.18987e-05 0.000124779 -6.08328e-07
9.18193e-08 -6.08328e-07 5.36332e-05
0.00102921 3.7725e-06 7.2966e-07
3.7725e-06 1.9116e-06 -1.66881e-06
7.2966e-07 -1.66881e-06 -2.21254e-05
0.00108308 -1.41611e-06 2.0292e-07
-1.41611e-06 3.25778e-05 -1.07295e-06
2.0292e-07 -1.07295e-06 -8.13949e-06
0.000877805 4.20651e-06 3.51249e-07
4.20651e-06 -6.39435e-05 -1.45144e-06
3.51249e-07 -1.45144e-06 -0.000108314
0.00117794 -8.69157e-06 1.6697e-07
-8.69157e-06 8.66944e-05 -4.30052e-08
1.6697e-07 -4.30052e-08 2.90593e-05
0.00111998 -1.63374e-05 6.06016e-07
-1.63374e-05 5.74199e-05 -4.11458e-07
6.06016e-07 -4.11458e-07 -7.63114e-06
0.00118504 -1.81135e-05 5.22095e-07
-1.81135e-05 8.37157e-05 2.25953e-07
5.22095e-07 2.25953e-07 1.48516e-05
0.00111318 -1.86761e-05 3.1765e-07
-1.86761e-05 4.3331e-05 1.78834e-08
3.1765e-07 1.78834e-08 -2.13687e-05
0.00129384 -2.00658e-05 -9.08505e-08
-2.00658e-05 0.000132984 4.50549e-07
-9.08505e-08 4.50549e-07 6.40905e-05
0.00106983 -1.6166e-06 -8.88747e-07
-1.6166e-06 2.89178e-05 -1.03055e-06
-8.88747e-07 -1.03055e-06 -1.48625e-05
0.00111821 6.59811e-06 -4.74482e-07
6.59811e-06 5.49762e-05 -2.46848e-07
-4.74482e-07 -2.46848e-07 -1.05359e-06
0.00142572 6.4524e-06 7.40631e-07
6.4524e-06 0.000115574 4.76919e-08
7.40631e-07 4.76919e-08 6.89254e-05
0.00113778 1.25902e-05 -6.88961e-07
1.25902e-05 6.71447e-05 7.70816e-08
-6.88961e-07 7.70816e-08 5.36336e-06
0.00120354 1.80251e-05 -4.95797e-07
1.80251e-05 0.000102369 -7.87139e-07
-4.95797e-07 -7.87139e-07 4.0486e-05
0.00108662 1.54046e-05 -5.4366e-07
1.54046e-05 4.15632e-05 -3.50197e-07
-5.4366e-07 -3.50197e-07 -2.24274e-05
0.00131799 2.3797e-05 4.48512e-07
2.3797e-05 0.000110497 3.18651e-07
4.48512e-07 3.18651e-07 4.65328e-05
0.00119524 1.98984e-05 1.36071e-07
1.98984e-05 3.77563e-05 1.76664e-06
1.36071e-07 1.76664e-06 -1.53782e-05
0.00111369 1.96093e-05 1.25871e-07
1.96093e-05 5.74128e-05 5.16992e-08
1.25871e-07 5.16992e-08 -1.38628e-05
0.00114766 2.26285e-05 -1.0378e-06
2.26285e-05 5.11142e-05 -1.78665e-07
-1.0378e-06 -1.78665e-07 -2.54697e-05
0.0010051 6.72594e-06 2.2251e-07
6.72594e-06 -7.00066e-07 3.03519e-07
2.2251e-07 3.03519e-07 -5.73207e-05
0.00109562 1.60691e-05 -2.03344e-07
1.60691e-05 4.58925e-05 -3.49086e-07
-2.03344e-07 -3.49086e-07 -1.85497e-05
0.00117382 1.86886e-05 -1.22567e-07
1.86886e-05 8.55075e-05 -3.64687e-07
-1.22567e-07 -3.64687e-07 1.80578e-05
0.00110907 1.65312e-05 8.4082e-09
1.65312e-05 4.90217e-05 -1.22535e-07
8.4082e-09 -1.22535e-07 -1.75012e-05
0.00143936 -1.00428e-06 3.19196e-07
-1.00428e-06 0.000105736 -6.12102e-07
3.19196e-07 -6.12102e-07 6.09408e-05
0.00124566 1.58853e-05 2.84802e-07
1.58853e-05 2.44035e-05 -2.06863e-10
2.84802e-07 -2.06863e-10 -2.1038e-05
0.0013624 2.51782e-05 -3.20745e-07
2.51782e-05 0.000132669 -5.17532e-08
-3.20745e-07 -5.17532e-08 6.27257e-05
0.0010314 2.1202e-05 1.46779e-07
2.1202e-05 1.08767e-05 1.81716e-07
1.46779e-07 1.81716e-07 -6.78731e-05
0.00116698 1.5611e-05 1.58468e-07
1.5611e-05 8.32737e-05 1.51642e-08
1.58468e-07 1.51642e-08 1.90949e-05
0.00121841 -1.32672e-05 -2.28249e-06
-1.32672e-05 4.01198e-05 -5.07766e-08
-2.28249e-06 -5.07766e-08 -1.26604e-05
0.00125352 1.85833e-05 5.58496e-07
1.85833e-05 0.000122527 2.99433e-07
5.58496e-07 2.99433e-07 5.22704e-05
0.00118363 2.0401e-05 2.88151e-07
2.0401e-05 8.60122e-05 3.24678e-07
2.88151e-07 3.24678e-07 1.29061e-05
0.00171322 1.16177e-05 7.47899e-07
1.16177e-05 0.000205035 -9.84265e-07
7.47899e-07 -9.84265e-07 0.000172681
0.00113387 2.45085e-05 1.98329e-06
2.45085e-05 -1.04834e-05 -1.61349e-06
1.98329e-06 -1.61349e-06 -7.69238e-05
0.0013369 2.53146e-05 3.00013e-07
2.53146e-05 0.000150737 7.28119e-07
3.00013e-07 7.28119e-07 6.85117e-05
0.00115868 4.6137e-06 -3.07191e-07
4.6137e-06 7.51976e-05 -2.94177e-07
-3.07191e-07 -2.94177e-07 2.03336e-05
0.00114564 1.26088e-05 -3.64049e-08
1.26088e-05 7.36724e-05 -7.38747e-08
-3.64049e-08 -7.38747e-08 1.07145e-05
0.00115242 1.54214e-05 2.18294e-07
1.54214e-05 7.92232e-05 2.66431e-08
2.18294e-07 2.66431e-08 1.09841e-05
0.00107757 -4.08873e-07 -2.86494e-07
-4.08873e-07 3.03474e-05 -9.96621e-07
-2.86494e-07 -9.96621e-07 -1.13353e-05
0.0010998 4.45658e-06 -1.54297e-07
4.45658e-06 4.61437e-05 -2.70681e-07
-1.54297e-07 -2.70681e-07 -7.28333e-06
0.00105412 7.38355e-06 -2.68446e-07
7.38355e-06 2.75536e-05 -7.56281e-07
-2.68446e-07 -7.56281e-07 -3.50767e-05
0.00107428 -3.53616e-06 6.72003e-08
-3.53616e-06 2.86151e-05 6.32448e-09
6.72003e-08 6.32448e-09 -1.32277e-05
0.000995642 4.17906e-06 4.35829e-08
4.17906e-06 -4.91672e-06 3.2238e-07
4.35829e-08 3.2238e-07 -5.88524e-05
0.00113421 1.05124e-05 -2.79999e-08
1.05124e-05 6.7259e-05 -2.95133e-07
-2.79999e-08 -2.95133e-07 -3.51962e-07
0.00112999 3.75933e-06 7.6919e-08
3.75933e-06 6.41791e-05 2.9053e-07
7.6919e-08 2.9053e-07 2.69656e-06
0.00116488 1.53789e-05 5.5436e-08
1.53789e-05 8.10832e-05 -2.57974e-07
5.5436e-08 -2.57974e-07 1.05774e-05
0.00109094 7.5612e-07 1.88976e-07
7.5612e-07 4.33585e-05 3.4831e-07
1.88976e-07 3.4831e-07 -2.45872e-05
0.00114607 1.0347e-05 1.82314e-07
1.0347e-05 7.0655e-05 3.6088e-07
1.82314e-07 3.6088e-07 9.59441e-06
0.00109583 2.62871e-06 2.44108e-07
2.62871e-06 4.45007e-05 5.96116e-07
2.44108e-07 5.96116e-07 -9.0895e-06
0.00107334 -4.7935e-06 6.62782e-08
-4.7935e-06 2.80639e-05 9.70295e-07
6.62782e-08 9.70295e-07 -1.41082e-05
0.00104107 -2.33665e-07 3.94621e-08
-2.33665e-07 3.40766e-06 1.73287e-06
3.94621e-08 1.73287e-06 -2.11797e-05
0.00104177 -1.37752e-06 4.36851e-08
-1.37752e-06 4.2349e-06 5.29178e-09
4.36851e-08 5.29178e-09 -2.01894e-05
0.00151992 -1.98479e-06 3.41019e-07
-1.98479e-06 0.000228485 1.86052e-06
3.41019e-07 1.86052e-06 0.000233921
0.00104205 -2.33891e-06 -3.34247e-07
-2.33891e-06 5.51548e-06 -1.75524e-06
-3.34247e-07 -1.75524e-06 -1.88247e-05
0.00154053 -3.45518e-06 -4.25889e-07
-3.45518e-06 0.000240384 -1.16297e-06
-4.25889e-07 -1.16297e-06 0.000245559
0.00122127 -3.82843e-06 2.31743e-06
-3.82843e-06 8.06484e-05 6.10996e-06
2.31743e-06 6.10996e-06 9.9718e-05
0.00155651 -4.7977e-06 -1.82186e-06
-4.7977e-06 0.000250726 -4.17012e-06
-1.82186e-06 -4.17012e-06 0.00025548
0.00117048 -5.51999e-06 9.62994e-07
-5.51999e-06 5.87587e-05 2.32283e-06
9.62994e-07 2.32283e-06 7.76585e-05
0.00111666 -7.11965e-06 -1.04693e-06
-7.11965e-06 3.59114e-05 -1.43731e-06
-1.04693e-06 -1.43731e-06 5.45317e-05
0.00103447 3.10981e-06 4.90709e-07
3.10981e-06 2.54068e-06 -1.70678e-06
4.90709e-07 -1.70678e-06 -2.03222e-05
0.000962079 5.74416e-06 1.1727e-06
5.74416e-06 -3.83506e-05 -2.91263e-06
1.1727e-06 -2.91263e-06 -3.58857e-05
0.000967846 7.01586e-06 -5.11731e-08
7.01586e-06 -3.2398e-05 -1.50938e-09
-5.11731e-08 -1.50938e-09 -3.09505e-05
0.00231046 9.44881e-06 4.40807e-06
9.44881e-06 0.000619211 -3.67609e-06
4.40807e-06 -3.67609e-06 0.000642656
0.000974062 8.23131e-06 -1.90938e-06
8.23131e-06 -2.55124e-05 2.80943e-06
-1.90938e-06 2.80943e-06 -2.52182e-05
0.00231981 1.12934e-05 -1.8497e-07
1.12934e-05 0.000628518 -3.00242e-08
-1.8497e-07 -3.00242e-08 0.00065106
0.00233032 1.29849e-05 -5.99507e-06
1.29849e-05 0.000638416 3.58913e-06
-5.99507e-06 3.58913e-06 0.000660045
0.00116354 -6.2763e-06 1.15085e-06
-6.2763e-06 -2.16762e-06 -4.3448e-07
1.15085e-06 -4.3448e-07 -5.25209e-05
0.00114313 -1.5787e-05 2.52074e-07
-1.5787e-05 1.91005e-05 -7.27459e-07
2.52074e-07 -7.27459e-07 -4.44738e-05
0.00123357 -1.40558e-05 -5.17361e-07
-1.40558e-05 8.80359e-05 1.42242e-06
-5.17361e-07 1.42242e-06 2.32664e-05
0.00118174 1.07856e-05 3.26661e-08
1.07856e-05 6.55531e-05 -7.41815e-07
3.26661e-08 -7.41815e-07 2.30647e-06
0.00117266 5.35868e-06 1.17841e-07
5.35868e-06 6.60869e-05 -3.93424e-07
1.17841e-07 -3.93424e-07 3.40538e-06
0.00114063 -1.84607e-05 -9.56338e-08
-1.84607e-05 5.25242e-05 3.49727e-07
-9.56338e-08 3.49727e-07 -1.4994e-05
0.00125626 -1.17245e-05 -4.29289e-07
-1.17245e-05 5.4575e-05 2.67823e-07
-4.29289e-07 2.67823e-07 -5.38744e-08
0.00117101 1.872e-06 7.31683e-07
1.872e-06 6.68762e-05 -1.25485e-06
7.31683e-07 -1.25485e-06 2.59358e-06
0.0010437 -1.71799e-05 -1.49222e-06
-1.71799e-05 -7.18602e-06 9.77084e-07
-1.49222e-06 9.77084e-07 -7.11931e-05
0.00130869 -1.99558e-05 -1.03222e-06
-1.99558e-05 0.000128828 -2.8416e-07
-1.03222e-06 -2.8416e-07 8.26413e-05
0.00123714 1.89288e-05 1.2261e-07
1.89288e-05 6.59879e-05 -3.3703e-07
1.2261e-07 -3.3703e-07 4.94265e-07
0.00130389 1.29562e-05 1.65313e-07
1.29562e-05 6.08118e-05 5.50445e-07
1.65313e-07 5.50445e-07 -4.17416e-06
0.00126711 -5.50985e-07 7.11164e-07
-5.50985e-07 4.86365e-05 7.15435e-07
7.11164e-07 7.15435e-07 -7.61764e-06
0.00115592 -1.74e-05 -2.27581e-07
-1.74e-05 6.58766e-05 1.93581e-07
-2.27581e-07 1.93581e-07 7.23145e-06
0.00111969 -1.92591e-05 -6.29526e-08
-1.92591e-05 5.32553e-05 6.52302e-07
-6.29526e-08 6.52302e-07 -1.2497e-05
0.00122659 -2.12774e-05 -2.42567e-07
-2.12774e-05 8.86551e-05 -2.651e-08
-2.42567e-07 -2.651e-08 1.96889e-05
0.00133877 -1.14996e-05 2.19424e-06
-1.14996e-05 8.59403e-05 2.5322e-07
2.19424e-06 2.5322e-07 3.89656e-05
0.00119812 -1.88029e-05 -5.19302e-07
-1.88029e-05 3.1069e-05 -1.81956e-06
-5.19302e-07 -1.81956e-06 -2.25348e-05
0.0011039 -1.76531e-05 -4.88975e-07
-1.76531e-05 3.75315e-05 5.38006e-08
-4.88975e-07 5.38006e-08 -2.43294e-05
0.00117752 -1.84536e-05 -4.51111e-07
-1.84536e-05 7.28678e-05 -2.14619e-07
-4.51111e-07 -2.14619e-07 7.92218e-06
0.00113816 -1.66024e-05 -2.21346e-07
-1.66024e-05 6.52417e-05 -7.24831e-08
-2.21346e-07 -7.24831e-08 1.07373e-06
0.00102957 4.8411e-06 -7.40686e-07
4.8411e-06 4.21149e-06 1.07975e-06
-7.40686e-07 1.07975e-06 -2.08816e-05
0.00114847 2.28544e-06 -6.70932e-07
2.28544e-06 6.86921e-05 1.14571e-06
-6.70932e-07 1.14571e-06 2.40186e-05
0.00115754 -1.30455e-05 -1.02479e-06
-1.30455e-05 7.45985e-05 1.06741e-06
-1.02479e-06 1.06741e-06 1.78989e-05
0.00119825 1.91778e-05 8.03181e-08
1.91778e-05 4.21169e-05 3.88158e-07
8.03181e-08 3.88158e-07 -2.27203e-05
0.00103386 3.76719e-06 -4.29064e-08
3.76719e-06 4.06905e-06 -8.80595e-09
-4.29064e-08 -8.80595e-09 -1.99834e-05
0.000989589 3.75757e-07 -2.04116e-07
3.75757e-07 -1.27735e-05 -2.04549e-08
-2.04116e-07 -2.04549e-08 -5.39617e-05
0.00134668 1.12948e-05 9.10882e-08
1.12948e-05 7.73196e-05 4.05873e-07
9.10882e-08 4.05873e-07 1.52834e-05
0.00124184 -5.62728e-06 -1.43313e-07
-5.62728e-06 2.50668e-05 -1.8866e-07
-1.43313e-07 -1.8866e-07 -2.1452e-05
0.00107179 -1.80873e-05 -9.44684e-08
-1.80873e-05 2.74129e-05 2.84894e-07
-9.44684e-08 2.84894e-07 -3.59878e-05
0.00121779 -2.15788e-05 -1.30554e-07
-2.15788e-05 9.86108e-05 1.18318e-07
-1.30554e-07 1.18318e-07 2.70286e-05
0.00117384 -2.11161e-05 3.88245e-07
-2.11161e-05 4.69801e-05 2.99916e-07
3.88245e-07 2.99916e-07 -1.93203e-05
0.00134656 -1.69449e-05 8.51267e-08
-1.69449e-05 7.76953e-05 -4.58237e-07
8.51267e-08 -4.58237e-07 3.40574e-05
0.0011088 2.77491e-06 1.15505e-07
2.77491e-06 4.80788e-05 -4.31034e-07
1.15505e-07 -4.31034e-07 5.11313e-06
0.00116561 -7.68484e-06 -2.18164e-07
-7.68484e-06 8.12062e-05 4.31708e-07
-2.18164e-07 4.31708e-07 2.34167e-05
0.00115526 -1.89434e-05 2.19649e-07
-1.89434e-05 6.32001e-05 5.93249e-09
2.19649e-07 5.93249e-09 -1.40491e-06
0.00120914 -1.95089e-05 -4.02888e-07
-1.95089e-05 9.10012e-05 5.92549e-09
-4.02888e-07 5.92549e-09 2.25905e-05
0.00113442 -1.78032e-05 1.15741e-07
-1.78032e-05 5.89262e-05 1.05837e-07
1.15741e-07 1.05837e-07 -1.0554e-05
0.00112993 -1.63962e-05 2.39722e-07
-1.63962e-05 6.21617e-05 -2.84142e-07
2.39722e-07 -2.84142e-07 -2.63631e-06
0.00136455 2.07722e-05 1.16699e-06
2.07722e-05 0.000117649 4.17062e-07
1.16699e-06 4.17062e-07 4.65767e-05
0.0013481 7.32984e-06 -1.03976e-06
7.32984e-06 6.97735e-05 -1.60936e-06
-1.03976e-06 -1.60936e-06 1.75466e-05
0.00133583 -1.24055e-05 -2.82885e-06
-1.24055e-05 4.76616e-05 -1.22655e-09
-2.82885e-06 -1.22655e-09 1.65e-05
0.00131061 -2.2064e-05 3.19769e-08
-2.2064e-05 8.45335e-05 1.77143e-06
3.19769e-08 1.77143e-06 2.90161e-05
0.00111272 -1.95594e-05 -1.17618e-07
-1.95594e-05 5.03293e-05 -3.57304e-07
-1.17618e-07 -3.57304e-07 -1.69808e-05
0.00135457 -2.41334e-05 -3.32927e-07
-2.41334e-05 0.000160895 2.20791e-07
-3.32927e-07 2.20791e-07 8.60017e-05
0.000903152 1.48397e-06 1.90377e-07
1.48397e-06 -5.60403e-05 -1.48592e-06
1.90377e-07 -1.48592e-06 -9.63287e-05
0.00107256 -1.17533e-06 5.3219e-07
-1.17533e-06 2.87179e-05 -9.86171e-07
5.3219e-07 -9.86171e-07 -1.30082e-05
0.00128216 -5.74921e-07 -2.95772e-08
-5.74921e-07 0.000135562 -5.46127e-08
-2.95772e-08 -5.46127e-08 8.31972e-05
0.000946334 -9.29433e-07 2.61926e-07
-9.29433e-07 -2.33172e-05 -6.48807e-07
2.61926e-07 -6.48807e-07 -8.19382e-05
0.0012251 -1.48946e-05 4.57312e-07
-1.48946e-05 0.000109833 1.15995e-08
4.57312e-07 1.15995e-08 4.45906e-05
0.00103795 -1.6989e-05 1.33565e-07
-1.6989e-05 1.50009e-05 -1.00523e-07
1.33565e-07 -1.00523e-07 -5.75161e-05
0.00124576 -1.95821e-05 5.83982e-07
-1.95821e-05 0.000115872 2.44838e-07
5.83982e-07 2.44838e-07 4.14943e-05
0.00112185 -2.0168e-05 -5.00153e-08
-2.0168e-05 5.38136e-05 2.87658e-07
-5.00153e-08 2.87658e-07 -1.51411e-05
0.00100193 6.66253e-06 -3.64617e-07
6.66253e-06 -1.94882e-06 -3.18976e-07
-3.64617e-07 -3.18976e-07 -5.86794e-05
0.00115418 1.53385e-05 -1.01718e-06
1.53385e-05 7.41452e-05 -4.63266e-07
-1.01718e-06 -4.63266e-07 1.036e-05
0.00128967 -9.10491e-07 3.13975e-07
-9.10491e-07 3.32192e-05 -1.30724e-06
3.13975e-07 -1.30724e-06 -1.16632e-05
0.00117758 1.53482e-05 1.63545e-07
1.53482e-05 -1.59791e-06 8.45116e-07
1.63545e-07 8.45116e-07 -4.8392e-05
0.00121587 1.69436e-05 -6.72394e-07
1.69436e-05 9.9907e-05 -1.21297e-07
-6.72394e-07 -1.21297e-07 3.36584e-05
0.00120386 1.88028e-05 -4.39735e-07
1.88028e-05 0.000100696 -7.73679e-07
-4.39735e-07 -7.73679e-07 3.37183e-05
0.00152409 2.60441e-05 -2.07631e-07
2.60441e-05 0.0002085 5.84839e-07
-2.07631e-07 5.84839e-07 0.000139326
0.00110162 2.19262e-05 -3.22197e-07
2.19262e-05 4.18808e-05 -4.21615e-07
-3.22197e-07 -4.21615e-07 -3.69207e-05
0.00114622 1.58913e-05 -2.25934e-07
1.58913e-05 7.33502e-05 -3.04528e-07
-2.25934e-07 -3.04528e-07 9.15026e-06
0.00109084 -1.22662e-05 -2.74815e-07
-1.22662e-05 -1.19674e-05 7.34119e-07
-2.74815e-07 7.34119e-07 -6.09383e-05
0.00117621 1.8132e-05 1.40508e-07
1.8132e-05 8.48587e-05 2.76438e-07
1.40508e-07 2.76438e-07 1.47206e-05
0.00109967 1.98055e-05 1.43092e-07
1.98055e-05 4.442e-05 -1.53654e-08
1.43092e-07 -1.53654e-08 -2.92147e-05
0.00140031 9.68298e-06 5.14664e-07
9.68298e-06 6.45538e-05 -3.3718e-07
5.14664e-07 -3.3718e-07 3.0779e-05
0.0014002 2.63295e-05 5.56285e-07
2.63295e-05 0.000112131 -4.80285e-07
5.56285e-07 -4.80285e-07 4.61463e-05
0.00135915 2.56823e-05 3.09706e-07
2.56823e-05 0.000162091 4.75113e-07
3.09706e-07 4.75113e-07 7.90743e-05
0.00121499 1.68389e-05 1.46503e-07
1.68389e-05 0.000109933 9.68392e-08
1.46503e-07 9.68392e-08 3.95795e-05
0.00130104 -1.57456e-06 3.56764e-07
-1.57456e-06 2.45272e-05 -2.6843e-06
3.56764e-07 -2.6843e-06 -7.64364e-06
0.00134227 2.02025e-05 7.54175e-08
2.02025e-05 0.000161363 -1.09447e-07
7.54175e-08 -1.09447e-07 8.75078e-05
0.00145988 2.50021e-05 -3.82826e-07
2.50021e-05 0.000215972 8.02171e-07
-3.82826e-07 8.02171e-07 0.000133768
0.00111679 2.68989e-05 3.06372e-06
2.68989e-05 -9.35853e-05 -1.24868e-06
3.06372e-06 -1.24868e-06 -0.000148857
0.00106576 2.69551e-05 6.96055e-07
2.69551e-05 4.11804e-06 3.15006e-07
6.96055e-07 3.15006e-07 -8.25674e-05
0.00166383 -5.04202e-05 -7.5076e-06
-5.04202e-05 -0.000133293 -7.55784e-06
-7.5076e-06 -7.55784e-06 -9.80707e-05
0.00113883 1.27231e-05 -2.88079e-07
1.27231e-05 7.07545e-05 -4.03224e-07
-2.88079e-07 -4.03224e-07 7.77897e-06
0.0011402 1.5293e-05 -4.01048e-08
1.5293e-05 7.413e-05 -6.67088e-08
-4.01048e-08 -6.67088e-08 5.83163e-06
0.00121251 1.59779e-05 9.13647e-08
1.59779e-05 0.000107541 -2.79174e-07
9.13647e-08 -2.79174e-07 3.629e-05
0.0010786 -3.99113e-06 -1.08873e-07
-3.99113e-06 3.07542e-05 -9.84088e-07
-1.08873e-07 -9.84088e-07 -1.11173e-05
0.000994376 -5.56986e-07 -1.63992e-07
-5.56986e-07 -5.45301e-06 -2.78342e-07
-1.63992e-07 -2.78342e-07 -5.9358e-05
0.00122986 8.41587e-06 -1.45701e-07
8.41587e-06 0.000112965 -1.27737e-07
-1.45701e-07 -1.27737e-07 5.21081e-05
0.00108398 8.87847e-06 -3.2739e-07
8.87847e-06 4.27886e-05 -5.6306e-07
-3.2739e-07 -5.6306e-07 -2.53202e-05
0.00107502 -5.32681e-06 4.10238e-08
-5.32681e-06 2.88938e-05 1.06187e-08
4.10238e-08 1.06187e-08 -1.32989e-05
0.00104443 3.53937e-06 8.67134e-08
3.53937e-06 1.93312e-05 1.3679e-08
8.67134e-08 1.3679e-08 -3.46284e-05
0.00113686 1.50947e-05 -2.07529e-07
1.50947e-05 6.73519e-05 -3.39435e-07
-2.07529e-07 -3.39435e-07 -3.17997e-06
0.00114733 5.73684e-06 -3.70725e-08
5.73684e-06 7.12566e-05 -4.02583e-08
-3.70725e-08 -4.02583e-08 1.01925e-05
0.00115264 1.77806e-06 8.03311e-08
1.77806e-06 7.41623e-05 -1.10707e-08
8.03311e-08 -1.10707e-08 6.68279e-06
0.00113015 9.01504e-06 8.24189e-08
9.01504e-06 6.00774e-05 2.01423e-07
8.24189e-08 2.01423e-07 -1.15882e-05
0.0011999 1.04295e-05 5.47689e-08
1.04295e-05 9.69662e-05 -3.38004e-08
5.47689e-08 -3.38004e-08 3.04099e-05
0.00123069 1.22186e-05 9.43283e-08
1.22186e-05 0.000111003 8.50884e-08
9.43283e-08 8.50884e-08 5.00504e-05
0.000970696 2.76305e-07 4.41883e-08
2.76305e-07 -1.60273e-05 5.76814e-07
4.41883e-08 5.76814e-07 -7.09907e-05
0.000900039 -7.10065e-07 -3.64554e-08
-7.10065e-07 -5.59162e-05 1.31815e-06
-3.64554e-08 1.31815e-06 -9.94071e-05
0.00126369 1.47371e-06 -2.5757e-08
1.47371e-06 0.000127094 1.97493e-07
-2.5757e-08 1.97493e-07 7.35556e-05
0.00090716 4.30646e-07 -2.28656e-07
4.30646e-07 -5.23099e-05 1.32378e-06
-2.28656e-07 1.32378e-06 -9.57938e-05
0.00104162 9.40734e-07 -1.51839e-07
9.40734e-07 3.79878e-06 1.70877e-06
-1.51839e-07 1.70877e-06 -2.09061e-05
0.00104192 -2.55948e-07 4.63239e-08
-2.55948e-07 3.81653e-06 4.91464e-09
4.63239e-08 4.91464e-09 -2.07729e-05
0.000981841 -2.76559e-07 7.98771e-08
-2.76559e-07 -3.50992e-05 3.00088e-06
7.98771e-08 3.00088e-06 -3.24473e-05
0.00104295 -1.40194e-06 -1.41356e-07
-1.40194e-06 4.85389e-06 -1.73463e-06
-1.41356e-07 -1.73463e-06 -1.9585e-05
0.00126138 -1.83805e-06 -2.36383e-07
-1.83805e-06 0.000102287 -1.18296e-06
-2.36383e-07 -1.18296e-06 0.000106271
0.00229609 -2.32585e-06 1.17678e-06
-2.32585e-06 0.00060352 3.80156e-06
1.17678e-06 3.80156e-06 0.000628344
0.00155971 -3.36835e-06 -1.09556e-06
-3.36835e-06 0.000249803 -4.17773e-06
-1.09556e-06 -4.17773e-06 0.000254858
0.00117309 -3.87273e-06 5.37797e-07
-3.87273e-06 5.7115e-05 2.32342e-06
5.37797e-07 2.32342e-06 7.64302e-05
0.00112162 -5.4912e-06 -7.69725e-07
-5.4912e-06 3.48339e-05 -1.45466e-06
-7.69725e-07 -1.45466e-06 5.39869e-05
0.00103719 2.26342e-06 3.30553e-07
2.26342e-06 1.98906e-06 -1.76847e-06
3.30553e-07 -1.76847e-06 -1.97145e-05
0.00103789 3.08725e-06 -7.08396e-08
3.08725e-06 4.12181e-06 -5.84623e-09
-7.08396e-08 -5.84623e-09 -1.87505e-05
0.000968418 4.4384e-06 8.53541e-07
4.4384e-06 -3.79211e-05 -2.93863e-06
8.53541e-07 -2.93863e-06 -3.44561e-05
0.00125169 5.95399e-06 -1.98177e-07
5.95399e-06 0.000102879 2.16295e-08
-1.98177e-07 2.16295e-08 0.000106586
0.00228825 7.58326e-06 3.65363e-06
7.58326e-06 0.000604785 -3.69953e-06
3.65363e-06 -3.69953e-06 0.000629008
0.000980022 7.00683e-06 -1.62658e-06
7.00683e-06 -2.66127e-05 2.84095e-06
-1.62658e-06 2.84095e-06 -2.52222e-05
0.00229549 9.4954e-06 -1.88034e-07
9.4954e-06 0.000612457 -2.46601e-08
-1.88034e-07 -2.46601e-08 0.000635869
0.00230657 1.12965e-05 -5.36605e-06
1.12965e-05 0.000622584 3.65838e-06
-5.36605e-06 3.65838e-06 0.000645073
0.00123647 -1.16273e-05 3.66382e-07
-1.16273e-05 4.76666e-05 -8.16679e-07
3.66382e-07 -8.16679e-07 -5.73395e-06
0.00118448 -1.86828e-05 2.81522e-07
-1.86828e-05 7.42193e-05 1.17604e-06
2.81522e-07 1.17604e-06 6.12912e-06
0.00121766 4.92247e-06 -2.21745e-08
4.92247e-06 8.96855e-05 -5.53656e-07
-2.21745e-08 -5.53656e-07 2.77067e-05
0.00118019 1.31979e-06 -3.0434e-07
1.31979e-06 7.11322e-05 -1.00306e-06
-3.0434e-07 -1.00306e-06 6.96604e-06
0.00112401 -1.73944e-05 -4.41509e-08
-1.73944e-05 3.12824e-05 1.72271e-07
-4.41509e-08 1.72271e-07 -3.28199e-05
0.00113923 -1.99041e-05 1.30898e-06
-1.99041e-05 7.08037e-05 1.72055e-07
1.30898e-06 1.72055e-07 2.58633e-05
0.00134727 -2.73609e-06 -9.54123e-07
-2.73609e-06 0.000145403 1.52167e-06
-9.54123e-07 1.52167e-06 8.01808e-05
0.000963848 -4.42315e-05 -8.38621e-06
-4.42315e-05 -5.51326e-05 -6.0105e-06
-8.38621e-06 -6.0105e-06 -5.33658e-05
0.0010083 -6.51126e-06 -1.25663e-06
-6.51126e-06 4.78209e-05 1.91578e-07
-1.25663e-06 1.91578e-07 1.65742e-05
0.00107318 -1.34567e-08 -1.86145e-07
-1.34567e-08 2.51481e-05 -9.99306e-07
-1.86145e-07 -9.99306e-07 -1.2578e-05
0.00112949 1.85018e-05 -5.86471e-07
1.85018e-05 7.98552e-06 -1.87817e-07
-5.86471e-07 -1.87817e-07 -5.73424e-05
0.00134267 1.11272e-05 6.16318e-07
1.11272e-05 7.5428e-05 1.16928e-06
6.16318e-07 1.16928e-06 1.37583e-05
0.00119197 -6.01849e-06 1.6197e-06
-6.01849e-06 3.78393e-06 8.13113e-07
1.6197e-06 8.13113e-07 -4.4488e-05
0.00107079 -1.80217e-05 -1.69703e-07
-1.80217e-05 2.68465e-05 4.30192e-07
-1.69703e-07 4.30192e-07 -3.62574e-05
0.00116185 -2.12557e-05 6.68742e-08
-2.12557e-05 7.21205e-05 8.53868e-07
6.68742e-08 8.53868e-07 1.01133e-07
0.00107926 -2.02659e-05 -2.63317e-08
-2.02659e-05 3.03645e-07 -1.02542e-06
-2.63317e-08 -1.02542e-06 -6.53881e-05
0.0013029 -1.72196e-05 1.02094e-06
-1.72196e-05 5.68335e-05 -1.80245e-06
1.02094e-06 -1.80245e-06 1.3084e-05
0.00119939 -1.92207e-05 1.65375e-07
-1.92207e-05 8.40857e-05 -2.28631e-07
1.65375e-07 -2.28631e-07 1.95673e-05
0.00112204 -1.89375e-05 -9.98007e-07
-1.89375e-05 4.7928e-05 -5.87577e-07
-9.98007e-07 -5.87577e-07 -2.00021e-05
0.00108209 -1.74828e-05 -5.07959e-07
-1.74828e-05 3.33332e-05 -7.25574e-08
-5.07959e-07 -7.25574e-08 -3.67615e-05
0.00103825 3.75665e-06 -8.16262e-07
3.75665e-06 6.10476e-06 1.65206e-06
-8.16262e-07 1.65206e-06 -1.79626e-05
0.00114248 -1.6479e-05 -6.31648e-08
-1.6479e-05 6.81435e-05 3.85541e-09
-6.31648e-08 3.85541e-09 3.5941e-06
0.00133911 1.60463e-06 -3.64977e-07
1.60463e-06 0.000159762 5.45661e-07
-3.64977e-07 5.45661e-07 0.000118205
0.00115681 -8.11165e-06 -6.92337e-07
-8.11165e-06 7.73117e-05 8.47444e-07
-6.92337e-07 8.47444e-07 1.9396e-05
0.000896859 1.17995e-06 -4.78139e-07
1.17995e-06 -5.77791e-05 9.99763e-07
-4.78139e-07 9.99763e-07 -9.94446e-05
0.00131285 2.04686e-05 1.5344e-07
2.04686e-05 8.66259e-05 1.72072e-07
1.5344e-07 1.72072e-07 1.51104e-05
0.000990165 9.82044e-07 6.74597e-08
9.82044e-07 -1.40417e-05 -4.51424e-07
6.74597e-08 -4.51424e-07 -5.36149e-05
0.00107572 -1.52751e-06 7.06381e-08
-1.52751e-06 3.02553e-05 1.05599e-08
7.06381e-08 1.05599e-08 -1.14891e-05
0.0011485 -1.36061e-07 -1.18968e-07
-1.36061e-07 7.07377e-05 4.39095e-07
-1.18968e-07 4.39095e-07 1.73254e-05
0.00136473 7.4744e-06 3.64028e-07
7.4744e-06 7.87727e-05 2.68236e-07
3.64028e-07 2.68236e-07 2.63858e-05
0.00129032 -1.31396e-05 8.63436e-08
-1.31396e-05 2.64949e-05 -9.23572e-07
8.63436e-08 -9.23572e-07 -7.14396e-06
0.00113733 -1.97237e-05 4.45494e-08
-1.97237e-05 6.07956e-05 7.9059e-08
4.45494e-08 7.9059e-08 -6.26888e-06
0.00117571 -2.29455e-05 2.78811e-07
-2.29455e-05 7.76448e-05 3.73758e-08
2.78811e-07 3.73758e-08 2.89285e-06
0.00120738 -2.13473e-05 -1.76071e-07
-2.13473e-05 3.60747e-05 2.91083e-07
-1.76071e-07 2.91083e-07 -1.89866e-05
0.00103206 -1.74917e-06 -3.02838e-08
-1.74917e-06 1.8281e-05 3.10697e-08
-3.02838e-08 3.10697e-08 -3.95642e-05
0.00121318 -1.50821e-05 1.44359e-07
-1.50821e-05 0.000103387 4.55716e-08
1.44359e-07 4.55716e-08 3.78972e-05
0.00112948 -2.01846e-05 -1.90459e-07
-2.01846e-05 5.70428e-05 -7.77322e-08
-1.90459e-07 -7.77322e-08 -1.19515e-05
0.00120655 -1.92132e-05 6.20053e-09
-1.92132e-05 9.62895e-05 1.75533e-08
6.20053e-09 1.75533e-08 2.29429e-05
0.0011119 -1.74594e-05 -3.79094e-07
-1.74594e-05 5.12784e-05 3.1369e-07
-3.79094e-07 3.1369e-07 -2.08882e-05
0.00135366 2.19702e-05 3.05478e-07
2.19702e-05 9.86172e-05 -1.1104e-06
3.05478e-07 -1.1104e-06 2.54076e-05
0.00125756 -1.88659e-06 -2.67557e-06
-1.88659e-06 -5.46267e-06 -2.16146e-06
-2.67557e-06 -2.16146e-06 -3.27111e-05
0.00141608 -2.18169e-05 -1.42265e-06
-2.18169e-05 8.7597e-05 2.08168e-06
-1.42265e-06 2.08168e-06 4.67609e-05
0.00143926 -2.60835e-05 2.77801e-07
-2.60835e-05 0.000184935 3.25459e-07
2.77801e-07 3.25459e-07 0.00011439
0.00104582 -2.1401e-05 -3.37516e-07
-2.1401e-05 2.76678e-05 -4.16398e-07
-3.37516e-07 -4.16398e-07 -4.36933e-05
0.000912369 8.54251e-06 9.87456e-09
8.54251e-06 -4.4303e-05 -8.2754e-07
9.87456e-09 -8.2754e-07 -9.67991e-05
0.000945701 -1.55252e-06 3.27411e-07
-1.55252e-06 -2.62642e-05 -5.2851e-07
3.27411e-07 -5.2851e-07 -8.25527e-05
0.0011563 7.13905e-06 -4.33902e-09
7.13905e-06 8.239e-05 2.31622e-07
-4.33902e-09 2.31622e-07 2.0034e-05
0.00118593 -1.49469e-05 4.54465e-07
-1.49469e-05 9.45023e-05 -3.2634e-07
4.54465e-07 -3.2634e-07 2.62123e-05
0.00105965 -1.67331e-05 -2.87606e-08
-1.67331e-05 2.60918e-05 3.00714e-07
-2.87606e-08 3.00714e-07 -4.5147e-05
0.00124507 -1.94071e-05 8.70056e-07
-1.94071e-05 0.000119493 -2.97457e-07
8.70056e-07 -2.97457e-07 4.09796e-05
0.00115701 -2.09773e-05 7.04653e-07
-2.09773e-05 7.60289e-05 4.77895e-07
7.04653e-07 4.77895e-07 -3.44194e-07
0.00112325 1.57425e-05 -5.25916e-07
1.57425e-05 6.2462e-05 -6.55416e-07
-5.25916e-07 -6.55416e-07 -1.75636e-06
0.00110213 1.7714e-05 -2.50277e-07
1.7714e-05 4.87918e-05 2.21353e-07
-2.50277e-07 2.21353e-07 -2.12399e-05
0.00095425 -1.12289e-05 2.27105e-06
-1.12289e-05 -6.78889e-05 1.06372e-06
2.27105e-06 1.06372e-06 -0.000113071
0.00108134 7.75279e-06 1.68085e-06
7.75279e-06 -7.8322e-05 -2.4711e-07
1.68085e-06 -2.4711e-07 -0.000113552
0.00167227 2.81804e-05 -3.96697e-07
2.81804e-05 0.000237577 5.49393e-07
-3.96697e-07 5.49393e-07 0.000172025
0.00100746 1.91652e-05 -5.72332e-08
1.91652e-05 -1.14643e-06 -1.77976e-07
-5.72332e-08 -1.77976e-07 -7.52911e-05
0.00136333 2.59226e-05 -2.8092e-07
2.59226e-05 0.000164758 1.20717e-07
-2.8092e-07 1.20717e-07 8.09794e-05
0.00120651 1.67677e-05 1.5988e-08
1.67677e-05 0.000105864 2.02638e-08
1.5988e-08 2.02638e-08 3.58925e-05
0.00113294 -1.88414e-06 -1.34919e-06
-1.88414e-06 -4.37944e-05 6.60055e-08
-1.34919e-06 6.60055e-08 -7.46552e-05
0.00120763 1.92333e-05 -6.78217e-08
1.92333e-05 9.74036e-05 1.6933e-08
-6.78217e-08 1.6933e-08 2.35243e-05
0.00125609 2.33613e-05 -1.55245e-07
2.33613e-05 0.000121 2.02888e-07
-1.55245e-07 2.02888e-07 3.86432e-05
0.00137099 2.64514e-05 1.56876e-06
2.64514e-05 2.52337e-05 -1.0682e-06
1.56876e-06 -1.0682e-06 -2.70708e-05
0.00120557 2.81588e-05 -2.62287e-07
2.81588e-05 7.3046e-05 7.4797e-07
-2.62287e-07 7.4797e-07 -1.4854e-05
0.00188419 -4.29626e-05 -9.59914e-07
-4.29626e-05 5.94974e-05 5.10324e-07
-9.59914e-07 5.10324e-07 7.76587e-05
0.00121359 1.6975e-05 -2.33747e-07
1.6975e-05 0.000110066 -3.9132e-07
-2.33747e-07 -3.9132e-07 3.63593e-05
0.00104833 2.94238e-05 5.7395e-06
2.94238e-05 -0.000203819 2.30012e-06
5.7395e-06 2.30012e-06 -0.000259552
0.00125763 2.043e-05 -8.39252e-07
2.043e-05 0.00012927 -3.06285e-07
-8.39252e-07 -3.06285e-07 5.1004e-05
0.00129391 2.62502e-05 -1.20514e-06
2.62502e-05 0.000159365 1.40353e-06
-1.20514e-06 1.40353e-06 6.43271e-05
0.000672249 3.37925e-05 1.32284e-06
3.37925e-05 -0.000230942 -7.78503e-07
1.32284e-06 -7.78503e-07 -0.00032077
0.00522899 3.61335e-05 -6.35281e-06
3.61335e-05 0.00166189 -1.0203e-06
-6.35281e-06 -1.0203e-06 0.00140877
0.000423098 -1.95416e-05 3.03553e-05
-1.95416e-05 -0.000213498 1.24494e-05
3.03553e-05 1.24494e-05 -0.000316598
0.0018748 -4.11065e-06 -1.12627e-05
-4.11065e-06 -1.37283e-05 -6.93553e-06
-1.12627e-05 -6.93553e-06 8.10902e-06
-0.00290675 -3.17367e-05 -4.2745e-05
-3.17367e-05 -0.00143249 -1.72369e-05
-4.2745e-05 -1.72369e-05 -0.00144701
0.000712237 -4.70074e-05 8.4315e-07
-4.70074e-05 2.48008e-05 8.42471e-07
8.4315e-07 8.42471e-07 0.000140883
0.00112902 1.51731e-05 -2.14428e-07
1.51731e-05 6.95001e-05 -1.98743e-07
-2.14428e-07 -1.98743e-07 1.14475e-06
0.00117782 1.56387e-05 9.70104e-09
1.56387e-05 9.14995e-05 -8.55872e-08
9.70104e-09 -8.55872e-08 2.0326e-05
0.00115674 1.5396e-05 2.00686e-07
1.5396e-05 7.95047e-05 -3.00619e-07
2.00686e-07 -3.00619e-07 6.78747e-06
0.00107698 -5.536e-06 2.38559e-08
-5.536e-06 2.9861e-05 -9.54215e-07
2.38559e-08 -9.54215e-07 -1.23491e-05
0.00099355 5.02198e-06 -1.15023e-07
5.02198e-06 -5.57514e-06 -5.84086e-07
-1.15023e-07 -5.84086e-07 -5.9912e-05
0.00114812 8.11062e-07 -1.15273e-07
8.11062e-07 7.1576e-05 -4.46251e-07
-1.15273e-07 -4.46251e-07 1.05499e-05
0.0012148 4.67952e-06 -1.38091e-07
4.67952e-06 0.000105147 -3.23129e-07
-1.38091e-07 -3.23129e-07 3.81684e-05
0.00111001 1.48218e-05 -6.26733e-07
1.48218e-05 5.41574e-05 -3.82223e-07
-6.26733e-07 -3.82223e-07 -1.64007e-05
0.00113622 1.0587e-05 -8.17615e-08
1.0587e-05 6.48505e-05 -3.08775e-07
-8.17615e-08 -3.08775e-07 3.27202e-06
0.000987479 -7.3011e-07 -7.46376e-09
-7.3011e-07 -1.35765e-05 3.78926e-07
-7.46376e-09 3.78926e-07 -5.65226e-05
0.00103315 -6.84216e-07 2.20857e-08
-6.84216e-07 1.44925e-05 6.72635e-09
2.20857e-08 6.72635e-09 -4.00669e-05
0.00116111 1.09897e-05 -3.39038e-08
1.09897e-05 7.58129e-05 1.57146e-07
-3.39038e-08 1.57146e-07 4.4873e-06
0.00117393 9.4938e-06 -5.69103e-08
9.4938e-06 8.35902e-05 -2.65305e-07
-5.69103e-08 -2.65305e-07 1.68971e-05
0.00118401 1.54713e-05 -4.1924e-08
1.54713e-05 8.83681e-05 -2.24328e-07
-4.1924e-08 -2.24328e-07 2.20318e-05
0.0011931 1.11371e-05 -6.30753e-09
1.11371e-05 8.86907e-05 6.21656e-08
-6.30753e-09 6.21656e-08 1.79272e-05
0.00106092 1.09563e-05 1.03303e-07
1.09563e-05 2.75005e-05 6.85535e-07
1.03303e-07 6.85535e-07 -3.57367e-05
0.000969098 -8.57366e-07 1.7403e-08
-8.57366e-07 -1.64103e-05 2.26992e-07
1.7403e-08 2.26992e-07 -7.19217e-05
0.00090222 -2.75454e-06 -1.88899e-07
-2.75454e-06 -5.47613e-05 1.29936e-06
-1.88899e-07 1.29936e-06 -9.83084e-05
0.00115511 1.82456e-06 -5.62779e-08
1.82456e-06 7.3936e-05 5.03753e-07
-5.62779e-08 5.03753e-07 1.96757e-05
0.00124034 1.35779e-06 -8.56375e-08
1.35779e-06 0.000118241 1.86763e-08
-8.56375e-08 1.86763e-08 5.62044e-05
0.00109275 -4.43752e-06 -2.28378e-07
-4.43752e-06 4.42339e-05 5.94054e-07
-2.28378e-07 5.94054e-07 -1.09113e-05
0.00112508 -9.97452e-07 1.18267e-07
-9.97452e-07 5.9682e-05 -3.84318e-07
1.18267e-07 -3.84318e-07 5.23371e-06
0.0010756 -8.53772e-07 -2.59619e-07
-8.53772e-07 2.9683e-05 9.56892e-07
-2.59619e-07 9.56892e-07 -1.29267e-05
0.000905888 1.5435e-06 -8.16805e-09
1.5435e-06 -5.28898e-05 3.79662e-07
-8.16805e-09 3.79662e-07 -9.63928e-05
0.00104146 2.0001e-06 -3.29824e-07
2.0001e-06 4.3972e-06 1.69314e-06
-3.29824e-07 1.69314e-06 -2.03993e-05
0.00104199 9.17638e-07 4.0294e-08
9.17638e-07 3.93209e-06 4.84003e-09
4.0294e-08 4.84003e-09 -2.0765e-05
0.00100794 1.20512e-06 -3.65896e-07
1.20512e-06 -2.23843e-05 4.17516e-06
-3.65896e-07 4.17516e-06 -1.99542e-05
0.00104285 -2.79101e-07 5.18638e-08
-2.79101e-07 4.26185e-06 -1.71867e-06
5.18638e-08 -1.71867e-06 -2.03297e-05
0.000983429 -2.82929e-07 7.45107e-08
-2.82929e-07 -3.4321e-05 2.68002e-09
7.45107e-08 2.68002e-09 -3.16834e-05
0.00230372 -4.8701e-07 8.13932e-08
-4.8701e-07 0.000606355 3.80512e-06
8.13932e-08 3.80512e-06 0.000631247
0.00100393 -1.7602e-06 -3.55042e-07
-1.7602e-06 -2.34317e-05 -4.19532e-06
-3.55042e-07 -4.19532e-06 -2.09e-05
0.00173477 -2.1871e-06 -1.52454e-08
-2.1871e-06 0.000329348 2.28534e-08
-1.52454e-08 2.28534e-08 0.00035154
0.00112516 -3.79331e-06 -4.78707e-07
-3.79331e-06 3.36864e-05 -1.46298e-06
-4.78707e-07 -1.46298e-06 5.32499e-05
0.0010367 1.1907e-06 9.84241e-08
1.1907e-06 4.91048e-07 -1.75079e-06
9.84241e-08 -1.75079e-06 -2.02926e-05
0.00104083 2.24777e-06 -3.25293e-08
2.24777e-06 3.69535e-06 -6.72465e-09
-3.25293e-08 -6.72465e-09 -1.80222e-05
0.00097474 3.03216e-06 5.2511e-07
3.03216e-06 -3.68644e-05 -2.97406e-06
5.2511e-07 -2.97406e-06 -3.25028e-05
0.00104174 3.06805e-06 -6.27736e-07
3.06805e-06 5.9129e-06 1.69114e-06
-6.27736e-07 1.69114e-06 -1.6971e-05
0.00124389 4.5703e-06 4.73518e-09
4.5703e-06 9.6347e-05 -5.61596e-07
4.73518e-09 -5.61596e-07 0.000101123
0.0022631 5.70559e-06 2.76509e-06
5.70559e-06 0.000589697 -3.72022e-06
2.76509e-06 -3.72022e-06 0.000614621
0.000972349 5.74535e-06 -1.37473e-06
5.74535e-06 -3.33193e-05 2.87838e-06
-1.37473e-06 2.87838e-06 -3.10664e-05
0.00229801 7.51095e-06 -1.26399e-06
7.51095e-06 0.000610377 1.09433e-06
-1.26399e-06 1.09433e-06 0.000634364
0.00228131 9.52927e-06 -4.69788e-06
9.52927e-06 0.000606077 3.67718e-06
-4.69788e-06 3.67718e-06 0.000629455
0.00120248 -1.75679e-05 -1.56165e-07
-1.75679e-05 6.88454e-05 1.89256e-07
-1.56165e-07 1.89256e-07 4.6483e-06
0.00118896 7.71205e-07 -5.49485e-07
7.71205e-07 7.52064e-05 -9.56036e-07
-5.49485e-07 -9.56036e-07 1.11534e-05
0.000988473 -1.962e-05 6.36738e-06
-1.962e-05 2.04772e-05 1.46536e-06
6.36738e-06 1.46536e-06 -2.31328e-05
0.000978483 -4.26555e-05 -3.79298e-06
-4.26555e-05 -4.11283e-05 -1.96754e-06
-3.79298e-06 -1.96754e-06 -3.51703e-05
0.00110802 -2.75833e-06 -1.39875e-07
-2.75833e-06 3.7527e-05 -2.77331e-07
-1.39875e-07 -2.77331e-07 -2.73939e-05
0.000942148 -5.98284e-06 -6.41613e-08
-5.98284e-06 7.59997e-06 -2.22644e-06
-6.41613e-08 -2.22644e-06 -3.0589e-05
0.000944209 1.74964e-05 -7.29944e-07
1.74964e-05 -4.41047e-05 3.66812e-06
-7.29944e-07 3.66812e-06 -0.000117088
0.00116917 -1.81915e-05 7.55581e-05
-1.81915e-05 -0.000172711 2.02067e-05
7.55581e-05 2.02067e-05 -0.000266199
0.00127875 -9.66148e-06 -6.45166e-06
-9.66148e-06 0.000316477 4.47745e-06
-6.45166e-06 4.47745e-06 0.000291249
0.00107805 -4.23135e-07 8.70333e-08
-4.23135e-07 2.67463e-05 -9.21392e-07
8.70333e-08 -9.21392e-07 -9.95209e-06
0.00108042 -6.23112e-08 -1.85991e-07
-6.23112e-08 2.86839e-05 5.86808e-09
-1.85991e-07 5.86808e-09 -9.11896e-06
0.00107609 8.97645e-06 -3.22329e-07
8.97645e-06 3.38243e-05 -4.88142e-07
-3.22329e-07 -4.88142e-07 -1.60369e-05
0.00108272 -2.50512e-06 4.84917e-10
-2.50512e-06 3.72435e-05 -1.37726e-07
4.84917e-10 -1.37726e-07 -9.99511e-06
0.00126537 2.01885e-05 -6.77843e-07
2.01885e-05 5.73731e-05 4.19608e-07
-6.77843e-07 4.19608e-07 -1.4568e-05
0.00137275 7.55463e-06 1.92077e-06
7.55463e-06 8.35326e-05 1.76309e-06
1.92077e-06 1.76309e-06 3.10109e-05
0.00125717 -1.38948e-05 1.65197e-06
-1.38948e-05 1.1354e-05 -7.81712e-07
1.65197e-06 -7.81712e-07 -2.48098e-05
0.00116096 -1.98836e-05 1.69698e-07
-1.98836e-05 7.07921e-05 4.70633e-07
1.69698e-07 4.70633e-07 3.97494e-06
0.000994215 -2.17389e-05 6.24995e-07
-2.17389e-05 -6.84143e-06 -1.31545e-07
6.24995e-07 -1.31545e-07 -8.14479e-05
0.00111099 -2.06944e-05 9.3106e-08
-2.06944e-05 -9.16868e-06 -1.73668e-06
9.3106e-08 -1.73668e-06 -6.37764e-05
0.00113663 -2.01975e-05 -5.27122e-07
-2.01975e-05 6.00181e-05 -9.73982e-08
-5.27122e-07 -9.73982e-08 -9.01121e-06
0.00116982 -1.88628e-05 -6.34655e-07
-1.88628e-05 7.78542e-05 -3.10554e-07
-6.34655e-07 -3.10554e-07 5.5388e-06
0.00118477 -1.79214e-05 -5.69716e-07
-1.79214e-05 8.70407e-05 6.39357e-07
-5.69716e-07 6.39357e-07 1.52263e-05
0.00107996 -9.68549e-07 -3.86366e-07
-9.68549e-07 3.23073e-05 9.77111e-07
-3.86366e-07 9.77111e-07 -9.45059e-06
0.00119762 -1.53683e-05 -4.69821e-07
-1.53683e-05 9.5249e-05 1.44321e-07
-4.69821e-07 1.44321e-07 2.95128e-05
0.00111645 -3.10336e-06 -2.75926e-07
-3.10336e-06 5.92945e-05 7.36008e-07
-2.75926e-07 7.36008e-07 2.2178e-06
0.00107607 1.29591e-06 -1.18165e-07
1.29591e-06 2.74628e-05 6.02663e-07
-1.18165e-07 6.02663e-07 -1.14034e-05
0.00101172 4.5434e-07 -4.3282e-07
4.5434e-07 4.43756e-06 1.15838e-06
-4.3282e-07 1.15838e-06 -5.00193e-05
0.00134576 2.12598e-05 2.00617e-07
2.12598e-05 9.4117e-05 1.12554e-06
2.00617e-07 1.12554e-06 2.26599e-05
0.00108965 8.31872e-06 -3.28233e-08
8.31872e-06 4.1712e-05 -3.45155e-07
-3.28233e-08 -3.45155e-07 -9.83238e-06
0.00102617 -5.24393e-06 1.76804e-07
-5.24393e-06 1.27829e-05 4.81041e-09
1.76804e-07 4.81041e-09 -4.27833e-05
0.00110098 1.13076e-06 2.21506e-08
1.13076e-06 5.52601e-05 7.53184e-07
2.21506e-08 7.53184e-07 -6.38423e-06
0.00136742 -1.7361e-06 2.21256e-07
-1.7361e-06 5.59877e-05 4.00887e-07
2.21256e-07 4.00887e-07 2.66617e-05
0.00127397 -2.10113e-05 -6.84483e-07
-2.10113e-05 1.75657e-05 -8.84383e-07
-6.84483e-07 -8.84383e-07 -2.26879e-05
0.00113385 -2.1868e-05 8.51693e-08
-2.1868e-05 6.86363e-05 -1.78895e-07
8.51693e-08 -1.78895e-07 -2.88248e-06
0.00126545 -2.49065e-05 1.31284e-07
-2.49065e-05 0.000105864 4.43919e-07
1.31284e-07 4.43919e-07 3.59518e-05
0.00122066 -1.48705e-05 2.93354e-08
-1.48705e-05 0.000111781 -1.40732e-08
2.93354e-08 -1.40732e-08 4.35993e-05
0.00109367 -1.71674e-05 -4.38567e-07
-1.71674e-05 4.18269e-05 6.00809e-07
-4.38567e-07 6.00809e-07 -2.89155e-05
0.00115269 -2.10051e-05 -4.31008e-08
-2.10051e-05 7.34572e-05 -1.02433e-07
-4.31008e-08 -1.02433e-07 -2.76094e-06
0.001238 -1.92095e-05 3.2669e-07
-1.92095e-05 0.000116657 -2.30448e-07
3.2669e-07 -2.30448e-07 3.84375e-05
0.00131281 1.8807e-05 -1.49573e-06
1.8807e-05 4.80888e-05 -3.81787e-06
-1.49573e-06 -3.81787e-06 -2.52539e-06
0.0014205 -2.03198e-05 -2.33383e-06
-2.03198e-05 4.35319e-05 -2.03708e-06
-2.33383e-06 -2.03708e-06 2.7024e-05
0.0014053 -2.79326e-05 1.27601e-06
-2.79326e-05 0.000123961 2.08597e-06
1.27601e-06 2.08597e-06 5.78785e-05
0.00116163 -2.55514e-05 1.47085e-08
-2.55514e-05 7.97219e-05 -2.19797e-07
1.47085e-08 -2.19797e-07 4.79778e-06
0.00106147 4.14034e-06 -1.62102e-07
4.14034e-06 3.62611e-05 -3.31181e-07
-1.62102e-07 -3.31181e-07 -2.81352e-05
0.0010616 -1.31119e-05 1.14764e-07
-1.31119e-05 3.49021e-05 -9.90475e-07
1.14764e-07 -9.90475e-07 -3.17638e-05
0.00112401 -1.72495e-05 1.90372e-07
-1.72495e-05 6.48277e-05 -2.44233e-07
1.90372e-07 -2.44233e-07 -1.32094e-05
0.00121423 -2.03037e-05 6.59432e-07
-2.03037e-05 0.000107675 3.27031e-07
6.59432e-07 3.27031e-07 2.26534e-05
0.00102446 1.86419e-05 -5.56936e-06
1.86419e-05 -0.000536749 2.62797e-06
-5.56936e-06 2.62797e-06 -0.000712784
0.00119129 1.66434e-05 -6.63498e-08
1.66434e-05 9.85868e-05 -1.24202e-07
-6.63498e-08 -1.24202e-07 2.9009e-05
0.00107729 1.82912e-05 1.67612e-07
1.82912e-05 3.5423e-05 3.8427e-07
1.67612e-07 3.8427e-07 -3.84794e-05
0.00100756 -2.44344e-06 -4.71402e-07
-2.44344e-06 -9.34164e-05 6.74125e-07
-4.71402e-07 6.74125e-07 -0.00012297
0.00162627 2.60199e-05 -7.8379e-07
2.60199e-05 0.000144409 -1.50878e-07
-7.8379e-07 -1.50878e-07 9.50918e-05
0.00134074 2.93241e-05 -1.2665e-06
2.93241e-05 0.000139712 1.12968e-06
-1.2665e-06 1.12968e-06 5.06074e-05
0.00106711 2.18223e-05 2.62012e-07
2.18223e-05 3.31362e-05 -3.94738e-08
2.62012e-07 -3.94738e-08 -4.93988e-05
0.00236883 -3.50293e-05 5.52755e-06
-3.50293e-05 0.000370628 8.31599e-06
5.52755e-06 8.31599e-06 0.000368514
0.00118352 1.6701e-05 3.04653e-08
1.6701e-05 9.66384e-05 -1.53575e-07
3.04653e-08 -1.53575e-07 2.32073e-05
0.00145423 2.89044e-05 1.98637e-06
2.89044e-05 -1.57547e-05 -1.34028e-07
1.98637e-06 -1.34028e-07 -7.07285e-05
0.00115388 1.95277e-05 -5.73429e-08
1.95277e-05 8.05037e-05 -2.22183e-07
-5.73429e-08 -2.22183e-07 2.68559e-06
0.00114127 2.49554e-05 -5.42746e-07
2.49554e-05 8.55321e-05 5.23059e-07
-5.42746e-07 5.23059e-07 -9.07814e-06
0.000983743 3.45144e-05 1.07155e-07
3.45144e-05 -8.76051e-05 -2.44276e-07
1.07155e-07 -2.44276e-07 -0.000173969
0.000401948 3.01133e-05 -9.77319e-06
3.01133e-05 -0.000562433 -1.64401e-06
-9.77319e-06 -1.64401e-06 -0.00081424
0.00195903 -2.43314e-06 7.54423e-06
-2.43314e-06 0.000190276 -1.43629e-06
7.54423e-06 -1.43629e-06 2.23483e-06
0.00210942 6.59003e-06 -2.09614e-06
6.59003e-06 9.96891e-05 -4.58684e-07
-2.09614e-06 -4.58684e-07 0.000109042
-0.00024867 -3.46745e-05 -1.04435e-05
-3.46745e-05 -0.000269308 -4.02152e-06
-1.04435e-05 -4.02152e-06 -0.000320983
0.000416679 -4.8473e-05 -2.01028e-06
-4.8473e-05 -0.00011458 6.18547e-07
-2.01028e-06 6.18547e-07 -8.19236e-06
0.00116066 1.645e-05 -5.04683e-08
1.645e-05 9.30557e-05 -4.9457e-07
-5.04683e-08 -4.9457e-07 1.85082e-05
0.000396984 1.70612e-05 -5.99437e-05
1.70612e-05 4.22225e-05 -6.49467e-06
-5.99437e-05 -6.49467e-06 -4.06187e-05
0.00117614 -2.59218e-05 7.93422e-06
-2.59218e-05 0.000434809 6.19451e-06
7.93422e-06 6.19451e-06 0.000490927
0.00128344 4.60247e-05 4.3279e-06
4.60247e-05 -1.05294e-05 3.99279e-06
4.3279e-06 3.99279e-06 -0.000101846
0.00124776 2.01289e-05 -7.37804e-07
2.01289e-05 0.000154415 9.35805e-08
-7.37804e-07 9.35805e-08 6.94531e-05
0.00118361 2.88525e-05 -2.30794e-06
2.88525e-05 0.000131 -2.61875e-07
-2.30794e-06 -2.61875e-07 1.76709e-05
0.00231953 2.19292e-05 -2.44473e-05
2.19292e-05 0.000356122 -2.6029e-05
-2.44473e-05 -2.6029e-05 0.000279996
0.00501679 2.18805e-05 -4.29296e-05
2.18805e-05 0.00141609 -1.83717e-05
-4.29296e-05 -1.83717e-05 0.0010447
0.00184176 4.56053e-05 2.53554e-05
4.56053e-05 0.000325733 2.31532e-05
2.53554e-05 2.31532e-05 3.91247e-05
0.000211802 -8.5961e-05 -4.27191e-05
-8.5961e-05 4.55244e-05 -2.92601e-05
-4.27191e-05 -2.92601e-05 3.18088e-05
-0.000441517 -2.7745e-05 7.31912e-06
-2.7745e-05 -0.000608107 -1.16191e-06
7.31912e-06 -1.16191e-06 -0.000559473
0.00113862 1.52602e-05 -2.09029e-07
1.52602e-05 7.33797e-05 -7.50316e-08
-2.09029e-07 -7.50316e-08 2.28352e-06
0.00116981 1.55261e-05 -4.50094e-08
1.55261e-05 8.56365e-05 2.85592e-08
-4.50094e-08 2.85592e-08 1.28731e-05
0.00116054 1.46718e-05 -4.00959e-08
1.46718e-05 7.5855e-05 -3.65347e-07
-4.00959e-08 -3.65347e-07 2.91886e-06
0.00107509 -9.88438e-07 2.33197e-08
-9.88438e-07 2.88505e-05 -5.53307e-07
2.33197e-08 -5.53307e-07 -1.35566e-05
0.0010953 -2.56764e-06 2.21573e-08
-2.56764e-06 4.48479e-05 -5.48736e-07
2.21573e-08 -5.48736e-07 -9.29765e-06
0.00104013 8.16787e-06 -2.32118e-07
8.16787e-06 1.79206e-05 -7.33319e-07
-2.32118e-07 -7.33319e-07 -4.42705e-05
0.00114571 9.58169e-06 -1.27203e-07
9.58169e-06 6.92104e-05 -5.47207e-07
-1.27203e-07 -5.47207e-07 2.34151e-06
0.00119014 1.0049e-05 -1.49692e-07
1.0049e-05 9.06787e-05 2.0571e-07
-1.49692e-07 2.0571e-07 1.967e-05
0.000903205 1.34234e-07 2.21851e-08
1.34234e-07 -5.43014e-05 3.74313e-07
2.21851e-08 3.74313e-07 -9.78591e-05
0.00114185 1.31148e-05 -1.47833e-07
1.31148e-05 6.73142e-05 -4.70267e-07
-1.47833e-07 -4.70267e-07 1.07134e-06
0.0011451 5.84248e-06 3.11594e-08
5.84248e-06 6.89329e-05 3.2461e-07
3.11594e-08 3.2461e-07 6.45476e-06
0.00105435 6.75646e-07 3.63692e-08
6.75646e-07 2.49307e-05 -2.96079e-07
3.63692e-08 -2.96079e-07 -3.00297e-05
0.00116271 1.10763e-05 4.20178e-08
1.10763e-05 7.37767e-05 1.90736e-07
4.20178e-08 1.90736e-07 2.74524e-06
0.00109789 1.12305e-05 9.95225e-09
1.12305e-05 4.359e-05 2.15214e-07
9.95225e-09 2.15214e-07 -2.52885e-05
0.00117888 9.00955e-06 -1.01875e-08
9.00955e-06 8.18278e-05 -2.14746e-07
-1.01875e-08 -2.14746e-07 9.57045e-06
0.00113561 -2.54705e-06 -7.80415e-08
-2.54705e-06 6.57623e-05 3.70203e-07
-7.80415e-08 3.70203e-07 2.03088e-06
0.00114502 -3.66771e-06 -3.58912e-08
-3.66771e-06 6.90567e-05 1.52809e-07
-3.58912e-08 1.52809e-07 1.46473e-05
0.00115192 -3.13321e-07 3.98388e-09
-3.13321e-07 7.25212e-05 -6.49196e-08
3.98388e-09 -6.49196e-08 1.82502e-05
0.00115024 -4.05368e-06 -3.73967e-08
-4.05368e-06 7.42503e-05 -3.04547e-07
-3.73967e-08 -3.04547e-07 1.15588e-05
0.00114695 1.80843e-06 -1.27894e-07
1.80843e-06 7.25402e-05 3.80207e-07
-1.27894e-07 3.80207e-07 9.45711e-06
0.00112196 -7.60399e-06 -1.12903e-07
-7.60399e-06 6.13803e-05 3.55785e-07
-1.12903e-07 3.55785e-07 -2.22293e-06
0.00114709 -1.00277e-05 -1.154e-08
-1.00277e-05 7.51485e-05 -2.42629e-07
-1.154e-08 -2.42629e-07 7.46899e-06
0.00110685 -1.40749e-05 -5.93423e-07
-1.40749e-05 5.31907e-05 2.75252e-07
-5.93423e-07 2.75252e-07 -1.20548e-05
0.00109017 -5.93138e-06 -2.43126e-07
-5.93138e-06 4.34098e-05 5.94149e-07
-2.43126e-07 5.94149e-07 -1.2805e-05
0.00109891 -5.9477e-06 -3.47511e-09
-5.9477e-06 4.72807e-05 -1.01308e-08
-3.47511e-09 -1.01308e-08 -7.88591e-06
0.00107344 -2.79866e-06 -4.31458e-07
-2.79866e-06 2.88262e-05 9.64066e-07
-4.31458e-07 9.64066e-07 -1.41581e-05
0.000988455 -3.42818e-06 3.39241e-07
-3.42818e-06 -6.78513e-06 -9.76218e-07
3.39241e-07 -9.76218e-07 -6.21491e-05
0.000991963 -6.52085e-07 4.98241e-08
-6.52085e-07 -1.09396e-05 -2.12668e-09
4.98241e-08 -2.12668e-09 -5.40637e-05
0.00103868 2.84664e-06 -5.28912e-07
2.84664e-06 4.29377e-06 1.67436e-06
-5.28912e-07 1.67436e-06 -2.07055e-05
0.000905233 2.13511e-06 1.62446e-07
2.13511e-06 -5.31749e-05 -5.54483e-07
1.62446e-07 -5.54483e-07 -9.66984e-05
0.00104147 1.97441e-06 5.04647e-08
1.97441e-06 4.31836e-06 4.88842e-09
5.04647e-08 4.88842e-09 -2.04636e-05
0.00156936 2.80951e-06 -1.20302e-06
2.80951e-06 0.000252828 4.12375e-06
-1.20302e-06 4.12375e-06 0.000257734
0.0010422 8.94603e-07 2.31036e-07
8.94603e-07 3.98592e-06 -1.70637e-06
2.31036e-07 -1.70637e-06 -2.07022e-05
0.00127651 1.28503e-06 -2.41335e-07
1.28503e-06 0.000108892 5.84204e-07
-2.41335e-07 5.84204e-07 0.000112698
0.00118142 1.16507e-06 -7.0063e-07
1.16507e-06 5.80698e-05 3.70156e-06
-7.0063e-07 3.70156e-06 7.76062e-05
0.000984996 -2.89467e-07 8.0274e-08
-2.89467e-07 -3.35559e-05 -2.99196e-06
8.0274e-08 -2.99196e-06 -3.09322e-05
0.00230023 -4.0706e-07 3.41515e-07
-4.0706e-07 0.000604638 2.91639e-10
3.41515e-07 2.91639e-10 0.000629541
0.00117107 -1.8936e-06 -4.03454e-07
-1.8936e-06 5.41172e-05 -3.71002e-06
-4.03454e-07 -3.71002e-06 7.36817e-05
0.00108857 -1.52064e-06 -4.05183e-08
-1.52064e-06 3.23043e-05 -5.49859e-07
-4.05183e-08 -5.49859e-07 -4.59959e-06
0.00103793 -1.13345e-08 -1.2036e-08
-1.13345e-08 4.39024e-07 -1.75404e-06
-1.2036e-08 -1.75404e-06 -1.98825e-05
0.00104163 1.17191e-06 -6.45537e-08
1.17191e-06 2.87875e-06 -9.49283e-10
-6.45537e-08 -9.49283e-10 -1.79479e-05
0.000978645 1.52578e-06 2.5281e-07
1.52578e-06 -3.60597e-05 -2.97801e-06
2.5281e-07 -2.97801e-06 -3.11306e-05
0.00104403 2.23177e-06 -3.95035e-07
2.23177e-06 5.18602e-06 1.75409e-06
-3.95035e-07 1.75409e-06 -1.65439e-05
0.000974285 3.01115e-06 3.02896e-08
3.01115e-06 -3.71976e-05 -5.85489e-07
3.02896e-08 -5.85489e-07 -3.28088e-05
0.00224046 3.80607e-06 1.79405e-06
3.80607e-06 0.000576662 -3.72542e-06
1.79405e-06 -3.72542e-06 0.000602135
0.00150293 4.86778e-06 -9.18627e-07
4.86778e-06 0.00022298 1.79851e-06
-9.18627e-07 1.79851e-06 0.000228965
0.00172769 5.43816e-06 -9.89991e-08
5.43816e-06 0.000328976 1.11472e-06
-9.89991e-08 1.11472e-06 0.000351128
0.00120159 6.81766e-06 -4.23468e-06
6.81766e-06 7.56181e-05 5.97992e-06
-4.23468e-06 5.97992e-06 9.42445e-05
0.000968689 -4.10125e-05 1.06239e-06
-4.10125e-05 -3.81537e-05 1.69075e-06
1.06239e-06 1.69075e-06 -2.76442e-05
0.000853548 -3.01799e-06 -3.52308e-07
-3.01799e-06 -7.7002e-05 -5.68859e-07
-3.52308e-07 -5.68859e-07 -0.00014165
0.000833279 -5.55495e-06 -2.77419e-07
-5.55495e-06 -5.26698e-05 -5.10216e-06
-2.77419e-07 -5.10216e-06 -9.77294e-05
0.000704749 -3.06588e-05 2.64127e-05
-3.06588e-05 -0.000180324 4.14596e-06
2.64127e-05 4.14596e-06 -0.000254917
0.000716864 -1.25251e-05 -2.46108e-06
-1.25251e-05 4.75359e-05 5.71085e-07
-2.46108e-06 5.71085e-07 2.64903e-05
0.00103425 1.82e-05 -5.36489e-07
1.82e-05 -1.64632e-05 -7.016e-07
-5.36489e-07 -7.016e-07 -9.2492e-05
0.0010458 2.90209e-05 -2.50275e-06
2.90209e-05 0.000104081 4.27929e-06
-2.50275e-06 4.27929e-06 2.9928e-05
0.000880264 -3.70584e-06 6.0744e-05
-3.70584e-06 -0.000172639 6.79409e-06
6.0744e-05 6.79409e-06 -0.000299217
0.00488386 6.36071e-06 -2.99197e-05
6.36071e-06 0.00115897 1.12198e-05
-2.99197e-05 1.12198e-05 0.000854813
0.00180931 6.72208e-05 -1.81763e-05
6.72208e-05 0.000789229 1.02369e-05
-1.81763e-05 1.02369e-05 0.000711461
0.00105551 3.78342e-05 -5.64739e-07
3.78342e-05 0.000333416 -1.31367e-06
-5.64739e-07 -1.31367e-06 0.000411071
0.000932897 -1.84991e-07 1.38325e-07
-1.84991e-07 -3.57778e-05 -9.309e-07
1.38325e-07 -9.309e-07 -8.46162e-05
0.00108152 -4.46603e-07 1.4597e-07
-4.46603e-07 2.8461e-05 1.36385e-08
1.4597e-07 1.36385e-08 -8.29181e-06
0.00108732 -4.06037e-07 -1.88902e-07
-4.06037e-07 3.20564e-05 1.04582e-06
-1.88902e-07 1.04582e-06 -5.82087e-06
0.00103398 7.7648e-06 -2.38151e-08
7.7648e-06 1.36707e-05 2.27841e-08
-2.38151e-08 2.27841e-08 -3.64001e-05
0.00119065 1.55283e-05 -4.15016e-09
1.55283e-05 9.40877e-05 2.39438e-07
-4.15016e-09 2.39438e-07 3.60645e-05
0.00114142 8.19173e-06 9.30344e-08
8.19173e-06 6.80482e-05 1.60516e-07
9.30344e-08 1.60516e-07 1.31153e-05
0.00113216 -3.68092e-07 1.21978e-07
-3.68092e-07 6.3104e-05 -1.18616e-06
1.21978e-07 -1.18616e-06 1.40007e-05
0.00103638 -5.80983e-06 3.13051e-08
-5.80983e-06 1.52297e-05 3.72404e-07
3.13051e-08 3.72404e-07 -3.25891e-05
0.00134736 2.0545e-05 7.62041e-07
2.0545e-05 9.42407e-05 1.73446e-06
7.62041e-07 1.73446e-06 2.45203e-05
0.0015315 -1.56089e-06 4.50986e-06
-1.56089e-06 0.000143645 1.19445e-06
4.50986e-06 1.19445e-06 0.000112033
0.00113117 -2.02039e-05 -1.03706e-06
-2.02039e-05 -5.303e-05 -2.84386e-06
-1.03706e-06 -2.84386e-06 -9.26742e-05
0.00122387 -2.23469e-05 5.55673e-07
-2.23469e-05 0.000110544 3.36002e-08
5.55673e-07 3.36002e-08 3.88642e-05
0.00109897 -2.37776e-05 3.74302e-07
-2.37776e-05 3.02161e-05 -1.28239e-07
3.74302e-07 -1.28239e-07 -3.90732e-05
0.00114863 -2.10365e-05 -7.40553e-07
-2.10365e-05 7.10732e-05 -3.63956e-07
-7.40553e-07 -3.63956e-07 -4.99593e-06
0.00122893 -1.89928e-05 -2.0698e-08
-1.89928e-05 0.000112843 -1.20539e-07
-2.0698e-08 -1.20539e-07 3.49231e-05
0.001131 -1.76246e-05 -7.43826e-07
-1.76246e-05 5.91334e-05 7.78835e-07
-7.43826e-07 7.78835e-07 -1.11171e-05
0.00110879 -6.91797e-06 -2.25074e-07
-6.91797e-06 5.28141e-05 7.62947e-07
-2.25074e-07 7.62947e-07 -2.02354e-06
0.00125841 -1.46646e-05 -1.63557e-07
-1.46646e-05 0.000130409 2.94785e-07
-1.63557e-07 2.94785e-07 6.2343e-05
0.00126902 7.26925e-06 -2.58753e-08
7.26925e-06 0.000128709 2.64616e-07
-2.58753e-08 2.64616e-07 7.81217e-05
0.00105029 -4.83883e-06 -7.15173e-08
-4.83883e-06 3.03558e-05 1.13778e-06
-7.15173e-08 1.13778e-06 -3.05877e-05
0.00150425 1.97192e-05 1.06397e-06
1.97192e-05 0.000137312 -1.8211e-07
1.06397e-06 -1.8211e-07 8.5476e-05
0.00107856 3.48793e-06 -1.72054e-07
3.48793e-06 4.40939e-05 1.79757e-07
-1.72054e-07 1.79757e-07 -2.00356e-05
0.00113404 -1.34367e-05 7.75654e-08
-1.34367e-05 7.06331e-05 -2.86005e-07
7.75654e-08 -2.86005e-07 4.24995e-06
0.00133843 -1.98678e-05 -2.54891e-06
-1.98678e-05 8.00757e-06 -1.47039e-06
-2.54891e-06 -1.47039e-06 -8.29599e-06
0.00111054 -2.62771e-05 1.0738e-06
-2.62771e-05 -1.16104e-05 7.52704e-07
1.0738e-06 7.52704e-07 -7.56964e-05
0.00117698 -2.57831e-05 -3.51496e-07
-2.57831e-05 8.3956e-05 -1.17281e-07
-3.51496e-07 -1.17281e-07 7.6544e-06
0.00114161 -1.72205e-05 -2.57318e-08
-1.72205e-05 7.38948e-05 -1.81354e-07
-2.57318e-08 -1.81354e-07 -3.91963e-06
0.00117839 -2.00866e-05 1.60534e-07
-2.00866e-05 8.96485e-05 2.54356e-07
1.60534e-07 2.54356e-07 5.19028e-06
0.00207672 1.7037e-06 -5.4414e-06
1.7037e-06 0.000242525 3.36567e-08
-5.4414e-06 3.36567e-08 0.000251434
0.00157843 -3.5267e-05 2.29322e-06
-3.5267e-05 0.000181431 2.89748e-06
2.29322e-06 2.89748e-06 0.000129208
0.000751338 -2.81027e-05 -4.86313e-07
-2.81027e-05 -0.000133575 -2.58921e-07
-4.86313e-07 -2.58921e-07 -0.000211712
0.00124072 -2.60436e-05 1.4788e-07
-2.60436e-05 0.000117483 6.38876e-07
1.4788e-07 6.38876e-07 2.97182e-05
0.00107321 -1.20831e-05 1.71959e-08
-1.20831e-05 4.51127e-05 -6.6379e-07
1.71959e-08 -6.6379e-07 -2.72619e-05
0.00114652 -1.57202e-05 5.94773e-09
-1.57202e-05 8.19792e-05 -5.43105e-07
5.94773e-09 -5.43105e-07 6.09782e-06
0.00130547 -1.86171e-05 9.60482e-08
-1.86171e-05 0.000159796 -3.54951e-07
9.60482e-08 -3.54951e-07 7.24765e-05
-0.0020882 2.89947e-06 -5.61191e-05
2.89947e-06 -0.000799043 1.45936e-06
-5.61191e-05 1.45936e-06 -0.000719836
0.00504098 1.15659e-05 -1.68443e-05
1.15659e-05 0.00149496 1.2875e-06
-1.68443e-05 1.2875e-06 0.00128656
0.00115621 1.64503e-05 2.11262e-07
1.64503e-05 8.44813e-05 3.37843e-08
2.11262e-07 3.37843e-08 1.13261e-05
0.00105375 1.86575e-05 7.21517e-07
1.86575e-05 3.34574e-05 -1.56615e-07
7.21517e-07 -1.56615e-07 -4.39163e-05
0.00190193 2.84802e-05 -4.33469e-06
2.84802e-05 0.000192802 -3.09742e-08
-4.33469e-06 -3.09742e-08 0.000138426
0.00133676 3.55416e-05 -8.75633e-07
3.55416e-05 7.48558e-05 5.53857e-07
-8.75633e-07 5.53857e-07 -8.00143e-06
0.000977666 2.35592e-05 -1.04029e-07
2.35592e-05 6.43861e-06 -7.38969e-07
-1.04029e-07 -7.38969e-07 -8.7734e-05
0.00578606 5.71715e-05 5.18335e-06
5.71715e-05 0.00150187 6.61372e-06
5.18335e-06 6.61372e-06 0.00118469
5.78106e-05 -2.54741e-05 -2.10169e-05
-2.54741e-05 -0.000222165 -1.27399e-05
-2.10169e-05 -1.27399e-05 -0.000344616
0.00226585 1.53348e-05 1.39267e-05
1.53348e-05 0.000175738 9.77725e-06
1.39267e-05 9.77725e-06 0.000173815
0.00155337 -4.92454e-05 1.74216e-05
-4.92454e-05 0.000671289 9.98595e-06
1.74216e-05 9.98595e-06 0.000588864
2.58204e-05 -4.96038e-05 4.58279e-06
-4.96038e-05 -0.000311361 3.13607e-06
4.58279e-06 3.13607e-06 -0.000213383
0.00113927 1.62736e-05 1.87239e-07
1.62736e-05 8.25039e-05 -9.56811e-08
1.87239e-07 -9.56811e-08 7.95801e-06
-0.0018076 7.78131e-06 -1.3056e-05
7.78131e-06 -0.00057391 -1.19298e-06
-1.3056e-05 -1.19298e-06 -0.000545912
0.000942257 -2.49939e-05 3.36368e-07
-2.49939e-05 0.000328068 -2.65924e-08
3.36368e-07 -2.65924e-08 0.000379958
0.00159659 4.74871e-05 1.28142e-06
4.74871e-05 0.000130581 1.46256e-06
1.28142e-06 1.46256e-06 3.96676e-05
0.00110653 1.88632e-05 1.29351e-07
1.88632e-05 8.53169e-05 -6.53998e-07
1.29351e-07 -6.53998e-07 1.23051e-06
0.00105169 2.78077e-05 4.41445e-09
2.78077e-05 7.49067e-05 2.69007e-07
4.41445e-09 2.69007e-07 -3.42452e-05
0.00199691 2.45302e-05 -1.49761e-05
2.45302e-05 0.000228619 -1.50182e-05
-1.49761e-05 -1.50182e-05 0.000148213
0.00375496 6.14988e-05 8.00734e-06
6.14988e-05 0.000639869 5.65527e-06
8.00734e-06 5.65527e-06 0.000194173
-1.01548e-06 2.1156e-05 -6.36606e-06
2.1156e-05 -0.000248342 -9.84149e-06
-6.36606e-06 -9.84149e-06 -0.000351434
0.00159459 -0.000107719 3.18801e-07
-0.000107719 0.000332259 4.76139e-06
3.18801e-07 4.76139e-06 0.000231976
-0.000777458 -3.22795e-05 -6.77998e-07
-3.22795e-05 -0.000836318 -8.64585e-06
-6.77998e-07 -8.64585e-06 -0.000763157
0.00113525 1.54028e-05 -1.68327e-07
1.54028e-05 8.59166e-05 -5.89917e-07
-1.68327e-07 -5.89917e-07 1.03017e-05
6.35897e-05 -6.48891e-06 1.135e-05
-6.48891e-06 -0.000130678 5.2007e-06
1.135e-05 5.2007e-06 -0.000121597
0.000782678 -8.93109e-06 1.12591e-05
-8.93109e-06 0.000203324 1.57e-05
1.12591e-05 1.57e-05 0.000185914
0.001388 3.04449e-05 5.57847e-06
3.04449e-05 0.00023737 4.59761e-06
5.57847e-06 4.59761e-06 0.000101031
0.0010815 1.69134e-05 -4.02885e-06
1.69134e-05 0.000110522 -9.77723e-07
-4.02885e-06 -9.77723e-07 1.4176e-05
0.00307837 2.1237e-05 -8.50277e-06
2.1237e-05 0.00108981 -6.42578e-06
-8.50277e-06 -6.42578e-06 0.00102654
-0.000389607 4.31696e-05 -1.03537e-05
4.31696e-05 -0.000344788 -7.99586e-06
-1.03537e-05 -7.99586e-06 -0.000412074
0.00331556 -5.78991e-06 3.10503e-05
-5.78991e-06 0.00029791 1.93249e-05
3.10503e-05 1.93249e-05 -0.000183568
0.00239666 -0.000149412 -1.37983e-05
-0.000149412 0.000505371 -2.51138e-05
-1.37983e-05 -2.51138e-05 0.00040716
0.000101014 -8.49203e-06 5.92976e-06
-8.49203e-06 -0.000257114 1.43371e-06
5.92976e-06 1.43371e-06 -0.000274289
0.00118372 1.56655e-05 -8.44366e-08
1.56655e-05 9.22033e-05 5.23022e-07
-8.44366e-08 5.23022e-07 1.93888e-05
0.00116986 1.49698e-05 2.17933e-09
1.49698e-05 8.04431e-05 7.88835e-08
2.17933e-09 7.88835e-08 7.36061e-06
0.00114041 1.03425e-05 1.06073e-07
1.03425e-05 6.79731e-05 -2.19424e-07
1.06073e-07 -2.19424e-07 -5.5946e-06
0.00090455 2.92953e-06 9.99761e-08
2.92953e-06 -5.36765e-05 -5.48479e-07
9.99761e-08 -5.48479e-07 -9.72446e-05
0.00113891 2.47001e-06 1.30329e-08
2.47001e-06 6.59659e-05 -8.22596e-07
1.30329e-08 -8.22596e-07 1.15514e-05
0.0012289 7.0581e-07 4.89443e-09
7.0581e-07 0.000110214 -1.41785e-08
4.89443e-09 -1.41785e-08 4.8488e-05
0.00110391 1.12034e-05 -2.32504e-07
1.12034e-05 4.82506e-05 -7.71617e-07
-2.32504e-07 -7.71617e-07 -1.79057e-05
0.00113226 1.14317e-05 1.51742e-08
1.14317e-05 5.8836e-05 2.13507e-07
1.51742e-08 2.13507e-07 -1.24706e-05
0.00114231 2.86024e-06 7.36866e-08
2.86024e-06 6.78477e-05 -3.72758e-07
7.36866e-08 -3.72758e-07 1.3386e-05
0.0011327 1.07439e-05 2.42949e-08
1.07439e-05 6.09309e-05 1.10971e-07
2.42949e-08 1.10971e-07 -7.43281e-06
0.00114413 1.21848e-06 -5.52039e-08
1.21848e-06 6.98807e-05 8.84833e-08
-5.52039e-08 8.84833e-08 6.12247e-06
0.00117377 8.9236e-06 -1.65522e-08
8.9236e-06 7.9488e-05 4.6329e-08
-1.65522e-08 4.6329e-08 7.09502e-06
0.00114327 7.3369e-06 -3.04334e-08
7.3369e-06 7.08294e-05 -4.32386e-07
-3.04334e-08 -4.32386e-07 -3.03026e-06
0.00117156 7.11038e-06 5.32889e-08
7.11038e-06 8.18e-05 1.45092e-07
5.32889e-08 1.45092e-07 1.11907e-05
0.00115154 1.98842e-06 4.24668e-09
1.98842e-06 7.38207e-05 3.53537e-07
4.24668e-09 3.53537e-07 1.02144e-05
0.00114818 -1.68083e-06 6.7599e-08
-1.68083e-06 7.08449e-05 -6.33417e-07
6.7599e-08 -6.33417e-07 1.65673e-05
0.0010609 -9.95336e-06 2.73614e-07
-9.95336e-06 3.06007e-05 -7.4298e-07
2.73614e-07 -7.4298e-07 -3.27541e-05
0.00115353 6.42874e-07 3.54157e-08
6.42874e-07 7.53034e-05 -4.92967e-08
3.54157e-08 -4.92967e-08 1.22318e-05
0.00112512 -8.18198e-06 -1.87017e-08
-8.18198e-06 6.28069e-05 1.83501e-08
-1.87017e-08 1.83501e-08 -8.61849e-07
0.00111967 -1.22184e-05 1.78936e-07
-1.22184e-05 6.16772e-05 -4.19951e-07
1.78936e-07 -4.19951e-07 -5.79033e-06
0.00110146 -1.13296e-05 -2.76649e-07
-1.13296e-05 5.3099e-05 6.16707e-07
-2.76649e-07 6.16707e-07 -1.20581e-05
0.00117324 -6.23163e-06 -1.78641e-07
-6.23163e-06 8.68216e-05 -9.63799e-08
-1.78641e-07 -9.63799e-08 1.76829e-05
0.00104132 -1.47059e-05 4.9421e-08
-1.47059e-05 2.46762e-05 3.41067e-08
4.9421e-08 3.41067e-08 -4.53488e-05
0.00113271 -1.57048e-05 -1.69298e-07
-1.57048e-05 6.28045e-05 -6.87365e-07
-1.69298e-07 -6.87365e-07 -5.05705e-06
0.00103013 -1.71875e-05 3.03746e-08
-1.71875e-05 1.37294e-05 -1.88521e-07
3.03746e-08 -1.88521e-07 -4.95627e-05
0.00105429 -1.54293e-05 -4.83357e-07
-1.54293e-05 2.46494e-05 -3.46843e-07
-4.83357e-07 -3.46843e-07 -3.87651e-05
0.00111654 -1.36637e-05 -2.36102e-07
-1.36637e-05 5.75121e-05 2.05822e-07
-2.36102e-07 2.05822e-07 -7.63431e-06
0.00109968 -9.32512e-06 -6.64445e-07
-9.32512e-06 4.74207e-05 8.45267e-07
-6.64445e-07 8.45267e-07 -9.45854e-06
0.00109889 -6.96517e-06 -3.52494e-09
-6.96517e-06 4.76478e-05 -1.95522e-08
-3.52494e-09 -1.95522e-08 -8.63663e-06
0.00106921 -2.74074e-06 -5.46304e-07
-2.74074e-06 2.72025e-05 9.76984e-07
-5.46304e-07 9.76984e-07 -1.64007e-05
0.00110301 -8.13279e-06 3.0391e-07
-8.13279e-06 4.93393e-05 -5.68629e-07
3.0391e-07 -5.68629e-07 -5.85539e-06
0.00107389 -2.19794e-06 5.16388e-08
-2.19794e-06 2.90334e-05 -6.67982e-09
5.16388e-08 -6.67982e-09 -1.39672e-05
0.00103333 3.5378e-06 -7.27767e-07
3.5378e-06 3.21679e-06 1.65653e-06
-7.27767e-07 1.65653e-06 -2.21117e-05
0.000907134 -9.73092e-07 3.4996e-07
-9.73092e-07 -5.21128e-05 -9.57501e-07
3.4996e-07 -9.57501e-07 -9.57498e-05
0.00103894 2.83098e-06 4.94737e-08
2.83098e-06 4.32684e-06 4.15727e-09
4.94737e-08 4.15727e-09 -2.06633e-05
0.00156739 4.31019e-06 -1.86891e-06
4.31019e-06 0.000253677 4.08929e-06
-1.86891e-06 4.08929e-06 0.000258273
0.00104109 1.94948e-06 4.30567e-07
1.94948e-06 4.05141e-06 -1.69608e-06
4.30567e-07 -1.69608e-06 -2.07143e-05
0.00127379 2.84285e-06 -3.9897e-07
2.84285e-06 0.000108569 5.82057e-07
-3.9897e-07 5.82057e-07 0.000112185
0.00113138 3.18532e-06 -5.00271e-07
3.18532e-06 3.46627e-05 1.44403e-06
-5.00271e-07 1.44403e-06 5.42462e-05
0.000985664 1.23666e-06 3.78984e-07
1.23666e-06 -3.32215e-05 -2.97498e-06
3.78984e-07 -2.97498e-06 -3.06932e-05
0.00230741 1.53728e-06 3.23933e-07
1.53728e-06 0.000608061 3.98343e-09
3.23933e-07 3.98343e-09 0.000632921
0.00229676 -3.26337e-07 4.33246e-07
-3.26337e-07 0.00060294 -3.7954e-06
4.33246e-07 -3.7954e-06 0.000627853
0.00131117 -4.90528e-07 -1.48857e-07
-4.90528e-07 0.000142051 -7.86471e-07
-1.48857e-07 -7.86471e-07 0.000105646
0.00104657 -1.0362e-06 -2.29368e-07
-1.0362e-06 5.04438e-06 -1.76112e-06
-2.29368e-07 -1.76112e-06 -1.54758e-05
0.00108138 -1.72668e-06 -6.40478e-08
-1.72668e-06 2.88648e-05 3.75976e-07
-6.40478e-08 3.75976e-07 -8.00539e-06
0.000981393 1.38369e-08 -6.41386e-08
1.38369e-08 -3.50689e-05 -2.99215e-06
-6.41386e-08 -2.99215e-06 -2.99828e-05
0.0010408 -1.80416e-08 -9.28107e-09
-1.80416e-08 1.84498e-06 2.61418e-09
-9.28107e-09 2.61418e-09 -1.85083e-05
0.00104675 1.15299e-06 -2.24451e-07
1.15299e-06 5.35329e-06 1.77519e-06
-2.24451e-07 1.77519e-06 -1.55165e-05
0.000982783 1.53328e-06 -5.7678e-08
1.53328e-06 -3.40272e-05 -8.60698e-10
-5.7678e-08 -8.60698e-10 -2.91359e-05
0.00222861 1.89469e-06 7.68203e-07
1.89469e-06 0.000569808 -3.75929e-06
7.68203e-07 -3.75929e-06 0.000595576
0.00150343 3.32446e-06 -6.26476e-07
3.32446e-06 0.000221203 1.82751e-06
-6.26476e-07 1.82751e-06 0.000228085
0.00169789 3.68685e-06 3.8069e-07
3.68685e-06 0.000311997 8.20618e-09
3.8069e-07 8.20618e-09 0.000334912
0.0012164 5.08992e-06 -3.43469e-06
5.08992e-06 7.91697e-05 5.96399e-06
-3.43469e-06 5.96399e-06 9.87427e-05
-0.00373863 2.67324e-05 -3.1749e-05
2.67324e-05 -0.00176057 9.6301e-06
-3.1749e-05 9.6301e-06 -0.00172738
-0.00123342 2.9327e-05 1.34146e-06
2.9327e-05 -0.000961677 -1.05802e-06
1.34146e-06 -1.05802e-06 -0.000937849
5.89795e-05 -2.37775e-05 -2.67458e-05
-2.37775e-05 -0.000256988 -6.4815e-06
-2.67458e-05 -6.4815e-06 -0.000326947
0.000170438 -1.50672e-05 1.62517e-06
-1.50672e-05 -0.000212153 -1.27983e-06
1.62517e-06 -1.27983e-06 -0.000229667
0.00115316 1.94865e-05 -3.40092e-06
1.94865e-05 2.50853e-05 -2.52563e-06
-3.40092e-06 -2.52563e-06 -5.40226e-05
0.00042897 -6.06156e-06 1.03736e-05
-6.06156e-06 1.11625e-05 -3.63457e-08
1.03736e-05 -3.63457e-08 -4.20961e-05
0.00130414 3.18499e-05 4.61094e-07
3.18499e-05 0.000193111 2.37445e-06
4.61094e-07 2.37445e-06 0.000119673
0.00307773 -6.16092e-06 -1.7577e-05
-6.16092e-06 0.00057383 2.55834e-06
-1.7577e-05 2.55834e-06 0.000320846
-0.00138533 4.14288e-05 1.27539e-05
4.14288e-05 -0.000590698 -3.39279e-06
1.27539e-05 -3.39279e-06 -0.000603462
0.00049889 4.04402e-05 2.56552e-07
4.04402e-05 -2.67937e-06 1.19703e-06
2.56552e-07 1.19703e-06 7.25192e-05
0.000588584 8.72613e-06 1.35085e-05
8.72613e-06 1.92349e-05 -1.09788e-05
1.35085e-05 -1.09788e-05 -8.14187e-05
0.00393034 1.5458e-05 -2.97887e-05
1.5458e-05 0.000994195 1.93144e-05
-2.97887e-05 1.93144e-05 0.000679948
8.19099e-05 8.03373e-05 -3.38459e-05
8.03373e-05 2.45045e-05 3.21995e-05
-3.38459e-05 3.21995e-05 1.5954e-05
0.00114254 2.78806e-05 3.54149e-06
2.78806e-05 0.000351149 -3.82066e-06
3.54149e-06 -3.82066e-06 0.00040913
0.00102795 5.1569e-06 -5.54501e-08
5.1569e-06 1.80229e-05 -9.21424e-07
-5.54501e-08 -9.21424e-07 -4.22145e-05
0.00102075 -4.45944e-08 7.63822e-08
-4.45944e-08 6.63951e-06 -3.87507e-07
7.63822e-08 -3.87507e-07 -4.15952e-05
0.00108543 -1.65809e-07 2.12065e-07
-1.65809e-07 3.03982e-05 9.72036e-07
2.12065e-07 9.72036e-07 -6.41269e-06
0.000991738 6.5761e-06 -1.82483e-08
6.5761e-06 -6.58283e-06 5.30213e-07
-1.82483e-08 5.30213e-07 -5.68598e-05
0.00114207 1.50887e-05 2.95008e-07
1.50887e-05 7.03171e-05 7.91157e-07
2.95008e-07 7.91157e-07 1.31151e-05
0.00118694 7.09165e-06 8.20994e-08
7.09165e-06 9.28499e-05 -4.17004e-07
8.20994e-08 -4.17004e-07 3.44549e-05
0.0011106 2.36224e-06 1.08938e-07
2.36224e-06 5.3409e-05 8.71152e-07
1.08938e-07 8.71152e-07 -1.05351e-06
0.00111313 -8.88653e-07 6.18012e-08
-8.88653e-07 5.53898e-05 -2.89735e-07
6.18012e-08 -2.89735e-07 2.79161e-06
0.00105756 -1.29816e-06 -2.17563e-09
-1.29816e-06 2.6765e-05 -4.41709e-07
-2.17563e-09 -4.41709e-07 -2.29824e-05
0.000988389 -9.06346e-06 -3.03027e-07
-9.06346e-06 -7.58353e-06 1.00147e-06
-3.03027e-07 1.00147e-06 -5.59778e-05
0.00162771 2.05634e-05 2.91944e-06
2.05634e-05 0.000192716 4.51526e-06
2.91944e-06 4.51526e-06 0.000140007
0.00124251 -1.93904e-05 -2.49541e-06
-1.93904e-05 -3.39789e-05 -1.50973e-06
-2.49541e-06 -1.50973e-06 -4.9642e-05
0.000795863 -2.45116e-05 2.50475e-07
-2.45116e-05 -0.000156537 -7.26513e-07
2.50475e-07 -7.26513e-07 -0.000218578
0.00116338 -2.58025e-05 -1.36357e-07
-2.58025e-05 7.47361e-05 3.13431e-07
-1.36357e-07 3.13431e-07 -2.93681e-06
0.00113917 -1.98505e-05 -2.40141e-07
-1.98505e-05 6.9927e-05 -1.29443e-07
-2.40141e-07 -1.29443e-07 -1.39552e-05
0.00115906 -1.71941e-05 -1.29389e-07
-1.71941e-05 8.29092e-05 -7.8726e-09
-1.29389e-07 -7.8726e-09 5.31465e-06
0.00120255 -1.57171e-05 1.43995e-07
-1.57171e-05 0.000104543 5.25965e-08
1.43995e-07 5.25965e-08 3.84389e-05
0.00109466 3.09627e-06 7.64934e-08
3.09627e-06 5.14251e-05 7.26239e-07
7.64934e-08 7.26239e-07 -1.24289e-05
0.00170047 -2.93978e-06 -1.82382e-06
-2.93978e-06 7.3934e-05 -9.14613e-07
-1.82382e-06 -9.14613e-07 7.29191e-05
0.00105221 -7.07339e-06 -2.46632e-08
-7.07339e-06 3.57176e-05 -1.9407e-07
-2.46632e-08 -1.9407e-07 -3.72262e-05
0.00108748 -1.53656e-05 7.72374e-08
-1.53656e-05 5.34638e-05 -3.72814e-07
7.72374e-08 -3.72814e-07 -2.31626e-05
0.0013011 -3.34424e-05 1.18007e-06
-3.34424e-05 4.93944e-05 1.00738e-06
1.18007e-06 1.00738e-06 1.54126e-06
0.000981032 -2.9818e-05 -6.59555e-07
-2.9818e-05 -3.11075e-05 2.15109e-08
-6.59555e-07 2.15109e-08 -0.000110261
0.0011803 -2.55955e-05 2.63034e-07
-2.55955e-05 8.68026e-05 -1.50993e-07
2.63034e-07 -1.50993e-07 -2.00707e-06
0.00123928 -1.80405e-05 1.13155e-07
-1.80405e-05 0.000127379 -2.18437e-07
1.13155e-07 -2.18437e-07 3.94347e-05
0.00304542 -2.68623e-05 -4.50516e-06
-2.68623e-05 0.000600626 5.22831e-06
-4.50516e-06 5.22831e-06 0.00061565
0.000932239 -3.14153e-05 -1.77485e-07
-3.14153e-05 -1.37696e-05 2.77951e-07
-1.77485e-07 2.77951e-07 -0.00010088
0.00117833 -1.94474e-05 -3.59477e-07
-1.94474e-05 9.33636e-05 8.11464e-07
-3.59477e-07 8.11464e-07 -2.83899e-06
0.0010464 3.75334e-06 -1.95185e-08
3.75334e-06 3.35043e-05 3.72541e-07
-1.95185e-08 3.72541e-07 -3.96238e-05
0.00115489 -1.21972e-05 -1.0097e-07
-1.21972e-05 8.89069e-05 -8.41661e-08
-1.0097e-07 -8.41661e-08 8.88727e-06
0.00123275 -1.53511e-05 -9.57637e-08
-1.53511e-05 0.000126314 3.2578e-08
-9.57637e-08 3.2578e-08 4.06285e-05
0.000750501 1.02349e-06 1.37289e-05
1.02349e-06 0.00023423 1.21926e-06
1.37289e-05 1.21926e-06 0.000225502
0.00139492 6.35439e-06 7.95024e-07
6.35439e-06 0.000549265 -3.56377e-06
7.95024e-07 -3.56377e-06 0.000530579
0.000846902 4.59672e-05 -2.41707e-05
4.59672e-05 -0.000641623 3.9722e-06
-2.41707e-05 3.9722e-06 -0.000829922
0.00111655 1.60841e-05 3.93009e-07
1.60841e-05 7.12954e-05 2.35277e-07
3.93009e-07 2.35277e-07 -3.24576e-06
0.000979484 1.77188e-05 1.35753e-06
1.77188e-05 2.27261e-05 -1.20173e-06
1.35753e-06 -1.20173e-06 -6.04684e-05
0.00194441 4.9137e-05 -1.49261e-06
4.9137e-05 0.000287521 -1.18794e-06
-1.49261e-06 -1.18794e-06 0.000197081
0.000881403 2.66516e-05 2.6585e-06
2.66516e-05 1.47982e-06 3.00011e-07
2.6585e-06 3.00011e-07 -0.000103801
0.00213617 -2.41613e-05 1.55159e-05
-2.41613e-05 0.000992394 4.58795e-06
1.55159e-05 4.58795e-06 0.000972924
0.000454981 9.56825e-06 5.44007e-05
9.56825e-06 -0.000496227 3.82651e-05
5.44007e-05 3.82651e-05 -0.00073487
0.00205326 3.88792e-05 -6.68258e-05
3.88792e-05 0.000214001 -5.67082e-05
-6.68258e-05 -5.67082e-05 5.31559e-05
0.00218584 3.17105e-05 6.11683e-06
3.17105e-05 0.000352005 1.69642e-06
6.11683e-06 1.69642e-06 0.000265263
-0.00158324 -8.29588e-05 3.59434e-05
-8.29588e-05 -0.00101924 3.41777e-05
3.59434e-05 3.41777e-05 -0.00103242
0.00246542 -2.29854e-05 -3.9596e-06
-2.29854e-05 0.00124457 -4.41616e-06
-3.9596e-06 -4.41616e-06 0.00129424
0.000934915 -3.99095e-05 -1.46659e-05
-3.99095e-05 0.000210046 -1.38686e-05
-1.46659e-05 -1.38686e-05 0.000273872
0.00116322 1.55848e-05 1.78096e-08
1.55848e-05 9.98709e-05 -1.9778e-07
1.78096e-08 -1.9778e-07 2.42078e-05
0.000690027 -7.49952e-06 5.31433e-06
-7.49952e-06 0.000226777 1.57185e-06
5.31433e-06 1.57185e-06 0.00023369
0.000560977 -9.45913e-06 2.72453e-06
-9.45913e-06 6.94271e-05 4.09523e-06
2.72453e-06 4.09523e-06 5.34685e-05
0.00114006 3.22908e-05 2.01485e-06
3.22908e-05 0.000121347 3.0666e-06
2.01485e-06 3.0666e-06 -1.42482e-05
0.00105047 1.61163e-05 -2.54727e-07
1.61163e-05 9.79642e-05 -1.82902e-07
-2.54727e-07 -1.82902e-07 2.31363e-06
0.00272011 2.10362e-05 7.34753e-06
2.10362e-05 0.000810337 9.41131e-06
7.34753e-06 9.41131e-06 0.000692697
0.00110589 5.98765e-05 -1.15562e-05
5.98765e-05 -4.99957e-05 -3.76335e-05
-1.15562e-05 -3.76335e-05 -0.000266966
0.00489641 -5.37289e-05 5.1326e-06
-5.37289e-05 0.00111105 1.88474e-06
5.1326e-06 1.88474e-06 0.000696915
-0.000578297 -0.00011616 4.14184e-06
-0.00011616 -0.000593079 1.32478e-05
4.14184e-06 1.32478e-05 -0.000657702
0.000483651 -1.36127e-05 -2.24992e-06
-1.36127e-05 -5.77224e-05 -1.27832e-06
-2.24992e-06 -1.27832e-06 -6.29647e-05
0.00086806 1.0527e-05 -3.14029e-07
1.0527e-05 -3.19122e-05 -2.10295e-07
-3.14029e-07 -2.10295e-07 -0.000109799
0.0016847 7.98459e-08 1.18619e-05
7.98459e-08 0.000799418 4.91666e-06
1.18619e-05 4.91666e-06 0.000747862
0.000892743 6.09359e-06 7.93088e-06
6.09359e-06 0.000207182 3.38432e-06
7.93088e-06 3.38432e-06 0.000156581
0.000568284 4.04619e-06 6.90764e-07
4.04619e-06 -4.55417e-05 4.26444e-06
6.90764e-07 4.26444e-06 -0.000140251
-0.000848803 2.73392e-05 1.47141e-05
2.73392e-05 -0.000387769 1.81344e-05
1.47141e-05 1.81344e-05 -0.000448385
0.00526913 -9.41157e-05 -1.58553e-05
-9.41157e-05 0.00115229 -2.15021e-05
-1.58553e-05 -2.15021e-05 0.000711657
0.000517079 -9.58255e-05 -4.72428e-06
-9.58255e-05 -0.000690669 -2.95713e-05
-4.72428e-06 -2.95713e-05 -0.000517868
0.000111404 -3.16114e-06 -9.17464e-07
-3.16114e-06 -0.000266716 -1.89106e-06
-9.17464e-07 -1.89106e-06 -0.00031184
0.00117517 1.50339e-05 -7.03979e-08
1.50339e-05 8.30944e-05 4.37072e-07
-7.03979e-08 4.37072e-07 9.88076e-06
0.00117437 9.30674e-06 -1.50278e-07
9.30674e-06 8.37415e-05 2.33452e-07
-1.50278e-07 2.33452e-07 1.01727e-05
0.00131246 5.62827e-06 -3.41509e-07
5.62827e-06 0.000148813 -3.9912e-07
-3.41509e-07 -3.9912e-07 7.41273e-05
0.00113996 9.8338e-06 -2.98849e-08
9.8338e-06 6.68045e-05 -8.97311e-07
-2.98849e-08 -8.97311e-07 1.22871e-05
0.00115396 4.43984e-06 2.76174e-09
4.43984e-06 7.4579e-05 -1.80136e-07
2.76174e-09 -1.80136e-07 1.08077e-05
0.00116816 1.00797e-05 -3.34543e-08
1.00797e-05 7.85627e-05 -4.49728e-08
-3.34543e-08 -4.49728e-08 1.0714e-05
0.00117226 8.73912e-06 -9.15929e-08
8.73912e-06 7.87941e-05 2.4163e-07
-9.15929e-08 2.4163e-07 6.27177e-06
0.001149 7.70773e-06 2.18818e-08
7.70773e-06 7.26259e-05 5.86525e-09
2.18818e-08 5.86525e-09 8.9563e-06
0.00119124 9.20943e-06 3.454e-08
9.20943e-06 9.10256e-05 2.27404e-07
3.454e-08 2.27404e-07 2.03481e-05
0.00112038 7.17449e-06 -7.83692e-08
7.17449e-06 6.02246e-05 -7.19537e-08
-7.83692e-08 -7.19537e-08 -1.35684e-05
0.00113218 5.79809e-06 -1.6375e-07
5.79809e-06 7.58482e-05 -4.10542e-07
-1.6375e-07 -4.10542e-07 2.751e-06
0.00115004 5.59042e-06 3.32358e-07
5.59042e-06 7.34536e-05 -2.53527e-07
3.32358e-07 -2.53527e-07 -1.92032e-06
0.00121542 3.7987e-06 -9.52462e-09
3.7987e-06 0.00010495 1.27699e-07
-9.52462e-09 1.27699e-07 3.46642e-05
0.00115926 -9.96004e-07 1.24171e-07
-9.96004e-07 7.76865e-05 -4.68139e-07
1.24171e-07 -4.68139e-07 1.46213e-05
0.00112888 -8.2007e-06 1.42381e-07
-8.2007e-06 6.45162e-05 -4.01013e-07
1.42381e-07 -4.01013e-07 7.93303e-07
0.00108892 -1.47425e-05 3.23612e-07
-1.47425e-05 4.66561e-05 -7.61735e-07
3.23612e-07 -7.61735e-07 -2.05978e-05
0.00118286 -5.53446e-06 2.894e-08
-5.53446e-06 9.07843e-05 -2.09234e-07
2.894e-08 -2.09234e-07 2.20308e-05
0.00111526 -9.0166e-06 -2.9473e-08
-9.0166e-06 5.96883e-05 1.56069e-07
-2.9473e-08 1.56069e-07 -5.43806e-06
0.00107405 -1.48811e-05 3.51563e-08
-1.48811e-05 3.99467e-05 -1.43794e-07
3.51563e-08 -1.43794e-07 -2.9806e-05
0.00112239 -1.48504e-05 -5.16564e-07
-1.48504e-05 6.22127e-05 -1.49149e-07
-5.16564e-07 -1.49149e-07 -8.52024e-06
0.00112302 -1.55276e-05 9.4028e-08
-1.55276e-05 6.68492e-05 -7.11547e-08
9.4028e-08 -7.11547e-08 -6.19337e-06
0.00117631 -1.79236e-05 7.36191e-08
-1.79236e-05 8.53248e-05 -3.69707e-07
7.36191e-08 -3.69707e-07 1.48332e-05
0.00113966 -1.57018e-05 -2.3259e-07
-1.57018e-05 6.61512e-05 -5.67153e-08
-2.3259e-07 -5.67153e-08 -1.81909e-06
0.00106182 -1.7824e-05 -1.29009e-07
-1.7824e-05 2.73007e-05 5.71417e-08
-1.29009e-07 5.71417e-08 -3.91766e-05
0.00113662 -1.87467e-05 -5.83277e-07
-1.87467e-05 6.05209e-05 6.67784e-07
-5.83277e-07 6.67784e-07 -3.87453e-06
0.00121163 -1.60594e-05 -2.36229e-07
-1.60594e-05 9.86762e-05 -4.58511e-07
-2.36229e-07 -4.58511e-07 4.02622e-05
0.00106345 -1.75277e-05 3.65193e-07
-1.75277e-05 2.99828e-05 -5.61638e-07
3.65193e-07 -5.61638e-07 -3.24209e-05
0.00112685 -1.57874e-05 2.39687e-07
-1.57874e-05 5.94972e-05 -1.59011e-07
2.39687e-07 -1.59011e-07 -3.44334e-06
0.00100796 -9.40884e-06 -7.14654e-07
-9.40884e-06 1.37709e-06 3.41007e-07
-7.14654e-07 3.41007e-07 -5.52509e-05
0.00112564 -1.33592e-05 7.57109e-08
-1.33592e-05 6.15599e-05 1.92187e-07
7.57109e-08 1.92187e-07 -3.48871e-06
0.00110114 -9.04128e-06 -1.12511e-07
-9.04128e-06 4.80893e-05 2.92173e-07
-1.12511e-07 2.92173e-07 -8.75276e-06
0.0010722 -1.71842e-06 -6.92382e-07
-1.71842e-06 2.93881e-05 1.00089e-06
-6.92382e-07 1.00089e-06 -1.48662e-05
0.00110762 -7.41643e-06 2.92407e-07
-7.41643e-06 5.18584e-05 -6.0622e-07
2.92407e-07 -6.0622e-07 -4.47107e-06
0.00107295 -2.68969e-06 3.21314e-08
-2.68969e-06 2.90339e-05 -1.12716e-08
3.21314e-08 -1.12716e-08 -1.46168e-05
0.00102785 4.24176e-06 -9.41345e-07
4.24176e-06 2.26912e-06 1.62795e-06
-9.41345e-07 1.62795e-06 -2.34547e-05
0.00107456 -1.36119e-06 5.03589e-07
-1.36119e-06 2.93387e-05 -9.76052e-07
5.03589e-07 -9.76052e-07 -1.36781e-05
0.00103453 3.53471e-06 5.88423e-08
3.53471e-06 3.74001e-06 5.66934e-09
5.88423e-08 5.66934e-09 -2.1596e-05
0.00156614 5.721e-06 -2.51301e-06
5.721e-06 0.000255538 4.04164e-06
-2.51301e-06 4.04164e-06 0.000259692
0.0010389 2.81748e-06 6.28436e-07
2.81748e-06 4.21264e-06 -1.68094e-06
6.28436e-07 -1.68094e-06 -2.07676e-05
0.00127135 4.29595e-06 -5.51118e-07
4.29595e-06 0.000109246 5.79765e-07
-5.51118e-07 5.79765e-07 0.000112529
0.00112919 4.95837e-06 -7.74726e-07
4.95837e-06 3.56883e-05 1.43036e-06
-7.74726e-07 1.43036e-06 5.4918e-05
0.000985193 2.72514e-06 7.00042e-07
2.72514e-06 -3.25036e-05 -2.95132e-06
7.00042e-07 -2.95132e-06 -3.01677e-05
0.00172507 3.42195e-06 8.96018e-07
3.42195e-06 0.000324504 -1.15644e-06
8.96018e-07 -1.15644e-06 0.000346639
0.00229876 1.67272e-06 1.39531e-06
1.67272e-06 0.000604068 -3.78332e-06
1.39531e-06 -3.78332e-06 0.000628932
0.00114219 -3.48995e-06 -9.4262e-08
-3.48995e-06 6.26242e-05 -8.54153e-07
-9.4262e-08 -8.54153e-07 2.33004e-05
0.00104435 -1.99417e-06 -4.04893e-07
-1.99417e-06 5.15432e-06 -1.73802e-06
-4.04893e-07 -1.73802e-06 -1.59011e-05
0.00110982 -2.11613e-06 9.92522e-08
-2.11613e-06 4.4619e-05 1.71776e-07
9.92522e-08 1.71776e-07 7.01962e-06
0.000984573 -1.39935e-06 -4.07207e-07
-1.39935e-06 -3.31732e-05 -2.97862e-06
-4.07207e-07 -2.97862e-06 -2.82261e-05
0.00104103 -1.0492e-06 -6.41746e-08
-1.0492e-06 2.36154e-06 8.70514e-10
-6.41746e-08 8.70514e-10 -1.81193e-05
0.00107486 -2.06802e-06 -1.0701e-07
-2.06802e-06 2.57708e-05 1.32015e-06
-1.0701e-07 1.32015e-06 -1.10696e-05
0.00222486 -1.31236e-08 -2.89644e-07
-1.31236e-08 0.000567708 -3.76688e-06
-2.89644e-07 -3.76688e-06 0.000593542
0.000981642 2.58578e-08 -7.95247e-08
2.58578e-08 -3.49432e-05 -3.95326e-09
-7.95247e-08 -3.95326e-09 -2.98626e-05
0.00104324 -2.46789e-08 -7.38134e-09
-2.46789e-08 3.04195e-06 1.77683e-06
-7.38134e-09 1.77683e-06 -1.73407e-05
0.000986988 1.54077e-06 -3.76516e-07
1.54077e-06 -3.19654e-05 2.97561e-06
-3.76516e-07 2.97561e-06 -2.71115e-05
0.00222413 1.94499e-06 -3.45049e-07
1.94499e-06 0.000567741 -4.10511e-09
-3.45049e-07 -4.10511e-09 0.000593499
0.00223873 3.79913e-06 -2.37491e-06
3.79913e-06 0.000576042 3.73226e-06
-2.37491e-06 3.73226e-06 0.000601448
-0.00129171 1.72001e-05 9.25499e-06
1.72001e-05 -0.000978945 -2.59003e-06
9.25499e-06 -2.59003e-06 -0.00098606
-0.000848393 1.58258e-05 2.06876e-05
1.58258e-05 -0.000340505 -5.07608e-06
2.06876e-05 -5.07608e-06 -0.000351032
0.000459059 6.32553e-06 1.61176e-05
6.32553e-06 1.76762e-05 -6.59154e-06
1.61176e-05 -6.59154e-06 -1.57832e-06
-0.00112956 3.22242e-05 -6.49695e-06
3.22242e-05 -0.00090509 1.56064e-06
-6.49695e-06 1.56064e-06 -0.000873414
0.000343898 4.52601e-06 -2.86727e-05
4.52601e-06 -0.000417675 -4.57349e-06
-2.86727e-05 -4.57349e-06 -0.000506611
0.00138684 3.32882e-05 3.56339e-06
3.32882e-05 0.00020271 1.44506e-07
3.56339e-06 1.44506e-07 0.000130333
0.000875386 -1.65119e-05 -5.09778e-06
-1.65119e-05 -0.000131441 -7.86626e-07
-5.09778e-06 -7.86626e-07 -0.00033515
0.00194652 4.88981e-05 6.28876e-05
4.88981e-05 0.000865691 -2.4157e-05
6.28876e-05 -2.4157e-05 0.000788579
7.45056e-05 4.2241e-05 3.06779e-06
4.2241e-05 -0.000251282 -4.74395e-06
3.06779e-06 -4.74395e-06 -0.000180595
0.00125229 1.22097e-05 -2.56016e-06
1.22097e-05 0.000150692 9.91901e-07
-2.56016e-06 9.91901e-07 5.23055e-05
0.00227636 -3.75594e-05 2.72777e-06
-3.75594e-05 0.000112364 -1.57103e-06
2.72777e-06 -1.57103e-06 -0.000296384
0.00195286 0.000107735 -1.03994e-06
0.000107735 0.000569444 3.749e-06
-1.03994e-06 3.749e-06 0.000478021
0.000691063 2.0041e-05 -3.18873e-06
2.0041e-05 7.16371e-05 -1.69628e-06
-3.18873e-06 -1.69628e-06 0.000145273
0.000391231 -2.43399e-05 4.58607e-06
-2.43399e-05 -0.00010455 -4.9164e-06
4.58607e-06 -4.9164e-06 -0.000207781
0.00263147 2.11312e-05 2.9911e-05
2.11312e-05 1.46901e-05 -1.3056e-05
2.9911e-05 -1.3056e-05 -0.000529391
-0.000950482 0.000118248 -1.97938e-05
0.000118248 -0.000863566 4.43318e-05
-1.97938e-05 4.43318e-05 -0.000911209
9.4361e-05 2.09576e-08 1.22779e-05
2.09576e-08 -0.00024816 6.55987e-07
1.22779e-05 6.55987e-07 -0.000273441
0.00114624 -2.78573e-06 1.29024e-07
-2.78573e-06 7.7872e-05 -5.83878e-07
1.29024e-07 -5.83878e-07 1.13015e-05
0.00111543 6.58748e-06 -2.0492e-07
6.58748e-06 5.96481e-05 -1.73514e-07
-2.0492e-07 -1.73514e-07 2.94705e-07
0.00110844 8.28066e-08 1.84396e-07
8.28066e-08 4.9013e-05 2.13823e-07
1.84396e-07 2.13823e-07 1.37848e-06
0.00109325 1.46603e-05 3.37964e-07
1.46603e-05 4.65009e-05 1.14441e-06
3.37964e-07 1.14441e-06 -9.88759e-06
0.0010839 6.08848e-06 -5.07412e-08
6.08848e-06 4.267e-05 -1.39255e-07
-5.07412e-08 -1.39255e-07 -2.03109e-05
0.00120953 5.74979e-06 3.23863e-08
5.74979e-06 0.000103216 3.61792e-07
3.23863e-08 3.61792e-07 4.54859e-05
0.00108026 -1.20102e-06 -2.90516e-07
-1.20102e-06 3.89599e-05 1.56041e-06
-2.90516e-07 1.56041e-06 -1.50052e-05
0.00123816 8.02275e-06 -2.16939e-07
8.02275e-06 0.000116332 -4.63308e-07
-2.16939e-07 -4.63308e-07 6.25149e-05
0.00119251 3.22176e-06 1.23084e-08
3.22176e-06 9.36634e-05 3.94114e-07
1.23084e-08 3.94114e-07 4.17263e-05
0.000984493 -2.41724e-06 -8.79197e-08
-2.41724e-06 -8.83101e-06 2.73721e-07
-8.79197e-08 2.73721e-07 -5.92374e-05
0.00139225 -7.91445e-06 -7.12824e-07
-7.91445e-06 -6.20147e-05 2.1302e-06
-7.12824e-07 2.1302e-06 -7.45284e-05
0.000957237 -3.13438e-05 -1.1628e-06
-3.13438e-05 -0.00011506 4.06784e-07
-1.1628e-06 4.06784e-07 -0.000158711
0.00127568 -3.1964e-05 1.64176e-07
-3.1964e-05 0.000101442 9.50711e-07
1.64176e-07 9.50711e-07 2.12336e-05
0.00113237 -2.52254e-05 -4.73996e-07
-2.52254e-05 6.19328e-05 -3.46763e-07
-4.73996e-07 -3.46763e-07 -2.7911e-05
0.00117514 -1.74664e-05 3.08031e-07
-1.74664e-05 9.6046e-05 -1.73128e-07
3.08031e-07 -1.73128e-07 7.46303e-06
0.00102723 -1.49997e-05 9.59837e-08
-1.49997e-05 2.43999e-05 -2.46204e-07
9.59837e-08 -2.46204e-07 -5.29724e-05
0.00103029 -3.10483e-06 -7.94739e-08
-3.10483e-06 2.59229e-05 1.57364e-07
-7.94739e-08 1.57364e-07 -4.76062e-05
0.00108579 -5.99586e-06 2.24568e-08
-5.99586e-06 5.29067e-05 6.54184e-07
2.24568e-08 6.54184e-07 -2.05705e-05
0.00173578 -2.55065e-05 4.40799e-07
-2.55065e-05 6.46913e-06 2.24826e-07
4.40799e-07 2.24826e-07 2.15594e-05
0.00117649 -7.99774e-06 2.284e-08
-7.99774e-06 0.000100035 -2.485e-07
2.284e-08 -2.485e-07 2.03146e-05
0.00127085 -1.62689e-05 9.66893e-08
-1.62689e-05 0.000144777 1.57928e-08
9.66893e-08 1.57928e-08 5.87831e-05
0.00117974 -3.23562e-05 2.94052e-07
-3.23562e-05 0.000101069 -2.31697e-07
2.94052e-07 -2.31697e-07 1.42681e-05
0.00121178 -1.90241e-05 1.86985e-07
-1.90241e-05 0.000107497 -1.00627e-07
1.86985e-07 -1.00627e-07 1.15401e-05
0.00287527 -4.42771e-05 -9.37449e-06
-4.42771e-05 0.00064884 9.37961e-06
-9.37449e-06 9.37961e-06 0.000607365
0.000924934 -1.41386e-05 -9.62163e-07
-1.41386e-05 3.22435e-05 5.87199e-07
-9.62163e-07 5.87199e-07 -6.47711e-05
0.00114231 -1.33983e-05 -7.70069e-07
-1.33983e-05 7.774e-05 1.2383e-06
-7.70069e-07 1.2383e-06 -1.72401e-05
0.00111938 5.98401e-06 -1.032e-07
5.98401e-06 6.9598e-05 2.08932e-07
-1.032e-07 2.08932e-07 -8.59004e-06
0.00115218 -1.08989e-06 -1.09463e-07
-1.08989e-06 8.49271e-05 2.73344e-07
-1.09463e-07 2.73344e-07 -1.62673e-06
0.00152266 1.19158e-06 4.90699e-06
1.19158e-06 0.000711696 1.42062e-06
4.90699e-06 1.42062e-06 0.000642682
-0.000260708 2.47519e-06 4.47643e-06
2.47519e-06 -0.000357804 -3.99827e-07
4.47643e-06 -3.99827e-07 -0.000371726
-0.00405106 1.72215e-06 5.62791e-05
1.72215e-06 -0.00195029 -1.87002e-06
5.62791e-05 -1.87002e-06 -0.00187804
0.00119378 1.59765e-05 3.97328e-07
1.59765e-05 0.000115309 4.2147e-07
3.97328e-07 4.2147e-07 3.95604e-05
0.00104407 1.54245e-05 1.67374e-06
1.54245e-05 9.73089e-05 -7.33891e-07
1.67374e-06 -7.33891e-07 2.56868e-06
0.000788012 3.41393e-05 3.07075e-06
3.41393e-05 -4.51586e-05 -2.12171e-06
3.07075e-06 -2.12171e-06 -0.000178706
-0.000779993 -6.48639e-06 -3.93549e-06
-6.48639e-06 -0.000654187 -2.12329e-06
-3.93549e-06 -2.12329e-06 -0.000657811
0.00243979 -2.11165e-05 5.03376e-06
-2.11165e-05 -0.000134559 1.74808e-05
5.03376e-06 1.74808e-05 -0.000645073
-0.000360701 3.568e-05 -1.91986e-05
3.568e-05 -0.000383903 -2.61027e-05
-1.91986e-05 -2.61027e-05 -0.000444479
0.00191722 1.33649e-05 3.66352e-05
1.33649e-05 0.000304869 1.32522e-05
3.66352e-05 1.32522e-05 0.00013348
0.00338721 -0.00014279 4.11092e-05
-0.00014279 0.00107327 5.26912e-05
4.11092e-05 5.26912e-05 0.000943996
0.000316139 -1.00988e-05 -1.46021e-05
-1.00988e-05 -7.72375e-05 -7.99583e-06
-1.46021e-05 -7.99583e-06 -9.16411e-05
3.85334e-05 -1.11655e-05 -1.08101e-05
-1.11655e-05 -0.00032079 -3.8399e-06
-1.08101e-05 -3.8399e-06 -0.0003379
0.00102288 1.30651e-05 7.46863e-07
1.30651e-05 4.24585e-05 3.58912e-07
7.46863e-07 3.58912e-07 -3.53e-05
0.00121215 9.61817e-07 1.85044e-06
9.61817e-07 0.000508085 9.12312e-07
1.85044e-06 9.12312e-07 0.000450384
0.000627038 6.41409e-06 3.73059e-07
6.41409e-06 4.00095e-05 -1.90585e-08
3.73059e-07 -1.90585e-08 -1.19549e-05
0.00069719 6.5572e-06 4.75218e-06
6.5572e-06 -4.60305e-06 3.91253e-07
4.75218e-06 3.91253e-07 -0.000110171
0.000511633 3.13702e-05 -9.44406e-06
3.13702e-05 0.000100649 -9.86895e-07
-9.44406e-06 -9.86895e-07 -2.90601e-05
0.00451286 -4.3453e-05 1.01177e-05
-4.3453e-05 0.000547585 9.05982e-06
1.01177e-05 9.05982e-06 5.47989e-05
0.00063622 -1.41621e-06 -1.07015e-06
-1.41621e-06 7.31043e-05 1.49974e-06
-1.07015e-06 1.49974e-06 2.39781e-05
0.0021292 -0.000118433 3.65525e-06
-0.000118433 0.000106695 3.6021e-06
3.65525e-06 3.6021e-06 0.000144949
0.000710053 -1.01083e-06 -9.47407e-07
-1.01083e-06 -0.000109871 -2.92829e-06
-9.47407e-07 -2.92829e-06 -0.000182884
0.000785634 9.1619e-06 2.66032e-06
9.1619e-06 0.000132978 1.39731e-06
2.66032e-06 1.39731e-06 5.31648e-05
0.000563571 -8.31948e-07 -1.05218e-06
-8.31948e-07 -2.42467e-05 1.69089e-06
-1.05218e-06 1.69089e-06 -8.07258e-05
-3.98863e-05 1.02454e-06 -1.24102e-05
1.02454e-06 -0.000348133 1.64302e-06
-1.24102e-05 1.64302e-06 -0.000351633
-0.000148085 -2.44175e-06 -8.01101e-06
-2.44175e-06 -0.000314107 -1.61822e-06
-8.01101e-06 -1.61822e-06 -0.000390019
0.00605828 -4.12035e-05 -2.13988e-05
-4.12035e-05 0.0015362 1.95728e-06
-2.13988e-05 1.95728e-06 0.00101586
0.00108104 2.84618e-06 3.31676e-06
2.84618e-06 -0.000793128 -2.07472e-05
3.31676e-06 -2.07472e-05 -0.000513922
0.00121805 9.61737e-06 8.53624e-08
9.61737e-06 0.000104217 4.03265e-07
8.53624e-08 4.03265e-07 3.06342e-05
0.00124997 3.57235e-06 6.80062e-08
3.57235e-06 0.000122049 -2.34725e-07
6.80062e-08 -2.34725e-07 4.73701e-05
0.00120765 4.47794e-06 -8.21028e-07
4.47794e-06 0.000117432 -7.91532e-08
-8.21028e-07 -7.91532e-08 4.45123e-05
0.00114577 1.34418e-05 -8.31203e-08
1.34418e-05 7.1106e-05 -3.42054e-07
-8.31203e-08 -3.42054e-07 7.37797e-06
0.00120834 1.20478e-05 3.90687e-08
1.20478e-05 9.90687e-05 2.72147e-07
3.90687e-08 2.72147e-07 2.83154e-05
0.0011243 6.7912e-06 -2.33653e-07
6.7912e-06 6.26978e-05 3.64035e-07
-2.33653e-07 3.64035e-07 -1.11041e-05
0.00121697 4.52133e-06 -1.5901e-08
4.52133e-06 0.000105648 -3.39564e-08
-1.5901e-08 -3.39564e-08 3.55226e-05
0.00116118 4.20333e-06 1.04079e-07
4.20333e-06 7.95861e-05 1.70231e-08
1.04079e-07 1.70231e-08 3.93972e-06
0.001124 7.22004e-06 1.07745e-07
7.22004e-06 7.01015e-05 4.58005e-07
1.07745e-07 4.58005e-07 -2.86269e-06
0.00113254 9.73734e-06 2.24747e-07
9.73734e-06 8.04112e-05 -9.03394e-07
2.24747e-07 -9.03394e-07 6.06776e-06
0.0011353 -8.95012e-06 -2.3028e-07
-8.95012e-06 7.12499e-05 6.03515e-08
-2.3028e-07 6.03515e-08 -4.41202e-06
0.00119753 -5.23093e-06 4.54485e-08
-5.23093e-06 9.71887e-05 -4.10643e-07
4.54485e-08 -4.10643e-07 2.88009e-05
0.0011289 -6.68818e-06 3.2402e-08
-6.68818e-06 6.62044e-05 -9.45128e-08
3.2402e-08 -9.45128e-08 1.10996e-06
0.00110796 -1.50669e-05 3.41995e-08
-1.50669e-05 5.57743e-05 -1.27222e-07
3.41995e-08 -1.27222e-07 -1.37081e-05
0.00113583 -1.56183e-05 1.06722e-07
-1.56183e-05 7.19598e-05 -6.88681e-08
1.06722e-07 -6.88681e-08 -9.1057e-07
0.00107975 -1.41083e-05 -2.26836e-07
-1.41083e-05 4.20051e-05 1.9573e-07
-2.26836e-07 1.9573e-07 -2.87519e-05
0.00116445 -1.73586e-05 -3.12239e-07
-1.73586e-05 8.82953e-05 1.73769e-07
-3.12239e-07 1.73769e-07 1.4021e-05
0.00113606 -1.76587e-05 2.2389e-07
-1.76587e-05 6.71996e-05 -2.50429e-07
2.2389e-07 -2.50429e-07 -1.80509e-06
0.00104938 -1.90484e-05 2.52014e-07
-1.90484e-05 2.71076e-05 2.55277e-07
2.52014e-07 2.55277e-07 -4.69048e-05
0.00115285 -1.56747e-05 3.08877e-07
-1.56747e-05 7.23862e-05 2.3069e-07
3.08877e-07 2.3069e-07 4.30866e-06
0.00117036 -1.85703e-05 5.05381e-08
-1.85703e-05 7.81514e-05 3.35631e-07
5.05381e-08 3.35631e-07 1.16894e-05
0.00106297 -1.96401e-05 -6.30612e-08
-1.96401e-05 2.22798e-05 5.32213e-07
-6.30612e-08 5.32213e-07 -4.74622e-05
0.00112331 -1.80149e-05 -4.21902e-07
-1.80149e-05 5.87306e-05 3.59393e-08
-4.21902e-07 3.59393e-08 -5.34149e-06
0.0011314 -1.54169e-05 -7.32132e-07
-1.54169e-05 6.15936e-05 2.30862e-07
-7.32132e-07 2.30862e-07 3.57127e-06
0.00108465 -1.83585e-05 -2.61043e-07
-1.83585e-05 3.67701e-05 1.36857e-07
-2.61043e-07 1.36857e-07 -2.77401e-05
0.00111342 -1.00463e-05 -6.50577e-07
-1.00463e-05 5.0462e-05 2.09911e-07
-6.50577e-07 2.09911e-07 -3.42269e-06
0.00117048 -1.6086e-05 5.63485e-08
-1.6086e-05 7.85907e-05 -1.73619e-07
5.63485e-08 -1.73619e-07 1.97698e-05
0.00109611 -1.78038e-05 3.99928e-07
-1.78038e-05 4.59265e-05 -6.93107e-07
3.99928e-07 -6.93107e-07 -1.55869e-05
0.001201 -1.61328e-05 8.57277e-07
-1.61328e-05 9.50652e-05 -1.52394e-07
8.57277e-07 -1.52394e-07 3.26002e-05
0.00105117 -9.88679e-06 3.58625e-08
-9.88679e-06 2.21071e-05 -1.80942e-08
3.58625e-08 -1.80942e-08 -3.41993e-05
0.0010737 -1.06993e-06 -8.76862e-07
-1.06993e-06 2.99871e-05 9.66567e-07
-8.76862e-07 9.66567e-07 -1.42883e-05
0.00110151 -7.99111e-06 4.13524e-07
-7.99111e-06 4.82618e-05 -2.29974e-07
4.13524e-07 -2.29974e-07 -8.55411e-06
0.00107171 -1.43106e-06 4.70662e-08
-1.43106e-06 2.9082e-05 6.41265e-09
4.70662e-08 6.41265e-09 -1.51531e-05
0.00102364 5.16149e-06 -1.12864e-06
5.16149e-06 2.29312e-06 1.61862e-06
-1.12864e-06 1.61862e-06 -2.39043e-05
0.0010771 -2.8084e-06 6.14722e-07
-2.8084e-06 3.10582e-05 -1.00476e-06
6.14722e-07 -1.00476e-06 -1.26421e-05
0.00102997 4.25283e-06 4.79942e-08
4.25283e-06 3.28736e-06 3.64731e-09
4.79942e-08 3.64731e-09 -2.24607e-05
0.00153319 7.11184e-06 -2.59492e-06
7.11184e-06 0.000242575 2.82291e-06
-2.59492e-06 2.82291e-06 0.000246397
0.00103575 3.53324e-06 8.48703e-07
3.53324e-06 4.28019e-06 -1.65929e-06
8.48703e-07 -1.65929e-06 -2.10645e-05
0.00126791 5.6629e-06 -6.76295e-07
5.6629e-06 0.000110106 5.82413e-07
-6.76295e-07 5.82413e-07 0.000112949
0.00112552 6.65808e-06 -1.04385e-06
6.65808e-06 3.681e-05 1.41092e-06
-1.04385e-06 1.41092e-06 5.55464e-05
0.00098365 4.13527e-06 1.02578e-06
4.13527e-06 -3.14105e-05 -2.9217e-06
1.02578e-06 -2.9217e-06 -2.9419e-05
0.00172886 5.29329e-06 1.20422e-06
5.29329e-06 0.000328269 -1.14829e-06
1.20422e-06 -1.14829e-06 0.000350066
0.00230102 3.64947e-06 2.34931e-06
3.64947e-06 0.000606294 -3.76576e-06
2.34931e-06 -3.76576e-06 0.000630961
0.000894504 -1.60317e-06 -3.72663e-07
-1.60317e-06 -5.62568e-05 -1.39689e-06
-3.72663e-07 -1.39689e-06 -9.92727e-05
0.000803875 -3.03833e-06 -5.96739e-07
-3.03833e-06 -0.00010943 -2.24868e-06
-5.96739e-07 -2.24868e-06 -0.000133152
0.0011455 -3.28271e-06 5.38032e-08
-3.28271e-06 6.41415e-05 1.27392e-07
5.38032e-08 1.27392e-07 2.476e-05
0.000988725 -2.84805e-06 -7.07563e-07
-2.84805e-06 -3.01149e-05 -2.94506e-06
-7.07563e-07 -2.94506e-06 -2.56312e-05
0.000918776 -1.99323e-06 -2.68369e-08
-1.99323e-06 -5.56692e-05 4.18386e-09
-2.68369e-08 4.18386e-09 -7.74848e-05
0.000906024 -3.00425e-06 1.66457e-07
-3.00425e-06 -5.39643e-05 1.12373e-06
1.66457e-07 1.12373e-06 -9.27543e-05
0.00221976 -1.88997e-06 -1.39672e-06
-1.88997e-06 0.000565656 -3.75051e-06
-1.39672e-06 -3.75051e-06 0.000591432
0.000981227 -1.39272e-06 -8.37325e-08
-1.39272e-06 -3.48118e-05 5.64788e-09
-8.37325e-08 5.64788e-09 -2.98399e-05
0.00103541 -1.06172e-06 1.03105e-07
-1.06172e-06 -3.62222e-07 1.73252e-06
1.03105e-07 1.73252e-06 -2.08027e-05
0.00222451 3.60297e-08 -3.55622e-07
3.60297e-08 0.000567534 9.22223e-10
-3.55622e-07 9.22223e-10 0.000593373
0.000981767 3.78247e-08 -1.05185e-07
3.78247e-08 -3.48826e-05 2.99763e-06
-1.05185e-07 2.99763e-06 -2.98065e-05
0.00222037 1.99427e-06 -1.33022e-06
1.99427e-06 0.000566036 3.75301e-06
-1.33022e-06 3.75301e-06 0.000591778
0.000808581 1.33812e-06 9.00352e-06
1.33812e-06 0.000253402 -3.81647e-06
9.00352e-06 -3.81647e-06 0.000193028
0.000788289 1.78094e-05 -3.28551e-07
1.78094e-05 0.000251398 1.04868e-06
-3.28551e-07 1.04868e-06 0.000251356
0.000681885 1.48269e-05 8.02639e-05
1.48269e-05 0.000144243 -1.18499e-05
8.02639e-05 -1.18499e-05 7.59438e-05
0.00109625 8.18177e-06 -4.67925e-07
8.18177e-06 4.35094e-05 -4.32256e-07
-4.67925e-07 -4.32256e-07 -1.26e-05
0.000367235 -1.25023e-05 5.97881e-06
-1.25023e-05 -0.000110138 -7.74827e-06
5.97881e-06 -7.74827e-06 -0.000158573
0.000694037 6.8709e-06 3.29293e-06
6.8709e-06 0.000164797 -8.47586e-07
3.29293e-06 -8.47586e-07 0.000146649
0.00082079 3.51027e-05 -1.35853e-05
3.51027e-05 0.000227911 1.11687e-05
-1.35853e-05 1.11687e-05 0.000267584
0.00137531 6.47878e-06 -2.16605e-05
6.47878e-06 3.05924e-05 6.52189e-06
-2.16605e-05 6.52189e-06 -9.04359e-05
0.00463945 3.37527e-06 3.18749e-06
3.37527e-06 0.00135458 -1.72273e-06
3.18749e-06 -1.72273e-06 0.000947951
-0.00139934 8.51392e-05 3.87013e-05
8.51392e-05 -0.000836989 -2.94749e-05
3.87013e-05 -2.94749e-05 -0.000858068
0.0023037 1.74627e-05 -9.37946e-06
1.74627e-05 0.00107939 9.19567e-07
-9.37946e-06 9.19567e-07 0.00113277
0.00217398 -4.99201e-05 -1.65623e-05
-4.99201e-05 0.000356778 6.62287e-06
-1.65623e-05 6.62287e-06 0.000165897
0.00452073 5.75012e-05 1.51244e-05
5.75012e-05 0.00105454 -2.24127e-05
1.51244e-05 -2.24127e-05 0.000588927
-7.64905e-05 0.000124768 2.57522e-07
0.000124768 -0.000732681 8.86251e-06
2.57522e-07 8.86251e-06 -0.000784042
0.00108408 4.27128e-06 1.60715e-06
4.27128e-06 0.000342255 -3.26906e-06
1.60715e-06 -3.26906e-06 0.000332054
0.00150836 -7.30759e-05 2.86774e-05
-7.30759e-05 4.55964e-05 -3.47514e-05
2.86774e-05 -3.47514e-05 -0.000168831
0.00544107 9.13604e-05 6.27078e-06
9.13604e-05 0.000770493 -4.16288e-05
6.27078e-06 -4.16288e-05 0.00015937
0.00110129 0.000112704 6.67955e-06
0.000112704 -0.000692407 3.34575e-05
6.67955e-06 3.34575e-05 -0.00065288
0.000194563 -1.79212e-06 2.40874e-06
-1.79212e-06 -0.000201536 4.43363e-06
2.40874e-06 4.43363e-06 -0.000267211
0.00111152 1.18789e-06 -2.38592e-07
1.18789e-06 5.74649e-05 -4.33824e-07
-2.38592e-07 -4.33824e-07 -1.40907e-05
0.00112911 -5.0565e-06 2.52257e-08
-5.0565e-06 6.95186e-05 4.10818e-08
2.52257e-08 4.10818e-08 2.22578e-06
0.00120345 8.40965e-06 -4.56292e-10
8.40965e-06 0.00010149 5.73366e-07
-4.56292e-10 5.73366e-07 4.30251e-05
0.00109087 1.12111e-05 -4.73326e-07
1.12111e-05 4.51047e-05 -7.22135e-07
-4.73326e-07 -7.22135e-07 -1.87854e-05
0.00116399 1.12599e-05 3.72959e-08
1.12599e-05 8.12547e-05 3.17154e-07
3.72959e-08 3.17154e-07 1.90724e-05
0.00123157 1.98177e-06 1.27156e-07
1.98177e-06 0.00011337 1.20598e-06
1.27156e-07 1.20598e-06 5.62855e-05
0.00126222 7.51684e-06 -9.22489e-08
7.51684e-06 0.000127394 5.09032e-08
-9.22489e-08 5.09032e-08 7.38608e-05
0.00127161 7.56489e-06 1.93821e-07
7.56489e-06 0.000131784 1.13337e-06
1.93821e-07 1.13337e-06 8.05246e-05
0.000346404 -2.4144e-05 6.84248e-07
-2.4144e-05 -0.000624137 -1.19966e-06
6.84248e-07 -1.19966e-06 -0.000606065
0.00146683 -3.36417e-05 3.52888e-07
-3.36417e-05 0.000235374 -2.14428e-07
3.52888e-07 -2.14428e-07 0.000148767
0.00112605 -1.54903e-05 1.79755e-07
-1.54903e-05 7.27264e-05 6.47484e-07
1.79755e-07 6.47484e-07 -1.10021e-06
0.00125857 -1.8492e-05 6.01637e-07
-1.8492e-05 0.000127971 -6.83714e-07
6.01637e-07 -6.83714e-07 3.22445e-05
0.00131385 -1.71094e-05 2.15147e-07
-1.71094e-05 0.000165552 1.18849e-07
2.15147e-07 1.18849e-07 7.9249e-05
0.00120131 -2.87537e-06 -3.37891e-08
-2.87537e-06 0.000112661 -3.82791e-07
-3.37891e-08 -3.82791e-07 3.32432e-05
0.00113531 5.08751e-06 -1.285e-10
5.08751e-06 7.73395e-05 1.98348e-08
-1.285e-10 1.98348e-08 -9.12614e-07
0.00133397 -3.32039e-05 1.08511e-06
-3.32039e-05 -7.28585e-05 1.83745e-07
1.08511e-06 1.83745e-07 -9.71167e-05
0.00117361 -2.89387e-06 -1.94785e-08
-2.89387e-06 9.43927e-05 1.01349e-07
-1.94785e-08 1.01349e-07 7.87763e-06
0.00120386 -1.32664e-05 1.46419e-07
-1.32664e-05 0.000105858 5.72184e-08
1.46419e-07 5.72184e-08 1.07825e-05
0.00109472 -1.72664e-05 -1.16441e-08
-1.72664e-05 0.000110615 2.49161e-07
-1.16441e-08 2.49161e-07 1.37175e-05
0.0010717 7.87615e-06 -3.93768e-08
7.87615e-06 4.20772e-05 5.41587e-07
-3.93768e-08 5.41587e-07 -3.60369e-05
0.00206876 -3.61967e-05 -9.38669e-06
-3.61967e-05 0.000448292 1.70938e-05
-9.38669e-06 1.70938e-05 0.000371491
0.0012398 1.47027e-06 -1.77869e-06
1.47027e-06 0.000181442 3.44244e-07
-1.77869e-06 3.44244e-07 8.42997e-05
0.0012202 -6.51148e-06 -4.38761e-07
-6.51148e-06 0.000111722 1.00484e-06
-4.38761e-07 1.00484e-06 2.05886e-05
0.001183 8.1968e-06 2.62284e-08
8.1968e-06 9.58529e-05 4.52419e-07
2.62284e-08 4.52419e-07 1.05668e-05
0.0012216 1.44094e-06 1.1864e-06
1.44094e-06 0.000416738 7.52562e-07
1.1864e-06 7.52562e-07 0.000327632
0.00127941 1.97693e-06 -4.56962e-06
1.97693e-06 0.00055662 1.82519e-07
-4.56962e-06 1.82519e-07 0.000487872
-0.00126182 3.74388e-06 -4.16029e-06
3.74388e-06 -0.000943792 -6.51863e-07
-4.16029e-06 -6.51863e-07 -0.000962091
0.00115165 1.53265e-05 5.9594e-08
1.53265e-05 0.000103899 5.4313e-08
5.9594e-08 5.4313e-08 2.63697e-05
0.000844086 6.30258e-06 1.34177e-06
6.30258e-06 4.63107e-05 3.80075e-06
1.34177e-06 3.80075e-06 -7.0718e-05
0.000715186 1.96495e-06 -1.17485e-05
1.96495e-06 0.00020121 -3.25141e-06
-1.17485e-05 -3.25141e-06 0.000137369
0.00414545 -0.000103245 2.25146e-06
-0.000103245 0.000683025 5.54923e-06
2.25146e-06 5.54923e-06 0.000153652
0.0019428 5.51801e-05 -5.72011e-06
5.51801e-05 0.000430083 -3.27382e-05
-5.72011e-06 -3.27382e-05 0.00023551
0.00191552 -0.000118311 -3.03317e-06
-0.000118311 -0.000431 4.75197e-05
-3.03317e-06 4.75197e-05 -0.000252023
0.000324884 6.78254e-06 -6.63165e-06
6.78254e-06 -0.000150529 -3.90657e-06
-6.63165e-06 -3.90657e-06 -0.000203721
0.00113234 1.77034e-07 1.33411e-06
1.77034e-07 0.000393607 6.18869e-07
1.33411e-06 6.18869e-07 0.000340828
0.00112049 1.57752e-06 -4.71071e-07
1.57752e-06 8.95438e-05 -7.0391e-07
-4.71071e-07 -7.0391e-07 1.61411e-05
0.000614859 8.92639e-06 4.86564e-07
8.92639e-06 2.8191e-05 2.47027e-07
4.86564e-07 2.47027e-07 -5.256e-05
0.000699303 -1.30141e-06 -2.2423e-06
-1.30141e-06 5.77346e-05 3.30148e-07
-2.2423e-06 3.30148e-07 -2.19335e-06
0.00022854 -6.73117e-06 5.80209e-07
-6.73117e-06 -0.00014271 -2.67708e-06
5.80209e-07 -2.67708e-06 -0.000203984
0.00115898 4.36968e-06 -1.51583e-06
4.36968e-06 0.000377725 3.64321e-06
-1.51583e-06 3.64321e-06 0.000385916
0.00335906 -1.44239e-05 2.54172e-06
-1.44239e-05 9.57295e-05 1.81786e-05
2.54172e-06 1.81786e-05 -0.000249501
0.00358935 1.72953e-05 8.98333e-06
1.72953e-05 0.000104394 1.5791e-06
8.98333e-06 1.5791e-06 0.000519779
0.00110438 -7.45175e-06 -1.28685e-06
-7.45175e-06 6.22878e-05 -3.04397e-06
-1.28685e-06 -3.04397e-06 9.94244e-06
0.00071427 1.31724e-06 9.4456e-07
1.31724e-06 5.11179e-05 7.23027e-07
9.4456e-07 7.23027e-07 -1.99901e-05
0.000396971 -9.32914e-06 -6.42714e-06
-9.32914e-06 -0.000114222 9.12295e-06
-6.42714e-06 9.12295e-06 -0.000158043
0.00121713 2.68332e-05 -3.05869e-06
2.68332e-05 0.000388852 4.36417e-06
-3.05869e-06 4.36417e-06 0.000460309
0.00159845 0.00011721 -3.24848e-06
0.00011721 -0.000428216 -3.79344e-05
-3.24848e-06 -3.79344e-05 -0.000333086
0.000675043 5.08535e-06 -1.20222e-06
5.08535e-06 0.000311499 -8.60853e-06
-1.20222e-06 -8.60853e-06 0.000232683
0.00458594 -1.10906e-05 5.67048e-06
-1.10906e-05 0.00079488 1.95109e-05
5.67048e-06 1.95109e-05 9.07239e-05
0.00115569 2.86346e-07 8.21165e-07
2.86346e-07 8.0555e-05 -3.8813e-07
8.21165e-07 -3.8813e-07 5.86776e-06
0.00109389 5.23117e-06 3.25186e-07
5.23117e-06 6.40257e-05 -5.32547e-07
3.25186e-07 -5.32547e-07 -9.35238e-06
0.00101031 1.34563e-05 -1.46761e-07
1.34563e-05 2.9221e-05 -1.66472e-06
-1.46761e-07 -1.66472e-06 -4.57762e-05
0.00121368 5.48014e-06 -7.51191e-08
5.48014e-06 0.000103973 -1.25207e-07
-7.51191e-08 -1.25207e-07 3.40296e-05
0.00116203 4.16689e-06 -1.07713e-07
4.16689e-06 8.06164e-05 2.30721e-07
-1.07713e-07 2.30721e-07 4.72245e-06
0.00107626 8.16356e-06 -3.11272e-07
8.16356e-06 4.45753e-05 1.34555e-06
-3.11272e-07 1.34555e-06 -2.80845e-05
0.00111993 -8.27764e-06 -1.06694e-07
-8.27764e-06 6.36728e-05 1.60638e-07
-1.06694e-07 1.60638e-07 -1.1897e-05
0.00113635 6.62298e-06 -1.73745e-07
6.62298e-06 8.23173e-05 4.57746e-07
-1.73745e-07 4.57746e-07 8.40365e-06
0.00117408 -1.07019e-05 5.2375e-07
-1.07019e-05 0.000106733 -3.25343e-07
5.2375e-07 -3.25343e-07 2.71045e-05
0.00114403 -1.56829e-05 1.65995e-07
-1.56829e-05 7.48308e-05 -2.38556e-08
1.65995e-07 -2.38556e-08 2.14555e-06
0.00103639 -1.34297e-05 4.5803e-09
-1.34297e-05 2.14815e-05 2.83126e-07
4.5803e-09 2.83126e-07 -4.93037e-05
0.00117352 -1.75028e-05 5.40948e-08
-1.75028e-05 9.17258e-05 2.45496e-07
5.40948e-08 2.45496e-07 1.71816e-05
0.000995972 -1.88475e-05 -5.63878e-08
-1.88475e-05 1.97911e-05 8.16672e-07
-5.63878e-08 8.16672e-07 -5.9476e-05
0.00108743 -1.7326e-05 1.71058e-07
-1.7326e-05 4.52019e-05 2.36073e-07
1.71058e-07 2.36073e-07 -2.2317e-05
0.00106093 -1.89509e-05 2.48516e-07
-1.89509e-05 3.40793e-05 -2.43337e-07
2.48516e-07 -2.43337e-07 -3.93536e-05
0.00119447 -2.22306e-05 1.1219e-07
-2.22306e-05 9.00136e-05 4.35321e-07
1.1219e-07 4.35321e-07 1.26728e-05
0.00118986 -2.08776e-05 -6.49086e-07
-2.08776e-05 8.20056e-05 6.33014e-07
-6.49086e-07 6.33014e-07 1.13792e-05
0.00127309 -1.93019e-05 2.38856e-07
-1.93019e-05 0.00012627 1.82532e-07
2.38856e-07 1.82532e-07 5.98277e-05
0.00110825 -2.00596e-05 -1.02772e-07
-2.00596e-05 4.34581e-05 -1.80925e-08
-1.02772e-07 -1.80925e-08 -2.66417e-05
0.00123815 -1.83701e-05 5.17741e-08
-1.83701e-05 0.000115003 -2.00632e-07
5.17741e-08 -2.00632e-07 5.25764e-05
0.00103837 -1.29891e-05 -3.9045e-07
-1.29891e-05 2.37839e-05 1.37931e-07
-3.9045e-07 1.37931e-07 -3.53597e-05
0.00113376 -1.80297e-05 2.44806e-07
-1.80297e-05 6.36251e-05 -1.46596e-07
2.44806e-07 -1.46596e-07 1.61857e-07
0.00110441 -6.70658e-06 -7.9496e-07
-6.70658e-06 4.83659e-05 8.87261e-08
-7.9496e-07 8.87261e-08 -4.42092e-06
0.00114016 -1.54196e-05 -3.63721e-07
-1.54196e-05 6.56083e-05 2.786e-07
-3.63721e-07 2.786e-07 7.49746e-06
0.00103241 -1.79731e-05 3.21952e-08
-1.79731e-05 1.29111e-05 -1.09302e-07
3.21952e-08 -1.09302e-07 -5.17154e-05
0.00107306 -1.19322e-06 -1.06936e-06
-1.19322e-06 2.95247e-05 8.43214e-07
-1.06936e-06 8.43214e-07 -1.40746e-05
0.00107409 -9.96304e-06 4.89789e-08
-9.96304e-06 3.09961e-05 5.97447e-08
4.89789e-08 5.97447e-08 -2.31131e-05
0.00112843 -1.61345e-05 8.85511e-07
-1.61345e-05 5.80889e-05 -1.60792e-07
8.85511e-07 -1.60792e-07 -1.14003e-06
0.00109443 -1.02914e-05 7.1619e-07
-1.02914e-05 4.29076e-05 -3.58545e-07
7.1619e-07 -3.58545e-07 -1.30823e-05
0.0010707 -5.98488e-07 6.64818e-08
-5.98488e-07 2.84492e-05 2.02572e-08
6.64818e-08 2.02572e-08 -1.57659e-05
0.0010205 5.91868e-06 -1.32994e-06
5.91868e-06 2.44209e-06 1.60307e-06
-1.32994e-06 1.60307e-06 -2.40751e-05
0.00107175 -1.20718e-06 7.51872e-07
-1.20718e-06 2.90202e-05 -9.45918e-07
7.51872e-07 -9.45918e-07 -1.51941e-05
0.00102509 5.18625e-06 4.60645e-08
5.18625e-06 2.99844e-06 4.97027e-09
4.60645e-08 4.97027e-09 -2.32142e-05
0.000950066 7.96548e-06 -1.80709e-06
7.96548e-06 -3.85353e-05 2.78404e-06
-1.80709e-06 2.78404e-06 -3.79036e-05
0.00103237 4.26515e-06 1.04419e-06
4.26515e-06 4.44438e-06 -1.63877e-06
1.04419e-06 -1.63877e-06 -2.13298e-05
0.000962704 6.73379e-06 7.42876e-08
6.73379e-06 -3.58214e-05 1.42507e-08
7.42876e-08 1.42507e-08 -3.47142e-05
0.00227918 9.77082e-06 -1.88592e-06
9.77082e-06 0.000603114 1.48224e-06
-1.88592e-06 1.48224e-06 0.000626695
0.000980173 5.45347e-06 1.37082e-06
5.45347e-06 -3.05748e-05 -2.87703e-06
1.37082e-06 -2.87703e-06 -2.90291e-05
0.00173202 7.11833e-06 1.4776e-06
7.11833e-06 0.000332576 -1.13707e-06
1.4776e-06 -1.13707e-06 0.000353887
0.00230413 5.59244e-06 3.24243e-06
5.59244e-06 0.000609847 -3.74329e-06
3.24243e-06 -3.74329e-06 0.000634165
0.00088615 -8.19449e-07 -6.55457e-07
-8.19449e-07 -6.1121e-05 -1.36618e-06
-6.55457e-07 -1.36618e-06 -0.000105489
0.000788375 -3.77274e-06 -7.94822e-07
-3.77274e-06 -0.000114346 -2.22112e-06
-7.94822e-07 -2.22112e-06 -0.000139937
0.00102632 -2.46101e-06 -8.36222e-08
-2.46101e-06 7.35743e-06 -4.39638e-07
-8.36222e-08 -4.39638e-07 -3.50166e-05
0.000990539 -4.28802e-06 -9.88155e-07
-4.28802e-06 -2.73678e-05 -2.90786e-06
-9.88155e-07 -2.90786e-06 -2.3759e-05
0.00079183 -3.04359e-06 -1.04033e-07
-3.04359e-06 -0.000115001 -5.55508e-07
-1.04033e-07 -5.55508e-07 -0.000138899
0.00114961 -2.43093e-06 2.55415e-07
-2.43093e-06 6.6024e-05 1.10693e-06
2.55415e-07 1.10693e-06 2.65882e-05
0.0022232 -3.79572e-06 -2.36094e-06
-3.79572e-06 0.00056856 -3.73048e-06
-2.36094e-06 -3.73048e-06 0.000594051
0.000980942 -2.84508e-06 -6.80353e-08
-2.84508e-06 -3.39222e-05 1.92342e-09
-6.80353e-08 1.92342e-09 -2.93775e-05
0.000794653 -1.99271e-06 3.15952e-07
-1.99271e-06 -0.000115823 1.73751e-06
3.15952e-07 1.73751e-06 -0.000138399
0.00222679 -1.84718e-06 -3.75439e-07
-1.84718e-06 0.000568984 6.55584e-09
-3.75439e-07 6.55584e-09 0.000594745
0.000977851 -1.38575e-06 2.29848e-07
-1.38575e-06 -3.64679e-05 2.98445e-06
2.29848e-07 2.98445e-06 -3.14701e-05
0.0022237 8.57761e-08 -2.93756e-07
8.57761e-08 0.000567139 3.75184e-06
-2.93756e-07 3.75184e-06 0.000592985
0.000748499 -1.07903e-05 1.78263e-06
-1.07903e-05 0.000122107 -2.42327e-06
1.78263e-06 -2.42327e-06 4.22696e-05
0.000752903 1.24133e-06 -2.6425e-07
1.24133e-06 0.000217928 2.36628e-07
-2.6425e-07 2.36628e-07 0.000157902
0.000586799 1.66591e-05 -9.97826e-06
1.66591e-05 0.000122095 4.81416e-06
-9.97826e-06 4.81416e-06 0.000121586
0.00113639 1.05465e-05 -1.53292e-07
1.05465e-05 6.29337e-05 4.00499e-08
-1.53292e-07 4.00499e-08 7.23505e-06
0.00101988 1.20782e-05 -5.30989e-07
1.20782e-05 2.35613e-06 -4.27469e-07
-5.30989e-07 -4.27469e-07 -5.38903e-05
0.00119978 1.24675e-05 -3.04706e-08
1.24675e-05 9.52191e-05 3.35557e-07
-3.04706e-08 3.35557e-07 3.22216e-05
0.000430203 -1.65503e-06 -1.28536e-06
-1.65503e-06 -8.50917e-05 -1.83801e-07
-1.28536e-06 -1.83801e-07 -0.000148181
0.000780955 -1.2768e-05 7.63975e-07
-1.2768e-05 0.000152651 -6.37495e-07
7.63975e-07 -6.37495e-07 0.000100739
0.000896635 7.30651e-06 -8.92792e-06
7.30651e-06 0.000292916 7.95074e-06
-8.92792e-06 7.95074e-06 0.000275889
0.000828281 -2.5725e-05 -1.66449e-05
-2.5725e-05 0.000116077 1.3148e-05
-1.66449e-05 1.3148e-05 5.61492e-06
0.00350635 3.0346e-07 5.78037e-06
3.0346e-07 0.000501967 -1.51108e-05
5.78037e-06 -1.51108e-05 -2.85275e-05
0.00293798 0.00015017 1.11425e-05
0.00015017 0.000872515 -2.2997e-05
1.11425e-05 -2.2997e-05 0.000748489
0.00139914 9.33469e-07 -7.38224e-06
9.33469e-07 0.000570546 -2.33001e-07
-7.38224e-06 -2.33001e-07 0.000551105
0.000371554 -4.88303e-05 -1.01337e-05
-4.88303e-05 -8.90164e-05 9.28689e-06
-1.01337e-05 9.28689e-06 -0.000194483
0.00563996 8.22567e-05 1.97569e-05
8.22567e-05 0.00126339 -3.56966e-05
1.97569e-05 -3.56966e-05 0.000714176
0.00121159 0.000110566 4.6981e-06
0.000110566 -0.000286973 5.81372e-06
4.6981e-06 5.81372e-06 -0.000293946
0.000642219 3.93775e-07 2.85343e-06
3.93775e-07 8.93578e-05 -1.07565e-06
2.85343e-06 -1.07565e-06 2.30882e-05
-0.000674745 -4.29388e-05 1.14471e-05
-4.29388e-05 -0.000472454 -3.29997e-05
1.14471e-05 -3.29997e-05 -0.000565669
0.00470111 9.78545e-05 3.89863e-06
9.78545e-05 0.000341983 -3.68525e-05
3.89863e-06 -3.68525e-05 0.000120865
0.00148451 4.61243e-06 -3.48222e-06
4.61243e-06 -0.00063488 1.75491e-05
-3.48222e-06 1.75491e-05 -0.000447529
0.000202546 -1.03689e-06 -5.27206e-06
-1.03689e-06 -0.00018108 2.14494e-06
-5.27206e-06 2.14494e-06 -0.00020705
0.00112883 1.25005e-05 -5.9265e-07
1.25005e-05 6.29764e-05 8.8071e-08
-5.9265e-07 8.8071e-08 -8.78454e-06
0.00110642 -3.60199e-07 3.28839e-08
-3.60199e-07 5.54738e-05 -2.41402e-07
3.28839e-08 -2.41402e-07 -1.60364e-05
0.00111156 -7.42052e-06 8.65358e-08
-7.42052e-06 6.09419e-05 6.1051e-07
8.65358e-08 6.1051e-07 -7.06945e-06
0.00111157 1.14414e-05 -2.73286e-07
1.14414e-05 5.49651e-05 -5.63471e-07
-2.73286e-07 -5.63471e-07 -9.11032e-06
0.00124464 1.48934e-05 3.7111e-07
1.48934e-05 0.000120109 8.80844e-07
3.7111e-07 8.80844e-07 5.87171e-05
0.00128549 7.20684e-06 6.65324e-08
7.20684e-06 0.000138067 6.98437e-07
6.65324e-08 6.98437e-07 8.48216e-05
-0.00015888 -2.15797e-05 6.26654e-06
-2.15797e-05 -0.000772586 -6.65094e-06
6.26654e-06 -6.65094e-06 -0.000780477
0.00121668 -1.61109e-05 9.36397e-07
-1.61109e-05 0.000166225 -3.11344e-07
9.36397e-07 -3.11344e-07 6.93114e-05
0.0011498 3.94826e-06 7.12518e-08
3.94826e-06 8.4416e-05 -6.42437e-08
7.12518e-08 -6.42437e-08 6.1016e-06
0.00126404 -1.33407e-05 1.05086e-06
-1.33407e-05 0.000133466 -9.236e-07
1.05086e-06 -9.236e-07 3.82777e-05
0.00118213 -4.52531e-06 1.07003e-07
-4.52531e-06 9.77995e-05 -7.23061e-08
1.07003e-07 -7.23061e-08 1.13215e-05
0.0011152 8.4218e-06 2.1935e-07
8.4218e-06 6.39317e-05 2.95384e-07
2.1935e-07 2.95384e-07 -1.49436e-05
0.00112762 8.88584e-06 9.54665e-08
8.88584e-06 6.96203e-05 2.55924e-07
9.54665e-08 2.55924e-07 -1.58397e-05
0.00103435 -3.07549e-05 1.76951e-06
-3.07549e-05 -5.94581e-05 2.49153e-07
1.76951e-06 2.49153e-07 -0.00012742
0.00122601 -8.17218e-06 6.30758e-08
-8.17218e-06 0.000117772 -4.58408e-07
6.30758e-08 -4.58408e-07 2.66062e-05
0.00128683 2.65021e-06 -3.44135e-07
2.65021e-06 0.000191655 2.07787e-07
-3.44135e-07 2.07787e-07 9.37355e-05
0.00105362 1.18302e-05 -4.99059e-07
1.18302e-05 3.4185e-05 -9.9769e-08
-4.99059e-07 -9.9769e-08 -5.06964e-05
0.00153795 -1.28505e-05 -7.32413e-06
-1.28505e-05 0.000324086 2.17423e-05
-7.32413e-06 2.17423e-05 0.000229571
0.00106947 -2.16643e-06 -1.5334e-08
-2.16643e-06 4.37009e-05 2.39685e-07
-1.5334e-08 2.39685e-07 -5.01301e-05
0.00108786 -2.74744e-06 7.53014e-08
-2.74744e-06 5.67862e-05 4.76827e-07
7.53014e-08 4.76827e-07 -3.3734e-05
0.000909456 2.35028e-06 1.83694e-07
2.35028e-06 0.000175133 3.10911e-07
1.83694e-07 3.10911e-07 9.44852e-05
0.000795999 8.97208e-07 7.08965e-07
8.97208e-07 0.000146935 5.14225e-07
7.08965e-07 5.14225e-07 5.82544e-05
0.000999066 2.67271e-06 -1.45938e-05
2.67271e-06 0.000378321 2.32714e-07
-1.45938e-05 2.32714e-07 0.000309907
0.00152684 6.14349e-06 1.46838e-07
6.14349e-06 0.000286464 2.21769e-06
1.46838e-07 2.21769e-06 0.000212741
0.00107006 -3.56588e-06 7.4387e-06
-3.56588e-06 0.000260943 -2.01381e-06
7.4387e-06 -2.01381e-06 0.00019727
0.000438423 8.66881e-06 -1.51862e-06
8.66881e-06 -8.0067e-05 -8.89979e-07
-1.51862e-06 -8.89979e-07 -0.000161787
0.00293576 -4.04655e-05 1.02923e-06
-4.04655e-05 0.000225048 -6.55523e-06
1.02923e-06 -6.55523e-06 0.000187557
0.00129044 8.01243e-06 2.54506e-06
8.01243e-06 -0.000651802 2.09834e-05
2.54506e-06 2.09834e-05 -0.00035663
0.000862743 -1.75005e-06 -2.85185e-07
-1.75005e-06 0.000157317 5.26857e-07
-2.85185e-07 5.26857e-07 9.38787e-05
0.00135473 1.59373e-06 7.57713e-06
1.59373e-06 0.000528623 -1.65702e-06
7.57713e-06 -1.65702e-06 0.000528367
0.00116752 -7.10435e-06 1.43344e-06
-7.10435e-06 7.88414e-05 1.86237e-06
1.43344e-06 1.86237e-06 2.45836e-05
0.000773777 3.7464e-07 3.45129e-07
3.7464e-07 8.9972e-05 8.08389e-07
3.45129e-07 8.08389e-07 1.70936e-05
0.000805353 -1.02921e-05 -1.08531e-06
-1.02921e-05 0.000145435 7.25569e-07
-1.08531e-06 7.25569e-07 9.80307e-05
0.000197147 2.54074e-05 -4.51178e-08
2.54074e-05 -8.67452e-05 3.62703e-07
-4.51178e-08 3.62703e-07 -0.00041353
0.0007332 2.05662e-05 2.48048e-06
2.05662e-05 8.93036e-05 1.83967e-06
2.48048e-06 1.83967e-06 0.000175944
0.00040418 0.000109801 -3.7281e-06
0.000109801 -0.000570439 -7.38862e-06
-3.7281e-06 -7.38862e-06 -0.000507336
0.00524933 2.52827e-05 4.13466e-06
2.52827e-05 0.000389589 -1.99295e-05
4.13466e-06 -1.99295e-05 0.000636045
0.00107999 4.89502e-06 -1.40628e-06
4.89502e-06 0.000190019 -1.04198e-05
-1.40628e-06 -1.04198e-05 0.00015741
0.000756256 -7.3772e-06 -2.4196e-06
-7.3772e-06 0.000119473 2.39404e-06
-2.4196e-06 2.39404e-06 4.08714e-05
0.000488423 7.84522e-06 -1.67102e-05
7.84522e-06 1.75311e-05 7.33271e-06
-1.67102e-05 7.33271e-06 3.2027e-06
0.000952264 3.56908e-05 8.82126e-07
3.56908e-05 0.00025577 1.43613e-06
8.82126e-07 1.43613e-06 0.000346703
-0.000857119 0.000113371 2.56265e-05
0.000113371 -0.000793846 -4.58226e-05
2.56265e-05 -4.58226e-05 -0.000837097
0.00645657 7.57842e-05 -2.24097e-06
7.57842e-05 0.00131879 2.03802e-06
-2.24097e-06 2.03802e-06 0.00107673
0.000962375 -1.92413e-05 -6.60723e-06
-1.92413e-05 0.00043574 4.18314e-05
-6.60723e-06 4.18314e-05 -8.73799e-05
0.000998582 6.02773e-06 1.57422e-06
6.02773e-06 1.89723e-05 -7.96639e-07
1.57422e-06 -7.96639e-07 -5.4835e-05
0.00110751 1.07843e-05 3.83712e-07
1.07843e-05 7.41371e-05 -1.37347e-06
3.83712e-07 -1.37347e-06 -6.04648e-07
0.00103162 3.33288e-06 4.31729e-07
3.33288e-06 6.67405e-05 -8.25887e-07
4.31729e-07 -8.25887e-07 -1.63355e-05
0.00111336 -8.93996e-06 -2.46413e-08
-8.93996e-06 6.02777e-05 9.99746e-08
-2.46413e-08 9.99746e-08 -1.51992e-05
0.00116054 5.76766e-06 -7.11469e-09
5.76766e-06 9.42236e-05 2.06006e-06
-7.11469e-09 2.06006e-06 2.0652e-05
0.00117358 -8.25627e-06 -6.09175e-08
-8.25627e-06 0.000105928 2.25497e-07
-6.09175e-08 2.25497e-07 2.64725e-05
0.00114039 -1.92646e-05 1.41014e-06
-1.92646e-05 0.000110996 5.35835e-08
1.41014e-06 5.35835e-08 2.13933e-05
0.00117941 -1.76164e-05 1.93846e-07
-1.76164e-05 9.3724e-05 1.59056e-07
1.93846e-07 1.59056e-07 1.8905e-05
0.00118938 -2.05809e-05 -1.26669e-07
-2.05809e-05 0.000109986 3.25461e-07
-1.26669e-07 3.25461e-07 2.97384e-05
0.00117219 -2.38984e-05 7.01008e-08
-2.38984e-05 9.72213e-05 1.17808e-06
7.01008e-08 1.17808e-06 1.04764e-05
0.00107846 -1.89008e-05 -5.28541e-09
-1.89008e-05 4.38191e-05 -2.78493e-07
-5.28541e-09 -2.78493e-07 -2.9035e-05
0.00121834 -2.23654e-05 -7.68576e-08
-2.23654e-05 0.000101281 3.56229e-08
-7.68576e-08 3.56229e-08 2.37144e-05
0.00139369 -2.49969e-05 -5.10558e-07
-2.49969e-05 0.000179178 4.36877e-07
-5.10558e-07 4.36877e-07 9.96436e-05
0.00129149 -2.2734e-05 -4.84849e-07
-2.2734e-05 0.000126995 5.11014e-07
-4.84849e-07 5.11014e-07 5.2938e-05
0.00104115 -1.82151e-05 -2.7736e-07
-1.82151e-05 1.82396e-05 5.27341e-07
-2.7736e-07 5.27341e-07 -4.71922e-05
0.00114507 -2.06669e-05 -1.09615e-07
-2.06669e-05 6.09831e-05 1.69632e-07
-1.09615e-07 1.69632e-07 -1.03126e-05
0.00115689 -2.04987e-05 -1.11529e-08
-2.04987e-05 6.62195e-05 -2.12255e-07
-1.11529e-08 -2.12255e-07 -4.24102e-06
0.00121836 -1.65075e-05 -2.28754e-08
-1.65075e-05 0.00010606 -1.32803e-07
-2.28754e-08 -1.32803e-07 4.76328e-05
0.00115461 -1.76811e-05 4.37654e-07
-1.76811e-05 7.5458e-05 -4.38661e-07
4.37654e-07 -4.38661e-07 1.34127e-05
0.000997338 -2.64838e-06 -4.54083e-07
-2.64838e-06 3.42918e-06 4.60547e-07
-4.54083e-07 4.60547e-07 -5.04703e-05
0.0011115 -1.33366e-05 6.56888e-08
-1.33366e-05 5.85319e-05 -5.95079e-08
6.56888e-08 -5.95079e-08 -1.03891e-08
0.00114632 -1.80573e-05 1.01508e-06
-1.80573e-05 6.95011e-05 -6.11268e-07
1.01508e-06 -6.11268e-07 6.64474e-06
0.00106013 1.8079e-06 -1.22026e-06
1.8079e-06 2.56649e-05 7.17445e-07
-1.22026e-06 7.17445e-07 -1.74318e-05
0.0011116 -7.0125e-06 -1.7562e-07
-7.0125e-06 5.11977e-05 -2.85968e-08
-1.7562e-07 -2.85968e-08 -1.51655e-06
0.00114989 -1.54272e-05 2.0342e-07
-1.54272e-05 7.01212e-05 8.8372e-08
2.0342e-07 8.8372e-08 1.19157e-05
0.00101607 6.57508e-06 -1.59427e-06
6.57508e-06 1.9001e-06 1.52358e-06
-1.59427e-06 1.52358e-06 -2.4637e-05
0.00107196 -5.54897e-07 7.27983e-08
-5.54897e-07 2.88049e-05 4.24557e-08
7.27983e-08 4.24557e-08 -1.47129e-05
0.00103728 -1.00844e-05 8.88503e-07
-1.00844e-05 1.27125e-05 -1.40065e-07
8.88503e-07 -1.40065e-07 -4.1625e-05
0.00106768 1.19533e-09 9.61846e-07
1.19533e-09 2.6889e-05 -8.81813e-07
9.61846e-07 -8.81813e-07 -1.72642e-05
0.00101993 5.9692e-06 7.64927e-08
5.9692e-06 2.24287e-06 1.88896e-08
7.64927e-08 1.88896e-08 -2.42755e-05
0.00094259 9.12846e-06 -2.09211e-06
9.12846e-06 -3.87303e-05 2.7229e-06
-2.09211e-06 2.7229e-06 -3.86004e-05
0.00102659 5.21281e-06 1.21925e-06
5.21281e-06 3.73026e-06 -1.61216e-06
1.21925e-06 -1.61216e-06 -2.24984e-05
0.000959583 7.9687e-06 6.57828e-08
7.9687e-06 -3.40226e-05 1.41768e-08
6.57828e-08 1.41768e-08 -3.34228e-05
0.00234592 1.11094e-05 -5.04616e-06
1.11094e-05 0.00063919 3.58853e-06
-5.04616e-06 3.58853e-06 0.000661912
0.000974861 6.71774e-06 1.68215e-06
6.71774e-06 -3.01364e-05 -2.8184e-06
1.68215e-06 -2.8184e-06 -2.90556e-05
0.00172351 8.91943e-06 1.6994e-06
8.91943e-06 0.000332085 -1.12114e-06
1.6994e-06 -1.12114e-06 0.000352869
0.00230581 7.49486e-06 4.04299e-06
7.49486e-06 0.000613463 -3.69716e-06
4.04299e-06 -3.69716e-06 0.000637329
0.00105875 3.66796e-06 -7.59146e-07
3.66796e-06 2.16457e-05 -8.7085e-07
-7.59146e-07 -8.7085e-07 -2.19782e-05
0.00102411 -4.39177e-06 -9.86769e-07
-4.39177e-06 1.91436e-06 -1.60671e-06
-9.86769e-07 -1.60671e-06 -2.34955e-05
0.00097687 1.49268e-06 -2.74135e-07
1.49268e-06 -1.68481e-05 -4.19549e-07
-2.74135e-07 -4.19549e-07 -6.07652e-05
0.00098816 -5.63037e-06 -1.28551e-06
-5.63037e-06 -2.58954e-05 -2.86684e-06
-1.28551e-06 -2.86684e-06 -2.34238e-05
0.000908493 -3.87762e-06 -1.71784e-07
-3.87762e-06 -5.59963e-05 -5.48706e-07
-1.71784e-07 -5.48706e-07 -8.09201e-05
0.00115982 -3.50535e-06 2.2501e-07
-3.50535e-06 7.17639e-05 5.3293e-07
2.2501e-07 5.3293e-07 3.00282e-05
0.00223821 -5.70123e-06 -3.20064e-06
-5.70123e-06 0.000577942 -3.70982e-06
-3.20064e-06 -3.70982e-06 0.000602903
0.000978739 -4.29412e-06 -6.62473e-08
-4.29412e-06 -3.31075e-05 -1.12803e-09
-6.62473e-08 -1.12803e-09 -2.94119e-05
0.000778801 -3.04558e-06 3.72327e-07
-3.04558e-06 -0.00012102 1.13501e-06
3.72327e-07 1.13501e-06 -0.000145094
0.00223283 -3.74477e-06 -3.12914e-07
-3.74477e-06 0.000573027 1.19464e-08
-3.12914e-07 1.19464e-08 0.000598532
0.000973233 -2.84157e-06 5.60991e-07
-2.84157e-06 -3.76977e-05 2.96332e-06
5.60991e-07 2.96332e-06 -3.30918e-05
0.00223438 -1.80572e-06 7.77843e-07
-1.80572e-06 0.000572592 3.76662e-06
7.77843e-07 3.76662e-06 0.000598335
0.000611641 -1.26182e-06 -6.42237e-07
-1.26182e-06 -1.70938e-06 -8.87286e-07
-6.42237e-07 -8.87286e-07 -7.53716e-05
0.000878537 -1.07287e-05 6.8918e-07
-1.07287e-05 0.000204145 -2.68092e-07
6.8918e-07 -2.68092e-07 0.000123696
0.000803137 1.16471e-06 -9.66441e-06
1.16471e-06 0.000248593 3.5101e-06
-9.66441e-06 3.5101e-06 0.000188862
0.00102675 1.09258e-05 -5.23425e-07
1.09258e-05 4.58435e-06 -2.82156e-07
-5.23425e-07 -2.82156e-07 -5.03402e-05
0.00118941 1.55016e-05 -1.63759e-07
1.55016e-05 8.30027e-05 2.56553e-07
-1.63759e-07 2.56553e-07 2.48217e-05
0.00117826 1.26548e-05 3.60079e-07
1.26548e-05 8.32143e-05 5.68878e-07
3.60079e-07 5.68878e-07 2.7909e-05
0.00101441 1.18578e-05 1.63843e-08
1.18578e-05 2.63539e-08 1.98291e-08
1.63843e-08 1.98291e-08 -5.61424e-05
0.00114536 1.28465e-05 1.70595e-07
1.28465e-05 6.85594e-05 2.96549e-07
1.70595e-07 2.96549e-07 4.91902e-06
0.00116971 1.61155e-05 -2.79964e-07
1.61155e-05 7.69706e-05 9.14122e-08
-2.79964e-07 9.14122e-08 1.44457e-05
0.0011541 1.6383e-05 4.0763e-08
1.6383e-05 7.20303e-05 5.19819e-07
4.0763e-08 5.19819e-07 4.5003e-06
0.00087334 6.91693e-06 -8.51495e-06
6.91693e-06 0.000213406 -4.10598e-06
-8.51495e-06 -4.10598e-06 0.000159222
0.000663013 -1.90856e-06 8.4227e-07
-1.90856e-06 5.87005e-05 -3.80488e-07
8.4227e-07 -3.80488e-07 -7.23695e-06
0.00119714 -1.30755e-05 -3.87802e-06
-1.30755e-05 0.00041653 7.12519e-07
-3.87802e-06 7.12519e-07 0.000361039
0.00108435 2.31112e-06 5.45702e-07
2.31112e-06 0.000376279 -2.62139e-06
5.45702e-07 -2.62139e-06 0.00030951
0.0023151 -7.29748e-05 -5.0028e-05
-7.29748e-05 0.000485257 5.86242e-05
-5.0028e-05 5.86242e-05 0.000216658
0.00162797 9.11174e-05 3.41395e-05
9.11174e-05 -0.000237444 -5.25526e-05
3.41395e-05 -5.25526e-05 -0.000714799
0.00450907 0.000115576 1.64392e-06
0.000115576 0.000851168 -1.58945e-05
1.64392e-06 -1.58945e-05 0.000956399
0.000646204 -5.16992e-05 -2.55097e-05
-5.16992e-05 -1.21194e-05 2.51635e-05
-2.55097e-05 2.51635e-05 -0.000197055
0.0048351 4.85278e-05 3.66236e-06
4.85278e-05 0.000471904 -3.10862e-05
3.66236e-06 -3.10862e-05 5.66885e-05
0.00395604 1.19248e-05 -1.12482e-05
1.19248e-05 0.000235954 -4.10677e-08
-1.12482e-05 -4.10677e-08 0.000546757
0.000434673 -6.4242e-06 3.84534e-06
-6.4242e-06 -8.13636e-05 2.52387e-06
3.84534e-06 2.52387e-06 -9.60844e-05
-0.000596038 -2.84595e-05 1.54463e-06
-2.84595e-05 -0.000389749 -8.51484e-06
1.54463e-06 -8.51484e-06 -0.000537246
0.00367798 -1.42819e-05 3.05264e-06
-1.42819e-05 2.86125e-05 -9.65146e-05
3.05264e-06 -9.65146e-05 -0.000600997
0.00120421 -8.52421e-05 -5.886e-07
-8.52421e-05 -0.000341415 3.19661e-05
-5.886e-07 3.19661e-05 -0.000245627
-0.000518476 -2.30909e-05 -7.17654e-06
-2.30909e-05 -0.000635514 2.05287e-06
-7.17654e-06 2.05287e-06 -0.000599009
0.00113936 1.76598e-05 -1.64183e-06
1.76598e-05 7.12758e-05 3.56955e-07
-1.64183e-06 3.56955e-07 -2.61429e-06
0.00115979 1.04364e-05 -4.74132e-08
1.04364e-05 7.83115e-05 -6.94481e-08
-4.74132e-08 -6.94481e-08 6.28118e-06
0.00110117 -1.33408e-06 9.21779e-08
-1.33408e-06 5.33868e-05 -1.92902e-07
9.21779e-08 -1.92902e-07 -1.80604e-05
0.00113153 1.1464e-05 -2.32055e-08
1.1464e-05 6.44574e-05 -3.3895e-07
-2.32055e-08 -3.3895e-07 2.11186e-07
8.59145e-05 -2.64112e-05 8.60654e-06
-2.64112e-05 -0.000526768 -1.19783e-05
8.60654e-06 -1.19783e-05 -0.000586311
0.00136714 3.19345e-07 1.05637e-06
3.19345e-07 0.000216549 -1.60239e-06
1.05637e-06 -1.60239e-06 0.000118178
0.00115961 9.05876e-06 5.07382e-07
9.05876e-06 8.61786e-05 3.39798e-07
5.07382e-07 3.39798e-07 6.54119e-06
0.00108073 9.20864e-06 3.80144e-08
9.20864e-06 4.72862e-05 5.52881e-08
3.80144e-08 5.52881e-08 -3.83408e-05
0.00121857 -9.57442e-06 4.56776e-08
-9.57442e-06 0.000117537 -1.80025e-06
4.56776e-08 -1.80025e-06 2.63739e-05
0.00113051 1.28586e-05 -2.83208e-07
1.28586e-05 7.24229e-05 -7.18933e-08
-2.83208e-07 -7.18933e-08 -1.14461e-05
0.00112498 -9.90712e-07 -2.85057e-07
-9.90712e-07 7.33624e-05 -3.30688e-07
-2.85057e-07 -3.30688e-07 -1.73248e-05
0.000828316 -9.04753e-06 3.44073e-06
-9.04753e-06 7.06644e-05 -2.29696e-06
3.44073e-06 -2.29696e-06 -7.37251e-06
0.0010859 -4.28261e-06 6.90604e-07
-4.28261e-06 5.13756e-05 -6.6002e-07
6.90604e-07 -6.6002e-07 -4.07389e-05
0.00113677 1.0306e-05 -2.2338e-07
1.0306e-05 8.17551e-05 2.11864e-07
-2.2338e-07 2.11864e-07 -7.74623e-06
0.000704485 6.31398e-06 2.25082e-06
6.31398e-06 0.000181424 2.86254e-05
2.25082e-06 2.86254e-05 0.00012329
0.0012621 -3.57357e-06 1.59193e-06
-3.57357e-06 0.000124835 -9.27642e-07
1.59193e-06 -9.27642e-07 2.26776e-05
0.00116287 2.44697e-06 -1.02595e-06
2.44697e-06 0.000381075 -2.75523e-08
-1.02595e-06 -2.75523e-08 0.000289078
0.000751794 9.71757e-07 1.34779e-07
9.71757e-07 7.67066e-05 1.44809e-07
1.34779e-07 1.44809e-07 -1.57576e-06
0.000392525 4.37536e-07 2.67495e-07
4.37536e-07 -0.00010883 -9.01207e-08
2.67495e-07 -9.01207e-08 -0.000197137
0.00119624 -7.35062e-06 -6.08348e-08
-7.35062e-06 8.09901e-05 5.46999e-06
-6.08348e-08 5.46999e-06 2.47053e-05
0.000175349 4.49679e-06 3.85233e-07
4.49679e-06 2.32558e-05 1.14367e-05
3.85233e-07 1.14367e-05 -5.51752e-05
0.000830168 -5.39193e-07 8.13138e-07
-5.39193e-07 0.000127115 4.14138e-07
8.13138e-07 4.14138e-07 5.24412e-05
0.00384005 3.94045e-05 2.03448e-06
3.94045e-05 0.00044339 -4.71461e-05
2.03448e-06 -4.71461e-05 -0.000277421
0.00480346 0.000113888 -3.05272e-06
0.000113888 0.00101154 1.66728e-05
-3.05272e-06 1.66728e-05 0.00120434
0.00120799 -1.12736e-05 3.70303e-06
-1.12736e-05 0.000401045 -1.91833e-06
3.70303e-06 -1.91833e-06 0.000350017
0.00214175 1.83141e-05 7.81483e-06
1.83141e-05 0.000967506 -1.44993e-06
7.81483e-06 -1.44993e-06 0.00103699
0.000913491 3.08908e-06 4.89575e-07
3.08908e-06 8.01398e-05 -3.76615e-07
4.89575e-07 -3.76615e-07 4.87727e-05
0.000889461 -7.20522e-06 -1.18455e-06
-7.20522e-06 0.000203632 2.78636e-07
-1.18455e-06 2.78636e-07 0.000124446
0.000720118 8.04142e-06 -3.18754e-06
8.04142e-06 0.000162309 8.52841e-07
-3.18754e-06 8.52841e-07 0.000149371
9.84572e-05 -2.43277e-06 -1.89569e-06
-2.43277e-06 0.000131958 6.86796e-06
-1.89569e-06 6.86796e-06 -5.60406e-05
0.000443237 3.83747e-05 -4.94686e-07
3.83747e-05 -4.91668e-05 -1.49383e-06
-4.94686e-07 -1.49383e-06 3.91094e-05
-0.000308919 0.000120473 2.2052e-06
0.000120473 -0.000794727 -1.03888e-05
2.2052e-06 -1.03888e-05 -0.000822855
0.00250054 5.12294e-05 7.52213e-06
5.12294e-05 -0.000228427 -2.73779e-05
7.52213e-06 -2.73779e-05 -0.000675373
0.000968018 2.96094e-06 6.86384e-06
2.96094e-06 0.00019385 -1.92829e-05
6.86384e-06 -1.92829e-05 0.00017224
0.000816171 1.4623e-06 -9.49254e-06
1.4623e-06 0.000253654 3.72946e-06
-9.49254e-06 3.72946e-06 0.000195911
-0.00130929 2.62015e-05 -1.4033e-06
2.62015e-05 -0.0010209 1.53284e-06
-1.4033e-06 1.53284e-06 -0.000989395
0.000105019 7.19186e-05 3.58502e-05
7.19186e-05 2.59196e-05 -3.35973e-05
3.58502e-05 -3.35973e-05 2.11929e-05
0.00547739 8.55978e-05 1.33256e-05
8.55978e-05 0.00114333 -2.34464e-05
1.33256e-05 -2.34464e-05 0.000731223
0.00133987 -6.1255e-05 -1.90484e-05
-6.1255e-05 0.000206216 6.91684e-05
-1.90484e-05 6.91684e-05 -0.000208092
0.0012228 8.28442e-06 3.96542e-07
8.28442e-06 0.000127372 -1.55079e-06
3.96542e-07 -1.55079e-06 5.29034e-05
0.00112012 5.68911e-06 -1.40062e-07
5.68911e-06 0.000103588 -1.42751e-07
-1.40062e-07 -1.42751e-07 2.08655e-05
0.000908469 -1.28253e-05 1.61346e-06
-1.28253e-05 5.54707e-05 3.28044e-07
1.61346e-06 3.28044e-07 -5.16602e-05
0.00115466 -7.52455e-06 -4.55259e-07
-7.52455e-06 9.66872e-05 7.64159e-07
-4.55259e-07 7.64159e-07 1.74135e-05
0.00100849 -1.80792e-05 3.26551e-07
-1.80792e-05 4.7998e-05 4.86026e-08
3.26551e-07 4.86026e-08 -4.02157e-05
0.00122613 -2.63564e-05 1.37183e-06
-2.63564e-05 0.000141808 1.17349e-06
1.37183e-06 1.17349e-06 4.10824e-05
0.00138946 -2.238e-05 -1.10893e-07
-2.238e-05 0.000203383 -2.83529e-08
-1.10893e-07 -2.83529e-08 0.000122143
0.00125736 -2.47955e-05 -1.50637e-07
-2.47955e-05 0.000136689 5.04671e-07
-1.50637e-07 5.04671e-07 4.86745e-05
0.00120862 -2.71436e-05 -1.01919e-06
-2.71436e-05 9.20253e-05 -4.51024e-07
-1.01919e-06 -4.51024e-07 3.66654e-06
0.00124 -2.24942e-05 -1.38326e-07
-2.24942e-05 0.000111559 -4.18238e-07
-1.38326e-07 -4.18238e-07 3.3765e-05
0.00131675 -2.44772e-05 -1.19223e-07
-2.44772e-05 0.000141602 3.98011e-08
-1.19223e-07 3.98011e-08 6.15072e-05
0.00128985 -2.39995e-05 -1.53783e-07
-2.39995e-05 0.000121359 -8.08222e-07
-1.53783e-07 -8.08222e-07 4.3123e-05
0.00124655 -2.17108e-05 -3.42634e-07
-2.17108e-05 8.52424e-05 -1.01057e-06
-3.42634e-07 -1.01057e-06 1.46425e-05
0.00131092 -2.15369e-05 -5.85338e-07
-2.15369e-05 0.000135786 8.97947e-07
-5.85338e-07 8.97947e-07 6.72831e-05
0.00123502 -2.2394e-05 -1.22785e-07
-2.2394e-05 0.000100015 4.61079e-08
-1.22785e-07 4.61079e-08 2.53852e-05
0.000999069 -1.69179e-05 -2.78242e-07
-1.69179e-05 -6.88498e-07 9.79993e-08
-2.78242e-07 9.79993e-08 -6.11436e-05
0.00109544 -1.85065e-05 2.08853e-07
-1.85065e-05 4.38833e-05 -5.90647e-08
2.08853e-07 -5.90647e-08 -2.10196e-05
0.00110273 -2.04886e-05 1.78257e-07
-2.04886e-05 4.10812e-05 -4.0026e-07
1.78257e-07 -4.0026e-07 -3.08824e-05
0.00111665 -8.66776e-06 -3.00057e-07
-8.66776e-06 5.85425e-05 2.3684e-07
-3.00057e-07 2.3684e-07 4.09457e-06
0.00115646 -1.6033e-05 1.3953e-07
-1.6033e-05 7.67615e-05 -1.55191e-07
1.3953e-07 -1.55191e-07 1.78748e-05
0.00106846 -1.69828e-05 8.28904e-07
-1.69828e-05 3.47164e-05 -4.2763e-07
8.28904e-07 -4.2763e-07 -2.69478e-05
0.00104441 5.64938e-06 -9.81723e-07
5.64938e-06 2.34569e-05 7.25646e-07
-9.81723e-07 7.25646e-07 -2.05698e-05
0.00103871 -1.81319e-06 -1.27756e-07
-1.81319e-06 2.28493e-05 1.70136e-07
-1.27756e-07 1.70136e-07 -3.06685e-05
0.00118338 -1.36551e-05 3.64773e-07
-1.36551e-05 9.26603e-05 -2.05002e-07
3.64773e-07 -2.05002e-07 3.47245e-05
0.00100615 7.53784e-06 -1.78771e-06
7.53784e-06 -1.8013e-07 1.41049e-06
-1.78771e-06 1.41049e-06 -2.67667e-05
0.00106865 1.68207e-06 -7.6704e-08
1.68207e-06 2.94506e-05 -1.13084e-08
-7.6704e-08 -1.13084e-08 -1.35926e-05
0.00111738 -7.23067e-06 4.81819e-07
-7.23067e-06 5.3345e-05 -2.00851e-07
4.81819e-07 -2.00851e-07 7.09428e-07
0.000975332 1.02489e-05 -3.19718e-06
1.02489e-05 -1.94579e-05 3.68573e-06
-3.19718e-06 3.68573e-06 -1.9938e-05
0.00101552 6.63842e-06 6.28283e-08
6.63842e-06 1.72745e-06 2.59446e-08
6.28283e-08 2.59446e-08 -2.47968e-05
0.00107064 -8.45673e-08 1.16758e-06
-8.45673e-08 2.79702e-05 -7.37293e-07
1.16758e-06 -7.37293e-07 -1.54659e-05
0.00101976 6.02109e-06 1.4721e-06
6.02109e-06 2.2325e-06 -1.55534e-06
1.4721e-06 -1.55534e-06 -2.42877e-05
0.000951277 9.13983e-06 8.44474e-08
9.13983e-06 -3.45594e-05 2.24308e-08
8.44474e-08 2.24308e-08 -3.44623e-05
0.00235671 1.2906e-05 -5.58048e-06
1.2906e-05 0.000648506 3.50648e-06
-5.58048e-06 3.50648e-06 0.000670552
0.000968679 7.9719e-06 1.96056e-06
7.9719e-06 -2.97158e-05 -2.75802e-06
1.96056e-06 -2.75802e-06 -2.91463e-05
0.00232529 1.11424e-05 1.65934e-07
1.11424e-05 0.00062963 2.84576e-08
1.65934e-07 2.84576e-08 0.000652376
0.00230458 9.35582e-06 4.71385e-06
9.35582e-06 0.000616238 -3.63197e-06
4.71385e-06 -3.63197e-06 0.000639594
0.00111027 9.85855e-06 -5.55038e-07
9.85855e-06 4.50967e-05 -1.94071e-07
-5.55038e-07 -1.94071e-07 -8.65421e-06
0.00106788 1.65812e-06 -8.40524e-07
1.65812e-06 2.53418e-05 -8.34395e-07
-8.40524e-07 -8.34395e-07 -1.84232e-05
0.00101461 -4.8419e-06 -1.2134e-06
-4.8419e-06 -1.2097e-06 -1.56424e-06
-1.2134e-06 -1.56424e-06 -2.74863e-05
0.00106959 3.95121e-06 -2.36254e-08
3.95121e-06 2.68367e-05 7.44233e-09
-2.36254e-08 7.44233e-09 -1.68529e-05
0.000980173 -6.83163e-06 -1.61235e-06
-6.83163e-06 -2.66251e-05 -2.81803e-06
-1.61235e-06 -2.81803e-06 -2.53401e-05
0.0010257 -4.40507e-06 -7.63006e-08
-4.40507e-06 2.79182e-06 1.7307e-08
-7.63006e-08 1.7307e-08 -2.26329e-05
0.00106728 4.07231e-06 3.0842e-07
4.07231e-06 2.72572e-05 5.55526e-07
3.0842e-07 5.55526e-07 -1.61965e-05
0.00226286 -7.56812e-06 -3.98552e-06
-7.56812e-06 0.000592809 -3.69116e-06
-3.98552e-06 -3.69116e-06 0.000617043
0.000974249 -5.64576e-06 -7.6845e-08
-5.64576e-06 -3.25853e-05 -2.71352e-09
-7.6845e-08 -2.71352e-09 -3.00276e-05
0.00102797 -3.991e-06 5.18117e-07
-3.991e-06 2.05573e-06 1.10887e-06
5.18117e-07 1.10887e-06 -2.2201e-05
0.00224927 -5.65431e-06 -2.68151e-07
-5.65431e-06 0.000582983 1.71006e-08
-2.68151e-07 1.71006e-08 0.000607986
0.000966829 -4.29998e-06 8.4403e-07
-4.29998e-06 -3.89033e-05 2.92941e-06
8.4403e-07 2.92941e-06 -3.512e-05
0.00224273 -3.69251e-06 1.87717e-06
-3.69251e-06 0.000577625 3.73364e-06
1.87717e-06 3.73364e-06 0.000603143
0.000748876 6.92488e-06 -2.19137e-06
6.92488e-06 0.0001222 -2.38971e-06
-2.19137e-06 -2.38971e-06 3.86096e-05
0.000758803 -2.22769e-06 -1.32318e-07
-2.22769e-06 9.04639e-05 -1.08501e-06
-1.32318e-07 -1.08501e-06 1.49885e-05
0.00100489 -1.06483e-05 -4.18783e-07
-1.06483e-05 0.000283845 8.24452e-07
-4.18783e-07 8.24452e-07 0.000202748
0.00106581 1.06675e-05 4.64838e-08
1.06675e-05 2.41857e-05 1.79012e-08
4.64838e-08 1.79012e-08 -3.04921e-05
0.00114211 1.51225e-05 2.20798e-07
1.51225e-05 5.98647e-05 1.42619e-07
2.20798e-07 1.42619e-07 1.35081e-06
0.00107342 1.10575e-05 -2.62022e-07
1.10575e-05 2.75772e-05 -1.23884e-07
-2.62022e-07 -1.23884e-07 -3.04888e-05
0.00107858 1.52086e-05 -5.75382e-07
1.52086e-05 2.98404e-05 -9.0506e-08
-5.75382e-07 -9.0506e-08 -3.0261e-05
0.00119466 1.62702e-05 1.04742e-07
1.62702e-05 8.41288e-05 4.10999e-07
1.04742e-07 4.10999e-07 2.3266e-05
0.00100745 1.1626e-05 6.02071e-07
1.1626e-05 -2.99035e-06 4.15573e-07
6.02071e-07 4.15573e-07 -5.90813e-05
0.00109131 1.38546e-05 3.93074e-07
1.38546e-05 4.20734e-05 2.826e-07
3.93074e-07 2.826e-07 -2.22258e-05
0.00116088 1.60778e-05 5.1617e-09
1.60778e-05 7.26176e-05 1.95062e-10
5.1617e-09 1.95062e-10 1.01552e-05
0.00113555 1.58661e-05 2.58629e-07
1.58661e-05 6.23576e-05 2.37099e-07
2.58629e-07 2.37099e-07 -4.83079e-06
0.00121023 1.71252e-05 -1.58819e-07
1.71252e-05 9.75174e-05 4.94843e-07
-1.58819e-07 4.94843e-07 3.1205e-05
0.000696524 -1.33046e-05 -1.02548e-05
-1.33046e-05 0.00017343 -1.3781e-05
-1.02548e-05 -1.3781e-05 0.000147267
0.000564577 6.83943e-06 -1.86374e-06
6.83943e-06 2.18875e-05 -1.05739e-06
-1.86374e-06 -1.05739e-06 -3.43162e-05
0.000909677 -2.08056e-06 -4.03005e-07
-2.08056e-06 0.000210944 -1.37108e-06
-4.03005e-07 -1.37108e-06 0.000142169
-3.9291e-05 -3.97216e-06 1.29253e-05
-3.97216e-06 -0.000364744 2.61575e-06
1.29253e-05 2.61575e-06 -0.000392618
0.00164412 9.48456e-06 -2.48945e-06
9.48456e-06 -0.000518561 -1.73891e-05
-2.48945e-06 -1.73891e-05 -0.000315098
0.00184476 -6.15504e-05 -3.30347e-05
-6.15504e-05 0.00040402 9.12178e-05
-3.30347e-05 9.12178e-05 0.00012102
0.00521283 8.52303e-05 1.17008e-05
8.52303e-05 0.000781466 -1.53214e-05
1.17008e-05 -1.53214e-05 0.000423518
0.000561201 -4.48852e-05 -7.2657e-06
-4.48852e-05 2.8902e-06 1.31538e-05
-7.2657e-06 1.31538e-05 -0.000340625
0.00608633 1.29079e-05 -1.07605e-06
1.29079e-05 0.000519175 3.82921e-06
-1.07605e-06 3.82921e-06 0.000787854
0.0026391 -0.00011586 -4.32955e-07
-0.00011586 0.000301642 -4.57475e-06
-4.32955e-07 -4.57475e-06 0.00027223
-0.000817402 -2.70544e-05 -1.7424e-07
-2.70544e-05 -0.000840634 7.03002e-06
-1.7424e-07 7.03002e-06 -0.00078005
0.000319595 -1.74507e-05 5.66689e-06
-1.74507e-05 6.41712e-05 -3.54654e-05
5.66689e-06 -3.54654e-05 -0.000418239
0.0052027 -9.43623e-05 1.69156e-05
-9.43623e-05 0.000921012 3.27546e-05
1.69156e-05 3.27546e-05 0.000467281
0.00307865 -0.000150885 7.56361e-06
-0.000150885 0.00084796 2.35572e-05
7.56361e-06 2.35572e-05 0.000759191
0.000795135 -4.82987e-05 -1.65426e-06
-4.82987e-05 0.000121029 -5.52764e-08
-1.65426e-06 -5.52764e-08 0.000216767
0.00110839 2.05389e-05 -3.52298e-07
2.05389e-05 6.12663e-05 9.55304e-07
-3.52298e-07 9.55304e-07 -8.30884e-06
0.00116533 1.76904e-05 -4.28495e-07
1.76904e-05 8.3575e-05 -2.49156e-08
-4.28495e-07 -2.49156e-08 1.06717e-05
0.00119213 7.38301e-06 2.65997e-07
7.38301e-06 9.43212e-05 -3.70273e-07
2.65997e-07 -3.70273e-07 2.20154e-05
0.000161768 -5.5974e-06 2.8484e-06
-5.5974e-06 -0.000166124 -1.41263e-05
2.8484e-06 -1.41263e-05 -0.000228203
0.00111946 -6.76628e-06 5.42337e-07
-6.76628e-06 6.7136e-05 -2.43313e-06
5.42337e-07 -2.43313e-06 -2.32868e-05
0.00120249 1.40284e-05 5.13535e-07
1.40284e-05 0.000108445 1.49906e-08
5.13535e-07 1.49906e-08 2.55887e-05
0.00116838 1.17883e-06 -2.10178e-08
1.17883e-06 9.2807e-05 -9.4352e-07
-2.10178e-08 -9.4352e-07 1.96113e-06
0.00116696 1.07742e-05 6.17911e-07
1.07742e-05 9.90267e-05 -1.10289e-08
6.17911e-07 -1.10289e-08 9.48339e-06
0.00118373 -3.31202e-06 -2.7559e-07
-3.31202e-06 8.84673e-05 -1.11666e-06
-2.7559e-07 -1.11666e-06 -1.35701e-05
0.000577167 -4.40479e-07 -3.10738e-06
-4.40479e-07 0.0001194 1.05002e-05
-3.10738e-06 1.05002e-05 5.99627e-05
0.00107807 1.81925e-05 -1.92703e-06
1.81925e-05 5.55478e-05 -7.34171e-08
-1.92703e-06 -7.34171e-08 -3.89965e-05
0.000666904 1.35767e-05 2.67457e-06
1.35767e-05 0.000101421 2.26619e-05
2.67457e-06 2.26619e-05 2.81543e-05
0.00165873 -2.72787e-06 -1.09144e-05
-2.72787e-06 0.000795918 -1.03977e-06
-1.09144e-05 -1.03977e-06 0.000726425
0.000737725 2.08553e-06 -8.73236e-07
2.08553e-06 0.000111791 -3.97795e-07
-8.73236e-07 -3.97795e-07 2.04013e-05
0.000612805 -4.5156e-07 3.05306e-08
-4.5156e-07 -1.03863e-05 -1.46993e-07
3.05306e-08 -1.46993e-07 -8.63447e-05
0.000800409 3.55973e-06 1.39313e-06
3.55973e-06 -1.11697e-06 1.30827e-05
1.39313e-06 1.30827e-05 -3.16136e-05
-0.000214408 2.68548e-05 3.76426e-06
2.68548e-05 -8.43666e-05 -2.02684e-05
3.76426e-06 -2.02684e-05 -0.000734429
0.00101602 -7.02582e-06 4.38952e-08
-7.02582e-06 0.000283572 -7.51077e-07
4.38952e-08 -7.51077e-07 0.000203785
0.00744373 5.70987e-05 2.85226e-06
5.70987e-05 0.00171626 -2.56587e-05
2.85226e-06 -2.56587e-05 0.0011133
0.00283529 0.000145816 -1.462e-05
0.000145816 0.000845387 2.47076e-05
-1.462e-05 2.47076e-05 0.0007303
0.000913848 8.08496e-06 9.62419e-06
8.08496e-06 0.000284719 -9.64159e-06
9.62419e-06 -9.64159e-06 0.000273191
9.77715e-05 4.0206e-05 -4.81508e-06
4.0206e-05 -0.000246074 4.96144e-06
-4.81508e-06 4.96144e-06 -0.000163477
0.000746427 4.86212e-06 -2.04085e-06
4.86212e-06 8.74893e-05 -1.33269e-06
-2.04085e-06 -1.33269e-06 6.3103e-05
0.000765545 1.60639e-06 4.57427e-07
1.60639e-06 0.000221193 -4.10648e-07
4.57427e-07 -4.10648e-07 0.000163695
-0.00113904 2.88619e-05 7.16419e-06
2.88619e-05 -0.00092387 -1.84898e-06
7.16419e-06 -1.84898e-06 -0.000884658
0.000782258 -4.3375e-05 -2.85071e-06
-4.3375e-05 0.000193641 2.62392e-05
-2.85071e-06 2.62392e-05 -0.000144671
0.00182362 9.95808e-05 7.41582e-07
9.95808e-05 0.000524275 -3.85153e-06
7.41582e-07 -3.85153e-06 0.000431302
0.00533697 5.24147e-05 1.12349e-05
5.24147e-05 0.000959563 -1.20629e-05
1.12349e-05 -1.20629e-05 0.000265188
0.000342409 -1.41565e-05 8.4584e-06
-1.41565e-05 -0.000136171 -1.39004e-05
8.4584e-06 -1.39004e-05 -0.000191847
-0.00134244 1.25563e-05 -9.58663e-06
1.25563e-05 -0.00101035 3.05895e-06
-9.58663e-06 3.05895e-06 -0.00101241
0.00177624 5.92734e-05 1.89741e-05
5.92734e-05 0.000776238 -1.14811e-05
1.89741e-05 -1.14811e-05 0.000707455
0.0028014 4.02092e-06 -3.74283e-05
4.02092e-06 7.01474e-05 1.67379e-05
-3.74283e-05 1.67379e-05 -0.000472077
3.28246e-05 -4.29237e-05 -1.59609e-05
-4.29237e-05 -0.000379718 3.89928e-05
-1.59609e-05 3.89928e-05 -0.000516002
0.00120642 8.01634e-06 -4.51113e-07
8.01634e-06 0.000139688 5.01573e-07
-4.51113e-07 5.01573e-07 5.72801e-05
0.000940764 -9.30888e-06 -2.85423e-07
-9.30888e-06 6.4442e-05 2.0631e-07
-2.85423e-07 2.0631e-07 -4.04019e-05
0.00152885 -3.45272e-05 1.76986e-06
-3.45272e-05 0.00035338 8.05594e-07
1.76986e-06 8.05594e-07 0.000227335
0.00088491 -1.69157e-05 -6.09359e-07
-1.69157e-05 -1.11656e-05 1.59129e-07
-6.09359e-07 1.59129e-07 -9.79868e-05
0.00120597 -2.5644e-05 5.45305e-07
-2.5644e-05 0.000139388 1.92756e-07
5.45305e-07 1.92756e-07 3.89352e-05
0.00113821 -3.15209e-05 -1.25938e-06
-3.15209e-05 4.25701e-05 -2.17883e-06
-1.25938e-06 -2.17883e-06 -5.11768e-05
0.00134466 -2.57059e-05 -2.84184e-07
-2.57059e-05 0.000176935 -3.62954e-07
-2.84184e-07 -3.62954e-07 8.76746e-05
0.00119252 -2.68715e-05 -3.9142e-07
-2.68715e-05 8.39915e-05 -6.67961e-07
-3.9142e-07 -6.67961e-07 -3.88676e-06
0.00137401 -2.63889e-05 -6.8386e-07
-2.63889e-05 0.000140781 -1.95643e-06
-6.8386e-07 -1.95643e-06 6.59931e-05
0.0012399 -2.39453e-05 -4.81827e-08
-2.39453e-05 0.000104033 -3.36259e-07
-4.81827e-08 -3.36259e-07 2.33792e-05
0.00120088 -2.30775e-05 1.78836e-07
-2.30775e-05 7.817e-05 -4.9407e-07
1.78836e-07 -4.9407e-07 7.55315e-07
0.0012806 -2.12285e-05 -8.20356e-08
-2.12285e-05 8.48747e-05 -2.05848e-06
-8.20356e-08 -2.05848e-06 1.94681e-05
0.00124764 -1.92597e-05 1.56125e-07
-1.92597e-05 6.08714e-05 -1.19158e-06
1.56125e-07 -1.19158e-06 -4.85629e-07
0.00117622 -2.07828e-05 -3.58567e-07
-2.07828e-05 5.77315e-05 -1.70266e-07
-3.58567e-07 -1.70266e-07 -1.08251e-05
0.00119176 -2.10486e-05 1.65215e-08
-2.10486e-05 5.84403e-05 -4.29483e-07
1.65215e-08 -4.29483e-07 -1.16424e-05
0.0011852 -1.91468e-05 -3.59917e-07
-1.91468e-05 8.018e-05 6.45261e-07
-3.59917e-07 6.45261e-07 1.68789e-05
0.0011933 -2.08464e-05 -1.54774e-07
-2.08464e-05 8.12119e-05 1.90849e-07
-1.54774e-07 1.90849e-07 1.17927e-05
0.00117221 -2.19908e-05 1.33024e-08
-2.19908e-05 7.0074e-05 -2.3599e-07
1.33024e-08 -2.3599e-07 -5.12529e-06
0.0010938 -1.35348e-05 -4.86859e-07
-1.35348e-05 4.4454e-05 5.00532e-08
-4.86859e-07 5.00532e-08 -1.01715e-05
0.00104563 -1.71539e-05 -7.13034e-08
-1.71539e-05 2.17505e-05 -2.4147e-07
-7.13034e-08 -2.4147e-07 -3.81468e-05
0.00115314 -1.88183e-05 6.22147e-07
-1.88183e-05 7.11298e-05 -6.9983e-07
6.22147e-07 -6.9983e-07 6.75276e-06
0.00105271 3.80792e-06 -8.98667e-07
3.80792e-06 3.06439e-05 7.50359e-07
-8.98667e-07 7.50359e-07 -1.51276e-05
0.00106853 -7.25537e-06 1.22624e-07
-7.25537e-06 3.60264e-05 1.15928e-07
1.22624e-07 1.15928e-07 -1.85314e-05
0.00109443 -1.55863e-05 4.51715e-07
-1.55863e-05 4.73757e-05 -1.42896e-07
4.51715e-07 -1.42896e-07 -1.19674e-05
0.000992765 8.79067e-06 -1.85271e-06
8.79067e-06 -1.79883e-06 1.33356e-06
-1.85271e-06 1.33356e-06 -2.92077e-05
0.0010598 4.60539e-06 -3.53795e-08
4.60539e-06 3.02525e-05 -3.31631e-08
-3.53795e-08 -3.31631e-08 -1.37431e-05
0.00107943 -1.36125e-06 1.88974e-07
-1.36125e-06 4.19665e-05 -8.70985e-08
1.88974e-07 -8.70985e-08 -1.11629e-05
0.00151115 1.23299e-05 -4.08876e-06
1.23299e-05 0.00024581 2.48371e-06
-4.08876e-06 2.48371e-06 0.000247768
0.00101157 7.60576e-06 2.2028e-08
7.60576e-06 2.48488e-06 1.42122e-08
2.2028e-08 1.42122e-08 -2.41166e-05
0.00107597 1.86865e-06 1.03065e-06
1.86865e-06 3.26614e-05 -7.11017e-07
1.03065e-06 -7.11017e-07 -1.03252e-05
0.0011877 1.23361e-05 -5.33465e-06
1.23361e-05 8.29297e-05 3.28945e-06
-5.33465e-06 3.28945e-06 9.89685e-05
0.00124701 1.07077e-05 -1.01711e-06
1.07077e-05 0.00011323 5.53053e-07
-1.01711e-06 5.53053e-07 0.000114179
0.00101494 6.70304e-06 1.69792e-06
6.70304e-06 1.53961e-06 -1.44788e-06
1.69792e-06 -1.44788e-06 -2.4971e-05
0.000959981 9.15221e-06 2.28154e-06
9.15221e-06 -3.03829e-05 -2.67437e-06
2.28154e-06 -2.67437e-06 -3.03181e-05
0.00232926 1.29206e-05 1.58254e-07
1.29206e-05 0.000635636 3.44568e-08
1.58254e-07 3.44568e-08 0.000657738
0.00230387 1.1171e-05 5.28029e-06
1.1171e-05 0.000619694 -3.56172e-06
5.28029e-06 -3.56172e-06 0.000642467
0.00105522 5.20288e-06 -5.85431e-07
5.20288e-06 1.9236e-05 -3.17596e-07
-5.85431e-07 -3.17596e-07 -3.46462e-05
0.00107194 -1.09988e-06 -9.88378e-07
-1.09988e-06 2.77068e-05 -7.48347e-07
-9.88378e-07 -7.48347e-07 -1.61407e-05
0.00108428 8.3713e-06 -1.04513e-08
8.3713e-06 3.27362e-05 2.78481e-08
-1.04513e-08 2.78481e-08 -2.12446e-05
0.00101327 -5.47379e-06 -1.42058e-06
-5.47379e-06 -6.31415e-07 -1.51702e-06
-1.42058e-06 -1.51702e-06 -2.74069e-05
0.00107156 1.97476e-06 -2.72214e-08
1.97476e-06 2.71633e-05 3.28184e-09
-2.72214e-08 3.28184e-09 -1.6649e-05
0.000968327 -7.90421e-06 -1.96398e-06
-7.90421e-06 -2.91242e-05 -2.75102e-06
-1.96398e-06 -2.75102e-06 -2.88179e-05
0.00101897 -4.78988e-06 -5.9058e-08
-4.78988e-06 8.38832e-07 1.68908e-08
-5.9058e-08 1.68908e-08 -2.5446e-05
0.00108014 4.24017e-06 7.55428e-07
4.24017e-06 3.1883e-05 9.49205e-07
7.55428e-07 9.49205e-07 -1.18709e-05
0.00229339 -9.38173e-06 -4.71435e-06
-9.38173e-06 0.000611138 -3.66237e-06
-4.71435e-06 -3.66237e-06 0.000634532
0.000966404 -6.8438e-06 -8.81612e-08
-6.8438e-06 -3.31752e-05 9.57643e-10
-8.81612e-08 9.57643e-10 -3.18248e-05
0.00102723 -4.42445e-06 8.3486e-07
-4.42445e-06 3.6341e-06 1.632e-06
8.3486e-07 1.632e-06 -2.18052e-05
0.00227511 -7.53377e-06 -2.44425e-07
-7.53377e-06 0.00059834 2.23323e-08
-2.44425e-07 2.23323e-08 0.00062263
0.000959884 -5.66125e-06 1.12109e-06
-5.66125e-06 -3.94957e-05 2.89296e-06
1.12109e-06 2.89296e-06 -3.68504e-05
0.00226069 -5.60251e-06 2.79917e-06
-5.60251e-06 0.000588195 3.70024e-06
2.79917e-06 3.70024e-06 0.000613238
0.000477042 -8.63612e-06 -1.28592e-05
-8.63612e-06 5.92286e-05 -5.80459e-06
-1.28592e-05 -5.80459e-06 -1.32647e-05
0.000600362 6.44906e-06 -6.81366e-07
6.44906e-06 3.08782e-05 -8.43641e-07
-6.81366e-07 -8.43641e-07 -5.36064e-05
0.000905467 -3.15696e-06 -9.87689e-07
-3.15696e-06 0.000182512 -5.62932e-07
-9.87689e-07 -5.62932e-07 0.000105212
0.00116744 1.10129e-05 -8.07282e-08
1.10129e-05 7.46081e-05 3.94197e-07
-8.07282e-08 3.94197e-07 1.70349e-05
0.00110578 1.00421e-05 5.4728e-07
1.00421e-05 4.41929e-05 3.30907e-07
5.4728e-07 3.30907e-07 -1.0235e-05
0.00109443 1.47423e-05 4.79895e-07
1.47423e-05 3.65266e-05 -7.48367e-09
4.79895e-07 -7.48367e-09 -2.23178e-05
0.00114067 1.56144e-05 -1.84431e-07
1.56144e-05 6.04819e-05 -1.77321e-07
-1.84431e-07 -1.77321e-07 7.11236e-07
0.00113608 1.19478e-05 -1.44534e-07
1.19478e-05 5.81154e-05 -2.04852e-07
-1.44534e-07 -2.04852e-07 3.49942e-07
0.00115945 1.59492e-05 2.30529e-07
1.59492e-05 6.68659e-05 2.00982e-07
2.30529e-07 2.00982e-07 6.17456e-06
0.00112135 1.59008e-05 -1.88066e-07
1.59008e-05 4.97502e-05 1.17077e-07
-1.88066e-07 1.17077e-07 -1.14426e-05
0.00110359 1.61872e-05 -1.23625e-07
1.61872e-05 4.26843e-05 2.96461e-07
-1.23625e-07 2.96461e-07 -2.03715e-05
0.00115242 1.60398e-05 3.13336e-07
1.60398e-05 6.84501e-05 -9.60997e-08
3.13336e-07 -9.60997e-08 6.04877e-06
0.00111498 1.59344e-05 6.15269e-07
1.59344e-05 5.17392e-05 -1.38554e-07
6.15269e-07 -1.38554e-07 -1.51194e-05
0.00117181 1.68365e-05 -1.10385e-07
1.68365e-05 7.88368e-05 -2.41926e-08
-1.10385e-07 -2.41926e-08 1.25561e-05
0.00131708 1.81333e-05 3.69647e-07
1.81333e-05 0.000146561 6.66878e-07
3.69647e-07 6.66878e-07 8.05205e-05
0.00140723 -3.6651e-05 -7.5977e-06
-3.6651e-05 0.000602351 -3.67323e-06
-7.5977e-06 -3.67323e-06 0.000651116
0.000582437 -1.41537e-05 -2.7166e-06
-1.41537e-05 0.000105924 -2.78061e-06
-2.7166e-06 -2.78061e-06 8.09889e-05
0.000278385 6.70644e-06 4.1156e-06
6.70644e-06 -0.000155978 2.47174e-06
4.1156e-06 2.47174e-06 -0.00021422
0.00107912 -3.56588e-05 1.50464e-05
-3.56588e-05 0.000325233 1.15988e-05
1.50464e-05 1.15988e-05 0.000373183
0.00109235 -0.00010058 2.3763e-06
-0.00010058 -0.000819967 -5.08942e-05
2.3763e-06 -5.08942e-05 -0.000740614
0.0035938 2.58053e-05 -1.4478e-06
2.58053e-05 -1.39195e-05 9.74485e-05
-1.4478e-06 9.74485e-05 -0.000636573
-0.000277951 -2.41955e-05 -5.05455e-06
-2.41955e-05 4.44379e-06 2.35217e-05
-5.05455e-06 2.35217e-05 -0.00011234
0.000443506 -2.08282e-07 -2.85658e-06
-2.08282e-07 0.000329623 -9.02177e-06
-2.85658e-06 -9.02177e-06 0.000122868
0.000399255 -4.9443e-05 2.17412e-06
-4.9443e-05 -8.4594e-05 -9.25205e-07
2.17412e-06 -9.25205e-07 4.57734e-07
0.00623009 -4.5454e-05 8.81169e-06
-4.5454e-05 0.000881657 3.15171e-05
8.81169e-06 3.15171e-05 0.000561083
-0.000931982 -0.000117625 -2.59606e-06
-0.000117625 -0.000784912 -1.24529e-05
-2.59606e-06 -1.24529e-05 -0.000821195
4.98791e-05 2.91576e-05 -8.6335e-06
2.91576e-05 -2.12179e-05 -2.87033e-05
-8.6335e-06 -2.87033e-05 -0.000145069
0.00479165 -0.000131258 2.57083e-05
-0.000131258 0.000992871 3.66049e-05
2.57083e-05 3.66049e-05 0.000460724
2.5508e-05 -9.44241e-05 3.66537e-05
-9.44241e-05 -1.77392e-05 2.63059e-05
3.66537e-05 2.63059e-05 -1.9236e-05
0.00104861 2.52074e-05 -9.47241e-07
2.52074e-05 4.37069e-05 8.95323e-07
-9.47241e-07 8.95323e-07 -2.22958e-05
0.00115432 2.00558e-05 1.08527e-06
2.00558e-05 7.92814e-05 1.5929e-07
1.08527e-06 1.5929e-07 1.01734e-05
0.00119172 1.77138e-05 1.27055e-07
1.77138e-05 9.60243e-05 -6.82987e-07
1.27055e-07 -6.82987e-07 2.41117e-05
0.000430022 -3.11899e-06 1.64559e-06
-3.11899e-06 4.85865e-05 -8.04517e-06
1.64559e-06 -8.04517e-06 -1.22434e-05
0.00107731 -3.7548e-06 -3.05193e-07
-3.7548e-06 3.93748e-05 -8.44593e-07
-3.05193e-07 -8.44593e-07 -6.2586e-05
0.00120276 1.0949e-05 1.95017e-06
1.0949e-05 0.000118675 -7.97665e-08
1.95017e-06 -7.97665e-08 2.91018e-05
0.00124509 1.85511e-05 -4.94807e-08
1.85511e-05 0.000137328 -3.14191e-08
-4.94807e-08 -3.14191e-08 4.33527e-05
0.000782441 1.5397e-05 3.04357e-06
1.5397e-05 0.000145194 9.0674e-06
3.04357e-06 9.0674e-06 6.98282e-05
-0.000184603 3.75509e-05 6.97042e-07
3.75509e-05 -0.000417021 8.24956e-06
6.97042e-07 8.24956e-06 -0.00047823
0.00213452 -5.64895e-06 -1.17953e-05
-5.64895e-06 0.00109056 1.86015e-08
-1.17953e-05 1.86015e-08 0.00109964
0.000639732 -1.11569e-06 -1.14143e-06
-1.11569e-06 0.000160276 -1.16307e-06
-1.14143e-06 -1.16307e-06 8.15925e-05
0.000329141 1.77948e-06 -2.36256e-07
1.77948e-06 -0.000146944 -3.64219e-07
-2.36256e-07 -3.64219e-07 -0.000237773
0.00082042 3.0843e-06 -7.45584e-06
3.0843e-06 0.000120469 1.90658e-05
-7.45584e-06 1.90658e-05 9.13145e-05
0.000629192 -2.87058e-05 4.08172e-06
-2.87058e-05 0.000176825 -2.82757e-05
4.08172e-06 -2.82757e-05 -7.33984e-06
0.000838397 1.80985e-06 1.05121e-05
1.80985e-06 0.000265952 -3.8267e-06
1.05121e-05 -3.8267e-06 0.000208575
0.00194914 5.97719e-05 -2.00845e-05
5.97719e-05 -3.53065e-05 3.0532e-05
-2.00845e-05 3.0532e-05 -0.000559073
-0.00121547 7.70692e-05 -4.00529e-05
7.70692e-05 -0.000731962 3.04915e-05
-4.00529e-05 3.04915e-05 -0.000753916
0.000910059 3.13972e-05 1.37327e-05
3.13972e-05 0.000271033 -1.19764e-05
1.37327e-05 -1.19764e-05 0.000318665
0.00113407 -1.24435e-05 1.39918e-06
-1.24435e-05 0.000234403 9.00718e-07
1.39918e-06 9.00718e-07 0.000185453
0.000809807 1.33315e-05 4.03545e-07
1.33315e-05 0.000264007 -1.0594e-06
4.03545e-07 -1.0594e-06 0.000269121
-0.00159871 3.27642e-05 -1.31481e-05
3.27642e-05 -0.000670061 3.66941e-06
-1.31481e-05 3.66941e-06 -0.000675569
0.00157981 -7.14395e-05 -1.12918e-05
-7.14395e-05 0.000127304 3.70846e-05
-1.12918e-05 3.70846e-05 -0.000199767
0.00453556 3.79436e-05 -9.16459e-06
3.79436e-05 0.00103694 1.05122e-05
-9.16459e-06 1.05122e-05 0.000565826
0.00161976 -3.4274e-05 1.41566e-05
-3.4274e-05 0.000122491 -1.3529e-05
1.41566e-05 -1.3529e-05 6.697e-05
-0.00396007 2.47334e-05 3.25464e-05
2.47334e-05 -0.00188471 -1.05589e-05
3.25464e-05 -1.05589e-05 -0.00183484
0.00434724 1.34818e-05 2.60791e-05
1.34818e-05 0.00119068 -1.91424e-05
2.60791e-05 -1.91424e-05 0.000875698
0.00118192 -6.88806e-05 -2.95132e-05
-6.88806e-05 -0.000105777 3.59335e-05
-2.95132e-05 3.59335e-05 -0.000354947
0.00100518 -6.15125e-06 -1.63554e-06
-6.15125e-06 8.74995e-05 6.88777e-07
-1.63554e-06 6.88777e-07 -1.43673e-05
0.00129338 -3.06654e-05 1.55273e-07
-3.06654e-05 0.000242948 3.22052e-07
1.55273e-07 3.22052e-07 0.000114162
0.00127803 -4.39395e-05 -9.28404e-07
-4.39395e-05 0.000134177 -1.05903e-06
-9.28404e-07 -1.05903e-06 3.81274e-05
0.0012046 -2.50999e-05 -1.07276e-06
-2.50999e-05 0.000146207 -3.7075e-07
-1.07276e-06 -3.7075e-07 4.59482e-05
0.00117773 -3.15262e-05 -8.71817e-07
-3.15262e-05 5.91378e-05 -1.39449e-06
-8.71817e-07 -1.39449e-06 -3.35561e-05
0.001566 -3.1762e-05 -1.27499e-06
-3.1762e-05 0.000168042 -4.46476e-06
-1.27499e-06 -4.46476e-06 0.000108002
0.00117266 -2.65634e-05 1.67761e-07
-2.65634e-05 7.42288e-05 -8.38597e-07
1.67761e-07 -8.38597e-07 -1.31785e-05
0.00120249 -2.48082e-05 4.00448e-07
-2.48082e-05 5.78283e-05 -7.33452e-07
4.00448e-07 -7.33452e-07 -1.54367e-05
0.00133946 -2.06176e-05 4.36146e-07
-2.06176e-05 8.31702e-05 -2.85412e-06
4.36146e-07 -2.85412e-06 3.22713e-05
0.00111011 -2.21415e-05 1.76449e-07
-2.21415e-05 3.41486e-05 1.26044e-07
1.76449e-07 1.26044e-07 -4.24436e-05
0.00119803 -2.04123e-05 -7.56948e-08
-2.04123e-05 4.44838e-05 -3.57475e-07
-7.56948e-08 -3.57475e-07 -2.02694e-05
0.00124817 -1.69962e-05 7.95177e-07
-1.69962e-05 4.12854e-05 -1.68161e-06
7.95177e-07 -1.68161e-06 -9.53641e-06
0.00122195 -1.59752e-05 5.20651e-07
-1.59752e-05 4.28646e-05 -8.30229e-07
5.20651e-07 -8.30229e-07 -1.04305e-05
0.001275 -1.99109e-05 -2.18584e-07
-1.99109e-05 8.43707e-05 -7.4346e-07
-2.18584e-07 -7.4346e-07 2.17518e-05
0.00121392 -1.86305e-05 2.21259e-07
-1.86305e-05 4.52101e-05 3.27955e-07
2.21259e-07 3.27955e-07 -1.55506e-05
0.00105073 -1.85532e-05 -5.68309e-07
-1.85532e-05 4.20378e-06 2.16532e-07
-5.68309e-07 2.16532e-07 -6.00577e-05
0.00120621 -2.08408e-05 3.33963e-07
-2.08408e-05 7.325e-05 -3.08485e-07
3.33963e-07 -3.08485e-07 5.28433e-06
0.00113517 -2.03667e-05 2.02838e-07
-2.03667e-05 3.07572e-05 3.11905e-07
2.02838e-07 3.11905e-07 -3.88003e-05
0.00110589 -1.61575e-05 -4.08621e-07
-1.61575e-05 4.71281e-05 4.13734e-07
-4.08621e-07 4.13734e-07 -9.32707e-06
0.0011002 -1.85738e-05 5.44603e-08
-1.85738e-05 4.14261e-05 -5.52379e-08
5.44603e-08 -5.52379e-08 -2.20255e-05
0.00107198 -2.01342e-05 2.04896e-07
-2.01342e-05 2.49085e-05 -4.60113e-07
2.04896e-07 -4.60113e-07 -4.54243e-05
0.00105791 -3.53153e-08 -1.0612e-06
-3.53153e-08 3.3263e-05 5.72187e-07
-1.0612e-06 5.72187e-07 -1.38955e-05
0.00111023 -1.30228e-05 -6.68537e-08
-1.30228e-05 5.19433e-05 -7.12887e-08
-6.68537e-08 -7.12887e-08 -2.69886e-06
0.00109514 -1.7417e-05 1.46187e-07
-1.7417e-05 4.5623e-05 -4.71763e-07
1.46187e-07 -4.71763e-07 -1.37253e-05
0.000983139 9.78525e-06 -1.90854e-06
9.78525e-06 -1.2351e-06 1.32371e-06
-1.90854e-06 1.32371e-06 -3.03298e-05
0.00105884 2.87775e-06 9.74949e-08
2.87775e-06 3.28366e-05 4.90758e-08
9.74949e-08 4.90758e-08 -1.28283e-05
0.00102136 -5.61541e-06 5.69746e-07
-5.61541e-06 1.3963e-05 -8.07578e-08
5.69746e-07 -8.07578e-08 -4.07131e-05
0.000907545 1.26683e-05 -2.94155e-06
1.26683e-05 -4.33055e-05 2.35193e-06
-2.94155e-06 2.35193e-06 -4.47699e-05
0.00100673 8.85449e-06 -6.64537e-10
8.85449e-06 4.82758e-06 -5.42444e-09
-6.64537e-10 -5.42444e-09 -2.26361e-05
0.00107563 3.67942e-06 9.10474e-07
3.67942e-06 3.728e-05 -7.57599e-07
9.10474e-07 -7.57599e-07 -6.69033e-06
0.00228793 1.70482e-05 -2.81973e-06
1.70482e-05 0.000624208 1.30369e-06
-2.81973e-06 1.30369e-06 0.000645206
0.000923747 1.14702e-05 6.54079e-08
1.14702e-05 -4.02647e-05 3.26391e-08
6.54079e-08 3.26391e-08 -4.09991e-05
0.001017 7.66568e-06 1.82404e-06
7.66568e-06 5.15933e-06 -1.37062e-06
1.82404e-06 -1.37062e-06 -2.14571e-05
0.00235003 1.46717e-05 1.28047e-07
1.46717e-05 0.000649801 3.86162e-08
1.28047e-07 3.86162e-08 0.000671195
0.000950223 1.02967e-05 2.58717e-06
1.02967e-05 -3.15048e-05 -2.55691e-06
2.58717e-06 -2.55691e-06 -3.18608e-05
0.00230223 1.29402e-05 5.78573e-06
1.29402e-05 0.000622982 -3.46904e-06
5.78573e-06 -3.46904e-06 0.000645139
0.00121222 2.84453e-06 -2.88796e-07
2.84453e-06 9.87951e-05 2.17794e-07
-2.88796e-07 2.17794e-07 4.56242e-05
0.00107939 3.81614e-06 -8.02917e-08
3.81614e-06 3.16429e-05 -1.42601e-07
-8.02917e-08 -1.42601e-07 -2.20666e-05
0.0010729 -3.37801e-06 -1.01069e-06
-3.37801e-06 3.00141e-05 -6.94287e-07
-1.01069e-06 -6.94287e-07 -1.4165e-05
0.00101472 -6.27678e-06 -1.63371e-06
-6.27678e-06 1.48631e-06 -1.43314e-06
-1.63371e-06 -1.43314e-06 -2.56493e-05
0.00106956 -9.94361e-08 -4.63913e-08
-9.94361e-08 2.66896e-05 1.94094e-08
-4.63913e-08 1.94094e-08 -1.7197e-05
0.00105862 7.226e-06 5.23323e-07
7.226e-06 2.05353e-05 2.59952e-07
5.23323e-07 2.59952e-07 -3.36788e-05
0.000957204 -8.94395e-06 -2.29437e-06
-8.94395e-06 -3.13034e-05 -2.66138e-06
-2.29437e-06 -2.66138e-06 -3.16628e-05
0.00101455 -5.39934e-06 -5.45749e-08
-5.39934e-06 -2.17581e-07 9.50153e-09
-5.45749e-08 9.50153e-09 -2.69658e-05
0.00107481 2.59513e-06 8.39516e-07
2.59513e-06 2.8775e-05 8.90637e-07
8.39516e-07 8.90637e-07 -1.50839e-05
0.00231721 -1.11433e-05 -5.35069e-06
-1.11433e-05 0.000626512 -3.59615e-06
-5.35069e-06 -3.59615e-06 0.000649112
0.000956165 -7.90449e-06 -9.07576e-08
-7.90449e-06 -3.49092e-05 1.3369e-08
-9.07576e-08 1.3369e-08 -3.4554e-05
0.00102333 -4.73737e-06 1.10145e-06
-4.73737e-06 2.88169e-06 1.59176e-06
1.10145e-06 1.59176e-06 -2.34107e-05
0.00230721 -9.35742e-06 -2.1588e-07
-9.35742e-06 0.000617394 2.79982e-08
-2.1588e-07 2.79982e-08 0.000640838
0.000952307 -6.85729e-06 1.42897e-06
-6.85729e-06 -3.98844e-05 2.86091e-06
1.42897e-06 2.86091e-06 -3.84675e-05
0.00228686 -7.49607e-06 3.60419e-06
-7.49607e-06 0.000603625 3.66907e-06
3.60419e-06 3.66907e-06 0.000627974
-6.38359e-05 -1.87704e-05 -8.02904e-06
-1.87704e-05 -0.000215986 -5.01021e-06
-8.02904e-06 -5.01021e-06 -0.000206487
0.000481517 -5.98044e-06 -5.93272e-07
-5.98044e-06 6.39376e-05 -1.5674e-06
-5.93272e-07 -1.5674e-06 -8.69067e-06
0.000440754 5.96215e-06 1.46479e-06
5.96215e-06 -6.72244e-05 7.41908e-07
1.46479e-06 7.41908e-07 -0.000152639
0.00114218 1.096e-05 6.89643e-08
1.096e-05 6.20263e-05 1.66818e-07
6.89643e-08 1.66818e-07 4.14411e-06
0.00115791 1.26285e-05 -4.60357e-08
1.26285e-05 7.14726e-05 4.44493e-07
-4.60357e-08 4.44493e-07 1.36064e-05
0.00112501 1.61382e-05 4.62926e-08
1.61382e-05 5.17143e-05 4.61627e-07
4.62926e-08 4.61627e-07 -8.23797e-06
0.00120249 1.6019e-05 1.42035e-07
1.6019e-05 9.10113e-05 -3.30261e-07
1.42035e-07 -3.30261e-07 3.15699e-05
0.00120008 1.28188e-05 1.52698e-07
1.28188e-05 8.93034e-05 -2.15128e-07
1.52698e-07 -2.15128e-07 3.18352e-05
0.0011224 1.56163e-05 3.01254e-07
1.56163e-05 4.87757e-05 1.2349e-07
3.01254e-07 1.2349e-07 -1.17466e-05
0.00113006 1.62997e-05 -7.70606e-08
1.62997e-05 5.50863e-05 -2.83716e-10
-7.70606e-08 -2.83716e-10 -7.71515e-06
0.00113764 1.60048e-05 4.60381e-08
1.60048e-05 5.7524e-05 3.13014e-08
4.60381e-08 3.13014e-08 -3.44436e-06
0.00115512 1.71574e-05 -1.77071e-07
1.71574e-05 7.16904e-05 3.27379e-07
-1.77071e-07 3.27379e-07 7.14731e-06
0.00124134 1.8634e-05 7.16529e-07
1.8634e-05 0.000111752 1.64259e-06
7.16529e-07 1.64259e-06 4.86894e-05
0.00113574 1.65686e-05 -1.98462e-09
1.65686e-05 6.12376e-05 -4.92894e-07
-1.98462e-09 -4.92894e-07 -5.0119e-06
0.00119728 1.73938e-05 3.18085e-09
1.73938e-05 9.00976e-05 -4.39823e-09
3.18085e-09 -4.39823e-09 2.39553e-05
-0.00315389 -6.07789e-05 4.08727e-05
-6.07789e-05 -0.00153347 1.74852e-05
4.08727e-05 1.74852e-05 -0.00154893
0.000828664 -3.56202e-05 1.66091e-07
-3.56202e-05 0.000279817 2.5253e-07
1.66091e-07 2.5253e-07 0.000326712
0.000435608 -1.49282e-05 1.47068e-05
-1.49282e-05 2.0069e-05 8.29903e-06
1.47068e-05 8.29903e-06 -3.54822e-06
5.19146e-05 -4.98146e-05 -1.34357e-06
-4.98146e-05 -0.000257822 -4.29268e-06
-1.34357e-06 -4.29268e-06 -0.000183766
0.00371035 -0.000150656 -2.59577e-05
-0.000150656 0.00120493 -5.20428e-05
-2.59577e-05 -5.20428e-05 0.0011067
0.00165624 -7.30117e-05 3.45207e-06
-7.30117e-05 -0.000724396 2.94182e-05
3.45207e-06 2.94182e-05 -0.000947442
0.000195313 1.70327e-05 3.93341e-06
1.70327e-05 2.59649e-05 2.05855e-05
3.93341e-06 2.05855e-05 -0.000479059
0.00108102 4.84512e-05 -8.71434e-06
4.84512e-05 0.000188665 -2.68931e-05
-8.71434e-06 -2.68931e-05 -0.000140334
0.00184789 -0.000118792 -5.71752e-07
-0.000118792 0.000489387 -4.22426e-06
-5.71752e-07 -4.22426e-06 0.000414651
0.00431178 -7.21656e-05 1.84115e-05
-7.21656e-05 0.000786037 3.27468e-05
1.84115e-05 3.27468e-05 0.000327759
0.000389605 5.7587e-05 -2.8265e-05
5.7587e-05 -0.000322267 -7.0618e-05
-2.8265e-05 -7.0618e-05 -0.000628829
0.00335147 -1.5209e-05 1.56849e-05
-1.5209e-05 0.000482166 2.10074e-05
1.56849e-05 2.10074e-05 -1.04619e-05
0.0013739 3.44538e-05 3.26865e-06
3.44538e-05 0.000231253 -9.06934e-07
3.26865e-06 -9.06934e-07 0.000156969
0.00101619 2.39365e-05 3.2728e-08
2.39365e-05 2.61088e-05 -7.87847e-08
3.2728e-08 -7.87847e-08 -3.92068e-05
0.00119558 1.95682e-05 1.53253e-06
1.95682e-05 9.52865e-05 -8.85754e-07
1.53253e-06 -8.85754e-07 2.6632e-05
0.000814651 1.75818e-05 -2.31123e-06
1.75818e-05 0.000152256 -5.56669e-06
-2.31123e-06 -5.56669e-06 7.47879e-05
0.0014279 1.93324e-05 1.13733e-06
1.93324e-05 0.000225885 -8.1972e-08
1.13733e-06 -8.1972e-08 0.000132444
0.000973616 4.39876e-05 6.85049e-07
4.39876e-05 0.000102042 2.25029e-06
6.85049e-07 2.25029e-06 4.24075e-05
-0.000532933 4.16133e-05 5.20437e-06
4.16133e-05 -0.000616904 2.27447e-06
5.20437e-06 2.27447e-06 -0.000668023
-0.00196981 1.53456e-06 5.33663e-05
1.53456e-06 -0.000785903 -6.1683e-08
5.33663e-05 -6.1683e-08 -0.00068772
0.00045857 -4.78857e-06 -4.95732e-06
-4.78857e-06 8.58799e-05 3.23371e-07
-4.95732e-06 3.23371e-07 8.15223e-05
-0.000448315 5.21769e-07 1.1782e-05
5.21769e-07 -0.000518629 -1.60422e-06
1.1782e-05 -1.60422e-06 -0.000606465
0.00134495 -6.92696e-06 -9.05609e-06
-6.92696e-06 0.00033634 1.27596e-05
-9.05609e-06 1.27596e-05 0.000293844
0.000202835 -5.28429e-05 -4.04163e-06
-5.28429e-05 -7.58086e-05 9.97993e-07
-4.04163e-06 9.97993e-07 -0.000200872
0.000583151 1.23824e-05 1.05034e-05
1.23824e-05 0.000118855 -4.98395e-06
1.05034e-05 -4.98395e-06 0.000124151
0.00364372 -1.45805e-05 3.32219e-05
-1.45805e-05 0.000529378 -2.38678e-05
3.32219e-05 -2.38678e-05 -7.38561e-07
0.00241935 3.29392e-05 -6.58009e-05
3.29392e-05 0.00109788 2.42249e-05
-6.58009e-05 2.42249e-05 0.00102161
0.000742653 -2.73933e-05 -3.53461e-06
-2.73933e-05 -0.000198227 2.80896e-07
-3.53461e-06 2.80896e-07 -0.000240985
-0.000814616 1.13445e-05 -2.2784e-05
1.13445e-05 -0.000339593 5.36852e-06
-2.2784e-05 5.36852e-06 -0.000338227
0.00199294 -4.30459e-05 -4.38912e-06
-4.30459e-05 -9.10217e-06 2.19905e-06
-4.38912e-06 2.19905e-06 -0.000438408
0.000135793 -4.11495e-05 4.32903e-06
-4.11495e-05 -0.000142399 2.71699e-06
4.32903e-06 2.71699e-06 -0.000285234
0.00206084 -3.39408e-05 1.43286e-05
-3.39408e-05 0.000135879 -9.07404e-06
1.43286e-05 -9.07404e-06 0.000135471
0.00527663 1.85754e-05 2.83191e-05
1.85754e-05 0.00131588 -1.02842e-05
2.83191e-05 -1.02842e-05 0.00101408
0.000457447 -8.19732e-06 -4.28454e-06
-8.19732e-06 -2.09402e-05 3.4806e-06
-4.28454e-06 3.4806e-06 -0.000144957
0.00107598 -2.65566e-05 -1.21759e-06
-2.65566e-05 0.000142705 -1.98818e-06
-1.21759e-06 -1.98818e-06 1.07006e-05
0.001023 -4.14462e-05 1.24589e-08
-4.14462e-05 9.99321e-06 -8.61711e-08
1.24589e-08 -8.61711e-08 -8.40129e-05
0.00137372 -4.26668e-05 -7.04135e-06
-4.26668e-05 1.67028e-05 -9.77233e-07
-7.04135e-06 -9.77233e-07 -1.5858e-05
0.00121021 -3.14188e-05 -8.6892e-07
-3.14188e-05 7.14129e-05 -1.21721e-07
-8.6892e-07 -1.21721e-07 -2.01192e-05
0.00125485 -2.98253e-05 -2.51994e-08
-2.98253e-05 1.50178e-05 -4.23635e-07
-2.51994e-08 -4.23635e-07 -4.26111e-05
0.00146301 -2.08658e-05 1.82067e-06
-2.08658e-05 7.79195e-05 -2.46631e-06
1.82067e-06 -2.46631e-06 5.50942e-05
0.00102939 -2.32193e-05 1.06088e-06
-2.32193e-05 -2.59964e-05 1.07718e-06
1.06088e-06 1.07718e-06 -9.77135e-05
0.00122498 -1.98534e-05 2.03318e-07
-1.98534e-05 2.61963e-05 -1.05551e-07
2.03318e-07 -1.05551e-07 -2.37789e-05
0.00125196 -1.45709e-05 2.05594e-06
-1.45709e-05 1.58695e-05 -1.2749e-06
2.05594e-06 -1.2749e-06 -1.96971e-05
0.00111505 -1.9623e-05 8.30825e-08
-1.9623e-05 3.8314e-06 1.30809e-06
8.30825e-08 1.30809e-06 -6.02557e-05
0.00122913 -1.69504e-05 2.14639e-07
-1.69504e-05 3.23141e-05 3.54223e-07
2.14639e-07 3.54223e-07 -1.85808e-05
0.00119976 -1.3234e-05 1.41248e-06
-1.3234e-05 1.66632e-05 -3.32523e-07
1.41248e-06 -3.32523e-07 -2.90855e-05
0.00124232 -1.36023e-05 6.85009e-07
-1.36023e-05 5.22903e-05 -3.12532e-07
6.85009e-07 -3.12532e-07 1.39461e-06
0.00123929 -1.58829e-05 -1.3372e-07
-1.58829e-05 5.04985e-05 6.35673e-07
-1.3372e-07 6.35673e-07 -2.16614e-06
0.00125286 -1.70622e-05 3.45784e-07
-1.70622e-05 6.68053e-05 -1.1613e-06
3.45784e-07 -1.1613e-06 1.11018e-05
0.00124771 -1.86742e-05 -3.97741e-07
-1.86742e-05 7.93667e-05 -4.23739e-07
-3.97741e-07 -4.23739e-07 1.84431e-05
0.00127125 -1.97954e-05 2.80388e-07
-1.97954e-05 8.41059e-05 -3.74934e-08
2.80388e-07 -3.74934e-08 2.14553e-05
0.00118686 -1.80523e-05 3.62523e-07
-1.80523e-05 3.27493e-05 1.65932e-06
3.62523e-07 1.65932e-06 -2.74322e-05
0.00100875 -1.65183e-05 -8.40913e-07
-1.65183e-05 -9.56373e-06 6.77204e-07
-8.40913e-07 6.77204e-07 -6.84025e-05
0.00115853 -1.91795e-05 2.98078e-08
-1.91795e-05 5.64712e-05 -1.61333e-08
2.98078e-08 -1.61333e-08 -7.29061e-06
0.00123204 -2.08632e-05 6.40329e-07
-2.08632e-05 8.67892e-05 -3.42635e-07
6.40329e-07 -3.42635e-07 1.94212e-05
0.00105314 -3.07355e-06 -9.37731e-07
-3.07355e-06 3.04685e-05 5.59449e-07
-9.37731e-07 5.59449e-07 -1.84976e-05
0.00112079 -1.58245e-05 3.12858e-08
-1.58245e-05 5.38887e-05 -3.60089e-08
3.12858e-08 -3.60089e-08 -2.59954e-06
0.00101742 -1.80173e-05 2.87634e-07
-1.80173e-05 3.65408e-06 -7.2038e-07
2.87634e-07 -7.2038e-07 -5.99427e-05
0.00097111 1.03443e-05 -2.06355e-06
1.03443e-05 -3.37509e-06 1.23953e-06
-2.06355e-06 1.23953e-06 -3.44355e-05
0.00106405 -1.1203e-06 -1.77766e-08
-1.1203e-06 3.5193e-05 1.69053e-08
-1.77766e-08 1.69053e-08 -1.18396e-05
0.00112547 -1.24429e-05 4.78193e-07
-1.24429e-05 5.88769e-05 -2.94779e-07
4.78193e-07 -2.94779e-07 4.21891e-06
0.000890296 1.37637e-05 -3.12669e-06
1.37637e-05 -4.57915e-05 2.25612e-06
-3.12669e-06 2.25612e-06 -4.85957e-05
0.000998337 9.88498e-06 5.38177e-08
9.88498e-06 5.98467e-06 2.07386e-08
5.38177e-08 2.07386e-08 -2.31561e-05
0.00106526 1.8303e-06 1.06176e-06
1.8303e-06 3.51791e-05 -5.90427e-07
1.06176e-06 -5.90427e-07 -1.03787e-05
0.00237 1.82146e-05 -6.73435e-06
1.82146e-05 0.000669368 3.13411e-06
-6.73435e-06 3.13411e-06 0.000689192
0.000925521 1.26875e-05 3.37718e-08
1.26875e-05 -3.45524e-05 1.76218e-08
3.37718e-08 1.76218e-08 -3.61196e-05
0.0010207 8.91306e-06 1.86728e-06
8.91306e-06 1.14571e-05 -1.36075e-06
1.86728e-06 -1.36075e-06 -1.60615e-05
0.00171418 1.55617e-05 2.27072e-06
1.55617e-05 0.000344816 -1.0105e-06
2.27072e-06 -1.0105e-06 0.000363052
0.000944021 1.14908e-05 2.85978e-06
1.14908e-05 -3.04666e-05 -2.42094e-06
2.85978e-06 -2.42094e-06 -3.12911e-05
0.00229364 1.46934e-05 6.18693e-06
1.46934e-05 0.000623193 -3.34932e-06
6.18693e-06 -3.34932e-06 0.000644738
0.00115583 1.19175e-06 -3.33206e-07
1.19175e-06 7.44047e-05 2.67779e-07
-3.33206e-07 2.67779e-07 2.02521e-05
0.001129 6.20026e-07 1.46836e-07
6.20026e-07 5.82589e-05 3.43732e-07
1.46836e-07 3.43732e-07 4.47981e-06
0.00107284 -5.60008e-06 -1.04961e-06
-5.60008e-06 3.32716e-05 -6.254e-07
-1.04961e-06 -6.254e-07 -1.17114e-05
0.00110272 2.41004e-06 3.50723e-07
2.41004e-06 4.36472e-05 1.09385e-08
3.50723e-07 1.09385e-08 -9.8879e-06
0.00106492 -3.01607e-06 2.11355e-08
-3.01607e-06 2.63209e-05 7.47343e-09
2.11355e-08 7.47343e-09 -1.78672e-05
0.00101629 -7.30177e-06 -1.79264e-06
-7.30177e-06 4.37841e-06 -1.34443e-06
-1.79264e-06 -1.34443e-06 -2.32684e-05
0.000948649 -1.0048e-05 -2.59604e-06
-1.0048e-05 -3.21214e-05 -2.54566e-06
-2.59604e-06 -2.54566e-06 -3.29861e-05
0.00101207 -6.19766e-06 -6.08499e-08
-6.19766e-06 1.71497e-08 1.33416e-08
-6.08499e-08 1.33416e-08 -2.70836e-05
0.00106776 5.57929e-07 9.47484e-07
5.57929e-07 2.59445e-05 8.08113e-07
9.47484e-07 8.08113e-07 -1.79791e-05
0.00232509 -1.28797e-05 -5.85741e-06
-1.28797e-05 0.000634275 -3.494e-06
-5.85741e-06 -3.494e-06 0.000656206
0.000946527 -8.93527e-06 -7.72988e-08
-8.93527e-06 -3.64535e-05 2.22338e-08
-7.72988e-08 2.22338e-08 -3.67626e-05
0.00101594 -5.32524e-06 1.31854e-06
-5.32524e-06 2.52148e-07 1.53661e-06
1.31854e-06 1.53661e-06 -2.64696e-05
0.00233681 -1.1123e-05 -1.86639e-07
-1.1123e-05 0.000635584 3.34904e-08
-1.86639e-07 3.34904e-08 0.000658186
0.000944177 -7.90491e-06 1.76832e-06
-7.90491e-06 -4.06098e-05 2.80456e-06
1.76832e-06 2.80456e-06 -4.02058e-05
0.00232074 -9.33302e-06 4.36129e-06
-9.33302e-06 0.000623517 3.63933e-06
4.36129e-06 3.63933e-06 0.000647013
0.000254528 -1.73752e-06 5.79828e-05
-1.73752e-06 -0.000103556 6.48972e-06
5.79828e-05 6.48972e-06 -0.000173511
0.00125269 -1.99134e-05 -7.52476e-07
-1.99134e-05 0.000571801 -1.01819e-06
-7.52476e-07 -1.01819e-06 0.000586824
0.000488003 -3.35546e-06 1.21168e-05
-3.35546e-06 6.97626e-05 2.43648e-06
1.21168e-05 2.43648e-06 -2.97077e-06
0.00111547 1.07708e-05 3.55412e-07
1.07708e-05 4.87303e-05 3.61945e-08
3.55412e-07 3.61945e-08 -9.4528e-06
0.00112315 1.60882e-05 3.59268e-07
1.60882e-05 5.11945e-05 1.79589e-07
3.59268e-07 1.79589e-07 -8.75815e-06
0.00115921 1.30776e-05 8.2155e-08
1.30776e-05 7.25644e-05 8.07924e-08
8.2155e-08 8.07924e-08 1.48686e-05
0.00113993 1.51821e-05 1.1621e-07
1.51821e-05 6.61564e-05 4.26902e-07
1.1621e-07 4.26902e-07 7.80852e-06
0.00113081 1.64418e-05 -1.78188e-07
1.64418e-05 5.7126e-05 4.32069e-07
-1.78188e-07 4.32069e-07 -3.36116e-06
0.00115639 1.64112e-05 9.10146e-08
1.64112e-05 6.74204e-05 -2.32656e-07
9.10146e-08 -2.32656e-07 4.8737e-06
0.0011545 1.61058e-05 3.14776e-07
1.61058e-05 6.55355e-05 -1.91116e-07
3.14776e-07 -1.91116e-07 4.79475e-06
0.00110408 1.6847e-05 -1.07079e-07
1.6847e-05 4.70543e-05 -3.5519e-08
-1.07079e-07 -3.5519e-08 -1.74726e-05
0.000986847 1.66325e-05 1.15094e-07
1.66325e-05 -6.15248e-06 6.68218e-07
1.15094e-07 6.68218e-07 -6.89582e-05
0.00114044 1.98359e-05 2.52815e-07
1.98359e-05 6.7868e-05 1.23523e-06
2.52815e-07 1.23523e-06 1.87908e-06
0.00133186 2.58605e-05 1.04818e-06
2.58605e-05 0.000162152 -1.39872e-07
1.04818e-06 -1.39872e-07 9.72919e-05
0.00117822 1.85198e-05 -1.15235e-07
1.85198e-05 8.24285e-05 -4.27868e-08
-1.15235e-07 -4.27868e-08 1.8475e-05
0.00107586 1.66402e-05 -1.16765e-07
1.66402e-05 3.29453e-05 -6.78069e-07
-1.16765e-07 -6.78069e-07 -3.33061e-05
0.00682103 -7.61609e-06 -6.23907e-06
-7.61609e-06 0.00177776 3.75411e-06
-6.23907e-06 3.75411e-06 0.00138906
-3.64487e-05 -6.39513e-05 9.20431e-06
-6.39513e-05 -0.000205258 3.40373e-06
9.20431e-06 3.40373e-06 -0.000256512
0.00189565 -3.43029e-05 3.80662e-06
-3.43029e-05 0.000908163 4.6746e-06
3.80662e-06 4.6746e-06 0.000954987
-0.00167171 -9.34349e-05 -3.0129e-05
-9.34349e-05 -0.00101301 -3.23446e-05
-3.0129e-05 -3.23446e-05 -0.00101818
0.00510965 -0.000122665 1.42146e-05
-0.000122665 0.000836348 4.30378e-05
1.42146e-05 4.30378e-05 0.000126391
0.000829359 3.42195e-05 -3.79682e-06
3.42195e-05 0.00033397 -9.42268e-06
-3.79682e-06 -9.42268e-06 0.000206723
0.000809489 5.68279e-05 -1.76596e-05
5.68279e-05 1.2494e-05 -1.89756e-05
-1.76596e-05 -1.89756e-05 -0.000195799
0.00440182 -7.59651e-05 9.16357e-06
-7.59651e-05 0.00100153 1.12177e-05
9.16357e-06 1.12177e-05 0.000586106
0.000890771 4.01086e-05 -3.30295e-05
4.01086e-05 -9.36194e-05 -3.15563e-05
-3.30295e-05 -3.15563e-05 -0.000285569
0.00130994 4.02769e-05 9.5783e-06
4.02769e-05 0.000155537 -1.10816e-06
9.5783e-06 -1.10816e-06 6.21094e-05
0.00113623 3.30251e-05 -1.17486e-06
3.30251e-05 0.000126423 -1.60166e-06
-1.17486e-06 -1.60166e-06 5.03232e-05
0.000994449 2.27564e-05 8.11412e-07
2.27564e-05 1.35594e-05 -1.12617e-06
8.11412e-07 -1.12617e-06 -5.10789e-05
0.00200897 4.96069e-05 -6.0976e-06
4.96069e-05 0.000569703 -6.92612e-06
-6.0976e-06 -6.92612e-06 0.000511706
0.000236251 4.93507e-05 -3.4656e-06
4.93507e-05 -0.000352586 -1.27346e-06
-3.4656e-06 -1.27346e-06 -0.000391821
0.00100941 5.55418e-05 4.99988e-06
5.55418e-05 -0.000589015 -5.05224e-06
4.99988e-06 -5.05224e-06 -0.000749641
0.00141578 5.49218e-06 4.70204e-07
5.49218e-06 0.000491454 4.15819e-06
4.70204e-07 4.15819e-06 0.000490756
-0.00115824 -4.18793e-06 4.69711e-06
-4.18793e-06 -0.000882156 -2.21009e-07
4.69711e-06 -2.21009e-07 -0.000899154
0.000141155 -2.32205e-05 -1.22315e-05
-2.32205e-05 -0.000393757 1.05347e-05
-1.22315e-05 1.05347e-05 -0.000428622
0.00292862 -7.22308e-05 2.15933e-05
-7.22308e-05 0.000827826 -2.24684e-05
2.15933e-05 -2.24684e-05 0.000513102
0.000494216 1.14898e-05 -8.3466e-05
1.14898e-05 3.07622e-05 1.51867e-05
-8.3466e-05 1.51867e-05 -2.76411e-05
0.00464453 -1.15003e-06 -1.77542e-06
-1.15003e-06 0.00138216 1.63641e-06
-1.77542e-06 1.63641e-06 0.000953588
0.00153795 -2.76202e-05 1.407e-06
-2.76202e-05 -0.000114026 -1.36894e-07
1.407e-06 -1.36894e-07 -9.90472e-05
0.00305797 8.62913e-06 1.79106e-05
8.62913e-06 0.000543836 -2.1181e-06
1.79106e-05 -2.1181e-06 0.000284865
0.00220279 -3.16465e-05 1.85479e-05
-3.16465e-05 0.00041677 -7.43722e-06
1.85479e-05 -7.43722e-06 0.000199703
0.00237686 -1.11179e-05 2.70487e-06
-1.11179e-05 0.000163101 -6.12109e-06
2.70487e-06 -6.12109e-06 0.000228735
0.00055102 2.30469e-05 -1.43061e-05
2.30469e-05 5.65179e-05 1.14759e-05
-1.43061e-05 1.14759e-05 -5.79132e-05
0.000728534 -3.87062e-05 3.01705e-06
-3.87062e-05 -0.000131655 -1.23325e-06
3.01705e-06 -1.23325e-06 -0.000223848
0.00125121 -4.09136e-05 -2.47305e-06
-4.09136e-05 -3.39408e-05 4.71509e-07
-2.47305e-06 4.71509e-07 -6.39065e-05
0.00127378 -1.75458e-05 1.91844e-06
-1.75458e-05 -6.68893e-05 3.41556e-06
1.91844e-06 3.41556e-06 -6.63619e-05
0.000928139 -2.78641e-05 2.08622e-06
-2.78641e-05 -0.000145209 3.07013e-06
2.08622e-06 3.07013e-06 -0.00020038
0.00125472 -2.02992e-05 6.85714e-07
-2.02992e-05 -1.99888e-05 1.38774e-06
6.85714e-07 1.38774e-06 -4.29457e-05
0.00126399 -8.94473e-06 3.16686e-06
-8.94473e-06 -1.10548e-05 8.87763e-07
3.16686e-06 8.87763e-07 -2.89021e-05
0.0011134 -1.91343e-05 1.12782e-07
-1.91343e-05 -2.93775e-05 2.66667e-06
1.12782e-07 2.66667e-06 -7.84322e-05
0.00126256 -1.47925e-05 3.54221e-07
-1.47925e-05 2.18052e-05 8.79259e-07
3.54221e-07 8.79259e-07 -1.4485e-05
0.00122287 -8.5229e-06 2.40272e-06
-8.5229e-06 1.31171e-05 4.22146e-07
2.40272e-06 4.22146e-07 -2.59024e-05
0.00121797 -1.69283e-05 -3.49468e-08
-1.69283e-05 2.71442e-05 2.07513e-06
-3.49468e-08 2.07513e-06 -2.38504e-05
0.00125527 -1.37605e-05 1.30932e-07
-1.37605e-05 4.35562e-05 4.59919e-07
1.30932e-07 4.59919e-07 -2.78448e-06
0.00121944 -1.07937e-05 1.14236e-06
-1.07937e-05 3.41646e-05 1.77062e-07
1.14236e-06 1.77062e-07 -1.48452e-05
0.00122487 -1.40305e-05 -4.02323e-07
-1.40305e-05 4.40143e-05 2.70436e-07
-4.02323e-07 2.70436e-07 -6.27387e-06
0.0012683 -1.48977e-05 8.63153e-07
-1.48977e-05 7.05122e-05 -5.90886e-07
8.63153e-07 -5.90886e-07 1.66063e-05
0.00125345 -1.57866e-05 -2.84623e-07
-1.57866e-05 5.65418e-05 1.63656e-06
-2.84623e-07 1.63656e-06 4.52385e-06
0.00125897 -1.70028e-05 2.45199e-08
-1.70028e-05 6.90546e-05 -1.93436e-07
2.45199e-08 -1.93436e-07 1.33181e-05
0.00125446 -1.67788e-05 1.44226e-07
-1.67788e-05 7.27938e-05 -6.6039e-07
1.44226e-07 -6.6039e-07 1.56696e-05
0.00107648 -1.61901e-05 -7.92419e-07
-1.61901e-05 7.22433e-06 1.88313e-07
-7.92419e-07 1.88313e-07 -5.12173e-05
0.00124145 -1.8667e-05 2.67415e-08
-1.8667e-05 7.70897e-05 -1.30894e-07
2.67415e-08 -1.30894e-07 1.59117e-05
0.00127137 -1.97146e-05 4.43453e-07
-1.97146e-05 8.56548e-05 7.08968e-07
4.43453e-07 7.08968e-07 2.29688e-05
0.00106818 -7.17259e-06 -9.3285e-07
-7.17259e-06 3.28421e-05 6.44513e-07
-9.3285e-07 6.44513e-07 -1.82831e-05
0.00106927 -1.68486e-05 -1.89136e-07
-1.68486e-05 2.02816e-05 2.56071e-07
-1.89136e-07 2.56071e-07 -3.82401e-05
0.00126114 -1.97664e-05 4.75781e-07
-1.97664e-05 0.000106354 -3.52765e-07
4.75781e-07 -3.52765e-07 4.30905e-05
0.000960941 1.10695e-05 -2.09477e-06
1.10695e-05 -5.00043e-06 1.1742e-06
-2.09477e-06 1.1742e-06 -3.862e-05
0.00106606 -3.74306e-06 -4.98374e-08
-3.74306e-06 3.56442e-05 -2.53619e-09
-4.98374e-08 -2.53619e-09 -1.32454e-05
0.00113736 -1.54795e-05 4.62947e-07
-1.54795e-05 6.14294e-05 -4.92333e-07
4.62947e-07 -4.92333e-07 4.90751e-06
0.000874276 1.46223e-05 -3.36367e-06
1.46223e-05 -4.77767e-05 2.14493e-06
-3.36367e-06 2.14493e-06 -5.23143e-05
0.000989287 1.05336e-05 3.85733e-08
1.05336e-05 5.15464e-06 1.50112e-08
3.85733e-08 1.50112e-08 -2.59293e-05
0.00106913 -2.12349e-06 1.08785e-06
-2.12349e-06 3.66474e-05 -5.47944e-07
1.08785e-06 -5.47944e-07 -1.02586e-05
0.00238132 1.99691e-05 -6.94458e-06
1.99691e-05 0.000681133 2.9906e-06
-6.94458e-06 2.9906e-06 0.000699874
0.000915743 1.3779e-05 5.35238e-08
1.3779e-05 -3.35601e-05 1.46751e-08
5.35238e-08 1.46751e-08 -3.64962e-05
0.0010137 9.99139e-06 1.99033e-06
9.99139e-06 1.32749e-05 -1.27088e-06
1.99033e-06 -1.27088e-06 -1.59115e-05
0.00231939 1.8205e-05 1.10275e-07
1.8205e-05 0.000645582 4.63538e-08
1.10275e-07 4.63538e-08 0.000665499
0.000943194 1.27037e-05 3.06073e-06
1.27037e-05 -2.5947e-05 -2.31164e-06
3.06073e-06 -2.31164e-06 -2.76161e-05
0.00227866 1.64498e-05 6.48346e-06
1.64498e-05 0.000620853 -3.20713e-06
6.48346e-06 -3.20713e-06 0.000641734
0.00106236 5.27448e-06 -2.8583e-07
5.27448e-06 3.20417e-05 1.83654e-07
-2.8583e-07 1.83654e-07 -2.37774e-05
0.00114945 1.69528e-06 8.00967e-08
1.69528e-06 7.17344e-05 1.55734e-07
8.00967e-08 1.55734e-07 1.75923e-05
0.000960809 -7.12175e-06 -1.21749e-06
-7.12175e-06 -1.71527e-05 -7.43282e-07
-1.21749e-06 -7.43282e-07 -6.44318e-05
0.00104567 -1.38441e-06 5.98668e-07
-1.38441e-06 1.76734e-05 4.20754e-07
5.98668e-07 4.20754e-07 -3.6714e-05
0.00100648 -6.14261e-06 -4.37051e-09
-6.14261e-06 1.33758e-06 2.76366e-08
-4.37051e-09 2.76366e-08 -4.42112e-05
0.00101445 -8.59666e-06 -1.88754e-06
-8.59666e-06 7.27242e-06 -1.25888e-06
-1.88754e-06 -1.25888e-06 -2.14114e-05
0.00105691 -2.66716e-06 1.07102e-06
-2.66716e-06 2.26236e-05 7.11217e-07
1.07102e-06 7.11217e-07 -2.15756e-05
0.00100959 -7.21824e-06 -3.65341e-08
-7.21824e-06 1.05062e-06 1.59965e-08
-3.65341e-08 1.59965e-08 -2.65581e-05
0.000942375 -1.12416e-05 -2.85598e-06
-1.12416e-05 -3.14032e-05 -2.41123e-06
-2.85598e-06 -2.41123e-06 -3.28678e-05
0.00231937 -1.46213e-05 -6.2379e-06
-1.46213e-05 0.000635677 -3.36725e-06
-6.2379e-06 -3.36725e-06 0.000656994
0.00093835 -1.00315e-05 -6.93378e-08
-1.00315e-05 -3.71795e-05 2.82219e-08
-6.93378e-08 2.82219e-08 -3.79808e-05
0.00100958 -6.11989e-06 1.52765e-06
-6.11989e-06 -1.36673e-06 1.47852e-06
1.52765e-06 1.47852e-06 -2.84339e-05
0.00235442 -1.28613e-05 -1.56102e-07
-1.28613e-05 0.000648098 3.75064e-08
-1.56102e-07 3.75064e-08 0.000669963
0.00093603 -8.92696e-06 2.11015e-06
-8.92696e-06 -4.15162e-05 2.70823e-06
2.11015e-06 2.70823e-06 -4.17754e-05
0.00235697 -1.1107e-05 5.06276e-06
-1.1107e-05 0.000644938 3.60244e-06
5.06276e-06 3.60244e-06 0.000667538
0.00593622 3.28237e-05 6.37512e-06
3.28237e-05 0.00180614 1.01736e-06
6.37512e-06 1.01736e-06 0.00157449
-0.0013363 -1.03245e-05 1.24487e-05
-1.03245e-05 -0.000453455 1.56178e-06
1.24487e-05 1.56178e-06 -0.000420692
0.0003885 -1.91462e-05 7.55823e-06
-1.91462e-05 6.5544e-05 2.61138e-06
7.55823e-06 2.61138e-06 7.83699e-05
0.0011227 1.60546e-05 5.31733e-07
1.60546e-05 5.13833e-05 -2.44662e-07
5.31733e-07 -2.44662e-07 -8.57649e-06
0.00116087 1.35296e-05 2.36529e-07
1.35296e-05 7.38386e-05 -2.30959e-07
2.36529e-07 -2.30959e-07 1.63108e-05
0.00115529 1.66248e-05 -3.17919e-08
1.66248e-05 6.9063e-05 -3.83092e-09
-3.17919e-08 -3.83092e-09 8.70657e-06
0.0011525 1.56401e-05 2.53774e-08
1.56401e-05 7.20646e-05 1.26592e-08
2.53774e-08 1.26592e-08 1.38663e-05
0.00116435 1.60695e-05 5.11514e-07
1.60695e-05 8.27277e-05 3.39793e-07
5.11514e-07 3.39793e-07 2.29871e-05
0.00109373 1.66484e-05 -8.26399e-08
1.66484e-05 4.41147e-05 5.77207e-07
-8.26399e-08 5.77207e-07 -1.64982e-05
0.00104675 1.6489e-05 6.39011e-09
1.6489e-05 1.94648e-05 -5.18806e-07
6.39011e-09 -5.18806e-07 -4.50407e-05
0.00107142 1.70725e-05 3.41917e-07
1.70725e-05 3.38342e-05 -1.01897e-08
3.41917e-07 -1.01897e-08 -2.89824e-05
0.00108134 1.94655e-05 3.64855e-07
1.94655e-05 4.31301e-05 -1.45064e-07
3.64855e-07 -1.45064e-07 -2.27079e-05
0.000914976 1.92076e-05 7.26123e-07
1.92076e-05 -3.71573e-05 3.64466e-07
7.26123e-07 3.64466e-07 -0.000101001
0.00166538 2.66383e-05 1.1308e-06
2.66383e-05 0.000303464 7.88414e-07
1.1308e-06 7.88414e-07 0.000239241
0.00137702 3.55439e-05 1.22029e-06
3.55439e-05 0.000147815 -2.17786e-06
1.22029e-06 -2.17786e-06 6.41955e-05
0.0011682 2.45634e-05 -8.53375e-08
2.45634e-05 8.45628e-05 3.06431e-07
-8.53375e-08 3.06431e-07 1.94892e-05
0.00108506 1.81848e-05 -6.08054e-07
1.81848e-05 3.90349e-05 -1.55226e-06
-6.08054e-07 -1.55226e-06 -2.57827e-05
0.000522074 -1.70384e-06 -2.22174e-05
-1.70384e-06 -3.11266e-05 -7.5224e-06
-2.22174e-05 -7.5224e-06 -6.40754e-05
0.00274945 -1.47496e-05 -1.57809e-05
-1.47496e-05 0.000241678 -1.9856e-06
-1.57809e-05 -1.9856e-06 -5.22254e-05
0.00145381 -7.29483e-05 -1.80606e-05
-7.29483e-05 0.000618574 -7.80882e-06
-1.80606e-05 -7.80882e-06 0.000542133
0.00251315 -3.92432e-05 1.48383e-05
-3.92432e-05 -1.23657e-05 -5.14173e-06
1.48383e-05 -5.14173e-06 -0.000507611
0.00180226 5.78333e-05 8.46758e-06
5.78333e-05 0.000615373 2.33234e-05
8.46758e-06 2.33234e-05 0.000510104
0.000461951 3.30572e-05 -6.73109e-06
3.30572e-05 -0.000115003 -1.46509e-06
-6.73109e-06 -1.46509e-06 -0.000199511
0.0011229 1.20443e-05 1.46578e-05
1.20443e-05 -9.27609e-05 5.92532e-06
1.46578e-05 5.92532e-06 -0.000166663
0.000819958 4.13586e-05 5.70576e-07
4.13586e-05 -9.04052e-05 2.39798e-06
5.70576e-07 2.39798e-06 -0.000181317
0.00081929 3.10367e-05 -1.06079e-06
3.10367e-05 -1.59574e-05 6.19843e-08
-1.06079e-06 6.19843e-08 -9.40277e-05
0.0012055 5.78808e-05 -1.54422e-05
5.78808e-05 2.97122e-06 -1.47125e-05
-1.54422e-05 -1.47125e-05 -2.48431e-05
0.000587593 2.19719e-05 -6.17251e-05
2.19719e-05 -0.000260632 -5.83787e-06
-6.17251e-05 -5.83787e-06 -0.000400123
0.0051048 4.72506e-05 1.65241e-05
4.72506e-05 0.00149439 -3.06886e-06
1.65241e-05 -3.06886e-06 0.00130039
-0.00408935 -2.40993e-07 -5.39304e-05
-2.40993e-07 -0.0020349 3.7832e-07
-5.39304e-05 3.7832e-07 -0.00194404
0.00116931 -2.01993e-05 -7.43232e-06
-2.01993e-05 -0.000291508 6.43706e-06
-7.43232e-06 6.43706e-06 -0.000262634
0.000516607 -3.45264e-06 1.78144e-05
-3.45264e-06 3.40081e-05 -1.19855e-05
1.78144e-05 -1.19855e-05 -0.000109433
0.000702958 -8.18912e-06 7.38702e-06
-8.18912e-06 -0.000218788 8.266e-07
7.38702e-06 8.266e-07 -0.000426712
0.00191935 -1.65038e-05 -2.2735e-06
-1.65038e-05 -2.44254e-05 6.2596e-07
-2.2735e-06 6.2596e-07 3.07774e-05
0.00125226 3.22336e-05 3.223e-06
3.22336e-05 0.000190568 -1.41258e-06
3.223e-06 -1.41258e-06 8.55882e-05
0.00214863 1.73168e-05 6.85031e-06
1.73168e-05 0.000237892 -1.5199e-06
6.85031e-06 -1.5199e-06 0.000266658
0.000850159 3.47328e-05 2.99551e-06
3.47328e-05 1.07981e-05 -3.35732e-06
2.99551e-06 -3.35732e-06 -6.3061e-05
0.00103454 -3.91183e-05 2.86379e-06
-3.91183e-05 -0.000130985 1.12796e-06
2.86379e-06 1.12796e-06 -0.000158582
0.00137153 -1.68895e-05 3.31788e-06
-1.68895e-05 -1.16614e-05 9.89059e-07
3.31788e-06 9.89059e-07 -1.06715e-05
0.0012162 7.11785e-06 2.22455e-06
7.11785e-06 -4.18794e-05 3.0208e-06
2.22455e-06 3.0208e-06 -6.24194e-05
0.00106547 -1.97841e-05 1.04565e-06
-1.97841e-05 -0.000108571 3.71015e-06
1.04565e-06 3.71015e-06 -0.000131763
0.00132161 -9.23234e-06 2.80632e-07
-9.23234e-06 2.33181e-05 9.40743e-07
2.80632e-07 9.40743e-07 3.15067e-06
0.00132484 1.22965e-06 2.42496e-06
1.22965e-06 5.0406e-05 1.41768e-06
2.42496e-06 1.41768e-06 1.27786e-05
0.00128263 -1.50047e-05 -8.31073e-07
-1.50047e-05 3.23519e-05 2.28519e-06
-8.31073e-07 2.28519e-06 -4.70312e-06
0.00128528 -8.83063e-06 1.86903e-08
-8.83063e-06 4.45112e-05 4.05997e-07
1.86903e-08 4.05997e-07 4.54951e-06
0.00126888 -4.55877e-06 1.3916e-06
-4.55877e-06 4.61994e-05 5.24671e-07
1.3916e-06 5.24671e-07 -3.13647e-06
0.00130863 -1.42715e-05 -1.09721e-06
-1.42715e-05 6.94316e-05 1.09761e-06
-1.09721e-06 1.09761e-06 2.25041e-05
0.00124034 -1.15623e-05 -2.67621e-07
-1.15623e-05 4.55409e-05 -4.17852e-08
-2.67621e-07 -4.17852e-08 -3.57932e-06
0.0012302 -1.2421e-05 1.17442e-06
-1.2421e-05 4.83504e-05 1.67707e-07
1.17442e-06 1.67707e-07 -6.46411e-06
0.00120544 -1.44454e-05 -1.13839e-06
-1.44454e-05 3.49304e-05 5.77897e-07
-1.13839e-06 5.77897e-07 -1.47634e-05
0.00122783 -1.44906e-05 -2.06805e-07
-1.44906e-05 5.06242e-05 -2.07224e-07
-2.06805e-07 -2.07224e-07 -2.7057e-06
0.00126498 -1.5387e-05 5.2356e-07
-1.5387e-05 7.44364e-05 -4.01327e-07
5.2356e-07 -4.01327e-07 1.80173e-05
0.00126671 -1.694e-05 -2.15994e-07
-1.694e-05 7.20665e-05 8.56589e-07
-2.15994e-07 8.56589e-07 1.62953e-05
0.00124986 -1.67182e-05 6.10383e-08
-1.67182e-05 7.04396e-05 -1.79362e-07
6.10383e-08 -1.79362e-07 1.32142e-05
0.00123303 -1.54599e-05 -1.67875e-07
-1.54599e-05 7.20545e-05 -2.76824e-07
-1.67875e-07 -2.76824e-07 1.57976e-05
0.000962402 -8.93698e-06 -1.3316e-06
-8.93698e-06 -2.88786e-05 6.60634e-07
-1.3316e-06 6.60634e-07 -8.19824e-05
0.00113487 -1.65673e-05 -1.89482e-07
-1.65673e-05 3.66371e-05 1.19826e-07
-1.89482e-07 1.19826e-07 -2.15494e-05
0.00123535 -1.86616e-05 4.13702e-07
-1.86616e-05 7.48593e-05 1.10496e-07
4.13702e-07 1.10496e-07 1.34298e-05
0.000971205 9.08654e-06 -2.01805e-06
9.08654e-06 1.53897e-06 1.19865e-06
-2.01805e-06 1.19865e-06 -3.5462e-05
0.00107275 -6.58617e-06 1.48442e-08
-6.58617e-06 3.46964e-05 6.12811e-08
1.48442e-08 6.12811e-08 -1.63668e-05
0.00113094 -1.72112e-05 3.78471e-07
-1.72112e-05 5.06566e-05 -1.72098e-07
3.78471e-07 -1.72098e-07 -7.54827e-06
0.000856102 1.53164e-05 -3.59867e-06
1.53164e-05 -5.04494e-05 2.00756e-06
-3.59867e-06 2.00756e-06 -5.70741e-05
0.000984886 1.06039e-05 6.06074e-09
1.06039e-05 5.82389e-06 -2.64729e-08
6.06074e-09 -2.64729e-08 -2.77819e-05
0.00107919 -4.37413e-06 9.99484e-07
-4.37413e-06 4.09208e-05 -6.47016e-07
9.99484e-07 -6.47016e-07 -7.89712e-06
0.0024117 2.16445e-05 -7.20855e-06
2.16445e-05 0.00070279 2.86221e-06
-7.20855e-06 2.86221e-06 0.000720168
0.000903835 1.46403e-05 6.53603e-08
1.46403e-05 -3.36974e-05 2.59584e-08
6.53603e-08 2.59584e-08 -3.83739e-05
0.00100681 1.0723e-05 2.0518e-06
1.0723e-05 1.33774e-05 -1.16204e-06
2.0518e-06 -1.16204e-06 -1.77292e-05
0.00232956 1.99221e-05 1.14997e-07
1.99221e-05 0.000656907 5.28967e-08
1.14997e-07 5.28967e-08 0.000675693
0.00094107 1.37945e-05 3.27629e-06
1.37945e-05 -2.13865e-05 -2.19816e-06
3.27629e-06 -2.19816e-06 -2.44541e-05
0.00226868 1.81882e-05 6.73022e-06
1.81882e-05 0.000621734 -3.08139e-06
6.73022e-06 -3.08139e-06 0.000641747
0.00111623 9.30506e-06 -3.02273e-07
9.30506e-06 6.03554e-05 -6.31461e-08
-3.02273e-07 -6.31461e-08 3.73368e-06
0.00113753 6.12051e-06 2.68259e-08
6.12051e-06 6.82182e-05 4.28151e-08
2.68259e-08 4.28151e-08 1.29132e-05
0.00096024 -5.24474e-06 -1.07394e-06
-5.24474e-06 -1.31403e-05 -5.56543e-07
-1.07394e-06 -5.56543e-07 -6.2256e-05
0.00114254 2.19796e-06 4.50656e-07
2.19796e-06 6.88016e-05 9.40382e-08
4.50656e-07 9.40382e-08 1.4672e-05
0.000948923 -7.08407e-06 -1.69528e-07
-7.08407e-06 -2.20063e-05 -2.2967e-07
-1.69528e-07 -2.2967e-07 -6.95152e-05
0.00100768 -9.93846e-06 -1.96787e-06
-9.93846e-06 9.12149e-06 -1.1439e-06
-1.96787e-06 -1.1439e-06 -2.12145e-05
0.000940657 -6.64907e-06 1.03096e-06
-6.64907e-06 -3.03378e-05 6.6469e-07
1.03096e-06 6.6469e-07 -7.6455e-05
0.00100477 -8.50324e-06 -2.04636e-08
-8.50324e-06 2.62218e-06 1.49807e-08
-2.04636e-08 1.49807e-08 -2.60222e-05
0.000937969 -1.2498e-05 -3.06031e-06
-1.2498e-05 -2.88154e-05 -2.27682e-06
-3.06031e-06 -2.27682e-06 -3.12593e-05
0.0010031 -7.13003e-06 1.7307e-06
-7.13003e-06 -2.17511e-06 1.39261e-06
1.7307e-06 1.39261e-06 -2.97459e-05
0.000930567 -1.12177e-05 -5.59761e-08
-1.12177e-05 -3.72675e-05 3.03512e-08
-5.59761e-08 3.03512e-08 -3.86465e-05
0.00230711 -1.63821e-05 -6.51408e-06
-1.63821e-05 0.000634499 -3.22602e-06
-6.51408e-06 -3.22602e-06 0.000655125
0.00235956 -1.4606e-05 -1.37499e-07
-1.4606e-05 0.000654743 4.21672e-08
-1.37499e-07 4.21672e-08 0.000675944
0.000927833 -1.00157e-05 2.42087e-06
-1.00157e-05 -4.23439e-05 2.59726e-06
2.42087e-06 2.59726e-06 -4.30808e-05
0.00238434 -1.28471e-05 5.67551e-06
-1.28471e-05 0.000662211 3.53465e-06
5.67551e-06 3.53465e-06 0.000684007
0.000679335 -1.12931e-05 -2.8372e-05
-1.12931e-05 2.13079e-06 -6.96e-06
-2.8372e-05 -6.96e-06 -2.14896e-05
0.00126715 3.91873e-05 -1.30094e-05
3.91873e-05 -0.000487392 -4.59569e-06
-1.30094e-05 -4.59569e-06 -0.000696149
0.00228537 -4.91953e-05 -1.693e-05
-4.91953e-05 0.000943007 -4.47804e-06
-1.693e-05 -4.47804e-06 0.000938533
0.00119307 1.7757e-05 1.00684e-06
1.7757e-05 9.34568e-05 4.54083e-07
1.00684e-06 4.54083e-07 3.25013e-05
0.00117913 1.68035e-05 1.63562e-07
1.68035e-05 8.07334e-05 -4.16163e-07
1.63562e-07 -4.16163e-07 2.05039e-05
0.00116326 1.60113e-05 1.13831e-07
1.60113e-05 7.70943e-05 -3.0324e-07
1.13831e-07 -3.0324e-07 1.9053e-05
0.00113537 1.69566e-05 1.98825e-08
1.69566e-05 6.37506e-05 -1.80215e-08
1.98825e-08 -1.80215e-08 3.0357e-06
0.00113302 1.62885e-05 -1.49605e-07
1.62885e-05 6.87022e-05 -2.27249e-07
-1.49605e-07 -2.27249e-07 8.79329e-06
0.00102879 1.80154e-05 -4.80829e-08
1.80154e-05 1.99747e-05 5.21029e-07
-4.80829e-08 5.21029e-07 -4.05898e-05
0.00117277 1.7634e-05 3.92473e-07
1.7634e-05 8.17087e-05 -6.70802e-07
3.92473e-07 -6.70802e-07 1.88639e-05
0.00103053 1.91773e-05 -7.7399e-07
1.91773e-05 2.25421e-05 -1.42229e-06
-7.7399e-07 -1.42229e-06 -4.31813e-05
0.00110697 2.0399e-05 -1.11596e-07
2.0399e-05 5.27981e-05 1.9168e-09
-1.11596e-07 1.9168e-09 -1.08513e-05
0.0013696 2.46022e-05 8.9523e-08
2.46022e-05 0.000175363 1.1444e-07
8.9523e-08 1.1444e-07 0.000112679
0.0012579 2.85641e-05 1.33355e-06
2.85641e-05 9.66778e-05 -1.51116e-06
1.33355e-06 -1.51116e-06 2.47163e-05
0.00143907 3.30023e-05 -3.81143e-06
3.30023e-05 8.86199e-05 -1.81965e-06
-3.81143e-06 -1.81965e-06 -4.6072e-06
0.00123089 3.39678e-05 1.55706e-06
3.39678e-05 8.54928e-05 1.64244e-06
1.55706e-06 1.64244e-06 3.80722e-06
0.00103118 2.34353e-05 -1.40832e-06
2.34353e-05 1.92209e-05 5.85295e-07
-1.40832e-06 5.85295e-07 -4.60688e-05
0.00115901 -3.67363e-05 7.01386e-06
-3.67363e-05 -0.000255264 8.86223e-06
7.01386e-06 8.86223e-06 -0.000300441
0.000877427 9.00467e-06 1.83366e-06
9.00467e-06 -8.18856e-05 1.32199e-06
1.83366e-06 1.32199e-06 -0.000149862
0.000747844 -1.99762e-05 -3.57174e-05
-1.99762e-05 -0.000373609 -2.41866e-05
-3.57174e-05 -2.41866e-05 -0.000603589
0.00220376 5.91999e-05 1.14914e-05
5.91999e-05 0.00031155 2.38134e-05
1.14914e-05 2.38134e-05 0.000153217
0.00159427 1.69598e-05 5.40555e-06
1.69598e-05 7.34934e-05 1.12865e-06
5.40555e-06 1.12865e-06 -1.87523e-05
0.000311981 4.24931e-05 -9.32562e-07
4.24931e-05 -0.000346548 6.72064e-06
-9.32562e-07 6.72064e-06 -0.000434474
0.00139758 -9.04056e-06 7.84259e-06
-9.04056e-06 0.000393616 -6.32478e-06
7.84259e-06 -6.32478e-06 0.000352174
0.000318354 1.20097e-05 -1.14955e-05
1.20097e-05 1.03032e-05 -1.82494e-07
-1.14955e-05 -1.82494e-07 -5.68828e-05
0.00057959 8.52408e-05 2.91051e-05
8.52408e-05 -0.000835361 -4.29059e-06
2.91051e-05 -4.29059e-06 -0.000996811
0.00113758 -2.21297e-05 -1.38507e-06
-2.21297e-05 -0.000366464 1.51058e-06
-1.38507e-06 1.51058e-06 -0.000314483
0.00111908 2.51641e-05 2.42117e-05
2.51641e-05 -4.66865e-05 -8.61103e-06
2.42117e-05 -8.61103e-06 -0.000182514
0.00174576 9.28263e-06 2.5852e-06
9.28263e-06 5.43745e-05 8.12323e-07
2.5852e-06 8.12323e-07 7.02688e-05
0.0010329 3.70305e-05 1.30144e-06
3.70305e-05 9.70511e-05 -2.55255e-06
1.30144e-06 -2.55255e-06 2.43881e-05
0.001334 3.15295e-05 -8.24187e-07
3.15295e-05 2.94837e-05 3.01905e-06
-8.24187e-07 3.01905e-06 -2.84375e-05
0.000442541 2.51952e-05 -1.36393e-06
2.51952e-05 -0.000278116 -3.79109e-06
-1.36393e-06 -3.79109e-06 -0.000358783
0.00154545 -1.6258e-05 2.42001e-06
-1.6258e-05 7.99361e-05 9.08165e-07
2.42001e-06 9.08165e-07 8.21383e-05
0.0014074 6.89377e-06 -3.47219e-07
6.89377e-06 5.90734e-05 -5.87921e-07
-3.47219e-07 -5.87921e-07 3.60356e-05
0.00142555 1.7072e-05 8.78697e-07
1.7072e-05 0.000112496 1.14597e-06
8.78697e-07 1.14597e-06 6.06431e-05
0.00137436 -9.422e-06 -2.35073e-06
-9.422e-06 5.56334e-05 7.27419e-07
-2.35073e-06 7.27419e-07 3.31269e-05
0.00135485 1.2068e-06 -2.0418e-07
1.2068e-06 6.75331e-05 -2.61629e-07
-2.0418e-07 -2.61629e-07 2.92063e-05
0.00133559 5.66566e-06 1.69606e-06
5.66566e-06 6.88965e-05 1.11688e-06
1.69606e-06 1.11688e-06 1.64614e-05
0.00133941 -9.12322e-06 -2.32934e-06
-9.12322e-06 7.19936e-05 2.81877e-07
-2.32934e-06 2.81877e-07 3.11086e-05
0.00127611 -5.39317e-06 -5.83187e-07
-5.39317e-06 5.21246e-05 -3.0194e-07
-5.83187e-07 -3.0194e-07 2.92694e-06
0.00124932 -7.4243e-06 1.00577e-06
-7.4243e-06 4.76198e-05 7.12628e-07
1.00577e-06 7.12628e-07 -1.06259e-05
0.00125771 -1.2294e-05 -1.75819e-06
-1.2294e-05 5.5246e-05 -2.05629e-07
-1.75819e-06 -2.05629e-07 6.02302e-06
0.00123408 -1.21675e-05 3.21231e-08
-1.21675e-05 5.03205e-05 -1.39337e-07
3.21231e-08 -1.39337e-07 -4.47461e-06
0.00123243 -1.38902e-05 6.30164e-07
-1.38902e-05 5.58659e-05 9.74115e-08
6.30164e-07 9.74115e-08 -2.20433e-06
0.00118703 -1.41317e-05 -1.1059e-06
-1.41317e-05 3.05673e-05 3.58696e-07
-1.1059e-06 3.58696e-07 -2.21855e-05
0.00121322 -1.47692e-05 -1.32925e-08
-1.47692e-05 4.87687e-05 -1.7377e-07
-1.32925e-08 -1.7377e-07 -7.3007e-06
0.0011798 -1.4002e-05 -5.41691e-08
-1.4002e-05 4.16387e-05 -1.72214e-07
-5.41691e-08 -1.72214e-07 -1.50004e-05
0.00124634 -1.66623e-05 5.98524e-08
-1.66623e-05 6.85973e-05 4.15396e-07
5.98524e-08 4.15396e-07 1.12688e-05
0.00117548 -1.5112e-05 8.80467e-08
-1.5112e-05 4.42465e-05 -1.35157e-07
8.80467e-08 -1.35157e-07 -1.23134e-05
0.00111707 -9.98563e-06 -8.78713e-07
-9.98563e-06 3.50409e-05 2.5419e-07
-8.78713e-07 2.5419e-07 -1.81638e-05
0.000990151 4.43914e-06 -2.1502e-06
4.43914e-06 8.30434e-06 1.10648e-06
-2.1502e-06 1.10648e-06 -3.20126e-05
0.00103026 -8.69532e-06 -3.03977e-07
-8.69532e-06 4.67194e-06 2.60422e-07
-3.03977e-07 2.60422e-07 -4.8011e-05
0.00119147 -1.69197e-05 4.02588e-07
-1.69197e-05 6.52202e-05 -6.6859e-09
4.02588e-07 -6.6859e-09 7.2894e-06
0.000834231 1.58201e-05 -3.79088e-06
1.58201e-05 -5.47798e-05 1.95007e-06
-3.79088e-06 1.95007e-06 -6.40708e-05
0.000987804 7.50974e-06 8.00434e-08
7.50974e-06 8.40477e-06 -1.72501e-09
8.00434e-08 -1.72501e-09 -2.84961e-05
0.001078 -6.17655e-06 1.0256e-06
-6.17655e-06 3.68395e-05 -5.73408e-07
1.0256e-06 -5.73408e-07 -1.41555e-05
0.0024544 2.3247e-05 -7.48937e-06
2.3247e-05 0.000731161 2.72316e-06
-7.48937e-06 2.72316e-06 0.000746965
0.000890811 1.53352e-05 3.75589e-08
1.53352e-05 -3.40242e-05 7.35224e-09
3.75589e-08 7.35224e-09 -4.08171e-05
0.00100789 9.79932e-06 2.02984e-06
9.79932e-06 1.6208e-05 -1.15578e-06
2.02984e-06 -1.15578e-06 -1.7381e-05
0.00235684 2.1564e-05 1.221e-07
2.1564e-05 0.00067721 6.11239e-08
1.221e-07 6.11239e-08 0.000694608
0.000933053 1.46561e-05 3.53909e-06
1.46561e-05 -1.97745e-05 -2.06078e-06
3.53909e-06 -2.06078e-06 -2.45898e-05
0.00227813 1.98716e-05 7.00356e-06
1.98716e-05 0.000632831 -2.96872e-06
7.00356e-06 -2.96872e-06 0.000651662
0.00107371 1.34103e-05 -1.86431e-07
1.34103e-05 3.83621e-05 -9.33291e-08
-1.86431e-07 -9.33291e-08 -1.96408e-05
0.00109847 9.61708e-06 -5.67688e-08
9.61708e-06 5.18725e-05 -1.25399e-07
-5.67688e-08 -1.25399e-07 -4.69585e-06
0.00106742 -1.76299e-06 -8.47756e-07
-1.76299e-06 4.10855e-05 -2.89221e-07
-8.47756e-07 -2.89221e-07 -9.15171e-06
0.00121341 7.08876e-06 2.78074e-07
7.08876e-06 0.000104759 -1.72526e-07
2.78074e-07 -1.72526e-07 4.99607e-05
0.00100123 -5.4158e-06 -1.50595e-07
-5.4158e-06 7.5562e-06 -1.97118e-07
-1.50595e-07 -1.97118e-07 -4.13807e-05
0.00100081 -1.11658e-05 -1.98235e-06
-1.11658e-05 1.13504e-05 -1.03646e-06
-1.98235e-06 -1.03646e-06 -2.11379e-05
0.000937112 -7.04657e-06 8.34058e-07
-7.04657e-06 -2.68146e-05 2.80867e-07
8.34058e-07 2.80867e-07 -7.45543e-05
0.000996338 -9.8091e-06 -2.47611e-08
-9.8091e-06 3.72536e-06 2.38876e-08
-2.47611e-08 2.38876e-08 -2.65774e-05
0.000932318 -1.37075e-05 -3.26013e-06
-1.37075e-05 -2.57383e-05 -2.13024e-06
-3.26013e-06 -2.13024e-06 -2.9673e-05
0.000995114 -8.40979e-06 1.85647e-06
-8.40979e-06 -2.02405e-06 1.29838e-06
1.85647e-06 1.29838e-06 -3.06285e-05
0.000921794 -1.24719e-05 -4.06901e-08
-1.24719e-05 -3.67787e-05 2.27633e-08
-4.06901e-08 2.27633e-08 -3.91093e-05
0.00229828 -1.81414e-05 -6.73889e-06
-1.81414e-05 0.000636032 -3.08982e-06
-6.73889e-06 -3.08982e-06 0.000655733
0.000918575 -1.1193e-05 2.70544e-06
-1.1193e-05 -4.3224e-05 2.47409e-06
2.70544e-06 2.47409e-06 -4.45162e-05
0.00235729 -1.63738e-05 -1.24735e-07
-1.63738e-05 0.000658262 4.70746e-08
-1.24735e-07 4.70746e-08 0.000678758
0.00239962 -1.45957e-05 6.15463e-06
-1.45957e-05 0.000673746 3.4262e-06
6.15463e-06 3.4262e-06 0.000694832
0.000889581 -5.6896e-05 8.96682e-06
-5.6896e-05 -0.000236522 1.08121e-07
8.96682e-06 1.08121e-07 -0.000239529
0.00124864 4.87922e-06 -6.12972e-06
4.87922e-06 -2.93431e-05 3.06476e-06
-6.12972e-06 3.06476e-06 -0.000116569
0.00376441 3.675e-05 -4.73297e-05
3.675e-05 0.000780155 -1.84562e-05
-4.73297e-05 -1.84562e-05 0.000570491
0.00101676 1.77439e-05 7.65398e-07
1.77439e-05 9.51057e-06 5.25034e-07
7.65398e-07 5.25034e-07 -5.14005e-05
0.00126927 2.06119e-05 8.4935e-07
2.06119e-05 0.000111624 -2.5015e-07
8.4935e-07 -2.5015e-07 4.83096e-05
0.00105884 1.73592e-05 1.99644e-07
1.73592e-05 3.29553e-05 3.07187e-08
1.99644e-07 3.07187e-08 -2.81742e-05
0.00117533 1.72535e-05 1.40654e-08
1.72535e-05 8.24716e-05 -6.13929e-07
1.40654e-08 -6.13929e-07 2.1672e-05
0.00110751 1.65543e-05 -3.1604e-07
1.65543e-05 5.73437e-05 -4.33369e-07
-3.1604e-07 -4.33369e-07 -2.73215e-06
0.00110601 1.8703e-05 6.88936e-08
1.8703e-05 5.5227e-05 1.38358e-07
6.88936e-08 1.38358e-07 -5.60104e-06
0.00120524 2.52759e-05 2.79606e-07
2.52759e-05 6.55955e-05 -7.2466e-07
2.79606e-07 -7.2466e-07 -3.88143e-06
0.001292 2.15628e-05 6.5053e-08
2.15628e-05 0.000139493 -3.6365e-07
6.5053e-08 -3.6365e-07 7.60424e-05
0.00109284 2.26921e-05 -2.72771e-06
2.26921e-05 5.5898e-05 -8.37875e-07
-2.72771e-06 -8.37875e-07 -5.22737e-06
0.00115249 2.80094e-05 1.03412e-08
2.80094e-05 4.63997e-05 -4.35735e-08
1.03412e-08 -4.35735e-08 -2.60421e-05
0.00116667 2.72027e-05 9.79675e-07
2.72027e-05 -2.40854e-05 -1.61763e-06
9.79675e-07 -1.61763e-06 -0.000109099
0.00148201 -2.04244e-06 -2.03199e-06
-2.04244e-06 7.18001e-05 4.38152e-06
-2.03199e-06 4.38152e-06 1.27185e-05
0.00151248 3.1869e-05 -1.64643e-06
3.1869e-05 0.0001221 3.4118e-07
-1.64643e-06 3.4118e-07 3.07852e-05
0.00109811 3.25706e-05 -6.8241e-07
3.25706e-05 2.94078e-05 4.10874e-06
-6.8241e-07 4.10874e-06 -5.0322e-05
0.00176346 -3.3259e-05 1.10159e-06
-3.3259e-05 2.90698e-05 6.72875e-07
1.10159e-06 6.72875e-07 -1.68796e-05
0.00123999 3.1011e-06 5.26018e-05
3.1011e-06 -5.29412e-05 1.31348e-05
5.26018e-05 1.31348e-05 -0.000157035
0.00214222 2.18841e-05 -5.70486e-06
2.18841e-05 0.000279479 1.12683e-07
-5.70486e-06 1.12683e-07 0.000168647
0.00116241 -4.34252e-06 1.95848e-07
-4.34252e-06 9.9866e-05 -3.48288e-06
1.95848e-07 -3.48288e-06 5.75197e-05
0.000773622 -1.46258e-05 3.41396e-06
-1.46258e-05 8.23217e-05 -1.32842e-06
3.41396e-06 -1.32842e-06 4.80626e-05
0.00115894 3.05257e-05 2.59631e-05
3.05257e-05 -1.49889e-05 5.2673e-06
2.59631e-05 5.2673e-06 -0.000102159
0.00152817 7.47114e-07 2.80467e-06
7.47114e-07 -3.93132e-05 -3.41236e-06
2.80467e-06 -3.41236e-06 -3.90688e-05
0.00112491 3.85264e-05 -4.09827e-06
3.85264e-05 0.000144644 -1.12524e-06
-4.09827e-06 -1.12524e-06 7.40386e-05
0.00153067 3.19985e-05 -1.7002e-06
3.19985e-05 0.000124593 6.81563e-07
-1.7002e-06 6.81563e-07 6.85554e-05
0.00101053 2.81486e-05 4.29734e-07
2.81486e-05 -6.84923e-06 9.80636e-07
4.29734e-07 9.80636e-07 -8.42058e-05
0.00121278 2.62537e-05 -1.34786e-06
2.62537e-05 4.82608e-05 -4.61619e-07
-1.34786e-06 -4.61619e-07 -2.30516e-05
0.00135162 2.39093e-05 -6.98195e-07
2.39093e-05 0.000189331 -1.83665e-06
-6.98195e-07 -1.83665e-06 0.000130699
0.00161656 6.62128e-06 -4.657e-06
6.62128e-06 0.000168692 -2.27956e-06
-4.657e-06 -2.27956e-06 0.00014276
0.00135299 1.63462e-05 -2.23876e-07
1.63462e-05 7.73457e-05 -9.88042e-07
-2.23876e-07 -9.88042e-07 2.64199e-05
0.00142123 1.99689e-05 3.33181e-07
1.99689e-05 0.000118904 7.88137e-07
3.33181e-07 7.88137e-07 5.65064e-05
0.00138324 1.15487e-06 -3.38789e-06
1.15487e-06 8.38028e-05 -1.05685e-06
-3.38789e-06 -1.05685e-06 4.47945e-05
0.00132433 5.61742e-06 -1.74235e-07
5.61742e-06 6.56645e-05 -2.45591e-07
-1.74235e-07 -2.45591e-07 1.28081e-05
0.00120507 4.32801e-06 7.98023e-07
4.32801e-06 1.72628e-05 9.97074e-07
7.98023e-07 9.97074e-07 -4.40452e-05
0.00128477 -6.15084e-06 -2.50609e-06
-6.15084e-06 5.86758e-05 -8.14618e-07
-2.50609e-06 -8.14618e-07 9.62108e-06
0.00125599 -6.94195e-06 7.06207e-08
-6.94195e-06 5.09238e-05 -1.01089e-07
7.06207e-08 -1.01089e-07 -7.296e-06
0.00124497 -9.99592e-06 5.33018e-07
-9.99592e-06 5.38461e-05 5.17149e-07
5.33018e-07 5.17149e-07 -7.47518e-06
0.00123905 -1.18756e-05 -1.14631e-06
-1.18756e-05 5.27826e-05 -4.48604e-07
-1.14631e-06 -4.48604e-07 -1.99168e-06
0.00123059 -1.358e-05 6.81691e-09
-1.358e-05 5.46681e-05 -1.00832e-07
6.81691e-09 -1.00832e-07 -3.3662e-06
0.00120979 -1.36277e-05 7.93559e-08
-1.36277e-05 5.32742e-05 8.45967e-08
7.93559e-08 8.45967e-08 -5.05036e-06
0.00116125 -1.42138e-05 -5.05766e-07
-1.42138e-05 2.29996e-05 1.52129e-07
-5.05766e-07 1.52129e-07 -3.27208e-05
0.00115413 -1.37429e-05 -7.63092e-08
-1.37429e-05 2.90548e-05 -6.64061e-08
-7.63092e-08 -6.64061e-08 -2.75118e-05
0.00114518 -9.72399e-06 -7.33523e-07
-9.72399e-06 4.26469e-05 1.31935e-07
-7.33523e-07 1.31935e-07 -1.13496e-05
0.00111649 -1.47749e-05 4.76938e-07
-1.47749e-05 1.58034e-05 5.46134e-08
4.76938e-07 5.46134e-08 -4.10631e-05
0.00104735 -9.07495e-06 -4.79354e-08
-9.07495e-06 2.13075e-06 3.82314e-08
-4.79354e-08 3.82314e-08 -5.12135e-05
0.00100263 2.09456e-06 -2.24373e-06
2.09456e-06 1.03641e-05 8.86604e-07
-2.24373e-06 8.86604e-07 -3.26823e-05
0.000867137 1.6298e-05 -4.05143e-06
1.6298e-05 -3.4228e-05 1.89183e-06
-4.05143e-06 1.89183e-06 -4.64142e-05
0.000994399 3.4775e-06 7.29689e-08
3.4775e-06 9.12439e-06 4.59471e-08
7.29689e-08 4.59471e-08 -3.10301e-05
0.00109863 -8.48342e-06 7.432e-07
-8.48342e-06 3.84464e-05 -1.97208e-07
7.432e-07 -1.97208e-07 -1.38155e-05
0.00251752 2.47977e-05 -7.74726e-06
2.47977e-05 0.000769793 2.58362e-06
-7.74726e-06 2.58362e-06 0.0007838
0.000874696 1.58356e-05 5.5583e-08
1.58356e-05 -3.56377e-05 -2.72359e-09
5.5583e-08 -2.72359e-09 -4.51366e-05
0.00100533 6.32968e-06 2.11618e-06
6.32968e-06 1.5734e-05 -1.10735e-06
2.11618e-06 -1.10735e-06 -2.10753e-05
0.00239886 2.31443e-05 1.09869e-07
2.31443e-05 0.000705309 6.26311e-08
1.09869e-07 6.26311e-08 0.000721105
0.000925125 1.53478e-05 3.7506e-06
1.53478e-05 -1.77723e-05 -1.97785e-06
3.7506e-06 -1.97785e-06 -2.47346e-05
0.00230242 2.14884e-05 7.27935e-06
2.14884e-05 0.00065183 -2.82983e-06
7.27935e-06 -2.82983e-06 0.00066925
0.000968627 1.59645e-05 -1.46041e-07
1.59645e-05 -1.9153e-05 -2.91726e-07
-1.46041e-07 -2.91726e-07 -7.99086e-05
0.00100721 1.34722e-05 -2.58789e-08
1.34722e-05 6.24622e-06 -5.48178e-08
-2.58789e-08 -5.48178e-08 -5.2105e-05
0.00108602 1.97144e-06 -8.62427e-07
1.97144e-06 4.81437e-05 -2.25377e-07
-8.62427e-07 -2.25377e-07 -3.71248e-06
0.00108117 9.87013e-06 6.27121e-08
9.87013e-06 4.35788e-05 -2.82217e-07
6.27121e-08 -2.82217e-07 -1.29335e-05
0.00105155 -2.99445e-06 1.48141e-08
-2.99445e-06 3.44298e-05 1.39963e-08
1.48141e-08 1.39963e-08 -1.59198e-05
0.000998442 -1.21607e-05 -1.98407e-06
-1.21607e-05 1.49163e-05 -9.31011e-07
-1.98407e-06 -9.31011e-07 -2.00616e-05
0.00104151 -5.60761e-06 8.06159e-07
-5.60761e-06 2.79246e-05 1.88588e-07
8.06159e-07 1.88588e-07 -2.08326e-05
0.000985956 -1.09929e-05 -9.62999e-09
-1.09929e-05 4.35821e-06 1.37349e-08
-9.62999e-09 1.37349e-08 -2.81025e-05
0.000924198 -1.4776e-05 -3.45285e-06
-1.4776e-05 -2.29537e-05 -1.98625e-06
-3.45285e-06 -1.98625e-06 -2.88432e-05
0.000985018 -9.68172e-06 1.94492e-06
-9.68172e-06 -1.6626e-06 1.20687e-06
1.94492e-06 1.20687e-06 -3.19316e-05
0.00091067 -1.36785e-05 -4.6584e-08
-1.36785e-05 -3.62303e-05 2.12361e-08
-4.6584e-08 2.12361e-08 -4.00358e-05
0.00230059 -1.98532e-05 -6.96934e-06
-1.98532e-05 0.00064429 -2.95462e-06
-6.96934e-06 -2.95462e-06 0.00066274
0.000905501 -1.24451e-05 2.94194e-06
-1.24451e-05 -4.4802e-05 2.34112e-06
2.94194e-06 2.34112e-06 -4.70186e-05
0.00235529 -1.81562e-05 -1.14435e-07
-1.81562e-05 0.000662847 5.05901e-08
-1.14435e-07 5.05901e-08 0.000682448
0.00240759 -1.63679e-05 6.51518e-06
-1.63679e-05 0.000682083 3.29222e-06
6.51518e-06 3.29222e-06 0.000702449
0.0013538 -2.65379e-05 1.18662e-06
-2.65379e-05 7.96154e-05 3.81879e-07
1.18662e-06 3.81879e-07 5.26329e-05
0.00123654 -5.41838e-05 1.75647e-07
-5.41838e-05 2.03368e-06 -3.83278e-06
1.75647e-07 -3.83278e-06 -1.00161e-06
-0.000189676 -8.30684e-07 2.25942e-05
-8.30684e-07 -0.000187009 7.09429e-06
2.25942e-05 7.09429e-06 -0.000201013
0.00142343 2.25243e-05 1.02655e-06
2.25243e-05 0.000165516 -5.2289e-07
1.02655e-06 -5.2289e-07 0.000100592
0.00103737 1.82427e-05 -1.75129e-07
1.82427e-05 2.27237e-05 1.47222e-07
-1.75129e-07 1.47222e-07 -3.73639e-05
0.000903076 1.99242e-05 -3.63279e-07
1.99242e-05 -8.31443e-05 -1.73427e-07
-3.63279e-07 -1.73427e-07 -0.000152031
0.00123007 2.04009e-05 3.8178e-08
2.04009e-05 9.31953e-05 2.44067e-08
3.8178e-08 2.44067e-08 2.96012e-05
0.000927771 1.69685e-05 -4.93904e-07
1.69685e-05 -2.58931e-05 1.954e-07
-4.93904e-07 1.954e-07 -8.72193e-05
0.00139742 2.61233e-05 -1.27175e-07
2.61233e-05 9.47882e-05 -2.70936e-06
-1.27175e-07 -2.70936e-06 1.73625e-05
0.00118651 1.93908e-05 -4.00584e-07
1.93908e-05 9.20412e-05 -4.7958e-07
-4.00584e-07 -4.7958e-07 3.09452e-05
0.00119173 2.49504e-05 3.10032e-08
2.49504e-05 5.82428e-05 6.72988e-07
3.10032e-08 6.72988e-07 -1.07241e-05
0.00125409 -1.57319e-06 1.10916e-06
-1.57319e-06 -3.53413e-05 3.50114e-06
1.10916e-06 3.50114e-06 -0.000103888
0.0010359 2.73147e-05 -5.81209e-07
2.73147e-05 -8.9988e-06 1.27339e-06
-5.81209e-07 1.27339e-06 -8.19269e-05
0.00134979 2.86138e-05 -8.66333e-08
2.86138e-05 5.07784e-05 -6.12953e-07
-8.66333e-08 -6.12953e-07 -3.62384e-05
0.00146334 -2.64462e-06 -7.01388e-09
-2.64462e-06 5.55885e-05 1.34535e-06
-7.01388e-09 1.34535e-06 -4.16337e-06
0.00156245 3.04436e-05 -3.87548e-07
3.04436e-05 0.000144675 1.7066e-06
-3.87548e-07 1.7066e-06 5.52558e-05
0.00231706 -2.99468e-05 -1.01018e-05
-2.99468e-05 0.000289302 -8.54392e-06
-1.01018e-05 -8.54392e-06 0.000242459
0.00131117 -9.4964e-06 1.65202e-07
-9.4964e-06 0.000155761 -1.91161e-06
1.65202e-07 -1.91161e-06 0.000115214
0.000806917 -3.41452e-06 5.94015e-07
-3.41452e-06 -6.08984e-05 7.9817e-07
5.94015e-07 7.9817e-07 -0.000103278
0.000132553 -1.94531e-05 -2.28586e-06
-1.94531e-05 -0.000235233 2.31553e-06
-2.28586e-06 2.31553e-06 -0.000263218
0.00160683 3.21571e-05 -3.7291e-06
3.21571e-05 0.000160851 -5.17672e-06
-3.7291e-06 -5.17672e-06 0.000107131
0.00154983 3.08707e-05 4.565e-06
3.08707e-05 0.0002517 4.79721e-06
4.565e-06 4.79721e-06 0.000177658
0.00130852 2.71496e-05 -8.60014e-07
2.71496e-05 8.39005e-05 -9.0047e-07
-8.60014e-07 -9.0047e-07 1.2494e-05
0.00135341 2.35602e-05 4.96624e-07
2.35602e-05 0.00017775 2.38996e-06
4.96624e-07 2.38996e-06 0.000120063
0.00121998 2.29668e-05 -1.42524e-06
2.29668e-05 8.68391e-05 -2.56348e-06
-1.42524e-06 -2.56348e-06 2.90476e-05
0.00129042 1.56586e-05 -1.58617e-06
1.56586e-05 4.73639e-05 -2.31894e-06
-1.58617e-06 -2.31894e-06 -2.7219e-06
0.00134436 1.90206e-05 4.61943e-09
1.90206e-05 8.11865e-05 -3.65262e-07
4.61943e-09 -3.65262e-07 1.98697e-05
0.00135794 1.90261e-05 -6.88415e-07
1.90261e-05 9.84275e-05 -4.69381e-07
-6.88415e-07 -4.69381e-07 3.49753e-05
0.00131255 5.47907e-06 -2.00792e-06
5.47907e-06 6.21017e-05 -1.11487e-06
-2.00792e-06 -1.11487e-06 8.83368e-06
0.00126523 5.01533e-06 2.06858e-07
5.01533e-06 4.585e-05 1.17233e-07
2.06858e-07 1.17233e-07 -1.60247e-05
0.0012851 3.91205e-06 2.23322e-07
3.91205e-06 6.43594e-05 5.77469e-07
2.23322e-07 5.77469e-07 4.67283e-07
0.00126254 -6.39971e-06 -1.15473e-06
-6.39971e-06 5.41754e-05 -9.06162e-07
-1.15473e-06 -9.06162e-07 -4.01889e-06
0.00125138 -9.50984e-06 5.14132e-08
-9.50984e-06 5.6329e-05 -7.4245e-08
5.14132e-08 -7.4245e-08 -5.00191e-06
0.00121899 -1.12475e-05 3.46859e-08
-1.12475e-05 5.11818e-05 3.62879e-07
3.46859e-08 3.62879e-07 -9.78191e-06
0.00122947 -1.33062e-05 -5.99108e-07
-1.33062e-05 5.37993e-05 -2.97831e-07
-5.99108e-07 -2.97831e-07 -4.19904e-06
0.00120729 -1.34631e-05 -1.62139e-08
-1.34631e-05 5.18572e-05 -6.06432e-08
-1.62139e-08 -6.06432e-08 -6.44531e-06
0.00115347 -9.59747e-06 -5.60596e-07
-9.59747e-06 4.25176e-05 1.74322e-07
-5.60596e-07 1.74322e-07 -1.32639e-05
0.00113031 -1.34504e-05 2.39049e-08
-1.34504e-05 1.72991e-05 2.91777e-08
2.39049e-08 2.91777e-08 -3.91909e-05
0.0011326 -9.17127e-06 -4.09863e-08
-9.17127e-06 3.68628e-05 4.19176e-09
-4.09863e-08 4.19176e-09 -1.70803e-05
0.0010088 1.64504e-06 -2.17872e-06
1.64504e-06 1.08963e-05 6.90603e-07
-2.17872e-06 6.90603e-07 -3.46213e-05
0.000977603 -8.12529e-06 8.3509e-07
-8.12529e-06 -3.0794e-05 -1.63982e-07
8.3509e-07 -1.63982e-07 -8.42761e-05
0.000999009 1.69098e-06 1.9603e-08
1.69098e-06 7.49128e-06 5.52863e-08
1.9603e-08 5.52863e-08 -3.53718e-05
0.0015758 1.91903e-05 -3.43243e-06
1.91903e-05 0.000315107 9.57689e-07
-3.43243e-06 9.57689e-07 0.000303395
0.00121743 2.13274e-05 -9.92693e-06
2.13274e-05 0.000145035 3.97637e-06
-9.92693e-06 3.97637e-06 0.000149992
0.00123913 1.74465e-05 -1.24374e-07
1.74465e-05 0.000146631 7.92302e-08
-1.24374e-07 7.92302e-08 0.000135842
0.000999096 2.51979e-06 2.21299e-06
2.51979e-06 1.01602e-05 -9.32885e-07
2.21299e-06 -9.32885e-07 -2.98312e-05
0.00246661 2.46601e-05 1.07272e-07
2.46601e-05 0.000746067 6.82125e-08
1.07272e-07 6.82125e-08 0.000760015
0.000915214 1.58488e-05 3.95721e-06
1.58488e-05 -1.64624e-05 -1.92037e-06
3.95721e-06 -1.92037e-06 -2.61704e-05
0.0023432 2.30322e-05 7.5775e-06
2.30322e-05 0.000679383 -2.70278e-06
7.5775e-06 -2.70278e-06 0.000695172
0.00112223 2.03193e-05 3.31859e-07
2.03193e-05 8.8754e-06 4.14214e-09
3.31859e-07 4.14214e-09 -5.79152e-05
0.000960932 1.75781e-05 2.84434e-07
1.75781e-05 -3.1813e-05 -1.8028e-07
2.84434e-07 -1.8028e-07 -9.57928e-05
0.000989427 1.64075e-05 -2.80453e-08
1.64075e-05 -1.13315e-05 -2.82802e-08
-2.80453e-08 -2.82802e-08 -7.23828e-05
0.00109793 5.66237e-06 -7.99341e-07
5.66237e-06 5.05436e-05 -3.03288e-07
-7.99341e-07 -3.03288e-07 -2.94025e-06
0.000939535 1.35163e-05 2.97394e-08
1.35163e-05 -2.64478e-05 5.1393e-08
2.97394e-08 5.1393e-08 -8.51426e-05
0.00106136 9.94505e-07 -8.74976e-09
9.94505e-07 3.73608e-05 4.28973e-08
-8.74976e-09 4.28973e-08 -1.45503e-05
0.00100035 -1.15015e-05 -2.02465e-06
-1.15015e-05 1.86975e-05 -8.05114e-07
-2.02465e-06 -8.05114e-07 -1.88424e-05
0.00103601 -4.21698e-06 8.63654e-07
-4.21698e-06 2.79346e-05 3.23856e-07
8.63654e-07 3.23856e-07 -2.25276e-05
0.000977505 -1.19558e-05 -2.54946e-08
-1.19558e-05 5.23558e-06 6.99226e-09
-2.54946e-08 6.99226e-09 -2.97279e-05
0.000914256 -1.56564e-05 -3.67899e-06
-1.56564e-05 -2.03576e-05 -1.83645e-06
-3.67899e-06 -1.83645e-06 -2.85251e-05
0.000971121 -1.08212e-05 2.0152e-06
-1.08212e-05 -2.62582e-06 1.08987e-06
2.0152e-06 1.08987e-06 -3.50587e-05
0.000897116 -1.47382e-05 -4.32645e-08
-1.47382e-05 -3.58728e-05 1.69694e-08
-4.32645e-08 1.69694e-08 -4.16295e-05
0.00231569 -2.14698e-05 -7.22894e-06
-2.14698e-05 0.000660122 -2.81909e-06
-7.22894e-06 -2.81909e-06 0.000677003
0.000888924 -1.36488e-05 3.13793e-06
-1.36488e-05 -4.67705e-05 2.21094e-06
3.13793e-06 2.21094e-06 -5.04461e-05
0.00236099 -1.99021e-05 -1.15128e-07
-1.99021e-05 0.000672444 5.57586e-08
-1.15128e-07 5.57586e-08 0.000690852
0.0024125 -1.81663e-05 6.77007e-06
-1.81663e-05 0.000689764 3.14352e-06
6.77007e-06 3.14352e-06 0.000709266
0.00141755 -2.93772e-05 1.70936e-06
-2.93772e-05 9.8482e-05 1.62311e-06
1.70936e-06 1.62311e-06 5.39608e-05
0.0014448 -2.72771e-05 1.47959e-06
-2.72771e-05 0.000112686 -1.81591e-06
1.47959e-06 -1.81591e-06 8.37818e-05
0.0017348 -5.17866e-05 -9.01876e-06
-5.17866e-05 0.000308985 -7.29997e-06
-9.01876e-06 -7.29997e-06 0.000305776
0.00134941 2.276e-05 -1.04518e-07
2.276e-05 8.3448e-05 -1.32436e-06
-1.04518e-07 -1.32436e-06 1.16181e-05
0.00132476 2.17902e-05 -1.81909e-08
2.17902e-05 0.000126351 1.99848e-07
-1.81909e-08 1.99848e-07 6.25679e-05
0.00103871 1.86496e-05 -1.34144e-06
1.86496e-05 2.6895e-05 -3.16846e-07
-1.34144e-06 -3.16846e-07 -3.23529e-05
0.00118795 2.13824e-05 1.45122e-07
2.13824e-05 4.73114e-05 3.4594e-07
1.45122e-07 3.4594e-07 -2.05541e-05
0.00118747 2.01733e-05 -8.49942e-07
2.01733e-05 7.30455e-05 3.97453e-07
-8.49942e-07 3.97453e-07 9.18936e-06
0.00129642 2.20267e-06 -5.89134e-09
2.20267e-06 8.35167e-06 9.48003e-07
-5.89134e-09 9.48003e-07 -6.60683e-05
0.00139704 2.63237e-05 -5.40845e-07
2.63237e-05 9.59119e-05 -9.8371e-07
-5.40845e-07 -9.8371e-07 1.77624e-05
0.00116876 2.46047e-05 -2.87536e-07
2.46047e-05 4.66684e-05 2.0795e-06
-2.87536e-07 2.0795e-06 -2.18061e-05
0.00143681 -1.40499e-06 4.74167e-08
-1.40499e-06 4.44832e-05 1.20351e-06
4.74167e-08 1.20351e-06 -2.44466e-05
0.00151962 2.99858e-05 -1.10279e-06
2.99858e-05 0.000119424 7.56248e-07
-1.10279e-06 7.56248e-07 3.04239e-05
0.00145331 -2.97085e-06 3.11905e-06
-2.97085e-06 4.35107e-05 -1.39502e-06
3.11905e-06 -1.39502e-06 -1.69263e-05
0.000681143 -2.45316e-06 -2.68105e-08
-2.45316e-06 -0.000124154 -3.98067e-07
-2.68105e-08 -3.98067e-07 -0.000169543
0.00116507 -7.58482e-06 -8.56053e-07
-7.58482e-06 9.62172e-05 -4.82527e-07
-8.56053e-07 -4.82527e-07 5.42925e-05
0.000439669 -2.37767e-06 2.34459e-06
-2.37767e-06 -0.00022706 4.67348e-06
2.34459e-06 4.67348e-06 -0.000269493
0.00141784 2.80926e-05 1.68747e-06
2.80926e-05 0.000125707 -1.53425e-06
1.68747e-06 -1.53425e-06 5.42541e-05
0.00129752 2.28379e-05 2.93195e-06
2.28379e-05 0.000140137 5.85507e-06
2.93195e-06 5.85507e-06 8.33012e-05
0.00123628 2.29894e-05 -7.31866e-07
2.29894e-05 9.09514e-05 -2.88373e-07
-7.31866e-07 -2.88373e-07 3.30294e-05
0.00115245 1.89876e-05 6.75237e-08
1.89876e-05 5.07954e-05 -1.35257e-06
6.75237e-08 -1.35257e-06 -6.88834e-06
0.00125225 1.79676e-05 -5.50041e-07
1.79676e-05 3.60683e-05 -6.88113e-07
-5.50041e-07 -6.88113e-07 -2.41227e-05
0.00135866 1.85411e-05 -2.55631e-07
1.85411e-05 9.28944e-05 -1.49723e-07
-2.55631e-07 -1.49723e-07 2.93113e-05
0.00127617 1.63468e-05 -6.38316e-07
1.63468e-05 6.26342e-05 -1.50045e-06
-6.38316e-07 -1.50045e-06 1.44487e-06
0.00133003 5.63532e-06 -8.70381e-07
5.63532e-06 7.65038e-05 -4.82874e-07
-8.70381e-07 -4.82874e-07 1.40727e-05
0.00127735 3.71847e-06 2.04646e-08
3.71847e-06 6.07091e-05 3.71403e-07
2.04646e-08 3.71403e-07 -3.25637e-06
0.00124625 -6.9763e-07 -1.6711e-07
-6.9763e-07 5.71524e-05 4.18123e-07
-1.6711e-07 4.18123e-07 -6.32506e-06
0.00125681 -8.93746e-06 -4.1784e-07
-8.93746e-06 5.83617e-05 -6.63342e-07
-4.1784e-07 -6.63342e-07 -2.97848e-06
0.00122493 -1.10988e-05 2.61406e-08
-1.10988e-05 5.35322e-05 -1.45904e-08
2.61406e-08 -1.45904e-08 -7.45024e-06
0.00116614 -8.77531e-06 -5.64518e-07
-8.77531e-06 4.3128e-05 3.12704e-07
-5.64518e-07 3.12704e-07 -1.49478e-05
0.00120517 -1.33333e-05 -6.85652e-08
-1.33333e-05 5.06164e-05 -2.16651e-07
-6.85652e-08 -2.16651e-07 -7.66444e-06
0.00114665 -9.25774e-06 -1.57913e-08
-9.25774e-06 3.92172e-05 -2.47886e-08
-1.57913e-08 -2.47886e-08 -1.65452e-05
0.00101173 1.3812e-06 -2.025e-06
1.3812e-06 1.07821e-05 5.85442e-07
-2.025e-06 5.85442e-07 -3.73217e-05
0.00111931 -8.63899e-06 6.4824e-07
-8.63899e-06 3.07482e-05 -1.19352e-07
6.4824e-07 -1.19352e-07 -2.31413e-05
0.00100315 1.37735e-06 -2.3517e-08
1.37735e-06 7.12778e-06 4.74112e-08
-2.3517e-08 4.74112e-08 -3.82151e-05
0.00159537 1.99472e-05 -3.51995e-06
1.99472e-05 0.000330925 8.2413e-07
-3.51995e-06 8.2413e-07 0.00031616
0.000995657 1.2303e-06 2.21665e-06
1.2303e-06 4.74502e-06 -7.26487e-07
2.21665e-06 -7.26487e-07 -3.79349e-05
0.00158207 1.8919e-05 1.95176e-06
1.8919e-05 0.000318644 -7.37105e-07
1.95176e-06 -7.37105e-07 0.000306517
0.00119674 2.20714e-05 -1.06685e-05
2.20714e-05 0.000143762 3.79965e-06
-1.06685e-05 3.79965e-06 0.000145962
0.00187549 2.3769e-05 -5.09114e-06
2.3769e-05 0.000465313 1.60841e-06
-5.09114e-06 1.60841e-06 0.000473855
0.00161326 1.82784e-05 5.7093e-06
1.82784e-05 0.000328439 -1.76121e-06
5.7093e-06 -1.76121e-06 0.000319059
0.00241542 2.4509e-05 7.98741e-06
2.4509e-05 0.000722194 -2.60201e-06
7.98741e-06 -2.60201e-06 0.000736085
0.00127913 2.0149e-05 -1.96418e-07
2.0149e-05 4.98322e-05 -1.18014e-06
-1.96418e-07 -1.18014e-06 -2.05421e-05
0.00129932 1.9843e-05 7.83192e-07
1.9843e-05 0.000112867 -1.02016e-07
7.83192e-07 -1.02016e-07 4.92801e-05
0.00115538 2.05947e-05 4.83095e-07
2.05947e-05 2.78343e-05 4.97501e-07
4.83095e-07 4.97501e-07 -3.70509e-05
0.00109812 1.01404e-05 -6.07448e-07
1.01404e-05 4.63449e-05 -6.09807e-07
-6.07448e-07 -6.09807e-07 -1.00575e-05
0.00109645 1.86898e-05 -1.18356e-07
1.86898e-05 3.10403e-05 2.96478e-08
-1.18356e-07 2.96478e-08 -3.28245e-05
0.00101081 1.68496e-05 1.12177e-07
1.68496e-05 -3.22804e-06 3.62402e-07
1.12177e-07 3.62402e-07 -6.45766e-05
0.00108042 5.56202e-06 2.66518e-08
5.56202e-06 4.30265e-05 -5.8296e-09
2.66518e-08 -5.8296e-09 -1.05168e-05
0.00100394 -8.21948e-06 -1.98153e-06
-8.21948e-06 2.23271e-05 -7.93211e-07
-1.98153e-06 -7.93211e-07 -1.8143e-05
0.00103735 -2.68486e-08 7.03306e-07
-2.68486e-08 2.68802e-05 2.20444e-07
7.03306e-07 2.20444e-07 -2.50859e-05
0.000977528 -1.19709e-05 -5.30812e-08
-1.19709e-05 8.60985e-06 5.60449e-09
-5.30812e-08 5.60449e-09 -2.89929e-05
0.000902035 -1.63095e-05 -3.90457e-06
-1.63095e-05 -1.81361e-05 -1.68648e-06
-3.90457e-06 -1.68648e-06 -2.87679e-05
0.000956701 -1.17525e-05 2.0253e-06
-1.17525e-05 -4.37976e-06 9.95604e-07
2.0253e-06 9.95604e-07 -3.9329e-05
0.000882859 -1.56087e-05 -5.25336e-08
-1.56087e-05 -3.51595e-05 2.33017e-08
-5.25336e-08 2.33017e-08 -4.31945e-05
0.00234123 -2.2952e-05 -7.52288e-06
-2.2952e-05 0.000682244 -2.66799e-06
-7.52288e-06 -2.66799e-06 0.000697307
0.00086998 -1.46986e-05 3.33757e-06
-1.46986e-05 -4.88184e-05 2.06582e-06
3.33757e-06 2.06582e-06 -5.44422e-05
0.0023775 -2.15614e-05 -1.11941e-07
-2.15614e-05 0.000688655 6.00292e-08
-1.11941e-07 6.00292e-08 0.00070555
0.0024217 -1.99472e-05 6.9682e-06
-1.99472e-05 0.000700742 2.99353e-06
6.9682e-06 2.99353e-06 0.000719105
0.00129527 -2.12941e-05 -4.0879e-07
-2.12941e-05 6.97322e-05 3.07595e-06
-4.0879e-07 3.07595e-06 1.32718e-05
0.00133122 -2.84559e-05 2.74943e-07
-2.84559e-05 5.98702e-05 -1.00638e-06
2.74943e-07 -1.00638e-06 1.53005e-05
0.00157491 -2.83422e-05 1.75518e-06
-2.83422e-05 0.000163061 -2.65909e-06
1.75518e-06 -2.65909e-06 0.000132243
0.00111673 5.75782e-06 -4.79911e-07
5.75782e-06 -6.11334e-05 4.3585e-07
-4.79911e-07 4.3585e-07 -0.000132146
0.00135094 2.24242e-05 6.86363e-08
2.24242e-05 8.42142e-05 -3.64314e-07
6.86363e-08 -3.64314e-07 1.22704e-05
0.00124669 2.11712e-05 -1.01443e-06
2.11712e-05 9.68025e-05 7.44564e-07
-1.01443e-06 7.44564e-07 3.41492e-05
0.00147662 2.28635e-05 -1.8136e-07
2.28635e-05 0.000179563 3.65429e-07
-1.8136e-07 3.65429e-07 0.000112715
0.00145001 2.9455e-06 3.46509e-08
2.9455e-06 7.94301e-05 1.05375e-07
3.46509e-08 1.05375e-07 5.45412e-06
0.00138865 2.64607e-05 -6.31152e-07
2.64607e-05 9.34538e-05 6.02946e-07
-6.31152e-07 6.02946e-07 1.45651e-05
0.00162437 -1.20151e-06 -7.78008e-07
-1.20151e-06 0.00012654 -1.00393e-06
-7.78008e-07 -1.00393e-06 5.72242e-05
0.000967977 -7.8727e-07 1.61008e-06
-7.8727e-07 3.86128e-06 1.22196e-07
1.61008e-06 1.22196e-07 -4.72249e-05
0.000932055 -1.40346e-06 -4.14652e-08
-1.40346e-06 -1.53867e-05 -1.12291e-07
-4.14652e-08 -1.12291e-07 -6.26758e-05
0.00103657 -5.31384e-06 -1.59252e-06
-5.31384e-06 4.44187e-05 1.5102e-06
-1.59252e-06 1.5102e-06 1.17351e-06
0.0011063 1.66256e-05 3.8143e-07
1.66256e-05 4.73706e-05 -5.15083e-07
3.8143e-07 -5.15083e-07 -1.04655e-05
0.00130578 2.33536e-05 1.04742e-06
2.33536e-05 0.000119785 1.4249e-06
1.04742e-06 1.4249e-06 6.17128e-05
0.00115796 1.90684e-05 4.53172e-07
1.90684e-05 5.43578e-05 -9.88022e-08
4.53172e-07 -9.88022e-08 -3.38876e-06
0.00122346 1.82084e-05 -5.2529e-09
1.82084e-05 6.46558e-05 -7.44522e-08
-5.2529e-09 -7.44522e-08 6.87698e-06
0.00136062 1.80857e-05 -1.79552e-07
1.80857e-05 8.81242e-05 2.89942e-07
-1.79552e-07 2.89942e-07 2.43859e-05
0.0012575 1.60222e-05 -4.90067e-07
1.60222e-05 5.51932e-05 -5.29848e-07
-4.90067e-07 -5.29848e-07 -6.05282e-06
0.00126308 1.43291e-05 -5.50011e-07
1.43291e-05 6.6732e-05 -9.42659e-07
-5.50011e-07 -9.42659e-07 3.90345e-06
0.00126834 4.04223e-06 2.70893e-07
4.04223e-06 5.65018e-05 1.1206e-07
2.70893e-07 1.1206e-07 -7.5487e-06
0.00123682 2.78689e-07 1.55314e-08
2.78689e-07 5.30629e-05 1.53936e-07
1.55314e-08 1.53936e-07 -1.04245e-05
0.00118493 -4.212e-06 -7.14291e-07
-4.212e-06 4.71293e-05 3.24704e-07
-7.14291e-07 3.24704e-07 -1.32133e-05
0.00122974 -1.08762e-05 7.13436e-08
-1.08762e-05 5.53699e-05 -4.0267e-07
7.13436e-08 -4.0267e-07 -5.63127e-06
0.00116308 -8.55803e-06 2.3247e-08
-8.55803e-06 4.14091e-05 2.79711e-08
2.3247e-08 2.79711e-08 -1.66774e-05
0.0010164 1.24275e-06 -1.90016e-06
1.24275e-06 1.00618e-05 5.47146e-07
-1.90016e-06 5.47146e-07 -4.04724e-05
0.00113979 -8.84923e-06 5.47772e-07
-8.84923e-06 3.58905e-05 -2.23131e-07
5.47772e-07 -2.23131e-07 -1.98523e-05
0.00100778 1.27265e-06 -5.44429e-08
1.27265e-06 8.02166e-06 3.90938e-08
-5.44429e-08 3.90938e-08 -3.9946e-05
0.00160998 2.0774e-05 -3.48363e-06
2.0774e-05 0.000345742 7.26877e-07
-3.48363e-06 7.26877e-07 0.00032757
0.00099736 1.14091e-06 2.13675e-06
1.14091e-06 3.29142e-06 -5.78382e-07
2.13675e-06 -5.78382e-07 -4.18764e-05
0.0015921 1.96686e-05 2.054e-06
1.96686e-05 0.000329676 -6.88699e-07
2.054e-06 -6.88699e-07 0.000314552
0.0012184 2.28522e-05 -1.128e-05
2.28522e-05 0.000164203 3.51225e-06
-1.128e-05 3.51225e-06 0.000163496
0.00159023 1.86478e-05 7.293e-06
1.86478e-05 0.000323058 -2.44951e-06
7.293e-06 -2.44951e-06 0.000310515
0.00117338 2.26586e-05 -3.87745e-06
2.26586e-05 0.000132238 1.54858e-06
-3.87745e-06 1.54858e-06 0.00013475
0.00252975 2.68697e-05 3.63859e-06
2.68697e-05 0.000783914 -9.5258e-07
3.63859e-06 -9.5258e-07 0.000796017
0.0014544 7.46846e-06 -5.57888e-07
7.46846e-06 0.000103945 -2.35082e-07
-5.57888e-07 -2.35082e-07 3.35077e-05
0.00129327 1.93651e-05 1.80111e-07
1.93651e-05 7.37703e-05 -1.04809e-06
1.80111e-07 -1.04809e-06 6.30447e-06
0.00131939 2.05192e-05 -4.17399e-07
2.05192e-05 7.27249e-05 5.78241e-07
-4.17399e-07 5.78241e-07 2.98756e-06
0.00133066 1.41547e-05 -2.8652e-07
1.41547e-05 0.000143944 -1.76161e-07
-2.8652e-07 -1.76161e-07 8.61143e-05
0.00121173 1.96036e-05 3.25353e-07
1.96036e-05 7.07526e-05 -1.42833e-07
3.25353e-07 -1.42833e-07 6.85071e-06
0.0011758 2.07864e-05 4.73813e-07
2.07864e-05 4.07779e-05 8.58087e-07
4.73813e-07 8.58087e-07 -2.21879e-05
0.00101066 -2.72063e-06 -1.93619e-06
-2.72063e-06 2.46801e-05 -9.84495e-07
-1.93619e-06 -9.84495e-07 -1.97795e-05
0.00109826 1.05358e-05 2.34047e-08
1.05358e-05 4.65794e-05 -8.10139e-08
2.34047e-08 -8.10139e-08 -9.86741e-06
0.00123266 1.98203e-05 3.30636e-07
1.98203e-05 9.4228e-05 5.42949e-07
3.30636e-07 5.42949e-07 3.04758e-05
0.00106082 5.57646e-06 6.7628e-07
5.57646e-06 3.45094e-05 1.79305e-07
6.7628e-07 1.79305e-07 -1.9089e-05
0.000984556 -9.25975e-06 -4.88752e-08
-9.25975e-06 1.45876e-05 -3.1397e-08
-4.88752e-08 -3.1397e-08 -2.60479e-05
0.000892341 -1.67113e-05 -4.05685e-06
-1.67113e-05 -1.44068e-05 -1.62031e-06
-4.05685e-06 -1.62031e-06 -2.786e-05
0.000954645 -1.239e-05 2.03404e-06
-1.239e-05 -1.50362e-06 8.97742e-07
2.03404e-06 8.97742e-07 -3.91696e-05
0.000867519 -1.62511e-05 -5.39664e-08
-1.62511e-05 -3.43444e-05 2.45297e-08
-5.39664e-08 2.45297e-08 -4.48406e-05
0.00237862 -2.42879e-05 -7.85567e-06
-2.42879e-05 0.000710901 -2.50486e-06
-7.85567e-06 -2.50486e-06 0.000723989
0.000851662 -1.55592e-05 3.52696e-06
-1.55592e-05 -4.98682e-05 1.91658e-06
3.52696e-06 1.91658e-06 -5.77708e-05
0.00240306 -2.30891e-05 -1.13587e-07
-2.30891e-05 0.000710531 6.56853e-08
-1.13587e-07 6.56853e-08 0.000725655
0.00243955 -2.16464e-05 7.18473e-06
-2.16464e-05 0.000717294 2.84869e-06
7.18473e-06 2.84869e-06 0.000734205
0.00133372 -1.63051e-05 3.37553e-07
-1.63051e-05 8.54711e-05 1.62879e-06
3.37553e-07 1.62879e-06 2.55478e-05
0.00137863 -2.15244e-05 -2.92798e-08
-2.15244e-05 9.93034e-05 7.29149e-07
-2.92798e-08 7.29149e-07 4.18193e-05
0.00124097 -2.75292e-05 -9.98983e-07
-2.75292e-05 1.94933e-05 -3.53633e-06
-9.98983e-07 -3.53633e-06 -2.51229e-05
0.00128717 5.22351e-06 -1.12275e-07
5.22351e-06 7.9666e-06 -1.47341e-07
-1.12275e-07 -1.47341e-07 -6.38195e-05
0.00134127 2.20248e-05 -1.92996e-07
2.20248e-05 7.96617e-05 6.39663e-07
-1.92996e-07 6.39663e-07 7.61995e-06
0.00161206 3.76854e-06 2.35886e-07
3.76854e-06 0.000154255 -9.42876e-07
2.35886e-07 -9.42876e-07 8.07466e-05
0.00101353 -1.40032e-06 7.96299e-07
-1.40032e-06 2.3436e-05 2.81397e-07
7.96299e-07 2.81397e-07 -3.5393e-05
0.00100135 -3.90567e-07 5.82618e-07
-3.90567e-07 2.62912e-05 -5.18376e-08
5.82618e-07 -5.18376e-08 -2.46066e-05
0.00116908 -5.62454e-07 -9.84129e-09
-5.62454e-07 8.71334e-05 3.79533e-07
-9.84129e-09 3.79533e-07 3.79254e-05
0.00114728 1.6631e-05 -3.12484e-07
1.6631e-05 6.51503e-05 4.1624e-07
-3.12484e-07 4.1624e-07 6.00842e-06
0.00115714 1.72555e-05 1.09243e-07
1.72555e-05 6.37281e-05 -1.2901e-07
1.09243e-07 -1.2901e-07 3.73167e-06
0.00116131 1.91669e-05 3.54936e-07
1.91669e-05 5.69339e-05 9.05502e-07
3.54936e-07 9.05502e-07 -8.7685e-07
0.00119605 1.79544e-05 1.40759e-07
1.79544e-05 5.24236e-05 4.74238e-07
1.40759e-07 4.74238e-07 -5.38752e-06
0.00131874 1.86453e-05 2.31433e-07
1.86453e-05 0.000108199 -2.46404e-07
2.31433e-07 -2.46404e-07 4.90055e-05
0.00123813 1.51539e-05 1.80538e-07
1.51539e-05 4.74224e-05 3.74905e-07
1.80538e-07 3.74905e-07 -1.38699e-05
0.00123285 1.29205e-05 -2.43876e-07
1.29205e-05 5.34733e-05 -3.32955e-07
-2.43876e-07 -3.32955e-07 -9.2022e-06
0.00119099 8.49026e-06 -1.05267e-06
8.49026e-06 5.124e-05 -1.09551e-07
-1.05267e-06 -1.09551e-07 -9.93995e-06
0.00122597 6.90956e-08 1.27459e-07
6.90956e-08 4.82784e-05 -9.22146e-08
1.27459e-07 -9.22146e-08 -1.51921e-05
0.00117493 -3.67039e-06 1.35388e-08
-3.67039e-06 4.24382e-05 3.87648e-08
1.35388e-08 3.87648e-08 -1.79124e-05
0.00101706 2.21887e-06 -1.86382e-06
2.21887e-06 7.28167e-06 4.48041e-07
-1.86382e-06 4.48041e-07 -4.53526e-05
0.00116079 -8.31014e-06 6.39509e-07
-8.31014e-06 4.00475e-05 -2.57228e-07
6.39509e-07 -2.57228e-07 -1.80493e-05
0.00101284 1.23193e-06 -6.28004e-08
1.23193e-06 7.95934e-06 8.45507e-08
-6.28004e-08 8.45507e-08 -4.24937e-05
0.00154536 2.08154e-05 -3.38401e-06
2.08154e-05 0.000323927 6.73716e-07
-3.38401e-06 6.73716e-07 0.000301534
0.00100365 1.12724e-06 2.03318e-06
1.12724e-06 5.1775e-06 -5.2743e-07
2.03318e-06 -5.2743e-07 -4.26542e-05
0.00159866 2.04905e-05 2.16042e-06
2.04905e-05 0.000340066 -6.42529e-07
2.16042e-06 -6.42529e-07 0.000321574
0.00123172 2.3314e-05 -1.18983e-05
2.3314e-05 0.000182979 3.25095e-06
-1.18983e-05 3.25095e-06 0.000178865
0.0015904 1.94016e-05 7.50517e-06
1.94016e-05 0.000329174 -2.2035e-06
7.50517e-06 -2.2035e-06 0.000313686
0.00118874 2.34438e-05 -4.11148e-06
2.34438e-05 0.00014973 1.43092e-06
-4.11148e-06 1.43092e-06 0.000149355
0.00114832 2.32602e-05 2.98416e-06
2.32602e-05 0.000119932 -7.24934e-07
2.98416e-06 -7.24934e-07 0.000122757
0.00146987 -1.17058e-05 1.3031e-07
-1.17058e-05 0.000121778 1.05615e-06
1.3031e-07 1.05615e-06 6.39633e-05
0.00133858 9.49404e-06 -6.61934e-07
9.49404e-06 6.69995e-05 -1.9759e-07
-6.61934e-07 -1.9759e-07 -2.60769e-06
0.00145956 7.12832e-06 -2.16723e-07
7.12832e-06 0.000103615 -3.83049e-07
-2.16723e-07 -3.83049e-07 3.30564e-05
0.00127861 1.57206e-05 -5.5589e-07
1.57206e-05 9.19606e-05 -6.85542e-07
-5.5589e-07 -6.85542e-07 3.0458e-05
0.00134298 1.94909e-05 2.93651e-07
1.94909e-05 9.92749e-05 4.10933e-07
2.93651e-07 4.10933e-07 3.23011e-05
0.00136538 2.09399e-05 4.27496e-07
2.09399e-05 9.83544e-05 1.42531e-06
4.27496e-07 1.42531e-06 2.92441e-05
0.000993441 1.13788e-06 -2.06794e-06
1.13788e-06 9.25026e-06 -8.70758e-07
-2.06794e-06 -8.70758e-07 -3.8845e-05
0.00115338 1.36718e-05 3.89899e-07
1.36718e-05 5.83504e-05 3.91715e-07
3.89899e-07 3.91715e-07 -4.64638e-07
0.00112605 1.94069e-05 2.86575e-07
1.94069e-05 2.96106e-05 9.63329e-07
2.86575e-07 9.63329e-07 -3.46169e-05
0.00088946 -1.69096e-05 -4.14291e-06
-1.69096e-05 -9.5711e-06 -1.69603e-06
-4.14291e-06 -1.69603e-06 -2.66139e-05
0.000992145 -3.92804e-06 -3.66418e-08
-3.92804e-06 1.77922e-05 -6.29655e-08
-3.66418e-08 -6.29655e-08 -2.68477e-05
0.00109789 1.08467e-05 6.02884e-07
1.08467e-05 4.65714e-05 4.09266e-07
6.02884e-07 4.09266e-07 -9.91748e-06
0.000964326 -1.03713e-05 1.99834e-06
-1.03713e-05 6.47897e-06 8.24393e-07
1.99834e-06 8.24393e-07 -3.43256e-05
0.000848503 -1.66225e-05 -4.40724e-08
-1.66225e-05 -3.49189e-05 -4.21307e-09
-4.40724e-08 -4.21307e-09 -4.82109e-05
0.00244453 -2.54957e-05 -8.30787e-06
-2.54957e-05 0.000753166 -2.37803e-06
-8.30787e-06 -2.37803e-06 0.000764113
0.000833413 -1.61912e-05 3.73946e-06
-1.61912e-05 -5.03497e-05 1.75652e-06
3.73946e-06 1.75652e-06 -6.07121e-05
0.00243734 -2.44639e-05 -1.12309e-07
-2.44639e-05 0.000737604 6.98848e-08
-1.12309e-07 6.98848e-08 0.000750778
0.00246573 -2.32229e-05 7.42481e-06
-2.32229e-05 0.000739204 2.70154e-06
7.42481e-06 2.70154e-06 0.000754387
0.00123963 -1.84775e-05 9.22904e-07
-1.84775e-05 7.76477e-05 -8.26365e-07
9.22904e-07 -8.26365e-07 1.14203e-05
0.00133208 -1.61833e-05 -1.26467e-07
-1.61833e-05 8.07231e-05 3.20472e-07
-1.26467e-07 3.20472e-07 2.05078e-05
0.0014545 -2.1717e-05 -2.23375e-07
-2.1717e-05 0.000125318 -1.74991e-06
-2.23375e-07 -1.74991e-06 6.68197e-05
0.00146667 4.70095e-06 7.28933e-07
4.70095e-06 8.14233e-05 -2.68321e-07
7.28933e-07 -2.68321e-07 8.8416e-06
0.00106367 -2.69838e-07 -1.39469e-07
-2.69838e-07 3.77434e-05 1.16718e-06
-1.39469e-07 1.16718e-06 -2.50897e-05
0.00105503 -9.97022e-07 -5.62256e-07
-9.97022e-07 4.54077e-05 3.34071e-08
-5.62256e-07 3.34071e-08 -1.29663e-05
0.00103451 -1.78916e-08 -9.11751e-07
-1.78916e-08 4.84872e-05 2.7046e-08
-9.11751e-07 2.7046e-08 -2.20312e-06
0.00117372 1.65218e-05 -6.05068e-07
1.65218e-05 7.61686e-05 1.41665e-06
-6.05068e-07 1.41665e-06 1.57295e-05
0.00115013 1.71776e-05 2.70785e-07
1.71776e-05 6.26112e-05 3.6169e-07
2.70785e-07 3.6169e-07 2.81118e-06
0.00115692 1.78061e-05 -2.50797e-07
1.78061e-05 6.32614e-05 -5.37797e-07
-2.50797e-07 -5.37797e-07 4.46659e-06
0.00116641 1.76722e-05 4.46613e-07
1.76722e-05 3.90715e-05 1.26817e-06
4.46613e-07 1.26817e-06 -1.87597e-05
0.00126826 1.84467e-05 1.83756e-07
1.84467e-05 8.51125e-05 3.47746e-07
1.83756e-07 3.47746e-07 2.57752e-05
0.00119722 1.72437e-05 -6.54736e-07
1.72437e-05 6.38387e-05 -5.70661e-07
-6.54736e-07 -5.70661e-07 4.05843e-06
0.0012025 1.26556e-05 1.90069e-08
1.26556e-05 4.0204e-05 2.96887e-07
1.90069e-08 2.96887e-07 -2.23464e-05
0.00116406 9.5986e-06 -1.35589e-07
9.5986e-06 3.95013e-05 7.15407e-08
-1.35589e-07 7.15407e-08 -2.16222e-05
0.00103006 9.04513e-06 -1.85885e-06
9.04513e-06 1.4275e-05 3.34005e-07
-1.85885e-06 3.34005e-07 -4.00402e-05
0.0011622 -7.6681e-07 6.89166e-07
-7.6681e-07 3.65618e-05 -2.40011e-07
6.89166e-07 -2.40011e-07 -2.38291e-05
0.00101665 2.55471e-06 -6.61461e-08
2.55471e-06 7.26164e-06 4.3635e-08
-6.61461e-08 4.3635e-08 -4.53574e-05
0.000713679 1.67898e-05 -4.5855e-06
1.67898e-05 -7.22365e-05 1.15888e-06
-4.5855e-06 1.15888e-06 -0.000103792
0.00101055 1.24994e-06 1.9916e-06
1.24994e-06 6.42869e-06 -4.26306e-07
1.9916e-06 -4.26306e-07 -4.39423e-05
0.00115168 1.8885e-05 2.58917e-06
1.8885e-05 0.000131024 -6.03845e-07
2.58917e-06 -6.03845e-07 0.000106082
0.00287339 3.05607e-05 -1.01794e-05
3.05607e-05 0.00099529 1.81017e-06
-1.01794e-05 1.81017e-06 0.000997231
0.00158749 2.0192e-05 7.62924e-06
2.0192e-05 0.000334487 -2.00331e-06
7.62924e-06 -2.00331e-06 0.00031567
0.00119678 2.39071e-05 -4.36655e-06
2.39071e-05 0.000166096 1.30944e-06
-4.36655e-06 1.30944e-06 0.000162356
0.00115618 2.40456e-05 3.12966e-06
2.40456e-05 0.000133878 -6.41133e-07
3.12966e-06 -6.41133e-07 0.000133845
0.00144039 -1.68339e-05 7.95751e-07
-1.68339e-05 0.000142146 -9.68925e-07
7.95751e-07 -9.68925e-07 8.05471e-05
0.0013356 -7.01124e-06 -3.31991e-07
-7.01124e-06 6.64994e-05 9.71552e-07
-3.31991e-07 9.71552e-07 5.25437e-06
0.00132298 -1.13973e-05 2.28368e-07
-1.13973e-05 5.63949e-05 4.88601e-08
2.28368e-07 4.88601e-08 -2.01245e-06
0.0010168 1.0482e-05 -1.1853e-06
1.0482e-05 -5.51352e-05 -5.05054e-07
-1.1853e-06 -5.05054e-07 -0.000120507
0.0013811 9.34954e-06 1.08939e-07
9.34954e-06 8.94004e-05 8.41035e-09
1.08939e-07 8.41035e-09 2.10616e-05
0.00146336 6.81718e-06 3.78305e-07
6.81718e-06 0.000102554 -5.63437e-07
3.78305e-07 -5.63437e-07 3.18885e-05
0.000794228 2.85882e-06 -2.57626e-06
2.85882e-06 -0.000102594 -1.28705e-06
-2.57626e-06 -1.28705e-06 -0.000155151
0.00128683 1.57754e-05 2.14107e-07
1.57754e-05 9.58459e-05 6.17742e-09
2.14107e-07 6.17742e-09 3.42661e-05
0.00139791 1.96639e-05 4.15086e-07
1.96639e-05 0.000127053 1.24921e-06
4.15086e-07 1.24921e-06 6.05874e-05
0.000879113 -1.65838e-05 -4.32995e-06
-1.65838e-05 -1.3159e-05 -1.66141e-06
-4.32995e-06 -1.66141e-06 -3.43389e-05
0.000879745 1.11375e-07 -2.84301e-08
1.11375e-07 -4.4919e-05 5.1204e-08
-2.84301e-08 5.1204e-08 -9.40301e-05
0.000978088 1.31423e-05 9.81071e-07
1.31423e-05 -2.62848e-05 1.09195e-06
9.81071e-07 1.09195e-06 -8.60896e-05
0.00256705 -2.6626e-05 -9.04657e-06
-2.6626e-05 0.000821136 -2.32741e-06
-9.04657e-06 -2.32741e-06 0.000829693
0.000826649 -1.67141e-05 -6.20483e-08
-1.67141e-05 -3.87499e-05 -4.68355e-08
-6.20483e-08 -4.68355e-08 -5.5581e-05
0.000973353 -5.14771e-06 1.90127e-06
-5.14771e-06 1.08009e-05 9.2189e-07
1.90127e-06 9.2189e-07 -3.40211e-05
0.000804297 -1.65265e-05 3.93696e-06
-1.65265e-05 -5.55871e-05 1.64111e-06
3.93696e-06 1.64111e-06 -6.87197e-05
0.00249457 -2.57114e-05 -1.02167e-07
-2.57114e-05 0.000775937 7.12048e-08
-1.02167e-07 7.12048e-08 0.000787003
0.0024979 -2.46384e-05 7.70825e-06
-2.46384e-05 0.00076513 2.54505e-06
7.70825e-06 2.54505e-06 0.000778392
0.00108867 -1.70938e-05 1.48557e-07
-1.70938e-05 3.51274e-05 3.41555e-07
1.48557e-07 3.41555e-07 -3.21333e-05
0.00113788 -1.76775e-05 -5.32582e-07
-1.76775e-05 3.58693e-05 -9.15396e-07
-5.32582e-07 -9.15396e-07 -2.87944e-05
0.00132927 -1.60476e-05 -2.93205e-07
-1.60476e-05 7.5479e-05 -9.78577e-07
-2.93205e-07 -9.78577e-07 1.49682e-05
0.0010902 3.8518e-06 1.16062e-07
3.8518e-06 5.12767e-05 2.60077e-07
1.16062e-07 2.60077e-07 -8.48809e-06
0.00112375 -3.85033e-07 5.98108e-08
-3.85033e-07 6.60135e-05 5.12785e-07
5.98108e-08 5.12785e-07 3.34775e-06
0.00109977 -5.21766e-07 -1.59859e-06
-5.21766e-07 6.88757e-05 -1.25797e-07
-1.59859e-06 -1.25797e-07 1.09562e-05
0.0011514 1.71725e-05 -9.41835e-09
1.71725e-05 6.53358e-05 4.71416e-07
-9.41835e-09 4.71416e-07 5.72791e-06
0.00114661 1.77382e-05 6.9133e-08
1.77382e-05 5.78616e-05 1.99328e-07
6.9133e-08 1.99328e-07 -7.68681e-07
0.00116987 1.67671e-05 -3.46106e-07
1.67671e-05 8.29859e-05 -5.03359e-07
-3.46106e-07 -5.03359e-07 2.55785e-05
0.0012209 1.82578e-05 3.59534e-07
1.82578e-05 6.34862e-05 1.30965e-06
3.59534e-07 1.30965e-06 4.00257e-06
0.00123577 1.7503e-05 1.45757e-08
1.7503e-05 8.42501e-05 2.59628e-08
1.45757e-08 2.59628e-08 2.48297e-05
0.000911457 1.4208e-05 -2.14678e-06
1.4208e-05 -3.40441e-05 -3.13914e-07
-2.14678e-06 -3.13914e-07 -8.90691e-05
0.00114221 8.28796e-06 6.83709e-07
8.28796e-06 3.00122e-05 2.7076e-07
6.83709e-07 2.7076e-07 -3.10219e-05
0.00101135 9.01325e-06 -2.54006e-08
9.01325e-06 6.26791e-06 1.66253e-07
-2.54006e-08 1.66253e-07 -4.7992e-05
0.00071744 1.58619e-05 -4.65852e-06
1.58619e-05 -6.09255e-05 9.37035e-07
-4.65852e-06 9.37035e-07 -9.6565e-05
0.00101355 2.90379e-06 1.92299e-06
2.90379e-06 5.96998e-06 -4.00946e-07
1.92299e-06 -4.00946e-07 -4.66302e-05
0.000754602 1.69632e-05 9.74307e-08
1.69632e-05 -5.46665e-05 5.85627e-08
9.74307e-08 5.85627e-08 -8.61473e-05
0.00300805 3.12468e-05 -1.07297e-05
3.12468e-05 0.00107302 1.50789e-06
-1.07297e-05 1.50789e-06 0.00107224
0.000751508 1.72196e-05 6.11225e-06
1.72196e-05 -6.48464e-05 -1.86749e-06
6.11225e-06 -1.86749e-06 -9.23417e-05
0.00198326 2.71298e-05 1.83464e-06
2.71298e-05 0.000564468 1.78595e-07
1.83464e-06 1.78595e-07 0.000561589
0.00115936 2.45284e-05 3.27699e-06
2.45284e-05 0.000148011 -5.74328e-07
3.27699e-06 -5.74328e-07 0.000144654
0.0014655 -2.01018e-05 1.95321e-07
-2.01018e-05 0.000185102 -2.742e-07
1.95321e-07 -2.742e-07 0.000119243
0.00125008 -1.41861e-05 -2.62229e-07
-1.41861e-05 5.20025e-05 -2.92079e-07
-2.62229e-07 -2.92079e-07 -7.88682e-06
0.00127188 -1.60084e-05 -4.18295e-07
-1.60084e-05 6.38031e-05 1.45642e-09
-4.18295e-07 1.45642e-09 1.96668e-06
0.00116463 -2.47088e-06 -1.02051e-06
-2.47088e-06 1.37416e-05 6.83003e-07
-1.02051e-06 6.83003e-07 -4.78722e-05
0.00126658 -7.34419e-06 3.24879e-07
-7.34419e-06 3.75151e-05 -1.66362e-07
3.24879e-07 -1.66362e-07 -2.36683e-05
0.00117722 -1.11235e-05 2.69604e-07
-1.11235e-05 -8.4826e-06 -4.86961e-07
2.69604e-07 -4.86961e-07 -6.74828e-05
0.000799678 2.8734e-06 -2.78383e-06
2.8734e-06 -0.000114929 -1.02902e-06
-2.78383e-06 -1.02902e-06 -0.000170455
0.00124166 1.17835e-05 -3.25232e-07
1.17835e-05 5.19614e-05 4.99986e-08
-3.25232e-07 4.99986e-08 -1.23117e-05
0.00141627 9.14123e-06 7.45645e-07
9.14123e-06 0.000108506 -3.6597e-07
7.45645e-07 -3.6597e-07 4.14222e-05
0.000860207 -1.43399e-05 -4.68536e-06
-1.43399e-05 -2.41315e-05 -1.58942e-06
-4.68536e-06 -1.58942e-06 -4.95266e-05
0.000809578 3.21453e-06 -4.65944e-07
3.21453e-06 -9.62076e-05 -3.59239e-07
-4.65944e-07 -3.59239e-07 -0.000149405
0.00129409 1.58671e-05 9.65003e-07
1.58671e-05 9.92556e-05 8.14132e-07
9.65003e-07 8.14132e-07 3.76017e-05
0.00273647 -2.77319e-05 -1.00255e-05
-2.77319e-05 0.000910085 -2.24947e-06
-1.00255e-05 -2.24947e-06 0.000916061
0.000808501 -1.67053e-05 -1.59603e-07
-1.67053e-05 -4.56468e-05 4.21479e-09
-1.59603e-07 4.21479e-09 -6.66483e-05
0.00076695 -8.4379e-07 1.85003e-06
-8.4379e-07 -9.86848e-05 1.11668e-06
1.85003e-06 1.11668e-06 -0.000148811
0.00260125 -2.68898e-05 -9.33254e-08
-2.68898e-05 0.000836898 7.51379e-08
-9.33254e-08 7.51379e-08 0.000845639
0.000763392 -1.6518e-05 4.08364e-06
-1.6518e-05 -6.81179e-05 1.66722e-06
4.08364e-06 1.66722e-06 -8.4739e-05
0.00254419 -2.59082e-05 8.01382e-06
-2.59082e-05 0.000798452 2.38222e-06
8.01382e-06 2.38222e-06 0.000809645
0.00105962 -1.0651e-05 -4.18232e-07
-1.0651e-05 2.29706e-05 3.5997e-07
-4.18232e-07 3.5997e-07 -3.99885e-05
0.0011398 -1.73391e-05 6.02201e-07
-1.73391e-05 5.7288e-05 -8.8853e-07
6.02201e-07 -8.8853e-07 -9.46463e-06
0.00103865 -1.68771e-05 -1.27812e-06
-1.68771e-05 -4.73673e-06 -1.42722e-06
-1.27812e-06 -1.42722e-06 -6.78386e-05
0.001119 2.43029e-06 -1.88052e-07
2.43029e-06 7.11993e-05 1.7199e-07
-1.88052e-07 1.7199e-07 1.29883e-05
0.00114656 4.05057e-06 -1.58278e-07
4.05057e-06 7.52332e-05 -3.91406e-08
-1.58278e-07 -3.91406e-08 1.51868e-05
0.00118214 -5.24545e-07 -2.2332e-07
-5.24545e-07 9.35433e-05 1.67941e-07
-2.2332e-07 1.67941e-07 3.10404e-05
0.0011343 1.7655e-05 1.4702e-07
1.7655e-05 5.14785e-05 3.53881e-07
1.4702e-07 3.53881e-07 -6.98071e-06
0.00116095 1.67853e-05 2.03681e-07
1.67853e-05 7.79024e-05 1.05344e-08
2.03681e-07 1.05344e-08 2.06055e-05
0.000834605 1.33201e-05 -1.85652e-06
1.33201e-05 -4.84782e-05 -4.51227e-07
-1.85652e-06 -4.51227e-07 -0.000102729
0.00127118 1.77514e-05 7.10514e-07
1.77514e-05 0.000103251 7.358e-07
7.10514e-07 7.358e-07 4.4187e-05
0.000972804 1.45184e-05 -3.87721e-07
1.45184e-05 -4.58763e-06 2.39569e-09
-3.87721e-07 2.39569e-09 -5.94273e-05
0.000724374 1.49306e-05 -4.75303e-06
1.49306e-05 -4.46393e-05 4.95171e-07
-4.75303e-06 4.95171e-07 -8.28089e-05
0.000993627 8.94446e-06 1.83951e-06
8.94446e-06 -1.28698e-06 1.14446e-09
1.83951e-06 1.14446e-09 -5.54912e-05
0.000737117 1.6333e-05 1.13491e-07
1.6333e-05 -5.32263e-05 1.19951e-07
1.13491e-07 1.19951e-07 -8.87346e-05
0.00301986 3.06019e-05 -1.14738e-05
3.06019e-05 0.00109554 1.21688e-06
-1.14738e-05 1.21688e-06 0.00109184
0.000795939 1.7276e-05 4.52427e-06
1.7276e-05 -3.68836e-05 -9.59934e-07
4.52427e-06 -9.59934e-07 -6.82943e-05
0.00291617 3.03659e-05 1.3691e-07
3.03659e-05 0.00103219 1.19727e-07
1.3691e-07 1.19727e-07 0.00103106
0.00110203 2.27268e-05 9.67904e-06
2.27268e-05 0.00013775 -1.56223e-06
9.67904e-06 -1.56223e-06 0.000130067
0.00130913 -1.77823e-05 -6.48305e-07
-1.77823e-05 0.00011165 3.21013e-08
-6.48305e-07 3.21013e-08 4.9551e-05
0.00133989 -1.93001e-05 2.59567e-07
-1.93001e-05 0.000125443 1.54104e-07
2.59567e-07 1.54104e-07 5.83787e-05
0.00116993 -1.40134e-05 -6.97116e-07
-1.40134e-05 3.44017e-05 2.31148e-07
-6.97116e-07 2.31148e-07 -2.50263e-05
0.00123253 -1.42265e-05 1.58861e-07
-1.42265e-05 4.46534e-05 -3.42833e-07
1.58861e-07 -3.42833e-07 -1.50593e-05
0.00110422 -1.51806e-05 3.95613e-08
-1.51806e-05 -1.4034e-05 9.52761e-07
3.95613e-08 9.52761e-07 -7.61203e-05
0.00101499 -4.17059e-06 -2.29832e-06
-4.17059e-06 -1.32291e-05 1.04993e-07
-2.29832e-06 1.04993e-07 -6.7395e-05
0.00120846 -2.3268e-06 1.62117e-08
-2.3268e-06 3.33259e-05 2.10495e-07
1.62117e-08 2.10495e-07 -2.84198e-05
0.00119716 -7.61117e-06 1.76683e-07
-7.61117e-06 8.33009e-06 -1.1698e-06
1.76683e-07 -1.1698e-06 -5.27894e-05
0.000828859 -1.2095e-05 -4.92917e-06
-1.2095e-05 -3.94631e-05 -1.32512e-06
-4.92917e-06 -1.32512e-06 -6.87941e-05
0.000933345 4.08225e-06 -5.80756e-07
4.08225e-06 -5.16507e-05 -1.59647e-07
-5.80756e-07 -1.59647e-07 -0.000106735
0.001468 1.30163e-05 8.23653e-07
1.30163e-05 0.000159753 4.11656e-07
8.23653e-07 4.11656e-07 9.65798e-05
0.00290368 -2.87024e-05 -1.10927e-05
-2.87024e-05 0.000998306 -2.11066e-06
-1.10927e-05 -2.11066e-06 0.00100161
0.000796105 -1.46281e-05 -1.8119e-07
-1.46281e-05 -5.30996e-05 1.88154e-08
-1.8119e-07 1.88154e-08 -7.83998e-05
0.000828038 3.58609e-06 1.60401e-06
3.58609e-06 -8.83756e-05 7.10242e-07
1.60401e-06 7.10242e-07 -0.000142211
0.00276348 -2.80406e-05 -1.16435e-07
-2.80406e-05 0.000922736 9.80731e-08
-1.16435e-07 9.80731e-08 0.000928946
0.000736613 -1.63913e-05 4.26735e-06
-1.63913e-05 -7.8707e-05 1.7893e-06
4.26735e-06 1.7893e-06 -9.95239e-05
0.00263451 -2.71117e-05 8.40319e-06
-2.71117e-05 0.000852171 2.24965e-06
8.40319e-06 2.24965e-06 0.000861104
0.00119203 -8.54328e-06 -5.87058e-07
-8.54328e-06 9.13909e-05 2.86643e-07
-5.87058e-07 2.86643e-07 3.20134e-05
0.0011289 -1.36623e-05 -2.27017e-08
-1.36623e-05 5.3407e-05 -2.15615e-07
-2.27017e-08 -2.15615e-07 -9.39332e-06
0.00119166 -1.76002e-05 9.22167e-08
-1.76002e-05 7.99117e-05 -1.68496e-06
9.22167e-08 -1.68496e-06 1.36531e-05
0.000850238 7.94211e-07 -1.53022e-06
7.94211e-07 -3.41637e-05 1.29767e-07
-1.53022e-06 1.29767e-07 -8.91457e-05
0.00112691 5.25743e-06 1.57257e-07
5.25743e-06 7.45863e-05 -4.96703e-08
1.57257e-07 -4.96703e-08 1.65002e-05
0.00120303 4.36687e-06 7.04269e-08
4.36687e-06 9.92649e-05 1.08291e-08
7.04269e-08 1.08291e-08 3.89383e-05
0.0011518 1.68014e-05 7.0651e-07
1.68014e-05 7.27126e-05 3.67153e-07
7.0651e-07 3.67153e-07 1.55267e-05
0.000860182 1.35299e-05 -3.73633e-07
1.35299e-05 -3.78692e-05 -1.3426e-07
-3.73633e-07 -1.3426e-07 -9.22516e-05
0.000706667 1.26703e-05 -4.64214e-06
1.26703e-05 -3.73893e-05 4.3885e-09
-4.64214e-06 4.3885e-09 -7.67131e-05
0.00103434 1.48281e-05 1.45161e-06
1.48281e-05 2.5021e-05 3.54923e-07
1.45161e-06 3.54923e-07 -2.96411e-05
0.00071648 1.53926e-05 3.4813e-08
1.53926e-05 -4.90489e-05 2.25778e-07
3.4813e-08 2.25778e-07 -8.70467e-05
0.00296774 2.90303e-05 -1.21548e-05
2.90303e-05 0.00108789 8.38862e-07
-1.21548e-05 8.38862e-07 0.00108175
0.000757454 1.67957e-05 4.63784e-06
1.67957e-05 -4.52293e-05 -6.37427e-07
4.63784e-06 -6.37427e-07 -8.06066e-05
0.00293456 2.95323e-05 1.75118e-07
2.95323e-05 0.00105811 1.34752e-07
1.75118e-07 1.34752e-07 0.00105408
0.00282793 2.9432e-05 1.14516e-05
2.9432e-05 0.000993031 -1.39741e-06
1.14516e-05 -1.39741e-06 0.000991564
0.00120311 -1.64542e-05 -7.59961e-07
-1.64542e-05 7.44812e-05 3.17783e-07
-7.59961e-07 3.17783e-07 1.47674e-05
0.00128597 -1.77756e-05 5.88614e-08
-1.77756e-05 0.000100157 2.48957e-07
5.88614e-08 2.48957e-07 3.74137e-05
0.00121153 -1.84856e-05 2.28741e-07
-1.84856e-05 6.43019e-05 1.12901e-06
2.28741e-07 1.12901e-06 -3.94385e-06
0.00100956 -1.25802e-05 -1.9505e-06
-1.25802e-05 -1.6879e-06 6.16424e-08
-1.9505e-06 6.16424e-08 -5.54024e-05
0.0011754 -1.39089e-05 1.91027e-07
-1.39089e-05 3.70425e-05 -1.90064e-07
1.91027e-07 -1.90064e-07 -2.2404e-05
0.00121688 -1.42702e-05 -1.03899e-07
-1.42702e-05 3.81392e-05 -6.63596e-07
-1.03899e-07 -6.63596e-07 -2.13918e-05
0.000774514 -1.47093e-05 -5.08149e-06
-1.47093e-05 -5.83184e-05 -7.94379e-07
-5.08149e-06 -7.94379e-07 -9.06692e-05
0.00104459 -3.21111e-06 2.41675e-08
-3.21111e-06 -2.65861e-07 2.44589e-07
2.41675e-08 2.44589e-07 -5.45255e-05
0.00125129 -2.20599e-06 1.0711e-06
-2.20599e-06 5.24479e-05 -2.33651e-07
1.0711e-06 -2.33651e-07 -9.43029e-06
0.00301662 -2.93184e-05 -1.20279e-05
-2.93184e-05 0.00106321 -1.84829e-06
-1.20279e-05 -1.84829e-06 0.00106385
0.000782118 -1.25258e-05 -1.42849e-07
-1.25258e-05 -6.01551e-05 1.00434e-07
-1.42849e-07 1.00434e-07 -8.94866e-05
0.00106397 5.34563e-06 1.78817e-06
5.34563e-06 1.01801e-05 6.46881e-07
1.78817e-06 6.46881e-07 -4.44597e-05
0.00294475 -2.91366e-05 -1.16608e-07
-2.91366e-05 0.00101729 1.12657e-07
-1.16608e-07 1.12657e-07 0.00102085
0.000731597 -1.56095e-05 4.56181e-06
-1.56095e-05 -8.22043e-05 1.75849e-06
4.56181e-06 1.75849e-06 -0.000107431
0.0027906 -2.83366e-05 9.06159e-06
-2.83366e-05 0.000935414 2.16839e-06
9.06159e-06 2.16839e-06 0.000941863
0.000998551 -9.84445e-06 -1.48806e-06
-9.84445e-06 3.00444e-05 3.74108e-08
-1.48806e-06 3.74108e-08 -2.43778e-05
0.00110993 -1.05194e-05 4.42343e-08
-1.05194e-05 5.31614e-05 1.51752e-07
4.42343e-08 1.51752e-07 -6.41817e-06
0.0011972 -1.62614e-05 1.00039e-06
-1.62614e-05 8.33033e-05 -9.74876e-07
1.00039e-06 -9.74876e-07 2.0675e-05
0.000690476 3.66048e-06 -4.47851e-06
3.66048e-06 -3.81765e-05 1.70277e-07
-4.47851e-06 1.70277e-07 -7.80085e-05
0.00085216 3.02925e-06 -2.13683e-07
3.02925e-06 -3.29457e-05 3.13066e-08
-2.13683e-07 3.13066e-08 -8.78549e-05
0.00113387 7.73517e-06 4.27257e-07
7.73517e-06 7.75149e-05 8.91373e-08
4.27257e-07 8.91373e-08 1.95509e-05
0.000885264 1.37332e-05 1.2184e-06
1.37332e-05 -2.74793e-05 1.50729e-07
1.2184e-06 1.50729e-07 -8.19943e-05
0.000695904 1.32118e-05 -5.02783e-08
1.32118e-05 -4.29018e-05 -7.08593e-08
-5.02783e-08 -7.08593e-08 -8.21125e-05
0.00280546 2.62364e-05 -1.20972e-05
2.62364e-05 0.00102769 4.02691e-07
-1.20972e-05 4.02691e-07 0.00101998
0.000710688 1.58718e-05 4.73712e-06
1.58718e-05 -5.25297e-05 -2.4346e-08
4.73712e-06 -2.4346e-08 -9.03539e-05
0.00286242 2.77166e-05 2.65311e-07
2.77166e-05 0.00104181 1.59282e-07
2.65311e-07 1.59282e-07 0.00103548
0.00284633 2.84064e-05 1.22138e-05
2.84064e-05 0.00101935 -1.03722e-06
1.22138e-05 -1.03722e-06 0.00101499
0.00100082 -1.43486e-05 -1.76908e-06
-1.43486e-05 1.56293e-05 1.59772e-07
-1.76908e-06 1.59772e-07 -3.84576e-05
0.00115635 -1.61781e-05 -2.78317e-09
-1.61781e-05 5.33e-05 8.2163e-08
-2.78317e-09 8.2163e-08 -6.50262e-06
0.00126465 -1.77838e-05 3.9989e-07
-1.77838e-05 8.96307e-05 1.62009e-07
3.9989e-07 1.62009e-07 2.62313e-05
0.00158682 -2.05367e-05 -7.11606e-06
-2.05367e-05 0.000353611 -5.31428e-07
-7.11606e-06 -5.31428e-07 0.000324774
0.00102745 -1.20415e-05 1.50823e-07
-1.20415e-05 6.13774e-06 -4.80694e-08
1.50823e-07 -4.80694e-08 -4.76511e-05
0.00118092 -1.38082e-05 8.06584e-07
-1.38082e-05 3.96954e-05 -6.57981e-07
8.06584e-07 -6.57981e-07 -1.97683e-05
0.00299156 -2.92413e-05 -1.24036e-05
-2.92413e-05 0.00106771 -1.4314e-06
-1.24036e-05 -1.4314e-06 0.00106587
0.000761685 -1.42146e-05 -8.37404e-08
-1.42146e-05 -6.34182e-05 1.89084e-07
-8.37404e-08 1.89084e-07 -9.58948e-05
0.00107389 -2.19921e-06 2.37646e-06
-2.19921e-06 1.25502e-05 4.05464e-07
2.37646e-06 4.05464e-07 -4.18033e-05
0.00307993 -2.99079e-05 -1.34407e-07
-2.99079e-05 0.00109183 1.34277e-07
-1.34407e-07 1.34277e-07 0.00109273
0.000737123 -1.28135e-05 4.83049e-06
-1.28135e-05 -8.00351e-05 1.63316e-06
4.83049e-06 1.63316e-06 -0.000109362
0.00298076 -2.95227e-05 1.0061e-05
-2.95227e-05 0.00103394 2.07641e-06
1.0061e-05 2.07641e-06 0.00103776
0.000658673 -8.40599e-06 -6.55067e-06
-8.40599e-06 -5.79234e-05 -4.67774e-07
-6.55067e-06 -4.67774e-07 -9.70682e-05
0.000947069 -9.69112e-06 1.20514e-07
-9.69112e-06 4.71954e-06 -1.34872e-08
1.20514e-07 -1.34872e-08 -5.00635e-05
0.00102949 -1.29628e-05 7.2065e-07
-1.29628e-05 1.57197e-05 -2.95084e-07
7.2065e-07 -2.95084e-07 -4.40689e-05
0.00269728 -6.56502e-07 -1.11024e-05
-6.56502e-07 0.000985138 8.5772e-08
-1.11024e-05 8.5772e-08 0.000976701
0.000690589 2.35534e-06 4.11606e-08
2.35534e-06 -3.8281e-05 1.89202e-07
4.11606e-08 1.89202e-07 -7.81365e-05
0.000855483 5.28581e-06 1.0595e-06
5.28581e-06 -3.11133e-05 1.20021e-07
1.0595e-06 1.20021e-07 -8.5946e-05
0.000685378 1.376e-05 4.46665e-06
1.376e-05 -4.8327e-05 -1.52433e-07
4.46665e-06 -1.52433e-07 -8.74222e-05
0.00274652 2.53456e-05 4.46238e-07
2.53456e-05 0.00100217 9.65557e-08
4.46238e-07 9.65557e-08 0.000994342
0.00275969 2.65992e-05 1.2218e-05
2.65992e-05 0.000996967 -5.50927e-07
1.2218e-05 -5.50927e-07 0.00099044
0.00145445 -1.8618e-05 -9.00493e-06
-1.8618e-05 0.000312673 -6.81641e-07
-9.00493e-06 -6.81641e-07 0.000281633
0.00101041 -1.44174e-05 4.51e-08
-1.44174e-05 1.98083e-05 8.54019e-08
4.51e-08 8.54019e-08 -3.43228e-05
0.00110893 -1.58976e-05 5.07811e-07
-1.58976e-05 3.18381e-05 -1.06667e-07
5.07811e-07 -1.06667e-07 -2.80568e-05
0.00294809 -3.08327e-05 -5.26979e-06
-3.08327e-05 0.00106445 -4.3737e-07
-5.26979e-06 -4.3737e-07 0.00106042
0.000775339 -1.67584e-05 -2.84565e-10
-1.67584e-05 -4.10644e-05 8.7384e-08
-2.84565e-10 8.7384e-08 -7.59348e-05
0.00104586 -1.16078e-05 2.17094e-06
-1.16078e-05 1.42055e-05 -1.53842e-07
2.17094e-06 -1.53842e-07 -3.96569e-05
0.00310131 -3.00046e-05 -1.65972e-07
-3.00046e-05 0.00111666 1.52454e-07
-1.65972e-07 1.52454e-07 0.00111502
0.00074977 -1.36098e-05 5.13438e-06
-1.36098e-05 -6.80978e-05 1.2472e-06
5.13438e-06 1.2472e-06 -0.0001007
0.00314599 -3.05084e-05 1.11252e-05
-3.05084e-05 0.00112174 1.91842e-06
1.11252e-05 1.91842e-06 0.00112289
0.00108989 -1.49799e-05 -9.44224e-06
-1.49799e-05 0.000203523 -2.66298e-07
-9.44224e-06 -2.66298e-07 0.000183041
0.00111041 -1.27197e-05 -2.06369e-06
-1.27197e-05 0.000159192 -3.01484e-08
-2.06369e-06 -3.01484e-08 0.00012315
0.000893621 -9.23843e-06 1.60962e-06
-9.23843e-06 -2.15443e-05 -9.70414e-08
1.60962e-06 -9.70414e-08 -7.668e-05
0.00270139 2.01058e-07 2.75735e-08
2.01058e-07 0.00098714 1.24164e-07
2.75735e-08 1.24164e-07 0.000978654
0.00068946 1.01658e-06 4.49665e-06
1.01658e-06 -3.89489e-05 2.00575e-07
4.49665e-06 2.00575e-07 -7.8825e-05
0.00268474 2.55015e-05 1.02189e-05
2.55015e-05 0.000975543 -2.45031e-07
1.02189e-05 -2.45031e-07 0.000967547
0.00107546 -1.9567e-05 -3.96428e-06
-1.9567e-05 0.000178776 -2.66063e-07
-3.96428e-06 -2.66063e-07 0.000160563
0.00118065 -1.75848e-05 -2.1237e-06
-1.75848e-05 0.000176952 -3.13507e-08
-2.1237e-06 -3.13507e-08 0.000142727
0.0010207 -1.44914e-05 1.76396e-06
-1.44914e-05 2.43089e-05 1.34385e-08
1.76396e-06 1.34385e-08 -2.98666e-05
0.00212705 -2.55679e-05 4.07676e-06
-2.55679e-05 0.000665247 4.50608e-07
4.07676e-06 4.50608e-07 0.00065527
0.000744554 -1.57339e-05 5.123e-06
-1.57339e-05 -5.37209e-05 7.37745e-07
5.123e-06 7.37745e-07 -8.88374e-05
0.00321332 -3.08777e-05 1.21304e-05
-3.08777e-05 0.00116665 1.64227e-06
1.21304e-05 1.64227e-06 0.00116522
0.00267867 -2.42996e-05 -3.35754e-07
-2.42996e-05 0.00097283 1.2391e-07
-3.35754e-07 1.2391e-07 0.000964879
0.000709075 -1.20512e-05 4.7324e-06
-1.20512e-05 -3.45391e-05 3.49867e-07
4.7324e-06 3.49867e-07 -7.38138e-05
0.00270786 1.01725e-06 1.13019e-05
1.01725e-06 0.000989858 8.82377e-08
1.13019e-05 8.82377e-08 0.000981401
0.0019507 -2.28594e-05 4.06925e-06
-2.28594e-05 0.000605587 3.08448e-07
4.06925e-06 3.08448e-07 0.000593007
0.000726409 -1.47778e-05 4.87601e-06
-1.47778e-05 -4.12619e-05 5.61251e-07
4.87601e-06 5.61251e-07 -7.86677e-05
0.0031268 -3.02065e-05 1.26367e-05
-3.02065e-05 0.00114415 1.25211e-06
1.26367e-05 1.25211e-06 0.00114033
0.00278067 -2.58051e-05 1.20858e-05
-2.58051e-05 0.00101736 4.70735e-07
1.20858e-05 4.70735e-07 0.00100967
0.00294534 -2.84716e-05 1.24742e-05
-2.84716e-05 0.0010789 8.63622e-07
1.24742e-05 8.63622e-07 0.00107289
