# vtk DataFile Version 2.0
Wound Healing Simulation
ASCII
DATASET UNSTRUCTURED_GRID
POINTS 3012 float
69.9759 18.75 4
67.2507 60.3285 4
69.976 18.75 2
73.0099 25.446 4
71.1327 20.9142 4
68.6801 16.6661 4
67.8185 19.9245 3.96744
67.2507 60.3286 2
71.1327 54.0858 4
68.6801 58.3339 4
65.6939 62.2254 4
65.3039 58.9999 3.9656
74.6784 42.3946 4
73.7221 47.2057 4
69.9759 18.75 0
73.0099 25.446 2
68.6801 16.6661 2
71.1327 20.9142 2
67.819 19.9292 2
74.6792 32.6053 4
73.7222 27.7943 4
72.1454 23.1494 4
70.6103 26.2224 3.97016
68.8798 21.9572 3.96827
67.2507 14.6715 4
66.6291 17.9707 3.96631
65.6664 21.0743 3.96062
67.2507 60.3285 0
71.1327 54.0858 2
68.6801 58.3339 2
65.694 62.2255 2
65.3057 58.9926 2
72.1454 51.8506 4
69.9759 56.25 4
68.8302 53.1148 3.96826
64.0165 64.0165 4
66.6027 57.1347 3.9672
63.8768 60.7609 3.96214
63.3849 57.7167 3.9564
60.3285 67.2507 4
74.6792 42.3947 2
73.7222 47.2057 2
74.9194 39.9526 4
74.2788 44.8158 4
72.1651 42.0855 3.97279
73.0099 49.554 4
71.2456 46.5978 3.97104
73.0099 25.446 0
71.1327 20.9142 0
68.6801 16.6661 0
67.8185 19.9245 0.0325574
74.6792 32.6053 2
73.7222 27.7943 2
67.2508 14.6715 2
72.1455 23.1494 2
70.6094 26.2238 2
66.6304 17.9763 2
68.8797 21.9606 2
65.6689 21.0756 2
74.9197 35.0474 4
74.2794 30.1841 4
72.1818 32.9453 3.97294
71.2749 28.4335 3.97102
69.8108 24.0599 3.96928
68.2518 26.9808 3.96541
66.6446 22.9751 3.96265
65.694 12.7746 4
65.3146 16.1039 3.9642
64.5687 19.2519 3.95728
63.5774 22.1638 3.96874
71.1327 54.0858 0
65.6939 62.2254 0
68.6801 58.3339 0
65.3039 58.9999 0.0344004
72.1455 51.8506 2
69.9759 56.25 2
68.8302 53.1108 2
64.0165 64.0165 2
66.6043 57.1283 2
63.879 60.753 2
63.3867 57.7159 2
62.2254 65.694 4
58.8856 65.4083 3.97011
69.7638 50.9899 3.9693
67.7764 55.1692 3.96758
66.518 52.1663 3.96309
62.3275 62.4218 3.96532
64.5235 55.9781 3.95903
62.1283 59.3474 3.95197
61.5475 56.5386 3.96279
58.3339 68.6801 4
60.3285 67.2508 2
73.7221 47.2057 0
74.6784 42.3946 0
74.9197 39.9526 2
74.2794 44.8159 2
72.1639 42.0844 2
73.0099 49.554 2
71.2447 46.596 2
75 37.5 4
72.4023 39.8026 3.97367
71.779 44.3526 3.97212
69.7619 41.7839 3.96914
70.5709 48.8137 3.97028
68.8332 45.9959 3.96833
74.6792 32.6053 0
73.7222 27.7943 0
67.2507 14.6715 0
72.1454 23.1494 0
70.6103 26.2224 0.0298442
68.8798 21.9572 0.0317322
66.6291 17.9707 0.0336934
65.6664 21.0743 0.0393826
74.9197 35.0474 2
74.2794 30.1841 2
72.1804 32.9455 2
71.2738 28.4344 2
65.694 12.7745 2
65.3156 16.1112 2
69.8102 24.0621 2
68.2536 26.9818 2
64.5644 19.2544 2
66.6471 22.9765 2
63.5772 22.1653 2
72.4103 35.2257 3.9738
71.8007 30.6786 3.97232
69.798 33.2789 3.96879
68.8887 29.0606 3.96701
67.5021 24.948 3.96378
65.8722 27.7266 3.97583
64.0165 10.9835 4
64.4451 23.9465 3.97272
63.8797 14.3311 3.96229
63.3804 17.5066 3.95379
62.6071 20.4603 3.96521
61.6069 23.1572 3.97373
60.6759 11.1053 3.96722
57.5989 11.5155 3.95982
72.1454 51.8506 0
69.9759 56.25 0
68.8302 53.1148 0.0317384
64.0165 64.0165 0
63.8768 60.7609 0.0378576
66.6027 57.1347 0.0328004
63.3849 57.7167 0.0436008
62.2255 65.694 2
58.8898 65.4019 2
69.7635 50.987 2
67.7771 55.1639 2
66.5196 52.1648 2
62.331 62.413 2
64.5198 55.9757 2
62.1302 59.346 2
61.5539 56.5391 2
60.6604 63.9707 3.96463
57.0179 66.7266 3.97031
57.5395 63.6236 3.96699
67.3843 50.1403 3.96486
65.5703 54.1259 3.96144
64.198 51.2647 3.97315
60.7429 60.8822 3.95122
62.5146 54.9313 3.9677
60.3752 57.9987 3.95808
59.9073 55.5686 3.96947
56.25 69.9759 4
58.3339 68.6801 2
60.3285 67.2507 0
58.9143 9.66463 3.96756
62.2254 9.30607 4
73.0099 49.554 0
74.2788 44.8158 0
71.2456 46.5978 0.028957
72.1651 42.0855 0.0272092
74.9194 39.9526 0
75 37.5 2
72.4016 39.8018 2
71.7784 44.351 2
69.7625 41.7832 2
70.5704 48.8115 2
68.8352 45.9948 2
72.4859 37.513 3.97359
70.0089 39.656 3.96913
69.3745 43.8961 3.96904
67.2972 41.4657 3.97657
68.1616 48.0793 3.9668
66.3774 45.3686 3.97603
74.9197 35.0474 0
74.2794 30.1841 0
72.1818 32.9453 0.0270557
71.2749 28.4335 0.0289762
65.694 12.7746 0
65.3146 16.1039 0.0357997
69.8108 24.0599 0.0307169
68.2518 26.9808 0.0345886
66.6446 22.9751 0.0373506
64.5687 19.2519 0.0427197
63.5774 22.1638 0.031263
72.4095 35.2253 2
71.7999 30.6793 2
69.7992 33.2794 2
68.8912 29.0614 2
64.0165 10.9835 2
63.8823 14.3389 2
63.3987 17.5028 2
67.5045 24.9492 2
65.8689 27.7285 2
62.6138 20.4602 2
64.444 23.9483 2
61.6066 23.1597 2
60.6793 11.1119 2
57.5919 11.5055 2
70.022 35.3982 3.96885
69.4112 31.1651 3.96802
67.362 33.6281 3.97634
66.4554 29.6982 3.97608
65.2071 25.804 3.97459
63.6167 28.3957 3.9751
62.3317 12.661 3.96438
62.349 24.8329 3.97387
62.1281 15.8395 3.95197
61.5183 18.8389 3.96147
60.7503 21.569 3.9719
59.7834 24.0176 3.97382
59.2233 12.8394 3.95542
55.8629 10.3038 3.97
56.3552 13.2325 3.95441
69.7638 50.9899 0.030702
62.2254 65.694 0
58.8856 65.4083 0.0298925
67.7764 55.1692 0.0324229
66.518 52.1663 0.0369065
62.3275 62.4218 0.0346812
62.1283 59.3474 0.0480306
64.5235 55.9781 0.0409702
61.5475 56.5386 0.0372053
60.6645 63.9618 2
57.0215 66.7214 2
57.544 63.6423 2
67.3849 50.1387 2
65.5706 54.1241 2
64.1964 51.2632 2
60.7258 60.8882 2
62.5189 54.9316 2
60.3744 57.9972 2
59.9032 55.5657 2
55.0643 67.9298 3.9794
59.2046 62.2904 3.96927
55.7787 64.8302 3.9655
56.2863 61.9834 3.97755
64.9779 49.2991 3.97486
63.3753 53.1617 3.97067
61.8793 50.4496 3.97349
59.1552 59.4116 3.95569
60.6039 54.0906 3.97244
58.8041 56.759 3.95988
58.6944 54.9098 3.97063
48.0948 68.5651 3.97691
50.9428 69.9289 3.98315
54.0858 71.1327 4
56.25 69.976 2
58.3339 68.6801 0
57.0534 8.34152 3.97353
60.3285 7.74928 4
58.9172 9.67195 2
62.2255 9.30602 2
70.5709 48.8137 0.0297177
71.779 44.3526 0.0278844
68.8332 45.9959 0.0316689
69.7619 41.7839 0.0308611
72.4023 39.8026 0.0263276
75 37.5 0
72.4846 37.5124 2
70.01 39.6556 2
69.3742 43.8952 2
67.2936 41.4652 2
68.1608 48.0777 2
66.3733 45.3678 2
70.0974 37.5239 3.96904
67.544 39.499 3.97652
66.9083 43.4192 3.97638
65.0659 41.1651 3.97607
65.7177 47.3256 3.97561
64.1201 44.7477 3.97554
72.4103 35.2257 0.0261965
71.8007 30.6786 0.0276826
69.798 33.2789 0.0312099
68.8887 29.0606 0.0329872
64.0165 10.9835 0
63.8797 14.3311 0.0377083
63.3804 17.5066 0.0462081
67.5021 24.948 0.0362164
65.8722 27.7266 0.0241733
64.4451 23.9465 0.0272835
62.6071 20.4603 0.0347926
61.6069 23.1572 0.0262651
60.6759 11.1053 0.0327778
57.5989 11.5155 0.0401844
70.0232 35.3984 2
69.4127 31.1657 2
67.3588 33.6287 2
66.4517 29.6995 2
62.3352 12.6684 2
62.1376 15.8401 2
61.5221 18.84 2
65.2043 25.806 2
63.616 28.3962 2
60.7496 21.5721 2
62.3478 24.8342 2
59.7809 24.0192 2
59.2197 12.8309 2
56.3491 13.2294 2
55.8635 10.3068 2
67.5855 35.5682 3.97654
66.9602 31.6796 3.97628
65.2235 33.9798 3.97614
64.1413 30.3052 3.97525
63.015 26.5863 3.97473
61.5471 28.971 3.97486
60.7336 14.2836 3.95218
60.3631 25.5999 3.97399
60.3457 17.2908 3.95931
59.7472 20.066 3.96762
59.0375 22.5687 3.97261
58.1932 24.6757 3.97366
54.0365 9.16974 3.97567
57.8019 14.4782 3.95343
54.7612 12.1407 3.96897
55.1907 14.8424 3.95383
67.3843 50.1403 0.0351374
57.0179 66.7266 0.0296858
60.6604 63.9707 0.0353711
57.5395 63.6236 0.0330081
65.5703 54.1259 0.0385638
64.198 51.2647 0.0268456
60.7429 60.8822 0.0487826
60.3752 57.9987 0.0419245
62.5146 54.9313 0.032298
59.9073 55.5686 0.0305267
55.0689 67.9227 2
59.1965 62.3 2
55.7834 64.824 2
56.2834 61.9894 2
64.9755 49.2974 2
63.3752 53.1607 2
61.8783 50.4489 2
59.1749 59.4165 2
60.6022 54.0883 2
58.8106 56.7592 2
58.7026 54.9097 2
53.0362 68.9946 3.97953
53.9473 65.9649 3.96768
57.7808 60.7584 3.94892
54.6394 63.0687 3.96652
55.1253 60.4809 3.97342
62.6229 48.4857 3.97397
61.2178 52.357 3.97286
59.5018 49.7304 3.97269
57.6738 58.0423 3.95679
58.7235 53.6588 3.97233
57.4687 55.4901 3.96288
50.0983 67.8412 3.97202
47.4462 66.546 3.97316
46.0507 69.1454 3.97978
48.0995 68.5648 2
48.7972 70.7205 3.98623
50.9485 69.9256 2
51.8506 72.1454 4
54.0858 71.1327 2
56.25 69.9759 0
55.0994 7.14358 3.98596
58.3339 6.31992 4
57.0579 8.34643 2
60.3286 7.74926 2
58.9143 9.66463 0.0324362
62.2254 9.30607 0
68.1616 48.0793 0.033203
69.3745 43.8961 0.0309552
66.3774 45.3686 0.0239717
67.2972 41.4657 0.0234344
70.0089 39.656 0.0308659
72.4859 37.513 0.0264111
70.0995 37.5238 2
67.5402 39.4988 2
66.9056 43.418 2
65.0659 41.1649 2
65.7147 47.3239 2
64.1198 44.7476 2
67.6468 37.5262 3.97647
65.3081 39.3502 3.97629
64.6708 42.9502 3.97593
63.0911 40.8677 3.97637
63.404 46.5808 3.9744
62.0861 44.085 3.97572
70.022 35.3982 0.0311502
69.4112 31.1651 0.031985
67.362 33.6281 0.0236598
66.4554 29.6982 0.0239239
62.3317 12.661 0.0356203
62.1281 15.8395 0.048027
61.5183 18.8389 0.0385322
65.2071 25.804 0.025407
63.6167 28.3957 0.0249004
62.349 24.8329 0.0261314
60.7503 21.569 0.0280962
59.7834 24.0176 0.0261797
59.2233 12.8394 0.044579
56.3552 13.2325 0.0455892
55.8629 10.3038 0.0300047
67.5821 35.5685 2
66.9571 31.6806 2
65.2227 33.98 2
64.1415 30.3053 2
60.7271 14.283 2
60.3376 17.2948 2
59.7447 20.0695 2
63.014 26.587 2
61.5474 28.9711 2
59.0363 22.5719 2
60.3625 25.6005 2
58.1887 24.6778 2
57.7978 14.47 2
55.1779 14.8261 2
54.0403 9.16192 2
54.7518 12.1362 2
65.4071 35.6958 3.9762
64.6803 32.2335 3.97558
63.6783 34.3113 3.97615
61.871 30.7875 3.9753
60.9458 27.2965 3.97438
59.9957 29.3722 3.97537
59.1095 15.8304 3.95605
58.4861 26.1212 3.97457
58.6663 18.6192 3.96212
58.1143 21.1849 3.96864
57.5325 23.4695 3.97245
57.0975 25.0588 3.97456
52.1036 8.19232 3.9651
53.0434 11.0935 3.95765
56.4602 15.9619 3.95492
53.7369 13.8395 3.95275
54.16 16.2375 3.95878
55.0643 67.9298 0.0205975
64.9779 49.2991 0.0251431
55.7787 64.8302 0.0344953
59.2046 62.2904 0.0307263
56.2863 61.9834 0.0224452
63.3753 53.1617 0.0293298
61.8793 50.4496 0.0265069
59.1552 59.4116 0.0443135
58.8041 56.759 0.0401245
60.6039 54.0906 0.0275612
58.6944 54.9098 0.0293721
53.0421 68.9905 2
53.9514 65.9575 2
57.7843 60.7806 2
54.6325 63.0629 2
55.1224 60.4855 2
62.6223 48.485 2
61.217 52.3555 2
59.5016 49.7295 2
57.6724 58.0424 2
58.7277 53.6571 2
57.4653 55.4861 2
52.0554 66.9678 3.9715
52.9206 64.1185 3.96784
56.4373 59.3018 3.9536
53.5911 61.424 3.96578
54.1071 59.1241 3.96382
60.1919 47.6434 3.97353
59.0091 51.815 3.97249
57.0689 49.2541 3.97298
56.3298 56.7118 3.95844
56.297 53.7363 3.96704
50.1027 67.8371 2
49.3141 65.8631 3.97112
47.4518 66.5365 2
46.8662 64.6569 3.97791
45.5492 67.0678 3.97821
43.9704 69.5778 3.98176
46.0546 69.1462 2
46.6047 71.365 3.98791
48.0948 68.5651 0.0230911
48.8026 70.7187 2
49.554 73.0099 4
50.9428 69.9289 0.0168488
51.8506 72.1455 2
54.0858 71.1327 0
53.0623 6.08087 3.97989
55.1035 7.14588 2
56.25 5.02411 4
58.3339 6.3199 2
57.0534 8.34152 0.0264671
60.3285 7.74928 0
65.7177 47.3256 0.0243945
66.9083 43.4192 0.0236213
64.1201 44.7477 0.0244552
65.0659 41.1651 0.0239312
67.544 39.499 0.0234809
70.0974 37.5239 0.0309555
67.6428 37.5261 2
65.308 39.3502 2
64.6702 42.9499 2
63.0918 40.8678 2
63.4039 46.5801 2
62.0863 44.0853 2
65.4172 37.5069 3.97618
63.2395 39.2405 3.9764
62.6375 42.4567 3.97613
61.6234 40.6274 3.9765
61.1989 45.7349 3.97492
60.5786 43.532 3.97633
67.5855 35.5682 0.0234588
66.9602 31.6796 0.0237211
65.2235 33.9798 0.0238554
64.1413 30.3052 0.0247547
60.7336 14.2836 0.0478154
60.3457 17.2908 0.0406877
59.7472 20.066 0.032377
63.015 26.5863 0.0252717
61.5471 28.971 0.0251391
60.3631 25.5999 0.0260139
59.0375 22.5687 0.0273883
58.1932 24.6757 0.0263374
57.8019 14.4782 0.0465658
55.1907 14.8424 0.0461677
54.0365 9.16974 0.0243342
54.7612 12.1407 0.0310276
65.4067 35.6959 2
64.68 32.234 2
63.6794 34.3111 2
61.8712 30.7871 2
59.1263 15.8287 2
58.6692 18.6213 2
58.1083 21.1895 2
60.9459 27.2971 2
59.9964 29.3724 2
57.5279 23.4729 2
58.4836 26.1219 2
57.0922 25.0609 2
56.4422 15.9682 2
54.1562 16.236 2
53.7224 13.8275 2
52.1029 8.2003 2
53.0408 11.0875 2
63.4535 35.6722 3.97623
62.1989 33.1492 3.97594
59.6917 30.8204 3.97532
58.6452 28.2039 3.97475
57.5706 17.2353 3.9566
56.7721 26.126 3.97447
57.1098 19.82 3.96159
56.6062 22.2467 3.96869
56.297 24.3752 3.97324
50.1035 7.32124 3.97167
51.1916 10.2278 3.96528
52.1133 12.9302 3.96603
55.1953 17.2629 3.95533
52.8333 15.4893 3.96294
53.4627 17.2737 3.95483
53.0362 68.9946 0.020473
53.9473 65.9649 0.0323234
62.6229 48.4857 0.0260304
54.6394 63.0687 0.0334815
57.7808 60.7584 0.0510789
55.1253 60.4809 0.0265817
61.2178 52.357 0.0271421
59.5018 49.7304 0.0273148
57.6738 58.0423 0.0432083
57.4687 55.4901 0.0371189
58.7235 53.6588 0.0276736
52.0596 66.9717 2
52.9167 64.107 2
56.436 59.3055 2
53.5843 61.4173 2
54.1063 59.1208 2
60.1918 47.6428 2
59.0104 51.8136 2
57.0692 49.254 2
56.3248 56.7121 2
56.2964 53.7334 2
51.1399 65.0527 3.96345
51.9723 62.3732 3.96197
55.1746 58.0141 3.95856
52.6612 59.8956 3.95636
53.419 58.2385 3.96152
57.1978 46.5132 3.97429
56.6942 51.3959 3.97278
55.1766 49.1037 3.97497
54.9338 55.4685 3.95864
54.4669 52.9648 3.9593
50.0983 67.8412 0.0279784
49.318 65.863 2
48.5815 64.0299 3.9756
47.4462 66.546 0.0268415
45.5505 67.0786 2
46.8705 64.6524 2
46.3443 62.9536 3.98802
45.1113 65.152 3.9819
43.6257 67.4489 3.97973
41.859 69.867 3.98206
43.9725 69.5802 2
44.3729 71.8592 3.98874
46.0507 69.1454 0.0202206
46.6089 71.3639 2
47.2057 73.7222 4
48.7972 70.7205 0.0137656
49.554 73.0099 2
51.8506 72.1454 0
50.9538 5.13616 3.98497
53.0643 6.07969 2
54.0858 3.86728 4
55.0994 7.14358 0.0140403
56.25 5.02406 2
58.3339 6.31992 0
63.404 46.5808 0.0256028
64.6708 42.9502 0.0240663
62.0861 44.085 0.0242814
63.0911 40.8677 0.023627
65.3081 39.3502 0.0237148
67.6468 37.5262 0.0235252
65.4167 37.507 2
63.2408 39.2405 2
62.6384 42.4565 2
61.6237 40.6274 2
61.199 45.7344 2
60.5782 43.5319 2
63.3047 37.4633 3.97642
61.3114 39.3152 3.97675
60.3043 41.8374 3.97688
59.2689 44.5539 3.97535
65.4071 35.6958 0.0238016
64.6803 32.2335 0.0244219
63.6783 34.3113 0.0238546
61.871 30.7875 0.0246971
59.1095 15.8304 0.0439467
58.6663 18.6192 0.03788
58.1143 21.1849 0.0313591
60.9458 27.2965 0.0256248
59.9957 29.3722 0.0246318
58.4861 26.1212 0.0254254
57.5325 23.4695 0.0275472
57.0975 25.0588 0.0254405
56.4602 15.9619 0.045081
54.16 16.2375 0.0412239
53.7369 13.8395 0.0472494
52.1036 8.19232 0.0348989
53.0434 11.0935 0.0423451
63.4548 35.6722 2
62.2002 33.1496 2
59.6918 30.8203 2
57.5748 17.237 2
57.1055 19.8225 2
56.6023 22.251 2
58.6452 28.2033 2
56.3008 24.3765 2
56.7707 26.1251 2
50.1108 7.29438 2
55.1947 17.2597 2
53.4663 17.2635 2
52.821 15.4839 2
52.1217 12.9355 2
51.1952 10.2287 2
61.352 35.4191 3.9765
59.2836 32.9017 3.97593
57.5087 30.3602 3.97485
56.2018 27.7672 3.97463
56.1461 18.4807 3.95857
55.256 25.5684 3.97327
55.6384 20.934 3.96167
55.2294 23.3374 3.96875
48.0567 6.53564 3.97856
49.2963 9.39888 3.97157
50.3687 12.1668 3.96562
51.2599 14.6756 3.97797
54.0054 18.2625 3.95801
52.0847 17.3311 3.95681
52.0554 66.9678 0.0284986
52.9206 64.1185 0.0321562
60.1919 47.6434 0.0264696
53.5911 61.424 0.0342231
56.4373 59.3018 0.0464016
54.1071 59.1241 0.0361836
59.0091 51.815 0.0275073
57.0689 49.2541 0.0270162
56.3298 56.7118 0.0415562
56.297 53.7363 0.0329588
51.1433 65.0573 2
51.9792 62.4095 2
55.1757 58.0121 2
52.6485 59.8899 2
53.4245 58.2397 2
57.1968 46.5123 2
56.694 51.3936 2
55.1762 49.1027 2
54.9302 55.4659 2
54.4635 52.9626 2
50.2978 63.2868 3.97062
51.1059 60.7289 3.96981
53.8571 56.9953 3.96631
51.9851 58.3575 3.96396
55.3368 43.8772 3.97497
54.2428 47.4342 3.97468
53.9403 50.903 3.96582
53.3425 54.174 3.96229
49.3141 65.8631 0.028881
48.5801 64.0529 2
47.9044 62.3774 3.99045
45.5492 67.0678 0.0217858
46.8662 64.6569 0.0220901
43.6277 67.4507 2
46.3424 62.9545 2
45.1182 65.1392 2
45.9347 61.4654 3.98984
44.7394 63.3702 3.97752
43.3456 65.4738 3.98003
41.6603 67.6688 3.97822
39.7017 70.0139 3.98088
41.8603 69.8688 2
42.1085 72.2037 3.98989
43.9704 69.5778 0.0182399
44.3761 71.8593 2
44.8159 74.2794 4
46.6047 71.365 0.0120886
47.2057 73.7222 2
49.554 73.0099 0
48.7846 4.32564 3.98565
50.9536 5.13608 2
51.8506 2.85458 4
53.0623 6.08087 0.0201084
54.0858 3.86728 2
56.25 5.02411 0
61.1989 45.7349 0.0250762
62.6375 42.4567 0.0238725
60.5786 43.532 0.0236729
61.6234 40.6274 0.023504
63.2395 39.2405 0.0236031
65.4172 37.5069 0.0238192
63.3056 37.4634 2
61.3118 39.3154 2
60.304 41.8374 2
59.2694 44.5535 2
61.1272 37.4519 3.97692
59.1868 39.7789 3.9765
57.8395 42.7344 3.97603
63.4535 35.6722 0.0237669
62.1989 33.1492 0.0240616
59.6917 30.8204 0.0246758
57.5706 17.2353 0.0434031
57.1098 19.82 0.038411
56.6062 22.2467 0.0313089
58.6452 28.2039 0.0252535
56.7721 26.126 0.0255267
56.297 24.3752 0.0267584
55.1953 17.2629 0.0446724
53.4627 17.2737 0.045175
52.8333 15.4893 0.0370564
50.1035 7.32124 0.0283296
52.1133 12.9302 0.0339701
51.1916 10.2278 0.0347222
61.3527 35.4193 2
59.2832 32.9022 2
57.5085 30.3609 2
56.1467 18.4809 2
55.6538 20.9298 2
55.2437 23.3392 2
56.2017 27.7674 2
55.2586 25.5721 2
48.0516 6.54684 2
49.2988 9.39975 2
54.018 18.2605 2
52.0885 17.3241 2
51.2535 14.6741 2
50.3735 12.1622 2
58.7939 35.2039 3.97628
56.7279 32.4944 3.975
55.2779 29.7087 3.97492
54.2499 27.0934 3.97365
54.7914 19.5641 3.9609
53.9251 24.5634 3.9709
54.1886 22.0332 3.96591
45.9611 5.89725 3.97881
43.3687 7.49775 3.9787
47.3357 8.6663 3.97037
48.5541 11.4107 3.96595
49.6023 13.943 3.97957
50.4338 16.3627 3.95992
52.6925 19.049 3.95522
50.9887 18.4429 3.9556
51.1399 65.0527 0.0365529
51.9723 62.3732 0.0380303
57.1978 46.5132 0.0257079
52.6612 59.8956 0.0436354
55.1746 58.0141 0.0414379
53.419 58.2385 0.0384812
56.6942 51.3959 0.0272162
55.1766 49.1037 0.0250275
54.9338 55.4685 0.0413582
54.4669 52.9648 0.0407038
50.2924 63.2692 2
51.1032 60.7337 2
53.852 56.994 2
51.9758 58.3575 2
55.3395 43.8763 2
54.2433 47.4341 2
53.9362 50.9005 2
53.3309 54.1726 2
49.4957 61.6378 3.97617
53.9919 41.5259 3.97474
50.3323 59.0945 3.96965
51.6734 56.162 3.96231
52.6117 45.0871 3.97246
52.0014 48.7772 3.96988
51.7738 52.4093 3.95804
48.5815 64.0299 0.024403
47.8971 62.3847 2
47.2463 60.8925 3.99182
43.6257 67.4489 0.0202681
45.1113 65.152 0.018103
46.3443 62.9536 0.011983
41.6632 67.6699 2
43.356 65.4671 2
45.9346 61.4738 2
44.7402 63.3641 2
45.6773 60.5081 3.99841
44.4407 61.7323 3.98792
43.1283 63.657 3.9815
41.5412 65.6087 3.97215
39.6315 67.7467 3.97599
37.5265 70.0384 3.9813
39.7025 70.0138 2
39.8164 72.4012 3.99009
41.859 69.867 0.0179367
42.1104 72.2045 2
42.3947 74.6792 4
44.3729 71.8592 0.0112618
44.8159 74.2794 2
47.2057 73.7222 0
43.8497 5.37061 3.97813
46.569 3.65119 3.987
48.7836 4.32894 2
49.554 1.99015 4
50.9538 5.13616 0.015025
51.8506 2.85453 2
54.0858 3.86728 0
59.2689 44.5539 0.0246482
60.3043 41.8374 0.0231201
61.3114 39.3152 0.0232503
63.3047 37.4633 0.0235788
61.1274 37.4519 2
59.1855 39.7792 2
57.8371 42.7332 2
58.6369 37.5721 3.97689
56.7073 40.5244 3.97761
53.358 39.5881 3.97679
61.352 35.4191 0.023498
59.2836 32.9017 0.0240658
57.5087 30.3602 0.0251536
56.1461 18.4807 0.0414311
55.6384 20.934 0.0383328
55.2294 23.3374 0.0312452
56.2018 27.7672 0.0253684
55.256 25.5684 0.0267343
54.0054 18.2625 0.0419911
52.0847 17.3311 0.0431917
51.2599 14.6756 0.0220305
48.0567 6.53564 0.0214426
49.2963 9.39888 0.028431
50.3687 12.1668 0.0343768
58.7923 35.2033 2
45.9613 5.89521 2
43.3688 7.50028 2
56.7278 32.495 2
55.2797 29.7071 2
54.7804 19.5691 2
54.2137 22.0328 2
53.9237 24.5718 2
54.2498 27.0926 2
47.3384 8.65678 2
48.5566 11.4051 2
52.698 19.0159 2
51.0001 18.4396 2
50.4465 16.3691 2
49.5994 13.9423 2
56.0135 34.8899 3.97728
54.2519 31.8468 3.97412
53.1163 28.8753 3.97536
52.6192 26.0468 3.97252
53.3725 20.563 3.96692
52.7112 23.2423 3.96994
41.3959 7.09509 3.97648
45.3471 8.01429 3.98352
42.8552 9.45063 3.97295
46.6364 10.7378 3.97297
47.6621 13.242 3.97543
48.7494 15.5963 3.97405
49.7154 18.0159 3.95677
51.2067 19.7618 3.97679
50.2978 63.2868 0.0293808
51.1059 60.7289 0.0301935
55.3368 43.8772 0.025035
54.2428 47.4342 0.0253157
51.9851 58.3575 0.0360365
53.8571 56.9953 0.0336947
53.9403 50.903 0.0341812
53.3425 54.174 0.0377136
49.4991 61.6363 2
53.9822 41.5182 2
50.3289 59.1016 2
51.6748 56.1656 2
52.603 45.0815 2
51.9968 48.7745 2
51.7762 52.4093 2
48.6893 60.0775 3.99544
50.519 42.2989 3.98213
49.4311 57.3808 3.96012
49.9166 54.0422 3.95967
50.2751 46.6601 3.97703
50.1112 50.4407 3.95453
46.3115 43.2074 3.95497
47.9044 62.3774 0.00954611
47.2487 60.889 2
46.4874 59.6776 3.99346
41.6603 67.6688 0.0217754
43.3456 65.4738 0.0199694
44.7394 63.3702 0.0224771
45.9347 61.4654 0.0101632
39.6344 67.7469 2
41.5479 65.6056 2
45.6822 60.5145 2
43.1266 63.6581 2
44.4403 61.7297 2
44.5613 60.1633 3.99381
42.9163 61.992 3.97987
41.5849 63.7744 3.98336
39.6436 65.5815 3.97501
37.5631 67.7294 3.97531
31.705 65.0895 3.97479
33.3953 67.4675 3.97852
35.3349 69.9504 3.98175
37.5264 70.0405 2
37.5097 72.455 3.99066
39.7017 70.0139 0.0191234
39.8176 72.4011 2
39.9526 74.9197 4
42.1085 72.2037 0.0101082
42.3947 74.6792 2
44.8159 74.2794 0
41.7347 4.97795 3.98283
43.8496 5.37152 2
44.3253 3.11363 3.98873
46.5703 3.65053 2
47.2057 1.27793 4
48.7846 4.32564 0.0143459
49.554 1.99013 2
51.8506 2.85458 0
57.8395 42.7344 0.0239691
59.1868 39.7789 0.0235034
61.1272 37.4519 0.0230836
58.6375 37.5725 2
56.7072 40.5262 2
53.3519 39.594 2
55.3314 37.8824 3.97701
47.5267 41.0465 3.96555
51.0206 39.2408 3.97952
39.4386 6.8177 3.97618
58.7939 35.2039 0.0237196
56.7279 32.4944 0.0249987
55.2779 29.7087 0.0250829
54.7914 19.5641 0.0391037
54.1886 22.0332 0.0340945
53.9251 24.5634 0.0291045
54.2499 27.0934 0.02635
52.6925 19.049 0.0447789
50.9887 18.4429 0.0444018
50.4338 16.3627 0.0400788
45.9611 5.89725 0.0211927
49.6023 13.943 0.0204279
47.3357 8.6663 0.0296299
48.5541 11.4107 0.0340455
43.3687 7.49775 0.021304
56.0104 34.8913 2
41.3964 7.09729 2
45.348 8.01299 2
42.8536 9.45042 2
54.2463 31.8461 2
53.1106 28.8775 2
53.3715 20.5701 2
52.6956 23.2573 2
52.623 26.0424 2
46.6367 10.7291 2
47.6638 13.2279 2
51.2231 19.7599 2
49.7179 17.9852 2
48.7631 15.6175 2
53.1278 34.165 3.97567
51.8631 30.9233 3.97483
51.2499 27.7632 3.97509
51.1009 24.6775 3.97256
51.7501 21.5509 3.97116
41.0048 9.0697 3.97647
44.7092 10.05 3.9786
42.4449 10.9474 4.00161
45.9378 12.8218 3.97452
47.5471 14.7669 3.97791
47.8574 17.1886 3.96978
49.4636 20.1553 3.98702
49.4957 61.6378 0.0238255
50.3323 59.0945 0.0303492
53.9919 41.5259 0.0252564
52.6117 45.0871 0.0275367
52.0014 48.7772 0.0301232
51.6734 56.162 0.0376931
51.7738 52.4093 0.0419642
48.6856 60.0805 2
50.5414 42.3263 2
49.4285 57.3758 2
49.9153 54.0438 2
50.2753 46.6592 2
50.1142 50.4403 2
46.3196 43.2392 2
47.7649 58.5283 3.99145
48.303 44.8045 3.9837
48.1238 55.6232 3.94733
48.3166 52.1645 3.97186
48.4104 48.4857 3.97584
43.9406 39.6391 3.79805
44.531 42.1668 3.84713
44.9337 45.1035 3.96573
41.8945 40.9366 3.53971
41.0396 41.3346 3.34455
47.2463 60.8925 0.00817591
46.4935 59.6779 2
45.3255 58.641 3.99346
39.6315 67.7467 0.0240148
41.5412 65.6087 0.0278476
43.1283 63.657 0.0185008
44.4407 61.7323 0.0120755
45.6773 60.5081 0.00159208
41.5886 63.7691 2
37.5654 67.732 2
39.6483 65.5844 2
44.558 60.1802 2
42.9158 61.9883 2
41.7271 62.4222 3.98661
42.4341 59.8448 3.99012
39.8831 63.5145 3.98001
37.6408 65.4828 3.97667
35.4641 67.6399 3.97464
33.5797 65.3082 3.97291
31.9751 63.2451 3.99444
29.9003 64.6795 3.98204
31.6967 65.0982 2
31.3841 67.1808 3.97894
33.3967 67.4726 2
33.1591 69.7432 3.98191
35.3344 69.9515 2
35.197 72.3706 3.99114
37.5265 70.0384 0.0186962
37.5103 72.4559 2
37.5 75 4
39.8164 72.4012 0.00991392
39.9526 74.9197 2
42.3947 74.6792 0
39.6233 4.72376 3.98471
41.7346 4.97882 2
42.0618 2.72067 3.98929
43.8497 5.37061 0.0218739
44.3253 3.1139 2
44.8158 0.721173 4
46.569 3.65119 0.013
47.2057 1.27779 2
49.554 1.99015 0
56.7073 40.5244 0.0223899
58.6369 37.5721 0.0231061
53.358 39.5881 0.0232135
47.5679 41.0683 2
55.33 37.8803 2
51.0404 39.2211 2
51.9704 36.6335 3.97696
45.4379 40.1657 3.87422
48.3177 38.4404 3.96102
37.5131 6.68763 3.98069
39.4398 6.81645 2
39.2073 8.72117 3.98672
35.9429 8.51822 3.97475
56.0135 34.8899 0.022719
54.2519 31.8468 0.0258819
53.1163 28.8753 0.0246421
53.3725 20.563 0.0330836
52.7112 23.2423 0.0300627
52.6192 26.0468 0.0274848
51.2067 19.7618 0.0232066
49.7154 18.0159 0.0432314
48.7494 15.5963 0.0259479
45.3471 8.01429 0.0164827
47.6621 13.242 0.0245671
46.6364 10.7378 0.0270346
41.3959 7.09509 0.0235216
42.8552 9.45063 0.0270492
53.13 34.1705 2
41.0023 9.07299 2
44.7096 10.0429 2
42.4453 10.9479 2
51.8666 30.9207 2
51.2513 27.7658 2
51.7356 21.5575 2
51.087 24.6854 2
45.9366 12.8108 2
47.5427 14.7453 2
49.4926 20.1741 2
47.8588 17.1766 2
50.476 33.1826 3.97433
49.6606 29.7564 3.9768
49.5489 26.3 3.97156
49.2712 22.726 3.97439
40.5562 11.6362 3.99048
43.8063 11.9789 3.97109
45.6648 15.6205 4.00793
47.1934 19.7118 3.97655
44.1267 37.5108 3.8104
48.6893 60.0775 0.00455661
49.4311 57.3808 0.0398755
50.519 42.2989 0.017871
50.2751 46.6601 0.0229735
50.1112 50.4407 0.0454659
49.9166 54.0422 0.0403322
46.3115 43.2074 0.0450328
47.7553 58.5325 2
48.3158 44.8134 2
48.1179 55.6235 2
48.3152 52.1693 2
48.4151 48.487 2
44.0561 39.661 2
44.5803 42.2215 2
44.939 45.1292 2
41.9832 41.0051 2
41.0903 41.3471 2
46.5471 57.1066 3.99359
42.4426 39.4237 3.54104
41.4056 40.3459 3.32743
46.626 46.7118 3.99797
46.5957 53.8757 3.95271
46.6272 50.2807 3.97287
43.6423 46.6953 3.97433
43.2322 41.5904 3.80509
43.5082 43.9124 3.83594
41.3947 42.0434 3.55334
40.2469 41.6014 3.25923
46.4874 59.6776 0.00653527
45.3197 58.6444 2
43.7426 57.4936 3.99626
37.5631 67.7294 0.0246917
39.6436 65.5815 0.0249946
41.5849 63.7744 0.0166392
42.9163 61.992 0.0201316
44.5613 60.1633 0.00619021
35.4657 67.641 2
41.7258 62.4179 2
39.8845 63.5188 2
37.6432 65.4867 2
42.432 59.8534 2
40.601 61.5553 3.98956
40.4014 58.0284 3.99352
37.8324 63.1671 3.9749
35.574 65.3991 3.97337
33.5742 65.3006 2
31.9733 63.2287 2
33.6381 63.299 3.99156
30.4108 62.7756 3.97925
32.1414 61.9444 3.98432
26.9489 61.3403 3.98937
28.0942 64.0689 3.98795
29.8956 64.6738 2
29.4169 66.7327 3.9799
31.705 65.0895 0.025206
31.385 67.1838 2
31.0176 69.4091 3.98254
33.3953 67.4675 0.0214848
33.158 69.7461 2
32.8955 72.1446 3.99062
35.3349 69.9504 0.0182477
35.1964 72.3713 2
35.0474 74.9194 4
37.5097 72.455 0.00934062
37.5 75 2
39.9526 74.9197 0
35.6187 6.74016 3.97723
37.5235 4.62336 3.98472
39.6229 4.7225 2
39.7887 2.47668 3.99097
41.7347 4.97795 0.0171678
42.0617 2.72094 2
42.3946 0.32156 4
44.3253 3.11363 0.01127
44.8159 0.72056 2
47.2057 1.27793 0
47.5267 41.0465 0.0344537
55.3314 37.8824 0.0229864
51.0206 39.2408 0.0204814
45.5246 40.1561 2
48.3851 38.4564 2
51.9599 36.6321 2
49.1966 35.6715 3.97842
45.9317 37.6761 3.8224
43.9779 35.3538 3.80086
41.9464 34.0311 3.5392
41.0872 33.6205 3.34887
37.4583 8.55203 3.97759
37.5144 6.68779 2
39.4386 6.8177 0.0238199
39.2067 8.72564 2
38.9709 10.1617 3.99408
35.8994 9.80301 3.98151
34.1534 8.8504 3.9756
35.9409 8.51728 2
53.1278 34.165 0.024329
51.8631 30.9233 0.0251711
51.2499 27.7632 0.0249111
51.7501 21.5509 0.0288368
51.1009 24.6775 0.027442
49.4636 20.1553 0.0129775
47.8574 17.1886 0.0302224
47.5471 14.7669 0.0220876
44.7092 10.05 0.0214002
45.9378 12.8218 0.0254825
41.0048 9.0697 0.0235256
42.4449 10.9474 -0.00160947
50.5034 33.1657 2
40.5595 11.6505 2
43.8056 11.9504 2
49.6678 29.7524 2
49.5474 26.3187 2
49.2662 22.7172 2
45.6499 15.562 2
47.2178 19.7664 2
48.0903 31.7387 3.97959
47.8653 28.0895 3.97605
48.4183 24.8989 3.96085
46.6986 22.5498 3.98724
38.3024 12.7864 3.97979
42.0387 14.4382 3.99929
44.5548 18.7193 3.98618
42.62 37.493 3.52788
44.2594 37.5003 2
47.7649 58.5283 0.00854661
48.1238 55.6232 0.0526743
48.303 44.8045 0.0163049
48.4104 48.4857 0.0241564
48.3166 52.1645 0.0281437
43.9406 39.6391 0.201952
44.531 42.1668 0.152871
44.9337 45.1035 0.0342742
41.8945 40.9366 0.460292
41.0396 41.3346 0.65545
46.542 57.1094 2
42.5296 39.4316 2
41.4438 40.3443 2
46.6313 46.7162 2
46.5864 53.878 2
46.6256 50.2936 2
43.6839 46.7184 2
43.3038 41.6414 2
43.5786 43.9538 2
41.4596 42.1417 2
40.3509 41.6203 2
45.0381 55.6673 4.00445
41.6805 38.9632 3.3385
40.065 40.3387 3.33111
44.9982 48.3576 4.00576
44.8041 52.0872 3.99671
42.4956 47.6714 3.98513
42.3321 45.3358 3.84821
42.3815 43.1923 3.75783
40.6085 42.879 3.52563
39.0705 41.9193 3.35035
45.3255 58.641 0.0065355
43.7428 57.5055 2
41.9756 56.0264 3.99627
35.4641 67.6399 0.0253551
37.6408 65.4828 0.0233324
39.8831 63.5145 0.0199882
41.7271 62.4222 0.0133861
42.4341 59.8448 0.00988073
35.5756 65.4076 2
40.6014 61.5436 2
37.8345 63.1727 2
40.4012 58.0419 2
38.8963 56.1826 3.99626
38.2333 60.2345 3.98986
35.6088 63.162 3.97535
33.5797 65.3082 0.0270923
31.9751 63.2451 0.00555633
33.6364 63.3022 2
30.4072 62.7635 2
32.1532 61.9303 2
28.7383 62.0844 3.98833
33.3624 61.4681 3.99138
31.1476 61.1264 3.99978
27.7136 59.4411 3.97474
23.9776 58.8557 3.97142
25.1404 60.6572 3.98515
26.942 61.3499 2
26.2818 63.3798 3.97969
28.0947 64.0766 2
27.4815 66.1544 3.97601
29.9003 64.6795 0.0179562
29.4169 66.7458 2
28.9132 68.9292 3.97972
31.3841 67.1808 0.021062
31.0155 69.4107 2
30.6192 71.7766 3.99011
33.1591 69.7432 0.0180924
32.8938 72.1457 2
32.6054 74.6784 4
35.197 72.3706 0.00886209
35.0474 74.9197 2
37.5 75 0
33.7224 6.99851 3.97509
35.4361 4.69342 3.98451
35.6197 6.73961 2
37.515 2.38924 3.99096
37.5224 4.62268 2
39.6233 4.72376 0.015291
39.7882 2.47627 2
39.9526 0.0806499 4
42.0618 2.72067 0.0107054
42.3947 0.320817 2
44.8158 0.721173 0
42.4887 35.55 3.54489
41.4476 34.6012 3.31199
45.4379 40.1657 0.125783
48.3177 38.4404 0.0389759
51.9704 36.6335 0.0230409
45.9913 37.6983 2
49.251 35.6815 2
44.0913 35.3274 2
42.0294 33.9529 2
41.1096 33.6081 2
46.3424 34.6045 3.91479
43.2803 33.3727 3.79634
41.4275 32.9187 3.55535
40.2609 33.3613 3.25653
37.3099 10.6574 3.98099
37.4583 8.55136 2
37.5131 6.68763 0.0193099
39.2073 8.72117 0.0132756
38.974 10.1647 2
34.7591 10.4173 3.97453
35.9053 9.8025 2
32.3838 9.40318 3.97109
34.1518 8.8508 2
35.9429 8.51822 0.0252506
50.476 33.1826 0.0256708
49.6606 29.7564 0.0232001
49.5489 26.3 0.0284398
49.2712 22.726 0.0256052
47.1934 19.7118 0.0234548
45.6648 15.6205 -0.00793247
43.8063 11.9789 0.0289087
40.5562 11.6362 0.00952058
48.1092 31.7132 2
38.2982 12.7871 2
42.0447 14.4243 2
47.8541 28.0885 2
48.4176 24.914 2
46.6909 22.5443 2
44.5835 18.7903 2
46.1336 30.1399 3.9764
46.1223 25.6054 3.97793
43.9484 21.8292 3.98459
36.598 13.005 3.98071
38.6619 14.9586 3.98256
41.6282 18.0882 3.99038
41.7847 37.4579 3.33347
42.7179 37.4932 2
44.1267 37.5108 0.189599
46.5471 57.1066 0.00641335
46.5957 53.8757 0.0472942
46.626 46.7118 0.00202969
46.6272 50.2807 0.0271279
42.4426 39.4237 0.458964
43.2322 41.5904 0.194915
43.5082 43.9124 0.164055
43.6423 46.6953 0.025669
41.3947 42.0434 0.446656
41.4056 40.3459 0.672565
40.2469 41.6014 0.740766
45.0333 55.6673 2
41.7225 38.9681 2
40.1704 40.3224 2
44.9956 48.3848 2
44.7927 52.0862 2
42.5442 47.6972 2
42.3983 45.4272 2
42.4445 43.2267 2
40.6779 42.9792 2
39.0048 41.9738 2
43.3653 54.0549 4.0031
40.054 38.903 3.37016
38.9941 40.4447 3.34593
42.8526 49.7923 4.00506
41.2356 46.8038 3.90762
41.1341 44.3789 3.7599
39.3718 43.5629 3.54591
37.5084 42.0942 3.4296
43.7426 57.4936 0.00374102
41.9685 56.0155 2
40.2874 54.5733 3.99709
35.574 65.3991 0.0266343
37.8324 63.1671 0.0250972
40.601 61.5553 0.0104436
40.4014 58.0284 0.00648077
35.6099 63.1683 2
38.2345 60.2171 2
38.8972 56.1702 2
37.9638 54.8656 3.99585
36.9277 57.4426 3.9931
35.3645 60.8353 3.9842
33.6381 63.299 0.00844365
30.4108 62.7756 0.0207473
32.1414 61.9444 0.0156767
33.3793 61.4635 2
28.7288 62.0976 2
31.1415 61.1235 2
29.5308 60.2595 3.98689
32.3998 59.5925 3.99503
28.2082 58.181 4.00818
27.7143 59.4551 2
25.5754 58.3809 3.96835
23.0038 57.9927 3.96204
23.5223 60.1359 3.96876
23.9773 58.8552 2
25.1363 60.6558 2
24.5027 62.6413 3.96451
26.9489 61.3403 0.010632
26.2817 63.3971 2
25.5758 65.4289 3.97416
28.0942 64.0689 0.0120478
27.4764 66.139 2
26.8461 68.3212 3.98136
29.4169 66.7327 0.0201008
28.9086 68.9327 2
28.3756 71.2605 3.98696
31.0176 69.4091 0.01746
30.6164 71.7763 2
30.1842 74.2788 4
32.8955 72.1446 0.00938439
32.6053 74.6792 2
35.0474 74.9194 0
31.7882 7.44274 3.97251
33.349 4.93439 3.98206
33.7233 6.99752 2
35.2458 2.46532 3.99073
35.4341 4.69336 2
35.6187 6.74016 0.0227735
37.5 0 4
37.5136 2.38916 2
37.5235 4.62336 0.0152816
39.7887 2.47668 0.00902662
39.9526 0.0802889 2
42.3946 0.32156 0
41.6911 35.9563 3.27723
42.5939 35.5421 2
40.1205 34.6058 3.35872
41.4829 34.595 2
45.9317 37.6761 0.177603
49.1966 35.6715 0.0215792
43.9779 35.3538 0.199139
41.9464 34.0311 0.460797
41.0872 33.6205 0.651129
46.3955 34.5955 2
43.3421 33.3256 2
41.4813 32.8275 2
40.3267 33.3478 2
44.5715 32.1127 3.86875
42.405 31.7723 3.74659
40.6399 32.0824 3.53308
39.0588 33.0466 3.35339
35.7026 11.8249 3.97237
37.3173 10.6542 2
37.4583 8.55203 0.0224056
38.9709 10.1617 0.00592084
33.1103 11.2722 3.96957
34.7639 10.4121 2
35.8994 9.80301 0.0184876
30.4946 10.0684 3.97026
32.3818 9.40817 2
34.1534 8.8504 0.0243962
48.0903 31.7387 0.0204075
47.8653 28.0895 0.0239545
48.4183 24.8989 0.0391459
46.6986 22.5498 0.01276
44.5548 18.7193 0.0138175
42.0387 14.4382 0.000713752
38.3024 12.7864 0.0202116
36.5918 13.0046 2
46.1073 30.0858 2
38.6658 14.9351 2
41.5934 18.0482 2
46.1196 25.595 2
43.9457 21.8271 2
44.2832 28.3261 3.98495
43.1288 24.5105 4.00502
41.0783 21.1458 3.99576
35.7923 14.8404 3.99031
38.614 17.8444 3.9928
40.1053 37.4056 3.4038
41.8395 37.4684 2
42.62 37.493 0.472115
45.0381 55.6673 -0.0044472
44.8041 52.0872 0.00328531
44.9982 48.3576 -0.0057571
41.6805 38.9632 0.6615
42.3815 43.1923 0.242169
42.3321 45.3358 0.151793
42.4956 47.6714 0.0148724
40.6085 42.879 0.474368
40.065 40.3387 0.668892
39.0705 41.9193 0.649649
43.362 54.0473 2
40.1249 38.9066 2
38.9361 40.4456 2
42.8294 49.8136 2
41.24 46.8315 2
41.1575 44.4365 2
37.4903 42.1109 2
39.3842 43.666 2
41.5217 52.5113 4.00614
39.0005 38.9599 3.32717
37.5013 40.4745 3.43912
35.9203 41.9422 3.35131
40.5307 48.9763 3.986
39.5037 45.0953 3.73631
37.494 43.8889 3.59915
41.9756 56.0264 0.00373303
40.2816 54.5736 2
38.6503 53.324 3.99931
35.6088 63.162 0.0246509
38.2333 60.2345 0.0101351
38.8963 56.1826 0.00373588
35.3772 60.8237 2
36.9332 57.4546 2
37.9505 54.8612 2
36.3267 54.9955 3.99576
34.5069 58.358 3.99532
33.3624 61.4681 0.00862459
28.7383 62.0844 0.0116694
31.1476 61.1264 0.000223832
32.4006 59.5775 2
29.5302 60.2685 2
30.4398 57.5095 3.98257
28.1999 58.1629 2
27.2471 56.6042 3.96106
27.7136 59.4411 0.0252564
25.5759 58.3783 2
24.2055 56.5272 3.95247
21.7255 57.1063 3.9601
22.1477 59.4078 3.96705
22.9983 57.9953 2
22.823 61.8418 3.96902
23.5212 60.1366 2
23.9776 58.8557 0.0285786
25.1404 60.6572 0.0148505
24.5012 62.6555 2
23.7189 64.6353 3.96231
26.2818 63.3798 0.0203129
25.5696 65.4198 2
24.821 67.5829 3.96977
27.4815 66.1544 0.0239857
26.8405 68.3237 2
26.1714 70.6028 3.98674
28.9132 68.9292 0.0202815
28.3713 71.2609 2
27.7943 73.7221 4
30.6192 71.7766 0.00989462
30.1841 74.2794 2
32.6054 74.6784 0
29.8118 8.0242 3.96906
31.2545 5.34306 3.98017
31.7885 7.43871 2
32.9822 2.70382 3.98965
33.3462 4.93401 2
33.7224 6.99851 0.0249138
35.0474 0.080333 4
35.2439 2.46548 2
35.4361 4.69342 0.0154912
37.5 0 2
37.515 2.38924 0.00904201
39.9526 0.0806499 0
40.2332 35.9814 3.42372
41.7527 35.952 2
42.4887 35.55 0.455114
28.5593 10.7576 3.96926
38.965 34.5423 3.32189
40.1313 34.5945 2
41.4476 34.6012 0.68801
46.3424 34.6045 0.0852079
43.2803 33.3727 0.203663
41.4275 32.9187 0.44465
40.2609 33.3613 0.74347
44.5927 32.0767 2
42.4772 31.7277 2
40.706 31.9841 2
39.0099 32.9939 2
43.1411 30.4443 3.85002
41.1521 30.5517 3.7622
39.3645 31.3975 3.54944
37.492 32.8955 3.4262
34.1146 12.9994 3.98318
35.7058 11.8163 2
37.3099 10.6574 0.0190095
31.2066 12.06 3.97085
33.1142 11.2615 2
34.7591 10.4173 0.025469
30.4897 10.0647 2
32.3838 9.40318 0.0289115
46.1336 30.1399 0.0235985
46.1223 25.6054 0.0220728
36.598 13.005 0.0192909
43.9484 21.8292 0.0154126
41.6282 18.0882 0.00962252
38.6619 14.9586 0.0174403
35.7739 14.8629 2
44.276 28.3391 2
38.6152 17.8494 2
41.1086 21.1364 2
43.1177 24.493 2
33.6581 15.9855 3.99266
42.2631 27.0927 3.96883
40.6745 23.9316 4.00395
38.3437 20.6844 3.9969
35.8425 17.7531 3.99196
38.9886 37.4842 3.28999
40.1486 37.4141 2
41.7847 37.4579 0.666529
43.3653 54.0549 -0.00310252
42.8526 49.7923 -0.00505917
40.054 38.903 0.629836
41.1341 44.3789 0.240103
41.2356 46.8038 0.0923801
39.3718 43.5629 0.454091
38.9941 40.4447 0.654067
37.5084 42.0942 0.570398
41.5069 52.5024 2
38.958 38.9597 2
37.4761 40.4848 2
40.5192 48.982 2
35.9756 41.9907 2
39.5396 45.1754 2
37.4865 43.9788 2
39.6391 51.2325 3.99814
37.4888 38.9575 3.39723
36.0659 40.4684 3.33205
34.7636 41.6298 3.2521
35.6246 43.5839 3.54461
38.5441 47.7916 3.91436
37.4698 45.3849 3.76807
40.2874 54.5733 0.00290595
38.6372 53.336 2
36.7855 52.6603 3.9999
35.3645 60.8353 0.0157986
36.9277 57.4426 0.00689924
37.9638 54.8656 0.0041534
34.5057 58.3645 2
36.3271 54.995 2
33.4638 55.1716 4.00563
32.3998 59.5925 0.00497029
29.5308 60.2595 0.0131078
30.4412 57.5071 2
29.109 55.122 3.98445
28.2082 58.181 -0.00818226
27.2494 56.5988 2
25.8101 54.842 3.95217
22.4042 54.9923 3.95883
25.5754 58.3809 0.0316507
24.2017 56.5277 2
20.615 56.7401 3.96149
20.8623 58.5466 3.95612
21.7236 57.1096 2
21.2679 60.9706 3.96399
22.144 59.4139 2
23.0038 57.9927 0.037962
21.9449 63.7176 3.96604
22.8196 61.8467 2
23.5223 60.1359 0.0312403
24.5027 62.6413 0.0354917
23.7116 64.6348 2
22.8521 66.7075 3.96668
25.5758 65.4289 0.0258393
24.8157 67.5768 2
24.0153 69.8045 3.98522
26.8461 68.3212 0.0186449
26.165 70.6015 2
25.446 73.0099 4
28.3756 71.2605 0.0130362
27.7943 73.7222 2
30.1842 74.2788 0
27.8239 8.70442 3.97033
29.1566 5.88956 3.97803
29.8117 8.02375 2
30.7282 3.10133 3.98851
31.2513 5.34262 2
31.7882 7.44274 0.0274915
32.6053 0.320823 4
32.9795 2.70407 2
33.349 4.93439 0.0179361
35.0474 0.0802903 2
35.2458 2.46532 0.00927471
37.5 0 0
38.8481 36.026 3.30508
40.2049 35.9834 2
41.6911 35.9563 0.72277
28.5568 10.7596 2
26.6446 11.4697 3.97061
29.2548 12.707 3.97561
37.5033 34.5232 3.43834
38.9709 34.5481 2
40.1205 34.6058 0.641284
44.5715 32.1127 0.131245
42.405 31.7723 0.253405
40.6399 32.0824 0.466918
39.0588 33.0466 0.646608
43.2117 30.3893 2
41.2018 30.4877 2
39.3772 31.2926 2
37.509 32.8747 2
41.5573 29.1942 3.84496
39.5294 29.8786 3.75672
37.4922 31.0821 3.60294
35.9261 33.0626 3.35777
31.964 14.5694 3.98439
34.1153 12.9927 2
35.7026 11.8249 0.027631
31.2064 12.0499 2
33.1103 11.2722 0.0304319
30.4946 10.0684 0.0297434
44.2832 28.3261 0.0150507
43.1288 24.5105 -0.00502226
35.7923 14.8404 0.0096893
41.0783 21.1458 0.00424064
38.614 17.8444 0.00719747
33.6369 15.9644 2
35.8441 17.6692 2
42.3169 27.0447 2
38.3097 20.7447 2
40.6373 23.9562 2
33.5971 17.5707 3.98985
40.0905 26.4489 3.95595
37.9846 23.7063 3.99625
35.5493 20.5649 3.99259
37.5317 37.4842 3.42131
38.9391 37.4891 2
40.1053 37.4056 0.596203
41.5217 52.5113 -0.00613687
40.5307 48.9763 0.014
39.0005 38.9599 0.672831
39.5037 45.0953 0.263687
37.494 43.8889 0.400854
37.5013 40.4745 0.560876
35.9203 41.9422 0.648689
39.6239 51.217 2
37.4654 38.9695 2
36.0448 40.4388 2
38.575 47.8613 2
34.6809 41.6466 2
35.6047 43.6915 2
37.4897 45.4646 2
37.6902 50.2103 3.98845
36.1662 38.9982 3.31591
34.8847 40.365 3.36274
33.9384 41.3726 3.3477
34.3956 42.9111 3.52392
35.4497 45.1787 3.7668
36.9625 47.4258 3.86375
38.6503 53.324 0.000692682
36.8161 52.595 2
34.5744 52.0291 3.99859
34.5069 58.358 0.00468338
36.3267 54.9955 0.0042386
33.4693 55.1701 2
31.0008 53.1284 3.99445
30.4398 57.5095 0.0174268
29.1161 55.1233 2
27.5136 53.1058 3.9513
27.2471 56.6042 0.0389374
25.8236 54.8385 2
24.3255 53.0718 3.95299
21.3582 52.7897 3.9587
20.5064 55.4941 3.95947
22.4075 54.9928 2
24.2055 56.5272 0.0475314
19.7509 57.6349 3.96037
20.6106 56.7435 2
19.8141 60.0219 3.96515
20.849 58.5542 2
21.7255 57.1063 0.039895
20.2764 62.6837 3.96909
21.2736 60.9824 2
22.1477 59.4078 0.0329506
20.961 65.6999 3.96396
21.9414 63.7068 2
22.823 61.8418 0.0309754
23.7189 64.6353 0.0376895
22.848 66.6965 2
21.9192 68.8681 3.98009
24.821 67.5829 0.0302259
24.0091 69.7999 2
23.1494 72.1454 4
26.1714 70.6028 0.013258
25.446 73.0099 2
27.7943 73.7221 0
25.865 9.45074 3.96886
27.0717 6.556 3.97386
27.8235 8.69219 2
28.491 3.6466 3.98778
29.1533 5.8893 2
29.8118 8.0242 0.030943
30.1841 0.720592 4
30.7243 3.10164 2
31.2545 5.34306 0.0198272
32.6053 0.320817 2
32.9822 2.70382 0.0103475
35.0474 0.080333 0
37.5243 36.0082 3.38424
38.8189 35.9777 2
40.2332 35.9814 0.576277
24.8122 12.151 3.96445
23.8264 14.5965 3.98191
28.5593 10.7576 0.0307406
26.6413 11.465 2
29.2489 12.738 2
27.3221 13.5053 3.97542
29.8421 14.2613 4.00562
36.0067 34.5401 3.35429
37.5426 34.5005 2
38.965 34.5423 0.678109
37.492 32.8955 0.573798
43.1411 30.4443 0.149979
41.1521 30.5517 0.237803
39.3645 31.3975 0.450557
41.587 29.1116 2
39.5309 29.7882 2
37.4935 30.9966 2
35.9807 33.0094 2
39.689 28.4841 3.83528
37.4788 29.5499 3.75
35.6255 31.4209 3.5478
34.7303 33.384 3.26454
31.0257 16.9346 3.99619
31.9542 14.5407 2
34.1146 12.9994 0.016823
31.2066 12.06 0.0291489
42.2631 27.0927 0.0311699
40.6745 23.9316 -0.00394768
33.6581 15.9855 0.00734376
35.8425 17.7531 0.00804054
38.3437 20.6844 0.00310119
33.5506 17.5962 2
35.4858 20.6102 2
40.1013 26.4414 2
38.0447 23.6999 2
33.052 20.1587 3.99633
37.7702 26.1174 3.95412
35.4454 23.3225 4.00358
36.1035 37.483 3.29964
37.4951 37.4812 2
38.9886 37.4842 0.710013
39.6391 51.2325 0.00186239
38.5441 47.7916 0.0856432
37.4888 38.9575 0.602774
37.4698 45.3849 0.231925
35.6246 43.5839 0.45539
36.0659 40.4684 0.667951
34.7636 41.6298 0.747901
37.6197 50.2496 2
36.2275 38.9778 2
34.8509 40.3881 2
36.9302 47.5025 2
33.8926 41.387 2
34.3256 43.0051 2
35.4166 45.2457 2
35.612 49.3863 3.98068
34.8232 38.9624 3.42233
33.5649 40.3939 3.31216
33.5991 42.0779 3.55288
33.8975 44.4169 3.75124
34.7766 46.5899 3.84421
36.7855 52.6603 9.82824e-05
34.5614 52.0449 2
32.5454 50.7523 4.00538
33.4638 55.1716 -0.00563463
31.0069 53.1251 2
29.1386 51.098 3.9843
29.109 55.122 0.015545
27.5206 53.0955 2
25.9551 51.2719 3.95773
25.8101 54.842 0.0478288
24.3333 53.0732 2
22.9627 51.3289 3.95449
20.277 51.1643 3.96593
19.7012 53.9195 3.96152
21.3549 52.7895 2
18.9462 56.4204 3.96126
20.5012 55.4968 2
22.4042 54.9923 0.041172
18.5643 58.9032 3.9535
19.7533 57.6353 2
20.615 56.7401 0.0385063
18.6829 61.6364 3.97688
19.8258 60.0203 2
20.8623 58.5466 0.0438784
19.1583 64.5779 3.96591
20.2731 62.6897 2
21.2679 60.9706 0.0360127
19.8936 67.8061 3.97755
20.9501 65.7055 2
21.9449 63.7176 0.0339615
22.8521 66.7075 0.0333235
21.9128 68.8634 2
20.9142 71.1327 4
24.0153 69.8045 0.0147781
23.1494 72.1455 2
25.446 73.0099 0
23.1339 12.9767 3.9686
23.9881 10.2227 3.96715
25.027 7.33336 3.97007
25.8668 9.44215 2
26.2832 4.33185 3.98578
27.0679 6.55851 2
27.8239 8.70442 0.0296727
27.7943 1.27781 4
28.4856 3.64854 2
29.1566 5.88956 0.0219743
30.1841 0.720551 2
30.7282 3.10133 0.0114906
32.6053 0.320823 0
36.0351 36.0185 3.3306
37.5776 36.0236 2
38.8481 36.026 0.694918
24.7943 12.2031 2
23.8227 14.6141 2
22.5961 15.2582 3.97469
25.4056 14.1145 3.9704
24.1661 15.8507 4.00198
26.6446 11.4697 0.0293937
29.2548 12.707 0.0243871
27.3301 13.476 2
29.8287 14.2899 2
28.4773 16.0147 3.99102
34.9084 34.6385 3.34344
36.0735 34.5424 2
37.5033 34.5232 0.561663
35.9261 33.0626 0.642229
37.4922 31.0821 0.397063
41.5573 29.1942 0.155038
39.5294 29.8786 0.243285
39.7482 28.4201 2
37.4776 29.5057 2
35.6103 31.3209 2
34.6417 33.3637 2
37.5839 28.169 3.83213
35.4821 29.8862 3.74902
34.3671 32.1026 3.52728
33.9215 33.6476 3.34972
30.414 19.8041 3.98507
30.9806 16.9437 2
31.964 14.5694 0.015609
40.0905 26.4489 0.0440512
37.9846 23.7063 0.00374503
33.5971 17.5707 0.0101548
35.5493 20.5649 0.00740868
33.0403 20.1789 2
35.3699 23.3008 2
37.7336 26.0937 2
32.72 22.9482 4.0065
35.2739 25.9698 3.97225
34.8433 37.5197 3.43302
36.0925 37.5093 2
37.5317 37.4842 0.57869
37.6902 50.2103 0.0115497
36.9625 47.4258 0.136245
36.1662 38.9982 0.684088
35.4497 45.1787 0.2332
34.3956 42.9111 0.476078
34.8847 40.365 0.637255
33.9384 41.3726 0.652302
35.6204 49.3948 2
34.7954 38.978 2
33.5264 40.3857 2
34.7287 46.669 2
33.5328 42.1726 2
33.8456 44.4787 2
33.7527 48.4893 3.96758
33.3032 39.0229 3.27842
33.0669 40.9629 3.53878
32.6088 43.228 3.75513
33.1625 45.57 3.83789
34.5744 52.0291 0.00141413
32.562 50.7405 2
30.7663 49.2268 4.00395
31.0008 53.1284 0.00555162
29.148 51.0871 2
27.5296 49.4506 3.98013
27.5136 53.1058 0.0486961
25.9654 51.2719 2
24.4553 49.6647 3.97137
24.3255 53.0718 0.0470088
22.9655 51.3259 2
21.6785 49.7942 3.96652
18.9577 49.906 3.9737
18.7464 52.3792 3.96766
20.2748 51.1632 2
18.1044 54.9985 3.96297
19.6944 53.9204 2
21.3582 52.7897 0.0413007
17.5072 57.6238 3.96029
18.9441 56.4218 2
20.5064 55.4941 0.040526
17.2477 60.4052 3.94934
18.5765 58.9029 2
19.7509 57.6349 0.039634
17.4208 63.3928 3.96713
18.6818 61.6253 2
19.8141 60.0219 0.0348473
17.9528 66.6081 3.96813
19.1432 64.5762 2
20.2764 62.6837 0.0309055
18.75 69.9759 4
19.8878 67.7994 2
20.961 65.6999 0.036041
21.9192 68.8681 0.0199115
20.9142 71.1327 2
23.1494 72.1454 0
21.6512 13.7877 3.96895
22.2124 11.1243 3.96309
23.1334 12.9684 2
23.0465 8.21136 3.96965
23.9815 10.255 2
24.1212 5.14564 3.98549
25.0215 7.33088 2
25.865 9.45074 0.0311378
25.446 1.99014 4
26.2769 4.33396 2
27.0717 6.556 0.026138
27.7943 1.27778 2
28.491 3.6466 0.0122159
30.1841 0.720592 0
34.9188 36.054 3.3798
36.0847 36.0169 2
37.5243 36.0082 0.615762
21.4796 16.0646 3.95759
24.8122 12.151 0.0355479
23.8264 14.5965 0.0180858
25.4044 14.0858 2
22.598 15.2507 2
24.1701 15.872 2
23.4657 16.4793 3.96557
25.5153 16.3638 3.98813
27.3221 13.5053 0.0245804
29.8421 14.2613 -0.00562337
28.4625 16.0885 2
27.6786 19.1991 3.9894
33.5554 34.6311 3.33271
34.8116 34.653 2
36.0067 34.5401 0.645713
34.7303 33.384 0.735462
35.6255 31.4209 0.452197
37.4788 29.5499 0.25
39.689 28.4841 0.164723
37.5485 28.1343 2
33.8793 33.6356 2
35.4651 29.8096 2
34.3066 32.0039 2
35.3635 28.268 3.85712
33.8619 30.5845 3.76138
33.5672 32.9316 3.55625
30.0751 22.4473 4.01081
30.3782 19.838 2
31.0257 16.9346 0.00380796
37.7702 26.1174 0.0458764
35.4454 23.3225 -0.00358273
33.052 20.1587 0.0036679
32.7393 22.9138 2
35.2802 25.9594 2
32.4424 26.2902 4.0224
33.1886 37.5105 3.31801
34.8256 37.5165 2
36.1035 37.483 0.70036
35.612 49.3863 0.0193168
34.7766 46.5899 0.155789
34.8232 38.9624 0.577668
33.8975 44.4169 0.24876
33.5991 42.0779 0.447115
33.5649 40.3939 0.687838
33.701 48.4931 2
33.2812 39.0283 2
32.9807 41.044 2
33.1446 45.6427 2
32.5518 43.252 2
32.1383 47.2499 3.97811
32.5206 39.4432 3.54901
31.7322 41.6265 3.79863
31.7429 44.2773 3.83529
32.5454 50.7523 -0.00537911
30.7801 49.2392 2
29.0869 47.6619 3.97829
29.1386 51.098 0.0156968
27.5372 49.4489 2
25.9513 47.8942 3.9767
25.9551 51.2719 0.0422747
24.461 49.6628 2
23.0077 48.2219 3.97327
22.9627 51.3289 0.0455128
21.6791 49.7917 2
20.1522 48.6434 3.97481
17.8331 48.9701 3.97554
17.6063 51.0339 3.97303
18.9598 49.9056 2
17.1135 53.5263 3.96891
18.7473 52.3776 2
20.277 51.1643 0.0340735
16.4748 56.2028 3.96486
18.101 54.9997 2
19.7012 53.9195 0.0384767
15.9208 59.0473 3.9569
17.513 57.6245 2
18.9462 56.4204 0.0387385
15.7998 62.0444 3.96726
17.2326 60.4144 2
18.5643 58.9032 0.0464992
16.0982 65.2972 3.96955
17.4214 63.4097 2
18.6829 61.6364 0.0231229
16.6661 68.6801 4
17.9447 66.6025 2
19.1583 64.5779 0.0340948
18.75 69.9759 2
19.8936 67.8061 0.0224467
20.9142 71.1327 0
20.3199 14.7909 3.95514
21.6515 13.7827 2
20.5677 12.1485 3.96906
21.1535 9.19634 3.97136
22.2017 11.1445 2
23.1339 12.9767 0.0313989
22.0228 6.08598 3.98505
23.0412 8.21886 2
23.9881 10.2227 0.0328459
23.1494 2.85457 4
24.1149 5.15134 2
25.027 7.33336 0.0299281
25.446 1.99012 2
26.2832 4.33185 0.0142174
27.7943 1.27781 0
33.285 36.0071 3.33463
34.846 36.0565 2
36.0351 36.0185 0.669404
21.4922 16.0733 2
20.5836 17.2516 3.96143
22.3205 16.8767 3.96605
25.4056 14.1145 0.0295966
22.5961 15.2582 0.0253121
24.1661 15.8507 -0.00197654
25.5215 16.3581 2
23.4695 16.4869 2
24.4809 18.8379 3.97818
27.5547 22.0061 3.98993
28.4773 16.0147 0.00898457
27.6579 19.1891 2
33.045 34.0278 3.53987
33.5201 34.6346 2
34.9084 34.6385 0.656559
33.9215 33.6476 0.650283
34.3671 32.1026 0.472718
35.4821 29.8862 0.25098
37.5839 28.169 0.167871
35.3451 28.2204 2
33.5171 32.8392 2
33.8126 30.5097 2
33.3378 28.926 3.86681
32.6095 31.7782 3.75061
29.6181 24.9521 4.01181
30.0911 22.4066 2
30.414 19.8041 0.0149332
35.2739 25.9698 0.027753
32.72 22.9482 -0.00650359
32.4242 26.2506 2
30.7542 27.9205 3.98909
32.3802 37.4906 3.5265
33.1517 37.5118 2
34.8433 37.5197 0.566979
33.7527 48.4893 0.0324215
33.1625 45.57 0.162109
33.3032 39.0229 0.721577
32.6088 43.228 0.244875
33.0669 40.9629 0.461225
32.0968 47.2851 2
32.429 39.4438 2
31.6643 41.6751 2
31.6601 44.3456 2
30.5537 45.882 3.97156
31.0293 39.6447 3.80422
30.4387 42.6458 3.86258
30.7663 49.2268 -0.00394779
29.0946 47.6727 2
27.4374 46.1046 3.98585
27.5296 49.4506 0.0198746
25.9573 47.8921 2
24.3424 46.5033 3.97588
24.4553 49.6647 0.0286346
23.0083 48.2201 2
21.2644 47.1541 3.97479
21.6785 49.7942 0.0334836
20.1514 48.6433 2
18.7452 47.7908 3.97543
17.0733 48.3492 3.97496
17.8333 48.9709 2
16.6608 49.8447 3.97449
16.0581 52.1051 3.97318
17.6082 51.0324 2
18.9577 49.906 0.0262964
15.3949 54.7148 3.97027
17.1158 53.5257 2
18.7464 52.3792 0.0323445
14.7245 57.5704 3.96218
16.4776 56.2029 2
18.1044 54.9985 0.0370342
14.2927 60.6264 3.95284
15.9134 59.051 2
17.5072 57.6238 0.0397095
14.3408 63.8517 3.96436
15.8075 62.0522 2
17.2477 60.4052 0.050658
14.6715 67.2507 4
16.0926 65.2847 2
17.4208 63.3928 0.0328721
16.6661 68.6801 2
17.9528 66.6081 0.0318717
18.75 69.9759 0
19.1141 16.0193 3.95746
20.3328 14.7772 2
19.0286 13.2873 3.9645
21.6512 13.7877 0.0310467
20.5532 12.1437 2
19.3617 10.308 3.96948
19.9984 7.14845 3.97858
21.1463 9.19634 2
22.2124 11.1243 0.0369098
20.9142 3.86727 4
22.0125 6.08674 2
23.0465 8.21136 0.0303529
23.1494 2.85451 2
24.1212 5.14564 0.0145145
25.446 1.99014 0
32.5312 35.5455 3.53404
33.2488 36.0029 2
34.9188 36.054 0.6202
21.4796 16.0646 0.0424096
22.3364 16.8896 2
20.5995 17.2511 2
19.6654 18.7432 3.96607
22.053 18.2338 3.9798
25.5153 16.3638 0.0118661
23.4657 16.4793 0.0344271
24.5023 18.8509 2
22.8196 20.3063 3.96773
25.177 21.854 3.98552
27.2857 24.1809 3.9721
27.5816 21.9241 2
27.6786 19.1991 0.0105999
31.7083 33.3789 3.79664
32.9727 33.9765 2
33.5554 34.6311 0.667289
33.5672 32.9316 0.443749
33.8619 30.5845 0.238621
35.3635 28.268 0.142884
33.2914 28.8668 2
32.5172 31.7077 2
31.4439 30.2593 3.88432
29.0551 27.1154 4.01418
29.6219 24.9257 2
30.0751 22.4473 -0.0108126
32.4424 26.2902 -0.022405
30.7559 27.9271 2
30.8666 37.481 3.80954
32.2638 37.4913 2
33.1886 37.5105 0.681987
32.1383 47.2499 0.0218944
31.7429 44.2773 0.164706
32.5206 39.4432 0.450988
31.7322 41.6265 0.20137
30.5693 45.8985 2
30.9308 39.6664 2
30.4104 42.6769 2
28.9596 44.3074 3.9548
28.7963 40.2983 3.90708
29.0869 47.6619 0.0217139
27.4421 46.1088 2
25.7095 44.6584 3.97788
25.9513 47.8942 0.0233027
24.3443 46.5037 2
22.384 45.4816 3.97593
23.0077 48.2219 0.0267256
21.2655 47.1542 2
19.5473 46.3622 3.97476
20.1522 48.6434 0.0251866
18.7458 47.7917 2
17.3433 47.3858 3.97464
17.0751 48.3502 2
16.0339 48.7141 3.97445
17.8331 48.9701 0.0244607
16.6625 49.8443 2
15.1626 50.7105 3.9737
14.3378 53.1987 3.97312
16.059 52.1046 2
17.6063 51.0339 0.0269724
13.5806 56.0002 3.96377
15.3959 54.715 2
17.1135 53.5263 0.0310908
12.9355 59.0547 3.95171
14.7253 57.5715 2
16.4748 56.2028 0.0351443
12.6869 62.2937 3.96417
14.3012 60.6327 2
15.9208 59.0473 0.0431044
12.7746 65.6939 4
14.3367 63.842 2
15.7998 62.0444 0.0327366
14.6714 67.2507 2
16.0982 65.2972 0.0304505
16.6661 68.6801 0
18.0101 17.4302 3.95991
19.1403 16.0142 2
17.5858 14.5362 3.95402
20.3199 14.7909 0.0448626
19.0206 13.2416 2
17.6722 11.5735 3.96849
20.5677 12.1485 0.0309362
19.3515 10.3267 2
18.0585 8.34508 3.97208
18.75 5.0241 4
19.9879 7.16013 2
21.1535 9.19634 0.0286402
20.9142 3.86727 2
22.0228 6.08598 0.0149486
23.1494 2.85457 0
31.0274 35.3566 3.79881
32.4296 35.5402 2
33.285 36.0071 0.665368
22.3205 16.8767 0.0339453
20.5836 17.2516 0.0385691
22.0847 18.2261 2
19.6719 18.7403 2
18.6154 20.3194 3.96851
21.3943 19.778 3.9752
24.4809 18.8379 0.0218224
22.8318 20.3053 2
25.1975 21.8137 2
23.1206 22.1976 3.97275
25.6096 23.5098 3.96599
26.7015 26.4889 3.98545
27.2868 24.1948 2
27.5547 22.0061 0.010072
30.1549 32.8108 3.85814
31.6399 33.3308 2
33.045 34.0278 0.46013
32.6095 31.7782 0.24939
33.3378 28.926 0.133193
31.4197 30.2135 2
28.5634 29.7251 4.00152
29.0454 27.1452 2
29.6181 24.9521 -0.0118094
30.7542 27.9205 0.0109067
29.1488 37.4533 3.82585
30.7406 37.4976 2
32.3802 37.4906 0.473498
30.5537 45.882 0.0284438
30.4387 42.6458 0.137419
31.0293 39.6447 0.195775
28.9681 44.3612 2
28.7497 40.3345 2
27.1644 42.8514 3.98362
26.1638 39.3236 3.97689
27.4374 46.1046 0.0141505
25.7029 44.6662 2
23.6723 43.5524 3.97445
24.3424 46.5033 0.0241185
22.3836 45.4809 2
20.4043 44.6206 3.97442
21.2644 47.1541 0.0252053
19.5476 46.3625 2
17.7374 45.9019 3.97485
18.7452 47.7908 0.0245732
17.3438 47.3863 2
15.8126 47.3979 3.97457
17.0733 48.3492 0.0250421
16.0358 48.7146 2
14.4879 49.2965 3.97414
16.6608 49.8447 0.0255115
15.1636 50.71 2
13.4076 51.6621 3.97351
12.464 54.3791 3.96796
14.339 53.1985 2
16.0581 52.1051 0.0268236
11.6592 57.392 3.95692
13.5751 56.0021 2
15.3949 54.7148 0.0297345
11.1421 60.6197 3.96246
12.9348 59.0559 2
14.7245 57.5704 0.0378239
10.9835 64.0165 4
12.6846 62.2838 2
14.2927 60.6264 0.0471577
12.7745 65.694 2
14.3408 63.8517 0.0356407
14.6715 67.2507 0
16.8741 18.9469 3.96334
18.022 17.427 2
16.3007 15.9695 3.95785
19.1141 16.0193 0.0425366
17.5944 14.536 2
16.0364 12.8887 3.95824
19.0286 13.2873 0.0354997
17.6484 11.5525 2
16.2101 9.67048 3.96642
19.3617 10.308 0.0305202
18.0495 8.35602 2
16.6661 6.31991 4
18.75 5.02404 2
19.9984 7.14845 0.0214165
20.9142 3.86727 0
29.4328 35.003 3.87398
30.8999 35.329 2
32.5312 35.5455 0.465957
17.3478 21.7397 3.97177
22.053 18.2338 0.0201982
19.6654 18.7432 0.033933
21.4038 19.775 2
18.6082 20.3136 2
20.5375 22.0336 3.97387
22.8196 20.3063 0.0322696
25.177 21.854 0.0144824
23.125 22.1958 2
25.5977 23.5572 2
24.0173 25.1444 3.97228
26.1426 29.1076 3.98335
26.6998 26.5134 2
27.2857 24.1809 0.0279012
28.0509 32.1489 3.97276
30.1053 32.7832 2
31.7083 33.3789 0.203362
31.4439 30.2593 0.115679
28.5656 29.6799 2
29.0551 27.1154 -0.01418
26.9264 36.9053 3.9528
29.0804 37.4044 2
30.8666 37.481 0.190456
28.9596 44.3074 0.0451975
28.7963 40.2983 0.0929183
27.1411 42.89 2
26.1084 39.3094 2
24.9578 41.5374 3.97433
23.8608 38.4963 3.97477
25.7095 44.6584 0.0221239
23.6712 43.5593 2
21.3422 42.6037 3.97449
22.384 45.4816 0.0240678
20.4065 44.6212 2
18.1753 44.1093 3.97509
19.5473 46.3622 0.0252374
17.7381 45.9023 2
15.7865 45.8443 3.97503
17.3433 47.3858 0.0253554
15.8128 47.3982 2
14.0205 47.7894 3.97439
16.0339 48.7141 0.0255519
14.4886 49.2966 2
12.6494 50.0615 3.97429
15.1626 50.7105 0.026302
13.4082 51.6619 2
11.4566 52.7063 3.97167
10.4643 55.651 3.95956
12.4605 54.3801 2
14.3378 53.1987 0.0268799
9.70948 58.845 3.96344
11.6618 57.392 2
13.5806 56.0002 0.0362335
9.30605 62.2254 4
11.1409 60.6125 2
12.9355 59.0547 0.0482909
10.9835 64.0165 2
12.6869 62.2937 0.0358262
12.7746 65.6939 0
15.6409 20.4644 3.96944
16.8828 18.9446 2
15.0365 17.4996 3.96119
18.0101 17.4302 0.0400899
16.2706 15.9581 2
14.5019 14.3746 3.95426
17.5858 14.5362 0.0459795
16.0463 12.887 2
14.453 11.1219 3.96763
17.6722 11.5735 0.0315143
16.2041 9.68624 2
14.6715 7.74927 4
18.0585 8.34508 0.0279169
16.6661 6.31988 2
18.75 5.0241 0
27.3818 34.5268 3.97494
29.3733 35.01 2
31.0274 35.3566 0.201186
18.672 22.7491 3.97416
16.2329 23.2594 3.97236
17.3494 21.7365 2
21.3943 19.778 0.0247992
18.6154 20.3194 0.0314948
20.5457 22.0328 2
20.7432 24.902 3.97205
23.1206 22.1976 0.0272531
25.6096 23.5098 0.0340097
24.0201 25.1414 2
23.5207 28.3989 3.97023
25.6367 31.6019 3.98251
26.155 29.0032 2
26.7015 26.4889 0.0145486
28.0169 32.1273 2
30.1549 32.8108 0.141862
28.5634 29.7251 -0.00151554
24.5923 36.3669 3.97823
26.8565 36.91 2
29.1488 37.4533 0.174146
27.1644 42.8514 0.0163755
26.1638 39.3236 0.023109
24.9238 41.5484 2
23.8523 38.5031 2
22.5588 40.4506 3.97541
21.8404 37.7855 3.97832
23.6723 43.5524 0.0255543
21.3432 42.6014 2
18.689 41.9068 3.97566
20.4043 44.6206 0.0255775
18.1757 44.109 2
15.8425 43.9962 3.97518
17.7374 45.9019 0.0251538
15.7862 45.8444 2
13.7167 46.1068 3.97478
15.8126 47.3979 0.0254345
14.02 47.7894 2
12.0362 48.385 3.9747
14.4879 49.2965 0.0258561
12.65 50.0612 2
10.5936 50.9628 3.97368
13.4076 51.6621 0.0264924
11.4567 52.7061 2
9.36337 53.8395 3.96188
8.39197 56.981 3.96648
10.4676 55.6496 2
12.464 54.3791 0.0320356
7.74927 60.3285 4
9.70846 58.8389 2
11.6592 57.392 0.043079
9.306 62.2255 2
11.1421 60.6197 0.037537
10.9835 64.0165 0
14.4734 22.0097 3.97244
15.6448 20.4611 2
13.7509 19.0777 3.96477
16.8741 18.9469 0.0366639
15.0187 17.4903 2
13.0593 15.9483 3.95414
16.3007 15.9695 0.04215
14.524 14.3677 2
12.7896 12.6956 3.9653
16.0364 12.8887 0.0417579
14.4476 11.1348 2
12.7746 9.30605 4
16.2101 9.67048 0.0335848
14.6715 7.74924 2
16.6661 6.31991 0
25.053 34.0357 3.97962
27.3571 34.4721 2
29.4328 35.003 0.126017
18.5697 24.4807 3.97191
18.6797 22.7496 2
15.0453 24.7259 3.97344
16.2321 23.2574 2
17.3478 21.7397 0.0282312
20.2929 27.6481 3.97263
20.5375 22.0336 0.0261303
20.7468 24.9029 2
22.891 31.066 3.9738
24.0173 25.1444 0.0277171
23.5159 28.406 2
25.579 31.6841 2
26.1426 29.1076 0.0166541
28.0509 32.1489 0.0272417
21.9221 36.0273 3.97746
24.5704 36.3813 2
26.9264 36.9053 0.0471989
24.9578 41.5374 0.0256709
23.8608 38.4963 0.0252337
22.5663 40.452 2
21.8375 37.7858 2
19.5055 38.946 3.97707
21.3422 42.6037 0.0255116
18.6897 41.9065 2
15.8389 41.7879 3.97585
18.1753 44.1093 0.0249095
15.8422 43.9958 2
13.4785 44.2419 3.97515
15.7865 45.8443 0.0249665
13.7158 46.1069 2
11.5441 46.5953 3.97483
14.0205 47.7894 0.025607
12.0366 48.3846 2
9.87233 49.1341 3.97534
12.6494 50.0615 0.025714
10.5943 50.9622 2
8.39354 51.9596 3.96336
11.4566 52.7063 0.028334
9.36193 53.8386 2
7.20052 55.0328 3.96761
6.31991 58.3339 4
8.39083 56.9756 2
10.4643 55.651 0.0404421
7.74924 60.3285 2
9.70948 58.845 0.0365579
9.30605 62.2254 0
13.8651 25.5998 3.97559
13.3676 23.5058 3.97345
14.4746 22.0066 2
12.5623 20.709 3.96872
15.6409 20.4644 0.0305631
13.7393 19.071 2
11.7699 17.6311 3.95352
15.0365 17.4996 0.0388129
13.0933 15.9516 2
11.2285 14.3827 3.96191
14.5019 14.3746 0.0457407
12.7882 12.7073 2
10.9835 10.9835 4
14.453 11.1219 0.0323656
12.7745 9.306 2
14.6715 7.74927 0
22.2764 33.6487 3.97716
25.0529 33.9794 2
27.3818 34.5268 0.0250635
16.8548 26.7231 3.97371
18.5714 24.4815 2
18.672 22.7491 0.0258436
15.0429 24.7267 2
16.2329 23.2594 0.0276427
19.6843 30.502 3.97488
20.2959 27.6469 2
20.7432 24.902 0.0279505
22.9054 31.0544 2
23.5207 28.3989 0.0297708
25.6367 31.6019 0.0174903
19.0704 36.0472 3.9772
21.9205 36.0223 2
24.5923 36.3669 0.021774
22.5588 40.4506 0.0245884
21.8404 37.7855 0.0216825
19.5046 38.9464 2
15.3165 39.1345 3.97685
18.689 41.9068 0.024342
15.8389 41.7875 2
13.1675 42.1776 3.97584
15.8425 43.9962 0.0248202
13.4778 44.2418 2
11.1228 44.6947 3.97531
13.7167 46.1068 0.0252168
11.5441 46.5952 2
9.25888 47.2274 3.97578
12.0362 48.385 0.0252966
9.87436 49.1332 2
7.55303 49.9999 3.96508
10.5936 50.9628 0.0263227
8.39173 51.9587 2
6.14027 53.008 3.96875
9.36337 53.8395 0.038122
7.20014 55.0281 2
5.0241 56.25 4
6.31988 58.3339 2
8.39197 56.981 0.0335171
7.74927 60.3285 0
14.1764 27.0405 3.9745
12.4562 24.9765 3.97482
13.8643 25.6002 2
11.475 22.3757 3.97252
13.3651 23.5051 2
14.4734 22.0097 0.0275597
12.5571 20.705 2
10.5491 19.3883 3.95776
13.7509 19.0777 0.0352291
11.7796 17.6319 2
9.76934 16.1634 3.9635
13.0593 15.9483 0.0458589
11.2274 14.3899 2
9.30607 12.7746 4
12.7896 12.6956 0.0346968
10.9835 10.9835 2
12.7746 9.30605 0
19.2072 33.2992 3.97565
22.2689 33.6555 2
25.053 34.0357 0.0203801
16.4862 29.8947 3.97496
16.8548 26.7258 2
18.5697 24.4807 0.0280933
15.0453 24.7259 0.02656
19.6808 30.5034 2
20.2929 27.6481 0.0273746
22.891 31.066 0.0262009
15.977 36.0743 3.97708
19.0685 36.048 2
21.9221 36.0273 0.0225369
13.4139 37.8305 3.97712
19.5055 38.946 0.0229254
15.3169 39.1342 2
12.6501 40.0915 3.97642
15.8389 41.7879 0.0241467
13.1668 42.1773 2
10.7134 42.7038 3.97558
13.4785 44.2419 0.0248521
11.1227 44.6947 2
8.73034 45.2486 3.97593
11.5441 46.5953 0.0251723
9.26165 47.2262 2
6.82683 47.9735 3.96693
9.87233 49.1341 0.0246648
7.55194 49.999 2
5.21617 50.911 3.96968
8.39354 51.9596 0.0366429
6.1404 53.0046 2
3.86727 54.0858 4
7.20052 55.0328 0.0323936
5.02404 56.25 2
6.31991 58.3339 0
13.6522 29.2141 3.97403
11.9017 26.6439 3.97452
14.1764 27.0413 2
10.5266 24.0893 3.9751
12.4577 24.9768 2
13.8651 25.5998 0.0244051
9.3891 21.1955 3.9618
11.4743 22.3736 2
13.3676 23.5058 0.0265534
12.5623 20.709 0.0312838
10.5555 19.3892 2
8.42444 18.0314 3.96634
11.7699 17.6311 0.0464825
9.76884 16.1695 2
7.74928 14.6715 4
11.2285 14.3827 0.0380874
9.30602 12.7745 2
10.9835 10.9835 0
15.4627 32.9967 3.9762
19.2077 33.2983 2
22.2764 33.6487 0.0228445
16.4877 29.8944 2
16.8548 26.7231 0.0262889
19.6843 30.502 0.0251203
13.7284 36.2444 3.97676
15.9775 36.0744 2
19.0704 36.0472 0.0228027
13.4137 37.8305 2
11.9483 38.3022 3.97645
15.3165 39.1345 0.0231535
12.6495 40.0915 2
10.2783 40.7131 3.97599
13.1675 42.1776 0.0241645
10.7135 42.7034 2
8.27028 43.2187 3.97606
11.1228 44.6947 0.0246904
8.73363 45.2483 2
6.21245 45.8868 3.96842
9.25888 47.2274 0.0242209
6.82642 47.9726 2
4.42688 48.7512 3.97046
7.55303 49.9999 0.0349187
5.21657 50.9086 2
2.85457 51.8506 4
6.14027 53.008 0.0312513
3.86727 54.0858 2
5.0241 56.25 0
12.7666 31.3784 3.97545
11.3069 28.5486 3.97476
13.6524 29.214 2
9.74261 25.9033 3.97555
11.9022 26.6445 2
14.1764 27.0405 0.025504
8.35238 23.0677 3.96406
10.5272 24.0883 2
12.4562 24.9765 0.0251766
7.2062 19.9794 3.96759
9.39117 21.1966 2
11.475 22.3757 0.0274838
10.5491 19.3883 0.0422378
8.42398 18.0364 2
6.31992 16.6661 4
9.76934 16.1634 0.0364997
7.74926 14.6714 2
9.30607 12.7746 0
12.8224 34.3682 3.97662
15.4629 32.9973 2
19.2072 33.2992 0.0243476
16.4862 29.8947 0.0250426
11.4599 36.6352 3.9764
13.7286 36.2445 2
15.977 36.0743 0.0229163
13.4139 37.8305 0.0228773
11.9477 38.3021 2
9.84371 38.8127 3.97624
12.6501 40.0915 0.0235756
10.2781 40.7129 2
7.86766 41.182 3.97616
10.7134 42.7038 0.0244244
8.27245 43.2175 2
5.70395 43.7572 3.96926
8.73034 45.2486 0.0240684
6.21127 45.886 2
3.77202 46.5365 3.97111
6.82683 47.9735 0.033066
4.42758 48.7495 2
1.99014 49.554 4
5.21617 50.911 0.0303205
2.85451 51.8506 2
3.86727 54.0858 0
11.5313 33.0044 3.97629
10.5983 30.4798 3.97518
12.7657 31.3791 2
9.04476 27.8188 3.97572
11.3068 28.5487 2
13.6522 29.2141 0.0259671
7.45883 25.0168 3.96572
9.74394 25.9031 2
11.9017 26.6439 0.0254839
6.12198 22.0021 3.96912
8.35139 23.0686 2
10.5266 24.0893 0.0248985
5.02411 18.75 4
7.20611 19.9833 2
9.3891 21.1955 0.0382019
8.42444 18.0314 0.0336566
6.3199 16.6661 2
7.74928 14.6715 0
11.0251 35.0447 3.97608
12.822 34.3684 2
15.4627 32.9967 0.0237986
9.48712 36.9977 3.97626
11.4592 36.6355 2
13.7284 36.2444 0.0232367
11.9483 38.3022 0.0235539
9.84389 38.8127 2
7.52926 39.1721 3.97639
10.2783 40.7131 0.0240076
7.87115 41.1815 2
5.30686 41.6088 3.96948
8.27028 43.2187 0.0239351
5.70407 43.7565 2
3.24952 44.2815 3.97205
6.21245 45.8868 0.0315773
3.77298 46.5352 2
1.27781 47.2057 4
4.42688 48.7512 0.0295354
1.99012 49.554 2
2.85457 51.8506 0
10.6333 33.9383 3.97563
9.85292 32.2255 3.97574
11.5306 33.0047 2
8.37717 29.7654 3.97605
10.5982 30.4807 2
12.7666 31.3784 0.0245496
6.68541 27.0351 3.96641
9.0469 27.8195 2
11.3069 28.5486 0.0252357
5.17635 24.0955 3.96987
7.45718 25.0176 2
9.74261 25.9033 0.0244533
3.86728 20.9142 4
6.12241 22.0047 2
8.35238 23.0677 0.0359375
5.02406 18.75 2
7.2062 19.9794 0.0324064
6.31992 16.6661 0
9.28919 35.312 3.97635
11.0244 35.0447 2
12.8224 34.3682 0.0233835
7.29602 37.2126 3.97643
9.48792 36.9979 2
11.4599 36.6352 0.0235961
9.84371 38.8127 0.0237572
7.53266 39.1718 2
5.0291 39.4671 3.96925
7.86766 41.182 0.0238431
5.30633 41.6083 2
2.85976 42.0021 3.97267
5.70395 43.7572 0.0307363
3.25023 44.2804 2
0.720592 44.8159 4
3.77202 46.5365 0.0288947
1.27778 47.2057 2
1.99014 49.554 0
9.32067 33.7465 3.97629
10.6329 33.9383 2
7.7986 31.66 3.97627
9.85424 32.2257 2
11.5313 33.0044 0.0237084
6.01488 29.0895 3.9666
8.37973 29.7664 2
10.5983 30.4798 0.0248191
4.36319 26.249 3.97041
6.68414 27.0358 2
9.04476 27.8188 0.0242821
2.85458 23.1494 4
5.17702 24.0971 2
7.45883 25.0168 0.0342793
3.86728 20.9142 2
6.12198 22.0021 0.0308837
5.02411 18.75 0
7.23578 35.328 3.97654
9.29064 35.3122 2
11.0251 35.0447 0.0239243
4.87303 37.3437 3.96884
7.29964 37.2125 2
9.48712 36.9977 0.0237383
7.52926 39.1721 0.0236134
5.02832 39.4668 2
2.6075 39.7143 3.97328
5.30686 41.6088 0.0305239
2.86075 42.0014 2
0.320823 42.3947 4
3.24952 44.2815 0.027951
0.720551 44.8159 2
1.27781 47.2057 0
7.3972 33.4966 3.97666
9.32242 33.7467 2
10.6333 33.9383 0.0243656
5.46928 31.1483 3.96706
7.80145 31.6606 2
9.85292 32.2255 0.0242565
3.68435 28.4458 3.97123
6.01252 29.0901 2
8.37717 29.7654 0.0239453
1.99015 25.446 4
4.36397 26.2502 2
6.68541 27.0351 0.0335898
2.85453 23.1494 2
5.17635 24.0955 0.0301349
3.86728 20.9142 0
4.88806 35.2589 3.96803
7.23845 35.3281 2
9.28919 35.312 0.0236503
2.49894 37.4295 3.97396
4.8705 37.3436 2
7.29602 37.2126 0.0235707
5.0291 39.4671 0.0307457
2.60864 39.714 2
0.080333 39.9526 4
2.85976 42.0021 0.0273305
0.320817 42.3947 2
0.720592 44.8159 0
5.09041 33.201 3.96735
7.39929 33.497 2
9.32067 33.7465 0.0237097
3.14844 30.6687 3.97222
5.46584 31.1486 2
7.7986 31.66 0.0237335
1.27793 27.7943 4
3.68539 28.4468 2
6.01488 29.0895 0.0333966
1.99013 25.446 2
4.36319 26.249 0.0295889
2.85458 23.1494 0
2.55089 35.1608 3.97374
4.88584 35.2591 2
7.23578 35.328 0.0234561
0 37.5 4
2.49981 37.4295 2
4.87303 37.3437 0.03116
2.6075 39.7143 0.0267173
0.0802903 39.9526 2
0.320823 42.3947 0
2.76848 32.9081 3.97346
5.0882 33.2013 2
7.3972 33.4966 0.0233377
0.721173 30.1842 4
3.14977 30.6697 2
5.46928 31.1483 0.0329352
1.27779 27.7943 2
3.68435 28.4458 0.0287721
1.99015 25.446 0
0.0806499 35.0474 4
2.55231 35.1609 2
4.88806 35.2589 0.031966
0 37.5 2
2.49894 37.4295 0.0260435
0.080333 39.9526 0
0.32156 32.6054 4
2.76942 32.9087 2
5.09041 33.201 0.0326451
0.72056 30.1841 2
3.14844 30.6687 0.0277761
1.27793 27.7943 0
0.0802889 35.0474 2
2.55089 35.1608 0.026263
0 37.5 0
0.320817 32.6053 2
2.76848 32.9081 0.0265448
0.721173 30.1842 0
0.0806499 35.0474 0
0.32156 32.6054 0
CELLS 1910 17190
8 18 6 25 56 2 0 5 16
8 57 23 6 18 17 4 0 2
8 78 36 9 29 31 11 1 7
8 31 11 1 7 79 37 10 30
8 110 57 18 50 48 17 2 14
8 50 18 56 111 14 2 16 49
8 116 62 22 55 52 20 3 15
8 56 25 67 118 16 5 24 53
8 119 63 23 57 54 21 4 17
8 55 22 63 119 15 3 21 54
8 58 26 68 121 18 6 25 56
8 122 65 26 58 57 23 6 18
8 73 31 7 27 142 79 30 71
8 143 78 29 72 73 31 7 27
8 83 147 76 34 32 74 28 8
8 84 148 78 36 33 75 29 9
8 76 34 8 28 148 84 33 75
8 37 79 150 86 10 30 77 35
8 151 87 36 78 80 38 11 31
8 80 38 11 31 152 88 37 79
8 175 100 42 94 96 44 12 40
8 44 96 176 101 12 40 95 43
8 101 176 98 46 43 95 41 13
8 46 98 178 103 13 41 97 45
8 178 103 45 97 147 83 32 74
8 189 116 55 109 106 52 15 47
8 111 56 118 191 49 16 53 107
8 192 119 57 110 108 54 17 48
8 109 55 119 192 47 15 54 108
8 194 122 58 112 110 57 18 50
8 112 58 121 195 50 18 56 111
8 115 61 19 51 197 124 59 113
8 115 61 125 198 51 19 60 114
8 198 125 62 116 114 60 20 52
8 200 127 64 120 116 62 22 55
8 118 67 132 202 53 24 66 117
8 121 68 133 203 56 25 67 118
8 120 64 128 204 55 22 63 119
8 204 128 65 122 119 63 23 57
8 206 134 68 121 123 69 26 58
8 123 69 26 58 207 131 65 122
8 226 147 74 138 140 76 28 70
8 229 148 75 139 143 78 29 72
8 140 76 28 70 229 148 75 139
8 142 79 30 71 231 150 77 141
8 144 80 31 73 232 152 79 142
8 233 151 78 143 144 80 31 73
8 150 86 35 77 235 154 81 145
8 235 154 81 145 146 82 39 91
8 146 82 39 91 236 155 90 165
8 238 157 83 147 149 85 34 76
8 239 158 84 148 151 87 36 78
8 149 85 34 76 239 158 84 148
8 152 88 37 79 241 160 86 150
8 242 161 87 151 153 89 38 80
8 153 89 38 80 243 162 88 152
8 171 98 41 92 265 178 97 169
8 265 178 97 169 226 147 74 138
8 172 96 40 93 266 176 95 170
8 266 176 95 170 171 98 41 92
8 269 175 94 173 172 96 40 93
8 271 180 99 174 175 100 42 94
8 197 124 59 113 271 180 99 174
8 272 181 100 175 177 102 44 96
8 273 182 101 176 179 104 46 98
8 177 102 44 96 273 182 101 176
8 179 104 46 98 275 184 103 178
8 275 184 103 178 238 157 83 147
8 188 115 51 105 283 197 113 186
8 188 115 198 284 105 51 114 187
8 284 198 116 189 187 114 52 106
8 286 200 120 193 189 116 55 109
8 191 118 202 288 107 53 117 190
8 195 121 203 289 111 56 118 191
8 193 120 204 290 109 55 119 192
8 290 204 122 194 192 119 57 110
8 196 123 58 112 292 207 122 194
8 293 206 121 195 196 123 58 112
8 199 126 61 115 297 211 124 197
8 298 212 127 200 198 125 62 116
8 199 126 212 298 115 61 125 198
8 205 129 64 120 300 214 127 200
8 301 217 130 201 202 132 66 117
8 209 136 168 264 301 217 130 201
8 302 219 132 202 203 133 67 118
8 303 220 133 203 206 134 68 121
8 205 129 215 304 120 64 128 204
8 304 215 131 207 204 128 65 122
8 306 221 134 206 208 135 69 123
8 208 135 69 123 307 218 131 207
8 210 137 167 263 309 223 136 209
8 328 238 147 226 230 149 76 140
8 228 146 91 166 329 236 165 260
8 231 150 77 141 330 235 145 227
8 330 235 145 227 228 146 91 166
8 332 239 148 229 233 151 78 143
8 230 149 76 140 332 239 148 229
8 232 152 79 142 334 241 150 231
8 234 153 80 144 335 243 152 232
8 336 242 151 233 234 153 80 144
8 236 155 90 165 338 245 164 259
8 241 160 86 150 339 246 154 235
8 339 246 154 235 237 156 82 146
8 237 156 82 146 340 247 155 236
8 342 249 157 238 240 159 85 149
8 343 250 158 239 242 161 87 151
8 240 159 85 149 343 250 158 239
8 243 162 88 152 345 252 160 241
8 244 163 253 346 153 89 161 242
8 244 163 89 153 347 254 162 243
8 311 224 261 371 210 137 167 263
8 263 167 262 372 209 136 168 264
8 267 179 98 171 375 275 178 265
8 375 275 178 265 328 238 147 226
8 376 273 176 266 267 179 98 171
8 268 177 96 172 376 273 176 266
8 379 272 175 269 268 177 96 172
8 380 271 174 270 269 175 94 173
8 283 197 113 186 380 271 174 270
8 381 277 180 271 272 181 100 175
8 297 211 124 197 381 277 180 271
8 382 278 181 272 274 183 102 177
8 274 183 102 177 383 279 182 273
8 383 279 182 273 276 185 104 179
8 385 281 184 275 342 249 157 238
8 276 185 104 179 385 281 184 275
8 285 199 115 188 393 297 197 283
8 394 298 200 286 284 198 116 189
8 285 199 298 394 188 115 198 284
8 291 205 120 193 396 300 200 286
8 397 301 201 287 288 202 117 190
8 295 209 264 374 397 301 201 287
8 398 302 202 288 289 203 118 191
8 399 303 203 289 293 206 121 195
8 291 205 304 400 193 120 204 290
8 400 304 207 292 290 204 122 194
8 294 208 123 196 402 307 207 292
8 403 306 206 293 294 208 123 196
8 296 210 263 373 405 309 209 295
8 408 312 213 299 297 211 126 199
8 299 213 313 409 199 126 212 298
8 409 313 214 300 298 212 127 200
8 305 216 129 205 411 315 214 300
8 412 318 217 301 302 219 132 202
8 309 223 136 209 412 318 217 301
8 413 320 219 302 303 220 133 203
8 306 221 321 414 206 134 220 303
8 307 218 131 207 415 316 215 304
8 305 216 316 415 205 129 215 304
8 417 322 221 306 308 222 135 208
8 308 222 135 208 418 319 218 307
8 310 225 137 210 420 325 223 309
8 423 326 224 311 310 225 137 210
8 329 236 165 260 441 338 259 368
8 442 342 238 328 333 240 149 230
8 331 237 146 228 443 340 236 329
8 334 241 150 231 444 339 235 330
8 444 339 235 330 331 237 146 228
8 446 343 239 332 336 242 151 233
8 333 240 149 230 446 343 239 332
8 335 243 152 232 448 345 241 334
8 337 244 153 234 449 347 243 335
8 337 244 346 450 234 153 242 336
8 338 245 164 259 452 349 258 367
8 340 247 155 236 453 350 245 338
8 345 252 160 241 454 351 246 339
8 454 351 246 339 341 248 156 237
8 341 248 156 237 455 352 247 340
8 240 159 251 344 342 249 354 457
8 242 161 253 346 343 250 355 458
8 343 250 355 458 240 159 251 344
8 347 254 162 243 460 357 252 345
8 348 255 358 461 244 163 253 346
8 348 255 163 244 462 359 254 347
8 473 360 257 365 363 256 364 482
8 452 349 258 367 365 257 366 485
8 422 324 369 488 311 224 261 371
8 371 261 370 490 263 167 262 372
8 407 311 371 491 296 210 263 373
8 373 263 372 492 295 209 264 374
8 493 385 275 375 442 342 238 328
8 377 276 179 267 493 385 275 375
8 378 274 177 268 494 383 273 376
8 494 383 273 376 377 276 179 267
8 497 382 272 379 378 274 177 268
8 498 381 271 380 379 272 175 269
8 393 297 197 283 498 381 271 380
8 499 387 277 381 382 278 181 272
8 408 312 211 297 499 387 277 381
8 500 388 278 382 384 280 183 274
8 501 389 279 383 386 282 185 276
8 384 280 183 274 501 389 279 383
8 386 282 185 276 503 391 281 385
8 503 391 281 385 457 354 249 342
8 511 408 299 395 393 297 199 285
8 395 299 409 512 285 199 298 394
8 512 409 300 396 394 298 200 286
8 401 305 205 291 514 411 300 396
8 515 412 301 397 398 302 202 288
8 405 309 209 295 515 412 301 397
8 516 413 302 398 399 303 203 289
8 403 306 414 517 293 206 303 399
8 402 307 207 292 518 415 304 400
8 401 305 415 518 291 205 304 400
8 404 308 208 294 520 418 307 402
8 521 417 306 403 404 308 208 294
8 406 310 210 296 523 420 309 405
8 526 423 311 407 406 310 210 296
8 410 314 213 299 527 424 312 408
8 528 425 315 411 409 313 214 300
8 410 314 425 528 299 213 313 409
8 416 317 216 305 530 427 315 411
8 531 430 318 412 413 320 219 302
8 420 325 223 309 531 430 318 412
8 532 432 320 413 414 321 220 303
8 417 322 433 533 306 221 321 414
8 418 319 218 307 534 428 316 415
8 416 317 428 534 305 216 316 415
8 419 323 434 536 308 222 322 417
8 419 323 222 308 537 431 319 418
8 421 327 225 310 539 438 325 420
8 421 327 439 541 310 225 326 423
8 543 437 324 422 423 326 224 311
8 441 338 259 368 559 452 367 486
8 443 340 236 329 560 453 338 441
8 333 240 344 447 442 342 457 561
8 445 341 237 331 562 455 340 443
8 448 345 241 334 563 454 339 444
8 563 454 339 444 445 341 237 331
8 336 242 346 450 446 343 458 565
8 446 343 458 565 333 240 344 447
8 449 347 243 335 567 460 345 448
8 451 348 244 337 568 462 347 449
8 451 348 461 569 337 244 346 450
8 570 463 349 452 473 360 257 365
8 453 350 245 338 570 463 349 452
8 455 352 247 340 571 464 350 453
8 460 357 252 345 572 465 351 454
8 572 465 351 454 456 353 248 341
8 456 353 248 341 573 466 352 455
8 344 251 356 459 457 354 468 575
8 458 355 469 576 344 251 356 459
8 346 253 358 461 458 355 469 576
8 462 359 254 347 578 471 357 460
8 348 255 359 462 461 358 472 579
8 591 474 360 473 475 361 256 363
8 475 361 256 363 594 477 362 479
8 363 256 364 482 479 362 480 603
8 590 473 365 484 481 363 482 605
8 482 364 257 365 606 483 366 485
8 559 452 367 486 484 365 485 607
8 542 436 487 609 422 324 369 488
8 525 422 488 611 407 311 371 491
8 488 369 489 612 371 261 370 490
8 491 371 490 613 373 263 372 492
8 495 386 276 377 614 503 385 493
8 614 503 385 493 561 457 342 442
8 615 501 383 494 495 386 276 377
8 496 384 274 378 615 501 383 494
8 618 500 382 497 496 384 274 378
8 619 499 381 498 497 382 272 379
8 511 408 297 393 619 499 381 498
8 620 505 387 499 500 388 278 382
8 527 424 312 408 620 505 387 499
8 502 390 506 621 384 280 388 500
8 622 507 389 501 504 392 282 386
8 502 390 280 384 622 507 389 501
8 504 392 282 386 624 509 391 503
8 624 509 391 503 575 468 354 457
8 513 410 299 395 630 527 408 511
8 631 528 411 514 512 409 300 396
8 513 410 528 631 395 299 409 512
8 519 416 305 401 633 530 411 514
8 634 531 412 515 516 413 302 398
8 523 420 309 405 634 531 412 515
8 635 532 413 516 517 414 303 399
8 521 417 533 636 403 306 414 517
8 520 418 307 402 637 534 415 518
8 519 416 534 637 401 305 415 518
8 522 419 308 404 639 537 418 520
8 522 419 536 640 404 308 417 521
8 524 421 310 406 642 539 420 523
8 524 421 541 644 406 310 423 526
8 646 543 422 525 526 423 311 407
8 529 426 314 410 647 544 424 527
8 528 425 545 648 411 315 427 530
8 529 426 545 648 410 314 425 528
8 535 429 317 416 649 546 427 530
8 650 548 430 531 532 432 320 413
8 539 438 325 420 650 548 430 531
8 533 433 550 651 414 321 432 532
8 536 434 551 652 417 322 433 533
8 537 431 319 418 653 547 428 534
8 535 429 547 653 416 317 428 534
8 538 435 552 654 419 323 434 536
8 538 435 323 419 655 549 431 537
8 540 440 327 421 657 556 438 539
8 540 440 557 659 421 327 439 541
8 541 439 555 660 423 326 437 543
8 661 554 436 542 543 437 324 422
8 676 570 452 559 590 473 365 484
8 560 453 338 441 676 570 452 559
8 562 455 340 443 677 571 453 560
8 447 344 459 566 561 457 575 678
8 564 456 341 445 679 573 455 562
8 567 460 345 448 680 572 454 563
8 680 572 454 563 564 456 341 445
8 565 458 576 682 447 344 459 566
8 450 346 461 569 565 458 576 682
8 568 462 347 449 684 578 460 567
8 451 348 462 568 569 461 579 685
8 686 580 463 570 591 474 360 473
8 571 464 350 453 686 580 463 570
8 573 466 352 455 687 581 464 571
8 572 465 582 688 460 357 471 578
8 574 467 582 688 456 353 465 572
8 574 467 353 456 689 583 466 573
8 459 356 470 577 575 468 585 691
8 576 469 586 692 459 356 470 577
8 461 358 472 579 576 469 586 692
8 462 359 471 578 579 472 588 694
8 704 591 473 590 593 475 363 481
8 595 476 592 705 475 361 474 591
8 593 475 363 481 707 594 479 602
8 594 477 362 479 709 598 478 600
8 595 476 361 475 711 597 477 594
8 479 362 480 603 600 478 601 720
8 481 363 482 605 602 479 603 722
8 603 480 364 482 723 604 483 606
8 605 482 365 484 724 606 485 607
8 656 553 608 726 542 436 487 609
8 645 542 609 728 525 422 488 611
8 609 487 610 729 488 369 489 612
8 611 488 612 730 491 371 490 613
8 616 504 386 495 731 624 503 614
8 731 624 503 614 678 575 457 561
8 732 622 501 615 616 504 386 495
8 617 502 384 496 732 622 501 615
8 617 502 621 735 496 384 500 618
8 736 620 499 619 618 500 382 497
8 630 527 408 511 736 620 499 619
8 621 506 626 737 500 388 505 620
8 647 544 424 527 737 626 505 620
8 623 508 627 738 502 390 506 621
8 623 508 390 502 739 628 507 622
8 625 510 628 739 504 392 507 622
8 740 629 509 624 691 585 468 575
8 625 510 392 504 740 629 509 624
8 632 529 410 513 744 647 527 630
8 631 528 648 745 514 411 530 633
8 632 529 648 745 513 410 528 631
8 638 535 416 519 746 649 530 633
8 747 650 531 634 635 532 413 516
8 642 539 420 523 747 650 531 634
8 636 533 651 748 517 414 532 635
8 640 536 652 749 521 417 533 636
8 639 537 418 520 750 653 534 637
8 638 535 653 750 519 416 534 637
8 641 538 419 522 751 655 537 639
8 641 538 654 752 522 419 536 640
8 643 540 421 524 753 657 539 642
8 643 540 659 755 524 421 541 644
8 644 541 660 757 526 423 543 646
8 758 661 542 645 646 543 422 525
8 529 426 544 647 648 545 662 759
8 530 427 545 648 649 546 663 760
8 535 429 546 649 653 547 664 761
8 762 666 548 650 651 550 432 532
8 657 556 438 539 762 666 548 650
8 652 551 668 763 533 433 550 651
8 654 552 669 764 536 434 551 652
8 655 549 431 537 765 665 547 653
8 538 435 549 655 654 552 667 766
8 661 554 671 768 542 436 553 656
8 658 558 440 540 769 674 556 657
8 658 558 675 770 540 440 557 659
8 659 557 673 771 541 439 555 660
8 660 555 672 772 543 437 554 661
8 788 686 570 676 704 591 473 590
8 677 571 453 560 788 686 570 676
8 679 573 455 562 789 687 571 677
8 566 459 577 683 678 575 691 790
8 681 574 456 564 791 689 573 679
8 680 572 688 792 567 460 578 684
8 681 574 688 792 564 456 572 680
8 682 576 692 794 566 459 577 683
8 569 461 579 685 682 576 692 794
8 568 462 578 684 685 579 694 796
8 687 581 464 571 798 696 580 686
8 798 696 580 686 705 592 474 591
8 689 583 466 573 799 697 581 687
8 688 582 698 800 578 471 588 694
8 690 584 698 800 574 467 582 688
8 690 584 467 574 801 699 583 689
8 693 587 701 803 577 470 585 691
8 693 587 470 577 804 702 586 692
8 695 589 702 804 579 472 586 692
8 695 589 472 579 805 703 588 694
8 708 595 705 813 593 475 591 704
8 710 596 706 814 595 476 592 705
8 707 594 479 602 816 709 600 719
8 708 595 475 593 817 711 594 707
8 709 598 478 600 819 715 599 717
8 711 597 477 594 820 714 598 709
8 710 596 476 595 822 713 597 711
8 600 478 601 720 717 599 718 832
8 602 479 603 722 719 600 720 834
8 720 601 480 603 835 721 604 723
8 722 603 482 605 836 723 606 724
8 767 670 725 839 656 553 608 726
8 756 656 726 841 645 542 609 728
8 726 608 727 842 609 487 610 729
8 728 609 729 843 611 488 612 730
8 844 740 624 731 790 691 575 678
8 733 625 504 616 844 740 624 731
8 734 623 502 617 845 739 622 732
8 733 625 739 845 616 504 622 732
8 734 623 738 846 617 502 621 735
8 735 621 737 847 618 500 620 736
8 744 647 527 630 847 737 620 736
8 621 506 627 738 737 626 741 848
8 647 544 626 737 759 662 741 848
8 623 508 628 739 738 627 742 849
8 740 629 585 691 850 743 700 802
8 625 510 629 740 739 628 743 850
8 632 529 647 744 745 648 759 854
8 633 530 648 745 746 649 760 855
8 638 535 649 746 750 653 761 856
8 857 762 650 747 748 651 532 635
8 753 657 539 642 857 762 650 747
8 749 652 763 858 636 533 651 748
8 752 654 764 859 640 536 652 749
8 751 655 537 639 860 765 653 750
8 641 538 655 751 752 654 766 861
8 754 658 540 643 862 769 657 753
8 754 658 770 863 643 540 659 755
8 755 659 771 864 644 541 660 757
8 758 661 768 866 645 542 656 756
8 757 660 772 867 646 543 661 758
8 759 662 773 868 648 545 663 760
8 649 546 663 760 761 664 774 871
8 765 665 547 653 872 775 664 761
8 873 777 666 762 763 668 550 651
8 769 674 556 657 873 777 666 762
8 764 669 779 874 652 551 668 763
8 654 552 667 766 764 669 778 875
8 655 549 665 765 766 667 776 876
8 768 671 782 877 656 553 670 767
8 772 672 783 878 661 554 671 768
8 658 558 674 769 770 675 786 879
8 659 557 675 770 771 673 785 881
8 882 784 672 772 771 673 555 660
8 789 687 571 677 897 798 686 788
8 897 798 686 788 813 705 591 704
8 791 689 573 679 898 799 687 789
8 795 693 803 900 683 577 691 790
8 793 690 574 681 901 801 689 791
8 792 688 800 902 684 578 694 796
8 793 690 800 902 681 574 688 792
8 795 693 577 683 903 804 692 794
8 797 695 804 903 685 579 692 794
8 797 695 579 685 904 805 694 796
8 905 806 697 799 798 696 581 687
8 814 706 806 905 705 592 696 798
8 689 583 697 799 801 699 808 907
8 800 698 809 908 694 588 703 805
8 690 584 699 801 800 698 809 908
8 803 701 810 909 691 585 700 802
8 693 587 702 804 803 701 811 910
8 695 589 703 805 804 702 812 911
8 818 710 814 919 708 595 705 813
8 821 712 815 920 710 596 706 814
8 816 709 600 719 922 819 717 831
8 817 711 594 707 923 820 709 816
8 818 710 595 708 924 822 711 817
8 819 715 599 717 926 827 716 829
8 820 714 598 709 927 826 715 819
8 929 825 713 822 820 714 597 711
8 821 712 596 710 930 824 713 822
8 717 599 718 832 829 716 830 942
8 719 600 720 834 831 717 832 944
8 832 718 601 720 945 833 721 835
8 834 720 603 722 946 835 723 836
8 869 780 838 950 767 670 725 839
8 865 767 839 952 756 656 726 841
8 839 725 840 953 726 608 727 842
8 841 726 842 954 728 609 729 843
8 844 740 691 790 955 850 802 899
8 733 625 740 844 845 739 850 955
8 734 623 739 845 846 738 849 956
8 735 621 738 846 847 737 848 957
8 744 647 737 847 854 759 848 957
8 738 627 742 849 848 741 851 958
8 848 741 851 958 759 662 773 868
8 850 743 700 802 959 852 807 906
8 849 742 628 739 959 852 743 850
8 854 759 868 965 745 648 760 855
8 746 649 760 855 856 761 871 966
8 860 765 653 750 967 872 761 856
8 968 873 762 857 858 763 651 748
8 862 769 657 753 968 873 762 857
8 859 764 874 969 749 652 763 858
8 752 654 766 861 859 764 875 970
8 751 655 765 860 861 766 876 971
8 754 658 769 862 863 770 879 972
8 755 659 770 863 864 771 881 974
8 976 882 772 867 864 771 660 757
8 866 768 877 977 756 656 767 865
8 867 772 878 978 758 661 768 866
8 760 663 773 868 871 774 883 980
8 870 781 837 948 982 890 780 869
8 982 890 780 869 877 782 670 767
8 761 664 774 871 872 775 884 984
8 876 776 665 765 985 885 775 872
8 873 777 668 763 986 887 779 874
8 769 674 777 873 879 786 887 986
8 764 669 778 875 874 779 888 987
8 766 667 776 876 875 778 886 988
8 878 783 892 989 768 671 782 877
8 878 783 672 772 990 893 784 882
8 880 787 675 770 991 896 786 879
8 880 787 895 992 770 675 785 881
8 881 785 894 993 771 673 784 882
8 1006 905 799 898 897 798 687 789
8 919 814 905 1006 813 705 798 897
8 791 689 799 898 901 801 907 1007
8 900 803 909 1009 790 691 802 899
8 795 693 804 903 900 803 910 1010
8 902 800 908 1011 796 694 805 904
8 793 690 801 901 902 800 908 1011
8 797 695 805 904 903 804 911 1012
8 799 697 806 905 907 808 912 1013
8 920 815 912 1013 814 706 806 905
8 802 700 810 909 906 807 913 1014
8 801 699 808 907 908 809 914 1015
8 805 703 809 908 911 812 915 1016
8 803 701 811 910 909 810 916 1017
8 911 812 917 1018 804 702 811 910
8 925 821 920 1030 818 710 814 919
8 928 823 921 1031 821 712 815 920
8 922 819 717 831 1033 926 829 941
8 923 820 709 816 1034 927 819 922
8 1035 929 822 924 923 820 711 817
8 925 821 710 818 1036 930 822 924
8 1038 933 825 929 927 826 714 820
8 926 827 716 829 1039 935 828 939
8 927 826 715 819 1040 934 827 926
8 928 823 712 821 1041 931 824 930
8 1042 932 824 930 929 825 713 822
8 829 716 830 942 939 828 940 1058
8 831 717 832 944 941 829 942 1060
8 942 830 718 832 1061 943 833 945
8 944 832 720 834 1062 945 835 946
8 981 889 947 1064 870 781 837 948
8 948 837 949 1067 869 780 838 950
8 975 869 950 1069 865 767 839 952
8 950 838 951 1070 839 725 840 953
8 952 839 953 1071 841 726 842 954
8 955 850 802 899 1072 959 906 1008
8 956 849 739 845 1072 959 850 955
8 846 738 849 956 957 848 958 1073
8 957 848 958 1073 854 759 868 965
8 849 742 852 959 958 851 961 1076
8 960 853 961 1076 906 807 852 959
8 958 851 961 1076 868 773 883 980
8 960 853 807 906 1077 963 913 1014
8 855 760 868 965 966 871 980 1085
8 856 761 871 966 967 872 984 1086
8 971 876 765 860 1087 985 872 967
8 968 873 763 858 1088 986 874 969
8 862 769 873 968 972 879 986 1088
8 859 764 875 970 969 874 987 1089
8 861 766 876 971 970 875 988 1090
8 973 880 770 863 1091 991 879 972
8 973 880 992 1092 863 770 881 974
8 974 881 993 1093 864 771 882 976
8 979 870 948 1066 1094 982 869 975
8 1094 982 869 975 977 877 767 865
8 978 878 772 867 1095 990 882 976
8 978 878 989 1096 866 768 877 977
8 871 774 883 980 984 884 994 1099
8 983 891 999 1100 870 781 889 981
8 1101 1000 890 982 989 892 782 877
8 983 891 781 870 1101 1000 890 982
8 872 775 884 984 985 885 995 1103
8 876 776 885 985 988 886 996 1104
8 986 887 779 874 1105 998 888 987
8 879 786 887 986 991 896 998 1105
8 875 778 886 988 987 888 997 1106
8 990 893 1002 1107 878 783 892 989
8 1108 1003 893 990 993 894 784 882
8 880 787 896 991 992 895 1005 1109
8 993 894 785 881 1110 1004 895 992
8 898 799 905 1006 1007 907 1013 1120
8 1030 920 1013 1120 919 814 905 1006
8 901 801 907 1007 1011 908 1015 1121
8 899 802 909 1009 1008 906 1014 1122
8 900 803 910 1010 1009 909 1017 1123
8 1012 911 1018 1124 903 804 910 1010
8 904 805 908 1011 1012 911 1016 1125
8 1013 912 1020 1127 907 808 914 1015
8 1031 921 1020 1127 920 815 912 1013
8 1019 918 962 1075 1128 1021 913 1014
8 1128 1021 913 1014 1017 916 810 909
8 1015 914 1022 1129 908 809 915 1016
8 1016 915 1023 1130 911 812 917 1018
8 1018 917 1024 1131 910 811 916 1017
8 1037 928 1031 1148 925 821 920 1030
8 928 823 931 1041 1031 921 1032 1149
8 1033 926 829 941 1151 1039 939 1057
8 1034 927 819 922 1152 1040 926 1033
8 1153 1038 929 1035 1034 927 820 923
8 1154 1042 930 1036 1035 929 822 924
8 1037 928 821 925 1155 1041 930 1036
8 1039 935 828 939 1156 1047 938 1055
8 1157 1043 932 1042 1038 933 825 929
8 1038 933 826 927 1158 1045 934 1040
8 1040 934 827 926 1159 1046 935 1039
8 930 824 932 1042 1041 931 1044 1160
8 1051 936 1048 1165 1175 1052 937 1053
8 1156 1047 938 1055 1053 937 1054 1178
8 939 828 940 1058 1055 938 1056 1181
8 941 829 942 1060 1057 939 1058 1183
8 942 830 943 1061 1058 940 1059 1184
8 1060 942 832 944 1185 1061 945 1062
8 1082 964 1063 1188 981 889 947 1064
8 1097 981 1064 1190 979 870 948 1066
8 1064 947 1065 1191 948 837 949 1067
8 1066 948 1067 1193 975 869 950 1069
8 1067 949 1068 1194 950 838 951 1070
8 1069 950 1070 1195 952 839 953 1071
8 956 849 959 1072 1073 958 1076 1197
8 1074 960 1076 1197 1008 906 959 1072
8 1073 958 1076 1197 965 868 980 1085
8 1074 960 906 1008 1198 1077 1014 1122
8 1133 1026 1079 1199 1019 918 962 1075
8 1077 963 913 1014 1200 1080 962 1075
8 960 853 963 1077 1076 961 1078 1201
8 980 883 961 1076 1099 994 1078 1201
8 1210 1083 964 1082 1100 999 889 981
8 966 871 980 1085 1086 984 1099 1215
8 967 872 984 1086 1087 985 1103 1216
8 971 876 985 1087 1090 988 1104 1217
8 1088 986 874 969 1218 1105 987 1089
8 972 879 986 1088 1091 991 1105 1218
8 970 875 988 1090 1089 987 1106 1219
8 973 880 991 1091 1092 992 1109 1220
8 1093 993 881 974 1221 1110 992 1092
8 1222 1108 990 1095 1093 993 882 976
8 1223 1101 982 1094 1096 989 877 977
8 1098 983 870 979 1223 1101 982 1094
8 1095 990 1107 1224 978 878 989 1096
8 1098 983 1100 1225 979 870 981 1097
8 984 884 994 1099 1103 995 1111 1227
8 1102 1001 1115 1228 983 891 999 1100
8 1101 1000 892 989 1229 1116 1002 1107
8 1102 1001 891 983 1229 1116 1000 1101
8 985 885 995 1103 1104 996 1112 1230
8 988 886 996 1104 1106 997 1113 1231
8 1105 998 888 987 1232 1114 997 1106
8 991 896 998 1105 1109 1005 1114 1232
8 1108 1003 1117 1233 990 893 1002 1107
8 1108 1003 894 993 1233 1117 1004 1110
8 992 895 1005 1109 1110 1004 1118 1234
8 1120 1013 1127 1244 1007 907 1015 1121
8 1148 1031 1127 1244 1030 920 1013 1120
8 1121 1015 1129 1245 1011 908 1016 1125
8 1126 1019 1075 1196 1246 1128 1014 1122
8 1246 1128 1014 1122 1123 1017 909 1009
8 1124 1018 1131 1247 1010 910 1017 1123
8 1125 1016 1130 1248 1012 911 1018 1124
8 1127 1020 1137 1254 1015 914 1022 1129
8 1031 921 1032 1149 1127 1020 1137 1254
8 1134 1027 918 1019 1257 1140 1021 1128
8 1257 1140 1021 1128 1131 1024 916 1017
8 1129 1022 1141 1258 1016 915 1023 1130
8 1130 1023 1142 1259 1018 917 1024 1131
8 1261 1144 1025 1132 1133 1026 1079 1199
8 1255 1138 1025 1132 1135 1028 1144 1261
8 1133 1026 918 1019 1262 1145 1027 1134
8 1136 1029 1139 1256 1263 1146 1028 1135
8 1037 928 1041 1155 1148 1031 1149 1275
8 1041 931 1044 1160 1149 1032 1150 1276
8 1151 1039 939 1057 1278 1156 1055 1180
8 1152 1040 926 1033 1279 1159 1039 1151
8 1153 1038 927 1034 1280 1158 1040 1152
8 1281 1157 1042 1154 1153 1038 929 1035
8 1036 930 1042 1154 1155 1041 1160 1282
8 1283 1164 1046 1159 1156 1047 935 1039
8 1165 1048 1164 1283 1053 937 1047 1156
8 1157 1043 933 1038 1284 1161 1045 1158
8 1157 1043 1161 1284 1042 932 1044 1160
8 1040 934 1046 1159 1158 1045 1163 1285
8 1166 1049 1167 1292 1051 936 1048 1165
8 1166 1049 936 1051 1293 1168 1050 1172
8 1051 936 1052 1175 1172 1050 1173 1306
8 1174 1051 1165 1290 1308 1175 1053 1177
8 1053 937 1054 1178 1175 1052 1176 1309
8 1278 1156 1055 1180 1177 1053 1178 1311
8 1055 938 1056 1181 1178 1054 1179 1312
8 1057 939 1058 1183 1180 1055 1181 1314
8 1058 940 1059 1184 1181 1056 1182 1315
8 1060 942 1061 1185 1183 1058 1184 1316
8 1208 1081 1187 1321 1082 964 1063 1188
8 1209 1082 1188 1322 1097 981 1064 1190
8 1188 1063 1189 1323 1064 947 1065 1191
8 1190 1064 1191 1325 1066 948 1067 1193
8 1191 1065 1192 1326 1067 949 1068 1194
8 1067 1193 1069 950 1194 1327 1195 1070
8 1250 1133 1199 1330 1126 1019 1075 1196
8 1198 1077 1014 1122 1331 1200 1075 1196
8 1074 960 1077 1198 1197 1076 1201 1332
8 1085 980 1076 1197 1215 1099 1201 1332
8 1199 1079 1203 1333 1075 962 1080 1200
8 1132 1025 1119 1243 1199 1079 1203 1333
8 1201 1078 963 1077 1334 1202 1080 1200
8 1099 994 1078 1201 1227 1111 1202 1334
8 1343 1207 1081 1208 1210 1083 964 1082
8 1214 1084 1186 1319 1343 1207 1081 1208
8 1345 1210 1082 1209 1225 1100 981 1097
8 1346 1211 1083 1210 1228 1115 999 1100
8 1086 984 1099 1215 1216 1103 1227 1352
8 1087 985 1103 1216 1217 1104 1230 1353
8 1090 988 1104 1217 1219 1106 1231 1354
8 1218 1105 987 1089 1355 1232 1106 1219
8 1091 991 1105 1218 1220 1109 1232 1355
8 1092 992 1109 1220 1221 1110 1234 1356
8 1222 1108 1233 1357 1095 990 1107 1224
8 1222 1108 993 1093 1357 1233 1110 1221
8 1223 1101 989 1096 1358 1229 1107 1224
8 1226 1102 983 1098 1358 1229 1101 1223
8 1226 1102 1228 1359 1098 983 1100 1225
8 1103 995 1111 1227 1230 1112 1235 1360
8 1107 1002 1117 1233 1229 1116 1240 1362
8 1102 1001 1116 1229 1228 1115 1240 1362
8 1104 996 1112 1230 1231 1113 1236 1363
8 1364 1237 1114 1232 1231 1113 997 1106
8 1109 1005 1114 1232 1234 1118 1238 1365
8 1110 1004 1118 1234 1233 1117 1241 1366
8 1242 1374 1255 1138 1119 1243 1132 1025
8 1244 1127 1254 1376 1121 1015 1129 1245
8 1148 1031 1149 1275 1244 1127 1254 1376
8 1245 1129 1258 1377 1125 1016 1130 1248
8 1251 1134 1019 1126 1378 1257 1128 1246
8 1378 1257 1128 1246 1247 1131 1017 1123
8 1248 1130 1259 1379 1124 1018 1131 1247
8 1261 1381 1250 1133 1132 1249 1330 1199
8 1255 1380 1252 1135 1132 1249 1381 1261
8 1250 1133 1019 1126 1382 1262 1134 1251
8 1253 1136 1256 1385 1384 1263 1135 1252
8 1254 1137 1265 1387 1129 1022 1141 1258
8 1149 1032 1150 1276 1254 1137 1265 1387
8 1028 1135 1255 1138 1139 1256 1388 1266
8 1136 1029 1147 1264 1256 1139 1267 1389
8 1390 1268 1140 1257 1259 1142 1024 1131
8 1260 1143 1027 1134 1390 1268 1140 1257
8 1258 1141 1269 1391 1130 1023 1142 1259
8 1262 1145 1027 1134 1393 1271 1143 1260
8 1261 1144 1026 1133 1394 1272 1145 1262
8 1135 1028 1144 1261 1263 1146 1272 1394
8 1136 1029 1146 1263 1264 1147 1273 1395
8 1155 1041 1160 1282 1275 1149 1276 1405
8 1276 1150 1044 1160 1406 1277 1162 1286
8 1408 1283 1159 1279 1278 1156 1039 1151
8 1290 1165 1283 1408 1177 1053 1156 1278
8 1152 1040 1159 1279 1280 1158 1285 1409
8 1281 1157 1038 1153 1410 1284 1158 1280
8 1281 1157 1284 1410 1154 1042 1160 1282
8 1159 1046 1164 1283 1285 1163 1289 1412
8 1292 1167 1289 1412 1165 1048 1164 1283
8 1158 1045 1163 1285 1284 1161 1288 1413
8 1284 1161 1288 1413 1160 1044 1162 1286
8 1291 1166 1292 1418 1174 1051 1165 1290
8 1291 1166 1051 1174 1419 1293 1172 1305
8 1294 1169 1296 1421 1166 1049 1167 1292
8 1293 1168 1050 1172 1422 1295 1171 1303
8 1294 1169 1049 1166 1423 1297 1168 1293
8 1422 1295 1171 1303 1301 1170 1302 1435
8 1172 1050 1173 1306 1303 1171 1304 1438
8 1174 1051 1175 1308 1305 1172 1306 1440
8 1175 1052 1176 1309 1306 1173 1307 1441
8 1177 1053 1178 1311 1308 1175 1309 1443
8 1178 1054 1179 1312 1309 1176 1310 1444
8 1180 1055 1181 1314 1311 1178 1312 1446
8 1056 1181 1312 1179 1182 1315 1447 1313
8 1183 1058 1184 1316 1314 1181 1315 1448
8 1319 1186 1084 1214 1451 1317 1213 1350
8 1319 1186 1318 1453 1208 1081 1187 1321
8 1321 1187 1320 1456 1188 1063 1189 1323
8 1344 1208 1321 1457 1209 1082 1188 1322
8 1322 1188 1323 1458 1190 1064 1191 1325
8 1323 1189 1324 1459 1191 1065 1192 1326
8 1191 1325 1193 1067 1326 1460 1327 1194
8 1242 1374 1243 1119 1328 1462 1335 1204
8 1330 1199 1333 1465 1196 1075 1200 1331
8 1132 1249 1330 1199 1243 1375 1465 1333
8 1332 1201 1077 1198 1466 1334 1200 1331
8 1215 1099 1201 1332 1352 1227 1334 1466
8 1119 1243 1333 1203 1204 1335 1470 1338
8 1333 1203 1338 1470 1200 1080 1202 1334
8 1227 1111 1202 1334 1360 1235 1338 1470
8 1328 1462 1335 1204 1205 1336 1471 1339
8 1337 1206 1340 1472 1464 1329 1205 1336
8 1346 1211 1342 1479 1210 1083 1207 1343
8 1346 1211 1115 1228 1479 1342 1239 1361
8 1348 1212 1084 1214 1479 1342 1207 1343
8 1480 1343 1208 1344 1345 1210 1082 1209
8 1351 1214 1319 1454 1480 1343 1208 1344
8 1481 1346 1210 1345 1359 1228 1100 1225
8 1348 1212 1347 1483 1214 1084 1213 1350
8 1216 1103 1227 1352 1353 1230 1360 1488
8 1217 1104 1230 1353 1354 1231 1363 1489
8 1490 1364 1232 1355 1354 1231 1106 1219
8 1220 1109 1232 1355 1356 1234 1365 1491
8 1221 1110 1234 1356 1357 1233 1366 1492
8 1224 1107 1233 1357 1358 1229 1362 1493
8 1226 1102 1229 1358 1359 1228 1362 1493
8 1230 1112 1235 1360 1363 1236 1367 1496
8 1361 1239 1115 1228 1497 1371 1240 1362
8 1366 1241 1372 1498 1233 1117 1240 1362
8 1364 1237 1113 1231 1499 1368 1236 1363
8 1364 1237 1368 1499 1232 1114 1238 1365
8 1234 1118 1238 1365 1366 1241 1369 1500
8 1507 1373 1242 1374 1388 1266 1138 1255
8 1508 1374 1243 1375 1380 1255 1132 1249
8 1376 1254 1387 1509 1245 1129 1258 1377
8 1275 1149 1276 1405 1376 1254 1387 1509
8 1377 1258 1391 1510 1248 1130 1259 1379
8 1511 1390 1257 1378 1379 1259 1131 1247
8 1383 1260 1134 1251 1511 1390 1257 1378
8 1252 1135 1256 1385 1380 1255 1388 1512
8 1261 1381 1513 1394 1133 1250 1382 1262
8 1135 1252 1384 1263 1261 1381 1513 1394
8 1382 1262 1134 1251 1514 1393 1260 1383
8 1253 1136 1263 1384 1386 1264 1395 1516
8 1253 1136 1264 1386 1385 1256 1389 1517
8 1387 1265 1397 1519 1258 1141 1269 1391
8 1276 1150 1277 1406 1387 1265 1397 1519
8 1256 1139 1267 1389 1388 1266 1398 1520
8 1264 1147 1274 1396 1389 1267 1399 1521
8 1392 1270 1143 1260 1522 1400 1268 1390
8 1390 1268 1142 1259 1522 1400 1269 1391
8 1392 1270 1401 1523 1260 1143 1271 1393
8 1272 1394 1524 1402 1145 1262 1393 1271
8 1395 1273 1146 1263 1524 1402 1272 1394
8 1273 1395 1264 1147 1403 1526 1396 1274
8 1405 1276 1160 1282 1534 1406 1286 1411
8 1414 1287 1407 1535 1286 1162 1277 1406
8 1279 1159 1283 1408 1409 1285 1412 1537
8 1418 1292 1412 1537 1290 1165 1283 1408
8 1280 1158 1285 1409 1410 1284 1413 1538
8 1410 1284 1413 1538 1282 1160 1286 1411
8 1285 1163 1289 1412 1413 1288 1417 1540
8 1421 1296 1417 1540 1292 1167 1289 1412
8 1414 1287 1162 1286 1541 1416 1288 1413
8 1420 1294 1421 1545 1291 1166 1292 1418
8 1419 1293 1172 1305 1546 1422 1303 1437
8 1420 1294 1166 1291 1547 1423 1293 1419
8 1294 1169 1297 1423 1421 1296 1425 1548
8 1423 1297 1168 1293 1549 1424 1295 1422
8 1301 1170 1298 1427 1422 1295 1424 1549
8 1432 1300 1428 1554 1301 1170 1298 1427
8 1431 1299 1428 1554 1560 1430 1300 1432
8 1563 1433 1300 1432 1435 1302 1170 1301
8 1546 1422 1303 1437 1434 1301 1435 1565
8 1303 1171 1304 1438 1435 1302 1436 1566
8 1305 1172 1306 1440 1437 1303 1438 1568
8 1306 1173 1307 1441 1438 1304 1439 1569
8 1308 1175 1309 1443 1440 1306 1441 1571
8 1309 1176 1310 1444 1441 1307 1442 1572
8 1311 1178 1312 1446 1443 1309 1444 1574
8 1179 1312 1444 1310 1313 1447 1575 1445
8 1314 1181 1315 1448 1446 1312 1447 1576
8 1350 1213 1349 1486 1451 1317 1449 1579
8 1451 1317 1450 1581 1319 1186 1318 1453
8 1454 1319 1214 1351 1582 1451 1350 1487
8 1453 1318 1452 1584 1321 1187 1320 1456
8 1454 1319 1453 1585 1344 1208 1321 1457
8 1456 1320 1455 1586 1323 1189 1324 1459
8 1457 1321 1456 1587 1322 1188 1323 1458
8 1458 1323 1459 1588 1325 1191 1326 1460
8 1205 1336 1464 1329 1328 1462 1590 1461
8 1507 1373 1461 1590 1374 1242 1328 1462
8 1508 1374 1462 1591 1375 1243 1335 1467
8 1337 1206 1329 1464 1473 1341 1463 1594
8 1375 1243 1335 1467 1465 1333 1470 1596
8 1465 1333 1470 1596 1331 1200 1334 1466
8 1352 1227 1334 1466 1488 1360 1470 1596
8 1591 1462 1336 1468 1467 1335 1471 1597
8 1469 1337 1472 1598 1595 1464 1336 1468
8 1471 1339 1474 1600 1335 1204 1338 1470
8 1600 1474 1367 1496 1470 1338 1235 1360
8 1336 1205 1340 1472 1471 1339 1475 1601
8 1337 1206 1341 1473 1472 1340 1476 1602
8 1495 1370 1478 1609 1361 1239 1342 1479
8 1348 1212 1342 1479 1483 1347 1478 1609
8 1481 1346 1479 1610 1345 1210 1343 1480
8 1481 1346 1228 1359 1610 1479 1361 1494
8 1484 1348 1214 1351 1610 1479 1343 1480
8 1483 1347 1482 1612 1350 1213 1349 1486
8 1484 1348 1483 1613 1351 1214 1350 1487
8 1353 1230 1360 1488 1489 1363 1496 1616
8 1490 1364 1231 1354 1617 1499 1363 1489
8 1490 1364 1499 1617 1355 1232 1365 1491
8 1356 1234 1365 1491 1492 1366 1500 1619
8 1492 1366 1498 1620 1357 1233 1362 1493
8 1494 1361 1228 1359 1621 1497 1362 1493
8 1495 1370 1239 1361 1622 1504 1371 1497
8 1363 1236 1367 1496 1499 1368 1501 1623
8 1497 1371 1240 1362 1624 1505 1372 1498
8 1625 1503 1372 1498 1500 1369 1241 1366
8 1365 1238 1368 1499 1500 1369 1502 1626
8 1520 1398 1506 1633 1388 1266 1373 1507
8 1634 1507 1374 1508 1512 1388 1255 1380
8 1509 1387 1519 1635 1377 1258 1391 1510
8 1405 1276 1406 1534 1509 1387 1519 1635
8 1515 1392 1260 1383 1636 1522 1390 1511
8 1511 1390 1259 1379 1636 1522 1391 1510
8 1385 1256 1389 1517 1512 1388 1520 1637
8 1513 1394 1262 1382 1638 1524 1393 1514
8 1395 1516 1638 1524 1263 1384 1513 1394
8 1515 1392 1523 1639 1383 1260 1393 1514
8 1516 1395 1526 1640 1386 1264 1396 1518
8 1386 1264 1396 1518 1517 1389 1521 1641
8 1519 1397 1527 1643 1391 1269 1400 1522
8 1535 1407 1527 1643 1406 1277 1397 1519
8 1389 1267 1399 1521 1520 1398 1528 1644
8 1645 1529 1399 1521 1525 1404 1274 1396
8 1392 1270 1400 1522 1523 1401 1531 1646
8 1524 1402 1271 1393 1648 1532 1401 1523
8 1403 1526 1648 1532 1273 1395 1524 1402
8 1525 1404 1274 1396 1649 1533 1403 1526
8 1539 1414 1535 1657 1411 1286 1406 1534
8 1542 1415 1536 1658 1414 1287 1407 1535
8 1409 1285 1412 1537 1538 1413 1540 1660
8 1545 1421 1540 1660 1418 1292 1412 1537
8 1539 1414 1286 1411 1661 1541 1413 1538
8 1540 1417 1544 1663 1413 1288 1416 1541
8 1421 1296 1425 1548 1540 1417 1544 1663
8 1542 1415 1287 1414 1664 1543 1416 1541
8 1420 1294 1423 1547 1545 1421 1548 1666
8 1547 1423 1293 1419 1667 1549 1422 1546
8 1434 1301 1427 1553 1546 1422 1549 1667
8 1423 1297 1424 1549 1548 1425 1550 1668
8 1551 1426 1550 1668 1427 1298 1424 1549
8 1551 1426 1298 1427 1671 1552 1428 1554
8 1562 1432 1554 1674 1434 1301 1427 1553
8 1431 1299 1429 1558 1554 1428 1555 1675
8 1431 1299 1430 1560 1558 1429 1557 1680
8 1560 1430 1300 1432 1683 1559 1433 1563
8 1561 1431 1554 1674 1684 1560 1432 1562
8 1685 1563 1432 1562 1565 1435 1301 1434
8 1435 1302 1436 1566 1563 1433 1564 1686
8 1437 1303 1438 1568 1565 1435 1566 1688
8 1438 1304 1439 1569 1566 1436 1567 1689
8 1440 1306 1441 1571 1568 1438 1569 1691
8 1441 1307 1442 1572 1569 1439 1570 1692
8 1443 1309 1444 1574 1571 1441 1572 1694
8 1310 1444 1572 1442 1445 1575 1695 1573
8 1446 1312 1447 1576 1574 1444 1575 1696
8 1486 1349 1485 1614 1579 1449 1577 1699
8 1451 1317 1449 1579 1581 1450 1578 1701
8 1487 1350 1486 1615 1582 1451 1579 1702
8 1581 1450 1580 1704 1453 1318 1452 1584
8 1582 1451 1581 1705 1454 1319 1453 1585
8 1584 1452 1583 1706 1456 1320 1455 1586
8 1585 1453 1584 1707 1457 1321 1456 1587
8 1587 1456 1586 1708 1458 1323 1459 1588
8 1633 1506 1589 1710 1507 1373 1461 1590
8 1464 1329 1461 1590 1594 1463 1589 1710
8 1468 1336 1462 1591 1595 1464 1590 1711
8 1634 1507 1590 1711 1508 1374 1462 1591
8 1473 1341 1463 1594 1603 1477 1593 1716
8 1469 1337 1464 1595 1599 1473 1594 1717
8 1471 1597 1467 1335 1600 1718 1596 1470
8 1718 1600 1496 1616 1596 1470 1360 1488
8 1336 1468 1597 1471 1472 1598 1719 1601
8 1469 1337 1473 1599 1598 1472 1602 1720
8 1722 1604 1501 1623 1600 1474 1367 1496
8 1475 1601 1471 1339 1604 1722 1600 1474
8 1602 1476 1605 1723 1472 1340 1475 1601
8 1476 1602 1724 1606 1341 1473 1603 1477
8 1483 1347 1478 1609 1612 1482 1608 1731
8 1495 1370 1504 1622 1609 1478 1608 1731
8 1618 1495 1609 1732 1494 1361 1479 1610
8 1484 1348 1479 1610 1613 1483 1609 1732
8 1486 1349 1482 1612 1614 1485 1611 1733
8 1613 1483 1612 1734 1487 1350 1486 1615
8 1489 1363 1496 1616 1617 1499 1623 1736
8 1491 1365 1499 1617 1619 1500 1626 1737
8 1618 1495 1361 1494 1738 1622 1497 1621
8 1739 1625 1498 1620 1619 1500 1366 1492
8 1621 1497 1362 1493 1740 1624 1498 1620
8 1742 1631 1504 1622 1624 1505 1371 1497
8 1743 1628 1502 1626 1623 1501 1368 1499
8 1744 1630 1505 1624 1625 1503 1372 1498
8 1745 1629 1503 1625 1626 1502 1369 1500
8 1520 1398 1528 1644 1633 1506 1632 1751
8 1637 1520 1633 1752 1512 1388 1507 1634
8 1635 1519 1643 1753 1510 1391 1522 1636
8 1657 1535 1643 1753 1534 1406 1519 1635
8 1515 1392 1522 1636 1639 1523 1646 1754
8 1517 1389 1521 1641 1637 1520 1644 1755
8 1524 1638 1756 1648 1393 1514 1639 1523
8 1640 1526 1395 1516 1756 1648 1524 1638
8 1642 1525 1396 1518 1757 1649 1526 1640
8 1758 1645 1521 1641 1642 1525 1396 1518
8 1646 1531 1400 1522 1760 1650 1527 1643
8 1535 1407 1536 1658 1643 1527 1650 1760
8 1521 1399 1529 1645 1644 1528 1651 1761
8 1647 1530 1652 1762 1525 1404 1529 1645
8 1401 1523 1648 1532 1531 1646 1763 1655
8 1525 1404 1533 1649 1647 1530 1654 1765
8 1533 1649 1766 1656 1403 1526 1648 1532
8 1662 1542 1658 1774 1539 1414 1535 1657
8 1542 1415 1543 1664 1658 1536 1659 1775
8 1660 1540 1663 1777 1538 1413 1541 1661
8 1545 1421 1548 1666 1660 1540 1663 1777
8 1662 1542 1414 1539 1778 1664 1541 1661
8 1664 1543 1416 1541 1779 1665 1544 1663
8 1548 1425 1550 1668 1663 1544 1665 1779
8 1547 1423 1549 1667 1666 1548 1668 1781
8 1670 1551 1668 1781 1553 1427 1549 1667
8 1551 1426 1552 1671 1668 1550 1669 1782
8 1670 1551 1427 1553 1784 1671 1554 1674
8 1675 1555 1672 1785 1554 1428 1552 1671
8 1678 1556 1673 1789 1558 1429 1555 1675
8 1561 1431 1558 1681 1674 1554 1675 1790
8 1794 1677 1556 1678 1680 1557 1429 1558
8 1560 1430 1559 1683 1680 1557 1679 1797
8 1561 1431 1560 1684 1681 1558 1680 1798
8 1563 1433 1564 1686 1683 1559 1682 1800
8 1684 1560 1432 1562 1801 1683 1563 1685
8 1565 1435 1566 1688 1685 1563 1686 1802
8 1566 1436 1567 1689 1686 1564 1687 1803
8 1568 1438 1569 1691 1688 1566 1689 1805
8 1569 1439 1570 1692 1689 1567 1690 1806
8 1571 1441 1572 1694 1691 1569 1692 1808
8 1442 1572 1692 1570 1573 1695 1809 1693
8 1574 1444 1575 1696 1694 1572 1695 1810
8 1614 1485 1592 1712 1699 1577 1697 1813
8 1579 1449 1577 1699 1701 1578 1698 1815
8 1615 1486 1614 1735 1702 1579 1699 1816
8 1701 1578 1700 1818 1581 1450 1580 1704
8 1582 1451 1579 1702 1705 1581 1701 1819
8 1704 1580 1703 1820 1584 1452 1583 1706
8 1705 1581 1704 1821 1585 1453 1584 1707
8 1707 1584 1706 1822 1587 1456 1586 1708
8 1710 1589 1506 1633 1824 1709 1632 1751
8 1594 1463 1589 1710 1716 1593 1709 1824
8 1752 1633 1710 1825 1634 1507 1590 1711
8 1595 1464 1590 1711 1717 1594 1710 1825
8 1830 1714 1592 1712 1733 1611 1485 1614
8 1603 1477 1593 1716 1725 1607 1715 1834
8 1599 1473 1594 1717 1721 1603 1716 1835
8 1837 1722 1623 1736 1718 1600 1496 1616
8 1719 1601 1722 1837 1597 1471 1600 1718
8 1602 1720 1598 1472 1723 1838 1719 1601
8 1720 1602 1473 1599 1839 1724 1603 1721
8 1723 1605 1726 1840 1601 1475 1604 1722
8 1840 1726 1628 1743 1722 1604 1501 1623
8 1724 1606 1727 1841 1602 1476 1605 1723
8 1725 1607 1728 1842 1603 1477 1606 1724
8 1612 1482 1608 1731 1733 1611 1730 1849
8 1741 1627 1730 1849 1622 1504 1608 1731
8 1613 1483 1609 1732 1734 1612 1731 1850
8 1618 1495 1622 1738 1732 1609 1731 1850
8 1615 1486 1612 1734 1735 1614 1733 1851
8 1852 1743 1626 1737 1736 1623 1499 1617
8 1853 1745 1625 1739 1737 1626 1500 1619
8 1855 1742 1622 1738 1740 1624 1497 1621
8 1856 1744 1624 1740 1739 1625 1498 1620
8 1741 1627 1504 1622 1857 1746 1631 1742
8 1742 1631 1505 1624 1858 1749 1630 1744
8 1859 1747 1629 1745 1743 1628 1502 1626
8 1860 1748 1630 1744 1745 1629 1503 1625
8 1644 1528 1651 1761 1751 1632 1750 1865
8 1637 1520 1644 1755 1752 1633 1751 1866
8 1754 1646 1522 1636 1867 1760 1643 1753
8 1657 1535 1658 1774 1753 1643 1760 1867
8 1639 1523 1646 1754 1756 1648 1763 1868
8 1641 1521 1645 1758 1755 1644 1761 1869
8 1757 1649 1526 1640 1870 1766 1648 1756
8 1642 1525 1649 1757 1759 1647 1765 1871
8 1759 1647 1762 1872 1642 1525 1645 1758
8 1760 1650 1767 1874 1646 1531 1655 1763
8 1658 1536 1659 1775 1760 1650 1767 1874
8 1762 1652 1768 1875 1645 1529 1651 1761
8 1764 1653 1769 1876 1647 1530 1652 1762
8 1656 1766 1877 1773 1532 1648 1763 1655
8 1771 1879 1765 1654 1653 1764 1647 1530
8 1533 1649 1765 1654 1656 1766 1880 1772
8 1662 1542 1664 1778 1774 1658 1775 1887
8 1664 1543 1665 1779 1775 1659 1776 1888
8 1778 1664 1541 1661 1890 1779 1663 1777
8 1666 1548 1668 1781 1777 1663 1779 1890
8 1782 1669 1780 1891 1668 1550 1665 1779
8 1670 1551 1671 1784 1781 1668 1782 1893
8 1671 1552 1672 1785 1782 1669 1783 1894
8 1790 1675 1785 1896 1674 1554 1671 1784
8 1675 1555 1673 1789 1785 1672 1786 1897
8 1792 1676 1788 1903 1678 1556 1673 1789
8 1795 1678 1789 1904 1681 1558 1675 1790
8 1792 1676 1556 1678 1906 1791 1677 1794
8 1680 1557 1679 1797 1794 1677 1793 1909
8 1910 1794 1678 1795 1798 1680 1558 1681
8 1683 1559 1682 1800 1797 1679 1796 1912
8 1684 1560 1683 1801 1798 1680 1797 1913
8 1686 1564 1687 1803 1800 1682 1799 1915
8 1685 1563 1686 1802 1801 1683 1800 1916
8 1688 1566 1689 1805 1802 1686 1803 1917
8 1689 1567 1690 1806 1803 1687 1804 1918
8 1691 1569 1692 1808 1805 1689 1806 1920
8 1692 1570 1693 1809 1806 1690 1807 1921
8 1694 1572 1695 1810 1808 1692 1809 1922
8 1829 1713 1811 1926 1712 1592 1697 1813
8 1813 1697 1812 1928 1699 1577 1698 1815
8 1735 1614 1712 1828 1816 1699 1813 1929
8 1815 1698 1814 1931 1701 1578 1700 1818
8 1702 1579 1699 1816 1819 1701 1815 1932
8 1818 1700 1817 1933 1704 1580 1703 1820
8 1819 1701 1818 1934 1705 1581 1704 1821
8 1821 1704 1820 1935 1707 1584 1706 1822
8 1824 1709 1632 1751 1937 1823 1750 1865
8 1716 1593 1709 1824 1834 1715 1823 1937
8 1825 1710 1633 1752 1938 1824 1751 1866
8 1717 1594 1710 1825 1835 1716 1824 1938
8 1945 1830 1712 1828 1851 1733 1614 1735
8 1830 1714 1831 1946 1712 1592 1713 1829
8 1947 1832 1714 1830 1849 1730 1611 1733
8 1843 1729 1607 1725 1950 1833 1715 1834
8 1721 1603 1716 1835 1836 1725 1834 1951
8 1836 1725 1842 1953 1721 1603 1724 1839
8 1723 1838 1719 1601 1840 1954 1837 1722
8 1954 1840 1743 1852 1837 1722 1623 1736
8 1724 1839 1720 1602 1841 1955 1838 1723
8 1841 1727 1844 1956 1723 1605 1726 1840
8 1956 1844 1747 1859 1840 1726 1628 1743
8 1728 1842 1724 1606 1845 1957 1841 1727
8 1725 1607 1729 1843 1842 1728 1846 1958
8 1741 1627 1746 1857 1849 1730 1848 1965
8 1734 1612 1731 1850 1851 1733 1849 1966
8 1854 1741 1849 1966 1738 1622 1731 1850
8 1967 1859 1745 1853 1852 1743 1626 1737
8 1968 1860 1744 1856 1853 1745 1625 1739
8 1854 1741 1622 1738 1969 1857 1742 1855
8 1855 1742 1624 1740 1970 1858 1744 1856
8 1857 1746 1631 1742 1971 1861 1749 1858
8 1858 1749 1630 1744 1972 1863 1748 1860
8 1859 1747 1862 1973 1745 1629 1748 1860
8 1875 1768 1864 1977 1761 1651 1750 1865
8 1755 1644 1761 1869 1866 1751 1865 1978
8 1867 1760 1874 1979 1754 1646 1763 1868
8 1774 1658 1775 1887 1867 1760 1874 1979
8 1870 1766 1648 1756 1980 1877 1763 1868
8 1872 1762 1875 1981 1758 1645 1761 1869
8 1757 1649 1766 1870 1871 1765 1880 1982
8 1983 1879 1764 1873 1871 1765 1647 1759
8 1873 1764 1876 1984 1759 1647 1762 1872
8 1877 1773 1655 1763 1986 1881 1767 1874
8 1775 1659 1776 1888 1874 1767 1881 1986
8 1876 1769 1882 1987 1762 1652 1768 1875
8 1878 1770 1883 1988 1764 1653 1769 1876
8 1880 1772 1656 1766 1989 1886 1773 1877
8 1878 1770 1653 1764 1990 1884 1771 1879
8 1765 1654 1772 1880 1879 1771 1885 1991
8 1778 1664 1779 1890 1887 1775 1888 1997
8 1998 1889 1776 1888 1891 1780 1665 1779
8 1893 1782 1891 2000 1781 1668 1779 1890
8 1894 1783 1892 2001 1782 1669 1780 1891
8 1784 1671 1785 1896 1893 1782 1894 2003
8 1897 1786 1895 2004 1785 1672 1783 1894
8 1790 1675 1789 1904 1896 1785 1897 2006
8 1901 1787 1898 2007 1789 1673 1786 1897
8 1903 1788 1900 2013 1789 1673 1787 1901
8 1792 1676 1791 1906 1903 1788 1902 2016
8 1907 1792 1903 2017 1795 1678 1789 1904
8 1906 1791 1677 1794 2019 1905 1793 1909
8 1907 1792 1678 1795 2020 1906 1794 1910
8 1797 1679 1796 1912 1909 1793 1908 2022
8 1798 1680 1797 1913 1910 1794 1909 2023
8 1800 1682 1799 1915 1912 1796 1911 2025
8 1801 1683 1800 1916 1913 1797 1912 2026
8 1803 1687 1804 1918 1915 1799 1914 2028
8 1802 1686 1803 1917 1916 1800 1915 2029
8 1805 1689 1806 1920 1917 1803 1918 2030
8 1806 1690 1807 1921 1918 1804 1919 2031
8 1808 1692 1809 1922 1920 1806 1921 2032
8 1939 1826 1924 2037 1829 1713 1811 1926
8 1926 1811 1925 2039 1813 1697 1812 1928
8 1944 1829 1926 2040 1828 1712 1813 1929
8 1928 1812 1927 2042 1815 1698 1814 1931
8 1929 1813 1928 2043 1816 1699 1815 1932
8 1931 1814 1930 2044 1818 1700 1817 1933
8 1932 1815 1931 2045 1819 1701 1818 1934
8 1934 1818 1933 2046 1821 1704 1820 1935
8 2048 1936 1823 1937 1977 1864 1750 1865
8 1950 1833 1715 1834 2048 1936 1823 1937
8 1938 1824 1751 1866 2049 1937 1865 1978
8 1835 1716 1824 1938 1951 1834 1937 2049
8 1939 1826 1713 1829 2053 1942 1831 1946
8 1940 1827 1923 2035 2053 1942 1826 1939
8 1945 1830 1946 2058 1828 1712 1829 1944
8 2059 1947 1830 1945 1966 1849 1733 1851
8 1947 1832 1730 1849 2060 1948 1848 1965
8 1947 1832 1948 2060 1830 1714 1831 1946
8 1959 1847 1729 1843 2063 1949 1833 1950
8 1952 1843 1725 1836 2064 1950 1834 1951
8 1836 1725 1843 1952 1953 1842 1958 2066
8 1953 1842 1957 2067 1839 1724 1841 1955
8 1841 1955 1838 1723 1956 2068 1954 1840
8 2068 1956 1859 1967 1954 1840 1743 1852
8 1956 1844 1960 2069 1859 1747 1862 1973
8 1845 1957 1841 1727 1960 2069 1956 1844
8 1728 1842 1957 1845 1846 1958 2071 1961
8 1962 2072 1959 1847 1846 1958 1843 1729
8 1971 1861 1964 2077 1857 1746 1848 1965
8 1854 1741 1857 1969 1966 1849 1965 2078
8 1967 1859 1973 2079 1853 1745 1860 1968
8 1970 1858 1744 1856 2080 1972 1860 1968
8 1969 1857 1742 1855 2081 1971 1858 1970
8 1971 1861 1749 1858 2082 1974 1863 1972
8 1973 1862 1975 2083 1860 1748 1863 1972
8 1987 1882 1976 2086 1875 1768 1864 1977
8 1981 1875 1977 2087 1869 1761 1865 1978
8 1980 1877 1763 1868 2088 1986 1874 1979
8 1887 1775 1888 1997 1979 1874 1986 2088
8 1880 1982 2089 1989 1766 1870 1980 1877
8 1984 1876 1987 2090 1872 1762 1875 1981
8 1765 1871 1983 1879 1880 1982 2091 1991
8 1985 1878 1764 1873 2092 1990 1879 1983
8 1985 1878 1988 2093 1873 1764 1876 1984
8 2094 1992 1881 1986 1998 1889 1776 1888
8 1986 1881 1992 2094 1877 1773 1886 1989
8 1988 1883 1993 2095 1876 1769 1882 1987
8 1878 1770 1884 1990 1988 1883 1994 2096
8 1991 1885 1772 1880 2097 1996 1886 1989
8 1879 1771 1885 1991 1990 1884 1995 2098
8 2103 1998 1888 1997 2000 1891 1779 1890
8 2104 1999 1889 1998 2001 1892 1780 1891
8 2003 1894 2001 2106 1893 1782 1891 2000
8 2004 1895 2002 2107 1894 1783 1892 2001
8 2006 1897 2004 2109 1896 1785 1894 2003
8 2007 1898 2005 2110 1897 1786 1895 2004
8 2014 1901 2007 2112 1904 1789 1897 2006
8 2011 1899 2008 2113 1901 1787 1898 2007
8 2119 2010 1899 2011 2013 1900 1787 1901
8 2016 1902 2012 2122 1903 1788 1900 2013
8 2017 1903 2013 2123 1904 1789 1901 2014
8 1906 1791 1905 2019 2016 1902 2015 2125
8 1907 1792 1906 2020 2017 1903 2016 2126
8 1909 1793 1908 2022 2019 1905 2018 2128
8 2020 1906 1794 1910 2129 2019 1909 2023
8 1912 1796 1911 2025 2022 1908 2021 2131
8 1913 1797 1912 2026 2023 1909 2022 2132
8 1915 1799 1914 2028 2025 1911 2024 2134
8 1916 1800 1915 2029 2026 1912 2025 2135
8 1918 1804 1919 2031 2028 1914 2027 2136
8 1917 1803 1918 2030 2029 1915 2028 2137
8 1920 1806 1921 2032 2030 1918 2031 2138
8 1940 1827 1941 2054 2035 1923 2033 2140
8 2035 1923 2034 2143 1939 1826 1924 2037
8 2037 1924 2036 2146 1926 1811 1925 2039
8 2051 1939 2037 2147 1944 1829 1926 2040
8 2039 1925 2038 2149 1928 1812 1927 2042
8 2040 1926 2039 2150 1929 1813 1928 2043
8 2042 1927 2041 2151 1931 1814 1930 2044
8 2043 1928 2042 2152 1932 1815 1931 2045
8 2045 1931 2044 2153 1934 1818 1933 2046
8 2155 2047 1936 2048 2086 1976 1864 1977
8 2063 1949 1833 1950 2155 2047 1936 2048
8 2156 2048 1937 2049 2087 1977 1865 1978
8 2064 1950 1834 1951 2156 2048 1937 2049
8 2051 1939 1829 1944 2160 2053 1946 2058
8 2052 1940 2035 2144 2160 2053 1939 2051
8 2053 1942 1831 1946 2163 2057 1948 2060
8 2055 1943 1827 1940 2163 2057 1942 2053
8 2055 1943 2056 2164 1940 1827 1941 2054
8 2059 1947 1849 1966 2167 2060 1965 2078
8 2059 1947 2060 2167 1945 1830 1946 2058
8 2077 1964 2061 2168 1965 1848 1948 2060
8 2070 1963 1847 1959 2170 2062 1949 2063
8 2065 1959 1843 1952 2171 2063 1950 2064
8 2173 2072 1958 2066 2065 1959 1843 1952
8 1953 1842 1958 2066 2067 1957 2071 2174
8 2068 1956 2069 2175 1967 1859 1973 2079
8 2067 1957 2069 2175 1955 1841 1956 2068
8 1845 1957 2069 1960 1961 2071 2176 2073
8 2069 1960 2073 2176 1973 1862 1975 2083
8 2070 1963 2075 2177 1959 1847 1962 2072
8 1846 1958 2071 1961 1962 2072 2178 2074
8 2077 1964 1861 1971 2182 2076 1974 2082
8 2081 1971 2077 2183 1969 1857 1965 2078
8 2079 1973 2083 2184 1968 1860 1972 2080
8 2081 1971 1858 1970 2185 2082 1972 2080
8 2083 1975 2084 2186 1972 1863 1974 2082
8 2086 1976 1882 1987 2189 2085 1993 2095
8 2090 1987 2086 2190 1981 1875 1977 2087
8 2191 2094 1986 2088 2103 1998 1888 1997
8 2088 1986 2094 2191 1980 1877 1989 2089
8 1991 2091 2192 2097 1880 1982 2089 1989
8 2093 1988 2095 2193 1984 1876 1987 2090
8 1879 1983 2092 1990 1991 2091 2194 2098
8 1985 1878 1990 2092 2093 1988 2096 2195
8 2097 1996 1886 1989 2196 2099 1992 2094
8 2196 2099 1992 2094 2104 1999 1889 1998
8 1994 2096 1988 1883 2100 2197 2095 1993
8 2096 1994 1884 1990 2198 2101 1995 2098
8 1995 2098 2199 2102 1885 1991 2097 1996
8 2203 2104 1998 2103 2106 2001 1891 2000
8 2107 2002 2105 2204 2001 1892 1999 2104
8 2109 2004 2107 2206 2003 1894 2001 2106
8 2110 2005 2108 2207 2004 1895 2002 2107
8 2112 2007 2110 2209 2006 1897 2004 2109
8 2113 2008 2111 2210 2007 1898 2005 2110
8 2120 2011 2113 2212 2014 1901 2007 2112
8 2117 2009 2114 2213 2011 1899 2008 2113
8 2219 2116 2009 2117 2119 2010 1899 2011
8 2222 2118 2010 2119 2122 2012 1900 2013
8 2223 2119 2011 2120 2123 2013 1901 2014
8 2016 1902 2015 2125 2122 2012 2121 2225
8 2126 2016 2122 2226 2017 1903 2013 2123
8 2019 1905 2018 2128 2125 2015 2124 2228
8 2020 1906 2019 2129 2126 2016 2125 2229
8 2022 1908 2021 2131 2128 2018 2127 2231
8 2023 1909 2022 2132 2129 2019 2128 2232
8 2025 1911 2024 2134 2131 2021 2130 2234
8 2026 1912 2025 2135 2132 2022 2131 2235
8 1914 2028 2134 2024 2027 2136 2236 2133
8 2029 1915 2028 2137 2135 2025 2134 2237
8 2030 1918 2031 2138 2137 2028 2136 2238
8 2157 2050 2139 2240 2054 1941 2033 2140
8 2052 1940 2054 2161 2144 2035 2140 2242
8 2140 2033 2141 2243 2035 1923 2034 2143
8 2143 2034 2142 2246 2037 1924 2036 2146
8 2144 2035 2143 2247 2051 1939 2037 2147
8 2146 2036 2145 2249 2039 1925 2038 2149
8 2147 2037 2146 2250 2040 1926 2039 2150
8 2149 2038 2148 2251 2042 1927 2041 2151
8 2150 2039 2149 2252 2043 1928 2042 2152
8 2152 2042 2151 2253 2045 1931 2044 2153
8 2255 2154 2047 2155 2189 2085 1976 2086
8 2170 2062 1949 2063 2255 2154 2047 2155
8 2256 2155 2048 2156 2190 2086 1977 2087
8 2171 2063 1950 2064 2256 2155 2048 2156
8 2258 2159 2050 2157 2164 2056 1941 2054
8 2160 2053 1946 2058 2262 2163 2060 2167
8 2162 2055 1940 2052 2262 2163 2053 2160
8 2162 2055 2164 2263 2052 1940 2054 2161
8 2163 2057 1948 2060 2264 2165 2061 2168
8 2055 1943 2057 2163 2164 2056 2165 2264
8 2182 2076 2166 2268 2077 1964 2061 2168
8 2183 2077 2168 2269 2078 1965 2060 2167
8 2070 1963 2062 2170 2177 2075 2169 2271
8 2172 2070 1959 2065 2272 2170 2063 2171
8 2172 2070 2177 2273 2065 1959 2072 2173
8 2066 1958 2072 2173 2174 2071 2178 2274
8 2067 1957 2071 2174 2175 2069 2176 2275
8 2175 2069 2176 2275 2079 1973 2083 2184
8 2071 1961 2074 2178 2176 2073 2179 2276
8 2176 2073 2179 2276 2083 1975 2084 2186
8 2072 1962 2075 2177 2178 2074 2180 2277
8 2182 2076 1974 2082 2280 2181 2084 2186
8 2183 2077 1971 2081 2281 2182 2082 2185
8 2184 2083 2186 2282 2080 1972 2082 2185
8 2189 2085 1993 2095 2285 2188 2100 2197
8 2190 2086 1987 2090 2286 2189 2095 2193
8 2192 2097 1989 2089 2287 2196 2094 2191
8 2287 2196 2094 2191 2203 2104 1998 2103
8 2194 2098 1991 2091 2288 2199 2097 2192
8 2195 2096 2197 2289 2093 1988 2095 2193
8 2096 2195 2290 2198 1990 2092 2194 2098
8 2097 1996 2099 2196 2199 2102 2200 2291
8 2196 2099 1999 2104 2291 2200 2105 2204
8 2100 2197 2292 2201 1994 2096 2198 2101
8 1995 2098 2198 2101 2102 2199 2293 2202
8 2206 2107 2204 2296 2106 2001 2104 2203
8 2207 2108 2205 2297 2107 2002 2105 2204
8 2209 2110 2207 2299 2109 2004 2107 2206
8 2210 2111 2208 2300 2110 2005 2108 2207
8 2212 2113 2210 2302 2112 2007 2110 2209
8 2213 2114 2211 2303 2113 2008 2111 2210
8 2220 2117 2213 2305 2120 2011 2113 2212
8 2216 2115 2214 2306 2117 2009 2114 2213
8 2216 2115 2009 2117 2311 2217 2116 2219
8 2219 2116 2010 2119 2314 2218 2118 2222
8 2315 2219 2117 2220 2223 2119 2011 2120
8 2122 2012 2121 2225 2222 2118 2221 2317
8 2318 2222 2119 2223 2226 2122 2013 2123
8 2125 2015 2124 2228 2225 2121 2224 2320
8 2126 2016 2125 2229 2226 2122 2225 2321
8 2128 2018 2127 2231 2228 2124 2227 2323
8 2129 2019 2128 2232 2229 2125 2228 2324
8 2131 2021 2130 2234 2231 2127 2230 2326
8 2132 2022 2131 2235 2232 2128 2231 2327
8 2134 2024 2133 2236 2234 2130 2233 2328
8 2135 2025 2134 2237 2235 2131 2234 2329
8 2137 2028 2136 2238 2237 2134 2236 2330
8 2157 2050 2158 2259 2240 2139 2239 2332
8 2257 2157 2240 2334 2161 2054 2140 2242
8 2240 2139 2241 2335 2140 2033 2141 2243
8 2242 2140 2243 2337 2144 2035 2143 2247
8 2243 2141 2244 2338 2143 2034 2142 2246
8 2246 2142 2245 2341 2146 2036 2145 2249
8 2247 2143 2246 2342 2147 2037 2146 2250
8 2249 2145 2248 2343 2149 2038 2148 2251
8 2250 2146 2249 2344 2150 2039 2149 2252
8 2252 2149 2251 2345 2152 2042 2151 2253
8 2169 2271 2347 2254 2062 2170 2255 2154
8 2189 2085 2188 2285 2255 2154 2254 2347
8 2348 2255 2155 2256 2286 2189 2086 2190
8 2272 2170 2063 2171 2348 2255 2155 2256
8 2349 2258 2157 2257 2263 2164 2054 2161
8 2258 2159 2261 2351 2157 2050 2158 2259
8 2258 2159 2056 2164 2351 2261 2165 2264
8 2262 2163 2060 2167 2355 2264 2168 2269
8 2162 2055 2163 2262 2263 2164 2264 2355
8 2357 2266 2165 2264 2268 2166 2061 2168
8 2268 2166 2076 2182 2361 2267 2181 2280
8 2281 2182 2268 2362 2183 2077 2168 2269
8 2271 2169 2270 2364 2177 2075 2180 2277
8 2172 2070 2170 2272 2273 2177 2271 2365
8 2072 2173 2274 2178 2177 2273 2366 2277
8 2071 2174 2275 2176 2178 2274 2367 2276
8 2275 2176 2276 2367 2184 2083 2186 2282
8 2283 2187 2084 2186 2368 2278 2179 2276
8 2178 2074 2180 2277 2276 2179 2278 2368
8 2283 2187 2279 2370 2186 2084 2181 2280
8 2281 2182 2082 2185 2371 2280 2186 2282
8 2188 2285 2374 2284 2100 2197 2292 2201
8 2286 2189 2095 2193 2375 2285 2197 2289
8 2192 2097 2196 2287 2288 2199 2291 2376
8 2287 2196 2104 2203 2376 2291 2204 2296
8 2194 2098 2199 2288 2290 2198 2293 2377
8 2289 2197 2096 2195 2378 2292 2198 2290
8 2291 2200 2105 2204 2379 2294 2205 2297
8 2199 2102 2200 2291 2293 2202 2294 2379
8 2198 2101 2202 2293 2292 2201 2295 2380
8 2299 2207 2297 2383 2206 2107 2204 2296
8 2300 2208 2298 2384 2207 2108 2205 2297
8 2302 2210 2300 2386 2209 2110 2207 2299
8 2303 2211 2301 2387 2210 2111 2208 2300
8 2305 2213 2303 2389 2212 2113 2210 2302
8 2306 2214 2304 2390 2213 2114 2211 2303
8 2310 2216 2306 2392 2220 2117 2213 2305
8 2308 2215 2307 2393 2216 2115 2214 2306
8 2308 2215 2115 2216 2396 2309 2217 2311
8 2310 2216 2117 2220 2398 2311 2219 2315
8 2311 2217 2116 2219 2399 2312 2218 2314
8 2314 2218 2118 2222 2402 2313 2221 2317
8 2315 2219 2119 2223 2403 2314 2222 2318
8 2225 2121 2224 2320 2317 2221 2316 2405
8 2226 2122 2225 2321 2318 2222 2317 2406
8 2228 2124 2227 2323 2320 2224 2319 2408
8 2229 2125 2228 2324 2321 2225 2320 2409
8 2231 2127 2230 2326 2323 2227 2322 2411
8 2232 2128 2231 2327 2324 2228 2323 2412
8 2234 2130 2233 2328 2326 2230 2325 2413
8 2235 2131 2234 2329 2327 2231 2326 2414
8 2237 2134 2236 2330 2329 2234 2328 2415
8 2259 2158 2260 2352 2332 2239 2331 2417
8 2257 2157 2259 2350 2334 2240 2332 2419
8 2240 2139 2239 2332 2335 2241 2333 2420
8 2334 2240 2335 2422 2242 2140 2243 2337
8 2335 2241 2336 2423 2243 2141 2244 2338
8 2337 2243 2338 2425 2247 2143 2246 2342
8 2338 2244 2339 2426 2246 2142 2245 2341
8 2341 2245 2340 2428 2249 2145 2248 2343
8 2342 2246 2341 2429 2250 2146 2249 2344
8 2344 2249 2343 2430 2252 2149 2251 2345
8 2188 2285 2347 2254 2284 2374 2432 2346
8 2347 2254 2346 2432 2271 2169 2270 2364
8 2365 2271 2170 2272 2433 2347 2255 2348
8 2286 2189 2285 2375 2348 2255 2347 2433
8 2349 2258 2351 2435 2257 2157 2259 2350
8 2349 2258 2164 2263 2435 2351 2264 2355
8 2259 2158 2261 2351 2352 2260 2354 2437
8 2356 2265 2354 2437 2264 2165 2261 2351
8 2441 2357 2264 2355 2362 2268 2168 2269
8 2356 2265 2165 2264 2442 2358 2266 2357
8 2443 2359 2266 2357 2361 2267 2166 2268
8 2370 2279 2360 2446 2280 2181 2267 2361
8 2362 2268 2182 2281 2447 2361 2280 2371
8 2180 2277 2368 2278 2270 2364 2449 2363
8 2271 2365 2273 2177 2364 2450 2366 2277
8 2372 2283 2186 2282 2451 2368 2276 2367
8 2178 2274 2367 2276 2277 2366 2451 2368
8 2283 2187 2278 2368 2370 2279 2369 2452
8 2372 2283 2370 2453 2282 2186 2280 2371
8 2284 2374 2455 2373 2201 2292 2380 2295
8 2375 2285 2197 2289 2456 2374 2292 2378
8 2376 2291 2204 2296 2457 2379 2297 2383
8 2288 2199 2291 2376 2377 2293 2379 2457
8 2198 2290 2378 2292 2293 2377 2458 2380
8 2293 2202 2294 2379 2380 2295 2381 2459
8 2384 2298 2381 2459 2297 2205 2294 2379
8 2386 2300 2384 2463 2299 2207 2297 2383
8 2387 2301 2385 2464 2300 2208 2298 2384
8 2389 2303 2387 2466 2302 2210 2300 2386
8 2390 2304 2388 2467 2303 2211 2301 2387
8 2392 2306 2390 2469 2305 2213 2303 2389
8 2393 2307 2391 2470 2306 2214 2304 2390
8 2395 2308 2393 2472 2310 2216 2306 2392
8 2308 2215 2309 2396 2393 2307 2394 2473
8 2395 2308 2216 2310 2475 2396 2311 2398
8 2396 2309 2217 2311 2476 2397 2312 2399
8 2398 2311 2219 2315 2478 2399 2314 2403
8 2399 2312 2218 2314 2479 2400 2313 2402
8 2317 2221 2316 2405 2402 2313 2401 2482
8 2403 2314 2222 2318 2483 2402 2317 2406
8 2320 2224 2319 2408 2405 2316 2404 2485
8 2321 2225 2320 2409 2406 2317 2405 2486
8 2323 2227 2322 2411 2408 2319 2407 2488
8 2324 2228 2323 2412 2409 2320 2408 2489
8 2326 2230 2325 2413 2411 2322 2410 2490
8 2327 2231 2326 2414 2412 2323 2411 2491
8 2329 2234 2328 2415 2414 2326 2413 2492
8 2417 2331 2260 2352 2494 2416 2353 2438
8 2350 2259 2352 2436 2419 2332 2417 2496
8 2332 2239 2331 2417 2420 2333 2418 2497
8 2334 2240 2332 2419 2422 2335 2420 2499
8 2420 2333 2421 2500 2335 2241 2336 2423
8 2422 2335 2423 2502 2337 2243 2338 2425
8 2423 2336 2424 2503 2338 2244 2339 2426
8 2425 2338 2426 2505 2342 2246 2341 2429
8 2426 2339 2427 2506 2341 2245 2340 2428
8 2429 2341 2428 2507 2344 2249 2343 2430
8 2432 2346 2284 2374 2509 2431 2373 2455
8 2432 2346 2431 2509 2364 2270 2363 2449
8 2375 2285 2374 2456 2433 2347 2432 2510
8 2347 2433 2365 2271 2432 2510 2450 2364
8 2350 2259 2351 2435 2436 2352 2437 2514
8 2440 2356 2437 2514 2355 2264 2351 2435
8 2352 2260 2354 2437 2438 2353 2439 2516
8 2356 2265 2358 2442 2437 2354 2439 2516
8 2440 2356 2264 2355 2518 2442 2357 2441
8 2519 2443 2357 2441 2447 2361 2268 2362
8 2443 2359 2444 2520 2357 2266 2358 2442
8 2443 2359 2267 2361 2520 2444 2360 2446
8 2446 2360 2279 2370 2523 2445 2369 2452
8 2453 2370 2446 2524 2371 2280 2361 2447
8 2449 2363 2448 2525 2368 2278 2369 2452
8 2366 2277 2364 2450 2451 2368 2449 2526
8 2372 2283 2368 2451 2453 2370 2452 2527
8 2455 2373 2295 2380 2529 2454 2382 2460
8 2456 2374 2292 2378 2530 2455 2380 2458
8 2377 2293 2379 2457 2458 2380 2459 2531
8 2463 2384 2459 2531 2383 2297 2379 2457
8 2533 2461 2382 2460 2459 2381 2295 2380
8 2464 2385 2461 2533 2384 2298 2381 2459
8 2466 2387 2464 2537 2386 2300 2384 2463
8 2467 2388 2465 2538 2387 2301 2385 2464
8 2469 2390 2467 2540 2389 2303 2387 2466
8 2470 2391 2468 2541 2390 2304 2388 2467
8 2472 2393 2470 2543 2392 2306 2390 2469
8 2393 2307 2394 2473 2470 2391 2471 2544
8 2395 2308 2396 2475 2472 2393 2473 2546
8 2396 2309 2397 2476 2473 2394 2474 2547
8 2475 2396 2311 2398 2549 2476 2399 2478
8 2476 2397 2312 2399 2550 2477 2400 2479
8 2478 2399 2314 2403 2552 2479 2402 2483
8 2479 2400 2313 2402 2553 2480 2401 2482
8 2405 2316 2404 2485 2482 2401 2481 2556
8 2406 2317 2405 2486 2483 2402 2482 2557
8 2408 2319 2407 2488 2485 2404 2484 2559
8 2409 2320 2408 2489 2486 2405 2485 2560
8 2411 2322 2410 2490 2488 2407 2487 2561
8 2412 2323 2411 2491 2489 2408 2488 2562
8 2414 2326 2413 2492 2491 2411 2490 2563
8 2513 2434 2493 2565 2438 2353 2416 2494
8 2496 2417 2352 2436 2567 2494 2438 2515
8 2494 2416 2495 2568 2417 2331 2418 2497
8 2419 2332 2417 2496 2499 2420 2497 2570
8 2497 2418 2498 2571 2420 2333 2421 2500
8 2499 2420 2500 2573 2422 2335 2423 2502
8 2500 2421 2501 2574 2423 2336 2424 2503
8 2502 2423 2503 2576 2425 2338 2426 2505
8 2503 2424 2504 2577 2426 2339 2427 2506
8 2505 2426 2506 2578 2429 2341 2428 2507
8 2509 2431 2373 2455 2580 2508 2454 2529
8 2509 2431 2508 2580 2449 2363 2448 2525
8 2432 2510 2581 2509 2374 2456 2530 2455
8 2432 2510 2450 2364 2509 2581 2526 2449
8 2583 2511 2434 2513 2516 2439 2353 2438
8 2436 2352 2437 2514 2515 2438 2516 2588
8 2440 2356 2442 2518 2514 2437 2516 2588
8 2442 2358 2444 2520 2516 2439 2517 2589
8 2519 2443 2520 2591 2441 2357 2442 2518
8 2519 2443 2361 2447 2591 2520 2446 2524
8 2446 2360 2445 2523 2520 2444 2521 2592
8 2525 2448 2522 2593 2452 2369 2445 2523
8 2524 2446 2370 2453 2594 2523 2452 2527
8 2526 2449 2525 2595 2451 2368 2452 2527
8 2534 2462 2528 2597 2460 2382 2454 2529
8 2530 2455 2380 2458 2598 2529 2460 2532
8 2599 2533 2460 2532 2531 2459 2380 2458
8 2537 2464 2533 2599 2463 2384 2459 2531
8 2534 2462 2382 2460 2601 2535 2461 2533
8 2538 2465 2535 2601 2464 2385 2461 2533
8 2540 2467 2538 2604 2466 2387 2464 2537
8 2541 2468 2539 2605 2467 2388 2465 2538
8 2543 2470 2541 2607 2469 2390 2467 2540
8 2470 2391 2471 2544 2541 2468 2542 2608
8 2472 2393 2473 2546 2543 2470 2544 2610
8 2473 2394 2474 2547 2544 2471 2545 2611
8 2475 2396 2476 2549 2546 2473 2547 2613
8 2476 2397 2477 2550 2547 2474 2548 2614
8 2549 2476 2399 2478 2616 2550 2479 2552
8 2479 2400 2480 2553 2550 2477 2551 2617
8 2552 2479 2402 2483 2619 2553 2482 2557
8 2482 2401 2481 2556 2553 2480 2554 2620
8 2485 2404 2484 2559 2556 2481 2555 2623
8 2486 2405 2485 2560 2557 2482 2556 2624
8 2488 2407 2487 2561 2559 2484 2558 2625
8 2489 2408 2488 2562 2560 2485 2559 2626
8 2491 2411 2490 2563 2562 2488 2561 2627
8 2513 2434 2512 2585 2565 2493 2564 2630
8 2586 2513 2565 2632 2515 2438 2494 2567
8 2565 2493 2566 2633 2494 2416 2495 2568
8 2567 2494 2568 2635 2496 2417 2497 2570
8 2568 2495 2569 2636 2497 2418 2498 2571
8 2570 2497 2571 2638 2499 2420 2500 2573
8 2571 2498 2572 2639 2500 2421 2501 2574
8 2573 2500 2574 2641 2502 2423 2503 2576
8 2574 2501 2575 2642 2503 2424 2504 2577
8 2576 2503 2577 2643 2505 2426 2506 2578
8 2597 2528 2579 2645 2529 2454 2508 2580
8 2580 2508 2579 2645 2525 2448 2522 2593
8 2581 2509 2455 2530 2646 2580 2529 2598
8 2581 2509 2580 2646 2526 2449 2525 2595
8 2583 2511 2582 2648 2513 2434 2512 2585
8 2583 2511 2439 2516 2648 2582 2517 2589
8 2649 2583 2513 2586 2588 2516 2438 2515
8 2589 2517 2444 2520 2653 2587 2521 2592
8 2518 2442 2520 2591 2588 2516 2589 2654
8 2593 2522 2590 2655 2523 2445 2521 2592
8 2524 2446 2523 2594 2591 2520 2592 2656
8 2595 2525 2593 2657 2527 2452 2523 2594
8 2602 2536 2596 2659 2534 2462 2528 2597
8 2600 2534 2597 2660 2532 2460 2529 2598
8 2600 2534 2460 2532 2661 2601 2533 2599
8 2604 2538 2601 2661 2537 2464 2533 2599
8 2602 2536 2462 2534 2663 2603 2535 2601
8 2601 2535 2465 2538 2663 2603 2539 2605
8 2607 2541 2605 2665 2540 2467 2538 2604
8 2608 2542 2606 2666 2541 2468 2539 2605
8 2543 2470 2544 2610 2607 2541 2608 2668
8 2544 2471 2545 2611 2608 2542 2609 2669
8 2546 2473 2547 2613 2610 2544 2611 2671
8 2547 2474 2548 2614 2611 2545 2612 2672
8 2549 2476 2550 2616 2613 2547 2614 2674
8 2550 2477 2551 2617 2614 2548 2615 2675
8 2552 2479 2553 2619 2616 2550 2617 2677
8 2553 2480 2554 2620 2617 2551 2618 2678
8 2557 2482 2556 2624 2619 2553 2620 2680
8 2556 2481 2555 2623 2620 2554 2621 2681
8 2559 2484 2558 2625 2623 2555 2622 2683
8 2560 2485 2559 2626 2624 2556 2623 2684
8 2562 2488 2561 2627 2626 2559 2625 2685
8 2690 2629 2564 2630 2650 2584 2512 2585
8 2586 2513 2585 2651 2632 2565 2630 2691
8 2630 2564 2631 2692 2565 2493 2566 2633
8 2632 2565 2633 2694 2567 2494 2568 2635
8 2633 2566 2634 2695 2568 2495 2569 2636
8 2635 2568 2636 2697 2570 2497 2571 2638
8 2636 2569 2637 2698 2571 2498 2572 2639
8 2638 2571 2639 2700 2573 2500 2574 2641
8 2639 2572 2640 2701 2574 2501 2575 2642
8 2641 2574 2642 2702 2576 2503 2577 2643
8 2597 2528 2596 2659 2645 2579 2644 2704
8 2645 2579 2644 2704 2593 2522 2590 2655
8 2660 2597 2645 2705 2598 2529 2580 2646
8 2646 2580 2645 2705 2595 2525 2593 2657
8 2650 2584 2512 2585 2707 2647 2582 2648
8 2648 2582 2517 2589 2707 2647 2587 2653
8 2649 2583 2648 2708 2586 2513 2585 2651
8 2649 2583 2516 2588 2708 2648 2589 2654
8 2655 2590 2652 2710 2592 2521 2587 2653
8 2654 2589 2520 2591 2711 2653 2592 2656
8 2657 2593 2655 2712 2594 2523 2592 2656
8 2602 2536 2603 2663 2659 2596 2658 2714
8 2662 2602 2659 2715 2600 2534 2597 2660
8 2662 2602 2534 2600 2717 2663 2601 2661
8 2661 2601 2538 2604 2717 2663 2605 2665
8 2666 2606 2664 2718 2605 2539 2603 2663
8 2668 2608 2666 2720 2607 2541 2605 2665
8 2608 2542 2609 2669 2666 2606 2667 2721
8 2610 2544 2611 2671 2668 2608 2669 2723
8 2611 2545 2612 2672 2669 2609 2670 2724
8 2613 2547 2614 2674 2671 2611 2672 2726
8 2614 2548 2615 2675 2672 2612 2673 2727
8 2616 2550 2617 2677 2674 2614 2675 2729
8 2617 2551 2618 2678 2675 2615 2676 2730
8 2619 2553 2620 2680 2677 2617 2678 2732
8 2620 2554 2621 2681 2678 2618 2679 2733
8 2624 2556 2623 2684 2680 2620 2681 2735
8 2681 2621 2555 2623 2736 2682 2622 2683
8 2626 2559 2625 2685 2684 2623 2683 2737
8 2688 2628 2584 2650 2740 2686 2647 2707
8 2688 2628 2687 2742 2650 2584 2629 2690
8 2690 2629 2689 2745 2630 2564 2631 2692
8 2746 2690 2630 2691 2709 2650 2585 2651
8 2691 2630 2692 2747 2632 2565 2633 2694
8 2692 2631 2693 2748 2633 2566 2634 2695
8 2694 2633 2695 2750 2635 2568 2636 2697
8 2695 2634 2696 2751 2636 2569 2637 2698
8 2697 2636 2698 2753 2638 2571 2639 2700
8 2698 2637 2699 2754 2639 2572 2640 2701
8 2700 2639 2701 2755 2641 2574 2642 2702
8 2659 2596 2658 2714 2704 2644 2703 2757
8 2704 2644 2703 2757 2655 2590 2652 2710
8 2660 2597 2659 2715 2705 2645 2704 2758
8 2705 2645 2704 2758 2657 2593 2655 2712
8 2759 2706 2647 2707 2710 2652 2587 2653
8 2709 2650 2585 2651 2760 2707 2648 2708
8 2708 2648 2589 2654 2760 2707 2653 2711
8 2712 2655 2710 2761 2656 2592 2653 2711
8 2763 2713 2658 2714 2718 2664 2603 2663
8 2662 2602 2663 2717 2715 2659 2714 2764
8 2720 2666 2718 2767 2665 2605 2663 2717
8 2768 2719 2664 2718 2721 2667 2606 2666
8 2668 2608 2669 2723 2720 2666 2721 2770
8 2669 2609 2670 2724 2721 2667 2722 2771
8 2671 2611 2672 2726 2723 2669 2724 2773
8 2672 2612 2673 2727 2724 2670 2725 2774
8 2674 2614 2675 2729 2726 2672 2727 2776
8 2675 2615 2676 2730 2727 2673 2728 2777
8 2677 2617 2678 2732 2729 2675 2730 2779
8 2678 2618 2679 2733 2730 2676 2731 2780
8 2680 2620 2681 2735 2732 2678 2733 2782
8 2733 2679 2621 2681 2783 2734 2682 2736
8 2735 2681 2623 2684 2784 2736 2683 2737
8 2740 2686 2647 2707 2787 2738 2706 2759
8 2688 2628 2686 2740 2742 2687 2739 2789
8 2743 2688 2650 2709 2790 2740 2707 2760
8 2742 2687 2741 2792 2690 2629 2689 2745
8 2743 2688 2742 2793 2709 2650 2690 2746
8 2745 2689 2744 2795 2692 2631 2693 2748
8 2746 2690 2745 2796 2691 2630 2692 2747
8 2747 2692 2748 2797 2694 2633 2695 2750
8 2748 2693 2749 2798 2695 2634 2696 2751
8 2750 2695 2751 2800 2697 2636 2698 2753
8 2751 2696 2752 2801 2698 2637 2699 2754
8 2753 2698 2754 2802 2700 2639 2701 2755
8 2763 2713 2756 2804 2714 2658 2703 2757
8 2759 2706 2652 2710 2804 2756 2703 2757
8 2715 2659 2714 2764 2758 2704 2757 2805
8 2758 2704 2757 2805 2712 2655 2710 2761
8 2806 2759 2707 2760 2761 2710 2653 2711
8 2765 2716 2762 2808 2718 2664 2713 2763
8 2809 2763 2714 2764 2767 2718 2663 2717
8 2765 2716 2664 2718 2811 2766 2719 2768
8 2813 2768 2718 2767 2770 2721 2666 2720
8 2814 2769 2719 2768 2771 2722 2667 2721
8 2723 2669 2724 2773 2770 2721 2771 2816
8 2724 2670 2725 2774 2771 2722 2772 2817
8 2726 2672 2727 2776 2773 2724 2774 2819
8 2727 2673 2728 2777 2774 2725 2775 2820
8 2729 2675 2730 2779 2776 2727 2777 2822
8 2730 2676 2731 2780 2777 2728 2778 2823
8 2732 2678 2733 2782 2779 2730 2780 2825
8 2780 2731 2679 2733 2826 2781 2734 2783
8 2782 2733 2681 2735 2827 2783 2736 2784
8 2830 2785 2738 2787 2804 2756 2706 2759
8 2789 2739 2686 2740 2832 2786 2738 2787
8 2790 2740 2707 2760 2833 2787 2759 2806
8 2742 2687 2739 2789 2792 2741 2788 2835
8 2743 2688 2740 2790 2793 2742 2789 2836
8 2792 2741 2791 2838 2745 2689 2744 2795
8 2793 2742 2792 2839 2746 2690 2745 2796
8 2795 2744 2794 2841 2748 2693 2749 2798
8 2796 2745 2795 2842 2747 2692 2748 2797
8 2797 2748 2798 2843 2750 2695 2751 2800
8 2798 2749 2799 2844 2751 2696 2752 2801
8 2800 2751 2801 2845 2753 2698 2754 2802
8 2808 2762 2803 2847 2763 2713 2756 2804
8 2809 2763 2804 2848 2764 2714 2757 2805
8 2806 2759 2710 2761 2848 2804 2757 2805
8 2765 2716 2766 2811 2808 2762 2807 2850
8 2810 2765 2808 2851 2767 2718 2763 2809
8 2810 2765 2718 2767 2852 2811 2768 2813
8 2811 2766 2719 2768 2853 2812 2769 2814
8 2855 2814 2768 2813 2816 2771 2721 2770
8 2856 2815 2769 2814 2817 2772 2722 2771
8 2773 2724 2774 2819 2816 2771 2817 2858
8 2774 2725 2775 2820 2817 2772 2818 2859
8 2776 2727 2777 2822 2819 2774 2820 2861
8 2777 2728 2778 2823 2820 2775 2821 2862
8 2779 2730 2780 2825 2822 2777 2823 2864
8 2823 2778 2731 2780 2865 2824 2781 2826
8 2825 2780 2733 2782 2866 2826 2783 2827
8 2869 2828 2785 2830 2847 2803 2756 2804
8 2871 2829 2786 2832 2830 2785 2738 2787
8 2872 2830 2787 2833 2848 2804 2759 2806
8 2789 2739 2786 2832 2835 2788 2831 2874
8 2836 2789 2740 2790 2875 2832 2787 2833
8 2792 2741 2788 2835 2838 2791 2834 2877
8 2793 2742 2789 2836 2839 2792 2835 2878
8 2838 2791 2837 2880 2795 2744 2794 2841
8 2839 2792 2838 2881 2796 2745 2795 2842
8 2841 2794 2840 2882 2798 2749 2799 2844
8 2842 2795 2841 2883 2797 2748 2798 2843
8 2843 2798 2844 2884 2800 2751 2801 2845
8 2886 2846 2803 2847 2850 2807 2762 2808
8 2851 2808 2847 2887 2809 2763 2804 2848
8 2850 2807 2766 2811 2889 2849 2812 2853
8 2810 2765 2811 2852 2851 2808 2850 2890
8 2852 2811 2768 2813 2891 2853 2814 2855
8 2853 2812 2769 2814 2892 2854 2815 2856
8 2894 2856 2814 2855 2858 2817 2771 2816
8 2817 2772 2818 2859 2856 2815 2857 2895
8 2819 2774 2820 2861 2858 2817 2859 2897
8 2820 2775 2821 2862 2859 2818 2860 2898
8 2822 2777 2823 2864 2861 2820 2862 2900
8 2823 2778 2824 2865 2862 2821 2863 2901
8 2864 2823 2780 2825 2902 2865 2826 2866
8 2904 2867 2828 2869 2886 2846 2803 2847
8 2869 2828 2868 2906 2830 2785 2829 2871
8 2907 2869 2830 2872 2887 2847 2804 2848
8 2871 2829 2870 2909 2832 2786 2831 2874
8 2910 2871 2832 2875 2872 2830 2787 2833
8 2835 2788 2831 2874 2877 2834 2873 2912
8 2836 2789 2832 2875 2878 2835 2874 2913
8 2877 2834 2876 2915 2838 2791 2837 2880
8 2839 2792 2835 2878 2881 2838 2877 2916
8 2880 2837 2879 2917 2841 2794 2840 2882
8 2881 2838 2880 2918 2842 2795 2841 2883
8 2883 2841 2882 2919 2843 2798 2844 2884
8 2921 2885 2846 2886 2889 2849 2807 2850
8 2922 2886 2847 2887 2890 2850 2808 2851
8 2889 2849 2812 2853 2924 2888 2854 2892
8 2890 2850 2811 2852 2925 2889 2853 2891
8 2891 2853 2814 2855 2926 2892 2856 2894
8 2892 2854 2815 2856 2927 2893 2857 2895
8 2858 2817 2859 2897 2894 2856 2895 2929
8 2859 2818 2860 2898 2895 2857 2896 2930
8 2861 2820 2862 2900 2897 2859 2898 2932
8 2862 2821 2863 2901 2898 2860 2899 2933
8 2864 2823 2865 2902 2900 2862 2901 2934
8 2904 2867 2846 2886 2936 2903 2885 2921
8 2904 2867 2903 2936 2869 2828 2868 2906
8 2937 2904 2869 2907 2922 2886 2847 2887
8 2906 2868 2905 2939 2871 2829 2870 2909
8 2907 2869 2906 2940 2872 2830 2871 2910
8 2909 2870 2908 2942 2874 2831 2873 2912
8 2910 2871 2909 2943 2875 2832 2874 2913
8 2912 2873 2911 2945 2877 2834 2876 2915
8 2878 2835 2874 2913 2916 2877 2912 2946
8 2915 2876 2914 2947 2880 2837 2879 2917
8 2916 2877 2915 2948 2881 2838 2880 2918
8 2918 2880 2917 2949 2883 2841 2882 2919
8 2921 2885 2849 2889 2951 2920 2888 2924
8 2952 2921 2886 2922 2925 2889 2850 2890
8 2924 2888 2854 2892 2954 2923 2893 2927
8 2925 2889 2853 2891 2955 2924 2892 2926
8 2926 2892 2856 2894 2956 2927 2895 2929
8 2895 2857 2896 2930 2927 2893 2928 2957
8 2897 2859 2898 2932 2929 2895 2930 2959
8 2898 2860 2899 2933 2930 2896 2931 2960
8 2900 2862 2901 2934 2932 2898 2933 2961
8 2936 2903 2885 2921 2963 2935 2920 2951
8 2936 2903 2935 2963 2906 2868 2905 2939
8 2937 2904 2886 2922 2964 2936 2921 2952
8 2937 2904 2936 2964 2907 2869 2906 2940
8 2939 2905 2938 2966 2909 2870 2908 2942
8 2940 2906 2939 2967 2910 2871 2909 2943
8 2942 2908 2941 2969 2912 2873 2911 2945
8 2943 2909 2942 2970 2913 2874 2912 2946
8 2945 2911 2944 2971 2915 2876 2914 2947
8 2946 2912 2945 2972 2916 2877 2915 2948
8 2948 2915 2947 2973 2918 2880 2917 2949
8 2951 2920 2888 2924 2975 2950 2923 2954
8 2952 2921 2889 2925 2976 2951 2924 2955
8 2927 2893 2928 2957 2954 2923 2953 2978
8 2955 2924 2892 2926 2979 2954 2927 2956
8 2929 2895 2930 2959 2956 2927 2957 2980
8 2930 2896 2931 2960 2957 2928 2958 2981
8 2932 2898 2933 2961 2959 2930 2960 2982
8 2951 2920 2950 2975 2963 2935 2962 2984
8 2963 2935 2962 2984 2939 2905 2938 2966
8 2964 2936 2921 2952 2985 2963 2951 2976
8 2964 2936 2963 2985 2940 2906 2939 2967
8 2966 2938 2965 2987 2942 2908 2941 2969
8 2967 2939 2966 2988 2943 2909 2942 2970
8 2969 2941 2968 2989 2945 2911 2944 2971
8 2970 2942 2969 2990 2946 2912 2945 2972
8 2972 2945 2971 2991 2948 2915 2947 2973
8 2954 2923 2953 2978 2975 2950 2974 2993
8 2976 2951 2924 2955 2994 2975 2954 2979
8 2957 2928 2958 2981 2978 2953 2977 2995
8 2956 2927 2957 2980 2979 2954 2978 2996
8 2959 2930 2960 2982 2980 2957 2981 2997
8 2984 2962 2983 2999 2966 2938 2965 2987
8 2975 2950 2974 2993 2984 2962 2983 2999
8 2976 2951 2975 2994 2985 2963 2984 3000
8 2985 2963 2984 3000 2967 2939 2966 2988
8 2987 2965 2986 3001 2969 2941 2968 2989
8 2988 2966 2987 3002 2970 2942 2969 2990
8 2990 2969 2989 3003 2972 2945 2971 2991
8 2978 2953 2977 2995 2993 2974 2992 3004
8 2979 2954 2978 2996 2994 2975 2993 3005
8 2980 2957 2981 2997 2996 2978 2995 3006
8 2974 2993 2999 2983 2992 3004 3007 2998
8 2983 2999 2987 2965 2998 3007 3001 2986
8 3000 2984 2999 3008 2988 2966 2987 3002
8 2994 2975 2993 3005 3000 2984 2999 3008
8 3002 2987 3001 3009 2990 2969 2989 3003
8 2996 2978 2995 3006 3005 2993 3004 3010
8 3005 2993 3004 3010 3008 2999 3007 3011
8 3008 2999 3007 3011 3002 2987 3001 3009

CELL_TYPES 1910
12
12
12
12
12
12
12
12
12
12
12
12
12
12
12
12
12
12
12
12
12
12
12
12
12
12
12
12
12
12
12
12
12
12
12
12
12
12
12
12
12
12
12
12
12
12
12
12
12
12
12
12
12
12
12
12
12
12
12
12
12
12
12
12
12
12
12
12
12
12
12
12
12
12
12
12
12
12
12
12
12
12
12
12
12
12
12
12
12
12
12
12
12
12
12
12
12
12
12
12
12
12
12
12
12
12
12
12
12
12
12
12
12
12
12
12
12
12
12
12
12
12
12
12
12
12
12
12
12
12
12
12
12
12
12
12
12
12
12
12
12
12
12
12
12
12
12
12
12
12
12
12
12
12
12
12
12
12
12
12
12
12
12
12
12
12
12
12
12
12
12
12
12
12
12
12
12
12
12
12
12
12
12
12
12
12
12
12
12
12
12
12
12
12
12
12
12
12
12
12
12
12
12
12
12
12
12
12
12
12
12
12
12
12
12
12
12
12
12
12
12
12
12
12
12
12
12
12
12
12
12
12
12
12
12
12
12
12
12
12
12
12
12
12
12
12
12
12
12
12
12
12
12
12
12
12
12
12
12
12
12
12
12
12
12
12
12
12
12
12
12
12
12
12
12
12
12
12
12
12
12
12
12
12
12
12
12
12
12
12
12
12
12
12
12
12
12
12
12
12
12
12
12
12
12
12
12
12
12
12
12
12
12
12
12
12
12
12
12
12
12
12
12
12
12
12
12
12
12
12
12
12
12
12
12
12
12
12
12
12
12
12
12
12
12
12
12
12
12
12
12
12
12
12
12
12
12
12
12
12
12
12
12
12
12
12
12
12
12
12
12
12
12
12
12
12
12
12
12
12
12
12
12
12
12
12
12
12
12
12
12
12
12
12
12
12
12
12
12
12
12
12
12
12
12
12
12
12
12
12
12
12
12
12
12
12
12
12
12
12
12
12
12
12
12
12
12
12
12
12
12
12
12
12
12
12
12
12
12
12
12
12
12
12
12
12
12
12
12
12
12
12
12
12
12
12
12
12
12
12
12
12
12
12
12
12
12
12
12
12
12
12
12
12
12
12
12
12
12
12
12
12
12
12
12
12
12
12
12
12
12
12
12
12
12
12
12
12
12
12
12
12
12
12
12
12
12
12
12
12
12
12
12
12
12
12
12
12
12
12
12
12
12
12
12
12
12
12
12
12
12
12
12
12
12
12
12
12
12
12
12
12
12
12
12
12
12
12
12
12
12
12
12
12
12
12
12
12
12
12
12
12
12
12
12
12
12
12
12
12
12
12
12
12
12
12
12
12
12
12
12
12
12
12
12
12
12
12
12
12
12
12
12
12
12
12
12
12
12
12
12
12
12
12
12
12
12
12
12
12
12
12
12
12
12
12
12
12
12
12
12
12
12
12
12
12
12
12
12
12
12
12
12
12
12
12
12
12
12
12
12
12
12
12
12
12
12
12
12
12
12
12
12
12
12
12
12
12
12
12
12
12
12
12
12
12
12
12
12
12
12
12
12
12
12
12
12
12
12
12
12
12
12
12
12
12
12
12
12
12
12
12
12
12
12
12
12
12
12
12
12
12
12
12
12
12
12
12
12
12
12
12
12
12
12
12
12
12
12
12
12
12
12
12
12
12
12
12
12
12
12
12
12
12
12
12
12
12
12
12
12
12
12
12
12
12
12
12
12
12
12
12
12
12
12
12
12
12
12
12
12
12
12
12
12
12
12
12
12
12
12
12
12
12
12
12
12
12
12
12
12
12
12
12
12
12
12
12
12
12
12
12
12
12
12
12
12
12
12
12
12
12
12
12
12
12
12
12
12
12
12
12
12
12
12
12
12
12
12
12
12
12
12
12
12
12
12
12
12
12
12
12
12
12
12
12
12
12
12
12
12
12
12
12
12
12
12
12
12
12
12
12
12
12
12
12
12
12
12
12
12
12
12
12
12
12
12
12
12
12
12
12
12
12
12
12
12
12
12
12
12
12
12
12
12
12
12
12
12
12
12
12
12
12
12
12
12
12
12
12
12
12
12
12
12
12
12
12
12
12
12
12
12
12
12
12
12
12
12
12
12
12
12
12
12
12
12
12
12
12
12
12
12
12
12
12
12
12
12
12
12
12
12
12
12
12
12
12
12
12
12
12
12
12
12
12
12
12
12
12
12
12
12
12
12
12
12
12
12
12
12
12
12
12
12
12
12
12
12
12
12
12
12
12
12
12
12
12
12
12
12
12
12
12
12
12
12
12
12
12
12
12
12
12
12
12
12
12
12
12
12
12
12
12
12
12
12
12
12
12
12
12
12
12
12
12
12
12
12
12
12
12
12
12
12
12
12
12
12
12
12
12
12
12
12
12
12
12
12
12
12
12
12
12
12
12
12
12
12
12
12
12
12
12
12
12
12
12
12
12
12
12
12
12
12
12
12
12
12
12
12
12
12
12
12
12
12
12
12
12
12
12
12
12
12
12
12
12
12
12
12
12
12
12
12
12
12
12
12
12
12
12
12
12
12
12
12
12
12
12
12
12
12
12
12
12
12
12
12
12
12
12
12
12
12
12
12
12
12
12
12
12
12
12
12
12
12
12
12
12
12
12
12
12
12
12
12
12
12
12
12
12
12
12
12
12
12
12
12
12
12
12
12
12
12
12
12
12
12
12
12
12
12
12
12
12
12
12
12
12
12
12
12
12
12
12
12
12
12
12
12
12
12
12
12
12
12
12
12
12
12
12
12
12
12
12
12
12
12
12
12
12
12
12
12
12
12
12
12
12
12
12
12
12
12
12
12
12
12
12
12
12
12
12
12
12
12
12
12
12
12
12
12
12
12
12
12
12
12
12
12
12
12
12
12
12
12
12
12
12
12
12
12
12
12
12
12
12
12
12
12
12
12
12
12
12
12
12
12
12
12
12
12
12
12
12
12
12
12
12
12
12
12
12
12
12
12
12
12
12
12
12
12
12
12
12
12
12
12
12
12
12
12
12
12
12
12
12
12
12
12
12
12
12
12
12
12
12
12
12
12
12
12
12
12
12
12
12
12
12
12
12
12
12
12
12
12
12
12
12
12
12
12
12
12
12
12
12
12
12
12
12
12
12
12
12
12
12
12
12
12
12
12
12
12
12
12
12
12
12
12
12
12
12
12
12
12
12
12
12
12
12
12
12
12
12
12
12
12
12
12
12
12
12
12
12
12
12
12
12
12
12
12
12
12
12
12
12
12
12
12
12
12
12
12
12
12
12
12
12
12
12
12
12
12
12
12
12
12
12
12
12
12
12
12
12
12
12
12
12
12
12
12
12
12
12
12
12
12
12
12
12
12
12
12
12
12
12
12
12
12
12
12
12
12
12
12
12
12
12
12
12
12
12
12
12
12
12
12
12
12
12
12
12
12
12
12
12
12
12
12
12
12
12
12
12
12
12
12
12
12
12
12
12
12
12
12
12
12
12
12
12
12
12
12
12
12
12
12
12
12
12
12
12
12
12
12
12
12
12
12
12
12
12
12
12
12
12
12
12
12
12
12
12
12
12
12
12
12
12
12
12
12
12
12
12
12
12
12
12
12
12
12
12
12
12
12
12
12
12
12
12
12
12
12
12
12
12
12
12
12
12
12
12
12
12
12
12
12
12
12
12
12
12
12
12
12
12
12
12
12
12
12
12
12
12
12
12
12
12
12
12
12
12
12
12
12
12
12
12
12
12
12
12
12
12
12
12
12
12
12
12
12
12
12
12
12
12
12
12
12
12
12
12
12
12
12
12
12
12
12
12
12
12
12
12
12
12
12
12
12
12
12
12
12
12
12
12
12
12
12
12
12
12
12
12
12
12
12
12
12
12
12
12
12
12
12
12
12
12
12
12
12
12
12
12
12
12
12
12
12
12
12
12
12
12
12
12
12
12
12
12
12
12
12
12
12
12
12
12
12
12
12
12
12
12
12
12
12
12
12
12
12
12
12
12
12
12
12
12
12
12
12
12
12
12
12
12
12
12
12
12
12
12
12
12
12
12
12
12
12
12
12
12
12
12
12
12
12
12
12
12
12
12
12
12
12
12
12
12
12
12
12
12
12
12
12
12
12
12
12
12
12
12
12
12
12
12
12
12
12
12
12
12
12
12
12
12
12
12
12
12
12
12
12
12
12
12
12
12
12
12
12
12
12
12
12
12
12
12
12
12
12
12
12
12
12
12
12
12
12
12
12
12
12
12
12
12
12
12
12
12
12
12
12
12
12
12
12
12
12
12
12
12
12
12
12
12
12
12
12
12
12
12
12
12
12
12
12
12
12
12
12
12
12
12
12
12
12
12

POINT_DATA 3012
SCALARS Jp_lamdaP float 4
LOOKUP_TABLE default
0.999222 1 1 0.999222
1 1 1 1
0.999248 1 1 0.999248
0.99918 1 1 0.99918
0.999228 1 1 0.999228
0.999185 1 1 0.999185
1.02446 1.02662 1 0.997901
0.999999 1 1 0.999999
1 1 1 1
1 1 1 1
0.999228 1 1 0.999228
1.02112 1.02342 1 0.997759
0.999278 1 1 0.999278
0.999239 1 1 0.999239
0.999261 1 1 0.999261
0.999226 1 1 0.999226
0.999202 1 1 0.999202
0.999264 1 1 0.999264
1.02429 1.02645 1 0.997892
1 1 1 1
0.99918 1 1 0.99918
0.999206 1 1 0.999206
1.01635 1.01852 1 0.997867
1.02148 1.02361 1 0.997918
0.999161 1 1 0.999161
1.02681 1.02902 1 0.997851
1.06397 1.06825 1 0.996
0.999994 1 1 0.999994
0.999624 1 1 0.999624
0.999632 1 1 0.999632
0.999994 1 1 0.999994
1.01938 1.02149 1.00017 0.997765
0.999243 1 1 0.999243
0.999263 1 1 0.999263
1.02314 1.02502 1 0.998164
1 1 1 1
1.025 1.02685 1 0.998192
1.01444 1.01543 1.00127 0.997759
1.05324 1.05746 1.00026 0.995748
1 1 1 1
1 1 1 1
0.999625 1 1 0.999625
1 1 1 1
0.999272 1 1 0.999272
1.0043 1.00654 1 0.997773
1 1 1 1
1.01142 1.01332 1 0.998121
0.999267 1 1 0.999267
0.999292 1 1 0.999292
0.99921 1 1 0.99921
1.02421 1.02637 1 0.997889
0.999608 1 1 0.999608
0.999222 1 1 0.999222
0.999177 1 1 0.999177
0.99925 1 1 0.99925
1.01613 1.01832 1 0.997851
1.02642 1.02864 1 0.997844
1.02127 1.02341 1 0.997907
1.06493 1.06921 1 0.996002
1 1 1 1
0.999214 1 1 0.999214
1.00545 1.00721 1 0.998252
1.01261 1.01477 1 0.997873
1.01932 1.02147 1 0.997895
1.06568 1.06997 1 0.995986
1.06414 1.06839 1 0.996017
0.999157 1 1 0.999157
1.01744 1.01926 1.00037 0.997843
1.06348 1.06779 1 0.99596
1.08445 1.08954 1 0.995331
1 1 1 1
1 1 1 1
0.999999 1 1 0.999999
1.01744 1.01954 1.00017 0.997769
1 1 1 1
1 1 1 1
1.02318 1.02547 1 0.997763
0.999672 1 1 0.999672
1.02411 1.02637 1 0.997807
1.01238 1.01299 1.00136 0.998037
1.0568 1.06131 1.00001 0.995742
1 1 1 1
1.00616 1.00016 1.00705 0.998958
1.0202 1.02257 1 0.997688
1.02406 1.02635 1 0.997768
1.07054 1.07522 1 0.995647
1.00841 1.00736 1.00255 0.99849
1.06355 1.06807 1 0.995769
1.04851 1.04935 1.00337 0.995847
1.08568 1.091 1 0.995121
1 1 1 1
1 1 1 1
1 1 1 1
1 1 1 1
1 1 1 1
0.999639 1 1 0.999639
1.00527 1.00729 1 0.998
0.999617 1 1 0.999617
1.01283 1.01493 1 0.997926
1 1 1 1
1.00298 1.00515 1 0.99784
1.00745 1.00931 1 0.998156
1.06188 1.06637 1 0.99579
1.01654 1.01844 1 0.998139
1.06956 1.07414 1 0.995735
0.999303 1 1 0.999303
0.99926 1 1 0.99926
0.999186 1 1 0.999186
0.999288 1 1 0.999288
1.01591 1.01811 1 0.997838
1.02107 1.02322 1 0.997901
1.02561 1.02783 1 0.997842
1.06629 1.07057 1 0.996003
1 1 1 1
0.999253 1 1 0.999253
1.00496 1.00707 1 0.997905
1.01236 1.01454 1 0.997854
0.999585 1 1 0.999585
1.01851 1.02007 1.00051 0.99797
1.01906 1.02122 1 0.997883
1.06603 1.07031 1 0.996
1.06372 1.06803 1 0.995962
1.06496 1.06922 1 0.996014
1.08399 1.08906 0.999999 0.99534
1.00402 1.00617 1 0.997862
1.00831 1.01041 1 0.997918
1.05877 1.06342 0.999469 0.996156
1.0629 1.06747 0.999667 0.996051
1.06489 1.06915 1 0.996022
1.09427 1.10155 0.99771 0.995676
1 1 1 1
1.08899 1.09436 0.999628 0.995468
1.00873 1.00845 1.00246 0.997818
1.05625 1.0608 1 0.995712
1.07994 1.08516 1 0.995186
1.0836 1.09202 0.996676 0.995603
1.00443 1.00115 1.00485 0.998427
1.01387 1.00423 1.01273 0.996917
1 1 1 1
1 1 1 1
1.02354 1.02583 1 0.997766
1 1 1 1
1.00951 1.00969 1.00196 0.997867
1.024 1.02624 1 0.997813
1.06054 1.06508 1 0.995734
1 1 1 1
1.00705 1.00019 1.00789 0.99898
1.02134 1.02347 1 0.997917
1.02471 1.02678 1 0.997983
1.06952 1.0742 1 0.995642
1.00687 1.00502 1.00363 0.998216
1.06367 1.06819 1 0.995767
1.04846 1.04954 1.00314 0.995841
1.08508 1.09037 1 0.99515
1.00603 1.00183 1.00561 0.998589
1.0087 1 1.00945 0.999254
1.02078 1.00907 1.01422 0.997418
1.07231 1.07701 1 0.995634
1.06976 1.07437 1 0.99571
1.09259 1.09856 0.999151 0.995416
1.0349 1.03356 1.00504 0.996281
1.08221 1.08723 1 0.995382
1.07674 1.08067 1.00133 0.995038
1.0966 1.10186 1 0.995231
1 1 1 1
1 1 1 1
1 1 1 1
1.00538 1.00038 1.00627 0.998727
1 1 1 1
1 1 1 1
1 1 1 1
1.01403 1.01633 1 0.997741
1.0058 1.008 1 0.997821
1 1 1 1
1 1 1 1
1.00325 1.00542 1 0.997841
1.00835 1.0104 1 0.997967
1.0611 1.06559 1 0.995792
1.01738 1.01971 1 0.997714
1.06743 1.072 1 0.995733
1.003 1.00516 1 0.99785
1.05926 1.06375 1 0.995778
1.06521 1.06972 1 0.995784
1.0945 1.10375 0.995682 0.995913
1.07211 1.07677 1 0.995671
1.09391 1.10265 0.996238 0.995823
1 1 1 1
0.999293 1 1 0.999293
1.00441 1.00691 1 0.997512
1.01213 1.01432 1 0.997837
1 1 1 1
1.01946 1.0214 1 0.998101
1.01881 1.02098 1 0.997874
1.06636 1.07063 1 0.996013
1.06583 1.0701 1 0.996011
1.06292 1.06723 1 0.995964
1.08274 1.0878 1 0.99535
1.00367 1.00582 1 0.99786
1.00816 1.01028 1 0.9979
1.05912 1.06407 0.999353 0.996001
1.0639 1.06833 0.999827 0.996026
1 1 1 1
1.01152 1.01208 1.00143 0.99801
1.05346 1.05726 1.00055 0.995851
1.0654 1.06967 1 0.996011
1.09251 1.10055 0.996959 0.995724
1.07956 1.08478 1 0.995193
1.0892 1.0946 0.999579 0.99548
1.08311 1.09151 0.99668 0.99561
1.00498 1.00202 1.00455 0.99841
1.01554 1.00677 1.01184 0.996909
1.05795 1.06242 1 0.995788
1.06088 1.06572 0.999333 0.996118
1.09472 1.10293 0.996697 0.995849
1.09319 1.10214 0.99604 0.995819
1.09096 1.09879 0.997226 0.995632
1.08192 1.09581 0.99125 0.996039
1.00606 1.00417 1.00379 0.998105
1.08252 1.09492 0.992807 0.995842
1.04871 1.05084 1.00211 0.995874
1.08073 1.08611 1 0.995051
1.08632 1.09188 0.999605 0.995301
1.07611 1.09252 0.98895 0.995985
1.02073 1.0141 1.01012 0.996446
1.01516 1.00104 1.01663 0.997511
1.02432 1.01547 1.01275 0.996015
1.02204 1.02437 1 0.99773
1 1 1 1
1.00693 1.00008 1.00785 0.999003
1.02485 1.0271 1 0.997807
1.0687 1.07338 1 0.995638
1.00625 1.00368 1.00435 0.998217
1.05009 1.05212 1.00224 0.995835
1.06298 1.0675 1 0.995764
1.08555 1.09081 1 0.99518
1.00598 1.00142 1.00594 0.998619
1.00808 1.00004 1.00877 0.999272
1.01708 1.00565 1.01397 0.997421
1.07054 1.07524 1 0.995628
1.06831 1.07292 1 0.995708
1.09331 1.09918 0.999248 0.995411
1.033 1.03199 1.00472 0.99628
1.08313 1.08816 1 0.995372
1.08028 1.0848 1.00081 0.995022
1.09626 1.10148 0.999994 0.995268
1.00807 1 1.0086 0.999482
1.02386 1.01832 1.00861 0.996855
1.02057 1.00272 1.01996 0.997884
1.01795 1.01417 1.00695 0.996808
1.0924 1.09944 0.998057 0.995536
1.08913 1.09443 0.999779 0.995373
1.08717 1.09986 0.992798 0.995636
1.05708 1.05384 1.00782 0.995292
1.08419 1.09023 0.998814 0.995639
1.08318 1.08696 1.00158 0.994951
1.10852 1.11367 1 0.995373
1.00343 1 1.00442 0.999016
1.00082 1 1.00108 0.999745
1 1 1 1
1 1 1 1
1 1 1 1
1.0055 1 1.00639 0.999117
1 1 1 1
1.00533 1.0004 1.00623 0.998702
1 1 1 1
1.01884 1.02117 1 0.997716
1.00938 1.01162 1 0.997785
1.06575 1.07032 1 0.995732
1.0604 1.06488 1 0.995793
1.00359 1.00576 1 0.997843
1 1 1 1
1.00294 1.0051 1 0.99785
1.05909 1.06358 1 0.995779
1.06413 1.06863 1 0.995784
1.09463 1.10385 0.99572 0.995912
1.07028 1.07494 1 0.995666
1.09505 1.10372 0.996313 0.995821
1.05781 1.06229 1 0.995777
1.09468 1.1039 0.995735 0.995895
1.09475 1.10349 0.996172 0.995895
1.07864 1.09403 0.98961 0.996283
1.09329 1.10148 0.996853 0.995692
1.08235 1.09726 0.990232 0.996143
1.00338 1.00554 1 0.997859
1.00802 1.01015 1 0.997882
1.05948 1.06473 0.99922 0.995847
1.06492 1.06919 1 0.996001
0.999997 1 1 0.999997
1.01431 1.01488 1.00123 0.998207
1.05174 1.05517 1.00077 0.995989
1.0659 1.07018 1 0.996001
1.09082 1.09963 0.996204 0.995772
1.08941 1.09486 0.999529 0.995493
1.08099 1.0862 1 0.9952
1.08305 1.09147 0.996652 0.995617
1.00525 1.0028 1.00405 0.998394
1.01851 1.00942 1.01214 0.996902
1.05814 1.06289 0.999718 0.995815
1.06148 1.0662 0.999458 0.996112
1.09402 1.10266 0.996278 0.995878
1.09315 1.10137 0.996751 0.995769
1.0067 1.00528 1.00333 0.99809
1.04661 1.04845 1.00238 0.995877
1.08347 1.08886 1 0.995047
1.09136 1.09846 0.997927 0.995604
1.08173 1.0965 0.990397 0.996092
1.08596 1.09152 0.999579 0.995323
1.08227 1.09476 0.992712 0.995842
1.07562 1.09249 0.988551 0.995966
1.0242 1.01762 1.01006 0.996444
1.02382 1.01274 1.01498 0.996017
1.01675 1.00155 1.01771 0.997518
1.09496 1.10305 0.996811 0.995842
1.09422 1.10325 0.995943 0.995855
1.07798 1.09183 0.991068 0.996215
1.08032 1.09564 0.989846 0.996133
1.0815 1.09688 0.989928 0.99601
1.07712 1.09936 0.983331 0.99638
1.03441 1.03165 1.00658 0.996134
1.07209 1.09476 0.983051 0.996179
1.07799 1.08328 1 0.99511
1.08579 1.09133 1 0.994921
1.07856 1.08792 0.995888 0.995489
1.06749 1.09154 0.981647 0.996253
1.01969 1.00331 1.01844 0.997919
1.03981 1.03013 1.01383 0.99563
1.01837 1.00256 1.01931 0.996532
1.02813 1.02194 1.01057 0.995542
1.0688 1.0735 1 0.995622
1.00822 1.00017 1.00877 0.99929
1.0059 1.00072 1.00654 0.998648
1.01699 1.0032 1.01637 0.997423
1.0672 1.0718 1 0.995706
1.09395 1.09971 0.999348 0.995406
1.02885 1.02739 1.00516 0.996279
1.08031 1.08521 1.00048 0.995004
1.08423 1.08928 1 0.995361
1.09379 1.09895 1 0.995305
1.00669 1 1.00719 0.999497
1.02072 1.01409 1.0097 0.996873
1.02044 1.0023 1.02027 0.997877
1.01633 1.01152 1.00797 0.996814
1.09394 1.10088 0.998158 0.99553
1.08971 1.09496 0.999838 0.995371
1.08644 1.09918 0.992734 0.995636
1.05674 1.05312 1.00819 0.995282
1.08303 1.08904 0.998871 0.995601
1.07851 1.08213 1.00173 0.994937
1.10876 1.11378 1 0.995494
1.00315 1 1.00352 0.999633
1.01784 1 1.01962 0.99825
1.03182 1.02747 1.00824 0.996018
1.02246 1.00811 1.01711 0.997174
1.01712 1.01412 1.00635 0.996627
1.08461 1.1006 0.989647 0.995787
1.08563 1.09481 0.995998 0.995598
1.07796 1.09686 0.986902 0.99582
1.04138 1.04205 1.00441 0.994975
1.08735 1.09664 0.99577 0.995737
1.06243 1.06692 1.00086 0.994935
1.00602 1 1.00723 0.998805
1.00977 1 1.01153 0.99826
1.00028 1 1.00109 0.999198
1.00228 1 1.00326 0.999019
0.999853 1 1 0.999853
1.0003 1 1.00054 0.999765
0.999977 1 1 0.999977
1 1 1 1
1 1 1 1
1.00306 1 1.0036 0.999465
1 1 1 1
1.00601 1 1.00693 0.999087
1 1 1 1
1.00486 1.00052 1.00567 0.998677
1 1 1 1
1.06812 1.07277 1 0.99566
1.06273 1.06723 1 0.995784
1.09585 1.1044 0.996424 0.995819
1.09468 1.10385 0.995763 0.995911
1.05884 1.06332 1 0.99578
1.00276 1.00492 1 0.997849
1.05803 1.06252 1 0.995777
1.09458 1.1038 0.995728 0.995895
1.09483 1.10364 0.996111 0.995894
1.07801 1.09414 0.988914 0.996299
1.09437 1.10257 0.996862 0.995688
1.08221 1.09694 0.990392 0.996142
1.09451 1.1035 0.995957 0.995883
1.0776 1.09355 0.989059 0.996309
1.08051 1.09518 0.99033 0.996241
1.08217 1.10263 0.984897 0.996492
1.0816 1.09861 0.988488 0.995982
1.08157 1.10489 0.982383 0.996451
1.05818 1.06322 0.999413 0.995843
1.0621 1.06669 0.999595 0.996107
1.09337 1.1024 0.995885 0.995906
1.09301 1.10053 0.997438 0.99572
1.00806 1.00701 1.00297 0.998077
1.04586 1.04726 1.00279 0.995881
1.08608 1.09149 1 0.995044
1.0917 1.09806 0.998628 0.995577
1.08143 1.09711 0.989531 0.996145
1.08187 1.09445 0.992629 0.995842
1.0853 1.09085 0.999567 0.995345
1.07504 1.09231 0.988195 0.995948
1.02822 1.02174 1.00994 0.996441
1.02198 1.01056 1.01535 0.996018
1.017 1.00228 1.01721 0.997525
1.0943 1.10269 0.99651 0.995867
1.09353 1.10273 0.995778 0.995854
1.07764 1.09235 0.990239 0.996258
1.08111 1.0959 0.990356 0.996109
1.03831 1.03555 1.00655 0.99614
1.07806 1.08333 1.00002 0.995116
1.08606 1.09158 1.00003 0.994916
1.08219 1.09674 0.990732 0.995957
1.07665 1.09959 0.982654 0.996424
1.07922 1.08841 0.996084 0.995451
1.07239 1.09502 0.983089 0.996179
1.06748 1.09206 0.981125 0.996292
1.03749 1.03045 1.01125 0.995636
1.02547 1.0196 1.01032 0.995483
1.0166 1.003 1.01567 0.997924
1.01589 1.00255 1.01675 0.996605
1.07794 1.09227 0.990587 0.996264
1.08042 1.0953 0.990207 0.996173
1.07782 1.09754 0.985573 0.996409
1.0746 1.10116 0.979348 0.996462
1.07446 1.097 0.983054 0.996335
1.07885 1.10641 0.978432 0.996579
1.05815 1.06101 1.002 0.995316
1.06504 1.09546 0.975619 0.99653
1.07185 1.07738 1 0.99487
1.07866 1.0847 0.999579 0.994855
1.07503 1.08923 0.991386 0.995539
1.0688 1.09479 0.979863 0.99632
1.01491 1.00471 1.0121 0.99808
1.02518 1.00926 1.01895 0.996879
1.0316 1.03292 1.00349 0.995246
1.01944 1.00852 1.01473 0.996148
1.0264 1.01794 1.01305 0.995317
1.0055 1 1.00599 0.999513
1.09553 1.10237 0.998261 0.995524
1.01853 1.00233 1.01833 0.99787
1.01679 1.00986 1.01001 0.996892
1.01242 1.00806 1.00754 0.996819
1.09023 1.09542 0.999895 0.995368
1.08563 1.09844 0.992667 0.995637
1.05906 1.05761 1.00613 0.995273
1.07744 1.08085 1.00193 0.994922
1.0823 1.08829 0.998928 0.995562
1.10987 1.11478 0.999985 0.995614
1.00253 1 1.00288 0.999645
1.01902 1.00018 1.02061 0.998257
1.03065 1.02601 1.00852 0.996032
1.02184 1.00682 1.01781 0.99716
1.01801 1.01444 1.00706 0.996484
1.08379 1.09982 0.989602 0.995784
1.08517 1.0944 0.995952 0.995599
1.07682 1.0959 0.986729 0.99581
1.04221 1.04372 1.00359 0.994972
1.09292 1.10208 0.995967 0.995704
1.0634 1.06772 1.00096 0.995001
1.00989 1 1.01135 0.998564
1.02239 1.00307 1.02187 0.997444
1.01535 1.01556 1.00416 0.995645
1.02912 1.01617 1.01605 0.99675
1.02922 1.02695 1.00601 0.996213
1.0796 1.10416 0.981676 0.996011
1.07827 1.09117 0.992394 0.995752
1.06478 1.09076 0.980072 0.996033
1.01069 1.01193 1.00379 0.995003
1.05738 1.0631 0.999527 0.995087
1.00599 1 1.00719 0.998809
1.00987 1.00007 1.01176 0.998066
1.01037 1 1.01215 0.998244
1.00821 1 1.01012 0.998105
1.0051 1 1.00668 0.998425
0.999646 1 1.00034 0.999309
1.00055 1 1.00135 0.999203
0.999913 1 1 0.999913
1.00211 1 1.00309 0.999022
0.999869 1 1 0.999869
0.999998 1 1 0.999998
1.00006 1 1.00027 0.999784
0.999988 1 1 0.999988
1 1 1 1
1.0033 1 1.00365 0.999651
1.00485 1 1.00541 0.999452
1 1 1 1
1 1 1 1
1.00718 1 1.00813 0.999057
1 1 1 1
1.09561 1.10383 0.996857 0.995684
1.09521 1.10412 0.996021 0.995892
1.08217 1.09674 0.99054 0.996142
1.07747 1.09434 0.988228 0.996315
1.09448 1.10371 0.99572 0.995896
1.05848 1.06297 1 0.995777
1.09435 1.10333 0.995957 0.995884
1.07775 1.09346 0.98929 0.996304
1.08066 1.09534 0.99032 0.996242
1.08104 1.10235 0.984094 0.996519
1.08128 1.09839 0.988394 0.995978
1.08151 1.10513 0.982088 0.996474
1.07768 1.09296 0.989705 0.996281
1.08081 1.1024 0.983874 0.996479
1.08184 1.10301 0.98421 0.996543
1.08305 1.11031 0.978743 0.996635
1.08104 1.10555 0.981492 0.996268
1.08551 1.11318 0.978404 0.996665
1.0937 1.10237 0.996231 0.995892
1.09281 1.1022 0.995611 0.995853
1.07721 1.09283 0.989371 0.996301
1.08194 1.09619 0.990879 0.996085
1.03936 1.03651 1.00663 0.996145
1.07494 1.08013 1.00007 0.995122
1.0857 1.09106 1.00018 0.994911
1.08296 1.09667 0.991558 0.995904
1.0763 1.09983 0.982069 0.996468
1.07283 1.09543 0.983125 0.996178
1.07974 1.08887 0.99619 0.995413
1.06744 1.09263 0.980543 0.996331
1.03638 1.02923 1.01135 0.995642
1.02592 1.01655 1.01385 0.995424
1.01516 1.00286 1.01437 0.997929
1.01317 1.00244 1.01407 0.996676
1.07811 1.09242 0.990605 0.996263
1.08033 1.09518 0.990253 0.996158
1.07719 1.09727 0.98521 0.996437
1.07581 1.10131 0.980335 0.996445
1.05772 1.05764 1.00477 0.995317
1.07201 1.07749 1.00003 0.994887
1.07803 1.08366 0.999967 0.994842
1.07552 1.09739 0.983725 0.996288
1.07623 1.10487 0.977368 0.996634
1.0727 1.08729 0.99101 0.995526
1.06616 1.09658 0.975647 0.996529
1.06724 1.09368 0.979362 0.996395
1.03144 1.03086 1.00533 0.995255
1.02381 1.01518 1.01325 0.995303
1.02165 1.00737 1.01809 0.996151
1.01531 1.00328 1.01395 0.998068
1.02392 1.00467 1.02232 0.996908
1.07943 1.10099 0.983903 0.996455
1.07976 1.10406 0.981468 0.996455
1.07477 1.11092 0.970734 0.996621
1.07123 1.10165 0.975679 0.996625
1.0482 1.05338 1.00002 0.995062
1.06513 1.09904 0.972364 0.996689
1.05112 1.05644 1.00029 0.994672
1.0639 1.07252 0.997191 0.994749
1.0671 1.08851 0.984706 0.995551
1.00986 1 1.01142 0.998461
1.02188 1.00092 1.02376 0.997244
1.0236 1.01301 1.0139 0.996606
1.02183 1.01934 1.0073 0.995172
1.02559 1.01094 1.01892 0.995656
1.02315 1.01311 1.01478 0.995203
1.00139 1 1.00173 0.999656
1.0198 1 1.02157 0.998265
1.08288 1.09894 0.98956 0.995781
1.02468 1.00477 1.02274 0.997145
1.03056 1.02288 1.0115 0.996047
1.0195 1.01539 1.00774 0.996342
1.08441 1.09368 0.995909 0.995601
1.07587 1.09513 0.986556 0.995799
1.04117 1.0431 1.0032 0.99497
1.06295 1.06739 1.00077 0.995068
1.09883 1.10786 0.996156 0.995672
1.01088 1 1.01233 0.998569
1.02428 1.00164 1.02521 0.997448
1.02246 1.02086 1.00606 0.995534
1.03043 1.01459 1.01892 0.99676
1.02931 1.02766 1.00544 0.996184
1.07833 1.10273 0.981795 0.996007
1.08203 1.0949 0.992475 0.995737
1.06779 1.09472 0.979269 0.996053
1.01295 1.01475 1.00324 0.994996
1.05439 1.06012 0.999555 0.995041
1.01666 1.00174 1.01712 0.997809
1.02961 1.00386 1.0287 0.99704
1.00892 1.01049 1.00296 0.995503
1.03874 1.02674 1.01539 0.996349
1.05381 1.05684 1.00111 0.996034
1.06579 1.10349 0.969248 0.996486
1.08483 1.09957 0.991032 0.995528
1.0769 1.1005 0.982537 0.99595
1.01681 1.01744 1.00433 0.995072
1.02439 1.02975 1 0.994793
1.00498 1 1.00617 0.998813
1.00963 1.00024 1.01135 0.998064
1.00191 1 1.0038 0.998125
1.00782 1 1.00961 0.998227
1.00436 1 1.00595 0.99842
1.00934 0.999983 1.01126 0.998115
1.00381 1 1.00556 0.998252
1.00947 1 1.01143 0.998062
1.00126 1 1.00273 0.99853
0.999319 1 1 0.999319
0.999311 1 1 0.999308
0.999951 1 1 0.999951
0.99988 1 1.00067 0.999207
0.999925 1 1 0.999925
1 1 1 1
0.999886 1 1 0.999886
0.999995 1 1 0.999995
1 1 1 1
1.00041 1 1.00061 0.999792
1.00237 1 1.00273 0.999634
1 1 1 1
1.00538 1 1.00594 0.999439
1 1 1 1
1 1 1 1
1.08098 1.0982 0.988301 0.995974
1.08065 1.09532 0.990322 0.996242
1.08143 1.10538 0.981773 0.996497
1.07984 1.10202 0.983268 0.996545
1.07791 1.09337 0.989516 0.996299
1.09408 1.10306 0.995959 0.995884
1.07798 1.09287 0.99007 0.996265
1.08138 1.10239 0.984414 0.996471
1.08159 1.10247 0.984475 0.99653
1.08046 1.10897 0.977568 0.996644
1.08161 1.10584 0.981743 0.996271
1.08245 1.11162 0.976987 0.9967
1.08136 1.10206 0.984713 0.996451
1.08446 1.11329 0.977382 0.99664
1.08137 1.11216 0.975521 0.996716
1.07702 1.1144 0.969676 0.996687
1.07829 1.09258 0.990624 0.996263
1.0803 1.0951 0.990308 0.996143
1.07662 1.09705 0.984854 0.996465
1.07706 1.1015 0.981315 0.996428
1.05974 1.05884 1.00557 0.995319
1.07388 1.07938 1 0.994905
1.07726 1.08243 1.00039 0.994829
1.07644 1.09772 0.984317 0.996241
1.07361 1.10336 0.976275 0.996689
1.06703 1.09741 0.975701 0.996528
1.07047 1.08547 0.990628 0.995512
1.06659 1.09318 0.979128 0.996471
1.02737 1.02636 1.00575 0.995264
1.01868 1.01262 1.01074 0.995288
1.02425 1.00716 1.02089 0.996153
1.01299 1.00245 1.01248 0.998059
1.0236 1.00111 1.0256 0.996938
1.07932 1.10077 0.984005 0.996456
1.08044 1.10461 0.981603 0.996451
1.07602 1.11041 0.972321 0.996615
1.04787 1.05285 1.00021 0.995061
1.05165 1.05698 1.00026 0.994699
1.06341 1.07092 0.99824 0.994739
1.07159 1.10135 0.976291 0.996613
1.06738 1.0893 0.984117 0.995685
1.06292 1.09689 0.97228 0.996657
1.00904 1 1.01052 0.99854
1.01857 1.01651 1.00689 0.995171
1.02444 1.01313 1.01596 0.995273
1.02971 1.01278 1.02118 0.995635
1.02572 1.01304 1.01595 0.99663
1.0241 1.00434 1.02254 0.99719
1.08321 1.11123 0.978196 0.99652
1.08004 1.11802 0.969335 0.996589
1.06836 1.11041 0.96534 0.99668
1.05972 1.10211 0.964621 0.996803
1.02753 1.03242 1.00031 0.994951
1.05532 1.08453 0.97674 0.996239
1.03412 1.03822 1.00165 0.994412
1.04419 1.05729 0.992926 0.994642
1.00227 1 1.00323 0.999037
1.01826 1 1.02051 0.99779
1.02081 1.00699 1.01685 0.996929
1.02997 1.00965 1.02407 0.996153
1.01164 1.00623 1.0102 0.995236
1.02949 1.01042 1.02398 0.995018
1.01255 1 1.01399 0.998575
1.02045 1 1.02306 0.997452
1.07705 1.10129 0.981911 0.996002
1.02842 1.01288 1.01863 0.99677
1.02891 1.0262 1.00726 0.995422
1.02763 1.02636 1.0051 0.996153
1.08599 1.09882 0.992565 0.995722
1.07048 1.09842 0.978411 0.996074
1.01602 1.01836 1.00273 0.994988
1.05119 1.05675 0.999741 0.994996
1.01353 1.00025 1.0155 0.997819
1.02812 1.00351 1.02762 0.996985
1.0103 1.01114 1.0037 0.995489
1.04007 1.0299 1.0136 0.996322
1.05929 1.06289 1.00056 0.996053
1.06896 1.10619 0.969707 0.996533
1.08439 1.09908 0.99101 0.995591
1.07705 1.09973 0.983262 0.996052
1.01986 1.02028 1.00458 0.995032
1.02293 1.02837 1.00003 0.994677
1.0104 1 1.01275 0.997683
1.02709 1.00399 1.0263 0.996801
1.03105 1.03168 1.00378 0.995617
1.05035 1.0511 1.00333 0.99597
1.06998 1.13268 0.947706 0.996765
1.05979 1.09961 0.967152 0.996518
1.06224 1.07057 0.997212 0.994989
1.03192 1.03305 1.00426 0.994667
1.00826 1 1.01021 0.998063
1.00354 0.99978 1.00568 0.998094
1.00148 0.998466 1.00457 0.998451
1.00643 1 1.00802 0.998417
1.01211 0.99988 1.01414 0.998125
1.0016 1 1.00309 0.998521
1.0033 0.999314 1.0057 0.998298
1.01113 1 1.01308 0.998076
1.0003 1 1.0017 0.998608
1.0101 1 1.01211 0.998012
1.00691 1 1.00892 0.998011
1.00016 1 1.00168 0.998478
0.999269 1 1 0.999269
0.999314 1 1 0.999314
0.999969 1 1 0.999969
0.999308 1 1 0.999308
0.999956 1 1 0.999956
1 1 1 1
0.999936 1 1 0.999936
1 1 1 1
0.999991 1 1 0.999991
0.999891 1 1 0.999891
1.00236 1 1.0026 0.999766
1 1 1 1
1.00385 1 1.00423 0.999618
1 1 1 1
1 1 1 1
1.08207 1.10604 0.981992 0.996273
1.08143 1.10202 0.984755 0.996516
1.07951 1.11013 0.975603 0.996735
1.07796 1.10771 0.976406 0.996652
1.08196 1.10236 0.984971 0.996464
1.07829 1.09281 0.990427 0.996249
1.081 1.10192 0.984507 0.996452
1.08342 1.11218 0.977443 0.99663
1.0811 1.11208 0.975355 0.996709
1.07616 1.11348 0.969678 0.996701
1.086 1.11391 0.978281 0.996586
1.08065 1.1189 0.968933 0.996783
1.0827 1.12513 0.965389 0.996789
1.07921 1.10052 0.984124 0.996456
1.0811 1.10512 0.981754 0.996448
1.07715 1.10985 0.973839 0.996609
1.04793 1.05244 1.00067 0.99506
1.05071 1.05609 1.00018 0.994725
1.06332 1.06984 0.999168 0.99473
1.07209 1.10123 0.976852 0.996601
1.0602 1.09476 0.971703 0.996625
1.06763 1.09014 0.98346 0.995819
1.01654 1.01395 1.00743 0.995169
1.02457 1.01331 1.01584 0.995347
1.03414 1.01507 1.02327 0.995614
1.01106 1 1.01246 0.998621
1.02438 1.01134 1.0163 0.996653
1.0268 1.00681 1.02278 0.997134
1.08475 1.11216 0.978751 0.99653
1.07877 1.11786 0.968333 0.99659
1.06884 1.11007 0.966074 0.996673
1.02616 1.03093 1.00043 0.994941
1.03246 1.03673 1.0014 0.994485
1.04834 1.06131 0.99297 0.994766
1.06052 1.10269 0.964836 0.996802
1.0532 1.0829 0.976269 0.996213
1.00332 1 1.00419 0.999135
1.0172 1 1.01946 0.997782
1.00972 1.00592 1.00857 0.995251
1.03268 1.01035 1.02701 0.995221
1.02858 1.01094 1.02139 0.996139
1.02227 1.01017 1.01512 0.9969
1.08102 1.12051 0.96796 0.996694
1.07062 1.12561 0.954344 0.996645
1.06017 1.10975 0.95834 0.996849
1.04181 1.08364 0.964504 0.996778
1.00769 1.01149 1.00133 0.994921
1.03496 1.05996 0.981048 0.995276
1.02401 1.02796 1.00181 0.994361
0.999626 1 1.0002 0.999429
0.999557 1 1.00073 0.998823
1.01058 1 1.01226 0.998337
1.0137 1 1.01651 0.997235
1.01574 1 1.01916 0.996641
1.03995 1.01546 1.02866 0.995589
1.01012 1.00266 1.01186 0.995626
1.05642 1.00546 1.05502 0.995885
1.01537 1 1.01758 0.997829
1.03414 1.00495 1.03222 0.99693
1.07258 1.10923 0.970272 0.99658
1.04542 1.03669 1.01217 0.996295
1.01128 1.01132 1.00451 0.995476
1.06438 1.06809 1.00046 0.996073
1.08398 1.09862 0.990984 0.995654
1.07742 1.09916 0.98401 0.996154
1.02228 1.0225 1.00482 0.994993
1.02112 1.02671 1 0.994561
1.01275 1.00048 1.0147 0.997598
1.02659 1.00514 1.02469 0.996736
1.03922 1.03949 1.00415 0.995604
1.04753 1.04904 1.00259 0.995988
1.07081 1.134 0.947328 0.996784
1.06798 1.10478 0.97012 0.996463
1.0572 1.06593 0.996742 0.995056
1.03335 1.03504 1.00377 0.99462
1.0072 0.998747 1.01076 0.997734
1.08122 1.14608 0.946416 0.996822
1.01603 1.00567 1.0139 0.996449
1.04032 1.04007 1.00485 0.995418
1.04382 1.11171 0.941818 0.996932
1.04481 1.0583 0.992091 0.995123
1.02226 1.02475 1.00323 0.994357
1.0066 1 1.00855 0.998063
0.999394 0.997278 1.00368 0.998443
1.00145 0.996406 1.00635 0.998723
1.00132 1 1.00281 0.998512
1.01096 1 1.01289 0.99809
1.00363 0.997987 1.00732 0.998345
1.0001 1 1.00163 0.998472
1.00644 1 1.00843 0.998027
1.00147 0.99901 1.0038 0.998663
1.0083 1 1.01031 0.998007
0.996453 0.99578 1.00186 0.998815
1.00427 0.999983 1.00589 0.998411
1.00868 1 1.01086 0.997845
1.00005 1 1.00225 0.997798
0.99912 1 1.00077 0.998348
0.999221 1 1 0.999221
0.999263 1 1 0.999263
0.999978 1 1 0.999978
0.99931 1 1 0.99931
0.999972 1 1 0.999972
1 1 1 1
0.999962 1 1 0.999962
1 1 1 1
1 1 1 1
0.999651 1 1.00015 0.999504
0.999937 1 1 0.999937
0.99988 1 1 0.99988
1 1 1 1
1.00181 1 1.00207 0.999741
1 1 1 1
1 1 1 1
1.07514 1.11242 0.969677 0.996716
1.08081 1.11193 0.975229 0.996701
1.08227 1.11095 0.977492 0.99662
1.08065 1.10177 0.984315 0.996454
1.08542 1.11387 0.977774 0.996606
1.0801 1.11844 0.968843 0.996773
1.0791 1.12147 0.965319 0.996789
1.0823 1.12178 0.967936 0.996763
1.09016 1.13741 0.961476 0.996864
1.10696 1.16961 0.949176 0.997117
1.08614 1.11297 0.979278 0.99654
1.07758 1.11772 0.967383 0.996591
1.06951 1.10979 0.966929 0.996666
1.0268 1.03154 1.00048 0.994932
1.03208 1.03641 1.00126 0.994562
1.05256 1.06543 0.992998 0.994888
1.0613 1.10277 0.965481 0.996802
1.05065 1.08053 0.976071 0.996188
1.01162 1.00672 1.00964 0.995266
1.03878 1.01076 1.03245 0.995416
1.02752 1.0102 1.0211 0.996125
1.00171 1 1.00248 0.999232
1.01553 1 1.0178 0.997773
1.02444 1.0136 1.01387 0.99687
1.08018 1.12042 0.967267 0.996702
0.999821 1 1.0004 0.999421
1.00007 1 1.0013 0.998769
1.0718 1.12491 0.955992 0.996648
1.0597 1.10874 0.958819 0.99682
1.0089 1.01203 1.00192 0.994993
1.02575 1.02948 1.00198 0.994405
1.03088 1.05565 0.981187 0.995259
1.04019 1.08279 0.963796 0.996743
1.00923 1 1.0108 0.998439
1.01423 1 1.01706 0.997216
1.01085 1.00246 1.01294 0.995484
1.04963 1.0066 1.04709 0.995855
1.03655 1.01167 1.02914 0.995581
1.01607 1.00241 1.01698 0.996702
1.08753 1.1459 0.952112 0.996794
1.05518 1.1231 0.942592 0.996743
1.04069 1.09658 0.951893 0.996994
1.02145 1.05653 0.97026 0.996431
1.01045 1.00663 1.00842 0.99542
1.01951 1.03085 0.994273 0.99469
0.999859 1 1.00117 0.99869
1.00339 1 1.00461 0.998786
1.00196 1.00021 1.00334 0.99842
1.00754 1 1.00997 0.997588
1.01558 1 1.01863 0.996999
1.01048 1.0004 1.0137 0.996416
1.08313 1.00712 1.07997 0.995832
0.994238 1.00049 0.996729 0.997009
1.00917 1 1.01169 0.997515
1.02287 1.00348 1.02272 0.99667
1.07043 1.13345 0.947433 0.996803
1.07561 1.10935 0.973084 0.996408
1.04497 1.04657 1.00248 0.996005
1.04948 1.0495 1.00441 0.995589
1.0525 1.06155 0.996338 0.995123
1.03568 1.03786 1.00335 0.994572
1.00895 0.998872 1.01239 0.997727
1.08177 1.14943 0.944053 0.996909
1.01696 1.00283 1.01761 0.996547
1.03507 1.03495 1.00479 0.995337
1.04477 1.11274 0.941825 0.996915
1.03911 1.05449 0.990133 0.995237
1.02369 1.02592 1.00348 0.994365
1.02005 0.997848 1.02469 0.997611
0.998359 1.08394 0.923605 0.997228
1.00923 0.99971 1.01333 0.996244
1.01552 1.01326 1.00758 0.994692
0.999659 1.04912 0.956241 0.996457
1.00512 1.00823 1.00221 0.994715
0.91829 0.998834 0.924038 0.994939
0.99601 0.994603 1.00299 0.998434
0.999217 0.993189 1.00735 0.998728
1.00299 0.99427 1.01011 0.998668
1.00005 1 1.00158 0.998467
1.0077 1 1.00968 0.998043
1.00681 1 1.00882 0.998002
1.0033 0.998633 1.00597 0.998721
0.99908 1 1.00073 0.998348
1.00091 1 1.00308 0.997832
0.993719 0.993229 1.00171 0.998781
1.01051 1 1.01269 0.99784
1.00566 0.999947 1.00736 0.998362
1.00103 0.990895 1.01147 0.99877
1.0111 1 1.01339 0.997744
1.00711 1 1.00932 0.997804
0.998421 1 1.00073 0.997697
0.998481 1 1.00033 0.99815
1.00639 1 1.00849 0.997917
1.00033 1 1.0022 0.998137
0.999206 1 1 0.999206
0.999216 1 1 0.999216
0.999985 1 1 0.999985
0.999257 1 1 0.999257
0.99998 1 1 0.99998
1 1 1 1
0.999974 1 1 0.999974
1 1 1 1
1 1 1 1
0.999618 1 1 0.999618
0.999662 1 1.00015 0.99951
0.999968 1 1 0.999968
0.99993 1 1 0.99993
1 1 1 1
1.00101 1 1.00115 0.999869
1 1 1 1
1 1 1 1
1.07587 1.11841 0.965066 0.996789
1.07959 1.11815 0.968647 0.996764
1.085 1.114 0.977263 0.996625
1.08179 1.12134 0.967867 0.996761
1.08792 1.1358 0.960872 0.996853
1.10949 1.17014 0.950992 0.997028
1.10155 1.15822 0.953998 0.99693
0.912531 1.01632 0.904775 0.992373
1.04551 1.11265 0.941837 0.99768
0.999891 1 1.00097 0.998924
1.07944 1.12048 0.966552 0.996711
1.07284 1.1239 0.957782 0.99665
1.05883 1.10757 0.959072 0.996792
1.00544 1.0096 1.00082 0.995059
1.02737 1.03092 1.00212 0.994445
1.02719 1.05148 0.981567 0.995241
1.03914 1.0826 0.963026 0.996709
1.00619 1.00236 1.00851 0.995354
1.04263 1.00746 1.03924 0.995839
1.03429 1.00769 1.03097 0.995571
1.00125 1 1.00183 0.999414
1.01602 1.00386 1.0154 0.996762
1.00907 1 1.01055 0.998538
1.0149 1 1.01776 0.997197
1.00067 1 1.00196 0.998717
1.0869 1.14572 0.95171 0.996801
0.999436 1 1.00068 0.998756
1.00415 1 1.00536 0.99879
1.00181 1.00051 1.00292 0.998384
1.05786 1.12319 0.944914 0.996742
1.0374 1.09351 0.951601 0.996941
1.00533 1.00453 1.00536 0.995459
1.01928 1.03055 0.994194 0.994842
1.02228 1.0568 0.970817 0.996413
1.00764 1 1.01001 0.997655
1.01439 1 1.01748 0.996972
1.00583 1.00038 1.00873 0.996742
1.07235 1.00494 1.07159 0.99579
1.01113 1.00402 1.01064 0.996483
1.06071 1.13923 0.933995 0.996872
1.01855 1.10431 0.925192 0.996914
1.02591 1.06828 0.963601 0.996608
1.0081 1.03314 0.97951 0.99617
1.00134 1.00127 1.00359 0.996491
0.998876 1 1.0005 0.998378
1.00572 1.00038 1.00733 0.998023
1.0027 0.998653 1.00581 0.998252
1.01533 1 1.0179 0.997475
1.01377 1 1.01666 0.99716
1.05065 0.999724 1.05435 0.996767
1.03175 1.00335 1.03119 0.997208
1.01088 1.00023 1.01296 0.997716
1.01846 1.0007 1.02118 0.996647
1.08154 1.15397 0.940059 0.996992
1.04662 1.11497 0.941616 0.996895
1.03371 1.05109 0.988056 0.995351
1.02784 1.02803 1.00458 0.995257
1.02436 1.02646 1.0036 0.994375
1.02048 0.998155 1.02466 0.997762
1.00077 1.08642 0.923663 0.997295
1.00593 1.00045 1.00928 0.996241
1.01306 1.01021 1.00818 0.99468
0.999064 1.04599 0.958379 0.996614
1.00666 1.00925 1.00273 0.994718
0.912828 0.99588 0.922703 0.99339
1.02157 0.994072 1.03015 0.997593
0.961773 1.02986 0.936506 0.997208
1.00422 1.00137 1.00708 0.995798
1.00474 1.00278 1.00663 0.995349
0.987146 1.00779 0.983047 0.996405
0.850309 0.966607 0.917813 0.958457
0.806217 0.935394 0.881306 0.977981
0.913973 0.970078 0.946312 0.995617
0.561305 0.743437 0.838567 0.900361
0.481383 0.662716 0.83868 0.866099
0.997984 0.990106 1.00924 0.998733
1.00471 0.991093 1.01504 0.998721
1.00583 0.991307 1.01596 0.998703
0.998552 1 1.0002 0.998349
1.00114 1 1.00329 0.997865
1.01059 1 1.01278 0.997835
1.00541 1 1.00711 0.998313
0.989614 0.990856 1 0.998747
1.00805 1 1.01026 0.997814
0.998199 1 1.00001 0.998191
0.998868 1 1.00116 0.997709
1.00017 0.992906 1.00863 0.998693
1.01144 1 1.01362 0.997846
1.01671 1 1.01884 0.997906
1.01762 0.998001 1.02144 0.99826
1.0086 1 1.01081 0.997812
0.999328 1 1.00177 0.997559
0.999167 1 1.00106 0.998109
1.0023 1 1.00454 0.997775
1.00702 0.999398 1.00961 0.998041
1.00892 1 1.01083 0.99811
1.0063 1 1.00842 0.997898
1.00121 1 1.00291 0.998305
1.00108 1 1.00295 0.998131
0.999209 1 1 0.999209
0.999207 1 1 0.999207
0.999992 1 1 0.999992
0.999211 1 1 0.999211
0.999988 1 1 0.999988
1 1 1 1
0.999982 1 1 0.999982
1 1 1 1
1 1 1 1
0.999729 1 1 0.999729
0.999738 1 1.00012 0.999616
0.999988 1 1 0.999988
0.999759 1 1.00024 0.999516
0.999961 1 1 0.999961
1 1 1 1
0.999923 1 1 0.999923
1 1 1 1
1 1 1 1
1.08539 1.13389 0.960258 0.996841
1.08099 1.12057 0.967816 0.99676
1.11505 1.17243 0.95397 0.996942
0.917652 1.01435 0.911559 0.992441
1.10029 1.15888 0.952373 0.996926
1.0542 1.11585 0.947064 0.997558
1.06885 1.13331 0.945925 0.997038
0.861201 0.960303 0.917395 0.977553
0.961021 1.03304 0.936864 0.992975
0.999154 1 1.00016 0.998997
0.999538 1 1.00062 0.998917
1.00029 1 1.0018 0.998486
0.998798 1 1.00027 0.998526
1.08621 1.1458 0.951028 0.996809
1.06008 1.12358 0.946573 0.996741
1.03437 1.09066 0.95135 0.996888
1.00494 1.00452 1.00494 0.995499
1.01895 1.03022 0.994027 0.995001
1.0219 1.05616 0.971057 0.996397
1.01756 1 1.02118 0.996464
1.06033 1.00441 1.06019 0.995748
1.01285 1.00756 1.00873 0.996553
1.00388 1 1.0051 0.998794
1.01377 1.00061 1.01625 0.99695
1.00708 1 1.00938 0.997723
0.998821 1 1 0.998821
1.00148 1.00041 1.00272 0.998349
1.06199 1.14196 0.932873 0.996886
0.999571 0.999999 1.00121 0.998365
1.00412 1.0006 1.0054 0.99813
1.00277 0.997516 1.00665 0.998625
1.02749 1.10865 0.929676 0.9969
1.02523 1.0676 0.96359 0.996606
1.00168 1.00515 1.00006 0.996489
1.00966 1.03371 0.980418 0.99624
1.01452 1 1.01723 0.997336
1.01397 1.00003 1.01702 0.996972
1.0385 1.00421 1.03705 0.997192
1.05183 1.00331 1.05191 0.996622
1.01245 1.08575 0.935332 0.996956
0.989801 1.06697 0.930527 0.996933
1.01032 1.02868 0.985893 0.996206
0.973092 1.00428 0.971449 0.997418
1.00812 0.999235 1.01045 0.998454
1.00871 1 1.01117 0.997566
1.02014 0.998815 1.02327 0.998121
1.08013 1.0015 1.08148 0.997258
0.850919 0.966605 0.926131 0.950533
1.02137 0.998074 1.02548 0.997912
1.00349 1.00091 1.00637 0.996236
1.00399 1.08827 0.924992 0.997371
0.998096 1.04261 0.960406 0.996769
1.00824 1.01027 1.0033 0.994714
1.01143 1.00776 1.00902 0.994665
0.909243 0.994487 0.921877 0.991763
1.01708 0.994372 1.02524 0.997659
0.960846 1.02988 0.935606 0.997178
1.00458 1.00151 1.0073 0.995808
1.00707 1.00567 1.00605 0.995376
0.988776 1.00885 0.983654 0.996386
0.836528 0.965412 0.911256 0.950884
0.810135 0.936934 0.887717 0.974034
0.91782 0.969737 0.950546 0.995704
0.559953 0.742139 0.835146 0.903448
0.480029 0.671584 0.831312 0.859811
1.00738 0.994639 1.01518 0.997671
0.612812 0.774396 0.871545 0.907975
0.522019 0.69902 0.862883 0.865456
0.969035 1.00558 0.965988 0.997588
1.01493 1.00223 1.01591 0.996803
1.01708 1.00657 1.01349 0.996993
0.915665 0.956409 0.960847 0.996412
0.772096 0.929155 0.869284 0.955919
0.778501 0.90591 0.885146 0.970865
0.530681 0.714546 0.814961 0.911312
0.521214 0.747956 0.814857 0.855183
1.00595 0.987955 1.01947 0.998773
1.00755 0.990076 1.019 0.998676
1.01572 0.993288 1.02378 0.998837
0.998232 1 1 0.998232
0.999518 1 1.0018 0.99772
1.00928 1 1.01148 0.997824
1.01284 1 1.01492 0.997947
1.00008 0.994527 1.00698 0.998615
0.998992 1 1.00089 0.998107
1.01674 1 1.01888 0.997901
1.00936 1 1.01162 0.997772
0.999221 1 1.00161 0.997612
1.01654 0.997248 1.02106 0.998322
1.01722 1 1.01906 0.998193
1.03217 0.995985 1.03789 0.998495
1.00854 1 1.01099 0.997582
0.999401 1 1.00176 0.997648
1.0013 1 1.00354 0.997767
1.00641 0.999019 1.00929 0.998122
1.00136 0.999955 1.00356 0.997854
1.00291 0.998159 1.00655 0.998215
1.01133 0.995849 1.01719 0.99839
1.01411 0.999702 1.01643 0.998016
1.01322 1 1.01508 0.99817
1.0109 1 1.01281 0.998112
1.00654 1 1.0082 0.998344
1.00819 1 1.01034 0.997879
1.00163 1 1.00337 0.998262
0.999178 1 1 0.999178
1.00179 1 1.00367 0.998124
0.999213 1 1 0.999213
0.999987 1 1 0.999987
0.999208 1 1 0.999208
0.999991 1 1 0.999991
1 1 1 1
0.99999 1 1 0.99999
1 1 1 1
1 1 1 1
0.999382 1 1.00047 0.998908
0.999765 1 1 0.999765
0.999724 1 1 0.999724
0.999998 1 1 0.999998
0.999759 1 1.00014 0.999616
0.999983 1 1 0.999983
1 1 1 1
0.999954 1 1 0.999954
1 1 1 1
1 1 1 1
0.919416 1.01233 0.915077 0.992507
1.09899 1.15857 0.951503 0.996922
1.05855 1.11799 0.949266 0.997432
0.849991 0.961823 0.902803 0.978872
0.953459 1.03219 0.93001 0.993243
1.07138 1.13605 0.945915 0.997001
0.961872 1.05143 0.919534 0.994873
0.87149 0.974124 0.912482 0.980446
0.851863 0.971581 0.917318 0.955809
0.577054 0.752884 0.838904 0.913642
0.455254 0.642859 0.818655 0.865043
1.00036 1 1.00181 0.998553
0.999487 1 1.00049 0.998996
0.999699 1 1.00079 0.998909
1.00039 1 1.00188 0.998514
1.00062 1 1.00218 0.998442
0.998976 1 1.00081 0.998167
1.00038 1 1.00213 0.99826
0.999234 1 1.00075 0.998481
1.06472 1.14422 0.933417 0.996897
1.03699 1.11314 0.934503 0.996886
1.02487 1.06757 0.963278 0.996603
1 1.00705 0.996506 0.996489
1.01131 1.03444 0.981266 0.996309
1.04743 1.00469 1.04549 0.997174
1.05292 1.00652 1.0498 0.996478
1.01142 1.00036 1.01432 0.996778
1.00266 1.00077 1.00366 0.998232
1.01527 1 1.01813 0.997192
1.0006 1 1.00225 0.998353
1.00331 0.997444 1.00689 0.999002
1.00563 1.08529 0.929357 0.997037
1.00733 0.998993 1.00996 0.998398
1.01037 0.999863 1.0127 0.997835
0.989681 1.06544 0.931782 0.996905
1.01048 1.03143 0.983262 0.996368
0.975067 1.00349 0.974328 0.997283
1.02902 0.998327 1.03311 0.997717
1.06985 1.00361 1.06887 0.99731
0.948456 1.03697 0.917732 0.996635
0.99435 1.0222 0.975768 0.996914
0.974096 1.00266 0.974464 0.996967
0.973174 0.994964 0.980202 0.997855
1.01332 0.999887 1.01569 0.997777
1.01915 0.99537 1.02596 0.997983
1.06385 0.998716 1.06769 0.997678
0.648704 0.790629 0.900938 0.910709
0.854363 0.969982 0.917801 0.959688
1.01276 0.995859 1.01929 0.997727
1.00461 1.00132 1.00749 0.995822
0.961241 1.02987 0.936029 0.997146
0.990546 1.0102 0.984119 0.996372
1.00989 1.00879 1.00571 0.995413
0.842258 0.969757 0.908653 0.955838
0.817865 0.950689 0.882647 0.974666
0.920073 0.967645 0.954825 0.995824
0.574935 0.739405 0.850866 0.913851
0.478397 0.681947 0.822165 0.853256
1.0073 0.996481 1.01321 0.997685
0.632594 0.787703 0.883553 0.908928
0.488867 0.664152 0.855458 0.860448
0.969639 1.00671 0.965544 0.997548
1.01525 1.00295 1.01552 0.996795
1.01482 1.00431 1.01336 0.997138
0.910737 0.950252 0.961508 0.996784
0.769852 0.933167 0.867594 0.950893
0.778801 0.903996 0.884661 0.97383
0.553707 0.730365 0.833492 0.909576
0.533029 0.766527 0.814729 0.853514
1.00802 0.994732 1.01497 0.998415
0.518807 0.703415 0.855325 0.86231
0.555439 0.774671 0.828304 0.865623
0.984303 0.989201 0.996477 0.998566
1.02098 1.00233 1.02013 0.998511
0.923046 0.93613 0.990378 0.995604
0.804121 0.895936 0.91925 0.976361
0.70366 0.873055 0.851236 0.946829
0.59425 0.736837 0.885074 0.91121
0.616774 0.848256 0.843383 0.862134
1.01103 0.992757 1.01978 0.99865
1.01304 0.994841 1.01953 0.998787
1.01334 0.991506 1.02297 0.999074
0.998446 1 1.00034 0.998105
0.999097 1 1.00144 0.997664
1.01085 1 1.01314 0.997731
1.01691 1 1.01905 0.997897
1.01512 0.996483 1.02035 0.998385
0.999027 1 1.00139 0.997639
1.01735 1 1.01927 0.998117
1.00774 1 1.01018 0.997584
1.02882 0.993664 1.03687 0.998559
1.04664 0.991436 1.05664 0.999094
1.02308 0.999734 1.02525 0.998155
1.00415 1 1.00662 0.997553
1.00004 1 1.00229 0.997759
1.00566 0.999855 1.00762 0.998202
1.0014 0.999865 1.0037 0.997843
1.00278 0.999717 1.00488 0.99819
1.0041 0.991934 1.01377 0.998518
1.00458 0.999378 1.00703 0.998192
1.0177 0.997065 1.0225 0.998232
0.998302 0.985986 1.01395 0.998564
1.02568 1.00044 1.02745 0.997846
1.00915 1.0113 1.00093 0.996951
1.02131 0.999142 1.02452 0.997719
1.0145 0.999387 1.01714 0.998022
1.01764 1 1.01983 0.997851
1.01286 0.999929 1.01478 0.998178
1.00965 1 1.0114 0.998267
1.00957 1 1.01148 0.998114
1.00364 1 1.00529 0.99836
0.999492 1 1.00038 0.999111
1.00072 1 1.00251 0.998219
0.999183 1 1 0.999183
0.999964 1 1 0.999964
0.999218 1 1 0.999218
0.999983 1 1 0.999983
1 1 1 1
0.999991 1 1 0.999991
1 1 1 1
1 1 1 1
0.99929 1 1.00042 0.99887
0.999732 1 1.00002 0.99971
0.99924 1 1.00033 0.998912
0.999999 1 1 0.999999
0.999764 1 1 0.999764
0.999719 1 1 0.999719
0.999996 1 1 0.999996
1 1 1 1
0.999977 1 1 0.999977
1 1 1 1
1 1 1 1
0.611327 0.772589 0.878943 0.900252
0.503866 0.692178 0.847439 0.858992
0.850627 0.959646 0.904786 0.979675
0.949407 1.03109 0.92676 0.993549
1.07488 1.14057 0.945279 0.996966
0.869472 0.961291 0.921594 0.981433
0.966884 1.04713 0.927805 0.995213
0.854446 0.976226 0.915885 0.955638
0.553021 0.741523 0.825402 0.90355
0.467757 0.664737 0.819324 0.858845
0.881579 0.989592 0.902783 0.986784
0.796146 0.942006 0.883149 0.956985
0.535103 0.72033 0.815449 0.910981
0.541291 0.761407 0.828054 0.85853
1.00152 1 1.00343 0.998096
0.999466 1 1.00088 0.998585
0.99956 1 1.00056 0.998996
0.999903 1 1.00136 0.998542
1.00043 1 1.00183 0.998601
1.00055 1 1.00277 0.997777
0.999343 1 1.00117 0.998179
1.00285 1 1.00513 0.997733
0.999825 1 1.00163 0.998203
0.999918 1 1.00148 0.998436
0.997053 1.08482 0.921755 0.997114
0.989177 1.06357 0.932968 0.996879
1.01107 1.03409 0.981144 0.99653
0.977831 1.00322 0.977479 0.997147
1.05929 1.00586 1.05591 0.997364
1.03982 0.998539 1.04414 0.997321
1.01046 0.999457 1.01293 0.998101
1.00648 0.998603 1.00956 0.99834
0.947458 1.03719 0.916396 0.996827
1.01646 0.999849 1.01894 0.99771
1.01929 0.995318 1.02617 0.997969
0.98247 1.01743 0.968681 0.996856
0.972039 1.00206 0.97296 0.997003
0.977756 0.996909 0.98289 0.997861
1.05611 0.997492 1.06128 0.997628
0.92315 1.00076 0.925532 0.996668
0.970811 0.996835 0.975805 0.998041
1.02261 0.984738 1.04036 0.998167
1.01119 1 1.01362 0.997598
1.02714 0.997081 1.03253 0.997694
1.02954 0.994349 1.03764 0.997838
0.539085 0.714526 0.859786 0.877503
0.638613 0.785004 0.891337 0.912691
0.853535 0.971681 0.923892 0.950772
1.00628 0.994901 1.01378 0.997695
1.01486 1.00288 1.01521 0.996779
0.971797 1.00796 0.966536 0.997504
1.01277 1.00262 1.01288 0.997276
0.641991 0.780001 0.899505 0.915019
0.782093 0.940182 0.87503 0.950657
0.769126 0.902011 0.878131 0.971015
0.910547 0.946664 0.964636 0.99711
0.545375 0.736373 0.822059 0.900937
0.473148 0.64677 0.846913 0.863791
0.547147 0.773489 0.820209 0.862434
1.00734 0.994031 1.01507 0.998345
0.523214 0.70402 0.856111 0.86809
0.578134 0.798638 0.836729 0.865156
0.979075 0.986123 0.99416 0.998685
1.0195 1.00088 1.02019 0.998446
0.919921 0.933226 0.989062 0.996645
0.791155 0.902185 0.901377 0.97288
0.72846 0.875702 0.871882 0.954095
0.590895 0.742957 0.882251 0.901477
0.60937 0.8381 0.837355 0.868311
1.00647 0.991261 1.01593 0.999431
0.597762 0.795731 0.857807 0.875734
0.602583 0.81856 0.84654 0.869598
0.965403 0.94021 1.02709 0.999715
0.847973 0.891916 0.966936 0.983242
0.744614 0.842662 0.928859 0.951322
0.694889 0.843165 0.917714 0.898039
0.668925 0.897297 0.852734 0.874233
1.00916 0.994576 1.01595 0.998736
1.01516 0.990462 1.0259 0.999059
1.02255 0.976647 1.04768 0.999354
0.999573 1 1.00195 0.997629
1.00639 1 1.00882 0.997586
1.01683 1 1.01882 0.99804
1.02638 0.991905 1.03618 0.998624
1.00468 1 1.00714 0.997552
1.02204 0.999175 1.02478 0.998143
1.05235 0.99138 1.06238 0.999173
1.04045 0.975453 1.06722 0.999446
1.04737 0.992741 1.05601 0.999068
1.01637 0.999288 1.0191 0.998029
1.00115 1 1.00332 0.99783
1.00148 1.00012 1.0032 0.998166
0.99637 0.986151 1.01174 0.998643
1.01695 0.997072 1.02172 0.998258
1.00302 0.999825 1.00503 0.998177
0.999269 0.984767 1.01615 0.998598
1.02517 0.998985 1.02803 0.998226
1.0207 0.979829 1.0428 0.998962
1.01165 1.00344 1.01009 0.998112
1.01975 1.00121 1.02067 0.997891
1.00535 1.0022 1.00592 0.99724
1.01442 1.01718 1.00153 0.995767
1.0121 1.00616 1.00866 0.997263
1.00696 1.00872 1.00093 0.997325
1.01925 0.999685 1.02191 0.997711
1.02853 0.999542 1.03155 0.997522
1.01433 0.999154 1.01719 0.998028
1.01785 1.00001 1.02003 0.997856
1.01221 1 1.01427 0.99797
1.01334 1 1.01519 0.998186
1.01052 1 1.01228 0.998267
1.0025 1 1.00352 0.998976
1.00401 1 1.00564 0.998376
1.00014 1 1.00102 0.999113
0.999919 1 1 0.999919
0.999303 1 1.00011 0.999189
0.999952 1 1 0.999952
1 1 1 1
0.999979 1 1 0.999979
1 1 1 1
1 1 1 1
1.00021 1 1.00176 0.998454
0.999682 1 1.00008 0.999605
0.999598 1 1.00083 0.998766
0.999995 1 1 0.999995
0.999717 1 1 0.999717
0.999357 1 1.00044 0.998914
1 1 1 1
0.999999 1 1 0.999999
0.999764 1 1 0.999764
0.999994 1 1 0.999994
1 1 1 1
1 1 1 1
0.502538 0.688643 0.844821 0.863794
0.625102 0.780387 0.883091 0.907058
0.584192 0.80775 0.835707 0.865417
0.502639 0.696329 0.841439 0.857867
0.868592 0.962203 0.9224 0.978656
0.971308 1.0426 0.935767 0.995573
0.844372 0.981022 0.901326 0.954933
0.567934 0.735239 0.84578 0.913297
0.482019 0.691996 0.816963 0.852626
0.890485 0.983796 0.918488 0.985481
0.763184 0.925981 0.870044 0.947296
0.555756 0.731144 0.83605 0.909177
0.526445 0.749885 0.822599 0.853435
0.836593 0.948972 0.898974 0.98065
0.696668 0.845138 0.871958 0.945373
0.618096 0.782656 0.880537 0.896886
0.604926 0.833384 0.84331 0.860736
1.00599 1 1.0084 0.997604
1.00171 1 1.00356 0.998157
0.99933 1 1.00072 0.998616
1.00044 1 1.00168 0.998759
1.00046 1 1.00315 0.997317
1.00042 1 1.00257 0.997852
0.999423 1 1.00123 0.998192
1.00222 1 1.00454 0.997687
1.00159 1 1.00383 0.997771
0.99942 1 1.00128 0.998145
0.947251 1.03775 0.915529 0.99701
0.972311 1.01304 0.962872 0.996804
0.968779 1.00129 0.970406 0.997039
0.981304 0.998592 0.984787 0.997868
1.04231 0.994547 1.05057 0.997572
1.02033 0.99663 1.02588 0.997958
1.01805 1 1.02045 0.997644
1.01112 1 1.0136 0.99755
0.925645 0.999908 0.928682 0.996821
1.02331 0.997962 1.02781 0.997652
1.02949 0.994857 1.03708 0.997816
0.969751 0.998339 0.973276 0.998036
1.01459 0.98902 1.02778 0.998123
0.930605 0.965192 0.967197 0.996865
0.950606 0.948703 1.00279 0.999216
1.04927 0.972612 1.08057 0.998377
1.01384 0.998408 1.01767 0.997827
1.03245 0.993277 1.04151 0.998004
0.612669 0.81253 0.85476 0.882149
0.530072 0.715732 0.846438 0.874963
0.627626 0.776303 0.894946 0.903385
1.00798 0.995224 1.01456 0.998281
1.01818 0.999287 1.02056 0.998379
0.971967 0.983272 0.989675 0.998816
0.515431 0.69798 0.851359 0.86739
0.699119 0.85382 0.865619 0.945928
0.795878 0.899975 0.907175 0.974821
0.909684 0.926872 0.983657 0.997763
0.600185 0.755127 0.872299 0.91117
0.597477 0.817485 0.844806 0.865136
0.604018 0.83113 0.836136 0.869169
1.00514 0.991903 1.01398 0.999376
0.604211 0.800953 0.859523 0.877656
0.596798 0.810246 0.846534 0.870093
0.969151 0.946892 1.02406 0.999462
0.858554 0.904173 0.96574 0.983233
0.720718 0.84492 0.904273 0.9433
0.658448 0.888313 0.849323 0.872736
0.711766 0.841932 0.93644 0.902777
0.986285 0.945128 1.04385 0.999711
0.600508 0.79515 0.859485 0.878681
0.651843 0.866977 0.856893 0.877422
0.602104 0.831948 0.840689 0.860875
0.911576 0.902612 1.01448 0.99552
0.824799 0.88021 0.982561 0.953679
0.778118 0.92096 0.928889 0.90958
1.01821 0.99051 1.02895 0.999043
1.02556 0.982475 1.04462 0.99927
1.04092 0.971359 1.07208 0.999566
1.00555 1 1.00801 0.997552
1.02054 0.998688 1.02379 0.99813
1.05711 0.989953 1.06864 0.999251
1.01961 0.999169 1.02246 0.998043
1.04761 0.992651 1.05634 0.999079
1.04818 0.977516 1.07291 0.999421
1.03445 0.964923 1.0726 0.999489
1.0299 0.987769 1.04363 0.999058
1.01485 0.997084 1.01956 0.998287
1.0031 1.00018 1.00476 0.998161
1.00217 0.986251 1.01753 0.998633
1.02188 0.98455 1.03903 0.998933
1.03194 0.999211 1.03458 0.998237
1.0169 1.00018 1.01795 0.998791
1.01399 0.999889 1.01556 0.998565
1.00415 1.00278 1.00468 0.9967
1.01626 1.00323 1.01506 0.997948
1.00684 1.00466 1.00506 0.99712
1.00506 1.00746 1.00232 0.995308
1.03223 1.03598 1.00129 0.995093
1.01334 1.01403 1.00258 0.996736
1.00993 1.01276 1.00138 0.995831
1.01897 1.00095 1.02093 0.997123
1.01193 1.0062 1.00843 0.997293
1.00421 1.00571 1.00081 0.997694
1.01703 1.00011 1.01926 0.997704
1.02783 0.999695 1.0307 0.997523
1.01845 1 1.02087 0.997633
1.01943 0.999859 1.02176 0.997862
1.0124 1.00048 1.01397 0.997966
1.00747 1 1.00877 0.998707
1.00798 1 1.00973 0.998266
1.00294 1 1.00397 0.998969
0.999872 1 1 0.999872
1.00014 1 1.00102 0.999114
0.999908 1 1 0.999908
0.999999 1 1 0.999999
0.999939 1 1 0.999939
1 1 1 1
1 1 1 1
1.00313 1 1.0051 0.998041
0.999728 1 1.00047 0.999262
1.00056 1 1.00211 0.998453
0.999984 1 1 0.999984
0.999536 1 1.00001 0.999525
0.999479 1 1.00082 0.998662
1 1 1 1
0.999997 1 1 0.999997
0.999724 1 1 0.999724
1 1 1 1
1 1 1 1
1 1 1 1
0.623302 0.829407 0.858271 0.8756
0.518268 0.694506 0.856088 0.871686
0.61209 0.774489 0.87255 0.905752
1.0043 1 1.00673 0.997589
0.591735 0.803686 0.842667 0.873746
0.584329 0.804375 0.839592 0.865229
0.521877 0.718912 0.838842 0.86539
0.895101 0.990177 0.918537 0.984152
0.772402 0.920245 0.87798 0.955994
0.542549 0.733113 0.82212 0.900188
0.513019 0.725488 0.822923 0.859298
0.83156 0.945535 0.90048 0.976657
0.72566 0.865142 0.879702 0.953477
0.606567 0.761476 0.886402 0.898652
0.608512 0.836571 0.84343 0.862417
0.775065 0.893289 0.893147 0.971456
0.729919 0.833457 0.923012 0.948821
0.717914 0.845865 0.938665 0.904192
0.666078 0.890432 0.85563 0.874256
1.00439 1 1.00678 0.99763
1.00615 1 1.00858 0.997599
1.0014 1 1.00319 0.998219
1.00086 1 1.00332 0.997548
1.00198 1 1.0046 0.997394
1.00045 1 1.00253 0.997927
1.00331 1 1.00564 0.997685
1.00096 1 1.00316 0.997808
0.929853 1.00139 0.931414 0.996938
0.970396 1.00109 0.971244 0.998042
1.00998 1 1.01251 0.997501
1.00689 0.992999 1.01594 0.998079
1.03132 0.994299 1.03953 0.997793
1.02483 0.999868 1.02742 0.997607
1.01798 0.999461 1.02078 0.997796
0.932013 0.96498 0.968701 0.997043
1.03164 0.995052 1.03884 0.998003
1.0376 0.980024 1.06042 0.998422
0.956763 0.953385 1.00429 0.999255
1.02364 0.997827 1.02786 0.998065
0.917141 0.924361 0.996095 0.996078
0.980402 0.945256 1.03773 0.999476
1.07192 0.984471 1.09042 0.998536
1.06528 0.994616 1.07297 0.998211
0.594125 0.7854 0.856525 0.883175
0.610052 0.810358 0.854798 0.880697
0.52049 0.714944 0.834568 0.872325
1.00284 0.991832 1.01178 0.999322
0.973538 0.951925 1.02351 0.999209
0.613802 0.809551 0.862117 0.879464
0.738301 0.822992 0.941519 0.952816
0.847942 0.901761 0.961064 0.978413
0.698384 0.831997 0.932355 0.900308
0.594041 0.805933 0.846752 0.870485
0.654089 0.885291 0.848075 0.871197
0.997324 0.958893 1.04042 0.999669
0.601663 0.797459 0.858544 0.878785
0.658181 0.868419 0.862002 0.879241
0.928923 0.914351 1.01749 0.998476
0.605948 0.834461 0.841969 0.862448
0.793049 0.859126 0.972786 0.948912
0.772812 0.906408 0.937922 0.909041
0.988968 0.945841 1.04606 0.999558
0.651649 0.84783 0.867443 0.886062
0.596323 0.804169 0.847719 0.874746
0.536929 0.756263 0.827092 0.858402
0.710446 0.83921 0.937026 0.903459
0.914022 0.915249 1.00985 0.988921
0.843172 0.893906 1.00108 0.942231
1.02745 0.989284 1.03942 0.999188
1.03474 0.963167 1.07481 0.999534
1.01338 0.939231 1.0794 0.999581
1.02269 0.998529 1.02619 0.998056
1.04935 0.991233 1.0596 0.999091
1.0573 0.980263 1.07924 0.999396
1.02758 0.988483 1.04055 0.999045
1.02813 0.964512 1.0665 0.999488
0.984291 0.960937 1.02509 0.999234
1.02437 0.988341 1.03759 0.998903
1.03693 0.996251 1.04265 0.998252
1.02333 0.998433 1.02621 0.998759
1.002 0.998836 1.00531 0.997872
1.01522 0.996672 1.01961 0.999019
0.998465 1.00274 0.998752 0.996985
1.00832 1.00427 1.00954 0.994545
1.01135 1.0142 1.00283 0.994367
1.00783 1.00764 1.00321 0.996984
1.00522 1.00815 1.00206 0.995048
1.0287 1.03322 1.00053 0.995107
1.0274 1.029 1.00261 0.995842
1.02911 1.03276 1.00125 0.995209
1.01416 1.00676 1.01047 0.996913
1.01748 1.01723 1.00357 0.996689
1.00531 1.00816 1.00128 0.9959
1.02622 1 1.02889 0.997409
1.0193 1.00121 1.02097 0.997154
1.01227 1.00628 1.00865 0.997323
1.02716 1.00002 1.02969 0.997525
1.01755 1.00039 1.01957 0.997634
1.01381 1 1.01546 0.998376
1.0128 1.00077 1.01409 0.997961
1.00758 1 1.00889 0.9987
1.0002 1 1.00041 0.999788
1.00437 1 1.00541 0.998965
0.999862 1 1 0.999862
1 1 1 1
0.999896 1 1 0.999896
1 1 1 1
1 1 1 1
1.00504 1 1.00711 0.997944
1.00203 1 1.00306 0.998965
1.00339 1 1.00528 0.998119
0.999962 1 1 0.999962
0.999591 1 1.00036 0.99923
1.00082 1 1.00237 0.998451
1 1 1 1
0.999988 1 1 0.999988
0.999446 1 1 0.999446
1 1 1 1
0.999998 1 1 0.999998
1 1 1 1
0.601759 0.79537 0.856634 0.883198
0.620025 0.825484 0.857724 0.875694
0.520172 0.693107 0.861093 0.871559
1.00402 1 1.0064 0.99764
1.01129 1 1.0138 0.997524
1.00171 1 1.00396 0.997755
0.659067 0.872949 0.861209 0.876663
0.593384 0.808891 0.839111 0.874232
0.580409 0.804173 0.834277 0.865115
0.832691 0.948292 0.896911 0.979022
0.699544 0.863794 0.856468 0.94557
0.62311 0.752236 0.909481 0.910787
0.609943 0.844626 0.840962 0.858714
0.78287 0.896425 0.895673 0.975049
0.742091 0.843449 0.928167 0.947922
0.716309 0.845685 0.935448 0.905466
0.658427 0.885772 0.851842 0.872622
0.806356 0.889703 0.932355 0.972075
0.787769 0.858019 0.965846 0.950592
0.782404 0.917918 0.93665 0.910018
0.620909 0.849549 0.847074 0.862816
1.00199 0.998981 1.00508 0.997942
1.00374 1 1.00616 0.997591
1.00617 1 1.0086 0.997594
1.00093 1 1.00341 0.997524
1.00258 1 1.00512 0.997472
1.00287 1 1.0052 0.997684
0.92618 0.957315 0.970129 0.997265
0.960416 0.953592 1.00789 0.999268
1.01672 0.999871 1.01913 0.997768
1.03033 0.988607 1.04381 0.998466
1.02804 0.995856 1.03438 0.998
1.0246 0.997558 1.02908 0.998083
1.04808 0.987222 1.06351 0.998248
0.91586 0.920724 0.998508 0.996203
1.06382 0.977964 1.08923 0.998678
0.980527 0.932292 1.0526 0.999184
1.041 0.985627 1.05785 0.998418
0.930404 0.914292 1.02217 0.995547
1.00573 0.946276 1.064 0.998901
1.02983 0.954034 1.08075 0.998792
0.672937 0.865528 0.877942 0.885579
0.600937 0.790436 0.860574 0.883434
0.606608 0.808224 0.853618 0.879251
1.00884 0.972676 1.03757 0.999627
0.916755 0.913493 1.0075 0.996105
0.600996 0.796946 0.858039 0.878892
0.789204 0.843979 0.980603 0.953596
0.762877 0.911063 0.928355 0.90197
0.661053 0.871674 0.860764 0.881046
0.607956 0.842406 0.840217 0.858933
0.981585 0.938492 1.04624 0.999688
0.646734 0.839576 0.868738 0.886699
0.600212 0.815497 0.84087 0.875293
0.910213 0.911288 1.01563 0.983447
0.521408 0.742542 0.822708 0.853515
0.717498 0.844165 0.939997 0.904205
0.829395 0.888638 0.980248 0.952139
1.00138 0.934582 1.07439 0.997285
0.606015 0.796544 0.860507 0.884136
0.593382 0.811812 0.843914 0.866124
0.45827 0.641846 0.824856 0.865591
0.60457 0.769301 0.876936 0.896153
0.798437 0.85658 0.980952 0.950221
0.870614 0.891389 0.997786 0.978861
1.02937 0.959215 1.07367 0.999501
1.02661 0.955964 1.07436 0.999564
0.99378 0.947722 1.04923 0.999399
1.02396 0.990149 1.03515 0.999032
1.02207 0.964959 1.05973 0.999487
0.987142 0.958437 1.03065 0.999318
1.01662 0.992073 1.02605 0.998724
1.02997 0.997494 1.03388 0.998722
0.998469 1.00116 0.999805 0.997511
1.03474 1.00159 1.03804 0.995234
0.992042 1.00163 0.993132 0.997281
1.0101 1.00382 1.01168 0.99464
1.0089 1.00537 1.00988 0.993698
1.02315 1.02728 1.00191 0.994087
1.02033 1.02459 1.00108 0.99477
1.01158 1.01415 1.00318 0.994304
1.00495 1.00851 1.00169 0.994792
1.02023 1.02381 1.0011 0.995415
1.03258 1.03705 1.00048 0.995206
1.01847 1.01694 1.00529 0.996236
1.02848 1.02986 1.00274 0.995936
1.02696 1.03057 1.00117 0.995327
1.02643 1.00355 1.02566 0.997214
1.0168 1.00873 1.01114 0.996893
1.0203 1.01968 1.00398 0.996639
1.02469 1.00087 1.02578 0.998081
1.02545 1.00033 1.02777 0.997408
1.02071 1.00183 1.02172 0.997185
1.01892 1.00136 1.01995 0.997636
1.01368 1.00033 1.015 0.998374
1.00188 1 1.00224 0.99964
1.00717 1 1.00849 0.998692
1.00057 1 1.0008 0.999772
1 1 1 1
0.999852 1 1 0.999852
1 1 1 1
1 1 1 1
1.00469 1 1.00686 0.997851
1.00379 1 1.00493 0.998868
1.00556 1 1.0076 0.99797
0.999921 1 1 0.999921
1.00133 1 1.00231 0.999025
1.00316 1 1.00497 0.998198
1 1 1 1
0.999969 1 1 0.999969
0.999416 1 1.00022 0.999198
1 1 1 1
0.999991 1 1 0.999991
1 1 1 1
0.648972 0.845526 0.867313 0.884959
0.610691 0.798311 0.866029 0.883318
0.621371 0.826455 0.85848 0.875794
1.03068 1 1.03339 0.997375
1.0108 1.00284 1.01035 0.99761
1.00423 1 1.00656 0.997692
1.01059 1 1.01313 0.997497
1.00149 1 1.00369 0.997803
1.00751 1 1.00979 0.997736
0.996511 0.998393 1 0.998116
0.610963 0.829046 0.84697 0.870098
0.661099 0.870745 0.864253 0.878486
0.603793 0.8109 0.851257 0.874702
0.655319 0.885026 0.850167 0.870948
0.786408 0.904275 0.894869 0.971824
0.754247 0.844955 0.942967 0.946638
0.722266 0.861696 0.920325 0.910755
0.796045 0.895186 0.916066 0.970728
0.793439 0.853543 0.986561 0.942246
0.773188 0.904256 0.939996 0.909637
0.614278 0.84332 0.838301 0.868906
0.844072 0.890855 0.972107 0.974672
0.82044 0.87329 0.997224 0.942097
0.69913 0.845919 0.919566 0.898764
0.528589 0.757597 0.815427 0.855648
1.06262 0.995172 1.06951 0.998375
1.00553 0.999195 1.00838 0.997979
1.00503 1 1.00749 0.997553
1.00287 1 1.00539 0.997501
0.921937 0.923161 1.00235 0.996336
0.97969 0.923489 1.06204 0.998887
1.02701 0.997533 1.03151 0.998101
1.04103 0.989716 1.05365 0.998285
1.04551 0.9606 1.08967 0.998821
1.0427 0.991298 1.05351 0.99842
1.03911 0.955562 1.08876 0.998779
0.932017 0.915644 1.02471 0.993341
1.0094 0.939604 1.07527 0.999079
1.01708 0.963552 1.05671 0.998906
0.928936 0.908286 1.03128 0.991712
0.978429 0.92362 1.06021 0.999184
0.603177 0.787891 0.865711 0.884313
0.66662 0.856345 0.875705 0.888939
0.611321 0.795871 0.869223 0.883681
0.969172 0.923928 1.04917 0.999805
0.919706 0.915664 1.01501 0.989557
0.640039 0.830515 0.868492 0.887346
0.848444 0.900234 0.998952 0.943459
0.718053 0.85577 0.922343 0.909719
0.60843 0.815349 0.852091 0.875752
0.508451 0.716726 0.825632 0.85923
0.998742 0.935252 1.07042 0.997636
0.612167 0.80212 0.86305 0.884291
0.589548 0.802811 0.848018 0.865966
0.875247 0.892195 0.99896 0.982026
0.471092 0.66533 0.82382 0.859482
0.595758 0.748509 0.886745 0.897582
0.798851 0.861721 0.982722 0.94334
0.984451 0.937616 1.05581 0.994455
0.633252 0.840437 0.860064 0.876075
0.501873 0.684445 0.852897 0.859723
0.535068 0.719408 0.816005 0.911466
0.736237 0.821248 0.943007 0.950667
0.820361 0.866713 0.972452 0.973332
1.03245 0.960701 1.07513 0.99959
1.00041 0.947046 1.05696 0.999418
0.986649 0.961526 1.02701 0.999139
0.990663 0.955658 1.03725 0.999402
1.01719 0.978378 1.04086 0.998855
1.02592 1.0008 1.02766 0.997507
0.994956 1.00344 0.994371 0.997153
1.03391 1.00186 1.03716 0.995008
1.01957 1.00378 1.02179 0.994071
1.01142 1.00365 1.01308 0.994734
1.01056 1.00563 1.01137 0.993601
1.00925 1.01121 1.00448 0.993617
1.06533 1.07269 0.99858 0.99455
1.04101 1.04597 1.00077 0.994488
1.02299 1.0269 1.00218 0.994031
1.02296 1.02788 1.00013 0.995092
1.018 1.02253 1.00074 0.994836
1.01184 1.01401 1.00364 0.994241
1.02907 1.03111 1.00266 0.995373
1.02079 1.0244 1.00108 0.995392
1.03613 1.04057 1.00043 0.995306
1.01993 1.01032 1.01283 0.996727
1.01681 1.01367 1.00673 0.996389
1.02981 1.03049 1.00332 0.996031
1.02357 1.00416 1.02159 0.99779
1.02388 1.00493 1.02171 0.997219
1.01822 1.01083 1.01048 0.996873
1.00614 1 1.00667 0.999474
1.0223 1.00093 1.02331 0.998085
1.02205 1 1.02471 0.997406
1.0115 1.00001 1.01314 0.998371
1.00301 1 1.00339 0.999627
1 1 1 1
1.00084 1 1.00108 0.999758
1 1 1 1
1 1 1 1
1.02297 1.00164 1.02397 0.997389
1.01821 1.00088 1.01978 0.997587
1.00459 1 1.006 0.998605
1.00721 1 1.00939 0.997846
1.00015 1 1.00029 0.999862
1.00351 1 1.00464 0.998869
1.0076 1 1.00963 0.997996
1 1 1 1
0.999933 1 1 0.999933
1.00101 1 1.00192 0.999084
1 1 1 1
0.999977 1 1 0.999977
1 1 1 1
0.60949 0.801282 0.865061 0.879294
0.641081 0.838494 0.863284 0.885643
0.610171 0.80189 0.86132 0.883429
1.03245 1.00021 1.03498 0.997349
1.01435 1.00163 1.01508 0.997656
0.999989 1.00144 1.00126 0.997298
1.03156 0.99968 1.03434 0.997634
1.01101 1.00595 1.0073 0.997753
1.01346 1 1.01604 0.997467
1.00058 0.99959 1.00315 0.997848
1.01008 0.999634 1.01273 0.997744
0.997763 0.999251 1.00032 0.998191
1.03317 0.998798 1.03627 0.998207
0.565942 0.787805 0.829443 0.866098
0.606425 0.818867 0.850556 0.870685
0.656671 0.868889 0.8585 0.880326
0.609089 0.84001 0.833659 0.869777
0.76808 0.909561 0.935725 0.902457
0.790402 0.887489 0.919328 0.968755
0.789348 0.847803 0.980361 0.949703
0.835071 0.895475 0.961618 0.969766
0.824039 0.887747 0.977129 0.949962
0.715685 0.842382 0.939637 0.904175
0.538958 0.773555 0.815926 0.853911
0.863431 0.894274 0.992592 0.972716
0.800972 0.846896 0.994659 0.950853
0.604411 0.742909 0.892759 0.911303
0.487227 0.669779 0.839938 0.866069
1.04839 0.997479 1.05217 0.998928
1.06268 0.994688 1.07009 0.998382
1.00994 1 1.01195 0.998019
0.929537 0.914358 1.02586 0.990977
1.01374 0.937689 1.08199 0.999188
1.04222 0.994177 1.04998 0.998422
1.04905 0.951711 1.10364 0.998767
1.02379 0.970286 1.05629 0.998912
0.981027 0.930781 1.0548 0.999227
0.922827 0.903212 1.03016 0.991808
0.999761 0.973131 1.02802 0.99936
0.941235 0.927499 1.02134 0.993609
0.62491 0.822684 0.861134 0.882091
0.616523 0.799533 0.871791 0.884505
0.658422 0.84799 0.870063 0.892407
1.00256 0.947625 1.06022 0.99788
0.869981 0.895083 0.995523 0.976326
0.622938 0.812324 0.867066 0.88443
0.802409 0.860188 0.98498 0.947054
0.607499 0.73792 0.905301 0.909376
0.581951 0.803908 0.83596 0.865953
0.484128 0.692059 0.819775 0.853341
0.980488 0.934951 1.0541 0.994884
0.628373 0.833274 0.860796 0.876052
0.501837 0.690663 0.84628 0.858584
0.834256 0.882539 0.969128 0.975403
0.554528 0.729849 0.835346 0.909545
0.726874 0.834318 0.921325 0.945615
0.91818 0.915011 1.01116 0.992391
0.503871 0.688021 0.847323 0.864308
0.579741 0.75478 0.840076 0.914313
0.698831 0.850452 0.869217 0.945353
0.789492 0.878576 0.920459 0.976256
1.0079 0.950398 1.06109 0.999443
0.986959 0.949663 1.0402 0.999107
0.997484 0.98621 1.01308 0.998373
1.01713 0.962897 1.0574 0.998979
1.01777 0.998937 1.02129 0.99761
0.988596 1.00473 0.987558 0.996338
1.03378 1.00193 1.03721 0.994776
1.01884 1.00528 1.01954 0.994062
1.00387 1.0096 0.999597 0.994721
1.01191 1.00586 1.0126 0.993504
1.00769 1.01038 1.0037 0.99366
1.04669 1.06194 0.990754 0.994838
1.08181 1.10291 0.98531 0.99549
1.08126 1.08753 0.999585 0.994656
1.06538 1.0735 0.997837 0.994586
1.05565 1.06117 1 0.994795
1.03945 1.04416 1.00107 0.994424
1.02291 1.02661 1.00244 0.993975
1.04806 1.05286 1.00033 0.99511
1.02074 1.02569 1.00002 0.995155
1.01525 1.02013 1.00032 0.994902
1.0327 1.02662 1.01009 0.995877
1.02425 1.02521 1.0036 0.995479
1.02233 1.02596 1.0011 0.99537
1.02779 1.00739 1.02293 0.997379
1.02495 1.01178 1.01636 0.996718
1.01667 1.01211 1.00799 0.996541
1.00959 1.00007 1.0102 0.999321
1.02745 1.00596 1.02362 0.997794
1.0238 1.00645 1.02007 0.997224
0.999838 1 1 0.999838
1.00824 1 1.00879 0.999455
1.02312 1.00168 1.02336 0.998089
1.00485 1 1.00524 0.999611
1 1 1 1
1 1 1 1
1.01302 1.00483 1.011 0.997178
1.0226 1.00142 1.02386 0.997345
1.02488 1.001 1.02656 0.997372
1.00975 1 1.01142 0.998355
1.01494 1.00059 1.0168 0.997583
1.0012 1 1.00141 0.999794
1.00608 1 1.00748 0.998609
1.00881 1 1.01099 0.997839
1 1 1 1
0.999878 1 1 0.999878
1.00222 1 1.00335 0.99887
1 1 1 1
0.999945 1 1 0.999945
1 1 1 1
0.612758 0.807542 0.861002 0.881291
0.61319 0.806268 0.864793 0.879434
0.641 0.827732 0.873782 0.886269
1.01694 1.00528 1.01474 0.996897
1.02812 1 1.03087 0.997326
1.01232 1 1.01465 0.997706
1.02742 1 1.02995 0.997538
1.00538 1.00545 1.00263 0.997308
1.00341 1.00191 1.0035 0.998003
1.0191 1.00412 1.01818 0.996801
1.02557 0.989954 1.03799 0.998062
1.01093 0.999549 1.01367 0.997753
0.997401 1 0.999132 0.998267
1.0344 0.996432 1.03999 0.998194
1.054 0.99956 1.05608 0.998465
0.523177 0.701842 0.861459 0.865316
0.585716 0.808094 0.837318 0.865634
0.605341 0.813586 0.854105 0.871134
0.55271 0.779888 0.8215 0.862695
0.702857 0.834772 0.933231 0.902215
0.82272 0.876703 0.995925 0.942265
0.843971 0.898381 0.96778 0.970711
0.859233 0.890063 0.989785 0.975325
0.485859 0.678248 0.833117 0.859838
0.793057 0.854413 0.982703 0.944526
0.602272 0.750025 0.890858 0.901382
0.859139 0.897778 0.978209 0.978279
0.750505 0.838393 0.939043 0.953279
0.53713 0.718078 0.821547 0.91049
0.984163 1.00125 0.983363 0.999567
1.0504 0.997711 1.05393 0.998934
1.06149 0.993397 1.07028 0.998386
0.92631 0.906543 1.03016 0.991886
0.988413 0.942977 1.04895 0.999272
1.03282 0.98107 1.05389 0.998919
0.996397 0.970863 1.02694 0.999376
0.939291 0.929219 1.01725 0.993699
0.957865 0.964755 0.996686 0.996161
0.529818 0.707828 0.857644 0.872755
0.621803 0.818765 0.859236 0.883856
0.623209 0.810611 0.869118 0.88459
0.977906 0.930365 1.05627 0.995101
0.828645 0.878461 0.966146 0.976345
0.622425 0.822703 0.86344 0.876216
0.745351 0.834205 0.94517 0.945318
0.543145 0.733663 0.821907 0.900734
0.52384 0.715505 0.845435 0.865975
0.91897 0.909174 1.01851 0.992405
0.520316 0.694009 0.859641 0.872137
0.555885 0.742452 0.82808 0.904157
0.789056 0.887885 0.915081 0.971162
0.728479 0.87252 0.875663 0.953464
0.913532 0.938669 0.976677 0.996462
0.612222 0.770838 0.881979 0.900508
0.800159 0.94474 0.885043 0.956972
0.774542 0.901154 0.8855 0.970639
0.989495 0.941608 1.05182 0.999082
0.984565 0.985203 1.00092 0.998434
0.981013 1.00023 0.98351 0.997231
1.00895 0.997559 1.01374 0.997714
0.99039 1.0046 0.989531 0.996285
0.985814 1.01123 0.978642 0.99614
1.01846 1.00715 1.01727 0.994054
1.00352 1.00959 0.999272 0.994712
1.03249 1.06008 0.97795 0.99594
1.00659 1.00975 1.00319 0.993703
1.04567 1.06115 0.990517 0.99484
1.07344 1.10357 0.976443 0.996168
1.06845 1.09642 0.978073 0.996331
1.08629 1.10248 0.989872 0.995402
1.08413 1.10476 0.985723 0.995541
1.09064 1.09684 0.999449 0.994899
1.07913 1.08548 0.999397 0.994745
1.06491 1.07374 0.997132 0.994622
1.07759 1.083 1 0.995007
1.05532 1.06068 1.00014 0.994808
1.03755 1.04189 1.00148 0.99436
1.05659 1.05857 1.00284 0.9953
1.04587 1.05055 1.00044 0.995103
1.01873 1.02363 1 0.995218
1.02391 1.01373 1.01328 0.996808
1.03527 1.02923 1.01004 0.995867
1.01672 1.01643 1.00473 0.995587
1.0086 1.00057 1.00909 0.998936
1.02635 1.01048 1.01838 0.997367
1.02685 1.0127 1.01732 0.996707
1 1 1 1
1.00931 1.00029 1.00987 0.999159
1.02869 1.0076 1.02319 0.997796
1 1 1 1
1.00941 1 1.01001 0.999402
1 1 1 1
1.0188 1.01271 1.00929 0.99676
1.01227 1.00519 1.00996 0.997114
1.02199 1.00449 1.0203 0.997186
1.01767 1 1.01958 0.998135
1.025 1.00127 1.02643 0.997342
1.03088 1 1.03361 0.997354
1.0041 1 1.00441 0.999692
1.00989 1 1.01155 0.998361
1.01168 1 1.01413 0.997578
1 1 1 1
1.00128 1 1.00147 0.999807
1.00768 1 1.00908 0.998613
1 1 1 1
0.999893 1 1 0.999893
1 1 1 1
0.515226 0.69872 0.854204 0.863244
0.617302 0.815136 0.859198 0.881403
0.616889 0.811971 0.863726 0.87961
1.02313 1.00411 1.02213 0.996879
1.03599 1.01676 1.02253 0.996455
1.03785 1.00355 1.03744 0.996857
1.02938 0.999947 1.03208 0.99744
1.00983 1.00968 1.00283 0.99732
1.0002 0.999015 1.00294 0.998246
1.02606 0.996413 1.03188 0.997938
1.02148 1.00445 1.01999 0.997026
1.02192 0.998579 1.02612 0.997328
0.971876 0.999588 0.973303 0.998945
1.03565 0.998071 1.03954 0.998178
1.04895 0.998514 1.05216 0.998432
0.565612 0.746607 0.842169 0.899555
0.491602 0.668135 0.855124 0.860439
0.601856 0.823077 0.844759 0.865605
0.484265 0.688019 0.824824 0.853337
0.609521 0.758428 0.882129 0.911051
0.78206 0.85022 0.972517 0.945827
0.853903 0.882225 0.995917 0.971865
0.845781 0.890807 0.974056 0.974744
0.561267 0.73473 0.840576 0.908792
0.732205 0.837852 0.923983 0.945803
0.819487 0.899747 0.931691 0.977574
0.702837 0.882722 0.84097 0.946782
0.987446 1 0.988317 0.999119
0.984556 1.00085 0.984207 0.9995
1.05096 0.997239 1.05499 0.998939
0.926415 0.921271 1.01184 0.993818
0.989793 0.96475 1.02658 0.999391
0.960855 0.968429 0.996046 0.996118
0.940687 0.981971 0.963148 0.99461
0.651703 0.790228 0.906056 0.910211
0.523896 0.709454 0.846965 0.871878
0.62627 0.819998 0.86253 0.885472
0.922923 0.918494 1.01222 0.99269
0.793108 0.887959 0.919242 0.97165
0.522206 0.693921 0.863136 0.871871
0.701749 0.870545 0.85202 0.946108
0.569186 0.733975 0.848496 0.913951
0.909302 0.942011 0.970609 0.994508
0.628098 0.781828 0.885283 0.907475
0.76568 0.928717 0.869958 0.947687
0.779703 0.899032 0.890533 0.973877
0.907504 0.966438 0.942862 0.995924
0.852558 0.970682 0.918712 0.956022
0.832451 0.948037 0.897179 0.978711
0.969475 0.982225 0.98853 0.998472
0.975614 1.00025 0.978121 0.997185
0.96475 1.00912 0.958973 0.996931
0.992346 1.00421 0.991923 0.996236
0.985824 1.01058 0.9793 0.996125
1.00511 1.06108 0.950302 0.996786
1.00294 1.00953 0.998764 0.994704
1.02872 1.05765 0.976641 0.995906
1.04796 1.10136 0.954582 0.996791
1.04497 1.0607 0.990283 0.994842
1.07231 1.10358 0.975421 0.996154
1.05977 1.09751 0.968701 0.996816
1.07058 1.09805 0.978202 0.996705
1.06796 1.09664 0.977365 0.996408
1.07291 1.09473 0.983823 0.99618
1.08951 1.10165 0.993472 0.995478
1.08787 1.1028 0.990977 0.995442
1.08695 1.10717 0.986088 0.995593
1.09621 1.10199 0.999667 0.995085
1.09175 1.09807 0.999313 0.994924
1.07742 1.08391 0.999172 0.994833
1.07944 1.08472 1 0.995137
1.0803 1.08573 1 0.995005
1.05526 1.06057 1.00017 0.994821
1.02821 1.02782 1.00418 0.99621
1.05772 1.0602 1.00236 0.995315
1.04392 1.04845 1.00058 0.995097
1.00729 1.00078 1.008 0.99852
1.02747 1.01747 1.01307 0.996798
1.04073 1.0341 1.0106 0.995858
1 1 1 1
1.00857 1.00034 1.00932 0.998914
1.02828 1.01371 1.01706 0.997355
0.999874 1 1 0.999874
1.00989 1.00021 1.01052 0.999168
1 1 1 1
1.03061 1.0219 1.01223 0.996335
1.01603 1.00696 1.01227 0.996768
1.01481 1.00778 1.01002 0.996984
1.012 1.0065 1.00843 0.99705
1.02007 1.00299 1.01989 0.997195
1.02348 1 1.02565 0.997893
1.00661 1 1.00709 0.999522
1.01664 1 1.01854 0.998131
1.02354 1.00031 1.02595 0.99734
1 1 1 1
1.00276 1 1.00306 0.999708
1.00993 1 1.01158 0.998367
1 1 1 1
1.00033 1 1.0005 0.999824
1 1 1 1
0.612909 0.774709 0.871864 0.90742
0.518039 0.701537 0.852599 0.866097
0.618734 0.818576 0.85742 0.881559
1.02608 1.00235 1.02689 0.996863
1.04464 1.00216 1.04599 0.996562
1.03023 1.01505 1.01856 0.996464
1.0233 1.02539 1.00242 0.995561
1.03478 1.00622 1.03133 0.997143
1.02177 0.999899 1.0241 0.997821
1.02233 1.00401 1.02105 0.997251
1.02197 1.00072 1.02384 0.997458
0.997711 1.01015 0.990709 0.996951
0.964353 1.00254 0.963466 0.998384
0.969569 1.00132 0.970651 0.997565
0.979106 1.00126 0.978884 0.99897
1.04271 0.997092 1.04743 0.998402
0.776315 0.932843 0.872733 0.953561
0.563733 0.745517 0.837619 0.902753
0.476324 0.651098 0.847109 0.863609
0.551593 0.740617 0.827224 0.900331
0.73672 0.838375 0.925583 0.949399
0.855601 0.891629 0.980885 0.978294
0.815574 0.893993 0.930815 0.98009
0.732158 0.874576 0.876369 0.955258
0.829771 0.947851 0.894356 0.978831
0.980534 1.00022 0.982032 0.99826
0.990986 0.999407 0.992477 0.99909
0.985078 1.00037 0.985265 0.999436
0.966284 0.97452 0.995366 0.996165
0.950862 0.985693 0.968904 0.995622
0.850044 0.962866 0.928818 0.950485
0.640276 0.785521 0.893457 0.912296
0.516314 0.708279 0.836873 0.871064
0.912275 0.95165 0.965965 0.992401
0.782073 0.909531 0.885564 0.970979
0.615754 0.77653 0.875047 0.906186
0.775731 0.925931 0.876309 0.956039
0.917453 0.968923 0.95064 0.996043
0.85454 0.975911 0.916383 0.955532
0.829168 0.944941 0.8998 0.975195
0.909314 0.997477 0.915903 0.995318
0.880399 0.98385 0.908229 0.985271
0.973691 1.00202 0.974491 0.99717
0.957863 1.00909 0.952191 0.996892
0.963781 1.04708 0.923028 0.997205
0.985625 1.00984 0.97984 0.996107
1.00947 1.06331 0.95246 0.996746
1.03663 1.1043 0.941439 0.997118
1.02492 1.05502 0.975494 0.995872
1.04851 1.10063 0.955744 0.99676
1.05107 1.10156 0.95701 0.997026
1.07074 1.10308 0.97444 0.99614
1.05945 1.09682 0.969038 0.996794
1.06551 1.10309 0.968953 0.996882
1.06804 1.09654 0.977176 0.996761
1.07253 1.09837 0.979893 0.996512
1.06721 1.09651 0.976712 0.996484
1.0718 1.09456 0.982968 0.996172
1.07582 1.09214 0.989081 0.995933
1.09251 1.10067 0.997166 0.995407
1.09112 1.10222 0.994443 0.995466
1.08934 1.10301 0.99209 0.995481
1.09002 1.09538 1 0.995108
1.09889 1.10466 0.999704 0.99507
1.09253 1.09895 0.999199 0.994948
1.0445 1.04631 1.00249 0.995797
1.07799 1.08325 1 0.995146
1.08335 1.08879 1 0.995003
1.00602 1.00315 1.00482 0.998053
1.02953 1.02903 1.00428 0.99622
1.05892 1.06124 1.0025 0.99533
1 1 1 1
1.00695 1.0013 1.00717 0.998488
1.02897 1.02098 1.01107 0.996789
1 1 1 1
1.00768 1.00034 1.00845 0.998892
1 1 1 1
1.03712 1.0409 1.00086 0.99551
1.02871 1.02461 1.0077 0.996332
1.02348 1.01156 1.01537 0.996468
1.01396 1.0016 1.01561 0.996775
1.01713 1.00515 1.01504 0.996918
1.02345 1.00621 1.01967 0.997506
1.02147 1.00179 1.0225 0.997201
1.02521 1.0005 1.02687 0.997882
1.012 1.00047 1.01227 0.999258
1 1 1 1
1.00631 1 1.00678 0.999536
1.018 1 1.01991 0.998128
1 1 1 1
1.00308 1 1.00337 0.999719
1 1 1 1
0.847649 0.968211 0.91362 0.958254
0.63191 0.786646 0.884305 0.908393
0.510734 0.699764 0.846364 0.862355
1.05556 1.00153 1.0579 0.996264
1.02364 1.01394 1.01314 0.996473
1.03121 1.00813 1.02604 0.996931
1.02224 1.02442 1.00224 0.995646
1.04775 1.05243 1.00014 0.995411
1.00619 1.01744 0.992314 0.996603
1.02541 1.00418 1.02362 0.997582
0.998801 1.01141 0.990809 0.996696
0.971925 1.00285 0.970758 0.99836
1.00309 1.0104 0.995836 0.996918
0.973606 1.00445 0.971794 0.997424
0.984842 1.0018 0.985994 0.997036
0.968382 1.00169 0.969003 0.997677
0.986491 1.00088 0.986611 0.998996
0.836613 0.958383 0.891915 0.978728
0.77636 0.938895 0.868539 0.952044
0.580066 0.743718 0.854487 0.912775
0.701087 0.863506 0.858351 0.945894
0.828625 0.896244 0.942114 0.981359
0.838231 0.936367 0.90955 0.984217
0.938381 1.00294 0.939629 0.995745
0.976633 0.999793 0.978652 0.998143
0.99463 0.998692 0.996866 0.999064
0.960008 0.989075 0.973908 0.996616
0.870094 0.972383 0.91361 0.979418
0.853636 0.967906 0.919133 0.959535
0.629787 0.777294 0.897386 0.902878
0.915182 0.963977 0.953001 0.996202
0.826591 0.943421 0.896675 0.977125
0.845333 0.978919 0.904479 0.954733
0.910946 0.995791 0.918922 0.995511
0.886426 0.981913 0.917349 0.984091
0.934276 1.02637 0.913857 0.996079
0.937441 1.02825 0.91708 0.994116
0.950544 1.00911 0.944947 0.996846
0.960524 1.04375 0.922836 0.997214
1.00545 1.09718 0.919073 0.997092
1.01411 1.06609 0.954383 0.996707
1.03628 1.10402 0.941377 0.997092
1.06005 1.11265 0.955622 0.996976
1.04912 1.10017 0.956726 0.996729
1.05231 1.10146 0.958239 0.997007
1.07217 1.11238 0.966913 0.996838
1.05926 1.0964 0.969247 0.996771
1.06439 1.10108 0.969707 0.996878
1.07381 1.10437 0.975638 0.996615
1.06559 1.09522 0.976055 0.996816
1.07201 1.0982 0.979528 0.996558
1.07652 1.09605 0.985935 0.996191
1.07078 1.09445 0.98214 0.996164
1.07589 1.09262 0.988717 0.995924
1.08549 1.09609 0.9946 0.995707
1.08891 1.09457 0.999566 0.995264
1.09404 1.10154 0.997818 0.995361
1.09267 1.1027 0.995432 0.995453
1.05969 1.06432 1 0.995652
1.08834 1.09368 1 0.995115
1.10163 1.10739 0.999743 0.995055
1.01023 1.01001 1.00249 0.997747
1.04352 1.04492 1.00288 0.995799
1.07509 1.08023 1.00008 0.995156
1 1 1 1
1.0071 1.00504 1.00404 0.998023
1.03062 1.02977 1.00461 0.996229
1 1 1 1
1.00706 1.0018 1.00681 0.998456
1 1 1 1
1.06542 1.0705 1 0.99526
1.03658 1.04073 1.00049 0.995522
1.04575 1.0445 1.00546 0.995771
1.02744 1.02693 1.00418 0.996328
1.02888 1.01924 1.01312 0.996381
1.0285 1.01913 1.01224 0.996993
1.0184 1.0016 1.01999 0.996855
1.02029 1.00397 1.01879 0.997513
1.00952 1.00066 1.00993 0.998936
1.02203 1.00049 1.0237 0.997874
1.00894 1 1.00968 0.99927
1 1 1 1
1 1 1 1
1.00454 1 1.00499 0.999552
1 1 1 1
0.865018 0.958666 0.920297 0.98046
0.840464 0.963702 0.918367 0.949642
0.641708 0.777954 0.901973 0.914514
1.07821 1.08502 0.998255 0.995461
1.0271 1.01025 1.02001 0.996724
1.02238 1.02462 1.00208 0.995732
1.00912 1.02044 0.992266 0.996612
1.04978 1.05431 1.0003 0.995398
1.03609 1.04137 0.998389 0.996528
1.00078 1.01205 0.992396 0.996442
0.978247 1.00221 0.977718 0.998335
1.00102 1.01192 0.992272 0.996934
0.965235 1.00358 0.964442 0.99725
1.02224 1.02841 0.997801 0.996191
0.956846 1.00893 0.951054 0.997182
0.985131 1.00235 0.985727 0.997057
0.968625 1.00205 0.968791 0.997787
0.923378 1.00445 0.922556 0.996452
0.822262 0.949179 0.886875 0.976786
0.783812 0.947212 0.870319 0.950793
0.834052 0.929834 0.913782 0.981624
0.939782 1.00243 0.940191 0.997144
0.973173 0.999948 0.975162 0.998013
0.946975 1.01833 0.937388 0.992041
0.873217 0.960858 0.926836 0.980529
0.850733 0.968073 0.924365 0.950696
0.918566 0.995441 0.926766 0.995691
0.892778 0.984654 0.922525 0.982838
0.935838 1.02811 0.91359 0.99634
0.946212 1.02846 0.925044 0.994576
0.991584 1.06464 0.934374 0.996792
1.05264 1.1315 0.933332 0.996757
0.957009 1.03971 0.923026 0.997222
1.01252 1.0989 0.924103 0.997073
1.05956 1.12857 0.941836 0.99683
1.03619 1.10344 0.941813 0.997066
1.05694 1.11037 0.954771 0.996974
1.07504 1.12257 0.960806 0.996724
1.05354 1.10119 0.959625 0.996988
1.0696 1.11038 0.966316 0.996851
1.07775 1.10903 0.97514 0.996571
1.06333 1.09901 0.970565 0.996873
1.07446 1.10491 0.975745 0.996613
1.07728 1.10019 0.982799 0.996318
1.07146 1.09796 0.979193 0.996603
1.07604 1.0962 0.985312 0.996236
1.08386 1.09759 0.991552 0.995912
1.07593 1.09313 0.988306 0.995915
1.08508 1.09602 0.994276 0.995712
1.08999 1.09512 0.999876 0.995433
1.06554 1.07017 1 0.995672
1.08907 1.09451 0.999784 0.99524
1.09573 1.10257 0.998476 0.995315
1.01876 1.0208 1.00034 0.997663
1.05807 1.06264 1.00005 0.995652
1.08732 1.09265 1 0.995122
0.999998 1 1 0.999998
1.01281 1.01366 1.00143 0.99773
1.04333 1.04501 1.0026 0.995801
0.999999 1 1 0.999999
1.00825 1.00742 1.00284 0.997993
1 1 1 1
1.0838 1.08938 0.999669 0.995213
1.06237 1.06743 1 0.995253
1.07561 1.08058 1 0.995402
1.03492 1.03928 1.00026 0.995535
1.05057 1.04934 1.00546 0.995732
1.04093 1.03631 1.00796 0.996521
1.03301 1.02579 1.01078 0.996295
1.02339 1.01257 1.01373 0.996999
1.00711 1.00139 1.00709 0.998625
1.0209 1.00151 1.0219 0.997512
1.01087 1.00109 1.01083 0.998954
1 1 1 1
1.00818 1 1.00891 0.999282
1 1 1 1
1 1 1 1
0.925486 1.0092 0.920923 0.995793
0.854675 0.959314 0.912551 0.976299
0.841318 0.96652 0.908072 0.958581
1.07234 1.0815 0.995425 0.996087
1.07776 1.09617 0.987365 0.995783
1.07716 1.08469 0.997485 0.995563
1.01126 1.02292 0.99195 0.996619
1.05153 1.05589 1.00049 0.995384
1.03867 1.0448 0.997606 0.996519
1.05621 1.08284 0.979221 0.996102
1.00016 1.01379 0.989573 0.99695
0.959598 1.0032 0.959338 0.997078
1.02644 1.03272 0.997548 0.996361
1.02079 1.06959 0.958056 0.996164
0.972547 1.03288 0.944175 0.997256
0.970391 1.0125 0.961199 0.997098
0.990127 1.00275 0.990308 0.997076
0.919022 1.00446 0.917837 0.996843
0.833349 0.953271 0.89668 0.974929
0.939622 1.00097 0.940031 0.998596
1.03394 1.09361 0.948117 0.997172
0.942247 1.01797 0.932875 0.992214
0.872593 0.963598 0.925875 0.978055
0.937333 1.03035 0.91285 0.996579
0.952686 1.02873 0.930675 0.995066
0.984621 1.06473 0.927525 0.997017
1.04889 1.12893 0.932082 0.996803
1.06443 1.14575 0.931995 0.99681
1.10865 1.17495 0.946412 0.996999
1.01944 1.10188 0.927917 0.997054
1.06446 1.13197 0.94335 0.996832
1.0778 1.1335 0.954037 0.996666
1.05338 1.10816 0.953456 0.996971
1.07516 1.12225 0.961192 0.996726
1.0754 1.11397 0.968719 0.996551
1.06695 1.10839 0.96564 0.996865
1.07874 1.10993 0.975247 0.996568
1.07963 1.10336 0.982087 0.996337
1.07512 1.10547 0.975847 0.99661
1.07791 1.10076 0.982855 0.996316
1.08247 1.09797 0.989842 0.996003
1.07554 1.09634 0.984689 0.99628
1.08369 1.09771 0.991272 0.99592
1.09312 1.09889 0.999198 0.995549
1.0846 1.09587 0.993973 0.995718
1.08925 1.09475 0.999518 0.995448
1.06513 1.06971 1 0.995717
1.02361 1.02597 1 0.997704
1.06516 1.06979 1 0.995675
1.08937 1.09461 1 0.995217
0.999995 1 1 0.999995
1.01999 1.02194 1.00043 0.997657
1.05609 1.06017 1.0005 0.995652
0.999995 1 1 0.999995
1.01513 1.0162 1.00124 0.997712
0.999996 1 1 0.999996
1.08358 1.09411 0.994885 0.995468
1.08195 1.08777 0.99941 0.995242
1.08326 1.08839 1 0.995285
1.05937 1.06443 1 0.995245
1.07494 1.07991 1 0.995397
1.0412 1.04242 1.0027 0.996133
1.05773 1.05665 1.00536 0.995692
1.03651 1.03112 1.00874 0.996521
1.00636 1.00354 1.00456 0.99825
1.01931 1.00864 1.01361 0.99701
1.00752 1.00127 1.00761 0.998648
1 1 1 1
1.00909 1.00022 1.0099 0.998971
1 1 1 1
1 1 1 1
0.978765 1.06126 0.924544 0.99754
0.927216 1.00757 0.925535 0.994292
0.858625 0.964665 0.910606 0.977454
1.06978 1.09525 0.980643 0.996025
1.07009 1.07981 0.994671 0.99631
1.08258 1.10597 0.982799 0.995982
1.07756 1.09692 0.986534 0.99576
1.07555 1.08388 0.996637 0.995666
1.07508 1.11855 0.965051 0.995944
1.04161 1.04849 0.996914 0.99651
1.05319 1.07877 0.980173 0.996041
1.04846 1.11654 0.942521 0.99629
1.0246 1.037 0.991483 0.99653
1.02056 1.07148 0.956253 0.996049
0.96415 1.03949 0.930025 0.997308
0.979009 1.01499 0.967444 0.99701
0.915311 1.00461 0.913701 0.997163
1.09439 1.16053 0.945799 0.997049
1.03875 1.09966 0.947255 0.997204
0.944243 1.01712 0.935456 0.9924
0.977746 1.06387 0.92159 0.997236
1.04574 1.12618 0.931503 0.996849
1.05569 1.14011 0.928906 0.996826
1.11838 1.18323 0.948029 0.997005
1.09325 1.1508 0.952966 0.996883
1.0692 1.13475 0.945229 0.996834
1.07817 1.13221 0.955447 0.996676
1.07586 1.11824 0.965362 0.996617
1.07542 1.12189 0.961725 0.996728
1.07613 1.11402 0.96935 0.996531
1.0788 1.10495 0.979916 0.996342
1.07978 1.11087 0.975361 0.996564
1.0799 1.10361 0.98212 0.996333
1.08184 1.0979 0.989257 0.996069
1.07854 1.10136 0.982912 0.996313
1.08347 1.0989 0.989911 0.996002
1.09631 1.10294 0.998334 0.995651
1.08351 1.09785 0.990966 0.995928
1.09207 1.09798 0.999065 0.995554
1.06604 1.07061 1 0.995736
1.0883 1.09418 0.999161 0.995464
1.06605 1.07064 1 0.99572
1.02401 1.02587 1 0.998185
0.999176 1 1 0.999176
1.02372 1.02588 1 0.997902
1.0643 1.06892 1 0.995678
0.999998 1 1 0.999998
1.02134 1.02375 1 0.99765
0.999997 1 1 0.999997
1.08915 1.10762 0.987155 0.996117
1.08331 1.09934 0.989579 0.995789
1.08305 1.09457 0.993943 0.995505
1.08078 1.08611 0.999742 0.99535
1.08073 1.08674 0.999191 0.995272
1.08169 1.08682 1 0.995273
1.04533 1.04888 1.00075 0.995858
1.07514 1.08012 1 0.995391
1.04459 1.04626 1.00228 0.996129
1.01064 1.01145 1.00134 0.997864
1.03107 1.0245 1.00993 0.99652
1.00683 1.00316 1.0054 0.998272
0.999998 1 1 0.999998
1.00926 1.00182 1.00876 0.998672
1 1 1 1
1 1 1 1
1.08082 1.14754 0.944908 0.996774
0.993882 1.0738 0.927895 0.997499
0.92501 1.00712 0.925113 0.992816
1.07722 1.10803 0.976084 0.99602
1.06647 1.09155 0.980876 0.996066
1.06807 1.07833 0.993932 0.996533
1.08175 1.1035 0.984228 0.995999
1.07739 1.09756 0.985818 0.995738
1.08122 1.13374 0.957247 0.996271
1.06711 1.11181 0.963752 0.995899
1.05027 1.07478 0.98114 0.99598
1.04139 1.10924 0.942321 0.996294
1.02643 1.07512 0.958606 0.995934
0.957835 1.04979 0.91481 0.997368
1.08863 1.1382 0.959327 0.996993
1.09542 1.16107 0.946206 0.997087
1.04337 1.10673 0.945366 0.997236
1.04705 1.13533 0.925167 0.996839
1.12753 1.19188 0.948843 0.997012
1.09572 1.15362 0.952783 0.996885
1.08433 1.11956 0.971683 0.996758
1.07852 1.13084 0.956903 0.996686
1.07676 1.11809 0.966319 0.996598
1.08006 1.10611 0.979974 0.996404
1.07686 1.11407 0.969982 0.996511
1.07936 1.10547 0.979967 0.996341
1.08107 1.09801 0.988417 0.996109
1.08019 1.10387 0.982153 0.996329
1.08252 1.09855 0.989295 0.996066
1.09668 1.10472 0.996994 0.995722
1.08443 1.0998 0.989979 0.996001
1.09466 1.10136 0.998248 0.995655
1.06767 1.07226 1 0.995719
1.09104 1.09707 0.998932 0.99556
1.06727 1.07183 1 0.99574
1.02257 1.02439 1 0.998222
1.06742 1.072 1 0.995723
1.02358 1.02545 1 0.998178
0.999217 1 1 0.999217
0.999611 1 1 0.999611
1.02408 1.02601 1 0.998122
1 1 1 1
1.07928 1.10327 0.982049 0.996133
1.08561 1.09939 0.991499 0.995924
1.08752 1.10585 0.987119 0.996251
1.08707 1.09284 0.999216 0.9955
1.08502 1.1006 0.990013 0.995788
1.0826 1.0951 0.993009 0.995542
1.08081 1.08596 0.999915 0.995339
1.05996 1.06446 1 0.995765
1.0794 1.08454 1 0.995262
1.04982 1.05375 1.00041 0.995858
1.02041 1.02252 1.00023 0.997705
1.04552 1.04785 1.00166 0.996126
1.00834 1.00805 1.0024 0.997889
0.999997 1 1 0.999997
1.00669 1.00223 1.00617 0.998296
1 1 1 1
1 1 1 1
1.08192 1.13117 0.95968 0.996645
1.07041 1.13573 0.945529 0.996779
1.00747 1.08312 0.932529 0.997454
1.0793 1.11465 0.971972 0.996209
1.07389 1.10547 0.975319 0.996013
1.06286 1.08768 0.980999 0.996108
1.08075 1.10092 0.985605 0.996015
1.08237 1.13324 0.958715 0.996243
1.05888 1.10452 0.962666 0.995854
1.03107 1.09738 0.943065 0.996297
1.08811 1.12282 0.972173 0.996823
1.08733 1.13592 0.960155 0.996949
1.09612 1.1606 0.947166 0.997125
1.08281 1.11056 0.978279 0.996669
1.09812 1.15626 0.952687 0.996888
1.08393 1.11931 0.97156 0.996742
1.08261 1.10696 0.981408 0.996528
1.07763 1.11793 0.967264 0.996578
1.08048 1.10655 0.979963 0.996407
1.08075 1.09756 0.988493 0.996147
1.07986 1.10593 0.980019 0.99634
1.08124 1.09821 0.988393 0.996108
1.09647 1.10557 0.99598 0.995775
1.08322 1.09922 0.989335 0.996064
1.0957 1.10367 0.997046 0.995724
1.06771 1.07233 1 0.995698
1.09297 1.09975 0.998165 0.995658
1.06945 1.07405 1 0.995723
1.02116 1.02299 1 0.998211
1.06855 1.07312 1 0.995744
1.02214 1.02397 1 0.998206
0.999222 1 1 0.999222
1.02299 1.02486 1 0.998175
0.99924 1 1 0.99924
1 1 1 1
1.07898 1.10202 0.982977 0.99605
1.07982 1.0966 0.988694 0.995956
1.08173 1.10469 0.983016 0.996133
1.09223 1.09885 0.998356 0.995614
1.08457 1.10054 0.989467 0.995978
1.08617 1.10432 0.987135 0.996383
1.07124 1.0758 1 0.995761
1.08879 1.09439 0.999398 0.99549
1.08715 1.10233 0.990398 0.995786
1.08069 1.08576 1 0.995329
1.06095 1.06546 1 0.995762
1.02663 1.02897 1 0.997723
1.05558 1.05996 1.00001 0.995857
1.0172 1.0191 1.00041 0.997719
0.999999 1 1 0.999999
1.00738 1.00614 1.00334 0.997912
0.999996 1 1 0.999996
1 1 1 1
1.08183 1.11496 0.973654 0.996542
1.08294 1.13339 0.958724 0.996619
1.06238 1.1276 0.945193 0.996785
1.07873 1.11372 0.972247 0.996227
1.07049 1.10295 0.974458 0.996006
1.08437 1.13388 0.95997 0.996215
1.08567 1.11213 0.979467 0.996667
1.08839 1.12268 0.97255 0.996819
1.08622 1.13388 0.960946 0.996904
1.08329 1.11061 0.978638 0.996691
1.08109 1.10217 0.984325 0.996499
1.08352 1.11904 0.971437 0.996727
1.08305 1.10672 0.98206 0.996492
1.07922 1.09628 0.988152 0.996244
1.08091 1.10699 0.979953 0.99641
1.08061 1.09743 0.98848 0.99615
1.0962 1.10608 0.995241 0.995806
1.08151 1.09852 0.988364 0.996108
1.09586 1.10507 0.995874 0.995776
1.06583 1.07043 1 0.995702
1.09471 1.10262 0.99709 0.995726
1.06962 1.07424 1 0.995702
1.01815 1.02001 1 0.998176
1.07125 1.07584 1 0.995728
1.02026 1.02211 1 0.998188
0.999202 1 1 0.999202
1.02167 1.02352 1 0.998194
0.999259 1 1 0.999259
0.999255 1 1 0.999255
1.08023 1.10344 0.982566 0.996334
1.08167 1.09599 0.990969 0.995923
1.07831 1.10312 0.981359 0.996074
1.09289 1.10219 0.995836 0.995707
1.08072 1.09615 0.98994 0.995941
1.08411 1.10605 0.983966 0.996133
1.07088 1.07544 1 0.995762
1.09238 1.09986 0.997546 0.995645
1.08326 1.10144 0.987408 0.996033
1.02511 1.02739 1 0.997778
1.06868 1.07323 1 0.995758
1.09006 1.09537 0.999672 0.99548
1.06192 1.06644 1 0.995759
1.02554 1.02787 1 0.997729
1 1 1 1
1.01335 1.01494 1.0007 0.997734
0.999997 1 1 0.999997
1 1 1 1
1.08159 1.10631 0.981035 0.996556
1.08174 1.11497 0.973577 0.996528
1.08333 1.13488 0.957836 0.996592
1.07849 1.11293 0.972701 0.996245
1.08146 1.09912 0.987435 0.996458
1.0858 1.11251 0.979247 0.996678
1.08879 1.12257 0.97301 0.996815
1.08378 1.11066 0.979013 0.996713
1.08103 1.10252 0.983944 0.996509
1.07973 1.09481 0.989954 0.996237
1.08353 1.1065 0.982729 0.996455
1.08034 1.09649 0.989035 0.996195
1.09467 1.10529 0.994484 0.995883
1.08048 1.09731 0.988469 0.996152
1.09556 1.10536 0.99531 0.995807
1.06339 1.06797 1 0.99571
1.09508 1.10437 0.995792 0.995776
1.0674 1.07201 1 0.995703
1.01353 1.01582 1 0.997752
1.07144 1.07606 1 0.995706
1.01668 1.01875 1 0.997966
1 1 1 1
1.01937 1.02125 1 0.998167
0.999244 1 1 0.999244
0.999285 1 1 0.999285
1.08058 1.0996 0.986207 0.996446
1.07914 1.09464 0.989718 0.996074
1.08095 1.10287 0.983736 0.996329
1.09344 1.10136 0.997067 0.995732
1.08061 1.09531 0.990617 0.995924
1.07765 1.10424 0.979748 0.996097
1.06908 1.07375 0.999894 0.995756
1.09347 1.10207 0.996473 0.995707
1.08171 1.09573 0.991245 0.995925
1.02079 1.02302 1 0.99782
1.06874 1.07328 0.999996 0.995765
1.09247 1.10082 0.996718 0.995677
1 1 1 1
1.02624 1.02852 1 0.997784
1.06631 1.07085 1 0.995754
1.02452 1.02684 1 0.997737
1 1 1 1
0.999995 1 1 0.999995
1.08039 1.09682 0.988523 0.996456
1.08284 1.10704 0.981521 0.996561
1.0815 1.11487 0.973459 0.996514
1.07962 1.09259 0.991917 0.996184
1.08042 1.09876 0.986794 0.996467
1.08594 1.11289 0.979023 0.99669
1.08093 1.10287 0.983527 0.996519
1.07966 1.0949 0.989804 0.996238
1.095 1.10399 0.995981 0.995857
1.08136 1.09661 0.98991 0.996146
1.09524 1.10505 0.995271 0.995828
1.06068 1.06589 0.999352 0.995761
1.09504 1.10478 0.99536 0.995809
1.06463 1.06921 1 0.99571
1.00949 1.01175 1 0.997762
1.06917 1.07378 1 0.995705
1.0123 1.01458 1 0.997751
1 1 1 1
1.01523 1.01755 1 0.99772
0.999593 1 1 0.999593
0.999281 1 1 0.999281
1.07668 1.09298 0.988628 0.99642
1.07873 1.09165 0.991966 0.996173
1.07993 1.09877 0.986351 0.996455
1.0925 1.10026 0.9972 0.995741
1.07965 1.0948 0.990062 0.996063
1.08158 1.10222 0.984899 0.996324
1.06643 1.07139 0.999658 0.995717
1.09384 1.10135 0.997479 0.995694
1.07947 1.09459 0.990221 0.995924
1.01675 1.01898 1 0.997811
1.06801 1.07274 0.999835 0.995749
1.094 1.10196 0.997064 0.995707
1 1 1 1
1.02218 1.02441 1 0.997827
1.06684 1.07137 1 0.995768
1 1 1 1
1.02735 1.02962 1 0.997791
0.999998 1 1 0.999998
1.07992 1.09205 0.992649 0.996216
1.07942 1.09601 0.988382 0.996444
1.0841 1.10776 0.982011 0.996566
1.09508 1.10372 0.996312 0.995849
1.07912 1.09263 0.9914 0.996201
1.0794 1.09842 0.986157 0.996476
1.07961 1.095 0.989674 0.996238
1.09429 1.10351 0.995768 0.995857
1.05811 1.0632 0.999436 0.995773
1.09577 1.1048 0.996038 0.995772
1.06169 1.0666 0.999667 0.995733
1.00642 1.00867 1 0.997761
1.06564 1.07023 1 0.995711
1.00845 1.01071 1 0.99776
1 1 1 1
1.01097 1.01325 1 0.99775
1 1 1 1
0.99926 1 1 0.99926
1.07863 1.09055 0.99285 0.996191
1.0752 1.09254 0.987651 0.996431
1.09248 1.10036 0.997009 0.99581
1.07932 1.09215 0.992052 0.996172
1.07926 1.09793 0.986477 0.996464
1.06434 1.06896 1 0.995677
1.09316 1.10093 0.997188 0.995738
1.08027 1.09507 0.990395 0.996052
1.01318 1.01544 1 0.997771
1.06587 1.07065 0.999846 0.995693
1.0944 1.10141 0.997971 0.995655
1 1 1 1
1.01793 1.02016 1 0.997816
1.06698 1.07177 0.999782 0.995743
1 1 1 1
1.02349 1.02571 1 0.997833
1 1 1 1
1.0941 1.1021 0.996865 0.995861
1.07998 1.09194 0.992809 0.996207
1.07842 1.09515 0.988248 0.996432
1.05689 1.06195 0.999449 0.995785
1.09441 1.10313 0.996236 0.995849
1.07859 1.09264 0.990887 0.996219
1.09358 1.10303 0.99556 0.995857
1.05871 1.0639 0.999348 0.99577
1.00478 1.00702 1 0.997776
1.0628 1.06739 1 0.995705
1.00591 1.00817 1 0.99776
1 1 1 1
1.00749 1.00976 1 0.99776
1 1 1 1
1 1 1 1
1.09349 1.10095 0.997365 0.995851
1.07832 1.09072 0.992363 0.996236
1.07384 1.09221 0.986686 0.996442
1.06139 1.06597 1 0.995712
1.09284 1.10073 0.997016 0.995807
1.07992 1.09264 0.992153 0.996172
1.00971 1.01198 1 0.997752
1.06314 1.06776 1 0.995675
1.09376 1.10155 0.997179 0.995734
1 1 1 1
1.01418 1.01645 1 0.997774
1.06516 1.06979 1 0.995669
1 1 1 1
1.01908 1.02131 1 0.99782
1 1 1 1
1.05779 1.06232 1 0.995738
1.09348 1.10186 0.996496 0.995882
1.08006 1.09187 0.992957 0.996199
1.00375 1.00594 1 0.997821
1.0574 1.06252 0.999398 0.995783
1.09374 1.10255 0.996146 0.995849
1.05927 1.06457 0.999257 0.995766
1.00443 1.00667 1 0.997776
1 1 1 1
1.00539 1.00765 1 0.997758
1 1 1 1
1 1 1 1
1.05892 1.06346 1 0.995737
1.0931 1.10084 0.99707 0.995881
1.07791 1.0908 0.991867 0.996282
1.00729 1.00911 1 0.998189
1.06047 1.06504 1 0.995711
1.09307 1.10095 0.99702 0.995804
1 1 1 1
1.01069 1.01297 1 0.997753
1.06195 1.06657 1 0.995673
1 1 1 1
1.01525 1.01752 1 0.997777
1 1 1 1
1.00357 1.0058 1 0.997788
1.05699 1.0618 0.999703 0.995764
1.09285 1.10159 0.99615 0.995903
1 1 1 1
1.00364 1.00583 1 0.997818
1.05795 1.06312 0.99935 0.995781
1.00413 1.00637 1 0.997775
1 1 1 1
1 1 1 1
1.00527 1.0071 1 0.998179
1.05845 1.06298 1 0.995739
1.09286 1.10089 0.996784 0.995911
1 1 1 1
1.00768 1.00993 1 0.997774
1.05978 1.06434 1 0.995712
1 1 1 1
1.01168 1.01396 1 0.997754
1 1 1 1
0.999298 1 1 0.999298
1.00415 1.00615 1 0.998013
1.05622 1.06134 0.999387 0.995789
1 1 1 1
1.00349 1.00568 1 0.997819
1 1 1 1
0.999299 1 1 0.999299
1.00563 1.00765 1 0.997997
1.05781 1.06234 1 0.99574
0.999638 1 1 0.999638
1.00841 1.01065 1 0.997779
1 1 1 1
1 1 1 1
1.0043 1.00647 1 0.997837
1 1 1 1
0.999652 1 1 0.999652
1.00605 1.00824 1 0.997821
1 1 1 1
1 1 1 1
1 1 1 1

VECTORS lamdaE float
1.00349 0.999891 0.991502
1.00322 1.0006 0.99557
1.00284 1.00009 0.991999
1.00271 1.0002 0.992158
1.00327 0.999999 0.991667
1.0037 0.999812 0.991326
1.00377 1.00108 0.988993
1.00335 1.00067 0.995475
1.00231 1.00009 0.996505
1.00226 1.00064 0.996425
1.00287 1.00147 0.990773
1.00392 1.00223 0.986051
1.00205 0.999926 0.993129
1.00162 1.00017 0.993396
1.00223 1.0003 0.992467
1.00224 1.00021 0.992637
1.00297 1.00015 0.99178
1.00272 1.00007 0.99216
1.00407 1.00099 0.988689
1.00211 1 0.996291
1.0025 1.00019 0.99239
1.00298 1.00012 0.99192
1.00351 1.0002 0.990295
1.00377 1.00069 0.989434
1.00403 0.999868 0.990911
1.0038 1.00162 0.988331
1.0053 1.00146 0.985283
1.0035 1.00074 0.995375
1.00265 0.99999 0.99427
1.00277 1.00035 0.994053
1.00328 1.00133 0.995308
1.00395 1.00223 0.986001
1.00263 0.999948 0.992265
1.00302 0.999911 0.991826
1.00419 1.00069 0.989283
1.00133 1.00283 0.996251
1.00425 1.0015 0.988567
1.00412 1.00276 0.985111
1.00549 1.00286 0.983041
1.00178 1.00158 0.996076
1.00208 0.999983 0.996296
1.00195 1.0001 0.994784
1.002 0.999947 0.996367
1.00146 1.00011 0.993619
1.00353 0.999749 0.989488
1.00187 1.00007 0.996691
1.00386 1.00018 0.990327
1.0018 1.00017 0.993114
1.00219 1.00013 0.992635
1.00232 1.00045 0.992219
1.00435 1.00089 0.988402
1.00187 1.00001 0.994918
1.00203 1.00024 0.992874
1.00324 1.0004 0.991335
1.00249 1.00013 0.992398
1.00376 1.00016 0.990007
1.00416 1.00145 0.988042
1.00403 1.00063 0.98914
1.0053 1.00136 0.985468
1.002 0.999976 0.99635
1.00236 1.00008 0.992677
1.00324 0.999797 0.991376
1.00337 1 0.990712
1.00367 1.0004 0.989849
1.0054 0.999005 0.987821
1.0053 0.999747 0.987039
1.00384 1.00037 0.990711
1.00395 1.00254 0.987332
1.00533 1.00268 0.983941
1.00536 0.997057 0.988857
1.00316 0.999904 0.995752
1.00312 1.00139 0.995441
1.00336 1.00022 0.99562
1.00396 1.00222 0.985943
1.00273 0.999968 0.995908
1.00319 0.99996 0.99573
1.004 1.00075 0.987563
1.00183 1.00235 0.99366
1.00398 1.00148 0.986786
1.00415 1.00291 0.986229
1.00545 1.00284 0.98301
1.00221 1.00198 0.995695
1.0027 1.0036 0.987049
1.00398 1.00047 0.988021
1.00423 1.00088 0.987139
1.00538 0.999566 0.986684
1.00378 1.00356 0.987169
1.00533 1.00154 0.984549
1.00551 1.00443 0.981447
1.00558 0.999455 0.985853
1.00117 1.00152 0.996583
1.00146 1.00176 0.996292
1.00237 1.00005 0.99607
1.00214 0.999985 0.99626
1.00204 0.999952 0.996358
1.00185 1 0.994942
1.00356 0.999755 0.990221
1.00217 1.00007 0.994619
1.00371 1.00019 0.989598
1.00201 0.999948 0.996386
1.00336 0.999596 0.989807
1.00377 0.999989 0.990624
1.00531 0.997401 0.989296
1.00387 1.00029 0.990096
1.00531 0.997766 0.988851
1.00206 0.999897 0.993145
1.00156 1.00028 0.993362
1.00236 1.001 0.991748
1.00201 1.00011 0.992871
1.00398 1.00016 0.989719
1.00428 1.00059 0.988855
1.00448 1.00138 0.987756
1.0053 1.00125 0.985651
1.00204 0.999953 0.996369
1.00192 1.00007 0.993158
1.00348 0.99961 0.990327
1.0036 0.999968 0.990429
1.00331 1.00108 0.993057
1.00425 1.00235 0.987353
1.00391 1.00037 0.989561
1.00539 0.99861 0.988227
1.00534 1.0026 0.984143
1.0053 1.00006 0.986751
1.00537 0.997077 0.988822
1.00336 0.99961 0.989814
1.0033 0.999733 0.991085
1.00532 0.997395 0.989654
1.00536 0.998021 0.988928
1.0054 0.998849 0.987881
1.0053 0.995709 0.990848
1.00259 1.00161 0.995733
1.00532 0.996004 0.990062
1.00394 1.00311 0.984963
1.00537 1.0037 0.982086
1.00537 0.998353 0.987533
1.00538 0.994902 0.990836
1.00305 1.00364 0.986064
1.00455 1.00424 0.983968
1.00289 0.999941 0.995846
1.00331 0.999965 0.995706
1.00394 1.00081 0.987565
1.00247 1.00178 0.995606
1.00379 1.0032 0.985203
1.00399 1.00145 0.986755
1.00546 1.00268 0.982984
1.00212 1.00178 0.995824
1.00275 1.00367 0.986984
1.00401 1.00053 0.988816
1.00424 1.00099 0.988004
1.00537 0.999559 0.986669
1.00335 1.00367 0.985394
1.00536 1.00158 0.984509
1.0055 1.00423 0.981397
1.0056 0.999186 0.986172
1.00321 1.00367 0.985972
1.00229 1.00335 0.988136
1.00287 1.00263 0.986168
1.00541 0.9988 0.987518
1.00534 1.00046 0.985725
1.00529 0.995606 0.990511
1.00474 1.00509 0.982054
1.0055 0.997426 0.988346
1.00564 1.00183 0.984119
1.00567 0.997054 0.987777
1.00066 1.00085 0.99723
1.00091 1.00141 0.996817
1.00125 1.0018 0.996442
1.00247 1.00394 0.987102
1.00188 1.00201 0.995978
1.00261 0.999996 0.99596
1.00222 1.00002 0.996162
1.00349 1.00025 0.988936
1.00338 0.999762 0.989596
1.00203 0.999953 0.996342
1.00198 0.999941 0.996383
1.00334 0.999604 0.989805
1.00363 0.999954 0.989924
1.0053 0.997414 0.989306
1.00367 1.00039 0.988527
1.00531 0.997787 0.988858
1.00333 0.999545 0.98988
1.00531 0.997364 0.989343
1.0053 0.997513 0.989164
1.00532 0.994953 0.991896
1.00536 0.998198 0.988276
1.00532 0.994951 0.99169
1.002 0.999949 0.996375
1.00141 1.00018 0.993637
1.00352 0.999493 0.989476
1.00384 0.99995 0.990145
1.0022 1.00197 0.996002
1.0046 1.00209 0.987388
1.00415 1.00037 0.989276
1.00539 0.99821 0.988632
1.0053 1.00036 0.986462
1.00534 1.00244 0.984358
1.00539 0.99711 0.988786
1.00334 0.9996 0.989812
1.0035 0.999743 0.990815
1.00531 0.997287 0.989651
1.00535 0.998281 0.988677
1.0028 1.00154 0.995598
1.00395 1.00315 0.986184
1.00538 1.00377 0.982432
1.0054 0.99889 0.987884
1.00531 0.995337 0.991149
1.00538 0.998266 0.987618
1.00531 0.996343 0.989725
1.00538 0.994918 0.990783
1.00302 1.00367 0.98601
1.00379 1.00482 0.983897
1.00531 0.997448 0.989263
1.00533 0.997725 0.989388
1.00534 0.995337 0.991318
1.00531 0.994923 0.991583
1.00535 0.995994 0.99014
1.0052 0.994945 0.991539
1.00356 1.00339 0.985375
1.00532 0.994835 0.991088
1.00543 1.00455 0.981196
1.00544 0.999422 0.986128
1.00536 0.99592 0.989852
1.00539 0.994757 0.990836
1.00494 1.00529 0.981803
1.00228 1.00492 0.986749
1.00521 1.00469 0.981862
1.0038 1.0006 0.988048
1.00181 1.00185 0.99604
1.00252 1.00377 0.986924
1.004 1.00106 0.987169
1.00535 0.999547 0.986658
1.00345 1.00362 0.985456
1.00548 1.00417 0.981346
1.00538 1.00162 0.984463
1.0056 0.99891 0.986494
1.00295 1.0038 0.986125
1.00204 1.00348 0.988119
1.00313 1.00378 0.986265
1.00539 0.998802 0.987522
1.00534 1.00048 0.985692
1.00533 0.995546 0.990535
1.00502 1.0044 0.981981
1.00547 0.997462 0.988345
1.00563 1.00161 0.984088
1.00563 0.996819 0.987975
1.00165 1.00288 0.989776
1.00301 1.00462 0.984847
1.00324 1.00382 0.985926
1.00234 1.00261 0.986778
1.00529 0.995113 0.991166
1.00539 0.996425 0.989468
1.00535 0.994874 0.990969
1.00549 1.00419 0.982312
1.00547 0.995264 0.990193
1.00556 1.00013 0.985737
1.0056 0.996225 0.988742
1.00091 1.00444 0.989549
1.00064 1.00205 0.991926
1.00044 0.999733 0.997749
1.00048 1.00048 0.997455
1.00058 1.0012 0.997101
1.00087 1.00381 0.98956
1.00104 1.002 0.996451
1.00246 1.00387 0.986991
1.0021 1.00195 0.995904
1.00363 1.00044 0.988527
1.00346 0.999939 0.989292
1.00531 0.997801 0.988871
1.00529 0.997427 0.989316
1.00335 0.999615 0.989809
1.00204 0.99993 0.996378
1.00335 0.999545 0.989885
1.0053 0.997376 0.98935
1.0053 0.997529 0.989175
1.00533 0.994953 0.991895
1.00535 0.998208 0.988289
1.00531 0.994952 0.991697
1.00531 0.997399 0.989326
1.00533 0.994955 0.991924
1.00532 0.994955 0.991819
1.00525 0.994928 0.991753
1.00532 0.994937 0.991502
1.00524 0.99494 0.991554
1.00336 0.999599 0.989819
1.00374 0.999675 0.990546
1.00531 0.997161 0.989652
1.00534 0.998508 0.988427
1.00298 1.00148 0.995458
1.00424 1.00306 0.987112
1.00542 1.00373 0.982762
1.00539 0.998913 0.987888
1.00532 0.994959 0.991452
1.0053 0.996673 0.989388
1.0054 0.998204 0.987704
1.00538 0.994933 0.990729
1.00302 1.00372 0.985956
1.00317 1.00471 0.983833
1.00531 0.997247 0.989508
1.00532 0.997631 0.989408
1.00534 0.995358 0.991288
1.00532 0.995211 0.991327
1.0035 1.00346 0.985355
1.00544 1.00448 0.981245
1.00544 0.999815 0.985796
1.00532 0.996028 0.990229
1.00519 0.99494 0.991459
1.00536 0.995673 0.99008
1.00534 0.994836 0.991048
1.00538 0.994757 0.990806
1.0048 1.00504 0.981842
1.00471 1.00516 0.982258
1.00207 1.00469 0.986872
1.00534 0.995345 0.99139
1.00533 0.995454 0.991116
1.00524 0.994928 0.991843
1.00523 0.994936 0.991497
1.00522 0.994896 0.991191
1.00535 0.994901 0.991097
1.00535 1.00517 0.980959
1.00536 0.994844 0.990827
1.00555 1.00143 0.984087
1.00545 0.996819 0.988571
1.0054 0.994987 0.990617
1.00542 0.994752 0.990644
1.00186 1.00304 0.987815
1.00532 1.00476 0.981493
1.0033 1.00488 0.984171
1.00507 1.00488 0.982028
1.00536 0.998803 0.987528
1.00175 1.00375 0.988102
1.00295 1.00383 0.986246
1.00295 1.00473 0.986347
1.00535 1.00049 0.985661
1.00537 0.995488 0.990558
1.00543 1.00367 0.981884
1.00564 1.00143 0.984054
1.00545 0.997492 0.988343
1.00561 0.996593 0.988172
1.00132 1.00306 0.989806
1.00381 1.00407 0.984943
1.00295 1.00404 0.98579
1.00327 1.00244 0.986896
1.0053 0.995082 0.991194
1.0054 0.996343 0.989494
1.00532 0.994871 0.990993
1.0055 1.00405 0.982133
1.00547 0.995446 0.990061
1.00556 1.00004 0.98571
1.00565 0.996275 0.98895
1.00113 1.00235 0.991057
1.00279 1.00518 0.986249
1.00348 1.00511 0.983236
1.00292 1.00262 0.987373
1.00308 1.00257 0.987721
1.00525 0.994918 0.991172
1.00543 0.994854 0.990632
1.0054 0.994854 0.990622
1.00526 1.00331 0.983323
1.00549 0.99518 0.990138
1.00531 0.999269 0.986599
1.00141 1.00493 0.988064
1.00055 1.00511 0.989197
1.00034 1.00389 0.990867
1.00047 1.00459 0.989565
1.00034 1.00121 0.994232
1.00052 1.00197 0.992624
1.00053 0.999062 0.995713
1.00036 0.999801 0.997837
1.00045 1.00035 0.997613
1.00029 1.00278 0.991615
1.00007 1.00093 0.997561
1.00127 1.00342 0.989459
1.00136 1.00197 0.99624
1.00255 1.00366 0.986876
1.0023 1.00184 0.995806
1.00534 0.998229 0.988299
1.00529 0.997546 0.989183
1.00531 0.994953 0.991705
1.00533 0.994952 0.991894
1.0053 0.997391 0.989356
1.00334 0.999535 0.989886
1.00531 0.997403 0.989325
1.00533 0.994955 0.991922
1.00532 0.994955 0.991823
1.00525 0.994926 0.991753
1.00531 0.994934 0.991521
1.00524 0.994941 0.991551
1.00534 0.994955 0.991924
1.00524 0.994932 0.991808
1.00525 0.994927 0.9917
1.00534 0.994904 0.991616
1.00522 0.994942 0.99134
1.00531 0.994922 0.991315
1.00531 0.997066 0.989749
1.00532 0.997564 0.989427
1.00534 0.99538 0.991259
1.00532 0.995517 0.99107
1.00344 1.00354 0.985351
1.00544 1.0046 0.98129
1.00542 1.00014 0.985467
1.00529 0.996065 0.990316
1.00519 0.994935 0.991379
1.00536 0.994838 0.991007
1.00537 0.995409 0.990308
1.00537 0.994763 0.990775
1.00449 1.00524 0.981886
1.00401 1.00534 0.982655
1.00183 1.00471 0.986985
1.00534 0.995158 0.991647
1.00533 0.995431 0.991123
1.00524 0.994925 0.991792
1.00522 0.994937 0.991566
1.00518 1.00514 0.981045
1.00553 1.00157 0.984154
1.00546 0.99702 0.988166
1.00524 0.994901 0.991246
1.00535 0.994896 0.99106
1.0054 0.994906 0.990636
1.00536 0.994846 0.990827
1.00543 0.994769 0.990631
1.00519 1.00489 0.981575
1.0051 1.00468 0.982142
1.00215 1.00354 0.987878
1.00351 1.00446 0.984398
1.00524 0.994933 0.991815
1.00525 0.994923 0.991691
1.00534 0.994913 0.991616
1.00536 0.994889 0.991187
1.00533 0.994894 0.990866
1.00538 0.99486 0.9909
1.00551 1.00319 0.982537
1.00539 0.994819 0.990629
1.00554 0.999172 0.985929
1.00548 0.995974 0.989155
1.00546 0.994766 0.990624
1.00541 0.994785 0.990576
1.00308 1.00285 0.986699
1.00228 1.0052 0.984707
1.00514 1.00429 0.982293
1.00505 1.00515 0.983569
1.005 1.00423 0.982988
1.00103 1.00308 0.989844
1.00532 0.995048 0.991221
1.00336 1.00417 0.985644
1.00381 1.00387 0.98508
1.00416 1.00214 0.987017
1.00541 0.99626 0.98952
1.0053 0.994869 0.991017
1.00549 1.00385 0.981967
1.00554 0.999936 0.985686
1.00547 0.995626 0.989927
1.00569 0.996327 0.989163
1.0009 1.00248 0.991082
1.00224 1.0052 0.986147
1.00424 1.00464 0.983234
1.00309 1.00289 0.987294
1.00367 1.00191 0.986858
1.00524 0.994919 0.991177
1.00542 0.994852 0.990669
1.00539 0.994852 0.990629
1.00517 1.00345 0.983362
1.00553 0.995208 0.990045
1.00525 0.999521 0.986989
1.00195 1.00509 0.987054
1.00319 1.00516 0.985753
1.0037 1.00497 0.984169
1.00372 1.00263 0.986333
1.00469 1.00321 0.985314
1.00536 0.994866 0.990843
1.00542 0.994831 0.990459
1.0054 0.99476 0.990493
1.00508 1.002 0.984303
1.00526 0.998059 0.987824
1.00123 1.005 0.988095
1.00118 1.00511 0.987533
0.999716 1.00511 0.989323
0.999985 1.00508 0.99112
1.00021 1.0049 0.990548
0.999931 1.00352 0.991651
1 1.0041 0.990893
1.00015 1.00062 0.994982
1.00025 1.00478 0.989578
1.0003 1.0011 0.994366
1.00035 0.998164 0.996564
1.00047 1.00201 0.993304
1.0003 0.999215 0.996947
1.00024 0.99973 0.997928
1.00037 1.00267 0.991867
1.0005 1.00229 0.991681
0.999969 1.00027 0.998009
1.00061 1.00113 0.997082
1.00167 1.00308 0.989375
1.00158 1.00223 0.996089
1.0053 0.994932 0.991539
1.00532 0.994955 0.991826
1.00524 0.994941 0.991548
1.00525 0.994925 0.991752
1.00534 0.994955 0.99192
1.00531 0.997405 0.989327
1.00534 0.994955 0.991922
1.00524 0.994932 0.991815
1.00525 0.994926 0.991698
1.00534 0.994901 0.991609
1.00523 0.994944 0.991336
1.00531 0.994917 0.991332
1.00523 0.994934 0.991832
1.00533 0.994912 0.991718
1.00532 0.9949 0.991538
1.00534 0.994891 0.991629
1.00532 0.994913 0.991108
1.0053 0.994899 0.991302
1.00534 0.994952 0.991905
1.00533 0.995406 0.991129
1.00525 0.994923 0.99174
1.00522 0.994938 0.991635
1.00506 1.00511 0.98112
1.0055 1.00183 0.984217
1.00547 0.997218 0.987763
1.00526 0.994906 0.991301
1.00534 0.994891 0.991022
1.00536 0.994846 0.990827
1.00539 0.994817 0.990654
1.00544 0.994779 0.990617
1.00509 1.005 0.981651
1.00516 1.00461 0.98225
1.00246 1.00411 0.987937
1.00381 1.00381 0.984596
1.00524 0.994932 0.991816
1.00525 0.994922 0.991705
1.00534 0.994912 0.991594
1.00535 0.99489 0.991182
1.0055 1.00341 0.982617
1.0056 0.999199 0.985746
1.00547 0.995933 0.989162
1.00534 0.994898 0.990904
1.00538 0.994854 0.990894
1.00547 0.99473 0.990632
1.00539 0.994819 0.990624
1.0054 0.994787 0.990606
1.00518 1.00452 0.982272
1.00486 1.00441 0.983065
1.0042 1.00452 0.983675
1.00264 1.00354 0.986834
1.00291 1.00522 0.984653
1.00533 0.994902 0.991681
1.00535 0.994894 0.991475
1.00538 0.994851 0.990972
1.00539 0.994843 0.990709
1.00545 1.00252 0.983613
1.00539 0.994748 0.990395
1.00553 0.998244 0.986105
1.00547 0.995546 0.989412
1.00545 0.994739 0.990498
1.00115 1.0051 0.987552
1.00389 1.00518 0.985274
1.00187 1.00496 0.986359
1.00498 1.00454 0.983173
1.00496 1.00324 0.985178
1.00493 1.00364 0.983396
1.00068 1.00265 0.991104
1.00224 1.0052 0.986049
1.00523 0.994921 0.991181
1.00257 1.00283 0.987224
1.00517 1.00473 0.983223
1.0042 1.00154 0.985998
1.00541 0.99485 0.990707
1.00537 0.99485 0.990637
1.00528 1.00363 0.983401
1.00526 0.999789 0.987377
1.00557 0.99523 0.989952
1.00194 1.00511 0.987046
1.00266 1.00521 0.98575
1.0042 1.00485 0.98348
1.00384 1.00214 0.98645
1.00463 1.00212 0.985183
1.00537 0.994866 0.990836
1.00543 0.994834 0.990436
1.00542 0.994752 0.990508
1.00506 1.00221 0.984582
1.00526 0.998242 0.98762
1.00287 1.00516 0.985715
1.00118 1.00527 0.986056
1.00471 1.00327 0.984409
1.00279 1.00263 0.985123
1.00542 1.00088 0.985525
1.00539 0.994797 0.9906
1.00548 0.995459 0.989523
1.00542 0.99474 0.990003
1.0051 1.0011 0.985833
1.00511 0.999173 0.987031
1.00114 1.00497 0.98813
1.0017 1.00508 0.987308
0.999159 1.00456 0.990961
0.999423 1.00507 0.989421
0.999659 1.00503 0.990524
0.998895 1.00466 0.991572
0.998394 1.00417 0.993653
0.99866 1.00512 0.991888
0.999542 1.00483 0.991145
1.00003 1.00313 0.991797
0.999849 1.00351 0.991634
1.00002 1.0003 0.995404
0.999658 1.00418 0.990914
1.00013 1.00054 0.99505
1.00021 0.997921 0.996978
1.00029 1.00092 0.994502
1.00025 0.998354 0.996508
1 0.999305 0.99821
1.00018 1.00219 0.992467
1.00059 1.0021 0.991912
0.999769 0.999874 0.998174
1.00096 1.00181 0.991735
1.00007 1.00016 0.997923
1.001 1.00135 0.996666
1.00523 0.994945 0.991332
1.00525 0.994925 0.991697
1.00531 0.994913 0.991348
1.00533 0.994898 0.991602
1.00523 0.994932 0.991822
1.00534 0.994956 0.99192
1.00523 0.994936 0.991839
1.00533 0.994913 0.991711
1.00532 0.994903 0.991544
1.00533 0.994888 0.991611
1.00533 0.994913 0.991103
1.0053 0.994892 0.991315
1.00532 0.994906 0.991733
1.00535 0.994887 0.991691
1.00531 0.994869 0.991587
1.00536 0.994875 0.990932
1.00524 0.994932 0.991818
1.00525 0.994922 0.99172
1.00534 0.994912 0.991571
1.00535 0.994892 0.991176
1.00554 1.00357 0.982701
1.00567 0.999218 0.985558
1.00547 0.995891 0.989166
1.00535 0.994901 0.990943
1.00538 0.994848 0.990888
1.00539 0.99482 0.990619
1.00547 0.994703 0.99064
1.00539 0.99479 0.990636
1.00516 1.00477 0.98225
1.0046 1.00464 0.983143
1.0039 1.00421 0.983792
1.00223 1.00414 0.986995
1.00354 1.00523 0.984636
1.00533 0.994904 0.991667
1.00535 0.994896 0.991472
1.00538 0.994851 0.990977
1.00548 1.00252 0.983617
1.00552 0.998451 0.986045
1.00549 0.995403 0.98945
1.00538 0.994847 0.990729
1.00543 0.994721 0.990549
1.00541 0.994755 0.990414
1.00098 1.00494 0.987835
1.00467 1.0044 0.983197
1.00513 1.00391 0.982982
1.0045 1.00306 0.985006
1.00259 1.00452 0.986058
1.0031 1.00511 0.985366
1.00535 0.99488 0.991623
1.00539 0.994851 0.99129
1.00541 0.994813 0.990759
1.0054 0.99479 0.990467
1.00528 1.00192 0.984303
1.0054 0.994733 0.990248
1.00546 0.997967 0.987103
1.00543 0.995063 0.989597
1.00033 1.00412 0.989334
1.00204 1.00509 0.987228
1.00323 1.00481 0.986611
1.00131 1.00185 0.990634
1.00483 1.0041 0.983642
1.00491 1.00346 0.98364
1.00152 1.0052 0.987037
1.00239 1.00513 0.985736
1.00538 0.994866 0.990829
1.00402 1.00131 0.986566
1.00476 1.00468 0.982795
1.0043 1.00249 0.985042
1.00545 0.994836 0.990414
1.00544 0.994744 0.990523
1.00499 1.00235 0.984859
1.00521 0.998459 0.987416
1.00269 1.0051 0.985776
1.00282 1.00516 0.985732
1.00447 1.00338 0.984234
1.00425 1.00336 0.984652
1.00542 1.0019 0.985311
1.00539 0.994799 0.990613
1.00547 0.995255 0.989815
1.00541 0.994747 0.990302
1.00515 1.00093 0.985693
1.00508 0.999759 0.98654
0.999988 1.00488 0.988426
1.00039 1.00511 0.987814
1.00505 1.00095 0.985934
1.00502 1.00232 0.985493
1.00545 0.994796 0.990596
1.00538 0.99467 0.990448
1.00524 0.997468 0.98807
1.00517 1.0003 0.985839
1.00248 1.00508 0.987096
0.999507 1.00492 0.990595
0.996828 1.00496 0.994523
0.999167 1.00511 0.990509
0.997172 1.00506 0.992016
0.999603 1.00469 0.991062
0.997786 1.0047 0.994021
0.998807 1.0051 0.991916
0.998448 1.00219 0.996165
0.997937 1.00506 0.993255
0.998568 1.00511 0.991558
1.00005 1.0046 0.990591
1.00001 1.00334 0.991605
0.999919 1.00329 0.991757
0.999886 1.00009 0.995729
0.999662 1.00372 0.991619
0.999987 1.00028 0.995447
1.00006 0.997932 0.997213
1.00007 1.00049 0.995114
1.00017 0.998032 0.996945
1.00012 0.998553 0.996439
1.00035 1.00107 0.993354
1.00021 1.00213 0.992386
0.999921 0.998915 0.998396
1.00043 1.00165 0.991961
0.999933 1.00004 0.998097
1.00038 0.999983 0.997713
1.00535 0.994912 0.991097
1.00532 0.994907 0.99155
1.00531 0.994885 0.991329
1.00532 0.994884 0.991593
1.00533 0.994914 0.991705
1.00523 0.994939 0.991846
1.00532 0.994905 0.991733
1.00534 0.994887 0.991683
1.00532 0.99487 0.99153
1.00535 0.994874 0.990992
1.00535 0.994878 0.99171
1.00537 0.994849 0.991613
1.00535 0.994839 0.991285
1.00534 0.994905 0.991653
1.00535 0.994897 0.991468
1.00538 0.994853 0.990983
1.00549 1.00252 0.983625
1.00551 0.99866 0.985992
1.0055 0.995199 0.989486
1.00538 0.994851 0.990749
1.00542 0.994763 0.990432
1.00541 0.994703 0.990605
1.00462 1.00424 0.983225
1.00498 1.00413 0.982575
1.00354 1.00325 0.984833
1.00106 1.00485 0.988119
1.00389 1.00411 0.985729
1.00208 1.00487 0.985435
1.00535 0.994883 0.991642
1.00539 0.994851 0.991264
1.0054 0.994821 0.990778
1.00528 1.00193 0.984283
1.00543 0.997798 0.98703
1.00545 0.994922 0.989744
1.0054 0.994778 0.990437
1.00542 0.99474 0.990246
1.00023 1.00458 0.989577
1.00162 1.00512 0.987187
1.00475 1.00363 0.983435
1.00455 1.00319 0.983771
1.00229 1.00248 0.989266
1.00218 1.00474 0.987008
1.0054 0.994838 0.99152
1.00543 0.994837 0.990913
1.00539 0.994748 0.990535
1.0054 0.994747 0.990177
1.00469 1.00115 0.985983
1.00536 0.994718 0.990334
1.00477 0.997502 0.988386
1.00005 1.00442 0.990371
1.00068 1.00333 0.990647
0.999768 1.00513 0.988831
1.00157 1.00512 0.987786
1.00149 1.00463 0.98996
1.00332 1.00246 0.986064
1.00439 1.00371 0.984757
1.00346 1.00526 0.98541
1.00264 1.00516 0.985843
1.00311 1.0053 0.985405
1.0054 0.994802 0.990625
1.00528 1.00222 0.984191
1.00458 1.00345 0.984062
1.00541 1.00227 0.985109
1.00546 0.995038 0.990109
1.00539 0.994756 0.9906
1.0052 1.00073 0.985554
1.00503 1.00028 0.986048
1.00097 1.00399 0.988033
1.00115 1.00482 0.987187
1.00504 1.00105 0.985624
1.00495 1.00225 0.985353
1.00543 0.994803 0.990607
1.0054 0.994689 0.990453
1.00522 0.997377 0.988114
1.00512 1.00046 0.985874
0.998997 1.00364 0.991882
1.00549 0.994724 0.991062
1.00263 1.00345 0.98875
1.00467 1.00145 0.985638
1.00539 0.994707 0.990744
1.00521 0.996462 0.988242
1.00507 1.00082 0.985999
1.00016 1.00477 0.99024
0.997455 1.00467 0.994636
0.996314 1.00282 0.997031
0.9993 1.00464 0.990973
0.998693 1.00508 0.991937
0.996605 1.005 0.994396
0.999889 1.00455 0.990562
0.998704 1.00509 0.991697
0.996539 1.00349 0.996473
0.998272 1.00481 0.993039
0.996634 1.00324 0.997769
0.996213 1.00503 0.995816
0.998902 1.00465 0.992624
1.00026 1.00493 0.989717
1.00025 1.00467 0.989961
0.999979 1.00332 0.99162
0.999908 1.00347 0.991582
0.999784 1.0001 0.995889
0.999784 1.0035 0.991721
0.999918 1.00008 0.995743
0.999939 0.997937 0.997464
0.999988 1.00017 0.995498
1.00008 0.997931 0.997189
1.00014 0.998135 0.996905
1.00036 1.00375 0.990623
0.999989 1.00095 0.993839
1.00019 1.00119 0.993314
1.00005 0.998745 0.998524
1.00026 1.00194 0.992308
0.999891 0.999401 0.998318
1.0001 0.999856 0.998067
1.00533 0.994872 0.991051
1.00534 0.994872 0.991473
1.00533 0.994887 0.991675
1.00532 0.994904 0.991733
1.00535 0.994875 0.991721
1.00536 0.99485 0.991594
1.00535 0.994837 0.991225
1.00539 0.994839 0.991568
1.00538 0.994784 0.991628
1.00565 0.994638 0.991534
1.00535 0.994886 0.991662
1.00538 0.994848 0.991237
1.00539 0.994825 0.990797
1.00515 1.00197 0.984266
1.00539 0.997753 0.986963
1.00547 0.994876 0.989885
1.00541 0.994766 0.990406
1.00545 0.994742 0.990242
1.00499 1.00348 0.983223
1.00406 1.00281 0.983854
1.00258 1.0041 0.987907
1.00046 1.00462 0.989821
1.00136 1.00513 0.987142
1.00122 1.00479 0.987409
1.0054 0.994834 0.991514
1.00067 1.00366 0.990336
1.00013 1.00418 0.990548
1.00543 0.994824 0.990913
1.00541 0.994761 0.990563
1.00478 1.00131 0.985716
1.00528 0.997051 0.98863
1.00533 0.994732 0.990311
1.00539 0.99474 0.990107
1.00038 1.00512 0.98891
1.00134 1.00511 0.987728
1.00408 1.00421 0.984258
1.00367 1.00508 0.984341
1.00382 1.00338 0.985701
1.00086 1.00297 0.99083
1.00548 0.994741 0.991434
1.00541 0.995088 0.990549
1.00538 0.994688 0.99053
1.00527 0.994745 0.989925
1.00355 1.00093 0.987381
1.00523 0.995748 0.990132
1.00032 1.00444 0.990075
0.99959 1.004 0.990512
1.00014 1.0049 0.990711
1.00048 1.00496 0.989055
1.00124 1.0036 0.990055
1.00203 1.00093 0.990048
1.00242 1.00541 0.985527
1.00211 1.00239 0.989885
1.00126 1.00478 0.987656
1.00352 1.00518 0.986556
1.00541 0.994809 0.990616
1.00542 0.994708 0.99046
1.00486 1.00295 0.985215
1.00481 1.00126 0.9853
1.00521 0.997297 0.98816
1.00508 1.00062 0.98591
0.999078 1.00439 0.991823
1.00551 0.994713 0.991188
1.00185 1.00404 0.989237
1.0045 1.00139 0.985547
1.0054 0.994694 0.990805
1.0052 0.996567 0.988478
1.00503 1.00058 0.985897
0.998008 1.00448 0.994274
1.00499 0.994669 0.99027
1.00176 1.00312 0.988487
1.00426 1.0031 0.984165
1.00485 0.994871 0.991758
1.00439 0.999999 0.987069
0.998237 0.994717 0.980906
0.997244 1.00502 0.994724
0.996908 1.00282 0.997068
0.996039 1.00307 0.997967
0.999863 1.00444 0.99053
0.998348 1.00507 0.991847
0.999119 1.00456 0.992832
0.995397 1.00375 0.996801
1.0002 1.00458 0.989996
0.999752 1.00501 0.990249
0.996292 1.00227 0.998525
0.998193 1.00492 0.99257
0.996637 1.00478 0.995391
0.994881 1.00518 0.997952
0.998016 1.00509 0.993347
0.998681 1.00471 0.992462
1.00011 1.00471 0.990287
0.999927 1.00482 0.989888
0.999717 1.00431 0.99159
0.99997 1.00423 0.9905
0.999891 1.00321 0.991776
0.999935 1.00339 0.991609
0.999673 1.00004 0.995325
0.999924 1.00335 0.991564
0.999778 1.00008 0.995522
0.999961 0.997868 0.998954
0.999912 1.00007 0.995766
0.99996 0.997869 0.997446
1.0001 0.997933 0.997156
1.00001 1.00328 0.991525
1.00057 1.00347 0.99069
1.00013 1.00024 0.994419
1.00014 1.00083 0.994306
0.999981 0.99829 0.998683
1.00004 1.00159 0.993272
0.999971 0.998566 0.99851
0.999924 0.999795 0.998173
1.00536 0.994837 0.991165
1.00535 0.99485 0.991575
1.00534 0.994872 0.991732
1.00538 0.994838 0.99157
1.00539 0.994788 0.991558
1.00567 0.994656 0.991517
1.00553 0.994747 0.991579
1.00008 0.99466 0.979568
1.00548 0.994608 0.989608
1.00025 1.00411 0.99034
1.0054 0.994831 0.991508
1.00543 0.994817 0.990912
1.00542 0.994776 0.99059
1.00494 1.00143 0.985436
1.00531 0.996161 0.988857
1.0053 0.994735 0.990273
1.00537 0.994732 0.990035
1.00433 1.00434 0.983831
1.00434 1.00482 0.983361
1.00345 1.00279 0.985326
1.00094 1.00325 0.990304
1.00061 1.00242 0.991675
1.00113 1.00512 0.988962
1.00092 1.00509 0.987668
1.0001 1.0045 0.990446
1.00547 0.994762 0.991445
1.00056 1.00419 0.989971
1.00034 1.00421 0.9905
0.999518 1.00462 0.991202
1.0054 0.994896 0.990576
1.00537 0.994686 0.990489
1.00367 1.00193 0.987416
1.00494 0.995498 0.990169
1.00529 0.994732 0.989949
1.00038 1.00496 0.989088
1.00133 1.00345 0.990383
1.00304 1.00274 0.989048
1.00284 1.00513 0.985128
1.00294 0.99994 0.990594
1.00546 0.994702 0.990958
1.00534 0.994783 0.990686
1.00524 0.994682 0.990539
1.00458 0.997385 0.989696
1.00362 1.0002 0.988827
0.999475 1.00338 0.992832
0.999546 1.00515 0.98992
0.998478 1.00358 0.993324
1.00056 1.0026 0.992681
1.00089 0.999403 0.994192
1.00038 1.00141 0.991896
1.00151 1.00115 0.992328
1.00113 1.00361 0.991721
1.0002 1.00426 0.989723
1.00552 0.994697 0.991308
1.00541 0.994684 0.99085
1.0052 0.996674 0.988717
1.00433 1.00148 0.985458
1.00498 1.00034 0.985801
0.998101 1.00489 0.995172
1.00447 0.994659 0.990354
1.00221 1.00299 0.988212
1.00457 1.00285 0.984121
1.00464 0.994842 0.991867
1.00452 0.999909 0.98711
0.998149 0.994664 0.979082
0.997454 1.00507 0.99431
1.00294 0.994557 0.990712
1.00249 1.00427 0.985901
1.00403 1.00165 0.986263
1.00349 0.996871 0.993391
0.999629 0.994889 0.933272
0.994817 0.99466 0.95572
0.99726 0.99457 0.983526
0.994802 0.99815 0.840513
0.994798 1.00066 0.801867
0.997812 1.00312 0.997112
0.996465 1.00298 0.99801
0.995104 1.00523 0.998462
1.00025 1.00457 0.990037
0.999511 1.00506 0.990784
0.998125 1.00502 0.992504
0.996914 1.00473 0.994957
0.995776 1.00177 0.999253
0.998553 1.00456 0.992858
1.00021 1.0047 0.989846
1.00008 1.00489 0.990101
0.995225 1.00491 0.997816
0.9976 1.00496 0.993841
0.997595 1.00482 0.99438
0.995871 1.00522 0.996422
0.998156 1.00496 0.993243
0.999591 1.00497 0.990346
1.00014 1.00465 0.989772
0.998917 1.0045 0.991635
0.997078 1.00463 0.994867
0.998111 1.00484 0.992778
0.999328 1.00443 0.992033
0.999849 1.00399 0.991167
0.999794 1.00427 0.990408
0.999948 1.00304 0.991981
0.99997 1.00318 0.991801
0.999652 0.999933 0.995474
0.999863 1.00353 0.991594
0.99966 1.00006 0.995334
0.99993 0.997831 0.998996
0.99976 1.0001 0.995165
0.999902 0.99787 0.998248
1.00003 0.997809 0.997423
0.9999 1.0027 0.992381
1.00014 1.00313 0.991563
1.00004 0.999845 0.995006
1.00075 1.00314 0.990754
1.0001 1.00032 0.994847
1.00002 0.997973 0.998813
1.00032 1.0005 0.993759
1.00002 0.998514 0.99861
0.99993 0.998884 0.998499
1.0054 0.99479 0.991488
1.00538 0.994837 0.991572
1.00571 0.994674 0.991523
0.998977 0.994678 0.979208
1.00555 0.994735 0.991576
1.00551 0.994645 0.989676
1.0055 0.994622 0.99128
0.994835 0.994765 0.959434
1.00502 0.994666 0.974567
1.0003 1.00392 0.990591
1.00044 1.00399 0.99036
0.998687 1.00363 0.993255
1.00077 1.00428 0.98966
1.00546 0.994782 0.991455
1.00538 0.994804 0.990605
1.00537 0.994687 0.990449
1.00381 1.00184 0.98746
1.00512 0.995649 0.990241
1.00531 0.994733 0.989993
1.00272 1.00248 0.988137
1.00391 1.00521 0.984726
1.00287 0.998304 0.991186
1.00043 1.00486 0.990502
1.00045 1.00271 0.990764
1.00031 1.00514 0.989122
1.00073 1.00397 0.989857
0.998801 1.00496 0.991797
1.00549 0.994726 0.990943
0.999209 1.00376 0.992237
0.999841 1.00493 0.990057
0.996449 1.00482 0.995389
1.00534 0.994801 0.990674
1.00523 0.994683 0.990522
1.00397 0.998799 0.989025
1.00441 0.997392 0.989777
1.0009 1.00226 0.991955
0.999584 1.00025 0.993699
1.00111 1.00142 0.99231
1.00214 1.0014 0.99083
1.00367 0.996655 0.989596
1.00517 0.994552 0.991123
1.0039 0.998861 0.989754
1.00441 0.998625 0.989719
0.996134 1.00445 0.996472
1.00062 1.00255 0.991191
0.997446 0.998796 1.00078
0.99805 1.00496 0.992794
0.999305 0.997443 0.915302
0.998206 1.00471 0.996104
1.00206 1.00331 0.987929
1.00378 0.99468 0.99048
1.00442 0.994812 0.991963
1.00455 0.999757 0.987126
1.00477 1.0026 0.984072
0.997891 0.994626 0.976812
0.998047 1.00435 0.994559
1.00259 0.994584 0.990707
1.00274 1.00426 0.985903
1.00422 1.0015 0.986457
1.00329 0.997136 0.993322
0.998077 0.995001 0.918638
0.994969 0.994693 0.952236
0.996895 0.994608 0.983938
0.996051 0.997655 0.848653
0.994838 1.00068 0.800493
0.997972 1.00449 0.993726
0.997378 0.995549 0.852898
0.994886 0.999929 0.800209
1.00136 0.994714 0.994561
1.00179 1.0033 0.989068
1.00165 1.00032 0.99294
0.99533 0.995211 0.986997
0.997402 0.994642 0.929012
0.995075 0.994688 0.945748
0.994739 0.999244 0.851205
0.994833 0.996355 0.778368
0.99692 1.00269 0.998062
0.994968 1.00526 0.998314
0.995132 1.0051 0.999542
1.00049 1.00436 0.989796
0.999906 1.00505 0.989909
0.99777 1.00474 0.993261
0.997241 1.00498 0.994329
0.995549 1.00447 0.997681
1.00021 1.00472 0.989728
0.997408 1.00468 0.994659
0.99812 1.00496 0.992768
0.999954 1.0049 0.990243
0.995674 1.00519 0.996774
0.996123 1.0052 0.99604
0.994994 1.00509 0.997799
0.99853 1.0051 0.991915
1.00019 1.00476 0.989862
0.999714 1.00408 0.991536
0.997087 1.00434 0.995247
0.997429 1.00362 0.99503
0.997694 1.00432 0.994713
0.995492 1.00493 0.997759
0.998319 1.00226 0.994773
0.99681 1.00513 0.993588
0.998294 1.00492 0.992759
0.998944 1.00458 0.991156
0.99898 1.00445 0.992479
0.999832 1.0043 0.991112
1.00006 1.00307 0.991892
1.00002 1.0044 0.990309
0.999956 1.00298 0.99202
0.999865 0.999819 0.996058
0.999758 1.00347 0.991826
0.999739 0.999871 0.99577
0.999916 0.997719 0.997739
0.999665 1.00003 0.995333
0.99992 0.997847 0.999009
0.999898 0.997931 0.997536
1.0005 1.0043 0.9901
0.999795 1.00259 0.992595
0.99996 1.00261 0.992366
0.99997 0.999474 0.995457
1.00022 1.00312 0.991602
1.00007 0.999835 0.994977
1.00001 0.997705 0.998933
1.00007 1.00051 0.995179
0.999979 0.998073 0.997934
0.999979 0.998377 0.99677
0.998177 0.994675 0.978827
1.00555 0.994729 0.991573
1.00552 0.9946 0.989731
0.995892 0.99479 0.959121
1.00482 0.994623 0.974461
1.0055 0.994596 0.991405
1.00447 0.994498 0.983895
0.999773 0.994715 0.955661
0.997428 0.995386 0.931457
0.996004 0.996333 0.866206
0.994911 1.00166 0.801761
0.999369 1.00411 0.991469
1.00024 1.00399 0.990674
1.00071 1.00386 0.990382
0.998736 1.00375 0.993189
0.997513 1.00452 0.994563
1.0001 1.00474 0.990472
1.00021 1.00508 0.989246
1.00043 1.00442 0.989859
1.00551 0.994747 0.990925
1.00535 0.994712 0.990659
1.00522 0.99468 0.990503
1.00428 0.998709 0.98921
1.00436 0.997348 0.989844
1.00096 1.00144 0.992281
1.00419 1.0006 0.989789
1.00106 1.00106 0.993192
1.00027 1.00434 0.990139
1.0013 1.00215 0.991159
0.998888 1.0046 0.991655
0.995022 1.00514 0.997137
1.0042 0.995575 0.990048
0.996254 1.00474 0.996169
1.00007 1.00234 0.992728
1.0049 0.99458 0.991095
1.00391 0.999108 0.989573
1.00382 0.998887 0.989779
0.998356 0.999823 0.997948
0.999349 1.00351 0.99313
1.00228 0.996239 0.988057
1.00264 0.999354 0.990863
1.00377 1.00091 0.989506
1.00185 0.999067 0.993173
0.997887 1.00488 0.994028
0.996092 1.00229 0.997861
0.99749 1.00287 0.996456
0.999801 0.999937 0.844688
1.00058 0.994888 0.932032
0.999019 1.00291 0.994808
1.00322 1.00408 0.98592
1.0022 0.99461 0.990698
1.00313 0.997206 0.993277
1.00426 1.00126 0.986686
0.999961 0.99484 0.93025
0.995327 0.994696 0.951639
0.996556 0.994653 0.984626
0.994783 0.998788 0.866083
0.994855 0.999881 0.79873
0.99853 1.00415 0.993803
0.999102 0.997114 0.850143
0.99483 0.998561 0.794708
1.00082 0.994799 0.994389
1.00158 1.00341 0.989099
1.00166 1.00022 0.994022
0.995908 0.996171 0.988183
0.995035 0.994642 0.922079
0.99527 0.99468 0.947663
0.994799 0.998974 0.857393
0.994857 0.996986 0.77531
0.99684 1.00518 0.996831
0.994806 0.995292 0.788413
0.994744 0.994732 0.765615
0.997148 1.00005 0.996832
0.999063 1.00273 0.997384
0.994899 0.997742 0.986202
0.995178 0.994752 0.953652
0.994894 0.994544 0.90916
0.994827 0.997385 0.861589
0.994898 0.994905 0.795657
0.995206 1.00527 0.998186
0.995037 1.00485 0.999697
0.994847 1.00525 0.999462
1.0003 1.0047 0.989679
1.00023 1.005 0.990142
0.998282 1.00501 0.99229
0.997244 1.00415 0.994936
0.995567 1.00517 0.997134
1.00028 1.00496 0.989772
0.996393 1.00508 0.995584
0.998756 1.00511 0.991943
0.995072 1.00507 0.997897
0.994882 1.00517 0.998381
0.996237 1.0051 0.995654
0.999938 1.00497 0.991622
1.00029 1.00363 0.991438
0.997056 1.00394 0.995621
0.997968 1.00318 0.995062
0.997861 1.00368 0.994644
0.995681 1.00502 0.996599
0.998848 1.00207 0.995052
0.99542 1.00465 0.996483
0.997042 1.0031 0.997918
0.999711 1.00437 0.991312
1.00515 1.0018 0.986773
0.997447 1.0044 0.991939
0.998271 1.00266 0.994821
0.998527 1.00523 0.991204
0.99784 1.00519 0.9937
0.999478 1.00459 0.990435
0.998997 1.00512 0.992738
0.99942 1.00448 0.991253
0.999527 1.00376 0.991549
0.99986 1.00457 0.991051
0.99993 1.00306 0.991924
0.999968 0.999877 0.995801
1.00008 1.00275 0.992056
0.999849 0.999803 0.995695
1.00005 0.997485 0.997636
0.999714 0.999908 0.995456
0.999968 0.997653 0.999043
0.999919 0.997784 0.999025
1.00069 1.00473 0.989688
0.999855 1.00293 0.992242
1.0005 1.00418 0.990093
0.999981 0.999348 0.995603
0.999992 1.00237 0.99258
1.00012 1.0024 0.992351
0.999997 0.999482 0.995444
0.999996 0.997462 0.999028
1.00007 0.999906 0.995698
1.00002 0.997757 0.998119
1.00001 0.998065 0.997188
0.999357 0.999655 0.834793
0.994842 0.997221 0.783047
0.995196 0.99482 0.960099
1.00469 0.994594 0.974643
1.00553 0.994613 0.991513
1.00291 0.99473 0.952553
1.00337 0.994576 0.984727
0.99934 0.995127 0.927264
0.994769 0.997181 0.845567
0.994892 1.00111 0.800883
0.999136 0.994669 0.966303
0.994835 0.994654 0.932432
0.994733 0.999743 0.852407
0.995229 0.997918 0.792084
1.00004 1.00431 0.992016
1.00008 1.00394 0.991033
1.00017 1.00393 0.990768
0.998775 1.00345 0.993137
0.996967 1.00389 0.99558
1.00043 1.00503 0.989536
0.99929 1.00492 0.991047
1.00117 1.00514 0.987891
1.00039 1.00507 0.989249
0.999505 1.00509 0.99007
1.00459 0.99474 0.990467
1.00475 0.994608 0.991063
1.0037 0.999341 0.989386
1.00298 0.999121 0.989842
0.999968 1.00314 0.993423
0.999076 1.00105 0.995197
0.999023 1.00245 0.994499
0.996357 1.00473 0.995864
1.00207 0.995553 0.988786
0.997694 1.00494 0.993697
0.996057 1.00264 0.998596
1.00248 0.999036 0.991041
1.00368 1.00198 0.987769
1.00104 0.999588 0.993696
0.997705 1.00334 0.996024
0.99918 0.994551 0.986578
1.0012 1.00155 0.992703
0.996974 1.00394 0.996126
0.998779 1.00488 0.992918
0.996108 1.00506 0.995635
0.994903 1.00511 0.998473
0.994819 0.994741 0.795411
0.999655 0.995765 0.856167
0.999785 0.997432 0.915704
0.998609 1.00401 0.993856
1.00172 1.00368 0.989073
1.00023 0.99492 0.994193
1.00145 0.999866 0.995117
0.998912 1.00025 0.864494
0.994925 0.994658 0.916586
0.99493 0.994622 0.945943
0.996359 0.997267 0.989124
0.994815 0.999026 0.84069
0.994768 0.997047 0.800496
0.995166 0.997385 0.789845
0.996936 1.00499 0.996503
0.994829 0.996282 0.792607
0.994766 0.994757 0.765598
0.997726 0.998466 0.997503
0.998701 1.00273 0.997227
0.994973 0.996692 0.987856
0.995422 0.994748 0.949171
0.995367 0.994559 0.922752
0.994817 0.996997 0.840934
0.995316 0.994892 0.803607
0.995716 1.00504 1.00078
0.994716 0.994753 0.772662
0.994815 0.994838 0.77463
0.994815 1.00192 1.00081
0.994881 0.996642 0.962484
0.994798 0.994738 0.921817
0.995186 0.994889 0.848509
0.995378 0.994907 0.827161
0.994902 1.00469 0.999829
0.994828 1.00523 0.999708
0.994777 1.00526 1.00018
1.00009 1.00504 0.989685
0.999038 1.00512 0.991971
0.9967 1.00497 0.995128
0.995101 1.00505 0.997996
0.999122 1.00495 0.991576
0.996407 1.00509 0.995543
0.99486 1.00518 0.998419
0.994769 1.00524 0.99897
0.995524 1.0051 0.997957
0.997517 1.00509 0.994357
0.998524 1.00283 0.995083
0.997635 1.00328 0.994602
0.996135 1.00512 0.995518
0.995863 1.00419 0.996649
0.999 1.00143 0.994914
0.996126 1.00318 0.997979
0.999885 1.00273 0.994855
0.995213 1.00516 0.998527
1.00207 1.00051 0.991792
0.999666 1.00375 0.992266
1.00196 1.00309 0.987909
1.00502 1.00201 0.985092
1.00467 1.00151 0.987227
1.00454 1.00135 0.98692
0.999141 1.00406 0.991872
0.998973 1.00521 0.988921
0.998315 1.00303 0.994874
0.999232 1.00509 0.991292
1.00143 1.00474 0.988265
0.998449 1.00498 0.993804
0.999695 1.00477 0.990491
0.999962 1.00413 0.990453
1.00035 1.00437 0.991347
1.00012 1.00344 0.991557
1.00026 1.00024 0.995125
0.999948 1.00306 0.991963
0.999966 0.999999 0.995284
1.00016 0.99762 0.997394
0.999856 0.999745 0.995385
1.00005 0.997526 0.998344
0.999985 0.997619 0.999036
1.00056 1.00506 0.988589
1.00001 1.00336 0.991634
1.00035 1.0048 0.98951
0.999984 0.999545 0.995395
0.999828 1.00292 0.992267
1.00026 1.00419 0.990079
1.00001 0.99744 0.999037
0.999964 0.999369 0.995603
0.999936 1.00249 0.992572
1.00003 0.999455 0.995433
1 0.997534 0.999003
1.00002 0.99777 0.998881
0.994779 0.994891 0.778827
0.99863 0.99718 0.849345
0.994833 0.994774 0.771577
0.994865 0.997559 0.785317
0.999565 0.99534 0.954377
1.00206 0.99463 0.985614
0.998637 0.994722 0.922046
0.994756 0.997805 0.864278
0.994884 0.999269 0.800321
0.998555 0.994721 0.964864
0.996029 0.994615 0.915609
0.994765 0.999035 0.858633
0.994865 0.997372 0.785215
0.994895 0.994718 0.958322
0.994806 0.994613 0.906099
0.994867 0.996971 0.835565
0.994867 0.994898 0.803371
1.00012 1.00471 0.990563
0.998799 1.00438 0.992149
1.00003 1.00407 0.990596
0.996228 1.00351 0.996533
1.00082 1.00503 0.988541
1.00026 1.0049 0.989728
0.998759 1.00486 0.991613
1.00183 1.00514 0.98738
1.0014 1.0051 0.987925
1.00057 1.00477 0.989245
1.00255 0.994627 0.989403
1.00217 0.998852 0.991232
1.00366 1.00324 0.98605
1.00053 0.999762 0.994231
0.998278 1.00514 0.995572
0.996731 1.00131 0.999345
0.998429 1.00489 0.993321
0.999029 1.00393 0.992928
0.999494 0.995796 0.987277
0.997149 1.00515 0.995199
0.996199 1.00339 0.998506
1.00074 1.00112 0.992573
0.99723 1.00377 0.996245
0.996934 0.99747 0.985691
0.997008 1.0029 0.997496
0.994716 1.00549 0.998433
0.996234 1.00488 0.996512
0.994871 1.00517 0.997996
0.994725 0.994741 0.776705
0.994834 0.994694 0.790039
0.999732 1.00143 0.834811
0.996972 1.00471 0.996236
0.998818 1.00298 0.9971
0.998621 0.997482 0.998129
0.994834 0.99529 0.78659
0.994813 0.994564 0.906342
0.99495 0.994734 0.950645
0.995154 0.995388 0.989942
0.994792 0.997106 0.857696
0.994818 0.994784 0.766292
0.996325 0.994881 0.805745
0.996062 1.00512 1.00058
0.994731 0.994782 0.772106
0.994799 0.994837 0.775737
0.994985 1.00246 0.999329
0.994869 0.995623 0.964146
0.995583 0.994754 0.906197
0.995818 0.994901 0.821437
0.995595 0.995175 0.858062
0.994782 1.00506 1.00208
0.994758 0.994828 0.760271
0.994865 0.994843 0.796147
0.994863 0.994887 0.802711
0.994776 1.00047 0.987068
0.994825 0.995629 0.929026
0.997073 0.994881 0.874
0.994829 1.00518 0.999955
0.994993 1.00504 0.999941
0.994764 1.00503 0.999586
0.998411 1.00504 0.991547
0.996683 1.00506 0.995431
0.994824 1.00508 0.998469
0.996857 1.0051 0.99453
0.995359 1.00456 0.998083
0.994762 1.00517 0.998834
0.994784 1.00509 0.999636
0.995216 1.00509 0.998174
0.99609 1.00366 0.996856
0.99918 1.00075 0.994762
0.99523 1.0031 0.997928
0.995073 1.00488 0.998404
0.998352 1.00193 0.99514
1.00043 1.00113 0.994993
0.99965 1.00144 0.995058
1.00347 1.00169 0.987342
0.999328 1.00302 0.993191
1.00242 1.00281 0.987979
1.00485 1.0032 0.984244
1.00507 1.00204 0.984814
1.00501 1.00141 0.98566
1.00479 1.00198 0.985117
1.00339 1.00405 0.986618
1.00329 1.0026 0.987277
1.0039 1.0012 0.987065
1.00093 1.00366 0.991793
1.0005 1.00521 0.988232
1.00274 1.00521 0.985681
0.999761 1.00519 0.991382
1.00135 1.00518 0.988188
1.00105 1.00487 0.987887
1.00046 1.00502 0.990528
1.00037 1.0038 0.990397
1.00043 1.00055 0.99464
1.00036 1.00292 0.991558
1.00025 1.00028 0.994615
1.00039 0.997895 0.996759
0.999924 1.00013 0.99493
1.00015 0.997587 0.998224
1.00009 0.997493 0.998991
1.00151 1.00513 0.987231
1.00023 1.00373 0.990418
1.00088 1.00507 0.988588
1.00003 0.999903 0.994951
1.00001 1.00338 0.991397
1.00044 1.00486 0.989332
1.00002 0.997565 0.998979
0.999993 0.999508 0.995411
0.999965 1.00265 0.992289
0.999995 0.997445 0.99904
0.999953 0.999376 0.995601
1.00001 0.997534 0.998979
0.994778 0.994799 0.772258
0.994804 0.996137 0.792866
0.999562 0.996 0.849319
1.00138 1.00514 0.987455
0.994776 0.994795 0.775166
0.994804 0.994784 0.771647
0.994874 0.999703 0.797654
0.997603 0.99465 0.964962
0.994826 0.994659 0.930783
0.994736 0.998292 0.841808
0.994848 0.996895 0.796699
0.995129 0.994706 0.955076
0.995085 0.994623 0.92266
0.994897 0.997084 0.842356
0.994955 0.995044 0.803128
0.994961 0.994699 0.948462
0.994818 0.994801 0.91847
0.996475 0.994901 0.860197
0.995066 0.994903 0.82743
0.998108 1.00427 0.993203
0.999292 1.00494 0.99108
0.99866 1.00393 0.992285
1.00169 1.00314 0.9893
1.00105 1.00511 0.988563
1.00013 1.00495 0.98992
1.00199 1.00513 0.987388
1.00154 1.00508 0.987961
0.999005 0.997067 0.987882
0.999912 1.00062 0.99238
0.997597 1.00474 0.992941
0.99721 1.00373 0.996268
0.996483 1.00337 0.998501
0.996945 1.00507 0.994814
0.996077 1.00456 0.995954
0.996623 0.998942 0.985709
0.995524 1.0051 0.997982
0.994941 1.0054 0.998447
0.996385 1.00282 0.997656
0.994982 1.00524 0.996616
0.995742 1.00322 0.983085
0.994697 1.00377 0.999333
0.994735 1.00535 0.999317
0.995032 1.00486 0.997854
0.994724 0.994798 0.758032
0.994716 0.994737 0.77309
0.994844 0.994634 0.784364
0.996013 1.00526 1.00035
0.995043 1.00162 0.997815
0.994744 0.994811 0.771536
0.99476 0.994799 0.922347
0.99486 0.995246 0.959943
0.995704 0.994902 0.857783
0.994778 0.994836 0.776636
0.994893 0.99489 0.815464
0.994848 1.00518 1.00184
0.99476 0.994825 0.760858
0.994877 0.99485 0.793404
0.994738 1.00115 0.99061
0.994879 0.994967 0.802306
0.994831 0.996725 0.923235
0.996489 0.995329 0.87481
0.994739 1.00449 0.996867
0.994832 0.994833 0.778177
0.994788 0.994812 0.777408
0.994868 0.997693 0.790092
0.996686 0.994894 0.860229
0.994801 1.00168 0.968704
0.994946 0.994892 0.916366
0.99526 1.00512 0.999753
0.994956 1.00528 0.999598
0.9947 1.00523 0.998421
0.996279 1.0051 0.994677
0.995326 1.00395 0.998213
0.994754 1.00523 0.998784
0.995311 1.00457 0.998079
0.99476 1.00514 0.999513
0.997119 1.00309 0.999589
0.995011 1.00487 0.998299
0.996851 1.00113 0.995502
0.999146 1.00118 0.995777
1.00129 1.00008 0.991506
0.996697 1.00239 0.997829
1.0027 1.00132 0.988321
1.00467 1.00464 0.982182
1.00461 1.00268 0.984652
1.00308 1.00252 0.987929
1.00494 1.00329 0.983554
1.00514 1.00188 0.98483
1.00513 1.00271 0.984333
1.00481 1.00215 0.984765
1.00435 1.0035 0.986209
1.00389 1.00215 0.985657
1.00448 1.00188 0.985165
1.0025 1.00519 0.985488
1.00236 1.00449 0.986539
1.00189 1.00355 0.987313
1.00146 1.00518 0.987552
1.00298 1.00497 0.985623
1.00216 1.00519 0.985686
1.00102 1.00517 0.988103
1.00137 1.0048 0.987876
1.00043 1.00158 0.992649
1.00126 1.00365 0.990387
1.0006 1.00042 0.993624
1.00015 0.998038 0.998582
1.00031 1.00025 0.994245
1.00029 0.997856 0.997797
1.0002 0.997726 0.998828
1.0013 1.00518 0.987114
1.00072 1.00407 0.989293
1.00135 1.00514 0.987475
1.00014 1.00025 0.994462
1.0003 1.00379 0.990304
1.00108 1.00511 0.988584
1.00004 0.997783 0.99887
1.00006 0.999844 0.994979
0.999921 1.00343 0.991165
1.00001 0.99753 0.998999
0.999993 0.999498 0.995431
0.999987 0.997456 0.999045
0.994728 0.994801 0.765723
0.994764 0.994784 0.772637
0.99481 0.996825 0.791552
1.00161 1.00512 0.987658
1.0004 1.00515 0.987896
1.00219 1.00315 0.990162
0.994879 0.994854 0.794876
0.994802 0.9948 0.776296
0.994784 0.994782 0.771875
0.99576 0.994702 0.956079
0.994861 0.994601 0.9078
0.994881 0.997398 0.859634
0.994893 0.994886 0.798079
0.995062 0.994744 0.951429
0.995219 0.994786 0.914211
0.995992 0.994913 0.861405
0.995607 0.994899 0.82161
0.994934 0.995065 0.951107
0.994763 0.997164 0.924036
0.996863 0.994905 0.874116
0.994896 0.994909 0.798486
0.99764 1.00334 0.99492
0.998288 1.00462 0.993274
0.999195 1.00507 0.991597
1.00122 1.00394 0.989153
1.00089 1.00511 0.988589
1.0019 1.00512 0.987393
0.996219 0.999708 0.986074
0.996394 1.00304 0.997838
0.997085 1.00369 0.995412
0.995378 1.00533 0.998474
0.996442 1.0049 0.997929
0.995162 1.0053 0.996842
0.99519 1.00525 0.997719
0.995425 1.00216 0.983136
0.994688 1.0053 0.999361
0.994674 1.00481 0.997661
0.995287 1.00533 0.997914
0.994747 1.00274 0.982002
0.994744 1.00513 0.994646
0.995199 1.00435 0.998693
0.994851 0.994852 0.763078
0.994725 0.994801 0.758098
0.994704 0.994733 0.769408
0.994895 1.00526 1.00156
0.994736 1.00214 0.985887
0.994754 0.994822 0.761443
0.99481 0.996922 0.924883
0.996499 0.994885 0.862085
0.994888 0.994845 0.790716
0.994875 0.994878 0.797329
0.994722 1.00468 0.997377
0.994807 0.994837 0.776556
0.994812 0.994793 0.778719
0.994833 1.00235 0.964539
0.994845 0.997482 0.783122
0.995819 0.995101 0.860804
0.994859 0.997356 0.929885
0.994765 1.00518 0.987713
0.994748 0.994805 0.76975
0.99481 0.99477 0.772634
0.994922 1.00166 0.800277
0.994815 0.997458 0.833128
0.994802 0.994886 0.927269
0.994822 1.00171 0.958044
0.995122 1.00526 0.999488
0.99475 1.00507 0.998318
0.995108 1.00523 0.998163
0.995287 1.0041 0.99797
0.994749 1.00525 0.999219
0.996076 1.00304 0.999987
0.998507 1.00296 0.998193
0.998062 1.00095 0.996519
1.00307 0.999778 0.990616
1.00176 1.00478 0.985981
1.00211 1.00138 0.98985
1.00435 1.00438 0.982739
1.00425 1.00375 0.983564
1.00521 0.999556 0.986158
1.00516 1.00141 0.985057
1.00479 1.00264 0.984458
1.00494 1.00346 0.98287
1.00514 1.00276 0.984245
1.00518 1.00154 0.984946
1.00529 1.00249 0.984397
1.0049 1.0031 0.984303
1.00462 1.00206 0.984714
1.00248 1.00335 0.987452
1.00346 1.00253 0.986046
1.00352 1.00309 0.985625
1.00273 1.00528 0.9849
1.00275 1.0052 0.98549
1.00111 1.00456 0.986471
1.00266 1.00513 0.985593
1.00276 1.0052 0.985688
1.00081 1.0026 0.991018
1.00231 1.00465 0.987829
1.00064 1.00141 0.992547
1.0003 0.998478 0.998425
1.00084 1.00015 0.993575
1.00038 0.998062 0.997595
1.00032 0.997791 0.998637
1.00247 1.00514 0.986657
1.00123 1.00464 0.988523
1.00179 1.00516 0.987076
1.00022 1.00067 0.993903
1.0007 1.00415 0.989458
1.00138 1.00515 0.987727
1.00007 0.997913 0.998763
1.00015 1.00018 0.994475
1.0005 1.00378 0.990191
1.00003 0.997719 0.998904
1.00008 0.999774 0.995003
1 0.997508 0.999019
0.994839 0.994841 0.774972
0.994743 0.994816 0.766326
0.994775 0.994759 0.77254
1.00099 1.00527 0.987017
1.00333 1.00213 0.990995
1.00108 1.005 0.98787
1.00096 1.00505 0.98779
1.0007 1.00179 0.991099
1.00147 1.00243 0.99131
0.998836 1.00087 0.99538
0.994829 0.99484 0.77758
0.994874 0.994853 0.791896
0.99483 0.994816 0.77724
0.994889 0.994893 0.815463
0.995129 0.994735 0.948277
0.994839 0.994822 0.910356
0.99617 0.995398 0.870867
0.99547 0.994853 0.949256
0.99481 0.996815 0.910117
0.996264 0.994981 0.873408
0.99521 0.994896 0.806095
0.99483 0.996285 0.953505
0.99534 0.99856 0.91162
0.995276 0.994908 0.849143
0.994851 0.996984 0.781763
0.995171 1.0054 0.997057
0.996861 1.00383 0.995681
0.997965 1.00456 0.993355
1.00049 1.00489 0.988995
0.995453 1.00184 0.98307
0.994639 1.00522 0.996145
0.995297 1.00536 0.997109
0.995601 1.00526 0.997826
0.99472 1.00529 0.99962
0.995365 1.00534 0.997907
0.99542 1.00432 0.999196
0.994759 1.00235 0.979013
0.994717 1.00521 0.994531
0.995721 1.00356 0.999648
0.996103 1.00057 0.973782
0.99527 1.00468 0.997041
0.994726 0.994819 0.762376
0.99483 0.994856 0.770847
0.99473 0.994821 0.758167
0.994639 1.00527 0.997892
0.994829 1.00174 0.969587
0.994785 0.994837 0.774871
0.994937 0.994884 0.917248
0.995744 0.995161 0.870744
0.994805 0.994809 0.779728
0.99482 0.997398 0.794556
0.99473 1.00502 0.98904
0.994733 0.994817 0.770492
0.994801 0.994812 0.772735
0.994824 1.00192 0.958752
0.994904 1.00083 0.799379
0.994813 0.997348 0.840123
0.994836 0.994921 0.913405
0.995359 1.00389 0.982201
0.994808 0.994824 0.774345
0.994855 0.996876 0.782666
0.994753 0.999758 0.85105
0.994818 0.995029 0.921445
0.994834 0.998811 0.953887
0.994726 1.00508 0.99922
0.994973 1.0052 0.998224
0.994989 1.0053 0.997814
0.994848 1.00278 1.00039
0.996837 1.00288 0.998715
1.00055 1.00205 0.994118
1.0048 0.999414 0.98974
1.00293 1.0051 0.985309
1.00432 1.00121 0.986469
1.00415 1.00431 0.983294
1.00439 1.00344 0.983669
1.00508 1.00086 0.985567
1.00545 0.996654 0.988402
1.00538 0.998905 0.986915
1.00522 0.999727 0.986179
1.00516 1.00167 0.985388
1.00517 1.00114 0.985112
1.00503 1.00258 0.984262
1.00532 1.00404 0.982905
1.00518 1.0028 0.984385
1.00528 1.00142 0.985065
1.0043 1.00212 0.986961
1.00433 1.00327 0.984843
1.00406 1.00365 0.984272
1.00377 1.00403 0.98538
1.00282 1.00308 0.987396
1.00321 1.00242 0.98588
1.00147 1.00261 0.989705
1.00317 1.00525 0.985033
1.00314 1.00519 0.985494
1.00292 1.00518 0.985688
1.00088 1.00241 0.991028
1.00031 0.999363 0.998049
1.00069 1.00138 0.99247
1.00032 0.998601 0.998315
1.00038 0.997875 0.998516
1.00347 1.00485 0.986912
1.00351 1.00517 0.985874
1.00171 1.00503 0.987469
1.0023 1.00487 0.986658
1.00011 1.00155 0.993237
1.00117 1.00478 0.988505
1.00187 1.00519 0.987034
1.00009 0.9983 0.99862
1.00017 1.00075 0.993923
1.00076 1.00437 0.989616
1.00005 0.997958 0.998792
1.00014 1.0002 0.994496
1.00002 0.99766 0.998939
0.994774 0.994841 0.762865
0.99482 0.994832 0.773452
0.994741 0.994819 0.76699
1.00195 1.0052 0.986533
0.999995 1.00243 0.991733
1.00314 1.00274 0.987793
0.998371 1.00501 0.991106
1.0024 0.998097 0.993142
1.00112 1.0051 0.987647
0.999828 1.0026 0.992208
1.00088 1.00269 0.991302
0.998796 0.999492 0.997912
0.999328 1.00148 0.996155
0.99478 0.994754 0.770303
0.994815 0.994842 0.778779
0.994862 0.994843 0.789137
0.995849 0.99488 0.808523
0.996413 0.99491 0.862029
0.995203 0.994859 0.947506
0.994737 0.997137 0.923107
0.994861 0.997323 0.947624
0.994871 0.998077 0.923814
0.995372 0.994983 0.858595
0.994869 0.99737 0.778741
0.994905 1.00015 0.948751
0.994931 0.995721 0.923161
0.994859 0.997385 0.862921
0.994824 1.00166 0.804319
0.998301 1.00061 0.998209
0.995393 1.00507 0.997355
0.99715 1.00364 0.996462
0.994786 1.00182 0.97534
0.994754 1.00523 0.993438
0.995334 1.00535 0.997795
0.994872 1.00415 0.999447
0.995579 1.00402 0.999625
0.994912 1.00411 0.997696
0.994842 1.00214 0.974654
0.994976 1.00225 1.00332
0.994774 1.00148 0.981531
0.994752 0.994754 0.780529
0.99474 0.994832 0.762063
0.994812 0.994849 0.77917
0.994759 1.00468 0.989096
0.994841 0.999385 0.955983
0.994739 0.994819 0.771194
0.994817 0.994897 0.92457
0.994802 0.997511 0.856916
0.994834 0.994809 0.77309
0.994912 0.999135 0.798885
0.995042 1.00402 0.983182
0.994816 0.994802 0.774204
0.994876 0.997864 0.784859
0.994849 0.998125 0.955572
0.994771 0.999124 0.85774
0.99523 0.994816 0.910587
0.994817 1.00257 0.981023
0.994788 0.995327 0.778299
0.99541 0.996628 0.866257
0.994803 0.994593 0.905546
0.994935 0.995131 0.954004
0.994837 1.0053 0.998323
0.9949 1.00529 0.997631
0.997713 1.00001 0.997358
0.99535 1.00284 0.99922
0.999489 1.00213 0.994965
1.00409 0.996286 0.993331
1.00405 1.00517 0.984616
1.00413 1.00115 0.98639
1.00505 0.996585 0.989454
1.00446 1.00333 0.983779
1.00504 1.00053 0.985585
1.00533 0.997073 0.988412
1.00547 0.99476 0.99046
1.00552 0.99606 0.988589
1.00545 0.996585 0.988432
1.00551 0.998559 0.98727
1.00539 0.998951 0.98685
1.00522 0.999842 0.986201
1.00534 1.00184 0.984682
1.00513 1.00132 0.985239
1.00515 1.00082 0.985169
1.00526 1.00481 0.983335
1.00452 1.00388 0.983416
1.00511 1.00247 0.984527
1.00275 1.00457 0.986266
1.00314 1.00279 0.986874
1.00287 1.00339 0.985303
1.00248 1.00361 0.989428
1.00307 1.00416 0.985545
1.00273 1.00292 0.98733
1.00062 1.00053 0.99414
1.00183 1.00291 0.990033
1.00314 1.00524 0.98518
1.00117 1.00229 0.991003
1.00045 0.999556 0.997893
1.00039 0.998893 0.998193
1.00254 1.00367 0.986228
1.00322 1.00509 0.985838
1.00123 1.00491 0.987319
1.00172 1.00516 0.987234
1.00237 1.00512 0.985933
1.00002 1.00201 0.992894
1.00152 1.00513 0.987478
1.0022 1.00517 0.986647
1.00009 0.998622 0.998473
1.00011 1.00139 0.993297
1.00091 1.00484 0.988487
1.00006 0.998192 0.998666
1.00015 1.00063 0.993941
1.00004 0.997903 0.998822
0.99475 0.994818 0.778012
0.994777 0.994833 0.763548
0.994793 0.994848 0.771559
1.00302 1.00535 0.984202
1.00159 1.00522 0.986135
0.998938 1.00264 0.99269
1.0003 1.00507 0.990355
1.00386 1.00139 0.987495
1.00147 0.997628 0.995686
1.00381 1.00089 0.988673
0.995364 1.00528 0.9948
0.999819 1.00305 0.99117
0.997712 0.996876 1.00019
0.997241 1.00276 0.996244
0.997439 1.00324 0.996066
0.994898 0.999926 0.801781
0.99479 0.994775 0.770177
0.994799 0.994846 0.779659
0.995265 0.997398 0.79298
0.995467 0.994896 0.857713
0.995305 0.998561 0.911964
0.99511 0.995952 0.948413
0.995472 0.999055 0.95019
0.994868 1.00082 0.80313
0.994829 0.997055 0.914453
0.994845 0.997275 0.84244
0.994838 0.996931 0.957329
0.994779 0.994795 0.924174
0.994741 0.998832 0.852824
0.998815 0.997609 1.00235
0.99782 1.0008 0.99819
0.995115 1.00537 0.997635
0.994753 1.00252 0.9753
0.994714 1.00322 0.998326
0.995516 1.00352 0.9997
0.995495 1.00045 1.00366
0.995005 1.00029 0.981804
0.99555 0.996228 0.995337
0.994801 0.994702 0.792074
0.994745 0.994776 0.778953
0.994769 0.994821 0.761355
0.994768 1.00463 0.9831
0.99484 0.999795 0.955293
0.994804 0.994797 0.774305
0.994837 0.994798 0.90875
0.994733 0.99802 0.84071
0.99488 0.999944 0.797175
0.994823 1.00428 0.98076
0.994819 0.996714 0.792773
0.99477 0.997043 0.845242
0.995271 0.994897 0.947704
0.995135 0.994611 0.921966
0.996209 0.997804 0.986633
0.998962 0.999882 0.834348
0.994826 0.994652 0.932628
0.994966 0.994698 0.94549
0.994838 1.0053 0.99751
0.997698 1.00095 0.996873
1.00103 0.995846 0.994938
0.99836 1.00263 0.995819
1.00312 0.997017 0.993081
1.00496 0.994618 0.992402
1.00402 1.00097 0.986316
1.00505 0.99635 0.989325
1.00524 0.994945 0.990526
1.00494 1.00006 0.985603
1.00532 0.996909 0.988318
1.00543 0.99471 0.990348
1.00536 0.994751 0.991043
1.00545 0.994781 0.990552
1.00546 0.994767 0.990462
1.00554 0.995772 0.988908
1.00553 0.996009 0.98876
1.00545 0.996531 0.988464
1.00553 0.998176 0.9872
1.0055 0.998385 0.987124
1.00539 0.999018 0.98678
1.00543 1.00286 0.982761
1.00536 1.00188 0.984608
1.00522 1.00101 0.985088
1.00372 1.00382 0.984899
1.00418 1.00454 0.983408
1.00413 1.00395 0.983927
1.00272 1.00361 0.986662
1.00329 1.00369 0.986143
1.00206 1.00306 0.986776
1.00021 1.00272 0.996754
1.00241 1.00368 0.987276
1.0035 1.0035 0.985664
1.00065 1.00021 0.997462
1.0019 1.00294 0.989232
1.00056 0.999641 0.997733
1.00442 1.00509 0.98354
1.00388 1.00282 0.98619
1.00225 1.00449 0.986038
1.00212 1.00515 0.987342
1.00279 1.00492 0.985824
1.00137 1.00439 0.987705
1.00046 1.00215 0.992249
1.00169 1.00518 0.987217
1.00272 1.00442 0.985995
1.00013 0.999127 0.998415
0.999973 1.00203 0.992879
1.00146 1.00522 0.987487
1.00005 0.998704 0.998518
1.00008 1.00148 0.993344
1.00003 0.99818 0.998707
0.994798 0.995504 0.786186
0.994759 0.99481 0.778074
0.994779 0.994826 0.764355
1.00295 1.00488 0.984609
1.00483 1.003 0.986045
1.00125 1.00431 0.987154
1.00022 1.00523 0.989564
1.00463 1.00086 0.987214
0.996729 0.998933 0.997952
0.998052 1.00278 0.994473
1.00175 1.00187 0.990008
1.00082 1.00137 0.992165
0.998747 1.0024 0.994838
0.997331 1.00297 0.996358
0.998607 1.0029 0.99608
0.994815 0.999288 0.841212
0.994842 0.999074 0.796668
0.99482 0.994795 0.770771
0.99488 0.99979 0.801514
0.994818 0.997314 0.85928
0.99484 0.99605 0.91278
0.994939 1.00058 0.948251
0.995163 0.99737 0.952685
0.99481 0.999048 0.858399
0.995092 0.994778 0.909282
0.994911 0.994829 0.959025
0.994913 0.994544 0.909493
0.998214 0.997029 1.00511
0.99876 0.997766 1.00202
0.997501 1.00097 0.99814
0.995349 1.00069 0.982062
0.996157 0.999463 1.00395
0.995546 0.996567 0.994748
0.995343 0.994688 0.992074
0.999221 0.999945 0.84418
0.994829 0.994671 0.788051
0.99474 0.994804 0.777254
0.994851 1.00391 0.981322
0.99506 0.995022 0.948655
0.994829 0.996824 0.791032
0.994867 0.99459 0.908188
0.994765 0.997941 0.864005
0.996049 0.997949 0.9829
0.99863 0.996926 0.849563
0.995765 0.994611 0.915966
0.995201 0.994733 0.947543
0.997531 0.99582 0.982157
0.997417 0.994847 0.931936
0.994898 0.994722 0.9566
0.997412 1.00208 0.99642
1.00059 0.996127 0.994888
1.00346 0.995437 0.992905
1.00225 0.997323 0.992839
1.00454 0.994642 0.992298
1.00517 0.994572 0.991349
1.00508 0.996229 0.989199
1.00523 0.995064 0.990398
1.00542 0.994599 0.990441
1.00526 0.996726 0.988222
1.00545 0.994705 0.990301
1.00538 0.994734 0.99068
1.00542 0.994823 0.990706
1.00536 0.994748 0.991004
1.00538 0.994777 0.990993
1.00538 0.994817 0.990886
1.00544 0.994797 0.990682
1.00544 0.994772 0.990465
1.00551 0.995781 0.989228
1.00554 0.995732 0.988966
1.00554 0.99595 0.988932
1.00558 1.00009 0.985164
1.00555 0.998269 0.987207
1.00549 0.998239 0.986981
1.00534 1.00339 0.982094
1.00542 1.00317 0.98295
1.0054 1.00192 0.984533
1.00278 1.00414 0.986128
1.00374 1.00422 0.984782
1.00337 1.00463 0.983498
1.0015 1.00187 0.996354
1.00286 1.00378 0.986692
1.00291 1.00367 0.986041
1.00081 1.00201 0.994716
1.00268 1.00335 0.987556
1.00093 1.00091 0.997068
1.00494 1.00397 0.982539
1.00411 1.00518 0.983476
1.00351 1.00314 0.985094
1.00423 1.00259 0.98615
1.00333 1.00416 0.986146
1.00221 1.00521 0.986974
1.00149 1.00257 0.990487
1.00175 1.00515 0.987228
1.00193 1.00511 0.985821
1.00031 0.998862 0.998084
1.00039 1.00214 0.992217
1.00177 1.00519 0.987203
1.00005 0.998755 0.998419
1.0001 1.00169 0.992905
1 0.998561 0.998565
0.997373 0.995743 0.851967
0.994823 0.996243 0.791312
0.994754 0.994809 0.778285
1.00332 1.00501 0.985016
1.00187 1.00513 0.987173
1.00454 1.00231 0.985354
1.0052 0.998956 0.987637
1.00304 0.999919 0.990499
1.00088 1.00313 0.994149
1.00245 1.00046 0.991339
1.00146 1.00173 0.992378
1.00483 0.997136 0.99044
1.0018 1.0003 0.992868
1.00277 0.999065 0.992477
1.00021 1.00082 0.995037
0.999054 1.0028 0.996221
0.997391 0.994645 0.927243
0.996063 0.998261 0.84864
0.994789 0.99749 0.801875
0.994813 0.999558 0.842342
0.994781 0.994797 0.92006
0.995316 0.997777 0.956896
0.995121 0.99485 0.961495
0.995028 0.994586 0.925191
0.99553 0.99477 0.956728
0.997529 0.995108 1.00454
0.997641 0.997272 1.00524
0.99867 0.997884 1.00174
0.995329 0.996713 0.994437
0.996379 0.99488 0.993429
0.999406 0.997426 0.915385
0.999597 0.996686 0.854617
0.994852 0.994639 0.783749
0.996206 0.997371 0.978598
0.995019 0.994718 0.945828
0.999206 0.996098 0.849277
0.994814 0.994647 0.930977
0.997857 0.994904 0.98227
0.999205 0.995015 0.927576
0.995177 0.99472 0.953178
0.999575 0.994583 0.98243
0.998267 0.994701 0.965626
1.00026 0.996522 0.99477
1.00246 0.995221 0.993021
1.00488 0.994654 0.991685
1.00406 0.994678 0.992189
1.00506 0.994583 0.991276
1.00537 0.994659 0.990591
1.00518 0.995186 0.990268
1.00541 0.99462 0.990393
1.00542 0.994772 0.990371
1.00547 0.994704 0.990255
1.00537 0.994743 0.990693
1.0054 0.994797 0.99053
1.00542 0.994818 0.990662
1.00543 0.994849 0.99068
1.00536 0.994744 0.990964
1.00539 0.994767 0.990998
1.00539 0.994811 0.990939
1.00542 0.994984 0.99072
1.00539 0.994824 0.990871
1.00544 0.994812 0.990813
1.00551 0.998521 0.986891
1.00551 0.995876 0.989202
1.00555 0.995682 0.989021
1.00549 1.00383 0.981646
1.00559 1.00042 0.9852
1.00556 0.998339 0.987215
1.00338 1.00369 0.985395
1.0051 1.00399 0.982205
1.0054 1.00337 0.983143
1.00172 1.00179 0.99603
1.00294 1.00392 0.986007
1.0036 1.00453 0.98469
1.00152 1.00157 0.996234
1.00294 1.0036 0.986733
1.00135 1.00126 0.996455
1.00532 1.00208 0.985274
1.00517 1.00447 0.982664
1.00384 1.00493 0.982378
1.00411 1.0045 0.983401
1.00326 1.00422 0.984612
1.00237 1.00449 0.985346
1.00324 1.00339 0.986229
1.00188 1.00495 0.986867
1.00223 1.00346 0.98822
1.00053 1.00051 0.99734
1.00092 1.003 0.990452
1.00139 1.00516 0.987119
1.00015 0.999465 0.998221
0.999838 1.00268 0.992121
1.00004 0.998942 0.998438
0.999857 0.994839 0.932967
0.999493 0.998365 0.848306
0.99483 0.995446 0.785794
1.0014 1.00503 0.987185
1.00504 1.00213 0.984674
1.00362 1.00032 0.989689
1.00506 0.99932 0.987287
1.00535 0.996761 0.988861
1.00491 0.996105 0.990534
1.00217 1.00048 0.992532
1.00487 0.997526 0.989667
1.00207 1.00081 0.992512
1.00441 0.998712 0.989512
1.0023 1.00075 0.990512
1.00318 0.998305 0.993746
1.00245 0.999994 0.992758
1.00076 0.999977 0.995211
0.994944 0.994687 0.956933
0.995918 0.994631 0.921946
0.994801 0.999437 0.865751
0.994834 0.994553 0.908113
0.994861 0.995241 0.962741
0.995544 0.994761 0.96389
0.998552 0.99464 0.989108
0.998795 0.994843 1.00302
0.997233 0.997359 1.00538
0.997228 0.994814 0.994764
0.999404 0.994712 0.955543
1.00067 0.994847 0.932043
0.999162 1.00244 0.833111
0.997905 0.99471 0.982729
0.99553 0.99472 0.953888
0.998032 0.994724 0.92244
0.999691 0.994625 0.983145
0.997623 0.99473 0.964189
1.00136 0.995909 0.986918
1.00419 0.994565 0.983128
1.00133 0.99468 0.993168
1.0042 0.994642 0.99183
1.00531 0.994802 0.99066
1.00492 0.994583 0.991202
1.00538 0.994645 0.99058
1.00544 0.994743 0.99045
1.00541 0.994641 0.990344
1.00542 0.994763 0.990385
1.0054 0.994816 0.990564
1.00537 0.994747 0.990706
1.00541 0.9948 0.990539
1.00541 0.994865 0.990681
1.00542 0.994812 0.99062
1.00543 0.994847 0.990667
1.00537 0.99487 0.990887
1.00539 0.994762 0.991003
1.00538 0.994804 0.990947
1.00538 0.99499 0.990827
1.00542 0.996913 0.98875
1.00542 0.995148 0.990479
1.00539 0.994828 0.990856
1.00545 1.00228 0.983228
1.00553 0.99869 0.986886
1.00551 0.995974 0.989176
1.00376 1.0033 0.985072
1.0054 1.00392 0.981703
1.00559 1.0008 0.985237
1.00236 1.00203 0.99557
1.00329 1.00382 0.985275
1.00483 1.00464 0.982298
1.00194 1.00209 0.995805
1.0031 1.00381 0.985871
1.00162 1.00184 0.996053
1.0055 0.998705 0.986776
1.00516 1.00201 0.984978
1.00543 1.00341 0.983305
1.00493 1.00416 0.982776
1.00484 1.00478 0.982237
1.00369 1.00513 0.983084
1.00436 1.0054 0.984153
1.00361 1.00415 0.985508
1.00247 1.00402 0.986636
1.00241 1.00468 0.986817
1.0019 1.00371 0.988239
1.0008 1.00184 0.996538
1.00033 1.00002 0.997635
1.00072 1.00305 0.990445
1.00002 0.999025 0.998312
0.994883 0.994772 0.961371
0.997913 0.995197 0.916232
0.999229 1.00165 0.863601
1.00548 0.995214 0.989837
1.00394 1.0007 0.988905
1.00504 0.999364 0.98694
1.00512 0.996429 0.990386
1.00538 0.99679 0.988951
1.00536 0.995684 0.989975
1.00474 0.997942 0.988933
1.0015 1.00097 0.992212
1.00448 0.998032 0.989538
1.00247 1.00117 0.989306
1.00341 0.999046 0.990201
1.00374 0.994456 0.994395
1.0021 0.99785 0.994281
1.00188 1.00039 0.993049
0.997461 0.994668 0.987362
0.995135 0.994687 0.95477
0.994911 0.994651 0.916976
0.994943 0.994735 0.964305
0.998571 0.994638 0.991062
0.999485 0.995026 1.00146
1.00463 0.994619 0.974091
1.00127 0.994739 0.952713
0.999721 0.997434 0.916015
0.99952 0.994679 0.983787
0.996074 0.99469 0.964117
1.00129 0.995309 0.9877
1.00261 0.994583 0.983791
1.00308 0.995971 0.989948
1.00553 0.994497 0.990441
1.00369 0.994652 0.991971
1.00531 0.994767 0.990627
1.00545 0.994959 0.990546
1.00538 0.994634 0.99057
1.00544 0.994757 0.990461
1.00541 0.99482 0.990723
1.00542 0.994754 0.990399
1.0054 0.994813 0.990544
1.00538 0.994866 0.990862
1.00541 0.994804 0.990547
1.00541 0.994866 0.990677
1.00537 0.994901 0.990885
1.00543 0.994846 0.990655
1.00537 0.994865 0.990852
1.00526 0.994881 0.991186
1.00538 0.994797 0.990954
1.0054 0.994913 0.990878
1.00539 0.996029 0.990004
1.00536 1.00132 0.984753
1.00545 0.997201 0.98849
1.00542 0.995305 0.990237
1.00398 1.00243 0.98559
1.00544 1.00248 0.98324
1.00552 0.998839 0.98688
1.00299 1.00165 0.995403
1.00371 1.00332 0.985123
1.00544 1.00412 0.981757
1.00247 1.00206 0.995495
1.00321 1.00387 0.985178
1.00204 1.00225 0.995645
1.0055 0.996389 0.988787
1.00546 0.998814 0.986794
1.00558 1.00099 0.985024
1.00491 1.00234 0.984693
1.0054 1.00345 0.9833
1.00497 1.00466 0.981748
1.00534 1.00495 0.982103
1.00418 1.00488 0.983083
1.00271 1.00416 0.985998
1.00316 1.00477 0.985528
1.00251 1.00421 0.986729
1.00105 1.00302 0.996123
1.0016 1.00405 0.988252
1.00053 1.00179 0.996838
1.00012 1.00022 0.997894
0.998021 0.994724 0.985197
0.996278 0.994792 0.955231
1.00001 0.994836 0.932455
1.00545 0.994825 0.990149
1.00545 0.994735 0.990385
1.00548 0.995181 0.989909
1.00525 0.996853 0.990212
1.00541 0.996725 0.989048
1.00536 0.995756 0.989984
1.00542 0.995017 0.990132
1.00468 0.997499 0.989548
1.0035 1.00198 0.988093
1.0038 0.998298 0.990289
1.00527 0.994576 0.991327
1.0037 0.994662 0.992909
1.00268 0.994446 0.99437
1.00182 0.997505 0.994835
0.998659 0.994642 0.987171
0.995524 0.994734 0.953932
0.999552 0.994618 0.99312
1.00531 0.994575 0.988995
1.00441 0.994614 0.973934
0.999186 0.9948 0.954326
1.00176 0.994722 0.988353
1.00108 0.994602 0.984484
1.00369 0.995401 0.990215
1.00544 0.994505 0.990711
1.00555 0.994716 0.990939
1.00562 0.994569 0.991389
1.00532 0.994733 0.990599
1.00544 0.994874 0.990574
1.00545 0.994817 0.991044
1.00545 0.994769 0.990472
1.00541 0.994818 0.990725
1.00537 0.994851 0.991056
1.00541 0.99481 0.990525
1.00538 0.994867 0.990863
1.00536 0.994909 0.991035
1.00541 0.994868 0.990674
1.00536 0.994902 0.990888
1.00522 0.994927 0.991299
1.00537 0.994861 0.990818
1.00529 0.994881 0.991127
1.00536 0.995418 0.990719
1.00542 0.994843 0.990928
1.00536 0.996093 0.989952
1.00531 1.00037 0.985859
1.00399 1.00168 0.98647
1.00533 1.00131 0.984783
1.00548 0.997504 0.988229
1.00347 1.00098 0.995321
1.00396 1.00248 0.985657
1.00547 1.00257 0.983255
1.00309 1.00163 0.995334
1.00364 1.00342 0.985168
1.00264 1.00222 0.995411
1.00543 0.995104 0.990225
1.00548 0.99632 0.988941
1.00546 0.999105 0.986805
1.00539 0.998912 0.986816
1.00554 1.00084 0.984958
1.0054 1.00426 0.981692
1.00546 1.00323 0.983293
1.00498 1.0048 0.981663
1.00282 1.00422 0.985479
1.00517 1.00373 0.983165
1.00271 1.00411 0.986107
1.00146 1.00276 0.995915
1.00246 1.00421 0.986825
1.00097 1.00252 0.996241
1.00032 1.00134 0.997134
1.00373 0.994771 0.991925
0.997634 0.994733 0.982477
0.995674 0.994781 0.957428
1.00546 0.994714 0.990237
1.00545 0.994831 0.990169
1.00536 0.994828 0.990765
1.00546 0.994745 0.990373
1.00547 0.995171 0.989971
1.00543 0.994678 0.990544
1.00535 0.995739 0.989988
1.00538 0.99487 0.990161
1.00531 0.994727 0.990969
1.00405 0.997556 0.990378
1.0053 0.994573 0.990894
1.00281 0.994881 0.993091
1.0013 0.994436 0.994371
0.999382 0.994606 0.986855
1.00553 0.994661 0.991648
1.00533 0.994565 0.989041
1.00405 0.994597 0.973888
1.00414 0.994812 0.990432
1.00548 0.994531 0.990963
1.00552 0.994714 0.990819
1.00566 0.994581 0.991585
1.0055 0.994751 0.991538
1.00544 0.994792 0.990602
1.00544 0.994816 0.991039
1.00538 0.994845 0.991345
1.00541 0.994817 0.990728
1.00536 0.994854 0.991055
1.00535 0.994897 0.991245
1.00538 0.994867 0.990864
1.00536 0.994909 0.99104
1.00524 0.99495 0.991389
1.00536 0.994902 0.990891
1.00523 0.994927 0.991289
1.00532 0.995042 0.991307
1.00533 0.994881 0.991068
1.00531 0.995507 0.990698
1.00536 0.999527 0.986737
1.00534 0.996155 0.9899
1.00531 1.00036 0.985881
1.00382 1.00133 0.989217
1.00382 1 0.991263
1.00403 1.00165 0.987532
1.0053 1.00129 0.984807
1.0034 1.0009 0.99537
1.00395 1.00248 0.985711
1.00317 1.00157 0.995295
1.00532 0.994915 0.991056
1.00537 0.994828 0.990856
1.00544 0.995091 0.990344
1.00542 0.99733 0.988502
1.00547 0.996238 0.989095
1.00549 0.998881 0.986777
1.00543 1.00338 0.982433
1.00555 1.00085 0.98489
1.00547 1.00421 0.981628
1.0034 1.00386 0.985028
1.00517 1.00501 0.981572
1.00301 1.00412 0.985503
1.00219 1.00271 0.995528
1.00276 1.00411 0.986228
1.00142 1.00274 0.996015
1.00071 1.00264 0.996429
1.00541 0.994764 0.991501
1.00303 0.994803 0.991434
0.997696 0.994751 0.97961
1.00536 0.994814 0.990764
1.00545 0.994728 0.9902
1.00545 0.994818 0.990195
1.00534 0.994826 0.990818
1.00546 0.994758 0.990362
1.00538 0.994798 0.991114
1.0054 0.994666 0.990496
1.00535 0.994765 0.990187
1.00529 0.994715 0.991021
1.00531 0.994567 0.990457
1.00212 0.994622 0.99319
1.00549 0.994765 0.991521
1.00553 0.994655 0.991646
1.00538 0.994534 0.989089
1.00549 0.994708 0.990696
1.00569 0.99459 0.991779
1.00552 0.994743 0.991512
1.00538 0.994848 0.991606
1.00544 0.994812 0.991034
1.00538 0.994846 0.991304
1.00535 0.994892 0.991459
1.00536 0.994857 0.991053
1.00535 0.994898 0.991247
1.00526 0.994927 0.991514
1.00535 0.994909 0.991044
1.00523 0.994949 0.991393
1.00531 0.994936 0.991607
1.00524 0.994927 0.991279
1.00531 0.995079 0.99128
1.00539 0.998789 0.987556
1.00527 0.995594 0.990677
1.00537 0.999521 0.986743
1.0038 1.00088 0.989631
1.00532 1.00033 0.985907
1.00411 1.00113 0.989046
1.00352 0.999783 0.991597
1.00328 1.00033 0.993565
1.00431 1.0016 0.988356
1.0033 1.00081 0.995442
1.00531 0.994898 0.991068
1.00526 0.994902 0.991322
1.00533 0.994919 0.991089
1.00528 0.996018 0.990031
1.00535 0.994821 0.990918
1.00545 0.995084 0.990463
1.00541 0.997103 0.988547
1.00532 1.00188 0.984041
1.00546 0.998688 0.986752
1.00541 1.00348 0.982405
1.00376 1.00298 0.985495
1.00548 1.00404 0.981566
1.00342 1.00377 0.985025
1.00282 1.00212 0.995299
1.00312 1.00398 0.985538
1.00194 1.00248 0.995702
1.00128 1.00261 0.996057
1.00541 0.9948 0.991332
1.00536 0.994769 0.991549
1.00172 0.995331 0.990997
1.00533 0.994856 0.991119
1.00536 0.994809 0.990722
1.00545 0.99474 0.990167
1.00532 0.99483 0.990869
1.00539 0.994802 0.991045
1.00538 0.994652 0.990448
1.00528 0.994695 0.991071
1.00541 0.994834 0.991595
1.00548 0.994769 0.991512
1.00552 0.994648 0.991643
1.00534 0.994869 0.991679
1.00554 0.994736 0.991486
1.00539 0.994847 0.991595
1.00535 0.994893 0.991612
1.00538 0.994847 0.991263
1.00535 0.994892 0.991464
1.00526 0.994918 0.991653
1.00535 0.994898 0.991249
1.00526 0.994928 0.991521
1.00533 0.994945 0.991724
1.00523 0.994949 0.991396
1.00532 0.994938 0.991584
1.00535 0.998181 0.988343
1.0053 0.995116 0.991253
1.0054 0.998793 0.987552
1.00369 1.0006 0.990034
1.00539 0.99951 0.98675
1.00405 1.00074 0.989452
1.00329 0.999827 0.991833
1.00439 1.00093 0.988881
1.0029 0.999974 0.992067
1.00234 1.0007 0.996336
1.00531 0.994907 0.991159
1.00517 0.994926 0.991436
1.00532 0.994907 0.991084
1.00524 0.996128 0.990235
1.00523 0.994897 0.991277
1.00534 0.994921 0.991124
1.00535 1.00031 0.985788
1.00532 0.995894 0.990072
1.00532 0.994808 0.990981
1.00537 0.99691 0.988591
1.00533 1.002 0.984015
1.00384 1.00195 0.986507
1.00545 1.00359 0.982371
1.00376 1.00293 0.985457
1.00297 1.00138 0.995444
1.00349 1.00376 0.985014
1.00271 1.00217 0.995372
1.00189 1.00238 0.995887
1.00535 0.99486 0.991456
1.00541 0.994795 0.991282
1.00533 0.994781 0.991597
1.00532 0.99486 0.991135
1.00534 0.994806 0.990681
1.00541 0.99481 0.990976
1.00534 0.994876 0.991685
1.00541 0.994841 0.991609
1.00546 0.994775 0.991502
1.00534 0.994871 0.991708
1.00534 0.994908 0.991695
1.00539 0.994847 0.991585
1.00535 0.994896 0.991621
1.00525 0.99492 0.991738
1.00536 0.994892 0.991468
1.00526 0.994918 0.991659
1.00534 0.994951 0.991799
1.00525 0.994928 0.991527
1.00534 0.994945 0.991711
1.00532 0.997704 0.988954
1.00533 0.99494 0.99156
1.00537 0.998174 0.988333
1.0035 1.00042 0.99046
1.00542 0.998796 0.98755
1.00391 1.0005 0.989859
1.003 0.999943 0.992077
1.0043 1.00062 0.989282
1.00275 0.999903 0.992303
1.0023 1.00019 0.992519
1.00533 0.994898 0.991414
1.00519 0.994944 0.991454
1.00532 0.994901 0.991141
1.00529 0.995635 0.990675
1.00517 0.994935 0.991438
1.00534 0.994915 0.991101
1.0054 0.999355 0.98688
1.00528 0.995639 0.990588
1.0052 0.994895 0.991231
1.00386 1.00121 0.987276
1.00533 1.00038 0.985762
1.00537 0.995729 0.990112
1.00535 1.00211 0.983987
1.00384 1.00195 0.98643
1.00294 1.00078 0.99565
1.00376 1.00287 0.985416
1.00306 1.00143 0.995372
1.00252 1.00208 0.995479
1.00532 0.994895 0.991641
1.00534 0.994857 0.991414
1.00541 0.994789 0.991231
1.00531 0.994863 0.99115
1.00532 0.994914 0.991696
1.00535 0.994875 0.991692
1.00541 0.994847 0.991623
1.00534 0.994873 0.991737
1.00533 0.994906 0.991706
1.00524 0.994932 0.991885
1.00535 0.994899 0.991631
1.00525 0.994924 0.991783
1.00534 0.994948 0.991778
1.00526 0.994918 0.991664
1.00534 0.994951 0.991795
1.0053 0.99739 0.989327
1.00534 0.994945 0.991699
1.00533 0.997693 0.988941
1.00349 1.00024 0.98896
1.00538 0.998175 0.988321
1.00372 1.00036 0.989391
1.00247 1.00002 0.996038
1.00414 1.00041 0.989684
1.00252 0.999964 0.992534
1.00224 0.999957 0.992753
1.00533 0.994916 0.991564
1.0052 0.994929 0.991566
1.00533 0.9949 0.991441
1.00528 0.994966 0.991509
1.00519 0.99494 0.991481
1.00533 0.994894 0.991123
1.00537 0.997977 0.988382
1.00528 0.995661 0.990657
1.00516 0.994944 0.99144
1.00383 1.00075 0.98782
1.00537 0.998906 0.987311
1.00532 0.995132 0.990939
1.00283 1.0004 0.995797
1.00386 1.00122 0.987229
1.0053 1.00044 0.985739
1.00383 1.00197 0.98636
1.00305 1.00082 0.995582
1.00313 1.00151 0.995328
1.00533 0.994921 0.99161
1.00533 0.994897 0.991631
1.00534 0.994854 0.991372
1.00522 0.994942 0.991945
1.00532 0.994911 0.991687
1.00535 0.994875 0.991698
1.00533 0.994905 0.991716
1.00524 0.994931 0.991887
1.00533 0.99525 0.991387
1.00525 0.994928 0.991828
1.00534 0.995123 0.991595
1.0053 0.996914 0.989912
1.00534 0.994951 0.99179
1.00531 0.997368 0.989317
1.00344 0.999946 0.989313
1.00534 0.997676 0.988931
1.00351 1.0002 0.988976
1.00235 1.00005 0.996092
1.00378 1.0003 0.988523
1.00227 1.00005 0.994491
1.00204 0.999959 0.992987
1.00534 0.994926 0.991612
1.0052 0.994937 0.991701
1.00533 0.994914 0.991566
1.00528 0.994958 0.9917
1.0052 0.994931 0.991584
1.00533 0.994902 0.991468
1.00533 0.997755 0.988778
1.00528 0.995263 0.991239
1.00519 0.994936 0.991507
1.00371 1.00056 0.988235
1.00537 0.997911 0.988451
1.00528 0.995686 0.990639
1.00268 1.00019 0.995902
1.00381 1.00079 0.987792
1.00534 0.99847 0.987748
1.00294 1.0004 0.995745
1.00386 1.00122 0.987176
1.00314 1.00085 0.99551
1.00521 0.99494 0.991905
1.00533 0.994921 0.991618
1.00533 0.994897 0.99162
1.00533 0.9953 0.991367
1.00522 0.994938 0.991934
1.00532 0.994908 0.991677
1.00525 0.99493 0.991889
1.00534 0.995302 0.991379
1.0053 0.996864 0.9899
1.00534 0.995311 0.991411
1.0053 0.997088 0.98969
1.00339 0.999724 0.989607
1.00531 0.997351 0.989305
1.00344 0.999953 0.98932
1.00223 1.00001 0.996173
1.00353 1.00016 0.988989
1.00229 1.00006 0.996118
1.00238 1.00004 0.992545
1.0052 0.994932 0.991877
1.00533 0.994925 0.991534
1.00529 0.994948 0.991793
1.0052 0.994938 0.991705
1.00533 0.994913 0.991569
1.00533 0.998206 0.988338
1.00528 0.994958 0.991701
1.0052 0.994933 0.991602
1.00361 1.00044 0.988556
1.00533 0.998023 0.988489
1.00528 0.995562 0.990969
1.00251 1.00016 0.995957
1.00369 1.00062 0.988219
1.00536 0.997847 0.98852
1.00278 1.00019 0.995863
1.0038 1.00084 0.98776
1.00306 1.00038 0.9957
1.00532 0.995359 0.991295
1.00521 0.994939 0.991928
1.00532 0.994921 0.991625
1.00532 0.997005 0.989754
1.00533 0.995348 0.991355
1.00523 0.994935 0.991924
1.00534 0.995357 0.991371
1.0053 0.996929 0.989905
1.00334 0.999594 0.989834
1.0053 0.997249 0.989471
1.0034 0.999715 0.989607
1.00214 0.999978 0.996261
1.00344 0.999956 0.98933
1.00218 1.00004 0.996213
1.00226 1.00006 0.996152
1.0053 0.994947 0.991885
1.0052 0.994933 0.991807
1.00533 0.994924 0.991456
1.00533 0.998078 0.988508
1.00529 0.994948 0.991793
1.0052 0.99494 0.991708
1.00351 1.00028 0.988896
1.00533 0.998232 0.98835
1.00528 0.994958 0.991702
1.00233 1.00019 0.99601
1.00358 1.0005 0.988552
1.00533 0.998289 0.988199
1.00258 1.00015 0.99594
1.00366 1.00069 0.9882
1.00292 1.00016 0.995817
1.00532 0.997712 0.988942
1.00532 0.995163 0.991576
1.00522 0.994939 0.991951
1.0033 0.999579 0.989942
1.00531 0.997043 0.989776
1.00533 0.9954 0.991343
1.0053 0.99699 0.98991
1.00336 0.999573 0.989826
1.00206 0.999953 0.99632
1.00341 0.999707 0.989605
1.00211 0.99998 0.996278
1.00212 1.00005 0.996242
1.00532 0.99795 0.988713
1.0053 0.994947 0.991843
1.00521 0.994934 0.991738
1.00358 1.0001 0.990685
1.00533 0.998108 0.98852
1.00529 0.994947 0.991793
1.0022 1.00018 0.996098
1.00348 1.00033 0.988897
1.00532 0.998263 0.988364
1.0024 1.00018 0.995992
1.00355 1.00055 0.988548
1.00266 1.00013 0.995918
1.00347 0.999596 0.989739
1.00532 0.997495 0.989247
1.00532 0.994949 0.99186
1.00197 0.999956 0.996386
1.00332 0.999545 0.989926
1.00531 0.997082 0.989801
1.00337 0.999547 0.989818
1.00203 0.999944 0.996345
1.00207 0.99999 0.996303
1.00367 0.999853 0.990897
1.00532 0.997959 0.988723
1.0053 0.994947 0.9918
1.00148 1.00019 0.996913
1.0034 1.0001 0.989255
1.00532 0.998135 0.988535
1.00223 1.00019 0.996072
1.00345 1.00039 0.988899
1.00246 1.00015 0.995973
1.002 0.999795 0.99333
1.00348 0.999645 0.990451
1.00531 0.997294 0.989549
1.00199 0.999952 0.996387
1.00334 0.999522 0.989916
1.00203 0.99994 0.99636
1.00127 1.00004 0.993911
1.00353 0.999776 0.990233
1.00532 0.997971 0.98873
1.00174 1.00014 0.994949
1.00337 1.00009 0.989284
1.00227 1.00018 0.996048
1.002 0.999961 0.99637
1.00331 0.99964 0.989847
1.00198 0.999936 0.99638
1.00172 0.999927 0.995135
1.00339 0.999742 0.989633
1.00211 1.00016 0.99615
1.00198 1 0.99636
1.00202 1.00004 0.99627

TENSORS stress float
0.00310145 -0.000217291 0.00035464
-0.000217291 0.00172474 -6.96584e-05
0.00035464 -6.96584e-05 0.0016934
0.00940752 0.0002617 0.000457101
0.0002617 0.00589861 6.47607e-05
0.000457101 6.47607e-05 0.00592257
0.00264848 -0.000143683 0.000136479
-0.000143683 0.00141839 -2.58323e-05
0.000136479 -2.58323e-05 0.00136808
0.00270299 -0.000119213 0.000316344
-0.000119213 0.00145904 -3.74883e-05
0.000316344 -3.74883e-05 0.00144498
0.00300326 -0.000188122 0.000341666
-0.000188122 0.00165811 -5.95641e-05
0.000341666 -5.95641e-05 0.00163185
0.00322645 -0.000231237 0.000373244
-0.000231237 0.00179953 -7.52841e-05
0.000373244 -7.52841e-05 0.0017692
0.00247665 -0.00030534 6.83477e-05
-0.00030534 0.00107757 -1.78196e-05
6.83477e-05 -1.78196e-05 0.000886165
0.00965892 0.000267373 -7.44764e-06
0.000267373 0.00605504 -4.39664e-06
-7.44764e-06 -4.39664e-06 0.00608518
0.00787536 0.000322549 0.00021505
0.000322549 0.00493695 2.71616e-05
0.00021505 2.71616e-05 0.00489566
0.00853502 0.000172492 0.000164757
0.000172492 0.00530554 1.47995e-05
0.000164757 1.47995e-05 0.0052795
0.00296688 0.000293914 0.000413447
0.000293914 0.00166573 7.37379e-05
0.000413447 7.37379e-05 0.00163335
0.00025189 0.000387444 2.56667e-05
0.000387444 -0.000316952 2.8593e-05
2.56667e-05 2.8593e-05 -0.000576547
0.0021744 -2.12833e-05 0.000299373
-2.12833e-05 0.00110514 6.70655e-06
0.000299373 6.70655e-06 0.00111582
0.00192585 1.60429e-05 8.85285e-05
1.60429e-05 0.000971352 4.45868e-06
8.85285e-05 4.45868e-06 0.000915345
0.00226015 -0.000136959 -9.19341e-05
-0.000136959 0.00117993 1.84295e-05
-9.19341e-05 1.84295e-05 0.00109917
0.00232594 -0.000113667 0.000100814
-0.000113667 0.00123107 -7.24946e-06
0.000100814 -7.24946e-06 0.00118957
0.00274944 -0.000138332 0.000149153
-0.000138332 0.00147642 -2.95633e-05
0.000149153 -2.95633e-05 0.0014247
0.00257094 -0.000141366 0.000121688
-0.000141366 0.00137489 -1.88382e-05
0.000121688 -1.88382e-05 0.00132669
0.00260347 -0.000339505 -5.57229e-05
-0.000339505 0.00116077 1.06758e-05
-5.57229e-05 1.06758e-05 0.000982029
0.00696134 -0.000185827 0.000401252
-0.000185827 0.00433622 -2.34673e-05
0.000401252 -2.34673e-05 0.00437107
0.00254181 -9.1655e-05 0.000306281
-9.1655e-05 0.00135426 -2.85101e-05
0.000306281 -2.85101e-05 0.00134512
0.00287067 -0.000152747 0.000328612
-0.000152747 0.00156922 -4.80769e-05
0.000328612 -4.80769e-05 0.00154967
0.0022345 -0.000214992 8.02194e-05
-0.000214992 0.000963285 -1.31711e-05
8.02194e-05 -1.31711e-05 0.000835606
0.00244742 -0.00028628 7.52946e-05
-0.00028628 0.00107481 -1.72275e-05
7.52946e-05 -1.72275e-05 0.000906718
0.00348978 -0.000223443 0.000398164
-0.000223443 0.00194988 -7.60446e-05
0.000398164 -7.60446e-05 0.00192491
0.00251208 -0.000330152 6.68534e-05
-0.000330152 0.00108637 -1.9226e-05
6.68534e-05 -1.9226e-05 0.000863942
0.00239507 -0.000599362 1.22671e-05
-0.000599362 0.000623362 -5.88302e-06
1.22671e-05 -5.88302e-06 0.000270956
0.00996668 0.00027138 -0.000510419
0.00027138 0.00624163 -6.11458e-05
-0.000510419 -6.11458e-05 0.0062792
0.00531211 0.000237476 -0.000184548
0.000237476 0.0032101 -2.46344e-05
-0.000184548 -2.46344e-05 0.00318108
0.00582574 0.000203977 -0.000201493
0.000203977 0.00352919 -2.80939e-05
-0.000201493 -2.80939e-05 0.00350351
0.0102167 0.000218919 -7.09489e-06
0.000218919 0.00641793 -3.71949e-06
-7.09489e-06 -3.71949e-06 0.00645075
0.000245347 0.000368804 -6.24076e-07
0.000368804 -0.000317936 -1.37928e-06
-6.24076e-07 -1.37928e-06 -0.000575304
0.00232529 9.18779e-05 0.000314855
9.18779e-05 0.00120106 3.47475e-05
0.000314855 3.47475e-05 0.00119123
0.00253099 0.000188794 0.000343545
0.000188794 0.00135452 5.73049e-05
0.000343545 5.73049e-05 0.00132875
0.0031934 0.000328989 0.000193926
0.000328989 0.00156903 3.22081e-05
0.000193926 3.22081e-05 0.00143269
0.00937929 -0.000106183 9.99932e-05
-0.000106183 0.00589628 5.76045e-06
9.99932e-05 5.76045e-06 0.00585893
0.00352851 0.000456736 0.000217776
0.000456736 0.00183199 4.55565e-05
0.000217776 4.55565e-05 0.00164617
0.000105896 0.00034265 2.10168e-05
0.00034265 -0.000385426 3.94402e-05
2.10168e-05 3.94402e-05 -0.000653906
0.00190714 0.000712033 1.59131e-05
0.000712033 0.000366068 5.73357e-06
1.59131e-05 5.73357e-06 -0.000100457
0.00818717 -8.23334e-06 0.000347175
-8.23334e-06 0.00519934 4.89519e-05
0.000347175 4.89519e-05 0.00520714
0.00688775 0.000100107 2.40916e-06
0.000100107 0.00427005 -2.40234e-06
2.40916e-06 -2.40234e-06 0.0043153
0.00458079 0.000117915 -0.000151363
0.000117915 0.00273456 -8.24722e-06
-0.000151363 -8.24722e-06 0.00272599
0.00676799 5.90606e-05 0.000389798
5.90606e-05 0.0041919 5.92828e-06
0.000389798 5.92828e-06 0.00423901
0.00178964 9.36631e-05 8.97629e-05
9.36631e-05 0.000887215 7.7609e-06
8.97629e-05 7.7609e-06 0.0008343
0.000339469 2.38089e-05 1.16379e-05
2.38089e-05 -0.00025129 3.10241e-06
1.16379e-05 3.10241e-06 -0.000353158
0.00708952 0.000265713 0.000225351
0.000265713 0.00444555 2.46377e-05
0.000225351 2.46377e-05 0.00441727
0.00299842 0.000127802 0.000171556
0.000127802 0.00147483 1.38976e-05
0.000171556 1.38976e-05 0.00140494
0.00193917 -0.000113666 -0.000103995
-0.000113666 0.000997614 1.50406e-05
-0.000103995 1.50406e-05 0.00092827
0.00212687 -0.000152068 -0.000102853
-0.000152068 0.00111156 2.01511e-05
-0.000102853 2.01511e-05 0.00102953
0.00234364 -0.000104379 -7.99897e-05
-0.000104379 0.00121201 1.61439e-05
-7.99897e-05 1.61439e-05 0.00113441
0.00268779 -0.000338318 -0.00018573
-0.000338318 0.0012013 3.85841e-05
-0.00018573 3.85841e-05 0.00104147
0.00446573 -5.71675e-05 -0.000152416
-5.71675e-05 0.00266352 -2.98036e-08
-0.000152416 -2.98036e-08 0.00265755
0.0022352 -9.11899e-05 0.000103211
-9.11899e-05 0.00116977 -5.71542e-06
0.000103211 -5.71542e-06 0.00113455
0.003093 -0.00012504 0.000160811
-0.00012504 0.00168763 -3.10887e-05
0.000160811 -3.10887e-05 0.00163513
0.00244969 -0.000127408 0.000109134
-0.000127408 0.00130425 -1.20122e-05
0.000109134 -1.20122e-05 0.00125945
0.00233247 -0.0001957 -4.43004e-05
-0.0001957 0.00101106 4.49422e-06
-4.43004e-05 4.49422e-06 0.000900279
0.0026506 -0.000380775 -6.39036e-05
-0.000380775 0.00118035 1.23987e-05
-6.39036e-05 1.23987e-05 0.000970294
0.00253373 -0.000297717 -5.01817e-05
-0.000297717 0.00112549 8.04821e-06
-5.01817e-05 8.04821e-06 0.000971735
0.00252208 -0.000608904 -9.88606e-06
-0.000608904 0.000706668 2.74434e-06
-9.88606e-06 2.74434e-06 0.000356158
0.00676906 -3.30029e-05 0.000387575
-3.30029e-05 0.00418881 -7.37608e-06
0.000387575 -7.37608e-06 0.00423717
0.00245752 -6.45163e-05 0.000300026
-6.45163e-05 0.00130003 -2.06324e-05
0.000300026 -2.06324e-05 0.00129718
0.00245002 -4.72148e-05 6.17092e-05
-4.72148e-05 0.00116411 -1.58694e-06
6.17092e-05 -1.58694e-06 0.00108538
0.00217397 -0.000165397 7.19807e-05
-0.000165397 0.00093932 -9.03977e-06
7.19807e-05 -9.03977e-06 0.0008319
0.00232658 -0.000252066 7.93329e-05
-0.000252066 0.00100497 -1.55678e-05
7.93329e-05 -1.55678e-05 0.000857699
0.00228145 -0.000382015 2.10632e-06
-0.000382015 0.000447386 -1.47477e-06
2.10632e-06 -1.47477e-06 0.000239399
0.00234697 -0.000537259 7.0897e-06
-0.000537259 0.000544259 -3.15911e-06
7.0897e-06 -3.15911e-06 0.000256847
0.00349249 -0.000201536 0.000403422
-0.000201536 0.00195474 -7.19143e-05
0.000403422 -7.19143e-05 0.0019314
0.00280394 -0.000312219 5.56731e-05
-0.000312219 0.00131542 -1.8133e-05
5.56731e-05 -1.8133e-05 0.00107639
0.00248214 -0.000695468 1.0938e-05
-0.000695468 0.000713923 -5.71329e-06
1.0938e-05 -5.71329e-06 0.000285872
0.00238291 -0.000790591 -2.85597e-06
-0.000790591 0.000342605 2.4498e-06
-2.85597e-06 2.4498e-06 -2.72126e-05
0.00846735 0.000380467 -0.000477883
0.000380467 0.00531481 -6.5876e-05
-0.000477883 -6.5876e-05 0.00532955
0.0101256 0.000182386 -0.000477023
0.000182386 0.00636247 -5.37158e-05
-0.000477023 -5.37158e-05 0.00639724
0.00922759 0.000315942 -0.000490901
0.000315942 0.0057732 -6.39299e-05
-0.000490901 -6.39299e-05 0.00580496
0.000169756 0.00035549 -2.27281e-05
0.00035549 -0.00035831 -2.91193e-05
-2.27281e-05 -2.91193e-05 -0.000616483
0.0077912 0.000301117 -2.82017e-06
0.000301117 0.00486853 -3.17661e-06
-2.82017e-06 -3.17661e-06 0.00489134
0.00859892 0.000362442 -7.13892e-06
0.000362442 0.00538673 -4.61196e-06
-7.13892e-06 -4.61196e-06 0.00540277
0.000386521 0.000231565 -3.19399e-07
0.000231565 -0.000303136 -4.24277e-07
-3.19399e-07 -4.24277e-07 -0.000489738
0.0060445 5.03955e-05 -0.000209122
5.03955e-05 0.00370958 -1.9659e-05
-0.000209122 -1.9659e-05 0.00367638
0.000358604 0.000330536 5.50202e-07
0.000330536 -0.000278642 -3.13491e-07
5.50202e-07 -3.13491e-07 -0.000514929
0.00196406 0.000395178 0.000106738
0.000395178 0.000854555 9.86389e-06
0.000106738 9.86389e-06 0.000626009
0.00176571 0.000726797 -1.14134e-06
0.000726797 0.000247408 1.38287e-07
-1.14134e-06 1.38287e-07 -0.00022973
0.00922737 2.70474e-05 0.000397565
2.70474e-05 0.00585617 5.4888e-05
0.000397565 5.4888e-05 0.00586808
0.000715841 0.000300305 3.52031e-05
0.000300305 3.04636e-05 1.99565e-05
3.52031e-05 1.99565e-05 -0.000121394
0.000527797 0.000186217 1.49135e-05
0.000186217 -0.000208106 1.27543e-05
1.49135e-05 1.27543e-05 -0.000369312
0.000522495 0.000273449 1.82904e-05
0.000273449 -0.000206283 2.32653e-05
1.82904e-05 2.32653e-05 -0.000413403
0.00186798 0.000524994 1.0418e-05
0.000524994 0.000150155 4.65746e-06
1.0418e-05 4.65746e-06 -0.000146284
0.00339989 0.000424378 0.000234909
0.000424378 0.00183252 4.68239e-05
0.000234909 4.68239e-05 0.00165212
0.00176283 0.000655139 1.78157e-05
0.000655139 0.000189672 6.65156e-06
1.78157e-05 6.65156e-06 -0.000219916
0.00175314 0.000716426 2.46289e-05
0.000716426 0.000388909 3.05398e-06
2.46289e-05 3.05398e-06 -0.000154165
0.00218202 0.000940479 -8.43018e-06
0.000940479 0.000297689 -7.0258e-06
-8.43018e-06 -7.0258e-06 -0.000231244
0.00745369 -0.000155973 0.000238545
-0.000155973 0.00475259 3.22243e-05
0.000238545 3.22243e-05 0.00473131
0.00804091 -0.000111211 1.16934e-05
-0.000111211 0.00511592 5.84569e-06
1.16934e-05 5.84569e-06 0.005107
0.0073499 0.000104725 -0.000410725
0.000104725 0.00455843 -2.57161e-05
-0.000410725 -2.57161e-05 0.00460094
0.00697247 9.33299e-05 -0.000401138
9.33299e-05 0.00432103 -1.58825e-05
-0.000401138 -1.58825e-05 0.00436765
0.0068451 8.46376e-05 -5.22483e-07
8.46376e-05 0.00424636 -4.8472e-06
-5.22483e-07 -4.8472e-06 0.00429165
0.00444146 6.21668e-05 -0.000161434
6.21668e-05 0.00263967 -1.01867e-05
-0.000161434 -1.01867e-05 0.00263805
0.00146296 5.31274e-05 7.70243e-05
5.31274e-05 0.000492812 2.76295e-06
7.70243e-05 2.76295e-06 0.000414824
0.00480683 0.000182593 -0.000156179
0.000182593 0.00288983 -1.10864e-05
-0.000156179 -1.10864e-05 0.00287101
0.00161895 0.000137707 7.82759e-05
0.000137707 0.000556078 4.9668e-06
7.82759e-05 4.9668e-06 0.000455647
0.00679412 9.74073e-05 0.000392585
9.74073e-05 0.00421905 6.91489e-06
0.000392585 6.91489e-06 0.00426066
0.000169551 1.14893e-05 1.37016e-05
1.14893e-05 -0.000352329 1.83325e-06
1.37016e-05 1.83325e-06 -0.000449167
0.00290378 7.47251e-05 0.000169515
7.47251e-05 0.00143294 9.77292e-06
0.000169515 9.77292e-06 0.00137558
0.00161784 0.000120909 7.09097e-06
0.000120909 -6.58017e-05 1.54208e-06
7.09097e-06 1.54208e-06 -0.000186293
0.00290146 0.000191245 0.000176168
0.000191245 0.0013895 1.78195e-05
0.000176168 1.78195e-05 0.00130062
0.00167238 0.000256084 5.2298e-06
0.000256084 -5.4093e-05 1.86762e-06
5.2298e-06 1.86762e-06 -0.000211963
0.00217997 2.50924e-05 -0.000298623
2.50924e-05 0.00110351 6.45031e-06
-0.000298623 6.45031e-06 0.00111748
0.00189361 -4.3944e-05 -9.01622e-05
-4.3944e-05 0.000956146 6.11641e-06
-9.01622e-05 6.11641e-06 0.000897758
0.00259455 -8.43e-05 -7.8344e-05
-8.43e-05 0.00136665 1.58348e-05
-7.8344e-05 1.58348e-05 0.00128652
0.0019965 -0.00013339 -0.00010756
-0.00013339 0.00103256 1.84117e-05
-0.00010756 1.84117e-05 0.000957416
0.00244991 -0.000174826 -0.00016265
-0.000174826 0.00107285 1.77084e-05
-0.00016265 1.77084e-05 0.000978889
0.00264452 -0.000281663 -0.000176976
-0.000281663 0.00117988 3.13845e-05
-0.000176976 3.13845e-05 0.00104605
0.00287314 -0.000415062 -0.000195556
-0.000415062 0.00133354 4.30349e-05
-0.000195556 4.30349e-05 0.00113443
0.00264433 -0.000620553 -2.88828e-05
-0.000620553 0.000784918 9.68038e-06
-2.88828e-05 9.68038e-06 0.000435438
0.00684668 -0.000131861 2.6016e-06
-0.000131861 0.00425713 -2.2512e-06
2.6016e-06 -2.2512e-06 0.00429595
0.00214019 -3.97157e-06 0.000109493
-3.97157e-06 0.00109291 -6.76364e-06
0.000109493 -6.76364e-06 0.00107141
0.0012429 -3.41428e-05 -7.97178e-05
-3.41428e-05 0.000343328 3.80563e-06
-7.97178e-05 3.80563e-06 0.000268442
0.00225541 -0.000133031 -4.56959e-05
-0.000133031 0.000978318 4.91707e-06
-4.56959e-05 4.91707e-06 0.000886706
0.00671782 -0.000207775 0.000390832
-0.000207775 0.00409789 -4.63782e-05
0.000390832 -4.63782e-05 0.00410073
0.00317146 -0.000388532 -6.23397e-05
-0.000388532 0.00157621 8.70229e-06
-6.23397e-05 8.70229e-06 0.0013569
0.00242493 -0.000247655 -4.59384e-05
-0.000247655 0.00105884 5.81157e-06
-4.59384e-05 5.81157e-06 0.000927529
0.00229825 -0.000384148 -8.33006e-06
-0.000384148 0.00045035 1.30118e-06
-8.33006e-06 1.30118e-06 0.000250193
0.00271292 -0.000727236 -7.22181e-06
-0.000727236 0.000879081 2.0969e-06
-7.22181e-06 2.0969e-06 0.000444912
0.00236298 -0.000537188 -1.1653e-05
-0.000537188 0.00055713 3.75049e-06
-1.1653e-05 3.75049e-06 0.000264638
0.00239001 -0.000792046 1.05507e-06
-0.000792046 0.000349966 -1.32064e-07
1.05507e-06 -1.32064e-07 -2.08515e-05
0.000204105 -4.78284e-06 1.46784e-05
-4.78284e-06 -0.000340637 1.31476e-07
1.46784e-05 1.31476e-07 -0.000434812
0.00213003 -5.37279e-05 6.42645e-05
-5.37279e-05 0.000920141 -3.559e-06
6.42645e-05 -3.559e-06 0.000835959
0.00213403 -0.000137614 2.07368e-06
-0.000137614 0.000317134 3.37689e-08
2.07368e-06 3.37689e-08 0.000210682
0.00224583 -0.000302998 5.08553e-07
-0.000302998 0.000409921 -4.35977e-07
5.08553e-07 -4.35977e-07 0.000251016
0.00232961 -0.00046599 3.65482e-06
-0.00046599 0.000498273 -1.92198e-06
3.65482e-06 -1.92198e-06 0.000260374
0.00244493 -0.000508602 3.65975e-06
-0.000508602 0.000217627 -2.17352e-06
3.65975e-06 -2.17352e-06 4.64502e-05
0.00966381 -0.000128458 0.000421753
-0.000128458 0.0060772 -4.86013e-05
0.000421753 -4.86013e-05 0.00610234
0.00234809 -0.000712994 8.83182e-07
-0.000712994 0.000246157 9.70767e-07
8.83182e-07 9.70767e-07 -5.22955e-05
5.82925e-05 -0.000295177 1.82544e-05
-0.000295177 -0.000442242 -3.25069e-05
1.82544e-05 -3.25069e-05 -0.000679884
0.0015833 -0.00076541 -7.48123e-06
-0.00076541 0.000145114 -2.05308e-06
-7.48123e-06 -2.05308e-06 -0.000380874
0.00247667 -0.000878001 -7.62813e-06
-0.000878001 0.000488669 4.1172e-06
-7.62813e-06 4.1172e-06 3.86622e-05
0.00252246 -0.000878412 4.61262e-07
-0.000878412 0.000336102 -2.19718e-06
4.61262e-07 -2.19718e-06 5.04376e-06
0.000274815 -0.000272275 2.288e-05
-0.000272275 -0.000243395 -2.80978e-05
2.288e-05 -2.80978e-05 -0.000447725
0.00195596 -0.000359546 5.48282e-06
-0.000359546 0.000887394 1.56974e-06
5.48282e-06 1.56974e-06 0.000509149
0.0080221 0.00033199 -0.000462549
0.00033199 0.00502354 -5.66809e-05
-0.000462549 -5.66809e-05 0.00504412
0.00883447 0.000367942 -0.000483237
0.000367942 0.00553852 -6.74453e-05
-0.000483237 -6.74453e-05 0.00555904
0.000358255 0.000233333 -1.6771e-05
0.000233333 -0.000321936 -1.628e-05
-1.6771e-05 -1.628e-05 -0.000510974
0.00941303 8.76037e-05 -0.000413993
8.76037e-05 0.00592863 -4.56572e-05
-0.000413993 -4.56572e-05 0.00595495
0.0001241 0.000320967 -2.45893e-05
0.000320967 -0.000367856 -3.36143e-05
-2.45893e-05 -3.36143e-05 -0.000613883
0.000279453 0.000322721 -1.8929e-05
0.000322721 -0.000329746 -2.55753e-05
-1.8929e-05 -2.55753e-05 -0.000568075
0.00153537 0.00073079 -1.83984e-05
0.00073079 7.06337e-05 -5.65604e-06
-1.83984e-05 -5.65604e-06 -0.000415902
0.00893183 3.75715e-05 -1.53953e-05
3.75715e-05 0.00565437 -2.64153e-07
-1.53953e-05 -2.64153e-07 0.00567031
0.000819534 0.000263156 9.05875e-07
0.000263156 9.40331e-05 1.02671e-06
9.05875e-07 1.02671e-06 -5.46674e-05
0.00182891 0.000239268 8.47115e-05
0.000239268 0.000657149 8.90197e-06
8.47115e-05 8.90197e-06 0.000515994
0.00196717 0.00034136 9.34609e-05
0.00034136 0.000763572 1.19782e-05
9.34609e-05 1.19782e-05 0.000575708
0.00179704 0.000520139 -3.75944e-07
0.000520139 0.000107782 -3.32448e-07
-3.75944e-07 -3.32448e-07 -0.000189287
5.00697e-05 0.000296017 2.74494e-06
0.000296017 -0.000394932 -1.19672e-06
2.74494e-06 -1.19672e-06 -0.000626026
0.00184641 0.000661151 2.71701e-07
0.000661151 0.000246642 -2.41448e-08
2.71701e-07 -2.41448e-08 -0.000165182
0.00135487 0.000687173 -9.44609e-08
0.000687173 0.000107467 -1.87472e-06
-9.44609e-08 -1.87472e-06 -0.000428814
0.0023498 0.000961714 4.93279e-07
0.000961714 0.000409779 8.91707e-07
4.93279e-07 8.91707e-07 -0.000118728
0.000502328 0.000272101 1.93294e-05
0.000272101 -9.35056e-05 3.01614e-05
1.93294e-05 3.01614e-05 -0.000298532
0.000874167 0.000211785 2.63785e-05
0.000211785 0.000181584 2.08815e-05
2.63785e-05 2.08815e-05 3.81708e-05
-0.0014314 0.000466105 1.46216e-05
0.000466105 -0.00116945 -1.48315e-05
1.46216e-05 -1.48315e-05 -0.00157787
0.00185492 0.0004464 8.98932e-06
0.0004464 9.93776e-05 3.35247e-06
8.98932e-06 3.35247e-06 -0.00014577
0.00183064 0.000587675 1.49191e-05
0.000587675 0.000161015 6.28791e-06
1.49191e-05 6.28791e-06 -0.000187245
0.00238461 0.000725676 2.17819e-06
0.000725676 0.000244836 2.12556e-07
2.17819e-06 2.12556e-07 -4.80186e-05
0.00133442 0.000595067 2.50367e-05
0.000595067 0.000301725 -1.9459e-06
2.50367e-05 -1.9459e-06 -0.000211148
0.00269283 0.000955017 -6.0365e-06
0.000955017 0.000607194 -4.14917e-06
-6.0365e-06 -4.14917e-06 0.000144442
0.00284521 0.00122379 -1.16997e-05
0.00122379 0.000909951 -9.59681e-06
-1.16997e-05 -9.59681e-06 0.000175791
0.00213532 0.000941401 -8.99771e-06
0.000941401 0.000124306 -4.29191e-06
-8.99771e-06 -4.29191e-06 -0.00035759
0.00625425 -0.000149981 0.000181751
-0.000149981 0.00394749 2.11873e-05
0.000181751 2.11873e-05 0.00392918
0.00705674 -0.000168718 3.49582e-06
-0.000168718 0.00447843 3.4157e-06
3.49582e-06 3.4157e-06 0.00445545
0.0078654 -0.000148854 -0.000239805
-0.000148854 0.00498462 -2.01153e-05
-0.000239805 -2.01153e-05 0.00497195
0.000747011 -0.000309854 2.95531e-05
-0.000309854 9.88901e-05 -2.74261e-05
2.95531e-05 -2.74261e-05 -8.10002e-05
0.00895498 -6.08114e-05 0.000371352
-6.08114e-05 0.00566113 -4.56387e-05
0.000371352 -4.56387e-05 0.00567619
0.00763805 0.000263264 -0.000442713
0.000263264 0.00476595 -4.46023e-05
-0.000442713 -4.46023e-05 0.00479557
0.00707799 0.000128524 -0.000403036
0.000128524 0.00438843 -2.22688e-05
-0.000403036 -2.22688e-05 0.00443133
0.000259086 0.000136648 -1.46808e-05
0.000136648 -0.000351313 -7.75834e-06
-1.46808e-05 -7.75834e-06 -0.000478115
0.000166402 5.43397e-05 -1.38476e-05
5.43397e-05 -0.000368565 -3.94463e-06
-1.38476e-05 -3.94463e-06 -0.000472226
0.00679183 5.38522e-06 -0.000387721
5.38522e-06 0.00420285 -5.00547e-06
-0.000387721 -5.00547e-06 0.00425123
0.00673658 -8.44158e-06 8.1984e-08
-8.44158e-06 0.00416737 -1.47523e-06
8.1984e-08 -1.47523e-06 0.00421626
0.000151007 5.7528e-06 -4.44229e-08
5.7528e-06 -0.000368618 2.53965e-07
-4.44229e-08 2.53965e-07 -0.000464144
0.00151561 7.20539e-05 7.78138e-05
7.20539e-05 0.00050714 4.23316e-06
7.78138e-05 4.23316e-06 0.000422432
0.00161818 0.000123396 1.26014e-07
0.000123396 -5.12983e-05 -5.08037e-08
1.26014e-07 -5.08037e-08 -0.000172702
0.000360306 0.0001485 -9.07641e-07
0.0001485 -0.000301576 -3.14492e-07
-9.07641e-07 -3.14492e-07 -0.000444414
0.00169174 0.000257056 -1.76316e-07
0.000257056 -1.53607e-05 1.78772e-08
-1.76316e-07 1.78772e-08 -0.000174419
0.000149058 -3.21845e-05 1.45329e-05
-3.21845e-05 -0.00037127 -7.96794e-08
1.45329e-05 -7.96794e-08 -0.000463792
0.00158072 5.66812e-05 5.97798e-06
5.66812e-05 -7.73571e-05 1.05411e-06
5.97798e-06 1.05411e-06 -0.000189993
0.00163128 0.00018975 6.10037e-06
0.00018975 -6.60425e-05 1.94857e-06
6.10037e-06 1.94857e-06 -0.000201485
0.00242877 0.000187543 4.37411e-06
0.000187543 0.000110325 9.43554e-07
4.37411e-06 9.43554e-07 6.90938e-05
0.00176526 0.000349592 7.39675e-06
0.000349592 1.44726e-05 2.397e-06
7.39675e-06 2.397e-06 -0.000181718
0.00243954 0.000389873 5.07359e-06
0.000389873 0.000155264 1.40766e-06
5.07359e-06 1.40766e-06 5.67736e-05
0.00676552 -9.56222e-05 -0.000391036
-9.56222e-05 0.00419788 7.61908e-06
-0.000391036 7.61908e-06 0.00424034
0.00179299 -0.000169856 -8.96416e-05
-0.000169856 0.000916667 1.27655e-05
-8.96416e-05 1.27655e-05 0.00084816
-5.46373e-05 -2.01702e-05 -8.85137e-06
-2.01702e-05 -0.000518752 1.18008e-06
-8.85137e-06 1.18008e-06 -0.000623385
0.00236684 -0.000124089 -0.000157597
-0.000124089 0.00104107 1.27405e-05
-0.000157597 1.27405e-05 0.00096381
0.00977027 5.29273e-05 -0.000120228
5.29273e-05 0.00609046 6.47528e-06
-0.000120228 6.47528e-06 0.00605966
0.00352836 -0.000457115 -0.000206294
-0.000457115 0.00183489 4.74826e-05
-0.000206294 4.74826e-05 0.0016279
0.00255722 -0.000228783 -0.000169019
-0.000228783 0.00112947 2.39758e-05
-0.000169019 2.39758e-05 0.00101636
0.00230911 -0.00038551 -2.1368e-05
-0.00038551 0.000449062 4.19643e-06
-2.1368e-05 4.19643e-06 0.000256986
0.00235915 -0.00053562 -2.60185e-05
-0.00053562 0.000554808 9.13755e-06
-2.60185e-05 9.13755e-06 0.000257695
0.00281206 -0.000739373 -3.31604e-05
-0.000739373 0.000956471 1.15592e-05
-3.31604e-05 1.15592e-05 0.000522513
0.00241457 -0.000792427 2.27581e-06
-0.000792427 0.000375872 -1.93558e-06
2.27581e-06 -1.93558e-06 4.6121e-06
0.000160499 -6.59363e-06 7.50523e-08
-6.59363e-06 -0.000366061 4.44791e-07
7.50523e-08 4.44791e-07 -0.000460796
0.00221204 -0.000123209 -4.44036e-05
-0.000123209 0.000982164 1.41812e-06
-4.44036e-05 1.41812e-06 0.000901167
0.00198992 -0.000135682 -1.28021e-05
-0.000135682 0.000213288 7.35449e-07
-1.28021e-05 7.35449e-07 0.000107049
0.00223187 -0.000299205 -1.24274e-05
-0.000299205 0.000396389 2.14786e-06
-1.24274e-05 2.14786e-06 0.00023248
0.00985669 -0.000129172 5.04929e-06
-0.000129172 0.00619756 -1.57566e-06
5.04929e-06 -1.57566e-06 0.00622354
0.00188463 -0.000326906 1.47846e-05
-0.000326906 0.000782805 8.85437e-07
1.47846e-05 8.85437e-07 0.000537873
0.00217844 -0.00076082 7.25895e-06
-0.00076082 0.000554513 -3.10457e-06
7.25895e-06 -3.10457e-06 5.29221e-05
0.00239191 -0.000472557 -1.15928e-05
-0.000472557 0.00054049 3.18737e-06
-1.15928e-05 3.18737e-06 0.000301059
0.00240667 -0.000509995 2.99303e-06
-0.000509995 0.000181721 -1.01134e-06
2.99303e-06 -1.01134e-06 2.36235e-05
0.00249327 -0.000876294 2.17501e-06
-0.000876294 0.000504487 -4.34732e-07
2.17501e-06 -4.34732e-07 5.69474e-05
0.00230547 -0.00070356 4.77874e-07
-0.00070356 0.000218673 4.93255e-07
4.77874e-07 4.93255e-07 -8.24399e-05
0.00247457 -0.000872174 -4.08875e-07
-0.000872174 0.000306518 9.46913e-07
-4.08875e-07 9.46913e-07 -2.36245e-05
0.000185803 -0.000294892 1.85778e-06
-0.000294892 -0.000303946 -2.17977e-07
1.85778e-06 -2.17977e-07 -0.000510666
0.000905242 -0.00038383 -2.04042e-06
-0.00038383 0.000256559 1.77761e-07
-2.04042e-06 1.77761e-07 -0.000158264
0.00156483 -6.39021e-05 5.33138e-06
-6.39021e-05 -6.88461e-05 -1.72429e-07
5.33138e-06 -1.72429e-07 -0.000183244
0.00233299 -0.000219073 7.66616e-07
-0.000219073 0.000454982 -2.35463e-07
7.66616e-07 -2.35463e-07 0.00033096
0.00223691 -0.000196223 4.31963e-06
-0.000196223 -2.19388e-05 -8.73219e-07
4.31963e-06 -8.73219e-07 -8.53275e-05
0.00230477 -0.000410704 1.86526e-06
-0.000410704 5.60882e-05 -1.03276e-06
1.86526e-06 -1.03276e-06 -4.77845e-05
0.00228794 -0.000625059 8.51252e-07
-0.000625059 0.000135946 -1.40935e-06
8.51252e-07 -1.40935e-06 -9.27835e-05
0.00248301 -0.000524901 5.00591e-06
-0.000524901 0.000177786 -1.70458e-06
5.00591e-06 -1.70458e-06 7.85335e-05
0.000164568 -0.000274357 1.71065e-05
-0.000274357 -0.000342606 -3.22436e-05
1.71065e-05 -3.22436e-05 -0.000569746
0.00252768 -0.000780995 2.14472e-06
-0.000780995 0.000259895 -2.30511e-06
2.14472e-06 -2.30511e-06 2.55477e-05
0.00148632 -0.000695179 -4.14781e-07
-0.000695179 0.000138197 -5.11096e-06
-4.14781e-07 -5.11096e-06 -0.000387896
0.00236126 -0.000989559 2.46798e-06
-0.000989559 0.000450307 1.49979e-06
2.46798e-06 1.49979e-06 -0.000104204
0.00264241 -0.00094848 -1.20175e-06
-0.00094848 0.00050162 -1.871e-06
-1.20175e-06 -1.871e-06 7.47384e-05
0.00252462 -0.000904021 2.98626e-06
-0.000904021 0.000243149 -1.76646e-06
2.98626e-06 -1.76646e-06 -1.76032e-05
0.0015007 -0.000443378 1.37555e-05
-0.000443378 0.00055402 3.75061e-06
1.37555e-05 3.75061e-06 8.3847e-05
0.00137242 -0.000320094 6.18169e-06
-0.000320094 0.000657829 -3.21096e-06
6.18169e-06 -3.21096e-06 0.000295797
0.00150465 -0.000582207 6.71487e-06
-0.000582207 0.000590151 4.10834e-06
6.71487e-06 4.10834e-06 7.77013e-06
0.00038311 0.000196796 -1.58762e-05
0.000196796 -0.000305928 -1.21944e-05
-1.58762e-05 -1.21944e-05 -0.000473449
0.00863014 -8.94396e-06 -0.000346805
-8.94396e-06 0.00545718 -3.40718e-05
-0.000346805 -3.40718e-05 0.00547317
0.000269753 0.000196639 -2.03318e-05
0.000196639 -0.000232257 -2.15807e-05
-2.03318e-05 -2.15807e-05 -0.000387199
0.000328091 0.000277242 -1.79838e-05
0.000277242 -0.000327489 -2.14487e-05
-1.79838e-05 -2.14487e-05 -0.000540305
0.00172927 0.000516218 -1.18426e-05
0.000516218 6.63303e-05 -4.94659e-06
-1.18426e-05 -4.94659e-06 -0.00023157
0.000301882 0.00028192 -2.04159e-05
0.00028192 -0.000243095 -3.03556e-05
-2.04159e-05 -3.03556e-05 -0.000467596
0.00117421 0.000687601 -2.11237e-05
0.000687601 -5.16317e-05 -4.13993e-06
-2.11237e-05 -4.13993e-06 -0.000583298
0.00185799 0.000657978 -2.01185e-05
0.000657978 0.000260869 -6.99011e-06
-2.01185e-05 -6.99011e-06 -0.000150916
0.00245002 0.000979058 7.72363e-07
0.000979058 0.000467899 4.9972e-06
7.72363e-07 4.9972e-06 -6.00123e-05
0.000292918 0.000281995 -7.68902e-06
0.000281995 -0.000229887 2.3453e-08
-7.68902e-06 2.3453e-08 -0.000426035
0.000399731 0.000172104 -1.8472e-06
0.000172104 -0.000107133 1.69326e-06
-1.8472e-06 1.69326e-06 -0.00025062
0.00102757 0.000478405 1.53858e-06
0.000478405 0.000330308 5.74693e-07
1.53858e-06 5.74693e-07 -8.08567e-06
0.00180633 0.00044173 -5.14794e-07
0.00044173 7.94983e-05 -3.11353e-07
-5.14794e-07 -3.11353e-07 -0.000165865
0.00180695 0.000582595 -3.29911e-07
0.000582595 0.000155997 -1.97934e-07
-3.29911e-07 -1.97934e-07 -0.000192034
0.00243991 0.00073253 -7.748e-07
0.00073253 0.000278904 -2.51802e-07
-7.748e-07 -2.51802e-07 -1.5518e-05
0.000882128 0.000526501 6.64066e-06
0.000526501 -2.55561e-05 -2.3169e-06
6.64066e-06 -2.3169e-06 -0.000507085
0.00264532 0.000943748 -2.13788e-06
0.000943748 0.000573866 -1.10342e-06
-2.13788e-06 -1.10342e-06 0.000114941
0.0025389 0.00118916 -2.82826e-06
0.00118916 0.000676426 -1.67824e-06
-2.82826e-06 -1.67824e-06 -4.42683e-05
0.00207154 0.000929389 -1.76033e-07
0.000929389 6.37563e-05 5.11852e-06
-1.76033e-07 5.11852e-06 -0.000408144
0.000968496 0.000137326 1.68263e-05
0.000137326 0.000317731 2.08171e-05
1.68263e-05 2.08171e-05 0.000189845
0.000152955 0.000630205 7.72815e-06
0.000630205 -0.000261324 -1.03323e-05
7.72815e-06 -1.03323e-05 -0.00068778
0.000714848 0.000280405 -2.31098e-06
0.000280405 0.000201696 -7.25311e-07
-2.31098e-06 -7.25311e-07 -0.000154269
-0.00172138 0.000240689 -7.58944e-06
0.000240689 -0.00138834 -3.60679e-06
-7.58944e-06 -3.60679e-06 -0.00178419
0.00240537 0.000626392 2.87921e-06
0.000626392 0.000207052 1.16303e-06
2.87921e-06 1.16303e-06 -1.26681e-05
0.00249033 0.000829933 -1.07236e-06
0.000829933 0.000387301 -1.53048e-06
-1.07236e-06 -1.53048e-06 1.30955e-05
0.00258434 0.000796996 2.22064e-06
0.000796996 0.000273107 1.37996e-06
2.22064e-06 1.37996e-06 2.58957e-05
0.00275632 0.00115736 -1.2175e-05
0.00115736 0.0011233 -1.74149e-05
-1.2175e-05 -1.74149e-05 0.000319255
0.00268764 0.00100893 -4.65754e-06
0.00100893 0.000498577 7.27686e-07
-4.65754e-06 7.27686e-07 6.31805e-05
0.00285765 0.00130723 -1.0857e-05
0.00130723 0.000800215 -1.29893e-05
-1.0857e-05 -1.29893e-05 4.56859e-05
0.00235018 0.000936743 -2.86377e-06
0.000936743 0.000133298 1.24198e-06
-2.86377e-06 1.24198e-06 -0.000309335
0.00117075 0.000184302 -3.8379e-06
0.000184302 0.000565188 9.37931e-06
-3.8379e-06 9.37931e-06 0.000384796
0.000489609 8.66063e-05 9.30464e-06
8.66063e-05 4.73849e-05 1.54118e-05
9.30464e-06 1.54118e-05 -3.25723e-05
0.00490241 -0.000154264 9.68752e-05
-0.000154264 0.00303333 1.4565e-05
9.68752e-05 1.4565e-05 0.00301513
0.00564933 -0.000199346 2.22722e-05
-0.000199346 0.00355051 -1.00229e-06
2.22722e-05 -1.00229e-06 0.00351944
0.00639218 -0.000240681 -0.000128785
-0.000240681 0.00405881 -1.7649e-05
-0.000128785 -1.7649e-05 0.00401556
0.000302572 -0.000283216 3.19388e-05
-0.000283216 -0.000126094 -1.92195e-05
3.19388e-05 -1.92195e-05 -0.000265492
0.00770017 1.99791e-05 0.000269232
1.99791e-05 0.00486888 -3.54568e-05
0.000269232 -3.54568e-05 0.00486938
0.000512012 -0.000316978 3.75009e-06
-0.000316978 -6.63445e-05 6.4994e-07
3.75009e-06 6.4994e-07 -0.00024754
0.00926231 -8.50981e-05 6.80832e-06
-8.50981e-05 0.00585364 -1.25153e-06
6.80832e-06 -1.25153e-06 0.00587014
0.000346901 0.000171485 -1.59634e-05
0.000171485 -0.000314218 -9.8143e-06
-1.59634e-05 -9.8143e-06 -0.000461551
0.000196882 6.09618e-05 -1.27113e-05
6.09618e-05 -0.000372649 -4.81213e-06
-1.27113e-05 -4.81213e-06 -0.000483704
0.00172062 0.000257915 -5.24924e-06
0.000257915 2.44715e-05 -1.44778e-06
-5.24924e-06 -1.44778e-06 -0.00013561
0.00162533 0.000125547 -6.62471e-06
0.000125547 -3.2975e-05 -1.44012e-06
-6.62471e-06 -1.44012e-06 -0.000155139
0.000194034 7.61398e-07 -1.4214e-05
7.61398e-07 -0.000344011 -1.77779e-06
-1.4214e-05 -1.77779e-06 -0.00043843
0.0068296 -0.000103531 -0.000398837
-0.000103531 0.00424286 7.42645e-06
-0.000398837 7.42645e-06 0.00428544
0.000184312 -4.22676e-06 -4.23025e-08
-4.22676e-06 -0.000347924 -6.72504e-07
-4.23025e-08 -6.72504e-07 -0.000440208
0.0015907 6.17254e-05 3.08925e-08
6.17254e-05 -6.3734e-05 2.95323e-08
3.08925e-08 2.95323e-08 -0.000176889
0.00165553 0.000189158 5.30568e-08
0.000189158 -3.33672e-05 8.89595e-08
5.30568e-08 8.89595e-08 -0.00016934
0.00244702 0.000185522 -1.37498e-07
0.000185522 0.000122606 1.30711e-07
-1.37498e-07 1.30711e-07 8.14864e-05
0.00175996 0.000346761 -4.48293e-07
0.000346761 2.82504e-05 -1.20927e-07
-4.48293e-07 -1.20927e-07 -0.000168276
0.00243591 0.000389514 -1.07443e-07
0.000389514 0.00014655 1.49484e-07
-1.07443e-07 1.49484e-07 4.77638e-05
0.00157257 -4.58805e-06 4.94693e-06
-4.58805e-06 -6.81995e-05 3.78e-07
4.94693e-06 3.78e-07 -0.000179552
0.00244445 9.11793e-05 5.01589e-06
9.11793e-05 0.000113872 4.69541e-07
5.01589e-06 4.69541e-07 8.37163e-05
0.00241673 0.000284814 4.19248e-06
0.000284814 0.000120854 1.25165e-06
4.19248e-06 1.25165e-06 5.43706e-05
0.00223346 0.000187397 3.64453e-06
0.000187397 -4.07128e-05 6.3704e-07
3.64453e-06 6.3704e-07 -2.11223e-05
0.00242464 0.000504116 4.57346e-06
0.000504116 0.000171188 1.78175e-06
4.57346e-06 1.78175e-06 2.21309e-05
0.00228012 0.000366505 3.92897e-06
0.000366505 -1.14753e-05 7.28556e-07
3.92897e-06 7.28556e-07 -4.47137e-05
0.000194138 -1.10467e-05 -1.36847e-05
-1.10467e-05 -0.000338833 6.388e-08
-1.36847e-05 6.388e-08 -0.000435347
0.00227555 -7.95617e-05 -0.000155385
-7.95617e-05 0.00100599 8.95595e-06
-0.000155385 8.95595e-06 0.000942172
0.00182041 -0.000133497 -1.69612e-05
-0.000133497 9.19331e-05 1.49469e-06
-1.69612e-05 1.49469e-06 -1.43061e-05
0.002183 -0.000295177 -1.93326e-05
-0.000295177 0.000355679 3.20625e-06
-1.93326e-05 3.20625e-06 0.000186563
0.00998569 -0.000157535 -0.000456809
-0.000157535 0.00627167 5.84615e-05
-0.000456809 5.84615e-05 0.00629864
0.00374701 -0.000445362 -0.000233005
-0.000445362 0.00201933 4.57491e-05
-0.000233005 4.57491e-05 0.00181453
0.00262385 -0.000771986 -1.14947e-05
-0.000771986 0.000896252 7.98949e-06
-1.14947e-05 7.98949e-06 0.000404278
0.00243296 -0.000478068 -2.58701e-05
-0.000478068 0.000566958 7.48818e-06
-2.58701e-05 7.48818e-06 0.000326191
0.002362 -0.000510891 -2.80585e-07
-0.000510891 0.000140437 3.43522e-07
-2.80585e-07 3.43522e-07 -4.4063e-06
0.00225331 -0.000693602 1.37243e-07
-0.000693602 0.000184414 4.93811e-07
1.37243e-07 4.93811e-07 -0.000119226
0.00256665 -0.000886524 7.18218e-06
-0.000886524 0.000547805 -3.06454e-06
7.18218e-06 -3.06454e-06 9.8689e-05
0.0024195 -0.000866175 1.1293e-06
-0.000866175 0.000268399 2.91333e-06
1.1293e-06 2.91333e-06 -6.07193e-05
0.000169871 -0.00030881 -2.31107e-05
-0.00030881 -0.000311486 2.97577e-05
-2.31107e-05 2.97577e-05 -0.000522743
-0.000816904 -0.000349924 -5.3367e-06
-0.000349924 -0.000775066 -3.51356e-06
-5.3367e-06 -3.51356e-06 -0.00124165
0.00165218 -6.17713e-05 9.05411e-07
-6.17713e-05 -1.30458e-05 -7.30038e-08
9.05411e-07 -7.30038e-08 -0.000119651
0.00221685 -0.00021757 -1.16882e-05
-0.00021757 0.000368334 1.31652e-06
-1.16882e-05 1.31652e-06 0.00024351
0.00224014 -0.000192268 2.21934e-06
-0.000192268 -2.29845e-05 -3.29082e-07
2.21934e-06 -3.29082e-07 -8.13224e-05
0.00231773 -0.000408169 -1.15134e-06
-0.000408169 8.62269e-05 2.05951e-07
-1.15134e-06 2.05951e-07 -2.99816e-05
7.75815e-05 -0.000295263 -2.56309e-06
-0.000295263 -0.000386254 -5.04062e-07
-2.56309e-06 -5.04062e-07 -0.000620261
0.00145769 -0.000694598 -9.44595e-07
-0.000694598 0.000160716 -2.74407e-07
-9.44595e-07 -2.74407e-07 -0.000371932
0.00244731 -0.00100737 6.4344e-08
-0.00100737 0.000498952 1.44666e-06
6.4344e-08 1.44666e-06 -6.85608e-05
0.00235764 -0.000623172 1.52752e-06
-0.000623172 0.000198674 -7.40578e-07
1.52752e-06 -7.40578e-07 -3.47699e-05
0.00241214 -0.00052297 -6.79641e-08
-0.00052297 0.000106737 4.45819e-08
-6.79641e-08 4.45819e-08 1.62712e-05
0.00263514 -0.000946449 2.30797e-06
-0.000946449 0.000493641 -1.7596e-06
2.30797e-06 -1.7596e-06 7.24161e-05
0.00251033 -0.000778311 -6.961e-07
-0.000778311 0.000248467 1.90159e-07
-6.961e-07 1.90159e-07 1.52569e-05
0.00248149 -0.000912901 1.99033e-07
-0.000912901 0.000206457 2.2633e-07
1.99033e-07 2.2633e-07 -5.50289e-05
0.000841978 -0.000432959 -2.83401e-06
-0.000432959 0.000131307 2.61115e-07
-2.83401e-06 2.61115e-07 -0.00035898
0.00156463 -0.00055117 8.88357e-07
-0.00055117 0.000653043 -4.63526e-08
8.88357e-07 -4.63526e-08 8.22522e-05
0.000722063 -0.000270497 -5.85228e-07
-0.000270497 0.000302325 1.84778e-07
-5.85228e-07 1.84778e-07 -8.94602e-05
0.00224974 -9.70885e-05 4.70883e-06
-9.70885e-05 -1.49167e-05 -3.76967e-07
4.70883e-06 -3.76967e-07 -6.60878e-05
0.00226267 -0.00029173 2.21238e-06
-0.00029173 -2.4925e-06 -1.10776e-06
2.21238e-06 -1.10776e-06 -8.00112e-05
0.00231863 -0.000176845 6.40886e-06
-0.000176845 5.15318e-05 -6.2963e-07
6.40886e-06 -6.2963e-07 5.86144e-05
0.00230892 -0.000409023 2.75579e-06
-0.000409023 1.34391e-05 -6.71569e-07
2.75579e-06 -6.71569e-07 -2.91568e-05
0.00237096 -0.000664491 2.45904e-06
-0.000664491 8.96137e-05 -8.51698e-07
2.45904e-06 -8.51698e-07 -5.96606e-05
0.00257023 -0.000566448 6.32354e-07
-0.000566448 9.30738e-05 1.39819e-07
6.32354e-07 1.39819e-07 5.70728e-05
0.00140476 -0.000559327 1.28863e-05
-0.000559327 0.000329599 -3.88141e-06
1.28863e-05 -3.88141e-06 -0.00019162
0.00256499 -0.000822013 1.88866e-06
-0.000822013 0.000171958 -1.52283e-06
1.88866e-06 -1.52283e-06 1.45756e-05
0.00236692 -0.00113865 1.27155e-06
-0.00113865 0.000566812 -9.76788e-07
1.27155e-06 -9.76788e-07 -0.000127501
0.00277324 -0.00108655 1.13144e-05
-0.00108655 0.000618867 -3.95796e-07
1.13144e-05 -3.95796e-07 7.52653e-05
0.00272642 -0.000975498 7.45716e-06
-0.000975498 0.000504133 -3.51943e-06
7.45716e-06 -3.51943e-06 0.000123465
0.00261594 -0.000959449 5.85628e-06
-0.000959449 0.000216233 -1.84348e-06
5.85628e-06 -1.84348e-06 2.1122e-06
-0.00100408 -0.000157708 5.80538e-06
-0.000157708 -0.000831177 -1.29522e-06
5.80538e-06 -1.29522e-06 -0.0011935
0.00170849 -0.000810333 4.52645e-06
-0.000810333 0.000591087 1.10223e-05
4.52645e-06 1.10223e-05 -0.000118024
6.75618e-05 -0.000310216 2.76147e-05
-0.000310216 -1.84826e-05 3.51106e-06
2.76147e-05 3.51106e-06 -0.00057454
0.00191098 -0.000871185 2.17935e-05
-0.000871185 0.000912598 1.97509e-05
2.17935e-05 1.97509e-05 0.000161485
0.00174997 0.000436704 -1.01361e-05
0.000436704 5.39722e-05 -3.53353e-06
-1.01361e-05 -3.53353e-06 -0.000191529
9.34422e-05 0.000169989 -1.90343e-05
0.000169989 -0.000294651 -2.20695e-05
-1.90343e-05 -2.20695e-05 -0.000441512
0.000497073 0.000256953 -2.50777e-05
0.000256953 -0.000110433 -2.63998e-05
-2.50777e-05 -2.63998e-05 -0.000292548
0.00210725 0.000373959 3.70951e-08
0.000373959 0.00103398 1.77011e-05
3.70951e-08 1.77011e-05 0.000707672
0.00177077 0.000578279 -1.64922e-05
0.000578279 0.00013921 -6.17477e-06
-1.64922e-05 -6.17477e-06 -0.000209063
0.00249569 0.000739373 -2.35679e-06
0.000739373 0.000313828 -2.76566e-07
-2.35679e-06 -2.76566e-07 1.77891e-05
0.000651602 0.000452113 -2.19119e-05
0.000452113 -0.00020284 -6.3586e-06
-2.19119e-05 -6.3586e-06 -0.000650077
0.00229641 0.00114468 4.13617e-06
0.00114468 0.000511319 3.52412e-06
4.13617e-06 3.52412e-06 -0.000190732
0.00261362 0.000936275 6.5489e-06
0.000936275 0.00054976 4.88623e-06
6.5489e-06 4.88623e-06 9.34061e-05
0.00202238 0.000915901 8.20886e-06
0.000915901 2.57192e-05 1.28066e-05
8.20886e-06 1.28066e-05 -0.000435381
0.000472693 0.000111418 -2.05144e-06
0.000111418 1.11447e-05 3.22877e-07
-2.05144e-06 3.22877e-07 -0.000118271
0.00136725 0.000476146 -8.28684e-06
0.000476146 0.000493386 4.80449e-06
-8.28684e-06 4.80449e-06 9.98538e-05
0.000147677 0.000304707 2.07038e-06
0.000304707 -0.000160251 -1.91671e-06
2.07038e-06 -1.91671e-06 -0.000521294
0.000446646 0.000368771 -3.25077e-06
0.000368771 -2.70737e-05 1.02759e-05
-3.25077e-06 1.02759e-05 -0.000436055
0.00244529 0.000633756 -7.6851e-07
0.000633756 0.000225898 -3.67791e-07
-7.6851e-07 -3.67791e-07 4.17609e-06
0.00244829 0.000828376 -1.13016e-06
0.000828376 0.000354698 -2.9987e-07
-1.13016e-06 -2.9987e-07 -1.93916e-05
0.00255206 0.000791711 3.20447e-07
0.000791711 0.000255079 5.41378e-08
3.20447e-07 5.41378e-08 1.04364e-05
0.00228794 0.00112511 -3.72352e-07
0.00112511 0.000812323 -1.64101e-06
-3.72352e-07 -1.64101e-06 -5.02529e-08
0.00270048 0.00101102 1.12323e-06
0.00101102 0.000522871 4.7195e-07
1.12323e-06 4.7195e-07 8.24824e-05
0.00273901 0.00127837 -1.76391e-06
0.00127837 0.000746671 -3.70781e-06
-1.76391e-06 -3.70781e-06 2.55886e-06
0.00271318 0.000937066 -9.14952e-06
0.000937066 0.000412286 2.77606e-06
-9.14952e-06 2.77606e-06 -1.77922e-05
0.000802806 9.63305e-05 1.16777e-05
9.63305e-05 0.000229893 1.84245e-05
1.16777e-05 1.84245e-05 0.000135858
0.00199795 0.000264949 1.18149e-06
0.000264949 0.00108723 1.45083e-05
1.18149e-06 1.45083e-05 0.000759598
-3.52541e-06 0.000701531 -4.03979e-06
0.000701531 -0.000337459 -2.34372e-05
-4.03979e-06 -2.34372e-05 -0.000974173
0.000466618 0.000508513 1.45553e-05
0.000508513 2.11783e-05 2.21067e-06
1.45553e-05 2.21067e-06 -0.000359237
0.00143459 0.000361494 2.04245e-06
0.000361494 0.000410393 1.15893e-05
2.04245e-06 1.15893e-05 2.60761e-06
0.00251269 0.000661526 1.98652e-06
0.000661526 0.000155234 8.9787e-07
1.98652e-06 8.9787e-07 8.1014e-06
0.00254198 0.000916225 -2.20525e-07
0.000916225 0.0003229 1.785e-06
-2.20525e-07 1.785e-06 -2.66332e-05
0.00262 0.000863783 -1.21769e-06
0.000863783 0.000225524 1.47844e-06
-1.21769e-06 1.47844e-06 2.42585e-06
0.00267843 0.00149052 2.19094e-06
0.00149052 0.00108557 -1.01919e-05
2.19094e-06 -1.01919e-05 0.000104637
0.00294544 0.00105235 -6.165e-06
0.00105235 0.000568012 1.12225e-06
-6.165e-06 1.12225e-06 0.000151478
0.00224772 0.00132201 7.40062e-06
0.00132201 0.000322182 -3.30761e-06
7.40062e-06 -3.30761e-06 -0.000425539
0.000921523 0.000191808 2.91729e-07
0.000191808 0.000396037 1.00447e-05
2.91729e-07 1.00447e-05 0.000177312
0.000814226 0.000239661 -9.98008e-06
0.000239661 0.000489959 5.42093e-06
-9.98008e-06 5.42093e-06 0.000165963
0.000954607 0.000148401 -1.57857e-06
0.000148401 0.000425909 4.69902e-06
-1.57857e-06 4.69902e-06 0.000284635
0.000411343 7.99827e-05 -3.4587e-06
7.99827e-05 6.39657e-05 -2.75826e-07
-3.4587e-06 -2.75826e-07 -0.000104482
0.00189388 2.57748e-05 1.9802e-06
2.57748e-05 0.000995437 9.70757e-06
1.9802e-06 9.70757e-06 0.000939115
0.00109883 5.61118e-05 -1.9814e-06
5.61118e-05 0.000457572 4.7612e-08
-1.9814e-06 4.7612e-08 0.000384464
0.00124346 1.08948e-05 0.000108805
1.08948e-05 0.000554248 2.03335e-05
0.000108805 2.03335e-05 0.000542952
0.00495542 -0.000152776 1.36478e-05
-0.000152776 0.00307204 -1.6662e-06
1.36478e-05 -1.6662e-06 0.00305315
0.00559768 -0.000234627 -9.72616e-05
-0.000234627 0.00353641 -1.6853e-05
-9.72616e-05 -1.6853e-05 0.00349365
0.000356364 -0.000178411 3.38857e-05
-0.000178411 -4.00935e-05 -1.20685e-05
3.38857e-05 -1.20685e-05 -0.000142757
0.00553412 0.000146835 0.000138832
0.000146835 0.00348499 -2.00349e-05
0.000138832 -2.00349e-05 0.00345959
0.000531892 -0.000254595 8.08078e-07
-0.000254595 3.04167e-05 2.64685e-06
8.08078e-07 2.64685e-06 -0.000123632
0.00805055 -8.44753e-06 1.90303e-06
-8.44753e-06 0.00511358 1.87134e-06
1.90303e-06 1.87134e-06 0.00511377
0.000270172 -0.000326424 -3.01602e-05
-0.000326424 -0.00023321 2.57755e-05
-3.01602e-05 2.57755e-05 -0.000415214
0.00942264 -8.42826e-05 -0.000406954
-8.42826e-05 0.00595214 5.46338e-05
-0.000406954 5.46338e-05 0.00596979
0.0017604 0.000343343 -7.83862e-06
0.000343343 4.94628e-05 -2.29707e-06
-7.83862e-06 -2.29707e-06 -0.000147179
0.00166484 0.000189213 -5.84336e-06
0.000189213 -7.36456e-06 -1.39079e-06
-5.84336e-06 -1.39079e-06 -0.000144164
0.00244357 0.000387146 -5.30523e-06
0.000387146 0.000145906 -1.16936e-06
-5.30523e-06 -1.16936e-06 4.72575e-05
0.00246273 0.000183696 -4.54412e-06
0.000183696 0.000133943 -6.41617e-07
-4.54412e-06 -6.41617e-07 9.28469e-05
0.00160222 6.70012e-05 -5.86029e-06
6.70012e-05 -4.84039e-05 -8.6077e-07
-5.86029e-06 -8.6077e-07 -0.000162057
0.000153193 2.57347e-05 -1.43697e-05
2.57347e-05 -0.000370204 -1.62417e-06
-1.43697e-05 -1.62417e-06 -0.000460563
0.00157913 1.324e-06 -2.83135e-08
1.324e-06 -6.3397e-05 -3.35771e-08
-2.83135e-08 -3.35771e-08 -0.000174743
0.00245048 8.92039e-05 -1.33113e-07
8.92039e-05 0.000118869 1.01669e-07
-1.33113e-07 1.01669e-07 8.90034e-05
0.00244072 0.000283878 -1.66739e-08
0.000283878 0.000133699 1.42436e-07
-1.66739e-08 1.42436e-07 6.85575e-05
0.00223392 0.000182917 -3.17046e-07
0.000182917 -4.93668e-05 -6.63959e-08
-3.17046e-07 -6.63959e-08 -2.22191e-05
0.00243889 0.000508178 -3.52857e-07
0.000508178 0.000174137 9.19476e-08
-3.52857e-07 9.19476e-08 2.44301e-05
0.00228489 0.000368518 -9.9417e-08
0.000368518 -4.01304e-06 1.92194e-07
-9.9417e-08 1.92194e-07 -3.9271e-05
0.00244586 -4.86898e-06 4.75037e-06
-4.86898e-06 0.000117225 8.43604e-08
4.75037e-06 8.43604e-08 8.85374e-05
0.00219873 8.61582e-05 2.31117e-06
8.61582e-05 -7.25957e-05 2.32577e-07
2.31117e-06 2.32577e-07 -3.4437e-05
0.00224301 0.000264718 4.14487e-06
0.000264718 -2.62452e-05 8.22929e-07
4.14487e-06 8.22929e-07 -2.95379e-05
0.002363 0.000185778 7.72391e-07
0.000185778 -7.86524e-05 1.55871e-07
7.72391e-07 1.55871e-07 -1.11866e-05
0.00240905 0.000517799 2.96964e-06
0.000517799 5.8089e-05 8.1081e-07
2.96964e-06 8.1081e-07 -1.44671e-05
0.00243707 0.000406152 2.45911e-08
0.000406152 -6.66432e-05 -5.43226e-07
2.45911e-08 -5.43226e-07 -3.20102e-05
0.00175964 -5.98518e-05 -7.723e-06
-5.98518e-05 6.04618e-05 3.24352e-07
-7.723e-06 3.24352e-07 -3.8118e-05
0.00212741 -0.000216136 -2.22863e-05
-0.000216136 0.0003008 2.71685e-06
-2.22863e-05 2.71685e-06 0.000175137
0.0022563 -0.000187119 1.31114e-06
-0.000187119 -1.65485e-05 -2.46736e-08
1.31114e-06 -2.46736e-08 -6.9729e-05
0.0023498 -0.000405455 -1.98963e-06
-0.000405455 0.000131759 1.47095e-06
-1.98963e-06 1.47095e-06 3.59755e-06
5.68998e-05 -0.000324301 -2.27963e-05
-0.000324301 -0.000392147 3.23928e-05
-2.27963e-05 3.23928e-05 -0.000632533
0.00174719 -0.000711369 -2.54897e-06
-0.000711369 0.000357192 4.35637e-06
-2.54897e-06 4.35637e-06 -0.000177502
0.00239151 -0.00101065 3.5975e-06
-0.00101065 0.000447541 -1.92534e-07
3.5975e-06 -1.92534e-07 -0.000129222
0.00242415 -0.000620539 1.92511e-07
-0.000620539 0.000259552 2.01229e-07
1.92511e-07 2.01229e-07 2.1602e-05
0.00234099 -0.000521158 -2.58534e-06
-0.000521158 3.59354e-05 8.14769e-07
-2.58534e-06 8.14769e-07 -4.57198e-05
0.00249555 -0.000775853 -2.19925e-06
-0.000775853 0.000239847 2.1278e-06
-2.19925e-06 2.1278e-06 7.6292e-06
0.00260856 -0.000940337 1.79718e-06
-0.000940337 0.000474319 -5.92041e-07
1.79718e-06 -5.92041e-07 6.02299e-05
0.00243997 -0.000920914 -2.9721e-06
-0.000920914 0.000172965 3.19091e-06
-2.9721e-06 3.19091e-06 -8.91651e-05
0.000453911 -0.000433964 -1.16119e-05
-0.000433964 -0.000126086 -5.30932e-06
-1.16119e-05 -5.30932e-06 -0.000628384
0.000653273 -0.000456453 -1.7168e-05
-0.000456453 0.000129042 -1.17021e-05
-1.7168e-05 -1.17021e-05 -0.00043172
0.000344966 -0.00027195 7.87308e-07
-0.00027195 9.44067e-05 3.96774e-06
7.87308e-07 3.96774e-06 -0.000316383
0.00235741 -9.42326e-05 3.87194e-06
-9.42326e-05 6.41087e-05 -1.00848e-07
3.87194e-06 -1.00848e-07 2.14086e-05
0.00221982 -0.000295618 2.05794e-06
-0.000295618 -2.80991e-05 -5.75149e-07
2.05794e-06 -5.75149e-07 -0.000105007
0.00228211 -0.00017103 -3.4519e-07
-0.00017103 6.89942e-06 1.11381e-07
-3.4519e-07 1.11381e-07 2.31287e-05
0.00236514 -0.000403044 -1.09733e-07
-0.000403044 5.97013e-05 -3.03304e-08
-1.09733e-07 -3.03304e-08 1.4393e-05
0.0011389 -0.000568983 -2.14425e-06
-0.000568983 0.000143298 -1.03614e-06
-2.14425e-06 -1.03614e-06 -0.000391374
0.00258917 -0.00118234 2.22448e-06
-0.00118234 0.000715889 -3.29989e-07
2.22448e-06 -3.29989e-07 5.9631e-06
0.00250723 -0.00106285 1.58831e-06
-0.00106285 0.00043876 1.90381e-06
1.58831e-06 1.90381e-06 -0.000108409
0.00244552 -0.000665885 -2.56059e-07
-0.000665885 0.000157355 2.56838e-07
-2.56059e-07 2.56838e-07 -3.5419e-07
0.0025385 -0.000569556 1.02442e-07
-0.000569556 5.81207e-05 4.51948e-08
1.02442e-07 4.51948e-08 2.80352e-05
0.00265499 -0.000967976 -6.38668e-07
-0.000967976 0.000451777 -1.56381e-07
-6.38668e-07 -1.56381e-07 7.08864e-05
0.00257297 -0.000823231 -7.49929e-07
-0.000823231 0.000175606 1.43732e-07
-7.49929e-07 1.43732e-07 1.77399e-05
0.00259064 -0.000962208 1.46065e-06
-0.000962208 0.000190916 -2.26491e-07
1.46065e-06 -2.26491e-07 -1.72741e-05
0.00168696 -0.000838851 -2.19486e-06
-0.000838851 0.000618447 -1.61006e-06
-2.19486e-06 -1.61006e-06 -9.77161e-05
0.00184102 -0.000876097 -1.34006e-06
-0.000876097 0.000865511 1.44676e-06
-1.34006e-06 1.44676e-06 0.000116576
0.000513104 -0.000168381 1.41179e-06
-0.000168381 0.000137889 -8.69716e-07
1.41179e-06 -8.69716e-07 -0.000195543
0.00025449 -0.000274722 2.39603e-06
-0.000274722 -6.87717e-06 -6.04837e-06
2.39603e-06 -6.04837e-06 -0.000482455
0.00221424 -9.79656e-05 4.93248e-06
-9.79656e-05 -3.65813e-05 -3.30664e-07
4.93248e-06 -3.30664e-07 -1.49408e-05
0.00231973 -0.000283237 3.75122e-06
-0.000283237 1.82049e-05 -1.01593e-06
3.75122e-06 -1.01593e-06 1.04854e-05
0.00235691 -0.000182417 1.22943e-06
-0.000182417 -3.73078e-05 -3.48557e-07
1.22943e-06 -3.48557e-07 2.29046e-05
0.00249664 -0.000451639 -1.50029e-06
-0.000451639 -2.9705e-05 7.36558e-07
-1.50029e-06 7.36558e-07 1.7617e-05
0.00246615 -0.000693674 -7.77216e-07
-0.000693674 5.53772e-05 3.19038e-07
-7.77216e-07 3.19038e-07 -3.71278e-05
0.00260917 -0.000613895 1.13855e-06
-0.000613895 -4.44324e-06 1.53755e-08
1.13855e-06 1.53755e-08 -6.32343e-06
0.00187812 -0.00113634 -4.40674e-06
-0.00113634 0.000487367 4.94077e-06
-4.40674e-06 4.94077e-06 -0.00029224
0.00269405 -0.000892846 1.99618e-06
-0.000892846 0.000148791 2.23636e-07
1.99618e-06 2.23636e-07 3.54462e-05
0.00251085 -0.00125037 6.5511e-06
-0.00125037 0.000622489 2.7224e-06
6.5511e-06 2.7224e-06 -9.91956e-05
0.00284003 -0.00110714 1.52948e-05
-0.00110714 0.000628803 -3.17854e-06
1.52948e-05 -3.17854e-06 9.76088e-05
0.00275534 -0.00101015 4.59113e-06
-0.00101015 0.000446934 -1.98445e-06
4.59113e-06 -1.98445e-06 9.79802e-05
0.00266258 -0.00102993 2.76863e-06
-0.00102993 0.000176705 -2.17035e-06
2.76863e-06 -2.17035e-06 -4.31781e-05
-2.90589e-05 -0.000296029 1.11369e-05
-0.000296029 -0.000310266 -7.90872e-06
1.11369e-05 -7.90872e-06 -0.000616713
-0.00121627 -1.93314e-05 -3.98961e-06
-1.93314e-05 -0.000908846 6.42444e-07
-3.98961e-06 6.42444e-07 -0.00142389
0.00186018 -0.00117562 2.17697e-05
-0.00117562 0.000746641 5.53764e-06
2.17697e-05 5.53764e-06 -0.000116418
0.00400417 -0.000911743 1.50426e-05
-0.000911743 0.00242567 1.67883e-05
1.50426e-05 1.67883e-05 0.00176925
0.00231311 -0.0011336 -6.12821e-07
-0.0011336 0.0011877 1.31474e-05
-6.12821e-07 1.31474e-05 0.000288934
-0.000117022 9.04167e-05 -9.82992e-06
9.04167e-05 -0.000362058 -2.03634e-05
-9.82992e-06 -2.03634e-05 -0.000488246
0.002486 0.000641232 -3.93447e-06
0.000641232 0.000245029 -1.64404e-06
-3.93447e-06 -1.64404e-06 2.12802e-05
0.00107763 0.000182723 2.06129e-06
0.000182723 0.000405331 -4.39754e-06
2.06129e-06 -4.39754e-06 6.02095e-05
0.00128683 0.000516075 -1.77874e-05
0.000516075 0.000398666 2.00449e-05
-1.77874e-05 2.00449e-05 5.02041e-05
0.00237149 0.00037001 5.49825e-07
0.00037001 0.0011448 1.47821e-05
5.49825e-07 1.47821e-05 0.000772816
0.00240811 0.00082689 1.21512e-06
0.00082689 0.000323871 1.5733e-06
1.21512e-06 1.5733e-06 -5.01238e-05
0.0025148 0.00078566 -2.02183e-06
0.00078566 0.000233865 -1.63502e-06
-2.02183e-06 -1.63502e-06 -7.91876e-06
0.00173127 0.00112619 1.22612e-05
0.00112619 0.000454844 1.95054e-05
1.22612e-05 1.95054e-05 -0.000379383
0.00258924 0.00126543 1.21391e-06
0.00126543 0.000650469 5.09483e-06
1.21391e-06 5.09483e-06 -9.24284e-05
0.00272007 0.00100982 4.66913e-06
0.00100982 0.000549442 1.68389e-06
4.66913e-06 1.68389e-06 0.000105934
0.00311811 0.000948992 1.27416e-05
0.000948992 0.000716144 1.25987e-05
1.27416e-05 1.25987e-05 0.000293755
0.00048958 0.000107605 -4.13251e-06
0.000107605 3.26848e-05 5.10684e-07
-4.13251e-06 5.10684e-07 -5.96878e-05
0.000528886 0.000228399 -1.57499e-06
0.000228399 0.000183035 -1.24002e-06
-1.57499e-06 -1.24002e-06 -0.000181844
0.00110626 0.00072791 9.28595e-06
0.00072791 0.00034581 -4.75741e-06
9.28595e-06 -4.75741e-06 -0.000286602
0.00111613 0.000284979 -4.39886e-06
0.000284979 0.000433545 -3.86126e-06
-4.39886e-06 -3.86126e-06 7.20547e-05
0.000701804 0.000452435 -2.88499e-06
0.000452435 -4.72474e-05 5.39371e-06
-2.88499e-06 5.39371e-06 -0.000506961
0.00249261 0.000658393 -4.7749e-07
0.000658393 0.00014565 -4.15951e-07
-4.7749e-07 -4.15951e-07 -2.59724e-07
0.0025583 0.000915398 4.92598e-07
0.000915398 0.000337284 2.24451e-07
4.92598e-07 2.24451e-07 -1.06749e-05
0.00259457 0.00086434 1.13972e-06
0.00086434 0.000214428 4.98091e-07
1.13972e-06 4.98091e-07 -8.34947e-06
0.00265793 0.00147279 2.19951e-06
0.00147279 0.00109655 1.6095e-07
2.19951e-06 1.6095e-07 0.000131002
0.00293403 0.00105091 3.2985e-06
0.00105091 0.000528953 1.9632e-07
3.2985e-06 1.9632e-07 0.000111008
0.00292355 0.00140069 -6.74411e-06
0.00140069 0.000811632 1.08472e-06
-6.74411e-06 1.08472e-06 4.81795e-05
0.00097117 0.000228342 -2.29894e-07
0.000228342 0.000424375 8.87801e-06
-2.29894e-07 8.87801e-06 0.000159267
0.00229988 0.000646466 1.06239e-05
0.000646466 0.00138632 8.95599e-06
1.06239e-05 8.95599e-06 0.000905754
0.00169415 0.0010722 -3.30721e-06
0.0010722 0.000783169 -5.33968e-06
-3.30721e-06 -5.33968e-06 -2.30622e-05
0.00130219 0.000360851 1.16172e-05
0.000360851 0.000259099 -7.95867e-06
1.16172e-05 -7.95867e-06 -7.88458e-05
0.00342235 0.000976476 -1.90762e-07
0.000976476 0.00148127 4.68688e-06
-1.90762e-07 4.68688e-06 0.000867906
0.00259269 0.000711854 -2.18914e-06
0.000711854 7.68349e-05 -8.0719e-07
-2.18914e-06 -8.0719e-07 -1.2713e-05
0.00268116 0.000995798 -2.73167e-06
0.000995798 0.000361295 2.5291e-06
-2.73167e-06 2.5291e-06 1.03053e-05
0.00268126 0.000989501 -5.24342e-07
0.000989501 0.00021229 1.18431e-06
-5.24342e-07 1.18431e-06 -1.35554e-06
0.00196774 0.00148851 1.16929e-05
0.00148851 0.000727031 -1.94905e-06
1.16929e-05 -1.94905e-06 -0.000251676
0.00268841 0.00133275 1.62224e-05
0.00133275 0.000509837 2.80348e-07
1.62224e-05 2.80348e-07 -0.000161077
0.00063894 0.000161518 3.67219e-07
0.000161518 0.000214038 -4.85966e-07
3.67219e-07 -4.85966e-07 -4.16093e-06
-8.93116e-05 0.000271825 -8.96632e-06
0.000271825 -0.000163601 -4.36219e-06
-8.96632e-06 -4.36219e-06 -0.000503576
-0.000931198 0.000111639 1.08485e-06
0.000111639 -0.000641542 -2.62924e-06
1.08485e-06 -2.62924e-06 -0.000966847
0.00226028 0.000392822 -1.6993e-05
0.000392822 0.00151722 -1.72238e-08
-1.6993e-05 -1.72238e-08 0.00115413
0.00171941 0.0003176 -7.27134e-06
0.0003176 0.0010641 -2.60992e-06
-7.27134e-06 -2.60992e-06 0.000793923
0.00061764 0.000127766 -2.90572e-08
0.000127766 0.000210508 1.29248e-06
-2.90572e-08 1.29248e-06 8.51189e-05
0.000551203 7.672e-05 -2.13024e-06
7.672e-05 0.000161268 -3.5566e-07
-2.13024e-06 -3.5566e-07 2.38384e-05
0.00167725 3.59815e-05 1.71234e-06
3.59815e-05 0.000856042 7.08368e-06
1.71234e-06 7.08368e-06 0.000809329
0.000214179 8.20337e-05 7.21785e-06
8.20337e-05 -7.16107e-05 -7.87078e-06
7.21785e-06 -7.87078e-06 -0.000231967
0.00183412 2.67571e-05 -2.12037e-05
2.67571e-05 0.000954093 -2.69635e-06
-2.12037e-05 -2.69635e-06 0.000904703
0.000754926 1.02725e-06 7.28344e-05
1.02725e-06 0.00022847 1.553e-05
7.28344e-05 1.553e-05 0.000223827
0.00200009 5.99024e-05 -4.31934e-05
5.99024e-05 0.00106344 -1.31513e-05
-4.31934e-05 -1.31513e-05 0.00100162
0.00271378 -7.20354e-05 9.3482e-05
-7.20354e-05 0.00156027 2.1331e-06
9.3482e-05 2.1331e-06 0.00154406
0.0046946 -0.000168 -8.07492e-05
-0.000168 0.00290794 -1.29858e-05
-8.07492e-05 -1.29858e-05 0.00288385
0.00072242 4.13465e-06 4.69101e-06
4.13465e-06 0.000209912 -9.28301e-06
4.69101e-06 -9.28301e-06 0.000114047
0.000216676 -0.000140126 8.16662e-07
-0.000140126 -0.000129255 6.29951e-07
8.16662e-07 6.29951e-07 -0.0002452
0.00500073 0.00020887 5.85585e-05
0.00020887 0.00314411 -1.58009e-05
5.85585e-05 -1.58009e-05 0.00309882
0.00633734 7.67305e-05 -4.12992e-06
7.67305e-05 0.00401715 3.66891e-06
-4.12992e-06 3.66891e-06 0.00400296
0.000864556 -0.000252155 -2.59196e-05
-0.000252155 0.000243039 2.26114e-05
-2.59196e-05 2.26114e-05 7.52218e-05
0.00873916 -2.02728e-05 -0.000354279
-2.02728e-05 0.00556086 5.30215e-05
-0.000354279 5.30215e-05 0.00556275
0.00245657 0.000512778 -4.57364e-06
0.000512778 0.000178191 -1.54276e-06
-4.57364e-06 -1.54276e-06 2.78144e-05
0.00245393 0.000284444 -4.64623e-06
0.000284444 0.000139133 -9.50688e-07
-4.64623e-06 -9.50688e-07 7.49752e-05
0.00228623 0.000370882 -3.69776e-06
0.000370882 5.69451e-07 -1.86584e-07
-3.69776e-06 -1.86584e-07 -3.66707e-05
0.00223566 0.000178134 -3.144e-06
0.000178134 -5.77611e-05 -4.12702e-07
-3.144e-06 -4.12702e-07 -2.31148e-05
0.00245753 8.78266e-05 -5.03185e-06
8.78266e-05 0.000124616 -2.49651e-07
-5.03185e-06 -2.49651e-07 9.50212e-05
0.00158719 6.92534e-06 -4.94797e-06
6.92534e-06 -6.00321e-05 -4.0101e-07
-4.94797e-06 -4.0101e-07 -0.000171394
0.00244281 -5.20157e-06 -8.10823e-09
-5.20157e-06 0.000116309 6.2633e-08
-8.10823e-09 6.2633e-08 8.75713e-05
0.00220269 7.82024e-05 -4.16088e-07
7.82024e-05 -6.70518e-05 -5.47004e-08
-4.16088e-07 -5.47004e-08 -3.06118e-05
0.00224 0.000264123 -9.64209e-08
0.000264123 -3.05151e-05 6.64201e-08
-9.64209e-08 6.64201e-08 -3.3552e-05
0.00235927 0.000187914 1.87605e-07
0.000187914 -8.81334e-05 5.42095e-08
1.87605e-07 5.42095e-08 -1.31231e-05
0.00241823 0.000517591 1.0325e-07
0.000517591 6.50897e-05 -1.39672e-07
1.0325e-07 -1.39672e-07 -6.42933e-06
0.00244451 0.000396971 2.39158e-07
0.000396971 -6.75298e-05 3.82381e-07
2.39158e-07 3.82381e-07 -2.69089e-05
0.00219852 -1.14261e-05 3.199e-06
-1.14261e-05 -6.25481e-05 -1.03578e-07
3.199e-06 -1.03578e-07 -2.77304e-05
0.0023883 7.91e-05 1.978e-07
7.91e-05 -6.69021e-05 -2.13887e-07
1.978e-07 -2.13887e-07 2.19479e-05
0.00238366 0.000267692 -9.46634e-07
0.000267692 -7.538e-05 -4.01087e-07
-9.46634e-07 -4.01087e-07 -1.75915e-05
0.00249867 0.000197988 -1.10488e-07
0.000197988 -0.000103414 -1.53928e-07
-1.10488e-07 -1.53928e-07 2.16602e-05
0.00252772 0.000541438 -2.81796e-07
0.000541438 -3.88026e-06 -4.4422e-07
-2.81796e-07 -4.4422e-07 -1.187e-05
0.00251325 0.000388601 7.34415e-07
0.000388601 -0.000135201 2.76229e-08
7.34415e-07 2.76229e-08 -5.3188e-05
0.00244129 -9.12207e-05 -1.40236e-06
-9.12207e-05 0.000124035 4.33447e-08
-1.40236e-06 4.33447e-08 8.95582e-05
0.00219347 -0.000299268 2.0117e-06
-0.000299268 -4.42878e-05 1.04928e-07
2.0117e-06 1.04928e-07 -0.000120479
0.00224086 -0.000165091 -3.06324e-06
-0.000165091 -4.03466e-05 2.50897e-07
-3.06324e-06 2.50897e-07 -1.4695e-05
0.00242144 -0.000397614 -5.26625e-06
-0.000397614 0.000106518 1.52726e-06
-5.26625e-06 1.52726e-06 5.82421e-05
0.000928323 -0.000564677 -1.30252e-05
-0.000564677 2.78542e-06 2.30719e-06
-1.30252e-05 2.30719e-06 -0.000537568
0.00292746 -0.00122347 -9.85623e-07
-0.00122347 0.000967111 4.43864e-07
-9.85623e-07 4.43864e-07 0.000244747
0.00225219 -0.00103683 -1.81294e-06
-0.00103683 0.000271255 1.54096e-06
-1.81294e-06 1.54096e-06 -0.000278794
0.00252778 -0.000667979 -4.86531e-06
-0.000667979 0.000230164 2.13793e-06
-4.86531e-06 2.13793e-06 6.36564e-05
0.00250492 -0.000572121 5.74745e-07
-0.000572121 2.25194e-05 -6.64704e-07
5.74745e-07 -6.64704e-07 -2.3074e-06
0.00257676 -0.000824398 -1.99973e-06
-0.000824398 0.000175376 1.53293e-06
-1.99973e-06 1.53293e-06 1.71403e-05
0.00259143 -0.000965654 -6.29727e-06
-0.000965654 0.000402185 3.70158e-06
-6.29727e-06 3.70158e-06 1.94287e-05
0.0025875 -0.000973824 -3.40022e-06
-0.000973824 0.000176452 3.61715e-07
-3.40022e-06 3.61715e-07 -2.89872e-05
0.00172895 -0.000856957 -5.02992e-06
-0.000856957 0.000644896 -1.19647e-05
-5.02992e-06 -1.19647e-05 -7.60312e-05
0.0020243 -0.00087618 -2.80921e-05
-0.00087618 0.000958301 -1.45987e-05
-2.80921e-05 -1.45987e-05 0.000209756
0.0021664 -0.000166336 -8.05386e-08
-0.000166336 0.00121473 6.05331e-06
-8.05386e-08 6.05331e-06 0.000889862
0.000344092 -0.000201054 -1.07713e-05
-0.000201054 -4.08301e-05 -4.55192e-06
-1.07713e-05 -4.55192e-06 -0.00044925
0.00221471 -9.74086e-05 -1.05764e-07
-9.74086e-05 -3.71771e-05 2.54543e-08
-1.05764e-07 2.54543e-08 -1.56691e-05
0.00235289 -0.000285793 1.16522e-06
-0.000285793 4.32452e-05 -2.36966e-07
1.16522e-06 -2.36966e-07 3.45159e-05
0.00233511 -0.000179861 1.45639e-08
-0.000179861 -5.6991e-05 -6.10574e-08
1.45639e-08 -6.10574e-08 7.33833e-06
0.00246176 -0.000450731 -3.47755e-07
-0.000450731 -4.5082e-05 3.33854e-07
-3.47755e-07 3.33854e-07 -6.90872e-06
0.00229855 -0.00112574 -1.51013e-06
-0.00112574 0.000749684 -1.89321e-07
-1.51013e-06 -1.89321e-07 -1.5704e-05
0.00242609 -0.00124728 2.61514e-06
-0.00124728 0.000548946 4.9954e-07
2.61514e-06 4.9954e-07 -0.000174903
0.00282254 -0.00111775 -5.42886e-07
-0.00111775 0.000617193 6.24957e-07
-5.42886e-07 6.24957e-07 7.61885e-05
0.00252133 -0.000696447 -9.52145e-07
-0.000696447 0.000101684 2.68618e-07
-9.52145e-07 2.68618e-07 1.2783e-06
0.00259499 -0.000611825 6.46683e-07
-0.000611825 -1.30012e-05 -6.27194e-07
6.46683e-07 -6.27194e-07 -3.88925e-06
0.00276546 -0.00102429 -1.96832e-06
-0.00102429 0.000460363 7.81425e-07
-1.96832e-06 7.81425e-07 0.000106347
0.0026982 -0.000896534 -1.13831e-06
-0.000896534 0.000144196 6.2692e-07
-1.13831e-06 6.2692e-07 2.94816e-05
0.00267628 -0.00102215 7.80019e-06
-0.00102215 0.000184798 -2.83402e-06
7.80019e-06 -2.83402e-06 -2.55523e-05
0.00222866 -0.00124503 -7.52544e-07
-0.00124503 0.000998044 -4.39232e-07
-7.52544e-07 -4.39232e-07 9.13759e-05
0.00234908 -0.00112876 -4.68754e-06
-0.00112876 0.00120304 -1.11295e-06
-4.68754e-06 -1.11295e-06 0.000315276
0.00118616 -0.000669756 -7.02773e-06
-0.000669756 0.000642027 3.50266e-06
-7.02773e-06 3.50266e-06 -3.93201e-06
9.67654e-05 -0.000210938 -5.39653e-06
-0.000210938 -0.000168373 2.53053e-06
-5.39653e-06 2.53053e-06 -0.000493241
0.000242837 -4.52919e-05 -4.26765e-06
-4.52919e-05 1.78955e-05 -3.29318e-07
-4.26765e-06 -3.29318e-07 -0.000474443
0.00236405 -0.000113029 -7.76212e-07
-0.000113029 -7.54808e-05 -2.66576e-08
-7.76212e-07 -2.66576e-08 1.02156e-05
0.00242052 -0.000274257 -1.48276e-06
-0.000274257 -8.81038e-05 -2.11638e-07
-1.48276e-06 -2.11638e-07 -6.53947e-06
0.00262958 -0.000548205 -3.09726e-08
-0.000548205 -0.000106434 5.21827e-08
-3.09726e-08 5.21827e-08 -5.30209e-06
0.00261859 -0.000748234 1.20769e-06
-0.000748234 1.95399e-05 6.42288e-07
1.20769e-06 6.42288e-07 -1.67802e-05
0.00264568 -0.00144414 5.709e-06
-0.00144414 0.00100153 -2.57433e-06
5.709e-06 -2.57433e-06 9.48776e-05
0.00282647 -0.00102689 5.37239e-07
-0.00102689 0.000115835 -8.24174e-07
5.37239e-07 -8.24174e-07 -2.03697e-05
0.00193394 -0.00123684 5.28531e-06
-0.00123684 0.000263955 4.38308e-06
5.28531e-06 4.38308e-06 -0.000464442
0.00297949 -0.00118913 2.35875e-06
-0.00118913 0.00069526 -7.98036e-07
2.35875e-06 -7.98036e-07 0.000157639
0.00268581 -0.00105642 -8.76855e-06
-0.00105642 0.000317091 -2.57121e-06
-8.76855e-06 -2.57121e-06 1.1496e-05
-0.000171073 -0.000186492 -2.28308e-06
-0.000186492 -0.000259118 6.91834e-06
-2.28308e-06 6.91834e-06 -0.000552554
0.00334966 -0.000506897 -2.8957e-06
-0.000506897 0.00208244 4.0043e-07
-2.8957e-06 4.0043e-07 0.00158474
-0.000104494 -0.000348041 -1.22192e-05
-0.000348041 -0.000181753 9.72439e-06
-1.22192e-05 9.72439e-06 -0.000672044
0.00317683 -0.00149543 -9.61685e-06
-0.00149543 0.00160953 7.1704e-06
-9.61685e-06 7.1704e-06 0.000606133
0.00389191 -0.000985326 1.02811e-06
-0.000985326 0.00219505 9.75811e-06
1.02811e-06 9.75811e-06 0.00151026
0.00224205 -0.00117626 -1.84937e-05
-0.00117626 0.00108489 1.86819e-05
-1.84937e-05 1.86819e-05 0.000162795
0.000263438 0.000111463 -1.50685e-05
0.000111463 -0.000112486 -1.76247e-05
-1.50685e-05 -1.76247e-05 -0.000199749
0.000349928 0.000297127 -3.47185e-06
0.000297127 6.56516e-05 -1.52975e-05
-3.47185e-06 -1.52975e-05 -0.000303873
0.00247169 0.000655119 -3.87013e-06
0.000655119 0.000136177 -2.10139e-06
-3.87013e-06 -2.10139e-06 -8.50222e-06
-0.000381087 -3.10271e-05 -9.34719e-06
-3.10271e-05 -0.000448953 -3.74362e-06
-9.34719e-06 -3.74362e-06 -0.000862897
0.00342888 0.000862296 1.64953e-05
0.000862296 0.00180097 1.00768e-05
1.64953e-05 1.00768e-05 0.00114877
0.00026022 0.000519904 -1.23632e-05
0.000519904 -0.000332287 -1.78002e-06
-1.23632e-05 -1.78002e-06 -0.000851252
0.00256856 0.000913137 -3.35567e-07
0.000913137 0.000349955 -2.16146e-06
-3.35567e-07 -2.16146e-06 3.97899e-06
0.00256639 0.000865259 1.64358e-06
0.000865259 0.000200351 -1.10919e-06
1.64358e-06 -1.10919e-06 -2.22108e-05
0.00322913 0.00153739 3.37233e-06
0.00153739 0.00149296 7.30932e-06
3.37233e-06 7.30932e-06 0.000513715
0.00376852 0.00149726 -7.87726e-06
0.00149726 0.0013963 4.1804e-06
-7.87726e-06 4.1804e-06 0.000614631
0.00291529 0.00105307 2.97364e-06
0.00105307 0.000480208 -1.13571e-06
2.97364e-06 -1.13571e-06 5.92303e-05
0.000941509 0.000221827 2.56783e-09
0.000221827 0.000419869 -2.34178e-07
2.56783e-09 -2.34178e-07 0.000143004
0.00101632 0.000415813 -5.03892e-06
0.000415813 0.000564078 -2.65815e-07
-5.03892e-06 -2.65815e-07 9.39197e-05
0.00183456 0.00111951 9.9287e-07
0.00111951 0.000842359 -5.19483e-07
9.9287e-07 -5.19483e-07 -6.48345e-06
0.00103414 0.000319331 -1.65361e-06
0.000319331 9.39778e-05 -8.07052e-07
-1.65361e-06 -8.07052e-07 -0.00025653
0.00158277 0.000802474 -8.55531e-07
0.000802474 0.000210383 -4.86195e-06
-8.55531e-07 -4.86195e-06 -0.000356245
0.00259255 0.000710694 -1.96598e-06
0.000710694 9.0158e-05 -1.13632e-06
-1.96598e-06 -1.13632e-06 -1.2371e-06
0.00270238 0.00100253 2.52519e-06
0.00100253 0.000351646 4.61067e-07
2.52519e-06 4.61067e-07 -1.40581e-06
0.00276481 0.000995973 1.08035e-06
0.000995973 0.000231166 1.16595e-06
1.08035e-06 1.16595e-06 2.51532e-05
0.0025853 0.00160501 2.88823e-06
0.00160501 0.00108562 2.13095e-06
2.88823e-06 2.13095e-06 7.68001e-05
0.00268397 0.00136023 -1.97257e-06
0.00136023 0.000556112 -4.10349e-06
-1.97257e-06 -4.10349e-06 -0.000139061
0.00135149 0.000606997 6.08556e-06
0.000606997 0.000737962 2.48295e-06
6.08556e-06 2.48295e-06 0.000332202
-0.00171529 0.000467861 4.19333e-06
0.000467861 -0.00122463 -1.12377e-05
4.19333e-06 -1.12377e-05 -0.00173195
0.0024141 0.00132138 -6.3358e-06
0.00132138 0.0011622 -2.99705e-06
-6.3358e-06 -2.99705e-06 0.000280452
-0.00226747 0.000650397 2.00241e-05
0.000650397 -0.00204693 -7.69786e-07
2.00241e-05 -7.69786e-07 -0.00264109
0.00264331 0.00122929 1.88864e-06
0.00122929 0.000787707 -1.0199e-06
1.88864e-06 -1.0199e-06 8.64149e-05
0.00275423 0.000837585 -1.48964e-06
0.000837585 1.76795e-05 3.32523e-07
-1.48964e-06 3.32523e-07 1.6926e-06
0.00281453 0.00107843 8.82797e-06
0.00107843 0.000345894 -1.12655e-06
8.82797e-06 -1.12655e-06 -4.61449e-05
0.00246376 0.000941431 7.1415e-06
0.000941431 -5.05271e-05 1.98735e-06
7.1415e-06 1.98735e-06 -0.000265497
0.00304523 0.00169365 2.54037e-05
0.00169365 0.00124409 9.36397e-06
2.54037e-05 9.36397e-06 0.00024796
0.00286854 0.00160399 1.39431e-05
0.00160399 0.000789811 3.84022e-06
1.39431e-05 3.84022e-06 -4.48184e-05
0.000441817 0.00012118 8.31263e-06
0.00012118 8.02141e-05 -9.8618e-06
8.31263e-06 -9.8618e-06 -0.000129347
0.000722341 0.000304357 -2.35418e-06
0.000304357 0.00034754 6.66175e-07
-2.35418e-06 6.66175e-07 1.9374e-05
-0.000593347 0.000132776 -6.55806e-06
0.000132776 -0.000514706 -3.18089e-05
-6.55806e-06 -3.18089e-05 -0.000730928
-0.0015096 -4.52366e-05 1.28437e-05
-4.52366e-05 -0.00107831 -2.39768e-06
1.28437e-05 -2.39768e-06 -0.00134388
0.000593435 0.00014694 -2.97799e-06
0.00014694 0.000292067 3.972e-07
-2.97799e-06 3.972e-07 5.917e-05
-0.000211209 0.000114886 6.50671e-06
0.000114886 -0.000161902 9.27035e-07
6.50671e-06 9.27035e-07 -0.000445538
0.000876879 0.000280442 -1.3565e-06
0.000280442 0.000583814 -3.56133e-06
-1.3565e-06 -3.56133e-06 0.000313104
0.000400745 -6.14391e-06 -1.49095e-05
-6.14391e-06 0.000232475 8.73386e-06
-1.49095e-05 8.73386e-06 -3.9335e-05
0.000955886 0.000166761 -4.36593e-06
0.000166761 0.000488878 -3.75425e-06
-4.36593e-06 -3.75425e-06 0.000306563
0.000486255 0.000109603 1.01431e-06
0.000109603 0.00011266 2.56214e-06
1.01431e-06 2.56214e-06 -4.26891e-06
0.000403852 5.33568e-05 -3.19878e-06
5.33568e-05 5.5812e-05 2.99449e-07
-3.19878e-06 2.99449e-07 -5.84567e-05
0.00152579 9.41883e-06 1.59304e-06
9.41883e-06 0.000754619 5.1631e-06
1.59304e-06 5.1631e-06 0.00071612
-8.14317e-05 -7.62227e-05 1.01578e-05
-7.62227e-05 -0.000252698 -2.86658e-06
1.01578e-05 -2.86658e-06 -0.000383353
0.00160301 2.29118e-05 -1.81538e-05
2.29118e-05 0.000803254 -2.83941e-06
-1.81538e-05 -2.83941e-06 0.00076289
0.000696571 2.69773e-07 5.75754e-05
2.69773e-07 0.000190865 1.3633e-05
5.75754e-05 1.3633e-05 0.000188586
0.00171841 3.11114e-05 -2.84119e-05
3.11114e-05 0.000874004 -1.3005e-05
-2.84119e-05 -1.3005e-05 0.000830161
0.00076062 -2.44243e-05 3.17915e-05
-2.44243e-05 0.00023487 5.37892e-06
3.17915e-05 5.37892e-06 0.00022083
0.00398315 -0.000186026 2.19989e-05
-0.000186026 0.00242113 -8.10439e-06
2.19989e-05 -8.10439e-06 0.00239242
0.000392504 0.000116242 -2.70922e-06
0.000116242 5.23105e-05 -1.0055e-05
-2.70922e-06 -1.0055e-05 -5.38393e-05
0.000453278 -7.05936e-05 -8.12657e-06
-7.05936e-05 3.84357e-05 -8.12568e-07
-8.12657e-06 -8.12568e-07 -6.55356e-05
0.00420998 0.000268233 -4.36552e-05
0.000268233 0.00262776 -1.75188e-05
-4.36552e-05 -1.75188e-05 0.00257338
0.000665124 -0.000186908 -1.81511e-05
-0.000186908 0.00016125 1.4554e-05
-1.81511e-05 1.4554e-05 3.58136e-05
0.0049204 0.000176815 -3.09125e-05
0.000176815 0.00309769 -9.51166e-07
-3.09125e-05 -9.51166e-07 0.00306112
0.00690225 8.49965e-05 -0.000271091
8.49965e-05 0.00443689 5.65699e-05
-0.000271091 5.65699e-05 0.00440357
0.0024278 0.000517448 -3.74502e-06
0.000517448 7.23001e-05 -1.25165e-06
-3.74502e-06 -1.25165e-06 1.76599e-06
0.00223929 0.000263228 -3.95114e-06
0.000263228 -3.20936e-05 -5.77052e-07
-3.95114e-06 -5.77052e-07 -3.49132e-05
0.00245277 0.000388101 9.19639e-07
0.000388101 -6.81996e-05 8.77992e-07
9.19639e-07 8.77992e-07 -2.14896e-05
0.00235645 0.000190547 1.48308e-06
0.000190547 -9.67488e-05 2.98868e-07
1.48308e-06 2.98868e-07 -1.40409e-05
0.00220389 7.10353e-05 -3.33015e-06
7.10353e-05 -6.35281e-05 -3.34604e-08
-3.33015e-06 -3.34604e-08 -2.87588e-05
0.00243973 -5.90289e-06 -4.62759e-06
-5.90289e-06 0.000116005 9.95654e-08
-4.62759e-06 9.95654e-08 8.72682e-05
0.00220243 -1.27794e-05 2.20536e-07
-1.27794e-05 -5.47562e-05 -2.38032e-08
2.20536e-07 -2.38032e-08 -2.35064e-05
0.00237163 8.16826e-05 4.00051e-07
8.16826e-05 -7.35288e-05 3.63244e-08
4.00051e-07 3.63244e-08 1.02402e-05
0.00239893 0.000267829 -7.56199e-07
0.000267829 -5.84109e-05 -8.48242e-08
-7.56199e-07 -8.48242e-08 -3.41358e-06
0.00246326 0.00020132 5.73585e-07
0.00020132 -0.000132019 1.53712e-07
5.73585e-07 1.53712e-07 4.93114e-06
0.00254167 0.000545452 -2.66225e-07
0.000545452 6.96047e-06 4.27259e-08
-2.66225e-07 4.27259e-08 -4.78676e-06
0.00254311 0.000392695 1.7371e-06
0.000392695 -0.000115547 7.61524e-07
1.7371e-06 7.61524e-07 -2.14285e-05
0.00234785 -1.57203e-05 -1.16643e-06
-1.57203e-05 -8.55598e-05 -4.08311e-08
-1.16643e-06 -4.08311e-08 -1.57415e-06
0.00250902 9.96408e-05 -6.22923e-07
9.96408e-05 -0.0001314 -4.94474e-07
-6.22923e-07 -4.94474e-07 1.94084e-05
0.00255 0.000282725 2.49687e-07
0.000282725 -0.000115818 -1.37742e-07
2.49687e-07 -1.37742e-07 2.64848e-05
0.00266205 0.000553801 2.33689e-07
0.000553801 -0.0001233 3.55128e-07
2.33689e-07 3.55128e-07 -1.6471e-05
0.00221333 -9.69739e-05 -4.92537e-06
-9.69739e-05 -3.92838e-05 4.68167e-07
-4.92537e-06 4.68167e-07 -1.79006e-05
0.00237709 -0.000288597 -4.08508e-06
-0.000288597 6.27124e-05 1.02745e-06
-4.08508e-06 1.02745e-06 5.29296e-05
0.00231012 -0.000178289 8.58577e-07
-0.000178289 -7.89744e-05 -4.65503e-07
8.58577e-07 -4.65503e-07 -1.06406e-05
0.00243181 -0.000450287 -1.2454e-06
-0.000450287 -5.81515e-05 -3.45205e-07
-1.2454e-06 -3.45205e-07 -2.9252e-05
0.0027366 -0.00115518 4.59577e-06
-0.00115518 0.00104523 -6.51043e-06
4.59577e-06 -6.51043e-06 0.000274778
0.00234875 -0.00125442 5.99826e-06
-0.00125442 0.000470356 -3.7362e-07
5.99826e-06 -3.7362e-07 -0.000259651
0.00278919 -0.00113115 -1.32896e-05
-0.00113115 0.000596768 2.40144e-06
-1.32896e-05 2.40144e-06 4.32427e-05
0.00257877 -0.000699338 -2.56072e-06
-0.000699338 0.000149459 1.20633e-06
-2.56072e-06 1.20633e-06 4.1821e-05
0.00258182 -0.000610421 2.18776e-06
-0.000610421 -2.09868e-05 -7.87108e-07
2.18776e-06 -7.87108e-07 -8.7194e-07
0.00270404 -0.000898964 -4.75947e-06
-0.000898964 0.000143335 1.04627e-06
-4.75947e-06 1.04627e-06 2.73027e-05
0.00274687 -0.00103058 -5.05276e-06
-0.00103058 0.000457737 3.0487e-06
-5.05276e-06 3.0487e-06 0.000101736
0.00266465 -0.00101126 -8.75358e-07
-0.00101126 0.000174991 -8.48394e-07
-8.75358e-07 -8.48394e-07 -2.63513e-05
0.00249789 -0.00127172 -2.56625e-05
-0.00127172 0.00119014 -4.94264e-06
-2.56625e-05 -4.94264e-06 0.000276948
0.00214833 -0.00109055 1.37751e-05
-0.00109055 0.0010766 -1.70443e-05
1.37751e-05 -1.70443e-05 0.000224033
0.00010954 -0.000417377 -1.5912e-05
-0.000417377 -6.30892e-05 -5.81688e-06
-1.5912e-05 -5.81688e-06 -0.000671817
0.000227407 -0.000125627 -5.17438e-06
-0.000125627 -5.2969e-05 1.71649e-06
-5.17438e-06 1.71649e-06 -0.000370994
0.00175698 -5.8761e-05 -1.81631e-06
-5.8761e-05 0.000946866 -2.21055e-06
-1.81631e-06 -2.21055e-06 0.000486788
0.00235803 -0.00012133 1.3945e-07
-0.00012133 -7.70122e-05 -8.12696e-08
1.3945e-07 -8.12696e-08 6.61994e-06
0.00242499 -0.000275469 1.71062e-06
-0.000275469 -8.66681e-05 -7.14763e-08
1.71062e-06 -7.14763e-08 -7.50311e-06
0.00260101 -0.000542231 -1.08886e-06
-0.000542231 -0.000106747 1.58824e-07
-1.08886e-06 1.58824e-07 -1.91664e-05
0.00276716 -0.00143738 -1.63972e-06
-0.00143738 0.00107303 -4.89784e-07
-1.63972e-06 -4.89784e-07 0.000174726
0.0020202 -0.00124336 5.40927e-06
-0.00124336 0.000312496 -6.49516e-07
5.40927e-06 -6.49516e-07 -0.000416837
0.00290305 -0.00119482 -1.77522e-06
-0.00119482 0.000648959 -5.03546e-07
-1.77522e-06 -5.03546e-07 9.66713e-05
0.00262086 -0.000737416 2.57106e-07
-0.000737416 2.96994e-05 -4.22022e-07
2.57106e-07 -4.22022e-07 -8.4065e-06
0.00271708 -0.0010797 5.47554e-06
-0.0010797 0.000318946 -2.81281e-06
5.47554e-06 -2.81281e-06 1.13625e-05
0.00282478 -0.00101885 -5.64562e-07
-0.00101885 0.000139388 -6.07951e-07
-5.64562e-07 -6.07951e-07 5.10373e-06
-0.000371411 -2.88758e-05 -3.94413e-06
-2.88758e-05 -0.000435183 -2.6837e-07
-3.94413e-06 -2.6837e-07 -0.000684364
0.00221543 -0.00131716 -5.93763e-07
-0.00131716 0.00101748 -1.38405e-06
-5.93763e-07 -1.38405e-06 7.68517e-05
0.00262283 -0.0012801 -4.59678e-06
-0.0012801 0.00131704 5.49252e-06
-4.59678e-06 5.49252e-06 0.000339585
0.00215376 -0.000804256 4.96264e-06
-0.000804256 0.00117507 3.01329e-06
4.96264e-06 3.01329e-06 0.000470277
0.000584417 -0.000376498 -9.6316e-07
-0.000376498 0.000209354 1.22093e-07
-9.6316e-07 1.22093e-07 -0.000280881
0.00152735 -0.000247524 -2.78393e-06
-0.000247524 0.000849158 2.13416e-06
-2.78393e-06 2.13416e-06 0.000372613
0.00245459 -0.000155161 -1.81703e-06
-0.000155161 -0.000149045 1.84085e-07
-1.81703e-06 1.84085e-07 -1.2779e-05
0.00260481 -0.000363026 1.27476e-06
-0.000363026 -0.000193178 -8.72796e-08
1.27476e-06 -8.72796e-08 -1.26165e-05
0.00274211 -0.000686285 4.46409e-07
-0.000686285 -8.12925e-05 5.87063e-07
4.46409e-07 5.87063e-07 1.66706e-05
0.00277359 -0.000885565 4.43341e-07
-0.000885565 -4.88101e-06 8.82171e-07
4.43341e-07 8.82171e-07 5.60155e-06
0.00268058 -0.00148894 -1.79621e-06
-0.00148894 0.00104963 6.43546e-06
-1.79621e-06 6.43546e-06 0.000134282
0.00284999 -0.00117219 2.00172e-07
-0.00117219 0.00024261 -6.04822e-06
2.00172e-07 -6.04822e-06 -2.16507e-05
0.00299796 -0.00152238 -4.25756e-05
-0.00152238 0.000932659 1.15929e-05
-4.25756e-05 1.15929e-05 9.7583e-05
0.00271281 -0.00125924 -3.04045e-05
-0.00125924 0.00052354 3.80509e-07
-3.04045e-05 3.80509e-07 -1.31899e-05
-0.000921304 -1.05467e-05 -1.44887e-06
-1.05467e-05 -0.00082951 7.38692e-07
-1.44887e-06 7.38692e-07 -0.00099041
0.00150288 -0.00022715 -3.56556e-06
-0.00022715 0.000957253 6.5523e-06
-3.56556e-06 6.5523e-06 0.000513871
0.0032404 -0.0005978 -1.6816e-05
-0.0005978 0.00198003 9.36457e-06
-1.6816e-05 9.36457e-06 0.00150843
0.000339008 -0.000423983 -1.23133e-06
-0.000423983 4.69906e-05 -1.0072e-05
-1.23133e-06 -1.0072e-05 -0.000406142
0.00323006 -0.00146651 -2.28807e-05
-0.00146651 0.00162081 2.70439e-05
-2.28807e-05 2.70439e-05 0.00062839
0.0022882 -0.00116403 -2.50316e-05
-0.00116403 0.00117318 2.16434e-05
-2.50316e-05 2.16434e-05 0.000189325
6.30843e-05 0.00015344 1.82274e-06
0.00015344 -0.00011606 -8.12486e-06
1.82274e-06 -8.12486e-06 -0.000419607
0.000205026 0.000222432 -5.6839e-06
0.000222432 -2.02535e-05 -6.88199e-06
-5.6839e-06 -6.88199e-06 -0.000423744
0.00259409 0.00070964 -1.41868e-06
0.00070964 0.000104471 -1.24303e-06
-1.41868e-06 -1.24303e-06 1.12164e-05
0.000411688 0.000289733 -1.06313e-05
0.000289733 -0.000310766 1.17006e-05
-1.06313e-05 1.17006e-05 -0.000647445
0.00204319 0.00116121 9.73678e-06
0.00116121 0.000955757 3.42288e-06
9.73678e-06 3.42288e-06 7.63296e-05
0.000999786 0.00069418 -1.21361e-05
0.00069418 -0.000109883 -5.75948e-06
-1.21361e-05 -5.75948e-06 -0.000639031
0.00272673 0.00100917 3.51624e-06
0.00100917 0.000342786 -2.82605e-06
3.51624e-06 -2.82605e-06 -1.22846e-05
0.00284804 0.00100127 -3.88613e-06
0.00100127 0.000251564 -1.95474e-06
-3.88613e-06 -1.95474e-06 5.40436e-05
0.00293499 0.00168079 -8.04205e-06
0.00168079 0.00127237 7.15728e-07
-8.04205e-06 7.15728e-07 0.000246282
0.00258444 0.00136713 -1.18468e-05
0.00136713 0.000560697 -1.345e-06
-1.18468e-05 -1.345e-06 -0.00015351
0.000862054 0.000354306 3.87883e-07
0.000354306 0.000431837 -4.95664e-07
3.87883e-07 -4.95664e-07 4.10403e-05
0.00156647 0.000506021 -3.15457e-06
0.000506021 0.000837194 -9.91302e-06
-3.15457e-06 -9.91302e-06 0.00035683
0.00168376 0.00118396 -3.00449e-06
0.00118396 0.000719682 -1.92388e-06
-3.00449e-06 -1.92388e-06 -0.000125715
0.00179757 0.000649888 2.33067e-06
0.000649888 0.000362197 2.48947e-06
2.33067e-06 2.48947e-06 -8.94762e-05
0.00373277 0.00126162 -6.14552e-06
0.00126162 0.00155593 2.91191e-07
-6.14552e-06 2.91191e-07 0.000857127
0.00279774 0.000849168 -2.41754e-06
0.000849168 2.97493e-05 -4.72985e-07
-2.41754e-06 -4.72985e-07 6.19768e-06
0.00286099 0.00103136 2.84543e-06
0.00103136 0.000387794 -1.12951e-06
2.84543e-06 -1.12951e-06 2.59982e-05
0.00280213 0.000964573 5.21659e-07
0.000964573 0.000194833 2.4751e-06
5.21659e-07 2.4751e-06 -3.03463e-05
0.00281432 0.00168325 8.30602e-06
0.00168325 0.0010917 2.59333e-06
8.30602e-06 2.59333e-06 8.89423e-05
0.00293146 0.001705 -5.55734e-06
0.001705 0.000833872 2.10657e-06
-5.55734e-06 2.10657e-06 -6.10976e-05
-0.00184664 0.000166189 -1.09903e-05
0.000166189 -0.00131484 -2.53464e-06
-1.09903e-05 -2.53464e-06 -0.00162321
-0.00148223 0.000577547 4.80967e-06
0.000577547 -0.000699584 -1.23095e-05
4.80967e-06 -1.23095e-05 -0.00142194
0.00246157 0.00135413 1.04693e-05
0.00135413 0.00100946 1.60357e-06
1.04693e-05 1.60357e-06 0.000162094
0.00371929 0.00101535 7.5234e-06
0.00101535 0.00148232 -5.56264e-06
7.5234e-06 -5.56264e-06 0.000940428
0.00293853 0.00076103 4.93483e-06
0.00076103 -0.00023869 4.01953e-06
4.93483e-06 4.01953e-06 -9.31209e-06
0.00285552 0.00105321 8.21424e-06
0.00105321 4.47846e-05 3.12251e-06
8.21424e-06 3.12251e-06 -4.12976e-05
0.00314944 0.00138176 1.20521e-05
0.00138176 0.000604727 -3.2508e-06
1.20521e-05 -3.2508e-06 -1.85804e-05
0.00273513 0.0017811 1.79755e-05
0.0017811 0.000809384 4.32929e-06
1.79755e-05 4.32929e-06 -0.00021206
0.00217223 0.000356828 1.11126e-05
0.000356828 0.00135362 2.85892e-06
1.11126e-05 2.85892e-06 0.000982355
0.000168593 0.00026823 -4.8657e-06
0.00026823 4.3061e-05 3.31395e-06
-4.8657e-06 3.31395e-06 -0.000221071
-0.000455058 9.93404e-05 4.05032e-06
9.93404e-05 -0.000314703 -1.35417e-05
4.05032e-06 -1.35417e-05 -0.000488265
-0.000434764 1.65357e-05 6.74849e-06
1.65357e-05 -0.000405828 2.39123e-06
6.74849e-06 2.39123e-06 -0.000624686
-0.00305436 -6.20954e-06 4.47391e-06
-6.20954e-06 -0.00191949 -3.27881e-06
4.47391e-06 -3.27881e-06 -0.00223175
0.000749033 0.000106604 -1.35696e-06
0.000106604 0.000354703 -5.08737e-07
-1.35696e-06 -5.08737e-07 0.000168051
0.000736768 0.000284525 1.26e-05
0.000284525 0.000544091 3.82935e-06
1.26e-05 3.82935e-06 0.000272033
0.000726218 0.000116472 1.62546e-06
0.000116472 0.000486051 3.47834e-06
1.62546e-06 3.47834e-06 0.000175829
0.00184036 0.000265995 -9.08227e-06
0.000265995 0.00103115 -1.44245e-05
-9.08227e-06 -1.44245e-05 0.000889323
0.00058991 8.58897e-05 -7.20617e-06
8.58897e-05 0.000417242 -2.26561e-06
-7.20617e-06 -2.26561e-06 0.000120565
-0.00029722 7.52278e-05 -8.07049e-06
7.52278e-05 -0.000270464 5.78464e-06
-8.07049e-06 5.78464e-06 -0.000505204
0.000956274 0.000185947 -3.46721e-09
0.000185947 0.00048268 2.29543e-06
-3.46721e-09 2.29543e-06 0.000293968
0.000481468 0.000116784 2.97655e-06
0.000116784 0.000117816 4.49008e-06
2.97655e-06 4.49008e-06 -6.7472e-06
0.000416727 2.77779e-05 -2.03729e-06
2.77779e-05 6.27195e-05 -5.65215e-07
-2.03729e-06 -5.65215e-07 -5.02474e-05
0.00138488 3.84601e-05 9.60934e-07
3.84601e-05 0.000667788 3.64902e-06
9.60934e-07 3.64902e-06 0.000631088
0.000275322 -4.88256e-05 3.77313e-06
-4.88256e-05 -3.52355e-05 -1.32175e-06
3.77313e-06 -1.32175e-06 -0.000142404
0.00147877 1.93454e-05 -1.69539e-05
1.93454e-05 0.000729074 -2.31936e-06
-1.69539e-05 -2.31936e-06 0.000690684
0.000713462 5.32752e-06 5.28054e-05
5.32752e-06 0.00020654 1.24683e-05
5.28054e-05 1.24683e-05 0.000205147
0.00149503 -3.49847e-05 -1.68381e-05
-3.49847e-05 0.000735547 -1.0677e-05
-1.68381e-05 -1.0677e-05 0.000696381
0.000730322 -1.58591e-05 2.63175e-05
-1.58591e-05 0.000212273 4.98051e-06
2.63175e-05 4.98051e-06 0.000204399
0.000666897 -3.49256e-05 7.18586e-06
-3.49256e-05 0.000175545 -6.25013e-06
7.18586e-06 -6.25013e-06 0.000156883
0.000448933 8.24293e-06 5.00637e-06
8.24293e-06 2.29732e-05 -1.04794e-05
5.00637e-06 -1.04794e-05 -3.10276e-05
0.000296664 9.5686e-06 -1.67738e-06
9.5686e-06 -5.36917e-05 5.01682e-07
-1.67738e-06 5.01682e-07 -0.000142756
0.00348691 0.000191407 -2.28906e-05
0.000191407 0.00210384 -1.31046e-05
-2.28906e-05 -1.31046e-05 0.00207458
-0.000490221 -9.03809e-05 -2.20266e-05
-9.03809e-05 -0.000578675 9.18654e-06
-2.20266e-05 9.18654e-06 -0.000687481
0.00472189 0.000167348 -3.00154e-05
0.000167348 0.00293026 -1.61929e-06
-3.00154e-05 -1.61929e-06 0.00289971
0.00504277 5.84594e-05 -0.000190434
5.84594e-05 0.00316603 3.63198e-05
-0.000190434 3.63198e-05 0.00315887
0.00255281 0.000548881 6.81425e-07
0.000548881 1.66198e-05 7.00064e-07
6.81425e-07 7.00064e-07 1.32465e-06
0.00241425 0.000267914 2.45877e-07
0.000267914 -4.19609e-05 -1.48943e-08
2.45877e-07 -1.48943e-08 1.01507e-05
0.0025728 0.000395919 8.76396e-07
0.000395919 -9.63703e-05 1.81856e-06
8.76396e-07 1.81856e-06 9.86549e-06
0.0024259 0.000204513 1.65927e-06
0.000204513 -0.000162443 2.52183e-07
1.65927e-06 2.52183e-07 -1.36619e-05
0.00235621 8.41399e-05 1.00168e-06
8.41399e-05 -7.89346e-05 1.7879e-07
1.00168e-06 1.7879e-07 -4.25957e-07
0.00221 -1.48974e-05 -5.03635e-06
-1.48974e-05 -4.47237e-05 1.62215e-07
-5.03635e-06 1.62215e-07 -1.69653e-05
0.0023513 -1.52949e-05 5.04515e-07
-1.52949e-05 -8.29638e-05 -2.29743e-08
5.04515e-07 -2.29743e-08 2.60028e-06
0.00247451 0.000105462 4.08927e-07
0.000105462 -0.000147088 1.78694e-07
4.08927e-07 1.78694e-07 2.90811e-06
0.002539 0.000287039 6.92272e-07
0.000287039 -0.000129165 -2.95246e-08
6.92272e-07 -2.95246e-08 1.30187e-05
0.00267399 0.000535327 3.82937e-07
0.000535327 -0.000110866 2.48707e-07
3.82937e-07 2.48707e-07 2.39444e-06
0.002475 -1.42242e-05 -1.85779e-06
-1.42242e-05 -0.000151295 -2.18942e-07
-1.85779e-06 -2.18942e-07 -5.03183e-06
0.0026329 0.000179934 1.90137e-07
0.000179934 -0.000174471 -8.00178e-07
1.90137e-07 -8.00178e-07 4.85671e-05
0.00276742 0.000381327 2.81422e-06
0.000381327 -0.000182456 -9.22182e-08
2.81422e-06 -9.22182e-08 2.47702e-05
0.00235374 -0.000129322 1.38944e-06
-0.000129322 -7.70071e-05 -1.95429e-07
1.38944e-06 -1.95429e-07 4.42421e-06
0.00242869 -0.000275751 -1.05522e-07
-0.000275751 -8.53958e-05 -2.82417e-07
-1.05522e-07 -2.82417e-07 -8.63265e-06
0.00257055 -0.000535549 -5.66709e-07
-0.000535549 -0.000108438 -9.27087e-08
-5.66709e-07 -9.27087e-08 -3.35557e-05
0.00284465 -0.0014332 -8.15402e-06
-0.0014332 0.00111006 5.22252e-07
-8.15402e-06 5.22252e-07 0.000214023
0.00213097 -0.00123635 2.81675e-06
-0.00123635 0.000385002 -2.70709e-06
2.81675e-06 -2.70709e-06 -0.000337023
0.00274921 -0.00117897 -8.63052e-07
-0.00117897 0.00055616 1.45474e-06
-8.63052e-07 1.45474e-06 -1.0142e-06
0.00262122 -0.000726943 -1.03529e-06
-0.000726943 3.63501e-05 6.02969e-08
-1.03529e-06 6.02969e-08 -3.07247e-06
0.00283117 -0.00100949 -2.44582e-06
-0.00100949 0.000164945 9.21253e-07
-2.44582e-06 9.21253e-07 3.72398e-05
0.00276529 -0.00110478 6.17649e-06
-0.00110478 0.000331484 -2.86299e-06
6.17649e-06 -2.86299e-06 2.17389e-05
0.00190678 -0.00125565 -3.93003e-06
-0.00125565 0.000836327 -9.62682e-06
-3.93003e-06 -9.62682e-06 -9.01932e-05
0.00197899 -0.00122699 1.85972e-05
-0.00122699 0.00093856 -2.25131e-05
1.85972e-05 -2.25131e-05 -5.83048e-05
-0.000256676 -0.00078362 -9.91396e-06
-0.00078362 -0.000181602 -1.16656e-05
-9.91396e-06 -1.16656e-05 -0.00098965
4.83279e-05 5.78962e-06 5.76146e-06
5.78962e-06 -0.000121354 -9.87689e-06
5.76146e-06 -9.87689e-06 -0.000395642
0.00275306 -0.000499148 1.12577e-05
-0.000499148 0.00150008 -5.89674e-06
1.12577e-05 -5.89674e-06 0.00104624
-0.00111966 -3.79417e-05 9.89169e-06
-3.79417e-05 -0.00090937 1.32244e-06
9.89169e-06 1.32244e-06 -0.00136571
0.00247819 -0.000145668 -2.84128e-07
-0.000145668 -0.000132791 1.35544e-07
-2.84128e-07 1.35544e-07 -9.29779e-07
0.00259995 -0.000379384 6.82671e-08
-0.000379384 -0.000203488 -4.39997e-07
6.82671e-08 -4.39997e-07 -1.80801e-05
0.00272407 -0.000669244 -2.5267e-07
-0.000669244 -8.50731e-05 -5.79606e-08
-2.5267e-07 -5.79606e-08 1.20595e-05
0.00273093 -0.00149252 -1.30902e-06
-0.00149252 0.00106823 8.34683e-07
-1.30902e-06 8.34683e-07 0.000152524
0.00250401 -0.00144129 9.85422e-06
-0.00144129 0.000644487 -3.31755e-06
9.85422e-06 -3.31755e-06 -0.000163222
0.00274065 -0.0012476 -5.62179e-07
-0.0012476 0.000518621 -1.65889e-06
-5.62179e-07 -1.65889e-06 -6.50253e-06
0.00277312 -0.000899813 6.59093e-07
-0.000899813 -1.10106e-05 -4.05806e-07
6.59093e-07 -4.05806e-07 -8.76366e-06
0.00287408 -0.001164 2.30112e-06
-0.001164 0.000268078 -1.74238e-06
2.30112e-06 -1.74238e-06 1.0413e-05
-0.000135076 2.382e-05 2.55802e-07
2.382e-05 -0.00029206 -6.80472e-06
2.55802e-07 -6.80472e-06 -0.000461284
0.000485302 -0.000175951 -1.46205e-06
-0.000175951 0.000265315 1.03001e-08
-1.46205e-06 1.03001e-08 -0.000145432
0.00205677 -0.00129438 -9.13898e-06
-0.00129438 0.00090782 2.39803e-07
-9.13898e-06 2.39803e-07 -3.21712e-05
0.00106449 -0.000927063 3.72674e-06
-0.000927063 0.000445232 2.51235e-06
3.72674e-06 2.51235e-06 -0.000490558
0.00176045 -0.000447484 -2.70261e-06
-0.000447484 0.000884774 -5.82457e-06
-2.70261e-06 -5.82457e-06 0.000426018
0.00121997 -0.00046845 1.84431e-06
-0.00046845 0.000686919 -3.55814e-06
1.84431e-06 -3.55814e-06 0.00021215
0.00257457 -0.000198181 1.80928e-06
-0.000198181 -0.000239389 5.16788e-07
1.80928e-06 5.16788e-07 -8.34799e-06
0.00285058 -0.000556875 3.48526e-06
-0.000556875 -0.000216846 -7.21635e-08
3.48526e-06 -7.21635e-08 3.89682e-05
0.0027588 -0.000834881 1.92059e-06
-0.000834881 -0.000152692 8.40222e-07
1.92059e-06 8.40222e-07 -4.47007e-05
0.00302072 -0.00116386 4.83304e-06
-0.00116386 0.000178678 9.31663e-07
4.83304e-06 9.31663e-07 4.96001e-05
0.0025402 -0.0015301 -1.50512e-07
-0.0015301 0.00100394 -2.58411e-06
-1.50512e-07 -2.58411e-06 8.8107e-05
0.00318879 -0.0014979 2.282e-06
-0.0014979 0.000618654 -1.43076e-05
2.282e-06 -1.43076e-05 0.000114644
0.0022509 -0.00151174 -5.42401e-05
-0.00151174 0.000511581 4.13557e-06
-5.42401e-05 4.13557e-06 -0.000322763
0.00035918 2.71763e-05 1.84444e-06
2.71763e-05 4.13812e-06 -5.54026e-06
1.84444e-06 -5.54026e-06 -0.000110521
0.000568093 -0.000191704 6.7213e-06
-0.000191704 0.000233218 -5.63186e-06
6.7213e-06 -5.63186e-06 3.89093e-05
-0.00146321 4.68349e-07 -8.89302e-06
4.68349e-07 -0.00102144 4.23833e-06
-8.89302e-06 4.23833e-06 -0.00133235
0.00126777 -0.000382785 -1.34794e-05
-0.000382785 0.000860971 1.54914e-05
-1.34794e-05 1.54914e-05 0.0004001
0.00365921 -0.000240947 -1.36111e-05
-0.000240947 0.00219398 1.03436e-06
-1.36111e-05 1.03436e-06 0.00185074
-0.000507722 -0.000347048 -6.1082e-06
-0.000347048 -0.000348512 1.61271e-06
-6.1082e-06 1.61271e-06 -0.00109466
0.00306944 -0.00154335 -5.33208e-05
-0.00154335 0.00138872 4.97871e-05
-5.33208e-05 4.97871e-05 0.000397608
0.00360151 -0.0013216 -5.94783e-05
-0.0013216 0.00206523 4.14681e-05
-5.94783e-05 4.14681e-05 0.000892462
0.000918162 0.000177282 7.5947e-06
0.000177282 0.000453295 -2.35101e-06
7.5947e-06 -2.35101e-06 8.02965e-05
0.00203171 0.000632409 8.25898e-06
0.000632409 0.00116831 2.94149e-05
8.25898e-06 2.94149e-05 0.000619694
0.00284431 0.000862994 -1.56794e-06
0.000862994 4.09489e-05 -1.71322e-06
-1.56794e-06 -1.71322e-06 8.48357e-06
0.00217221 0.000510506 -1.2264e-05
0.000510506 0.000432512 -9.46166e-06
-1.2264e-05 -9.46166e-06 3.51103e-05
0.00184199 0.00117925 6.61716e-06
0.00117925 0.000828103 -4.4595e-06
6.61716e-06 -4.4595e-06 -1.78277e-05
0.00399604 0.00124471 9.13235e-06
0.00124471 0.00174568 7.19596e-06
9.13235e-06 7.19596e-06 0.00105558
0.00288897 0.000982066 -4.62334e-06
0.000982066 0.000417091 -3.72017e-06
-4.62334e-06 -3.72017e-06 8.65676e-05
0.00314776 0.000989062 -2.95801e-06
0.000989062 0.000444262 5.17547e-06
-2.95801e-06 5.17547e-06 0.000208158
0.00253494 0.00166578 -1.16273e-05
0.00166578 0.00090902 -5.08652e-06
-1.16273e-05 -5.08652e-06 -9.64189e-05
0.00282072 0.00178933 -2.52136e-05
0.00178933 0.00077418 -4.52364e-06
-2.52136e-05 -4.52364e-06 -0.000176404
-0.00142237 0.000267287 -1.55227e-06
0.000267287 -0.00100521 -5.37681e-07
-1.55227e-06 -5.37681e-07 -0.00137388
-0.000970288 0.000555821 3.69735e-06
0.000555821 -0.000405145 2.69675e-07
3.69735e-06 2.69675e-07 -0.00111145
0.00224173 0.00135762 2.51206e-07
0.00135762 0.000802405 -7.06971e-07
2.51206e-07 -7.06971e-07 -5.84748e-05
0.00318803 0.000947855 -9.88249e-06
0.000947855 0.00125504 -1.30094e-06
-9.88249e-06 -1.30094e-06 0.000707064
0.0028627 0.000721127 -1.77223e-07
0.000721127 -0.000326098 6.27451e-09
-1.77223e-07 6.27451e-09 -6.65699e-05
0.00299839 0.00105114 3.07672e-06
0.00105114 0.000138145 -1.25118e-06
3.07672e-06 -1.25118e-06 2.19672e-05
0.00293969 0.00133433 -4.65345e-06
0.00133433 0.000534085 -7.91314e-07
-4.65345e-06 -7.91314e-07 -7.03583e-05
0.00290524 0.00176383 2.33142e-06
0.00176383 0.000910444 1.41188e-06
2.33142e-06 1.41188e-06 -8.84188e-05
-0.00115067 4.10419e-05 -5.59136e-06
4.10419e-05 -0.000796545 -4.45024e-06
-5.59136e-06 -4.45024e-06 -0.00105227
0.00285111 0.000505126 7.11139e-06
0.000505126 -0.000385056 2.7634e-06
7.11139e-06 2.7634e-06 -5.05689e-05
0.00322739 0.000986447 -3.12774e-06
0.000986447 0.00212754 7.34297e-06
-3.12774e-06 7.34297e-06 0.00139129
0.00232715 0.00116825 1.10945e-05
0.00116825 0.000807523 -4.7402e-07
1.10945e-05 -4.7402e-07 4.96856e-05
0.00301772 0.00105033 -2.02605e-05
0.00105033 -8.89689e-05 -1.09753e-05
-2.02605e-05 -1.09753e-05 4.2156e-05
0.00231031 0.00129207 6.63871e-06
0.00129207 1.93027e-05 -1.0947e-05
6.63871e-06 -1.0947e-05 -0.000505967
0.00388675 0.00192959 1.11096e-05
0.00192959 0.00142504 6.5329e-06
1.11096e-05 6.5329e-06 0.000393309
0.000932411 0.000279805 4.34289e-06
0.000279805 0.000570404 1.16026e-05
4.34289e-06 1.16026e-05 0.000260097
0.000768029 0.000228062 -5.04012e-06
0.000228062 0.000484045 1.20256e-07
-5.04012e-06 1.20256e-07 0.000284663
-0.00130748 6.01606e-05 -4.5863e-06
6.01606e-05 -0.000842418 -2.87604e-06
-4.5863e-06 -2.87604e-06 -0.000996172
-0.000140157 7.36635e-06 4.14342e-06
7.36635e-06 -0.000252042 1.72735e-06
4.14342e-06 1.72735e-06 -0.000418107
0.000469874 0.000153865 8.861e-06
0.000153865 0.000296735 -1.36568e-05
8.861e-06 -1.36568e-05 3.62503e-06
-0.00104714 0.000158822 -1.0341e-05
0.000158822 -0.000581355 1.2818e-05
-1.0341e-05 1.2818e-05 -0.00082709
0.000466155 5.58601e-05 -1.70338e-06
5.58601e-05 0.000151276 -9.2374e-07
-1.70338e-06 -9.2374e-07 -2.80369e-05
0.000169829 3.5394e-05 8.42611e-07
3.5394e-05 5.93926e-05 -1.00985e-06
8.42611e-07 -1.00985e-06 -0.000191664
-0.000366492 0.00011056 -2.53158e-07
0.00011056 -0.000297289 2.04955e-06
-2.53158e-07 2.04955e-06 -0.000430741
0.000681692 0.000192856 3.44565e-06
0.000192856 0.000483142 -4.01307e-06
3.44565e-06 -4.01307e-06 0.000178894
0.00124614 0.000224545 -5.73159e-06
0.000224545 0.0007378 -1.31933e-05
-5.73159e-06 -1.31933e-05 0.000620584
0.000236855 0.000118691 4.77424e-08
0.000118691 9.53407e-05 -1.57506e-05
4.77424e-08 -1.57506e-05 -6.39136e-05
0.00132907 8.03674e-05 -6.75256e-06
8.03674e-05 0.000864689 5.38321e-06
-6.75256e-06 5.38321e-06 0.000572812
0.000643614 6.38056e-05 -6.94783e-06
6.38056e-05 0.000329457 9.55921e-07
-6.94783e-06 9.55921e-07 7.73361e-05
0.000601072 4.89588e-05 3.87968e-07
4.89588e-05 0.000218738 2.94533e-06
3.87968e-07 2.94533e-06 4.22063e-05
0.000412833 -9.76182e-05 -2.99029e-06
-9.76182e-05 5.91229e-05 3.91885e-06
-2.99029e-06 3.91885e-06 -5.79495e-05
0.000408352 1.74708e-05 1.02791e-06
1.74708e-05 4.84383e-05 -5.53188e-07
1.02791e-06 -5.53188e-07 -6.23295e-05
0.00140497 4.29466e-05 4.84349e-06
4.29466e-05 0.000684036 4.78178e-06
4.84349e-06 4.78178e-06 0.000648501
0.000386328 1.67996e-05 2.51153e-06
1.67996e-05 2.1621e-05 -2.53698e-06
2.51153e-06 -2.53698e-06 -7.72352e-05
0.00145571 2.41262e-05 -1.5641e-05
2.41262e-05 0.00071847 -2.35251e-06
-1.5641e-05 -2.35251e-06 0.000680969
0.000819492 1.02483e-05 4.70772e-05
1.02483e-05 0.000279993 1.14006e-05
4.70772e-05 1.14006e-05 0.000279417
0.00138827 -2.11832e-05 -1.56101e-05
-2.11832e-05 0.000665687 -9.18564e-06
-1.56101e-05 -9.18564e-06 0.000631536
0.000755546 -7.19024e-06 2.23724e-05
-7.19024e-06 0.000229544 4.90977e-06
2.23724e-05 4.90977e-06 0.000224442
0.000775404 -2.71678e-05 5.40973e-06
-2.71678e-05 0.000240315 -4.77008e-06
5.40973e-06 -4.77008e-06 0.000229394
0.000431741 -4.39045e-05 7.55165e-07
-4.39045e-05 3.61296e-05 -6.28995e-06
7.55165e-07 -6.28995e-06 -7.00679e-05
0.000156382 4.13778e-05 -5.79097e-07
4.13778e-05 -0.00015031 -9.64142e-06
-5.79097e-07 -9.64142e-06 -0.000206219
0.000211934 3.15175e-05 2.43921e-06
3.15175e-05 -0.000116929 1.43761e-06
2.43921e-06 1.43761e-06 -0.000180629
0.00372346 0.000140237 1.06888e-05
0.000140237 0.00223923 -8.71468e-06
1.06888e-05 -8.71468e-06 0.00222414
8.68692e-06 -2.0641e-05 -5.43708e-06
-2.0641e-05 -0.000253395 1.00154e-05
-5.43708e-06 1.00154e-05 -0.000338715
0.0040129 0.00022435 -1.33832e-05
0.00022435 0.00246932 -1.95796e-06
-1.33832e-05 -1.95796e-06 0.00243135
0.00478117 0.000146198 -9.09239e-05
0.000146198 0.00297109 1.39315e-05
-9.09239e-05 1.39315e-05 0.00294808
0.00268864 0.000518624 -2.347e-08
0.000518624 -9.49477e-05 5.41874e-07
-2.347e-08 5.41874e-07 2.38816e-05
0.00252895 0.000292469 -6.83384e-07
0.000292469 -0.000140647 3.56093e-07
-6.83384e-07 3.56093e-07 6.57915e-07
0.00243612 0.000111621 1.44705e-06
0.000111621 -0.000164507 4.27947e-07
1.44705e-06 4.27947e-07 -1.51539e-05
0.00235254 -1.49037e-05 2.65039e-07
-1.49037e-05 -8.18951e-05 -5.96837e-08
2.65039e-07 -5.96837e-08 5.13586e-06
0.00247971 -1.03657e-05 -3.57782e-07
-1.03657e-05 -0.000151281 -8.292e-08
-3.57782e-07 -8.292e-08 1.33926e-07
0.00258126 0.000179702 7.87662e-07
0.000179702 -0.000210225 2.88233e-07
7.87662e-07 2.88233e-07 1.53444e-05
0.00269556 0.000399362 -4.65344e-07
0.000399362 -0.000207722 -9.88234e-10
-4.65344e-07 -9.88234e-10 -3.20329e-06
0.00254394 -8.83299e-06 1.15873e-06
-8.83299e-06 -0.0002787 -3.05102e-07
1.15873e-06 -3.05102e-07 -3.08661e-05
0.00286479 0.000230288 3.85014e-06
0.000230288 -0.00022839 -1.80886e-06
3.85014e-06 -1.80886e-06 6.45336e-05
0.00274989 0.00025325 -7.65385e-07
0.00025325 -0.000510421 9.38468e-06
-7.65385e-07 9.38468e-06 -0.000130251
0.00250263 -0.000136949 1.38824e-06
-0.000136949 -0.000115162 -1.04268e-07
1.38824e-06 -1.04268e-07 1.24384e-05
0.00259807 -0.000397067 -1.9938e-06
-0.000397067 -0.000211227 4.28849e-07
-1.9938e-06 4.28849e-07 -2.18671e-05
0.0026991 -0.00065315 -3.52569e-07
-0.00065315 -9.24337e-05 3.98403e-07
-3.52569e-07 3.98403e-07 2.71637e-06
0.00244557 -0.00145206 -6.75797e-06
-0.00145206 0.000874319 -3.14145e-06
-6.75797e-06 -3.14145e-06 -3.00532e-05
0.00216807 -0.00140259 2.29548e-05
-0.00140259 0.000442898 -5.04622e-06
2.29548e-05 -5.04622e-06 -0.000355456
0.00287786 -0.00125907 1.96775e-05
-0.00125907 0.000580103 -8.39942e-07
1.96775e-05 -8.39942e-07 5.75205e-05
0.00276205 -0.000911273 7.13099e-07
-0.000911273 -1.77336e-05 -1.77684e-06
7.13099e-07 -1.77684e-06 -2.63488e-05
0.00289787 -0.00115061 3.87508e-06
-0.00115061 0.000299413 3.83002e-06
3.87508e-06 3.83002e-06 4.86245e-05
0.00226108 -0.0013229 1.57493e-05
-0.0013229 0.00102244 -2.89271e-05
1.57493e-05 -2.89271e-05 7.36751e-05
-0.000706705 -0.000591165 3.12529e-05
-0.000591165 -0.000606722 -2.19446e-05
3.12529e-05 -2.19446e-05 -0.00150529
0.00288117 -0.000593778 9.87107e-06
-0.000593778 0.00155883 1.74731e-06
9.87107e-06 1.74731e-06 0.00110563
0.000800649 -8.72202e-05 -3.19053e-06
-8.72202e-05 0.000333045 9.29162e-06
-3.19053e-06 9.29162e-06 0.000169464
-0.000158555 -1.86424e-05 1.00532e-05
-1.86424e-05 -0.000205088 -1.00908e-05
1.00532e-05 -1.00908e-05 -0.000571864
-0.000374673 -0.000298055 8.385e-06
-0.000298055 -0.000373643 -1.04078e-05
8.385e-06 -1.04078e-05 -0.000830961
0.00259321 -0.000199569 2.26808e-07
-0.000199569 -0.000232273 -2.59679e-07
2.26808e-07 -2.59679e-07 3.2931e-06
0.000585757 -6.83319e-05 2.30076e-06
-6.83319e-05 0.000149409 4.72326e-07
2.30076e-06 4.72326e-07 2.6282e-05
0.000436964 -0.000125629 -4.06863e-06
-0.000125629 0.000116734 -5.01326e-07
-4.06863e-06 -5.01326e-07 -5.29705e-05
0.00278609 -0.000548817 1.23708e-08
-0.000548817 -0.00024545 1.03726e-07
1.23708e-08 1.03726e-07 9.91989e-07
0.0027905 -0.000824783 -1.67233e-06
-0.000824783 -0.000113359 5.25456e-07
-1.67233e-06 5.25456e-07 -8.00445e-06
0.00266641 -0.00156577 -2.16179e-06
-0.00156577 0.00106934 2.31813e-06
-2.16179e-06 2.31813e-06 0.000130191
0.0034411 -0.00173728 1.05846e-05
-0.00173728 0.00115246 -3.43575e-06
1.05846e-05 -3.43575e-06 0.00025736
0.00306141 -0.00146511 3.99093e-06
-0.00146511 0.000567852 -9.23153e-07
3.99093e-06 -9.23153e-07 7.62411e-05
0.00290702 -0.00115556 2.32327e-06
-0.00115556 0.000108788 -1.21676e-06
2.32327e-06 -1.21676e-06 -9.86128e-06
6.3733e-05 -7.36741e-05 -3.74088e-06
-7.36741e-05 -2.09776e-05 -1.43458e-06
-3.74088e-06 -1.43458e-06 -0.000332295
0.000634531 -0.000281876 7.79497e-07
-0.000281876 0.000422319 7.73001e-07
7.79497e-07 7.73001e-07 -2.04702e-05
0.00225449 -0.00132984 1.81015e-05
-0.00132984 0.000982521 5.85182e-06
1.81015e-05 5.85182e-06 3.90385e-05
0.00232309 -0.00113119 1.8722e-05
-0.00113119 0.00130742 -1.89e-05
1.8722e-05 -1.89e-05 0.000212372
0.00147828 -0.000468711 -4.4291e-06
-0.000468711 0.000859219 -1.52712e-06
-4.4291e-06 -1.52712e-06 0.000189862
0.0010012 -0.000372793 1.14771e-05
-0.000372793 0.000511121 -3.69268e-06
1.14771e-05 -3.69268e-06 0.000169708
0.00267352 -0.000259992 3.64667e-06
-0.000259992 -0.000493765 -1.98557e-06
3.64667e-06 -1.98557e-06 -0.000104149
0.00306228 -0.000745641 -7.9617e-08
-0.000745641 -0.000142593 3.4869e-06
-7.9617e-08 3.4869e-06 0.000136715
0.00321539 -0.00122275 2.34341e-06
-0.00122275 7.24636e-05 -1.6736e-06
2.34341e-06 -1.6736e-06 6.12525e-05
0.00287326 -0.00138394 8.49948e-06
-0.00138394 0.000252436 -2.69355e-06
8.49948e-06 -2.69355e-06 -6.44829e-05
0.000892705 -0.00135625 1.54618e-05
-0.00135625 8.37609e-05 -7.78852e-06
1.54618e-05 -7.78852e-06 -0.000825067
0.00389628 -0.00201625 -1.57002e-06
-0.00201625 0.0012239 -1.92217e-05
-1.57002e-06 -1.92217e-05 0.000317308
0.000566907 9.22603e-05 -5.40177e-06
9.22603e-05 0.000199388 -5.02417e-06
-5.40177e-06 -5.02417e-06 2.64465e-05
-0.00112738 -9.35518e-05 3.89724e-06
-9.35518e-05 -0.00087391 1.20588e-06
3.89724e-06 1.20588e-06 -0.00107717
0.0018026 -0.000287059 -1.51725e-05
-0.000287059 0.00108015 1.73235e-05
-1.51725e-05 1.73235e-05 0.000838865
0.000285148 -0.00012656 -9.10265e-06
-0.00012656 0.000142224 1.94828e-05
-9.10265e-06 1.94828e-05 -0.000190933
0.00161078 -0.000482206 -2.13533e-05
-0.000482206 0.00101613 3.39205e-05
-2.13533e-05 3.39205e-05 0.000607168
-0.000384497 -0.000147195 -1.71881e-05
-0.000147195 -0.000460151 -1.31346e-05
-1.71881e-05 -1.31346e-05 -0.000732766
0.000719213 -0.000865279 -2.81255e-05
-0.000865279 0.000936006 3.07141e-05
-2.81255e-05 3.07141e-05 -0.000354595
0.00181755 -0.00164186 -0.000116585
-0.00164186 0.000490792 3.06921e-05
-0.000116585 3.06921e-05 -0.000290174
-0.000244285 0.000564844 8.56044e-07
0.000564844 -0.000139995 4.00716e-06
8.56044e-07 4.00716e-06 -0.000556904
0.00450444 0.000862874 -7.58745e-06
0.000862874 0.00285742 5.18002e-06
-7.58745e-06 5.18002e-06 0.00229608
0.0027905 0.000679239 -5.86613e-06
0.000679239 -0.000394333 -4.37495e-06
-5.86613e-06 -4.37495e-06 -0.000111431
0.0031311 0.00104704 -6.13893e-06
0.00104704 0.000228242 -2.23247e-06
-6.13893e-06 -2.23247e-06 8.2678e-05
0.00365678 0.000898377 -8.88751e-06
0.000898377 0.00167033 -1.8434e-06
-8.88751e-06 -1.8434e-06 0.00114943
0.00152679 0.00129188 -8.42866e-06
0.00129188 0.000290398 -1.11096e-05
-8.42866e-06 -1.11096e-05 -0.000564646
0.00278336 0.00129045 -7.67673e-06
0.00129045 0.0004955 1.08458e-06
-7.67673e-06 1.08458e-06 -9.11558e-05
0.00309906 0.00174031 -2.21934e-05
0.00174031 0.00102262 -5.38542e-06
-2.21934e-05 -5.38542e-06 4.85409e-05
6.20672e-05 0.000411879 1.36977e-06
0.000411879 0.000120877 -5.68277e-08
1.36977e-06 -5.68277e-08 -0.000265509
0.00283976 0.00050042 -5.11617e-06
0.00050042 -0.000390175 -5.12895e-06
-5.11617e-06 -5.12895e-06 -3.91735e-05
0.00275321 0.000852997 2.45279e-06
0.000852997 0.00187198 5.53624e-06
2.45279e-06 5.53624e-06 0.00121002
0.00159751 0.001044 3.5086e-06
0.001044 0.000407852 2.54494e-06
3.5086e-06 2.54494e-06 -0.000315343
0.00306925 0.00100492 -9.8021e-08
0.00100492 -9.46151e-06 -2.51882e-07
-9.8021e-08 -2.51882e-07 0.000126147
0.0026937 0.00136584 -4.30746e-06
0.00136584 0.000262762 -7.00369e-06
-4.30746e-06 -7.00369e-06 -0.000268248
0.00331091 0.00178383 -9.15282e-07
0.00178383 0.00112062 -4.13665e-07
-9.15282e-07 -4.13665e-07 0.000138469
0.00112231 0.000553357 -6.09608e-06
0.000553357 0.000919305 -7.23921e-06
-6.09608e-06 -7.23921e-06 0.0003795
0.00498641 0.00112166 -0.000152066
0.00112166 0.000599332 -5.93074e-05
-0.000152066 -5.93074e-05 0.00120436
0.00025934 0.000734704 -8.33584e-06
0.000734704 0.000161685 2.103e-05
-8.33584e-06 2.103e-05 -0.000533198
0.00185354 0.0012175 7.54187e-06
0.0012175 0.000623332 -8.94281e-06
7.54187e-06 -8.94281e-06 -0.00024672
0.00395388 0.00147567 -5.80558e-05
0.00147567 0.000807259 -2.41698e-05
-5.80558e-05 -2.41698e-05 0.000578709
0.00264495 0.00169424 -3.41766e-05
0.00169424 0.00070812 -1.05127e-05
-3.41766e-05 -1.05127e-05 -0.000201826
0.00104031 0.00248684 -8.41632e-06
0.00248684 -0.00419896 -5.93291e-05
-8.41632e-06 -5.93291e-05 -0.00162569
0.000848108 0.000303253 9.74737e-06
0.000303253 0.000610008 2.11751e-05
9.74737e-06 2.11751e-05 0.000391537
0.000145176 0.000212578 -4.54379e-06
0.000212578 0.00015513 -1.74056e-06
-4.54379e-06 -1.74056e-06 -3.92034e-05
-0.000484606 0.000148238 -3.90144e-06
0.000148238 -0.000247071 -6.54166e-07
-3.90144e-06 -6.54166e-07 -0.00045412
0.000209472 -5.17316e-05 4.19706e-06
-5.17316e-05 -2.30433e-05 -1.86902e-06
4.19706e-06 -1.86902e-06 -0.000198788
-0.000453826 4.59788e-05 6.39364e-06
4.59788e-05 -0.000349799 -7.88895e-06
6.39364e-06 -7.88895e-06 -0.000593858
0.00197052 0.000368451 -2.06182e-06
0.000368451 0.00132754 -8.01925e-06
-2.06182e-06 -8.01925e-06 0.00100602
-0.00223543 -1.80752e-05 -1.38237e-05
-1.80752e-05 -0.00142623 1.28182e-05
-1.38237e-05 1.28182e-05 -0.00156895
0.000398998 3.21228e-06 5.36543e-07
3.21228e-06 9.30129e-05 -5.5281e-07
5.36543e-07 -5.5281e-07 -8.64664e-05
0.000399559 0.000108137 8.04845e-07
0.000108137 0.000124035 -1.83358e-07
8.04845e-07 -1.83358e-07 -8.41443e-05
0.000113688 0.000163091 3.57193e-06
0.000163091 3.3137e-05 3.182e-06
3.57193e-06 3.182e-06 -6.25389e-05
1.49116e-05 8.74375e-05 1.34508e-06
8.74375e-05 -9.46077e-06 2.11701e-07
1.34508e-06 2.11701e-07 -0.000280825
0.000247536 0.000112911 1.98721e-06
0.000112911 0.000118805 3.04428e-06
1.98721e-06 3.04428e-06 -6.29515e-05
-2.06797e-05 0.000118161 8.22105e-06
0.000118161 0.000124738 -2.24348e-05
8.22105e-06 -2.24348e-05 -8.21837e-05
0.0009497 0.000143771 -3.33872e-06
0.000143771 0.000617248 1.22186e-07
-3.33872e-06 1.22186e-07 0.000340836
0.000703432 0.000129109 -4.56119e-06
0.000129109 0.000385236 1.34579e-06
-4.56119e-06 1.34579e-06 0.000151398
0.00080875 0.000155363 -8.1686e-06
0.000155363 0.000409696 -6.50905e-06
-8.1686e-06 -6.50905e-06 0.000193674
-3.27394e-06 3.7107e-06 -3.17728e-06
3.7107e-06 -0.000203584 -1.24787e-06
-3.17728e-06 -1.24787e-06 -0.000360438
0.00119222 -0.000246576 9.91344e-06
-0.000246576 0.000776709 -1.30015e-05
9.91344e-06 -1.30015e-05 0.000470418
0.000122255 -6.46056e-05 -3.10425e-06
-6.46056e-05 -9.72322e-05 2.10361e-06
-3.10425e-06 2.10361e-06 -0.000273029
0.000270553 4.512e-06 -2.87706e-06
4.512e-06 -2.98705e-05 3.27591e-06
-2.87706e-06 3.27591e-06 -0.00014747
0.000388823 5.44275e-05 2.31244e-06
5.44275e-05 4.97644e-05 -7.89517e-08
2.31244e-06 -7.89517e-08 -7.07665e-05
0.000280106 1.99399e-05 -4.05163e-06
1.99399e-05 -5.61427e-05 6.25549e-06
-4.05163e-06 6.25549e-06 -9.92865e-05
0.000245379 -2.76488e-06 -4.80962e-07
-2.76488e-06 -4.68612e-05 -4.63802e-06
-4.80962e-07 -4.63802e-06 -0.000165798
0.000842343 1.94221e-05 -6.12871e-06
1.94221e-05 0.000314993 -1.74446e-06
-6.12871e-06 -1.74446e-06 0.000275467
0.00287853 1.45681e-05 4.2103e-05
1.45681e-05 0.00165241 7.7081e-06
4.2103e-05 7.7081e-06 0.00166245
0.0014503 8.25893e-05 -2.68297e-05
8.25893e-05 0.000722646 -9.9055e-06
-2.68297e-05 -9.9055e-06 0.000682626
0.000756148 5.4769e-07 2.06378e-05
5.4769e-07 0.000233409 4.63614e-06
2.06378e-05 4.63614e-06 0.000230707
0.000775193 -1.70421e-05 4.35041e-06
-1.70421e-05 0.000237781 -3.53163e-06
4.35041e-06 -3.53163e-06 0.000231022
0.000260128 4.43586e-06 -3.70249e-06
4.43586e-06 -4.96008e-05 -7.84282e-06
-3.70249e-06 -7.84282e-06 -0.000155268
0.000596483 -7.62759e-05 6.27672e-07
-7.62759e-05 0.000163311 -3.97967e-07
6.27672e-07 -3.97967e-07 4.41212e-05
0.000299246 2.3399e-05 -7.27372e-07
2.3399e-05 -6.92964e-05 -7.59146e-06
-7.27372e-07 -7.59146e-06 -0.000111856
0.00100007 3.93089e-05 -1.00184e-07
3.93089e-05 0.000402002 -3.46194e-08
-1.00184e-07 -3.46194e-08 0.00035247
0.00313962 0.000110494 -3.65356e-06
0.000110494 0.0018408 -8.33448e-06
-3.65356e-06 -8.33448e-06 0.0018339
0.000393662 1.46185e-05 -2.78998e-06
1.46185e-05 6.08953e-06 1.0413e-05
-2.78998e-06 1.0413e-05 -6.08085e-05
0.00326215 0.000145082 -8.16799e-07
0.000145082 0.0019345 -9.58104e-08
-8.16799e-07 -9.58104e-08 0.00191851
0.00447442 0.000136589 -3.735e-05
0.000136589 0.00274483 9.82981e-06
-3.735e-05 9.82981e-06 0.00272342
0.00262854 0.00041529 -3.33242e-06
0.00041529 -0.000235649 -7.5537e-07
-3.33242e-06 -7.5537e-07 -3.107e-05
0.00252419 0.000179345 -2.25126e-07
0.000179345 -0.000252419 8.0435e-07
-2.25126e-07 8.0435e-07 -2.27844e-05
0.00248828 -6.34834e-06 8.22164e-07
-6.34834e-06 -0.000150163 2.78908e-08
8.22164e-07 2.78908e-08 6.43739e-06
0.00252357 1.10017e-06 -1.25486e-07
1.10017e-06 -0.00029177 -2.011e-07
-1.25486e-07 -2.011e-07 -4.23748e-05
0.00281978 0.000242482 1.08757e-06
0.000242482 -0.000253574 4.91358e-07
1.08757e-06 4.91358e-07 4.11617e-05
0.00289427 0.000215729 6.34471e-06
0.000215729 -0.000413744 -5.54123e-06
6.34471e-06 -5.54123e-06 -4.75361e-05
0.00300411 8.28069e-05 4.20794e-06
8.28069e-05 -0.000309043 1.61091e-06
4.20794e-06 1.61091e-06 6.20966e-05
0.00691904 0.00284575 -2.03955e-05
0.00284575 -0.0021842 2.48878e-05
-2.03955e-05 2.48878e-05 0.0007474
0.00306847 0.00028397 -9.62072e-05
0.00028397 -0.000591507 7.02356e-06
-9.62072e-05 7.02356e-06 0.000137804
0.000302921 0.000122995 -3.8114e-06
0.000122995 2.58341e-05 -3.10446e-06
-3.8114e-06 -3.10446e-06 -0.000139503
0.00260429 -0.00019896 -1.70728e-06
-0.00019896 -0.000232452 -4.33833e-07
-1.70728e-06 -4.33833e-07 8.44277e-06
0.0027253 -0.000537549 -3.74281e-06
-0.000537549 -0.000269278 -1.67943e-07
-3.74281e-06 -1.67943e-07 -3.31438e-05
0.00283271 -0.000811318 4.11106e-07
-0.000811318 -6.6622e-05 -6.43409e-07
4.11106e-07 -6.43409e-07 3.83033e-05
0.0028867 -0.00160613 -1.1014e-05
-0.00160613 0.00121447 -2.26826e-06
-1.1014e-05 -2.26826e-06 0.000256975
0.00255843 -0.00158582 2.78405e-05
-0.00158582 0.000643254 3.63947e-06
2.78405e-05 3.63947e-06 -0.000200371
0.00291386 -0.0014338 -6.50872e-07
-0.0014338 0.000503615 1.39674e-05
-6.50872e-07 1.39674e-05 2.13997e-05
0.00278339 -0.00115147 -8.21048e-08
-0.00115147 2.79493e-05 -4.31809e-06
-8.21048e-08 -4.31809e-06 -8.12062e-05
0.00258122 -0.00133217 7.94396e-05
-0.00133217 0.00113382 -7.11492e-05
7.94396e-05 -7.11492e-05 0.000236718
0.00234324 -0.00116126 7.91134e-05
-0.00116126 0.00128475 -6.85811e-05
7.91134e-05 -6.85811e-05 0.000203287
-0.000871944 -0.000243914 2.43735e-05
-0.000243914 -0.000623491 8.72228e-06
2.43735e-05 8.72228e-06 -0.00130878
0.000544057 -2.87455e-05 -3.44169e-07
-2.87455e-05 0.000113331 6.83351e-06
-3.44169e-07 6.83351e-06 -1.52665e-05
0.000863938 -0.000420419 -2.8596e-06
-0.000420419 0.000444068 -4.02804e-06
-2.8596e-06 -4.02804e-06 8.55287e-05
0.00181492 -0.000183679 1.13906e-05
-0.000183679 0.00119351 -7.35624e-06
1.13906e-05 -7.35624e-06 0.000835344
-0.000421292 -0.000162209 7.28077e-06
-0.000162209 -0.000321865 -1.33519e-05
7.28077e-06 -1.33519e-05 -0.000721019
0.000698151 -0.00013269 -8.09336e-06
-0.00013269 0.000312762 4.17934e-06
-8.09336e-06 4.17934e-06 0.000126695
0.00276305 -0.000277752 -4.7497e-07
-0.000277752 -0.000423755 -8.83232e-07
-4.7497e-07 -8.83232e-07 -4.30648e-05
0.000581469 7.61401e-05 1.22383e-06
7.61401e-05 0.000224342 -1.96932e-06
1.22383e-06 -1.96932e-06 3.97651e-05
0.000834397 -0.000209838 2.19352e-06
-0.000209838 0.000503343 3.03003e-06
2.19352e-06 3.03003e-06 0.000233496
0.000693515 -0.000168052 9.60203e-06
-0.000168052 0.000326596 9.6576e-07
9.60203e-06 9.6576e-07 0.000120368
0.00287255 -0.000736313 2.9806e-06
-0.000736313 -0.000283442 -5.03206e-07
2.9806e-06 -5.03206e-07 -5.34368e-06
0.0031423 -0.00119057 -8.44307e-07
-0.00119057 5.74887e-05 4.74584e-07
-8.44307e-07 4.74584e-07 5.95241e-05
0.00270612 -0.00156843 -6.79215e-06
-0.00156843 0.00106853 2.40145e-06
-6.79215e-06 2.40145e-06 0.000169545
0.00257295 -0.0018124 1.11411e-05
-0.0018124 0.000498467 -9.79524e-07
1.11411e-05 -9.79524e-07 -0.000343883
0.00295587 -0.00141524 3.42585e-07
-0.00141524 0.0002976 8.91599e-07
3.42585e-07 8.91599e-07 -3.9069e-05
0.000102168 -0.000122919 -5.93403e-07
-0.000122919 1.34347e-05 3.87673e-07
-5.93403e-07 3.87673e-07 -0.000311799
0.00208411 -0.000455668 1.19083e-05
-0.000455668 0.00134479 -1.45007e-06
1.19083e-05 -1.45007e-06 0.000921469
0.00385136 -0.00200027 -8.23252e-06
-0.00200027 0.00167518 1.48926e-05
-8.23252e-06 1.48926e-05 0.000652321
0.0011558 -0.000552559 -5.94448e-06
-0.000552559 0.000788764 6.52759e-06
-5.94448e-06 6.52759e-06 -0.000230432
0.001203 -0.00029289 8.39552e-06
-0.00029289 0.000546455 1.24595e-05
8.39552e-06 1.24595e-05 0.000220141
0.0030217 -0.000531471 -2.69233e-05
-0.000531471 -0.000439466 5.49816e-06
-2.69233e-05 5.49816e-06 3.90281e-05
0.00280743 -0.000877851 -2.32266e-05
-0.000877851 -0.000361674 1.11395e-05
-2.32266e-05 1.11395e-05 5.26194e-05
0.00320733 -0.00147105 -1.92682e-06
-0.00147105 0.000289527 -9.41164e-06
-1.92682e-06 -9.41164e-06 2.78726e-05
0.0037024 -0.00178392 1.3617e-05
-0.00178392 0.00102978 -1.26507e-05
1.3617e-05 -1.26507e-05 0.000355391
0.00264466 -0.00184317 2.18334e-05
-0.00184317 0.000817543 -1.43505e-06
2.18334e-05 -1.43505e-06 -0.00014007
0.00107613 -5.49282e-06 -1.05712e-05
-5.49282e-06 0.000587295 6.43305e-07
-1.05712e-05 6.43305e-07 0.000415451
-0.00032578 -0.000102634 -1.10448e-05
-0.000102634 -0.000356631 2.51097e-05
-1.10448e-05 2.51097e-05 -0.000588868
-0.000210805 -0.000137472 -6.82304e-06
-0.000137472 -0.000205669 1.2251e-05
-6.82304e-06 1.2251e-05 -0.000388986
0.00236775 -0.000544331 -6.63399e-05
-0.000544331 0.00148439 6.03709e-05
-6.63399e-05 6.03709e-05 0.00110541
0.000637649 -0.00025815 1.2206e-05
-0.00025815 0.000308167 2.78352e-05
1.2206e-05 2.78352e-05 1.93003e-05
-0.00151545 -5.14733e-06 -7.19678e-06
-5.14733e-06 -0.000501965 6.22268e-06
-7.19678e-06 6.22268e-06 -0.00131423
0.00228112 -0.00201444 -4.55274e-05
-0.00201444 0.00128127 -2.39521e-05
-4.55274e-05 -2.39521e-05 5.00512e-05
0.0037749 0.00083927 7.27708e-06
0.00083927 0.00248827 3.34159e-06
7.27708e-06 3.34159e-06 0.00199239
-0.000473535 0.000397717 -7.17035e-06
0.000397717 -8.29698e-05 -1.04408e-06
-7.17035e-06 -1.04408e-06 -0.000647097
0.00279719 0.000488373 9.71488e-06
0.000488373 -0.000438232 5.80825e-06
9.71488e-06 5.80825e-06 -5.10942e-05
0.00313036 0.000961884 1.86067e-05
0.000961884 6.13449e-05 1.21613e-05
1.86067e-05 1.21613e-05 0.000209151
0.00307365 0.0014379 4.59651e-06
0.0014379 0.000502402 3.20535e-06
4.59651e-06 3.20535e-06 -3.24947e-05
0.00109655 0.000954042 -1.08061e-05
0.000954042 0.000156757 -1.46984e-06
-1.08061e-05 -1.46984e-06 -0.000541262
0.00272291 0.00164498 -4.17771e-06
0.00164498 0.000811621 3.94854e-06
-4.17771e-06 3.94854e-06 -0.000123733
0.00313853 0.000733542 -3.6738e-07
0.000733542 0.0021728 -2.21492e-06
-3.6738e-07 -2.21492e-06 0.00163803
0.00338913 0.00089665 2.63937e-05
0.00089665 -0.000368059 7.06231e-06
2.63937e-05 7.06231e-06 0.000397005
0.00085985 0.000762947 -7.17189e-06
0.000762947 0.00047101 1.03307e-05
-7.17189e-06 1.03307e-05 -0.000184675
0.00233589 0.00132418 5.41869e-06
0.00132418 0.000928364 -3.15773e-06
5.41869e-06 -3.15773e-06 1.55688e-05
0.00323542 0.0013394 -5.22504e-06
0.0013394 0.000481216 -3.59889e-06
-5.22504e-06 -3.59889e-06 0.000299756
0.00301318 0.00175908 -1.81329e-06
0.00175908 0.000906999 7.23979e-06
-1.81329e-06 7.23979e-06 -2.55818e-05
0.00254762 0.00297501 3.51932e-05
0.00297501 -0.00368913 -6.21276e-06
3.51932e-05 -6.21276e-06 -0.00121198
0.000329797 0.00050534 5.17928e-06
0.00050534 0.000562323 2.44545e-06
5.17928e-06 2.44545e-06 -0.000112705
0.00444167 0.0018546 -0.000140995
0.0018546 0.000322488 -5.36781e-05
-0.000140995 -5.36781e-05 0.000583344
0.000687063 0.000908457 -2.36681e-05
0.000908457 0.000149122 1.66208e-05
-2.36681e-05 1.66208e-05 -0.000593389
0.00217574 0.00153685 -1.03056e-05
0.00153685 0.000723853 -2.76407e-05
-1.03056e-05 -2.76407e-05 -0.000235375
0.0048042 0.00213165 -7.35816e-05
0.00213165 0.00158947 -4.18009e-05
-7.35816e-05 -4.18009e-05 0.000838773
0.0154593 0.00131366 -0.00100024
0.00131366 -0.00274596 -0.000105541
-0.00100024 -0.000105541 0.00077084
0.00274858 0.00471544 -0.000313761
0.00471544 -0.00640378 -0.000239172
-0.000313761 -0.000239172 -3.11021e-05
0.00152018 0.00358909 4.23668e-05
0.00358909 -0.00183739 -7.8433e-06
4.23668e-05 -7.8433e-06 -0.00118236
0.00965048 -0.00995028 0.00436161
-0.00995028 0.00843467 -0.000748371
0.00436161 -0.000748371 -0.00363787
0.041164 -0.0237982 -0.000324749
-0.0237982 0.0320122 -4.11878e-05
-0.000324749 -4.11878e-05 0.0108069
0.00281074 0.000416455 1.60895e-05
0.000416455 0.00190477 8.54807e-06
1.60895e-05 8.54807e-06 0.00166027
0.000525985 0.000199806 -4.74074e-07
0.000199806 0.000451707 7.70621e-07
-4.74074e-07 7.70621e-07 0.000204354
0.000582011 0.000331933 6.12616e-06
0.000331933 0.00059157 -1.05006e-05
6.12616e-06 -1.05006e-05 0.000237826
0.000544577 -6.012e-05 3.65368e-06
-6.012e-05 0.000205228 -5.75244e-07
3.65368e-06 -5.75244e-07 1.73914e-05
0.000669906 8.22545e-05 7.42689e-06
8.22545e-05 0.000330297 -2.85785e-06
7.42689e-06 -2.85785e-06 0.000116577
-0.00010779 2.86602e-06 2.02167e-06
2.86602e-06 -9.14582e-05 -3.35175e-06
2.02167e-06 -3.35175e-06 -0.000360405
0.000180268 0.00010964 5.08684e-06
0.00010964 6.61507e-05 1.0328e-05
5.08684e-06 1.0328e-05 -0.000112345
-0.0008524 0.000117898 3.89963e-06
0.000117898 -0.000563803 1.83158e-05
3.89963e-06 1.83158e-05 -0.000628015
0.000718557 0.000159303 -3.34711e-06
0.000159303 0.000453852 2.05066e-06
-3.34711e-06 2.05066e-06 0.000186025
0.000393467 -1.43298e-05 8.58037e-08
-1.43298e-05 7.48794e-05 2.39203e-07
8.58037e-08 2.39203e-07 -9.64222e-05
0.000741495 8.20001e-05 -4.88147e-07
8.20001e-05 0.000365602 7.8114e-07
-4.88147e-07 7.8114e-07 0.000147574
0.000241878 0.000154336 -1.79356e-06
0.000154336 0.000236189 -1.18403e-06
-1.79356e-06 -1.18403e-06 5.70192e-05
0.000479186 8.74536e-05 1.08968e-06
8.74536e-05 0.000306679 1.52814e-07
1.08968e-06 1.52814e-07 4.61314e-05
0.00101256 0.000167579 -1.02333e-06
0.000167579 0.000708317 5.9803e-06
-1.02333e-06 5.9803e-06 0.000395694
0.000162825 9.81287e-05 1.03325e-06
9.81287e-05 0.000259345 -1.08019e-05
1.03325e-06 -1.08019e-05 -5.98532e-05
0.000937252 0.000136575 -8.30468e-08
0.000136575 0.000598979 -2.98757e-06
-8.30468e-08 -2.98757e-06 0.00034165
0.000130073 5.72803e-06 -3.33997e-06
5.72803e-06 -7.10812e-05 -7.97113e-06
-3.33997e-06 -7.97113e-06 -0.00025954
6.87017e-05 -6.19165e-05 -1.76036e-06
-6.19165e-05 -0.000146003 -1.94509e-06
-1.76036e-06 -1.94509e-06 -0.000318819
-0.00024922 -6.40355e-05 2.9969e-06
-6.40355e-05 -0.000296348 -9.4529e-06
2.9969e-06 -9.4529e-06 -0.00048496
0.000316559 -5.87408e-05 1.17202e-05
-5.87408e-05 0.000182141 1.55169e-05
1.17202e-05 1.55169e-05 -2.61946e-05
-2.22475e-05 -7.04876e-05 6.287e-06
-7.04876e-05 -5.80735e-06 -7.72818e-06
6.287e-06 -7.72818e-06 -0.000284376
0.00114322 -0.000272023 1.93475e-06
-0.000272023 0.000697789 1.60652e-06
1.93475e-06 1.60652e-06 0.000435386
0.000425455 -0.000145746 -3.1782e-06
-0.000145746 0.000147079 -5.69738e-06
-3.1782e-06 -5.69738e-06 -4.90869e-05
-0.00035749 -5.58147e-05 -1.51426e-06
-5.58147e-05 -0.000411871 2.24161e-06
-1.51426e-06 2.24161e-06 -0.000589366
0.000452853 -9.04868e-05 -1.74407e-06
-9.04868e-05 7.67594e-05 2.3067e-06
-1.74407e-06 2.3067e-06 -3.14141e-05
0.000447829 -5.89102e-05 2.78842e-06
-5.89102e-05 8.69738e-05 7.05966e-08
2.78842e-06 7.05966e-08 -3.17307e-05
0.00027734 2.15752e-06 6.08922e-06
2.15752e-06 -5.45026e-05 8.31186e-06
6.08922e-06 8.31186e-06 -9.80323e-05
0.000420792 8.1624e-05 -1.49857e-06
8.1624e-05 6.01973e-05 -4.53116e-06
-1.49857e-06 -4.53116e-06 -5.28972e-05
0.000285771 3.5668e-05 4.18532e-07
3.5668e-05 -5.35241e-05 2.46613e-07
4.18532e-07 2.46613e-07 -9.57519e-05
0.00281814 2.1897e-05 3.03043e-05
2.1897e-05 0.00161308 7.27984e-06
3.03043e-05 7.27984e-06 0.00162203
0.000307032 9.0329e-05 -7.57082e-06
9.0329e-05 -3.21133e-05 -1.01983e-05
-7.57082e-06 -1.01983e-05 -8.21519e-05
0.00175826 4.46946e-06 -1.79499e-05
4.46946e-06 0.00090314 -2.8129e-07
-1.79499e-05 -2.8129e-07 0.000905794
0.000824731 -7.75217e-06 2.86575e-06
-7.75217e-06 0.000270519 -2.54912e-06
2.86575e-06 -2.54912e-06 0.000267082
0.000415273 2.4036e-05 3.25412e-08
2.4036e-05 3.03738e-05 -4.06169e-06
3.25412e-08 -4.06169e-06 -4.88703e-05
0.000388257 -5.69973e-05 9.71276e-07
-5.69973e-05 3.258e-05 1.18818e-07
9.71276e-07 1.18818e-07 -7.36132e-05
0.000363226 -2.85349e-06 2.00982e-06
-2.85349e-06 -3.00954e-05 -6.75074e-06
2.00982e-06 -6.75074e-06 -6.38507e-05
0.000591196 -9.677e-05 -8.06595e-07
-9.677e-05 0.000161823 3.09554e-06
-8.06595e-07 3.09554e-06 3.93657e-05
0.000941776 3.99338e-05 1.12068e-06
3.99338e-05 0.000362845 -1.0366e-06
1.12068e-06 -1.0366e-06 0.000320388
0.00294515 7.87596e-05 1.22094e-06
7.87596e-05 0.00170106 -7.47445e-06
1.22094e-06 -7.47445e-06 0.00170152
0.000136467 2.64024e-05 -2.28133e-06
2.64024e-05 -0.000179206 9.15085e-06
-2.28133e-06 9.15085e-06 -0.000231559
0.0034304 0.000118974 -9.87839e-06
0.000118974 0.00204056 1.49051e-06
-9.87839e-06 1.49051e-06 0.00203133
0.00361173 0.000174438 3.55653e-05
0.000174438 0.00218152 1.48498e-05
3.55653e-05 1.48498e-05 0.00215914
0.00276985 0.000258015 -4.00693e-06
0.000258015 -0.000280714 -9.40866e-07
-4.00693e-06 -9.40866e-07 1.57222e-05
0.00251265 8.49682e-06 -7.36457e-07
8.49682e-06 -0.00029473 -1.05211e-07
-7.36457e-07 -1.05211e-07 -4.45962e-05
0.00309677 0.000176342 -1.40037e-08
0.000176342 -0.00026363 3.83648e-06
-1.40037e-08 3.83648e-06 6.97126e-05
0.0028513 0.00216523 0.000184137
0.00216523 -0.00433295 8.17997e-05
0.000184137 8.17997e-05 -0.00122772
0.00297806 4.0626e-05 -7.70476e-07
4.0626e-05 -0.000334066 -5.72251e-07
-7.70476e-07 -5.72251e-07 4.79273e-05
0.00312013 0.000226054 2.99068e-06
0.000226054 -0.000520216 -5.03542e-06
2.99068e-06 -5.03542e-06 0.00011766
0.00345999 -0.000147156 -6.02872e-05
-0.000147156 -3.04164e-05 1.18371e-06
-6.02872e-05 1.18371e-06 0.000438656
0.00404944 0.00193872 -0.000296355
0.00193872 -0.00410058 -5.9004e-06
-0.000296355 -5.9004e-06 0.000179981
0.00519906 0.000841439 0.000121854
0.000841439 -0.00190745 5.4541e-05
0.000121854 5.4541e-05 8.56207e-05
0.000472954 0.000114785 1.31504e-07
0.000114785 0.00015381 -3.84229e-06
1.31504e-07 -3.84229e-06 -1.41133e-05
0.000573662 -4.60882e-05 3.69388e-07
-4.60882e-05 0.000223546 -1.59454e-07
3.69388e-07 -1.59454e-07 4.46569e-05
0.000288147 -0.000112402 3.44891e-06
-0.000112402 5.84241e-05 1.67255e-06
3.44891e-06 1.67255e-06 -9.39437e-05
0.000745487 -0.000135843 -5.97937e-07
-0.000135843 0.000357309 4.92291e-06
-5.97937e-07 4.92291e-06 0.000146938
0.00286866 -0.000299032 -5.73015e-06
-0.000299032 -0.000344506 2.74214e-06
-5.73015e-06 2.74214e-06 2.85671e-05
0.00277969 -0.000729968 -2.2522e-06
-0.000729968 -0.000346465 -1.46639e-06
-2.2522e-06 -1.46639e-06 -7.62933e-05
0.0030757 -0.00116187 -3.55179e-06
-0.00116187 4.23671e-05 2.14413e-07
-3.55179e-06 2.14413e-07 5.69184e-05
0.00309854 -0.00162151 4.56982e-06
-0.00162151 0.00132896 5.77137e-06
4.56982e-06 5.77137e-06 0.000408618
0.00332906 -0.0019842 -1.64568e-05
-0.0019842 0.000910444 2.248e-05
-1.64568e-05 2.248e-05 2.56654e-05
0.0030849 -0.00144392 -6.58665e-07
-0.00144392 0.000376851 -7.16059e-07
-6.58665e-07 -7.16059e-07 2.32763e-05
0.00131245 -0.00159868 6.04957e-05
-0.00159868 0.000326923 -2.85726e-05
6.04957e-05 -2.85726e-05 -0.000714841
0.0035408 -0.000672181 4.28072e-05
-0.000672181 0.00196197 -3.54121e-05
4.28072e-05 -3.54121e-05 0.00119309
-0.000426944 -0.000337661 1.74521e-05
-0.000337661 -0.000479107 8.63619e-06
1.74521e-05 8.63619e-06 -0.000839707
0.0020507 -0.000147651 1.10766e-05
-0.000147651 0.00128246 -1.4192e-06
1.10766e-05 -1.4192e-06 0.00102579
-0.000588813 -0.000130428 -1.95603e-05
-0.000130428 -0.00032505 -2.08171e-05
-1.95603e-05 -2.08171e-05 -0.000752426
0.000282101 -0.000113691 3.77574e-06
-0.000113691 0.000107607 -1.73893e-05
3.77574e-06 -1.73893e-05 -0.000199198
0.000465512 -4.791e-05 -1.5941e-07
-4.791e-05 0.000141392 5.29336e-06
-1.5941e-07 5.29336e-06 -4.14039e-05
0.000410707 -0.000131742 -5.87202e-06
-0.000131742 0.000145169 -1.95931e-07
-5.87202e-06 -1.95931e-07 -5.17296e-05
0.00294507 -0.000529986 5.02224e-06
-0.000529986 -0.00048969 -4.05313e-07
5.02224e-06 -4.05313e-07 -6.52057e-07
0.0001841 -5.56305e-05 -1.14124e-06
-5.56305e-05 -1.9387e-05 5.65243e-06
-1.14124e-06 5.65243e-06 -0.000181411
0.000238142 -0.000166483 4.82437e-06
-0.000166483 3.13468e-05 -5.0492e-06
4.82437e-06 -5.0492e-06 -0.000218174
-0.000143361 -9.42477e-05 1.57048e-05
-9.42477e-05 -9.64358e-05 -7.51211e-06
1.57048e-05 -7.51211e-06 -0.000260575
0.0028201 -0.000931252 2.07107e-06
-0.000931252 -0.000354586 -1.10762e-06
2.07107e-06 -1.10762e-06 -4.52941e-06
0.00315759 -0.00145438 1.7146e-06
-0.00145438 0.000259512 -1.81856e-06
1.7146e-06 -1.81856e-06 6.83064e-06
0.00201167 -0.00177392 -9.453e-06
-0.00177392 0.000464206 -5.51548e-07
-9.453e-06 -5.51548e-07 -0.000457999
0.00335158 -0.0017964 -3.6891e-06
-0.0017964 0.00080721 1.83965e-06
-3.6891e-06 1.83965e-06 0.00012748
0.00166194 -0.000341927 2.88524e-05
-0.000341927 0.0010227 -1.26304e-05
2.88524e-05 -1.26304e-05 0.000654521
-0.00200598 -7.47128e-05 1.43456e-05
-7.47128e-05 -0.00127563 5.78309e-06
1.43456e-05 5.78309e-06 -0.00163728
0.00133894 -0.00189726 -5.29153e-07
-0.00189726 0.000834371 3.46833e-06
-5.29153e-07 3.46833e-06 -0.000389839
0.0017634 -0.000740927 -2.45837e-05
-0.000740927 0.00108599 4.15652e-06
-2.45837e-05 4.15652e-06 0.000340744
0.00357563 -0.000772275 -9.33227e-05
-0.000772275 -5.19352e-05 3.32624e-05
-9.33227e-05 3.32624e-05 0.000404264
0.00337613 -0.0013597 -4.20722e-05
-0.0013597 0.000104411 2.30547e-05
-4.20722e-05 2.30547e-05 0.000273334
0.00339623 -0.00165919 1.82666e-05
-0.00165919 0.000890278 -2.64717e-05
1.82666e-05 -2.64717e-05 0.000234851
0.00392619 -0.00221752 -8.90591e-06
-0.00221752 0.0013261 -3.09182e-06
-8.90591e-06 -3.09182e-06 0.000473311
8.58596e-05 -0.000206233 3.92612e-06
-0.000206233 0.000145507 -1.29559e-05
3.92612e-06 -1.29559e-05 -9.84295e-05
0.000434146 -0.000364487 -1.47276e-05
-0.000364487 0.000177327 4.39113e-05
-1.47276e-05 4.39113e-05 -0.000167456
0.000632685 -0.000386267 -3.2757e-05
-0.000386267 0.000666838 6.9396e-05
-3.2757e-05 6.9396e-05 0.000259022
-0.00103236 -0.00138633 1.33475e-05
-0.00138633 0.000285329 -5.03621e-05
1.33475e-05 -5.03621e-05 -0.00116176
0.00812427 -0.000367176 -2.10713e-05
-0.000367176 -0.00802216 4.53412e-05
-2.10713e-05 4.53412e-05 -0.00876961
0.00446186 0.000727753 1.57856e-05
0.000727753 0.00293907 2.37066e-06
1.57856e-05 2.37066e-06 0.0024258
0.000494068 0.000684966 -5.64225e-06
0.000684966 0.000245328 -9.60325e-06
-5.64225e-06 -9.60325e-06 -0.0003799
0.00150336 0.000704441 8.5515e-05
0.000704441 -0.00155152 4.08514e-05
8.5515e-05 4.08514e-05 -0.000627019
0.00245211 0.0012002 3.32817e-05
0.0012002 0.000115742 1.22948e-05
3.32817e-05 1.22948e-05 -1.51729e-05
0.00294447 0.00174679 1.51466e-05
0.00174679 0.000869381 1.92298e-05
1.51466e-05 1.92298e-05 -6.42244e-05
0.00250871 0.00138182 9.66688e-06
0.00138182 0.00104059 1.16447e-05
9.66688e-06 1.16447e-05 9.56517e-05
0.0031407 0.00332564 0.000156777
0.00332564 -0.00365228 8.01158e-05
0.000156777 8.01158e-05 -0.0013341
0.0011161 0.000561249 4.18499e-06
0.000561249 0.00094494 -7.55201e-06
4.18499e-06 -7.55201e-06 0.000353035
0.00322938 0.00165691 -6.27175e-06
0.00165691 -0.000393957 5.37023e-06
-6.27175e-06 5.37023e-06 6.42884e-05
0.00134354 0.00102003 -1.47989e-05
0.00102003 0.000561511 1.06514e-05
-1.47989e-05 1.06514e-05 -0.000223718
0.00279969 0.00166096 2.0886e-06
0.00166096 0.00106781 -8.67509e-06
2.0886e-06 -8.67509e-06 8.07099e-05
0.00438132 0.0019817 -1.03407e-05
0.0019817 0.00143068 -9.95347e-07
-1.03407e-05 -9.95347e-07 0.000705695
0.00415005 0.0010194 -0.000286109
0.0010194 -0.0115348 -0.000191421
-0.000286109 -0.000191421 -0.00914337
0.006608 0.00519016 -0.00024254
0.00519016 -0.00407838 -0.000133972
-0.00024254 -0.000133972 0.00108793
0.000629022 0.00325275 -1.6117e-05
0.00325275 -0.0021661 -1.69882e-05
-1.6117e-05 -1.69882e-05 -0.00151131
0.0180478 -0.00682496 0.00116677
-0.00682496 0.0112657 0.000114593
0.00116677 0.000114593 0.00241963
0.0454137 -0.0276245 -0.000309505
-0.0276245 0.0335791 -0.000538076
-0.000309505 -0.000538076 0.0102149
5.39558e-05 0.000524278 -3.7339e-06
0.000524278 7.38041e-05 -2.153e-06
-3.7339e-06 -2.153e-06 -0.000453326
0.00385135 -0.00496124 0.00322812
-0.00496124 0.00626592 -0.000330009
0.00322812 -0.000330009 0.000837958
0.020624 -0.0166253 0.000268013
-0.0166253 0.0228751 -0.000307001
0.000268013 -0.000307001 0.00166179
0.00593815 0.00312442 -0.000105217
0.00312442 0.00138612 -3.68257e-05
-0.000105217 -3.68257e-05 0.000811836
0.00195327 0.00117956 -4.37649e-05
0.00117956 0.000800776 -3.61604e-06
-4.37649e-05 -3.61604e-06 3.80703e-07
0.00246922 0.00169281 -6.3307e-05
0.00169281 0.000819977 -5.79005e-05
-6.3307e-05 -5.79005e-05 -5.27686e-05
-0.00161139 0.00287136 0.000172865
0.00287136 -0.00228933 0.000139361
0.000172865 0.000139361 -0.00213285
0.0156974 0.00801964 0.000396713
0.00801964 -0.00583128 -1.86974e-05
0.000396713 -1.86974e-05 0.000427504
0.00731479 0.00802247 -0.000264293
0.00802247 -0.00195186 -0.000267965
-0.000264293 -0.000267965 0.000755854
0.0317163 -0.0119244 0.00121316
-0.0119244 0.0187418 -0.000135636
0.00121316 -0.000135636 0.00393362
0.0283805 -0.00172707 -0.00136365
-0.00172707 0.0154432 0.000906568
-0.00136365 0.000906568 0.00703955
0.00137735 0.00023759 9.9524e-06
0.00023759 0.00103603 4.7674e-06
9.9524e-06 4.7674e-06 0.000759217
0.000151191 0.000252429 3.45319e-06
0.000252429 0.000337266 1.30412e-06
3.45319e-06 1.30412e-06 -9.59886e-06
0.00118203 0.000560191 3.67029e-06
0.000560191 0.000962763 -1.14442e-05
3.67029e-06 -1.14442e-05 0.000461591
0.000451642 5.02218e-06 4.53731e-06
5.02218e-06 0.000133285 1.92518e-06
4.53731e-06 1.92518e-06 -5.48588e-05
0.000316673 0.00013508 7.68654e-06
0.00013508 5.51768e-05 3.56903e-06
7.68654e-06 3.56903e-06 -0.000144259
-0.000205684 1.65922e-05 2.91875e-06
1.65922e-05 -0.000181832 4.97894e-06
2.91875e-06 4.97894e-06 -0.000412381
0.000352527 0.000113077 -5.63616e-06
0.000113077 0.000254941 2.49503e-06
-5.63616e-06 2.49503e-06 -1.76724e-05
0.000237345 0.00015708 -5.82875e-06
0.00015708 0.000195607 1.28433e-05
-5.82875e-06 1.28433e-05 3.34013e-05
0.000259405 1.30844e-05 -1.96863e-07
1.30844e-05 -6.22958e-06 1.00144e-06
-1.96863e-07 1.00144e-06 -0.0001886
0.000777081 0.000115257 3.29739e-06
0.000115257 0.000537524 3.62112e-06
3.29739e-06 3.62112e-06 0.000242026
0.000178589 7.96062e-05 -1.85457e-07
7.96062e-05 8.20987e-05 -3.42006e-06
-1.85457e-07 -3.42006e-06 -0.000170205
0.000665994 9.95589e-05 4.0574e-07
9.95589e-05 0.000335556 4.61382e-07
4.0574e-07 4.61382e-07 0.000105296
0.000168621 9.53673e-05 -2.4337e-06
9.53673e-05 0.000264686 -2.07453e-06
-2.4337e-06 -2.07453e-06 -4.45071e-05
0.00044407 7.35533e-05 3.32087e-07
7.35533e-05 0.000371253 1.36484e-06
3.32087e-07 1.36484e-06 9.09119e-05
-0.00046826 4.02767e-05 9.04987e-07
4.02767e-05 6.42335e-05 -6.50007e-06
9.04987e-07 -6.50007e-06 -0.000411783
8.25205e-05 -9.85475e-05 -4.6305e-06
-9.85475e-05 2.67246e-05 -8.82547e-07
-4.6305e-06 -8.82547e-07 -0.000249249
0.000465118 -7.55016e-05 -6.43464e-06
-7.55016e-05 0.000178812 -1.13751e-05
-6.43464e-06 -1.13751e-05 -4.43941e-05
0.000797458 -3.14678e-05 9.73803e-07
-3.14678e-05 0.000437021 -7.01543e-06
9.73803e-07 -7.01543e-06 0.000209032
0.000473931 -0.000128533 -1.64333e-06
-0.000128533 0.000281748 2.81666e-06
-1.64333e-06 2.81666e-06 8.00008e-05
-6.70717e-05 -5.39755e-06 -5.95986e-06
-5.39755e-06 -0.000132923 9.83546e-07
-5.95986e-06 9.83546e-07 -0.000282774
0.00106616 -0.000188927 1.83029e-05
-0.000188927 0.000642959 1.02634e-05
1.83029e-05 1.02634e-05 0.000436349
0.00115491 -6.86728e-05 -2.60675e-06
-6.86728e-05 0.000864892 1.17559e-05
-2.60675e-06 1.17559e-05 0.000621985
-0.000533488 9.23793e-07 2.75138e-06
9.23793e-07 -0.000282131 -1.68079e-05
2.75138e-06 -1.68079e-05 -0.000626867
-0.00148205 5.07212e-05 1.53891e-06
5.07212e-05 -0.00092037 -1.16539e-05
1.53891e-06 -1.16539e-05 -0.00120799
0.000481259 -0.000220082 -7.49213e-08
-0.000220082 0.000347382 4.48389e-07
-7.49213e-08 4.48389e-07 3.59179e-05
-0.000774549 1.94794e-05 1.50832e-06
1.94794e-05 -0.000623176 -4.11359e-06
1.50832e-06 -4.11359e-06 -0.000838309
0.00105747 -0.000321373 -4.21484e-06
-0.000321373 0.000605449 5.16774e-07
-4.21484e-06 5.16774e-07 0.000368857
0.000771135 -0.0001738 1.48625e-06
-0.0001738 0.000382628 3.46573e-07
1.48625e-06 3.46573e-07 0.000179447
0.000618113 -9.50152e-05 -3.90836e-07
-9.50152e-05 0.000187507 7.77638e-07
-3.90836e-07 7.77638e-07 7.57086e-05
0.000186675 2.53428e-05 9.78843e-07
2.53428e-05 -1.2062e-05 7.40334e-07
9.78843e-07 7.40334e-07 -0.000222828
0.000431743 -4.18211e-06 3.43872e-06
-4.18211e-06 7.70644e-05 1.16898e-07
3.43872e-06 1.16898e-07 -3.94385e-05
0.00141179 -4.44826e-05 -2.18108e-05
-4.44826e-05 0.000688629 8.41165e-06
-2.18108e-05 8.41165e-06 0.000656212
0.000421198 0.0001086 -2.54729e-06
0.0001086 7.50968e-05 -2.62624e-06
-2.54729e-06 -2.62624e-06 -4.33829e-05
0.000799075 -3.8355e-05 -8.35954e-06
-3.8355e-05 0.000293626 9.13061e-07
-8.35954e-06 9.13061e-07 0.000252187
0.000873572 -1.18574e-05 -2.56827e-05
-1.18574e-05 0.000314507 5.77379e-06
-2.56827e-05 5.77379e-06 0.000315165
0.000245909 -6.58473e-05 7.51919e-06
-6.58473e-05 -7.91714e-05 -6.91846e-06
7.51919e-06 -6.91846e-06 -0.000121608
0.00283975 -3.81419e-06 2.0355e-05
-3.81419e-06 0.00162646 -2.1022e-07
2.0355e-05 -2.1022e-07 0.00163473
0.000843882 4.79072e-06 -1.17655e-05
4.79072e-06 0.000297114 -6.29694e-06
-1.17655e-05 -6.29694e-06 0.000293955
0.000773419 0.000117156 3.37403e-06
0.000117156 0.000376415 -2.01585e-06
3.37403e-06 -2.01585e-06 0.000183687
0.000318448 8.22965e-05 -2.49555e-06
8.22965e-05 -2.47682e-06 -5.34289e-06
-2.49555e-06 -5.34289e-06 -9.60251e-05
0.000388186 2.89048e-06 3.61131e-06
2.89048e-06 3.69731e-05 2.11202e-07
3.61131e-06 2.11202e-07 -5.82564e-05
0.000312702 1.90542e-05 8.24294e-07
1.90542e-05 -6.16342e-05 -5.6561e-06
8.24294e-07 -5.6561e-06 -9.05685e-05
0.000603077 -0.000118716 -2.9e-06
-0.000118716 0.000197741 6.29818e-06
-2.9e-06 6.29818e-06 7.68722e-05
0.000373958 3.00753e-06 2.34707e-06
3.00753e-06 -2.18269e-05 -1.1e-06
2.34707e-06 -1.1e-06 -5.71303e-05
0.00271353 5.64458e-05 -4.55626e-06
5.64458e-05 0.00154141 -6.88186e-06
-4.55626e-06 -6.88186e-06 0.00154692
0.00161582 5.34281e-05 3.11194e-06
5.34281e-05 0.000818308 5.50496e-06
3.11194e-06 5.50496e-06 0.000774108
0.00176032 5.78486e-05 -3.01729e-06
5.78486e-05 0.000912171 2.50037e-06
-3.01729e-06 2.50037e-06 0.000906786
0.000535524 4.24474e-05 4.72879e-06
4.24474e-05 9.96976e-05 1.55898e-05
4.72879e-06 1.55898e-05 8.33944e-05
-0.00037058 0.00169179 0.000216277
0.00169179 -0.00619425 4.35808e-05
0.000216277 4.35808e-05 -0.00272682
0.00290273 1.18694e-06 -5.73208e-06
1.18694e-06 -0.000383932 -4.19187e-07
-5.73208e-06 -4.19187e-07 5.73559e-06
0.00296748 0.000167246 8.08261e-05
0.000167246 -0.000615303 -7.00715e-07
8.08261e-05 -7.00715e-07 -2.27464e-05
0.00594898 0.00238421 -0.00010977
0.00238421 -0.00444962 -5.17538e-05
-0.00010977 -5.17538e-05 0.00102055
0.00419734 0.0004661 0.000177439
0.0004661 -0.00309782 -1.28771e-05
0.000177439 -1.28771e-05 -0.000572879
0.00339562 -0.000168322 3.43708e-06
-0.000168322 -6.47643e-05 3.15246e-06
3.43708e-06 3.15246e-06 0.000375287
0.00759092 -0.00137516 -0.000112587
-0.00137516 0.000286157 -2.86577e-05
-0.000112587 -2.86577e-05 0.00211252
0.00497322 -0.000642544 -0.000267558
-0.000642544 -0.00520961 -9.91523e-05
-0.000267558 -9.91523e-05 -3.95752e-05
0.0168021 -0.00179091 -3.10054e-06
-0.00179091 -0.00333727 -0.000181446
-3.10054e-06 -0.000181446 -0.000856308
0.0269469 0.0133713 0.00275396
0.0133713 0.0147503 0.00036239
0.00275396 0.00036239 0.00199705
0.0571864 0.0224678 9.29378e-05
0.0224678 0.0380375 0.000402463
9.29378e-05 0.000402463 0.0148483
-6.29706e-05 -0.000131425 8.10482e-06
-0.000131425 -0.000156399 3.81416e-06
8.10482e-06 3.81416e-06 -0.000341219
0.000568196 -2.5145e-05 1.503e-06
-2.5145e-05 0.000224953 -9.87774e-08
1.503e-06 -9.87774e-08 5.30678e-05
0.000990557 -0.000167069 1.53813e-07
-0.000167069 0.000531654 3.60233e-06
1.53813e-07 3.60233e-06 0.00032884
0.000492014 -0.000117224 9.06325e-06
-0.000117224 0.000170796 -4.75116e-07
9.06325e-06 -4.75116e-07 2.79673e-05
0.000786437 0.000154908 -2.98355e-06
0.000154908 0.000449822 -5.85868e-06
-2.98355e-06 -5.85868e-06 0.000279699
0.00107895 0.000225603 7.81828e-07
0.000225603 0.000603738 7.19082e-06
7.81828e-07 7.19082e-06 0.000389419
8.95863e-05 3.77356e-05 3.86015e-06
3.77356e-05 -0.000103704 -5.86276e-08
3.86015e-06 -5.86276e-08 -0.00030474
0.000502954 -4.35615e-05 -1.46303e-06
-4.35615e-05 0.000176273 7.657e-07
-1.46303e-06 7.657e-07 -1.86072e-05
0.00286622 -0.0005297 2.1651e-05
-0.0005297 -0.000527915 -5.57526e-06
2.1651e-05 -5.57526e-06 -4.62327e-05
0.00273671 -0.000988132 2.09129e-05
-0.000988132 -0.000435136 -8.72486e-06
2.09129e-05 -8.72486e-06 -0.000139693
0.0030904 -0.00143713 -4.26159e-06
-0.00143713 0.00021513 1.05138e-05
-4.26159e-06 1.05138e-05 -2.55871e-05
0.00302358 -0.00188655 1.87876e-06
-0.00188655 0.000982071 1.30667e-05
1.87876e-06 1.30667e-05 9.46749e-05
0.00323056 -0.00184 -3.13863e-05
-0.00184 0.000718595 1.66598e-05
-3.13863e-05 1.66598e-05 1.27051e-05
0.000743428 -0.00180319 4.61023e-05
-0.00180319 0.00050193 2.01701e-05
4.61023e-05 2.01701e-05 -0.00076747
0.00476116 -0.00118006 3.66893e-05
-0.00118006 0.00247686 -1.16844e-05
3.66893e-05 -1.16844e-05 0.00181536
0.0020974 -0.000563129 4.8708e-05
-0.000563129 0.00137768 -5.88946e-05
4.8708e-05 -5.88946e-05 0.00089827
0.000509159 -7.3313e-05 2.88727e-06
-7.3313e-05 0.000184296 -7.19596e-06
2.88727e-06 -7.19596e-06 -4.75598e-05
0.00131525 -0.00021331 2.70446e-05
-0.00021331 0.000719673 -4.75737e-05
2.70446e-05 -4.75737e-05 0.000386817
-0.000121691 -0.000157037 1.30198e-06
-0.000157037 -0.000236767 4.9336e-06
1.30198e-06 4.9336e-06 -0.000397655
-0.000472974 1.45717e-06 -2.952e-05
1.45717e-06 -0.000281752 -1.56714e-05
-2.952e-05 -1.56714e-05 -0.000413329
0.00304794 -0.00073011 -2.71275e-06
-0.00073011 -0.000412643 6.03164e-06
-2.71275e-06 6.03164e-06 0.000162677
0.000348174 -8.43409e-05 -6.50038e-06
-8.43409e-05 0.000269835 5.88267e-06
-6.50038e-06 5.88267e-06 5.05448e-05
0.000953909 -0.000326778 -4.63181e-06
-0.000326778 0.000521098 1.88082e-07
-4.63181e-06 1.88082e-07 0.000224058
0.00249184 -0.00128307 1.2151e-05
-0.00128307 -0.000433702 -6.61603e-06
1.2151e-05 -6.61603e-06 -0.000182795
0.00335493 -0.00166137 1.16569e-06
-0.00166137 0.000820638 3.6042e-06
1.16569e-06 3.6042e-06 0.000198782
0.00264577 -0.00196719 2.1495e-06
-0.00196719 0.000631021 -1.2785e-05
2.1495e-06 -1.2785e-05 -0.000150965
0.00044174 -0.000494037 -1.4055e-05
-0.000494037 0.000446823 -2.39075e-05
-1.4055e-05 -2.39075e-05 -9.87154e-05
0.000942411 -0.00105284 8.42977e-06
-0.00105284 0.00120418 -4.40641e-06
8.42977e-06 -4.40641e-06 3.75391e-06
0.00593743 -0.00187076 -5.46816e-05
-0.00187076 0.000520931 5.15176e-05
-5.46816e-05 5.15176e-05 0.0014077
0.00268648 -0.00172897 -3.48467e-05
-0.00172897 0.000327489 2.29518e-05
-3.48467e-05 2.29518e-05 -0.000187848
0.00458829 -0.00231376 4.00332e-06
-0.00231376 0.00156052 -4.55858e-06
4.00332e-06 -4.55858e-06 0.000716426
0.00152078 -0.00163813 -5.72733e-05
-0.00163813 0.000525206 7.71764e-06
-5.72733e-05 7.71764e-06 -3.01336e-05
0.00115457 -0.00030131 1.77706e-05
-0.00030131 0.000904193 -2.34764e-06
1.77706e-05 -2.34764e-06 0.000502811
-0.00162284 4.42045e-05 2.97194e-05
4.42045e-05 -0.000770063 3.13218e-05
2.97194e-05 3.13218e-05 -0.00115711
-0.000112005 -0.000480707 -3.31657e-05
-0.000480707 0.000557894 -1.70719e-05
-3.31657e-05 -1.70719e-05 -0.000382721
-0.00611274 -0.00113393 0.00219872
-0.00113393 0.00509409 7.55549e-05
0.00219872 7.55549e-05 -0.00660258
0.0166267 -0.000398354 -0.000145402
-0.000398354 -0.00335861 6.02007e-05
-0.000145402 6.02007e-05 -8.91495e-05
0.00186576 0.00061438 8.29994e-06
0.00061438 0.00124465 -1.79086e-05
8.29994e-06 -1.79086e-05 0.000746511
0.00235979 0.00118794 -8.13537e-06
0.00118794 0.00119388 4.20937e-06
-8.13537e-06 4.20937e-06 0.00035251
0.00188461 0.00139598 0.000153447
0.00139598 -0.0011686 6.35108e-05
0.000153447 6.35108e-05 -0.000514455
0.00387798 0.00182858 4.30066e-05
0.00182858 0.00122006 2.39284e-05
4.30066e-05 2.39284e-05 0.00051854
0.00285803 0.00169008 2.05887e-05
0.00169008 0.00107971 1.30844e-05
2.05887e-05 1.30844e-05 8.98064e-05
0.0205754 0.00150897 1.76176e-05
0.00150897 -0.00167364 -0.000280958
1.76176e-05 -0.000280958 0.00195777
0.00744685 0.00605504 -0.000340279
0.00605504 -0.00584016 3.88318e-05
-0.000340279 3.88318e-05 0.000228026
-1.34143e-05 0.00306506 -5.58697e-05
0.00306506 -0.00223292 -4.40367e-05
-5.58697e-05 -4.40367e-05 -0.00171594
0.0214238 -0.0112646 -0.00178406
-0.0112646 0.0145654 0.000754381
-0.00178406 0.000754381 0.00199033
0.0448541 -0.033024 -0.00158693
-0.033024 0.0341704 -0.00183852
-0.00158693 -0.00183852 0.00945644
0.000882705 0.00067452 1.10163e-05
0.00067452 0.0006284 -9.17036e-06
1.10163e-05 -9.17036e-06 5.09211e-05
0.0057869 -0.0108785 0.00182212
-0.0108785 0.00446532 -0.000138338
0.00182212 -0.000138338 -0.00757868
0.0116433 -0.0128908 -0.00156093
-0.0128908 0.0222627 0.000277807
-0.00156093 0.000277807 0.00486842
0.00425152 0.00266553 5.6248e-07
0.00266553 0.000471821 1.50193e-05
5.6248e-07 1.50193e-05 8.87451e-05
0.00132679 0.00113532 -1.52092e-05
0.00113532 0.00052 1.29103e-05
-1.52092e-05 1.29103e-05 -0.000319027
0.00410663 0.00201774 -1.49509e-05
0.00201774 0.00165683 -4.4899e-06
-1.49509e-05 -4.4899e-06 0.000676233
0.00197597 0.00329161 0.000108564
0.00329161 -7.74848e-05 7.36095e-05
0.000108564 7.36095e-05 -0.000166035
0.0114053 0.00912653 -0.00041464
0.00912653 -0.00871753 -0.000140164
-0.00041464 -0.000140164 -0.00321746
0.00440782 0.0078319 -0.000137995
0.0078319 -0.0018093 -0.000138706
-0.000137995 -0.000138706 0.000498731
0.0381992 -0.0120996 0.00120552
-0.0120996 0.0206767 -0.000544225
0.00120552 -0.000544225 0.00547479
0.0371812 -0.0078076 -0.000662425
-0.0078076 0.0165903 0.00122601
-0.000662425 0.00122601 0.00340056
0.0013332 0.000862195 -2.04291e-05
0.000862195 0.000826497 -1.44331e-05
-2.04291e-05 -1.44331e-05 0.00023439
0.00391052 -0.00191006 0.000574859
-0.00191006 0.0104234 -0.000327545
0.000574859 -0.000327545 -0.00134573
0.0131156 0.00696007 -0.00155694
0.00696007 0.0092695 -0.000647211
-0.00155694 -0.000647211 0.00335081
0.00259482 0.00204305 -5.88727e-05
0.00204305 0.000170694 -3.86051e-05
-5.88727e-05 -3.86051e-05 -0.000191158
0.00321 0.00197272 -0.000103564
0.00197272 0.00151548 -4.42817e-05
-0.000103564 -4.42817e-05 0.000506298
0.000489288 0.00242815 -0.000147082
0.00242815 0.000808698 -8.23609e-05
-0.000147082 -8.23609e-05 -0.000272132
-0.000993054 0.00618955 0.000130957
0.00618955 7.91212e-05 -0.000102659
0.000130957 -0.000102659 -0.000403865
0.00558535 0.0131659 0.00160037
0.0131659 -0.00695365 0.000333002
0.00160037 0.000333002 -0.00385701
0.0378755 -0.0141678 -0.00200936
-0.0141678 0.0246455 0.00158428
-0.00200936 0.00158428 0.00754973
0.0103239 0.00134593 3.82114e-05
0.00134593 -0.00119786 -0.00031172
3.82114e-05 -0.00031172 -0.00483134
0.000542256 0.000338577 -6.88671e-06
0.000338577 0.000589321 1.27012e-05
-6.88671e-06 1.27012e-05 0.000202404
0.000854602 0.000517023 5.40522e-06
0.000517023 0.000748246 1.96043e-06
5.40522e-06 1.96043e-06 0.000286779
0.000239162 0.000455199 3.73814e-06
0.000455199 0.000458622 2.60986e-06
3.73814e-06 2.60986e-06 -4.82993e-05
0.000359611 0.00010039 5.86162e-06
0.00010039 7.03548e-05 4.09543e-06
5.86162e-06 4.09543e-06 -0.000118419
0.00129741 0.000191909 1.28791e-06
0.000191909 0.000785072 6.04815e-06
1.28791e-06 6.04815e-06 0.000528196
-6.56943e-05 5.37517e-05 1.01214e-06
5.37517e-05 -7.18435e-05 5.08686e-06
1.01214e-06 5.08686e-06 -0.000340897
-9.2314e-06 4.4432e-05 8.90385e-06
4.4432e-05 3.78506e-05 -3.15896e-06
8.90385e-06 -3.15896e-06 -0.000256078
0.00041203 0.000115585 -2.08937e-06
0.000115585 0.000408544 9.82031e-06
-2.08937e-06 9.82031e-06 0.00011634
0.000828978 8.36413e-05 -1.68953e-06
8.36413e-05 0.000442365 -1.57154e-06
-1.68953e-06 -1.57154e-06 0.000202097
0.000267717 5.81899e-05 1.46838e-06
5.81899e-05 0.000251377 -2.97058e-06
1.46838e-06 -2.97058e-06 -3.95588e-05
0.000668727 -5.92343e-06 5.02433e-08
-5.92343e-06 0.000424763 2.76954e-06
5.02433e-08 2.76954e-06 0.000139685
-0.00014434 8.17133e-05 -2.07158e-06
8.17133e-05 0.000266333 3.95726e-07
-2.07158e-06 3.95726e-07 -0.00018898
-0.000173483 3.70559e-05 2.51504e-06
3.70559e-05 0.000412314 1.69731e-06
2.51504e-06 1.69731e-06 -0.00019594
8.29627e-06 -6.99179e-05 -6.80198e-08
-6.99179e-05 0.000191443 1.97818e-06
-6.80198e-08 1.97818e-06 -0.000184353
0.00265969 -0.000162686 -1.24396e-05
-0.000162686 0.00181381 -6.46518e-06
-1.24396e-05 -6.46518e-06 0.00145283
0.00130574 -0.000221636 -4.35371e-06
-0.000221636 0.000784949 -4.06492e-07
-4.35371e-06 -4.06492e-07 0.000539888
0.000367147 -6.75818e-05 -1.225e-05
-6.75818e-05 0.000186336 -3.73737e-06
-1.225e-05 -3.73737e-06 1.08706e-05
0.000559464 -0.000191964 -1.10465e-07
-0.000191964 0.000295172 3.84527e-06
-1.10465e-07 3.84527e-06 0.000122441
0.000443657 -0.000215225 1.26975e-06
-0.000215225 0.000179611 -1.31897e-06
1.26975e-06 -1.31897e-06 7.08246e-06
-4.13534e-05 -2.56637e-05 -1.09562e-05
-2.56637e-05 0.000131349 7.32821e-06
-1.09562e-05 7.32821e-06 -9.99025e-05
0.000958486 -0.000170258 1.98932e-05
-0.000170258 0.000519406 -1.89718e-05
1.98932e-05 -1.89718e-05 0.000317537
-0.00130105 -4.40857e-05 -1.41535e-05
-4.40857e-05 -0.000655574 5.23733e-06
-1.41535e-05 5.23733e-06 -0.000979824
0.00202742 -0.000276573 1.14978e-05
-0.000276573 0.00138552 -1.47763e-06
1.14978e-05 -1.47763e-06 0.00116614
0.000930159 4.89284e-06 1.7956e-05
4.89284e-06 0.000552794 -1.73419e-05
1.7956e-05 -1.73419e-05 0.00017934
0.00459327 -0.000973236 5.06518e-06
-0.000973236 0.00254261 5.81269e-06
5.06518e-06 5.81269e-06 0.00201032
-0.00361013 -0.000328272 1.19747e-05
-0.000328272 -0.00214489 -9.83306e-08
1.19747e-05 -9.83306e-08 -0.00262239
2.76522e-05 -8.76205e-05 -1.85882e-06
-8.76205e-05 7.04382e-05 1.223e-06
-1.85882e-06 1.223e-06 -0.000266347
-0.000793853 -1.89117e-05 1.65503e-05
-1.89117e-05 -0.00049161 -2.43065e-05
1.65503e-05 -2.43065e-05 -0.000848011
0.00120336 -0.000233918 1.44038e-09
-0.000233918 0.00081959 -1.85018e-06
1.44038e-09 -1.85018e-06 0.000505118
-0.000581605 -3.42383e-05 1.29497e-05
-3.42383e-05 -0.000481478 8.2636e-06
1.29497e-05 8.2636e-06 -0.000741273
0.002367 -0.000173667 -4.29186e-06
-0.000173667 0.00157006 4.4118e-06
-4.29186e-06 4.4118e-06 0.00125909
0.000302182 -0.000121181 -3.66588e-06
-0.000121181 8.16836e-05 1.1871e-08
-3.66588e-06 1.1871e-08 -0.000124451
-5.63107e-05 1.81795e-05 6.25106e-06
1.81795e-05 -0.000252851 -1.10441e-06
6.25106e-06 -1.10441e-06 -0.000365047
0.0011554 -0.000209343 -1.44065e-06
-0.000209343 0.000633864 8.54446e-06
-1.44065e-06 8.54446e-06 0.000432964
0.000361346 -6.76597e-05 -1.23716e-06
-6.76597e-05 9.06277e-06 -4.11127e-08
-1.23716e-06 -4.11127e-08 -9.4627e-05
0.00135551 4.78154e-05 -1.05673e-05
4.78154e-05 0.000646239 8.7591e-06
-1.05673e-05 8.7591e-06 0.000612829
0.000423485 -0.000102564 1.3611e-06
-0.000102564 5.96986e-05 -1.05079e-06
1.3611e-06 -1.05079e-06 -5.11061e-05
0.00084516 -3.61464e-05 -1.55035e-05
-3.61464e-05 0.000312956 1.16196e-06
-1.55035e-05 1.16196e-06 0.000276218
0.000688419 6.28354e-06 2.51949e-06
6.28354e-06 0.000176878 1.94204e-06
2.51949e-06 1.94204e-06 0.000177391
0.000366672 -6.60608e-05 6.23674e-06
-6.60608e-05 -2.99865e-06 -6.06137e-06
6.23674e-06 -6.06137e-06 -4.29855e-05
0.00271178 -4.25576e-06 6.38622e-06
-4.25576e-06 0.00153779 -4.35532e-09
6.38622e-06 -4.35532e-09 0.00154819
0.00276687 -1.42803e-05 2.43813e-05
-1.42803e-05 0.00157691 -6.06317e-06
2.43813e-05 -6.06317e-06 0.00158584
0.00124651 0.00010448 -1.70311e-07
0.00010448 0.000683716 -1.33376e-06
-1.70311e-07 -1.33376e-06 0.000484592
0.000425847 9.70251e-05 -5.87773e-07
9.70251e-05 7.89215e-05 -6.47922e-06
-5.87773e-07 -6.47922e-06 -2.68224e-05
0.00058659 1.79037e-05 -4.61571e-08
1.79037e-05 0.00023996 9.9229e-07
-4.61571e-08 9.9229e-07 5.48348e-05
0.000365699 1.59345e-05 9.07904e-07
1.59345e-05 -2.75811e-05 -5.8351e-06
9.07904e-07 -5.8351e-06 -5.47915e-05
0.000416147 -2.35175e-05 2.50718e-06
-2.35175e-05 5.42305e-05 -3.97199e-07
2.50718e-06 -3.97199e-07 -3.76228e-05
0.000409236 -9.42159e-05 -3.58981e-06
-9.42159e-05 5.31774e-05 5.67406e-06
-3.58981e-06 5.67406e-06 -4.61837e-05
0.000369277 -6.96271e-06 2.27549e-08
-6.96271e-06 -2.66712e-05 1.14766e-07
2.27549e-08 1.14766e-07 -5.49433e-05
0.00247104 3.41606e-05 -7.18807e-06
3.41606e-05 0.00137581 -6.49721e-06
-7.18807e-06 -6.49721e-06 0.00138539
0.0014976 2.48862e-05 -7.59858e-07
2.48862e-05 0.000726547 5.13281e-06
-7.59858e-07 5.13281e-06 0.000696203
0.0016735 4.12824e-05 -1.1041e-05
4.12824e-05 0.000844454 -1.78178e-07
-1.1041e-05 -1.78178e-07 0.000844555
0.000768716 3.91045e-05 -2.20436e-07
3.91045e-05 0.000247331 1.31298e-05
-2.20436e-07 1.31298e-05 0.000237549
0.00449844 0.00728468 0.00206533
0.00728468 0.00630951 0.000137675
0.00206533 0.000137675 -0.00562244
0.0144077 0.00977279 0.00348184
0.00977279 0.019168 0.00031148
0.00348184 0.00031148 0.00345172
0.00116741 0.00230328 2.10069e-05
0.00230328 -0.00638889 -9.35417e-05
2.10069e-05 -9.35417e-05 -0.000430045
0.00355495 7.66239e-05 0.000170112
7.66239e-05 -0.00388704 3.66485e-05
0.000170112 3.66485e-05 -0.00101879
0.0034849 -0.000189 4.82596e-05
-0.000189 -1.13259e-05 -4.96471e-06
4.82596e-05 -4.96471e-06 0.000397661
0.0045466 0.000499335 1.79385e-05
0.000499335 -0.00358426 -3.86423e-05
1.79385e-05 -3.86423e-05 0.000602269
0.00526126 -0.00120124 3.93082e-05
-0.00120124 -0.000743405 -4.29003e-07
3.93082e-05 -4.29003e-07 0.000809565
0.0130704 -0.00168361 0.000490399
-0.00168361 -0.00619952 -0.000198923
0.000490399 -0.000198923 -0.00404809
0.0141107 0.00883654 -0.000161825
0.00883654 0.00763802 -0.000144709
-0.000161825 -0.000144709 -0.001878
0.0518319 0.0278208 -0.000595868
0.0278208 0.0362462 0.000261573
-0.000595868 0.000261573 0.0122646
0.00445303 -0.00299812 -0.000159607
-0.00299812 -0.00474243 4.81486e-06
-0.000159607 4.81486e-06 0.000251229
0.0137022 -0.00760553 0.000789967
-0.00760553 -0.00595903 -0.000173672
0.000789967 -0.000173672 -0.00227023
0.0334893 0.0124815 -5.84925e-05
0.0124815 0.0191672 -0.000680931
-5.84925e-05 -0.000680931 0.00392981
0.0389171 0.00760618 -0.000587321
0.00760618 0.0197792 0.000506107
-0.000587321 0.000506107 0.00856198
0.00256834 0.000215257 -6.34267e-06
0.000215257 0.00172373 5.14523e-06
-6.34267e-06 5.14523e-06 0.00139311
0.000681574 3.70516e-05 2.20807e-06
3.70516e-05 0.000298891 -1.12682e-06
2.20807e-06 -1.12682e-06 0.000117252
0.000458442 -0.000128031 2.11439e-06
-0.000128031 0.000154842 6.24943e-07
2.11439e-06 6.24943e-07 -1.67989e-05
4.73618e-05 -4.48827e-05 6.77577e-06
-4.48827e-05 -0.00011339 -2.1988e-06
6.77577e-06 -2.1988e-06 -0.000256045
9.74546e-05 0.000104328 3.56893e-06
0.000104328 -1.45142e-05 8.16476e-07
3.56893e-06 8.16476e-07 -0.000147638
0.000952758 0.000253944 2.76703e-06
0.000253944 0.000528706 6.66498e-06
2.76703e-06 6.66498e-06 0.000268198
0.000356967 9.17204e-05 -3.26543e-06
9.17204e-05 0.000124147 -1.08567e-06
-3.26543e-06 -1.08567e-06 -7.17668e-05
0.000413128 0.000146734 8.07706e-06
0.000146734 0.000124891 4.75991e-06
8.07706e-06 4.75991e-06 -0.000138878
0.000479391 4.75471e-05 -1.14267e-07
4.75471e-05 0.000185915 -3.60006e-07
-1.14267e-07 -3.60006e-07 -3.86994e-05
-0.00029635 -3.03687e-05 -1.50027e-07
-3.03687e-05 -0.000382697 -2.95695e-06
-1.50027e-07 -2.95695e-06 -0.000541472
0.00248712 -0.000680797 8.15128e-05
-0.000680797 -0.00081339 -3.11464e-05
8.15128e-05 -3.11464e-05 -9.83078e-05
0.00187964 -0.00120435 2.35549e-05
-0.00120435 -0.000751508 -1.61816e-05
2.35549e-05 -1.61816e-05 -0.000458514
0.0026381 -0.00155689 -1.31567e-06
-0.00155689 0.00039385 1.56756e-05
-1.31567e-06 1.56756e-05 -0.000160782
0.000651556 -0.00159261 -8.06042e-06
-0.00159261 -0.000459598 1.52284e-05
-8.06042e-06 1.52284e-05 -0.00113633
0.00258308 -0.00102876 3.00849e-05
-0.00102876 0.00203902 8.0979e-05
3.00849e-05 8.0979e-05 0.000955714
0.000119042 -0.000880659 -3.49133e-05
-0.000880659 0.000316079 -3.29124e-05
-3.49133e-05 -3.29124e-05 -0.00047365
0.00115524 -0.000314396 2.03731e-05
-0.000314396 0.000678879 -3.10859e-05
2.03731e-05 -3.10859e-05 0.000423805
0.000131111 -1.96244e-05 -4.87129e-06
-1.96244e-05 7.93117e-05 -1.01502e-06
-4.87129e-06 -1.01502e-06 -0.000111325
0.00401303 -0.00160704 -1.87872e-06
-0.00160704 -0.000574386 -9.57469e-06
-1.87872e-06 -9.57469e-06 0.000477527
0.000272709 -7.24373e-05 2.98024e-07
-7.24373e-05 0.000333898 9.34053e-07
2.98024e-07 9.34053e-07 -6.55524e-05
-5.30667e-05 -0.000147532 -1.06021e-05
-0.000147532 0.000200911 3.46134e-06
-1.06021e-05 3.46134e-06 -0.00016563
0.00202011 -0.00155102 2.58325e-05
-0.00155102 -8.29426e-05 -1.41002e-06
2.58325e-05 -1.41002e-06 -0.000394376
0.00353438 -0.00207506 -3.89342e-06
-0.00207506 0.00104909 -7.87225e-06
-3.89342e-06 -7.87225e-06 0.000222561
0.000629305 -0.00146905 3.43878e-05
-0.00146905 6.54744e-05 -1.76039e-05
3.43878e-05 -1.76039e-05 -0.000502527
0.000664645 -0.000712877 3.00999e-05
-0.000712877 0.00106377 -4.47147e-05
3.00999e-05 -4.47147e-05 0.000118581
0.00110663 -0.00239137 -1.88011e-05
-0.00239137 -0.00209857 5.5891e-05
-1.88011e-05 5.5891e-05 -0.00120378
0.00334181 -0.00190799 -5.24808e-05
-0.00190799 0.00119836 3.1965e-05
-5.24808e-05 3.1965e-05 0.000451627
-0.000411466 -0.000868514 -9.22636e-05
-0.000868514 0.000296269 1.95408e-05
-9.22636e-05 1.95408e-05 -0.000452701
0.0017371 0.000215447 6.58152e-06
0.000215447 0.00121257 2.18028e-06
6.58152e-06 2.18028e-06 0.000834838
-0.000722833 -2.12473e-05 1.22105e-05
-2.12473e-05 -0.000143331 1.55067e-05
1.22105e-05 1.55067e-05 -0.000637607
0.000282464 -0.000105632 1.88706e-05
-0.000105632 0.000541979 1.77443e-05
1.88706e-05 1.77443e-05 7.0902e-05
-0.00285691 0.00283246 -0.000923882
0.00283246 0.00915863 -8.51096e-05
-0.000923882 -8.51096e-05 9.30295e-05
0.00243689 -0.00256362 1.90803e-05
-0.00256362 0.00898928 -3.02427e-05
1.90803e-05 -3.02427e-05 0.00107435
0.00965124 3.31176e-05 -4.39542e-05
3.31176e-05 -0.00789119 -3.48054e-07
-4.39542e-05 -3.48054e-07 -0.00815597
0.000845366 0.000656624 2.30574e-05
0.000656624 0.000646313 -1.75457e-05
2.30574e-05 -1.75457e-05 6.27213e-05
0.00191915 0.00129302 2.66463e-05
0.00129302 0.000926358 3.06514e-05
2.66463e-05 3.06514e-05 -5.45846e-07
0.00246122 0.00209573 0.00010733
0.00209573 -0.000487193 6.01904e-05
0.00010733 6.01904e-05 -0.000642915
0.0045518 0.00216996 6.05857e-05
0.00216996 0.00191197 4.82926e-05
6.05857e-05 4.82926e-05 0.000859185
0.0199938 -0.0121622 0.000367867
-0.0121622 0.0167419 0.000194615
0.000367867 0.000194615 0.00229434
0.00301577 0.00744616 -0.00110687
0.00744616 -0.0144915 -0.000201805
-0.00110687 -0.000201805 -0.00975913
0.00631141 0.00832721 -8.1942e-05
0.00832721 -0.00182571 2.41359e-05
-8.1942e-05 2.41359e-05 0.000840658
0.00515511 0.00345936 0.000130713
0.00345936 0.00184766 4.62771e-05
0.000130713 4.62771e-05 0.0016156
0.0302256 -0.00907684 -0.000524924
-0.00907684 0.0153456 -0.000223273
-0.000524924 -0.000223273 0.00211864
0.0111832 -0.0121812 -0.00230131
-0.0121812 0.0237289 0.000178769
-0.00230131 0.000178769 0.00778945
0.0487367 -0.0142222 0.0021652
-0.0142222 0.0213643 0.000439026
0.0021652 0.000439026 0.00536073
0.000840242 0.000812457 1.6308e-05
0.000812457 0.00058581 -5.6177e-06
1.6308e-05 -5.6177e-06 -2.94995e-05
0.00544107 -0.004828 0.000155569
-0.004828 0.013627 2.24923e-05
0.000155569 2.24923e-05 0.000634368
0.011679 0.00684003 -0.000337594
0.00684003 0.005901 -0.000196733
-0.000337594 -0.000196733 -0.00132908
0.00356693 0.00244173 8.38142e-06
0.00244173 0.00082626 6.18357e-06
8.38142e-06 6.18357e-06 0.000218177
0.00171246 0.00164792 3.10257e-06
0.00164792 0.000815629 7.12969e-06
3.10257e-06 7.12969e-06 -0.000128658
-0.000113886 0.00241555 -0.00018186
0.00241555 0.000437488 -0.000123048
-0.00018186 -0.000123048 -0.000435551
0.00469109 0.00872462 0.00012861
0.00872462 0.00125378 5.88585e-05
0.00012861 5.88585e-05 0.000575058
0.0112502 0.0133908 -4.22491e-05
0.0133908 -0.00188521 -1.63229e-05
-4.22491e-05 -1.63229e-05 -0.00152899
0.0198931 -0.00832122 -2.48738e-06
-0.00832122 0.0172182 -0.000184411
-2.48738e-06 -0.000184411 0.00179371
0.0218124 -0.00260854 -0.000248962
-0.00260854 0.00515986 -2.32863e-05
-0.000248962 -2.32863e-05 0.00194881
0.00168061 0.00151004 -1.66017e-05
0.00151004 0.00107549 -9.78312e-06
-1.66017e-05 -9.78312e-06 0.000190521
0.00236707 0.00197899 -0.000858315
0.00197899 0.00484098 -0.000211152
-0.000858315 -0.000211152 -0.00217778
0.00624304 0.00130566 7.42521e-05
0.00130566 0.00229042 -0.00020559
7.42521e-05 -0.00020559 -0.00274
-0.00100553 0.00102681 -2.33147e-06
0.00102681 0.00010548 -3.79112e-05
-2.33147e-06 -3.79112e-05 -0.000633571
-0.00301306 0.00280807 -4.10193e-05
0.00280807 0.00101138 6.54412e-05
-4.10193e-05 6.54412e-05 -0.000396269
0.00585704 0.0108861 0.000622306
0.0108861 0.00459514 7.80466e-05
0.000622306 7.80466e-05 -0.00154446
0.0172648 -0.00638342 0.000157006
-0.00638342 0.00698084 0.000197244
0.000157006 0.000197244 -0.00460687
0.0221696 -0.00148355 0.000163166
-0.00148355 0.00159167 -0.000329923
0.000163166 -0.000329923 0.00034884
0.00056471 0.000461146 8.83643e-06
0.000461146 0.000560647 2.34114e-05
8.83643e-06 2.34114e-05 0.000147342
0.000580801 0.00048071 -3.54083e-06
0.00048071 0.000680495 -4.70837e-06
-3.54083e-06 -4.70837e-06 0.000157199
0.000612393 0.000517029 1.47935e-05
0.000517029 0.000834403 2.18951e-06
1.47935e-05 2.18951e-06 0.000176162
0.000417781 0.000101282 1.54608e-06
0.000101282 0.000123785 9.02138e-06
1.54608e-06 9.02138e-06 -8.53557e-05
0.00135617 -8.67958e-06 -8.60062e-07
-8.67958e-06 0.000898122 7.63402e-06
-8.60062e-07 7.63402e-06 0.000600513
0.000175452 8.3894e-05 3.62759e-06
8.3894e-05 0.000184247 1.73185e-07
3.62759e-06 1.73185e-07 -0.000116986
1.40014e-05 0.000119687 1.36966e-06
0.000119687 0.000367981 2.40923e-06
1.36966e-06 2.40923e-06 -7.9389e-05
0.000736865 -5.21117e-05 6.07248e-06
-5.21117e-05 0.000446448 9.9809e-07
6.07248e-06 9.9809e-07 0.000169683
0.000229995 -2.63378e-05 4.02838e-07
-2.63378e-05 0.000307274 -4.50185e-06
4.02838e-07 -4.50185e-06 -4.78076e-05
-0.000129607 4.37166e-05 1.44137e-07
4.37166e-05 0.000490691 1.05303e-06
1.44137e-07 1.05303e-06 -0.000160068
-0.000733702 1.34825e-05 7.37587e-06
1.34825e-05 0.000310754 6.21143e-06
7.37587e-06 6.21143e-06 -0.000413312
0.00126191 -0.00013535 1.04353e-05
-0.00013535 0.00126933 -9.87881e-06
1.04353e-05 -9.87881e-06 0.000714103
0.00110031 -0.000112548 -2.77611e-05
-0.000112548 0.000929621 5.97976e-06
-2.77611e-05 5.97976e-06 0.000508141
0.00134627 -0.000249953 5.56143e-06
-0.000249953 0.000830106 9.22938e-06
5.56143e-06 9.22938e-06 0.00062889
-0.000697235 -0.000339908 -7.52623e-06
-0.000339908 -0.000609429 -3.64728e-06
-7.52623e-06 -3.64728e-06 -0.000744084
-0.000505238 -7.76583e-06 1.51387e-05
-7.76583e-06 -0.0001078 -1.47633e-05
1.51387e-05 -1.47633e-05 -0.000338945
-0.000735573 -2.51468e-05 2.67837e-06
-2.51468e-05 -0.000287492 -2.08913e-06
2.67837e-06 -2.08913e-06 -0.000615706
0.000187712 -0.000226219 -1.2062e-06
-0.000226219 -4.47377e-05 2.99192e-06
-1.2062e-06 2.99192e-06 -0.000199087
7.21605e-05 -0.00022387 -1.13122e-05
-0.00022387 0.000155885 4.77516e-06
-1.13122e-05 4.77516e-06 -2.97693e-05
0.00372017 -0.00034828 1.02422e-05
-0.00034828 0.00230864 -6.94415e-06
1.02422e-05 -6.94415e-06 0.00189259
0.00143707 -0.000156374 5.16149e-06
-0.000156374 0.00131428 6.99255e-06
5.16149e-06 6.99255e-06 0.000888779
0.00191472 -0.000764139 -1.01472e-05
-0.000764139 0.00112544 1.12005e-05
-1.01472e-05 1.12005e-05 0.000524553
0.00138962 -0.000186365 -1.59777e-05
-0.000186365 0.000771876 2.59503e-06
-1.59777e-05 2.59503e-06 0.000439581
0.000181109 -0.000482145 2.08699e-05
-0.000482145 -0.000144014 8.80341e-06
2.08699e-05 8.80341e-06 -0.000548672
0.00247999 -0.00119886 -7.14964e-06
-0.00119886 0.00118202 1.13149e-05
-7.14964e-06 1.13149e-05 0.000400968
0.00330918 -0.000545783 2.72e-05
-0.000545783 0.00167309 -8.00857e-06
2.72e-05 -8.00857e-06 0.00134603
0.00253312 -0.000732874 3.07728e-07
-0.000732874 0.00125961 -1.04744e-05
3.07728e-07 -1.04744e-05 0.000802711
-4.65712e-05 -0.000361463 3.16722e-07
-0.000361463 3.91769e-06 1.40385e-06
3.16722e-07 1.40385e-06 -0.000418197
-0.00316877 -0.000303086 1.96648e-05
-0.000303086 -0.00192703 -1.88603e-05
1.96648e-05 -1.88603e-05 -0.00245027
0.000773223 -0.000224291 -7.39418e-06
-0.000224291 0.000528847 9.66107e-06
-7.39418e-06 9.66107e-06 0.000212397
0.000921369 -0.000491525 1.05378e-05
-0.000491525 0.000547165 -4.61237e-06
1.05378e-05 -4.61237e-06 0.000187227
0.00103367 -0.00016644 1.89695e-05
-0.00016644 0.000554102 8.1921e-06
1.89695e-05 8.1921e-06 0.000222399
0.00249533 -0.000616241 -1.65402e-05
-0.000616241 0.00165647 1.70531e-05
-1.65402e-05 1.70531e-05 0.001308
0.000226871 -0.000189152 -1.33271e-06
-0.000189152 0.000128323 -6.92977e-07
-1.33271e-06 -6.92977e-07 -0.000192221
-0.00013415 -5.05753e-05 8.07956e-06
-5.05753e-05 -0.00029226 4.61573e-06
8.07956e-06 4.61573e-06 -0.000447761
0.00238237 -0.00039452 -5.20615e-06
-0.00039452 0.00152135 7.80949e-06
-5.20615e-06 7.80949e-06 0.00125159
0.000834148 -0.000133769 6.70573e-07
-0.000133769 0.000340288 9.12519e-07
6.70573e-07 9.12519e-07 0.000210602
0.00156147 -1.23905e-05 -1.86244e-05
-1.23905e-05 0.000779268 9.77863e-06
-1.86244e-05 9.77863e-06 0.000736736
0.000443738 -0.000113748 -1.49206e-06
-0.000113748 8.72072e-05 3.77681e-07
-1.49206e-06 3.77681e-07 -3.17296e-05
0.000799546 -2.3142e-05 -1.83559e-05
-2.3142e-05 0.00027664 9.69011e-07
-1.83559e-05 9.69011e-07 0.000237394
0.000796641 1.55511e-05 4.27927e-06
1.55511e-05 0.000245961 3.17243e-06
4.27927e-06 3.17243e-06 0.000243323
0.000347249 -6.87191e-05 5.15192e-06
-6.87191e-05 -2.08306e-05 -5.94939e-06
5.15192e-06 -5.94939e-06 -6.07476e-05
0.00172827 8.08988e-06 2.17376e-05
8.08988e-06 0.000875512 -2.13235e-06
2.17376e-05 -2.13235e-06 0.000881848
0.00269097 -8.64518e-06 3.2377e-05
-8.64518e-06 0.00152318 -6.1231e-06
3.2377e-05 -6.1231e-06 0.00153418
-9.52625e-05 0.000121495 3.15291e-06
0.000121495 -0.000279748 -1.19797e-06
3.15291e-06 -1.19797e-06 -0.000454504
0.000526639 9.95374e-05 1.05483e-06
9.95374e-05 0.00014383 -6.52218e-06
1.05483e-06 -6.52218e-06 2.85238e-05
0.000331887 3.76873e-05 1.21767e-06
3.76873e-05 4.61869e-05 1.16297e-06
1.21767e-06 1.16297e-06 -0.000132263
0.000357505 1.80443e-05 3.00318e-06
1.80443e-05 -3.25042e-05 -6.52714e-06
3.00318e-06 -6.52714e-06 -6.20257e-05
0.000402106 7.9034e-05 6.52542e-07
7.9034e-05 5.10751e-05 1.57574e-08
6.52542e-07 1.57574e-08 -4.63247e-05
5.93444e-05 -9.61476e-05 -4.12464e-06
-9.61476e-05 -0.000152904 4.89818e-06
-4.12464e-06 4.89818e-06 -0.000307759
0.00247267 1.82838e-05 -1.41377e-05
1.82838e-05 0.00137555 -6.68913e-06
-1.41377e-05 -6.68913e-06 0.00138652
0.000358141 1.17474e-05 -7.19013e-07
1.17474e-05 -3.25684e-05 -6.90555e-08
-7.19013e-07 -6.90555e-08 -5.9523e-05
0.000461979 -8.45039e-06 -3.86898e-06
-8.45039e-06 6.78133e-05 4.85532e-06
-3.86898e-06 4.85532e-06 -1.32545e-05
0.000383042 -2.00707e-05 -4.11191e-06
-2.00707e-05 -1.82149e-05 5.9903e-06
-4.11191e-06 5.9903e-06 -4.70729e-05
0.00255021 3.63277e-05 -6.24722e-06
3.63277e-05 0.00142945 -1.73431e-07
-6.24722e-06 -1.73431e-07 0.00143822
0.00275206 5.34314e-05 -1.46679e-06
5.34314e-05 0.00156718 7.31807e-06
-1.46679e-06 7.31807e-06 0.00157214
0.00615581 -0.000134078 -0.000546085
-0.000134078 0.0148446 0.000105985
-0.000546085 0.000105985 0.00569219
0.0101723 0.00839684 -0.000525413
0.00839684 0.00885671 0.000221906
-0.000525413 0.000221906 -0.00283254
0.0111094 -0.0038356 -0.000548783
-0.0038356 0.00367631 0.000362546
-0.000548783 0.000362546 -0.00257324
0.01979 0.0109505 0.00175777
0.0109505 0.0194214 9.98091e-05
0.00175777 9.98091e-05 0.00307548
0.00666772 0.0009429 0.00013292
0.0009429 -0.00266363 4.39839e-05
0.00013292 4.39839e-05 0.00110211
0.00241437 -0.00110989 0.000137288
-0.00110989 -0.00218256 -8.08776e-06
0.000137288 -8.08776e-06 -0.000794823
0.00286662 -0.00156244 0.000705229
-0.00156244 -0.014822 -4.99148e-05
0.000705229 -4.99148e-05 -0.00982474
0.022029 0.010246 -0.00288752
0.010246 0.0174989 -0.000595025
-0.00288752 -0.000595025 0.00516044
0.0435872 0.0323714 -0.00181265
0.0323714 0.0320813 0.00191709
-0.00181265 0.00191709 0.0078918
0.00603232 -0.00205371 9.2399e-05
-0.00205371 -0.00336255 -1.82069e-05
9.2399e-05 -1.82069e-05 0.00027848
0.00851707 -0.00837305 0.000509523
-0.00837305 -0.0097083 -0.000265528
0.000509523 -0.000265528 -0.00539356
0.0355559 0.0120745 -0.000789771
0.0120745 0.0205248 -0.00053476
-0.000789771 -0.00053476 0.00468334
0.0300564 0.00677242 0.000678703
0.00677242 0.0160509 0.000658215
0.000678703 0.000658215 0.00509728
0.003296 -0.00492119 -9.39084e-05
-0.00492119 -0.00514595 0.000163337
-9.39084e-05 0.000163337 -0.000768248
-0.00144724 -0.0121518 0.00150823
-0.0121518 -0.00583885 -0.000369815
0.00150823 -0.000369815 -0.00477004
0.02082 0.00464899 -0.00105323
0.00464899 0.0125021 -0.00159609
-0.00105323 -0.00159609 -0.00038724
0.0135538 -0.00195012 -0.000316786
-0.00195012 0.00360187 5.12899e-05
-0.000316786 5.12899e-05 -0.000506726
0.00132569 4.34873e-05 6.8532e-06
4.34873e-05 0.000828879 1.60304e-05
6.8532e-06 1.60304e-05 0.000504319
3.99885e-05 -1.06227e-05 -4.41108e-07
-1.06227e-05 -6.69034e-05 -5.90011e-07
-4.41108e-07 -5.90011e-07 -0.00026862
0.000147294 0.000102534 -3.15416e-06
0.000102534 -9.30129e-05 -1.16991e-06
-3.15416e-06 -1.16991e-06 -0.000250473
-0.000717683 -9.78482e-05 -1.31478e-05
-9.78482e-05 -0.000643707 2.26891e-07
-1.31478e-05 2.26891e-07 -0.000682743
0.000446167 0.000207122 6.83743e-06
0.000207122 0.000153095 2.30033e-05
6.83743e-06 2.30033e-05 -0.000106658
0.000631023 0.000159097 -1.76046e-06
0.000159097 0.000320028 -2.04154e-06
-1.76046e-06 -2.04154e-06 6.96887e-05
-0.000116939 -5.28236e-05 2.33674e-06
-5.28236e-05 -0.000201249 -4.71178e-06
2.33674e-06 -4.71178e-06 -0.000372827
0.00113705 0.000267661 1.30972e-05
0.000267661 0.000672281 6.31471e-06
1.30972e-05 6.31471e-06 0.000349009
0.000918491 0.000259691 -1.09204e-06
0.000259691 0.000508917 -3.18932e-06
-1.09204e-06 -3.18932e-06 0.000213172
0.000443115 8.62189e-05 -4.3854e-06
8.62189e-05 0.000164055 -3.15959e-06
-4.3854e-06 -3.15959e-06 -6.33488e-05
0.00339626 -0.00154656 0.000183234
-0.00154656 -0.000862109 -0.000108166
0.000183234 -0.000108166 0.000152342
0.00109735 -0.00140041 -1.21119e-05
-0.00140041 -0.000695531 -1.20127e-05
-1.21119e-05 -1.20127e-05 -0.00079515
0.00285703 -0.00191154 9.2333e-06
-0.00191154 0.000747683 2.7785e-05
9.2333e-06 2.7785e-05 -8.03378e-05
9.02173e-05 -0.00139173 2.10504e-05
-0.00139173 -0.000226843 2.96176e-06
2.10504e-05 2.96176e-06 -0.000808082
0.00445109 -0.000722998 -5.11747e-05
-0.000722998 0.00302061 9.85273e-05
-5.11747e-05 9.85273e-05 0.00242111
0.000713426 -0.000302601 -1.3394e-05
-0.000302601 0.000716615 -3.04138e-05
-1.3394e-05 -3.04138e-05 0.000300125
0.00143804 0.000105286 -9.58492e-06
0.000105286 0.00105374 -1.30134e-05
-9.58492e-06 -1.30134e-05 0.000634577
0.000980737 0.000105547 -8.97347e-06
0.000105547 0.000672882 -1.37167e-06
-8.97347e-06 -1.37167e-06 0.000320719
0.00382498 -0.00262074 -5.42688e-05
-0.00262074 -0.000512536 1.10126e-05
-5.42688e-05 1.10126e-05 0.000293573
0.00137919 -0.000192572 -3.97224e-06
-0.000192572 0.00112889 7.9498e-06
-3.97224e-06 7.9498e-06 0.00064999
0.000838128 -0.000323738 1.64073e-05
-0.000323738 0.000812143 -7.55858e-06
1.64073e-05 -7.55858e-06 0.00032675
0.00134663 -0.00163678 2.65127e-05
-0.00163678 5.11253e-05 -6.13068e-06
2.65127e-05 -6.13068e-06 -0.00053652
0.000116247 -0.000856316 -2.95028e-06
-0.000856316 0.000436636 5.89744e-06
-2.95028e-06 5.89744e-06 -0.000187238
0.000579292 -0.00329364 -3.02329e-05
-0.00329364 -0.000577309 1.35394e-05
-3.02329e-05 1.35394e-05 -0.00127657
0.000649252 -0.00124279 -1.03177e-05
-0.00124279 0.000726276 9.0111e-06
-1.03177e-05 9.0111e-06 5.61557e-05
-0.00113342 -0.000230011 -1.65958e-05
-0.000230011 0.000162848 -1.89672e-05
-1.65958e-05 -1.89672e-05 -0.000675061
0.000848018 0.000110713 2.2204e-05
0.000110713 0.000708348 -3.6102e-06
2.2204e-05 -3.6102e-06 0.000380694
-0.000432748 -0.000124415 8.43519e-06
-0.000124415 0.000122958 8.66567e-06
8.43519e-06 8.66567e-06 -0.000373276
0.00359201 0.000176067 -0.000242116
0.000176067 0.00220771 -9.85656e-05
-0.000242116 -9.85656e-05 -0.00272294
-0.00547488 0.000912936 -0.0013959
0.000912936 0.00773249 6.10531e-05
-0.0013959 6.10531e-05 0.000923098
-0.00496036 -0.00481801 -0.00254933
-0.00481801 0.00492796 0.000210272
-0.00254933 0.000210272 -0.00649255
4.10066e-05 0.000737154 2.66687e-05
0.000737154 0.000179085 -1.33757e-05
2.66687e-05 -1.33757e-05 -0.000470015
0.00214977 0.00163106 1.31335e-05
0.00163106 0.00112722 1.14814e-05
1.31335e-05 1.14814e-05 0.000186679
0.00645171 0.00323625 0.000102068
0.00323625 0.0023607 9.73249e-05
0.000102068 9.73249e-05 0.00139167
0.00270339 -0.00268932 0.000296608
-0.00268932 0.0140542 9.90179e-05
0.000296608 9.90179e-05 0.00331529
-0.000736374 0.0127609 -0.00144865
0.0127609 -0.00724908 -0.000263914
-0.00144865 -0.000263914 -0.00507627
0.00107839 0.00646377 0.000657211
0.00646377 -0.000804703 0.000397294
0.000657211 0.000397294 -0.000491229
-0.000210111 0.00230562 -9.33683e-06
0.00230562 0.000361279 -6.28305e-05
-9.33683e-06 -6.28305e-05 -8.71616e-05
0.036085 -0.0089051 0.000465248
-0.0089051 0.019077 -0.000880795
0.000465248 -0.000880795 0.00580145
0.0114034 0.00729137 0.00177552
0.00729137 0.00430438 0.000477223
0.00177552 0.000477223 -0.00424581
0.0161265 -0.000577763 -6.6493e-05
-0.000577763 0.0048963 9.37798e-05
-6.6493e-05 9.37798e-05 0.00379985
0.00253401 0.0015774 8.04705e-06
0.0015774 0.00156429 9.99107e-07
8.04705e-06 9.99107e-07 0.000684216
0.00415589 0.00321686 -0.000235343
0.00321686 0.00596117 -7.19516e-05
-0.000235343 -7.19516e-05 -0.000909966
0.00552838 0.0009138 0.000231408
0.0009138 0.00329518 -2.69371e-05
0.000231408 -2.69371e-05 -0.00126809
0.000601855 0.00169507 -3.94162e-05
0.00169507 0.000791756 -1.44276e-05
-3.94162e-05 -1.44276e-05 -0.000223928
-0.00166776 0.00406854 -0.000202965
0.00406854 0.000683803 -0.000169405
-0.000202965 -0.000169405 -0.00131205
0.00350432 0.0126168 0.000800958
0.0126168 0.00334459 0.000301152
0.000800958 0.000301152 -0.00310613
0.0162023 -0.0012064 5.00022e-05
-0.0012064 -0.00065225 -0.000200759
5.00022e-05 -0.000200759 -0.00146925
0.0115657 -0.00492838 -8.65894e-05
-0.00492838 0.00822661 -0.000303453
-8.65894e-05 -0.000303453 -0.00219546
0.001883 0.00130352 -7.92335e-07
0.00130352 0.00168184 -1.26356e-05
-7.92335e-07 -1.26356e-05 0.000713724
-0.00201995 0.00154152 0.000218955
0.00154152 0.00451849 0.000104508
0.000218955 0.000104508 -0.00161725
0.0103546 -0.00229568 0.000753341
-0.00229568 0.00128371 4.39625e-05
0.000753341 4.39625e-05 -0.00214539
0.0142286 -0.00227143 0.00036516
-0.00227143 0.00345688 -3.53274e-05
0.00036516 -3.53274e-05 -0.000270908
-0.00303153 0.00121431 7.48218e-05
0.00121431 0.00116803 -6.61606e-06
7.48218e-05 -6.61606e-06 -0.000670554
0.00586017 0.00535779 0.000610989
0.00535779 0.00730162 0.000360375
0.000610989 0.000360375 -0.00148855
0.0160653 -0.00144044 -0.000109102
-0.00144044 0.00444076 0.000432787
-0.000109102 0.000432787 -0.000673319
0.000902272 0.000515558 1.13127e-05
0.000515558 0.000892762 7.28916e-06
1.13127e-05 7.28916e-06 0.00034012
0.000320514 0.000525606 -9.07768e-06
0.000525606 0.000652369 -2.14379e-06
-9.07768e-06 -2.14379e-06 -4.50124e-05
-0.000673604 0.000213393 2.52207e-05
0.000213393 0.000419094 -4.99149e-06
2.52207e-05 -4.99149e-06 -0.00051691
-0.000798073 -1.83732e-05 7.86959e-06
-1.83732e-05 -0.000593625 7.60893e-06
7.86959e-06 7.60893e-06 -0.000828611
0.000705535 0.000114702 5.79096e-06
0.000114702 0.000601655 -3.56952e-06
5.79096e-06 -3.56952e-06 0.000256796
-0.000148422 3.71305e-05 -1.74665e-06
3.71305e-05 0.000549639 -8.79086e-07
-1.74665e-06 -8.79086e-07 -0.000140512
-0.000159708 -9.1133e-05 -1.26037e-06
-9.1133e-05 8.99239e-05 -1.35047e-07
-1.26037e-06 -1.35047e-07 -0.000305831
0.00010286 -7.28458e-05 -2.09327e-06
-7.28458e-05 0.000609534 -1.22901e-06
-2.09327e-06 -1.22901e-06 1.20205e-05
-0.000382126 1.87256e-05 4.25558e-06
1.87256e-05 0.00053333 3.6032e-07
4.25558e-06 3.6032e-07 -0.000173431
0.000393631 -0.000229984 -1.10631e-05
-0.000229984 0.000923739 1.95808e-05
-1.10631e-05 1.95808e-05 0.000304524
0.000890176 -0.000119849 5.86659e-07
-0.000119849 0.00101355 -6.5422e-06
5.86659e-07 -6.5422e-06 0.000536901
-0.000691465 2.05156e-06 2.14929e-05
2.05156e-06 -0.000289394 -8.3698e-06
2.14929e-05 -8.3698e-06 -0.000587791
-0.00056576 -0.000257284 -1.30843e-05
-0.000257284 -0.000585418 1.1462e-05
-1.30843e-05 1.1462e-05 -0.000710015
-0.00225279 -9.95144e-05 5.80567e-06
-9.95144e-05 -0.00127987 -9.08746e-06
5.80567e-06 -9.08746e-06 -0.00146226
0.00052563 -9.65728e-05 1.25701e-06
-9.65728e-05 0.000732432 2.31667e-06
1.25701e-06 2.31667e-06 0.000312363
-0.000866299 -7.12942e-05 -1.93409e-05
-7.12942e-05 -0.000325499 2.39351e-06
-1.93409e-05 2.39351e-06 -0.000880944
0.00324133 -0.000970162 -4.28416e-06
-0.000970162 0.00203585 1.10204e-05
-4.28416e-06 1.10204e-05 0.00138068
0.00178945 -0.000642668 1.41224e-05
-0.000642668 0.00107505 -1.14808e-07
1.41224e-05 -1.14808e-07 0.000629313
0.0013003 -0.00071261 1.11707e-05
-0.00071261 0.000450201 2.80592e-05
1.11707e-05 2.80592e-05 -1.98231e-05
0.000908587 -0.000292041 -1.09001e-05
-0.000292041 0.000430259 2.70136e-06
-1.09001e-05 2.70136e-06 0.000140637
0.00100692 -0.000564722 -6.10099e-06
-0.000564722 0.000382077 3.39197e-06
-6.10099e-06 3.39197e-06 -5.21952e-05
0.00301707 -0.00128328 -1.63058e-05
-0.00128328 0.00145819 1.43742e-05
-1.63058e-05 1.43742e-05 0.000635662
0.0024337 -0.00138959 4.89143e-06
-0.00138959 0.000997791 -6.7185e-06
4.89143e-06 -6.7185e-06 0.000109589
0.00196198 -0.00071776 1.48094e-05
-0.00071776 0.000829974 -3.84051e-06
1.48094e-05 -3.84051e-06 0.000345512
0.00177698 -0.00106447 4.13558e-07
-0.00106447 0.000771428 -2.03759e-07
4.13558e-07 -2.03759e-07 3.85606e-05
0.00264299 -0.000430854 9.69416e-06
-0.000430854 0.00152173 -1.53878e-05
9.69416e-06 -1.53878e-05 0.00108518
0.00154378 -0.000415229 -5.12803e-06
-0.000415229 0.000650572 3.35093e-06
-5.12803e-06 3.35093e-06 0.000297246
0.000836523 -0.000526244 5.13718e-06
-0.000526244 0.000214003 -2.0935e-05
5.13718e-06 -2.0935e-05 -0.000175798
0.00361574 -0.000412701 -6.95328e-06
-0.000412701 0.00222695 1.06092e-05
-6.95328e-06 1.06092e-05 0.00184321
-0.000376627 -0.000531775 3.55387e-06
-0.000531775 -0.000270461 -4.91653e-06
3.55387e-06 -4.91653e-06 -0.000744333
0.00104112 -0.000155694 1.94667e-05
-0.000155694 0.000557736 7.36758e-06
1.94667e-05 7.36758e-06 0.0001396
0.0026222 -0.00105827 -2.41218e-05
-0.00105827 0.00154792 2.36413e-05
-2.41218e-05 2.36413e-05 0.00120097
0.0014136 -0.000354828 1.12976e-08
-0.000354828 0.000806726 -7.77075e-07
1.12976e-08 -7.77075e-07 0.000464804
-0.000255683 -0.000161565 1.08174e-05
-0.000161565 -0.000375043 1.87238e-05
1.08174e-05 1.87238e-05 -0.00060309
0.00240693 -0.000264401 -1.12239e-05
-0.000264401 0.00155047 -7.16841e-06
-1.12239e-05 -7.16841e-06 0.00124304
0.000248567 -0.000110941 -2.67469e-06
-0.000110941 -4.50764e-05 -7.76535e-07
-2.67469e-06 -7.76535e-07 -0.000205766
0.0017169 -6.26547e-05 -3.05001e-05
-6.26547e-05 0.00087421 8.91147e-06
-3.05001e-05 8.91147e-06 0.000828695
0.000590976 -0.000125691 -2.53366e-06
-0.000125691 0.000176659 -6.3563e-07
-2.53366e-06 -6.3563e-07 4.50783e-05
0.000891995 -4.68066e-05 -1.72832e-05
-4.68066e-05 0.000329967 1.10389e-06
-1.72832e-05 1.10389e-06 0.000284616
0.000786485 2.44119e-05 4.80436e-06
2.44119e-05 0.000235091 3.69495e-06
4.80436e-06 3.69495e-06 0.000225049
0.000414002 -6.07028e-05 3.43691e-06
-6.07028e-05 1.75049e-05 -6.8968e-06
3.43691e-06 -6.8968e-06 -2.55498e-05
0.00187056 2.04108e-05 2.50015e-05
2.04108e-05 0.000967308 -1.74596e-06
2.50015e-05 -1.74596e-06 0.000972301
0.0026739 3.31166e-06 3.55913e-05
3.31166e-06 0.00150682 -6.34971e-06
3.55913e-05 -6.34971e-06 0.001519
0.00018667 4.54207e-05 3.3108e-06
4.54207e-05 -2.94185e-05 7.71642e-07
3.3108e-06 7.71642e-07 -0.00029621
-0.000173372 4.1414e-05 1.24551e-06
4.1414e-05 -0.000342175 -7.95845e-06
1.24551e-06 -7.95845e-06 -0.000467979
0.000609714 8.20083e-05 4.11517e-07
8.20083e-05 0.000245223 1.42355e-06
4.11517e-07 1.42355e-06 2.74188e-05
0.000350464 1.82917e-05 4.88465e-06
1.82917e-05 -3.57702e-05 -7.29129e-06
4.88465e-06 -7.29129e-06 -7.15251e-05
0.000221341 6.9738e-06 1.58093e-06
6.9738e-06 -7.95908e-05 2.54858e-07
1.58093e-06 2.54858e-07 -0.000185405
0.000352739 -0.000143685 -1.3257e-06
-0.000143685 7.7718e-05 4.14603e-06
-1.3257e-06 4.14603e-06 -0.000116364
0.00259299 3.83157e-06 -2.18893e-05
3.83157e-06 0.00145642 -7.14682e-06
-2.18893e-05 -7.14682e-06 0.00146696
0.000347097 1.30898e-05 2.09211e-06
1.30898e-05 -3.8831e-05 -1.44562e-07
2.09211e-06 -1.44562e-07 -6.86564e-05
0.000349723 -1.87434e-05 -7.0568e-06
-1.87434e-05 5.85744e-06 5.50804e-06
-7.0568e-06 5.50804e-06 -8.65308e-05
0.0024623 1.80952e-05 -7.26791e-06
1.80952e-05 0.0013691 -6.25218e-08
-7.26791e-06 -6.25218e-08 0.00137985
0.000339531 -1.18024e-05 -5.11999e-06
-1.18024e-05 -4.48855e-05 5.7392e-06
-5.11999e-06 5.7392e-06 -7.15386e-05
0.00252723 4.20279e-05 1.71158e-05
4.20279e-05 0.00141552 7.91513e-06
1.71158e-05 7.91513e-06 0.00142383
-0.00290659 -0.00312559 -0.000319131
-0.00312559 -1.26503e-05 0.000146863
-0.000319131 0.000146863 -0.00574945
0.00915876 0.00679713 -0.000599343
0.00679713 0.0178862 5.18451e-05
-0.000599343 5.18451e-05 0.00529702
0.0127255 0.00455003 -0.00271511
0.00455003 0.00951712 0.000192236
-0.00271511 0.000192236 0.00354158
0.000224106 9.77328e-05 8.474e-06
9.77328e-05 3.73282e-05 1.48251e-06
8.474e-06 1.48251e-06 -0.000265406
0.0105654 -0.00293085 -0.000322923
-0.00293085 0.00769939 0.000404711
-0.000322923 0.000404711 0.00286774
0.00713651 -0.00257623 -0.000201412
-0.00257623 0.00365208 3.05775e-05
-0.000201412 3.05775e-05 -0.00246281
0.0325646 0.0192385 -9.30785e-05
0.0192385 0.023377 -0.000860119
-9.30785e-05 -0.000860119 0.00268145
0.00596554 -0.00327763 0.000228886
-0.00327763 -0.00408689 -6.93037e-05
0.000228886 -6.93037e-05 -0.00036434
0.0107948 -0.00691366 0.000452513
-0.00691366 -0.00662094 -0.000374399
0.000452513 -0.000374399 -0.00173573
0.0253441 0.00943163 -0.00123445
0.00943163 0.0150103 8.52677e-05
-0.00123445 8.52677e-05 0.000608486
0.0237869 0.00639493 0.000962331
0.00639493 0.0172801 0.00052815
0.000962331 0.00052815 0.00912525
0.00721939 -0.00596919 -9.24702e-05
-0.00596919 -0.00277493 7.11912e-06
-9.24702e-05 7.11912e-06 0.000509388
0.0101899 -0.0121113 8.30958e-05
-0.0121113 -0.00114405 -0.000125686
8.30958e-05 -0.000125686 -0.00130706
0.0187492 0.00205416 2.48173e-05
0.00205416 0.014545 -0.000678043
2.48173e-05 -0.000678043 0.00217569
0.0199913 0.00142577 -5.47005e-05
0.00142577 0.00618831 0.000109598
-5.47005e-05 0.000109598 0.000264365
0.00520202 -0.00824945 8.6884e-06
-0.00824945 0.000211762 4.27311e-05
8.6884e-06 4.27311e-05 0.00112426
0.00620695 -0.0103174 0.000534872
-0.0103174 0.00459385 -0.000299956
0.000534872 -0.000299956 -0.000475623
0.00980668 0.00129764 -0.000266739
0.00129764 0.00899313 -0.000448712
-0.000266739 -0.000448712 0.00155176
0.0201586 -0.00123046 -0.000368856
-0.00123046 0.00262208 0.000351253
-0.000368856 0.000351253 0.000699074
-0.000237176 0.000356699 2.87545e-05
0.000356699 -0.000200358 2.92974e-05
2.87545e-05 2.92974e-05 -0.000448699
0.00044362 -0.000113233 -2.63762e-06
-0.000113233 0.000254221 -4.03479e-06
-2.63762e-06 -4.03479e-06 -3.62069e-05
-0.000721848 -7.16697e-05 2.57382e-06
-7.16697e-05 -0.000635018 -1.18945e-06
2.57382e-06 -1.18945e-06 -0.000777665
0.000848085 0.000231946 1.90773e-05
0.000231946 0.000396278 2.16859e-05
1.90773e-05 2.16859e-05 0.000136788
0.0010979 0.000298396 -6.14418e-06
0.000298396 0.000657575 -5.86124e-06
-6.14418e-06 -5.86124e-06 0.000336145
0.000710335 0.000138414 3.23158e-06
0.000138414 0.000390856 -4.17274e-06
3.23158e-06 -4.17274e-06 0.000131058
0.0014963 0.00028152 -1.89083e-06
0.00028152 0.000927696 4.01035e-07
-1.89083e-06 4.01035e-07 0.000586196
0.0012446 0.000254719 -5.79225e-07
0.000254719 0.000753545 4.24632e-06
-5.79225e-07 4.24632e-06 0.000439757
0.00430107 -0.00259029 0.000205337
-0.00259029 -0.000298927 -0.000132443
0.000205337 -0.000132443 0.000632757
-0.00190403 -0.00117682 -1.21407e-05
-0.00117682 -0.00180968 -1.06976e-05
-1.21407e-05 -1.06976e-05 -0.00216174
-0.0012059 9.98667e-05 -1.58614e-05
9.98667e-05 -0.000824021 -9.02711e-06
-1.58614e-05 -9.02711e-06 -0.00105756
-6.67437e-05 -0.000738158 2.03866e-05
-0.000738158 0.000189953 -5.34487e-06
2.03866e-05 -5.34487e-06 -0.000305977
0.00147495 -0.000464569 -4.82038e-05
-0.000464569 0.00112358 -7.88428e-07
-4.82038e-05 -7.88428e-07 0.000631819
0.000170443 -2.79415e-05 -4.36348e-06
-2.79415e-05 0.000350408 -2.32331e-05
-4.36348e-06 -2.32331e-05 -0.000142704
-0.00085813 0.000202985 3.15299e-06
0.000202985 -0.000416266 1.46742e-05
3.15299e-06 1.46742e-05 -0.000738709
0.00192079 -0.00347323 -3.65255e-05
-0.00347323 -7.70267e-05 -4.62333e-06
-3.65255e-05 -4.62333e-06 -0.000759809
0.000942738 -0.00023466 -5.09037e-06
-0.00023466 0.000952454 1.08342e-05
-5.09037e-06 1.08342e-05 0.000439751
-0.000607816 -0.000194179 1.28843e-06
-0.000194179 0.000271326 7.64792e-06
1.28843e-06 7.64792e-06 -0.000417354
-0.00097812 -0.00100911 1.04687e-05
-0.00100911 -0.000343614 2.22864e-06
1.04687e-05 2.22864e-06 -0.000828187
-0.00146212 -9.87892e-05 2.5375e-05
-9.87892e-05 -0.000686786 5.35146e-06
2.5375e-05 5.35146e-06 -0.00105618
0.00291534 -0.00347982 -0.00010512
-0.00347982 0.00260998 -6.86246e-06
-0.00010512 -6.86246e-06 0.000800176
-0.000951024 -0.000889628 2.81674e-05
-0.000889628 0.000104608 -2.89832e-05
2.81674e-05 -2.89832e-05 -0.000644167
0.000344849 -3.47017e-05 6.3049e-06
-3.47017e-05 0.000965701 -3.21803e-05
6.3049e-06 -3.21803e-05 0.000139781
-0.00100008 -0.000194325 3.91325e-05
-0.000194325 2.10706e-05 1.65107e-05
3.91325e-05 1.65107e-05 -0.000761179
0.00257129 -0.000770977 0.000527736
-0.000770977 0.00844299 0.000111493
0.000527736 0.000111493 0.00184349
-0.000376208 -2.42049e-05 0.000165371
-2.42049e-05 0.000887001 1.09046e-05
0.000165371 1.09046e-05 -0.00391925
-0.0108301 -0.000935245 -0.00178384
-0.000935245 0.00518419 1.33562e-05
-0.00178384 1.33562e-05 0.000676499
0.00230997 0.00142975 3.29145e-05
0.00142975 0.00146777 2.86448e-06
3.29145e-05 2.86448e-06 0.000664339
-0.000441492 0.00196512 3.45171e-05
0.00196512 0.000292466 2.10453e-05
3.45171e-05 2.10453e-05 -0.000941239
0.00488846 0.00375781 0.00100095
0.00375781 0.0057772 0.000228278
0.00100095 0.000228278 -0.0012523
0.000993702 0.00690009 0.000217982
0.00690009 0.00346581 0.000313173
0.000217982 0.000313173 -0.000578362
0.000161774 0.00569782 -0.000369947
0.00569782 0.00195351 -0.000302125
-0.000369947 -0.000302125 -0.00122885
0.0121549 -0.00121249 -0.000174131
-0.00121249 0.00903646 -0.000556744
-0.000174131 -0.000556744 0.00137881
0.00634763 8.76912e-05 -8.13672e-05
8.76912e-05 0.0043979 6.19859e-05
-8.13672e-05 6.19859e-05 8.9989e-05
0.0122287 -0.000250731 -4.90684e-05
-0.000250731 -0.002758 -0.000339535
-4.90684e-05 -0.000339535 -0.00392096
0.000977893 0.00139416 7.79725e-06
0.00139416 0.00111031 -5.94331e-09
7.79725e-06 -5.94331e-09 3.74953e-05
-0.00060125 0.00111216 3.38535e-05
0.00111216 0.00477674 -1.70283e-05
3.38535e-05 -1.70283e-05 -0.00141056
0.00959119 -0.000772473 0.000405502
-0.000772473 0.00123897 7.63629e-06
0.000405502 7.63629e-06 -0.00280698
-0.00238371 0.00162148 -3.87486e-05
0.00162148 0.000653837 -2.2221e-05
-3.87486e-05 -2.2221e-05 -0.00108979
0.0213635 0.00189798 4.01319e-05
0.00189798 0.00613379 -0.000135751
4.01319e-05 -0.000135751 7.20425e-05
0.00369494 0.00391899 0.000508607
0.00391899 0.00745029 0.000349893
0.000508607 0.000349893 -0.000995612
0.0165546 0.000826067 -0.000289787
0.000826067 0.00621509 -3.96637e-05
-0.000289787 -3.96637e-05 -0.000496943
-0.000141695 0.00107278 1.13281e-05
0.00107278 0.000906677 -9.81185e-06
1.13281e-05 -9.81185e-06 -0.000364077
0.00712913 -4.67364e-05 0.000331268
-4.67364e-05 0.004808 0.000112935
0.000331268 0.000112935 0.000140104
0.00390712 -0.00539516 0.000507257
-0.00539516 0.00576173 -0.000248781
0.000507257 -0.000248781 0.0018534
0.0412919 0.00918134 0.00079954
0.00918134 0.0208009 -0.000508597
0.00079954 -0.000508597 0.00815024
0.0131933 -3.88133e-05 4.31376e-05
-3.88133e-05 0.0106409 0.000657781
4.31376e-05 0.000657781 0.00301979
-0.00221721 0.00132321 -0.000195785
0.00132321 0.00184115 -0.000145116
-0.000195785 -0.000145116 -0.000182786
0.00197395 -0.000567278 0.000178878
-0.000567278 0.00644779 -0.000104431
0.000178878 -0.000104431 -0.00449224
0.000656766 0.000652784 -2.06354e-06
0.000652784 0.000793338 8.11456e-06
-2.06354e-06 8.11456e-06 6.60688e-05
0.000507199 0.000359158 -7.35549e-07
0.000359158 0.00112121 4.90947e-06
-7.35549e-07 4.90947e-06 0.000253607
0.000921338 -0.000114784 -3.65878e-05
-0.000114784 0.00179271 1.84525e-05
-3.65878e-05 1.84525e-05 0.000970117
-0.00125932 8.9806e-05 1.91607e-05
8.9806e-05 -0.000650738 -3.92237e-06
1.91607e-05 -3.92237e-06 -0.0010218
-0.000768386 9.20158e-06 1.01475e-05
9.20158e-06 0.000125992 6.2161e-06
1.01475e-05 6.2161e-06 -0.000503978
2.17569e-05 4.81623e-05 -1.68481e-05
4.81623e-05 0.000776052 -2.76691e-06
-1.68481e-05 -2.76691e-06 6.99613e-05
0.000162217 -3.23572e-05 -8.55292e-06
-3.23572e-05 0.000542113 2.16006e-06
-8.55292e-06 2.16006e-06 8.39842e-05
-2.33929e-05 -0.000182324 2.7826e-06
-0.000182324 0.000726472 2.65785e-06
2.7826e-06 2.65785e-06 8.10087e-05
0.0035969 -0.000832362 1.83102e-05
-0.000832362 0.002509 -7.76331e-06
1.83102e-05 -7.76331e-06 0.00196696
0.000271151 -7.08842e-05 -1.92984e-06
-7.08842e-05 0.000531359 -8.45607e-06
-1.92984e-06 -8.45607e-06 0.00012274
-0.00524189 0.000125477 4.61255e-06
0.000125477 -0.0028173 2.35449e-06
4.61255e-06 2.35449e-06 -0.00349314
0.00113789 -0.000707484 9.20765e-07
-0.000707484 0.000899012 8.81073e-06
9.20765e-07 8.81073e-06 0.000147191
-0.00152579 -0.000339386 2.58459e-05
-0.000339386 -0.000947407 2.58618e-05
2.58459e-05 2.58618e-05 -0.0014769
-0.000334716 -0.000359441 -1.10231e-05
-0.000359441 -0.00018083 -3.36028e-05
-1.10231e-05 -3.36028e-05 -0.000500475
0.000225773 -0.000664351 -1.2115e-05
-0.000664351 -0.00017005 -4.10528e-06
-1.2115e-05 -4.10528e-06 -0.000627316
0.00233738 -0.00130727 -2.0792e-05
-0.00130727 0.00101546 8.1396e-06
-2.0792e-05 8.1396e-06 4.45743e-05
0.00261067 -0.00157057 -1.70109e-05
-0.00157057 0.00100665 3.01882e-06
-1.70109e-05 3.01882e-06 3.73785e-05
0.00219798 -0.000682381 -6.23236e-06
-0.000682381 0.00108862 -1.03339e-05
-6.23236e-06 -1.03339e-05 0.000650749
0.00245439 -0.00122109 -1.63775e-07
-0.00122109 0.00109236 1.73161e-06
-1.63775e-07 1.73161e-06 0.000274567
0.00240294 -0.00145712 1.18062e-05
-0.00145712 0.00089118 -9.31354e-06
1.18062e-05 -9.31354e-06 -2.60706e-06
0.00246919 -0.00110362 9.70198e-06
-0.00110362 0.00115417 -6.37755e-06
9.70198e-06 -6.37755e-06 0.000409896
0.00176157 -0.00129433 4.7808e-06
-0.00129433 0.000587411 -1.78462e-06
4.7808e-06 -1.78462e-06 -0.000273774
0.00375378 -0.000513001 3.24362e-07
-0.000513001 0.00202803 -9.18283e-06
3.24362e-07 -9.18283e-06 0.00166849
0.000285797 -0.000572182 4.02125e-07
-0.000572182 -0.000205547 -1.11871e-07
4.02125e-07 -1.11871e-07 -0.000693853
0.000841229 -0.000891982 -4.02947e-06
-0.000891982 0.000197927 -6.63117e-06
-4.02947e-06 -6.63117e-06 -0.000473036
0.000233858 -0.000269164 9.98574e-06
-0.000269164 6.90497e-05 9.30037e-07
9.98574e-06 9.30037e-07 -0.000425986
0.000629752 -0.000397305 -1.03812e-06
-0.000397305 0.000319965 -1.5058e-06
-1.03812e-06 -1.5058e-06 -0.000164477
-0.000471146 -0.000258479 -8.82295e-06
-0.000258479 -0.000540085 -3.89843e-07
-8.82295e-06 -3.89843e-07 -0.000905964
0.00100539 -0.000695062 -2.1265e-05
-0.000695062 0.000542761 2.85433e-05
-2.1265e-05 2.85433e-05 7.37695e-05
0.00124812 -0.000435039 1.56092e-06
-0.000435039 0.000659152 1.03831e-06
1.56092e-06 1.03831e-06 0.000241269
-0.000407368 -0.000159526 1.00956e-05
-0.000159526 -0.000443406 1.6086e-05
1.00956e-05 1.6086e-05 -0.000777013
0.000533603 -0.000582465 -1.66003e-05
-0.000582465 0.000255597 -8.99337e-06
-1.66003e-05 -8.99337e-06 -0.000120399
0.000375615 -0.000116712 -2.01074e-06
-0.000116712 4.56872e-05 -3.83882e-07
-2.01074e-06 -3.83882e-07 -0.000193191
0.000356016 9.91548e-06 2.81645e-06
9.91548e-06 -3.57627e-05 1.49104e-05
2.81645e-06 1.49104e-05 -0.000104275
0.00205798 -0.000262554 -8.27772e-06
-0.000262554 0.00114214 -6.58574e-06
-8.27772e-06 -6.58574e-06 0.000962886
0.000460706 -6.86206e-05 -2.60357e-06
-6.86206e-05 2.62136e-05 4.84633e-07
-2.60357e-06 4.84633e-07 -2.78525e-05
0.00303282 0.000102787 9.24345e-06
0.000102787 0.0017503 4.71433e-06
9.24345e-06 4.71433e-06 0.00174567
0.00046407 -7.58645e-05 2.0294e-06
-7.58645e-05 4.14608e-05 -7.45013e-06
2.0294e-06 -7.45013e-06 -1.01533e-05
0.00196741 3.16968e-05 3.27575e-05
3.16968e-05 0.00103204 -1.97828e-06
3.27575e-05 -1.97828e-06 0.00103223
0.00301621 1.59794e-05 4.8773e-05
1.59794e-05 0.00173448 -7.65908e-06
4.8773e-05 -7.65908e-06 0.00174511
-0.000411586 0.000114514 2.60042e-06
0.000114514 -0.000431041 8.0722e-06
2.60042e-06 8.0722e-06 -0.000705545
-0.000191257 6.58871e-05 3.20258e-06
6.58871e-05 -0.00034301 -9.20889e-06
3.20258e-06 -9.20889e-06 -0.000511075
0.00016802 0.000158816 -1.06523e-06
0.000158816 -2.119e-05 1.10417e-06
-1.06523e-06 1.10417e-06 -0.00029548
0.000390581 3.09835e-05 3.43697e-06
3.09835e-05 -9.91843e-06 -8.57887e-06
3.43697e-06 -8.57887e-06 -5.1919e-05
-0.000105779 4.36359e-05 -1.02574e-06
4.36359e-05 -0.000296054 -2.9649e-06
-1.02574e-06 -2.9649e-06 -0.000424756
0.00109019 0.00013005 -1.64855e-06
0.00013005 0.000611156 4.79621e-06
-1.64855e-06 4.79621e-06 0.000358676
0.00280856 -1.12822e-05 -3.0751e-05
-1.12822e-05 0.00160134 -7.61702e-06
-3.0751e-05 -7.61702e-06 0.00161036
0.00035875 2.09456e-05 -2.56998e-07
2.09456e-05 -3.10421e-05 -2.59496e-07
-2.56998e-07 -2.59496e-07 -6.61201e-05
-0.000235075 2.98167e-05 -1.07652e-06
2.98167e-05 -0.000388179 5.99484e-06
-1.07652e-06 5.99484e-06 -0.000492831
0.00255505 2.29843e-06 -5.88946e-06
2.29843e-06 0.00143087 9.00849e-08
-5.88946e-06 9.00849e-08 0.00144141
0.000362114 2.74501e-05 -1.66736e-06
2.74501e-05 -2.83835e-05 6.24608e-06
-1.66736e-06 6.24608e-06 -5.82338e-05
0.00246742 1.84974e-05 1.25011e-05
1.84974e-05 0.0013731 6.7243e-06
1.25011e-05 6.7243e-06 0.00138357
0.000839415 -0.00069749 0.000444201
-0.00069749 0.00793373 0.000262172
0.000444201 0.000262172 0.00399128
-0.00340346 -0.00101405 -5.64147e-05
-0.00101405 4.38273e-05 1.51571e-05
-5.64147e-05 1.51571e-05 -0.00565931
0.00520166 0.00678711 -0.00134851
0.00678711 0.0162237 -0.000412699
-0.00134851 -0.000412699 0.00392209
0.00100155 0.000266984 -5.80395e-07
0.000266984 0.000576474 1.25448e-06
-5.80395e-07 1.25448e-06 0.000256693
-0.00138451 0.000142845 1.06425e-05
0.000142845 -0.000927108 6.59843e-06
1.06425e-05 6.59843e-06 -0.00129179
0.00309726 0.000453428 3.68775e-05
0.000453428 0.00196239 -3.78532e-08
3.68775e-05 -3.78532e-08 0.00165737
0.011653 -0.00157135 -0.000705553
-0.00157135 0.000978208 2.49762e-05
-0.000705553 2.49762e-05 -0.00359981
0.0118661 -0.0051377 0.000270888
-0.0051377 0.0065758 6.44833e-05
0.000270888 6.44833e-05 0.002972
0.00492528 -0.00620751 0.000439051
-0.00620751 0.00234995 -0.000343028
0.000439051 -0.000343028 -0.00257978
0.00818197 -0.00643564 9.76895e-05
-0.00643564 -0.00282965 -0.000158401
9.76895e-05 -0.000158401 0.00078077
0.00288544 -0.0120587 -0.00148678
-0.0120587 -0.00636262 0.000235404
-0.00148678 0.000235404 -0.00398972
0.0345429 0.0100602 0.00127241
0.0100602 0.0221187 0.000403643
0.00127241 0.000403643 0.00606337
0.0112349 -0.00235317 0.00052615
-0.00235317 0.000548695 -0.000340333
0.00052615 -0.000340333 -0.00449968
0.00467794 -0.00759741 3.43245e-06
-0.00759741 -0.000129927 1.02459e-05
3.43245e-06 1.02459e-05 0.00115258
0.00346669 -0.0115296 -0.000426084
-0.0115296 0.003873 2.49285e-05
-0.000426084 2.49285e-05 -0.00283911
0.0128331 0.00541927 -0.00029318
0.00541927 0.00971222 -0.00047123
-0.00029318 -0.00047123 0.000701526
0.0163773 -0.000759004 -0.000261147
-0.000759004 0.000696556 0.000197932
-0.000261147 0.000197932 -0.000963276
0.0015278 -0.00644834 -0.000276822
-0.00644834 0.00273789 0.000176084
-0.000276822 0.000176084 0.000496481
0.00932314 -0.00535063 -0.000361067
-0.00535063 0.00874531 0.000414937
-0.000361067 0.000414937 0.0014865
0.0156675 -0.000518481 9.79902e-05
-0.000518481 0.00564776 -0.000385965
9.79902e-05 -0.000385965 -0.000401602
0.0106419 0.00143757 -0.000234529
0.00143757 0.000107645 0.000309679
-0.000234529 0.000309679 -0.00444527
-0.000272029 0.000165205 2.13244e-05
0.000165205 -0.000180776 4.1358e-05
2.13244e-05 4.1358e-05 -0.000396321
0.000767058 9.43709e-05 -9.00858e-06
9.43709e-05 0.000473963 2.29229e-06
-9.00858e-06 2.29229e-06 0.000217968
0.00112401 -0.000385853 1.15403e-05
-0.000385853 0.000715714 -1.60472e-05
1.15403e-05 -1.60472e-05 0.00041122
0.000672137 0.000220397 2.39256e-06
0.000220397 0.000271083 5.83108e-06
2.39256e-06 5.83108e-06 2.66465e-05
0.000775352 0.000316137 -3.91679e-06
0.000316137 0.000443496 -1.48758e-05
-3.91679e-06 -1.48758e-05 0.000126661
0.0012733 0.000389661 -8.8146e-06
0.000389661 0.000811837 -4.99188e-06
-8.8146e-06 -4.99188e-06 0.000451852
0.00227219 -0.00310357 8.66708e-05
-0.00310357 0.000257245 -4.52094e-05
8.66708e-05 -4.52094e-05 -0.000189576
-3.95509e-05 -0.001016 1.09504e-06
-0.001016 -4.53508e-05 -2.36968e-05
1.09504e-06 -2.36968e-05 -0.000403995
-0.000511316 0.000192519 -1.96216e-05
0.000192519 -0.000247388 -3.00812e-05
-1.96216e-05 -3.00812e-05 -0.00057168
0.000455161 -0.000309844 3.75161e-05
-0.000309844 0.000695769 -3.58661e-06
3.75161e-05 -3.58661e-06 9.89181e-05
0.00279415 -0.000252276 -6.68349e-06
-0.000252276 0.00207288 -3.32196e-05
-6.68349e-06 -3.32196e-05 0.00155789
-0.000671893 -5.76067e-06 7.55708e-06
-5.76067e-06 -0.000186786 5.85049e-06
7.55708e-06 5.85049e-06 -0.000559805
-0.000310054 1.43566e-05 6.33551e-06
1.43566e-05 0.000494588 1.68592e-05
6.33551e-06 1.68592e-05 -0.000234667
0.000948988 -0.00298277 2.79366e-05
-0.00298277 0.00171459 -2.34367e-05
2.79366e-05 -2.34367e-05 0.000133224
-5.81426e-05 -4.82574e-05 -6.4523e-06
-4.82574e-05 0.000796162 1.3414e-06
-6.4523e-06 1.3414e-06 -8.93705e-05
0.000268259 -0.000881272 -6.62017e-06
-0.000881272 0.00112545 7.44187e-06
-6.62017e-06 7.44187e-06 0.000130085
-2.33456e-05 0.000208835 6.36354e-05
0.000208835 0.000559935 -2.72202e-05
6.36354e-05 -2.72202e-05 -0.000148024
-0.00292587 -0.000661499 -0.000271273
-0.000661499 0.000853093 1.50292e-05
-0.000271273 1.50292e-05 -0.000613882
-0.000882748 -0.000293168 -6.14913e-05
-0.000293168 0.00138159 -3.33509e-05
-6.14913e-05 -3.33509e-05 0.00019604
-0.00125801 -6.74681e-06 6.64699e-05
-6.74681e-06 0.000152038 -2.81165e-07
6.64699e-05 -2.81165e-07 -0.000644216
0.00234168 0.000909952 3.22296e-05
0.000909952 0.000316218 -4.54206e-05
3.22296e-05 -4.54206e-05 -0.00813452
-0.000160065 0.00206998 0.000379768
0.00206998 0.00782151 6.29163e-05
0.000379768 6.29163e-05 0.0022028
-0.00269016 0.000890435 0.000532295
0.000890435 0.000548694 3.61254e-05
0.000532295 3.61254e-05 -0.00345241
-9.52362e-05 0.00144967 1.7124e-05
0.00144967 0.000451013 2.77861e-05
1.7124e-05 2.77861e-05 -0.000724762
0.00182289 0.002445 1.00494e-05
0.002445 0.00227228 -5.94012e-05
1.00494e-05 -5.94012e-05 0.000461536
-0.000214697 0.00131554 -0.000566078
0.00131554 0.00532446 -0.00014928
-0.000566078 -0.00014928 -0.000890991
-0.00123485 0.00249854 0.000393146
0.00249854 0.00672322 0.000384064
0.000393146 0.000384064 -0.000689065
0.0126702 -0.000240651 -0.000195679
-0.000240651 0.00149653 -0.000523407
-0.000195679 -0.000523407 -0.00576384
0.0103579 -2.51036e-05 4.94665e-05
-2.51036e-05 0.000426103 -6.84611e-05
4.94665e-05 -6.84611e-05 -0.0029321
0.00996933 -0.00239131 -0.000567907
-0.00239131 -0.000343988 0.000327627
-0.000567907 0.000327627 -0.00469249
0.000519222 0.000994665 -2.32949e-05
0.000994665 0.00129693 -5.36369e-06
-2.32949e-05 -5.36369e-06 0.000165166
0.00358019 0.00123946 0.000156787
0.00123946 0.00476913 8.40847e-05
0.000156787 8.40847e-05 0.00028065
0.0114073 -0.00380985 -0.000285194
-0.00380985 0.00596887 -5.97298e-05
-0.000285194 -5.97298e-05 0.00282545
-0.000696201 0.00163773 -0.00022219
0.00163773 0.0036193 -3.28404e-05
-0.00022219 -3.28404e-05 0.000100499
0.0312015 0.00854345 -0.000782517
0.00854345 0.0173947 -0.000670602
-0.000782517 -0.000670602 0.00562628
0.0171382 0.00436129 0.000215002
0.00436129 0.0113417 0.000553181
0.000215002 0.000553181 0.000670565
0.00841127 0.0041078 0.000148777
0.0041078 0.00919906 -9.69248e-06
0.000148777 -9.69248e-06 0.00087447
-4.80594e-06 4.3209e-05 8.95594e-05
4.3209e-05 0.00229907 -1.66979e-05
8.95594e-05 -1.66979e-05 0.000115499
0.0042494 0.000698337 -0.000567482
0.000698337 0.0106171 -5.29829e-06
-0.000567482 -5.29829e-06 0.00619944
0.00381688 -0.00233444 0.000685179
-0.00233444 0.00219247 -0.00027779
0.000685179 -0.00027779 -0.00454411
0.0552475 0.0235195 0.000131533
0.0235195 0.0386309 -0.000353285
0.000131533 -0.000353285 0.014508
0.0224137 0.00721373 0.00138035
0.00721373 0.0137037 0.00169073
0.00138035 0.00169073 4.86224e-05
0.0121391 -0.00796632 0.000831186
-0.00796632 0.0103362 -0.000596883
0.000831186 -0.000596883 0.000175162
-0.000128391 -0.0010265 -0.000100295
-0.0010265 0.00476345 7.51814e-05
-0.000100295 7.51814e-05 0.00221775
0.00123362 0.000424822 -1.53653e-05
0.000424822 0.0015311 -4.07134e-06
-1.53653e-05 -4.07134e-06 0.000745586
-0.000423376 -0.000104568 -1.64004e-05
-0.000104568 0.000807568 -8.13908e-06
-1.64004e-05 -8.13908e-06 -0.000157047
0.000967331 -0.00115493 7.42799e-05
-0.00115493 0.00141555 -1.26818e-05
7.42799e-05 -1.26818e-05 0.000155673
-0.000824246 2.90177e-05 2.50574e-06
2.90177e-05 -8.23047e-05 3.32863e-06
2.50574e-06 3.32863e-06 -0.000532637
-0.000456279 -0.000125003 1.47582e-05
-0.000125003 0.000474502 -2.11568e-05
1.47582e-05 -2.11568e-05 -0.000160315
0.00134966 -0.000581685 -7.84872e-06
-0.000581685 0.0012628 1.06261e-06
-7.84872e-06 1.06261e-06 0.000833837
0.00328967 -0.00155018 5.50186e-05
-0.00155018 0.00204365 -1.43159e-05
5.50186e-05 -1.43159e-05 0.00101316
-0.000929496 -0.000436252 5.77772e-06
-0.000436252 -0.00024911 -8.28186e-06
5.77772e-06 -8.28186e-06 -0.00107889
0.00215757 -0.00113496 2.26473e-05
-0.00113496 0.000940075 -6.44654e-06
2.26473e-05 -6.44654e-06 0.00029284
-0.000806617 -0.000828292 -1.07645e-05
-0.000828292 -0.000511736 4.37781e-06
-1.07645e-05 4.37781e-06 -0.00167824
0.00104955 -0.000787706 -1.94002e-05
-0.000787706 0.000364654 -1.01113e-05
-1.94002e-05 -1.01113e-05 -8.39972e-05
0.00180694 -0.0012059 1.54956e-06
-0.0012059 0.000713478 -3.72503e-06
1.54956e-06 -3.72503e-06 -0.000222769
0.00251777 -0.00163282 -2.92399e-05
-0.00163282 0.000876922 2.39706e-06
-2.92399e-05 2.39706e-06 -0.000217583
0.00316613 -0.00174947 -1.51673e-05
-0.00174947 0.000998252 -1.40388e-06
-1.51673e-05 -1.40388e-06 4.52965e-05
0.00273929 -0.00172626 -4.62222e-07
-0.00172626 0.000980889 -1.86417e-06
-4.62222e-07 -1.86417e-06 -2.39785e-05
0.00288483 -0.00159277 -2.55369e-06
-0.00159277 0.00114761 2.11262e-06
-2.55369e-06 2.11262e-06 0.000174588
0.0018002 -0.00113511 -3.80815e-06
-0.00113511 0.000687721 -5.79287e-06
-3.80815e-06 -5.79287e-06 -0.000118005
0.00257752 -0.00146083 3.69117e-06
-0.00146083 0.00110212 -9.27161e-06
3.69117e-06 -9.27161e-06 0.00019049
0.00221893 -0.00145298 1.11572e-05
-0.00145298 0.000760827 -2.87609e-06
1.11572e-05 -2.87609e-06 -0.000130841
0.00231535 -0.000728156 -1.09953e-05
-0.000728156 0.00100765 -1.38173e-06
-1.09953e-05 -1.38173e-06 0.000474609
0.00244882 -0.00108903 3.47325e-06
-0.00108903 0.00111215 -4.49001e-06
3.47325e-06 -4.49001e-06 0.000380362
0.00100955 -0.00119168 1.31267e-06
-0.00119168 0.000126673 4.32891e-06
1.31267e-06 4.32891e-06 -0.000705684
0.000544249 -0.000152984 3.0899e-06
-0.000152984 0.000136853 -3.02117e-06
3.0899e-06 -3.02117e-06 -0.000266091
3.4469e-06 -0.000507776 1.93378e-06
-0.000507776 -0.000356821 -1.22807e-06
1.93378e-06 -1.22807e-06 -0.000744911
0.000726204 -0.000624054 -1.73795e-05
-0.000624054 6.31508e-05 8.54505e-06
-1.73795e-05 8.54505e-06 -0.00044429
-2.73284e-05 -0.000273484 1.15809e-05
-0.000273484 -0.000163749 7.04896e-06
1.15809e-05 7.04896e-06 -0.000599907
0.000886724 -0.000415661 -8.4842e-08
-0.000415661 0.00049812 1.28492e-06
-8.4842e-08 1.28492e-06 -1.26475e-05
-0.00240991 -0.000550396 -9.76918e-06
-0.000550396 -0.0016199 1.31914e-05
-9.76918e-06 1.31914e-05 -0.00211819
0.000780696 -0.000629819 -1.18079e-05
-0.000629819 0.000351178 -6.62793e-06
-1.18079e-05 -6.62793e-06 -8.25982e-05
0.00102155 -0.000223224 1.03328e-06
-0.000223224 0.000461288 1.47017e-06
1.03328e-06 1.47017e-06 0.000142013
0.000362784 -3.22117e-05 3.69683e-06
-3.22117e-05 -1.93703e-05 2.3329e-05
3.69683e-06 2.3329e-05 -0.000128862
0.00226908 -0.000236259 -6.36757e-06
-0.000236259 0.00125449 -1.79638e-05
-6.36757e-06 -1.79638e-05 0.00102791
0.000433126 -3.76894e-05 -9.21663e-06
-3.76894e-05 2.20887e-05 -9.18166e-07
-9.21663e-06 -9.18166e-07 -5.74422e-05
0.00374616 0.000106219 -5.75974e-05
0.000106219 0.00223943 9.31341e-06
-5.75974e-05 9.31341e-06 0.00223466
0.000547285 -7.41632e-05 2.6024e-06
-7.41632e-05 7.46286e-05 -1.27841e-05
2.6024e-06 -1.27841e-05 2.02049e-05
0.00217035 5.94446e-05 3.83284e-05
5.94446e-05 0.00116955 -6.63132e-07
3.83284e-05 -6.63132e-07 0.00116426
0.00310776 3.734e-05 5.28243e-05
3.734e-05 0.0017924 -7.73743e-06
5.28243e-05 -7.73743e-06 0.00180103
0.00156991 0.000278696 -2.0339e-06
0.000278696 0.000926952 -7.66227e-06
-2.0339e-06 -7.66227e-06 0.000584558
0.000681677 0.000137212 5.41588e-06
0.000137212 0.000260548 -6.29619e-06
5.41588e-06 -6.29619e-06 5.22686e-05
0.000602212 0.00011155 -7.64936e-07
0.00011155 0.00029844 2.57628e-06
-7.64936e-07 2.57628e-06 -1.94563e-05
0.000368404 5.30663e-05 -1.03672e-06
5.30663e-05 -1.82957e-05 -1.20039e-05
-1.03672e-06 -1.20039e-05 -7.11795e-05
9.63689e-05 7.90669e-05 -3.12224e-06
7.90669e-05 -0.000147009 -3.94113e-06
-3.12224e-06 -3.94113e-06 -0.00031177
0.000611584 0.000104246 -1.39303e-06
0.000104246 0.000279573 -2.77215e-06
-1.39303e-06 -2.77215e-06 6.30527e-06
0.00291546 -2.91328e-05 -3.49693e-05
-2.91328e-05 0.00167364 -8.07991e-06
-3.49693e-05 -8.07991e-06 0.00168109
0.000316352 6.9756e-06 5.6879e-07
6.9756e-06 -5.764e-05 -3.88941e-07
5.6879e-07 -3.88941e-07 -9.96016e-05
0.000160334 2.0077e-05 -4.31392e-06
2.0077e-05 -0.00010961 3.07715e-06
-4.31392e-06 3.07715e-06 -0.000248417
0.00273998 -1.34916e-05 -8.40715e-06
-1.34916e-05 0.00155552 1.90771e-07
-8.40715e-06 1.90771e-07 0.00156463
0.000330884 1.02865e-05 -6.49526e-06
1.02865e-05 -4.98434e-05 6.94398e-06
-6.49526e-06 6.94398e-06 -8.43329e-05
0.00254145 2.80772e-06 1.84266e-05
2.80772e-06 0.00142195 6.91982e-06
1.84266e-05 6.91982e-06 0.00143248
0.00575239 -6.41128e-05 -0.000491896
-6.41128e-05 0.00424059 -4.30578e-05
-0.000491896 -4.30578e-05 -0.000505387
-0.00236677 0.000429343 0.00038051
0.000429343 0.00793198 9.21295e-06
0.00038051 9.21295e-06 0.00268445
0.000379685 -0.000865071 -0.000138846
-0.000865071 0.00135722 -0.000305885
-0.000138846 -0.000305885 -0.00469344
-0.00109601 -4.35456e-05 1.20329e-05
-4.35456e-05 -0.000634105 -1.15491e-05
1.20329e-05 -1.15491e-05 -0.00118449
0.00584681 0.00071082 2.58272e-05
0.00071082 0.00357756 6.42308e-06
2.58272e-05 6.42308e-06 0.00318199
-7.36971e-05 0.000179927 -7.88195e-06
0.000179927 -0.000117159 -2.5116e-06
-7.88195e-06 -2.5116e-06 -0.000434505
-0.000337974 0.000121805 3.2616e-06
0.000121805 -0.000286238 -3.81537e-06
3.2616e-06 -3.81537e-06 -0.000647088
-0.000848412 7.39873e-05 -2.86051e-07
7.39873e-05 -0.000744743 -8.83785e-06
-2.86051e-07 -8.83785e-06 -0.000935853
0.0021958 0.000311314 2.12056e-05
0.000311314 0.0012945 -4.99162e-06
2.12056e-05 -4.99162e-06 0.00102332
-0.000400434 7.90047e-05 2.3015e-05
7.90047e-05 -0.000407625 -2.87123e-05
2.3015e-05 -2.87123e-05 -0.000520144
0.00821746 0.00229259 6.1725e-05
0.00229259 0.00151126 0.000191604
6.1725e-05 0.000191604 -0.00287104
0.0107012 -0.000501271 -0.000262782
-0.000501271 0.00158516 1.48493e-05
-0.000262782 1.48493e-05 -0.00344981
0.00983229 -0.00180842 0.000753635
-0.00180842 0.00737902 -0.000115089
0.000753635 -0.000115089 0.00232835
0.0130413 0.00025156 -8.63296e-05
0.00025156 -0.00184549 0.000276349
-8.63296e-05 0.000276349 -0.00361624
0.00700137 -0.00889959 -9.80799e-05
-0.00889959 0.000326261 1.83766e-05
-9.80799e-05 1.83766e-05 0.000966745
0.000127829 -0.009527 -0.000640426
-0.009527 0.00361995 0.000248768
-0.000640426 0.000248768 -0.00504365
0.0303073 0.00408319 0.00040122
0.00408319 0.0125748 -0.000521107
0.00040122 -0.000521107 0.00307022
0.00547791 -0.00879652 -0.00017336
-0.00879652 0.00291257 0.000122209
-0.00017336 0.000122209 0.000841194
-0.00198246 -0.00269967 -0.000254523
-0.00269967 0.00634334 9.79112e-05
-0.000254523 9.79112e-05 -0.00357534
0.0160161 -0.000239314 0.000642562
-0.000239314 0.00648854 -4.08675e-05
0.000642562 -4.08675e-05 -0.000949827
0.0218381 -0.00202948 -7.90025e-06
-0.00202948 0.00476822 1.31445e-05
-7.90025e-06 1.31445e-05 0.00168155
-0.00561922 -0.00115176 -0.000300606
-0.00115176 0.000851448 0.000302146
-0.000300606 0.000302146 -0.000677793
0.00226509 -0.000262294 -0.000220339
-0.000262294 0.00739014 -0.000246095
-0.000220339 -0.000246095 -0.00211172
0.0182848 -0.00577681 -0.000217654
-0.00577681 0.00750457 -0.000224236
-0.000217654 -0.000224236 -0.00410784
0.0293515 -0.00132502 0.00125801
-0.00132502 0.0149868 -0.000871512
0.00125801 -0.000871512 0.00688097
-0.000640735 0.000166285 5.02509e-05
0.000166285 0.000285121 -2.38027e-05
5.02509e-05 -2.38027e-05 -0.000530689
-0.000280521 0.00015307 -1.55909e-06
0.00015307 -0.000155119 -7.56254e-06
-1.55909e-06 -7.56254e-06 -0.000383184
2.28214e-05 -2.4308e-05 -1.078e-07
-2.4308e-05 1.49094e-05 -2.42422e-05
-1.078e-07 -2.42422e-05 -0.000248776
0.00013309 0.000147764 -8.97236e-06
0.000147764 -4.54983e-05 -8.34019e-06
-8.97236e-06 -8.34019e-06 -0.000304616
0.000897843 -0.00310388 6.78831e-05
-0.00310388 0.00150243 2.30967e-05
6.78831e-05 2.30967e-05 -0.000127037
0.000869218 -0.00082428 -1.55116e-05
-0.00082428 0.00178418 1.08874e-05
-1.55116e-05 1.08874e-05 0.000614828
0.000156022 4.54593e-05 -4.39978e-05
4.54593e-05 0.000320411 -2.33309e-05
-4.39978e-05 -2.33309e-05 -4.94833e-05
0.000709011 -0.000163992 -2.26278e-05
-0.000163992 0.000890922 -5.18056e-05
-2.26278e-05 -5.18056e-05 0.00027398
0.000842375 2.88954e-05 -4.38144e-07
2.88954e-05 0.00141372 3.06972e-05
-4.38144e-07 3.06972e-05 0.000667737
0.000622734 0.000236264 -1.84747e-06
0.000236264 0.000848203 8.54633e-06
-1.84747e-06 8.54633e-06 0.000212729
4.37592e-05 -9.5157e-05 -5.13129e-06
-9.5157e-05 0.000881982 -3.42836e-06
-5.13129e-06 -3.42836e-06 9.42753e-05
-0.000674883 -0.00158272 3.31079e-05
-0.00158272 0.00199149 -1.46053e-05
3.31079e-05 -1.46053e-05 -0.000275732
-0.000124204 -0.000185134 -2.37524e-05
-0.000185134 0.00168601 -2.2157e-05
-2.37524e-05 -2.2157e-05 0.000620818
0.000420154 0.000178474 4.14523e-05
0.000178474 0.000658055 -1.85217e-05
4.14523e-05 -1.85217e-05 0.000100881
-0.00201345 -0.000310627 -0.000267556
-0.000310627 0.00254766 -8.70355e-06
-0.000267556 -8.70355e-06 -0.0005207
0.00147331 0.000583435 9.01766e-05
0.000583435 0.00202249 5.49745e-06
9.01766e-05 5.49745e-06 0.00113406
-0.00574678 -0.000847737 4.74976e-05
-0.000847737 0.00744463 -0.000187389
4.74976e-05 -0.000187389 0.00254101
0.00369486 -8.91905e-05 6.94627e-05
-8.91905e-05 0.00323716 5.21425e-05
6.94627e-05 5.21425e-05 -0.00292585
-0.00525799 0.00380406 -0.000242033
0.00380406 0.00714759 -0.000115402
-0.000242033 -0.000115402 0.000913737
0.00136073 0.00089441 -1.29262e-05
0.00089441 0.00190815 -5.26067e-06
-1.29262e-05 -5.26067e-06 0.000930029
-0.00136888 0.00198543 0.000380323
0.00198543 0.00233329 0.000127125
0.000380323 0.000127125 0.000145879
0.000911914 -0.00035784 5.42187e-05
-0.00035784 0.00566371 6.93581e-06
5.42187e-05 6.93581e-06 0.00127984
0.00603901 -0.00142399 0.000551369
-0.00142399 0.00695072 -0.000254983
0.000551369 -0.000254983 -0.00423033
0.0325641 0.00371991 -0.00058141
0.00371991 0.0134653 0.000503292
-0.00058141 0.000503292 0.00259615
0.00541775 -0.00142211 -0.000745188
-0.00142211 0.00566708 -5.13828e-05
-0.000745188 -5.13828e-05 0.00134967
0.0244116 0.00771823 -0.00110396
0.00771823 0.0191657 -0.000508897
-0.00110396 -0.000508897 0.0098743
0.000749585 0.000311972 -8.12982e-05
0.000311972 0.00247084 1.42778e-05
-8.12982e-05 1.42778e-05 0.000340058
-0.00232395 -0.00186846 -0.000302698
-0.00186846 0.00746829 1.78076e-05
-0.000302698 1.78076e-05 0.0033662
0.00133245 -0.00316276 0.000192172
-0.00316276 0.0033847 -6.40338e-05
0.000192172 -6.40338e-05 -0.00341126
-0.0042421 0.000133926 9.85215e-05
0.000133926 0.00228495 5.99007e-05
9.85215e-05 5.99007e-05 0.00041826
0.0510356 0.0284824 0.000705465
0.0284824 0.037025 -0.000201158
0.000705465 -0.000201158 0.0118559
0.0201242 0.00412136 -2.35131e-05
0.00412136 0.0158485 0.000667031
-2.35131e-05 0.000667031 0.00255238
0.000409793 -0.00246985 0.000539537
-0.00246985 0.00634081 -0.000319617
0.000539537 -0.000319617 -0.0044557
-0.00198645 -0.00131029 -2.92862e-05
-0.00131029 0.00170129 -5.86472e-05
-2.92862e-05 -5.86472e-05 -0.000643672
0.00210556 -0.00190116 0.000456151
-0.00190116 0.000693044 -0.000122748
0.000456151 -0.000122748 -0.00592095
0.0108437 0.0105328 -0.00359299
0.0105328 0.0205234 -0.00027349
-0.00359299 -0.00027349 0.00389538
0.0333452 0.0131977 3.17885e-05
0.0131977 0.0194454 0.000656839
3.17885e-05 0.000656839 0.00397182
0.00489021 -0.00832744 -0.000443856
-0.00832744 0.0050399 0.000235689
-0.000443856 0.000235689 -0.000283617
0.00256323 -0.00450309 4.13219e-05
-0.00450309 0.00584381 0.000106556
4.13219e-05 0.000106556 0.0021428
-0.000260827 -0.000207343 1.03034e-05
-0.000207343 0.000818473 -3.13051e-05
1.03034e-05 -3.13051e-05 -0.000254431
0.000694101 -0.000890415 -1.13761e-05
-0.000890415 0.00133165 3.28323e-06
-1.13761e-05 3.28323e-06 4.78981e-05
7.57518e-06 -0.00188946 2.75097e-05
-0.00188946 0.000622505 2.0716e-05
2.75097e-05 2.0716e-05 -0.000792991
-0.00170122 -0.000267519 1.55254e-06
-0.000267519 -0.000389879 -5.33933e-07
1.55254e-06 -5.33933e-07 -0.000720232
-0.000385917 -0.000885158 -1.76977e-05
-0.000885158 0.000166838 5.19649e-06
-1.76977e-05 5.19649e-06 -0.000655093
0.00284146 -0.00153778 3.66245e-05
-0.00153778 0.00135004 -9.61238e-06
3.66245e-05 -9.61238e-06 0.000364562
0.00554829 -0.00191299 -1.13007e-05
-0.00191299 0.00268633 -1.41355e-06
-1.13007e-05 -1.41355e-06 0.00189959
0.00237693 -0.0014311 1.02272e-05
-0.0014311 0.00113258 -3.48695e-06
1.02272e-05 -3.48695e-06 -7.94012e-05
0.00329184 -0.00198049 -4.21206e-06
-0.00198049 0.00120474 -1.76968e-05
-4.21206e-06 -1.76968e-05 -4.19499e-05
0.0019133 -0.00122477 -4.32763e-07
-0.00122477 0.000743071 -1.4961e-05
-4.32763e-07 -1.4961e-05 -0.000179365
0.00263918 -0.00165438 8.49361e-07
-0.00165438 0.000950861 -2.96643e-06
8.49361e-07 -2.96643e-06 -0.000156769
0.00416253 -0.00201058 -5.48038e-06
-0.00201058 0.00154074 -1.16695e-05
-5.48038e-06 -1.16695e-05 0.000454625
0.00282234 -0.00124304 -3.11705e-06
-0.00124304 0.000456283 -5.27214e-06
-3.11705e-06 -5.27214e-06 -0.000129561
0.00375776 -0.00175044 -7.30074e-06
-0.00175044 0.00128932 -3.269e-06
-7.30074e-06 -3.269e-06 0.000385784
0.00348261 -0.00181267 -3.58972e-06
-0.00181267 0.0011649 -1.03341e-06
-3.58972e-06 -1.03341e-06 0.000189182
0.00333346 -0.0017772 1.11943e-05
-0.0017772 0.00137385 -9.19621e-06
1.11943e-05 -9.19621e-06 0.000373265
0.00242799 -0.00163143 3.47627e-06
-0.00163143 0.000813473 -1.89597e-06
3.47627e-06 -1.89597e-06 -0.000147033
0.00327864 -0.00164105 1.30692e-05
-0.00164105 0.00135945 -2.4683e-06
1.30692e-05 -2.4683e-06 0.000372914
0.00279222 -0.00135367 -6.93869e-06
-0.00135367 0.00132521 2.25459e-06
-6.93869e-06 2.25459e-06 0.000431857
0.0029338 -0.0015153 1.46969e-06
-0.0015153 0.00132752 -2.29844e-06
1.46969e-06 -2.29844e-06 0.000400471
0.00246414 -0.00151887 -2.92482e-06
-0.00151887 0.000907514 5.94088e-06
-2.92482e-06 5.94088e-06 -5.97632e-06
0.00267993 -0.000307174 1.1783e-05
-0.000307174 0.00132773 2.28525e-06
1.1783e-05 2.28525e-06 0.000940627
0.00163454 -0.00059213 -9.8884e-06
-0.00059213 0.000641164 5.35455e-06
-9.8884e-06 5.35455e-06 0.000130954
0.0010377 -0.000963768 -7.30574e-06
-0.000963768 0.000246293 1.76971e-06
-7.30574e-06 1.76971e-06 -0.000480772
0.00153392 -0.00034659 9.19111e-06
-0.00034659 0.000646888 -7.82961e-06
9.19111e-06 -7.82961e-06 0.000288623
0.000907834 -0.000314915 -4.49496e-06
-0.000314915 0.000360322 1.18255e-06
-4.49496e-06 1.18255e-06 -5.08554e-05
-0.00102144 -0.000208592 5.47018e-06
-0.000208592 -0.00099261 8.05011e-06
5.47018e-06 8.05011e-06 -0.00140098
1.27987e-05 -0.000159577 -1.9986e-05
-0.000159577 -0.000298875 2.83745e-05
-1.9986e-05 2.83745e-05 -0.000428654
0.00121407 -0.000326298 3.35373e-06
-0.000326298 0.000570208 2.64448e-06
3.35373e-06 2.64448e-06 0.000191082
0.00185265 -0.000579994 -5.44308e-06
-0.000579994 0.00109256 -2.90595e-06
-5.44308e-06 -2.90595e-06 0.000605582
0.00139705 -0.000196455 -6.76756e-06
-0.000196455 0.000678945 -1.67515e-05
-6.76756e-06 -1.67515e-05 0.000384641
0.000277698 -8.76265e-05 -1.0707e-06
-8.76265e-05 -9.7912e-05 -1.03968e-06
-1.0707e-06 -1.03968e-06 -0.000200959
0.00451813 0.000129038 -7.8087e-05
0.000129038 0.00276368 9.78359e-06
-7.8087e-05 9.78359e-06 0.00275137
0.000415299 -8.76661e-05 6.96753e-06
-8.76661e-05 -2.4319e-06 -1.83714e-05
6.96753e-06 -1.83714e-05 -7.79553e-05
0.00381057 0.000107653 1.32506e-05
0.000107653 0.00228348 1.30388e-06
1.32506e-05 1.30388e-06 0.00227817
0.00319541 6.011e-05 6.00017e-05
6.011e-05 0.00185319 -8.51139e-06
6.00017e-05 -8.51139e-06 0.00185984
0.00417695 0.000495833 1.79045e-05
0.000495833 0.00278698 -1.34611e-05
1.79045e-05 -1.34611e-05 0.00216259
0.00295148 0.000343607 1.22897e-05
0.000343607 0.00198697 -4.07149e-05
1.22897e-05 -4.07149e-05 0.00145868
0.000836455 0.000170703 4.60025e-06
0.000170703 0.000357817 -1.12021e-05
4.60025e-06 -1.12021e-05 0.000123781
0.000766707 0.000254114 2.20605e-06
0.000254114 0.000431225 1.72913e-06
2.20605e-06 1.72913e-06 6.48401e-05
0.000452389 -3.11206e-05 8.27473e-06
-3.11206e-05 4.39132e-05 -1.43531e-05
8.27473e-06 -1.43531e-05 -1.93741e-05
0.000701804 0.000153233 -6.40175e-07
0.000153233 0.000272331 -7.0298e-07
-6.40175e-07 -7.0298e-07 6.76456e-05
0.00078241 0.000155997 -5.64183e-06
0.000155997 0.000410437 -1.45846e-05
-5.64183e-06 -1.45846e-05 8.70451e-05
0.00330591 -4.56937e-05 -5.165e-05
-4.56937e-05 0.00194033 -9.49018e-06
-5.165e-05 -9.49018e-06 0.00194545
0.000404258 6.80246e-06 -3.47806e-06
6.80246e-06 6.26831e-06 -4.15641e-07
-3.47806e-06 -4.15641e-07 -4.51591e-05
0.000772915 0.000130206 -7.59617e-06
0.000130206 0.000315528 5.78944e-06
-7.59617e-06 5.78944e-06 0.000147035
0.00298134 -3.38707e-05 -7.95721e-06
-3.38707e-05 0.00171886 5.87725e-07
-7.95721e-06 5.87725e-07 0.00172523
0.000367845 -7.05304e-06 -7.73006e-06
-7.05304e-06 -2.59342e-05 8.38637e-06
-7.73006e-06 8.38637e-06 -6.6182e-05
0.00269044 -1.51757e-05 2.3389e-05
-1.51757e-05 0.00152193 7.15007e-06
2.3389e-05 7.15007e-06 0.00153101
7.0196e-05 0.0020531 -0.00017406
0.0020531 0.00623392 -0.000221861
-0.00017406 -0.000221861 -0.000311135
0.00874422 -0.000973555 -9.97489e-05
-0.000973555 0.00617483 -0.000124864
-9.97489e-05 -0.000124864 0.00146171
-0.000294461 -0.000782203 0.000253592
-0.000782203 0.00817813 -0.000116986
0.000253592 -0.000116986 0.00330272
0.00037926 0.000186211 4.50481e-07
0.000186211 0.000431887 -1.22734e-05
4.50481e-07 -1.22734e-05 -0.000238062
-0.000766144 0.000486907 -1.63118e-05
0.000486907 -0.000510393 -1.53932e-05
-1.63118e-05 -1.53932e-05 -0.000928383
0.00159273 0.000528506 8.87821e-06
0.000528506 0.000696931 -2.73327e-05
8.87821e-06 -2.73327e-05 0.000345554
-0.00184081 9.55962e-05 1.00645e-05
9.55962e-05 -0.000863663 2.09918e-05
1.00645e-05 2.09918e-05 -0.00156749
0.00111131 0.000667008 3.77957e-06
0.000667008 0.000475323 -1.66502e-05
3.77957e-06 -1.66502e-05 2.48371e-05
-0.000127365 0.000120484 -1.17684e-05
0.000120484 -0.000137919 1.19554e-06
-1.17684e-05 1.19554e-06 -0.000521906
-3.92017e-05 0.000142402 -2.2746e-05
0.000142402 -0.000176024 1.18799e-05
-2.2746e-05 1.18799e-05 -0.000368996
0.00114775 4.91125e-05 1.32111e-05
4.91125e-05 0.000633702 2.73881e-06
1.32111e-05 2.73881e-06 0.000351877
0.00124111 0.000243094 -1.24732e-05
0.000243094 0.000676383 -1.24963e-05
-1.24732e-05 -1.24963e-05 0.000565614
0.00249295 0.000278572 -3.31886e-06
0.000278572 0.00174516 -5.54275e-05
-3.31886e-06 -5.54275e-05 0.0012713
0.0148957 0.00733008 0.00147016
0.00733008 0.00852408 0.000691519
0.00147016 0.000691519 0.00284839
0.00720235 0.0019021 4.05454e-05
0.0019021 0.00373146 5.24727e-05
4.05454e-05 5.24727e-05 -0.0012761
0.0117557 -0.000640455 0.000365285
-0.000640455 0.00149925 6.30899e-06
0.000365285 6.30899e-06 -0.00225772
0.0182335 -9.07183e-05 -0.000166477
-9.07183e-05 0.00382836 -0.0001117
-0.000166477 -0.0001117 0.00364257
0.0119939 0.000299548 0.000187727
0.000299548 0.00204512 0.000458532
0.000187727 0.000458532 -0.00582583
0.00456022 -0.00858564 -0.000219008
-0.00858564 0.00309608 0.000131913
-0.000219008 0.000131913 0.000765985
0.00289137 -0.00223178 -0.000788711
-0.00223178 0.00776876 0.000199174
-0.000788711 0.000199174 0.000806842
-0.00177085 -0.00292359 -0.000184409
-0.00292359 0.00251759 0.000212868
-0.000184409 0.000212868 -4.86596e-05
0.0117838 -0.000758487 -0.000560679
-0.000758487 0.0100838 -5.33203e-05
-0.000560679 -5.33203e-05 0.000272768
0.010631 -0.00484274 0.00010203
-0.00484274 0.00801533 0.000305861
0.00010203 0.000305861 -0.00179031
0.0376786 -0.00752222 0.000654183
-0.00752222 0.0163475 -0.00124878
0.000654183 -0.00124878 0.00346486
-0.000329823 0.000887056 -0.000362711
0.000887056 0.00436613 0.00010869
-0.000362711 0.00010869 0.000959798
0.00230484 0.00192224 -0.000490389
0.00192224 0.00752619 -0.000189143
-0.000490389 -0.000189143 -0.000226899
0.0373752 -0.0138274 0.00208129
-0.0138274 0.0242954 -0.00157259
0.00208129 -0.00157259 0.00716675
0.0422567 -0.0236647 0.000273934
-0.0236647 0.0318804 -1.15024e-05
0.000273934 -1.15024e-05 0.010675
0.00125849 0.000864608 6.23738e-05
0.000864608 0.00123097 6.36014e-06
6.23738e-05 6.36014e-06 0.000294325
-0.00026663 0.000159296 2.19013e-05
0.000159296 0.000521676 1.30919e-06
2.19013e-05 1.30919e-06 -0.000308015
0.00127699 0.000195092 -4.64022e-05
0.000195092 0.000867751 -1.51557e-05
-4.64022e-05 -1.51557e-05 0.00061335
0.000548595 -0.00219605 0.00010288
-0.00219605 0.00247033 1.15455e-05
0.00010288 1.15455e-05 -0.000387829
-0.00198137 -0.000202692 0.000150953
-0.000202692 0.000817795 3.54782e-05
0.000150953 3.54782e-05 -0.000421382
0.00066254 0.000223691 -5.5829e-05
0.000223691 0.000836278 7.29047e-06
-5.5829e-05 7.29047e-06 0.000249602
-0.00107391 9.5879e-05 -7.94703e-05
9.5879e-05 0.000540313 -1.38403e-06
-7.94703e-05 -1.38403e-06 -0.000369064
0.000598188 0.000379961 -1.41857e-05
0.000379961 0.000843244 3.78055e-06
-1.41857e-05 3.78055e-06 0.000241901
0.000289739 0.000750458 1.28902e-05
0.000750458 0.00124003 -4.58856e-07
1.28902e-05 -4.58856e-07 0.000326669
-0.00323793 -1.55367e-05 0.000264768
-1.55367e-05 0.00210549 -0.000122905
0.000264768 -0.000122905 -0.000572421
0.00229366 0.00126675 5.85093e-05
0.00126675 0.00145429 8.03166e-05
5.85093e-05 8.03166e-05 0.000762188
0.000357154 0.00160797 -6.91301e-05
0.00160797 0.00225602 -0.000133592
-6.91301e-05 -0.000133592 -0.000362573
-0.000514936 -0.00201524 0.000407279
-0.00201524 0.000561519 0.000152337
0.000407279 0.000152337 -0.00397479
-0.00461953 0.00157637 -0.000362846
0.00157637 0.0074939 -3.94453e-05
-0.000362846 -3.94453e-05 0.0011636
0.0080634 -0.00110937 -0.000305377
-0.00110937 0.00680768 1.02221e-05
-0.000305377 1.02221e-05 0.00315539
-0.000624309 0.00117997 0.000119037
0.00117997 0.00142132 5.98984e-06
0.000119037 5.98984e-06 -0.000853891
-0.000816833 0.000627581 2.90447e-06
0.000627581 0.00375329 0.000132148
2.90447e-06 0.000132148 0.000500913
-0.00236578 8.7682e-05 -0.000202958
8.7682e-05 0.00608233 -0.000144722
-0.000202958 -0.000144722 0.0013402
0.0135471 -0.00846223 0.000739842
-0.00846223 0.0115522 -0.000409502
0.000739842 -0.000409502 0.000294815
0.0346404 0.0124898 -0.00135399
0.0124898 0.0229426 -0.000494864
-0.00135399 -0.000494864 0.00640169
0.00974718 -0.00438498 -0.00058885
-0.00438498 0.00473008 0.000368646
-0.00058885 0.000368646 -0.0007491
0.0436383 0.0331928 0.0015406
0.0331928 0.0328934 -0.00194881
0.0015406 -0.00194881 0.00788023
-0.00160546 -0.00107748 1.6169e-05
-0.00107748 0.00165422 3.21547e-06
1.6169e-05 3.21547e-06 -0.000780838
0.00124556 -0.00144202 0.0001878
-0.00144202 0.00151173 -8.61078e-07
0.0001878 -8.61078e-07 -0.00489892
0.0178096 0.0112772 -0.00172553
0.0112772 0.0204739 -0.000132262
-0.00172553 -0.000132262 0.00338995
-0.000117574 -0.00306038 4.18735e-05
-0.00306038 0.00338046 4.98512e-05
4.18735e-05 4.98512e-05 0.000633187
0.0363672 0.0129336 0.000807724
0.0129336 0.0209356 0.000545788
0.000807724 0.000545788 0.00499136
0.00372033 -0.0119848 0.000711224
-0.0119848 0.00423702 -0.000251612
0.000711224 -0.000251612 -0.00250202
-0.000430651 -0.00329727 2.96532e-05
-0.00329727 0.00163889 4.85345e-05
2.96532e-05 4.85345e-05 -0.000841533
0.00585736 0.000676335 0.000173358
0.000676335 0.0154643 -0.000223041
0.000173358 -0.000223041 0.00611257
0.0261447 0.0137274 -0.00272781
0.0137274 0.0145473 -0.00029887
-0.00272781 -0.00029887 0.00141355
-0.000255021 -0.0119881 -0.00150621
-0.0119881 -0.00645359 0.000366802
-0.00150621 0.000366802 -0.00476577
0.00015392 -0.0051643 0.000286982
-0.0051643 0.000656249 -0.000246175
0.000286982 -0.000246175 0.000696107
0.000376311 -0.00068189 -9.17754e-05
-0.00068189 0.00113229 2.3781e-05
-9.17754e-05 2.3781e-05 -0.000162344
-7.63832e-05 -0.00148459 -3.14204e-05
-0.00148459 0.000705208 2.19612e-05
-3.14204e-05 2.19612e-05 -0.000601386
-0.000346596 -0.00151767 -1.1619e-05
-0.00151767 -0.000297519 -9.13008e-06
-1.1619e-05 -9.13008e-06 -0.00121979
-0.00346836 -0.000266591 2.88986e-05
-0.000266591 -0.0013825 -5.6613e-06
2.88986e-05 -5.6613e-06 -0.0020046
0.000955987 -0.00128818 1.03209e-05
-0.00128818 0.00033764 -8.47917e-06
1.03209e-05 -8.47917e-06 -0.000534646
0.00478228 -0.00223674 -5.49426e-06
-0.00223674 0.00170528 -1.84909e-06
-5.49426e-06 -1.84909e-06 0.000840813
0.00501047 -0.00192751 -2.81245e-05
-0.00192751 0.002481 -4.54955e-06
-2.81245e-05 -4.54955e-06 0.00123284
0.00257738 -0.00178629 -2.00076e-06
-0.00178629 0.000821863 -8.33368e-07
-2.00076e-06 -8.33368e-07 -0.000348096
0.003726 -0.00205404 -1.00747e-06
-0.00205404 0.001041 -1.10931e-05
-1.00747e-06 -1.10931e-05 0.000112252
0.00282827 -0.00167431 1.63253e-05
-0.00167431 0.0010766 2.79747e-06
1.63253e-05 2.79747e-06 -4.86202e-05
0.0035415 -0.0018907 4.48771e-06
-0.0018907 0.00120109 -4.70221e-06
4.48771e-06 -4.70221e-06 0.000162807
0.00344289 -0.00142898 -2.5794e-06
-0.00142898 0.000750374 -7.10168e-06
-2.5794e-06 -7.10168e-06 0.000175897
0.00249044 -0.000826894 -3.75291e-06
-0.000826894 5.98055e-05 -1.71183e-06
-3.75291e-06 -1.71183e-06 -0.000130593
0.00251606 -0.00117293 -8.52804e-07
-0.00117293 0.000224539 -2.2274e-06
-8.52804e-07 -2.2274e-06 -0.000340728
0.00281934 -0.00124476 4.79671e-06
-0.00124476 0.000434 -1.47562e-06
4.79671e-06 -1.47562e-06 -0.000144927
0.00370892 -0.00157471 -4.54191e-06
-0.00157471 0.00129875 -4.42064e-06
-4.54191e-06 -4.42064e-06 0.000492611
0.00373389 -0.00176558 -4.66469e-06
-0.00176558 0.00127819 -7.72241e-07
-4.66469e-06 -7.72241e-07 0.000360088
0.00371421 -0.00186045 6.00796e-06
-0.00186045 0.00128311 -3.608e-06
6.00796e-06 -3.608e-06 0.000289556
0.00286204 -0.00156227 -1.30808e-05
-0.00156227 0.00110523 -1.35186e-05
-1.30808e-05 -1.35186e-05 0.000178722
0.00257328 -0.001647 2.38708e-06
-0.001647 0.000919243 -1.25104e-06
2.38708e-06 -1.25104e-06 -3.83647e-05
0.00199374 -0.00151577 1.08823e-06
-0.00151577 0.000573148 2.83376e-06
1.08823e-06 2.83376e-06 -0.000335862
0.00407034 -0.000961425 1.93355e-05
-0.000961425 0.00218761 1.00226e-05
1.93355e-05 1.00226e-05 0.00152974
0.00125629 -0.00115509 5.40477e-06
-0.00115509 0.000405704 5.32328e-06
5.40477e-06 5.32328e-06 -0.000448539
0.00249953 -0.00144759 -5.57478e-06
-0.00144759 0.00104919 1.14295e-05
-5.57478e-06 1.14295e-05 0.000147144
0.00136035 -0.000459529 4.03071e-06
-0.000459529 0.000480433 -1.64704e-05
4.03071e-06 -1.64704e-05 0.000148797
0.000695896 -0.000475191 -2.15073e-06
-0.000475191 0.000161343 -6.74996e-06
-2.15073e-06 -6.74996e-06 -0.000303092
-0.00125437 -0.000366323 8.97578e-06
-0.000366323 -0.00104552 -5.30623e-06
8.97578e-06 -5.30623e-06 -0.00154918
0.00347231 -0.000176592 -0.000125135
-0.000176592 0.00194023 2.28217e-05
-0.000125135 2.28217e-05 0.00181323
0.000328735 -0.000390951 -2.27757e-06
-0.000390951 -7.11258e-05 7.31841e-07
-2.27757e-06 7.31841e-07 -0.00047255
0.000405669 -0.00055214 -3.24809e-06
-0.00055214 3.10206e-05 -1.42654e-06
-3.24809e-06 -1.42654e-06 -0.000405348
0.00132587 -4.08069e-05 -0.000129859
-4.08069e-05 0.000607473 1.47843e-05
-0.000129859 1.47843e-05 0.000582728
0.00176654 -0.000150524 -3.59172e-05
-0.000150524 0.000858991 -3.26826e-07
-3.59172e-05 -3.26826e-07 0.000727987
0.00140828 -0.000379726 -5.33817e-06
-0.000379726 0.000660132 -3.24954e-06
-5.33817e-06 -3.24954e-06 0.000297803
0.000738944 -0.000118544 1.38692e-05
-0.000118544 0.000195523 -2.11189e-05
1.38692e-05 -2.11189e-05 8.70448e-05
0.00487778 0.000126109 1.21046e-05
0.000126109 0.00300345 4.21956e-07
1.21046e-05 4.21956e-07 0.00299267
0.00421455 8.96501e-05 8.94581e-05
8.96501e-05 0.00254812 -1.08823e-05
8.94581e-05 -1.08823e-05 0.00254653
-0.000633272 0.000328058 2.44226e-05
0.000328058 -0.000597486 8.79399e-06
2.44226e-05 8.79399e-06 -0.00103457
0.00224919 0.000609373 3.12725e-06
0.000609373 0.00149709 -2.93176e-05
3.12725e-06 -2.93176e-05 0.000941676
-0.00060005 0.000192847 6.02228e-06
0.000192847 -0.000318026 -7.3933e-07
6.02228e-06 -7.3933e-07 -0.000883618
0.000774465 0.000203019 -3.30304e-06
0.000203019 0.000322809 -1.71969e-05
-3.30304e-06 -1.71969e-05 4.90078e-05
0.000290879 0.000261718 8.09286e-06
0.000261718 0.000175131 -3.66225e-07
8.09286e-06 -3.66225e-07 -0.0002917
0.000414464 5.31638e-05 -1.12584e-05
5.31638e-05 3.89621e-05 -1.7572e-05
-1.12584e-05 -1.7572e-05 -4.37106e-05
0.000550818 0.000131313 -6.09468e-07
0.000131313 0.000187544 1.46607e-06
-6.09468e-07 1.46607e-06 -6.19332e-05
0.000936218 0.000250674 -3.93747e-06
0.000250674 0.000574824 4.30157e-06
-3.93747e-06 4.30157e-06 0.000191456
0.00356972 -6.76856e-05 -6.25408e-05
-6.76856e-05 0.00212316 -1.06467e-05
-6.25408e-05 -1.06467e-05 0.00212503
0.000273747 3.04946e-05 -2.80983e-06
3.04946e-05 -7.07898e-05 5.92697e-08
-2.80983e-06 5.92697e-08 -0.000133319
0.000183172 0.000136343 -4.58491e-06
0.000136343 -8.20559e-05 8.51381e-06
-4.58491e-06 8.51381e-06 -0.000271581
0.00314563 -5.50931e-05 -1.14999e-05
-5.50931e-05 0.00183334 7.26503e-07
-1.14999e-05 7.26503e-07 0.00183663
0.000191967 -1.62507e-05 -9.59877e-06
-1.62507e-05 -0.000134796 1.0545e-05
-9.59877e-06 1.0545e-05 -0.000183948
0.00290776 -3.41634e-05 3.10674e-05
-3.41634e-05 0.00166998 7.88448e-06
3.10674e-05 7.88448e-06 0.00167654
0.00558863 0.00240038 0.000829619
0.00240038 0.00618369 0.000174654
0.000829619 0.000174654 0.000754086
-0.000237503 0.00212848 -6.9523e-05
0.00212848 0.00525123 4.13517e-06
-6.9523e-05 4.13517e-06 -0.00125471
0.000741112 0.00297675 1.93831e-05
0.00297675 0.00621987 -4.34287e-05
1.93831e-05 -4.34287e-05 0.00040491
0.000177343 0.000590173 -3.37952e-05
0.000590173 1.12085e-05 2.01775e-08
-3.37952e-05 2.01775e-08 -0.000637115
-0.000969936 8.85153e-05 -2.58027e-05
8.85153e-05 -0.000560394 4.70556e-05
-2.58027e-05 4.70556e-05 -0.00115093
-0.00163222 0.000131692 -2.36524e-05
0.000131692 -0.0010835 -8.21112e-06
-2.36524e-05 -8.21112e-06 -0.00142376
0.00192018 0.000202982 1.4072e-05
0.000202982 0.00128278 1.8502e-06
1.4072e-05 1.8502e-06 0.000806626
0.00113858 0.000504591 1.6448e-06
0.000504591 0.000304166 -3.44801e-06
1.6448e-06 -3.44801e-06 -3.13148e-05
0.001584 0.000724832 -3.20665e-05
0.000724832 0.000799016 -1.35241e-05
-3.20665e-05 -1.35241e-05 0.000445086
0.00219264 0.000709493 6.90002e-06
0.000709493 0.00102563 -3.96522e-05
6.90002e-06 -3.96522e-05 0.00052446
-0.00362079 0.000161913 -3.80939e-05
0.000161913 -0.00171295 7.79014e-06
-3.80939e-05 7.79014e-06 -0.00233152
-0.00106144 3.71608e-05 -1.14756e-05
3.71608e-05 -0.0006876 -4.69763e-06
-1.14756e-05 -4.69763e-06 -0.00102791
-0.00180244 4.19764e-05 -6.38283e-06
4.19764e-05 -0.0013905 2.99572e-05
-6.38283e-06 2.99572e-05 -0.00139473
-0.000564162 7.31548e-05 -1.7163e-05
7.31548e-05 -5.05547e-05 3.56168e-06
-1.7163e-05 3.56168e-06 -0.000561302
-0.000120059 0.000524185 1.00116e-05
0.000524185 0.000393619 1.52078e-05
1.00116e-05 1.52078e-05 -0.000537095
0.0226422 -0.0169128 -0.000339371
-0.0169128 0.022757 0.000313209
-0.000339371 0.000313209 0.00171043
0.0130789 0.00705721 0.000337196
0.00705721 0.00540605 0.000207581
0.000337196 0.000207581 -0.00134644
0.00706836 0.00124684 0.000408623
0.00124684 0.0053475 -3.21264e-05
0.000408623 -3.21264e-05 -0.000234263
0.0488555 -0.0139592 -0.00202111
-0.0139592 0.0210444 -0.000490837
-0.00202111 -0.000490837 0.00546706
0.0121307 -0.0003265 0.000422508
-0.0003265 0.00822785 0.000674428
0.000422508 0.000674428 0.000941204
0.00208691 0.000275234 -0.000318937
0.000275234 0.00731496 0.00017955
-0.000318937 0.00017955 -0.00213748
-0.00124511 -0.00323504 -3.97135e-05
-0.00323504 0.00312507 0.000159184
-3.97135e-05 0.000159184 -0.000311717
-0.0017147 -0.0011776 0.000225916
-0.0011776 0.00331447 0.000103056
0.000225916 0.000103056 0.000748102
0.0468632 -0.0274692 0.000199179
-0.0274692 0.033469 0.000549564
0.000199179 0.000549564 0.0102346
0.00369971 0.00339387 -0.000244284
0.00339387 0.00776454 -0.000154874
-0.000244284 -0.000154874 -0.00185563
0.0193039 -0.00772769 -3.25864e-05
-0.00772769 0.0169878 0.000216844
-3.25864e-05 0.000216844 0.00121664
-0.000442 0.00223114 1.60598e-05
0.00223114 0.00295258 -4.63279e-05
1.60598e-05 -4.63279e-05 0.000395848
0.0035723 0.00880481 -0.000376286
0.00880481 0.0039342 3.9521e-05
-0.000376286 3.9521e-05 -0.00116373
0.0323419 -0.0118748 -0.00102657
-0.0118748 0.018843 4.36212e-05
-0.00102657 4.36212e-05 0.00362384
0.0025031 0.00144134 -3.65048e-06
0.00144134 0.0012303 5.80237e-05
-3.65048e-06 5.80237e-05 0.000709465
4.28681e-05 0.00061016 2.8853e-06
0.00061016 0.000538567 1.64124e-06
2.8853e-06 1.64124e-06 -0.00037443
-0.000266666 9.9412e-05 -8.40841e-05
9.9412e-05 0.000520888 2.29462e-05
-8.40841e-05 2.29462e-05 -0.000308996
-0.00225349 -0.000430089 -0.000218012
-0.000430089 0.00263257 -4.7302e-05
-0.000218012 -4.7302e-05 0.000176427
-0.000733945 0.000661921 -9.64062e-05
0.000661921 0.00039239 -1.07638e-05
-9.64062e-05 -1.07638e-05 -0.000433962
-0.000356213 0.000340623 -2.28045e-05
0.000340623 0.000302515 1.50248e-06
-2.28045e-05 1.50248e-06 -0.000351036
0.0011508 0.00110924 -3.95634e-06
0.00110924 0.000763996 1.50705e-06
-3.95634e-06 1.50705e-06 8.07587e-05
-0.000440655 0.00171952 -0.00014026
0.00171952 0.00174307 -0.000111569
-0.00014026 -0.000111569 -0.000666284
0.00320841 0.00380981 0.000122876
0.00380981 0.00181684 6.02952e-05
0.000122876 6.02952e-05 -0.000126506
-0.00689047 0.00253342 0.0008624
0.00253342 0.00656176 -6.0593e-05
0.0008624 -6.0593e-05 -0.00264506
0.000318663 -0.0018583 -0.00010207
-0.0018583 0.00220573 8.17452e-05
-0.00010207 8.17452e-05 -0.00154298
-0.00171958 0.000885485 -0.000119707
0.000885485 0.00631815 0.000160109
-0.000119707 0.000160109 7.08487e-05
-0.00234088 -0.000704941 -7.42586e-05
-0.000704941 0.0012308 1.23467e-06
-7.42586e-05 1.23467e-06 -0.00117601
-0.00106735 -0.00206263 3.75913e-05
-0.00206263 0.00242307 -1.11361e-05
3.75913e-05 -1.11361e-05 0.000930858
-0.00529656 -0.00331047 -0.000210611
-0.00331047 0.000422909 0.000168186
-0.000210611 0.000168186 -0.00555607
-0.000653374 -0.00951261 0.000640536
-0.00951261 0.00471776 -0.000365924
0.000640536 -0.000365924 -0.00475877
0.0257727 0.0103727 0.00105758
0.0103727 0.0151949 -0.000182527
0.00105758 -0.000182527 0.000569266
0.0324591 0.0191899 -0.000209375
0.0191899 0.0250024 0.00082309
-0.000209375 0.00082309 0.00293812
0.000166805 -0.0022754 -6.1053e-05
-0.0022754 0.00231674 2.09927e-05
-6.1053e-05 2.09927e-05 0.000154701
0.0105839 0.00648669 0.000724226
0.00648669 0.0189222 -3.01893e-05
0.000724226 -3.01893e-05 0.00554545
0.0138572 0.00917611 0.000145863
0.00917611 0.00822923 0.000148306
0.000145863 0.000148306 -0.00175267
0.00322453 -0.00797972 9.31789e-05
-0.00797972 0.00181077 -4.9062e-05
9.31789e-05 -4.9062e-05 0.000171868
0.0109813 -0.0121834 7.77552e-07
-0.0121834 -0.00207338 1.9856e-05
7.77552e-07 1.9856e-05 -0.00150065
0.00222689 -0.00379207 5.27121e-05
-0.00379207 0.00105481 -1.4529e-05
5.27121e-05 -1.4529e-05 6.5622e-05
0.00353222 0.00715016 -0.00233763
0.00715016 0.00666665 -9.32428e-05
-0.00233763 -9.32428e-05 -0.0055853
0.0143935 -0.00795638 -0.000735431
-0.00795638 -0.00526835 0.000160715
-0.000735431 0.000160715 -0.00188834
0.00531935 -0.00829721 0.000127577
-0.00829721 -0.00149928 -8.48341e-05
0.000127577 -8.48341e-05 0.000467956
0.000240609 -0.00110399 -1.69178e-05
-0.00110399 0.000962053 -1.25961e-05
-1.69178e-05 -1.25961e-05 -0.000265125
0.00223795 -0.00226004 5.67696e-05
-0.00226004 0.000927792 -2.716e-05
5.67696e-05 -2.716e-05 -0.000150192
0.0019643 -0.00188815 -1.95779e-05
-0.00188815 7.12433e-05 -1.3456e-05
-1.95779e-05 -1.3456e-05 -0.00057727
-0.000498647 -0.00112465 -1.34481e-06
-0.00112465 -0.00046738 -6.50631e-08
-1.34481e-06 -6.50631e-08 -0.00123744
0.00241251 -0.00192688 -7.53324e-06
-0.00192688 0.00043979 2.33168e-06
-7.53324e-06 2.33168e-06 -0.000306144
0.00469176 -0.00210667 -5.27367e-06
-0.00210667 0.00134794 -3.39188e-06
-5.27367e-06 -3.39188e-06 0.00066941
0.00198312 -0.00162847 1.4799e-05
-0.00162847 0.000489381 7.6183e-06
1.4799e-05 7.6183e-06 -0.000604442
0.00325581 -0.00197749 -1.06777e-06
-0.00197749 0.000780629 4.24845e-06
-1.06777e-06 4.24845e-06 -0.00012544
0.00315402 -0.00149311 -3.12897e-06
-0.00149311 0.000376341 -1.47962e-06
-3.12897e-06 -1.47962e-06 -2.60124e-05
0.00256527 -0.0017113 8.72523e-06
-0.0017113 0.000665427 3.31716e-06
8.72523e-06 3.31716e-06 -0.000312007
0.00302638 -0.00136095 -4.24624e-06
-0.00136095 0.00050174 4.23695e-06
-4.24624e-06 4.23695e-06 -4.86676e-05
0.00263408 -0.000910396 -3.81015e-07
-0.000910396 1.04891e-05 -1.87156e-06
-3.81015e-07 -1.87156e-06 -0.000114026
0.00267692 -0.000907878 -3.74082e-06
-0.000907878 0.000182612 -5.51969e-07
-3.74082e-06 -5.51969e-07 5.03459e-05
0.00246617 -0.000834175 -5.76603e-06
-0.000834175 0.00012616 -7.62563e-08
-5.76603e-06 -7.62563e-08 -0.000120169
0.00243154 -0.000816784 1.27518e-06
-0.000816784 8.63149e-06 2.61481e-06
1.27518e-06 2.61481e-06 -0.000180876
0.00233003 -0.00102213 -7.61373e-06
-0.00102213 0.000166718 -4.10109e-06
-7.61373e-06 -4.10109e-06 -0.000321794
0.0026934 -0.0011797 4.28425e-06
-0.0011797 0.000364483 6.19882e-07
4.28425e-06 6.19882e-07 -0.000195128
0.00284396 -0.00124777 4.81812e-06
-0.00124777 0.000430947 5.14787e-06
4.81812e-06 5.14787e-06 -0.000141442
0.00274801 -0.00135025 -1.05843e-05
-0.00135025 0.000699367 -6.90452e-06
-1.05843e-05 -6.90452e-06 -2.33814e-05
0.00326469 -0.00152961 2.50865e-06
-0.00152961 0.00101315 -1.19009e-06
2.50865e-06 -1.19009e-06 0.000213117
0.00372214 -0.00178084 -2.16129e-06
-0.00178084 0.00127708 7.595e-08
-2.16129e-06 7.595e-08 0.000344396
0.00164731 -0.00107386 1.54112e-06
-0.00107386 0.000283518 -1.43564e-05
1.54112e-06 -1.43564e-05 -0.000455087
0.00288647 -0.00155941 1.83484e-06
-0.00155941 0.0010995 -1.67645e-06
1.83484e-06 -1.67645e-06 0.000175945
0.00220254 -0.0015755 9.56555e-07
-0.0015755 0.000694825 5.87005e-06
9.56555e-07 5.87005e-06 -0.000237533
0.000882905 -0.000547849 -1.57546e-05
-0.000547849 8.78816e-05 -1.506e-05
-1.57546e-05 -1.506e-05 -0.000274671
0.00122739 -0.000893532 4.08371e-06
-0.000893532 0.000403183 3.71273e-06
4.08371e-06 3.71273e-06 -0.000258481
0.0010232 -0.0010885 1.1457e-05
-0.0010885 0.000289639 9.15841e-06
1.1457e-05 9.15841e-06 -0.000526967
0.000171552 -0.000262922 -2.90288e-05
-0.000262922 -0.000328502 2.40371e-05
-2.90288e-05 2.40371e-05 -0.000483828
0.00113165 -0.000514652 3.09772e-06
-0.000514652 0.000412845 6.53013e-07
3.09772e-06 6.53013e-07 1.78651e-05
-0.00169636 -0.000596233 -9.85368e-06
-0.000596233 -0.00124859 -1.08126e-05
-9.85368e-06 -1.08126e-05 -0.00178313
0.00732623 0.000387199 2.85162e-05
0.000387199 0.00470397 1.29754e-05
2.85162e-05 1.29754e-05 0.00461367
0.000394404 -0.000250772 1.62134e-06
-0.000250772 -0.000138038 2.41785e-07
1.62134e-06 2.41785e-07 -0.000292955
0.000574089 -0.000274861 -1.65638e-05
-0.000274861 6.68988e-05 9.06882e-06
-1.65638e-05 9.06882e-06 -0.000325849
0.00563709 0.000159728 2.95838e-05
0.000159728 0.00352645 1.58145e-06
2.95838e-05 1.58145e-06 0.00350639
0.000863731 -0.00018778 1.75213e-05
-0.00018778 0.000236749 -2.09007e-05
1.75213e-05 -2.09007e-05 9.41535e-05
0.00502516 0.000130277 0.000111694
0.000130277 0.00310408 -1.46545e-05
0.000111694 -1.46545e-05 0.00309291
0.00235723 0.000683595 -5.0136e-06
0.000683595 0.00122003 3.00501e-05
-5.0136e-06 3.00501e-05 0.000675143
0.00131081 0.000458258 4.21439e-06
0.000458258 0.000578831 -7.12457e-08
4.21439e-06 -7.12457e-08 0.000145847
-0.00041909 0.000908911 3.55723e-06
0.000908911 -0.000414612 1.38537e-05
3.55723e-06 1.38537e-05 -0.000892395
0.00203214 0.000456721 -3.1473e-06
0.000456721 0.00108794 -1.66855e-05
-3.1473e-06 -1.66855e-05 0.000786472
0.000928068 0.000307293 -1.07285e-08
0.000307293 0.000638206 7.73897e-07
-1.07285e-08 7.73897e-07 8.02777e-05
-0.000521317 0.000281559 -5.33041e-06
0.000281559 -0.000203118 1.50385e-05
-5.33041e-06 1.50385e-05 -0.000805911
0.000690982 5.41366e-05 -5.43367e-06
5.41366e-05 0.000212629 -1.92108e-05
-5.43367e-06 -1.92108e-05 0.000106142
0.000704661 0.00021097 -4.23565e-07
0.00021097 0.000283682 1.98478e-06
-4.23565e-07 1.98478e-06 3.29202e-06
0.000144136 0.00016612 -1.17812e-05
0.00016612 9.9251e-06 3.83323e-05
-1.17812e-05 3.83323e-05 -0.000397456
0.00429154 -0.000102506 -7.7728e-05
-0.000102506 0.0026179 -1.1742e-05
-7.7728e-05 -1.1742e-05 0.00261458
0.000304955 -1.41818e-05 4.17803e-07
-1.41818e-05 -3.83634e-05 -2.6131e-07
4.17803e-07 -2.6131e-07 -0.000117763
0.00055775 0.000111366 -5.5006e-06
0.000111366 0.00021108 9.34612e-06
-5.5006e-06 9.34612e-06 -5.47715e-05
0.00366165 -8.12068e-05 -1.34039e-05
-8.12068e-05 0.00218894 1.31881e-06
-1.34039e-05 1.31881e-06 0.00218711
0.000421771 5.69249e-05 2.27426e-06
5.69249e-05 2.59535e-05 1.40069e-05
2.27426e-06 1.40069e-05 -3.54942e-05
0.00312543 -5.9012e-05 3.22255e-05
-5.9012e-05 0.00182056 8.62031e-06
3.22255e-05 8.62031e-06 0.00182282
0.00184608 -0.00298914 -0.000851387
-0.00298914 0.00917021 0.000226335
-0.000851387 0.000226335 -0.00198041
0.00653767 0.00236084 0.000166687
0.00236084 0.00515037 5.79362e-06
0.000166687 5.79362e-06 0.000277558
0.000620795 0.00272329 0.000507971
0.00272329 0.00505334 0.000199041
0.000507971 0.000199041 -0.00114108
-0.000104331 0.000436852 9.15939e-07
0.000436852 -0.000153511 2.63104e-06
9.15939e-07 2.63104e-06 -0.000824301
0.00461877 0.0015409 -6.75569e-06
0.0015409 0.00256218 2.89321e-05
-6.75569e-06 2.89321e-05 0.00167517
-0.00168888 0.000250745 -3.7079e-05
0.000250745 -0.000814385 -7.11024e-06
-3.7079e-05 -7.11024e-06 -0.00166152
0.000703035 0.000372976 -9.03126e-06
0.000372976 0.00060024 -9.8821e-06
-9.03126e-06 -9.8821e-06 6.42941e-05
0.00194881 0.000645545 -1.2194e-06
0.000645545 0.000742001 -7.50296e-07
-1.2194e-06 -7.50296e-07 0.000397359
-0.00503865 6.20601e-05 4.57872e-05
6.20601e-05 -0.00346299 5.54809e-05
4.57872e-05 5.54809e-05 -0.00350612
-0.00104973 0.000452091 -9.77198e-07
0.000452091 -0.000398173 1.37827e-06
-9.77198e-07 1.37827e-06 -0.000943372
0.000166187 0.000456376 -1.34308e-05
0.000456376 -2.67592e-05 -8.96226e-07
-1.34308e-05 -8.96226e-07 -0.000564392
0.000685836 0.00130761 -6.14188e-05
0.00130761 0.000529197 -1.36748e-05
-6.14188e-05 -1.36748e-05 -0.000400748
-0.000684861 0.00105234 -7.33121e-05
0.00105234 -0.000599409 7.36738e-05
-7.33121e-05 7.36738e-05 -0.00116165
6.41292e-05 0.000281254 -9.18441e-06
0.000281254 0.000277468 3.68311e-05
-9.18441e-06 3.68311e-05 -0.000219132
0.00218332 0.00101431 3.4847e-05
0.00101431 0.00161049 1.47885e-06
3.4847e-05 1.47885e-06 0.000785791
0.0123807 -0.0103837 -0.00428075
-0.0103837 0.0092842 0.000764635
-0.00428075 0.000764635 -0.00387263
0.0141867 -0.013399 0.00143814
-0.013399 0.0220937 -0.0002632
0.00143814 -0.0002632 0.00452323
0.0120868 0.0071218 -0.00163775
0.0071218 0.00387379 -0.000446727
-0.00163775 -0.000446727 -0.00392194
0.0462177 -0.0327519 0.00150314
-0.0327519 0.0340847 0.00181315
0.00150314 0.00181315 0.00923847
0.0347223 -0.00839316 -0.00047601
-0.00839316 0.0188479 0.00075305
-0.00047601 0.00075305 0.00573039
0.00226498 0.0034342 -0.000272213
0.0034342 0.00676453 -0.000324093
-0.000272213 -0.000324093 -0.00152954
0.00083606 -0.000898169 -0.000330296
-0.000898169 0.00565241 8.94769e-05
-0.000330296 8.94769e-05 0.00212171
-0.000190265 0.00235922 -2.45049e-05
0.00235922 0.0032477 1.53703e-05
-2.45049e-05 1.53703e-05 0.000676934
0.0383778 -0.0119626 -0.00123471
-0.0119626 0.0206917 0.000556498
-0.00123471 0.000556498 0.00508065
-0.000784873 0.00956087 -0.000522164
0.00956087 0.00236974 -6.0013e-05
-0.000522164 -6.0013e-05 -0.00367598
0.000991921 0.00596688 -5.35223e-05
0.00596688 0.000962622 -0.00017868
-5.35223e-05 -0.00017868 0.000270936
0.00686995 0.0155463 -0.00145427
0.0155463 -0.00541604 -0.000235089
-0.00145427 -0.000235089 -0.00417387
0.00407094 0.00235112 2.45895e-05
0.00235112 0.00177385 4.11279e-05
2.45895e-05 4.11279e-05 0.000977121
0.00220039 0.00133628 -2.24141e-05
0.00133628 0.0010345 -7.07116e-06
-2.24141e-05 -7.07116e-06 0.000606465
-0.000607813 0.000439519 -6.39345e-05
0.000439519 8.25905e-05 -4.36822e-06
-6.39345e-05 -4.36822e-06 -0.000733444
0.000926261 0.00220196 -0.00015094
0.00220196 0.00249376 -9.32741e-05
-0.00015094 -9.32741e-05 0.000183756
0.00159305 0.00129115 -7.37651e-05
0.00129115 0.00104683 -8.37781e-05
-7.37651e-05 -8.37781e-05 0.000367674
0.00301136 0.00383739 1.91059e-06
0.00383739 0.00142906 -1.87198e-05
1.91059e-06 -1.87198e-05 -0.000346665
0.0013684 0.00447178 0.000252584
0.00447178 -0.0010251 0.000159907
0.000252584 0.000159907 -0.00176052
-0.00765056 -0.000649091 -0.0022598
-0.000649091 0.00522156 -5.00987e-05
-0.0022598 -5.00987e-05 -0.00732971
-0.00878605 0.00148598 0.00145318
0.00148598 0.00715028 -6.72447e-05
0.00145318 -6.72447e-05 -5.62314e-05
-0.000401649 0.00122624 -0.000297844
0.00122624 0.00271869 5.94903e-05
-0.000297844 5.94903e-05 -0.000561229
0.0005625 -0.00264401 -0.000108551
-0.00264401 0.00194687 -7.4376e-05
-0.000108551 -7.4376e-05 -0.000305029
0.00248336 -0.00722255 0.000151276
-0.00722255 0.00176923 9.61911e-05
0.000151276 9.61911e-05 7.81851e-05
0.00668628 0.00648692 0.00154897
0.00648692 0.0174264 0.00048874
0.00154897 0.00048874 0.004541
0.00540042 -0.0126811 0.00157373
-0.0126811 -0.00668483 -0.000383242
0.00157373 -0.000383242 -0.00383068
0.0215103 0.0105423 0.00282383
0.0105423 0.017909 0.000530202
0.00282383 0.000530202 0.00535899
0.00374082 -0.00500131 -1.80105e-05
-0.00500131 0.00154545 -1.28881e-05
-1.80105e-05 -1.28881e-05 -4.11488e-05
0.0105858 0.00877844 0.000578428
0.00877844 0.00935983 -0.000215454
0.000578428 -0.000215454 -0.00289071
0.00858732 -0.00848421 -0.000514953
-0.00848421 -0.00977876 0.000245615
-0.000514953 0.000245615 -0.00537809
0.00382864 -0.00716169 -0.000107194
-0.00716169 -0.00163842 0.000105932
-0.000107194 0.000105932 0.000573952
0.0035409 -0.00389078 7.04043e-05
-0.00389078 -0.000335207 -4.43003e-05
7.04043e-05 -4.43003e-05 2.94575e-05
0.0157494 -0.00191471 -9.99488e-05
-0.00191471 -0.00340813 0.00016834
-9.99488e-05 0.00016834 -0.000893124
0.0041763 -0.00505005 0.000138001
-0.00505005 -0.00543648 -0.000212988
0.000138001 -0.000212988 -0.000567864
0.00411284 -0.0027891 -0.000106956
-0.0027891 0.00189119 5.87919e-05
-0.000106956 5.87919e-05 0.000762206
0.00101814 -0.00175015 -1.14151e-05
-0.00175015 -0.000484533 1.95438e-06
-1.14151e-05 1.95438e-06 -0.000920911
0.00582163 -0.00208561 4.3837e-05
-0.00208561 0.00172674 -3.03093e-05
4.3837e-05 -3.03093e-05 0.00134494
-0.000306992 -0.0015328 -5.55624e-06
-0.0015328 -0.000985152 4.52047e-06
-5.55624e-06 4.52047e-06 -0.00161702
0.00318353 -0.00188917 1.32123e-06
-0.00188917 0.000563293 -5.31612e-07
1.32123e-06 -5.31612e-07 -1.94719e-05
0.00368461 -0.00149762 -2.95926e-06
-0.00149762 0.000496484 -2.14523e-06
-2.95926e-06 -2.14523e-06 0.000347427
0.00304587 -0.00194177 1.52746e-05
-0.00194177 0.000658532 1.25468e-05
1.52746e-05 1.25468e-05 -0.000234913
0.00316254 -0.00147614 -4.37406e-06
-0.00147614 0.000385248 2.10137e-06
-4.37406e-06 2.10137e-06 -8.78583e-07
0.00285186 -0.00099687 -1.12898e-06
-0.00099687 -4.34287e-05 -2.36041e-07
-1.12898e-06 -2.36041e-07 9.78291e-06
0.00245824 -0.00126882 6.41907e-06
-0.00126882 0.000173919 7.91356e-06
6.41907e-06 7.91356e-06 -0.000346
0.00258547 -0.000900652 -1.02161e-07
-0.000900652 -2.77824e-05 3.06284e-06
-1.02161e-07 3.06284e-06 -0.00014133
0.00273686 -0.000956255 -2.22631e-06
-0.000956255 4.38364e-05 -2.16924e-07
-2.22631e-06 -2.16924e-07 -9.90959e-06
0.00270615 -0.000918769 -4.5615e-06
-0.000918769 0.000124513 -7.93845e-07
-4.5615e-06 -7.93845e-07 -4.1549e-06
0.00262296 -0.000907487 -3.6709e-06
-0.000907487 0.00013462 1.64804e-06
-3.6709e-06 1.64804e-06 1.13244e-05
0.00257105 -0.000870924 -1.03908e-06
-0.000870924 0.000200282 -1.49659e-06
-1.03908e-06 -1.49659e-06 2.0294e-05
0.00268643 -0.000875664 -6.69074e-06
-0.000875664 0.000359864 -1.04489e-06
-6.69074e-06 -1.04489e-06 6.33126e-05
0.00261234 -0.000832701 1.55316e-06
-0.000832701 0.000240495 1.39963e-06
1.55316e-06 1.39963e-06 -1.09154e-05
0.00237735 -0.000809627 5.24903e-06
-0.000809627 -4.46933e-05 6.36636e-06
5.24903e-06 6.36636e-06 -0.000233841
0.00237566 -0.00102338 -8.72633e-06
-0.00102338 0.000243154 -6.72488e-06
-8.72633e-06 -6.72488e-06 -0.000245786
0.00237677 -0.00104749 -6.76325e-07
-0.00104749 0.000184493 -2.52801e-08
-6.76325e-07 -2.52801e-08 -0.000312642
0.00286155 -0.00118867 9.88619e-06
-0.00118867 0.000493446 4.52071e-06
9.88619e-06 4.52071e-06 -6.12262e-05
0.00211801 -0.00120774 -3.38846e-06
-0.00120774 0.000298982 -9.97513e-06
-3.38846e-06 -9.97513e-06 -0.000397368
0.00294515 -0.00139175 -1.84067e-06
-0.00139175 0.000793165 7.91825e-07
-1.84067e-06 7.91825e-07 5.60762e-05
0.0028623 -0.00149319 6.19079e-06
-0.00149319 0.000750938 3.61967e-06
6.19079e-06 3.61967e-06 -4.5932e-05
0.000507104 -0.000483707 -1.47097e-05
-0.000483707 -0.00034007 4.15594e-06
-1.47097e-05 4.15594e-06 -0.000786348
0.00229103 -0.00115984 -2.4552e-06
-0.00115984 0.000711149 2.48471e-06
-2.4552e-06 2.48471e-06 -4.61423e-05
0.00298459 -0.00157144 1.41612e-05
-0.00157144 0.00113768 9.80461e-06
1.41612e-05 9.80461e-06 0.000210927
0.000452003 -0.000264073 -2.63443e-05
-0.000264073 -0.000118365 2.84622e-05
-2.63443e-05 2.84622e-05 -0.000327006
0.00135455 -0.000564377 -1.07796e-05
-0.000564377 0.000423718 -2.63729e-06
-1.07796e-05 -2.63729e-06 1.97579e-05
-0.000433024 -0.000869776 -8.55478e-06
-0.000869776 -0.000631499 4.84002e-06
-8.55478e-06 4.84002e-06 -0.00132422
0.00840057 0.0001805 -0.000247992
0.0001805 0.00534327 2.26033e-05
-0.000247992 2.26033e-05 0.00532317
0.000851204 -0.000273802 -4.25705e-06
-0.000273802 0.000119263 -7.41517e-07
-4.25705e-06 -7.41517e-07 -4.95118e-05
7.90347e-06 -0.000607255 1.34069e-05
-0.000607255 -0.000195715 9.12969e-06
1.34069e-05 9.12969e-06 -0.000670508
0.00469951 0.000136129 0.000117447
0.000136129 0.00289735 -5.41982e-06
0.000117447 -5.41982e-06 0.00284411
0.000947419 -0.000246388 2.59607e-05
-0.000246388 0.000218958 -2.23504e-05
2.59607e-05 -2.23504e-05 5.79143e-05
0.00674354 9.85434e-05 0.000218401
9.85434e-05 0.00424424 -2.06453e-05
0.000218401 -2.06453e-05 0.00423913
0.000972777 0.000790567 -3.67244e-05
0.000790567 0.000119727 1.57557e-05
-3.67244e-05 1.57557e-05 -0.000548875
0.00161439 0.000570641 -1.03812e-05
0.000570641 0.000739485 -2.93983e-07
-1.03812e-05 -2.93983e-07 0.000217707
-0.000498221 0.000266859 1.52139e-05
0.000266859 -0.000665583 4.57089e-05
1.52139e-05 4.57089e-05 -0.00104688
0.0018061 0.00048232 1.39446e-07
0.00048232 0.000811663 -1.64443e-05
1.39446e-07 -1.64443e-05 0.000417805
0.00178947 0.000398659 4.80611e-06
0.000398659 0.000998905 -1.86808e-06
4.80611e-06 -1.86808e-06 0.000553744
0.00183297 0.000427021 1.7616e-06
0.000427021 0.00100661 -4.40395e-06
1.7616e-06 -4.40395e-06 0.000622541
0.0011551 0.00019529 -2.30063e-05
0.00019529 0.000474541 -2.69236e-05
-2.30063e-05 -2.69236e-05 0.000340267
0.000889348 0.000298243 -5.41005e-07
0.000298243 0.000432923 1.13968e-06
-5.41005e-07 1.13968e-06 9.20433e-05
-0.000813247 0.000104329 -2.10362e-05
0.000104329 -0.000539575 3.47339e-05
-2.10362e-05 3.47339e-05 -0.00106427
0.00381381 -8.30651e-05 -0.000106736
-8.30651e-05 0.00229719 -1.68454e-05
-0.000106736 -1.68454e-05 0.00229886
0.000455561 0.000116702 7.4938e-07
0.000116702 6.16675e-05 -7.07614e-07
7.4938e-07 -7.07614e-07 -4.01172e-05
0.000865179 0.000248659 -2.45741e-06
0.000248659 0.000408979 1.5464e-05
-2.45741e-06 1.5464e-05 0.00011585
0.00358106 -9.02152e-05 -1.02778e-05
-9.02152e-05 0.00214097 8.09383e-07
-1.02778e-05 8.09383e-07 0.00213841
0.000131293 9.59169e-06 5.2292e-06
9.59169e-06 -0.000150444 1.57466e-05
5.2292e-06 1.57466e-05 -0.000227089
0.00340671 -8.50376e-05 4.08931e-05
-8.50376e-05 0.00201825 9.95325e-06
4.08931e-05 9.95325e-06 0.00201511
0.00441372 -0.00551412 -0.00337935
-0.00551412 0.00679028 0.000319239
-0.00337935 0.000319239 0.000806995
0.00321558 -0.00499314 -0.000393342
-0.00499314 0.0115296 -9.16356e-05
-0.000393342 -9.16356e-05 -0.000835857
0.00667605 0.00199401 -0.000825241
0.00199401 0.00437556 -0.000208447
-0.000825241 -0.000208447 -0.000234434
0.00159048 0.000448081 1.61425e-05
0.000448081 0.000836387 1.41012e-05
1.61425e-05 1.41012e-05 0.000247685
0.0012111 0.000447052 1.69365e-05
0.000447052 0.000853652 -3.67833e-06
1.69365e-05 -3.67833e-06 8.39639e-05
0.0018702 0.00114401 -2.86319e-06
0.00114401 0.000871052 -1.63136e-06
-2.86319e-06 -1.63136e-06 1.00091e-05
0.00275389 0.00155618 8.53176e-07
0.00155618 0.00114782 1.95889e-05
8.53176e-07 1.95889e-05 0.000245657
0.00170187 0.00133626 -6.17303e-05
0.00133626 0.00108153 1.25477e-05
-6.17303e-05 1.25477e-05 4.07786e-05
0.00593424 0.00096828 1.60688e-05
0.00096828 0.00372197 1.44714e-05
1.60688e-05 1.44714e-05 0.00329759
0.00166925 0.000694901 3.58228e-05
0.000694901 0.00104278 3.03933e-05
3.58228e-05 3.03933e-05 0.000414668
0.00303268 0.00135834 -5.72094e-06
0.00135834 0.00186535 -3.41771e-07
-5.72094e-06 -3.41771e-07 0.000984537
0.00295442 0.00182094 -3.96219e-05
0.00182094 0.00125089 3.30495e-07
-3.96219e-05 3.30495e-07 0.000352053
0.00244285 0.00167942 -3.66574e-05
0.00167942 0.000908282 5.57223e-05
-3.66574e-05 5.57223e-05 0.000298618
0.00234022 0.00231255 4.46995e-05
0.00231255 0.00024471 -2.77266e-05
4.46995e-05 -2.77266e-05 -0.00044025
0.00148233 0.0014127 1.83407e-05
0.0014127 0.000630354 1.02675e-05
1.83407e-05 1.02675e-05 -3.7291e-05
0.00362547 0.00127883 -1.78457e-05
0.00127883 0.00248388 -9.65682e-07
-1.78457e-05 -9.65682e-07 0.00149773
0.0185761 0.00876297 -0.000252911
0.00876297 -0.00283685 0.000112085
-0.000252911 0.000112085 0.00102174
0.0201815 -0.00738433 -0.0010833
-0.00738433 0.0117035 -0.000140718
-0.0010833 -0.000140718 0.00193359
0.0137733 -0.0126923 0.00222231
-0.0126923 0.0237027 -0.000143104
0.00222231 -0.000143104 0.00753563
0.0310093 -0.00875647 0.000542972
-0.00875647 0.0156116 0.000176774
0.000542972 0.000176774 0.00197802
0.00704335 0.010681 -0.000381597
0.010681 0.00482559 -0.000181691
-0.000381597 -0.000181691 -0.000553834
0.00133622 0.00273899 8.49062e-05
0.00273899 0.0042076 7.0695e-05
8.49062e-05 7.0695e-05 0.00148752
0.00169761 0.00578441 -0.000214655
0.00578441 0.00137702 -0.000135665
-0.000214655 -0.000135665 0.00100466
0.00988 0.0126576 0.000162607
0.0126576 -0.00142677 0.000158587
0.000162607 0.000158587 -0.00153307
0.00836636 0.00902023 -0.000219261
0.00902023 -0.00111758 -0.000184541
-0.000219261 -0.000184541 0.000153897
0.00165949 0.00234046 3.84141e-06
0.00234046 2.401e-06 -3.91095e-05
3.84141e-06 -3.91095e-05 -0.000551071
0.00271943 0.00205543 1.87111e-05
0.00205543 0.00104897 6.75802e-06
1.87111e-05 6.75802e-06 0.000335874
0.00169863 0.00119987 1.5261e-05
0.00119987 0.000777567 -5.17383e-05
1.5261e-05 -5.17383e-05 0.000370648
0.0026015 0.00389713 -0.000101765
0.00389713 0.000947559 -7.33183e-05
-0.000101765 -7.33183e-05 -0.000765151
0.00576176 0.00499579 0.00012205
0.00499579 0.00110527 4.15976e-05
0.00012205 4.15976e-05 -0.000115165
0.00832348 -0.000117189 -1.80919e-05
-0.000117189 -0.00718854 -1.04825e-05
-1.80919e-05 -1.04825e-05 -0.00815085
0.00218061 -0.00301586 -5.51122e-05
-0.00301586 0.00925214 4.29168e-05
-5.51122e-05 4.29168e-05 0.000722282
-0.0114003 0.00019299 0.0022631
0.00019299 0.00833395 5.5648e-05
0.0022631 5.5648e-05 0.00303326
0.00432346 -0.0061022 -0.000250287
-0.0061022 0.00133042 0.000158822
-0.000250287 0.000158822 -0.000715682
0.00718886 -0.00885288 -7.30949e-05
-0.00885288 -0.00108156 0.000158003
-7.30949e-05 0.000158003 0.000692572
0.0123274 0.00480068 0.00311974
0.00480068 0.0093526 -0.000197001
0.00311974 -0.000197001 0.00302613
0.011738 -0.00752484 -0.000506509
-0.00752484 -0.00686219 0.000376973
-0.000506509 0.000376973 -0.00175847
0.00359715 -0.00402902 -3.70406e-05
-0.00402902 -0.000474468 1.65746e-05
-3.70406e-05 1.65746e-05 -0.000288636
0.0134254 -0.00169618 -0.00049017
-0.00169618 -0.0058388 0.000183997
-0.00049017 0.000183997 -0.0037175
0.00772473 -0.00584825 0.0001152
-0.00584825 -0.00309567 -1.48014e-05
0.0001152 -1.48014e-05 0.000587166
0.0038159 -0.00302105 7.44013e-05
-0.00302105 -0.00160601 -8.88335e-05
7.44013e-05 -8.88335e-05 -0.000220919
0.00451127 -0.00240625 0.000188705
-0.00240625 -0.00484954 -6.69022e-05
0.000188705 -6.69022e-05 0.000183238
0.000449906 -0.00170884 5.08481e-06
-0.00170884 -0.000873284 2.55979e-05
5.08481e-06 2.55979e-05 -0.0011816
0.00258164 -0.00166974 -3.60648e-05
-0.00166974 -0.000247214 1.2078e-05
-3.60648e-05 1.2078e-05 -0.000189053
0.00479469 -0.0014793 5.24057e-05
-0.0014793 0.000881623 -3.05731e-05
5.24057e-05 -3.05731e-05 0.0010756
0.00147421 -0.00163778 -3.31515e-06
-0.00163778 -0.000325693 1.01711e-05
-3.31515e-06 1.01711e-05 -0.000799924
0.00319524 -0.00147237 -5.98555e-06
-0.00147237 0.000205344 2.32452e-06
-5.98555e-06 2.32452e-06 6.80695e-05
0.00318175 -0.00107116 2.53983e-06
-0.00107116 -2.14705e-05 -1.31947e-06
2.53983e-06 -1.31947e-06 0.000130404
0.00306162 -0.00144133 -1.23053e-05
-0.00144133 0.000338841 9.91454e-06
-1.23053e-05 9.91454e-06 -2.66852e-05
0.00277965 -0.000990452 -3.75702e-07
-0.000990452 -8.50733e-05 1.19511e-06
-3.75702e-07 1.19511e-06 -3.56415e-05
0.00289004 -0.000938438 -1.94123e-06
-0.000938438 -2.67646e-05 -4.86037e-07
-1.94123e-06 -4.86037e-07 3.68327e-05
0.0025197 -0.000886393 3.76953e-06
-0.000886393 -7.31311e-05 5.5212e-06
3.76953e-06 5.5212e-06 -0.00017459
0.00273411 -0.000946991 -2.04196e-07
-0.000946991 5.78314e-05 5.26252e-07
-2.04196e-07 5.26252e-07 3.14457e-06
0.00281368 -0.000906044 -2.4781e-06
-0.000906044 4.58523e-05 -6.98749e-07
-2.4781e-06 -6.98749e-07 9.53473e-06
0.0026648 -0.000917889 -5.10579e-06
-0.000917889 9.4355e-05 4.78621e-07
-5.10579e-06 4.78621e-07 -2.4752e-05
0.00263191 -0.000862802 -1.12843e-06
-0.000862802 0.000125027 -1.22048e-06
-1.12843e-06 -1.22048e-06 -6.70599e-06
0.00256762 -0.000907051 5.94144e-07
-0.000907051 8.87956e-05 3.95384e-06
5.94144e-07 3.95384e-06 -2.62952e-05
0.00258062 -0.000871848 8.42368e-07
-0.000871848 0.000203003 -6.0251e-07
8.42368e-07 -6.0251e-07 3.03195e-05
0.00255484 -0.000853563 -2.40851e-06
-0.000853563 0.000266307 5.60478e-09
-2.40851e-06 5.60478e-09 3.3455e-05
0.0026093 -0.00089753 -1.33267e-06
-0.00089753 0.000381136 -4.12907e-06
-1.33267e-06 -4.12907e-06 2.87905e-05
0.00271498 -0.000871196 -2.6643e-07
-0.000871196 0.000379225 -3.1803e-07
-2.6643e-07 -3.1803e-07 7.59496e-05
0.00275893 -0.000830193 8.82774e-06
-0.000830193 0.000357957 2.33932e-06
8.82774e-06 2.33932e-06 0.000101937
0.00239913 -0.00105212 -2.60139e-08
-0.00105212 0.000370468 -6.4135e-06
-2.60139e-08 -6.4135e-06 -0.000187255
0.0024529 -0.00104972 -3.52786e-06
-0.00104972 0.000283048 -7.92841e-07
-3.52786e-06 -7.92841e-07 -0.000218922
0.00240719 -0.00106734 8.4104e-06
-0.00106734 0.000195394 3.59418e-06
8.4104e-06 3.59418e-06 -0.000308468
0.0012702 -0.000709927 -1.86692e-05
-0.000709927 3.23791e-05 5.64734e-07
-1.86692e-05 5.64734e-07 -0.000500052
0.00258643 -0.00126157 -1.78546e-06
-0.00126157 0.000634259 -3.31374e-07
-1.78546e-06 -3.31374e-07 -7.84298e-05
0.00310099 -0.0014297 9.87443e-06
-0.0014297 0.000855591 7.22664e-06
9.87443e-06 7.22664e-06 0.000105285
0.000186948 -0.000295302 -1.71038e-05
-0.000295302 -0.000301867 3.08786e-05
-1.71038e-05 3.08786e-05 -0.00054674
0.000973589 -0.000539545 4.54429e-06
-0.000539545 -7.85997e-06 9.87506e-07
4.54429e-06 9.87506e-07 -0.000475864
0.00276777 -0.00120803 -1.12765e-06
-0.00120803 0.00102505 1.40092e-05
-1.12765e-06 1.40092e-05 0.000263675
0.0083166 -8.34715e-06 -0.000321384
-8.34715e-06 0.00523725 3.13295e-05
-0.000321384 3.13295e-05 0.00525006
0.000340329 -0.000303637 -8.76852e-06
-0.000303637 -0.000194995 5.40877e-07
-8.76852e-06 5.40877e-07 -0.00040916
0.00133015 -0.000650089 6.43986e-06
-0.000650089 0.000493593 6.3554e-06
6.43986e-06 6.3554e-06 2.36487e-05
0.00782833 9.8228e-05 1.22745e-05
9.8228e-05 0.00495044 -4.37113e-06
1.22745e-05 -4.37113e-06 0.00494429
0.000852344 -0.000313908 3.39854e-05
-0.000313908 0.000122664 -2.61259e-05
3.39854e-05 -2.61259e-05 -5.43529e-05
0.00730023 0.000152539 0.000219934
0.000152539 0.00462319 -2.84743e-05
0.000219934 -2.84743e-05 0.00460463
0.00389196 0.00154114 -1.56325e-05
0.00154114 0.00187266 1.64643e-05
-1.56325e-05 1.64643e-05 0.000982457
0.00240186 0.00103622 -1.39743e-06
0.00103622 0.00111253 1.96107e-06
-1.39743e-06 1.96107e-06 0.000363213
-0.000891797 0.0005148 -1.37575e-05
0.0005148 -0.000883399 2.74205e-05
-1.37575e-05 2.74205e-05 -0.00148507
0.000441617 0.000394731 7.25215e-06
0.000394731 2.15059e-05 -1.19154e-05
7.25215e-06 -1.19154e-05 -0.000475415
-0.00025119 0.000481294 2.72481e-07
0.000481294 -0.000457452 -1.11386e-05
2.72481e-07 -1.11386e-05 -0.000874508
-0.00103905 0.000643251 8.65775e-07
0.000643251 -0.000975439 1.09659e-05
8.65775e-07 1.09659e-05 -0.0013835
0.000569405 0.000205834 -2.1822e-05
0.000205834 0.000204867 -1.65556e-05
-2.1822e-05 -1.65556e-05 -0.000255256
0.000524828 0.000518218 2.16689e-06
0.000518218 0.000152495 3.50172e-08
2.16689e-06 3.50172e-08 -0.000249413
0.0010174 0.000302309 -3.98039e-05
0.000302309 0.000290677 -2.89091e-05
-3.98039e-05 -2.89091e-05 0.000134527
0.0056172 -0.000138018 -0.000158615
-0.000138018 0.00353539 -2.90675e-05
-0.000158615 -2.90675e-05 0.00351928
0.000404217 0.000139392 4.45817e-06
0.000139392 9.91645e-06 -7.51856e-07
4.45817e-06 -7.51856e-07 -0.000131809
-0.000150596 0.000178367 -4.28438e-06
0.000178367 -0.000194448 2.04567e-05
-4.28438e-06 2.04567e-05 -0.00056787
0.00454804 -0.000143867 -1.76222e-05
-0.000143867 0.0028074 2.16039e-06
-1.76222e-05 2.16039e-06 0.00279264
-0.000150053 -5.44304e-05 -1.35955e-05
-5.44304e-05 -0.000300674 1.94567e-05
-1.35955e-05 1.94567e-05 -0.00041894
0.00385659 -0.000112013 5.51338e-05
-0.000112013 0.00233062 1.20524e-05
5.51338e-05 1.20524e-05 0.00232225
0.0159119 0.00135589 0.000952559
0.00135589 -0.0030707 0.000180338
0.000952559 0.000180338 0.000876434
0.0074645 -0.0111879 -0.00185827
-0.0111879 0.00578747 0.00016258
-0.00185827 0.00016258 -0.00697947
0.000667498 -0.00239985 -0.000362506
-0.00239985 0.0105168 -5.73121e-05
-0.000362506 -5.73121e-05 0.000211593
-7.5564e-05 0.000209183 1.16798e-05
0.000209183 4.51637e-05 -4.95426e-06
1.16798e-05 -4.95426e-06 -0.000749453
0.00190965 0.00117756 3.56538e-05
0.00117756 0.000922109 -2.03108e-05
3.56538e-05 -2.03108e-05 2.71382e-05
0.00268057 0.00139797 -9.7195e-06
0.00139797 0.0014902 -1.21968e-05
-9.7195e-06 -1.21968e-05 0.000552216
0.00233493 0.0015229 -4.19418e-06
0.0015229 0.000904754 -7.53067e-07
-4.19418e-06 -7.53067e-07 -5.11452e-06
0.00231254 0.00139742 2.03972e-05
0.00139742 0.000602435 2.68097e-05
2.03972e-05 2.68097e-05 -0.000151381
0.00176984 0.0016994 -2.68862e-05
0.0016994 0.000482396 1.38908e-05
-2.68862e-05 1.38908e-05 -0.000361362
0.0031356 0.00129004 2.05184e-06
0.00129004 0.00179381 -1.33089e-05
2.05184e-06 -1.33089e-05 0.00094019
0.0024865 0.00178096 4.50146e-06
0.00178096 0.000938621 3.90307e-06
4.50146e-06 3.90307e-06 5.62416e-05
0.00342837 0.00170761 3.78088e-05
0.00170761 0.00166167 1.19656e-05
3.78088e-05 1.19656e-05 0.000843729
0.00339186 0.00173508 -4.50906e-09
0.00173508 0.00134006 1.07907e-05
-4.50906e-09 1.07907e-05 0.000505758
0.00103372 0.00162279 -4.92505e-06
0.00162279 -0.000170282 1.4583e-06
-4.92505e-06 1.4583e-06 -0.000779039
0.00532151 0.00258414 1.67495e-05
0.00258414 0.00186126 3.01545e-05
1.67495e-05 3.01545e-05 0.000942901
0.00306162 0.00231855 1.81977e-05
0.00231855 0.000728278 4.02244e-06
1.81977e-05 4.02244e-06 2.31382e-05
0.00215887 0.00139461 -3.53244e-05
0.00139461 0.0009628 -0.000112215
-3.53244e-05 -0.000112215 0.000298813
0.00619314 0.00482661 4.84907e-05
0.00482661 -0.00530024 0.000111962
4.84907e-05 0.000111962 0.000401398
0.0127604 0.010161 0.000731035
0.010161 -0.00723322 0.000326194
0.000731035 0.000326194 -0.00303988
0.0235177 -0.0117956 0.00181512
-0.0117956 0.0152469 -0.000766902
0.00181512 -0.000766902 0.00176932
0.0021876 0.0155146 0.00179504
0.0155146 -0.00499031 0.000556741
0.00179504 0.000556741 -0.00502224
-0.000856717 0.00449831 7.21946e-06
0.00449831 0.000703821 4.96394e-05
7.21946e-06 4.96394e-05 0.000222703
0.0034471 0.0055528 -0.000165293
0.0055528 -0.00202753 -0.000144201
-0.000165293 -0.000144201 0.000156465
0.00781407 0.00448881 4.8568e-05
0.00448881 0.000792473 2.32647e-05
4.8568e-05 2.32647e-05 0.000684743
0.00598517 0.00328942 1.62451e-05
0.00328942 0.0019832 1.20472e-05
1.62451e-05 1.20472e-05 0.00113124
0.00164855 0.00182958 -1.14869e-06
0.00182958 0.000476809 -4.00977e-05
-1.14869e-06 -4.00977e-05 -0.000181168
0.00893165 0.00532127 -0.000148293
0.00532127 0.00248212 0.000102694
-0.000148293 0.000102694 0.00102145
0.00665853 -0.000980895 0.000291924
-0.000980895 -0.00473282 8.91454e-05
0.000291924 8.91454e-05 0.000408488
0.0175301 -0.000314678 6.4225e-05
-0.000314678 -0.00277018 -6.53982e-05
6.4225e-05 -6.53982e-05 0.000326137
-0.00563532 -0.00534508 0.00258939
-0.00534508 0.00520244 -0.000239508
0.00258939 -0.000239508 -0.00735665
0.00402655 -0.00399595 -0.000183233
-0.00399595 -0.000240648 0.00010241
-0.000183233 0.00010241 2.13103e-05
0.00742648 -0.00592448 -0.000207192
-0.00592448 -0.00355508 0.000223837
-0.000207192 0.000223837 0.000645155
0.00252853 -0.00132394 -0.000601931
-0.00132394 -0.0143917 7.25184e-05
-0.000601931 7.25184e-05 -0.00986109
0.00436096 -0.00294235 5.97356e-05
-0.00294235 -0.00122247 -2.50889e-06
5.97356e-05 -2.50889e-06 0.000242463
0.00514888 -0.0023922 -0.000118272
-0.0023922 -0.00412967 3.40419e-05
-0.000118272 3.40419e-05 -0.000111033
0.00560372 -0.00194721 6.82456e-05
-0.00194721 -0.000207814 -7.32735e-05
6.82456e-05 -7.32735e-05 0.00104074
0.0101484 -0.00165116 0.000215248
-0.00165116 0.00153007 2.77338e-06
0.000215248 2.77338e-06 0.00345466
-0.00125781 -0.00125601 5.0624e-05
-0.00125601 -0.00271628 1.76948e-05
5.0624e-05 1.76948e-05 -0.00209527
0.00286218 -0.00129045 -1.81349e-05
-0.00129045 -0.00036616 2.7082e-06
-1.81349e-05 2.7082e-06 0.000108046
0.00305942 -0.000886826 3.34216e-05
-0.000886826 -0.00032843 -1.806e-05
3.34216e-05 -1.806e-05 0.000173204
0.00263492 -0.0014404 -1.3781e-06
-0.0014404 -0.000125983 3.76176e-06
-1.3781e-06 3.76176e-06 -0.000247238
0.00314346 -0.00106936 2.8315e-07
-0.00106936 -3.8613e-05 7.76894e-07
2.8315e-07 7.76894e-07 0.000117
0.00300826 -0.000871576 -2.0158e-06
-0.000871576 -0.000129871 -7.5246e-07
-2.0158e-06 -7.5246e-07 -3.30665e-07
0.0027252 -0.000987597 7.89473e-07
-0.000987597 -0.000119699 3.23594e-06
7.89473e-07 3.23594e-06 -7.38923e-05
0.00286324 -0.000936741 -9.50287e-08
-0.000936741 -3.52503e-05 1.50794e-07
-9.50287e-08 1.50794e-07 1.99013e-05
0.00277595 -0.000778547 -2.3542e-06
-0.000778547 -7.49887e-05 -5.23025e-07
-2.3542e-06 -5.23025e-07 -2.94613e-05
0.00273536 -0.000940021 1.85454e-06
-0.000940021 6.9643e-05 1.66729e-06
1.85454e-06 1.66729e-06 1.48838e-05
0.00280191 -0.000907133 -2.23856e-07
-0.000907133 6.31984e-05 -3.03313e-07
-2.23856e-07 -3.03313e-07 1.83706e-05
0.00272263 -0.000779783 1.00081e-06
-0.000779783 8.83963e-05 -1.38881e-06
1.00081e-06 -1.38881e-06 3.54214e-05
0.00261946 -0.000917029 -1.55389e-06
-0.000917029 5.96362e-05 1.85811e-06
-1.55389e-06 1.85811e-06 -4.88985e-05
0.0026024 -0.0008675 -1.38787e-06
-0.0008675 9.60731e-05 3.71858e-07
-1.38787e-06 3.71858e-07 -3.14929e-05
0.00256864 -0.00079925 -1.43305e-06
-0.00079925 0.000187332 -2.87743e-07
-1.43305e-06 -2.87743e-07 1.83396e-05
0.00258563 -0.000870909 3.37216e-06
-0.000870909 0.000203274 1.18156e-06
3.37216e-06 1.18156e-06 3.82769e-05
0.00253946 -0.000845802 4.25016e-07
-0.000845802 0.000251945 -3.30687e-07
4.25016e-07 -3.30687e-07 2.55822e-05
0.00251616 -0.000842103 -1.14581e-06
-0.000842103 0.00028445 -5.60946e-07
-1.14581e-06 -5.60946e-07 -3.14973e-06
0.00229328 -0.000853654 3.3077e-06
-0.000853654 0.000263261 -8.1076e-06
3.3077e-06 -8.1076e-06 -0.000141667
0.00253281 -0.000892793 2.0989e-07
-0.000892793 0.000325234 -1.57957e-06
2.0989e-07 -1.57957e-06 -3.79679e-05
0.00273914 -0.000867446 5.84357e-06
-0.000867446 0.000396073 6.8947e-07
5.84357e-06 6.8947e-07 8.55728e-05
0.00147205 -0.000721993 -1.93356e-05
-0.000721993 7.03601e-06 4.45694e-07
-1.93356e-05 4.45694e-07 -0.000470082
0.00263346 -0.00106297 -5.77791e-07
-0.00106297 0.000547872 5.3781e-07
-5.77791e-07 5.3781e-07 -9.91634e-06
0.00253259 -0.00107762 2.41849e-06
-0.00107762 0.000323575 4.91154e-06
2.41849e-06 4.91154e-06 -0.000192192
6.82441e-05 -0.000312799 -1.98525e-05
-0.000312799 -0.000416665 3.08106e-05
-1.98525e-05 3.08106e-05 -0.000670497
0.00128467 -0.000699975 1.58962e-06
-0.000699975 6.74098e-05 1.66522e-06
1.58962e-06 1.66522e-06 -0.000464838
0.00313174 -0.00131794 2.21983e-07
-0.00131794 0.00103241 9.41898e-06
2.21983e-07 9.41898e-06 0.000303183
0.0095064 -0.000127301 -0.000403423
-0.000127301 0.00597731 4.41491e-05
-0.000403423 4.41491e-05 0.00599714
-3.27336e-07 -0.000303677 2.92535e-06
-0.000303677 -0.000416187 1.05143e-06
2.92535e-06 1.05143e-06 -0.000667075
0.00141272 -0.000582501 1.5544e-05
-0.000582501 0.000310843 4.03961e-06
1.5544e-05 4.03961e-06 -0.000179353
0.00893983 -2.85522e-05 -2.78899e-05
-2.85522e-05 0.00566287 -6.99346e-07
-2.78899e-05 -6.99346e-07 0.00566688
0.000373817 -0.000298442 1.74996e-05
-0.000298442 -0.00017458 -3.22008e-05
1.74996e-05 -3.22008e-05 -0.000395124
0.00818427 5.62537e-05 0.000317803
5.62537e-05 0.00521508 -4.77113e-05
0.000317803 -4.77113e-05 0.00520584
0.00246102 0.0012663 -1.30854e-05
0.0012663 0.000640381 1.81777e-05
-1.30854e-05 1.81777e-05 -7.47176e-05
0.00289336 0.00138635 3.31563e-06
0.00138635 0.00124852 5.9016e-07
3.31563e-06 5.9016e-07 0.000406842
0.00276822 0.00115083 5.91775e-06
0.00115083 0.00113034 1.90759e-05
5.91775e-06 1.90759e-05 0.000385123
0.00151038 0.000974581 3.64446e-05
0.000974581 0.000579859 -1.42872e-05
3.64446e-05 -1.42872e-05 -0.000176019
0.00125488 0.000663068 -1.88575e-07
0.000663068 0.000316171 -2.34095e-06
-1.88575e-07 -2.34095e-06 -0.000266417
-7.95713e-05 0.000462154 -5.2313e-06
0.000462154 -0.000331738 6.17599e-06
-5.2313e-06 6.17599e-06 -0.000853521
0.00349442 0.000458416 -2.48911e-06
0.000458416 0.00190907 -2.9157e-05
-2.48911e-06 -2.9157e-05 0.00147937
0.001666 0.00040988 8.08046e-06
0.00040988 0.000753851 -4.17266e-06
8.08046e-06 -4.17266e-06 0.000383568
0.000239323 0.000314269 -3.8089e-05
0.000314269 -0.00025829 -3.17597e-05
-3.8089e-05 -3.17597e-05 -0.000439539
0.00126817 0.000331946 -5.79384e-06
0.000331946 0.000633222 1.06956e-05
-5.79384e-06 1.06956e-05 0.000252264
0.000588725 0.000282702 -7.36029e-06
0.000282702 4.23606e-05 -7.96215e-07
-7.36029e-06 -7.96215e-07 -0.000112549
0.00698406 -0.000165326 -0.000218571
-0.000165326 0.00447201 -4.1836e-05
-0.000218571 -4.1836e-05 0.00443654
0.00488744 -0.000168163 -2.87718e-05
-0.000168163 0.00305367 3.36722e-06
-2.87718e-05 3.36722e-06 0.00302802
-4.74956e-06 0.000228659 3.2655e-05
0.000228659 -0.00026362 2.70755e-05
3.2655e-05 2.70755e-05 -0.000389688
0.00374966 -0.000124736 6.78288e-05
-0.000124736 0.00226922 1.29651e-05
6.78288e-05 1.29651e-05 0.00225739
0.00188453 0.00148887 0.000227445
0.00148887 -0.00499904 8.01645e-05
0.000227445 8.01645e-05 -0.000320171
0.00362532 0.00100749 0.000326382
0.00100749 -0.011098 0.000215461
0.000326382 0.000215461 -0.00985905
0.0222298 -0.0126038 -0.000450693
-0.0126038 0.0184672 -0.000206731
-0.000450693 -0.000206731 0.00294975
0.0023252 0.00113527 1.23734e-05
0.00113527 0.000326748 1.47348e-05
1.23734e-05 1.47348e-05 -0.00020762
0.00298742 0.00137289 3.21485e-05
0.00137289 0.00152046 -1.10717e-05
3.21485e-05 -1.10717e-05 0.000642465
0.0017888 0.00148189 1.17821e-05
0.00148189 0.000563636 -2.16789e-05
1.17821e-05 -2.16789e-05 -0.000350018
0.00262515 0.00180339 3.91842e-06
0.00180339 0.000983613 2.43357e-06
3.91842e-06 2.43357e-06 9.81257e-05
0.00258181 0.0014441 1.26903e-06
0.0014441 0.000770099 3.79025e-06
1.26903e-06 3.79025e-06 -1.74911e-06
0.00293231 0.00158995 4.08265e-06
0.00158995 0.0008733 1.54243e-05
4.08265e-06 1.54243e-05 0.00011539
0.00164857 0.00165428 1.98724e-05
0.00165428 0.000430712 2.54309e-07
1.98724e-05 2.54309e-07 -0.000422631
0.00166256 0.00139119 3.23606e-05
0.00139119 0.00071135 -5.54414e-05
3.23606e-05 -5.54414e-05 -4.95373e-05
0.00259375 0.00174086 7.00026e-07
0.00174086 0.000780898 -1.29494e-06
7.00026e-07 -1.29494e-06 -1.68942e-05
0.000386941 0.00160472 1.11894e-05
0.00160472 -0.000621943 -3.33099e-05
1.11894e-05 -3.33099e-05 -0.00112362
0.00282117 0.0015779 8.35276e-06
0.0015779 0.00074179 1.37224e-06
8.35276e-06 1.37224e-06 -2.48417e-05
0.00413458 0.0016224 7.87015e-05
0.0016224 0.00111499 0.000106592
7.87015e-05 0.000106592 0.000909445
0.00197065 0.00192259 -1.83528e-05
0.00192259 0.000160792 -2.20818e-05
-1.83528e-05 -2.20818e-05 -0.000481515
0.00231133 0.00205746 -2.63733e-05
0.00205746 0.000422775 -6.47606e-06
-2.63733e-05 -6.47606e-06 -0.000179046
0.00241213 0.00214148 1.58968e-05
0.00214148 -0.00297691 7.17383e-05
1.58968e-05 7.17383e-05 -0.000668061
0.00655449 0.00519768 -0.000202438
0.00519768 -0.00503983 -9.95084e-05
-0.000202438 -9.95084e-05 0.000756116
0.00297629 0.00780116 0.00136002
0.00780116 -0.0144237 0.000411525
0.00136002 0.000411525 -0.0098533
0.00178213 0.00528531 -0.000272561
0.00528531 -0.00199461 -0.000158319
-0.000272561 -0.000158319 -0.000161599
0.00590185 0.00363196 -2.41183e-05
0.00363196 0.000258969 -1.56633e-05
-2.41183e-05 -1.56633e-05 0.000538026
0.00936129 0.00398143 -0.000255994
0.00398143 0.00346614 -9.09421e-05
-0.000255994 -9.09421e-05 0.00243953
0.00622082 0.00013941 -2.5482e-05
0.00013941 -0.00140956 -2.29768e-05
-2.5482e-05 -2.29768e-05 0.000540636
0.00311697 -0.000212372 7.31662e-05
-0.000212372 -0.00428233 2.88071e-05
7.31662e-05 2.88071e-05 -0.000288641
0.0109791 -0.000293508 0.000149557
-0.000293508 -0.00686311 -3.87536e-05
0.000149557 -3.87536e-05 -0.00724542
0.00409123 -0.00278777 -9.64962e-05
-0.00278777 -0.00121179 0.000150367
-9.64962e-05 0.000150367 0.000186696
0.00403815 -0.00240963 -0.000259198
-0.00240963 -0.00538528 0.000127757
-0.000259198 0.000127757 -0.00148865
0.00423191 -0.00175334 1.73102e-06
-0.00175334 -0.000897206 1.13597e-05
1.73102e-06 1.13597e-05 0.000425086
0.00521301 -0.00126107 -9.77261e-05
-0.00126107 -0.00104028 3.0754e-06
-9.77261e-05 3.0754e-06 0.000739479
0.00393839 -0.000793199 0.000130799
-0.000793199 1.95979e-05 -3.62588e-05
0.000130799 -3.62588e-05 0.00059738
0.003453 -0.000185928 8.10461e-05
-0.000185928 -0.000297515 -8.22992e-06
8.10461e-05 -8.22992e-06 0.000339439
0.00130709 -0.00109313 -1.79199e-05
-0.00109313 -0.0012676 2.14111e-05
-1.79199e-05 2.14111e-05 -0.000594801
0.00298697 -0.00091375 -6.2345e-06
-0.00091375 -0.000336472 1.74022e-06
-6.2345e-06 1.74022e-06 0.000100091
0.00301045 -0.0006467 4.06034e-06
-0.0006467 -0.00026674 -3.11382e-06
4.06034e-06 -3.11382e-06 7.24886e-05
0.00308471 -0.00106452 -1.49621e-06
-0.00106452 -6.16334e-05 1.69334e-06
-1.49621e-06 1.69334e-06 9.50868e-05
0.0030027 -0.000845254 -3.46551e-07
-0.000845254 -9.10495e-05 -3.06045e-07
-3.46551e-07 -3.06045e-07 4.59609e-05
0.0027647 -0.000627111 -2.28556e-06
-0.000627111 -0.000213095 -4.2548e-08
-2.28556e-06 -4.2548e-08 -4.06164e-05
0.00283055 -0.000933089 6.66296e-07
-0.000933089 -4.30661e-05 6.53785e-07
6.66296e-07 6.53785e-07 2.5267e-06
0.0027542 -0.000780255 -4.74404e-07
-0.000780255 -7.42097e-05 -1.23196e-08
-4.74404e-07 -1.23196e-08 -2.60664e-05
0.00265294 -0.000643805 4.21413e-07
-0.000643805 -1.16871e-05 -7.25335e-07
4.21413e-07 -7.25335e-07 3.44209e-06
0.00278974 -0.000906998 8.13835e-07
-0.000906998 8.21303e-05 1.19389e-06
8.13835e-07 1.19389e-06 2.81428e-05
0.00272008 -0.000779993 9.4984e-07
-0.000779993 8.36549e-05 -7.76962e-08
9.4984e-07 -7.76962e-08 2.98566e-05
0.0025455 -0.00069268 7.38537e-07
-0.00069268 9.53804e-05 -6.08014e-07
7.38537e-07 -6.08014e-07 6.23118e-06
0.00257555 -0.000872747 -9.2762e-07
-0.000872747 6.9144e-05 2.14604e-06
-9.2762e-07 2.14604e-06 -5.47209e-05
0.00252548 -0.000802171 -9.57688e-07
-0.000802171 0.000144921 3.34004e-07
-9.57688e-07 3.34004e-07 -1.78277e-05
0.00250635 -0.000764369 -2.06936e-06
-0.000764369 0.000213649 -2.31963e-07
-2.06936e-06 -2.31963e-07 3.58269e-06
0.00252942 -0.000838363 3.43744e-06
-0.000838363 0.00024065 -2.03096e-07
3.43744e-06 -2.03096e-07 2.10538e-05
0.00252276 -0.000842376 5.59573e-08
-0.000842376 0.000286601 6.78449e-07
5.59573e-08 6.78449e-07 3.04925e-06
0.00249678 -0.000788855 -5.02278e-07
-0.000788855 0.000370932 -4.08779e-06
-5.02278e-07 -4.08779e-06 3.43822e-05
0.00186763 -0.00065242 -1.95892e-05
-0.00065242 0.000228137 3.78497e-06
-1.95892e-05 3.78497e-06 -0.000172516
0.00239642 -0.000864584 3.38979e-07
-0.000864584 0.000342993 -1.90897e-06
3.38979e-07 -1.90897e-06 -7.26635e-05
0.00245951 -0.000887735 -2.82534e-07
-0.000887735 0.000269583 3.43733e-06
-2.82534e-07 3.43733e-06 -0.000104179
7.38381e-05 -0.000359322 -1.92282e-05
-0.000359322 -0.000444003 2.71172e-05
-1.92282e-05 2.71172e-05 -0.000711194
0.00177593 -0.000737647 -1.47991e-06
-0.000737647 0.000213566 1.70961e-07
-1.47991e-06 1.70961e-07 -0.000261654
0.0028132 -0.00107081 -3.55122e-06
-0.00107081 0.000683269 8.58916e-06
-3.55122e-06 8.58916e-06 0.000125715
0.0101898 -0.000190527 -0.000465006
-0.000190527 0.00639464 5.25814e-05
-0.000465006 5.25814e-05 0.00642221
4.24592e-05 -0.000359086 -8.36269e-07
-0.000359086 -0.000412586 1.45049e-06
-8.36269e-07 1.45049e-06 -0.000685952
0.00176379 -0.000739562 2.25955e-05
-0.000739562 0.000384978 1.06486e-06
2.25955e-05 1.06486e-06 -0.000150278
0.00971275 -0.000155032 -7.6748e-06
-0.000155032 0.00611615 1.95755e-06
-7.6748e-06 1.95755e-06 0.00613689
-0.000265534 -0.00035041 2.3305e-05
-0.00035041 -0.000578603 -3.41455e-05
2.3305e-05 -3.41455e-05 -0.000837396
0.00919691 -6.07868e-05 0.00038916
-6.07868e-05 0.00582784 -5.56961e-05
0.00038916 -5.56961e-05 0.00583484
0.00227529 0.00106773 -4.28264e-06
0.00106773 0.000331198 1.46377e-05
-4.28264e-06 1.46377e-05 -0.000208942
0.00251468 0.00124616 -1.60293e-06
0.00124616 0.000714665 2.37606e-06
-1.60293e-06 2.37606e-06 9.32947e-06
0.00283485 0.00121046 2.70279e-05
0.00121046 0.000912524 2.3787e-05
2.70279e-05 2.3787e-05 0.000215014
0.00220395 0.0012616 6.73935e-06
0.0012616 0.000849396 -1.84859e-05
6.73935e-06 -1.84859e-05 4.47386e-05
0.00271731 0.00114987 6.90582e-06
0.00114987 0.00108011 3.01291e-06
6.90582e-06 3.01291e-06 0.000337897
0.000781311 0.000528939 -4.12242e-05
0.000528939 -0.000102186 3.41505e-06
-4.12242e-05 3.41505e-06 -0.000614138
0.00258557 0.000815955 4.61407e-06
0.000815955 0.00113755 -1.49391e-05
4.61407e-06 -1.49391e-05 0.00051744
0.000755112 0.00043333 9.39366e-07
0.00043333 8.84347e-05 -1.11073e-06
9.39366e-07 -1.11073e-06 -0.00034942
0.000182938 0.000313567 -3.90729e-05
0.000313567 -0.000319902 -3.41628e-05
-3.90729e-05 -3.41628e-05 -0.000510057
0.00156425 0.000536825 -5.85601e-07
0.000536825 0.000681518 -1.50421e-05
-5.85601e-07 -1.50421e-05 0.00030118
0.000710414 0.000326971 6.53968e-06
0.000326971 3.62306e-05 -1.53668e-06
6.53968e-06 -1.53668e-06 -0.000133467
0.00869828 -0.000256949 -0.00024813
-0.000256949 0.00564076 -4.92594e-05
-0.00024813 -4.92594e-05 0.00557419
0.000389713 0.000266225 3.47735e-05
0.000266225 -6.24176e-05 3.18279e-05
3.47735e-05 3.18279e-05 -0.000222976
0.00676109 -0.000238861 -2.4325e-05
-0.000238861 0.00434368 2.24506e-06
-2.4325e-05 2.24506e-06 0.00429195
0.00508334 -0.000206438 8.18165e-05
-0.000206438 0.00319692 1.91149e-05
8.18165e-05 1.91149e-05 0.00316087
0.000600901 0.00115586 4.4298e-05
0.00115586 -0.0045851 7.44521e-05
4.4298e-05 7.44521e-05 -0.00148977
0.00629625 0.00157364 8.0244e-05
0.00157364 -0.00427075 3.26354e-05
8.0244e-05 3.26354e-05 0.000926609
0.018261 0.00146065 2.51021e-05
0.00146065 -0.00267139 0.000225583
2.51021e-05 0.000225583 0.00152086
0.00265077 0.00126679 -1.8035e-06
0.00126679 0.000432443 5.60425e-06
-1.8035e-06 5.60425e-06 -0.00010699
0.00280257 0.00117863 3.11286e-06
0.00117863 0.000360401 4.49463e-06
3.11286e-06 4.49463e-06 -3.24324e-05
0.00243675 0.00115619 -1.01366e-06
0.00115619 0.000397753 -4.00873e-06
-1.01366e-06 -4.00873e-06 -0.000135804
0.00339233 0.00188418 3.44289e-05
0.00188418 0.00143693 -5.28226e-06
3.44289e-05 -5.28226e-06 0.000523779
0.00275056 0.00147271 -9.1826e-06
0.00147271 0.000873006 -1.67064e-05
-9.1826e-06 -1.67064e-05 9.01812e-05
0.00306311 0.00165006 8.66967e-06
0.00165006 0.000902993 2.63861e-06
8.66967e-06 2.63861e-06 0.000131948
0.00355341 0.00152075 -1.79953e-05
0.00152075 0.000671977 -2.2398e-06
-1.79953e-05 -2.2398e-06 0.000207793
0.00239011 0.00181481 1.75628e-05
0.00181481 0.000589294 -8.19597e-06
1.75628e-05 -8.19597e-06 -0.000216514
0.00259462 0.00199552 1.16433e-05
0.00199552 0.000626324 0.000108156
1.16433e-05 0.000108156 -4.34391e-05
0.00286422 0.00170809 7.79848e-06
0.00170809 0.000664506 -3.26937e-06
7.79848e-06 -3.26937e-06 -0.000129195
0.00369525 0.00146025 3.55417e-06
0.00146025 0.000563062 3.93526e-05
3.55417e-06 3.93526e-05 0.000355027
0.00302124 0.000802376 0.000104741
0.000802376 0.000295967 1.32021e-05
0.000104741 1.32021e-05 0.000638896
0.000697307 0.00118632 -1.56663e-05
0.00118632 -0.000772258 -4.04521e-05
-1.56663e-05 -4.04521e-05 -0.000774045
0.0011167 0.00173248 -4.27195e-05
0.00173248 -0.000200321 5.32449e-06
-4.27195e-05 5.32449e-06 -0.000823623
0.00527407 0.00238958 6.66376e-05
0.00238958 -0.00123462 2.04749e-05
6.66376e-05 2.04749e-05 0.000884496
0.00952447 0.00496282 -0.000115625
0.00496282 -0.00273701 -0.000100344
-0.000115625 -0.000100344 0.00186805
0.00708793 0.00325103 -0.000160044
0.00325103 0.00147318 -0.000133788
-0.000160044 -0.000133788 0.00177494
0.00388371 9.68645e-05 0.000134947
9.68645e-05 -4.88844e-05 1.16658e-05
0.000134947 1.16658e-05 0.000616948
0.00484169 -0.000153982 -0.000193337
-0.000153982 -0.00293327 1.24808e-05
-0.000193337 1.24808e-05 -0.000232273
0.00562203 0.00022926 -0.000118526
0.00022926 -0.0033604 -6.46742e-05
-0.000118526 -6.46742e-05 0.000522986
0.00415251 -0.00173855 -0.000181238
-0.00173855 -0.000842153 0.000123285
-0.000181238 0.000123285 0.000429272
0.000501326 -0.00104008 -0.000112489
-0.00104008 -0.00369029 3.15379e-05
-0.000112489 3.15379e-05 -0.00189335
0.00392333 -0.000778133 1.78367e-05
-0.000778133 -1.9271e-05 -1.19265e-05
1.78367e-05 -1.19265e-05 0.00064616
0.00289054 -0.000194133 -2.43281e-05
-0.000194133 -0.000587035 -2.25543e-06
-2.43281e-05 -2.25543e-06 4.8687e-05
0.00298865 -0.000441006 1.05568e-05
-0.000441006 -0.000483425 -8.57796e-06
1.05568e-05 -8.57796e-06 8.40471e-06
0.00264961 0.000169178 1.15386e-05
0.000169178 -0.000764845 -4.51938e-06
1.15386e-05 -4.51938e-06 -0.00030861
0.00296142 -0.00095041 -2.29666e-05
-0.00095041 -0.000333829 1.34939e-05
-2.29666e-05 1.34939e-05 4.56923e-05
0.00299942 -0.000675082 -3.44304e-06
-0.000675082 -0.000310425 7.93306e-07
-3.44304e-06 7.93306e-07 8.28101e-06
0.00285721 -0.000474201 -2.35711e-06
-0.000474201 -0.000275981 1.97923e-07
-2.35711e-06 1.97923e-07 1.84539e-05
0.00300076 -0.00081874 -9.95928e-07
-0.00081874 -5.64907e-05 3.87181e-07
-9.95928e-07 3.87181e-07 9.30287e-05
0.00276108 -0.000631611 3.41412e-07
-0.000631611 -0.000209704 -2.09803e-07
3.41412e-07 -2.09803e-07 -4.33555e-05
0.00266745 -0.000520085 3.40774e-07
-0.000520085 -0.000118861 9.9746e-08
3.40774e-07 9.9746e-08 1.13406e-05
0.00273496 -0.000782651 3.66788e-07
-0.000782651 -7.33052e-05 9.29575e-07
3.66788e-07 9.29575e-07 -2.19691e-05
0.00265278 -0.000641824 3.7796e-07
-0.000641824 -1.82386e-05 -1.86194e-07
3.7796e-07 -1.86194e-07 -2.75483e-06
0.00250889 -0.000569351 1.07074e-06
-0.000569351 1.93504e-05 -5.04685e-07
1.07074e-06 -5.04685e-07 -6.60126e-06
0.00271782 -0.000780512 1.62234e-06
-0.000780512 7.88226e-05 1.04236e-06
1.62234e-06 1.04236e-06 2.41581e-05
0.00253956 -0.000692401 5.41753e-07
-0.000692401 8.71436e-05 -7.30663e-08
5.41753e-07 -7.30663e-08 -2.07493e-06
0.00244348 -0.00064034 -2.61629e-06
-0.00064034 0.000140406 4.98147e-07
-2.61629e-06 4.98147e-07 2.80496e-06
0.00248376 -0.000805471 4.37768e-07
-0.000805471 0.000103376 9.53942e-07
4.37768e-07 9.53942e-07 -5.32602e-05
0.00252257 -0.000772522 3.05343e-07
-0.000772522 0.000220031 -2.97304e-07
3.05343e-07 -2.97304e-07 9.07489e-06
0.00248246 -0.000730142 -1.08946e-06
-0.000730142 0.000296602 -1.91337e-06
-1.08946e-06 -1.91337e-06 1.4912e-05
0.00253486 -0.00084389 1.11871e-06
-0.00084389 0.000293859 1.11157e-06
1.11871e-06 1.11157e-06 1.36696e-05
0.00245797 -0.000789299 -4.03746e-07
-0.000789299 0.000344888 -7.22487e-08
-4.03746e-07 -7.22487e-08 9.36529e-06
0.00175277 -0.000555059 -1.33067e-05
-0.000555059 0.000127754 3.33891e-06
-1.33067e-05 3.33891e-06 -0.000203421
0.000278875 -0.000325089 -1.76794e-05
-0.000325089 -0.000344904 2.22178e-05
-1.76794e-05 2.22178e-05 -0.000586307
0.00183589 -0.000648294 -1.11268e-07
-0.000648294 0.000207642 7.78986e-08
-1.11268e-07 7.78986e-08 -0.000190748
0.00251524 -0.0008781 -4.81023e-06
-0.0008781 0.000433761 5.80707e-06
-4.81023e-06 5.80707e-06 6.48706e-06
0.0101975 -0.000267468 -0.000494996
-0.000267468 0.00638551 5.73057e-05
-0.000494996 5.73057e-05 0.00641597
0.000225277 -0.000364719 -5.77392e-07
-0.000364719 -0.000359138 2.01158e-06
-5.77392e-07 2.01158e-06 -0.000620238
0.00197644 -0.000732581 1.92016e-05
-0.000732581 0.00035017 -1.84235e-06
1.92016e-05 -1.84235e-06 -0.000117947
0.0102955 -0.000222077 -4.24201e-06
-0.000222077 0.00646467 3.01314e-06
-4.24201e-06 3.01314e-06 0.0064913
0.00011673 -0.000375731 2.08624e-05
-0.000375731 -0.000368554 -3.08837e-05
2.08624e-05 -3.08837e-05 -0.000646417
0.0102215 -0.000202932 0.000467655
-0.000202932 0.00644251 -6.00085e-05
0.000467655 -6.00085e-05 0.00646467
0.00250465 0.00109791 3.8953e-06
0.00109791 0.000333219 1.08916e-05
3.8953e-06 1.08916e-05 -0.000119344
0.00235071 0.00107151 2.4026e-06
0.00107151 0.000393328 -9.10455e-07
2.4026e-06 -9.10455e-07 -0.000142223
0.00272535 0.00107559 1.66597e-05
0.00107559 0.000706805 1.96394e-05
1.66597e-05 1.96394e-05 0.000133118
0.00248228 0.00121808 1.3387e-05
0.00121808 0.00072814 -1.33121e-05
1.3387e-05 -1.33121e-05 3.42276e-05
0.00243358 0.00115147 1.20126e-06
0.00115147 0.000643439 6.0268e-07
1.20126e-06 6.0268e-07 -3.5218e-05
0.00152306 0.000676791 -5.36225e-05
0.000676791 0.000237693 -1.27166e-06
-5.36225e-05 -1.27166e-06 -0.000273494
0.00257154 0.00113423 -3.61368e-05
0.00113423 0.00089358 -2.3799e-05
-3.61368e-05 -2.3799e-05 0.000171298
0.000816813 0.000504388 -2.60195e-06
0.000504388 -3.19897e-05 1.05982e-06
-2.60195e-06 1.05982e-06 -0.000534937
-0.000203253 0.000314323 -3.28032e-05
0.000314323 -0.000538624 -3.51325e-05
-3.28032e-05 -3.51325e-05 -0.000764747
0.00157276 0.000284596 5.67804e-06
0.000284596 0.000528497 -5.9391e-06
5.67804e-06 -5.9391e-06 0.000159167
0.000229723 0.00029391 5.23801e-06
0.00029391 -0.000288493 1.53355e-07
5.23801e-06 1.53355e-07 -0.000477853
0.00901084 -8.41099e-05 -0.000324305
-8.41099e-05 0.0057359 -4.52225e-05
-0.000324305 -4.52225e-05 0.00572316
0.000717874 0.000329007 4.70066e-05
0.000329007 4.89128e-05 3.18193e-05
4.70066e-05 3.18193e-05 -0.000111979
0.00797051 -0.000178985 6.37458e-06
-0.000178985 0.00510425 -4.41525e-06
6.37458e-06 -4.41525e-06 0.00506822
0.00603531 -0.000272359 0.000114611
-0.000272359 0.00387317 2.98008e-05
0.000114611 2.98008e-05 0.00381017
0.0019347 0.000586705 7.28135e-05
0.000586705 -0.000858344 4.64961e-05
7.28135e-05 4.64961e-05 -0.000118786
0.00149045 0.00131769 5.62279e-05
0.00131769 -0.00443224 -1.2391e-05
5.62279e-05 -1.2391e-05 -0.00143271
0.00660186 0.00259735 0.000290847
0.00259735 -0.00432686 0.000152619
0.000290847 0.000152619 0.00132283
0.00298322 0.00122079 -7.15193e-06
0.00122079 0.000350941 -2.81941e-06
-7.15193e-06 -2.81941e-06 1.19108e-05
0.00275798 0.00130299 -1.03457e-05
0.00130299 0.000492402 -4.23019e-06
-1.03457e-05 -4.23019e-06 -5.26753e-05
0.00265232 0.00088061 5.38162e-06
0.00088061 0.000153706 5.66371e-07
5.38162e-06 5.66371e-07 -4.21806e-05
0.00277711 0.00116344 9.20082e-07
0.00116344 0.000340267 2.92418e-07
9.20082e-07 2.92418e-07 -3.85491e-05
0.00254565 0.00117197 -5.09993e-06
0.00117197 0.000473524 -1.49101e-05
-5.09993e-06 -1.49101e-05 -5.68035e-05
0.00312424 0.00106094 -7.12272e-06
0.00106094 0.000147427 -2.18793e-07
-7.12272e-06 -2.18793e-07 5.18815e-05
0.00306497 0.00169706 7.95654e-06
0.00169706 0.000855122 -6.01381e-06
7.95654e-06 -6.01381e-06 7.45454e-05
0.00330688 0.00143424 -1.57469e-07
0.00143424 0.000561878 -1.589e-06
-1.57469e-07 -1.589e-06 0.00012482
0.00247379 0.000668614 -5.1893e-06
0.000668614 -0.000472754 3.68231e-06
-5.1893e-06 3.68231e-06 -0.000174072
0.00247456 0.00178221 -3.35296e-06
0.00178221 0.000337154 2.06963e-05
-3.35296e-06 2.06963e-05 -0.000439818
0.00323746 0.00139338 2.66886e-06
0.00139338 0.000306323 -8.82609e-06
2.66886e-06 -8.82609e-06 0.000121753
0.00100841 0.000780572 -5.61839e-05
0.000780572 -0.00112307 -6.98262e-06
-5.61839e-05 -6.98262e-06 -0.000524951
-0.00369382 0.000681969 -9.48687e-06
0.000681969 -0.00317551 -2.5674e-05
-9.48687e-06 -2.5674e-05 -0.00296895
0.00672344 0.00254679 -0.000279721
0.00254679 -0.000362898 -0.0001142
-0.000279721 -0.0001142 0.00161991
0.00289257 0.000294921 9.17398e-06
0.000294921 -0.000415211 1.48482e-06
9.17398e-06 1.48482e-06 -1.14982e-06
0.00376752 0.000114274 -1.13864e-06
0.000114274 -0.000234522 -8.64593e-06
-1.13864e-06 -8.64593e-06 0.000464404
0.00324207 -0.000502196 -0.000276321
-0.000502196 -0.00406313 -3.33065e-05
-0.000276321 -3.33065e-05 -0.00118397
0.0034458 -0.000725604 -0.000154408
-0.000725604 -0.000336822 4.21119e-05
-0.000154408 4.21119e-05 0.000432095
0.00263003 -0.000216924 -3.17013e-05
-0.000216924 -0.000650779 6.93577e-06
-3.17013e-05 6.93577e-06 -4.85671e-05
0.00287382 -0.000473886 8.16408e-06
-0.000473886 -0.000597678 -9.52804e-07
8.16408e-06 -9.52804e-07 -4.7634e-05
0.00302446 0.000183017 -1.63644e-06
0.000183017 -0.000464232 2.03808e-06
-1.63644e-06 2.03808e-06 -4.96987e-05
0.00287215 -8.72857e-05 1.20659e-07
-8.72857e-05 -0.000375261 -2.32798e-06
1.20659e-07 -2.32798e-06 1.17146e-05
0.00295984 -0.000696951 -1.60834e-06
-0.000696951 -0.000364275 2.51655e-06
-1.60834e-06 2.51655e-06 -6.62294e-05
0.00279179 -0.000453818 3.74577e-07
-0.000453818 -0.000306362 -2.91575e-07
3.74577e-07 -2.91575e-07 -1.74404e-05
0.00267589 -0.000336959 2.54668e-07
-0.000336959 -0.00018499 -1.50111e-07
2.54668e-07 -1.50111e-07 3.72902e-05
0.00275762 -0.000635946 1.61717e-06
-0.000635946 -0.000204204 4.44989e-07
1.61717e-06 4.44989e-07 -4.55478e-05
0.00265036 -0.000519471 3.33756e-07
-0.000519471 -0.000125722 1.0302e-07
3.33756e-07 1.0302e-07 -8.84835e-07
0.00248984 -0.000437415 1.07892e-06
-0.000437415 -4.88916e-05 -1.64108e-07
1.07892e-06 -1.64108e-07 -2.14959e-06
0.00265381 -0.000639715 2.08325e-07
-0.000639715 -2.41947e-05 2.8594e-07
2.08325e-07 2.8594e-07 -8.35915e-06
0.0025062 -0.000569351 2.60872e-07
-0.000569351 1.51059e-05 -5.75519e-08
2.60872e-07 -5.75519e-08 -1.10259e-05
0.00238235 -0.000512857 -2.83004e-06
-0.000512857 7.18948e-05 6.18088e-07
-2.83004e-06 6.18088e-07 -5.14666e-06
0.00253406 -0.000692193 3.34033e-07
-0.000692193 7.90921e-05 3.35857e-07
3.34033e-07 3.35857e-07 -1.02268e-05
0.00245948 -0.000644257 4.18536e-07
-0.000644257 0.000145388 -2.50937e-07
4.18536e-07 -2.50937e-07 5.87807e-06
0.00246122 -0.000627888 -2.00614e-06
-0.000627888 0.000232207 -6.4937e-07
-2.00614e-06 -6.4937e-07 1.62956e-05
0.00253707 -0.000780502 1.84715e-06
-0.000780502 0.000224779 4.2376e-08
1.84715e-06 4.2376e-08 1.32531e-05
0.00245645 -0.000724002 -6.65864e-07
-0.000724002 0.00028639 -3.25408e-08
-6.65864e-07 -3.25408e-08 6.60965e-06
0.0017223 -0.000493211 -9.43834e-06
-0.000493211 7.56708e-05 2.81143e-06
-9.43834e-06 2.81143e-06 -0.000208121
0.00241439 -0.000787742 -4.80057e-07
-0.000787742 0.000316626 2.97153e-06
-4.80057e-07 2.97153e-06 -1.70923e-05
0.0017699 -0.000557091 -1.11948e-07
-0.000557091 0.000132517 1.64229e-08
-1.11948e-07 1.64229e-08 -0.000198003
0.00327353 -0.000348638 -6.88575e-05
-0.000348638 0.00163497 1.77621e-05
-6.88575e-05 1.77621e-05 0.00144605
0.00370163 -0.000204101 -0.000400936
-0.000204101 0.00209026 6.78005e-05
-0.000400936 6.78005e-05 0.00207205
0.00185518 -0.000359622 -2.46309e-05
-0.000359622 0.000698355 7.82791e-07
-2.46309e-05 7.82791e-07 0.000471842
0.00176847 -0.000639503 1.7014e-05
-0.000639503 0.000165914 -3.27253e-06
1.7014e-05 -3.27253e-06 -0.000229019
0.00996648 -0.000272165 -5.50932e-06
-0.000272165 0.00624648 3.9115e-06
-5.50932e-06 3.9115e-06 0.00627347
0.000268327 -0.000391313 2.48139e-05
-0.000391313 -0.000324061 -2.56366e-05
2.48139e-05 -2.56366e-05 -0.000591536
0.0103227 -0.000237039 0.000478307
-0.000237039 0.00648708 -6.24301e-05
0.000478307 -6.24301e-05 0.00650981
0.00249527 0.000680075 2.39018e-06
0.000680075 8.29277e-05 -9.40077e-07
2.39018e-06 -9.40077e-07 -4.56366e-05
0.00261058 0.000935289 7.45985e-06
0.000935289 0.000301059 5.8573e-06
7.45985e-06 5.8573e-06 5.56193e-06
0.00266665 0.0011102 4.87704e-07
0.0011102 0.000435596 -6.77261e-07
4.87704e-07 -6.77261e-07 -8.10196e-06
0.00266908 0.000989727 1.06019e-05
0.000989727 0.000598514 1.46685e-05
1.06019e-05 1.46685e-05 0.000118827
0.0024773 0.00108566 4.85561e-06
0.00108566 0.00048383 -1.57558e-05
4.85561e-06 -1.57558e-05 -5.10584e-05
0.00247558 0.00104529 1.90669e-06
0.00104529 0.000534058 7.38197e-07
1.90669e-06 7.38197e-07 -2.98561e-05
0.00170948 0.000726717 -4.10557e-05
0.000726717 0.000275017 -2.50214e-06
-4.10557e-05 -2.50214e-06 -0.000218374
0.00238369 0.00113296 -2.37253e-05
0.00113296 0.000619567 -2.16225e-05
-2.37253e-05 -2.16225e-05 -5.20202e-05
0.00150939 0.000682164 -1.28379e-06
0.000682164 0.00018808 7.48197e-10
-1.28379e-06 7.48197e-10 -0.000320574
-7.79716e-06 0.000370009 -3.11116e-05
0.000370009 -0.000426995 -3.18992e-05
-3.11116e-05 -3.18992e-05 -0.000690277
0.00139708 0.000477882 4.12599e-05
0.000477882 0.000370883 -1.84923e-07
4.12599e-05 -1.84923e-07 -0.000111714
0.000134556 0.000287605 3.09774e-06
0.000287605 -0.000334375 -1.35775e-07
3.09774e-06 -1.35775e-07 -0.00055671
0.0100902 8.81054e-05 -0.000427016
8.81054e-05 0.00637799 -5.50583e-05
-0.000427016 -5.50583e-05 0.00638908
0.000496365 0.000277348 2.99045e-05
0.000277348 -0.000120533 3.18907e-05
2.99045e-05 3.18907e-05 -0.000307378
0.00902864 -8.91094e-05 1.83234e-05
-8.91094e-05 0.00573783 -3.24024e-06
1.83234e-05 -3.24024e-06 0.00572841
0.0078351 -0.00021553 0.000203314
-0.00021553 0.00501142 3.00485e-05
0.000203314 3.00485e-05 0.00497404
0.00263567 0.000342104 3.38542e-06
0.000342104 -0.000523275 5.52247e-06
3.38542e-06 5.52247e-06 -0.000108291
0.00134393 0.000507159 -9.07615e-06
0.000507159 -0.00166366 -1.12148e-05
-9.07615e-06 -1.12148e-05 -0.000622916
0.00321743 0.00160613 -0.000234478
0.00160613 -0.00399778 -9.15866e-05
-0.000234478 -9.15866e-05 -0.000825583
0.00273805 0.000825972 -2.19352e-06
0.000825972 9.31365e-05 -2.71774e-06
-2.19352e-06 -2.71774e-06 -1.39051e-06
0.00285586 0.0011898 -5.03146e-06
0.0011898 0.000304688 -6.07366e-07
-5.03146e-06 -6.07366e-07 -2.4228e-05
0.00285165 0.00134009 -4.81422e-07
0.00134009 0.000540246 -5.7887e-06
-4.81422e-07 -5.7887e-06 -1.04485e-05
0.00261419 0.000864434 1.64193e-06
0.000864434 0.000154269 9.73611e-07
1.64193e-06 9.73611e-07 -4.60927e-05
0.0027532 0.0011505 -2.44085e-06
0.0011505 0.000322341 -6.54754e-06
-2.44085e-06 -6.54754e-06 -4.46063e-05
0.00298106 0.00066225 3.64234e-06
0.00066225 -9.02695e-05 1.19048e-06
3.64234e-06 1.19048e-06 9.53238e-05
0.00301883 0.00104885 -2.06725e-06
0.00104885 0.000104405 7.50077e-07
-2.06725e-06 7.50077e-07 2.50565e-05
0.00309932 0.00135569 8.37475e-06
0.00135569 0.000473795 -7.67604e-10
8.37475e-06 -7.67604e-10 6.12548e-05
0.00235814 0.000606201 2.65735e-07
0.000606201 -0.000462989 1.4847e-06
2.65735e-07 1.4847e-06 -0.000143356
0.00272988 0.00128028 7.97536e-06
0.00128028 1.63262e-05 -1.37528e-05
7.97536e-06 -1.37528e-05 -0.000131585
-0.00119345 0.000641764 -2.94638e-05
0.000641764 -0.00284143 -6.41905e-06
-2.94638e-05 -6.41905e-06 -0.00170419
0.00278079 0.000159555 3.4911e-06
0.000159555 -0.000300183 -3.15035e-08
3.4911e-06 -3.15035e-08 2.1494e-05
0.00287451 0.000276362 2.10551e-06
0.000276362 -0.000435925 -1.41879e-06
2.10551e-06 -1.41879e-06 -1.75312e-05
0.00365621 0.000116003 -0.000108097
0.000116003 -0.000364523 1.08846e-05
-0.000108097 1.08846e-05 0.000331491
0.0027453 -0.000518041 -3.14635e-05
-0.000518041 -0.000747801 1.17336e-05
-3.14635e-05 1.17336e-05 -0.00012903
0.00334267 0.000202882 -5.62849e-06
0.000202882 -0.000221108 3.89311e-06
-5.62849e-06 3.89311e-06 0.000164563
0.00287807 -8.56339e-05 -9.30176e-07
-8.56339e-05 -0.000380535 -9.48302e-07
-9.30176e-07 -9.48302e-07 1.0563e-06
0.00255158 -9.36447e-05 1.02493e-08
-9.36447e-05 -0.000213683 8.11456e-08
1.02493e-08 8.11456e-08 -6.54582e-06
0.00271647 -0.00043238 2.43877e-06
-0.00043238 -0.000343601 -1.07867e-06
2.43877e-06 -1.07867e-06 -5.9411e-05
0.00263782 -0.000348455 -3.27655e-09
-0.000348455 -0.000203191 8.75809e-08
-3.27655e-09 8.75809e-08 7.01297e-06
0.0024423 -0.000288063 1.83464e-06
-0.000288063 -0.000101019 -6.14737e-07
1.83464e-06 -6.14737e-07 -9.49946e-06
0.00263111 -0.000518699 -7.78461e-07
-0.000518699 -0.000133904 1.28509e-07
-7.78461e-07 1.28509e-07 -1.43361e-05
0.00249016 -0.000436256 3.00946e-08
-0.000436256 -5.17146e-05 5.95135e-08
3.00946e-08 5.95135e-08 -5.05447e-06
0.00233436 -0.000391835 -3.01149e-06
-0.000391835 4.55642e-06 3.96668e-07
-3.01149e-06 3.96668e-07 -1.86925e-05
0.00250346 -0.000569356 -4.08082e-07
-0.000569356 1.05864e-05 2.29968e-07
-4.08082e-07 2.29968e-07 -1.57153e-05
0.0023763 -0.00051347 2.03809e-07
-0.00051347 6.27924e-05 5.56512e-08
2.03809e-07 5.56512e-08 -1.4684e-05
0.00244772 -0.000504971 -3.3804e-06
-0.000504971 0.000183334 5.34629e-07
-3.3804e-06 5.34629e-07 3.52159e-05
0.00247677 -0.000648233 2.63649e-06
-0.000648233 0.000151592 -8.00723e-07
2.63649e-06 -8.00723e-07 1.01448e-05
0.00244208 -0.000621843 -3.75828e-07
-0.000621843 0.000229168 -3.44662e-07
-3.75828e-07 -3.44662e-07 1.50073e-05
0.00172647 -0.000417968 -8.19926e-06
-0.000417968 4.88945e-05 1.84647e-06
-8.19926e-06 1.84647e-06 -0.000187666
0.00242712 -0.000717627 8.15845e-07
-0.000717627 0.000273763 1.36621e-06
8.15845e-07 1.36621e-06 -4.06148e-06
0.00177021 -0.000498104 -6.85342e-08
-0.000498104 9.96889e-05 2.36494e-07
-6.85342e-08 2.36494e-07 -0.000184064
0.00307412 -0.000308503 -7.27283e-05
-0.000308503 0.00150171 1.60156e-05
-7.27283e-05 1.60156e-05 0.00133802
0.00177957 -0.000560358 1.18315e-05
-0.000560358 0.000128708 -3.5202e-06
1.18315e-05 -3.5202e-06 -0.000201715
0.00337535 -0.000376795 6.51009e-05
-0.000376795 0.00170612 -1.1999e-05
6.51009e-05 -1.1999e-05 0.00153227
0.00315355 -0.000202192 -0.000357006
-0.000202192 0.00174972 6.49599e-05
-0.000357006 6.49599e-05 0.00172514
0.00626417 -0.000248585 -0.000339911
-0.000248585 0.00381314 4.83823e-05
-0.000339911 4.83823e-05 0.00381226
0.00355569 -0.000446154 0.000213597
-0.000446154 0.00183472 -4.11834e-05
0.000213597 -4.11834e-05 0.00164886
0.00970981 -0.00026861 0.000457924
-0.00026861 0.00608683 -6.26083e-05
0.000457924 -6.26083e-05 0.00610757
0.00254829 0.000659285 -1.44689e-06
0.000659285 7.89184e-05 -2.18569e-06
-1.44689e-06 -2.18569e-06 1.19078e-05
0.00260207 0.000742456 2.61758e-06
0.000742456 0.000307936 1.45947e-06
2.61758e-06 1.45947e-06 0.000103837
0.00251281 0.000666051 4.2811e-07
0.000666051 0.000108409 -2.2189e-07
4.2811e-07 -2.2189e-07 -1.34076e-05
0.0024077 0.000827704 4.63571e-06
0.000827704 0.000340111 9.31567e-06
4.63571e-06 9.31567e-06 -2.06046e-05
0.00263764 0.000932696 3.20846e-07
0.000932696 0.000310834 -3.11324e-07
3.20846e-07 -3.11324e-07 1.60338e-05
0.00287128 0.0011278 -3.9374e-06
0.0011278 0.000565565 -1.00478e-05
-3.9374e-06 -1.00478e-05 0.000129115
0.00239475 0.000962679 8.39301e-07
0.000962679 0.000407041 1.85463e-07
8.39301e-07 1.85463e-07 -6.63124e-05
0.00172501 0.000690746 -2.6082e-05
0.000690746 0.000165113 -1.71541e-06
-2.6082e-05 -1.71541e-06 -0.000271774
0.00213373 0.00100061 -1.55885e-05
0.00100061 0.000304075 -1.86565e-05
-1.55885e-05 -1.86565e-05 -0.000245877
0.00176619 0.000769517 -2.39433e-06
0.000769517 0.000286744 6.49149e-07
-2.39433e-06 6.49149e-07 -0.00022388
0.000283964 0.000400502 -2.84686e-05
0.000400502 -0.000298244 -2.63315e-05
-2.84686e-05 -2.63315e-05 -0.000571104
0.00121091 0.000647785 5.21402e-05
0.000647785 -4.05477e-05 6.85224e-07
5.21402e-05 6.85224e-07 -0.000533394
-8.83945e-05 0.000323004 1.19551e-06
0.000323004 -0.000491144 1.91328e-06
1.19551e-06 1.91328e-06 -0.000740047
0.0103554 0.000194754 -0.000457867
0.000194754 0.00651825 -6.23907e-05
-0.000457867 -6.23907e-05 0.0065326
0.000219121 0.000252691 2.93335e-05
0.000252691 -0.000303588 3.3899e-05
2.93335e-05 3.3899e-05 -0.000511356
0.00943178 3.14224e-05 1.29037e-05
3.14224e-05 0.0059474 -1.1946e-06
1.29037e-05 -1.1946e-06 0.00595677
0.00859744 -9.27108e-05 0.000297273
-9.27108e-05 0.00544298 3.05878e-05
0.000297273 3.05878e-05 0.00543831
0.00283309 0.000421625 3.15078e-06
0.000421625 -0.000201083 6.55916e-07
3.15078e-06 6.55916e-07 5.21594e-05
0.00250056 0.000353295 2.15378e-06
0.000353295 -0.000521951 -2.87793e-06
2.15378e-06 -2.87793e-06 -0.000110723
2.1611e-05 0.000466828 -6.30647e-05
0.000466828 -0.00288783 -1.20165e-05
-6.30647e-05 -1.20165e-05 -0.0015815
0.00264606 0.00057914 1.84253e-06
0.00057914 -7.04056e-05 -3.20434e-07
1.84253e-06 -3.20434e-07 1.46783e-06
0.0026644 0.00082459 -8.79169e-07
0.00082459 5.19986e-05 1.0322e-06
-8.79169e-07 1.0322e-06 -3.3664e-05
0.00274182 0.00115752 6.72047e-06
0.00115752 0.000268049 -4.15252e-08
6.72047e-06 -4.15252e-08 -4.94786e-05
0.00258902 0.000848692 -4.49275e-06
0.000848692 0.000162795 -5.25186e-07
-4.49275e-06 -5.25186e-07 -4.17921e-05
0.0028888 0.000651987 -2.36115e-06
0.000651987 -0.000145985 9.14575e-08
-2.36115e-06 9.14575e-08 3.20341e-05
0.00292521 0.00103582 3.99121e-06
0.00103582 7.61967e-05 -6.48561e-07
3.99121e-06 -6.48561e-07 1.03814e-05
0.00225184 0.000611258 2.22514e-06
0.000611258 -0.000412524 -8.52252e-06
2.22514e-06 -8.52252e-06 -0.000101393
0.00260312 0.000125943 1.47685e-06
0.000125943 -0.000197054 1.76426e-07
1.47685e-06 1.76426e-07 2.51833e-06
0.00274613 0.000163045 -3.81209e-07
0.000163045 -0.000301241 2.52081e-08
-3.81209e-07 2.52081e-08 1.06487e-05
0.00283818 0.000273843 -1.96656e-05
0.000273843 -0.000458773 1.71031e-06
-1.96656e-05 1.71031e-06 -4.28269e-05
0.0024004 -1.11155e-05 -1.9779e-08
-1.11155e-05 -0.000186381 1.26694e-07
-1.9779e-08 1.26694e-07 -3.66853e-05
0.00290991 -8.76139e-05 3.35541e-07
-8.76139e-05 -0.00036466 1.57966e-06
3.35541e-07 1.57966e-06 8.82389e-06
0.00256283 -9.84713e-05 1.66516e-08
-9.84713e-05 -0.00020491 1.79211e-07
1.66516e-08 1.79211e-07 8.72805e-07
0.00241581 -0.000150693 5.2612e-07
-0.000150693 -0.000113169 -4.91431e-09
5.2612e-07 -4.91431e-09 -7.99202e-06
0.00259938 -0.000359614 -5.95439e-08
-0.000359614 -0.000221856 4.81143e-08
-5.95439e-08 4.81143e-08 -2.3548e-05
0.00244875 -0.000284417 5.8044e-07
-0.000284417 -9.90463e-05 -4.58644e-07
5.8044e-07 -4.58644e-07 -6.71504e-06
0.00229176 -0.00026986 -2.35118e-06
-0.00026986 -3.839e-05 3.7254e-07
-2.35118e-06 3.7254e-07 -2.65821e-05
0.00249264 -0.000434911 -7.19315e-07
-0.000434911 -5.31017e-05 2.16452e-07
-7.19315e-07 2.16452e-07 -6.50704e-06
0.00233591 -0.000390515 1.71808e-08
-0.000390515 3.54659e-06 -6.04811e-08
1.71808e-08 -6.04811e-08 -1.91187e-05
0.0024504 -0.000390478 -3.9963e-06
-0.000390478 0.000149806 6.97116e-07
-3.9963e-06 6.97116e-07 5.4156e-05
0.00237143 -0.000514233 3.0776e-06
-0.000514233 5.44542e-05 -5.95056e-07
3.0776e-06 -5.95056e-07 -2.3526e-05
0.00242957 -0.00050139 -9.03052e-08
-0.00050139 0.000177409 -1.65263e-07
-9.03052e-08 -1.65263e-07 2.93515e-05
0.00172048 -0.000335301 -6.69815e-06
-0.000335301 2.63913e-05 1.17437e-06
-6.69815e-06 1.17437e-06 -0.000166285
0.00242246 -0.00061568 1.77273e-06
-0.00061568 0.000225959 -2.43422e-07
1.77273e-06 -2.43422e-07 1.35797e-05
0.00177448 -0.000422753 -3.92967e-07
-0.000422753 6.87493e-05 2.27001e-07
-3.92967e-07 2.27001e-07 -0.000167722
0.0029142 -0.000271357 -7.59834e-05
-0.000271357 0.00140336 1.45159e-05
-7.59834e-05 1.45159e-05 0.00126046
0.00181934 -0.000503305 8.33603e-06
-0.000503305 0.000124091 -2.64291e-06
8.33603e-06 -2.64291e-06 -0.000159619
0.00318714 -0.000323993 5.87425e-05
-0.000323993 0.0015764 -9.19794e-06
5.87425e-05 -9.19794e-06 0.0014281
0.00302256 -0.000167348 -0.000340179
-0.000167348 0.0016614 5.42232e-05
-0.000340179 5.42232e-05 0.0016424
0.00346385 -0.000375995 0.000201114
-0.000375995 0.00175881 -3.95779e-05
0.000201114 -3.95779e-05 0.0016046
0.00270224 -0.000134367 -0.00013241
-0.000134367 0.00145032 2.29167e-05
-0.00013241 2.29167e-05 0.00140415
0.00865752 -0.000191212 0.000173362
-0.000191212 0.00539122 -1.57037e-05
0.000173362 -1.57037e-05 0.00536319
0.00250803 0.00055784 -4.61289e-07
0.00055784 3.90132e-05 -3.92997e-07
-4.61289e-07 -3.92997e-07 6.79861e-06
0.00248915 0.000623375 -2.77098e-06
0.000623375 0.000176607 -1.69274e-06
-2.77098e-06 -1.69274e-06 5.71162e-05
0.00259039 0.000655506 -2.18348e-06
0.000655506 0.000110668 5.07891e-08
-2.18348e-06 5.07891e-08 3.6235e-05
0.00238859 0.000700054 2.561e-07
0.000700054 0.000273421 2.84812e-06
2.561e-07 2.84812e-06 -7.10979e-06
0.00252159 0.000742006 -6.31974e-07
0.000742006 0.000219964 -1.64457e-06
-6.31974e-07 -1.64457e-06 3.54249e-05
0.00251746 0.000650246 -4.49322e-06
0.000650246 0.000125205 -7.0751e-07
-4.49322e-06 -7.0751e-07 1.05266e-05
0.00179487 0.000589991 -1.77237e-05
0.000589991 0.000114954 -2.17802e-06
-1.77237e-05 -2.17802e-06 -0.000233288
0.00238611 0.000831008 1.7112e-06
0.000831008 0.000314901 8.76312e-08
1.7112e-06 8.76312e-08 -4.78452e-05
0.00263623 0.000928979 -4.19753e-06
0.000928979 0.000298107 -4.05419e-06
-4.19753e-06 -4.05419e-06 4.77851e-06
0.00210865 0.000932343 -9.81448e-06
0.000932343 0.000210031 -1.5462e-05
-9.81448e-06 -1.5462e-05 -0.000255385
0.00185471 0.000705727 -4.7288e-07
0.000705727 0.000252607 1.46828e-07
-4.7288e-07 1.46828e-07 -0.000190101
0.000433298 0.000375695 -2.42719e-05
0.000375695 -0.000235146 -2.2176e-05
-2.42719e-05 -2.2176e-05 -0.000490707
0.00194868 0.00082692 4.43829e-05
0.00082692 0.000369048 5.27596e-06
4.43829e-05 5.27596e-06 -0.000161827
0.000143232 0.000374006 2.58965e-08
0.000374006 -0.000379041 1.86938e-06
2.58965e-08 1.86938e-06 -0.000647111
0.00980902 0.000266946 -0.000444478
0.000266946 0.00616405 -6.71109e-05
-0.000444478 -6.71109e-05 0.0061717
3.12372e-05 0.000297908 2.90016e-05
0.000297908 -0.000419704 3.1544e-05
2.90016e-05 3.1544e-05 -0.000663831
0.0102758 0.000149408 8.29046e-06
0.000149408 0.00646039 2.19291e-06
8.29046e-06 2.19291e-06 0.00648042
0.00941765 -7.05499e-07 0.000357882
-7.05499e-07 0.00593242 3.32393e-05
0.000357882 3.32393e-05 0.00594512
0.00255848 0.00033205 5.69819e-07
0.00033205 -0.000146547 3.34899e-07
5.69819e-07 3.34899e-07 -4.41075e-06
0.00277275 0.00043011 -9.89481e-07
0.00043011 -0.000276381 8.36783e-07
-9.89481e-07 8.36783e-07 -9.57515e-06
0.00243047 0.000324074 -9.37137e-06
0.000324074 -0.000509741 -2.38318e-06
-9.37137e-06 -2.38318e-06 -8.98769e-05
0.00263139 0.000574499 -5.86344e-07
0.000574499 -7.38547e-05 4.96196e-07
-5.86344e-07 4.96196e-07 -1.70516e-06
0.0025826 0.000823715 2.12507e-07
0.000823715 5.11892e-06 7.20935e-07
2.12507e-07 7.20935e-07 -7.08277e-05
0.00279929 0.000638237 1.55579e-06
0.000638237 -0.000210692 -1.50014e-06
1.55579e-06 -1.50014e-06 -3.60285e-05
0.00249037 0.000113841 1.02957e-06
0.000113841 -0.000118615 6.28777e-08
1.02957e-06 6.28777e-08 1.07071e-05
0.00261012 0.000124024 -9.37601e-08
0.000124024 -0.000183994 -1.55811e-07
-9.37601e-08 -1.55811e-07 1.23049e-05
0.00268884 0.00016401 -2.79048e-06
0.00016401 -0.000323269 -5.06852e-08
-2.79048e-06 -5.06852e-08 -1.86769e-05
0.00243997 -6.28101e-06 -6.4607e-07
-6.28101e-06 -0.000153051 3.47032e-08
-6.4607e-07 3.47032e-08 -7.46037e-06
0.00236697 -3.3017e-05 -1.88101e-07
-3.3017e-05 -8.03161e-05 -5.88489e-08
-1.88101e-07 -5.88489e-08 6.81076e-06
0.00257514 -0.00010343 -1.06e-06
-0.00010343 -0.000195228 6.06121e-07
-1.06e-06 6.06121e-07 9.11339e-06
0.00241208 -0.000153212 -7.27464e-07
-0.000153212 -0.000105952 2.26678e-07
-7.27464e-07 2.26678e-07 -7.34208e-06
0.00223893 -0.000164752 -2.69728e-06
-0.000164752 -7.55184e-05 5.49587e-07
-2.69728e-06 5.49587e-07 -3.85308e-05
0.00245268 -0.000280986 -3.10078e-07
-0.000280986 -9.83419e-05 -3.00953e-07
-3.10078e-07 -3.00953e-07 -5.22821e-06
0.00228847 -0.000268037 8.82554e-07
-0.000268037 -3.83444e-05 -3.19074e-07
8.82554e-07 -3.19074e-07 -2.61649e-05
0.00247948 -0.000288997 -3.58149e-06
-0.000288997 0.000135904 9.15855e-07
-3.58149e-06 9.15855e-07 7.71471e-05
0.00233167 -0.000389577 3.14248e-06
-0.000389577 -1.29144e-06 -5.76203e-07
3.14248e-06 -5.76203e-07 -2.33999e-05
0.0024421 -0.000389655 5.15245e-08
-0.000389655 0.000145606 -1.05052e-07
5.15245e-08 -1.05052e-07 5.08743e-05
0.00170367 -0.000258421 -5.94322e-06
-0.000258421 8.52637e-06 9.46392e-07
-5.94322e-06 9.46392e-07 -0.00014975
0.00241175 -0.000497594 3.31573e-06
-0.000497594 0.000171442 -8.27457e-07
3.31573e-06 -8.27457e-07 2.3591e-05
0.00173828 -0.000337758 -3.28755e-07
-0.000337758 2.26398e-05 8.71317e-08
-3.28755e-07 8.71317e-08 -0.000169646
0.00274863 -0.000237696 -7.49238e-05
-0.000237696 0.0013099 1.2157e-05
-7.49238e-05 1.2157e-05 0.00118624
0.00181816 -0.000427383 7.34192e-06
-0.000427383 8.54272e-05 -1.88228e-06
7.34192e-06 -1.88228e-06 -0.000150894
0.00302736 -0.000267398 5.45377e-05
-0.000267398 0.00147373 -6.95006e-06
5.45377e-05 -6.95006e-06 0.00134812
0.00288011 -0.000133983 -0.000324922
-0.000133983 0.00156774 4.35035e-05
-0.000324922 4.35035e-05 0.00155321
0.00330709 -0.000313003 0.000190686
-0.000313003 0.00164522 -3.17938e-05
0.000190686 -3.17938e-05 0.00151641
0.00258664 -0.000121803 -0.000118417
-0.000121803 0.00137867 1.69921e-05
-0.000118417 1.69921e-05 0.00133666
0.00229688 -0.000123627 9.67731e-05
-0.000123627 0.00120216 -1.76081e-05
9.67731e-05 -1.76081e-05 0.00112592
0.0024468 0.000358381 9.31295e-07
0.000358381 -4.82659e-05 -2.07106e-07
9.31295e-07 -2.07106e-07 -4.0882e-06
0.0023454 0.000487272 -3.16238e-06
0.000487272 6.34555e-05 -8.00451e-07
-3.16238e-06 -8.00451e-07 -2.07873e-05
0.00251573 0.000560448 -8.82007e-07
0.000560448 2.02293e-05 -2.87219e-07
-8.82007e-07 -2.87219e-07 3.14714e-06
0.00236115 0.000608971 -6.37634e-07
0.000608971 0.000155579 -6.16661e-08
-6.37634e-07 -6.16661e-08 -4.33761e-05
0.00248144 0.000621373 -1.22089e-07
0.000621373 0.000185144 1.12235e-08
-1.22089e-07 1.12235e-08 5.40793e-05
0.00263234 0.000652687 9.27322e-07
0.000652687 0.000142141 1.96385e-06
9.27322e-07 1.96385e-06 5.99812e-05
0.00179353 0.000504847 -1.11326e-05
0.000504847 0.000105039 -2.19225e-06
-1.11326e-05 -2.19225e-06 -0.000180732
0.00236097 0.000711301 -1.18024e-06
0.000711301 0.000228204 -1.87141e-06
-1.18024e-06 -1.87141e-06 -4.09879e-05
0.0024571 0.000743701 -2.66176e-06
0.000743701 0.000143744 -1.92412e-06
-2.66176e-06 -1.92412e-06 -2.20024e-05
0.000428301 0.000298158 -2.08963e-05
0.000298158 -0.000251738 -1.71348e-05
-2.08963e-05 -1.71348e-05 -0.000468039
0.00177377 0.000579213 2.94784e-07
0.000579213 0.00012223 -1.87777e-08
2.94784e-07 -1.87777e-08 -0.00022361
0.00234522 0.000831661 -3.6253e-06
0.000831661 0.000279244 -1.04885e-05
-3.6253e-06 -1.04885e-05 -8.53032e-05
0.00200747 0.000724358 2.98282e-05
0.000724358 0.000356413 2.12403e-06
2.98282e-05 2.12403e-06 -9.33611e-05
0.000327224 0.000361364 7.50079e-07
0.000361364 -0.000302441 9.36748e-07
7.50079e-07 9.36748e-07 -0.000557862
0.00913975 0.000343913 -0.000434406
0.000343913 0.00573543 -6.98347e-05
-0.000434406 -6.98347e-05 0.0057368
-2.74793e-05 0.00034063 2.42978e-05
0.00034063 -0.000481283 2.62671e-05
2.42978e-05 2.62671e-05 -0.000741563
0.010001 0.000256107 9.13417e-06
0.000256107 0.00627488 3.09427e-06
9.13417e-06 3.09427e-06 0.0062936
0.00984077 0.000108684 0.000411927
0.000108684 0.0061716 4.2162e-05
0.000411927 4.2162e-05 0.0061922
0.00247 0.000206121 1.20025e-06
0.000206121 -7.24427e-05 -2.30407e-07
1.20025e-06 -2.30407e-07 2.92274e-05
0.00252327 0.000337994 4.794e-07
0.000337994 -0.000179003 5.13044e-07
4.794e-07 5.13044e-07 -3.5757e-05
0.00272294 0.000443065 -9.88624e-07
0.000443065 -0.000336561 -1.37516e-06
-9.88624e-07 -1.37516e-06 -5.92356e-05
0.00260566 0.000567169 1.57898e-06
0.000567169 -8.55284e-05 -4.24854e-07
1.57898e-06 -4.24854e-07 -1.3346e-05
0.00231857 5.24915e-05 -4.24332e-07
5.24915e-05 -6.21108e-05 1.48533e-08
-4.24332e-07 1.48533e-08 -5.82493e-06
0.00248856 0.000100502 1.57611e-07
0.000100502 -0.000124889 -3.1206e-08
1.57611e-07 -3.1206e-08 8.34691e-06
0.00261632 0.000121676 -4.08319e-07
0.000121676 -0.000171028 -2.66451e-08
-4.08319e-07 -2.66451e-08 2.12472e-05
0.00247892 -1.05333e-06 -2.28285e-06
-1.05333e-06 -0.000119849 -4.82675e-08
-2.28285e-06 -4.82675e-08 2.1512e-05
0.00237792 -2.66386e-05 -7.52776e-07
-2.66386e-05 -7.82113e-05 -1.62712e-07
-7.52776e-07 -1.62712e-07 1.27881e-05
0.00229555 -5.81629e-05 -4.1126e-06
-5.81629e-05 -1.69517e-06 1.71379e-07
-4.1126e-06 1.71379e-07 2.92162e-05
0.00240833 -0.000155543 -7.81342e-07
-0.000155543 -9.88176e-05 3.26455e-07
-7.81342e-07 3.26455e-07 -6.95365e-06
0.0022871 -0.000165889 -1.52633e-06
-0.000165889 -3.0689e-05 2.64028e-07
-1.52633e-06 2.64028e-07 -2.7006e-06
0.00239787 -0.000191523 -3.11759e-06
-0.000191523 5.27037e-05 6.84875e-07
-3.11759e-06 6.84875e-07 2.18794e-05
0.00229183 -0.000265814 4.05025e-06
-0.000265814 -3.48115e-05 -9.48019e-07
4.05025e-06 -9.48019e-07 -2.21859e-05
0.00247038 -0.000287061 5.06689e-07
-0.000287061 0.000133817 -1.55306e-07
5.06689e-07 -1.55306e-07 7.48005e-05
0.00168657 -0.000191254 -6.53127e-06
-0.000191254 -7.02191e-06 1.02483e-06
-6.53127e-06 1.02483e-06 -0.000141621
0.00244013 -0.000388056 4.01454e-06
-0.000388056 0.000145792 -9.15718e-07
4.01454e-06 -9.15718e-07 5.21125e-05
0.00168788 -0.000258514 -1.56429e-07
-0.000258514 -1.83316e-05 1.00584e-08
-1.56429e-07 1.00584e-08 -0.000175976
0.000266733 -0.000127411 -1.51772e-05
-0.000127411 -0.000342752 6.82416e-06
-1.51772e-05 6.82416e-06 -0.000467999
0.00176325 -0.000340434 6.63838e-06
-0.000340434 2.52544e-05 -1.44476e-06
6.63838e-06 -1.44476e-06 -0.000166613
0.00162675 -0.000178151 7.98414e-05
-0.000178151 0.000549846 -7.2723e-06
7.98414e-05 -7.2723e-06 0.000434456
0.00746062 -0.000208573 -0.000419612
-0.000208573 0.00464341 3.73129e-05
-0.000419612 3.73129e-05 0.00467783
0.00315629 -0.000248653 0.000181145
-0.000248653 0.00154887 -2.41465e-05
0.000181145 -2.41465e-05 0.00144241
0.00245992 -0.000107075 -0.000106448
-0.000107075 0.00130326 1.08462e-05
-0.000106448 1.08462e-05 0.00126421
0.00214227 -0.000129202 0.000104886
-0.000129202 0.00111176 -1.80928e-05
0.000104886 -1.80928e-05 0.0010384
0.00240467 0.000243571 7.74076e-07
0.000243571 -1.75468e-05 -7.83706e-07
7.74076e-07 -7.83706e-07 2.46645e-05
0.00229758 0.000369774 -2.34609e-06
0.000369774 1.57772e-06 -7.13707e-07
-2.34609e-06 -7.13707e-07 -2.83346e-05
0.00245895 0.000348177 -2.73729e-07
0.000348177 -2.36602e-05 -2.00906e-08
-2.73729e-07 -2.00906e-08 1.21831e-05
0.00232786 0.000483622 -3.54381e-07
0.000483622 0.000108977 5.05209e-08
-3.54381e-07 5.05209e-08 -3.42978e-05
0.00237043 0.00049113 -2.3861e-08
0.00049113 8.45446e-05 -2.01782e-07
-2.3861e-08 -2.01782e-07 2.80475e-06
0.00252471 0.000563242 3.14118e-07
0.000563242 2.5242e-06 1.54827e-07
3.14118e-07 1.54827e-07 3.78552e-07
0.00179001 0.000441355 -5.48688e-06
0.000441355 7.61985e-05 -5.47284e-07
-5.48688e-06 -5.47284e-07 -0.000151241
0.00235067 0.000603138 -1.80543e-06
0.000603138 0.000153424 -9.39529e-07
-1.80543e-06 -9.39529e-07 -4.9704e-05
0.00246867 0.00061799 2.67582e-06
0.00061799 0.000191372 8.52201e-07
2.67582e-06 8.52201e-07 4.87611e-05
0.000378931 0.000222098 -1.71027e-05
0.000222098 -0.000285739 -1.23211e-05
-1.71027e-05 -1.23211e-05 -0.000466215
0.00170253 0.000495896 5.25287e-07
0.000495896 5.02514e-05 2.9149e-07
5.25287e-07 2.9149e-07 -0.000226006
0.00230055 0.000719269 -3.60107e-06
0.000719269 0.000158818 -7.04293e-06
-3.60107e-06 -7.04293e-06 -9.78264e-05
0.00853597 0.000376553 -0.000424418
0.000376553 0.00534936 -6.54676e-05
-0.000424418 -6.54676e-05 0.00534954
0.000373432 0.000298535 2.88878e-07
0.000298535 -0.000294828 9.43184e-07
2.88878e-07 9.43184e-07 -0.000514807
0.00172902 0.000567399 2.01008e-05
0.000567399 0.000111675 1.66275e-06
2.01008e-05 1.66275e-06 -0.00023169
0.000220319 0.000346003 2.22537e-05
0.000346003 -0.000371316 2.2274e-05
2.22537e-05 2.2274e-05 -0.000626499
0.00934641 0.000345314 1.05554e-05
0.000345314 0.00586622 4.2228e-06
1.05554e-05 4.2228e-06 0.00587353
0.0102176 0.000229178 0.000475862
0.000229178 0.00639636 5.31372e-05
0.000475862 5.31372e-05 0.006424
0.00231031 0.000132708 -1.16468e-06
0.000132708 -4.65244e-05 -1.29777e-08
-1.16468e-06 -1.29777e-08 -8.20335e-06
0.00245953 0.000200114 -1.23731e-07
0.000200114 -8.27484e-05 5.09417e-08
-1.23731e-07 5.09417e-08 1.5601e-05
0.0024902 0.000344288 -6.89411e-08
0.000344288 -0.000209531 -9.41162e-08
-6.89411e-08 -9.41162e-08 -6.50185e-05
0.00228866 3.06595e-05 -6.30566e-06
3.06595e-05 3.30917e-05 -2.63144e-07
-6.30566e-06 -2.63144e-07 4.63358e-05
0.00231473 6.14967e-05 8.34733e-07
6.14967e-05 -6.9106e-05 3.10086e-08
8.34733e-07 3.10086e-08 -7.18585e-06
0.00248837 8.64354e-05 -1.01587e-06
8.64354e-05 -0.000130144 -4.93857e-08
-1.01587e-06 -4.93857e-08 7.05468e-06
0.00238971 -2.03697e-05 -5.38808e-07
-2.03697e-05 -7.59466e-05 1.35201e-07
-5.38808e-07 1.35201e-07 1.92397e-05
0.00230001 -5.84553e-05 -1.54557e-07
-5.84553e-05 -2.60553e-07 2.08401e-09
-1.54557e-07 2.08401e-09 3.22856e-05
0.00213228 -8.69116e-05 -3.39501e-06
-8.69116e-05 -0.000125075 3.2156e-07
-3.39501e-06 3.2156e-07 -0.000166433
0.0023346 -0.000167296 3.69966e-06
-0.000167296 1.45223e-05 -3.92603e-07
3.69966e-06 -3.92603e-07 3.35855e-05
0.00235912 -0.000193937 3.12793e-07
-0.000193937 3.65135e-05 1.65212e-08
3.12793e-07 1.65212e-08 -6.89049e-06
0.00181787 -0.000127086 -6.80685e-06
-0.000127086 8.41354e-05 6.88852e-07
-6.80685e-06 6.88852e-07 -2.03875e-05
0.00245441 -0.000286083 4.31075e-06
-0.000286083 0.000127634 -1.22975e-06
4.31075e-06 -1.22975e-06 6.81288e-05
0.00165661 -0.000187969 8.72773e-08
-0.000187969 -4.46961e-05 -2.10811e-08
8.72773e-08 -2.10811e-08 -0.000178272
0.000210282 -5.34781e-05 -1.33593e-05
-5.34781e-05 -0.000366511 3.90431e-06
-1.33593e-05 3.90431e-06 -0.000476061
0.00167479 -0.000257189 5.94031e-06
-0.000257189 -4.66043e-05 -1.32902e-06
5.94031e-06 -1.32902e-06 -0.000203227
0.000276179 -0.000111482 -3.00398e-07
-0.000111482 -0.000329767 4.44522e-07
-3.00398e-07 4.44522e-07 -0.000453235
0.00731668 -0.000101893 -0.000405817
-0.000101893 0.00453877 2.44874e-05
-0.000405817 2.44874e-05 0.00458113
0.000439068 -0.000134226 1.23372e-05
-0.000134226 -0.00023867 -8.87207e-06
1.23372e-05 -8.87207e-06 -0.000376524
0.00483201 -0.000139613 0.000169167
-0.000139613 0.0028979 -1.13274e-05
0.000169167 -1.13274e-05 0.00288329
0.0020094 -0.000110094 0.000106338
-0.000110094 0.00103007 -1.6064e-05
0.000106338 -1.6064e-05 0.000962464
0.00239331 0.000204152 -3.67623e-06
0.000204152 4.94646e-05 -5.53962e-07
-3.67623e-06 -5.53962e-07 7.51142e-05
0.00224643 0.000262095 -5.39671e-06
0.000262095 1.401e-06 -7.79017e-07
-5.39671e-06 -7.79017e-07 -1.83153e-05
0.00238827 0.000232681 -7.52518e-07
0.000232681 -2.28937e-05 -3.04431e-07
-7.52518e-07 -3.04431e-07 2.04269e-05
0.00241264 0.000392625 -1.1937e-06
0.000392625 0.000154497 -4.42218e-07
-1.1937e-06 -4.42218e-07 4.55478e-05
0.00230869 0.000365706 -5.80375e-08
0.000365706 1.16672e-05 -2.07076e-07
-5.80375e-08 -2.07076e-07 -1.97793e-05
0.00247371 0.000338321 -5.70293e-08
0.000338321 3.21757e-06 1.96147e-07
-5.70293e-08 1.96147e-07 3.06519e-05
0.00177238 0.000354715 -3.20096e-06
0.000354715 5.75143e-05 -7.7091e-07
-3.20096e-06 -7.7091e-07 -0.000127542
0.00233214 0.000484191 9.02244e-07
0.000484191 0.000122277 8.0475e-08
9.02244e-07 8.0475e-08 -3.13123e-05
0.00239268 0.000494882 3.51769e-06
0.000494882 0.000103599 8.99865e-07
3.51769e-06 8.99865e-07 2.48398e-05
0.000330625 0.000165822 -1.48667e-05
0.000165822 -0.000309534 -8.78734e-06
-1.48667e-05 -8.78734e-06 -0.000464661
0.00176393 0.000431691 2.16744e-06
0.000431691 6.54167e-05 1.29024e-06
2.16744e-06 1.29024e-06 -0.000157389
0.00234024 0.000597868 -2.80282e-06
0.000597868 0.000150757 -2.2489e-06
-2.80282e-06 -2.2489e-06 -5.63855e-05
0.00801698 0.000381789 -0.000425525
0.000381789 0.00502784 -5.98216e-05
-0.000425525 -5.98216e-05 0.005029
0.000375543 0.000228706 4.77447e-07
0.000228706 -0.000294681 4.78196e-07
4.77447e-07 4.78196e-07 -0.000479191
0.0016343 0.000489737 1.16922e-05
0.000489737 1.04684e-05 1.01127e-06
1.16922e-05 1.01127e-06 -0.000257107
0.00871976 0.000404698 1.14176e-05
0.000404698 0.00548071 6.40086e-06
1.14176e-05 6.40086e-06 0.00547809
0.000328029 0.000298265 1.84541e-05
0.000298265 -0.000332583 1.80787e-05
1.84541e-05 1.80787e-05 -0.000556187
0.00951817 0.000332269 0.000477973
0.000332269 0.00596098 6.34467e-05
0.000477973 6.34467e-05 0.0059806
0.00227131 0.000105636 -6.27995e-06
0.000105636 2.72535e-05 -1.30525e-07
-6.27995e-06 -1.30525e-07 2.91831e-05
0.00230236 0.000140728 -6.9722e-07
0.000140728 -4.44909e-05 -3.07875e-07
-6.9722e-07 -3.07875e-07 -5.77413e-06
0.00244791 0.000194437 -7.30059e-07
0.000194437 -9.37e-05 2.37338e-07
-7.30059e-07 2.37338e-07 1.26923e-06
0.00213299 4.91375e-06 -2.40103e-06
4.91375e-06 -0.00011883 -2.96485e-08
-2.40103e-06 -2.96485e-08 -0.000160449
0.00229041 3.42153e-05 -1.26843e-07
3.42153e-05 2.7897e-05 1.6129e-08
-1.26843e-07 1.6129e-08 4.6093e-05
0.00231054 7.08826e-05 3.86894e-07
7.08826e-05 -7.63333e-05 3.03505e-07
3.86894e-07 3.03505e-07 -8.79364e-06
0.00230365 -5.88627e-05 3.65704e-06
-5.88627e-05 7.86226e-07 -1.13826e-07
3.65704e-06 -1.13826e-07 3.48151e-05
0.00218764 -8.57253e-05 -1.67789e-06
-8.57253e-05 -7.88921e-05 1.55283e-07
-1.67789e-06 1.55283e-07 -0.000117933
0.00167604 -5.4391e-05 -4.97971e-06
-5.4391e-05 -2.00552e-06 3.73943e-07
-4.97971e-06 3.73943e-07 -9.92633e-05
0.00233407 -0.000196505 2.76878e-06
-0.000196505 3.10027e-05 -1.00422e-06
2.76878e-06 -1.00422e-06 -2.47798e-05
0.00174549 -0.0001288 3.04601e-06
-0.0001288 2.38779e-05 -1.99608e-07
3.04601e-06 -1.99608e-07 -8.79712e-05
0.00017197 -2.58321e-05 -1.33072e-05
-2.58321e-05 -0.000374939 2.51601e-06
-1.33072e-05 2.51601e-06 -0.000476419
0.00162205 -0.000186486 6.74334e-06
-0.000186486 -8.24258e-05 -1.39806e-06
6.74334e-06 -1.39806e-06 -0.00021533
0.000202881 -6.07583e-05 4.06522e-07
-6.07583e-05 -0.000364546 -3.87219e-07
4.06522e-07 -3.87219e-07 -0.000473028
0.00708375 -0.000184916 -0.000403188
-0.000184916 0.00440657 2.60853e-05
-0.000403188 2.60853e-05 0.00444105
0.000265419 -9.55321e-05 1.31292e-05
-9.55321e-05 -0.000330515 -5.36251e-06
1.31292e-05 -5.36251e-06 -0.0004515
0.00723704 -0.000135247 6.11206e-06
-0.000135247 0.00449265 3.96156e-07
6.11206e-06 3.96156e-07 0.00453307
0.00227101 -6.20289e-05 0.000306642
-6.20289e-05 0.00117044 -2.52751e-05
0.000306642 -2.52751e-05 0.0011656
0.00229248 0.0001879 -7.91928e-06
0.0001879 5.92594e-05 -7.53088e-07
-7.91928e-06 -7.53088e-07 4.76732e-05
0.00230623 0.000205555 -7.04014e-07
0.000205555 -2.40913e-05 -6.55156e-08
-7.04014e-07 -6.55156e-08 1.10691e-05
0.00243224 0.000293642 -3.33237e-07
0.000293642 0.000142326 -1.25637e-07
-3.33237e-07 -1.25637e-07 6.52886e-05
0.00225484 0.0002628 5.69169e-07
0.0002628 3.94476e-06 2.30743e-08
5.69169e-07 2.30743e-08 -1.64674e-05
0.0023722 0.000221611 -2.56452e-07
0.000221611 -2.82833e-05 -6.34461e-08
-2.56452e-07 -6.34461e-08 1.63205e-05
0.00165063 0.0002658 -2.27222e-06
0.0002658 -2.59836e-05 -9.03807e-07
-2.27222e-06 -9.03807e-07 -0.000195626
0.00242563 0.00039375 3.7935e-07
0.00039375 0.000157628 -1.12002e-08
3.7935e-07 -1.12002e-08 4.88091e-05
0.0023194 0.000361459 3.48944e-06
0.000361459 2.05537e-05 1.20887e-06
3.48944e-06 1.20887e-06 -1.22667e-05
0.000314623 0.000124902 -1.38877e-05
0.000124902 -0.000306439 -6.4217e-06
-1.38877e-05 -6.4217e-06 -0.000443846
0.00172247 0.000347618 3.13939e-06
0.000347618 3.62174e-05 1.10264e-06
3.13939e-06 1.10264e-06 -0.000155099
0.0023413 0.000485296 3.29099e-07
0.000485296 0.000139139 7.47913e-08
3.29099e-07 7.47913e-08 -2.56175e-05
0.00763464 0.000352587 -0.000429362
0.000352587 0.00479072 -5.26671e-05
-0.000429362 -5.26671e-05 0.00479685
0.000358393 0.000175168 3.95329e-07
0.000175168 -0.000294952 2.13814e-07
3.95329e-07 2.13814e-07 -0.00045391
0.00174127 0.000421852 8.60625e-06
0.000421852 5.69326e-05 2.42371e-06
8.60625e-06 2.42371e-06 -0.00016107
0.00818544 0.000412593 8.59566e-06
0.000412593 0.00514892 6.28078e-06
8.59566e-06 6.28078e-06 0.00514461
0.000370407 0.00023414 1.59918e-05
0.00023414 -0.000304296 1.30058e-05
1.59918e-05 1.30058e-05 -0.000492837
0.00890197 0.00042486 0.000468471
0.00042486 0.00559765 7.19853e-05
0.000468471 7.19853e-05 0.00559797
0.00209164 0.000102023 -6.10727e-07
0.000102023 -0.000128301 -3.32855e-07
-6.10727e-07 -3.32855e-07 -0.000181108
0.00229343 0.000106032 -1.83633e-06
0.000106032 4.7965e-05 -7.52032e-08
-1.83633e-06 -7.52032e-08 4.84935e-05
0.00229519 0.000148736 1.97807e-06
0.000148736 -4.1585e-05 1.1911e-07
1.97807e-06 1.1911e-07 -2.57439e-06
0.00166844 -2.89449e-06 -3.54965e-06
-2.89449e-06 4.38158e-06 2.10292e-07
-3.54965e-06 2.10292e-07 -9.27602e-05
0.00217011 5.54976e-06 -1.7353e-06
5.54976e-06 -8.34614e-05 4.31322e-08
-1.7353e-06 4.31322e-08 -0.000124385
0.00229138 3.7328e-05 4.71672e-06
3.7328e-05 2.23935e-05 3.05885e-07
4.71672e-06 3.05885e-07 4.54939e-05
0.00224494 -8.5025e-05 -6.70625e-07
-8.5025e-05 -3.10063e-05 1.99064e-10
-6.70625e-07 1.99064e-10 -6.78133e-05
0.00177621 -5.85157e-05 2.44547e-06
-5.85157e-05 6.28115e-05 -5.42285e-08
2.44547e-06 -5.42285e-08 -3.34655e-05
0.00019067 -3.42495e-05 -1.40546e-05
-3.42495e-05 -0.000353579 1.73044e-06
-1.40546e-05 1.73044e-06 -0.000449475
0.00166325 -0.000129545 9.7197e-06
-0.000129545 -4.59232e-05 -1.50658e-06
9.7197e-06 -1.50658e-06 -0.00016514
0.000180483 -1.46729e-05 4.03096e-08
-1.46729e-05 -0.000368717 6.46845e-08
4.03096e-08 6.46845e-08 -0.00046835
0.00697573 -0.000147603 -0.000402503
-0.000147603 0.00433256 1.99432e-05
-0.000402503 1.99432e-05 0.00437219
0.000235688 -6.5345e-05 1.37876e-05
-6.5345e-05 -0.000335 -3.90477e-06
1.37876e-05 -3.90477e-06 -0.000443388
0.00708162 -8.75936e-05 -2.74255e-06
-8.75936e-05 0.0043897 4.01452e-06
-2.74255e-06 4.01452e-06 0.00443397
0.00721231 -0.000148264 0.000403193
-0.000148264 0.00447976 -2.41601e-05
0.000403193 -2.41601e-05 0.00451968
0.00239814 0.000194514 3.23552e-07
0.000194514 0.00011619 -4.33187e-07
3.23552e-07 -4.33187e-07 5.77285e-05
0.00223942 0.000189781 -3.64059e-07
0.000189781 8.61998e-06 8.89457e-08
-3.64059e-07 8.89457e-08 1.48601e-06
0.00221762 0.00020704 1.65273e-06
0.00020704 -9.93053e-05 3.99063e-07
1.65273e-06 3.99063e-07 -5.47074e-05
0.00160771 0.000186201 -1.20978e-06
0.000186201 -5.19119e-05 -4.39728e-07
-1.20978e-06 -4.39728e-07 -0.000198158
0.00244417 0.00029201 2.96254e-07
0.00029201 0.000147591 -4.85314e-08
2.96254e-07 -4.85314e-08 7.11348e-05
0.00226449 0.000263736 4.90258e-06
0.000263736 7.53296e-06 5.74911e-07
4.90258e-06 5.74911e-07 -1.3752e-05
0.00026874 8.69655e-05 -1.26734e-05
8.69655e-05 -0.000321132 -4.63031e-06
-1.26734e-05 -4.63031e-06 -0.000443739
0.00168735 0.000266475 -5.86577e-08
0.000266475 1.72038e-05 2.15802e-07
-5.86577e-08 2.15802e-07 -0.000153295
0.00244265 0.000394898 1.24413e-06
0.000394898 0.000164093 3.02511e-07
1.24413e-06 3.02511e-07 5.5396e-05
0.0073429 0.000285903 -0.000430028
0.000285903 0.00459548 -4.23573e-05
-0.000430028 -4.23573e-05 0.00461514
0.000327865 0.000134334 3.28278e-07
0.000134334 -0.000300671 1.75974e-07
3.28278e-07 1.75974e-07 -0.000441394
0.00166368 0.000339499 6.03721e-06
0.000339499 9.22383e-06 2.39716e-06
6.03721e-06 2.39716e-06 -0.000187782
0.00775621 0.000373412 5.12229e-06
0.000373412 0.00487433 3.9181e-06
5.12229e-06 3.9181e-06 0.00487815
0.000384903 0.000185817 1.52018e-05
0.000185817 -0.000279862 9.77226e-06
1.52018e-05 9.77226e-06 -0.000443292
0.00839298 0.000458786 0.000465544
0.000458786 0.00529967 7.44952e-05
0.000465544 7.44952e-05 0.00528915
0.00151472 5.61559e-05 -3.99617e-06
5.61559e-05 -9.64401e-05 1.78154e-07
-3.99617e-06 1.78154e-07 -0.000216298
0.00222363 9.98588e-05 -3.18954e-06
9.98588e-05 -3.14711e-05 -2.37158e-07
-3.18954e-06 -2.37158e-07 -7.46097e-05
0.00231762 0.000106681 5.54272e-06
0.000106681 6.96871e-05 4.90361e-07
5.54272e-06 4.90361e-07 6.89185e-05
0.000221155 3.19048e-05 -1.47713e-05
3.19048e-05 -0.000333647 -3.37042e-07
-1.47713e-05 -3.37042e-07 -0.000422137
0.00174983 -1.22966e-06 2.70027e-06
-1.22966e-06 5.70998e-05 8.14975e-08
2.70027e-06 8.14975e-08 -3.91461e-05
0.0022126 8.09036e-06 -1.61119e-06
8.09036e-06 -4.4439e-05 -1.38882e-08
-1.61119e-06 -1.38882e-08 -8.45444e-05
0.00186793 -6.19478e-05 1.11148e-05
-6.19478e-05 0.000122071 -9.63389e-07
1.11148e-05 -9.63389e-07 2.67866e-05
0.000183431 -9.74717e-06 2.74085e-07
-9.74717e-06 -0.000356864 3.69013e-07
2.74085e-07 3.69013e-07 -0.00045253
0.00685199 -7.24477e-06 -0.000403068
-7.24477e-06 0.00424027 5.20873e-06
-0.000403068 5.20873e-06 0.00428968
0.000176021 -3.07122e-06 1.36266e-05
-3.07122e-06 -0.000371073 -1.57103e-06
1.36266e-05 -1.57103e-06 -0.000468793
0.00692293 -0.000144033 -6.93837e-06
-0.000144033 0.00430021 2.45558e-06
-6.93837e-06 2.45558e-06 0.00433926
0.00701625 -7.15648e-05 0.00038923
-7.15648e-05 0.00434653 -1.46913e-05
0.00038923 -1.46913e-05 0.00439124
0.00158919 0.000117317 -2.76259e-06
0.000117317 -4.45295e-05 -2.98585e-07
-2.76259e-06 -2.98585e-07 -0.000174716
0.00236032 0.000189967 -2.22867e-07
0.000189967 8.31035e-05 -2.32522e-07
-2.22867e-07 -2.32522e-07 2.81676e-05
0.00218616 0.000191567 3.79514e-06
0.000191567 -4.15601e-05 2.54685e-08
3.79514e-06 2.54685e-08 -4.42007e-05
0.00271136 9.84296e-05 -0.000172762
9.84296e-05 0.00131494 -8.21961e-06
-0.000172762 -8.21961e-06 0.00125469
0.00164463 0.000187696 -2.21955e-08
0.000187696 -1.18688e-05 7.32338e-08
-2.21955e-08 7.32338e-08 -0.000158999
0.00245218 0.000289914 1.1399e-06
0.000289914 0.00015105 1.17315e-07
1.1399e-06 1.17315e-07 7.52582e-05
0.00715881 0.000216273 -0.000426069
0.000216273 0.00446529 -3.14223e-05
-0.000426069 -3.14223e-05 0.0044977
0.000295258 0.000107092 4.2803e-07
0.000107092 -0.000305269 4.7825e-07
4.2803e-07 4.7825e-07 -0.000431366
0.0017255 0.00026663 2.11465e-06
0.00026663 6.14208e-05 1.0833e-06
2.11465e-06 1.0833e-06 -0.000109915
0.00745375 0.000303498 2.84004e-06
0.000303498 0.00466882 2.22115e-06
2.84004e-06 2.22115e-06 0.00468647
0.000352944 0.000145985 1.45466e-05
0.000145985 -0.000286472 7.53523e-06
1.45466e-05 7.53523e-06 -0.000431148
0.00787084 0.000407801 0.000450833
0.000407801 0.00496175 6.5971e-05
0.000450833 6.5971e-05 0.00495973
0.000338085 2.21924e-05 -1.18037e-05
2.21924e-05 -0.00024666 -1.38208e-06
-1.18037e-05 -1.38208e-06 -0.000344527
0.00164048 5.68682e-05 -9.91531e-07
5.68682e-05 -6.01151e-06 -4.93057e-09
-9.91531e-07 -4.93057e-09 -0.000117399
0.00233165 9.65012e-05 -1.42208e-06
9.65012e-05 4.67009e-05 1.58678e-07
-1.42208e-06 1.58678e-07 1.30354e-05
0.00673089 -9.76908e-05 -0.000386958
-9.76908e-05 0.00417683 6.95815e-06
-0.000386958 6.95815e-06 0.00421659
0.000182009 1.4329e-05 -6.08253e-07
1.4329e-05 -0.000356039 -3.22424e-07
-6.08253e-07 -3.22424e-07 -0.000446919
0.00183501 -1.16215e-06 9.97517e-06
-1.16215e-06 0.000111673 -5.35777e-07
9.97517e-06 -5.35777e-07 1.6318e-05
0.000162814 1.43969e-05 1.39293e-05
1.43969e-05 -0.000371094 -3.46511e-07
1.39293e-05 -3.46511e-07 -0.00046541
0.00679993 -3.82014e-05 1.40255e-06
-3.82014e-05 0.00421353 -2.18261e-06
1.40255e-06 -2.18261e-06 0.0042572
0.006888 -7.49385e-05 0.000390936
-7.49385e-05 0.00426381 -1.0915e-05
0.000390936 -1.0915e-05 0.00430926
0.00283793 4.40057e-05 -0.000167958
4.40057e-05 0.00140365 -4.34915e-06
-0.000167958 -4.34915e-06 0.00135234
0.00160299 0.000120133 -2.28583e-07
0.000120133 -2.96864e-05 3.33315e-08
-2.28583e-07 3.33315e-08 -0.000160659
0.00232204 0.000185521 6.03014e-07
0.000185521 4.87823e-05 -2.65203e-07
6.03014e-07 -2.65203e-07 -2.72653e-06
0.00671023 2.68752e-05 -0.000191565
2.68752e-05 0.00417692 -3.36078e-06
-0.000191565 -3.36078e-06 0.00416915
0.000247464 8.33461e-05 3.82738e-07
8.33461e-05 -0.000324054 2.07531e-07
3.82738e-07 2.07531e-07 -0.000436508
0.00168457 0.000190378 1.75361e-06
0.000190378 2.79425e-05 3.848e-07
1.75361e-06 3.848e-07 -0.000120218
0.00720975 0.000194621 -6.06769e-06
0.000194621 0.00449049 -1.5525e-06
-6.06769e-06 -1.5525e-06 0.00452447
0.00032041 0.000127879 1.55493e-05
0.000127879 -0.000291365 6.41117e-06
1.55493e-05 6.41117e-06 -0.000420307
0.00752384 0.000323725 0.00044276
0.000323725 0.00471839 5.31158e-05
0.00044276 5.31158e-05 0.00473471
0.00215797 -4.41104e-05 -0.000296576
-4.41104e-05 0.00109672 1.70173e-06
-0.000296576 1.70173e-06 0.00110808
0.00145576 4.44861e-05 -7.59997e-05
4.44861e-05 0.000488204 -6.12899e-07
-7.59997e-05 -6.12899e-07 0.00041907
0.00178112 6.02083e-05 6.03126e-06
6.02083e-05 9.68271e-05 -1.21906e-07
6.03126e-06 -1.21906e-07 -5.96224e-06
0.0067769 -4.49597e-05 6.24379e-06
-4.49597e-05 0.00420113 3.83399e-06
6.24379e-06 3.83399e-06 0.00424676
0.000177166 -1.45175e-06 1.4609e-05
-1.45175e-06 -0.000353122 1.28418e-07
1.4609e-05 1.28418e-07 -0.00044741
0.0068047 -9.40217e-05 0.000402567
-9.40217e-05 0.00422228 -8.43409e-06
0.000402567 -8.43409e-06 0.00426565
0.00170285 3.66792e-05 -8.85966e-05
3.66792e-05 0.000833979 -2.68752e-06
-8.85966e-05 -2.68752e-06 0.000786321
0.00146787 4.40656e-05 -7.63777e-05
4.40656e-05 0.000490872 -2.74409e-06
-7.63777e-05 -2.74409e-06 0.000414662
0.00161932 0.000121098 3.01727e-06
0.000121098 -1.16088e-05 1.43292e-07
3.01727e-06 1.43292e-07 -0.000143241
0.00441254 0.000101876 0.000152234
0.000101876 0.00262828 6.57119e-06
0.000152234 6.57119e-06 0.00262429
0.000224736 9.4409e-05 1.53646e-05
9.4409e-05 -0.000342993 4.8646e-06
1.53646e-05 4.8646e-06 -0.000456177
0.00725504 0.000183271 0.000419811
0.000183271 0.00451088 3.36532e-05
0.000419811 3.36532e-05 0.00454856
0.00677004 -4.74768e-07 -7.51794e-06
-4.74768e-07 0.0042025 -4.28529e-06
-7.51794e-06 -4.28529e-06 0.00424549
0.000198421 5.91369e-05 1.6689e-05
5.91369e-05 -0.000351843 2.30399e-06
1.6689e-05 2.30399e-06 -0.000442012
0.00671409 3.56618e-05 0.00039312
3.56618e-05 0.00415612 1.12713e-06
0.00039312 1.12713e-06 0.00420444
0.00432117 6.15432e-05 0.000161254
6.15432e-05 0.00256748 8.15688e-06
0.000161254 8.15688e-06 0.00256868
0.000226526 3.20125e-05 1.4855e-05
3.20125e-05 -0.000335681 2.44054e-06
1.4855e-05 2.44054e-06 -0.000436522
0.00702696 5.49291e-05 0.000404218
5.49291e-05 0.00435449 1.75999e-05
0.000404218 1.75999e-05 0.00439921
0.00676993 -8.61707e-05 0.000391841
-8.61707e-05 0.0042027 -2.93047e-06
0.000391841 -2.93047e-06 0.00424332
0.00681005 5.15702e-05 0.000395851
5.15702e-05 0.00421222 1.17238e-05
0.000395851 1.17238e-05 0.00426024
