# vtk DataFile Version 2.0
Wound Healing Simulation
ASCII
DATASET UNSTRUCTURED_GRID
POINTS 3012 float
69.9759 18.75 4
67.2507 60.3285 4
69.976 18.75 2
73.0099 25.446 4
71.1327 20.9142 4
68.6801 16.6661 4
67.8271 19.9257 3.9859
67.2507 60.3286 2
71.1327 54.0858 4
68.6801 58.3339 4
65.6939 62.2254 4
65.3137 59.0029 3.98695
74.6784 42.3946 4
73.7221 47.2057 4
69.9759 18.75 0
73.0099 25.446 2
68.6801 16.6661 2
71.1327 20.9142 2
67.8276 19.9279 2
74.6792 32.6053 4
73.7222 27.7943 4
72.1454 23.1494 4
70.6153 26.2219 3.98515
68.8871 21.9587 3.98565
67.2507 14.6715 4
66.6387 17.9705 3.98651
65.801 21.0237 3.97917
67.2507 60.3285 0
71.1327 54.0858 2
68.6801 58.3339 2
65.694 62.2255 2
65.3146 59.0015 2
72.1454 51.8506 4
69.9759 56.25 4
68.8376 53.1128 3.98492
64.0165 64.0165 4
66.6122 57.135 3.98657
63.8871 60.7677 3.98857
63.5039 57.776 3.98141
60.3285 67.2507 4
74.6792 42.3947 2
73.7222 47.2057 2
74.9194 39.9526 4
74.2788 44.8158 4
72.1688 42.0857 3.98328
73.0099 49.554 4
71.2502 46.5981 3.98443
73.0099 25.446 0
71.1327 20.9142 0
68.6801 16.6661 0
67.8271 19.9257 0.0141037
74.6792 32.6053 2
73.7222 27.7943 2
67.2508 14.6715 2
72.1455 23.1494 2
70.6153 26.2224 2
66.6395 17.9723 2
68.8874 21.9605 2
65.8008 21.0234 2
74.9197 35.0474 4
74.2794 30.1841 4
72.1854 32.9434 3.98366
71.2792 28.4318 3.98494
69.8168 24.0607 3.98531
68.3495 26.9515 3.97639
66.7657 22.9329 3.97767
65.694 12.7746 4
65.3253 16.1014 3.98773
64.718 19.1914 3.98077
63.892 22.0326 3.97531
71.1327 54.0858 0
65.6939 62.2254 0
68.6801 58.3339 0
65.3137 59.0029 0.0130522
72.1455 51.8506 2
69.9759 56.25 2
68.8379 53.1107 2
64.0165 64.0165 2
66.6131 57.1329 2
63.8879 60.767 2
63.504 57.7769 2
62.2254 65.694 4
58.8951 65.4153 3.99253
69.77 50.9883 3.98456
67.7851 55.1678 3.98568
66.6522 52.2101 3.9768
62.3373 62.429 3.99041
64.6648 56.0349 3.98094
62.2056 59.4095 3.98243
61.8279 56.6875 3.97819
58.3339 68.6801 4
60.3285 67.2508 2
73.7221 47.2057 0
74.6784 42.3946 0
74.9197 39.9526 2
74.2794 44.8159 2
72.1686 42.0856 2
73.0099 49.554 2
71.2503 46.5977 2
75 37.5 4
72.4058 39.8023 3.98302
71.7833 44.353 3.98392
69.8056 41.7902 3.97451
70.5761 48.8132 3.9845
68.9147 46.0156 3.97563
74.6792 32.6053 0
73.7222 27.7943 0
67.2507 14.6715 0
72.1454 23.1494 0
70.6153 26.2219 0.0148546
68.8871 21.9587 0.0143505
66.6387 17.9705 0.0134867
65.801 21.0237 0.0208267
74.9197 35.0474 2
74.2794 30.1841 2
72.1852 32.9434 2
71.2792 28.4319 2
65.694 12.7745 2
65.3262 16.1024 2
69.8169 24.0619 2
68.3493 26.9517 2
64.7181 19.1907 2
66.7655 22.9329 2
63.8918 22.0321 2
72.4137 35.2242 3.98304
71.8047 30.6764 3.98423
69.8416 33.2683 3.97501
68.9689 29.038 3.97636
67.6139 24.9122 3.97658
66.1977 27.6339 3.97312
64.0165 10.9835 4
64.7603 23.8288 3.9739
63.8915 14.3251 3.98907
63.5172 17.4417 3.98266
62.9126 20.3155 3.9767
62.0977 22.9398 3.97317
60.6848 11.096 3.99117
57.6133 11.4423 3.98571
72.1454 51.8506 0
69.9759 56.25 0
68.8376 53.1128 0.0150819
64.0165 64.0165 0
63.8871 60.7677 0.0114325
66.6122 57.135 0.0134345
63.5039 57.776 0.0185896
62.2255 65.694 2
58.8955 65.4152 2
69.7702 50.9869 2
67.7857 55.1654 2
66.652 52.2099 2
62.338 62.4286 2
64.6649 56.0355 2
62.2058 59.4104 2
61.8281 56.6885 2
60.6697 63.9783 3.99161
57.0258 66.7361 3.99314
57.5591 63.6956 3.98694
67.5097 50.1773 3.97562
65.7054 54.1751 3.9787
64.5406 51.3874 3.97261
60.775 60.9428 3.9838
62.8255 55.0731 3.97787
60.6622 58.1666 3.97865
60.3332 55.7929 3.97716
56.25 69.9759 4
58.3339 68.6801 2
60.3285 67.2507 0
58.922 9.65442 3.99192
62.2254 9.30607 4
73.0099 49.554 0
74.2788 44.8158 0
71.2502 46.5981 0.0155736
72.1688 42.0857 0.0167195
74.9194 39.9526 0
75 37.5 2
72.4058 39.8024 2
71.7833 44.3527 2
69.8054 41.79 2
70.5762 48.8124 2
68.9147 46.0153 2
72.4892 37.5121 3.98284
70.0422 39.6577 3.9738
69.4324 43.9082 3.97517
67.5992 41.4986 3.97102
68.2682 48.1078 3.97554
66.7129 45.4418 3.97223
74.9197 35.0474 0
74.2794 30.1841 0
72.1854 32.9434 0.016344
71.2792 28.4318 0.0150551
65.694 12.7746 0
65.3253 16.1014 0.0122738
69.8168 24.0607 0.014693
68.3495 26.9515 0.0236133
66.7657 22.9329 0.0223312
64.718 19.1914 0.0192276
63.892 22.0326 0.0246939
72.4136 35.2241 2
71.8047 30.6765 2
69.8415 33.2685 2
68.9689 29.0381 2
64.0165 10.9835 2
63.8921 14.3256 2
63.5174 17.4407 2
67.6137 24.9124 2
66.1976 27.6338 2
62.9128 20.3147 2
64.7601 23.8285 2
62.0977 22.9394 2
60.6853 11.0965 2
57.6134 11.4415 2
70.0589 35.392 3.97403
69.4691 31.1494 3.97544
67.6575 33.5905 3.97156
66.7757 29.6218 3.97269
65.527 25.6987 3.97311
64.1497 28.254 3.97238
62.3427 12.6532 3.99015
62.8602 24.6355 3.97192
62.2019 15.7791 3.98369
61.8192 18.6778 3.97884
61.2234 21.3363 3.97409
60.4297 23.7238 3.97258
59.2475 12.7737 3.98411
55.8751 10.229 3.98719
56.4063 13.1061 3.98247
69.77 50.9883 0.0154371
62.2254 65.694 0
58.8951 65.4153 0.00747096
67.7851 55.1678 0.014325
66.6522 52.2101 0.0231986
62.3373 62.429 0.00959237
62.2056 59.4095 0.0175734
64.6648 56.0349 0.0190562
61.8279 56.6875 0.0218086
60.6702 63.978 2
57.0261 66.7362 2
57.5591 63.6966 2
67.5095 50.1769 2
65.7054 54.1754 2
64.5405 51.3876 2
60.7752 60.9439 2
62.8257 55.074 2
60.6624 58.1676 2
60.3335 55.7938 2
55.0712 67.9331 3.9934
59.2206 62.3706 3.98482
55.8057 64.9134 3.98886
56.3282 62.0962 3.98339
65.3341 49.4099 3.9717
63.7102 53.2956 3.97467
62.4438 50.655 3.97058
59.3359 59.5641 3.98112
61.0825 54.3152 3.97672
59.2932 57.0201 3.97577
59.2473 55.19 3.97832
48.1037 68.5811 3.99001
50.9488 69.9327 3.99378
54.0858 71.1327 4
56.25 69.976 2
58.3339 68.6801 0
57.0591 8.33445 3.99223
60.3285 7.74928 4
58.9225 9.65459 2
62.2255 9.30602 2
70.5761 48.8132 0.0154964
71.7833 44.353 0.0160837
68.9147 46.0156 0.0243691
69.8056 41.7902 0.0254888
72.4058 39.8023 0.0169816
75 37.5 0
72.489 37.5121 2
70.0422 39.6576 2
69.4324 43.908 2
67.5991 41.4986 2
68.2681 48.1074 2
66.7129 45.4418 2
70.1303 37.5217 3.97386
67.8356 39.5129 3.97039
67.2262 43.4714 3.97154
65.5579 41.2112 3.97034
66.0714 47.4198 3.97233
64.6556 44.851 3.97096
72.4137 35.2242 0.0169623
71.8047 30.6764 0.0157722
69.8416 33.2683 0.0249932
68.9689 29.038 0.0236356
64.0165 10.9835 0
63.8915 14.3251 0.010931
63.5172 17.4417 0.017343
67.6139 24.9122 0.0234226
66.1977 27.6339 0.0268794
64.7603 23.8288 0.0260981
62.9126 20.3155 0.0233036
62.0977 22.9398 0.0268335
60.6848 11.096 0.00883317
57.6133 11.4423 0.0142949
70.0589 35.3921 2
69.4692 31.1495 2
67.6574 33.5904 2
66.7757 29.6216 2
62.3432 12.6537 2
62.2019 15.7784 2
61.8195 18.6768 2
65.5268 25.6985 2
64.1496 28.2539 2
61.2236 21.3356 2
62.8601 24.6353 2
60.4297 23.7235 2
59.2475 12.7732 2
56.4063 13.1051 2
55.8752 10.2282 2
67.8717 35.5475 3.97066
67.2677 31.6218 3.97172
65.6999 33.9267 3.97065
64.6665 30.1905 3.97126
63.5408 26.4131 3.9719
62.2608 28.7757 3.97239
60.777 14.2183 3.98379
61.0472 25.3356 3.97137
60.6168 17.1203 3.98098
60.2281 19.8092 3.97623
59.666 22.2532 3.97225
58.981 24.3163 3.97318
54.0382 9.13222 3.9879
57.9118 14.3249 3.98214
54.7876 12.0052 3.98385
55.3136 14.6376 3.98099
67.5097 50.1773 0.024377
57.0258 66.7361 0.00686046
60.6697 63.9783 0.00838761
57.5591 63.6956 0.0130589
65.7054 54.1751 0.0212968
64.5406 51.3874 0.0273879
60.775 60.9428 0.0161999
60.6622 58.1666 0.0213548
62.8255 55.0731 0.0221329
60.3332 55.7929 0.0228388
55.0715 67.9332 2
59.2207 62.3716 2
55.8056 64.9142 2
56.3283 62.0973 2
65.3339 49.4099 2
63.7102 53.2963 2
62.4438 50.6552 2
59.3361 59.5653 2
61.0828 54.316 2
59.2935 57.0209 2
59.2478 55.1906 2
53.043 69.0009 3.99364
53.968 66.0156 3.98949
57.8824 60.8765 3.98225
54.6849 63.2131 3.98524
55.2128 60.6238 3.98163
63.1958 48.6638 3.9702
61.7449 52.5792 3.97258
60.2739 50.0231 3.96956
58.021 58.2687 3.97803
59.332 53.9534 3.97615
58.1304 55.8188 3.9738
50.1104 67.8591 3.98994
47.4643 66.5853 3.9877
46.0573 69.1606 3.99014
48.1036 68.5815 2
48.8029 70.724 3.99388
50.9491 69.9328 2
51.8506 72.1454 4
54.0858 71.1327 2
56.25 69.9759 0
55.1034 7.13896 3.99252
58.3339 6.31992 4
57.0596 8.33442 2
60.3286 7.74926 2
58.922 9.65442 0.0080812
62.2254 9.30607 0
68.2682 48.1078 0.0244612
69.4324 43.9082 0.0248276
66.7129 45.4418 0.0277718
67.5992 41.4986 0.0289844
70.0422 39.6577 0.0261957
72.4892 37.5121 0.0171579
70.1302 37.5217 2
67.8356 39.513 2
67.2262 43.4715 2
65.5578 41.2113 2
66.0713 47.4198 2
64.6555 44.8511 2
67.9319 37.5223 3.97046
65.7889 39.3711 3.96996
65.1787 43.0273 3.97051
63.7564 40.9314 3.9711
63.9684 46.7196 3.97117
62.8108 44.2196 3.97171
70.0589 35.392 0.0259663
69.4691 31.1494 0.0245602
67.6575 33.5905 0.0284357
66.7757 29.6218 0.0273099
62.3427 12.6532 0.00984817
62.2019 15.7791 0.0163058
61.8192 18.6778 0.0211589
65.527 25.6987 0.0268941
64.1497 28.254 0.0276233
62.8602 24.6355 0.0280822
61.2234 21.3363 0.0259068
60.4297 23.7238 0.0274231
59.2475 12.7737 0.015888
56.4063 13.1061 0.0175286
55.8751 10.229 0.0128085
67.8717 35.5475 2
67.2679 31.6216 2
65.6999 33.9266 2
64.6665 30.1903 2
60.7771 14.2177 2
60.6168 17.1193 2
60.2285 19.8082 2
63.5406 26.413 2
62.2607 28.7756 2
59.6663 22.2527 2
61.0471 25.3355 2
58.9811 24.3161 2
57.9116 14.3242 2
55.3134 14.6367 2
54.0382 9.13158 2
54.7876 12.0043 2
65.8776 35.6667 3.96999
65.1884 32.1533 3.97036
64.2859 34.2493 3.97075
62.5986 30.634 3.97158
61.6534 27.0703 3.97168
60.8539 29.1382 3.973
59.313 15.6617 3.98192
59.3317 25.7937 3.97238
59.1278 18.3475 3.9793
58.7446 20.8472 3.97349
58.288 23.0875 3.97152
57.9697 24.661 3.9758
52.1128 8.15062 3.98843
53.0585 11.0115 3.98471
56.6781 15.7343 3.98118
53.8102 13.6724 3.98231
54.3774 15.9894 3.98076
55.0712 67.9331 0.00659586
65.3341 49.4099 0.0282995
55.8057 64.9134 0.0111447
59.2206 62.3706 0.0151794
56.3282 62.0962 0.0166107
63.7102 53.2956 0.0253296
62.4438 50.655 0.0294232
59.3359 59.5641 0.0188839
59.2932 57.0201 0.0242272
61.0825 54.3152 0.0232772
59.2473 55.19 0.0216848
53.0433 69.001 2
53.9678 66.0162 2
57.8824 60.8775 2
54.6848 63.2142 2
55.2128 60.6251 2
63.1956 48.6638 2
61.7452 52.5798 2
60.274 50.0232 2
58.0214 58.2699 2
59.3325 53.9538 2
58.1308 55.819 2
52.0715 67.0021 3.9898
52.9542 64.2235 3.98666
56.6502 59.4963 3.98044
53.6822 61.6298 3.98314
54.2617 59.3296 3.97951
60.9938 47.8846 3.96985
59.7115 52.1098 3.9723
58.0235 49.6218 3.97049
56.7797 56.9951 3.97495
57.1239 54.1269 3.9742
50.1103 67.8596 2
49.338 65.9256 3.98765
47.4641 66.5859 2
46.8931 64.7425 3.98636
45.5593 67.1028 3.98748
43.9741 69.5928 3.99002
46.0573 69.161 2
46.6095 71.3684 3.99397
48.1037 68.5811 0.00998589
48.8032 70.7241 2
49.554 73.0099 4
50.9488 69.9327 0.0062183
51.8506 72.1455 2
54.0858 71.1327 0
53.0644 6.07042 3.99278
55.1038 7.13889 2
56.25 5.02411 4
58.3339 6.3199 2
57.0591 8.33445 0.00776679
60.3285 7.74928 0
66.0714 47.4198 0.0276731
67.2262 43.4714 0.0284644
64.6556 44.851 0.0290433
65.5579 41.2112 0.0296619
67.8356 39.5129 0.0296126
70.1303 37.5217 0.0261377
67.9319 37.5223 2
65.7889 39.3711 2
65.1786 43.0274 2
63.7565 40.9314 2
63.9682 46.7197 2
62.8107 44.2196 2
65.8918 37.5022 3.96984
63.8934 39.2679 3.97067
63.3313 42.5526 3.97097
62.426 40.6999 3.9721
61.9709 45.9232 3.97126
61.4532 43.687 3.97298
67.8717 35.5475 0.029342
67.2677 31.6218 0.0282793
65.6999 33.9267 0.0293526
64.6665 30.1905 0.0287354
60.777 14.2183 0.0162096
60.6168 17.1203 0.0190184
60.2281 19.8092 0.0237747
63.5408 26.4131 0.0280994
62.2608 28.7757 0.0276092
61.0472 25.3356 0.0286304
59.666 22.2532 0.0277518
58.981 24.3163 0.0268154
57.9118 14.3249 0.0178592
55.3136 14.6376 0.0190061
54.0382 9.13222 0.0121041
54.7876 12.0052 0.0161461
65.8776 35.6667 2
65.1886 32.1531 2
64.2861 34.2492 2
62.5987 30.6339 2
59.3128 15.6609 2
59.128 18.3464 2
58.7452 20.8464 2
61.6532 27.0702 2
60.8538 29.1381 2
58.2883 23.0873 2
59.3317 25.7937 2
57.9698 24.661 2
56.6778 15.7334 2
54.3772 15.9885 2
53.8102 13.6713 2
52.1128 8.15008 2
53.0585 11.0107 2
64.0882 35.6322 3.9704
62.932 33.0454 3.97083
60.6193 30.6103 3.97276
59.5719 27.9074 3.97258
57.9419 16.9753 3.98093
57.7395 25.7223 3.97307
57.7185 19.4681 3.9774
57.3736 21.835 3.97085
57.1875 23.944 3.97203
50.1128 7.28257 3.98882
51.2329 10.1198 3.98552
52.1725 12.7897 3.98342
55.539 16.9635 3.98108
52.9783 15.2541 3.98042
53.7594 16.9712 3.98097
53.043 69.0009 0.00635739
53.968 66.0156 0.0105132
63.1958 48.6638 0.029797
54.6849 63.2131 0.0147562
57.8824 60.8765 0.0177504
55.2128 60.6238 0.0183686
61.7449 52.5792 0.0274239
60.2739 50.0231 0.0304393
58.021 58.2687 0.0219658
58.1304 55.8188 0.0262036
59.332 53.9534 0.0238498
52.0714 67.0027 2
52.954 64.2244 2
56.6503 59.4975 2
53.6821 61.6311 2
54.2616 59.3313 2
60.9936 47.8846 2
59.712 52.1102 2
58.0236 49.6218 2
56.7799 56.9972 2
57.1244 54.1272 2
51.1689 65.1326 3.98737
52.047 62.5455 3.98477
55.4828 58.2574 3.97939
52.8356 60.1436 3.98111
53.6415 58.4798 3.98009
58.3057 46.854 3.97294
57.5594 51.7911 3.97219
56.2431 49.5578 3.97468
55.4741 55.7962 3.97301
55.357 53.3843 3.96988
50.1104 67.8591 0.0100605
49.3378 65.9262 2
48.6189 64.1289 3.98598
47.4643 66.5853 0.0123024
45.5591 67.1033 2
46.893 64.7431 2
46.3825 63.0612 3.98526
45.1334 65.2039 3.98638
43.6322 67.4734 3.98749
41.8611 69.8802 3.98984
43.9741 69.5933 2
44.3768 71.8632 3.99385
46.0573 69.1606 0.0098581
46.6097 71.3686 2
47.2057 73.7222 4
48.8029 70.724 0.00612322
49.554 73.0099 2
51.8506 72.1454 0
50.9541 5.13075 3.99303
53.0648 6.07032 2
54.0858 3.86728 4
55.1034 7.13896 0.00747881
56.25 5.02406 2
58.3339 6.31992 0
63.9684 46.7196 0.0288333
65.1787 43.0273 0.0294879
62.8108 44.2196 0.0282856
63.7564 40.9314 0.028895
65.7889 39.3711 0.0300358
67.9319 37.5223 0.0295408
65.8918 37.5021 2
63.8935 39.2679 2
63.3313 42.5526 2
62.4263 40.6999 2
61.9708 45.9232 2
61.4531 43.687 2
63.9543 37.4575 3.97047
62.1433 39.3566 3.97167
61.2135 41.9614 3.97267
60.2546 44.7751 3.97359
65.8776 35.6667 0.0300136
65.1884 32.1533 0.0296448
64.2859 34.2493 0.0292496
62.5986 30.634 0.028417
59.313 15.6617 0.0180839
59.1278 18.3475 0.020696
58.7446 20.8472 0.0265093
61.6534 27.0703 0.0283183
60.8539 29.1382 0.0270031
59.3317 25.7937 0.0276236
58.288 23.0875 0.0284802
57.9697 24.661 0.0241974
56.6781 15.7343 0.0188228
54.3774 15.9894 0.0192424
53.8102 13.6724 0.0176857
52.1128 8.15062 0.0115739
53.0585 11.0115 0.0152908
64.0883 35.6322 2
62.9324 33.0452 2
60.6193 30.6102 2
57.9418 16.9743 2
57.719 19.467 2
57.3743 21.8346 2
59.5722 27.9074 2
57.1878 23.9443 2
57.7396 25.7225 2
50.1128 7.28204 2
55.5388 16.9625 2
53.7591 16.9702 2
52.9781 15.253 2
52.1724 12.7889 2
51.2328 10.1191 2
62.1791 35.3595 3.9712
60.2884 32.7447 3.97253
58.6243 30.0737 3.97357
57.2858 27.3786 3.97362
56.6383 18.1478 3.98048
56.2912 25.0988 3.97291
56.3596 20.5149 3.97322
56.1097 22.8669 3.96818
48.0565 6.52565 3.98923
49.3246 9.32762 3.98596
50.4334 11.9877 3.98385
51.3781 14.4897 3.98213
54.4163 17.9123 3.98124
52.3618 17.0266 3.97982
52.0715 67.0021 0.0102046
52.9542 64.2235 0.0133413
60.9938 47.8846 0.030152
53.6822 61.6298 0.0168591
56.6502 59.4963 0.0195564
54.2617 59.3296 0.02049
59.7115 52.1098 0.0276952
58.0235 49.6218 0.0295136
56.7797 56.9951 0.0250494
57.1239 54.1269 0.0258009
51.1686 65.1332 2
52.0468 62.5464 2
55.4827 58.259 2
52.8355 60.1449 2
53.6414 58.4813 2
58.3054 46.854 2
57.5601 51.7912 2
56.2433 49.5575 2
55.4747 55.7972 2
55.3577 53.3849 2
50.347 63.3872 3.98553
51.245 60.9435 3.98265
54.2211 57.2738 3.97922
52.3138 58.6426 3.9792
56.7082 44.1887 3.97615
55.4916 47.9011 3.97502
55.0652 51.3887 3.97078
54.0044 54.5446 3.97156
49.338 65.9256 0.0123509
48.6187 64.1295 2
47.9627 62.4822 3.9848
45.5593 67.1028 0.0125225
46.8931 64.7425 0.0136353
43.632 67.4739 2
46.3822 63.062 2
45.1332 65.2044 2
45.9881 61.5947 3.98454
44.7677 63.4623 3.98582
43.3573 65.5135 3.98637
41.664 67.6922 3.98735
39.7026 70.0273 3.9897
41.8612 69.8807 2
42.1112 72.208 3.9937
43.9741 69.5928 0.00997933
44.3771 71.8635 2
44.8159 74.2794 4
46.6095 71.3684 0.00603347
47.2057 73.7222 2
49.554 73.0099 0
48.7845 4.32175 3.99327
50.9544 5.1306 2
51.8506 2.85458 4
53.0644 6.07042 0.00722299
54.0858 3.86728 2
56.25 5.02411 0
61.9709 45.9232 0.0287425
63.3313 42.5526 0.0290263
61.4532 43.687 0.0270179
62.426 40.6999 0.0279049
63.8934 39.2679 0.0293304
65.8918 37.5022 0.0301634
63.954 37.4575 2
62.1434 39.3566 2
61.2137 41.9613 2
60.2545 44.7751 2
61.9773 37.4454 3.9715
60.2321 39.8495 3.97324
58.9857 42.9225 3.97377
64.0882 35.6322 0.0296022
62.932 33.0454 0.0291724
60.6193 30.6103 0.0272365
57.9419 16.9753 0.0190702
57.7185 19.4681 0.0225997
57.3736 21.835 0.0291481
59.5719 27.9074 0.0274223
57.7395 25.7223 0.0269323
57.1875 23.944 0.0279686
55.539 16.9635 0.0189172
53.7594 16.9712 0.0190336
52.9783 15.2541 0.019584
50.1128 7.28257 0.011178
52.1725 12.7897 0.0165811
51.2329 10.1198 0.0144843
62.1788 35.3594 2
60.2891 32.7446 2
58.6239 30.0737 2
56.6384 18.1467 2
56.3603 20.5135 2
56.1104 22.8674 2
57.2871 27.3787 2
56.2913 25.0993 2
48.0565 6.52511 2
49.3246 9.32711 2
54.4163 17.9112 2
52.3615 17.0257 2
51.378 14.4887 2
50.4333 11.987 2
59.8742 35.1198 3.9724
57.9907 32.2691 3.97478
56.5428 29.3379 3.97476
55.4414 26.5957 3.97508
55.3436 19.182 3.97949
54.9282 24.0558 3.9693
55.002 21.5578 3.97193
45.9623 5.88062 3.98957
43.3734 7.47087 3.98729
47.3549 8.62132 3.9865
48.6001 11.2892 3.98432
49.7141 13.7367 3.98286
50.6338 16.1235 3.98043
53.1255 18.6512 3.97822
51.3026 18.0397 3.98509
51.1689 65.1326 0.0126259
52.047 62.5455 0.0152254
58.3057 46.854 0.0270602
52.8356 60.1436 0.0188933
55.4828 58.2574 0.0206137
53.6415 58.4798 0.0199107
57.5594 51.7911 0.0278119
56.2431 49.5578 0.0253159
55.4741 55.7962 0.0269868
55.357 53.3843 0.0301216
50.3468 63.3878 2
51.2448 60.9445 2
54.2212 57.2754 2
52.3137 58.6438 2
56.7073 44.1886 2
55.4912 47.9007 2
55.066 51.3886 2
54.0051 54.5465 2
49.5925 61.7522 3.98416
55.6086 41.7106 3.97634
50.5678 59.3369 3.97944
52.186 56.4973 3.97552
54.1684 45.569 3.97691
53.328 49.3304 3.97406
52.6648 52.8457 3.96857
48.6189 64.1289 0.01402
47.9624 62.4828 2
47.3299 61.0175 3.9841
43.6322 67.4734 0.0125109
45.1334 65.2039 0.0136231
46.3825 63.0612 0.0147432
41.6639 67.6928 2
43.357 65.514 2
45.9879 61.5954 2
44.7675 63.463 2
45.7669 60.6394 3.98357
44.484 61.8446 3.98446
43.147 63.7348 3.98563
41.5466 65.6512 3.98611
39.6328 67.772 3.98713
37.5259 70.0524 3.98957
39.7027 70.0279 2
39.8179 72.4051 3.9936
41.8611 69.8802 0.0101621
42.1113 72.2083 2
42.3947 74.6792 4
44.3768 71.8632 0.00615339
44.8159 74.2794 2
47.2057 73.7222 0
43.8516 5.35775 3.98971
46.5705 3.64626 3.99353
48.7848 4.32154 2
49.554 1.99015 4
50.9541 5.13075 0.00697068
51.8506 2.85453 2
54.0858 3.86728 0
60.2546 44.7751 0.0264058
61.2135 41.9614 0.0273286
62.1433 39.3566 0.028331
63.9543 37.4575 0.0295279
61.9771 37.4454 2
60.2321 39.8495 2
58.9856 42.9225 2
59.7323 37.5679 3.97247
57.9719 40.6601 3.97382
55.0743 39.7247 3.97569
62.1791 35.3595 0.0287976
60.2884 32.7447 0.0274686
58.6243 30.0737 0.0264266
56.6383 18.1478 0.0195216
56.3596 20.5149 0.0267754
56.1097 22.8669 0.0318198
57.2858 27.3786 0.0263822
56.2912 25.0988 0.0270949
54.4163 17.9123 0.0187554
52.3618 17.0266 0.0201824
51.3781 14.4897 0.017874
48.0565 6.52565 0.0107739
49.3246 9.32762 0.0140412
50.4334 11.9877 0.016151
59.8734 35.1197 2
45.9623 5.88014 2
43.3735 7.47044 2
57.992 32.2691 2
56.5434 29.3379 2
55.344 19.1808 2
55.0028 21.5565 2
54.9286 24.0566 2
55.4398 26.5963 2
47.3549 8.62072 2
48.5999 11.2887 2
53.1256 18.6502 2
51.3026 18.0389 2
50.6336 16.1226 2
49.7139 13.7359 2
57.3711 34.7607 3.97549
55.7211 31.5182 3.976
54.4823 28.4024 3.97664
53.7674 25.4955 3.97487
53.9699 20.1306 3.97886
53.5794 22.7092 3.96802
41.3985 7.07628 3.98762
45.3596 7.99265 3.98674
42.8653 9.41268 3.98571
46.6663 10.6499 3.9847
47.7454 13.097 3.98312
48.9313 15.3944 3.98165
50.0065 17.693 3.97979
51.6508 19.3151 3.98761
50.347 63.3872 0.014465
51.245 60.9435 0.0173459
56.7082 44.1887 0.0238527
55.4916 47.9011 0.0249791
52.3138 58.6426 0.0208011
54.2211 57.2738 0.0207783
55.0652 51.3887 0.0292192
54.0044 54.5446 0.0284408
49.5922 61.7528 2
55.6081 41.7105 2
50.5676 59.3379 2
52.1863 56.4985 2
54.1717 45.5686 2
53.3294 49.3294 2
52.6659 52.8457 2
48.8497 60.2102 3.98272
52.4986 42.6466 3.97691
49.7902 57.635 3.97809
50.5916 54.4315 3.97327
51.7854 47.2723 3.97602
51.2051 50.942 3.96946
48.1228 43.8102 3.99269
47.9627 62.4822 0.0151996
47.3297 61.018 2
46.6194 59.8045 3.98323
41.664 67.6922 0.012649
43.3573 65.5135 0.013627
44.7677 63.4623 0.0141822
45.9881 61.5947 0.0154641
39.6328 67.7726 2
41.5464 65.6517 2
45.7667 60.6401 2
43.1467 63.7352 2
44.4838 61.8453 2
44.6242 60.3022 3.9837
42.951 62.0932 3.98492
41.6004 63.8282 3.98556
39.6479 65.6194 3.98572
37.5632 67.7543 3.9871
31.6964 65.1379 3.98594
33.3917 67.4918 3.98705
35.333 69.9625 3.98955
37.5259 70.053 2
37.5095 72.4596 3.99347
39.7026 70.0273 0.0103016
39.818 72.4054 2
39.9526 74.9197 4
42.1112 72.208 0.0063034
42.3947 74.6792 2
44.8159 74.2794 0
41.7361 4.96702 3.98989
43.8516 5.35731 2
44.3258 3.10954 3.99362
46.5707 3.64602 2
47.2057 1.27793 4
48.7845 4.32175 0.00672901
49.554 1.99013 2
51.8506 2.85458 0
58.9857 42.9225 0.0262319
60.2321 39.8495 0.0267634
61.9773 37.4454 0.0285022
59.7325 37.5678 2
57.9714 40.66 2
55.0736 39.7245 2
56.7918 37.8975 3.9762
49.5345 41.343 3.98778
53.1016 39.3079 3.9778
39.4419 6.79986 3.98768
59.8742 35.1198 0.0276021
57.9907 32.2691 0.0252151
56.5428 29.3379 0.0252365
55.3436 19.182 0.0205142
55.002 21.5578 0.0280744
54.9282 24.0558 0.0307016
55.4414 26.5957 0.0249208
53.1255 18.6512 0.0217832
51.3026 18.0397 0.0149115
50.6338 16.1235 0.0195698
45.9623 5.88062 0.010434
49.7141 13.7367 0.0171355
47.3549 8.62132 0.0135043
48.6001 11.2892 0.0156812
43.3734 7.47087 0.0127096
57.3702 34.7606 2
41.3986 7.07575 2
45.3596 7.99219 2
42.8653 9.41221 2
55.719 31.5185 2
54.4849 28.403 2
53.9705 20.1292 2
53.5799 22.7058 2
53.767 25.4961 2
46.6662 10.6493 2
47.7451 13.0965 2
51.6511 19.3144 2
50.0064 17.692 2
48.9311 15.3935 2
54.8593 33.9716 3.97676
53.4717 30.4849 3.97558
52.5739 27.197 3.97532
52.14 24.0944 3.97259
52.3898 21.051 3.98094
41.0132 9.04596 3.98558
44.7235 9.99292 3.9849
42.4681 10.8992 3.98424
46.0051 12.7252 3.98285
47.6815 14.5792 3.98255
48.1139 16.9833 3.97907
49.8178 19.601 3.97621
49.5925 61.7522 0.0158443
50.5678 59.3369 0.0205633
55.6086 41.7106 0.0236556
54.1684 45.569 0.0230891
53.328 49.3304 0.0259441
52.186 56.4973 0.0244844
52.6648 52.8457 0.0314264
48.8494 60.2108 2
52.499 42.6452 2
49.7901 57.6361 2
50.5922 54.4333 2
51.7847 47.2707 2
51.2068 50.9407 2
48.1236 43.8177 2
47.9877 58.752 3.98125
50.0595 45.2819 3.97593
48.5975 55.9256 3.97873
49.1235 52.5965 3.9728
49.652 49.0485 3.97355
45.9385 39.8815 3.89892
46.367 42.6954 3.9445
46.4611 45.8632 3.99545
43.7897 41.1806 3.8866
42.0014 42.0292 3.83495
47.3299 61.0175 0.0159045
46.6191 59.805 2
45.4692 58.8015 3.98374
39.6328 67.772 0.0128662
41.5466 65.6512 0.0138885
43.147 63.7348 0.0143658
44.484 61.8446 0.0155418
45.7669 60.6394 0.0164277
41.6001 63.8286 2
37.5632 67.7549 2
39.6477 65.6198 2
44.624 60.3029 2
42.9509 62.0937 2
41.754 62.5038 3.985
42.4819 59.9953 3.98533
39.8938 63.5633 3.98509
37.6422 65.5183 3.98525
35.4631 67.6636 3.98705
33.5749 65.3513 3.98553
31.9588 63.3114 3.9851
29.8824 64.7289 3.98615
31.6965 65.1386 2
31.3761 67.2016 3.98717
33.3917 67.4925 2
33.1557 69.7558 3.98957
35.333 69.9631 2
35.1948 72.374 3.99346
37.5259 70.0524 0.0104318
37.5095 72.46 2
37.5 75 4
39.8179 72.4051 0.00639781
39.9526 74.9197 2
42.3947 74.6792 0
39.6236 4.71418 3.98997
41.7362 4.96653 2
42.0621 2.7172 3.99369
43.8516 5.35775 0.0102854
44.3259 3.10928 2
44.8158 0.721173 4
46.5705 3.64626 0.00647414
47.2057 1.27779 2
49.554 1.99015 0
57.9719 40.6601 0.0261812
59.7323 37.5679 0.0275268
55.0743 39.7247 0.0243146
49.5458 41.345 2
56.792 37.8974 2
53.1005 39.3073 2
53.9538 36.6295 3.97749
47.4617 40.4263 3.94714
50.4768 38.5126 3.98532
37.5157 6.67085 3.98771
39.4419 6.79934 2
39.2107 8.68858 3.98588
35.9411 8.48816 3.9861
57.3711 34.7607 0.0245114
55.7211 31.5182 0.0239997
54.4823 28.4024 0.0233629
53.9699 20.1306 0.0211394
53.5794 22.7092 0.0319846
53.7674 25.4955 0.0251318
51.6508 19.3151 0.0123948
50.0065 17.693 0.020214
48.9313 15.3944 0.0183463
45.3596 7.99265 0.0132567
47.7454 13.097 0.0168823
46.6663 10.6499 0.0153019
41.3985 7.07628 0.0123777
42.8653 9.41268 0.0142936
54.8604 33.9716 2
41.0133 9.04548 2
44.7233 9.99253 2
42.4679 10.8987 2
53.4683 30.4852 2
52.5776 27.1977 2
52.3905 21.05 2
52.1408 24.095 2
46.0047 12.7244 2
47.6812 14.5785 2
49.8181 19.5999 2
48.1137 16.9822 2
52.4148 32.8757 3.97904
51.2969 29.1562 3.97595
50.7808 25.7237 3.9714
49.9392 22.1835 3.97802
40.569 11.6031 3.98352
43.8578 11.9147 3.98389
45.8027 15.4159 3.98163
47.5043 19.2183 3.97742
46.2725 37.5002 3.905
48.8497 60.2102 0.017275
49.7902 57.635 0.0219078
52.4986 42.6466 0.0230873
51.7854 47.2723 0.023977
51.2051 50.942 0.0305392
50.5916 54.4315 0.0267292
48.1228 43.8102 0.00731234
47.9875 58.7528 2
50.0634 45.2838 2
48.5976 55.9269 2
49.1244 52.5989 2
49.6536 49.0476 2
45.9573 39.8897 2
46.3814 42.7054 2
46.4609 45.8557 2
43.8066 41.1929 2
42.0071 42.0351 2
46.8392 57.3553 3.9836
44.5354 39.4655 3.87765
42.3564 40.8937 3.85673
48.056 47.2493 3.97669
47.1648 54.2562 3.97883
47.5762 50.7524 3.97278
44.7768 47.4416 3.99641
45.035 41.9769 3.90331
44.8975 44.6 3.95022
42.6278 42.7074 3.88646
40.8886 42.3775 3.86422
46.6194 59.8045 0.0167707
45.4687 58.8022 2
43.8773 57.728 3.98455
37.5632 67.7543 0.012898
39.6479 65.6194 0.0142753
41.6004 63.8282 0.0144438
42.951 62.0932 0.0150792
44.6242 60.3022 0.0163017
35.4631 67.6643 2
41.7538 62.5043 2
39.8936 63.5637 2
37.6422 65.5189 2
42.4818 59.996 2
40.6234 61.6628 3.98454
40.446 58.2299 3.98606
37.8369 63.2243 3.98452
35.5727 65.4404 3.98537
33.5749 65.3518 2
31.9587 63.312 2
33.6285 63.3512 3.98471
30.3776 62.8699 3.98532
32.1224 62.0187 3.98514
26.8672 61.5135 3.98471
28.0612 64.1569 3.98612
29.8825 64.7295 2
29.4053 66.7653 3.98726
31.6964 65.1379 0.0140623
31.3762 67.2022 2
31.0127 69.4208 3.98963
33.3917 67.4918 0.0129493
33.1556 69.7564 2
32.8918 72.1482 3.99349
35.333 69.9625 0.0104549
35.1947 72.3744 2
35.0474 74.9194 4
37.5095 72.4596 0.00652684
37.5 75 2
39.9526 74.9197 0
35.6202 6.72179 3.98775
37.5227 4.61364 3.99012
39.6236 4.71371 2
39.7885 2.47364 3.99379
41.7361 4.96702 0.0101081
42.0622 2.71691 2
42.3946 0.32156 4
44.3258 3.10954 0.00637793
44.8159 0.72056 2
47.2057 1.27793 0
49.5345 41.343 0.0122201
56.7918 37.8975 0.0237999
53.1016 39.3079 0.0221974
47.4732 40.4347 2
50.4849 38.5125 2
53.956 36.63 2
51.2771 35.5838 3.97557
48.1179 37.7606 3.96566
45.9443 35.1421 3.90298
43.7969 33.8319 3.88305
42.0077 32.9874 3.83262
37.4574 8.53029 3.98579
37.5157 6.67022 2
39.4419 6.79986 0.0123164
39.2107 8.68804 2
38.9759 10.1213 3.98537
35.8977 9.76795 3.9848
34.1495 8.81751 3.98597
35.9411 8.4875 2
54.8593 33.9716 0.0232428
53.4717 30.4849 0.0244185
52.5739 27.197 0.0246833
52.3898 21.051 0.0190631
52.14 24.0944 0.0274068
49.8178 19.601 0.0237861
48.1139 16.9833 0.0209271
47.6815 14.5792 0.0174473
44.7235 9.99292 0.0150953
46.0051 12.7252 0.0171502
41.0132 9.04596 0.0144236
42.4681 10.8992 0.0157615
52.4143 32.8754 2
40.5687 11.6028 2
43.8574 11.9142 2
51.3093 29.1565 2
50.7815 25.7253 2
49.9401 22.1824 2
45.8023 15.4148 2
47.5045 19.2171 2
49.9473 31.4124 3.96965
49.2689 27.474 3.97607
49.3995 24.3968 3.97841
47.1868 21.9385 3.97576
38.3012 12.7278 3.98399
42.1013 14.2987 3.983
44.8012 18.4529 3.98046
44.8214 37.5106 3.8759
46.2957 37.5071 2
47.9877 58.752 0.0187494
48.5975 55.9256 0.0212705
50.0595 45.2819 0.0240678
49.652 49.0485 0.0264535
49.1235 52.5965 0.0272014
45.9385 39.8815 0.101076
46.367 42.6954 0.0554987
46.4611 45.8632 0.00455473
43.7897 41.1806 0.113397
42.0014 42.0292 0.165052
46.8389 57.3564 2
44.5477 39.4727 2
42.3537 40.8941 2
48.0577 47.2502 2
47.1653 54.2588 2
47.5779 50.754 2
44.7807 47.4177 2
45.0486 41.9869 2
44.9119 44.6135 2
42.6506 42.7246 2
40.8879 42.377 2
45.3983 55.9433 3.98576
42.6889 39.278 3.86995
40.8149 40.8192 3.91657
46.0747 48.9252 3.98506
45.5369 52.5487 3.98077
43.4365 48.4729 4.01324
43.3476 46.165 3.95464
43.6403 43.796 3.90152
41.1393 43.8833 3.88225
39.2991 42.7362 3.87949
45.4692 58.8015 0.0162607
43.8768 57.7284 2
42.1076 56.3567 3.98799
35.4631 67.6636 0.0129508
37.6422 65.5183 0.0147454
39.8938 63.5633 0.0149056
41.754 62.5038 0.0150008
42.4819 59.9953 0.0146681
35.5727 65.4411 2
40.6232 61.6632 2
37.8368 63.2248 2
40.4458 58.2307 2
38.9261 56.5282 3.99097
38.2505 60.3469 3.985
35.6068 63.2179 3.98432
33.5749 65.3513 0.0144676
31.9588 63.3114 0.0148982
33.6285 63.3517 2
30.3777 62.8704 2
32.1224 62.0192 2
28.68 62.2153 3.98529
33.3453 61.5318 3.98492
31.0655 61.2361 3.98533
27.5664 59.612 3.98309
23.7893 59.0964 3.98143
25.0328 60.8856 3.98352
26.8674 61.5139 2
26.2277 63.4892 3.98588
28.0613 64.1575 2
27.4618 66.1891 3.9874
29.8824 64.7289 0.0138498
29.4055 66.7659 2
28.9049 68.9463 3.9897
31.3761 67.2016 0.0128268
31.0127 69.4213 2
30.6141 71.7793 3.99356
33.1557 69.7558 0.0104257
32.8917 72.1486 2
32.6054 74.6784 4
35.1948 72.374 0.00654392
35.0474 74.9197 2
37.5 75 0
33.7228 6.97625 3.98738
35.434 4.68401 3.99004
35.6202 6.72119 2
37.5139 2.38627 3.99387
37.5227 4.61313 2
39.6236 4.71418 0.0100257
39.7886 2.47334 2
39.9526 0.0806499 4
42.0621 2.7172 0.00631269
42.3947 0.320817 2
44.8158 0.721173 0
44.5532 35.5489 3.87363
42.3663 34.1167 3.85399
47.4617 40.4263 0.0528602
50.4768 38.5126 0.0146827
53.9538 36.6295 0.0225119
48.1263 37.764 2
51.2834 35.5829 2
45.9573 35.1288 2
43.8161 33.8188 2
42.0136 32.9824 2
48.2991 34.2936 3.98512
45.0378 33.0399 3.8998
42.6336 32.3111 3.88526
40.8943 32.639 3.86243
37.3098 10.6248 3.98447
37.4574 8.52949 2
37.5157 6.67085 0.0122872
39.2107 8.68858 0.0141236
38.9758 10.1207 2
34.7528 10.3734 3.98466
35.8977 9.76723 2
32.3761 9.36388 3.98549
34.1495 8.81675 2
35.9411 8.48816 0.0138981
52.4148 32.8757 0.0209605
51.2969 29.1562 0.0240507
50.7808 25.7237 0.0285968
49.9392 22.1835 0.0219807
47.5043 19.2183 0.0225786
45.8027 15.4159 0.0183711
43.8578 11.9147 0.0161114
40.569 11.6031 0.016478
49.9498 31.4095 2
38.3008 12.7274 2
42.1007 14.2983 2
49.2692 27.4754 2
49.4003 24.3957 2
47.1879 21.9393 2
44.8013 18.4519 2
47.7689 29.5563 3.98815
47.0979 25.1303 3.98166
44.2905 21.3042 3.9783
36.5808 12.924 3.98351
38.6807 14.7963 3.98327
41.75 17.8265 3.98124
42.8375 37.4957 3.86933
44.8452 37.507 2
46.2725 37.5002 0.0950037
46.8392 57.3553 0.0164012
47.1648 54.2562 0.0211655
48.056 47.2493 0.0233116
47.5762 50.7524 0.0272226
44.5354 39.4655 0.122351
45.035 41.9769 0.096694
44.8975 44.6 0.0497816
44.7768 47.4416 0.00358923
42.6278 42.7074 0.113544
42.3564 40.8937 0.143272
40.8886 42.3775 0.135776
45.3983 55.9446 2
42.6908 39.2774 2
40.8117 40.8158 2
46.0759 48.9264 2
45.5384 52.5519 2
43.4394 48.4903 2
43.3706 46.1832 2
43.6566 43.8082 2
41.1567 43.8953 2
39.2963 42.7302 2
43.7364 54.4606 3.99469
40.9273 39.1821 3.94348
39.1947 40.9109 3.94642
43.6925 50.5243 3.99588
41.9494 47.7056 3.9821
41.8639 45.2091 3.9025
39.3946 44.619 3.89573
37.4905 42.8664 3.88696
43.8773 57.728 0.0154461
42.107 56.3571 2
40.4196 54.9687 3.99014
35.5727 65.4404 0.0146333
37.8369 63.2243 0.0154789
40.6234 61.6628 0.0154602
40.446 58.2299 0.0139394
35.6067 63.2184 2
38.2502 60.3473 2
38.9258 56.53 2
38 55.2874 3.98931
36.9347 57.6537 3.98668
35.3633 60.9311 3.98471
33.6285 63.3512 0.0152947
30.3776 62.8699 0.0146804
32.1224 62.0187 0.0148606
33.3452 61.5323 2
28.6801 62.2157 2
31.0655 61.2366 2
29.4016 60.3059 3.98452
32.3552 59.7652 3.98562
28.0192 58.3917 3.98442
27.5665 59.6123 2
25.3762 58.6098 3.98048
22.7527 58.2535 3.97666
23.3985 60.3641 3.9813
23.7893 59.0973 2
25.0329 60.8863 2
24.4302 62.7813 3.98525
26.8672 61.5135 0.0152915
26.2279 63.4897 2
25.5457 65.4991 3.98746
28.0612 64.1569 0.0138817
27.4619 66.1897 2
26.8344 68.3346 3.98975
29.4053 66.7653 0.0127366
28.9048 68.9468 2
28.3691 71.2644 3.99362
31.0127 69.4208 0.0103711
30.6139 71.7796 2
30.1842 74.2788 4
32.8918 72.1482 0.00651058
32.6053 74.6792 2
35.0474 74.9194 0
31.7871 7.41594 3.98715
33.3458 4.92312 3.98996
33.7227 6.97561 2
35.2441 2.46243 3.99384
35.434 4.6835 2
35.6202 6.72179 0.0122543
37.5 0 4
37.514 2.38595 2
37.5227 4.61364 0.00988073
39.7885 2.47364 0.00621277
39.9526 0.0802889 2
42.3946 0.32156 0
42.7035 35.7212 3.869
44.5668 35.5411 2
40.8247 34.1918 3.91512
42.3641 34.1179 2
48.1179 37.7606 0.0343371
51.2771 35.5838 0.0244312
45.9443 35.1421 0.0970156
43.7969 33.8319 0.116954
42.0077 32.9874 0.167377
48.3079 34.2853 2
45.0517 33.029 2
42.6532 32.2971 2
40.8923 32.6388 2
46.2885 31.5601 3.96676
43.6421 31.2285 3.90014
41.1516 31.1393 3.88371
39.3038 32.2747 3.87899
35.6909 11.7688 3.9836
37.3098 10.6241 2
37.4574 8.53029 0.0142147
38.9759 10.1213 0.0146346
33.0965 11.2097 3.98357
34.7528 10.3726 2
35.8977 9.76795 0.0151955
30.4806 10.0117 3.98498
32.376 9.36312 2
34.1495 8.81751 0.0140327
49.9473 31.4124 0.030354
49.2689 27.474 0.0239286
49.3995 24.3968 0.0215853
47.1868 21.9385 0.0242396
44.8012 18.4529 0.0195446
42.1013 14.2987 0.0170001
38.3012 12.7278 0.0160082
36.5804 12.9234 2
47.7698 29.5525 2
38.68 14.7961 2
41.7495 17.8256 2
47.0991 25.1312 2
44.2915 21.3027 2
45.5438 27.6487 3.99869
43.8008 24.0288 3.99734
41.3416 20.702 3.9814
35.7706 14.7483 3.98324
38.6807 17.5813 3.98193
40.9753 37.4877 3.95477
42.8446 37.4976 2
44.8214 37.5106 0.124096
45.3983 55.9433 0.0142434
45.5369 52.5487 0.0192347
46.0747 48.9252 0.0149448
42.6889 39.278 0.130052
43.6403 43.796 0.0984784
43.3476 46.165 0.045355
43.4365 48.4729 -0.0132424
41.1393 43.8833 0.117745
40.8149 40.8192 0.0834343
39.2991 42.7362 0.120511
43.7367 54.4621 2
40.9243 39.1796 2
39.1915 40.904 2
43.6944 50.5355 2
41.9538 47.719 2
41.8869 45.2226 2
37.4917 42.8596 2
39.4145 44.6236 2
41.8809 53.0385 3.99582
39.2071 39.1825 3.97358
37.4918 40.9611 3.95849
35.6885 42.7346 3.88003
40.9273 49.7596 4.00389
39.8017 46.111 3.88666
37.492 44.8633 3.89428
42.1076 56.3567 0.01201
40.419 54.969 2
38.7298 53.9022 3.99284
35.6068 63.2179 0.0156794
38.2505 60.3469 0.014997
38.9261 56.5282 0.00902718
35.363 60.9314 2
36.9343 57.654 2
37.9994 55.2881 2
36.3189 55.419 3.99262
34.4868 58.5445 3.98586
33.3453 61.5318 0.0150751
28.68 62.2153 0.0147056
31.0655 61.2361 0.0146723
32.3552 59.7655 2
29.4017 60.3063 2
30.2948 57.8387 3.98639
28.0192 58.3922 2
26.9402 56.8405 3.98031
27.5664 59.612 0.0169074
25.3762 58.6105 2
23.8339 56.8167 3.97513
21.3288 57.4115 3.97655
21.9907 59.635 3.98071
22.7526 58.2545 2
22.734 62.0321 3.98377
23.3986 60.365 2
23.7893 59.0964 0.0185747
25.0328 60.8856 0.0164766
24.4304 62.7819 2
23.6796 64.7172 3.98706
26.2277 63.4892 0.0141155
25.5459 65.4995 2
24.8065 67.5956 3.98973
27.4618 66.1891 0.012602
26.8344 68.3351 2
26.1643 70.6052 3.99368
28.9049 68.9463 0.0102968
28.3689 71.2647 2
27.7943 73.7221 4
30.6141 71.7793 0.00644189
30.1841 74.2794 2
32.6054 74.6784 0
29.8095 7.98902 3.9867
31.2509 5.33027 3.98967
31.787 7.41522 2
32.9798 2.70056 3.99376
33.3458 4.92256 2
33.7228 6.97625 0.0126162
35.0474 0.080333 4
35.2441 2.46211 2
35.434 4.68401 0.00995543
37.5 0 2
37.5139 2.38627 0.00612983
39.9526 0.0806499 0
40.9347 35.8051 3.94453
42.7049 35.7242 2
44.5532 35.5489 0.126372
28.5413 10.6867 3.98506
39.2003 34.0995 3.94638
40.8209 34.1956 2
42.3663 34.1167 0.146015
48.2991 34.2936 0.0148794
45.0378 33.0399 0.100201
42.6336 32.3111 0.114742
40.8943 32.639 0.137568
46.3018 31.5528 2
43.6523 31.2165 2
41.169 31.1252 2
39.3011 32.2789 2
44.3951 29.7414 3.95152
41.8791 29.8121 3.9055
39.4095 30.389 3.8961
37.495 32.1413 3.88748
34.0907 12.9264 3.98302
35.6908 11.768 2
37.3098 10.6248 0.0155333
31.1843 11.9775 3.98413
33.0965 11.2088 2
34.7528 10.3734 0.0153354
30.4806 10.0108 2
32.3761 9.36388 0.0145137
47.7689 29.5563 0.01185
47.0979 25.1303 0.0183424
36.5808 12.924 0.0164927
44.2905 21.3042 0.0217042
41.75 17.8265 0.0187644
38.6807 14.7963 0.0167332
35.7699 14.7478 2
45.5439 27.6468 2
38.68 17.5807 2
41.3418 20.6996 2
43.8025 24.0312 2
33.6056 15.8639 3.98302
43.0563 26.4723 3.99996
40.9179 23.2689 3.99521
38.4212 20.3082 3.98332
35.8468 17.4941 3.98429
39.2196 37.4869 3.981
40.9706 37.4876 2
42.8375 37.4957 0.130667
43.7364 54.4606 0.00531184
43.6925 50.5243 0.00411577
40.9273 39.1821 0.0565174
41.8639 45.2091 0.0975018
41.9494 47.7056 0.0178972
39.3946 44.619 0.104272
39.1947 40.9109 0.0535799
37.4905 42.8664 0.113043
41.8824 53.0403 2
39.2045 39.1813 2
37.4917 40.9559 2
40.9309 49.7639 2
35.6906 42.7307 2
39.8246 46.1285 2
37.4908 44.8606 2
39.8228 51.956 3.99644
37.4903 39.1953 3.98396
35.7894 40.9182 3.94559
34.0963 42.3729 3.86382
35.5711 44.6202 3.89315
38.718 48.7669 3.99278
37.4871 46.4405 3.88813
40.4196 54.9687 0.0098571
38.7292 53.9019 2
36.7204 53.2598 4.0057
35.3633 60.9311 0.015292
36.9347 57.6537 0.0133187
38 55.2874 0.0106857
34.4865 58.5446 2
36.3184 55.4191 2
33.2231 55.5317 3.98834
32.3552 59.7652 0.0143808
29.4016 60.3059 0.0154822
30.2949 57.8392 2
28.6838 55.3313 3.97974
28.0192 58.3917 0.0155786
26.9399 56.841 2
25.3032 55.155 3.976
21.8014 55.3576 3.97225
25.3762 58.6098 0.0195214
23.8336 56.8179 2
20.213 57.0398 3.9792
20.6414 58.792 3.97922
21.3285 57.4126 2
21.1642 61.1808 3.98252
21.9907 59.636 2
22.7527 58.2535 0.0233381
21.893 63.8449 3.98633
22.7341 62.0329 2
23.3985 60.3641 0.0187035
24.4302 62.7813 0.0147486
23.6798 64.7178 2
22.8348 66.7392 3.98966
25.5457 65.4991 0.0125382
24.8066 67.5961 2
24.0085 69.8063 3.99364
26.8344 68.3346 0.0102477
26.164 70.6054 2
25.446 73.0099 4
28.3691 71.2644 0.00637792
27.7943 73.7222 2
30.1842 74.2788 0
27.8192 8.64847 3.98648
29.1528 5.87597 3.98936
29.8093 7.98824 2
30.725 3.09773 3.99358
31.2509 5.32966 2
31.7871 7.41594 0.0128525
32.6053 0.320823 4
32.9797 2.70023 2
33.3458 4.92312 0.0100422
35.0474 0.0802903 2
35.2441 2.46243 0.00616211
37.5 0 0
39.2188 35.8036 3.97337
40.9316 35.8076 2
42.7035 35.7212 0.130999
28.5413 10.6858 2
26.6201 11.3814 3.98504
29.2231 12.6334 3.98455
37.495 34.0466 3.95887
39.1971 34.1055 2
40.8247 34.1918 0.0848801
46.2885 31.5601 0.0332361
43.6421 31.2285 0.0998631
41.1516 31.1393 0.116292
39.3038 32.2747 0.121014
44.412 29.7283 2
41.9008 29.7962 2
39.4253 30.3817 2
37.4954 32.1482 2
42.3547 28.3784 3.93876
39.8469 28.8981 3.90029
37.505 30.1343 3.89345
35.6895 32.2651 3.87869
31.9118 14.4703 3.98368
34.0905 12.9256 2
35.6909 11.7688 0.0163986
31.1843 11.9766 2
33.0965 11.2097 0.0164273
30.4806 10.0117 0.0150187
45.5438 27.6487 0.00131349
43.8008 24.0288 0.00265608
35.7706 14.7483 0.0167588
41.3416 20.702 0.0185966
38.6807 17.5813 0.0180733
33.605 15.8636 2
35.8458 17.4939 2
43.0584 26.4741 2
38.4205 20.3075 2
40.9182 23.2635 2
33.5477 17.3714 3.98475
40.4312 25.61 4.00994
38.0766 22.8346 3.9933
35.5823 20.0575 3.98699
37.4955 37.4948 3.98561
39.2162 37.4866 2
40.9753 37.4877 0.0452266
41.8809 53.0385 0.00417832
40.9273 49.7596 -0.00388639
39.2071 39.1825 0.0264185
39.8017 46.111 0.11334
37.492 44.8633 0.105716
37.4918 40.9611 0.0415058
35.6885 42.7346 0.119966
39.8259 51.9585 2
37.4912 39.1948 2
35.7926 40.9126 2
38.7175 48.7958 2
34.0979 42.3718 2
35.5601 44.6324 2
37.4857 46.4607 2
37.6626 51.0572 4.01018
35.7788 39.1966 3.9741
34.1732 40.8239 3.91628
32.98 42.0238 3.83401
33.8288 43.8754 3.88097
35.1561 46.1044 3.89662
36.8505 48.4173 3.97724
38.7298 53.9022 0.00716456
36.7205 53.2596 2
34.3596 52.5112 3.99171
34.4868 58.5445 0.0141351
36.3189 55.419 0.00738084
33.2229 55.5314 2
30.5124 53.4155 3.98267
30.2948 57.8387 0.0136092
28.6835 55.3324 2
26.8726 53.4451 3.97508
26.9402 56.8405 0.0196931
25.3029 55.157 2
23.5634 53.4897 3.97072
20.4577 53.2292 3.9672
19.9251 55.8415 3.97572
21.8009 55.3588 2
23.8339 56.8167 0.0248663
19.4338 57.9018 3.97814
20.2126 57.0404 2
19.7036 60.2137 3.98127
20.6412 58.7932 2
21.3288 57.4115 0.0234459
20.2055 62.8657 3.98474
21.1642 61.1818 2
21.9907 59.635 0.019295
20.9362 65.7681 3.98941
21.8932 63.8458 2
22.734 62.0321 0.0162297
23.6796 64.7172 0.0129416
22.8349 66.7397 2
21.911 68.8733 3.99356
24.8065 67.5956 0.010267
24.0082 69.8064 2
23.1494 72.1454 4
26.1643 70.6052 0.0063241
25.446 73.0099 2
27.7943 73.7221 0
25.8582 9.37628 3.98632
27.0675 6.53997 3.98904
27.8191 8.64764 2
28.4871 3.64365 3.99341
29.1527 5.87531 2
29.8095 7.98902 0.0133015
30.1841 0.720592 4
30.7248 3.09741 2
31.2509 5.33027 0.0103293
32.6053 0.320817 2
32.9798 2.70056 0.00623753
35.0474 0.080333 0
37.4985 35.8002 3.98453
39.2142 35.8044 2
40.9347 35.8051 0.0554714
24.7749 12.0641 3.98517
23.7492 14.348 3.98427
28.5413 10.6867 0.0149382
26.6202 11.3808 2
29.2231 12.6325 2
27.2892 13.3658 3.98447
29.7777 14.1921 3.98379
35.7955 34.0868 3.94634
37.4952 34.0517 2
39.2003 34.0995 0.0536161
37.495 32.1413 0.11252
44.3951 29.7414 0.0484807
41.8791 29.8121 0.0944974
39.4095 30.389 0.103903
42.373 28.3633 2
39.8628 28.878 2
37.5067 30.1352 2
35.693 32.2698 2
40.0429 27.5218 3.9389
37.5178 28.5621 3.89717
35.588 30.3828 3.89635
34.1031 32.622 3.86232
30.9232 16.8253 3.98399
31.9117 14.4696 2
34.0907 12.9264 0.0169768
31.1843 11.9775 0.0158697
43.0563 26.4723 3.90739e-05
40.9179 23.2689 0.00479212
33.6056 15.8639 0.0169758
35.8468 17.4941 0.0157114
38.4212 20.3082 0.0166848
33.5469 17.3714 2
35.5818 20.0566 2
40.4316 25.6057 2
38.0769 22.8343 2
32.8604 19.7751 3.98571
37.7992 25.1436 4.02013
35.2009 22.6095 3.99201
35.7747 37.4993 3.98157
37.4956 37.4942 2
39.2196 37.4869 0.0190008
39.8228 51.956 0.00356036
38.718 48.7669 0.00721711
37.4903 39.1953 0.0160366
37.4871 46.4405 0.111867
35.5711 44.6202 0.106851
35.7894 40.9182 0.0544109
34.0963 42.3729 0.136182
37.6663 51.067 2
35.7838 39.195 2
34.1763 40.82 2
36.8507 48.4326 2
32.9741 42.0274 2
33.8171 43.8847 2
35.1362 46.1183 2
35.4547 50.1896 4.01317
34.0674 39.193 3.94434
32.6208 40.8927 3.85534
32.3483 42.6981 3.8859
33.1231 45.1972 3.90403
34.2645 47.4775 3.94868
36.7204 53.2598 -0.0057027
34.36 52.5127 2
31.9916 51.2235 3.99559
33.2231 55.5317 0.0116561
30.512 53.4177 2
28.4172 51.622 3.97862
28.6838 55.3313 0.0202623
26.8721 53.446 2
25.0664 51.7614 3.96817
25.3032 55.155 0.0239986
23.5629 53.4904 2
21.9531 51.8108 3.9668
19.1905 51.6398 3.96866
18.9133 54.3157 3.97001
20.4571 53.229 2
18.4414 56.7328 3.97808
19.9245 55.8422 2
21.8014 55.3576 0.0277492
18.3655 59.1195 3.97842
19.4335 57.9027 2
20.213 57.0398 0.0207973
18.6165 61.7724 3.98308
19.7036 60.2148 2
20.6414 58.792 0.0207778
19.1252 64.6788 3.9885
20.2056 62.8667 2
21.1642 61.1808 0.0174785
19.885 67.8099 3.99338
20.9363 65.7688 2
21.893 63.8449 0.0136712
22.8348 66.7392 0.010345
21.9107 68.8735 2
20.9142 71.1327 4
24.0085 69.8063 0.00635765
23.1494 72.1455 2
25.446 73.0099 0
23.0943 12.7785 3.98477
23.9707 10.1626 3.98625
25.0212 7.30999 3.98889
25.8582 9.37562 2
26.2788 4.32785 3.99325
27.0673 6.53927 2
27.8192 8.64847 0.013517
27.7943 1.27781 4
28.4869 3.64336 2
29.1528 5.87597 0.0106386
30.1841 0.720551 2
30.725 3.09773 0.00642139
32.6053 0.320823 0
35.7813 35.8045 3.97465
37.4979 35.7999 2
39.2188 35.8036 0.0266344
24.7752 12.0636 2
23.7495 14.3478 2
22.4778 15.0244 3.98375
25.3553 13.8975 3.98408
24.0222 15.6098 3.98317
26.6201 11.3814 0.0149597
29.2231 12.6334 0.0154483
27.2893 13.3654 2
29.7777 14.1912 2
28.3535 15.9654 3.98414
34.1839 34.1792 3.91502
35.7985 34.0926 2
37.495 34.0466 0.0411297
35.6895 32.2651 0.12131
37.505 30.1343 0.106554
42.3547 28.3784 0.0612407
39.8469 28.8981 0.0997141
40.0544 27.5081 2
37.5203 28.5415 2
35.5732 30.3741 2
34.1058 32.6218 2
37.6195 27.1967 3.94636
35.1746 28.8795 3.89865
33.8366 31.124 3.88302
32.9942 32.9723 3.83397
30.2046 19.3265 3.98641
30.9228 16.8249 2
31.9118 14.4703 0.0163193
40.4312 25.61 -0.00993788
38.0766 22.8346 0.00669547
33.5477 17.3714 0.0152485
35.5823 20.0575 0.0130102
32.8593 19.7756 2
35.1987 22.6051 2
37.7896 25.1449 2
32.3074 22.386 3.98946
34.9715 25.1345 4.00992
34.0205 37.4993 3.95341
35.7784 37.4987 2
37.4955 37.4948 0.0143896
37.6626 51.0572 -0.010179
36.8505 48.4173 0.0227582
35.7788 39.1966 0.0258977
35.1561 46.1044 0.103379
33.8288 43.8754 0.119026
34.1732 40.8239 0.0837165
32.98 42.0238 0.165991
35.4529 50.1988 2
34.0735 39.1905 2
32.6218 40.891 2
34.2591 47.5096 2
32.3304 42.7101 2
33.1026 45.2159 2
33.2277 49.1817 4.00673
32.2876 39.2826 3.87028
31.1841 41.1744 3.88494
31.3461 43.786 3.90034
32.2338 46.3981 3.94792
34.3596 52.5112 0.00828759
31.9909 51.2288 2
29.8402 49.7356 3.98712
30.5124 53.4155 0.0173312
28.4163 51.6197 2
26.4917 50.0025 3.97126
26.8726 53.4451 0.0249207
25.0658 51.7602 2
23.3271 50.2062 3.9745
23.5634 53.4897 0.0292812
21.9528 51.8101 2
20.4533 50.3231 3.97083
17.9783 50.3356 3.97229
17.8255 52.7966 3.96854
19.1903 51.6397 2
17.4302 55.3478 3.97381
18.9127 54.3162 2
20.4577 53.2292 0.0327996
17.1307 57.8809 3.97883
18.441 56.7337 2
19.9251 55.8415 0.0242824
17.134 60.5548 3.9808
18.3655 59.1205 2
19.4338 57.9018 0.0218591
17.4059 63.4709 3.98674
18.6166 61.7735 2
19.7036 60.2137 0.0187302
17.9411 66.6183 3.9931
19.1253 64.6796 2
20.2055 62.8657 0.0152567
18.75 69.9759 4
19.8847 67.81 2
20.9362 65.7681 0.0105879
21.911 68.8733 0.00644042
20.9142 71.1327 2
23.1494 72.1454 0
21.5851 13.5986 3.98427
22.1887 11.0217 3.98592
23.0946 12.7784 2
23.0391 8.17529 3.98877
23.9708 10.1623 2
24.1164 5.14254 3.99311
25.021 7.30947 2
25.8582 9.37628 0.0136834
25.446 1.99014 4
26.2785 4.3276 2
27.0675 6.53997 0.010957
27.7943 1.27778 2
28.4871 3.64365 0.00658719
30.1841 0.720592 0
34.0658 35.8067 3.94279
35.7844 35.8051 2
37.4985 35.8002 0.015467
21.3029 15.8201 3.98293
24.7749 12.0641 0.0148259
23.7492 14.348 0.0157313
25.3555 13.8971 2
22.4783 15.0244 2
24.0227 15.6097 2
23.2614 16.2412 3.98292
25.3775 16.0777 3.98403
27.2892 13.3658 0.0155264
29.7777 14.1921 0.0162109
28.3538 15.9651 2
27.4364 18.7865 3.98516
32.6426 34.1051 3.85574
34.1888 34.182 2
35.7955 34.0868 0.0536559
34.1031 32.622 0.137682
35.588 30.3828 0.103648
37.5178 28.5621 0.102826
40.0429 27.5218 0.061103
37.6186 27.1655 2
32.9881 32.9694 2
35.1592 28.8611 2
33.82 31.1058 2
35.0667 27.3241 3.95325
33.1277 29.8036 3.89818
32.3542 32.2903 3.8824
29.5706 21.9193 3.99449
30.2041 19.3272 2
30.9232 16.8253 0.0160095
37.7992 25.1436 -0.0201261
35.2009 22.6095 0.00799364
32.8604 19.7751 0.0142904
32.3051 22.387 2
34.9798 25.1357 2
31.68 25.6001 4.00056
32.1505 37.5024 3.87066
34.027 37.4992 2
35.7747 37.4993 0.0184303
35.4547 50.1896 -0.0131735
34.2645 47.4775 0.0513196
34.0674 39.193 0.0556628
33.1231 45.1972 0.0959682
32.3483 42.6981 0.114101
32.6208 40.8927 0.144659
33.2248 49.1697 2
32.2856 39.2793 2
31.1653 41.1829 2
32.2112 46.4166 2
31.3325 43.7974 2
31.1258 48.0048 3.99694
30.4338 39.4563 3.87491
29.9457 41.9707 3.89682
30.404 44.977 3.94993
31.9916 51.2235 0.00441285
29.8391 49.7325 2
27.8521 48.2003 3.97445
28.4172 51.622 0.0213798
26.4913 50.0008 2
24.6312 48.4868 3.97844
25.0664 51.7614 0.0318259
23.327 50.2053 2
21.6426 48.8034 3.97217
21.9531 51.8108 0.0331967
20.4532 50.3228 2
19.0205 49.1011 3.97383
16.8852 49.3367 3.97386
16.7663 51.4107 3.97058
17.9785 50.3354 2
16.3833 53.8751 3.97098
17.8252 52.797 2
19.1905 51.6398 0.031344
15.9718 56.4818 3.97674
17.4297 55.3486 2
18.9133 54.3157 0.0299872
15.7472 59.2152 3.98008
17.1305 57.882 2
18.4414 56.7328 0.0219165
15.7866 62.1409 3.98427
17.1341 60.5559 2
18.3655 59.1195 0.0215785
16.0878 65.3007 3.99244
17.4058 63.4718 2
18.6165 61.7724 0.0169224
16.6661 68.6801 4
17.9408 66.6183 2
19.1252 64.6788 0.0115026
18.75 69.9759 2
19.885 67.8099 0.00662289
20.9142 71.1327 0
20.2171 14.5874 3.98347
21.5855 13.5986 2
20.528 11.9914 3.9853
21.1421 9.14495 3.98877
22.189 11.0215 2
23.0943 12.7785 0.0152289
22.0154 6.0815 3.99303
23.039 8.17493 2
23.9707 10.1626 0.0137507
23.1494 2.85457 4
24.116 5.14242 2
25.0212 7.30999 0.0111149
25.446 1.99012 2
26.2788 4.32785 0.00674796
27.7943 1.27781 0
32.299 35.7172 3.86963
34.0706 35.8089 2
35.7813 35.8045 0.0253462
21.3032 15.8196 2
20.3003 16.9546 3.98278
22.0946 16.6256 3.98145
25.3553 13.8975 0.0159214
22.4778 15.0244 0.0162509
24.0222 15.6098 0.0168336
25.3778 16.0776 2
23.2618 16.2413 2
24.2008 18.4405 3.98105
27.0079 21.4441 3.98721
28.3535 15.9654 0.0158611
27.4363 18.7864 2
31.2084 33.8245 3.88489
32.643 34.1082 2
34.1839 34.1792 0.0849809
32.9942 32.9723 0.166031
33.8366 31.124 0.116984
35.1746 28.8795 0.101352
37.6195 27.1967 0.0536376
35.0498 27.3015 2
32.3436 32.2874 2
33.1092 29.7796 2
32.5304 28.0581 3.97122
31.3399 31.217 3.9005
28.7898 24.3855 3.98648
29.5683 21.9212 2
30.2046 19.3265 0.0135927
34.9715 25.1345 -0.00992381
32.3074 22.386 0.0105439
31.6854 25.5874 2
29.6322 27.2938 3.96967
30.1562 37.4927 3.87584
32.1502 37.5009 2
34.0205 37.4993 0.046588
33.2277 49.1817 -0.00673206
32.2338 46.3981 0.0520834
32.2876 39.2826 0.12972
31.3461 43.786 0.0996615
31.1841 41.1744 0.115056
31.1257 48.0047 2
30.4182 39.4672 2
29.9323 41.9825 2
30.383 44.9904 2
29.159 46.5956 3.99909
29.0377 39.8592 3.89905
28.6695 43.1862 3.95585
29.8402 49.7356 0.0128839
27.8517 48.1952 2
25.9271 46.6813 3.97739
26.4917 50.0025 0.0287373
24.6311 48.4854 2
22.7949 47.0959 3.97756
23.3271 50.2062 0.0255045
21.6424 48.8027 2
19.9671 47.6299 3.97672
20.4533 50.3231 0.0291684
19.0215 49.1008 2
17.6612 48.1851 3.97471
16.1361 48.6875 3.97506
16.8856 49.3367 2
15.8442 50.1735 3.97307
15.3736 52.4185 3.97125
16.7664 51.4108 2
17.9783 50.3356 0.0277084
14.8644 54.9811 3.97376
16.3829 53.8757 2
17.8255 52.7966 0.0314634
14.4561 57.7436 3.97895
15.9715 56.4827 2
17.4302 55.3478 0.026188
14.2647 60.6948 3.98292
15.7471 59.2163 2
17.1307 57.8809 0.021173
14.3322 63.8599 3.99137
15.7865 62.1418 2
17.134 60.5548 0.0191974
14.6715 67.2507 4
16.0874 65.3006 2
17.4059 63.4709 0.0132563
16.6661 68.6801 2
17.9411 66.6183 0.00689886
18.75 69.9759 0
18.9311 15.775 3.98242
20.2173 14.5871 2
18.9777 13.1023 3.98445
21.5851 13.5986 0.0157315
20.5284 11.9913 2
19.3414 10.2326 3.98854
19.99 7.14615 3.99303
21.1421 9.1446 2
22.1887 11.0217 0.0140769
20.9142 3.86727 4
22.015 6.08153 2
23.0391 8.17529 0.0112262
23.1494 2.85451 2
24.1164 5.14254 0.00689399
25.446 1.99014 0
30.454 35.5464 3.87892
32.2995 35.7194 2
34.0658 35.8067 0.0572064
21.3029 15.8201 0.0170727
22.0948 16.6252 2
20.3004 16.9539 2
19.2396 18.402 3.98122
21.7789 17.8421 3.98191
25.3775 16.0777 0.0159703
23.2614 16.2412 0.0170775
24.2009 18.4406 2
22.2735 19.8847 3.97794
24.5854 21.3127 3.98236
26.409 23.7087 3.97924
27.0073 21.4445 2
27.4364 18.7865 0.0148445
29.961 33.0244 3.89717
31.1856 33.8037 2
32.6426 34.1051 0.144256
32.3542 32.2903 0.117599
33.1277 29.8036 0.101824
35.0667 27.3241 0.0467456
32.5221 28.05 2
31.3415 31.2117 2
30.1033 29.5219 3.96445
27.871 26.5273 3.97252
28.7913 24.3921 2
29.5706 21.9193 0.00551099
31.68 25.6001 -0.000563736
29.6281 27.2557 2
28.704 37.5066 3.90455
30.146 37.4949 2
32.1505 37.5024 0.129337
31.1258 48.0048 0.00306054
30.404 44.977 0.0500678
30.4338 39.4563 0.125093
29.9457 41.9707 0.103182
29.1593 46.6105 2
29.0224 39.8699 2
28.6534 43.1976 2
27.2594 44.8663 3.9887
26.8085 40.6081 3.97567
27.8521 48.2003 0.0255499
25.9259 46.6834 2
23.9921 45.2318 3.97824
24.6312 48.4868 0.0215595
22.7949 47.0951 2
20.923 45.909 3.97853
21.6426 48.8034 0.0278263
19.9691 47.6294 2
18.3096 46.7448 3.97633
19.0205 49.1011 0.0261659
17.6612 48.1851 2
16.3264 47.7178 3.97415
16.1364 48.6876 2
15.191 49.0184 3.97394
16.8852 49.3367 0.0261399
15.8444 50.1736 2
14.4878 50.9868 3.97227
13.8274 53.4361 3.97271
15.3736 52.4187 2
16.7663 51.4107 0.0294215
13.2517 56.1702 3.97669
14.864 54.9819 2
16.3833 53.8751 0.0290223
12.847 59.1282 3.98236
14.456 57.7446 2
15.9718 56.4818 0.0232562
12.6778 62.3022 3.98966
14.2646 60.6956 2
15.7472 59.2152 0.0199179
12.7746 65.6939 4
14.3318 63.8596 2
15.7866 62.1409 0.0157288
14.6714 67.2507 2
16.0878 65.3007 0.00756476
16.6661 68.6801 0
17.6652 17.151 3.98114
18.9312 15.7745 2
17.5095 14.3672 3.98321
20.2171 14.5874 0.0165285
18.978 13.1018 2
17.6372 11.4515 3.98772
20.528 11.9914 0.0147016
19.3417 10.2324 2
18.0501 8.33901 3.99295
18.75 5.0241 4
19.9895 7.14628 2
21.1421 9.14495 0.0112313
20.9142 3.86727 2
22.0154 6.0815 0.0069663
23.1494 2.85457 0
29.0502 35.1176 3.89946
30.4367 35.5364 2
32.299 35.7172 0.130371
22.0946 16.6256 0.0185481
20.3003 16.9546 0.0172174
21.779 17.8415 2
19.2397 18.4012 2
17.9761 19.9354 3.97855
20.8719 19.3711 3.98038
24.2008 18.4405 0.0189484
22.2737 19.8841 2
24.5854 21.3137 2
22.3514 21.7114 3.98024
24.6877 23.1584 3.97679
25.453 25.9364 3.96588
26.4111 23.7087 2
27.0079 21.4441 0.0127863
28.3351 32.3042 3.94621
29.9468 33.0198 2
31.2084 33.8245 0.115109
31.3399 31.217 0.099502
32.5304 28.0581 0.0287779
30.0826 29.5078 2
27.0151 29.1205 3.995
27.8676 26.525 2
28.7898 24.3855 0.0135232
29.6322 27.2938 0.030326
26.9323 37.3656 3.96059
28.6856 37.5005 2
30.1562 37.4927 0.124163
29.159 46.5956 0.000907876
28.6695 43.1862 0.0441528
29.0377 39.8592 0.100949
27.2602 44.8731 2
26.7983 40.6206 2
25.2651 43.1856 3.97099
24.0552 39.4282 3.97759
25.9271 46.6813 0.0226123
23.9862 45.2322 2
21.8945 43.963 3.97841
22.7949 47.0959 0.0224422
20.9263 45.9084 2
18.9671 44.9771 3.97723
19.9671 47.6299 0.023278
18.3098 46.7447 2
16.6146 46.2167 3.97409
17.6612 48.1851 0.0252908
16.3265 47.7179 2
14.9203 47.6731 3.9729
16.1361 48.6875 0.0249428
15.1912 49.0186 2
13.7862 49.5477 3.97265
15.8442 50.1735 0.0269293
14.488 50.987 2
12.8948 51.8748 3.97278
12.1401 54.5277 3.97521
13.8273 53.4366 2
15.3736 52.4185 0.028755
11.5318 57.4597 3.98082
13.2514 56.1712 2
14.8644 54.9811 0.0262415
11.1325 60.6282 3.98827
12.8469 59.1289 2
14.4561 57.7436 0.0210457
10.9835 64.0165 4
12.6773 62.3018 2
14.2647 60.6948 0.0170789
12.7745 65.694 2
14.3322 63.8599 0.00862882
14.6715 67.2507 0
16.3978 18.6459 3.97976
17.6652 17.1503 2
16.1005 15.7765 3.98262
18.9311 15.775 0.0175778
17.5097 14.3664 2
16.0191 12.8053 3.98571
18.9777 13.1023 0.0155537
17.6374 11.4509 2
16.2012 9.66213 3.99276
19.3414 10.2326 0.0114561
18.0497 8.33924 2
16.6661 6.31991 4
18.75 5.02404 2
19.99 7.14615 0.00697207
20.9142 3.86727 0
27.4422 34.761 3.94545
29.0302 35.1082 2
30.454 35.5464 0.121085
16.678 21.3737 3.97422
21.7789 17.8421 0.0180927
19.2396 18.402 0.0187798
20.8721 19.3703 2
17.9764 19.9346 2
19.719 21.5672 3.98055
22.2735 19.8847 0.0220552
24.5854 21.3127 0.0176397
22.3517 21.7107 2
24.6883 23.1586 2
22.8385 24.5958 3.97101
24.5568 28.5191 3.96839
25.4506 25.9349 2
26.409 23.7087 0.0207583
26.1763 31.6926 3.99149
28.3195 32.292 2
29.961 33.0244 0.102825
30.1033 29.5219 0.0355482
27.0225 29.1206 2
27.871 26.5273 0.0274834
24.7533 36.8557 3.98336
26.919 37.3665 2
28.704 37.5066 0.0954496
27.2594 44.8663 0.0113025
26.8085 40.6081 0.0243276
25.2594 43.1897 2
24.047 39.4289 2
22.9684 41.8059 3.97967
21.7713 38.5012 3.97521
23.9921 45.2318 0.0217645
21.8956 43.963 2
19.7306 42.8931 3.97755
20.923 45.909 0.021475
18.9662 44.9771 2
16.9447 44.3834 3.97392
18.3096 46.7448 0.0236728
16.6145 46.2168 2
14.8386 46.0932 3.97241
16.3264 47.7178 0.0258523
14.9204 47.6732 2
13.2931 48.0102 3.97214
15.191 49.0184 0.0260618
13.7865 49.5478 2
12.1144 50.2531 3.97264
14.4878 50.9868 0.0277316
12.895 51.8751 2
11.1363 52.8363 3.9746
10.3229 55.711 3.97927
12.14 54.5285 2
13.8274 53.4361 0.0272879
9.69917 58.8503 3.98683
11.5315 57.4606 2
13.2517 56.1702 0.0233061
9.30605 62.2254 4
11.1317 60.6275 2
12.847 59.1282 0.0176354
10.9835 64.0165 2
12.6778 62.3022 0.0103434
12.7746 65.6939 0
15.1439 20.1821 3.97606
16.3979 18.6451 2
14.7461 17.2998 3.98083
17.6652 17.151 0.0188597
16.1006 15.7756 2
14.4817 14.2876 3.9843
17.5095 14.3672 0.0167909
16.0193 12.8046 2
14.4441 11.1133 3.99212
17.6372 11.4515 0.0122805
16.2009 9.66233 2
14.6715 7.74927 4
18.0501 8.33901 0.00705117
16.6661 6.31988 2
18.75 5.0241 0
25.3934 34.2584 3.98759
27.4279 34.7571 2
29.0502 35.1176 0.100544
17.8519 22.3195 3.98227
15.525 22.9187 3.97085
16.6782 21.3728 2
20.8719 19.3711 0.0196239
17.9761 19.9354 0.0214509
19.7192 21.5664 2
19.6595 24.3773 3.97048
22.3514 21.7114 0.01976
24.6877 23.1584 0.0232066
22.8376 24.5947 2
21.9238 27.8156 3.97049
23.7473 31.1793 3.97356
24.5616 28.5191 2
25.453 25.9364 0.0341218
26.1743 31.6859 2
28.3351 32.3042 0.0537946
27.0151 29.1205 0.00499861
22.5059 36.2724 3.97716
24.7412 36.8551 2
26.9323 37.3656 0.0394116
25.2651 43.1856 0.0290075
24.0552 39.4282 0.0224075
22.9668 41.8049 2
21.7691 38.5012 2
20.7043 40.6336 3.97679
20.1121 37.7813 3.97644
21.8945 43.963 0.0215887
19.7318 42.8933 2
17.3603 42.1025 3.97415
18.9671 44.9771 0.0227726
16.9447 44.3834 2
14.8402 44.2025 3.97182
16.6146 46.2167 0.025911
14.8386 46.0933 2
12.9637 46.2974 3.97166
14.9203 47.6731 0.0270958
13.2932 48.0104 2
11.4861 48.5502 3.97212
13.7862 49.5477 0.0273471
12.1147 50.2534 2
10.2626 51.0799 3.97403
12.8948 51.8748 0.027216
11.1366 52.8367 2
9.23217 53.8889 3.97842
8.38291 56.9825 3.98566
10.3228 55.7115 2
12.1401 54.5277 0.0247856
7.74927 60.3285 4
9.69825 58.849 2
11.5318 57.4597 0.0191774
9.306 62.2255 2
11.1325 60.6282 0.0117301
10.9835 64.0165 0
13.9576 21.7502 3.97303
15.1441 20.1812 2
13.4474 18.898 3.97827
16.3978 18.6459 0.0202442
14.7462 17.2987 2
13.0271 15.8806 3.98341
16.1005 15.7765 0.0173847
14.4818 14.2867 2
12.7816 12.6866 3.99091
16.0191 12.8053 0.0142857
14.4438 11.1136 2
12.7746 9.30605 4
16.2012 9.66213 0.0072378
14.6715 7.74924 2
16.6661 6.31991 0
23.0761 33.7946 3.97554
25.3799 34.2566 2
27.4422 34.761 0.0545518
17.6244 24.0399 3.97195
17.8521 22.3187 2
14.3079 24.4495 3.97151
15.5252 22.9179 2
16.678 21.3737 0.0257835
19.0381 27.1967 3.9703
19.719 21.5672 0.0194466
19.6587 24.3772 2
21.1826 30.6563 3.97185
22.8385 24.5958 0.0289893
21.9257 27.8156 2
23.7387 31.1798 2
24.5568 28.5191 0.0316129
26.1763 31.6926 0.0085071
20.2525 35.9192 3.97559
22.5043 36.2727 2
24.7533 36.8557 0.0166389
22.9684 41.8059 0.0203267
21.7713 38.5012 0.0247904
20.7025 40.6338 2
20.1102 37.7814 2
18.0826 39.001 3.97464
19.7306 42.8931 0.022454
17.3599 42.1025 2
14.8029 41.9192 3.97199
16.9447 44.3834 0.0260752
14.8402 44.2026 2
12.7033 44.3933 3.97088
14.8386 46.0932 0.0275866
12.9637 46.2976 2
10.9869 46.7345 3.97171
13.2931 48.0102 0.0278552
11.4862 48.5504 2
9.52632 49.2397 3.97331
12.1144 50.2531 0.0273629
10.263 51.0801 2
8.2655 52.0017 3.97766
11.1363 52.8363 0.0253959
9.23241 53.8889 2
7.19203 55.0322 3.98531
6.31991 58.3339 4
8.38207 56.9805 2
10.3229 55.711 0.02073
7.74924 60.3285 2
9.69917 58.8503 0.013173
9.30605 62.2254 0
13.2278 25.3619 3.97393
12.8258 23.28 3.97272
13.9578 21.7494 2
12.2338 20.5482 3.97624
15.1439 20.1821 0.0239431
13.4476 18.8969 2
11.6571 17.5621 3.98214
14.7461 17.2998 0.0191707
13.0271 15.8796 2
11.219 14.3716 3.98925
14.4817 14.2876 0.0156992
12.7812 12.6869 2
10.9835 10.9835 4
14.4441 11.1133 0.00787674
12.7745 9.306 2
14.6715 7.74927 0
20.6206 33.3894 3.97404
23.0777 33.7948 2
25.3934 34.2584 0.0124146
15.8966 26.397 3.97114
17.6242 24.0394 2
17.8519 22.3195 0.0177312
14.3078 24.449 2
15.525 22.9187 0.0291468
18.3912 30.167 3.97218
19.0377 27.1966 2
19.6595 24.3773 0.0295221
21.1852 30.6562 2
21.9238 27.8156 0.0295105
23.7473 31.1793 0.0264444
17.7207 35.9614 3.97458
20.2538 35.9192 2
22.5059 36.2724 0.0228448
20.7043 40.6336 0.0232114
20.1121 37.7813 0.0235614
18.0831 39.0011 2
14.3323 39.176 3.97254
17.3603 42.1025 0.0258473
14.8025 41.9192 2
12.3943 42.2774 3.97025
14.8402 44.2025 0.0281824
12.7032 44.3935 2
10.5638 44.8032 3.97078
12.9637 46.2974 0.0283412
10.9869 46.7347 2
8.90845 47.3193 3.97299
11.4861 48.5502 0.0278797
9.52652 49.2399 2
7.43284 50.0349 3.97677
10.2626 51.0799 0.0259748
8.26582 52.0015 2
6.13276 53.0066 3.98544
9.23217 53.8889 0.021581
7.19152 55.0299 2
5.0241 56.25 4
6.31988 58.3339 2
8.38291 56.9825 0.0143398
7.74927 60.3285 0
13.4646 26.8129 3.9707
11.9397 24.7878 3.97257
13.2276 25.3615 2
11.1381 22.2339 3.97455
12.8259 23.2793 2
13.9576 21.7502 0.0269743
12.2341 20.5471 2
10.3877 19.3177 3.98052
13.4474 18.898 0.0217286
11.6571 17.5611 2
9.75994 16.1554 3.98764
13.0271 15.8806 0.0165948
11.2185 14.372 2
9.30607 12.7746 4
12.7816 12.6866 0.00909216
10.9835 10.9835 2
12.7746 9.30605 0
17.883 33.1065 3.97376
20.6221 33.3894 2
23.0761 33.7946 0.0244591
15.4919 29.6327 3.97185
15.8957 26.3968 2
17.6244 24.0399 0.0280498
14.3079 24.4495 0.0284861
18.3928 30.1671 2
19.0381 27.1967 0.0297005
21.1826 30.6563 0.028152
14.9396 36.0165 3.97309
17.7212 35.9615 2
20.2525 35.9192 0.0244136
12.6143 37.8289 3.9724
18.0826 39.001 0.025358
14.3327 39.176 2
11.9154 40.1407 3.97075
14.8029 41.9192 0.0280136
12.3939 42.2774 2
10.1643 42.7784 3.96994
12.7033 44.3933 0.0291211
10.5638 44.8034 2
8.38632 45.3215 3.97225
10.9869 46.7345 0.0282869
8.90852 47.3195 2
6.72416 48.0003 3.97635
9.52632 49.2397 0.026689
7.43305 50.0347 2
5.20974 50.9097 3.98533
8.2655 52.0017 0.0223397
6.13251 53.0047 2
3.86727 54.0858 4
7.19203 55.0322 0.0146872
5.02404 56.25 2
6.31991 58.3339 0
12.9179 29.031 3.97031
11.3697 26.487 3.97117
13.4644 26.8126 2
10.1981 23.9678 3.97336
11.9397 24.7873 2
13.2278 25.3619 0.02607
9.24078 21.1376 3.9786
11.1385 22.233 2
12.8258 23.28 0.0272771
12.2338 20.5482 0.0237563
10.388 19.3168 2
8.41586 18.027 3.98644
11.6571 17.5621 0.0178612
9.75922 16.1563 2
7.74928 14.6715 4
11.219 14.3716 0.0107526
9.30602 12.7745 2
10.9835 10.9835 0
14.5026 32.8597 3.97263
17.8849 33.1066 2
20.6206 33.3894 0.0259598
15.4921 29.6326 2
15.8966 26.397 0.0288644
18.3912 30.167 0.0278186
12.9084 36.2082 3.97184
14.94 36.0165 2
17.7207 35.9614 0.0254221
12.6146 37.8289 2
11.2728 38.3097 3.9713
14.3323 39.176 0.0274623
11.9155 40.1407 2
9.75099 40.7546 3.96968
12.3943 42.2774 0.029754
10.1642 42.7785 2
7.93652 43.2702 3.9709
10.5638 44.8032 0.0292177
8.3863 45.3216 2
6.1304 45.9056 3.97591
8.90845 47.3193 0.0270092
6.72424 48.0001 2
4.42143 48.7506 3.98518
7.43284 50.0349 0.023226
5.2096 50.9085 2
2.85457 51.8506 4
6.13276 53.0066 0.0145646
3.86727 54.0858 2
5.0241 56.25 0
12.0629 31.2547 3.97113
10.7814 28.4141 3.9705
12.9177 29.0308 2
9.41325 25.7982 3.97265
11.3697 26.4867 2
13.4646 26.8129 0.0292951
8.22858 23.0233 3.97706
10.1983 23.9673 2
11.9397 24.7878 0.0274299
7.19821 19.9779 3.98544
9.24122 21.137 2
11.1381 22.2339 0.0254547
10.3877 19.3177 0.0194812
8.4152 18.0286 2
6.31992 16.6661 4
9.75994 16.1554 0.0123598
7.74926 14.6714 2
9.30607 12.7746 0
12.0954 34.2936 3.97187
14.5021 32.8597 2
17.883 33.1065 0.0262428
15.4919 29.6327 0.0281498
10.8365 36.6108 3.9712
12.9087 36.2082 2
14.9396 36.0165 0.0269146
12.6143 37.8289 0.0276024
11.2729 38.3096 2
9.34638 38.8237 3.96981
11.9154 40.1407 0.029253
9.7512 40.7547 2
7.54901 41.2113 3.97014
10.1643 42.7784 0.0300569
7.93648 43.2703 2
5.64302 43.7685 3.975
8.38632 45.3215 0.027754
6.1304 45.9054 2
3.76717 46.5368 3.98482
6.72416 48.0003 0.023648
4.42137 48.7501 2
1.99014 49.554 4
5.20974 50.9097 0.0146704
2.85451 51.8506 2
3.86727 54.0858 0
10.9218 32.9182 3.97154
10.0945 30.3814 3.97022
12.0627 31.2546 2
8.7212 27.7317 3.97215
10.7813 28.414 2
12.9179 29.031 0.0296882
7.35442 24.9826 3.97623
9.41336 25.7979 2
11.3697 26.487 0.0288273
6.11536 22.0024 3.98504
8.22898 23.023 2
10.1981 23.9678 0.0266375
5.02411 18.75 4
7.19787 19.9798 2
9.24078 21.1376 0.0213991
8.41586 18.027 0.0135649
6.3199 16.6661 2
7.74928 14.6715 0
10.4447 34.9996 3.971
12.0954 34.2936 2
14.5026 32.8597 0.0273656
9.01762 36.985 3.9699
10.8369 36.6108 2
12.9084 36.2082 0.0281559
11.2728 38.3097 0.0286956
9.34635 38.8237 2
7.23005 39.182 3.97011
9.75099 40.7546 0.030324
7.54917 41.2113 2
5.25921 41.6141 3.97373
7.93652 43.2702 0.0290998
5.64298 43.7684 2
3.24516 44.2819 3.98398
6.1304 45.9056 0.02409
3.76717 46.5366 2
1.27781 47.2057 4
4.42143 48.7506 0.0148219
1.99012 49.554 2
2.85457 51.8506 0
10.0885 33.881 3.9712
9.38778 32.154 3.9708
10.9217 32.9181 2
8.07068 29.6953 3.97152
10.0944 30.3813 2
12.0629 31.2547 0.028871
6.59823 27.0086 3.97579
8.72119 27.7315 2
10.7814 28.4141 0.029497
5.1708 24.0956 3.98502
7.35464 24.9825 2
9.41325 25.7982 0.0273506
3.86728 20.9142 4
6.11525 22.0039 2
8.22858 23.0233 0.0229385
5.02406 18.75 2
7.19821 19.9779 0.0145565
6.31992 16.6661 0
8.84369 35.2792 3.97022
10.4447 34.9995 2
12.0954 34.2936 0.0281295
7.01373 37.2059 3.97025
9.01757 36.9849 2
10.8365 36.6108 0.0287993
9.34638 38.8237 0.0301864
7.2301 39.182 2
4.98751 39.4674 3.9732
7.54901 41.2113 0.0298553
5.25937 41.6139 2
2.85597 42.0023 3.98295
5.64302 43.7685 0.0249997
3.24516 44.282 2
0.720592 44.8159 4
3.76717 46.5368 0.0151842
1.27778 47.2057 2
1.99014 49.554 0
8.88439 33.6974 3.97113
10.0886 33.8809 2
7.50854 31.609 3.97173
9.3877 32.1539 2
10.9218 32.9182 0.0284603
5.94365 29.0696 3.97533
8.07058 29.6952 2
10.0945 30.3814 0.0297788
4.3586 26.2481 3.98482
6.59828 27.0086 2
8.7212 27.7317 0.0278454
2.85458 23.1494 4
5.17076 24.0965 2
7.35442 24.9826 0.0237731
3.86728 20.9142 2
6.11536 22.0024 0.0149586
5.02411 18.75 0
6.96401 35.3059 3.97034
8.84384 35.2792 2
10.4447 34.9996 0.0290003
4.83761 37.3399 3.97363
7.0138 37.2058 2
9.01762 36.985 0.0301
7.23005 39.182 0.0298937
4.98755 39.4674 2
2.6043 39.714 3.98227
5.25921 41.6141 0.0262697
2.85617 42.0025 2
0.320823 42.3947 4
3.24516 44.2819 0.0160222
0.720551 44.8159 2
1.27781 47.2057 0
7.12295 33.4607 3.97156
8.88442 33.6973 2
10.0885 33.881 0.0288027
5.41487 31.1335 3.97508
7.50843 31.6089 2
9.38778 32.154 0.0291969
3.6805 28.4438 3.98434
5.94357 29.0696 2
8.07068 29.6953 0.0284803
1.99015 25.446 4
4.35858 26.2484 2
6.59823 27.0086 0.0242054
2.85453 23.1494 2
5.1708 24.0956 0.0149783
3.86728 20.9142 0
4.85193 35.2517 3.97364
6.96417 35.3059 2
8.84369 35.2792 0.0297835
2.49568 37.4286 3.98264
4.83767 37.34 2
7.01373 37.2059 0.0297452
4.98751 39.4674 0.0268009
2.60439 39.7144 2
0.080333 39.9526 4
2.85597 42.0023 0.0170457
0.320817 42.3947 2
0.720592 44.8159 0
5.04472 33.1902 3.97463
7.12297 33.4607 2
8.88439 33.6974 0.0288727
3.14501 30.6663 3.98366
5.41475 31.1336 2
7.50854 31.609 0.028271
1.27793 27.7943 4
3.68049 28.4438 2
5.94365 29.0696 0.0246683
1.99013 25.446 2
4.3586 26.2481 0.0151779
2.85458 23.1494 0
2.54782 35.1591 3.98271
4.85209 35.2518 2
6.96401 35.3059 0.0296569
0 37.5 4
2.49581 37.4289 2
4.83761 37.3399 0.0263671
2.6043 39.714 0.0177335
0.0802903 39.9526 2
0.320823 42.3947 0
2.76522 32.9058 3.98323
5.04474 33.1904 2
7.12295 33.4607 0.0284401
0.721173 30.1842 4
3.14501 30.6664 2
5.41487 31.1335 0.0249215
1.27779 27.7943 2
3.6805 28.4438 0.0156623
1.99015 25.446 0
0.0806499 35.0474 4
2.54801 35.1595 2
4.85193 35.2517 0.0263611
0 37.5 2
2.49568 37.4286 0.0173553
0.080333 39.9526 0
0.32156 32.6054 4
2.7653 32.9062 2
5.04472 33.1902 0.0253708
0.72056 30.1841 2
3.14501 30.6663 0.0163395
1.27793 27.7943 0
0.0802889 35.0474 2
2.54782 35.1591 0.0172929
0 37.5 0
0.320817 32.6053 2
2.76522 32.9058 0.0167747
0.721173 30.1842 0
0.0806499 35.0474 0
0.32156 32.6054 0
CELLS 1910 17190
8 18 6 25 56 2 0 5 16
8 57 23 6 18 17 4 0 2
8 78 36 9 29 31 11 1 7
8 31 11 1 7 79 37 10 30
8 110 57 18 50 48 17 2 14
8 50 18 56 111 14 2 16 49
8 116 62 22 55 52 20 3 15
8 56 25 67 118 16 5 24 53
8 119 63 23 57 54 21 4 17
8 55 22 63 119 15 3 21 54
8 58 26 68 121 18 6 25 56
8 122 65 26 58 57 23 6 18
8 73 31 7 27 142 79 30 71
8 143 78 29 72 73 31 7 27
8 83 147 76 34 32 74 28 8
8 84 148 78 36 33 75 29 9
8 76 34 8 28 148 84 33 75
8 37 79 150 86 10 30 77 35
8 151 87 36 78 80 38 11 31
8 80 38 11 31 152 88 37 79
8 175 100 42 94 96 44 12 40
8 44 96 176 101 12 40 95 43
8 101 176 98 46 43 95 41 13
8 46 98 178 103 13 41 97 45
8 178 103 45 97 147 83 32 74
8 189 116 55 109 106 52 15 47
8 111 56 118 191 49 16 53 107
8 192 119 57 110 108 54 17 48
8 109 55 119 192 47 15 54 108
8 194 122 58 112 110 57 18 50
8 112 58 121 195 50 18 56 111
8 115 61 19 51 197 124 59 113
8 115 61 125 198 51 19 60 114
8 198 125 62 116 114 60 20 52
8 200 127 64 120 116 62 22 55
8 118 67 132 202 53 24 66 117
8 121 68 133 203 56 25 67 118
8 120 64 128 204 55 22 63 119
8 204 128 65 122 119 63 23 57
8 206 134 68 121 123 69 26 58
8 123 69 26 58 207 131 65 122
8 226 147 74 138 140 76 28 70
8 229 148 75 139 143 78 29 72
8 140 76 28 70 229 148 75 139
8 142 79 30 71 231 150 77 141
8 144 80 31 73 232 152 79 142
8 233 151 78 143 144 80 31 73
8 150 86 35 77 235 154 81 145
8 235 154 81 145 146 82 39 91
8 146 82 39 91 236 155 90 165
8 238 157 83 147 149 85 34 76
8 239 158 84 148 151 87 36 78
8 149 85 34 76 239 158 84 148
8 152 88 37 79 241 160 86 150
8 242 161 87 151 153 89 38 80
8 153 89 38 80 243 162 88 152
8 171 98 41 92 265 178 97 169
8 265 178 97 169 226 147 74 138
8 172 96 40 93 266 176 95 170
8 266 176 95 170 171 98 41 92
8 269 175 94 173 172 96 40 93
8 271 180 99 174 175 100 42 94
8 197 124 59 113 271 180 99 174
8 272 181 100 175 177 102 44 96
8 273 182 101 176 179 104 46 98
8 177 102 44 96 273 182 101 176
8 179 104 46 98 275 184 103 178
8 275 184 103 178 238 157 83 147
8 188 115 51 105 283 197 113 186
8 188 115 198 284 105 51 114 187
8 284 198 116 189 187 114 52 106
8 286 200 120 193 189 116 55 109
8 191 118 202 288 107 53 117 190
8 195 121 203 289 111 56 118 191
8 193 120 204 290 109 55 119 192
8 290 204 122 194 192 119 57 110
8 196 123 58 112 292 207 122 194
8 293 206 121 195 196 123 58 112
8 199 126 61 115 297 211 124 197
8 298 212 127 200 198 125 62 116
8 199 126 212 298 115 61 125 198
8 205 129 64 120 300 214 127 200
8 301 217 130 201 202 132 66 117
8 209 136 168 264 301 217 130 201
8 302 219 132 202 203 133 67 118
8 303 220 133 203 206 134 68 121
8 205 129 215 304 120 64 128 204
8 304 215 131 207 204 128 65 122
8 306 221 134 206 208 135 69 123
8 208 135 69 123 307 218 131 207
8 210 137 167 263 309 223 136 209
8 328 238 147 226 230 149 76 140
8 228 146 91 166 329 236 165 260
8 231 150 77 141 330 235 145 227
8 330 235 145 227 228 146 91 166
8 332 239 148 229 233 151 78 143
8 230 149 76 140 332 239 148 229
8 232 152 79 142 334 241 150 231
8 234 153 80 144 335 243 152 232
8 336 242 151 233 234 153 80 144
8 236 155 90 165 338 245 164 259
8 241 160 86 150 339 246 154 235
8 339 246 154 235 237 156 82 146
8 237 156 82 146 340 247 155 236
8 342 249 157 238 240 159 85 149
8 343 250 158 239 242 161 87 151
8 240 159 85 149 343 250 158 239
8 243 162 88 152 345 252 160 241
8 244 163 253 346 153 89 161 242
8 244 163 89 153 347 254 162 243
8 311 224 261 371 210 137 167 263
8 263 167 262 372 209 136 168 264
8 267 179 98 171 375 275 178 265
8 375 275 178 265 328 238 147 226
8 376 273 176 266 267 179 98 171
8 268 177 96 172 376 273 176 266
8 379 272 175 269 268 177 96 172
8 380 271 174 270 269 175 94 173
8 283 197 113 186 380 271 174 270
8 381 277 180 271 272 181 100 175
8 297 211 124 197 381 277 180 271
8 382 278 181 272 274 183 102 177
8 274 183 102 177 383 279 182 273
8 383 279 182 273 276 185 104 179
8 385 281 184 275 342 249 157 238
8 276 185 104 179 385 281 184 275
8 285 199 115 188 393 297 197 283
8 394 298 200 286 284 198 116 189
8 285 199 298 394 188 115 198 284
8 291 205 120 193 396 300 200 286
8 397 301 201 287 288 202 117 190
8 295 209 264 374 397 301 201 287
8 398 302 202 288 289 203 118 191
8 399 303 203 289 293 206 121 195
8 291 205 304 400 193 120 204 290
8 400 304 207 292 290 204 122 194
8 294 208 123 196 402 307 207 292
8 403 306 206 293 294 208 123 196
8 296 210 263 373 405 309 209 295
8 408 312 213 299 297 211 126 199
8 299 213 313 409 199 126 212 298
8 409 313 214 300 298 212 127 200
8 305 216 129 205 411 315 214 300
8 412 318 217 301 302 219 132 202
8 309 223 136 209 412 318 217 301
8 413 320 219 302 303 220 133 203
8 306 221 321 414 206 134 220 303
8 307 218 131 207 415 316 215 304
8 305 216 316 415 205 129 215 304
8 417 322 221 306 308 222 135 208
8 308 222 135 208 418 319 218 307
8 310 225 137 210 420 325 223 309
8 423 326 224 311 310 225 137 210
8 329 236 165 260 441 338 259 368
8 442 342 238 328 333 240 149 230
8 331 237 146 228 443 340 236 329
8 334 241 150 231 444 339 235 330
8 444 339 235 330 331 237 146 228
8 446 343 239 332 336 242 151 233
8 333 240 149 230 446 343 239 332
8 335 243 152 232 448 345 241 334
8 337 244 153 234 449 347 243 335
8 337 244 346 450 234 153 242 336
8 338 245 164 259 452 349 258 367
8 340 247 155 236 453 350 245 338
8 345 252 160 241 454 351 246 339
8 454 351 246 339 341 248 156 237
8 341 248 156 237 455 352 247 340
8 240 159 251 344 342 249 354 457
8 242 161 253 346 343 250 355 458
8 343 250 355 458 240 159 251 344
8 347 254 162 243 460 357 252 345
8 348 255 358 461 244 163 253 346
8 348 255 163 244 462 359 254 347
8 473 360 257 365 363 256 364 482
8 452 349 258 367 365 257 366 485
8 422 324 369 488 311 224 261 371
8 371 261 370 490 263 167 262 372
8 407 311 371 491 296 210 263 373
8 373 263 372 492 295 209 264 374
8 493 385 275 375 442 342 238 328
8 377 276 179 267 493 385 275 375
8 378 274 177 268 494 383 273 376
8 494 383 273 376 377 276 179 267
8 497 382 272 379 378 274 177 268
8 498 381 271 380 379 272 175 269
8 393 297 197 283 498 381 271 380
8 499 387 277 381 382 278 181 272
8 408 312 211 297 499 387 277 381
8 500 388 278 382 384 280 183 274
8 501 389 279 383 386 282 185 276
8 384 280 183 274 501 389 279 383
8 386 282 185 276 503 391 281 385
8 503 391 281 385 457 354 249 342
8 511 408 299 395 393 297 199 285
8 395 299 409 512 285 199 298 394
8 512 409 300 396 394 298 200 286
8 401 305 205 291 514 411 300 396
8 515 412 301 397 398 302 202 288
8 405 309 209 295 515 412 301 397
8 516 413 302 398 399 303 203 289
8 403 306 414 517 293 206 303 399
8 402 307 207 292 518 415 304 400
8 401 305 415 518 291 205 304 400
8 404 308 208 294 520 418 307 402
8 521 417 306 403 404 308 208 294
8 406 310 210 296 523 420 309 405
8 526 423 311 407 406 310 210 296
8 410 314 213 299 527 424 312 408
8 528 425 315 411 409 313 214 300
8 410 314 425 528 299 213 313 409
8 416 317 216 305 530 427 315 411
8 531 430 318 412 413 320 219 302
8 420 325 223 309 531 430 318 412
8 532 432 320 413 414 321 220 303
8 417 322 433 533 306 221 321 414
8 418 319 218 307 534 428 316 415
8 416 317 428 534 305 216 316 415
8 419 323 434 536 308 222 322 417
8 419 323 222 308 537 431 319 418
8 421 327 225 310 539 438 325 420
8 421 327 439 541 310 225 326 423
8 543 437 324 422 423 326 224 311
8 441 338 259 368 559 452 367 486
8 443 340 236 329 560 453 338 441
8 333 240 344 447 442 342 457 561
8 445 341 237 331 562 455 340 443
8 448 345 241 334 563 454 339 444
8 563 454 339 444 445 341 237 331
8 336 242 346 450 446 343 458 565
8 446 343 458 565 333 240 344 447
8 449 347 243 335 567 460 345 448
8 451 348 244 337 568 462 347 449
8 451 348 461 569 337 244 346 450
8 570 463 349 452 473 360 257 365
8 453 350 245 338 570 463 349 452
8 455 352 247 340 571 464 350 453
8 460 357 252 345 572 465 351 454
8 572 465 351 454 456 353 248 341
8 456 353 248 341 573 466 352 455
8 344 251 356 459 457 354 468 575
8 458 355 469 576 344 251 356 459
8 346 253 358 461 458 355 469 576
8 462 359 254 347 578 471 357 460
8 348 255 359 462 461 358 472 579
8 591 474 360 473 475 361 256 363
8 475 361 256 363 594 477 362 479
8 363 256 364 482 479 362 480 603
8 590 473 365 484 481 363 482 605
8 482 364 257 365 606 483 366 485
8 559 452 367 486 484 365 485 607
8 542 436 487 609 422 324 369 488
8 525 422 488 611 407 311 371 491
8 488 369 489 612 371 261 370 490
8 491 371 490 613 373 263 372 492
8 495 386 276 377 614 503 385 493
8 614 503 385 493 561 457 342 442
8 615 501 383 494 495 386 276 377
8 496 384 274 378 615 501 383 494
8 618 500 382 497 496 384 274 378
8 619 499 381 498 497 382 272 379
8 511 408 297 393 619 499 381 498
8 620 505 387 499 500 388 278 382
8 527 424 312 408 620 505 387 499
8 502 390 506 621 384 280 388 500
8 622 507 389 501 504 392 282 386
8 502 390 280 384 622 507 389 501
8 504 392 282 386 624 509 391 503
8 624 509 391 503 575 468 354 457
8 513 410 299 395 630 527 408 511
8 631 528 411 514 512 409 300 396
8 513 410 528 631 395 299 409 512
8 519 416 305 401 633 530 411 514
8 634 531 412 515 516 413 302 398
8 523 420 309 405 634 531 412 515
8 635 532 413 516 517 414 303 399
8 521 417 533 636 403 306 414 517
8 520 418 307 402 637 534 415 518
8 519 416 534 637 401 305 415 518
8 522 419 308 404 639 537 418 520
8 522 419 536 640 404 308 417 521
8 524 421 310 406 642 539 420 523
8 524 421 541 644 406 310 423 526
8 646 543 422 525 526 423 311 407
8 529 426 314 410 647 544 424 527
8 528 425 545 648 411 315 427 530
8 529 426 545 648 410 314 425 528
8 535 429 317 416 649 546 427 530
8 650 548 430 531 532 432 320 413
8 539 438 325 420 650 548 430 531
8 533 433 550 651 414 321 432 532
8 536 434 551 652 417 322 433 533
8 537 431 319 418 653 547 428 534
8 535 429 547 653 416 317 428 534
8 538 435 552 654 419 323 434 536
8 538 435 323 419 655 549 431 537
8 540 440 327 421 657 556 438 539
8 540 440 557 659 421 327 439 541
8 541 439 555 660 423 326 437 543
8 661 554 436 542 543 437 324 422
8 676 570 452 559 590 473 365 484
8 560 453 338 441 676 570 452 559
8 562 455 340 443 677 571 453 560
8 447 344 459 566 561 457 575 678
8 564 456 341 445 679 573 455 562
8 567 460 345 448 680 572 454 563
8 680 572 454 563 564 456 341 445
8 565 458 576 682 447 344 459 566
8 450 346 461 569 565 458 576 682
8 568 462 347 449 684 578 460 567
8 451 348 462 568 569 461 579 685
8 686 580 463 570 591 474 360 473
8 571 464 350 453 686 580 463 570
8 573 466 352 455 687 581 464 571
8 572 465 582 688 460 357 471 578
8 574 467 582 688 456 353 465 572
8 574 467 353 456 689 583 466 573
8 459 356 470 577 575 468 585 691
8 576 469 586 692 459 356 470 577
8 461 358 472 579 576 469 586 692
8 462 359 471 578 579 472 588 694
8 704 591 473 590 593 475 363 481
8 595 476 592 705 475 361 474 591
8 593 475 363 481 707 594 479 602
8 594 477 362 479 709 598 478 600
8 595 476 361 475 711 597 477 594
8 479 362 480 603 600 478 601 720
8 481 363 482 605 602 479 603 722
8 603 480 364 482 723 604 483 606
8 605 482 365 484 724 606 485 607
8 656 553 608 726 542 436 487 609
8 645 542 609 728 525 422 488 611
8 609 487 610 729 488 369 489 612
8 611 488 612 730 491 371 490 613
8 616 504 386 495 731 624 503 614
8 731 624 503 614 678 575 457 561
8 732 622 501 615 616 504 386 495
8 617 502 384 496 732 622 501 615
8 617 502 621 735 496 384 500 618
8 736 620 499 619 618 500 382 497
8 630 527 408 511 736 620 499 619
8 621 506 626 737 500 388 505 620
8 647 544 424 527 737 626 505 620
8 623 508 627 738 502 390 506 621
8 623 508 390 502 739 628 507 622
8 625 510 628 739 504 392 507 622
8 740 629 509 624 691 585 468 575
8 625 510 392 504 740 629 509 624
8 632 529 410 513 744 647 527 630
8 631 528 648 745 514 411 530 633
8 632 529 648 745 513 410 528 631
8 638 535 416 519 746 649 530 633
8 747 650 531 634 635 532 413 516
8 642 539 420 523 747 650 531 634
8 636 533 651 748 517 414 532 635
8 640 536 652 749 521 417 533 636
8 639 537 418 520 750 653 534 637
8 638 535 653 750 519 416 534 637
8 641 538 419 522 751 655 537 639
8 641 538 654 752 522 419 536 640
8 643 540 421 524 753 657 539 642
8 643 540 659 755 524 421 541 644
8 644 541 660 757 526 423 543 646
8 758 661 542 645 646 543 422 525
8 529 426 544 647 648 545 662 759
8 530 427 545 648 649 546 663 760
8 535 429 546 649 653 547 664 761
8 762 666 548 650 651 550 432 532
8 657 556 438 539 762 666 548 650
8 652 551 668 763 533 433 550 651
8 654 552 669 764 536 434 551 652
8 655 549 431 537 765 665 547 653
8 538 435 549 655 654 552 667 766
8 661 554 671 768 542 436 553 656
8 658 558 440 540 769 674 556 657
8 658 558 675 770 540 440 557 659
8 659 557 673 771 541 439 555 660
8 660 555 672 772 543 437 554 661
8 788 686 570 676 704 591 473 590
8 677 571 453 560 788 686 570 676
8 679 573 455 562 789 687 571 677
8 566 459 577 683 678 575 691 790
8 681 574 456 564 791 689 573 679
8 680 572 688 792 567 460 578 684
8 681 574 688 792 564 456 572 680
8 682 576 692 794 566 459 577 683
8 569 461 579 685 682 576 692 794
8 568 462 578 684 685 579 694 796
8 687 581 464 571 798 696 580 686
8 798 696 580 686 705 592 474 591
8 689 583 466 573 799 697 581 687
8 688 582 698 800 578 471 588 694
8 690 584 698 800 574 467 582 688
8 690 584 467 574 801 699 583 689
8 693 587 701 803 577 470 585 691
8 693 587 470 577 804 702 586 692
8 695 589 702 804 579 472 586 692
8 695 589 472 579 805 703 588 694
8 708 595 705 813 593 475 591 704
8 710 596 706 814 595 476 592 705
8 707 594 479 602 816 709 600 719
8 708 595 475 593 817 711 594 707
8 709 598 478 600 819 715 599 717
8 711 597 477 594 820 714 598 709
8 710 596 476 595 822 713 597 711
8 600 478 601 720 717 599 718 832
8 602 479 603 722 719 600 720 834
8 720 601 480 603 835 721 604 723
8 722 603 482 605 836 723 606 724
8 767 670 725 839 656 553 608 726
8 756 656 726 841 645 542 609 728
8 726 608 727 842 609 487 610 729
8 728 609 729 843 611 488 612 730
8 844 740 624 731 790 691 575 678
8 733 625 504 616 844 740 624 731
8 734 623 502 617 845 739 622 732
8 733 625 739 845 616 504 622 732
8 734 623 738 846 617 502 621 735
8 735 621 737 847 618 500 620 736
8 744 647 527 630 847 737 620 736
8 621 506 627 738 737 626 741 848
8 647 544 626 737 759 662 741 848
8 623 508 628 739 738 627 742 849
8 740 629 585 691 850 743 700 802
8 625 510 629 740 739 628 743 850
8 632 529 647 744 745 648 759 854
8 633 530 648 745 746 649 760 855
8 638 535 649 746 750 653 761 856
8 857 762 650 747 748 651 532 635
8 753 657 539 642 857 762 650 747
8 749 652 763 858 636 533 651 748
8 752 654 764 859 640 536 652 749
8 751 655 537 639 860 765 653 750
8 641 538 655 751 752 654 766 861
8 754 658 540 643 862 769 657 753
8 754 658 770 863 643 540 659 755
8 755 659 771 864 644 541 660 757
8 758 661 768 866 645 542 656 756
8 757 660 772 867 646 543 661 758
8 759 662 773 868 648 545 663 760
8 649 546 663 760 761 664 774 871
8 765 665 547 653 872 775 664 761
8 873 777 666 762 763 668 550 651
8 769 674 556 657 873 777 666 762
8 764 669 779 874 652 551 668 763
8 654 552 667 766 764 669 778 875
8 655 549 665 765 766 667 776 876
8 768 671 782 877 656 553 670 767
8 772 672 783 878 661 554 671 768
8 658 558 674 769 770 675 786 879
8 659 557 675 770 771 673 785 881
8 882 784 672 772 771 673 555 660
8 789 687 571 677 897 798 686 788
8 897 798 686 788 813 705 591 704
8 791 689 573 679 898 799 687 789
8 795 693 803 900 683 577 691 790
8 793 690 574 681 901 801 689 791
8 792 688 800 902 684 578 694 796
8 793 690 800 902 681 574 688 792
8 795 693 577 683 903 804 692 794
8 797 695 804 903 685 579 692 794
8 797 695 579 685 904 805 694 796
8 905 806 697 799 798 696 581 687
8 814 706 806 905 705 592 696 798
8 689 583 697 799 801 699 808 907
8 800 698 809 908 694 588 703 805
8 690 584 699 801 800 698 809 908
8 803 701 810 909 691 585 700 802
8 693 587 702 804 803 701 811 910
8 695 589 703 805 804 702 812 911
8 818 710 814 919 708 595 705 813
8 821 712 815 920 710 596 706 814
8 816 709 600 719 922 819 717 831
8 817 711 594 707 923 820 709 816
8 818 710 595 708 924 822 711 817
8 819 715 599 717 926 827 716 829
8 820 714 598 709 927 826 715 819
8 929 825 713 822 820 714 597 711
8 821 712 596 710 930 824 713 822
8 717 599 718 832 829 716 830 942
8 719 600 720 834 831 717 832 944
8 832 718 601 720 945 833 721 835
8 834 720 603 722 946 835 723 836
8 869 780 838 950 767 670 725 839
8 865 767 839 952 756 656 726 841
8 839 725 840 953 726 608 727 842
8 841 726 842 954 728 609 729 843
8 844 740 691 790 955 850 802 899
8 733 625 740 844 845 739 850 955
8 734 623 739 845 846 738 849 956
8 735 621 738 846 847 737 848 957
8 744 647 737 847 854 759 848 957
8 738 627 742 849 848 741 851 958
8 848 741 851 958 759 662 773 868
8 850 743 700 802 959 852 807 906
8 849 742 628 739 959 852 743 850
8 854 759 868 965 745 648 760 855
8 746 649 760 855 856 761 871 966
8 860 765 653 750 967 872 761 856
8 968 873 762 857 858 763 651 748
8 862 769 657 753 968 873 762 857
8 859 764 874 969 749 652 763 858
8 752 654 766 861 859 764 875 970
8 751 655 765 860 861 766 876 971
8 754 658 769 862 863 770 879 972
8 755 659 770 863 864 771 881 974
8 976 882 772 867 864 771 660 757
8 866 768 877 977 756 656 767 865
8 867 772 878 978 758 661 768 866
8 760 663 773 868 871 774 883 980
8 870 781 837 948 982 890 780 869
8 982 890 780 869 877 782 670 767
8 761 664 774 871 872 775 884 984
8 876 776 665 765 985 885 775 872
8 873 777 668 763 986 887 779 874
8 769 674 777 873 879 786 887 986
8 764 669 778 875 874 779 888 987
8 766 667 776 876 875 778 886 988
8 878 783 892 989 768 671 782 877
8 878 783 672 772 990 893 784 882
8 880 787 675 770 991 896 786 879
8 880 787 895 992 770 675 785 881
8 881 785 894 993 771 673 784 882
8 1006 905 799 898 897 798 687 789
8 919 814 905 1006 813 705 798 897
8 791 689 799 898 901 801 907 1007
8 900 803 909 1009 790 691 802 899
8 795 693 804 903 900 803 910 1010
8 902 800 908 1011 796 694 805 904
8 793 690 801 901 902 800 908 1011
8 797 695 805 904 903 804 911 1012
8 799 697 806 905 907 808 912 1013
8 920 815 912 1013 814 706 806 905
8 802 700 810 909 906 807 913 1014
8 801 699 808 907 908 809 914 1015
8 805 703 809 908 911 812 915 1016
8 803 701 811 910 909 810 916 1017
8 911 812 917 1018 804 702 811 910
8 925 821 920 1030 818 710 814 919
8 928 823 921 1031 821 712 815 920
8 922 819 717 831 1033 926 829 941
8 923 820 709 816 1034 927 819 922
8 1035 929 822 924 923 820 711 817
8 925 821 710 818 1036 930 822 924
8 1038 933 825 929 927 826 714 820
8 926 827 716 829 1039 935 828 939
8 927 826 715 819 1040 934 827 926
8 928 823 712 821 1041 931 824 930
8 1042 932 824 930 929 825 713 822
8 829 716 830 942 939 828 940 1058
8 831 717 832 944 941 829 942 1060
8 942 830 718 832 1061 943 833 945
8 944 832 720 834 1062 945 835 946
8 981 889 947 1064 870 781 837 948
8 948 837 949 1067 869 780 838 950
8 975 869 950 1069 865 767 839 952
8 950 838 951 1070 839 725 840 953
8 952 839 953 1071 841 726 842 954
8 955 850 802 899 1072 959 906 1008
8 956 849 739 845 1072 959 850 955
8 846 738 849 956 957 848 958 1073
8 957 848 958 1073 854 759 868 965
8 849 742 852 959 958 851 961 1076
8 960 853 961 1076 906 807 852 959
8 958 851 961 1076 868 773 883 980
8 960 853 807 906 1077 963 913 1014
8 855 760 868 965 966 871 980 1085
8 856 761 871 966 967 872 984 1086
8 971 876 765 860 1087 985 872 967
8 968 873 763 858 1088 986 874 969
8 862 769 873 968 972 879 986 1088
8 859 764 875 970 969 874 987 1089
8 861 766 876 971 970 875 988 1090
8 973 880 770 863 1091 991 879 972
8 973 880 992 1092 863 770 881 974
8 974 881 993 1093 864 771 882 976
8 979 870 948 1066 1094 982 869 975
8 1094 982 869 975 977 877 767 865
8 978 878 772 867 1095 990 882 976
8 978 878 989 1096 866 768 877 977
8 871 774 883 980 984 884 994 1099
8 983 891 999 1100 870 781 889 981
8 1101 1000 890 982 989 892 782 877
8 983 891 781 870 1101 1000 890 982
8 872 775 884 984 985 885 995 1103
8 876 776 885 985 988 886 996 1104
8 986 887 779 874 1105 998 888 987
8 879 786 887 986 991 896 998 1105
8 875 778 886 988 987 888 997 1106
8 990 893 1002 1107 878 783 892 989
8 1108 1003 893 990 993 894 784 882
8 880 787 896 991 992 895 1005 1109
8 993 894 785 881 1110 1004 895 992
8 898 799 905 1006 1007 907 1013 1120
8 1030 920 1013 1120 919 814 905 1006
8 901 801 907 1007 1011 908 1015 1121
8 899 802 909 1009 1008 906 1014 1122
8 900 803 910 1010 1009 909 1017 1123
8 1012 911 1018 1124 903 804 910 1010
8 904 805 908 1011 1012 911 1016 1125
8 1013 912 1020 1127 907 808 914 1015
8 1031 921 1020 1127 920 815 912 1013
8 1019 918 962 1075 1128 1021 913 1014
8 1128 1021 913 1014 1017 916 810 909
8 1015 914 1022 1129 908 809 915 1016
8 1016 915 1023 1130 911 812 917 1018
8 1018 917 1024 1131 910 811 916 1017
8 1037 928 1031 1148 925 821 920 1030
8 928 823 931 1041 1031 921 1032 1149
8 1033 926 829 941 1151 1039 939 1057
8 1034 927 819 922 1152 1040 926 1033
8 1153 1038 929 1035 1034 927 820 923
8 1154 1042 930 1036 1035 929 822 924
8 1037 928 821 925 1155 1041 930 1036
8 1039 935 828 939 1156 1047 938 1055
8 1157 1043 932 1042 1038 933 825 929
8 1038 933 826 927 1158 1045 934 1040
8 1040 934 827 926 1159 1046 935 1039
8 930 824 932 1042 1041 931 1044 1160
8 1051 936 1048 1165 1175 1052 937 1053
8 1156 1047 938 1055 1053 937 1054 1178
8 939 828 940 1058 1055 938 1056 1181
8 941 829 942 1060 1057 939 1058 1183
8 942 830 943 1061 1058 940 1059 1184
8 1060 942 832 944 1185 1061 945 1062
8 1082 964 1063 1188 981 889 947 1064
8 1097 981 1064 1190 979 870 948 1066
8 1064 947 1065 1191 948 837 949 1067
8 1066 948 1067 1193 975 869 950 1069
8 1067 949 1068 1194 950 838 951 1070
8 1069 950 1070 1195 952 839 953 1071
8 956 849 959 1072 1073 958 1076 1197
8 1074 960 1076 1197 1008 906 959 1072
8 1073 958 1076 1197 965 868 980 1085
8 1074 960 906 1008 1198 1077 1014 1122
8 1133 1026 1079 1199 1019 918 962 1075
8 1077 963 913 1014 1200 1080 962 1075
8 960 853 963 1077 1076 961 1078 1201
8 980 883 961 1076 1099 994 1078 1201
8 1210 1083 964 1082 1100 999 889 981
8 966 871 980 1085 1086 984 1099 1215
8 967 872 984 1086 1087 985 1103 1216
8 971 876 985 1087 1090 988 1104 1217
8 1088 986 874 969 1218 1105 987 1089
8 972 879 986 1088 1091 991 1105 1218
8 970 875 988 1090 1089 987 1106 1219
8 973 880 991 1091 1092 992 1109 1220
8 1093 993 881 974 1221 1110 992 1092
8 1222 1108 990 1095 1093 993 882 976
8 1223 1101 982 1094 1096 989 877 977
8 1098 983 870 979 1223 1101 982 1094
8 1095 990 1107 1224 978 878 989 1096
8 1098 983 1100 1225 979 870 981 1097
8 984 884 994 1099 1103 995 1111 1227
8 1102 1001 1115 1228 983 891 999 1100
8 1101 1000 892 989 1229 1116 1002 1107
8 1102 1001 891 983 1229 1116 1000 1101
8 985 885 995 1103 1104 996 1112 1230
8 988 886 996 1104 1106 997 1113 1231
8 1105 998 888 987 1232 1114 997 1106
8 991 896 998 1105 1109 1005 1114 1232
8 1108 1003 1117 1233 990 893 1002 1107
8 1108 1003 894 993 1233 1117 1004 1110
8 992 895 1005 1109 1110 1004 1118 1234
8 1120 1013 1127 1244 1007 907 1015 1121
8 1148 1031 1127 1244 1030 920 1013 1120
8 1121 1015 1129 1245 1011 908 1016 1125
8 1126 1019 1075 1196 1246 1128 1014 1122
8 1246 1128 1014 1122 1123 1017 909 1009
8 1124 1018 1131 1247 1010 910 1017 1123
8 1125 1016 1130 1248 1012 911 1018 1124
8 1127 1020 1137 1254 1015 914 1022 1129
8 1031 921 1032 1149 1127 1020 1137 1254
8 1134 1027 918 1019 1257 1140 1021 1128
8 1257 1140 1021 1128 1131 1024 916 1017
8 1129 1022 1141 1258 1016 915 1023 1130
8 1130 1023 1142 1259 1018 917 1024 1131
8 1261 1144 1025 1132 1133 1026 1079 1199
8 1255 1138 1025 1132 1135 1028 1144 1261
8 1133 1026 918 1019 1262 1145 1027 1134
8 1136 1029 1139 1256 1263 1146 1028 1135
8 1037 928 1041 1155 1148 1031 1149 1275
8 1041 931 1044 1160 1149 1032 1150 1276
8 1151 1039 939 1057 1278 1156 1055 1180
8 1152 1040 926 1033 1279 1159 1039 1151
8 1153 1038 927 1034 1280 1158 1040 1152
8 1281 1157 1042 1154 1153 1038 929 1035
8 1036 930 1042 1154 1155 1041 1160 1282
8 1283 1164 1046 1159 1156 1047 935 1039
8 1165 1048 1164 1283 1053 937 1047 1156
8 1157 1043 933 1038 1284 1161 1045 1158
8 1157 1043 1161 1284 1042 932 1044 1160
8 1040 934 1046 1159 1158 1045 1163 1285
8 1166 1049 1167 1292 1051 936 1048 1165
8 1166 1049 936 1051 1293 1168 1050 1172
8 1051 936 1052 1175 1172 1050 1173 1306
8 1174 1051 1165 1290 1308 1175 1053 1177
8 1053 937 1054 1178 1175 1052 1176 1309
8 1278 1156 1055 1180 1177 1053 1178 1311
8 1055 938 1056 1181 1178 1054 1179 1312
8 1057 939 1058 1183 1180 1055 1181 1314
8 1058 940 1059 1184 1181 1056 1182 1315
8 1060 942 1061 1185 1183 1058 1184 1316
8 1208 1081 1187 1321 1082 964 1063 1188
8 1209 1082 1188 1322 1097 981 1064 1190
8 1188 1063 1189 1323 1064 947 1065 1191
8 1190 1064 1191 1325 1066 948 1067 1193
8 1191 1065 1192 1326 1067 949 1068 1194
8 1067 1193 1069 950 1194 1327 1195 1070
8 1250 1133 1199 1330 1126 1019 1075 1196
8 1198 1077 1014 1122 1331 1200 1075 1196
8 1074 960 1077 1198 1197 1076 1201 1332
8 1085 980 1076 1197 1215 1099 1201 1332
8 1199 1079 1203 1333 1075 962 1080 1200
8 1132 1025 1119 1243 1199 1079 1203 1333
8 1201 1078 963 1077 1334 1202 1080 1200
8 1099 994 1078 1201 1227 1111 1202 1334
8 1343 1207 1081 1208 1210 1083 964 1082
8 1214 1084 1186 1319 1343 1207 1081 1208
8 1345 1210 1082 1209 1225 1100 981 1097
8 1346 1211 1083 1210 1228 1115 999 1100
8 1086 984 1099 1215 1216 1103 1227 1352
8 1087 985 1103 1216 1217 1104 1230 1353
8 1090 988 1104 1217 1219 1106 1231 1354
8 1218 1105 987 1089 1355 1232 1106 1219
8 1091 991 1105 1218 1220 1109 1232 1355
8 1092 992 1109 1220 1221 1110 1234 1356
8 1222 1108 1233 1357 1095 990 1107 1224
8 1222 1108 993 1093 1357 1233 1110 1221
8 1223 1101 989 1096 1358 1229 1107 1224
8 1226 1102 983 1098 1358 1229 1101 1223
8 1226 1102 1228 1359 1098 983 1100 1225
8 1103 995 1111 1227 1230 1112 1235 1360
8 1107 1002 1117 1233 1229 1116 1240 1362
8 1102 1001 1116 1229 1228 1115 1240 1362
8 1104 996 1112 1230 1231 1113 1236 1363
8 1364 1237 1114 1232 1231 1113 997 1106
8 1109 1005 1114 1232 1234 1118 1238 1365
8 1110 1004 1118 1234 1233 1117 1241 1366
8 1242 1374 1255 1138 1119 1243 1132 1025
8 1244 1127 1254 1376 1121 1015 1129 1245
8 1148 1031 1149 1275 1244 1127 1254 1376
8 1245 1129 1258 1377 1125 1016 1130 1248
8 1251 1134 1019 1126 1378 1257 1128 1246
8 1378 1257 1128 1246 1247 1131 1017 1123
8 1248 1130 1259 1379 1124 1018 1131 1247
8 1261 1381 1250 1133 1132 1249 1330 1199
8 1255 1380 1252 1135 1132 1249 1381 1261
8 1250 1133 1019 1126 1382 1262 1134 1251
8 1253 1136 1256 1385 1384 1263 1135 1252
8 1254 1137 1265 1387 1129 1022 1141 1258
8 1149 1032 1150 1276 1254 1137 1265 1387
8 1028 1135 1255 1138 1139 1256 1388 1266
8 1136 1029 1147 1264 1256 1139 1267 1389
8 1390 1268 1140 1257 1259 1142 1024 1131
8 1260 1143 1027 1134 1390 1268 1140 1257
8 1258 1141 1269 1391 1130 1023 1142 1259
8 1262 1145 1027 1134 1393 1271 1143 1260
8 1261 1144 1026 1133 1394 1272 1145 1262
8 1135 1028 1144 1261 1263 1146 1272 1394
8 1136 1029 1146 1263 1264 1147 1273 1395
8 1155 1041 1160 1282 1275 1149 1276 1405
8 1276 1150 1044 1160 1406 1277 1162 1286
8 1408 1283 1159 1279 1278 1156 1039 1151
8 1290 1165 1283 1408 1177 1053 1156 1278
8 1152 1040 1159 1279 1280 1158 1285 1409
8 1281 1157 1038 1153 1410 1284 1158 1280
8 1281 1157 1284 1410 1154 1042 1160 1282
8 1159 1046 1164 1283 1285 1163 1289 1412
8 1292 1167 1289 1412 1165 1048 1164 1283
8 1158 1045 1163 1285 1284 1161 1288 1413
8 1284 1161 1288 1413 1160 1044 1162 1286
8 1291 1166 1292 1418 1174 1051 1165 1290
8 1291 1166 1051 1174 1419 1293 1172 1305
8 1294 1169 1296 1421 1166 1049 1167 1292
8 1293 1168 1050 1172 1422 1295 1171 1303
8 1294 1169 1049 1166 1423 1297 1168 1293
8 1422 1295 1171 1303 1301 1170 1302 1435
8 1172 1050 1173 1306 1303 1171 1304 1438
8 1174 1051 1175 1308 1305 1172 1306 1440
8 1175 1052 1176 1309 1306 1173 1307 1441
8 1177 1053 1178 1311 1308 1175 1309 1443
8 1178 1054 1179 1312 1309 1176 1310 1444
8 1180 1055 1181 1314 1311 1178 1312 1446
8 1056 1181 1312 1179 1182 1315 1447 1313
8 1183 1058 1184 1316 1314 1181 1315 1448
8 1319 1186 1084 1214 1451 1317 1213 1350
8 1319 1186 1318 1453 1208 1081 1187 1321
8 1321 1187 1320 1456 1188 1063 1189 1323
8 1344 1208 1321 1457 1209 1082 1188 1322
8 1322 1188 1323 1458 1190 1064 1191 1325
8 1323 1189 1324 1459 1191 1065 1192 1326
8 1191 1325 1193 1067 1326 1460 1327 1194
8 1242 1374 1243 1119 1328 1462 1335 1204
8 1330 1199 1333 1465 1196 1075 1200 1331
8 1132 1249 1330 1199 1243 1375 1465 1333
8 1332 1201 1077 1198 1466 1334 1200 1331
8 1215 1099 1201 1332 1352 1227 1334 1466
8 1119 1243 1333 1203 1204 1335 1470 1338
8 1333 1203 1338 1470 1200 1080 1202 1334
8 1227 1111 1202 1334 1360 1235 1338 1470
8 1328 1462 1335 1204 1205 1336 1471 1339
8 1337 1206 1340 1472 1464 1329 1205 1336
8 1346 1211 1342 1479 1210 1083 1207 1343
8 1346 1211 1115 1228 1479 1342 1239 1361
8 1348 1212 1084 1214 1479 1342 1207 1343
8 1480 1343 1208 1344 1345 1210 1082 1209
8 1351 1214 1319 1454 1480 1343 1208 1344
8 1481 1346 1210 1345 1359 1228 1100 1225
8 1348 1212 1347 1483 1214 1084 1213 1350
8 1216 1103 1227 1352 1353 1230 1360 1488
8 1217 1104 1230 1353 1354 1231 1363 1489
8 1490 1364 1232 1355 1354 1231 1106 1219
8 1220 1109 1232 1355 1356 1234 1365 1491
8 1221 1110 1234 1356 1357 1233 1366 1492
8 1224 1107 1233 1357 1358 1229 1362 1493
8 1226 1102 1229 1358 1359 1228 1362 1493
8 1230 1112 1235 1360 1363 1236 1367 1496
8 1361 1239 1115 1228 1497 1371 1240 1362
8 1366 1241 1372 1498 1233 1117 1240 1362
8 1364 1237 1113 1231 1499 1368 1236 1363
8 1364 1237 1368 1499 1232 1114 1238 1365
8 1234 1118 1238 1365 1366 1241 1369 1500
8 1507 1373 1242 1374 1388 1266 1138 1255
8 1508 1374 1243 1375 1380 1255 1132 1249
8 1376 1254 1387 1509 1245 1129 1258 1377
8 1275 1149 1276 1405 1376 1254 1387 1509
8 1377 1258 1391 1510 1248 1130 1259 1379
8 1511 1390 1257 1378 1379 1259 1131 1247
8 1383 1260 1134 1251 1511 1390 1257 1378
8 1252 1135 1256 1385 1380 1255 1388 1512
8 1261 1381 1513 1394 1133 1250 1382 1262
8 1135 1252 1384 1263 1261 1381 1513 1394
8 1382 1262 1134 1251 1514 1393 1260 1383
8 1253 1136 1263 1384 1386 1264 1395 1516
8 1253 1136 1264 1386 1385 1256 1389 1517
8 1387 1265 1397 1519 1258 1141 1269 1391
8 1276 1150 1277 1406 1387 1265 1397 1519
8 1256 1139 1267 1389 1388 1266 1398 1520
8 1264 1147 1274 1396 1389 1267 1399 1521
8 1392 1270 1143 1260 1522 1400 1268 1390
8 1390 1268 1142 1259 1522 1400 1269 1391
8 1392 1270 1401 1523 1260 1143 1271 1393
8 1272 1394 1524 1402 1145 1262 1393 1271
8 1395 1273 1146 1263 1524 1402 1272 1394
8 1273 1395 1264 1147 1403 1526 1396 1274
8 1405 1276 1160 1282 1534 1406 1286 1411
8 1414 1287 1407 1535 1286 1162 1277 1406
8 1279 1159 1283 1408 1409 1285 1412 1537
8 1418 1292 1412 1537 1290 1165 1283 1408
8 1280 1158 1285 1409 1410 1284 1413 1538
8 1410 1284 1413 1538 1282 1160 1286 1411
8 1285 1163 1289 1412 1413 1288 1417 1540
8 1421 1296 1417 1540 1292 1167 1289 1412
8 1414 1287 1162 1286 1541 1416 1288 1413
8 1420 1294 1421 1545 1291 1166 1292 1418
8 1419 1293 1172 1305 1546 1422 1303 1437
8 1420 1294 1166 1291 1547 1423 1293 1419
8 1294 1169 1297 1423 1421 1296 1425 1548
8 1423 1297 1168 1293 1549 1424 1295 1422
8 1301 1170 1298 1427 1422 1295 1424 1549
8 1432 1300 1428 1554 1301 1170 1298 1427
8 1431 1299 1428 1554 1560 1430 1300 1432
8 1563 1433 1300 1432 1435 1302 1170 1301
8 1546 1422 1303 1437 1434 1301 1435 1565
8 1303 1171 1304 1438 1435 1302 1436 1566
8 1305 1172 1306 1440 1437 1303 1438 1568
8 1306 1173 1307 1441 1438 1304 1439 1569
8 1308 1175 1309 1443 1440 1306 1441 1571
8 1309 1176 1310 1444 1441 1307 1442 1572
8 1311 1178 1312 1446 1443 1309 1444 1574
8 1179 1312 1444 1310 1313 1447 1575 1445
8 1314 1181 1315 1448 1446 1312 1447 1576
8 1350 1213 1349 1486 1451 1317 1449 1579
8 1451 1317 1450 1581 1319 1186 1318 1453
8 1454 1319 1214 1351 1582 1451 1350 1487
8 1453 1318 1452 1584 1321 1187 1320 1456
8 1454 1319 1453 1585 1344 1208 1321 1457
8 1456 1320 1455 1586 1323 1189 1324 1459
8 1457 1321 1456 1587 1322 1188 1323 1458
8 1458 1323 1459 1588 1325 1191 1326 1460
8 1205 1336 1464 1329 1328 1462 1590 1461
8 1507 1373 1461 1590 1374 1242 1328 1462
8 1508 1374 1462 1591 1375 1243 1335 1467
8 1337 1206 1329 1464 1473 1341 1463 1594
8 1375 1243 1335 1467 1465 1333 1470 1596
8 1465 1333 1470 1596 1331 1200 1334 1466
8 1352 1227 1334 1466 1488 1360 1470 1596
8 1591 1462 1336 1468 1467 1335 1471 1597
8 1469 1337 1472 1598 1595 1464 1336 1468
8 1471 1339 1474 1600 1335 1204 1338 1470
8 1600 1474 1367 1496 1470 1338 1235 1360
8 1336 1205 1340 1472 1471 1339 1475 1601
8 1337 1206 1341 1473 1472 1340 1476 1602
8 1495 1370 1478 1609 1361 1239 1342 1479
8 1348 1212 1342 1479 1483 1347 1478 1609
8 1481 1346 1479 1610 1345 1210 1343 1480
8 1481 1346 1228 1359 1610 1479 1361 1494
8 1484 1348 1214 1351 1610 1479 1343 1480
8 1483 1347 1482 1612 1350 1213 1349 1486
8 1484 1348 1483 1613 1351 1214 1350 1487
8 1353 1230 1360 1488 1489 1363 1496 1616
8 1490 1364 1231 1354 1617 1499 1363 1489
8 1490 1364 1499 1617 1355 1232 1365 1491
8 1356 1234 1365 1491 1492 1366 1500 1619
8 1492 1366 1498 1620 1357 1233 1362 1493
8 1494 1361 1228 1359 1621 1497 1362 1493
8 1495 1370 1239 1361 1622 1504 1371 1497
8 1363 1236 1367 1496 1499 1368 1501 1623
8 1497 1371 1240 1362 1624 1505 1372 1498
8 1625 1503 1372 1498 1500 1369 1241 1366
8 1365 1238 1368 1499 1500 1369 1502 1626
8 1520 1398 1506 1633 1388 1266 1373 1507
8 1634 1507 1374 1508 1512 1388 1255 1380
8 1509 1387 1519 1635 1377 1258 1391 1510
8 1405 1276 1406 1534 1509 1387 1519 1635
8 1515 1392 1260 1383 1636 1522 1390 1511
8 1511 1390 1259 1379 1636 1522 1391 1510
8 1385 1256 1389 1517 1512 1388 1520 1637
8 1513 1394 1262 1382 1638 1524 1393 1514
8 1395 1516 1638 1524 1263 1384 1513 1394
8 1515 1392 1523 1639 1383 1260 1393 1514
8 1516 1395 1526 1640 1386 1264 1396 1518
8 1386 1264 1396 1518 1517 1389 1521 1641
8 1519 1397 1527 1643 1391 1269 1400 1522
8 1535 1407 1527 1643 1406 1277 1397 1519
8 1389 1267 1399 1521 1520 1398 1528 1644
8 1645 1529 1399 1521 1525 1404 1274 1396
8 1392 1270 1400 1522 1523 1401 1531 1646
8 1524 1402 1271 1393 1648 1532 1401 1523
8 1403 1526 1648 1532 1273 1395 1524 1402
8 1525 1404 1274 1396 1649 1533 1403 1526
8 1539 1414 1535 1657 1411 1286 1406 1534
8 1542 1415 1536 1658 1414 1287 1407 1535
8 1409 1285 1412 1537 1538 1413 1540 1660
8 1545 1421 1540 1660 1418 1292 1412 1537
8 1539 1414 1286 1411 1661 1541 1413 1538
8 1540 1417 1544 1663 1413 1288 1416 1541
8 1421 1296 1425 1548 1540 1417 1544 1663
8 1542 1415 1287 1414 1664 1543 1416 1541
8 1420 1294 1423 1547 1545 1421 1548 1666
8 1547 1423 1293 1419 1667 1549 1422 1546
8 1434 1301 1427 1553 1546 1422 1549 1667
8 1423 1297 1424 1549 1548 1425 1550 1668
8 1551 1426 1550 1668 1427 1298 1424 1549
8 1551 1426 1298 1427 1671 1552 1428 1554
8 1562 1432 1554 1674 1434 1301 1427 1553
8 1431 1299 1429 1558 1554 1428 1555 1675
8 1431 1299 1430 1560 1558 1429 1557 1680
8 1560 1430 1300 1432 1683 1559 1433 1563
8 1561 1431 1554 1674 1684 1560 1432 1562
8 1685 1563 1432 1562 1565 1435 1301 1434
8 1435 1302 1436 1566 1563 1433 1564 1686
8 1437 1303 1438 1568 1565 1435 1566 1688
8 1438 1304 1439 1569 1566 1436 1567 1689
8 1440 1306 1441 1571 1568 1438 1569 1691
8 1441 1307 1442 1572 1569 1439 1570 1692
8 1443 1309 1444 1574 1571 1441 1572 1694
8 1310 1444 1572 1442 1445 1575 1695 1573
8 1446 1312 1447 1576 1574 1444 1575 1696
8 1486 1349 1485 1614 1579 1449 1577 1699
8 1451 1317 1449 1579 1581 1450 1578 1701
8 1487 1350 1486 1615 1582 1451 1579 1702
8 1581 1450 1580 1704 1453 1318 1452 1584
8 1582 1451 1581 1705 1454 1319 1453 1585
8 1584 1452 1583 1706 1456 1320 1455 1586
8 1585 1453 1584 1707 1457 1321 1456 1587
8 1587 1456 1586 1708 1458 1323 1459 1588
8 1633 1506 1589 1710 1507 1373 1461 1590
8 1464 1329 1461 1590 1594 1463 1589 1710
8 1468 1336 1462 1591 1595 1464 1590 1711
8 1634 1507 1590 1711 1508 1374 1462 1591
8 1473 1341 1463 1594 1603 1477 1593 1716
8 1469 1337 1464 1595 1599 1473 1594 1717
8 1471 1597 1467 1335 1600 1718 1596 1470
8 1718 1600 1496 1616 1596 1470 1360 1488
8 1336 1468 1597 1471 1472 1598 1719 1601
8 1469 1337 1473 1599 1598 1472 1602 1720
8 1722 1604 1501 1623 1600 1474 1367 1496
8 1475 1601 1471 1339 1604 1722 1600 1474
8 1602 1476 1605 1723 1472 1340 1475 1601
8 1476 1602 1724 1606 1341 1473 1603 1477
8 1483 1347 1478 1609 1612 1482 1608 1731
8 1495 1370 1504 1622 1609 1478 1608 1731
8 1618 1495 1609 1732 1494 1361 1479 1610
8 1484 1348 1479 1610 1613 1483 1609 1732
8 1486 1349 1482 1612 1614 1485 1611 1733
8 1613 1483 1612 1734 1487 1350 1486 1615
8 1489 1363 1496 1616 1617 1499 1623 1736
8 1491 1365 1499 1617 1619 1500 1626 1737
8 1618 1495 1361 1494 1738 1622 1497 1621
8 1739 1625 1498 1620 1619 1500 1366 1492
8 1621 1497 1362 1493 1740 1624 1498 1620
8 1742 1631 1504 1622 1624 1505 1371 1497
8 1743 1628 1502 1626 1623 1501 1368 1499
8 1744 1630 1505 1624 1625 1503 1372 1498
8 1745 1629 1503 1625 1626 1502 1369 1500
8 1520 1398 1528 1644 1633 1506 1632 1751
8 1637 1520 1633 1752 1512 1388 1507 1634
8 1635 1519 1643 1753 1510 1391 1522 1636
8 1657 1535 1643 1753 1534 1406 1519 1635
8 1515 1392 1522 1636 1639 1523 1646 1754
8 1517 1389 1521 1641 1637 1520 1644 1755
8 1524 1638 1756 1648 1393 1514 1639 1523
8 1640 1526 1395 1516 1756 1648 1524 1638
8 1642 1525 1396 1518 1757 1649 1526 1640
8 1758 1645 1521 1641 1642 1525 1396 1518
8 1646 1531 1400 1522 1760 1650 1527 1643
8 1535 1407 1536 1658 1643 1527 1650 1760
8 1521 1399 1529 1645 1644 1528 1651 1761
8 1647 1530 1652 1762 1525 1404 1529 1645
8 1401 1523 1648 1532 1531 1646 1763 1655
8 1525 1404 1533 1649 1647 1530 1654 1765
8 1533 1649 1766 1656 1403 1526 1648 1532
8 1662 1542 1658 1774 1539 1414 1535 1657
8 1542 1415 1543 1664 1658 1536 1659 1775
8 1660 1540 1663 1777 1538 1413 1541 1661
8 1545 1421 1548 1666 1660 1540 1663 1777
8 1662 1542 1414 1539 1778 1664 1541 1661
8 1664 1543 1416 1541 1779 1665 1544 1663
8 1548 1425 1550 1668 1663 1544 1665 1779
8 1547 1423 1549 1667 1666 1548 1668 1781
8 1670 1551 1668 1781 1553 1427 1549 1667
8 1551 1426 1552 1671 1668 1550 1669 1782
8 1670 1551 1427 1553 1784 1671 1554 1674
8 1675 1555 1672 1785 1554 1428 1552 1671
8 1678 1556 1673 1789 1558 1429 1555 1675
8 1561 1431 1558 1681 1674 1554 1675 1790
8 1794 1677 1556 1678 1680 1557 1429 1558
8 1560 1430 1559 1683 1680 1557 1679 1797
8 1561 1431 1560 1684 1681 1558 1680 1798
8 1563 1433 1564 1686 1683 1559 1682 1800
8 1684 1560 1432 1562 1801 1683 1563 1685
8 1565 1435 1566 1688 1685 1563 1686 1802
8 1566 1436 1567 1689 1686 1564 1687 1803
8 1568 1438 1569 1691 1688 1566 1689 1805
8 1569 1439 1570 1692 1689 1567 1690 1806
8 1571 1441 1572 1694 1691 1569 1692 1808
8 1442 1572 1692 1570 1573 1695 1809 1693
8 1574 1444 1575 1696 1694 1572 1695 1810
8 1614 1485 1592 1712 1699 1577 1697 1813
8 1579 1449 1577 1699 1701 1578 1698 1815
8 1615 1486 1614 1735 1702 1579 1699 1816
8 1701 1578 1700 1818 1581 1450 1580 1704
8 1582 1451 1579 1702 1705 1581 1701 1819
8 1704 1580 1703 1820 1584 1452 1583 1706
8 1705 1581 1704 1821 1585 1453 1584 1707
8 1707 1584 1706 1822 1587 1456 1586 1708
8 1710 1589 1506 1633 1824 1709 1632 1751
8 1594 1463 1589 1710 1716 1593 1709 1824
8 1752 1633 1710 1825 1634 1507 1590 1711
8 1595 1464 1590 1711 1717 1594 1710 1825
8 1830 1714 1592 1712 1733 1611 1485 1614
8 1603 1477 1593 1716 1725 1607 1715 1834
8 1599 1473 1594 1717 1721 1603 1716 1835
8 1837 1722 1623 1736 1718 1600 1496 1616
8 1719 1601 1722 1837 1597 1471 1600 1718
8 1602 1720 1598 1472 1723 1838 1719 1601
8 1720 1602 1473 1599 1839 1724 1603 1721
8 1723 1605 1726 1840 1601 1475 1604 1722
8 1840 1726 1628 1743 1722 1604 1501 1623
8 1724 1606 1727 1841 1602 1476 1605 1723
8 1725 1607 1728 1842 1603 1477 1606 1724
8 1612 1482 1608 1731 1733 1611 1730 1849
8 1741 1627 1730 1849 1622 1504 1608 1731
8 1613 1483 1609 1732 1734 1612 1731 1850
8 1618 1495 1622 1738 1732 1609 1731 1850
8 1615 1486 1612 1734 1735 1614 1733 1851
8 1852 1743 1626 1737 1736 1623 1499 1617
8 1853 1745 1625 1739 1737 1626 1500 1619
8 1855 1742 1622 1738 1740 1624 1497 1621
8 1856 1744 1624 1740 1739 1625 1498 1620
8 1741 1627 1504 1622 1857 1746 1631 1742
8 1742 1631 1505 1624 1858 1749 1630 1744
8 1859 1747 1629 1745 1743 1628 1502 1626
8 1860 1748 1630 1744 1745 1629 1503 1625
8 1644 1528 1651 1761 1751 1632 1750 1865
8 1637 1520 1644 1755 1752 1633 1751 1866
8 1754 1646 1522 1636 1867 1760 1643 1753
8 1657 1535 1658 1774 1753 1643 1760 1867
8 1639 1523 1646 1754 1756 1648 1763 1868
8 1641 1521 1645 1758 1755 1644 1761 1869
8 1757 1649 1526 1640 1870 1766 1648 1756
8 1642 1525 1649 1757 1759 1647 1765 1871
8 1759 1647 1762 1872 1642 1525 1645 1758
8 1760 1650 1767 1874 1646 1531 1655 1763
8 1658 1536 1659 1775 1760 1650 1767 1874
8 1762 1652 1768 1875 1645 1529 1651 1761
8 1764 1653 1769 1876 1647 1530 1652 1762
8 1656 1766 1877 1773 1532 1648 1763 1655
8 1771 1879 1765 1654 1653 1764 1647 1530
8 1533 1649 1765 1654 1656 1766 1880 1772
8 1662 1542 1664 1778 1774 1658 1775 1887
8 1664 1543 1665 1779 1775 1659 1776 1888
8 1778 1664 1541 1661 1890 1779 1663 1777
8 1666 1548 1668 1781 1777 1663 1779 1890
8 1782 1669 1780 1891 1668 1550 1665 1779
8 1670 1551 1671 1784 1781 1668 1782 1893
8 1671 1552 1672 1785 1782 1669 1783 1894
8 1790 1675 1785 1896 1674 1554 1671 1784
8 1675 1555 1673 1789 1785 1672 1786 1897
8 1792 1676 1788 1903 1678 1556 1673 1789
8 1795 1678 1789 1904 1681 1558 1675 1790
8 1792 1676 1556 1678 1906 1791 1677 1794
8 1680 1557 1679 1797 1794 1677 1793 1909
8 1910 1794 1678 1795 1798 1680 1558 1681
8 1683 1559 1682 1800 1797 1679 1796 1912
8 1684 1560 1683 1801 1798 1680 1797 1913
8 1686 1564 1687 1803 1800 1682 1799 1915
8 1685 1563 1686 1802 1801 1683 1800 1916
8 1688 1566 1689 1805 1802 1686 1803 1917
8 1689 1567 1690 1806 1803 1687 1804 1918
8 1691 1569 1692 1808 1805 1689 1806 1920
8 1692 1570 1693 1809 1806 1690 1807 1921
8 1694 1572 1695 1810 1808 1692 1809 1922
8 1829 1713 1811 1926 1712 1592 1697 1813
8 1813 1697 1812 1928 1699 1577 1698 1815
8 1735 1614 1712 1828 1816 1699 1813 1929
8 1815 1698 1814 1931 1701 1578 1700 1818
8 1702 1579 1699 1816 1819 1701 1815 1932
8 1818 1700 1817 1933 1704 1580 1703 1820
8 1819 1701 1818 1934 1705 1581 1704 1821
8 1821 1704 1820 1935 1707 1584 1706 1822
8 1824 1709 1632 1751 1937 1823 1750 1865
8 1716 1593 1709 1824 1834 1715 1823 1937
8 1825 1710 1633 1752 1938 1824 1751 1866
8 1717 1594 1710 1825 1835 1716 1824 1938
8 1945 1830 1712 1828 1851 1733 1614 1735
8 1830 1714 1831 1946 1712 1592 1713 1829
8 1947 1832 1714 1830 1849 1730 1611 1733
8 1843 1729 1607 1725 1950 1833 1715 1834
8 1721 1603 1716 1835 1836 1725 1834 1951
8 1836 1725 1842 1953 1721 1603 1724 1839
8 1723 1838 1719 1601 1840 1954 1837 1722
8 1954 1840 1743 1852 1837 1722 1623 1736
8 1724 1839 1720 1602 1841 1955 1838 1723
8 1841 1727 1844 1956 1723 1605 1726 1840
8 1956 1844 1747 1859 1840 1726 1628 1743
8 1728 1842 1724 1606 1845 1957 1841 1727
8 1725 1607 1729 1843 1842 1728 1846 1958
8 1741 1627 1746 1857 1849 1730 1848 1965
8 1734 1612 1731 1850 1851 1733 1849 1966
8 1854 1741 1849 1966 1738 1622 1731 1850
8 1967 1859 1745 1853 1852 1743 1626 1737
8 1968 1860 1744 1856 1853 1745 1625 1739
8 1854 1741 1622 1738 1969 1857 1742 1855
8 1855 1742 1624 1740 1970 1858 1744 1856
8 1857 1746 1631 1742 1971 1861 1749 1858
8 1858 1749 1630 1744 1972 1863 1748 1860
8 1859 1747 1862 1973 1745 1629 1748 1860
8 1875 1768 1864 1977 1761 1651 1750 1865
8 1755 1644 1761 1869 1866 1751 1865 1978
8 1867 1760 1874 1979 1754 1646 1763 1868
8 1774 1658 1775 1887 1867 1760 1874 1979
8 1870 1766 1648 1756 1980 1877 1763 1868
8 1872 1762 1875 1981 1758 1645 1761 1869
8 1757 1649 1766 1870 1871 1765 1880 1982
8 1983 1879 1764 1873 1871 1765 1647 1759
8 1873 1764 1876 1984 1759 1647 1762 1872
8 1877 1773 1655 1763 1986 1881 1767 1874
8 1775 1659 1776 1888 1874 1767 1881 1986
8 1876 1769 1882 1987 1762 1652 1768 1875
8 1878 1770 1883 1988 1764 1653 1769 1876
8 1880 1772 1656 1766 1989 1886 1773 1877
8 1878 1770 1653 1764 1990 1884 1771 1879
8 1765 1654 1772 1880 1879 1771 1885 1991
8 1778 1664 1779 1890 1887 1775 1888 1997
8 1998 1889 1776 1888 1891 1780 1665 1779
8 1893 1782 1891 2000 1781 1668 1779 1890
8 1894 1783 1892 2001 1782 1669 1780 1891
8 1784 1671 1785 1896 1893 1782 1894 2003
8 1897 1786 1895 2004 1785 1672 1783 1894
8 1790 1675 1789 1904 1896 1785 1897 2006
8 1901 1787 1898 2007 1789 1673 1786 1897
8 1903 1788 1900 2013 1789 1673 1787 1901
8 1792 1676 1791 1906 1903 1788 1902 2016
8 1907 1792 1903 2017 1795 1678 1789 1904
8 1906 1791 1677 1794 2019 1905 1793 1909
8 1907 1792 1678 1795 2020 1906 1794 1910
8 1797 1679 1796 1912 1909 1793 1908 2022
8 1798 1680 1797 1913 1910 1794 1909 2023
8 1800 1682 1799 1915 1912 1796 1911 2025
8 1801 1683 1800 1916 1913 1797 1912 2026
8 1803 1687 1804 1918 1915 1799 1914 2028
8 1802 1686 1803 1917 1916 1800 1915 2029
8 1805 1689 1806 1920 1917 1803 1918 2030
8 1806 1690 1807 1921 1918 1804 1919 2031
8 1808 1692 1809 1922 1920 1806 1921 2032
8 1939 1826 1924 2037 1829 1713 1811 1926
8 1926 1811 1925 2039 1813 1697 1812 1928
8 1944 1829 1926 2040 1828 1712 1813 1929
8 1928 1812 1927 2042 1815 1698 1814 1931
8 1929 1813 1928 2043 1816 1699 1815 1932
8 1931 1814 1930 2044 1818 1700 1817 1933
8 1932 1815 1931 2045 1819 1701 1818 1934
8 1934 1818 1933 2046 1821 1704 1820 1935
8 2048 1936 1823 1937 1977 1864 1750 1865
8 1950 1833 1715 1834 2048 1936 1823 1937
8 1938 1824 1751 1866 2049 1937 1865 1978
8 1835 1716 1824 1938 1951 1834 1937 2049
8 1939 1826 1713 1829 2053 1942 1831 1946
8 1940 1827 1923 2035 2053 1942 1826 1939
8 1945 1830 1946 2058 1828 1712 1829 1944
8 2059 1947 1830 1945 1966 1849 1733 1851
8 1947 1832 1730 1849 2060 1948 1848 1965
8 1947 1832 1948 2060 1830 1714 1831 1946
8 1959 1847 1729 1843 2063 1949 1833 1950
8 1952 1843 1725 1836 2064 1950 1834 1951
8 1836 1725 1843 1952 1953 1842 1958 2066
8 1953 1842 1957 2067 1839 1724 1841 1955
8 1841 1955 1838 1723 1956 2068 1954 1840
8 2068 1956 1859 1967 1954 1840 1743 1852
8 1956 1844 1960 2069 1859 1747 1862 1973
8 1845 1957 1841 1727 1960 2069 1956 1844
8 1728 1842 1957 1845 1846 1958 2071 1961
8 1962 2072 1959 1847 1846 1958 1843 1729
8 1971 1861 1964 2077 1857 1746 1848 1965
8 1854 1741 1857 1969 1966 1849 1965 2078
8 1967 1859 1973 2079 1853 1745 1860 1968
8 1970 1858 1744 1856 2080 1972 1860 1968
8 1969 1857 1742 1855 2081 1971 1858 1970
8 1971 1861 1749 1858 2082 1974 1863 1972
8 1973 1862 1975 2083 1860 1748 1863 1972
8 1987 1882 1976 2086 1875 1768 1864 1977
8 1981 1875 1977 2087 1869 1761 1865 1978
8 1980 1877 1763 1868 2088 1986 1874 1979
8 1887 1775 1888 1997 1979 1874 1986 2088
8 1880 1982 2089 1989 1766 1870 1980 1877
8 1984 1876 1987 2090 1872 1762 1875 1981
8 1765 1871 1983 1879 1880 1982 2091 1991
8 1985 1878 1764 1873 2092 1990 1879 1983
8 1985 1878 1988 2093 1873 1764 1876 1984
8 2094 1992 1881 1986 1998 1889 1776 1888
8 1986 1881 1992 2094 1877 1773 1886 1989
8 1988 1883 1993 2095 1876 1769 1882 1987
8 1878 1770 1884 1990 1988 1883 1994 2096
8 1991 1885 1772 1880 2097 1996 1886 1989
8 1879 1771 1885 1991 1990 1884 1995 2098
8 2103 1998 1888 1997 2000 1891 1779 1890
8 2104 1999 1889 1998 2001 1892 1780 1891
8 2003 1894 2001 2106 1893 1782 1891 2000
8 2004 1895 2002 2107 1894 1783 1892 2001
8 2006 1897 2004 2109 1896 1785 1894 2003
8 2007 1898 2005 2110 1897 1786 1895 2004
8 2014 1901 2007 2112 1904 1789 1897 2006
8 2011 1899 2008 2113 1901 1787 1898 2007
8 2119 2010 1899 2011 2013 1900 1787 1901
8 2016 1902 2012 2122 1903 1788 1900 2013
8 2017 1903 2013 2123 1904 1789 1901 2014
8 1906 1791 1905 2019 2016 1902 2015 2125
8 1907 1792 1906 2020 2017 1903 2016 2126
8 1909 1793 1908 2022 2019 1905 2018 2128
8 2020 1906 1794 1910 2129 2019 1909 2023
8 1912 1796 1911 2025 2022 1908 2021 2131
8 1913 1797 1912 2026 2023 1909 2022 2132
8 1915 1799 1914 2028 2025 1911 2024 2134
8 1916 1800 1915 2029 2026 1912 2025 2135
8 1918 1804 1919 2031 2028 1914 2027 2136
8 1917 1803 1918 2030 2029 1915 2028 2137
8 1920 1806 1921 2032 2030 1918 2031 2138
8 1940 1827 1941 2054 2035 1923 2033 2140
8 2035 1923 2034 2143 1939 1826 1924 2037
8 2037 1924 2036 2146 1926 1811 1925 2039
8 2051 1939 2037 2147 1944 1829 1926 2040
8 2039 1925 2038 2149 1928 1812 1927 2042
8 2040 1926 2039 2150 1929 1813 1928 2043
8 2042 1927 2041 2151 1931 1814 1930 2044
8 2043 1928 2042 2152 1932 1815 1931 2045
8 2045 1931 2044 2153 1934 1818 1933 2046
8 2155 2047 1936 2048 2086 1976 1864 1977
8 2063 1949 1833 1950 2155 2047 1936 2048
8 2156 2048 1937 2049 2087 1977 1865 1978
8 2064 1950 1834 1951 2156 2048 1937 2049
8 2051 1939 1829 1944 2160 2053 1946 2058
8 2052 1940 2035 2144 2160 2053 1939 2051
8 2053 1942 1831 1946 2163 2057 1948 2060
8 2055 1943 1827 1940 2163 2057 1942 2053
8 2055 1943 2056 2164 1940 1827 1941 2054
8 2059 1947 1849 1966 2167 2060 1965 2078
8 2059 1947 2060 2167 1945 1830 1946 2058
8 2077 1964 2061 2168 1965 1848 1948 2060
8 2070 1963 1847 1959 2170 2062 1949 2063
8 2065 1959 1843 1952 2171 2063 1950 2064
8 2173 2072 1958 2066 2065 1959 1843 1952
8 1953 1842 1958 2066 2067 1957 2071 2174
8 2068 1956 2069 2175 1967 1859 1973 2079
8 2067 1957 2069 2175 1955 1841 1956 2068
8 1845 1957 2069 1960 1961 2071 2176 2073
8 2069 1960 2073 2176 1973 1862 1975 2083
8 2070 1963 2075 2177 1959 1847 1962 2072
8 1846 1958 2071 1961 1962 2072 2178 2074
8 2077 1964 1861 1971 2182 2076 1974 2082
8 2081 1971 2077 2183 1969 1857 1965 2078
8 2079 1973 2083 2184 1968 1860 1972 2080
8 2081 1971 1858 1970 2185 2082 1972 2080
8 2083 1975 2084 2186 1972 1863 1974 2082
8 2086 1976 1882 1987 2189 2085 1993 2095
8 2090 1987 2086 2190 1981 1875 1977 2087
8 2191 2094 1986 2088 2103 1998 1888 1997
8 2088 1986 2094 2191 1980 1877 1989 2089
8 1991 2091 2192 2097 1880 1982 2089 1989
8 2093 1988 2095 2193 1984 1876 1987 2090
8 1879 1983 2092 1990 1991 2091 2194 2098
8 1985 1878 1990 2092 2093 1988 2096 2195
8 2097 1996 1886 1989 2196 2099 1992 2094
8 2196 2099 1992 2094 2104 1999 1889 1998
8 1994 2096 1988 1883 2100 2197 2095 1993
8 2096 1994 1884 1990 2198 2101 1995 2098
8 1995 2098 2199 2102 1885 1991 2097 1996
8 2203 2104 1998 2103 2106 2001 1891 2000
8 2107 2002 2105 2204 2001 1892 1999 2104
8 2109 2004 2107 2206 2003 1894 2001 2106
8 2110 2005 2108 2207 2004 1895 2002 2107
8 2112 2007 2110 2209 2006 1897 2004 2109
8 2113 2008 2111 2210 2007 1898 2005 2110
8 2120 2011 2113 2212 2014 1901 2007 2112
8 2117 2009 2114 2213 2011 1899 2008 2113
8 2219 2116 2009 2117 2119 2010 1899 2011
8 2222 2118 2010 2119 2122 2012 1900 2013
8 2223 2119 2011 2120 2123 2013 1901 2014
8 2016 1902 2015 2125 2122 2012 2121 2225
8 2126 2016 2122 2226 2017 1903 2013 2123
8 2019 1905 2018 2128 2125 2015 2124 2228
8 2020 1906 2019 2129 2126 2016 2125 2229
8 2022 1908 2021 2131 2128 2018 2127 2231
8 2023 1909 2022 2132 2129 2019 2128 2232
8 2025 1911 2024 2134 2131 2021 2130 2234
8 2026 1912 2025 2135 2132 2022 2131 2235
8 1914 2028 2134 2024 2027 2136 2236 2133
8 2029 1915 2028 2137 2135 2025 2134 2237
8 2030 1918 2031 2138 2137 2028 2136 2238
8 2157 2050 2139 2240 2054 1941 2033 2140
8 2052 1940 2054 2161 2144 2035 2140 2242
8 2140 2033 2141 2243 2035 1923 2034 2143
8 2143 2034 2142 2246 2037 1924 2036 2146
8 2144 2035 2143 2247 2051 1939 2037 2147
8 2146 2036 2145 2249 2039 1925 2038 2149
8 2147 2037 2146 2250 2040 1926 2039 2150
8 2149 2038 2148 2251 2042 1927 2041 2151
8 2150 2039 2149 2252 2043 1928 2042 2152
8 2152 2042 2151 2253 2045 1931 2044 2153
8 2255 2154 2047 2155 2189 2085 1976 2086
8 2170 2062 1949 2063 2255 2154 2047 2155
8 2256 2155 2048 2156 2190 2086 1977 2087
8 2171 2063 1950 2064 2256 2155 2048 2156
8 2258 2159 2050 2157 2164 2056 1941 2054
8 2160 2053 1946 2058 2262 2163 2060 2167
8 2162 2055 1940 2052 2262 2163 2053 2160
8 2162 2055 2164 2263 2052 1940 2054 2161
8 2163 2057 1948 2060 2264 2165 2061 2168
8 2055 1943 2057 2163 2164 2056 2165 2264
8 2182 2076 2166 2268 2077 1964 2061 2168
8 2183 2077 2168 2269 2078 1965 2060 2167
8 2070 1963 2062 2170 2177 2075 2169 2271
8 2172 2070 1959 2065 2272 2170 2063 2171
8 2172 2070 2177 2273 2065 1959 2072 2173
8 2066 1958 2072 2173 2174 2071 2178 2274
8 2067 1957 2071 2174 2175 2069 2176 2275
8 2175 2069 2176 2275 2079 1973 2083 2184
8 2071 1961 2074 2178 2176 2073 2179 2276
8 2176 2073 2179 2276 2083 1975 2084 2186
8 2072 1962 2075 2177 2178 2074 2180 2277
8 2182 2076 1974 2082 2280 2181 2084 2186
8 2183 2077 1971 2081 2281 2182 2082 2185
8 2184 2083 2186 2282 2080 1972 2082 2185
8 2189 2085 1993 2095 2285 2188 2100 2197
8 2190 2086 1987 2090 2286 2189 2095 2193
8 2192 2097 1989 2089 2287 2196 2094 2191
8 2287 2196 2094 2191 2203 2104 1998 2103
8 2194 2098 1991 2091 2288 2199 2097 2192
8 2195 2096 2197 2289 2093 1988 2095 2193
8 2096 2195 2290 2198 1990 2092 2194 2098
8 2097 1996 2099 2196 2199 2102 2200 2291
8 2196 2099 1999 2104 2291 2200 2105 2204
8 2100 2197 2292 2201 1994 2096 2198 2101
8 1995 2098 2198 2101 2102 2199 2293 2202
8 2206 2107 2204 2296 2106 2001 2104 2203
8 2207 2108 2205 2297 2107 2002 2105 2204
8 2209 2110 2207 2299 2109 2004 2107 2206
8 2210 2111 2208 2300 2110 2005 2108 2207
8 2212 2113 2210 2302 2112 2007 2110 2209
8 2213 2114 2211 2303 2113 2008 2111 2210
8 2220 2117 2213 2305 2120 2011 2113 2212
8 2216 2115 2214 2306 2117 2009 2114 2213
8 2216 2115 2009 2117 2311 2217 2116 2219
8 2219 2116 2010 2119 2314 2218 2118 2222
8 2315 2219 2117 2220 2223 2119 2011 2120
8 2122 2012 2121 2225 2222 2118 2221 2317
8 2318 2222 2119 2223 2226 2122 2013 2123
8 2125 2015 2124 2228 2225 2121 2224 2320
8 2126 2016 2125 2229 2226 2122 2225 2321
8 2128 2018 2127 2231 2228 2124 2227 2323
8 2129 2019 2128 2232 2229 2125 2228 2324
8 2131 2021 2130 2234 2231 2127 2230 2326
8 2132 2022 2131 2235 2232 2128 2231 2327
8 2134 2024 2133 2236 2234 2130 2233 2328
8 2135 2025 2134 2237 2235 2131 2234 2329
8 2137 2028 2136 2238 2237 2134 2236 2330
8 2157 2050 2158 2259 2240 2139 2239 2332
8 2257 2157 2240 2334 2161 2054 2140 2242
8 2240 2139 2241 2335 2140 2033 2141 2243
8 2242 2140 2243 2337 2144 2035 2143 2247
8 2243 2141 2244 2338 2143 2034 2142 2246
8 2246 2142 2245 2341 2146 2036 2145 2249
8 2247 2143 2246 2342 2147 2037 2146 2250
8 2249 2145 2248 2343 2149 2038 2148 2251
8 2250 2146 2249 2344 2150 2039 2149 2252
8 2252 2149 2251 2345 2152 2042 2151 2253
8 2169 2271 2347 2254 2062 2170 2255 2154
8 2189 2085 2188 2285 2255 2154 2254 2347
8 2348 2255 2155 2256 2286 2189 2086 2190
8 2272 2170 2063 2171 2348 2255 2155 2256
8 2349 2258 2157 2257 2263 2164 2054 2161
8 2258 2159 2261 2351 2157 2050 2158 2259
8 2258 2159 2056 2164 2351 2261 2165 2264
8 2262 2163 2060 2167 2355 2264 2168 2269
8 2162 2055 2163 2262 2263 2164 2264 2355
8 2357 2266 2165 2264 2268 2166 2061 2168
8 2268 2166 2076 2182 2361 2267 2181 2280
8 2281 2182 2268 2362 2183 2077 2168 2269
8 2271 2169 2270 2364 2177 2075 2180 2277
8 2172 2070 2170 2272 2273 2177 2271 2365
8 2072 2173 2274 2178 2177 2273 2366 2277
8 2071 2174 2275 2176 2178 2274 2367 2276
8 2275 2176 2276 2367 2184 2083 2186 2282
8 2283 2187 2084 2186 2368 2278 2179 2276
8 2178 2074 2180 2277 2276 2179 2278 2368
8 2283 2187 2279 2370 2186 2084 2181 2280
8 2281 2182 2082 2185 2371 2280 2186 2282
8 2188 2285 2374 2284 2100 2197 2292 2201
8 2286 2189 2095 2193 2375 2285 2197 2289
8 2192 2097 2196 2287 2288 2199 2291 2376
8 2287 2196 2104 2203 2376 2291 2204 2296
8 2194 2098 2199 2288 2290 2198 2293 2377
8 2289 2197 2096 2195 2378 2292 2198 2290
8 2291 2200 2105 2204 2379 2294 2205 2297
8 2199 2102 2200 2291 2293 2202 2294 2379
8 2198 2101 2202 2293 2292 2201 2295 2380
8 2299 2207 2297 2383 2206 2107 2204 2296
8 2300 2208 2298 2384 2207 2108 2205 2297
8 2302 2210 2300 2386 2209 2110 2207 2299
8 2303 2211 2301 2387 2210 2111 2208 2300
8 2305 2213 2303 2389 2212 2113 2210 2302
8 2306 2214 2304 2390 2213 2114 2211 2303
8 2310 2216 2306 2392 2220 2117 2213 2305
8 2308 2215 2307 2393 2216 2115 2214 2306
8 2308 2215 2115 2216 2396 2309 2217 2311
8 2310 2216 2117 2220 2398 2311 2219 2315
8 2311 2217 2116 2219 2399 2312 2218 2314
8 2314 2218 2118 2222 2402 2313 2221 2317
8 2315 2219 2119 2223 2403 2314 2222 2318
8 2225 2121 2224 2320 2317 2221 2316 2405
8 2226 2122 2225 2321 2318 2222 2317 2406
8 2228 2124 2227 2323 2320 2224 2319 2408
8 2229 2125 2228 2324 2321 2225 2320 2409
8 2231 2127 2230 2326 2323 2227 2322 2411
8 2232 2128 2231 2327 2324 2228 2323 2412
8 2234 2130 2233 2328 2326 2230 2325 2413
8 2235 2131 2234 2329 2327 2231 2326 2414
8 2237 2134 2236 2330 2329 2234 2328 2415
8 2259 2158 2260 2352 2332 2239 2331 2417
8 2257 2157 2259 2350 2334 2240 2332 2419
8 2240 2139 2239 2332 2335 2241 2333 2420
8 2334 2240 2335 2422 2242 2140 2243 2337
8 2335 2241 2336 2423 2243 2141 2244 2338
8 2337 2243 2338 2425 2247 2143 2246 2342
8 2338 2244 2339 2426 2246 2142 2245 2341
8 2341 2245 2340 2428 2249 2145 2248 2343
8 2342 2246 2341 2429 2250 2146 2249 2344
8 2344 2249 2343 2430 2252 2149 2251 2345
8 2188 2285 2347 2254 2284 2374 2432 2346
8 2347 2254 2346 2432 2271 2169 2270 2364
8 2365 2271 2170 2272 2433 2347 2255 2348
8 2286 2189 2285 2375 2348 2255 2347 2433
8 2349 2258 2351 2435 2257 2157 2259 2350
8 2349 2258 2164 2263 2435 2351 2264 2355
8 2259 2158 2261 2351 2352 2260 2354 2437
8 2356 2265 2354 2437 2264 2165 2261 2351
8 2441 2357 2264 2355 2362 2268 2168 2269
8 2356 2265 2165 2264 2442 2358 2266 2357
8 2443 2359 2266 2357 2361 2267 2166 2268
8 2370 2279 2360 2446 2280 2181 2267 2361
8 2362 2268 2182 2281 2447 2361 2280 2371
8 2180 2277 2368 2278 2270 2364 2449 2363
8 2271 2365 2273 2177 2364 2450 2366 2277
8 2372 2283 2186 2282 2451 2368 2276 2367
8 2178 2274 2367 2276 2277 2366 2451 2368
8 2283 2187 2278 2368 2370 2279 2369 2452
8 2372 2283 2370 2453 2282 2186 2280 2371
8 2284 2374 2455 2373 2201 2292 2380 2295
8 2375 2285 2197 2289 2456 2374 2292 2378
8 2376 2291 2204 2296 2457 2379 2297 2383
8 2288 2199 2291 2376 2377 2293 2379 2457
8 2198 2290 2378 2292 2293 2377 2458 2380
8 2293 2202 2294 2379 2380 2295 2381 2459
8 2384 2298 2381 2459 2297 2205 2294 2379
8 2386 2300 2384 2463 2299 2207 2297 2383
8 2387 2301 2385 2464 2300 2208 2298 2384
8 2389 2303 2387 2466 2302 2210 2300 2386
8 2390 2304 2388 2467 2303 2211 2301 2387
8 2392 2306 2390 2469 2305 2213 2303 2389
8 2393 2307 2391 2470 2306 2214 2304 2390
8 2395 2308 2393 2472 2310 2216 2306 2392
8 2308 2215 2309 2396 2393 2307 2394 2473
8 2395 2308 2216 2310 2475 2396 2311 2398
8 2396 2309 2217 2311 2476 2397 2312 2399
8 2398 2311 2219 2315 2478 2399 2314 2403
8 2399 2312 2218 2314 2479 2400 2313 2402
8 2317 2221 2316 2405 2402 2313 2401 2482
8 2403 2314 2222 2318 2483 2402 2317 2406
8 2320 2224 2319 2408 2405 2316 2404 2485
8 2321 2225 2320 2409 2406 2317 2405 2486
8 2323 2227 2322 2411 2408 2319 2407 2488
8 2324 2228 2323 2412 2409 2320 2408 2489
8 2326 2230 2325 2413 2411 2322 2410 2490
8 2327 2231 2326 2414 2412 2323 2411 2491
8 2329 2234 2328 2415 2414 2326 2413 2492
8 2417 2331 2260 2352 2494 2416 2353 2438
8 2350 2259 2352 2436 2419 2332 2417 2496
8 2332 2239 2331 2417 2420 2333 2418 2497
8 2334 2240 2332 2419 2422 2335 2420 2499
8 2420 2333 2421 2500 2335 2241 2336 2423
8 2422 2335 2423 2502 2337 2243 2338 2425
8 2423 2336 2424 2503 2338 2244 2339 2426
8 2425 2338 2426 2505 2342 2246 2341 2429
8 2426 2339 2427 2506 2341 2245 2340 2428
8 2429 2341 2428 2507 2344 2249 2343 2430
8 2432 2346 2284 2374 2509 2431 2373 2455
8 2432 2346 2431 2509 2364 2270 2363 2449
8 2375 2285 2374 2456 2433 2347 2432 2510
8 2347 2433 2365 2271 2432 2510 2450 2364
8 2350 2259 2351 2435 2436 2352 2437 2514
8 2440 2356 2437 2514 2355 2264 2351 2435
8 2352 2260 2354 2437 2438 2353 2439 2516
8 2356 2265 2358 2442 2437 2354 2439 2516
8 2440 2356 2264 2355 2518 2442 2357 2441
8 2519 2443 2357 2441 2447 2361 2268 2362
8 2443 2359 2444 2520 2357 2266 2358 2442
8 2443 2359 2267 2361 2520 2444 2360 2446
8 2446 2360 2279 2370 2523 2445 2369 2452
8 2453 2370 2446 2524 2371 2280 2361 2447
8 2449 2363 2448 2525 2368 2278 2369 2452
8 2366 2277 2364 2450 2451 2368 2449 2526
8 2372 2283 2368 2451 2453 2370 2452 2527
8 2455 2373 2295 2380 2529 2454 2382 2460
8 2456 2374 2292 2378 2530 2455 2380 2458
8 2377 2293 2379 2457 2458 2380 2459 2531
8 2463 2384 2459 2531 2383 2297 2379 2457
8 2533 2461 2382 2460 2459 2381 2295 2380
8 2464 2385 2461 2533 2384 2298 2381 2459
8 2466 2387 2464 2537 2386 2300 2384 2463
8 2467 2388 2465 2538 2387 2301 2385 2464
8 2469 2390 2467 2540 2389 2303 2387 2466
8 2470 2391 2468 2541 2390 2304 2388 2467
8 2472 2393 2470 2543 2392 2306 2390 2469
8 2393 2307 2394 2473 2470 2391 2471 2544
8 2395 2308 2396 2475 2472 2393 2473 2546
8 2396 2309 2397 2476 2473 2394 2474 2547
8 2475 2396 2311 2398 2549 2476 2399 2478
8 2476 2397 2312 2399 2550 2477 2400 2479
8 2478 2399 2314 2403 2552 2479 2402 2483
8 2479 2400 2313 2402 2553 2480 2401 2482
8 2405 2316 2404 2485 2482 2401 2481 2556
8 2406 2317 2405 2486 2483 2402 2482 2557
8 2408 2319 2407 2488 2485 2404 2484 2559
8 2409 2320 2408 2489 2486 2405 2485 2560
8 2411 2322 2410 2490 2488 2407 2487 2561
8 2412 2323 2411 2491 2489 2408 2488 2562
8 2414 2326 2413 2492 2491 2411 2490 2563
8 2513 2434 2493 2565 2438 2353 2416 2494
8 2496 2417 2352 2436 2567 2494 2438 2515
8 2494 2416 2495 2568 2417 2331 2418 2497
8 2419 2332 2417 2496 2499 2420 2497 2570
8 2497 2418 2498 2571 2420 2333 2421 2500
8 2499 2420 2500 2573 2422 2335 2423 2502
8 2500 2421 2501 2574 2423 2336 2424 2503
8 2502 2423 2503 2576 2425 2338 2426 2505
8 2503 2424 2504 2577 2426 2339 2427 2506
8 2505 2426 2506 2578 2429 2341 2428 2507
8 2509 2431 2373 2455 2580 2508 2454 2529
8 2509 2431 2508 2580 2449 2363 2448 2525
8 2432 2510 2581 2509 2374 2456 2530 2455
8 2432 2510 2450 2364 2509 2581 2526 2449
8 2583 2511 2434 2513 2516 2439 2353 2438
8 2436 2352 2437 2514 2515 2438 2516 2588
8 2440 2356 2442 2518 2514 2437 2516 2588
8 2442 2358 2444 2520 2516 2439 2517 2589
8 2519 2443 2520 2591 2441 2357 2442 2518
8 2519 2443 2361 2447 2591 2520 2446 2524
8 2446 2360 2445 2523 2520 2444 2521 2592
8 2525 2448 2522 2593 2452 2369 2445 2523
8 2524 2446 2370 2453 2594 2523 2452 2527
8 2526 2449 2525 2595 2451 2368 2452 2527
8 2534 2462 2528 2597 2460 2382 2454 2529
8 2530 2455 2380 2458 2598 2529 2460 2532
8 2599 2533 2460 2532 2531 2459 2380 2458
8 2537 2464 2533 2599 2463 2384 2459 2531
8 2534 2462 2382 2460 2601 2535 2461 2533
8 2538 2465 2535 2601 2464 2385 2461 2533
8 2540 2467 2538 2604 2466 2387 2464 2537
8 2541 2468 2539 2605 2467 2388 2465 2538
8 2543 2470 2541 2607 2469 2390 2467 2540
8 2470 2391 2471 2544 2541 2468 2542 2608
8 2472 2393 2473 2546 2543 2470 2544 2610
8 2473 2394 2474 2547 2544 2471 2545 2611
8 2475 2396 2476 2549 2546 2473 2547 2613
8 2476 2397 2477 2550 2547 2474 2548 2614
8 2549 2476 2399 2478 2616 2550 2479 2552
8 2479 2400 2480 2553 2550 2477 2551 2617
8 2552 2479 2402 2483 2619 2553 2482 2557
8 2482 2401 2481 2556 2553 2480 2554 2620
8 2485 2404 2484 2559 2556 2481 2555 2623
8 2486 2405 2485 2560 2557 2482 2556 2624
8 2488 2407 2487 2561 2559 2484 2558 2625
8 2489 2408 2488 2562 2560 2485 2559 2626
8 2491 2411 2490 2563 2562 2488 2561 2627
8 2513 2434 2512 2585 2565 2493 2564 2630
8 2586 2513 2565 2632 2515 2438 2494 2567
8 2565 2493 2566 2633 2494 2416 2495 2568
8 2567 2494 2568 2635 2496 2417 2497 2570
8 2568 2495 2569 2636 2497 2418 2498 2571
8 2570 2497 2571 2638 2499 2420 2500 2573
8 2571 2498 2572 2639 2500 2421 2501 2574
8 2573 2500 2574 2641 2502 2423 2503 2576
8 2574 2501 2575 2642 2503 2424 2504 2577
8 2576 2503 2577 2643 2505 2426 2506 2578
8 2597 2528 2579 2645 2529 2454 2508 2580
8 2580 2508 2579 2645 2525 2448 2522 2593
8 2581 2509 2455 2530 2646 2580 2529 2598
8 2581 2509 2580 2646 2526 2449 2525 2595
8 2583 2511 2582 2648 2513 2434 2512 2585
8 2583 2511 2439 2516 2648 2582 2517 2589
8 2649 2583 2513 2586 2588 2516 2438 2515
8 2589 2517 2444 2520 2653 2587 2521 2592
8 2518 2442 2520 2591 2588 2516 2589 2654
8 2593 2522 2590 2655 2523 2445 2521 2592
8 2524 2446 2523 2594 2591 2520 2592 2656
8 2595 2525 2593 2657 2527 2452 2523 2594
8 2602 2536 2596 2659 2534 2462 2528 2597
8 2600 2534 2597 2660 2532 2460 2529 2598
8 2600 2534 2460 2532 2661 2601 2533 2599
8 2604 2538 2601 2661 2537 2464 2533 2599
8 2602 2536 2462 2534 2663 2603 2535 2601
8 2601 2535 2465 2538 2663 2603 2539 2605
8 2607 2541 2605 2665 2540 2467 2538 2604
8 2608 2542 2606 2666 2541 2468 2539 2605
8 2543 2470 2544 2610 2607 2541 2608 2668
8 2544 2471 2545 2611 2608 2542 2609 2669
8 2546 2473 2547 2613 2610 2544 2611 2671
8 2547 2474 2548 2614 2611 2545 2612 2672
8 2549 2476 2550 2616 2613 2547 2614 2674
8 2550 2477 2551 2617 2614 2548 2615 2675
8 2552 2479 2553 2619 2616 2550 2617 2677
8 2553 2480 2554 2620 2617 2551 2618 2678
8 2557 2482 2556 2624 2619 2553 2620 2680
8 2556 2481 2555 2623 2620 2554 2621 2681
8 2559 2484 2558 2625 2623 2555 2622 2683
8 2560 2485 2559 2626 2624 2556 2623 2684
8 2562 2488 2561 2627 2626 2559 2625 2685
8 2690 2629 2564 2630 2650 2584 2512 2585
8 2586 2513 2585 2651 2632 2565 2630 2691
8 2630 2564 2631 2692 2565 2493 2566 2633
8 2632 2565 2633 2694 2567 2494 2568 2635
8 2633 2566 2634 2695 2568 2495 2569 2636
8 2635 2568 2636 2697 2570 2497 2571 2638
8 2636 2569 2637 2698 2571 2498 2572 2639
8 2638 2571 2639 2700 2573 2500 2574 2641
8 2639 2572 2640 2701 2574 2501 2575 2642
8 2641 2574 2642 2702 2576 2503 2577 2643
8 2597 2528 2596 2659 2645 2579 2644 2704
8 2645 2579 2644 2704 2593 2522 2590 2655
8 2660 2597 2645 2705 2598 2529 2580 2646
8 2646 2580 2645 2705 2595 2525 2593 2657
8 2650 2584 2512 2585 2707 2647 2582 2648
8 2648 2582 2517 2589 2707 2647 2587 2653
8 2649 2583 2648 2708 2586 2513 2585 2651
8 2649 2583 2516 2588 2708 2648 2589 2654
8 2655 2590 2652 2710 2592 2521 2587 2653
8 2654 2589 2520 2591 2711 2653 2592 2656
8 2657 2593 2655 2712 2594 2523 2592 2656
8 2602 2536 2603 2663 2659 2596 2658 2714
8 2662 2602 2659 2715 2600 2534 2597 2660
8 2662 2602 2534 2600 2717 2663 2601 2661
8 2661 2601 2538 2604 2717 2663 2605 2665
8 2666 2606 2664 2718 2605 2539 2603 2663
8 2668 2608 2666 2720 2607 2541 2605 2665
8 2608 2542 2609 2669 2666 2606 2667 2721
8 2610 2544 2611 2671 2668 2608 2669 2723
8 2611 2545 2612 2672 2669 2609 2670 2724
8 2613 2547 2614 2674 2671 2611 2672 2726
8 2614 2548 2615 2675 2672 2612 2673 2727
8 2616 2550 2617 2677 2674 2614 2675 2729
8 2617 2551 2618 2678 2675 2615 2676 2730
8 2619 2553 2620 2680 2677 2617 2678 2732
8 2620 2554 2621 2681 2678 2618 2679 2733
8 2624 2556 2623 2684 2680 2620 2681 2735
8 2681 2621 2555 2623 2736 2682 2622 2683
8 2626 2559 2625 2685 2684 2623 2683 2737
8 2688 2628 2584 2650 2740 2686 2647 2707
8 2688 2628 2687 2742 2650 2584 2629 2690
8 2690 2629 2689 2745 2630 2564 2631 2692
8 2746 2690 2630 2691 2709 2650 2585 2651
8 2691 2630 2692 2747 2632 2565 2633 2694
8 2692 2631 2693 2748 2633 2566 2634 2695
8 2694 2633 2695 2750 2635 2568 2636 2697
8 2695 2634 2696 2751 2636 2569 2637 2698
8 2697 2636 2698 2753 2638 2571 2639 2700
8 2698 2637 2699 2754 2639 2572 2640 2701
8 2700 2639 2701 2755 2641 2574 2642 2702
8 2659 2596 2658 2714 2704 2644 2703 2757
8 2704 2644 2703 2757 2655 2590 2652 2710
8 2660 2597 2659 2715 2705 2645 2704 2758
8 2705 2645 2704 2758 2657 2593 2655 2712
8 2759 2706 2647 2707 2710 2652 2587 2653
8 2709 2650 2585 2651 2760 2707 2648 2708
8 2708 2648 2589 2654 2760 2707 2653 2711
8 2712 2655 2710 2761 2656 2592 2653 2711
8 2763 2713 2658 2714 2718 2664 2603 2663
8 2662 2602 2663 2717 2715 2659 2714 2764
8 2720 2666 2718 2767 2665 2605 2663 2717
8 2768 2719 2664 2718 2721 2667 2606 2666
8 2668 2608 2669 2723 2720 2666 2721 2770
8 2669 2609 2670 2724 2721 2667 2722 2771
8 2671 2611 2672 2726 2723 2669 2724 2773
8 2672 2612 2673 2727 2724 2670 2725 2774
8 2674 2614 2675 2729 2726 2672 2727 2776
8 2675 2615 2676 2730 2727 2673 2728 2777
8 2677 2617 2678 2732 2729 2675 2730 2779
8 2678 2618 2679 2733 2730 2676 2731 2780
8 2680 2620 2681 2735 2732 2678 2733 2782
8 2733 2679 2621 2681 2783 2734 2682 2736
8 2735 2681 2623 2684 2784 2736 2683 2737
8 2740 2686 2647 2707 2787 2738 2706 2759
8 2688 2628 2686 2740 2742 2687 2739 2789
8 2743 2688 2650 2709 2790 2740 2707 2760
8 2742 2687 2741 2792 2690 2629 2689 2745
8 2743 2688 2742 2793 2709 2650 2690 2746
8 2745 2689 2744 2795 2692 2631 2693 2748
8 2746 2690 2745 2796 2691 2630 2692 2747
8 2747 2692 2748 2797 2694 2633 2695 2750
8 2748 2693 2749 2798 2695 2634 2696 2751
8 2750 2695 2751 2800 2697 2636 2698 2753
8 2751 2696 2752 2801 2698 2637 2699 2754
8 2753 2698 2754 2802 2700 2639 2701 2755
8 2763 2713 2756 2804 2714 2658 2703 2757
8 2759 2706 2652 2710 2804 2756 2703 2757
8 2715 2659 2714 2764 2758 2704 2757 2805
8 2758 2704 2757 2805 2712 2655 2710 2761
8 2806 2759 2707 2760 2761 2710 2653 2711
8 2765 2716 2762 2808 2718 2664 2713 2763
8 2809 2763 2714 2764 2767 2718 2663 2717
8 2765 2716 2664 2718 2811 2766 2719 2768
8 2813 2768 2718 2767 2770 2721 2666 2720
8 2814 2769 2719 2768 2771 2722 2667 2721
8 2723 2669 2724 2773 2770 2721 2771 2816
8 2724 2670 2725 2774 2771 2722 2772 2817
8 2726 2672 2727 2776 2773 2724 2774 2819
8 2727 2673 2728 2777 2774 2725 2775 2820
8 2729 2675 2730 2779 2776 2727 2777 2822
8 2730 2676 2731 2780 2777 2728 2778 2823
8 2732 2678 2733 2782 2779 2730 2780 2825
8 2780 2731 2679 2733 2826 2781 2734 2783
8 2782 2733 2681 2735 2827 2783 2736 2784
8 2830 2785 2738 2787 2804 2756 2706 2759
8 2789 2739 2686 2740 2832 2786 2738 2787
8 2790 2740 2707 2760 2833 2787 2759 2806
8 2742 2687 2739 2789 2792 2741 2788 2835
8 2743 2688 2740 2790 2793 2742 2789 2836
8 2792 2741 2791 2838 2745 2689 2744 2795
8 2793 2742 2792 2839 2746 2690 2745 2796
8 2795 2744 2794 2841 2748 2693 2749 2798
8 2796 2745 2795 2842 2747 2692 2748 2797
8 2797 2748 2798 2843 2750 2695 2751 2800
8 2798 2749 2799 2844 2751 2696 2752 2801
8 2800 2751 2801 2845 2753 2698 2754 2802
8 2808 2762 2803 2847 2763 2713 2756 2804
8 2809 2763 2804 2848 2764 2714 2757 2805
8 2806 2759 2710 2761 2848 2804 2757 2805
8 2765 2716 2766 2811 2808 2762 2807 2850
8 2810 2765 2808 2851 2767 2718 2763 2809
8 2810 2765 2718 2767 2852 2811 2768 2813
8 2811 2766 2719 2768 2853 2812 2769 2814
8 2855 2814 2768 2813 2816 2771 2721 2770
8 2856 2815 2769 2814 2817 2772 2722 2771
8 2773 2724 2774 2819 2816 2771 2817 2858
8 2774 2725 2775 2820 2817 2772 2818 2859
8 2776 2727 2777 2822 2819 2774 2820 2861
8 2777 2728 2778 2823 2820 2775 2821 2862
8 2779 2730 2780 2825 2822 2777 2823 2864
8 2823 2778 2731 2780 2865 2824 2781 2826
8 2825 2780 2733 2782 2866 2826 2783 2827
8 2869 2828 2785 2830 2847 2803 2756 2804
8 2871 2829 2786 2832 2830 2785 2738 2787
8 2872 2830 2787 2833 2848 2804 2759 2806
8 2789 2739 2786 2832 2835 2788 2831 2874
8 2836 2789 2740 2790 2875 2832 2787 2833
8 2792 2741 2788 2835 2838 2791 2834 2877
8 2793 2742 2789 2836 2839 2792 2835 2878
8 2838 2791 2837 2880 2795 2744 2794 2841
8 2839 2792 2838 2881 2796 2745 2795 2842
8 2841 2794 2840 2882 2798 2749 2799 2844
8 2842 2795 2841 2883 2797 2748 2798 2843
8 2843 2798 2844 2884 2800 2751 2801 2845
8 2886 2846 2803 2847 2850 2807 2762 2808
8 2851 2808 2847 2887 2809 2763 2804 2848
8 2850 2807 2766 2811 2889 2849 2812 2853
8 2810 2765 2811 2852 2851 2808 2850 2890
8 2852 2811 2768 2813 2891 2853 2814 2855
8 2853 2812 2769 2814 2892 2854 2815 2856
8 2894 2856 2814 2855 2858 2817 2771 2816
8 2817 2772 2818 2859 2856 2815 2857 2895
8 2819 2774 2820 2861 2858 2817 2859 2897
8 2820 2775 2821 2862 2859 2818 2860 2898
8 2822 2777 2823 2864 2861 2820 2862 2900
8 2823 2778 2824 2865 2862 2821 2863 2901
8 2864 2823 2780 2825 2902 2865 2826 2866
8 2904 2867 2828 2869 2886 2846 2803 2847
8 2869 2828 2868 2906 2830 2785 2829 2871
8 2907 2869 2830 2872 2887 2847 2804 2848
8 2871 2829 2870 2909 2832 2786 2831 2874
8 2910 2871 2832 2875 2872 2830 2787 2833
8 2835 2788 2831 2874 2877 2834 2873 2912
8 2836 2789 2832 2875 2878 2835 2874 2913
8 2877 2834 2876 2915 2838 2791 2837 2880
8 2839 2792 2835 2878 2881 2838 2877 2916
8 2880 2837 2879 2917 2841 2794 2840 2882
8 2881 2838 2880 2918 2842 2795 2841 2883
8 2883 2841 2882 2919 2843 2798 2844 2884
8 2921 2885 2846 2886 2889 2849 2807 2850
8 2922 2886 2847 2887 2890 2850 2808 2851
8 2889 2849 2812 2853 2924 2888 2854 2892
8 2890 2850 2811 2852 2925 2889 2853 2891
8 2891 2853 2814 2855 2926 2892 2856 2894
8 2892 2854 2815 2856 2927 2893 2857 2895
8 2858 2817 2859 2897 2894 2856 2895 2929
8 2859 2818 2860 2898 2895 2857 2896 2930
8 2861 2820 2862 2900 2897 2859 2898 2932
8 2862 2821 2863 2901 2898 2860 2899 2933
8 2864 2823 2865 2902 2900 2862 2901 2934
8 2904 2867 2846 2886 2936 2903 2885 2921
8 2904 2867 2903 2936 2869 2828 2868 2906
8 2937 2904 2869 2907 2922 2886 2847 2887
8 2906 2868 2905 2939 2871 2829 2870 2909
8 2907 2869 2906 2940 2872 2830 2871 2910
8 2909 2870 2908 2942 2874 2831 2873 2912
8 2910 2871 2909 2943 2875 2832 2874 2913
8 2912 2873 2911 2945 2877 2834 2876 2915
8 2878 2835 2874 2913 2916 2877 2912 2946
8 2915 2876 2914 2947 2880 2837 2879 2917
8 2916 2877 2915 2948 2881 2838 2880 2918
8 2918 2880 2917 2949 2883 2841 2882 2919
8 2921 2885 2849 2889 2951 2920 2888 2924
8 2952 2921 2886 2922 2925 2889 2850 2890
8 2924 2888 2854 2892 2954 2923 2893 2927
8 2925 2889 2853 2891 2955 2924 2892 2926
8 2926 2892 2856 2894 2956 2927 2895 2929
8 2895 2857 2896 2930 2927 2893 2928 2957
8 2897 2859 2898 2932 2929 2895 2930 2959
8 2898 2860 2899 2933 2930 2896 2931 2960
8 2900 2862 2901 2934 2932 2898 2933 2961
8 2936 2903 2885 2921 2963 2935 2920 2951
8 2936 2903 2935 2963 2906 2868 2905 2939
8 2937 2904 2886 2922 2964 2936 2921 2952
8 2937 2904 2936 2964 2907 2869 2906 2940
8 2939 2905 2938 2966 2909 2870 2908 2942
8 2940 2906 2939 2967 2910 2871 2909 2943
8 2942 2908 2941 2969 2912 2873 2911 2945
8 2943 2909 2942 2970 2913 2874 2912 2946
8 2945 2911 2944 2971 2915 2876 2914 2947
8 2946 2912 2945 2972 2916 2877 2915 2948
8 2948 2915 2947 2973 2918 2880 2917 2949
8 2951 2920 2888 2924 2975 2950 2923 2954
8 2952 2921 2889 2925 2976 2951 2924 2955
8 2927 2893 2928 2957 2954 2923 2953 2978
8 2955 2924 2892 2926 2979 2954 2927 2956
8 2929 2895 2930 2959 2956 2927 2957 2980
8 2930 2896 2931 2960 2957 2928 2958 2981
8 2932 2898 2933 2961 2959 2930 2960 2982
8 2951 2920 2950 2975 2963 2935 2962 2984
8 2963 2935 2962 2984 2939 2905 2938 2966
8 2964 2936 2921 2952 2985 2963 2951 2976
8 2964 2936 2963 2985 2940 2906 2939 2967
8 2966 2938 2965 2987 2942 2908 2941 2969
8 2967 2939 2966 2988 2943 2909 2942 2970
8 2969 2941 2968 2989 2945 2911 2944 2971
8 2970 2942 2969 2990 2946 2912 2945 2972
8 2972 2945 2971 2991 2948 2915 2947 2973
8 2954 2923 2953 2978 2975 2950 2974 2993
8 2976 2951 2924 2955 2994 2975 2954 2979
8 2957 2928 2958 2981 2978 2953 2977 2995
8 2956 2927 2957 2980 2979 2954 2978 2996
8 2959 2930 2960 2982 2980 2957 2981 2997
8 2984 2962 2983 2999 2966 2938 2965 2987
8 2975 2950 2974 2993 2984 2962 2983 2999
8 2976 2951 2975 2994 2985 2963 2984 3000
8 2985 2963 2984 3000 2967 2939 2966 2988
8 2987 2965 2986 3001 2969 2941 2968 2989
8 2988 2966 2987 3002 2970 2942 2969 2990
8 2990 2969 2989 3003 2972 2945 2971 2991
8 2978 2953 2977 2995 2993 2974 2992 3004
8 2979 2954 2978 2996 2994 2975 2993 3005
8 2980 2957 2981 2997 2996 2978 2995 3006
8 2974 2993 2999 2983 2992 3004 3007 2998
8 2983 2999 2987 2965 2998 3007 3001 2986
8 3000 2984 2999 3008 2988 2966 2987 3002
8 2994 2975 2993 3005 3000 2984 2999 3008
8 3002 2987 3001 3009 2990 2969 2989 3003
8 2996 2978 2995 3006 3005 2993 3004 3010
8 3005 2993 3004 3010 3008 2999 3007 3011
8 3008 2999 3007 3011 3002 2987 3001 3009

CELL_TYPES 1910
12
12
12
12
12
12
12
12
12
12
12
12
12
12
12
12
12
12
12
12
12
12
12
12
12
12
12
12
12
12
12
12
12
12
12
12
12
12
12
12
12
12
12
12
12
12
12
12
12
12
12
12
12
12
12
12
12
12
12
12
12
12
12
12
12
12
12
12
12
12
12
12
12
12
12
12
12
12
12
12
12
12
12
12
12
12
12
12
12
12
12
12
12
12
12
12
12
12
12
12
12
12
12
12
12
12
12
12
12
12
12
12
12
12
12
12
12
12
12
12
12
12
12
12
12
12
12
12
12
12
12
12
12
12
12
12
12
12
12
12
12
12
12
12
12
12
12
12
12
12
12
12
12
12
12
12
12
12
12
12
12
12
12
12
12
12
12
12
12
12
12
12
12
12
12
12
12
12
12
12
12
12
12
12
12
12
12
12
12
12
12
12
12
12
12
12
12
12
12
12
12
12
12
12
12
12
12
12
12
12
12
12
12
12
12
12
12
12
12
12
12
12
12
12
12
12
12
12
12
12
12
12
12
12
12
12
12
12
12
12
12
12
12
12
12
12
12
12
12
12
12
12
12
12
12
12
12
12
12
12
12
12
12
12
12
12
12
12
12
12
12
12
12
12
12
12
12
12
12
12
12
12
12
12
12
12
12
12
12
12
12
12
12
12
12
12
12
12
12
12
12
12
12
12
12
12
12
12
12
12
12
12
12
12
12
12
12
12
12
12
12
12
12
12
12
12
12
12
12
12
12
12
12
12
12
12
12
12
12
12
12
12
12
12
12
12
12
12
12
12
12
12
12
12
12
12
12
12
12
12
12
12
12
12
12
12
12
12
12
12
12
12
12
12
12
12
12
12
12
12
12
12
12
12
12
12
12
12
12
12
12
12
12
12
12
12
12
12
12
12
12
12
12
12
12
12
12
12
12
12
12
12
12
12
12
12
12
12
12
12
12
12
12
12
12
12
12
12
12
12
12
12
12
12
12
12
12
12
12
12
12
12
12
12
12
12
12
12
12
12
12
12
12
12
12
12
12
12
12
12
12
12
12
12
12
12
12
12
12
12
12
12
12
12
12
12
12
12
12
12
12
12
12
12
12
12
12
12
12
12
12
12
12
12
12
12
12
12
12
12
12
12
12
12
12
12
12
12
12
12
12
12
12
12
12
12
12
12
12
12
12
12
12
12
12
12
12
12
12
12
12
12
12
12
12
12
12
12
12
12
12
12
12
12
12
12
12
12
12
12
12
12
12
12
12
12
12
12
12
12
12
12
12
12
12
12
12
12
12
12
12
12
12
12
12
12
12
12
12
12
12
12
12
12
12
12
12
12
12
12
12
12
12
12
12
12
12
12
12
12
12
12
12
12
12
12
12
12
12
12
12
12
12
12
12
12
12
12
12
12
12
12
12
12
12
12
12
12
12
12
12
12
12
12
12
12
12
12
12
12
12
12
12
12
12
12
12
12
12
12
12
12
12
12
12
12
12
12
12
12
12
12
12
12
12
12
12
12
12
12
12
12
12
12
12
12
12
12
12
12
12
12
12
12
12
12
12
12
12
12
12
12
12
12
12
12
12
12
12
12
12
12
12
12
12
12
12
12
12
12
12
12
12
12
12
12
12
12
12
12
12
12
12
12
12
12
12
12
12
12
12
12
12
12
12
12
12
12
12
12
12
12
12
12
12
12
12
12
12
12
12
12
12
12
12
12
12
12
12
12
12
12
12
12
12
12
12
12
12
12
12
12
12
12
12
12
12
12
12
12
12
12
12
12
12
12
12
12
12
12
12
12
12
12
12
12
12
12
12
12
12
12
12
12
12
12
12
12
12
12
12
12
12
12
12
12
12
12
12
12
12
12
12
12
12
12
12
12
12
12
12
12
12
12
12
12
12
12
12
12
12
12
12
12
12
12
12
12
12
12
12
12
12
12
12
12
12
12
12
12
12
12
12
12
12
12
12
12
12
12
12
12
12
12
12
12
12
12
12
12
12
12
12
12
12
12
12
12
12
12
12
12
12
12
12
12
12
12
12
12
12
12
12
12
12
12
12
12
12
12
12
12
12
12
12
12
12
12
12
12
12
12
12
12
12
12
12
12
12
12
12
12
12
12
12
12
12
12
12
12
12
12
12
12
12
12
12
12
12
12
12
12
12
12
12
12
12
12
12
12
12
12
12
12
12
12
12
12
12
12
12
12
12
12
12
12
12
12
12
12
12
12
12
12
12
12
12
12
12
12
12
12
12
12
12
12
12
12
12
12
12
12
12
12
12
12
12
12
12
12
12
12
12
12
12
12
12
12
12
12
12
12
12
12
12
12
12
12
12
12
12
12
12
12
12
12
12
12
12
12
12
12
12
12
12
12
12
12
12
12
12
12
12
12
12
12
12
12
12
12
12
12
12
12
12
12
12
12
12
12
12
12
12
12
12
12
12
12
12
12
12
12
12
12
12
12
12
12
12
12
12
12
12
12
12
12
12
12
12
12
12
12
12
12
12
12
12
12
12
12
12
12
12
12
12
12
12
12
12
12
12
12
12
12
12
12
12
12
12
12
12
12
12
12
12
12
12
12
12
12
12
12
12
12
12
12
12
12
12
12
12
12
12
12
12
12
12
12
12
12
12
12
12
12
12
12
12
12
12
12
12
12
12
12
12
12
12
12
12
12
12
12
12
12
12
12
12
12
12
12
12
12
12
12
12
12
12
12
12
12
12
12
12
12
12
12
12
12
12
12
12
12
12
12
12
12
12
12
12
12
12
12
12
12
12
12
12
12
12
12
12
12
12
12
12
12
12
12
12
12
12
12
12
12
12
12
12
12
12
12
12
12
12
12
12
12
12
12
12
12
12
12
12
12
12
12
12
12
12
12
12
12
12
12
12
12
12
12
12
12
12
12
12
12
12
12
12
12
12
12
12
12
12
12
12
12
12
12
12
12
12
12
12
12
12
12
12
12
12
12
12
12
12
12
12
12
12
12
12
12
12
12
12
12
12
12
12
12
12
12
12
12
12
12
12
12
12
12
12
12
12
12
12
12
12
12
12
12
12
12
12
12
12
12
12
12
12
12
12
12
12
12
12
12
12
12
12
12
12
12
12
12
12
12
12
12
12
12
12
12
12
12
12
12
12
12
12
12
12
12
12
12
12
12
12
12
12
12
12
12
12
12
12
12
12
12
12
12
12
12
12
12
12
12
12
12
12
12
12
12
12
12
12
12
12
12
12
12
12
12
12
12
12
12
12
12
12
12
12
12
12
12
12
12
12
12
12
12
12
12
12
12
12
12
12
12
12
12
12
12
12
12
12
12
12
12
12
12
12
12
12
12
12
12
12
12
12
12
12
12
12
12
12
12
12
12
12
12
12
12
12
12
12
12
12
12
12
12
12
12
12
12
12
12
12
12
12
12
12
12
12
12
12
12
12
12
12
12
12
12
12
12
12
12
12
12
12
12
12
12
12
12
12
12
12
12
12
12
12
12
12
12
12
12
12
12
12
12
12
12
12
12
12
12
12
12
12
12
12
12
12
12
12
12
12
12
12
12
12
12
12
12
12
12
12
12
12
12
12
12
12
12
12
12
12
12
12
12
12
12
12
12
12
12
12
12
12
12
12
12
12
12
12
12
12
12
12
12
12
12
12
12
12
12
12
12
12
12
12
12
12
12
12
12
12
12
12
12
12
12
12
12
12
12
12
12
12
12
12
12
12
12
12
12
12
12
12
12
12
12
12
12
12
12
12
12
12
12
12
12
12
12
12
12
12
12
12
12
12
12
12
12
12
12
12
12
12
12
12
12
12
12
12
12
12
12
12
12
12
12
12
12
12
12
12
12
12
12
12
12
12
12
12
12
12
12
12
12
12
12
12
12
12
12
12
12
12
12
12
12
12
12
12
12
12
12
12
12
12
12
12
12
12
12
12
12
12
12
12
12
12
12
12
12
12
12
12
12
12
12
12
12
12
12
12
12
12
12
12
12
12
12
12
12
12
12
12
12
12
12
12
12
12
12
12
12
12
12
12
12
12
12
12
12
12
12
12
12
12
12
12
12
12
12
12
12
12
12
12
12
12
12
12
12
12
12
12
12
12
12
12
12
12
12
12
12
12
12
12
12
12
12
12
12
12
12
12
12
12
12
12
12
12
12
12
12
12
12
12
12
12
12
12
12
12
12
12
12
12
12
12
12
12
12
12
12
12
12
12
12
12
12
12
12
12
12
12
12
12
12
12
12
12
12
12
12
12
12
12
12
12
12
12
12
12
12
12
12
12
12
12
12
12
12
12
12
12
12
12
12
12
12
12
12
12
12
12
12
12
12

POINT_DATA 3012
SCALARS Jp_lamdaP float 4
LOOKUP_TABLE default
0.999993 1 1 0.999993
1 1 1 1
0.999994 1 1 0.999994
0.999972 1 1 0.999972
0.999988 1 1 0.999988
0.999998 1 1 0.999998
0.999825 1 1 0.999825
1 1 1 1
1 1 1 1
1 1 1 1
1 1 1 1
0.999933 1 1 0.999933
0.999948 1 1 0.999948
0.999973 1 1 0.999973
0.999995 1 1 0.999995
0.999976 1 1 0.999976
0.999998 1 1 0.999998
0.99999 1 1 0.99999
0.999827 1 1 0.999827
1 1 1 1
0.999968 1 1 0.999968
0.999981 1 1 0.999981
0.999721 1 1 0.999721
0.999792 1 1 0.999792
1 1 1 1
0.999862 1 1 0.999862
0.999535 1 1 0.999535
1 1 1 1
0.999992 1 1 0.999992
0.999999 1 1 0.999999
1 1 1 1
0.999939 1 1 0.999939
0.99998 1 1 0.99998
0.999995 1 1 0.999995
0.999852 1 1 0.999852
1 1 1 1
0.999914 1 1 0.999914
0.999957 1 1 0.999957
0.999601 1 1 0.999601
1 1 1 1
1 1 1 1
0.999985 1 1 0.999985
1 1 1 1
0.999964 1 1 0.999964
0.999698 1 1 0.999698
1 1 1 1
0.999794 1 1 0.999794
0.999978 1 1 0.999978
0.999991 1 1 0.999991
0.999999 1 1 0.999999
0.99983 1 1 0.99983
0.999975 1 1 0.999975
0.999971 1 1 0.999971
1 1 1 1
0.999984 1 1 0.999984
0.999723 1 1 0.999723
0.999864 1 1 0.999864
0.999795 1 1 0.999795
0.999524 1 1 0.999524
1 1 1 1
0.999961 1 1 0.999961
0.999746 1 1 0.999746
0.999705 1 1 0.999705
0.999756 1 1 0.999756
0.999292 1 1 0.999292
0.999425 1 1 0.999425
1 1 1 1
0.999909 1 1 0.999909
0.999616 1 1 0.999616
0.999198 1 1 0.999198
1 1 1 1
1 1 1 1
1 1 1 1
0.999946 1 1 0.999946
1 1 1 1
1 1 1 1
0.999851 1 1 0.999851
1 1 1 1
0.999918 1 1 0.999918
0.999966 1 1 0.999966
0.9996 1 1 0.9996
1 1 1 1
1 1 1 1
0.999812 1 1 0.999812
0.99988 1 1 0.99988
0.999366 1 1 0.999366
0.999985 1 1 0.999985
0.99956 1 1 0.99956
0.999643 1 1 0.999643
0.999368 1 1 0.999368
1 1 1 1
1 1 1 1
1 1 1 1
1 1 1 1
1 1 1 1
0.999979 1 1 0.999979
0.999723 1 1 0.999723
0.999988 1 1 0.999988
0.99979 1 1 0.99979
1 1 1 1
0.999668 1 1 0.999668
0.999768 1 1 0.999768
0.999084 1 1 0.999084
0.999811 1 1 0.999811
0.999176 1 1 0.999176
0.999956 1 1 0.999956
0.999974 1 1 0.999974
1 1 1 1
0.999986 1 1 0.999986
0.999725 1 1 0.999725
0.999798 1 1 0.999798
0.999865 1 1 0.999865
0.999513 1 1 0.999513
1 1 1 1
0.999965 1 1 0.999965
0.999687 1 1 0.999687
0.999706 1 1 0.999706
1 1 1 1
0.99993 1 1 0.99993
0.999758 1 1 0.999758
0.999272 1 1 0.999272
0.999603 1 1 0.999603
0.999438 1 1 0.999438
0.999199 1 1 0.999199
0.999683 1 1 0.999683
0.999693 1 1 0.999693
0.999149 1 1 0.999149
0.999226 1 1 0.999226
0.99933 1 1 0.99933
0.998968 1 1 0.998968
1 1 1 1
0.999129 1 1 0.999129
0.999981 1 1 0.999981
0.999644 1 1 0.999644
0.999266 1 1 0.999266
0.999057 1 1 0.999057
0.999999 1 1 0.999999
0.999786 1 1 0.999786
1 1 1 1
1 1 1 1
0.999857 1 1 0.999857
1 1 1 1
0.999975 1 1 0.999975
0.999922 1 1 0.999922
0.999598 1 1 0.999598
1 1 1 1
1 1 1 1
0.999824 1 1 0.999824
0.999889 1 1 0.999889
0.999368 1 1 0.999368
0.99999 1 1 0.99999
0.999561 1 1 0.999561
0.999642 1 1 0.999642
0.99936 1 1 0.99936
0.999998 1 1 0.999998
1 1 1 1
0.999818 1 1 0.999818
0.999276 1 1 0.999276
0.999476 1 1 0.999476
0.999084 1 1 0.999084
0.999699 1 1 0.999699
0.999319 1 1 0.999319
0.999394 1 1 0.999394
0.999268 1 1 0.999268
1 1 1 1
1 1 1 1
1 1 1 1
1 1 1 1
1 1 1 1
1 1 1 1
1 1 1 1
0.999784 1 1 0.999784
0.999713 1 1 0.999713
1 1 1 1
1 1 1 1
0.99967 1 1 0.99967
0.999764 1 1 0.999764
0.999084 1 1 0.999084
0.999801 1 1 0.999801
0.999176 1 1 0.999176
0.999658 1 1 0.999658
0.999029 1 1 0.999029
0.999138 1 1 0.999138
0.998812 1 1 0.998812
0.999216 1 1 0.999216
0.998912 1 1 0.998912
1 1 1 1
0.999969 1 1 0.999969
0.999626 1 1 0.999626
0.999706 1 1 0.999706
1 1 1 1
0.999952 1 1 0.999952
0.999761 1 1 0.999761
0.999252 1 1 0.999252
0.999452 1 1 0.999452
0.999591 1 1 0.999591
0.9992 1 1 0.9992
0.99968 1 1 0.99968
0.999694 1 1 0.999694
0.999108 1 1 0.999108
0.999241 1 1 0.999241
1 1 1 1
0.999975 1 1 0.999975
0.999661 1 1 0.999661
0.999331 1 1 0.999331
0.998943 1 1 0.998943
0.999262 1 1 0.999262
0.99914 1 1 0.99914
0.999059 1 1 0.999059
0.999998 1 1 0.999998
0.999786 1 1 0.999786
0.99904 1 1 0.99904
0.999202 1 1 0.999202
0.998863 1 1 0.998863
0.998881 1 1 0.998881
0.999057 1 1 0.999057
0.99885 1 1 0.99885
0.999994 1 1 0.999994
0.998994 1 1 0.998994
0.999679 1 1 0.999679
0.999356 1 1 0.999356
0.999126 1 1 0.999126
0.999011 1 1 0.999011
0.999728 1 1 0.999728
0.999856 1 1 0.999856
0.999502 1 1 0.999502
0.999823 1 1 0.999823
1 1 1 1
1 1 1 1
0.999895 1 1 0.999895
0.99937 1 1 0.99937
0.999995 1 1 0.999995
0.999642 1 1 0.999642
0.999562 1 1 0.999562
0.999351 1 1 0.999351
0.999999 1 1 0.999999
1 1 1 1
0.999819 1 1 0.999819
0.999276 1 1 0.999276
0.999479 1 1 0.999479
0.999084 1 1 0.999084
0.999699 1 1 0.999699
0.999327 1 1 0.999327
0.999393 1 1 0.999393
0.999259 1 1 0.999259
1 1 1 1
0.999755 1 1 0.999755
0.999883 1 1 0.999883
0.999551 1 1 0.999551
0.998996 1 1 0.998996
0.999219 1 1 0.999219
0.998943 1 1 0.998943
0.999452 1 1 0.999452
0.999219 1 1 0.999219
0.999362 1 1.00012 0.999237
0.999184 1 1 0.999184
0.999975 1 1 0.999975
1 1 1 1
1 1 1 1
1 1 1 1
1 1 1 1
1 1 1 1
1 1 1 1
1 1 1 1
1 1 1 1
0.999802 1 1 0.999802
0.999755 1 1 0.999755
0.999176 1 1 0.999176
0.999084 1 1 0.999084
0.999672 1 1 0.999672
1 1 1 1
0.999657 1 1 0.999657
0.999029 1 1 0.999029
0.999138 1 1 0.999138
0.998811 1 1 0.998811
0.999217 1 1 0.999217
0.998912 1 1 0.998912
0.999015 1 1 0.999015
0.998755 1 1 0.998755
0.998867 1 1 0.998867
0.999267 1.00053 1 0.998735
0.99895 1 1 0.99895
0.998862 1.00004 1 0.998823
0.999678 1 1 0.999678
0.999694 1 1 0.999694
0.999068 1 1 0.999068
0.999256 1 1 0.999256
1 1 1 1
0.999969 1 1 0.999969
0.999679 1 1 0.999679
0.999333 1 1 0.999333
0.998919 1 1 0.998919
0.999151 1 1 0.999151
0.999259 1 1 0.999259
0.999061 1 1 0.999061
0.999997 1 1 0.999997
0.999786 1 1 0.999786
0.999027 1 1 0.999027
0.999202 1 1 0.999202
0.998853 1 1 0.998853
0.998907 1 1 0.998907
0.999991 1 1 0.999991
0.999679 1 1 0.999679
0.999374 1 1 0.999374
0.999057 1 1 0.999057
0.998844 1 1 0.998844
0.999106 1 1 0.999106
0.998994 1 1 0.998994
0.999011 1 1 0.999011
0.999729 1 1 0.999729
0.999499 1 1 0.999499
0.999855 1 1 0.999855
0.99881 1 1 0.99881
0.998889 1 1 0.998889
0.998993 1.00026 1 0.998729
0.99879 1 1 0.99879
0.998921 1 1 0.998921
0.999004 1.00016 1 0.998846
0.999699 1 1 0.999699
0.99899 1.00003 1 0.998963
0.999458 1 1 0.999458
0.999194 1 1 0.999194
0.999007 1 1 0.999007
0.999051 1 1 0.999051
0.999911 1 1 0.999911
0.999492 1 1 0.999492
0.99953 1 1 0.99953
0.999395 1 1 0.999395
0.999277 1 1 0.999277
1 1 1 1
1 1 1 1
0.999819 1 1 0.999819
0.999482 1 1 0.999482
0.999084 1 1 0.999084
0.9997 1 1 0.9997
0.999391 1 1 0.999391
0.999335 1 1 0.999335
0.999249 1 1 0.999249
1 1 1 1
0.999754 1 1 0.999754
0.999886 1 1 0.999886
0.999549 1 1 0.999549
0.998994 1 1 0.998994
0.999221 1 1 0.999221
0.998943 1 1 0.998943
0.999453 1 1 0.999453
0.999229 1 1 0.999229
0.999263 1 1.00003 0.999232
0.999215 1 1 0.999215
1 1 1 1
0.999926 1 1 0.999926
0.999506 1 1 0.999506
0.99961 1 1 0.99961
0.999398 1 1 0.999398
0.998872 1 1 0.998872
0.999091 1 1 0.999091
0.998894 1 1 0.998892
0.999343 1 1.00006 0.99928
0.99916 1 1 0.99916
0.999222 1 1.00015 0.999074
0.999965 1 1 0.999965
0.999782 1 1 0.999782
0.999984 1 1 0.999984
0.999978 1 1 0.999978
1 1 1 1
1 1 1 1
1 1 1 1
1 1 1 1
1 1 1 1
1 1 1 1
1 1 1 1
1 1 1 1
1 1 1 1
1 1 1 1
1 1 1 1
0.999217 1 1 0.999217
0.999138 1 1 0.999138
0.998912 1 1 0.998912
0.998811 1 1 0.998811
0.99903 1 1 0.99903
0.999656 1 1 0.999656
0.999015 1 1 0.999015
0.998755 1 1 0.998755
0.998868 1 1 0.998868
0.999196 1.00047 1 0.998731
0.998949 1 1 0.998949
0.998842 1.00002 1 0.998823
0.99874 1 1 0.99874
1.0006 1.00192 1 0.99868
0.998982 1.00021 1 0.998777
1.00154 1.00282 1 0.998725
0.998852 1 1 0.998852
0.999697 1.00085 1 0.998851
0.999013 1 1 0.999013
0.999201 1 1 0.999201
0.998842 1 1 0.998842
0.998932 1 1 0.998932
0.999987 1 1 0.999987
0.999679 1 1 0.999679
0.999392 1 1 0.999392
0.999057 1 1 0.999057
0.998838 1 1 0.998838
0.998995 1 1 0.998995
0.999087 1 1 0.999087
0.999011 1 1 0.999011
0.99973 1 1 0.99973
0.999496 1 1 0.999496
0.999854 1 1 0.999854
0.998789 1 1 0.998789
0.998889 1 1 0.998889
0.999131 1.00041 1 0.998719
0.998805 1.00001 1 0.998795
0.9997 1 1 0.9997
0.999456 1 1 0.999456
0.999215 1 1 0.999215
0.99893 1 1 0.99893
0.999029 1.00018 1 0.998852
0.998992 1 1 0.998992
0.999046 1.00008 1 0.998963
0.999058 1 1 0.999058
0.999494 1 1 0.999494
0.999383 1 1 0.999383
0.999908 1 1 0.999908
0.999539 1 1 0.999539
0.999513 1.00084 1 0.998675
0.998882 1.00012 1 0.99876
1.00097 1.00229 1 0.998679
0.999019 1.00024 1 0.998774
0.999283 1.00037 1 0.998909
0.999803 1.00093 1 0.99887
0.999489 1 1 0.999489
0.999239 1.0002 1 0.999041
0.999317 1 1 0.999317
0.999058 1 1 0.999058
0.99893 1 1 0.99893
0.999055 1 1 0.999055
0.999938 1 1 0.999938
0.999596 1 1 0.999596
0.999392 1 1 0.999392
0.9994 1 1 0.9994
0.999342 1 1 0.999342
1 1 1 1
0.998992 1 1 0.998992
0.999888 1 1 0.999888
0.999754 1 1 0.999754
0.999547 1 1 0.999547
0.999223 1 1 0.999223
0.998943 1 1 0.998943
0.999455 1 1 0.999455
0.999226 1 1 0.999226
0.999239 1 1 0.999239
0.999247 1 1 0.999247
1 1 1 1
0.99993 1 1 0.99993
0.999505 1 1 0.999505
0.999609 1 1 0.999609
0.99939 1 1 0.99939
0.998904 1.00003 1 0.99887
0.999092 1 1 0.999092
0.998889 1 1 0.998888
0.999344 1 1.00006 0.999282
0.999167 1 1 0.999167
0.999329 1 1.00024 0.999087
0.99995 1 1 0.99995
0.99967 1 1 0.99967
0.999342 1 1 0.999342
0.999441 1 1 0.999441
0.999309 1 1 0.999309
0.999088 1.00025 1 0.998841
0.999033 1 1 0.999033
0.998966 1 1 0.998966
1.00018 1 1.00106 0.999122
0.998998 1 1 0.998998
0.999968 1 1 0.999968
0.999729 1 1 0.999729
0.999769 1 1 0.999769
0.999638 1 1 0.999638
0.999792 1 1 0.999792
0.999988 1 1 0.999988
0.999985 1 1 0.999985
1 1 1 1
0.999981 1 1 0.999981
1 1 1 1
1 1 1 1
1 1 1 1
1 1 1 1
1 1 1 1
1 1 1 1
1 1 1 1
1 1 1 1
1 1 1 1
1 1 1 1
1 1 1 1
0.998947 1 1 0.998947
0.998868 1 1 0.998868
0.998823 1 1 0.998823
0.999117 1.00039 1 0.998726
0.998756 1 1 0.998756
0.999014 1 1 0.999014
0.99874 1 1 0.99874
1.0006 1.00193 1 0.998673
0.998922 1.00014 1 0.998777
1.00146 1.00274 1 0.998725
0.998886 1.00004 1 0.99885
0.999528 1.00068 1 0.998851
1.00032 1.00167 1 0.99865
1.00401 1.00535 1 0.998667
1.00077 1.00199 1 0.998778
1.00345 1.00474 1 0.998725
0.999414 1.00056 1 0.998856
1.00138 1.0025 1 0.998881
0.998767 1 1 0.998767
0.998889 1 1 0.998889
0.999263 1.00055 1 0.998709
0.998815 1.00002 1 0.998799
0.999701 1 1 0.999701
0.999453 1 1 0.999453
0.999236 1 1 0.999236
0.998938 1 1 0.998938
0.999048 1.00019 1 0.998858
0.999116 1.00015 1 0.998964
0.998978 1 1 0.998978
0.999065 1 1 0.999065
0.999497 1 1 0.999497
0.99937 1 1 0.99937
0.999905 1 1 0.999905
0.999549 1 1 0.999549
0.999786 1.00111 1 0.998676
0.998879 1.00012 1 0.998761
1.00061 1.00193 1 0.998682
0.999003 1.00023 1 0.998776
0.999489 1 1 0.999489
0.999334 1 1 0.999334
0.999056 1 1 0.999056
0.999294 1.00039 1 0.998905
0.999837 1.00094 1 0.998899
0.998921 1 1 0.998921
0.999457 1.00042 1 0.999042
0.999081 1 1 0.999081
0.999393 1 1 0.999393
0.999338 1 1 0.999338
0.999397 1 1 0.999397
0.999917 1 1 0.999917
0.999605 1 1 0.999605
1.00305 1.00441 1 0.998643
1.00093 1.00225 1 0.998683
1.00045 1.00165 1 0.998799
1.00029 1.00134 1 0.998954
0.999394 1 1 0.999394
1.00032 1.00122 1 0.999102
0.999218 1 1 0.999218
0.999082 1 1.0002 0.998883
0.99886 1 1 0.99886
0.99992 1 1 0.99992
0.999687 1 1 0.999687
0.999463 1 1 0.999463
0.999361 1 1 0.999361
0.999297 1 1 0.999297
0.999304 1 1 0.999304
1 1 1 1
0.999934 1 1 0.999934
0.99894 1.00007 1 0.998867
0.999609 1 1 0.999609
0.999505 1 1 0.999505
0.999381 1 1 0.999381
0.999093 1 1 0.999093
0.998884 1 1 0.998884
0.999284 1 1 0.999284
0.999296 1 1.0002 0.999101
0.999175 1 1 0.999175
0.999953 1 1 0.999953
0.999671 1 1 0.999671
0.999351 1 1 0.999351
0.99944 1 1 0.99944
0.999298 1 1 0.999298
0.999056 1.00022 1 0.998839
0.999028 1 1 0.999028
0.998978 1 1 0.998978
0.999822 1 1.00071 0.999114
0.998978 1 1.00001 0.998973
0.999718 1 1 0.999718
0.999472 1 1 0.999472
0.999796 1 1.00057 0.999226
0.999301 1 1 0.999301
0.999228 1 1 0.999228
1.00088 1.00188 1 0.999001
0.998936 1 1 0.998936
0.999787 1.00082 1 0.998969
1.00105 1 1.00203 0.999022
0.9988 1 1 0.9988
0.999971 1 1 0.999971
0.99974 1 1 0.99974
0.999563 1 1 0.999563
0.999755 1 1 0.999755
0.999792 1 1 0.999792
0.999618 1 1 0.999618
0.999511 1 1 0.999511
0.999614 1 1 0.999614
0.999801 1 1 0.999801
0.999989 1 1 0.999989
0.999989 1 1 0.999989
1 1 1 1
0.999987 1 1 0.999987
1 1 1 1
1 1 1 1
1 1 1 1
1 1 1 1
1 1 1 1
1 1 1 1
1 1 1 1
1 1 1 1
1 1 1 1
1 1 1 1
1 1 1 1
0.998917 1.00007 1 0.998848
0.998869 1.00009 1 0.998778
0.999367 1.00052 1 0.99885
1.00138 1.00266 1 0.998725
1.00061 1.00195 1 0.998666
0.99874 1 1 0.99874
1.00046 1.00181 1 0.998648
1.0039 1.00523 1 0.998668
1.00076 1.00199 1 0.998769
1.00367 1.00496 1 0.998721
0.999265 1.00041 1 0.998856
1.00111 1.00222 1 0.998898
1.00441 1.00578 1 0.998639
1.00529 1.0066 1 0.998695
1.00387 1.00509 1 0.99879
1.00163 1.00268 1 0.998956
1.00006 1.00138 1 0.998677
0.998882 1.00012 1 0.998763
1.00027 1.00159 1 0.998685
0.998989 1.00021 1 0.998778
0.999489 1 1 0.999489
0.999351 1 1 0.999351
0.999102 1 1.00005 0.999054
0.999296 1.0004 1 0.9989
0.999903 1.00098 1 0.998928
0.999695 1.00065 1 0.999043
0.998913 1 1 0.998913
0.999106 1 1 0.999106
0.999393 1 1 0.999393
0.999335 1 1 0.999335
0.999395 1 1 0.999395
0.999896 1 1 0.999896
0.999613 1 1 0.999613
1.00275 1.00411 1 0.998647
1.0011 1.00241 1 0.998688
1.00045 1.00164 1 0.998808
0.999392 1 1 0.999392
0.999238 1 1 0.999238
0.999253 1 1.00037 0.998879
1.0005 1.00156 1 0.998945
0.998894 1 1 0.998894
0.999987 1.00088 1 0.999104
0.999921 1 1 0.999921
0.99936 1 1 0.99936
0.999313 1 1 0.999313
0.999295 1 1 0.999295
0.999469 1 1 0.999469
0.999671 1 1 0.999671
1.00438 1.00574 1 0.99865
1.00307 1.00439 1 0.998693
1.00224 1.0034 1 0.998849
1.00247 1.00345 1 0.999026
0.999337 1 1 0.999337
0.999409 1.00047 1 0.998939
0.999329 1 1.00031 0.999019
0.999665 1 1.00091 0.998755
0.99994 1 1 0.99994
0.999733 1 1 0.999733
0.999524 1 1 0.999524
0.999311 1 1 0.999311
0.99931 1 1 0.99931
0.99925 1 1 0.99925
0.999957 1 1 0.999957
0.999671 1 1 0.999671
0.999024 1.00019 1 0.998837
0.999439 1 1 0.999439
0.999359 1 1 0.999359
0.999286 1 1 0.999286
0.999024 1 1 0.999024
0.998989 1 1 0.998989
0.999535 1 1.00043 0.999107
0.999032 1 1.00008 0.998948
0.999719 1 1 0.999719
0.999479 1 1 0.999479
0.999567 1 1.00033 0.999241
0.999307 1 1 0.999307
0.999234 1 1 0.999234
1.00089 1.00189 1 0.999002
0.998939 1 1 0.998939
0.999488 1.00045 1 0.999043
1.00117 1 1.00216 0.999012
0.998793 1 1.00003 0.998764
0.999528 1 1 0.999528
0.999321 1 1 0.999321
1.0009 1 1.00176 0.999133
0.999175 1 1 0.999175
1.0062 1.00721 1 0.999002
1.00334 1.00441 0.999872 0.999067
0.999288 1.00052 1 0.998767
1.00194 1 1.00317 0.998779
0.999751 1 1 0.999751
0.999572 1 1 0.999572
0.999461 1 1 0.999461
0.999792 1 1 0.999792
0.999597 1 1 0.999597
0.999802 1 1 0.999802
0.999495 1 1 0.999495
0.999621 1 1 0.999621
0.999408 1 1 0.999408
0.999497 1 1 0.999497
0.999624 1 1 0.999624
0.999804 1 1 0.999804
0.999988 1 1 0.999988
0.999989 1 1 0.999989
1 1 1 1
0.999989 1 1 0.999989
1 1 1 1
1 1 1 1
1 1 1 1
1 1 1 1
1 1 1 1
1 1 1 1
1 1 1 1
1 1 1 1
1 1 1 1
1 1 1 1
1 1 1 1
0.999114 1.00026 1 0.998857
1.00075 1.00199 1 0.998761
1.00085 1.00194 1 0.998915
1.00389 1.00518 1 0.998717
1.00378 1.00511 1 0.998669
1.0006 1.00196 1 0.998645
1.00415 1.00551 1 0.998644
1.00518 1.00649 1 0.998695
1.00383 1.00504 1 0.998796
1.00198 1.00303 1 0.998951
1.00613 1.00747 1 0.998669
1.00649 1.00773 1 0.998764
1.00516 1.00629 1 0.998878
1.00244 1.00379 1 0.99865
1.00127 1.00258 1 0.998694
1.00043 1.00161 1 0.998817
0.99939 1 1 0.99939
0.999258 1 1 0.999258
0.999398 1 1.00052 0.998875
1.00068 1.00174 1 0.998936
0.999667 1.00056 1 0.999105
0.998928 1 1 0.998928
0.999359 1 1 0.999359
0.999323 1 1 0.999323
0.999292 1 1 0.999292
0.999922 1 1 0.999922
0.999476 1 1 0.999476
0.999656 1 1 0.999656
1.00487 1.00623 1 0.998652
1.00282 1.00414 1 0.998691
1.00221 1.00338 1 0.998837
0.999333 1 1 0.999333
0.999381 1 1.00033 0.999054
0.999641 1 1.00088 0.99876
1.00289 1.00385 1 0.999045
0.999432 1.0005 1 0.998934
0.999956 1 1 0.999956
0.999733 1 1 0.999733
0.99931 1 1 0.99931
0.999263 1 1 0.999263
0.999314 1 1 0.999314
0.999512 1 1 0.999512
1.00585 1.00716 1 0.9987
1.00481 1.00608 1 0.998734
1.00555 1.00667 0.999905 0.998984
1.00387 1.00479 1 0.999078
0.999321 1 1.00008 0.999241
1.0001 1.00001 1.0014 0.998687
1.00049 1 1.0016 0.99889
0.999987 1 1 0.999987
0.999823 1 1 0.999823
0.999736 1 1 0.999736
0.999542 1 1 0.999542
0.999368 1 1 0.999368
0.9992 1 1 0.9992
0.999314 1 1 0.999314
1.00017 1 1.00091 0.999266
0.999719 1 1 0.999719
0.999485 1 1 0.999485
1.00084 1.00184 1 0.999002
0.999313 1 1 0.999313
0.999367 1 1.00011 0.999255
0.999239 1 1 0.999239
0.998943 1 1 0.998943
0.999116 1 1 0.999116
1.0013 1 1.0023 0.999002
0.998728 1 1 0.998728
0.999522 1 1 0.999522
0.99933 1 1 0.99933
1.0011 1 1.00196 0.999145
0.999186 1 1 0.999186
1.00588 1.00689 1 0.998994
1.00284 1.00383 0.999949 0.999065
0.999522 1.00072 1 0.998799
1.0015 1 1.00274 0.998762
0.999413 1 1 0.999413
1.00639 1.00747 1 0.998926
0.999216 1 1 0.999216
1.00056 1 1.00154 0.99902
1.00945 1.01068 0.999722 0.999068
1.00329 1.00451 1 0.99878
1.00178 1 1.00313 0.998655
0.999582 1 1 0.999582
0.99946 1 1 0.99946
0.999364 1 1 0.999364
0.999802 1 1 0.999802
0.999628 1 1 0.999628
0.99948 1 1 0.99948
0.999804 1 1 0.999804
0.999623 1 1 0.999623
0.999395 1 1 0.999395
0.999512 1 1 0.999512
0.999331 1 1 0.999331
0.999395 1 1 0.999395
0.999527 1 1 0.999527
0.999641 1 1 0.999641
0.9998 1 1 0.9998
0.999986 1 1 0.999986
0.999987 1 1 0.999987
1 1 1 1
0.999989 1 1 0.999989
1 1 1 1
1 1 1 1
1 1 1 1
1 1 1 1
1 1 1 1
0.999994 1 1 0.999994
1 1 1 1
1 1 1 1
1 1 1 1
1 1 1 1
1 1 1 1
1 1 1 1
1.00234 1.0034 1 0.998945
1.00377 1.00497 1 0.998802
1.00507 1.00638 1 0.998694
1.00388 1.00524 1 0.998649
1.00603 1.00737 1 0.998676
1.00687 1.00812 1 0.998755
1.00556 1.00668 1 0.998892
1.00599 1.00725 1 0.998742
1.00778 1.00897 1 0.998822
1.00546 1.00657 0.999948 0.998958
1.00531 1.00666 1 0.998653
1.00255 1.00387 1 0.99869
1.00227 1.00345 1 0.998824
0.999329 1 1 0.999329
0.999402 1 1.00031 0.99909
0.99954 1 1.00078 0.998765
1.00348 1.00442 1 0.999063
0.999379 1.00045 1 0.998929
0.99931 1 1 0.99931
0.999276 1 1 0.999276
0.999317 1 1 0.999317
0.999971 1 1 0.999971
0.999734 1 1 0.999734
0.9995 1 1 0.9995
1.00535 1.00666 1 0.998708
0.999984 1 1 0.999984
0.999812 1 1 0.999812
1.00469 1.00596 1 0.998733
1.00648 1.00753 1 0.998957
0.999303 1 1.00004 0.999262
1.00098 1 1.00212 0.99886
0.999591 1.00006 1.00084 0.998694
1.0035 1.00443 1 0.999077
0.999766 1 1 0.999766
0.999541 1 1 0.999541
0.999296 1 1 0.999296
0.999766 1 1.00045 0.999313
0.999181 1 1 0.999181
0.999371 1 1 0.999371
1.00641 1.00763 1 0.99879
1.00762 1.0088 1 0.998827
1.00756 1.00881 0.999601 0.999159
0.999989 1.00112 1 0.998874
1.00047 1 1.00127 0.999208
1.00327 1 1.00459 0.998686
0.999825 1 1 0.999825
0.999793 1 1 0.999793
0.999673 1 1 0.999673
0.999546 1 1 0.999546
0.999418 1 1 0.999418
0.999237 1 1 0.999237
1.00001 1 1.0009 0.999105
0.999324 1 1 0.999324
0.999515 1 1 0.999515
0.999339 1 1 0.999339
1.00574 1.00677 1 0.998985
1.00257 1.00351 1 0.999063
0.999196 1 1 0.999196
1.00125 1 1.0021 0.999157
0.999808 1.00094 1.00004 0.998831
1.0011 1 1.00236 0.998744
0.999411 1 1 0.999411
1.00679 1.00786 0.999997 0.998943
0.999218 1 1 0.999218
1.00071 1 1.00171 0.999003
1.00894 1.01015 0.99974 0.999056
1.00365 1.00487 1 0.998791
1.00195 1 1.0033 0.998661
0.999283 1 1 0.999283
1.01633 1.0185 0.998804 0.999059
0.999119 1 1 0.999119
1.00197 1 1.00313 0.998847
1.00424 1.00819 0.997225 0.998854
1.00181 1.00097 1.00221 0.998631
1.00757 1.00965 0.998868 0.999079
0.99946 1 1 0.99946
0.999363 1 1 0.999363
0.999293 1 1 0.999293
0.999804 1 1 0.999804
0.999622 1 1 0.999622
0.999528 1 1 0.999528
0.999382 1 1 0.999382
0.9998 1 1 0.9998
0.999632 1 1 0.999632
0.999326 1 1 0.999326
0.999527 1 1 0.999527
0.999409 1 1 0.999409
0.999314 1 1 0.999314
0.999447 1 1 0.999447
0.999535 1 1 0.999535
0.999613 1 1 0.999613
0.999769 1 1 0.999769
0.999661 1 1 0.999661
0.999771 1 1 0.999771
0.999984 1 1 0.999984
0.999985 1 1 0.999985
1 1 1 1
0.999987 1 1 0.999987
1 1 1 1
1 1 1 1
1 1 1 1
1 1 1 1
1 1 1 1
0.999997 1 1 0.999997
0.999992 1 1 0.999992
1 1 1 1
1 1 1 1
1 1 1 1
1 1 1 1
1 1 1 1
1 1 1 1
1.00593 1.00703 1 0.998906
1.00724 1.00851 1 0.998745
1.00597 1.00729 1 0.998682
1.00639 1.00766 1 0.998741
1.00714 1.00832 1 0.998827
1.00586 1.00692 0.999991 0.998963
1.00677 1.00792 0.999989 0.998872
1.01052 1.01578 0.995771 0.999041
1.0191 1.02114 0.998873 0.999123
0.999864 1 1 0.999864
1.00493 1.00622 1 0.998717
1.00444 1.00572 1 0.998732
1.00714 1.00821 1 0.998931
0.999288 1 1.00001 0.999282
1.00164 1 1.00282 0.998831
0.999283 1.00013 1.00045 0.998702
1.00302 1.00395 1 0.999077
0.999278 1 1 0.999278
0.999361 1 1 0.999361
0.999162 1 1 0.999162
0.99998 1 1 0.99998
0.999374 1 1 0.999374
0.999797 1 1 0.999797
0.99954 1 1 0.99954
0.999801 1 1 0.999801
1.00651 1.00774 1 0.998788
0.999839 1 1 0.999839
0.999792 1 1 0.999792
0.99965 1 1 0.99965
1.00805 1.00923 1 0.998831
1.0061 1.00752 0.999469 0.999125
0.999921 1 1.0007 0.999218
1.00351 1 1.00484 0.998678
1.00022 1.00118 1.00016 0.998879
0.999563 1 1 0.999563
0.999411 1 1 0.999411
0.999553 1 1.00026 0.999296
1.00007 1 1.00094 0.999128
0.99925 1 1 0.99925
1.00902 1.01036 0.999863 0.998811
1.00786 1.01157 0.997374 0.998957
1.00238 1.0037 0.999716 0.998976
1.00209 1.0004 1.00294 0.998767
1.00314 1 1.00402 0.999115
0.999652 1 1 0.999652
0.999592 1 1 0.999592
0.999527 1 1 0.999527
0.999429 1 1 0.999429
0.999314 1 1 0.999314
0.999388 1 1.00023 0.999157
1.00283 1 1.00377 0.999064
0.999409 1 1 0.999409
0.999221 1 1 0.999221
1.00711 1.00816 1 0.99896
1.00825 1.00951 0.999712 0.999044
1.00381 1.00502 1 0.998802
1.00085 1 1.00186 0.998986
1.00199 1 1.00333 0.998667
0.999297 1 1 0.999297
1.01604 1.01872 0.998304 0.999064
0.999124 1 1 0.999124
1.00208 1 1.00323 0.998854
1.00547 1.00877 0.99784 0.998891
1.00205 1.00074 1.00269 0.998624
1.00892 1.01109 0.998861 0.998989
0.999209 1 1 0.999209
1.00163 1.01213 0.990609 0.999012
1.00001 1 1.00093 0.999085
1.00488 1 1.00612 0.998772
1.00114 1.00134 1.00109 0.998719
0.959621 0.967158 0.997794 0.994401
1.00054 0.99674 1.00618 0.997647
0.988282 1.00751 0.981703 0.999203
0.919899 0.938741 0.983175 0.996699
0.919009 0.955637 0.964398 0.997174
0.999363 1 1 0.999363
0.999299 1 1 0.999299
0.99928 1 1 0.99928
0.9998 1 1 0.9998
0.999623 1 1 0.999623
0.999526 1 1 0.999526
0.999422 1 1 0.999422
0.999322 1 1 0.999322
0.999521 1 1 0.999521
0.999782 1 1 0.999782
0.999624 1 1 0.999624
0.99932 1 1 0.99932
0.999444 1 1 0.999444
0.999455 1 1 0.999455
0.99937 1 1 0.99937
0.999494 1 1 0.999494
0.999603 1 1 0.999603
0.999768 1 1 0.999768
0.999638 1 1 0.999638
0.999539 1 1 0.999539
0.99963 1 1 0.99963
0.999641 1 1 0.999641
0.999794 1 1 0.999794
0.99977 1 1 0.99977
0.999983 1 1 0.999983
0.999984 1 1 0.999984
1 1 1 1
0.999985 1 1 0.999985
1 1 1 1
1 1 1 1
1 1 1 1
1 1 1 1
1 1 1 1
0.999998 1 1 0.999998
0.999997 1 1 0.999997
1 1 1 1
0.999991 1 1 0.999991
1 1 1 1
1 1 1 1
1 1 1 1
1 1 1 1
1 1 1 1
1.00651 1.00768 1 0.998831
1.00675 1.00802 1 0.99874
1.00613 1.00717 1 0.998968
1.01104 1.01561 0.996434 0.999058
1.00654 1.00769 0.999985 0.99887
1.01983 1.02177 0.999024 0.999081
1.01907 1.02044 0.999858 0.998794
0.977797 0.984914 0.995611 0.99715
1.01669 1.01883 0.998717 0.999181
0.999872 1 1 0.999872
0.999864 1 1 0.999864
0.999699 1 1 0.999699
0.999718 1 1 0.999718
1.00667 1.00789 1 0.998787
1.00857 1.00974 1 0.998835
1.00454 1.00598 0.999481 0.999091
0.99923 1 1 0.999229
1.00336 1 1.0047 0.998669
1.00038 1.00136 1.00013 0.998884
0.999778 1 1.00051 0.999268
1.00013 1 1.00098 0.999151
0.999263 1 1 0.999263
0.999791 1 1 0.999791
0.999404 1 1 0.999404
0.999579 1 1 0.999579
0.999852 1 1 0.999852
0.999626 1 1 0.999626
1.00759 1.00883 0.999944 0.998829
0.999676 1 1 0.999676
0.999606 1 1 0.999606
0.999523 1 1 0.999523
1.00927 1.01203 0.998305 0.998966
1.00104 1.00253 0.999541 0.998973
1.00282 1 1.00371 0.999113
1.00181 1.00045 1.00262 0.998754
0.999432 1 1 0.999432
0.999321 1 1 0.999321
1.00182 1 1.00276 0.999064
0.999739 1 1.0006 0.999139
1.01731 1.01869 0.999794 0.998854
1.00473 1.00983 0.996005 0.998937
1.00081 1.00137 1.00073 0.998715
1.00176 1 1.00276 0.998999
0.999481 1 1 0.999481
0.999466 1 1 0.999466
0.999274 1 1 0.999274
1.00325 1 1.00426 0.998986
0.949586 0.96454 0.990169 0.99427
0.999311 1 1 0.999311
0.999129 1 1 0.999129
1.01552 1.01878 0.997731 0.999069
1.00673 1.00925 0.99857 0.998929
1.00246 1.00055 1.0033 0.998618
1.00229 1 1.00343 0.998861
1.01 1.0123 0.998821 0.998898
0.999219 1 1 0.999219
1.00109 1.01186 0.990345 0.999
0.999715 1 1.00063 0.999089
1.00467 1 1.0059 0.998776
1.0008 1.00177 1.00031 0.99873
0.957172 0.966434 0.995757 0.994636
0.995426 0.994305 1.00438 0.996762
0.991285 1.00798 0.984182 0.999247
0.927041 0.941583 0.988192 0.99632
0.909704 0.949156 0.961351 0.996967
0.999289 1 1.00005 0.999243
0.929216 0.942009 0.990446 0.995934
0.937424 0.957242 0.981829 0.997421
0.978245 1.00274 0.976532 0.999016
1.00312 1 1.00403 0.999088
1.00888 1 1.01001 0.99888
0.99094 1.00624 0.985472 0.999312
0.968852 0.971421 1.00326 0.994118
0.998696 0.994891 1.0073 0.996545
0.917404 0.944429 0.974713 0.996585
0.95034 0.982128 0.969564 0.99801
0.999304 1 1 0.999304
0.99928 1 1 0.99928
0.999309 1 1 0.999309
0.999794 1 1 0.999794
0.999635 1 1 0.999635
0.999507 1 1 0.999507
0.99944 1 1 0.99944
0.999327 1 1 0.999327
0.999768 1 1 0.999768
0.999457 1 1 0.999457
0.999509 1 1 0.999509
0.999617 1 1 0.999617
0.999359 1 1 0.999359
0.99941 1 1 0.99941
0.999538 1 1.0002 0.999341
0.999507 1 1 0.999507
0.999629 1 1 0.999629
0.999638 1 1 0.999638
0.999524 1 1 0.999524
0.99952 1 1 0.99952
0.999511 1 1 0.999511
0.999454 1 1 0.999454
0.999428 1 1 0.999428
0.999607 1 1 0.999607
0.99963 1 1 0.99963
0.999789 1 1 0.999789
0.999622 1 1 0.999622
0.999783 1 1 0.999783
0.999982 1 1 0.999982
0.99977 1 1 0.99977
0.999983 1 1 0.999983
1 1 1 1
0.999984 1 1 0.999984
1 1 1 1
1 1 1 1
1 1 1 1
1 1 1 1
1 1 1 1
0.999868 1 1 0.999868
0.999999 1 1 0.999999
0.999998 1 1 0.999998
1 1 1 1
0.999996 1 1 0.999996
1 1 1 1
1 1 1 1
1 1 1 1
1 1 1 1
1 1 1 1
1.01236 1.01587 0.997462 0.999075
1.00638 1.00752 1 0.998868
1.02067 1.02248 0.999194 0.99904
0.980014 0.98446 0.997796 0.997684
1.0165 1.01856 0.99877 0.999207
1.01994 1.02162 0.999567 0.998781
1.02072 1.02131 1.0005 0.998923
0.983451 0.986526 0.999172 0.997708
0.957901 0.967393 0.996627 0.993539
0.910339 0.936541 0.976328 0.99559
0.91116 0.945973 0.965975 0.997126
0.999692 1 1 0.999692
0.999871 1 1 0.999871
0.999864 1 1 0.999864
0.999692 1 1 0.999692
0.999586 1 1 0.999586
0.999612 1 1 0.999612
0.999701 1 1 0.999701
0.999707 1 1 0.999707
1.006 1.00716 1 0.998846
1.01115 1.01307 0.999126 0.998975
1.0001 1.00182 0.999317 0.99897
1.00278 1 1.00367 0.999111
1.00184 1.00037 1.00272 0.99874
1.00088 1 1.00182 0.999064
1.00009 1 1.00097 0.999121
0.999328 1 1 0.999328
0.999619 1 1 0.999619
0.999436 1 1 0.999436
0.9997 1 1 0.9997
0.999519 1 1 0.999519
1.01768 1.01952 0.999361 0.99883
0.999493 1 1 0.999493
0.999465 1 1 0.999465
1.00436 1.00893 0.996538 0.998931
1.00074 1.00157 1.0004 0.998765
1.00287 1 1.00391 0.998964
0.999267 1 1 0.999267
1.00311 1 1.00413 0.99899
1.00995 1.01919 0.992147 0.998782
0.994983 1.0019 0.99424 0.998852
0.999902 1 1.00103 0.998872
1.00555 1 1.00656 0.998989
0.999408 1 1 0.999408
0.999323 1 1 0.999323
0.999675 1 1.00056 0.99912
0.920647 0.942347 0.980601 0.996299
0.955961 0.966249 0.994727 0.994597
0.999228 1 1 0.999228
0.9995 1 1.00041 0.999093
1.00134 1.01207 0.990393 0.998988
1.0004 1.00226 0.999411 0.99874
1.00434 1 1.00557 0.998779
0.958815 0.967767 0.997296 0.993436
0.995467 0.995222 1.00277 0.997483
0.99458 1.00864 0.986763 0.999291
0.92154 0.942451 0.981883 0.995854
0.899599 0.941774 0.958324 0.99676
0.999297 1 1.00006 0.999242
0.924123 0.945245 0.981184 0.996403
0.939655 0.955757 0.985721 0.997394
0.980548 1.00316 0.978426 0.999006
1.00257 1 1.00347 0.999095
1.00806 1 1.00917 0.998904
0.984571 1.00358 0.981734 0.999315
0.969583 0.972506 1.00327 0.993747
0.996056 0.992954 1.00572 0.997423
0.919308 0.943672 0.978359 0.99573
0.949287 0.981689 0.969073 0.997854
0.999525 1 1.00027 0.999258
0.951773 0.956615 0.996978 0.997955
0.999268 1.00068 0.999711 0.998879
0.986609 1 0.987361 0.999238
1.00803 1 1.00875 0.999287
1.00542 1.00023 1.00556 0.999633
0.98924 0.990445 1.00051 0.998278
0.973634 0.972045 1.00778 0.9939
0.937196 0.965367 0.974999 0.995712
0.972262 1.00162 0.972134 0.998512
0.999281 1 1 0.999281
0.999296 1 1 0.999296
0.999778 1 1.00042 0.999357
0.999768 1 1 0.999768
0.999631 1 1 0.999631
0.999524 1 1 0.999524
0.999458 1 1 0.999458
0.999348 1 1 0.999348
0.999629 1 1 0.999629
0.999421 1 1 0.999421
0.999507 1 1 0.999507
0.999586 1 1.00024 0.999342
0.999917 1 1.00055 0.999362
0.99949 1 1.00009 0.999403
0.99951 1 1 0.99951
0.999637 1 1 0.999637
0.99951 1 1 0.99951
0.99952 1 1 0.99952
0.99951 1 1 0.99951
0.999452 1 1 0.999452
0.999477 1 1 0.999477
0.999444 1 1 0.999444
0.999409 1 1 0.999409
0.999317 1 1 0.999317
0.999454 1 1.0002 0.999257
0.999378 1 1 0.999378
0.999428 1 1 0.999428
0.999571 1 1 0.999571
0.999606 1 1 0.999606
0.999776 1 1 0.999776
0.99963 1 1 0.99963
0.999789 1 1 0.999789
0.999981 1 1 0.999981
0.999772 1 1 0.999772
0.999982 1 1 0.999982
1 1 1 1
0.999983 1 1 0.999983
1 1 1 1
1 1 1 1
1 1 1 1
1 1 1 1
1 1 1 1
0.99988 1 1 0.99988
0.999998 1 1 0.999998
0.999868 1 1 0.999868
1 1 1 1
0.999999 1 1 0.999999
0.999998 1 1 0.999998
1 1 1 1
1 1 1 1
1 1 1 1
1 1 1 1
1 1 1 1
0.922186 0.940942 0.983403 0.996608
0.943787 0.957928 0.98747 0.99774
0.982889 0.98512 0.999656 0.998079
1.01649 1.01825 0.999033 0.999233
1.02079 1.02278 0.99929 0.998768
0.983114 0.985026 0.999451 0.998608
1.02033 1.02112 1.00029 0.99893
0.960427 0.969177 0.996423 0.994528
0.920576 0.938936 0.983842 0.996548
0.904153 0.943519 0.961236 0.996922
0.999898 0.999372 1.00149 0.999042
0.967398 0.970747 1.00214 0.994424
0.912123 0.941434 0.97223 0.996539
0.949236 0.979438 0.971468 0.997628
0.999546 1 1 0.999546
0.999702 1 1 0.999702
0.999871 1 1 0.999871
0.999685 1 1 0.999685
0.999599 1 1 0.999599
0.999565 1 1 0.999565
0.999613 1 1 0.999613
0.999636 1 1 0.999636
0.999687 1 1 0.999687
0.999697 1 1 0.999697
1.01799 1.02023 0.999004 0.998807
1.003 1.00703 0.997063 0.998926
1.00063 1.00168 1.00013 0.998815
1.00374 1 1.00481 0.998929
1.00285 1 1.00386 0.998994
0.99926 1 1 0.99926
0.999465 1 1 0.999465
0.999505 1 1 0.999505
1.01091 1.01925 0.993058 0.998756
0.999402 1 1 0.999402
0.999308 1 1 0.999308
0.996136 1.00194 0.995388 0.998817
1.00025 1 1.00133 0.998913
1.00436 1 1.00541 0.998958
1.00075 1 1.00164 0.999112
1.00985 1.01094 1.00013 0.998788
0.998724 1 0.999599 0.999125
1.00489 1 1.00586 0.999034
0.99939 1 1 0.99939
0.999297 1 1 0.999297
0.999174 1 1 0.999174
0.953261 0.960468 0.994496 0.99799
0.92431 0.942204 0.985204 0.995741
0.953407 0.966707 0.991956 0.99424
0.999241 1 1 0.999241
1.00206 1 1.00296 0.999102
0.982943 1.00346 0.980537 0.998997
1.00742 1 1.0085 0.998928
0.921952 0.944608 0.980243 0.995687
0.968183 0.971706 1.00137 0.99501
0.996719 0.994729 1.00542 0.996597
0.981777 1.00119 0.981269 0.999326
0.922354 0.942561 0.981863 0.996639
0.940911 0.957432 0.985406 0.997299
0.94464 0.979612 0.966571 0.997652
0.99961 1 1.00035 0.999257
0.949655 0.957944 0.993441 0.997893
0.998878 1.00006 0.999934 0.998883
0.989636 1 0.990377 0.999251
1.00806 1 1.00878 0.999288
1.00558 1.00117 1.00517 0.999247
0.990377 0.9903 1.00306 0.997026
0.971435 0.973066 1.00452 0.993827
0.939277 0.96739 0.974028 0.996829
0.966395 0.995856 0.972055 0.998315
1.00017 1 1.00067 0.999505
1.00252 1.00352 0.999791 0.999204
1.01367 1.0106 1.00364 0.999405
1.00806 0.999696 1.00866 0.999715
0.994984 0.990145 1.00575 0.999139
0.9752 0.976039 1.00547 0.993703
0.965449 0.982372 0.985678 0.997053
0.971954 1.0044 0.96938 0.998268
0.999283 1 1 0.999283
0.999727 1 1.00036 0.999371
1.00075 1 1.0013 0.999451
0.999628 1 1 0.999628
0.999506 1 1 0.999506
0.999431 1 1 0.999431
0.999624 1 1.00028 0.999343
0.99951 1 1 0.99951
0.999434 1 1.00003 0.999403
1.0003 1 1.00093 0.999371
1.00031 1 1.00086 0.999456
0.999577 1 1.00021 0.999364
0.999433 1 1 0.999433
0.99952 1 1 0.99952
0.999509 1 1 0.999509
0.999449 1 1 0.999449
0.999446 1 1 0.999446
0.999477 1 1 0.999477
0.999414 1 1 0.999414
0.999374 1 1 0.999374
0.999389 1 1 0.999389
0.999291 1 1 0.999291
0.999323 1 1 0.999323
0.999462 1 1.00021 0.999255
0.999282 1 1.00014 0.999146
0.999378 1 1 0.999378
0.999407 1 1.00011 0.999297
0.999395 1 1 0.999395
0.999508 1 1 0.999508
0.999427 1 1 0.999427
0.999571 1 1 0.999571
0.999753 1 1 0.999753
0.999605 1 1 0.999605
0.999776 1 1 0.999776
0.999977 1 1 0.999977
0.999788 1 1 0.999788
0.99998 1 1 0.99998
1 1 1 1
0.999982 1 1 0.999982
1 1 1 1
1 1 1 1
1 1 1 1
1 1 1 1
1 1 1 1
0.999826 1 1 0.999826
0.999998 1 1 0.999998
0.999856 1 1 0.999856
1 1 1 1
0.999999 1 1 0.999999
0.999867 1 1 0.999867
1 1 1 1
1 1 1 1
0.999999 1 1 0.999999
1 1 1 1
1 1 1 1
1 1 1 1
0.95516 0.959942 0.996851 0.998161
0.922866 0.94163 0.983927 0.996082
0.998174 1.0014 0.997957 0.998824
0.938935 0.954891 0.985633 0.997623
0.979117 0.983685 0.997851 0.997501
1.01952 1.02096 0.99966 0.998937
0.960771 0.969049 0.995904 0.995535
0.918011 0.940412 0.980417 0.995677
0.897145 0.94116 0.956373 0.996717
0.997408 0.999502 0.999291 0.998612
0.968069 0.969905 1.00406 0.99407
0.915607 0.945184 0.972948 0.995641
0.94717 0.978646 0.970186 0.997579
0.996504 0.999063 0.998756 0.998682
0.970385 0.970293 1.00631 0.993826
0.94113 0.968769 0.974624 0.996764
0.971384 1.00188 0.97118 0.998333
0.999459 1 1 0.999459
0.99956 1 1 0.99956
0.999711 1 1 0.999711
0.999612 1 1 0.999612
0.999481 1 1 0.999481
0.999576 1 1 0.999576
0.999614 1 1 0.999614
0.99962 1 1 0.99962
0.999651 1 1 0.999651
0.999674 1 1 0.999674
1.01266 1.02013 0.993944 0.99873
0.997796 1.00243 0.996591 0.998781
1.00054 1 1.00159 0.998954
1.00345 1 1.00453 0.998927
1.00191 1 1.00281 0.999105
0.999293 1 1 0.999293
0.999396 1 1 0.999396
0.999391 1 1 0.999391
1.00519 1.00957 0.996851 0.998808
0.999306 1 1 0.999306
0.999262 1 1.00009 0.999171
0.997537 1 0.998456 0.99908
1.00421 1 1.00518 0.999034
0.995792 1.00541 0.991298 0.999127
1.01197 1 1.01264 0.999338
0.999921 1 1.00078 0.999142
0.999318 1 1 0.999318
0.999184 1 1 0.999184
1.00451 1.0054 0.999768 0.999349
0.954802 0.96005 0.996402 0.998125
0.923734 0.94267 0.983267 0.996588
0.999635 1 1.00038 0.999256
1.00795 1 1.00867 0.999289
0.991084 1 0.991814 0.999264
0.955254 0.959908 0.997028 0.998118
0.972302 0.971262 1.00742 0.993696
0.992629 0.991723 1.00293 0.997991
1.00035 1.00117 1.00035 0.998837
0.938461 0.964938 0.976751 0.995711
0.997825 0.998786 1.00015 0.998888
0.961744 0.992046 0.971058 0.998349
1.00044 1 1.00093 0.999517
1.00075 1.00148 0.99994 0.999333
1.01566 1.01221 1.004 0.999413
1.00769 0.999635 1.00847 0.999595
0.994443 0.991274 1.00443 0.99877
0.979237 0.978231 1.00751 0.993569
0.973686 1.00808 0.967368 0.998459
0.950478 0.974673 0.978616 0.996485
1.00088 0.999605 1.00156 0.999711
1.01555 1.01539 1.00033 0.999822
1.0227 1.01837 1.00477 0.99949
0.973076 1.00188 0.972872 0.998336
1.00268 0.990723 1.01236 0.99972
0.979028 0.978067 1.00695 0.994073
0.944844 0.963354 0.983825 0.996912
0.999653 1 1.00027 0.999386
1.00051 1 1.00109 0.999414
1.00312 1 1.00355 0.999566
0.99951 1 1 0.99951
0.999402 1 1 0.999402
1.00075 1 1.00138 0.999379
0.999435 1 1 0.999435
0.999689 1 1.00033 0.999364
1.00069 1 1.00126 0.999429
0.999852 1 1.00035 0.999498
0.999369 1 1 0.999369
0.999447 1 1 0.999447
0.999476 1 1 0.999476
0.999418 1 1 0.999418
0.999388 1 1 0.999388
0.99938 1 1 0.99938
0.99936 1 1 0.99936
0.999317 1 1 0.999317
1.00112 1 1.00202 0.999103
0.999329 1 1 0.999329
0.999416 1 1.00017 0.999249
0.999457 1 1.00043 0.999027
0.999284 1 1.00014 0.999142
0.999332 1 1 0.999332
0.99936 1 1.00021 0.999149
0.999481 1 1 0.999481
0.999365 1 1 0.999365
0.999336 1 1 0.999336
0.999411 1 1 0.999411
0.999523 1 1 0.999523
0.999718 1 1 0.999718
0.99957 1 1 0.99957
0.999752 1 1 0.999752
0.999971 1 1 0.999971
0.999775 1 1 0.999775
0.999976 1 1 0.999976
1 1 1 1
0.999979 1 1 0.999979
1 1 1 1
1 1 1 1
1 1 1 1
1 1 1 1
1 1 1 1
0.999753 1 1 0.999753
0.999962 1 1 0.999962
0.999825 1 1 0.999825
1 1 1 1
0.999984 1 1 0.999984
0.999831 1 1 0.999831
1 1 1 1
1 1 1 1
0.999999 1 1 0.999999
1 1 1 1
1 1 1 1
1 1 1 1
1.00162 1.00268 0.999662 0.99928
0.948515 0.9591 0.991066 0.997878
0.92526 0.94119 0.987206 0.995815
0.99957 1 1 0.99957
1.01239 1.00973 1.00312 0.999513
0.999818 1.00153 0.999466 0.998828
0.932642 0.954313 0.979816 0.997424
0.995577 0.99995 0.997479 0.998144
0.970352 0.971689 1.0043 0.994344
0.919782 0.949143 0.972423 0.996548
0.942332 0.976394 0.967581 0.99745
0.999171 1.00202 0.999655 0.997497
0.968028 0.969584 1.0044 0.994017
0.942525 0.968168 0.977073 0.996357
0.970162 1.00122 0.970767 0.998164
0.991933 0.992689 1.00235 0.996894
0.975184 0.971262 1.01129 0.992827
0.95132 0.976507 0.97805 0.996071
0.971868 1.00504 0.96868 0.998257
0.999378 1 1 0.999378
0.999451 1 1 0.999451
0.999574 1 1 0.999574
0.999468 1 1 0.999468
0.999499 1 1 0.999499
0.999586 1 1 0.999586
0.999624 1 1 0.999624
0.999665 1 1 0.999665
1.0004 1.00784 0.993781 0.998827
0.996226 1 0.997189 0.999035
0.999392 1 1 0.999392
1.00341 1 1.00438 0.999033
0.999335 1 1.00017 0.999168
0.999316 1 1 0.999316
0.999321 1 1 0.999321
0.999736 1.0065 0.994143 0.999132
0.999198 1 1 0.999198
1.00074 1 1.0016 0.999137
1.00853 1 1.0092 0.999332
0.999329 1 1 0.999329
0.989935 0.998695 0.991683 0.999542
1.01308 1 1.01363 0.999454
0.999227 1 1 0.999227
0.999266 1 1 0.999266
1.01664 1.01744 0.99935 0.999857
1.00403 1.00495 0.999723 0.999358
0.956366 0.959415 0.998555 0.998264
1.00062 1 1.00109 0.99953
1.00827 0.999579 1.00923 0.999476
0.999128 0.999672 0.999995 0.999461
0.977542 0.974853 1.00901 0.993806
0.99645 0.991173 1.00778 0.997562
0.952579 0.976091 0.979837 0.995994
1.01759 1.01374 1.00438 0.999422
0.977084 1.01287 0.965971 0.998651
1.00103 0.99956 1.00179 0.999678
1.01539 1.01562 0.999948 0.999827
1.0224 1.01819 1.00454 0.999594
1.0061 0.993942 1.0123 0.999931
0.971086 1.00104 0.971865 0.998161
0.97851 0.977621 1.00678 0.994169
0.949677 0.971892 0.981153 0.995913
1.00557 0.996605 1.00922 0.999771
1.02183 1.02082 1.00111 0.999873
1.01226 1.01026 1.00247 0.999515
0.951125 0.980094 0.972734 0.997645
0.950109 0.976753 0.976598 0.996032
0.996484 0.989727 1.00686 0.999969
0.979289 0.972334 1.01356 0.993679
1.00027 1 1.00089 0.999377
1.00223 1 1.00268 0.99955
1.01006 0.99789 1.01262 0.999582
0.999437 1 1 0.999437
0.999729 1 1.00037 0.999363
1.00094 1 1.00154 0.999403
0.999367 1 1 0.999367
0.99993 1 1.00043 0.999497
1.00353 1 1.00414 0.999398
0.999387 1 1 0.999387
0.999385 1 1 0.999385
0.999633 1 1.00029 0.999342
1.00446 1 1.00532 0.999146
0.999344 1 1 0.999344
1.00056 1 1.00142 0.999137
1.00261 1 1.0037 0.998911
1.00016 1 1.00124 0.998921
0.999367 1 1.00012 0.999243
0.999434 1 1.00044 0.998999
0.999378 1 1.00017 0.99921
0.999358 1 1.00007 0.999284
0.999254 1 1.00009 0.999165
0.999455 1 1 0.999455
0.99933 1 1 0.99933
0.99945 1 1.0003 0.999153
0.999675 1 1 0.999675
0.999476 1 1 0.999476
0.999352 1 1 0.999352
0.999538 1 1 0.999538
0.999717 1 1 0.999717
0.99996 1 1 0.99996
0.999752 1 1 0.999752
0.999969 1 1 0.999969
1 1 1 1
0.999974 1 1 0.999974
1 1 1 1
1 1 1 1
1 1 1 1
1 1 1 1
1 1 1 1
0.999721 1 1 0.999721
0.999941 1 1 0.999941
0.999767 1 1 0.999767
1 1 1 1
0.999961 1 1 0.999961
0.999823 1 1 0.999823
1 1 1 1
1 1 1 1
0.99997 1 1 0.99997
1 1 1 1
1 1 1 1
1 1 1 1
1.01589 1.01607 1.00002 0.999811
1.00159 1.0026 0.999705 0.999287
0.949423 0.959189 0.991908 0.997893
0.999575 1 1 0.999575
0.999538 1 1 0.999538
0.999476 1 1 0.999476
1.02301 1.0176 1.00583 0.999486
1.01275 1.0099 1.0033 0.999523
1.00111 1.00167 1.0006 0.998833
1.0051 1.00334 1.00328 0.998478
0.970158 0.970307 1.00599 0.993896
0.94015 0.966249 0.977182 0.995709
0.970669 1.0028 0.969662 0.998242
0.987069 0.988073 1.00104 0.997948
0.971838 0.970869 1.00727 0.993774
0.951886 0.973881 0.980408 0.996947
0.974561 1.00869 0.967662 0.998452
0.980647 0.983586 0.999209 0.997801
0.980937 0.974262 1.01301 0.993919
0.945915 0.964067 0.984229 0.996893
0.971647 1.00036 0.972761 0.998496
0.999362 1 1 0.999362
0.999377 1 1 0.999377
0.999443 1 1 0.999443
0.999466 1 1 0.999466
0.999516 1 1 0.999516
0.999629 1 1 0.999629
1.00352 1.00738 0.997037 0.999136
1.00495 1 1.00563 0.999326
0.999324 1 1 0.999324
1.00144 1 1.00231 0.999133
0.999213 1 1 0.999213
0.999321 1 1 0.999321
0.999267 1 1 0.999267
0.998 1.00086 0.997611 0.999533
0.999255 1 1 0.999255
1.01091 0.99824 1.01322 0.99948
0.999323 1 1 0.999323
1.01199 0.993217 1.01915 0.999754
0.996378 0.996311 1.00044 0.999631
0.999287 1 1 0.999287
1.02201 1.02261 0.999502 0.999915
1.01674 1.01757 0.999306 0.999873
1.00356 1.00455 0.99965 0.999367
1.00112 0.99952 1.00196 0.999644
1.00042 0.994243 1.00628 0.999926
1.01526 1.01585 0.99959 0.999831
0.986328 0.981151 1.0092 0.996108
0.956708 0.973515 0.985597 0.997097
1.02192 1.01795 1.0042 0.999699
0.971018 1.00261 0.970191 0.998243
1.00477 0.997705 1.00729 0.999788
1.02203 1.02111 1.00102 0.999885
1.01283 1.01043 1.00285 0.999525
0.99608 0.987055 1.01058 0.998581
0.949463 0.979525 0.971648 0.997593
0.950238 0.974781 0.977856 0.996896
0.988249 0.977723 1.0168 0.994061
1.02008 0.994596 1.02574 0.99989
1.01633 1.01658 0.999943 0.999809
0.999343 1.00239 0.998134 0.998827
0.912487 0.94685 0.966469 0.997143
0.941398 0.967946 0.975698 0.996797
0.985437 0.977152 1.01462 0.99395
0.971001 0.981688 0.990938 0.998159
1.0012 1 1.00167 0.999534
1.0119 0.998649 1.01369 0.999586
1.0195 1 1.01998 0.999529
0.999365 1 1 0.999365
1.00005 1 1.00055 0.999497
1.00282 1 1.00341 0.999414
1.01228 1 1.01307 0.999217
0.999862 1 1.00054 0.999324
1.00439 1 1.00529 0.999108
1.00942 1 1.0106 0.99883
1.00008 1 1.00091 0.999171
1.00334 1 1.00444 0.998904
1.00354 1 1.00482 0.998725
0.99995 1 1.00119 0.998757
0.999685 1 1.00058 0.999106
1.00017 1 1.00127 0.998904
0.999451 1 1.00048 0.99897
0.999376 1 1.00008 0.999292
0.999419 1 1.00018 0.999236
0.999385 1 1 0.999385
0.999377 1 1.00008 0.9993
0.999227 1 1.00004 0.999187
0.999625 1 1 0.999625
0.999456 1 1 0.999456
0.999327 1 1 0.999327
0.999941 1 1 0.999941
0.999675 1 1 0.999675
0.999471 1 1 0.999471
0.999717 1 1 0.999717
0.999957 1 1 0.999957
1 1 1 1
0.999966 1 1 0.999966
1 1 1 1
1 1 1 1
1 1 1 1
1 1 1 1
1 1 1 1
0.999717 1 1 0.999717
0.99996 1 1 0.99996
0.999731 1 1 0.999731
1 1 1 1
0.999959 1 1 0.999959
0.999781 1 1 0.999781
1 1 1 1
1 1 1 1
0.999961 1 1 0.999961
1 1 1 1
1 1 1 1
1 1 1 1
1.02261 1.02056 1.00214 0.99987
1.01705 1.01637 1.00086 0.999816
1.00179 1.00244 1.00006 0.999294
0.999522 1 1 0.999522
0.999449 1 1 0.999449
0.999581 1 1 0.999581
0.999536 1 1 0.999536
0.999463 1 1 0.999463
0.999453 1 1 0.999453
0.999398 1 1 0.999398
1.01342 1.00936 1.00463 0.999397
1.02199 1.01718 1.00515 0.99959
1.01343 1.01006 1.0038 0.999534
0.978404 1.01317 0.966995 0.998648
0.986702 0.988527 1.00119 0.996968
0.976775 0.974386 1.00779 0.994707
0.953859 0.969905 0.98754 0.995865
0.980095 0.983801 0.998967 0.997263
0.97713 0.973315 1.0102 0.993787
0.952041 0.973413 0.981977 0.995995
0.967039 0.996073 0.972524 0.99828
0.972439 0.978679 0.995314 0.998303
0.973893 0.974932 1.0053 0.993671
0.969653 0.985496 0.986883 0.997002
0.949387 0.980838 0.969894 0.99798
0.999363 1 1 0.999363
0.99936 1 1 0.99936
0.999376 1 1 0.999376
0.999465 1 1 0.999465
1.00542 1.00293 1.00296 0.999525
1.00947 0.99686 1.01315 0.999505
0.999314 1 1 0.999314
0.999267 1 1 0.999267
0.999284 1 1 0.999284
0.999322 1 1 0.999322
0.999276 1 1 0.999276
1.00707 0.991866 1.01567 0.999666
0.997928 0.997804 1.00044 0.999686
0.999308 1 1 0.999308
1.01184 0.987499 1.02483 0.999826
1.00217 0.998839 1.00395 0.99939
1.01756 1.01796 0.999753 0.999854
1.02095 1.02158 0.999468 0.999921
1.01675 1.01755 0.999332 0.99989
1.00407 0.998756 1.00552 0.999805
0.997051 0.986573 1.0107 0.999925
1.02213 1.02131 1.00091 0.999896
0.978404 0.971972 1.01296 0.993743
0.95403 0.970664 0.986983 0.995826
1.01366 1.01061 1.00348 0.999536
0.945083 0.977288 0.969497 0.997472
1.02243 0.994097 1.02863 0.999873
1.01701 1.01671 1.00048 0.999814
1.00094 1.00254 0.999579 0.998831
0.97503 0.98461 0.990735 0.999531
0.905956 0.944587 0.962044 0.996943
0.941214 0.966353 0.977524 0.99638
0.988718 0.977785 1.01701 0.994273
1.00629 0.99065 1.01598 0.999802
1.00273 1.00342 1.00004 0.999278
0.944864 0.958726 0.98775 0.997764
0.91432 0.941147 0.974862 0.996546
0.979768 0.97399 1.0121 0.993909
0.96778 0.980595 0.989481 0.997423
1.01416 0.999704 1.01487 0.99959
1.01951 0.99935 1.02066 0.999523
1.0134 1 1.01399 0.999414
1.00217 1 1.00274 0.999429
1.01275 1 1.01351 0.999248
1.00918 1 1.01031 0.998879
1.00441 1 1.00535 0.99907
1.00944 1 1.01065 0.9988
1.00436 1 1.00574 0.998623
1.00399 1 1.0051 0.998898
1.00345 1 1.00475 0.9987
1.00159 1 1.00297 0.998623
0.998722 1 1 0.998722
0.999281 1 1.00036 0.998918
1.00018 1 1.00145 0.99873
0.999228 1 1 0.999228
0.999415 1 1.00029 0.999122
1.00012 1 1.00124 0.998887
0.999333 1 1 0.999333
0.999442 1 1.00016 0.999286
0.999441 1 1.00018 0.999262
0.999556 1 1 0.999556
0.999399 1 1 0.999399
0.999385 1 1.00007 0.999316
0.999901 1 1 0.999901
0.999626 1 1 0.999626
0.999457 1 1 0.999457
1 1 1 1
0.999937 1 1 0.999937
0.999675 1 1 0.999675
0.999953 1 1 0.999953
1 1 1 1
1 1 1 1
1 1 1 1
1 1 1 1
1 1 1 1
0.999521 1 1 0.999521
0.99969 1 1 0.99969
0.999948 1 1 0.999948
0.999717 1 1 0.999717
1 1 1 1
0.999963 1 1 0.999963
0.999742 1 1 0.999742
1 1 1 1
1 1 1 1
0.999978 1 1 0.999978
1 1 1 1
1 1 1 1
1 1 1 1
1.01614 1.01484 1.00146 0.99982
1.02288 1.02096 1.002 0.999882
1.01782 1.01671 1.00128 0.99982
0.999528 1 1 0.999528
0.99944 1 1 0.99944
0.999405 1 1 0.999405
0.999437 1 1 0.999437
0.999393 1 1 0.999393
0.999533 1 1 0.999533
0.999449 1 1 0.999449
0.999454 1 1 0.999454
0.999393 1 1 0.999393
0.9994 1 1 0.9994
0.998452 0.999113 1.00048 0.998859
1.01522 1.01086 1.00491 0.999407
1.02085 1.01677 1.00432 0.999694
0.962827 0.9926 0.971638 0.99832
0.955523 0.97269 0.985202 0.997106
0.974063 0.979885 0.997321 0.996728
0.978384 0.977422 1.00714 0.993887
0.973192 0.978517 0.997421 0.997129
0.981582 0.977971 1.00991 0.99384
0.955747 0.977765 0.980929 0.996485
0.94884 0.980578 0.969745 0.997822
0.985818 0.980024 1.00836 0.997568
0.976042 0.977903 1.00409 0.994034
0.938034 0.965667 0.975586 0.995694
0.916759 0.954708 0.963016 0.997129
0.999489 1 1 0.999489
0.999363 1 1 0.999363
0.999358 1 1 0.999358
1.00235 0.99023 1.01267 0.999577
0.998445 0.998294 1.00041 0.999746
0.99932 1 1 0.99932
0.999265 1 1 0.999265
0.999351 1 1.00003 0.999318
1.00289 0.999066 1.00444 0.999385
1.01046 0.988018 1.02288 0.999836
1.00376 1 1.00435 0.999404
1.00864 0.995099 1.01406 0.99956
1.00337 1.00405 1 0.999326
1.01764 1.01806 0.999712 0.999871
1.02024 1.02092 0.999408 0.999928
1.02451 0.993552 1.03131 0.999855
0.974461 0.984198 0.992266 0.997824
1.01745 1.01688 1.00075 0.999818
0.979615 0.975899 1.01117 0.992722
0.940012 0.965425 0.97781 0.995773
1.00219 1.00272 1.00064 0.998836
0.899433 0.942596 0.957327 0.996742
1.00706 0.991402 1.01598 0.99982
1.00284 1.00356 0.999993 0.999284
0.940191 0.955902 0.985885 0.997646
0.966541 0.981289 0.986853 0.998093
0.917054 0.945151 0.97449 0.995671
0.973765 0.972941 1.00758 0.993322
0.987402 0.991465 0.996417 0.999482
0.955188 0.959706 0.997105 0.998182
0.91174 0.937037 0.977289 0.995615
0.973522 0.971582 1.00822 0.99383
0.986841 0.988003 1.00068 0.998148
1.01898 0.9986 1.02091 0.999516
1.01573 1 1.01633 0.999408
0.993638 1 0.994494 0.99914
1.01303 1 1.01376 0.999279
1.00887 1 1.00997 0.998913
1.00194 1.00051 1.00272 0.998721
1.0093 1 1.01055 0.99877
1.00381 1 1.00519 0.998628
0.99873 1 1.00003 0.998696
1.00328 1 1.00462 0.998675
1.00106 1.00014 1.00229 0.998633
0.999802 1.00105 1 0.998757
0.998931 1.00008 1 0.998847
0.998825 1 1 0.998825
0.99873 1 1 0.99873
0.999083 1 1 0.999083
0.999457 1 1.00057 0.998889
1.00043 1 1.00173 0.998703
0.999327 1 1 0.999327
0.999249 1 1 0.999249
0.999182 1 1.00004 0.999139
0.999485 1 1 0.999485
0.999352 1 1.00001 0.999338
0.9995 1 1.00022 0.99928
0.999834 1 1 0.999834
0.999556 1 1 0.999556
0.999413 1 1 0.999413
1 1 1 1
0.999899 1 1 0.999899
0.999626 1 1 0.999626
1 1 1 1
1 1 1 1
0.999933 1 1 0.999933
1 1 1 1
1 1 1 1
1 1 1 1
0.999479 1 1 0.999479
0.999659 1 1 0.999659
0.999513 1 1 0.999513
0.999938 1 1 0.999938
0.99969 1 1 0.99969
1 1 1 1
0.999951 1 1 0.999951
0.999717 1 1 0.999717
1 1 1 1
1 1 1 1
0.999967 1 1 0.999967
1 1 1 1
1 1 1 1
1 1 1 1
1.00277 1.00334 1 0.999433
1.01623 1.01525 1.00115 0.999825
1.02304 1.02123 1.00188 0.999894
0.999403 1 1 0.999403
0.999534 1 1 0.999534
0.999431 1 1 0.999431
0.999446 1 1 0.999446
0.999414 1 1 0.999414
0.99939 1 1 0.99939
0.999354 1 1 0.999354
0.999375 1 1 0.999375
0.999454 1 1 0.999454
0.999388 1 1 0.999388
0.999397 1 1 0.999397
0.999395 1 1 0.999395
0.938171 0.956869 0.983027 0.997388
0.998059 0.998487 1.00071 0.998863
1.01683 1.01217 1.00519 0.999416
0.945005 0.979381 0.967223 0.997598
0.959378 0.980303 0.982521 0.996065
0.973251 0.974647 1.0049 0.993696
0.974897 0.976826 0.999793 0.998232
0.985852 0.97929 1.008 0.998716
0.908349 0.948019 0.9611 0.996936
0.981001 0.976734 1.01113 0.99331
0.936324 0.964921 0.973553 0.996724
0.984852 0.986235 0.999779 0.998819
0.975048 0.97284 1.00804 0.994272
0.913013 0.941006 0.97366 0.9965
1.00007 1 1.00041 0.999663
0.99949 1 1 0.99949
0.999363 1 1 0.999363
1.01113 0.990725 1.02076 0.99984
1.00444 1 1.00506 0.999381
0.999378 1 1.00005 0.999328
1.00405 1 1.00465 0.999408
1.00769 0.995655 1.01251 0.999579
1.0076 0.998598 1.00939 0.999628
0.953699 0.960076 0.995601 0.997747
1.00409 1.00464 0.999986 0.999467
1.01762 1.018 0.999735 0.999889
1.00749 0.991823 1.01596 0.99984
0.96794 0.983444 0.985631 0.998583
1.00311 1.00365 1.00017 0.999291
0.976795 0.974881 1.00719 0.994814
0.921465 0.948993 0.974338 0.996567
0.933486 0.955284 0.979679 0.99745
0.986447 0.991846 0.995039 0.999515
0.948595 0.958914 0.991322 0.997899
0.921843 0.938423 0.985696 0.996587
0.985662 0.984849 1.00381 0.997029
0.972604 0.972759 1.0059 0.993978
0.976878 0.998411 0.97896 0.999461
0.923107 0.94189 0.983363 0.996639
0.971097 0.97184 1.00502 0.99424
0.996066 0.995812 1.00341 0.996851
1.01895 1 1.01956 0.999402
0.9901 1 0.990924 0.999168
0.982156 1.00079 0.982323 0.99904
1.00879 1 1.00986 0.998947
1.00189 1.00069 1.00249 0.998722
0.999616 1.00127 0.999428 0.998914
1.00337 1 1.00474 0.998633
0.999131 1.00005 1.00037 0.99871
1.00236 1.00341 1 0.998962
1.00062 1.00028 1.0017 0.998643
0.999639 1.00088 1 0.998763
1.00034 1.00134 1 0.998999
0.999174 1.00014 1 0.999037
0.99888 1 1 0.99888
0.99893 1.00007 1 0.998865
0.998972 1 1 0.998972
0.998845 1 1 0.998845
0.998738 1 1 0.998738
0.999257 1 1 0.999257
0.999083 1 1 0.999083
0.9996 1 1.00074 0.998859
0.999446 1 1 0.999446
0.999325 1 1 0.999325
0.99927 1 1 0.99927
0.999753 1 1 0.999753
0.999487 1 1 0.999487
0.999394 1 1.00005 0.999343
1 1 1 1
0.999832 1 1 0.999832
0.999556 1 1 0.999556
1 1 1 1
1 1 1 1
0.999896 1 1 0.999896
1 1 1 1
1 1 1 1
1 1 1 1
0.999475 1 1 0.999475
0.999482 1 1 0.999482
0.999621 1 1 0.999621
0.999923 1 1 0.999923
0.999659 1 1 0.999659
0.999506 1 1 0.999506
1 1 1 1
0.99994 1 1 0.99994
0.99969 1 1 0.99969
1 1 1 1
1 1 1 1
0.999954 1 1 0.999954
1 1 1 1
1 1 1 1
1 1 1 1
0.953679 0.958474 0.997028 0.997963
1.00173 1.00229 1 0.999443
1.01642 1.01574 1.00084 0.999829
0.999395 1 1 0.999395
0.99939 1 1 0.99939
0.999356 1 1 0.999356
0.999456 1 1 0.999456
0.999424 1 1 0.999424
0.999387 1 1 0.999387
0.999375 1 1 0.999375
0.999354 1 1 0.999354
0.999306 1 1 0.999306
0.99939 1 1 0.99939
0.999395 1 1 0.999395
0.999397 1 1 0.999397
0.919662 0.938869 0.982882 0.996603
0.938894 0.95518 0.985541 0.997371
0.997422 0.997578 1.00098 0.998867
0.900123 0.941473 0.959203 0.996743
0.935484 0.962487 0.976152 0.995689
0.989425 0.982228 1.01232 0.995069
0.990465 0.978772 1.01451 0.997478
0.983718 0.984421 1.00166 0.997631
0.915752 0.9418 0.976583 0.995657
0.977253 0.974412 1.00838 0.99458
0.988076 0.985968 1.00435 0.997797
0.975105 0.974662 1.00641 0.994084
1.00757 1 1.00819 0.999383
0.999918 1 1.00027 0.999652
0.999492 1 1 0.999492
1.00446 0.994031 1.0109 0.999597
1.00435 1 1.00494 0.999412
1.00779 0.999051 1.00918 0.999571
1.00132 1.00067 1.00146 0.999185
0.920713 0.943257 0.97969 0.996336
0.95414 0.958901 0.997026 0.998003
1.00489 1.00537 0.999918 0.999607
0.984366 0.991868 0.992879 0.999554
0.986255 0.985108 1.00321 0.997959
0.949735 0.959092 0.992316 0.997913
0.975307 0.972391 1.00917 0.993884
0.918613 0.939822 0.981656 0.995697
0.980434 0.999016 0.982026 0.999362
0.923452 0.941811 0.984358 0.996088
0.971256 0.971289 1.00602 0.993981
0.995769 0.991769 1.00618 0.997865
0.997797 1.0052 0.993395 0.999233
0.958627 0.968197 0.996651 0.993442
0.995223 0.996938 0.999968 0.998312
0.986549 1 0.987342 0.999197
0.98381 1.00088 0.983908 0.999022
0.985213 1.00198 0.984218 0.999037
1.00157 1.00082 1.00203 0.998723
0.999417 1.00166 0.998846 0.99891
1.00354 1.00648 0.99786 0.999214
0.999559 1.00012 1.00071 0.998723
1.00283 1.00388 1 0.998961
1.00486 1.00568 1 0.999186
0.999481 1.00071 1 0.998769
1.00026 1.00127 1 0.998998
1.0001 1.00095 1 0.999153
0.999128 1 1 0.999127
0.9991 1.00004 1 0.999058
0.999018 1 1 0.999018
0.998962 1 1 0.998962
0.998883 1 1 0.998883
0.998883 1 1 0.998883
0.999121 1 1 0.999121
0.998995 1 1 0.998995
0.998865 1 1 0.998865
0.999399 1 1 0.999399
0.999254 1 1 0.999254
0.999083 1 1 0.999083
0.999689 1 1 0.999689
0.999447 1 1 0.999447
0.999323 1 1 0.999323
0.999999 1 1 0.999999
0.999752 1 1 0.999752
0.999489 1 1 0.999489
1 1 1 1
1 1 1 1
0.999831 1 1 0.999831
1 1 1 1
1 1 1 1
1 1 1 1
0.999441 1 1 0.999441
0.999463 1 1 0.999463
0.999583 1 1 0.999583
0.999484 1 1 0.999484
0.999621 1 1 0.999621
0.999894 1 1 0.999894
1 1 1 1
0.999925 1 1 0.999925
0.999659 1 1 0.999659
1 1 1 1
1 1 1 1
0.999942 1 1 0.999942
1 1 1 1
1 1 1 1
1 1 1 1
0.929972 0.942387 0.990842 0.995947
0.951308 0.958882 0.99431 0.997778
1.00047 1.00102 1 0.999453
0.999387 1 1 0.999387
0.999346 1 1 0.999346
0.999399 1 1 0.999399
0.999367 1 1 0.999367
0.999339 1 1 0.999339
0.999375 1 1 0.999375
0.999354 1 1 0.999354
0.999311 1 1 0.999311
0.999302 1 1 0.999302
0.999306 1 1 0.999306
0.999355 1 1.00026 0.999098
0.999393 1 1 0.999393
0.999399 1 1 0.999399
0.970258 0.97684 0.999983 0.993279
0.925434 0.940855 0.987333 0.996229
0.939529 0.955843 0.985628 0.997265
0.916538 0.941418 0.976934 0.996558
0.9769 0.972689 1.01142 0.992988
0.985553 0.98433 1.00238 0.99887
0.990823 0.989099 1.00332 0.998431
0.974614 0.97604 1.00425 0.994312
0.990145 0.998253 0.994196 0.997668
1.00579 1.00132 1.0057 0.99878
1.00603 1 1.00666 0.999371
0.99964 1 1 0.99964
1.00755 1 1.00804 0.999517
1.00037 1.00101 1.00017 0.999188
0.951098 0.966951 0.989279 0.994265
0.924903 0.94324 0.984684 0.995812
0.95524 0.957861 0.999 0.998262
0.98429 1.00013 0.984891 0.99926
0.997062 0.992441 1.0078 0.996878
0.92579 0.94144 0.987522 0.995802
0.973048 0.971845 1.00707 0.994212
0.994361 1.00588 0.989319 0.999218
0.961382 0.969747 0.996951 0.994406
0.997711 0.999082 1.00136 0.997267
1.00501 1.00823 0.997891 0.998905
0.996928 0.996465 1.00159 0.998875
0.984712 1.00098 0.984723 0.999005
0.988034 1.00179 0.987246 0.999009
1.00472 1.01319 0.992573 0.999066
0.999401 1.00199 0.998505 0.998905
1.00238 1.0052 0.997989 0.999207
1.00833 1.01099 0.998111 0.999254
1.00327 1.00432 1 0.99896
1.00496 1.0058 0.999994 0.999173
1.00323 1.00406 0.999987 0.999188
1.0002 1.00121 1 0.998997
1.00002 1.00088 1 0.999143
0.999635 1.00051 1 0.999129
0.999157 1 1 0.999153
0.999066 1 1 0.999066
0.999078 1 1 0.999078
0.999014 1 1 0.999014
0.999004 1 1 0.999004
0.99905 1 1 0.99905
0.998957 1 1 0.998957
0.998886 1 1 0.998886
0.999315 1 1 0.999315
0.999137 1 1 0.999137
0.999017 1 1 0.999017
0.999643 1 1 0.999643
0.999397 1 1 0.999397
0.99925 1 1 0.99925
0.999991 1 1 0.999991
0.99969 1 1 0.99969
0.999448 1 1 0.999448
1 1 1 1
0.999997 1 1 0.999997
0.999752 1 1 0.999752
1 1 1 1
1 1 1 1
1 1 1 1
0.999389 1 1 0.999389
0.999441 1 1 0.999441
0.999524 1 1 0.999524
0.999452 1 1 0.999452
0.999571 1 1 0.999571
0.99984 1 1 0.99984
0.99962 1 1 0.99962
0.999895 1 1 0.999895
1 1 1 1
1 1 1 1
1 1 1 1
0.999926 1 1 0.999926
1 1 1 1
1 1 1 1
1 1 1 1
0.965243 0.972192 0.998537 0.994306
0.92509 0.945348 0.982033 0.996475
0.955096 0.959756 0.997265 0.997873
0.999337 1 1 0.999337
0.999409 1 1 0.999409
0.999345 1 1 0.999345
0.999368 1 1 0.999368
0.999302 1 1 0.999302
0.999345 1 1 0.999345
0.999316 1 1 0.999316
0.999277 1 1 0.999277
0.999296 1 1 0.999296
0.999235 1 1 0.999235
0.999405 1.00028 1 0.999128
0.998914 1.00012 1.00011 0.998676
0.99918 1 1.00006 0.999118
0.999396 1 1 0.999396
0.988112 0.994072 0.996107 0.997889
0.968807 0.973894 1.00071 0.994071
0.919091 0.941349 0.980589 0.995682
0.974334 0.974208 1.00621 0.993956
0.986234 0.988582 0.9986 0.999023
0.99244 0.997044 0.996668 0.99871
0.99683 1.00479 0.99313 0.998942
1.00291 1.00067 1.00337 0.998866
1.00498 1 1.00563 0.999358
0.998236 1.00112 0.997932 0.999185
0.98384 0.986386 0.999858 0.997561
0.958459 0.9684 0.995125 0.994583
0.923179 0.94314 0.982134 0.996642
0.992772 1.00649 0.987154 0.999203
1.00344 1.00051 1.00485 0.998094
0.961548 0.969501 0.996374 0.995407
0.999443 1.00661 0.993947 0.998924
0.994565 0.996523 0.999582 0.998452
1.00754 1.01776 0.991097 0.998857
1.01278 1.01344 1.00054 0.998819
0.991133 1.00165 0.990511 0.998981
1.00525 1.01282 0.99345 0.999064
1.01148 1.01531 0.997177 0.999049
1.00131 1.00409 0.998037 0.9992
1.00873 1.01101 0.998493 0.999246
1.00594 1.00737 0.999512 0.999062
1.00505 1.0059 1 0.99916
1.00256 1.00339 1 0.999178
1.00074 1.00173 1 0.999014
0.999905 1.00077 1 0.999133
0.999522 1.00038 1 0.99914
0.999013 1 1 0.999013
0.999178 1 1 0.999178
0.999079 1 1 0.999079
0.999004 1 1 0.999004
0.999009 1 1 0.999009
0.999 1 1 0.999
0.999051 1 1 0.999051
0.999211 1 1 0.999211
0.999065 1 1 0.999065
0.998952 1 1 0.998952
0.99958 1 1 0.99958
0.999314 1 1 0.999314
0.999152 1 1 0.999152
0.999971 1 1 0.999971
0.999643 1 1 0.999643
0.999394 1 1 0.999394
1 1 1 1
0.999986 1 1 0.999986
0.999691 1 1 0.999691
1 1 1 1
0.999995 1 1 0.999995
1 1 1 1
0.999333 1 1 0.999333
0.999398 1 1 0.999398
0.999479 1 1 0.999479
0.999442 1 1 0.999442
0.999518 1 1 0.999518
0.999772 1 1 0.999772
0.999559 1 1 0.999559
0.999841 1 1 0.999841
1 1 1 1
0.999896 1 1 0.999896
1 1 1 1
1 1 1 1
1 1 1 1
1 1 1 1
1 1 1 1
0.981414 0.986272 0.997171 0.997898
0.958582 0.969223 0.994794 0.994197
0.923188 0.945655 0.980443 0.995715
0.9992 1 1 0.9992
0.99935 1 1 0.99935
0.99937 1 1 0.99937
0.999342 1 1 0.999342
0.999297 1 1 0.999297
0.99937 1 1 0.99937
0.999253 1 1 0.999253
0.999286 1 1 0.999286
0.999259 1 1 0.999259
0.999286 1.00013 1 0.999156
0.999193 1.00038 1 0.998816
1.00367 1.00529 1 0.998396
0.998899 1.0001 1.00013 0.998673
0.999138 1 1 0.999138
1.0005 1.00569 0.995684 0.999157
0.989218 0.995381 0.996377 0.997422
0.971583 0.975597 1.00093 0.994965
0.994196 0.997747 0.998667 0.997771
1.00164 1.00637 0.996345 0.998952
1.00146 1.0002 1.00231 0.998954
1.00462 1.00556 1.00002 0.999046
0.984753 0.985341 1.00103 0.998379
0.95624 0.968588 0.992909 0.994302
0.993018 1.00481 0.989314 0.998941
0.993194 0.996322 0.998878 0.99798
1.00874 1.01806 0.991989 0.998844
1.01109 1.01169 1.00049 0.998912
1.01924 1.02124 0.999254 0.998795
1.01131 1.01263 0.999987 0.998714
1.00573 1.01226 0.994479 0.999061
1.01293 1.01631 0.997607 0.999058
1.00532 1.00649 0.999925 0.998913
1.00921 1.0111 0.998887 0.999239
1.00678 1.00803 0.9997 0.99906
1.00108 1.00222 1 0.998863
1.00194 1.00277 1 0.999168
1.00078 1.00175 1 0.999036
0.999171 1.00029 1 0.998879
0.999416 1.00027 1 0.99915
0.999054 1.00004 1 0.999012
0.998939 1 1 0.998939
0.999093 1 1 0.999093
0.999008 1 1 0.999008
0.999007 1 1 0.999007
0.998996 1 1 0.998996
0.999042 1 1 0.999042
0.999166 1 1 0.999166
0.999505 1 1 0.999505
0.999227 1 1 0.999227
0.99908 1 1 0.99908
0.999942 1 1 0.999942
0.999579 1 1 0.999579
0.999313 1 1 0.999313
1 1 1 1
0.999964 1 1 0.999964
0.999642 1 1 0.999642
1 1 1 1
0.999981 1 1 0.999981
1 1 1 1
0.999239 1 1 0.999239
0.999335 1 1 0.999335
0.999434 1 1 0.999434
0.999406 1 1 0.999406
0.999484 1 1 0.999484
0.99971 1 1 0.99971
0.999512 1 1 0.999512
0.999772 1 1 0.999772
1 1 1 1
0.999842 1 1 0.999842
1 1 1 1
1 1 1 1
1 1 1 1
1 1 1 1
1 1 1 1
1.00495 1.00861 0.997094 0.999277
0.981292 0.987573 0.996632 0.996998
0.962836 0.96962 0.998599 0.994396
0.999239 1 1 0.999239
0.999009 1 1 0.999009
0.999214 1 1 0.999214
0.999339 1 1 0.999339
0.999291 1 1 0.999291
0.999348 1 1 0.999348
1.00032 1.0014 1 0.998918
0.999282 1 1 0.999282
0.999183 1 1 0.999183
0.999496 1.00066 1 0.998839
1.00191 1.00345 1 0.998467
1.00833 1.01016 0.999519 0.998667
1.00253 1.00413 1 0.998409
0.998749 1.00008 1 0.99867
1.00346 1.00837 0.995938 0.999195
0.987525 0.994909 0.99571 0.996855
1.00482 1.00761 0.998265 0.998963
1.00725 1.00814 1 0.999115
1.00404 1.00458 1.00037 0.99909
0.981896 0.98512 0.999395 0.99733
1.01011 1.01872 0.99271 0.998832
1.00882 1.0098 1.00003 0.999004
1.01891 1.02128 0.998849 0.998823
1.01262 1.01389 1 0.998745
1.00814 1.00937 0.999983 0.998797
1.0096 1.01069 1 0.998922
1.01426 1.01737 0.997877 0.999066
1.00509 1.00643 0.999757 0.998919
1.00323 1.00447 1 0.998771
1.00744 1.00853 0.999865 0.999058
1.00101 1.00214 1 0.998873
1.00064 1.00187 1 0.998769
1.0008 1.00175 1 0.999058
0.999232 1.00036 1 0.998877
0.998844 1.00001 1 0.998833
0.999096 1.00008 1 0.999012
0.998938 1 1 0.998938
0.998941 1 1 0.998941
0.999013 1 1 0.999013
0.999008 1 1 0.999008
0.999116 1 1 0.999116
0.999032 1 1 0.999032
0.999162 1 1 0.999162
0.999441 1 1 0.999441
0.999908 1 1 0.999908
0.999505 1 1 0.999505
0.999243 1 1 0.999243
1 1 1 1
0.999934 1 1 0.999934
0.999578 1 1 0.999578
1 1 1 1
0.999957 1 1 0.999957
1 1 1 1
0.999083 1 1 0.999083
0.999222 1 1 0.999222
0.999353 1 1 0.999353
0.999337 1 1 0.999337
0.999435 1 1 0.999435
0.999657 1 1 0.999657
0.99949 1 1 0.99949
0.99971 1 1 0.99971
0.999991 1 1 0.999991
0.999772 1 1 0.999772
1 1 1 1
1 1 1 1
1 1 1 1
1 1 1 1
1 1 1 1
1.00641 1.00804 0.999381 0.998995
1.00406 1.00779 0.997079 0.999215
0.980886 0.986214 0.996902 0.997688
1.00037 1.00141 1 0.998955
0.99932 1 1 0.99932
0.998971 1.00014 1 0.998836
0.998998 1 1 0.998998
0.999228 1 1 0.999228
1.00463 1.00605 1 0.998583
0.999325 1 1 0.999325
1.00024 1.00134 1 0.9989
1.00488 1.00632 1 0.998568
0.999742 1.00088 1 0.998861
1.00273 1.00429 1 0.998441
1.0062 1.00789 0.999658 0.998664
1.00083 1.00242 1 0.998422
1.00572 1.01027 0.996265 0.999233
1.00873 1.0097 1 0.999042
1.00736 1.00825 1 0.999111
1.0039 1.0036 1.00116 0.999133
1.01882 1.02151 0.998514 0.99885
1.01413 1.01537 1 0.998775
1.00859 1.00983 0.999968 0.998799
1.00989 1.01097 1 0.998928
1.00749 1.00865 1 0.998852
1.00499 1.00642 0.99965 0.998924
1.00303 1.00426 1 0.998776
1.00379 1.00506 1 0.998731
1.00099 1.00211 1 0.998884
1.00032 1.00156 1 0.998765
0.999226 1.00048 1 0.998742
0.999287 1.00041 1 0.998875
0.998891 1.00006 1 0.998831
0.998854 1 1 0.998854
0.998937 1 1 0.998937
0.998941 1 1 0.998941
0.99904 1 1 0.99904
0.999009 1 1 0.999009
0.999116 1 1 0.999116
0.999378 1 1 0.999378
0.999157 1 1 0.999157
0.99944 1 1 0.99944
0.999882 1 1 0.999882
0.999993 1 1 0.999993
0.999902 1 1 0.999902
0.999505 1 1 0.999505
1 1 1 1
0.999925 1 1 0.999925
1 1 1 1
0.999187 1.00032 1 0.998871
0.998986 1 1 0.998986
0.999067 1 1 0.999067
0.999266 1 1 0.999266
0.999206 1 1 0.999206
0.999356 1 1 0.999356
0.999607 1 1 0.999607
0.999436 1 1 0.999436
0.999658 1 1 0.999658
0.999968 1 1 0.999968
0.999709 1 1 0.999709
0.999994 1 1 0.999994
1 1 1 1
1 1 1 1
1 1 1 1
1 1 1 1
1.007 1.00815 1 0.998856
1.00865 1.01008 0.999536 0.999041
1.0042 1.00801 0.997069 0.999152
1.00209 1.00342 1 0.998678
0.999833 1.00082 1 0.999015
0.999399 1 1 0.999399
0.9991 1.00024 1 0.99886
0.998988 1 1 0.998988
1.00944 1.01093 1 0.998529
1.00431 1.00576 1 0.998555
1.0002 1.00132 1 0.998882
1.00557 1.00702 1 0.99856
1.00403 1.00562 1 0.998416
1.0056 1.00722 0.999728 0.998661
1.01055 1.01162 1 0.998937
1.00827 1.00924 1 0.999034
1.00755 1.00845 1 0.999108
1.00886 1.01013 0.999934 0.998801
1.01031 1.01139 1 0.998935
1.00817 1.00932 1 0.99886
1.008 1.00923 1 0.998777
1.00285 1.00408 1 0.998781
1.00317 1.00445 1 0.998728
1.00126 1.00256 1 0.998712
1.00001 1.00125 1 0.99876
0.999538 1.0008 1 0.998742
0.998789 1.00001 1 0.998781
0.998937 1.00011 1 0.998828
0.998853 1 1 0.998853
0.99896 1 1 0.99896
0.998941 1 1 0.998941
0.99904 1 1 0.99904
0.999304 1 1 0.999304
0.999117 1 1 0.999117
0.999377 1 1 0.999377
0.999864 1 1 0.999864
0.99944 1 1 0.99944
0.999877 1 1 0.999877
0.99999 1 1 0.99999
0.999996 1 1 0.999996
0.999897 1 1 0.999897
1 1 1 1
1.0002 1.0015 1 0.998703
0.998969 1 1 0.998969
0.999142 1.00018 1 0.998958
0.999162 1 1 0.999162
0.998984 1 1 0.998984
0.99905 1 1 0.99905
0.999267 1 1 0.999267
0.999543 1 1 0.999543
0.999359 1 1 0.999359
0.999608 1 1 0.999608
0.99994 1 1 0.99994
0.999658 1 1 0.999658
0.999975 1 1 0.999975
1 1 1 1
0.999997 1 1 0.999997
1 1 1 1
1 1 1 1
1.01065 1.01193 1 0.99874
1.00678 1.00794 1 0.998854
1.00984 1.011 0.99977 0.999086
1.00627 1.00771 1 0.998575
1.00189 1.00321 1 0.998681
0.999331 1.00026 1 0.999075
0.999241 1.00036 1 0.998884
1.00921 1.0107 1 0.998528
1.00399 1.00547 1 0.998527
1.00549 1.00694 1 0.998553
1.01005 1.01124 1 0.998825
1.01048 1.01158 1 0.99891
1.0075 1.00849 1 0.999026
1.00909 1.01036 1 0.998743
1.00872 1.00987 1 0.998867
1.00792 1.00916 1 0.998777
1.00451 1.00579 1 0.998731
1.00255 1.00383 1 0.998725
1.00165 1.00294 1 0.998713
0.999129 1.00039 1 0.998737
0.999838 1.0011 1 0.998741
0.998867 1.00009 1 0.998781
0.998898 1 1 0.998898
0.998852 1 1 0.998852
0.99896 1 1 0.99896
0.999231 1 1 0.999231
0.99904 1 1 0.99904
0.999302 1 1 0.999302
0.999845 1 1 0.999845
0.999376 1 1 0.999376
0.999859 1 1 0.999859
0.999987 1 1 0.999987
0.999872 1 1 0.999872
0.99999 1 1 0.99999
1 1 1 1
1.00143 1.00282 1 0.998606
0.998845 1.00005 1 0.998796
0.999764 1.00103 1 0.998733
0.999095 1 1 0.999095
0.998968 1 1 0.998968
0.999044 1 1 0.999044
0.999442 1 1 0.999442
0.99916 1 1 0.99916
0.998982 1 1 0.998982
0.999269 1 1 0.999269
0.999544 1 1 0.999544
0.999909 1 1 0.999909
0.999609 1 1 0.999609
0.999948 1 1 0.999948
1 1 1 1
0.999983 1 1 0.999983
1 1 1 1
1 1 1 1
1.0088 1.01011 1 0.998698
1.01071 1.012 1 0.998721
1.00708 1.00824 1 0.998852
1.00633 1.00776 1 0.998575
1.00163 1.00295 1 0.998683
1.00896 1.01045 1 0.998527
1.00895 1.01022 1 0.99874
1.01028 1.01147 1 0.998824
1.01058 1.01171 1 0.998884
1.00916 1.01042 1 0.998747
1.00637 1.00767 1 0.998707
1.00785 1.00909 1 0.998777
1.00467 1.00595 1 0.998728
1.00017 1.00144 1 0.998727
1.00204 1.00333 1 0.998715
0.999411 1.00067 1 0.998739
0.998848 1 1 0.998848
0.998956 1.00018 1 0.998781
0.998898 1 1 0.998898
0.999181 1 1 0.999181
0.998959 1 1 0.998959
0.99923 1 1 0.99923
0.999824 1 1 0.999824
0.9993 1 1 0.9993
0.99984 1 1 0.99984
0.999982 1 1 0.999982
0.999855 1 1 0.999855
0.999989 1 1 0.999989
0.999991 1 1 0.999991
1.00361 1.00494 1 0.998684
0.99886 1.00018 1 0.998682
1.00102 1.00243 1 0.998599
0.998955 1 1 0.998955
0.998843 1.00004 1 0.998807
0.999404 1.00064 1 0.998764
0.999336 1 1 0.999336
0.999067 1 1 0.999067
0.998967 1 1 0.998967
0.999869 1 1 0.999869
0.999444 1 1 0.999444
0.999159 1 1 0.999159
0.999545 1 1 0.999545
0.999917 1 1 0.999917
1 1 1 1
0.999956 1 1 0.999956
1 1 1 1
1 1 1 1
1.00748 1.0088 1 0.998687
1.00885 1.01017 1 0.998694
1.01071 1.01202 1 0.998702
1.00643 1.00786 1 0.998575
1.00683 1.00816 1 0.998681
1.00927 1.01054 1 0.998745
1.01051 1.0117 1 0.998822
1.0092 1.01047 1 0.99875
1.00633 1.00763 1 0.998708
1.00124 1.00252 1 0.998717
1.00483 1.00611 1 0.998725
1.0004 1.00167 1 0.998732
0.99883 1.00003 1 0.998804
0.999687 1.00095 1 0.99874
0.998848 1 1 0.998848
0.99914 1 1 0.99914
0.998897 1 1 0.998897
0.99918 1 1 0.99918
0.999794 1 1 0.999794
0.999228 1 1 0.999228
0.999815 1 1 0.999815
1 1 1 1
0.999835 1 1 0.999835
0.999984 1 1 0.999984
0.999989 1 1 0.999989
1.00369 1.00499 1 0.998706
0.999248 1.00054 1 0.998707
1.00366 1.00498 1 0.998687
0.998823 1 1 0.998823
0.998824 1.00013 1 0.998696
1.00058 1.00199 1 0.998593
0.999195 1 1 0.999195
0.998954 1 1 0.998954
0.998842 1.00002 1 0.998818
0.999827 1 1 0.999827
0.999312 1 1 0.999312
0.999039 1 1 0.999039
1 1 1 1
0.999877 1 1 0.999877
0.999446 1 1 0.999446
0.999924 1 1 0.999924
1 1 1 1
1 1 1 1
1.00589 1.00721 1 0.998683
1.00789 1.0092 1 0.998696
1.00887 1.0102 1 0.99869
1.00189 1.00322 1 0.998673
1.00648 1.00781 1 0.998678
1.00961 1.01087 1 0.998751
1.00631 1.00761 1 0.99871
1.00126 1.00255 1 0.998718
0.998933 1.00012 1 0.998809
1.00063 1.0019 1 0.998737
0.998858 1.00003 1 0.998828
0.999051 1 1 0.999051
0.998849 1 1 0.998849
0.99914 1 1 0.99914
0.999767 1 1 0.999767
0.999179 1 1 0.999179
0.999792 1 1 0.999792
1 1 1 1
0.999805 1 1 0.999805
0.999989 1 1 0.999989
0.999986 1 1 0.999986
1.00219 1.00348 1 0.998712
0.999236 1.00049 1 0.998742
1.00368 1.00498 1 0.998707
0.998831 1 1 0.998831
0.999403 1.00069 1 0.998711
1.00372 1.00503 1 0.998691
0.999115 1 1 0.999115
0.998853 1 1 0.998853
0.998787 1.00008 1 0.998709
0.999797 1 1 0.999797
0.999184 1 1 0.999184
0.998953 1 1 0.998953
1 1 1 1
0.999834 1 1 0.999834
0.999287 1 1 0.999287
1 1 1 1
0.999886 1 1 0.999886
1 1 1 1
1.00169 1.00301 1 0.99869
1.00554 1.00686 1 0.998684
1.00831 1.00962 1 0.998704
0.998845 1.00007 1 0.99877
1.00182 1.00314 1 0.998677
1.00615 1.00748 1 0.998676
1.00129 1.00257 1 0.998718
0.998926 1.00012 1 0.998809
0.999002 1 1 0.999002
0.998884 1.00003 1 0.998852
0.999074 1 1 0.999074
0.99972 1 1 0.99972
0.99914 1 1 0.99914
0.999764 1 1 0.999764
1 1 1 1
0.99979 1 1 0.99979
1 1 1 1
0.999981 1 1 0.999981
0.999499 1.00075 1 0.998749
1.00206 1.00336 1 0.998711
0.998831 1 1 0.998831
0.999321 1.00058 1 0.998742
1.00366 1.00496 1 0.998708
0.999118 1 1 0.999118
0.998829 1 1 0.998829
0.999554 1.00084 1 0.998715
0.999776 1 1 0.999776
0.999131 1 1 0.999131
0.998883 1 1 0.998883
1 1 1 1
0.999802 1 1 0.999802
0.999173 1 1 0.999173
1 1 1 1
0.999842 1 1 0.999842
1 1 1 1
0.998806 1.00001 1 0.998793
1.00153 1.00285 1 0.998692
1.00514 1.00646 1 0.998685
0.998978 1 1 0.998978
0.99884 1.00007 1 0.99877
1.00171 1.00304 1 0.99868
0.998919 1.00011 1 0.998809
0.999008 1 1 0.999008
0.999672 1 1 0.999672
0.999097 1 1 0.999097
0.999717 1 1 0.999717
1 1 1 1
0.999762 1 1 0.999762
1 1 1 1
1 1 1 1
0.998817 1 1 0.998817
0.999445 1.0007 1 0.998743
1.00195 1.00324 1 0.998711
0.999097 1 1 0.999097
0.99883 1 1 0.99883
0.99941 1.00067 1 0.998742
0.999754 1 1 0.999754
0.999117 1 1 0.999117
0.998827 1 1 0.998827
1 1 1 1
0.999779 1 1 0.999779
0.999147 1 1 0.999147
1 1 1 1
0.999806 1 1 0.999806
1 1 1 1
0.999026 1 1 0.999026
0.998781 1.00001 1 0.99877
1.0014 1.00271 1 0.998695
0.999651 1 1 0.999651
0.99898 1 1 0.99898
0.998836 1.00007 1 0.99877
0.999013 1 1 0.999013
0.99967 1 1 0.99967
1 1 1 1
0.999714 1 1 0.999714
1 1 1 1
1 1 1 1
0.999064 1 1 0.999064
0.998808 1 1 0.998808
0.999391 1.00065 1 0.998737
0.999753 1 1 0.999753
0.999096 1 1 0.999096
0.998829 1 1 0.998829
1 1 1 1
0.999755 1 1 0.999755
0.999116 1 1 0.999116
1 1 1 1
0.999782 1 1 0.999782
1 1 1 1
0.999649 1 1 0.999649
0.999009 1 1 0.999009
0.998758 1.00001 1 0.998747
1 1 1 1
0.99965 1 1 0.99965
0.998982 1 1 0.998982
0.999668 1 1 0.999668
1 1 1 1
1 1 1 1
0.999714 1 1 0.999714
0.999064 1 1 0.999064
0.998798 1 1 0.998798
1 1 1 1
0.999727 1 1 0.999727
0.999095 1 1 0.999095
1 1 1 1
0.999756 1 1 0.999756
1 1 1 1
0.999922 1 1 0.999922
0.999677 1 1 0.999677
0.998992 1 1 0.998992
1 1 1 1
0.99965 1 1 0.99965
1 1 1 1
0.999937 1 1 0.999937
0.999705 1 1 0.999705
0.999064 1 1 0.999064
0.999974 1 1 0.999974
0.999725 1 1 0.999725
1 1 1 1
1 1 1 1
0.999659 1 1 0.999659
1 1 1 1
0.999965 1 1 0.999965
0.999689 1 1 0.999689
1 1 1 1
1 1 1 1
1 1 1 1

VECTORS lamdaE float
0.999167 1.00028 0.996334
0.99927 0.999602 0.998496
0.999052 1.00042 0.996425
0.999609 0.99995 0.996088
0.999305 1.00022 0.996236
0.999169 1.00002 0.996504
1.00007 1.00076 0.994024
0.999277 0.999477 0.998542
0.999208 1.00036 0.998406
0.998995 1.00006 0.998575
0.999384 0.999137 0.997047
0.999943 1.00068 0.994048
0.999795 1.00002 0.995676
0.999476 0.99989 0.996121
0.99892 1.00063 0.996505
0.999491 0.999935 0.996194
0.999069 1.00016 0.996581
0.999165 1.00034 0.996336
1.00016 1.0007 0.994013
0.99974 1 0.99807
0.99964 0.999961 0.996004
0.999499 1.00005 0.996142
1.00084 0.999912 0.993587
1.00041 1.00043 0.993796
0.999288 0.999485 0.996804
0.999762 1.00094 0.99435
1.00178 1.00102 0.990784
0.999275 0.999347 0.998597
0.999291 1.00024 0.997254
0.999097 1.00007 0.997523
0.99935 0.99897 0.998688
0.999856 1.00078 0.994055
0.999568 1.00004 0.996006
0.999278 1.00044 0.996281
1.00073 1.00034 0.994007
0.999333 0.998391 0.998975
1.00016 1.00068 0.994599
0.999787 1.00048 0.9945
1.00082 1.00186 0.991301
0.999431 0.997834 0.99914
0.999788 1 0.998027
0.999571 0.999963 0.99713
0.99984 1 0.997983
0.999508 0.999984 0.996024
1.0012 1.00004 0.992264
0.999489 1.00001 0.998343
1.00109 0.99995 0.993721
0.999373 0.999905 0.996299
0.999033 1.00049 0.996424
0.998959 1.00032 0.996673
1.00024 1.00058 0.994007
0.999686 1.00001 0.996975
0.999525 0.999933 0.996126
0.999205 0.999552 0.99688
0.999367 1.0001 0.996246
1.00089 0.999885 0.993543
0.999845 1.00087 0.994348
1.00049 1.00037 0.993775
1.00184 1.00106 0.990698
0.999784 1.00001 0.998027
0.999714 0.999999 0.995825
1.00108 1.00001 0.993606
1.00085 0.999936 0.993518
1.00071 1.00009 0.993627
1.00299 0.999791 0.989817
1.00238 1.0004 0.990039
0.999476 0.998765 0.997189
0.999482 1.00082 0.994912
1.00106 1.00162 0.991418
1.00271 1.00109 0.988525
0.999354 1.00021 0.998284
0.999353 0.998788 0.998789
0.999184 0.999841 0.99847
0.999777 1.00088 0.994061
0.999596 1.0001 0.998203
0.999264 1.00026 0.998335
1.00061 1.00034 0.993016
0.999369 0.998473 0.998221
1.00001 1.00079 0.993724
0.999725 1.00047 0.994999
1.00081 1.00183 0.991294
0.999428 0.998124 0.99902
0.999609 0.99903 0.9963
1.00096 0.999992 0.992769
1.0004 1.0006 0.993274
1.00264 1.0004 0.989305
0.999641 0.999961 0.99598
1.00134 1.00138 0.990802
1.0004 1.00219 0.991759
1.00138 1.00213 0.989876
0.999472 0.997524 0.999225
0.999415 0.997781 0.999171
0.99966 0.999978 0.998174
0.999755 1 0.99806
0.999832 1 0.997994
0.999616 0.999994 0.997042
1.0012 1.00003 0.992873
0.999558 0.999968 0.997162
1.00105 0.999973 0.993221
0.999847 0.999999 0.997985
1.00124 0.999988 0.992212
1.00115 1.00004 0.993555
1.00341 0.999849 0.988427
1.00104 0.999908 0.993808
1.00321 0.999832 0.988836
0.999764 1.00002 0.995747
0.999406 0.999878 0.99625
0.99912 0.999589 0.996972
0.999238 1.00016 0.996344
1.00094 0.999876 0.9935
1.00056 1.00029 0.99376
0.999933 1.00077 0.99434
1.00191 1.00111 0.990612
0.999819 1 0.998005
0.999582 0.999988 0.995962
1.00114 1 0.99269
1.0009 0.999905 0.993477
0.999395 0.998782 0.997979
0.999618 1.00073 0.995031
1.00077 1.00005 0.993594
1.003 0.999774 0.989704
1.00115 1.00167 0.991314
1.0024 1.00047 0.990116
1.0027 1.0011 0.988531
1.00121 1.00001 0.992264
1.00096 0.99998 0.99327
1.00334 0.999809 0.988903
1.003 0.999791 0.989524
1.00287 0.999935 0.989639
1.00407 0.99944 0.987901
0.999465 0.998268 0.99894
1.00336 1.00036 0.988037
0.999609 1.00039 0.994888
1.00038 1.00201 0.991804
1.00201 1.00197 0.989087
1.00333 1.00093 0.987529
0.999669 0.999456 0.995682
1.0001 1.0012 0.993226
0.999541 1.00011 0.998218
0.999184 1.00015 0.998385
1.00059 1.00033 0.993026
0.999388 0.998341 0.998968
0.999634 1.00057 0.994629
0.999937 1.00089 0.993716
1.00081 1.00182 0.991286
0.999404 0.998072 0.999062
0.999611 0.998972 0.99633
1.00095 1.00001 0.993326
1.00033 1.00061 0.993821
1.00264 1.00039 0.989317
0.999616 0.999942 0.995353
1.00132 1.00137 0.990818
1.00037 1.00219 0.991757
1.00139 1.00213 0.989815
0.99958 0.999515 0.995851
0.99969 0.99856 0.996634
0.999996 1.00086 0.993733
1.00306 1 0.988916
1.00197 1.00094 0.990042
1.00367 1.00032 0.987472
1.00023 1.0019 0.992342
1.00203 1.0015 0.989258
1.00087 1.0029 0.990233
1.00158 1.00242 0.989311
0.999556 0.997218 0.999273
0.999473 0.997463 0.999242
0.999401 0.997719 0.999199
0.999706 0.999059 0.996035
0.999481 0.998002 0.999048
0.999643 1.00001 0.99819
0.999682 0.999984 0.998132
1.00101 0.999967 0.992697
1.00115 1.00004 0.992344
0.999808 1 0.998008
0.999844 1 0.997981
1.00123 0.999997 0.992216
1.00109 1.00004 0.993069
1.00341 0.999848 0.988429
1.001 0.999887 0.992758
1.0032 0.99984 0.988838
1.00125 0.999982 0.992182
1.00353 0.999808 0.988243
1.00327 0.999869 0.988679
1.00448 0.999499 0.98682
1.0032 0.999818 0.988851
1.00427 0.999504 0.987229
0.999834 0.999999 0.997987
0.999451 0.999971 0.996103
1.00115 0.999991 0.991837
1.00096 0.9999 0.993435
0.999264 0.998749 0.998837
0.999759 1.00066 0.995143
1.00082 1.00002 0.993563
1.003 0.99975 0.989592
1.00242 1.00054 0.990194
1.00124 1.00175 0.991209
1.00269 1.00111 0.988536
1.00121 0.999999 0.992258
1.00101 0.999978 0.993226
1.00333 0.999789 0.988653
1.00302 0.99982 0.989632
0.999454 0.998331 0.9989
0.999648 1.00032 0.995251
1.00048 1.00204 0.991898
1.00285 0.999983 0.989634
1.00408 0.999352 0.987765
1.00191 1.00196 0.989077
1.00337 1.00039 0.988139
1.00332 1.00093 0.987542
0.999649 0.999529 0.995668
1.00011 1.00116 0.993221
1.00351 0.999795 0.98828
1.00317 0.999829 0.989166
1.0044 0.999507 0.987251
1.0041 0.999391 0.98748
1.00391 0.999695 0.987866
1.00463 0.998867 0.987278
0.999639 0.999917 0.995262
1.00406 0.999947 0.987167
1.00019 1.00199 0.9922
1.00102 1.00252 0.98995
1.00262 1.00209 0.988128
1.00381 1.00048 0.987161
1.00016 1.00164 0.99271
1.00011 1.00064 0.993757
1.00032 1.00222 0.991831
1.0009 0.999999 0.992824
0.999384 0.998028 0.999103
0.999609 0.998921 0.99636
1.0002 1.00071 0.99338
1.00263 1.00038 0.989329
0.999598 0.999941 0.995314
1.00034 1.00218 0.991754
1.00129 1.00136 0.990834
1.0014 1.00213 0.989753
0.999589 0.999444 0.995876
0.999682 0.998535 0.996653
0.999982 1.00089 0.993744
1.00306 1.00001 0.988915
1.00195 1.00093 0.990067
1.00368 1.00033 0.987467
1.00019 1.00194 0.992345
1.00207 1.00151 0.989292
1.00086 1.0029 0.990223
1.00157 1.00241 0.989273
0.999777 0.998204 0.996828
1.00011 1.00141 0.992982
0.99998 1.00021 0.994425
1.00018 1.00201 0.992318
1.00413 0.999765 0.987166
1.00286 1.00102 0.988337
1.00432 1.00001 0.986604
1.00054 1.00285 0.990928
1.00245 1.00147 0.988674
1.00092 1.00375 0.989197
1.0018 1.00221 0.988865
1.00019 0.999158 0.995117
0.999928 0.997737 0.997003
0.999654 0.996951 0.999304
0.999567 0.997165 0.999284
0.999476 0.9974 0.999258
0.999771 0.998732 0.996262
0.999502 0.997765 0.99912
0.9997 0.999113 0.996012
0.999491 0.998036 0.999014
1.00101 0.999887 0.992756
1.00105 1.00003 0.992538
1.00319 0.999847 0.988839
1.00341 0.999849 0.988431
1.00123 1.00001 0.992219
0.999851 1 0.99798
1.00126 0.999985 0.992181
1.00353 0.999811 0.988244
1.00326 0.999878 0.988679
1.00448 0.999501 0.986814
1.0032 0.999833 0.988846
1.00427 0.999501 0.987231
1.00355 0.999794 0.988209
1.0046 0.999422 0.986662
1.00434 0.99955 0.987044
1.00494 0.998972 0.986498
1.00427 0.999475 0.987228
1.00478 0.999082 0.986704
1.00122 0.999987 0.992251
1.00106 0.999974 0.99318
1.00332 0.999762 0.988405
1.00303 0.999835 0.989739
0.999447 0.998395 0.998858
0.9997 1.0003 0.995583
1.0006 1.00205 0.991992
1.00283 1.00003 0.989628
1.00409 0.999261 0.98763
1.00338 1.00043 0.988241
1.00182 1.00196 0.989067
1.00331 1.00092 0.987554
0.999635 0.999593 0.995652
1.00013 1.00112 0.993216
1.00349 0.999774 0.988203
1.00319 0.999831 0.989159
1.00442 0.999463 0.98719
1.00412 0.999448 0.987631
0.999644 0.999943 0.995261
1.00024 1.002 0.992194
1.00102 1.0025 0.990087
1.00391 0.99975 0.987878
1.00464 0.998784 0.987249
1.00255 1.00209 0.987992
1.00404 0.999944 0.987177
1.00375 1.00045 0.987173
1.00017 1.00158 0.992718
1.0003 1.0022 0.991845
1.00011 1.00065 0.993746
1.00455 0.999484 0.986975
1.00432 0.99948 0.9873
1.00493 0.999018 0.986608
1.00468 0.998957 0.987
1.00455 0.999055 0.987079
1.00494 0.998297 0.98723
1.00017 1.00185 0.992437
1.00448 0.999285 0.986964
1.00066 1.00247 0.990959
1.0014 1.00304 0.988774
1.00297 1.00198 0.987361
1.00407 0.999935 0.987399
1.00014 1.00025 0.994103
1.00044 1.00221 0.991635
1.00026 1.00186 0.99225
1.00034 1.00275 0.991344
1.00306 1.00001 0.988913
0.999672 0.998513 0.996672
0.999603 0.999361 0.995899
0.999983 1.00089 0.993755
1.00192 1.00093 0.990092
1.00369 1.00033 0.987461
1.00014 1.00198 0.99235
1.00084 1.0029 0.990213
1.0021 1.00153 0.989327
1.00154 1.00239 0.989235
0.999768 0.998195 0.996835
1.0001 1.00145 0.992983
0.999989 1.00019 0.994441
1.00016 1.00206 0.992309
1.00415 0.999767 0.987153
1.00283 1.00102 0.988351
1.0043 1.00002 0.9866
1.0005 1.00285 0.990944
1.00248 1.0015 0.988717
1.00095 1.00382 0.989155
1.00177 1.00208 0.989135
0.999857 0.997942 0.996937
1.00005 0.999709 0.994821
1.00035 1.00244 0.991651
1.00015 1.00134 0.993027
1.00009 1.003 0.991533
1.00476 0.999344 0.986456
1.00336 1.00088 0.987514
1.00461 0.999689 0.986375
1.00051 1.00408 0.989755
1.00262 1.00129 0.988478
1.00116 1.00367 0.988294
1.00016 0.999264 0.995076
1.00023 1.00013 0.994094
1.00023 0.999089 0.995126
1.00019 0.999175 0.995112
0.99997 0.997542 0.997495
0.999915 0.997723 0.997231
0.999803 0.99675 0.998431
0.999668 0.996905 0.999312
0.999579 0.997111 0.999294
0.999839 0.99846 0.996414
0.99956 0.997521 0.999164
0.999773 0.998756 0.996246
0.999512 0.997798 0.9991
0.999692 0.999164 0.995989
0.999501 0.998085 0.998979
1.0032 0.999843 0.98884
1.00326 0.999886 0.98868
1.00426 0.999507 0.987233
1.00449 0.999503 0.986808
1.00353 0.999815 0.988244
1.00126 0.999989 0.99218
1.00355 0.999792 0.988208
1.0046 0.999424 0.986661
1.00433 0.999566 0.98704
1.00495 0.998928 0.98651
1.00428 0.999467 0.987224
1.00477 0.999095 0.9867
1.00463 0.999393 0.986635
1.00503 0.998842 0.986442
1.00485 0.999041 0.986586
1.00511 0.998425 0.98674
1.00482 0.999083 0.986654
1.00496 0.998431 0.986945
1.00347 0.999753 0.988127
1.0032 0.999834 0.989151
1.00443 0.999424 0.987129
1.00414 0.999503 0.987782
0.999649 0.999969 0.995259
1.00026 1.00201 0.992188
1.00103 1.00247 0.990223
1.00391 0.999806 0.987891
1.00465 0.998702 0.98722
1.00402 0.999941 0.987186
1.00248 1.00209 0.987857
1.0037 1.00041 0.987186
1.00018 1.00152 0.992727
1.0003 1.00217 0.991858
1.00011 1.00065 0.993734
1.00457 0.999456 0.986842
1.00432 0.999479 0.987294
1.00492 0.998947 0.986592
1.0047 0.998983 0.987012
1.0002 1.00181 0.992443
1.00071 1.00246 0.990934
1.00134 1.00305 0.988951
1.00453 0.999148 0.987125
1.00493 0.998232 0.987253
1.00288 1.00203 0.987274
1.00448 0.999293 0.986969
1.00404 0.999755 0.98747
1.00044 1.00222 0.991647
1.00035 1.00277 0.991286
1.00014 1.00026 0.994097
1.00025 1.00179 0.992322
1.005 0.998957 0.986416
1.00485 0.999042 0.986748
1.00512 0.998555 0.986617
1.00501 0.998188 0.987136
1.00492 0.998411 0.987036
1.00506 0.997801 0.987414
1.00054 1.00223 0.991437
1.0047 0.998524 0.98729
1.00066 1.00315 0.990027
1.00179 1.0035 0.987837
1.00314 1.00175 0.987083
1.00442 0.99912 0.987526
1.00017 1 0.994309
1.00025 1.00143 0.992693
1.00047 1.00263 0.991182
1.00025 1.00253 0.991729
1.00036 1.00291 0.991121
0.999759 0.998187 0.996843
1.00417 0.99977 0.987141
1 1.00016 0.994456
1.00008 1.00151 0.992985
1.00014 1.00211 0.992301
1.00282 1.00103 0.988364
1.00429 1.00003 0.986596
1.00047 1.00283 0.99096
1.00097 1.00387 0.989112
1.00251 1.00152 0.98876
1.00175 1.00197 0.989403
0.99985 0.997935 0.996941
1.00005 0.999697 0.994829
1.00034 1.00243 0.991655
1.00014 1.00137 0.993031
1.00007 1.00309 0.991429
1.00475 0.999347 0.986443
1.00335 1.00088 0.987522
1.00459 0.999704 0.986355
1.00046 1.00408 0.989768
1.00265 1.00131 0.98852
1.0013 1.00367 0.988368
1.00011 0.999436 0.994995
1.00017 1.00073 0.993611
1.00032 1.00355 0.990626
1.00003 1.00248 0.992135
1.00012 1.00368 0.990886
1.00498 0.998939 0.986372
1.00366 1.00054 0.987275
1.00461 0.999104 0.986744
1.00043 1.00491 0.988874
1.00234 1.0024 0.987883
1.00015 0.999278 0.995073
1.0002 1.00021 0.993983
1.00022 1.00014 0.994054
1.00017 1.00082 0.993636
1.00026 1.00014 0.994047
1.00026 0.999072 0.995081
1.00022 0.999095 0.995123
1.00003 0.997396 0.997519
1.00018 0.999189 0.995107
0.999978 0.997537 0.997498
0.9999 0.996528 0.998463
0.999904 0.997713 0.997456
0.999778 0.996706 0.998883
0.999682 0.99686 0.999319
0.999903 0.998213 0.996544
0.999843 0.998474 0.996404
0.999637 0.997275 0.999199
0.99956 0.997564 0.999151
0.999774 0.998784 0.99623
0.999522 0.997829 0.999077
1.00429 0.999458 0.987219
1.00433 0.999574 0.987036
1.00475 0.999105 0.986696
1.00496 0.998884 0.986522
1.00461 0.999427 0.986659
1.00356 0.99979 0.988206
1.00464 0.999393 0.986636
1.00503 0.998851 0.986429
1.00485 0.999053 0.986581
1.00512 0.998355 0.986806
1.0048 0.999078 0.986646
1.00499 0.998364 0.986973
1.00505 0.998863 0.986389
1.00514 0.998441 0.986686
1.00505 0.998235 0.986958
1.00514 0.997976 0.987173
1.00499 0.998553 0.986745
1.00504 0.997878 0.987407
1.00458 0.999426 0.986709
1.00432 0.999486 0.987287
1.00492 0.998873 0.986575
1.00473 0.99901 0.987024
1.00023 1.00177 0.992449
1.00077 1.00245 0.990909
1.00128 1.00306 0.989128
1.00451 0.999238 0.98717
1.00491 0.998168 0.987277
1.00449 0.999302 0.986974
1.00279 1.00208 0.987188
1.00401 0.999572 0.987542
1.00044 1.00224 0.991658
1.00034 1.00281 0.991228
1.00013 1.00027 0.994091
1.00025 1.00172 0.992395
1.00499 0.99896 0.986422
1.00486 0.999058 0.986697
1.00512 0.998516 0.986632
1.00497 0.998256 0.987123
1.00056 1.00225 0.991426
1.00066 1.00309 0.990172
1.00174 1.00363 0.987813
1.00492 0.998476 0.987019
1.00505 0.997751 0.987443
1.00314 1.0018 0.987026
1.0047 0.998548 0.98728
1.00424 0.998883 0.987861
1.0005 1.00263 0.991183
1.00037 1.00292 0.991106
1.00023 1.00254 0.991725
1.00016 1 0.994234
1.00025 1.00138 0.99274
1.00515 0.998456 0.986642
1.00512 0.998323 0.986805
1.00509 0.997501 0.98763
1.00508 0.99771 0.987357
1.00054 1.00273 0.990935
1.00493 0.997846 0.987572
1.00055 1.0038 0.989326
1.00215 1.00391 0.986779
1.0038 1.00081 0.98688
1.00018 0.999797 0.994329
1.00024 1.00111 0.993159
1.0002 1.00212 0.992241
1.00046 1.00276 0.991075
1.00024 1.00302 0.991271
1.00046 1.00282 0.990965
0.999844 0.997931 0.996945
1.00006 0.999684 0.994838
1.00474 0.99935 0.986431
1.00013 1.00139 0.993036
1.00031 1.00241 0.991659
1.00006 1.00317 0.991324
1.00334 1.00088 0.987532
1.00457 0.999718 0.986335
1.00043 1.00412 0.989781
1.00143 1.0037 0.988442
1.00268 1.00132 0.988564
1.0001 0.999444 0.994996
1.00017 1.00071 0.993622
1.00029 1.00355 0.990647
1.00003 1.00247 0.992135
1.00009 1.0037 0.990826
1.00498 0.998975 0.986355
1.00366 1.00053 0.987261
1.00462 0.998993 0.986889
1.00042 1.00493 0.988808
1.00236 1.0026 0.987714
1.00017 1.00039 0.993942
1.00007 1.00179 0.992654
1.00031 1.00418 0.989943
1 1.00343 0.991136
1.00025 1.00386 0.990431
1.00506 0.997545 0.987506
1.00384 1.00063 0.9871
1.00462 0.998085 0.987361
1.0011 1.0047 0.988406
1.00224 1.00267 0.987006
1.00014 0.999294 0.995071
1.00021 1.0002 0.99403
1.00014 1.00097 0.993362
1.00022 1.00016 0.994014
1.00026 1.00014 0.994047
1.00015 1.00082 0.993571
1.00007 1.00137 0.993247
1.00014 1.00081 0.993545
1.00029 1.00015 0.993998
1.00027 0.999122 0.995007
1.00026 0.999074 0.995081
1.00008 0.997327 0.997496
1.00022 0.9991 0.99512
1.00004 0.997401 0.997518
0.999968 0.996378 0.99848
0.999986 0.997529 0.997502
0.99989 0.996503 0.998466
0.999751 0.996654 0.999342
0.999962 0.997987 0.996665
0.999908 0.998223 0.996537
0.999718 0.99704 0.999231
0.999845 0.998491 0.996395
0.99963 0.997322 0.999188
0.999562 0.997599 0.999138
1.00477 0.999074 0.986638
1.00485 0.999068 0.986576
1.00501 0.998298 0.987001
1.00512 0.998284 0.986872
1.00504 0.998858 0.986417
1.00464 0.999393 0.986637
1.00505 0.998894 0.986368
1.00514 0.998475 0.986655
1.00508 0.998277 0.986887
1.00515 0.997888 0.987216
1.00499 0.998579 0.98675
1.00507 0.997742 0.987446
1.00515 0.998513 0.986606
1.00514 0.997969 0.987136
1.00515 0.997561 0.987514
1.00504 0.997587 0.987663
1.00499 0.998964 0.986427
1.00488 0.999069 0.986645
1.00511 0.998479 0.986647
1.00494 0.998325 0.98711
1.00059 1.00226 0.991415
1.00067 1.00304 0.990318
1.0017 1.00374 0.987788
1.00492 0.998542 0.987001
1.00505 0.9977 0.987471
1.00469 0.998572 0.987269
1.00314 1.00185 0.986968
1.00408 0.998664 0.988194
1.00052 1.00263 0.991185
1.00039 1.00293 0.99109
1.0002 1.00256 0.99172
1.00016 1 0.994159
1.00025 1.00133 0.992788
1.00514 0.998467 0.986646
1.0051 0.998327 0.986858
1.00509 0.997592 0.987567
1.00058 1.00273 0.990918
1.00067 1.00376 0.989485
1.0021 1.00399 0.986744
1.00508 0.997739 0.987378
1.00374 1.00066 0.987051
1.00488 0.997878 0.987597
1.00018 0.999769 0.994355
1.00049 1.00277 0.991066
1.00045 1.00281 0.991018
1.00025 1.00306 0.991228
1.00019 1.00211 0.992266
1.00024 1.0011 0.993095
1.00516 0.998134 0.986888
1.00513 0.99746 0.987652
1.00511 0.997075 0.987926
1.0051 0.997204 0.9879
1.00052 1.00312 0.990593
1.00472 0.998338 0.987273
1.00098 1.00485 0.987796
1.00274 1.00356 0.986231
1.00019 0.999584 0.994535
1.00024 1.00088 0.993398
1.0002 1.00186 0.99255
1.00015 1.00272 0.991685
1.00053 1.00301 0.990769
1.00049 1.00287 0.990907
1.0001 0.99945 0.994997
1.00017 1.00069 0.993633
1.00499 0.999011 0.986338
1.00003 1.00247 0.992136
1.00026 1.00354 0.990668
1.00004 1.00376 0.990766
1.00367 1.00053 0.987247
1.00462 0.998881 0.987036
1.00041 1.00494 0.988741
1.00238 1.00281 0.987545
1.00018 1.00036 0.993948
1.00008 1.00176 0.992692
1.00027 1.00425 0.990005
0.999981 1.0035 0.991134
1.00017 1.00381 0.990534
1.00506 0.99759 0.98764
1.00388 1.00054 0.987034
1.00471 0.997956 0.987553
1.00095 1.00473 0.988339
1.00243 1.00288 0.986807
1.00012 1.00119 0.993173
0.999983 1.00278 0.991748
1.00044 1.0043 0.989619
0.999996 1.00412 0.990174
1.00515 0.996273 0.988739
1.00511 0.996706 0.98834
1.00396 1.00032 0.98682
1.00129 1.00438 0.987194
1.00021 1.00019 0.994077
1.00015 1.00098 0.993393
1.00003 1.00166 0.992985
1.00025 1.00014 0.994047
1.00014 1.00081 0.993506
1.00029 1.00013 0.993998
1.00005 1.00138 0.993195
1.00016 1.00078 0.993565
1 1.0018 0.992877
1.0001 1.00125 0.99322
1.00017 1.00078 0.993502
1.0003 1.00019 0.99393
1.00026 0.999201 0.994935
1.00027 0.999127 0.995006
1.00011 0.997323 0.997444
1.00026 0.999073 0.995082
1.00008 0.997348 0.997487
1.00002 0.996312 0.998453
1.00004 0.997408 0.997517
0.999961 0.996354 0.998484
0.999881 0.99648 0.998466
1.00002 0.997771 0.996783
0.999967 0.997992 0.996659
0.999795 0.996816 0.999261
0.999912 0.998233 0.99653
0.999709 0.997083 0.999221
0.999625 0.997369 0.999176
1.00499 0.998603 0.986754
1.00511 0.998318 0.986816
1.0051 0.997605 0.987486
1.00515 0.9978 0.987258
1.00514 0.99851 0.986624
1.00505 0.998926 0.986346
1.00515 0.998506 0.986618
1.00514 0.997991 0.987112
1.00514 0.997573 0.987494
1.00508 0.997535 0.987657
1.00515 0.998119 0.986983
1.00514 0.99737 0.987763
1.00514 0.997054 0.987973
1.00514 0.998477 0.986649
1.00509 0.998332 0.986911
1.00509 0.997684 0.987504
1.00063 1.00273 0.9909
1.0008 1.00368 0.989643
1.00205 1.0041 0.986708
1.00507 0.997769 0.987399
1.00484 0.997901 0.987624
1.00368 1.00051 0.987224
1.00051 1.00277 0.991056
1.00041 1.00281 0.991071
1.00025 1.00309 0.991184
1.00018 0.999743 0.994382
1.00019 1.0021 0.992292
1.00024 1.00108 0.99303
1.00516 0.998173 0.986898
1.00513 0.997435 0.987695
1.00512 0.997123 0.987912
1.00056 1.00313 0.99055
1.00088 1.0047 0.988117
1.00277 1.00343 0.986252
1.00509 0.997193 0.987909
1.00478 0.9984 0.987211
1.00019 0.999558 0.994633
1.00024 1.00088 0.993398
1.00045 1.00291 0.990809
1.00049 1.00278 0.99107
1.00017 1.00271 0.991646
1.00018 1.00188 0.992504
1.00515 0.997488 0.9876
1.0051 0.996584 0.988514
1.00509 0.996527 0.988424
1.00505 0.996929 0.988305
1.00033 1.00394 0.989811
1.00367 1.00126 0.986464
1.00157 1.00492 0.987241
1.00021 0.999408 0.994843
1.00018 1.00049 0.993818
1.00022 1.00073 0.993436
1.00016 1.00173 0.992669
1.00008 1.00254 0.991985
1.00002 1.00331 0.991208
1.00077 1.00183 0.991277
1.00036 1.00283 0.991808
1.00019 1.00035 0.993953
1.0001 1.00174 0.992731
1.00507 0.99764 0.987775
0.999984 1.00354 0.991132
1.00022 1.00434 0.990067
1.00008 1.00378 0.990637
1.00392 1.00042 0.986966
1.00481 0.997807 0.987743
1.00081 1.00475 0.988271
1.00261 1.00306 0.986607
1.00013 1.00122 0.99313
1 1.00281 0.99175
1.00039 1.00433 0.989659
1.00009 1.00413 0.990259
1.00514 0.996285 0.988803
1.00508 0.996838 0.988212
1.00403 1.00028 0.98692
1.00156 1.00435 0.987037
1.00002 1.00202 0.992628
1.00517 0.995747 0.989101
0.999997 1.00394 0.990937
1.00057 1.00459 0.989041
1.00516 0.995811 0.989182
1.00491 0.997616 0.987527
1.00279 1.00326 0.986516
1.00015 1.00099 0.993424
1.00003 1.00166 0.992977
0.999931 1.00221 0.99262
1.00029 1.00012 0.993998
1.00017 1.00076 0.993586
1.00003 1.00139 0.993144
1.0003 1.00018 0.993927
1.00018 1.00078 0.993511
1.00001 1.00182 0.992826
1.0001 1.00123 0.993269
1 1.00204 0.992577
1.0001 1.00159 0.992854
1.00014 1.00116 0.99329
1.00026 1.00077 0.993415
1.00029 1.00027 0.993848
1.00025 0.999268 0.994886
1.00026 0.999204 0.994935
1.00013 0.997346 0.997392
1.00027 0.999134 0.995006
1.00011 0.997353 0.997436
1.00005 0.99629 0.99842
1.00009 0.997371 0.997479
1.00002 0.99628 0.99846
0.999954 0.99633 0.998486
1.00021 0.999289 0.994946
1.00007 0.997585 0.996881
1.00002 0.997777 0.996777
0.999866 0.996609 0.999291
0.999973 0.997998 0.996653
0.999786 0.996857 0.999252
0.9997 0.997129 0.999211
1.00513 0.997485 0.987651
1.00514 0.997583 0.987474
1.00514 0.998009 0.987089
1.00514 0.9985 0.986631
1.00515 0.998091 0.987025
1.00515 0.997367 0.987741
1.00515 0.997024 0.987965
1.00515 0.997412 0.987666
1.00514 0.996824 0.988387
1.00514 0.99536 0.989272
1.00516 0.998212 0.986908
1.00513 0.997407 0.987737
1.00512 0.997171 0.987898
1.00061 1.00314 0.990508
1.00078 1.00459 0.988439
1.00278 1.00328 0.986274
1.0051 0.997193 0.987917
1.00482 0.998468 0.987148
1.00038 1.00281 0.990849
1.0005 1.00269 0.991229
1.00014 1.00275 0.991608
1.0002 0.999529 0.99473
1.00024 1.00088 0.993398
1.00016 1.00191 0.992459
1.00515 0.997417 0.987701
1.00021 0.999399 0.994842
1.00017 1.00052 0.993774
1.0051 0.996648 0.988497
1.00511 0.996533 0.988361
1.00025 1.00398 0.990035
1.00152 1.0049 0.987094
1.00363 1.0012 0.986474
1.005 0.996945 0.988275
1.00022 1.00072 0.99357
1.00016 1.00172 0.992662
1.00089 1.002 0.990978
1.00019 1.00238 0.992183
1.00001 1.00339 0.991139
1.0001 1.0025 0.992002
1.00514 0.996348 0.988769
1.00511 0.996153 0.989
1.00506 0.996054 0.988806
1.00458 0.997483 0.988067
1.00059 1.00344 0.990124
1.00229 1.00418 0.986613
1.00014 1.00044 0.993833
1.0002 1.00062 0.993668
1.00009 1.0014 0.993205
1.00014 1.00162 0.992672
1.00005 1.00246 0.992234
0.999912 1.00323 0.991357
0.999734 1.00435 0.990941
1.0003 1.00168 0.99232
1.00014 1.00123 0.993088
1.00002 1.00284 0.991752
1.00513 0.996282 0.988867
1.00502 0.997 0.988084
1.00019 1.00414 0.990344
1.00033 1.00434 0.989697
1.00411 1.00026 0.987023
1.00183 1.00436 0.986879
1.00001 1.00204 0.992604
1.00516 0.99576 0.989117
0.999942 1.00383 0.990982
1.00057 1.00453 0.988955
1.00517 0.995733 0.98909
1.00491 0.997574 0.98768
1.0027 1.00336 0.986595
0.999934 1.00312 0.991778
1.00511 0.995168 0.990463
1.00047 1.00421 0.990193
1.00129 1.00473 0.988113
1.00508 0.99651 0.988651
1.00342 1.00092 0.987191
1.00007 0.99946 0.992638
1.00002 1.00167 0.99297
0.999923 1.00222 0.992611
1.00001 1.00241 0.992272
1.0003 1.00018 0.993925
1.00017 1.00079 0.99352
1.0001 1.00121 0.993318
1.00001 1.00185 0.992776
1.00029 1.00027 0.993844
1.00025 1.00076 0.99341
1.00002 1.00206 0.992545
1.00014 1.00116 0.993285
1.0001 1.00161 0.9929
1.00012 1.00181 0.99263
1.00016 1.00125 0.993101
1.00021 1.00108 0.993231
1.00034 1.0008 0.99324
1.0003 1.00034 0.993691
1.00024 1.00086 0.993425
1.00028 1.00034 0.993716
1.00024 0.9993 0.99487
1.00025 0.99927 0.994887
1.00016 0.997404 0.996889
1.00026 0.999209 0.994936
1.00014 0.997374 0.997157
1.00003 0.996237 0.999323
1.00012 0.997379 0.997429
1.00005 0.996251 0.998425
1.00001 0.99625 0.998465
1.0002 0.999235 0.995018
1.00022 0.999288 0.994943
1.0001 0.997458 0.996941
1.00006 0.997588 0.99711
0.999928 0.99644 0.999313
1.00003 0.997782 0.996772
0.999858 0.996648 0.999282
0.999777 0.996899 0.999243
1.00516 0.996996 0.987957
1.00515 0.997361 0.987719
1.00514 0.998067 0.987067
1.00515 0.997407 0.987651
1.00513 0.996794 0.988353
1.00515 0.995634 0.989163
1.00513 0.996072 0.988895
1.00121 0.999987 0.988523
1.00515 0.995 0.990565
1.00013 1.00043 0.993995
1.00514 0.997347 0.987802
1.00509 0.996706 0.98848
1.00513 0.996601 0.988298
1.00018 1.00401 0.99026
1.00149 1.00489 0.986947
1.00359 1.00116 0.986484
1.00496 0.996952 0.988245
1.00101 1.00218 0.990685
0.99999 1.00191 0.992567
1 1.00344 0.991071
1.00021 0.999394 0.994842
1.00011 1.00246 0.99202
1.00023 1.0007 0.993704
1.00016 1.00172 0.992655
1.00016 1.00053 0.99373
1.00514 0.996239 0.988854
1.00014 1.00043 0.993899
1.0002 1.00062 0.993665
1.0001 1.00139 0.993112
1.00511 0.996062 0.988992
1.00504 0.996206 0.988732
1.00067 1.00315 0.990203
1.002 1.00411 0.98668
1.00458 0.997772 0.988064
1.00014 1.00164 0.992729
1.00006 1.00243 0.992195
1.00023 1.00207 0.991997
0.999748 1.00411 0.991109
0.99995 1.00326 0.991416
1.0051 0.995523 0.989579
1.00502 0.996543 0.988888
1.00507 0.996421 0.98842
1.00307 1.00107 0.988019
1.00048 1.00339 0.990385
1.00011 1.00128 0.99307
1.0001 1.00152 0.992873
1.00008 1.00197 0.992655
1.00003 1.00236 0.992214
0.999977 1.00299 0.991737
0.999767 1.0041 0.990919
0.999679 1.00452 0.990627
1.00001 1.00206 0.992579
0.999878 1.00372 0.991027
1.00514 0.995785 0.989132
1.00519 0.995658 0.988997
1.00491 0.997488 0.987834
1.00056 1.00447 0.98887
1.0026 1.00343 0.986674
0.999906 1.00303 0.991911
1.00512 0.995131 0.990431
1.00025 1.00419 0.990249
1.001 1.00481 0.988205
1.00507 0.996179 0.988766
1.00342 1.00091 0.987154
1.00002 0.999597 0.991114
1.00004 1.00346 0.991271
1.00478 0.995723 0.991124
1.00016 1.00449 0.990148
1.00139 1.00406 0.98805
1.00394 0.997425 0.988518
1.00155 0.99518 0.960498
0.996099 1.00014 0.978778
0.99915 1.0002 0.993491
0.999384 0.997356 0.942762
0.995023 0.998181 0.936556
0.999922 1.00224 0.992602
0.999965 1.00244 0.992329
1.00001 1.00211 0.992609
1.00029 1.00027 0.99384
1.00025 1.00073 0.993404
1.00014 1.00115 0.993279
1.00009 1.00163 0.992946
1.00004 1.00207 0.992513
1.00021 1.00106 0.993201
1.00029 1.00034 0.993743
1.00033 1.00079 0.993264
1.00011 1.00183 0.992643
1.00016 1.00127 0.993101
1.0002 1.00116 0.993072
1.00015 1.00121 0.993149
1.00032 1.00104 0.993062
1.00038 1.00088 0.993049
1.00029 1.00036 0.993683
1.00033 1.00086 0.993225
1.00028 1.0011 0.993122
1.00016 1.00091 0.993431
1.00025 1.00087 0.993368
1.00027 1.00029 0.99386
1.00028 1.00035 0.993708
1.00024 0.999297 0.994882
1.00024 0.999298 0.99487
1.00015 0.997456 0.996871
1.00025 0.99927 0.994887
1.00016 0.997408 0.996888
1.00003 0.996246 0.999316
1.00015 0.997403 0.996922
1.00005 0.996241 0.998861
1.00005 0.996214 0.998429
1.0002 0.999193 0.995074
1.00021 0.999228 0.995017
1.00013 0.997375 0.996981
1.00022 0.999285 0.994939
1.0001 0.997444 0.997171
0.999976 0.996324 0.999326
1.00007 0.997604 0.996868
0.999918 0.996496 0.999304
0.999849 0.996686 0.999273
1.00512 0.996763 0.98832
1.00515 0.997406 0.987636
1.00516 0.995901 0.989054
1.00118 0.999075 0.98865
1.00513 0.996156 0.988907
1.00516 0.995271 0.99044
1.00514 0.99605 0.989743
0.997793 0.999972 0.975496
1.00265 0.996693 0.989603
1.00013 1.00041 0.994013
1.00014 1.00042 0.993995
1.00009 1.00123 0.993255
1.00009 1.00119 0.993307
1.00514 0.996145 0.98894
1.0051 0.995987 0.988985
1.00508 0.996272 0.988658
1.00076 1.00289 0.990281
1.00171 1.004 0.986747
1.00457 0.998141 0.988061
1.00017 1.00249 0.991663
0.999776 1.00388 0.991277
0.999987 1.00329 0.991476
1.0002 1.00063 0.993662
1.00007 1.00239 0.992156
1.00013 1.00167 0.992785
1.00015 1.00043 0.993965
1.0001 1.00139 0.993019
1.00509 0.995557 0.989572
1.00011 1.00129 0.993173
1.0001 1.00152 0.992912
1.00006 1.00194 0.99264
1.00505 0.996164 0.988937
1.00505 0.996447 0.9884
1.00056 1.00325 0.990364
1.00307 1.00126 0.987954
1.00004 1.00242 0.992211
0.999939 1.00297 0.991794
0.999711 1.00452 0.990623
0.999856 1.00417 0.990849
1.00509 0.99591 0.989356
1.00506 0.995856 0.989091
1.00408 0.998957 0.98807
1.00056 1.00367 0.990049
1.00011 1.00197 0.992453
1.00001 1.00216 0.992451
0.999897 1.00331 0.991524
0.999849 1.00495 0.989988
1.00068 0.995095 0.957171
0.99987 1.00295 0.992044
1.00002 1.00416 0.990305
1.00512 0.99507 0.990396
1.00508 0.995846 0.98888
1.00341 1.00089 0.987116
1.0007 1.00487 0.988296
0.99995 0.999662 0.989566
0.999916 1.0035 0.991379
1.00474 0.995485 0.991054
1.00004 1.00447 0.9902
1.00132 1.00412 0.988025
1.00419 0.997487 0.988517
1.00186 0.995485 0.957145
0.995917 0.99987 0.974971
0.999243 1.0002 0.993679
0.998286 0.99775 0.943698
0.994821 0.998161 0.932043
0.999721 1.00349 0.991947
1 0.994978 0.944934
0.994887 0.999752 0.937968
1.00421 0.995795 0.991512
0.999683 1.00487 0.990487
1.00186 1.00164 0.98908
0.998282 1.00034 0.995817
0.998842 0.997959 0.961072
0.994838 0.999947 0.974592
0.997553 0.999815 0.944731
0.994563 0.999858 0.94211
0.999908 1.00248 0.992386
0.999977 1.00218 0.992587
0.99998 1.00127 0.993631
1.00028 1.00033 0.993795
1.00033 1.00078 0.993289
1.00021 1.00107 0.993172
1.00017 1.00129 0.993101
1.0001 1.00186 0.992656
1.00029 1.00036 0.993682
1.00022 1.00119 0.993059
1.00031 1.00105 0.993083
1.00038 1.00086 0.993117
1.00015 1.00119 0.993178
1.0003 1.00104 0.993028
1.00025 1.00044 0.993739
1.0004 1.00105 0.992913
1.00038 1.00087 0.993143
1.00034 1.00086 0.993221
1.00028 1.00109 0.993109
1.00039 1.001 0.992963
1.00017 1.0012 0.993156
1.00026 1.0011 0.993111
0.999913 1.00194 0.992843
1.00009 1.00102 0.993452
1.00016 1.00093 0.993431
1.00025 1.00028 0.993912
1.00026 1.00088 0.993311
1.00027 1.0003 0.993821
1.00024 0.999278 0.994911
1.00028 1.00037 0.993701
1.00024 0.999289 0.994882
1.00011 0.997481 0.997351
1.00024 0.999297 0.99487
1.00014 0.997447 0.997109
1.00008 0.996273 0.998366
1.00016 0.997413 0.996886
1.00003 0.996253 0.999313
1.00008 0.996246 0.998399
1.00016 1.00038 0.993997
1.0002 0.999156 0.995109
1.0002 0.999187 0.995075
1.00014 0.997313 0.997021
1.00021 0.999221 0.995016
1.00013 0.997364 0.996981
1.00001 0.99624 0.999336
1.00008 0.997448 0.997394
0.999989 0.996363 0.998861
0.999959 0.996532 0.998369
1.00098 0.998165 0.988788
1.00514 0.996228 0.988918
1.00517 0.99557 0.990316
0.997232 0.999156 0.977416
1.0025 0.997184 0.98986
1.00515 0.995554 0.989761
1.00444 0.996009 0.990105
0.998463 0.996791 0.980173
1.00035 0.995681 0.960008
0.998041 0.997393 0.945269
0.994665 0.99825 0.935662
1.00007 1.00125 0.9932
1.00013 1.00041 0.994012
1.00014 1.0004 0.993995
1.0001 1.00125 0.993222
1.00003 1.00175 0.992825
1.00013 1.00159 0.992905
1.00012 1.00118 0.993293
1.00009 1.00122 0.993262
1.00509 0.995584 0.989566
1.00509 0.995782 0.988983
1.00497 0.996472 0.988381
1.00065 1.00306 0.990345
1.00305 1.00133 0.987887
0.999741 1.00451 0.990622
0.99994 1.00424 0.99078
0.999905 1.00296 0.991852
1.0001 1.00152 0.992951
1.00005 1.00248 0.992207
1.00012 1.00131 0.993275
1.00006 1.0019 0.992626
1.00509 0.995913 0.98932
1.00009 1.00195 0.992552
1.00003 1.00217 0.99244
1.00503 0.995919 0.988986
1.00371 0.998617 0.9884
1.00071 1.00359 0.989821
0.999957 1.0033 0.991522
0.999916 1.00488 0.989996
1.00376 1.00001 0.989482
1.00458 0.996392 0.990033
1.00149 1.00069 0.989561
1.00022 1.00381 0.990394
1.00011 1.00191 0.992467
1.00005 1.00255 0.992028
0.999892 1.00401 0.990924
0.999918 0.995005 0.94264
1.0012 0.994953 0.962934
0.999813 1.00353 0.991488
0.999936 1.00442 0.990252
1.00471 0.995283 0.990989
1.00444 0.997631 0.988516
1.00126 1.00418 0.987999
1.00087 0.994994 0.95833
0.996161 1.00022 0.975354
0.999268 1.00007 0.993873
0.997828 0.997413 0.947292
0.994677 0.998155 0.92752
0.999697 1.00337 0.991952
1.00004 0.995134 0.943176
0.99482 0.999764 0.935805
1.0043 0.996092 0.991476
0.999601 1.00484 0.990566
1.00159 1.00153 0.989466
0.998621 0.999487 0.996604
0.999434 0.998495 0.958091
0.99529 0.999719 0.977274
0.996969 0.999859 0.944984
0.994737 0.999889 0.940042
0.999356 1.00325 0.992817
0.994748 0.999916 0.940544
0.994374 1.00371 0.955067
1.00141 0.99801 0.994369
0.999275 1.00426 0.99223
0.997233 1.00197 0.997061
0.995463 0.999831 0.981342
0.996138 1.0004 0.957449
0.995766 0.999932 0.94764
0.994368 0.999996 0.94994
0.99996 1.00222 0.992565
0.999976 1.00141 0.993466
0.999746 0.999967 0.995012
1.00029 1.00036 0.993681
1.00037 1.00085 0.993186
1.00029 1.00106 0.993103
1.00022 1.0012 0.993047
1.00016 1.00117 0.993206
1.00038 1.00087 0.993142
1.0003 1.00109 0.993037
1.00041 1.00104 0.99291
1.00016 1.00042 0.993915
1.00005 0.999609 0.99503
1.00044 1.0006 0.993259
1.00045 1.00102 0.992846
1.00035 1.00085 0.993216
1.00029 1.00107 0.993096
1.00039 1.001 0.992964
1.00017 1.00119 0.993151
1.00026 1.00109 0.993113
1.00005 1.00141 0.993118
1.00034 1.001 0.993013
1.00014 1.00119 0.993222
1 1.00248 0.992148
0.999674 1.00443 0.990664
0.999791 1.00262 0.992217
0.999906 1.002 0.992819
1.00003 1.00125 0.993347
1.0001 1.00104 0.993447
1.00021 1.0003 0.99397
1.00016 1.00095 0.993431
1.00025 1.00028 0.993913
1.00022 0.999275 0.994946
1.00028 1.00031 0.993782
1.00024 0.99927 0.994912
1.00008 0.997512 0.997372
1.00025 0.999284 0.994882
1.00012 0.997472 0.997121
1.00005 0.996277 0.998375
1.00015 0.997436 0.996873
1.00002 0.996274 0.999309
1.00003 0.996258 0.999311
1.00018 1.00042 0.994081
1.0002 0.999159 0.995094
1.00015 1.00039 0.993994
1.00014 0.997284 0.997047
1.0002 0.999159 0.995109
1.0002 0.999181 0.995076
1.00014 0.997314 0.99702
1.00003 0.996183 0.999346
1.00011 0.997357 0.997433
1.00003 0.996253 0.998877
1.00002 0.996369 0.998404
0.99989 0.995263 0.941855
0.995128 0.99931 0.938775
0.997906 0.998367 0.978553
1.00236 0.997621 0.990112
1.00514 0.99511 0.989779
0.997952 0.996858 0.982752
1.00444 0.996281 0.990135
1.00077 0.995191 0.960829
0.998473 0.997233 0.942731
0.994635 0.998207 0.931076
0.999416 0.99713 0.986491
0.998212 0.998096 0.962964
0.997379 0.99972 0.944121
0.994654 0.999921 0.939605
1.00012 1.00175 0.992686
1.00007 1.00125 0.993227
1.00013 1.0004 0.994012
1.00009 1.00124 0.993189
1.00004 1.0017 0.992881
1.00013 1.00168 0.992769
1.00014 1.00156 0.992872
1.00016 1.00129 0.99307
1.00012 1.00118 0.993242
1.00009 1.00123 0.993216
1.00509 0.99584 0.989287
1.00498 0.996065 0.988891
1.00335 0.998269 0.988731
1.00085 1.00355 0.989593
0.999991 1.00478 0.990005
1.00001 1.00331 0.99152
1.00005 1.00219 0.992428
1.00006 1.00193 0.99265
1.00374 0.999071 0.989578
1.00012 1.00194 0.992461
1.00005 1.00252 0.992039
1.0045 0.996232 0.989814
1.00139 1.00127 0.989747
1.00032 1.00397 0.9901
0.999975 1.00392 0.990839
1.00092 1.00185 0.992554
1.00143 0.999076 0.993054
0.999928 1.00332 0.991081
1.00011 1.00207 0.9924
1.00019 1.00195 0.992267
1.00019 1.00261 0.991712
0.994634 0.999559 0.947737
0.999963 0.995366 0.944988
1.00072 0.994953 0.956747
0.999652 1.0033 0.991958
0.999522 1.00477 0.990649
1.00445 0.996312 0.991435
1.00127 1.00154 0.989852
0.999965 0.995341 0.945679
0.998535 0.998042 0.959122
0.994873 0.999553 0.974635
0.999051 0.998071 0.997321
0.997551 0.999779 0.941471
0.99478 0.999776 0.936142
0.994927 0.999867 0.940353
0.999266 1.00325 0.992837
0.994781 0.999984 0.942865
0.994561 1.0038 0.954594
1.00157 0.998015 0.994366
0.998883 1.00441 0.992231
0.996727 0.999587 1.00025
0.995357 0.999591 0.977872
0.99634 1.00033 0.962068
0.997433 0.999928 0.944612
0.994415 1.00001 0.950567
0.998491 1.00244 0.995393
0.994009 1.00296 0.962878
0.993721 1.00437 0.968118
0.996989 1.00178 0.998162
0.995552 1.0004 0.98731
0.995462 1 0.961752
0.995128 0.999988 0.946692
0.994598 0.999921 0.948801
0.999959 1.00156 0.993302
0.999815 0.999956 0.995064
0.999354 0.999364 0.996312
1.00038 1.00087 0.99314
1.00041 1.00104 0.992906
1.0003 1.00114 0.993047
1.00009 1.0004 0.994091
1.00044 1.00103 0.992849
1.00042 1.00066 0.993221
1.00006 0.999369 0.995183
0.999491 0.999004 0.996547
1.00032 0.999658 0.994446
1.00041 1.00087 0.992985
1.00039 1.00101 0.992964
1.00017 1.00119 0.993145
1.00026 1.00108 0.993116
1.00033 1.00102 0.993022
1.00004 1.00146 0.993104
1.00015 1.00117 0.993218
1.00006 1.00156 0.993013
1.0001 1.00102 0.99345
0.999965 1.00238 0.992291
1.00002 1.00244 0.992217
0.99971 1.00391 0.991188
1.00026 1.00474 0.989485
0.99987 1.00351 0.991555
0.999644 1.00436 0.990838
0.99981 1.00265 0.992339
0.999957 1.0017 0.992898
0.999898 1.00207 0.992795
1.00004 1.00127 0.993336
1.00016 1.00037 0.993967
1.0001 1.00105 0.993442
1.00021 1.0003 0.993968
1.00018 0.999324 0.994971
1.00026 1.00029 0.993913
1.00022 0.999268 0.994948
1.00003 0.997565 0.997395
1.00024 0.999262 0.994913
1.00008 0.997506 0.997145
1.00001 0.996341 0.998391
1.00013 0.997456 0.996886
1.00003 0.996293 0.998841
1.00002 0.996283 0.99931
1.0002 1.00048 0.993851
1.0002 0.999211 0.995044
1.00017 1.00042 0.99396
1.00014 0.997308 0.997038
1.0002 0.999164 0.995096
1.00014 1.00041 0.993992
1.00003 0.996167 0.99935
1.00014 0.997285 0.997047
1.0002 0.999158 0.995109
1.00014 0.997316 0.997018
1.00002 0.996191 0.999343
1.00001 0.996252 0.999332
0.994748 0.999316 0.945362
0.999882 0.995218 0.943293
0.994703 1.00411 0.954136
0.995035 0.999604 0.937223
0.998757 0.996987 0.978603
1.00441 0.996737 0.990147
1.00074 0.994983 0.961637
0.999339 0.998034 0.946242
0.994615 0.998095 0.926477
0.998951 0.997571 0.98492
0.999164 0.99748 0.95712
0.997147 0.999711 0.944479
0.994625 0.999852 0.937164
0.995642 0.999839 0.983166
0.997798 1.0001 0.957294
0.995457 0.999763 0.943419
0.994513 0.999895 0.945697
1.00015 1.00198 0.992448
1.00011 1.00175 0.992734
1.00007 1.00127 0.993254
1.00005 1.00166 0.992938
1.00018 1.00179 0.992491
1.00014 1.00166 0.9928
1.00014 1.00156 0.992839
1.00023 1.00124 0.99307
1.00017 1.00127 0.993128
1.00013 1.00118 0.993191
1.00355 0.998169 0.989684
1.00445 0.99603 0.989596
1.00131 1.00185 0.98993
1.00043 1.00411 0.989809
1.00005 1.00384 0.990754
1.00006 1.00247 0.99205
1.00013 1.00197 0.992455
1.00012 1.00207 0.992388
1.00087 1.00093 0.992822
1.00018 1.00202 0.992294
1.0002 1.00265 0.991633
1.00151 0.999241 0.992679
1.00023 1.00322 0.991013
0.998953 1.00024 0.995686
0.999384 0.999646 0.996867
1.00023 1.00174 0.992114
1.00026 1.00184 0.992336
1.00028 1.00213 0.991995
0.993645 1.00228 0.967885
0.994668 1.00001 0.94739
0.999881 0.995877 0.942034
0.999188 1.0033 0.992854
0.998565 1.00448 0.992221
1.00165 0.998077 0.99438
0.994809 0.999893 0.944674
0.997368 1.00044 0.957626
0.994869 0.999411 0.979379
0.996443 0.998451 1.00363
0.995779 0.999938 0.947185
0.994749 1.00393 0.954135
0.994397 0.999993 0.950836
0.998433 1.00232 0.995468
0.994057 1.00259 0.965019
0.99373 1.00445 0.967969
0.997001 1.00238 0.99834
0.995268 1.00023 0.987574
0.996241 0.999998 0.957158
0.994496 0.999894 0.950747
0.994985 0.999939 0.948472
0.997106 1.00234 0.997953
0.993105 1.00381 0.983376
0.993782 1.00419 0.970143
0.994511 0.999901 0.945811
0.995029 1.0015 0.996338
0.996092 0.999041 0.963442
0.994701 1.00004 0.949333
0.999924 0.99992 0.995113
0.999462 0.999505 0.996067
0.998867 0.999099 0.997648
1.00044 1.00103 0.992852
1.0004 1.00072 0.993182
1.00009 0.999091 0.995339
1.00041 1.00091 0.992975
1.00032 0.999592 0.994451
0.999737 0.998953 0.996191
0.999326 0.998604 0.997279
1.00023 1.00047 0.99377
1.00032 1.00103 0.993031
1.00004 1.0015 0.993089
1.00017 1.00115 0.993213
1.00012 1.00102 0.993418
1.00008 1.00148 0.993068
0.999547 1.00208 0.993368
0.999791 1.00253 0.992449
0.999978 1.00395 0.990637
1.00005 1.00238 0.992286
0.999884 1.00384 0.991127
1.00021 1.00489 0.989112
1.00025 1.00487 0.98924
0.999946 1.00393 0.990887
1.0002 1.00467 0.989559
0.999968 1.00243 0.992323
0.999864 1.00356 0.991437
0.999611 1.0043 0.991013
0.999829 1.00267 0.992461
0.99997 1.00166 0.992993
1.00012 1.0006 0.99382
1.00004 1.00128 0.993326
1.00016 1.00039 0.993962
1.00013 0.999416 0.994971
1.00022 1.0003 0.993966
1.00019 0.999309 0.994974
0.999962 0.997662 0.99741
1.00023 0.999259 0.994949
1.00004 0.997566 0.99717
0.999947 0.996433 0.998407
1.0001 0.99749 0.996912
0.999987 0.996352 0.998851
0.999994 0.996322 0.999313
1.00025 1.00056 0.993535
1.0002 0.999321 0.99478
1.00021 1.00048 0.99385
1.00012 0.997388 0.996994
1.0002 0.999222 0.994958
1.00016 1.00042 0.993839
1.00002 0.996201 0.999346
1.00014 0.997306 0.99704
1.0002 0.999168 0.995097
1.00003 0.996168 0.999349
1.00014 0.997286 0.997046
1.00002 0.996201 0.99934
0.99367 1.00271 0.966305
0.994752 0.999119 0.945673
0.999877 0.995027 0.943987
1.00027 1.00117 0.993
0.993669 1.00422 0.96947
0.994715 1.00412 0.953708
0.995019 0.999811 0.938214
0.998931 0.998218 0.983315
0.998548 0.998793 0.962988
0.99746 0.999639 0.940965
0.994617 0.999868 0.937409
0.995628 0.999826 0.978764
0.99664 0.999999 0.96178
0.997419 0.999921 0.945531
0.994559 0.999916 0.945111
0.995431 1.00001 0.974721
0.99523 1.00019 0.959845
0.994766 0.999957 0.948855
0.994567 0.999896 0.948822
1.00022 1.00196 0.992325
1.00014 1.00199 0.992433
1.0001 1.00174 0.992782
1.00021 1.00165 0.992611
1.00018 1.00179 0.992565
1.00013 1.00165 0.992831
1.00023 1.00126 0.993072
1.00018 1.00127 0.993185
1.00092 0.999943 0.993069
1.00158 0.999426 0.992296
1.00012 1.00207 0.992376
1.00054 1.00322 0.990943
1.00021 1.00266 0.991554
1.00016 1.0021 0.992321
1.00024 1.00189 0.992358
0.998997 1.00001 0.996071
1.00024 1.00209 0.992125
1.00042 1.00169 0.992159
0.999462 0.998874 0.996828
1.00028 1.00172 0.992529
0.997539 0.999688 0.997586
0.99821 1.00059 0.998272
1.00027 1.00114 0.992726
1.00026 1.00139 0.992807
0.992987 1.00372 0.986211
0.99352 1.00275 0.968448
0.994709 1.00041 0.947062
0.998325 1.00221 0.995558
0.996965 1.00256 0.998479
0.994093 1.00229 0.967141
0.995508 1.00002 0.962792
0.994858 0.999373 0.983712
0.995295 0.999927 0.948073
0.993698 1.00453 0.967832
0.994416 0.999859 0.952691
0.997306 1.00233 0.997587
0.99295 1.00384 0.983456
0.993672 1.00427 0.973496
0.995242 1.00304 0.999087
0.994558 0.999902 0.945144
0.995321 0.999053 0.9608
0.994935 0.999943 0.949573
0.996807 1.00207 0.998978
0.99342 1.00346 0.987199
0.993713 1.00428 0.969448
0.994689 0.999892 0.939698
0.995303 0.999921 0.948057
0.995853 0.998931 0.992917
0.996199 1.00012 0.955682
0.999516 0.99963 0.995823
0.9988 0.999573 0.997404
0.997524 0.998572 1.00135
1.0004 1.00096 0.992965
1.00032 0.999525 0.994455
0.999947 0.998969 0.995834
1.0002 1.00058 0.993725
0.999408 0.998203 0.997344
0.998822 1.002 0.994619
1.00015 1.00103 0.993386
1.00009 1.00141 0.993123
0.999728 1.00216 0.993196
0.999296 1.00431 0.991459
0.999603 1.00268 0.992605
0.999801 1.00383 0.990925
1.00039 1.00503 0.988945
1.00126 1.00476 0.987549
1.00006 1.00377 0.991065
1.00034 1.00489 0.988974
1.00051 1.00463 0.98936
0.99981 1.00453 0.990261
1.00029 1.00473 0.989377
0.999946 1.003 0.991801
0.999986 1.00391 0.990873
1.00013 1.00459 0.989635
1.00009 1.00105 0.993437
0.999954 1.0024 0.9923
0.999859 1.00361 0.99132
0.999981 1.00162 0.993088
1.00012 1.00062 0.993807
1.00007 0.999579 0.994921
1.00016 1.00041 0.993956
1.00014 0.999408 0.994971
0.999909 0.997812 0.996945
1.0002 0.999293 0.994977
0.999986 0.997664 0.996956
0.999824 0.99655 0.99933
1.00005 0.997552 0.99694
0.999931 0.996438 0.998861
0.999952 0.996385 0.999318
1.0003 1.00055 0.993482
1.00021 0.999454 0.994623
1.00026 1.00056 0.993609
1.00009 0.997515 0.996919
1.0002 0.999331 0.994761
1.00022 1.00048 0.993848
0.999991 0.996282 0.999332
1.00012 0.997383 0.996996
1.0002 0.999233 0.994872
1.00002 0.996191 0.999347
1.00014 0.997304 0.997041
1.00003 0.996166 0.999349
0.992921 1.00344 0.983479
0.993691 1.00313 0.966117
0.994779 0.999207 0.945632
1.00025 1.00119 0.993022
1.00024 1.00119 0.992985
1.0002 1.00158 0.992775
0.993773 1.00399 0.970323
0.993727 1.00413 0.969338
0.994731 1.00436 0.953272
0.995068 1.0005 0.981624
0.996794 1.0001 0.956802
0.995115 0.999948 0.947926
0.994557 0.999931 0.944119
0.995691 0.999969 0.977516
0.996379 1.00007 0.959361
0.995319 0.999991 0.949624
0.994491 0.999884 0.95076
0.995222 1 0.974195
0.99577 1.00006 0.961217
0.99465 1.00002 0.949716
0.994377 0.999975 0.949704
1.00027 1.00174 0.992431
1.00022 1.00196 0.992302
1.00013 1.002 0.992418
1.00022 1.00166 0.992603
1.00018 1.00178 0.992638
1.00024 1.00128 0.993074
0.9991 0.999907 0.996449
0.999355 0.998305 0.996794
1.00023 1.00196 0.992382
1.00063 1.0015 0.992204
1.0002 1.00211 0.992256
1.00032 1.00166 0.992442
1.00022 1.00141 0.992914
0.997558 0.99994 0.997845
1.00022 1.00112 0.993099
0.998093 1.00011 0.998786
1.0002 1.00132 0.993068
0.996042 0.999223 0.998891
0.997859 1.00115 0.998988
1 1.00039 0.994373
0.993684 1.00374 0.990969
0.99284 1.00369 0.98745
0.993405 1.00324 0.968993
0.997605 1.00238 0.997207
0.996044 1.00243 0.997148
0.992845 1.00385 0.983534
0.995513 0.999154 0.966536
0.99471 1.00002 0.948322
0.993601 1.00435 0.976851
0.994554 0.999888 0.944335
0.996643 1.00243 0.999141
0.99338 1.00349 0.988288
0.993771 1.00419 0.969305
0.995205 0.999638 0.988312
0.994648 0.999842 0.937459
0.995553 0.999919 0.948604
0.99554 1.00013 0.961444
0.995695 1.00139 1.00153
0.992901 1.00342 0.98356
0.994618 1.00407 0.954515
0.994684 0.998174 0.936144
0.995572 0.999895 0.942877
0.995539 1.00002 0.961142
0.99577 0.998876 0.984292
0.998702 1.00018 0.997203
0.99752 0.998327 1.00121
0.997766 1.00037 0.998926
1.00017 1.00069 0.99368
0.999499 0.997796 0.997412
0.998669 1.00208 0.994922
0.998784 1.00376 0.993202
0.999914 1.00225 0.993026
0.999739 1.00427 0.991123
1.00046 1.00506 0.98873
0.999616 1.00371 0.991216
1.00044 1.00499 0.988868
1.0017 1.00504 0.986864
1.00244 1.00445 0.985913
1.00089 1.00441 0.988325
1.00125 1.00485 0.987466
1.00047 1.00489 0.988836
1.0004 1.00423 0.989918
1.00035 1.00449 0.989615
0.999874 1.00382 0.990941
0.999887 1.00445 0.990382
1.00031 1.00459 0.989514
1.00005 1.00174 0.992805
0.999972 1.00294 0.991809
1.00002 1.0039 0.990858
1.00001 0.999857 0.994747
1.00009 1.00107 0.993425
0.99994 1.00237 0.992277
1.00012 1.00065 0.993794
1.00007 0.999578 0.994918
0.99982 0.998014 0.996903
1.00014 0.999401 0.994972
0.999912 0.997813 0.996944
0.999759 0.996716 0.999321
0.999993 0.997656 0.996955
0.999852 0.996573 0.998868
0.999894 0.996477 0.999322
1.00032 1.00055 0.993523
1.00022 0.99954 0.994665
1.00029 1.00055 0.993515
1.00005 0.997667 0.996836
1.00021 0.999459 0.99469
1.00027 1.00055 0.993683
0.999951 0.996404 0.999313
1.00009 0.997508 0.996923
1.0002 0.999341 0.994741
0.999995 0.996265 0.999337
1.00012 0.997379 0.996999
1.00002 0.996183 0.999349
0.993451 1.00322 0.987316
0.993012 1.00316 0.983571
0.993719 1.00322 0.965998
1.00022 1.00127 0.992942
1.00009 1.0019 0.992655
1.00024 1.00121 0.993043
1.00024 1.0012 0.992985
1.00019 1.00157 0.992745
1.00015 1.00163 0.992795
1.00017 1.00173 0.992638
0.993787 1.00412 0.968066
0.993633 1.00408 0.973701
0.993782 1.00393 0.969212
0.994427 0.999879 0.952699
0.994859 1.00004 0.975179
0.995551 1.00011 0.959628
0.994736 0.999991 0.950085
0.995694 1 0.973536
0.995448 1.00007 0.957571
0.994791 0.999958 0.950766
0.994444 0.999973 0.950409
0.995937 0.997887 0.978195
0.995127 1.00007 0.957177
0.995357 0.999957 0.947223
0.994578 0.99986 0.94151
1.00014 1.00154 0.992926
1.00026 1.0017 0.992441
1.00021 1.00196 0.992279
1.00023 1.00166 0.992595
0.997655 1.00026 0.998084
0.99801 0.999553 0.999282
1.00035 1.00159 0.992355
1.00018 1.00139 0.99302
1.00011 1.00114 0.993471
1.00019 1.00135 0.992994
0.999882 1.00043 0.994332
0.995829 1.00003 0.997008
0.997433 1.00138 0.999209
0.999694 1.00108 0.994006
0.995797 0.999219 0.99688
0.998148 1.00138 0.998297
0.992978 1.00371 0.986322
0.993928 1.00343 0.991555
0.992791 1.00365 0.988691
0.996558 1.00262 0.999256
0.995677 0.999005 0.993703
0.993394 1.00345 0.98938
0.996362 1.00013 0.956239
0.994869 0.999981 0.949084
0.993827 1.00401 0.969163
0.99463 0.999821 0.937575
0.995707 1.00102 1.00172
0.992983 1.00327 0.98363
0.994653 1.00405 0.954078
0.995009 0.998795 0.988273
0.994673 0.998137 0.931618
0.997562 0.999928 0.944811
0.995447 1.00007 0.958068
0.996059 1.00125 0.999155
0.993696 1.00269 0.966516
0.995013 0.999322 0.939386
0.997454 0.999713 0.944323
0.995329 1.00039 0.96159
0.994863 0.999413 0.978523
0.997615 0.997962 1.00101
0.997548 1.00096 0.998889
0.999602 0.99871 0.997746
0.998494 1.00218 0.995224
0.998332 1.00382 0.993504
1.00097 1.0027 0.989985
1.0002 1.00421 0.990786
1.00068 1.00504 0.988549
1.00206 1.00334 0.987189
1.0005 1.00494 0.988791
1.00171 1.005 0.986735
1.00309 1.00285 0.985883
1.00372 1.00193 0.985895
1.00215 1.00462 0.986471
1.0025 1.00437 0.985702
1.00079 1.00382 0.989107
1.00088 1.00442 0.988504
1.00125 1.00494 0.987382
1.00039 1.00389 0.990145
1.00035 1.00427 0.989882
1.00018 1.00436 0.989869
1.00008 1.00249 0.991986
0.999907 1.00369 0.991087
0.999972 1.00437 0.990503
0.99996 1.00037 0.994321
1.00007 1.00172 0.992805
0.999999 1.00289 0.991816
0.999741 0.99824 0.996833
1.00001 0.999877 0.994737
1.00009 1.00108 0.993413
1.00008 0.999576 0.994915
0.999827 0.998018 0.996901
0.999664 0.996912 0.99931
0.999916 0.997817 0.996943
0.999747 0.996748 0.999318
0.999821 0.996606 0.999322
1.00021 1.00138 0.992914
1.00032 1.00059 0.993477
1.00021 0.999632 0.994588
1.00032 1.00055 0.99352
1 0.997828 0.99676
1.00022 0.999561 0.994662
1.00028 1.00056 0.993548
0.9999 0.996551 0.999294
1.00005 0.997661 0.996841
1.00022 0.999464 0.994757
0.999956 0.99638 0.999319
1.00009 0.997502 0.996928
0.999999 0.996246 0.999341
0.993108 1.0035 0.983597
0.993393 1.00327 0.988391
0.993064 1.00307 0.983663
1.00023 1.00125 0.992971
1.00008 1.00191 0.992612
1.00006 1.00221 0.992295
1.00008 1.00179 0.992661
1.00003 1.00233 0.99236
1.00024 1.00119 0.992984
1.00018 1.00156 0.992715
1.00013 1.00163 0.992796
1.00019 1.00173 0.992602
1.00006 1.00186 0.992778
0.994432 1.00384 0.954501
0.993766 1.00421 0.967935
0.993529 1.00416 0.977075
0.99446 0.999966 0.950679
0.994646 1 0.948928
0.995105 1.00001 0.972239
0.994976 1.00004 0.960639
0.995678 0.998049 0.974178
0.995778 1.00006 0.960805
0.99481 0.999939 0.949287
0.994765 0.999864 0.939367
0.99616 0.995448 0.978809
0.995362 1.00007 0.961634
0.996073 0.999894 0.947273
0.995035 0.998147 0.93566
0.999587 1.00112 0.994229
1.00011 1.00161 0.992921
1.00027 1.00167 0.992452
0.995648 1.00075 0.995147
0.997242 1.00146 0.999433
1.0002 1.00136 0.992919
0.999833 1.00054 0.994292
0.99969 1.00111 0.994017
0.998106 1.00089 0.998136
0.995427 0.999151 0.997052
0.998337 1.00123 0.996577
0.995866 1.00111 0.995993
0.993767 1.00272 0.967078
0.992857 1.00363 0.987594
0.993819 1.00324 0.992142
0.99558 1.00078 1.00196
0.995195 0.998536 0.982119
0.993033 1.00329 0.983699
0.996304 1.00003 0.957911
0.99535 0.999969 0.946958
0.994664 1.00426 0.953645
0.994666 0.998045 0.927078
0.99607 1.00088 0.999362
0.99373 1.00309 0.96632
0.99494 0.999535 0.937854
0.994927 0.999323 0.980168
0.997129 0.999767 0.944599
0.996125 1.00001 0.958413
0.997683 0.999221 0.995213
0.99475 0.999432 0.945798
0.997795 0.99725 0.945432
0.99779 1.00066 0.957086
0.994845 0.999607 0.980006
0.9974 1.00141 0.998843
0.999414 0.998744 0.997796
1.00219 0.998696 0.992828
0.997917 1.00383 0.993799
1.00047 1.00293 0.990398
1.00294 0.9995 0.988786
1.00089 1.00504 0.988368
1.00208 1.00337 0.987254
1.00388 0.999915 0.987436
1.00171 1.005 0.986606
1.0031 1.00285 0.985932
1.00457 0.999186 0.986638
1.00462 0.999172 0.986927
1.00296 1.00336 0.985799
1.00363 1.00185 0.985937
1.00173 1.00398 0.987638
1.00202 1.00466 0.9863
1.00255 1.0043 0.985491
1.00083 1.00329 0.989819
1.00077 1.00375 0.989291
1.00087 1.00442 0.988684
1.00034 1.00286 0.99117
1.00033 1.00388 0.990219
1.0003 1.00433 0.989844
0.999961 1.00111 0.993578
1.00012 1.00246 0.991987
0.999935 1.00356 0.991234
0.999638 0.998584 0.997127
0.999953 1.00039 0.994306
1.00008 1.00169 0.992806
0.999585 0.997178 0.998327
0.99974 0.998273 0.997046
1 0.999894 0.994726
0.999834 0.998023 0.996898
0.999652 0.996957 0.999304
0.999735 0.996784 0.999315
1.00016 1.0017 0.992606
1.0003 1.00076 0.993352
1.00019 1.00142 0.99288
1.00018 0.999747 0.994546
1.00031 1.00062 0.993479
0.999945 0.997992 0.996699
1.00021 0.999657 0.994585
1.00032 1.00057 0.993518
0.999839 0.996713 0.999274
0.999998 0.997828 0.996763
1.00021 0.999585 0.994658
0.999906 0.996525 0.9993
1.00005 0.997655 0.996845
0.999962 0.996355 0.999325
0.994069 1.00256 0.967762
0.992967 1.00351 0.983682
0.993408 1.00326 0.989469
1.00002 1.00254 0.992128
1.00023 1.00127 0.993
1.00009 1.00192 0.992568
1.00009 1.00181 0.992694
1.00009 1.00217 0.992341
1.00003 1.00231 0.992321
1.00003 1.00262 0.992015
0.999945 1.00232 0.992331
1.00012 1.00164 0.992796
1.0002 1.00173 0.992567
1.00003 1.0019 0.992742
0.999856 1.00229 0.993046
0.994886 0.999779 0.937515
0.994635 1.00395 0.954015
0.993705 1.00429 0.967809
0.99496 0.999888 0.939851
0.995341 0.999933 0.949316
0.995141 1.00008 0.957279
0.995975 0.998163 0.973256
0.996403 0.99525 0.980783
0.994805 0.998126 0.931248
0.995283 1.00009 0.958325
0.997124 0.99992 0.944394
0.995595 0.997578 0.981919
0.996032 1.00006 0.96293
0.997525 0.999758 0.943303
0.999244 1.00051 0.995467
0.999729 1.00107 0.994214
1.00006 1.00169 0.992916
0.99505 0.998944 0.997153
0.998055 1.00025 0.997981
0.999665 1.00112 0.994029
0.998868 1.00107 0.996404
0.995726 1.00107 0.996203
0.997793 1.00083 0.99514
0.994685 0.999999 0.942281
0.993601 1.00267 0.970858
0.992824 1.0035 0.988868
0.996013 1.00088 0.999623
0.994842 0.999393 0.981302
0.993768 1.00325 0.966183
0.995504 1.00005 0.959245
0.997437 0.999753 0.941335
0.994976 0.999631 0.938864
0.997585 0.99944 0.995302
0.994753 0.999115 0.946122
0.998367 0.997182 0.943206
0.995044 0.999598 0.975893
0.99646 1.00051 0.961406
0.998748 0.999073 0.995574
0.999955 0.99512 0.942211
0.998057 0.999707 0.961138
0.995153 1.00011 0.974501
0.999159 0.998842 0.997873
1.00169 0.998391 0.993582
1.00377 0.997007 0.990922
0.999977 1.00327 0.990813
1.00294 0.999891 0.988715
1.00453 0.99674 0.989095
1.00209 1.00342 0.987319
1.00372 1.00003 0.987469
1.00493 0.997402 0.988067
1.00312 1.0028 0.98598
1.00462 0.999268 0.98661
1.00502 0.997365 0.987683
1.00483 0.997972 0.987678
1.004 1.00082 0.986544
1.00457 0.999185 0.986913
1.00246 1.00308 0.986715
1.00292 1.00325 0.985973
1.00356 1.00177 0.985978
1.00131 1.00323 0.989013
1.00158 1.00401 0.987661
1.00188 1.0047 0.986129
1.00073 1.00272 0.990609
1.00088 1.00329 0.989802
1.00075 1.00369 0.989475
1.00008 1.00179 0.992699
1.00036 1.00284 0.991178
1.00028 1.00386 0.990294
0.999597 0.999001 0.996298
0.999976 1.00109 0.993562
1.00015 1.00242 0.991988
0.999441 0.997455 0.999265
0.999653 0.998633 0.996613
0.999948 1.00041 0.99429
0.999559 0.997175 0.999285
0.999749 0.998287 0.996801
0.99964 0.997 0.999299
1.00012 1.00208 0.992397
1.00018 1.00169 0.992603
1.00026 1.00106 0.993107
1.00012 0.999898 0.994503
1.00028 1.00076 0.993357
1.00019 1.00143 0.992846
0.999882 0.998147 0.996666
1.00018 0.99975 0.994546
1.0003 1.00061 0.99348
0.99977 0.996882 0.999258
0.999941 0.997993 0.996702
1.0002 0.999675 0.994582
0.999845 0.996689 0.99928
0.999994 0.997827 0.996767
0.999912 0.996497 0.999305
0.994713 0.999946 0.940694
0.99406 1.00257 0.967593
0.992871 1.00351 0.983764
0.999992 1.00261 0.99208
1.00006 1.00303 0.991653
0.999942 1.00295 0.991833
1.00011 1.00182 0.992727
1.00011 1.00211 0.992387
1 1.0023 0.992282
0.999982 1.00233 0.992302
1.00001 1.00264 0.991979
0.999842 1.00341 0.991657
1.00009 1.00155 0.992905
1.00003 1.00192 0.992706
0.99981 1.00211 0.993037
0.999193 0.997349 0.941913
0.994793 0.999839 0.935289
0.99482 1.00405 0.953558
0.994642 0.998048 0.926824
0.995782 0.999852 0.946758
0.996123 1.00004 0.960576
0.995976 0.995246 0.978208
0.995301 0.997652 0.979771
0.99708 0.999347 0.944024
0.996017 1.00005 0.958981
0.996065 0.997462 0.980805
0.997382 1.00077 0.956473
1.00118 1.00009 0.993016
0.999418 1.00039 0.99532
0.999838 1.00099 0.994202
0.99552 1.00119 0.996392
0.999225 1.00098 0.996224
0.998308 1.00119 0.99453
1.00115 0.999913 0.989966
0.999991 0.995133 0.942729
0.994693 1.00035 0.944661
0.993455 1.00264 0.974601
0.997518 0.999454 0.995445
0.994868 0.999556 0.976461
0.994782 0.999116 0.946081
0.996375 1.00066 0.956501
0.999463 0.99892 0.946421
0.998687 0.999334 0.994315
0.99997 0.99535 0.943485
0.999397 0.998607 0.956069
0.995289 0.999782 0.977121
0.999494 0.998222 0.995274
1.00047 0.996907 0.958635
0.995968 1.00122 0.979655
1.00117 0.998036 0.994332
1.00364 0.996716 0.990887
1.00501 0.99494 0.990162
1.00294 1.00019 0.988642
1.00443 0.99672 0.9891
1.00489 0.995634 0.989582
1.00355 1.00009 0.987504
1.00483 0.997372 0.988014
1.00515 0.996241 0.988595
1.00467 0.99935 0.986582
1.00505 0.997403 0.987676
1.00507 0.996945 0.988103
1.00487 0.997662 0.987908
1.0048 0.997897 0.987743
1.00443 0.998989 0.987457
1.00355 1.0013 0.98683
1.00399 1.0008 0.986547
1.0045 0.999191 0.986898
1.00208 1.00275 0.987808
1.00248 1.00312 0.986869
1.00289 1.00313 0.986146
1.00108 1.00263 0.990021
1.00133 1.00324 0.988987
1.00143 1.00403 0.987684
1.00028 1.00204 0.992043
1.00077 1.0027 0.99061
1.00092 1.00328 0.989785
0.999602 0.999511 0.995746
1.00011 1.00172 0.992697
1.0004 1.00281 0.991186
0.999411 0.997731 0.999192
0.999597 0.999062 0.996267
0.999992 1.00106 0.993547
0.999471 0.997489 0.998755
0.999663 0.998649 0.996601
0.999547 0.997253 0.999272
1.00014 1.00253 0.991892
1.0001 1.00214 0.992362
1.00017 1.00155 0.992796
1.00021 1.0017 0.9926
1.00025 1.00107 0.99311
1.00003 1.00017 0.994366
0.999813 0.998303 0.996644
1.00012 0.999891 0.994508
1.00027 1.00079 0.993362
0.999691 0.997046 0.999249
0.999878 0.998144 0.996667
1.00017 0.999754 0.994546
0.999777 0.99686 0.999263
0.999936 0.997995 0.996704
0.999852 0.99666 0.999286
0.999924 0.995231 0.944773
0.994765 1.00029 0.940288
0.994057 1.0026 0.967418
0.999966 1.00269 0.992032
0.999933 1.00307 0.991714
0.999986 1.003 0.991741
1.00029 1.00327 0.991002
0.999871 1.00357 0.991378
1.00001 1.00235 0.992274
0.999996 1.00266 0.991943
0.9998 1.00327 0.991684
0.999704 1.00394 0.99084
1.00018 1.00245 0.991835
1.00247 1.00069 0.989535
0.999858 1.00181 0.993056
0.999818 1.00192 0.993028
0.999852 0.998302 0.957705
0.998489 0.997525 0.942978
0.994772 0.9998 0.935664
0.997561 0.999848 0.940496
0.995852 1.00058 0.958965
0.995538 0.997728 0.982756
0.995847 0.99758 0.982871
0.996995 0.999816 0.961987
0.998099 0.999867 0.977958
1.00359 0.99841 0.989726
1.00082 0.999908 0.993017
0.999575 1.00029 0.995169
0.998576 1.00144 0.993959
1.00193 1.00076 0.988744
1.0007 0.99569 0.956458
0.999963 0.995414 0.945089
0.994723 1.00066 0.947077
0.998586 0.999592 0.993034
0.994878 1.00004 0.974606
0.999908 0.994923 0.94403
0.998537 1.00025 0.961396
0.999398 0.998969 0.995458
1.00158 0.995595 0.959212
0.995864 1.00076 0.976176
1.00092 1.00143 0.992391
1.00021 0.997573 0.983606
1.00353 0.996452 0.990853
1.00498 0.99491 0.989926
1.00503 0.994978 0.990005
1.00433 0.996729 0.989102
1.00478 0.995721 0.989579
1.00517 0.995076 0.989634
1.00473 0.997359 0.98796
1.00517 0.99618 0.988576
1.00511 0.9962 0.988738
1.00507 0.997436 0.987669
1.00507 0.996981 0.988072
1.00502 0.997238 0.987996
1.00482 0.997558 0.988018
1.00469 0.998318 0.987635
1.00476 0.997833 0.987809
1.00444 0.998951 0.987451
1.00409 0.999848 0.987267
1.00305 1.00151 0.987312
1.00354 1.00134 0.986792
1.00398 1.00078 0.98655
1.00164 1.00243 0.989197
1.00204 1.00279 0.98792
1.00248 1.00316 0.987024
1.00051 1.00205 0.991559
1.00113 1.00262 0.990001
1.00136 1.00325 0.988962
0.999669 1.00004 0.995083
1.00031 1.00201 0.992051
1.00079 1.00269 0.990611
0.99941 0.998042 0.999081
0.999597 0.999585 0.995718
1.00014 1.00166 0.992696
0.999428 0.997788 0.999161
0.999595 0.999126 0.996235
0.999475 0.997542 0.999221
1.00042 1.00283 0.991131
1.00014 1.0025 0.991892
1.00017 1.00206 0.992238
1.00008 1.00218 0.992326
1.00015 1.00163 0.992724
0.999982 1.00064 0.993975
1.00024 1.00107 0.993112
1.00005 1.00014 0.994375
0.99973 0.998519 0.996586
0.999604 0.997221 0.99924
0.999807 0.998303 0.996646
1.00012 0.999886 0.994512
0.999701 0.997026 0.999252
0.999875 0.998143 0.996668
0.999784 0.996837 0.999268
1.00168 0.99544 0.960122
0.999922 0.995292 0.943385
0.994797 1.00068 0.939343
0.999919 1.00319 0.991596
0.999914 1.00296 0.991829
0.999881 1.00356 0.991422
1.00025 1.00324 0.99104
1.00049 1.00386 0.990009
0.999883 1.00377 0.99096
0.999757 1.00313 0.991712
0.999942 1.00404 0.990534
1.00008 1.00275 0.991658
1.00067 1.00299 0.989829
1.00283 1.00089 0.989589
1.00389 0.999424 0.987422
1.00223 1.00067 0.989758
0.999613 1.00215 0.993207
0.997482 1.00005 0.97662
1.00004 0.998371 0.95783
0.998363 0.997649 0.946299
0.998615 1.00061 0.956526
0.99591 0.997754 0.984532
0.998563 0.999259 0.982298
1.00234 0.99842 0.990807
1.00352 0.998296 0.99012
1.00071 0.999704 0.993014
1.00324 1.00177 0.987486
0.999052 0.997455 0.978525
1.00134 0.995203 0.962094
0.999963 0.995895 0.942238
0.999348 0.99959 0.995601
0.995628 1.00105 0.978541
1.00113 0.995132 0.959983
1.00083 1.00064 0.992527
0.99949 0.997937 0.98228
1.00358 1.00087 0.989458
1.00456 0.996098 0.989514
1.00497 0.994886 0.989688
1.00502 0.994969 0.98994
1.00512 0.995084 0.989888
1.00468 0.995814 0.989579
1.00516 0.995159 0.989605
1.00513 0.995707 0.989266
1.00518 0.996103 0.988556
1.0051 0.996262 0.988711
1.00509 0.996955 0.988199
1.00507 0.997017 0.98804
1.005 0.997243 0.987999
1.00489 0.997962 0.987517
1.00477 0.997448 0.988126
1.00468 0.998188 0.987699
1.00448 0.999151 0.987298
1.00445 0.998904 0.987445
1.0041 0.999849 0.987245
1.00372 1.00039 0.98748
1.0024 1.00156 0.988396
1.003 1.00159 0.987407
1.00353 1.00139 0.986754
1.00091 1.00197 0.990946
1.00166 1.0024 0.98919
1.00201 1.00282 0.988032
0.99973 1.00055 0.994463
1.00054 1.00208 0.991554
1.00117 1.00262 0.98998
0.99944 0.99838 0.998919
0.999688 1.00006 0.995072
1.00034 1.00196 0.992059
0.999436 0.998101 0.999032
0.999598 0.999649 0.99569
0.999449 0.997843 0.999128
1.00064 1.00331 0.990251
1.00043 1.0028 0.991172
1.00037 1.00239 0.991624
1.00014 1.00249 0.991892
1.00017 1.00212 0.992162
1.00002 1.0012 0.99335
1.00014 1.0017 0.992652
0.999989 1.00063 0.993985
0.999644 0.998847 0.996415
1.00006 1.00011 0.994383
0.999727 0.998502 0.996594
0.999518 0.997435 0.999223
0.999617 0.997199 0.999243
0.999801 0.9983 0.996648
0.99971 0.997009 0.999255
0.998415 0.998624 0.977899
1.00162 0.995918 0.955504
0.99987 0.995489 0.945578
1.00134 1.00349 0.988833
0.999897 1.00356 0.991465
1.00021 1.00321 0.991078
0.999956 1.00384 0.990888
1.00043 1.00395 0.989966
1.00048 1.00316 0.990401
1.00017 1.00415 0.990228
1.00006 1.00302 0.991482
1.00086 1.00288 0.990058
1.00259 1.00101 0.98947
1.00405 0.99987 0.987083
1.00471 0.99811 0.987489
1.00402 0.99946 0.987082
1.00204 1.00058 0.989982
1.00139 0.998534 0.993149
0.99769 1.00028 0.97518
0.999445 0.998006 0.958315
0.998515 0.998755 0.980569
1.00233 0.997515 0.992536
1.00308 0.998113 0.990514
1.00301 0.997191 0.988693
0.998457 0.996357 0.981244
1.00082 0.995442 0.956281
1.00074 0.999954 0.99266
0.999529 0.998223 0.980829
1.00348 0.999249 0.989623
1.00456 0.996287 0.98948
1.0051 0.996024 0.989504
1.00513 0.996345 0.9896
1.005 0.994979 0.989873
1.00512 0.995043 0.989927
1.0051 0.995531 0.989529
1.00516 0.995239 0.989574
1.00513 0.995735 0.989257
1.00512 0.996708 0.988406
1.0051 0.996338 0.988684
1.00508 0.996969 0.98817
1.00503 0.997884 0.987338
1.00498 0.997251 0.988002
1.0049 0.997971 0.987518
1.00474 0.998661 0.987174
1.00469 0.998062 0.987763
1.00447 0.999031 0.987328
1.00411 0.99972 0.987311
1.0041 0.99985 0.987223
1.0037 1.00037 0.987416
1.00312 1.00074 0.988185
1.00152 1.00146 0.99034
1.00237 1.00161 0.988493
1.00294 1.00166 0.987501
0.999843 1.00091 0.993895
1.00093 1.00197 0.990938
1.00169 1.00238 0.989183
0.999413 0.998802 0.99874
0.999808 1.00047 0.994454
1.00057 1.00209 0.99155
0.999453 0.998456 0.998859
0.999706 1.00007 0.99506
0.999466 0.998162 0.998977
1.00117 1.00331 0.989087
1.00062 1.00328 0.990269
1.00064 1.00267 0.990921
1.00045 1.00277 0.991214
1.00036 1.00237 0.991643
1.00012 1.00166 0.992733
1.00018 1.00217 0.992086
0.999997 1.00125 0.99335
0.999571 0.999311 0.996064
0.999991 1.00063 0.993994
0.999644 0.998807 0.996435
0.999455 0.997678 0.999179
0.999726 0.998488 0.996602
0.999528 0.997397 0.99923
0.999627 0.997178 0.999246
1.00197 0.99855 0.991129
0.998435 0.998487 0.974528
1.00064 0.996189 0.960595
1.00145 1.00278 0.988906
1.00322 1.00156 0.987139
1.00111 1.00352 0.988946
1.00003 1.0039 0.990815
1.00038 1.00404 0.989918
1.00076 1.00307 0.990147
1.0038 1.00005 0.987663
1.001 1.00281 0.990288
1.00211 1.00115 0.989353
1.00383 1.00001 0.987366
1.00506 0.998402 0.98673
1.00506 0.996358 0.988551
1.0048 0.998109 0.987384
1.00419 0.999566 0.986743
1.00168 0.998454 0.993315
0.997294 1.0009 0.973087
1.00252 0.996674 0.994258
1.00513 0.996081 0.989887
1.00285 0.99729 0.988882
0.999107 0.996046 0.977509
1.00338 0.997768 0.9898
1.00455 0.996789 0.98944
1.0051 0.995669 0.989644
1.00512 0.996068 0.98945
1.00512 0.995569 0.989342
1.00514 0.995776 0.988833
1.00512 0.994987 0.989966
1.00511 0.995548 0.98952
1.00511 0.996667 0.988433
1.00513 0.995771 0.989247
1.00511 0.99679 0.98832
1.00512 0.997695 0.98741
1.00507 0.996983 0.988141
1.00503 0.997895 0.987348
1.00491 0.998537 0.986985
1.00491 0.99798 0.987519
1.00474 0.99866 0.98717
1.0044 0.999296 0.987185
1.00446 0.998908 0.987359
1.00408 0.999688 0.987317
1.0035 1.0002 0.987976
1.00367 1.00036 0.987352
1.00306 1.00073 0.988148
1.0021 1.00079 0.989943
1.00005 1.00088 0.993468
1.00152 1.00147 0.990336
1.00235 1.00167 0.988591
0.999317 0.999328 0.998576
0.999928 1.00082 0.993881
1.00095 1.002 0.99093
0.999411 0.998912 0.998684
0.999867 1.00042 0.994445
0.999469 0.998534 0.998798
1.00223 1.00246 0.987663
1.00117 1.00331 0.988946
1.00116 1.00271 0.98989
1.0006 1.00326 0.990287
1.00059 1.00267 0.990942
1.00026 1.00205 0.99216
1.00035 1.00236 0.991662
1.00009 1.00173 0.992729
0.999585 0.999811 0.995536
0.999981 1.0013 0.99335
0.999584 0.999241 0.996089
0.999428 0.997955 0.999083
0.999645 0.998768 0.996456
0.999454 0.997636 0.999196
0.999539 0.997367 0.999236
1.00511 0.995792 0.989151
1.00206 0.998263 0.990195
0.998391 0.997654 0.975282
1.00388 1.00033 0.987238
1.0012 1.00255 0.989653
1.00428 0.999405 0.98702
1.00332 1.00151 0.987091
1.00088 1.00355 0.989065
1.0051 0.998143 0.986901
1.00105 1.00297 0.989897
1.00392 1.00009 0.987303
1.00511 0.997443 0.987511
1.00369 1.00013 0.987648
1.00506 0.998299 0.986814
1.00502 0.996441 0.988628
1.00476 0.998166 0.98727
1.00179 0.998375 0.993513
1.00516 0.996162 0.988616
1.00513 0.996173 0.989912
1.0027 0.997091 0.989054
1.0051 0.99523 0.989791
1.00511 0.99582 0.989302
1.00511 0.995564 0.989488
1.00515 0.995832 0.988943
1.00513 0.99661 0.988381
1.00511 0.995547 0.989512
1.00511 0.996697 0.988437
1.00515 0.997572 0.987487
1.0051 0.996868 0.988233
1.00511 0.997767 0.987343
1.00502 0.998595 0.986741
1.00504 0.997906 0.987359
1.0049 0.998542 0.986989
1.00459 0.999136 0.986992
1.00473 0.99866 0.987167
1.0044 0.999295 0.987186
1.00382 0.999809 0.987766
1.00405 0.999654 0.987322
1.00349 1.0002 0.987983
1.00249 1.00035 0.989649
1.00301 1.00072 0.98811
1.00209 1.00081 0.989936
1.00026 1.00066 0.99429
0.999349 0.999811 0.996353
1.00014 1.00081 0.993963
1.00152 1.00149 0.990331
0.999328 0.999461 0.998515
1.00003 1.00071 0.993864
0.999412 0.999009 0.998622
1.00461 0.998958 0.987114
1.00328 1.00081 0.987383
1.0024 1.00242 0.987561
1.00185 1.00228 0.988968
1.00117 1.00331 0.988805
1.0011 1.00273 0.989917
1.00056 1.00217 0.991507
1.00054 1.00267 0.990963
1.00022 1.00206 0.992169
0.999681 1.00031 0.994893
1.00005 1.0018 0.992726
0.999581 0.999768 0.995552
0.999408 0.998308 0.998927
0.999595 0.999172 0.996114
0.999414 0.997905 0.999118
0.999455 0.997592 0.999211
1.00516 0.99669 0.988146
1.00513 0.995999 0.989592
1.00225 0.998119 0.989259
1.00502 0.998257 0.986959
1.00372 1.00032 0.987507
1.00094 1.00231 0.990389
1.00432 0.999484 0.987083
1.00342 1.00146 0.987042
1.00513 0.997564 0.987623
1.0051 0.998159 0.986841
1.00403 1.00016 0.986941
1.00511 0.997435 0.98749
1.00506 0.998192 0.986897
1.00501 0.996484 0.988724
1.00517 0.996791 0.98829
1.00517 0.996112 0.988679
1.00514 0.996248 0.98994
1.0051 0.995576 0.98963
1.00516 0.995885 0.989053
1.00513 0.996505 0.988527
1.00517 0.99759 0.98748
1.00511 0.996733 0.988441
1.00515 0.997588 0.987471
1.00513 0.998562 0.986581
1.0051 0.997838 0.987276
1.005 0.998594 0.986752
1.00474 0.999192 0.986674
1.00489 0.998548 0.986993
1.00459 0.999136 0.986992
1.00402 0.999608 0.987585
1.0044 0.999295 0.987186
1.00381 0.999809 0.987769
1.00277 1.00009 0.989392
1.00347 1.0002 0.987989
1.0025 1.00035 0.98964
1.00048 1.00034 0.994252
1.00208 1.00083 0.989929
1.00038 1.00061 0.994239
0.999341 1.00015 0.996202
0.999267 0.999955 0.997347
1.00027 1.00073 0.994393
0.999335 0.999581 0.998452
1.00504 0.998411 0.986797
1.00409 0.999741 0.98743
1.00458 0.998746 0.987291
1.00267 1.00137 0.988298
1.00337 1.00087 0.987386
1.00256 1.00237 0.987458
1.00184 1.00229 0.988965
1.00107 1.00193 0.990762
1.00105 1.00274 0.989943
1.00052 1.00215 0.99152
0.999817 1.00073 0.994249
1.00017 1.00206 0.992178
0.999632 1.00033 0.994904
0.999339 0.998819 0.998734
0.99958 0.999716 0.995567
0.999397 0.998237 0.998982
0.999406 0.997855 0.999151
1.00515 0.997135 0.987924
1.00515 0.996686 0.988139
1.00515 0.996132 0.990015
1.00514 0.997885 0.987205
1.00503 0.998317 0.986948
1.00358 1.00032 0.98778
1.00435 0.999551 0.987145
1.00513 0.997545 0.987547
1.0051 0.998171 0.986781
1.0051 0.997437 0.987469
1.00514 0.99742 0.987672
1.00516 0.996829 0.988219
1.00517 0.996074 0.988741
1.00515 0.997844 0.987213
1.00514 0.996396 0.988674
1.00517 0.997594 0.987479
1.00517 0.998391 0.986746
1.00515 0.997604 0.987454
1.00511 0.998563 0.986593
1.00493 0.999158 0.986348
1.00498 0.998595 0.986763
1.00473 0.999193 0.986679
1.00417 0.999649 0.987265
1.00459 0.999137 0.986992
1.00402 0.99961 0.987582
1.00294 0.999961 0.98921
1.00381 0.999809 0.987772
1.00278 1.00008 0.989388
1.00068 1.00008 0.994207
1.0025 1.00035 0.989631
1.00059 1.00031 0.994199
0.999395 1.00013 0.99619
1.00052 1.00053 0.994193
0.999214 1.00029 0.996284
0.999092 1.00007 0.998493
1.0051 0.998462 0.986706
1.00471 0.998957 0.986935
1.00503 0.998445 0.986852
1.00344 1.00042 0.988101
1.00411 0.999611 0.987405
1.00458 0.998543 0.987464
1.00176 1.00132 0.990035
1.00268 1.00139 0.988277
1.00346 1.00093 0.98739
1.00182 1.00231 0.988963
1.00105 1.0019 0.990773
0.999986 1.00097 0.993699
1.00049 1.00213 0.991534
0.999727 1.00082 0.994265
0.999222 0.999466 0.99855
0.999584 1.00037 0.994914
0.999343 0.998708 0.998804
0.999391 0.998165 0.999034
1.00514 0.99762 0.987419
1.00515 0.997081 0.987941
1.00515 0.99668 0.988131
1.00514 0.997839 0.98724
1.00504 0.998382 0.986935
1.00513 0.997524 0.98747
1.00513 0.997854 0.987297
1.00514 0.997483 0.987633
1.00516 0.996867 0.988149
1.00516 0.997809 0.987273
1.00515 0.998337 0.986776
1.00517 0.997599 0.987478
1.00516 0.998445 0.986654
1.00504 0.998995 0.986287
1.00509 0.998562 0.986605
1.00491 0.999165 0.986361
1.0044 0.999695 0.986805
1.00471 0.999191 0.986685
1.00417 0.999649 0.987262
1.00306 0.999951 0.988979
1.00402 0.999612 0.987579
1.00295 0.999946 0.989207
1.0008 0.999964 0.994118
1.00279 1.00006 0.989383
1.00076 1.00007 0.994149
0.999509 1.00002 0.99615
1.00069 1.00027 0.994154
0.999262 1.00023 0.996283
0.999076 1.00049 0.996356
1.00512 0.998162 0.986983
1.00485 0.998923 0.986651
1.0051 0.998391 0.986758
1.00404 0.99959 0.987645
1.00471 0.999022 0.986942
1.005 0.998476 0.986911
1.00242 1.00056 0.989533
1.00344 1.00034 0.987951
1.00413 0.999471 0.98738
1.00022 1.00089 0.993289
1.00176 1.0013 0.990045
1.00269 1.00141 0.988255
1.00104 1.00189 0.990784
0.99988 1.00107 0.99372
0.999166 1.00007 0.998403
0.999634 1.00092 0.994279
0.999235 0.999322 0.998617
0.999351 0.99859 0.998866
1.00514 0.997906 0.987191
1.00514 0.997604 0.987448
1.00515 0.997028 0.987957
1.00514 0.997793 0.987276
1.00514 0.998341 0.986779
1.00513 0.997865 0.987304
1.00514 0.997545 0.987595
1.00517 0.997779 0.987332
1.00515 0.998303 0.986811
1.00509 0.998919 0.98639
1.00515 0.998498 0.986562
1.00504 0.999063 0.986265
1.00461 0.999518 0.986468
1.00488 0.999177 0.986375
1.00438 0.999694 0.986812
1.00327 0.999975 0.988571
1.00417 0.999653 0.98726
1.00308 0.999941 0.988973
1.00089 0.999992 0.992862
1.00296 0.999928 0.989204
1.00086 0.999937 0.993534
0.999541 1 0.998268
1.00083 1.00006 0.994094
0.999386 1.00006 0.996248
0.999138 1.00035 0.996361
1.00512 0.99818 0.987002
1.00493 0.998808 0.986655
1.00512 0.998214 0.986963
1.00429 0.999283 0.987182
1.00486 0.998925 0.986707
1.0051 0.998322 0.98681
1.00289 0.999931 0.988978
1.00405 0.999614 0.987639
1.00472 0.999095 0.986949
1.00053 1.00049 0.993063
1.00242 1.00052 0.989407
1.00344 1.00025 0.9878
0.999222 1.00041 0.998308
1.00015 1.00095 0.993307
1.00176 1.0013 0.990055
0.999788 1.00115 0.993739
0.999141 0.999928 0.998455
0.999241 0.999163 0.998682
1.00514 0.998288 0.986833
1.00514 0.997897 0.987202
1.00513 0.997591 0.987477
1.00509 0.99889 0.98638
1.00514 0.998306 0.98682
1.00514 0.997873 0.987311
1.00515 0.998264 0.986845
1.00509 0.998913 0.986387
1.00475 0.999401 0.986598
1.00503 0.999133 0.986243
1.00461 0.999581 0.986593
1.00353 0.999865 0.987919
1.00438 0.999687 0.98682
1.00327 0.999969 0.988569
1.00102 1.00006 0.992544
1.00309 0.999932 0.988967
1.0009 0.999982 0.992852
0.999573 0.999988 0.998233
1.00087 0.999928 0.993002
0.99949 0.999971 0.997256
0.999265 1.0001 0.99634
1.00511 0.998381 0.986859
1.00496 0.998734 0.98669
1.00512 0.998164 0.986997
1.00438 0.999308 0.98715
1.00492 0.99883 0.986612
1.00512 0.998264 0.986942
1.00316 0.999651 0.988771
1.0043 0.999353 0.98734
1.00486 0.998924 0.986762
1.00078 1.00007 0.992978
1.00291 0.999932 0.988954
1.00406 0.999634 0.987633
0.999352 1.0004 0.998265
1.00049 1.0005 0.993082
1.00243 1.00048 0.989281
0.999171 1.0003 0.998337
1.00008 1.00098 0.993334
0.99912 0.99978 0.998513
1.00508 0.99877 0.986525
1.00514 0.998303 0.98681
1.00514 0.997886 0.987213
1.00472 0.99931 0.986714
1.00509 0.998853 0.986431
1.00513 0.998279 0.986862
1.00509 0.998908 0.986384
1.00475 0.9994 0.986594
1.00369 0.999752 0.987741
1.0046 0.999646 0.986718
1.00351 0.999902 0.988046
1.00122 1.00006 0.99218
1.00328 0.999959 0.988568
1.00104 1.00006 0.992529
0.99965 0.999994 0.998154
1.00091 0.999978 0.992843
0.999598 0.999982 0.998209
0.99954 0.999901 0.996138
1.00496 0.998776 0.986779
1.00511 0.998311 0.986864
1.00444 0.999256 0.987114
1.00495 0.998734 0.98669
1.00512 0.998147 0.986992
1.00328 0.999681 0.988837
1.0044 0.999303 0.987145
1.00492 0.998852 0.98657
1.00094 0.999858 0.992876
1.00316 0.999702 0.988875
1.0043 0.999429 0.987498
0.999517 1.00019 0.998236
1.00077 1.00006 0.992987
1.00293 0.999928 0.988929
0.999309 1.00036 0.998274
1.00046 1.00052 0.993097
0.999107 1.00023 0.998376
1.00465 0.999269 0.986895
1.00508 0.998793 0.986508
1.00514 0.99832 0.986787
1.00365 0.99969 0.987852
1.00472 0.999324 0.986713
1.00509 0.998813 0.986482
1.00474 0.999401 0.986591
1.00368 0.999749 0.98774
1.00134 1.00004 0.991987
1.0035 0.999936 0.988172
1.00123 1.00006 0.992169
0.999784 1.00001 0.998042
1.00105 1.00006 0.992515
0.999697 0.999995 0.998115
0.999629 0.999974 0.998178
1.00449 0.999263 0.987049
1.00496 0.998693 0.986781
1.00511 0.99824 0.98687
1.00334 0.999704 0.988687
1.00445 0.999258 0.987103
1.00493 0.998733 0.98669
1.00105 0.999855 0.992692
1.00327 0.999692 0.988832
1.00441 0.999298 0.987139
0.999643 1.00002 0.998188
1.00094 0.999855 0.992883
1.00316 0.999746 0.988979
0.999472 1.00021 0.998244
1.00077 1.00006 0.992995
0.999256 1.00033 0.998285
1.00359 0.999756 0.988191
1.00467 0.999246 0.986756
1.00508 0.998813 0.986491
1.00135 0.999981 0.992023
1.00366 0.999685 0.987837
1.00472 0.999337 0.986712
1.00368 0.999745 0.987739
1.00134 1.00002 0.991989
0.999884 1.00001 0.997951
1.00123 1.00007 0.992157
0.999819 1.00001 0.998001
0.999735 0.999996 0.998074
1.00345 0.999742 0.988451
1.00451 0.999214 0.986996
1.00495 0.998613 0.986783
1.00118 0.999956 0.993575
1.00335 0.99971 0.988679
1.00446 0.99926 0.987092
0.99972 0.999952 0.998117
1.00105 0.99987 0.992697
1.00327 0.999702 0.988827
0.999604 1.00005 0.998208
1.00094 0.99986 0.99289
0.999434 1.00021 0.998249
1.00133 0.999986 0.992065
1.00359 0.999722 0.988093
1.00469 0.999221 0.986616
0.99991 1 0.997938
1.00134 0.999986 0.992024
1.00367 0.999683 0.987822
1.00134 1.00001 0.991988
0.999904 1.00001 0.997939
0.999867 1.00001 0.99797
1.00131 0.999998 0.993338
1.00346 0.999737 0.988454
1.00453 0.999164 0.986944
0.999553 0.999981 0.998262
1.00111 0.999968 0.992494
1.00336 0.999714 0.988671
0.99969 0.999976 0.998147
1.00104 0.999891 0.992704
0.999574 1.00007 0.998224
0.999878 1.00001 0.995555
1.00133 0.999984 0.992683
1.00358 0.999691 0.987995
0.999903 1 0.99794
1.00133 0.99999 0.992029
0.999914 1.00001 0.997928
0.999596 1.00001 0.995877
1.00125 0.999998 0.992836
1.00346 0.999735 0.988458
0.999647 0.99999 0.997014
1.00112 0.999978 0.992488
0.999664 0.999994 0.998173
0.999879 0.999997 0.997956
1.00128 0.999986 0.992141
0.999893 1 0.997945
0.999714 1 0.996924
1.0012 0.999997 0.992296
0.999725 0.999983 0.998104
0.999849 0.999994 0.997984
0.999785 0.999988 0.998039

TENSORS stress float
0.00127016 -3.35033e-05 9.8125e-05
-3.35033e-05 0.000354752 -1.11523e-05
9.8125e-05 -1.11523e-05 0.000334472
0.00372602 -8.87748e-05 9.21434e-05
-8.87748e-05 0.00169567 5.10921e-06
9.21434e-05 5.10921e-06 0.00168825
0.00129007 2.73203e-05 5.05161e-05
2.73203e-05 0.000378754 -3.35244e-06
5.05161e-05 -3.35244e-06 0.000349769
0.00167699 -2.80417e-05 0.000110522
-2.80417e-05 0.000545842 -7.97729e-06
0.000110522 -7.97729e-06 0.00052569
0.00143534 -3.46268e-05 0.000102641
-3.46268e-05 0.000436931 -1.09477e-05
0.000102641 -1.09477e-05 0.000415378
0.00115616 -8.67778e-06 8.70215e-05
-8.67778e-06 0.000290049 -9.8313e-06
8.70215e-05 -9.8313e-06 0.000272123
0.00119392 -8.19858e-06 9.62179e-06
-8.19858e-06 0.000263242 -6.27934e-06
9.62179e-06 -6.27934e-06 0.00020276
0.00362758 -0.000111201 4.64565e-06
-0.000111201 0.00164218 -5.07225e-07
4.64565e-06 -5.07225e-07 0.00163336
0.00455669 -0.000137965 1.37684e-05
-0.000137965 0.0021524 2.02525e-06
1.37684e-05 2.02525e-06 0.00213159
0.00374376 -0.000204621 2.71335e-06
-0.000204621 0.001741 2.8423e-06
2.71335e-06 2.8423e-06 0.00171082
0.00125893 -2.18567e-05 7.54915e-05
-2.18567e-05 0.000328905 5.2681e-06
7.54915e-05 5.2681e-06 0.000318526
0.000752198 5.78749e-05 9.76726e-06
5.78749e-05 2.09023e-05 6.92008e-06
9.76726e-06 6.92008e-06 -3.08374e-05
0.00169291 -1.33958e-05 0.000126764
-1.33958e-05 0.000542541 1.41172e-06
0.000126764 1.41172e-06 0.000521631
0.00126775 2.19853e-05 1.85203e-05
2.19853e-05 0.00032937 1.95836e-06
1.85203e-05 1.95836e-06 0.0003011
0.0013527 9.40795e-05 -4.99814e-08
9.40795e-05 0.000428375 4.29966e-06
-4.99814e-08 4.29966e-06 0.00038957
0.00148329 -1.31947e-05 4.50804e-05
-1.31947e-05 0.000445701 -2.69827e-06
4.50804e-05 -2.69827e-06 0.000422741
0.00118449 3.57793e-05 4.25676e-05
3.57793e-05 0.000317818 -3.23466e-06
4.25676e-05 -3.23466e-06 0.000291894
0.00137397 1.75196e-05 5.08912e-05
1.75196e-05 0.000414253 -3.66507e-06
5.08912e-05 -3.66507e-06 0.000386503
0.0013078 -3.30459e-05 -2.11215e-05
-3.30459e-05 0.000316718 6.0015e-07
-2.11215e-05 6.0015e-07 0.000261217
0.00502014 -5.51219e-05 0.000132391
-5.51219e-05 0.00236914 -2.02602e-06
0.000132391 -2.02602e-06 0.0023647
0.00165622 -1.73744e-05 0.000112528
-1.73744e-05 0.000532248 -6.23227e-06
0.000112528 -6.23227e-06 0.000512139
0.00159614 -3.30552e-05 0.000107296
-3.30552e-05 0.000510318 -9.69866e-06
0.000107296 -9.69866e-06 0.000489348
0.00146897 -4.4408e-05 2.50193e-05
-4.4408e-05 0.000345462 -3.74509e-06
2.50193e-05 -3.74509e-06 0.00029273
0.00132377 -1.73143e-05 1.40431e-05
-1.73143e-05 0.000306177 -5.87141e-06
1.40431e-05 -5.87141e-06 0.000247606
0.00113696 3.16425e-05 6.89131e-05
3.16425e-05 0.000270939 -8.02343e-06
6.89131e-05 -8.02343e-06 0.000254385
0.00104917 -4.01649e-06 9.34556e-06
-4.01649e-06 0.000203033 -5.40433e-06
9.34556e-06 -5.40433e-06 0.000146489
0.00168636 -0.000127825 6.34869e-06
-0.000127825 0.000417884 -2.99133e-06
6.34869e-06 -2.99133e-06 0.000323958
0.00350842 -0.000128277 -7.00847e-05
-0.000128277 0.00157755 -3.21276e-06
-7.00847e-05 -3.21276e-06 0.00156711
0.0029189 -4.61932e-05 -5.98232e-05
-4.61932e-05 0.00125317 -1.37995e-06
-5.98232e-05 -1.37995e-06 0.00123032
0.00250972 -9.77803e-05 -3.72865e-05
-9.77803e-05 0.00104794 -1.17129e-06
-3.72865e-05 -1.17129e-06 0.00102392
0.00330207 -0.000111226 3.26234e-06
-0.000111226 0.00145433 -2.54718e-07
3.26234e-06 -2.54718e-07 0.00144904
0.000667078 4.80878e-05 -1.30803e-07
4.80878e-05 -2.00421e-05 -2.38125e-07
-1.30803e-07 -2.38125e-07 -7.16049e-05
0.00158326 4.0917e-05 0.000111472
4.0917e-05 0.000499097 7.39319e-06
0.000111472 7.39319e-06 0.00047797
0.00175244 4.73873e-05 0.000104769
4.73873e-05 0.000611251 9.12286e-06
0.000104769 9.12286e-06 0.000590615
0.00240386 0.000112047 6.58812e-05
0.000112047 0.000872469 7.76263e-06
6.58812e-05 7.76263e-06 0.000824749
0.00282536 -0.000118633 1.53902e-05
-0.000118633 0.00119001 1.36523e-06
1.53902e-05 1.36523e-06 0.00118551
0.00216153 7.53721e-05 5.29226e-05
7.53721e-05 0.000781711 6.88776e-06
5.29226e-05 6.88776e-06 0.000735777
0.000670796 1.52203e-05 9.26858e-06
1.52203e-05 -1.6853e-05 8.69437e-06
9.26858e-06 8.69437e-06 -6.19891e-05
0.000938955 9.31168e-05 4.34441e-06
9.31168e-05 8.04849e-05 1.58299e-06
4.34441e-06 1.58299e-06 -1.19393e-05
0.00252099 -7.92303e-05 4.6475e-05
-7.92303e-05 0.00101046 2.84158e-06
4.6475e-05 2.84158e-06 0.00101718
0.00509897 1.7606e-05 1.13313e-07
1.7606e-05 0.00240776 -8.58654e-07
1.13313e-07 -8.58654e-07 0.00240431
0.00312034 2.25955e-05 -5.04169e-05
2.25955e-05 0.00133676 -1.10322e-06
-5.04169e-05 -1.10322e-06 0.00132073
0.00517334 5.56965e-05 0.000137525
5.56965e-05 0.00244728 8.69352e-07
0.000137525 8.69352e-07 0.00244305
0.00135172 -2.47365e-05 1.16342e-05
-2.47365e-05 0.00037434 1.13837e-06
1.16342e-05 1.13837e-06 0.000344303
0.000766863 -1.91766e-06 1.53716e-05
-1.91766e-06 -6.86839e-05 2.25311e-06
1.53716e-05 2.25311e-06 -0.000129247
0.00473922 4.87095e-05 4.51552e-05
4.87095e-05 0.00222297 2.38337e-06
4.51552e-05 2.38337e-06 0.00221222
0.00242744 2.09433e-05 6.92505e-05
2.09433e-05 0.00084931 4.26423e-06
6.92505e-05 4.26423e-06 0.000806388
0.00126504 -2.65764e-05 -2.37231e-05
-2.65764e-05 0.000334225 2.49567e-06
-2.37231e-05 2.49567e-06 0.000307475
0.00135599 2.31496e-05 -1.32945e-05
2.31496e-05 0.000406992 3.19324e-06
-1.32945e-05 3.19324e-06 0.000378258
0.00125054 9.66121e-05 -2.10672e-06
9.66121e-05 0.000369339 3.8645e-06
-2.10672e-06 3.8645e-06 0.000333
0.00136964 -5.93685e-05 -5.32444e-05
-5.93685e-05 0.000340468 7.23943e-06
-5.32444e-05 7.23943e-06 0.000290711
0.00326887 3.98771e-05 -5.3264e-05
3.98771e-05 0.00142105 -1.05086e-06
-5.3264e-05 -1.05086e-06 0.00139814
0.00147279 -1.69306e-05 4.5421e-05
-1.69306e-05 0.000438812 -1.71163e-06
4.5421e-05 -1.71163e-06 0.0004153
0.00111848 5.02347e-05 3.28726e-05
5.02347e-05 0.000268496 -2.57414e-06
3.28726e-05 -2.57414e-06 0.000247866
0.00145551 -3.71114e-06 4.73239e-05
-3.71114e-06 0.000440091 -3.56698e-06
4.73239e-05 -3.56698e-06 0.000415827
0.00150503 -4.88895e-05 -1.66642e-05
-4.88895e-05 0.000362446 5.63416e-07
-1.66642e-05 5.63416e-07 0.000311825
0.00118517 -1.86924e-05 -1.84529e-05
-1.86924e-05 0.000270058 3.48347e-07
-1.84529e-05 3.48347e-07 0.000217138
0.00141004 -5.05e-05 -1.82407e-05
-5.05e-05 0.000344339 7.95618e-07
-1.82407e-05 7.95618e-07 0.000291273
0.00179906 -0.000132447 -3.18104e-06
-0.000132447 0.000474808 1.02672e-06
-3.18104e-06 1.02672e-06 0.000379662
0.00508912 5.10429e-05 0.000127813
5.10429e-05 0.00240294 1.14247e-07
0.000127813 1.14247e-07 0.00239942
0.0016554 -4.04935e-06 0.000117128
-4.04935e-06 0.000527309 -4.30224e-06
0.000117128 -4.30224e-06 0.000506347
0.00232361 6.11111e-05 1.40471e-05
6.11111e-05 0.000799586 -1.18438e-06
1.40471e-05 -1.18438e-06 0.000745106
0.00144533 -4.44531e-05 2.56164e-05
-4.44531e-05 0.00033106 -3.24894e-06
2.56164e-05 -3.24894e-06 0.000278086
0.00143293 -3.68977e-05 2.1147e-05
-3.68977e-05 0.000337471 -4.77158e-06
2.1147e-05 -4.77158e-06 0.000282861
0.00195111 -9.24824e-05 8.18252e-06
-9.24824e-05 0.000455957 -1.83716e-06
8.18252e-06 -1.83716e-06 0.000366051
0.00138475 -0.000109254 9.01631e-06
-0.000109254 0.000204068 -3.74983e-06
9.01631e-06 -3.74983e-06 0.000108169
0.00117632 4.78586e-05 5.5144e-05
4.78586e-05 0.000275463 -7.19476e-06
5.5144e-05 -7.19476e-06 0.000263819
0.000913031 2.22389e-05 7.79367e-06
2.22389e-05 0.000141266 -4.15907e-06
7.79367e-06 -4.15907e-06 9.41137e-05
0.00146381 -0.00011405 4.34979e-06
-0.00011405 0.000348214 -2.27965e-06
4.34979e-06 -2.27965e-06 0.000257688
0.00120026 -0.000129198 4.1765e-06
-0.000129198 8.25273e-05 -1.80326e-06
4.1765e-06 -1.80326e-06 -3.83267e-05
0.00456138 -3.06852e-05 -0.000108051
-3.06852e-05 0.00214042 -5.98459e-06
-0.000108051 -5.98459e-06 0.0021338
0.00318729 -0.000116523 -5.9757e-05
-0.000116523 0.00139035 -2.79171e-06
-5.9757e-05 -2.79171e-06 0.00138536
0.00379229 -0.000130229 -7.9088e-05
-0.000130229 0.00174499 -4.36056e-06
-7.9088e-05 -4.36056e-06 0.00173046
0.000589476 4.58325e-05 -8.42637e-06
4.58325e-05 -5.78796e-05 -7.39824e-06
-8.42637e-06 -7.39824e-06 -0.000109127
0.00495825 2.71409e-05 -2.7314e-06
2.71409e-05 0.00233845 -6.80442e-07
-2.7314e-06 -6.80442e-07 0.00233419
0.0044424 -8.89772e-05 -2.19627e-06
-8.89772e-05 0.0020944 2.11401e-07
-2.19627e-06 2.11401e-07 0.00207967
0.00061834 9.28061e-05 -6.96511e-07
9.28061e-05 -9.57105e-05 -2.10197e-07
-6.96511e-07 -2.10197e-07 -0.000155931
0.00195054 -8.07106e-05 -2.41714e-05
-8.07106e-05 0.000706922 -4.0191e-07
-2.41714e-05 -4.0191e-07 0.000700765
0.00063358 7.73323e-05 -2.57395e-07
7.73323e-05 -4.64466e-05 -8.78492e-08
-2.57395e-07 -8.78492e-08 -0.000102
0.00120665 -4.78767e-06 1.44092e-05
-4.78767e-06 0.000282138 3.35513e-07
1.44092e-05 3.35513e-07 0.000241102
0.000872751 8.86056e-05 2.45279e-07
8.86056e-05 4.35317e-05 -1.86407e-07
2.45279e-07 -1.86407e-07 -4.80571e-05
0.00276375 -8.71903e-05 5.54416e-05
-8.71903e-05 0.00114609 2.91962e-06
5.54416e-05 2.91962e-06 0.00115007
0.000671614 -6.53348e-05 -7.25119e-07
-6.53348e-05 -6.27599e-06 4.92475e-06
-7.25119e-07 4.92475e-06 -3.14261e-05
0.000742228 6.90852e-05 1.59748e-05
6.90852e-05 -5.55521e-05 7.41791e-06
1.59748e-05 7.41791e-06 -0.000115324
0.000789054 9.75261e-05 1.77908e-05
9.75261e-05 1.35994e-05 1.02524e-05
1.77908e-05 1.02524e-05 -4.63377e-05
0.0010708 0.0001015 8.67677e-06
0.0001015 1.14236e-05 3.96518e-06
8.67677e-06 3.96518e-06 -9.12176e-05
0.00165748 -4.7796e-05 2.92861e-05
-4.7796e-05 0.000533939 4.18964e-06
2.92861e-05 4.18964e-06 0.000503136
0.000990887 0.000104775 5.2778e-06
0.000104775 7.06972e-05 3.04118e-06
5.2778e-06 3.04118e-06 -2.45639e-05
0.000916475 7.13133e-05 4.06868e-06
7.13133e-05 9.83464e-05 2.16343e-06
4.06868e-06 2.16343e-06 8.46994e-06
0.000863875 0.000116029 1.75459e-06
0.000116029 6.18067e-06 -3.46392e-07
1.75459e-06 -3.46392e-07 -0.000107621
0.00230341 -7.1629e-05 3.76128e-05
-7.1629e-05 0.000885859 2.88696e-06
3.76128e-05 2.88696e-06 0.000895282
0.00244122 -8.0383e-05 1.56295e-06
-8.0383e-05 0.000967633 -1.35319e-07
1.56295e-06 -1.35319e-07 0.00097425
0.00492057 4.96964e-05 -0.000129263
4.96964e-05 0.00231501 -4.8736e-06
-0.000129263 -4.8736e-06 0.00231185
0.0050502 3.74564e-05 -0.000129162
3.74564e-05 0.00238235 -2.11605e-06
-0.000129162 -2.11605e-06 0.00237911
0.00516749 5.93065e-05 3.7515e-06
5.93065e-05 0.00244693 -6.27569e-07
3.7515e-06 -6.27569e-07 0.00244115
0.00316073 -1.67179e-05 -5.59156e-05
-1.67179e-05 0.00135581 -9.61747e-07
-5.59156e-05 -9.61747e-07 0.00133975
0.00164282 1.13489e-05 2.99969e-05
1.13489e-05 0.000411197 1.94207e-07
2.99969e-05 1.94207e-07 0.000358261
0.00313767 3.25711e-05 -5.54334e-05
3.25711e-05 0.00134584 -2.14252e-06
-5.54334e-05 -2.14252e-06 0.00132992
0.00161575 3.57558e-05 2.77923e-05
3.57558e-05 0.000410022 6.92305e-07
2.77923e-05 6.92305e-07 0.000359289
0.00518992 0.000118222 0.000129566
0.000118222 0.00246364 1.84909e-06
0.000129566 1.84909e-06 0.00245425
0.000720629 -4.56913e-06 1.47525e-05
-4.56913e-06 -9.81745e-05 6.10323e-07
1.47525e-05 6.10323e-07 -0.000158837
0.00249585 -4.85112e-06 7.13973e-05
-4.85112e-06 0.000881913 3.12755e-06
7.13973e-05 3.12755e-06 0.000837579
0.00120252 2.09188e-05 9.96588e-06
2.09188e-05 9.23049e-06 1.53591e-06
9.96588e-06 1.53591e-06 -9.17855e-05
0.00236711 6.53792e-05 6.83566e-05
6.53792e-05 0.000824085 4.9602e-06
6.83566e-05 4.9602e-06 0.000779342
0.00118939 5.50194e-05 9.556e-06
5.50194e-05 2.1785e-05 2.36135e-06
9.556e-06 2.36135e-06 -7.64142e-05
0.00170771 2.12888e-05 -0.000125066
2.12888e-05 0.000552807 5.6475e-07
-0.000125066 5.6475e-07 0.000532174
0.00124217 -3.87561e-05 -2.15832e-05
-3.87561e-05 0.000321488 2.05433e-06
-2.15832e-05 2.05433e-06 0.000293445
0.00107083 8.1008e-05 -6.76213e-06
8.1008e-05 0.000251884 2.8253e-06
-6.76213e-06 2.8253e-06 0.000225225
0.00132075 -8.44126e-06 -2.02361e-05
-8.44126e-06 0.000372795 2.88643e-06
-2.02361e-05 2.88643e-06 0.000345664
0.00156764 -3.96218e-05 -5.98536e-05
-3.96218e-05 0.000392994 4.67029e-06
-5.98536e-05 4.67029e-06 0.000344856
0.00146645 -5.95137e-05 -5.63632e-05
-5.95137e-05 0.000370078 7.1384e-06
-5.63632e-05 7.1384e-06 0.000320016
0.00126479 -4.08954e-05 -4.66496e-05
-4.08954e-05 0.000304708 6.40172e-06
-4.66496e-05 6.40172e-06 0.000256733
0.00193931 -0.000138473 -1.35906e-05
-0.000138473 0.000546945 5.35821e-06
-1.35906e-05 5.35821e-06 0.000450386
0.00515287 -3.83918e-05 -2.41661e-06
-3.83918e-05 0.00243706 -6.24801e-07
-2.41661e-06 -6.24801e-07 0.00243262
0.00147218 5.8331e-06 5.14728e-05
5.8331e-06 0.000434617 -1.3416e-06
5.14728e-05 -1.3416e-06 0.000410188
0.00115904 5.76637e-06 -3.22728e-05
5.76637e-06 0.000151516 3.80885e-07
-3.22728e-05 3.80885e-07 9.63402e-05
0.00148385 -4.01129e-05 -1.76181e-05
-4.01129e-05 0.000348791 3.49053e-07
-1.76181e-05 3.49053e-07 0.000298149
0.00212366 7.61576e-05 4.90972e-05
7.61576e-05 0.000801715 -8.05869e-07
4.90972e-05 -8.05869e-07 0.000794307
0.00134083 1.57719e-05 -1.15595e-05
1.57719e-05 0.000367764 -9.56763e-08
-1.15595e-05 -9.56763e-08 0.000322358
0.00148739 -5.3246e-05 -1.70572e-05
-5.3246e-05 0.000363654 6.63752e-07
-1.70572e-05 6.63752e-07 0.000311722
0.00177114 -8.56863e-05 -5.59424e-06
-8.56863e-05 0.000356972 9.45678e-07
-5.59424e-06 9.45678e-07 0.000266063
0.00164009 -0.000125106 -2.38353e-06
-0.000125106 0.000439587 9.30524e-07
-2.38353e-06 9.30524e-07 0.00034682
0.00166793 -0.000118507 -1.62399e-06
-0.000118507 0.000357203 2.43508e-07
-1.62399e-06 2.43508e-07 0.000261705
0.00118709 -0.000127701 -7.43423e-08
-0.000127701 7.5591e-05 -3.11512e-08
-7.43423e-08 -3.11512e-08 -4.49934e-05
0.00073857 4.09839e-06 1.49365e-05
4.09839e-06 -8.4888e-05 -1.22339e-06
1.49365e-05 -1.22339e-06 -0.000145242
0.00144722 -1.5646e-05 2.18045e-05
-1.5646e-05 0.000322995 -2.34889e-06
2.18045e-05 -2.34889e-06 0.00026883
0.00163078 -1.44175e-05 9.64021e-06
-1.44175e-05 0.000248647 -1.40753e-06
9.64021e-06 -1.40753e-06 0.00015325
0.0015323 -6.41609e-05 9.20324e-06
-6.41609e-05 0.000224038 -1.92077e-06
9.20324e-06 -1.92077e-06 0.000132372
0.00155014 -0.00010091 9.84839e-06
-0.00010091 0.000251689 -2.98694e-06
9.84839e-06 -2.98694e-06 0.000156553
0.0017787 -9.93069e-05 2.90942e-06
-9.93069e-05 0.000274851 -3.92591e-07
2.90942e-06 -3.92591e-07 0.000165102
0.00296315 0.000101085 5.50535e-05
0.000101085 0.00125432 -2.66559e-06
5.50535e-05 -2.66559e-06 0.00125512
0.00127331 -0.000122456 4.48367e-06
-0.000122456 6.66236e-05 -1.88569e-06
4.48367e-06 -1.88569e-06 -5.2619e-05
0.000607791 4.22084e-05 3.50459e-06
4.22084e-05 -3.81097e-05 -5.59623e-06
3.50459e-06 -5.59623e-06 -8.0221e-05
0.000664373 -7.5586e-05 3.19736e-06
-7.5586e-05 -4.2315e-05 -1.84429e-06
3.19736e-06 -1.84429e-06 -0.000128839
0.0012955 -0.000140863 3.71416e-06
-0.000140863 0.000194766 -2.00669e-06
3.71416e-06 -2.00669e-06 7.20144e-05
0.00134466 -0.00014416 2.25544e-06
-0.00014416 0.000109567 -9.83024e-07
2.25544e-06 -9.83024e-07 -2.29274e-05
0.000559026 6.89919e-05 1.38934e-08
6.89919e-05 -6.62417e-05 -5.65753e-06
1.38934e-08 -5.65753e-06 -9.99578e-05
0.000744182 3.84987e-05 2.6029e-07
3.84987e-05 1.09628e-05 -2.79489e-06
2.6029e-07 -2.79489e-06 -5.14835e-05
0.004849 2.89265e-05 -0.00012448
2.89265e-05 0.00228187 -6.40186e-06
-0.00012448 -6.40186e-06 0.00227785
0.00412619 -0.000116913 -8.46215e-05
-0.000116913 0.00192937 -5.89941e-06
-8.46215e-05 -5.89941e-06 0.00191321
0.000577241 8.21188e-05 -1.33061e-05
8.21188e-05 -0.000116965 -7.87519e-06
-1.33061e-05 -7.87519e-06 -0.000177324
0.00289326 -0.000101415 -5.32083e-05
-0.000101415 0.00122239 -2.63977e-06
-5.32083e-05 -2.63977e-06 0.00122266
0.000571593 -1.28226e-05 -3.66377e-06
-1.28226e-05 -6.17683e-05 -6.71147e-06
-3.66377e-06 -6.71147e-06 -0.000104882
0.000546081 6.98342e-05 -1.04483e-05
6.98342e-05 -8.95651e-05 -7.58485e-06
-1.04483e-05 -7.58485e-06 -0.000145318
0.000829572 8.51962e-05 -4.38199e-06
8.51962e-05 1.91282e-05 -2.14316e-06
-4.38199e-06 -2.14316e-06 -7.18639e-05
0.00268109 -8.88417e-05 1.68959e-06
-8.88417e-05 0.00110231 -1.65753e-07
1.68959e-06 -1.65753e-07 0.00110613
0.000635045 -6.16208e-05 5.50341e-08
-6.16208e-05 -2.74885e-05 1.54157e-07
5.50341e-08 1.54157e-07 -5.15117e-05
0.00153956 7.98634e-05 2.65328e-05
7.98634e-05 0.000382044 6.58812e-07
2.65328e-05 6.58812e-07 0.000328502
0.00138103 9.29951e-05 2.23636e-05
9.29951e-05 0.000341876 5.47428e-07
2.23636e-05 5.47428e-07 0.000289041
0.00107184 0.000102694 3.64787e-07
0.000102694 1.28604e-05 -1.98427e-07
3.64787e-07 -1.98427e-07 -8.98821e-05
0.000649634 -4.30413e-05 -3.37307e-07
-4.30413e-05 -1.76784e-05 1.39985e-07
-3.37307e-07 1.39985e-07 -5.33886e-05
0.000927872 0.000100499 2.43706e-07
0.000100499 3.73747e-05 4.54158e-07
2.43706e-07 4.54158e-07 -5.72578e-05
0.000832552 6.46936e-05 3.45112e-07
6.46936e-05 5.26745e-05 -2.50182e-07
3.45112e-07 -2.50182e-07 -3.59669e-05
0.00081057 0.000113054 -7.9163e-08
0.000113054 -2.39777e-05 -6.46226e-08
-7.9163e-08 -6.46226e-08 -0.000138194
0.000647114 -5.33316e-05 2.31545e-06
-5.33316e-05 -1.70794e-05 5.16885e-06
2.31545e-06 5.16885e-06 -4.72629e-05
0.000705021 -5.41832e-05 9.80461e-07
-5.41832e-05 -4.7721e-07 3.98272e-06
9.80461e-07 3.98272e-06 -1.79552e-05
0.000693698 -8.61477e-06 2.09196e-06
-8.61477e-06 -7.11847e-06 2.47894e-06
2.09196e-06 2.47894e-06 -6.64806e-05
0.0011088 8.70164e-05 9.36245e-06
8.70164e-05 -3.7099e-06 3.14564e-06
9.36245e-06 3.14564e-06 -0.000105557
0.00103638 0.000108203 7.18062e-06
0.000108203 4.65235e-05 3.91653e-06
7.18062e-06 3.91653e-06 -5.35237e-05
0.0013057 0.000127736 4.91554e-06
0.000127736 6.16579e-05 2.15779e-06
4.91554e-06 2.15779e-06 -6.41964e-05
0.000858981 4.66912e-05 3.14897e-06
4.66912e-05 7.72503e-05 2.54761e-06
3.14897e-06 2.54761e-06 -4.7366e-06
0.000909081 0.000120011 1.62612e-06
0.000120011 -2.18943e-05 1.02161e-06
1.62612e-06 1.02161e-06 -0.000137939
0.00109389 0.000125068 2.06102e-06
0.000125068 0.000172019 3.2432e-07
2.06102e-06 3.2432e-07 5.64003e-05
0.00106729 0.000136904 -1.72756e-06
0.000136904 0.000103787 -1.6767e-06
-1.72756e-06 -1.6767e-06 -2.11111e-05
0.00216007 -6.36208e-05 3.17858e-05
-6.36208e-05 0.000798994 3.05154e-06
3.17858e-05 3.05154e-06 0.000811224
0.00224107 -7.15932e-05 9.58169e-07
-7.15932e-05 0.000851259 -1.07205e-07
9.58169e-07 -1.07205e-07 0.000860897
0.00235174 -8.0163e-05 -3.68947e-05
-8.0163e-05 0.000919174 -2.72026e-06
-3.68947e-05 -2.72026e-06 0.000925993
0.000601523 5.64778e-05 1.54582e-06
5.64778e-05 -5.23863e-05 -4.69122e-06
1.54582e-06 -4.69122e-06 -7.83633e-05
0.00277546 9.13389e-05 4.81963e-05
9.13389e-05 0.00114797 -2.79889e-06
4.81963e-05 -2.79889e-06 0.00115175
0.00494434 6.00178e-05 -0.000132392
6.00178e-05 0.00232872 -6.22849e-06
-0.000132392 -6.22849e-06 0.00232488
0.00492849 -2.07723e-05 -0.000123014
-2.07723e-05 0.002319 -2.97412e-06
-0.000123014 -2.97412e-06 0.0023158
0.000733725 4.42521e-05 -1.46269e-05
4.42521e-05 -6.95271e-05 -3.78947e-06
-1.46269e-05 -3.78947e-06 -0.000127003
0.000718681 1.72779e-05 -1.48602e-05
1.72779e-05 -9.01711e-05 -2.28052e-06
-1.48602e-05 -2.28052e-06 -0.000150386
0.00512488 -5.9262e-05 -0.000128009
-5.9262e-05 0.00242268 -4.13356e-07
-0.000128009 -4.13356e-07 0.00241829
0.00518232 2.38757e-06 -1.12744e-06
2.38757e-06 0.00245119 4.72548e-07
-1.12744e-06 4.72548e-07 0.00244744
0.000717655 -2.79307e-06 -1.61607e-07
-2.79307e-06 -9.90144e-05 -2.54488e-07
-1.61607e-07 -2.54488e-07 -0.000159764
0.00161662 1.43773e-05 2.8873e-05
1.43773e-05 0.000405879 5.08058e-07
2.8873e-05 5.08058e-07 0.000354502
0.00121062 2.49129e-05 1.56964e-07
2.49129e-05 1.38328e-05 -1.05274e-07
1.56964e-07 -1.05274e-07 -8.72741e-05
0.000675643 4.86862e-05 2.34544e-07
4.86862e-05 -9.85924e-05 -1.13117e-07
2.34544e-07 -1.13117e-07 -0.000155986
0.00117624 5.6991e-05 -1.17398e-07
5.6991e-05 1.55977e-05 2.10542e-08
-1.17398e-07 2.10542e-08 -8.28897e-05
0.000708192 -1.21338e-05 1.5075e-05
-1.21338e-05 -0.000105963 -3.1903e-07
1.5075e-05 -3.1903e-07 -0.000166968
0.00122519 8.9906e-06 1.00574e-05
8.9906e-06 1.13254e-05 4.96676e-07
1.00574e-05 4.96676e-07 -9.14359e-05
0.00119018 3.80205e-05 9.68059e-06
3.80205e-05 1.52985e-05 2.00616e-06
9.68059e-06 2.00616e-06 -8.37643e-05
0.00146655 2.63771e-05 4.35816e-06
2.63771e-05 6.69175e-05 8.98554e-07
4.35816e-06 8.98554e-07 -5.02412e-05
0.00115186 7.01623e-05 9.55499e-06
7.01623e-05 5.04382e-06 2.53041e-06
9.55499e-06 2.53041e-06 -9.42884e-05
0.00146159 6.53029e-05 4.24579e-06
6.53029e-05 8.45049e-05 1.18984e-06
4.24579e-06 1.18984e-06 -3.01841e-05
0.00516387 -3.34883e-05 -0.000138865
-3.34883e-05 0.00244221 -6.61628e-07
-0.000138865 -6.61628e-07 0.00243798
0.00128897 -2.94487e-05 -1.57908e-05
-2.94487e-05 0.000342779 1.31548e-06
-1.57908e-05 1.31548e-06 0.000314148
-9.26912e-05 -5.12152e-07 -1.34728e-05
-5.12152e-07 -0.000532803 2.27434e-06
-1.34728e-05 2.27434e-06 -0.000598883
0.00156973 -2.55973e-05 -6.08352e-05
-2.55973e-05 0.000391579 3.3165e-06
-6.08352e-05 3.3165e-06 0.000343679
0.00295241 0.000132098 -1.65522e-05
0.000132098 0.00126789 1.3067e-06
-1.65522e-05 1.3067e-06 0.00125837
0.00179813 -1.98993e-05 -3.84202e-05
-1.98993e-05 0.000604155 5.28437e-06
-3.84202e-05 5.28437e-06 0.000564864
0.00154454 -5.26957e-05 -5.86728e-05
-5.26957e-05 0.000391438 6.20955e-06
-5.86728e-05 6.20955e-06 0.0003419
0.00157796 -7.87698e-05 -1.79814e-05
-7.87698e-05 0.000250695 3.26852e-06
-1.79814e-05 3.26852e-06 0.000158876
0.00195678 -0.000128517 -1.36619e-05
-0.000128517 0.000513723 4.66048e-06
-1.36619e-05 4.66048e-06 0.000418543
0.00185976 -0.000137051 -1.07207e-05
-0.000137051 0.000554616 4.70761e-06
-1.07207e-05 4.70761e-06 0.000459471
0.00117814 -0.000126457 -3.72947e-06
-0.000126457 7.09523e-05 1.59469e-06
-3.72947e-06 1.59469e-06 -4.93979e-05
0.000710829 6.56535e-06 3.34209e-08
6.56535e-06 -0.000100556 -2.44769e-07
3.34209e-08 -2.44769e-07 -0.000160786
0.00152325 -2.36984e-05 -2.02084e-05
-2.36984e-05 0.000361917 7.8688e-08
-2.02084e-05 7.8688e-08 0.000309771
0.00120963 -1.27097e-05 -3.78619e-06
-1.27097e-05 1.96468e-05 1.64371e-07
-3.78619e-06 1.64371e-07 -7.87136e-05
0.00178989 -6.67676e-05 -2.65234e-06
-6.67676e-05 0.000362764 3.56549e-07
-2.65234e-06 3.56549e-07 0.000272714
0.00296635 9.93854e-05 -1.02457e-06
9.93854e-05 0.00125716 -2.14136e-07
-1.02457e-06 -2.14136e-07 0.00125778
0.00114484 2.32031e-05 2.19818e-06
2.32031e-05 0.000252174 3.32669e-07
2.19818e-06 3.32669e-07 0.000212957
0.00113838 -8.86601e-05 3.66067e-07
-8.86601e-05 0.00021098 -2.03108e-07
3.66067e-07 -2.03108e-07 0.000124209
0.00154721 -9.97864e-05 -2.88878e-06
-9.97864e-05 0.000251473 5.21586e-07
-2.88878e-06 5.21586e-07 0.000156175
0.00148532 -9.11084e-05 -2.11196e-06
-9.11084e-05 0.000113234 6.15106e-07
-2.11196e-06 6.15106e-07 2.3893e-06
0.00100799 -0.000125244 -5.41819e-07
-0.000125244 4.22929e-05 -1.7886e-07
-5.41819e-07 -1.7886e-07 -7.93417e-05
0.00151087 -0.000129501 7.89387e-09
-0.000129501 0.000195343 -3.0315e-07
7.89387e-09 -3.0315e-07 7.70576e-05
0.00132201 -0.000142343 7.60818e-08
-0.000142343 9.78092e-05 6.58189e-08
7.60818e-08 6.58189e-08 -3.43293e-05
0.00059318 5.92149e-05 -9.54065e-07
5.92149e-05 -4.94601e-05 1.07751e-08
-9.54065e-07 1.07751e-08 -8.18284e-05
0.000716005 2.36735e-05 -1.82461e-07
2.36735e-05 -6.3975e-06 1.95729e-07
-1.82461e-07 1.95729e-07 -6.83325e-05
0.00120583 -6.65722e-06 9.82539e-06
-6.65722e-06 2.40513e-06 -1.40446e-06
9.82539e-06 -1.40446e-06 -9.97095e-05
0.00157635 -3.45819e-05 9.17109e-06
-3.45819e-05 0.000232399 -1.5539e-06
9.17109e-06 -1.5539e-06 0.000139117
0.00187454 -1.98692e-05 3.12395e-06
-1.98692e-05 0.000294795 -4.68564e-07
3.12395e-06 -4.68564e-07 0.000183508
0.00118791 -6.33653e-05 4.86511e-06
-6.33653e-05 -5.3417e-05 -1.35091e-06
4.86511e-06 -1.35091e-06 -0.000165829
0.00162652 -0.000121075 4.31507e-06
-0.000121075 0.000211327 -7.85728e-07
4.31507e-06 -7.85728e-07 9.64005e-05
0.00170511 -9.62441e-05 7.87545e-07
-9.62441e-05 0.000181064 2.53022e-07
7.87545e-07 2.53022e-07 6.80607e-05
0.000543538 5.3175e-05 1.92015e-06
5.3175e-05 -7.46963e-05 -5.79277e-06
1.92015e-06 -5.79277e-06 -0.00011202
0.00146648 -0.000135357 1.92375e-06
-0.000135357 0.00011102 -1.05125e-06
1.92375e-06 -1.05125e-06 -1.63322e-05
0.000664205 -4.3467e-05 2.1837e-06
-4.3467e-05 -2.92027e-05 -1.45379e-06
2.1837e-06 -1.45379e-06 -0.000111036
0.00053981 -9.75798e-05 2.50754e-06
-9.75798e-05 -0.000145919 -2.46783e-06
2.50754e-06 -2.46783e-06 -0.000260392
0.00185987 -0.000181246 1.39892e-06
-0.000181246 0.000458022 -6.6223e-07
1.39892e-06 -6.6223e-07 0.000319905
0.00160041 -0.000159614 -3.54677e-07
-0.000159614 0.000202134 5.7034e-07
-3.54677e-07 5.7034e-07 6.75038e-05
0.00080184 -6.52016e-06 1.42951e-06
-6.52016e-06 4.57389e-05 -2.86057e-06
1.42951e-06 -2.86057e-06 -2.78009e-05
0.000729182 3.72727e-05 1.03201e-06
3.72727e-05 -1.21946e-06 -2.11195e-06
1.03201e-06 -2.11195e-06 -5.47575e-05
0.00083248 -3.53373e-05 2.93405e-07
-3.53373e-05 6.06669e-05 -7.94077e-07
2.93405e-07 -7.94077e-07 -3.03067e-05
0.000643495 7.01487e-05 -1.37991e-05
7.01487e-05 -0.00010438 -6.55082e-06
-1.37991e-05 -6.55082e-06 -0.000164033
0.00261843 -9.04247e-05 -4.47207e-05
-9.04247e-05 0.00106917 -2.61566e-06
-4.47207e-05 -2.61566e-06 0.00107285
0.000601492 -5.59108e-05 -1.59736e-06
-5.59108e-05 -4.74297e-05 -4.19317e-06
-1.59736e-06 -4.19317e-06 -7.00446e-05
0.000527586 8.5213e-05 -1.26053e-05
8.5213e-05 -0.000117696 -8.12957e-06
-1.26053e-05 -8.12957e-06 -0.000175558
0.00106695 0.000103916 -8.59942e-06
0.000103916 1.11907e-05 -4.41201e-06
-8.59942e-06 -4.41201e-06 -9.16823e-05
0.000537525 -5.76925e-05 -1.17528e-06
-5.76925e-05 -7.38085e-05 -5.97706e-06
-1.17528e-06 -5.97706e-06 -0.000111747
0.000731264 5.87934e-05 -2.77413e-06
5.87934e-05 -2.80585e-06 -2.34894e-06
-2.77413e-06 -2.34894e-06 -8.98551e-05
0.000872192 9.63926e-05 -4.89556e-06
9.63926e-05 8.30118e-06 -2.26286e-06
-4.89556e-06 -2.26286e-06 -8.57545e-05
0.000752735 0.000109878 -2.79924e-06
0.000109878 -5.66885e-05 -2.35849e-07
-2.79924e-06 -2.35849e-07 -0.000171284
0.000600551 -6.30068e-05 1.27833e-06
-6.30068e-05 -4.09285e-05 2.27216e-08
1.27833e-06 2.27216e-08 -7.19007e-05
0.000672662 -5.04029e-05 -1.45672e-07
-5.04029e-05 -1.86569e-05 1.1942e-07
-1.45672e-07 1.1942e-07 -3.5364e-05
0.000710016 -3.95094e-05 2.04418e-07
-3.95094e-05 -1.16661e-06 2.69405e-07
2.04418e-07 2.69405e-07 -5.78074e-05
0.00112811 8.91968e-05 2.70754e-07
8.91968e-05 7.03916e-06 -3.47599e-07
2.70754e-07 -3.47599e-07 -9.51477e-05
0.000998212 0.00010658 4.92638e-07
0.00010658 2.76427e-05 -3.31617e-08
4.92638e-07 -3.31617e-08 -7.21197e-05
0.00131777 0.000129274 2.96668e-07
0.000129274 6.84078e-05 6.93716e-08
2.96668e-07 6.93716e-08 -5.77644e-05
0.000804762 4.1713e-05 -7.22051e-09
4.1713e-05 5.01434e-05 -3.49072e-08
-7.22051e-09 -3.49072e-08 -3.15501e-05
0.00108483 0.000129356 -1.49121e-07
0.000129356 7.31766e-05 -1.16655e-07
-1.49121e-07 -1.16655e-07 -4.33452e-05
0.00102387 0.000120379 3.07489e-07
0.000120379 0.00013468 -4.33416e-07
3.07489e-07 -4.33416e-07 1.94408e-05
0.000956092 0.000132408 -8.22997e-07
0.000132408 4.35689e-05 7.17508e-07
-8.22997e-07 7.17508e-07 -8.15324e-05
0.000716108 -4.5097e-05 2.09446e-06
-4.5097e-05 -5.60515e-06 3.42138e-06
2.09446e-06 3.42138e-06 -1.78861e-05
0.000736144 1.52556e-05 2.40349e-06
1.52556e-05 1.09731e-05 2.23161e-06
2.40349e-06 2.23161e-06 -5.84561e-05
0.000704477 -4.96404e-05 1.61915e-07
-4.96404e-05 -7.69215e-06 2.19389e-06
1.61915e-07 2.19389e-06 -5.39421e-05
0.000833815 2.5751e-05 4.60736e-07
2.5751e-05 6.86832e-05 7.42841e-07
4.60736e-07 7.42841e-07 -1.56814e-05
0.00134512 0.000106297 5.79612e-06
0.000106297 4.10289e-05 1.11132e-06
5.79612e-06 1.11132e-06 -8.09228e-05
0.00124355 0.000136935 3.69999e-06
0.000136935 9.61478e-05 2.62884e-06
3.69999e-06 2.62884e-06 -2.72044e-05
0.00148677 0.000142194 2.42022e-06
0.000142194 0.000104196 1.7325e-06
2.42022e-06 1.7325e-06 -3.09799e-05
0.00108953 9.38641e-05 2.11529e-06
9.38641e-05 0.000190313 1.56824e-06
2.11529e-06 1.56824e-06 8.46615e-05
0.00126471 0.000148417 -5.69628e-07
0.000148417 0.000139135 7.34204e-07
-5.69628e-07 7.34204e-07 1.34553e-05
0.000991572 0.000132078 1.6658e-07
0.000132078 0.000115882 -1.7862e-06
1.6658e-07 -1.7862e-06 -1.92097e-05
0.000779362 0.000126338 -2.62664e-07
0.000126338 -7.62807e-05 -1.10967e-06
-2.62664e-07 -1.10967e-06 -0.000204569
0.000775448 -2.39338e-05 1.22977e-06
-2.39338e-05 5.2004e-06 1.61965e-06
1.22977e-06 1.61965e-06 -2.50765e-05
0.000717258 -3.43502e-05 1.51399e-06
-3.43502e-05 -2.12737e-05 3.32579e-06
1.51399e-06 3.32579e-06 -2.78331e-05
0.0020887 -5.61536e-05 2.74508e-05
-5.61536e-05 0.000750811 3.28039e-06
2.74508e-05 3.28039e-06 0.000765531
0.00212779 -6.33438e-05 1.18089e-06
-6.33438e-05 0.000780167 -1.06609e-07
1.18089e-06 -1.06609e-07 0.000792683
0.00218052 -7.06889e-05 -3.25411e-05
-7.06889e-05 0.000817404 -2.90066e-06
-3.25411e-05 -2.90066e-06 0.000827463
0.000641298 4.63298e-05 2.27502e-06
4.63298e-05 -4.07562e-05 -4.11063e-06
2.27502e-06 -4.11063e-06 -6.12101e-05
0.00258893 8.25434e-05 4.15621e-05
8.25434e-05 0.00104232 -2.99358e-06
4.15621e-05 -2.99358e-06 0.00104855
0.000628369 6.21063e-05 -1.54462e-07
6.21063e-05 -3.56171e-05 8.47991e-08
-1.54462e-07 8.47991e-08 -6.30043e-05
0.00280289 8.97024e-05 -1.16751e-06
8.97024e-05 0.00116246 -1.56807e-07
-1.16751e-06 -1.56807e-07 0.00116636
0.000698469 5.43982e-05 -1.42689e-05
5.43982e-05 -8.60452e-05 -4.93697e-06
-1.42689e-05 -4.93697e-06 -0.000144011
0.000718982 2.98235e-05 -1.4465e-05
2.98235e-05 -8.16999e-05 -3.12924e-06
-1.4465e-05 -3.12924e-06 -0.000140571
0.00116287 5.80851e-05 -9.33448e-06
5.80851e-05 9.11863e-06 -2.22122e-06
-9.33448e-06 -2.22122e-06 -8.95715e-05
0.00121028 2.67819e-05 -9.85204e-06
2.67819e-05 1.4017e-05 -1.72317e-06
-9.85204e-06 -1.72317e-06 -8.71343e-05
0.000733843 1.34229e-06 -1.52156e-05
1.34229e-06 -9.03236e-05 -1.19913e-06
-1.52156e-05 -1.19913e-06 -0.000150809
0.00520083 -6.4688e-05 -0.000135622
-6.4688e-05 0.00246168 1.02667e-06
-0.000135622 1.02667e-06 0.00245767
0.000728908 -1.57807e-06 1.05648e-07
-1.57807e-06 -9.54856e-05 -2.83248e-07
1.05648e-07 -2.83248e-07 -0.000156285
0.00122859 1.31517e-05 2.33095e-08
1.31517e-05 1.33665e-05 -2.95984e-07
2.33095e-08 -2.95984e-07 -8.94185e-05
0.00118595 3.87461e-05 6.34554e-09
3.87461e-05 1.3688e-05 -7.75788e-08
6.34554e-09 -7.75788e-08 -8.55039e-05
0.00148176 2.61739e-05 3.92578e-08
2.61739e-05 7.46046e-05 -1.80729e-08
3.92578e-08 -1.80729e-08 -4.25827e-05
0.00116055 7.28045e-05 -5.74179e-09
7.28045e-05 1.03085e-05 -1.36933e-07
-5.74179e-09 -1.36933e-07 -8.94831e-05
0.00145065 6.73491e-05 -2.06452e-08
6.73491e-05 7.90699e-05 1.20486e-07
-2.06452e-08 1.20486e-07 -3.58096e-05
0.0012352 -7.09933e-07 1.00299e-05
-7.09933e-07 1.44725e-05 -3.15373e-07
1.00299e-05 -3.15373e-07 -8.84969e-05
0.001488 1.69408e-05 4.33992e-06
1.69408e-05 6.76699e-05 2.39726e-07
4.33992e-06 2.39726e-07 -5.08188e-05
0.00146691 4.57801e-05 4.37763e-06
4.57801e-05 7.98226e-05 1.00147e-06
4.37763e-06 1.00147e-06 -3.59069e-05
0.00161048 2.54467e-05 1.06708e-06
2.54467e-05 9.64557e-05 3.06288e-07
1.06708e-06 3.06288e-07 -2.09832e-05
0.00141091 8.57226e-05 4.41821e-06
8.57226e-05 6.05163e-05 8.32068e-07
4.41821e-06 8.32068e-07 -5.60313e-05
0.0016072 7.1357e-05 1.10347e-06
7.1357e-05 0.0001151 4.27984e-07
1.10347e-06 4.27984e-07 -3.04669e-06
0.000718731 9.94832e-06 -1.44892e-05
9.94832e-06 -9.72913e-05 6.4019e-07
-1.44892e-05 6.4019e-07 -0.000157583
0.00159391 -8.49023e-06 -6.29666e-05
-8.49023e-06 0.000397555 2.40104e-06
-6.29666e-05 2.40104e-06 0.000347776
0.000787084 -9.48081e-06 -1.03956e-05
-9.48081e-06 -0.000210179 1.7369e-06
-1.03956e-05 1.7369e-06 -0.000311549
0.00202285 -6.8059e-05 -1.5772e-05
-6.8059e-05 0.000487889 2.5099e-06
-1.5772e-05 2.5099e-06 0.000399634
0.00297909 9.69352e-05 -6.0907e-05
9.69352e-05 0.00126485 2.86412e-06
-6.0907e-05 2.86412e-06 0.00126547
0.00174171 2.02514e-05 -3.20076e-05
2.02514e-05 0.000576301 3.83364e-06
-3.20076e-05 3.83364e-06 0.000540933
0.00163509 -0.000109419 -7.19094e-06
-0.000109419 0.000476171 2.94964e-06
-7.19094e-06 2.94964e-06 0.000388569
0.00153771 -9.84728e-05 -1.51382e-05
-9.84728e-05 0.000247684 3.96161e-06
-1.51382e-05 3.96161e-06 0.000152294
0.00118654 -8.26818e-05 -6.05276e-06
-8.26818e-05 -5.13313e-05 1.17786e-06
-6.05276e-06 1.17786e-06 -0.000163244
0.00174505 -0.000136492 -5.46561e-06
-0.000136492 0.000322327 1.58727e-06
-5.46561e-06 1.58727e-06 0.000204983
0.000714273 -0.000109132 -3.14106e-06
-0.000109132 -0.000113394 1.41326e-06
-3.14106e-06 1.41326e-06 -0.000233863
0.00129795 -0.000140454 -1.45096e-06
-0.000140454 8.52707e-05 9.36588e-07
-1.45096e-06 9.36588e-07 -4.65017e-05
0.000628662 5.17914e-05 -2.53859e-06
5.17914e-05 -3.03647e-05 5.35596e-06
-2.53859e-06 5.35596e-06 -6.24868e-05
0.000702388 8.88584e-06 -1.70409e-06
8.88584e-06 -1.46913e-05 2.50448e-06
-1.70409e-06 2.50448e-06 -7.70209e-05
0.00101753 -2.70832e-06 -4.51098e-07
-2.70832e-06 -9.87793e-05 -2.95556e-07
-4.51098e-07 -2.95556e-07 -0.000202059
0.00160041 -3.64849e-05 -3.11598e-06
-3.64849e-05 0.000244861 2.19349e-07
-3.11598e-06 2.19349e-07 0.000151503
0.00177288 -1.66736e-05 -2.12157e-06
-1.66736e-05 0.000237795 5.01878e-07
-2.12157e-06 5.01878e-07 0.000125924
0.00154359 -6.90553e-05 1.07411e-06
-6.90553e-05 0.000138915 -3.12724e-07
1.07411e-06 -3.12724e-07 2.84644e-05
0.000594591 4.2483e-05 1.74861e-07
4.2483e-05 -4.9462e-05 1.44897e-07
1.74861e-07 1.44897e-07 -8.58118e-05
0.000814124 -5.55636e-05 -2.11838e-07
-5.55636e-05 5.1445e-05 2.1117e-08
-2.11838e-07 2.1117e-08 -3.19014e-05
0.000702258 -0.000106502 9.70155e-07
-0.000106502 -5.64458e-05 -8.75691e-07
9.70155e-07 -8.75691e-07 -0.00016999
0.00173053 -0.000122808 -1.09096e-06
-0.000122808 0.000267807 2.78841e-07
-1.09096e-06 2.78841e-07 0.000152918
0.00156908 -9.13545e-05 -6.47408e-07
-9.13545e-05 0.000105212 5.26198e-07
-6.47408e-07 5.26198e-07 -7.53996e-06
0.00147259 -0.000160885 -1.34175e-06
-0.000160885 0.000249362 6.72113e-07
-1.34175e-06 6.72113e-07 0.000111172
0.00142579 -0.00013318 -5.69202e-08
-0.00013318 8.98556e-05 -4.13564e-07
-5.69202e-08 -4.13564e-07 -3.72277e-05
0.00139808 -0.000150033 4.0535e-07
-0.000150033 9.55303e-05 5.97064e-07
4.0535e-07 5.97064e-07 -3.82767e-05
0.000757148 -1.02587e-05 -2.32252e-07
-1.02587e-05 2.08006e-05 -1.26507e-07
-2.32252e-07 -1.26507e-07 -5.27553e-05
0.000774314 -7.68406e-06 -6.25126e-07
-7.68406e-06 2.40711e-05 -2.82113e-07
-6.25126e-07 -2.82113e-07 -6.28597e-05
0.00072573 2.8848e-05 4.69533e-07
2.8848e-05 -4.6223e-06 2.72979e-07
4.69533e-07 2.72979e-07 -5.7595e-05
0.00189241 -1.68503e-06 3.07827e-06
-1.68503e-06 0.000291442 -6.23102e-07
3.07827e-06 -6.23102e-07 0.000177403
0.0016665 -4.05898e-05 3.80539e-06
-4.05898e-05 0.000189247 -6.59667e-07
3.80539e-06 -6.59667e-07 7.748e-05
0.00179212 -1.5786e-05 1.02853e-06
-1.5786e-05 0.000199543 1.01406e-07
1.02853e-06 1.01406e-07 8.36027e-05
0.00156844 -6.39336e-05 1.13431e-06
-6.39336e-05 9.96418e-05 -1.02056e-06
1.13431e-06 -1.02056e-06 -1.45061e-05
0.00146765 -0.000118174 2.66043e-06
-0.000118174 6.33725e-05 1.938e-07
2.66043e-06 1.938e-07 -5.64748e-05
0.00173411 -8.88034e-05 -1.02078e-06
-8.88034e-05 0.000160129 6.67166e-07
-1.02078e-06 6.67166e-07 5.1479e-05
0.000753274 -2.92251e-05 2.23075e-06
-2.92251e-05 2.37337e-05 -2.00272e-06
2.23075e-06 -2.00272e-06 -5.6968e-05
0.00147553 -0.000137724 -6.26387e-07
-0.000137724 7.1136e-05 -5.33141e-07
-6.26387e-07 -5.33141e-07 -5.42893e-05
0.000889327 -0.000109274 1.13553e-06
-0.000109274 7.34111e-05 -3.07667e-07
1.13553e-06 -3.07667e-07 -3.08175e-05
0.000711042 -0.000121131 2.44445e-06
-0.000121131 -7.63009e-05 -3.14315e-06
2.44445e-06 -3.14315e-06 -0.000210338
0.00166822 -0.000179479 1.43159e-06
-0.000179479 0.000317213 4.0891e-07
1.43159e-06 4.0891e-07 0.000170718
0.00194119 -0.000177308 -4.00173e-06
-0.000177308 0.000354523 2.39062e-06
-4.00173e-06 2.39062e-06 0.000225427
0.000747612 2.58971e-05 1.31897e-06
2.58971e-05 2.97403e-06 -1.8979e-06
1.31897e-06 -1.8979e-06 -4.3545e-05
0.000860461 -5.66428e-05 1.07953e-06
-5.66428e-05 6.60101e-05 -4.79028e-09
1.07953e-06 -4.79028e-09 -2.52409e-05
0.000748555 3.56747e-06 3.6856e-07
3.56747e-06 1.22084e-05 -1.31289e-06
3.6856e-07 -1.31289e-06 -6.95558e-05
0.000954757 -9.90842e-05 -3.8465e-07
-9.90842e-05 0.000129789 1.01762e-06
-3.8465e-07 1.01762e-06 2.84796e-05
0.00114467 9.16675e-05 -9.72036e-06
9.16675e-05 1.62753e-05 -3.86398e-06
-9.72036e-06 -3.86398e-06 -8.6276e-05
0.00064042 -4.75524e-05 -2.28236e-06
-4.75524e-05 -3.64222e-05 -3.53682e-06
-2.28236e-06 -3.53682e-06 -5.25498e-05
0.000548755 -6.86303e-05 -1.5112e-07
-6.86303e-05 -6.80913e-05 -5.26553e-06
-1.5112e-07 -5.26553e-06 -9.96368e-05
0.000732159 -5.62356e-05 2.37311e-07
-5.62356e-05 1.28718e-05 -2.59594e-06
2.37311e-07 -2.59594e-06 -4.47319e-05
0.000951657 0.000104561 -6.16349e-06
0.000104561 4.55003e-06 -4.02346e-06
-6.16349e-06 -4.02346e-06 -9.49408e-05
0.0013299 0.000130549 -4.67613e-06
0.000130549 7.51002e-05 -2.11064e-06
-4.67613e-06 -2.11064e-06 -5.13432e-05
0.000736767 3.43042e-05 -2.04826e-06
3.43042e-05 1.58507e-05 -2.23728e-06
-2.04826e-06 -2.23728e-06 -6.55767e-05
0.000973458 0.000116827 -2.39347e-06
0.000116827 0.000107956 -1.68028e-06
-2.39347e-06 -1.68028e-06 -7.05118e-06
0.00124736 0.000138112 -2.13999e-06
0.000138112 0.00016142 -1.23556e-06
-2.13999e-06 -1.23556e-06 4.4444e-05
0.000805898 0.000125671 -1.75712e-06
0.000125671 -3.75115e-05 1.10365e-06
-1.75712e-06 1.10365e-06 -0.000162575
0.000687793 -4.35259e-05 8.07818e-08
-4.35259e-05 -2.08697e-05 3.2238e-08
8.07818e-08 3.2238e-08 -3.29227e-05
0.000757856 1.16002e-05 1.13474e-07
1.16002e-05 2.69765e-05 -4.34603e-08
1.13474e-07 -4.34603e-08 -4.46677e-05
0.000717556 -5.23227e-05 -2.16432e-07
-5.23227e-05 -6.33661e-07 3.28134e-07
-2.16432e-07 3.28134e-07 -4.68788e-05
0.000838816 9.33552e-06 3.35693e-07
9.33552e-06 7.04606e-05 -2.13098e-07
3.35693e-07 -2.13098e-07 -1.26421e-05
0.00139647 0.000108777 1.06043e-06
0.000108777 6.74774e-05 -2.92081e-08
1.06043e-06 -2.92081e-08 -5.4755e-05
0.00119183 0.000135392 1.05383e-07
0.000135392 7.03714e-05 8.49058e-08
1.05383e-07 8.49058e-08 -5.29728e-05
0.00146286 0.000141437 8.89544e-08
0.000141437 9.23787e-05 5.17422e-07
8.89544e-08 5.17422e-07 -4.296e-05
0.0009895 9.36449e-05 3.49968e-07
9.36449e-05 0.000137037 3.5536e-07
3.49968e-07 3.5536e-07 3.26104e-05
0.0014439 0.000157761 -6.87779e-07
0.000157761 0.000236569 -1.45582e-06
-6.87779e-07 -1.45582e-06 0.00011051
0.00110759 0.000139439 3.51502e-07
0.000139439 0.000178495 -1.12112e-06
3.51502e-07 -1.12112e-06 4.24719e-05
0.000880838 0.000131948 -1.86855e-06
0.000131948 -1.85238e-05 -1.16233e-07
-1.86855e-06 -1.16233e-07 -0.000143581
0.000718983 -3.95654e-05 1.85125e-06
-3.95654e-05 -1.28784e-05 3.33539e-06
1.85125e-06 3.33539e-06 -2.18706e-05
0.000737364 -4.57965e-05 6.08443e-07
-4.57965e-05 2.0039e-06 1.79122e-06
6.08443e-07 1.79122e-06 -3.67783e-05
0.00097431 5.02614e-05 1.5088e-06
5.02614e-05 0.00013671 7.19065e-07
1.5088e-06 7.19065e-07 4.30624e-05
0.000798782 1.09377e-05 2.47808e-07
1.09377e-05 4.35738e-05 1.21062e-06
2.47808e-07 1.21062e-06 -2.6976e-05
0.000898562 7.60755e-05 6.67299e-07
7.60755e-05 0.000114978 -1.09013e-07
6.67299e-07 -1.09013e-07 1.50784e-05
0.00157908 0.000114534 3.47165e-06
0.000114534 0.000110802 1.26979e-08
3.47165e-06 1.26979e-08 -1.67939e-05
0.00134186 0.000151318 7.92085e-07
0.000151318 0.000105524 3.02981e-06
7.92085e-07 3.02981e-06 -2.82223e-05
0.0016153 0.00015264 -2.24875e-07
0.00015264 0.000140141 1.54216e-06
-2.24875e-07 1.54216e-06 3.25115e-06
0.00112317 0.000133095 2.67352e-06
0.000133095 0.00021919 2.91652e-06
2.67352e-06 2.91652e-06 8.88162e-05
0.00127204 0.0001573 1.1372e-06
0.0001573 0.00012141 1.14373e-06
1.1372e-06 1.14373e-06 -7.05043e-06
0.000286862 9.80744e-05 1.58358e-06
9.80744e-05 -0.000292187 -2.32416e-06
1.58358e-06 -2.32416e-06 -0.00043555
0.000769881 -2.84183e-05 1.42445e-06
-2.84183e-05 6.14123e-06 1.54755e-06
1.42445e-06 1.54755e-06 -2.55992e-05
0.000787541 2.18841e-06 4.101e-07
2.18841e-06 2.45134e-05 5.76951e-07
4.101e-07 5.76951e-07 -2.61255e-05
0.000786154 -1.76584e-05 8.80249e-07
-1.76584e-05 7.48022e-06 1.73074e-06
8.80249e-07 1.73074e-06 -2.1884e-05
0.00077678 -2.29396e-05 1.36762e-07
-2.29396e-05 6.37569e-06 -4.09113e-09
1.36762e-07 -4.09113e-09 -2.40017e-05
0.00125775 -3.68268e-05 1.70414e-06
-3.68268e-05 0.000270754 2.02826e-06
1.70414e-06 2.02826e-06 0.00026908
0.00098782 -3.76701e-05 7.83682e-07
-3.76701e-05 0.000128204 -2.43189e-08
7.83682e-07 -2.43189e-08 0.00012318
0.000962791 -3.29295e-05 2.25373e-05
-3.29295e-05 0.000119642 6.10583e-06
2.25373e-05 6.10583e-06 0.000130868
0.00207184 -5.58786e-05 1.26957e-06
-5.58786e-05 0.000740306 -9.8234e-08
1.26957e-06 -9.8234e-08 0.000755294
0.0020989 -6.28714e-05 -2.88508e-05
-6.28714e-05 0.000763109 -3.11639e-06
-2.88508e-05 -3.11639e-06 0.000775961
0.000659882 4.05191e-05 2.16853e-06
4.05191e-05 -3.90463e-05 -3.88938e-06
2.16853e-06 -3.88938e-06 -5.57418e-05
0.002457 7.4248e-05 3.65111e-05
7.4248e-05 0.000963886 -3.23939e-06
3.65111e-05 -3.23939e-06 0.000972539
0.000659423 4.94079e-05 3.41132e-08
4.94079e-05 -3.00605e-05 4.30886e-08
3.41132e-08 4.30886e-08 -5.11522e-05
0.00263826 8.19496e-05 -1.33296e-06
8.19496e-05 0.00106875 -1.38202e-07
-1.33296e-06 -1.38202e-07 0.00107503
0.000649735 6.04216e-05 3.14393e-08
6.04216e-05 -2.40177e-05 5.22743e-06
3.14393e-08 5.22743e-06 -5.14351e-05
0.00285171 8.83967e-05 -5.55482e-05
8.83967e-05 0.00118863 3.0132e-06
-5.55482e-05 3.0132e-06 0.00119255
0.00117406 7.55417e-05 -9.80372e-06
7.55417e-05 1.78869e-05 -2.74144e-06
-9.80372e-06 -2.74144e-06 -8.23208e-05
0.00119168 4.2333e-05 -9.40014e-06
4.2333e-05 1.73628e-05 -2.10557e-06
-9.40014e-06 -2.10557e-06 -8.20513e-05
0.00142987 6.55417e-05 -4.30693e-06
6.55417e-05 6.84895e-05 -9.56209e-07
-4.30693e-06 -9.56209e-07 -4.63759e-05
0.00150049 2.62461e-05 -4.55132e-06
2.62461e-05 8.40949e-05 -9.18555e-07
-4.55132e-06 -9.18555e-07 -3.31163e-05
0.0012302 1.59744e-05 -1.01422e-05
1.59744e-05 1.45118e-05 -1.11821e-06
-1.01422e-05 -1.11821e-06 -8.83242e-05
0.00072059 8.93615e-06 -1.50243e-05
8.93615e-06 -9.94993e-05 -2.53084e-07
-1.50243e-05 -2.53084e-07 -0.00016046
0.00122942 1.29558e-06 1.39176e-08
1.29558e-06 1.13072e-05 -1.44041e-07
1.39176e-08 -1.44041e-07 -9.17133e-05
0.00149785 1.87863e-05 -5.33336e-08
1.87863e-05 7.28672e-05 -2.37801e-07
-5.33336e-08 -2.37801e-07 -4.56572e-05
0.00146347 4.31442e-05 1.03028e-07
4.31442e-05 7.82903e-05 -8.74351e-08
1.03028e-07 -8.74351e-08 -3.74264e-05
0.00159291 2.57376e-05 -1.50896e-07
2.57376e-05 8.58775e-05 8.93825e-08
-1.50896e-07 8.93825e-08 -3.12167e-05
0.00142687 8.65362e-05 -2.15975e-07
8.65362e-05 6.81953e-05 1.2034e-07
-2.15975e-07 1.2034e-07 -4.83886e-05
0.00157576 7.02081e-05 -5.5323e-08
7.02081e-05 9.93527e-05 1.08967e-07
-5.5323e-08 1.08967e-07 -1.89251e-05
0.00150057 6.11208e-06 4.6194e-06
6.11208e-06 7.16238e-05 -1.9478e-07
4.6194e-06 -1.9478e-07 -4.68914e-05
0.0016055 2.04515e-05 5.29933e-07
2.04515e-05 7.44915e-05 3.08474e-07
5.29933e-07 3.08474e-07 -4.3168e-05
0.00158182 4.74327e-05 1.16787e-06
4.74327e-05 9.201e-05 1.62292e-07
1.16787e-06 1.62292e-07 -2.5868e-05
0.00172618 2.79478e-05 -3.43671e-07
2.79478e-05 0.00011714 1.02195e-07
-3.43671e-07 1.02195e-07 5.83975e-06
0.0016416 8.88157e-05 1.1641e-06
8.88157e-05 0.000134028 -3.34971e-08
1.1641e-06 -3.34971e-08 1.38798e-05
0.00159578 6.33349e-05 -2.15532e-06
6.33349e-05 7.44991e-05 1.44073e-07
-2.15532e-06 1.44073e-07 -3.59498e-05
0.00082128 -6.94894e-07 -9.77349e-06
-6.94894e-07 -0.000204012 7.21567e-07
-9.77349e-06 7.21567e-07 -0.000308506
0.00163276 -4.01323e-05 -1.53908e-05
-4.01323e-05 0.000261652 2.14701e-06
-1.53908e-05 2.14701e-06 0.000168226
0.00166145 -1.00426e-05 -6.99953e-06
-1.00426e-05 0.000175773 1.21112e-06
-6.99953e-06 1.21112e-06 6.33869e-05
0.00189712 -7.49009e-05 -4.50525e-06
-7.49009e-05 0.000330109 9.38699e-07
-4.50525e-06 9.38699e-07 0.000221612
0.000647346 3.25086e-05 -4.61979e-06
3.25086e-05 -2.14231e-05 5.28079e-06
-4.61979e-06 5.28079e-06 -5.79483e-05
0.000897747 -6.19217e-05 -3.61888e-06
-6.19217e-05 9.70189e-05 2.03631e-06
-3.61888e-06 2.03631e-06 1.25818e-05
0.000876268 -0.000116377 -7.57553e-07
-0.000116377 3.90576e-05 4.95947e-07
-7.57553e-07 4.95947e-07 -7.36608e-05
0.00184425 -0.000124891 -6.38815e-06
-0.000124891 0.000329437 1.49597e-06
-6.38815e-06 1.49597e-06 0.000214572
0.00143744 -8.65287e-05 -1.81947e-06
-8.65287e-05 3.16976e-05 4.82055e-07
-1.81947e-06 4.82055e-07 -8.08082e-05
0.00138739 -0.000131114 -2.19025e-06
-0.000131114 6.99443e-05 2.61752e-07
-2.19025e-06 2.61752e-07 -5.6882e-05
0.00108301 -0.000140454 -2.45293e-06
-0.000140454 3.94903e-05 1.76948e-06
-2.45293e-06 1.76948e-06 -9.87729e-05
0.00118893 -0.000140023 1.31314e-06
-0.000140023 -1.48672e-05 1.87763e-07
1.31314e-06 1.87763e-07 -0.000147776
0.000715907 -1.27111e-05 -2.41595e-06
-1.27111e-05 -3.67792e-06 2.28318e-06
-2.41595e-06 2.28318e-06 -7.62793e-05
0.000744528 8.78785e-07 -1.06497e-06
8.78785e-07 7.60606e-06 2.65345e-07
-1.06497e-06 2.65345e-07 -7.88738e-05
0.000720286 2.18072e-05 -9.11838e-07
2.18072e-05 -8.68301e-06 2.27086e-06
-9.11838e-07 2.27086e-06 -6.13539e-05
0.00169257 -6.0211e-07 -2.15504e-06
-6.0211e-07 0.000181864 1.21107e-07
-2.15504e-06 1.21107e-07 6.60205e-05
0.00166316 -4.54253e-05 -1.17821e-06
-4.54253e-05 0.000187461 1.17887e-07
-1.17821e-06 1.17887e-07 7.54466e-05
0.00165012 -1.2768e-05 -7.72872e-07
-1.2768e-05 0.000121045 3.15266e-07
-7.72872e-07 3.15266e-07 5.04456e-06
0.00169446 -6.3403e-05 -1.29699e-07
-6.3403e-05 0.000166106 -2.55741e-07
-1.29699e-07 -2.55741e-07 5.23288e-05
0.000783474 -3.49522e-05 7.43744e-08
-3.49522e-05 3.84755e-05 -2.24195e-07
7.43744e-08 -2.24195e-07 -4.20642e-05
0.000997593 -0.000116371 -2.6239e-07
-0.000116371 0.000129576 4.07141e-07
-2.6239e-07 4.07141e-07 2.44562e-05
0.000818555 -0.000125339 7.36265e-07
-0.000125339 -1.3657e-05 -1.28351e-06
7.36265e-07 -1.28351e-06 -0.000145962
0.00160607 -0.000122051 4.49338e-07
-0.000122051 0.000141259 -1.09294e-07
4.49338e-07 -1.09294e-07 2.14119e-05
0.00164618 -8.57333e-05 9.5189e-08
-8.57333e-05 0.000111896 3.27621e-07
9.5189e-08 3.27621e-07 3.9876e-06
0.00136222 -0.000164056 -2.19565e-07
-0.000164056 0.000156256 5.06906e-07
-2.19565e-07 5.06906e-07 9.2634e-06
0.00151136 -0.000137813 -2.61877e-07
-0.000137813 8.95911e-05 -4.63029e-07
-2.61877e-07 -4.63029e-07 -3.56557e-05
0.00170777 -0.000166874 1.31272e-06
-0.000166874 0.00022784 1.54568e-06
1.31272e-06 1.54568e-06 0.000101198
0.000917192 -6.17104e-05 -2.92275e-07
-6.17104e-05 9.89854e-05 -1.56371e-07
-2.92275e-07 -1.56371e-07 6.21995e-06
0.000933126 -9.82884e-05 -3.28895e-07
-9.82884e-05 0.000118717 3.91422e-07
-3.28895e-07 3.91422e-07 1.58598e-05
0.000747058 2.02641e-05 1.52885e-07
2.02641e-05 2.46545e-06 9.13467e-08
1.52885e-07 9.13467e-08 -4.39962e-05
0.000719474 2.35173e-05 -1.19239e-07
2.35173e-05 -7.46761e-06 -5.00095e-07
-1.19239e-07 -5.00095e-07 -8.5254e-05
0.00163955 -2.96214e-06 1.58909e-06
-2.96214e-06 0.000105796 -5.7305e-07
1.58909e-06 -5.7305e-07 -1.24959e-05
0.00181656 -3.98341e-05 7.96608e-07
-3.98341e-05 0.000219632 1.91528e-07
7.96608e-07 1.91528e-07 0.000104488
0.00173532 -1.9646e-05 2.31822e-07
-1.9646e-05 0.000129113 1.65286e-07
2.31822e-07 1.65286e-07 1.56122e-05
0.00162812 -5.9516e-05 -1.19224e-06
-5.9516e-05 9.3183e-05 -6.25773e-07
-1.19224e-06 -6.25773e-07 -1.38583e-05
0.0015876 -0.00011636 -7.90801e-07
-0.00011636 8.38848e-05 1.08991e-06
-7.90801e-07 1.08991e-06 -3.12756e-05
0.00169036 -8.15343e-05 2.22606e-07
-8.15343e-05 0.000109186 3.27892e-07
2.22606e-07 3.27892e-07 6.63071e-06
0.000882426 -0.000104161 1.1959e-06
-0.000104161 7.71508e-05 2.67145e-07
1.1959e-06 2.67145e-07 -2.00882e-05
0.00157859 -0.000142284 -4.5214e-06
-0.000142284 9.13512e-05 -4.70444e-07
-4.5214e-06 -4.70444e-07 -2.48119e-05
0.000574217 -0.000103706 -3.38642e-07
-0.000103706 -9.66616e-05 -1.97203e-06
-3.38642e-07 -1.97203e-06 -0.000216311
0.00117926 -0.000156319 2.50974e-06
-0.000156319 0.000151782 -2.06e-06
2.50974e-06 -2.06e-06 8.64814e-07
0.00147138 -0.000178229 9.32095e-07
-0.000178229 0.000187015 3.25441e-06
9.32095e-07 3.25441e-06 3.77316e-05
0.00204127 -0.00018633 -1.03578e-06
-0.00018633 0.000365109 4.11435e-07
-1.03578e-06 4.11435e-07 0.000242073
0.000755621 1.56403e-05 1.76027e-06
1.56403e-05 3.29196e-06 -1.87742e-06
1.76027e-06 -1.87742e-06 -3.92611e-05
0.000703887 9.58776e-06 3.29046e-07
9.58776e-06 -1.11245e-05 -1.22355e-06
3.29046e-07 -1.22355e-06 -8.65472e-05
0.000924306 -0.000116174 7.3328e-08
-0.000116174 0.000109319 1.2842e-06
7.3328e-08 1.2842e-06 3.83609e-06
0.000938316 -7.09592e-05 9.72661e-07
-7.09592e-05 0.000120309 -2.09052e-08
9.72661e-07 -2.09052e-08 2.71363e-05
0.000929462 -0.000116199 -8.913e-07
-0.000116199 0.000119632 2.02533e-06
-8.913e-07 2.02533e-06 1.14946e-05
0.000661897 -4.22185e-05 -2.13697e-06
-4.22185e-05 -3.47405e-05 -3.39528e-06
-2.13697e-06 -3.39528e-06 -4.66076e-05
0.0014325 0.000110727 -3.79766e-06
0.000110727 8.59798e-05 -1.175e-06
-3.79766e-06 -1.175e-06 -3.6539e-05
0.00072434 -5.47636e-05 -5.61855e-07
-5.47636e-05 3.11694e-06 -1.77742e-06
-5.61855e-07 -1.77742e-06 -4.31886e-05
0.000789606 -7.85797e-06 -2.85802e-07
-7.85797e-06 4.38555e-05 -2.64108e-06
-2.85802e-07 -2.64108e-06 -2.66311e-05
0.000849989 -6.35907e-06 6.33909e-07
-6.35907e-06 7.53766e-05 -9.44215e-07
6.33909e-07 -9.44215e-07 -6.33692e-06
0.00117692 0.000135649 -3.67294e-06
0.000135649 6.39515e-05 -2.53966e-06
-3.67294e-06 -2.53966e-06 -5.95004e-05
0.00143864 0.000140698 -1.93419e-06
0.000140698 8.04525e-05 -6.7514e-07
-1.93419e-06 -6.7514e-07 -5.50667e-05
0.000895533 0.000104206 -1.45259e-06
0.000104206 8.95613e-05 -8.12043e-07
-1.45259e-06 -8.12043e-07 -1.56412e-05
0.00119615 0.000145223 -1.92525e-06
0.000145223 0.000226263 -1.28435e-06
-1.92525e-06 -1.28435e-06 8.90692e-05
0.00163412 0.000167616 -1.4591e-06
0.000167616 0.000339827 -2.74641e-06
-1.4591e-06 -2.74641e-06 0.000213356
0.00104229 0.00014066 -3.46091e-06
0.00014066 7.16746e-05 1.82118e-06
-3.46091e-06 1.82118e-06 -5.05175e-05
0.000696921 -3.8527e-05 7.41779e-08
-3.8527e-05 -2.47338e-05 2.48005e-08
7.41779e-08 2.48005e-08 -3.36046e-05
0.000743102 -4.54348e-05 -2.18552e-07
-4.54348e-05 4.90326e-06 9.98646e-08
-2.18552e-07 9.98646e-08 -3.3732e-05
0.000924158 5.55555e-05 5.48678e-07
5.55555e-05 0.000110537 -7.12446e-08
5.48678e-07 -7.12446e-08 1.66701e-05
0.000806019 -1.61566e-05 -1.99363e-07
-1.61566e-05 4.594e-05 1.53052e-07
-1.99363e-07 1.53052e-07 -2.30344e-05
0.000848555 5.66893e-05 5.95856e-07
5.66893e-05 8.51745e-05 -2.2525e-07
5.95856e-07 -2.2525e-07 -1.3836e-05
0.00153017 0.000113641 1.31732e-06
0.000113641 8.49808e-05 7.80747e-08
1.31732e-06 7.80747e-08 -4.28852e-05
0.00132253 0.000151276 -6.64657e-08
0.000151276 9.63411e-05 6.34901e-07
-6.64657e-08 6.34901e-07 -3.74859e-05
0.00155421 0.000151329 1.03231e-06
0.000151329 0.000108656 9.7991e-07
1.03231e-06 9.7991e-07 -2.8733e-05
0.0010085 0.000125978 1.07412e-06
0.000125978 0.000159724 1.20226e-06
1.07412e-06 1.20226e-06 3.00461e-05
0.00143531 0.000164892 1.08468e-06
0.000164892 0.00020989 -1.43441e-06
1.08468e-06 -1.43441e-06 8.13341e-05
0.000778207 0.000127116 -1.79448e-06
0.000127116 -3.07817e-05 -9.43833e-07
-1.79448e-06 -9.43833e-07 -0.000176322
0.000760359 -3.51346e-05 1.32742e-06
-3.51346e-05 6.80953e-06 1.57714e-06
1.32742e-06 1.57714e-06 -2.74237e-05
0.000804434 1.8156e-06 4.60433e-07
1.8156e-06 3.72916e-05 1.03784e-06
4.60433e-07 1.03784e-06 -2.05186e-05
0.00104445 0.000120217 7.95429e-09
0.000120217 0.000186991 -1.66516e-07
7.95429e-09 -1.66516e-07 7.08874e-05
0.000858 8.65579e-06 4.39849e-07
8.65579e-06 8.36407e-05 5.24252e-07
4.39849e-07 5.24252e-07 -7.63558e-07
0.00107189 5.7556e-05 -5.51613e-07
5.7556e-05 0.000204717 -2.23455e-06
-5.51613e-07 -2.23455e-06 9.67297e-05
0.00155396 0.000110284 -1.57302e-06
0.000110284 6.78159e-05 -1.81757e-06
-1.57302e-06 -1.81757e-06 -5.77696e-05
0.00144287 0.000166752 4.41068e-07
0.000166752 0.000125174 3.06907e-06
4.41068e-07 3.06907e-06 -1.14182e-05
0.00143413 0.000159853 -4.16857e-06
0.000159853 2.30946e-05 -2.9267e-07
-4.16857e-06 -2.9267e-07 -0.000107736
0.000840964 0.000122161 2.40164e-07
0.000122161 7.73347e-05 2.05641e-06
2.40164e-07 2.05641e-06 -7.5264e-05
0.00124089 0.000167939 3.27362e-06
0.000167939 0.000131699 -3.69053e-07
3.27362e-06 -3.69053e-07 -1.375e-05
0.000768693 -2.7485e-05 2.23214e-08
-2.7485e-05 5.93135e-06 -2.44444e-09
2.23214e-08 -2.44444e-09 -2.58563e-05
0.000661727 -1.73535e-05 8.90103e-07
-1.73535e-05 -4.66042e-05 1.16904e-06
8.90103e-07 1.16904e-06 -9.6444e-05
0.00073279 -2.29228e-05 -6.98872e-07
-2.29228e-05 -7.57028e-06 -3.54397e-08
-6.98872e-07 -3.54397e-08 -5.71359e-05
0.000981593 1.49551e-05 1.15154e-06
1.49551e-05 0.000140129 -2.4761e-07
1.15154e-06 -2.4761e-07 7.77877e-05
0.000816546 1.59466e-05 1.70685e-06
1.59466e-05 3.51808e-05 7.28634e-07
1.70685e-06 7.28634e-07 -1.37338e-05
0.000788304 -8.31351e-06 9.37986e-07
-8.31351e-06 5.75014e-06 1.72597e-06
9.37986e-07 1.72597e-06 -2.35142e-05
0.000783975 -1.81138e-05 -5.01238e-08
-1.81138e-05 6.49861e-06 1.60553e-08
-5.01238e-08 1.60553e-08 -2.29236e-05
0.00125622 -2.98019e-05 1.15889e-06
-2.98019e-05 0.000263755 2.03361e-06
1.15889e-06 2.03361e-06 0.000263761
0.000774941 -2.22857e-05 -1.15283e-06
-2.22857e-05 5.78024e-06 -1.74075e-06
-1.15283e-06 -1.74075e-06 -2.46948e-05
0.00127631 -3.47565e-05 -4.18626e-06
-3.47565e-05 0.000280368 -1.16368e-06
-4.18626e-06 -1.16368e-06 0.00027901
0.000957931 -2.77678e-05 1.95272e-05
-2.77678e-05 0.000108339 6.21065e-06
1.95272e-05 6.21065e-06 0.000121632
0.00126437 -3.88244e-05 -9.47516e-06
-3.88244e-05 0.000281063 -3.07777e-06
-9.47516e-06 -3.07777e-06 0.000277888
0.00147853 -4.07865e-05 1.78003e-05
-4.07865e-05 0.000404598 1.94773e-06
1.78003e-05 1.94773e-06 0.000418776
0.00205743 -5.54754e-05 -2.54453e-05
-5.54754e-05 0.000731133 -3.32874e-06
-2.54453e-05 -3.32874e-06 0.00074641
0.000672945 3.64776e-05 1.80567e-06
3.64776e-05 -3.92685e-05 -3.77377e-06
1.80567e-06 -3.77377e-06 -5.28235e-05
0.000676737 4.17493e-05 -1.23746e-07
4.17493e-05 -2.96644e-05 3.17974e-08
-1.23746e-07 3.17974e-08 -4.6611e-05
0.00236613 6.62945e-05 3.19763e-05
6.62945e-05 0.000906564 -3.47399e-06
3.19763e-05 -3.47399e-06 0.000917608
0.0025047 7.44007e-05 -1.29105e-06
7.44007e-05 0.000990225 -1.34184e-07
-1.29105e-06 -1.34184e-07 0.000998731
0.000678867 5.32112e-05 -7.40652e-07
5.32112e-05 -1.83484e-05 4.49164e-06
-7.40652e-07 4.49164e-06 -4.02724e-05
0.00267761 8.04463e-05 -4.86674e-05
8.04463e-05 0.00108969 3.06436e-06
-4.86674e-05 3.06436e-06 0.00109619
0.00144294 8.74608e-05 -4.71067e-06
8.74608e-05 7.59102e-05 -5.50593e-07
-4.71067e-06 -5.50593e-07 -4.07179e-05
0.00146401 4.39636e-05 -4.4115e-06
4.39636e-05 7.88997e-05 -1.18067e-06
-4.4115e-06 -1.18067e-06 -3.70039e-05
0.0015443 7.01268e-05 -1.16583e-06
7.01268e-05 8.35915e-05 -2.43348e-07
-1.16583e-06 -2.43348e-07 -3.48751e-05
0.00157204 2.59429e-05 -1.08033e-06
2.59429e-05 7.36712e-05 -1.90642e-07
-1.08033e-06 -1.90642e-07 -4.30813e-05
0.00150952 2.2159e-05 -4.37224e-06
2.2159e-05 7.90459e-05 -7.0074e-07
-4.37224e-06 -7.0074e-07 -3.95507e-05
0.0012356 6.18145e-06 -1.0003e-05
6.18145e-06 1.42704e-05 -4.48542e-08
-1.0003e-05 -4.48542e-08 -8.87271e-05
0.00150456 1.01053e-05 6.58602e-08
1.01053e-05 7.38372e-05 -1.00386e-07
6.58602e-08 -1.00386e-07 -4.47459e-05
0.00160889 1.11522e-05 -1.4752e-07
1.11522e-05 7.61487e-05 1.61221e-08
-1.4752e-07 1.61221e-08 -4.16629e-05
0.00158583 4.67269e-05 -1.10801e-08
4.67269e-05 9.47826e-05 -1.2567e-07
-1.10801e-08 -1.2567e-07 -2.31294e-05
0.00173803 2.93887e-05 1.48319e-07
2.93887e-05 0.000122406 2.12289e-07
1.48319e-07 2.12289e-07 1.23175e-05
0.00155759 8.76603e-05 -2.28984e-07
8.76603e-05 8.99071e-05 2.80514e-07
-2.28984e-07 2.80514e-07 -3.04945e-05
0.00161254 6.40289e-05 -8.75122e-08
6.40289e-05 8.19285e-05 4.24694e-07
-8.75122e-08 4.24694e-07 -2.76827e-05
0.00161721 1.32468e-07 1.49444e-06
1.32468e-07 8.21019e-05 2.4585e-09
1.49444e-06 2.4585e-09 -3.62918e-05
0.00175868 2.74084e-05 -3.17214e-07
2.74084e-05 0.000114096 4.13952e-07
-3.17214e-07 4.13952e-07 1.44719e-06
0.00159941 4.39239e-05 -1.62076e-06
4.39239e-05 5.71629e-05 -6.82435e-08
-1.62076e-06 -6.82435e-08 -5.12024e-05
0.00183118 3.46096e-05 -5.05718e-07
3.46096e-05 0.000147471 9.57874e-08
-5.05718e-07 9.57874e-08 4.37902e-05
0.00155527 7.9533e-05 -1.57082e-06
7.9533e-05 5.65092e-05 -1.03207e-06
-1.57082e-06 -1.03207e-06 -5.85081e-05
0.00174133 6.20316e-05 -7.61957e-07
6.20316e-05 0.000121781 -2.6024e-08
-7.61957e-07 -2.6024e-08 2.07205e-05
0.00148999 -2.69354e-08 -6.25248e-06
-2.69354e-08 7.0789e-05 8.23612e-07
-6.25248e-06 8.23612e-07 -4.68568e-05
0.0016578 -4.71149e-05 -6.11944e-06
-4.71149e-05 0.000184821 1.11897e-06
-6.11944e-06 1.11897e-06 7.26174e-05
0.00150999 -1.18109e-05 -2.16917e-06
-1.18109e-05 4.35083e-05 4.69807e-07
-2.16917e-06 4.69807e-07 -7.25919e-05
0.00181994 -6.3471e-05 -1.53713e-06
-6.3471e-05 0.000232401 4.92671e-07
-1.53713e-06 4.92671e-07 0.000118964
0.000817886 -4.1103e-05 -2.84398e-06
-4.1103e-05 5.53049e-05 1.93206e-06
-2.84398e-06 1.93206e-06 -2.50985e-05
0.00110537 -0.000123404 -1.74221e-06
-0.000123404 0.000185579 1.16759e-06
-1.74221e-06 1.16759e-06 7.95545e-05
0.000912636 -0.000128537 -7.00589e-07
-0.000128537 4.18312e-05 7.05496e-07
-7.00589e-07 7.05496e-07 -8.86236e-05
0.00173986 -0.000125713 -2.07878e-06
-0.000125713 0.000216647 -1.41607e-07
-2.07878e-06 -1.41607e-07 9.68241e-05
0.00155735 -8.2759e-05 5.66171e-07
-8.2759e-05 6.32322e-05 -5.47448e-08
5.66171e-07 -5.47448e-08 -4.39449e-05
0.00154642 -0.000137971 3.24005e-07
-0.000137971 0.00010755 -3.86033e-07
3.24005e-07 -3.86033e-07 -1.75354e-05
0.00104684 -0.000148205 -1.56423e-06
-0.000148205 -9.70348e-06 4.90935e-07
-1.56423e-06 4.90935e-07 -0.000157168
0.00147154 -0.000156345 3.99209e-06
-0.000156345 9.95536e-05 -1.11448e-06
3.99209e-06 -1.11448e-06 -2.45936e-05
0.000937017 -5.25935e-05 -1.28544e-06
-5.25935e-05 0.000109422 -2.52902e-07
-1.28544e-06 -2.52902e-07 1.73916e-05
0.000899044 -7.01803e-05 -5.8403e-07
-7.01803e-05 9.40145e-05 -4.85717e-07
-5.8403e-07 -4.85717e-07 -5.42628e-06
0.000741867 1.78949e-05 -1.33249e-06
1.78949e-05 -4.59035e-07 1.99138e-06
-1.33249e-06 1.99138e-06 -4.69351e-05
0.000705349 3.60412e-05 3.4531e-08
3.60412e-05 -1.71994e-05 2.47553e-07
3.4531e-08 2.47553e-07 -9.25015e-05
0.00163258 -2.43837e-06 -3.67816e-08
-2.43837e-06 0.000100525 -1.96468e-07
-3.67816e-08 -1.96468e-07 -1.77769e-05
0.00179263 -3.72553e-05 -7.17722e-07
-3.72553e-05 0.000206057 3.74883e-07
-7.17722e-07 3.74883e-07 9.03478e-05
0.00167693 -1.89579e-05 -3.57144e-07
-1.89579e-05 0.000100875 7.40699e-09
-3.57144e-07 7.40699e-09 -1.22809e-05
0.00160913 -5.90512e-05 -5.73236e-08
-5.90512e-05 8.63418e-05 -2.46219e-07
-5.73236e-08 -2.46219e-07 -2.13403e-05
0.000966076 -9.26765e-05 -2.92416e-07
-9.26765e-05 0.000119143 2.23092e-07
-2.92416e-07 2.23092e-07 2.31726e-05
0.000688473 -0.000109139 5.99277e-07
-0.000109139 -3.41386e-05 -7.037e-07
5.99277e-07 -7.037e-07 -0.000152162
0.0011949 -0.00015604 8.93757e-08
-0.00015604 0.000162957 1.5589e-08
8.93757e-08 1.5589e-08 1.13288e-05
0.00164948 -0.000118704 -3.56895e-07
-0.000118704 0.000118615 1.69674e-07
-3.56895e-07 1.69674e-07 2.76279e-06
0.00164229 -8.07119e-05 5.3844e-07
-8.07119e-05 8.32814e-05 -2.84499e-07
5.3844e-07 -2.84499e-07 -1.84408e-05
0.00145399 -0.000175784 -5.05795e-07
-0.000175784 0.00017774 9.81679e-07
-5.05795e-07 9.81679e-07 2.76631e-05
0.00158005 -0.000142228 -4.95445e-07
-0.000142228 9.10575e-05 -4.33604e-07
-4.95445e-07 -4.33604e-07 -2.5389e-05
0.00165244 -0.000168207 1.75896e-06
-0.000168207 0.000167462 -9.54218e-07
1.75896e-06 -9.54218e-07 5.06138e-05
0.0009953 -0.000120617 7.19454e-08
-0.000120617 0.000146925 3.56439e-08
7.19454e-08 3.56439e-08 4.10447e-05
0.000962979 -0.000110127 1.70544e-07
-0.000110127 0.000135044 2.44291e-07
1.70544e-07 2.44291e-07 2.8109e-05
0.000902042 -4.53095e-05 -2.62158e-07
-4.53095e-05 9.81211e-05 -1.03133e-07
-2.62158e-07 -1.03133e-07 7.20675e-06
0.000635352 2.3535e-05 -3.11645e-07
2.3535e-05 -6.17451e-05 3.89206e-08
-3.11645e-07 3.89206e-08 -0.000105656
0.000702332 2.62338e-05 9.58299e-08
2.62338e-05 -1.62738e-05 -3.69556e-07
9.58299e-08 -3.69556e-07 -8.81922e-05
0.0017403 -1.03682e-05 6.15069e-07
-1.03682e-05 0.000110528 -1.63127e-07
6.15069e-07 -1.63127e-07 -2.52115e-06
0.00167954 -3.05431e-05 -3.98887e-07
-3.05431e-05 9.47158e-05 1.3458e-07
-3.98887e-07 1.3458e-07 -1.56135e-05
0.00166739 -6.71127e-05 -2.31276e-07
-6.71127e-05 8.35343e-05 -2.15888e-07
-2.31276e-07 -2.15888e-07 -1.38417e-05
0.00158035 -0.000105692 -6.66806e-07
-0.000105692 4.27557e-05 5.97227e-07
-6.66806e-07 5.97227e-07 -6.24187e-05
0.000893762 -0.000116802 -4.16174e-07
-0.000116802 8.84043e-05 9.29031e-07
-4.16174e-07 9.29031e-07 -2.02304e-05
0.00182111 -0.000163136 -1.85536e-06
-0.000163136 0.000172546 -2.18028e-06
-1.85536e-06 -2.18028e-06 6.277e-05
0.000199521 -8.54305e-05 2.66619e-07
-8.54305e-05 -0.000294288 -3.60999e-06
2.66619e-07 -3.60999e-06 -0.000424288
0.00133779 -0.000175747 3.59933e-06
-0.000175747 0.000207319 -1.26906e-06
3.59933e-06 -1.26906e-06 3.7997e-05
0.00178449 -0.000198136 1.87834e-06
-0.000198136 0.000288929 2.04982e-06
1.87834e-06 2.04982e-06 0.000141787
0.000526513 2.39644e-05 1.18003e-06
2.39644e-05 -0.000124248 -2.55967e-06
1.18003e-06 -2.55967e-06 -0.000166138
0.000909723 -1.8836e-06 1.38397e-06
-1.8836e-06 9.9039e-05 -6.73666e-07
1.38397e-06 -6.73666e-07 3.16304e-05
0.000941691 -3.10301e-05 -1.13327e-07
-3.10301e-05 0.000119927 1.32881e-08
-1.13327e-07 1.32881e-08 3.71049e-05
0.000930391 -0.000117233 -1.01672e-06
-0.000117233 0.000113138 2.08975e-06
-1.01672e-06 2.08975e-06 5.45992e-06
0.00101128 -7.13685e-05 3.20735e-07
-7.13685e-05 0.000158491 1.29991e-06
3.20735e-07 1.29991e-06 5.8513e-05
0.000875489 -0.000113491 -5.29561e-07
-0.000113491 8.17727e-05 1.78367e-06
-5.29561e-07 1.78367e-06 -2.73259e-05
0.000676817 -3.76211e-05 -1.80131e-06
-3.76211e-05 -3.54808e-05 -3.37028e-06
-1.80131e-06 -3.37028e-06 -4.42504e-05
0.000747619 -4.33821e-05 -1.51304e-06
-4.33821e-05 6.7448e-06 -1.42459e-06
-1.51304e-06 -1.42459e-06 -3.14923e-05
0.00147988 0.000112783 -9.90219e-07
0.000112783 5.84245e-05 1.06682e-07
-9.90219e-07 1.06682e-07 -6.972e-05
0.000822135 -4.51953e-05 4.42677e-07
-4.51953e-05 5.30572e-05 -1.03244e-06
4.42677e-07 -1.03244e-06 -1.43869e-05
0.000836493 4.9179e-05 -3.98788e-07
4.9179e-05 6.15484e-05 -4.1961e-07
-3.98788e-07 -4.1961e-07 -3.02924e-05
0.000782159 3.81302e-05 7.0406e-07
3.81302e-05 4.602e-05 8.16749e-08
7.0406e-07 8.16749e-08 -5.18031e-05
0.00129951 0.000150976 -1.48067e-06
0.000150976 8.5228e-05 -1.93835e-06
-1.48067e-06 -1.93835e-06 -4.86552e-05
0.0014859 0.000149601 6.08988e-07
0.000149601 7.35013e-05 1.28513e-07
6.08988e-07 1.28513e-07 -6.43546e-05
0.000981615 0.000124153 -1.07994e-07
0.000124153 0.000147453 -3.75734e-07
-1.07994e-07 -3.75734e-07 1.83009e-05
0.00130325 0.000158016 -7.09596e-07
0.000158016 0.000248512 6.07433e-07
-7.09596e-07 6.07433e-07 0.00010157
0.00157729 0.000171618 -2.29192e-06
0.000171618 0.000287102 -2.9826e-06
-2.29192e-06 -2.9826e-06 0.000158514
0.000760876 -3.42739e-05 -5.18657e-08
-3.42739e-05 7.31974e-06 2.29467e-08
-5.18657e-08 2.29467e-08 -2.68838e-05
0.000800589 -2.53224e-05 -4.01932e-07
-2.53224e-05 3.46632e-05 2.56274e-07
-4.01932e-07 2.56274e-07 -2.2619e-05
0.000996223 0.000117431 -4.88922e-07
0.000117431 0.000162548 -7.99768e-08
-4.88922e-07 -7.99768e-08 4.68985e-05
0.000848841 -6.56929e-06 2.81183e-07
-6.56929e-06 7.54037e-05 1.37029e-08
2.81183e-07 1.37029e-08 -6.90132e-06
0.000924004 6.75098e-05 1.18139e-07
6.75098e-05 0.000128571 -7.05148e-07
1.18139e-07 -7.05148e-07 1.83645e-05
0.0015949 0.000113986 -6.69597e-07
0.000113986 9.0292e-05 -6.61523e-07
-6.69597e-07 -6.61523e-07 -3.60868e-05
0.00141879 0.000165343 9.62765e-07
0.000165343 0.000112528 5.56234e-07
9.62765e-07 5.56234e-07 -2.4096e-05
0.00149288 0.000159362 9.18971e-07
0.000159362 5.31303e-05 8.60761e-07
9.18971e-07 8.60761e-07 -7.48576e-05
0.000762886 0.000118289 6.72725e-07
0.000118289 3.31891e-05 1.88867e-06
6.72725e-07 1.88867e-06 -0.000117647
0.0013484 0.000174234 -1.06834e-06
0.000174234 0.000190654 -9.99475e-07
-1.06834e-06 -9.99475e-07 4.14418e-05
0.000801677 -1.53911e-06 8.50298e-07
-1.53911e-06 3.17913e-05 7.71871e-07
8.50298e-07 7.71871e-07 -1.92125e-05
0.000696446 -2.85299e-05 -6.68818e-07
-2.85299e-05 -1.45295e-05 1.42344e-06
-6.68818e-07 1.42344e-06 -8.68341e-05
0.000983634 0.000123893 -1.13578e-06
0.000123893 0.000158782 -1.74066e-06
-1.13578e-06 -1.74066e-06 2.61843e-05
0.000730522 2.34015e-05 -3.7839e-07
2.34015e-05 1.93137e-05 -4.10033e-07
-3.7839e-07 -4.10033e-07 -8.10934e-05
0.00103877 9.472e-05 -5.28426e-07
9.472e-05 0.000184919 -2.22718e-06
-5.28426e-07 -2.22718e-06 6.64948e-05
0.00155118 0.000115682 -2.89407e-06
0.000115682 1.68964e-05 -1.64334e-06
-2.89407e-06 -1.64334e-06 -8.63289e-05
0.00195692 0.000208325 -1.40454e-06
0.000208325 0.000377527 6.17872e-07
-1.40454e-06 6.17872e-07 0.000233223
0.000970557 0.000139017 -7.70107e-07
0.000139017 -0.00025403 -3.52677e-07
-7.70107e-07 -3.52677e-07 -0.000370419
0.00182223 0.00018532 3.56006e-06
0.00018532 0.000570165 3.84706e-06
3.56006e-06 3.84706e-06 0.000399751
0.000156112 0.000119634 -5.37945e-07
0.000119634 -0.00045774 -6.59664e-07
-5.37945e-07 -6.59664e-07 -0.000614236
0.000769033 -2.59089e-05 -1.57048e-06
-2.59089e-05 6.54866e-06 -1.54109e-06
-1.57048e-06 -1.54109e-06 -2.52643e-05
0.000737631 -1.32553e-05 1.5993e-07
-1.32553e-05 -4.36483e-06 4.91666e-07
1.5993e-07 4.91666e-07 -5.43276e-05
0.000725886 -4.35956e-05 -1.95043e-07
-4.35956e-05 -4.17399e-06 7.67648e-07
-1.95043e-07 7.67648e-07 -6.61465e-05
0.00068132 -4.15302e-05 -8.76259e-07
-4.15302e-05 -3.61007e-05 -4.70191e-07
-8.76259e-07 -4.70191e-07 -8.57035e-05
0.000815302 -5.66866e-06 1.84671e-07
-5.66866e-06 3.42762e-05 -2.43399e-08
1.84671e-07 -2.43399e-08 -1.43837e-05
0.000836861 -1.97705e-05 2.21061e-07
-1.97705e-05 5.62069e-05 -3.46412e-07
2.21061e-07 -3.46412e-07 -2.91503e-06
0.000944308 6.71064e-06 7.47356e-08
6.71064e-06 0.000121581 -6.1322e-07
7.47356e-08 -6.1322e-07 5.5025e-05
0.00074958 -3.72619e-05 3.57829e-07
-3.72619e-05 1.11625e-05 9.72342e-08
3.57829e-07 9.72342e-08 -4.94635e-05
0.000843475 -3.64151e-06 4.0857e-07
-3.64151e-06 4.44648e-05 5.92367e-07
4.0857e-07 5.92367e-07 -2.46826e-06
0.000779603 -6.00197e-07 9.09874e-07
-6.00197e-07 5.29541e-07 1.57248e-06
9.09874e-07 1.57248e-06 -2.95447e-05
0.000784894 -1.20969e-05 -1.53042e-07
-1.20969e-05 4.19716e-06 -6.53004e-10
-1.53042e-07 -6.53004e-10 -2.51581e-05
0.0012612 -2.20798e-05 1.07783e-06
-2.20798e-05 0.000261856 1.98481e-06
1.07783e-06 1.98481e-06 0.00026258
0.000780955 -1.84176e-05 -9.03263e-07
-1.84176e-05 5.04989e-06 -1.78038e-06
-9.03263e-07 -1.78038e-06 -2.44238e-05
0.00127677 -2.78959e-05 -3.54496e-06
-2.78959e-05 0.000274731 -1.1817e-06
-3.54496e-06 -1.1817e-06 0.00027486
0.000957106 -2.29126e-05 1.58346e-05
-2.29126e-05 0.000101799 6.31038e-06
1.58346e-05 6.31038e-06 0.000116428
0.00129336 -3.32379e-05 -8.0408e-06
-3.32379e-05 0.000289232 -4.4053e-06
-8.0408e-06 -4.4053e-06 0.000288057
0.000901877 -2.90091e-05 6.39061e-06
-2.90091e-05 7.77124e-05 2.38076e-06
6.39061e-06 2.38076e-06 9.07241e-05
0.00198336 -5.29944e-05 -6.1607e-06
-5.29944e-05 0.000683416 -1.50736e-06
-6.1607e-06 -1.50736e-06 0.000699899
0.00068623 3.24893e-05 1.31071e-06
3.24893e-05 -3.87118e-05 -3.63998e-06
1.31071e-06 -3.63998e-06 -4.93889e-05
0.000688165 3.71814e-05 -1.39291e-07
3.71814e-05 -3.09968e-05 2.90956e-08
-1.39291e-07 2.90956e-08 -4.46947e-05
0.00229402 5.83529e-05 2.76341e-05
5.83529e-05 0.00085938 -3.66957e-06
2.76341e-05 -3.66957e-06 0.000872733
0.00069445 4.33459e-05 -2.05807e-06
4.33459e-05 -1.96412e-05 3.97237e-06
-2.05807e-06 3.97237e-06 -3.69039e-05
0.00239947 6.65206e-05 -1.45187e-06
6.65206e-05 0.000925614 -1.18659e-07
-1.45187e-06 -1.18659e-07 0.000936428
0.00254095 7.37054e-05 -4.16553e-05
7.37054e-05 0.00101017 3.16079e-06
-4.16553e-05 3.16079e-06 0.00101872
0.00147753 8.65515e-05 -2.10609e-06
8.65515e-05 4.78523e-05 4.90136e-07
-2.10609e-06 4.90136e-07 -7.27982e-05
0.00159147 4.52012e-05 -8.59407e-07
4.52012e-05 9.83649e-05 -3.62206e-07
-8.59407e-07 -3.62206e-07 -1.95351e-05
0.0016266 6.4684e-05 2.24841e-06
6.4684e-05 8.78969e-05 7.1976e-07
2.24841e-06 7.1976e-07 -2.08839e-05
0.00175031 3.08307e-05 1.06927e-06
3.08307e-05 0.000127845 1.14781e-07
1.06927e-06 1.14781e-07 1.89725e-05
0.00161432 4.93371e-06 -1.06279e-06
4.93371e-06 7.88674e-05 -2.66309e-07
-1.06279e-06 -2.66309e-07 -3.91167e-05
0.00150791 1.33665e-05 -4.27601e-06
1.33665e-05 7.56722e-05 2.07081e-08
-4.27601e-06 2.07081e-08 -4.29391e-05
0.00162734 3.45707e-06 -2.65976e-08
3.45707e-06 8.70071e-05 -4.79084e-08
-2.65976e-08 -4.79084e-08 -3.18479e-05
0.00175575 2.17933e-05 2.90729e-07
2.17933e-05 0.000114321 -5.53053e-08
2.90729e-07 -5.53053e-08 1.19598e-06
0.00163373 4.1664e-05 -5.28792e-07
4.1664e-05 7.4185e-05 -1.52795e-07
-5.28792e-07 -1.52795e-07 -3.50711e-05
0.00178334 3.52309e-05 7.53732e-07
3.52309e-05 0.000117854 -1.31152e-07
7.53732e-07 -1.31152e-07 1.50473e-05
0.00160826 8.12378e-05 -5.63438e-07
8.12378e-05 8.63704e-05 1.5841e-07
-5.63438e-07 1.5841e-07 -2.87206e-05
0.00169101 6.45891e-05 2.03743e-06
6.45891e-05 9.26223e-05 1.16141e-07
2.03743e-06 1.16141e-07 -7.13155e-06
0.00175141 5.73799e-06 -6.84544e-10
5.73799e-06 0.000108614 1.69328e-07
-6.84544e-10 1.69328e-07 -5.587e-06
0.00174778 2.91904e-05 -7.07077e-07
2.91904e-05 9.06003e-05 4.62308e-07
-7.07077e-07 4.62308e-07 -1.416e-05
0.00177946 4.77097e-05 -1.1654e-06
4.77097e-05 0.000107869 7.42268e-08
-1.1654e-06 7.42268e-08 1.02892e-05
0.00175384 8.81593e-05 -1.61393e-06
8.81593e-05 0.000120666 -5.73939e-07
-1.61393e-06 -5.73939e-07 2.28202e-05
0.00162647 -1.93878e-06 -1.44545e-06
-1.93878e-06 9.57204e-05 1.88137e-07
-1.44545e-06 1.88137e-07 -2.25878e-05
0.00177416 -3.63537e-05 -2.36056e-06
-3.63537e-05 0.000195198 5.78187e-07
-2.36056e-06 5.78187e-07 7.88867e-05
0.00162448 -1.83573e-05 -1.0269e-06
-1.83573e-05 7.56542e-05 1.96922e-07
-1.0269e-06 1.96922e-07 -3.71671e-05
0.00159723 -5.79963e-05 4.17735e-07
-5.79963e-05 8.31069e-05 1.31435e-07
4.17735e-07 1.31435e-07 -2.51733e-05
0.00105503 -9.41519e-05 -1.39894e-06
-9.41519e-05 0.000166537 1.19913e-07
-1.39894e-06 1.19913e-07 6.98366e-05
0.000830286 -0.000116538 8.20593e-07
-0.000116538 4.31943e-05 2.83517e-07
8.20593e-07 2.83517e-07 -7.34496e-05
0.00120298 -0.000155173 -1.54764e-06
-0.000155173 0.000170102 2.60692e-06
-1.54764e-06 2.60692e-06 1.74697e-05
0.00171046 -0.000120848 -5.45971e-07
-0.000120848 0.000152958 -6.25718e-07
-5.45971e-07 -6.25718e-07 3.64353e-05
0.0015964 -8.00465e-05 1.61947e-07
-8.00465e-05 5.82633e-05 -5.27778e-07
1.61947e-07 -5.27778e-07 -4.26256e-05
0.00158251 -0.000142157 2.25439e-06
-0.000142157 9.10515e-05 -1.91759e-07
2.25439e-06 -1.91759e-07 -2.56686e-05
0.00144116 -0.000173554 -1.10702e-06
-0.000173554 0.00017054 -9.1436e-07
-1.10702e-06 -9.1436e-07 1.96948e-05
0.00132556 -0.000152773 1.61732e-06
-0.000152773 1.98727e-06 -1.51652e-06
1.61732e-06 -1.51652e-06 -0.000108936
0.00106636 -0.000125077 1.11573e-07
-0.000125077 0.000184753 -1.10872e-06
1.11573e-07 -1.10872e-06 7.84401e-05
0.00101253 -0.000114083 2.91054e-07
-0.000114083 0.000160685 -1.9635e-06
2.91054e-07 -1.9635e-06 5.3424e-05
0.000857107 -2.08514e-05 3.04756e-07
-2.08514e-05 7.2664e-05 2.71578e-09
3.04756e-07 2.71578e-09 -1.67794e-05
0.000514298 2.31819e-05 -1.53896e-06
2.31819e-05 -0.000127769 1.92045e-06
-1.53896e-06 1.92045e-06 -0.00017267
0.000706317 3.85484e-05 2.39635e-08
3.85484e-05 -1.70763e-05 2.91438e-07
2.39635e-08 2.91438e-07 -8.6462e-05
0.00173203 -1.13802e-05 6.68051e-08
-1.13802e-05 0.000109441 -3.18947e-08
6.68051e-08 -3.18947e-08 -3.59989e-06
0.00171841 -3.14878e-05 2.03959e-07
-3.14878e-05 0.000116162 4.36741e-08
2.03959e-07 4.36741e-08 6.41757e-06
0.00170025 -6.71208e-05 -7.10079e-07
-6.71208e-05 0.000102702 -1.93991e-07
-7.10079e-07 -1.93991e-07 4.13312e-06
0.00101182 -0.000123555 -6.51529e-08
-0.000123555 0.000150165 3.91031e-07
-6.51529e-08 3.91031e-07 4.0807e-05
0.000733153 -0.000116067 1.75261e-06
-0.000116067 -1.02292e-05 -1.60202e-06
1.75261e-06 -1.60202e-06 -0.000140641
0.00127568 -0.000170632 -4.56557e-07
-0.000170632 0.000177647 1.07022e-07
-4.56557e-07 1.07022e-07 6.26563e-06
0.00164551 -0.000106714 6.5562e-07
-0.000106714 7.68066e-05 -1.29426e-07
6.5562e-07 -1.29426e-07 -2.8336e-05
0.0016246 -0.00018659 8.12931e-07
-0.00018659 0.000207481 -2.11874e-06
8.12931e-07 -2.11874e-06 6.4444e-05
0.00175499 -0.000163682 -1.3987e-06
-0.000163682 0.000144285 -4.49009e-07
-1.3987e-06 -4.49009e-07 3.4091e-05
0.000522405 2.74999e-05 -1.69429e-08
2.74999e-05 -0.000126606 -6.45295e-07
-1.69429e-08 -6.45295e-07 -0.000168113
0.00100552 -0.000121824 4.46404e-09
-0.000121824 0.000152763 2.9188e-07
4.46404e-09 2.9188e-07 4.45245e-05
0.000889182 -0.00011377 -5.39422e-07
-0.00011377 9.01023e-05 4.3545e-07
-5.39422e-07 4.3545e-07 -1.82959e-05
0.00101118 -7.78866e-05 -3.38581e-07
-7.78866e-05 0.000161621 8.28048e-07
-3.38581e-07 8.28048e-07 5.90314e-05
0.000961977 -2.66924e-05 -2.11034e-08
-2.66924e-05 0.000131513 2.55212e-08
-2.11034e-08 2.55212e-08 4.87566e-05
0.000793746 1.43417e-05 -1.78718e-07
1.43417e-05 3.23207e-05 2.80731e-07
-1.78718e-07 2.80731e-07 -3.36484e-05
0.00168813 -2.11467e-05 -2.25341e-07
-2.11467e-05 6.35063e-05 8.00529e-08
-2.25341e-07 8.00529e-08 -4.50608e-05
0.00176622 -4.95552e-05 -1.48026e-06
-4.95552e-05 0.000106221 -2.05731e-07
-1.48026e-06 -2.05731e-07 1.0371e-05
0.00160343 -8.16745e-05 5.54123e-08
-8.16745e-05 2.40136e-05 4.13855e-07
5.54123e-08 4.13855e-07 -6.85366e-05
0.00189857 -0.000135672 -1.50743e-06
-0.000135672 0.000167635 1.71986e-08
-1.50743e-06 1.71986e-08 6.96669e-05
0.000958665 -0.00012256 -1.27574e-06
-0.00012256 0.000124846 6.47274e-07
-1.27574e-06 6.47274e-07 9.49636e-06
0.00152224 -0.000179231 1.41305e-06
-0.000179231 3.73224e-05 -3.03498e-07
1.41305e-06 -3.03498e-07 -8.5504e-05
0.000785734 -0.000129219 -4.33575e-07
-0.000129219 7.33145e-07 -3.68675e-06
-4.33575e-07 -3.68675e-06 -0.00015924
0.00179912 -0.000209163 9.57225e-07
-0.000209163 0.000407802 1.37891e-06
9.57225e-07 1.37891e-06 0.000225448
0.0005465 2.24998e-05 7.69712e-07
2.24998e-05 -0.000116468 -2.45687e-06
7.69712e-07 -2.45687e-06 -0.000154753
0.000908656 -2.00456e-07 1.15188e-06
-2.00456e-07 9.53127e-05 -8.64834e-07
1.15188e-06 -8.64834e-07 3.3151e-05
0.00100033 -4.25152e-05 1.06395e-07
-4.25152e-05 0.000153437 7.42445e-07
1.06395e-07 7.42445e-07 7.42379e-05
0.000915394 -1.64343e-05 3.05785e-07
-1.64343e-05 0.000106439 -5.60438e-07
3.05785e-07 -5.60438e-07 1.49368e-05
0.00105142 -0.000125482 -6.81395e-07
-0.000125482 0.000175267 1.85227e-06
-6.81395e-07 1.85227e-06 6.2076e-05
0.000950846 -0.000119582 -2.57253e-06
-0.000119582 0.000120289 2.97906e-06
-2.57253e-06 2.97906e-06 9.16011e-06
0.000761557 -3.33144e-05 -1.68929e-06
-3.33144e-05 7.82475e-06 -1.4439e-06
-1.68929e-06 -1.4439e-06 -2.6311e-05
0.000787095 -4.62144e-05 -1.73149e-07
-4.62144e-05 2.75869e-05 -7.79871e-07
-1.73149e-07 -7.79871e-07 -2.97096e-05
0.00164331 0.00011805 1.84441e-07
0.00011805 0.000116648 5.0801e-07
1.84441e-07 5.0801e-07 -1.0549e-05
0.000850379 -2.17942e-05 3.51713e-07
-2.17942e-05 7.31872e-05 -4.20101e-07
3.51713e-07 -4.20101e-07 -7.14169e-06
0.000926078 0.000113299 1.48268e-07
0.000113299 0.000126383 -3.3663e-07
1.48268e-07 -3.3663e-07 1.13266e-05
0.000791111 4.51126e-05 3.68578e-07
4.51126e-05 5.44101e-05 1.10512e-08
3.68578e-07 1.10512e-08 -5.35814e-05
0.00140361 0.000164423 -6.59976e-07
0.000164423 0.000104418 -2.33216e-06
-6.59976e-07 -2.33216e-06 -3.22701e-05
0.00157377 0.000160051 2.4748e-06
0.000160051 9.42974e-05 2.1803e-07
2.4748e-06 2.1803e-07 -3.09166e-05
0.000648165 0.000111981 2.08892e-07
0.000111981 -3.03565e-05 8.93186e-07
2.08892e-07 8.93186e-07 -0.000179637
0.00147282 0.000181354 -8.77278e-07
0.000181354 0.000258912 -1.28476e-07
-8.77278e-07 -1.28476e-07 0.000105323
0.00079344 -2.03379e-05 -4.41879e-07
-2.03379e-05 2.7719e-05 1.17077e-07
-4.41879e-07 1.17077e-07 -2.36523e-05
0.000765113 -1.45892e-05 -4.21958e-08
-1.45892e-05 2.2313e-05 7.55866e-07
-4.21958e-08 7.55866e-07 -4.98863e-05
0.00104954 0.000127108 -4.1983e-07
0.000127108 0.000197758 -1.46641e-06
-4.1983e-07 -1.46641e-06 6.68409e-05
0.000777707 -1.07946e-05 -1.69509e-07
-1.07946e-05 3.93232e-05 4.64912e-08
-1.69509e-07 4.64912e-08 -5.65655e-05
0.00090505 8.06739e-05 -9.2073e-07
8.06739e-05 0.00011426 -9.30326e-07
-9.2073e-07 -9.30326e-07 -1.24492e-06
0.00181765 0.000122592 -1.92941e-06
0.000122592 0.000160353 -6.80604e-07
-1.92941e-06 -6.80604e-07 5.83109e-05
0.00185167 0.000201899 1.26065e-06
0.000201899 0.000316947 5.63881e-07
1.26065e-06 5.63881e-07 0.000173184
0.00129258 0.000154498 9.82743e-08
0.000154498 -8.38837e-05 1.11566e-06
9.82743e-08 1.11566e-06 -0.00019748
0.00133871 0.000157956 1.52458e-06
0.000157956 0.00031858 2.13575e-06
1.52458e-06 2.13575e-06 0.000147369
0.000710516 0.000152547 -1.62869e-06
0.000152547 -0.000166637 -7.78961e-07
-1.62869e-06 -7.78961e-07 -0.000329635
0.000704321 -3.29198e-05 -7.88827e-08
-3.29198e-05 -1.50821e-05 1.02928e-06
-7.88827e-08 1.02928e-06 -7.92632e-05
0.000603478 2.57219e-05 -2.17661e-07
2.57219e-05 -5.07549e-05 2.55361e-07
-2.17661e-07 2.55361e-07 -0.000142244
0.00108004 0.000129519 1.45686e-07
0.000129519 0.000211248 -5.08008e-07
1.45686e-07 -5.08008e-07 6.33742e-05
0.00033693 3.91193e-05 3.69927e-07
3.91193e-05 -0.000189487 -4.5465e-08
3.69927e-07 -4.5465e-08 -0.000305812
0.00189411 0.000115649 -1.97503e-06
0.000115649 0.000121006 -5.05043e-07
-1.97503e-06 -5.05043e-07 4.17491e-05
0.00186312 0.000151826 6.4058e-07
0.000151826 0.000134246 5.31223e-08
6.4058e-07 5.31223e-08 4.34306e-05
0.00156389 0.000203949 -1.15473e-06
0.000203949 0.000139606 -2.17242e-06
-1.15473e-06 -2.17242e-06 -8.83346e-06
0.000178529 0.000100547 -5.21825e-07
0.000100547 -0.000337974 1.39164e-06
-5.21825e-07 1.39164e-06 -0.000531021
0.000807549 8.1118e-07 -8.31607e-07
8.1118e-07 3.73238e-05 -1.7061e-07
-8.31607e-07 -1.7061e-07 -1.45666e-05
0.000804141 -1.56727e-05 -2.05164e-07
-1.56727e-05 3.96741e-05 4.1881e-07
-2.05164e-07 4.1881e-07 -2.28776e-05
0.000903082 -3.32043e-05 -1.67746e-07
-3.32043e-05 9.90347e-05 8.47805e-08
-1.67746e-07 8.47805e-08 3.0178e-05
0.000805151 -3.16576e-05 -9.22075e-07
-3.16576e-05 2.71593e-05 -6.22641e-07
-9.22075e-07 -6.22641e-07 -2.03624e-05
0.000700381 -4.35869e-05 9.38886e-08
-4.35869e-05 -1.81084e-05 -2.75155e-07
9.38886e-08 -2.75155e-07 -7.76723e-05
0.000824054 -1.351e-05 2.63717e-08
-1.351e-05 3.45927e-05 3.3608e-08
2.63717e-08 3.3608e-08 -1.28008e-05
0.000846079 1.56119e-05 -1.75787e-07
1.56119e-05 7.32849e-05 -3.35151e-07
-1.75787e-07 -3.35151e-07 3.22408e-06
0.000768436 -1.85231e-05 2.08926e-07
-1.85231e-05 2.3558e-05 2.37217e-07
2.08926e-07 2.37217e-07 -3.86319e-05
0.00087228 -1.24189e-05 2.3303e-07
-1.24189e-05 8.52421e-05 -2.96126e-07
2.3303e-07 -2.96126e-07 1.30434e-05
0.000810351 -4.35237e-05 -1.84151e-07
-4.35237e-05 4.87608e-05 1.46795e-07
-1.84151e-07 1.46795e-07 -1.92866e-05
0.000729464 4.14397e-06 4.17372e-07
4.14397e-06 -2.66848e-06 1.84486e-07
4.17372e-07 1.84486e-07 -6.2792e-05
0.000829849 9.99593e-06 5.5062e-07
9.99593e-06 3.70406e-05 4.99647e-07
5.5062e-07 4.99647e-07 -1.08092e-05
0.000772848 4.86753e-06 6.83939e-07
4.86753e-06 -2.0329e-06 1.49664e-06
6.83939e-07 1.49664e-06 -3.32323e-05
0.00078101 -6.77919e-06 -2.13241e-07
-6.77919e-06 1.60207e-06 -3.31013e-09
-2.13241e-07 -3.31013e-09 -2.85939e-05
0.00127289 -1.46054e-05 8.85566e-07
-1.46054e-05 0.000265572 1.92924e-06
8.85566e-07 1.92924e-06 0.000266219
0.000779433 -1.65145e-05 -5.51979e-07
-1.65145e-05 1.49615e-06 -1.68502e-06
-5.51979e-07 -1.68502e-06 -2.79511e-05
0.00128729 -2.03905e-05 -2.89293e-06
-2.03905e-05 0.000276232 -1.24504e-06
-2.89293e-06 -1.24504e-06 0.000276855
0.000962832 -1.74932e-05 1.29798e-05
-1.74932e-05 0.000100742 6.51342e-06
1.29798e-05 6.51342e-06 0.000115806
0.00130119 -2.65215e-05 -6.40813e-06
-2.65215e-05 0.000287848 -4.41999e-06
-6.40813e-06 -4.41999e-06 0.000287988
0.000909801 -2.37663e-05 5.01161e-06
-2.37663e-05 7.57698e-05 2.42762e-06
5.01161e-06 2.42762e-06 9.02932e-05
0.000846992 -2.91588e-05 -2.15505e-06
-2.91588e-05 4.76169e-05 -1.62454e-06
-2.15505e-06 -1.62454e-06 6.06112e-05
0.000696614 2.80659e-05 8.8903e-07
2.80659e-05 -3.93469e-05 -3.52436e-06
8.8903e-07 -3.52436e-06 -4.72541e-05
0.000698639 3.29904e-05 -1.70816e-07
3.29904e-05 -3.21326e-05 2.6646e-08
-1.70816e-07 2.6646e-08 -4.28933e-05
0.00222802 5.02446e-05 2.32498e-05
5.02446e-05 0.000815875 -3.82317e-06
2.32498e-05 -3.82317e-06 0.000831421
0.000704889 3.79976e-05 -1.9432e-06
3.79976e-05 -2.19008e-05 3.80398e-06
-1.9432e-06 3.80398e-06 -3.57528e-05
0.00231814 5.86541e-05 -1.57587e-06
5.86541e-05 0.000873512 -1.11223e-07
-1.57587e-06 -1.11223e-07 0.000886612
0.00243721 6.65188e-05 -3.59722e-05
6.65188e-05 0.000946925 3.40937e-06
-3.59722e-05 3.40937e-06 0.000957574
0.00165756 8.29273e-05 1.38073e-06
8.29273e-05 0.000114308 1.6092e-06
1.38073e-06 1.6092e-06 -8.56109e-07
0.00167092 3.94053e-05 4.89604e-07
3.94053e-05 9.27085e-05 -1.38005e-07
4.89604e-07 -1.38005e-07 -1.74271e-05
0.00164303 6.71627e-05 3.9608e-06
6.71627e-05 6.46071e-05 -3.58103e-08
3.9608e-06 -3.58103e-08 -3.3832e-05
0.00173424 3.58184e-05 2.04194e-06
3.58184e-05 8.76692e-05 -4.49623e-07
2.04194e-06 -4.49623e-07 -1.42761e-05
0.00175588 1.71272e-05 1.06626e-06
1.71272e-05 0.000116355 -3.47782e-07
1.06626e-06 -3.47782e-07 2.68769e-06
0.0016352 2.2117e-06 -1.36402e-06
2.2117e-06 9.06572e-05 -6.45767e-08
-1.36402e-06 -6.45767e-08 -2.8629e-05
0.00175493 6.36576e-06 -1.19954e-07
6.36576e-06 0.000112677 -6.25264e-09
-1.19954e-07 -6.25264e-09 -1.26811e-06
0.00173984 2.50047e-05 3.98098e-07
2.50047e-05 8.74898e-05 -1.65009e-07
3.98098e-07 -1.65009e-07 -1.75813e-05
0.0017593 4.91365e-05 7.48281e-07
4.91365e-05 9.74882e-05 -6.48536e-08
7.48281e-07 -6.48536e-08 -4.66965e-07
0.0017912 8.47433e-05 3.75419e-07
8.47433e-05 0.00013421 7.65625e-08
3.75419e-07 7.65625e-08 3.70015e-05
0.00176055 4.18018e-06 -9.92014e-07
4.18018e-06 9.3339e-05 3.70677e-07
-9.92014e-07 3.70677e-07 -1.42511e-05
0.00187819 3.52813e-05 -5.28843e-07
3.52813e-05 0.000136318 3.44643e-07
-5.28843e-07 3.44643e-07 4.30937e-05
0.00175366 8.01928e-05 -7.0751e-07
8.01928e-05 7.23497e-05 4.22461e-07
-7.0751e-07 4.22461e-07 -1.82847e-05
0.00172486 -1.20958e-05 -4.34643e-07
-1.20958e-05 0.000108951 -9.46366e-08
-4.34643e-07 -9.46366e-08 -4.07797e-06
0.00175385 -3.2338e-05 4.476e-09
-3.2338e-05 0.000135795 3.92671e-08
4.476e-09 3.92671e-08 2.66287e-05
0.00173186 -6.70379e-05 7.94898e-08
-6.70379e-05 0.000121367 -1.65372e-07
7.94898e-08 -1.65372e-07 2.16073e-05
0.00111346 -0.000129177 -9.96054e-08
-0.000129177 0.000202964 1.28555e-07
-9.96054e-08 1.28555e-07 9.30446e-05
0.00121277 -0.000143707 7.20175e-08
-0.000143707 0.000244006 1.11495e-06
7.20175e-08 1.11495e-06 0.000113608
0.00124143 -0.000166959 -2.39661e-06
-0.000166959 0.000163954 2.70586e-06
-2.39661e-06 2.70586e-06 -9.76422e-06
0.00170003 -0.000107297 5.00964e-07
-0.000107297 0.000105718 -6.30563e-07
5.00964e-07 -6.30563e-07 6.06755e-07
0.00169815 -0.000164975 -1.23435e-07
-0.000164975 0.000120224 1.26838e-07
-1.23435e-07 1.26838e-07 9.63697e-06
0.00145472 -0.00017506 -2.20742e-06
-0.00017506 0.000121239 -3.8259e-06
-2.20742e-06 -3.8259e-06 -1.77443e-05
0.00106733 -0.000125562 7.56177e-07
-0.000125562 0.000185259 -1.29011e-06
7.56177e-07 -1.29011e-06 7.6556e-05
0.000847671 -0.000110423 -1.44957e-06
-0.000110423 6.93547e-05 -1.85101e-06
-1.44957e-06 -1.85101e-06 -3.79996e-05
0.00100593 -9.26637e-05 6.47136e-07
-9.26637e-05 0.000163942 3.07451e-07
6.47136e-07 3.07451e-07 5.72432e-05
0.000515012 2.55258e-05 -9.47042e-07
2.55258e-05 -0.000130933 1.17232e-06
-9.47042e-07 1.17232e-06 -0.000171885
0.00098144 -1.60564e-05 5.91737e-08
-1.60564e-05 0.000140366 -1.44969e-07
5.91737e-08 -1.44969e-07 5.917e-05
0.000674971 2.67949e-05 1.33015e-07
2.67949e-05 -3.6021e-05 1.16605e-06
1.33015e-07 1.16605e-06 -0.000100472
0.00176669 -1.91236e-05 -4.36431e-08
-1.91236e-05 0.000102961 5.97265e-08
-4.36431e-08 5.97265e-08 -5.60216e-06
0.00179985 -5.20967e-05 4.17375e-07
-5.20967e-05 0.000126011 -5.41055e-08
4.17375e-07 -5.41055e-08 3.06966e-05
0.00164982 -8.01721e-05 -9.72185e-08
-8.01721e-05 4.99408e-05 3.2152e-08
-9.72185e-08 3.2152e-08 -4.29244e-05
0.00101586 -0.000125636 -1.08457e-07
-0.000125636 0.000153136 8.37343e-07
-1.08457e-07 8.37343e-07 3.71948e-05
0.000759859 -0.000126407 -3.76186e-07
-0.000126407 -7.97848e-06 3.61021e-07
-3.76186e-07 3.61021e-07 -0.000163456
0.00171343 -0.00020282 -2.37942e-06
-0.00020282 0.000358263 1.47199e-06
-2.37942e-06 1.47199e-06 0.000177453
0.00187815 -0.000136767 5.5531e-07
-0.000136767 0.000154573 -2.19202e-07
5.5531e-07 -2.19202e-07 5.65785e-05
0.00168869 -0.000186155 9.79509e-07
-0.000186155 0.000122584 -1.29819e-06
9.79509e-07 -1.29819e-06 -1.50554e-06
0.000652043 2.21094e-05 2.01561e-07
2.21094e-05 -5.90563e-05 -6.06596e-07
2.01561e-07 -6.06596e-07 -9.60819e-05
0.000901251 8.65922e-06 -2.57773e-07
8.65922e-06 9.02919e-05 1.95801e-07
-2.57773e-07 1.95801e-07 2.89263e-05
0.000749106 -0.000106796 -1.05663e-06
-0.000106796 1.19033e-05 7.45133e-07
-1.05663e-06 7.45133e-07 -9.8463e-05
0.00103435 -0.000119765 1.07779e-06
-0.000119765 0.000164991 8.74438e-07
1.07779e-06 8.74438e-07 5.67133e-05
0.000878506 -2.45568e-05 1.26311e-07
-2.45568e-05 8.8235e-05 -3.73092e-07
1.26311e-07 -3.73092e-07 -5.29547e-06
0.000931598 -3.47381e-05 -6.33815e-07
-3.47381e-05 0.000116013 8.72517e-07
-6.33815e-07 8.72517e-07 3.67669e-05
0.00181705 -3.23164e-05 -1.05356e-06
-3.23164e-05 0.000109095 2.74411e-08
-1.05356e-06 2.74411e-08 1.2994e-05
0.00172588 -6.9336e-05 -1.76678e-06
-6.9336e-05 5.84584e-05 -1.31687e-07
-1.76678e-06 -1.31687e-07 -2.31034e-05
0.00164163 -9.69027e-05 -2.24004e-06
-9.69027e-05 -3.47905e-06 1.44516e-07
-2.24004e-06 1.44516e-07 -8.69268e-05
0.0021237 -0.000192467 -5.66753e-07
-0.000192467 0.000259017 -3.39218e-07
-5.66753e-07 -3.39218e-07 0.000160211
0.000485362 -9.74457e-05 -1.87549e-06
-9.74457e-05 -0.000119565 2.91508e-08
-1.87549e-06 2.91508e-08 -0.000246823
0.00158029 -0.000206207 -1.79331e-06
-0.000206207 0.000186565 5.13309e-06
-1.79331e-06 5.13309e-06 1.6308e-05
0.00182426 -0.000199395 9.71003e-07
-0.000199395 0.000529002 -3.42598e-06
9.71003e-07 -3.42598e-06 0.000345708
0.000787801 1.66676e-05 7.59857e-07
1.66676e-05 1.19538e-05 -1.75194e-06
7.59857e-07 -1.75194e-06 -2.16963e-05
0.000784013 -5.75061e-05 1.10231e-06
-5.75061e-05 3.29877e-05 -1.11689e-06
1.10231e-06 -1.11689e-06 -2.49554e-05
0.000680596 8.88651e-06 6.10729e-07
8.88651e-06 -2.72562e-05 -1.5222e-06
6.10729e-07 -1.5222e-06 -8.91446e-05
0.000871556 -3.25687e-05 9.85084e-07
-3.25687e-05 8.67848e-05 -3.91859e-09
9.85084e-07 -3.91859e-09 8.69065e-06
0.000890578 7.18895e-06 2.32636e-07
7.18895e-06 9.26344e-05 -1.55663e-07
2.32636e-07 -1.55663e-07 8.73981e-06
0.000721506 -0.000104443 1.33572e-06
-0.000104443 2.52172e-05 2.2145e-06
1.33572e-06 2.2145e-06 -8.49637e-05
0.00074193 -0.000105953 -3.67336e-06
-0.000105953 -2.22005e-05 1.60198e-06
-3.67336e-06 1.60198e-06 -0.000120773
0.00186357 -0.000172058 -3.83298e-06
-0.000172058 0.000633345 3.14038e-06
-3.83298e-06 3.14038e-06 0.0005191
0.000797952 -4.36811e-05 -4.77527e-07
-4.36811e-05 3.02075e-05 -6.56206e-07
-4.77527e-07 -6.56206e-07 -2.12702e-05
0.000838884 -2.40282e-06 -2.08722e-07
-2.40282e-06 6.22293e-05 2.29494e-07
-2.08722e-07 2.29494e-07 -1.00042e-05
0.00209077 0.000129097 1.4721e-06
0.000129097 0.000308065 5.65732e-07
1.4721e-06 5.65732e-07 0.000207243
0.000844277 9.80854e-06 -2.25841e-07
9.80854e-06 7.84346e-05 -2.85072e-07
-2.25841e-07 -2.85072e-07 -1.9509e-05
0.00113667 0.000131811 -2.85565e-07
0.000131811 0.000248627 -1.49008e-06
-2.85565e-07 -1.49008e-06 0.000118985
0.000746398 6.57173e-05 -8.08187e-07
6.57173e-05 3.06956e-05 1.37555e-06
-8.08187e-07 1.37555e-06 -8.17726e-05
0.00169161 0.000192607 1.16807e-06
0.000192607 0.000227261 -9.0143e-07
1.16807e-06 -9.0143e-07 8.43374e-05
0.00165915 0.000171903 6.58451e-06
0.000171903 0.000108679 3.2766e-06
6.58451e-06 3.2766e-06 -2.02967e-06
0.000830086 0.000129294 9.02877e-07
0.000129294 5.31583e-05 7.87875e-07
9.02877e-07 7.87875e-07 -0.000118818
0.00119764 0.000181686 -3.48796e-06
0.000181686 8.7062e-05 -1.07002e-06
-3.48796e-06 -1.07002e-06 -8.14711e-05
0.000711751 -1.34447e-05 1.48828e-07
-1.34447e-05 -8.34343e-06 5.48494e-07
1.48828e-07 5.48494e-07 -7.52657e-05
0.000715452 3.9349e-05 -1.22825e-07
3.9349e-05 1.00853e-05 -1.10224e-06
-1.22825e-07 -1.10224e-06 -8.21085e-05
0.00100533 0.000125482 2.68781e-07
0.000125482 0.000176412 -1.23258e-06
2.68781e-07 -1.23258e-06 2.69712e-05
0.000752673 6.47773e-05 -5.9709e-07
6.47773e-05 3.34421e-05 -7.10972e-07
-5.9709e-07 -7.10972e-07 -8.42674e-05
0.00194468 0.000111897 9.0679e-08
0.000111897 0.00015339 -5.09013e-07
9.0679e-08 -5.09013e-07 7.51783e-05
0.00175243 0.000153169 1.82045e-06
0.000153169 8.62509e-05 7.19116e-09
1.82045e-06 7.19116e-09 -8.0679e-06
0.00185307 0.000215237 -2.49413e-06
0.000215237 0.000287355 -3.71915e-07
-2.49413e-06 -3.71915e-07 0.000140304
0.00069039 0.000135205 9.41166e-07
0.000135205 -8.33428e-05 4.86197e-07
9.41166e-07 4.86197e-07 -0.000274539
0.000868681 -2.30942e-05 2.04464e-08
-2.30942e-05 8.11618e-05 1.37926e-07
2.04464e-08 1.37926e-07 7.53547e-06
0.00169478 7.84327e-05 -1.72535e-07
7.84327e-05 5.77094e-06 9.94457e-07
-1.72535e-07 9.94457e-07 -6.37584e-05
0.0011816 0.000115217 -3.30783e-07
0.000115217 0.000281174 2.2314e-06
-3.30783e-07 2.2314e-06 0.000164775
0.00103685 0.000131199 5.07498e-07
0.000131199 0.000177969 1.05366e-06
5.07498e-07 1.05366e-06 2.16664e-05
0.00218925 0.000143119 -3.24856e-06
0.000143119 0.000221496 3.42984e-07
-3.24856e-06 3.42984e-07 0.000149881
0.00158153 0.000212408 2.6365e-07
0.000212408 -2.9141e-06 -2.19458e-06
2.6365e-07 -2.19458e-06 -0.000125024
0.00195988 0.000220643 -1.39086e-06
0.000220643 0.000501638 1.92942e-06
-1.39086e-06 1.92942e-06 0.000303512
0.000881778 -7.49975e-06 -1.4599e-06
-7.49975e-06 8.08714e-05 1.25016e-08
-1.4599e-06 1.25016e-08 1.9278e-05
0.000876176 -2.36201e-05 -4.47886e-08
-2.36201e-05 8.43836e-05 -3.65093e-08
-4.47886e-08 -3.65093e-08 1.5721e-05
0.000897548 -2.24252e-05 -1.79728e-07
-2.24252e-05 0.000102471 4.44384e-07
-1.79728e-07 4.44384e-07 2.71006e-05
0.000803234 -2.91301e-05 -5.05056e-07
-2.91301e-05 2.43764e-05 -6.56849e-07
-5.05056e-07 -6.56849e-07 -2.37072e-05
0.000806179 -6.24503e-06 2.55717e-08
-6.24503e-06 4.34587e-05 3.97077e-07
2.55717e-08 3.97077e-07 -1.85002e-05
0.000734212 -6.66726e-06 -2.72153e-07
-6.66726e-06 1.43923e-05 -3.91131e-07
-2.72153e-07 -3.91131e-07 -5.68609e-05
0.00081567 -1.74094e-05 -1.20198e-07
-1.74094e-05 3.23024e-05 2.06083e-08
-1.20198e-07 2.06083e-08 -1.75443e-05
0.000754511 -2.55476e-05 -5.40604e-07
-2.55476e-05 1.32399e-05 2.46852e-07
-5.40604e-07 2.46852e-07 -4.83936e-05
0.000838971 -3.96841e-05 3.94078e-07
-3.96841e-05 6.65293e-05 -3.98871e-07
3.94078e-07 -3.98871e-07 -6.03904e-06
0.000866967 4.92149e-06 1.30338e-07
4.92149e-06 8.29156e-05 5.65856e-07
1.30338e-07 5.65856e-07 1.31572e-05
0.000791445 -2.45427e-05 6.0538e-07
-2.45427e-05 3.89106e-05 -8.7769e-07
6.0538e-07 -8.7769e-07 -3.62015e-05
0.00079881 -5.49737e-05 -2.22299e-09
-5.49737e-05 4.04125e-05 8.17989e-08
-2.22299e-09 8.17989e-08 -3.24658e-05
0.000905949 1.11631e-05 5.80663e-07
1.11631e-05 9.85603e-05 -8.64508e-08
5.80663e-07 -8.64508e-08 3.163e-05
0.000821012 1.01828e-05 1.30403e-06
1.01828e-05 4.78354e-05 -4.02214e-08
1.30403e-06 -4.02214e-08 -1.66241e-05
0.000822509 5.10059e-06 5.80134e-07
5.10059e-06 3.38726e-05 4.99899e-07
5.80134e-07 4.99899e-07 -1.51381e-05
0.000767057 9.66114e-06 4.25273e-07
9.66114e-06 -3.66318e-06 1.45603e-06
4.25273e-07 1.45603e-06 -3.57995e-05
0.000776344 -1.25826e-06 -1.59658e-07
-1.25826e-06 -1.34058e-08 8.59906e-10
-1.59658e-07 8.59906e-10 -3.12354e-05
0.00128215 -7.11554e-06 6.66582e-07
-7.11554e-06 0.000269349 1.8989e-06
6.66582e-07 1.8989e-06 0.000269618
0.000786003 -1.2749e-05 -3.52963e-07
-1.2749e-05 4.60542e-06 -1.56815e-06
-3.52963e-07 -1.56815e-06 -2.57105e-05
0.00130346 -1.31187e-05 -2.1495e-06
-1.31187e-05 0.000282706 -1.29019e-06
-2.1495e-06 -1.29019e-06 0.000283149
0.000976157 -1.20521e-05 9.73782e-06
-1.20521e-05 0.000105428 6.69697e-06
9.73782e-06 6.69697e-06 0.000120487
0.00131887 -1.92251e-05 -4.82645e-06
-1.92251e-05 0.000293573 -4.45584e-06
-4.82645e-06 -4.45584e-06 0.000293998
0.000924279 -1.81131e-05 3.59331e-06
-1.81131e-05 7.9043e-05 2.509e-06
3.59331e-06 2.509e-06 9.41698e-05
0.000861095 -2.36728e-05 -1.57111e-06
-2.36728e-05 4.89314e-05 -1.62226e-06
-1.57111e-06 -1.62226e-06 6.35449e-05
0.000778421 1.13485e-05 4.03122e-07
1.13485e-05 4.86335e-06 -1.71327e-06
4.03122e-07 -1.71327e-06 -2.68921e-05
0.000711841 2.25933e-05 8.20357e-07
2.25933e-05 -3.67576e-05 -3.4374e-06
8.20357e-07 -3.4374e-06 -4.22531e-05
0.000710719 2.85193e-05 -1.4872e-07
2.85193e-05 -3.18125e-05 2.92479e-08
-1.4872e-07 2.92479e-08 -3.98044e-05
0.00216661 4.18606e-05 1.91051e-05
4.18606e-05 0.000775499 -3.93947e-06
1.91051e-05 -3.93947e-06 0.000793111
0.000714344 3.36135e-05 -1.55786e-06
3.36135e-05 -2.37407e-05 3.65497e-06
-1.55786e-06 3.65497e-06 -3.4604e-05
0.00225023 5.06667e-05 -1.80938e-06
5.06667e-05 0.000828957 -1.04036e-07
-1.80938e-06 -1.04036e-07 0.000844236
0.00234677 5.88167e-05 -3.07615e-05
5.88167e-05 0.000890098 3.64176e-06
-3.07615e-05 3.64176e-06 0.000902968
0.00182892 8.13201e-05 1.74464e-06
8.13201e-05 0.000147933 9.49042e-07
1.74464e-06 9.49042e-07 5.13503e-05
0.00174007 5.04632e-05 1.54619e-06
5.04632e-05 8.76296e-05 -3.25034e-07
1.54619e-06 -3.25034e-07 -1.06885e-05
0.00172687 2.44913e-05 1.46692e-06
2.44913e-05 8.15075e-05 -5.88557e-07
1.46692e-06 -5.88557e-07 -2.38679e-05
0.00175466 7.24487e-06 2.9154e-07
7.24487e-06 0.000114694 -1.91883e-07
2.9154e-07 -1.91883e-07 1.05788e-06
0.00178115 4.25504e-06 -4.06511e-07
4.25504e-06 0.000104678 1.1732e-07
-4.06511e-07 1.1732e-07 -2.02678e-06
0.0018618 3.34688e-05 3.84827e-07
3.34688e-05 0.000124212 -2.30205e-07
3.84827e-07 -2.30205e-07 3.06453e-05
0.00174035 8.18155e-05 -5.88587e-08
8.18155e-05 6.0356e-05 -1.2749e-07
-5.88587e-08 -1.2749e-07 -3.01914e-05
0.00179167 2.49082e-06 -1.18654e-06
2.49082e-06 9.5562e-05 7.34268e-07
-1.18654e-06 7.34268e-07 1.11138e-06
0.00198587 4.49391e-05 -1.07295e-06
4.49391e-05 0.000178424 9.93266e-08
-1.07295e-06 9.93266e-08 9.52938e-05
0.00149339 2.99497e-05 7.14466e-07
2.99497e-05 -0.000105651 3.96686e-07
7.14466e-07 3.96686e-07 -0.000167975
0.0018439 -1.73275e-05 4.34408e-08
-1.73275e-05 0.000142062 -9.09776e-08
4.34408e-08 -9.09776e-08 3.35094e-05
0.00182915 -5.50658e-05 2.63851e-06
-5.50658e-05 0.00014359 -2.48105e-08
2.63851e-06 -2.48105e-08 4.88153e-05
0.00170483 -8.01248e-05 -2.57517e-07
-8.01248e-05 7.94931e-05 -4.01454e-07
-2.57517e-07 -4.01454e-07 -1.37701e-05
0.00109723 -0.000130267 -4.64862e-07
-0.000130267 0.000194677 1.6099e-06
-4.64862e-07 1.6099e-06 7.79188e-05
0.000796174 -0.000127285 3.7886e-07
-0.000127285 1.67005e-05 3.83654e-06
3.7886e-07 3.83654e-06 -0.000134298
0.00155851 -0.000192551 -2.31678e-06
-0.000192551 0.000272007 2.8636e-06
-2.31678e-06 2.8636e-06 9.38709e-05
0.00189472 -0.000138034 4.63773e-06
-0.000138034 0.000159966 -7.84668e-07
4.63773e-06 -7.84668e-07 6.19614e-05
0.00182583 -0.00019082 -1.40378e-06
-0.00019082 0.000194098 -2.64672e-06
-1.40378e-06 -2.64672e-06 6.88707e-05
0.000460959 -8.91136e-05 -1.49764e-06
-8.91136e-05 -0.000144009 7.66185e-07
-1.49764e-06 7.66185e-07 -0.000251652
0.00117017 -0.000125722 5.55711e-06
-0.000125722 0.000238589 -3.25964e-06
5.55711e-06 -3.25964e-06 0.000132149
0.000799879 9.25201e-06 2.91837e-08
9.25201e-06 3.94019e-05 -5.24478e-07
2.91837e-08 -5.24478e-07 -4.92197e-05
0.0007599 2.12515e-05 -7.65585e-07
2.12515e-05 -6.03214e-07 1.11401e-06
-7.65585e-07 1.11401e-06 -3.63357e-05
0.000900592 2.60774e-05 -5.0983e-07
2.60774e-05 8.993e-05 1.19575e-06
-5.0983e-07 1.19575e-06 2.85729e-05
0.000859535 -1.30226e-05 -5.8636e-07
-1.30226e-05 7.72857e-05 9.33601e-07
-5.8636e-07 9.33601e-07 -2.2564e-06
0.00184994 -3.24301e-05 -1.78094e-07
-3.24301e-05 0.000130303 1.12537e-07
-1.78094e-07 1.12537e-07 3.59081e-05
0.000779621 1.52199e-05 9.96444e-08
1.52199e-05 7.28269e-06 1.50408e-08
9.96444e-08 1.50408e-08 -2.62987e-05
0.00072008 -1.06608e-05 -3.53113e-07
-1.06608e-05 -9.11941e-06 8.68472e-08
-3.53113e-07 8.68472e-08 -6.25072e-05
0.00178225 -7.18518e-05 -8.01408e-08
-7.18518e-05 9.01402e-05 -1.3292e-07
-8.01408e-08 -1.3292e-07 7.86664e-06
0.00159649 -9.58201e-05 -7.97508e-07
-9.58201e-05 -3.29501e-05 6.11823e-07
-7.97508e-07 6.11823e-07 -0.000118183
0.000655636 -0.000106403 -1.1007e-07
-0.000106403 -2.24668e-05 2.25599e-06
-1.1007e-07 2.25599e-06 -0.000147803
0.00145958 -0.000176512 -1.31464e-06
-0.000176512 0.000336848 5.99914e-07
-1.31464e-06 5.99914e-07 0.000148327
0.00138827 -0.00019232 1.2732e-06
-0.00019232 8.40898e-05 4.37098e-07
1.2732e-06 4.37098e-07 -8.05611e-05
0.00195781 -0.000191735 1.74037e-06
-0.000191735 0.000176108 -4.25212e-07
1.74037e-06 -4.25212e-07 7.64746e-05
0.000865433 -2.02595e-05 1.15655e-06
-2.02595e-05 7.25717e-05 -5.75294e-07
1.15655e-06 -5.75294e-07 1.28432e-05
0.000854047 -2.00033e-05 -3.85514e-07
-2.00033e-05 7.86611e-05 5.14079e-07
-3.85514e-07 5.14079e-07 -4.71153e-07
0.000908452 -0.000108497 4.11697e-07
-0.000108497 6.20995e-05 6.16253e-08
4.11697e-07 6.16253e-08 -4.00313e-05
0.00124106 -0.000135991 3.97132e-06
-0.000135991 0.000296291 -1.6209e-06
3.97132e-06 -1.6209e-06 0.000195288
0.000701061 -7.55203e-05 -5.73973e-07
-7.55203e-05 9.81732e-06 3.11674e-07
-5.73973e-07 3.11674e-07 -9.78651e-05
0.000885672 2.18155e-06 2.11944e-07
2.18155e-06 9.21174e-05 -3.6413e-07
2.11944e-07 -3.6413e-07 6.57585e-06
0.00190227 -3.83114e-05 -2.76046e-06
-3.83114e-05 0.000131076 -1.05146e-07
-2.76046e-06 -1.05146e-07 5.57248e-05
0.0018895 -6.48568e-05 2.71286e-06
-6.48568e-05 0.000118869 2.89595e-07
2.71286e-06 2.89595e-07 4.56955e-05
0.00178642 -0.000166863 -6.94673e-06
-0.000166863 1.05042e-05 -1.1318e-06
-6.94673e-06 -1.1318e-06 -6.94969e-05
0.00121504 -0.000196311 -3.30761e-07
-0.000196311 -0.000152192 1.08808e-06
-3.30761e-07 1.08808e-06 -0.000266048
0.000962276 -9.81306e-05 -3.48652e-06
-9.81306e-05 0.000120803 -1.57734e-06
-3.48652e-06 -1.57734e-06 -6.74581e-06
0.00207222 -0.000232829 -2.90771e-06
-0.000232829 0.000598041 6.85037e-07
-2.90771e-06 6.85037e-07 0.00038566
0.000610278 4.26554e-05 -1.06478e-06
4.26554e-05 -6.48887e-05 -1.58552e-06
-1.06478e-06 -1.58552e-06 -0.000119117
0.000801827 -2.81748e-05 7.16535e-07
-2.81748e-05 3.39004e-05 -1.07246e-06
7.16535e-07 -1.07246e-06 -2.09563e-05
0.000985631 -3.64173e-05 9.28287e-07
-3.64173e-05 0.00015215 -3.69461e-07
9.28287e-07 -3.69461e-07 8.2416e-05
0.00066666 1.78533e-05 -4.30293e-07
1.78533e-05 -2.04808e-05 -4.25434e-07
-4.30293e-07 -4.25434e-07 -0.00010051
0.00103843 -1.66781e-05 2.8311e-07
-1.66781e-05 0.000178806 1.33593e-07
2.8311e-07 1.33593e-07 9.58365e-05
0.000506877 -2.08049e-05 5.36855e-07
-2.08049e-05 -9.64726e-05 5.0816e-07
5.36855e-07 5.0816e-07 -0.000195927
0.00107537 -7.98682e-05 5.71503e-06
-7.98682e-05 0.000240838 4.5215e-07
5.71503e-06 4.5215e-07 0.000115707
0.00075536 -0.000115031 -1.18356e-05
-0.000115031 8.25033e-06 3.652e-06
-1.18356e-05 3.652e-06 -8.22145e-05
0.000700437 5.86681e-06 -2.52256e-07
5.86681e-06 -1.19151e-05 2.34945e-08
-2.52256e-07 2.34945e-08 -8.1465e-05
0.000826018 5.02017e-05 -1.73698e-06
5.02017e-05 6.9866e-05 -1.99159e-06
-1.73698e-06 -1.99159e-06 -2.29409e-05
0.00198528 0.000108529 -2.05984e-07
0.000108529 0.000178472 -3.83522e-07
-2.05984e-07 -3.83522e-07 0.000101339
0.00162922 0.000153905 2.35134e-06
0.000153905 3.1146e-05 1.24014e-06
2.35134e-06 1.24014e-06 -6.6698e-05
0.00118561 7.17467e-05 -2.47049e-06
7.17467e-05 0.000262673 -3.65192e-07
-2.47049e-06 -3.65192e-07 0.000145384
0.000927217 0.0001209 -6.59685e-07
0.0001209 0.000139042 -2.6439e-06
-6.59685e-07 -2.6439e-06 -1.13717e-05
0.00218425 0.000228285 1.33904e-06
0.000228285 0.000457699 7.24244e-07
1.33904e-06 7.24244e-07 0.000311551
0.00125943 0.000172855 -9.28538e-07
0.000172855 0.000203159 -8.82934e-07
-9.28538e-07 -8.82934e-07 1.29189e-05
0.000847426 5.67136e-06 4.78608e-07
5.67136e-06 7.34538e-05 -5.92648e-07
4.78608e-07 -5.92648e-07 -2.85419e-06
0.00176696 7.60628e-05 -2.40707e-07
7.60628e-05 3.96528e-05 1.61387e-07
-2.40707e-07 1.61387e-07 -2.95637e-05
0.000927644 8.10092e-05 1.03037e-07
8.10092e-05 0.000140225 1.16813e-06
1.03037e-07 1.16813e-06 2.90208e-05
0.000813249 0.000117185 3.85435e-07
0.000117185 5.86006e-05 -2.33587e-07
3.85435e-07 -2.33587e-07 -9.98717e-05
0.00198365 0.000137304 2.27675e-06
0.000137304 0.0001135 -1.07157e-07
2.27675e-06 -1.07157e-07 4.14378e-05
0.00177829 0.000217753 7.80602e-08
0.000217753 9.60216e-05 -1.22747e-06
7.80602e-08 -1.22747e-06 -2.40675e-05
0.00193972 0.00022243 9.07607e-07
0.00022243 0.000498679 1.28849e-06
9.07607e-07 1.28849e-06 0.000300412
0.00102553 2.47825e-05 -1.24389e-06
2.47825e-05 0.000182269 9.34127e-07
-1.24389e-06 9.34127e-07 8.86004e-05
0.00196658 8.90291e-05 -1.02328e-05
8.90291e-05 0.000115024 -7.64487e-07
-1.02328e-05 -7.64487e-07 6.90311e-05
0.00186416 0.000155617 -2.66004e-06
0.000155617 0.000624453 3.80048e-07
-2.66004e-06 3.80048e-07 0.000494778
0.00201337 0.000204124 -3.44799e-06
0.000204124 0.000655493 1.13927e-06
-3.44799e-06 1.13927e-06 0.000474966
0.00244486 0.000243772 -3.9092e-07
0.000243772 0.00033442 -1.27198e-06
-3.9092e-07 -1.27198e-06 0.000253143
0.00149644 0.000215725 -3.452e-06
0.000215725 0.000140351 3.81969e-07
-3.452e-06 3.81969e-07 -3.11467e-05
0.000316521 9.74005e-05 1.24279e-05
9.74005e-05 -0.000440779 1.11304e-06
1.24279e-05 1.11304e-06 -0.000586255
0.000856448 -7.33262e-06 2.14159e-08
-7.33262e-06 7.41011e-05 -2.48893e-07
2.14159e-08 -2.48893e-07 5.28044e-06
0.000884342 -2.04103e-05 -9.26547e-08
-2.04103e-05 9.63734e-05 1.8186e-07
-9.26547e-08 1.8186e-07 2.04803e-05
0.000914157 -1.24497e-05 7.07575e-08
-1.24497e-05 0.000106428 -8.74503e-07
7.07575e-08 -8.74503e-07 2.63636e-05
0.000806715 -4.2182e-05 -2.66394e-07
-4.2182e-05 2.96274e-05 -6.38884e-07
-2.66394e-07 -6.38884e-07 -2.17353e-05
0.000772621 -5.18593e-05 -9.60402e-07
-5.18593e-05 2.32157e-05 3.25887e-07
-9.60402e-07 3.25887e-07 -3.83495e-05
0.000899403 5.43047e-05 -8.32503e-07
5.43047e-05 0.000104442 5.41312e-07
-8.32503e-07 5.41312e-07 3.28894e-05
0.000807175 -4.17914e-05 7.64678e-08
-4.17914e-05 5.00816e-05 -4.68407e-08
7.64678e-08 -4.68407e-08 -2.37118e-05
0.000805402 -2.42566e-05 -1.01744e-07
-2.42566e-05 2.97545e-05 4.10066e-08
-1.01744e-07 4.10066e-08 -2.26704e-05
0.000775717 4.03403e-06 4.1291e-08
4.03403e-06 1.69093e-05 -6.57337e-08
4.1291e-08 -6.57337e-08 -4.32401e-05
0.000822397 -2.79702e-05 4.01701e-07
-2.79702e-05 5.51627e-05 -4.90582e-07
4.01701e-07 -4.90582e-07 -2.05742e-05
0.000893896 -2.2921e-05 -7.65791e-08
-2.2921e-05 8.99982e-05 3.95683e-08
-7.65791e-08 3.95683e-08 2.42841e-05
0.000891993 -4.24324e-05 3.39238e-07
-4.24324e-05 9.1017e-05 -3.71248e-08
3.39238e-07 -3.71248e-08 1.88006e-05
0.000854114 -3.39864e-05 -1.0365e-07
-3.39864e-05 6.58041e-05 -6.89879e-07
-1.0365e-07 -6.89879e-07 -8.49287e-06
0.000839902 -1.32516e-05 5.78946e-07
-1.32516e-05 5.41278e-05 -8.74777e-07
5.78946e-07 -8.74777e-07 -1.21306e-05
0.000887003 1.4901e-06 7.47148e-07
1.4901e-06 7.88555e-05 -3.52391e-07
7.47148e-07 -3.52391e-07 1.50165e-05
0.000833443 2.2251e-05 1.8051e-07
2.2251e-05 5.09984e-05 6.11707e-08
1.8051e-07 6.11707e-08 -1.6126e-05
0.000713155 -6.46129e-06 1.03117e-07
-6.46129e-06 -2.64289e-05 9.40785e-07
1.03117e-07 9.40785e-07 -7.73668e-05
0.000931253 -4.63111e-06 3.06409e-07
-4.63111e-06 0.000117348 -4.81946e-07
3.06409e-07 -4.81946e-07 4.77769e-05
0.000690343 8.12425e-06 -5.02234e-07
8.12425e-06 -3.46207e-05 9.30476e-07
-5.02234e-07 9.30476e-07 -8.72753e-05
0.000769448 1.25776e-05 1.68443e-07
1.25776e-05 -1.44334e-06 1.40738e-06
1.68443e-07 1.40738e-06 -3.39861e-05
0.000769537 2.88727e-06 -1.65256e-07
2.88727e-06 -2.30069e-06 2.08774e-09
-1.65256e-07 2.08774e-09 -3.43922e-05
0.000717585 7.935e-07 2.39231e-07
7.935e-07 -4.22786e-05 3.19687e-06
2.39231e-07 3.19687e-06 -4.57362e-05
0.000782018 -7.59405e-06 -3.64247e-08
-7.59405e-06 3.21507e-06 -1.4708e-06
-3.64247e-08 -1.4708e-06 -2.80345e-05
0.0010178 -5.38979e-06 -1.38707e-06
-5.38979e-06 0.000123656 -1.34731e-06
-1.38707e-06 -1.34731e-06 0.000122186
0.00212238 -8.48304e-06 6.01018e-06
-8.48304e-06 0.000736421 4.223e-06
6.01018e-06 4.223e-06 0.000757878
0.00133273 -1.2124e-05 -2.92946e-06
-1.2124e-05 0.000299092 -4.49147e-06
-2.92946e-06 -4.49147e-06 0.000299283
0.000935408 -1.23035e-05 1.94317e-06
-1.23035e-05 8.21623e-05 2.58832e-06
1.94317e-06 2.58832e-06 9.74268e-05
0.000880039 -1.77215e-05 -1.07101e-06
-1.77215e-05 5.43301e-05 -1.626e-06
-1.07101e-06 -1.626e-06 6.96849e-05
0.00077923 8.08139e-06 2.76966e-07
8.08139e-06 5.01984e-06 -1.67575e-06
2.76966e-07 -1.67575e-06 -2.5683e-05
0.000781229 1.03513e-05 -3.54129e-08
1.03513e-05 6.14879e-06 2.47226e-09
-3.54129e-08 2.47226e-09 -2.56261e-05
0.000722615 1.68261e-05 4.72541e-07
1.68261e-05 -3.51641e-05 -3.39937e-06
4.72541e-07 -3.39937e-06 -3.90005e-05
0.00101887 2.5709e-05 -4.66382e-07
2.5709e-05 0.000132702 3.17318e-08
-4.66382e-07 3.17318e-08 0.000128653
0.00212417 3.31284e-05 1.58524e-05
3.31284e-05 0.000746501 -4.07085e-06
1.58524e-05 -4.07085e-06 0.000765851
0.000723365 2.8991e-05 -1.07771e-06
2.8991e-05 -2.50389e-05 3.52851e-06
-1.07771e-06 3.52851e-06 -3.31196e-05
0.00218717 4.24229e-05 -1.89296e-06
4.24229e-05 0.000787651 -9.07039e-08
-1.89296e-06 -9.07039e-08 0.000804973
0.00227142 5.09274e-05 -2.59457e-05
5.09274e-05 0.000841489 3.82259e-06
-2.59457e-05 3.82259e-06 0.000856527
0.00172273 8.35375e-05 -1.94042e-07
8.35375e-05 4.64224e-05 -4.32892e-07
-1.94042e-07 -4.32892e-07 -4.4063e-05
0.00183886 3.24114e-05 1.09987e-06
3.24114e-05 0.000108691 -5.71939e-07
1.09987e-06 -5.71939e-07 1.47595e-05
0.00180695 8.51879e-07 2.24104e-07
8.51879e-07 0.000118576 -2.12214e-07
2.24104e-07 -2.12214e-07 1.27483e-05
0.00177068 4.51155e-06 3.73257e-07
4.51155e-06 8.11399e-05 1.56999e-07
3.73257e-07 1.56999e-07 -1.3576e-05
0.00185077 4.35161e-05 -8.96848e-07
4.35161e-05 0.000111539 1.39146e-07
-8.96848e-07 1.39146e-07 2.80425e-05
0.00170605 2.82261e-05 2.27841e-06
2.82261e-05 1.38455e-05 1.6094e-07
2.27841e-06 1.6094e-07 -5.15236e-05
0.00160885 5.68321e-06 -1.41043e-06
5.68321e-06 -2.28392e-05 -5.15612e-07
-1.41043e-06 -5.15612e-07 -9.4401e-05
0.00339569 1.07165e-05 1.15346e-05
1.07165e-05 0.000716551 3.30936e-06
1.15346e-05 3.30936e-06 0.000663261
0.00162104 3.15155e-05 -5.7191e-06
3.15155e-05 -5.58494e-05 3.2037e-07
-5.7191e-06 3.2037e-07 -9.32933e-05
0.00080445 3.02939e-05 -2.68107e-08
3.02939e-05 3.88494e-05 -8.89302e-07
-2.68107e-08 -8.89302e-07 -1.13292e-05
0.00188312 -3.25676e-05 1.59174e-06
-3.25676e-05 0.000151231 5.18445e-08
1.59174e-06 5.18445e-08 5.85197e-05
0.0018268 -7.22766e-05 8.73546e-07
-7.22766e-05 0.000116843 -2.62458e-07
8.73546e-07 -2.62458e-07 3.39638e-05
0.00163178 -9.5534e-05 2.51511e-06
-9.5534e-05 -1.69058e-05 -9.96402e-09
2.51511e-06 -9.96402e-09 -0.000103427
0.000825745 -0.000115199 1.86476e-06
-0.000115199 7.47413e-05 2.88396e-06
1.86476e-06 2.88396e-06 -4.86901e-05
0.00112654 -0.000155048 1.32796e-06
-0.000155048 0.000162834 4.39348e-06
1.32796e-06 4.39348e-06 -3.28818e-05
0.00121525 -0.000180553 9.83252e-07
-0.000180553 -7.99095e-06 -2.65668e-06
9.83252e-07 -2.65668e-06 -0.000168437
0.00183809 -0.000194626 1.55635e-06
-0.000194626 0.000115872 -1.94884e-06
1.55635e-06 -1.94884e-06 1.52203e-05
0.00107643 -0.000117584 7.15569e-06
-0.000117584 0.000149005 -3.41717e-06
7.15569e-06 -3.41717e-06 4.23165e-05
0.000554744 -9.76976e-05 8.28079e-07
-9.76976e-05 -7.38139e-05 -8.71928e-06
8.28079e-07 -8.71928e-06 -0.000161636
0.000660475 -7.09229e-05 -2.38451e-07
-7.09229e-05 -1.32139e-05 -5.28565e-07
-2.38451e-07 -5.28565e-07 -0.000121118
0.000774391 1.41073e-05 -8.20897e-07
1.41073e-05 4.32758e-06 1.79992e-06
-8.20897e-07 1.79992e-06 -2.92139e-05
0.000894487 -7.68296e-06 -3.68246e-08
-7.68296e-06 9.90728e-05 -5.73973e-07
-3.68246e-08 -5.73973e-07 1.17168e-05
0.00104296 -4.72991e-05 -4.03379e-07
-4.72991e-05 0.000172431 4.23971e-07
-4.03379e-07 4.23971e-07 0.000112196
0.000844898 -1.28106e-05 -7.99747e-07
-1.28106e-05 7.3395e-05 9.6532e-07
-7.99747e-07 9.6532e-07 -5.66665e-06
0.000652095 -6.82363e-06 -2.31774e-07
-6.82363e-06 -4.93969e-05 1.01902e-06
-2.31774e-07 1.01902e-06 -0.000101147
0.00187357 -4.02232e-05 -2.97233e-07
-4.02232e-05 0.000114227 -7.51566e-08
-2.97233e-07 -7.51566e-08 4.04575e-05
0.00070496 1.77303e-05 1.84882e-07
1.77303e-05 -1.22064e-05 -6.00955e-07
1.84882e-07 -6.00955e-07 -6.63454e-05
0.000806083 -4.03774e-05 -4.04469e-07
-4.03774e-05 4.05377e-05 4.70609e-08
-4.04469e-07 4.70609e-08 -1.74145e-05
0.000846276 -1.40952e-05 -6.09042e-07
-1.40952e-05 7.75269e-05 5.45252e-07
-6.09042e-07 5.45252e-07 5.52039e-06
0.00175636 -6.82996e-05 5.29532e-07
-6.82996e-05 3.98742e-05 -4.1839e-07
5.29532e-07 -4.1839e-07 -3.29009e-05
0.00179687 -0.000167239 -3.32842e-08
-0.000167239 3.21603e-05 -1.09592e-07
-3.32842e-08 -1.09592e-07 -4.90169e-05
0.000887492 -0.000104123 6.56881e-07
-0.000104123 6.80943e-05 4.94322e-08
6.56881e-07 4.94322e-08 -5.30425e-05
0.00115933 -0.000177066 8.19399e-07
-0.000177066 0.000139033 -4.13562e-07
8.19399e-07 -4.13562e-07 -7.64083e-05
0.00163976 -0.000219987 -8.39287e-07
-0.000219987 7.2926e-05 2.81961e-07
-8.39287e-07 2.81961e-07 -4.53729e-05
0.000768273 1.02635e-06 -1.73705e-07
1.02635e-06 3.56428e-05 -1.31428e-08
-1.73705e-07 -1.31428e-08 -4.38965e-05
0.000951944 -3.34913e-05 -3.32356e-08
-3.34913e-05 0.000135568 8.16227e-08
-3.32356e-08 8.16227e-08 4.94922e-05
0.000655189 -0.000111198 -5.52555e-06
-0.000111198 -3.67875e-05 1.20739e-06
-5.52555e-06 1.20739e-06 -0.000135237
0.000997991 -6.74922e-05 8.91582e-07
-6.74922e-05 0.000193791 -4.44715e-07
8.91582e-07 -4.44715e-07 7.40891e-05
0.000751462 -4.37431e-05 -4.4224e-07
-4.37431e-05 3.56478e-05 8.20658e-07
-4.4224e-07 8.20658e-07 -6.43858e-05
0.00190884 -8.62442e-05 -2.63063e-06
-8.62442e-05 7.96812e-05 9.46154e-08
-2.63063e-06 9.46154e-08 1.99159e-05
0.00227642 -0.000105523 -1.41484e-06
-0.000105523 0.000274098 4.32049e-07
-1.41484e-06 4.32049e-07 0.000215427
0.00195736 -0.000241934 -2.51891e-06
-0.000241934 0.000124569 -4.39339e-07
-2.51891e-06 -4.39339e-07 2.49865e-05
0.00190225 -0.000238058 -6.46941e-06
-0.000238058 0.000399432 6.74089e-07
-6.46941e-06 6.74089e-07 0.000233458
0.000963101 -0.0001084 -3.2742e-06
-0.0001084 0.000147515 -2.04823e-06
-3.2742e-06 -2.04823e-06 -1.13092e-05
0.000638393 1.51137e-05 4.23233e-07
1.51137e-05 -3.76051e-05 -1.14917e-06
4.23233e-07 -1.14917e-06 -0.000108782
0.000688637 5.35772e-05 -2.00149e-07
5.35772e-05 -8.91338e-06 -7.90128e-07
-2.00149e-07 -7.90128e-07 -8.40668e-05
0.000983815 1.71256e-05 9.41594e-07
1.71256e-05 0.00015196 3.16381e-07
9.41594e-07 3.16381e-07 7.30421e-05
0.000804676 -6.06268e-05 1.54154e-06
-6.06268e-05 6.01438e-05 6.79801e-08
1.54154e-06 6.79801e-08 -2.7529e-05
0.000899685 -1.11159e-06 5.99798e-07
-1.11159e-06 0.000103524 8.69699e-07
5.99798e-07 8.69699e-07 1.5598e-05
0.000767912 -9.70203e-06 1.46573e-06
-9.70203e-06 5.73763e-05 -8.1926e-07
1.46573e-06 -8.1926e-07 -5.28241e-05
0.000708675 -8.59773e-05 8.33048e-06
-8.59773e-05 6.34782e-05 8.05281e-07
8.33048e-06 8.05281e-07 -9.2873e-05
0.000838107 3.88472e-05 2.16645e-07
3.88472e-05 7.28441e-05 -1.55367e-06
2.16645e-07 -1.55367e-06 -6.73448e-06
0.000650989 4.66519e-05 1.67069e-07
4.66519e-05 -1.24521e-05 -7.45534e-08
1.67069e-07 -7.45534e-08 -0.000118458
0.00184469 7.3263e-05 1.00473e-07
7.3263e-05 7.76114e-05 -6.47144e-07
1.00473e-07 -6.47144e-07 8.59155e-06
0.00177033 0.000130958 2.99856e-06
0.000130958 2.42566e-06 -5.36094e-07
2.99856e-06 -5.36094e-07 -6.96712e-05
0.00189837 0.000219893 1.53005e-06
0.000219893 0.000155555 -4.13373e-07
1.53005e-06 -4.13373e-07 3.79336e-05
0.000587324 0.000103503 1.36704e-06
0.000103503 -6.19044e-05 -4.329e-07
1.36704e-06 -4.329e-07 -0.000222439
0.00188072 0.00022244 1.75256e-06
0.00022244 0.000474162 1.6602e-06
1.75256e-06 1.6602e-06 0.00027687
0.00101364 1.59203e-05 -2.46364e-07
1.59203e-05 0.000173824 1.61897e-07
-2.46364e-07 1.61897e-07 8.43535e-05
0.00189109 8.72137e-05 -1.33207e-06
8.72137e-05 6.86538e-05 -3.08139e-07
-1.33207e-06 -3.08139e-07 2.84456e-05
0.0012773 0.000124446 -9.67976e-07
0.000124446 0.000316061 1.99488e-07
-9.67976e-07 1.99488e-07 0.000190449
0.00141447 0.000165721 -6.18704e-07
0.000165721 0.000356197 8.82251e-07
-6.18704e-07 8.82251e-07 0.00017441
0.0021226 0.000224475 1.40582e-06
0.000224475 0.00016143 -6.8764e-07
1.40582e-06 -6.8764e-07 8.23952e-05
0.00143905 0.00021415 -1.6004e-06
0.00021415 0.000113204 1.10855e-06
-1.6004e-06 1.10855e-06 -6.21154e-05
0.00145198 0.000110165 1.15993e-05
0.000110165 -7.31006e-05 1.64147e-06
1.15993e-05 1.64147e-06 -0.000244575
0.0010834 4.57742e-05 -1.62839e-06
4.57742e-05 0.000209753 -1.16016e-06
-1.62839e-06 -1.16016e-06 0.000107997
0.00272513 0.000154786 -1.39162e-05
0.000154786 0.00050903 -9.56787e-06
-1.39162e-05 -9.56787e-06 0.000505897
0.00135208 0.000154915 -4.84295e-06
0.000154915 0.000365674 -1.01737e-06
-4.84295e-06 -1.01737e-06 0.000226472
0.00132961 0.000175838 -5.57358e-06
0.000175838 0.000262967 -4.71424e-07
-5.57358e-06 -4.71424e-07 6.0049e-05
0.00033391 0.00021877 -7.07706e-06
0.00021877 -0.000610115 -1.69791e-06
-7.07706e-06 -1.69791e-06 -0.000742792
0.00731329 1.91199e-05 -6.77943e-05
1.91199e-05 0.00233635 -2.65623e-05
-6.77943e-05 -2.65623e-05 0.00148779
0.00393265 0.000169721 8.90338e-05
0.000169721 0.000598798 4.77295e-06
8.90338e-05 4.77295e-06 -3.99288e-05
-4.69014e-05 0.000190853 8.20332e-06
0.000190853 -0.000686874 1.81979e-05
8.20332e-06 1.81979e-05 -0.000771261
-0.00143881 -0.000333757 2.87219e-05
-0.000333757 -0.000633229 -1.11531e-05
2.87219e-05 -1.11531e-05 -0.000708588
0.00308471 -0.000621012 -2.28089e-05
-0.000621012 0.000395429 -1.06307e-05
-2.28089e-05 -1.06307e-05 0.001521
0.000889103 -1.67438e-05 2.71119e-07
-1.67438e-05 9.84599e-05 -2.56357e-07
2.71119e-07 -2.56357e-07 2.27942e-05
0.00092038 -1.91365e-05 6.36584e-07
-1.91365e-05 0.000112673 -2.78378e-07
6.36584e-07 -2.78378e-07 3.30579e-05
0.000957688 2.32647e-05 -1.09219e-07
2.32647e-05 0.000135209 -1.81178e-06
-1.09219e-07 -1.81178e-06 5.58215e-05
0.00079099 -4.69468e-05 1.15528e-07
-4.69468e-05 2.54512e-05 -6.9277e-07
1.15528e-07 -6.9277e-07 -2.92849e-05
0.000729226 4.00982e-05 -9.08953e-07
4.00982e-05 -6.41856e-06 1.1159e-08
-9.08953e-07 1.1159e-08 -6.79228e-05
0.000888619 -4.63639e-05 -5.87141e-08
-4.63639e-05 8.75181e-05 1.26955e-07
-5.87141e-08 1.26955e-07 2.13345e-05
0.000974974 -2.74576e-05 -5.07953e-07
-2.74576e-05 0.000135411 3.03144e-07
-5.07953e-07 3.03144e-07 6.44277e-05
0.000843967 -3.26676e-05 2.68574e-07
-3.26676e-05 6.58851e-05 -4.25994e-07
2.68574e-07 -4.25994e-07 -1.05043e-05
0.000830944 2.82286e-05 -5.93015e-07
2.82286e-05 5.2174e-05 -2.22889e-07
-5.93015e-07 -2.22889e-07 -1.47418e-05
0.000749898 -3.13443e-06 -2.40734e-09
-3.13443e-06 -2.55583e-06 4.97377e-07
-2.40734e-09 4.97377e-07 -5.48001e-05
0.000836968 2.22012e-05 -2.99332e-07
2.22012e-05 5.21557e-05 -7.58212e-08
-2.99332e-07 -7.58212e-08 -1.38589e-05
0.000879504 -3.32493e-05 -2.30257e-07
-3.32493e-05 7.97275e-05 4.03879e-07
-2.30257e-07 4.03879e-07 5.74412e-06
0.000863085 -1.68653e-05 -3.10112e-08
-1.68653e-05 6.67686e-05 -1.98126e-07
-3.10112e-08 -1.98126e-07 5.15257e-07
0.000778799 1.05461e-05 5.2915e-07
1.05461e-05 1.6559e-05 -7.17931e-07
5.2915e-07 -7.17931e-07 -4.84494e-05
0.000818891 -1.72791e-05 6.62877e-07
-1.72791e-05 3.96164e-05 -1.44257e-06
6.62877e-07 -1.44257e-06 -2.51398e-05
0.000894744 1.51225e-05 1.35846e-06
1.51225e-05 7.67065e-05 2.3807e-08
1.35846e-06 2.3807e-08 1.07045e-05
0.000796363 2.73995e-06 1.0237e-06
2.73995e-06 2.28398e-05 -9.94948e-08
1.0237e-06 -9.94948e-08 -4.28966e-05
0.000693097 -3.46783e-05 -1.2362e-06
-3.46783e-05 -3.2587e-05 9.85478e-07
-1.2362e-06 9.85478e-07 -8.61893e-05
0.000885141 1.12527e-05 -3.76273e-07
1.12527e-05 8.04081e-05 -3.87377e-08
-3.76273e-07 -3.87377e-08 1.29933e-05
0.000949565 6.12281e-05 -3.09871e-08
6.12281e-05 0.000116745 -9.23963e-07
-3.09871e-08 -9.23963e-07 4.69142e-05
0.000783338 9.52797e-06 -6.3424e-07
9.52797e-06 3.46397e-05 -1.11636e-07
-6.3424e-07 -1.11636e-07 -3.08526e-05
0.000889776 1.24728e-05 5.52966e-07
1.24728e-05 8.80949e-05 -3.54195e-07
5.52966e-07 -3.54195e-07 2.16808e-05
0.000803479 -2.51125e-05 -1.40093e-06
-2.51125e-05 2.83541e-05 4.64063e-07
-1.40093e-06 4.64063e-07 -2.29297e-05
0.000699814 7.60699e-06 1.29768e-07
7.60699e-06 -2.61118e-05 4.44157e-07
1.29768e-07 4.44157e-07 -8.10121e-05
0.000777597 1.45023e-05 -2.00349e-07
1.45023e-05 3.12064e-06 1.43582e-06
-2.00349e-07 1.43582e-06 -2.93624e-05
0.000767718 5.57155e-06 -1.27651e-07
5.57155e-06 -2.57336e-06 2.0532e-09
-1.27651e-07 2.0532e-09 -3.50122e-05
0.000736267 6.11831e-06 -3.36025e-07
6.11831e-06 -3.07402e-05 4.55158e-06
-3.36025e-07 4.55158e-06 -3.47502e-05
0.000768906 -4.08237e-06 2.81402e-07
-4.08237e-06 -2.67391e-06 -1.42346e-06
2.81402e-07 -1.42346e-06 -3.46929e-05
0.000721789 9.7099e-07 2.17432e-07
9.7099e-07 -3.9948e-05 -7.95595e-09
2.17432e-07 -7.95595e-09 -4.34394e-05
0.00213837 -9.47672e-07 2.98317e-07
-9.47672e-07 0.000744815 4.28571e-06
2.98317e-07 4.28571e-06 0.000766143
0.000744422 -4.26301e-06 -5.5519e-07
-4.26301e-06 -2.70363e-05 -4.53611e-06
-5.5519e-07 -4.53611e-06 -3.02759e-05
0.00153088 -6.92332e-06 -3.55308e-07
-6.92332e-06 0.000409491 2.40272e-08
-3.55308e-07 2.40272e-08 0.000427818
0.000890633 -1.15248e-05 -5.66159e-07
-1.15248e-05 5.67896e-05 -1.61313e-06
-5.66159e-07 -1.61313e-06 7.23763e-05
0.000782797 4.40187e-06 -9.13376e-08
4.40187e-06 6.69437e-06 -1.71783e-06
-9.13376e-08 -1.71783e-06 -2.31995e-05
0.000777774 6.90706e-06 4.80009e-08
6.90706e-06 3.87899e-06 -1.30338e-09
4.80009e-08 -1.30338e-09 -2.67702e-05
0.000725914 1.11515e-05 2.3445e-07
1.11515e-05 -3.60413e-05 -3.39385e-06
2.3445e-07 -3.39385e-06 -3.87941e-05
0.000781981 9.27299e-06 -7.42447e-07
9.27299e-06 6.28094e-06 1.81199e-06
-7.42447e-07 1.81199e-06 -2.54947e-05
0.00101137 1.89733e-05 -2.42116e-07
1.89733e-05 0.000123977 -6.82434e-07
-2.42116e-07 -6.82434e-07 0.000121743
0.00210823 2.46595e-05 1.19536e-05
2.46595e-05 0.000733371 -4.21359e-06
1.19536e-05 -4.21359e-06 0.000753896
0.000724809 2.34747e-05 -7.44221e-07
2.34747e-05 -2.94014e-05 3.44246e-06
-7.44221e-07 3.44246e-06 -3.51482e-05
0.00216298 3.30237e-05 -6.73504e-06
3.30237e-05 0.000769214 1.13593e-06
-6.73504e-06 1.13593e-06 0.000788246
0.00220463 4.28333e-05 -2.11902e-05
4.28333e-05 0.000798092 3.95839e-06
-2.11902e-05 3.95839e-06 0.000815156
0.00171804 4.233e-05 8.79485e-07
4.233e-05 4.5786e-05 -2.16828e-08
8.79485e-07 -2.16828e-08 -3.8067e-05
0.00175836 5.81641e-06 1.17755e-06
5.81641e-06 7.16185e-05 -2.33183e-07
1.17755e-06 -2.33183e-07 -2.33397e-05
0.00189019 2.71692e-05 3.28611e-06
2.71692e-05 0.000118818 6.4875e-08
3.28611e-06 6.4875e-08 5.07425e-05
0.0019848 2.05264e-05 1.194e-05
2.05264e-05 2.14369e-05 2.138e-06
1.194e-05 2.138e-06 -4.66482e-05
0.00183271 4.77456e-06 -5.31593e-07
4.77456e-06 9.55175e-05 -1.5517e-07
-5.31593e-07 -1.5517e-07 2.37443e-05
0.00179119 3.07617e-05 1.50198e-06
3.07617e-05 4.69245e-05 2.88656e-07
1.50198e-06 2.88656e-07 5.78186e-06
0.00237422 1.04789e-05 -5.85979e-06
1.04789e-05 0.000350558 7.12436e-07
-5.85979e-06 7.12436e-07 0.000290172
0.00322006 -3.05664e-05 0.000137511
-3.05664e-05 0.000493797 4.51788e-06
0.000137511 4.51788e-06 0.0001539
0.0015842 -3.2128e-05 -7.25133e-06
-3.2128e-05 -0.000155188 -2.85496e-06
-7.25133e-06 -2.85496e-06 -0.000219579
0.0008084 3.6624e-05 -8.49406e-07
3.6624e-05 4.24327e-05 -9.15074e-07
-8.49406e-07 -9.15074e-07 -8.5597e-06
0.00080266 -1.36741e-05 6.97817e-07
-1.36741e-05 4.09991e-05 -6.40319e-08
6.97817e-07 -6.40319e-08 -1.15492e-05
0.000802929 -4.94122e-05 1.42259e-07
-4.94122e-05 4.58575e-05 -2.67306e-07
1.42259e-07 -2.67306e-07 -1.80863e-05
0.00080729 -1.98799e-05 -1.32039e-06
-1.98799e-05 5.79602e-05 -1.43502e-08
-1.32039e-06 -1.43502e-08 -1.13865e-05
0.00186779 -4.31696e-05 1.60701e-06
-4.31696e-05 0.000108984 -2.27501e-07
1.60701e-06 -2.27501e-07 3.66977e-05
0.00163036 -7.33944e-05 -1.77906e-06
-7.33944e-05 -3.55701e-05 1.4941e-07
-1.77906e-06 1.4941e-07 -0.00010824
0.00186484 -0.000167766 -1.22285e-07
-0.000167766 8.04157e-05 6.85133e-07
-1.22285e-07 6.85133e-07 -2.5825e-06
0.000867992 -0.000122777 3.54433e-06
-0.000122777 4.84614e-05 2.42953e-06
3.54433e-06 2.42953e-06 -6.81456e-05
0.000227622 -0.00012015 3.84233e-06
-0.00012015 -0.000335142 -1.00941e-06
3.84233e-06 -1.00941e-06 -0.000549861
0.00216951 -0.00024912 8.27174e-07
-0.00024912 0.000354174 -2.38388e-06
8.27174e-07 -2.38388e-06 0.000231887
0.000602036 -9.81469e-05 -7.23796e-06
-9.81469e-05 -6.09905e-05 1.12003e-06
-7.23796e-06 1.12003e-06 -0.000165411
0.000981229 -5.72022e-05 -1.491e-06
-5.72022e-05 0.000179397 -9.42195e-07
-1.491e-06 -9.42195e-07 6.46623e-05
0.000985356 -6.70655e-05 -1.92912e-06
-6.70655e-05 0.000162137 1.34996e-06
-1.92912e-06 1.34996e-06 6.14155e-05
0.000813628 -1.5657e-05 -1.28489e-06
-1.5657e-05 4.28554e-05 1.14605e-06
-1.28489e-06 1.14605e-06 -1.39144e-05
0.00085409 -4.58464e-05 -5.24671e-07
-4.58464e-05 8.76317e-05 -4.33383e-08
-5.24671e-07 -4.33383e-08 -2.61806e-06
0.000875205 -2.00248e-06 -8.18259e-07
-2.00248e-06 9.23066e-05 6.25453e-07
-8.18259e-07 6.25453e-07 1.4803e-05
0.000809613 -4.06065e-06 -3.92575e-09
-4.06065e-06 4.66915e-05 4.06105e-07
-3.92575e-09 4.06105e-07 -7.93435e-06
0.000704176 1.95118e-05 -2.97364e-08
1.95118e-05 2.27808e-06 1.25977e-06
-2.97364e-08 1.25977e-06 -7.22617e-05
0.001934 -7.20217e-05 -1.33986e-07
-7.20217e-05 0.00011259 4.38271e-07
-1.33986e-07 4.38271e-07 5.18436e-05
0.000813643 9.9498e-06 5.85583e-07
9.9498e-06 5.77617e-05 -4.59477e-07
5.85583e-07 -4.59477e-07 -1.20092e-05
0.000762532 2.2581e-05 5.24333e-07
2.2581e-05 3.25838e-05 -3.29181e-08
5.24333e-07 -3.29181e-08 -4.30491e-05
0.000873931 5.42748e-05 -4.07584e-07
5.42748e-05 9.55903e-05 6.96056e-07
-4.07584e-07 6.96056e-07 1.50063e-05
0.00196304 -9.99216e-05 -2.91849e-06
-9.99216e-05 9.4808e-05 5.38044e-07
-2.91849e-06 5.38044e-07 3.20699e-05
0.0018647 -0.000228561 6.79377e-07
-0.000228561 9.02466e-05 -9.89962e-07
6.79377e-07 -9.89962e-07 -7.22116e-06
0.000986789 -0.000133328 -1.21387e-06
-0.000133328 0.000146847 2.34953e-08
-1.21387e-06 2.34953e-08 -9.6096e-06
0.00208743 -0.000248136 -5.35967e-07
-0.000248136 0.000495277 -2.20257e-07
-5.35967e-07 -2.20257e-07 0.000325696
0.000906817 -1.61762e-05 -3.12923e-07
-1.61762e-05 0.000112268 4.43966e-08
-3.12923e-07 4.43966e-08 2.64271e-05
0.00084295 -1.57962e-05 9.784e-09
-1.57962e-05 7.97378e-05 9.21039e-07
9.784e-09 9.21039e-07 -1.04599e-05
0.000809183 -8.89921e-05 3.80823e-06
-8.89921e-05 0.00010777 -1.04638e-06
3.80823e-06 -1.04638e-06 -4.05733e-05
0.00101663 -5.56604e-05 9.29248e-07
-5.56604e-05 0.000194606 -1.1747e-06
9.29248e-07 -1.1747e-06 7.66113e-05
0.00170328 -6.05051e-05 -2.7894e-06
-6.05051e-05 -6.58201e-05 2.803e-06
-2.7894e-06 2.803e-06 -0.000129894
0.00217645 -0.000201921 -4.60037e-06
-0.000201921 0.000156 -1.42889e-06
-4.60037e-06 -1.42889e-06 0.000102568
0.00216532 -0.000265482 -2.97549e-06
-0.000265482 0.000369214 -1.64985e-06
-2.97549e-06 -1.64985e-06 0.000230749
0.00126473 -0.000188036 -1.36202e-06
-0.000188036 0.000279456 -1.35145e-06
-1.36202e-06 -1.35145e-06 0.000111987
0.000776361 2.73259e-05 -4.19069e-07
2.73259e-05 4.26131e-05 -3.03966e-07
-4.19069e-07 -3.03966e-07 -4.28078e-05
0.000792507 -3.62042e-05 5.9851e-07
-3.62042e-05 5.69103e-05 -6.17907e-07
5.9851e-07 -6.17907e-07 -2.87645e-05
0.000833672 -1.89802e-05 1.99201e-07
-1.89802e-05 7.82353e-05 1.37721e-07
1.99201e-07 1.37721e-07 -1.69046e-05
0.000878333 -1.28835e-06 -9.91585e-07
-1.28835e-06 0.000145283 1.3022e-07
-9.91585e-07 1.3022e-07 -1.49052e-05
0.000582905 -9.91538e-05 3.5989e-06
-9.91538e-05 -0.00113609 -2.67678e-06
3.5989e-06 -2.67678e-06 -0.00160319
0.000982265 9.02238e-06 7.7265e-07
9.02238e-06 0.000154488 -1.03194e-06
7.7265e-07 -1.03194e-06 6.97449e-05
0.000673591 8.3405e-05 1.68445e-06
8.3405e-05 -2.90241e-06 9.92863e-07
1.68445e-06 9.92863e-07 -0.000123233
0.00177938 8.60354e-05 9.05713e-06
8.60354e-05 3.43282e-06 2.57089e-07
9.05713e-06 2.57089e-07 -3.06468e-05
0.00184945 0.00020742 1.7806e-07
0.00020742 1.45036e-05 -9.0223e-07
1.7806e-07 -9.0223e-07 -6.24423e-05
0.00132253 0.000209317 3.0057e-06
0.000209317 5.71221e-05 2.62178e-06
3.0057e-06 2.62178e-06 -0.000123684
0.000776124 0.000124496 3.2191e-06
0.000124496 3.58565e-05 1.13048e-06
3.2191e-06 1.13048e-06 -0.000147333
0.00240656 0.000128693 8.61859e-06
0.000128693 0.000217425 2.07968e-07
8.61859e-06 2.07968e-07 9.33952e-06
0.000956848 4.0103e-05 8.06711e-07
4.0103e-05 0.000147316 -7.49787e-07
8.06711e-07 -7.49787e-07 4.75319e-05
0.00215552 0.000143296 -5.93067e-06
0.000143296 0.000211516 -2.37549e-06
-5.93067e-06 -2.37549e-06 0.00022056
0.00105135 0.000134938 5.40665e-08
0.000134938 0.000209371 -1.51873e-07
5.40665e-08 -1.51873e-07 7.40022e-05
0.00114955 0.000170131 -1.62166e-07
0.000170131 0.00017884 5.84499e-07
-1.62166e-07 5.84499e-07 -2.63302e-05
0.00117986 0.000259081 -2.64513e-06
0.000259081 -0.000200027 -3.34671e-07
-2.64513e-06 -3.34671e-07 -0.000327003
0.00266786 -0.00016025 -4.76975e-05
-0.00016025 7.35573e-05 -1.57057e-05
-4.76975e-05 -1.57057e-05 -0.000705503
0.00356609 9.60292e-05 2.38782e-06
9.60292e-05 0.000291728 -1.43854e-05
2.38782e-06 -1.43854e-05 -0.000452384
0.000319154 0.00016701 6.46953e-06
0.00016701 -0.000495198 5.21089e-06
6.46953e-06 5.21089e-06 -0.000588309
-0.00191761 -0.000206755 4.32868e-05
-0.000206755 -0.000519869 1.08183e-05
4.32868e-05 1.08183e-05 -0.00092459
-5.41116e-05 -0.000641573 4.21606e-06
-0.000641573 -0.00116378 -8.46201e-06
4.21606e-06 -8.46201e-06 0.000143634
0.00121428 9.07355e-05 -1.93476e-06
9.07355e-05 0.000307663 -2.31513e-06
-1.93476e-06 -2.31513e-06 0.000207181
0.000774637 0.000132655 -6.05309e-05
0.000132655 0.000795693 -2.31303e-05
-6.05309e-05 -2.31303e-05 0.000362535
0.00150534 -0.000336229 -4.50476e-05
-0.000336229 0.000687353 -4.15154e-05
-4.50476e-05 -4.15154e-05 0.000870484
0.0017561 0.000188812 -1.83594e-05
0.000188812 6.00094e-05 -5.28499e-06
-1.83594e-05 -5.28499e-06 8.4317e-05
0.00108978 8.3226e-05 -6.90491e-06
8.3226e-05 0.000250325 -1.65173e-06
-6.90491e-06 -1.65173e-06 0.000102027
0.00103649 0.000238422 -1.18447e-05
0.000238422 5.04822e-05 -5.96411e-06
-1.18447e-05 -5.96411e-06 -0.000163882
-0.000178288 0.000213857 6.36138e-06
0.000213857 -0.000744432 4.50518e-05
6.36138e-06 4.50518e-05 -0.00072062
0.00687257 -0.000124622 -4.69468e-05
-0.000124622 0.00236425 -1.36908e-05
-4.69468e-05 -1.36908e-05 0.00108939
0.00371773 0.0002936 -7.34758e-06
0.0002936 0.000506898 2.20765e-05
-7.34758e-06 2.20765e-05 -0.00051654
0.000812854 -0.000532019 -5.68861e-06
-0.000532019 -6.34694e-05 -1.21201e-06
-5.68861e-06 -1.21201e-06 0.000234922
0.00100015 -0.00035282 -3.1143e-05
-0.00035282 -0.00156361 1.98237e-05
-3.1143e-05 1.98237e-05 -0.000532161
0.000904688 -2.51914e-05 7.82636e-07
-2.51914e-05 0.000108232 -3.77014e-07
7.82636e-07 -3.77014e-07 2.88393e-05
0.000940385 1.17671e-05 -1.25756e-07
1.17671e-05 0.00012608 7.56128e-08
-1.25756e-07 7.56128e-08 4.74491e-05
0.00113028 4.71466e-05 -6.6648e-07
4.71466e-05 0.000227559 -2.44386e-06
-6.6648e-07 -2.44386e-06 0.000161629
0.000787628 2.68685e-06 -1.31051e-07
2.68685e-06 2.72507e-05 -1.1407e-07
-1.31051e-07 -1.1407e-07 -2.991e-05
0.000845405 1.55599e-05 -7.04081e-07
1.55599e-05 5.56418e-05 -1.33707e-07
-7.04081e-07 -1.33707e-07 -9.1475e-06
0.000781666 -3.38187e-05 -5.27076e-07
-3.38187e-05 2.01093e-05 2.64253e-08
-5.27076e-07 2.64253e-08 -4.36352e-05
0.000904158 -1.96502e-05 9.80942e-08
-1.96502e-05 8.90957e-05 2.05798e-07
9.80942e-08 2.05798e-07 2.26052e-05
0.000932495 -3.62066e-05 -1.2703e-07
-3.62066e-05 0.000109298 1.35855e-06
-1.2703e-07 1.35855e-06 3.51275e-05
0.000699017 -3.91514e-07 4.76819e-07
-3.91514e-07 -2.71866e-05 4.50006e-07
4.76819e-07 4.50006e-07 -8.22927e-05
0.00083526 -1.61787e-05 -1.31227e-07
-1.61787e-05 4.65795e-05 -1.85651e-07
-1.31227e-07 -1.85651e-07 -1.85447e-05
0.000906973 -1.66719e-05 -5.88332e-08
-1.66719e-05 8.56266e-05 2.71577e-07
-5.88332e-08 2.71577e-07 1.89185e-05
0.000866719 2.4013e-05 5.19631e-07
2.4013e-05 6.78373e-05 -2.03444e-07
5.19631e-07 -2.03444e-07 -1.2334e-06
0.000843737 -1.56572e-05 2.05535e-07
-1.56572e-05 5.27167e-05 -8.47964e-08
2.05535e-07 -8.47964e-08 -1.16824e-05
0.000815984 -2.40185e-05 5.92268e-07
-2.40185e-05 2.91615e-05 -7.04436e-07
5.92268e-07 -7.04436e-07 -3.56694e-05
0.00084588 1.2458e-05 -4.69139e-07
1.2458e-05 4.4788e-05 -3.32374e-06
-4.69139e-07 -3.32374e-06 -1.33484e-05
0.000924861 -5.6893e-05 2.08023e-07
-5.6893e-05 9.02398e-05 -3.90456e-07
2.08023e-07 -3.90456e-07 2.15033e-05
0.00090221 -4.17806e-05 -4.84864e-07
-4.17806e-05 8.90041e-05 -3.74927e-07
-4.84864e-07 -3.74927e-07 1.93559e-05
0.000902534 -7.18295e-06 -4.4791e-07
-7.18295e-06 8.99004e-05 -1.28952e-07
-4.4791e-07 -1.28952e-07 2.2001e-05
0.000924507 5.0048e-05 -4.0989e-07
5.0048e-05 0.000100047 -2.68544e-07
-4.0989e-07 -2.68544e-07 3.16948e-05
0.000887539 2.0972e-05 -3.54102e-07
2.0972e-05 8.1713e-05 -8.59332e-07
-3.54102e-07 -8.59332e-07 6.61754e-06
0.000843888 4.95678e-05 1.55545e-07
4.95678e-05 6.2559e-05 -5.58737e-07
1.55545e-07 -5.58737e-07 -5.70489e-06
0.000889881 6.00054e-05 -1.26717e-07
6.00054e-05 7.94726e-05 -9.87169e-07
-1.26717e-07 -9.87169e-07 1.17893e-05
0.000768536 3.90149e-05 1.38298e-06
3.90149e-05 3.47261e-05 1.11891e-06
1.38298e-06 1.11891e-06 -3.8041e-05
0.000789167 2.25803e-05 -2.10738e-07
2.25803e-05 3.33772e-05 -2.33421e-08
-2.10738e-07 -2.33421e-08 -2.70689e-05
0.000809826 3.77926e-06 -7.41636e-08
3.77926e-06 4.68216e-05 1.70837e-09
-7.41636e-08 1.70837e-09 -1.7317e-05
0.000797773 1.23464e-05 -1.04499e-06
1.23464e-05 2.34155e-05 3.72836e-07
-1.04499e-06 3.72836e-07 -2.53709e-05
0.000847646 1.6359e-05 6.41718e-07
1.6359e-05 5.73325e-05 -1.48123e-07
6.41718e-07 -1.48123e-07 -5.11886e-06
0.000770257 -2.02613e-05 -3.26832e-08
-2.02613e-05 9.98997e-06 2.16215e-08
-3.26832e-08 2.16215e-08 -4.17718e-05
0.000780687 1.64532e-05 -5.43618e-07
1.64532e-05 5.0188e-06 1.49827e-06
-5.43618e-07 1.49827e-06 -2.72026e-05
0.000709899 8.25995e-06 4.56724e-07
8.25995e-06 -1.78983e-05 -1.09073e-07
4.56724e-07 -1.09073e-07 -7.46283e-05
0.000772151 8.57413e-06 -1.27687e-07
8.57413e-06 -1.93176e-07 1.34991e-09
-1.27687e-07 1.34991e-09 -3.25239e-05
0.00134393 1.36005e-05 -2.94881e-06
1.36005e-05 0.000306716 4.47762e-06
-2.94881e-06 4.47762e-06 0.000305597
0.00076567 -1.34978e-06 5.73191e-07
-1.34978e-06 -3.82934e-06 -1.41478e-06
5.73191e-07 -1.41478e-06 -3.61849e-05
0.00103463 7.192e-06 -1.38832e-06
7.192e-06 0.000134007 6.70499e-07
-1.38832e-06 6.70499e-07 0.000131646
0.000948054 3.51586e-06 -2.98744e-06
3.51586e-06 8.77249e-05 4.17737e-06
-2.98744e-06 4.17737e-06 0.000102541
0.000726959 1.14081e-06 3.59894e-09
1.14081e-06 -3.70648e-05 -3.18588e-06
3.59894e-09 -3.18588e-06 -4.05993e-05
0.00214363 -2.77345e-07 2.63979e-06
-2.77345e-07 0.000747756 -7.47372e-10
2.63979e-06 -7.47372e-10 0.00076903
0.000957962 -3.86278e-06 -2.4341e-06
-3.86278e-06 9.28867e-05 -4.16868e-06
-2.4341e-06 -4.16868e-06 0.000108146
0.000805992 5.30064e-05 5.32415e-07
5.30064e-05 4.38495e-05 -2.11154e-07
5.32415e-07 -2.11154e-07 -1.00993e-05
0.000780244 2.97537e-07 -1.07972e-07
2.97537e-07 4.89633e-06 -1.6832e-06
-1.07972e-07 -1.6832e-06 -2.44529e-05
0.000780601 3.38642e-06 -9.43843e-08
3.38642e-06 5.30444e-06 -9.54861e-09
-9.43843e-08 -9.54861e-09 -2.4536e-05
0.000730156 5.27124e-06 -6.57479e-08
5.27124e-06 -3.53576e-05 -3.37024e-06
-6.57479e-08 -3.37024e-06 -3.72392e-05
0.000777964 5.80635e-06 -3.44438e-07
5.80635e-06 3.62684e-06 1.68997e-06
-3.44438e-07 1.68997e-06 -2.69767e-05
0.000721931 1.13397e-05 3.04261e-08
1.13397e-05 -3.86117e-05 -6.99345e-07
3.04261e-08 -6.99345e-07 -4.12749e-05
0.00209107 1.6114e-05 8.00051e-06
1.6114e-05 0.000720948 -4.31151e-06
8.00051e-06 -4.31151e-06 0.000742335
0.00129719 2.26427e-05 -1.19806e-06
2.26427e-05 0.000282224 2.05225e-06
-1.19806e-06 2.05225e-06 0.000281351
0.00153589 2.10777e-05 3.58384e-07
2.10777e-05 0.000418222 1.34133e-06
3.58384e-07 1.34133e-06 0.000435379
0.000994315 2.36723e-05 -1.6063e-05
2.36723e-05 0.000124045 6.77342e-06
-1.6063e-05 6.77342e-06 0.000136699
0.000135674 3.83464e-05 1.83138e-05
3.83464e-05 -0.000890889 7.81554e-06
1.83138e-05 7.81554e-06 -0.000981434
0.00205396 3.76929e-06 2.41119e-06
3.76929e-06 0.000211915 2.16459e-07
2.41119e-06 2.16459e-07 0.000139819
0.00202125 2.90688e-05 7.76239e-06
2.90688e-05 0.00018304 -1.26072e-06
7.76239e-06 -1.26072e-06 0.000137927
0.000975088 8.97689e-06 2.39818e-05
8.97689e-06 -0.000423085 -4.40771e-06
2.39818e-05 -4.40771e-06 -0.000769767
0.00182162 -2.64888e-05 -3.91e-07
-2.64888e-05 2.91768e-05 6.24414e-07
-3.91e-07 6.24414e-07 -3.92541e-05
0.00197505 1.57532e-06 -3.06445e-06
1.57532e-06 8.11859e-05 -1.16002e-06
-3.06445e-06 -1.16002e-06 2.54128e-05
0.00210519 -1.09769e-05 -2.16794e-05
-1.09769e-05 0.000186626 1.75403e-06
-2.16794e-05 1.75403e-06 0.000123183
0.00162971 -9.59921e-05 0.000132077
-9.59921e-05 -0.000107692 -9.07874e-06
0.000132077 -9.07874e-06 -0.000439359
0.00828997 -1.74035e-05 -2.81487e-05
-1.74035e-05 0.00279808 1.41183e-06
-2.81487e-05 1.41183e-06 0.00193073
0.00320331 0.000626621 2.79056e-05
0.000626621 0.00152657 -8.53973e-06
2.79056e-05 -8.53973e-06 0.00171288
0.00210861 0.000615062 -1.3459e-05
0.000615062 0.000553665 1.12897e-05
-1.3459e-05 1.12897e-05 0.00156554
0.000677441 -5.53485e-05 1.08529e-06
-5.53485e-05 -1.76814e-05 -8.39603e-07
1.08529e-06 -8.39603e-07 -8.43421e-05
0.000808109 -9.98518e-06 3.13387e-07
-9.98518e-06 4.36782e-05 -5.04292e-08
3.13387e-07 -5.04292e-08 -8.25854e-06
0.000801124 -5.78924e-05 -1.08512e-06
-5.78924e-05 4.38228e-05 1.02786e-06
-1.08512e-06 1.02786e-06 -1.13477e-05
0.000784551 -2.26343e-05 -3.14802e-07
-2.26343e-05 3.98787e-05 4.06301e-08
-3.14802e-07 4.06301e-08 -2.72968e-05
0.000782704 4.03785e-05 1.84094e-07
4.03785e-05 5.05161e-05 6.12442e-07
1.84094e-07 6.12442e-07 -2.86535e-05
0.000928612 7.75976e-05 4.20926e-07
7.75976e-05 0.000119974 8.01308e-07
4.20926e-07 8.01308e-07 4.52502e-05
0.000857638 -2.53087e-05 6.54293e-07
-2.53087e-05 7.90084e-05 -8.66103e-07
6.54293e-07 -8.66103e-07 1.22977e-05
0.000770533 -3.61802e-05 -4.97788e-07
-3.61802e-05 3.36472e-05 5.99331e-07
-4.97788e-07 5.99331e-07 -3.3284e-05
0.00195125 -5.65013e-05 2.78566e-06
-5.65013e-05 0.000142859 -4.87401e-07
2.78566e-06 -4.87401e-07 8.14961e-05
0.00168471 -9.97514e-05 5.56451e-07
-9.97514e-05 -7.44244e-05 -2.08006e-07
5.56451e-07 -2.08006e-07 -0.000140931
0.00158536 -0.000212101 -3.07729e-07
-0.000212101 -4.17627e-05 3.40251e-07
-3.07729e-07 3.40251e-07 -0.000136719
0.000930439 -0.000143927 1.50882e-06
-0.000143927 0.000101524 2.55745e-06
1.50882e-06 2.55745e-06 -5.19292e-05
0.00202844 -0.000245 1.28552e-06
-0.000245 0.000465244 2.39154e-07
1.28552e-06 2.39154e-07 0.000290419
0.000874885 -8.99094e-05 -6.07424e-07
-8.99094e-05 0.00013424 -5.15117e-07
-6.07424e-07 -5.15117e-07 -6.46596e-06
0.00125805 -9.99828e-05 -2.58059e-07
-9.99828e-05 0.000328346 -3.9604e-07
-2.58059e-07 -3.9604e-07 0.000202459
0.000808599 -4.06378e-05 -1.47697e-06
-4.06378e-05 6.75765e-05 7.08103e-07
-1.47697e-06 7.08103e-07 -2.47092e-05
0.000809696 -5.3959e-07 1.60528e-07
-5.3959e-07 5.92642e-05 6.39238e-07
1.60528e-07 6.39238e-07 -1.64152e-05
0.00100992 1.37488e-05 -1.08237e-06
1.37488e-05 0.000165006 -1.30411e-07
-1.08237e-06 -1.30411e-07 8.10381e-05
0.00101224 -2.68441e-06 5.84388e-07
-2.68441e-06 0.000164904 3.04824e-07
5.84388e-07 3.04824e-07 9.68157e-05
0.000771359 8.92098e-05 1.06144e-06
8.92098e-05 4.26443e-05 1.49213e-06
1.06144e-06 1.49213e-06 -3.96214e-05
0.00160857 -6.08057e-05 -1.11925e-06
-6.08057e-05 -0.000120607 -2.22312e-06
-1.11925e-06 -2.22312e-06 -0.000180745
0.00084156 3.18387e-05 -4.1474e-07
3.18387e-05 7.81728e-05 2.44098e-07
-4.1474e-07 2.44098e-07 -5.23441e-06
0.00084871 -2.53248e-05 -3.92262e-07
-2.53248e-05 8.27363e-05 -3.67915e-07
-3.92262e-07 -3.67915e-07 -7.58517e-07
0.00209654 -0.000207264 1.1495e-07
-0.000207264 0.000118437 -5.20281e-07
1.1495e-07 -5.20281e-07 5.98241e-05
0.00113282 -0.000216156 9.4849e-07
-0.000216156 -0.000153512 8.8582e-07
9.4849e-07 8.8582e-07 -0.000281303
0.00126995 -0.000189864 1.00721e-06
-0.000189864 0.000274908 -1.38937e-06
1.00721e-06 -1.38937e-06 9.73922e-05
0.000984808 -1.92457e-05 1.70916e-07
-1.92457e-05 0.000160144 -5.06383e-07
1.70916e-07 -5.06383e-07 6.26478e-05
0.000974563 -3.01752e-05 1.24203e-07
-3.01752e-05 0.00019473 4.95345e-07
1.24203e-07 4.95345e-07 3.42762e-05
0.00376478 -0.000173709 -1.056e-05
-0.000173709 0.00113425 5.46674e-06
-1.056e-05 5.46674e-06 0.00105655
0.00292149 -0.000299307 -1.10883e-05
-0.000299307 0.00062033 4.78104e-07
-1.10883e-05 4.78104e-07 0.00056687
-0.000769465 -0.000127899 -3.4092e-06
-0.000127899 -0.000939514 -1.24158e-06
-3.4092e-06 -1.24158e-06 -0.00107768
0.00109971 -0.000117459 -4.29406e-06
-0.000117459 0.000222145 2.83081e-06
-4.29406e-06 2.83081e-06 3.35458e-05
0.000727141 -7.35329e-05 1.04366e-06
-7.35329e-05 8.03552e-06 -1.249e-07
1.04366e-06 -1.249e-07 -7.38964e-05
0.000874093 -2.89734e-05 1.0031e-06
-2.89734e-05 9.04935e-05 9.1423e-08
1.0031e-06 9.1423e-08 2.71536e-06
0.000983202 -6.4354e-06 -2.1778e-06
-6.4354e-06 0.000165779 4.94156e-07
-2.1778e-06 4.94156e-07 5.49356e-05
-0.00396189 -3.68632e-05 5.4887e-05
-3.68632e-05 -0.0017758 8.41032e-06
5.4887e-05 8.41032e-06 -0.00159773
0.00820464 -5.41088e-05 -3.08765e-05
-5.41088e-05 0.00283536 -4.66643e-07
-3.08765e-05 -4.66643e-07 0.00224674
0.000877379 3.84718e-05 2.25649e-06
3.84718e-05 0.000110811 -4.19434e-07
2.25649e-06 -4.19434e-07 1.20322e-05
0.00075414 0.000115372 2.97832e-06
0.000115372 5.44432e-05 -6.23409e-08
2.97832e-06 -6.23409e-08 -7.75827e-05
0.00166072 0.000126813 3.81605e-06
0.000126813 -5.03205e-05 5.75066e-06
3.81605e-06 5.75066e-06 -2.78614e-05
0.00213246 0.000304438 2.50728e-06
0.000304438 0.000264329 1.06024e-06
2.50728e-06 1.06024e-06 0.000143619
0.00101372 0.000166189 5.29677e-06
0.000166189 0.000116419 1.65853e-06
5.29677e-06 1.65853e-06 -8.99601e-05
0.00509109 0.000173369 5.84238e-05
0.000173369 0.0012187 4.27627e-08
5.84238e-05 4.27627e-08 0.000272667
0.00519929 0.0001477 -8.39936e-05
0.0001477 0.000968739 -2.9207e-05
-8.39936e-05 -2.9207e-05 0.000356798
0.000314783 0.000133335 3.49338e-06
0.000133335 -0.000503953 -1.85416e-05
3.49338e-06 -1.85416e-05 -0.000589941
0.00359357 -0.000505598 1.69921e-05
-0.000505598 0.00178966 1.93826e-05
1.69921e-05 1.93826e-05 0.00169903
-0.00320453 -0.000677421 -2.83229e-05
-0.000677421 -0.00267839 -4.02637e-05
-2.83229e-05 -4.02637e-05 -0.00117233
0.000966712 9.71848e-05 4.64756e-07
9.71848e-05 0.000178153 -7.36559e-07
4.64756e-07 -7.36559e-07 7.62524e-05
-0.00261892 -0.000153329 2.12182e-05
-0.000153329 -0.0013689 2.40626e-06
2.12182e-05 2.40626e-06 -0.00130622
-0.000353884 -0.000311345 -2.57425e-05
-0.000311345 -7.91923e-05 -9.13604e-06
-2.57425e-05 -9.13604e-06 -0.000129277
0.00246025 0.000208375 -3.8323e-06
0.000208375 0.000400304 -3.04924e-06
-3.8323e-06 -3.04924e-06 0.000436148
0.000889703 9.50321e-05 -6.85345e-07
9.50321e-05 0.000158679 -5.02566e-07
-6.85345e-07 -5.02566e-07 8.56854e-06
0.000578689 0.000180093 1.20024e-06
0.000180093 -0.000168581 1.08537e-06
1.20024e-06 1.08537e-06 -0.000375709
9.54957e-05 0.000132124 1.64834e-05
0.000132124 -0.000543315 1.09593e-05
1.64834e-05 1.09593e-05 -0.000477376
0.00622711 -8.82122e-05 -6.40611e-06
-8.82122e-05 0.00192617 -3.52213e-06
-6.40611e-06 -3.52213e-06 0.000560185
0.00577258 0.000417207 -2.63756e-05
0.000417207 0.00141391 -1.65762e-05
-2.63756e-05 -1.65762e-05 0.000682741
0.00445201 -0.000744977 1.7951e-05
-0.000744977 0.00181272 -1.31349e-05
1.7951e-05 -1.31349e-05 0.00187185
0.00101143 -0.000411477 2.19963e-05
-0.000411477 -0.00166201 5.12332e-05
2.19963e-05 5.12332e-05 -0.0005755
0.00109059 5.88479e-05 -4.96555e-06
5.88479e-05 0.000260909 -4.86669e-06
-4.96555e-06 -4.86669e-06 0.00017416
-0.00206428 -9.93394e-05 -7.00029e-05
-9.93394e-05 -0.00035814 -1.95502e-05
-7.00029e-05 -1.95502e-05 -0.000881969
0.00188291 -2.38387e-05 -5.55369e-05
-2.38387e-05 0.000168052 -5.69181e-05
-5.55369e-05 -5.69181e-05 -0.000260865
0.000604278 0.000181999 -2.22316e-05
0.000181999 -0.000255914 -1.71953e-06
-2.22316e-05 -1.71953e-06 -0.000244987
0.00162819 0.000203826 -2.24449e-05
0.000203826 0.000603092 -6.41695e-06
-2.24449e-05 -6.41695e-06 0.000432219
0.00240932 0.000127363 -4.15531e-05
0.000127363 0.000939451 -2.68546e-06
-4.15531e-05 -2.68546e-06 0.000846435
0.00490143 0.000599818 -0.000101087
0.000599818 0.00115008 7.07262e-06
-0.000101087 7.07262e-06 0.000722459
-0.0011859 -8.82279e-05 3.86295e-05
-8.82279e-05 -0.00107632 4.44339e-05
3.86295e-05 4.44339e-05 -0.00285679
0.00673889 -0.000757365 -5.17587e-05
-0.000757365 0.0017663 1.82439e-05
-5.17587e-05 1.82439e-05 0.00192674
0.00161573 -0.000238155 -1.20474e-05
-0.000238155 -0.00178516 -1.48406e-05
-1.20474e-05 -1.48406e-05 -0.000733292
0.000910695 2.40244e-05 8.2647e-07
2.40244e-05 0.000114155 2.32497e-06
8.2647e-07 2.32497e-06 3.30184e-05
0.00107688 4.96448e-05 1.15863e-06
4.96448e-05 0.00019967 1.49445e-06
1.15863e-06 1.49445e-06 0.000131212
0.000568071 4.66956e-05 1.55769e-07
4.66956e-05 -6.77379e-05 -5.0117e-06
1.55769e-07 -5.0117e-06 -0.00011866
0.000700215 3.64274e-05 3.17779e-07
3.64274e-05 -2.66054e-05 -8.38279e-08
3.17779e-07 -8.38279e-08 -8.16979e-05
0.000928242 3.39177e-05 -7.30907e-07
3.39177e-05 0.000105232 -2.80041e-07
-7.30907e-07 -2.80041e-07 3.48285e-05
0.000909543 -3.06432e-05 -4.58997e-07
-3.06432e-05 8.79343e-05 4.92168e-07
-4.58997e-07 4.92168e-07 2.14864e-05
0.000859531 -2.75582e-05 -6.89051e-07
-2.75582e-05 6.03443e-05 -6.51548e-08
-6.89051e-07 -6.51548e-08 -5.5022e-06
0.000862656 -1.81772e-05 -7.81463e-07
-1.81772e-05 6.23256e-05 1.64139e-06
-7.81463e-07 1.64139e-06 -1.58745e-06
0.00089653 2.65942e-05 3.0716e-07
2.65942e-05 8.63608e-05 -4.38755e-07
3.0716e-07 -4.38755e-07 1.64521e-05
0.000904073 -2.59782e-05 -2.7615e-08
-2.59782e-05 7.7736e-05 3.03982e-07
-2.7615e-08 3.03982e-07 1.26633e-05
0.000918828 -3.66583e-05 1.38796e-07
-3.66583e-05 8.95203e-05 2.41866e-07
1.38796e-07 2.41866e-07 1.9015e-05
0.000817643 -4.88674e-06 4.44501e-08
-4.88674e-06 3.40776e-05 -1.89206e-07
4.44501e-08 -1.89206e-07 -2.18704e-05
0.000938002 -3.47457e-05 2.00333e-06
-3.47457e-05 0.000107172 -2.36265e-06
2.00333e-06 -2.36265e-06 6.03117e-05
0.000888527 -3.34311e-05 1.98345e-07
-3.34311e-05 6.08923e-05 -2.40914e-06
1.98345e-07 -2.40914e-06 -2.37778e-06
0.000916776 3.22418e-06 1.1569e-07
3.22418e-06 9.46182e-05 -5.9913e-07
1.1569e-07 -5.9913e-07 1.77892e-05
0.000910836 -3.20944e-05 1.25219e-07
-3.20944e-05 9.69432e-05 -2.96506e-07
1.25219e-07 -2.96506e-07 2.70113e-05
0.000895708 1.85721e-05 -3.16457e-07
1.85721e-05 7.94651e-05 3.98707e-07
-3.16457e-07 3.98707e-07 1.37927e-05
0.000882815 -4.91232e-06 2.21342e-07
-4.91232e-06 7.66159e-05 -2.9361e-07
2.21342e-07 -2.9361e-07 3.32485e-06
0.000836135 4.68586e-05 -1.42675e-07
4.68586e-05 5.70183e-05 -2.25343e-08
-1.42675e-07 -2.25343e-08 -1.05716e-05
0.000879471 2.96321e-05 -3.63069e-07
2.96321e-05 7.03449e-05 9.92e-08
-3.63069e-07 9.92e-08 5.00797e-06
0.000785785 5.29707e-05 8.08057e-07
5.29707e-05 3.59392e-05 1.01478e-07
8.08057e-07 1.01478e-07 -3.25362e-05
0.000818875 3.65974e-05 3.87999e-08
3.65974e-05 4.20194e-05 -1.10685e-06
3.87999e-08 -1.10685e-06 -3.05587e-05
0.00085959 4.26731e-05 2.16472e-07
4.26731e-05 6.703e-05 -8.10107e-07
2.16472e-07 -8.10107e-07 1.40153e-06
0.000817059 2.8181e-05 1.7937e-06
2.8181e-05 5.5244e-05 -1.28409e-07
1.7937e-06 -1.28409e-07 -2.69585e-05
0.000597174 -3.96077e-05 2.81399e-07
-3.96077e-05 -2.34238e-05 6.27792e-08
2.81399e-07 6.27792e-08 -0.000138468
0.000526248 2.44123e-05 2.75885e-07
2.44123e-05 -8.75246e-05 3.18407e-07
2.75885e-07 3.18407e-07 -0.000169375
0.000810934 3.89439e-05 4.07714e-07
3.89439e-05 5.83454e-05 5.33969e-07
4.07714e-07 5.33969e-07 -1.49028e-05
0.000805114 3.87925e-05 3.68721e-07
3.87925e-05 4.61686e-05 5.88988e-07
3.68721e-07 5.88988e-07 -1.67658e-05
0.000816516 1.55224e-05 -2.1364e-07
1.55224e-05 5.0579e-05 -6.52976e-08
-2.1364e-07 -6.52976e-08 -1.1703e-05
0.00079741 2.90178e-05 -6.64021e-07
2.90178e-05 2.71179e-05 3.96396e-07
-6.64021e-07 3.96396e-07 -2.22673e-05
0.000840066 1.50824e-05 5.21581e-07
1.50824e-05 6.10071e-05 2.19536e-07
5.21581e-07 2.19536e-07 -1.68871e-06
0.000816019 2.06203e-07 -1.05578e-07
2.06203e-07 3.49808e-05 1.4574e-08
-1.05578e-07 1.4574e-08 -1.504e-05
0.000776914 2.12582e-05 -9.23344e-07
2.12582e-05 4.58818e-06 1.51568e-06
-9.23344e-07 1.51568e-06 -2.76134e-05
0.00073556 -1.17935e-05 6.67675e-07
-1.17935e-05 -1.09643e-05 -3.48467e-07
6.67675e-07 -3.48467e-07 -6.20401e-05
0.000776534 1.25099e-05 -6.18182e-08
1.25099e-05 2.42544e-06 5.2817e-09
-6.18182e-08 5.2817e-09 -2.96613e-05
0.0013362 2.04788e-05 -4.80769e-06
2.04788e-05 0.000305093 4.43022e-06
-4.80769e-06 4.43022e-06 0.000303699
0.000769585 3.45393e-06 7.40094e-07
3.45393e-06 -1.90931e-06 -1.42331e-06
7.40094e-07 -1.42331e-06 -3.41152e-05
0.00103236 1.35185e-05 -2.1874e-06
1.35185e-05 0.000134529 6.54065e-07
-2.1874e-06 6.54065e-07 0.000131949
0.000893782 1.13828e-05 -5.7136e-07
1.13828e-05 5.91823e-05 1.608e-06
-5.7136e-07 1.608e-06 7.39012e-05
0.000720935 6.60217e-06 2.74e-07
6.60217e-06 -3.96037e-05 -3.17793e-06
2.74e-07 -3.17793e-06 -4.34534e-05
0.00214939 8.07606e-06 2.35031e-06
8.07606e-06 0.00075157 2.03981e-08
2.35031e-06 2.03981e-08 0.000772634
0.00214803 3.97019e-07 7.84856e-07
3.97019e-07 0.000750201 -4.30705e-06
7.84856e-07 -4.30705e-06 0.000771415
0.00107012 3.92928e-05 -1.14998e-06
3.92928e-05 0.000183607 -5.62841e-07
-1.14998e-06 -5.62841e-07 0.000132192
0.000780089 -3.81701e-06 -3.14846e-07
-3.81701e-06 4.55448e-06 -1.69496e-06
-3.14846e-07 -1.69496e-06 -2.49528e-05
0.00080027 3.90731e-06 7.46091e-07
3.90731e-06 4.02448e-05 5.3967e-07
7.46091e-07 5.3967e-07 -1.30534e-05
0.000733423 -7.96333e-07 -1.31411e-07
-7.96333e-07 -3.40399e-05 -3.34291e-06
-1.31411e-07 -3.34291e-06 -3.54924e-05
0.000785799 -4.92704e-07 6.04917e-08
-4.92704e-07 7.92296e-06 -2.66706e-09
6.04917e-08 -2.66706e-09 -2.14436e-05
0.000778813 2.47076e-06 -2.27876e-07
2.47076e-06 4.1434e-06 1.66049e-06
-2.27876e-07 1.66049e-06 -2.56446e-05
0.00073265 5.55115e-06 -1.67377e-07
5.55115e-06 -3.4027e-05 5.39394e-09
-1.67377e-07 5.39394e-09 -3.59304e-05
0.00207238 7.57606e-06 3.65427e-06
7.57606e-06 0.000708997 -4.34716e-06
3.65427e-06 -4.34716e-06 0.000730973
0.00129451 1.52188e-05 -7.13396e-07
1.52188e-05 0.000277721 2.03569e-06
-7.13396e-07 2.03569e-06 0.000278054
0.00150488 1.41911e-05 2.20471e-06
1.41911e-05 0.0003973 5.12554e-08
2.20471e-06 5.12554e-08 0.000415528
0.000970596 1.70859e-05 -1.38924e-05
1.70859e-05 0.000105556 6.82119e-06
-1.38924e-05 6.82119e-06 0.000119885
-0.00589948 0.000117038 3.25152e-05
0.000117038 -0.00285671 3.43525e-07
3.25152e-05 3.43525e-07 -0.00290263
-0.00127462 0.000258056 1.75949e-05
0.000258056 -0.00043636 1.64538e-05
1.75949e-05 1.64538e-05 -0.000477932
0.00232275 1.53726e-05 -0.00012789
1.53726e-05 0.00018898 -4.28937e-06
-0.00012789 -4.28937e-06 -0.000150974
0.00202379 -2.31401e-05 1.5673e-05
-2.31401e-05 0.000195551 6.77413e-07
1.5673e-05 6.77413e-07 0.00011724
0.00162424 -7.57e-06 -1.8349e-07
-7.57e-06 -0.000161135 -1.33318e-07
-1.8349e-07 -1.33318e-07 -0.000212695
0.00131193 -2.11388e-06 2.70924e-05
-2.11388e-06 -0.000109428 -7.49479e-07
2.70924e-05 -7.49479e-07 -0.000336964
0.00207585 -1.49452e-05 -1.73586e-06
-1.49452e-05 0.000170709 1.02662e-06
-1.73586e-06 1.02662e-06 0.000105789
0.0053331 0.000215623 -1.52412e-05
0.000215623 0.00129654 -1.43321e-05
-1.52412e-05 -1.43321e-05 0.000548768
-0.00374945 0.000245281 -1.85601e-05
0.000245281 -0.00146053 -3.42407e-08
-1.85601e-05 -3.42407e-08 -0.00164982
-0.000597243 0.000650749 -8.91553e-06
0.000650749 -0.00113005 1.46241e-06
-8.91553e-06 1.46241e-06 0.000179637
0.00200121 -9.30836e-05 6.7257e-05
-9.30836e-05 0.000150851 -1.64336e-06
6.7257e-05 -1.64336e-06 -9.24726e-05
0.00703327 0.000348343 2.26023e-05
0.000348343 0.00241205 -3.97546e-06
2.26023e-05 -3.97546e-06 0.00129633
0.000109121 0.00051866 -1.87125e-05
0.00051866 -0.000351123 -2.17755e-05
-1.87125e-05 -2.17755e-05 7.69931e-05
0.00353972 0.000439923 -5.58414e-05
0.000439923 -3.64057e-05 3.64639e-05
-5.58414e-05 3.64639e-05 0.000818737
0.000823238 4.77513e-05 -6.93935e-07
4.77513e-05 6.84423e-05 8.95353e-08
-6.93935e-07 8.95353e-08 -1.37009e-05
0.000726761 1.83489e-06 -1.72352e-07
1.83489e-06 7.04908e-06 -3.02474e-07
-1.72352e-07 -3.02474e-07 -5.80005e-05
0.000798459 -5.53994e-05 -9.15277e-07
-5.53994e-05 4.14064e-05 9.42002e-07
-9.15277e-07 9.42002e-07 -1.26034e-05
0.000725951 1.47206e-06 1.65932e-07
1.47206e-06 1.03477e-05 5.41838e-07
1.65932e-07 5.41838e-07 -5.87792e-05
0.000801957 4.75378e-05 6.94851e-07
4.75378e-05 6.09907e-05 7.42092e-07
6.94851e-07 7.42092e-07 -1.7656e-05
0.000879304 3.92014e-05 -8.10726e-07
3.92014e-05 9.65032e-05 5.10721e-07
-8.10726e-07 5.10721e-07 1.67134e-05
0.000863825 5.45143e-05 1.39703e-06
5.45143e-05 8.85592e-05 9.7022e-07
1.39703e-06 9.7022e-07 1.06342e-05
0.000802907 -1.86036e-05 6.49038e-07
-1.86036e-05 4.51356e-05 2.11333e-07
6.49038e-07 2.11333e-07 -2.40633e-05
0.00079908 -2.48204e-05 3.93403e-07
-2.48204e-05 4.98197e-05 -5.51841e-07
3.93403e-07 -5.51841e-07 -1.95427e-05
0.000722888 -2.00529e-05 3.06156e-07
-2.00529e-05 4.53618e-06 6.80079e-07
3.06156e-07 6.80079e-07 -6.09904e-05
0.00143748 -5.92685e-05 8.26727e-07
-5.92685e-05 -0.00022085 -2.47839e-06
8.26727e-07 -2.47839e-06 -0.000277305
0.00212485 -0.000209106 5.29615e-06
-0.000209106 0.000148997 1.12779e-06
5.29615e-06 1.12779e-06 8.44029e-05
8.8175e-05 -0.000165333 4.97236e-06
-0.000165333 -0.000681948 1.6557e-06
4.97236e-06 1.6557e-06 -0.000798466
0.0013278 -0.000195287 1.51088e-06
-0.000195287 0.000297879 9.07585e-07
1.51088e-06 9.07585e-07 0.000111983
0.00105749 -6.18384e-05 1.95042e-06
-6.18384e-05 0.00023547 -7.07402e-07
1.95042e-06 -7.07402e-07 7.59352e-05
0.00113192 -3.86569e-05 -1.55527e-07
-3.86569e-05 0.000240308 -6.42501e-07
-1.55527e-07 -6.42501e-07 0.000140518
0.000909288 -1.94603e-05 -1.10912e-06
-1.94603e-05 0.000109412 -3.33304e-07
-1.10912e-06 -3.33304e-07 2.91166e-05
0.000882483 3.61927e-05 -9.67429e-07
3.61927e-05 0.000100697 1.06421e-07
-9.67429e-07 1.06421e-07 1.9425e-05
0.00192543 -0.000129666 -3.52292e-06
-0.000129666 0.000172545 1.61486e-06
-3.52292e-06 1.61486e-06 0.000115485
0.000787483 -3.4168e-05 -1.3687e-07
-3.4168e-05 4.3015e-05 4.57489e-08
-1.3687e-07 4.57489e-08 -4.08824e-05
0.00084121 -3.23505e-05 4.39593e-07
-3.23505e-05 7.26002e-05 -2.99195e-07
4.39593e-07 -2.99195e-07 -1.52118e-05
0.00220269 -0.000271681 3.60362e-06
-0.000271681 0.000252528 -1.56103e-06
3.60362e-06 -1.56103e-06 0.000191727
6.97986e-05 -0.000168492 1.5428e-06
-0.000168492 -0.000490535 1.63345e-06
1.5428e-06 1.63345e-06 -0.00063157
0.00119358 -0.00011416 2.28342e-06
-0.00011416 0.000265358 -1.3962e-06
2.28342e-06 -1.3962e-06 8.34671e-05
0.000938558 -3.16161e-05 -5.95501e-07
-3.16161e-05 0.000148262 -5.37501e-07
-5.95501e-07 -5.37501e-07 2.58445e-05
0.00307085 -0.000243166 2.91517e-06
-0.000243166 0.00106181 -8.2341e-06
2.91517e-06 -8.2341e-06 0.000874789
0.00174659 -0.000227339 -1.42463e-05
-0.000227339 0.00033666 1.11343e-06
-1.42463e-05 1.11343e-06 0.000255619
0.000386579 -7.22016e-06 -9.33547e-06
-7.22016e-06 -0.0001244 8.8899e-06
-9.33547e-06 8.8899e-06 -0.000281514
0.000882245 2.26008e-05 5.25234e-07
2.26008e-05 9.28886e-05 8.66039e-07
5.25234e-07 8.66039e-07 9.26035e-06
0.00070666 -7.25355e-05 1.36194e-06
-7.25355e-05 -8.70721e-06 3.20389e-07
1.36194e-06 3.20389e-07 -9.38772e-05
0.000912704 -2.02403e-05 6.76623e-09
-2.02403e-05 9.46138e-05 1.25936e-06
6.76623e-09 1.25936e-06 6.36171e-06
0.000888873 4.38374e-06 -8.51146e-05
4.38374e-06 0.0011995 2.05844e-07
-8.51146e-05 2.05844e-07 0.000910014
0.00175996 -7.4616e-05 1.3557e-05
-7.4616e-05 0.00113933 3.39047e-06
1.3557e-05 3.39047e-06 0.00103297
-0.000499268 0.000221711 -4.49474e-05
0.000221711 -0.00171947 2.11918e-05
-4.49474e-05 2.11918e-05 -0.00229901
0.000753291 8.21824e-05 3.00788e-06
8.21824e-05 6.34996e-05 8.65132e-07
3.00788e-06 8.65132e-07 -3.64336e-05
0.000652558 0.000106263 5.26764e-06
0.000106263 4.53626e-05 1.59983e-06
5.26764e-06 1.59983e-06 -0.00010603
0.00323164 0.000224485 9.89732e-06
0.000224485 0.00078926 1.98652e-06
9.89732e-06 1.98652e-06 0.000821189
0.00013063 0.0001181 9.43517e-06
0.0001181 -0.000377726 5.56912e-06
9.43517e-06 5.56912e-06 -0.000580303
0.00380754 -0.000316717 4.873e-05
-0.000316717 0.0016765 1.07101e-05
4.873e-05 1.07101e-05 0.00179049
-0.000247059 -0.000172525 -7.67167e-06
-0.000172525 -0.00122534 6.38142e-06
-7.67167e-06 6.38142e-06 -0.00235639
0.00402352 0.000365106 -6.56062e-05
0.000365106 0.000317804 -5.35391e-05
-6.56062e-05 -5.35391e-05 -0.000531134
-0.000320158 7.28616e-05 2.02144e-05
7.28616e-05 -0.000686883 -1.26181e-05
2.02144e-05 -1.26181e-05 -0.000629062
-0.00274487 -0.000370307 2.76986e-05
-0.000370307 -0.00133646 1.03472e-05
2.76986e-05 1.03472e-05 -0.00140974
0.00109177 -0.000322055 2.64605e-05
-0.000322055 0.000520829 2.3822e-05
2.64605e-05 2.3822e-05 0.000450915
0.00400398 -0.000492185 6.3219e-05
-0.000492185 -4.77592e-05 4.53648e-05
6.3219e-05 4.53648e-05 0.00114625
0.000857753 6.86126e-05 1.0438e-06
6.86126e-05 0.000143937 -1.39913e-06
1.0438e-06 -1.39913e-06 5.3818e-05
-0.000141167 -0.000134452 -2.60577e-05
-0.000134452 0.000478478 -7.73082e-06
-2.60577e-05 -7.73082e-06 0.000162533
0.00208843 -2.48216e-05 -1.49153e-06
-2.48216e-05 0.000290375 -1.15259e-05
-1.49153e-06 -1.15259e-05 -0.000153389
0.000973851 0.000150679 -6.10834e-06
0.000150679 -8.7914e-06 8.36273e-07
-6.10834e-06 8.36273e-07 -5.16076e-05
0.000701674 0.000100719 -1.35627e-06
0.000100719 0.000141484 5.75723e-07
-1.35627e-06 5.75723e-07 -3.53854e-05
-0.000213626 9.93199e-05 2.54512e-05
9.93199e-05 -0.000355252 -1.56652e-05
2.54512e-05 -1.56652e-05 -0.00040654
0.00560281 0.00069706 -1.79611e-05
0.00069706 0.0014924 -3.24042e-06
-1.79611e-05 -3.24042e-06 0.000759447
0.0078031 -0.000347318 2.51968e-05
-0.000347318 0.0027989 9.23486e-06
2.51968e-05 9.23486e-06 0.00135053
0.00145011 -0.000426123 1.24142e-06
-0.000426123 -0.000995101 -4.8345e-06
1.24142e-06 -4.8345e-06 -0.00066495
0.00484831 -0.000305423 4.92942e-06
-0.000305423 0.000331834 -3.18241e-06
4.92942e-06 -3.18241e-06 0.00133705
0.0012667 0.000119147 -1.30195e-05
0.000119147 0.000410525 -8.20973e-06
-1.30195e-05 -8.20973e-06 0.000339869
0.00155396 -3.93721e-05 -5.00246e-05
-3.93721e-05 5.17642e-05 -2.27364e-05
-5.00246e-05 -2.27364e-05 -0.000270671
0.00154945 -5.60651e-06 -1.56545e-05
-5.60651e-06 0.000134838 -3.15952e-05
-1.56545e-05 -3.15952e-05 -0.000259481
-0.000881394 -1.80015e-05 -2.13332e-05
-1.80015e-05 -0.00054067 -1.79898e-05
-2.13332e-05 -1.79898e-05 -0.000643189
0.00337135 0.000347934 5.87564e-07
0.000347934 0.00102512 5.02522e-05
5.87564e-07 5.02522e-05 0.000612155
0.00838082 -0.000245109 2.1731e-05
-0.000245109 0.00279041 7.07002e-06
2.1731e-05 7.07002e-06 0.00119419
-0.00439883 -0.000301155 -5.59674e-05
-0.000301155 -0.00334855 -7.78802e-06
-5.59674e-05 -7.78802e-06 -0.00386211
0.0046411 3.97257e-05 -2.4527e-06
3.97257e-05 -0.000110831 -4.68317e-05
-2.4527e-06 -4.68317e-05 0.00101496
0.00101461 5.43338e-05 1.43426e-06
5.43338e-05 0.000168166 3.91087e-06
1.43426e-06 3.91087e-06 9.69269e-05
0.000826142 6.28998e-05 -1.56695e-06
6.28998e-05 7.01065e-05 -5.78767e-07
-1.56695e-06 -5.78767e-07 1.88558e-05
0.000521526 3.75314e-05 5.11997e-07
3.75314e-05 -6.76868e-05 -3.61678e-06
5.11997e-07 -3.61678e-06 -0.00010963
0.000905186 6.01523e-05 -1.24313e-06
6.01523e-05 8.60024e-05 -5.45524e-07
-1.24313e-06 -5.45524e-07 1.92831e-05
0.000924521 -2.80226e-05 -8.65298e-08
-2.80226e-05 9.63873e-05 9.56922e-07
-8.65298e-08 9.56922e-07 2.31626e-05
0.000997545 -1.94083e-05 -1.04156e-06
-1.94083e-05 0.00012892 1.26119e-06
-1.04156e-06 1.26119e-06 6.36817e-05
0.000816848 -2.01798e-05 -8.59021e-07
-2.01798e-05 3.92801e-05 2.59364e-06
-8.59021e-07 2.59364e-06 -1.55337e-05
0.00091362 1.00003e-05 4.262e-07
1.00003e-05 8.57044e-05 1.24034e-08
4.262e-07 1.24034e-08 1.39172e-05
0.000873696 -2.08457e-05 -1.14161e-07
-2.08457e-05 5.38042e-05 -1.69782e-07
-1.14161e-07 -1.69782e-07 -9.69073e-06
0.000857124 -2.73528e-05 2.86533e-07
-2.73528e-05 6.24058e-05 4.59366e-07
2.86533e-07 4.59366e-07 1.56544e-05
0.000774311 -3.65389e-05 -1.66895e-07
-3.65389e-05 4.90493e-05 -2.59183e-06
-1.66895e-07 -2.59183e-06 1.71756e-05
0.000907837 -3.24671e-05 3.0205e-06
-3.24671e-05 7.00802e-05 -3.36556e-06
3.0205e-06 -3.36556e-06 2.27174e-05
0.000795763 3.76851e-05 6.70608e-07
3.76851e-05 2.15515e-05 -1.20883e-06
6.70608e-07 -1.20883e-06 -4.93005e-05
0.000889214 -2.93114e-05 1.01141e-06
-2.93114e-05 7.602e-05 2.83866e-07
1.01141e-06 2.83866e-07 5.42877e-06
0.000824233 5.18519e-05 -2.91313e-07
5.18519e-05 4.99293e-05 3.02204e-07
-2.91313e-07 3.02204e-07 -1.74076e-05
0.000873401 2.19659e-05 -3.65244e-07
2.19659e-05 6.66052e-05 1.11095e-06
-3.65244e-07 1.11095e-06 1.66286e-06
0.000834569 3.54662e-05 -2.13946e-08
3.54662e-05 4.74189e-05 6.56435e-08
-2.13946e-08 6.56435e-08 -2.26548e-05
0.00081055 5.40717e-05 3.66825e-07
5.40717e-05 5.05749e-05 3.04361e-07
3.66825e-07 3.04361e-07 -1.86677e-05
0.000863903 5.32858e-05 -9.31364e-08
5.32858e-05 7.0061e-05 3.44495e-09
-9.31364e-08 3.44495e-09 3.55767e-06
0.000883258 4.33029e-05 1.90073e-06
4.33029e-05 8.5082e-05 -1.97852e-07
1.90073e-06 -1.97852e-07 1.52508e-05
0.000825461 3.99653e-05 2.50789e-07
3.99653e-05 4.96484e-05 -1.14851e-06
2.50789e-07 -1.14851e-06 -1.27458e-05
0.000771941 -5.03355e-05 8.78596e-07
-5.03355e-05 4.18816e-05 -2.68381e-07
8.78596e-07 -2.68381e-07 -4.57122e-05
0.000905166 1.0179e-05 -2.77231e-07
1.0179e-05 0.00010412 -1.06785e-07
-2.77231e-07 -1.06785e-07 2.10875e-05
0.000697093 -3.80934e-05 8.4187e-07
-3.80934e-05 2.37115e-05 1.74833e-06
8.4187e-07 1.74833e-06 -8.26253e-05
0.00101797 -0.000126646 -1.36322e-06
-0.000126646 0.000177753 3.19955e-06
-1.36322e-06 3.19955e-06 3.99424e-05
0.00109613 -2.06585e-05 9.95881e-07
-2.06585e-05 0.000227129 -5.77902e-07
9.95881e-07 -5.77902e-07 0.000131033
0.000660834 -4.85396e-05 3.09586e-08
-4.85396e-05 1.32856e-05 -2.45069e-06
3.09586e-08 -2.45069e-06 -9.92982e-05
0.000793515 2.78086e-05 -5.44796e-07
2.78086e-05 5.62862e-05 -5.39801e-07
-5.44796e-07 -5.39801e-07 -2.40919e-05
0.000612796 3.17861e-05 9.2141e-07
3.17861e-05 -5.24845e-05 7.96307e-07
9.2141e-07 7.96307e-07 -0.000122406
0.000860508 3.72639e-05 -4.55915e-07
3.72639e-05 8.56365e-05 -1.8079e-07
-4.55915e-07 -1.8079e-07 1.20584e-05
0.000831861 1.265e-05 -2.25922e-07
1.265e-05 6.12863e-05 3.18153e-07
-2.25922e-07 3.18153e-07 -2.34552e-06
0.000784416 3.8213e-05 -6.65554e-07
3.8213e-05 2.36968e-05 5.19529e-07
-6.65554e-07 5.19529e-07 -2.69211e-05
0.000847124 -1.19974e-05 3.61801e-07
-1.19974e-05 7.07702e-05 -6.46691e-08
3.61801e-07 -6.46691e-08 5.74712e-06
0.00080702 3.06122e-06 -3.97863e-07
3.06122e-06 3.33364e-05 4.29834e-08
-3.97863e-07 4.29834e-08 -1.69943e-05
0.000771866 2.63329e-05 -1.15197e-06
2.63329e-05 5.48182e-06 1.521e-06
-1.15197e-06 1.521e-06 -2.72081e-05
0.000835774 -2.0508e-05 1.21971e-06
-2.0508e-05 4.7171e-05 -4.06602e-07
1.21971e-06 -4.06602e-07 -3.96333e-06
0.000778189 1.71072e-05 -1.48099e-07
1.71072e-05 4.79241e-06 8.33991e-09
-1.48099e-07 8.33991e-09 -2.72137e-05
0.00132405 2.74144e-05 -6.61099e-06
2.74144e-05 0.000302332 4.3664e-06
-6.61099e-06 4.3664e-06 0.000300441
0.000772491 7.7941e-06 1.09785e-06
7.7941e-06 -1.73404e-07 -1.46343e-06
1.09785e-06 -1.46343e-06 -3.20914e-05
0.00102598 1.98872e-05 -2.93124e-06
1.98872e-05 0.000133865 6.22314e-07
-2.93124e-06 6.22314e-07 0.000131002
0.000887651 1.75798e-05 -1.07494e-06
1.75798e-05 5.95315e-05 1.60953e-06
-1.07494e-06 1.60953e-06 7.36822e-05
0.000716607 1.23128e-05 4.61741e-07
1.23128e-05 -4.032e-05 -3.18048e-06
4.61741e-07 -3.18048e-06 -4.43565e-05
0.00151659 1.49247e-05 4.58914e-06
1.49247e-05 0.000403513 -1.27539e-06
4.58914e-06 -1.27539e-06 0.000421236
0.00215118 9.2043e-06 4.86348e-06
9.2043e-06 0.000752887 -4.24975e-06
4.86348e-06 -4.24975e-06 0.000773888
0.000869338 -2.39086e-05 5.303e-07
-2.39086e-05 7.03873e-05 -4.54635e-07
5.303e-07 -4.54635e-07 1.77504e-05
0.000785556 -8.72852e-06 -3.00384e-07
-8.72852e-06 8.21389e-06 -1.65642e-06
-3.00384e-07 -1.65642e-06 -2.21387e-05
0.00085881 -4.82303e-06 3.80721e-07
-4.82303e-06 6.76207e-05 1.23128e-07
3.80721e-07 1.23128e-07 1.57487e-05
0.000735472 -6.75714e-06 -3.49408e-07
-6.75714e-06 -3.2092e-05 -3.31663e-06
-3.49408e-07 -3.31663e-06 -3.38308e-05
0.000786343 -4.6071e-06 -5.25246e-08
-4.6071e-06 8.06439e-06 6.1399e-10
-5.25246e-08 6.1399e-10 -2.14673e-05
0.000798309 -3.84753e-05 -1.2302e-06
-3.84753e-05 3.58532e-05 1.37361e-06
-1.2302e-06 1.37361e-06 -1.49586e-05
0.00206201 -1.01523e-06 -4.60127e-07
-1.01523e-06 0.000703 -4.35362e-06
-4.60127e-07 -4.35362e-06 0.000725164
0.000734529 -4.84385e-07 -7.46504e-08
-4.84385e-07 -3.34659e-05 2.02674e-09
-7.46504e-08 2.02674e-09 -3.49228e-05
0.000786411 -1.32847e-06 1.11918e-07
-1.32847e-06 8.19655e-06 1.6709e-06
1.11918e-07 1.6709e-06 -2.11633e-05
0.000735973 5.83437e-06 -1.09989e-07
5.83437e-06 -3.22353e-05 3.35485e-06
-1.09989e-07 3.35485e-06 -3.4166e-05
0.0020738 8.18966e-06 -2.53096e-06
8.18966e-06 0.000709967 -2.24217e-08
-2.53096e-06 -2.24217e-08 0.000731886
0.00209745 1.62809e-05 -1.04346e-05
1.62809e-05 0.000724644 4.2564e-06
-1.04346e-05 4.2564e-06 0.000746013
-0.00140652 8.08858e-05 -4.07371e-05
8.08858e-05 -8.03762e-05 6.92213e-06
-4.07371e-05 6.92213e-06 -0.000518198
-0.000873322 0.000248032 -7.77103e-06
0.000248032 -0.000273643 4.33187e-06
-7.77103e-06 4.33187e-06 -0.000355375
0.00216022 6.16128e-05 -7.01868e-05
6.16128e-05 0.000176329 4.99677e-05
-7.01868e-05 4.99677e-05 -0.000187234
-0.0015336 0.000298528 5.92775e-05
0.000298528 -0.000473647 -2.46693e-05
5.92775e-05 -2.46693e-05 -0.000436623
0.00263501 8.50768e-05 -9.64599e-05
8.50768e-05 0.000407369 1.13769e-05
-9.64599e-05 1.13769e-05 8.3269e-05
0.00206696 -2.03415e-05 4.78308e-05
-2.03415e-05 0.000167181 -5.85021e-06
4.78308e-05 -5.85021e-06 0.000108703
0.001226 -0.00025515 -7.06377e-05
-0.00025515 -0.00065606 -2.40979e-05
-7.06377e-05 -2.40979e-05 -0.00130952
0.00869592 0.000523807 6.42502e-05
0.000523807 0.00422995 -1.60094e-05
6.42502e-05 -1.60094e-05 0.00427459
-0.00335694 0.000698965 -2.94775e-05
0.000698965 -0.00285835 4.81164e-05
-2.94775e-05 4.81164e-05 -0.00122838
0.00144766 1.43244e-05 -6.08258e-06
1.43244e-05 -0.00027167 -2.11912e-06
-6.08258e-06 -2.11912e-06 -0.000488754
0.00175616 0.000169378 1.71731e-05
0.000169378 -6.68348e-05 -1.83761e-05
1.71731e-05 -1.83761e-05 -0.00153316
0.00518223 0.000801905 -1.29615e-05
0.000801905 0.00163192 -1.74535e-05
-1.29615e-05 -1.74535e-05 0.00204723
0.00174103 0.000441397 -9.36899e-06
0.000441397 -0.00113135 2.2268e-05
-9.36899e-06 2.2268e-05 -0.000235965
0.00306581 -0.000124851 -2.25413e-05
-0.000124851 0.000353451 7.45438e-06
-2.25413e-05 7.45438e-06 2.60122e-05
0.00448876 0.000287666 7.18268e-05
0.000287666 0.00140946 -4.76417e-05
7.18268e-05 -4.76417e-05 -0.000239976
-0.00595925 0.00016687 -7.59129e-05
0.00016687 -0.00436558 -2.54172e-05
-7.59129e-05 -2.54172e-05 -0.00408835
0.00136493 0.000284066 -1.97814e-05
0.000284066 -0.00209267 1.93385e-05
-1.97814e-05 1.93385e-05 -0.0010896
0.000902855 -2.05382e-05 1.02955e-06
-2.05382e-05 0.000109136 5.16703e-07
1.02955e-06 5.16703e-07 2.31062e-05
0.000866416 3.54365e-05 -1.49207e-06
3.54365e-05 9.1464e-05 -3.70754e-07
-1.49207e-06 -3.70754e-07 1.0745e-05
0.000812881 1.55857e-05 7.43837e-07
1.55857e-05 5.50992e-05 -9.82725e-08
7.43837e-07 -9.82725e-08 -1.04178e-05
0.000861753 5.49537e-05 1.79908e-06
5.49537e-05 9.36159e-05 1.05086e-06
1.79908e-06 1.05086e-06 1.52211e-05
0.000780082 1.47652e-05 -3.3463e-07
1.47652e-05 4.25348e-05 7.61788e-07
-3.3463e-07 7.61788e-07 -4.37735e-05
0.000907187 4.13878e-05 1.99252e-07
4.13878e-05 0.000112773 5.56379e-07
1.99252e-07 5.56379e-07 3.26872e-05
0.000809049 4.43299e-07 -1.86427e-08
4.43299e-07 5.571e-05 1.10362e-06
-1.86427e-08 1.10362e-06 -2.04322e-05
0.000923761 7.04262e-05 -7.58873e-07
7.04262e-05 0.000120461 6.15837e-07
-7.58873e-07 6.15837e-07 4.21352e-05
0.000899764 3.09305e-05 -2.82181e-07
3.09305e-05 0.000107566 3.11176e-07
-2.82181e-07 3.11176e-07 3.2329e-05
0.000748522 -1.84861e-05 -8.04271e-07
-1.84861e-05 2.41638e-05 -2.82289e-07
-8.04271e-07 -2.82289e-07 -4.75999e-05
-0.00040459 -7.2153e-05 1.15385e-05
-7.2153e-05 -0.00102787 -4.74588e-06
1.15385e-05 -4.74588e-06 -0.0010599
0.00153322 -0.000251285 9.34578e-06
-0.000251285 -9.699e-05 -1.61078e-07
9.34578e-06 -1.61078e-07 -0.000165808
0.000937775 -0.000210769 7.73429e-06
-0.000210769 -2.59874e-05 1.64426e-06
7.73429e-06 1.64426e-06 -0.000170834
0.00124876 -0.000106463 5.89271e-06
-0.000106463 0.000289562 -1.78921e-06
5.89271e-06 -1.78921e-06 0.000111579
0.000904233 -2.1736e-05 9.38926e-07
-2.1736e-05 0.000136266 -1.12349e-06
9.38926e-07 -1.12349e-06 2.21027e-06
0.000798808 -4.15699e-05 -5.4857e-07
-4.15699e-05 5.35663e-05 -4.39863e-07
-5.4857e-07 -4.39863e-07 -3.71021e-05
0.000865773 5.16651e-05 -2.08924e-07
5.16651e-05 8.77327e-05 -2.51912e-07
-2.08924e-07 -2.51912e-07 1.51143e-06
0.000874072 -3.36016e-05 -2.76734e-07
-3.36016e-05 9.12011e-05 3.38019e-07
-2.76734e-07 3.38019e-07 5.4174e-06
0.00137501 -0.000167633 3.59203e-06
-0.000167633 0.000170369 -6.39744e-07
3.59203e-06 -6.39744e-07 5.54321e-05
0.000857049 7.65171e-06 -1.56175e-07
7.65171e-06 7.68651e-05 -2.46971e-07
-1.56175e-07 -2.46971e-07 -1.06736e-05
0.000878178 -2.73937e-05 -1.48413e-07
-2.73937e-05 8.24036e-05 8.42851e-08
-1.48413e-07 8.42851e-08 -1.17063e-05
0.00161111 -0.000221654 -8.54362e-07
-0.000221654 0.000261102 3.95249e-07
-8.54362e-07 3.95249e-07 0.000185756
0.00103391 -3.09735e-05 -3.59009e-06
-3.09735e-05 0.000196236 1.92324e-06
-3.59009e-06 1.92324e-06 4.52938e-05
0.000591479 -0.000238601 -4.55968e-07
-0.000238601 -0.000261367 -1.30767e-05
-4.55968e-07 -1.30767e-05 -0.0002935
0.0015933 -7.69557e-05 -1.13882e-05
-7.69557e-05 0.000536205 9.18762e-06
-1.13882e-05 9.18762e-06 0.000418208
0.000440502 2.15071e-05 -3.36845e-06
2.15071e-05 -0.000166483 7.32232e-06
-3.36845e-06 7.32232e-06 -0.000255917
0.000860554 -3.56055e-06 5.12941e-07
-3.56055e-06 6.52247e-05 8.15165e-07
5.12941e-07 8.15165e-07 -1.54575e-05
0.000834882 2.75732e-05 -4.88645e-07
2.75732e-05 5.52083e-05 6.09646e-07
-4.88645e-07 6.09646e-07 -3.37608e-05
0.00125844 5.83933e-07 -2.67543e-05
5.83933e-07 -0.000109233 -3.43208e-06
-2.67543e-05 -3.43208e-06 -0.000368188
-0.0003101 -1.30216e-05 -2.66113e-05
-1.30216e-05 0.000619893 -1.50354e-06
-2.66113e-05 -1.50354e-06 0.000233099
-0.00610176 -9.88679e-05 -6.84736e-05
-9.88679e-05 -0.00301008 -3.34325e-06
-6.84736e-05 -3.34325e-06 -0.00297607
0.000736947 8.22308e-05 5.76422e-06
8.22308e-05 8.66228e-05 1.90306e-06
5.76422e-06 1.90306e-06 -6.87324e-06
-0.000132984 9.98572e-06 5.98818e-06
9.98572e-06 -0.000279248 3.28555e-06
5.98818e-06 3.28555e-06 -0.000460137
0.00123598 0.000100558 1.56534e-05
0.000100558 0.000158681 -1.21696e-06
1.56534e-05 -1.21696e-06 9.19134e-05
-0.00135756 -6.28382e-05 1.7808e-05
-6.28382e-05 -6.43754e-05 6.68088e-06
1.7808e-05 6.68088e-06 -0.000527343
0.00446337 -0.000400108 -9.97375e-06
-0.000400108 0.00138563 -2.03485e-05
-9.97375e-06 -2.03485e-05 -0.000346463
0.00396421 0.000597485 3.92935e-05
0.000597485 0.000517415 -2.20484e-05
3.92935e-05 -2.20484e-05 -1.86877e-05
0.000130302 8.54054e-05 -5.6011e-06
8.54054e-05 -0.000126064 -1.27466e-07
-5.6011e-06 -1.27466e-07 -7.73599e-05
0.00566587 -0.000647908 3.56599e-05
-0.000647908 0.00151518 1.81364e-05
3.56599e-05 1.81364e-05 0.00159639
0.00230469 -3.26331e-05 4.88593e-05
-3.26331e-05 0.000445956 3.35621e-05
4.88593e-05 3.35621e-05 -1.05391e-05
0.00469351 -0.000278014 2.68008e-05
-0.000278014 0.000425757 1.33135e-05
2.68008e-05 1.33135e-05 0.00146633
0.00101343 0.000104653 2.35698e-06
0.000104653 0.000283998 -1.63571e-06
2.35698e-06 -1.63571e-06 0.000212787
0.00162743 -3.57328e-05 3.37337e-06
-3.57328e-05 0.000178385 -5.79162e-06
3.37337e-06 -5.79162e-06 -0.000108069
0.00168351 3.16701e-07 1.7675e-06
3.16701e-07 0.000134779 5.54945e-06
1.7675e-06 5.54945e-06 -0.00026807
0.000263534 6.56906e-05 -6.83219e-06
6.56906e-05 6.28184e-05 1.10022e-06
-6.83219e-06 1.10022e-06 -4.79099e-05
0.00316244 0.000417508 -1.60079e-05
0.000417508 0.000647906 -2.84024e-05
-1.60079e-05 -2.84024e-05 0.000341839
0.00325182 0.000274395 4.25064e-05
0.000274395 0.000408198 2.02759e-05
4.25064e-05 2.02759e-05 -0.001451
0.00326655 1.92795e-05 -6.6406e-08
1.92795e-05 -0.00119119 -2.03944e-05
-6.6406e-08 -2.03944e-05 0.000103359
0.000383823 -0.000215533 -1.14913e-05
-0.000215533 -0.000861737 1.62876e-05
-1.14913e-05 1.62876e-05 -0.000994464
0.000710987 4.64652e-05 -4.02097e-06
4.64652e-05 0.000219259 -9.12543e-06
-4.02097e-06 -9.12543e-06 0.000171579
0.00126607 -1.64265e-05 -1.19275e-05
-1.64265e-05 0.000131224 -1.34124e-05
-1.19275e-05 -1.34124e-05 2.41664e-05
0.00176021 7.15358e-06 3.27858e-06
7.15358e-06 4.77037e-05 -3.0119e-05
3.27858e-06 -3.0119e-05 -0.000326208
0.00137002 0.000264088 1.83003e-05
0.000264088 -0.00199279 -2.1982e-05
1.83003e-05 -2.1982e-05 -0.00108105
-0.00190693 1.54732e-05 7.00322e-06
1.54732e-05 -0.000926725 -1.31595e-05
7.00322e-06 -1.31595e-05 -0.00119939
0.00899032 0.000164024 8.28097e-05
0.000164024 0.00319471 3.16335e-05
8.28097e-05 3.16335e-05 0.00153264
-0.00344294 -9.65359e-05 1.98106e-05
-9.65359e-05 -0.000950753 -1.279e-05
1.98106e-05 -1.279e-05 -0.00142951
0.00115621 9.05605e-05 5.50948e-06
9.05605e-05 0.000245109 5.48255e-06
5.50948e-06 5.48255e-06 0.000192977
0.000658241 6.04473e-05 -2.49291e-06
6.04473e-05 3.39404e-06 1.40415e-06
-2.49291e-06 1.40415e-06 -4.26319e-05
0.000423798 3.24525e-05 -5.37204e-06
3.24525e-05 -6.43227e-05 -6.88798e-06
-5.37204e-06 -6.88798e-06 -0.000111034
0.000905054 8.3317e-05 -2.17143e-07
8.3317e-05 8.49223e-05 6.13412e-07
-2.17143e-07 6.13412e-07 1.08366e-05
0.000862704 5.45358e-07 -6.05455e-07
5.45358e-07 4.77792e-05 1.4018e-06
-6.05455e-07 1.4018e-06 -1.52401e-05
0.000751733 -3.63913e-05 -2.27931e-06
-3.63913e-05 4.49886e-06 6.22301e-06
-2.27931e-06 6.22301e-06 -4.28032e-05
0.000837239 4.21648e-05 6.77607e-08
4.21648e-05 4.27901e-05 6.07574e-08
6.77607e-08 6.07574e-08 -2.71113e-05
0.000800985 -4.03997e-05 2.1116e-07
-4.03997e-05 1.44237e-05 -9.66794e-07
2.1116e-07 -9.66794e-07 -3.42901e-05
0.000864217 -6.09645e-05 3.24298e-06
-6.09645e-05 8.60166e-05 2.36502e-06
3.24298e-06 2.36502e-06 4.55475e-05
0.000898698 -9.24505e-07 1.02442e-06
-9.24505e-07 0.000117701 -3.22798e-06
1.02442e-06 -3.22798e-06 9.51235e-05
0.000843565 1.15838e-05 -4.92562e-08
1.15838e-05 4.64609e-05 -2.79577e-06
-4.92562e-08 -2.79577e-06 -9.12181e-06
0.000851388 3.72505e-05 -1.26876e-07
3.72505e-05 5.28624e-05 1.20447e-06
-1.26876e-07 1.20447e-06 -1.43795e-05
0.000826318 5.65286e-05 -1.24124e-07
5.65286e-05 6.05178e-05 1.93382e-07
-1.24124e-07 1.93382e-07 -9.57634e-06
0.000861543 5.73344e-05 -9.80614e-07
5.73344e-05 6.87354e-05 8.85871e-07
-9.80614e-07 8.85871e-07 1.84722e-06
0.000846139 3.75903e-05 3.37835e-07
3.75903e-05 5.90095e-05 1.88283e-07
3.37835e-07 1.88283e-07 -3.45471e-06
0.000898962 4.33401e-05 7.05788e-07
4.33401e-05 9.26608e-05 1.97478e-07
7.05788e-07 1.97478e-07 2.36132e-05
0.000707563 -2.45989e-05 1.2656e-06
-2.45989e-05 3.04089e-05 5.96836e-07
1.2656e-06 5.96836e-07 -4.26834e-05
0.000741213 -2.44368e-05 -5.23472e-07
-2.44368e-05 3.17022e-05 -9.98125e-07
-5.23472e-07 -9.98125e-07 -5.12761e-05
0.000717918 -5.50816e-05 2.69256e-06
-5.50816e-05 3.16631e-05 6.53347e-07
2.69256e-06 6.53347e-07 -9.77307e-05
0.00100265 -6.69921e-06 -1.54158e-06
-6.69921e-06 0.00015716 -3.26032e-07
-1.54158e-06 -3.26032e-07 7.3561e-05
0.00100567 -5.91923e-05 -6.44013e-07
-5.91923e-05 0.000181817 8.28388e-07
-6.44013e-07 8.28388e-07 7.3475e-05
0.000561032 -0.000102777 -2.70068e-07
-0.000102777 -6.73759e-05 2.1235e-06
-2.70068e-07 2.1235e-06 -0.000212387
0.000823854 -0.000114581 -3.02192e-06
-0.000114581 7.27284e-05 1.99602e-07
-3.02192e-06 1.99602e-07 -6.73014e-05
0.000943208 -8.67455e-05 -1.05524e-06
-8.67455e-05 0.000149929 1.69635e-06
-1.05524e-06 1.69635e-06 3.85407e-05
0.000826123 -0.000113792 -3.25643e-08
-0.000113792 7.68532e-05 5.72964e-07
-3.25643e-08 5.72964e-07 -5.9326e-05
0.000886739 1.18474e-06 9.83993e-07
1.18474e-06 0.000100272 1.00025e-06
9.83993e-07 1.00025e-06 2.03264e-05
0.000975415 -2.50612e-05 -8.25695e-07
-2.50612e-05 0.000162607 -6.68067e-07
-8.25695e-07 -6.68067e-07 6.45682e-05
0.000734021 -5.7803e-05 4.13594e-07
-5.7803e-05 5.53001e-05 -3.96409e-06
4.13594e-07 -3.96409e-06 -5.47549e-05
0.00106079 3.09621e-05 -1.82218e-06
3.09621e-05 0.000200062 -1.4387e-06
-1.82218e-06 -1.4387e-06 0.00012118
0.000726769 2.49348e-05 1.07466e-07
2.49348e-05 8.77767e-06 -2.23507e-08
1.07466e-07 -2.23507e-08 -6.00304e-05
0.000780938 4.72448e-05 -1.45556e-07
4.72448e-05 2.69298e-05 6.93832e-07
-1.45556e-07 6.93832e-07 -2.7663e-05
0.00085176 -5.26629e-06 5.7323e-08
-5.26629e-06 7.39919e-05 -3.72647e-08
5.7323e-08 -3.72647e-08 8.7432e-06
0.000804616 1.34162e-05 -5.84268e-07
1.34162e-05 3.47602e-05 -6.63809e-08
-5.84268e-07 -6.63809e-08 -1.60042e-05
0.000765691 3.18426e-05 -1.34338e-06
3.18426e-05 6.95768e-06 1.48278e-06
-1.34338e-06 1.48278e-06 -2.68482e-05
0.00082343 -1.79897e-05 1.23086e-06
-1.79897e-05 4.25213e-05 -5.15536e-07
1.23086e-06 -5.15536e-07 -8.31395e-06
0.000774529 2.49732e-05 -1.15666e-07
2.49732e-05 6.27221e-06 6.26466e-09
-1.15666e-07 6.26466e-09 -2.62438e-05
0.00128769 3.43115e-05 -7.43353e-06
3.43115e-05 0.000288635 3.04265e-06
-7.43353e-06 3.04265e-06 0.000285759
0.000776549 1.35705e-05 1.22593e-06
1.35705e-05 3.39734e-06 -1.46762e-06
1.22593e-06 -1.46762e-06 -2.84188e-05
0.00101955 2.63128e-05 -3.61541e-06
2.63128e-05 0.00013449 5.76705e-07
-3.61541e-06 5.76705e-07 0.000131072
0.000876189 2.35073e-05 -1.6163e-06
2.35073e-05 5.83405e-05 1.60321e-06
-1.6163e-06 1.60321e-06 7.16292e-05
0.000714807 1.82013e-05 6.8328e-07
1.82013e-05 -3.84788e-05 -3.1911e-06
6.8328e-07 -3.1911e-06 -4.28067e-05
0.00150363 2.22762e-05 6.06264e-06
2.22762e-05 0.000399868 -1.19705e-06
6.06264e-06 -1.19705e-06 0.000417035
0.00213942 1.7918e-05 8.67351e-06
1.7918e-05 0.00074874 -4.1334e-06
8.67351e-06 -4.1334e-06 0.000769374
0.000667078 7.09843e-07 -3.9708e-07
7.09843e-07 -3.5885e-05 -9.73702e-07
-3.9708e-07 -9.73702e-07 -9.69736e-05
0.000543277 -1.36855e-05 -2.86892e-07
-1.36855e-05 -0.000122239 -2.14186e-06
-2.86892e-07 -2.14186e-06 -0.000156064
0.000894843 -1.03534e-05 -1.65009e-08
-1.03534e-05 8.61827e-05 7.50057e-08
-1.65009e-08 7.50057e-08 3.19766e-05
0.000734067 -1.26985e-05 -3.46232e-07
-1.26985e-05 -3.06147e-05 -3.30827e-06
-3.46232e-07 -3.30827e-06 -3.33961e-05
0.000663466 -9.07698e-06 8.69119e-08
-9.07698e-06 -5.81278e-05 1.06668e-08
8.69119e-08 1.06668e-08 -8.94581e-05
0.000652154 -4.46931e-05 2.42346e-07
-4.46931e-05 -4.34462e-05 8.51032e-07
2.42346e-07 8.51032e-07 -9.73608e-05
0.00207096 -9.48459e-06 -4.82816e-06
-9.48459e-06 0.000709007 -4.31828e-06
-4.82816e-06 -4.31828e-06 0.000730862
0.000732761 -6.47254e-06 -1.79787e-07
-6.47254e-06 -3.36016e-05 -1.86311e-09
-1.79787e-07 -1.86311e-09 -3.53139e-05
0.000791441 -5.51208e-06 8.00676e-08
-5.51208e-06 1.09443e-05 1.6636e-06
8.00676e-08 1.6636e-06 -1.86062e-05
0.00206252 -3.73396e-07 -2.42761e-06
-3.73396e-07 0.000703269 -4.72086e-10
-2.42761e-06 -4.72086e-10 0.00072543
0.000736047 -1.76643e-07 1.4677e-07
-1.76643e-07 -3.26572e-05 3.34331e-06
1.4677e-07 3.34331e-06 -3.41252e-05
0.00207844 8.799e-06 -4.97527e-06
8.799e-06 0.000712715 4.35183e-06
-4.97527e-06 4.35183e-06 0.000734544
0.00111374 2.11906e-05 -4.63925e-05
2.11906e-05 -0.000120412 1.75533e-05
-4.63925e-05 1.75533e-05 -0.000408244
0.00130457 0.000168417 -1.2599e-06
0.000168417 0.00120108 -4.55571e-06
-1.2599e-06 -4.55571e-06 0.00105584
0.000661063 -0.000103656 7.55464e-06
-0.000103656 0.000644421 -1.18354e-05
7.55464e-06 -1.18354e-05 0.000375518
0.000838999 2.32899e-05 -1.18455e-07
2.32899e-05 6.63067e-05 6.60239e-07
-1.18455e-07 6.60239e-07 -9.79112e-06
0.00205489 2.97094e-05 -2.09959e-05
2.97094e-05 0.000392191 3.48528e-05
-2.09959e-05 3.48528e-05 8.25864e-05
0.0021487 4.89419e-05 -1.73273e-05
4.89419e-05 0.000217165 2.69774e-06
-1.73273e-05 2.69774e-06 -0.00021177
0.00156209 0.000381672 6.33995e-05
0.000381672 0.000924978 -4.59247e-05
6.33995e-05 -4.59247e-05 0.00125176
0.00296273 -5.02422e-05 -2.81851e-05
-5.02422e-05 0.000280847 -1.81965e-06
-2.81851e-05 -1.81965e-06 4.59291e-05
0.00956836 0.000478666 2.47045e-05
0.000478666 0.00366024 -2.47012e-05
2.47045e-05 -2.47012e-05 0.00240029
-0.00255721 0.000434589 1.74315e-05
0.000434589 -0.00226513 4.7762e-06
1.74315e-05 4.7762e-06 -0.0017264
0.00306292 0.000476749 3.49507e-05
0.000476749 -0.000391461 -1.79744e-05
3.49507e-05 -1.79744e-05 0.000543642
0.00282055 -0.000200602 -4.57446e-05
-0.000200602 -6.69021e-05 1.90559e-06
-4.57446e-05 1.90559e-06 -0.000625078
0.00715427 0.000311842 2.34076e-05
0.000311842 0.00268087 -1.09418e-05
2.34076e-05 -1.09418e-05 0.00124676
0.00503947 0.000548657 1.00967e-06
0.000548657 0.000641877 -1.3523e-05
1.00967e-06 -1.3523e-05 0.000851713
0.0031 0.000293815 -9.1019e-06
0.000293815 -0.00111883 1.87714e-06
-9.1019e-06 1.87714e-06 -0.000130371
0.00393688 -0.000425209 7.61541e-06
-0.000425209 0.000477627 -1.8981e-05
7.61541e-06 -1.8981e-05 -0.000303149
0.00749008 0.000109764 3.70236e-05
0.000109764 0.00316283 3.90706e-06
3.70236e-05 3.90706e-06 0.00108078
0.00138198 0.000129893 -8.12924e-07
0.000129893 -0.000710889 1.29919e-05
-8.12924e-07 1.29919e-05 -0.000740944
0.00465908 5.4722e-05 -2.48394e-06
5.4722e-05 -0.00017358 2.55267e-05
-2.48394e-06 2.55267e-05 0.000982068
0.000886436 -2.73987e-05 4.26564e-07
-2.73987e-05 9.36599e-05 6.84656e-07
4.26564e-07 6.84656e-07 6.65932e-06
0.000863396 -3.77266e-05 4.77564e-07
-3.77266e-05 9.05705e-05 3.52506e-08
4.77564e-07 3.52506e-08 2.71406e-06
0.000898254 5.2731e-05 -1.07786e-06
5.2731e-05 0.000110741 -1.37872e-07
-1.07786e-06 -1.37872e-07 2.97178e-05
0.000842133 -1.57397e-05 -4.66943e-07
-1.57397e-05 6.45777e-05 4.75421e-07
-4.66943e-07 4.75421e-07 -1.39277e-05
0.000880134 4.63724e-05 -5.91011e-07
4.63724e-05 9.71672e-05 3.33848e-07
-5.91011e-07 3.33848e-07 1.1796e-05
0.00091704 2.53365e-05 7.26813e-07
2.53365e-05 0.000119463 8.01964e-07
7.26813e-07 8.01964e-07 3.9252e-05
0.000968098 6.3753e-05 -5.81536e-07
6.3753e-05 0.000142899 1.00775e-07
-5.81536e-07 1.00775e-07 6.56497e-05
0.00100704 7.13858e-05 9.3674e-07
7.13858e-05 0.000169969 8.80682e-07
9.3674e-07 8.80682e-07 9.25557e-05
-0.00020207 -9.34328e-05 1.8208e-05
-9.34328e-05 -0.000668795 -6.30392e-06
1.8208e-05 -6.30392e-06 -0.000717522
0.00144745 -0.00021602 6.94749e-06
-0.00021602 0.000169063 -3.24862e-06
6.94749e-06 -3.24862e-06 0.000103404
0.000860841 -0.000111725 -1.87367e-06
-0.000111725 9.21951e-05 -3.57354e-07
-1.87367e-06 -3.57354e-07 7.6721e-07
0.00183733 -5.66093e-05 3.98055e-06
-5.66093e-05 0.000600861 -3.35754e-06
3.98055e-06 -3.35754e-06 0.000457061
0.000789944 -3.92665e-05 -2.59455e-07
-3.92665e-05 3.79684e-05 -7.32625e-07
-2.59455e-07 -7.32625e-07 -5.97978e-05
0.000964676 -2.60021e-05 -1.07101e-06
-2.60021e-05 0.000131155 -9.02104e-08
-1.07101e-06 -9.02104e-08 4.70585e-05
0.000928258 9.00518e-06 4.29953e-08
9.00518e-06 0.000108324 -2.75007e-07
4.29953e-08 -2.75007e-07 2.43443e-05
0.000663968 -0.000251898 -4.7219e-06
-0.000251898 -0.000244456 3.70202e-08
-4.7219e-06 3.70202e-08 -0.000295235
0.000878971 2.47013e-05 6.11052e-08
2.47013e-05 8.50917e-05 -3.01976e-07
6.11052e-08 -3.01976e-07 -5.5041e-06
0.000997922 -2.34757e-05 9.42644e-08
-2.34757e-05 0.00012496 4.52335e-07
9.42644e-08 4.52335e-07 3.07016e-05
0.000574501 -6.85957e-05 7.30518e-07
-6.85957e-05 -1.6699e-05 3.08417e-06
7.30518e-07 3.08417e-06 -0.000111865
0.00102967 -2.05133e-05 3.16273e-07
-2.05133e-05 0.000150063 9.8536e-07
3.16273e-07 9.8536e-07 7.60605e-05
6.04114e-05 -0.000262572 3.91703e-05
-0.000262572 -0.000420884 -2.39053e-05
3.91703e-05 -2.39053e-05 -0.000398472
0.00125058 -3.35651e-05 -1.05743e-05
-3.35651e-05 0.000519818 1.4502e-05
-1.05743e-05 1.4502e-05 0.000397881
0.000515503 6.37867e-06 -1.22843e-06
6.37867e-06 -0.000133452 3.90493e-06
-1.22843e-06 3.90493e-06 -0.000206876
0.000890675 9.19882e-05 1.56946e-06
9.19882e-05 8.71228e-05 1.46884e-06
1.56946e-06 1.46884e-06 7.16905e-06
0.00141667 -3.9239e-06 -1.28612e-05
-3.9239e-06 0.000246057 3.69667e-07
-1.28612e-05 3.69667e-07 0.000176882
0.00112965 -1.19297e-05 2.51594e-05
-1.19297e-05 -0.000138851 -1.99768e-06
2.51594e-05 -1.99768e-06 -0.000397588
-0.00154709 -2.71643e-05 1.56972e-05
-2.71643e-05 3.41679e-05 9.59676e-07
1.56972e-05 9.59676e-07 -0.000463292
0.000645597 7.96999e-05 9.96186e-06
7.96999e-05 9.92314e-05 1.99702e-06
9.96186e-06 1.99702e-06 2.83787e-05
0.000571138 0.000129963 2.01796e-05
0.000129963 0.000237485 9.97686e-06
2.01796e-05 9.97686e-06 0.000114213
0.00173601 -3.16602e-05 4.46209e-05
-3.16602e-05 0.000310474 1.03533e-05
4.46209e-05 1.03533e-05 6.4316e-05
0.00749029 -0.000443479 6.27752e-05
-0.000443479 0.002771 2.89074e-05
6.27752e-05 2.89074e-05 0.00100652
0.00229902 0.000413133 -6.72457e-05
0.000413133 0.000245905 -7.78463e-05
-6.72457e-05 -7.78463e-05 -0.000456865
0.00350449 -0.000284966 2.2359e-05
-0.000284966 0.000341834 2.99304e-05
2.2359e-05 2.99304e-05 0.000113253
0.00178902 5.20915e-06 1.69635e-05
5.20915e-06 0.000117728 4.28604e-05
1.69635e-05 4.28604e-05 -0.000296048
0.00196219 1.00071e-05 2.20154e-06
1.00071e-05 -0.00225845 -6.71203e-06
2.20154e-06 -6.71203e-06 -0.000826251
0.000731121 7.74817e-05 1.2229e-06
7.74817e-05 0.000222946 -8.55714e-08
1.2229e-06 -8.55714e-08 0.000164981
0.00122726 -1.4105e-05 -8.30436e-07
-1.4105e-05 8.77762e-05 -4.3825e-06
-8.30436e-07 -4.3825e-06 -1.15105e-05
0.00184157 8.63317e-06 7.19841e-06
8.63317e-06 0.000204587 2.91846e-06
7.19841e-06 2.91846e-06 -0.00011074
-0.000622313 7.91153e-05 -1.19753e-05
7.91153e-05 -0.000233902 -3.54021e-06
-1.19753e-05 -3.54021e-06 -0.00042318
0.0030701 0.000279622 6.22514e-06
0.000279622 -0.00106962 -2.1308e-06
6.22514e-06 -2.1308e-06 -0.000137309
0.00532096 0.000524891 4.32024e-05
0.000524891 0.00140466 5.63234e-06
4.32024e-05 5.63234e-06 -0.000287392
0.00281332 0.000133673 -5.01451e-05
0.000133673 0.000995215 -4.79706e-06
-5.01451e-05 -4.79706e-06 0.000633809
0.000101319 7.14933e-05 -8.59858e-06
7.14933e-05 1.96367e-05 -1.16591e-05
-8.59858e-06 -1.16591e-05 -8.45901e-05
0.00119618 2.08055e-06 -8.67081e-07
2.08055e-06 0.000128526 -1.20884e-05
-8.67081e-07 -1.20884e-05 3.54395e-05
0.00208412 2.39171e-05 2.02009e-05
2.39171e-05 0.000389326 -3.4567e-05
2.02009e-05 -3.4567e-05 9.36124e-05
0.00354317 0.000433973 5.18605e-05
0.000433973 6.92789e-06 -3.342e-05
5.18605e-05 -3.342e-05 0.000794405
0.00249103 0.000194408 -1.17863e-05
0.000194408 -0.000291169 -1.38107e-05
-1.17863e-05 -1.38107e-05 -0.000217743
0.00216715 0.000284294 1.40696e-05
0.000284294 0.000283449 -1.73898e-05
1.40696e-05 -1.73898e-05 0.0003689
0.00231965 -5.52516e-05 0.000101836
-5.52516e-05 0.00105863 2.94605e-05
0.000101836 2.94605e-05 -0.00124633
0.000618156 7.70774e-05 2.42819e-06
7.70774e-05 -1.89296e-05 5.83879e-06
2.42819e-06 5.83879e-06 -6.8312e-05
0.000647826 1.29779e-05 4.66054e-06
1.29779e-05 5.49505e-05 1.02441e-06
4.66054e-06 1.02441e-06 1.05238e-05
0.000579674 -2.15128e-05 1.01533e-05
-2.15128e-05 0.000193572 -1.0508e-05
1.01533e-05 -1.0508e-05 0.000129761
0.000865244 2.04782e-05 -3.70804e-07
2.04782e-05 5.37628e-05 1.27595e-06
-3.70804e-07 1.27595e-06 -1.30089e-05
0.000705878 -3.93258e-05 -1.15162e-06
-3.93258e-05 -3.74126e-05 2.93074e-06
-1.15162e-06 2.93074e-06 -8.57644e-05
0.000957046 -6.66559e-05 -2.91111e-06
-6.66559e-05 0.000123946 6.14716e-06
-2.91111e-06 6.14716e-06 7.77895e-05
0.000857691 -2.11998e-06 -1.89346e-07
-2.11998e-06 5.66088e-05 -3.26373e-07
-1.89346e-07 -3.26373e-07 2.7837e-08
0.000633925 -9.33805e-06 -2.36302e-06
-9.33805e-06 -3.56577e-05 2.87938e-06
-2.36302e-06 2.87938e-06 -5.42725e-05
0.000426024 -6.78377e-05 2.66109e-06
-6.78377e-05 -3.16654e-05 -3.31544e-06
2.66109e-06 -3.31544e-06 -0.000138566
0.00087756 3.0878e-05 1.99826e-07
3.0878e-05 7.44112e-05 1.32205e-06
1.99826e-07 1.32205e-06 1.18049e-05
0.000909323 5.48092e-05 -3.29313e-07
5.48092e-05 9.90125e-05 1.06497e-06
-3.29313e-07 1.06497e-06 2.98655e-05
0.00107875 -3.28045e-05 7.52381e-07
-3.28045e-05 0.000221009 5.90336e-07
7.52381e-07 5.90336e-07 0.000143221
0.000472195 -4.05681e-05 3.69746e-06
-4.05681e-05 -2.39619e-05 1.39124e-06
3.69746e-06 1.39124e-06 -0.000178637
0.000658399 4.0713e-07 -4.27598e-06
4.0713e-07 -5.4808e-06 -6.0805e-07
-4.27598e-06 -6.0805e-07 -8.40962e-05
0.000460916 -5.35806e-05 5.60826e-07
-5.35806e-05 -0.000100533 -2.99649e-07
5.60826e-07 -2.99649e-07 -0.000221924
0.0010651 -0.000142999 2.67148e-06
-0.000142999 0.000211471 6.83013e-08
2.67148e-06 6.83013e-08 3.42778e-05
0.00113189 -0.000147875 -2.2409e-06
-0.000147875 0.000173685 3.55582e-06
-2.2409e-06 3.55582e-06 2.43839e-06
0.00131572 -8.07993e-05 -1.68512e-06
-8.07993e-05 0.000340745 -8.89643e-07
-1.68512e-06 -8.89643e-07 0.000230306
0.000740607 -0.00011473 -3.63103e-07
-0.00011473 2.12026e-05 1.03443e-07
-3.63103e-07 1.03443e-07 -0.000126246
0.00135897 -0.000150462 5.45054e-07
-0.000150462 0.000352383 -6.30958e-07
5.45054e-07 -6.30958e-07 0.000211583
0.000531501 -8.26831e-05 -1.31643e-06
-8.26831e-05 -6.13847e-05 1.67188e-07
-1.31643e-06 1.67188e-07 -0.000183416
0.000905616 -0.000119499 1.96975e-07
-0.000119499 0.00011515 1.75002e-07
1.96975e-07 1.75002e-07 -2.25537e-05
0.000894721 -5.71095e-06 -3.47471e-07
-5.71095e-06 0.000108122 6.90082e-07
-3.47471e-07 6.90082e-07 2.04053e-05
0.00100934 -8.53246e-05 -1.48677e-06
-8.53246e-05 0.000183524 1.3275e-06
-1.48677e-06 1.3275e-06 7.1823e-05
0.000626588 -0.00010049 -4.70073e-07
-0.00010049 -2.8216e-05 -8.88209e-07
-4.70073e-07 -8.88209e-07 -0.000162829
0.000793982 4.70085e-05 1.88478e-07
4.70085e-05 3.91468e-05 9.24518e-07
1.88478e-07 9.24518e-07 -2.22306e-05
0.00076277 1.23505e-06 7.3118e-07
1.23505e-06 3.37281e-05 -5.45224e-09
7.3118e-07 -5.45224e-09 -4.64092e-05
0.000860783 -3.0137e-05 7.14257e-07
-3.0137e-05 0.000101271 -2.31839e-06
7.14257e-07 -2.31839e-06 1.27772e-06
0.000839985 1.66958e-05 -8.94598e-08
1.66958e-05 6.95791e-05 -6.86206e-07
-8.94598e-08 -6.86206e-07 1.98537e-06
0.000801296 2.43094e-05 -4.59547e-07
2.43094e-05 3.66814e-05 -1.54824e-07
-4.59547e-07 -1.54824e-07 -1.72888e-05
0.000757226 3.93493e-05 -1.32854e-06
3.93493e-05 8.9907e-06 1.40252e-06
-1.32854e-06 1.40252e-06 -2.71248e-05
0.000815994 -7.15272e-06 8.56112e-07
-7.15272e-06 4.13788e-05 -7.06598e-07
8.56112e-07 -7.06598e-07 -9.68777e-06
0.00076722 3.25513e-05 -7.23153e-08
3.25513e-05 7.56806e-06 -4.13197e-09
-7.23153e-08 -4.13197e-09 -2.62521e-05
0.000689746 3.44675e-05 -1.26258e-06
3.44675e-05 -3.46727e-05 3.26367e-06
-1.26258e-06 3.26367e-06 -4.22442e-05
0.000776117 2.31588e-05 1.18487e-06
2.31588e-05 6.42837e-06 -1.47122e-06
1.18487e-06 -1.47122e-06 -2.58889e-05
0.000709173 2.96431e-05 1.23222e-07
2.96431e-05 -3.12352e-05 2.06381e-08
1.23222e-07 2.06381e-08 -3.72181e-05
0.00201908 4.52344e-05 -4.7533e-06
4.52344e-05 0.000696637 1.54719e-06
-4.7533e-06 1.54719e-06 0.000714379
0.000713744 2.41285e-05 8.89103e-07
2.41285e-05 -3.4861e-05 -3.19709e-06
8.89103e-07 -3.19709e-06 -3.97555e-05
0.00148627 2.93624e-05 7.36498e-06
2.93624e-05 0.00039518 -1.10326e-06
7.36498e-06 -1.10326e-06 0.000411514
0.00211957 2.63721e-05 1.23016e-05
2.63721e-05 0.000741496 -3.97562e-06
1.23016e-05 -3.97562e-06 0.000761534
0.000696074 -1.93955e-05 -1.78499e-07
-1.93955e-05 -2.79421e-05 -6.24425e-07
-1.78499e-07 -6.24425e-07 -8.65477e-05
0.000521606 -1.74412e-05 -3.14148e-07
-1.74412e-05 -0.000132586 -2.06399e-06
-3.14148e-07 -2.06399e-06 -0.000168959
0.000784513 -8.43219e-09 -3.27751e-07
-8.43219e-09 2.71733e-05 -5.18002e-07
-3.27751e-07 -5.18002e-07 -3.26013e-05
0.000728616 -1.86607e-05 -3.90652e-07
-1.86607e-05 -3.00263e-05 -3.32699e-06
-3.90652e-07 -3.32699e-06 -3.44907e-05
0.000534258 -1.38423e-05 1.73462e-08
-1.38423e-05 -0.000127165 -6.27014e-07
1.73462e-08 -6.27014e-07 -0.000161259
0.000913058 6.82052e-07 -1.24327e-07
6.82052e-07 9.96101e-05 6.84003e-07
-1.24327e-07 6.84003e-07 4.28332e-05
0.00209666 -1.81121e-05 -8.61542e-06
-1.81121e-05 0.000725577 -4.26739e-06
-8.61542e-06 -4.26739e-06 0.000746634
0.00072833 -1.2388e-05 -1.06912e-07
-1.2388e-05 -3.37827e-05 -1.07468e-08
-1.06912e-07 -1.07468e-08 -3.65082e-05
0.000540582 -9.23367e-06 2.09265e-07
-9.23367e-06 -0.000124846 1.5772e-06
2.09265e-07 1.5772e-06 -0.000157151
0.00206556 -8.89367e-06 -2.6032e-06
-8.89367e-06 0.000705832 2.28549e-08
-2.6032e-06 2.28549e-08 0.000727772
0.000730995 -6.19393e-06 1.88347e-07
-6.19393e-06 -3.45807e-05 3.32587e-06
1.88347e-07 3.32587e-06 -3.62734e-05
0.00205993 2.70346e-07 -6.00057e-07
2.70346e-07 0.000701833 4.36544e-06
-6.00057e-07 4.36544e-06 0.000723995
0.00121089 1.99831e-05 -1.38555e-05
1.99831e-05 5.81429e-05 1.3156e-05
-1.38555e-05 1.3156e-05 -4.27553e-05
0.00134461 2.63938e-05 5.84224e-06
2.63938e-05 2.13301e-05 -1.95688e-06
5.84224e-06 -1.95688e-06 -0.000265803
0.0012096 0.00013291 4.73022e-05
0.00013291 0.00124677 -1.71606e-05
4.73022e-05 -1.71606e-05 0.00106497
0.000861297 2.15934e-05 1.87534e-07
2.15934e-05 7.5568e-05 4.25781e-08
1.87534e-07 4.25781e-08 2.23242e-06
0.000780443 -1.0708e-05 -1.21642e-08
-1.0708e-05 2.81845e-05 3.55315e-07
-1.21642e-08 3.55315e-07 -4.33324e-05
0.000923386 3.58236e-05 -4.3656e-07
3.58236e-05 0.000112073 1.13592e-06
-4.3656e-07 1.13592e-06 3.3841e-05
0.00175635 1.75202e-05 2.61317e-06
1.75202e-05 7.59837e-05 5.22983e-05
2.61317e-06 5.22983e-05 -0.000316778
0.00207595 3.30029e-05 -6.34206e-06
3.30029e-05 0.000404043 2.11571e-06
-6.34206e-06 2.11571e-06 8.88415e-05
0.00227407 3.97108e-05 3.73142e-05
3.97108e-05 0.000327187 -4.01475e-05
3.73142e-05 -4.01475e-05 -0.000150226
0.00423683 -0.000227105 -5.88941e-05
-0.000227105 0.000760413 4.87035e-06
-5.88941e-05 4.87035e-06 0.000244863
-0.000444406 4.31879e-05 -3.26095e-05
4.31879e-05 -0.000710013 1.6486e-05
-3.26095e-05 1.6486e-05 -0.00237253
0.00447417 0.00060256 6.14388e-05
0.00060256 0.000950385 -1.8085e-05
6.14388e-05 -1.8085e-05 0.000990498
0.00147813 0.000215617 1.09416e-05
0.000215617 -0.00214889 -2.69892e-05
1.09416e-05 -2.69892e-05 -0.00110622
0.00439589 -0.000499311 -9.4799e-06
-0.000499311 0.000993974 3.08381e-06
-9.4799e-06 3.08381e-06 0.000476733
0.00609233 5.34989e-05 1.40976e-05
5.34989e-05 0.00218578 -9.53054e-06
1.40976e-05 -9.53054e-06 0.000482828
0.000136128 0.000105346 -1.06025e-05
0.000105346 -0.000711726 -7.13625e-06
-1.06025e-05 -7.13625e-06 -0.000857396
0.00330569 2.939e-05 -4.60465e-06
2.939e-05 -0.00118897 2.76272e-06
-4.60465e-06 2.76272e-06 7.84119e-05
0.00221096 -0.000457181 -2.87515e-05
-0.000457181 -0.000235745 -4.02719e-05
-2.87515e-05 -4.02719e-05 -0.000739311
0.00892876 -0.000276717 6.74871e-05
-0.000276717 0.00380966 4.91932e-06
6.74871e-05 4.91932e-06 0.00171337
-0.00342866 8.13861e-05 2.5298e-05
8.13861e-05 -0.00103057 -2.66309e-06
2.5298e-05 -2.66309e-06 -0.00150355
0.00154681 -0.00022797 5.97382e-06
-0.00022797 -0.00175057 2.0471e-06
5.97382e-06 2.0471e-06 -0.00073061
0.000880717 9.47665e-07 -1.24916e-07
9.47665e-07 8.29823e-05 1.25045e-06
-1.24916e-07 1.25045e-06 -3.09222e-08
0.000862712 -1.58637e-05 2.02558e-07
-1.58637e-05 8.36326e-05 -3.89264e-08
2.02558e-07 -3.89264e-08 -5.59357e-06
0.000833492 -4.71433e-05 -1.28712e-07
-4.71433e-05 7.55372e-05 -4.5481e-07
-1.28712e-07 -4.5481e-07 -1.3157e-05
0.000857723 8.54596e-06 -2.97044e-07
8.54596e-06 7.32179e-05 -2.37213e-07
-2.97044e-07 -2.37213e-07 -5.88826e-06
0.000981492 8.41129e-05 1.39268e-06
8.41129e-05 0.000151717 -1.33177e-07
1.39268e-06 -1.33177e-07 6.7756e-05
0.00101691 7.23309e-05 -3.70469e-08
7.23309e-05 0.000170681 -4.89808e-08
-3.70469e-08 -4.89808e-08 9.23844e-05
0.00111849 -0.000275831 -1.48823e-06
-0.000275831 -2.17453e-05 6.39773e-06
-1.48823e-06 6.39773e-06 -9.843e-05
-0.000693345 -5.19344e-05 8.02726e-06
-5.19344e-05 -0.000684935 -4.80201e-06
8.02726e-06 -4.80201e-06 -0.000762229
0.00101167 4.37671e-05 -5.07544e-07
4.37671e-05 0.000160857 -7.57491e-07
-5.07544e-07 -7.57491e-07 7.32295e-05
0.00138682 -7.07244e-05 6.89401e-06
-7.07244e-05 0.00032316 -8.8082e-06
6.89401e-06 -8.8082e-06 0.000224849
0.00102271 1.6142e-05 -2.10518e-07
1.6142e-05 0.00016399 -1.55732e-06
-2.10518e-07 -1.55732e-06 7.49609e-05
0.000922928 -8.95637e-06 5.53733e-08
-8.95637e-06 9.17783e-05 -3.73597e-07
5.53733e-08 -3.73597e-07 1.53744e-05
0.000971422 5.00449e-05 4.06021e-07
5.00449e-05 0.000128694 -2.70946e-07
4.06021e-07 -2.70946e-07 5.30237e-05
0.000669689 -0.000253024 -9.67764e-06
-0.000253024 -0.000124631 -1.37327e-06
-9.67764e-06 -1.37327e-06 -0.00013798
0.000921048 -1.87444e-05 8.06683e-07
-1.87444e-05 9.19585e-05 -1.57565e-06
8.06683e-07 -1.57565e-06 2.06929e-05
0.000688515 -1.48716e-05 4.96842e-06
-1.48716e-05 0.000235516 -1.69769e-06
4.96842e-06 -1.69769e-06 0.000123047
0.000978143 1.42715e-05 2.12964e-06
1.42715e-05 0.000130672 1.2994e-06
2.12964e-06 1.2994e-06 6.07339e-05
-0.00177239 -3.70017e-05 1.09242e-05
-3.70017e-05 -0.000869685 -2.51082e-05
1.09242e-05 -2.51082e-05 -0.00113356
0.00147187 7.95772e-06 1.16017e-05
7.95772e-06 0.000611875 1.88156e-05
1.16017e-05 1.88156e-05 0.000578293
0.00110046 -1.77928e-05 6.13585e-07
-1.77928e-05 0.000199463 4.37207e-06
6.13585e-07 4.37207e-06 0.000143826
0.00133434 -3.73391e-06 -3.887e-07
-3.73391e-06 0.000311127 3.01498e-07
-3.887e-07 3.01498e-07 0.000270393
0.00101435 -2.31186e-06 -5.05325e-06
-2.31186e-06 3.74304e-05 -1.20256e-06
-5.05325e-06 -1.20256e-06 -2.2261e-05
0.0010191 -2.32175e-05 7.86159e-05
-2.32175e-05 -0.000158101 -1.04979e-06
7.86159e-05 -1.04979e-06 -0.0004174
0.00109208 0.000115388 1.41159e-05
0.000115388 0.000400709 1.01749e-05
1.41159e-05 1.01749e-05 0.00033417
0.00324525 0.000305584 4.35771e-06
0.000305584 0.00136471 -1.40295e-05
4.35771e-06 -1.40295e-05 0.00125459
0.00121269 -1.28719e-05 8.35806e-06
-1.28719e-05 6.02272e-05 4.69102e-06
8.35806e-06 4.69102e-06 -3.1001e-05
0.001085 0.000225807 -1.53913e-05
0.000225807 -0.000219795 -1.38577e-06
-1.53913e-05 -1.38577e-06 -0.00186989
-0.0061497 1.96258e-05 -2.65557e-05
1.96258e-05 -0.00316834 1.35042e-05
-2.65557e-05 1.35042e-05 -0.00373794
0.00195546 1.26967e-05 7.24068e-06
1.26967e-05 0.000381165 2.8224e-05
7.24068e-06 2.8224e-05 0.000133079
0.00152437 0.000209417 -9.55667e-06
0.000209417 -0.00207742 2.70463e-05
-9.55667e-06 2.70463e-05 -0.00106183
0.000335905 5.58288e-05 -2.50984e-06
5.58288e-05 0.000133494 -2.14918e-06
-2.50984e-06 -2.14918e-06 4.82849e-05
0.00105854 -7.51013e-07 1.48401e-06
-7.51013e-07 7.4621e-05 -4.77068e-06
1.48401e-06 -4.77068e-06 -5.48612e-06
0.00209673 2.54164e-05 5.99079e-06
2.54164e-05 0.000398565 -1.8982e-06
5.99079e-06 -1.8982e-06 9.37665e-05
0.00167267 0.000279587 4.795e-05
0.000279587 -0.000118822 1.80949e-07
4.795e-05 1.80949e-07 -0.000203256
0.00182748 0.000430197 7.65216e-06
0.000430197 -0.00102747 -1.93657e-05
7.65216e-06 -1.93657e-05 -0.000215458
0.00015966 0.000107534 1.16071e-05
0.000107534 -0.000940335 3.88373e-06
1.16071e-05 3.88373e-06 -0.000909215
0.00681228 0.000146631 4.52632e-05
0.000146631 0.00322107 -1.60703e-05
4.52632e-05 -1.60703e-05 0.000693805
-2.63447e-05 4.5847e-06 -1.52024e-05
4.5847e-06 0.000147579 -1.20187e-05
-1.52024e-05 -1.20187e-05 -4.32945e-05
0.00114619 1.64156e-05 1.32303e-05
1.64156e-05 9.64147e-06 -1.2122e-05
1.32303e-05 -1.2122e-05 -8.98658e-05
0.00216415 5.79914e-05 6.95594e-05
5.79914e-05 0.000156588 -4.82674e-05
6.95594e-05 -4.82674e-05 -0.000212611
0.00219959 0.000631345 1.2211e-05
0.000631345 0.000577992 -7.16519e-06
1.2211e-05 -7.16519e-06 0.00156834
-0.0060277 0.000159057 6.30915e-05
0.000159057 -0.00426148 2.85474e-05
6.30915e-05 2.85474e-05 -0.00403596
0.0082998 -3.29012e-05 3.34788e-05
-3.29012e-05 0.00334067 -4.93472e-05
3.34788e-05 -4.93472e-05 0.00115331
0.00431864 -0.000210835 -5.22177e-05
-0.000210835 0.000894678 0.000116659
-5.22177e-05 0.000116659 0.00100407
0.00104011 -1.69621e-06 -2.33381e-06
-1.69621e-06 0.000270852 7.01177e-06
-2.33381e-06 7.01177e-06 0.000227532
7.79401e-05 -1.44671e-05 2.04352e-06
-1.44671e-05 -6.52289e-05 -8.76446e-07
2.04352e-06 -8.76446e-07 -0.000148064
2.679e-05 -9.2478e-05 6.94035e-06
-9.2478e-05 -3.76749e-05 -9.31822e-06
6.94035e-06 -9.31822e-06 -0.000198979
0.000861723 -1.58492e-05 8.5855e-09
-1.58492e-05 6.39565e-05 1.2038e-06
8.5855e-09 1.2038e-06 4.74003e-06
0.000388978 -1.47486e-05 2.01006e-07
-1.47486e-05 -0.000178174 9.33548e-06
2.01006e-07 9.33548e-06 -0.000193495
0.000585499 -1.71854e-05 1.02881e-07
-1.71854e-05 4.97468e-05 2.76648e-08
1.02881e-07 2.76648e-08 -4.30385e-05
0.000839065 -0.000114619 1.12969e-05
-0.000114619 0.000266024 -6.03247e-06
1.12969e-05 -6.03247e-06 5.69055e-05
0.00150451 -4.69342e-05 -1.4108e-06
-4.69342e-05 0.000440305 1.22951e-06
-1.4108e-06 1.22951e-06 0.000358227
0.00122189 -0.000115281 9.25974e-07
-0.000115281 0.000346873 5.47736e-07
9.25974e-07 5.47736e-07 0.000188547
0.00101949 -0.000147753 4.52067e-06
-0.000147753 0.000234706 2.72556e-06
4.52067e-06 2.72556e-06 -1.22194e-05
0.000183652 -4.84819e-05 -1.63752e-06
-4.84819e-05 -0.00024438 -1.53591e-06
-1.63752e-06 -1.53591e-06 -0.000357087
0.00104674 -0.000139334 -2.3761e-07
-0.000139334 0.00019965 6.73479e-07
-2.3761e-07 6.73479e-07 1.63903e-05
0.00189504 -0.000212893 7.32928e-07
-0.000212893 0.000568937 2.04791e-06
7.32928e-07 2.04791e-06 0.000351656
0.0017554 -0.000205193 -3.25721e-06
-0.000205193 0.000416715 2.04264e-06
-3.25721e-06 2.04264e-06 0.000223282
0.000651249 -0.000114705 -4.55876e-07
-0.000114705 -6.42183e-05 4.05906e-06
-4.55876e-07 4.05906e-06 -0.000216326
0.00111684 -0.00014757 -1.59302e-06
-0.00014757 0.000165154 1.16964e-06
-1.59302e-06 1.16964e-06 -7.70118e-06
0.000910942 -0.000126008 -2.0274e-06
-0.000126008 0.000105501 -1.47055e-07
-2.0274e-06 -1.47055e-07 -4.4669e-05
0.00127752 -0.000142677 1.85625e-06
-0.000142677 0.000314008 -1.51675e-06
1.85625e-06 -1.51675e-06 0.000183101
0.00106145 -0.00013044 1.95329e-06
-0.00013044 0.00019877 -1.5274e-06
1.95329e-06 -1.5274e-06 6.3241e-05
0.000653063 -3.42715e-05 5.08632e-07
-3.42715e-05 -1.07637e-05 1.19729e-06
5.08632e-07 1.19729e-06 -0.00011487
0.00080969 -9.30346e-05 8.18801e-07
-9.30346e-05 8.61695e-05 -3.41209e-07
8.18801e-07 -3.41209e-07 -3.53469e-05
0.000979697 -0.000123796 3.99374e-06
-0.000123796 0.000153454 -2.72856e-06
3.99374e-06 -2.72856e-06 1.80897e-05
0.000800132 4.97196e-05 4.29495e-07
4.97196e-05 4.93003e-05 1.29483e-06
4.29495e-07 1.29483e-06 -2.30531e-05
0.000901813 -2.4234e-05 -2.05571e-07
-2.4234e-05 0.000113488 5.54178e-08
-2.05571e-07 5.54178e-08 2.38669e-05
0.00106454 -8.2774e-05 -1.28718e-07
-8.2774e-05 0.000211032 -1.79059e-07
-1.28718e-07 -1.79059e-07 9.93694e-05
0.000733841 4.81597e-05 -9.76318e-07
4.81597e-05 4.2354e-06 1.49786e-06
-9.76318e-07 1.49786e-06 -3.63508e-05
0.000802604 2.83546e-05 -4.40303e-07
2.83546e-05 4.26086e-05 -2.38491e-07
-4.40303e-07 -2.38491e-07 -1.81934e-05
0.000643541 1.03181e-06 1.1243e-07
1.03181e-06 -3.02432e-05 -9.12332e-07
1.1243e-07 -9.12332e-07 -0.000110611
0.000822827 3.85089e-06 7.11186e-07
3.85089e-06 4.74539e-05 -9.86091e-07
7.11186e-07 -9.86091e-07 -6.17526e-06
0.00075847 4.18635e-05 -8.46853e-08
4.18635e-05 9.99038e-06 -2.95572e-08
-8.46853e-08 -2.95572e-08 -2.6444e-05
0.000673091 3.95759e-05 -1.5054e-06
3.95759e-05 -3.51762e-05 3.26349e-06
-1.5054e-06 3.26349e-06 -4.50282e-05
0.000771343 3.35098e-05 1.11373e-06
3.35098e-05 9.63018e-06 -1.53522e-06
1.11373e-06 -1.53522e-06 -2.4224e-05
0.000701487 3.51424e-05 8.17074e-08
3.51424e-05 -2.83831e-05 4.38399e-09
8.17074e-08 4.38399e-09 -3.60009e-05
0.00206558 4.9036e-05 -2.07819e-05
4.9036e-05 0.000728695 3.4868e-06
-2.07819e-05 3.4868e-06 0.000745316
0.000714603 3.00657e-05 1.07663e-06
3.00657e-05 -2.87014e-05 -3.21058e-06
1.07663e-06 -3.21058e-06 -3.46502e-05
0.00147246 3.65733e-05 8.61793e-06
3.65733e-05 0.000394396 -9.98615e-07
8.61793e-06 -9.98615e-07 0.000409416
0.00209686 3.45353e-05 1.56252e-05
3.45353e-05 0.000734049 -3.78108e-06
1.56252e-05 -3.78108e-06 0.000753201
0.000822943 2.18257e-05 -5.92628e-07
2.18257e-05 4.07139e-05 -3.42597e-07
-5.92628e-07 -3.42597e-07 -1.79798e-05
0.000749888 -2.05063e-05 -7.18794e-07
-2.05063e-05 -7.38691e-06 -1.43976e-06
-7.18794e-07 -1.43976e-06 -4.38011e-05
0.000740342 1.65274e-05 -7.4953e-07
1.65274e-05 5.38899e-07 -4.26559e-07
-7.4953e-07 -4.26559e-07 -6.02762e-05
0.00071884 -2.45854e-05 -3.46737e-07
-2.45854e-05 -3.06356e-05 -3.37518e-06
-3.46737e-07 -3.37518e-06 -3.7129e-05
0.000642417 -1.77003e-05 -1.53605e-07
-1.77003e-05 -6.68222e-05 -6.51522e-07
-1.53605e-07 -6.51522e-07 -0.000102448
0.000904993 -2.60777e-06 4.65081e-08
-2.60777e-06 9.28919e-05 -1.02385e-07
4.65081e-08 -1.02385e-07 3.377e-05
0.00213698 -2.67374e-05 -1.23935e-05
-2.67374e-05 0.000751418 -4.17435e-06
-1.23935e-05 -4.17435e-06 0.000771265
0.000720874 -1.83022e-05 -1.73596e-07
-1.83022e-05 -3.43086e-05 -7.59014e-09
-1.73596e-07 -7.59014e-09 -3.86898e-05
0.000524736 -1.38574e-05 7.16588e-08
-1.38574e-05 -0.000132375 9.00866e-07
7.16588e-08 9.00866e-07 -0.000166729
0.00208848 -1.7478e-05 -2.35267e-06
-1.7478e-05 0.000720694 4.33305e-08
-2.35267e-06 4.33305e-08 0.000741905
0.000723328 -1.2095e-05 3.72721e-07
-1.2095e-05 -3.65362e-05 3.3228e-06
3.72721e-07 3.3228e-06 -3.92136e-05
0.00206212 -8.29622e-06 3.49416e-06
-8.29622e-06 0.000703731 4.33196e-06
3.49416e-06 4.33196e-06 0.00072573
0.00117896 2.38821e-06 8.15781e-08
2.38821e-06 0.000135788 1.26471e-05
8.15781e-08 1.26471e-05 2.62873e-05
0.00120045 1.51904e-05 -4.48768e-06
1.51904e-05 5.70755e-05 1.32402e-06
-4.48768e-06 1.32402e-06 -5.39378e-05
0.00142353 2.61935e-05 5.9754e-05
2.61935e-05 8.13518e-05 -1.45037e-05
5.9754e-05 -1.45037e-05 -0.00020934
0.000765446 -4.59044e-05 4.39624e-08
-4.59044e-05 1.48454e-05 -2.24349e-07
4.39624e-08 -2.24349e-07 -5.30945e-05
0.00092469 -1.3891e-05 -3.43547e-07
-1.3891e-05 0.000109253 -5.16871e-07
-3.43547e-07 -5.16871e-07 3.60171e-05
0.000881405 2.26837e-05 1.34226e-06
2.26837e-05 8.49373e-05 -4.73318e-07
1.34226e-06 -4.73318e-07 1.3514e-05
0.000789239 -2.4382e-05 6.37739e-08
-2.4382e-05 2.84664e-05 1.35136e-08
6.37739e-08 1.35136e-08 -4.01448e-05
0.000854349 7.42488e-06 1.0158e-08
7.42488e-06 7.27131e-05 2.2493e-07
1.0158e-08 2.2493e-07 -4.55817e-06
0.000898148 -7.65075e-06 -8.82401e-07
-7.65075e-06 9.61636e-05 4.47434e-07
-8.82401e-07 4.47434e-07 2.12189e-05
0.000879383 0.000107785 6.49949e-07
0.000107785 9.67663e-05 1.20609e-06
6.49949e-07 1.20609e-06 1.08899e-05
0.00151191 -1.86591e-06 2.15279e-05
-1.86591e-06 0.000160212 4.9842e-05
2.15279e-05 4.9842e-05 -0.000258443
0.00182063 1.9351e-05 -1.4608e-06
1.9351e-05 0.000221117 1.53353e-05
-1.4608e-06 1.53353e-05 -9.85229e-05
0.00202297 3.68869e-05 9.20661e-06
3.68869e-05 0.000376351 -3.07654e-05
9.20661e-06 -3.07654e-05 4.91811e-05
0.00198644 5.5911e-06 -4.82622e-06
5.5911e-06 -0.00220309 -9.53089e-06
-4.82622e-06 -9.53089e-06 -0.00083333
0.00260039 -0.000447759 -2.53007e-05
-0.000447759 0.000155626 4.94351e-05
-2.53007e-05 4.94351e-05 -0.000577478
-0.000337519 -0.000145635 4.81619e-05
-0.000145635 -0.000828772 -7.28565e-06
4.81619e-05 -7.28565e-06 -0.00254157
0.00469556 0.000470154 3.92403e-05
0.000470154 0.00200607 -2.52409e-05
3.92403e-05 -2.52409e-05 0.00132422
0.00472475 -0.000607425 -2.04104e-05
-0.000607425 0.000946286 4.84881e-06
-2.04104e-05 4.84881e-06 0.000328701
0.00166903 -0.000178098 4.07754e-05
-0.000178098 0.00027936 -2.17176e-05
4.07754e-05 -2.17176e-05 -0.00164495
0.0034494 -3.08348e-06 -2.16824e-05
-3.08348e-06 0.00116028 1.95658e-06
-2.16824e-05 1.95658e-06 0.00081491
0.00487151 -0.000293297 -1.04382e-05
-0.000293297 0.000353402 -1.60575e-05
-1.04382e-05 -1.60575e-05 0.00134277
0.00212094 -0.000165939 -1.41388e-05
-0.000165939 -0.00022949 6.71543e-06
-1.41388e-05 6.71543e-06 -0.000237971
0.00114231 -0.000185125 3.68818e-05
-0.000185125 -0.000485729 -6.15597e-05
3.68818e-05 -6.15597e-05 -0.00199278
-0.00341388 -0.000316859 4.1245e-05
-0.000316859 -0.00299688 6.53368e-06
4.1245e-05 6.53368e-06 -0.00353484
0.000879752 -0.000341791 2.65779e-05
-0.000341791 -0.00158072 -2.01112e-05
2.65779e-05 -2.01112e-05 -0.000552268
0.000929933 -5.31806e-05 -4.35823e-07
-5.31806e-05 0.000108201 2.07905e-06
-4.35823e-07 2.07905e-06 3.67768e-05
0.000816835 1.22111e-06 1.77077e-07
1.22111e-06 4.73565e-05 -3.19192e-10
1.77077e-07 -3.19192e-10 -3.4707e-05
0.000818755 -1.50193e-06 -4.78243e-07
-1.50193e-06 6.20812e-05 -1.3216e-06
-4.78243e-07 -1.3216e-06 -2.88047e-05
0.000864947 2.24719e-05 3.99278e-08
2.24719e-05 7.91846e-05 -1.49366e-06
3.99278e-08 -1.49366e-06 -1.66781e-06
0.00156634 -0.00026747 -2.34519e-07
-0.00026747 0.000306253 1.56774e-05
-2.34519e-07 1.56774e-05 0.000263535
0.000136415 -1.96265e-05 5.61693e-06
-1.96265e-05 -4.05162e-05 -9.56012e-06
5.61693e-06 -9.56012e-06 -0.000142823
0.000797379 -2.91705e-05 -2.59065e-07
-2.91705e-05 1.75204e-05 -2.0508e-06
-2.59065e-07 -2.0508e-06 -5.73441e-05
0.000968246 5.96457e-05 -3.98447e-07
5.96457e-05 0.000136409 -2.20783e-06
-3.98447e-07 -2.20783e-06 5.76424e-05
0.00117704 6.95268e-06 4.4117e-06
6.95268e-06 0.000245512 -9.10956e-06
4.4117e-06 -9.10956e-06 0.000172932
0.00086785 -7.02299e-06 -3.55116e-07
-7.02299e-06 6.98546e-05 -1.0013e-08
-3.55116e-07 -1.0013e-08 1.42566e-07
0.000758762 -1.05142e-05 7.5382e-08
-1.05142e-05 2.45221e-05 -6.1175e-07
7.5382e-08 -6.1175e-07 -3.43445e-05
-0.000726529 -4.96634e-05 -1.26752e-05
-4.96634e-05 -0.000372837 -9.62751e-06
-1.26752e-05 -9.62751e-06 -0.00066584
0.000902731 -1.97571e-05 -3.91497e-06
-1.97571e-05 0.000336105 2.25786e-06
-3.91497e-06 2.25786e-06 0.00030951
0.000783783 -1.60883e-05 2.91569e-06
-1.60883e-05 4.71598e-05 7.45864e-07
2.91569e-06 7.45864e-07 -1.57114e-05
0.00113561 2.22853e-05 -5.78797e-06
2.22853e-05 0.00103827 -4.66108e-05
-5.78797e-06 -4.66108e-05 0.000240872
0.00165808 -2.98605e-05 -2.60821e-06
-2.98605e-05 0.000706915 1.50099e-05
-2.60821e-06 1.50099e-05 0.000647861
0.00142646 -5.24667e-06 1.26984e-05
-5.24667e-06 0.000249185 3.49568e-07
1.26984e-05 3.49568e-07 0.000174393
0.000915532 -3.42824e-06 -6.0997e-08
-3.42824e-06 9.50245e-05 -5.55306e-08
-6.0997e-08 -5.55306e-08 5.85178e-05
0.000687747 -4.74727e-07 2.45057e-06
-4.74727e-07 -0.000121064 -5.45726e-07
2.45057e-06 -5.45726e-07 -0.000172001
0.000546571 4.73073e-05 5.80985e-06
4.73073e-05 0.000219212 7.80157e-06
5.80985e-06 7.80157e-06 0.000155363
0.00193887 0.000205976 -6.14838e-05
0.000205976 0.000282681 1.7006e-05
-6.14838e-05 1.7006e-05 0.000321792
0.000932214 -2.09916e-06 1.80141e-06
-2.09916e-06 2.83708e-05 2.77955e-06
1.80141e-06 2.77955e-06 -4.10275e-05
0.0032565 -7.93735e-05 9.86956e-05
-7.93735e-05 0.00138706 -0.000113302
9.86956e-05 -0.000113302 -0.000807394
0.00469499 0.000500607 -3.48673e-05
0.000500607 0.00185253 2.53027e-05
-3.48673e-05 2.53027e-05 0.00120542
0.0020467 2.46312e-05 -1.07275e-05
2.46312e-05 0.000373924 3.08341e-05
-1.07275e-05 3.08341e-05 5.44661e-05
0.00304044 0.000461049 -3.27718e-05
0.000461049 -0.000330159 1.88178e-05
-3.27718e-05 1.88178e-05 0.000509056
-0.000512255 -1.4611e-05 1.97911e-05
-1.4611e-05 -6.05654e-05 -9.92802e-07
1.97911e-05 -9.92802e-07 -0.000291047
0.00118975 1.14878e-05 4.77006e-06
1.14878e-05 4.2098e-05 -1.16512e-06
4.77006e-06 -1.16512e-06 -6.30336e-05
0.00214776 4.08991e-05 1.76334e-05
4.08991e-05 0.000190599 -2.50173e-06
1.76334e-05 -2.50173e-06 -0.000241093
0.00173729 -6.76274e-05 -1.98915e-05
-6.76274e-05 -0.000356622 2.55789e-05
-1.98915e-05 2.55789e-05 -6.61216e-05
-0.000441495 0.000660494 9.44364e-06
0.000660494 -0.00106081 -6.16897e-07
9.44364e-06 -6.16897e-07 0.000205791
0.00495112 0.000583555 -1.11734e-07
0.000583555 0.000642966 1.32763e-05
-1.11734e-07 1.32763e-05 0.000828384
0.00102352 -0.000255619 4.42072e-05
-0.000255619 0.000123283 -2.44687e-05
4.42072e-05 -2.44687e-05 -0.00237273
0.00128229 -7.17675e-05 4.96612e-05
-7.17675e-05 0.000540829 -9.95766e-06
4.96612e-05 -9.95766e-06 0.000505163
0.00107801 1.35646e-05 4.29449e-05
1.35646e-05 -0.000146407 -1.62797e-05
4.29449e-05 -1.62797e-05 -0.000443695
-0.00122734 0.000259842 -1.64021e-05
0.000259842 -0.000429245 -1.45906e-05
-1.64021e-05 -1.45906e-05 -0.000478738
0.000255977 0.000532383 9.9297e-06
0.000532383 -0.00012306 2.54144e-05
9.9297e-06 2.54144e-05 0.000159298
0.00736244 0.000325423 2.68129e-05
0.000325423 0.00285358 -3.71256e-05
2.68129e-05 -3.71256e-05 0.000857342
0.00283755 -0.000320284 -6.18233e-05
-0.000320284 0.000191283 8.01202e-05
-6.18233e-05 8.01202e-05 -0.000119868
-0.000443451 -1.35405e-05 1.9273e-06
-1.35405e-05 -0.000336833 8.16053e-06
1.9273e-06 8.16053e-06 -0.000442469
0.000247366 -4.47384e-05 -3.07342e-06
-4.47384e-05 9.22578e-05 -3.53631e-07
-3.07342e-06 -3.53631e-07 -6.8369e-05
0.00110071 -0.000153348 1.65426e-05
-0.000153348 0.000346925 -6.82747e-06
1.65426e-05 -6.82747e-06 0.000214543
0.000684923 2.74377e-05 -4.59722e-06
2.74377e-05 0.000101433 1.18362e-06
-4.59722e-06 1.18362e-06 2.20054e-05
7.38081e-05 -5.77512e-05 1.0619e-06
-5.77512e-05 -0.000108411 -1.99367e-06
1.0619e-06 -1.99367e-06 -0.000322385
0.00115131 -0.000174513 1.11528e-05
-0.000174513 0.000217712 1.89519e-06
1.11528e-05 1.89519e-06 2.85608e-06
0.00195663 -0.000190235 -3.46631e-06
-0.000190235 0.000708883 2.10232e-07
-3.46631e-06 2.10232e-07 0.000546177
0.00136104 -0.000165641 6.57092e-07
-0.000165641 0.000394584 1.27739e-06
6.57092e-07 1.27739e-06 0.000150583
0.00103724 -0.000184994 8.84441e-07
-0.000184994 5.37474e-05 -2.7743e-06
8.84441e-07 -2.7743e-06 -0.000164169
0.00105482 -0.000137654 -2.54741e-06
-0.000137654 0.000200015 -8.60042e-07
-2.54741e-06 -8.60042e-07 1.14781e-05
0.00169848 -0.000200214 1.23972e-06
-0.000200214 0.000456992 3.99352e-08
1.23972e-06 3.99352e-08 0.000240809
0.00134936 -0.000197764 1.62828e-06
-0.000197764 0.0001331 -2.93643e-06
1.62828e-06 -2.93643e-06 -6.77341e-05
0.00174815 -0.000207044 -1.37563e-06
-0.000207044 0.000287457 -3.2832e-06
-1.37563e-06 -3.2832e-06 0.000119032
0.00191693 -0.000205451 -5.07929e-06
-0.000205451 0.000530444 4.80221e-06
-5.07929e-06 4.80221e-06 0.000351198
0.00151445 -0.000192832 -7.85286e-07
-0.000192832 0.000282008 2.58161e-07
-7.85286e-07 2.58161e-07 8.50706e-05
0.00058104 -0.000108609 1.40433e-06
-0.000108609 -9.99963e-05 -7.09687e-08
1.40433e-06 -7.09687e-08 -0.000233895
0.000882288 -0.000127711 1.49826e-06
-0.000127711 6.04405e-05 -5.31576e-07
1.49826e-06 -5.31576e-07 -8.79965e-05
0.00114949 -0.000150275 -2.9941e-07
-0.000150275 0.000181198 -1.69036e-06
-2.9941e-07 -1.69036e-06 7.1546e-06
0.00104449 -0.000122852 5.40423e-07
-0.000122852 0.000183963 5.10185e-07
5.40423e-07 5.10185e-07 6.08676e-05
0.00113971 -0.000133147 -4.37096e-07
-0.000133147 0.00024125 -8.35761e-07
-4.37096e-07 -8.35761e-07 0.000110179
0.000777843 -0.000111411 2.03672e-06
-0.000111411 5.28252e-05 -2.01333e-06
2.03672e-06 -2.01333e-06 -7.74218e-05
0.000773387 1.59814e-05 9.21871e-07
1.59814e-05 4.23614e-05 1.24276e-06
9.21871e-07 1.24276e-06 -4.63478e-05
0.000776367 -4.24368e-05 1.72063e-09
-4.24368e-05 5.6736e-05 6.8028e-07
1.72063e-09 6.8028e-07 -4.72321e-05
0.0011169 -0.000105648 1.31757e-06
-0.000105648 0.000249626 -1.27236e-06
1.31757e-06 -1.27236e-06 0.00012826
0.00072401 6.17846e-05 -1.90732e-07
6.17846e-05 8.92199e-06 2.00696e-06
-1.90732e-07 2.00696e-06 -4.10162e-05
0.000798162 2.294e-05 -2.55197e-07
2.294e-05 4.93497e-05 -1.34424e-07
-2.55197e-07 -1.34424e-07 -2.42717e-05
0.000912894 -3.85353e-05 3.15078e-07
-3.85353e-05 0.000121094 -6.98591e-07
3.15078e-07 -6.98591e-07 2.95138e-05
0.000674296 4.44643e-05 -2.62366e-06
4.44643e-05 -2.60491e-05 4.53226e-06
-2.62366e-06 4.53226e-06 -3.8556e-05
0.000739293 5.3971e-05 -4.69311e-08
5.3971e-05 8.88642e-06 -1.3817e-07
-4.69311e-08 -1.3817e-07 -3.28354e-05
0.000811338 1.00248e-05 2.31788e-07
1.00248e-05 4.62473e-05 -1.19841e-06
2.31788e-07 -1.19841e-06 -1.40655e-05
0.00075894 4.47185e-05 7.06883e-07
4.47185e-05 1.0632e-05 -1.62364e-06
7.06883e-07 -1.62364e-06 -2.6165e-05
0.000694715 4.05859e-05 2.96948e-08
4.05859e-05 -2.35719e-05 -1.86017e-08
2.96948e-08 -1.86017e-08 -3.35253e-05
0.00207098 5.65944e-05 -2.35716e-05
5.65944e-05 0.000740062 3.26977e-06
-2.35716e-05 3.26977e-06 0.000754722
0.00071694 3.59371e-05 1.29628e-06
3.59371e-05 -2.00422e-05 -3.22185e-06
1.29628e-06 -3.22185e-06 -2.77267e-05
0.00207307 4.96334e-05 1.36915e-06
4.96334e-05 0.000733898 8.86817e-08
1.36915e-06 8.86817e-08 0.000750298
0.00207991 4.24363e-05 1.87137e-05
4.24363e-05 0.000731118 -3.58866e-06
1.87137e-05 -3.58866e-06 0.000749007
0.00085432 6.31882e-06 -1.07254e-07
6.31882e-06 6.93831e-05 -5.80503e-07
-1.07254e-07 -5.80503e-07 -2.70164e-06
0.000820861 3.53206e-05 -1.15671e-06
3.53206e-05 4.52613e-05 -9.61696e-07
-1.15671e-06 -9.61696e-07 -1.80665e-05
0.000749198 -2.86736e-05 -7.57223e-07
-2.86736e-05 -5.45671e-06 -1.61663e-06
-7.57223e-07 -1.61663e-06 -4.37085e-05
0.000819311 2.40086e-05 -6.26853e-08
2.40086e-05 3.89178e-05 -2.6073e-08
-6.26853e-08 -2.6073e-08 -1.98141e-05
0.000704593 -2.98538e-05 -5.82994e-07
-2.98538e-05 -3.29351e-05 -3.44523e-06
-5.82994e-07 -3.44523e-06 -4.15065e-05
0.000762053 -2.20746e-05 -1.39387e-07
-2.20746e-05 -1.69631e-07 6.50582e-09
-1.39387e-07 6.50582e-09 -3.67831e-05
0.000784581 1.45894e-05 5.5162e-09
1.45894e-05 1.76874e-05 -1.19297e-07
5.5162e-09 -1.19297e-07 -3.77616e-05
0.00217924 -3.52467e-05 -1.59908e-05
-3.52467e-05 0.000779367 -4.04582e-06
-1.59908e-05 -4.04582e-06 0.000797757
0.000711418 -2.40797e-05 -1.51183e-07
-2.40797e-05 -3.47923e-05 -3.52707e-09
-1.51183e-07 -3.52707e-09 -4.11887e-05
0.000761897 -1.84726e-05 8.14402e-08
-1.84726e-05 -1.78513e-06 8.80407e-07
8.14402e-08 8.80407e-07 -3.66779e-05
0.00212472 -2.61517e-05 -2.34596e-06
-2.61517e-05 0.00074416 6.57919e-08
-2.34596e-06 6.57919e-08 0.00076421
0.000713551 -1.79695e-05 3.1835e-07
-1.79695e-05 -3.83392e-05 3.33472e-06
3.1835e-07 3.33472e-06 -4.26446e-05
0.002079 -1.68022e-05 7.76425e-06
-1.68022e-05 0.000715082 4.27778e-06
7.76425e-06 4.27778e-06 0.000736447
0.00123347 -2.06404e-05 1.21462e-05
-2.06404e-05 0.000139533 1.49668e-05
1.21462e-05 1.49668e-05 1.33645e-05
0.00102927 1.09827e-06 -1.58555e-06
1.09827e-06 6.97424e-05 4.95865e-06
-1.58555e-06 4.95865e-06 -2.44515e-05
0.00127199 1.26799e-05 5.28932e-06
1.26799e-05 0.000100866 -8.60487e-06
5.28932e-06 -8.60487e-06 -1.18859e-05
0.000810497 -5.57141e-06 -2.85178e-07
-5.57141e-06 4.45093e-05 -6.05126e-08
-2.85178e-07 -6.05126e-08 -2.6979e-05
0.000851898 -2.53634e-05 -1.59395e-07
-2.53634e-05 6.99266e-05 2.34876e-07
-1.59395e-07 2.34876e-07 -3.8271e-06
0.000778767 -3.14829e-05 4.12663e-07
-3.14829e-05 3.23374e-05 -1.76156e-06
4.12663e-07 -1.76156e-06 -4.62306e-05
0.00073945 -3.74701e-05 -6.50113e-08
-3.74701e-05 9.21969e-06 -6.93879e-07
-6.50113e-08 -6.93879e-07 -6.40286e-05
0.000974132 3.53115e-05 -6.71277e-07
3.53115e-05 0.000148162 -2.88027e-07
-6.71277e-07 -2.88027e-07 6.45014e-05
0.000775722 -3.82346e-05 6.5628e-08
-3.82346e-05 1.83975e-05 -1.42001e-07
6.5628e-08 -1.42001e-07 -4.84619e-05
0.000775017 -1.74539e-05 4.56602e-07
-1.74539e-05 2.688e-05 -9.84735e-07
4.56602e-07 -9.84735e-07 -4.87547e-05
0.00085626 6.97425e-06 -1.49459e-07
6.97425e-06 7.41551e-05 -5.40277e-08
-1.49459e-07 -5.40277e-08 -5.98873e-07
0.000892565 2.79171e-05 -1.04989e-07
2.79171e-05 9.41945e-05 2.52649e-07
-1.04989e-07 2.52649e-07 1.35394e-05
0.000961145 1.22282e-05 1.08916e-08
1.22282e-05 0.000139879 8.6107e-07
1.08916e-08 8.6107e-07 6.05508e-05
0.00176183 -3.60252e-05 5.30373e-05
-3.60252e-05 0.000189011 5.80944e-05
5.30373e-05 5.80944e-05 -0.000282303
0.00162571 3.97264e-06 2.88246e-06
3.97264e-06 0.000150072 1.32763e-05
2.88246e-06 1.32763e-05 -0.000274013
0.00191543 2.32879e-05 -3.13662e-06
2.32879e-05 0.000379315 -1.32705e-05
-3.13662e-06 -1.32705e-05 0.000136589
0.00474564 -0.000270002 -2.64767e-05
-0.000270002 0.000449633 -3.95838e-05
-2.64767e-05 -3.95838e-05 0.00146875
-0.00603445 0.000190028 -2.08146e-05
0.000190028 -0.00313925 6.25399e-06
-2.08146e-05 6.25399e-06 -0.00367132
0.00396483 -0.000570943 -5.88219e-05
-0.000570943 0.000726891 5.82254e-05
-5.88219e-05 5.82254e-05 6.98889e-05
0.00626178 -3.58364e-05 -5.99218e-06
-3.58364e-05 0.00186343 -4.71749e-05
-5.99218e-06 -4.71749e-05 0.000299705
0.00348978 -0.000291294 -4.12604e-05
-0.000291294 0.000408824 4.08453e-05
-4.12604e-05 4.08453e-05 9.01404e-05
0.00921906 -0.000214582 5.7578e-05
-0.000214582 0.00364755 -9.86409e-06
5.7578e-05 -9.86409e-06 0.00170822
0.000184688 -0.00022133 2.08056e-05
-0.00022133 -0.000938994 -3.12105e-06
2.08056e-05 -3.12105e-06 -0.00117379
0.00087281 -0.000388552 -2.1588e-05
-0.000388552 -0.00167376 -5.2503e-05
-2.1588e-05 -5.2503e-05 -0.000607684
0.00425345 -3.79363e-05 -0.000109035
-3.79363e-05 0.000824134 -2.27301e-05
-0.000109035 -2.27301e-05 0.000563602
0.00804254 -0.000341662 -2.01496e-05
-0.000341662 0.00253483 4.80134e-05
-2.01496e-05 4.80134e-05 0.00115992
0.00776933 -0.000831978 1.72978e-05
-0.000831978 0.00219568 -1.03391e-05
1.72978e-05 -1.03391e-05 0.0023411
0.00293044 -0.000609441 1.47466e-05
-0.000609441 0.000306478 8.40004e-07
1.47466e-05 8.40004e-07 0.00151902
0.000688001 1.06745e-05 1.98846e-06
1.06745e-05 1.5272e-05 1.62019e-06
1.98846e-06 1.62019e-06 -4.67283e-05
0.000929086 -4.28826e-05 -8.45082e-08
-4.28826e-05 0.000111061 5.46055e-07
-8.45082e-08 5.46055e-07 3.84755e-05
0.000798024 1.22678e-06 1.80866e-08
1.22678e-06 3.47311e-05 -1.36527e-06
1.80866e-08 -1.36527e-06 -4.58219e-05
0.000233369 -5.59435e-06 -1.03094e-05
-5.59435e-06 6.98314e-05 1.41674e-05
-1.03094e-05 1.41674e-05 -0.000232025
0.000779659 -6.86532e-05 -8.2448e-06
-6.86532e-05 0.000287204 -6.81469e-06
-8.2448e-06 -6.81469e-06 0.000267902
0.000799707 -2.02442e-05 -1.25446e-06
-2.02442e-05 3.38352e-05 -9.33621e-07
-1.25446e-06 -9.33621e-07 -3.78658e-05
0.000756534 -5.38568e-05 -5.24394e-07
-5.38568e-05 2.15541e-05 -5.62236e-06
-5.24394e-07 -5.62236e-06 -3.52993e-05
0.000824686 -8.74041e-06 -5.40482e-07
-8.74041e-06 7.14442e-05 -1.13965e-06
-5.40482e-07 -1.13965e-06 7.8478e-06
0.000580304 -3.04352e-05 4.42916e-07
-3.04352e-05 0.000133562 4.0984e-06
4.42916e-07 4.0984e-06 7.48115e-05
9.22071e-05 -1.90252e-05 2.88349e-05
-1.90252e-05 0.000468891 -3.26487e-05
2.88349e-05 -3.26487e-05 -0.000302011
-0.000394458 -1.87544e-05 -3.97701e-06
-1.87544e-05 -0.000405506 7.82785e-06
-3.97701e-06 7.82785e-06 -0.000481979
0.000927813 0.000106476 1.73904e-06
0.000106476 0.000431118 -2.80458e-05
1.73904e-06 -2.80458e-05 -1.16977e-05
0.00127025 -2.66344e-06 4.24886e-05
-2.66344e-06 -4.57352e-05 5.9001e-06
4.24886e-05 5.9001e-06 -0.000324129
0.00104065 -3.59597e-06 5.58498e-06
-3.59597e-06 5.27137e-05 1.13451e-06
5.58498e-06 1.13451e-06 -1.24612e-05
0.00024567 -2.89243e-06 1.5468e-07
-2.89243e-06 -0.00028338 -4.06527e-07
1.5468e-07 -4.06527e-07 -0.000316138
-0.00140028 -2.91129e-05 -3.49889e-05
-2.91129e-05 -0.000430613 1.18976e-05
-3.49889e-05 1.18976e-05 -0.000718597
0.00182121 6.41056e-05 1.63628e-05
6.41056e-05 -0.000447777 -4.29749e-05
1.63628e-05 -4.29749e-05 -0.000493988
0.00130165 8.24191e-06 -4.02191e-06
8.24191e-06 0.000113884 7.92963e-06
-4.02191e-06 7.92963e-06 8.55257e-06
0.011195 -0.000138043 8.08928e-05
-0.000138043 0.00455889 -5.48083e-06
8.08928e-05 -5.48083e-06 0.00244011
0.00461475 0.000629993 -5.09535e-05
0.000629993 0.000971671 1.49198e-05
-5.09535e-05 1.49198e-05 0.00099378
0.00225399 3.21606e-05 -3.70579e-05
3.21606e-05 0.000283789 3.85522e-05
-3.70579e-05 3.85522e-05 -0.000192969
-0.00311856 0.000703403 2.95143e-05
0.000703403 -0.00275385 -4.94377e-05
2.95143e-05 -4.94377e-05 -0.0011822
0.000415452 -3.34416e-05 -1.35778e-05
-3.34416e-05 0.00013782 -1.2685e-06
-1.35778e-05 -1.2685e-06 6.34916e-05
0.00132029 1.49746e-05 -6.23408e-06
1.49746e-05 -6.36246e-06 1.86501e-06
-6.23408e-06 1.86501e-06 -0.000301737
-0.00147925 0.000302271 -5.85669e-05
0.000302271 -0.000483454 2.4086e-05
-5.85669e-05 2.4086e-05 -0.000451478
0.00200779 -0.00029565 -2.00841e-05
-0.00029565 -0.000203395 2.90706e-05
-2.00841e-05 2.90706e-05 -0.000381699
0.00513633 0.000820643 1.11983e-05
0.000820643 0.00166322 1.8762e-05
1.11983e-05 1.8762e-05 0.0019781
0.00688526 -2.63998e-05 4.88882e-05
-2.63998e-05 0.00224809 -2.68755e-05
4.88882e-05 -2.68755e-05 0.000393445
0.00192818 -0.000202875 2.24234e-05
-0.000202875 0.000377971 1.52992e-05
2.24234e-05 1.52992e-05 0.00052112
-0.0013513 7.14216e-05 3.82271e-05
7.14216e-05 -1.55726e-05 -6.37317e-06
3.82271e-05 -6.37317e-06 -0.000457307
0.00186679 0.000539069 -2.35401e-05
0.000539069 0.000950806 1.00141e-05
-2.35401e-05 1.00141e-05 0.00106608
0.00553974 0.00035911 -6.00708e-05
0.00035911 0.00180277 5.20822e-05
-6.00708e-05 5.20822e-05 1.03697e-05
0.00248595 -0.000521344 1.25088e-05
-0.000521344 0.000110639 1.36585e-05
1.25088e-05 1.36585e-05 -0.000504343
0.000437093 7.51953e-06 1.01847e-05
7.51953e-06 0.000208118 8.85117e-06
1.01847e-05 8.85117e-06 4.93476e-05
0.000716883 -0.000136783 1.01868e-07
-0.000136783 0.000166916 -6.47605e-07
1.01868e-07 -6.47605e-07 1.73097e-05
0.00239416 -0.000229779 1.44616e-05
-0.000229779 0.000645629 2.64843e-06
1.44616e-05 2.64843e-06 0.0006142
-0.000664807 -4.12254e-06 -3.63843e-06
-4.12254e-06 -0.000472528 3.63608e-06
-3.63843e-06 3.63608e-06 -0.000689698
0.00060515 -0.000136542 3.67532e-06
-0.000136542 -3.53726e-05 -4.83892e-07
3.67532e-06 -4.83892e-07 -0.000251695
0.000768219 -0.00020057 3.53113e-07
-0.00020057 -0.000251633 -6.42641e-07
3.53113e-07 -6.42641e-07 -0.000407318
0.00172591 -0.000183894 -3.86372e-06
-0.000183894 0.000566594 -2.97362e-07
-3.86372e-06 -2.97362e-07 0.000326611
0.00122589 -0.000192842 -2.27799e-06
-0.000192842 0.000147874 -2.02876e-06
-2.27799e-06 -2.02876e-06 -6.35811e-05
0.00177461 -0.000239298 3.60175e-06
-0.000239298 0.000232721 -8.6635e-07
3.60175e-06 -8.6635e-07 8.71972e-05
0.00151725 -0.00018779 -1.13156e-06
-0.00018779 0.000354694 -1.42607e-06
-1.13156e-06 -1.42607e-06 0.000139624
0.00143671 -0.000198578 1.40913e-07
-0.000198578 0.000175478 -1.64691e-06
1.40913e-07 -1.64691e-06 -1.93103e-05
0.00139111 -0.000191963 -8.39737e-07
-0.000191963 -1.20739e-05 -3.25185e-06
-8.39737e-07 -3.25185e-06 -0.000153346
0.0018127 -0.000186817 -7.52054e-07
-0.000186817 0.000229811 -2.11203e-06
-7.52054e-07 -2.11203e-06 9.65445e-05
0.00144253 -0.000182162 -1.8543e-06
-0.000182162 0.000197538 -9.62846e-07
-1.8543e-06 -9.62846e-07 2.26135e-05
0.00142646 -0.0001884 4.33373e-07
-0.0001884 0.000120399 -8.68972e-07
4.33373e-07 -8.68972e-07 -4.57217e-05
0.00142892 -0.000167456 -2.29246e-06
-0.000167456 0.00029541 3.57631e-06
-2.29246e-06 3.57631e-06 0.000139629
0.00135404 -0.000173509 -1.73319e-07
-0.000173509 0.000233967 8.15765e-07
-1.73319e-07 8.15765e-07 5.2333e-05
0.00123777 -0.000178131 3.18342e-08
-0.000178131 0.000129843 -1.79325e-06
3.18342e-08 -1.79325e-06 -7.09916e-05
0.000954245 -0.000125126 1.85104e-07
-0.000125126 0.000102634 -9.62084e-07
1.85104e-07 -9.62084e-07 -2.12585e-05
0.000699675 -0.000114546 -2.33957e-07
-0.000114546 -3.40914e-05 -1.38594e-06
-2.33957e-07 -1.38594e-06 -0.000166015
0.00110772 -0.000140404 4.05293e-06
-0.000140404 0.000182016 -4.0189e-06
4.05293e-06 -4.0189e-06 3.69644e-05
0.000862315 -6.4622e-05 1.52802e-07
-6.4622e-05 8.00893e-05 1.23087e-06
1.52802e-07 1.23087e-06 -2.24918e-05
0.00098346 -0.00010888 5.04423e-07
-0.00010888 0.000151933 5.37301e-07
5.04423e-07 5.37301e-07 3.12293e-05
0.00102251 -0.00012485 -1.44181e-07
-0.00012485 0.000179981 3.29999e-07
-1.44181e-07 3.29999e-07 4.85881e-05
0.000728138 7.9e-05 7.45205e-07
7.9e-05 2.00889e-05 2.78182e-06
7.45205e-07 2.78182e-06 -4.459e-05
0.000831986 -3.70677e-06 1.33923e-08
-3.70677e-06 7.51043e-05 -9.63037e-08
1.33923e-08 -9.63037e-08 -1.57533e-05
0.000874343 -5.4426e-05 -8.16263e-07
-5.4426e-05 0.000110368 -7.17878e-08
-8.16263e-07 -7.17878e-08 6.82596e-06
0.00130477 5.98853e-05 -1.34846e-05
5.98853e-05 0.00033185 2.95233e-06
-1.34846e-05 2.95233e-06 0.000318254
0.000718955 5.29449e-05 -5.41593e-08
5.29449e-05 4.77595e-06 -2.61942e-07
-5.41593e-08 -2.61942e-07 -4.43595e-05
0.000801 -3.53492e-06 3.26425e-07
-3.53492e-06 5.20191e-05 -1.31983e-06
3.26425e-07 -1.31983e-06 -2.29405e-05
0.000824443 3.66129e-05 -2.24031e-05
3.66129e-05 6.24791e-05 3.26991e-06
-2.24031e-05 3.26991e-06 6.93061e-05
0.00102515 5.132e-05 -6.0989e-06
5.132e-05 0.000167414 3.0877e-07
-6.0989e-06 3.0877e-07 0.000156033
0.000740929 5.862e-05 -1.54145e-07
5.862e-05 1.09977e-05 -1.96681e-06
-1.54145e-07 -1.96681e-06 -3.15589e-05
0.000717643 4.17401e-05 1.38002e-06
4.17401e-05 -1.12387e-05 -3.24248e-06
1.38002e-06 -3.24248e-06 -2.13143e-05
0.00209395 5.73088e-05 1.11648e-06
5.73088e-05 0.000753822 9.12488e-08
1.11648e-06 9.12488e-08 0.000768159
0.0020866 5.01974e-05 2.18913e-05
5.01974e-05 0.000742436 -3.3873e-06
2.18913e-05 -3.3873e-06 0.0007586
0.000772715 -1.84488e-05 2.11435e-07
-1.84488e-05 2.417e-05 -1.13505e-06
2.11435e-07 -1.13505e-06 -5.01403e-05
0.00081925 1.34414e-05 -5.87805e-07
1.34414e-05 4.48794e-05 -1.40983e-06
-5.87805e-07 -1.40983e-06 -1.97523e-05
0.000836853 -1.8215e-05 7.4005e-08
-1.8215e-05 5.85176e-05 -3.48651e-08
7.4005e-08 -3.48651e-08 -1.27278e-05
0.000749735 -4.20488e-05 -7.13864e-07
-4.20488e-05 3.03229e-07 -1.91842e-06
-7.13864e-07 -1.91842e-06 -4.03507e-05
0.000827919 1.53711e-06 6.52467e-07
1.53711e-06 4.60542e-05 -7.63684e-08
6.52467e-07 -7.63684e-08 -1.4793e-05
0.000693578 -3.48776e-05 -8.03099e-07
-3.48776e-05 -3.28123e-05 -3.58592e-06
-8.03099e-07 -3.58592e-06 -4.34327e-05
0.000759782 -2.54035e-05 -1.63246e-07
-2.54035e-05 8.80903e-07 1.60346e-08
-1.63246e-07 1.60346e-08 -3.74093e-05
0.000838897 4.12773e-05 1.1298e-06
4.12773e-05 5.59527e-05 5.59029e-07
1.1298e-06 5.59029e-07 -6.97819e-06
0.00221926 -4.32947e-05 -2.0156e-05
-4.32947e-05 0.000806916 -3.88902e-06
-2.0156e-05 -3.88902e-06 0.000823728
0.000701343 -2.94e-05 -2.76607e-07
-2.94e-05 -3.46318e-05 9.14081e-09
-2.76607e-07 9.14081e-09 -4.31613e-05
0.000779831 -2.23787e-05 3.34806e-07
-2.23787e-05 1.0066e-05 1.51755e-06
3.34806e-07 1.51755e-06 -2.67147e-05
0.00216652 -3.4744e-05 -2.13326e-06
-3.4744e-05 0.000771783 8.31944e-08
-2.13326e-06 8.31944e-08 0.000790371
0.000705082 -2.36452e-05 3.64879e-07
-2.36452e-05 -3.83135e-05 3.36968e-06
3.64879e-07 3.36968e-06 -4.4629e-05
0.0021126 -2.55177e-05 1.13329e-05
-2.55177e-05 0.000736947 4.19206e-06
1.13329e-05 4.19206e-06 0.000757199
0.00185472 -4.06314e-05 4.30054e-05
-4.06314e-05 0.00031091 2.35708e-05
4.30054e-05 2.35708e-05 6.18805e-05
0.00119389 -1.73376e-05 1.00886e-06
-1.73376e-05 9.40743e-05 4.74253e-06
1.00886e-06 4.74253e-06 -2.58642e-05
0.000911711 -8.94623e-07 -1.33321e-06
-8.94623e-07 2.63028e-05 -3.47417e-06
-1.33321e-06 -3.47417e-06 -5.58042e-05
0.000910794 4.06127e-05 -8.0963e-07
4.06127e-05 0.000116033 -2.8256e-07
-8.0963e-07 -2.8256e-07 2.90313e-05
0.000886914 -8.27371e-06 2.23393e-07
-8.27371e-06 8.5656e-05 2.17958e-07
2.23393e-07 2.17958e-07 1.48839e-05
0.000831095 -3.72631e-05 8.41077e-08
-3.72631e-05 5.90184e-05 4.82155e-07
8.41077e-08 4.82155e-07 -1.58356e-05
0.000864505 -3.53511e-05 1.05237e-07
-3.53511e-05 7.58758e-05 -1.43432e-07
1.05237e-07 -1.43432e-07 3.27234e-06
0.000873569 -4.89325e-06 2.01131e-07
-4.89325e-06 8.40648e-05 -4.63195e-07
2.01131e-07 -4.63195e-07 4.71372e-06
0.000883206 2.0657e-05 7.38963e-08
2.0657e-05 9.64131e-05 6.21138e-07
7.38963e-08 6.21138e-07 1.39481e-05
0.000900531 1.82496e-05 -1.65275e-07
1.82496e-05 0.000106399 -1.76632e-06
-1.65275e-07 -1.76632e-06 1.93241e-05
0.000680212 -2.34185e-05 3.5459e-07
-2.34185e-05 -1.45523e-05 -1.85606e-07
3.5459e-07 -1.85606e-07 -9.35137e-05
0.000832978 4.4404e-05 3.83591e-07
4.4404e-05 6.50909e-05 -4.51983e-07
3.83591e-07 -4.51983e-07 -1.15971e-05
0.000864871 -5.64431e-05 6.07783e-07
-5.64431e-05 7.12855e-05 -9.54503e-07
6.07783e-07 -9.54503e-07 -4.80733e-06
0.000888205 -1.46511e-06 -1.42727e-07
-1.46511e-06 9.94922e-05 1.56418e-07
-1.42727e-07 1.56418e-07 2.13853e-05
0.00142073 5.36341e-06 3.21756e-06
5.36341e-06 0.000403347 1.38161e-06
3.21756e-06 1.38161e-06 0.000324576
0.00141511 -0.000334384 4.95368e-05
-0.000334384 0.000734089 4.22361e-05
4.95368e-05 4.22361e-05 0.000852463
0.0019981 -3.29698e-05 2.29638e-06
-3.29698e-05 0.000325615 1.14806e-05
2.29638e-06 1.14806e-05 -0.000161239
0.00169978 9.43382e-06 -1.26886e-05
9.43382e-06 0.000122171 -2.3242e-05
-1.26886e-05 -2.3242e-05 -0.000307173
0.00401177 -0.000479719 -5.69781e-05
-0.000479719 1.29445e-06 -4.66013e-05
-5.69781e-05 -4.66013e-05 0.0011773
0.00417811 -0.000230844 -1.43471e-05
-0.000230844 0.000545984 -1.32571e-05
-1.43471e-05 -1.32571e-05 0.000252335
0.00124748 -0.000276271 -9.84251e-05
-0.000276271 -0.000467472 6.05815e-05
-9.84251e-05 6.05815e-05 -0.00193278
0.00289254 -0.000239503 -4.27386e-05
-0.000239503 0.000330136 8.96361e-05
-4.27386e-05 8.96361e-05 -0.00010157
0.00387171 -0.000213593 -5.84352e-06
-0.000213593 0.000715784 3.00539e-05
-5.84352e-06 3.00539e-05 0.000568472
-0.000201021 -0.000618366 -2.57283e-06
-0.000618366 -0.00117974 7.58567e-06
-2.57283e-06 7.58567e-06 0.000157348
0.00484729 1.0025e-05 5.623e-06
1.0025e-05 0.00168604 2.72687e-05
5.623e-06 2.72687e-05 -0.000320469
0.000838371 -0.000406285 -2.5786e-06
-0.000406285 -0.00114988 8.87217e-06
-2.5786e-06 8.87217e-06 -0.000798115
0.00263778 0.000150109 -5.71677e-05
0.000150109 0.000166699 -2.51775e-05
-5.71677e-05 -2.51775e-05 2.49128e-05
0.00956238 -0.000505961 -2.93843e-05
-0.000505961 0.00381001 3.7137e-05
-2.93843e-05 3.7137e-05 0.00214114
-4.49037e-05 -0.000491097 -2.89325e-05
-0.000491097 -0.000282378 -2.95787e-05
-2.89325e-05 -2.95787e-05 6.44701e-05
0.000611276 0.000131085 2.40783e-07
0.000131085 -3.03527e-05 -1.66628e-06
2.40783e-07 -1.66628e-06 -9.08575e-05
0.000973524 1.91696e-05 3.50392e-06
1.91696e-05 0.000161321 -5.13761e-08
3.50392e-06 -5.13761e-08 0.000101092
0.000931171 -2.6371e-05 -7.33306e-07
-2.6371e-05 0.000115687 -7.00673e-07
-7.33306e-07 -7.00673e-07 4.20666e-05
-0.00115614 -1.00242e-05 -3.07194e-05
-1.00242e-05 -0.000283115 -1.42791e-05
-3.07194e-05 -1.42791e-05 -0.00100692
-0.000768783 1.91563e-05 3.61147e-06
1.91563e-05 -0.000587542 -6.93654e-06
3.61147e-06 -6.93654e-06 -0.000650328
0.000770707 1.95953e-05 -2.98257e-07
1.95953e-05 4.518e-05 -1.71638e-06
-2.98257e-07 -1.71638e-06 -1.89725e-05
0.00077587 6.37634e-05 2.80178e-06
6.37634e-05 0.000168912 1.53957e-06
2.80178e-06 1.53957e-06 8.68081e-05
0.000597316 0.000133458 5.68542e-06
0.000133458 0.000165491 -1.94465e-05
5.68542e-06 -1.94465e-05 -0.000174637
4.40971e-06 0.000159435 1.53791e-05
0.000159435 -0.000333458 5.89234e-06
1.53791e-05 5.89234e-06 -0.000474569
0.000275133 -1.3447e-05 8.0538e-05
-1.3447e-05 0.000839412 1.56351e-07
8.0538e-05 1.56351e-07 0.000408669
0.0013567 -1.18654e-05 -4.57696e-06
-1.18654e-05 6.67073e-05 4.96835e-06
-4.57696e-06 4.96835e-06 -0.000159855
0.000710691 -1.82451e-06 -2.01263e-06
-1.82451e-06 -0.000107373 -1.18475e-07
-2.01263e-06 -1.18475e-07 -0.000163652
0.00023104 -2.796e-05 5.58016e-07
-2.796e-05 5.50848e-05 4.96285e-06
5.58016e-07 4.96285e-06 -2.91265e-05
0.00125311 -0.000246062 9.01761e-06
-0.000246062 -0.000672896 -2.64695e-05
9.01761e-06 -2.64695e-05 -0.000720488
0.00143971 1.20538e-05 -5.60761e-05
1.20538e-05 7.40784e-05 1.36012e-05
-5.60761e-05 1.36012e-05 -0.000222741
0.000570502 -0.000124003 1.83564e-05
-0.000124003 -0.000639626 -2.6644e-05
1.83564e-05 -2.6644e-05 -0.00233736
-0.00241416 0.000443422 -1.41344e-05
0.000443422 -0.00206958 -1.0687e-05
-1.41344e-05 -1.0687e-05 -0.00164584
0.00162195 0.000381427 -6.38869e-05
0.000381427 0.000889122 4.17524e-05
-6.38869e-05 4.17524e-05 0.00123067
0.00176695 -0.000152316 -5.27101e-06
-0.000152316 0.000210909 3.56538e-06
-5.27101e-06 3.56538e-06 0.000452672
0.00129089 0.000154579 3.64179e-07
0.000154579 0.00122686 4.6072e-06
3.64179e-07 4.6072e-06 0.00107637
-0.00410646 0.000223773 1.65908e-05
0.000223773 -0.00147271 2.42019e-07
1.65908e-05 2.42019e-07 -0.00177518
0.00404003 -0.000555556 -2.90771e-06
-0.000555556 0.00101195 5.97959e-06
-2.90771e-06 5.97959e-06 8.56058e-05
0.0075973 0.000311721 1.74897e-06
0.000311721 0.00272682 -1.37123e-06
1.74897e-06 -1.37123e-06 0.00117824
0.000160722 -0.000167552 -9.99902e-07
-0.000167552 -0.000503342 1.34123e-05
-9.99902e-07 1.34123e-05 -0.000430799
-0.00586362 0.000131994 -3.49158e-05
0.000131994 -0.00291859 -7.1037e-07
-3.49158e-05 -7.1037e-07 -0.00296755
0.00638698 0.000277284 -1.49002e-06
0.000277284 0.00227959 4.17284e-06
-1.49002e-06 4.17284e-06 0.000888246
0.00502154 -0.000424226 -3.4971e-06
-0.000424226 0.000792849 2.4147e-05
-3.4971e-06 2.4147e-05 -4.23478e-05
0.000265376 -0.000108586 -1.38217e-05
-0.000108586 -3.23291e-05 6.514e-06
-1.38217e-05 6.514e-06 -0.000211452
0.00120378 -0.000169196 -1.01743e-06
-0.000169196 4.36935e-05 3.02987e-07
-1.01743e-06 3.02987e-07 5.02141e-05
0.00203739 -0.000208353 9.23705e-06
-0.000208353 0.000192088 -1.61613e-06
9.23705e-06 -1.61613e-06 0.000240087
0.000194316 -0.000105971 -3.62397e-06
-0.000105971 -0.000217395 -2.22814e-06
-3.62397e-06 -2.22814e-06 -0.000437156
0.00126192 -0.00022634 -3.78382e-06
-0.00022634 1.36899e-06 -1.53589e-06
-3.78382e-06 -1.53589e-06 -0.00015485
0.0019409 -0.000264042 -2.00844e-07
-0.000264042 0.000168323 5.99911e-07
-2.00844e-07 5.99911e-07 6.79854e-05
0.00141463 -0.000201048 -2.57824e-06
-0.000201048 0.00024382 -2.49759e-06
-2.57824e-06 -2.49759e-06 3.75811e-05
0.00151203 -0.000223908 2.75301e-06
-0.000223908 0.000107459 5.43532e-07
2.75301e-06 5.43532e-07 -4.01438e-05
0.00210595 -0.000218366 -1.06372e-06
-0.000218366 0.000277613 -3.36767e-06
-1.06372e-06 -3.36767e-06 0.000166456
0.00147896 -0.000197418 -2.45098e-06
-0.000197418 0.000193505 -9.26506e-08
-2.45098e-06 -9.26506e-08 4.31562e-06
0.00160878 -0.000199996 -8.15509e-07
-0.000199996 0.000103177 3.46277e-07
-8.15509e-07 3.46277e-07 -3.88639e-05
0.00156743 -0.000162517 -5.68381e-07
-0.000162517 2.18391e-05 -2.31239e-06
-5.68381e-07 -2.31239e-06 -8.59261e-05
0.00176904 -0.000156435 -1.33372e-06
-0.000156435 0.000174281 -1.49693e-06
-1.33372e-06 -1.49693e-06 6.44652e-05
0.00179993 -0.000186384 -1.4216e-06
-0.000186384 0.000293514 -1.99367e-06
-1.4216e-06 -1.99367e-06 0.000145449
0.00164989 -0.000177155 2.38314e-07
-0.000177155 0.000147474 1.37155e-06
2.38314e-07 1.37155e-06 1.49069e-05
0.000851837 -0.000141457 -2.79626e-06
-0.000141457 -8.10845e-05 1.22999e-06
-2.79626e-06 1.22999e-06 -0.000240164
0.00142087 -0.00017833 1.92222e-06
-0.00017833 0.000187884 -1.34117e-06
1.92222e-06 -1.34117e-06 1.62195e-05
0.00116925 -0.000172873 2.0901e-06
-0.000172873 -1.38305e-05 1.20661e-06
2.0901e-06 1.20661e-06 -0.000177756
0.00105252 -0.00013795 -4.86264e-07
-0.00013795 0.000121484 1.38714e-06
-4.86264e-07 1.38714e-06 -1.20452e-05
0.00105247 -0.000145135 9.28914e-07
-0.000145135 9.89411e-05 -4.53199e-07
9.28914e-07 -4.53199e-07 -5.49613e-05
0.000772631 -0.000140455 8.26935e-07
-0.000140455 -7.25161e-05 -2.72433e-06
8.26935e-07 -2.72433e-06 -0.000256076
0.000947043 -0.000109002 -1.68929e-06
-0.000109002 0.000100777 2.88261e-07
-1.68929e-06 2.88261e-07 -7.56586e-06
0.00104865 -0.000130186 -1.09978e-07
-0.000130186 0.000151131 -5.48256e-07
-1.09978e-07 -5.48256e-07 2.6803e-05
0.000816744 -0.000120358 -1.35644e-08
-0.000120358 3.10184e-05 -2.59437e-06
-1.35644e-08 -2.59437e-06 -9.89115e-05
0.000789986 1.13715e-05 3.06387e-07
1.13715e-05 4.57493e-05 3.14753e-06
3.06387e-07 3.14753e-06 -2.92016e-05
0.000928164 -6.26608e-05 9.41505e-07
-6.26608e-05 0.000114329 4.29984e-07
9.41505e-07 4.29984e-07 1.1823e-05
0.000906391 -9.27372e-05 2.33597e-07
-9.27372e-05 0.000110977 7.75446e-07
2.33597e-07 7.75446e-07 -7.38524e-06
0.000594933 5.71792e-05 -1.28369e-06
5.71792e-05 -4.9397e-05 4.24282e-06
-1.28369e-06 4.24282e-06 -7.32177e-05
0.000723065 2.78149e-05 -7.0495e-07
2.78149e-05 1.0141e-05 -3.71944e-07
-7.0495e-07 -3.71944e-07 -5.08759e-05
0.000886309 -2.36867e-05 -1.185e-08
-2.36867e-05 0.000105268 -1.64118e-06
-1.185e-08 -1.64118e-06 1.24834e-05
0.00217393 7.93246e-05 -9.61134e-06
7.93246e-05 0.000816506 1.25324e-06
-9.61134e-06 1.25324e-06 0.000824309
0.000676576 5.20724e-05 1.5867e-08
5.20724e-05 -1.36435e-05 -8.00015e-08
1.5867e-08 -8.00015e-08 -3.15216e-05
0.000712589 4.31686e-05 1.06825e-06
4.31686e-05 8.79253e-07 -2.2358e-06
1.06825e-06 -2.2358e-06 -4.81245e-05
0.00212339 6.41558e-05 1.16499e-06
6.41558e-05 0.000778338 9.12633e-08
1.16499e-06 9.12633e-08 0.000790574
0.000720111 4.78761e-05 1.44911e-06
4.78761e-05 -5.37744e-07 -3.42193e-06
1.44911e-06 -3.42193e-06 -1.39108e-05
0.00211525 5.77863e-05 2.52154e-05
5.77863e-05 0.000766643 -3.18742e-06
2.52154e-05 -3.18742e-06 0.000780707
0.000914526 3.04372e-05 -3.36947e-07
3.04372e-05 0.00010934 -1.50802e-07
-3.36947e-07 -1.50802e-07 2.84698e-05
0.000805151 -1.09276e-05 1.0543e-07
-1.09276e-05 4.22781e-05 -2.75959e-07
1.0543e-07 -2.75959e-07 -3.30563e-05
0.000807328 1.81997e-07 -3.58147e-07
1.81997e-07 4.3326e-05 -1.63186e-06
-3.58147e-07 -1.63186e-06 -2.66714e-05
0.0007366 -4.7768e-05 -5.91428e-07
-4.7768e-05 -7.96137e-07 -2.22962e-06
-5.91428e-07 -2.22962e-06 -4.36006e-05
0.000793117 -1.37506e-05 8.20815e-07
-1.37506e-05 3.15527e-05 -8.71282e-08
8.20815e-07 -8.71282e-08 -3.30562e-05
0.000777351 -5.53768e-06 5.21916e-07
-5.53768e-06 2.97034e-05 7.57416e-07
5.21916e-07 7.57416e-07 -4.4168e-05
0.000692704 -3.94951e-05 -1.36292e-06
-3.94951e-05 -2.68635e-05 -3.69375e-06
-1.36292e-06 -3.69375e-06 -3.92897e-05
0.000751952 -3.39616e-05 -1.99006e-07
-3.39616e-05 5.49396e-07 2.31218e-08
-1.99006e-07 2.31218e-08 -3.94162e-05
0.000798624 -1.04229e-05 1.19727e-06
-1.04229e-05 3.07556e-05 8.84033e-07
1.19727e-06 8.84033e-07 -3.0148e-05
0.00224831 -5.09899e-05 -2.39493e-05
-5.09899e-05 0.000829168 -3.69965e-06
-2.39493e-05 -3.69965e-06 0.000844338
0.000687526 -3.41473e-05 -2.02256e-07
-3.41473e-05 -3.60218e-05 2.2693e-08
-2.02256e-07 2.2693e-08 -4.65883e-05
0.000767741 -2.38504e-05 8.79183e-07
-2.38504e-05 5.47901e-06 1.63597e-06
8.79183e-07 1.63597e-06 -3.2778e-05
0.00220993 -4.29968e-05 -2.23898e-06
-4.29968e-05 0.000801201 1.04946e-07
-2.23898e-06 1.04946e-07 0.000818158
0.000693235 -2.88782e-05 3.8994e-07
-2.88782e-05 -3.89626e-05 3.4634e-06
3.8994e-07 3.4634e-06 -4.74396e-05
0.0021535 -3.41383e-05 1.48947e-05
-3.41383e-05 0.000763992 4.0896e-06
1.48947e-05 4.0896e-06 0.000782794
-0.00210007 -0.000125895 3.80163e-05
-0.000125895 -0.000460751 1.70478e-05
3.80163e-05 1.70478e-05 -0.000984083
0.00182302 -4.7544e-05 2.04248e-06
-4.7544e-05 0.000308199 6.47309e-06
2.04248e-06 6.47309e-06 6.11412e-05
0.00118612 -1.41731e-05 -8.3154e-06
-1.41731e-05 6.72087e-05 -5.43929e-06
-8.3154e-06 -5.43929e-06 -4.589e-05
0.000871148 7.85971e-06 -9.4222e-07
7.85971e-06 9.14028e-05 7.1749e-07
-9.4222e-07 7.1749e-07 6.76351e-06
0.00105795 0.000111726 1.86692e-07
0.000111726 0.000206645 9.91451e-07
1.86692e-07 9.91451e-07 0.000104668
0.000869031 2.88431e-05 -3.79373e-07
2.88431e-05 9.87918e-05 1.604e-07
-3.79373e-07 1.604e-07 7.06751e-06
0.000967245 -4.3258e-05 3.80083e-07
-4.3258e-05 0.000131554 -3.35206e-07
3.80083e-07 -3.35206e-07 5.8868e-05
0.000921705 2.23818e-05 6.26294e-07
2.23818e-05 0.000107628 4.92946e-07
6.26294e-07 4.92946e-07 2.98566e-05
0.000729488 -2.59638e-05 -8.3997e-07
-2.59638e-05 8.7525e-06 1.63849e-06
-8.3997e-07 1.63849e-06 -7.01713e-05
0.000749445 1.17888e-06 -6.77802e-07
1.17888e-06 2.70469e-05 1.16444e-08
-6.77802e-07 1.16444e-08 -5.62638e-05
0.00080434 5.65192e-06 2.19716e-07
5.65192e-06 5.38953e-05 -1.16954e-07
2.19716e-07 -1.16954e-07 -3.22361e-05
0.00100755 5.21387e-05 1.37253e-06
5.21387e-05 0.000186775 -1.87521e-06
1.37253e-06 -1.87521e-06 8.58939e-05
0.000865388 6.08805e-05 3.86787e-06
6.08805e-05 7.37028e-05 -3.23644e-06
3.86787e-06 -3.23644e-06 -7.83025e-06
0.000862029 2.85452e-05 -2.11172e-07
2.85452e-05 8.68992e-05 -9.2504e-07
-2.11172e-07 -9.2504e-07 7.16949e-06
0.00101573 3.32871e-05 7.1899e-07
3.32871e-05 0.000185987 7.46996e-07
7.1899e-07 7.46996e-07 0.000107408
-0.00240671 -0.000340222 -3.11292e-05
-0.000340222 -0.00108083 1.69726e-05
-3.11292e-05 1.69726e-05 -0.00117617
-0.000432423 -0.000325381 2.63774e-05
-0.000325381 -7.86034e-05 9.62708e-06
2.63774e-05 9.62708e-06 -0.00012454
0.0021956 -4.0991e-05 -4.57489e-05
-4.0991e-05 0.00045873 -3.53489e-05
-4.57489e-05 -3.53489e-05 -4.29056e-05
-0.00333271 -0.000631069 2.50861e-05
-0.000631069 -0.00266816 4.52041e-05
2.50861e-05 4.52041e-05 -0.00120362
0.00531334 -0.000654691 -1.31105e-05
-0.000654691 0.00151022 -1.73112e-05
-1.31105e-05 -1.73112e-05 0.00161826
0.0033489 0.000287734 5.21691e-05
0.000287734 0.000869201 -1.09488e-06
5.21691e-05 -1.09488e-06 -0.00112899
0.00291792 -0.000257671 -0.000128835
-0.000257671 0.000338556 8.17698e-05
-0.000128835 8.17698e-05 -0.000225058
0.00324581 0.000118985 -2.88315e-05
0.000118985 0.000410651 2.98995e-06
-2.88315e-05 2.98995e-06 0.000151145
0.00401873 -0.000711626 -1.49852e-05
-0.000711626 0.00162245 2.01187e-05
-1.49852e-05 2.01187e-05 0.0017701
0.00169802 7.24709e-05 1.00716e-05
7.24709e-05 0.000133371 1.91494e-05
1.00716e-05 1.91494e-05 -0.00163501
0.0022341 0.000345634 -0.000107534
0.000345634 0.00042353 -8.3006e-05
-0.000107534 -8.3006e-05 -0.000313561
0.00198207 0.000361849 -0.000137154
0.000361849 0.000284115 -5.08392e-05
-0.000137154 -5.08392e-05 -0.00144737
0.00226624 0.000311617 1.22912e-05
0.000311617 0.000638668 -1.11344e-05
1.22912e-05 -1.11344e-05 0.000501948
0.000791729 0.000126074 -2.19645e-06
0.000126074 5.9129e-05 2.63794e-07
-2.19645e-06 2.63794e-07 8.39575e-07
0.00114121 2.07504e-05 -1.15052e-06
2.07504e-05 0.000244897 -2.54459e-06
-1.15052e-06 -2.54459e-06 0.000186052
0.000297825 0.00012152 -3.23148e-05
0.00012152 -1.15719e-05 -1.4391e-05
-3.23148e-05 -1.4391e-05 -0.000260443
0.00155601 0.000110547 -5.35402e-06
0.000110547 0.000546253 -6.30482e-06
-5.35402e-06 -6.30482e-06 0.000459217
0.00122717 0.000233858 1.09213e-05
0.000233858 0.00020986 -5.28642e-07
1.09213e-05 -5.28642e-07 8.19886e-05
0.00156312 0.000319154 5.27567e-05
0.000319154 -5.83247e-05 2.97497e-05
5.27567e-05 2.97497e-05 -0.000100102
-0.00357379 -4.09711e-05 -7.61399e-05
-4.09711e-05 -0.00171764 -6.16121e-06
-7.61399e-05 -6.16121e-06 -0.00148748
-0.000538547 -1.35925e-05 2.28993e-05
-1.35925e-05 0.000518912 5.81722e-07
2.28993e-05 5.81722e-07 5.95943e-05
0.00146105 -1.92419e-05 -3.89948e-05
-1.92419e-05 0.00018005 3.54283e-06
-3.89948e-05 3.54283e-06 6.81411e-06
0.00153701 -0.000177956 -3.5408e-05
-0.000177956 8.98791e-05 -1.69829e-05
-3.5408e-05 -1.69829e-05 0.00032468
0.00368076 -0.000591712 -6.64631e-05
-0.000591712 0.000620532 -3.43948e-06
-6.64631e-05 -3.43948e-06 -9.17144e-05
0.00118527 0.000122546 -4.39318e-05
0.000122546 0.00125126 1.66987e-05
-4.39318e-05 1.66987e-05 0.00105474
-0.00125051 -1.20449e-05 4.44612e-05
-1.20449e-05 -0.000991775 -5.15811e-05
4.44612e-05 -5.15811e-05 -0.00290733
0.00996274 0.000526632 -8.51152e-05
0.000526632 0.00492452 1.01755e-05
-8.51152e-05 1.01755e-05 0.00490649
0.00155425 -0.000281046 6.508e-06
-0.000281046 0.000117666 1.26623e-06
6.508e-06 1.26623e-06 0.000103469
-0.000710915 0.000254726 -2.64349e-06
0.000254726 -0.000188594 -4.1805e-06
-2.64349e-06 -4.1805e-06 -0.000301765
0.00228706 0.000164558 -1.48651e-05
0.000164558 0.000252262 1.71543e-05
-1.48651e-05 1.71543e-05 -0.0013843
0.00487938 -0.000433027 -1.70426e-05
-0.000433027 0.00118493 7.98945e-06
-1.70426e-05 7.98945e-06 0.000412001
-0.000427212 -0.000126489 1.58827e-06
-0.000126489 -0.000700054 -3.23882e-06
1.58827e-06 -3.23882e-06 -0.000881827
0.0080551 -5.0913e-05 5.73988e-05
-5.0913e-05 0.00266507 -3.08694e-06
5.73988e-05 -3.08694e-06 0.00174335
0.00395038 -7.31222e-05 8.26725e-06
-7.31222e-05 0.000775767 -9.85534e-06
8.26725e-06 -9.85534e-06 0.000298181
-0.000104735 -0.000107186 -1.34057e-05
-0.000107186 -0.000617753 2.53128e-06
-1.34057e-05 2.53128e-06 -0.000573982
0.00115786 -0.000183477 -8.67391e-07
-0.000183477 -0.000256148 -5.93662e-07
-8.67391e-07 -5.93662e-07 -0.000204885
0.00201604 -0.00023999 4.91348e-06
-0.00023999 3.00484e-05 -1.00743e-05
4.91348e-06 -1.00743e-05 7.64378e-05
0.00161025 -0.00024317 -5.62222e-06
-0.00024317 0.000179199 -3.33404e-06
-5.62222e-06 -3.33404e-06 2.49265e-05
0.00164452 -0.000248582 -4.77119e-08
-0.000248582 1.32e-05 1.38616e-06
-4.77119e-08 1.38616e-06 -8.05168e-05
0.00204286 -0.000225376 -4.8861e-06
-0.000225376 0.000134015 -1.22838e-07
-4.8861e-06 -1.22838e-07 7.30141e-05
0.00114039 -0.000203371 1.07152e-06
-0.000203371 -7.48788e-05 2.20765e-06
1.07152e-06 2.20765e-06 -0.000224151
0.00168194 -0.000200803 -2.29637e-06
-0.000200803 5.34462e-05 -7.30071e-07
-2.29637e-06 -7.30071e-07 -5.69789e-05
0.00188099 -0.00016862 -1.95479e-06
-0.00016862 0.000101104 -1.5852e-06
-1.95479e-06 -1.5852e-06 1.4586e-05
0.00185264 -0.000209082 1.71466e-06
-0.000209082 0.000231725 2.53919e-06
1.71466e-06 2.53919e-06 8.8887e-05
0.00169513 -0.000166941 3.61492e-07
-0.000166941 8.91086e-05 3.80288e-07
3.61492e-07 3.80288e-07 -1.90038e-05
0.00170222 -0.000138747 -3.95543e-07
-0.000138747 8.41506e-05 -3.64672e-07
-3.95543e-07 -3.64672e-07 -9.95934e-06
0.00173694 -0.000134857 -1.12864e-07
-0.000134857 0.000150686 -4.35118e-07
-1.12864e-07 -4.35118e-07 4.96874e-05
0.00164173 -0.000149421 -1.73386e-06
-0.000149421 0.000109188 1.61148e-06
-1.73386e-06 1.61148e-06 1.28171e-06
0.00167611 -0.000156245 1.51976e-07
-0.000156245 0.000176503 -3.04856e-06
1.51976e-07 -3.04856e-06 5.64982e-05
0.00154977 -0.000169489 -3.00108e-06
-0.000169489 0.000205123 -1.11664e-06
-3.00108e-06 -1.11664e-06 5.88291e-05
0.00174711 -0.000182682 1.39905e-06
-0.000182682 0.000266233 5.63178e-09
1.39905e-06 5.63178e-09 0.000118599
0.00143951 -0.000164929 2.0978e-06
-0.000164929 4.05182e-05 4.57016e-06
2.0978e-06 4.57016e-06 -9.11558e-05
0.000812386 -0.000131264 -3.38692e-06
-0.000131264 -7.06277e-05 2.8661e-06
-3.38692e-06 2.8661e-06 -0.000213976
0.00118767 -0.000157255 3.98465e-07
-0.000157255 0.000100897 -1.59336e-07
3.98465e-07 -1.59336e-07 -5.72927e-05
0.00141726 -0.000175581 3.98572e-06
-0.000175581 0.000187702 -1.4569e-06
3.98572e-06 -1.4569e-06 1.92129e-05
0.000952456 -0.000117785 -1.55734e-06
-0.000117785 7.99592e-05 7.20244e-07
-1.55734e-06 7.20244e-07 -3.53755e-05
0.00110368 -0.000139839 1.55513e-07
-0.000139839 0.000146832 -2.93433e-07
1.55513e-07 -2.93433e-07 1.31111e-05
0.000699386 -0.00012419 1.04697e-06
-0.00012419 -8.56177e-05 -4.00405e-06
1.04697e-06 -4.00405e-06 -0.00023772
0.000779986 -4.25745e-05 -2.59906e-06
-4.25745e-05 2.91529e-05 2.57878e-06
-2.59906e-06 2.57878e-06 -5.46208e-05
0.0010232 -0.000114371 7.05748e-08
-0.000114371 0.000140414 -8.76341e-08
7.05748e-08 -8.76341e-08 3.16173e-05
0.00113812 -0.000134959 8.95634e-07
-0.000134959 0.000197024 -7.62903e-07
8.95634e-07 -7.62903e-07 7.22854e-05
0.000547217 6.82885e-05 5.23489e-07
6.82885e-05 -6.8393e-05 5.40721e-06
5.23489e-07 5.40721e-06 -0.00010198
0.000767153 -6.04982e-06 2.48431e-08
-6.04982e-06 3.42959e-05 8.09143e-08
2.48431e-08 8.09143e-08 -4.25991e-05
0.00100952 -6.91923e-05 1.4484e-06
-6.91923e-05 0.00015795 -4.17565e-07
1.4484e-06 -4.17565e-07 5.43935e-05
0.00238698 8.19795e-05 -3.50089e-05
8.19795e-05 0.000937946 2.6742e-06
-3.50089e-05 2.6742e-06 0.000944362
0.000637964 6.23972e-05 -1.33566e-07
6.23972e-05 -2.43767e-05 -1.93557e-07
-1.33566e-07 -1.93557e-07 -4.95676e-05
0.000714167 -5.98631e-06 2.19976e-06
-5.98631e-06 2.75059e-06 -2.93473e-06
2.19976e-06 -2.93473e-06 -5.76176e-05
0.00157502 6.18839e-05 1.38407e-05
6.18839e-05 0.000485311 -5.84694e-07
1.38407e-05 -5.84694e-07 0.000491043
0.000710479 5.551e-05 7.97411e-07
5.551e-05 5.08198e-06 -3.96158e-06
7.97411e-07 -3.96158e-06 -1.33802e-05
0.00218444 6.53235e-05 2.94953e-05
6.53235e-05 0.000813219 -2.97089e-06
2.94953e-05 -2.97089e-06 0.000824893
0.000901621 4.65937e-05 4.48368e-07
4.65937e-05 0.000104311 5.55695e-07
4.48368e-07 5.55695e-07 1.49283e-05
0.000877696 -2.69502e-06 -2.67617e-07
-2.69502e-06 8.5819e-05 5.00231e-07
-2.67617e-07 5.00231e-07 7.75787e-06
0.00082088 -3.13879e-05 1.68589e-07
-3.13879e-05 5.57743e-05 -1.44479e-06
1.68589e-07 -1.44479e-06 -1.85353e-05
0.000874851 4.95973e-06 1.4836e-07
4.95973e-06 8.0412e-05 5.61199e-07
1.4836e-07 5.61199e-07 3.96259e-06
0.000801497 -3.14434e-05 4.17069e-07
-3.14434e-05 3.70089e-05 -8.75681e-08
4.17069e-07 -8.75681e-08 -3.05732e-05
0.000706825 -4.80206e-05 -5.73086e-07
-4.80206e-05 -1.04752e-05 -2.43649e-06
-5.73086e-07 -2.43649e-06 -5.65609e-05
0.000694315 -4.43958e-05 -1.78386e-06
-4.43958e-05 -1.90542e-05 -3.80124e-06
-1.78386e-06 -3.80124e-06 -3.33109e-05
0.000736925 -4.36958e-05 8.55359e-08
-4.36958e-05 -1.21593e-06 -3.41787e-08
8.55359e-08 -3.41787e-08 -4.35708e-05
0.000790944 -5.36987e-05 -1.77181e-07
-5.36987e-05 2.73168e-05 1.31401e-06
-1.77181e-07 1.31401e-06 -3.45781e-05
0.00225386 -5.81056e-05 -2.75958e-05
-5.81056e-05 0.000839182 -3.44181e-06
-2.75958e-05 -3.44181e-06 0.000852775
0.000678606 -3.8557e-05 -2.40608e-07
-3.8557e-05 -3.45074e-05 3.89781e-08
-2.40608e-07 3.89781e-08 -4.68411e-05
0.000755307 -2.55183e-05 1.58925e-06
-2.55183e-05 1.60141e-06 1.8464e-06
1.58925e-06 1.8464e-06 -3.77837e-05
0.00224457 -5.07984e-05 -1.86007e-06
-5.07984e-05 0.000826449 1.1877e-07
-1.86007e-06 1.1877e-07 0.000841719
0.000681363 -3.3492e-05 7.29567e-07
-3.3492e-05 -3.92124e-05 3.61713e-06
7.29567e-07 3.61713e-06 -4.97467e-05
0.00219361 -4.25667e-05 1.82643e-05
-4.25667e-05 0.000791609 3.94554e-06
1.82643e-05 3.94554e-06 0.000808752
0.00094251 0.000137268 6.87586e-05
0.000137268 0.000837955 3.21198e-05
6.87586e-05 3.21198e-05 0.000367775
-0.000348491 -0.000161043 2.76852e-06
-0.000161043 0.000324469 5.72117e-06
2.76852e-06 5.72117e-06 -7.98123e-05
0.00179807 -5.34913e-05 -4.15722e-05
-5.34913e-05 0.000318333 -1.1115e-05
-4.15722e-05 -1.1115e-05 7.33885e-05
0.000848546 -2.07836e-05 -4.69787e-08
-2.07836e-05 7.72154e-05 7.54996e-07
-4.69787e-08 7.54996e-07 -5.83589e-06
0.000845852 1.85373e-06 -8.05645e-08
1.85373e-06 8.31044e-05 7.03021e-07
-8.05645e-08 7.03021e-07 -7.80671e-06
0.000924504 9.84584e-05 -5.82921e-08
9.84584e-05 0.000138353 2.67773e-07
-5.82921e-08 2.67773e-07 3.78264e-05
0.00110867 0.000131726 9.98728e-07
0.000131726 0.000224129 4.49088e-07
9.98728e-07 4.49088e-07 0.000110729
0.000912818 8.14637e-05 -1.14219e-06
8.14637e-05 0.000139397 -3.5811e-07
-1.14219e-06 -3.5811e-07 3.3139e-05
0.000808679 2.99049e-05 4.41822e-07
2.99049e-05 5.82327e-05 1.20467e-06
4.41822e-07 1.20467e-06 -2.57251e-05
0.00074959 9.72727e-06 1.80225e-07
9.72727e-06 2.37388e-05 1.21231e-06
1.80225e-07 1.21231e-06 -6.20898e-05
0.00072292 5.36712e-05 -1.01264e-06
5.36712e-05 3.22287e-05 -1.02575e-06
-1.01264e-06 -1.02575e-06 -6.58343e-05
0.000203901 7.4707e-05 -1.19973e-07
7.4707e-05 -0.000234979 5.43099e-07
-1.19973e-07 5.43099e-07 -0.000348662
0.000895676 0.000110866 1.20448e-06
0.000110866 8.42387e-05 -3.29083e-06
1.20448e-06 -3.29083e-06 -1.59606e-05
0.00184848 0.00023438 5.97732e-06
0.00023438 0.000396871 -8.54037e-06
5.97732e-06 -8.54037e-06 0.000267811
0.000797165 6.14405e-05 -1.3082e-06
6.14405e-05 5.55904e-05 -3.41497e-07
-1.3082e-06 -3.41497e-07 -2.62967e-05
0.000745734 2.23653e-06 -4.98011e-07
2.23653e-06 3.24717e-05 -8.8663e-07
-4.98011e-07 -8.8663e-07 -4.15888e-05
0.00910783 -2.48097e-05 -4.36139e-05
-2.48097e-05 0.00287457 -7.04778e-06
-4.36139e-05 -7.04778e-06 0.00164328
-0.00194449 -0.000276522 -4.26588e-05
-0.000276522 -0.000584327 -6.08484e-06
-4.26588e-05 -6.08484e-06 -0.000948387
0.000999193 -0.000346811 -2.78728e-05
-0.000346811 0.000583464 -2.49272e-05
-2.78728e-05 -2.49272e-05 0.000499198
-0.00288766 -0.00036843 -2.13525e-06
-0.00036843 -0.00158207 1.61443e-05
-2.13525e-06 1.61443e-05 -0.00138979
0.00960404 -0.000397735 7.75903e-05
-0.000397735 0.00392087 7.94507e-06
7.75903e-05 7.94507e-06 0.00175239
0.0031998 0.000138052 -5.32363e-06
0.000138052 0.00049764 1.46153e-05
-5.32363e-06 1.46153e-05 0.000410642
0.00140708 0.000321472 -4.32354e-05
0.000321472 -0.000142159 -2.1289e-05
-4.32354e-05 -2.1289e-05 -0.000730314
0.00704863 -0.00030491 5.11859e-05
-0.00030491 0.00229685 1.70589e-05
5.11859e-05 1.70589e-05 0.000891804
0.00326247 0.000374623 4.64238e-06
0.000374623 0.000278347 -3.35428e-05
4.64238e-06 -3.35428e-05 -0.000252835
0.00209472 0.000358768 8.84261e-06
0.000358768 0.000335948 1.27165e-05
8.84261e-06 1.27165e-05 0.000177355
0.000882176 0.000212044 2.06413e-06
0.000212044 9.33412e-06 -5.28505e-06
2.06413e-06 -5.28505e-06 -0.000136265
0.000929132 0.000116576 -7.48402e-06
0.000116576 0.0001297 4.09028e-06
-7.48402e-06 4.09028e-06 7.49341e-05
0.00140379 0.000256681 -3.26266e-05
0.000256681 0.000242921 -1.58229e-05
-3.26266e-05 -1.58229e-05 0.000127784
0.000908772 0.00029723 -1.75561e-05
0.00029723 -0.000346429 1.44965e-05
-1.75561e-05 1.44965e-05 -0.000409021
0.000509652 -0.00011165 -8.14808e-06
-0.00011165 -0.00139714 -2.40769e-06
-8.14808e-06 -2.40769e-06 -0.00181685
0.00185542 -4.16445e-05 -3.65033e-06
-4.16445e-05 0.00108117 -3.23039e-06
-3.65033e-06 -3.23039e-06 0.00101001
-0.00136839 -1.76202e-05 -4.70703e-06
-1.76202e-05 0.000215927 -1.63717e-07
-4.70703e-06 -1.63717e-07 -0.000301196
0.00269214 -0.000364103 -5.04717e-05
-0.000364103 0.000612707 4.14992e-06
-5.04717e-05 4.14992e-06 0.00054811
0.00382445 -0.000412958 -1.49246e-05
-0.000412958 0.000728037 -1.76093e-05
-1.49246e-05 -1.76093e-05 -0.000342267
9.32546e-05 -7.84316e-05 -2.00557e-05
-7.84316e-05 0.00034374 1.65895e-05
-2.00557e-05 1.65895e-05 6.162e-05
0.00933947 0.000354749 -4.0934e-05
0.000354749 0.00381367 2.67739e-05
-4.0934e-05 2.67739e-05 0.00231819
0.000557792 -0.000174559 -5.68621e-07
-0.000174559 -0.000258322 -3.24082e-07
-5.68621e-07 -3.24082e-07 -0.000386031
0.00591758 0.000151557 1.91384e-05
0.000151557 0.00155019 1.53088e-05
1.91384e-05 1.53088e-05 0.000723592
0.00356902 -0.000145897 4.01007e-05
-0.000145897 0.000320393 -1.58798e-06
4.01007e-05 -1.58798e-06 -0.000386837
0.00322633 -0.000211544 -5.65956e-06
-0.000211544 0.00111943 2.55427e-06
-5.65956e-06 2.55427e-06 0.000903853
0.00300291 -4.35784e-05 -8.32743e-05
-4.35784e-05 0.000616807 -6.47649e-06
-8.32743e-05 -6.47649e-06 0.000313064
0.000411597 -0.000160699 -7.71054e-06
-0.000160699 -0.000648169 2.7756e-06
-7.71054e-06 2.7756e-06 -0.000586936
0.00156487 -0.000233721 -3.25901e-08
-0.000233721 -0.000177919 6.12089e-07
-3.25901e-08 6.12089e-07 -0.000156247
0.00193857 -0.000159496 -1.07388e-06
-0.000159496 -1.78234e-05 -1.10593e-06
-1.07388e-06 -1.10593e-06 -2.09622e-05
0.00135038 -0.000233975 4.24128e-06
-0.000233975 -0.000136705 1.45897e-06
4.24128e-06 1.45897e-06 -0.000225983
0.00177633 -0.00020647 -3.75307e-07
-0.00020647 2.13223e-05 -4.2193e-07
-3.75307e-07 -4.2193e-07 -3.98506e-05
0.00187478 -0.000134653 -2.94615e-06
-0.000134653 1.3914e-05 5.18854e-07
-2.94615e-06 5.18854e-07 -3.2734e-05
0.00132794 -0.000186137 -2.66238e-06
-0.000186137 -0.000134732 2.37192e-06
-2.66238e-06 2.37192e-06 -0.00024465
0.00178986 -0.000163533 2.42221e-07
-0.000163533 5.18985e-05 1.24634e-06
2.42221e-07 1.24634e-06 -3.42204e-05
0.00176372 -0.000127837 1.25078e-06
-0.000127837 6.6808e-05 7.79526e-08
1.25078e-06 7.79526e-08 -1.28273e-05
0.00179342 -0.000170129 2.11623e-06
-0.000170129 0.000141218 3.42278e-06
2.11623e-06 3.42278e-06 3.28325e-05
0.00171395 -0.000140177 -2.37611e-07
-0.000140177 9.23057e-05 6.54236e-07
-2.37611e-07 6.54236e-07 -2.67618e-06
0.00176181 -0.000122385 1.13238e-06
-0.000122385 0.000133811 7.72792e-07
1.13238e-06 7.72792e-07 3.88231e-05
0.00160891 -0.000131357 -2.15394e-06
-0.000131357 8.40532e-05 5.326e-07
-2.15394e-06 5.326e-07 -1.49124e-05
0.00168751 -0.000134307 2.37038e-06
-0.000134307 0.000154339 -1.32413e-06
2.37038e-06 -1.32413e-06 4.51855e-05
0.00151585 -0.000142723 2.97832e-07
-0.000142723 4.49987e-05 2.9834e-06
2.97832e-07 2.9834e-06 -6.113e-05
0.00164861 -0.000154514 4.13359e-07
-0.000154514 0.000160252 -2.42883e-07
4.13359e-07 -2.42883e-07 4.05521e-05
0.00160794 -0.000152486 -5.31911e-07
-0.000152486 0.000181371 -1.67905e-06
-5.31911e-07 -1.67905e-06 5.36115e-05
0.00106441 -0.000140948 -4.06409e-06
-0.000140948 -1.4465e-05 9.77604e-07
-4.06409e-06 9.77604e-07 -0.000154653
0.00152494 -0.000167237 1.89327e-07
-0.000167237 0.000192485 -5.43192e-07
1.89327e-07 -5.43192e-07 4.56527e-05
0.00169534 -0.0001791 3.13301e-06
-0.0001791 0.000239902 2.51871e-06
3.13301e-06 2.51871e-06 9.26367e-05
0.00105241 -0.000130364 -2.6323e-06
-0.000130364 9.36907e-05 1.81618e-06
-2.6323e-06 1.81618e-06 -3.04556e-05
0.000927775 -0.000136133 -1.00032e-06
-0.000136133 -5.35709e-06 1.13681e-06
-1.00032e-06 1.13681e-06 -0.000147746
0.00149311 -0.000171248 3.47818e-06
-0.000171248 0.00026714 -1.92111e-06
3.47818e-06 -1.92111e-06 0.000109964
0.000738142 -6.27591e-05 -3.13058e-06
-6.27591e-05 -1.08442e-05 2.00454e-06
-3.13058e-06 2.00454e-06 -9.87807e-05
0.00104914 -0.000124078 1.22694e-07
-0.000124078 0.000130103 -3.18054e-07
1.22694e-07 -3.18054e-07 1.40076e-05
0.00116296 -0.000142295 1.45094e-06
-0.000142295 0.000176626 -2.11741e-06
1.45094e-06 -2.11741e-06 4.26373e-05
0.00055461 3.81026e-05 -1.97182e-06
3.81026e-05 -7.30347e-05 6.04528e-06
-1.97182e-06 6.04528e-06 -0.000110592
0.000820009 -4.74372e-05 1.81434e-07
-4.74372e-05 4.95801e-05 2.85761e-07
1.81434e-07 2.85761e-07 -3.44084e-05
0.00108219 -0.000111329 1.74566e-06
-0.000111329 0.000169943 -4.17139e-07
1.74566e-06 -4.17139e-07 6.18034e-05
0.00268207 9.40792e-05 -4.15539e-05
9.40792e-05 0.00110253 2.62542e-06
-4.15539e-05 2.62542e-06 0.0011054
0.000605662 5.46811e-05 8.4071e-07
5.46811e-05 -4.02412e-05 -1.6223e-07
8.4071e-07 -1.6223e-07 -7.19498e-05
0.00076245 -3.86605e-05 2.41904e-06
-3.86605e-05 2.76537e-05 -2.67959e-06
2.41904e-06 -2.67959e-06 -4.79492e-05
0.00247682 8.2769e-05 1.16563e-06
8.2769e-05 0.000986363 1.29259e-07
1.16563e-06 1.29259e-07 0.000992454
0.00068071 6.24553e-05 -4.90104e-07
6.24553e-05 -9.31884e-07 -4.88767e-06
-4.90104e-07 -4.88767e-06 -2.65372e-05
0.00233365 7.35811e-05 3.54751e-05
7.35811e-05 0.00090243 -2.82313e-06
3.54751e-05 -2.82313e-06 0.000911366
0.0010101 0.000118354 6.26858e-07
0.000118354 0.000157805 -6.57499e-08
6.26858e-07 -6.57499e-08 5.09859e-05
0.000847439 7.86681e-05 3.39206e-07
7.86681e-05 7.90365e-05 8.91312e-08
3.39206e-07 8.91312e-08 -1.29807e-05
0.000758049 -2.31088e-05 -4.16728e-07
-2.31088e-05 2.60609e-05 -8.37494e-07
-4.16728e-07 -8.37494e-07 -5.8457e-05
0.000822863 -3.12066e-05 -4.59862e-07
-3.12066e-05 5.57273e-05 9.08286e-07
-4.59862e-07 9.08286e-07 -2.19422e-05
0.000784804 -4.47783e-05 2.03376e-07
-4.47783e-05 3.53816e-05 5.60555e-08
2.03376e-07 5.60555e-08 -3.88277e-05
0.000686085 -4.68849e-05 -6.75457e-07
-4.68849e-05 -1.63289e-05 -2.5645e-06
-6.75457e-07 -2.5645e-06 -6.91465e-05
0.000776148 -5.26733e-05 -1.98588e-07
-5.26733e-05 2.24236e-05 1.58401e-06
-1.98588e-07 1.58401e-06 -4.42363e-05
0.0007198 -5.12469e-05 2.06423e-07
-5.12469e-05 -3.58033e-06 -1.44278e-07
2.06423e-07 -1.44278e-07 -4.98235e-05
0.000690008 -5.23042e-05 -1.50663e-06
-5.23042e-05 -1.21324e-05 -4.0057e-06
-1.50663e-06 -4.0057e-06 -2.94201e-05
0.00225316 -6.50681e-05 -3.07434e-05
-6.50681e-05 0.000846525 -3.15182e-06
-3.07434e-05 -3.15182e-06 0.000858381
0.000677789 -4.31941e-05 -4.97644e-08
-4.31941e-05 -2.78464e-05 2.06602e-08
-4.97644e-08 2.06602e-08 -4.19868e-05
0.000739365 -4.03119e-05 1.6427e-06
-4.03119e-05 -3.77621e-07 1.99202e-06
1.6427e-06 1.99202e-06 -4.23205e-05
0.00225774 -5.79917e-05 -1.64245e-06
-5.79917e-05 0.000840493 1.24338e-07
-1.64245e-06 1.24338e-07 0.000854139
0.000670223 -3.77167e-05 1.09192e-06
-3.77167e-05 -3.90299e-05 3.75424e-06
1.09192e-06 3.75424e-06 -5.1293e-05
0.0022366 -5.04864e-05 2.22831e-05
-5.04864e-05 0.000821452 3.77548e-06
2.22831e-05 3.77548e-06 0.000836846
0.00802383 0.0001349 7.85297e-05
0.0001349 0.00241765 2.51199e-05
7.85297e-05 2.51199e-05 0.00151053
-0.00241981 -0.000152831 -1.78803e-05
-0.000152831 -0.00123485 -2.3554e-06
-1.78803e-05 -2.3554e-06 -0.00122813
-0.00165391 -9.43292e-05 -4.41171e-05
-9.43292e-05 -0.000283094 -7.58533e-06
-4.41171e-05 -7.58533e-06 -0.000847929
0.000816894 -2.43865e-05 2.69708e-07
-2.43865e-05 6.49106e-05 1.29049e-06
2.69708e-07 1.29049e-06 -2.54383e-05
0.000793706 9.86959e-05 -6.42622e-07
9.86959e-05 7.08415e-05 1.72435e-07
-6.42622e-07 1.72435e-07 -2.79868e-05
0.000996634 8.53724e-05 4.4943e-07
8.53724e-05 0.000184797 -1.08692e-07
4.4943e-07 -1.08692e-07 7.86503e-05
0.00100103 0.000124954 -1.07123e-06
0.000124954 0.000167366 1.21292e-07
-1.07123e-06 1.21292e-07 5.51562e-05
0.00111249 0.000136456 7.99189e-06
0.000136456 0.00021247 7.37322e-07
7.99189e-06 7.37322e-07 8.53053e-05
0.000640924 0.000102473 -7.24116e-07
0.000102473 -5.83421e-06 2.00054e-07
-7.24116e-07 2.00054e-07 -0.000119951
0.000440328 5.26263e-05 -8.42065e-07
5.26263e-05 -0.000118015 3.87219e-09
-8.42065e-07 3.87219e-09 -0.000215352
0.000582498 0.000100006 4.60429e-07
0.000100006 -4.15148e-05 6.27621e-07
4.60429e-07 6.27621e-07 -0.000161439
0.000793738 9.1755e-05 -3.90087e-07
9.1755e-05 3.61458e-05 -1.62869e-07
-3.90087e-07 -1.62869e-07 -6.6296e-05
0.000185958 9.89705e-05 1.99901e-06
9.89705e-05 -0.000324963 -1.12311e-06
1.99901e-06 -1.12311e-06 -0.000447544
0.00317646 0.000285581 6.65751e-07
0.000285581 0.00108464 -2.45519e-06
6.65751e-07 -2.45519e-06 0.000955827
0.00116987 0.000229816 3.84266e-06
0.000229816 -0.000115164 -2.09411e-06
3.84266e-06 -2.09411e-06 -0.000259476
0.00140982 0.000209304 1.98352e-06
0.000209304 0.000181621 -1.63899e-06
1.98352e-06 -1.63899e-06 5.76789e-05
0.000800743 6.78207e-05 -4.69634e-06
6.78207e-05 7.0937e-05 2.21359e-06
-4.69634e-06 2.21359e-06 -1.06589e-05
0.00279383 7.12743e-05 -8.31285e-06
7.12743e-05 -9.04629e-05 -3.16056e-06
-8.31285e-06 -3.16056e-06 -0.000381832
0.0060342 -2.23387e-05 1.59677e-05
-2.23387e-05 0.0016419 6.17714e-06
1.59677e-05 6.17714e-06 0.000455189
0.00488856 -0.000588095 -3.21037e-05
-0.000588095 0.00241172 -2.95332e-05
-3.21037e-05 -2.95332e-05 0.00238491
0.00739496 -7.11612e-05 0.000239101
-7.11612e-05 0.00248886 6.90631e-05
0.000239101 6.90631e-05 0.000778372
0.00231536 0.000342875 3.41791e-05
0.000342875 0.000177592 3.99153e-05
3.41791e-05 3.99153e-05 -1.3633e-05
0.00227891 0.000274019 -6.2072e-05
0.000274019 3.70978e-05 -1.9406e-05
-6.2072e-05 -1.9406e-05 -0.000311363
0.00247413 0.000322198 4.00506e-05
0.000322198 0.000335594 2.00858e-05
4.00506e-05 2.00858e-05 0.000332354
0.00209035 0.000352696 -1.09046e-06
0.000352696 0.000328314 5.45318e-06
-1.09046e-06 5.45318e-06 0.0001916
0.000304844 0.000166476 -2.56926e-06
0.000166476 -0.000266475 5.56589e-06
-2.56926e-06 5.56589e-06 -0.000405765
0.00222708 0.000384991 -7.47338e-05
0.000384991 0.000301553 -4.60285e-05
-7.47338e-05 -4.60285e-05 0.000223543
0.003097 -0.000125052 -0.000143256
-0.000125052 0.000604517 -4.57592e-07
-0.000143256 -4.57592e-07 0.000206988
0.00799822 -4.5488e-05 1.58485e-05
-4.5488e-05 0.00263217 -6.8281e-07
1.58485e-05 -6.8281e-07 0.00200224
-0.00568087 -0.000118232 8.05631e-05
-0.000118232 -0.00293485 1.81289e-06
8.05631e-05 1.81289e-06 -0.00283548
0.00140494 -0.000203069 -2.2946e-06
-0.000203069 0.000144739 5.99192e-06
-2.2946e-06 5.99192e-06 3.59705e-05
0.00535717 -0.000195434 8.91565e-05
-0.000195434 0.00126216 -1.82693e-07
8.91565e-05 -1.82693e-07 0.000608493
0.000363069 -0.000258118 7.0651e-05
-0.000258118 -0.00111426 2.86684e-05
7.0651e-05 2.86684e-05 -0.00185318
0.00125758 -0.000132346 5.2305e-06
-0.000132346 0.000112352 -1.43825e-06
5.2305e-06 -1.43825e-06 -3.01123e-05
0.00171606 3.26554e-05 -4.06373e-06
3.26554e-05 -0.000158472 2.12645e-06
-4.06373e-06 2.12645e-06 -0.000443446
0.0047752 -0.000132667 3.89164e-06
-0.000132667 0.00169022 -2.21823e-06
3.89164e-06 -2.21823e-06 0.00160224
0.00183215 1.59777e-05 3.31637e-05
1.59777e-05 6.56489e-05 -3.33883e-06
3.31637e-05 -3.33883e-06 -1.04515e-05
0.00114037 -0.000232286 -1.98639e-06
-0.000232286 -0.000370801 2.92372e-06
-1.98639e-06 2.92372e-06 -0.000375307
0.00190588 -0.000165843 -6.74946e-07
-0.000165843 -3.03182e-05 9.18666e-07
-6.74946e-07 9.18666e-07 -4.10105e-05
0.00186676 -6.07131e-05 2.6611e-06
-6.07131e-05 1.85096e-06 -1.06362e-07
2.6611e-06 -1.06362e-07 -2.84031e-05
0.0015565 -0.00019032 4.55932e-06
-0.00019032 -7.12409e-05 -3.58237e-07
4.55932e-06 -3.58237e-07 -0.00013238
0.0018981 -0.000136012 1.75893e-06
-0.000136012 3.53164e-05 3.20941e-07
1.75893e-06 3.20941e-07 -1.56964e-05
0.0017782 -7.4786e-05 1.81854e-06
-7.4786e-05 4.86409e-05 7.14517e-07
1.81854e-06 7.14517e-07 -1.36598e-05
0.00167911 -0.000157612 5.10424e-06
-0.000157612 -7.79357e-06 2.85628e-06
5.10424e-06 2.85628e-06 -9.34941e-05
0.00178005 -0.000125405 9.55331e-07
-0.000125405 8.50673e-05 3.90723e-07
9.55331e-07 3.90723e-07 4.74227e-06
0.00181872 -9.46032e-05 1.06209e-06
-9.46032e-05 0.000145935 2.59879e-07
1.06209e-06 2.59879e-07 5.7589e-05
0.00172436 -0.000141248 -1.24214e-07
-0.000141248 9.98971e-05 1.86177e-06
-1.24214e-07 1.86177e-06 4.08364e-06
0.00170441 -0.000123103 8.39301e-08
-0.000123103 0.000106675 1.95431e-07
8.39301e-08 1.95431e-07 1.13854e-05
0.00159849 -0.000113829 3.04452e-06
-0.000113829 8.34661e-05 6.87147e-07
3.04452e-06 6.87147e-07 -2.21874e-05
0.00145363 -0.000126897 -1.78651e-06
-0.000126897 3.21527e-06 9.26439e-07
-1.78651e-06 9.26439e-07 -9.36536e-05
0.00159351 -0.000130587 -1.15383e-06
-0.000130587 0.000101553 -7.39806e-07
-1.15383e-06 -7.39806e-07 -5.7732e-06
0.00173654 -0.00013664 7.85483e-07
-0.00013664 0.000213778 -8.51198e-07
7.85483e-07 -8.51198e-07 9.47334e-05
0.0016088 -0.000152416 4.64034e-07
-0.000152416 0.000137361 2.23326e-06
4.64034e-07 2.23326e-06 1.80248e-05
0.00159272 -0.000151034 5.80716e-07
-0.000151034 0.000172585 -6.42334e-07
5.80716e-07 -6.42334e-07 4.46855e-05
0.00158452 -0.000148518 -2.25147e-06
-0.000148518 0.000208873 -2.51943e-07
-2.25147e-06 -2.51943e-07 8.0352e-05
0.000809799 -0.000118887 -5.26601e-06
-0.000118887 -0.000102015 2.1218e-06
-5.26601e-06 2.1218e-06 -0.000228026
0.00115628 -0.000143784 -7.88446e-07
-0.000143784 3.99688e-05 4.0254e-07
-7.88446e-07 4.0254e-07 -9.96458e-05
0.00150018 -0.000164986 3.11378e-06
-0.000164986 0.000179861 6.02556e-08
3.11378e-06 6.02556e-08 3.24945e-05
0.000837871 -8.83795e-05 -4.10165e-06
-8.83795e-05 1.77811e-05 2.6963e-06
-4.10165e-06 2.6963e-06 -7.77522e-05
0.00108919 -0.00013184 2.78878e-07
-0.00013184 0.000111333 1.48236e-07
2.78878e-07 1.48236e-07 -1.26734e-05
0.00105707 -0.000141756 1.03595e-06
-0.000141756 6.70028e-05 -5.35959e-07
1.03595e-06 -5.35959e-07 -7.44587e-05
0.000573014 1.51237e-05 -5.03516e-06
1.51237e-05 -6.75025e-05 6.24399e-06
-5.03516e-06 6.24399e-06 -0.000111613
0.000861248 -7.00815e-05 9.62895e-08
-7.00815e-05 5.58766e-05 -8.94098e-08
9.62895e-08 -8.94098e-08 -3.33337e-05
0.00114068 -0.000129981 2.31959e-06
-0.000129981 0.000177495 -1.53468e-06
2.31959e-06 -1.53468e-06 6.06824e-05
0.00302758 0.000106871 -5.09399e-05
0.000106871 0.00129269 2.64165e-06
-5.09399e-05 2.64165e-06 0.00129168
0.000619061 3.02613e-05 2.92961e-07
3.02613e-05 -3.9623e-05 -1.64958e-07
2.92961e-07 -1.64958e-07 -7.74585e-05
0.000861451 -5.30146e-05 3.58347e-06
-5.30146e-05 7.01378e-05 -2.1716e-06
3.58347e-06 -2.1716e-06 -1.3789e-05
0.00276977 9.33057e-05 1.44138e-06
9.33057e-05 0.00114906 1.49396e-07
1.44138e-06 1.49396e-07 0.00115182
0.000660638 5.04973e-05 2.19103e-06
5.04973e-05 -1.06314e-05 -5.34817e-06
2.19103e-06 -5.34817e-06 -4.2707e-05
0.00256686 8.23236e-05 4.33988e-05
8.23236e-05 0.00103463 -2.81077e-06
4.33988e-05 -2.81077e-06 0.00104066
0.00108277 0.000129977 -2.66869e-07
0.000129977 0.000183725 -2.24336e-06
-2.66869e-07 -2.24336e-06 6.37009e-05
0.00106146 0.00012157 3.35597e-07
0.00012157 0.000185786 1.97616e-07
3.35597e-07 1.97616e-07 7.91917e-05
0.000921315 5.91427e-05 -1.23401e-06
5.91427e-05 0.000106612 -8.53751e-07
-1.23401e-06 -8.53751e-07 1.14072e-05
0.000804559 9.90564e-05 -1.95172e-08
9.90564e-05 6.04383e-05 1.00324e-07
-1.95172e-08 1.00324e-07 -3.44212e-05
0.000750985 -4.14048e-06 -4.58992e-07
-4.14048e-06 2.27612e-05 -1.47062e-07
-4.58992e-07 -1.47062e-07 -6.33791e-05
0.000704631 3.83122e-06 -1.96378e-06
3.83122e-06 -2.93706e-06 -2.17505e-06
-1.96378e-06 -2.17505e-06 -6.71624e-05
0.000760523 -6.09418e-05 -1.96071e-07
-6.09418e-05 2.39002e-05 1.32503e-06
-1.96071e-07 1.32503e-06 -5.21103e-05
0.000705751 -4.76369e-05 2.55991e-07
-4.76369e-05 -4.79289e-06 -3.45194e-07
2.55991e-07 -3.45194e-07 -5.81313e-05
0.000671047 -6.35484e-05 2.3141e-08
-6.35484e-05 -1.08649e-05 -4.60531e-06
2.3141e-08 -4.60531e-06 -3.36263e-05
0.000727146 -5.59924e-05 7.64561e-07
-5.59924e-05 6.5369e-07 2.26674e-06
7.64561e-07 2.26674e-06 -4.5982e-05
0.000667755 -4.95831e-05 1.62073e-07
-4.95831e-05 -2.48358e-05 -1.59469e-08
1.62073e-07 -1.59469e-08 -4.16163e-05
0.00230098 -7.25956e-05 -3.43001e-05
-7.25956e-05 0.000880706 -2.81511e-06
-3.43001e-05 -2.81511e-06 0.000890434
0.00226117 -6.50177e-05 -1.00611e-06
-6.50177e-05 0.000849901 1.15982e-07
-1.00611e-06 1.15982e-07 0.000861828
0.000661656 -4.20318e-05 1.76368e-06
-4.20318e-05 -3.65121e-05 3.82293e-06
1.76368e-06 3.82293e-06 -5.05325e-05
0.00226183 -5.79482e-05 2.59784e-05
-5.79482e-05 0.00084201 3.57177e-06
2.59784e-05 3.57177e-06 0.00085569
0.00210522 -1.99688e-05 -5.78867e-05
-1.99688e-05 -3.18524e-05 8.0809e-06
-5.78867e-05 8.0809e-06 -0.000294836
0.00217098 -0.000154969 1.38771e-05
-0.000154969 -0.000424826 4.73736e-06
1.38771e-05 4.73736e-06 -0.00123181
0.00366903 -0.000348353 -4.6448e-05
-0.000348353 0.00157327 -1.89201e-05
-4.6448e-05 -1.89201e-05 0.00168259
0.00130234 0.000153839 7.85068e-06
0.000153839 0.000250988 1.55025e-06
7.85068e-06 1.55025e-06 0.000112545
0.00110356 8.86235e-05 2.90965e-07
8.86235e-05 0.000242379 1.3226e-07
2.90965e-07 1.3226e-07 0.000136271
0.000887709 0.00011777 -1.07459e-06
0.00011777 0.000107875 6.62094e-07
-1.07459e-06 6.62094e-07 -3.13846e-06
0.000851406 0.000116131 3.38283e-07
0.000116131 0.000105857 6.77707e-07
3.38283e-07 6.77707e-07 -1.08117e-05
0.00101037 0.000131197 -2.71741e-07
0.000131197 0.000161141 -1.56735e-06
-2.71741e-07 -1.56735e-06 3.32408e-05
0.000683569 0.000117011 -3.34622e-07
0.000117011 -3.81358e-05 2.26877e-08
-3.34622e-07 2.26877e-08 -0.000155338
0.000965038 0.000126269 -8.89565e-07
0.000126269 0.000154915 -4.34431e-07
-8.89565e-07 -4.34431e-07 2.84437e-05
0.000887419 8.37259e-05 -2.90225e-06
8.37259e-05 8.73027e-05 3.11583e-06
-2.90225e-06 3.11583e-06 -1.81863e-05
0.000928953 0.000141887 3.64405e-07
0.000141887 6.26816e-05 5.10208e-09
3.64405e-07 5.10208e-09 -6.04057e-05
0.00243285 0.000245514 6.71288e-07
0.000245514 0.000710479 3.83145e-06
6.71288e-07 3.83145e-06 0.000583108
0.00171028 0.000230856 -2.86457e-07
0.000230856 0.000180737 -2.32682e-06
-2.86457e-07 -2.32682e-06 3.50804e-05
0.00166882 0.000211362 1.07603e-05
0.000211362 4.18253e-05 9.55865e-06
1.07603e-05 9.55865e-06 -8.57953e-05
0.00118154 0.000232181 -1.09522e-06
0.000232181 -0.000117638 -1.71714e-06
-1.09522e-06 -1.71714e-06 -0.000266918
0.00106009 0.000186112 -1.09292e-06
0.000186112 5.00568e-06 6.81334e-06
-1.09292e-06 6.81334e-06 -0.000113465
0.000336478 0.000115611 1.83231e-06
0.000115611 -0.00040879 9.73133e-07
1.83231e-06 9.73133e-07 -0.000412805
0.00463907 0.000136404 -1.81063e-05
0.000136404 0.000654772 1.25055e-06
-1.81063e-05 1.25055e-06 0.00027641
0.00031966 -9.04596e-05 3.04574e-05
-9.04596e-05 -0.00113547 1.18042e-05
3.04574e-05 1.18042e-05 -0.00225091
0.00261197 0.000340821 6.13076e-05
0.000340821 0.000103334 1.72707e-05
6.13076e-05 1.72707e-05 -0.000409759
0.00150085 0.00025365 -1.55868e-05
0.00025365 1.50919e-05 -1.58488e-06
-1.55868e-05 -1.58488e-06 -9.52063e-06
0.000712999 0.000260136 -2.45216e-05
0.000260136 -0.000288823 -1.61082e-05
-2.45216e-05 -1.61082e-05 -0.000429657
0.00238551 -9.47408e-05 1.43895e-05
-9.47408e-05 0.000333709 -7.03336e-07
1.43895e-05 -7.03336e-07 0.000232888
0.0012152 -7.70975e-07 -2.08365e-05
-7.70975e-07 -0.000205398 7.31528e-07
-2.08365e-05 7.31528e-07 -0.000520328
0.000154079 0.000228413 5.81889e-05
0.000228413 -0.00152307 -1.73382e-05
5.81889e-05 -1.73382e-05 -0.00216816
-0.000475377 -7.49314e-05 2.51443e-06
-7.49314e-05 -0.000799697 9.84738e-06
2.51443e-06 9.84738e-06 -0.000856758
0.00272944 3.85907e-05 2.27648e-05
3.85907e-05 0.000211247 7.8565e-06
2.27648e-05 7.8565e-06 -0.000138346
0.00170854 -7.49315e-05 -1.18858e-08
-7.49315e-05 6.15731e-05 -1.05716e-06
-1.18858e-08 -1.05716e-06 1.429e-05
0.0020671 1.28693e-05 -3.13121e-07
1.28693e-05 0.000186719 -7.69603e-07
-3.13121e-07 -7.69603e-07 0.000108862
0.00160557 -1.12639e-05 9.50827e-06
-1.12639e-05 -9.89905e-05 -1.84208e-06
9.50827e-06 -1.84208e-06 -0.00015946
0.00252572 -5.08167e-06 5.17264e-06
-5.08167e-06 0.000458989 -8.16344e-07
5.17264e-06 -8.16344e-07 0.000394266
0.00184373 -0.000168837 -8.82802e-07
-0.000168837 -5.13285e-05 -2.68931e-07
-8.82802e-07 -2.68931e-07 -7.03301e-05
0.00195645 -6.83689e-05 3.02111e-06
-6.83689e-05 3.76217e-05 -3.19073e-07
3.02111e-06 -3.19073e-07 3.51575e-06
0.00177967 -7.00492e-05 4.43946e-07
-7.00492e-05 5.83085e-05 1.77822e-07
4.43946e-07 1.77822e-07 -2.36159e-06
0.00190713 -0.000137886 3.67658e-06
-0.000137886 4.89132e-05 1.27337e-06
3.67658e-06 1.27337e-06 -6.50711e-06
0.00182168 -8.72904e-05 5.77328e-07
-8.72904e-05 6.70575e-05 8.52633e-08
5.77328e-07 8.52633e-08 2.05624e-06
0.00177809 -8.06157e-05 2.43943e-06
-8.06157e-05 0.000119546 3.10588e-07
2.43943e-06 3.10588e-07 3.60502e-05
0.00181022 -0.000124022 -1.11317e-06
-0.000124022 0.000110547 1.20824e-06
-1.11317e-06 1.20824e-06 2.94815e-05
0.00177101 -9.95182e-05 -1.19889e-06
-9.95182e-05 0.000121769 -7.93203e-08
-1.19889e-06 -7.93203e-08 3.25605e-05
0.00161718 -9.00506e-05 1.08383e-06
-9.00506e-05 7.89362e-05 3.55919e-07
1.08383e-06 3.55919e-07 -2.60079e-05
0.00165943 -0.000124292 -1.88425e-06
-0.000124292 8.60283e-05 -3.92049e-08
-1.88425e-06 -3.92049e-08 -9.59723e-06
0.00163804 -0.000114817 6.59024e-07
-0.000114817 0.000104046 1.47287e-07
6.59024e-07 1.47287e-07 -1.6398e-06
0.00159817 -0.000116279 8.38897e-07
-0.000116279 0.000111576 6.73186e-08
8.38897e-07 6.73186e-08 -3.45538e-06
0.00151278 -0.000127311 -3.78628e-06
-0.000127311 5.56893e-05 6.0505e-07
-3.78628e-06 6.0505e-07 -4.98457e-05
0.00157626 -0.000130115 -1.38968e-07
-0.000130115 0.000125901 -4.3972e-07
-1.38968e-07 -4.3972e-07 8.26124e-06
0.00148298 -0.000126641 -1.98703e-06
-0.000126641 0.000114998 1.50406e-07
-1.98703e-06 1.50406e-07 -7.57137e-06
0.00157682 -0.000149562 1.86289e-06
-0.000149562 0.000163474 7.8056e-07
1.86289e-06 7.8056e-07 3.54319e-05
0.00139533 -0.000140395 6.03769e-07
-0.000140395 0.000106833 -4.21261e-07
6.03769e-07 -4.21261e-07 -2.20132e-05
0.00133779 -0.000131207 -4.98359e-06
-0.000131207 0.000126522 1.3935e-06
-4.98359e-06 1.3935e-06 5.10572e-06
0.000947241 -0.000101608 -5.71259e-06
-0.000101608 3.33456e-05 3.22329e-06
-5.71259e-06 3.22329e-06 -6.66209e-05
0.00094236 -0.000124318 -1.23306e-06
-0.000124318 -2.73001e-05 7.56008e-07
-1.23306e-06 7.56008e-07 -0.000152672
0.0012336 -0.000145716 2.3525e-06
-0.000145716 8.67715e-05 -7.42659e-08
2.3525e-06 -7.42659e-08 -5.21908e-05
0.000585321 -4.73529e-05 -8.01585e-06
-4.73529e-05 -6.48003e-05 7.16688e-06
-8.01585e-06 7.16688e-06 -0.000117265
0.000898565 -9.30487e-05 2.68353e-07
-9.30487e-05 5.02888e-05 -2.10285e-08
2.68353e-07 -2.10285e-08 -4.60191e-05
0.00112667 -0.000133517 3.15929e-06
-0.000133517 0.000129287 -1.49672e-06
3.15929e-06 -1.49672e-06 5.39722e-06
0.00330921 0.000118917 -6.08926e-05
0.000118917 0.00145274 2.7044e-06
-6.08926e-05 2.7044e-06 0.00144725
0.000651225 -1.55992e-05 -1.27247e-07
-1.55992e-05 -2.95109e-05 -1.49864e-07
-1.27247e-07 -1.49864e-07 -7.40689e-05
0.000947138 -7.73981e-05 4.25185e-06
-7.73981e-05 0.000102351 -2.51046e-06
4.25185e-06 -2.51046e-06 1.20691e-05
0.0030859 0.000103327 1.78417e-06
0.000103327 0.00132406 2.25632e-07
1.78417e-06 2.25632e-07 0.00132324
0.000675921 1.37043e-05 5.86592e-06
1.37043e-05 -1.09653e-05 -5.60394e-06
5.86592e-06 -5.60394e-06 -4.84996e-05
0.00286196 9.02778e-05 5.42216e-05
9.02778e-05 0.00119769 -3.02054e-06
5.42216e-05 -3.02054e-06 0.00120075
0.000889667 0.000127169 -7.27805e-07
0.000127169 3.80492e-05 -1.88893e-06
-7.27805e-07 -1.88893e-06 -9.41379e-05
0.00100522 0.000124868 -4.96948e-08
0.000124868 0.000142677 -1.00853e-06
-4.96948e-08 -1.00853e-06 2.34584e-05
0.00110808 0.000116924 -8.84277e-07
0.000116924 0.000192697 -1.00636e-06
-8.84277e-07 -1.00636e-06 8.68297e-05
0.00111829 0.00012523 -5.41447e-07
0.00012523 0.000216461 -1.61125e-07
-5.41447e-07 -1.61125e-07 0.000110062
0.000900464 6.24527e-05 -9.61694e-07
6.24527e-05 9.46705e-05 -5.38572e-07
-9.61694e-07 -5.38572e-07 5.06343e-07
0.000774031 2.34731e-05 -2.09834e-06
2.34731e-05 3.41686e-05 -1.7989e-06
-2.09834e-06 -1.7989e-06 -4.12304e-05
0.000744233 1.65599e-05 -1.26525e-07
1.65599e-05 1.86196e-05 1.7947e-07
-1.26525e-07 1.7947e-07 -6.84478e-05
0.000720614 -3.24433e-05 -4.12721e-07
-3.24433e-05 6.36015e-06 -4.19932e-08
-4.12721e-07 -4.19932e-08 -5.72238e-05
0.000633595 -7.14556e-05 4.97916e-07
-7.14556e-05 -2.10098e-05 -5.05055e-06
4.97916e-07 -5.05055e-06 -5.10735e-05
0.000722171 -5.96624e-05 4.59237e-07
-5.96624e-05 5.95853e-06 2.52922e-06
4.59237e-07 2.52922e-06 -4.83412e-05
0.00064598 -6.00329e-05 2.06708e-07
-6.00329e-05 -2.57686e-05 -1.17842e-07
2.06708e-07 -1.17842e-07 -4.75549e-05
0.00241546 -8.05844e-05 -3.94661e-05
-8.05844e-05 0.000950026 -2.5537e-06
-3.94661e-05 -2.5537e-06 0.000957327
0.000654879 -4.76371e-05 2.1819e-06
-4.76371e-05 -3.23197e-05 3.87157e-06
2.1819e-06 3.87157e-06 -4.8719e-05
0.00228259 -7.23778e-05 -5.75617e-07
-7.23778e-05 0.00086968 1.05229e-07
-5.75617e-07 1.05229e-07 0.000879573
0.00226382 -6.4743e-05 2.96915e-05
-6.4743e-05 0.000850489 3.29875e-06
2.96915e-05 3.29875e-06 0.000862515
0.00039948 9.02577e-06 5.00793e-06
9.02577e-06 -0.00048231 1.19602e-06
5.00793e-06 1.19602e-06 -0.000516125
0.00360264 2.49845e-06 8.86178e-07
2.49845e-06 0.000464423 1.04181e-05
8.86178e-07 1.04181e-05 8.58119e-05
0.00606742 0.00021163 -8.51216e-05
0.00021163 0.00176159 -2.02775e-05
-8.51216e-05 -2.02775e-05 0.000844262
0.000714979 0.000118422 2.57396e-06
0.000118422 -9.10573e-05 4.54845e-07
2.57396e-06 4.54845e-07 -0.000220549
0.0014327 0.000166326 2.96264e-06
0.000166326 0.000165198 -2.72327e-06
2.96264e-06 -2.72327e-06 2.00647e-05
0.000870844 0.000131568 -4.52173e-08
0.000131568 2.97535e-05 -1.01902e-06
-4.52173e-08 -1.01902e-06 -0.000106281
0.00103969 0.000128351 -1.26881e-06
0.000128351 0.000205169 -6.12366e-07
-1.26881e-06 -6.12366e-07 8.62043e-05
0.000933574 0.000127294 -1.05491e-06
0.000127294 0.000122729 -7.88526e-07
-1.05491e-06 -7.88526e-07 -5.98963e-06
0.00100985 0.000139307 3.6273e-06
0.000139307 0.000119923 1.44237e-06
3.6273e-06 1.44237e-06 -1.68016e-06
0.00193699 0.000220434 -4.61879e-06
0.000220434 0.000336626 -5.10042e-06
-4.61879e-06 -5.10042e-06 0.000199568
0.00155748 0.000178236 -1.10869e-07
0.000178236 0.000392967 1.66809e-06
-1.10869e-07 1.66809e-06 0.000269695
0.00101343 0.000170168 -1.93938e-06
0.000170168 -7.73008e-06 9.76143e-06
-1.93938e-06 9.76143e-06 -0.000131519
0.00168612 0.000227362 -1.48189e-06
0.000227362 0.00018492 5.79107e-07
-1.48189e-06 5.79107e-07 4.14388e-05
0.00213937 0.000231326 -6.42234e-06
0.000231326 0.000283142 1.53581e-06
-6.42234e-06 1.53581e-06 0.000145193
0.00132393 8.42485e-05 1.37043e-05
8.42485e-05 -0.000200117 3.88784e-06
1.37043e-05 3.88784e-06 -0.000280361
0.00177417 0.000209503 7.66716e-06
0.000209503 9.92693e-05 2.92786e-06
7.66716e-06 2.92786e-06 -2.85732e-05
0.00138837 0.000239541 -5.63095e-06
0.000239541 -2.03182e-05 -3.51981e-07
-5.63095e-06 -3.51981e-07 -0.000173388
0.000906608 0.000105527 -3.01214e-06
0.000105527 -0.000125213 3.33295e-07
-3.01214e-06 3.33295e-07 -0.000136352
0.00456207 1.36954e-05 4.6959e-05
1.36954e-05 0.000493904 1.22224e-05
4.6959e-05 1.22224e-05 8.88255e-05
0.0012203 0.00021395 3.45141e-06
0.00021395 1.07389e-05 -8.09962e-06
3.45141e-06 -8.09962e-06 -2.16017e-05
0.00164028 -2.50039e-05 9.55006e-06
-2.50039e-05 6.22278e-05 2.05343e-07
9.55006e-06 2.05343e-07 3.64799e-06
0.00203324 -4.9815e-05 -2.97485e-06
-4.9815e-05 0.000192118 -6.28848e-08
-2.97485e-06 -6.28848e-08 8.64544e-05
0.00152303 0.000104841 5.6693e-05
0.000104841 -0.000284409 -3.25176e-06
5.6693e-05 -3.25176e-06 -0.000652629
-0.00122294 -2.6756e-05 -1.05309e-05
-2.6756e-05 -0.00147902 6.48311e-06
-1.05309e-05 6.48311e-06 -0.00148775
0.00259181 7.90417e-06 -4.37721e-05
7.90417e-06 0.000463103 5.37848e-06
-4.37721e-05 5.37848e-06 0.000393137
0.00138931 -3.65655e-05 5.00374e-07
-3.65655e-05 -0.000240825 2.2336e-06
5.00374e-07 2.2336e-06 -0.000290781
0.00223168 -1.87002e-05 8.74715e-08
-1.87002e-05 0.000264154 2.35047e-07
8.74715e-08 2.35047e-07 0.000198956
0.00187925 -7.56905e-05 1.75059e-06
-7.56905e-05 5.90584e-05 1.16151e-06
1.75059e-06 1.16151e-06 -3.51761e-06
0.00152924 -2.97581e-05 9.93125e-07
-2.97581e-05 -0.000126659 -2.73931e-07
9.93125e-07 -2.73931e-07 -0.000196701
0.0020377 -7.59396e-05 3.57784e-06
-7.59396e-05 6.54773e-05 2.80919e-07
3.57784e-06 2.80919e-07 2.91545e-05
0.00181151 -6.95125e-05 -1.68213e-06
-6.95125e-05 7.212e-05 -5.6136e-08
-1.68213e-06 -5.6136e-08 1.28284e-05
0.00178861 -7.4212e-05 2.80394e-06
-7.4212e-05 9.34096e-05 3.08527e-07
2.80394e-06 3.08527e-07 1.20765e-05
0.00188196 -9.77582e-05 -2.18196e-06
-9.77582e-05 9.58918e-05 7.72276e-08
-2.18196e-06 7.72276e-08 2.84398e-05
0.00175428 -7.99552e-05 -4.603e-07
-7.99552e-05 0.000108317 -1.60799e-07
-4.603e-07 -1.60799e-07 2.33503e-05
0.00169045 -7.04096e-05 1.28614e-06
-7.04096e-05 9.38618e-05 3.84592e-07
1.28614e-06 3.84592e-07 -7.17944e-06
0.0017269 -0.00010401 -4.89748e-06
-0.00010401 9.94318e-05 -6.17814e-08
-4.89748e-06 -6.17814e-08 9.40525e-06
0.00165236 -9.01034e-05 1.22915e-07
-9.01034e-05 9.72332e-05 -4.34739e-08
1.22915e-07 -4.34739e-08 -7.58959e-06
0.00163632 -9.22845e-05 -5.54955e-08
-9.22845e-05 0.000114899 2.25491e-07
-5.54955e-08 2.25491e-07 1.18838e-06
0.00167484 -0.00011572 -1.61447e-06
-0.00011572 0.000123199 -3.91292e-07
-1.61447e-06 -3.91292e-07 1.74838e-05
0.00158422 -0.000115117 2.10001e-07
-0.000115117 0.000104202 9.96596e-09
2.10001e-07 9.96596e-09 -1.07675e-05
0.00151366 -0.000114716 -1.70939e-06
-0.000114716 0.00010403 3.67832e-07
-1.70939e-06 3.67832e-07 -1.54178e-05
0.00141777 -0.000123718 -4.24718e-07
-0.000123718 3.88627e-05 2.47164e-07
-4.24718e-07 2.47164e-07 -7.73673e-05
0.00135925 -0.000122241 -1.73477e-07
-0.000122241 4.93026e-05 -1.31887e-07
-1.73477e-07 -1.31887e-07 -7.29412e-05
0.00133073 -0.000118133 -4.94793e-06
-0.000118133 8.72259e-05 1.39181e-06
-4.94793e-06 1.39181e-06 -3.05176e-05
0.00120734 -0.0001324 3.27714e-06
-0.0001324 5.5387e-06 -3.49826e-07
3.27714e-06 -3.49826e-07 -0.000123665
0.00110767 -0.00012074 2.40845e-07
-0.00012074 3.92972e-06 -4.20156e-08
2.40845e-07 -4.20156e-08 -0.000117314
0.00101962 -0.000101477 -7.44848e-06
-0.000101477 2.7214e-05 3.39828e-06
-7.44848e-06 3.39828e-06 -7.19219e-05
0.000503445 -7.61653e-05 -1.06218e-05
-7.61653e-05 -0.000121333 7.92218e-06
-1.06218e-05 7.92218e-06 -0.000178625
0.000959868 -0.000103474 3.26643e-07
-0.000103474 4.0321e-05 1.34382e-07
3.26643e-07 1.34382e-07 -5.99599e-05
0.00108262 -0.000130287 2.48101e-06
-0.000130287 5.15634e-05 -4.24751e-07
2.48101e-06 -4.24751e-07 -7.32379e-05
0.00357003 0.000134296 -6.63819e-05
0.000134296 0.00160825 2.89943e-06
-6.63819e-05 2.89943e-06 0.00159688
0.000668581 -4.19576e-05 -2.08658e-07
-4.19576e-05 -2.4022e-05 2.22741e-08
-2.08658e-07 2.22741e-08 -7.71207e-05
0.00098346 -9.70871e-05 4.86361e-06
-9.70871e-05 9.63258e-05 -2.69162e-06
4.86361e-06 -2.69162e-06 -9.82565e-07
0.00338385 0.000115735 2.61964e-06
0.000115735 0.00149436 3.24532e-07
2.61964e-06 3.24532e-07 0.00148881
0.000741078 -1.79738e-05 7.77605e-06
-1.79738e-05 1.5435e-05 -6.22909e-06
7.77605e-06 -6.22909e-06 -2.93642e-05
0.00315878 9.91598e-05 6.44195e-05
9.91598e-05 0.00136291 -3.06889e-06
6.44195e-05 -3.06889e-06 0.00136237
0.000636172 0.000122386 -1.68554e-06
0.000122386 -0.000186162 -1.26123e-06
-1.68554e-06 -1.26123e-06 -0.000328697
0.000684903 0.000116145 -1.40093e-07
0.000116145 -7.38276e-05 -1.10071e-07
-1.40093e-07 -1.10071e-07 -0.000206821
0.00113047 0.000127657 -2.21571e-06
0.000127657 0.000169422 -1.36917e-06
-2.21571e-06 -1.36917e-06 5.14559e-05
0.000918993 0.000119226 -4.69225e-07
0.000119226 9.69323e-05 -2.74019e-08
-4.69225e-07 -2.74019e-08 -2.14051e-05
0.00098467 0.000108806 -2.60882e-07
0.000108806 0.000127849 -3.73433e-07
-2.60882e-07 -3.73433e-07 2.30672e-05
0.000907871 5.43307e-05 -3.18223e-06
5.43307e-05 0.000101324 -1.79164e-06
-3.18223e-06 -1.79164e-06 1.68485e-05
0.000874702 6.44513e-05 -7.76264e-08
6.44513e-05 8.0444e-05 -5.32169e-07
-7.76264e-08 -5.32169e-07 -1.28412e-05
0.000761225 8.47166e-06 -2.44486e-08
8.47166e-06 3.03192e-05 1.01788e-07
-2.44486e-08 1.01788e-07 -4.57023e-05
0.000637882 -4.86052e-05 -3.20884e-06
-4.86052e-05 -2.08025e-05 -4.99388e-06
-3.20884e-06 -4.99388e-06 -5.59331e-05
0.000736676 -5.60809e-05 4.12741e-07
-5.60809e-05 1.7249e-05 2.69626e-06
4.12741e-07 2.69626e-06 -4.69814e-05
0.000603806 -7.15381e-05 -5.92229e-08
-7.15381e-05 -3.79298e-05 -1.68222e-07
-5.92229e-08 -1.68222e-07 -6.76085e-05
0.00260728 -8.95175e-05 -4.62831e-05
-8.95175e-05 0.00105947 -2.46938e-06
-4.62831e-05 -2.46938e-06 0.00106386
0.000620375 -5.5767e-05 2.01465e-06
-5.5767e-05 -4.11558e-05 4.02495e-06
2.01465e-06 4.02495e-06 -6.18742e-05
0.00237584 -8.07121e-05 -6.25811e-07
-8.07121e-05 0.000928106 9.89007e-08
-6.25811e-07 9.89007e-08 0.000935511
0.00227802 -7.20145e-05 3.24922e-05
-7.20145e-05 0.000866215 2.98187e-06
3.24922e-05 2.98187e-06 0.000876287
0.0013627 2.44787e-05 1.15307e-05
2.44787e-05 -0.000169301 1.53141e-06
1.15307e-05 1.53141e-06 -0.000230691
0.00123528 -2.32149e-05 -2.5726e-06
-2.32149e-05 -0.000138374 3.61613e-06
-2.5726e-06 3.61613e-06 -0.000196121
0.00270622 -4.21251e-05 7.1181e-05
-4.21251e-05 2.38041e-05 6.95091e-06
7.1181e-05 6.95091e-06 -0.000279734
0.00176171 0.0001809 2.82476e-07
0.0001809 0.000264604 -3.94118e-06
2.82476e-07 -3.94118e-06 0.000128319
0.000760356 0.000124518 -1.18642e-06
0.000124518 -4.96546e-05 1.47463e-06
-1.18642e-06 1.47463e-06 -0.000171191
0.00125007 0.000150192 -2.3806e-06
0.000150192 -4.18544e-05 1.37818e-06
-2.3806e-06 1.37818e-06 -0.000172907
0.00158776 0.000174756 6.23742e-07
0.000174756 0.000243008 1.87523e-07
6.23742e-07 1.87523e-07 9.71154e-05
0.000441879 0.000109233 -3.3712e-06
0.000109233 -0.000189627 2.26666e-06
-3.3712e-06 2.26666e-06 -0.000323297
0.00181056 0.000185897 -4.69884e-06
0.000185897 0.000118008 3.28293e-07
-4.69884e-06 3.28293e-07 -9.74233e-06
0.00130782 0.000160029 -8.5297e-07
0.000160029 0.000263424 8.43989e-07
-8.5297e-07 8.43989e-07 0.000137645
0.00179894 0.000211984 4.3089e-07
0.000211984 0.000256963 -2.23994e-06
4.3089e-07 -2.23994e-06 0.000116866
0.00180623 0.000122766 -2.00888e-06
0.000122766 8.63686e-05 1.57697e-06
-2.00888e-06 1.57697e-06 -1.93018e-05
0.00185478 0.00023527 2.72116e-06
0.00023527 0.000287107 3.97267e-06
2.72116e-06 3.97267e-06 0.000145
0.00207661 0.000229002 -2.24569e-06
0.000229002 0.000243988 -1.19849e-07
-2.24569e-06 -1.19849e-07 0.000107542
0.0014385 9.56318e-05 -3.82898e-07
9.56318e-05 -0.000116888 -6.06929e-07
-3.82898e-07 -6.06929e-07 -0.000198051
0.00157723 0.000194262 -2.03722e-06
0.000194262 1.4584e-05 -2.7857e-06
-2.03722e-06 -2.7857e-06 -0.000113796
0.00101449 9.67364e-05 -1.02347e-05
9.67364e-05 -6.84693e-05 -3.28959e-06
-1.02347e-05 -3.28959e-06 -8.52803e-05
0.00170601 -7.34161e-06 -5.82404e-07
-7.34161e-06 -1.26241e-05 4.21031e-07
-5.82404e-07 4.21031e-07 -8.61645e-05
0.00188663 -7.61062e-06 -1.62175e-06
-7.61062e-06 0.000194557 -2.68561e-07
-1.62175e-06 -2.68561e-07 0.000136384
0.0012411 3.61825e-06 -2.52855e-05
3.61825e-06 -0.000181753 1.28954e-06
-2.52855e-05 1.28954e-06 -0.000304398
0.00113034 -5.98837e-05 -4.91551e-06
-5.98837e-05 -0.000417051 1.20305e-06
-4.91551e-06 1.20305e-06 -0.000456948
0.00196491 -3.12234e-05 -7.74616e-07
-3.12234e-05 8.16959e-05 -4.97657e-07
-7.74616e-07 -4.97657e-07 1.59689e-05
0.00200406 -7.1476e-05 -1.60701e-06
-7.1476e-05 0.000127181 4.0583e-07
-1.60701e-06 4.0583e-07 6.62892e-05
0.00172997 -3.13873e-05 1.22408e-06
-3.13873e-05 -1.57376e-05 1.86582e-07
1.22408e-06 1.86582e-07 -8.47201e-05
0.00171937 -4.25804e-05 9.55021e-07
-4.25804e-05 2.20144e-05 -2.2641e-07
9.55021e-07 -2.2641e-07 -5.85032e-05
0.00180817 -6.9352e-05 -2.54002e-06
-6.9352e-05 6.74019e-05 -5.64545e-07
-2.54002e-06 -5.64545e-07 9.04832e-06
0.00182788 -7.18197e-05 3.69721e-07
-7.18197e-05 0.000118145 -8.52653e-08
3.69721e-07 -8.52653e-08 3.66592e-05
0.00179891 -5.522e-05 9.88153e-07
-5.522e-05 0.000110733 -3.99221e-07
9.88153e-07 -3.99221e-07 1.31829e-05
0.00171933 -8.0114e-05 -4.28081e-06
-8.0114e-05 9.07892e-05 -2.29684e-07
-4.28081e-06 -2.29684e-07 4.32013e-06
0.00166908 -6.98934e-05 -1.87376e-07
-6.98934e-05 8.62992e-05 1.65562e-07
-1.87376e-07 1.65562e-07 -1.59533e-05
0.00168185 -5.95734e-05 -5.19196e-08
-5.95734e-05 0.000123485 4.72987e-07
-5.19196e-08 4.72987e-07 9.4663e-06
0.00168964 -9.01506e-05 -1.06617e-06
-9.01506e-05 0.000116662 -4.25937e-07
-1.06617e-06 -4.25937e-07 1.19686e-05
0.00161538 -9.07263e-05 8.18371e-09
-9.07263e-05 0.000103979 -8.35803e-08
8.18371e-09 -8.35803e-08 -9.66959e-06
0.00154946 -9.3633e-05 -1.86416e-06
-9.3633e-05 0.000103886 3.56745e-07
-1.86416e-06 3.56745e-07 -1.41369e-05
0.00156872 -0.000113957 7.21615e-08
-0.000113957 9.60558e-05 -1.41244e-07
7.21615e-08 -1.41244e-07 -1.88609e-05
0.00150741 -0.000113829 5.58491e-08
-0.000113829 0.00010066 6.02795e-08
5.58491e-08 6.02795e-08 -1.8674e-05
0.00137874 -0.000106638 -4.60614e-06
-0.000106638 8.38695e-05 1.2764e-06
-4.60614e-06 1.2764e-06 -3.18159e-05
0.00123735 -0.000117859 1.90839e-06
-0.000117859 -1.55357e-05 -3.04349e-07
1.90839e-06 -3.04349e-07 -0.000137434
0.0013067 -0.000116366 3.83819e-10
-0.000116366 7.48701e-05 2.08425e-08
3.83819e-10 2.08425e-08 -4.26467e-05
0.00107249 -9.43619e-05 -8.62432e-06
-9.43619e-05 2.24649e-05 3.53476e-06
-8.62432e-06 3.53476e-06 -7.53237e-05
0.00087884 -0.000110228 4.37717e-06
-0.000110228 -0.000117999 -1.05081e-06
4.37717e-06 -1.05081e-06 -0.000239054
0.00101943 -0.000101343 3.0563e-07
-0.000101343 2.72659e-05 3.72734e-08
3.0563e-07 3.72734e-08 -7.19666e-05
0.0019614 -2.25892e-05 -8.35337e-06
-2.25892e-05 0.000669867 5.71967e-06
-8.35337e-06 5.71967e-06 0.000613083
0.00112816 1.31896e-05 -8.17452e-05
1.31896e-05 0.000261829 8.68815e-06
-8.17452e-05 8.68815e-06 0.000242345
0.00135812 -4.77501e-05 1.09645e-07
-4.77501e-05 0.000344587 -3.61922e-08
1.09645e-07 -3.61922e-08 0.000287591
0.000985495 -0.000105888 6.08615e-06
-0.000105888 5.46323e-05 -2.75096e-06
6.08615e-06 -2.75096e-06 -4.60668e-05
0.00370865 0.000120825 5.47628e-06
0.000120825 0.00168321 3.99442e-07
5.47628e-06 3.99442e-07 0.00167313
0.00077535 -5.94178e-05 9.97645e-06
-5.94178e-05 2.72195e-05 -7.20352e-06
9.97645e-06 -7.20352e-06 -2.59421e-05
0.00343704 0.000100379 7.77238e-05
0.000100379 0.00152269 -3.39369e-06
7.77238e-05 -3.39369e-06 0.00151881
0.0016686 0.000146943 1.1734e-07
0.000146943 0.000152701 4.74854e-07
1.1734e-07 4.74854e-07 2.93862e-05
0.000866318 0.000134042 7.59472e-07
0.000134042 -0.000151511 1.23679e-06
7.59472e-07 1.23679e-06 -0.000287224
0.00092072 0.000138463 -2.07973e-07
0.000138463 -4.21596e-05 -1.08513e-07
-2.07973e-07 -1.08513e-07 -0.000186735
0.00113159 0.000133299 -3.20723e-06
0.000133299 0.000116706 -1.14285e-06
-3.20723e-06 -1.14285e-06 -8.70399e-06
0.000487024 0.000105563 3.02645e-07
0.000105563 -0.000181935 2.03984e-06
3.02645e-07 2.03984e-06 -0.000315803
0.00103244 0.000120822 -4.63066e-07
0.000120822 0.000119296 -6.7734e-08
-4.63066e-07 -6.7734e-08 2.21319e-06
0.000981202 8.29642e-05 -4.0333e-06
8.29642e-05 0.000120634 -2.00226e-06
-4.0333e-06 -2.00226e-06 2.90705e-05
0.000871154 0.000101179 8.73121e-07
0.000101179 6.83215e-05 5.25291e-07
8.73121e-07 5.25291e-07 -3.54262e-05
0.000808518 4.62253e-05 -2.31877e-07
4.62253e-05 4.93191e-05 6.6865e-08
-2.31877e-07 6.6865e-08 -3.45715e-05
0.000703058 -5.87883e-06 -6.07802e-06
-5.87883e-06 6.61234e-06 -5.37818e-06
-6.07802e-06 -5.37818e-06 -3.43675e-05
0.000759349 -5.8392e-06 1.05077e-06
-5.8392e-06 2.94206e-05 1.88874e-06
1.05077e-06 1.88874e-06 -4.52574e-05
0.000585668 -5.89401e-05 -7.82749e-07
-5.89401e-05 -4.78736e-05 -1.19074e-07
-7.82749e-07 -1.19074e-07 -8.31508e-05
0.00284139 -9.91719e-05 -5.45404e-05
-9.91719e-05 0.00119228 -2.491e-06
-5.45404e-05 -2.491e-06 0.00119298
0.000567821 -6.80514e-05 7.67577e-07
-6.80514e-05 -5.92313e-05 4.65074e-06
7.67577e-07 4.65074e-06 -8.77029e-05
0.00254579 -9.02561e-05 -8.7852e-07
-9.02561e-05 0.00102646 1.23581e-07
-8.7852e-07 1.23581e-07 0.0010309
0.00233631 -8.01497e-05 3.52331e-05
-8.01497e-05 0.000906036 2.64661e-06
3.52331e-05 2.64661e-06 0.000913705
0.00180229 5.62994e-05 -5.35004e-07
5.62994e-05 5.21297e-05 1.27062e-06
-5.35004e-07 1.27062e-06 -3.26978e-05
0.00190031 1.86472e-05 -1.68429e-07
1.86472e-05 0.000137921 -6.94116e-07
-1.68429e-07 -6.94116e-07 7.87477e-05
0.00263744 -6.31764e-05 -1.61863e-05
-6.31764e-05 0.00049141 -1.6034e-06
-1.61863e-05 -1.6034e-06 0.000407281
0.00169513 0.000154115 -3.80969e-06
0.000154115 9.66811e-05 2.02103e-07
-3.80969e-06 2.02103e-07 -2.56092e-05
0.00166906 0.000175809 -1.8916e-06
0.000175809 0.000233345 1.60075e-07
-1.8916e-06 1.60075e-07 0.000100448
0.000739708 0.000127674 -9.05791e-06
0.000127674 -4.40686e-05 3.32147e-06
-9.05791e-06 3.32147e-06 -0.00015737
0.00156395 0.000160817 1.84312e-06
0.000160817 0.000125518 4.44967e-07
1.84312e-06 4.44967e-07 -5.06431e-06
0.00175538 0.000183953 -1.33178e-06
0.000183953 0.000327903 3.73846e-07
-1.33178e-06 3.73846e-07 0.000181155
0.00203875 0.000124374 -3.79824e-06
0.000124374 0.000194368 1.01871e-06
-3.79824e-06 1.01871e-06 8.92423e-05
0.00175524 0.000186858 -2.01025e-06
0.000186858 8.91939e-05 1.39893e-07
-2.01025e-06 1.39893e-07 -3.99677e-05
0.00169634 0.000205607 2.59497e-06
0.000205607 0.00019562 1.45141e-06
2.59497e-06 1.45141e-06 5.21362e-05
0.00178313 0.000123579 -5.01541e-07
0.000123579 6.82503e-05 6.54709e-08
-5.01541e-07 6.54709e-08 -3.79606e-05
0.00203048 0.000226293 5.58591e-06
0.000226293 0.000210111 -2.751e-07
5.58591e-06 -2.751e-07 7.53975e-05
0.00161499 0.000106173 -1.68608e-05
0.000106173 -1.73346e-05 -6.02058e-06
-1.68608e-05 -6.02058e-06 -9.83921e-05
0.0019322 2.97716e-06 -8.40965e-08
2.97716e-06 0.000121292 1.65478e-07
-8.40965e-08 1.65478e-07 3.91932e-05
0.00176947 -2.95605e-06 3.5506e-07
-2.95605e-06 2.38866e-05 -4.48279e-07
3.5506e-07 -4.48279e-07 -4.86686e-05
0.00213647 9.41419e-06 -1.27795e-05
9.41419e-06 0.000326679 -2.21282e-07
-1.27795e-05 -2.21282e-07 0.00026898
0.00214425 -6.87145e-05 -6.15837e-06
-6.87145e-05 0.000204497 -9.02828e-07
-6.15837e-06 -9.02828e-07 0.000145321
0.00194285 -3.21815e-05 2.33323e-07
-3.21815e-05 0.000100251 4.5651e-07
2.33323e-07 4.5651e-07 3.23748e-05
0.00181637 -4.17004e-05 3.22575e-08
-4.17004e-05 6.69081e-05 -1.33906e-07
3.22575e-08 -1.33906e-07 -1.12226e-05
0.00184514 -2.47296e-05 1.59736e-07
-2.47296e-05 0.000108425 -3.27881e-07
1.59736e-07 -3.27881e-07 1.10517e-05
0.00187964 -6.98162e-05 -1.27111e-06
-6.98162e-05 0.00014908 -1.20193e-07
-1.27111e-06 -1.20193e-07 6.74177e-05
0.00177948 -5.64682e-05 -5.08038e-07
-5.64682e-05 0.000106466 -9.49429e-08
-5.08038e-07 -9.49429e-08 8.43484e-06
0.00174111 -3.81398e-05 3.88495e-07
-3.81398e-05 0.000125069 -2.87636e-07
3.88495e-07 -2.87636e-07 1.10002e-05
0.00164627 -6.94501e-05 -1.37139e-06
-6.94501e-05 7.79332e-05 8.92486e-08
-1.37139e-06 8.92486e-08 -2.55373e-05
0.00164414 -5.93614e-05 -4.84671e-08
-5.93614e-05 0.000102006 9.52155e-08
-4.84671e-08 9.52155e-08 -1.20091e-05
0.00161073 -6.35508e-05 -1.79956e-06
-6.35508e-05 0.000121177 7.42311e-07
-1.79956e-06 7.42311e-07 2.25726e-06
0.00159759 -8.9143e-05 3.55248e-07
-8.9143e-05 9.46786e-05 -4.13043e-07
3.55248e-07 -4.13043e-07 -1.88924e-05
0.00154331 -9.28027e-05 -4.62797e-08
-9.28027e-05 0.000100549 -1.27619e-07
-4.62797e-08 -1.27619e-07 -1.74153e-05
0.00139956 -8.87525e-05 -4.54033e-06
-8.87525e-05 7.50827e-05 9.36358e-07
-4.54033e-06 9.36358e-07 -3.91347e-05
0.00149907 -0.000112908 2.01473e-06
-0.000112908 9.62213e-05 -2.73165e-07
2.01473e-06 -2.73165e-07 -2.30035e-05
0.00136616 -0.000105388 2.99615e-08
-0.000105388 7.72121e-05 1.64209e-07
2.99615e-08 1.64209e-07 -3.83007e-05
0.00111432 -8.56676e-05 -9.1642e-06
-8.56676e-05 2.12106e-05 3.27744e-06
-9.1642e-06 3.27744e-06 -7.63112e-05
0.00128266 -0.000114611 4.57644e-06
-0.000114611 6.25152e-05 -1.26896e-06
4.57644e-06 -1.26896e-06 -5.47784e-05
0.0010677 -9.33756e-05 3.30866e-07
-9.33756e-05 1.92415e-05 1.21474e-08
3.30866e-07 1.21474e-08 -7.84606e-05
0.00207469 -2.89273e-05 -1.14361e-05
-2.89273e-05 0.000712401 5.10574e-06
-1.14361e-05 5.10574e-06 0.000658824
0.0010109 -0.000101053 7.46815e-06
-0.000101053 2.3114e-05 -3.17482e-06
7.46815e-06 -3.17482e-06 -7.62558e-05
0.00216706 -5.638e-05 2.49324e-05
-5.638e-05 0.000771595 -1.52135e-06
2.49324e-05 -1.52135e-06 0.000718766
0.00138038 -3.01823e-05 -0.000101798
-3.01823e-05 0.000402204 1.10874e-05
-0.000101798 1.10874e-05 0.000382026
0.002563 4.02879e-05 -8.37819e-05
4.02879e-05 0.00105774 2.19124e-06
-8.37819e-05 2.19124e-06 0.00104307
0.00223564 -7.59537e-05 5.42109e-05
-7.59537e-05 0.000815055 -6.74784e-06
5.42109e-05 -6.74784e-06 0.000767122
0.0038149 8.98556e-05 9.2811e-05
8.98556e-05 0.00173927 -5.01149e-06
9.2811e-05 -5.01149e-06 0.00173166
0.00164479 0.00012365 -3.12169e-06
0.00012365 9.01499e-05 -1.41812e-06
-3.12169e-06 -1.41812e-06 -2.99353e-05
0.00168204 0.000153825 2.90397e-06
0.000153825 0.000222227 5.4749e-07
2.90397e-06 5.4749e-07 9.62131e-05
0.00152579 0.000142671 9.56829e-07
0.000142671 7.73635e-05 7.4195e-07
9.56829e-07 7.4195e-07 -4.18852e-05
0.00118095 0.00013801 -3.74577e-06
0.00013801 7.5714e-05 -8.3383e-07
-3.74577e-06 -8.3383e-07 -5.14972e-05
0.00119658 0.000150758 -9.50145e-08
0.000150758 2.28898e-05 1.91533e-07
-9.50145e-08 1.91533e-07 -0.000114098
0.00114899 0.000151864 2.03146e-06
0.000151864 7.20326e-05 8.77023e-07
2.03146e-06 8.77023e-07 -7.43767e-05
0.00110912 0.000132383 -3.87608e-07
0.000132383 0.000105794 5.83693e-08
-3.87608e-07 5.83693e-08 -1.97843e-05
0.00099092 0.000101478 -5.10849e-06
0.000101478 8.92912e-05 -2.53395e-06
-5.10849e-06 -2.53395e-06 -9.22167e-06
0.000930357 0.00011377 1.25872e-06
0.00011377 6.68682e-05 1.1709e-06
1.25872e-06 1.1709e-06 -4.92951e-05
0.000856019 7.6634e-05 -3.22842e-07
7.6634e-05 5.3414e-05 -6.84617e-08
-3.22842e-07 -6.84617e-08 -3.68268e-05
0.000769209 3.1846e-05 -8.02377e-06
3.1846e-05 3.61173e-05 -6.11774e-06
-8.02377e-06 -6.11774e-06 -1.30259e-05
0.000691113 3.79435e-05 1.46755e-06
3.79435e-05 -1.26623e-05 1.45918e-06
1.46755e-06 1.45918e-06 -9.57275e-05
0.000618525 -2.52805e-05 2.27847e-07
-2.52805e-05 -3.46633e-05 -2.23756e-07
2.27847e-07 -2.23756e-07 -7.62394e-05
0.00311381 -0.00010326 -6.79315e-05
-0.00010326 0.00135023 -2.63624e-06
-6.79315e-05 -2.63624e-06 0.00134709
0.000525019 -7.7983e-05 -8.47749e-07
-7.7983e-05 -7.46021e-05 5.52673e-06
-8.47749e-07 5.52673e-06 -0.000113231
0.00278597 -0.000101726 -1.3699e-06
-0.000101726 0.00116238 1.85818e-07
-1.3699e-06 1.85818e-07 0.00116301
0.00249728 -9.02667e-05 3.92848e-05
-9.02667e-05 0.00100009 2.35752e-06
3.92848e-05 2.35752e-06 0.00100478
0.00189184 5.93716e-05 -2.26293e-06
5.93716e-05 9.52361e-05 8.50123e-07
-2.26293e-06 8.50123e-07 3.98155e-06
0.001746 5.56941e-05 7.86932e-07
5.56941e-05 2.64558e-05 -1.00379e-07
7.86932e-07 -1.00379e-07 -5.84816e-05
0.00225783 1.32662e-05 -2.66088e-05
1.32662e-05 0.000362717 -3.3686e-06
-2.66088e-05 -3.3686e-06 0.000305607
0.00186672 0.000112171 -2.30295e-07
0.000112171 0.000136093 9.36806e-07
-2.30295e-07 9.36806e-07 2.52898e-05
0.00178498 0.000155918 -8.45438e-07
0.000155918 0.00014768 -4.26626e-07
-8.45438e-07 -4.26626e-07 2.50862e-05
0.00162565 0.000172768 -1.89622e-06
0.000172768 0.000227295 1.62281e-06
-1.89622e-06 1.62281e-06 9.77174e-05
0.00186101 0.000170496 1.07765e-06
0.000170496 0.000283305 -9.8099e-07
1.07765e-06 -9.8099e-07 0.000153317
0.00189727 0.000119994 1.81529e-07
0.000119994 0.000118656 -5.14154e-08
1.81529e-07 -5.14154e-08 1.2781e-05
0.00168088 0.000187002 1.08524e-06
0.000187002 5.0674e-05 -3.82739e-07
1.08524e-06 -3.82739e-07 -7.98256e-05
0.00172315 0.000123391 3.51547e-06
0.000123391 3.84518e-05 -1.20505e-06
3.51547e-06 -1.20505e-06 -6.83538e-05
0.00182901 1.14496e-05 1.01357e-06
1.14496e-05 8.39971e-05 2.4274e-07
1.01357e-06 2.4274e-07 -1.02597e-05
0.00187963 3.83478e-06 -3.68814e-07
3.83478e-06 9.3409e-05 -5.55196e-08
-3.68814e-07 -5.55196e-08 9.91678e-06
0.00182291 1.24108e-06 -2.11303e-06
1.24108e-06 5.81121e-05 -4.99441e-07
-2.11303e-06 -4.99441e-07 -1.34991e-05
0.00173011 -1.98575e-06 -1.83092e-07
-1.98575e-06 5.002e-05 -6.25824e-08
-1.83092e-07 -6.25824e-08 -5.27308e-05
0.00189786 -4.01395e-05 -8.13562e-07
-4.01395e-05 0.000104772 2.17562e-07
-8.13562e-07 2.17562e-07 2.90493e-05
0.00185066 -2.47166e-05 -1.4662e-07
-2.47166e-05 0.00011164 3.42567e-07
-1.4662e-07 3.42567e-07 1.42527e-05
0.00185997 -1.88321e-05 7.46382e-07
-1.88321e-05 0.000160368 -7.48211e-07
7.46382e-07 -7.48211e-07 4.97306e-05
0.00176094 -5.76835e-05 -1.84406e-06
-5.76835e-05 0.000102717 3.68926e-07
-1.84406e-06 3.68926e-07 4.21274e-06
0.00170101 -3.8012e-05 2.38734e-08
-3.8012e-05 0.000102138 -3.0252e-08
2.38734e-08 -3.0252e-08 -1.19287e-05
0.00161872 -3.11174e-05 -2.2975e-06
-3.11174e-05 0.000104929 7.11555e-07
-2.2975e-06 7.11555e-07 -1.54562e-05
0.00160408 -5.85245e-05 5.03144e-08
-5.85245e-05 7.94376e-05 -2.80677e-07
5.03144e-08 -2.80677e-07 -3.45543e-05
0.00156469 -6.12316e-05 -2.3739e-08
-6.12316e-05 9.69582e-05 4.27776e-08
-2.3739e-08 4.27776e-08 -2.19418e-05
0.00142598 -6.5956e-05 -4.4369e-06
-6.5956e-05 7.46057e-05 1.25167e-06
-4.4369e-06 1.25167e-06 -4.09491e-05
0.00153531 -9.18728e-05 1.94125e-06
-9.18728e-05 9.62636e-05 -6.12406e-07
1.94125e-06 -6.12406e-07 -2.16375e-05
0.00140539 -8.80598e-05 -9.33637e-08
-8.80598e-05 7.78803e-05 -5.77895e-08
-9.33637e-08 -5.77895e-08 -3.62625e-05
0.00113579 -7.27736e-05 -9.36055e-06
-7.27736e-05 1.69053e-05 2.557e-06
-9.36055e-06 2.557e-06 -8.02386e-05
0.00135137 -0.00010402 4.73342e-06
-0.00010402 6.93779e-05 -9.69829e-07
4.73342e-06 -9.69829e-07 -4.59528e-05
0.00110941 -8.3849e-05 2.91029e-07
-8.3849e-05 1.73438e-05 1.89083e-07
2.91029e-07 1.89083e-07 -7.98473e-05
0.00218455 -5.14768e-05 -1.86092e-05
-5.14768e-05 0.000751068 4.08434e-06
-1.86092e-05 4.08434e-06 0.000702777
0.00105563 -9.21969e-05 8.51296e-06
-9.21969e-05 1.21207e-05 -3.44285e-06
8.51296e-06 -3.44285e-06 -8.54811e-05
0.00224215 -7.08448e-05 2.22232e-05
-7.08448e-05 0.000793104 -1.88477e-06
2.22232e-05 -1.88477e-06 0.000744513
0.00149145 -2.89946e-05 -0.000103057
-2.89946e-05 0.000460534 1.04757e-05
-0.000103057 1.04757e-05 0.000439349
0.00235243 -9.21548e-05 6.25059e-05
-9.21548e-05 0.000861018 -9.13795e-06
6.25059e-05 -9.13795e-06 0.000812681
0.0013508 3.08738e-05 -5.18823e-05
3.08738e-05 0.000400424 3.27481e-06
-5.18823e-05 3.27481e-06 0.000371091
0.00391216 0.000210373 3.47416e-06
0.000210373 0.00182674 -2.81561e-06
3.47416e-06 -2.81561e-06 0.00179567
0.00174247 9.55281e-05 -8.74222e-07
9.55281e-05 0.00012616 2.3933e-07
-8.74222e-07 2.3933e-07 7.93459e-06
0.00160129 0.000120977 -1.36873e-06
0.000120977 0.000117732 -1.49576e-06
-1.36873e-06 -1.49576e-06 -3.80965e-06
0.0017474 0.000129012 -2.47514e-06
0.000129012 0.000151322 3.97581e-07
-2.47514e-06 3.97581e-07 3.15532e-05
0.00173139 0.000150769 -2.56074e-06
0.000150769 0.000309842 -1.61063e-07
-2.56074e-06 -1.61063e-07 0.000187731
0.00151129 0.000149557 3.89308e-07
0.000149557 0.000126188 -6.35087e-07
3.89308e-07 -6.35087e-07 5.53078e-07
0.00147657 0.0001416 3.78879e-06
0.0001416 5.08708e-05 8.11603e-07
3.78879e-06 8.11603e-07 -6.4336e-05
0.00100684 0.000109233 -6.9426e-06
0.000109233 4.49673e-05 -2.98975e-06
-6.9426e-06 -2.98975e-06 -5.82426e-05
0.001214 0.000140573 -2.52629e-07
0.000140573 9.38195e-05 1.33566e-07
-2.52629e-07 1.33566e-07 -3.41227e-05
0.00156234 0.000169116 3.13106e-06
0.000169116 0.000216145 -9.2626e-08
3.13106e-06 -9.2626e-08 7.77447e-05
0.00108726 0.000131645 2.7097e-06
0.000131645 9.5294e-05 1.39769e-06
2.7097e-06 1.39769e-06 -3.04892e-05
0.000921936 9.67592e-05 -4.14937e-07
9.67592e-05 5.2219e-05 -1.43851e-07
-4.14937e-07 -1.43851e-07 -4.56029e-05
0.000789624 7.83126e-05 -1.14842e-05
7.83126e-05 4.08109e-05 -7.13654e-06
-1.14842e-05 -7.13654e-06 -1.64341e-05
0.000742496 7.0438e-05 2.85524e-06
7.0438e-05 -7.49989e-06 1.71623e-06
2.85524e-06 1.71623e-06 -9.65517e-05
0.00066398 2.71583e-05 3.94742e-08
2.71583e-05 -1.43003e-05 -4.02325e-08
3.94742e-08 -4.02325e-08 -6.37942e-05
0.00346933 -9.03777e-05 -8.39216e-05
-9.03777e-05 0.00155713 -4.1298e-06
-8.39216e-05 -4.1298e-06 0.00155029
0.000552342 -3.86653e-05 2.21071e-06
-3.86653e-05 -6.73202e-05 5.6688e-06
2.21071e-06 5.6688e-06 -0.000108631
0.00306656 -0.000115505 -2.29299e-06
-0.000115505 0.0013244 3.02445e-07
-2.29299e-06 3.02445e-07 0.00131987
0.00273919 -0.000102676 4.48528e-05
-0.000102676 0.0011367 2.21887e-06
4.48528e-05 2.21887e-06 0.00113762
0.00178793 5.69699e-05 7.60351e-07
5.69699e-05 6.67036e-05 8.0873e-07
7.60351e-07 8.0873e-07 -3.38627e-05
0.00183775 6.11969e-05 -6.03666e-07
6.11969e-05 6.45381e-05 1.68604e-07
-6.03666e-07 1.68604e-07 -2.65573e-05
0.00173024 5.54354e-05 6.90758e-07
5.54354e-05 1.65975e-05 -1.51286e-06
6.90758e-07 -1.51286e-06 -6.83941e-05
0.0018566 0.000110623 6.52895e-07
0.000110623 0.000128107 -8.74308e-08
6.52895e-07 -8.74308e-08 1.82372e-05
0.00186913 0.000157699 3.09705e-07
0.000157699 0.000196503 -8.57932e-07
3.09705e-07 -8.57932e-07 7.35394e-05
0.00176989 0.000115544 2.79723e-06
0.000115544 5.04568e-05 -1.0995e-06
2.79723e-06 -1.0995e-06 -5.61052e-05
0.00184027 1.44895e-05 2.00135e-07
1.44895e-05 0.000107897 2.42939e-07
2.00135e-07 2.42939e-07 6.04867e-06
0.00186237 1.30827e-05 3.72187e-07
1.30827e-05 0.000101632 -1.62906e-07
3.72187e-07 -1.62906e-07 6.52671e-06
0.00183531 5.29831e-06 8.9319e-07
5.29831e-06 6.84099e-05 -1.82725e-07
8.9319e-07 -1.82725e-07 -1.64805e-05
0.00178821 -9.50647e-06 -9.64842e-07
-9.50647e-06 8.07929e-05 1.56753e-07
-9.64842e-07 1.56753e-07 -2.10019e-05
0.00175445 -7.60276e-06 1.12166e-06
-7.60276e-06 9.37014e-05 -5.04079e-07
1.12166e-06 -5.04079e-07 -1.70173e-05
0.00185678 -2.46689e-05 -7.47688e-07
-2.46689e-05 0.000115176 6.37025e-07
-7.47688e-07 6.37025e-07 1.77709e-05
0.0017831 -1.86764e-05 1.9931e-08
-1.86764e-05 0.000118483 1.67716e-07
1.9931e-08 1.67716e-07 6.29143e-06
0.00163776 -1.06982e-05 -2.00083e-07
-1.06982e-05 9.61492e-05 -3.92368e-07
-2.00083e-07 -3.92368e-07 -2.33987e-05
0.00165992 -3.84658e-05 -2.70641e-08
-3.84658e-05 7.86021e-05 1.92519e-07
-2.70641e-08 1.92519e-07 -3.54867e-05
0.00159582 -3.19918e-05 -6.8078e-07
-3.19918e-05 9.19283e-05 3.52215e-07
-6.8078e-07 3.52215e-07 -2.85238e-05
0.00148063 -3.63024e-05 -5.47711e-06
-3.63024e-05 8.43824e-05 1.73651e-06
-5.47711e-06 1.73651e-06 -3.44495e-05
0.00152504 -6.04927e-05 1.57859e-06
-6.04927e-05 7.58954e-05 -6.67907e-07
1.57859e-06 -6.67907e-07 -4.30302e-05
0.00143632 -6.49989e-05 8.92354e-08
-6.49989e-05 7.96285e-05 -1.21184e-07
8.92354e-08 -1.21184e-07 -3.58372e-05
0.00113937 -5.49248e-05 -9.23041e-06
-5.49248e-05 6.59849e-06 2.25131e-06
-9.23041e-06 2.25131e-06 -9.11194e-05
0.00141014 -8.72899e-05 4.55691e-06
-8.72899e-05 8.01048e-05 -1.08387e-06
4.55691e-06 -1.08387e-06 -3.39588e-05
0.00114214 -7.07344e-05 3.4177e-08
-7.07344e-05 1.9045e-05 1.02043e-07
3.4177e-08 1.02043e-07 -7.77363e-05
0.00223305 -5.58841e-05 -2.21791e-05
-5.58841e-05 0.000765579 3.14152e-06
-2.21791e-05 3.14152e-06 0.000718727
0.00110202 -8.21257e-05 9.2146e-06
-8.21257e-05 1.20693e-05 -2.93377e-06
9.2146e-06 -2.93377e-06 -8.47893e-05
0.0022905 -7.22884e-05 2.12994e-05
-7.22884e-05 0.000804399 -1.63578e-06
2.12994e-05 -1.63578e-06 0.000758028
0.00159415 -2.71597e-05 -0.000105148
-2.71597e-05 0.000507948 9.07431e-06
-0.000105148 9.07431e-06 0.000487214
0.00239452 -8.84591e-05 6.43843e-05
-8.84591e-05 0.00087043 -8.42352e-06
6.43843e-05 -8.42352e-06 0.000823712
0.001403 2.37446e-05 -5.11991e-05
2.37446e-05 0.000423643 3.38689e-06
-5.11991e-05 3.38689e-06 0.000395646
0.00137079 9.60883e-05 3.89082e-07
9.60883e-05 0.000427617 -4.49272e-06
3.89082e-07 -4.49272e-06 0.000388221
0.00179399 5.50899e-05 4.60985e-07
5.50899e-05 0.00012562 9.8062e-07
4.60985e-07 9.8062e-07 1.70342e-05
0.00156382 8.92871e-05 -2.50156e-06
8.92871e-05 7.9637e-05 -4.7192e-07
-2.50156e-06 -4.7192e-07 -4.14735e-05
0.00173367 9.64005e-05 -1.27779e-06
9.64005e-05 0.000122343 -2.01475e-07
-1.27779e-06 -2.01475e-07 5.0248e-06
0.0015881 0.000122803 -3.93071e-06
0.000122803 0.000174588 -1.13694e-06
-3.93071e-06 -1.13694e-06 5.67094e-05
0.0017262 0.000125752 1.20963e-06
0.000125752 0.00018624 3.72567e-07
1.20963e-06 3.72567e-07 6.43513e-05
0.00178559 0.000132232 3.30927e-06
0.000132232 0.000179001 9.02256e-07
3.30927e-06 9.02256e-07 5.95268e-05
0.00102632 0.000106618 -8.37874e-06
0.000106618 2.54318e-06 -2.88766e-06
-8.37874e-06 -2.88766e-06 -0.000100525
0.00138567 0.000138918 2.40174e-06
0.000138918 0.000120618 8.23248e-07
2.40174e-06 8.23248e-07 -2.587e-06
0.00134593 0.00014569 1.82538e-06
0.00014569 3.22452e-05 4.28617e-07
1.82538e-06 4.28617e-07 -9.29868e-05
0.000737906 0.00010478 -1.52439e-05
0.00010478 -1.39782e-06 -7.50004e-06
-1.52439e-05 -7.50004e-06 -6.30031e-05
0.000998207 0.000107854 -5.98578e-07
0.000107854 4.06317e-05 7.74751e-09
-5.98578e-07 7.74751e-09 -6.22735e-05
0.00124757 0.000143076 4.22664e-06
0.000143076 0.000112211 1.4748e-06
4.22664e-06 1.4748e-06 -1.64535e-05
0.00087197 9.2945e-05 4.52269e-06
9.2945e-05 2.57426e-05 2.46255e-06
4.52269e-06 2.46255e-06 -7.1526e-05
0.000666213 6.95816e-05 -1.38491e-07
6.95816e-05 -1.99608e-05 7.22101e-08
-1.38491e-07 7.22101e-08 -7.6865e-05
0.00398337 -7.68538e-05 -9.55542e-05
-7.68538e-05 0.00184943 -6.70626e-06
-9.55542e-05 -6.70626e-06 0.00183636
0.000575024 1.91458e-05 5.57048e-06
1.91458e-05 -5.83622e-05 6.14704e-06
5.57048e-06 6.14704e-06 -0.000106739
0.0033883 -0.000122603 -4.97396e-06
-0.000122603 0.00151383 3.50273e-07
-4.97396e-06 3.50273e-07 0.00150425
0.00300716 -0.000117228 5.14466e-05
-0.000117228 0.00129043 2.18936e-06
5.14466e-05 2.18936e-06 0.00128627
0.00179843 3.76458e-05 5.47483e-07
3.76458e-05 9.24324e-05 3.55155e-08
5.47483e-07 3.55155e-08 -1.16158e-05
0.00179566 5.62011e-05 -1.73925e-07
5.62011e-05 7.07428e-05 2.36981e-07
-1.73925e-07 2.36981e-07 -2.94054e-05
0.00177408 6.25271e-05 3.5667e-06
6.25271e-05 2.93771e-05 -5.9277e-07
3.5667e-06 -5.9277e-07 -6.15665e-05
0.00184596 0.000108988 1.14284e-06
0.000108988 0.000119446 -8.3477e-07
1.14284e-06 -8.3477e-07 1.05289e-05
0.00176645 -3.205e-06 7.9454e-07
-3.205e-06 9.51237e-05 -1.95352e-08
7.9454e-07 -1.95352e-08 -1.59925e-05
0.00187837 1.15096e-05 -1.1797e-07
1.15096e-05 0.000126621 -6.34508e-08
-1.1797e-07 -6.34508e-08 2.48071e-05
0.0018923 1.41706e-05 -5.95975e-07
1.41706e-05 0.000117572 1.1103e-08
-5.95975e-07 1.1103e-08 2.16253e-05
0.00185565 -1.36576e-05 -2.11631e-06
-1.36576e-05 0.000116854 3.17421e-08
-2.11631e-06 3.17421e-08 1.5989e-05
0.00175461 -2.05672e-06 -5.65073e-07
-2.05672e-06 9.34944e-05 -8.1629e-08
-5.65073e-07 -8.1629e-08 -1.6589e-05
0.00179986 2.07267e-06 3.08245e-07
2.07267e-06 0.000172747 -3.23025e-07
3.08245e-07 -3.23025e-07 5.50116e-05
0.00170559 -1.85668e-05 -3.68313e-07
-1.85668e-05 7.62178e-05 8.50927e-07
-3.68313e-07 8.50927e-07 -3.75267e-05
0.00168403 -1.01581e-05 6.85137e-07
-1.01581e-05 0.000120678 -1.18721e-07
6.85137e-07 -1.18721e-07 5.85896e-07
0.00137217 -9.72922e-06 -4.27941e-06
-9.72922e-06 5.67649e-06 6.68275e-07
-4.27941e-06 6.68275e-07 -0.000115129
0.00156094 -3.12743e-05 7.12963e-07
-3.12743e-05 7.28649e-05 -7.82247e-09
7.12963e-07 -7.82247e-09 -4.76252e-05
0.00145675 -3.35233e-05 -5.38389e-07
-3.35233e-05 7.20163e-05 3.85415e-07
-5.38389e-07 3.85415e-07 -4.66074e-05
0.00117511 -3.31106e-05 -9.44567e-06
-3.31106e-05 8.4376e-06 2.30867e-06
-9.44567e-06 2.30867e-06 -9.21799e-05
0.00144159 -6.19615e-05 4.25422e-06
-6.19615e-05 8.20074e-05 -1.43469e-06
4.25422e-06 -1.43469e-06 -3.32533e-05
0.00116197 -5.47949e-05 -3.42231e-08
-5.47949e-05 1.75469e-05 -1.87326e-08
-3.42231e-08 -1.87326e-08 -8.00707e-05
0.000688156 -3.81161e-05 -1.41634e-05
-3.81161e-05 -8.66683e-05 3.38778e-06
-1.41634e-05 3.38778e-06 -0.000142387
0.00114919 -6.88744e-05 9.39589e-06
-6.88744e-05 2.14509e-05 -2.46136e-06
9.39589e-06 -2.46136e-06 -7.49627e-05
0.00149771 -5.55921e-05 2.65473e-05
-5.55921e-05 0.000361037 -1.28234e-06
2.65473e-05 -1.28234e-06 0.000311803
0.00476002 -4.60743e-05 -0.000126122
-4.60743e-05 0.00223362 5.52071e-06
-0.000126122 5.52071e-06 0.00223039
0.00240173 -7.53546e-05 6.55841e-05
-7.53546e-05 0.000860897 -7.02248e-06
6.55841e-05 -7.02248e-06 0.000816138
0.0014514 1.9936e-07 -4.58878e-05
1.9936e-07 0.000436246 3.2647e-06
-4.58878e-05 3.2647e-06 0.000412178
0.00135532 2.79813e-05 1.318e-05
2.79813e-05 0.000399098 -3.16086e-06
1.318e-05 -3.16086e-06 0.00037057
0.001821 3.57175e-05 7.97796e-07
3.57175e-05 0.000142873 3.03218e-07
7.97796e-07 3.03218e-07 3.55728e-05
0.00160635 5.35472e-05 -1.21566e-06
5.35472e-05 8.94483e-05 6.02955e-07
-1.21566e-06 6.02955e-07 -2.71246e-05
0.00182928 5.30425e-05 -1.06397e-07
5.30425e-05 0.000146315 -1.15962e-07
-1.06397e-07 -1.15962e-07 3.73267e-05
0.00117823 8.53516e-05 -5.26774e-06
8.53516e-05 -7.49106e-05 -1.49864e-06
-5.26774e-06 -1.49864e-06 -0.000192815
0.00165336 9.17577e-05 1.06189e-08
9.17577e-05 0.000128725 -1.14593e-08
1.06189e-08 -1.14593e-08 8.38153e-06
0.00172366 9.74302e-05 -4.36646e-07
9.74302e-05 0.00011829 -7.06041e-07
-4.36646e-07 -7.06041e-07 1.84647e-06
0.000657858 7.9466e-05 -1.09248e-05
7.9466e-05 -0.000241326 -3.19615e-06
-1.09248e-05 -3.19615e-06 -0.000343933
0.00164042 0.00012651 1.12079e-06
0.00012651 0.000202947 2.11505e-07
1.12079e-06 2.11505e-07 8.45585e-05
0.00186297 0.00013105 3.62002e-06
0.00013105 0.000261482 1.06754e-06
3.62002e-06 1.06754e-06 0.000139171
0.000682789 0.000103685 -1.56729e-05
0.000103685 -5.51006e-05 -6.65093e-06
-1.56729e-05 -6.65093e-06 -0.000115899
0.000804773 9.80152e-05 8.17382e-08
9.80152e-05 -0.000119076 2.4546e-07
8.17382e-08 2.4546e-07 -0.000223126
0.00103312 0.000126768 6.15546e-06
0.000126768 -7.22133e-05 1.86258e-06
6.15546e-06 1.86258e-06 -0.000196491
0.00450293 -8.11336e-05 -9.92316e-05
-8.11336e-05 0.00213718 -8.48306e-06
-9.92316e-05 -8.48306e-06 0.00211748
0.000652427 9.40986e-05 7.25453e-07
9.40986e-05 -4.46792e-05 1.62309e-07
7.25453e-07 1.62309e-07 -0.000105608
0.00097753 0.00010594 6.49759e-06
0.00010594 3.02186e-05 3.25071e-06
6.49759e-06 3.25071e-06 -7.2395e-05
0.000550453 6.12188e-05 8.7931e-06
6.12188e-05 -7.76819e-05 6.94763e-06
8.7931e-06 6.94763e-06 -0.000134203
0.00378028 -0.000112875 -6.9636e-06
-0.000112875 0.00174067 3.67598e-07
-6.9636e-06 3.67598e-07 0.00172659
0.00326699 -0.000133861 5.7812e-05
-0.000133861 0.00144681 2.25335e-06
5.7812e-05 2.25335e-06 0.00143615
0.00179848 1.82306e-05 -4.20868e-07
1.82306e-05 0.000114146 -2.09928e-07
-4.20868e-07 -2.09928e-07 4.27369e-06
0.00181039 3.69772e-05 -2.5698e-07
3.69772e-05 9.53877e-05 1.18523e-07
-2.5698e-07 1.18523e-07 -8.42559e-06
0.00180891 5.59163e-05 1.74976e-07
5.59163e-05 7.78265e-05 -4.32106e-07
1.74976e-07 -4.32106e-07 -2.19158e-05
0.00175877 8.16312e-06 3.45494e-07
8.16312e-06 0.000143343 -2.67669e-07
3.45494e-07 -2.67669e-07 2.50151e-05
0.00175802 3.13397e-07 -1.74662e-07
3.13397e-07 9.29891e-05 2.28216e-08
-1.74662e-07 2.28216e-08 -1.7371e-05
0.00191179 5.87201e-06 -1.13336e-06
5.87201e-06 0.00014271 4.05496e-08
-1.13336e-06 4.05496e-08 4.09487e-05
0.00174541 2.14586e-06 -1.33877e-06
2.14586e-06 8.79944e-05 5.61539e-07
-1.33877e-06 5.61539e-07 -2.14224e-05
0.00178869 4.73988e-06 9.69966e-07
4.73988e-06 0.000166394 -2.13706e-07
9.69966e-07 -2.13706e-07 4.86071e-05
0.00178052 1.97871e-06 -2.93122e-06
1.97871e-06 0.000214908 1.26568e-07
-2.93122e-06 1.26568e-07 9.71708e-05
0.00174089 -9.55974e-06 1.89471e-06
-9.55974e-06 0.000150775 -4.10525e-08
1.89471e-06 -4.10525e-08 3.01494e-05
0.00162361 -7.88636e-06 -1.61217e-08
-7.88636e-06 0.000143147 6.43138e-08
-1.61217e-08 6.43138e-08 2.40429e-05
0.000826757 -1.067e-05 -1.14859e-05
-1.067e-05 -0.000202861 2.1214e-06
-1.14859e-05 2.1214e-06 -0.000309914
0.0014485 -3.30472e-05 3.74427e-06
-3.30472e-05 6.77463e-05 -9.0276e-07
3.74427e-06 -9.0276e-07 -5.07714e-05
0.0011783 -3.05513e-05 4.67942e-08
-3.05513e-05 9.34929e-06 4.15117e-08
4.67942e-08 4.15117e-08 -9.10842e-05
0.000694025 -1.8908e-05 -1.40826e-05
-1.8908e-05 -9.38641e-05 2.68884e-06
-1.40826e-05 2.68884e-06 -0.00015215
0.00118449 -5.34072e-05 9.56941e-06
-5.34072e-05 2.83434e-05 -2.39707e-06
9.56941e-06 -2.39707e-06 -6.90662e-05
0.00069152 -2.68295e-05 -1.93933e-07
-2.68295e-05 -8.58857e-05 7.19615e-08
-1.93933e-07 7.19615e-08 -0.000141497
0.00477646 -4.73938e-05 -0.000124858
-4.73938e-05 0.00224156 4.33193e-06
-0.000124858 4.33193e-06 0.00223815
0.000735254 -4.85193e-05 1.51996e-05
-4.85193e-05 -5.73001e-05 -5.08891e-06
1.51996e-05 -5.08891e-06 -0.000112592
0.00309054 -2.40617e-05 5.13962e-05
-2.40617e-05 0.00132348 9.09748e-08
5.13962e-05 9.09748e-08 0.00130866
0.0013033 -7.20398e-06 2.00294e-05
-7.20398e-06 0.000361045 -2.78764e-06
2.00294e-05 -2.78764e-06 0.000334318
0.0018372 2.38235e-05 6.21622e-08
2.38235e-05 0.000169184 -5.59712e-08
6.21622e-08 -5.59712e-08 5.96707e-05
0.00162751 2.9327e-05 -8.38889e-07
2.9327e-05 9.84159e-05 4.5465e-07
-8.38889e-07 4.5465e-07 -1.5532e-05
0.00178943 3.38292e-05 -3.02927e-07
3.38292e-05 0.000125841 -1.53145e-07
-3.02927e-07 -1.53145e-07 1.85693e-05
0.00142647 5.95044e-05 -4.2066e-06
5.95044e-05 4.96763e-05 -4.75349e-07
-4.2066e-06 -4.75349e-07 -6.50474e-05
0.00156999 5.21308e-05 3.75935e-07
5.21308e-05 6.90005e-05 1.59501e-07
3.75935e-07 1.59501e-07 -4.81261e-05
0.00186349 5.07675e-05 -8.96972e-07
5.07675e-05 0.000166258 -8.73977e-07
-8.96972e-07 -8.73977e-07 5.68844e-05
0.000709566 6.4437e-05 -1.12087e-05
6.4437e-05 -0.000237799 -2.91469e-06
-1.12087e-05 -2.91469e-06 -0.000338789
0.00152779 9.57391e-05 -1.42085e-06
9.57391e-05 0.000115526 -3.77539e-07
-1.42085e-06 -3.77539e-07 -8.46736e-07
0.00174108 9.40307e-05 2.70829e-06
9.40307e-05 0.000176659 9.90257e-08
2.70829e-06 9.90257e-08 5.71213e-05
0.000649998 7.9275e-05 -1.49329e-05
7.9275e-05 -9.34491e-05 -5.35949e-06
-1.49329e-05 -5.35949e-06 -0.000152282
0.000678867 8.10384e-05 -2.56997e-06
8.10384e-05 -0.000230781 -5.94586e-07
-2.56997e-06 -5.94586e-07 -0.000333908
0.00168825 0.000130096 6.36614e-06
0.000130096 0.000228818 1.45945e-06
6.36614e-06 1.45945e-06 0.000109947
0.00480671 -4.07648e-05 -0.00011005
-4.07648e-05 0.00228208 -7.58397e-06
-0.00011005 -7.58397e-06 0.00226975
0.000632239 9.43022e-05 9.16508e-07
9.43022e-05 -7.9795e-05 3.02291e-07
9.16508e-07 3.02291e-07 -0.000141095
0.000581592 8.92864e-05 8.20176e-06
8.92864e-05 -0.000241491 3.27874e-06
8.20176e-06 3.27874e-06 -0.000346537
0.00424829 -7.31525e-05 -8.19502e-07
-7.31525e-05 0.00199299 -6.9303e-09
-8.19502e-07 -6.9303e-09 0.00197907
0.000533434 8.55899e-05 1.20404e-05
8.55899e-05 -0.000105582 7.30007e-06
1.20404e-05 7.30007e-06 -0.000165959
0.00358535 -0.000141535 6.75356e-05
-0.000141535 0.00163656 3.0943e-06
6.75356e-05 3.0943e-06 0.00162048
0.00178168 1.61674e-05 -5.06312e-07
1.61674e-05 0.000154617 -3.90828e-07
-5.06312e-07 -3.90828e-07 3.88144e-05
0.00177591 1.75986e-05 -5.40918e-08
1.75986e-05 0.000105522 6.20589e-08
-5.40918e-08 6.20589e-08 -4.72346e-06
0.00182173 3.6313e-05 -7.74218e-07
3.6313e-05 9.78562e-05 -5.15249e-08
-7.74218e-07 -5.15249e-08 -5.72399e-06
0.00174699 -1.73258e-06 -3.27574e-06
-1.73258e-06 0.000197058 -1.50933e-07
-3.27574e-06 -1.50933e-07 8.05989e-05
0.00178319 7.58998e-06 7.41542e-07
7.58998e-06 0.000156888 -2.54059e-08
7.41542e-07 -2.54059e-08 3.94312e-05
0.00176254 6.08477e-06 1.99479e-07
6.08477e-06 9.77938e-05 7.17592e-08
1.99479e-07 7.17592e-08 -1.18616e-05
0.00177811 6.19296e-06 1.19609e-06
6.19296e-06 0.000160377 1.79914e-07
1.19609e-06 1.79914e-07 4.25442e-05
0.00176913 2.47226e-06 1.44553e-06
2.47226e-06 0.000208821 -1.84105e-07
1.44553e-06 -1.84105e-07 9.10476e-05
0.000861433 -2.44837e-06 -1.10503e-05
-2.44837e-06 -0.000197485 8.97774e-07
-1.10503e-05 8.97774e-07 -0.000305901
0.00186918 -6.22918e-06 5.29393e-06
-6.22918e-06 0.000277691 -7.74899e-07
5.29393e-06 -7.74899e-07 0.000160272
0.00102413 -8.98573e-06 -2.31865e-06
-8.98573e-06 -9.45139e-05 5.4226e-07
-2.31865e-06 5.4226e-07 -0.000199836
0.000710662 -7.2839e-06 -1.46656e-05
-7.2839e-06 -9.9166e-05 2.04329e-06
-1.46656e-05 2.04329e-06 -0.000160792
0.00119231 -2.95114e-05 9.48055e-06
-2.95114e-05 1.59188e-05 -2.26018e-06
9.48055e-06 -2.26018e-06 -8.44003e-05
0.000707427 -1.30193e-05 2.62039e-07
-1.30193e-05 -8.78038e-05 -3.11849e-08
2.62039e-07 -3.11849e-08 -0.000146014
0.00488522 -2.30745e-05 -0.000123888
-2.30745e-05 0.00229603 2.76652e-06
-0.000123888 2.76652e-06 0.00229321
0.000686522 -2.07852e-05 1.33637e-05
-2.07852e-05 -8.9701e-05 -3.04388e-06
1.33637e-05 -3.04388e-06 -0.000144917
0.00480137 -6.21658e-06 6.00057e-06
-6.21658e-06 0.00225322 2.04807e-07
6.00057e-06 2.04807e-07 0.0022504
0.00148558 -1.55021e-05 0.000108186
-1.55021e-05 0.000446393 -4.70311e-06
0.000108186 -4.70311e-06 0.000427331
0.00180985 1.92228e-05 -5.62903e-07
1.92228e-05 0.000196702 -3.63093e-07
-5.62903e-07 -3.63093e-07 8.42831e-05
0.0017497 2.62e-05 -1.08399e-07
2.62e-05 0.000121185 3.00169e-07
-1.08399e-07 3.00169e-07 1.19996e-05
0.00145455 2.89306e-05 -3.70228e-06
2.89306e-05 5.84739e-05 -3.93736e-07
-3.70228e-06 -3.93736e-07 -5.40551e-05
0.00159706 2.86319e-05 3.83661e-07
2.86319e-05 8.2021e-05 -3.47115e-08
3.83661e-07 -3.47115e-08 -3.19791e-05
0.00175595 3.19615e-05 -1.11753e-07
3.19615e-05 0.000107872 -5.53381e-07
-1.11753e-07 -5.53381e-07 6.34408e-07
0.00118433 5.22705e-05 -9.56516e-06
5.22705e-05 9.32469e-06 -1.92704e-06
-9.56516e-06 -1.92704e-06 -8.83063e-05
0.00145227 6.00196e-05 -5.78393e-08
6.00196e-05 6.23497e-05 2.62096e-07
-5.78393e-08 2.62096e-07 -5.23624e-05
0.00153441 5.07304e-05 9.71172e-07
5.07304e-05 4.90315e-05 -7.07487e-08
9.71172e-07 -7.07487e-08 -6.86585e-05
0.000658488 5.50498e-05 -1.46615e-05
5.50498e-05 -0.00010513 -4.10946e-06
-1.46615e-05 -4.10946e-06 -0.000161896
0.000930234 7.16161e-05 -2.87334e-06
7.16161e-05 -0.000116839 -5.1246e-07
-2.87334e-06 -5.1246e-07 -0.000217029
0.00188714 0.00010637 4.623e-06
0.00010637 0.000311262 9.48543e-07
4.623e-06 9.48543e-07 0.000196395
0.00492914 2.71337e-05 -0.000127579
2.71337e-05 0.00232734 -6.43763e-06
-0.000127579 -6.43763e-06 0.00232311
0.000633685 7.4364e-05 1.24848e-07
7.4364e-05 -0.000101715 1.99802e-07
1.24848e-07 1.99802e-07 -0.000160816
0.000695546 8.26831e-05 6.49368e-06
8.26831e-05 -0.000222684 2.18451e-06
6.49368e-06 2.18451e-06 -0.000326331
0.0046286 -2.367e-05 8.60583e-06
-2.367e-05 0.00218757 3.02036e-08
8.60583e-06 3.02036e-08 0.0021758
0.000567403 8.31538e-05 1.33439e-05
8.31538e-05 -0.000112286 6.77282e-06
1.33439e-05 6.77282e-06 -0.000173935
0.00400967 -0.000117707 7.94854e-05
-0.000117707 0.00187094 5.31932e-06
7.94854e-05 5.31932e-06 0.00185393
0.00175108 1.50882e-05 -2.88662e-06
1.50882e-05 0.000204206 -7.29042e-07
-2.88662e-06 -7.29042e-07 9.01072e-05
0.00178875 1.28499e-05 1.38076e-07
1.28499e-05 0.000160461 8.99082e-08
1.38076e-07 8.99082e-08 4.44058e-05
0.00175431 1.66434e-05 6.951e-08
1.66434e-05 9.78116e-05 4.73396e-07
6.951e-08 4.73396e-07 -1.27976e-05
0.000849233 -1.096e-05 -1.15734e-05
-1.096e-05 -0.000202742 -1.35693e-07
-1.15734e-05 -1.35693e-07 -0.00031008
0.00176953 5.11129e-06 1.48587e-06
5.11129e-06 0.000209424 -1.26279e-08
1.48587e-06 -1.26279e-08 9.29071e-05
0.00180112 7.24144e-06 1.71643e-06
7.24144e-06 0.000167107 7.45936e-08
1.71643e-06 7.45936e-08 5.05359e-05
0.0017605 2.74928e-06 5.62196e-06
2.74928e-06 0.000204246 -1.76343e-07
5.62196e-06 -1.76343e-07 8.64256e-05
0.000850174 -2.78799e-06 -1.76345e-06
-2.78799e-06 -0.000203424 2.54213e-07
-1.76345e-06 2.54213e-07 -0.000311815
0.000750183 -4.70719e-06 -1.51651e-05
-4.70719e-06 -8.81357e-05 8.37233e-07
-1.51651e-05 8.37233e-07 -0.000151292
0.00120959 -6.47881e-06 7.64373e-06
-6.47881e-06 7.45232e-06 -1.27034e-06
7.64373e-06 -1.27034e-06 -9.61323e-05
0.000723628 2.11944e-06 2.11454e-07
2.11944e-06 -9.32566e-05 1.51647e-07
2.11454e-07 1.51647e-07 -0.000154779
0.00511293 -4.40933e-05 -0.000130162
-4.40933e-05 0.00241553 1.69504e-06
-0.000130162 1.69504e-06 0.00241105
0.000730803 -2.11728e-08 1.38853e-05
-2.11728e-08 -7.66869e-05 -2.31415e-06
1.38853e-05 -2.31415e-06 -0.00013473
0.00496027 2.20771e-05 7.22118e-06
2.20771e-05 0.00233804 1.455e-07
7.22118e-06 1.455e-07 0.00233311
0.0048314 -3.08998e-05 0.000133319
-3.08998e-05 0.00226798 -3.20122e-06
0.000133319 -3.20122e-06 0.00226566
0.00151383 1.73276e-05 -3.76616e-06
1.73276e-05 8.71745e-05 -1.17662e-06
-3.76616e-06 -1.17662e-06 -2.56142e-05
0.00168487 1.99067e-05 5.22433e-07
1.99067e-05 0.000128197 8.10312e-08
5.22433e-07 8.10312e-08 1.60182e-05
0.00166127 2.87411e-05 -6.18912e-08
2.87411e-05 7.26313e-05 5.03713e-07
-6.18912e-08 5.03713e-07 -3.62246e-05
0.00118901 2.42304e-05 -9.25444e-06
2.42304e-05 4.91468e-06 -1.60024e-06
-9.25444e-06 -1.60024e-06 -9.26434e-05
0.00147107 2.92103e-05 2.27907e-07
2.92103e-05 6.65057e-05 -2.79295e-08
2.27907e-07 -2.79295e-08 -4.613e-05
0.00156181 2.79108e-05 7.74259e-07
2.79108e-05 6.31327e-05 -6.80045e-07
7.74259e-07 -6.80045e-07 -5.09314e-05
0.000685851 3.32028e-05 -1.41988e-05
3.32028e-05 -0.00010087 -3.14094e-06
-1.41988e-05 -3.14094e-06 -0.000157573
0.00117937 5.35606e-05 3.1251e-08
5.35606e-05 7.10602e-06 2.00166e-07
3.1251e-08 2.00166e-07 -9.08082e-05
0.00147648 6.04661e-05 4.45743e-06
6.04661e-05 7.41561e-05 1.05789e-06
4.45743e-06 1.05789e-06 -4.05451e-05
0.00495073 5.26893e-05 -0.000138537
5.26893e-05 0.00233123 -5.48835e-06
-0.000138537 -5.48835e-06 0.00232859
0.00066401 5.5e-05 4.29554e-08
5.5e-05 -0.000101985 1.05861e-07
4.29554e-08 1.05861e-07 -0.000158887
0.00114046 7.86939e-05 7.01432e-06
7.86939e-05 -1.50328e-06 2.00537e-06
7.01432e-06 2.00537e-06 -0.000100874
0.00483293 3.66975e-05 5.10249e-06
3.66975e-05 0.00227981 7.94745e-07
5.10249e-06 7.94745e-07 0.00227428
0.000622228 7.01226e-05 1.37423e-05
7.01226e-05 -0.000107571 5.48429e-06
1.37423e-05 5.48429e-06 -0.000166676
0.00446641 -1.19042e-05 0.000106934
-1.19042e-05 0.00209492 6.21904e-06
0.000106934 6.21904e-06 0.00208808
0.00124773 7.33312e-06 -1.02073e-05
7.33312e-06 1.84907e-05 -6.55777e-07
-1.02073e-05 -6.55777e-07 -8.44839e-05
0.00157199 1.01875e-05 1.60803e-06
1.01875e-05 0.000105471 1.18347e-08
1.60803e-06 1.18347e-08 -1.04948e-05
0.00179319 8.4104e-06 1.29715e-06
8.4104e-06 0.000164625 7.97691e-07
1.29715e-06 7.97691e-07 4.83123e-05
0.000735959 1.84054e-05 -1.55442e-05
1.84054e-05 -0.000101177 -3.15301e-07
-1.55442e-05 -3.15301e-07 -0.000161286
0.00084552 -4.51445e-06 -1.96079e-06
-4.51445e-06 -0.000205462 4.06009e-08
-1.96079e-06 4.06009e-08 -0.000312893
0.00179174 1.17175e-05 6.22556e-06
1.17175e-05 0.000221585 1.7424e-08
6.22556e-06 1.7424e-08 0.000105008
0.00083623 -2.65335e-06 7.35774e-06
-2.65335e-06 -0.000210839 -2.8173e-07
7.35774e-06 -2.8173e-07 -0.000319195
0.000721685 3.45698e-06 6.86447e-08
3.45698e-06 -0.000103682 3.38192e-07
6.86447e-08 3.38192e-07 -0.000166706
0.00526942 5.14017e-05 -0.000134736
5.14017e-05 0.00249463 -4.88427e-07
-0.000134736 -4.88427e-07 0.00249077
0.000716319 1.1215e-05 1.43196e-05
1.1215e-05 -9.78161e-05 -1.34825e-06
1.43196e-05 -1.34825e-06 -0.000159338
0.00515753 -2.45175e-05 -9.05438e-07
-2.45175e-05 0.00243647 7.67451e-07
-9.05438e-07 7.67451e-07 0.00243298
0.00500859 3.36493e-05 0.000131478
3.36493e-05 0.00235891 -1.33484e-06
0.000131478 -1.33484e-06 0.00235616
0.00122012 1.15672e-05 -9.84891e-06
1.15672e-05 1.32121e-05 -1.74516e-06
-9.84891e-06 -1.74516e-06 -8.66857e-05
0.00141542 1.55916e-05 1.65915e-08
1.55916e-05 3.20248e-05 -2.47219e-07
1.65915e-08 -2.47219e-07 -8.12842e-05
0.00156279 2.05127e-05 1.06168e-06
2.05127e-05 6.12794e-05 1.56646e-07
1.06168e-06 1.56646e-07 -5.06692e-05
0.00249867 1.41285e-05 -7.25431e-05
1.41285e-05 0.000880101 -2.05842e-06
-7.25431e-05 -2.05842e-06 0.000836118
0.00119619 2.6063e-05 1.47053e-07
2.6063e-05 8.60883e-06 8.13874e-08
1.47053e-07 8.13874e-08 -8.91722e-05
0.00148905 2.93738e-05 4.18201e-06
2.93738e-05 7.53086e-05 3.57546e-07
4.18201e-06 3.57546e-07 -3.7435e-05
0.00496532 5.47501e-05 -0.00014385
5.47501e-05 0.00233652 -4.15824e-06
-0.00014385 -4.15824e-06 0.0023336
0.000705728 3.52749e-05 1.31364e-07
3.52749e-05 -8.95195e-05 1.04455e-07
1.31364e-07 1.04455e-07 -0.000146404
0.00117864 5.49268e-05 9.61668e-06
5.49268e-05 7.00839e-06 2.28484e-06
9.61668e-06 2.28484e-06 -9.11714e-05
0.00491473 6.31064e-05 1.17157e-06
6.31064e-05 0.00231547 8.35825e-07
1.17157e-06 8.35825e-07 0.00231169
0.000672843 5.49773e-05 1.41773e-05
5.49773e-05 -9.67542e-05 4.34557e-06
1.41773e-05 4.34557e-06 -0.000153803
0.00474361 5.05407e-05 0.000124415
5.05407e-05 0.00223268 6.94144e-06
0.000124415 6.94144e-06 0.00222766
0.000771406 7.87161e-06 -1.56932e-05
7.87161e-06 -7.68194e-05 -1.63307e-06
-1.56932e-05 -1.63307e-06 -0.000139055
0.00105259 4.51251e-06 4.41186e-07
4.51251e-06 -8.74628e-05 4.6382e-07
4.41186e-07 4.6382e-07 -0.00019177
0.00138666 5.20655e-06 5.56162e-06
5.20655e-06 3.30729e-06 7.49117e-07
5.56162e-06 7.49117e-07 -0.000114484
0.00530054 -7.29046e-05 -0.000128231
-7.29046e-05 0.00252031 -1.94939e-06
-0.000128231 -1.94939e-06 0.00251019
0.000732503 9.60793e-06 -1.64808e-07
9.60793e-06 -0.000100333 2.10204e-07
-1.64808e-07 2.10204e-07 -0.000162016
0.00085161 1.5605e-06 7.57948e-06
1.5605e-06 -0.000203008 1.32515e-07
7.57948e-06 1.32515e-07 -0.000310524
0.00071262 1.5162e-05 1.46814e-05
1.5162e-05 -0.000108807 2.00414e-08
1.46814e-05 2.00414e-08 -0.000171872
0.00530432 3.74828e-05 4.8507e-06
3.74828e-05 0.0025161 4.47912e-07
4.8507e-06 4.47912e-07 0.00250976
0.00524384 8.77588e-05 0.000132334
8.77588e-05 0.00248523 -1.35893e-09
0.000132334 -1.35893e-09 0.00247842
0.00258824 -6.23746e-06 -7.50147e-05
-6.23746e-06 0.000919414 -1.89226e-06
-7.50147e-05 -1.89226e-06 0.000873343
0.0012297 1.37284e-05 -7.56921e-08
1.37284e-05 1.81877e-05 -5.13348e-08
-7.56921e-08 -5.13348e-08 -8.16961e-05
0.00131727 1.39981e-05 3.91695e-06
1.39981e-05 -2.30279e-05 6.53321e-07
3.91695e-06 6.53321e-07 -0.00013685
0.00475368 1.57185e-05 -3.13611e-05
1.57185e-05 0.00223062 -1.20862e-06
-3.13611e-05 -1.20862e-06 0.00221931
0.000742475 1.89601e-05 -6.20971e-08
1.89601e-05 -7.51239e-05 1.95696e-07
-6.20971e-08 1.95696e-07 -0.000133656
0.00121929 2.85707e-05 9.50426e-06
2.85707e-05 2.0467e-05 1.81615e-06
9.50426e-06 1.81615e-06 -7.74869e-05
0.00496251 5.30295e-05 -4.72487e-06
5.30295e-05 0.00233615 4.31086e-07
-4.72487e-06 4.31086e-07 0.00233336
0.000726658 4.19288e-05 1.48814e-05
4.19288e-05 -7.68762e-05 3.59235e-06
1.48814e-05 3.59235e-06 -0.000134263
0.00488294 7.62997e-05 0.000134134
7.62997e-05 0.00230107 6.84305e-06
0.000134134 6.84305e-06 0.00229636
0.00173293 -2.25521e-05 -0.000128657
-2.25521e-05 0.000559428 2.30842e-07
-0.000128657 2.30842e-07 0.000536891
0.00167156 1.28252e-05 -3.0632e-05
1.28252e-05 0.000413847 4.3239e-07
-3.0632e-05 4.3239e-07 0.000360916
0.000858117 4.70864e-06 9.89226e-06
4.70864e-06 -0.000192965 1.4169e-06
9.89226e-06 1.4169e-06 -0.00029863
0.00528691 -3.03899e-05 5.77847e-06
-3.03899e-05 0.00250916 -1.02502e-06
5.77847e-06 -1.02502e-06 0.00250201
0.000717767 2.41054e-06 1.53678e-05
2.41054e-06 -0.000106199 7.83239e-07
1.53678e-05 7.83239e-07 -0.000168815
0.00531012 -2.91701e-05 0.000143361
-2.91701e-05 0.00251627 6.39555e-07
0.000143361 6.39555e-07 0.00251187
0.00142175 -7.77658e-05 -7.69136e-06
-7.77658e-05 0.000414261 -8.1869e-07
-7.69136e-06 -8.1869e-07 0.000378399
0.00166249 8.64905e-06 -2.99065e-05
8.64905e-06 0.000417751 -9.46913e-09
-2.99065e-05 -9.46913e-09 0.000364812
0.00123303 1.40279e-05 9.5066e-06
1.40279e-05 2.00605e-05 1.68564e-06
9.5066e-06 1.68564e-06 -7.98381e-05
0.00320188 3.26346e-05 5.23038e-05
3.26346e-05 0.00137762 5.00444e-07
5.23038e-05 5.00444e-07 0.00136048
0.000757699 2.75285e-05 1.51382e-05
2.75285e-05 -6.66675e-05 3.05559e-06
1.51382e-05 3.05559e-06 -0.00012554
0.00495112 8.08868e-05 0.000136977
8.08868e-05 0.00233426 5.82088e-06
0.000136977 5.82088e-06 0.00232959
0.00523787 -3.81073e-05 -8.19741e-06
-3.81073e-05 0.00248374 3.96002e-07
-8.19741e-06 3.96002e-07 0.00247666
0.000728308 2.1892e-05 1.56486e-05
2.1892e-05 -9.93642e-05 1.74496e-06
1.56486e-05 1.74496e-06 -0.000159073
0.00526594 6.26853e-05 0.000131842
6.26853e-05 0.00249969 -1.40006e-06
0.000131842 -1.40006e-06 0.0024916
0.00327177 2.10074e-05 6.2416e-05
2.10074e-05 0.00141217 6.06153e-07
6.2416e-05 6.06153e-07 0.00139453
0.000736545 9.89156e-06 1.49153e-05
9.89156e-06 -8.50494e-05 2.42721e-06
1.49153e-05 2.42721e-06 -0.000145384
0.00500761 -1.5897e-06 0.000129812
-1.5897e-06 0.00235799 3.14134e-06
0.000129812 3.14134e-06 0.00235574
0.00518833 -0.000119394 0.000125012
-0.000119394 0.00246342 -7.95237e-08
0.000125012 -7.95237e-08 0.00245261
0.00508419 -8.11073e-05 0.000125224
-8.11073e-05 0.00240379 1.28951e-06
0.000125224 1.28951e-06 0.00239684
