# vtk DataFile Version 2.0
Wound Healing Simulation
ASCII
DATASET UNSTRUCTURED_GRID
POINTS 3012 float
69.9759 18.75 4
67.2507 60.3285 4
69.976 18.75 2
73.0099 25.446 4
71.1327 20.9142 4
68.6801 16.6661 4
67.8237 19.9264 3.97815
67.2507 60.3286 2
71.1327 54.0858 4
68.6801 58.3339 4
65.6939 62.2254 4
65.3104 59.0004 3.97738
74.6784 42.3946 4
73.7221 47.2057 4
69.9759 18.75 0
73.0099 25.446 2
68.6801 16.6661 2
71.1327 20.9142 2
67.8243 19.93 2
74.6792 32.6053 4
73.7222 27.7943 4
72.1454 23.1494 4
70.6127 26.2213 3.97787
68.884 21.9582 3.9786
67.2507 14.6715 4
66.6351 17.9728 3.97716
65.7918 21.0283 3.96718
67.2507 60.3285 0
71.1327 54.0858 2
68.6801 58.3339 2
65.694 62.2255 2
65.3117 58.9957 2
72.1454 51.8506 4
69.9759 56.25 4
68.8346 53.1131 3.97785
64.0165 64.0165 4
66.6089 57.1332 3.97792
63.8834 60.7643 3.97759
63.4956 57.7663 3.96824
60.3285 67.2507 4
74.6792 42.3947 2
73.7222 47.2057 2
74.9194 39.9526 4
74.2788 44.8158 4
72.1671 42.0857 3.97821
73.0099 49.554 4
71.2479 46.598 3.97747
73.0099 25.446 0
71.1327 20.9142 0
68.6801 16.6661 0
67.8237 19.9264 0.0218508
74.6792 32.6053 2
73.7222 27.7943 2
67.2508 14.6715 2
72.1455 23.1494 2
70.6125 26.2219 2
66.6361 17.9774 2
68.8842 21.9605 2
65.791 21.0294 2
74.9197 35.0474 4
74.2794 30.1841 4
72.1839 32.9439 3.97855
71.277 28.4319 3.97778
69.8139 24.0598 3.97839
68.3424 26.9534 3.96681
66.7575 22.9356 3.9669
65.694 12.7746 4
65.3214 16.105 3.97652
64.7081 19.1996 3.9676
63.8452 22.0522 3.965
71.1327 54.0858 0
65.6939 62.2254 0
68.6801 58.3339 0
65.3104 59.0004 0.0226166
72.1455 51.8506 2
69.9759 56.25 2
68.8347 53.111 2
64.0165 64.0165 2
66.6098 57.129 2
63.8854 60.7601 2
63.4943 57.766 2
62.2254 65.694 4
58.893 65.4132 3.98687
69.7672 50.989 3.97758
67.7819 55.1671 3.97799
66.6442 52.2076 3.96661
62.3337 62.4254 3.97981
64.6556 56.0282 3.96786
62.1976 59.3949 3.9679
61.8084 56.6685 3.96371
58.3339 68.6801 4
60.3285 67.2508 2
73.7221 47.2057 0
74.6784 42.3946 0
74.9197 39.9526 2
74.2794 44.8159 2
72.1665 42.0855 2
73.0099 49.554 2
71.2476 46.5977 2
75 37.5 4
72.4045 39.8025 3.97908
71.7813 44.3529 3.97817
69.8003 41.7901 3.96781
70.5735 48.8135 3.97727
68.9078 46.0144 3.96717
74.6792 32.6053 0
73.7222 27.7943 0
67.2507 14.6715 0
72.1454 23.1494 0
70.6127 26.2213 0.0221252
68.884 21.9582 0.0213961
66.6351 17.9728 0.0228359
65.7918 21.0283 0.0328237
74.9197 35.0474 2
74.2794 30.1841 2
72.1832 32.9443 2
71.2767 28.4324 2
65.694 12.7745 2
65.323 16.1102 2
69.8139 24.061 2
68.3421 26.9542 2
64.7072 19.2006 2
66.7569 22.9366 2
63.8453 22.0527 2
72.4123 35.2247 3.97901
71.8028 30.6769 3.97844
69.8366 33.2701 3.968
68.9621 29.0401 3.96722
67.6065 24.9141 3.96676
66.1399 27.6485 3.96712
64.0165 10.9835 4
64.7077 23.8462 3.96581
63.8873 14.3298 3.97715
63.5074 17.4549 3.96807
62.871 20.3385 3.96399
61.9887 22.9814 3.96738
60.6821 11.1006 3.98152
57.6087 11.4579 3.97249
72.1454 51.8506 0
69.9759 56.25 0
68.8346 53.1131 0.0221533
64.0165 64.0165 0
63.8834 60.7643 0.0224059
66.6089 57.1332 0.0220832
63.4956 57.7663 0.0317579
62.2255 65.694 2
58.8952 65.4113 2
69.7671 50.9879 2
67.7823 55.1638 2
66.6435 52.2068 2
62.3358 62.4215 2
64.6545 56.0277 2
62.1966 59.3954 2
61.8098 56.6689 2
60.6667 63.975 3.98289
57.024 66.7347 3.9889
57.5556 63.6851 3.97487
67.5023 50.1755 3.96644
65.6967 54.1711 3.96708
64.4813 51.3695 3.96546
60.7688 60.9245 3.97074
62.7927 55.0549 3.96444
60.647 58.143 3.96368
60.2866 55.76 3.96436
56.25 69.9759 4
58.3339 68.6801 2
60.3285 67.2507 0
58.9195 9.65823 3.98365
62.2254 9.30607 4
73.0099 49.554 0
74.2788 44.8158 0
71.2479 46.598 0.0225277
72.1671 42.0857 0.0217924
74.9194 39.9526 0
75 37.5 2
72.4044 39.8025 2
71.7812 44.3525 2
69.7996 41.7898 2
70.5732 48.8131 2
68.9076 46.0139 2
72.4879 37.5125 3.97864
70.0379 39.6582 3.96812
69.4264 43.9076 3.9677
67.5456 41.4935 3.96948
68.261 48.1063 3.96659
66.6452 45.4292 3.96845
74.9197 35.0474 0
74.2794 30.1841 0
72.1839 32.9439 0.0214451
71.277 28.4319 0.0222207
65.694 12.7746 0
65.3214 16.105 0.0234751
69.8139 24.0598 0.021612
68.3424 26.9534 0.0331907
66.7575 22.9356 0.0331014
64.7081 19.1996 0.032404
63.8452 22.0522 0.034998
72.4122 35.2247 2
71.8028 30.6775 2
69.8359 33.2705 2
68.9619 29.0407 2
64.0165 10.9835 2
63.8896 14.3349 2
63.5064 17.4559 2
67.6062 24.915 2
66.14 27.6491 2
62.8716 20.3389 2
64.7076 23.8468 2
61.9878 22.9821 2
60.6848 11.1043 2
57.6107 11.4569 2
70.0546 35.3934 3.96803
69.4635 31.1513 3.96758
67.6095 33.5976 3.96912
66.7173 29.6348 3.96783
65.4708 25.7145 3.96651
64.0061 28.2873 3.97182
62.3391 12.6583 3.97917
62.7389 24.674 3.96894
62.1933 15.798 3.96915
61.7907 18.704 3.96332
61.1242 21.3819 3.9652
60.2566 23.7861 3.97058
59.2417 12.8019 3.97057
55.8718 10.2429 3.97532
56.3986 13.1525 3.96965
69.7672 50.989 0.0224217
62.2254 65.694 0
58.893 65.4132 0.013127
67.7819 55.1671 0.0220096
66.6442 52.2076 0.0333947
62.3337 62.4254 0.0201931
62.1976 59.3949 0.0321046
64.6556 56.0282 0.032137
61.8084 56.6685 0.0362885
60.6689 63.972 2
57.0258 66.7334 2
57.5563 63.6856 2
67.5019 50.1748 2
65.6957 54.1704 2
64.4814 51.3692 2
60.7676 60.9257 2
62.7933 55.055 2
60.6469 58.1433 2
60.2877 55.7602 2
55.0698 67.9316 3.99054
59.215 62.3486 3.97167
55.8026 64.9045 3.9794
56.3203 62.0641 3.97219
65.2666 49.3928 3.9664
63.662 53.2775 3.96478
62.3072 50.616 3.96797
59.3233 59.5369 3.96551
61.0033 54.2793 3.96616
59.2537 56.9834 3.96271
59.173 55.1474 3.96682
48.1005 68.5764 3.98624
50.9476 69.9314 3.99112
54.0858 71.1327 4
56.25 69.976 2
58.3339 68.6801 0
57.057 8.33752 3.98565
60.3285 7.74928 4
58.9226 9.66116 2
62.2255 9.30602 2
70.5735 48.8135 0.0227311
71.7813 44.3529 0.0218287
68.9078 46.0144 0.0328305
69.8003 41.7901 0.0321894
72.4045 39.8025 0.0209202
75 37.5 0
72.4872 37.5125 2
70.0378 39.6581 2
69.4262 43.9072 2
67.5452 41.4933 2
68.2607 48.1056 2
66.6442 45.4288 2
70.1259 37.5227 3.9681
67.7881 39.5112 3.96946
67.1646 43.4626 3.96915
65.415 41.1978 3.97616
66.0007 47.4044 3.96751
64.4889 44.8226 3.9729
72.4123 35.2247 0.020986
71.8028 30.6769 0.0215637
69.8366 33.2701 0.032004
68.9621 29.0401 0.0327789
64.0165 10.9835 0
63.8873 14.3298 0.022855
63.5074 17.4549 0.0319347
67.6065 24.9141 0.0332359
66.1399 27.6485 0.0328829
64.7077 23.8462 0.0341864
62.871 20.3385 0.0360071
61.9887 22.9814 0.032623
60.6821 11.1006 0.0184754
57.6087 11.4579 0.0275057
70.0545 35.3936 2
69.4633 31.1518 2
67.6093 33.5978 2
66.717 29.6353 2
62.3419 12.6629 2
62.1921 15.7986 2
61.7917 18.7042 2
65.4708 25.7151 2
64.0042 28.288 2
61.123 21.3826 2
62.7378 24.6748 2
60.2562 23.7872 2
59.2433 12.8015 2
56.3995 13.1502 2
55.8731 10.2424 2
67.8286 35.5516 3.96944
67.217 31.6316 3.96871
65.5662 33.9412 3.97544
64.5197 30.2191 3.97292
63.4094 26.4488 3.9705
62.0371 28.826 3.97612
60.7702 14.2422 3.96972
60.8581 25.3942 3.97296
60.5987 17.1501 3.96366
60.1421 19.8589 3.96285
59.5006 22.3208 3.967
58.756 24.3967 3.97353
54.0357 9.14391 3.97776
57.9008 14.3666 3.96847
54.7809 12.0385 3.97262
55.3002 14.6969 3.96648
67.5023 50.1755 0.0335621
57.024 66.7347 0.0111009
60.6667 63.975 0.0171078
57.5556 63.6851 0.0251286
65.6967 54.1711 0.0329174
64.4813 51.3695 0.0345359
60.7688 60.9245 0.0292602
60.647 58.143 0.0363177
62.7927 55.0549 0.0355617
60.2866 55.76 0.0356383
55.0713 67.9309 2
59.2156 62.3515 2
55.8031 64.9049 2
56.3196 62.0665 2
65.2666 49.3924 2
63.6624 53.2774 2
62.3067 50.6156 2
59.322 59.5379 2
61.0035 54.2793 2
59.2574 56.984 2
59.1753 55.1475 2
53.0419 68.9996 3.99095
53.965 66.0095 3.98233
57.8716 60.8445 3.96976
54.6796 63.1967 3.97454
55.1993 60.5813 3.96972
63.0444 48.6264 3.96966
61.6338 52.5411 3.96701
60.0615 49.9639 3.97014
57.9974 58.2359 3.96465
59.2123 53.9034 3.96789
58.034 55.7682 3.96237
50.1072 67.8547 3.98556
47.4617 66.5753 3.98196
46.0544 69.1555 3.98673
48.1007 68.5771 2
48.8016 70.7226 3.99134
50.9486 69.931 2
51.8506 72.1454 4
54.0858 71.1327 2
56.25 69.9759 0
55.1018 7.14185 3.98828
58.3339 6.31992 4
57.0596 8.33919 2
60.3286 7.74926 2
58.9195 9.65823 0.0163482
62.2254 9.30607 0
68.261 48.1063 0.03341
69.4264 43.9076 0.0322989
66.6452 45.4292 0.0315502
67.5456 41.4935 0.0305237
70.0379 39.6582 0.0318786
72.4879 37.5125 0.0213616
70.1254 37.5228 2
67.7871 39.5111 2
67.1651 43.4623 2
65.4128 41.1973 2
66.0009 47.404 2
64.4868 44.8219 2
67.8892 37.5235 3.96954
65.6536 39.3652 3.97639
65.0249 43.0064 3.97475
63.5272 40.9087 3.97682
63.8026 46.6853 3.97115
62.5599 44.1765 3.97659
70.0546 35.3934 0.0319716
69.4635 31.1513 0.0324199
67.6095 33.5976 0.0308845
66.7173 29.6348 0.0321694
62.3391 12.6583 0.0208341
62.1933 15.798 0.030849
61.7907 18.704 0.0366796
65.4708 25.7145 0.0334892
64.0061 28.2873 0.0281848
62.7389 24.674 0.0310608
61.1242 21.3819 0.0348042
60.2566 23.7861 0.029423
59.2417 12.8019 0.0294263
56.3986 13.1525 0.0303455
55.8718 10.2429 0.024679
67.8274 35.5518 2
67.2175 31.632 2
65.5634 33.9418 2
64.5176 30.2197 2
60.7703 14.2431 2
60.5978 17.1506 2
60.1423 19.8591 2
63.4081 26.4496 2
62.0346 28.8271 2
59.5024 22.3216 2
60.8573 25.3952 2
58.7551 24.3983 2
57.9009 14.3656 2
55.3008 14.6961 2
54.037 9.14226 2
54.7818 12.0357 2
65.7493 35.6749 3.97611
65.042 32.1753 3.97393
64.0848 34.2709 3.97673
62.3578 30.6791 3.97684
61.4425 27.1258 3.97418
60.5772 29.2037 3.97713
59.299 15.6969 3.96643
59.0783 25.8731 3.97605
59.0809 18.3953 3.96169
58.6047 20.9176 3.96363
58.0694 23.1738 3.96833
57.7211 24.7538 3.97469
52.1112 8.15915 3.98092
53.0538 11.0355 3.97396
56.6599 15.787 3.96744
53.7993 13.7235 3.97041
54.3542 16.0563 3.96574
55.0698 67.9316 0.00945519
65.2666 49.3928 0.0335978
55.8026 64.9045 0.0206006
59.215 62.3486 0.0283279
56.3203 62.0641 0.027811
63.662 53.2775 0.0352186
62.3072 50.616 0.032034
59.3233 59.5369 0.0344929
59.2537 56.9834 0.0372863
61.0033 54.2793 0.0338418
59.173 55.1474 0.0331786
53.043 68.9992 2
53.9655 66.0101 2
57.8708 60.8466 2
54.6792 63.1975 2
55.1989 60.5832 2
63.0433 48.6259 2
61.634 52.5409 2
60.0618 49.9634 2
57.9966 58.237 2
59.2147 53.9034 2
58.0314 55.7671 2
52.0685 66.9974 3.98484
52.9509 64.2101 3.97921
56.6315 59.4586 3.96796
53.672 61.5991 3.97466
54.2389 59.2837 3.97101
60.7431 47.8254 3.97157
59.5354 52.0526 3.96855
57.7519 49.5448 3.97216
56.7324 56.9498 3.9657
56.9736 54.0645 3.96608
50.1074 67.8549 2
49.3356 65.9158 3.98202
47.4619 66.5759 2
46.8905 64.7273 3.98066
45.5568 67.0923 3.98211
43.9718 69.5874 3.98725
46.0545 69.156 2
46.608 71.3671 3.99152
48.1005 68.5764 0.0137577
48.8025 70.7226 2
49.554 73.0099 4
50.9476 69.9314 0.00887553
51.8506 72.1455 2
54.0858 71.1327 0
53.0639 6.0727 3.99052
55.104 7.14229 2
56.25 5.02411 4
58.3339 6.3199 2
57.057 8.33752 0.0143527
60.3285 7.74928 0
66.0007 47.4044 0.0324903
67.1646 43.4626 0.030849
64.4889 44.8226 0.0270996
65.415 41.1978 0.0238417
67.7881 39.5112 0.0305358
70.1259 37.5227 0.0318976
67.8888 37.5236 2
65.6508 39.3649 2
65.0222 43.0058 2
63.5246 40.9084 2
63.8008 46.6846 2
62.5578 44.1756 2
65.7608 37.5036 3.97633
63.6765 39.2578 3.97697
63.0868 42.5187 3.97658
62.1413 40.6724 3.97674
61.7122 45.871 3.97381
61.1366 43.6322 3.97634
67.8286 35.5516 0.0305645
67.217 31.6316 0.0312942
65.5662 33.9412 0.0245594
64.5197 30.2191 0.0270823
60.7702 14.2422 0.0302838
60.5987 17.1501 0.0363407
60.1421 19.8589 0.0371529
63.4094 26.4488 0.0294997
62.0371 28.826 0.0238828
60.8581 25.3942 0.0270355
59.5006 22.3208 0.0330031
58.756 24.3967 0.0264748
57.9008 14.3666 0.0315254
55.3002 14.6969 0.0335173
54.0357 9.14391 0.0222429
54.7809 12.0385 0.027375
65.7469 35.6752 2
65.0396 32.1759 2
64.0822 34.2714 2
62.3559 30.68 2
59.2979 15.6973 2
59.0817 18.395 2
58.6092 20.9182 2
61.4408 27.1269 2
60.5762 29.2047 2
58.0663 23.1759 2
59.0781 25.8744 2
57.7221 24.756 2
56.6597 15.7858 2
54.355 16.0575 2
53.7989 13.7167 2
52.112 8.15789 2
53.055 11.0334 2
63.8824 35.6456 3.97679
62.6834 33.0804 3.97679
60.3033 30.6747 3.97644
59.2851 27.9865 3.97656
57.9165 17.0231 3.96313
57.4536 25.8224 3.97632
57.6235 19.5364 3.96125
57.1762 21.926 3.96388
56.9152 24.0475 3.96894
50.1119 7.28852 3.98495
51.2302 10.1362 3.97602
52.1631 12.8262 3.97491
55.509 17.0259 3.96508
52.9608 15.3181 3.96802
53.7282 17.0466 3.9684
53.0419 68.9996 0.00904946
53.965 66.0095 0.0176706
63.0444 48.6264 0.0303402
54.6796 63.1967 0.025462
57.8716 60.8445 0.0302443
55.1993 60.5813 0.030276
61.6338 52.5411 0.0329923
60.0615 49.9639 0.0298621
57.9974 58.2359 0.0353462
58.034 55.7682 0.0376318
59.2123 53.9034 0.0321121
52.0689 66.9979 2
52.9509 64.2108 2
56.6311 59.4601 2
53.671 61.5987 2
54.2386 59.2858 2
60.7426 47.8247 2
59.5363 52.0523 2
57.749 49.5435 2
56.731 56.954 2
56.9708 54.063 2
51.1665 65.122 3.98129
52.0401 62.5264 3.97635
55.4516 58.2156 3.96855
52.8173 60.098 3.97625
53.6102 58.4331 3.97337
57.9544 46.7706 3.97517
57.3438 51.7196 3.9688
55.9189 49.4688 3.97106
55.3943 55.7433 3.96508
55.1754 53.3175 3.963
50.1072 67.8547 0.0144377
49.3358 65.9159 2
48.6159 64.1146 3.98084
47.4617 66.5753 0.0180407
45.557 67.093 2
46.8909 64.7278 2
46.3789 63.0419 3.9825
45.1311 65.1877 3.98003
43.6301 67.4633 3.98296
41.8595 69.8745 3.98684
43.9718 69.5879 2
44.3752 71.8617 3.99156
46.0544 69.1555 0.0132736
46.6088 71.3671 2
47.2057 73.7222 4
48.8016 70.7226 0.00865575
49.554 73.0099 2
51.8506 72.1454 0
50.9545 5.13307 3.9916
53.0654 6.07286 2
54.0858 3.86728 4
55.1018 7.14185 0.0117175
56.25 5.02406 2
58.3339 6.31992 0
63.8026 46.6853 0.0288483
65.0249 43.0064 0.0252496
62.5599 44.1765 0.0234081
63.5272 40.9087 0.0231832
65.6536 39.3652 0.0236062
67.8892 37.5235 0.0304566
65.758 37.5036 2
63.6741 39.2578 2
63.0846 42.5181 2
62.1402 40.6719 2
61.7104 45.8701 2
61.135 43.6316 2
63.7394 37.4589 3.97681
61.855 39.3405 3.97698
60.8826 41.9175 3.97675
59.9173 44.7072 3.97673
65.7493 35.6749 0.0238941
65.042 32.1753 0.0260658
64.0848 34.2709 0.0232706
62.3578 30.6791 0.0231572
59.299 15.6969 0.0335691
59.0809 18.3953 0.0383087
58.6047 20.9176 0.0363671
61.4425 27.1258 0.0258188
60.5772 29.2037 0.022871
59.0783 25.8731 0.023951
58.0694 23.1738 0.0316653
57.7211 24.7538 0.0253054
56.6599 15.787 0.0325596
54.3542 16.0563 0.0342551
53.7993 13.7235 0.0295859
52.1112 8.15915 0.0190844
53.0538 11.0355 0.0260442
63.88 35.6456 2
62.6819 33.081 2
60.3027 30.6751 2
57.9156 17.0226 2
57.6291 19.5353 2
57.1761 21.9277 2
59.2842 27.9879 2
56.9209 24.0494 2
57.4535 25.825 2
50.1125 7.28677 2
55.5106 17.0255 2
53.7283 17.0445 2
52.9608 15.3149 2
52.1643 12.8285 2
51.2316 10.1346 2
61.8952 35.378 3.97668
59.9337 32.7964 3.97654
58.2519 30.1574 3.97648
56.9478 27.4889 3.97696
56.5914 18.2103 3.96161
55.987 25.2181 3.97502
56.2264 20.6017 3.96125
55.8634 22.9756 3.96251
48.0566 6.52949 3.98829
49.3237 9.33953 3.97939
50.4272 12.0159 3.97574
51.3627 14.5383 3.9689
54.3722 17.9866 3.96242
52.3343 17.1164 3.95941
52.0685 66.9974 0.0151646
52.9509 64.2101 0.0207894
60.7431 47.8254 0.0284325
53.672 61.5991 0.0253371
56.6315 59.4586 0.0320432
54.2389 59.2837 0.0289886
59.5354 52.0526 0.0314503
57.7519 49.5448 0.0278404
56.7324 56.9498 0.0342987
56.9736 54.0645 0.0339245
51.1666 65.1227 2
52.0395 62.5276 2
55.4515 58.2171 2
52.8165 60.1014 2
53.6099 58.4347 2
57.9535 46.7697 2
57.3431 51.7185 2
55.9145 49.4673 2
55.3937 55.7435 2
55.1785 53.3179 2
50.3432 63.372 3.9808
51.2323 60.912 3.97623
54.1743 57.2294 3.97079
52.2841 58.5918 3.97256
56.2245 44.0821 3.97713
55.1002 47.7991 3.97413
54.7957 51.3087 3.96547
53.8828 54.4874 3.96532
49.3356 65.9158 0.0179835
48.6161 64.1146 2
47.9574 62.4641 3.98107
45.5568 67.0923 0.0178931
46.8905 64.7273 0.0193401
43.6302 67.4639 2
46.3792 63.0426 2
45.1314 65.1883 2
45.9828 61.5729 3.98694
44.7649 63.4401 3.97902
43.3559 65.4978 3.98021
41.6624 67.6815 3.98246
39.7018 70.0204 3.98666
41.8595 69.8751 2
42.1096 72.2064 3.99191
43.9718 69.5874 0.0127538
44.3759 71.8618 2
44.8159 74.2794 4
46.608 71.3671 0.00848478
47.2057 73.7222 2
49.554 73.0099 0
48.7854 4.32359 3.9924
50.9554 5.13263 2
51.8506 2.85458 4
53.0639 6.0727 0.00948486
54.0858 3.86728 2
56.25 5.02411 0
61.7122 45.871 0.0261927
63.0868 42.5187 0.0234225
61.1366 43.6322 0.0236614
62.1413 40.6724 0.0232627
63.6765 39.2578 0.023025
65.7608 37.5036 0.0236734
63.737 37.4588 2
61.8546 39.3405 2
60.8824 41.9172 2
59.9169 44.7064 2
61.6872 37.4436 3.97694
59.8558 39.8196 3.97693
58.5612 42.8523 3.97656
63.8824 35.6456 0.0232078
62.6834 33.0804 0.0232052
60.3033 30.6747 0.0235573
57.9165 17.0231 0.0368674
57.6235 19.5364 0.0387481
57.1762 21.926 0.0361246
59.2851 27.9865 0.0234421
57.4536 25.8224 0.0236779
56.9152 24.0475 0.0310555
55.509 17.0259 0.0349198
53.7282 17.0466 0.0316007
52.9608 15.3181 0.0319779
50.1119 7.28852 0.0150481
52.1631 12.8262 0.0250947
51.2302 10.1362 0.0239831
61.8948 35.3782 2
59.9332 32.7964 2
58.2524 30.1571 2
56.5927 18.2101 2
56.2316 20.5994 2
55.8675 22.9784 2
56.9473 27.4903 2
55.9848 25.2211 2
48.057 6.52733 2
49.3248 9.33737 2
54.3738 17.9866 2
52.3328 17.1113 2
51.3615 14.5347 2
50.4289 12.0138 2
59.4967 35.1446 3.97677
57.5435 32.3386 3.976
56.1368 29.45 3.97691
55.0576 26.7407 3.97651
55.269 19.2592 3.96093
54.6425 24.1889 3.96563
54.8271 21.6633 3.96035
45.9631 5.88331 3.98904
43.3745 7.47544 3.98534
47.3555 8.62824 3.98346
48.5968 11.3071 3.97541
49.7007 13.7687 3.97343
50.6076 16.1825 3.97227
53.0709 18.7448 3.96039
51.2639 18.1553 3.97428
51.1665 65.122 0.0187059
52.0401 62.5264 0.0236521
57.9544 46.7706 0.0248335
52.8173 60.098 0.023753
55.4516 58.2156 0.0314548
53.6102 58.4331 0.026626
57.3438 51.7196 0.0311956
55.9189 49.4688 0.0289393
55.3943 55.7433 0.0349222
55.1754 53.3175 0.036999
50.343 63.3721 2
51.2312 60.9108 2
54.1754 57.2313 2
52.2831 58.5933 2
56.2248 44.0812 2
55.0986 47.7978 2
54.7987 51.3087 2
53.8835 54.4892 2
49.5851 61.7348 3.97893
55.0142 41.6547 3.97469
50.5439 59.298 3.97106
52.1259 56.4501 3.96792
53.6629 45.4448 3.97459
52.9617 49.2287 3.96931
52.4672 52.783 3.96156
48.6159 64.1146 0.0191565
47.9573 62.4633 2
47.3205 60.9965 3.98656
43.6301 67.4633 0.0170414
45.1311 65.1877 0.0199717
46.3789 63.0419 0.0174959
41.6627 67.6814 2
43.356 65.4985 2
45.9826 61.574 2
44.7654 63.4408 2
45.7565 60.618 3.9848
44.4803 61.8174 3.98039
43.1451 63.7129 3.9787
41.5456 65.6347 3.97867
39.632 67.7594 3.98225
37.5259 70.0448 3.98543
39.7017 70.0209 2
39.8167 72.4028 3.99167
41.8595 69.8745 0.0131628
42.1102 72.2066 2
42.3947 74.6792 4
44.3752 71.8617 0.00843857
44.8159 74.2794 2
47.2057 73.7222 0
43.852 5.36055 3.98859
46.5715 3.64773 3.99263
48.7859 4.32275 2
49.554 1.99015 4
50.9545 5.13307 0.00840486
51.8506 2.85453 2
54.0858 3.86728 0
59.9173 44.7072 0.0232703
60.8826 41.9175 0.0232504
61.855 39.3405 0.0230206
63.7394 37.4589 0.023191
61.6867 37.4436 2
59.8564 39.8192 2
58.5616 42.8518 2
59.3521 37.5668 3.97729
57.5014 40.6131 3.97707
54.4224 39.6694 3.97523
61.8952 35.378 0.0233229
59.9337 32.7964 0.0234564
58.2519 30.1574 0.0235203
56.5914 18.2103 0.0383942
56.2264 20.6017 0.0387544
55.8634 22.9756 0.0374921
56.9478 27.4889 0.0230361
55.987 25.2181 0.0249754
54.3722 17.9866 0.0375785
52.3343 17.1164 0.0405882
51.3627 14.5383 0.0310964
48.0566 6.52949 0.0117132
49.3237 9.33953 0.0206095
50.4272 12.0159 0.0242624
59.4975 35.1446 2
45.9627 5.88281 2
43.3743 7.47469 2
57.5443 32.3393 2
56.1369 29.45 2
55.2634 19.2611 2
54.8378 21.6649 2
54.6395 24.1914 2
55.0553 26.743 2
47.3561 8.6241 2
48.5984 11.3041 2
53.0704 18.7374 2
51.2652 18.1542 2
50.608 16.1829 2
49.7006 13.769 2
56.8866 34.7948 3.97715
55.2291 31.6068 3.97618
54.0569 28.5481 3.97728
53.4337 25.6594 3.97662
53.8669 20.2265 3.95999
53.3695 22.8457 3.95477
41.3997 7.08138 3.98513
45.361 7.9954 3.98715
42.8668 9.41919 3.98139
46.6661 10.6613 3.98103
47.735 13.1197 3.97628
48.9103 15.435 3.97093
49.9663 17.7477 3.96709
51.5827 19.4344 3.96789
50.3432 63.372 0.0191983
51.2323 60.912 0.0237713
56.2245 44.0821 0.0228656
55.1002 47.7991 0.0258706
52.2841 58.5918 0.0274377
54.1743 57.2294 0.0292093
54.7957 51.3087 0.0345253
53.8828 54.4874 0.0346753
49.5842 61.7345 2
55.0079 41.6509 2
50.5429 59.2982 2
52.127 56.4528 2
53.6609 45.4433 2
52.971 49.2286 2
52.469 52.7836 2
48.8331 60.1891 3.97594
51.8177 42.5265 3.98296
49.7457 57.5947 3.9674
50.4679 54.3812 3.96378
51.3273 47.1518 3.97514
50.9322 50.8637 3.95487
47.495 43.6379 3.97886
47.9574 62.4641 0.0189332
47.32 60.9958 2
46.6036 59.7846 3.9904
41.6624 67.6815 0.0175445
43.3559 65.4978 0.0197914
44.7649 63.4401 0.0209753
45.9828 61.5729 0.0130597
39.6324 67.7603 2
41.5456 65.6339 2
45.7564 60.6188 2
43.1456 63.7135 2
44.4797 61.8186 2
44.613 60.2756 3.991
42.9477 62.0652 3.97459
41.5996 63.8052 3.9785
39.6471 65.6003 3.97797
37.563 67.7398 3.98026
31.6977 65.1166 3.97825
33.3924 67.4777 3.98016
35.3338 69.9549 3.9855
37.5257 70.0459 2
37.5091 72.4573 3.99209
39.7018 70.0204 0.0133352
39.8171 72.4031 2
39.9526 74.9197 4
42.1096 72.2064 0.0080908
42.3947 74.6792 2
44.8159 74.2794 0
41.7366 4.96953 3.98891
43.8521 5.3596 2
44.3267 3.11097 3.99295
46.5716 3.64747 2
47.2057 1.27793 4
48.7854 4.32359 0.0075964
49.554 1.99013 2
51.8506 2.85458 0
58.5612 42.8523 0.0234393
59.8558 39.8196 0.0230739
61.6872 37.4436 0.0230628
59.3524 37.5677 2
57.5013 40.6135 2
54.4161 39.6739 2
56.2575 37.883 3.977
48.8449 41.2345 3.97947
52.4094 39.3073 3.98382
39.4434 6.8052 3.9856
59.4967 35.1446 0.0232336
57.5435 32.3386 0.0240029
56.1368 29.45 0.0230911
55.269 19.2592 0.0390702
54.8271 21.6633 0.0396472
54.6425 24.1889 0.0343737
55.0576 26.7407 0.0234894
53.0709 18.7448 0.0396133
51.2639 18.1553 0.025725
50.6076 16.1825 0.0277311
45.9631 5.88331 0.0109585
49.7007 13.7687 0.026571
47.3555 8.62824 0.016539
48.5968 11.3071 0.0245877
43.3745 7.47544 0.0146601
56.8863 34.7955 2
41.3997 7.08031 2
45.3603 7.99535 2
42.8663 9.41907 2
55.232 31.6054 2
54.0576 28.5481 2
53.8692 20.2322 2
53.3666 22.8437 2
53.4307 25.6606 2
46.6669 10.6539 2
47.7361 13.1141 2
51.5871 19.4347 2
49.9654 17.7445 2
48.9083 15.4383 2
54.243 33.9913 3.97544
52.9574 30.6423 3.97667
52.1527 27.3816 3.97506
51.8876 24.2716 3.97805
52.2622 21.1763 3.9709
41.0139 9.05424 3.9804
44.727 9.99477 3.98557
42.4665 10.9044 3.9926
45.9972 12.7395 3.97564
47.6626 14.6077 3.97063
48.0732 17.0151 3.96872
49.7725 19.8034 3.97103
49.5851 61.7348 0.0210726
50.5439 59.298 0.0289353
55.0142 41.6547 0.0253105
53.6629 45.4448 0.0254115
52.9617 49.2287 0.0306871
52.1259 56.4501 0.0320826
52.4672 52.783 0.0384436
48.8316 60.1873 2
51.8355 42.536 2
49.7437 57.5953 2
50.4686 54.3841 2
51.334 47.152 2
50.9352 50.8632 2
47.5086 43.6659 2
47.9575 58.7189 3.97822
49.4645 45.1629 3.98011
48.5191 55.8854 3.96386
48.9444 52.5402 3.97603
49.3117 48.9495 3.97305
45.2432 39.8152 3.86768
45.726 42.5195 3.90073
45.9452 45.6493 3.98239
43.0621 41.0457 3.7165
41.683 41.8911 3.53015
47.3205 60.9965 0.0134408
46.6024 59.7836 2
45.4465 58.7852 3.99129
39.632 67.7594 0.0177486
41.5456 65.6347 0.0213307
43.1451 63.7129 0.0213033
44.4803 61.8174 0.0196146
45.7565 60.618 0.015204
41.5997 63.8049 2
37.5633 67.7408 2
39.6471 65.6014 2
44.6136 60.2771 2
42.9471 62.0657 2
41.751 62.475 3.97701
42.474 59.9566 3.97877
39.8941 63.5371 3.9767
37.642 65.496 3.97706
35.4634 67.6492 3.9802
33.5755 65.3293 3.97686
31.9602 63.2828 3.97704
29.8846 64.7082 3.98081
31.6976 65.1176 2
31.3773 67.1876 3.98064
33.3925 67.4787 2
33.1572 69.7487 3.98561
35.3336 69.9559 2
35.1954 72.3717 3.99199
37.5259 70.0448 0.0145718
37.5092 72.4579 2
37.5 75 4
39.8167 72.4028 0.00833436
39.9526 74.9197 2
42.3947 74.6792 0
39.6244 4.71735 3.98947
41.7367 4.96869 2
42.0631 2.71828 3.99326
43.852 5.36055 0.0114103
44.3268 3.11029 2
44.8158 0.721173 4
46.5715 3.64773 0.00736715
47.2057 1.27779 2
49.554 1.99015 0
57.5014 40.6131 0.0229267
59.3521 37.5668 0.0227054
54.4224 39.6694 0.0247678
48.8729 41.2515 2
56.2566 37.8809 2
52.4075 39.2765 2
53.2642 36.6272 3.97805
46.7704 40.3333 3.90365
49.7894 38.5149 3.9862
37.5174 6.67618 3.98565
39.4434 6.80355 2
39.2116 8.69627 3.98305
35.9436 8.49554 3.98425
56.8866 34.7948 0.0228483
55.2291 31.6068 0.0238171
54.0569 28.5481 0.022723
53.8669 20.2265 0.0400141
53.3695 22.8457 0.0452348
53.4337 25.6594 0.0233845
51.5827 19.4344 0.0321058
49.9663 17.7477 0.0329104
48.9103 15.435 0.0290683
45.361 7.9954 0.0128536
47.735 13.1197 0.0237168
46.6661 10.6613 0.0189708
41.3997 7.08138 0.0148689
42.8668 9.41919 0.0186085
54.2396 33.9917 2
41.0141 9.05332 2
44.725 9.9955 2
42.4663 10.9057 2
52.9541 30.6414 2
52.1608 27.382 2
52.267 21.1784 2
51.8865 24.2776 2
45.9983 12.7282 2
47.6612 14.6007 2
49.7784 19.8054 2
48.0698 17.0129 2
51.7641 32.9001 3.98229
50.7679 29.3396 3.9769
50.4386 25.8908 3.97145
49.8179 22.3991 3.98539
40.5677 11.6155 3.98156
43.8536 11.911 3.97974
45.7807 15.4438 3.98629
47.4701 19.4091 3.97825
45.6853 37.4794 3.86217
48.8331 60.1891 0.0240555
49.7457 57.5947 0.0325989
51.8177 42.5265 0.0170432
51.3273 47.1518 0.024861
50.9322 50.8637 0.0451315
50.4679 54.3812 0.0362163
47.495 43.6379 0.0211446
47.9557 58.7214 2
49.4794 45.176 2
48.5154 55.8872 2
48.9451 52.5455 2
49.318 48.9484 2
45.3126 39.8316 2
45.7552 42.5621 2
45.9542 45.6581 2
43.0932 41.0798 2
41.712 41.9142 2
46.7927 57.3229 3.97683
43.8 39.3538 3.71911
42.0413 40.7901 3.56408
47.5994 47.1872 3.98048
47.0513 54.1985 3.9651
47.3432 50.6878 3.97842
44.4122 47.2736 3.97514
44.3745 41.8644 3.85303
44.4323 44.3928 3.90889
42.0283 42.5024 3.74769
40.6589 42.1949 3.54273
46.6036 59.7846 0.00959663
45.4459 58.7842 2
43.8532 57.6833 3.97974
37.563 67.7398 0.0197437
39.6471 65.6003 0.0220309
41.5996 63.8052 0.0214985
42.9477 62.0652 0.0254077
44.613 60.2756 0.00899994
35.4637 67.6502 2
41.7504 62.4771 2
39.8938 63.5379 2
37.6421 65.4967 2
42.4749 59.9559 2
40.6218 61.6202 3.97926
40.4366 58.1495 3.97929
37.8378 63.1938 3.97506
35.5729 65.4185 3.97751
33.5758 65.3302 2
31.9602 63.2843 2
33.6295 63.3212 3.97529
30.3795 62.8433 3.98014
32.1263 61.9858 3.9852
26.876 61.4762 3.97712
28.0646 64.1365 3.97828
29.8842 64.7094 2
29.4072 66.7515 3.98156
31.6977 65.1166 0.0217495
31.3774 67.1885 2
31.0149 69.4137 3.98535
33.3924 67.4777 0.0198356
33.157 69.7496 2
32.8932 72.1461 3.99173
35.3338 69.9549 0.0144951
35.1951 72.3723 2
35.0474 74.9194 4
37.5091 72.4573 0.00790923
37.5 75 2
39.9526 74.9197 0
35.622 6.72706 3.98536
37.5241 4.61677 3.9896
39.6245 4.71597 2
39.7896 2.47495 3.99319
41.7366 4.96953 0.0110921
42.063 2.71775 2
42.3946 0.32156 4
44.3267 3.11097 0.00705246
44.8159 0.72056 2
47.2057 1.27793 0
48.8449 41.2345 0.0205256
56.2575 37.883 0.0229986
52.4094 39.3073 0.0161784
46.7969 40.3276 2
49.7916 38.5098 2
53.265 36.6441 2
50.5887 35.5729 3.97496
47.4417 37.7689 3.91951
45.2581 35.1623 3.86594
43.0821 33.9232 3.71387
41.7035 33.0826 3.52827
37.4591 8.53739 3.98456
37.5173 6.67489 2
39.4434 6.8052 0.0143957
39.212 8.69432 2
38.9768 10.1316 3.98345
35.8998 9.77767 3.98034
34.1531 8.82709 3.9823
35.9433 8.49367 2
54.243 33.9913 0.0245568
52.9574 30.6423 0.0233275
52.1527 27.3816 0.0249426
52.2622 21.1763 0.0291049
51.8876 24.2716 0.0219525
49.7725 19.8034 0.0289696
48.0732 17.0151 0.031276
47.6626 14.6077 0.029366
44.727 9.99477 0.0144323
45.9972 12.7395 0.0243552
41.0139 9.05424 0.0195979
42.4665 10.9044 0.0074006
51.7696 32.8971 2
40.5691 11.6159 2
43.8517 11.9149 2
50.7897 29.3379 2
50.439 25.8917 2
49.8202 22.3991 2
45.7756 15.4163 2
47.4724 19.4285 2
49.3317 31.5257 3.98755
48.8351 27.6587 3.97787
49.1482 24.5529 3.97611
47.1148 22.1667 3.98647
38.3014 12.744 3.97726
42.0936 14.3082 3.97992
44.7775 18.5599 3.97517
44.2013 37.4868 3.72716
45.7722 37.4829 2
47.9575 58.7189 0.0217818
48.5191 55.8854 0.0361398
49.4645 45.1629 0.0198896
49.3117 48.9495 0.026952
48.9444 52.5402 0.0239704
45.2432 39.8152 0.132319
45.726 42.5195 0.0992654
45.9452 45.6493 0.0176078
43.0621 41.0457 0.283505
41.683 41.8911 0.469851
46.7901 57.325 2
43.8503 39.3762 2
42.0413 40.8043 2
47.6069 47.1899 2
47.0471 54.2028 2
47.3467 50.6951 2
44.4358 47.256 2
44.4075 41.8917 2
44.4726 44.4157 2
42.079 42.5448 2
40.6837 42.2023 2
45.3334 55.9055 3.99206
42.3804 39.2366 3.57394
40.5441 40.6701 3.67894
45.7687 48.8383 3.99944
45.3641 52.4727 3.98121
43.1447 48.2655 3.99501
43.058 45.911 3.8976
43.1786 43.6336 3.84101
40.77 43.5612 3.72457
39.2049 42.4599 3.56753
45.4465 58.7852 0.00870748
43.8516 57.6875 2
42.0805 56.2712 3.98416
35.4634 67.6492 0.0198004
37.642 65.496 0.0229449
39.8941 63.5371 0.0233047
41.751 62.475 0.0229927
42.474 59.9566 0.0212349
35.5731 65.4193 2
40.622 61.6196 2
37.8378 63.1941 2
40.4372 58.1503 2
38.9111 56.4429 3.99344
38.2498 60.3055 3.97968
35.6075 63.1879 3.97503
33.5755 65.3293 0.0231404
31.9602 63.2828 0.0229566
33.6297 63.3222 2
30.3793 62.8444 2
32.127 61.9874 2
28.6856 62.1822 3.9793
33.3473 61.4937 3.97725
31.0733 61.2067 3.98042
27.5833 59.568 3.97997
23.8129 59.0561 3.98553
25.0432 60.8503 3.97721
26.8763 61.4763 2
26.2327 63.4658 3.97759
28.0644 64.1355 2
27.4642 66.176 3.98101
29.8846 64.7082 0.0191896
29.4071 66.7519 2
28.9075 68.9394 3.98499
31.3773 67.1876 0.019357
31.0147 69.4143 2
30.6159 71.7774 3.99117
33.1572 69.7487 0.0143856
32.8925 72.1466 2
32.6054 74.6784 4
35.1954 72.3717 0.0080079
35.0474 74.9197 2
37.5 75 0
33.725 6.98288 3.98426
35.4362 4.68685 3.98947
35.6219 6.72592 2
37.5153 2.38741 3.99325
37.5241 4.6158 2
39.6244 4.71735 0.0105312
39.7894 2.4742 2
39.9526 0.0806499 4
42.0631 2.71828 0.00673737
42.3947 0.320817 2
44.8158 0.721173 0
43.8084 35.6209 3.72035
42.054 34.1788 3.55607
46.7704 40.3333 0.0963475
49.7894 38.5149 0.0138
53.2642 36.6272 0.0219548
47.4378 37.7367 2
50.597 35.5666 2
45.3221 35.1386 2
43.12 33.8863 2
41.7296 33.0597 2
47.6264 34.3139 3.95044
44.4002 33.0932 3.84185
42.0568 32.4745 3.74361
40.677 32.7887 3.541
37.3116 10.6347 3.98109
37.4592 8.53574 2
37.5174 6.67618 0.0143469
39.2116 8.69627 0.0169471
38.9784 10.1301 2
34.756 10.3866 3.98119
35.9005 9.77404 2
32.3802 9.37454 3.97906
34.1518 8.82413 2
35.9436 8.49554 0.0157455
51.7641 32.9001 0.0177144
50.7679 29.3396 0.0231027
50.4386 25.8908 0.0285547
49.8179 22.3991 0.0146133
47.4701 19.4091 0.0217519
45.7807 15.4438 0.0137101
43.8536 11.911 0.0202616
40.5677 11.6155 0.0184441
49.3486 31.5226 2
38.3017 12.742 2
42.0958 14.3152 2
48.845 27.6594 2
49.1493 24.5495 2
47.1066 22.1586 2
44.7788 18.6022 2
47.2057 29.6511 3.98555
46.8358 25.2898 3.97429
44.2403 21.5333 3.97912
36.5847 12.9494 3.97486
38.6823 14.8383 3.97531
41.7404 17.9047 3.97745
42.5233 37.474 3.60643
44.2492 37.4854 2
45.6853 37.4794 0.137828
46.7927 57.3229 0.0231702
47.0513 54.1985 0.034899
47.5994 47.1872 0.0195221
47.3432 50.6878 0.0215761
43.8 39.3538 0.280894
44.3745 41.8644 0.146968
44.4323 44.3928 0.091109
44.4122 47.2736 0.0248603
42.0283 42.5024 0.25231
42.0413 40.7901 0.435917
40.6589 42.1949 0.457268
45.3299 55.9068 2
42.3771 39.2408 2
40.5604 40.6536 2
45.7739 48.8499 2
45.3616 52.4769 2
43.1575 48.2839 2
43.1123 45.9516 2
43.224 43.6642 2
40.8043 43.6158 2
39.2026 42.4695 2
43.6603 54.3812 3.99899
40.6496 39.0944 3.69376
39.089 40.7401 3.65473
43.4671 50.3409 4.00525
41.7687 47.4405 3.9336
41.6777 45.0141 3.85486
39.3373 44.2193 3.70459
37.5037 42.56 3.60084
43.8532 57.6833 0.0202649
42.0805 56.2721 2
40.3897 54.8481 3.98863
35.5729 65.4185 0.022491
37.8378 63.1938 0.0249392
40.6218 61.6202 0.0207382
40.4366 58.1495 0.0207072
35.6076 63.188 2
38.2501 60.3063 2
38.9124 56.4343 2
37.9872 55.137 3.99368
36.9332 57.6027 3.99013
35.365 60.8929 3.97813
33.6295 63.3212 0.0247133
30.3795 62.8433 0.0198566
32.1263 61.9858 0.0147994
33.348 61.4949 2
28.6857 62.1833 2
31.0741 61.209 2
29.4145 60.2648 3.9761
32.3643 59.7174 3.98844
28.0488 58.3506 4.00103
27.5851 59.5684 2
25.4014 58.5723 3.97869
22.7903 58.2095 3.96913
23.4118 60.3232 3.97894
23.8144 59.0566 2
25.0437 60.85 2
24.4372 62.7564 3.977
26.876 61.4762 0.0228806
26.233 63.4667 2
25.549 65.4841 3.97946
28.0646 64.1365 0.0217192
27.4642 66.176 2
26.8371 68.3281 3.98504
29.4072 66.7515 0.018442
28.9072 68.9395 2
28.3711 71.2627 3.99067
31.0149 69.4137 0.0146489
30.6151 71.7775 2
30.1842 74.2788 4
32.8932 72.1461 0.00827068
32.6053 74.6792 2
35.0474 74.9194 0
31.7896 7.42283 3.98278
33.3488 4.92652 3.98865
33.7245 6.98089 2
35.2457 2.46335 3.99322
35.4359 4.68622 2
35.622 6.72706 0.014639
37.5 0 4
37.5148 2.38691 2
37.5241 4.61677 0.0103979
39.7896 2.47495 0.00681148
39.9526 0.0802889 2
42.3946 0.32156 0
42.3714 35.7117 3.56837
43.8721 35.5916 2
40.5653 34.3082 3.6786
42.0503 34.1634 2
47.4417 37.7689 0.0804866
50.5887 35.5729 0.0250356
45.2581 35.1623 0.134057
43.0821 33.9232 0.286133
41.7035 33.0826 0.471732
47.641 34.3347 2
44.4337 33.0724 2
42.1099 32.4292 2
40.7014 32.7806 2
45.6964 31.7067 3.91556
43.2061 31.3421 3.83749
40.7922 31.4209 3.72482
39.2192 32.5383 3.56459
35.6951 11.7833 3.97891
37.3138 10.632 2
37.4591 8.53739 0.0154353
38.9768 10.1316 0.0165516
33.1013 11.226 3.97505
34.7549 10.3814 2
35.8998 9.77767 0.0196649
30.4851 10.0242 3.97903
32.3788 9.37322 2
34.1531 8.82709 0.0176982
49.3317 31.5257 0.0124539
48.8351 27.6587 0.0221291
49.1482 24.5529 0.023888
47.1148 22.1667 0.0135312
44.7775 18.5599 0.0248308
42.0936 14.3082 0.0200808
38.3014 12.744 0.0227416
36.5818 12.9348 2
47.2228 29.609 2
38.68 14.8218 2
41.7334 17.8987 2
46.8401 25.2866 2
44.2323 21.5137 2
45.135 27.786 4.0045
43.6421 24.2213 4.02104
41.3076 20.9043 3.98232
35.7736 14.7882 3.97713
38.6782 17.6389 3.97955
40.7036 37.4654 3.70731
42.5297 37.4777 2
44.2013 37.4868 0.272838
45.3334 55.9055 0.00793568
45.3641 52.4727 0.0187923
45.7687 48.8383 0.000564683
42.3804 39.2366 0.426061
43.1786 43.6336 0.158989
43.058 45.911 0.102398
43.1447 48.2655 0.0049885
40.77 43.5612 0.275429
40.5441 40.6701 0.321061
39.2049 42.4599 0.432467
43.6559 54.3803 2
40.6464 39.0922 2
39.0909 40.7287 2
43.4644 50.3607 2
41.762 47.471 2
41.7028 45.0538 2
37.5004 42.5733 2
39.3512 44.2733 2
41.8167 52.8805 3.99655
39.1015 39.1171 3.67162
37.5063 40.7926 3.67727
35.8048 42.4683 3.56813
40.8407 49.5065 3.99499
39.7583 45.7974 3.83127
37.5025 44.4658 3.72531
42.0805 56.2712 0.0158381
40.3852 54.8596 2
38.7213 53.6933 3.9961
35.6075 63.1879 0.0249662
38.2498 60.3055 0.0203169
38.9111 56.4429 0.00656258
35.3654 60.8921 2
36.9343 57.603 2
37.9869 55.1355 2
36.3208 55.2032 3.99511
34.493 58.4989 3.99042
33.3473 61.4937 0.0227469
28.6856 62.1822 0.0206995
31.0733 61.2067 0.0195774
32.3652 59.7208 2
29.4157 60.2641 2
30.3231 57.7893 3.98492
28.0511 58.3504 2
26.9982 56.8049 3.96979
27.5833 59.568 0.0200301
25.4037 58.5729 2
23.8987 56.77 3.96072
21.3838 57.3596 3.96122
22.0101 59.5903 3.97414
22.7917 58.2111 2
22.7424 62.0077 3.9752
23.4124 60.3231 2
23.8129 59.0561 0.0144735
25.0432 60.8503 0.0227889
24.4376 62.7577 2
23.6838 64.7007 3.97824
26.2327 63.4658 0.0224109
25.5489 65.4854 2
24.8096 67.5888 3.98412
27.4642 66.176 0.0189915
26.8369 68.3288 2
26.1662 70.6037 3.99074
28.9075 68.9394 0.0150117
28.3702 71.2626 2
27.7943 73.7221 4
30.6159 71.7774 0.00883204
30.1841 74.2794 2
32.6054 74.6784 0
29.8123 7.99756 3.9815
31.2542 5.33342 3.98766
31.7889 7.4213 2
32.9816 2.7016 3.99287
33.3482 4.92524 2
33.725 6.98288 0.0157379
35.0474 0.080333 4
35.2451 2.46311 2
35.4362 4.68685 0.0105297
37.5 0 2
37.5153 2.38741 0.00675188
39.9526 0.0806499 0
40.6717 35.8543 3.69283
42.3704 35.7139 2
43.8084 35.6209 0.27965
28.5454 10.6992 3.97826
39.0931 34.2576 3.65395
40.569 34.3219 2
42.054 34.1788 0.443928
47.6264 34.3139 0.0495644
44.4002 33.0932 0.158146
42.0568 32.4745 0.25639
40.677 32.7887 0.458996
45.7282 31.686 2
43.2476 31.3102 2
40.8296 31.365 2
39.2226 32.5309 2
44.017 29.9037 3.91095
41.683 29.9595 3.85663
39.3549 30.7721 3.70358
37.5233 32.4491 3.6003
34.097 12.9494 3.97431
35.6936 11.7741 2
37.3116 10.6347 0.0189069
31.1897 11.9949 3.97785
33.1007 11.2245 2
34.756 10.3866 0.0188059
30.4834 10.0217 2
32.3802 9.37454 0.0209376
47.2057 29.6511 0.0144525
46.8358 25.2898 0.0257067
36.5847 12.9494 0.0251414
44.2403 21.5333 0.0208819
41.7404 17.9047 0.0225512
38.6823 14.8383 0.0246879
35.7754 14.7939 2
45.1387 27.7824 2
38.6738 17.6462 2
41.2985 20.8997 2
43.6395 24.2075 2
33.6121 15.8987 3.97909
42.7989 26.634 3.99197
40.8178 23.4903 3.99775
38.4066 20.4105 3.99184
35.8487 17.5426 3.97901
39.1139 37.4872 3.69042
40.6951 37.4673 2
42.5233 37.474 0.393566
43.6603 54.3812 0.00101262
43.4671 50.3409 -0.00525384
40.6496 39.0944 0.30624
41.6777 45.0141 0.145138
41.7687 47.4405 0.0664046
39.3373 44.2193 0.295414
39.089 40.7401 0.345271
37.5037 42.56 0.399158
41.8072 52.8826 2
39.0948 39.1031 2
37.5049 40.7768 2
40.8354 49.527 2
35.8019 42.4759 2
39.7808 45.8504 2
37.4928 44.5124 2
39.7542 51.7077 4.00206
37.5076 39.1236 3.70334
35.9287 40.7532 3.65517
34.3481 42.2111 3.54344
35.672 44.2333 3.69735
38.6662 48.443 3.94762
37.5201 46.086 3.85639
40.3897 54.8481 0.0113682
38.72 53.6787 2
36.7484 53.0012 3.99683
35.365 60.8929 0.0218652
36.9332 57.6027 0.00987352
37.9872 55.137 0.00632097
34.4936 58.4979 2
36.3216 55.2031 2
33.2506 55.3935 3.99225
32.3643 59.7174 0.0115604
29.4145 60.2648 0.023899
30.3254 57.7876 2
28.7733 55.2874 3.98216
28.0488 58.3506 -0.00102584
27.0002 56.805 2
25.4067 55.1036 3.96285
21.902 55.3017 3.96104
25.4014 58.5723 0.0213114
23.9 56.7726 2
20.261 56.9901 3.96434
20.6684 58.7426 3.9707
21.3852 57.3611 2
21.1756 61.1455 3.97415
22.0108 59.5908 2
22.7903 58.2095 0.0308687
21.8982 63.8275 3.97757
22.7429 62.0087 2
23.4118 60.3232 0.0210583
24.4372 62.7564 0.0230008
23.6837 64.7017 2
22.8382 66.7315 3.98243
25.549 65.4841 0.0205398
24.8094 67.5898 2
24.0105 69.8049 3.99057
26.8371 68.3281 0.014964
26.1652 70.6037 2
25.446 73.0099 4
28.3711 71.2627 0.00932688
27.7943 73.7222 2
30.1842 74.2788 0
27.8221 8.65707 3.9815
29.1564 5.8797 3.98623
29.8112 7.99533 2
30.7271 3.09853 3.9926
31.2535 5.3321 2
31.7896 7.42283 0.0172161
32.6053 0.320823 4
32.9808 2.70109 2
33.3488 4.92652 0.0113477
35.0474 0.0802903 2
35.2457 2.46335 0.00678479
37.5 0 0
39.0979 35.8696 3.67596
40.6563 35.8563 2
42.3714 35.7117 0.431632
28.5439 10.6978 2
26.6237 11.3954 3.97844
29.2292 12.6491 3.98022
37.5142 34.2186 3.67568
39.1011 34.274 2
40.5653 34.3082 0.321404
45.6964 31.7067 0.0844425
43.2061 31.3421 0.162514
40.7922 31.4209 0.275175
39.2192 32.5383 0.435413
44.0437 29.8792 2
41.7093 29.9227 2
39.3614 30.717 2
37.5239 32.4352 2
42.1155 28.5932 3.88285
39.7531 29.1841 3.85221
37.5202 30.543 3.72389
35.821 32.5427 3.56812
31.9215 14.4937 3.97913
34.0969 12.9508 2
35.6951 11.7833 0.0210886
31.1886 11.9912 2
33.1013 11.226 0.0249452
30.4851 10.0242 0.0209732
45.135 27.786 -0.00449568
43.6421 24.2213 -0.0210435
35.7736 14.7882 0.0228651
41.3076 20.9043 0.0176835
38.6782 17.6389 0.0204451
33.6096 15.893 2
35.845 17.5442 2
42.8066 26.6273 2
38.3938 20.4357 2
40.8067 23.4673 2
33.5529 17.4177 3.98015
40.2414 25.8686 3.95827
38.0507 23.205 3.9997
35.5823 20.1308 3.99202
37.5098 37.4946 3.72027
39.1066 37.4832 2
40.7036 37.4654 0.29269
41.8167 52.8805 0.00345435
40.8407 49.5065 0.00500963
39.1015 39.1171 0.32838
39.7583 45.7974 0.168734
37.5025 44.4658 0.274694
37.5063 40.7926 0.322731
35.8048 42.4683 0.431871
39.747 51.7154 2
37.5088 39.1162 2
35.9267 40.7412 2
38.6763 48.494 2
34.3244 42.2191 2
35.6508 44.2884 2
37.514 46.1345 2
37.6725 50.7408 3.99811
35.9225 39.1325 3.67518
34.4731 40.6941 3.68085
33.319 41.9108 3.53208
34.2321 43.5699 3.72205
35.2146 45.8066 3.84703
36.9249 48.0516 3.91429
38.7213 53.6933 0.00390498
36.7553 53.0024 2
34.4267 52.3294 3.99971
34.493 58.4989 0.0095753
36.3208 55.2032 0.00488657
33.2533 55.3975 2
30.6101 53.2908 3.99739
30.3231 57.7893 0.0150784
28.7748 55.2873 2
27.0226 53.3938 3.96391
26.9982 56.8049 0.0302121
25.4079 55.107 2
23.7335 53.4237 3.95787
20.6636 53.1531 3.95985
20.0043 55.7868 3.96248
21.8993 55.3038 2
23.8987 56.77 0.0392787
19.4654 57.8544 3.96825
20.2602 56.9916 2
19.7178 60.1659 3.97186
20.6683 58.7434 2
21.3838 57.3596 0.0387834
20.2117 62.8484 3.97457
21.1762 61.1475 2
22.0101 59.5903 0.025862
20.9396 65.7597 3.98068
21.8981 63.8287 2
22.7424 62.0077 0.0248002
23.6838 64.7007 0.0217649
22.8379 66.7321 2
21.913 68.872 3.98999
24.8096 67.5888 0.0158788
24.0091 69.8047 2
23.1494 72.1454 4
26.1662 70.6037 0.00926374
25.446 73.0099 2
27.7943 73.7221 0
25.8611 9.38605 3.98053
27.0711 6.5438 3.98512
27.8206 8.65587 2
28.4894 3.64441 3.99189
29.1555 5.87827 2
29.8123 7.99756 0.0184997
30.1841 0.720592 4
30.7259 3.0981 2
31.2542 5.33342 0.0123351
32.6053 0.320817 2
32.9816 2.7016 0.0071347
35.0474 0.080333 0
37.5096 35.8714 3.70125
39.0841 35.8738 2
40.6717 35.8543 0.30717
24.7795 12.0832 3.97727
23.758 14.3767 3.97528
28.5454 10.6992 0.0217354
26.6224 11.3945 2
29.2281 12.6481 2
27.296 13.3823 3.97878
29.788 14.2099 3.98055
35.9309 34.2604 3.65403
37.5199 34.2351 2
39.0931 34.2576 0.346049
37.5233 32.4491 0.399703
44.017 29.9037 0.0890515
41.683 29.9595 0.143373
39.3549 30.7721 0.296422
42.1438 28.5462 2
39.7684 29.1348 2
37.5229 30.4921 2
35.8203 32.533 2
39.9203 27.8219 3.88924
37.4938 28.915 3.85407
35.6885 30.7893 3.70745
34.366 32.7999 3.54353
30.9354 16.853 3.98317
31.9197 14.4876 2
34.097 12.9494 0.0256862
31.1897 11.9949 0.0221493
42.7989 26.634 0.00803371
40.8178 23.4903 0.00224862
33.6121 15.8987 0.0209106
35.8487 17.5426 0.020991
38.4066 20.4105 0.00815987
33.5487 17.4266 2
35.5839 20.131 2
40.3026 25.866 2
38.0345 23.1732 2
32.8762 19.8205 3.99319
37.6752 25.514 3.97123
35.2075 22.8754 3.99963
35.9052 37.4967 3.69235
37.5067 37.495 2
39.1139 37.4872 0.309584
39.7542 51.7077 -0.00205912
38.6662 48.443 0.0523806
37.5076 39.1236 0.296655
37.5201 46.086 0.14361
35.672 44.2333 0.302652
35.9287 40.7532 0.344835
34.3481 42.2111 0.456557
37.6618 50.7681 2
35.9341 39.1193 2
34.4566 40.6801 2
36.904 48.1055 2
33.289 41.9332 2
34.2028 43.6233 2
35.194 45.8529 2
35.5382 49.9204 3.98603
34.3672 39.1312 3.69342
32.967 40.8137 3.56048
32.9719 42.5178 3.74843
33.3493 45.0208 3.84988
34.4063 47.1824 3.88703
36.7484 53.0012 0.00316714
34.4227 52.3363 2
32.1529 51.104 4.01839
33.2506 55.3935 0.00774849
30.6118 53.2946 2
28.6044 51.5193 3.98993
28.7733 55.2874 0.0178391
27.0238 53.3967 2
25.2917 51.6712 3.95477
25.4067 55.1036 0.0371457
23.7321 53.4278 2
22.215 51.7221 3.9522
19.4832 51.551 3.96126
19.0644 54.2493 3.96223
20.6624 53.1526 2
18.494 56.6838 3.96397
20.002 55.7885 2
21.902 55.3017 0.0389625
18.3849 59.0761 3.96952
19.4648 57.8555 2
20.261 56.9901 0.0356578
18.6258 61.7395 3.97194
19.7184 60.1675 2
20.6684 58.7426 0.0293046
19.1287 64.6687 3.97948
20.2117 62.8494 2
21.1756 61.1455 0.0258495
19.8872 67.8085 3.98951
20.9391 65.7604 2
21.8982 63.8275 0.0224347
22.8382 66.7315 0.0175711
21.9115 68.8713 2
20.9142 71.1327 4
24.0105 69.8049 0.0094274
23.1494 72.1455 2
25.446 73.0099 0
23.1002 12.7997 3.97686
23.9738 10.1753 3.97866
25.0247 7.31459 3.98393
25.8597 9.38522 2
26.2812 4.32849 3.99124
27.07 6.54299 2
27.8221 8.65707 0.0184998
27.7943 1.27781 4
28.4878 3.64423 2
29.1564 5.8797 0.0137697
30.1841 0.720551 2
30.7271 3.09853 0.00740159
32.6053 0.320823 0
35.9125 35.8664 3.66922
37.5161 35.8821 2
39.0979 35.8696 0.324035
24.7773 12.08 2
23.7582 14.379 2
22.4892 15.0565 3.98039
25.3631 13.9227 3.97377
24.0408 15.6389 3.98316
26.6237 11.3954 0.0215616
29.2292 12.6491 0.0197816
27.2963 13.3816 2
29.7851 14.2084 2
28.3692 15.9818 3.98162
34.482 34.3234 3.67852
35.9273 34.2711 2
37.5142 34.2186 0.32432
35.821 32.5427 0.431882
37.5202 30.543 0.276108
42.1155 28.5932 0.117152
39.7531 29.1841 0.147786
39.9408 27.7849 2
37.4935 28.8617 2
35.6723 30.7283 2
34.3393 32.7953 2
37.5918 27.5525 3.89578
35.2416 29.203 3.85136
34.2439 31.4394 3.72213
33.3358 33.098 3.53089
30.2227 19.3959 3.98223
30.9317 16.8451 2
31.9215 14.4937 0.0208709
40.2414 25.8686 0.0417342
38.0507 23.205 0.000303919
33.5529 17.4177 0.0198459
35.5823 20.1308 0.00798464
32.8712 19.8309 2
35.2026 22.8643 2
37.7358 25.4889 2
32.3629 22.5422 3.99594
35.0649 25.4353 3.99806
34.3161 37.51 3.7088
35.9095 37.5002 2
37.5098 37.4946 0.279726
37.6725 50.7408 0.00188607
36.9249 48.0516 0.0857087
35.9225 39.1325 0.32482
35.2146 45.8066 0.152969
34.2321 43.5699 0.277946
34.4731 40.6941 0.319146
33.319 41.9108 0.46792
35.5263 49.9302 2
34.3742 39.1269 2
32.9665 40.8263 2
34.4031 47.2265 2
32.9303 42.5594 2
33.3262 45.0596 2
33.3642 48.9718 3.97776
32.6402 39.2731 3.57075
31.9362 41.0658 3.71611
31.8155 43.6484 3.84105
32.5366 46.1507 3.88914
34.4267 52.3294 0.000285729
32.155 51.1149 2
30.1142 49.6838 4.00254
30.6101 53.2908 0.00261421
28.6038 51.5151 2
26.7809 49.8927 3.96848
27.0226 53.3938 0.0360879
25.2899 51.6704 2
23.6466 50.0855 3.96223
23.7335 53.4237 0.0421332
22.2136 51.7207 2
20.794 50.2163 3.96494
18.2878 50.2471 3.9687
18.0612 52.7207 3.96364
19.4811 51.5503 2
17.5429 55.2903 3.96254
19.0594 54.2498 2
20.6636 53.1531 0.0401519
17.1585 57.8417 3.9638
18.4926 56.6846 2
20.0043 55.7868 0.0375232
17.145 60.5161 3.96803
18.3847 59.0771 2
19.4654 57.8544 0.0317472
17.41 63.4594 3.9739
18.6262 61.7399 2
19.7178 60.1659 0.0281384
17.9436 66.6168 3.98779
19.1281 64.6688 2
20.2117 62.8484 0.0254311
18.75 69.9759 4
19.8854 67.8075 2
20.9396 65.7597 0.0193189
21.913 68.872 0.0100145
20.9142 71.1327 2
23.1494 72.1454 0
21.5934 13.6265 3.97696
22.1922 11.0371 3.97623
23.0991 12.8023 2
23.0424 8.18128 3.98239
23.9719 10.1736 2
24.1188 5.14329 3.99063
25.0233 7.31396 2
25.8611 9.38605 0.0194666
25.446 1.99014 4
26.2793 4.32879 2
27.0711 6.5438 0.0148809
27.7943 1.27778 2
28.4894 3.64441 0.0081133
30.1841 0.720592 0
34.3745 35.8862 3.69263
35.9213 35.8807 2
37.5096 35.8714 0.298749
21.3216 15.8593 3.9837
24.7795 12.0832 0.0227286
23.758 14.3767 0.0247243
25.3626 13.9165 2
22.4898 15.0563 2
24.0421 15.6426 2
23.286 16.2677 3.97401
25.3969 16.1092 3.98221
27.296 13.3823 0.0212158
29.788 14.2099 0.0194502
28.3655 15.9876 2
27.4592 18.8372 3.98035
32.974 34.2015 3.56452
34.466 34.3392 2
35.9309 34.2604 0.345974
34.366 32.7999 0.456468
35.6885 30.7893 0.292548
37.4938 28.915 0.145928
39.9203 27.8219 0.110758
37.5713 27.5166 2
33.3103 33.0785 2
35.2389 29.1448 2
34.2056 31.3821 2
35.1369 27.6494 3.89921
33.3458 29.9846 3.8511
32.993 32.4866 3.7345
29.6655 21.9979 3.99893
30.2211 19.4011 2
30.9354 16.853 0.0168321
37.6752 25.514 0.0287727
35.2075 22.8754 0.000374994
32.8762 19.8205 0.00681191
32.3658 22.5349 2
35.0935 25.4273 2
31.904 25.7917 4.00433
32.4833 37.5094 3.6074
34.3315 37.5067 2
35.9052 37.4967 0.307649
35.5382 49.9204 0.0139692
34.4063 47.1824 0.112975
34.3672 39.1312 0.30658
33.3493 45.0208 0.150119
32.9719 42.5178 0.251568
32.967 40.8137 0.439516
33.3533 48.9709 2
32.6516 39.2756 2
31.8996 41.0993 2
32.497 46.1942 2
31.7753 43.679 2
31.4512 47.8171 3.98014
31.2095 39.3743 3.72063
30.6216 41.9011 3.84634
30.8588 44.7774 3.90659
32.1529 51.104 -0.0183851
30.1159 49.7041 2
28.2341 48.0702 3.95992
28.6044 51.5193 0.0100667
26.7796 49.8928 2
25.0286 48.3456 3.96826
25.2917 51.6712 0.0452347
23.6453 50.0842 2
22.0615 48.6719 3.97128
22.215 51.7221 0.0477977
20.7914 50.2152 2
19.3825 48.9975 3.97278
17.1719 49.2569 3.97415
17.0142 51.3375 3.96771
18.29 50.2456 2
16.539 53.8156 3.96486
18.0596 52.7203 2
19.4832 51.551 0.0387359
16.0263 56.4414 3.96272
17.5388 55.2911 2
19.0644 54.2493 0.0377723
15.7605 59.1852 3.96791
17.1587 57.8426 2
18.494 56.6838 0.0360281
15.7923 62.1155 3.9709
17.1452 60.5181 2
18.3849 59.0761 0.0304812
16.0903 65.2986 3.98633
17.409 63.4609 2
18.6258 61.7395 0.0280607
16.6661 68.6801 4
17.9415 66.6153 2
19.1287 64.6687 0.0205156
18.75 69.9759 2
19.8872 67.8085 0.0104925
20.9142 71.1327 0
20.2283 14.6258 3.9731
21.5929 13.6276 2
20.533 12.0113 3.9755
21.1452 9.15235 3.98078
22.1908 11.0373 2
23.1002 12.7997 0.0231425
22.018 6.08228 3.99017
23.0405 8.1802 2
23.9738 10.1753 0.0213374
23.1494 2.85457 4
24.1166 5.14391 2
25.0247 7.31459 0.0160734
25.446 1.99012 2
26.2812 4.32849 0.00876497
27.7943 1.27781 0
32.6317 35.7491 3.57279
34.3786 35.8882 2
35.9125 35.8664 0.330785
21.3227 15.8567 2
20.3289 16.9905 3.97643
22.1183 16.6606 3.96899
25.3631 13.9227 0.0262266
22.4892 15.0565 0.0196069
24.0408 15.6389 0.0168427
25.3974 16.1033 2
23.2876 16.2675 2
24.2294 18.5173 3.9703
27.1019 21.5596 3.99348
28.3692 15.9818 0.0183835
27.457 18.8525 2
31.9633 33.9567 3.71296
32.9783 34.1849 2
34.482 34.3234 0.321475
33.3358 33.098 0.469113
34.2439 31.4394 0.277869
35.2416 29.203 0.148643
37.5918 27.5525 0.104224
35.1447 27.6055 2
32.9215 32.4447 2
33.3236 29.9491 2
32.7802 28.3251 3.90987
31.8222 31.3658 3.83627
29.0219 24.4916 3.99077
29.6622 22.008 2
30.2227 19.3959 0.0177733
35.0649 25.4353 0.00193629
32.3629 22.5422 0.00406196
31.8979 25.7676 2
29.9687 27.4395 3.97763
30.8056 37.5082 3.7257
32.492 37.5078 2
34.3161 37.51 0.291195
33.3642 48.9718 0.0222372
32.5366 46.1507 0.110864
32.6402 39.2731 0.429248
31.8155 43.6484 0.15895
31.9362 41.0658 0.283893
31.4275 47.8328 2
31.1462 39.3985 2
30.5889 41.9198 2
30.8188 44.8142 2
29.635 46.4294 3.99668
29.7549 39.8403 3.86854
29.3129 43.0201 3.90895
30.1142 49.6838 -0.00253533
28.2285 48.0632 2
26.4161 46.5194 3.98127
26.7809 49.8927 0.0315227
25.0271 48.3451 2
23.2894 46.9405 3.975
23.6466 50.0855 0.037769
22.0587 48.6705 2
20.3706 47.512 3.97676
20.794 50.2163 0.0350588
19.3835 48.9961 2
17.9892 48.0951 3.97694
16.4073 48.6149 3.97639
17.1734 49.2557 2
16.0901 50.1051 3.97183
15.5536 52.3606 3.96741
17.0155 51.3365 2
18.2878 50.2471 0.0312954
14.9627 54.9378 3.96369
16.5404 53.8151 2
18.0612 52.7207 0.0363603
14.4753 57.7188 3.96367
16.0261 56.4417 2
17.5429 55.2903 0.0374606
14.2715 60.6752 3.96971
15.7616 59.186 2
17.1585 57.8417 0.0362012
14.3355 63.8566 3.98231
15.792 62.1179 2
17.145 60.5161 0.0319724
14.6715 67.2507 4
16.0877 65.2964 2
17.41 63.4594 0.0260977
16.6661 68.6801 2
17.9436 66.6168 0.0122096
18.75 69.9759 0
18.9463 15.812 3.97418
20.2286 14.6238 2
18.9851 13.1301 3.97517
21.5934 13.6265 0.0230386
20.5322 12.0128 2
19.3451 10.2433 3.97835
19.9926 7.14707 3.98918
21.1434 9.15274 2
22.1922 11.0371 0.0237742
20.9142 3.86727 4
22.0152 6.0832 2
23.0424 8.18128 0.0176132
23.1494 2.85451 2
24.1188 5.14329 0.00936892
25.446 1.99014 0
31.2288 35.6399 3.71711
32.6406 35.7438 2
34.3745 35.8862 0.307368
21.3216 15.8593 0.0162983
22.1193 16.6592 2
20.3298 16.9867 2
19.2946 18.4436 3.96079
21.8081 17.8965 3.98299
25.3969 16.1092 0.0177901
23.286 16.2677 0.0259947
24.2251 18.5271 2
22.3615 19.9569 3.96316
24.6849 21.4499 3.98668
26.6322 23.7898 3.97806
27.1057 21.5237 2
27.4592 18.8372 0.0196533
30.6695 33.1251 3.85792
31.9301 33.9104 2
32.974 34.2015 0.435484
32.993 32.4866 0.265497
33.3458 29.9846 0.148901
35.1369 27.6494 0.100789
32.7462 28.2976 2
31.7688 31.3308 2
30.5516 29.7212 3.93591
28.2242 26.642 3.99387
29.0107 24.4999 2
29.6655 21.9979 0.00107299
31.904 25.7917 -0.00432675
29.9592 27.4171 2
29.3145 37.5097 3.86293
30.7583 37.5083 2
32.4833 37.5094 0.392596
31.4512 47.8171 0.0198557
30.8588 44.7774 0.0934135
31.2095 39.3743 0.279374
30.6216 41.9011 0.153656
29.6358 46.428 2
29.692 39.8575 2
29.2829 43.0607 2
27.8721 44.7512 3.97349
27.5183 40.5778 3.94069
28.2341 48.0702 0.0400754
26.4115 46.5222 2
24.5774 45.0587 3.97733
25.0286 48.3456 0.0317424
23.2873 46.9405 2
21.3753 45.7827 3.97788
22.0615 48.6719 0.0287154
20.3695 47.5107 2
18.7 46.6442 3.97702
19.3825 48.9975 0.027219
17.9896 48.0939 2
16.6326 47.6402 3.9768
16.4089 48.6139 2
15.4339 48.9551 3.97552
17.1719 49.2569 0.0258532
16.0923 50.1041 2
14.6722 50.9333 3.97023
13.9385 53.396 3.96562
15.5546 52.36 2
17.0142 51.3375 0.0322887
13.2859 56.1478 3.96346
14.9631 54.9376 2
16.539 53.8156 0.0351369
12.8559 59.113 3.96821
14.4769 57.7188 2
16.0263 56.4414 0.0372751
12.6816 62.298 3.97853
14.2722 60.6754 2
15.7605 59.1852 0.0320866
12.7746 65.6939 4
14.3333 63.853 2
15.7923 62.1155 0.0290956
14.6714 67.2507 2
16.0903 65.2986 0.0136653
16.6661 68.6801 0
17.6935 17.1888 3.96923
18.9465 15.8103 2
17.5195 14.3967 3.97296
20.2283 14.6258 0.0269008
18.9845 13.1304 2
17.6412 11.4634 3.97632
20.533 12.0113 0.0245027
19.3434 10.2439 2
18.0529 8.3405 3.98751
18.75 5.0241 4
19.9896 7.14897 2
21.1452 9.15235 0.0192204
20.9142 3.86727 2
22.018 6.08228 0.00983077
23.1494 2.85457 0
29.7771 35.1905 3.86809
31.1696 35.6179 2
32.6317 35.7491 0.427209
22.1183 16.6606 0.0310136
20.3289 16.9905 0.0235719
21.8077 17.895 2
19.2943 18.4403 2
18.0952 19.9949 3.95947
20.9501 19.4294 3.96207
24.2294 18.5173 0.0296983
22.3572 19.9601 2
24.6869 21.4389 2
22.5 21.7967 3.9818
24.9019 23.2311 3.97493
25.8202 26.0254 3.97928
26.6305 23.7891 2
27.1019 21.5596 0.00652371
29.0552 32.4738 3.9124
30.615 33.091 2
31.9633 33.9567 0.28704
31.8222 31.3658 0.163728
32.7802 28.3251 0.0901325
30.5304 29.7155 2
27.5296 29.227 4.01089
28.2114 26.6503 2
29.0219 24.4916 0.00922928
29.9687 27.4395 0.0223729
27.6379 37.3558 3.91639
29.2481 37.5013 2
30.8056 37.5082 0.274298
29.635 46.4294 0.00332474
29.3129 43.0201 0.0910499
29.7549 39.8403 0.13146
27.86 44.7872 2
27.4949 40.5661 2
25.9274 43.0614 3.98944
24.7775 39.4492 3.97284
26.4161 46.5194 0.0187276
24.5659 45.0602 2
22.4742 43.8234 3.97729
23.2894 46.9405 0.0249999
21.3716 45.7828 2
19.4389 44.8805 3.97682
20.3706 47.512 0.0232395
18.7 46.6442 2
16.9747 46.135 3.97676
17.9892 48.0951 0.0230614
16.6339 47.6392 2
15.1915 47.6098 3.97631
16.4073 48.6149 0.0236127
15.4359 48.9542 2
13.9786 49.4978 3.97269
16.0901 50.1051 0.0281718
14.6732 50.9326 2
13.0109 51.8385 3.96753
12.189 54.5076 3.96427
13.9385 53.3957 2
15.5536 52.3606 0.0325872
11.5418 57.4493 3.96753
13.2866 56.1477 2
14.9627 54.9378 0.0363051
11.1363 60.6241 3.97708
12.8571 59.1124 2
14.4753 57.7188 0.0363272
10.9835 64.0165 4
12.6797 62.2943 2
14.2715 60.6752 0.0302874
12.7745 65.694 2
14.3355 63.8566 0.0176884
14.6715 67.2507 0
16.4546 18.6872 3.96194
17.6928 17.1871 2
16.1152 15.8092 3.96746
18.9463 15.812 0.0258191
17.5191 14.3953 2
16.0241 12.8196 3.9732
18.9851 13.1301 0.0248311
17.6401 11.4655 2
16.2038 9.66392 3.9862
19.3451 10.2433 0.0216479
18.0497 8.34326 2
16.6661 6.31991 4
18.75 5.02404 2
19.9926 7.14707 0.0108236
20.9142 3.86727 0
28.171 34.8304 3.90691
29.7117 35.1638 2
31.2288 35.6399 0.282891
16.8162 21.431 3.96581
21.8081 17.8965 0.017009
19.2946 18.4436 0.0392128
20.9482 19.4275 2
18.0924 19.993 2
19.8863 21.642 3.96944
22.3615 19.9569 0.0368439
24.6849 21.4499 0.0133198
22.4964 21.8007 2
24.8983 23.2342 2
23.146 24.6885 3.97441
25.0748 28.6159 3.98024
25.8111 26.033 2
26.6322 23.7898 0.0219434
26.9069 31.8196 3.97888
29.0256 32.4574 2
30.6695 33.1251 0.14208
30.5516 29.7212 0.0640941
27.542 29.2071 2
28.2242 26.642 0.00613421
25.4664 36.8566 3.97288
27.6245 37.3636 2
29.3145 37.5097 0.137072
27.8721 44.7512 0.0265115
27.5183 40.5778 0.0593103
25.9083 43.0803 2
24.7595 39.454 2
23.6674 41.8089 3.98229
22.4958 38.5195 3.9782
24.5774 45.0587 0.0226669
22.4742 43.8225 2
20.2946 42.8235 3.97615
21.3753 45.7827 0.0221187
19.4396 44.8806 2
17.3671 44.3096 3.97611
18.7 46.6442 0.0229771
16.9762 46.1347 2
15.1446 46.0297 3.97636
16.6326 47.6402 0.0231959
15.1933 47.609 2
13.5058 47.9624 3.97447
15.4339 48.9551 0.0244837
13.9799 49.4971 2
12.2391 50.2195 3.96913
14.6722 50.9333 0.0297663
13.0116 51.838 2
11.1878 52.8193 3.96521
10.3327 55.7051 3.96732
12.1891 54.5074 2
13.9385 53.396 0.0343841
9.70296 58.847 3.97651
11.5424 57.4488 2
13.2859 56.1478 0.0365421
9.30605 62.2254 4
11.1347 60.6202 2
12.8559 59.113 0.0317943
10.9835 64.0165 2
12.6816 62.298 0.0214729
12.7746 65.6939 0
15.2359 20.2265 3.96305
16.4566 18.6873 2
14.7645 17.329 3.96495
17.6935 17.1888 0.0307708
16.1148 15.8076 2
14.4885 14.3128 3.97055
17.5195 14.3967 0.0270395
16.0233 12.8207 2
14.4467 11.1162 3.98405
17.6412 11.4634 0.0236784
16.2008 9.6676 2
14.6715 7.74927 4
18.0529 8.3405 0.012491
16.6661 6.31988 2
18.75 5.0241 0
26.1316 34.3306 3.98161
28.1504 34.8378 2
29.7771 35.1905 0.131907
18.0472 22.3886 3.97227
15.7059 22.9752 3.96927
16.8163 21.4308 2
20.9501 19.4294 0.0379278
18.0952 19.9949 0.040525
19.8834 21.6402 2
19.979 24.472 3.97102
22.5 21.7967 0.0181981
24.9019 23.2311 0.0250684
23.142 24.6867 2
22.4367 27.9364 3.97258
24.467 31.3013 3.97749
25.08 28.6118 2
25.8202 26.0254 0.0207209
26.8881 31.7861 2
29.0552 32.4738 0.0875992
27.5296 29.227 -0.0108938
23.2197 36.2864 3.98273
25.4511 36.8571 2
27.6379 37.3558 0.083608
25.9274 43.0614 0.0105608
24.7775 39.4492 0.0271592
23.6536 41.81 2
22.4875 38.5177 2
21.3657 40.6242 3.97507
20.7362 37.8023 3.97708
22.4742 43.8234 0.0227103
20.2935 42.8245 2
17.8377 42.0468 3.97595
19.4389 44.8805 0.0231839
17.3678 44.3102 2
15.188 44.1419 3.97596
16.9747 46.135 0.0232421
15.1459 46.0291 2
13.2015 46.2518 3.9755
15.1915 47.6098 0.023693
13.5074 47.9617 2
11.6248 48.5185 3.9707
13.9786 49.4978 0.027312
12.2403 50.2189 2
10.3174 51.0649 3.966
13.0109 51.8385 0.0324676
11.1884 52.8188 2
9.24147 53.8859 3.96717
8.38645 56.9807 3.97713
10.3334 55.7042 2
12.189 54.5076 0.0357286
7.74927 60.3285 4
9.7017 58.8429 2
11.5418 57.4493 0.0324724
9.306 62.2255 2
11.1363 60.6241 0.0229205
10.9835 64.0165 0
14.0637 21.7914 3.9657
15.2349 20.2261 2
13.4743 18.9238 3.96419
16.4546 18.6872 0.0380632
14.7664 17.3287 2
13.0346 15.9033 3.96949
16.1152 15.8092 0.0325381
14.4883 14.3092 2
12.7843 12.6907 3.98112
16.0241 12.8196 0.0268036
14.4439 11.1207 2
12.7746 9.30605 4
16.2038 9.66392 0.0138012
14.6715 7.74924 2
16.6661 6.31991 0
23.8082 33.8664 3.98284
26.1092 34.3206 2
28.171 34.8304 0.0930865
17.9079 24.1191 3.97092
18.0533 22.3893 2
14.5485 24.5091 3.97095
15.7076 22.9755 2
16.8162 21.431 0.0341922
19.4629 27.3038 3.97326
19.8863 21.642 0.0305599
19.9751 24.4722 2
21.7922 30.7742 3.97518
23.146 24.6885 0.0255946
22.4383 27.9375 2
24.4428 31.2987 2
25.0748 28.6159 0.0197639
26.9069 31.8196 0.0211219
20.8596 35.9583 3.97652
23.2207 36.2874 2
25.4664 36.8566 0.0271157
23.6674 41.8089 0.0177071
22.4958 38.5195 0.0218035
21.372 40.625 2
20.7365 37.801 2
18.589 38.9964 3.97704
20.2946 42.8235 0.0238521
17.8374 42.047 2
15.1729 41.8794 3.97625
17.3671 44.3096 0.0238902
15.1885 44.1419 2
12.9644 44.3519 3.97622
15.1446 46.0297 0.0236358
13.2032 46.2511 2
11.1398 46.7051 3.97225
13.5058 47.9624 0.0255299
11.6263 48.5178 2
9.5854 49.2261 3.96667
12.2391 50.2195 0.0308665
10.3178 51.0643 2
8.27421 52.0002 3.96697
11.1878 52.8193 0.0347931
9.24209 53.8849 2
7.19545 55.0319 3.97804
6.31991 58.3339 4
8.38553 56.9768 2
10.3327 55.7051 0.0326808
7.74924 60.3285 2
9.70296 58.847 0.0234852
9.30605 62.2254 0
13.4233 25.4101 3.97458
12.9651 23.3209 3.96834
14.063 21.7912 2
12.277 20.5713 3.9647
15.2359 20.2265 0.0369499
13.4741 18.923 2
11.6651 17.5783 3.96938
14.7645 17.329 0.0350495
13.0364 15.9026 2
11.2227 14.3774 3.97679
14.4885 14.3128 0.0294504
12.7821 12.6953 2
10.9835 10.9835 4
14.4467 11.1162 0.0159545
12.7745 9.306 2
14.6715 7.74927 0
21.2233 33.4695 3.97563
23.8103 33.8554 2
26.1316 34.3306 0.0183876
16.2383 26.4766 3.97306
17.9104 24.1195 2
18.0472 22.3886 0.0277317
14.5485 24.5094 2
15.7059 22.9752 0.0307298
18.8571 30.2725 3.97513
19.4615 27.3044 2
19.979 24.472 0.0289822
21.8041 30.7749 2
22.4367 27.9364 0.0274205
24.467 31.3013 0.0225065
18.1986 35.9892 3.97765
20.8619 35.959 2
23.2197 36.2864 0.0172677
21.3657 40.6242 0.0249315
20.7362 37.8023 0.0229157
18.5873 38.9955 2
14.6758 39.1657 3.97714
17.8377 42.0468 0.0240536
15.1729 41.8792 2
12.6606 42.2463 3.97642
15.188 44.1419 0.0240397
12.9656 44.3513 2
10.7279 44.7784 3.97373
13.2015 46.2518 0.0245018
11.1417 46.7045 2
8.97173 47.3067 3.96722
11.6248 48.5185 0.0293005
9.58562 49.2256 2
7.44092 50.0341 3.96671
10.3174 51.0649 0.0339969
8.27466 51.9992 2
6.13607 53.0074 3.97845
9.24147 53.8859 0.0328251
7.19491 55.0288 2
5.0241 56.25 4
6.31988 58.3339 2
8.38645 56.9807 0.0228651
7.74927 60.3285 0
13.6946 26.8644 3.97496
12.0755 24.8233 3.97062
13.4226 25.4103 2
11.2006 22.2553 3.96551
12.9659 23.3211 2
14.0637 21.7914 0.034304
12.2776 20.571 2
10.3973 19.3285 3.96821
13.4743 18.9238 0.0358088
11.6671 17.5783 2
9.76324 16.1603 3.97683
13.0346 15.9033 0.0305101
11.2208 14.3823 2
9.30607 12.7746 4
12.7843 12.6907 0.0188774
10.9835 10.9835 2
12.7746 9.30605 0
18.366 33.1745 3.97659
21.2239 33.472 2
23.8082 33.8664 0.0171618
15.862 29.7093 3.97549
16.2392 26.4771 2
17.9079 24.1191 0.0290811
14.5485 24.5091 0.0290541
18.856 30.2732 2
19.4629 27.3038 0.0267402
21.7922 30.7742 0.0248165
15.3002 36.0344 3.97732
18.1982 35.9895 2
20.8596 35.9583 0.0234776
12.8915 37.8298 3.97725
18.589 38.9964 0.0229571
14.6755 39.1656 2
12.1646 40.1256 3.97675
15.1729 41.8794 0.0237491
12.662 42.2459 2
10.3281 42.7603 3.97467
12.9644 44.3519 0.0237812
10.7296 44.7779 2
8.45009 45.3107 3.96794
11.1398 46.7051 0.0277516
8.97152 47.3063 2
6.73184 47.9995 3.96664
9.5854 49.2261 0.0333279
7.44123 50.0332 2
5.21282 50.9108 3.97817
8.27421 52.0002 0.0330266
6.13582 53.0052 2
3.86727 54.0858 4
7.19545 55.0319 0.0219553
5.02404 56.25 2
6.31991 58.3339 0
13.1779 29.0786 3.97486
11.5205 26.5209 3.97111
13.6941 26.8647 2
10.26 23.9853 3.96673
12.0773 24.8237 2
13.4233 25.4101 0.0254232
9.24991 21.1434 3.96762
11.2006 22.2552 2
12.9651 23.3209 0.0316582
12.277 20.5713 0.035298
10.3991 19.3288 2
8.41902 18.0311 3.9767
11.6651 17.5783 0.0306188
9.76195 16.1654 2
7.74928 14.6715 4
11.2227 14.3774 0.0232079
9.30602 12.7745 2
10.9835 10.9835 0
14.8513 32.9113 3.97683
18.3646 33.1737 2
21.2233 33.4695 0.0243669
15.8633 29.7097 2
16.2383 26.4766 0.0269432
18.8571 30.2725 0.0248746
13.1861 36.2212 3.97695
15.2995 36.0342 2
18.1986 35.9892 0.0223451
12.8925 37.8295 2
11.5009 38.3084 3.97705
14.6758 39.1657 0.0228593
12.1667 40.1254 2
9.90309 40.7442 3.97569
12.6606 42.2463 0.0235762
10.3307 42.7598 2
7.99626 43.2622 3.96865
10.7279 44.7784 0.0262731
8.45098 45.3102 2
6.13754 45.9047 3.96688
8.97173 47.3067 0.0327829
6.73216 47.9987 2
4.4242 48.7515 3.97767
7.44092 50.0341 0.0332888
5.21277 50.9096 2
2.85457 51.8506 4
6.13607 53.0074 0.0215494
3.86727 54.0858 2
5.0241 56.25 0
12.311 31.292 3.9761
10.9391 28.4449 3.97158
13.1785 29.079 2
9.47726 25.8134 3.96741
11.5219 26.5213 2
13.6946 26.8644 0.0250418
8.23669 23.0259 3.96734
10.2604 23.9854 2
12.0755 24.8233 0.0293818
7.20121 19.9802 3.97765
9.25129 21.1439 2
11.2006 22.2553 0.0344937
10.3973 19.3285 0.0317946
8.41839 18.0356 2
6.31992 16.6661 4
9.76324 16.1603 0.0231728
7.74926 14.6714 2
9.30607 12.7746 0
12.3483 34.3193 3.97675
14.8515 32.912 2
18.366 33.1745 0.0234054
15.862 29.7093 0.0245109
11.0421 36.619 3.97681
13.1867 36.221 2
15.3002 36.0344 0.0226845
12.8915 37.8298 0.0227455
11.5035 38.3079 2
9.48628 38.8205 3.97584
12.1646 40.1256 0.0232534
9.90524 40.7438 2
7.60471 41.2065 3.9689
10.3281 42.7603 0.0253284
7.99581 43.2619 2
5.64915 43.7677 3.96713
8.45009 45.3107 0.032062
6.13778 45.9041 2
3.76961 46.537 3.97757
6.73184 47.9995 0.0333623
4.42439 48.7507 2
1.99014 49.554 4
5.21282 50.9108 0.0218312
2.85451 51.8506 2
3.86727 54.0858 0
11.1311 32.9432 3.97697
10.2483 30.4062 3.97247
12.3123 31.2925 2
8.7876 27.7453 3.9677
10.9405 28.4452 2
13.1779 29.0786 0.0251387
7.36188 24.9839 3.96707
9.47725 25.8136 2
11.5205 26.5209 0.028888
6.1182 22.0029 3.9785
8.23755 23.0264 2
10.26 23.9853 0.0332741
5.02411 18.75 4
7.20102 19.9835 2
9.24991 21.1434 0.0323841
8.41902 18.0311 0.0233004
6.3199 16.6661 2
7.74928 14.6715 0
10.6362 35.0136 3.9766
12.3495 34.3196 2
14.8513 32.9113 0.0231736
9.15028 36.9877 3.97552
11.0449 36.6189 2
13.1861 36.2212 0.0230481
11.5009 38.3084 0.0229531
9.48844 38.8203 2
7.2809 39.18 3.96922
9.90309 40.7442 0.0243129
7.60523 41.2062 2
5.26407 41.6136 3.96729
7.99626 43.2622 0.0313472
5.64935 43.7672 2
3.24721 44.2817 3.97782
6.13754 45.9047 0.0331177
3.76989 46.5365 2
1.27781 47.2057 4
4.4242 48.7515 0.0223304
1.99012 49.554 2
2.85457 51.8506 0
10.2743 33.8985 3.97642
9.52781 32.1719 3.97329
11.1333 32.9437 2
8.13154 29.7062 3.96811
10.2501 30.4067 2
12.311 31.292 0.0238977
6.60511 27.0095 3.96701
8.78744 27.7454 2
10.9391 28.4449 0.0284179
5.17356 24.0952 3.97845
7.36237 24.9844 2
9.47726 25.8134 0.0325888
3.86728 20.9142 4
6.11822 22.0048 2
8.23669 23.0259 0.0326588
5.02406 18.75 2
7.20121 19.9802 0.022351
6.31992 16.6661 0
8.97113 35.287 3.97539
10.6389 35.0136 2
12.3483 34.3193 0.0232495
7.05793 37.2063 3.96945
9.15229 36.9877 2
11.0421 36.619 0.0231908
9.48628 38.8205 0.0241555
7.28198 39.1798 2
4.99144 39.4672 3.96767
7.60471 41.2065 0.0310995
5.26467 41.6132 2
2.85755 42.002 3.978
5.64915 43.7677 0.0328686
3.24735 44.2813 2
0.720592 44.8159 4
3.76961 46.537 0.0224348
1.27778 47.2057 2
1.99014 49.554 0
9.01524 33.7098 3.97464
10.2772 33.8988 2
7.56286 31.6169 3.96868
9.53017 32.1723 2
11.1311 32.9432 0.0230251
5.94982 29.0703 3.9672
8.13133 29.7063 2
10.2483 30.4062 0.0275272
4.3611 26.2475 3.97805
6.60542 27.0099 2
8.7876 27.7453 0.0323012
2.85458 23.1494 4
5.1737 24.096 2
7.36188 24.9839 0.0329347
3.86728 20.9142 2
6.1182 22.0029 0.0215029
5.02411 18.75 0
7.00642 35.3088 3.96946
8.97309 35.2871 2
10.6362 35.0136 0.0233958
4.84149 37.3399 3.96807
7.05924 37.2062 2
9.15028 36.9877 0.0244789
7.2809 39.18 0.030784
4.99202 39.467 2
2.60549 39.7136 3.97819
5.26407 41.6136 0.032715
2.858 42.0018 2
0.320823 42.3947 4
3.24721 44.2817 0.0221836
0.720551 44.8159 2
1.27781 47.2057 0
7.17197 33.4661 3.96914
9.01741 33.71 2
10.2743 33.8985 0.0235828
5.42019 31.1341 3.96771
7.56309 31.617 2
9.52781 32.1719 0.0267149
3.68262 28.4435 3.97785
5.95012 29.0707 2
8.13154 29.7062 0.0318912
1.99015 25.446 4
4.36133 26.2478 2
6.60511 27.0095 0.0329875
2.85453 23.1494 2
5.17356 24.0952 0.0215525
3.86728 20.9142 0
4.8558 35.2518 3.96806
7.0068 35.3088 2
8.97113 35.287 0.0246131
2.49691 37.4283 3.97899
4.84159 37.3399 2
7.05793 37.2063 0.0305498
4.99144 39.4672 0.0323335
2.60605 39.7139 2
0.080333 39.9526 4
2.85755 42.002 0.0220008
0.320817 42.3947 2
0.720592 44.8159 0
5.04924 33.1906 3.96802
7.17243 33.4661 2
9.01524 33.7098 0.0253579
3.14673 30.6662 3.97813
5.42046 31.1345 2
7.56286 31.6169 0.0313184
1.27793 27.7943 4
3.68297 28.4437 2
5.94982 29.0703 0.0327955
1.99013 25.446 2
4.3611 26.2475 0.0219455
2.85458 23.1494 0
2.549 35.1589 3.97873
4.8565 35.2521 2
7.00642 35.3088 0.0305436
0 37.5 4
2.497 37.4286 2
4.84149 37.3399 0.0319345
2.60549 39.7136 0.0218081
0.0802903 39.9526 2
0.320823 42.3947 0
2.76666 32.9057 3.97885
5.0495 33.1909 2
7.17197 33.4661 0.0308635
0.721173 30.1842 4
3.1471 30.6666 2
5.42019 31.1341 0.032293
1.27779 27.7943 2
3.68262 28.4435 0.0221516
1.99015 25.446 0
0.0806499 35.0474 4
2.54966 35.1593 2
4.8558 35.2518 0.031941
0 37.5 2
2.49691 37.4283 0.0210068
0.080333 39.9526 0
0.32156 32.6054 4
2.76684 32.9063 2
5.04924 33.1906 0.0319777
0.72056 30.1841 2
3.14673 30.6662 0.0218723
1.27793 27.7943 0
0.0802889 35.0474 2
2.549 35.1589 0.0212666
0 37.5 0
0.320817 32.6053 2
2.76666 32.9057 0.0211476
0.721173 30.1842 0
0.0806499 35.0474 0
0.32156 32.6054 0
CELLS 1910 17190
8 18 6 25 56 2 0 5 16
8 57 23 6 18 17 4 0 2
8 78 36 9 29 31 11 1 7
8 31 11 1 7 79 37 10 30
8 110 57 18 50 48 17 2 14
8 50 18 56 111 14 2 16 49
8 116 62 22 55 52 20 3 15
8 56 25 67 118 16 5 24 53
8 119 63 23 57 54 21 4 17
8 55 22 63 119 15 3 21 54
8 58 26 68 121 18 6 25 56
8 122 65 26 58 57 23 6 18
8 73 31 7 27 142 79 30 71
8 143 78 29 72 73 31 7 27
8 83 147 76 34 32 74 28 8
8 84 148 78 36 33 75 29 9
8 76 34 8 28 148 84 33 75
8 37 79 150 86 10 30 77 35
8 151 87 36 78 80 38 11 31
8 80 38 11 31 152 88 37 79
8 175 100 42 94 96 44 12 40
8 44 96 176 101 12 40 95 43
8 101 176 98 46 43 95 41 13
8 46 98 178 103 13 41 97 45
8 178 103 45 97 147 83 32 74
8 189 116 55 109 106 52 15 47
8 111 56 118 191 49 16 53 107
8 192 119 57 110 108 54 17 48
8 109 55 119 192 47 15 54 108
8 194 122 58 112 110 57 18 50
8 112 58 121 195 50 18 56 111
8 115 61 19 51 197 124 59 113
8 115 61 125 198 51 19 60 114
8 198 125 62 116 114 60 20 52
8 200 127 64 120 116 62 22 55
8 118 67 132 202 53 24 66 117
8 121 68 133 203 56 25 67 118
8 120 64 128 204 55 22 63 119
8 204 128 65 122 119 63 23 57
8 206 134 68 121 123 69 26 58
8 123 69 26 58 207 131 65 122
8 226 147 74 138 140 76 28 70
8 229 148 75 139 143 78 29 72
8 140 76 28 70 229 148 75 139
8 142 79 30 71 231 150 77 141
8 144 80 31 73 232 152 79 142
8 233 151 78 143 144 80 31 73
8 150 86 35 77 235 154 81 145
8 235 154 81 145 146 82 39 91
8 146 82 39 91 236 155 90 165
8 238 157 83 147 149 85 34 76
8 239 158 84 148 151 87 36 78
8 149 85 34 76 239 158 84 148
8 152 88 37 79 241 160 86 150
8 242 161 87 151 153 89 38 80
8 153 89 38 80 243 162 88 152
8 171 98 41 92 265 178 97 169
8 265 178 97 169 226 147 74 138
8 172 96 40 93 266 176 95 170
8 266 176 95 170 171 98 41 92
8 269 175 94 173 172 96 40 93
8 271 180 99 174 175 100 42 94
8 197 124 59 113 271 180 99 174
8 272 181 100 175 177 102 44 96
8 273 182 101 176 179 104 46 98
8 177 102 44 96 273 182 101 176
8 179 104 46 98 275 184 103 178
8 275 184 103 178 238 157 83 147
8 188 115 51 105 283 197 113 186
8 188 115 198 284 105 51 114 187
8 284 198 116 189 187 114 52 106
8 286 200 120 193 189 116 55 109
8 191 118 202 288 107 53 117 190
8 195 121 203 289 111 56 118 191
8 193 120 204 290 109 55 119 192
8 290 204 122 194 192 119 57 110
8 196 123 58 112 292 207 122 194
8 293 206 121 195 196 123 58 112
8 199 126 61 115 297 211 124 197
8 298 212 127 200 198 125 62 116
8 199 126 212 298 115 61 125 198
8 205 129 64 120 300 214 127 200
8 301 217 130 201 202 132 66 117
8 209 136 168 264 301 217 130 201
8 302 219 132 202 203 133 67 118
8 303 220 133 203 206 134 68 121
8 205 129 215 304 120 64 128 204
8 304 215 131 207 204 128 65 122
8 306 221 134 206 208 135 69 123
8 208 135 69 123 307 218 131 207
8 210 137 167 263 309 223 136 209
8 328 238 147 226 230 149 76 140
8 228 146 91 166 329 236 165 260
8 231 150 77 141 330 235 145 227
8 330 235 145 227 228 146 91 166
8 332 239 148 229 233 151 78 143
8 230 149 76 140 332 239 148 229
8 232 152 79 142 334 241 150 231
8 234 153 80 144 335 243 152 232
8 336 242 151 233 234 153 80 144
8 236 155 90 165 338 245 164 259
8 241 160 86 150 339 246 154 235
8 339 246 154 235 237 156 82 146
8 237 156 82 146 340 247 155 236
8 342 249 157 238 240 159 85 149
8 343 250 158 239 242 161 87 151
8 240 159 85 149 343 250 158 239
8 243 162 88 152 345 252 160 241
8 244 163 253 346 153 89 161 242
8 244 163 89 153 347 254 162 243
8 311 224 261 371 210 137 167 263
8 263 167 262 372 209 136 168 264
8 267 179 98 171 375 275 178 265
8 375 275 178 265 328 238 147 226
8 376 273 176 266 267 179 98 171
8 268 177 96 172 376 273 176 266
8 379 272 175 269 268 177 96 172
8 380 271 174 270 269 175 94 173
8 283 197 113 186 380 271 174 270
8 381 277 180 271 272 181 100 175
8 297 211 124 197 381 277 180 271
8 382 278 181 272 274 183 102 177
8 274 183 102 177 383 279 182 273
8 383 279 182 273 276 185 104 179
8 385 281 184 275 342 249 157 238
8 276 185 104 179 385 281 184 275
8 285 199 115 188 393 297 197 283
8 394 298 200 286 284 198 116 189
8 285 199 298 394 188 115 198 284
8 291 205 120 193 396 300 200 286
8 397 301 201 287 288 202 117 190
8 295 209 264 374 397 301 201 287
8 398 302 202 288 289 203 118 191
8 399 303 203 289 293 206 121 195
8 291 205 304 400 193 120 204 290
8 400 304 207 292 290 204 122 194
8 294 208 123 196 402 307 207 292
8 403 306 206 293 294 208 123 196
8 296 210 263 373 405 309 209 295
8 408 312 213 299 297 211 126 199
8 299 213 313 409 199 126 212 298
8 409 313 214 300 298 212 127 200
8 305 216 129 205 411 315 214 300
8 412 318 217 301 302 219 132 202
8 309 223 136 209 412 318 217 301
8 413 320 219 302 303 220 133 203
8 306 221 321 414 206 134 220 303
8 307 218 131 207 415 316 215 304
8 305 216 316 415 205 129 215 304
8 417 322 221 306 308 222 135 208
8 308 222 135 208 418 319 218 307
8 310 225 137 210 420 325 223 309
8 423 326 224 311 310 225 137 210
8 329 236 165 260 441 338 259 368
8 442 342 238 328 333 240 149 230
8 331 237 146 228 443 340 236 329
8 334 241 150 231 444 339 235 330
8 444 339 235 330 331 237 146 228
8 446 343 239 332 336 242 151 233
8 333 240 149 230 446 343 239 332
8 335 243 152 232 448 345 241 334
8 337 244 153 234 449 347 243 335
8 337 244 346 450 234 153 242 336
8 338 245 164 259 452 349 258 367
8 340 247 155 236 453 350 245 338
8 345 252 160 241 454 351 246 339
8 454 351 246 339 341 248 156 237
8 341 248 156 237 455 352 247 340
8 240 159 251 344 342 249 354 457
8 242 161 253 346 343 250 355 458
8 343 250 355 458 240 159 251 344
8 347 254 162 243 460 357 252 345
8 348 255 358 461 244 163 253 346
8 348 255 163 244 462 359 254 347
8 473 360 257 365 363 256 364 482
8 452 349 258 367 365 257 366 485
8 422 324 369 488 311 224 261 371
8 371 261 370 490 263 167 262 372
8 407 311 371 491 296 210 263 373
8 373 263 372 492 295 209 264 374
8 493 385 275 375 442 342 238 328
8 377 276 179 267 493 385 275 375
8 378 274 177 268 494 383 273 376
8 494 383 273 376 377 276 179 267
8 497 382 272 379 378 274 177 268
8 498 381 271 380 379 272 175 269
8 393 297 197 283 498 381 271 380
8 499 387 277 381 382 278 181 272
8 408 312 211 297 499 387 277 381
8 500 388 278 382 384 280 183 274
8 501 389 279 383 386 282 185 276
8 384 280 183 274 501 389 279 383
8 386 282 185 276 503 391 281 385
8 503 391 281 385 457 354 249 342
8 511 408 299 395 393 297 199 285
8 395 299 409 512 285 199 298 394
8 512 409 300 396 394 298 200 286
8 401 305 205 291 514 411 300 396
8 515 412 301 397 398 302 202 288
8 405 309 209 295 515 412 301 397
8 516 413 302 398 399 303 203 289
8 403 306 414 517 293 206 303 399
8 402 307 207 292 518 415 304 400
8 401 305 415 518 291 205 304 400
8 404 308 208 294 520 418 307 402
8 521 417 306 403 404 308 208 294
8 406 310 210 296 523 420 309 405
8 526 423 311 407 406 310 210 296
8 410 314 213 299 527 424 312 408
8 528 425 315 411 409 313 214 300
8 410 314 425 528 299 213 313 409
8 416 317 216 305 530 427 315 411
8 531 430 318 412 413 320 219 302
8 420 325 223 309 531 430 318 412
8 532 432 320 413 414 321 220 303
8 417 322 433 533 306 221 321 414
8 418 319 218 307 534 428 316 415
8 416 317 428 534 305 216 316 415
8 419 323 434 536 308 222 322 417
8 419 323 222 308 537 431 319 418
8 421 327 225 310 539 438 325 420
8 421 327 439 541 310 225 326 423
8 543 437 324 422 423 326 224 311
8 441 338 259 368 559 452 367 486
8 443 340 236 329 560 453 338 441
8 333 240 344 447 442 342 457 561
8 445 341 237 331 562 455 340 443
8 448 345 241 334 563 454 339 444
8 563 454 339 444 445 341 237 331
8 336 242 346 450 446 343 458 565
8 446 343 458 565 333 240 344 447
8 449 347 243 335 567 460 345 448
8 451 348 244 337 568 462 347 449
8 451 348 461 569 337 244 346 450
8 570 463 349 452 473 360 257 365
8 453 350 245 338 570 463 349 452
8 455 352 247 340 571 464 350 453
8 460 357 252 345 572 465 351 454
8 572 465 351 454 456 353 248 341
8 456 353 248 341 573 466 352 455
8 344 251 356 459 457 354 468 575
8 458 355 469 576 344 251 356 459
8 346 253 358 461 458 355 469 576
8 462 359 254 347 578 471 357 460
8 348 255 359 462 461 358 472 579
8 591 474 360 473 475 361 256 363
8 475 361 256 363 594 477 362 479
8 363 256 364 482 479 362 480 603
8 590 473 365 484 481 363 482 605
8 482 364 257 365 606 483 366 485
8 559 452 367 486 484 365 485 607
8 542 436 487 609 422 324 369 488
8 525 422 488 611 407 311 371 491
8 488 369 489 612 371 261 370 490
8 491 371 490 613 373 263 372 492
8 495 386 276 377 614 503 385 493
8 614 503 385 493 561 457 342 442
8 615 501 383 494 495 386 276 377
8 496 384 274 378 615 501 383 494
8 618 500 382 497 496 384 274 378
8 619 499 381 498 497 382 272 379
8 511 408 297 393 619 499 381 498
8 620 505 387 499 500 388 278 382
8 527 424 312 408 620 505 387 499
8 502 390 506 621 384 280 388 500
8 622 507 389 501 504 392 282 386
8 502 390 280 384 622 507 389 501
8 504 392 282 386 624 509 391 503
8 624 509 391 503 575 468 354 457
8 513 410 299 395 630 527 408 511
8 631 528 411 514 512 409 300 396
8 513 410 528 631 395 299 409 512
8 519 416 305 401 633 530 411 514
8 634 531 412 515 516 413 302 398
8 523 420 309 405 634 531 412 515
8 635 532 413 516 517 414 303 399
8 521 417 533 636 403 306 414 517
8 520 418 307 402 637 534 415 518
8 519 416 534 637 401 305 415 518
8 522 419 308 404 639 537 418 520
8 522 419 536 640 404 308 417 521
8 524 421 310 406 642 539 420 523
8 524 421 541 644 406 310 423 526
8 646 543 422 525 526 423 311 407
8 529 426 314 410 647 544 424 527
8 528 425 545 648 411 315 427 530
8 529 426 545 648 410 314 425 528
8 535 429 317 416 649 546 427 530
8 650 548 430 531 532 432 320 413
8 539 438 325 420 650 548 430 531
8 533 433 550 651 414 321 432 532
8 536 434 551 652 417 322 433 533
8 537 431 319 418 653 547 428 534
8 535 429 547 653 416 317 428 534
8 538 435 552 654 419 323 434 536
8 538 435 323 419 655 549 431 537
8 540 440 327 421 657 556 438 539
8 540 440 557 659 421 327 439 541
8 541 439 555 660 423 326 437 543
8 661 554 436 542 543 437 324 422
8 676 570 452 559 590 473 365 484
8 560 453 338 441 676 570 452 559
8 562 455 340 443 677 571 453 560
8 447 344 459 566 561 457 575 678
8 564 456 341 445 679 573 455 562
8 567 460 345 448 680 572 454 563
8 680 572 454 563 564 456 341 445
8 565 458 576 682 447 344 459 566
8 450 346 461 569 565 458 576 682
8 568 462 347 449 684 578 460 567
8 451 348 462 568 569 461 579 685
8 686 580 463 570 591 474 360 473
8 571 464 350 453 686 580 463 570
8 573 466 352 455 687 581 464 571
8 572 465 582 688 460 357 471 578
8 574 467 582 688 456 353 465 572
8 574 467 353 456 689 583 466 573
8 459 356 470 577 575 468 585 691
8 576 469 586 692 459 356 470 577
8 461 358 472 579 576 469 586 692
8 462 359 471 578 579 472 588 694
8 704 591 473 590 593 475 363 481
8 595 476 592 705 475 361 474 591
8 593 475 363 481 707 594 479 602
8 594 477 362 479 709 598 478 600
8 595 476 361 475 711 597 477 594
8 479 362 480 603 600 478 601 720
8 481 363 482 605 602 479 603 722
8 603 480 364 482 723 604 483 606
8 605 482 365 484 724 606 485 607
8 656 553 608 726 542 436 487 609
8 645 542 609 728 525 422 488 611
8 609 487 610 729 488 369 489 612
8 611 488 612 730 491 371 490 613
8 616 504 386 495 731 624 503 614
8 731 624 503 614 678 575 457 561
8 732 622 501 615 616 504 386 495
8 617 502 384 496 732 622 501 615
8 617 502 621 735 496 384 500 618
8 736 620 499 619 618 500 382 497
8 630 527 408 511 736 620 499 619
8 621 506 626 737 500 388 505 620
8 647 544 424 527 737 626 505 620
8 623 508 627 738 502 390 506 621
8 623 508 390 502 739 628 507 622
8 625 510 628 739 504 392 507 622
8 740 629 509 624 691 585 468 575
8 625 510 392 504 740 629 509 624
8 632 529 410 513 744 647 527 630
8 631 528 648 745 514 411 530 633
8 632 529 648 745 513 410 528 631
8 638 535 416 519 746 649 530 633
8 747 650 531 634 635 532 413 516
8 642 539 420 523 747 650 531 634
8 636 533 651 748 517 414 532 635
8 640 536 652 749 521 417 533 636
8 639 537 418 520 750 653 534 637
8 638 535 653 750 519 416 534 637
8 641 538 419 522 751 655 537 639
8 641 538 654 752 522 419 536 640
8 643 540 421 524 753 657 539 642
8 643 540 659 755 524 421 541 644
8 644 541 660 757 526 423 543 646
8 758 661 542 645 646 543 422 525
8 529 426 544 647 648 545 662 759
8 530 427 545 648 649 546 663 760
8 535 429 546 649 653 547 664 761
8 762 666 548 650 651 550 432 532
8 657 556 438 539 762 666 548 650
8 652 551 668 763 533 433 550 651
8 654 552 669 764 536 434 551 652
8 655 549 431 537 765 665 547 653
8 538 435 549 655 654 552 667 766
8 661 554 671 768 542 436 553 656
8 658 558 440 540 769 674 556 657
8 658 558 675 770 540 440 557 659
8 659 557 673 771 541 439 555 660
8 660 555 672 772 543 437 554 661
8 788 686 570 676 704 591 473 590
8 677 571 453 560 788 686 570 676
8 679 573 455 562 789 687 571 677
8 566 459 577 683 678 575 691 790
8 681 574 456 564 791 689 573 679
8 680 572 688 792 567 460 578 684
8 681 574 688 792 564 456 572 680
8 682 576 692 794 566 459 577 683
8 569 461 579 685 682 576 692 794
8 568 462 578 684 685 579 694 796
8 687 581 464 571 798 696 580 686
8 798 696 580 686 705 592 474 591
8 689 583 466 573 799 697 581 687
8 688 582 698 800 578 471 588 694
8 690 584 698 800 574 467 582 688
8 690 584 467 574 801 699 583 689
8 693 587 701 803 577 470 585 691
8 693 587 470 577 804 702 586 692
8 695 589 702 804 579 472 586 692
8 695 589 472 579 805 703 588 694
8 708 595 705 813 593 475 591 704
8 710 596 706 814 595 476 592 705
8 707 594 479 602 816 709 600 719
8 708 595 475 593 817 711 594 707
8 709 598 478 600 819 715 599 717
8 711 597 477 594 820 714 598 709
8 710 596 476 595 822 713 597 711
8 600 478 601 720 717 599 718 832
8 602 479 603 722 719 600 720 834
8 720 601 480 603 835 721 604 723
8 722 603 482 605 836 723 606 724
8 767 670 725 839 656 553 608 726
8 756 656 726 841 645 542 609 728
8 726 608 727 842 609 487 610 729
8 728 609 729 843 611 488 612 730
8 844 740 624 731 790 691 575 678
8 733 625 504 616 844 740 624 731
8 734 623 502 617 845 739 622 732
8 733 625 739 845 616 504 622 732
8 734 623 738 846 617 502 621 735
8 735 621 737 847 618 500 620 736
8 744 647 527 630 847 737 620 736
8 621 506 627 738 737 626 741 848
8 647 544 626 737 759 662 741 848
8 623 508 628 739 738 627 742 849
8 740 629 585 691 850 743 700 802
8 625 510 629 740 739 628 743 850
8 632 529 647 744 745 648 759 854
8 633 530 648 745 746 649 760 855
8 638 535 649 746 750 653 761 856
8 857 762 650 747 748 651 532 635
8 753 657 539 642 857 762 650 747
8 749 652 763 858 636 533 651 748
8 752 654 764 859 640 536 652 749
8 751 655 537 639 860 765 653 750
8 641 538 655 751 752 654 766 861
8 754 658 540 643 862 769 657 753
8 754 658 770 863 643 540 659 755
8 755 659 771 864 644 541 660 757
8 758 661 768 866 645 542 656 756
8 757 660 772 867 646 543 661 758
8 759 662 773 868 648 545 663 760
8 649 546 663 760 761 664 774 871
8 765 665 547 653 872 775 664 761
8 873 777 666 762 763 668 550 651
8 769 674 556 657 873 777 666 762
8 764 669 779 874 652 551 668 763
8 654 552 667 766 764 669 778 875
8 655 549 665 765 766 667 776 876
8 768 671 782 877 656 553 670 767
8 772 672 783 878 661 554 671 768
8 658 558 674 769 770 675 786 879
8 659 557 675 770 771 673 785 881
8 882 784 672 772 771 673 555 660
8 789 687 571 677 897 798 686 788
8 897 798 686 788 813 705 591 704
8 791 689 573 679 898 799 687 789
8 795 693 803 900 683 577 691 790
8 793 690 574 681 901 801 689 791
8 792 688 800 902 684 578 694 796
8 793 690 800 902 681 574 688 792
8 795 693 577 683 903 804 692 794
8 797 695 804 903 685 579 692 794
8 797 695 579 685 904 805 694 796
8 905 806 697 799 798 696 581 687
8 814 706 806 905 705 592 696 798
8 689 583 697 799 801 699 808 907
8 800 698 809 908 694 588 703 805
8 690 584 699 801 800 698 809 908
8 803 701 810 909 691 585 700 802
8 693 587 702 804 803 701 811 910
8 695 589 703 805 804 702 812 911
8 818 710 814 919 708 595 705 813
8 821 712 815 920 710 596 706 814
8 816 709 600 719 922 819 717 831
8 817 711 594 707 923 820 709 816
8 818 710 595 708 924 822 711 817
8 819 715 599 717 926 827 716 829
8 820 714 598 709 927 826 715 819
8 929 825 713 822 820 714 597 711
8 821 712 596 710 930 824 713 822
8 717 599 718 832 829 716 830 942
8 719 600 720 834 831 717 832 944
8 832 718 601 720 945 833 721 835
8 834 720 603 722 946 835 723 836
8 869 780 838 950 767 670 725 839
8 865 767 839 952 756 656 726 841
8 839 725 840 953 726 608 727 842
8 841 726 842 954 728 609 729 843
8 844 740 691 790 955 850 802 899
8 733 625 740 844 845 739 850 955
8 734 623 739 845 846 738 849 956
8 735 621 738 846 847 737 848 957
8 744 647 737 847 854 759 848 957
8 738 627 742 849 848 741 851 958
8 848 741 851 958 759 662 773 868
8 850 743 700 802 959 852 807 906
8 849 742 628 739 959 852 743 850
8 854 759 868 965 745 648 760 855
8 746 649 760 855 856 761 871 966
8 860 765 653 750 967 872 761 856
8 968 873 762 857 858 763 651 748
8 862 769 657 753 968 873 762 857
8 859 764 874 969 749 652 763 858
8 752 654 766 861 859 764 875 970
8 751 655 765 860 861 766 876 971
8 754 658 769 862 863 770 879 972
8 755 659 770 863 864 771 881 974
8 976 882 772 867 864 771 660 757
8 866 768 877 977 756 656 767 865
8 867 772 878 978 758 661 768 866
8 760 663 773 868 871 774 883 980
8 870 781 837 948 982 890 780 869
8 982 890 780 869 877 782 670 767
8 761 664 774 871 872 775 884 984
8 876 776 665 765 985 885 775 872
8 873 777 668 763 986 887 779 874
8 769 674 777 873 879 786 887 986
8 764 669 778 875 874 779 888 987
8 766 667 776 876 875 778 886 988
8 878 783 892 989 768 671 782 877
8 878 783 672 772 990 893 784 882
8 880 787 675 770 991 896 786 879
8 880 787 895 992 770 675 785 881
8 881 785 894 993 771 673 784 882
8 1006 905 799 898 897 798 687 789
8 919 814 905 1006 813 705 798 897
8 791 689 799 898 901 801 907 1007
8 900 803 909 1009 790 691 802 899
8 795 693 804 903 900 803 910 1010
8 902 800 908 1011 796 694 805 904
8 793 690 801 901 902 800 908 1011
8 797 695 805 904 903 804 911 1012
8 799 697 806 905 907 808 912 1013
8 920 815 912 1013 814 706 806 905
8 802 700 810 909 906 807 913 1014
8 801 699 808 907 908 809 914 1015
8 805 703 809 908 911 812 915 1016
8 803 701 811 910 909 810 916 1017
8 911 812 917 1018 804 702 811 910
8 925 821 920 1030 818 710 814 919
8 928 823 921 1031 821 712 815 920
8 922 819 717 831 1033 926 829 941
8 923 820 709 816 1034 927 819 922
8 1035 929 822 924 923 820 711 817
8 925 821 710 818 1036 930 822 924
8 1038 933 825 929 927 826 714 820
8 926 827 716 829 1039 935 828 939
8 927 826 715 819 1040 934 827 926
8 928 823 712 821 1041 931 824 930
8 1042 932 824 930 929 825 713 822
8 829 716 830 942 939 828 940 1058
8 831 717 832 944 941 829 942 1060
8 942 830 718 832 1061 943 833 945
8 944 832 720 834 1062 945 835 946
8 981 889 947 1064 870 781 837 948
8 948 837 949 1067 869 780 838 950
8 975 869 950 1069 865 767 839 952
8 950 838 951 1070 839 725 840 953
8 952 839 953 1071 841 726 842 954
8 955 850 802 899 1072 959 906 1008
8 956 849 739 845 1072 959 850 955
8 846 738 849 956 957 848 958 1073
8 957 848 958 1073 854 759 868 965
8 849 742 852 959 958 851 961 1076
8 960 853 961 1076 906 807 852 959
8 958 851 961 1076 868 773 883 980
8 960 853 807 906 1077 963 913 1014
8 855 760 868 965 966 871 980 1085
8 856 761 871 966 967 872 984 1086
8 971 876 765 860 1087 985 872 967
8 968 873 763 858 1088 986 874 969
8 862 769 873 968 972 879 986 1088
8 859 764 875 970 969 874 987 1089
8 861 766 876 971 970 875 988 1090
8 973 880 770 863 1091 991 879 972
8 973 880 992 1092 863 770 881 974
8 974 881 993 1093 864 771 882 976
8 979 870 948 1066 1094 982 869 975
8 1094 982 869 975 977 877 767 865
8 978 878 772 867 1095 990 882 976
8 978 878 989 1096 866 768 877 977
8 871 774 883 980 984 884 994 1099
8 983 891 999 1100 870 781 889 981
8 1101 1000 890 982 989 892 782 877
8 983 891 781 870 1101 1000 890 982
8 872 775 884 984 985 885 995 1103
8 876 776 885 985 988 886 996 1104
8 986 887 779 874 1105 998 888 987
8 879 786 887 986 991 896 998 1105
8 875 778 886 988 987 888 997 1106
8 990 893 1002 1107 878 783 892 989
8 1108 1003 893 990 993 894 784 882
8 880 787 896 991 992 895 1005 1109
8 993 894 785 881 1110 1004 895 992
8 898 799 905 1006 1007 907 1013 1120
8 1030 920 1013 1120 919 814 905 1006
8 901 801 907 1007 1011 908 1015 1121
8 899 802 909 1009 1008 906 1014 1122
8 900 803 910 1010 1009 909 1017 1123
8 1012 911 1018 1124 903 804 910 1010
8 904 805 908 1011 1012 911 1016 1125
8 1013 912 1020 1127 907 808 914 1015
8 1031 921 1020 1127 920 815 912 1013
8 1019 918 962 1075 1128 1021 913 1014
8 1128 1021 913 1014 1017 916 810 909
8 1015 914 1022 1129 908 809 915 1016
8 1016 915 1023 1130 911 812 917 1018
8 1018 917 1024 1131 910 811 916 1017
8 1037 928 1031 1148 925 821 920 1030
8 928 823 931 1041 1031 921 1032 1149
8 1033 926 829 941 1151 1039 939 1057
8 1034 927 819 922 1152 1040 926 1033
8 1153 1038 929 1035 1034 927 820 923
8 1154 1042 930 1036 1035 929 822 924
8 1037 928 821 925 1155 1041 930 1036
8 1039 935 828 939 1156 1047 938 1055
8 1157 1043 932 1042 1038 933 825 929
8 1038 933 826 927 1158 1045 934 1040
8 1040 934 827 926 1159 1046 935 1039
8 930 824 932 1042 1041 931 1044 1160
8 1051 936 1048 1165 1175 1052 937 1053
8 1156 1047 938 1055 1053 937 1054 1178
8 939 828 940 1058 1055 938 1056 1181
8 941 829 942 1060 1057 939 1058 1183
8 942 830 943 1061 1058 940 1059 1184
8 1060 942 832 944 1185 1061 945 1062
8 1082 964 1063 1188 981 889 947 1064
8 1097 981 1064 1190 979 870 948 1066
8 1064 947 1065 1191 948 837 949 1067
8 1066 948 1067 1193 975 869 950 1069
8 1067 949 1068 1194 950 838 951 1070
8 1069 950 1070 1195 952 839 953 1071
8 956 849 959 1072 1073 958 1076 1197
8 1074 960 1076 1197 1008 906 959 1072
8 1073 958 1076 1197 965 868 980 1085
8 1074 960 906 1008 1198 1077 1014 1122
8 1133 1026 1079 1199 1019 918 962 1075
8 1077 963 913 1014 1200 1080 962 1075
8 960 853 963 1077 1076 961 1078 1201
8 980 883 961 1076 1099 994 1078 1201
8 1210 1083 964 1082 1100 999 889 981
8 966 871 980 1085 1086 984 1099 1215
8 967 872 984 1086 1087 985 1103 1216
8 971 876 985 1087 1090 988 1104 1217
8 1088 986 874 969 1218 1105 987 1089
8 972 879 986 1088 1091 991 1105 1218
8 970 875 988 1090 1089 987 1106 1219
8 973 880 991 1091 1092 992 1109 1220
8 1093 993 881 974 1221 1110 992 1092
8 1222 1108 990 1095 1093 993 882 976
8 1223 1101 982 1094 1096 989 877 977
8 1098 983 870 979 1223 1101 982 1094
8 1095 990 1107 1224 978 878 989 1096
8 1098 983 1100 1225 979 870 981 1097
8 984 884 994 1099 1103 995 1111 1227
8 1102 1001 1115 1228 983 891 999 1100
8 1101 1000 892 989 1229 1116 1002 1107
8 1102 1001 891 983 1229 1116 1000 1101
8 985 885 995 1103 1104 996 1112 1230
8 988 886 996 1104 1106 997 1113 1231
8 1105 998 888 987 1232 1114 997 1106
8 991 896 998 1105 1109 1005 1114 1232
8 1108 1003 1117 1233 990 893 1002 1107
8 1108 1003 894 993 1233 1117 1004 1110
8 992 895 1005 1109 1110 1004 1118 1234
8 1120 1013 1127 1244 1007 907 1015 1121
8 1148 1031 1127 1244 1030 920 1013 1120
8 1121 1015 1129 1245 1011 908 1016 1125
8 1126 1019 1075 1196 1246 1128 1014 1122
8 1246 1128 1014 1122 1123 1017 909 1009
8 1124 1018 1131 1247 1010 910 1017 1123
8 1125 1016 1130 1248 1012 911 1018 1124
8 1127 1020 1137 1254 1015 914 1022 1129
8 1031 921 1032 1149 1127 1020 1137 1254
8 1134 1027 918 1019 1257 1140 1021 1128
8 1257 1140 1021 1128 1131 1024 916 1017
8 1129 1022 1141 1258 1016 915 1023 1130
8 1130 1023 1142 1259 1018 917 1024 1131
8 1261 1144 1025 1132 1133 1026 1079 1199
8 1255 1138 1025 1132 1135 1028 1144 1261
8 1133 1026 918 1019 1262 1145 1027 1134
8 1136 1029 1139 1256 1263 1146 1028 1135
8 1037 928 1041 1155 1148 1031 1149 1275
8 1041 931 1044 1160 1149 1032 1150 1276
8 1151 1039 939 1057 1278 1156 1055 1180
8 1152 1040 926 1033 1279 1159 1039 1151
8 1153 1038 927 1034 1280 1158 1040 1152
8 1281 1157 1042 1154 1153 1038 929 1035
8 1036 930 1042 1154 1155 1041 1160 1282
8 1283 1164 1046 1159 1156 1047 935 1039
8 1165 1048 1164 1283 1053 937 1047 1156
8 1157 1043 933 1038 1284 1161 1045 1158
8 1157 1043 1161 1284 1042 932 1044 1160
8 1040 934 1046 1159 1158 1045 1163 1285
8 1166 1049 1167 1292 1051 936 1048 1165
8 1166 1049 936 1051 1293 1168 1050 1172
8 1051 936 1052 1175 1172 1050 1173 1306
8 1174 1051 1165 1290 1308 1175 1053 1177
8 1053 937 1054 1178 1175 1052 1176 1309
8 1278 1156 1055 1180 1177 1053 1178 1311
8 1055 938 1056 1181 1178 1054 1179 1312
8 1057 939 1058 1183 1180 1055 1181 1314
8 1058 940 1059 1184 1181 1056 1182 1315
8 1060 942 1061 1185 1183 1058 1184 1316
8 1208 1081 1187 1321 1082 964 1063 1188
8 1209 1082 1188 1322 1097 981 1064 1190
8 1188 1063 1189 1323 1064 947 1065 1191
8 1190 1064 1191 1325 1066 948 1067 1193
8 1191 1065 1192 1326 1067 949 1068 1194
8 1067 1193 1069 950 1194 1327 1195 1070
8 1250 1133 1199 1330 1126 1019 1075 1196
8 1198 1077 1014 1122 1331 1200 1075 1196
8 1074 960 1077 1198 1197 1076 1201 1332
8 1085 980 1076 1197 1215 1099 1201 1332
8 1199 1079 1203 1333 1075 962 1080 1200
8 1132 1025 1119 1243 1199 1079 1203 1333
8 1201 1078 963 1077 1334 1202 1080 1200
8 1099 994 1078 1201 1227 1111 1202 1334
8 1343 1207 1081 1208 1210 1083 964 1082
8 1214 1084 1186 1319 1343 1207 1081 1208
8 1345 1210 1082 1209 1225 1100 981 1097
8 1346 1211 1083 1210 1228 1115 999 1100
8 1086 984 1099 1215 1216 1103 1227 1352
8 1087 985 1103 1216 1217 1104 1230 1353
8 1090 988 1104 1217 1219 1106 1231 1354
8 1218 1105 987 1089 1355 1232 1106 1219
8 1091 991 1105 1218 1220 1109 1232 1355
8 1092 992 1109 1220 1221 1110 1234 1356
8 1222 1108 1233 1357 1095 990 1107 1224
8 1222 1108 993 1093 1357 1233 1110 1221
8 1223 1101 989 1096 1358 1229 1107 1224
8 1226 1102 983 1098 1358 1229 1101 1223
8 1226 1102 1228 1359 1098 983 1100 1225
8 1103 995 1111 1227 1230 1112 1235 1360
8 1107 1002 1117 1233 1229 1116 1240 1362
8 1102 1001 1116 1229 1228 1115 1240 1362
8 1104 996 1112 1230 1231 1113 1236 1363
8 1364 1237 1114 1232 1231 1113 997 1106
8 1109 1005 1114 1232 1234 1118 1238 1365
8 1110 1004 1118 1234 1233 1117 1241 1366
8 1242 1374 1255 1138 1119 1243 1132 1025
8 1244 1127 1254 1376 1121 1015 1129 1245
8 1148 1031 1149 1275 1244 1127 1254 1376
8 1245 1129 1258 1377 1125 1016 1130 1248
8 1251 1134 1019 1126 1378 1257 1128 1246
8 1378 1257 1128 1246 1247 1131 1017 1123
8 1248 1130 1259 1379 1124 1018 1131 1247
8 1261 1381 1250 1133 1132 1249 1330 1199
8 1255 1380 1252 1135 1132 1249 1381 1261
8 1250 1133 1019 1126 1382 1262 1134 1251
8 1253 1136 1256 1385 1384 1263 1135 1252
8 1254 1137 1265 1387 1129 1022 1141 1258
8 1149 1032 1150 1276 1254 1137 1265 1387
8 1028 1135 1255 1138 1139 1256 1388 1266
8 1136 1029 1147 1264 1256 1139 1267 1389
8 1390 1268 1140 1257 1259 1142 1024 1131
8 1260 1143 1027 1134 1390 1268 1140 1257
8 1258 1141 1269 1391 1130 1023 1142 1259
8 1262 1145 1027 1134 1393 1271 1143 1260
8 1261 1144 1026 1133 1394 1272 1145 1262
8 1135 1028 1144 1261 1263 1146 1272 1394
8 1136 1029 1146 1263 1264 1147 1273 1395
8 1155 1041 1160 1282 1275 1149 1276 1405
8 1276 1150 1044 1160 1406 1277 1162 1286
8 1408 1283 1159 1279 1278 1156 1039 1151
8 1290 1165 1283 1408 1177 1053 1156 1278
8 1152 1040 1159 1279 1280 1158 1285 1409
8 1281 1157 1038 1153 1410 1284 1158 1280
8 1281 1157 1284 1410 1154 1042 1160 1282
8 1159 1046 1164 1283 1285 1163 1289 1412
8 1292 1167 1289 1412 1165 1048 1164 1283
8 1158 1045 1163 1285 1284 1161 1288 1413
8 1284 1161 1288 1413 1160 1044 1162 1286
8 1291 1166 1292 1418 1174 1051 1165 1290
8 1291 1166 1051 1174 1419 1293 1172 1305
8 1294 1169 1296 1421 1166 1049 1167 1292
8 1293 1168 1050 1172 1422 1295 1171 1303
8 1294 1169 1049 1166 1423 1297 1168 1293
8 1422 1295 1171 1303 1301 1170 1302 1435
8 1172 1050 1173 1306 1303 1171 1304 1438
8 1174 1051 1175 1308 1305 1172 1306 1440
8 1175 1052 1176 1309 1306 1173 1307 1441
8 1177 1053 1178 1311 1308 1175 1309 1443
8 1178 1054 1179 1312 1309 1176 1310 1444
8 1180 1055 1181 1314 1311 1178 1312 1446
8 1056 1181 1312 1179 1182 1315 1447 1313
8 1183 1058 1184 1316 1314 1181 1315 1448
8 1319 1186 1084 1214 1451 1317 1213 1350
8 1319 1186 1318 1453 1208 1081 1187 1321
8 1321 1187 1320 1456 1188 1063 1189 1323
8 1344 1208 1321 1457 1209 1082 1188 1322
8 1322 1188 1323 1458 1190 1064 1191 1325
8 1323 1189 1324 1459 1191 1065 1192 1326
8 1191 1325 1193 1067 1326 1460 1327 1194
8 1242 1374 1243 1119 1328 1462 1335 1204
8 1330 1199 1333 1465 1196 1075 1200 1331
8 1132 1249 1330 1199 1243 1375 1465 1333
8 1332 1201 1077 1198 1466 1334 1200 1331
8 1215 1099 1201 1332 1352 1227 1334 1466
8 1119 1243 1333 1203 1204 1335 1470 1338
8 1333 1203 1338 1470 1200 1080 1202 1334
8 1227 1111 1202 1334 1360 1235 1338 1470
8 1328 1462 1335 1204 1205 1336 1471 1339
8 1337 1206 1340 1472 1464 1329 1205 1336
8 1346 1211 1342 1479 1210 1083 1207 1343
8 1346 1211 1115 1228 1479 1342 1239 1361
8 1348 1212 1084 1214 1479 1342 1207 1343
8 1480 1343 1208 1344 1345 1210 1082 1209
8 1351 1214 1319 1454 1480 1343 1208 1344
8 1481 1346 1210 1345 1359 1228 1100 1225
8 1348 1212 1347 1483 1214 1084 1213 1350
8 1216 1103 1227 1352 1353 1230 1360 1488
8 1217 1104 1230 1353 1354 1231 1363 1489
8 1490 1364 1232 1355 1354 1231 1106 1219
8 1220 1109 1232 1355 1356 1234 1365 1491
8 1221 1110 1234 1356 1357 1233 1366 1492
8 1224 1107 1233 1357 1358 1229 1362 1493
8 1226 1102 1229 1358 1359 1228 1362 1493
8 1230 1112 1235 1360 1363 1236 1367 1496
8 1361 1239 1115 1228 1497 1371 1240 1362
8 1366 1241 1372 1498 1233 1117 1240 1362
8 1364 1237 1113 1231 1499 1368 1236 1363
8 1364 1237 1368 1499 1232 1114 1238 1365
8 1234 1118 1238 1365 1366 1241 1369 1500
8 1507 1373 1242 1374 1388 1266 1138 1255
8 1508 1374 1243 1375 1380 1255 1132 1249
8 1376 1254 1387 1509 1245 1129 1258 1377
8 1275 1149 1276 1405 1376 1254 1387 1509
8 1377 1258 1391 1510 1248 1130 1259 1379
8 1511 1390 1257 1378 1379 1259 1131 1247
8 1383 1260 1134 1251 1511 1390 1257 1378
8 1252 1135 1256 1385 1380 1255 1388 1512
8 1261 1381 1513 1394 1133 1250 1382 1262
8 1135 1252 1384 1263 1261 1381 1513 1394
8 1382 1262 1134 1251 1514 1393 1260 1383
8 1253 1136 1263 1384 1386 1264 1395 1516
8 1253 1136 1264 1386 1385 1256 1389 1517
8 1387 1265 1397 1519 1258 1141 1269 1391
8 1276 1150 1277 1406 1387 1265 1397 1519
8 1256 1139 1267 1389 1388 1266 1398 1520
8 1264 1147 1274 1396 1389 1267 1399 1521
8 1392 1270 1143 1260 1522 1400 1268 1390
8 1390 1268 1142 1259 1522 1400 1269 1391
8 1392 1270 1401 1523 1260 1143 1271 1393
8 1272 1394 1524 1402 1145 1262 1393 1271
8 1395 1273 1146 1263 1524 1402 1272 1394
8 1273 1395 1264 1147 1403 1526 1396 1274
8 1405 1276 1160 1282 1534 1406 1286 1411
8 1414 1287 1407 1535 1286 1162 1277 1406
8 1279 1159 1283 1408 1409 1285 1412 1537
8 1418 1292 1412 1537 1290 1165 1283 1408
8 1280 1158 1285 1409 1410 1284 1413 1538
8 1410 1284 1413 1538 1282 1160 1286 1411
8 1285 1163 1289 1412 1413 1288 1417 1540
8 1421 1296 1417 1540 1292 1167 1289 1412
8 1414 1287 1162 1286 1541 1416 1288 1413
8 1420 1294 1421 1545 1291 1166 1292 1418
8 1419 1293 1172 1305 1546 1422 1303 1437
8 1420 1294 1166 1291 1547 1423 1293 1419
8 1294 1169 1297 1423 1421 1296 1425 1548
8 1423 1297 1168 1293 1549 1424 1295 1422
8 1301 1170 1298 1427 1422 1295 1424 1549
8 1432 1300 1428 1554 1301 1170 1298 1427
8 1431 1299 1428 1554 1560 1430 1300 1432
8 1563 1433 1300 1432 1435 1302 1170 1301
8 1546 1422 1303 1437 1434 1301 1435 1565
8 1303 1171 1304 1438 1435 1302 1436 1566
8 1305 1172 1306 1440 1437 1303 1438 1568
8 1306 1173 1307 1441 1438 1304 1439 1569
8 1308 1175 1309 1443 1440 1306 1441 1571
8 1309 1176 1310 1444 1441 1307 1442 1572
8 1311 1178 1312 1446 1443 1309 1444 1574
8 1179 1312 1444 1310 1313 1447 1575 1445
8 1314 1181 1315 1448 1446 1312 1447 1576
8 1350 1213 1349 1486 1451 1317 1449 1579
8 1451 1317 1450 1581 1319 1186 1318 1453
8 1454 1319 1214 1351 1582 1451 1350 1487
8 1453 1318 1452 1584 1321 1187 1320 1456
8 1454 1319 1453 1585 1344 1208 1321 1457
8 1456 1320 1455 1586 1323 1189 1324 1459
8 1457 1321 1456 1587 1322 1188 1323 1458
8 1458 1323 1459 1588 1325 1191 1326 1460
8 1205 1336 1464 1329 1328 1462 1590 1461
8 1507 1373 1461 1590 1374 1242 1328 1462
8 1508 1374 1462 1591 1375 1243 1335 1467
8 1337 1206 1329 1464 1473 1341 1463 1594
8 1375 1243 1335 1467 1465 1333 1470 1596
8 1465 1333 1470 1596 1331 1200 1334 1466
8 1352 1227 1334 1466 1488 1360 1470 1596
8 1591 1462 1336 1468 1467 1335 1471 1597
8 1469 1337 1472 1598 1595 1464 1336 1468
8 1471 1339 1474 1600 1335 1204 1338 1470
8 1600 1474 1367 1496 1470 1338 1235 1360
8 1336 1205 1340 1472 1471 1339 1475 1601
8 1337 1206 1341 1473 1472 1340 1476 1602
8 1495 1370 1478 1609 1361 1239 1342 1479
8 1348 1212 1342 1479 1483 1347 1478 1609
8 1481 1346 1479 1610 1345 1210 1343 1480
8 1481 1346 1228 1359 1610 1479 1361 1494
8 1484 1348 1214 1351 1610 1479 1343 1480
8 1483 1347 1482 1612 1350 1213 1349 1486
8 1484 1348 1483 1613 1351 1214 1350 1487
8 1353 1230 1360 1488 1489 1363 1496 1616
8 1490 1364 1231 1354 1617 1499 1363 1489
8 1490 1364 1499 1617 1355 1232 1365 1491
8 1356 1234 1365 1491 1492 1366 1500 1619
8 1492 1366 1498 1620 1357 1233 1362 1493
8 1494 1361 1228 1359 1621 1497 1362 1493
8 1495 1370 1239 1361 1622 1504 1371 1497
8 1363 1236 1367 1496 1499 1368 1501 1623
8 1497 1371 1240 1362 1624 1505 1372 1498
8 1625 1503 1372 1498 1500 1369 1241 1366
8 1365 1238 1368 1499 1500 1369 1502 1626
8 1520 1398 1506 1633 1388 1266 1373 1507
8 1634 1507 1374 1508 1512 1388 1255 1380
8 1509 1387 1519 1635 1377 1258 1391 1510
8 1405 1276 1406 1534 1509 1387 1519 1635
8 1515 1392 1260 1383 1636 1522 1390 1511
8 1511 1390 1259 1379 1636 1522 1391 1510
8 1385 1256 1389 1517 1512 1388 1520 1637
8 1513 1394 1262 1382 1638 1524 1393 1514
8 1395 1516 1638 1524 1263 1384 1513 1394
8 1515 1392 1523 1639 1383 1260 1393 1514
8 1516 1395 1526 1640 1386 1264 1396 1518
8 1386 1264 1396 1518 1517 1389 1521 1641
8 1519 1397 1527 1643 1391 1269 1400 1522
8 1535 1407 1527 1643 1406 1277 1397 1519
8 1389 1267 1399 1521 1520 1398 1528 1644
8 1645 1529 1399 1521 1525 1404 1274 1396
8 1392 1270 1400 1522 1523 1401 1531 1646
8 1524 1402 1271 1393 1648 1532 1401 1523
8 1403 1526 1648 1532 1273 1395 1524 1402
8 1525 1404 1274 1396 1649 1533 1403 1526
8 1539 1414 1535 1657 1411 1286 1406 1534
8 1542 1415 1536 1658 1414 1287 1407 1535
8 1409 1285 1412 1537 1538 1413 1540 1660
8 1545 1421 1540 1660 1418 1292 1412 1537
8 1539 1414 1286 1411 1661 1541 1413 1538
8 1540 1417 1544 1663 1413 1288 1416 1541
8 1421 1296 1425 1548 1540 1417 1544 1663
8 1542 1415 1287 1414 1664 1543 1416 1541
8 1420 1294 1423 1547 1545 1421 1548 1666
8 1547 1423 1293 1419 1667 1549 1422 1546
8 1434 1301 1427 1553 1546 1422 1549 1667
8 1423 1297 1424 1549 1548 1425 1550 1668
8 1551 1426 1550 1668 1427 1298 1424 1549
8 1551 1426 1298 1427 1671 1552 1428 1554
8 1562 1432 1554 1674 1434 1301 1427 1553
8 1431 1299 1429 1558 1554 1428 1555 1675
8 1431 1299 1430 1560 1558 1429 1557 1680
8 1560 1430 1300 1432 1683 1559 1433 1563
8 1561 1431 1554 1674 1684 1560 1432 1562
8 1685 1563 1432 1562 1565 1435 1301 1434
8 1435 1302 1436 1566 1563 1433 1564 1686
8 1437 1303 1438 1568 1565 1435 1566 1688
8 1438 1304 1439 1569 1566 1436 1567 1689
8 1440 1306 1441 1571 1568 1438 1569 1691
8 1441 1307 1442 1572 1569 1439 1570 1692
8 1443 1309 1444 1574 1571 1441 1572 1694
8 1310 1444 1572 1442 1445 1575 1695 1573
8 1446 1312 1447 1576 1574 1444 1575 1696
8 1486 1349 1485 1614 1579 1449 1577 1699
8 1451 1317 1449 1579 1581 1450 1578 1701
8 1487 1350 1486 1615 1582 1451 1579 1702
8 1581 1450 1580 1704 1453 1318 1452 1584
8 1582 1451 1581 1705 1454 1319 1453 1585
8 1584 1452 1583 1706 1456 1320 1455 1586
8 1585 1453 1584 1707 1457 1321 1456 1587
8 1587 1456 1586 1708 1458 1323 1459 1588
8 1633 1506 1589 1710 1507 1373 1461 1590
8 1464 1329 1461 1590 1594 1463 1589 1710
8 1468 1336 1462 1591 1595 1464 1590 1711
8 1634 1507 1590 1711 1508 1374 1462 1591
8 1473 1341 1463 1594 1603 1477 1593 1716
8 1469 1337 1464 1595 1599 1473 1594 1717
8 1471 1597 1467 1335 1600 1718 1596 1470
8 1718 1600 1496 1616 1596 1470 1360 1488
8 1336 1468 1597 1471 1472 1598 1719 1601
8 1469 1337 1473 1599 1598 1472 1602 1720
8 1722 1604 1501 1623 1600 1474 1367 1496
8 1475 1601 1471 1339 1604 1722 1600 1474
8 1602 1476 1605 1723 1472 1340 1475 1601
8 1476 1602 1724 1606 1341 1473 1603 1477
8 1483 1347 1478 1609 1612 1482 1608 1731
8 1495 1370 1504 1622 1609 1478 1608 1731
8 1618 1495 1609 1732 1494 1361 1479 1610
8 1484 1348 1479 1610 1613 1483 1609 1732
8 1486 1349 1482 1612 1614 1485 1611 1733
8 1613 1483 1612 1734 1487 1350 1486 1615
8 1489 1363 1496 1616 1617 1499 1623 1736
8 1491 1365 1499 1617 1619 1500 1626 1737
8 1618 1495 1361 1494 1738 1622 1497 1621
8 1739 1625 1498 1620 1619 1500 1366 1492
8 1621 1497 1362 1493 1740 1624 1498 1620
8 1742 1631 1504 1622 1624 1505 1371 1497
8 1743 1628 1502 1626 1623 1501 1368 1499
8 1744 1630 1505 1624 1625 1503 1372 1498
8 1745 1629 1503 1625 1626 1502 1369 1500
8 1520 1398 1528 1644 1633 1506 1632 1751
8 1637 1520 1633 1752 1512 1388 1507 1634
8 1635 1519 1643 1753 1510 1391 1522 1636
8 1657 1535 1643 1753 1534 1406 1519 1635
8 1515 1392 1522 1636 1639 1523 1646 1754
8 1517 1389 1521 1641 1637 1520 1644 1755
8 1524 1638 1756 1648 1393 1514 1639 1523
8 1640 1526 1395 1516 1756 1648 1524 1638
8 1642 1525 1396 1518 1757 1649 1526 1640
8 1758 1645 1521 1641 1642 1525 1396 1518
8 1646 1531 1400 1522 1760 1650 1527 1643
8 1535 1407 1536 1658 1643 1527 1650 1760
8 1521 1399 1529 1645 1644 1528 1651 1761
8 1647 1530 1652 1762 1525 1404 1529 1645
8 1401 1523 1648 1532 1531 1646 1763 1655
8 1525 1404 1533 1649 1647 1530 1654 1765
8 1533 1649 1766 1656 1403 1526 1648 1532
8 1662 1542 1658 1774 1539 1414 1535 1657
8 1542 1415 1543 1664 1658 1536 1659 1775
8 1660 1540 1663 1777 1538 1413 1541 1661
8 1545 1421 1548 1666 1660 1540 1663 1777
8 1662 1542 1414 1539 1778 1664 1541 1661
8 1664 1543 1416 1541 1779 1665 1544 1663
8 1548 1425 1550 1668 1663 1544 1665 1779
8 1547 1423 1549 1667 1666 1548 1668 1781
8 1670 1551 1668 1781 1553 1427 1549 1667
8 1551 1426 1552 1671 1668 1550 1669 1782
8 1670 1551 1427 1553 1784 1671 1554 1674
8 1675 1555 1672 1785 1554 1428 1552 1671
8 1678 1556 1673 1789 1558 1429 1555 1675
8 1561 1431 1558 1681 1674 1554 1675 1790
8 1794 1677 1556 1678 1680 1557 1429 1558
8 1560 1430 1559 1683 1680 1557 1679 1797
8 1561 1431 1560 1684 1681 1558 1680 1798
8 1563 1433 1564 1686 1683 1559 1682 1800
8 1684 1560 1432 1562 1801 1683 1563 1685
8 1565 1435 1566 1688 1685 1563 1686 1802
8 1566 1436 1567 1689 1686 1564 1687 1803
8 1568 1438 1569 1691 1688 1566 1689 1805
8 1569 1439 1570 1692 1689 1567 1690 1806
8 1571 1441 1572 1694 1691 1569 1692 1808
8 1442 1572 1692 1570 1573 1695 1809 1693
8 1574 1444 1575 1696 1694 1572 1695 1810
8 1614 1485 1592 1712 1699 1577 1697 1813
8 1579 1449 1577 1699 1701 1578 1698 1815
8 1615 1486 1614 1735 1702 1579 1699 1816
8 1701 1578 1700 1818 1581 1450 1580 1704
8 1582 1451 1579 1702 1705 1581 1701 1819
8 1704 1580 1703 1820 1584 1452 1583 1706
8 1705 1581 1704 1821 1585 1453 1584 1707
8 1707 1584 1706 1822 1587 1456 1586 1708
8 1710 1589 1506 1633 1824 1709 1632 1751
8 1594 1463 1589 1710 1716 1593 1709 1824
8 1752 1633 1710 1825 1634 1507 1590 1711
8 1595 1464 1590 1711 1717 1594 1710 1825
8 1830 1714 1592 1712 1733 1611 1485 1614
8 1603 1477 1593 1716 1725 1607 1715 1834
8 1599 1473 1594 1717 1721 1603 1716 1835
8 1837 1722 1623 1736 1718 1600 1496 1616
8 1719 1601 1722 1837 1597 1471 1600 1718
8 1602 1720 1598 1472 1723 1838 1719 1601
8 1720 1602 1473 1599 1839 1724 1603 1721
8 1723 1605 1726 1840 1601 1475 1604 1722
8 1840 1726 1628 1743 1722 1604 1501 1623
8 1724 1606 1727 1841 1602 1476 1605 1723
8 1725 1607 1728 1842 1603 1477 1606 1724
8 1612 1482 1608 1731 1733 1611 1730 1849
8 1741 1627 1730 1849 1622 1504 1608 1731
8 1613 1483 1609 1732 1734 1612 1731 1850
8 1618 1495 1622 1738 1732 1609 1731 1850
8 1615 1486 1612 1734 1735 1614 1733 1851
8 1852 1743 1626 1737 1736 1623 1499 1617
8 1853 1745 1625 1739 1737 1626 1500 1619
8 1855 1742 1622 1738 1740 1624 1497 1621
8 1856 1744 1624 1740 1739 1625 1498 1620
8 1741 1627 1504 1622 1857 1746 1631 1742
8 1742 1631 1505 1624 1858 1749 1630 1744
8 1859 1747 1629 1745 1743 1628 1502 1626
8 1860 1748 1630 1744 1745 1629 1503 1625
8 1644 1528 1651 1761 1751 1632 1750 1865
8 1637 1520 1644 1755 1752 1633 1751 1866
8 1754 1646 1522 1636 1867 1760 1643 1753
8 1657 1535 1658 1774 1753 1643 1760 1867
8 1639 1523 1646 1754 1756 1648 1763 1868
8 1641 1521 1645 1758 1755 1644 1761 1869
8 1757 1649 1526 1640 1870 1766 1648 1756
8 1642 1525 1649 1757 1759 1647 1765 1871
8 1759 1647 1762 1872 1642 1525 1645 1758
8 1760 1650 1767 1874 1646 1531 1655 1763
8 1658 1536 1659 1775 1760 1650 1767 1874
8 1762 1652 1768 1875 1645 1529 1651 1761
8 1764 1653 1769 1876 1647 1530 1652 1762
8 1656 1766 1877 1773 1532 1648 1763 1655
8 1771 1879 1765 1654 1653 1764 1647 1530
8 1533 1649 1765 1654 1656 1766 1880 1772
8 1662 1542 1664 1778 1774 1658 1775 1887
8 1664 1543 1665 1779 1775 1659 1776 1888
8 1778 1664 1541 1661 1890 1779 1663 1777
8 1666 1548 1668 1781 1777 1663 1779 1890
8 1782 1669 1780 1891 1668 1550 1665 1779
8 1670 1551 1671 1784 1781 1668 1782 1893
8 1671 1552 1672 1785 1782 1669 1783 1894
8 1790 1675 1785 1896 1674 1554 1671 1784
8 1675 1555 1673 1789 1785 1672 1786 1897
8 1792 1676 1788 1903 1678 1556 1673 1789
8 1795 1678 1789 1904 1681 1558 1675 1790
8 1792 1676 1556 1678 1906 1791 1677 1794
8 1680 1557 1679 1797 1794 1677 1793 1909
8 1910 1794 1678 1795 1798 1680 1558 1681
8 1683 1559 1682 1800 1797 1679 1796 1912
8 1684 1560 1683 1801 1798 1680 1797 1913
8 1686 1564 1687 1803 1800 1682 1799 1915
8 1685 1563 1686 1802 1801 1683 1800 1916
8 1688 1566 1689 1805 1802 1686 1803 1917
8 1689 1567 1690 1806 1803 1687 1804 1918
8 1691 1569 1692 1808 1805 1689 1806 1920
8 1692 1570 1693 1809 1806 1690 1807 1921
8 1694 1572 1695 1810 1808 1692 1809 1922
8 1829 1713 1811 1926 1712 1592 1697 1813
8 1813 1697 1812 1928 1699 1577 1698 1815
8 1735 1614 1712 1828 1816 1699 1813 1929
8 1815 1698 1814 1931 1701 1578 1700 1818
8 1702 1579 1699 1816 1819 1701 1815 1932
8 1818 1700 1817 1933 1704 1580 1703 1820
8 1819 1701 1818 1934 1705 1581 1704 1821
8 1821 1704 1820 1935 1707 1584 1706 1822
8 1824 1709 1632 1751 1937 1823 1750 1865
8 1716 1593 1709 1824 1834 1715 1823 1937
8 1825 1710 1633 1752 1938 1824 1751 1866
8 1717 1594 1710 1825 1835 1716 1824 1938
8 1945 1830 1712 1828 1851 1733 1614 1735
8 1830 1714 1831 1946 1712 1592 1713 1829
8 1947 1832 1714 1830 1849 1730 1611 1733
8 1843 1729 1607 1725 1950 1833 1715 1834
8 1721 1603 1716 1835 1836 1725 1834 1951
8 1836 1725 1842 1953 1721 1603 1724 1839
8 1723 1838 1719 1601 1840 1954 1837 1722
8 1954 1840 1743 1852 1837 1722 1623 1736
8 1724 1839 1720 1602 1841 1955 1838 1723
8 1841 1727 1844 1956 1723 1605 1726 1840
8 1956 1844 1747 1859 1840 1726 1628 1743
8 1728 1842 1724 1606 1845 1957 1841 1727
8 1725 1607 1729 1843 1842 1728 1846 1958
8 1741 1627 1746 1857 1849 1730 1848 1965
8 1734 1612 1731 1850 1851 1733 1849 1966
8 1854 1741 1849 1966 1738 1622 1731 1850
8 1967 1859 1745 1853 1852 1743 1626 1737
8 1968 1860 1744 1856 1853 1745 1625 1739
8 1854 1741 1622 1738 1969 1857 1742 1855
8 1855 1742 1624 1740 1970 1858 1744 1856
8 1857 1746 1631 1742 1971 1861 1749 1858
8 1858 1749 1630 1744 1972 1863 1748 1860
8 1859 1747 1862 1973 1745 1629 1748 1860
8 1875 1768 1864 1977 1761 1651 1750 1865
8 1755 1644 1761 1869 1866 1751 1865 1978
8 1867 1760 1874 1979 1754 1646 1763 1868
8 1774 1658 1775 1887 1867 1760 1874 1979
8 1870 1766 1648 1756 1980 1877 1763 1868
8 1872 1762 1875 1981 1758 1645 1761 1869
8 1757 1649 1766 1870 1871 1765 1880 1982
8 1983 1879 1764 1873 1871 1765 1647 1759
8 1873 1764 1876 1984 1759 1647 1762 1872
8 1877 1773 1655 1763 1986 1881 1767 1874
8 1775 1659 1776 1888 1874 1767 1881 1986
8 1876 1769 1882 1987 1762 1652 1768 1875
8 1878 1770 1883 1988 1764 1653 1769 1876
8 1880 1772 1656 1766 1989 1886 1773 1877
8 1878 1770 1653 1764 1990 1884 1771 1879
8 1765 1654 1772 1880 1879 1771 1885 1991
8 1778 1664 1779 1890 1887 1775 1888 1997
8 1998 1889 1776 1888 1891 1780 1665 1779
8 1893 1782 1891 2000 1781 1668 1779 1890
8 1894 1783 1892 2001 1782 1669 1780 1891
8 1784 1671 1785 1896 1893 1782 1894 2003
8 1897 1786 1895 2004 1785 1672 1783 1894
8 1790 1675 1789 1904 1896 1785 1897 2006
8 1901 1787 1898 2007 1789 1673 1786 1897
8 1903 1788 1900 2013 1789 1673 1787 1901
8 1792 1676 1791 1906 1903 1788 1902 2016
8 1907 1792 1903 2017 1795 1678 1789 1904
8 1906 1791 1677 1794 2019 1905 1793 1909
8 1907 1792 1678 1795 2020 1906 1794 1910
8 1797 1679 1796 1912 1909 1793 1908 2022
8 1798 1680 1797 1913 1910 1794 1909 2023
8 1800 1682 1799 1915 1912 1796 1911 2025
8 1801 1683 1800 1916 1913 1797 1912 2026
8 1803 1687 1804 1918 1915 1799 1914 2028
8 1802 1686 1803 1917 1916 1800 1915 2029
8 1805 1689 1806 1920 1917 1803 1918 2030
8 1806 1690 1807 1921 1918 1804 1919 2031
8 1808 1692 1809 1922 1920 1806 1921 2032
8 1939 1826 1924 2037 1829 1713 1811 1926
8 1926 1811 1925 2039 1813 1697 1812 1928
8 1944 1829 1926 2040 1828 1712 1813 1929
8 1928 1812 1927 2042 1815 1698 1814 1931
8 1929 1813 1928 2043 1816 1699 1815 1932
8 1931 1814 1930 2044 1818 1700 1817 1933
8 1932 1815 1931 2045 1819 1701 1818 1934
8 1934 1818 1933 2046 1821 1704 1820 1935
8 2048 1936 1823 1937 1977 1864 1750 1865
8 1950 1833 1715 1834 2048 1936 1823 1937
8 1938 1824 1751 1866 2049 1937 1865 1978
8 1835 1716 1824 1938 1951 1834 1937 2049
8 1939 1826 1713 1829 2053 1942 1831 1946
8 1940 1827 1923 2035 2053 1942 1826 1939
8 1945 1830 1946 2058 1828 1712 1829 1944
8 2059 1947 1830 1945 1966 1849 1733 1851
8 1947 1832 1730 1849 2060 1948 1848 1965
8 1947 1832 1948 2060 1830 1714 1831 1946
8 1959 1847 1729 1843 2063 1949 1833 1950
8 1952 1843 1725 1836 2064 1950 1834 1951
8 1836 1725 1843 1952 1953 1842 1958 2066
8 1953 1842 1957 2067 1839 1724 1841 1955
8 1841 1955 1838 1723 1956 2068 1954 1840
8 2068 1956 1859 1967 1954 1840 1743 1852
8 1956 1844 1960 2069 1859 1747 1862 1973
8 1845 1957 1841 1727 1960 2069 1956 1844
8 1728 1842 1957 1845 1846 1958 2071 1961
8 1962 2072 1959 1847 1846 1958 1843 1729
8 1971 1861 1964 2077 1857 1746 1848 1965
8 1854 1741 1857 1969 1966 1849 1965 2078
8 1967 1859 1973 2079 1853 1745 1860 1968
8 1970 1858 1744 1856 2080 1972 1860 1968
8 1969 1857 1742 1855 2081 1971 1858 1970
8 1971 1861 1749 1858 2082 1974 1863 1972
8 1973 1862 1975 2083 1860 1748 1863 1972
8 1987 1882 1976 2086 1875 1768 1864 1977
8 1981 1875 1977 2087 1869 1761 1865 1978
8 1980 1877 1763 1868 2088 1986 1874 1979
8 1887 1775 1888 1997 1979 1874 1986 2088
8 1880 1982 2089 1989 1766 1870 1980 1877
8 1984 1876 1987 2090 1872 1762 1875 1981
8 1765 1871 1983 1879 1880 1982 2091 1991
8 1985 1878 1764 1873 2092 1990 1879 1983
8 1985 1878 1988 2093 1873 1764 1876 1984
8 2094 1992 1881 1986 1998 1889 1776 1888
8 1986 1881 1992 2094 1877 1773 1886 1989
8 1988 1883 1993 2095 1876 1769 1882 1987
8 1878 1770 1884 1990 1988 1883 1994 2096
8 1991 1885 1772 1880 2097 1996 1886 1989
8 1879 1771 1885 1991 1990 1884 1995 2098
8 2103 1998 1888 1997 2000 1891 1779 1890
8 2104 1999 1889 1998 2001 1892 1780 1891
8 2003 1894 2001 2106 1893 1782 1891 2000
8 2004 1895 2002 2107 1894 1783 1892 2001
8 2006 1897 2004 2109 1896 1785 1894 2003
8 2007 1898 2005 2110 1897 1786 1895 2004
8 2014 1901 2007 2112 1904 1789 1897 2006
8 2011 1899 2008 2113 1901 1787 1898 2007
8 2119 2010 1899 2011 2013 1900 1787 1901
8 2016 1902 2012 2122 1903 1788 1900 2013
8 2017 1903 2013 2123 1904 1789 1901 2014
8 1906 1791 1905 2019 2016 1902 2015 2125
8 1907 1792 1906 2020 2017 1903 2016 2126
8 1909 1793 1908 2022 2019 1905 2018 2128
8 2020 1906 1794 1910 2129 2019 1909 2023
8 1912 1796 1911 2025 2022 1908 2021 2131
8 1913 1797 1912 2026 2023 1909 2022 2132
8 1915 1799 1914 2028 2025 1911 2024 2134
8 1916 1800 1915 2029 2026 1912 2025 2135
8 1918 1804 1919 2031 2028 1914 2027 2136
8 1917 1803 1918 2030 2029 1915 2028 2137
8 1920 1806 1921 2032 2030 1918 2031 2138
8 1940 1827 1941 2054 2035 1923 2033 2140
8 2035 1923 2034 2143 1939 1826 1924 2037
8 2037 1924 2036 2146 1926 1811 1925 2039
8 2051 1939 2037 2147 1944 1829 1926 2040
8 2039 1925 2038 2149 1928 1812 1927 2042
8 2040 1926 2039 2150 1929 1813 1928 2043
8 2042 1927 2041 2151 1931 1814 1930 2044
8 2043 1928 2042 2152 1932 1815 1931 2045
8 2045 1931 2044 2153 1934 1818 1933 2046
8 2155 2047 1936 2048 2086 1976 1864 1977
8 2063 1949 1833 1950 2155 2047 1936 2048
8 2156 2048 1937 2049 2087 1977 1865 1978
8 2064 1950 1834 1951 2156 2048 1937 2049
8 2051 1939 1829 1944 2160 2053 1946 2058
8 2052 1940 2035 2144 2160 2053 1939 2051
8 2053 1942 1831 1946 2163 2057 1948 2060
8 2055 1943 1827 1940 2163 2057 1942 2053
8 2055 1943 2056 2164 1940 1827 1941 2054
8 2059 1947 1849 1966 2167 2060 1965 2078
8 2059 1947 2060 2167 1945 1830 1946 2058
8 2077 1964 2061 2168 1965 1848 1948 2060
8 2070 1963 1847 1959 2170 2062 1949 2063
8 2065 1959 1843 1952 2171 2063 1950 2064
8 2173 2072 1958 2066 2065 1959 1843 1952
8 1953 1842 1958 2066 2067 1957 2071 2174
8 2068 1956 2069 2175 1967 1859 1973 2079
8 2067 1957 2069 2175 1955 1841 1956 2068
8 1845 1957 2069 1960 1961 2071 2176 2073
8 2069 1960 2073 2176 1973 1862 1975 2083
8 2070 1963 2075 2177 1959 1847 1962 2072
8 1846 1958 2071 1961 1962 2072 2178 2074
8 2077 1964 1861 1971 2182 2076 1974 2082
8 2081 1971 2077 2183 1969 1857 1965 2078
8 2079 1973 2083 2184 1968 1860 1972 2080
8 2081 1971 1858 1970 2185 2082 1972 2080
8 2083 1975 2084 2186 1972 1863 1974 2082
8 2086 1976 1882 1987 2189 2085 1993 2095
8 2090 1987 2086 2190 1981 1875 1977 2087
8 2191 2094 1986 2088 2103 1998 1888 1997
8 2088 1986 2094 2191 1980 1877 1989 2089
8 1991 2091 2192 2097 1880 1982 2089 1989
8 2093 1988 2095 2193 1984 1876 1987 2090
8 1879 1983 2092 1990 1991 2091 2194 2098
8 1985 1878 1990 2092 2093 1988 2096 2195
8 2097 1996 1886 1989 2196 2099 1992 2094
8 2196 2099 1992 2094 2104 1999 1889 1998
8 1994 2096 1988 1883 2100 2197 2095 1993
8 2096 1994 1884 1990 2198 2101 1995 2098
8 1995 2098 2199 2102 1885 1991 2097 1996
8 2203 2104 1998 2103 2106 2001 1891 2000
8 2107 2002 2105 2204 2001 1892 1999 2104
8 2109 2004 2107 2206 2003 1894 2001 2106
8 2110 2005 2108 2207 2004 1895 2002 2107
8 2112 2007 2110 2209 2006 1897 2004 2109
8 2113 2008 2111 2210 2007 1898 2005 2110
8 2120 2011 2113 2212 2014 1901 2007 2112
8 2117 2009 2114 2213 2011 1899 2008 2113
8 2219 2116 2009 2117 2119 2010 1899 2011
8 2222 2118 2010 2119 2122 2012 1900 2013
8 2223 2119 2011 2120 2123 2013 1901 2014
8 2016 1902 2015 2125 2122 2012 2121 2225
8 2126 2016 2122 2226 2017 1903 2013 2123
8 2019 1905 2018 2128 2125 2015 2124 2228
8 2020 1906 2019 2129 2126 2016 2125 2229
8 2022 1908 2021 2131 2128 2018 2127 2231
8 2023 1909 2022 2132 2129 2019 2128 2232
8 2025 1911 2024 2134 2131 2021 2130 2234
8 2026 1912 2025 2135 2132 2022 2131 2235
8 1914 2028 2134 2024 2027 2136 2236 2133
8 2029 1915 2028 2137 2135 2025 2134 2237
8 2030 1918 2031 2138 2137 2028 2136 2238
8 2157 2050 2139 2240 2054 1941 2033 2140
8 2052 1940 2054 2161 2144 2035 2140 2242
8 2140 2033 2141 2243 2035 1923 2034 2143
8 2143 2034 2142 2246 2037 1924 2036 2146
8 2144 2035 2143 2247 2051 1939 2037 2147
8 2146 2036 2145 2249 2039 1925 2038 2149
8 2147 2037 2146 2250 2040 1926 2039 2150
8 2149 2038 2148 2251 2042 1927 2041 2151
8 2150 2039 2149 2252 2043 1928 2042 2152
8 2152 2042 2151 2253 2045 1931 2044 2153
8 2255 2154 2047 2155 2189 2085 1976 2086
8 2170 2062 1949 2063 2255 2154 2047 2155
8 2256 2155 2048 2156 2190 2086 1977 2087
8 2171 2063 1950 2064 2256 2155 2048 2156
8 2258 2159 2050 2157 2164 2056 1941 2054
8 2160 2053 1946 2058 2262 2163 2060 2167
8 2162 2055 1940 2052 2262 2163 2053 2160
8 2162 2055 2164 2263 2052 1940 2054 2161
8 2163 2057 1948 2060 2264 2165 2061 2168
8 2055 1943 2057 2163 2164 2056 2165 2264
8 2182 2076 2166 2268 2077 1964 2061 2168
8 2183 2077 2168 2269 2078 1965 2060 2167
8 2070 1963 2062 2170 2177 2075 2169 2271
8 2172 2070 1959 2065 2272 2170 2063 2171
8 2172 2070 2177 2273 2065 1959 2072 2173
8 2066 1958 2072 2173 2174 2071 2178 2274
8 2067 1957 2071 2174 2175 2069 2176 2275
8 2175 2069 2176 2275 2079 1973 2083 2184
8 2071 1961 2074 2178 2176 2073 2179 2276
8 2176 2073 2179 2276 2083 1975 2084 2186
8 2072 1962 2075 2177 2178 2074 2180 2277
8 2182 2076 1974 2082 2280 2181 2084 2186
8 2183 2077 1971 2081 2281 2182 2082 2185
8 2184 2083 2186 2282 2080 1972 2082 2185
8 2189 2085 1993 2095 2285 2188 2100 2197
8 2190 2086 1987 2090 2286 2189 2095 2193
8 2192 2097 1989 2089 2287 2196 2094 2191
8 2287 2196 2094 2191 2203 2104 1998 2103
8 2194 2098 1991 2091 2288 2199 2097 2192
8 2195 2096 2197 2289 2093 1988 2095 2193
8 2096 2195 2290 2198 1990 2092 2194 2098
8 2097 1996 2099 2196 2199 2102 2200 2291
8 2196 2099 1999 2104 2291 2200 2105 2204
8 2100 2197 2292 2201 1994 2096 2198 2101
8 1995 2098 2198 2101 2102 2199 2293 2202
8 2206 2107 2204 2296 2106 2001 2104 2203
8 2207 2108 2205 2297 2107 2002 2105 2204
8 2209 2110 2207 2299 2109 2004 2107 2206
8 2210 2111 2208 2300 2110 2005 2108 2207
8 2212 2113 2210 2302 2112 2007 2110 2209
8 2213 2114 2211 2303 2113 2008 2111 2210
8 2220 2117 2213 2305 2120 2011 2113 2212
8 2216 2115 2214 2306 2117 2009 2114 2213
8 2216 2115 2009 2117 2311 2217 2116 2219
8 2219 2116 2010 2119 2314 2218 2118 2222
8 2315 2219 2117 2220 2223 2119 2011 2120
8 2122 2012 2121 2225 2222 2118 2221 2317
8 2318 2222 2119 2223 2226 2122 2013 2123
8 2125 2015 2124 2228 2225 2121 2224 2320
8 2126 2016 2125 2229 2226 2122 2225 2321
8 2128 2018 2127 2231 2228 2124 2227 2323
8 2129 2019 2128 2232 2229 2125 2228 2324
8 2131 2021 2130 2234 2231 2127 2230 2326
8 2132 2022 2131 2235 2232 2128 2231 2327
8 2134 2024 2133 2236 2234 2130 2233 2328
8 2135 2025 2134 2237 2235 2131 2234 2329
8 2137 2028 2136 2238 2237 2134 2236 2330
8 2157 2050 2158 2259 2240 2139 2239 2332
8 2257 2157 2240 2334 2161 2054 2140 2242
8 2240 2139 2241 2335 2140 2033 2141 2243
8 2242 2140 2243 2337 2144 2035 2143 2247
8 2243 2141 2244 2338 2143 2034 2142 2246
8 2246 2142 2245 2341 2146 2036 2145 2249
8 2247 2143 2246 2342 2147 2037 2146 2250
8 2249 2145 2248 2343 2149 2038 2148 2251
8 2250 2146 2249 2344 2150 2039 2149 2252
8 2252 2149 2251 2345 2152 2042 2151 2253
8 2169 2271 2347 2254 2062 2170 2255 2154
8 2189 2085 2188 2285 2255 2154 2254 2347
8 2348 2255 2155 2256 2286 2189 2086 2190
8 2272 2170 2063 2171 2348 2255 2155 2256
8 2349 2258 2157 2257 2263 2164 2054 2161
8 2258 2159 2261 2351 2157 2050 2158 2259
8 2258 2159 2056 2164 2351 2261 2165 2264
8 2262 2163 2060 2167 2355 2264 2168 2269
8 2162 2055 2163 2262 2263 2164 2264 2355
8 2357 2266 2165 2264 2268 2166 2061 2168
8 2268 2166 2076 2182 2361 2267 2181 2280
8 2281 2182 2268 2362 2183 2077 2168 2269
8 2271 2169 2270 2364 2177 2075 2180 2277
8 2172 2070 2170 2272 2273 2177 2271 2365
8 2072 2173 2274 2178 2177 2273 2366 2277
8 2071 2174 2275 2176 2178 2274 2367 2276
8 2275 2176 2276 2367 2184 2083 2186 2282
8 2283 2187 2084 2186 2368 2278 2179 2276
8 2178 2074 2180 2277 2276 2179 2278 2368
8 2283 2187 2279 2370 2186 2084 2181 2280
8 2281 2182 2082 2185 2371 2280 2186 2282
8 2188 2285 2374 2284 2100 2197 2292 2201
8 2286 2189 2095 2193 2375 2285 2197 2289
8 2192 2097 2196 2287 2288 2199 2291 2376
8 2287 2196 2104 2203 2376 2291 2204 2296
8 2194 2098 2199 2288 2290 2198 2293 2377
8 2289 2197 2096 2195 2378 2292 2198 2290
8 2291 2200 2105 2204 2379 2294 2205 2297
8 2199 2102 2200 2291 2293 2202 2294 2379
8 2198 2101 2202 2293 2292 2201 2295 2380
8 2299 2207 2297 2383 2206 2107 2204 2296
8 2300 2208 2298 2384 2207 2108 2205 2297
8 2302 2210 2300 2386 2209 2110 2207 2299
8 2303 2211 2301 2387 2210 2111 2208 2300
8 2305 2213 2303 2389 2212 2113 2210 2302
8 2306 2214 2304 2390 2213 2114 2211 2303
8 2310 2216 2306 2392 2220 2117 2213 2305
8 2308 2215 2307 2393 2216 2115 2214 2306
8 2308 2215 2115 2216 2396 2309 2217 2311
8 2310 2216 2117 2220 2398 2311 2219 2315
8 2311 2217 2116 2219 2399 2312 2218 2314
8 2314 2218 2118 2222 2402 2313 2221 2317
8 2315 2219 2119 2223 2403 2314 2222 2318
8 2225 2121 2224 2320 2317 2221 2316 2405
8 2226 2122 2225 2321 2318 2222 2317 2406
8 2228 2124 2227 2323 2320 2224 2319 2408
8 2229 2125 2228 2324 2321 2225 2320 2409
8 2231 2127 2230 2326 2323 2227 2322 2411
8 2232 2128 2231 2327 2324 2228 2323 2412
8 2234 2130 2233 2328 2326 2230 2325 2413
8 2235 2131 2234 2329 2327 2231 2326 2414
8 2237 2134 2236 2330 2329 2234 2328 2415
8 2259 2158 2260 2352 2332 2239 2331 2417
8 2257 2157 2259 2350 2334 2240 2332 2419
8 2240 2139 2239 2332 2335 2241 2333 2420
8 2334 2240 2335 2422 2242 2140 2243 2337
8 2335 2241 2336 2423 2243 2141 2244 2338
8 2337 2243 2338 2425 2247 2143 2246 2342
8 2338 2244 2339 2426 2246 2142 2245 2341
8 2341 2245 2340 2428 2249 2145 2248 2343
8 2342 2246 2341 2429 2250 2146 2249 2344
8 2344 2249 2343 2430 2252 2149 2251 2345
8 2188 2285 2347 2254 2284 2374 2432 2346
8 2347 2254 2346 2432 2271 2169 2270 2364
8 2365 2271 2170 2272 2433 2347 2255 2348
8 2286 2189 2285 2375 2348 2255 2347 2433
8 2349 2258 2351 2435 2257 2157 2259 2350
8 2349 2258 2164 2263 2435 2351 2264 2355
8 2259 2158 2261 2351 2352 2260 2354 2437
8 2356 2265 2354 2437 2264 2165 2261 2351
8 2441 2357 2264 2355 2362 2268 2168 2269
8 2356 2265 2165 2264 2442 2358 2266 2357
8 2443 2359 2266 2357 2361 2267 2166 2268
8 2370 2279 2360 2446 2280 2181 2267 2361
8 2362 2268 2182 2281 2447 2361 2280 2371
8 2180 2277 2368 2278 2270 2364 2449 2363
8 2271 2365 2273 2177 2364 2450 2366 2277
8 2372 2283 2186 2282 2451 2368 2276 2367
8 2178 2274 2367 2276 2277 2366 2451 2368
8 2283 2187 2278 2368 2370 2279 2369 2452
8 2372 2283 2370 2453 2282 2186 2280 2371
8 2284 2374 2455 2373 2201 2292 2380 2295
8 2375 2285 2197 2289 2456 2374 2292 2378
8 2376 2291 2204 2296 2457 2379 2297 2383
8 2288 2199 2291 2376 2377 2293 2379 2457
8 2198 2290 2378 2292 2293 2377 2458 2380
8 2293 2202 2294 2379 2380 2295 2381 2459
8 2384 2298 2381 2459 2297 2205 2294 2379
8 2386 2300 2384 2463 2299 2207 2297 2383
8 2387 2301 2385 2464 2300 2208 2298 2384
8 2389 2303 2387 2466 2302 2210 2300 2386
8 2390 2304 2388 2467 2303 2211 2301 2387
8 2392 2306 2390 2469 2305 2213 2303 2389
8 2393 2307 2391 2470 2306 2214 2304 2390
8 2395 2308 2393 2472 2310 2216 2306 2392
8 2308 2215 2309 2396 2393 2307 2394 2473
8 2395 2308 2216 2310 2475 2396 2311 2398
8 2396 2309 2217 2311 2476 2397 2312 2399
8 2398 2311 2219 2315 2478 2399 2314 2403
8 2399 2312 2218 2314 2479 2400 2313 2402
8 2317 2221 2316 2405 2402 2313 2401 2482
8 2403 2314 2222 2318 2483 2402 2317 2406
8 2320 2224 2319 2408 2405 2316 2404 2485
8 2321 2225 2320 2409 2406 2317 2405 2486
8 2323 2227 2322 2411 2408 2319 2407 2488
8 2324 2228 2323 2412 2409 2320 2408 2489
8 2326 2230 2325 2413 2411 2322 2410 2490
8 2327 2231 2326 2414 2412 2323 2411 2491
8 2329 2234 2328 2415 2414 2326 2413 2492
8 2417 2331 2260 2352 2494 2416 2353 2438
8 2350 2259 2352 2436 2419 2332 2417 2496
8 2332 2239 2331 2417 2420 2333 2418 2497
8 2334 2240 2332 2419 2422 2335 2420 2499
8 2420 2333 2421 2500 2335 2241 2336 2423
8 2422 2335 2423 2502 2337 2243 2338 2425
8 2423 2336 2424 2503 2338 2244 2339 2426
8 2425 2338 2426 2505 2342 2246 2341 2429
8 2426 2339 2427 2506 2341 2245 2340 2428
8 2429 2341 2428 2507 2344 2249 2343 2430
8 2432 2346 2284 2374 2509 2431 2373 2455
8 2432 2346 2431 2509 2364 2270 2363 2449
8 2375 2285 2374 2456 2433 2347 2432 2510
8 2347 2433 2365 2271 2432 2510 2450 2364
8 2350 2259 2351 2435 2436 2352 2437 2514
8 2440 2356 2437 2514 2355 2264 2351 2435
8 2352 2260 2354 2437 2438 2353 2439 2516
8 2356 2265 2358 2442 2437 2354 2439 2516
8 2440 2356 2264 2355 2518 2442 2357 2441
8 2519 2443 2357 2441 2447 2361 2268 2362
8 2443 2359 2444 2520 2357 2266 2358 2442
8 2443 2359 2267 2361 2520 2444 2360 2446
8 2446 2360 2279 2370 2523 2445 2369 2452
8 2453 2370 2446 2524 2371 2280 2361 2447
8 2449 2363 2448 2525 2368 2278 2369 2452
8 2366 2277 2364 2450 2451 2368 2449 2526
8 2372 2283 2368 2451 2453 2370 2452 2527
8 2455 2373 2295 2380 2529 2454 2382 2460
8 2456 2374 2292 2378 2530 2455 2380 2458
8 2377 2293 2379 2457 2458 2380 2459 2531
8 2463 2384 2459 2531 2383 2297 2379 2457
8 2533 2461 2382 2460 2459 2381 2295 2380
8 2464 2385 2461 2533 2384 2298 2381 2459
8 2466 2387 2464 2537 2386 2300 2384 2463
8 2467 2388 2465 2538 2387 2301 2385 2464
8 2469 2390 2467 2540 2389 2303 2387 2466
8 2470 2391 2468 2541 2390 2304 2388 2467
8 2472 2393 2470 2543 2392 2306 2390 2469
8 2393 2307 2394 2473 2470 2391 2471 2544
8 2395 2308 2396 2475 2472 2393 2473 2546
8 2396 2309 2397 2476 2473 2394 2474 2547
8 2475 2396 2311 2398 2549 2476 2399 2478
8 2476 2397 2312 2399 2550 2477 2400 2479
8 2478 2399 2314 2403 2552 2479 2402 2483
8 2479 2400 2313 2402 2553 2480 2401 2482
8 2405 2316 2404 2485 2482 2401 2481 2556
8 2406 2317 2405 2486 2483 2402 2482 2557
8 2408 2319 2407 2488 2485 2404 2484 2559
8 2409 2320 2408 2489 2486 2405 2485 2560
8 2411 2322 2410 2490 2488 2407 2487 2561
8 2412 2323 2411 2491 2489 2408 2488 2562
8 2414 2326 2413 2492 2491 2411 2490 2563
8 2513 2434 2493 2565 2438 2353 2416 2494
8 2496 2417 2352 2436 2567 2494 2438 2515
8 2494 2416 2495 2568 2417 2331 2418 2497
8 2419 2332 2417 2496 2499 2420 2497 2570
8 2497 2418 2498 2571 2420 2333 2421 2500
8 2499 2420 2500 2573 2422 2335 2423 2502
8 2500 2421 2501 2574 2423 2336 2424 2503
8 2502 2423 2503 2576 2425 2338 2426 2505
8 2503 2424 2504 2577 2426 2339 2427 2506
8 2505 2426 2506 2578 2429 2341 2428 2507
8 2509 2431 2373 2455 2580 2508 2454 2529
8 2509 2431 2508 2580 2449 2363 2448 2525
8 2432 2510 2581 2509 2374 2456 2530 2455
8 2432 2510 2450 2364 2509 2581 2526 2449
8 2583 2511 2434 2513 2516 2439 2353 2438
8 2436 2352 2437 2514 2515 2438 2516 2588
8 2440 2356 2442 2518 2514 2437 2516 2588
8 2442 2358 2444 2520 2516 2439 2517 2589
8 2519 2443 2520 2591 2441 2357 2442 2518
8 2519 2443 2361 2447 2591 2520 2446 2524
8 2446 2360 2445 2523 2520 2444 2521 2592
8 2525 2448 2522 2593 2452 2369 2445 2523
8 2524 2446 2370 2453 2594 2523 2452 2527
8 2526 2449 2525 2595 2451 2368 2452 2527
8 2534 2462 2528 2597 2460 2382 2454 2529
8 2530 2455 2380 2458 2598 2529 2460 2532
8 2599 2533 2460 2532 2531 2459 2380 2458
8 2537 2464 2533 2599 2463 2384 2459 2531
8 2534 2462 2382 2460 2601 2535 2461 2533
8 2538 2465 2535 2601 2464 2385 2461 2533
8 2540 2467 2538 2604 2466 2387 2464 2537
8 2541 2468 2539 2605 2467 2388 2465 2538
8 2543 2470 2541 2607 2469 2390 2467 2540
8 2470 2391 2471 2544 2541 2468 2542 2608
8 2472 2393 2473 2546 2543 2470 2544 2610
8 2473 2394 2474 2547 2544 2471 2545 2611
8 2475 2396 2476 2549 2546 2473 2547 2613
8 2476 2397 2477 2550 2547 2474 2548 2614
8 2549 2476 2399 2478 2616 2550 2479 2552
8 2479 2400 2480 2553 2550 2477 2551 2617
8 2552 2479 2402 2483 2619 2553 2482 2557
8 2482 2401 2481 2556 2553 2480 2554 2620
8 2485 2404 2484 2559 2556 2481 2555 2623
8 2486 2405 2485 2560 2557 2482 2556 2624
8 2488 2407 2487 2561 2559 2484 2558 2625
8 2489 2408 2488 2562 2560 2485 2559 2626
8 2491 2411 2490 2563 2562 2488 2561 2627
8 2513 2434 2512 2585 2565 2493 2564 2630
8 2586 2513 2565 2632 2515 2438 2494 2567
8 2565 2493 2566 2633 2494 2416 2495 2568
8 2567 2494 2568 2635 2496 2417 2497 2570
8 2568 2495 2569 2636 2497 2418 2498 2571
8 2570 2497 2571 2638 2499 2420 2500 2573
8 2571 2498 2572 2639 2500 2421 2501 2574
8 2573 2500 2574 2641 2502 2423 2503 2576
8 2574 2501 2575 2642 2503 2424 2504 2577
8 2576 2503 2577 2643 2505 2426 2506 2578
8 2597 2528 2579 2645 2529 2454 2508 2580
8 2580 2508 2579 2645 2525 2448 2522 2593
8 2581 2509 2455 2530 2646 2580 2529 2598
8 2581 2509 2580 2646 2526 2449 2525 2595
8 2583 2511 2582 2648 2513 2434 2512 2585
8 2583 2511 2439 2516 2648 2582 2517 2589
8 2649 2583 2513 2586 2588 2516 2438 2515
8 2589 2517 2444 2520 2653 2587 2521 2592
8 2518 2442 2520 2591 2588 2516 2589 2654
8 2593 2522 2590 2655 2523 2445 2521 2592
8 2524 2446 2523 2594 2591 2520 2592 2656
8 2595 2525 2593 2657 2527 2452 2523 2594
8 2602 2536 2596 2659 2534 2462 2528 2597
8 2600 2534 2597 2660 2532 2460 2529 2598
8 2600 2534 2460 2532 2661 2601 2533 2599
8 2604 2538 2601 2661 2537 2464 2533 2599
8 2602 2536 2462 2534 2663 2603 2535 2601
8 2601 2535 2465 2538 2663 2603 2539 2605
8 2607 2541 2605 2665 2540 2467 2538 2604
8 2608 2542 2606 2666 2541 2468 2539 2605
8 2543 2470 2544 2610 2607 2541 2608 2668
8 2544 2471 2545 2611 2608 2542 2609 2669
8 2546 2473 2547 2613 2610 2544 2611 2671
8 2547 2474 2548 2614 2611 2545 2612 2672
8 2549 2476 2550 2616 2613 2547 2614 2674
8 2550 2477 2551 2617 2614 2548 2615 2675
8 2552 2479 2553 2619 2616 2550 2617 2677
8 2553 2480 2554 2620 2617 2551 2618 2678
8 2557 2482 2556 2624 2619 2553 2620 2680
8 2556 2481 2555 2623 2620 2554 2621 2681
8 2559 2484 2558 2625 2623 2555 2622 2683
8 2560 2485 2559 2626 2624 2556 2623 2684
8 2562 2488 2561 2627 2626 2559 2625 2685
8 2690 2629 2564 2630 2650 2584 2512 2585
8 2586 2513 2585 2651 2632 2565 2630 2691
8 2630 2564 2631 2692 2565 2493 2566 2633
8 2632 2565 2633 2694 2567 2494 2568 2635
8 2633 2566 2634 2695 2568 2495 2569 2636
8 2635 2568 2636 2697 2570 2497 2571 2638
8 2636 2569 2637 2698 2571 2498 2572 2639
8 2638 2571 2639 2700 2573 2500 2574 2641
8 2639 2572 2640 2701 2574 2501 2575 2642
8 2641 2574 2642 2702 2576 2503 2577 2643
8 2597 2528 2596 2659 2645 2579 2644 2704
8 2645 2579 2644 2704 2593 2522 2590 2655
8 2660 2597 2645 2705 2598 2529 2580 2646
8 2646 2580 2645 2705 2595 2525 2593 2657
8 2650 2584 2512 2585 2707 2647 2582 2648
8 2648 2582 2517 2589 2707 2647 2587 2653
8 2649 2583 2648 2708 2586 2513 2585 2651
8 2649 2583 2516 2588 2708 2648 2589 2654
8 2655 2590 2652 2710 2592 2521 2587 2653
8 2654 2589 2520 2591 2711 2653 2592 2656
8 2657 2593 2655 2712 2594 2523 2592 2656
8 2602 2536 2603 2663 2659 2596 2658 2714
8 2662 2602 2659 2715 2600 2534 2597 2660
8 2662 2602 2534 2600 2717 2663 2601 2661
8 2661 2601 2538 2604 2717 2663 2605 2665
8 2666 2606 2664 2718 2605 2539 2603 2663
8 2668 2608 2666 2720 2607 2541 2605 2665
8 2608 2542 2609 2669 2666 2606 2667 2721
8 2610 2544 2611 2671 2668 2608 2669 2723
8 2611 2545 2612 2672 2669 2609 2670 2724
8 2613 2547 2614 2674 2671 2611 2672 2726
8 2614 2548 2615 2675 2672 2612 2673 2727
8 2616 2550 2617 2677 2674 2614 2675 2729
8 2617 2551 2618 2678 2675 2615 2676 2730
8 2619 2553 2620 2680 2677 2617 2678 2732
8 2620 2554 2621 2681 2678 2618 2679 2733
8 2624 2556 2623 2684 2680 2620 2681 2735
8 2681 2621 2555 2623 2736 2682 2622 2683
8 2626 2559 2625 2685 2684 2623 2683 2737
8 2688 2628 2584 2650 2740 2686 2647 2707
8 2688 2628 2687 2742 2650 2584 2629 2690
8 2690 2629 2689 2745 2630 2564 2631 2692
8 2746 2690 2630 2691 2709 2650 2585 2651
8 2691 2630 2692 2747 2632 2565 2633 2694
8 2692 2631 2693 2748 2633 2566 2634 2695
8 2694 2633 2695 2750 2635 2568 2636 2697
8 2695 2634 2696 2751 2636 2569 2637 2698
8 2697 2636 2698 2753 2638 2571 2639 2700
8 2698 2637 2699 2754 2639 2572 2640 2701
8 2700 2639 2701 2755 2641 2574 2642 2702
8 2659 2596 2658 2714 2704 2644 2703 2757
8 2704 2644 2703 2757 2655 2590 2652 2710
8 2660 2597 2659 2715 2705 2645 2704 2758
8 2705 2645 2704 2758 2657 2593 2655 2712
8 2759 2706 2647 2707 2710 2652 2587 2653
8 2709 2650 2585 2651 2760 2707 2648 2708
8 2708 2648 2589 2654 2760 2707 2653 2711
8 2712 2655 2710 2761 2656 2592 2653 2711
8 2763 2713 2658 2714 2718 2664 2603 2663
8 2662 2602 2663 2717 2715 2659 2714 2764
8 2720 2666 2718 2767 2665 2605 2663 2717
8 2768 2719 2664 2718 2721 2667 2606 2666
8 2668 2608 2669 2723 2720 2666 2721 2770
8 2669 2609 2670 2724 2721 2667 2722 2771
8 2671 2611 2672 2726 2723 2669 2724 2773
8 2672 2612 2673 2727 2724 2670 2725 2774
8 2674 2614 2675 2729 2726 2672 2727 2776
8 2675 2615 2676 2730 2727 2673 2728 2777
8 2677 2617 2678 2732 2729 2675 2730 2779
8 2678 2618 2679 2733 2730 2676 2731 2780
8 2680 2620 2681 2735 2732 2678 2733 2782
8 2733 2679 2621 2681 2783 2734 2682 2736
8 2735 2681 2623 2684 2784 2736 2683 2737
8 2740 2686 2647 2707 2787 2738 2706 2759
8 2688 2628 2686 2740 2742 2687 2739 2789
8 2743 2688 2650 2709 2790 2740 2707 2760
8 2742 2687 2741 2792 2690 2629 2689 2745
8 2743 2688 2742 2793 2709 2650 2690 2746
8 2745 2689 2744 2795 2692 2631 2693 2748
8 2746 2690 2745 2796 2691 2630 2692 2747
8 2747 2692 2748 2797 2694 2633 2695 2750
8 2748 2693 2749 2798 2695 2634 2696 2751
8 2750 2695 2751 2800 2697 2636 2698 2753
8 2751 2696 2752 2801 2698 2637 2699 2754
8 2753 2698 2754 2802 2700 2639 2701 2755
8 2763 2713 2756 2804 2714 2658 2703 2757
8 2759 2706 2652 2710 2804 2756 2703 2757
8 2715 2659 2714 2764 2758 2704 2757 2805
8 2758 2704 2757 2805 2712 2655 2710 2761
8 2806 2759 2707 2760 2761 2710 2653 2711
8 2765 2716 2762 2808 2718 2664 2713 2763
8 2809 2763 2714 2764 2767 2718 2663 2717
8 2765 2716 2664 2718 2811 2766 2719 2768
8 2813 2768 2718 2767 2770 2721 2666 2720
8 2814 2769 2719 2768 2771 2722 2667 2721
8 2723 2669 2724 2773 2770 2721 2771 2816
8 2724 2670 2725 2774 2771 2722 2772 2817
8 2726 2672 2727 2776 2773 2724 2774 2819
8 2727 2673 2728 2777 2774 2725 2775 2820
8 2729 2675 2730 2779 2776 2727 2777 2822
8 2730 2676 2731 2780 2777 2728 2778 2823
8 2732 2678 2733 2782 2779 2730 2780 2825
8 2780 2731 2679 2733 2826 2781 2734 2783
8 2782 2733 2681 2735 2827 2783 2736 2784
8 2830 2785 2738 2787 2804 2756 2706 2759
8 2789 2739 2686 2740 2832 2786 2738 2787
8 2790 2740 2707 2760 2833 2787 2759 2806
8 2742 2687 2739 2789 2792 2741 2788 2835
8 2743 2688 2740 2790 2793 2742 2789 2836
8 2792 2741 2791 2838 2745 2689 2744 2795
8 2793 2742 2792 2839 2746 2690 2745 2796
8 2795 2744 2794 2841 2748 2693 2749 2798
8 2796 2745 2795 2842 2747 2692 2748 2797
8 2797 2748 2798 2843 2750 2695 2751 2800
8 2798 2749 2799 2844 2751 2696 2752 2801
8 2800 2751 2801 2845 2753 2698 2754 2802
8 2808 2762 2803 2847 2763 2713 2756 2804
8 2809 2763 2804 2848 2764 2714 2757 2805
8 2806 2759 2710 2761 2848 2804 2757 2805
8 2765 2716 2766 2811 2808 2762 2807 2850
8 2810 2765 2808 2851 2767 2718 2763 2809
8 2810 2765 2718 2767 2852 2811 2768 2813
8 2811 2766 2719 2768 2853 2812 2769 2814
8 2855 2814 2768 2813 2816 2771 2721 2770
8 2856 2815 2769 2814 2817 2772 2722 2771
8 2773 2724 2774 2819 2816 2771 2817 2858
8 2774 2725 2775 2820 2817 2772 2818 2859
8 2776 2727 2777 2822 2819 2774 2820 2861
8 2777 2728 2778 2823 2820 2775 2821 2862
8 2779 2730 2780 2825 2822 2777 2823 2864
8 2823 2778 2731 2780 2865 2824 2781 2826
8 2825 2780 2733 2782 2866 2826 2783 2827
8 2869 2828 2785 2830 2847 2803 2756 2804
8 2871 2829 2786 2832 2830 2785 2738 2787
8 2872 2830 2787 2833 2848 2804 2759 2806
8 2789 2739 2786 2832 2835 2788 2831 2874
8 2836 2789 2740 2790 2875 2832 2787 2833
8 2792 2741 2788 2835 2838 2791 2834 2877
8 2793 2742 2789 2836 2839 2792 2835 2878
8 2838 2791 2837 2880 2795 2744 2794 2841
8 2839 2792 2838 2881 2796 2745 2795 2842
8 2841 2794 2840 2882 2798 2749 2799 2844
8 2842 2795 2841 2883 2797 2748 2798 2843
8 2843 2798 2844 2884 2800 2751 2801 2845
8 2886 2846 2803 2847 2850 2807 2762 2808
8 2851 2808 2847 2887 2809 2763 2804 2848
8 2850 2807 2766 2811 2889 2849 2812 2853
8 2810 2765 2811 2852 2851 2808 2850 2890
8 2852 2811 2768 2813 2891 2853 2814 2855
8 2853 2812 2769 2814 2892 2854 2815 2856
8 2894 2856 2814 2855 2858 2817 2771 2816
8 2817 2772 2818 2859 2856 2815 2857 2895
8 2819 2774 2820 2861 2858 2817 2859 2897
8 2820 2775 2821 2862 2859 2818 2860 2898
8 2822 2777 2823 2864 2861 2820 2862 2900
8 2823 2778 2824 2865 2862 2821 2863 2901
8 2864 2823 2780 2825 2902 2865 2826 2866
8 2904 2867 2828 2869 2886 2846 2803 2847
8 2869 2828 2868 2906 2830 2785 2829 2871
8 2907 2869 2830 2872 2887 2847 2804 2848
8 2871 2829 2870 2909 2832 2786 2831 2874
8 2910 2871 2832 2875 2872 2830 2787 2833
8 2835 2788 2831 2874 2877 2834 2873 2912
8 2836 2789 2832 2875 2878 2835 2874 2913
8 2877 2834 2876 2915 2838 2791 2837 2880
8 2839 2792 2835 2878 2881 2838 2877 2916
8 2880 2837 2879 2917 2841 2794 2840 2882
8 2881 2838 2880 2918 2842 2795 2841 2883
8 2883 2841 2882 2919 2843 2798 2844 2884
8 2921 2885 2846 2886 2889 2849 2807 2850
8 2922 2886 2847 2887 2890 2850 2808 2851
8 2889 2849 2812 2853 2924 2888 2854 2892
8 2890 2850 2811 2852 2925 2889 2853 2891
8 2891 2853 2814 2855 2926 2892 2856 2894
8 2892 2854 2815 2856 2927 2893 2857 2895
8 2858 2817 2859 2897 2894 2856 2895 2929
8 2859 2818 2860 2898 2895 2857 2896 2930
8 2861 2820 2862 2900 2897 2859 2898 2932
8 2862 2821 2863 2901 2898 2860 2899 2933
8 2864 2823 2865 2902 2900 2862 2901 2934
8 2904 2867 2846 2886 2936 2903 2885 2921
8 2904 2867 2903 2936 2869 2828 2868 2906
8 2937 2904 2869 2907 2922 2886 2847 2887
8 2906 2868 2905 2939 2871 2829 2870 2909
8 2907 2869 2906 2940 2872 2830 2871 2910
8 2909 2870 2908 2942 2874 2831 2873 2912
8 2910 2871 2909 2943 2875 2832 2874 2913
8 2912 2873 2911 2945 2877 2834 2876 2915
8 2878 2835 2874 2913 2916 2877 2912 2946
8 2915 2876 2914 2947 2880 2837 2879 2917
8 2916 2877 2915 2948 2881 2838 2880 2918
8 2918 2880 2917 2949 2883 2841 2882 2919
8 2921 2885 2849 2889 2951 2920 2888 2924
8 2952 2921 2886 2922 2925 2889 2850 2890
8 2924 2888 2854 2892 2954 2923 2893 2927
8 2925 2889 2853 2891 2955 2924 2892 2926
8 2926 2892 2856 2894 2956 2927 2895 2929
8 2895 2857 2896 2930 2927 2893 2928 2957
8 2897 2859 2898 2932 2929 2895 2930 2959
8 2898 2860 2899 2933 2930 2896 2931 2960
8 2900 2862 2901 2934 2932 2898 2933 2961
8 2936 2903 2885 2921 2963 2935 2920 2951
8 2936 2903 2935 2963 2906 2868 2905 2939
8 2937 2904 2886 2922 2964 2936 2921 2952
8 2937 2904 2936 2964 2907 2869 2906 2940
8 2939 2905 2938 2966 2909 2870 2908 2942
8 2940 2906 2939 2967 2910 2871 2909 2943
8 2942 2908 2941 2969 2912 2873 2911 2945
8 2943 2909 2942 2970 2913 2874 2912 2946
8 2945 2911 2944 2971 2915 2876 2914 2947
8 2946 2912 2945 2972 2916 2877 2915 2948
8 2948 2915 2947 2973 2918 2880 2917 2949
8 2951 2920 2888 2924 2975 2950 2923 2954
8 2952 2921 2889 2925 2976 2951 2924 2955
8 2927 2893 2928 2957 2954 2923 2953 2978
8 2955 2924 2892 2926 2979 2954 2927 2956
8 2929 2895 2930 2959 2956 2927 2957 2980
8 2930 2896 2931 2960 2957 2928 2958 2981
8 2932 2898 2933 2961 2959 2930 2960 2982
8 2951 2920 2950 2975 2963 2935 2962 2984
8 2963 2935 2962 2984 2939 2905 2938 2966
8 2964 2936 2921 2952 2985 2963 2951 2976
8 2964 2936 2963 2985 2940 2906 2939 2967
8 2966 2938 2965 2987 2942 2908 2941 2969
8 2967 2939 2966 2988 2943 2909 2942 2970
8 2969 2941 2968 2989 2945 2911 2944 2971
8 2970 2942 2969 2990 2946 2912 2945 2972
8 2972 2945 2971 2991 2948 2915 2947 2973
8 2954 2923 2953 2978 2975 2950 2974 2993
8 2976 2951 2924 2955 2994 2975 2954 2979
8 2957 2928 2958 2981 2978 2953 2977 2995
8 2956 2927 2957 2980 2979 2954 2978 2996
8 2959 2930 2960 2982 2980 2957 2981 2997
8 2984 2962 2983 2999 2966 2938 2965 2987
8 2975 2950 2974 2993 2984 2962 2983 2999
8 2976 2951 2975 2994 2985 2963 2984 3000
8 2985 2963 2984 3000 2967 2939 2966 2988
8 2987 2965 2986 3001 2969 2941 2968 2989
8 2988 2966 2987 3002 2970 2942 2969 2990
8 2990 2969 2989 3003 2972 2945 2971 2991
8 2978 2953 2977 2995 2993 2974 2992 3004
8 2979 2954 2978 2996 2994 2975 2993 3005
8 2980 2957 2981 2997 2996 2978 2995 3006
8 2974 2993 2999 2983 2992 3004 3007 2998
8 2983 2999 2987 2965 2998 3007 3001 2986
8 3000 2984 2999 3008 2988 2966 2987 3002
8 2994 2975 2993 3005 3000 2984 2999 3008
8 3002 2987 3001 3009 2990 2969 2989 3003
8 2996 2978 2995 3006 3005 2993 3004 3010
8 3005 2993 3004 3010 3008 2999 3007 3011
8 3008 2999 3007 3011 3002 2987 3001 3009

CELL_TYPES 1910
12
12
12
12
12
12
12
12
12
12
12
12
12
12
12
12
12
12
12
12
12
12
12
12
12
12
12
12
12
12
12
12
12
12
12
12
12
12
12
12
12
12
12
12
12
12
12
12
12
12
12
12
12
12
12
12
12
12
12
12
12
12
12
12
12
12
12
12
12
12
12
12
12
12
12
12
12
12
12
12
12
12
12
12
12
12
12
12
12
12
12
12
12
12
12
12
12
12
12
12
12
12
12
12
12
12
12
12
12
12
12
12
12
12
12
12
12
12
12
12
12
12
12
12
12
12
12
12
12
12
12
12
12
12
12
12
12
12
12
12
12
12
12
12
12
12
12
12
12
12
12
12
12
12
12
12
12
12
12
12
12
12
12
12
12
12
12
12
12
12
12
12
12
12
12
12
12
12
12
12
12
12
12
12
12
12
12
12
12
12
12
12
12
12
12
12
12
12
12
12
12
12
12
12
12
12
12
12
12
12
12
12
12
12
12
12
12
12
12
12
12
12
12
12
12
12
12
12
12
12
12
12
12
12
12
12
12
12
12
12
12
12
12
12
12
12
12
12
12
12
12
12
12
12
12
12
12
12
12
12
12
12
12
12
12
12
12
12
12
12
12
12
12
12
12
12
12
12
12
12
12
12
12
12
12
12
12
12
12
12
12
12
12
12
12
12
12
12
12
12
12
12
12
12
12
12
12
12
12
12
12
12
12
12
12
12
12
12
12
12
12
12
12
12
12
12
12
12
12
12
12
12
12
12
12
12
12
12
12
12
12
12
12
12
12
12
12
12
12
12
12
12
12
12
12
12
12
12
12
12
12
12
12
12
12
12
12
12
12
12
12
12
12
12
12
12
12
12
12
12
12
12
12
12
12
12
12
12
12
12
12
12
12
12
12
12
12
12
12
12
12
12
12
12
12
12
12
12
12
12
12
12
12
12
12
12
12
12
12
12
12
12
12
12
12
12
12
12
12
12
12
12
12
12
12
12
12
12
12
12
12
12
12
12
12
12
12
12
12
12
12
12
12
12
12
12
12
12
12
12
12
12
12
12
12
12
12
12
12
12
12
12
12
12
12
12
12
12
12
12
12
12
12
12
12
12
12
12
12
12
12
12
12
12
12
12
12
12
12
12
12
12
12
12
12
12
12
12
12
12
12
12
12
12
12
12
12
12
12
12
12
12
12
12
12
12
12
12
12
12
12
12
12
12
12
12
12
12
12
12
12
12
12
12
12
12
12
12
12
12
12
12
12
12
12
12
12
12
12
12
12
12
12
12
12
12
12
12
12
12
12
12
12
12
12
12
12
12
12
12
12
12
12
12
12
12
12
12
12
12
12
12
12
12
12
12
12
12
12
12
12
12
12
12
12
12
12
12
12
12
12
12
12
12
12
12
12
12
12
12
12
12
12
12
12
12
12
12
12
12
12
12
12
12
12
12
12
12
12
12
12
12
12
12
12
12
12
12
12
12
12
12
12
12
12
12
12
12
12
12
12
12
12
12
12
12
12
12
12
12
12
12
12
12
12
12
12
12
12
12
12
12
12
12
12
12
12
12
12
12
12
12
12
12
12
12
12
12
12
12
12
12
12
12
12
12
12
12
12
12
12
12
12
12
12
12
12
12
12
12
12
12
12
12
12
12
12
12
12
12
12
12
12
12
12
12
12
12
12
12
12
12
12
12
12
12
12
12
12
12
12
12
12
12
12
12
12
12
12
12
12
12
12
12
12
12
12
12
12
12
12
12
12
12
12
12
12
12
12
12
12
12
12
12
12
12
12
12
12
12
12
12
12
12
12
12
12
12
12
12
12
12
12
12
12
12
12
12
12
12
12
12
12
12
12
12
12
12
12
12
12
12
12
12
12
12
12
12
12
12
12
12
12
12
12
12
12
12
12
12
12
12
12
12
12
12
12
12
12
12
12
12
12
12
12
12
12
12
12
12
12
12
12
12
12
12
12
12
12
12
12
12
12
12
12
12
12
12
12
12
12
12
12
12
12
12
12
12
12
12
12
12
12
12
12
12
12
12
12
12
12
12
12
12
12
12
12
12
12
12
12
12
12
12
12
12
12
12
12
12
12
12
12
12
12
12
12
12
12
12
12
12
12
12
12
12
12
12
12
12
12
12
12
12
12
12
12
12
12
12
12
12
12
12
12
12
12
12
12
12
12
12
12
12
12
12
12
12
12
12
12
12
12
12
12
12
12
12
12
12
12
12
12
12
12
12
12
12
12
12
12
12
12
12
12
12
12
12
12
12
12
12
12
12
12
12
12
12
12
12
12
12
12
12
12
12
12
12
12
12
12
12
12
12
12
12
12
12
12
12
12
12
12
12
12
12
12
12
12
12
12
12
12
12
12
12
12
12
12
12
12
12
12
12
12
12
12
12
12
12
12
12
12
12
12
12
12
12
12
12
12
12
12
12
12
12
12
12
12
12
12
12
12
12
12
12
12
12
12
12
12
12
12
12
12
12
12
12
12
12
12
12
12
12
12
12
12
12
12
12
12
12
12
12
12
12
12
12
12
12
12
12
12
12
12
12
12
12
12
12
12
12
12
12
12
12
12
12
12
12
12
12
12
12
12
12
12
12
12
12
12
12
12
12
12
12
12
12
12
12
12
12
12
12
12
12
12
12
12
12
12
12
12
12
12
12
12
12
12
12
12
12
12
12
12
12
12
12
12
12
12
12
12
12
12
12
12
12
12
12
12
12
12
12
12
12
12
12
12
12
12
12
12
12
12
12
12
12
12
12
12
12
12
12
12
12
12
12
12
12
12
12
12
12
12
12
12
12
12
12
12
12
12
12
12
12
12
12
12
12
12
12
12
12
12
12
12
12
12
12
12
12
12
12
12
12
12
12
12
12
12
12
12
12
12
12
12
12
12
12
12
12
12
12
12
12
12
12
12
12
12
12
12
12
12
12
12
12
12
12
12
12
12
12
12
12
12
12
12
12
12
12
12
12
12
12
12
12
12
12
12
12
12
12
12
12
12
12
12
12
12
12
12
12
12
12
12
12
12
12
12
12
12
12
12
12
12
12
12
12
12
12
12
12
12
12
12
12
12
12
12
12
12
12
12
12
12
12
12
12
12
12
12
12
12
12
12
12
12
12
12
12
12
12
12
12
12
12
12
12
12
12
12
12
12
12
12
12
12
12
12
12
12
12
12
12
12
12
12
12
12
12
12
12
12
12
12
12
12
12
12
12
12
12
12
12
12
12
12
12
12
12
12
12
12
12
12
12
12
12
12
12
12
12
12
12
12
12
12
12
12
12
12
12
12
12
12
12
12
12
12
12
12
12
12
12
12
12
12
12
12
12
12
12
12
12
12
12
12
12
12
12
12
12
12
12
12
12
12
12
12
12
12
12
12
12
12
12
12
12
12
12
12
12
12
12
12
12
12
12
12
12
12
12
12
12
12
12
12
12
12
12
12
12
12
12
12
12
12
12
12
12
12
12
12
12
12
12
12
12
12
12
12
12
12
12
12
12
12
12
12
12
12
12
12
12
12
12
12
12
12
12
12
12
12
12
12
12
12
12
12
12
12
12
12
12
12
12
12
12
12
12
12
12
12
12
12
12
12
12
12
12
12
12
12
12
12
12
12
12
12
12
12
12
12
12
12
12
12
12
12
12
12
12
12
12
12
12
12
12
12
12
12
12
12
12
12
12
12
12
12
12
12
12
12
12
12
12
12
12
12
12
12
12
12
12
12
12
12
12
12
12
12
12
12
12
12
12
12
12
12
12
12
12
12
12
12
12
12
12
12
12
12
12
12
12
12
12
12
12
12
12
12
12
12
12
12
12
12
12
12
12
12
12
12
12
12
12
12
12
12
12
12
12
12
12
12
12
12
12
12
12
12
12
12
12
12
12
12
12
12
12
12
12
12
12
12
12
12
12
12
12
12
12
12
12
12
12
12
12
12
12
12
12
12
12
12
12
12
12
12
12
12
12
12
12
12
12
12
12
12
12
12
12
12
12
12
12
12
12
12
12
12
12
12
12
12
12
12
12
12
12
12
12
12
12
12
12
12
12
12
12
12
12
12
12
12
12
12
12
12
12
12
12
12
12
12
12
12
12
12
12
12
12
12
12
12
12
12
12
12
12
12
12
12
12
12
12
12
12
12
12
12
12
12
12
12
12
12
12
12
12
12
12
12
12
12
12
12
12
12
12
12
12
12
12
12
12
12
12
12
12
12
12
12
12
12
12
12
12
12
12
12
12
12
12
12
12
12
12
12
12
12
12
12
12
12
12
12
12
12
12
12
12
12
12
12
12
12
12
12
12
12
12
12
12
12
12
12
12

POINT_DATA 3012
SCALARS Jp_lamdaP float 4
LOOKUP_TABLE default
0.999765 1 1 0.999765
1 1 1 1
0.999772 1 1 0.999772
0.999715 1 1 0.999715
0.999766 1 1 0.999766
0.999753 1 1 0.999753
0.999077 1 1 0.999077
1 1 1 1
1 1 1 1
1 1 1 1
0.999839 1 1 0.999839
0.999213 1 1 0.999213
0.999692 1 1 0.999692
0.999712 1 1 0.999712
0.999773 1 1 0.999773
0.999736 1 1 0.999736
0.999759 1 1 0.999759
0.999779 1 1 0.999779
0.999079 1 1 0.999079
1 1 1 1
0.999694 1 1 0.999694
0.999745 1 1 0.999745
0.998947 1 1 0.998947
0.99905 1 1 0.99905
0.999766 1 1 0.999766
0.999101 1 1 0.999101
1.00494 1.00694 1 0.998008
1 1 1 1
0.999872 1 1 0.999872
0.999886 1 1 0.999886
1 1 1 1
0.999221 1 1 0.999221
0.999738 1 1 0.999738
0.999763 1 1 0.999763
0.999195 1 1 0.999195
1 1 1 1
0.999281 1 1 0.999281
0.999313 1 1 0.999313
0.999911 1.0019 1 0.998012
1 1 1 1
1 1 1 1
0.999855 1 1 0.999855
1 1 1 1
0.99971 1 1 0.99971
0.998874 1 1 0.998874
1 1 1 1
0.999096 1 1 0.999096
0.999754 1 1 0.999754
0.999787 1 1 0.999787
0.99976 1 1 0.99976
0.999085 1 1 0.999085
0.999838 1 1 0.999838
0.999714 1 1 0.999714
0.999778 1 1 0.999778
0.999764 1 1 0.999764
0.998945 1 1 0.998945
0.999105 1 1 0.999105
0.999052 1 1 0.999052
1.00535 1.00737 1 0.997993
1 1 1 1
0.999688 1 1 0.999688
0.999095 1 1 0.999095
0.998912 1 1 0.998912
0.999001 1 1 0.999001
1.00816 1.01046 1 0.997719
1.00636 1.00853 1 0.997844
0.999828 1 1 0.999828
0.99921 1 1 0.99921
1.00261 1.00451 1 0.998107
1.01869 1.02159 1 0.997164
1 1 1 1
1 1 1 1
1 1 1 1
0.999229 1 1 0.999229
1 1 1 1
1 1 1 1
0.999067 1 1 0.999067
0.999948 1 1 0.999948
0.999172 1 1 0.999172
0.999399 1 1 0.999399
0.999375 1.00137 1 0.998008
1 1 1 1
1.00044 1 1.00057 0.999872
0.998997 1 1 0.998997
0.999102 1 1 0.999102
1.00836 1.0108 1 0.997586
0.999643 1 1.00004 0.999602
1.00288 1.00498 1 0.997911
0.998569 1.00042 1 0.998154
1.00355 1.00621 1 0.99736
1 1 1 1
1 1 1 1
1 1 1 1
1 1 1 1
1 1 1 1
0.999852 1 1 0.999852
0.998978 1 1 0.998978
0.999858 1 1 0.999858
0.999026 1 1 0.999026
1 1 1 1
0.998874 1 1 0.998874
0.999077 1 1 0.999077
1.00734 1.01002 1 0.997338
0.999132 1 1 0.999132
1.00974 1.01237 1 0.997401
0.999712 1 1 0.999712
0.999732 1 1 0.999732
0.999787 1 1 0.999787
0.999779 1 1 0.999779
0.998946 1 1 0.998946
0.999056 1 1 0.999056
0.999111 1 1 0.999111
1.00576 1.0078 1 0.997978
1 1 1 1
0.999707 1 1 0.999707
0.9989 1 1 0.9989
0.998908 1 1 0.998908
0.999914 1 1 0.999914
0.999277 1 1 0.999277
0.999002 1 1 0.999002
1.00813 1.01047 1 0.997678
1.00326 1.00518 1 0.998088
1.00661 1.00875 1 0.997874
1.01859 1.02148 1 0.99717
0.998897 1 1 0.998897
0.998898 1 1 0.998898
1.00663 1.00911 1 0.997543
1.00817 1.01059 1 0.997609
1.0078 1.01009 1 0.997732
1.02706 1.03013 1 0.997023
1 1 1 1
1.02145 1.02441 1 0.997113
0.999591 1 1.00016 0.999434
0.999792 1.00169 1 0.99811
1.01533 1.01816 1 0.997214
1.02779 1.03091 1 0.996968
1.00055 1 1.00085 0.999698
1.00357 1 1.00479 0.998792
1 1 1 1
1 1 1 1
0.999073 1 1 0.999073
1 1 1 1
0.999376 1 1 0.999376
0.999178 1 1 0.999178
0.998725 1.00072 1 0.998005
1 1 1 1
1.00006 1 1.00017 0.999892
0.999082 1 1 0.999082
0.999181 1 1 0.999181
1.00775 1.01019 1 0.997587
0.999741 1 1.00016 0.999585
1.00192 1.00401 1 0.997914
0.998344 1.00019 1 0.998152
1.00344 1.00611 1 0.997344
1.00024 1 1.0005 0.999739
0.999951 1 1 0.999951
1.00122 1 1.00219 0.999037
1.00977 1.01232 1 0.997478
1.00603 1.0083 1 0.997749
1.02315 1.02626 1 0.996974
0.998588 1 1.00018 0.998409
1.01027 1.01304 1 0.99727
1.00219 1.00418 1.00057 0.99745
1.011 1.01387 1 0.997169
1 1 1 1
1 1 1 1
1 1 1 1
0.999919 1 1.00012 0.999803
1 1 1 1
1 1 1 1
1 1 1 1
0.998955 1 1 0.998955
0.998904 1 1 0.998904
1 1 1 1
1 1 1 1
0.998875 1 1 0.998875
0.999007 1 1 0.999007
1.00773 1.01042 1 0.997338
0.99898 1 1 0.99898
1.00993 1.01256 1 0.997401
0.998869 1 1 0.998869
1.0063 1.00903 1 0.997297
1.00858 1.01123 1 0.997381
1.02935 1.03257 1 0.996883
1.01016 1.01277 1 0.997423
1.03209 1.03528 1 0.996917
1 1 1 1
0.999727 1 1 0.999727
0.998687 1 1 0.998687
0.998906 1 1 0.998906
1 1 1 1
0.999345 1 1 0.999345
0.999004 1 1 0.999004
1.00807 1.01046 1 0.997637
1.00688 1.009 1 0.997904
1.00391 1.00585 1 0.99807
1.01847 1.02136 1 0.997175
0.998894 1 1 0.998894
0.998894 1 1 0.998894
1.00647 1.00906 1 0.997432
1.00817 1.01056 1 0.997636
1 1 1 1
0.999516 1 1.00006 0.999454
1.0007 1.00253 1 0.998176
1.00774 1.01004 1 0.997729
1.02697 1.03007 1 0.996994
1.01469 1.01754 1 0.997204
1.02166 1.02458 1 0.997148
1.02737 1.03049 1 0.996975
1.00075 1 1.00106 0.999687
1.00311 1 1.00433 0.998794
1.0058 1.0085 1 0.997319
1.00709 1.00953 1 0.997582
1.02772 1.03084 1 0.996968
1.02763 1.03078 1 0.99694
1.02413 1.0271 1 0.99711
1.03698 1.04011 1 0.996993
1.00035 1 1.00078 0.999572
1.0299 1.033 1 0.997001
0.998664 1.00027 1.00011 0.998285
1.00837 1.01108 1 0.99732
1.02541 1.02853 1 0.996963
1.02942 1.03245 1 0.997069
1.00269 1 1.0041 0.998598
1.00066 1 1.00162 0.999035
1.00304 1 1.00488 0.998168
0.999022 1 1 0.999022
1 1 1 1
0.999913 1 1 0.999913
0.999133 1 1 0.999133
1.00715 1.00958 1 0.997589
0.999869 1 1.00028 0.99959
0.998231 1.00004 1.00004 0.998151
1.00097 1.00306 1 0.997917
1.00366 1.00635 1 0.997328
1.0002 1 1.00044 0.99976
0.999963 1 1 0.999963
1.0015 1 1.00246 0.999039
1.00943 1.01198 1 0.997477
1.00515 1.00741 1 0.997753
1.02326 1.02637 1 0.99697
0.998667 1 1.00026 0.998413
1.01103 1.01379 1 0.997278
1.00158 1.00368 1.00047 0.997446
1.01182 1.01471 1 0.997157
0.999985 1 1 0.999985
1.00004 1 1.00134 0.998703
1.00049 1 1.00112 0.999363
1.00178 1 1.00338 0.99841
1.02729 1.03047 1 0.996912
1.01772 1.02065 1 0.997122
1.03039 1.03366 1 0.99684
0.99992 1.00169 1.00049 0.997747
1.01871 1.02165 1 0.997117
1.01038 1.0117 1.00158 0.997117
1.02112 1.02415 1 0.997038
0.999772 1 1 0.999772
1 1 1 1
1 1 1 1
1 1 1 1
1 1 1 1
0.999888 1 1 0.999888
1 1 1 1
1.00031 1 1.00052 0.99979
1 1 1 1
0.99898 1 1 0.99898
0.998933 1 1 0.998933
1.0102 1.01283 1 0.9974
1.0081 1.01079 1 0.997339
0.998877 1 1 0.998877
1 1 1 1
0.998868 1 1 0.998868
1.00657 1.0093 1 0.997297
1.00899 1.01164 1 0.99738
1.02917 1.03239 1 0.996881
1.01017 1.01279 1 0.997422
1.03194 1.03513 1 0.996915
1.00568 1.00841 1 0.997292
1.02799 1.03125 1 0.996846
1.03121 1.0344 1 0.996909
1.04318 1.04644 0.999844 0.997041
1.03097 1.03417 1 0.996909
1.04161 1.04476 1 0.996993
0.998891 1 1 0.998891
0.99889 1 1 0.99889
1.00633 1.00903 1 0.997321
1.00818 1.01054 1 0.997663
1 1 1 1
0.999473 1 1 0.999473
1.00152 1.00328 1 0.998241
1.00769 1.00999 1 0.997726
1.0269 1.03003 1 0.996964
1.02181 1.0247 1 0.997183
1.01407 1.01692 1 0.997194
1.02707 1.03017 1 0.996983
1.00092 1 1.00124 0.999677
1.00269 1 1.0039 0.998796
1.00573 1.00846 1 0.997295
1.00707 1.00952 1 0.997578
1.02767 1.03079 1 0.996977
1.02781 1.03094 1 0.996967
1.00017 1 1.00061 0.999561
0.998954 1.00061 1.00006 0.998283
1.00874 1.01141 1 0.997356
1.02443 1.02741 1 0.997101
1.03703 1.04013 1 0.99702
1.02484 1.02799 1 0.996934
1.02991 1.033 1 0.997005
1.0297 1.03273 1 0.997068
1.00195 1 1.00335 0.998601
1.00321 1 1.00505 0.99817
1.00123 1 1.0022 0.999033
1.02686 1.03003 1 0.996924
1.02842 1.03151 1 0.996997
1.04189 1.04508 0.999946 0.997003
1.03852 1.04166 1 0.996987
1.03275 1.03583 1 0.997034
1.0357 1.03874 0.999818 0.997257
0.998993 1 1.00054 0.998458
1.03147 1.03442 1 0.997156
1.00144 1.00381 1 0.997641
1.0165 1.01966 1 0.996901
1.02635 1.02959 1 0.996852
1.0258 1.0286 1 0.997278
0.999706 1 1.00045 0.999258
0.998748 1 1.00065 0.998098
1.0053 1 1.00701 0.998298
1.00058 1 1.00263 0.997959
1.0091 1.01165 1 0.997476
0.999975 1 1 0.999975
0.999934 1 1.00015 0.999782
1.00154 1 1.0025 0.99904
1.00427 1.00653 1 0.997757
1.02335 1.02646 1 0.996966
0.998663 1 1.00025 0.998417
1.00051 1.00274 1.00033 0.997441
1.01176 1.01451 1 0.997286
1.01213 1.01503 1 0.997144
0.99999 1 1 0.99999
1.00056 1 1.00186 0.998704
1.00007 1 1.0007 0.999372
1.00223 1 1.00383 0.998404
1.02719 1.03038 1 0.996907
1.01776 1.0207 1 0.997122
1.03015 1.03342 1 0.996837
0.999223 1.00102 1.00045 0.997753
1.01869 1.02162 1 0.997125
1.01005 1.01123 1.00173 0.997107
1.02117 1.02413 1 0.997111
0.999997 1 1 0.999997
0.999579 1 1 0.999579
0.999468 1.00016 1.0012 0.99811
1.00165 1 1.00294 0.998716
1.00045 1 1.00234 0.998109
1.03448 1.03775 1 0.996853
1.02466 1.02779 1 0.996954
1.02738 1.03056 1 0.996913
1.00467 1.00532 1.00199 0.997369
1.01918 1.02217 1 0.997077
1.01255 1.01488 1.00086 0.996844
0.999745 1 1 0.999745
0.999293 1 1 0.999293
0.999792 1 1 0.999792
0.999774 1 1 0.999774
1 1 1 1
1 1 1 1
1 1 1 1
1 1 1 1
1 1 1 1
0.999952 1 1 0.999952
1 1 1 1
0.999873 1 1 0.999873
1 1 1 1
1.00069 1 1.00091 0.999777
1 1 1 1
1.01014 1.01276 1 0.99742
1.00932 1.01198 1 0.99738
1.03157 1.03476 1 0.996912
1.02896 1.03218 1 0.996879
1.00692 1.00965 1 0.997297
0.998868 1 1 0.998868
1.00586 1.00859 1 0.997291
1.02777 1.03102 1 0.996846
1.03091 1.03411 1 0.996907
1.04268 1.04623 0.999546 0.997059
1.03037 1.03357 1 0.996905
1.04134 1.04448 1 0.996991
1.02707 1.03033 1 0.996837
1.04149 1.04551 0.999099 0.997058
1.04359 1.04671 0.999997 0.997028
1.04195 1.04744 0.997486 0.997268
1.03751 1.04071 1 0.996928
1.04074 1.0442 0.999382 0.997304
1.0057 1.00845 1 0.997271
1.00707 1.00952 1 0.997574
1.02766 1.03077 1 0.996986
1.02797 1.03107 1 0.996993
0.999994 1 1.00044 0.99955
0.999253 1.00097 1 0.998281
1.00931 1.01195 1 0.997391
1.02476 1.02774 1 0.997092
1.0371 1.04017 1 0.997048
1.02993 1.03302 1 0.99701
1.02412 1.0273 1 0.996906
1.02999 1.03302 1 0.997067
1.00125 1 1.00265 0.998603
1.00342 1 1.00526 0.998173
1.0017 1 1.00267 0.99903
1.02688 1.03008 1 0.996892
1.02862 1.03172 1 0.996995
1.04156 1.04481 0.999861 0.997035
1.03865 1.04179 1 0.996981
0.999093 1.00002 1.00062 0.998456
1.00295 1.00533 1 0.997635
1.01522 1.01829 1.00003 0.99695
1.03301 1.0361 1 0.997017
1.03575 1.03874 0.999825 0.997303
1.02665 1.02992 1 0.996817
1.03118 1.03411 1 0.99716
1.02623 1.029 1 0.99731
0.999287 1.00009 1.00109 0.9981
1.00072 1.00005 1.00274 0.997936
1 1 1.00075 0.999254
1.00484 1 1.00652 0.998331
1.04162 1.04493 0.999821 0.997008
1.04116 1.04431 0.999961 0.997018
1.03931 1.0448 0.997554 0.997182
1.03671 1.04118 0.998385 0.997317
1.03339 1.03623 1 0.997256
1.03304 1.03736 0.998352 0.997482
0.998512 1.00059 1 0.997927
1.02703 1.02974 0.999894 0.99748
1.00647 1.00928 1 0.997214
1.01685 1.02006 1.00018 0.996676
1.02771 1.031 1 0.996809
1.02625 1.02898 1 0.997348
0.999429 1 1 0.999429
1.00243 1 1.0039 0.998535
0.998054 1.00018 1 0.997872
1.00351 1 1.00546 0.998057
1.00015 1.00016 1.00209 0.997904
0.999994 1 1 0.999994
1.02704 1.03023 1 0.996903
0.999662 1 1.00028 0.99938
1.00135 1 1.00265 0.998705
1.00282 1 1.00442 0.998399
1.01784 1.02078 1 0.997121
1.02995 1.03322 1 0.996834
0.998701 1.00044 1.00051 0.997759
1.01065 1.01164 1.00193 0.997096
1.01875 1.02168 1 0.997134
1.02151 1.02439 1 0.997183
0.999998 1 1 0.999998
0.999588 1 1 0.999588
0.999197 1.00005 1.00103 0.998112
1.00203 1 1.00332 0.998716
1.00078 1 1.0027 0.998087
1.0345 1.03777 1 0.996847
1.02477 1.02791 1 0.996952
1.0273 1.03049 1 0.996902
1.00371 1.00421 1.00213 0.997375
1.02178 1.02477 1 0.997079
1.01241 1.01462 1.00096 0.996863
0.999691 1 1 0.999691
0.999637 1 1.00063 0.999003
0.999506 1.00125 1.00048 0.997785
1.00303 1 1.00468 0.998355
0.999659 1 1.00165 0.998009
1.03215 1.03525 1 0.996999
1.02244 1.02555 1 0.996967
1.026 1.02898 1 0.997105
1.0025 1.00154 1.00379 0.997176
1.01053 1.01381 1 0.996759
0.999748 1 1 0.999748
0.999223 1 1 0.999223
0.99927 1 1 0.99927
0.999034 1 1 0.999034
0.999305 1 1 0.999305
0.999801 1 1 0.999801
0.999793 1 1 0.999793
1 1 1 1
0.999776 1 1 0.999776
1 1 1 1
1 1 1 1
1 1 1 1
1 1 1 1
1 1 1 1
0.999989 1 1 0.999989
0.999937 1 1 0.999937
1 1 1 1
1 1 1 1
0.999858 1 1 0.999858
1 1 1 1
1.02987 1.03307 1 0.996902
1.03084 1.03404 1 0.996906
1.0412 1.04435 1 0.996988
1.04226 1.04612 0.999233 0.997077
1.02745 1.0307 1 0.996846
1.00595 1.00869 1 0.997291
1.02688 1.03014 1 0.996838
1.04151 1.04546 0.99917 0.997053
1.04319 1.04631 0.999992 0.997028
1.04137 1.04732 0.997015 0.9973
1.03819 1.0414 1 0.996922
1.04019 1.04406 0.99897 0.997326
1.04115 1.04497 0.999318 0.997027
1.04079 1.04699 0.996829 0.997239
1.04067 1.04602 0.997531 0.997352
1.03828 1.04639 0.994807 0.997429
1.03735 1.0403 0.999984 0.997174
1.0383 1.04389 0.997108 0.997531
1.02677 1.03 1 0.99686
1.0288 1.03191 1 0.996993
1.04116 1.04447 0.999761 0.997066
1.03873 1.04188 1 0.996974
0.999232 1.00008 1.0007 0.998454
1.00424 1.00662 1 0.997629
1.01394 1.01681 1.00018 0.996998
1.03326 1.03637 1 0.997001
1.03575 1.03869 0.999817 0.997349
1.03085 1.03378 1 0.997163
1.027 1.03031 1 0.996781
1.02631 1.02905 1 0.997341
0.999869 1.00025 1.00152 0.998102
1.00095 1.00017 1.00288 0.997913
1.00032 1 1.00107 0.999249
1.00406 1 1.0057 0.998365
1.04156 1.04487 0.999821 0.997008
1.04078 1.04394 0.999975 0.996996
1.03918 1.04461 0.997581 0.997214
1.03721 1.04124 0.998822 0.997299
0.999242 1.00133 1 0.997919
1.00567 1.0084 1.00003 0.99726
1.01736 1.02037 1.00039 0.996667
1.03277 1.03565 1 0.997214
1.03247 1.03675 0.998333 0.997539
1.0258 1.0291 1 0.996795
1.02806 1.03071 0.999947 0.997482
1.02705 1.02972 1 0.997401
0.998607 1.00074 1 0.99787
0.999739 1.00041 1.00142 0.99791
1.00404 1 1.006 0.99805
0.9995 1 1.00011 0.999393
1.00217 1 1.00361 0.998567
1.03932 1.046 0.996377 0.997228
1.03781 1.04366 0.997119 0.997266
1.03328 1.04066 0.995374 0.997527
1.02934 1.03371 0.998219 0.99755
1.00013 1.0025 1 0.997643
1.03191 1.03448 0.999862 0.997658
1.00431 1.00709 1.00029 0.996958
1.01528 1.01838 1.00051 0.996454
1.02366 1.02696 1 0.996786
0.999529 1 1 0.999529
1.00046 1 1.00163 0.998833
1.0026 1 1.00431 0.998295
0.999003 1.0012 1 0.99781
1.00404 1 1.00622 0.99783
0.999218 1.00048 1.00094 0.997802
0.999999 1 1 0.999999
0.999596 1 1 0.999596
1.03454 1.03781 1 0.996842
1.00252 1 1.00381 0.998716
0.998792 1 1.00068 0.998114
1.00128 1 1.00322 0.998066
1.02477 1.02791 1 0.996951
1.02704 1.03025 1 0.996891
1.00241 1.00275 1.00229 0.99738
1.01145 1.01383 1.00077 0.996881
1.0243 1.0273 1 0.997082
0.999697 1 1 0.999697
0.99949 1 1.00048 0.999007
0.998979 1.00079 1.00041 0.997782
1.00388 1 1.00554 0.998351
0.999652 1 1.00165 0.99801
1.03218 1.0353 1 0.996992
1.02273 1.02585 1 0.996956
1.0257 1.02865 1 0.997131
1.00282 1.00245 1.00324 0.997137
1.0094 1.01266 1.00006 0.99673
0.999183 1 1 0.999183
1.00221 1 1.00363 0.998585
1.00129 1.00164 1.002 0.997657
1.00258 1 1.00449 0.998103
0.999117 1.00022 1.001 0.997905
1.03227 1.03513 0.99978 0.997458
1.02099 1.0242 1 0.996872
1.0222 1.02513 1 0.997146
1.00427 1.00297 1.00433 0.996978
1.00235 1.00583 1 0.996542
0.99975 1 1 0.99975
0.999241 1 1 0.999241
0.998953 1 1 0.998953
0.999246 1 1 0.999246
0.999304 1 1 0.999304
0.999002 1 1 0.999002
0.998872 1 1 0.998872
0.998956 1 1 0.998956
0.999312 1 1 0.999312
0.999796 1 1 0.999796
0.999801 1 1 0.999801
1 1 1 1
0.999795 1 1 0.999795
1 1 1 1
1 1 1 1
1 1 1 1
1 1 1 1
1 1 1 1
1 1 1 1
0.999981 1 1 0.999981
1 1 1 1
0.999922 1 1 0.999922
1 1 1 1
1 1 1 1
1.03882 1.04203 1 0.996915
1.0426 1.04571 1 0.997027
1.03965 1.04393 0.99855 0.997348
1.04073 1.04714 0.996541 0.997332
1.04158 1.04543 0.999261 0.997047
1.02684 1.0301 1 0.996838
1.04146 1.04509 0.999521 0.997006
1.0411 1.04704 0.997091 0.997231
1.04085 1.04594 0.997797 0.997334
1.03765 1.04611 0.994464 0.997442
1.03674 1.03969 0.999986 0.997174
1.03682 1.04295 0.996539 0.997573
1.04069 1.04663 0.997101 0.997213
1.039 1.04764 0.994309 0.997423
1.03817 1.04704 0.993977 0.997538
1.03522 1.04087 0.996957 0.997608
1.04162 1.04494 0.999819 0.997008
1.04045 1.04361 1 0.996974
1.0391 1.04443 0.997644 0.997247
1.03778 1.04139 0.999257 0.997282
0.999972 1.00206 1 0.997912
1.00488 1.00759 1 0.997305
1.01778 1.0206 1.00058 0.996657
1.0321 1.03503 1 0.997171
1.0319 1.03613 0.998313 0.997597
1.02928 1.03188 0.999991 0.997484
1.02426 1.02757 1 0.996781
1.02863 1.03126 1 0.997454
0.999048 1.00118 1 0.997868
0.999222 1.00062 1.00069 0.997916
1.00535 1 1.00732 0.998043
0.999601 1 1.00024 0.999356
1.00206 1 1.00346 0.998599
1.03979 1.04636 0.99648 0.99723
1.03791 1.04383 0.997054 0.997262
1.03314 1.04002 0.995861 0.997517
1.00088 1.00325 1 0.997636
1.00468 1.00744 1.00026 0.997003
1.01452 1.01736 1.00076 0.996443
1.02987 1.03421 0.998262 0.997537
1.02468 1.02789 1 0.99688
1.02898 1.03178 0.999648 0.997629
0.999552 1 1 0.999552
0.999748 1.00195 1 0.997799
0.998589 1.0002 1.00047 0.997925
1.00474 1 1.00694 0.997815
1.00278 1 1.00448 0.998313
1.00038 1 1.00158 0.998801
1.03713 1.04614 0.99405 0.997314
1.03571 1.04658 0.992144 0.997446
1.02745 1.03823 0.99198 0.997613
1.03097 1.03786 0.995594 0.997755
1.00181 1.00436 1 0.997458
1.0237 1.02651 1 0.997263
1.00331 1.00515 1.00165 0.99653
1.00792 1.01062 1.00104 0.996293
0.999712 1 1 0.999712
0.99919 1 1.00013 0.999059
1.00079 1 1.00228 0.99851
1.00406 1 1.00612 0.997947
0.999921 1.00205 1.00023 0.997647
1.00541 1 1.0078 0.997621
0.999702 1 1 0.999702
0.999232 1 1.00022 0.999011
1.03242 1.03554 1 0.996985
1.00423 1 1.00589 0.998346
0.998369 1.00032 1.00027 0.997779
0.999532 1 1.00152 0.998011
1.02329 1.02643 1 0.996945
1.02573 1.02865 1 0.997158
1.0034 1.00358 1.00273 0.997098
1.00828 1.01134 1.00027 0.996701
0.999186 1 1 0.999186
1.00217 1 1.00359 0.998586
1.00105 1.00141 1.00198 0.997667
1.00248 1 1.00438 0.998111
0.99857 1.0001 1.00048 0.997993
1.03288 1.03591 0.999568 0.9975
1.02038 1.02357 1 0.996884
1.02367 1.02653 1 0.997219
1.0037 1.00218 1.00458 0.996941
1.00291 1.00642 1.00003 0.996483
0.998896 1 1.00004 0.99886
1.00327 1 1.00506 0.998222
1.00285 1.00156 1.00378 0.997517
0.999424 1.00003 1.00161 0.997785
1.03271 1.04698 0.988608 0.997745
1.02646 1.0291 0.999872 0.997556
1.0121 1.01552 1 0.996633
1.00395 1.00314 1.00426 0.996563
0.999259 1 1 0.999259
0.998966 1 1 0.998966
0.998854 1 1 0.998854
0.999303 1 1 0.999303
0.998971 1 1 0.998971
0.99931 1 1 0.99931
0.998863 1 1 0.998863
0.99897 1 1 0.99897
0.99882 1 1 0.99882
0.998786 1 1 0.998786
0.998924 1 1 0.998924
0.999294 1 1 0.999294
0.99978 1 1 0.99978
0.999795 1 1 0.999795
1 1 1 1
0.999801 1 1 0.999801
1 1 1 1
1 1 1 1
1 1 1 1
1 1 1 1
1 1 1 1
1 1 1 1
0.999998 1 1 0.999998
1 1 1 1
0.999972 1 1 0.999972
1 1 1 1
1 1 1 1
1.03603 1.03897 1 0.997174
1.04109 1.04593 0.998051 0.997317
1.03538 1.04204 0.995978 0.997616
1.03707 1.04588 0.994106 0.997455
1.04142 1.0471 0.997344 0.997223
1.04166 1.04511 0.999705 0.996986
1.04052 1.04656 0.997012 0.997213
1.03868 1.04719 0.994445 0.997414
1.03745 1.04636 0.993934 0.997537
1.03688 1.04228 0.997192 0.997616
1.03926 1.04751 0.994745 0.997366
1.03977 1.05231 0.990475 0.997583
1.03981 1.05068 0.991973 0.997666
1.04022 1.0467 0.996569 0.997232
1.03796 1.04398 0.99697 0.997258
1.03307 1.03936 0.996426 0.997507
1.0017 1.00408 1 0.997629
1.00491 1.00771 1.00018 0.997047
1.01352 1.01629 1.00085 0.996432
1.03041 1.0347 0.998329 0.997524
1.02576 1.0287 0.999544 0.997601
1.025 1.02811 1 0.996973
1.00006 1.00228 1 0.997787
0.998048 1 1 0.998048
1.00521 1 1.00743 0.997801
0.999575 1 1 0.999575
1.00223 1 1.0039 0.998331
1.00026 1 1.00149 0.998769
1.03778 1.04655 0.994276 0.997321
1.03537 1.0465 0.991887 0.997454
1.02763 1.03781 0.992573 0.997606
1.00106 1.00362 1 0.997448
1.00307 1.00507 1.0014 0.996612
1.00783 1.01061 1.0009 0.996353
1.03113 1.03768 0.995913 0.997761
1.02329 1.02629 0.999839 0.997246
0.999762 1 1 0.999762
0.999138 1 1.00008 0.999058
0.998782 1.00109 1 0.997696
1.00752 1.00023 1.00957 0.997741
1.00409 1 1.00612 0.997981
1.00071 1 1.00223 0.998484
1.03751 1.04984 0.990723 0.997504
1.02795 1.04526 0.985836 0.997573
1.02558 1.03802 0.990192 0.997803
1.02152 1.02881 0.995128 0.997778
1.00132 1.00329 1.00091 0.997129
1.00664 1.00874 1.0014 0.996519
1.00279 1.00385 1.00264 0.996322
0.999879 1 1 0.999879
0.999449 1 1 0.999449
0.999216 1 1 0.999216
0.998989 1 1.00034 0.998649
1.00129 1 1.0031 0.998193
1.00771 1 1.00991 0.99783
0.998233 1.0005 1 0.997738
1.02836 1.00028 1.0302 0.997932
0.999189 1 1 0.999189
1.00241 1 1.00382 0.998586
1.0334 1.03661 0.999359 0.997542
1.00284 1 1.00473 0.998118
1.00107 1.00124 1.00215 0.997678
0.998116 1 1.00004 0.99808
1.01938 1.02255 1 0.996897
1.0249 1.02768 1 0.997292
1.00329 1.00158 1.00482 0.996904
1.00361 1.00721 1 0.996423
0.999011 1 1.00018 0.998834
1.00317 1 1.00494 0.998237
1.00322 1.00153 1.00415 0.997547
0.999332 1.0001 1.00142 0.997821
1.03457 1.04834 0.989078 0.997763
1.02628 1.02889 0.999949 0.99751
1.01318 1.01656 1 0.996676
1.0049 1.00463 1.00377 0.996513
0.999622 1 1.00099 0.998629
1.03212 1.05149 0.983771 0.997769
1.0014 1 1.00349 0.997925
1.00202 1.00208 1.00268 0.997266
1.03164 1.03912 0.994936 0.997854
1.01243 1.01571 1 0.996773
1.00536 1.0058 1.00323 0.996343
0.998979 1 1 0.998979
0.998846 1 1 0.998846
0.998816 1 1 0.998816
0.999309 1 1 0.999309
0.998983 1 1 0.998983
0.998854 1 1 0.998854
0.999292 1 1 0.999292
0.998929 1 1 0.998929
0.998815 1 1 0.998815
0.998808 1 1 0.998808
0.998817 1 1 0.998817
0.998745 1 1 0.998745
0.998806 1 1.00009 0.99872
0.998891 1 1 0.998891
0.99925 1 1 0.99925
0.999759 1 1 0.999759
0.999778 1 1 0.999778
1 1 1 1
0.999794 1 1 0.999794
1 1 1 1
1 1 1 1
1 1 1 1
1 1 1 1
1 1 1 1
0.999906 1 1 0.999906
1 1 1 1
1 1 1 1
1 1 1 1
0.999996 1 1 0.999996
1 1 1 1
1 1 1 1
1.03856 1.04374 0.997408 0.997624
1.03669 1.04559 0.993944 0.997536
1.03832 1.0467 0.994581 0.997405
1.04038 1.04649 0.996944 0.997212
1.03887 1.04743 0.994421 0.997385
1.03984 1.05193 0.990905 0.997573
1.03862 1.04981 0.991645 0.997676
1.03948 1.05216 0.990366 0.997561
1.04573 1.05974 0.989068 0.997686
1.03177 1.05149 0.983281 0.997929
1.03845 1.04697 0.994517 0.997328
1.035 1.04646 0.991562 0.997462
1.02764 1.03736 0.993013 0.997598
1.00101 1.00352 1.00006 0.997439
1.00322 1.00528 1.00126 0.996694
1.00831 1.01116 1.00078 0.996413
1.03138 1.03764 0.996193 0.997767
1.02306 1.02633 0.99959 0.99723
0.998203 1.00046 1 0.997746
1.00988 1.0006 1.01143 0.997859
1.00493 1 1.00693 0.998016
0.999812 1 1 0.999812
0.999114 1 1.00006 0.999058
1.00092 1 1.00247 0.998457
1.03748 1.05014 0.990407 0.997516
0.999874 1 1 0.999874
0.999422 1 1 0.999422
1.02786 1.04445 0.98651 0.997574
1.02504 1.03797 0.989749 0.997772
1.00087 1.00259 1.00106 0.99722
1.00338 1.00379 1.0033 0.996305
1.00733 1.01 1.00084 0.996516
1.02036 1.02788 0.994919 0.997756
0.999287 1 1 0.999287
0.999046 1 1.0004 0.998643
0.99909 1.00082 1.00062 0.997647
1.02297 1.00026 1.02466 0.99808
1.00613 1 1.0083 0.99784
1.00178 1 1.00357 0.998211
1.04438 1.05826 0.989209 0.997645
1.01235 1.04269 0.973132 0.997713
1.01901 1.03346 0.988024 0.997965
1.00391 1.01199 0.994525 0.997473
1.00178 1.00111 1.00343 0.997251
1.00351 1.00183 1.00547 0.996226
0.999418 1 1 0.999418
0.9994 1 1 0.9994
0.999134 1 1 0.999134
0.99875 1 1 0.99875
0.99968 1 1.00127 0.998416
1.00079 1 1.00288 0.997914
1.03786 1 1.04011 0.997832
1.00219 1.00039 1.00371 0.998096
0.999189 1 1.00038 0.998808
1.00266 1 1.00441 0.998253
1.03585 1.0489 0.98975 0.997781
1.02608 1.02869 1 0.997465
0.999163 1.00016 1.00115 0.997856
1.00348 1.0015 1.00441 0.997576
1.01463 1.01793 1.00004 0.996718
1.00568 1.00588 1.00335 0.996463
0.99978 1 1.00116 0.998617
1.03387 1.05387 0.983175 0.99781
1.00145 1 1.00352 0.997944
1.00169 1.00179 1.00269 0.997218
1.03032 1.03841 0.994361 0.997828
1.01257 1.01577 1 0.996841
1.00561 1.00578 1.00348 0.996359
1.00101 1 1.0027 0.998308
1.01753 1.03694 0.983028 0.998216
1.00182 1.00209 1.00206 0.997675
1.00327 1.00262 1.00379 0.99687
1.01532 1.0223 0.995716 0.997449
1.00205 1.00333 1.00221 0.996527
0.993196 1.00563 0.989617 0.998
0.998839 1 1 0.998839
0.99904 1 1.00023 0.998812
0.998809 1 1.0001 0.998707
0.999289 1 1 0.999289
0.998933 1 1 0.998933
0.998829 1 1 0.998829
0.99881 1 1 0.99881
0.999249 1 1 0.999249
0.998881 1 1 0.998881
0.998788 1 1 0.998788
0.998744 1 1.00002 0.99872
0.998746 1 1 0.998746
0.998771 1 1 0.998771
0.998858 1 1.0003 0.99856
0.998916 1 1.00021 0.998705
0.998795 1 1 0.998795
0.99915 1 1 0.99915
0.99895 1 1 0.99895
0.999134 1 1 0.999134
0.999746 1 1 0.999746
0.999757 1 1 0.999757
1 1 1 1
0.999776 1 1 0.999776
1 1 1 1
1 1 1 1
1 1 1 1
1 1 1 1
1 1 1 1
0.999927 1 1 0.999927
0.999905 1 1 0.999905
1 1 1 1
1 1 1 1
1 1 1 1
1 1 1 1
1 1 1 1
1 1 1 1
1.03759 1.04919 0.991238 0.997686
1.03986 1.0516 0.991247 0.997563
1.03848 1.04736 0.994096 0.997404
1.03947 1.05209 0.990424 0.997559
1.04373 1.05772 0.98907 0.997684
1.03213 1.05075 0.984373 0.997875
1.0458 1.06232 0.986675 0.99775
0.983928 1.01605 0.971542 0.99675
1.00871 1.03405 0.976911 0.998544
0.999518 1 1 0.999518
1.03743 1.05039 0.990108 0.997528
1.02805 1.04373 0.987376 0.997574
1.02464 1.03798 0.989382 0.99774
0.999579 1.00145 1.00082 0.99731
1.0037 1.00341 1.00402 0.996288
1.00788 1.01095 1.00045 0.996513
1.01901 1.02667 0.994789 0.997735
0.998636 1.00108 1 0.997556
1.01704 1 1.01884 0.998231
1.00428 1 1.00645 0.997849
0.99987 1 1 0.99987
1.00206 1 1.00383 0.998229
0.999358 1 1 0.999358
0.998954 1 1.00032 0.998638
0.999395 1 1 0.999395
1.04199 1.05854 0.986679 0.997653
0.999454 1 1 0.999454
0.999398 1 1 0.999398
0.999097 1 1 0.999097
1.01536 1.04248 0.976216 0.997713
1.01947 1.03405 0.987954 0.99792
1.00035 1.00105 1.00204 0.997275
1.00377 1.00192 1.00556 0.996313
1.00306 1.01015 0.995503 0.997461
0.998794 1 1 0.998794
0.999722 1 1.00135 0.998379
1.00699 1.00024 1.00875 0.99801
1.03067 1 1.03287 0.997869
1.00068 1 1.00273 0.997949
1.02976 1.04992 0.983015 0.997745
1.00603 1.03995 0.969474 0.997844
1.01121 1.02081 0.992926 0.997652
0.995667 1.00403 0.994418 0.997237
1.00325 1 1.00562 0.997643
0.999028 1 1 0.999028
0.998938 1 1 0.998938
0.9989 1 1.00008 0.998822
0.999137 1 1.00061 0.998531
1.00064 1 1.00243 0.99822
1.02597 1 1.02812 0.997909
1.02508 1 1.02728 0.997859
0.999819 1 1.00122 0.998605
1.00148 1 1.00352 0.997963
1.03492 1.05691 0.981301 0.997851
1.0291 1.03802 0.993586 0.997801
1.0124 1.01554 1 0.996909
1.00144 1.0016 1.00268 0.99717
1.00555 1.00559 1.0036 0.996376
1.00096 1 1.00261 0.99835
1.01546 1.03693 0.981021 0.99824
1.00053 1.0014 1.00145 0.997693
1.00275 1.0018 1.00408 0.996877
1.01549 1.02246 0.995624 0.997549
1.002 1.00277 1.00273 0.996515
0.992439 1.00522 0.990002 0.997255
1.00075 1.00026 1.00233 0.998164
1.00704 1.02065 0.988448 0.998196
1.0006 1.00099 1.00194 0.997666
1.00442 1.00101 1.00644 0.996995
0.995526 1.0058 0.992515 0.997249
0.939994 0.982411 0.975211 0.981145
0.947776 0.979529 0.97688 0.990483
0.982763 0.992359 0.992284 0.998031
0.798942 0.871337 0.946232 0.969017
0.735363 0.853493 0.896444 0.961122
0.999095 1 1.00029 0.998809
0.999179 1 1.00044 0.998741
0.998954 1 1.00022 0.998732
0.999248 1 1 0.999248
0.998871 1 1 0.998871
0.998721 1 1 0.998721
0.998747 1 1 0.998747
0.998758 1 1 0.998758
0.999498 1 1.00082 0.998681
0.999179 1 1 0.999179
0.998812 1 1 0.998812
0.998754 1 1 0.998754
0.999215 1 1.00064 0.99858
1.00068 1 1.00209 0.99859
1.00075 1 1.00214 0.998612
0.999631 1 1.00102 0.998611
0.998756 1 1 0.998756
0.999128 1 1 0.999128
0.998833 1 1 0.998833
0.998777 1 1 0.998777
0.998943 1 1 0.998943
0.998915 1 1 0.998915
0.999225 1 1 0.999225
0.999131 1 1 0.999131
0.999741 1 1 0.999741
0.999746 1 1 0.999746
1 1 1 1
0.999756 1 1 0.999756
1 1 1 1
1 1 1 1
1 1 1 1
1 1 1 1
1 1 1 1
0.999941 1 1 0.999941
0.999923 1 1 0.999923
1 1 1 1
0.999903 1 1 0.999903
1 1 1 1
1 1 1 1
1 1 1 1
1 1 1 1
1 1 1 1
1.04152 1.05551 0.989046 0.997681
1.03948 1.05201 0.990509 0.997557
1.03308 1.05025 0.985798 0.997821
0.987976 1.01587 0.975655 0.996811
1.04304 1.0598 0.986415 0.997749
1.01794 1.03689 0.983259 0.998433
1.03516 1.0451 0.992621 0.997849
0.944733 0.98265 0.971482 0.989637
0.997926 1.01935 0.981515 0.997418
0.999525 1 1 0.999525
0.999516 1 1 0.999516
0.999132 1 1 0.999132
0.999179 1 1 0.999179
1.03997 1.05873 0.984585 0.99766
1.01769 1.04181 0.979082 0.997714
1.01964 1.03437 0.987855 0.997874
0.999244 1.00073 1.00122 0.997298
1.00394 1.0022 1.00536 0.996399
1.00232 1.00884 0.996083 0.99745
1.01255 1 1.01465 0.997923
1.02392 1 1.02607 0.997906
1.00034 1 1.00236 0.997985
0.999397 1 1 0.999397
0.999672 1 1.00133 0.998341
0.998837 1 1 0.998837
0.99949 1 1 0.99949
0.999059 1 1 0.999059
1.02721 1.04957 0.980898 0.997759
0.999074 1 1 0.999074
0.998984 1 1 0.998984
0.998912 1 1 0.998912
1.00925 1.04217 0.970511 0.997842
1.01005 1.02032 0.992264 0.99765
1.0029 1.00005 1.00524 0.997627
0.996939 1.00448 0.995198 0.997285
0.99923 1 1.00072 0.998508
1.0003 1 1.00215 0.998158
1.02837 1.00016 1.03042 0.997847
1.02689 1 1.02909 0.997866
1.00121 1.03701 0.967512 0.997897
1.00003 1.02793 0.974992 0.997808
1.00346 1.00826 0.997883 0.997343
0.990244 1.00036 0.991833 0.998034
0.998695 1 1 0.998695
0.999587 1 1.00095 0.998635
1.00893 1 1.01056 0.998383
1.04369 1 1.046 0.997793
0.916281 0.971269 0.963209 0.979419
1.00127 1 1.00288 0.99839
0.99945 1.00065 1.00109 0.997711
1.01453 1.03675 0.980267 0.998264
1.01588 1.02287 0.995511 0.997649
1.00229 1.0025 1.0033 0.996501
1.00243 1.00109 1.00447 0.996884
0.993117 1.00526 0.991392 0.996494
1.00047 1.00012 1.00214 0.998211
1.00748 1.02122 0.98834 0.998185
1.00008 1.00097 1.00144 0.997679
1.00427 1.00118 1.00611 0.996993
0.998137 1.0068 0.994112 0.997263
0.939087 0.987154 0.97123 0.979488
0.943217 0.977209 0.976758 0.988183
0.982701 0.990757 0.993807 0.99805
0.79846 0.868927 0.947876 0.969433
0.720192 0.842559 0.892307 0.95793
0.999777 1 1.00137 0.998411
0.826575 0.891865 0.954623 0.970848
0.777545 0.858286 0.941107 0.962618
0.989478 1.00713 0.984349 0.998089
1.00588 1.001 1.00694 0.997947
1.0122 1.00427 1.01043 0.99749
0.974284 0.98652 0.989339 0.998239
0.934114 0.970229 0.982752 0.979673
0.923166 0.953219 0.981171 0.987058
0.779831 0.870262 0.92329 0.970537
0.796649 0.901665 0.918307 0.962131
0.999721 1 1.00095 0.998775
0.999774 1 1.00106 0.998713
1.0004 1 1.0015 0.99891
0.999207 1 1 0.999207
0.998829 1 1 0.998829
0.999708 1 1.00105 0.998658
0.999719 1 1.00112 0.9986
0.998737 1 1 0.998737
0.999129 1 1 0.999129
1.00034 1 1.00176 0.998583
1.00001 1 1.00139 0.998628
0.998787 1 1 0.998787
1.00036 1 1.00174 0.998622
1.00221 1 1.00362 0.998591
1.00371 1 1.00504 0.998683
0.998687 1 1.0001 0.998586
0.998795 1 1 0.998795
0.998829 1 1 0.998829
0.998771 1 1 0.998771
0.998654 1 1 0.998654
0.999111 1 1.00034 0.998775
0.999094 1 1.00036 0.998736
1.00024 1 1.00165 0.998591
0.999275 1 1.00036 0.998911
0.998998 1 1.00006 0.998943
0.999251 1 1 0.999251
0.998879 1 1 0.998879
0.9992 1 1 0.9992
0.999735 1 1 0.999735
0.999129 1 1 0.999129
0.999742 1 1 0.999742
1 1 1 1
0.999746 1 1 0.999746
1 1 1 1
1 1 1 1
1 1 1 1
1 1 1 1
1 1 1 1
0.999492 1 1 0.999492
0.999941 1 1 0.999941
0.999938 1 1 0.999938
1 1 1 1
0.99992 1 1 0.99992
1 1 1 1
1 1 1 1
1 1 1 1
1 1 1 1
1 1 1 1
0.991036 1.01579 0.978688 0.996876
1.04097 1.05715 0.98692 0.997747
1.02362 1.03966 0.986231 0.998321
0.938944 0.976431 0.970673 0.990661
0.998359 1.01907 0.982083 0.99755
1.03625 1.04837 0.990607 0.997805
1.01348 1.02584 0.9905 0.997422
0.953779 0.977752 0.983649 0.991696
0.939039 0.980165 0.978292 0.9793
0.787447 0.866586 0.936744 0.970038
0.710768 0.821097 0.901277 0.960451
0.999129 1 1 0.999129
0.999524 1 1 0.999524
0.999513 1 1 0.999513
0.999119 1 1 0.999119
0.998887 1 1 0.998887
0.99892 1 1 0.99892
0.999095 1 1 0.999095
0.999148 1 1 0.999148
1.0241 1.04957 0.97791 0.997773
1.01355 1.04546 0.971573 0.997839
1.00919 1.01981 0.991914 0.997649
1.00277 1.00024 1.00493 0.997611
0.998296 1.00453 0.99645 0.997334
1.03083 1 1.03307 0.997835
1.02836 1 1.0306 0.997824
1.00015 1 1.00206 0.998096
0.99903 1 1 0.99903
0.999106 1 1.00062 0.998486
0.999121 1 1 0.999121
0.999002 1 1 0.999002
1.00204 1.03763 0.967741 0.997895
0.998748 1 1.00002 0.998724
0.99908 1 1.00041 0.99867
0.999939 1.0272 0.975622 0.997785
1.00054 1.00776 0.995367 0.997463
0.99262 1.00076 0.993912 0.997937
1.01285 1 1.0146 0.998273
1.0393 1 1.04157 0.997812
0.994442 1.02673 0.970614 0.997881
0.98559 1.00842 0.979472 0.997842
0.985156 1.00097 0.986307 0.997867
0.997126 1.00034 0.998642 0.998141
1.00029 1 1.00187 0.998425
1.00465 1 1.00625 0.998409
1.03845 1 1.04046 0.998074
0.818253 0.899549 0.935951 0.971874
0.932957 0.97675 0.972675 0.981997
0.999829 1 1.00157 0.998258
0.999621 1.00087 1.00107 0.997692
1.008 1.02183 0.988268 0.998176
1.00047 1.00776 0.995474 0.997278
1.00417 1.00147 1.00571 0.996994
0.93365 0.9768 0.97574 0.97959
0.949578 0.984014 0.975929 0.988806
0.982885 0.989204 0.995542 0.998062
0.797481 0.870567 0.943358 0.97105
0.707603 0.831815 0.891074 0.954661
0.99984 1 1.00143 0.998409
0.821931 0.896407 0.943936 0.971376
0.768867 0.850068 0.941152 0.961032
0.99052 1.00795 0.98459 0.998085
1.0058 1.00122 1.00662 0.997973
1.01041 1.00262 1.01016 0.997643
0.966583 0.980339 0.98758 0.998367
0.939138 0.979244 0.980823 0.977795
0.923533 0.957249 0.975258 0.989254
0.782827 0.86579 0.933166 0.968934
0.794172 0.904917 0.912956 0.961294
1.00143 1 1.00268 0.998759
0.808249 0.869209 0.964349 0.964244
0.880978 0.935454 0.970233 0.970659
0.990098 0.999198 0.992177 0.998705
1.01382 1.00261 1.01253 0.998672
0.976562 0.970714 1.00772 0.99832
0.913089 0.940499 0.980339 0.990326
0.912958 0.945529 0.988206 0.977076
0.791892 0.870142 0.938633 0.969572
0.830717 0.933905 0.921791 0.964979
1.00052 1 1.00183 0.998696
1.00035 1 1.00147 0.998879
1.00398 1 1.00487 0.999109
0.999129 1 1 0.999129
0.998817 1 1 0.998817
1.00056 1 1.00192 0.998644
1.00042 1 1.00185 0.998576
1.0002 1 1.00157 0.998632
0.998794 1 1 0.998794
1.00105 1 1.00247 0.998586
0.998689 1 1.0001 0.998588
1.00465 1 1.00593 0.998727
1.01974 0.999662 1.02098 0.999116
1.00119 1 1.00261 0.998585
0.998551 1 1 0.998551
0.998826 1 1 0.998826
0.998765 1 1 0.998765
0.998688 1 1.00004 0.998649
0.999151 1 1.00038 0.998768
0.999041 1 1.00026 0.998777
1.00017 1 1.00147 0.998704
0.999058 1 1.0004 0.998655
1.00008 1 1.00131 0.998772
0.998765 1 1.00023 0.998539
0.99896 1 1.00093 0.998033
1.00017 1 1.0017 0.998474
1.00017 1 1.00159 0.998589
1.00006 1 1.00123 0.998832
0.999539 1 1.00063 0.998909
0.99924 1 1 0.99924
0.999148 1 1.00021 0.998942
0.999252 1 1 0.999252
0.999732 1 1 0.999732
0.999175 1 1 0.999175
0.999736 1 1 0.999736
1 1 1 1
0.999742 1 1 0.999742
1 1 1 1
1 1 1 1
1 1 1 1
1 1 1 1
1 1 1 1
0.999507 1 1 0.999507
0.999926 1 1 0.999926
0.999493 1 1 0.999493
1 1 1 1
0.999942 1 1 0.999942
0.999936 1 1 0.999936
1 1 1 1
1 1 1 1
1 1 1 1
1 1 1 1
1 1 1 1
0.818267 0.887046 0.951227 0.969761
0.7761 0.857249 0.9403 0.962819
0.941274 0.980818 0.96825 0.991151
0.999711 1.01871 0.983626 0.997684
1.03925 1.05174 0.990339 0.997761
0.937322 0.964334 0.978778 0.993065
1.01222 1.02525 0.989737 0.99752
0.947475 0.98933 0.97668 0.98056
0.794546 0.87088 0.941327 0.969215
0.706131 0.825037 0.894135 0.957213
0.967934 0.996384 0.976495 0.99483
0.937345 0.973353 0.982462 0.980197
0.774572 0.867152 0.920961 0.969898
0.782344 0.891748 0.913186 0.960719
0.999128 1 1.00036 0.998769
0.999156 1 1 0.999156
0.999523 1 1 0.999523
0.999107 1 1 0.999107
0.998929 1 1 0.998929
0.999273 1 1.0005 0.998769
0.998909 1 1 0.998909
0.998872 1 1 0.998872
0.999062 1 1 0.999062
0.999117 1 1 0.999117
1.00348 1.03776 0.969009 0.997894
0.997773 1.02519 0.975439 0.997764
0.997725 1.00763 0.992568 0.997584
0.994448 1.00099 0.995612 0.99784
1.03425 1.00033 1.03615 0.997831
1.01765 1 1.01953 0.998164
0.998706 1 1 0.998706
0.998753 1 1 0.998753
0.994499 1.02701 0.970361 0.997919
1.00101 1 1.00262 0.998401
1.00478 1 1.00641 0.998373
0.984746 1.00679 0.980296 0.997764
0.98339 1.00046 0.984938 0.997966
0.998733 1.00108 0.999609 0.99805
1.03396 1 1.03599 0.998041
0.991769 1.00429 0.989301 0.998215
0.979249 1 0.980605 0.998617
1.01466 1.00053 1.0159 0.99824
1.00427 1 1.0059 0.998373
1.00368 1 1.00546 0.998235
1.02091 1 1.02279 0.998166
0.825616 0.881525 0.966288 0.969252
0.828284 0.89865 0.948441 0.971804
0.922291 0.974213 0.966531 0.979486
0.999826 1 1.00142 0.998406
1.00565 1.00126 1.0064 0.997999
0.992482 1.00862 0.98589 0.998082
1.00898 1.0011 1.01011 0.997794
0.814549 0.891123 0.940572 0.971824
0.937231 0.976165 0.980084 0.979625
0.914828 0.953638 0.971787 0.987154
0.962816 0.975544 0.988441 0.998495
0.781617 0.865322 0.933324 0.967795
0.770645 0.853887 0.938855 0.961292
0.781944 0.89487 0.908004 0.962339
1.00207 1 1.00331 0.998761
0.809682 0.872596 0.9607 0.965858
0.889412 0.942545 0.97231 0.970501
0.991809 0.999078 0.993922 0.998795
1.01356 1.00125 1.01367 0.99864
0.973563 0.969389 1.0058 0.998514
0.911463 0.943588 0.977438 0.988251
0.917261 0.95028 0.985985 0.978974
0.810899 0.890036 0.940477 0.968747
0.817918 0.922146 0.91822 0.965969
1.00578 0.999644 1.0067 0.99944
0.895227 0.94461 0.971859 0.975163
0.869829 0.933031 0.956422 0.974739
0.995328 0.981477 1.0144 0.999715
0.934002 0.940852 0.999108 0.993605
0.922607 0.942802 1.00058 0.978013
0.848079 0.910247 0.962554 0.967948
0.844771 0.95211 0.919378 0.965068
1.00009 1 1.00125 0.998847
1.00355 1 1.00444 0.99911
1.0196 0.999935 1.02032 0.999354
0.998793 1 1 0.998793
0.998639 1 1.00005 0.99859
0.999672 1 1.00109 0.998581
1.00544 1 1.00668 0.998772
0.99855 1 1 0.99855
1.0016 1 1.00303 0.998578
1.02331 0.999955 1.02419 0.999184
1.03515 0.997137 1.0387 0.999446
1.02395 1 1.0249 0.999068
0.998549 1 1 0.998549
0.998702 1 1.00006 0.998644
0.998994 1 1.00023 0.998761
0.998818 1 1 0.998818
0.998834 1 1.00016 0.99867
0.999885 1 1.00118 0.998705
1.00039 1 1.00161 0.998783
0.999765 1 1.00109 0.998672
1.00426 1 1.00526 0.999005
0.998615 1 1 0.998615
0.999014 1.00014 1.0003 0.998567
0.998903 1 1.00069 0.99821
0.998961 1 1.00153 0.997439
1.00096 1 1.00258 0.998385
0.998958 1 1.00079 0.998167
1.00003 1 1.00153 0.998502
1.00034 1 1.00165 0.998691
1.00003 1 1.00144 0.998587
0.999802 1 1.00097 0.998831
0.999178 1 1 0.999178
0.999547 1 1.00064 0.998906
0.999238 1 1 0.999238
0.999725 1 1 0.999725
0.999252 1 1 0.999252
0.999732 1 1 0.999732
0.999999 1 1 0.999999
0.999738 1 1 0.999738
0.999999 1 1 0.999999
1 1 1 1
1 1 1 1
1 1 1 1
1 1 1 1
0.999326 1 1 0.999326
0.9999 1 1 0.9999
0.999445 1 1 0.999445
1 1 1 1
0.99993 1 1 0.99993
0.999493 1 1 0.999493
1 1 1 1
1 1 1 1
0.999943 1 1 0.999943
1 1 1 1
1 1 1 1
1 1 1 1
0.807406 0.870794 0.959252 0.966593
0.823232 0.894476 0.948415 0.970409
0.88679 0.942961 0.969285 0.970232
0.76948 0.852081 0.939017 0.961707
0.936699 0.971496 0.973061 0.990875
1.00993 1.02465 0.987984 0.997626
0.954473 0.988711 0.983372 0.981695
0.8007 0.874645 0.943483 0.970295
0.706177 0.832548 0.889179 0.953927
0.966332 0.992652 0.979312 0.99405
0.93383 0.973825 0.981256 0.977248
0.787065 0.875428 0.928326 0.968477
0.784546 0.896366 0.912452 0.95923
0.947448 0.980434 0.973771 0.992385
0.925165 0.949775 0.997336 0.976691
0.811595 0.895231 0.936963 0.967568
0.824835 0.933294 0.918021 0.962711
1.00001 1 1.00145 0.998558
0.99883 1 1.00002 0.998808
0.999184 1 1 0.999184
0.998972 1 1 0.998972
0.99867 1 1.00016 0.998508
0.998883 1 1.00008 0.998802
0.998898 1 1 0.998898
0.998838 1 1 0.998838
0.998905 1 1 0.998905
0.999028 1 1 0.999028
0.995903 1.02825 0.970527 0.997956
0.986548 1.0061 0.982836 0.997688
0.98208 1.00033 0.983656 0.998064
1.00168 1.00206 1.00166 0.997961
1.0282 1 1.03025 0.998008
1.00397 1 1.00565 0.998337
1.00133 1 1.00296 0.998377
1.0035 1 1.00515 0.998349
0.9883 1.0048 0.985331 0.99822
1.0028 1 1.00457 0.998236
1.02084 1 1.02272 0.998157
0.978582 1.0004 0.979607 0.998557
1.01341 1.00135 1.01387 0.998206
0.961273 0.987817 0.974408 0.998687
0.997251 0.996688 1.00133 0.999236
1.03344 0.99995 1.03509 0.998455
1.0016 1 1.00335 0.998249
1.01007 1 1.0119 0.998186
0.901831 0.946176 0.974996 0.977576
0.829409 0.881548 0.970924 0.96903
0.817728 0.892902 0.943287 0.970871
1.00263 1 1.00387 0.998764
1.01327 0.999917 1.01477 0.998607
0.991149 0.998528 0.993722 0.998881
0.81626 0.877001 0.962791 0.96671
0.925462 0.949411 0.997884 0.976842
0.912048 0.941847 0.978497 0.989642
0.963375 0.964998 0.999633 0.998685
0.81076 0.889368 0.940057 0.969743
0.895515 0.946974 0.974534 0.97037
0.821346 0.925029 0.919093 0.966077
1.00437 0.999203 1.00576 0.999408
0.891785 0.942877 0.968758 0.976315
0.871011 0.934132 0.956579 0.974754
0.997988 0.985112 1.01351 0.999562
0.943295 0.948344 1.00141 0.993279
0.904436 0.93722 0.988845 0.975906
0.847111 0.952995 0.920242 0.965934
0.856612 0.915651 0.965984 0.968466
1.00514 0.988275 1.01736 0.999711
0.873714 0.928508 0.957881 0.982363
0.88561 0.949833 0.955486 0.975823
0.825716 0.933251 0.918913 0.962848
0.977829 0.965388 1.0146 0.998313
0.946811 0.95677 1.01083 0.978984
0.882908 0.931821 0.977569 0.969249
1.00352 1 1.00442 0.99911
1.0198 0.999979 1.02056 0.999275
1.02077 0.991466 1.03 0.999566
0.998549 1 1 0.998549
1.00187 1 1.0033 0.99857
1.02784 1 1.02861 0.999251
0.998558 1 1 0.998558
1.02299 1 1.02393 0.999079
1.03702 0.997152 1.04058 0.999421
1.02426 0.99561 1.0293 0.999489
1.01687 1 1.01782 0.999061
0.998757 1 1.00007 0.998686
0.999846 1 1.00114 0.998705
1.00079 1 1.002 0.998795
1.00338 1 1.0044 0.998981
0.999437 1 1.00076 0.998676
1.00197 1 1.00306 0.998919
0.998823 1 1 0.998823
1.00101 1 1.00309 0.997924
0.999239 1.00029 1.00035 0.998596
0.99891 1.00019 1.00057 0.99815
0.998249 1 1.00101 0.997239
1.00386 1.00529 1.00129 0.997285
1.00081 1 1.00271 0.998108
0.998977 1.00013 1.00138 0.997473
1.00287 1 1.00435 0.998534
1.00139 1 1.00303 0.99836
0.998945 1 1.00065 0.998301
0.999913 1 1.00139 0.99853
1.00016 1 1.00144 0.998724
0.999084 1 1 0.999084
0.999716 1 1.00089 0.998829
0.999177 1 1 0.999177
0.999693 1 1 0.999693
0.999236 1 1 0.999236
0.999722 1 1 0.999722
0.999998 1 1 0.999998
0.999732 1 1 0.999732
0.999998 1 1 0.999998
1 1 1 1
0.999999 1 1 0.999999
1 1 1 1
1 1 1 1
0.99913 1 1 0.99913
0.999753 1 1 0.999753
0.999324 1 1 0.999324
1 1 1 1
0.999859 1 1 0.999859
0.999383 1 1 0.999383
1 1 1 1
1 1 1 1
0.999934 1 1 0.999934
1 1 1 1
1 1 1 1
1 1 1 1
0.888989 0.943502 0.96548 0.975911
0.800395 0.869534 0.951524 0.967382
0.821615 0.890908 0.950581 0.970166
0.998723 1 1 0.998723
0.874 0.930315 0.962208 0.976366
0.885636 0.942635 0.968465 0.970126
0.76868 0.85612 0.932803 0.962545
0.972031 0.994778 0.983955 0.993068
0.934096 0.970067 0.982836 0.979736
0.793605 0.887413 0.924526 0.967296
0.779288 0.887275 0.915144 0.959732
0.946883 0.97899 0.977171 0.989799
0.914659 0.946232 0.987508 0.978861
0.822651 0.89982 0.944671 0.967786
0.821946 0.927794 0.920083 0.962863
0.917494 0.950349 0.977711 0.987438
0.918592 0.937499 1.00328 0.976634
0.867042 0.925367 0.967457 0.968489
0.845064 0.951006 0.920795 0.965036
0.999961 1 1.00162 0.998346
1.00072 1 1.0022 0.998522
0.998848 1 1 0.998848
0.998528 1 1 0.998528
0.998812 1 1.00025 0.99856
0.998834 1 1 0.998834
0.998846 1 1 0.998846
0.998938 1 1 0.998938
0.983207 1.00531 0.979752 0.998224
0.976407 1.00022 0.977663 0.998501
1.00301 1 1.00469 0.998325
1.01278 1.00219 1.01242 0.99817
1.0226 1 1.0245 0.998147
1.00252 1 1.00429 0.998236
1.00191 1 1.00366 0.998255
0.967568 0.990304 0.978264 0.99875
1.0112 1 1.013 0.998223
1.02615 1.00032 1.02739 0.998473
0.992318 0.996524 0.996494 0.999282
1.00106 1 1.00275 0.998318
0.959562 0.978061 0.982294 0.998771
1.00659 0.992644 1.01461 0.999454
1.04588 0.998896 1.04854 0.998563
1.00233 1 1.00397 0.99837
0.885663 0.931847 0.965807 0.984087
0.900809 0.945554 0.974452 0.977656
0.8346 0.881666 0.977096 0.968807
1.00245 0.99865 1.00443 0.999379
1.00217 0.98878 1.01414 0.999413
0.88974 0.942358 0.965947 0.977449
0.930017 0.941614 1.00926 0.978624
0.935138 0.946053 0.997981 0.990463
0.859283 0.918797 0.966728 0.967414
0.871846 0.935061 0.956536 0.974762
0.850563 0.954793 0.921426 0.9668
1.00762 0.992364 1.01571 0.999669
0.875018 0.929327 0.958482 0.982346
0.883882 0.947843 0.953996 0.977488
0.987438 0.972179 1.01607 0.999635
0.822122 0.927488 0.920508 0.962942
0.928886 0.942998 1.00759 0.977611
0.892023 0.942373 0.977121 0.968735
1.00716 0.986556 1.02112 0.999768
0.892053 0.945447 0.958992 0.983871
0.87299 0.929486 0.961828 0.976494
0.780947 0.891229 0.911948 0.960865
0.866814 0.926482 0.96643 0.968097
0.962526 0.960438 1.0056 0.996589
0.949027 0.950713 1.02396 0.974866
1.01717 1 1.01799 0.999197
1.02132 0.991845 1.0302 0.999534
1.00667 0.980492 1.02712 0.999582
0.998567 1 1 0.998567
1.02276 1 1.02369 0.999091
1.03752 0.998282 1.03993 0.999396
1.01239 1 1.01336 0.999046
1.02382 0.996655 1.02778 0.999488
1.0116 0.9944 1.01808 0.99924
1.00229 1 1.00333 0.998957
0.999156 1 1.00048 0.99868
1.00338 1 1.00448 0.998896
1.00687 1 1.00858 0.998305
0.999028 1 1 0.999028
1.00033 1 1.00227 0.998071
1.00164 1.00044 1.00413 0.997083
1.00345 1.00492 1.00188 0.996667
0.998903 1.00041 1.0004 0.998088
0.998668 1.00048 1.00109 0.997096
1.00525 1.00737 1.00053 0.997378
1.00254 1.00217 1.00261 0.997758
1.00387 1.00527 1.00125 0.997354
1.00503 1 1.00669 0.998351
1.00149 1.00034 1.00305 0.998095
0.998886 1.0001 1.00128 0.997507
0.999206 1 1.00028 0.998931
1.00267 1 1.00414 0.998537
1.00188 1 1.00356 0.998334
0.99997 1 1.00121 0.998758
0.999083 1 1 0.999083
0.999632 1 1 0.999632
0.999177 1 1 0.999177
0.99969 1 1 0.99969
0.999996 1 1 0.999996
0.99972 1 1 0.99972
0.999997 1 1 0.999997
1 1 1 1
0.999998 1 1 0.999998
1 1 1 1
1 1 1 1
0.99905 1 1 0.99905
0.999645 1 1 0.999645
0.999167 1 1 0.999167
1 1 1 1
0.999742 1 1 0.999742
0.999322 1 1 0.999322
1 1 1 1
1 1 1 1
0.999819 1 1 0.999819
1 1 1 1
1 1 1 1
1 1 1 1
0.877902 0.930233 0.960369 0.982688
0.891817 0.943311 0.968766 0.975892
0.800406 0.870261 0.950604 0.967523
0.998748 1 1 0.998748
0.998684 1 1 0.998684
0.99859 1 1 0.99859
0.88363 0.950267 0.95304 0.975694
0.871229 0.929894 0.959569 0.976389
0.886034 0.942374 0.969272 0.970021
0.951332 0.98195 0.976987 0.99164
0.910532 0.945032 0.986564 0.976615
0.811671 0.883752 0.947217 0.969617
0.834609 0.936354 0.926442 0.962109
0.92189 0.953014 0.977338 0.989772
0.918149 0.938425 1.00114 0.977275
0.848021 0.904185 0.967321 0.969568
0.846129 0.952515 0.919703 0.965866
0.911181 0.942074 0.978951 0.988005
0.932971 0.945648 1.00873 0.978058
0.883164 0.929958 0.979604 0.969455
0.83314 0.935029 0.92346 0.964884
0.998463 1 1.00011 0.998353
1.00041 1 1.00209 0.998328
1.00058 1 1.00209 0.998486
0.99852 1 1 0.99852
0.998613 1 1 0.998613
0.998854 1 1 0.998854
0.974142 0.992108 0.983071 0.998799
0.987508 0.996612 0.991539 0.99932
1.00214 1 1.00388 0.998262
1.01899 1.00057 1.01996 0.998491
1.01248 1 1.01424 0.998261
1.00148 1 1.0032 0.998291
1.00162 1 1.00323 0.998392
0.967608 0.979506 0.988993 0.998848
1.04112 0.999062 1.04346 0.998692
1.0083 0.988618 1.02048 0.999436
1.00137 1 1.00285 0.998522
0.980969 0.967712 1.01491 0.998809
1.00741 0.983844 1.02448 0.999483
1.0322 0.998081 1.03541 0.998816
0.905155 0.949577 0.966974 0.985775
0.885874 0.93199 0.965437 0.984547
0.900181 0.944937 0.974331 0.977734
1.01164 0.997012 1.01505 0.999627
0.978394 0.970733 1.00912 0.998786
0.876649 0.930343 0.959237 0.982328
0.924596 0.932745 1.00999 0.981457
0.887799 0.939332 0.975967 0.968412
0.883382 0.946185 0.953503 0.979153
0.835819 0.93642 0.927584 0.962251
1.00305 0.984116 1.01945 0.999787
0.893252 0.945669 0.959493 0.984448
0.872191 0.930258 0.960126 0.976517
0.960583 0.957072 1.0104 0.993333
0.783339 0.895633 0.911592 0.959444
0.844895 0.905074 0.963278 0.969096
0.958124 0.954757 1.02609 0.978007
1.00055 0.967374 1.03504 0.999276
0.878728 0.930477 0.960912 0.9828
0.890636 0.945789 0.970344 0.970466
0.709174 0.818805 0.901414 0.960832
0.809384 0.893344 0.936386 0.967567
0.931183 0.943283 1.00989 0.977504
0.939749 0.952604 0.995287 0.991176
1.02451 0.992538 1.03273 0.999501
1.01017 0.986144 1.02479 0.999586
1.01418 0.991553 1.02331 0.999528
1.00804 1 1.00902 0.999032
1.02349 0.997436 1.02665 0.999487
1.01405 0.993241 1.02164 0.999321
1.00968 1 1.01088 0.998816
1.00486 1 1.00599 0.998872
1.0067 1 1.00854 0.998171
1.01505 1.0005 1.01748 0.997113
0.999663 1 1.00145 0.99822
1.00304 1.00091 1.00509 0.997054
1.00461 1.0024 1.00596 0.996261
1.00374 1.00561 1.00191 0.996238
1.00305 1.00499 1.00108 0.996997
1.00321 1.00472 1.00189 0.996619
0.999012 1.00082 1.00124 0.996954
1.00141 1.00269 1.0011 0.997623
1.00516 1.00723 1.00048 0.997467
1.00257 1 1.00457 0.998007
1.00303 1.00249 1.00274 0.997809
1.0041 1.00552 1.00117 0.997424
1.00299 1 1.00432 0.998671
1.00411 1 1.00577 0.998351
1.00216 1.00078 1.0033 0.998081
0.999534 1 1 0.999534
0.999476 1 1.00055 0.998929
1.0023 1 1.00377 0.99854
0.999081 1 1 0.999081
0.999627 1 1 0.999627
0.999991 1 1 0.999991
0.999687 1 1 0.999687
0.999995 1 1 0.999995
1 1 1 1
0.999997 1 1 0.999997
1 1 1 1
1 1 1 1
0.999028 1 1 0.999028
0.999639 1 1 0.999639
0.999074 1 1 0.999074
1 1 1 1
0.999682 1 1 0.999682
0.999203 1 1 0.999203
1 1 1 1
1 1 1 1
0.999731 1 1 0.999731
1 1 1 1
1 1 1 1
1 1 1 1
0.891813 0.945239 0.959038 0.983777
0.878808 0.930866 0.96072 0.982676
0.892617 0.942856 0.970102 0.975894
0.99882 1 1.0002 0.998622
0.998622 1 1.00014 0.998484
0.998773 1 1 0.998773
0.998677 1 1 0.998677
0.998573 1 1 0.998573
0.99857 1 1 0.99857
0.99849 1 1 0.99849
0.86811 0.933823 0.953902 0.974556
0.884025 0.947926 0.954178 0.977373
0.868406 0.929002 0.957353 0.976414
0.847604 0.9542 0.918883 0.966703
0.911913 0.944464 0.977548 0.98771
0.918494 0.936573 1.00274 0.978015
0.855801 0.911916 0.967948 0.96954
0.903554 0.941123 0.972554 0.987174
0.927439 0.938181 1.01289 0.975971
0.893081 0.943038 0.977016 0.969304
0.818388 0.922777 0.918196 0.96589
0.918158 0.944182 0.982818 0.989438
0.938673 0.947201 1.01581 0.975576
0.852105 0.913911 0.962957 0.968239
0.796292 0.902558 0.917275 0.961828
1.00465 1 1.00614 0.998518
0.99885 1 1.00049 0.998359
1.00112 1 1.00282 0.99831
0.998513 1 1 0.998513
0.973221 0.978944 0.995208 0.99894
1.00915 0.985305 1.0248 0.999416
1.00067 1 1.00241 0.998265
1.00134 1 1.00293 0.998415
1.03408 0.998557 1.03679 0.998821
1.00084 1 1.00233 0.998515
1.03273 0.997267 1.0368 0.998803
0.978536 0.966235 1.01491 0.997849
1.00793 0.978346 1.03065 0.999609
1.01293 0.995638 1.01846 0.998927
0.968022 0.949996 1.0214 0.997625
1.02305 0.982752 1.04174 0.999296
0.886285 0.931747 0.966533 0.984144
0.902331 0.948572 0.964273 0.986498
0.885448 0.931827 0.964693 0.985006
0.997306 0.980079 1.01778 0.999805
0.966535 0.961623 1.0083 0.996835
0.892876 0.94507 0.959131 0.98503
0.955057 0.957276 1.02289 0.975359
0.848484 0.90859 0.963678 0.969044
0.870007 0.930838 0.957102 0.976541
0.778936 0.886436 0.915398 0.959941
1.00368 0.970439 1.03487 0.999409
0.87846 0.931391 0.959687 0.982789
0.887307 0.943746 0.968916 0.970359
0.942044 0.952122 0.995851 0.993537
0.705644 0.823711 0.894558 0.957639
0.817128 0.895524 0.943 0.967612
0.929114 0.938483 1.01402 0.976326
0.999281 0.974978 1.02677 0.998204
0.889646 0.944098 0.965351 0.976146
0.776653 0.857042 0.940798 0.963227
0.775995 0.867942 0.921465 0.970263
0.913181 0.931259 1.00267 0.977971
0.913728 0.93968 0.983904 0.988289
1.01193 0.989739 1.02284 0.99959
1.01425 0.989214 1.0258 0.999522
0.995208 0.989428 1.0065 0.999346
1.01635 0.992046 1.02512 0.999402
1.00841 0.99569 1.0139 0.998896
1.00245 1.0008 1.00376 0.997895
1.00688 1 1.00886 0.998036
1.01408 1.00045 1.01663 0.997046
1.00885 1.00037 1.01222 0.99631
1.00467 1.00162 1.00604 0.997025
1.00503 1.00223 1.00664 0.996175
1.00251 1.00213 1.00445 0.995938
1.01087 1.0146 1 0.996326
1.00786 1.01065 1.00077 0.996473
1.00428 1.00594 1.00218 0.996183
1.00103 1.00365 1.00013 0.99727
1.00233 1.00454 1.00074 0.99706
1.00302 1.00456 1.0019 0.996571
0.999236 1.00048 1.00112 0.997647
1.00165 1.00296 1.00108 0.997609
1.00485 1.00688 1.00043 0.997555
1.00421 1 1.00589 0.998329
1.00246 1 1.00441 0.998061
1.00338 1.00264 1.00288 0.997861
0.999578 1 1.00024 0.999334
1.00249 1 1.00383 0.998674
1.00339 1 1.00505 0.998352
0.999982 1 1 0.999982
0.999527 1 1 0.999527
0.999777 1 1.00085 0.998927
0.999623 1 1 0.999623
0.999989 1 1 0.999989
1 1 1 1
0.999994 1 1 0.999994
1 1 1 1
1 1 1 1
0.999339 1 1.00073 0.998607
0.998935 1 1 0.998935
0.999555 1 1 0.999555
0.999025 1 1 0.999025
0.999996 1 1 0.999996
0.999642 1 1 0.999642
0.999097 1 1 0.999097
1 1 1 1
1 1 1 1
0.99972 1 1 0.99972
1 1 1 1
1 1 1 1
1 1 1 1
0.872521 0.928418 0.956754 0.982274
0.891661 0.94486 0.958686 0.984365
0.879776 0.932048 0.960573 0.98266
0.998749 1 1.00012 0.998634
0.999008 1 1.00053 0.998476
0.998797 1 1.00032 0.998476
0.998546 1 1.00006 0.998484
1.00165 1 1.00324 0.998412
0.99867 1 1 0.99867
0.998557 1 1 0.998557
0.998571 1 1 0.998571
0.998494 1 1 0.998494
1.00294 1 1.00441 0.99854
0.881152 0.9361 0.970026 0.970388
0.870598 0.934844 0.955557 0.97459
0.885374 0.946806 0.955128 0.979049
0.81957 0.925002 0.917192 0.966013
0.888756 0.938078 0.978067 0.968668
0.895984 0.936783 0.970027 0.986001
0.934791 0.945688 1.01095 0.977772
0.917304 0.947237 0.981266 0.986888
0.949799 0.956224 1.01589 0.977744
0.859207 0.916495 0.967355 0.96913
0.794939 0.906374 0.912733 0.96091
0.932062 0.945524 0.99693 0.988798
0.93607 0.944978 1.01256 0.978287
0.792964 0.871957 0.938265 0.969243
0.736779 0.85432 0.89807 0.960298
1.00578 1 1.00676 0.999025
1.00572 1 1.00721 0.998517
0.999843 1 1.00148 0.998365
0.979976 0.969022 1.01449 0.996861
1.01132 0.974646 1.0379 0.999741
1.00076 1 1.00226 0.998507
1.03395 0.996483 1.03886 0.99879
1.01406 0.997672 1.01751 0.998935
1.02686 0.987405 1.0407 0.999285
0.971817 0.95561 1.01938 0.997623
1.01861 0.995961 1.02341 0.999345
0.980763 0.967613 1.01595 0.997679
0.900829 0.946068 0.974242 0.977356
0.886811 0.932081 0.966316 0.984595
0.899757 0.947604 0.961799 0.98722
1.00816 0.975519 1.03395 0.999528
0.942002 0.953823 0.997739 0.989845
0.880262 0.932357 0.960675 0.982774
0.933311 0.947312 1.0101 0.975366
0.805807 0.878732 0.945914 0.969445
0.885446 0.941722 0.969061 0.97026
0.706389 0.831893 0.889709 0.954396
0.998784 0.973864 1.02727 0.998366
0.891849 0.943526 0.968348 0.976126
0.770061 0.852436 0.938924 0.962128
0.917725 0.94447 0.981936 0.989558
0.787899 0.875577 0.928836 0.968807
0.901868 0.931201 0.992025 0.976286
0.967006 0.967301 1.00263 0.997068
0.807686 0.871632 0.958292 0.966967
0.788138 0.866602 0.93715 0.970451
0.923271 0.950309 0.994659 0.976765
0.89748 0.93579 0.96855 0.990204
1.01377 0.987402 1.0272 0.999515
0.999113 0.988664 1.01126 0.99932
0.999274 0.998471 1.00226 0.998548
1.00708 0.991043 1.01722 0.998974
1.00211 1.00093 1.0032 0.997984
0.998923 1.00199 0.99975 0.997193
1.01268 1.00035 1.01539 0.996979
1.00718 1.00052 1.01037 0.996322
0.999385 1.00157 1.00137 0.996457
1.00499 1.00195 1.00697 0.99609
1.00268 1.00303 1.0037 0.995966
1.01075 1.01428 1 0.996515
1.02697 1.03028 1 0.996787
1.01816 1.02183 1.00002 0.996387
1.01055 1.01425 1 0.99635
1.00729 1.01057 1 0.996749
1.00612 1.00865 1.00107 0.996424
1.00492 1.00637 1.00244 0.996129
1.00049 1.00308 1 0.997426
1.00002 1.00266 1.00002 0.997342
1.00155 1.00412 1.00032 0.997123
1.00007 1 1.00208 0.997995
0.999879 1.00091 1.0013 0.997681
1.00196 1.00328 1.0011 0.997594
1.00232 1 1.00335 0.99898
1.00383 1 1.00551 0.998331
1.00232 1 1.00421 0.998115
0.99996 1 1 0.99996
0.999968 1 1.00064 0.999326
1.00206 1 1.00338 0.998677
1 1 1 1
0.999977 1 1 0.999977
0.99952 1 1 0.99952
0.999987 1 1 0.999987
1 1 1 1
1 1 1 1
0.999814 1 1.00129 0.998527
0.99896 1 1.00013 0.998832
0.999316 1 1.00073 0.998592
0.999477 1 1 0.999477
0.998934 1 1 0.998934
0.999984 1 1 0.999984
0.999558 1 1 0.999558
0.999023 1 1 0.999023
1 1 1 1
0.999998 1 1 0.999998
0.999646 1 1 0.999646
1 1 1 1
1 1 1 1
1 1 1 1
0.891547 0.944982 0.964989 0.977683
0.874392 0.929547 0.957653 0.98226
0.891513 0.943816 0.959012 0.984955
0.998575 1 1.00008 0.998492
0.998836 1 1.00019 0.998646
0.999076 1 1.00061 0.998469
0.998658 1 1.00017 0.998491
0.99865 1 1.00015 0.998495
1.00057 1 1.00213 0.998451
1.00569 1 1.00746 0.99825
1.00637 1 1.00797 0.998412
0.998573 1 1 0.998573
0.998498 1 1 0.998498
1.00275 1 1.00423 0.998529
1.00997 1 1.01125 0.998735
0.778185 0.858659 0.941913 0.962168
0.88927 0.943344 0.971601 0.970232
0.872027 0.934884 0.957058 0.974617
0.78485 0.897959 0.908602 0.961959
0.864802 0.923708 0.966744 0.968436
0.940217 0.948012 1.01655 0.975636
0.920336 0.943493 0.98769 0.987614
0.929988 0.942843 0.995614 0.990711
0.722328 0.844336 0.893736 0.957215
0.930557 0.940666 1.01348 0.976093
0.809308 0.889464 0.939656 0.968315
0.92709 0.946844 0.987641 0.99139
0.921964 0.939217 1.00252 0.979159
0.778944 0.871369 0.922451 0.969083
1.00058 1 1.00102 0.999552
1.00568 1 1.00666 0.999031
1.00625 1 1.00775 0.998516
0.968253 0.952403 1.01903 0.997655
1.03058 0.992039 1.0396 0.999273
1.01486 0.998992 1.01696 0.998943
1.01871 0.997315 1.02213 0.999344
0.978758 0.967373 1.01407 0.997727
0.996078 0.988861 1.0089 0.998412
0.828022 0.882389 0.970575 0.966836
0.898453 0.945226 0.971006 0.978899
0.885775 0.931942 0.964891 0.985045
0.999074 0.972252 1.02914 0.99849
0.909443 0.940797 0.976062 0.990381
0.891411 0.942891 0.968526 0.976124
0.907613 0.926459 1.00198 0.977721
0.796904 0.889563 0.925749 0.96769
0.768851 0.856139 0.932589 0.962958
0.968412 0.966297 1.00507 0.997136
0.800486 0.870011 0.95076 0.96774
0.795585 0.871281 0.941691 0.969661
0.901146 0.937225 0.973681 0.987494
0.914841 0.949341 0.984451 0.97888
0.958322 0.975911 0.983412 0.99854
0.815624 0.885267 0.949758 0.97007
0.938576 0.975695 0.981573 0.980015
0.914058 0.951184 0.973354 0.987276
1.00313 0.987877 1.01616 0.999296
0.990823 0.99748 0.994667 0.998652
0.993631 1.00237 0.993422 0.997848
1.0023 1.0011 1.00313 0.998072
1.00172 1.00242 1.00213 0.997178
1.00022 1.00354 0.999428 0.997265
1.0059 1.00075 1.00884 0.996334
0.9993 1.00117 1.00167 0.996469
1.01677 1.01974 0.999882 0.997199
1.00311 1.00395 1.00319 0.995994
1.00994 1.01347 1 0.996525
1.027 1.02978 1 0.997299
1.03103 1.03381 1 0.997317
1.02961 1.03301 1 0.996709
1.02646 1.02974 1 0.996824
1.01838 1.02186 1 0.996599
1.017 1.02064 1 0.996437
1.00994 1.01361 1 0.996373
1.00798 1.01089 1 0.99712
1.00724 1.01036 1.00014 0.996777
1.00443 1.0066 1.00148 0.996375
0.998514 1.0008 1 0.997721
1.00142 1.00401 1 0.99742
0.998944 1.00153 1 0.997415
1.00194 1 1.00335 0.998598
1.00031 1.00023 1.00209 0.997995
1.00046 1.0013 1.00145 0.997715
0.999889 1 1 0.999889
1.00201 1 1.00304 0.998976
1.00315 1 1.00482 0.998333
1 1 1 1
0.999948 1 1 0.999948
1.00029 1 1.00098 0.999318
1 1 1 1
0.999972 1 1 0.999972
1 1 1 1
0.99906 1 1.0006 0.998465
0.999813 1 1.00129 0.99852
0.999892 1 1.00118 0.998713
0.999396 1 1 0.999396
0.998956 1 1.00013 0.998831
0.999059 1 1.00048 0.998577
0.999966 1 1 0.999966
0.99948 1 1 0.99948
0.998933 1 1 0.998933
1 1 1 1
0.999988 1 1 0.999988
0.999561 1 1 0.999561
1 1 1 1
1 1 1 1
1 1 1 1
0.807563 0.868902 0.963595 0.96452
0.890508 0.94384 0.965029 0.977685
0.876874 0.931231 0.958646 0.982248
0.999597 1 1.00112 0.998474
1.00075 1.00037 1.00206 0.99832
1.00402 1 1.00567 0.998359
0.999045 1 1.00055 0.998499
0.998601 1 1.00009 0.998514
1.00058 1 1.00209 0.99849
1.00582 1 1.00744 0.998396
1.00524 1 1.00698 0.998269
1.00702 1 1.00888 0.998162
0.994919 1.00002 0.995903 0.998995
1.00195 1 1.00344 0.998518
1.00766 1 1.00896 0.998703
0.793582 0.867622 0.944614 0.968293
0.768235 0.849326 0.941666 0.960556
0.895433 0.948166 0.973482 0.97011
0.709313 0.833017 0.892493 0.954069
0.809642 0.887867 0.940764 0.969314
0.924103 0.939451 1.00549 0.978295
0.936914 0.948214 0.9997 0.988379
0.921436 0.943514 0.98704 0.989423
0.781199 0.86446 0.933461 0.9681
0.908664 0.931885 0.997408 0.977615
0.914435 0.947733 0.974287 0.990329
0.909489 0.949679 0.980026 0.977199
1.00621 1 1.00719 0.999021
1.00006 1 1.00057 0.999491
1.00544 1 1.00641 0.999036
0.978154 0.968501 1.01222 0.997771
1.01867 0.998622 1.02075 0.999344
0.99649 0.989631 1.00861 0.99833
0.987063 0.994023 0.995497 0.99749
0.819729 0.901581 0.935501 0.971899
0.83035 0.881898 0.972988 0.967688
0.89834 0.945523 0.96907 0.980424
0.969779 0.971161 1.00132 0.997263
0.902287 0.937872 0.973632 0.988112
0.800699 0.871012 0.949798 0.967864
0.908803 0.944882 0.984648 0.976813
0.803123 0.877445 0.942899 0.970726
0.962202 0.977099 0.986958 0.997767
0.822765 0.894305 0.947761 0.970715
0.936945 0.976899 0.981341 0.977338
0.920875 0.953725 0.975781 0.989522
0.967731 0.989218 0.97983 0.998416
0.942101 0.982231 0.979419 0.979299
0.946283 0.980804 0.973342 0.991227
0.981573 0.995871 0.986879 0.998747
0.990861 1.0029 0.990155 0.997823
0.982272 1.00727 0.977422 0.997712
1.0035 1.00278 1.00356 0.997164
0.99948 1.00358 0.998648 0.997261
1.0196 1.02731 0.994667 0.997824
0.999047 1.00071 1.00186 0.996482
1.01631 1.01974 0.99945 0.997184
1.02891 1.03365 0.997587 0.99782
1.00906 1.01257 1 0.996535
1.02645 1.02936 0.999881 0.997296
1.03199 1.0347 0.999622 0.997762
1.02873 1.03117 1 0.997639
1.03195 1.03466 1 0.997378
1.03128 1.0342 1 0.997179
1.02989 1.03322 1 0.996777
1.02997 1.03336 1 0.996719
1.02612 1.02935 1 0.996861
1.01757 1.02077 1 0.996863
1.01979 1.02324 1 0.996632
1.01594 1.01952 1 0.996486
1.00224 1.00479 1 0.997463
1.00758 1.0105 1 0.997114
1.00737 1.01042 1.00017 0.996805
0.998485 1 1.00016 0.998329
0.999485 1.00177 1 0.997719
1.00238 1.00498 1 0.997413
1.00017 1 1.00044 0.999723
1.00129 1 1.0027 0.998598
1.00082 1.0005 1.00233 0.997995
1 1 1 1
1.00022 1 1.00035 0.999866
1.00182 1 1.00285 0.998973
1 1 1 1
0.999937 1 1 0.999937
1 1 1 1
0.998392 1 1 0.998392
0.999454 1 1.00099 0.998471
1.00036 1 1.00177 0.998594
0.999767 1 1.00126 0.998514
1.00014 1 1.00143 0.998712
0.999768 1 1.00048 0.999287
0.999946 1 1 0.999946
0.999413 1 1.00001 0.999399
0.999188 1 1.00036 0.998831
1 1 1 1
0.999971 1 1 0.999971
0.999483 1 1 0.999483
1 1 1 1
0.999992 1 1 0.999992
1 1 1 1
0.824587 0.890585 0.953803 0.970739
0.810326 0.87268 0.962627 0.964599
0.889314 0.942846 0.964755 0.977681
1.00057 1 1.00212 0.998456
1.00511 1 1.00687 0.998258
0.999698 1.00021 1.00111 0.998384
0.998765 1.00074 1.00027 0.997761
1.00454 1.00007 1.00624 0.998247
1.00558 1 1.00721 0.998381
1.00404 1 1.00576 0.998288
1.0082 1.00001 1.00999 0.998213
0.99798 1 1 0.99798
0.988361 1.00065 0.988996 0.99871
0.99118 1.00035 0.993003 0.997814
0.996319 1.00003 0.997246 0.999044
1.00471 1 1.00604 0.998672
0.928461 0.970765 0.977505 0.978433
0.79507 0.864943 0.948663 0.96896
0.768903 0.852187 0.93908 0.960803
0.779011 0.866018 0.930435 0.966788
0.91942 0.94026 1.00117 0.976692
0.923357 0.939026 0.991739 0.991504
0.916391 0.946909 0.975813 0.991759
0.918765 0.951283 0.985807 0.979722
0.942842 0.976628 0.974334 0.990836
0.997565 1.00132 0.99803 0.998218
1.00553 1 1.00654 0.998999
0.999884 1 1.00045 0.99943
0.99767 0.991419 1.00804 0.998277
0.992044 0.997722 0.996762 0.997539
0.91847 0.969973 0.966781 0.979439
0.829559 0.9002 0.948152 0.97192
0.832764 0.880663 0.976303 0.968562
0.968412 0.980444 0.990746 0.996955
0.919889 0.952812 0.977743 0.987424
0.823057 0.8914 0.951448 0.970449
0.935155 0.971134 0.983002 0.979603
0.974181 0.989186 0.986335 0.998475
0.948712 0.989327 0.978126 0.980392
0.943446 0.978493 0.974879 0.989028
0.990039 1.00429 0.987921 0.997858
0.964773 0.994226 0.976311 0.993921
0.990727 1.00465 0.988308 0.997812
0.983187 1.00677 0.978864 0.997662
1.00316 1.03113 0.974877 0.997944
0.998951 1.00358 0.998123 0.997256
1.01988 1.02731 0.994956 0.997804
1.02899 1.04175 0.98966 0.998076
1.01588 1.01975 0.999032 0.997168
1.02841 1.03379 0.996992 0.9978
1.02613 1.0336 0.994769 0.997995
1.02592 1.02903 0.999688 0.997292
1.03214 1.03515 0.999345 0.997743
1.03033 1.03342 0.999185 0.997824
1.02938 1.03177 1 0.99769
1.02829 1.03091 1 0.997455
1.03282 1.03547 1 0.997439
1.03121 1.03414 1 0.997171
1.03252 1.03561 1 0.997015
1.02607 1.02931 1 0.996856
1.02973 1.03307 1 0.996767
1.03026 1.03365 1 0.996729
1.0103 1.01309 1 0.997248
1.0167 1.01989 1 0.996879
1.02117 1.02459 1 0.996665
0.998642 1.00052 1 0.998125
1.00356 1.00611 1 0.997459
1.00703 1.00995 1 0.997109
0.99998 1 1.00047 0.999513
0.998654 1.00005 1.00027 0.998329
1.00044 1.00273 1 0.997716
1 1 1 1
1.00037 1 1.00068 0.999699
1.00064 1 1.00205 0.998599
1 1 1 1
1.00062 1 1.00077 0.999843
1 1 1 1
1.00099 1.00318 1 0.997818
0.998386 1 1 0.998386
0.999689 1 1.00126 0.998431
0.999904 1 1.00143 0.998476
1.00036 1 1.0018 0.998571
1.00001 1 1.0009 0.999111
1.00007 1 1.00136 0.998711
0.999547 1 1.00026 0.999289
0.999921 1 1 0.999921
1 1 1 1
0.999952 1 1 0.999952
0.999402 1 1 0.999402
1 1 1 1
0.999976 1 1 0.999976
1 1 1 1
0.942144 0.983365 0.976541 0.981097
0.820344 0.895127 0.943506 0.97133
0.818886 0.877932 0.967668 0.963909
1.00617 1 1.00803 0.998157
0.998522 1 1.00007 0.998448
1.00347 1 1.00524 0.998233
0.999743 1.00163 1.00032 0.997807
1.0068 1.00935 1.00016 0.997315
0.997968 1.00001 1 0.997959
1.0096 1 1.01136 0.998264
0.997817 1 1 0.997817
0.991834 1.00045 0.992697 0.998685
0.997149 1.00062 0.998642 0.997888
0.988977 1.00303 0.98799 0.997977
0.995938 1.00129 0.997221 0.997429
0.991338 1.00082 0.992562 0.99795
0.999062 1 0.999968 0.999094
0.94397 0.980193 0.971837 0.990954
0.931633 0.973157 0.97793 0.978936
0.792979 0.866324 0.943143 0.970518
0.928382 0.95685 0.993293 0.976799
0.918487 0.945809 0.978273 0.99268
0.947418 0.976237 0.976703 0.993628
0.990796 1.00377 0.989238 0.997815
0.995708 1.00067 0.996809 0.998228
1.0046 1 1.00563 0.998978
0.993529 1.00035 0.995599 0.997568
0.951648 0.976139 0.983651 0.991114
0.933064 0.975776 0.973789 0.981966
0.818381 0.894138 0.942667 0.970941
0.976213 0.987395 0.990134 0.998526
0.945934 0.981241 0.973183 0.990581
0.95542 0.989097 0.984195 0.981464
0.983563 1.00295 0.982753 0.997885
0.963067 0.990971 0.97848 0.993215
0.985927 1.02425 0.964769 0.99774
1.00348 1.01622 0.990408 0.997022
0.983481 1.00628 0.97969 0.997606
1.00153 1.03001 0.974357 0.997938
1.00761 1.04513 0.966048 0.997984
1.02057 1.02782 0.995147 0.997784
1.02881 1.04162 0.989617 0.998059
1.02193 1.03629 0.988177 0.997945
1.02804 1.03398 0.99647 0.997779
1.02553 1.03294 0.994835 0.997978
1.03032 1.03736 0.995402 0.997795
1.03234 1.03556 0.999161 0.997724
1.02882 1.03197 0.999132 0.997817
1.02958 1.03235 0.999772 0.997544
1.03 1.03234 1 0.99774
1.02854 1.03112 1 0.997498
1.03155 1.03447 1 0.997169
1.03123 1.03416 1 0.997163
1.03246 1.03556 1 0.997005
1.02937 1.03248 1 0.996991
1.01711 1.02005 1 0.997114
1.02603 1.02926 1 0.996869
1.02953 1.03288 1 0.996756
1.00062 1.00268 1 0.997941
1.01035 1.01314 1 0.997249
1.01599 1.01915 1 0.996895
0.999326 1 1 0.999326
0.999149 1.00103 1 0.998124
1.0048 1.00736 1 0.997455
1 1 1 1
0.999772 1 1.00027 0.999497
0.99877 1.00012 1.00032 0.998329
1 1 1 1
1.00048 1 1.00081 0.999675
1 1 1 1
1.00619 1.00881 1 0.997404
1.00094 1.00311 1 0.997836
1.00069 1.00207 1.00056 0.998063
0.998379 1 1 0.998379
0.999547 1 1.00115 0.998399
1.00023 1 1.00137 0.99887
1.00054 1 1.002 0.998548
0.999812 1 1.0007 0.999112
0.999881 1 1 0.999881
0.999437 1 1.00015 0.999291
0.999928 1 1 0.999928
1 1 1 1
1 1 1 1
0.999958 1 1 0.999958
1 1 1 1
0.944047 0.980185 0.971396 0.991492
0.936215 0.983007 0.972816 0.979013
0.813107 0.888761 0.941491 0.971732
1.01725 1.0202 1.00007 0.997038
1.0025 1 1.00429 0.99822
1.00105 1.0028 1.0004 0.997854
0.997961 1.00003 1 0.997927
1.00653 1.00883 1.00042 0.997301
1.00159 1.00379 1 0.997803
0.997691 1.00004 1 0.997654
0.994178 1.00029 0.995227 0.998659
0.996189 1.00084 0.997433 0.997913
0.984514 1.0021 0.984505 0.99791
1.00113 1.00543 0.998467 0.99725
1.00128 1.00665 0.99724 0.997415
0.996783 1.00195 0.99745 0.997383
0.991268 1.00134 0.991843 0.998087
0.990366 1.00613 0.985992 0.998321
0.940452 0.979745 0.969732 0.989855
0.935108 0.974985 0.978835 0.979838
0.940275 0.971651 0.975786 0.991721
0.993886 1.00571 0.989878 0.998349
0.996089 1.0002 0.997652 0.998233
0.990574 1.00668 0.987044 0.996915
0.940106 0.964643 0.981933 0.992495
0.920711 0.973024 0.965992 0.97955
0.978265 1.00131 0.979029 0.99791
0.968745 0.992628 0.983519 0.992293
0.988247 1.02526 0.966013 0.997811
1.00253 1.01547 0.990016 0.997218
0.997875 1.03596 0.965351 0.997807
1.0362 1.04375 0.995075 0.997681
0.999359 1.02824 0.973928 0.997932
1.01052 1.04653 0.967554 0.997975
1.01251 1.04489 0.971144 0.997803
1.02791 1.04091 0.989457 0.998042
1.02116 1.03578 0.987925 0.997941
1.02875 1.04138 0.99016 0.997683
1.02471 1.03221 0.994765 0.99796
1.02951 1.03659 0.995346 0.997808
1.0328 1.0368 0.99865 0.997489
1.02735 1.03057 0.999068 0.99781
1.03008 1.03283 0.999802 0.997543
1.0335 1.03637 1 0.997232
1.02876 1.0313 1 0.997541
1.03168 1.03457 1 0.997204
1.03137 1.03447 1 0.997008
1.03238 1.03549 1 0.996995
1.02912 1.03225 1 0.996971
1.02046 1.02341 1 0.997117
1.00382 1.00601 1 0.997819
1.01653 1.01945 1 0.997136
1.02598 1.02919 1 0.996881
0.999183 1 1 0.999183
1.00158 1.00365 1 0.99794
1.01043 1.01322 1 0.99725
1 1 1 1
0.999313 1 1 0.999313
0.999651 1.00153 1 0.998122
1 1 1 1
0.999591 1 1.00011 0.999481
1 1 1 1
1.01292 1.01589 1 0.99708
1.00674 1.00935 1 0.997407
1.00465 1.00696 1 0.997706
1.00061 1.00276 1.00001 0.997854
0.999854 1.00124 1.00056 0.998063
0.999726 1 1.00113 0.998595
0.999465 1 1.0011 0.998366
1.00066 1 1.00179 0.998871
1.0004 1 1.0006 0.999801
0.9996 1 1.00049 0.999114
0.99989 1 1 0.99989
1 1 1 1
0.999935 1 1 0.999935
1 1 1 1
1 1 1 1
0.988229 1.01057 0.979653 0.998207
0.93843 0.977168 0.970655 0.98939
0.931802 0.973229 0.975539 0.981441
1.01288 1.01555 1.00001 0.99736
1.02441 1.0275 1 0.996996
1.01509 1.01791 1.00013 0.997093
0.997894 1 1 0.997894
1.00601 1.00801 1.00073 0.997285
1.0027 1.00516 0.999791 0.99776
1.01452 1.01749 0.999851 0.997232
0.995714 1.00104 0.996733 0.997939
0.980903 1.00108 0.981968 0.997842
1.00218 1.00698 0.997905 0.997322
1.01695 1.02223 0.997798 0.997026
1.01011 1.02244 0.99023 0.997693
1.00295 1.00799 0.997608 0.997385
0.998081 1.00262 0.998126 0.997337
0.994454 1.00822 0.987824 0.998501
0.94411 0.981116 0.973349 0.98863
0.994227 1.00655 0.988845 0.9989
1.01901 1.03329 0.987859 0.998295
0.990154 1.00539 0.987786 0.997021
0.943409 0.973419 0.978454 0.990512
0.991349 1.02666 0.967659 0.997879
1.00159 1.01507 0.989264 0.997426
0.99767 1.0365 0.964559 0.997907
1.03672 1.04528 0.994108 0.997691
1.03176 1.05178 0.983245 0.997683
1.05524 1.06536 0.992679 0.997807
1.014 1.0488 0.968783 0.997966
1.01636 1.04512 0.974623 0.997805
1.03202 1.04946 0.985764 0.997585
1.02079 1.03548 0.987851 0.997937
1.0287 1.04076 0.990713 0.99768
1.03432 1.04209 0.995072 0.997455
1.02873 1.03581 0.995332 0.99782
1.03324 1.03715 0.998743 0.997486
1.03645 1.03944 0.999912 0.997216
1.03054 1.03324 0.999837 0.997542
1.03349 1.03636 1 0.997232
1.03442 1.03754 1 0.996997
1.03184 1.0347 1 0.997238
1.03105 1.03413 1 0.997018
1.02264 1.02564 1 0.997078
1.02891 1.03206 1 0.99695
1.02033 1.02329 1 0.997109
1.00591 1.00818 1 0.997748
0.999114 1 1 0.999114
1.00445 1.00664 1 0.997818
1.016 1.01889 1 0.997159
1 1 1 1
0.999172 1 1 0.999172
1.00255 1.00462 1 0.997939
1 1 1 1
0.9993 1 1 0.9993
1 1 1 1
1.02066 1.0238 1 0.996932
1.01351 1.0165 1 0.997061
1.00883 1.01146 1 0.997398
1.00728 1.0099 1 0.99741
1.00326 1.00556 1 0.997712
0.999442 1.0008 1.00032 0.998319
0.998907 1.00038 1.00046 0.998062
1.00026 1 1.00166 0.998597
1.00016 1 1.00052 0.999645
1.00079 1 1.00192 0.998871
1.00004 1 1.00022 0.999816
1 1 1 1
0.9999 1 1 0.9999
1 1 1 1
1 1 1 1
1.00846 1.0314 0.979539 0.998183
0.985931 1.00952 0.978947 0.997636
0.937481 0.978813 0.967316 0.990135
1.02358 1.02652 1 0.997131
1.01369 1.01619 1 0.997539
1.03864 1.04177 1 0.996997
1.0251 1.02821 1 0.996982
1.01317 1.01589 1.00018 0.997149
1.03305 1.03645 0.999754 0.996961
1.00363 1.00657 0.999356 0.997718
1.01284 1.01589 0.999826 0.997171
1.03552 1.04662 0.992161 0.997208
1.00248 1.0085 0.996629 0.997394
1.01769 1.02309 0.997733 0.996984
1.01062 1.02314 0.990016 0.99772
1.00322 1.00824 0.997661 0.997353
0.998717 1.01015 0.989994 0.998673
1.04341 1.05879 0.987583 0.997866
1.01912 1.03319 0.988048 0.998306
0.989597 1.00409 0.98841 0.997122
0.998009 1.03639 0.964894 0.998006
1.03636 1.04593 0.993139 0.997703
1.02855 1.05134 0.980582 0.997703
1.05563 1.0668 0.99171 0.997804
1.04702 1.06107 0.989033 0.997701
1.01967 1.04497 0.977928 0.997807
1.03239 1.04892 0.986617 0.997594
1.03552 1.04771 0.990868 0.997473
1.02853 1.04011 0.991174 0.997678
1.0339 1.04161 0.995154 0.997436
1.03841 1.04241 0.99897 0.99719
1.03374 1.03756 0.998832 0.997483
1.03657 1.03953 0.999935 0.997214
1.03787 1.04103 1 0.996969
1.03347 1.03634 1 0.997232
1.03426 1.03737 1 0.997
1.0255 1.02858 1 0.99701
1.03072 1.03379 1 0.997029
1.02283 1.02582 1 0.997082
1.00683 1.00918 1 0.997673
1.02016 1.02312 1 0.997101
1.00613 1.0084 1 0.997746
0.999245 1 1 0.999245
0.999735 1 1 0.999735
0.999173 1 1 0.999173
1.00504 1.00723 1 0.997817
1 1 1 1
0.999161 1 1 0.999161
1 1 1 1
1.04576 1.04884 1 0.997064
1.03056 1.03369 1 0.996972
1.02146 1.02461 1 0.996927
1.01336 1.01618 1 0.997229
1.01432 1.01733 1 0.997042
1.00848 1.01111 1 0.9974
1.00104 1.00296 1 0.998086
1.00184 1.00413 1 0.997719
0.999256 1.00049 1.00045 0.998322
0.999539 1 1.00011 0.999428
1.00108 1 1.00248 0.998599
1.00022 1 1.00056 0.999665
1 1 1 1
0.999831 1 1 0.999831
1 1 1 1
1 1 1 1
1.03945 1.05732 0.985449 0.997617
1.01252 1.03567 0.979361 0.998254
0.984025 1.00962 0.977515 0.997071
1.03651 1.03964 1 0.996989
1.02248 1.02536 1 0.99719
1.01424 1.01656 1 0.997716
1.03752 1.04063 1 0.997016
1.02575 1.02887 1 0.996967
1.04289 1.05169 0.994433 0.997187
1.02953 1.03296 0.999763 0.99692
1.01147 1.01441 1 0.997109
1.03468 1.04579 0.992157 0.997203
1.02049 1.02554 0.998123 0.996941
1.01381 1.02701 0.989377 0.997752
1.04679 1.06047 0.98928 0.997797
1.04546 1.06013 0.988245 0.99789
1.01927 1.03322 0.988159 0.99832
1.02653 1.05186 0.978143 0.997721
1.0568 1.06892 0.990841 0.997801
1.04709 1.06211 0.988117 0.99771
1.0402 1.05004 0.993061 0.997555
1.0327 1.04826 0.987518 0.997603
1.03553 1.04722 0.991353 0.997462
1.04034 1.04608 0.997282 0.997217
1.03349 1.04111 0.995248 0.997417
1.03898 1.04296 0.998986 0.99719
1.04084 1.04403 1 0.996942
1.03667 1.03961 0.99996 0.997211
1.03788 1.04104 1 0.99697
1.02814 1.0313 1 0.996934
1.03412 1.03723 1 0.997003
1.02579 1.02886 1 0.997013
1.00774 1.01019 1 0.997574
1.02302 1.02601 1 0.997086
1.00707 1.00942 1 0.997672
0.999251 1 1 0.999251
1.00635 1.00863 1 0.997745
0.999241 1 1 0.999241
0.999752 1 1 0.999752
0.999872 1 1 0.999872
0.999237 1 1 0.999237
1 1 1 1
1.04179 1.04491 1 0.997013
1.03651 1.03961 1 0.99702
1.04495 1.04791 1 0.997179
1.02158 1.02452 1 0.997128
1.03248 1.03563 1 0.996961
1.02234 1.02549 1 0.996922
1.01399 1.01681 1 0.997224
1.00464 1.00675 1 0.997903
1.00823 1.01086 1 0.997401
1.00031 1.00223 1 0.998088
0.99924 1 1 0.99924
0.9991 1.00025 1.00052 0.998325
0.999695 1 1.00025 0.999447
1 1 1 1
1.0001 1 1.00042 0.999685
1 1 1 1
1 1 1 1
1.04143 1.05565 0.989003 0.997505
1.0384 1.05609 0.985596 0.997612
1.01502 1.03788 0.979625 0.998317
1.04358 1.04826 0.998436 0.997098
1.03485 1.03797 1 0.99699
1.02141 1.02423 1 0.997249
1.03623 1.03931 1 0.997034
1.04178 1.05063 0.994402 0.997164
1.02582 1.02926 0.999773 0.996879
1.03098 1.04195 0.992257 0.997197
1.0421 1.05285 0.992159 0.997617
1.04588 1.05932 0.989534 0.997758
1.04738 1.06128 0.988964 0.997915
1.03932 1.04702 0.995189 0.997447
1.04686 1.0629 0.987158 0.997719
1.03993 1.05003 0.992824 0.997541
1.04192 1.04837 0.996523 0.997315
1.03561 1.04677 0.991861 0.997451
1.04047 1.04625 0.997246 0.99722
1.04207 1.04527 1 0.996937
1.03953 1.0435 0.999004 0.997189
1.04071 1.0439 1 0.996943
1.02972 1.03295 1 0.996878
1.03781 1.04096 1 0.996971
1.02841 1.03157 1 0.996937
1.00848 1.01104 1 0.997475
1.02605 1.02912 1 0.997015
1.00796 1.01041 1 0.997573
0.999227 1 1 0.999227
1.00731 1.00967 1 0.99767
0.999242 1 1 0.999242
0.999756 1 1 0.999756
0.999238 1 1 0.999238
0.999757 1 1 0.999757
1 1 1 1
1.04229 1.04562 0.999904 0.996915
1.03778 1.04098 1 0.996925
1.04318 1.04629 1 0.997019
1.02682 1.02977 1 0.997135
1.03732 1.0404 1 0.99704
1.0443 1.04713 1 0.997293
1.00779 1.01006 1 0.997748
1.02162 1.02457 1 0.997121
1.03451 1.03768 1 0.99695
1.01447 1.0173 1 0.99722
1.00343 1.00554 1 0.997905
0.999132 1 1 0.999132
0.99947 1.00138 1 0.998089
0.999254 1 1 0.999254
1 1 1 1
0.999871 1 1.0004 0.999466
1 1 1 1
1 1 1 1
1.0416 1.04986 0.994752 0.997365
1.04161 1.05617 0.988697 0.99749
1.03875 1.05645 0.985603 0.997608
1.04257 1.0474 0.998266 0.997113
1.03308 1.0362 1 0.996991
1.04124 1.05014 0.994364 0.99714
1.04 1.04834 0.994576 0.99745
1.04254 1.05291 0.992517 0.99761
1.045 1.05827 0.989723 0.997719
1.03989 1.04746 0.995285 0.997468
1.04335 1.04871 0.997626 0.997254
1.03965 1.05004 0.992559 0.997528
1.04204 1.04823 0.996811 0.997273
1.04205 1.04577 0.999429 0.997015
1.04053 1.04635 0.997208 0.997222
1.04249 1.04571 0.999978 0.99694
1.03006 1.03332 1 0.996839
1.04075 1.04394 1 0.996945
1.03021 1.03344 1 0.996879
1.00879 1.01141 1 0.997403
1.02881 1.03197 1 0.996939
1.00861 1.01116 1 0.997475
0.999173 1 1 0.999173
1.00819 1.01065 1 0.997573
0.999212 1 1 0.999212
0.999738 1 1 0.999738
0.999235 1 1 0.999235
0.999769 1 1 0.999769
0.999758 1 1 0.999758
1.04334 1.04725 0.999112 0.997153
1.04012 1.04344 1 0.996811
1.04306 1.04665 0.999631 0.99694
1.02902 1.0321 1 0.997022
1.0371 1.04031 1 0.996919
1.04448 1.04759 1 0.997026
1.00888 1.01127 1 0.997638
1.02683 1.02982 1 0.997094
1.03798 1.04104 1 0.997061
0.99909 1 1 0.99909
1.00707 1.00934 1 0.997751
1.02177 1.02473 1 0.997113
1.00228 1.00438 1 0.997906
0.999142 1 1 0.999142
1 1 1 1
0.999268 1 1 0.999268
1 1 1 1
1 1 1 1
1.03886 1.04572 0.996078 0.997345
1.04105 1.04948 0.994595 0.997359
1.04153 1.05637 0.988447 0.997474
1.04155 1.04654 0.998093 0.997129
1.04227 1.04665 0.998594 0.997214
1.04058 1.04867 0.994816 0.997461
1.04301 1.05295 0.992941 0.997603
1.04048 1.04793 0.995393 0.997489
1.04298 1.04843 0.997525 0.997265
1.0424 1.04609 0.999455 0.997019
1.04224 1.04816 0.997118 0.997232
1.04258 1.04608 0.99967 0.996977
1.02953 1.03278 1 0.996854
1.04288 1.04613 0.999945 0.996943
1.03021 1.03348 1 0.996842
1.00835 1.01104 1 0.997345
1.03047 1.0337 1 0.99688
1.00865 1.01127 1 0.997403
0.99898 1 1 0.99898
1.00868 1.01123 1 0.997475
0.999095 1 1 0.999095
1 1 1 1
0.9992 1 1 0.9992
0.999756 1 1 0.999756
0.999776 1 1 0.999776
1.04072 1.04472 0.998929 0.997239
1.04069 1.04391 1 0.996917
1.04322 1.04701 0.999233 0.997145
1.03031 1.03356 1 0.996857
1.03967 1.04298 1 0.996832
1.0439 1.04775 0.999351 0.996965
1.00935 1.01193 1 0.997451
1.02921 1.03228 1 0.997022
1.03649 1.03969 1 0.996913
0.999081 1 1 0.999081
1.00875 1.01118 1 0.997594
1.02683 1.02986 1 0.997053
1 1 1 1
0.999101 1 1 0.999101
1.00631 1.00858 1 0.997754
0.999154 1 1 0.999154
1 1 1 1
1 1 1 1
1.04066 1.04483 0.998774 0.997231
1.03941 1.04624 0.99611 0.997352
1.04042 1.04907 0.994393 0.997352
1.04226 1.04552 0.999924 0.996957
1.04154 1.04624 0.998277 0.997227
1.04113 1.04897 0.99505 0.997471
1.04257 1.04815 0.997396 0.997276
1.04221 1.046 0.999357 0.99702
1.02795 1.03113 1 0.996918
1.043 1.04631 0.999906 0.996939
1.02929 1.03252 1 0.996869
1.0078 1.0106 1 0.997231
1.03047 1.03373 1 0.996844
1.00823 1.01091 1 0.997345
0.998933 1 1 0.998933
1.00859 1.01122 1 0.997403
0.998977 1 1 0.998977
1 1 1 1
0.999005 1 1 0.999005
0.999861 1 1 0.999861
0.999771 1 1 0.999771
1.04005 1.04361 0.999393 0.997191
1.04102 1.04418 1 0.996975
1.04112 1.04501 0.999022 0.997246
1.03066 1.03391 1 0.996857
1.04111 1.04435 1 0.996903
1.04314 1.04679 0.999366 0.997138
1.00945 1.01213 1 0.997352
1.03025 1.03346 1 0.996892
1.0392 1.04248 1 0.996852
0.999055 1 1 0.999055
1.0093 1.0119 1 0.997438
1.02939 1.03247 1 0.997021
1 1 1 1
0.99909 1 1 0.99909
1.00865 1.01112 1 0.99755
1 1 1 1
0.999112 1 1 0.999112
1 1 1 1
1.04279 1.04605 0.999868 0.997007
1.03992 1.04406 0.998817 0.997215
1.03995 1.04674 0.996142 0.997358
1.02789 1.03108 1 0.996911
1.04203 1.0455 0.999709 0.996979
1.04084 1.04585 0.997962 0.997241
1.04203 1.0459 0.999284 0.997021
1.02802 1.0312 1 0.996918
1.00715 1.00997 1 0.997206
1.02908 1.03229 1 0.996884
1.00774 1.01051 1 0.997262
0.998876 1 1 0.998876
1.00804 1.01072 1 0.997346
0.99893 1 1 0.99893
1 1 1 1
0.998974 1 1 0.998974
1 1 1 1
0.999748 1 1 0.999748
1.04262 1.04576 1 0.996997
1.03946 1.04322 0.999185 0.997214
1.03036 1.03358 1 0.996882
1.04127 1.04443 1 0.996973
1.04158 1.04538 0.999107 0.997253
1.00877 1.01142 1 0.99738
1.03029 1.03354 1 0.996854
1.04151 1.04476 1 0.996888
0.999004 1 1 0.999004
1.0096 1.01225 1 0.99738
1.03016 1.03333 1 0.996927
1 1 1 1
0.999061 1 1 0.999061
1.00926 1.01187 1 0.997424
1 1 1 1
0.999098 1 1 0.999098
1 1 1 1
1.0288 1.03195 1 0.996943
1.04263 1.04586 0.999919 0.996994
1.03916 1.04329 0.998839 0.9972
1.00616 1.00897 1 0.997215
1.02789 1.03107 1 0.996911
1.0418 1.04547 0.999488 0.997001
1.02808 1.03126 1 0.996918
1.00717 1.00999 1 0.997206
0.998838 1 1 0.998838
1.00771 1.01044 1 0.997294
0.998873 1 1 0.998873
1 1 1 1
0.998927 1 1 0.998927
1 1 1 1
1 1 1 1
1.03013 1.03335 1 0.99689
1.04228 1.04549 0.999896 0.99703
1.03884 1.04273 0.999027 0.997238
1.00795 1.01061 1 0.997367
1.03 1.03322 1 0.996879
1.04146 1.04462 1 0.996971
0.998953 1 1 0.998953
1.00907 1.01172 1 0.997378
1.02995 1.0332 1 0.99685
1 1 1 1
0.999008 1 1 0.999008
1.00975 1.01237 1 0.997409
1 1 1 1
0.999067 1 1 0.999067
1 1 1 1
1.00611 1.00884 1 0.9973
1.02864 1.03183 1 0.996909
1.04252 1.04567 1 0.996981
0.998846 1 1 0.998846
1.00624 1.00905 1 0.997212
1.02789 1.03108 1 0.996911
1.00719 1.01001 1 0.997207
0.998838 1 1 0.998838
1 1 1 1
0.99887 1 1 0.99887
1 1 1 1
1 1 1 1
1.00693 1.00961 1 0.99734
1.02969 1.03289 1 0.9969
1.04196 1.04528 0.999757 0.997062
0.999089 1 1 0.999089
1.00822 1.01088 1 0.997365
1.02965 1.03288 1 0.996876
1 1 1 1
0.998954 1 1 0.998954
1.00934 1.012 1 0.997376
1 1 1 1
0.999012 1 1 0.999012
1 1 1 1
0.998841 1 1 0.998841
1.00631 1.00906 1 0.997271
1.0285 1.03172 1 0.996875
1 1 1 1
0.998846 1 1 0.998846
1.00631 1.00913 1 0.99721
0.998837 1 1 0.998837
1 1 1 1
1 1 1 1
0.999044 1 1 0.999044
1.00725 1.00994 1 0.99734
1.02921 1.0324 1 0.99691
1 1 1 1
0.998919 1 1 0.998919
1.00849 1.01116 1 0.997363
1 1 1 1
0.998956 1 1 0.998956
1 1 1 1
0.999678 1 1 0.999678
0.998948 1 1 0.998948
1.00649 1.00927 1 0.997241
1 1 1 1
0.998847 1 1 0.998847
1 1 1 1
0.999695 1 1 0.999695
0.998971 1 1 0.998971
1.0076 1.01029 1 0.99734
0.999848 1 1 0.999848
0.998919 1 1 0.998919
1 1 1 1
1 1 1 1
0.998869 1 1 0.998869
1 1 1 1
0.999845 1 1 0.999845
0.998894 1 1 0.998894
1 1 1 1
1 1 1 1
1 1 1 1

VECTORS lamdaE float
1.00089 1.00015 0.994211
1.00054 1.00062 0.99721
1.00048 1.00036 0.994468
1.00108 1 0.994081
1.00098 0.999972 0.994269
1.00083 1.00037 0.994052
1.00221 1.00048 0.991273
1.00056 1.00053 0.997214
1.00051 1.00018 0.99759
1.00002 1.00085 0.997634
1.00053 1.00055 0.994246
1.00193 1.00129 0.990188
1.00077 0.999983 0.994405
1.0005 0.999992 0.994609
1.00012 1.00058 0.994696
1.00078 0.999985 0.994376
1.00038 1.00072 0.994284
1.00064 1.00003 0.994539
1.00242 1.00029 0.99116
1.00077 1.00002 0.997219
1.00103 1.00006 0.994076
1.00105 0.999939 0.994197
1.00244 1.00008 0.991306
1.00236 1.00014 0.991364
1.00082 1.00045 0.993956
1.00198 1.00102 0.991093
1.00484 1.00047 0.986792
1.00056 1.00049 0.997237
1.0007 1.00007 0.995923
1.00031 1.00061 0.995948
1.00053 1.00045 0.99729
1.00183 1.00143 0.990196
1.001 0.999823 0.994179
1.00071 1.00028 0.994286
1.00267 1.00008 0.991635
0.999857 1.0005 0.99788
1.00232 1.00079 0.991601
1.00166 1.00169 0.990211
1.0041 1.00149 0.986257
0.999952 0.999089 0.998287
1.0008 0.999991 0.997201
1.0007 1 0.99589
1.00072 0.999979 0.997243
1.00038 1.00003 0.994762
1.00246 0.999957 0.990652
1.00065 0.99996 0.99751
1.00273 1.00005 0.991589
1.00049 0.999923 0.994671
1.00033 1.00008 0.994794
0.999938 1.00112 0.994498
1.00261 1.00011 0.991061
1.00061 1.00004 0.995964
1.00072 1.00007 0.994375
1.00033 1.00089 0.994162
1.00075 0.99992 0.994481
1.00256 1.00005 0.99117
1.00224 1.00076 0.990985
1.00252 1.00004 0.991247
1.00481 1.0005 0.986799
1.0007 1.00001 0.997245
1.00092 1.00006 0.994215
1.00221 1.00002 0.99229
1.00237 1.00011 0.991382
1.00243 1.00005 0.991348
1.00481 1.00013 0.987078
1.00485 1.00015 0.986904
1.00066 1.00033 0.9942
1.00149 1.0019 0.990981
1.00473 1.0008 0.98667
1.00526 1.00032 0.985476
1.00093 1.00009 0.997191
1.00045 1.00034 0.997412
1.00061 1.00046 0.997211
1.00177 1.00149 0.990197
1.00104 0.999955 0.997134
1.0008 1.00028 0.997215
1.00254 1.00004 0.990308
1.00007 1.00033 0.996319
1.00208 1.00085 0.990292
1.00154 1.00192 0.990992
1.0042 1.00135 0.986256
1.00021 0.999756 0.997843
0.999972 1.00144 0.99339
1.00273 0.999941 0.990139
1.00248 1.00026 0.99029
1.00489 1.0002 0.986242
1.00104 1.00233 0.992247
1.00452 1.00079 0.986273
1.00333 1.00271 0.986411
1.00509 1.00124 0.984745
0.999815 0.998359 0.998665
0.999816 0.998946 0.998446
1.00097 0.999984 0.997117
1.00083 0.999989 0.997192
1.00076 0.999984 0.997241
1.00062 0.999996 0.995982
1.00249 0.999946 0.991329
1.00081 0.999965 0.995837
1.00267 1.00006 0.990934
1.00074 0.999992 0.997249
1.00232 0.999879 0.990905
1.00263 1.00004 0.991774
1.0048 0.999513 0.987171
1.00275 0.999982 0.991563
1.0049 0.999774 0.986746
1.00074 1.00001 0.994452
1.0004 1.00008 0.994677
0.999853 1.00137 0.994369
1.00046 0.999875 0.994762
1.00269 1.00005 0.991034
1.00267 0.999955 0.991136
1.00249 1.00046 0.990885
1.00478 1.00052 0.986806
1.00075 0.999993 0.997246
1.00061 1.00006 0.994514
1.00237 0.999981 0.991163
1.00249 1.00009 0.991236
1.00042 1.00075 0.995718
1.00184 1.00166 0.991101
1.00256 0.999992 0.991224
1.00483 1.00006 0.987114
1.00468 1.00084 0.986681
1.00484 1.00026 0.98689
1.00526 1.0003 0.985505
1.00231 0.999933 0.990899
1.00226 1.00005 0.991575
1.00468 0.999472 0.987885
1.00476 0.999849 0.987349
1.00483 1.00002 0.987053
1.00528 0.99925 0.986767
1.00009 1.00049 0.997638
1.00526 0.999881 0.985902
1.00108 1.00268 0.990089
1.00427 1.00126 0.986183
1.00525 1.0008 0.985058
1.00521 0.99917 0.986613
1.00026 1.0028 0.991478
1.00092 1.00511 0.987993
1.00103 0.999982 0.997153
1.00076 1.00029 0.997213
1.00255 1.00003 0.990301
1.00021 1.00005 0.997744
1.0012 1.00231 0.990339
1.00206 1.00086 0.990304
1.00428 1.00121 0.986256
1.00004 0.999639 0.998012
0.999887 1.00157 0.993429
1.00275 0.999978 0.990861
1.00249 1.0003 0.990969
1.00489 1.00021 0.986225
1.00072 1.00249 0.991025
1.00454 1.00075 0.986266
1.00342 1.00254 0.986412
1.00515 1.00115 0.984801
1.00021 1.00233 0.992099
0.999952 1.00045 0.994467
1.00098 1.00451 0.989
1.00494 1.00006 0.986325
1.00476 1.00041 0.986233
1.00529 0.999816 0.985973
1.00238 1.00377 0.986984
1.00521 1.00063 0.98526
1.0048 1.00179 0.98481
1.0052 1.00092 0.984897
0.999813 0.99785 0.998891
0.999773 0.998243 0.998758
0.999726 0.998748 0.998581
1.00006 1.0023 0.992333
0.999913 1.00005 0.997932
1.00105 0.999963 0.997113
1.00087 0.99999 0.997154
1.00255 1.00008 0.990319
1.00238 0.999946 0.990729
1.00074 0.999984 0.997233
1.00071 0.999987 0.997249
1.00231 0.999892 0.990899
1.00255 1.00002 0.991132
1.00478 0.999514 0.987176
1.00264 1.00002 0.990193
1.00487 0.999778 0.986741
1.00228 0.999897 0.990944
1.00475 0.999437 0.987307
1.00483 0.999627 0.986993
1.00528 0.997938 0.988047
1.00494 0.999928 0.986492
1.0053 0.998492 0.987433
1.00072 0.999992 0.997242
1.00029 1.0001 0.994814
1.00239 0.99998 0.990162
1.00263 1.00008 0.991088
0.999804 1.00125 0.997598
1.00228 1.00127 0.991223
1.0027 0.999964 0.991102
1.00484 0.999971 0.987151
1.00483 1.00036 0.986876
1.00463 1.00091 0.986692
1.00526 1.0003 0.985533
1.00229 0.999924 0.990901
1.00239 1.00006 0.991428
1.0047 0.999459 0.987583
1.00478 0.999947 0.987292
1.00023 1.00053 0.997529
1.00129 1.00243 0.990866
1.00414 1.00158 0.986426
1.00484 1.00007 0.987018
1.00529 0.999006 0.986973
1.00524 1.00075 0.985103
1.00526 0.999949 0.985946
1.00521 0.999177 0.986637
1.00035 1.0027 0.99146
1.00107 1.00497 0.987991
1.00471 0.999514 0.987289
1.0047 0.999691 0.987666
1.00526 0.998357 0.987736
1.00528 0.998443 0.987492
1.00527 0.999355 0.986594
1.00525 0.997319 0.98859
1.00064 1.00296 0.990653
1.00522 0.99835 0.987446
1.0035 1.00226 0.986394
1.00521 1.00123 0.984597
1.0052 1.00023 0.985698
1.00519 0.997655 0.988264
1.00178 1.00456 0.98722
1.00062 1.00475 0.988965
1.00219 1.00472 0.986629
1.00264 0.999966 0.990224
0.999864 0.999522 0.99819
0.99983 1.00154 0.993467
1.00234 1.00033 0.990346
1.00489 1.00021 0.986206
1.00066 1.0026 0.990984
1.00348 1.00234 0.986411
1.00458 1.00071 0.98626
1.00518 1.00106 0.984857
1.00015 1.00238 0.992111
0.999942 1.00036 0.994512
1.0007 1.00463 0.988986
1.00493 1.00008 0.986305
1.00477 1.0004 0.98622
1.00529 0.999825 0.985951
1.00248 1.00359 0.986986
1.00523 1.00068 0.985204
1.00483 1.00172 0.984798
1.0052 1.00076 0.984992
0.999996 0.999646 0.995183
1.00163 1.00441 0.987819
1.00058 1.00353 0.990419
1.00153 1.00466 0.987736
1.00529 0.999355 0.986465
1.00527 1.00027 0.985529
1.00523 0.998598 0.987171
1.00413 1.0024 0.985423
1.00521 0.999869 0.986074
1.00501 1.0015 0.984732
1.00516 1.0003 0.985526
1.00023 1.00106 0.993376
1.00022 0.998694 0.995717
0.999864 0.997527 0.999003
0.999798 0.997791 0.998937
0.999749 0.998127 0.998837
1.00002 1.00145 0.993246
0.999819 0.999504 0.998201
1.00015 1.0022 0.99231
1.00001 1.00015 0.997823
1.00263 1.00005 0.990195
1.00247 1.00001 0.990525
1.00486 0.999783 0.986736
1.00476 0.999519 0.98718
1.00232 0.999908 0.990899
1.00076 0.999978 0.997248
1.0023 0.999893 0.990947
1.00474 0.999447 0.987309
1.00482 0.999637 0.986991
1.00527 0.997947 0.988039
1.00492 0.999941 0.986478
1.0053 0.998492 0.987417
1.00471 0.999455 0.98734
1.0053 0.997807 0.988143
1.00526 0.998169 0.98782
1.00522 0.995485 0.990556
1.00531 0.998897 0.986962
1.00527 0.996562 0.989364
1.0023 0.999919 0.990906
1.00253 1.00004 0.99128
1.00472 0.999429 0.987284
1.0048 1.00003 0.987234
1.00034 1.0006 0.997418
1.00158 1.00223 0.991469
1.00413 1.00183 0.986667
1.00484 1.0001 0.986983
1.00529 0.998759 0.98718
1.00526 1.00002 0.98599
1.00524 1.00069 0.985148
1.00521 0.999182 0.986661
1.0004 1.0026 0.991446
1.00122 1.00488 0.987988
1.00472 0.999392 0.98736
1.00472 0.999667 0.987645
1.00525 0.998165 0.98796
1.00528 0.998711 0.98726
1.00072 1.00283 0.99065
1.00349 1.00242 0.986389
1.00519 1.00128 0.984569
1.00527 0.999499 0.986474
1.00525 0.997045 0.988879
1.0052 1.00011 0.985835
1.00522 0.998353 0.987458
1.00518 0.997585 0.988248
1.0018 1.0045 0.987226
1.00197 1.0046 0.986647
1.0007 1.0047 0.98897
1.00527 0.998156 0.987904
1.00525 0.998297 0.98784
1.00525 0.996008 0.98999
1.00525 0.996575 0.989298
1.00523 0.997403 0.988327
1.00518 0.995608 0.990301
1.00273 1.00333 0.98673
1.0052 0.996566 0.989104
1.00511 1.00161 0.984592
1.0052 1.00109 0.984677
1.00517 0.999047 0.986837
1.00515 0.996678 0.989214
1.00026 1.00436 0.990033
1.00333 1.00322 0.986033
1.00111 1.00511 0.987567
1.00358 1.0034 0.985855
1.00492 1.00009 0.986285
0.999938 1.00027 0.994557
1.00001 1.00258 0.992128
1.00043 1.00477 0.988973
1.00479 1.00039 0.986206
1.00529 0.999835 0.985929
1.00254 1.00343 0.986992
1.00494 1.00169 0.984785
1.00525 1.00073 0.985147
1.0052 1.00061 0.985086
1.00001 0.999537 0.99522
1.00149 1.00447 0.987821
1.00042 1.00367 0.990436
1.00138 1.00478 0.987734
1.00529 0.999364 0.986445
1.00527 1.00027 0.985505
1.00523 0.998594 0.987162
1.0042 1.00225 0.98543
1.00521 0.999967 0.985941
1.00504 1.00138 0.984722
1.00516 1.00024 0.985673
1.00014 0.999001 0.995561
1.00038 1.00251 0.991723
1.00287 1.00336 0.986573
1.00085 1.00486 0.988974
1.00248 1.00355 0.987392
1.00525 0.997922 0.987873
1.00522 0.999239 0.986511
1.0052 0.99751 0.988129
1.00458 1.00147 0.985183
1.00516 0.999191 0.986692
1.0047 1.0012 0.985278
1.0003 1.00121 0.993124
1.00032 1.00248 0.991859
1.00014 1.00102 0.993584
1.00022 1.00107 0.993371
1.00021 0.998494 0.996462
1.00021 0.998663 0.996053
1.00004 0.997264 0.997765
0.999869 0.997481 0.999014
0.999791 0.997721 0.99897
0.999849 1.00069 0.994264
0.999793 0.998923 0.998499
1.00005 1.00145 0.993222
0.999912 0.999606 0.998105
1.00027 1.00204 0.992286
1.00014 1.00023 0.997713
1.00491 0.999952 0.986463
1.0048 0.999643 0.986989
1.0053 0.99851 0.9874
1.00527 0.997956 0.988032
1.00472 0.999457 0.987312
1.00229 0.999884 0.990946
1.00471 0.999455 0.98734
1.00529 0.997813 0.988144
1.00527 0.998184 0.987801
1.00523 0.995464 0.990569
1.0053 0.998902 0.986946
1.00526 0.996559 0.989358
1.00528 0.997803 0.988157
1.00521 0.995339 0.990793
1.00526 0.995889 0.990068
1.00523 0.994955 0.990986
1.00525 0.997268 0.988614
1.00526 0.995146 0.990462
1.00472 0.999272 0.987432
1.00474 0.999658 0.987624
1.00525 0.997994 0.988184
1.00528 0.998981 0.987028
1.00082 1.00273 0.990651
1.00334 1.00271 0.986388
1.00516 1.00134 0.98454
1.00527 0.999644 0.986354
1.00524 0.996772 0.989167
1.00523 0.998355 0.98747
1.0052 0.999979 0.98597
1.00518 0.997514 0.988231
1.00188 1.00442 0.987231
1.00189 1.00452 0.986666
1.00076 1.00461 0.988976
1.00527 0.998041 0.988001
1.00525 0.998287 0.98783
1.00524 0.995791 0.990235
1.00525 0.996742 0.989148
1.00272 1.00346 0.986726
1.00501 1.00166 0.984609
1.0052 1.00117 0.984585
1.00523 0.997692 0.988059
1.00518 0.995394 0.990439
1.00517 0.998985 0.986789
1.00519 0.996602 0.9891
1.00516 0.996538 0.989308
1.0034 1.00317 0.986026
1.00342 1.00346 0.985736
1.00037 1.00415 0.990049
1.00096 1.0051 0.987727
1.00524 0.99542 0.990657
1.00525 0.996331 0.989561
1.00522 0.995078 0.990932
1.0052 0.994976 0.990779
1.0052 0.995791 0.98984
1.00516 0.995118 0.9907
1.00475 1.00166 0.98526
1.00517 0.995392 0.990153
1.00516 1.00203 0.983942
1.00513 1.00064 0.985118
1.00517 0.998332 0.987281
1.00517 0.996591 0.989254
1.00016 1.0034 0.991096
1.00055 1.00509 0.988599
1.00476 1.0018 0.985186
1.00166 1.00506 0.987088
1.00422 1.00321 0.985182
1.00001 0.999445 0.995256
1.0053 0.999371 0.986425
1.00028 1.00379 0.990453
1.00137 1.00453 0.987821
1.00123 1.00485 0.987732
1.00528 1.00027 0.985482
1.00523 0.998589 0.987154
1.00446 1.00186 0.985435
1.00514 1.00129 0.984712
1.0052 1.00006 0.985809
1.00515 1.00017 0.98582
1.00014 0.998962 0.995585
1.0003 1.00258 0.991751
1.00296 1.00333 0.986577
1.00056 1.00492 0.988967
1.00223 1.0035 0.987407
1.00524 0.997913 0.987866
1.00521 0.999229 0.986503
1.0052 0.997475 0.988112
1.00485 1.00138 0.985176
1.00515 0.999248 0.98655
1.00486 1.00116 0.985302
1.00035 1.00165 0.992647
1.00048 1.004 0.990375
1.00401 1.00167 0.986172
1.00098 1.00503 0.988689
1.00286 1.00233 0.987929
1.00521 0.996782 0.98891
1.00517 0.998269 0.987336
1.00521 0.996705 0.988534
1.00431 1.00105 0.985787
1.00495 0.999875 0.985947
1.0003 1.0012 0.993124
1.00031 1.00248 0.991749
1.00018 1.00262 0.991824
1.00043 1.00286 0.991467
1.00023 1.00254 0.991968
1.00006 1.00101 0.993717
1.00013 1.001 0.993588
1.0002 0.998421 0.996546
1.00021 1.00109 0.993367
1.00022 0.998505 0.996475
1.00011 0.997058 0.997825
1.0002 0.998654 0.996382
0.999977 0.997268 0.998405
0.999877 0.997418 0.999024
0.999814 0.999796 0.995213
0.999878 1.00074 0.994237
0.999721 0.998323 0.99881
0.999856 0.999028 0.998385
1.00009 1.0015 0.993196
0.999997 0.999722 0.998003
1.0053 0.998906 0.986931
1.00528 0.998182 0.987784
1.00526 0.996553 0.989351
1.00524 0.995455 0.990581
1.00529 0.997819 0.988145
1.00471 0.999456 0.98734
1.00529 0.997808 0.988157
1.00521 0.995318 0.990802
1.00525 0.995899 0.990074
1.00523 0.994953 0.990987
1.00525 0.997245 0.988597
1.00526 0.99517 0.990465
1.00524 0.995337 0.990796
1.00517 0.994964 0.991124
1.00525 0.994934 0.990824
1.00523 0.994944 0.99096
1.00525 0.995923 0.989732
1.00527 0.994915 0.990675
1.00528 0.997921 0.988097
1.00525 0.998288 0.98782
1.00524 0.995571 0.990481
1.00526 0.996903 0.988997
1.0027 1.00354 0.986721
1.00495 1.00169 0.984625
1.0052 1.0012 0.984493
1.00524 0.997982 0.987792
1.00519 0.995185 0.990578
1.00518 0.996638 0.989096
1.00518 0.998938 0.986743
1.00517 0.996399 0.989404
1.00322 1.00328 0.98602
1.003 1.00351 0.985616
1.00049 1.00401 0.990066
1.00085 1.00509 0.987888
1.00523 0.995429 0.990654
1.00525 0.996422 0.98951
1.00523 0.995017 0.990968
1.0052 0.994971 0.990789
1.00445 1.00205 0.985233
1.00509 1.00208 0.98389
1.00514 1.00058 0.9851
1.00519 0.996006 0.989662
1.00515 0.995033 0.990746
1.00515 0.998382 0.987255
1.00517 0.995376 0.990142
1.00517 0.996362 0.989397
1.00458 1.0019 0.985181
1.00395 1.0033 0.985096
1.00162 1.00505 0.987086
1.00017 1.00332 0.991072
1.0004 1.00509 0.988721
1.00519 0.994959 0.991098
1.00521 0.994928 0.990972
1.00519 0.99491 0.990714
1.00518 0.995028 0.990591
1.00508 1.00218 0.984287
1.00519 0.995229 0.990283
1.00509 1.00184 0.983809
1.00514 1.0002 0.985371
1.00514 0.998206 0.987342
0.999963 1.00221 0.992335
1.00023 1.00482 0.98966
1.00096 1.00509 0.988331
1.00508 1.00238 0.98442
1.00216 1.00502 0.985915
1.00448 1.00322 0.98408
1.00014 0.99893 0.995609
1.00022 1.00265 0.991779
1.00524 0.997904 0.987859
1.00022 1.00499 0.988958
1.00284 1.00353 0.986583
1.002 1.00347 0.987421
1.00521 0.99922 0.986494
1.0052 0.997441 0.988094
1.00507 1.00128 0.98517
1.00504 1.00117 0.985326
1.00515 0.999299 0.986406
1.00031 1.00165 0.992659
1.0002 1.00418 0.990376
1.00424 1.00161 0.986069
1.00072 1.00505 0.988678
1.00272 1.00212 0.988009
1.00521 0.996752 0.988906
1.00517 0.998284 0.987313
1.00521 0.996759 0.988535
1.00454 1.00102 0.985744
1.00498 0.999996 0.985955
1.00036 1.00301 0.991392
0.999784 1.00483 0.98999
1.00455 1.00042 0.986543
1.00086 1.00426 0.988925
1.00362 1.00069 0.98791
1.00522 0.99566 0.989705
1.00519 0.99821 0.987225
1.0052 0.996913 0.988195
1.00457 1.0003 0.986218
1.00503 0.999847 0.985963
1.0003 1.00118 0.993123
1.00032 1.00251 0.991765
1.0001 1.00297 0.991557
1.00009 1.00272 0.991789
1.00015 1.00264 0.991959
1.00019 1.00305 0.991479
1.0001 1.00281 0.991943
1.00006 1.00337 0.991193
1.00011 1.00261 0.992086
1.00002 1.00112 0.993682
1.00006 1.001 0.993716
1.00015 0.998445 0.996605
1.00013 1.00097 0.993593
1.00021 0.998433 0.996555
1.00014 0.99694 0.997868
1.00023 0.998501 0.996491
1.00009 0.99705 0.99783
0.999908 0.997257 0.999062
0.999875 0.999026 0.99591
0.999808 0.99991 0.995168
0.99969 0.997881 0.999006
0.99991 1.00079 0.99421
0.999775 0.998471 0.998703
0.999924 0.99912 0.99828
1.00526 0.997222 0.988581
1.00524 0.995902 0.99008
1.00527 0.995201 0.990467
1.00523 0.994951 0.990988
1.00521 0.995296 0.990811
1.0053 0.997811 0.988158
1.00522 0.995327 0.990796
1.00517 0.994966 0.991137
1.00525 0.994934 0.990862
1.00522 0.994941 0.990935
1.00524 0.995949 0.989747
1.00528 0.994909 0.990625
1.00519 0.994969 0.991151
1.00521 0.994948 0.991031
1.00525 0.994928 0.990796
1.00525 0.995104 0.990394
1.00522 0.995438 0.990651
1.00526 0.996502 0.98946
1.00524 0.994947 0.991004
1.0052 0.994967 0.9908
1.00431 1.00224 0.985207
1.00502 1.00214 0.983839
1.00515 1.00055 0.985083
1.00519 0.996228 0.989482
1.00515 0.99494 0.990792
1.00518 0.995363 0.990129
1.00514 0.998418 0.987228
1.00518 0.996095 0.989539
1.00445 1.00201 0.985177
1.00377 1.00314 0.985007
1.00152 1.00505 0.987083
1.0002 1.00316 0.991054
1.00034 1.00509 0.988844
1.0052 0.994953 0.991087
1.00521 0.994996 0.990888
1.00519 0.994912 0.990752
1.0049 1.00221 0.984301
1.00506 1.002 0.983782
1.00512 1.00017 0.985362
1.00518 0.995065 0.99055
1.00517 0.997934 0.98766
1.00517 0.99532 0.990183
1.00001 1.00201 0.992536
1.00483 1.00217 0.984403
1.00416 1.00318 0.984559
1.00234 1.00505 0.985991
1.00096 1.00509 0.98846
1.00019 1.00484 0.989553
1.0052 0.994953 0.991037
1.00522 0.994916 0.990806
1.00521 0.994896 0.990648
1.00517 0.994913 0.99062
1.00508 1.00272 0.983683
1.00514 0.996178 0.989268
1.00501 1.00167 0.984048
1.00507 1.00059 0.985128
1.00007 1.00063 0.993815
0.999977 1.00397 0.990933
1.0005 1.00508 0.989262
1.00167 1.00507 0.987024
1.00484 1.0031 0.983454
1.00412 1.0043 0.983715
1.00027 1.00164 0.99267
0.999978 1.0043 0.990379
1.00521 0.996722 0.988902
1.00042 1.00508 0.98867
1.00448 1.00151 0.985966
1.00229 1.00212 0.988093
1.00517 0.998298 0.987291
1.00522 0.996827 0.988533
1.00474 1.00103 0.985699
1.00503 1.00012 0.985962
1.00025 1.00307 0.991399
0.99998 1.00486 0.989828
1.00481 1.00039 0.986444
1.00061 1.00452 0.989011
1.00351 1.00054 0.988056
1.00523 0.995648 0.989824
1.0052 0.998132 0.987382
1.00521 0.997066 0.988163
1.00455 1.00041 0.98625
1.00501 1.00001 0.985735
0.999722 1.00363 0.991172
0.99991 1.00498 0.989432
1.00464 0.999497 0.987089
1.0024 1.00179 0.988053
1.00527 0.994914 0.990219
1.0052 0.996301 0.989391
1.00503 0.999217 0.986294
1.00504 0.999733 0.98588
1.00036 1.00248 0.991781
1.00018 1.00296 0.991552
0.999726 1.00327 0.992254
1.00008 1.00276 0.991949
0.999933 1.00325 0.99149
1.00008 1.00264 0.992076
0.99993 1.00282 0.992131
1.0001 1.00342 0.991181
0.999843 1.00185 0.993281
0.999946 1.00369 0.991296
1.00003 1.00365 0.990973
1.00013 1.00265 0.992015
0.999984 1.00133 0.993479
1 1.00111 0.993678
1.00007 0.998508 0.996667
1.00005 1.00098 0.993717
1.00016 0.998467 0.996612
1.00012 0.99694 0.997897
1.00021 0.998447 0.996567
1.00013 0.996928 0.997872
1.00006 0.99705 0.997829
0.999996 0.998434 0.996326
0.999875 0.999118 0.995856
0.999718 0.997496 0.999125
0.999795 1.00004 0.995122
0.999722 0.997959 0.998955
0.99985 0.998554 0.998578
1.00524 0.995968 0.989762
1.00525 0.994933 0.9909
1.00528 0.994903 0.990577
1.00522 0.994939 0.990911
1.00518 0.994969 0.99115
1.00521 0.995317 0.990795
1.00519 0.994971 0.99114
1.00521 0.994949 0.991028
1.00525 0.994924 0.990789
1.00524 0.995088 0.990446
1.00522 0.99496 0.991054
1.00525 0.99493 0.990883
1.00527 0.9949 0.990638
1.00521 0.994948 0.991075
1.00522 0.995068 0.990804
1.00519 0.994912 0.990789
1.0047 1.00227 0.984316
1.00498 1.00215 0.983751
1.0051 1.0001 0.985351
1.00517 0.995094 0.99051
1.00514 0.995361 0.990083
1.00518 0.997665 0.987978
1.00476 1.0021 0.984384
1.0037 1.00312 0.985035
1.00265 1.00506 0.986068
1.00006 1.00184 0.992739
1.00081 1.00508 0.988587
1.00011 1.00488 0.989443
1.0052 0.994948 0.991039
1.00521 0.994913 0.99078
1.00521 0.994893 0.990639
1.00491 1.00272 0.98373
1.00504 1.00167 0.983959
1.00508 1.00032 0.985458
1.00517 0.994917 0.990575
1.00512 0.996194 0.989195
1.00008 1.00055 0.994021
0.999973 1.004 0.990914
1.00468 1.00266 0.983584
1.00365 1.00433 0.984589
1.00165 1.00506 0.98727
1.00043 1.00508 0.989135
1.00524 0.994927 0.990914
1.00526 0.994876 0.990526
1.0052 0.99489 0.99061
1.00511 0.994929 0.990442
1.00467 1.00282 0.983316
1.00506 0.998997 0.986675
1.00498 1.00228 0.983858
1.00025 0.999882 0.994551
1.00031 1.00102 0.993377
0.999923 1.00213 0.992678
1.00011 1.0049 0.989812
1.00068 1.00508 0.988337
1.00163 1.00461 0.986338
1.00456 1.00304 0.983791
1.00377 1.004 0.985474
1.00012 1.00322 0.991406
1.00013 1.005 0.989665
1.00524 0.995636 0.989944
1.00072 1.00447 0.989093
1.00503 1.00041 0.986347
1.00332 1.00042 0.988198
1.0052 0.99803 0.987541
1.00521 0.997181 0.988134
1.00468 1.00047 0.986282
1.00498 1.00012 0.985509
0.999865 1.00369 0.991046
1.00008 1.00501 0.989415
1.0049 0.999475 0.987087
1.00266 1.00193 0.988153
1.00529 0.994904 0.990275
1.00521 0.996256 0.989251
1.00502 0.99916 0.98639
1.00503 0.999897 0.985803
0.999777 1.00405 0.990772
1.0053 0.994878 0.990326
1.00183 1.00405 0.988354
1.00467 0.999853 0.986886
1.00521 0.995268 0.990421
1.00501 0.998205 0.986385
1.00478 1.00105 0.985304
1.00021 1.003 0.991548
0.999709 1.00317 0.992177
0.999213 1.00285 0.99376
1.00008 1.00262 0.992066
1.00014 1.00347 0.991168
0.999458 1.00314 0.992318
1.00011 1.00265 0.992005
0.999954 1.00374 0.990998
0.999385 1.00215 0.993496
1.00007 1.00353 0.99126
0.999651 1.00073 0.995232
0.999512 1.00278 0.992822
0.999942 1.00446 0.990365
1.00035 1.00364 0.990607
1.00012 1.00296 0.991685
0.999919 1.00172 0.993199
0.999935 1.00144 0.993464
0.999973 0.998711 0.996669
0.999972 1.00117 0.993673
1.00007 0.998559 0.996663
1.00006 0.996965 0.99796
1.00016 0.998492 0.996622
1.00013 0.996921 0.997897
1.00012 0.996919 0.997872
1.00019 1.00003 0.994523
1.0001 0.998097 0.996511
1 0.998491 0.996294
0.999806 0.997131 0.999191
0.999871 0.99922 0.995802
0.999737 0.997572 0.999096
0.99976 0.998071 0.998893
1.00523 0.995072 0.990497
1.00524 0.994922 0.990783
1.00522 0.994949 0.991025
1.00519 0.994973 0.991128
1.00522 0.994963 0.991045
1.00525 0.994931 0.990898
1.00525 0.9949 0.990616
1.00525 0.994925 0.990945
1.00531 0.994921 0.990692
1.00533 0.994966 0.991113
1.0052 0.994944 0.991041
1.00521 0.994914 0.990754
1.00521 0.994893 0.99063
1.00465 1.00271 0.983777
1.00506 1.00183 0.98388
1.00499 1.0001 0.985788
1.00516 0.99492 0.990531
1.00511 0.996302 0.989122
1.00463 1.00269 0.983718
1.00331 1.00441 0.985464
1.00143 1.00505 0.987515
1.00008 1.0004 0.994226
1.00011 1.00388 0.990897
1.00044 1.00507 0.989005
1.00524 0.994926 0.9909
1.0002 0.999924 0.994544
1.00024 1.00108 0.993279
1.00526 0.994888 0.990538
1.00519 0.994884 0.99062
1.00496 1.00285 0.983284
1.00481 1.00215 0.98395
1.00501 0.99884 0.986592
1.00511 0.995012 0.990365
0.999985 1.00209 0.992861
1.00014 1.00483 0.989778
1.00466 1.00339 0.983513
1.00299 1.00379 0.98627
1.00184 1.0048 0.986644
1.00076 1.00509 0.988361
1.0053 0.994913 0.990669
1.00526 0.994803 0.990532
1.00514 0.994872 0.990352
1.00485 0.995119 0.990352
1.0043 1.00313 0.983881
1.00444 1.00236 0.984591
1.00006 1.00163 0.99289
1.00027 1.00091 0.99351
1.00076 1.00089 0.992926
1.00032 1.00294 0.991287
1.00027 1.00506 0.989375
1.00211 1.00433 0.987458
1.00084 1.00515 0.987006
1.00383 1.00055 0.986365
1.00006 1.00363 0.990921
1.00038 1.00501 0.9894
1.0053 0.994885 0.990331
1.0052 0.99626 0.989112
1.00294 1.00213 0.988253
1.00503 0.999417 0.987085
1.00501 0.99913 0.986483
1.00507 1.00007 0.985726
1.00004 1.00393 0.990699
1.00531 0.994884 0.990535
1.00158 1.00411 0.988412
1.00478 0.999893 0.986719
1.00521 0.995241 0.990417
1.005 0.998383 0.986634
1.00476 1.00092 0.985338
1.00013 1.00471 0.990162
1.00469 0.994859 0.991304
1.00305 1.00254 0.987577
1.00462 1.00118 0.985394
1.00482 0.996547 0.989597
1.00363 1.00157 0.985803
0.99853 0.997069 0.987561
0.999598 1.00318 0.992102
0.998842 1.00303 0.993735
0.999436 1.00222 0.994283
1.00004 1.00272 0.991995
0.999921 1.00383 0.991023
1.00034 1.00323 0.991226
0.999084 1.00226 0.993715
1.00008 1.003 0.991683
1.00023 1.00375 0.990638
0.999623 1.00086 0.994832
0.999998 1.00445 0.99038
0.999761 1.0027 0.992557
0.999119 1.00144 0.995377
1.00032 1.0047 0.989784
1.0001 1.00453 0.990319
1.00053 1.00384 0.990201
1.00013 1.00337 0.991072
1.00027 1.00399 0.990634
1.00011 1.00354 0.990884
0.999931 1.00182 0.993066
0.999946 1.0017 0.993181
0.999876 0.998864 0.996086
0.999947 1.00142 0.993446
0.999967 0.998773 0.996352
1.00001 0.997114 0.999125
1.00008 0.998607 0.996661
1.00007 0.996937 0.997961
1.00013 0.996903 0.997892
1.0001 1.00006 0.994586
1.00021 0.999936 0.994545
1.0001 0.998011 0.996625
1.00007 0.998121 0.996772
0.999885 0.996941 0.999228
0.999996 0.99854 0.996263
0.999802 0.997244 0.999175
0.999758 0.997637 0.999068
1.00523 0.994901 0.990595
1.00525 0.994932 0.990912
1.00522 0.994966 0.991036
1.00525 0.994924 0.990943
1.0053 0.994918 0.990695
1.00532 0.994958 0.990758
1.00533 0.994914 0.990733
1.00121 0.9949 0.983798
1.00449 0.994938 0.992749
1.00001 1.00147 0.993315
1.00524 0.994924 0.990887
1.00526 0.994895 0.990551
1.00518 0.994877 0.990629
1.00486 1.00262 0.983242
1.00499 1.002 0.984038
1.00504 0.998793 0.986517
1.00511 0.995109 0.990285
1.00495 1.0033 0.983231
1.00221 1.00361 0.98706
1.00192 1.005 0.986955
1.00014 1.00003 0.994539
1.00088 1.00509 0.988385
0.999953 1.00206 0.993036
1.00022 1.00484 0.989741
1.00025 1.00103 0.993182
1.0053 0.9949 0.990661
1.00008 1.0016 0.992998
1.00017 1.00107 0.993513
1.00064 1.00089 0.993036
1.00526 0.994824 0.990498
1.00515 0.994882 0.990361
1.00392 1.00355 0.983946
1.00464 1.00145 0.985175
1.00483 0.995609 0.990247
0.999976 1.00315 0.99145
1.00041 1.00504 0.98923
1.00369 1.00198 0.986194
1.00155 1.00493 0.98692
1.00183 1.00406 0.987644
1.00525 0.994854 0.990904
1.00515 0.994785 0.990805
1.00507 0.995151 0.989921
1.00466 0.997434 0.989625
1.00228 1.0031 0.987493
0.999806 1.00279 0.992127
1.00074 1.00097 0.9925
0.99993 1.00167 0.992682
0.999988 1.00448 0.991246
1.00022 1.00499 0.98966
1.00043 1.00459 0.988505
1.00205 1.00144 0.988699
1.00044 1.00376 0.990623
1.00112 1.00418 0.98847
1.00533 0.994883 0.990733
1.00521 0.995182 0.990406
1.00498 0.998568 0.986884
1.00478 0.999909 0.986552
1.00474 1.00076 0.985377
1.00042 1.00457 0.99017
1.00458 0.994858 0.991485
1.00306 1.00228 0.98747
1.00472 1.00106 0.985387
1.00492 0.995993 0.989851
1.00377 1.0017 0.985869
0.998623 0.997518 0.985626
1.00042 1.00434 0.990017
1.00266 0.998008 0.991097
1.00365 1.00171 0.986363
1.00292 1.00119 0.987188
1.00309 0.997772 0.990637
0.999978 0.994903 0.948218
0.996355 0.994799 0.967843
0.995646 1.00097 0.988176
0.999651 0.994812 0.875004
0.994698 0.994797 0.841906
0.998577 1.00321 0.993713
0.998734 1.00271 0.994577
0.998875 1.00275 0.994857
1.00007 1.00301 0.991683
1.00032 1.00355 0.990667
1.00005 1.00441 0.990396
0.999976 1.00261 0.992286
0.999608 1.00097 0.994429
1.00016 1.00432 0.990274
1.00012 1.00337 0.99116
1.00046 1.00382 0.990264
0.999356 1.00092 0.994966
1.00009 1.00465 0.990061
1.00025 1.00458 0.990134
0.999392 1.00474 0.990911
1.00007 1.00461 0.990205
1.00047 1.00424 0.989747
1.00021 1.00343 0.990893
1.00038 1.00437 0.989894
1.00039 1.00389 0.990532
0.999836 1.00419 0.99087
1.0002 1.00406 0.990545
1.00018 1.00329 0.991282
1.00015 1.00354 0.990872
0.999963 1.0018 0.993055
0.999947 1.00182 0.993068
0.999851 0.998964 0.996074
0.999931 1.00176 0.993166
0.99987 0.998899 0.996077
0.999973 0.99712 0.999145
0.999955 0.998844 0.996036
1.00001 0.997109 0.998536
1.00009 0.99691 0.99796
1 1.00005 0.994744
1.00012 1.00005 0.994589
1.0001 0.997913 0.996729
1.00023 0.999845 0.994567
1.0001 0.997949 0.996887
0.999933 0.996751 0.999263
1.00007 0.998192 0.996488
0.999872 0.99701 0.999213
0.999805 0.997293 0.999161
1.0053 0.994915 0.990698
1.00525 0.994923 0.990942
1.00531 0.994951 0.990413
1.0008 0.9949 0.983926
1.00533 0.994911 0.990744
1.00436 0.99525 0.992406
1.00501 0.996371 0.991292
0.996397 0.994927 0.967058
1.00067 0.99656 0.986057
1.00007 1.00134 0.993398
1.00006 1.00146 0.99329
0.999802 1.00279 0.992312
0.999864 1.00226 0.992753
1.0053 0.994893 0.990654
1.00527 0.994849 0.990464
1.00515 0.994885 0.99037
1.00471 1.0035 0.984008
1.00448 1.00006 0.985754
1.00473 0.99604 0.990138
1.0033 1.00322 0.98604
1.00255 1.00475 0.986831
1.00162 1.00362 0.987826
1.00004 1.00133 0.993518
1.00036 1.00506 0.989086
1.00003 1.00327 0.991614
1.00008 1.00164 0.993107
1.00045 1.00089 0.993135
1.00526 0.994847 0.99091
1 1.00272 0.99211
1.0008 1.00092 0.992703
0.999328 1.00163 0.993897
1.00515 0.994796 0.990703
1.00504 0.995191 0.989925
1.00322 1.00191 0.987453
1.00435 0.99688 0.99006
1.0002 1.00402 0.990896
1.00036 1.00492 0.989043
1.00197 1.00292 0.988547
1.00166 1.00412 0.988125
1.00441 0.994799 0.991862
1.00494 0.995169 0.991069
1.00497 0.99594 0.989576
1.00267 0.998331 0.99211
0.999224 1.00373 0.992235
1.00049 1.00183 0.991906
0.99856 1.00449 0.992507
0.999247 1.00512 0.990152
0.999971 0.994892 0.937163
1.00057 1.00449 0.990175
1.00303 1.00217 0.987362
1.00439 0.994877 0.991687
1.005 0.995704 0.990101
1.00387 1.00178 0.985919
1.00471 1.001 0.985375
0.998702 0.997358 0.983588
1.00043 1.00411 0.990398
1.00267 0.997542 0.991086
1.0035 1.00205 0.986391
1.00353 1.00095 0.987225
1.0035 0.997814 0.99036
1.00063 0.994897 0.936515
0.996541 0.994821 0.963778
0.995999 1.00174 0.988189
0.999316 0.994804 0.879357
0.994702 0.9948 0.831114
1.00031 1.00403 0.990568
0.999794 0.994856 0.88621
0.994696 0.994781 0.837158
1.0007 1.00006 0.991796
1.00196 1.00157 0.9894
1.00144 0.999585 0.992271
0.995333 1.00179 0.989577
0.999253 0.994907 0.945142
0.994884 0.994791 0.96085
0.997123 0.995581 0.89203
0.994727 0.994801 0.829573
0.998143 1.00306 0.994875
0.99856 1.00245 0.994722
0.998818 1.00432 0.993373
1.00016 1.00333 0.991246
1.0004 1.00387 0.990327
0.999833 1.00466 0.990231
0.999884 1.00461 0.990338
0.999605 1.00029 0.994555
1.0002 1.00346 0.990895
1.00005 1.00494 0.990071
1 1.00469 0.990156
1.00059 1.00403 0.98988
0.999314 1.00484 0.991111
0.999644 1.00505 0.990735
0.998674 1.00478 0.99177
1.00026 1.00465 0.989787
1.00045 1.00422 0.989952
1.00043 1.00431 0.989886
1.00028 1.00376 0.990684
1.00046 1.00455 0.989652
0.999909 1.00409 0.990955
0.999642 1.00341 0.99121
0.999768 1.00492 0.990258
0.999727 1.00458 0.990575
0.999945 1.00408 0.990885
1.00008 1.00321 0.991453
1.00014 1.00406 0.990458
1.00018 1.00327 0.991224
1.00001 1.00182 0.992975
1.00021 1.00351 0.99086
0.999953 1.00181 0.993065
0.999967 0.998926 0.99657
0.999932 1.00184 0.993071
0.999876 0.998929 0.996351
0.999947 0.997125 0.997991
0.999864 0.99892 0.996068
0.999971 0.997131 0.99915
1.00002 0.997119 0.997944
1.00014 1.00137 0.993223
0.999954 1.00006 0.99481
1.00001 1.00005 0.994742
1.00008 0.997897 0.996771
1.00013 1.00003 0.994592
1.00011 0.997868 0.996731
0.999974 0.996655 0.999281
1.00009 0.997935 0.997123
0.99995 0.996862 0.998736
0.999916 0.997091 0.998157
1.0004 0.994882 0.98406
1.00532 0.994913 0.990754
1.00405 0.996072 0.992055
0.996566 0.994902 0.96793
1.00062 0.996187 0.986403
1.00502 0.995765 0.991238
1.00314 0.996755 0.987423
0.996692 0.995959 0.970854
0.999975 0.994884 0.945843
0.999375 0.995225 0.894527
0.994666 0.994772 0.840632
0.999793 1.00236 0.992644
1.00007 1.00134 0.993389
1.00014 1.00141 0.993266
0.999883 1.00268 0.992342
0.999527 1.00358 0.992088
1.00032 1.00218 0.991988
1.00007 1.00279 0.992175
0.999984 1.0022 0.992602
1.00525 0.994829 0.990912
1.00515 0.994807 0.990604
1.00508 0.995145 0.989928
1.00332 1.00168 0.98742
1.00416 0.996636 0.990502
1.00221 1.00394 0.988382
1.00274 1.00381 0.987747
1.00073 1.00507 0.988432
1.00055 1.00096 0.99291
1.00013 1.00405 0.990537
1.0002 1.00264 0.9921
0.998917 1.00155 0.995099
1.00433 0.994777 0.992083
0.999351 1.00362 0.992263
1.00035 1.0022 0.992255
1.00483 0.994995 0.991028
1.00487 0.995559 0.989819
1.0024 0.998278 0.991668
0.999462 1.00502 0.991287
1.00041 1.00432 0.990325
1.00311 0.99478 0.992043
1.00419 0.997397 0.990812
1.00473 0.995298 0.990868
1.00102 0.99903 0.99316
0.99969 1.00469 0.990554
0.999351 1.00405 0.9918
0.999424 1.00529 0.991224
0.999816 0.994897 0.888647
1.0003 0.994896 0.949219
1.00052 1.00377 0.990776
1.00351 1.00226 0.986424
1.00268 0.99741 0.991071
1.00399 0.997982 0.990092
1.00407 1.00079 0.987282
0.999978 0.994893 0.946798
0.996428 0.994848 0.963322
0.996197 1.00248 0.988196
0.998996 0.994831 0.893837
0.994705 0.994801 0.819785
1.0003 1.00389 0.990513
0.999808 0.994856 0.886002
0.994667 0.994783 0.830767
1.00085 1.00006 0.991851
1.00203 1.00151 0.989443
1.00151 0.999714 0.99259
0.995518 1.0022 0.990215
1.00067 0.995906 0.938449
0.994869 0.99478 0.963769
0.997346 0.998027 0.891031
0.994749 0.994792 0.828336
0.999544 1.00394 0.992749
0.994699 0.994829 0.831026
0.994749 0.994802 0.843529
0.998092 1.00161 0.99573
0.999816 1.00179 0.99419
0.994924 1.00208 0.9888
0.994928 0.996278 0.964284
0.996908 0.99581 0.934291
0.994722 0.999238 0.895941
0.994825 0.994809 0.831633
0.99843 1.00226 0.994591
0.999151 1.00369 0.99309
0.998147 1.00352 0.993995
1.00017 1.00349 0.990895
1.00067 1.00385 0.990012
0.999993 1.00474 0.990105
0.99987 1.00501 0.990009
0.999084 1.00476 0.991312
1.00043 1.00425 0.98995
0.99966 1.00492 0.990565
1.00034 1.00458 0.989789
0.998334 1.00479 0.992187
0.996329 1.00486 0.995517
0.999397 1.00476 0.991204
1.00052 1.00452 0.989632
1.00049 1.00425 0.989878
1.00027 1.00359 0.990832
1.00041 1.00463 0.989608
0.999987 1.00402 0.990893
0.99951 1.00334 0.991874
0.999421 1.00494 0.99069
0.999546 1.00458 0.99072
0.999008 1.00409 0.992083
1.00059 1.00214 0.991864
1.00107 1.00196 0.990161
0.999502 1.00479 0.990491
0.999878 1.00477 0.99029
0.999782 1.00494 0.990064
0.999776 1.00469 0.99057
0.999998 1.00351 0.991257
0.999961 1.00417 0.990899
1.00011 1.00322 0.991456
1.00006 1.00175 0.992902
1.00018 1.00328 0.991166
1.00001 1.0018 0.992993
1.00006 0.998927 0.99641
0.999948 1.00181 0.993074
0.999954 0.998909 0.996239
1.00001 0.997067 0.997912
0.999874 0.998915 0.996062
0.999972 0.997129 0.999153
0.99997 0.997134 0.999156
1.00019 1.00169 0.993126
0.999952 1.00019 0.9947
1.00009 1.00146 0.993233
1.00008 0.997895 0.996776
0.999951 1.00007 0.994811
1.00002 1.00006 0.994741
1.00009 0.997884 0.996765
1 0.996603 0.999284
1.00009 0.997843 0.997206
0.99999 0.99666 0.998787
0.999968 0.996873 0.998243
0.999819 0.994859 0.875651
0.994671 0.99477 0.83166
0.997463 0.994881 0.967945
1.00063 0.995398 0.986804
1.00506 0.995054 0.991183
0.99634 0.995653 0.971296
1.0034 0.996011 0.987879
1.0011 0.994891 0.943489
0.99963 0.994808 0.879336
0.994695 0.994787 0.830017
0.998484 0.994844 0.975894
0.999833 0.995057 0.945127
0.997195 0.996269 0.891231
0.994725 0.994773 0.833044
1.00009 1.00321 0.991606
0.999865 1.00218 0.992761
1.00009 1.00134 0.993382
0.999909 1.00261 0.992371
0.999514 1.00341 0.992255
1.00006 1.00359 0.991148
1.00025 1.0027 0.991797
1.00035 1.00332 0.990858
1.00008 1.00275 0.992057
1.00001 1.00229 0.992453
1.00427 0.994771 0.992292
1.00471 0.994843 0.990996
1.00457 0.99529 0.990059
1.0021 0.998631 0.991226
1.00098 1.00414 0.9905
0.999595 1.00519 0.990071
1.00044 1.002 0.992624
0.999435 1.00367 0.992285
1.00268 0.995026 0.992414
0.999752 1.00477 0.990384
0.999075 1.00424 0.991685
1.00413 0.996456 0.990987
1.00466 0.995442 0.99055
1.00098 0.999113 0.993361
0.999468 1.00524 0.991026
1.00046 0.995294 0.992393
1.00244 0.996851 0.99375
0.999945 1.00156 0.993718
0.998905 1.0049 0.990182
0.999338 1.00499 0.990376
0.999061 1.00515 0.991314
0.994729 0.994855 0.852258
0.999812 0.994896 0.893253
0.999968 0.994909 0.937448
1.00005 1.0039 0.99045
1.00216 1.00139 0.989473
1.00108 1.00005 0.991912
1.00152 0.999625 0.992909
0.999817 0.994862 0.895986
0.999475 0.994876 0.93596
0.994862 0.994807 0.961048
0.995573 1.00263 0.990833
0.997156 0.995804 0.878079
0.994648 0.99479 0.83497
0.994735 0.994798 0.839238
0.99928 1.00345 0.992534
0.994696 0.994827 0.83999
0.994776 0.994806 0.843075
0.997842 1.00121 0.996169
0.999443 1.00167 0.994131
0.995114 0.999497 0.99138
0.995002 0.995797 0.962811
0.997151 0.99898 0.944977
0.995388 0.999293 0.881408
0.994844 0.994806 0.841206
0.997276 1.00352 0.996046
0.994793 0.99485 0.851818
0.994811 0.994795 0.841348
0.995082 1.00218 1.00013
0.994952 0.998404 0.970757
0.994906 0.999941 0.94518
0.995265 0.997402 0.874505
0.99493 0.99485 0.844011
0.999399 1.00328 0.992787
0.99843 1.00355 0.994262
0.996649 1.00408 0.996487
1.00038 1.00431 0.98995
1.00046 1.00449 0.989793
0.99975 1.0048 0.990394
0.997981 1.00468 0.992608
1.00039 1.0046 0.989651
0.999393 1.00475 0.991156
0.996353 1.00472 0.995954
0.99517 1.00502 0.997645
0.996273 1.00497 0.995981
0.999935 1.00421 0.990848
1.00039 1.00473 0.989563
1.00003 1.00393 0.990829
0.999289 1.00347 0.992526
0.999553 1.0046 0.990785
0.999503 1.00495 0.990711
0.999032 1.00423 0.992178
0.999305 1.00455 0.991471
0.997442 1.00492 0.994102
1.00221 0.998084 0.99245
1.00046 1.00191 0.992173
1.00094 1.00202 0.990837
1.00402 1.00159 0.986892
1.00071 1.00396 0.990318
1.00041 1.00219 0.991318
0.999879 1.00461 0.99033
0.999786 1.00496 0.989823
1.00001 1.00459 0.990322
0.999937 1.00494 0.990071
1.00003 1.00405 0.990706
1.00002 1.00459 0.990565
1.00013 1.0034 0.991241
1.00012 1.0018 0.992783
1.00023 1.00307 0.991459
1.00012 1.00173 0.992907
1.00014 0.998951 0.996252
1.00003 1.00176 0.99301
1.00005 0.998933 0.996054
1.00007 0.997129 0.997778
0.999958 0.998896 0.995944
0.999999 0.99709 0.998533
0.999979 0.997112 0.999144
1.00021 1.00225 0.992252
1.00004 1.00033 0.99446
1.00012 1.00173 0.992947
1.00007 0.997953 0.996721
0.999963 1.00017 0.994703
1.00004 1.00153 0.993242
1.00002 0.996574 0.999285
1.00007 0.997898 0.996775
0.999955 1.00007 0.994812
1.00009 0.997868 0.99676
1 0.996623 0.999284
0.999973 0.996642 0.999282
0.994682 0.994806 0.836052
0.999814 0.994862 0.885722
0.994765 0.994793 0.841213
0.994694 0.994779 0.829964
0.996183 0.99525 0.968934
1.00355 0.994977 0.988357
0.999991 0.994911 0.940589
0.99969 0.994843 0.894662
0.994726 0.994801 0.819046
0.998438 0.994976 0.975197
1.00126 0.996018 0.932329
0.997414 0.998417 0.889931
0.994746 0.994772 0.826751
0.99546 0.994889 0.968505
0.997148 0.997395 0.933654
0.994787 0.998566 0.875159
0.994818 0.994828 0.828476
1.00023 1.00431 0.990792
0.999951 1.00317 0.991725
0.999903 1.0021 0.992876
0.999476 1.00325 0.992424
1.00052 1.004 0.989854
0.99996 1.00357 0.991319
1.00003 1.00309 0.991609
1.00076 1.00285 0.990891
1.00044 1.00332 0.99093
1.00008 1.00264 0.991939
1.00245 0.994812 0.992785
1.00417 0.995367 0.991179
1.00456 0.995634 0.990233
1.00094 0.998455 0.993581
1.00013 1.00514 0.990826
0.999274 1.00455 0.991578
0.99975 1.00491 0.990213
0.999903 1.00506 0.989907
1.00009 0.995297 0.99274
0.999772 1.00496 0.990254
0.999524 1.00517 0.991224
1.00244 0.996343 0.994145
1.00057 1.00032 0.993555
0.997664 0.997017 0.993276
0.997978 0.997549 1.00015
0.998121 1.00337 0.994083
0.999909 1.00472 0.99024
0.998892 1.00511 0.991881
0.994828 0.99483 0.857175
0.994726 0.994848 0.848939
0.999808 0.994886 0.878962
0.999204 1.00294 0.992344
0.999253 1.00151 0.994051
0.997857 1.00058 0.996611
0.994677 0.994822 0.839335
0.997209 0.997371 0.934723
0.994999 0.995894 0.96332
0.995444 0.997283 0.994158
0.994798 0.998098 0.897415
0.994789 0.994809 0.84294
0.99485 0.994815 0.841779
0.997476 1.00335 0.996323
0.994798 0.994843 0.854663
0.9948 0.994792 0.84179
0.995314 1.0018 0.999075
0.994974 0.997899 0.97255
0.995254 0.998854 0.934062
0.994869 0.994849 0.841538
0.994862 0.999469 0.882269
0.995217 1.00489 0.999201
0.994788 0.994827 0.853893
0.994845 0.994809 0.846311
0.99481 0.99483 0.829257
0.99492 0.999446 0.991114
0.9949 0.998973 0.948833
0.995512 0.998259 0.887962
0.998837 1.00376 0.994536
0.996991 1.00443 0.995949
0.994976 1.0052 0.998723
1.00031 1.00466 0.989669
0.999308 1.00476 0.991106
0.996441 1.00477 0.996383
0.999727 1.00444 0.990775
0.99655 1.00499 0.995964
0.995403 1.00513 0.99762
0.995184 1.00528 0.997796
0.99679 1.00475 0.995387
0.999491 1.00463 0.990859
0.999561 1.00495 0.990731
0.999079 1.00441 0.992287
0.997724 1.00485 0.99396
0.999291 1.00464 0.991389
0.999051 1.0028 0.993504
1.00049 0.998779 0.994811
1.0021 1.00103 0.988956
1.00032 1.00172 0.992475
1.00152 1.00206 0.99041
1.00399 1.00219 0.98615
1.00512 1.00139 0.984689
1.00202 1.00254 0.989064
1.00321 1.00162 0.98709
1.00048 1.005 0.989249
1.00043 1.00393 0.990533
0.999719 1.00243 0.992465
1.00025 1.00445 0.99017
0.999849 1.005 0.989821
1.00019 1.0043 0.990211
1.00003 1.00496 0.990077
1.00013 1.00392 0.990716
1.00013 1.00218 0.992397
1.0002 1.00339 0.991225
1.00014 1.00179 0.99277
1.00015 0.998955 0.996195
1.00014 1.0017 0.992913
1.00014 0.998937 0.99591
1.00011 0.997189 0.997676
1.00007 0.998917 0.995745
1.00005 0.997128 0.998444
1.00001 0.997103 0.999104
1.00044 1.00235 0.991586
1.0001 1.00066 0.993776
1.00026 1.00221 0.99225
1.00011 0.998032 0.996579
1.00003 1.00033 0.994313
1.00011 1.00173 0.992772
1.00004 0.996616 0.999268
1.00008 0.997935 0.996728
0.999965 1.00013 0.994707
1.00002 0.996597 0.999284
1.00006 0.997904 0.996775
1 0.996609 0.999284
0.994825 0.994835 0.84895
0.994695 0.994828 0.846378
0.999811 0.99485 0.88547
1.00089 1.00272 0.990683
0.994818 0.994802 0.848359
0.994762 0.99479 0.841143
0.994716 0.994791 0.839657
0.998817 0.995421 0.97421
0.999499 0.995249 0.943648
0.99708 0.996036 0.876119
0.994733 0.994793 0.832817
0.99665 0.994892 0.965512
0.997213 0.9994 0.943688
0.995234 0.999515 0.878592
0.99481 0.994818 0.832926
0.994899 0.994876 0.960901
0.994879 0.99889 0.942879
0.994924 0.999979 0.88478
0.99488 0.994848 0.843678
1 1.00472 0.99018
1.00012 1.00418 0.99058
1.00006 1.00295 0.991843
1.00064 1.00328 0.990472
1.00041 1.00411 0.990096
0.99997 1.00361 0.991489
1.00078 1.00294 0.99087
1.00047 1.00335 0.990996
0.999161 0.996237 0.992949
1.00258 0.995963 0.994473
1.00019 1.00506 0.989628
1.00107 0.99995 0.993393
0.999766 1.00519 0.991131
1.00001 1.00504 0.990137
0.999747 1.00474 0.990242
0.996689 0.996364 0.993998
0.999058 1.00478 0.992064
0.998583 1.00337 0.994257
0.997885 0.998203 1.00033
0.999641 1.0048 0.9911
0.995806 0.999605 0.99019
0.995944 1.00203 0.999209
0.996798 1.00471 0.995276
0.998997 1.00431 0.992599
0.994784 0.994804 0.85957
0.994831 0.994827 0.855746
0.994722 0.994844 0.845579
0.997562 1.00339 0.996615
0.995396 1.00106 0.998027
0.994807 0.994836 0.857369
0.994893 0.999925 0.945236
0.995005 0.997424 0.969978
0.994888 0.999558 0.881267
0.994799 0.994788 0.842116
0.994856 0.994848 0.839095
0.995436 1.00471 0.998925
0.994791 0.994828 0.853778
0.994844 0.994809 0.848718
0.994827 1.00011 0.994687
0.994801 0.994821 0.833451
0.994873 0.997386 0.941978
0.995212 0.99867 0.890723
0.994886 1.00379 0.998376
0.994813 0.994843 0.858265
0.994798 0.994801 0.849032
0.994713 0.994769 0.833608
0.995007 0.999985 0.884365
0.994902 1.00028 0.97795
0.995273 0.998632 0.935007
0.997612 1.00462 0.995428
0.99537 1.0052 0.998502
0.994932 1.00515 0.998501
0.999555 1.00453 0.990702
0.996706 1.00507 0.995952
0.995549 1.00513 0.997599
0.99696 1.00464 0.995338
0.99525 1.00512 0.997844
0.997714 1.00187 0.997586
0.997966 1.0047 0.993809
0.999251 1.00468 0.991316
0.999083 1.00297 0.993899
0.99898 1.00343 0.991943
0.998804 0.999446 0.997102
1.00203 1.00064 0.989866
1.00402 1.00299 0.984477
1.00494 1.0022 0.983829
1.00209 1.00207 0.989963
1.00404 1.00235 0.98544
1.00518 1.0014 0.984708
1.00412 1.00066 0.986941
1.00476 1.00127 0.985048
1.00055 1.00508 0.988648
1.00199 1.00273 0.988921
1.00241 1.00163 0.987288
1.00023 1.00462 0.989668
1.00019 1.00504 0.989398
1.00018 1.00386 0.990754
0.999914 1.00506 0.98982
1.00024 1.00425 0.990221
1.00021 1.00266 0.991767
1.00023 1.00384 0.990726
1.00013 1.00221 0.992385
1.00012 0.999137 0.995415
1.00018 1.00183 0.992758
1.00018 0.998954 0.995525
1.00002 0.997177 0.999018
1.00014 0.998946 0.995588
1.00008 0.997189 0.998356
1.00005 0.997145 0.999047
1.00044 1.00249 0.991421
1.00024 1.00098 0.993223
1.0004 1.0024 0.991717
1.00016 0.998169 0.996361
1.00014 1.00065 0.993708
1.00027 1.00221 0.992244
1.00006 0.996643 0.999237
1.00011 0.998008 0.996593
1.00004 1.00033 0.994168
1.00004 0.996592 0.999274
1.00008 0.997915 0.996735
1.00002 0.996619 0.999284
0.994797 0.994833 0.85793
0.994823 0.994839 0.849055
0.994687 0.994835 0.846473
1.0008 1.00276 0.990828
1.00066 1.003 0.990625
1.00087 1.00258 0.991025
0.99486 0.994809 0.845653
0.994817 0.994794 0.848702
0.994758 0.994782 0.841103
0.99685 0.994871 0.966976
0.997243 0.996437 0.932534
0.994781 0.999927 0.896017
0.994826 0.994824 0.82802
0.995 0.994928 0.964246
0.995163 0.999833 0.939454
0.99486 0.999111 0.882168
0.994872 0.994842 0.841038
0.994884 0.995607 0.960783
0.99488 0.998259 0.944578
0.99548 0.998583 0.887728
0.994844 0.994816 0.831953
1.00011 1.00358 0.990915
1.00026 1.00447 0.989978
1.00032 1.00407 0.990368
1.00073 1.0032 0.990423
1.00022 1.00423 0.990343
1.00079 1.00302 0.990848
0.99617 0.995792 0.994732
0.997385 0.998784 1.0006
0.999827 1.0045 0.99024
0.999061 1.00258 0.994412
0.999118 1.00462 0.992241
0.999396 1.00469 0.991154
0.998654 1.00467 0.992641
0.995403 0.999771 0.990142
0.996544 1.005 0.995873
0.996416 1.0023 0.998412
0.998593 1.00444 0.993128
0.995182 1.00217 0.986328
0.995699 1.00431 0.995938
0.996331 1.00491 0.996528
0.994812 0.994818 0.860572
0.994784 0.99481 0.859566
0.994832 0.994825 0.854322
0.995395 1.00438 0.998601
0.994781 1.00045 0.991022
0.994794 0.99483 0.853674
0.99482 0.999047 0.942139
0.995468 0.998254 0.876934
0.994841 0.994808 0.851107
0.99482 0.994833 0.828873
0.994898 1.00364 0.998867
0.994811 0.994844 0.859218
0.994809 0.994797 0.849383
0.994896 0.999683 0.975178
0.994736 0.994773 0.827606
0.995244 0.999895 0.880659
0.994973 0.99743 0.947331
0.994945 1.00511 0.992299
0.994787 0.994839 0.85809
0.994778 0.994797 0.842178
0.994656 0.994765 0.842
0.994756 0.998228 0.874916
0.995011 0.999708 0.943214
0.994901 1.00077 0.969192
0.995736 1.00514 0.998268
0.995086 1.00492 0.99851
0.997242 1.00214 0.998036
0.997176 1.00457 0.995291
0.995351 1.00506 0.997851
0.996469 1.00352 0.997542
0.99907 0.997073 0.999957
0.999103 1.00324 0.994286
1.0011 1.00246 0.99133
1.00243 1.00409 0.986726
1.00186 1.00034 0.990867
1.00407 1.00285 0.984716
1.0044 1.0041 0.982899
1.00492 1.00182 0.983984
1.00513 1.00171 0.984161
1.0049 1.00228 0.98379
1.00431 1.00242 0.984737
1.00509 1.0008 0.985966
1.00511 1.00151 0.984622
1.00222 1.00289 0.987742
1.00391 1.00081 0.98719
1.0044 1.00118 0.985413
1.00034 1.00494 0.988771
1.00086 1.00496 0.988627
1.00187 1.00295 0.988772
1.00032 1.00322 0.991123
1.00045 1.00449 0.989671
0.999962 1.00508 0.989545
1.00033 1.00411 0.99023
1.00027 1.00262 0.991766
1.00007 0.999476 0.995167
1.00018 1.00217 0.992373
1.00014 0.999164 0.995396
1.00001 0.997312 0.998988
1.00018 0.99898 0.995517
1.00007 0.99721 0.998337
1.00006 0.997184 0.999013
1.00046 1.00292 0.991203
1.00034 1.00121 0.993032
1.00051 1.00242 0.991489
1.00021 0.998371 0.996064
1.00024 1.00099 0.993308
1.00038 1.00243 0.991849
1.00007 0.996717 0.999187
1.00016 0.99814 0.996379
1.00017 1.00064 0.99364
1.00005 0.996645 0.999246
1.00011 0.997986 0.996606
1.00004 0.996606 0.999281
0.994817 0.99484 0.857781
0.994797 0.994846 0.857812
0.994817 0.994852 0.849249
1.00037 1.00415 0.989854
1.00108 1.00392 0.989694
1.00066 1.00283 0.990976
1.00058 1.00321 0.990541
1.00056 1.00272 0.991115
1.00037 1.00316 0.990982
1.00038 1.00254 0.991642
0.994829 0.99479 0.841006
0.994858 0.994812 0.848152
0.994813 0.994801 0.849057
0.994863 0.994837 0.838489
0.994982 0.9949 0.961237
0.994865 0.999944 0.935343
0.994932 0.997571 0.894124
0.994887 0.996091 0.959753
0.994887 0.999288 0.933441
0.995006 0.998331 0.891009
0.99483 0.994807 0.841521
0.996154 0.996433 0.962772
0.994923 0.999326 0.934985
0.995223 0.99806 0.874844
0.994745 0.994797 0.829921
0.998734 1.00479 0.992383
0.999961 1.00387 0.991037
1.00029 1.0046 0.989774
1.00077 1.00331 0.990377
0.994953 0.999958 0.990387
0.996808 1.00275 0.997503
0.999258 1.00487 0.99121
0.998563 1.00463 0.992685
0.996588 1.00523 0.996449
0.998595 1.00413 0.993067
0.99635 1.00486 0.996516
0.996589 1.00194 0.983088
0.994975 1.0052 0.996451
0.996525 1.00439 0.996217
0.99473 1.00366 0.983257
0.99548 1.00363 0.998799
0.99478 0.994803 0.859735
0.994817 0.994817 0.863403
0.994781 0.994818 0.859554
0.994836 1.00352 0.999312
0.99492 0.998873 0.978715
0.994804 0.994843 0.86022
0.995562 0.997848 0.935862
0.995198 0.998345 0.893181
0.994817 0.994799 0.849715
0.994728 0.994794 0.833559
0.994902 1.00441 0.99308
0.994797 0.994836 0.857992
0.99476 0.99479 0.842133
0.994902 1.00036 0.96941
0.99469 0.994773 0.831495
0.995299 0.999477 0.877729
0.995144 0.999416 0.932698
0.995399 1.00446 0.986937
0.994826 0.994826 0.849314
0.994658 0.99476 0.832944
0.997016 0.996066 0.892657
0.994853 0.999707 0.942682
0.994881 0.999989 0.962424
0.995225 1.0049 0.998803
0.996213 1.00301 0.998177
0.996557 0.999265 1.00122
0.99536 1.00505 0.997487
0.997581 0.998531 1.00013
1.00194 0.998192 0.994259
1.00323 1.00134 0.990719
1.00318 1.00362 0.986217
1.00338 1.00442 0.983888
1.00394 1.00281 0.984953
1.00454 1.00404 0.982762
1.00432 1.00431 0.982772
1.00508 1.0006 0.985021
1.00507 1.00112 0.984746
1.00488 1.00201 0.983968
1.00507 1.00163 0.984824
1.00505 1.00162 0.984224
1.00475 1.00244 0.983749
1.00457 1.00088 0.986479
1.00486 1.00091 0.985782
1.00501 1.00162 0.984539
1.00126 1.00505 0.987595
1.00227 1.00305 0.987823
1.00378 1.00091 0.987439
1.00033 1.00392 0.990177
1.00066 1.00492 0.988794
1.00109 1.00485 0.988607
1.00005 0.99982 0.994865
1.00038 1.00309 0.99112
1.00061 1.00446 0.989673
1.0003 1.0026 0.991764
1.00008 0.999513 0.995143
0.999947 0.997533 0.998941
1.00015 0.999185 0.995378
1 0.997345 0.998976
1.00004 0.997211 0.999
1.00009 1.00489 0.989803
1.00063 1.0034 0.990474
1.0004 1.00164 0.992523
1.00049 1.00285 0.991192
1.00023 0.998647 0.995747
1.00034 1.00123 0.993027
1.0005 1.00244 0.991556
1.00008 0.996866 0.999115
1.0002 0.998364 0.996082
1.00023 1.00101 0.99339
1.00007 0.996714 0.999202
1.00016 0.998124 0.996397
1.00006 0.996621 0.999257
0.994791 0.994823 0.853517
0.994802 0.994836 0.858776
0.994805 0.994839 0.857684
1.00044 1.00431 0.989862
1.00073 1.00364 0.989847
1.00004 1.00252 0.990962
1.00006 1.00447 0.98992
1.00114 1.0036 0.99046
1.00065 1.00332 0.990455
1.00043 1.00285 0.991204
1.00045 1.00313 0.991001
1.0004 1.0027 0.991678
0.999461 1.00408 0.99176
0.994761 0.994791 0.843612
0.994816 0.994786 0.841501
0.994858 0.994807 0.850595
0.994842 0.994816 0.842052
0.99546 0.998585 0.877086
0.994874 0.99643 0.958242
0.994868 0.998969 0.944571
0.994999 0.996819 0.95957
0.994899 0.996549 0.94609
0.994847 0.999629 0.883362
0.994762 0.994782 0.828607
0.994785 0.997623 0.963902
0.994862 0.999981 0.945558
0.994729 0.999481 0.895101
0.994678 0.994764 0.841221
0.998223 1.00344 0.994383
0.998582 1.00467 0.992487
0.999962 1.00389 0.991162
0.996945 1.00171 0.979557
0.994815 1.00526 0.997051
0.998524 1.00417 0.993002
0.996126 1.00507 0.996507
0.996816 1.00419 0.996162
0.995241 1.00336 0.999059
0.995184 1.00159 0.982451
0.995793 1.00212 0.999058
0.995736 0.999819 0.988235
0.99482 0.994822 0.856188
0.994784 0.994811 0.859734
0.994821 0.994817 0.866244
0.994906 1.00339 0.993491
0.994872 0.999944 0.966562
0.994807 0.994839 0.857866
0.995041 0.999819 0.942999
0.994744 0.999854 0.894789
0.994742 0.994776 0.842155
0.994719 0.994775 0.820608
0.99559 1.00425 0.987629
0.994814 0.994834 0.849365
0.994683 0.994766 0.831383
0.994977 0.999719 0.963388
0.997298 0.998123 0.890907
0.995214 0.999744 0.937742
0.995006 1.00368 0.985471
0.994683 0.994801 0.836706
0.999439 0.994839 0.895613
0.996991 0.99737 0.933931
0.994869 0.996998 0.965314
0.995628 1.00381 0.9983
0.996289 0.999418 1.0012
0.998828 1.00247 0.995961
0.996083 0.999946 1.00027
1.00078 0.998731 0.994804
1.00328 0.999925 0.989142
1.00397 1.00305 0.985697
1.00341 1.00435 0.983792
1.00419 1.00176 0.984889
1.00475 1.00404 0.982628
1.00433 1.00394 0.982868
1.00482 1.00059 0.985553
1.00522 0.998174 0.987041
1.00519 0.999966 0.985363
1.00505 1.0005 0.985112
1.00511 1.00121 0.984795
1.00508 1.00115 0.984687
1.00487 1.00217 0.98395
1.00508 1.00141 0.985112
1.0048 1.00154 0.984879
1.00499 1.00154 0.984287
1.00318 1.00298 0.986607
1.00416 1.00122 0.986463
1.00465 1.00107 0.985596
1.00042 1.00484 0.988724
1.00136 1.00491 0.987625
1.00239 1.0032 0.987902
1.00001 1.00058 0.994989
1.0005 1.00386 0.990165
1.00097 1.00491 0.988819
0.99993 0.997853 0.997294
1.00004 0.999964 0.995131
1.00044 1.00298 0.991116
1.00008 0.999557 0.995119
0.999947 0.997573 0.99892
0.999997 0.997359 0.998963
1.00011 1.00506 0.989874
1.00047 1.00458 0.989735
0.999982 1.00491 0.989766
1.00045 1.00221 0.991884
1.00044 1.00373 0.990465
1.0002 0.998988 0.995461
1.0004 1.00161 0.992533
1.0006 1.00274 0.991179
1.00007 0.997079 0.999041
1.00023 0.998629 0.995763
1.00032 1.00126 0.993021
1.00008 0.996854 0.999137
1.00019 0.998347 0.996101
1.00007 0.996701 0.999218
0.99479 0.994825 0.858104
0.994799 0.994828 0.853401
0.994791 0.994844 0.859804
1.00049 1.00248 0.990916
1.0002 1.00466 0.989869
1.00059 1.00347 0.990003
1.00046 1.00449 0.989736
1.00066 1.00247 0.991
1.00066 1.00325 0.991181
1.00201 1.00243 0.98918
0.998986 1.00485 0.991037
1.00048 1.00309 0.99102
1.0001 1.00265 0.991711
0.999353 1.00398 0.991704
0.998502 1.00526 0.992442
0.994683 0.994806 0.837112
0.994785 0.994794 0.843166
0.994811 0.994781 0.841897
0.994749 0.994776 0.83929
0.994834 0.99958 0.882741
0.995311 0.998501 0.935007
0.994873 0.997498 0.95882
0.995089 0.997317 0.964084
0.994695 0.994771 0.830787
0.994876 0.997838 0.938748
0.995375 0.999932 0.880498
0.994882 0.996176 0.967678
0.994887 0.999927 0.945967
0.997531 0.997096 0.88892
0.999332 0.999101 0.996826
0.998282 1.00339 0.994343
0.998469 1.0045 0.992587
0.995352 1.00117 0.982275
0.99492 1.00301 0.999312
0.997136 1.00376 0.996121
0.99684 1.00197 0.999078
0.995211 0.999022 0.988341
0.99676 0.998728 0.992068
0.994724 0.994859 0.846837
0.99482 0.994812 0.858332
0.994784 0.994812 0.859701
0.995315 1.00417 0.988007
0.994862 0.999973 0.963298
0.994802 0.99484 0.849559
0.994838 0.999913 0.934154
0.99693 0.995686 0.877457
0.99471 0.994784 0.840862
0.994827 1.00401 0.985506
0.994695 0.994825 0.846937
0.999402 0.994796 0.880375
0.994853 0.996262 0.961104
0.997056 0.999157 0.944056
0.994794 1.00341 0.990465
0.9998 0.994859 0.875939
0.999756 0.994898 0.945888
0.994878 0.994852 0.960374
0.995976 0.999428 1.00124
0.998273 1.00159 0.99567
1.0017 1.00319 0.990384
0.99962 0.999425 0.995352
1.00276 1.00059 0.988997
1.00434 0.999415 0.987566
1.00337 1.00435 0.983695
1.00408 1.00197 0.98487
1.00497 0.997185 0.987886
1.00433 1.00351 0.982963
1.00471 1.00037 0.985586
1.00524 0.99646 0.988654
1.0052 0.996445 0.989072
1.00522 0.998415 0.986881
1.00523 0.998065 0.987174
1.00521 0.99991 0.985467
1.00518 0.999944 0.985514
1.00505 1.0004 0.985204
1.00517 1.00139 0.984502
1.0051 1.00113 0.984797
1.00509 1.00115 0.984626
1.00477 1.00103 0.985762
1.00488 1.00138 0.985109
1.00455 1.0014 0.984932
1.00155 1.00453 0.987497
1.00317 1.00302 0.986576
1.00374 1.00154 0.98645
0.999871 1.00178 0.99319
1.00088 1.00466 0.988724
1.00151 1.00484 0.987652
0.99975 0.998369 0.998712
1.00003 1.00062 0.994072
1.00067 1.00371 0.990155
0.999912 0.997828 0.998849
1.00003 1.00004 0.994732
0.999951 0.997623 0.998899
1.00137 1.00375 0.989192
1.00013 1.00491 0.989766
1.00052 1.005 0.989247
1.00032 1.00321 0.991119
1.00037 1.00454 0.989708
1.0001 1.00477 0.98973
1.00016 0.999376 0.99515
1.00041 1.00225 0.991903
1.00027 1.00386 0.990456
1.00004 0.997294 0.998975
1.00021 0.99893 0.995476
1.00041 1.00158 0.992543
1.00007 0.997044 0.999063
1.00022 0.998616 0.995778
1.00007 0.996829 0.99916
0.994707 0.994827 0.832855
0.994808 0.994827 0.858246
0.994808 0.994832 0.853295
1.00041 1.00275 0.990894
1.00346 1.00215 0.988466
1.00088 1.00325 0.990426
1.00049 1.00449 0.989552
1.00135 1.00229 0.991033
0.999838 1.00266 0.991893
0.999503 1.0047 0.990765
1.00137 1.00286 0.989512
1.00113 1.00429 0.989011
0.999827 0.999861 0.99478
0.999832 1.00391 0.991648
0.998686 1.00521 0.992223
0.999626 0.995694 0.873924
0.994661 0.994786 0.830861
0.994795 0.994797 0.843063
0.994711 0.994779 0.819889
0.995388 0.998841 0.896145
0.994824 0.999505 0.93474
0.995607 0.99537 0.961455
0.994845 0.996105 0.96615
0.997429 0.998387 0.889284
0.995192 0.999312 0.934759
0.994878 0.997431 0.968125
0.99715 0.996874 0.9337
1.00143 0.996423 0.997277
0.999261 0.999921 0.996784
0.998387 1.00343 0.99431
0.994788 0.998831 0.98854
0.997592 1.0017 0.99907
0.99721 0.998828 0.991823
0.997699 0.996419 0.990708
0.999816 0.994879 0.88806
0.994716 0.99485 0.845259
0.99483 0.994809 0.860366
0.994862 1.00401 0.985791
0.994859 0.995648 0.959449
0.994691 0.994832 0.846917
0.997244 0.99607 0.933588
0.999409 0.994834 0.895956
0.994937 1.00173 0.987486
0.999807 0.994866 0.886058
1.00081 0.995802 0.933466
0.994894 0.994835 0.963257
0.997416 0.998091 0.989336
0.999976 0.994897 0.946591
0.99553 0.994908 0.966696
0.997959 1.00076 0.99532
1.00113 1.00116 0.990474
1.00427 0.998619 0.98998
1.0023 1.00105 0.988864
1.00414 0.999388 0.987577
1.00507 0.996113 0.989347
1.00405 1.00216 0.984855
1.00493 0.997604 0.987817
1.0052 0.99525 0.989851
1.00462 1.00014 0.985617
1.00524 0.996523 0.988601
1.00521 0.995244 0.990128
1.00519 0.995675 0.990118
1.0052 0.996327 0.989264
1.00519 0.996965 0.988756
1.00524 0.998818 0.98674
1.00521 0.998486 0.986976
1.00524 0.997964 0.987308
1.00524 1.00055 0.985159
1.00522 0.999956 0.985424
1.00518 0.999906 0.985664
1.00512 1.00127 0.984941
1.00514 1.00142 0.984549
1.00503 1.0011 0.984804
1.00283 1.00317 0.986811
1.00461 1.00123 0.985732
1.00469 1.00139 0.985105
1.00013 1.00263 0.991847
1.00167 1.00441 0.98752
1.00321 1.00285 0.986545
0.999804 0.998795 0.998498
0.99998 1.00166 0.993148
1.00123 1.00456 0.988722
0.999836 0.998379 0.997824
1.00005 1.00068 0.99408
0.999922 0.997942 0.998774
1.0026 1.00207 0.988607
1.00082 1.00387 0.989428
1.00047 1.00506 0.988918
1.00019 1.00485 0.989657
1.00033 1.00501 0.989243
1.00037 1.004 0.990279
1.00006 1.00006 0.994664
1.00029 1.00323 0.99112
1.0002 1.00464 0.989681
1 0.997525 0.998889
1.00014 0.999358 0.995169
1.00035 1.00229 0.991922
1.00004 0.997258 0.998995
1.00022 0.99889 0.995493
1.00007 0.997021 0.999085
0.999817 0.994862 0.885757
0.994698 0.994842 0.837666
0.994818 0.994826 0.858363
1.00031 1.0032 0.990868
1.00087 1.00407 0.989375
1.00268 1.00255 0.988788
1.00458 1.00343 0.983893
1.0009 1.0036 0.9894
0.999698 1.00474 0.990505
1.00097 1.00336 0.989848
1.00059 1.00429 0.989312
1.00263 1.00137 0.987695
1.00168 0.999758 0.992573
1.0038 0.995022 0.992648
1.00045 0.999458 0.994679
0.99942 1.00434 0.992008
0.998662 0.995393 0.944492
0.999799 0.994794 0.878949
0.994654 0.994785 0.834842
0.997581 0.99772 0.875984
0.994896 0.999911 0.943086
0.994811 0.995532 0.966906
0.994878 0.9971 0.969755
0.997273 0.999222 0.94543
0.99585 0.995542 0.969701
1.00085 0.995968 0.997407
1.00069 0.996977 0.997318
0.999115 1.00054 0.996739
0.997868 0.998281 0.991677
0.99828 0.997169 0.990926
0.999957 0.994895 0.937152
0.999808 0.994879 0.892859
0.994701 0.994838 0.843777
0.994894 1.00028 0.984326
0.994906 0.994848 0.960489
0.999803 0.994854 0.885908
0.999564 0.994888 0.944357
0.996828 0.997972 0.989703
1.00078 0.994901 0.943741
0.996502 0.994896 0.964201
1.00086 0.995727 0.989474
0.998732 0.994859 0.973953
1.00042 0.999201 0.990658
1.00388 0.997382 0.989956
1.00484 0.995464 0.99123
1.00382 0.999428 0.987585
1.00493 0.996161 0.989225
1.00519 0.994917 0.990338
1.00482 0.998051 0.987748
1.0052 0.995311 0.989793
1.00522 0.994915 0.990423
1.00524 0.996601 0.98855
1.00521 0.995303 0.990089
1.0052 0.995054 0.99051
1.00519 0.995525 0.990187
1.00518 0.995906 0.98993
1.0052 0.996203 0.989457
1.00519 0.996977 0.988745
1.00522 0.997727 0.987941
1.00526 0.999652 0.986078
1.00524 0.998878 0.986717
1.00521 0.998555 0.987071
1.00525 1.00105 0.984754
1.00524 1.0006 0.985054
1.00522 0.999999 0.985379
1.00371 1.002 0.986337
1.00497 1.00135 0.984961
1.00504 1.00144 0.984594
1.00082 1.00266 0.99066
1.00276 1.00326 0.986815
1.00435 1.00156 0.985704
0.999927 0.999578 0.998136
1.00026 1.0025 0.991832
1.00189 1.0043 0.987543
0.999891 0.998986 0.998382
1.00014 1.00147 0.993104
0.999913 0.998412 0.998577
1.0042 1.00208 0.985345
1.0027 1.0018 0.9885
1.00098 1.00457 0.988152
1.00031 1.00382 0.989669
1.00047 1.00501 0.988819
1.00058 1.00453 0.989366
1.00021 1.00505 0.989239
1.00027 1.00408 0.990262
1.00009 1.00069 0.994016
0.999955 0.997947 0.998739
1.00006 0.999977 0.994688
1.00025 1.00322 0.991122
0.999996 0.997516 0.998919
1.00013 0.999318 0.995184
1.00004 0.997226 0.999015
0.999986 0.994908 0.948307
0.999832 0.994876 0.885281
0.994682 0.994832 0.832735
1.00082 1.00476 0.988323
1.00208 1.00274 0.989118
1.00172 1.00356 0.988895
1.00412 1.00357 0.984563
1.00464 1.00245 0.983957
1.00288 1.00275 0.985876
1.00016 1.00448 0.989602
1.00359 1.00118 0.986645
1.00162 0.999692 0.992772
1.00321 0.998161 0.989943
1.00438 0.995496 0.991896
1.00344 0.995817 0.992626
1.00343 0.995194 0.992854
1.00009 0.999889 0.994578
0.996051 0.994859 0.96813
0.999729 0.995969 0.940733
0.998532 0.995378 0.893442
0.997025 0.99818 0.93351
0.994882 0.997228 0.97023
0.995495 0.996011 0.975264
0.999457 0.996315 0.992367
1.00135 0.995463 0.997053
1.00005 0.99767 0.997373
0.999179 0.998443 0.99117
0.996867 0.996462 0.969146
1.00007 0.994905 0.94913
0.999809 0.994868 0.878488
0.996256 0.997837 0.989993
0.996906 0.994864 0.965345
0.999995 0.994917 0.940683
1.00025 0.995033 0.989661
0.998476 0.995114 0.973369
1.0031 0.994753 0.990983
1.00295 0.997386 0.985776
1.00339 0.996069 0.989902
1.00463 0.995288 0.991238
1.00514 0.994774 0.990882
1.00488 0.99624 0.989105
1.00519 0.994919 0.990302
1.00524 0.994902 0.990472
1.0052 0.995375 0.989735
1.00522 0.994922 0.990395
1.00524 0.994921 0.99051
1.00522 0.995341 0.99005
1.00519 0.995062 0.990481
1.00521 0.995118 0.990447
1.00519 0.995381 0.990254
1.00518 0.995783 0.990011
1.0052 0.996914 0.988943
1.00519 0.996991 0.988734
1.00522 0.997787 0.987918
1.00525 0.998943 0.986898
1.0053 1.0004 0.985302
1.00526 0.999764 0.985936
1.00524 0.99894 0.986694
1.00444 1.00104 0.986109
1.00522 1.00107 0.984782
1.00525 1.00066 0.984949
1.00136 1.00231 0.990045
1.00367 1.00219 0.986316
1.00481 1.00144 0.984979
1.00027 1.00015 0.997657
1.00091 1.00253 0.990647
1.00268 1.00333 0.986819
1.00008 0.99971 0.997947
1.00031 1.00239 0.991823
1 0.999108 0.998236
1.00463 1.00196 0.984567
1.00449 1.002 0.98548
1.00324 1.00265 0.986237
1.00265 1.00182 0.988392
1.00121 1.0043 0.987949
1.00124 1.00481 0.988251
1.00039 1.00497 0.98872
1.00054 1.00461 0.989358
1.00011 1.00139 0.993288
1.00021 1.00418 0.990246
1.00004 1.00067 0.994044
0.999908 0.998431 0.998552
0.999943 0.997872 0.998795
1.00004 0.999933 0.994714
0.999987 0.997463 0.998946
0.996956 0.994879 0.969366
0.999981 0.994891 0.936463
0.999822 0.994866 0.895508
1.00517 1.00011 0.985293
1.00256 1.00357 0.988401
1.00364 1.00366 0.985233
1.00348 1.00248 0.986162
1.00471 1.00268 0.983852
1.00425 0.999957 0.987063
1.00448 1.00155 0.985593
1.0013 0.999256 0.992971
1.00366 0.998501 0.989583
1.00427 0.995547 0.991266
1.00478 0.995425 0.990249
1.00377 0.995447 0.992765
1.00342 0.995474 0.992667
1.00318 0.995375 0.993054
0.999423 0.996341 0.99085
0.9959 0.994859 0.966456
0.999258 0.994871 0.937057
0.995042 0.996495 0.973642
0.999248 0.99613 0.994709
1.00128 0.994946 0.996657
1.00127 0.9969 0.983659
0.996868 0.995624 0.969945
0.999959 0.994906 0.937147
0.999338 0.994862 0.989895
0.998733 0.995403 0.972498
1.00224 0.995224 0.991423
1.00294 0.996997 0.986514
1.00411 0.994809 0.991349
1.00463 0.997464 0.990647
1.0044 0.995069 0.991235
1.00513 0.994788 0.990772
1.00528 0.994782 0.990473
1.00519 0.994916 0.990266
1.00523 0.994894 0.990464
1.00529 0.994889 0.990445
1.00521 0.994926 0.990368
1.00523 0.994921 0.990516
1.00523 0.994956 0.990606
1.00518 0.995069 0.990452
1.00521 0.995122 0.990429
1.00521 0.995915 0.989806
1.00518 0.99566 0.990093
1.00521 0.996756 0.989118
1.00525 0.998257 0.987638
1.00522 0.997847 0.987895
1.00525 0.998906 0.98693
1.00529 1.00011 0.985705
1.00473 1.0005 0.986159
1.00529 1.0005 0.985214
1.00527 0.999871 0.985795
1.00194 1.00145 0.989929
1.00437 1.00115 0.986114
1.0052 1.00107 0.98481
1.00054 1.00044 0.997325
1.00157 1.00201 0.990037
1.00362 1.00232 0.986298
1.00041 1.00024 0.997511
1.00105 1.00238 0.990635
1.00025 0.999893 0.99776
1.00524 1.00104 0.984609
1.00495 1.0019 0.984503
1.00476 1.00155 0.98507
1.0049 1.00193 0.985618
1.00353 1.00274 0.986048
1.00217 1.00424 0.987224
1.00147 1.00402 0.987745
1.00095 1.00493 0.988271
1.00024 1.00204 0.992378
1.00039 1.00466 0.989349
1.00005 1.00134 0.993319
0.999874 0.999019 0.998331
0.999989 1.00062 0.994072
0.999899 0.998344 0.99862
0.999936 0.997807 0.998846
1.00097 0.994857 0.987998
0.99675 0.994891 0.966165
0.999963 0.994883 0.948284
1.0051 0.998688 0.987084
1.00521 0.998202 0.987394
1.00517 0.999939 0.985529
1.00406 1.00207 0.986441
1.00478 1.00293 0.983744
1.0043 0.999773 0.987419
1.00514 0.996066 0.988914
1.00424 0.998493 0.989236
1.00428 0.995987 0.990635
1.00472 0.996013 0.990403
1.00517 0.995039 0.990526
1.00397 0.995603 0.991907
1.00344 0.995719 0.992687
1.00367 0.995115 0.992717
0.999993 0.99609 0.990984
0.995677 0.994855 0.964893
0.999364 0.995989 0.997148
1.00443 0.995281 0.991072
1.00112 0.996928 0.983838
0.996865 0.995051 0.96788
1.00188 0.99482 0.991838
1.0029 0.996527 0.987279
1.00414 0.994814 0.991959
1.00467 0.996662 0.990719
1.00529 0.994888 0.990689
1.00537 0.994936 0.990883
1.00513 0.994801 0.990665
1.00529 0.994814 0.990444
1.0053 0.994871 0.990442
1.00522 0.994886 0.990457
1.00528 0.994887 0.990467
1.00525 0.994894 0.990609
1.00522 0.99492 0.990521
1.00524 0.994945 0.99059
1.00522 0.995365 0.990369
1.00521 0.995117 0.990411
1.00522 0.995942 0.989789
1.00525 0.99756 0.988279
1.00521 0.996594 0.989293
1.00524 0.998184 0.987707
1.00529 0.999741 0.986058
1.00525 0.998873 0.986962
1.00529 1.00004 0.985778
1.00483 1.00028 0.986239
1.00225 1.00075 0.990057
1.00471 1.00055 0.986162
1.00529 1.0006 0.985127
1.00066 1.00052 0.997182
1.00198 1.00139 0.989925
1.00428 1.00133 0.986119
1.00059 1.00049 0.997257
1.00169 1.00184 0.990029
1.0005 1.00034 0.997387
1.00526 0.999466 0.986088
1.00523 1.00094 0.984758
1.00517 1.00094 0.985039
1.00517 1.00181 0.984437
1.00489 1.0014 0.985103
1.00314 1.00287 0.98672
1.00381 1.00277 0.985859
1.00195 1.00424 0.987231
1.00052 1.0027 0.991213
1.00071 1.00509 0.98829
1.00011 1.00218 0.992408
0.999927 0.99971 0.998016
1.00001 1.00134 0.993349
0.999845 0.998896 0.998416
0.99988 0.998253 0.998685
1.00429 0.994857 0.992152
1.001 0.994858 0.985965
0.996604 0.994894 0.965186
1.00515 0.997478 0.988381
1.0051 0.998243 0.987374
1.00526 0.996899 0.988639
1.00521 0.998201 0.987375
1.00517 0.999741 0.985762
1.00523 0.995458 0.989582
1.00439 0.999668 0.987768
1.00514 0.996475 0.988847
1.00528 0.994881 0.990354
1.00463 0.996355 0.990555
1.00511 0.995105 0.99031
1.00386 0.995628 0.992105
1.00287 0.99596 0.992609
1.00037 0.995788 0.990993
1.00534 0.99492 0.990649
1.00439 0.996217 0.991229
1.00104 0.996981 0.984042
1.00409 0.99483 0.992553
1.00467 0.995897 0.990796
1.00528 0.99486 0.990755
1.00538 0.994934 0.990829
1.00532 0.994922 0.990757
1.00531 0.994843 0.990416
1.0053 0.994885 0.990455
1.00525 0.994906 0.990692
1.00527 0.994889 0.990489
1.00525 0.994893 0.990605
1.00525 0.995026 0.990719
1.00524 0.994944 0.990574
1.00523 0.995368 0.990346
1.00525 0.99685 0.989016
1.00522 0.995969 0.989771
1.00525 0.997577 0.988288
1.0053 0.999358 0.986465
1.00524 0.998111 0.987775
1.00529 0.999739 0.986082
1.00485 1.00021 0.986286
1.00529 0.999973 0.985851
1.00484 1.00029 0.986245
1.00233 1.00035 0.991848
1.00096 1.00016 0.994047
1.00229 1.00073 0.990828
1.00468 1.00061 0.986165
1.00068 1.00055 0.997154
1.00211 1.00121 0.989919
1.00063 1.00054 0.997194
1.00526 0.996652 0.989079
1.00525 0.998357 0.987371
1.00526 0.999472 0.986253
1.00523 1.00043 0.985407
1.00522 1.00085 0.984907
1.00519 1.00094 0.984998
1.0039 1.00151 0.98659
1.00502 1.00127 0.985136
1.00322 1.00257 0.986711
1.00116 1.00258 0.990227
1.00178 1.00428 0.987237
1.00045 1.0028 0.991218
1.00013 1.00043 0.997568
1.00002 1.00219 0.992437
0.999851 0.999532 0.998144
0.999835 0.998773 0.998492
1.00534 0.994883 0.990592
1.00455 0.994852 0.991913
1.00127 0.994862 0.983984
1.00523 0.995983 0.989413
1.00512 0.997414 0.988235
1.00512 0.997807 0.987669
1.00525 0.997041 0.98863
1.00521 0.998202 0.987355
1.00529 0.994981 0.990427
1.00523 0.995453 0.989583
1.00513 0.996898 0.988781
1.00527 0.994882 0.990367
1.00508 0.995174 0.990094
1.00386 0.995684 0.992309
1.00529 0.994938 0.990832
1.00535 0.994923 0.990829
1.00436 0.996868 0.99139
1.00527 0.994834 0.99081
1.00539 0.99493 0.990779
1.00532 0.994916 0.990715
1.00523 0.994957 0.99095
1.0053 0.994896 0.990469
1.00525 0.994907 0.990667
1.00526 0.994922 0.990895
1.00526 0.994891 0.990602
1.00524 0.995017 0.9907
1.00523 0.996234 0.989661
1.00523 0.995372 0.990322
1.00525 0.996873 0.989019
1.00531 0.998994 0.986869
1.00524 0.997594 0.988297
1.0053 0.999356 0.986489
1.00486 1.00018 0.986328
1.00529 0.999736 0.986106
1.00487 1.0002 0.986299
1.00243 1.00008 0.991966
1.00484 1.00029 0.98625
1.00252 1.00025 0.991742
1.001 0.999983 0.994207
1.00071 1.00043 0.995646
1.00248 1.00067 0.991444
1.00068 1.0006 0.997137
1.00523 0.995694 0.990146
1.00524 0.997982 0.987733
1.00525 0.996459 0.98928
1.0053 0.999812 0.985929
1.00525 0.998428 0.987343
1.00526 0.99948 0.986418
1.00525 1.00043 0.985357
1.00446 1.00062 0.986496
1.00522 1.00096 0.984957
1.00402 1.00127 0.98659
1.00168 1.0019 0.989927
1.00326 1.00224 0.986705
1.00099 1.00275 0.990227
1.0003 1.00097 0.997237
1.00026 1.00296 0.99123
0.999973 1.00027 0.997749
0.999786 0.999377 0.998257
1.00528 0.994867 0.990689
1.00532 0.994882 0.990577
1.00469 0.994858 0.991656
1.00525 0.995098 0.990423
1.00522 0.996048 0.9894
1.00508 0.997353 0.988095
1.00524 0.997186 0.988621
1.00528 0.994984 0.990393
1.00522 0.995456 0.989583
1.00523 0.994885 0.990381
1.00524 0.994956 0.99096
1.00529 0.994935 0.99082
1.00535 0.994929 0.991006
1.00519 0.994971 0.991063
1.00532 0.994913 0.990673
1.00523 0.994956 0.990934
1.00525 0.994951 0.990983
1.00526 0.99491 0.990642
1.00525 0.994923 0.990886
1.00523 0.995832 0.99015
1.00523 0.995009 0.990681
1.00525 0.996257 0.989655
1.00528 0.998672 0.98728
1.00525 0.996897 0.989021
1.00531 0.998988 0.986889
1.00485 1.00011 0.986427
1.0053 0.999353 0.986513
1.00488 1.00016 0.986345
1.00248 1.00005 0.991928
1.00489 1.00018 0.986311
1.00259 1.00002 0.991834
1.00105 0.999873 0.994246
1.00269 1.00014 0.991645
1.00063 1.00015 0.994454
1.00019 1.00076 0.997555
1.00523 0.99555 0.990154
1.00525 0.997202 0.988633
1.00524 0.995779 0.989958
1.00532 0.999484 0.986359
1.00525 0.997685 0.987977
1.00524 0.996271 0.989479
1.00483 1.00006 0.986462
1.00529 0.99982 0.985892
1.00526 0.998494 0.987316
1.00527 1.00042 0.985307
1.00451 1.00053 0.98649
1.00201 1.00123 0.990033
1.00411 1.00103 0.986591
1.00156 1.00208 0.989933
1.00037 1.00113 0.997141
1.00092 1.00291 0.990223
1.00023 1.00082 0.997348
0.999871 1.00007 0.997916
1.00522 0.9949 0.990912
1.00528 0.994868 0.99067
1.00532 0.994881 0.990564
1.00525 0.995098 0.99046
1.00521 0.996109 0.989386
1.00529 0.994982 0.990358
1.00521 0.994957 0.991023
1.00524 0.994953 0.990967
1.00528 0.994932 0.990808
1.00519 0.99497 0.991069
1.00521 0.994958 0.99108
1.00523 0.994954 0.990919
1.00525 0.994951 0.990971
1.00523 0.9956 0.990478
1.00524 0.994923 0.990877
1.00524 0.99582 0.990143
1.00525 0.998404 0.987629
1.00527 0.99627 0.98965
1.00528 0.998659 0.987294
1.00482 1.00001 0.986599
1.00531 0.998981 0.986909
1.00487 1.0001 0.986441
1.00246 1.00014 0.991844
1.0049 1.00014 0.986361
1.00262 1 0.991781
1.0011 0.999889 0.994162
1.00273 0.999965 0.991712
1.00072 0.999926 0.994516
1.00027 1.00034 0.994686
1.00521 0.995155 0.990746
1.00524 0.996906 0.988939
1.00524 0.995405 0.990259
1.0053 0.99885 0.987047
1.00524 0.997325 0.988486
1.00525 0.99586 0.989769
1.00493 0.999862 0.986528
1.00531 0.99926 0.986504
1.00526 0.997392 0.988221
1.00227 1.00049 0.990269
1.00483 1.00003 0.986458
1.00529 0.999831 0.985854
1.00458 1.00043 0.986484
1.00195 1.0013 0.990046
1.00046 1.00106 0.997151
1.00144 1.00225 0.98994
1.00036 1.00105 0.997169
1.00009 1.00072 0.997489
1.0052 0.994934 0.991029
1.00523 0.994909 0.990874
1.00527 0.99487 0.990652
1.00525 0.995105 0.990496
1.00523 0.994962 0.991021
1.00521 0.994958 0.991029
1.00524 0.99495 0.990974
1.00519 0.99497 0.991076
1.00522 0.99496 0.991068
1.00524 0.995909 0.990173
1.00524 0.994954 0.99096
1.00523 0.995813 0.990233
1.00523 0.997861 0.98829
1.00525 0.995826 0.990136
1.00524 0.998398 0.987638
1.00479 0.999871 0.986791
1.00528 0.998656 0.987307
1.00483 0.999993 0.986609
1.00247 1.0002 0.99031
1.00488 1.00008 0.986455
1.00259 1.0001 0.990962
1.00095 0.999954 0.997161
1.00275 0.99997 0.991635
1.0008 0.999879 0.994442
1.00042 0.999965 0.994768
1.00521 0.995103 0.990895
1.00524 0.996429 0.989504
1.00522 0.995236 0.990649
1.00529 0.99844 0.987446
1.00524 0.996911 0.988917
1.00525 0.99526 0.990363
1.00493 0.999636 0.986676
1.0053 0.998846 0.987058
1.00524 0.997446 0.988339
1.00245 0.999967 0.99049
1.00491 0.999776 0.986546
1.00531 0.999027 0.98665
1.00061 1.0007 0.997225
1.00228 1.00048 0.990277
1.00484 1 0.986453
1.00188 1.00136 0.990061
1.00046 1.00099 0.997141
1.00033 1.00099 0.997203
1.00522 0.994963 0.991004
1.00519 0.994935 0.99103
1.00523 0.994917 0.990837
1.00524 0.995963 0.990082
1.00523 0.994961 0.991044
1.0052 0.994958 0.991035
1.00523 0.994962 0.991056
1.00523 0.9959 0.990174
1.00525 0.997932 0.988272
1.00522 0.996011 0.989987
1.00523 0.998148 0.98798
1.00476 0.999512 0.987146
1.00523 0.998381 0.987648
1.00479 0.999862 0.986794
1.00244 1.00015 0.990424
1.00484 0.999983 0.986619
1.00248 1.00019 0.990316
1.00091 1 0.997147
1.00262 1.00008 0.990202
1.00082 0.999954 0.995809
1.00051 0.999847 0.994719
1.00525 0.995088 0.990771
1.00527 0.996363 0.989617
1.00521 0.995055 0.99091
1.00528 0.998533 0.987368
1.00524 0.996512 0.989415
1.00523 0.995318 0.990553
1.0049 0.999566 0.986801
1.00529 0.998668 0.987245
1.00524 0.996914 0.988895
1.00254 0.999794 0.990526
1.00491 0.999624 0.986687
1.0053 0.998844 0.987068
1.00079 1.00027 0.997257
1.00247 0.999943 0.990495
1.0049 0.999688 0.986563
1.00061 1.00068 0.997191
1.00229 1.00047 0.990284
1.00042 1.00096 0.997155
1.00523 0.995979 0.990058
1.00522 0.995014 0.990967
1.00518 0.994936 0.991032
1.00524 0.997852 0.988348
1.00523 0.995941 0.990105
1.00523 0.994958 0.991066
1.00523 0.99589 0.990176
1.00525 0.997904 0.988281
1.00472 0.999366 0.987358
1.00523 0.998441 0.987669
1.00478 0.999613 0.987044
1.00242 1.00004 0.990568
1.0048 0.99985 0.986798
1.00242 1.00016 0.99043
1.00085 1.00002 0.997143
1.00248 1.00017 0.99032
1.00089 1.00002 0.997141
1.0009 0.999916 0.99421
1.00527 0.996341 0.989586
1.00525 0.995038 0.990816
1.00528 0.998336 0.987615
1.00526 0.996363 0.989623
1.00521 0.995014 0.990925
1.00486 0.999727 0.986822
1.00528 0.99854 0.987364
1.00523 0.996596 0.989327
1.00256 0.999844 0.990464
1.00488 0.999675 0.98674
1.00528 0.9989 0.987043
1.00093 1.00001 0.997216
1.00256 0.99979 0.990526
1.00489 0.999606 0.986697
1.00077 1.00031 0.997248
1.00249 0.999935 0.990498
1.00062 1.00067 0.99716
1.00524 0.997892 0.988273
1.00523 0.996035 0.990021
1.00523 0.995078 0.99093
1.00468 0.999303 0.987485
1.00524 0.997844 0.988355
1.00523 0.995925 0.990128
1.00525 0.99788 0.98829
1.00474 0.99936 0.987328
1.00234 0.999992 0.990752
1.00478 0.999713 0.986941
1.0024 1.00005 0.990574
1.00084 1.00002 0.997158
1.00242 1.00016 0.990436
1.00084 1.00004 0.997152
1.00088 1.00002 0.99714
1.00526 0.998167 0.987831
1.00527 0.996123 0.989824
1.00525 0.994958 0.990861
1.00479 0.999662 0.98702
1.00527 0.998343 0.987609
1.00526 0.996363 0.989631
1.00251 0.999952 0.99047
1.00484 0.999743 0.986818
1.00528 0.998547 0.98736
1.00096 0.999941 0.997155
1.00257 0.99986 0.990462
1.00486 0.999778 0.986679
1.0009 1.00006 0.997234
1.00257 0.999803 0.990527
1.00079 1.00031 0.997229
1.00469 0.999539 0.987309
1.00524 0.997766 0.988372
1.00523 0.996077 0.989983
1.0023 0.999922 0.99092
1.00469 0.999289 0.987472
1.00524 0.997829 0.988363
1.00476 0.999349 0.987299
1.00235 0.999968 0.990759
1.0008 1.00002 0.997173
1.00238 1.00006 0.990579
1.00082 1.00003 0.997157
1.00081 1.00006 0.997157
1.00472 0.999589 0.987207
1.00526 0.997989 0.988025
1.00527 0.995922 0.990061
1.00253 0.999996 0.991909
1.00477 0.999669 0.987021
1.00527 0.998351 0.987602
1.00091 0.999957 0.997136
1.00252 0.99997 0.990469
1.00481 0.99976 0.986813
1.00096 0.999968 0.997179
1.00257 0.999882 0.990461
1.00089 1.00008 0.997247
1.00237 0.999922 0.990838
1.00468 0.99942 0.987388
1.00523 0.99764 0.988471
1.00073 0.999987 0.997226
1.00228 0.999922 0.990916
1.0047 0.999277 0.987459
1.00234 0.999947 0.990763
1.00077 1.00001 0.99719
1.0008 1.00004 0.997164
1.00252 0.999961 0.992013
1.00472 0.999591 0.987206
1.00526 0.997808 0.98822
1.00042 0.999996 0.997619
1.00243 0.999998 0.990608
1.00475 0.999672 0.987023
1.00093 0.999968 0.997147
1.00252 0.99999 0.990465
1.00095 0.999989 0.9972
1.00071 0.999962 0.994525
1.00239 0.999923 0.991504
1.00468 0.999302 0.987466
1.00075 0.99999 0.997233
1.00229 0.999925 0.99092
1.00079 0.999999 0.997203
1.00028 0.999989 0.994942
1.00243 0.999951 0.991404
1.0047 0.999597 0.987205
1.00061 0.999987 0.995997
1.00242 0.999999 0.990623
1.00094 0.999977 0.997161
1.00074 0.999978 0.997229
1.00228 0.999915 0.990933
1.00071 0.999991 0.997232
1.00052 0.999974 0.996091
1.00234 0.999945 0.990825
1.00086 0.999982 0.997163
1.00075 0.999976 0.997239
1.00077 0.999979 0.997208

TENSORS stress float
0.00198521 -0.000129033 0.000225296
-0.000129033 0.00088555 -3.55474e-05
0.000225296 -3.55474e-05 0.000861457
0.00617324 -8.74633e-06 0.000242578
-8.74633e-06 0.0034741 2.60267e-05
0.000242578 2.60267e-05 0.00347072
0.00169733 -6.10048e-05 9.78568e-05
-6.10048e-05 0.000709879 -1.41926e-05
9.78568e-05 -1.41926e-05 0.000675756
0.00205805 -7.46131e-05 0.000221525
-7.46131e-05 0.000905122 -2.10487e-05
0.000221525 -2.10487e-05 0.000888437
0.00204153 -0.000114492 0.000220837
-0.000114492 0.00091033 -3.14666e-05
0.000220837 -3.14666e-05 0.000889127
0.00192624 -0.00012877 0.000231526
-0.00012877 0.000850512 -3.64056e-05
0.000231526 -3.64056e-05 0.000827245
0.00168441 -0.00011317 4.13383e-05
-0.00011317 0.000617644 -1.19233e-05
4.13383e-05 -1.19233e-05 0.000518084
0.00609657 -1.67586e-05 -6.98945e-06
-1.67586e-05 0.00341709 -6.82004e-07
-6.98945e-06 -6.82004e-07 0.00341871
0.00603282 0.000159483 0.000120945
0.000159483 0.00336193 1.0145e-05
0.000120945 1.0145e-05 0.00334145
0.00589396 -9.82554e-05 5.54124e-05
-9.82554e-05 0.00328381 2.75521e-06
5.54124e-05 2.75521e-06 0.00326121
0.00176068 0.000165293 0.000233582
0.000165293 0.00073707 2.61156e-05
0.000233582 2.61156e-05 0.000734213
0.000561698 0.000234133 2.60981e-05
0.000234133 -4.64033e-05 1.77655e-05
2.60981e-05 1.77655e-05 -0.000161673
0.00172315 -3.4551e-05 0.000223599
-3.4551e-05 0.000695623 3.44447e-06
0.000223599 3.44447e-06 0.000693325
0.00138066 -2.53123e-06 5.24545e-05
-2.53123e-06 0.000508461 1.437e-06
5.24545e-05 1.437e-06 0.000466486
0.00146115 -5.91614e-05 -4.6272e-05
-5.91614e-05 0.000571083 8.13367e-06
-4.6272e-05 8.13367e-06 0.000525285
0.00171791 -7.6159e-05 7.39881e-05
-7.6159e-05 0.000712173 -4.37814e-06
7.39881e-05 -4.37814e-06 0.000680933
0.0016953 -4.66352e-05 0.00010576
-4.66352e-05 0.000716266 -1.47035e-05
0.00010576 -1.47035e-05 0.000678488
0.0017125 -7.2162e-05 8.72045e-05
-7.2162e-05 0.000710431 -1.13025e-05
8.72045e-05 -1.13025e-05 0.000679802
0.0017411 -0.000150441 -3.67362e-05
-0.000150441 0.000648047 4.75743e-06
-3.67362e-05 4.75743e-06 0.000557309
0.00585604 -0.000128886 0.00028277
-0.000128886 0.00326308 -1.06555e-05
0.00028277 -1.06555e-05 0.00327545
0.00200302 -5.36685e-05 0.000220788
-5.36685e-05 0.000870785 -1.56425e-05
0.000220788 -1.56425e-05 0.000856127
0.00207453 -9.59878e-05 0.000220742
-9.59878e-05 0.000921014 -2.65226e-05
0.000220742 -2.65226e-05 0.000902559
0.00167232 -0.000124555 6.26645e-05
-0.000124555 0.000592865 -9.50806e-06
6.26645e-05 -9.50806e-06 0.00050441
0.00168784 -0.000122848 5.0854e-05
-0.000122848 0.000606475 -1.12869e-05
5.0854e-05 -1.12869e-05 0.000514334
0.00188095 -0.000104219 0.000229278
-0.000104219 0.000814846 -3.28762e-05
0.000229278 -3.28762e-05 0.000795523
0.00165976 -0.000105139 3.35408e-05
-0.000105139 0.000622266 -1.27588e-05
3.35408e-05 -1.27588e-05 0.000512682
0.00204585 -0.000273695 1.58782e-05
-0.000273695 0.000661734 -7.01368e-06
1.58782e-05 -7.01368e-06 0.000482568
0.00608505 -3.17652e-05 -0.00024068
-3.17652e-05 0.00340076 -1.7024e-05
-0.00024068 -1.7024e-05 0.00340698
0.003897 0.000123757 -0.000129247
0.000123757 0.00205169 -1.32988e-05
-0.000129247 -1.32988e-05 0.00203134
0.00378498 2.59953e-05 -0.000124418
2.59953e-05 0.00199795 -9.8706e-06
-0.000124418 -9.8706e-06 0.00197665
0.00599137 -8.58879e-05 -3.54794e-06
-8.58879e-05 0.00336521 1.07852e-07
-3.54794e-06 1.07852e-07 0.00336085
0.000514795 0.000214715 -1.57884e-06
0.000214715 -7.20182e-05 -1.02568e-06
-1.57884e-06 -1.02568e-06 -0.000186978
0.0017395 6.23096e-05 0.000226444
6.23096e-05 0.000711567 1.9507e-05
0.000226444 1.9507e-05 0.000697794
0.00186717 0.00014612 0.000230278
0.00014612 0.000820316 2.99902e-05
0.000230278 2.99902e-05 0.000797027
0.0027323 0.000195434 0.00013932
0.000195434 0.00124011 1.90935e-05
0.00013932 1.90935e-05 0.0011652
0.00526667 -0.00035127 -1.2208e-05
-0.00035127 0.00299704 7.71607e-06
-1.2208e-05 7.71607e-06 0.00292772
0.00282821 0.000260526 0.000141321
0.000260526 0.00133542 2.32582e-05
0.000141321 2.32582e-05 0.00124909
0.000506607 0.000193886 2.73142e-05
0.000193886 -7.66913e-05 2.27961e-05
2.73142e-05 2.27961e-05 -0.00018858
0.000833773 0.000209348 1.19389e-05
0.000209348 1.29409e-05 5.84682e-06
1.19389e-05 5.84682e-06 -0.00017643
0.0040192 -0.000104261 0.000149128
-0.000104261 0.00217645 1.00413e-05
0.000149128 1.00413e-05 0.00217856
0.00586651 7.72735e-05 3.69218e-06
7.72735e-05 0.00325763 -1.66443e-06
3.69218e-06 -1.66443e-06 0.00327627
0.0037519 7.92203e-05 -0.000107723
7.92203e-05 0.0019588 -4.46397e-06
-0.000107723 -4.46397e-06 0.00194657
0.00572961 5.92488e-05 0.000276373
5.92488e-05 0.00317672 3.75518e-06
0.000276373 3.75518e-06 0.0031957
0.0013586 8.29663e-05 5.5374e-05
8.29663e-05 0.00049553 3.46266e-06
5.5374e-05 3.46266e-06 0.000458312
0.000583051 1.05539e-05 1.57855e-05
1.05539e-05 -0.000104782 1.80515e-06
1.57855e-05 1.80515e-06 -0.000185033
0.00589687 0.000215627 0.000153314
0.000215627 0.00330324 1.42385e-05
0.000153314 1.42385e-05 0.00327906
0.00275951 6.91593e-05 0.000132698
6.91593e-05 0.00122486 8.20219e-06
0.000132698 8.20219e-06 0.00116955
0.0013275 -7.9542e-05 -6.65019e-05
-7.9542e-05 0.00048946 8.27746e-06
-6.65019e-05 8.27746e-06 0.000442801
0.00137117 -9.30005e-05 -5.88496e-05
-9.30005e-05 0.000519484 9.71872e-06
-5.88496e-05 9.71872e-06 0.000471621
0.00152415 -1.36158e-05 -3.44245e-05
-1.36158e-05 0.000612286 7.42257e-06
-3.44245e-05 7.42257e-06 0.000565058
0.00177522 -0.000155052 -0.000121716
-0.000155052 0.000661726 2.13087e-05
-0.000121716 2.13087e-05 0.000580391
0.0036734 -7.22038e-06 -0.000111291
-7.22038e-06 0.00191917 -1.95108e-06
-0.000111291 -1.95108e-06 0.00190562
0.00169033 -5.8564e-05 7.94618e-05
-5.8564e-05 0.00069127 -3.57107e-06
7.94618e-05 -3.57107e-06 0.000663451
0.00165155 -2.34509e-05 0.000109259
-2.34509e-05 0.000692316 -1.28263e-05
0.000109259 -1.28263e-05 0.000653753
0.0017222 -7.54816e-05 7.92523e-05
-7.54816e-05 0.000713335 -7.54229e-06
7.92523e-05 -7.54229e-06 0.000683245
0.00173667 -0.00010335 -2.95477e-05
-0.00010335 0.000623 1.75425e-06
-2.95477e-05 1.75425e-06 0.000544288
0.00171994 -0.000148397 -4.23867e-05
-0.000148397 0.000648411 5.22113e-06
-4.23867e-05 5.22113e-06 0.000551366
0.0017439 -0.000142139 -3.15175e-05
-0.000142139 0.000639737 3.37557e-06
-3.15175e-05 3.37557e-06 0.000554239
0.00203146 -0.000273026 -8.63034e-06
-0.000273026 0.000648997 2.3181e-06
-8.63034e-06 2.3181e-06 0.00046997
0.00571184 2.04483e-05 0.000271287
2.04483e-05 0.00316449 -1.10105e-06
0.000271287 -1.10105e-06 0.00318449
0.00194778 -3.14118e-05 0.000218073
-3.14118e-05 0.000840065 -1.07427e-05
0.000218073 -1.07427e-05 0.000828113
0.00243141 1.74327e-06 4.58459e-05
1.74327e-06 0.00104622 -9.23887e-07
4.58459e-05 -9.23887e-07 0.000981242
0.00165028 -0.000100886 5.55591e-05
-0.000100886 0.000573088 -6.33138e-06
5.55591e-05 -6.33138e-06 0.000491418
0.00167933 -0.000125616 5.83075e-05
-0.000125616 0.000597182 -1.07525e-05
5.83075e-05 -1.07525e-05 0.000507541
0.00189598 -0.000175063 1.14833e-05
-0.000175063 0.000501643 -2.98239e-06
1.14833e-05 -2.98239e-06 0.000353885
0.0017911 -0.000233799 1.64403e-05
-0.000233799 0.000469719 -5.64379e-06
1.64403e-05 -5.64379e-06 0.000302692
0.00168376 -6.25503e-05 0.00020751
-6.25503e-05 0.000693345 -2.53326e-05
0.00020751 -2.53326e-05 0.000678081
0.001556 -6.70922e-05 2.44898e-05
-6.70922e-05 0.000578242 -1.24561e-05
2.44898e-05 -1.24561e-05 0.000467953
0.00204259 -0.000293957 1.55732e-05
-0.000293957 0.0007007 -7.95373e-06
1.55732e-05 -7.95373e-06 0.000510304
0.00147654 -0.000329422 6.14865e-06
-0.000329422 0.000134736 -1.48907e-06
6.14865e-06 -1.48907e-06 -8.92339e-05
0.00633757 0.000218257 -0.00029683
0.000218257 0.00355014 -2.99849e-05
-0.00029683 -2.99849e-05 0.00355421
0.0058331 -0.00011007 -0.00021048
-0.00011007 0.00326944 -1.3615e-05
-0.00021048 -1.3615e-05 0.00326617
0.00612918 4.5186e-05 -0.000257153
4.5186e-05 0.00341818 -2.08951e-05
-0.000257153 -2.08951e-05 0.00342888
0.000478276 0.000208368 -2.48372e-05
0.000208368 -8.97432e-05 -1.83317e-05
-2.48372e-05 -1.83317e-05 -0.000206825
0.00631749 0.000210646 -2.6025e-06
0.000210646 0.00353484 -2.17159e-06
-2.6025e-06 -2.17159e-06 0.00354134
0.00633992 0.000159702 -8.88455e-06
0.000159702 0.00354752 -2.27467e-06
-8.88455e-06 -2.27467e-06 0.00355383
0.00043161 0.000127258 1.04684e-07
0.000127258 -0.000172718 -2.80841e-07
1.04684e-07 -2.80841e-07 -0.000274592
0.00330041 -0.000117763 -9.38485e-05
-0.000117763 0.00173677 -3.30355e-06
-9.38485e-05 -3.30355e-06 0.00170443
0.000440186 0.00019805 -7.64826e-08
0.00019805 -0.000124336 -4.14983e-07
-7.64826e-08 -4.14983e-07 -0.000239659
0.00166594 0.000194743 4.85939e-05
0.000194743 0.000638415 2.46284e-06
4.85939e-05 2.46284e-06 0.000545147
0.000864092 0.000209325 3.27e-07
0.000209325 3.0204e-05 -1.12636e-08
3.27e-07 -1.12636e-08 -0.000158085
0.00498565 -0.000123566 0.00018256
-0.000123566 0.0027737 1.51647e-05
0.00018256 1.51647e-05 0.00276781
0.000521107 1.93751e-05 9.5752e-06
1.93751e-05 -3.08507e-06 1.16979e-05
9.5752e-06 1.16979e-05 -6.18799e-05
0.00053099 9.72232e-05 1.6021e-05
9.72232e-05 -0.000132638 9.49324e-06
1.6021e-05 9.49324e-06 -0.000229052
0.000573978 0.000154829 2.09136e-05
0.000154829 -7.15604e-05 1.66971e-05
2.09136e-05 1.66971e-05 -0.000180034
0.00105162 0.000197294 1.46284e-05
0.000197294 -2.69171e-06 5.27211e-06
1.46284e-05 5.27211e-06 -0.000176159
0.00283057 0.000148747 0.00012103
0.000148747 0.00137333 1.61842e-05
0.00012103 1.61842e-05 0.00130479
0.000915061 0.000215088 1.36131e-05
0.000215088 7.25803e-06 6.50816e-06
1.36131e-05 6.50816e-06 -0.000177839
0.000852633 0.000212735 1.13428e-05
0.000212735 8.80029e-05 5.52265e-06
1.13428e-05 5.52265e-06 -0.000107474
0.00102911 0.000295439 2.636e-06
0.000295439 5.18059e-05 2.20271e-07
2.636e-06 2.20271e-07 -0.000188771
0.00316807 -0.000120657 8.99189e-05
-0.000120657 0.00164781 4.09853e-06
8.99189e-05 4.09853e-06 0.00164779
0.00370558 -0.000151759 1.62826e-05
-0.000151759 0.00199188 -2.22545e-07
1.62826e-05 -2.22545e-07 0.0019826
0.00617379 4.65778e-05 -0.000286435
4.65778e-05 0.00343473 -1.3311e-05
-0.000286435 -1.3311e-05 0.00345202
0.00594149 6.77923e-05 -0.00028429
6.77923e-05 0.00330028 -8.22437e-06
-0.00028429 -8.22437e-06 0.00331985
0.00581944 8.43917e-05 -3.70574e-09
8.43917e-05 0.00323712 -3.38449e-06
-3.70574e-09 -3.38449e-06 0.00325246
0.00366532 2.51476e-05 -0.000120155
2.51476e-05 0.00190466 -5.76598e-06
-0.000120155 -5.76598e-06 0.00189688
0.00162963 3.66569e-05 5.73771e-05
3.66569e-05 0.000538203 1.35899e-06
5.73771e-05 1.35899e-06 0.000473123
0.00388952 0.000133497 -0.000110285
0.000133497 0.00204757 -6.11921e-06
-0.000110285 -6.11921e-06 0.00202869
0.00167343 8.69722e-05 5.76152e-05
8.69722e-05 0.000562965 2.64322e-06
5.76152e-05 2.64322e-06 0.00048999
0.00578613 0.000129948 0.000279804
0.000129948 0.00322619 6.95869e-06
0.000279804 6.95869e-06 0.00323607
0.00049896 1.06674e-05 1.88089e-05
1.06674e-05 -0.000151379 7.74489e-07
1.88089e-05 7.74489e-07 -0.000229022
0.00276763 3.43795e-05 0.000131803
3.43795e-05 0.00123062 5.60875e-06
0.000131803 5.60875e-06 0.00117977
0.00106146 4.99663e-05 1.23768e-05
4.99663e-05 -2.47076e-05 1.00151e-06
1.23768e-05 1.00151e-06 -0.000154211
0.00269516 0.00011255 0.000137029
0.00011255 0.00119101 1.07311e-05
0.000137029 1.07311e-05 0.00113013
0.0011157 0.000115939 1.22334e-05
0.000115939 -3.77746e-06 2.14627e-06
1.22334e-05 2.14627e-06 -0.000148138
0.00176197 4.28487e-05 -0.000223183
4.28487e-05 0.000719557 2.38429e-06
-0.000223183 2.38429e-06 0.000718437
0.00134158 -9.33215e-06 -5.32084e-05
-9.33215e-06 0.00049011 2.26434e-06
-5.32084e-05 2.26434e-06 0.000448316
0.00149599 2.29013e-05 -2.61346e-05
2.29013e-05 0.000600653 7.32064e-06
-2.61346e-05 7.32064e-06 0.000551504
0.00133006 -9.23242e-05 -6.73333e-05
-9.23242e-05 0.000493775 9.91068e-06
-6.73333e-05 9.91068e-06 0.000446371
0.00185436 -8.28216e-05 -0.00011789
-8.28216e-05 0.000685821 1.06801e-05
-0.00011789 1.06801e-05 0.000616981
0.0018262 -0.000131255 -0.000119173
-0.000131255 0.000680955 1.80227e-05
-0.000119173 1.80227e-05 0.000605616
0.00173031 -0.000166117 -0.000124072
-0.000166117 0.000646272 2.27477e-05
-0.000124072 2.27477e-05 0.000559358
0.0020108 -0.000271686 -3.0686e-05
-0.000271686 0.000632767 1.06766e-05
-3.0686e-05 1.06766e-05 0.000454166
0.00581758 -9.63707e-05 2.22857e-06
-9.63707e-05 0.00323871 -1.74657e-06
2.22857e-06 -1.74657e-06 0.00325236
0.00161101 3.64695e-05 8.7151e-05
3.64695e-05 0.00063861 -3.91213e-06
8.7151e-05 -3.91213e-06 0.000616953
0.00114131 -6.77831e-06 -6.03295e-05
-6.77831e-06 0.000245417 1.53375e-06
-6.03295e-05 1.53375e-06 0.000178775
0.00171402 -6.53747e-05 -3.29081e-05
-6.53747e-05 0.000605931 2.37161e-06
-3.29081e-05 2.37161e-06 0.000532077
0.00389743 3.15445e-06 0.000214361
3.15445e-06 0.00207672 -9.98146e-06
0.000214361 -9.98146e-06 0.002066
0.00222974 -0.000144936 -3.79291e-05
-0.000144936 0.000974785 2.34636e-06
-3.79291e-05 2.34636e-06 0.00087712
0.00174615 -0.000124871 -2.90252e-05
-0.000124871 0.000633737 2.3193e-06
-2.90252e-05 2.3193e-06 0.000552048
0.00189233 -0.000172411 -9.68464e-06
-0.000172411 0.000495571 1.69513e-06
-9.68464e-06 1.69513e-06 0.000349156
0.00201414 -0.000294861 -7.35902e-06
-0.000294861 0.000679018 2.19961e-06
-7.35902e-06 2.19961e-06 0.000487825
0.00191197 -0.000239223 -6.49058e-06
-0.000239223 0.000544597 1.68921e-06
-6.49058e-06 1.68921e-06 0.000377246
0.00150192 -0.000330445 5.0884e-07
-0.000330445 0.000151477 -1.69511e-07
5.0884e-07 -1.69511e-07 -7.19334e-05
0.000535918 1.1491e-05 1.94431e-05
1.1491e-05 -0.000132012 -9.37804e-07
1.94431e-05 -9.37804e-07 -0.000206524
0.00157039 5.20958e-06 4.64064e-05
5.20958e-06 0.000517036 -2.64212e-06
4.64064e-05 -2.64212e-06 0.000444716
0.00172701 -5.03602e-05 1.17288e-05
-5.03602e-05 0.000388646 -8.48017e-07
1.17288e-05 -8.48017e-07 0.000270426
0.00173304 -0.000134193 1.17779e-05
-0.000134193 0.000391262 -1.94047e-06
1.17779e-05 -1.94047e-06 0.000254399
0.00177071 -0.000202093 1.43038e-05
-0.000202093 0.000432122 -4.08002e-06
1.43038e-05 -4.08002e-06 0.000276276
0.00181745 -0.000237035 5.57849e-07
-0.000237035 0.000228801 -3.62953e-07
5.57849e-07 -3.62953e-07 6.29039e-05
0.00546862 0.000158126 0.000172282
0.000158126 0.00307605 -1.26312e-05
0.000172282 -1.26312e-05 0.00305941
0.00150093 -0.000303349 5.00842e-06
-0.000303349 0.000105721 -1.16458e-06
5.00842e-06 -1.16458e-06 -9.92724e-05
0.000351779 -0.000153846 2.07878e-05
-0.000153846 -0.000171159 -1.80804e-05
2.07878e-05 -1.80804e-05 -0.000268082
0.000842706 -0.000217697 1.20422e-05
-0.000217697 1.27621e-05 -8.25626e-06
1.20422e-05 -8.25626e-06 -0.000178843
0.00150869 -0.000362998 7.03142e-06
-0.000362998 0.00021246 -2.21391e-06
7.03142e-06 -2.21391e-06 -3.47919e-05
0.0017542 -0.000404707 2.75441e-06
-0.000404707 0.000186762 1.37488e-06
2.75441e-06 1.37488e-06 -3.85557e-05
0.000473125 -0.000102082 1.85943e-05
-0.000102082 -5.20256e-05 -1.46197e-05
1.85943e-05 -1.46197e-05 -0.000132364
0.000470721 -8.23794e-05 -7.53877e-07
-8.23794e-05 -1.09121e-05 -5.14155e-06
-7.53877e-07 -5.14155e-06 -0.00020161
0.00635593 0.000231246 -0.000308272
0.000231246 0.0035639 -2.94517e-05
-0.000308272 -2.94517e-05 0.00356743
0.00624366 0.000143187 -0.000277842
0.000143187 0.00348695 -2.61678e-05
-0.000277842 -2.61678e-05 0.00349665
0.000431936 0.000123377 -1.85794e-05
0.000123377 -0.000174279 -1.16088e-05
-1.85794e-05 -1.16088e-05 -0.00027625
0.00528486 -0.000179209 -0.0001632
-0.000179209 0.00296546 -1.16337e-05
-0.0001632 -1.16337e-05 0.00294799
0.000455363 0.00017166 -2.32983e-05
0.00017166 -0.000105657 -1.71042e-05
-2.32983e-05 -1.71042e-05 -0.000203729
0.000419439 0.000183351 -2.0983e-05
0.000183351 -0.000134474 -1.68567e-05
-2.0983e-05 -1.68567e-05 -0.000251054
0.000839327 0.000205107 -1.29551e-05
0.000205107 1.53516e-05 -6.21468e-06
-1.29551e-05 -6.21468e-06 -0.000171257
0.00464566 -0.000145065 1.14899e-05
-0.000145065 0.00257117 -7.77795e-07
1.14899e-05 -7.77795e-07 0.00256201
0.000548811 5.59743e-06 1.38035e-06
5.59743e-06 1.77999e-05 5.98428e-07
1.38035e-06 5.98428e-07 -3.82641e-05
0.00166712 0.000133635 5.89842e-05
0.000133635 0.000567997 4.67824e-06
5.89842e-05 4.67824e-06 0.000484529
0.0016294 0.00019028 5.81628e-05
0.00019028 0.000581216 4.85879e-06
5.81628e-05 4.85879e-06 0.000485084
0.00101973 0.000195868 8.9386e-08
0.000195868 -1.62711e-05 -2.62028e-07
8.9386e-08 -2.62028e-07 -0.000190208
0.000513949 0.000136914 -3.53477e-07
0.000136914 -5.14963e-05 -2.22402e-07
-3.53477e-07 -2.22402e-07 -0.00013676
0.000903983 0.000212033 7.0262e-07
0.000212033 6.68357e-06 9.29524e-08
7.0262e-07 9.29524e-08 -0.000177566
0.00081652 0.000206683 3.04738e-07
0.000206683 6.26141e-05 -8.06349e-07
3.04738e-07 -8.06349e-07 -0.000130796
0.00116927 0.000312838 2.01247e-07
0.000312838 0.000133665 -3.34383e-07
2.01247e-07 -3.34383e-07 -0.000109703
0.0005506 8.73694e-05 1.69921e-05
8.73694e-05 2.40382e-06 1.40807e-05
1.69921e-05 1.40807e-05 -7.36397e-05
0.000574276 -2.65828e-05 3.78903e-06
-2.65828e-05 3.2407e-05 9.71543e-06
3.78903e-06 9.71543e-06 -1.12645e-05
0.0011827 0.000125592 3.00525e-06
0.000125592 0.000426598 6.05439e-06
3.00525e-06 6.05439e-06 0.000256911
0.001097 0.00017468 1.37449e-05
0.00017468 -1.42254e-06 4.13247e-06
1.37449e-05 4.13247e-06 -0.000165976
0.000985474 0.000212471 1.46293e-05
0.000212471 -1.85105e-06 6.15216e-06
1.46293e-05 6.15216e-06 -0.000182725
0.00162943 0.000324636 4.5433e-06
0.000324636 0.000169111 5.68398e-07
4.5433e-06 5.68398e-07 -4.13749e-05
0.000780189 0.000212845 8.84866e-06
0.000212845 0.000111754 5.59131e-06
8.84866e-06 5.59131e-06 -8.39604e-05
0.0014209 0.000352646 3.77293e-06
0.000352646 0.000201202 2.43336e-07
3.77293e-06 2.43336e-07 -4.03171e-05
0.00112963 0.000296243 3.94325e-06
0.000296243 0.00016778 1.04271e-06
3.94325e-06 1.04271e-06 -8.19433e-05
0.00138942 0.000394924 -5.85701e-06
0.000394924 0.000189497 -3.03025e-06
-5.85701e-06 -3.03025e-06 -8.00632e-05
0.00274964 -0.000126362 4.93285e-05
-0.000126362 0.00138481 3.26979e-06
4.93285e-05 3.26979e-06 0.00138317
0.00303087 -0.000147045 1.16606e-05
-0.000147045 0.0015678 -8.15621e-07
1.16606e-05 -8.15621e-07 0.00156029
0.00339513 -0.000174438 -6.63308e-05
-0.000174438 0.00180497 -3.66936e-06
-6.63308e-05 -3.66936e-06 0.001789
0.000454642 -6.99e-05 1.33356e-05
-6.99e-05 -4.91074e-05 -1.2985e-05
1.33356e-05 -1.2985e-05 -0.000116382
0.00481004 0.000177994 0.00013636
0.000177994 0.00269093 -1.26801e-05
0.00013636 -1.26801e-05 0.00266805
0.00631865 0.000200954 -0.000309382
0.000200954 0.00353698 -2.493e-05
-0.000309382 -2.493e-05 0.00354506
0.00598674 8.34759e-05 -0.000283869
8.34759e-05 0.00332558 -1.14302e-05
-0.000283869 -1.14302e-05 0.00334392
0.00051245 9.51102e-05 -1.97519e-05
9.51102e-05 -0.000147458 -5.2678e-06
-1.97519e-05 -5.2678e-06 -0.000234509
0.000496489 4.26202e-05 -1.93078e-05
4.26202e-05 -0.000152658 -2.6801e-06
-1.93078e-05 -2.6801e-06 -0.000233603
0.00576426 -8.49571e-06 -0.000273373
-8.49571e-06 0.00319396 -2.12694e-06
-0.000273373 -2.12694e-06 0.00321461
0.00572029 1.16344e-05 -2.87267e-07
1.16344e-05 0.0031685 -7.99032e-07
-2.87267e-07 -7.99032e-07 0.00318902
0.000481982 7.67514e-07 -1.07172e-07
7.67514e-07 -0.000164469 9.14486e-08
-1.07172e-07 9.14486e-08 -0.000240281
0.00161398 3.67616e-05 5.74618e-05
3.67616e-05 0.000525147 2.39869e-06
5.74618e-05 2.39869e-06 0.000458795
0.00102572 5.34349e-05 -7.0362e-08
5.34349e-05 -4.81706e-05 -1.83166e-07
-7.0362e-08 -1.83166e-07 -0.000178321
0.000473271 8.07033e-05 -3.95837e-07
8.07033e-05 -0.000169353 -3.82953e-07
-3.95837e-07 -3.82953e-07 -0.00026182
0.0010568 0.000116805 -2.20123e-07
0.000116805 -3.95713e-05 -1.35125e-07
-2.20123e-07 -1.35125e-07 -0.000184861
0.000476126 -3.04568e-05 1.93743e-05
-3.04568e-05 -0.000169755 -7.52851e-07
1.93743e-05 -7.52851e-07 -0.000243156
0.00102541 2.09834e-05 1.21184e-05
2.09834e-05 -3.92028e-05 4.78029e-07
1.21184e-05 4.78029e-07 -0.000165452
0.00106499 8.24457e-05 1.1975e-05
8.24457e-05 -2.85149e-05 1.77591e-06
1.1975e-05 1.77591e-06 -0.000164153
0.00163478 8.36888e-05 -6.86466e-07
8.36888e-05 6.44723e-05 -1.11073e-07
-6.86466e-07 -1.11073e-07 -5.33848e-05
0.00112332 0.000146447 1.29118e-05
0.000146447 2.11463e-06 2.95427e-06
1.29118e-05 2.95427e-06 -0.000152338
0.00172598 0.000192315 1.02335e-06
0.000192315 0.000111462 -5.18054e-07
1.02335e-06 -5.18054e-07 -3.3495e-05
0.00574095 -5.72063e-05 -0.000278651
-5.72063e-05 0.00318611 1.89849e-06
-0.000278651 1.89849e-06 0.00320371
0.00129834 -0.000148105 -5.48852e-05
-0.000148105 0.000474626 6.23954e-06
-5.48852e-05 6.23954e-06 0.0004305
-0.000265006 -4.33762e-06 -1.25229e-05
-4.33762e-06 -0.000612954 2.01743e-06
-1.25229e-05 2.01743e-06 -0.000702601
0.00181533 -5.798e-05 -0.000116691
-5.798e-05 0.00066178 7.53227e-06
-0.000116691 7.53227e-06 0.000595998
0.00584968 0.000319871 -6.50939e-06
0.000319871 0.00333046 5.40054e-06
-6.50939e-06 5.40054e-06 0.00326822
0.00287734 -0.000230844 -0.00012665
-0.000230844 0.00136467 2.33435e-05
-0.00012665 2.33435e-05 0.00127273
0.00185557 -0.000107096 -0.000118396
-0.000107096 0.000690522 1.42831e-05
-0.000118396 1.42831e-05 0.000619244
0.00186181 -0.000168375 -2.92898e-05
-0.000168375 0.000472836 5.50794e-06
-2.92898e-05 5.50794e-06 0.000328032
0.00201064 -0.000243064 -2.94306e-05
-0.000243064 0.000605398 9.01689e-06
-2.94306e-05 9.01689e-06 0.000438142
0.00201062 -0.000297212 -2.83155e-05
-0.000297212 0.000673526 1.14463e-05
-2.83155e-05 1.14463e-05 0.000481309
0.00153044 -0.000331677 -4.72571e-06
-0.000331677 0.000170307 1.14983e-06
-4.72571e-06 1.14983e-06 -5.25809e-05
0.000476716 5.87297e-06 -3.90542e-08
5.87297e-06 -0.000166256 1.77103e-07
-3.90542e-08 1.77103e-07 -0.000241749
0.00170127 -7.77628e-05 -3.18249e-05
-7.77628e-05 0.000600649 3.64513e-07
-3.18249e-05 3.64513e-07 0.000530454
0.00134036 -4.60743e-05 -9.14129e-06
-4.60743e-05 0.000152861 5.21209e-07
-9.14129e-06 5.21209e-07 3.02142e-05
0.00185175 -0.000135456 -7.31472e-06
-0.000135456 0.000464014 1.15123e-06
-7.31472e-06 1.15123e-06 0.000327215
0.00572226 0.000149117 2.17354e-06
0.000149117 0.00322968 4.2901e-07
2.17354e-06 4.2901e-07 0.00321372
0.00164061 -0.000146478 1.24288e-06
-0.000146478 0.000633441 4.01048e-07
1.24288e-06 4.01048e-07 0.000525554
0.0013358 -0.000251272 1.36974e-06
-0.000251272 0.000318568 -1.02606e-06
1.36974e-06 -1.02606e-06 0.000124504
0.00181309 -0.000203928 -7.50099e-06
-0.000203928 0.000457821 1.82251e-06
-7.50099e-06 1.82251e-06 0.000301588
0.00178407 -0.000238298 -1.49428e-06
-0.000238298 0.00020416 1.93084e-07
-1.49428e-06 1.93084e-07 4.12383e-05
0.00149447 -0.000361089 8.65365e-07
-0.000361089 0.000208073 -2.12412e-07
8.65365e-07 -2.12412e-07 -3.81266e-05
0.00165563 -0.000310031 5.27448e-07
-0.000310031 0.000202071 -1.79292e-07
5.27448e-07 -1.79292e-07 -2.38293e-06
0.00179067 -0.000405771 7.01713e-07
-0.000405771 0.000213581 8.15722e-08
7.01713e-07 8.15722e-08 -1.1329e-05
0.000526977 -0.000107115 2.72723e-07
-0.000107115 -2.01288e-05 6.20627e-07
2.72723e-07 6.20627e-07 -0.000104422
0.000654613 -0.000113989 1.98577e-07
-0.000113989 9.35257e-05 -7.90348e-09
1.98577e-07 -7.90348e-09 -9.53774e-05
0.00100864 -2.25568e-05 1.20956e-05
-2.25568e-05 -4.22808e-05 -7.98622e-07
1.20956e-05 -7.98622e-07 -0.000168876
0.0017847 -8.84181e-05 1.07304e-05
-8.84181e-05 0.000425002 -1.30471e-06
1.07304e-05 -1.30471e-06 0.000300064
0.00171554 -8.2934e-05 -5.70722e-07
-8.2934e-05 0.000133886 2.05174e-07
-5.70722e-07 2.05174e-07 1.16963e-05
0.00167805 -0.000189376 1.03015e-06
-0.000189376 0.000117283 6.02767e-07
1.03015e-06 6.02767e-07 -2.59925e-05
0.00173953 -0.0002819 1.82975e-06
-0.0002819 0.000214287 -1.47659e-07
1.82975e-06 -1.47659e-07 3.22091e-05
0.00192415 -0.000280674 3.47795e-07
-0.000280674 0.000164263 3.91761e-07
3.47795e-07 3.91761e-07 2.1271e-05
0.000459469 -0.000136883 1.94132e-05
-0.000136883 -7.97737e-05 -1.72182e-05
1.94132e-05 -1.72182e-05 -0.000172477
0.00181232 -0.000371505 9.34466e-07
-0.000371505 0.000178931 1.15923e-06
9.34466e-07 1.15923e-06 -1.5564e-05
0.000575721 -0.000199274 8.10845e-06
-0.000199274 -8.51897e-05 -7.63604e-06
8.10845e-06 -7.63604e-06 -0.000277537
0.00126062 -0.000356003 9.55182e-06
-0.000356003 0.000150388 -3.49733e-06
9.55182e-06 -3.49733e-06 -0.000112048
0.00192254 -0.000459259 2.33777e-06
-0.000459259 0.000350388 6.49417e-07
2.33777e-06 6.49417e-07 8.48205e-05
0.00210618 -0.000441231 -2.55984e-06
-0.000441231 0.000350873 3.51882e-06
-2.55984e-06 3.51882e-06 0.000149985
0.000702099 -0.000183094 1.12105e-06
-0.000183094 0.000121962 -5.74483e-06
1.12105e-06 -5.74483e-06 -0.00010003
0.000575904 -7.36676e-05 -3.46754e-07
-7.36676e-05 4.23412e-05 -4.8708e-06
-3.46754e-07 -4.8708e-06 -0.000103807
0.00113633 -0.000243824 -2.1509e-06
-0.000243824 0.000411987 -2.31553e-08
-2.1509e-06 -2.31553e-08 0.000143246
0.00046034 0.000102573 -1.79641e-05
0.000102573 -0.000170663 -8.88607e-06
-1.79641e-05 -8.88607e-06 -0.000268023
0.0042904 -0.000191204 -0.000108452
-0.000191204 0.00236689 -7.49792e-06
-0.000108452 -7.49792e-06 0.00234578
0.00040697 -1.0334e-05 -4.10103e-06
-1.0334e-05 -6.20049e-05 -1.12066e-05
-4.10103e-06 -1.12066e-05 -0.000118057
0.000415915 0.000153409 -1.98216e-05
0.000153409 -0.000160772 -1.4626e-05
-1.98216e-05 -1.4626e-05 -0.000269982
0.000989285 0.00019476 -1.52364e-05
0.00019476 -2.91118e-05 -5.78871e-06
-1.52364e-05 -5.78871e-06 -0.000203538
0.000465917 0.000128902 -2.19873e-05
0.000128902 -8.35256e-05 -1.57185e-05
-2.19873e-05 -1.57185e-05 -0.000165257
0.000656499 0.000193465 -9.66695e-06
0.000193465 -3.74716e-05 -7.01474e-06
-9.66695e-06 -7.01474e-06 -0.000228386
0.000918801 0.000210963 -1.37124e-05
0.000210963 2.1631e-05 -6.7277e-06
-1.37124e-05 -6.7277e-06 -0.000162055
0.00121905 0.000323364 -4.18903e-06
0.000323364 0.000158565 -1.36644e-06
-4.18903e-06 -1.36644e-06 -8.67304e-05
0.000497401 7.64426e-05 1.56051e-06
7.64426e-05 -3.0097e-05 9.17293e-07
1.56051e-06 9.17293e-07 -0.000102875
0.000473256 -4.66595e-05 -4.17672e-09
-4.66595e-05 -2.13241e-05 4.21902e-07
-4.17672e-09 4.21902e-07 -6.81745e-05
0.000646549 7.58184e-05 1.53365e-06
7.58184e-05 8.4021e-05 -6.3161e-08
1.53365e-06 -6.3161e-08 -6.84347e-05
0.00105703 0.00017419 -9.74679e-08
0.00017419 -2.16927e-05 -2.74432e-07
-9.74679e-08 -2.74432e-07 -0.00018709
0.000970496 0.000210281 3.50979e-07
0.000210281 -4.03192e-06 -2.02566e-07
3.50979e-07 -2.02566e-07 -0.000184733
0.00161448 0.000323996 -2.3537e-08
0.000323996 0.000158639 -7.90882e-08
-2.3537e-08 -7.90882e-08 -5.22524e-05
0.000748584 0.000204938 -7.01263e-07
0.000204938 8.89277e-05 -9.34849e-08
-7.01263e-07 -9.34849e-08 -0.000105759
0.00144174 0.000352584 -6.00236e-08
0.000352584 0.000209576 -1.48966e-07
-6.00236e-08 -1.48966e-07 -3.24269e-05
0.00108005 0.000290743 1.7773e-07
0.000290743 0.000139306 -7.1982e-07
1.7773e-07 -7.1982e-07 -0.000108423
0.00136029 0.000405867 -7.31086e-07
0.000405867 0.000157435 7.81209e-07
-7.31086e-07 7.81209e-07 -0.000114695
0.000545069 -4.88492e-05 -5.18957e-07
-4.88492e-05 1.41978e-05 7.9277e-06
-5.18957e-07 7.9277e-06 -2.18088e-05
0.000982997 0.000152119 5.33659e-06
0.000152119 0.000279315 4.26746e-06
5.33659e-06 4.26746e-06 9.132e-05
0.000790693 4.12674e-05 1.53118e-06
4.12674e-05 0.000158695 5.89614e-06
1.53118e-06 5.89614e-06 4.58531e-05
0.000963382 0.000141524 9.94198e-07
0.000141524 0.000320971 1.85399e-07
9.94198e-07 1.85399e-07 8.69729e-05
0.00168865 0.000288797 2.68577e-06
0.000288797 0.000149451 -6.19241e-07
2.68577e-06 -6.19241e-07 -3.83601e-05
0.00152916 0.000347416 4.89087e-06
0.000347416 0.00017982 8.89194e-07
4.89087e-06 8.89194e-07 -5.02835e-05
0.00191012 0.000399114 9.85673e-07
0.000399114 0.000231779 -5.90914e-07
9.85673e-07 -5.90914e-07 2.21565e-05
0.00107047 0.000260672 5.19291e-06
0.000260672 0.000191366 2.2395e-06
5.19291e-06 2.2395e-06 -4.13553e-05
0.00199056 0.000486659 -2.4733e-06
0.000486659 0.000429745 -1.28747e-06
-2.4733e-06 -1.28747e-06 0.000163322
0.00140145 0.000390913 -3.21659e-06
0.000390913 0.000268224 -2.9908e-06
-3.21659e-06 -2.9908e-06 -2.72524e-05
0.00160073 0.000454912 -1.00245e-06
0.000454912 0.000201165 -1.11115e-06
-1.00245e-06 -1.11115e-06 -7.34675e-05
0.000574491 2.73682e-05 2.3254e-06
2.73682e-05 2.89398e-05 2.94365e-06
2.3254e-06 2.94365e-06 -3.13764e-05
0.000495523 -3.54927e-05 7.19526e-07
-3.54927e-05 -3.73846e-05 5.77347e-06
7.19526e-07 5.77347e-06 -6.09086e-05
0.00257046 -0.000116682 3.27009e-05
-0.000116682 0.00126691 3.57135e-06
3.27009e-05 3.57135e-06 0.00126796
0.00269464 -0.000134377 5.46288e-06
-0.000134377 0.00135273 -6.03486e-07
5.46288e-06 -6.03486e-07 0.00134879
0.00291647 -0.000157317 -4.13053e-05
-0.000157317 0.00149957 -3.29055e-06
-4.13053e-05 -3.29055e-06 0.00148887
0.000427093 -4.84549e-05 9.56245e-06
-4.84549e-05 -6.05651e-05 -1.11597e-05
9.56245e-06 -1.11597e-05 -0.000117014
0.0041728 0.000151476 0.000116784
0.000151476 0.00228745 -9.48682e-06
0.000116784 -9.48682e-06 0.00227378
0.000512199 -7.22187e-05 -1.20404e-06
-7.22187e-05 -1.72101e-05 2.45209e-07
-1.20404e-06 2.45209e-07 -8.76003e-05
0.00504224 0.000149326 -6.50156e-06
0.000149326 0.0028209 -9.22695e-07
-6.50156e-06 -9.22695e-07 0.00280545
0.000506044 0.000106092 -1.93388e-05
0.000106092 -0.000147196 -7.08863e-06
-1.93388e-05 -7.08863e-06 -0.000241456
0.000513368 3.39616e-05 -1.84174e-05
3.39616e-05 -0.000147599 -3.45009e-06
-1.84174e-05 -3.45009e-06 -0.000229491
0.00102077 0.00011766 -1.21288e-05
0.00011766 -6.28403e-05 -2.37951e-06
-1.21288e-05 -2.37951e-06 -0.000208911
0.000992059 5.55239e-05 -1.20865e-05
5.55239e-05 -7.02461e-05 -1.3013e-06
-1.20865e-05 -1.3013e-06 -0.000200878
0.000536555 -7.62957e-06 -1.95027e-05
-7.62957e-06 -0.000134536 -7.7719e-07
-1.95027e-05 -7.7719e-07 -0.000208434
0.00580708 -9.72804e-05 -0.000285051
-9.72804e-05 0.00323183 4.67288e-06
-0.000285051 4.67288e-06 0.00324685
0.000522395 -1.5711e-06 7.38091e-08
-1.5711e-06 -0.0001422 -6.07012e-07
7.38091e-08 -6.07012e-07 -0.000215633
0.00100869 2.60603e-05 -8.7643e-08
2.60603e-05 -5.03634e-05 3.15856e-09
-8.7643e-08 3.15856e-09 -0.000176957
0.00104849 8.445e-05 -1.62572e-07
8.445e-05 -4.08803e-05 -1.01592e-08
-1.62572e-07 -1.01592e-08 -0.000177188
0.00162786 8.25307e-05 -4.88206e-08
8.25307e-05 6.16347e-05 1.74224e-07
-4.88206e-08 1.74224e-07 -5.63825e-05
0.00107211 0.00014737 -2.58066e-07
0.00014737 -2.75329e-05 -2.79273e-07
-2.58066e-07 -2.79273e-07 -0.000183151
0.00170023 0.00019127 -1.38642e-07
0.00019127 9.66805e-05 2.64363e-08
-1.38642e-07 2.64363e-08 -4.86795e-05
0.000997682 -2.54034e-06 1.2031e-05
-2.54034e-06 -4.93339e-05 -2.19757e-07
1.2031e-05 -2.19757e-07 -0.000175066
0.00161387 4.00318e-05 -5.57201e-08
4.00318e-05 5.80657e-05 -5.17125e-08
-5.57201e-08 -5.17125e-08 -5.47454e-05
0.00165475 0.000134336 -5.49442e-07
0.000134336 6.90335e-05 -3.98414e-07
-5.49442e-07 -3.98414e-07 -5.93853e-05
0.00186923 0.000110029 7.67356e-07
0.000110029 5.03806e-05 -3.47766e-08
7.67356e-07 -3.47766e-08 -2.46601e-05
0.00173526 0.000246089 2.02078e-06
0.000246089 0.000134578 -3.91081e-07
2.02078e-06 -3.91081e-07 -3.10698e-05
0.00197502 0.000235405 1.25351e-06
0.000235405 0.000143655 -1.38469e-06
1.25351e-06 -1.38469e-06 2.59324e-05
0.000505962 -1.38733e-06 -1.86251e-05
-1.38733e-06 -0.000145592 9.48717e-07
-1.86251e-05 9.48717e-07 -0.000223189
0.00179244 -3.44228e-05 -0.00011537
-3.44228e-05 0.000648735 5.01418e-06
-0.00011537 5.01418e-06 0.000586982
0.000919173 -4.07129e-05 -1.62271e-05
-4.07129e-05 -0.000103457 1.77607e-06
-1.62271e-05 1.77607e-06 -0.000230853
0.00194952 -0.000135622 -2.66484e-05
-0.000135622 0.000523454 4.04655e-06
-2.66484e-05 4.04655e-06 0.000386881
0.00591902 0.000140014 -0.000203271
0.000140014 0.00335066 1.92713e-05
-0.000203271 1.92713e-05 0.00333343
0.00293691 -0.000213313 -0.00013242
-0.000213313 0.00141689 1.87729e-05
-0.00013242 1.87729e-05 0.00133524
0.00202333 -0.000302474 -2.35985e-05
-0.000302474 0.000739622 1.03828e-05
-2.35985e-05 1.03828e-05 0.000540027
0.00183397 -0.000204201 -2.87692e-05
-0.000204201 0.000469984 7.26813e-06
-2.87692e-05 7.26813e-06 0.00031373
0.00174951 -0.000239607 -4.0043e-06
-0.000239607 0.00017831 2.73967e-07
-4.0043e-06 2.73967e-07 1.83558e-05
0.00181044 -0.000316719 -4.93993e-06
-0.000316719 0.000299105 1.35142e-06
-4.93993e-06 1.35142e-06 9.51822e-05
0.00147986 -0.000359419 -5.96698e-06
-0.000359419 0.000202829 1.39221e-06
-5.96698e-06 1.39221e-06 -4.23826e-05
0.00182649 -0.000407188 -9.11631e-07
-0.000407188 0.000238777 -1.35699e-06
-9.11631e-07 -1.35699e-06 1.41738e-05
0.000482342 -0.000118913 -1.73856e-05
-0.000118913 -4.46609e-05 1.56499e-05
-1.73856e-05 1.56499e-05 -0.00013354
0.000878447 -0.000146783 -7.76373e-07
-0.000146783 0.000227295 5.01944e-06
-7.76373e-07 5.01944e-06 3.71228e-05
0.000949861 -1.71604e-05 9.74121e-09
-1.71604e-05 -8.00423e-05 -6.28201e-08
9.74121e-09 -6.28201e-08 -0.000205412
0.00178254 -8.89364e-05 -7.6901e-06
-8.89364e-05 0.000422039 9.03605e-07
-7.6901e-06 9.03605e-07 0.000297272
0.00176214 -7.93549e-05 -6.92955e-07
-7.93549e-05 0.000160951 2.37133e-07
-6.92955e-07 2.37133e-07 4.31789e-05
0.00171365 -0.000189895 -1.53052e-06
-0.000189895 0.000142892 5.2368e-07
-1.53052e-06 5.2368e-07 -4.15094e-06
0.000475928 -0.000153228 4.98441e-07
-0.000153228 -7.16798e-05 1.98608e-07
4.98441e-07 1.98608e-07 -0.000166036
0.00079109 -0.000211854 -2.72221e-07
-0.000211854 4.29478e-05 -7.6725e-08
-2.72221e-07 -7.6725e-08 -0.000151154
0.00120746 -0.000351128 1.66186e-06
-0.000351128 0.000118128 -6.30118e-07
1.66186e-06 -6.30118e-07 -0.00014372
0.00176818 -0.000281516 -3.09492e-06
-0.000281516 0.000232028 8.39779e-07
-3.09492e-06 8.39779e-07 4.81038e-05
0.00197046 -0.00028497 1.68982e-06
-0.00028497 0.000186436 -4.74062e-07
1.68982e-06 -4.74062e-07 4.82233e-05
0.00197443 -0.000468089 -1.07949e-06
-0.000468089 0.00038082 -2.92266e-07
-1.07949e-06 -2.92266e-07 0.000114906
0.00183892 -0.000373069 5.10304e-07
-0.000373069 0.00019529 -1.56403e-08
5.10304e-07 -1.56403e-08 8.00385e-07
0.0019882 -0.000435899 8.16135e-07
-0.000435899 0.000272314 7.03151e-07
8.16135e-07 7.03151e-07 7.16284e-05
0.000689232 -0.000181401 1.36424e-07
-0.000181401 0.000108762 -2.89242e-07
1.36424e-07 -2.89242e-07 -0.000107028
0.000431133 -0.000150256 -9.51815e-07
-0.000150256 -3.85724e-05 -3.02933e-07
-9.51815e-07 -3.02933e-07 -0.000285724
0.000722056 -9.43533e-05 4.99596e-07
-9.43533e-05 0.000131076 1.32903e-07
4.99596e-07 1.32903e-07 -2.02676e-05
0.00168767 -3.54828e-05 -7.09882e-07
-3.54828e-05 0.000118386 7.33425e-08
-7.09882e-07 7.33425e-08 2.24287e-06
0.00182886 -0.000131572 -1.55848e-06
-0.000131572 0.000200344 1.01723e-06
-1.55848e-06 1.01723e-06 7.44703e-05
0.00183697 -0.000101717 1.84539e-06
-0.000101717 4.66786e-05 4.2361e-07
1.84539e-06 4.2361e-07 -3.79636e-05
0.00186206 -0.000229714 -1.62765e-06
-0.000229714 9.4115e-05 1.24986e-06
-1.62765e-06 1.24986e-06 -2.35982e-05
0.00174374 -0.000332088 -8.34848e-07
-0.000332088 8.91607e-05 2.08266e-06
-8.34848e-07 2.08266e-06 -7.47312e-05
0.00205885 -0.000308065 1.77804e-06
-0.000308065 0.000199926 -2.10314e-07
1.77804e-06 -2.10314e-07 8.71246e-05
0.000635956 -0.000212108 4.63086e-06
-0.000212108 1.51189e-05 -6.89877e-06
4.63086e-06 -6.89877e-06 -0.000186613
0.00185929 -0.000401999 -2.19454e-06
-0.000401999 0.000143953 1.68844e-06
-2.19454e-06 1.68844e-06 -2.59223e-05
0.00130623 -0.000332542 6.52262e-06
-0.000332542 0.000274262 -5.82084e-06
6.52262e-06 -5.82084e-06 1.77371e-05
0.00164318 -0.000499418 4.16255e-06
-0.000499418 0.000281035 6.44605e-07
4.16255e-06 6.44605e-07 -3.27169e-05
0.0020626 -0.000500684 1.42283e-06
-0.000500684 0.000377051 3.39844e-06
1.42283e-06 3.39844e-06 0.000120164
0.00216027 -0.000459542 -3.12941e-06
-0.000459542 0.000375236 2.56089e-06
-3.12941e-06 2.56089e-06 0.000189354
0.000652968 -6.60714e-05 2.53226e-08
-6.60714e-05 0.000103952 -4.69651e-06
2.53226e-08 -4.69651e-06 -2.12475e-05
0.000993388 -0.000247856 2.4486e-07
-0.000247856 0.000219303 -8.67265e-07
2.4486e-07 -8.67265e-07 -8.88025e-06
0.00031007 -0.000129195 -1.63211e-06
-0.000129195 -5.09375e-05 1.59365e-06
-1.63211e-06 1.59365e-06 -0.00030454
0.00166796 -0.000318906 -4.45762e-06
-0.000318906 0.000655326 1.56834e-06
-4.45762e-06 1.56834e-06 0.00038984
0.00101417 0.000173843 -1.43989e-05
0.000173843 -4.38996e-05 -4.63937e-06
-1.43989e-05 -4.63937e-06 -0.000210154
0.000394529 -5.71126e-05 3.37284e-06
-5.71126e-05 -6.29744e-05 -9.95893e-06
3.37284e-06 -9.95893e-06 -0.00011229
0.000458313 5.67089e-05 -1.40354e-05
5.67089e-05 -5.2412e-05 -1.33285e-05
-1.40354e-05 -1.33285e-05 -0.000119769
0.000159515 4.51367e-05 -1.07104e-06
4.51367e-05 -0.00021035 -5.65855e-06
-1.07104e-06 -5.65855e-06 -0.000356455
0.000949551 0.000208026 -1.48728e-05
0.000208026 -9.82066e-06 -6.66671e-06
-1.48728e-05 -6.66671e-06 -0.000190383
0.00160207 0.000323419 -4.48511e-06
0.000323419 0.000149805 -5.60357e-07
-4.48511e-06 -5.60357e-07 -6.14721e-05
0.000671174 0.00019473 -6.26523e-06
0.00019473 3.75643e-05 -4.2259e-06
-6.26523e-06 -4.2259e-06 -0.000154473
0.00128287 0.000306991 -5.94848e-06
0.000306991 0.000267625 -3.16008e-06
-5.94848e-06 -3.16008e-06 1.86622e-05
0.0014576 0.000351862 -3.8202e-06
0.000351862 0.000215608 -7.56069e-07
-3.8202e-06 -7.56069e-07 -2.67608e-05
0.00132006 0.000413379 2.00637e-06
0.000413379 0.000122937 3.04529e-06
2.00637e-06 3.04529e-06 -0.000150753
0.000459615 -5.56052e-05 -2.5054e-06
-5.56052e-05 -3.44325e-05 7.49929e-07
-2.5054e-06 7.49929e-07 -7.19912e-05
0.000699909 0.000164708 6.92061e-08
0.000164708 0.000119629 -7.92054e-07
6.92061e-08 -7.92054e-07 -7.40044e-05
0.000607021 2.08559e-05 6.1231e-07
2.08559e-05 5.0022e-05 4.3349e-07
6.1231e-07 4.3349e-07 -5.80442e-05
0.000777581 0.000129433 1.58229e-06
0.000129433 0.000205557 -5.16712e-07
1.58229e-06 -5.16712e-07 -2.49393e-05
0.0016741 0.000287694 -6.23518e-07
0.000287694 0.000140845 -7.1274e-07
-6.23518e-07 -7.1274e-07 -4.72356e-05
0.00151471 0.000347178 -2.19333e-08
0.000347178 0.000170615 -1.28256e-07
-2.19333e-08 -1.28256e-07 -6.00924e-05
0.00188274 0.000396457 2.93395e-07
0.000396457 0.000217162 2.32981e-07
2.93395e-07 2.32981e-07 7.86572e-06
0.00102295 0.000259343 1.74711e-06
0.000259343 0.000166398 1.57718e-07
1.74711e-06 1.57718e-07 -6.51881e-05
0.00189086 0.000470031 -7.54806e-07
0.000470031 0.000374773 5.20284e-08
-7.54806e-07 5.20284e-08 0.000110518
0.00132483 0.000386059 -1.23936e-07
0.000386059 0.000219902 -1.55716e-06
-1.23936e-07 -1.55716e-06 -7.62416e-05
0.00168503 0.000455682 -3.63843e-06
0.000455682 0.000254733 1.41438e-06
-3.63843e-06 1.41438e-06 -1.54087e-05
0.000502062 -4.44112e-05 2.59838e-07
-4.44112e-05 -2.43023e-05 6.53481e-06
2.59838e-07 6.53481e-06 -5.24117e-05
0.000676307 1.48711e-05 5.02067e-07
1.48711e-05 9.33313e-05 5.14102e-06
5.02067e-07 5.14102e-06 7.13543e-06
0.000824473 0.000221338 1.58334e-06
0.000221338 0.000131015 6.07771e-07
1.58334e-06 6.07771e-07 -8.84172e-05
0.00133708 0.000115193 -1.66862e-06
0.000115193 0.000563003 2.79004e-06
-1.66862e-06 2.79004e-06 0.00036187
0.00131781 0.000257552 -2.26004e-06
0.000257552 0.00048824 -1.31948e-06
-2.26004e-06 -1.31948e-06 0.000246686
0.00196418 0.000354515 3.95491e-07
0.000354515 0.000206468 -2.35253e-06
3.95491e-07 -2.35253e-06 2.85505e-05
0.00186313 0.000443995 3.09975e-07
0.000443995 0.000271826 -6.12168e-07
3.09975e-07 -6.12168e-07 3.04742e-05
0.00194632 0.000435411 -1.18546e-06
0.000435411 0.000226144 -7.48435e-07
-1.18546e-06 -7.48435e-07 2.4659e-05
0.000792446 0.000311165 1.74314e-06
0.000311165 -2.50402e-05 1.44401e-06
1.74314e-06 1.44401e-06 -0.000301943
0.00211817 0.000538847 -7.30192e-07
0.000538847 0.000450739 -7.724e-07
-7.30192e-07 -7.724e-07 0.000180227
0.0012448 0.000426479 4.48337e-06
0.000426479 0.000111646 -2.84454e-06
4.48337e-06 -2.84454e-06 -0.000188946
0.000593377 2.24852e-05 2.42696e-06
2.24852e-05 3.92086e-05 3.2275e-06
2.42696e-06 3.2275e-06 -2.4683e-05
0.000644331 6.67902e-05 -2.06718e-07
6.67902e-05 0.000104054 1.27843e-06
-2.06718e-07 1.27843e-06 -2.8039e-07
0.000596307 3.74298e-05 2.32774e-06
3.74298e-05 4.75202e-05 2.95639e-06
2.32774e-06 2.95639e-06 -1.16582e-05
0.000554817 -2.21916e-06 -5.78052e-07
-2.21916e-06 1.80381e-05 6.50571e-09
-5.78052e-07 6.50571e-09 -4.26829e-05
0.00125254 -4.67181e-05 8.07564e-07
-4.67181e-05 0.000426574 3.25099e-06
8.07564e-07 3.25099e-06 0.000409278
0.000887111 -4.57291e-05 4.82102e-07
-4.57291e-05 0.000204782 -1.53459e-07
4.82102e-07 -1.53459e-07 0.000183086
0.000852658 -5.30683e-05 2.61231e-05
-5.30683e-05 0.000191775 8.31787e-06
2.61231e-05 8.31787e-06 0.000191709
0.00252926 -0.000114269 5.50742e-06
-0.000114269 0.00124049 -5.21584e-07
5.50742e-06 -5.21584e-07 0.00124207
0.00262185 -0.000130987 -3.68568e-05
-0.000130987 0.00130721 -3.34401e-06
-3.68568e-05 -3.34401e-06 0.00130416
0.000366243 -2.05928e-05 4.43523e-06
-2.05928e-05 -9.00957e-05 -8.5826e-06
4.43523e-06 -8.5826e-06 -0.00013443
0.00369914 0.000145848 8.45282e-05
0.000145848 0.00198375 -5.52695e-06
8.45282e-05 -5.52695e-06 0.00197361
0.000473959 -4.87598e-05 -1.10723e-06
-4.87598e-05 -3.39064e-05 3.11934e-07
-1.10723e-06 3.11934e-07 -9.11217e-05
0.00441221 0.000136129 -1.00279e-05
0.000136129 0.00242995 -1.11723e-06
-1.00279e-05 -1.11723e-06 0.00241952
0.000532146 -7.39659e-05 -1.38666e-05
-7.39659e-05 -9.42042e-06 1.32319e-05
-1.38666e-05 1.32319e-05 -8.28219e-05
0.0053136 0.000137716 -0.000181326
0.000137716 0.00298438 1.65926e-05
-0.000181326 1.65926e-05 0.00297097
0.00102323 0.000148162 -1.3077e-05
0.000148162 -5.56965e-05 -3.45356e-06
-1.3077e-05 -3.45356e-06 -0.000212372
0.00101173 8.79581e-05 -1.19953e-05
8.79581e-05 -6.43815e-05 -1.75647e-06
-1.19953e-05 -1.75647e-06 -0.000201649
0.00170117 0.000187353 -2.10118e-06
0.000187353 9.93184e-05 4.76494e-07
-2.10118e-06 4.76494e-07 -4.5801e-05
0.00162048 8.16076e-05 -3.54216e-08
8.16076e-05 5.88953e-05 4.22339e-07
-3.54216e-08 4.22339e-07 -5.93036e-05
0.000997565 3.04369e-05 -1.2082e-05
3.04369e-05 -5.88438e-05 -5.02168e-07
-1.2082e-05 -5.02168e-07 -0.000185791
0.000484056 2.90375e-05 -1.93449e-05
2.90375e-05 -0.000166717 -4.86832e-07
-1.93449e-05 -4.86832e-07 -0.000239178
0.000996974 6.66015e-07 -2.26758e-08
6.66015e-07 -5.09728e-05 -9.97729e-08
-2.26758e-08 -9.97729e-08 -0.00017676
0.00160732 4.07501e-05 -7.8371e-08
4.07501e-05 5.6467e-05 7.85649e-08
-7.8371e-08 7.85649e-08 -5.64663e-05
0.00167287 0.000132277 -6.23542e-08
0.000132277 8.10915e-05 1.34031e-07
-6.23542e-08 1.34031e-07 -4.7291e-05
0.00190401 0.000108777 -1.6044e-07
0.000108777 6.87932e-05 3.35321e-07
-1.6044e-07 3.35321e-07 -2.85988e-06
0.00170789 0.000243615 -3.56347e-07
0.000243615 0.000121718 -7.96951e-08
-3.56347e-07 -7.96951e-08 -4.39281e-05
0.00194237 0.000232348 -5.25198e-07
0.000232348 0.000125914 3.62349e-08
-5.25198e-07 3.62349e-08 8.47576e-06
0.00157653 -1.80057e-08 1.95759e-07
-1.80057e-08 4.21324e-05 2.95082e-08
1.95759e-07 2.95082e-08 -6.96027e-05
0.00192383 5.60413e-05 2.29365e-07
5.60413e-05 8.71006e-05 5.10971e-08
2.29365e-07 5.10971e-08 2.7553e-05
0.00192458 0.000170951 1.46191e-06
0.000170951 8.78475e-05 -9.64448e-07
1.46191e-06 -9.64448e-07 -5.33612e-06
0.00190997 0.000110168 6.53682e-06
0.000110168 2.11044e-05 6.5603e-07
6.53682e-06 6.5603e-07 -2.20421e-05
0.00199128 0.000300279 5.83836e-07
0.000300279 0.000187697 -1.57488e-06
5.83836e-07 -1.57488e-06 4.08853e-05
0.00186636 0.000248787 1.9216e-06
0.000248787 1.26953e-05 4.02568e-07
1.9216e-06 4.02568e-07 -7.76263e-05
0.000892499 -1.32239e-05 -1.22479e-05
-1.32239e-05 -0.000116983 6.2785e-07
-1.22479e-05 6.2785e-07 -0.00024121
0.00180328 -9.03754e-05 -2.59591e-05
-9.03754e-05 0.000433131 2.97181e-06
-2.59591e-05 2.97181e-06 0.000308468
0.00183799 -7.41433e-05 -2.7986e-06
-7.41433e-05 0.000205457 -1.831e-07
-2.7986e-06 -1.831e-07 9.23986e-05
0.00174957 -0.000190101 -3.084e-06
-0.000190101 0.000168941 7.30535e-07
-3.084e-06 7.30535e-07 1.8173e-05
0.000569976 -0.000169435 -2.2682e-05
-0.000169435 -1.32961e-05 1.74406e-05
-2.2682e-05 1.74406e-05 -0.000111854
0.000859595 -0.000216808 -1.03436e-05
-0.000216808 8.89714e-05 7.94502e-06
-1.03436e-05 7.94502e-06 -0.000106655
0.00117773 -0.000348922 -4.50833e-06
-0.000348922 9.92718e-05 2.48316e-06
-4.50833e-06 2.48316e-06 -0.000162655
0.00179658 -0.000280938 -6.36891e-06
-0.000280938 0.000249553 1.68131e-06
-6.36891e-06 1.68131e-06 6.38275e-05
0.00201627 -0.00028909 7.93856e-07
-0.00028909 0.000208112 -1.39694e-06
7.93856e-07 -1.39694e-06 7.47177e-05
0.00186777 -0.000374799 -4.24099e-07
-0.000374799 0.000212881 -1.05871e-06
-4.24099e-07 -1.05871e-06 1.83823e-05
0.00199871 -0.000474109 -3.06664e-06
-0.000474109 0.000395985 -2.05267e-06
-3.06664e-06 -2.05267e-06 0.000130294
0.00186682 -0.000428724 3.78154e-06
-0.000428724 0.000192062 -2.52624e-06
3.78154e-06 -2.52624e-06 -7.83787e-06
0.000787942 -0.000173953 -3.17997e-06
-0.000173953 0.000154874 6.05499e-06
-3.17997e-06 6.05499e-06 -5.09693e-05
0.000132946 -0.000117084 1.00271e-06
-0.000117084 -0.00021945 -1.00703e-06
1.00271e-06 -1.00703e-06 -0.00046498
0.000755736 -0.000115317 -7.61134e-07
-0.000115317 0.000151079 4.5169e-06
-7.61134e-07 4.5169e-06 -4.252e-06
0.00166632 -3.24956e-05 -9.85374e-07
-3.24956e-05 0.000103603 1.42007e-07
-9.85374e-07 1.42007e-07 -1.10151e-05
0.0018074 -0.000139211 -2.90602e-06
-0.000139211 0.000185458 4.77623e-07
-2.90602e-06 4.77623e-07 5.82149e-05
0.00188209 -0.000100051 2.65956e-06
-0.000100051 7.21986e-05 -3.26162e-07
2.65956e-06 -3.26162e-07 -6.66711e-06
0.00188082 -0.000225717 -2.02901e-06
-0.000225717 0.000106566 5.93286e-07
-2.02901e-06 5.93286e-07 -1.30281e-05
0.000773445 -0.0002206 6.21326e-07
-0.0002206 0.000101077 -4.28091e-07
6.21326e-07 -4.28091e-07 -0.000103118
0.00115314 -0.000322653 -1.56739e-06
-0.000322653 0.000170678 -2.67905e-07
-1.56739e-06 -2.67905e-07 -8.47648e-05
0.00159158 -0.000488209 1.91501e-06
-0.000488209 0.000264362 1.22849e-07
1.91501e-06 1.22849e-07 -4.80851e-05
0.00176135 -0.000331518 -1.4227e-06
-0.000331518 0.000103594 9.03952e-07
-1.4227e-06 9.03952e-07 -6.52052e-05
0.00198197 -0.000305498 1.69875e-06
-0.000305498 0.000146662 -5.35643e-07
1.69875e-06 -5.35643e-07 3.7403e-05
0.00194607 -0.000499343 -5.8906e-07
-0.000499343 0.000298583 4.31884e-07
-5.8906e-07 4.31884e-07 3.94402e-05
0.00188697 -0.000402209 1.61284e-08
-0.000402209 0.000163216 5.12608e-07
1.61284e-08 5.12608e-07 -6.65315e-06
0.00211773 -0.000449096 1.92131e-06
-0.000449096 0.000341238 -5.11894e-07
1.92131e-06 -5.11894e-07 0.000160676
0.00108851 -0.000261901 -1.13082e-07
-0.000261901 0.000281301 4.1257e-07
-1.13082e-07 4.1257e-07 4.49057e-05
0.0011642 -0.000279919 -7.17596e-07
-0.000279919 0.0003544 4.68268e-08
-7.17596e-07 4.68268e-08 8.82672e-05
0.000633894 -7.91314e-05 -1.18915e-07
-7.91314e-05 8.90322e-05 6.1153e-08
-1.18915e-07 6.1153e-08 -3.81839e-05
0.000168484 -7.32133e-05 1.55186e-07
-7.32133e-05 -0.000157062 -1.30259e-06
1.55186e-07 -1.30259e-06 -0.000388401
0.0018876 -5.21096e-05 8.70478e-07
-5.21096e-05 7.48777e-05 3.91811e-07
8.70478e-07 3.91811e-07 6.43994e-06
0.0017797 -0.000164043 1.14594e-06
-0.000164043 1.65851e-05 3.25914e-07
1.14594e-06 3.25914e-07 -8.34791e-05
0.00194312 -0.000104796 6.10387e-06
-0.000104796 6.88831e-05 -5.88187e-07
6.10387e-06 -5.88187e-07 2.3934e-05
0.0019235 -0.00025068 -1.04934e-06
-0.00025068 6.13025e-05 -2.5908e-07
-1.04934e-06 -2.5908e-07 -1.51337e-05
0.00177031 -0.000354463 -2.87616e-06
-0.000354463 5.26461e-05 1.25984e-06
-2.87616e-06 1.25984e-06 -8.60132e-05
0.00201897 -0.000318533 4.08248e-06
-0.000318533 0.000145163 -1.77238e-06
4.08248e-06 -1.77238e-06 5.4215e-05
0.00124698 -0.00030329 3.35402e-06
-0.00030329 0.000298041 -4.05079e-06
3.35402e-06 -4.05079e-06 5.90284e-05
0.00181608 -0.000415182 -4.27338e-06
-0.000415182 0.000109071 7.72995e-07
-4.27338e-06 7.72995e-07 -4.04668e-05
0.00154094 -0.000469986 2.73718e-06
-0.000469986 0.000359581 -1.73406e-06
2.73718e-06 -1.73406e-06 3.50607e-05
0.0018124 -0.000562638 -4.69223e-07
-0.000562638 0.000331286 1.71319e-06
-4.69223e-07 1.71319e-06 2.63409e-06
0.00189953 -0.00050783 1.28923e-06
-0.00050783 0.000223051 4.05776e-06
1.28923e-06 4.05776e-06 -2.84271e-05
0.00221114 -0.000461094 -2.40423e-06
-0.000461094 0.000379564 -1.04644e-06
-2.40423e-06 -1.04644e-06 0.000197227
0.000514365 -6.32292e-05 -3.21169e-07
-6.32292e-05 1.95863e-05 -4.55007e-06
-3.21169e-07 -4.55007e-06 -8.65597e-05
0.000368711 -9.25644e-05 -3.42416e-06
-9.25644e-05 -1.91649e-05 -4.85902e-07
-3.42416e-06 -4.85902e-07 -0.00022505
0.00140205 -0.000339192 -1.27132e-06
-0.000339192 0.000409701 4.2519e-07
-1.27132e-06 4.2519e-07 0.00015369
0.000984159 -0.000204671 -2.91647e-06
-0.000204671 0.00033788 3.73622e-06
-2.91647e-06 3.73622e-06 7.70099e-05
0.00210191 -0.000404048 -8.76727e-06
-0.000404048 0.000902481 2.2749e-06
-8.76727e-06 2.2749e-06 0.00060958
0.000381917 -5.86627e-05 -2.8098e-07
-5.86627e-05 -7.98735e-05 -7.14137e-06
-2.8098e-07 -7.14137e-06 -0.000117764
0.00165667 0.000286239 -3.8119e-06
0.000286239 0.000130934 -6.86871e-07
-3.8119e-06 -6.86871e-07 -5.73643e-05
0.000473269 -2.25991e-06 7.25745e-07
-2.25991e-06 -2.5421e-05 -5.90351e-06
7.25745e-07 -5.90351e-06 -0.000131473
0.000517454 0.00016588 -4.04858e-06
0.00016588 -4.80464e-07 -3.01902e-06
-4.04858e-06 -3.01902e-06 -0.000188407
0.000498702 0.000117836 2.12219e-06
0.000117836 3.38791e-05 5.26938e-07
2.12219e-06 5.26938e-07 -0.000193625
0.00150194 0.000347243 -4.79017e-06
0.000347243 0.000162056 -9.54251e-07
-4.79017e-06 -9.54251e-07 -6.93355e-05
0.00185398 0.000393791 2.07813e-07
0.000393791 0.000201478 1.19872e-06
2.07813e-07 1.19872e-06 -7.51497e-06
0.00109136 0.000274692 -4.31269e-06
0.000274692 0.000211446 -3.15136e-06
-4.31269e-06 -3.15136e-06 -2.45297e-05
0.00146825 0.000408975 6.11873e-07
0.000408975 0.000298206 -4.64127e-07
6.11873e-07 -4.64127e-07 -5.04027e-06
0.00178786 0.000453551 3.96388e-07
0.000453551 0.000316738 1.66615e-06
3.96388e-07 1.66615e-06 5.45847e-05
0.00178485 0.00046153 1.03826e-06
0.00046153 0.000317192 7.12953e-06
1.03826e-06 7.12953e-06 4.98165e-05
0.000493507 -3.91581e-05 1.07818e-07
-3.91581e-05 -3.11358e-05 6.4667e-08
1.07818e-07 6.4667e-08 -5.80438e-05
0.000606585 4.097e-06 -6.07435e-07
4.097e-06 5.48698e-05 4.91533e-07
-6.07435e-07 4.91533e-07 -3.1218e-05
0.00101038 0.000244184 5.88485e-07
0.000244184 0.000249506 6.92837e-07
5.88485e-07 6.92837e-07 2.52336e-05
0.00068348 6.14903e-05 -8.2306e-07
6.14903e-05 0.000155423 -2.7542e-07
-8.2306e-07 -2.7542e-07 -3.23087e-05
0.000651466 0.00017944 7.54503e-07
0.00017944 5.96311e-05 -1.16697e-07
7.54503e-07 -1.16697e-07 -0.000158676
0.00193778 0.000353851 -9.87493e-07
0.000353851 0.000189697 -1.37738e-06
-9.87493e-07 -1.37738e-06 1.1572e-05
0.00182437 0.000441137 5.61787e-07
0.000441137 0.000248038 1.63244e-07
5.61787e-07 1.63244e-07 6.97891e-06
0.00188342 0.000432467 1.62653e-06
0.000432467 0.000190438 2.69716e-07
1.62653e-06 2.69716e-07 -1.12796e-05
0.0013188 0.000362489 1.36137e-06
0.000362489 0.000304927 7.25782e-07
1.36137e-06 7.25782e-07 1.78192e-05
0.00197133 0.000523438 1.71407e-06
0.000523438 0.000346554 1.00362e-07
1.71407e-06 1.00362e-07 7.72048e-05
0.00164955 0.000464493 -2.30241e-06
0.000464493 0.000357552 -2.08883e-07
-2.30241e-06 -2.08883e-07 5.11642e-05
0.000676583 1.69633e-05 1.14763e-06
1.69633e-05 9.09371e-05 3.80295e-06
1.14763e-06 3.80295e-06 1.93512e-05
0.00115705 0.000123985 3.93128e-07
0.000123985 0.00043198 2.87037e-06
3.93128e-07 2.87037e-06 0.000285923
0.000840983 0.000272332 -2.31743e-06
0.000272332 6.97137e-05 -1.17076e-06
-2.31743e-06 -1.17076e-06 -0.000164434
0.00154463 0.000149407 -1.69456e-06
0.000149407 0.000692821 8.37902e-07
-1.69456e-06 8.37902e-07 0.000464902
0.00135557 0.000224118 -9.1421e-06
0.000224118 0.000429853 -5.50977e-06
-9.1421e-06 -5.50977e-06 0.000229638
0.00193476 0.000368143 -3.8113e-06
0.000368143 0.000163779 -2.77561e-06
-3.8113e-06 -2.77561e-06 3.05532e-06
0.00194067 0.000493272 -4.52372e-07
0.000493272 0.000274097 -7.08861e-08
-4.52372e-07 -7.08861e-08 3.33322e-05
0.00172066 0.000465975 4.54499e-06
0.000465975 5.65611e-05 -2.92351e-07
4.54499e-06 -2.92351e-07 -0.000146055
0.000612795 0.000341823 1.23921e-06
0.000341823 -9.80737e-05 -1.8532e-06
1.23921e-06 -1.8532e-06 -0.000405296
0.00143861 0.00048357 8.11454e-06
0.00048357 0.000133682 -7.50142e-07
8.11454e-06 -7.50142e-07 -0.000152507
0.000583477 1.54714e-05 -2.29291e-07
1.54714e-05 3.14589e-05 9.90179e-08
-2.29291e-07 9.90179e-08 -3.1387e-05
0.000476472 4.39719e-05 7.19393e-07
4.39719e-05 -1.11301e-05 1.90825e-06
7.19393e-07 1.90825e-06 -0.000109393
0.000472131 3.85449e-05 -6.25345e-07
3.85449e-05 -1.38459e-05 -2.10291e-07
-6.25345e-07 -2.10291e-07 -0.000107641
0.000937316 0.00012452 -7.49076e-07
0.00012452 0.000285909 -1.41242e-06
-7.49076e-07 -1.41242e-06 0.000166438
0.000665269 9.55547e-05 1.88523e-06
9.55547e-05 0.000118649 1.82941e-06
1.88523e-06 1.82941e-06 1.64986e-05
0.000557026 4.87026e-05 2.62161e-06
4.87026e-05 2.98491e-05 3.0066e-06
2.62161e-06 3.0066e-06 -2.98424e-05
0.00055424 4.5503e-06 -6.30413e-07
4.5503e-06 2.20509e-05 -1.26952e-08
-6.30413e-07 -1.26952e-08 -3.69784e-05
0.00123894 -3.22206e-05 7.8573e-07
-3.22206e-05 0.000415944 2.93803e-06
7.8573e-07 2.93803e-06 0.000401129
0.000567175 6.73307e-06 -1.48979e-06
6.73307e-06 2.20145e-05 -3.06803e-06
-1.48979e-06 -3.06803e-06 -3.63398e-05
0.00129961 -4.27225e-05 -6.59331e-06
-4.27225e-05 0.000455192 -1.47448e-06
-6.59331e-06 -1.47448e-06 0.000438776
0.000829434 -4.00726e-05 2.73639e-05
-4.00726e-05 0.000169553 8.2197e-06
2.73639e-05 8.2197e-06 0.000173321
0.00131938 -5.20111e-05 -1.09196e-05
-5.20111e-05 0.000472465 -4.58233e-06
-1.09196e-05 -4.58233e-06 0.000453385
0.00163242 -7.39657e-05 2.53861e-05
-7.39657e-05 0.000675792 1.67302e-06
2.53861e-05 1.67302e-06 0.000678653
0.00247464 -0.000110485 -3.26398e-05
-0.000110485 0.0012054 -3.81251e-06
-3.26398e-05 -3.81251e-06 0.00120783
0.000342354 7.79594e-05 -4.97457e-06
7.79594e-05 -8.44642e-05 -7.02574e-06
-4.97457e-06 -7.02574e-06 -0.000129644
0.000471628 -7.92737e-06 4.72298e-07
-7.92737e-06 -2.16978e-05 5.51831e-07
4.72298e-07 5.51831e-07 -7.05387e-05
0.00310005 0.000157761 1.90473e-05
0.000157761 0.00161191 -5.10527e-06
1.90473e-05 -5.10527e-06 0.00159895
0.0038387 0.000118743 -1.07687e-05
0.000118743 0.0020671 -8.15687e-07
-1.07687e-05 -8.15687e-07 0.00206318
0.000630523 -5.07338e-05 -1.00257e-05
-5.07338e-05 5.88158e-05 1.12605e-05
-1.00257e-05 1.12605e-05 5.86743e-07
0.00464549 0.00011463 -0.000157391
0.00011463 0.00256672 1.3563e-05
-0.000157391 1.3563e-05 0.00256088
0.00168176 0.000241599 -2.83658e-06
0.000241599 0.000108782 2.64182e-07
-2.83658e-06 2.64182e-07 -5.69616e-05
0.00166181 0.000132683 -6.78526e-07
0.000132683 7.41128e-05 5.83408e-07
-6.78526e-07 5.83408e-07 -5.48252e-05
0.001902 0.000230353 -1.57959e-06
0.000230353 0.000102797 1.6243e-06
-1.57959e-06 1.6243e-06 -1.46152e-05
0.00194801 0.000107619 -1.11743e-06
0.000107619 9.23627e-05 1.06967e-06
-1.11743e-06 1.06967e-06 2.42072e-05
0.00160375 4.2843e-05 -3.377e-08
4.2843e-05 5.76644e-05 2.08881e-07
-3.377e-08 2.08881e-07 -5.53955e-05
0.0010048 5.42265e-06 -1.18998e-05
5.42265e-06 -4.70828e-05 -9.11715e-08
-1.18998e-05 -9.11715e-08 -0.000172828
0.00159576 3.56131e-06 5.37216e-08
3.56131e-06 5.63566e-05 1.33773e-07
5.37216e-08 1.33773e-07 -5.53447e-05
0.00190242 4.71058e-05 -1.03847e-06
4.71058e-05 7.42739e-05 -1.59743e-09
-1.03847e-06 -1.59743e-09 1.46314e-05
0.0019183 0.000168392 -5.58504e-07
0.000168392 8.74678e-05 1.13851e-07
-5.58504e-07 1.13851e-07 -5.22608e-06
0.00192694 0.000108952 1.29767e-06
0.000108952 2.62797e-05 2.27285e-07
1.29767e-06 2.27285e-07 -1.19274e-05
0.00195623 0.000300559 -3.67272e-07
0.000300559 0.000160078 -1.69511e-07
-3.67272e-07 -1.69511e-07 1.27461e-05
0.00189869 0.000245417 -1.78592e-07
0.000245417 3.16465e-05 6.05505e-07
-1.78592e-07 6.05505e-07 -5.37051e-05
0.00194487 -3.78413e-06 9.34966e-07
-3.78413e-06 0.000107849 2.08353e-07
9.34966e-07 2.08353e-07 4.78651e-05
0.00189139 4.96805e-05 6.39813e-06
4.96805e-05 1.69389e-05 1.24514e-07
6.39813e-06 1.24514e-07 -1.41375e-05
0.00188514 0.000171902 2.7592e-06
0.000171902 1.80892e-06 3.32468e-07
2.7592e-06 3.32468e-07 -5.16793e-05
0.00198347 0.000108881 5.26146e-06
0.000108881 3.65501e-05 6.1385e-07
5.26146e-06 6.1385e-07 1.93171e-05
0.00186222 0.000295272 1.02175e-06
0.000295272 6.40681e-05 -1.5614e-06
1.02175e-06 -1.5614e-06 -5.72543e-05
0.0020566 0.000252738 3.90734e-06
0.000252738 8.49907e-05 1.26836e-06
3.90734e-06 1.26836e-06 2.19874e-05
0.00164034 -2.95494e-05 -1.45596e-06
-2.95494e-05 8.71175e-05 -5.17643e-08
-1.45596e-06 -5.17643e-08 -2.594e-05
0.00180576 -0.000144971 -4.20805e-06
-0.000144971 0.000182355 2.51392e-07
-4.20805e-06 2.51392e-07 5.40687e-05
0.0019282 -9.96743e-05 1.07906e-06
-9.96743e-05 9.89544e-05 -1.34401e-06
1.07906e-06 -1.34401e-06 2.58292e-05
0.00189137 -0.00022215 -1.36219e-06
-0.00022215 0.000114553 -1.99119e-08
-1.36219e-06 -1.99119e-08 -7.03355e-06
0.000844871 -0.000230348 -7.34004e-06
-0.000230348 0.000146553 7.61338e-06
-7.34004e-06 7.61338e-06 -6.02849e-05
0.00110256 -0.000322246 -6.87057e-06
-0.000322246 0.00013109 4.24227e-06
-6.87057e-06 4.24227e-06 -0.000124959
0.0014561 -0.00046816 1.08335e-06
-0.00046816 0.000197345 -1.6917e-07
1.08335e-06 -1.6917e-07 -0.000112647
0.00177737 -0.000330968 -9.58421e-07
-0.000330968 0.000116917 3.98523e-08
-9.58421e-07 3.98523e-08 -5.68113e-05
0.00191607 -0.000303014 1.01632e-06
-0.000303014 0.000100695 -6.74282e-07
1.01632e-06 -6.74282e-07 -4.86776e-06
0.00190783 -0.000401959 2.26645e-06
-0.000401959 0.00017875 -6.18417e-07
2.26645e-06 -6.18417e-07 8.92074e-06
0.0018668 -0.000502693 -2.83653e-07
-0.000502693 0.000241729 -2.23026e-06
-2.83653e-07 -2.23026e-06 -2.07467e-05
0.00206986 -0.000440685 6.84032e-06
-0.000440685 0.000307286 -5.10287e-06
6.84032e-06 -5.10287e-06 0.000131274
0.000787714 -0.000234468 -4.72612e-07
-0.000234468 0.000100951 1.40165e-06
-4.72612e-07 1.40165e-06 -0.00013413
2.26272e-05 -0.000156225 8.66259e-07
-0.000156225 -0.000353467 1.13212e-06
8.66259e-07 1.13212e-06 -0.000600253
0.000748726 -9.18294e-05 -7.97318e-07
-9.18294e-05 0.000155332 3.92183e-06
-7.97318e-07 3.92183e-06 2.58051e-05
9.80053e-05 -4.41834e-05 3.03173e-06
-4.41834e-05 -0.000214629 -3.38755e-06
3.03173e-06 -3.38755e-06 -0.000426556
0.00187691 -5.16462e-05 8.0517e-08
-5.16462e-05 6.91523e-05 2.59667e-07
8.0517e-08 2.59667e-07 5.88562e-07
0.00184733 -0.000165613 1.86102e-06
-0.000165613 6.28347e-05 -6.7093e-07
1.86102e-06 -6.7093e-07 -3.85085e-05
0.00194683 -0.000105246 1.78523e-06
-0.000105246 7.03392e-05 -5.41317e-07
1.78523e-06 -5.41317e-07 2.64607e-05
0.00189938 -0.000247339 -1.90514e-06
-0.000247339 5.30496e-05 4.12683e-07
-1.90514e-06 4.12683e-07 -2.70332e-05
0.00103869 -0.000277116 -1.42139e-06
-0.000277116 0.000168518 5.87583e-07
-1.42139e-06 5.87583e-07 -6.52928e-05
0.00132269 -0.000439439 2.09175e-06
-0.000439439 0.000237223 -1.03168e-06
2.09175e-06 -1.03168e-06 -8.02078e-05
0.00174467 -0.000563487 -1.31677e-07
-0.000563487 0.000284765 3.60233e-07
-1.31677e-07 3.60233e-07 -4.75841e-05
0.00179334 -0.000353279 -1.48397e-06
-0.000353279 7.62179e-05 8.00048e-07
-1.48397e-06 8.00048e-07 -6.59566e-05
0.00195643 -0.000317727 1.30964e-06
-0.000317727 0.000109879 -7.26962e-07
1.30964e-06 -7.26962e-07 2.04561e-05
0.0018844 -0.000510572 -4.76217e-08
-0.000510572 0.000229027 4.96003e-07
-4.76217e-08 4.96003e-07 -2.46224e-05
0.00180759 -0.000416262 -8.77685e-07
-0.000416262 9.41933e-05 1.11072e-06
-8.77685e-07 1.11072e-06 -5.61701e-05
0.00207102 -0.000447665 4.02853e-06
-0.000447665 0.0002889 -5.58803e-06
4.02853e-06 -5.58803e-06 0.000113198
0.00110256 -0.000308155 4.53072e-07
-0.000308155 0.000223311 1.26395e-06
4.53072e-07 1.26395e-06 -2.66886e-05
0.0014402 -0.000331975 4.42249e-06
-0.000331975 0.000486387 1.18254e-06
4.42249e-06 1.18254e-06 0.000210787
0.000873817 -0.000178729 -1.61963e-07
-0.000178729 0.000267673 -6.51195e-09
-1.61963e-07 -6.51195e-09 6.71156e-06
0.000387663 -3.68855e-05 -2.09085e-06
-3.68855e-05 -5.95865e-05 5.52749e-07
-2.09085e-06 5.52749e-07 -0.000166054
0.000175141 -4.38734e-05 -4.23674e-07
-4.38734e-05 -0.000146003 -6.98174e-07
-4.23674e-07 -6.98174e-07 -0.000339018
0.00190739 -5.74018e-05 5.53639e-06
-5.74018e-05 2.77967e-05 -1.09521e-07
5.53639e-06 -1.09521e-07 3.46001e-07
0.00192017 -0.000155183 4.69448e-06
-0.000155183 4.31736e-05 -1.0273e-06
4.69448e-06 -1.0273e-06 -1.79978e-06
0.0019688 -0.000293457 2.18293e-06
-0.000293457 3.79733e-05 -1.24757e-06
2.18293e-06 -1.24757e-06 -1.735e-05
0.00188977 -0.00036102 5.31837e-07
-0.00036102 8.95732e-05 -1.85437e-06
5.31837e-07 -1.85437e-06 -1.46076e-05
0.00167065 -0.000402259 -3.0612e-07
-0.000402259 0.00053687 -3.77953e-06
-3.0612e-07 -3.77953e-06 0.000246981
0.00211727 -0.000499561 -8.90602e-07
-0.000499561 0.000203572 -2.56676e-06
-8.90602e-07 -2.56676e-06 4.01973e-05
0.00124337 -0.000515716 -1.02423e-06
-0.000515716 0.000159689 8.47235e-07
-1.02423e-06 8.47235e-07 -0.000196544
0.00190302 -0.000626607 1.23167e-06
-0.000626607 0.000336023 2.43739e-07
1.23167e-06 2.43739e-07 -1.16628e-05
0.00187058 -0.000496094 -3.13215e-06
-0.000496094 0.000205129 2.5674e-06
-3.13215e-06 2.5674e-06 -3.97182e-05
6.83061e-05 -3.42354e-06 -1.20469e-06
-3.42354e-06 -0.000252954 -4.50025e-06
-1.20469e-06 -4.50025e-06 -0.000338676
0.000696686 -9.5022e-05 -1.50713e-06
-9.5022e-05 0.000183536 5.45811e-07
-1.50713e-06 5.45811e-07 1.05883e-05
0.00103851 -0.00013236 -2.39067e-06
-0.00013236 0.000384144 -1.17548e-06
-2.39067e-06 -1.17548e-06 0.000159461
0.00210796 -0.000438955 -8.99104e-06
-0.000438955 0.00082364 -1.02416e-07
-8.99104e-06 -1.02416e-07 0.000529337
0.000565613 -0.000164196 1.73773e-06
-0.000164196 4.28816e-05 5.10832e-06
1.73773e-06 5.10832e-06 -0.000232127
0.00136532 -0.000357122 -2.9345e-06
-0.000357122 0.000401888 3.02077e-06
-2.9345e-06 3.02077e-06 0.00010866
0.000482454 -4.31647e-05 -6.73408e-07
-4.31647e-05 -3.73285e-05 -5.9853e-06
-6.73408e-07 -5.9853e-06 -6.45529e-05
0.000555443 -6.48457e-07 -6.32247e-07
-6.48457e-07 2.76701e-05 -4.68433e-06
-6.32247e-07 -4.68433e-06 -5.84472e-05
0.00191113 0.00035317 -2.15067e-06
0.00035317 0.000172777 -3.247e-07
-2.15067e-06 -3.247e-07 -5.55398e-06
-8.10645e-05 -3.4008e-05 1.85856e-06
-3.4008e-05 -0.000309996 -2.58445e-06
1.85856e-06 -2.58445e-06 -0.000489275
0.0010026 0.000243014 -1.69818e-06
0.000243014 0.000250226 -9.10821e-08
-1.69818e-06 -9.10821e-08 2.82242e-05
5.0195e-05 0.000108053 3.39078e-06
0.000108053 -0.000325991 5.69875e-07
3.39078e-06 5.69875e-07 -0.000524375
0.00178626 0.000437955 6.29141e-07
0.000437955 0.000225653 9.17351e-07
6.29141e-07 9.17351e-07 -1.4998e-05
0.00181784 0.000428889 1.7015e-06
0.000428889 0.000154528 7.41151e-07
1.7015e-06 7.41151e-07 -4.72695e-05
0.00168687 0.000395423 7.33501e-07
0.000395423 0.000542995 2.17938e-07
7.33501e-07 2.17938e-07 0.000248544
0.00214684 0.00050882 -1.88068e-06
0.00050882 0.000659451 9.89964e-07
-1.88068e-06 9.89964e-07 0.000349001
0.00181612 0.000507342 -4.46598e-07
0.000507342 0.000237293 1.37914e-06
-4.46598e-07 1.37914e-06 -3.08078e-05
0.000586516 1.75019e-05 -4.474e-07
1.75019e-05 3.73974e-05 4.79654e-07
-4.474e-07 4.79654e-07 -3.37695e-05
0.000727778 4.36633e-05 -9.06153e-07
4.36633e-05 0.000165374 3.56987e-07
-9.06153e-07 3.56987e-07 3.1404e-05
0.00117618 0.000307322 -1.6893e-07
0.000307322 0.000275879 4.08491e-08
-1.6893e-07 4.08491e-08 3.4075e-05
0.000895431 9.50898e-05 4.80153e-07
9.50898e-05 0.000286826 6.25047e-07
4.80153e-07 6.25047e-07 7.20974e-05
0.000799901 0.000213839 4.33952e-06
0.000213839 0.000110289 8.49614e-07
4.33952e-06 8.49614e-07 -9.35736e-05
0.00189182 0.00036867 -2.27573e-06
0.00036867 0.000139534 -1.66548e-06
-2.27573e-06 -1.66548e-06 -2.20989e-05
0.00192289 0.00049054 1.75117e-06
0.00049054 0.000263501 5.82479e-07
1.75117e-06 5.82479e-07 2.3099e-05
0.00180819 0.000465925 3.88012e-07
0.000465925 0.000110414 -1.65459e-07
3.88012e-07 -1.65459e-07 -9.08599e-05
0.00111146 0.000405462 2.49038e-06
0.000405462 0.000186762 2.54667e-06
2.49038e-06 2.54667e-06 -0.000129122
0.00168944 0.000510021 -2.72599e-06
0.000510021 0.000296688 -1.86017e-06
-2.72599e-06 -1.86017e-06 3.16389e-06
0.00085317 6.63013e-05 3.32972e-08
6.63013e-05 0.000234202 2.37019e-06
3.32972e-08 2.37019e-06 0.000119213
0.000125643 4.58365e-06 -2.25151e-06
4.58365e-06 -0.000173817 1.59565e-06
-2.25151e-06 1.59565e-06 -0.000339017
0.00110343 0.000327286 -5.12304e-06
0.000327286 0.000196837 -3.89362e-06
-5.12304e-06 -3.89362e-06 -5.71574e-05
0.000487686 0.000183617 -8.05043e-06
0.000183617 4.48499e-05 -2.9841e-06
-8.05043e-06 -2.9841e-06 -0.000180624
0.00095671 0.000276635 -3.83197e-06
0.000276635 0.00015318 -3.7447e-06
-3.83197e-06 -3.7447e-06 -5.62212e-05
0.0018416 0.00039926 -1.42194e-07
0.00039926 3.97742e-05 -1.44951e-06
-1.42194e-07 -1.44951e-06 -0.000104036
0.00202726 0.000542625 4.20917e-06
0.000542625 0.000303637 -1.66681e-06
4.20917e-06 -1.66681e-06 4.45439e-05
0.00172392 0.000485571 3.3851e-06
0.000485571 4.73277e-05 6.56928e-07
3.3851e-06 6.56928e-07 -0.000165066
0.00101084 0.00041152 4.337e-06
0.00041152 8.9671e-05 3.53023e-06
4.337e-06 3.53023e-06 -0.000231708
0.00186568 0.000566622 -1.92003e-06
0.000566622 0.000406889 -7.74793e-07
-1.92003e-06 -7.74793e-07 9.53961e-05
0.00055465 6.54067e-06 -1.60844e-06
6.54067e-06 1.31878e-05 -3.31304e-06
-1.60844e-06 -3.31304e-06 -4.91235e-05
0.000561284 4.98365e-05 1.22549e-06
4.98365e-05 4.27409e-05 4.15972e-07
1.22549e-06 4.15972e-07 -5.65583e-05
0.000422961 3.59858e-05 -6.81861e-07
3.59858e-05 -4.96948e-05 7.55049e-07
-6.81861e-07 7.55049e-07 -0.000147451
0.000321449 -2.14252e-05 -3.51919e-07
-2.14252e-05 -0.000101852 -1.81698e-06
-3.51919e-07 -1.81698e-06 -0.000196498
0.000618089 5.25489e-05 -3.19265e-07
5.25489e-05 8.92531e-05 2.00917e-08
-3.19265e-07 2.00917e-08 -1.09651e-05
0.000634148 7.49771e-05 -7.32555e-07
7.49771e-05 8.83222e-05 -1.84461e-07
-7.32555e-07 -1.84461e-07 -1.72253e-05
0.000757052 0.00011029 -2.95481e-06
0.00011029 0.000175397 -3.84191e-06
-2.95481e-06 -3.84191e-06 6.45049e-05
0.000375183 2.55496e-06 2.89216e-07
2.55496e-06 -5.08172e-05 -4.77084e-07
2.89216e-07 -4.77084e-07 -0.000168791
0.000673569 8.34843e-05 9.67112e-07
8.34843e-05 0.000117946 2.2737e-06
9.67112e-07 2.2737e-06 2.31361e-05
0.000585673 5.7197e-05 3.1494e-06
5.7197e-05 5.13044e-05 3.0247e-06
3.1494e-06 3.0247e-06 -1.05971e-05
0.000553464 1.38955e-05 -1.96593e-06
1.38955e-05 2.61524e-05 -6.36006e-09
-1.96593e-06 -6.36006e-09 -3.27149e-05
0.00123097 -1.83683e-05 1.08913e-06
-1.83683e-05 0.000412473 2.75825e-06
1.08913e-06 2.75825e-06 0.000398787
0.000489608 -5.58161e-05 1.08364e-06
-5.58161e-05 -1.2228e-05 -3.00197e-06
1.08364e-06 -3.00197e-06 -7.42437e-05
0.00128904 -2.81905e-05 -5.78609e-06
-2.81905e-05 0.000446396 -1.52396e-06
-5.78609e-06 -1.52396e-06 0.000432202
0.000802277 -3.06618e-05 2.36363e-05
-3.06618e-05 0.00014885 8.51055e-06
2.36363e-05 8.51055e-06 0.000154502
0.00133422 -3.99173e-05 -9.89328e-06
-3.99173e-05 0.000476113 -6.15327e-06
-9.89328e-06 -6.15327e-06 0.000460175
0.000778449 -4.23377e-05 8.87264e-06
-4.23377e-05 0.000137723 3.17593e-06
8.87264e-06 3.17593e-06 0.000140293
0.00237896 -0.000103709 -3.19995e-06
-0.000103709 0.00113851 -2.36916e-06
-3.19995e-06 -2.36916e-06 0.00114213
0.000394237 5.41395e-05 -2.3502e-06
5.41395e-05 -7.3519e-05 -4.38007e-06
-2.3502e-06 -4.38007e-06 -0.000101533
0.000440533 2.9012e-05 -2.81181e-06
2.9012e-05 -3.80685e-05 8.88181e-09
-2.81181e-06 8.88181e-09 -7.61939e-05
0.00266703 0.000125702 1.80556e-05
0.000125702 0.00133726 -4.31762e-06
1.80556e-05 -4.31762e-06 0.00133336
0.000598378 -3.35842e-05 -7.46555e-06
-3.35842e-05 4.80091e-05 9.05281e-06
-7.46555e-06 9.05281e-06 1.70666e-06
0.00329672 0.00013068 -2.9709e-05
0.00013068 0.00172767 -7.38447e-07
-2.9709e-05 -7.38447e-07 0.00172175
0.0039908 9.65984e-05 -0.000133976
9.65984e-05 0.00215601 1.05146e-05
-0.000133976 1.05146e-05 0.0021568
0.00192077 0.000300656 -2.34808e-06
0.000300656 0.000132548 1.06589e-06
-2.34808e-06 1.06589e-06 -1.52583e-05
0.00191238 0.000164775 -5.06825e-07
0.000164775 8.82119e-05 1.57459e-06
-5.06825e-07 1.57459e-06 -3.82134e-06
0.0019433 0.000242166 -9.32634e-07
0.000242166 5.79996e-05 1.74786e-06
-9.32634e-07 1.74786e-06 -2.23085e-05
0.00194919 0.000108042 -3.43319e-06
0.000108042 3.50444e-05 -1.60581e-07
-3.43319e-06 -1.60581e-07 1.78802e-06
0.00187716 4.01396e-05 -2.5453e-06
4.01396e-05 5.91841e-05 1.91934e-07
-2.5453e-06 1.91934e-07 -8.22737e-07
0.00161489 6.42106e-06 8.46245e-08
6.42106e-06 6.90451e-05 2.39502e-07
8.46245e-08 2.39502e-07 -4.258e-05
0.00188687 -3.34206e-06 -8.22188e-07
-3.34206e-06 7.31839e-05 8.32622e-08
-8.22188e-07 8.32622e-08 1.10103e-05
0.00190191 4.86068e-05 1.48867e-06
4.86068e-05 2.72719e-05 -2.2795e-08
1.48867e-06 -2.2795e-08 -6.11594e-06
0.00194863 0.000172523 -1.11172e-07
0.000172523 4.37197e-05 4.45956e-08
-1.11172e-07 4.45956e-08 -1.16539e-05
0.00196106 0.000109909 9.67881e-07
0.000109909 1.89832e-05 3.04599e-07
9.67881e-07 3.04599e-07 4.79369e-06
0.0018908 0.000294007 -7.73087e-07
0.000294007 9.03658e-05 -3.56632e-07
-7.73087e-07 -3.56632e-07 -3.04731e-05
0.00201597 0.000255797 3.25617e-06
0.000255797 5.75833e-05 7.77501e-07
3.25617e-06 7.77501e-07 -9.3534e-07
0.00191862 -8.48083e-06 6.06e-06
-8.48083e-06 4.4319e-05 2.47559e-07
6.06e-06 2.47559e-07 1.19676e-05
0.00194476 5.14474e-05 3.88007e-06
5.14474e-05 7.85694e-06 1.799e-08
3.88007e-06 1.799e-08 2.06477e-07
0.00201127 0.000174165 2.68557e-06
0.000174165 1.95555e-05 7.27922e-07
2.68557e-06 7.27922e-07 6.91794e-07
0.00203054 0.000331717 -2.29256e-07
0.000331717 7.81168e-05 4.79232e-07
-2.29256e-07 4.79232e-07 -4.78426e-06
0.00185851 -5.10708e-05 -1.54149e-06
-5.10708e-05 5.77073e-05 1.33613e-07
-1.54149e-06 1.33613e-07 -1.10206e-05
0.0018984 -0.000167938 1.79031e-06
-0.000167938 9.86859e-05 -1.26977e-06
1.79031e-06 -1.26977e-06 -4.18127e-06
0.00192934 -0.000105117 -2.51468e-06
-0.000105117 5.88217e-05 -2.14586e-07
-2.51468e-06 -2.14586e-07 1.56902e-05
0.00188091 -0.000243875 -4.12798e-06
-0.000243875 4.7171e-05 1.55626e-06
-4.12798e-06 1.55626e-06 -3.64603e-05
0.00095998 -0.000269751 -4.05798e-06
-0.000269751 0.000118542 4.53152e-06
-4.05798e-06 4.53152e-06 -0.000115296
0.00110132 -0.000408438 -4.81208e-07
-0.000408438 0.000111539 2.67566e-07
-4.81208e-07 2.67566e-07 -0.000198026
0.00171177 -0.000568982 1.37294e-06
-0.000568982 0.000260452 -1.1144e-06
1.37294e-06 -1.1144e-06 -7.69294e-05
0.00182918 -0.000352978 -1.04805e-06
-0.000352978 0.000107807 2.50018e-07
-1.04805e-06 2.50018e-07 -3.80156e-05
0.00187836 -0.000316481 -1.83666e-07
-0.000316481 6.5158e-05 1.2532e-06
-1.83666e-07 1.2532e-06 -2.27262e-05
0.00180496 -0.000418258 2.69035e-06
-0.000418258 8.09896e-05 1.32638e-06
2.69035e-06 1.32638e-06 -7.02958e-05
0.00185735 -0.000508216 -1.16829e-06
-0.000508216 0.00022533 -2.22752e-06
-1.16829e-06 -2.22752e-06 -2.88686e-05
0.00191993 -0.0004337 4.62526e-06
-0.0004337 0.000184328 -8.22386e-06
4.62526e-06 -8.22386e-06 1.55673e-05
0.000939763 -0.000292061 2.23531e-06
-0.000292061 0.000122289 1.90918e-06
2.23531e-06 1.90918e-06 -0.000125201
0.000661342 -0.000248255 4.40454e-06
-0.000248255 -1.41483e-05 7.37627e-07
4.40454e-06 7.37627e-07 -0.000264642
0.000606218 -0.000150697 3.89115e-06
-0.000150697 0.000105925 -4.80919e-06
3.89115e-06 -4.80919e-06 -0.000157437
0.000199155 -1.74543e-05 -2.76589e-07
-1.74543e-05 -0.000175701 3.78117e-06
-2.76589e-07 3.78117e-06 -0.000283702
0.000192164 -8.5587e-07 3.30352e-06
-8.5587e-07 -0.000140365 -3.38296e-07
3.30352e-06 -3.38296e-07 -0.000326063
0.0019116 -6.51445e-05 -2.57904e-07
-6.51445e-05 2.75358e-05 -1.18911e-07
-2.57904e-07 -1.18911e-07 -1.48963e-06
0.00190889 -0.000154433 1.23565e-06
-0.000154433 3.48078e-05 -2.4114e-07
1.23565e-06 -2.4114e-07 -1.12349e-05
0.00197247 -0.000288211 -1.10141e-06
-0.000288211 5.46121e-05 6.62726e-08
-1.10141e-06 6.62726e-08 -4.10603e-06
0.00129298 -0.000365743 -1.73487e-06
-0.000365743 0.000299114 -2.5832e-07
-1.73487e-06 -2.5832e-07 1.64722e-05
0.00130348 -0.000509182 2.83999e-06
-0.000509182 0.000197527 -9.29845e-07
2.83999e-06 -9.29845e-07 -0.000154681
0.00179808 -0.000618836 2.14557e-08
-0.000618836 0.000281532 -3.69951e-07
2.14557e-08 -3.69951e-07 -6.83705e-05
0.0018703 -0.000359029 4.11644e-07
-0.000359029 7.52251e-05 1.00619e-07
4.11644e-07 1.00619e-07 -2.977e-05
0.00198863 -0.000512283 9.13301e-07
-0.000512283 0.000265406 -3.16914e-06
9.13301e-07 -3.16914e-06 2.44472e-05
0.00200757 -0.000483619 -7.41256e-07
-0.000483619 0.000166107 -6.89911e-07
-7.41256e-07 -6.89911e-07 5.24411e-06
0.000202582 4.51872e-05 -1.27587e-06
4.51872e-05 -0.000178435 -8.03813e-07
-1.27587e-06 -8.03813e-07 -0.000258344
0.00114607 -0.000338195 1.54291e-07
-0.000338195 0.000220331 5.54983e-07
1.54291e-07 5.54983e-07 -5.08249e-05
0.00118625 -0.00033697 4.87917e-07
-0.00033697 0.000296172 2.07923e-06
4.87917e-07 2.07923e-06 1.74837e-05
0.00116315 -0.000240696 -2.58753e-07
-0.000240696 0.000423089 3.34883e-07
-2.58753e-07 3.34883e-07 0.00012779
0.00122265 -0.000138925 8.40876e-07
-0.000138925 0.000495656 -2.65481e-06
8.40876e-07 -2.65481e-06 0.000272278
0.000478924 -2.57804e-05 -6.89827e-07
-2.57804e-05 4.01676e-05 1.29329e-06
-6.89827e-07 1.29329e-06 -0.000126363
0.0019412 -7.92802e-05 3.99315e-06
-7.92802e-05 1.56897e-05 -2.70838e-07
3.99315e-06 -2.70838e-07 7.56891e-06
0.00205829 -0.000201045 1.7743e-06
-0.000201045 2.4621e-05 -6.73042e-07
1.7743e-06 -6.73042e-07 1.78031e-05
0.00205555 -0.000349882 1.52864e-06
-0.000349882 6.59866e-05 -1.41818e-06
1.52864e-06 -1.41818e-06 2.82247e-05
0.0021072 -0.000435841 1.76072e-06
-0.000435841 0.000124669 -2.43176e-06
1.76072e-06 -2.43176e-06 2.90877e-05
0.00180925 -0.000480127 -4.72389e-06
-0.000480127 0.000589195 -3.21652e-06
-4.72389e-06 -3.21652e-06 0.000258193
0.00197575 -0.000547733 3.90338e-06
-0.000547733 0.000187884 3.37537e-07
3.90338e-06 3.37537e-07 -2.16619e-05
0.00152434 -0.000601897 -7.36185e-06
-0.000601897 0.000288453 1.3855e-06
-7.36185e-06 1.3855e-06 -0.000105429
0.00213677 -0.000676467 -7.00292e-06
-0.000676467 0.000488022 1.099e-06
-7.00292e-06 1.099e-06 0.000116332
0.000171858 5.87213e-05 -3.4197e-06
5.87213e-05 -0.000202052 -1.62238e-06
-3.4197e-06 -1.62238e-06 -0.000264084
0.000656573 6.98012e-06 -1.57251e-06
6.98012e-06 0.000139395 -1.26179e-08
-1.57251e-06 -1.26179e-08 9.35979e-06
0.00118128 -0.000160681 -4.41733e-06
-0.000160681 0.000485178 2.52139e-06
-4.41733e-06 2.52139e-06 0.00028692
0.000932707 -5.42659e-05 -2.99737e-06
-5.42659e-05 0.000284161 1.71267e-06
-2.99737e-06 1.71267e-06 3.37441e-05
0.00141782 -0.000415533 -2.15531e-06
-0.000415533 0.000370391 -1.74796e-06
-2.15531e-06 -1.74796e-06 5.29659e-05
0.00150748 -0.000361483 -1.22218e-05
-0.000361483 0.000547476 1.12776e-05
-1.22218e-05 1.12776e-05 0.000196299
0.000481165 9.48237e-06 -1.66817e-06
9.48237e-06 -2.65331e-05 -3.54058e-06
-1.66817e-06 -3.54058e-06 -9.656e-05
0.000358959 -4.98675e-06 1.81696e-06
-4.98675e-06 -7.46536e-05 -2.11433e-06
1.81696e-06 -2.11433e-06 -0.000191418
0.00185499 0.000370217 -1.99924e-06
0.000370217 0.000117117 -7.13335e-07
-1.99924e-06 -7.13335e-07 -4.56276e-05
0.000185288 3.84008e-05 1.34744e-06
3.84008e-05 -0.000158574 -6.67243e-08
1.34744e-06 -6.67243e-08 -0.000355974
0.00144642 0.000334949 1.10891e-06
0.000334949 0.000440488 7.23016e-07
1.10891e-06 7.23016e-07 0.000193993
-0.000141214 0.00010326 5.95484e-06
0.00010326 -0.000479621 1.60028e-06
5.95484e-06 1.60028e-06 -0.000652883
0.00190763 0.000488456 1.44786e-06
0.000488456 0.000252376 7.10367e-07
1.44786e-06 7.10367e-07 1.21774e-05
0.00192547 0.000468379 -3.83173e-06
0.000468379 0.000178728 5.45158e-07
-3.83173e-06 5.45158e-07 -2.16835e-05
0.00158015 0.000465112 -2.79024e-07
0.000465112 0.000457797 2.6913e-06
-2.79024e-07 2.6913e-06 0.000132308
0.00200655 0.000542519 -2.94213e-06
0.000542519 0.000500617 2.25053e-07
-2.94213e-06 2.25053e-07 0.000197602
0.00068065 3.45649e-05 -9.71345e-07
3.45649e-05 0.000123445 1.81387e-07
-9.71345e-07 1.81387e-07 1.51836e-05
0.00041367 4.97721e-05 8.39995e-07
4.97721e-05 4.70034e-06 3.8433e-07
8.39995e-07 3.8433e-07 -0.000169895
0.00153456 0.000371783 -1.47881e-06
0.000371783 0.000464336 -1.49047e-06
-1.47881e-06 -1.49047e-06 0.000200158
0.000381805 8.11931e-05 -1.56313e-06
8.11931e-05 -6.22157e-05 -4.55978e-08
-1.56313e-06 -4.55978e-08 -0.000248976
0.000693808 0.00024191 7.45794e-07
0.00024191 -1.83977e-05 -1.41522e-06
7.45794e-07 -1.41522e-06 -0.000210673
0.00203369 0.000412471 -2.9453e-06
0.000412471 0.000146253 -1.20907e-06
-2.9453e-06 -1.20907e-06 4.57012e-06
0.00213728 0.00054276 2.35877e-06
0.00054276 0.000372714 -2.78609e-07
2.35877e-06 -2.78609e-07 0.000118332
0.0019362 0.000508581 2.60319e-06
0.000508581 0.000161703 2.76156e-06
2.60319e-06 2.76156e-06 -5.57508e-05
0.00119352 0.000432436 4.2524e-06
0.000432436 0.000208929 2.82343e-06
4.2524e-06 2.82343e-06 -0.000118188
0.00172921 0.000567859 -4.28842e-06
0.000567859 0.000325924 -5.88532e-08
-4.28842e-06 -5.88532e-08 6.41325e-06
-9.86301e-05 2.934e-06 -1.55566e-06
2.934e-06 -0.000345134 3.02202e-06
-1.55566e-06 3.02202e-06 -0.00045393
-0.000149181 0.000118725 1.2064e-06
0.000118725 -0.000289004 1.7025e-06
1.2064e-06 1.7025e-06 -0.000510745
0.000871876 0.000314338 -5.5895e-08
0.000314338 5.35311e-05 -8.27102e-08
-5.5895e-08 -8.27102e-08 -0.000210219
-0.000308617 0.000137425 2.88136e-06
0.000137425 -0.00057355 1.52583e-07
2.88136e-06 1.52583e-07 -0.00076612
0.00205314 0.000415422 1.40208e-06
0.000415422 -8.37353e-05 1.61789e-06
1.40208e-06 1.61789e-06 -0.000109491
0.00265662 0.000522174 3.02871e-06
0.000522174 0.000519905 -2.69386e-09
3.02871e-06 -2.69386e-09 0.000340889
0.00194645 0.00059634 -5.13952e-06
0.00059634 0.000290957 -4.27797e-06
-5.13952e-06 -4.27797e-06 -9.43812e-06
0.00138345 0.000516601 5.32398e-07
0.000516601 0.000228682 4.98052e-07
5.32398e-07 4.98052e-07 -0.000123482
0.000636996 8.59336e-05 -6.53569e-07
8.59336e-05 9.46764e-05 -1.14664e-06
-6.53569e-07 -1.14664e-06 -8.56931e-06
0.000603308 6.71114e-05 -3.9633e-07
6.71114e-05 7.2882e-05 -6.21873e-08
-3.9633e-07 -6.21873e-08 -3.44596e-05
0.000983324 6.63748e-05 -5.10406e-06
6.63748e-05 0.000303553 -2.20181e-06
-5.10406e-06 -2.20181e-06 0.000208793
0.000602079 3.16273e-05 -1.29339e-06
3.16273e-05 6.18946e-05 -2.06127e-06
-1.29339e-06 -2.06127e-06 -2.57517e-05
0.000313543 2.41467e-05 -1.59277e-07
2.41467e-05 -0.000106438 3.03838e-08
-1.59277e-07 3.03838e-08 -0.000206386
0.000623965 4.27541e-05 -3.58072e-07
4.27541e-05 9.00426e-05 8.58472e-08
-3.58072e-07 8.58472e-08 -5.61206e-06
0.000614017 0.000107675 -1.14071e-06
0.000107675 0.000102407 3.3254e-07
-1.14071e-06 3.3254e-07 -1.10469e-05
0.00052461 3.98296e-05 1.04592e-06
3.98296e-05 4.4917e-05 1.51117e-07
1.04592e-06 1.51117e-07 -7.72013e-05
0.000692972 8.00396e-05 1.4808e-06
8.00396e-05 0.000120269 -2.17148e-06
1.4808e-06 -2.17148e-06 3.55225e-05
0.000722704 3.36934e-06 3.19717e-06
3.36934e-06 0.000161034 -4.02703e-06
3.19717e-06 -4.02703e-06 4.20825e-05
0.0003849 6.19897e-05 4.74898e-07
6.19897e-05 -3.91566e-05 1.8736e-06
4.74898e-07 1.8736e-06 -0.000162923
0.000662533 9.58601e-05 2.06383e-06
9.58601e-05 0.000116557 2.80364e-06
2.06383e-06 2.80364e-06 1.68744e-05
0.000502759 6.5208e-05 2.89478e-06
6.5208e-05 7.31379e-06 2.88918e-06
2.89478e-06 2.88918e-06 -6.00946e-05
0.000509495 7.03455e-06 -1.48591e-06
7.03455e-06 5.22493e-06 -1.81716e-07
-1.48591e-06 -1.81716e-07 -5.64764e-05
0.00121095 -1.93397e-06 1.25176e-06
-1.93397e-06 0.000404346 2.5796e-06
1.25176e-06 2.5796e-06 0.000390963
0.000505942 -4.67251e-05 9.62796e-08
-4.67251e-05 -1.50187e-06 -2.78269e-06
9.62796e-08 -2.78269e-06 -6.10469e-05
0.00128785 -1.37954e-05 -5.20016e-06
-1.37954e-05 0.000447466 -1.60966e-06
-5.20016e-06 -1.60966e-06 0.000434124
0.000795348 -2.12657e-05 2.09263e-05
-2.12657e-05 0.000144542 8.72302e-06
2.09263e-05 8.72302e-06 0.00015096
0.00133004 -2.52573e-05 -8.84864e-06
-2.52573e-05 0.000471818 -6.00646e-06
-8.84864e-06 -6.00646e-06 0.000457854
0.000765634 -3.24691e-05 7.57026e-06
-3.24691e-05 0.00012534 3.25839e-06
7.57026e-06 3.25839e-06 0.000130178
0.000721994 -4.17621e-05 -3.94409e-07
-4.17621e-05 0.000102523 -2.61102e-06
-3.94409e-07 -2.61102e-06 0.00010482
0.000446814 3.99248e-05 -2.54821e-07
3.99248e-05 -5.87354e-05 -3.1719e-06
-2.54821e-07 -3.1719e-06 -7.67823e-05
0.000449056 6.64153e-05 -1.22246e-07
6.64153e-05 -3.48821e-05 2.22424e-07
-1.22246e-07 2.22424e-07 -6.66911e-05
0.00234613 0.000101098 1.52306e-05
0.000101098 0.00113105 -4.00115e-06
1.52306e-05 -4.00115e-06 0.00113394
0.000529602 2.77594e-05 -4.02364e-06
2.77594e-05 1.91663e-05 7.43194e-06
-4.02364e-06 7.43194e-06 -2.14338e-05
0.00278326 0.000131763 -5.22031e-06
0.000131763 0.00140926 -5.63063e-07
-5.22031e-06 -5.63063e-07 0.00140374
0.00341523 8.58722e-05 -0.000106966
8.58722e-05 0.00179586 7.72251e-06
-0.000106966 7.72251e-06 0.00180064
0.00190971 0.000292144 -5.97791e-07
0.000292144 0.000111725 1.57704e-06
-5.97791e-07 1.57704e-06 -8.64547e-06
0.00200146 0.000173008 -4.69684e-06
0.000173008 7.83689e-05 -6.30996e-07
-4.69684e-06 -6.30996e-07 2.12002e-05
0.00197622 0.000258989 -5.96814e-07
0.000258989 3.05467e-05 -4.57862e-07
-5.96814e-07 -4.57862e-07 -2.3566e-05
0.00194061 0.000111194 -3.57516e-06
0.000111194 2.1079e-06 -5.16757e-07
-3.57516e-06 -5.16757e-07 -8.95677e-06
0.00191489 4.7892e-05 -4.60873e-06
4.7892e-05 3.89686e-05 -1.51768e-07
-4.60873e-06 -1.51768e-07 3.32723e-06
0.00183325 -5.52007e-06 -2.64928e-06
-5.52007e-06 4.15771e-05 1.96357e-07
-2.64928e-06 1.96357e-07 -2.25606e-05
0.00190531 -6.57871e-06 -5.25725e-07
-6.57871e-06 3.60374e-05 -7.34338e-08
-5.25725e-07 -7.34338e-08 4.23199e-06
0.00194677 5.34786e-05 1.14999e-06
5.34786e-05 1.45787e-05 1.07106e-07
1.14999e-06 1.07106e-07 5.38038e-06
0.00201881 0.000179033 7.14114e-07
0.000179033 2.66759e-05 2.12575e-07
7.14114e-07 2.12575e-07 7.21883e-06
0.00206617 0.000327602 7.5668e-07
0.000327602 8.94243e-05 3.62962e-07
7.5668e-07 3.62962e-07 6.91129e-06
0.00192712 -1.25682e-05 2.82079e-06
-1.25682e-05 1.0641e-05 -2.13085e-08
2.82079e-06 -2.13085e-08 2.31333e-07
0.00206553 0.000102766 1.32056e-06
0.000102766 -1.13214e-05 1.89607e-08
1.32056e-06 1.89607e-08 1.13839e-05
0.00222034 0.000276509 2.23277e-06
0.000276509 6.33258e-05 1.17994e-06
2.23277e-06 1.17994e-06 4.2807e-05
0.00192076 -7.30579e-05 -4.8787e-06
-7.30579e-05 3.03008e-05 3.55958e-07
-4.8787e-06 3.55958e-07 -1.59828e-07
0.00190298 -0.000153781 -2.13983e-06
-0.000153781 3.00081e-05 -1.40051e-08
-2.13983e-06 -1.40051e-08 -1.69446e-05
0.0019713 -0.000282839 -3.04602e-06
-0.000282839 6.9157e-05 1.3891e-06
-3.04602e-06 1.3891e-06 6.39511e-06
0.000889853 -0.000326048 -1.81827e-06
-0.000326048 4.55326e-05 2.35864e-06
-1.81827e-06 2.35864e-06 -0.000229126
0.00122412 -0.000485818 5.67009e-06
-0.000485818 0.000153315 -1.76419e-06
5.67009e-06 -1.76419e-06 -0.000190515
0.00166031 -0.000608842 3.56491e-07
-0.000608842 0.000208621 4.47831e-07
3.56491e-07 4.47831e-07 -0.000142019
0.00183901 -0.000356149 -7.96062e-07
-0.000356149 5.37031e-05 1.17531e-06
-7.96062e-07 1.17531e-06 -5.21305e-05
0.0018238 -0.000461678 3.7631e-07
-0.000461678 8.70705e-05 2.86427e-07
3.7631e-07 2.86427e-07 -7.10882e-05
0.00206442 -0.000525274 2.14585e-06
-0.000525274 0.000306651 -7.27819e-06
2.14585e-06 -7.27819e-06 6.97077e-05
0.000845048 -0.000307093 3.45742e-06
-0.000307093 3.0334e-05 4.00231e-06
3.45742e-06 4.00231e-06 -0.000233906
0.000602215 -0.000275433 -1.15632e-05
-0.000275433 -5.42474e-05 4.2266e-06
-1.15632e-05 4.2266e-06 -0.000309915
0.00206328 -0.00034343 1.78064e-06
-0.00034343 0.000998459 -1.09682e-06
1.78064e-06 -1.09682e-06 0.000672327
0.000368546 4.5028e-05 1.90098e-06
4.5028e-05 -7.91941e-05 7.81138e-07
1.90098e-06 7.81138e-07 -0.000156696
0.00100847 -0.000143333 3.60561e-06
-0.000143333 0.00035191 8.53726e-07
3.60561e-06 8.53726e-07 0.000145399
0.000173637 3.57429e-05 4.72502e-06
3.57429e-05 -0.000156044 9.1627e-07
4.72502e-06 9.1627e-07 -0.000315034
0.00194149 -7.93131e-05 -5.14624e-07
-7.93131e-05 1.50749e-05 8.0319e-08
-5.14624e-07 8.0319e-08 5.04766e-06
0.00201714 -0.00020676 2.09668e-07
-0.00020676 -3.54532e-06 -2.85114e-08
2.09668e-07 -2.85114e-08 -9.19377e-06
0.00202549 -0.000344443 -4.55242e-07
-0.000344443 5.52664e-05 3.65759e-07
-4.55242e-07 3.65759e-07 1.34869e-05
0.00145765 -0.00044174 -1.98954e-06
-0.00044174 0.000379741 -6.08129e-07
-1.98954e-06 -6.08129e-07 5.74418e-05
0.00144649 -0.00058918 1.71692e-06
-0.00058918 0.00024316 -9.96491e-07
1.71692e-06 -9.96491e-07 -0.00014607
0.00223011 -0.000677417 -5.11815e-06
-0.000677417 0.00053814 9.62755e-07
-5.11815e-06 9.62755e-07 0.000175994
0.00204776 -0.00043967 5.79002e-07
-0.00043967 9.16153e-05 -4.11933e-07
5.79002e-07 -4.11933e-07 -8.96909e-06
0.00184201 -0.0005327 1.42376e-06
-0.0005327 0.000110397 -3.14979e-06
1.42376e-06 -3.14979e-06 -9.59921e-05
0.000381462 5.82831e-05 -9.96441e-07
5.82831e-05 -7.72236e-05 -1.04409e-06
-9.96441e-07 -1.04409e-06 -0.000134719
0.000668288 -1.39719e-05 -7.6227e-07
-1.39719e-05 0.000142339 4.31268e-07
-7.6227e-07 4.31268e-07 1.50984e-05
0.000557775 -0.00032633 -4.81732e-06
-0.00032633 -0.000149279 3.29685e-06
-4.81732e-06 3.29685e-06 -0.000442265
0.00159005 -0.00034056 4.87022e-06
-0.00034056 0.000627629 -1.04856e-06
4.87022e-06 -1.04856e-06 0.000273535
0.00123466 -0.00011502 -2.4167e-07
-0.00011502 0.000481228 -2.16149e-06
-2.4167e-07 -2.16149e-06 0.000225383
0.000830554 -0.000118697 -6.12274e-07
-0.000118697 0.000266382 1.01552e-06
-6.12274e-07 1.01552e-06 7.16435e-05
0.00201377 -0.000108245 -1.95635e-07
-0.000108245 -1.74417e-05 -2.06205e-07
-1.95635e-07 -2.06205e-07 3.02775e-06
0.00212258 -0.000296424 -9.46009e-07
-0.000296424 -2.79592e-05 9.79307e-08
-9.46009e-07 9.79307e-08 3.51366e-06
0.00209744 -0.000395811 1.31974e-06
-0.000395811 6.08451e-05 -1.12761e-06
1.31974e-06 -1.12761e-06 3.02197e-05
0.0021578 -0.000581532 6.19743e-06
-0.000581532 0.000140458 -2.90995e-06
6.19743e-06 -2.90995e-06 1.59214e-06
0.000781707 -0.000431793 -1.25943e-07
-0.000431793 -4.16316e-05 -4.59854e-06
-1.25943e-07 -4.59854e-06 -0.000393873
0.0022375 -0.000704262 -9.29219e-07
-0.000704262 0.000475612 1.19871e-05
-9.29219e-07 1.19871e-05 0.000133125
0.00235535 -0.000737396 -7.54479e-06
-0.000737396 0.000725865 -3.00161e-06
-7.54479e-06 -3.00161e-06 0.00028583
0.000594595 5.04898e-05 7.25097e-07
5.04898e-05 3.82323e-05 -8.46472e-07
7.25097e-07 -8.46472e-07 -6.56194e-06
0.000658954 -0.000127251 4.28679e-06
-0.000127251 0.000126072 -2.48346e-06
4.28679e-06 -2.48346e-06 3.2859e-05
0.000357445 7.39596e-05 -4.86182e-06
7.39596e-05 -5.82333e-05 1.1193e-06
-4.86182e-06 1.1193e-06 -0.000154714
0.000767932 -4.79348e-05 -3.5894e-06
-4.79348e-05 0.000225994 5.05443e-06
-3.5894e-06 5.05443e-06 5.85035e-05
0.000364334 -6.7802e-05 1.58302e-06
-6.7802e-05 -5.97437e-05 -1.39894e-06
1.58302e-06 -1.39894e-06 -0.000252973
-0.000829969 -5.53792e-07 8.25939e-07
-5.53792e-07 -0.000741039 -4.25159e-08
8.25939e-07 -4.25159e-08 -0.00104858
0.00121566 -0.000419874 -1.32784e-05
-0.000419874 0.00024622 5.19305e-06
-1.32784e-05 5.19305e-06 -6.33859e-05
0.00285556 -0.000484206 -1.64248e-05
-0.000484206 0.00148759 7.76342e-06
-1.64248e-05 7.76342e-06 0.000975899
0.000607676 8.64207e-06 -3.58117e-07
8.64207e-06 7.21464e-05 -1.294e-06
-3.58117e-07 -1.294e-06 -2.84444e-05
0.000758898 0.000101035 6.84194e-07
0.000101035 0.000221212 -9.03439e-07
6.84194e-07 -9.03439e-07 3.49225e-05
0.00222092 0.000425097 -2.04665e-06
0.000425097 0.000250919 -1.21773e-06
-2.04665e-06 -1.21773e-06 0.00011149
0.0007016 0.000125871 -1.13982e-06
0.000125871 0.000145805 2.22484e-06
-1.13982e-06 2.22484e-06 -5.42102e-05
0.00196124 0.000416627 9.96734e-07
0.000416627 0.000729491 2.09586e-06
9.96734e-07 2.09586e-06 0.000453663
0.000251047 0.000187665 -1.30802e-06
0.000187665 -0.000297351 2.71795e-07
-1.30802e-06 2.71795e-07 -0.000469468
0.00220282 0.000537198 -2.803e-06
0.000537198 0.00041946 -3.03781e-07
-2.803e-06 -3.03781e-07 0.000171167
0.00208847 0.000526757 -5.50368e-06
0.000526757 0.000242673 5.23804e-06
-5.50368e-06 5.23804e-06 2.12378e-05
0.00169653 0.000493803 -4.33261e-07
0.000493803 0.000513151 8.5376e-07
-4.33261e-07 8.5376e-07 0.000174244
0.00152186 0.0005634 7.57697e-07
0.0005634 0.00020005 2.59719e-07
7.57697e-07 2.59719e-07 -0.000125793
0.000156142 3.32555e-05 -9.99815e-08
3.32555e-05 -0.000183546 1.15374e-06
-9.99815e-08 1.15374e-06 -0.000302231
0.000287091 0.000153648 -9.679e-07
0.000153648 -2.63163e-05 -3.08701e-06
-9.679e-07 -3.08701e-06 -0.000250324
0.00152197 0.000390606 3.32419e-06
0.000390606 0.000439267 -3.26631e-07
3.32419e-06 -3.26631e-07 0.000160536
0.000689843 0.000218184 -2.80446e-06
0.000218184 3.18326e-05 -1.69322e-06
-2.80446e-06 -1.69322e-06 -0.000170465
0.00216126 0.000405826 8.77723e-07
0.000405826 -2.56001e-05 -8.28529e-07
8.77723e-07 -8.28529e-07 -5.03897e-05
0.0023929 0.000514634 3.18054e-06
0.000514634 0.000371037 5.56861e-07
3.18054e-06 5.56861e-07 0.000188016
0.00196244 0.000587675 -3.94447e-07
0.000587675 0.000298105 5.75333e-07
-3.94447e-07 5.75333e-07 2.92023e-06
0.00149822 0.000528479 6.36759e-07
0.000528479 0.000280207 5.20769e-07
6.36759e-07 5.20769e-07 -7.00221e-05
9.73586e-05 4.81421e-05 -1.73785e-06
4.81421e-05 -0.000224765 4.17701e-06
-1.73785e-06 4.17701e-06 -0.000349402
0.00209907 0.000325181 4.83859e-06
0.000325181 -0.000126349 4.10451e-06
4.83859e-06 4.10451e-06 -8.32154e-05
0.00185614 0.000363563 5.05787e-06
0.000363563 0.000877703 7.51039e-06
5.05787e-06 7.51039e-06 0.000605332
0.00142157 0.000400479 5.09624e-06
0.000400479 0.000345582 5.56352e-07
5.09624e-06 5.56352e-07 6.70993e-05
0.00250988 0.000506038 -1.75048e-05
0.000506038 0.000300896 -7.13151e-06
-1.75048e-05 -7.13151e-06 0.000194783
0.00102953 0.000540441 -9.97684e-06
0.000540441 -0.00033194 -9.10899e-06
-9.97684e-06 -9.10899e-06 -0.000609734
0.00210363 0.0006204 -3.58552e-06
0.0006204 0.000575162 2.33634e-06
-3.58552e-06 2.33634e-06 0.000201018
0.00073252 8.44158e-05 -9.96712e-07
8.44158e-05 0.000151143 -8.04005e-07
-9.96712e-07 -8.04005e-07 4.38222e-05
0.000659914 7.93765e-05 -2.53235e-06
7.93765e-05 0.000116023 -6.60585e-07
-2.53235e-06 -6.60585e-07 1.62436e-05
0.00128351 7.82044e-05 -3.72975e-06
7.82044e-05 0.000501024 -1.16634e-06
-3.72975e-06 -1.16634e-06 0.00041956
0.000555056 2.70252e-06 1.80483e-07
2.70252e-06 5.09811e-05 -2.93508e-06
1.80483e-07 -2.93508e-06 -4.64394e-05
0.000676974 7.03892e-05 1.54602e-06
7.03892e-05 0.000141128 1.53494e-07
1.54602e-06 1.53494e-07 1.58481e-05
0.000178251 5.3907e-05 -1.00022e-06
5.3907e-05 -0.00014847 3.94443e-06
-1.00022e-06 3.94443e-06 -0.000256328
0.000586464 1.40933e-05 -9.66381e-07
1.40933e-05 7.781e-05 1.69916e-08
-9.66381e-07 1.69916e-08 -2.61972e-05
0.000367669 -1.52192e-05 -8.16629e-07
-1.52192e-05 -3.8526e-05 2.18973e-07
-8.16629e-07 2.18973e-07 -0.000166996
0.000293554 3.2261e-05 5.95967e-07
3.2261e-05 -0.000110148 5.93554e-07
5.95967e-07 5.93554e-07 -0.000187328
0.000751931 7.21e-05 8.79889e-07
7.21e-05 0.000193249 -8.34234e-07
8.79889e-07 -8.34234e-07 6.1923e-05
0.00142012 9.17629e-05 -6.49939e-07
9.17629e-05 0.000550684 -3.02151e-06
-6.49939e-07 -3.02151e-06 0.00049385
0.000554103 9.90539e-06 6.14449e-06
9.90539e-06 4.70748e-05 -5.047e-06
6.14449e-06 -5.047e-06 -4.14083e-05
0.000493117 7.82896e-05 2.69619e-07
7.82896e-05 4.40564e-05 1.95005e-06
2.69619e-07 1.95005e-06 -0.000100035
0.000613663 4.35328e-05 2.54744e-06
4.35328e-05 0.000111467 2.2274e-06
2.54744e-06 2.2274e-06 -3.15218e-05
0.000609952 3.32839e-05 2.18493e-06
3.32839e-05 8.57587e-05 2.58627e-06
2.18493e-06 2.58627e-06 -1.85958e-05
0.000501884 -4.5521e-05 -9.97103e-08
-4.5521e-05 5.92776e-06 2.76301e-06
-9.97103e-08 2.76301e-06 -6.27902e-05
0.000525262 2.17719e-06 -2.34462e-07
2.17719e-06 1.62299e-05 -1.95508e-07
-2.34462e-07 -1.95508e-07 -4.73875e-05
0.00127565 1.36297e-05 2.04793e-06
1.36297e-05 0.000450491 2.58149e-06
2.04793e-06 2.58149e-06 0.000435397
0.000526296 -1.29085e-05 4.66993e-07
-1.29085e-05 1.04899e-05 -2.89782e-06
4.66993e-07 -2.89782e-06 -4.76067e-05
0.00129116 3.23153e-06 -3.98069e-06
3.23153e-06 0.000454104 -1.61463e-06
-3.98069e-06 -1.61463e-06 0.00044051
0.000760871 -1.28288e-05 1.61319e-05
-1.28288e-05 0.000125998 8.55947e-06
1.61319e-05 8.55947e-06 0.000132839
0.00135149 -9.11049e-06 -7.36768e-06
-9.11049e-06 0.000486833 -6.13929e-06
-7.36768e-06 -6.13929e-06 0.000473423
0.000787661 -2.35273e-05 5.44649e-06
-2.35273e-05 0.000137596 3.35045e-06
5.44649e-06 3.35045e-06 0.00014337
0.000748582 -3.25187e-05 -2.49504e-07
-3.25187e-05 0.000112993 -2.50575e-06
-2.49504e-07 -2.50575e-06 0.000117718
0.000643443 1.57441e-06 1.87668e-06
1.57441e-06 6.60286e-05 -1.74442e-06
1.87668e-06 -1.74442e-06 2.35445e-05
0.000481917 2.87527e-05 5.35633e-07
2.87527e-05 -4.79357e-05 -3.35167e-06
5.35633e-07 -3.35167e-06 -6.06844e-05
0.000491162 4.2395e-05 3.40381e-07
4.2395e-05 -3.00264e-05 2.06685e-07
3.40381e-07 2.06685e-07 -4.89689e-05
0.002124 7.89405e-05 1.55159e-05
7.89405e-05 0.000984061 -3.96147e-06
1.55159e-05 -3.96147e-06 0.000992894
0.000511737 6.61414e-05 5.10925e-06
6.61414e-05 3.28058e-06 6.06967e-06
5.10925e-06 6.06967e-06 -2.9169e-05
0.00246248 0.00010646 -5.48091e-06
0.00010646 0.00120338 -5.20494e-07
-5.48091e-06 -5.20494e-07 0.001205
0.00295265 0.00012163 -3.06351e-05
0.00012163 0.00150982 4.75349e-06
-3.06351e-05 4.75349e-06 0.00150622
0.00209953 0.000323876 -2.41838e-08
0.000323876 9.88246e-05 1.15633e-07
-2.41838e-08 1.15633e-07 1.67812e-05
0.00202691 0.000183647 -2.85653e-06
0.000183647 3.52488e-05 -8.38293e-07
-2.85653e-06 -8.38293e-07 1.47663e-05
0.00194618 5.68813e-05 -3.6706e-06
5.68813e-05 2.01891e-05 -2.32228e-07
-3.6706e-06 -2.32228e-07 9.45113e-06
0.00188956 -4.5245e-06 -5.06314e-06
-4.5245e-06 2.64297e-05 -1.32247e-07
-5.06314e-06 -1.32247e-07 -4.99748e-06
0.00192867 -7.58882e-06 -8.73256e-07
-7.58882e-06 8.90545e-06 2.58971e-08
-8.73256e-07 2.58971e-08 1.51123e-06
0.00204692 9.59196e-05 -7.49495e-08
9.59196e-05 -1.39211e-05 1.28994e-07
-7.49495e-08 1.28994e-07 5.7203e-06
0.00214856 0.000280026 -1.00396e-06
0.000280026 2.30705e-05 -1.38978e-07
-1.00396e-06 -1.38978e-07 4.81556e-06
0.00201989 -9.84257e-06 2.23488e-07
-9.84257e-06 -3.05997e-05 -5.32261e-07
2.23488e-07 -5.32261e-07 -1.68635e-06
0.00221208 0.000149017 4.36501e-06
0.000149017 -1.9191e-05 7.42689e-08
4.36501e-06 7.42689e-08 1.10074e-05
0.00239733 0.00010055 3.43182e-06
0.00010055 0.000158816 1.1557e-05
3.43182e-06 1.1557e-05 0.000224888
0.00194137 -7.94439e-05 -4.06564e-06
-7.94439e-05 1.42375e-05 3.87959e-07
-4.06564e-06 3.87959e-07 2.1903e-06
0.00198535 -0.000213757 -2.2764e-06
-0.000213757 -2.72224e-05 4.70277e-07
-2.2764e-06 4.70277e-07 -3.14084e-05
0.00200433 -0.000339123 -1.6716e-06
-0.000339123 4.93684e-05 7.4747e-07
-1.6716e-06 7.4747e-07 4.75464e-06
0.000883527 -0.000381797 3.27433e-07
-0.000381797 2.81201e-05 1.66082e-06
3.27433e-07 1.66082e-06 -0.000281482
0.00161366 -0.000602324 4.16823e-06
-0.000602324 0.000339888 1.52736e-07
4.16823e-06 1.52736e-07 -5.09221e-05
0.00207944 -0.000649106 -2.37794e-07
-0.000649106 0.000458734 2.3755e-08
-2.37794e-07 2.3755e-08 0.00011069
0.00197764 -0.000442287 3.69878e-07
-0.000442287 5.22103e-05 2.28651e-06
3.69878e-07 2.28651e-06 -5.26271e-05
0.0018406 -0.00052765 -6.16719e-06
-0.00052765 0.000110858 -3.78664e-06
-6.16719e-06 -3.78664e-06 -9.33387e-05
0.000658165 -0.000331325 -6.97836e-06
-0.000331325 -8.40665e-05 1.73646e-06
-6.97836e-06 1.73646e-06 -0.000374941
0.0020718 -0.000367637 1.4158e-05
-0.000367637 0.000956103 -5.97266e-06
1.4158e-05 -5.97266e-06 0.000591055
0.00100605 -5.97576e-05 3.7577e-07
-5.97576e-05 0.00032788 1.1426e-06
3.7577e-07 1.1426e-06 9.02198e-05
0.00045641 1.72193e-05 1.06247e-06
1.72193e-05 -3.41331e-05 -3.90737e-07
1.06247e-06 -3.90737e-07 -8.70582e-05
0.000822247 3.57502e-05 4.61417e-06
3.57502e-05 0.000231762 4.42999e-07
4.61417e-06 4.42999e-07 0.000103451
0.00067063 -8.09257e-05 1.14906e-06
-8.09257e-05 0.000163841 2.19296e-06
1.14906e-06 2.19296e-06 -3.09267e-05
0.00202246 -0.000110823 5.38276e-07
-0.000110823 -2.02386e-05 7.33757e-09
5.38276e-07 7.33757e-09 2.38339e-06
0.000524709 1.56356e-05 1.31304e-06
1.56356e-05 -3.74197e-06 2.33052e-07
1.31304e-06 2.33052e-07 -4.8165e-05
0.000459947 -6.2081e-05 -1.85637e-06
-6.2081e-05 -2.13871e-05 -2.01445e-07
-1.85637e-06 -2.01445e-07 -9.82983e-05
0.00211176 -0.000286436 -2.45386e-07
-0.000286436 -1.5944e-05 1.79231e-07
-2.45386e-07 1.79231e-07 1.06843e-05
0.00205048 -0.000388561 -1.38068e-06
-0.000388561 3.38297e-05 1.29783e-07
-1.38068e-06 1.29783e-07 8.76156e-06
0.00154128 -0.000518053 -2.35424e-06
-0.000518053 0.00039598 7.37998e-07
-2.35424e-06 7.37998e-07 2.66363e-05
0.00183013 -0.000678837 1.25852e-06
-0.000678837 0.000441373 1.18875e-06
1.25852e-06 1.18875e-06 4.90961e-06
0.00176859 -0.000656835 4.75942e-06
-0.000656835 0.000205135 -2.9356e-06
4.75942e-06 -2.9356e-06 -0.000125391
0.00217223 -0.000578702 2.72178e-06
-0.000578702 0.000159096 -7.43228e-07
2.72178e-06 -7.43228e-07 2.06882e-05
0.000711188 -1.83797e-06 1.58002e-07
-1.83797e-06 0.000165473 -1.40729e-06
1.58002e-07 -1.40729e-06 6.55368e-05
0.00067889 -3.62652e-05 1.98216e-07
-3.62652e-05 0.000170277 1.65966e-06
1.98216e-07 1.65966e-06 2.80713e-06
0.00155022 -0.000436858 2.77702e-06
-0.000436858 0.000442783 -1.28916e-07
2.77702e-06 -1.28916e-07 0.000123253
0.0016562 -0.000353672 1.69229e-05
-0.000353672 0.000760923 -4.30913e-06
1.69229e-05 -4.30913e-06 0.000326605
0.000420694 -5.60949e-05 -3.85385e-06
-5.60949e-05 -1.8093e-05 -1.25632e-06
-3.85385e-06 -1.25632e-06 -0.000295866
0.000594717 -4.50918e-05 9.74832e-07
-4.50918e-05 9.46417e-05 -1.3701e-06
9.74832e-07 -1.3701e-06 -0.000111106
0.00205981 -0.000129296 2.49161e-06
-0.000129296 -9.97289e-05 -1.23421e-06
2.49161e-06 -1.23421e-06 -6.83614e-05
0.002071 -0.000361581 -1.07392e-06
-0.000361581 -0.000161243 1.29371e-06
-1.07392e-06 1.29371e-06 -1.99134e-05
0.00216088 -0.000523527 -5.76097e-06
-0.000523527 3.3989e-05 -2.24218e-07
-5.76097e-06 -2.24218e-07 -1.67424e-05
0.00167413 -0.000676824 4.6544e-06
-0.000676824 -1.45345e-05 -3.25096e-06
4.6544e-06 -3.25096e-06 -0.000202249
0.0011411 -0.000492808 -1.67686e-06
-0.000492808 0.000190383 -7.81379e-06
-1.67686e-06 -7.81379e-06 -0.000186862
0.00242293 -0.000808716 -1.16334e-05
-0.000808716 0.000706559 1.06543e-05
-1.16334e-05 1.06543e-05 0.00023554
0.000255183 4.85968e-05 -1.18045e-06
4.85968e-05 -0.000134675 -2.84961e-06
-1.18045e-06 -2.84961e-06 -0.00021917
0.000619248 -5.8224e-05 5.03261e-06
-5.8224e-05 7.30739e-05 -5.43049e-07
5.03261e-06 -5.43049e-07 -5.78771e-07
0.000982008 -0.000125918 1.66856e-06
-0.000125918 0.000300544 4.54163e-06
1.66856e-06 4.54163e-06 0.000197954
0.000528409 2.57408e-05 -3.92869e-06
2.57408e-05 6.2667e-05 8.93654e-06
-3.92869e-06 8.93654e-06 -7.86344e-05
0.000796009 -8.78159e-05 -5.09575e-06
-8.78159e-05 0.000218013 7.77094e-06
-5.09575e-06 7.77094e-06 4.80183e-05
0.00158013 -4.95956e-05 5.16572e-06
-4.95956e-05 0.000615261 -2.05113e-06
5.16572e-06 -2.05113e-06 0.000410679
-0.00102672 -0.000166372 7.59826e-06
-0.000166372 -0.000563319 -5.97006e-08
7.59826e-06 -5.97006e-08 -0.00117893
-0.000211075 -0.00039259 -3.13793e-05
-0.00039259 -0.000625482 4.0764e-06
-3.13793e-05 4.0764e-06 -0.000926289
0.000370451 5.69337e-05 -8.39617e-08
5.69337e-05 -4.3738e-05 -7.62621e-07
-8.39617e-08 -7.62621e-07 -0.000175772
0.00103583 0.000198628 -7.92028e-06
0.000198628 0.000418561 -5.51776e-06
-7.92028e-06 -5.51776e-06 0.000193868
0.00223367 0.000394738 -5.81506e-06
0.000394738 1.79437e-05 -3.26853e-06
-5.81506e-06 -3.26853e-06 -7.37336e-06
0.00219015 0.000510352 -3.14382e-06
0.000510352 0.000258604 5.99334e-07
-3.14382e-06 5.99334e-07 7.09901e-05
0.00184723 0.000291385 -6.98715e-06
0.000291385 0.000718533 -1.12836e-06
-6.98715e-06 -1.12836e-06 0.000513638
0.00179991 0.000422827 -4.24091e-06
0.000422827 0.000603777 -3.3837e-06
-4.24091e-06 -3.3837e-06 0.000318355
0.00199835 0.000581631 2.6148e-06
0.000581631 0.000314781 2.36393e-06
2.6148e-06 2.36393e-06 2.37421e-05
0.00174226 0.000551468 -2.18327e-07
0.000551468 0.000409806 -2.99157e-07
-2.18327e-07 -2.99157e-07 5.94476e-05
0.000476743 8.64124e-05 7.40641e-07
8.64124e-05 2.16052e-05 -9.6349e-07
7.40641e-07 -9.6349e-07 -0.000122358
0.00224393 0.000309425 -1.79825e-06
0.000309425 -3.77219e-05 -1.48774e-06
-1.79825e-06 -1.48774e-06 9.01143e-06
0.00139931 0.000276384 1.55337e-06
0.000276384 0.000580887 1.73505e-06
1.55337e-06 1.73505e-06 0.000333966
0.00148589 0.000407139 1.24804e-06
0.000407139 0.000395975 7.88486e-07
1.24804e-06 7.88486e-07 0.000112009
0.00243894 0.000502559 1.77905e-06
0.000502559 0.000266254 4.78679e-07
1.77905e-06 4.78679e-07 0.000161878
0.00162285 0.000584884 -1.85503e-06
0.000584884 5.85027e-06 -4.4419e-06
-1.85503e-06 -4.4419e-06 -0.000274816
0.0019066 0.000595601 4.67863e-07
0.000595601 0.000470765 3.99723e-07
4.67863e-07 3.99723e-07 0.000100214
0.00110325 0.000210826 -4.34629e-06
0.000210826 0.000436564 4.69868e-06
-4.34629e-06 4.69868e-06 0.000237897
0.00285081 0.000396068 -6.5377e-05
0.000396068 0.000371311 -1.8573e-05
-6.5377e-05 -1.8573e-05 0.000436944
0.00184852 0.000433352 -4.83892e-06
0.000433352 0.000755506 2.65922e-06
-4.83892e-06 2.65922e-06 0.000476557
0.00154147 0.000484595 -3.14117e-06
0.000484595 0.000344587 -5.25917e-06
-3.14117e-06 -5.25917e-06 7.39893e-06
0.00230281 0.000651839 -3.48016e-05
0.000651839 0.000262521 -1.76414e-05
-3.48016e-05 -1.76414e-05 6.25537e-05
0.000984434 0.000529566 -2.56431e-05
0.000529566 -0.000106798 -3.48974e-06
-2.56431e-05 -3.48974e-06 -0.000454221
0.000484937 0.000560284 3.1645e-05
0.000560284 -0.00116698 -3.2765e-05
3.1645e-05 -3.2765e-05 -0.0011937
0.000276536 9.16749e-05 2.30497e-06
9.16749e-05 -0.000100927 -3.54418e-07
2.30497e-06 -3.54418e-07 -0.000206835
0.000560755 8.24869e-05 -5.39328e-07
8.24869e-05 9.09574e-05 1.02668e-06
-5.39328e-07 1.02668e-06 4.02007e-06
0.00169454 0.000126535 4.05088e-07
0.000126535 0.000740785 -2.00224e-06
4.05088e-07 -2.00224e-06 0.000657549
0.000497356 -6.42246e-05 6.271e-07
-6.42246e-05 3.19953e-05 -3.41819e-06
6.271e-07 -3.41819e-06 -7.59646e-05
0.000446448 -4.0445e-05 -1.17701e-06
-4.0445e-05 5.25651e-06 -4.67901e-07
-1.17701e-06 -4.67901e-07 -0.000119291
0.000928602 0.000159504 1.31467e-07
0.000159504 0.000303835 1.51631e-06
1.31467e-07 1.51631e-06 0.000163454
2.36615e-05 1.41654e-05 -2.67387e-06
1.41654e-05 -0.000257412 9.67419e-06
-2.67387e-06 9.67419e-06 -0.000334186
0.000568691 -1.74726e-05 -4.99065e-07
-1.74726e-05 7.51035e-05 -3.30235e-08
-4.99065e-07 -3.30235e-08 -3.76088e-05
0.000538138 5.64161e-05 1.50499e-07
5.64161e-05 4.81785e-05 -5.67293e-07
1.50499e-07 -5.67293e-07 -8.05946e-05
0.000955636 7.76976e-05 7.76954e-07
7.76976e-05 0.000270248 3.02911e-06
7.76954e-07 3.02911e-06 0.000209737
0.000639541 4.71075e-05 1.41735e-06
4.71075e-05 0.000117615 6.01936e-07
1.41735e-06 6.01936e-07 -1.80247e-05
0.000675252 3.39518e-05 -1.53546e-06
3.39518e-05 0.000114868 -1.33919e-06
-1.53546e-06 -1.33919e-06 2.09454e-05
0.00134242 9.28652e-05 -3.18262e-08
9.28652e-05 0.00052413 -9.4286e-06
-3.18262e-08 -9.4286e-06 0.000464526
0.000970938 9.44307e-05 -2.28157e-06
9.44307e-05 0.00029916 -2.23005e-06
-2.28157e-06 -2.23005e-06 0.000155364
0.000925717 0.000109964 1.09827e-06
0.000109964 0.000283984 9.27042e-07
1.09827e-06 9.27042e-07 0.000148766
0.000757904 6.38365e-05 3.88619e-07
6.38365e-05 0.000201106 1.38321e-06
3.88619e-07 1.38321e-06 4.74327e-05
0.000350861 -2.32129e-05 5.66915e-08
-2.32129e-05 -7.55955e-05 3.01612e-06
5.66915e-08 3.01612e-06 -0.00018606
0.000961897 -3.89291e-05 -9.00406e-08
-3.89291e-05 0.00035521 -1.37452e-06
-9.00406e-08 -1.37452e-06 0.000195535
0.000287113 -3.19261e-05 -1.7345e-06
-3.19261e-05 -0.000110739 2.66671e-06
-1.7345e-06 2.66671e-06 -0.000225748
0.000494829 3.39203e-06 -1.9119e-06
3.39203e-06 5.89296e-06 2.90731e-06
-1.9119e-06 2.90731e-06 -6.73771e-05
0.000514388 3.23893e-05 2.18692e-06
3.23893e-05 1.55932e-05 -1.33119e-07
2.18692e-06 -1.33119e-07 -5.52349e-05
0.000432417 2.1517e-05 1.15831e-06
2.1517e-05 -6.15482e-05 4.09572e-06
1.15831e-06 4.09572e-06 -8.17339e-05
0.000495824 5.97789e-06 -2.86158e-06
5.97789e-06 2.8446e-06 -2.95303e-06
-2.86158e-06 -2.95303e-06 -6.41487e-05
0.000901141 1.44463e-05 -2.95567e-06
1.44463e-05 0.000221207 -1.62152e-06
-2.95567e-06 -1.62152e-06 0.000203921
0.00252301 -1.00138e-05 1.3101e-05
-1.00138e-05 0.00121133 5.2978e-06
1.3101e-05 5.2978e-06 0.00122516
0.0013706 5.70385e-06 -6.14831e-06
5.70385e-06 0.000503426 -6.0102e-06
-6.14831e-06 -6.0102e-06 0.000489456
0.000776189 -1.40406e-05 4.01207e-06
-1.40406e-05 0.000132337 3.31081e-06
4.01207e-06 3.31081e-06 0.000138965
0.000777587 -2.30334e-05 2.78863e-07
-2.30334e-05 0.000128818 -2.44877e-06
2.78863e-07 -2.44877e-06 0.000134656
0.00053253 1.65704e-05 -1.18292e-06
1.65704e-05 3.276e-06 -1.65992e-06
-1.18292e-06 -1.65992e-06 -3.92667e-05
0.000574914 -1.18561e-05 9.96273e-07
-1.18561e-05 2.52336e-05 -2.68893e-07
9.96273e-07 -2.68893e-07 -1.80944e-05
0.000532001 2.26851e-05 4.75466e-07
2.26851e-05 -1.97709e-05 -3.36785e-06
4.75466e-07 -3.36785e-06 -3.04415e-05
0.000814111 3.66673e-05 -2.06927e-07
3.66673e-05 0.000159062 8.78871e-08
-2.06927e-07 8.78871e-08 0.000147425
0.00209869 6.33678e-05 1.21132e-05
6.33678e-05 0.00096075 -4.19265e-06
1.21132e-05 -4.19265e-06 0.000972973
0.000505773 4.86282e-05 2.58224e-06
4.86282e-05 -1.81313e-05 4.08164e-06
2.58224e-06 4.08164e-06 -3.89453e-05
0.00225968 8.49738e-05 -2.95754e-06
8.49738e-05 0.00106914 -2.37183e-07
-2.95754e-06 -2.37183e-07 0.00107643
0.00256657 0.000111695 -1.18157e-05
0.000111695 0.00126812 4.81109e-06
-1.18157e-05 4.81109e-06 0.00126844
0.00208259 0.000283903 -2.65057e-06
0.000283903 -1.591e-05 -1.34017e-06
-2.65057e-06 -1.34017e-06 -3.12427e-05
0.00203014 9.05261e-05 -1.63841e-08
9.05261e-05 -1.63398e-05 8.72977e-08
-1.63841e-08 8.72977e-08 9.44833e-07
0.00192988 -3.81588e-06 -3.29412e-06
-3.81588e-06 6.82846e-06 -1.04556e-07
-3.29412e-06 -1.04556e-07 2.50024e-06
0.00201565 -6.72419e-06 1.41009e-07
-6.72419e-06 -3.14541e-05 -1.76362e-07
1.41009e-07 -1.76362e-07 -2.85057e-06
0.00219001 0.000151964 -2.20845e-07
0.000151964 -1.62041e-05 2.62102e-07
-2.20845e-07 2.62102e-07 1.26456e-05
0.00209808 8.02065e-05 7.49522e-06
8.02065e-05 -3.9221e-05 -4.28708e-06
7.49522e-06 -4.28708e-06 2.16663e-05
0.00220186 -5.27088e-06 1.5031e-06
-5.27088e-06 -5.86428e-05 -7.94603e-07
1.5031e-06 -7.94603e-07 2.7521e-06
0.00384977 0.000556872 4.26517e-05
0.000556872 -0.000419259 8.50519e-06
4.26517e-05 8.50519e-06 7.22236e-05
0.00239343 5.82163e-05 -2.85233e-05
5.82163e-05 0.00029931 2.73351e-05
-2.85233e-05 2.73351e-05 0.000457714
0.000515708 9.76813e-05 -1.07757e-06
9.76813e-05 3.33884e-05 -4.76948e-08
-1.07757e-06 -4.76948e-08 -4.97859e-05
0.00203061 -0.00011206 -6.1565e-07
-0.00011206 -2.25904e-05 1.41021e-07
-6.1565e-07 1.41021e-07 2.13899e-06
0.0020867 -0.000276158 1.22301e-06
-0.000276158 -1.22218e-05 1.35563e-07
1.22301e-06 1.35563e-07 8.27284e-06
0.00200167 -0.000383279 -3.07708e-08
-0.000383279 4.59462e-06 1.03979e-06
-3.07708e-08 1.03979e-06 -1.58914e-05
0.000844347 -0.000447415 -8.64226e-06
-0.000447415 -1.19558e-05 5.57454e-06
-8.64226e-06 5.57454e-06 -0.000365725
0.00221457 -0.000718763 5.35804e-06
-0.000718763 0.00065529 6.92404e-06
5.35804e-06 6.92404e-06 0.000211362
0.00167942 -0.000651882 -2.94444e-06
-0.000651882 0.000139029 -8.88264e-06
-2.94444e-06 -8.88264e-06 -0.000187916
0.00221868 -0.000577872 -3.57704e-06
-0.000577872 0.000198354 -5.48149e-07
-3.57704e-06 -5.48149e-07 5.89909e-05
0.00173373 -0.000441075 1.69044e-05
-0.000441075 0.000526646 -1.23101e-05
1.69044e-05 -1.23101e-05 0.000211579
0.000491491 -0.000219196 1.62122e-05
-0.000219196 6.13061e-05 -8.83608e-06
1.62122e-05 -8.83608e-06 -0.000307674
0.00137654 -8.83184e-05 2.53056e-06
-8.83184e-05 0.000533468 -2.41404e-07
2.53056e-06 -2.41404e-07 0.000282682
0.000532133 7.89396e-06 -9.72481e-08
7.89396e-06 2.79845e-06 1.21331e-06
-9.72481e-08 1.21331e-06 -4.15437e-05
0.000941824 -2.58335e-05 2.26479e-06
-2.58335e-05 0.000315617 1.42456e-06
2.26479e-06 1.42456e-06 9.92866e-05
0.000831278 -1.97186e-05 4.30819e-06
-1.97186e-05 0.000246992 -2.45168e-06
4.30819e-06 -2.45168e-06 0.00014651
0.000837311 -3.54975e-05 2.49745e-06
-3.54975e-05 0.000262885 -3.6151e-06
2.49745e-06 -3.6151e-06 9.48138e-05
0.000263412 -3.83921e-05 -3.94785e-06
-3.83921e-05 -0.000149244 1.21335e-06
-3.94785e-06 1.21335e-06 -0.000222705
0.00210645 -0.000145419 -5.07727e-07
-0.000145419 -0.000100147 -8.39972e-08
-5.07727e-07 -8.39972e-08 -4.78193e-05
0.000408381 3.19522e-05 -7.06458e-08
3.19522e-05 -3.13229e-05 -1.78147e-06
-7.06458e-08 -1.78147e-06 -0.000120728
0.000593309 -5.31463e-05 1.81339e-06
-5.31463e-05 7.49328e-05 8.13213e-07
1.81339e-06 8.13213e-07 -7.30396e-06
0.000821004 -9.88353e-05 1.63739e-06
-9.88353e-05 0.000198605 4.61427e-07
1.63739e-06 4.61427e-07 0.00010174
0.00209962 -0.000369223 1.58755e-06
-0.000369223 -0.000122891 -5.95921e-07
1.58755e-06 -5.95921e-07 -1.24763e-05
0.00217987 -0.000527825 6.32958e-07
-0.000527825 4.59051e-05 -8.94919e-07
6.32958e-07 -8.94919e-07 -5.97271e-06
0.00077851 -0.0004176 6.92079e-06
-0.0004176 -1.42629e-05 2.1411e-08
6.92079e-06 2.1411e-08 -0.000361513
0.00242107 -0.000811817 1.01178e-05
-0.000811817 0.000708568 -4.69422e-07
1.01178e-05 -4.69422e-07 0.000248291
0.00217219 -0.000717003 -2.3614e-06
-0.000717003 0.000282483 1.74507e-06
-2.3614e-06 1.74507e-06 7.51946e-05
0.00021922 -3.00053e-05 -5.92658e-07
-3.00053e-05 -0.000126136 -1.03882e-06
-5.92658e-07 -1.03882e-06 -0.000255915
0.000905891 -9.05071e-05 -1.33526e-06
-9.05071e-05 0.000297707 9.83572e-07
-1.33526e-06 9.83572e-07 0.000113036
0.00126631 -0.000552552 -6.37841e-06
-0.000552552 0.000232596 1.49123e-06
-6.37841e-06 1.49123e-06 -0.000128775
0.000422987 -0.000140943 4.05873e-07
-0.000140943 0.000129099 -2.94656e-06
4.05873e-07 -2.94656e-06 -0.000352372
0.000749239 -6.04674e-05 7.07915e-07
-6.04674e-05 0.000114416 1.79009e-06
7.07915e-07 1.79009e-06 -8.09208e-05
0.00252314 -0.000276108 -2.34036e-06
-0.000276108 0.000138928 -8.7673e-08
-2.34036e-06 -8.7673e-08 0.000195859
0.00190162 -0.000398518 -1.6446e-05
-0.000398518 -0.000230405 4.68854e-06
-1.6446e-05 4.68854e-06 -7.23047e-05
0.00212169 -0.000667043 -1.07382e-05
-0.000667043 9.45354e-05 7.87924e-07
-1.07382e-05 7.87924e-07 -6.10215e-05
0.00329476 -0.000875238 -2.11719e-05
-0.000875238 0.00102953 -1.22637e-06
-2.11719e-05 -1.22637e-06 0.000748043
0.000908009 -0.000526573 -2.44733e-05
-0.000526573 5.515e-05 -2.76118e-06
-2.44733e-05 -2.76118e-06 -0.000319221
0.000241219 -1.73183e-05 1.93172e-06
-1.73183e-05 -0.000130098 8.65181e-07
1.93172e-06 8.65181e-07 -0.000231953
0.000428435 7.15621e-06 7.50718e-07
7.15621e-06 -6.12403e-05 3.91048e-06
7.50718e-07 3.91048e-06 -0.000155008
-0.000263358 -3.74857e-05 -9.212e-07
-3.74857e-05 -0.000450255 -2.99083e-06
-9.212e-07 -2.99083e-06 -0.00054525
0.00193219 -0.000245648 -1.14724e-05
-0.000245648 0.000947028 1.55212e-05
-1.14724e-05 1.55212e-05 0.000775831
0.000984634 -9.47167e-05 -5.57481e-06
-9.47167e-05 0.000313783 1.49517e-05
-5.57481e-06 1.49517e-05 0.000148759
-0.00106896 -8.96589e-05 2.45921e-06
-8.96589e-05 -0.000504451 4.39636e-06
2.45921e-06 4.39636e-06 -0.00107289
-0.00029118 -0.000660686 -5.70744e-06
-0.000660686 -0.0002901 -5.78376e-06
-5.70744e-06 -5.78376e-06 -0.000903335
0.00108548 0.000149912 -8.38132e-07
0.000149912 0.000404403 -5.59415e-06
-8.38132e-07 -5.59415e-06 0.000238612
0.000439337 0.000131698 -3.58657e-06
0.000131698 -2.55811e-05 -2.83127e-06
-3.58657e-06 -2.83127e-06 -0.000233292
0.00238063 0.000287683 6.44763e-06
0.000287683 3.72578e-05 4.54321e-08
6.44763e-06 4.54321e-08 9.62119e-05
0.00232983 0.000497331 1.60451e-05
0.000497331 0.000207688 5.37046e-06
1.60451e-05 5.37046e-06 0.000108162
0.00218135 0.000624953 1.83158e-05
0.000624953 0.000327728 4.82301e-06
1.83158e-05 4.82301e-06 4.51245e-05
0.00123872 0.000380917 -9.48543e-07
0.000380917 0.000256689 7.85831e-07
-9.48543e-07 7.85831e-07 -2.61411e-05
0.00166327 0.000566017 3.27689e-06
0.000566017 0.000340519 3.23198e-06
3.27689e-06 3.23198e-06 -2.45139e-05
0.00166416 0.000208238 1.09063e-07
0.000208238 0.000740121 -8.54282e-08
1.09063e-07 -8.54282e-08 0.000557062
0.00251229 0.000334557 -5.75452e-07
0.000334557 0.000211592 1.38196e-06
-5.75452e-07 1.38196e-06 0.000292378
0.00132515 0.000348878 -1.99518e-06
0.000348878 0.000420588 2.19538e-06
-1.99518e-06 2.19538e-06 0.000166282
0.00161579 0.000496793 2.11223e-06
0.000496793 0.000417917 -6.28674e-07
2.11223e-06 -6.28674e-07 6.82417e-05
0.00208952 0.000627442 -2.88973e-06
0.000627442 0.000147174 -3.23845e-06
-2.88973e-06 -3.23845e-06 -3.1957e-05
0.00164462 0.00060098 -4.38508e-06
0.00060098 0.000275609 4.84901e-06
-4.38508e-06 4.84901e-06 -8.82084e-05
0.00299529 0.000793191 5.56323e-05
0.000793191 -0.000136955 4.98179e-06
5.56323e-05 4.98179e-06 -0.000283286
0.00112311 0.000266456 -5.68002e-06
0.000266456 0.000444029 1.958e-06
-5.68002e-06 1.958e-06 0.000232168
0.00334344 0.000607641 -8.18283e-05
0.000607641 0.000811955 -3.29137e-05
-8.18283e-05 -3.29137e-05 0.000753195
0.000947429 0.000362551 -4.34319e-06
0.000362551 5.83885e-05 3.34767e-07
-4.34319e-06 3.34767e-07 -0.000214005
5.47754e-05 0.000362294 -3.01281e-06
0.000362294 -0.000491309 -1.37159e-05
-3.01281e-06 -1.37159e-05 -0.000821731
0.00065896 0.000602914 -3.48859e-05
0.000602914 -0.000435397 -8.69587e-06
-3.48859e-05 -8.69587e-06 -0.000642042
0.0130911 0.000371969 -0.00035767
0.000371969 0.00232376 -4.77079e-05
-0.00035767 -4.77079e-05 0.00157176
0.00527276 0.0012912 4.22142e-05
0.0012912 -0.000303769 -7.76567e-05
4.22142e-05 -7.76567e-05 0.000115193
-0.00072741 0.000827444 -2.88131e-06
0.000827444 -0.00129159 3.74119e-06
-2.88131e-06 3.74119e-06 -0.00159335
-0.00218121 -0.00144811 0.000952186
-0.00144811 0.0004096 0.00020538
0.000952186 0.00020538 -0.00209965
0.0157521 -0.00563824 -1.45986e-05
-0.00563824 0.00497433 5.8858e-05
-1.45986e-05 5.8858e-05 0.00467996
0.000111716 8.38775e-05 6.99056e-06
8.38775e-05 -0.000159505 1.3428e-06
6.99056e-06 1.3428e-06 -0.000250781
0.0010497 9.22176e-05 6.31578e-07
9.22176e-05 0.000385707 -2.32734e-06
6.31578e-07 -2.32734e-06 0.000305089
0.00186094 0.000210694 -9.41105e-07
0.000210694 0.000897212 -1.05281e-06
-9.41105e-07 -1.05281e-06 0.000787184
0.000539424 -5.86922e-05 -8.37663e-07
-5.86922e-05 6.60823e-05 -2.46456e-06
-8.37663e-07 -2.46456e-06 -5.17429e-05
0.000498895 6.21549e-05 -1.10177e-06
6.21549e-05 2.63741e-05 -2.06382e-06
-1.10177e-06 -2.06382e-06 -0.000105543
0.000728071 -1.52057e-05 -5.79235e-08
-1.52057e-05 0.000171668 -8.48646e-07
-5.79235e-08 -8.48646e-07 3.47657e-05
0.000683995 5.56971e-05 -3.79513e-06
5.56971e-05 0.000115116 7.74173e-06
-3.79513e-06 7.74173e-06 1.65454e-05
0.000496137 5.89563e-05 2.55402e-06
5.89563e-05 -9.48676e-06 7.5788e-06
2.55402e-06 7.5788e-06 -7.25511e-05
0.000689925 0.000107732 -1.86428e-06
0.000107732 0.0001604 -4.91701e-07
-1.86428e-06 -4.91701e-07 8.75693e-06
0.00045028 -6.13471e-06 3.92513e-07
-6.13471e-06 -6.1684e-06 9.30236e-07
3.92513e-07 9.30236e-07 -0.000120614
0.000659538 3.3154e-05 -4.5864e-07
3.3154e-05 0.000135299 -3.75348e-08
-4.5864e-07 -3.75348e-08 -1.21792e-05
0.000567764 7.16719e-05 -2.17578e-07
7.16719e-05 4.45998e-05 -4.26904e-07
-2.17578e-07 -4.26904e-07 -1.53089e-05
0.000724703 9.23036e-05 -1.38918e-06
9.23036e-05 0.000156232 -3.77075e-07
-1.38918e-06 -3.77075e-07 1.64623e-05
0.00112603 0.000138753 -1.71789e-06
0.000138753 0.000418986 -1.00795e-06
-1.71789e-06 -1.00795e-06 0.000258529
0.000338844 8.65781e-05 7.42715e-07
8.65781e-05 -3.82899e-05 -2.80798e-06
7.42715e-07 -2.80798e-06 -0.000183484
0.000787251 9.53395e-05 2.50528e-06
9.53395e-05 0.000210703 5.42356e-07
2.50528e-06 5.42356e-07 6.53748e-05
0.000553903 -3.10035e-05 1.77743e-06
-3.10035e-05 5.64478e-05 6.86946e-07
1.77743e-06 6.86946e-07 -8.82796e-05
0.000371197 -6.47057e-05 -1.38265e-06
-6.47057e-05 -5.72585e-05 2.63941e-06
-1.38265e-06 2.63941e-06 -0.000175747
0.00073688 -1.78133e-05 -8.76936e-07
-1.78133e-05 0.000180594 6.55462e-08
-8.76936e-07 6.55462e-08 3.22657e-05
0.00100103 2.27377e-05 -1.49256e-07
2.27377e-05 0.000337487 -7.20762e-06
-1.49256e-07 -7.20762e-06 0.000194741
0.000544952 -3.01396e-05 -9.59007e-07
-3.01396e-05 8.77774e-05 -1.94438e-07
-9.59007e-07 -1.94438e-07 -5.10145e-05
0.000775999 -3.99962e-05 1.6348e-06
-3.99962e-05 0.000216361 -6.06682e-07
1.6348e-06 -6.06682e-07 7.30031e-05
0.000659897 -0.000108561 -2.62916e-06
-0.000108561 0.000125811 1.68181e-06
-2.62916e-06 1.68181e-06 9.21735e-06
0.00035259 -2.03164e-05 1.51574e-07
-2.03164e-05 -6.72156e-05 1.10454e-06
1.51574e-07 1.10454e-06 -0.000185358
0.000527612 -4.23595e-05 -2.23955e-06
-4.23595e-05 1.74717e-05 3.10985e-06
-2.23955e-06 3.10985e-06 -5.15071e-05
0.000528696 -3.08485e-05 1.66268e-06
-3.08485e-05 2.41746e-05 5.83604e-08
1.66268e-06 5.83604e-08 -4.79924e-05
0.000496054 4.64386e-06 1.60542e-06
4.64386e-06 -2.06922e-05 5.99351e-06
1.60542e-06 5.99351e-06 -4.1685e-05
0.000547783 3.94387e-05 -1.55822e-06
3.94387e-05 3.12107e-05 -3.01384e-06
-1.55822e-06 -3.01384e-06 -3.65906e-05
0.000457372 2.1778e-05 4.25288e-07
2.1778e-05 -4.56855e-05 5.80819e-08
4.25288e-07 5.80819e-08 -6.62227e-05
0.00246271 6.62126e-07 8.09433e-07
6.62126e-07 0.00117595 5.27997e-06
8.09433e-07 5.27997e-06 0.00118965
0.000521142 2.34527e-05 -2.32948e-06
2.34527e-05 -1.12554e-05 -6.4199e-06
-2.32948e-06 -6.4199e-06 -3.1765e-05
0.00167145 -8.1622e-06 -9.27661e-07
-8.1622e-06 0.000686403 1.14899e-07
-9.27661e-07 1.14899e-07 0.000695907
0.000785072 -1.33401e-05 5.37791e-07
-1.33401e-05 0.000134479 -2.25201e-06
5.37791e-07 -2.25201e-06 0.000141313
0.000514591 -7.97494e-06 6.7456e-07
-7.97494e-06 -7.53149e-06 -1.22068e-06
6.7456e-07 -1.22068e-06 -4.63874e-05
0.000574082 -3.22732e-05 2.56169e-07
-3.22732e-05 3.03848e-05 -4.66103e-08
2.56169e-07 -4.66103e-08 -1.37637e-05
0.000546168 1.34427e-05 9.20898e-07
1.34427e-05 -1.31605e-05 -3.0207e-06
9.20898e-07 -3.0207e-06 -2.17302e-05
0.000527111 -2.75652e-05 -1.98359e-06
-2.75652e-05 -4.87978e-06 1.19294e-06
-1.98359e-06 1.19294e-06 -4.79868e-05
0.000802482 2.68202e-05 -5.11832e-08
2.68202e-05 0.000147248 -7.3204e-07
-5.11832e-08 -7.3204e-07 0.000138663
0.00198808 4.70862e-05 8.53016e-06
4.70862e-05 0.000887258 -4.30269e-06
8.53016e-06 -4.30269e-06 0.00090251
0.000509221 3.25774e-05 -3.02922e-07
3.25774e-05 -2.79688e-05 3.31451e-06
-3.02922e-07 3.31451e-06 -4.18983e-05
0.00214374 6.63523e-05 -6.47534e-06
6.63523e-05 0.000991195 1.11756e-06
-6.47534e-06 1.11756e-06 0.00100262
0.00231715 8.94614e-05 -9.82977e-06
8.94614e-05 0.00110583 4.42744e-06
-9.82977e-06 4.42744e-06 0.00111206
0.00215927 0.000155961 -2.96408e-06
0.000155961 -1.74333e-05 -1.33278e-06
-2.96408e-06 -1.33278e-06 1.03632e-05
0.00200805 -5.58171e-06 -1.80155e-08
-5.58171e-06 -3.44269e-05 1.0938e-07
-1.80155e-08 1.0938e-07 -6.31199e-06
0.00183194 5.84339e-05 1.39913e-06
5.84339e-05 -0.000224638 8.51003e-07
1.39913e-06 8.51003e-07 -0.000167504
0.00240167 0.000405892 6.52307e-05
0.000405892 -0.000996719 1.51196e-05
6.52307e-05 1.51196e-05 -0.000590941
0.0021728 -2.6366e-05 -1.65196e-06
-2.6366e-05 -5.82728e-05 -1.93341e-06
-1.65196e-06 -1.93341e-06 3.58396e-06
0.00208751 6.17317e-05 1.70963e-06
6.17317e-05 0.000131781 -7.63838e-06
1.70963e-06 -7.63838e-06 0.000245191
0.00321685 -3.00844e-05 -2.6846e-05
-3.00844e-05 0.000895634 3.85549e-06
-2.6846e-05 3.85549e-06 0.000891742
0.00259916 -1.94547e-05 1.97127e-06
-1.94547e-05 -0.00172367 -2.63318e-05
1.97127e-06 -2.63318e-05 -0.00102867
0.00262087 0.000154868 8.30794e-05
0.000154868 -0.000482633 5.06602e-05
8.30794e-05 5.06602e-05 -8.52083e-05
0.000588968 8.00508e-05 4.66327e-07
8.00508e-05 8.03839e-05 -1.88104e-07
4.66327e-07 -1.88104e-07 -4.58199e-06
0.000590926 -5.66012e-06 4.59742e-07
-5.66012e-06 8.71257e-05 -1.29986e-07
4.59742e-07 -1.29986e-07 -2.35959e-06
0.00050209 -0.00010044 -2.36701e-06
-0.00010044 3.68752e-05 1.44414e-06
-2.36701e-06 1.44414e-06 -6.72493e-05
0.000496954 -4.82886e-05 -1.55924e-06
-4.82886e-05 5.23146e-05 1.20638e-06
-1.55924e-06 1.20638e-06 -5.84712e-05
0.00216637 -0.000161743 -4.15509e-06
-0.000161743 -8.76058e-05 8.53834e-07
-4.15509e-06 8.53834e-07 -1.87201e-05
0.00212621 -0.000371992 1.61515e-06
-0.000371992 -8.05746e-05 -8.17986e-07
1.61515e-06 -8.17986e-07 1.47597e-06
0.0021773 -0.000526807 -1.69345e-06
-0.000526807 4.78861e-05 1.28289e-06
-1.69345e-06 1.28289e-06 -3.351e-06
0.00294982 -0.000655433 1.05524e-05
-0.000655433 0.00122168 3.12341e-06
1.05524e-05 3.12341e-06 0.000840451
0.000699649 -0.000634667 9.60228e-06
-0.000634667 -0.000237098 -2.85759e-06
9.60228e-06 -2.85759e-06 -0.00066418
0.0023725 -0.000727724 5.20768e-06
-0.000727724 0.000415531 -2.87656e-06
5.20768e-06 -2.87656e-06 0.000197221
0.00185801 -0.000622781 1.32211e-07
-0.000622781 0.000567308 -2.70287e-06
1.32211e-07 -2.70287e-06 0.000168961
0.00267851 -0.00017956 3.38934e-06
-0.00017956 0.00128938 -1.03513e-06
3.38934e-06 -1.03513e-06 0.00094421
-0.00013649 -2.8953e-05 -9.53427e-07
-2.8953e-05 -0.000438103 6.50441e-07
-9.53427e-07 6.50441e-07 -0.000612329
0.000669698 -5.25903e-05 4.51794e-07
-5.25903e-05 0.000126353 6.78499e-07
4.51794e-07 6.78499e-07 4.35305e-05
0.000594432 -0.000108806 1.18688e-06
-0.000108806 0.000120622 -7.0835e-06
1.18688e-06 -7.0835e-06 -7.18563e-05
0.000762132 1.53306e-06 2.71623e-06
1.53306e-06 0.000216672 -4.6264e-06
2.71623e-06 -4.6264e-06 7.95083e-05
0.000620189 2.20799e-06 -9.1509e-08
2.20799e-06 0.000110877 1.80338e-07
-9.1509e-08 1.80338e-07 1.50816e-05
0.000538203 -3.63403e-05 -7.43682e-06
-3.63403e-05 1.83002e-05 3.10989e-06
-7.43682e-06 3.10989e-06 -6.87752e-05
0.00248025 -0.000259001 1.65033e-06
-0.000259001 0.000120973 1.12438e-06
1.65033e-06 1.12438e-06 0.000194774
0.000585166 -2.53867e-05 3.97238e-07
-2.53867e-05 9.47821e-05 5.36471e-07
3.97238e-07 5.36471e-07 -2.09989e-05
0.000809434 -1.85379e-05 4.66799e-06
-1.85379e-05 0.000191809 -7.42188e-07
4.66799e-06 -7.42188e-07 8.48307e-05
-4.5665e-05 -6.29029e-06 1.39078e-06
-6.29029e-06 -0.000306695 9.00876e-07
1.39078e-06 9.00876e-07 -0.00038104
0.00185535 -0.000402313 1.41919e-07
-0.000402313 -0.000285482 -1.28835e-06
1.41919e-07 -1.28835e-06 -0.000132038
0.00207909 -0.000658995 2.02338e-06
-0.000658995 7.46247e-05 -1.24193e-06
2.02338e-06 -1.24193e-06 -7.23607e-05
0.00175093 -0.000655608 -1.28973e-06
-0.000655608 0.000514308 -1.9286e-07
-1.28973e-06 -1.9286e-07 0.000120854
0.00224056 -0.000786738 -5.9086e-06
-0.000786738 0.000453039 1.4204e-06
-5.9086e-06 1.4204e-06 0.000180023
0.00127849 -0.000103518 -7.50541e-07
-0.000103518 0.000514793 1.08975e-06
-7.50541e-07 1.08975e-06 0.000361432
0.000348368 -5.2848e-05 3.53267e-06
-5.2848e-05 -8.4462e-05 8.41206e-07
3.53267e-06 8.41206e-07 -0.000249022
0.00145905 -0.000791489 4.29471e-06
-0.000791489 0.000701247 -1.34035e-06
4.29471e-06 -1.34035e-06 7.18965e-05
0.00119862 -0.000291282 -2.88459e-06
-0.000291282 0.000548968 -1.82153e-07
-2.88459e-06 -1.82153e-07 0.000120931
0.00290651 -0.000357661 -2.96014e-05
-0.000357661 0.000246995 -9.00059e-07
-2.96014e-05 -9.00059e-07 0.000464976
0.00235991 -0.000535252 -4.08524e-05
-0.000535252 0.000152299 1.11325e-05
-4.08524e-05 1.11325e-05 0.000194173
0.00235739 -0.000788779 -7.28047e-06
-0.000788779 0.000365325 -2.6511e-06
-7.28047e-06 -2.6511e-06 0.000105214
0.00230132 -0.000741639 -1.40337e-05
-0.000741639 0.000666774 5.52565e-07
-1.40337e-05 5.52565e-07 0.000397404
0.000353144 -4.19076e-05 -6.83156e-07
-4.19076e-05 -1.79968e-05 -2.80897e-06
-6.83156e-07 -2.80897e-06 -0.000139682
0.000241727 -8.34516e-05 -4.11071e-06
-8.34516e-05 -0.000118635 -9.48763e-06
-4.11071e-06 -9.48763e-06 -0.000263549
7.58412e-05 -0.000149073 -4.55635e-06
-0.000149073 -8.19859e-06 2.53709e-05
-4.55635e-06 2.53709e-05 -0.000272444
-0.000808213 -0.000491358 -5.207e-06
-0.000491358 -0.000115431 -2.19334e-05
-5.207e-06 -2.19334e-05 -0.000944126
0.0017015 -0.000495718 3.49848e-05
-0.000495718 -0.0043823 1.84676e-06
3.49848e-05 1.84676e-06 -0.00445586
0.00192612 0.000200102 -4.59834e-07
0.000200102 0.000881304 -4.78925e-06
-4.59834e-07 -4.78925e-06 0.000704838
0.000918485 0.000288412 -1.7345e-07
0.000288412 0.000172858 2.20199e-07
-1.7345e-07 2.20199e-07 -6.90353e-05
0.0020593 0.000290189 6.49963e-05
0.000290189 -3.18564e-05 1.68611e-05
6.49963e-05 1.68611e-05 6.16868e-05
0.00222331 0.000627188 2.78205e-05
0.000627188 0.000221621 9.82851e-06
2.78205e-05 9.82851e-06 5.53021e-05
0.00209374 0.000650629 1.37899e-05
0.000650629 0.000543089 1.17085e-05
1.37899e-05 1.17085e-05 0.000164937
0.00147371 0.000486284 7.00643e-06
0.000486284 0.000353851 7.381e-06
7.00643e-06 7.381e-06 -2.41756e-06
0.00447376 0.000970981 0.000111538
0.000970981 0.000334775 4.24112e-05
0.000111538 4.24112e-05 2.28333e-05
0.00136803 0.000253123 4.44603e-06
0.000253123 0.000581722 9.08391e-08
4.44603e-06 9.08391e-08 0.000379367
0.00252399 0.000546032 -1.52481e-05
0.000546032 0.000342291 -1.20277e-07
-1.52481e-05 -1.20277e-07 0.000310442
0.00104995 0.000374388 -2.51369e-06
0.000374388 0.000150171 2.43357e-06
-2.51369e-06 2.43357e-06 -0.000128288
0.00139255 0.000525921 1.89646e-06
0.000525921 0.000271343 -4.53087e-06
1.89646e-06 -4.53087e-06 -8.77828e-05
0.00158385 0.000679624 -8.58048e-06
0.000679624 4.84079e-05 -2.78495e-07
-8.58048e-06 -2.78495e-07 -0.000177532
0.00379833 -0.000548431 -0.000157866
-0.000548431 -0.00378179 -5.41209e-05
-0.000157866 -5.41209e-05 -0.00480636
0.00706935 0.0012143 -7.54334e-05
0.0012143 0.000449875 -6.50327e-05
-7.54334e-05 -6.50327e-05 0.000598382
0.00125798 0.00088871 -1.04131e-05
0.00088871 -0.000181241 8.30738e-06
-1.04131e-05 8.30738e-06 -0.000558172
-0.000923964 -0.0012149 0.000357981
-0.0012149 0.00207757 0.000152424
0.000357981 0.000152424 -0.000310226
0.00734694 -0.00560505 -0.000322722
-0.00560505 0.00268634 -0.000310392
-0.000322722 -0.000310392 0.00238533
0.0014102 0.000275747 -1.26895e-05
0.000275747 0.000551827 7.28169e-07
-1.26895e-05 7.28169e-07 0.000356719
0.000523608 0.000520549 0.000494588
0.000520549 0.00314455 5.18256e-05
0.000494588 5.18256e-05 0.00146402
0.00179355 -0.00176127 -0.000159708
-0.00176127 0.00415323 -0.000216878
-0.000159708 -0.000216878 0.000448826
0.00246171 0.000837143 -4.4325e-05
0.000837143 0.000356577 -1.18069e-05
-4.4325e-05 -1.18069e-05 0.000267449
0.000894626 0.000269596 -2.20592e-05
0.000269596 7.08475e-05 -6.96081e-06
-2.20592e-05 -6.96081e-06 -0.000167991
0.000699571 0.000543991 -3.22292e-05
0.000543991 -6.11695e-05 -2.44699e-05
-3.22292e-05 -2.44699e-05 -0.00036929
0.000261785 0.00086906 3.60335e-05
0.00086906 -0.000633745 8.83514e-05
3.60335e-05 8.83514e-05 -0.000930555
0.0121208 0.00169081 2.15309e-05
0.00169081 0.00202779 -5.04577e-05
2.15309e-05 -5.04577e-05 0.000542759
0.00288211 0.00166983 -8.37498e-06
0.00166983 1.41853e-05 -3.1562e-05
-8.37498e-06 -3.1562e-05 -0.000469082
0.00869763 -0.00481805 0.000747456
-0.00481805 0.00204901 0.000442145
0.000747456 0.000442145 0.000469476
0.0100392 -0.00228645 -4.99304e-05
-0.00228645 0.00155766 0.000456694
-4.99304e-05 0.000456694 0.00107223
0.000507898 7.7153e-05 6.71763e-06
7.7153e-05 8.82542e-05 -1.92838e-06
6.71763e-06 -1.92838e-06 7.73125e-06
0.000406065 0.000118627 7.49413e-06
0.000118627 2.89153e-05 3.30017e-07
7.49413e-06 3.30017e-07 -7.3032e-05
0.00181814 0.000249138 1.95986e-06
0.000249138 0.000888741 -3.17601e-06
1.95986e-06 -3.17601e-06 0.000735465
0.000594177 1.0936e-05 8.0699e-07
1.0936e-05 0.000104329 -7.52351e-07
8.0699e-07 -7.52351e-07 -2.38513e-05
0.000683758 5.66866e-05 -1.3029e-06
5.66866e-05 0.000147733 -1.65399e-06
-1.3029e-06 -1.65399e-06 4.09375e-06
0.000332075 1.4083e-05 -1.4819e-06
1.4083e-05 -7.10588e-05 6.41366e-07
-1.4819e-06 6.41366e-07 -0.000207135
0.000542153 8.43135e-05 -6.31784e-06
8.43135e-05 5.71183e-05 1.30781e-06
-6.31784e-06 1.30781e-06 -8.29427e-05
-0.000333519 4.75149e-05 -3.26817e-06
4.75149e-05 -0.000510927 1.33967e-06
-3.26817e-06 1.33967e-06 -0.000570675
0.000382691 -1.03099e-05 2.08753e-07
-1.03099e-05 -4.38812e-05 9.42139e-07
2.08753e-07 9.42139e-07 -0.000165944
0.00107135 9.01126e-05 1.32199e-06
9.01126e-05 0.000383861 -3.02317e-07
1.32199e-06 -3.02317e-07 0.000229811
0.000677677 4.54459e-05 6.00319e-07
4.54459e-05 0.000151251 3.19595e-07
6.00319e-07 3.19595e-07 1.27952e-06
0.000718508 2.48981e-05 1.14735e-06
2.48981e-05 0.000175132 -4.56741e-07
1.14735e-06 -4.56741e-07 1.79348e-05
0.000585423 9.79157e-05 -3.37802e-07
9.79157e-05 0.000112214 -1.83935e-06
-3.37802e-07 -1.83935e-06 -3.05258e-05
0.00118242 0.00010118 -2.08464e-06
0.00010118 0.000471357 -1.81444e-06
-2.08464e-06 -1.81444e-06 0.000315225
-0.000168138 3.8938e-05 -5.0552e-06
3.8938e-05 -0.000284883 -4.54407e-06
-5.0552e-06 -4.54407e-06 -0.000447748
0.000719509 -9.28528e-05 -1.44401e-07
-9.28528e-05 0.00016966 -1.74179e-07
-1.44401e-07 -1.74179e-07 1.89908e-05
0.000768731 -7.18101e-05 -6.01694e-07
-7.18101e-05 0.00021553 1.00755e-08
-6.01694e-07 1.00755e-08 5.64371e-05
0.000754875 -3.96975e-05 -1.45657e-07
-3.96975e-05 0.000204167 -3.25319e-07
-1.45657e-07 -3.25319e-07 4.6728e-05
0.000781477 -1.20004e-05 -2.41616e-06
-1.20004e-05 0.00019064 -1.03896e-07
-2.41616e-06 -1.03896e-07 6.0267e-05
0.000835005 1.98999e-05 -4.78453e-06
1.98999e-05 0.000265145 -3.70912e-06
-4.78453e-06 -3.70912e-06 9.29029e-05
0.000728319 -1.57167e-05 1.93345e-06
-1.57167e-05 0.000176841 -5.63696e-06
1.93345e-06 -5.63696e-06 4.53723e-05
-0.000564308 -2.1446e-05 -1.47974e-06
-2.1446e-05 -0.000627716 -4.95016e-06
-1.47974e-06 -4.95016e-06 -0.000737168
0.000625078 -3.43028e-05 1.51541e-06
-3.43028e-05 9.49225e-05 -9.39242e-07
1.51541e-06 -9.39242e-07 -4.1061e-05
0.000441713 -6.98408e-05 1.64388e-06
-6.98408e-05 -3.10638e-06 1.11979e-06
1.64388e-06 1.11979e-06 -0.000128205
0.000675249 -7.10814e-05 -9.79197e-07
-7.10814e-05 0.000159876 -2.95743e-07
-9.79197e-07 -2.95743e-07 2.22455e-05
0.000552644 -7.2612e-05 -2.16137e-06
-7.2612e-05 4.48089e-05 1.43824e-06
-2.16137e-06 1.43824e-06 -5.75559e-05
0.000508287 -5.7064e-05 2.62509e-06
-5.7064e-05 2.65941e-05 3.64902e-07
2.62509e-06 3.64902e-07 -9.99863e-05
0.000539721 -9.85435e-05 9.22393e-08
-9.85435e-05 4.90332e-05 2.57254e-07
9.22393e-08 2.57254e-07 -6.63545e-05
0.000565813 -4.13978e-05 -2.41087e-06
-4.13978e-05 3.89229e-05 3.4502e-06
-2.41087e-06 3.4502e-06 -3.09087e-05
0.000428523 -7.44424e-06 1.5001e-06
-7.44424e-06 -7.96951e-06 -7.94289e-07
1.5001e-06 -7.94289e-07 -0.000135766
0.000525515 1.30174e-06 1.7897e-06
1.30174e-06 2.30073e-05 5.3948e-08
1.7897e-06 5.3948e-08 -4.98541e-05
0.00142515 -1.12652e-05 -5.89194e-06
-1.12652e-05 0.000545023 6.1466e-06
-5.89194e-06 6.1466e-06 0.000528064
0.000527702 5.49824e-05 -1.10829e-06
5.49824e-05 2.39387e-05 -2.98576e-06
-1.10829e-06 -2.98576e-06 -4.80691e-05
0.000898929 -7.6001e-06 -2.88049e-06
-7.6001e-06 0.000226406 7.52131e-07
-2.88049e-06 7.52131e-07 0.00020761
0.000779719 2.94867e-06 -3.80344e-06
2.94867e-06 0.000143088 4.82251e-06
-3.80344e-06 4.82251e-06 0.000148864
0.000457522 -4.79937e-06 1.94376e-06
-4.79937e-06 -4.54063e-05 -4.40334e-06
1.94376e-06 -4.40334e-06 -6.58949e-05
0.00248146 1.46445e-06 5.50064e-06
1.46445e-06 0.00118761 -1.46122e-08
5.50064e-06 -1.46122e-08 0.00120128
0.000878308 -5.08881e-07 -5.50534e-06
-5.08881e-07 0.000199541 -5.15181e-06
-5.50534e-06 -5.15181e-06 0.000205061
0.000530764 6.37945e-05 2.657e-06
6.37945e-05 4.93072e-05 6.10534e-07
2.657e-06 6.10534e-07 -4.24216e-05
0.00050406 4.29551e-05 -1.80142e-06
4.29551e-05 -4.97092e-06 -1.76048e-06
-1.80142e-06 -1.76048e-06 -4.78027e-05
0.000522512 -6.11263e-06 1.32475e-06
-6.11263e-06 4.75238e-06 3.46904e-08
1.32475e-06 3.46904e-08 -3.89373e-05
0.000531913 8.45983e-06 8.73687e-07
8.45983e-06 -2.14735e-05 -2.93606e-06
8.73687e-07 -2.93606e-06 -2.93641e-05
0.000570555 -4.94666e-05 -1.87915e-06
-4.94666e-05 3.20496e-05 1.60478e-06
-1.87915e-06 1.60478e-06 -1.48659e-05
0.000509368 1.37489e-05 6.55559e-08
1.37489e-05 -3.64562e-05 -7.49373e-07
6.55559e-08 -7.49373e-07 -4.46909e-05
0.00197457 3.22161e-05 5.86678e-06
3.22161e-05 0.000875041 -4.4531e-06
5.86678e-06 -4.4531e-06 0.000892128
0.00109274 3.40828e-05 -6.60342e-07
3.40828e-05 0.000327233 1.73807e-06
-6.60342e-07 1.73807e-06 0.000319901
0.00145065 4.08977e-05 -1.08235e-07
4.08977e-05 0.000555588 1.37837e-06
-1.08235e-07 1.37837e-06 0.000566552
0.000883759 4.47048e-05 -1.05624e-05
4.47048e-05 0.000211084 7.28437e-06
-1.05624e-05 7.28437e-06 0.000215636
0.00104275 0.000274955 8.86233e-05
0.000274955 -0.00158947 1.39435e-05
8.86233e-05 1.39435e-05 -0.00121547
0.00213539 -4.23596e-05 -1.92685e-06
-4.23596e-05 -5.38167e-05 3.21965e-06
-1.92685e-06 3.21965e-06 1.42957e-06
0.00204429 7.28414e-05 3.5543e-05
7.28414e-05 0.00012744 -1.49795e-05
3.5543e-05 -1.49795e-05 0.000228538
0.00207032 0.000247894 -3.91529e-05
0.000247894 -0.00154142 -2.81378e-05
-3.91529e-05 -2.81378e-05 -0.000631521
0.00195796 9.28882e-05 3.01164e-05
9.28882e-05 -0.000649331 -2.03777e-06
3.01164e-05 -2.03777e-06 -0.000362607
0.0024215 -3.77349e-05 2.82968e-06
-3.77349e-05 0.000347736 -6.70912e-06
2.82968e-06 -6.70912e-06 0.000361234
0.00388077 -0.000208287 -4.64899e-05
-0.000208287 0.000871972 -1.19807e-05
-4.64899e-05 -1.19807e-05 0.000854122
0.00263082 -0.000104307 2.62525e-05
-0.000104307 -1.84266e-05 2.50547e-05
2.62525e-05 2.50547e-05 0.000105942
0.0130794 -0.000711659 8.74627e-06
-0.000711659 0.00255427 2.70173e-05
8.74627e-06 2.70173e-05 0.00112988
0.0135019 0.0036936 0.000931139
0.0036936 0.00543872 -0.000373222
0.000931139 -0.000373222 0.00390406
0.0121109 0.00425184 -9.71589e-06
0.00425184 0.00820701 6.44564e-06
-9.71589e-06 6.44564e-06 0.007011
0.000315779 -9.64233e-05 1.4324e-06
-9.64233e-05 -7.20955e-05 -2.77576e-07
1.4324e-06 -2.77576e-07 -0.000174679
0.000581976 -1.01342e-05 1.29487e-06
-1.01342e-05 7.80831e-05 -1.37888e-07
1.29487e-06 -1.37888e-07 -8.31822e-06
0.000664099 -8.68088e-05 -1.3477e-06
-8.68088e-05 0.000140042 1.49813e-06
-1.3477e-06 1.49813e-06 4.33803e-05
0.000578965 -4.42783e-05 1.13774e-07
-4.42783e-05 8.27601e-05 4.61497e-07
1.13774e-07 4.61497e-07 -2.23299e-05
0.000662724 7.11601e-05 -2.25233e-06
7.11601e-05 0.000160735 2.19054e-06
-2.25233e-06 2.19054e-06 3.88783e-05
0.00041383 0.000114462 2.07057e-06
0.000114462 -3.30451e-05 5.75531e-06
2.07057e-06 5.75531e-06 -0.000145812
0.000950966 -1.76378e-05 3.70716e-06
-1.76378e-05 0.00033054 1.87514e-06
3.70716e-06 1.87514e-06 0.000205337
0.000501612 -2.51859e-05 -1.4857e-06
-2.51859e-05 3.78396e-05 1.15385e-06
-1.4857e-06 1.15385e-06 -6.7523e-05
0.00241524 -0.000244728 6.02827e-06
-0.000244728 7.72258e-05 3.40113e-07
6.02827e-06 3.40113e-07 0.000176265
0.00186497 -0.000418268 1.43057e-05
-0.000418268 -0.000318187 -5.04887e-06
1.43057e-05 -5.04887e-06 -0.000173833
0.00210851 -0.000658787 5.75898e-06
-0.000658787 9.10699e-05 1.17128e-06
5.75898e-06 1.17128e-06 -5.13529e-05
0.00169324 -0.000642264 2.22851e-05
-0.000642264 0.000466865 8.03878e-07
2.22851e-05 8.03878e-07 8.29153e-05
0.00200718 -0.000782163 2.30525e-06
-0.000782163 0.000322122 5.56967e-06
2.30525e-06 5.56967e-06 4.51602e-05
0.00337795 -0.000940705 1.92223e-05
-0.000940705 0.00177742 -1.56029e-07
1.92223e-05 -1.56029e-07 0.00111958
0.00322044 -0.000478308 2.61475e-06
-0.000478308 0.00153438 -2.94993e-06
2.61475e-06 -2.94993e-06 0.0011929
0.000586834 -0.000143486 8.74028e-06
-0.000143486 8.50274e-05 -1.41917e-05
8.74028e-06 -1.41917e-05 -0.000112396
0.000542786 -5.13002e-05 -5.8044e-07
-5.13002e-05 2.78282e-05 3.95224e-06
-5.8044e-07 3.95224e-06 -6.96178e-05
0.000637023 -8.52488e-05 7.13059e-06
-8.52488e-05 9.81651e-05 -1.79824e-05
7.13059e-06 -1.79824e-05 -3.77448e-05
0.000950955 -3.36913e-05 1.92947e-06
-3.36913e-05 0.000318065 -2.40154e-07
1.92947e-06 -2.40154e-07 0.000197038
0.000568846 4.36013e-05 2.20667e-06
4.36013e-05 7.47906e-05 1.1205e-06
2.20667e-06 1.1205e-06 1.74657e-05
0.00220375 -0.000325923 -1.33441e-06
-0.000325923 -7.60725e-05 3.34162e-06
-1.33441e-06 3.34162e-06 0.000130012
0.000541204 -2.3095e-05 -2.07411e-06
-2.3095e-05 9.36332e-05 -1.02085e-06
-2.07411e-06 -1.02085e-06 -2.98208e-05
0.000952111 -0.000143583 -5.46609e-06
-0.000143583 0.000306321 5.58912e-06
-5.46609e-06 5.58912e-06 0.000173368
0.00173029 -0.000510705 4.94286e-06
-0.000510705 -0.000205614 -2.15211e-06
4.94286e-06 -2.15211e-06 -0.000148555
0.00171111 -0.00070657 6.19197e-07
-0.00070657 9.54982e-06 -7.9098e-07
6.19197e-07 -7.9098e-07 -0.000198915
0.000877973 -0.000596606 -5.05831e-07
-0.000596606 -0.000129807 -1.19831e-06
-5.05831e-07 -1.19831e-06 -0.000379585
0.00148856 -0.000258166 1.06755e-06
-0.000258166 0.000758512 -1.35793e-05
1.06755e-06 -1.35793e-05 0.000471108
0.00149268 -0.000534351 -1.93887e-06
-0.000534351 0.00105937 2.50017e-06
-1.93887e-06 2.50017e-06 0.000353795
0.00375142 -0.000553553 -4.10218e-05
-0.000553553 0.000667049 8.03511e-06
-4.10218e-05 8.03511e-06 0.000801681
0.0035518 -0.000773055 -4.91727e-05
-0.000773055 0.000998854 1.47222e-05
-4.91727e-05 1.47222e-05 0.000888943
0.00203562 -0.00080109 -8.17661e-06
-0.00080109 0.000279918 1.19813e-06
-8.17661e-06 1.19813e-06 6.56845e-05
-0.000187326 -0.00040154 -1.52496e-05
-0.00040154 -0.00047784 1.75482e-05
-1.52496e-05 1.75482e-05 -0.000660751
0.000484338 -0.000138056 1.88505e-06
-0.000138056 7.70599e-05 5.71099e-06
1.88505e-06 5.71099e-06 -9.72405e-05
0.00050005 -0.000148343 4.11971e-06
-0.000148343 0.000130249 2.6066e-07
4.11971e-06 2.6066e-07 -7.07205e-05
0.00159195 -0.000187934 -2.09402e-06
-0.000187934 0.00108325 -1.40197e-05
-2.09402e-06 -1.40197e-05 0.000529579
-0.00622845 -0.000238057 0.000395731
-0.000238057 -0.00458667 -2.13502e-06
0.000395731 -2.13502e-06 -0.00340621
0.0109449 -0.000240048 4.34605e-05
-0.000240048 0.00204306 5.22534e-06
4.34605e-05 5.22534e-06 0.00166331
0.00167869 0.000228905 7.60748e-06
0.000228905 0.00073727 -6.45229e-06
7.60748e-06 -6.45229e-06 0.000558208
0.00135792 0.000408199 -2.4972e-06
0.000408199 0.00036519 3.9821e-06
-2.4972e-06 3.9821e-06 7.56402e-05
0.00211722 0.000471465 7.76557e-05
0.000471465 0.000142021 3.43722e-05
7.76557e-05 3.43722e-05 0.000129716
0.00290303 0.000795849 2.65544e-05
0.000795849 0.000742793 9.25731e-06
2.65544e-05 9.25731e-06 0.000488784
0.00265629 0.000678369 1.69615e-05
0.000678369 0.000988262 5.54451e-06
1.69615e-05 5.54451e-06 0.00060478
0.0136364 0.000687791 7.10311e-05
0.000687791 0.00309026 -5.02249e-06
7.10311e-05 -5.02249e-06 0.00208727
0.00803939 0.00165948 -0.000193896
0.00165948 0.000123115 2.64059e-05
-0.000193896 2.64059e-05 0.000323854
0.00268604 0.000943314 4.51053e-06
0.000943314 0.000644334 -2.89182e-05
4.51053e-06 -2.89182e-05 0.000182157
0.0116728 -0.00283572 -0.000326722
-0.00283572 0.00500377 -2.16279e-05
-0.000326722 -2.16279e-05 0.00328187
-0.00249695 -0.00571367 -0.00163873
-0.00571367 0.000204054 -0.00112862
-0.00163873 -0.00112862 -0.000477309
0.000994937 0.000271948 8.99978e-07
0.000271948 0.000345948 3.57892e-07
8.99978e-07 3.57892e-07 0.000134809
-0.00230939 -0.00165128 0.000303872
-0.00165128 -0.00268712 5.34403e-05
0.000303872 5.34403e-05 -0.00372226
-0.00332579 -0.00128381 -0.00032556
-0.00128381 0.00352151 -0.000155028
-0.00032556 -0.000155028 -0.000518701
0.00303508 0.000798761 -1.72772e-05
0.000798761 0.000646545 -5.6965e-07
-1.72772e-05 -5.6965e-07 0.000577434
0.00101637 0.000347573 -5.93912e-06
0.000347573 0.000179988 4.85904e-06
-5.93912e-06 4.85904e-06 -9.48342e-05
0.00144192 0.000654401 4.10654e-06
0.000654401 0.00034142 2.34909e-06
4.10654e-06 2.34909e-06 1.01585e-06
0.00153143 0.000840205 3.85338e-05
0.000840205 0.00021222 2.20345e-05
3.85338e-05 2.20345e-05 2.44713e-05
0.0131695 0.00157827 -0.000118583
0.00157827 0.00172311 -6.68312e-05
-0.000118583 -6.68312e-05 -0.000221181
0.00537316 0.00230985 -6.59718e-05
0.00230985 0.000448205 -4.63518e-05
-6.59718e-05 -4.63518e-05 0.000338785
0.0157396 -0.00350511 0.000338434
-0.00350511 0.00637947 -2.06782e-05
0.000338434 -2.06782e-05 0.00464977
0.010907 -0.00301453 0.0001991
-0.00301453 0.000732994 0.000556995
0.0001991 0.000556995 0.000269673
0.00231955 0.000328445 -1.96614e-05
0.000328445 0.00112019 -1.22842e-05
-1.96614e-05 -1.22842e-05 0.000937904
-0.00960881 0.000856406 -0.000122752
0.000856406 0.00239211 -0.000111452
-0.000122752 -0.000111452 -0.00259057
0.00423857 0.000608675 -0.000284695
0.000608675 0.00301523 -0.000377191
-0.000284695 -0.000377191 -0.00114031
0.00241607 0.000647101 -2.62493e-05
0.000647101 0.000564599 8.47357e-06
-2.62493e-05 8.47357e-06 0.000560193
0.00191333 0.000600099 -6.40265e-05
0.000600099 0.000746482 -2.48815e-05
-6.40265e-05 -2.48815e-05 0.000449256
0.00161826 0.000650588 -6.87431e-05
0.000650588 0.00111852 -1.57017e-05
-6.87431e-05 -1.57017e-05 0.000505418
2.28908e-05 0.00143806 -6.15164e-05
0.00143806 -0.000281387 -3.43375e-05
-6.15164e-05 -3.43375e-05 -0.00046085
-0.000597199 0.00186327 0.000284123
0.00186327 -0.00159948 0.000131193
0.000284123 0.000131193 -0.00459537
0.0154766 -0.00421366 0.00023894
-0.00421366 0.00689388 0.000529608
0.00023894 0.000529608 0.0045706
0.00751891 -0.001257 -0.000111627
-0.001257 -0.00204181 -0.000110113
-0.000111627 -0.000110113 -0.000879768
-0.00042022 0.000104861 2.75636e-06
0.000104861 -0.00043449 -5.97964e-06
2.75636e-06 -5.97964e-06 -0.000555418
0.00133761 0.000224429 9.87005e-06
0.000224429 0.000585057 3.57545e-06
9.87005e-06 3.57545e-06 0.000434143
-0.000243896 8.12434e-05 1.80114e-06
8.12434e-05 -0.000304353 -1.1463e-05
1.80114e-06 -1.1463e-05 -0.000446938
0.000363924 5.14793e-05 1.88433e-06
5.14793e-05 -5.4755e-05 -8.07064e-07
1.88433e-06 -8.07064e-07 -0.000176435
0.000841679 6.65374e-05 -9.03813e-07
6.65374e-05 0.00025705 -1.6563e-06
-9.03813e-07 -1.6563e-06 9.53891e-05
0.000646345 -1.11071e-07 -1.39684e-06
-1.11071e-07 0.000137406 1.72055e-06
-1.39684e-06 1.72055e-06 -1.77936e-05
0.000616138 4.44103e-05 4.60886e-06
4.44103e-05 0.00011459 1.57425e-06
4.60886e-06 1.57425e-06 -4.00634e-05
0.000166001 6.92267e-05 -3.14855e-06
6.92267e-05 -0.000136352 1.12268e-06
-3.14855e-06 1.12268e-06 -0.000272463
0.000748845 4.62477e-05 1.12546e-07
4.62477e-05 0.000204016 -9.08634e-07
1.12546e-07 -9.08634e-07 4.51085e-05
0.000771372 6.91312e-05 6.93798e-07
6.91312e-05 0.000212532 -1.91921e-07
6.93798e-07 -1.91921e-07 6.47208e-05
0.000803357 -5.30938e-05 -8.87615e-07
-5.30938e-05 0.000220419 1.42208e-06
-8.87615e-07 1.42208e-06 6.80422e-05
-0.000428148 2.95437e-05 1.90782e-06
2.95437e-05 -0.000415852 6.93894e-07
1.90782e-06 6.93894e-07 -0.000584507
-0.00068537 3.36897e-05 -1.69037e-06
3.36897e-05 -0.000326703 3.2124e-06
-1.69037e-06 3.2124e-06 -0.000613462
0.00078986 -1.46981e-05 -4.81781e-06
-1.46981e-05 0.000251871 -6.74469e-06
-4.81781e-06 -6.74469e-06 0.000102182
0.000918505 -1.0862e-05 1.97686e-07
-1.0862e-05 0.000314668 -7.85034e-07
1.97686e-07 -7.85034e-07 0.00014078
0.000791182 -6.87101e-05 -2.57303e-07
-6.87101e-05 0.000233183 -1.03565e-06
-2.57303e-07 -1.03565e-06 7.00494e-05
0.000720337 -6.10378e-05 2.10245e-06
-6.10378e-05 0.000144204 4.16469e-06
2.10245e-06 4.16469e-06 2.11048e-05
0.000794438 -6.171e-05 9.72784e-07
-6.171e-05 0.000227494 -1.23533e-06
9.72784e-07 -1.23533e-06 6.38776e-05
0.000733963 -1.96428e-05 -1.34054e-06
-1.96428e-05 0.000172965 1.00064e-07
-1.34054e-06 1.00064e-07 4.29668e-05
-3.37639e-05 -6.08235e-05 1.46795e-06
-6.08235e-05 -0.000291365 2.72243e-06
1.46795e-06 2.72243e-06 -0.000399715
0.000399961 -2.03427e-05 1.44036e-06
-2.03427e-05 -1.30237e-05 -2.27361e-07
1.44036e-06 -2.27361e-07 -0.000147753
0.000190208 -7.88856e-06 -5.53498e-06
-7.88856e-06 -0.000118851 -4.63228e-06
-5.53498e-06 -4.63228e-06 -0.000264365
0.000112983 -6.30466e-05 2.9967e-06
-6.30466e-05 -0.000168516 -3.48683e-06
2.9967e-06 -3.48683e-06 -0.000288362
0.00098575 -8.42442e-05 5.73842e-06
-8.42442e-05 0.000245788 -1.20196e-05
5.73842e-06 -1.20196e-05 0.000146739
-0.000441016 -1.84684e-05 5.51136e-07
-1.84684e-05 -0.00062401 2.16482e-06
5.51136e-07 2.16482e-06 -0.000755556
0.000110313 -3.28669e-05 -3.84939e-06
-3.28669e-05 -0.000203672 -2.02188e-06
-3.84939e-06 -2.02188e-06 -0.000340366
0.000736256 -5.2254e-05 5.8633e-07
-5.2254e-05 0.000158723 -5.35937e-07
5.8633e-07 -5.35937e-07 2.10804e-05
0.000377924 -3.72257e-05 4.17095e-07
-3.72257e-05 -4.89535e-05 -1.26797e-07
4.17095e-07 -1.26797e-07 -0.000181684
0.000708593 -7.62217e-05 4.13743e-07
-7.62217e-05 0.000179214 4.89685e-08
4.13743e-07 4.89685e-08 3.88014e-05
0.000497834 -1.47479e-05 2.84842e-07
-1.47479e-05 1.82797e-05 1.65633e-06
2.84842e-07 1.65633e-06 -8.9387e-05
0.000866188 -6.75579e-05 -1.40388e-06
-6.75579e-05 0.000272863 3.86183e-07
-1.40388e-06 3.86183e-07 0.000136126
0.000631984 -6.76901e-05 -9.04416e-07
-6.76901e-05 0.000105079 4.62826e-08
-9.04416e-07 4.62826e-08 -5.43699e-06
0.00047011 3.47251e-05 -8.52181e-07
3.47251e-05 -2.07703e-05 3.15042e-06
-8.52181e-07 3.15042e-06 -9.16632e-05
0.000483298 -8.95996e-05 2.11226e-06
-8.95996e-05 8.75085e-06 -8.36323e-07
2.11226e-06 -8.36323e-07 -0.000104026
0.000543847 -2.49533e-05 -3.50427e-07
-2.49533e-05 2.31367e-05 9.17674e-08
-3.50427e-07 9.17674e-08 -4.48309e-05
0.00141644 9.42983e-06 -6.22255e-06
9.42983e-06 0.000534981 6.49299e-06
-6.22255e-06 6.49299e-06 0.000517211
0.000528782 -4.71051e-05 1.52181e-06
-4.71051e-05 2.12737e-05 -2.8196e-06
1.52181e-06 -2.8196e-06 -4.90429e-05
0.000899662 -7.56642e-06 -4.38444e-06
-7.56642e-06 0.000222252 7.29581e-07
-4.38444e-06 7.29581e-07 0.000203322
0.000756284 1.36305e-05 6.59205e-07
1.36305e-05 0.000122049 2.08317e-06
6.59205e-07 2.08317e-06 0.000127349
0.000469327 -6.44897e-06 1.74757e-06
-6.44897e-06 -3.93923e-05 -4.2438e-06
1.74757e-06 -4.2438e-06 -5.95652e-05
0.00248534 1.38354e-05 5.99448e-06
1.38354e-05 0.00119015 4.91973e-08
5.99448e-06 4.91973e-08 0.00120378
0.00249149 2.20178e-06 -3.58664e-07
2.20178e-06 0.00119382 -5.08813e-06
-3.58664e-07 -5.08813e-06 0.00120746
0.000995485 7.46304e-05 -4.28098e-07
7.46304e-05 0.000330549 -3.94176e-08
-4.28098e-07 -3.94176e-08 0.00023794
0.00053632 5.19019e-05 -1.3225e-06
5.19019e-05 1.87743e-05 -2.13203e-06
-1.3225e-06 -2.13203e-06 -2.80513e-05
0.000578153 -1.31042e-05 3.02026e-07
-1.31042e-05 7.96295e-05 8.57842e-07
3.02026e-07 8.57842e-07 -1.19009e-05
0.000526022 5.10539e-06 8.9263e-07
5.10539e-06 -2.4975e-05 -3.19727e-06
8.9263e-07 -3.19727e-06 -3.26935e-05
0.000512934 -1.47691e-05 4.67605e-07
-1.47691e-05 4.58865e-07 -8.77059e-08
4.67605e-07 -8.77059e-08 -4.23147e-05
0.000563079 -4.96274e-05 -1.60069e-06
-4.96274e-05 3.14357e-05 1.36e-06
-1.60069e-06 1.36e-06 -1.37796e-05
0.000517561 7.45298e-06 -3.7484e-07
7.45298e-06 -3.05411e-05 -2.67523e-08
-3.7484e-07 -2.67523e-08 -3.83439e-05
0.00197119 1.87825e-05 9.96924e-07
1.87825e-05 0.000870484 -4.59799e-06
9.96924e-07 -4.59799e-06 0.000888561
0.00109281 2.21009e-05 -8.02266e-07
2.21009e-05 0.000324597 1.79074e-06
-8.02266e-07 1.79074e-06 0.000319426
0.00133279 2.68546e-05 -3.60141e-07
2.68546e-05 0.000477486 -1.82469e-08
-3.60141e-07 -1.82469e-08 0.000491297
0.000818823 3.1957e-05 -1.06923e-05
3.1957e-05 0.000164959 6.98625e-06
-1.06923e-05 6.98625e-06 0.000173103
-0.00933108 0.000813297 0.000340362
0.000813297 -0.00362494 -6.16547e-06
0.000340362 -6.16547e-06 -0.00559408
-0.00221369 -9.6893e-05 0.000653939
-9.6893e-05 0.00440067 -0.000155485
0.000653939 -0.000155485 0.00154935
0.00355046 0.000268592 -0.000195654
0.000268592 -0.00104559 -2.6195e-05
-0.000195654 -2.6195e-05 8.82809e-05
0.000946152 4.91046e-05 2.1577e-05
4.91046e-05 -0.00115776 -3.56094e-05
2.1577e-05 -3.56094e-05 -0.000862718
0.00158586 -5.53913e-05 9.94815e-06
-5.53913e-05 -0.000225985 8.73527e-06
9.94815e-06 8.73527e-06 -0.000211304
-0.00082679 5.54062e-05 -6.08069e-05
5.54062e-05 -0.00113628 -1.80531e-05
-6.08069e-05 -1.80531e-05 -0.000539163
0.00358091 -0.000258367 4.10069e-07
-0.000258367 0.000528558 4.72314e-06
4.10069e-07 4.72314e-06 0.000570312
0.0109461 6.70173e-06 0.000129464
6.70173e-06 0.000228705 -4.76699e-05
0.000129464 -4.76699e-05 -0.000724114
-0.000840485 0.00240062 -8.33764e-06
0.00240062 0.000197955 -4.38469e-05
-8.33764e-06 -4.38469e-05 -0.00230625
0.00557118 0.00475057 -0.00033313
0.00475057 0.00447208 0.000179221
-0.00033313 0.000179221 0.00371683
0.00226498 -0.000505753 6.79715e-05
-0.000505753 -0.00130015 -3.70054e-05
6.79715e-05 -3.70054e-05 -0.000645309
0.0144396 -0.00136452 0.000170562
-0.00136452 0.00245487 -6.14176e-05
0.000170562 -6.14176e-05 0.000830359
0.00954397 0.00457418 0.000309099
0.00457418 0.00234337 -0.000454207
0.000309099 -0.000454207 0.000952337
0.0136251 0.00301052 -0.000298466
0.00301052 0.00331923 0.000214864
-0.000298466 0.000214864 0.00225157
0.000801976 0.000126932 -1.98921e-06
0.000126932 0.000252075 2.97817e-06
-1.98921e-06 2.97817e-06 0.000103111
0.000410074 2.80855e-05 8.87122e-08
2.80855e-05 -2.38088e-05 -8.81466e-07
8.87122e-08 -8.81466e-07 -0.000120885
0.00059543 -9.33742e-05 -2.59052e-07
-9.33742e-05 9.35725e-05 6.53632e-07
-2.59052e-07 6.53632e-07 2.26853e-06
0.000582861 -1.25985e-06 2.78587e-06
-1.25985e-06 9.20019e-05 -1.14827e-06
2.78587e-06 -1.14827e-06 -1.75357e-05
0.000625712 6.03146e-05 1.59249e-06
6.03146e-05 0.000144687 1.23849e-06
1.59249e-06 1.23849e-06 2.15985e-05
0.000630797 2.56336e-05 9.25258e-07
2.56336e-05 0.000142172 5.7201e-06
9.25258e-07 5.7201e-06 -6.20249e-06
0.000729121 9.32767e-05 1.19501e-06
9.32767e-05 0.000179084 2.40774e-06
1.19501e-06 2.40774e-06 5.27624e-05
0.000527522 4.41324e-05 5.0473e-06
4.41324e-05 3.98969e-05 9.65446e-07
5.0473e-06 9.65446e-07 -8.87993e-05
0.000727654 -3.36761e-05 2.25367e-06
-3.36761e-05 0.000193382 -1.08012e-06
2.25367e-06 -1.08012e-06 6.75759e-05
0.000489087 -7.66066e-06 3.57677e-08
-7.66066e-06 1.63306e-05 -1.38809e-06
3.57677e-08 -1.38809e-06 -8.30942e-05
0.0015847 -0.000290784 2.36733e-05
-0.000290784 -0.000339553 -1.57588e-06
2.36733e-05 -1.57588e-06 -0.000157835
0.00108062 -0.000470562 3.59107e-05
-0.000470562 -0.000566808 -8.8659e-06
3.59107e-05 -8.8659e-06 -0.000482886
0.000607153 -0.000580163 1.32298e-05
-0.000580163 -0.000599096 -1.16325e-06
1.32298e-05 -1.16325e-06 -0.000737859
-6.44516e-05 -0.000508525 5.68305e-06
-0.000508525 -0.000639951 1.49843e-06
5.68305e-06 1.49843e-06 -0.000874398
0.00308712 -0.000526585 6.15115e-06
-0.000526585 0.00185834 2.50831e-05
6.15115e-06 2.50831e-05 0.00126454
0.000404336 -0.000358262 6.02217e-06
-0.000358262 9.66092e-05 -3.35392e-06
6.02217e-06 -3.35392e-06 -0.000246422
0.00144793 -0.000180186 1.59032e-06
-0.000180186 0.000590103 -1.09861e-06
1.59032e-06 -1.09861e-06 0.000472021
0.000850766 -3.64481e-05 -2.66812e-06
-3.64481e-05 0.000280754 2.42594e-06
-2.66812e-06 2.42594e-06 0.000154872
0.0022272 -0.000437875 1.32374e-05
-0.000437875 -9.15364e-05 -6.8595e-06
1.32374e-05 -6.8595e-06 7.30342e-05
0.000513381 -6.39353e-05 1.70898e-08
-6.39353e-05 9.90079e-05 3.57455e-07
1.70898e-08 3.57455e-07 -8.53237e-05
-9.21097e-05 -0.00013433 5.63893e-07
-0.00013433 -0.000215208 -3.27245e-06
5.63893e-07 -3.27245e-06 -0.00041675
0.00197517 -0.000649557 1.22321e-05
-0.000649557 0.000129884 -1.79124e-06
1.22321e-05 -1.79124e-06 7.91486e-05
0.00179219 -0.000798205 2.88331e-08
-0.000798205 6.64114e-05 4.2486e-06
2.88331e-08 4.2486e-06 -9.08045e-05
0.000197417 -0.000508698 1.47055e-05
-0.000508698 -0.000247056 -9.03858e-06
1.47055e-05 -9.03858e-06 -0.00048981
0.00136505 -0.000258879 2.58295e-07
-0.000258879 0.000937978 -1.12749e-05
2.58295e-07 -1.12749e-05 0.000394439
0.00255006 -0.000692843 -6.32829e-05
-0.000692843 0.000544446 2.09656e-05
-6.32829e-05 2.09656e-05 0.000230415
0.00146068 -0.00062029 -4.4139e-05
-0.00062029 6.50604e-05 1.35343e-05
-4.4139e-05 1.35343e-05 4.51754e-06
0.00115367 -0.000512495 -6.99551e-05
-0.000512495 0.000578121 4.46182e-05
-6.99551e-05 4.46182e-05 0.000215033
-0.00172658 -0.000133592 -1.37059e-06
-0.000133592 -0.00123878 7.48106e-06
-1.37059e-06 7.48106e-06 -0.00142636
-0.000224942 -0.000107553 4.51572e-06
-0.000107553 -0.0002895 5.46577e-06
4.51572e-06 5.46577e-06 -0.000513741
0.00068848 -5.81842e-05 7.78904e-06
-5.81842e-05 0.000348789 -3.78968e-06
7.78904e-06 -3.78968e-06 2.29303e-05
-0.0015488 0.000823365 -0.000286397
0.000823365 0.00589186 1.45238e-05
-0.000286397 1.45238e-05 0.00234749
0.00100127 -0.000998584 -1.45572e-07
-0.000998584 0.00177508 2.30375e-05
-1.45572e-07 2.30375e-05 0.00149485
0.00162952 0.000989874 -8.4704e-05
0.000989874 -0.00434406 -3.4305e-05
-8.4704e-05 -3.4305e-05 -0.00465108
0.000206413 0.000200715 7.63997e-06
0.000200715 -0.000105067 -2.80967e-06
7.63997e-06 -2.80967e-06 -0.000308352
0.0012445 0.000443007 8.94281e-06
0.000443007 0.000343763 1.72322e-05
8.94281e-06 1.72322e-05 2.91436e-05
0.00386688 0.000756292 5.6638e-05
0.000756292 0.00110298 1.61273e-05
5.6638e-05 1.61273e-05 0.00103111
0.00164811 0.000698544 2.0582e-05
0.000698544 0.000463014 2.09081e-05
2.0582e-05 2.09081e-05 0.000101704
0.0103386 -0.00188948 0.000135522
-0.00188948 0.00349409 4.17857e-05
0.000135522 4.17857e-05 0.00337053
0.00383109 0.000696706 -0.000296953
0.000696706 -0.00316721 -3.40082e-05
-0.000296953 -3.40082e-05 -0.00510505
0.00438598 0.00213667 -2.21421e-05
0.00213667 -7.86867e-05 1.14088e-05
-2.21421e-05 1.14088e-05 -7.20412e-05
0.00245702 0.000724534 3.94869e-05
0.000724534 0.000949024 -2.61296e-05
3.94869e-05 -2.61296e-05 0.000805408
0.0003036 -0.00231103 -0.000302385
-0.00231103 0.00102723 -0.000281328
-0.000302385 -0.000281328 -0.000934922
-0.00080197 -0.00203956 -0.000381377
-0.00203956 0.00375081 -0.00013073
-0.000381377 -0.00013073 -0.000366471
0.0170977 -0.00378046 0.000455386
-0.00378046 0.00397562 0.000280604
0.000455386 0.000280604 0.00353017
0.000582874 0.000198876 1.29002e-05
0.000198876 0.000115354 -3.54919e-06
1.29002e-05 -3.54919e-06 -6.43467e-05
-0.00369537 0.000322552 -0.000145963
0.000322552 0.00408792 -3.23826e-05
-0.000145963 -3.23826e-05 -9.18019e-05
0.00469542 0.000757832 -6.21436e-05
0.000757832 0.00268814 -0.000135223
-6.21436e-05 -0.000135223 -0.00176553
0.00170001 0.000642693 2.3061e-06
0.000642693 0.000265385 5.44149e-06
2.3061e-06 5.44149e-06 0.000202296
0.000475109 0.000445358 8.9948e-06
0.000445358 4.56959e-05 3.74858e-06
8.9948e-06 3.74858e-06 -0.000263968
2.78986e-05 0.000636579 -1.98926e-05
0.000636579 9.52574e-05 -5.25439e-05
-1.98926e-05 -5.25439e-05 -0.000365254
0.00356254 0.00219226 4.54239e-06
0.00219226 0.00108621 1.23285e-05
4.54239e-06 1.23285e-05 0.000757968
0.015979 0.00250226 7.83441e-05
0.00250226 0.00455637 2.39574e-05
7.83441e-05 2.39574e-05 0.00244984
0.00608244 -0.00267477 6.72995e-05
-0.00267477 0.0013494 -6.5755e-05
6.72995e-05 -6.5755e-05 -0.00143861
0.0130044 -0.00193959 -3.1411e-06
-0.00193959 0.0017763 -5.88483e-05
-3.1411e-06 -5.88483e-05 0.00309084
0.000213319 0.00027977 -6.07874e-06
0.00027977 -5.23059e-05 -1.34041e-05
-6.07874e-06 -1.34041e-05 -0.000250971
0.00237374 0.000170658 -0.000238054
0.000170658 0.00162831 -4.92103e-05
-0.000238054 -4.92103e-05 -0.00178873
0.000315669 0.000382295 -6.67186e-05
0.000382295 -0.000153431 -0.000144662
-6.67186e-05 -0.000144662 -0.00167717
-0.000958844 0.000192369 -7.1744e-07
0.000192369 -0.000379294 -2.36423e-05
-7.1744e-07 -2.36423e-05 -0.000585974
-0.000100955 0.00039093 -0.000102342
0.00039093 0.00107361 1.26812e-05
-0.000102342 1.26812e-05 0.000266585
0.0128176 0.00310498 6.80477e-05
0.00310498 0.00448762 -1.52051e-05
6.80477e-05 -1.52051e-05 0.000759356
-0.00451588 -0.00378815 -1.41193e-05
-0.00378815 -0.00155219 0.000212044
-1.41193e-05 0.000212044 -0.00519098
0.0104255 0.000558343 4.53983e-05
0.000558343 -0.00142399 -0.000270517
4.53983e-05 -0.000270517 0.00114875
0.000941102 0.000172101 -1.40155e-06
0.000172101 0.000322477 1.31185e-05
-1.40155e-06 1.31185e-05 0.000186005
0.000912798 0.000194695 -9.14829e-06
0.000194695 0.000397292 -2.50395e-06
-9.14829e-06 -2.50395e-06 0.000233151
7.16819e-05 0.000113655 2.7651e-06
0.000113655 8.18203e-05 -5.32697e-06
2.7651e-06 -5.32697e-06 -0.000180168
0.000718925 8.31835e-05 -1.82693e-06
8.31835e-05 0.000171877 -2.00548e-06
-1.82693e-06 -2.00548e-06 2.28237e-05
0.000979138 -3.80754e-05 -7.91692e-07
-3.80754e-05 0.000333291 2.90273e-06
-7.91692e-07 2.90273e-06 0.000174273
0.000575631 6.6008e-05 2.7421e-06
6.6008e-05 8.42659e-05 1.84232e-06
2.7421e-06 1.84232e-06 -5.6672e-05
-0.000878456 1.37397e-05 2.49161e-06
1.37397e-05 -0.00066089 2.14556e-06
2.49161e-06 2.14556e-06 -0.000832618
0.000776042 -2.24132e-05 1.18755e-06
-2.24132e-05 0.00020532 1.59253e-07
1.18755e-06 1.59253e-07 4.87592e-05
0.000694833 1.62478e-05 -8.51928e-08
1.62478e-05 0.000198018 -2.11361e-06
-8.51928e-08 -2.11361e-06 4.43949e-05
-0.000196233 -5.60772e-06 6.44534e-07
-5.60772e-06 -3.15501e-05 2.53606e-06
6.44534e-07 2.53606e-06 -0.000321245
-0.000800284 2.6378e-05 -2.3296e-06
2.6378e-05 -0.000157749 6.85972e-06
-2.3296e-06 6.85972e-06 -0.000590821
6.03611e-05 7.04035e-06 -2.5831e-06
7.04035e-06 0.000140861 -3.52033e-06
-2.5831e-06 -3.52033e-06 -0.000164356
0.000802568 1.81694e-05 -1.3318e-06
1.81694e-05 0.000240194 -5.75464e-06
-1.3318e-06 -5.75464e-06 9.51699e-05
0.000826601 -0.00013159 1.26986e-06
-0.00013159 0.000232261 1.11048e-06
1.26986e-06 1.11048e-06 7.79127e-05
0.000608652 -8.92631e-06 -3.21154e-07
-8.92631e-06 8.71144e-05 1.1458e-06
-3.21154e-07 1.1458e-06 -3.81082e-05
0.000555155 -8.60047e-05 6.6035e-07
-8.60047e-05 7.65345e-05 8.61845e-06
6.6035e-07 8.61845e-06 -2.5498e-05
0.000342088 -3.40754e-05 2.06034e-06
-3.40754e-05 -4.23418e-05 2.89538e-06
2.06034e-06 2.89538e-06 -0.000176509
0.000647036 -2.90622e-05 5.52e-07
-2.90622e-05 0.00013352 1.97692e-07
5.52e-07 1.97692e-07 -7.12948e-07
0.000526889 -4.22918e-05 -8.54559e-09
-4.22918e-05 7.70714e-05 -1.5568e-06
-8.54559e-09 -1.5568e-06 -4.06057e-05
0.000672267 -4.63852e-05 -4.63142e-06
-4.63852e-05 0.000142949 -4.9829e-06
-4.63142e-06 -4.9829e-06 2.40542e-05
0.000303347 -5.16618e-05 5.80464e-06
-5.16618e-05 6.42016e-05 -6.60208e-06
5.80464e-06 -6.60208e-06 -8.06105e-05
0.000109995 -0.000125063 3.46763e-07
-0.000125063 -0.000358027 1.35341e-06
3.46763e-07 1.35341e-06 -0.000450684
0.000811521 -0.000120602 -7.00293e-06
-0.000120602 0.000156597 -6.65436e-07
-7.00293e-06 -6.65436e-07 4.90716e-05
0.000283175 -0.000131834 6.35607e-06
-0.000131834 -0.000160824 4.49335e-06
6.35607e-06 4.49335e-06 -0.000306343
0.00200283 -0.000419788 1.72316e-06
-0.000419788 0.000782811 1.44134e-05
1.72316e-06 1.44134e-05 0.000508015
0.00170952 -0.000190346 2.10114e-06
-0.000190346 0.00075008 -4.12438e-06
2.10114e-06 -4.12438e-06 0.00057391
-0.000131144 -6.06183e-05 -7.45076e-06
-6.06183e-05 -0.000395473 -4.33578e-06
-7.45076e-06 -4.33578e-06 -0.000525546
0.000566168 -5.2902e-05 -4.20434e-08
-5.2902e-05 5.16896e-05 1.21529e-07
-4.20434e-08 1.21529e-07 -8.45244e-05
7.62701e-05 -3.69533e-05 -5.2871e-07
-3.69533e-05 -0.000227578 -1.11441e-06
-5.2871e-07 -1.11441e-06 -0.000369853
0.000866602 -7.70737e-05 -1.21006e-06
-7.70737e-05 0.000233001 1.11249e-06
-1.21006e-06 1.11249e-06 9.41836e-05
0.000770993 -9.27495e-05 -7.8312e-07
-9.27495e-05 0.000203888 5.40335e-07
-7.8312e-07 5.40335e-07 5.81471e-05
0.00059315 -4.88968e-05 -2.93999e-07
-4.88968e-05 6.35348e-05 1.56741e-06
-2.93999e-07 1.56741e-06 -4.46398e-05
0.00115136 -0.0001285 -6.01957e-07
-0.0001285 0.000468187 -1.09035e-06
-6.01957e-07 -1.09035e-06 0.000308331
0.000656503 -8.29965e-05 -4.8458e-07
-8.29965e-05 0.000116301 -3.9717e-08
-4.8458e-07 -3.9717e-08 4.22008e-06
0.000522691 1.6602e-05 -2.20609e-06
1.6602e-05 8.66193e-06 2.68488e-06
-2.20609e-06 2.68488e-06 -6.31428e-05
0.000718608 -0.00011365 1.70445e-06
-0.00011365 0.00015977 -1.90129e-06
1.70445e-06 -1.90129e-06 4.51153e-05
0.000601855 -3.92736e-05 -2.30732e-07
-3.92736e-05 5.55021e-05 1.32113e-07
-2.30732e-07 1.32113e-07 -1.40626e-05
0.00143138 1.47339e-05 -1.07236e-05
1.47339e-05 0.000540783 6.71063e-06
-1.07236e-05 6.71063e-06 0.000521552
0.000559441 -5.51734e-05 2.4077e-06
-5.51734e-05 3.8393e-05 -2.983e-06
2.4077e-06 -2.983e-06 -3.34397e-05
0.000906186 -1.2512e-06 -5.40486e-06
-1.2512e-06 0.000221627 6.64729e-07
-5.40486e-06 6.64729e-07 0.000201407
0.000779053 2.28015e-05 6.62164e-07
2.28015e-05 0.000134879 2.50772e-06
6.62164e-07 2.50772e-06 0.000138224
0.00047626 -1.37255e-05 1.39759e-06
-1.37255e-05 -3.94767e-05 -4.46805e-06
1.39759e-06 -4.46805e-06 -6.03985e-05
0.00162057 2.31182e-05 7.97664e-06
2.31182e-05 0.000656648 -1.47892e-06
7.97664e-06 -1.47892e-06 0.000665971
0.00246156 1.51092e-05 7.04101e-06
1.51092e-05 0.00117513 -5.08757e-06
7.04101e-06 -5.08757e-06 0.00118879
0.000607861 3.37433e-05 2.07133e-06
3.37433e-05 7.74427e-05 -1.00541e-06
2.07133e-06 -1.00541e-06 -1.72965e-05
0.000607142 5.01883e-05 -7.02792e-07
5.01883e-05 5.7984e-05 -1.87677e-06
-7.02792e-07 -1.87677e-06 8.782e-06
0.000633007 -1.30582e-06 1.18114e-06
-1.30582e-06 0.000104253 5.31152e-07
1.18114e-06 5.31152e-07 1.37113e-05
0.000512398 7.49084e-07 1.31114e-06
7.49084e-07 -3.22531e-05 -3.5179e-06
1.31114e-06 -3.5179e-06 -4.07211e-05
0.000528788 4.17912e-05 1.2303e-07
4.17912e-05 1.06622e-05 -7.92669e-08
1.2303e-07 -7.92669e-08 -3.4072e-05
0.000570717 -0.000104389 -3.59702e-06
-0.000104389 6.85993e-05 8.41741e-07
-3.59702e-06 8.41741e-07 -1.77339e-05
0.00198661 5.4084e-06 -3.99598e-06
5.4084e-06 0.000878304 -4.69874e-06
-3.99598e-06 -4.69874e-06 0.00089694
0.000507724 3.95721e-06 -2.27248e-07
3.95721e-06 -3.5676e-05 1.4641e-08
-2.27248e-07 1.4641e-08 -4.3407e-05
0.000534634 -1.80465e-05 -2.02821e-06
-1.80465e-05 1.18229e-05 1.62504e-06
-2.02821e-06 1.62504e-06 -2.9823e-05
0.000498065 6.60115e-06 -1.23539e-06
6.60115e-06 -4.2837e-05 3.07345e-06
-1.23539e-06 3.07345e-06 -5.05652e-05
0.00199816 2.02678e-05 -4.7455e-06
2.02678e-05 0.000887301 -7.73259e-08
-4.7455e-06 -7.73259e-08 0.000905211
0.00195703 3.32149e-05 -7.34204e-06
3.32149e-05 0.000864226 4.33821e-06
-7.34204e-06 4.33821e-06 0.000881449
-0.0062701 -0.00112906 -0.00012393
-0.00112906 0.00383038 4.2474e-05
-0.00012393 4.2474e-05 0.000405576
0.000774952 0.000909515 -0.000179262
0.000909515 3.09503e-05 5.05335e-05
-0.000179262 5.05335e-05 -0.00127089
0.0029588 -0.000770813 -0.00048348
-0.000770813 0.00117285 0.000224007
-0.00048348 0.000224007 -0.00299957
-0.00239631 0.000165603 0.000778497
0.000165603 0.00438909 -0.000284401
0.000778497 -0.000284401 0.00131766
0.00100131 0.000407598 -1.53087e-05
0.000407598 -0.00133785 -2.56591e-05
-1.53087e-05 -2.56591e-05 -0.000790955
0.00241935 -0.000321574 9.0121e-05
-0.000321574 -0.000234623 3.72255e-06
9.0121e-05 3.72255e-06 -0.000188932
0.000634075 -0.000364059 0.00017591
-0.000364059 -0.00369435 -6.84573e-05
0.00017591 -6.84573e-05 -0.00563626
0.0159986 0.00222018 -0.00044991
0.00222018 0.00733408 3.53904e-05
-0.00044991 3.53904e-05 0.00544877
-0.00203008 0.00546761 -0.00156359
0.00546761 9.87334e-05 0.0011167
-0.00156359 0.0011167 -0.000516216
0.00375744 -0.000384243 9.83715e-06
-0.000384243 -0.000364315 7.93225e-06
9.83715e-06 7.93225e-06 7.57393e-06
0.00821649 -0.0013355 0.000109212
-0.0013355 -0.000519477 -9.74679e-05
0.000109212 -9.74679e-05 -0.00287198
0.017588 0.00395687 -0.000212946
0.00395687 0.00518744 -9.75979e-05
-0.000212946 -9.75979e-05 0.00395871
0.00983702 0.0031113 -7.22848e-05
0.0031113 0.000763164 0.000300738
-7.22848e-05 0.000300738 -0.0005223
0.0016811 -0.00117676 -9.14763e-05
-0.00117676 -0.00232128 1.63753e-05
-9.14763e-05 1.63753e-05 -0.00167502
0.00395287 -0.00221466 0.000288092
-0.00221466 -0.00023632 -0.000192531
0.000288092 -0.000192531 -0.00410321
0.000373236 0.0025379 2.97526e-05
0.0025379 -0.00156229 -0.000593395
2.97526e-05 -0.000593395 -0.0036717
0.00718529 0.00116371 -0.000180215
0.00116371 -0.00277415 2.1108e-06
-0.000180215 2.1108e-06 -0.00153406
0.00159273 -6.55063e-05 2.38276e-06
-6.55063e-05 0.000779299 1.03781e-05
2.38276e-06 1.03781e-05 0.000575835
0.000577273 0.00010921 -1.77994e-06
0.00010921 0.00010106 -2.04249e-06
-1.77994e-06 -2.04249e-06 -3.18308e-05
0.000558319 8.82173e-05 2.19158e-07
8.82173e-05 5.98027e-05 -1.93515e-06
2.19158e-07 -1.93515e-06 -3.25064e-05
0.000532161 4.36357e-05 4.85682e-06
4.36357e-05 8.88046e-05 -3.04812e-08
4.85682e-06 -3.04812e-08 -3.10101e-05
0.00052235 7.53108e-05 3.59064e-06
7.53108e-05 5.94345e-05 2.58819e-06
3.59064e-06 2.58819e-06 -0.000107875
0.000600991 4.94323e-05 -8.79964e-08
4.94323e-05 0.000119215 1.98128e-06
-8.79964e-08 1.98128e-06 -2.00541e-05
0.000497399 4.42325e-05 3.52518e-07
4.42325e-05 3.93405e-05 -1.48334e-06
3.52518e-07 -1.48334e-06 -8.52754e-05
0.000878971 0.000154491 2.75013e-06
0.000154491 0.000280904 3.59002e-06
2.75013e-06 3.59002e-06 0.000124857
0.000842086 0.000109253 1.36137e-08
0.000109253 0.0002636 3.24938e-07
1.36137e-08 3.24938e-07 0.000112957
0.000412746 -1.44096e-05 -4.66158e-06
-1.44096e-05 -7.78525e-06 -3.7907e-06
-4.66158e-06 -3.7907e-06 -0.00012952
0.000572434 -0.000341288 6.22141e-05
-0.000341288 -0.000951375 -2.47225e-05
6.22141e-05 -2.47225e-05 -0.00076411
0.000488082 -0.000549591 3.42082e-05
-0.000549591 -0.000690759 -1.11163e-05
3.42082e-05 -1.11163e-05 -0.000707251
0.00149763 -0.000775129 7.48215e-06
-0.000775129 -0.000130745 5.71271e-06
7.48215e-06 5.71271e-06 -0.000244846
-0.000426804 -0.000511493 9.57564e-06
-0.000511493 -0.00057898 -1.41689e-05
9.57564e-06 -1.41689e-05 -0.000884816
0.00274506 -0.000324589 -1.02e-05
-0.000324589 0.00160973 4.15245e-05
-1.02e-05 4.15245e-05 0.00117601
0.000712072 -0.000131327 -2.87764e-06
-0.000131327 0.000276668 2.9007e-06
-2.87764e-06 2.9007e-06 6.39236e-05
0.000461524 9.81986e-05 -2.02093e-06
9.81986e-05 6.88985e-05 -1.02096e-05
-2.02093e-06 -1.02096e-05 -0.000118794
0.000623418 -9.35776e-05 -1.54618e-06
-9.35776e-05 0.000185859 7.06523e-06
-1.54618e-06 7.06523e-06 -3.32827e-05
0.00149756 -0.000575823 7.03222e-07
-0.000575823 -0.000149247 -4.46224e-06
7.03222e-07 -4.46224e-06 -0.000265474
0.000665574 -3.93554e-05 5.50483e-07
-3.93554e-05 0.000210542 3.62533e-06
5.50483e-07 3.62533e-06 -2.19342e-07
0.00179294 -0.000212971 3.68827e-07
-0.000212971 0.00100382 -1.20827e-06
3.68827e-07 -1.20827e-06 0.000664018
0.00144292 -0.000626836 1.42928e-06
-0.000626836 3.16913e-05 4.03991e-06
1.42928e-06 4.03991e-06 -1.5758e-05
0.000775216 -0.000534821 -1.81403e-05
-0.000534821 0.000297337 6.44754e-06
-1.81403e-05 6.44754e-06 -4.70372e-05
0.00290853 -0.00110517 2.21162e-05
-0.00110517 0.000548688 -1.98868e-05
2.21162e-05 -1.98868e-05 0.000500647
-0.000339424 -0.000402294 -1.36683e-05
-0.000402294 -0.000492886 1.99175e-05
-1.36683e-05 1.99175e-05 -0.000576199
-0.000720382 -5.65456e-05 6.66689e-06
-5.65456e-05 -0.000296915 8.32051e-06
6.66689e-06 8.32051e-06 -0.000745735
0.000641122 1.0895e-05 -1.62294e-06
1.0895e-05 0.000157483 -9.48829e-07
-1.62294e-06 -9.48829e-07 -2.71195e-05
0.0010544 2.94038e-05 8.02015e-06
2.94038e-05 0.000539027 -5.93237e-06
8.02015e-06 -5.93237e-06 0.000278803
0.0014323 4.02109e-05 -2.44278e-05
4.02109e-05 0.00165418 -1.19971e-05
-2.44278e-05 -1.19971e-05 -0.00150894
-0.00504908 0.000294144 -0.000244759
0.000294144 0.00517186 -1.21562e-05
-0.000244759 -1.21562e-05 0.00114441
-0.0120922 -0.00156487 -0.000497893
-0.00156487 -0.00577454 -1.86511e-05
-0.000497893 -1.86511e-05 -0.00578001
-0.000667044 0.000132251 7.92411e-06
0.000132251 -0.000590936 -9.06403e-07
7.92411e-06 -9.06403e-07 -0.000785128
-0.000507502 0.000357787 -1.5302e-06
0.000357787 -0.000425518 1.11723e-05
-1.5302e-06 1.11723e-05 -0.000750443
0.00147747 0.000717648 3.08464e-05
0.000717648 0.000147195 1.40753e-05
3.08464e-05 1.40753e-05 5.97329e-05
-0.00517081 0.00126539 2.13846e-05
0.00126539 0.00413829 4.188e-05
2.13846e-05 4.188e-05 0.000378856
0.00385785 0.00210063 -0.000177277
0.00210063 2.94213e-05 -0.000138648
-0.000177277 -0.000138648 -0.00376595
0.00223811 0.00158967 0.000297975
0.00158967 0.000514747 9.20071e-05
0.000297975 9.20071e-05 0.000326708
-0.000306653 0.000615548 1.11291e-05
0.000615548 -0.000267466 -3.78528e-05
1.11291e-05 -3.78528e-05 -0.000421836
0.0192637 -0.00277787 -0.000116337
-0.00277787 0.00598785 -0.000247537
-0.000116337 -0.000247537 0.00416214
0.00512847 0.000918102 0.000335877
0.000918102 0.00263945 0.00012536
0.000335877 0.00012536 -0.0021285
0.0127395 -0.001697 0.000111461
-0.001697 0.00194905 2.88161e-05
0.000111461 2.88161e-05 0.00333109
0.000866246 0.000342885 3.90471e-06
0.000342885 0.000391122 -2.25324e-06
3.90471e-06 -2.25324e-06 0.000179536
0.00376751 0.000315218 4.80158e-06
0.000315218 0.00240888 1.38247e-05
4.80158e-06 1.38247e-05 -0.000155646
0.00104788 0.000380584 4.1991e-05
0.000380584 5.88376e-06 8.49086e-06
4.1991e-05 8.49086e-06 -0.00156658
-0.000619524 0.000347211 -1.98927e-06
0.000347211 -0.000302987 -2.81128e-06
-1.98927e-06 -2.81128e-06 -0.000565917
0.00095368 0.0008675 -9.45116e-05
0.0008675 0.00106608 -4.31234e-05
-9.45116e-05 -4.31234e-05 -7.46499e-05
0.00167931 0.00301797 0.000134185
0.00301797 0.000683576 8.3073e-05
0.000134185 8.3073e-05 -0.00320057
0.00811593 0.000180921 -1.29037e-05
0.000180921 -0.00325203 -0.000181725
-1.29037e-05 -0.000181725 -0.000378024
0.00389559 -0.00214313 -5.45355e-05
-0.00214313 0.00207473 -0.000114396
-5.45355e-05 -0.000114396 -0.00137945
0.00112247 0.000282547 -3.78863e-06
0.000282547 0.000794699 -1.80177e-05
-3.78863e-06 -1.80177e-05 0.000543164
-0.0016505 5.02932e-05 5.61752e-06
5.02932e-05 -0.000155431 4.77654e-06
5.61752e-06 4.77654e-06 -0.000165735
0.00374226 -9.70444e-06 6.63165e-05
-9.70444e-06 -0.000197706 -0.000137383
6.63165e-05 -0.000137383 -0.00119834
0.00721579 0.00123543 0.000186504
0.00123543 -0.00255481 -1.40094e-05
0.000186504 -1.40094e-05 -0.00144524
-0.00175631 0.000105783 1.45566e-05
0.000105783 -7.80905e-05 -3.17638e-05
1.45566e-05 -3.17638e-05 -0.000771757
0.012159 0.00244284 0.000204682
0.00244284 0.0055053 5.67574e-05
0.000204682 5.67574e-05 0.00092656
-0.00422013 -0.000453327 8.57566e-05
-0.000453327 0.00109935 0.000335912
8.57566e-05 0.000335912 -0.00175026
0.00266412 0.000358533 2.17846e-05
0.000358533 0.00146682 1.69999e-05
2.17846e-05 1.69999e-05 0.00126765
0.000645236 0.000189197 -5.3876e-06
0.000189197 0.000437202 -1.72005e-06
-5.3876e-06 -1.72005e-06 0.000143621
-0.000134023 8.40813e-05 2.13136e-06
8.40813e-05 0.000210641 2.56153e-06
2.13136e-06 2.56153e-06 -0.000145656
0.000674792 0.000150488 8.89824e-07
0.000150488 0.00015901 8.29886e-07
8.89824e-07 8.29886e-07 -4.71885e-06
0.000420128 5.14108e-05 2.08234e-06
5.14108e-05 2.403e-05 2.1173e-06
2.08234e-06 2.1173e-06 -0.000124435
0.000744225 -8.51842e-06 9.60947e-06
-8.51842e-06 0.000540209 5.69567e-07
9.60947e-06 5.69567e-07 0.000237777
0.000511771 3.29219e-05 2.20837e-07
3.29219e-05 5.67071e-05 -6.44108e-07
2.20837e-07 -6.44108e-07 -7.9346e-05
0.000756247 -1.86868e-05 -2.84326e-06
-1.86868e-05 0.000537275 -2.41307e-06
-2.84326e-06 -2.41307e-06 0.000243686
0.000101426 3.95035e-05 1.15633e-06
3.95035e-05 0.000347172 2.46952e-07
1.15633e-06 2.46952e-07 -6.91135e-05
-7.64151e-05 1.40926e-05 -9.68112e-06
1.40926e-05 0.000155759 -3.14959e-06
-9.68112e-06 -3.14959e-06 -0.000154662
0.000219854 -2.50038e-05 -4.79469e-07
-2.50038e-05 0.000166526 -6.61833e-06
-4.79469e-07 -6.61833e-06 -8.86312e-05
0.000355457 -6.29356e-05 1.44694e-06
-6.29356e-05 -5.01385e-05 7.5203e-06
1.44694e-06 7.5203e-06 -0.000171656
0.000832952 -3.77893e-05 -1.28697e-06
-3.77893e-05 0.000243827 1.0823e-06
-1.28697e-06 1.0823e-06 0.000109148
0.00108101 -4.38696e-05 -1.01427e-05
-4.38696e-05 0.000411249 8.27639e-06
-1.01427e-05 8.27639e-06 0.000292685
0.000727035 -6.82333e-05 3.03602e-06
-6.82333e-05 0.000295704 -3.28341e-07
3.03602e-06 -3.28341e-07 0.000160198
0.000653986 -4.51793e-05 -1.13728e-06
-4.51793e-05 0.00013141 -5.92074e-07
-1.13728e-06 -5.92074e-07 1.35953e-05
0.00037436 -0.000124623 1.18565e-06
-0.000124623 3.35141e-06 7.98394e-07
1.18565e-06 7.98394e-07 -0.000130347
0.000125248 -0.000115623 -7.60523e-06
-0.000115623 -0.000271073 -1.44034e-06
-7.60523e-06 -1.44034e-06 -0.000339921
-0.000896639 -0.000217066 9.10772e-06
-0.000217066 -0.000839779 9.77239e-06
9.10772e-06 9.77239e-06 -0.00107555
0.000619736 -0.000164654 3.18957e-06
-0.000164654 5.68007e-05 4.65864e-07
3.18957e-06 4.65864e-07 -5.80179e-05
0.00123471 -0.000241639 -1.65743e-06
-0.000241639 0.000402271 7.06321e-06
-1.65743e-06 7.06321e-06 0.000229759
0.00189951 -0.000445912 -8.26123e-06
-0.000445912 0.00073035 9.0581e-06
-8.26123e-06 9.0581e-06 0.000430467
0.00140335 -0.000384959 -5.60314e-06
-0.000384959 0.000318988 5.20889e-07
-5.60314e-06 5.20889e-07 2.59012e-05
0.00116232 -0.000271304 -2.72451e-06
-0.000271304 0.00040368 4.59498e-06
-2.72451e-06 4.59498e-06 0.000175582
0.00023004 -0.0002173 9.83402e-06
-0.0002173 -0.000283614 -3.07492e-06
9.83402e-06 -3.07492e-06 -0.000512869
0.00105822 -0.000127933 1.60421e-06
-0.000127933 0.000373444 -2.26509e-06
1.60421e-06 -2.26509e-06 0.000185421
0.00127191 -0.000182845 -5.0992e-06
-0.000182845 0.000511833 -4.2954e-07
-5.0992e-06 -4.2954e-07 0.000325545
0.000117633 -9.73074e-05 6.54626e-06
-9.73074e-05 -0.000207479 -1.25658e-05
6.54626e-06 -1.25658e-05 -0.000333724
0.00103089 -7.4774e-05 -1.10173e-07
-7.4774e-05 0.000312759 1.42325e-06
-1.10173e-07 1.42325e-06 0.000176845
0.000284359 -5.77954e-05 5.32417e-07
-5.77954e-05 -9.88153e-05 -4.94126e-07
5.32417e-07 -4.94126e-07 -0.000243958
0.000649049 -4.13816e-05 1.44193e-07
-4.13816e-05 8.76105e-05 6.77698e-07
1.44193e-07 6.77698e-07 -2.59132e-05
0.00102577 -0.000143625 -7.71349e-07
-0.000143625 0.000374244 1.36589e-07
-7.71349e-07 1.36589e-07 0.000215572
0.000660204 -6.94197e-05 -1.41947e-07
-6.94197e-05 0.000115771 1.89622e-08
-1.41947e-07 1.89622e-08 -2.2196e-06
0.000523969 2.02932e-05 8.63936e-07
2.02932e-05 1.74418e-05 3.15805e-06
8.63936e-07 3.15805e-06 -6.40839e-05
0.000761027 -0.000105611 3.36156e-07
-0.000105611 0.000191339 -2.20103e-06
3.36156e-07 -2.20103e-06 7.02753e-05
0.000538365 1.14474e-05 -1.68465e-06
1.14474e-05 2.2729e-05 -1.48893e-07
-1.68465e-06 -1.48893e-07 -5.25095e-05
0.00137956 2.7829e-05 -1.21935e-05
2.7829e-05 0.000510076 4.54399e-06
-1.21935e-05 4.54399e-06 0.000489789
0.00060449 -5.02812e-05 2.76951e-06
-5.02812e-05 5.9698e-05 -3.20783e-06
2.76951e-06 -3.20783e-06 -1.17889e-05
0.000909898 9.1717e-06 -6.40231e-06
9.1717e-06 0.000220209 6.31362e-07
-6.40231e-06 6.31362e-07 0.000198796
0.000822654 3.25587e-05 -9.7401e-08
3.25587e-05 0.000161274 2.72407e-06
-9.7401e-08 2.72407e-06 0.000162643
0.000482875 -5.09024e-06 1.44287e-06
-5.09024e-06 -4.0872e-05 -4.99589e-06
1.44287e-06 -4.99589e-06 -6.3179e-05
0.00166707 3.5377e-05 1.0905e-05
3.5377e-05 0.000684339 -1.30914e-06
1.0905e-05 -1.30914e-06 0.000692203
0.0024776 3.04472e-05 1.08258e-05
3.04472e-05 0.00118424 -5.27763e-06
1.08258e-05 -5.27763e-06 0.00119727
0.000347688 1.19843e-05 1.25077e-06
1.19843e-05 -7.06288e-05 -3.59871e-07
1.25077e-06 -3.59871e-07 -0.00018728
0.000237224 1.42177e-05 3.11421e-07
1.42177e-05 -0.000171436 -3.29125e-06
3.11421e-07 -3.29125e-06 -0.00022888
0.000665015 3.8667e-05 -4.35188e-09
3.8667e-05 0.000120903 1.19385e-07
-4.35188e-09 1.19385e-07 1.95005e-05
0.000510507 -1.35104e-06 1.16662e-06
-1.35104e-06 -3.40772e-05 -3.66685e-06
1.16662e-06 -3.66685e-06 -4.4156e-05
0.000373648 3.10305e-06 1.46836e-06
3.10305e-06 -8.91449e-05 -1.42247e-08
1.46836e-06 -1.42247e-08 -0.0001372
0.000346609 -9.22458e-05 -2.02709e-06
-9.22458e-05 -7.1335e-05 1.37756e-07
-2.02709e-06 1.37756e-07 -0.000163715
0.00205626 -8.35094e-06 -8.65229e-06
-8.35094e-06 0.000920859 -4.74381e-06
-8.65229e-06 -4.74381e-06 0.000939138
0.000507179 3.24354e-07 -4.81605e-08
3.24354e-07 -3.58954e-05 -4.9155e-08
-4.81605e-08 -4.9155e-08 -4.42072e-05
0.000490765 -1.85441e-05 -2.42855e-06
-1.85441e-05 -1.58112e-05 1.95447e-06
-2.42855e-06 1.95447e-06 -5.83598e-05
0.00201021 6.8135e-06 -4.35063e-06
6.8135e-06 0.000893165 1.47833e-08
-4.35063e-06 1.47833e-08 0.00091161
0.000493334 3.26687e-06 -1.15255e-06
3.26687e-06 -4.39681e-05 3.15418e-06
-1.15255e-06 3.15418e-06 -5.17366e-05
0.00197815 2.15229e-05 -6.84599e-07
2.15229e-05 0.000874985 4.54716e-06
-6.84599e-07 4.54716e-06 0.000892906
0.000133453 -0.00047155 -0.000180391
-0.00047155 -0.000215602 5.37259e-05
-0.000180391 5.37259e-05 -0.00256608
0.00131731 0.000328276 -6.70387e-05
0.000328276 0.00566716 4.50936e-06
-6.70387e-05 4.50936e-06 0.00285394
0.00136186 -0.00026995 -0.000531975
-0.00026995 0.0030458 8.0676e-05
-0.000531975 8.0676e-05 0.00153575
0.000713013 0.000107161 3.2998e-06
0.000107161 0.000150586 2.38483e-06
3.2998e-06 2.38483e-06 6.73013e-06
0.00406629 -0.000570621 -3.23978e-05
-0.000570621 0.00283682 0.000168387
-3.23978e-05 0.000168387 0.00111242
0.0038546 -0.000922142 -0.000207009
-0.000922142 0.00151347 1.6064e-05
-0.000207009 1.6064e-05 -0.00257732
0.00636907 0.00175058 0.000313626
0.00175058 0.00570987 -0.00024526
0.000313626 -0.00024526 0.00307559
0.00607644 -0.000609052 7.40334e-05
-0.000609052 0.000847815 -2.25932e-05
7.40334e-05 -2.25932e-05 0.000828952
0.0122987 -0.0014248 0.000201704
-0.0014248 0.00156786 -8.48503e-05
0.000201704 -8.48503e-05 1.61981e-05
0.00259804 0.00344156 -0.000387417
0.00344156 -0.00207473 0.00031788
-0.000387417 0.00031788 -0.00319798
0.0103364 0.00317448 3.55771e-05
0.00317448 0.00247949 0.000142184
3.55771e-05 0.000142184 0.000713534
0.00621161 -0.00147438 -0.000118394
-0.00147438 0.000229548 -6.41187e-06
-0.000118394 -6.41187e-06 0.000296986
0.0158046 -0.00232574 4.6622e-05
-0.00232574 0.00460739 -2.40754e-05
4.6622e-05 -2.40754e-05 0.00232287
0.0081271 0.00208374 0.000136459
0.00208374 0.00153517 -0.000244138
0.000136459 -0.000244138 -0.000732289
0.00930733 0.00114031 1.40844e-05
0.00114031 -0.00112552 2.37919e-05
1.40844e-05 2.37919e-05 -0.000363717
0.00292144 -0.00188139 -2.15868e-05
-0.00188139 -0.000143724 3.16772e-05
-2.15868e-05 3.16772e-05 -0.000512009
0.011244 -0.00290573 0.000136312
-0.00290573 0.00485987 -8.74469e-05
0.000136312 -8.74469e-05 0.000729465
0.00678886 -4.77471e-05 0.00012013
-4.77471e-05 0.00261083 -0.000341565
0.00012013 -0.000341565 0.000842632
0.010191 0.00065431 -8.95488e-05
0.00065431 -0.00132362 0.000185487
-8.95488e-05 0.000185487 0.00101263
0.000754429 -9.40742e-06 3.64623e-06
-9.40742e-06 0.000246714 4.82221e-06
3.64623e-06 4.82221e-06 5.5861e-05
0.000817963 -0.00010481 -4.42898e-07
-0.00010481 0.000301449 3.53655e-07
-4.42898e-07 3.53655e-07 0.000102144
0.000692188 0.000128171 -3.33275e-07
0.000128171 0.000173826 -4.26845e-06
-3.33275e-07 -4.26845e-06 3.87624e-05
0.000659076 9.08092e-05 1.17842e-06
9.08092e-05 0.000104249 5.14547e-06
1.17842e-06 5.14547e-06 -3.37231e-05
0.000743396 0.000133102 -1.67539e-08
0.000133102 0.000208166 6.33726e-07
-1.67539e-08 6.33726e-07 3.74697e-05
0.000934793 7.61332e-05 -4.92207e-06
7.61332e-05 0.00032614 -2.52267e-06
-4.92207e-06 -2.52267e-06 0.000187014
0.00101403 0.000151667 -1.18861e-06
0.000151667 0.000364494 -7.56202e-09
-1.18861e-06 -7.56202e-09 0.000207069
0.00104731 0.00016554 4.59791e-07
0.00016554 0.000405267 1.99945e-06
4.59791e-07 1.99945e-06 0.000244291
-0.000124567 -0.000376726 7.85569e-05
-0.000376726 -0.00108718 -4.0238e-05
7.85569e-05 -4.0238e-05 -0.00101391
0.00191467 -0.00068371 7.42595e-06
-0.00068371 0.000241655 -1.4715e-05
7.42595e-06 -1.4715e-05 0.00020905
0.000939414 -0.000208506 -6.7355e-07
-0.000208506 0.00038758 -1.59937e-05
-6.7355e-07 -1.59937e-05 0.000152499
0.00138574 -0.000600378 2.27044e-05
-0.000600378 0.000614276 -2.4085e-05
2.27044e-05 -2.4085e-05 0.000278361
0.00235914 -0.000354397 -1.26487e-05
-0.000354397 0.00129999 8.65602e-06
-1.26487e-05 8.65602e-06 0.000968135
0.00121996 -0.000110978 -1.1752e-06
-0.000110978 0.000533175 -1.49094e-05
-1.1752e-06 -1.49094e-05 0.000319487
0.000264173 -4.24601e-05 1.47904e-06
-4.24601e-05 -6.7594e-05 4.46734e-06
1.47904e-06 4.46734e-06 -0.000250934
3.68491e-05 -0.000813054 1.83094e-07
-0.000813054 -0.000945513 -2.7898e-06
1.83094e-07 -2.7898e-06 -0.000908921
0.00123125 4.03315e-05 -6.78279e-07
4.03315e-05 0.000649459 1.08891e-06
-6.78279e-07 1.08891e-06 0.000377433
0.000885715 -0.000215959 4.54975e-06
-0.000215959 0.000538883 1.7771e-06
4.54975e-06 1.7771e-06 0.000154142
0.000545649 -0.000374657 1.39064e-05
-0.000374657 -8.82649e-06 3.59663e-06
1.39064e-05 3.59663e-06 -4.7082e-05
0.00135325 0.000120707 -1.45812e-07
0.000120707 0.000565931 -7.03903e-07
-1.45812e-07 -7.03903e-07 0.000416355
0.00141986 -0.000803212 -1.18014e-05
-0.000803212 0.000199464 -3.60629e-05
-1.18014e-05 -3.60629e-05 0.000136893
-0.000612595 -0.000343619 -1.7911e-05
-0.000343619 -0.000384145 2.57138e-05
-1.7911e-05 2.57138e-05 -0.000588708
-0.000436468 6.77333e-05 1.55041e-05
6.77333e-05 5.78776e-05 -7.07075e-06
1.55041e-05 -7.07075e-06 -0.000483977
0.00116813 0.00021134 1.61924e-06
0.00021134 0.000549045 -3.63675e-06
1.61924e-06 -3.63675e-06 0.000358685
-0.000663275 4.48031e-05 4.41602e-05
4.48031e-05 0.000951343 1.55026e-06
4.41602e-05 1.55026e-06 0.000298743
0.000813175 -3.45359e-05 0.00011745
-3.45359e-05 0.00123501 -2.55075e-05
0.00011745 -2.55075e-05 -0.00189554
-0.00883757 -0.000214167 -0.000199587
-0.000214167 0.00458537 1.83993e-05
-0.000199587 1.83993e-05 -3.47365e-05
0.00147927 0.000388917 1.58384e-05
0.000388917 0.000835186 4.24e-06
1.58384e-05 4.24e-06 0.000611778
-0.00130311 0.00046081 4.43514e-06
0.00046081 -0.000718157 1.42399e-05
4.43514e-06 1.42399e-05 -0.00107535
0.0050112 0.000377225 0.000192104
0.000377225 0.00301609 2.83755e-05
0.000192104 2.83755e-05 0.00127148
0.00950599 0.00232569 0.000240651
0.00232569 0.00365736 0.000140679
0.000240651 0.000140679 -0.000372118
0.00302742 0.00145496 -7.83172e-05
0.00145496 0.00185754 -7.88839e-05
-7.83172e-05 -7.88839e-05 0.000593064
0.00528828 -0.00168669 -0.00010991
-0.00168669 0.00301093 -0.000362117
-0.00010991 -0.000362117 0.000263482
0.0018296 0.00035879 9.40391e-05
0.00035879 0.000159271 0.000169276
9.40391e-05 0.000169276 -0.00138347
0.0060153 -0.000120411 -3.41008e-05
-0.000120411 -0.0051103 -0.000202486
-3.41008e-05 -0.000202486 -0.00182757
0.000752054 0.000303079 3.77194e-06
0.000303079 0.00057496 -2.18024e-07
3.77194e-06 -2.18024e-07 0.000302746
-0.00145673 5.56347e-06 -1.12327e-06
5.56347e-06 -0.000126563 -5.94838e-07
-1.12327e-06 -5.94838e-07 -0.000226416
0.00358765 4.93316e-05 7.53816e-05
4.93316e-05 -0.000127074 2.27395e-05
7.53816e-05 2.27395e-05 -0.000551603
-0.00131378 0.000299535 -9.7032e-06
0.000299535 -0.000335894 -7.355e-06
-9.7032e-06 -7.355e-06 -0.000929784
0.00919997 0.00124648 -8.93359e-06
0.00124648 -0.00104408 -2.07372e-05
-8.93359e-06 -2.07372e-05 -0.000371906
0.00338505 0.00141133 0.000165781
0.00141133 0.00327475 0.000103971
0.000165781 0.000103971 -0.00170197
0.00527212 0.000634226 -0.000132461
0.000634226 0.00292167 2.46459e-06
-0.000132461 2.46459e-06 0.000372031
0.000473143 0.000317474 -9.57112e-06
0.000317474 0.000444193 -2.21128e-05
-9.57112e-06 -2.21128e-05 4.33744e-05
0.00129496 5.17321e-05 1.49776e-05
5.17321e-05 -0.00026357 -2.24519e-05
1.49776e-05 -2.24519e-05 -0.000109909
0.00365259 -0.000588911 2.4394e-05
-0.000588911 0.002787 -0.000171616
2.4394e-05 -0.000171616 0.0011964
0.0135318 0.00322926 0.000280427
0.00322926 0.0031627 -0.000214952
0.000280427 -0.000214952 0.00218289
0.00673223 -3.59108e-05 -9.72534e-05
-3.59108e-05 0.0027176 0.000347601
-9.72534e-05 0.000347601 0.0008315
0.000667634 0.000316778 -5.71867e-06
0.000316778 0.000443232 -0.000106462
-5.71867e-06 -0.000106462 3.68752e-05
0.00201255 0.00144659 0.000211948
0.00144659 0.00448137 4.2591e-05
0.000211948 4.2591e-05 -0.00265633
0.00180897 0.00032922 2.67888e-06
0.00032922 0.00106866 1.67951e-05
2.67888e-06 1.67951e-05 0.000784334
0.000748245 0.000197145 1.76975e-06
0.000197145 0.00068762 -8.53361e-07
1.76975e-06 -8.53361e-07 0.000349292
8.61429e-05 -2.36188e-05 -1.10148e-05
-2.36188e-05 0.000385041 -1.14643e-05
-1.10148e-05 -1.14643e-05 0.000118213
0.000131086 -4.15312e-05 9.06835e-07
-4.15312e-05 -0.000189768 5.75423e-06
9.06835e-07 5.75423e-06 -0.000312508
0.00127211 -1.65622e-06 4.40918e-06
-1.65622e-06 0.00082331 -1.73632e-07
4.40918e-06 -1.73632e-07 0.000542541
0.000523243 3.00987e-05 2.1196e-06
3.00987e-05 0.000563543 -2.51914e-06
2.1196e-06 -2.51914e-06 0.000166835
0.000442883 -3.94642e-05 9.06215e-07
-3.94642e-05 0.000249665 -1.49246e-07
9.06215e-07 -1.49246e-07 3.80848e-05
-8.84005e-05 -1.25438e-05 4.05943e-06
-1.25438e-05 0.000149368 1.36956e-06
4.05943e-06 1.36956e-06 -0.000168101
0.00113464 -0.000225125 1.22648e-06
-0.000225125 0.000696889 -1.24893e-05
1.22648e-06 -1.24893e-05 0.00043282
0.000903979 -8.01149e-05 -4.29388e-06
-8.01149e-05 0.000380315 7.56973e-06
-4.29388e-06 7.56973e-06 0.000254489
0.000493763 -1.37486e-05 -1.12485e-06
-1.37486e-05 3.41433e-05 2.48906e-06
-1.12485e-06 2.48906e-06 -8.14532e-05
0.00133652 -0.00021025 2.65655e-06
-0.00021025 0.000564749 3.63732e-06
2.65655e-06 3.63732e-06 0.000413177
-0.0013248 -0.000208698 1.40544e-05
-0.000208698 -0.000902856 6.70487e-06
1.40544e-05 6.70487e-06 -0.00118353
0.000104861 -0.000105506 4.76105e-07
-0.000105506 -0.000212212 -4.192e-07
4.76105e-07 -4.192e-07 -0.000257629
-0.000239755 -0.000251692 1.75832e-06
-0.000251692 -0.000475273 -2.97421e-06
1.75832e-06 -2.97421e-06 -0.000691211
0.00114108 -0.000417075 5.54478e-06
-0.000417075 0.000222368 -4.19214e-06
5.54478e-06 -4.19214e-06 -0.000129226
0.00151634 -0.000485838 -2.77016e-06
-0.000485838 0.000331747 -2.89549e-07
-2.77016e-06 -2.89549e-07 -2.11384e-05
0.00208282 -0.000342607 1.54455e-06
-0.000342607 0.000903139 -5.31828e-07
1.54455e-06 -5.31828e-07 0.000704828
0.00126666 -0.000376672 1.77939e-06
-0.000376672 0.000326476 4.16104e-07
1.77939e-06 4.16104e-07 3.08977e-05
0.00158911 -0.000408489 2.29975e-06
-0.000408489 0.000418215 -1.78769e-06
2.29975e-06 -1.78769e-06 0.000129124
0.000788899 -0.000272914 -3.41744e-06
-0.000272914 3.69635e-05 4.34754e-06
-3.41744e-06 4.34754e-06 -0.000207741
0.000814508 -0.000313884 1.0307e-06
-0.000313884 -3.03744e-05 -4.54829e-06
1.0307e-06 -4.54829e-06 -0.000302774
0.000462734 -0.00011608 1.2095e-06
-0.00011608 3.92126e-05 -2.48914e-06
1.2095e-06 -2.48914e-06 -0.000186612
0.00116438 -0.000297028 -6.10683e-06
-0.000297028 0.00041962 4.3234e-06
-6.10683e-06 4.3234e-06 0.000176136
-0.00151455 -1.7125e-05 -3.7018e-06
-1.7125e-05 -0.00133321 -6.11784e-06
-3.7018e-06 -6.11784e-06 -0.00151813
0.000436101 -3.86613e-05 8.22788e-07
-3.86613e-05 -4.20155e-05 7.61871e-07
8.22788e-07 7.61871e-07 -0.000167456
0.000593311 -0.000105036 -5.79662e-09
-0.000105036 0.000105193 -5.56111e-08
-5.79662e-09 -5.56111e-08 -8.04691e-05
0.000861601 -0.00017786 5.43758e-06
-0.00017786 0.000288602 -1.68657e-06
5.43758e-06 -1.68657e-06 9.1844e-05
0.000537316 -7.89491e-05 4.62307e-07
-7.89491e-05 5.67602e-05 8.99253e-07
4.62307e-07 8.99253e-07 -9.10293e-05
0.000702647 -6.00852e-05 -4.59518e-07
-6.00852e-05 0.00013487 1.78974e-07
-4.59518e-07 1.78974e-07 1.05246e-05
0.000513886 1.23191e-05 5.68388e-07
1.23191e-05 3.24679e-06 3.8788e-06
5.68388e-07 3.8788e-06 -8.29469e-05
0.000803572 -8.84104e-05 -3.4384e-08
-8.84104e-05 0.000213962 -1.1744e-06
-3.4384e-08 -1.1744e-06 8.64769e-05
0.000565911 1.03368e-05 -1.17735e-06
1.03368e-05 3.82544e-05 -2.40051e-07
-1.17735e-06 -2.40051e-07 -4.06618e-05
0.000461803 3.31429e-05 -4.82034e-07
3.31429e-05 -5.02608e-05 5.65803e-06
-4.82034e-07 5.65803e-06 -7.88067e-05
0.000677718 -4.50576e-05 2.18641e-06
-4.50576e-05 0.000101947 -3.11749e-06
2.18641e-06 -3.11749e-06 2.92508e-05
0.00048921 1.52151e-05 -1.66237e-07
1.52151e-05 -4.05078e-05 -3.83085e-08
-1.66237e-07 -3.83085e-08 -6.52733e-05
0.00247034 8.62755e-05 -2.99231e-06
8.62755e-05 0.00118451 2.33747e-06
-2.99231e-06 2.33747e-06 0.00119122
0.000493738 4.54872e-06 1.73684e-06
4.54872e-06 -3.74993e-05 -5.21934e-06
1.73684e-06 -5.21934e-06 -6.12297e-05
0.00170207 4.85792e-05 1.31919e-05
4.85792e-05 0.000706609 -1.0942e-06
1.31919e-05 -1.0942e-06 0.000712472
0.002539 4.63975e-05 1.71115e-05
4.63975e-05 0.00122218 -5.35855e-06
1.71115e-05 -5.35855e-06 0.00123389
0.000317137 1.16754e-05 1.04654e-06
1.16754e-05 -0.000105236 -1.2765e-06
1.04654e-06 -1.2765e-06 -0.000214558
0.00024843 7.95484e-06 8.44838e-07
7.95484e-06 -0.000167618 -3.02789e-06
8.44838e-07 -3.02789e-06 -0.000233243
0.000514184 2.58122e-05 -4.85552e-07
2.58122e-05 3.06683e-05 -1.11936e-06
-4.85552e-07 -1.11936e-06 -8.27899e-05
0.000522948 -5.36348e-06 1.6972e-06
-5.36348e-06 -2.69081e-05 -4.05454e-06
1.6972e-06 -4.05454e-06 -3.9594e-05
0.000223765 1.15824e-05 -6.22845e-07
1.15824e-05 -0.00018003 -1.56076e-06
-6.22845e-07 -1.56076e-06 -0.000238794
0.000675845 4.70717e-05 -6.80277e-07
4.70717e-05 0.000138133 1.31654e-06
-6.80277e-07 1.31654e-06 2.98652e-05
0.00209448 -2.17147e-05 -1.39429e-05
-2.17147e-05 0.000944133 -4.64403e-06
-1.39429e-05 -4.64403e-06 0.000961855
0.000508364 -2.73892e-06 -4.19937e-07
-2.73892e-06 -3.58511e-05 -6.14869e-08
-4.19937e-07 -6.14869e-08 -4.56557e-05
0.000170367 1.04257e-05 7.77612e-07
1.04257e-05 -0.000211352 1.67096e-06
7.77612e-07 1.67096e-06 -0.000262775
0.00203069 -6.93735e-06 -3.90862e-06
-6.93735e-06 0.000904926 5.17944e-08
-3.90862e-06 5.17944e-08 0.000923416
0.000499331 3.35165e-08 -1.27427e-06
3.35165e-08 -4.09839e-05 3.41207e-06
-1.27427e-06 3.41207e-06 -4.90896e-05
0.00203395 8.32076e-06 4.3845e-06
8.32076e-06 0.000908115 4.70178e-06
4.3845e-06 4.70178e-06 0.000926312
0.000393287 -2.45605e-05 6.90387e-05
-2.45605e-05 0.00114406 1.64312e-05
6.90387e-05 1.64312e-05 0.000932915
4.9713e-05 -0.000272833 -2.62229e-05
-0.000272833 0.000177039 -1.47079e-05
-2.62229e-05 -1.47079e-05 -0.0026649
0.000476171 0.00028372 2.95831e-05
0.00028372 0.00538255 -3.12136e-05
2.95831e-05 -3.12136e-05 0.00263968
0.000760876 0.000115518 8.67029e-08
0.000115518 0.000172401 2.4691e-07
8.67029e-08 2.4691e-07 3.72255e-05
0.000497566 7.8737e-05 3.58111e-06
7.8737e-05 -4.81854e-06 1.37513e-06
3.58111e-06 1.37513e-06 -0.000129074
0.000986057 0.00016416 4.71891e-06
0.00016416 0.000310524 3.94513e-06
4.71891e-06 3.94513e-06 0.000170152
0.004266 -0.000105072 -2.28144e-05
-0.000105072 -0.000380685 0.000217058
-2.28144e-05 0.000217058 -0.00110907
0.00401172 -0.000556296 5.4493e-05
-0.000556296 0.00265623 -4.89712e-06
5.4493e-05 -4.89712e-06 0.00132546
0.00442843 -0.00108389 0.000116055
-0.00108389 0.00185612 -0.000189239
0.000116055 -0.000189239 -0.00236405
0.00787129 -0.00182552 -6.269e-05
-0.00182552 0.000761729 -1.75299e-05
-6.269e-05 -1.75299e-05 0.0010159
0.000560883 -0.00196312 -0.00025719
-0.00196312 -0.00148785 0.000101016
-0.00025719 0.000101016 -0.00447838
0.0193967 0.00295362 0.000131545
0.00295362 0.00757085 0.000105359
0.000131545 0.000105359 0.00492248
0.00555793 0.000146107 0.000180579
0.000146107 -0.00307826 -0.000172661
0.000180579 -0.000172661 -0.00279366
0.00493477 -0.00213045 -3.31399e-05
-0.00213045 0.000610423 1.27223e-05
-3.31399e-05 1.27223e-05 0.000412802
0.007264 -0.00252073 -7.56586e-05
-0.00252073 0.00292842 2.26542e-05
-7.56586e-05 2.26542e-05 -0.00114541
-0.00344982 0.00269046 -7.22199e-05
0.00269046 0.00199085 -0.000235139
-7.22199e-05 -0.000235139 -0.00157124
0.00811378 0.000246156 -4.34729e-05
0.000246156 -0.00336742 0.000105741
-4.34729e-05 0.000105741 -0.000430224
0.000867905 -0.00122432 -9.88946e-05
-0.00122432 0.000172174 2.7161e-05
-9.88946e-05 2.7161e-05 -0.000138268
0.0108342 -0.00231133 -0.000184001
-0.00231133 0.00521877 0.000124274
-0.000184001 0.000124274 0.000776691
-0.0046439 3.5445e-07 3.7044e-05
3.5445e-07 0.00124765 -0.000296724
3.7044e-05 -0.000296724 -0.00180957
0.00732485 -0.00126253 8.29533e-05
-0.00126253 -0.00199657 3.04873e-05
8.29533e-05 3.04873e-05 -0.00103382
0.000440634 8.24831e-05 2.63486e-06
8.24831e-05 -5.93704e-07 1.00494e-05
2.63486e-06 1.00494e-05 -0.000142469
0.000739903 -1.7362e-05 2.49168e-06
-1.7362e-05 0.000226932 -1.98733e-06
2.49168e-06 -1.98733e-06 3.08159e-05
0.000882187 -0.000110458 -7.15131e-07
-0.000110458 0.000308887 -7.19184e-06
-7.15131e-07 -7.19184e-06 0.000117586
0.000694498 0.000106506 -1.52341e-06
0.000106506 0.000129275 4.22276e-07
-1.52341e-06 4.22276e-07 -1.37099e-05
0.000798142 0.000140553 2.23793e-07
0.000140553 0.000245708 -2.65128e-06
2.23793e-07 -2.65128e-06 8.16076e-05
0.00114103 0.00016667 -3.5857e-06
0.00016667 0.000446747 -1.73134e-06
-3.5857e-06 -1.73134e-06 0.000285705
-0.00123959 -0.000690587 1.95878e-05
-0.000690587 -0.00165364 -1.33302e-06
1.95878e-05 -1.33302e-06 -0.00158979
0.000366042 -0.000282396 2.81415e-05
-0.000282396 -0.000114849 -2.38921e-05
2.81415e-05 -2.38921e-05 -9.76477e-05
0.000102003 1.92755e-05 -2.47878e-06
1.92755e-05 -0.000159457 -7.94457e-06
-2.47878e-06 -7.94457e-06 -0.000347867
0.00131621 -0.000352747 4.60837e-05
-0.000352747 0.000718386 -2.69292e-05
4.60837e-05 -2.69292e-05 0.000365806
0.00138999 -4.22344e-05 -6.29411e-06
-4.22344e-05 0.000735556 -1.60184e-06
-6.29411e-06 -1.60184e-06 0.000467976
0.000622489 9.63545e-05 2.22793e-06
9.63545e-05 0.000152556 1.95448e-06
2.22793e-06 1.95448e-06 -8.36308e-06
0.00092703 0.000154046 -4.74494e-07
0.000154046 0.000394296 -2.30819e-06
-4.74494e-07 -2.30819e-06 0.000226325
0.000320361 -0.000842165 3.72335e-06
-0.000842165 -0.000418062 -3.95627e-06
3.72335e-06 -3.95627e-06 -0.000573511
9.49199e-05 9.26671e-06 -6.0484e-06
9.26671e-06 0.000318623 3.99299e-06
-6.0484e-06 3.99299e-06 -0.000147318
0.00139513 -0.000249828 9.93557e-06
-0.000249828 0.000692933 -7.34361e-06
9.93557e-06 -7.34361e-06 0.000463874
0.00116428 0.000154907 1.9152e-06
0.000154907 0.000526228 -5.92672e-06
1.9152e-06 -5.92672e-06 0.000376552
-0.00280631 -7.93854e-05 -0.000116108
-7.93854e-05 -0.000857282 -1.62954e-05
-0.000116108 -1.62954e-05 -0.00155315
7.09927e-05 -0.000128083 -1.67595e-05
-0.000128083 0.000296538 1.29157e-05
-1.67595e-05 1.29157e-05 1.00287e-05
0.000271317 0.000124409 3.69105e-06
0.000124409 0.000376814 8.26069e-06
3.69105e-06 8.26069e-06 4.59723e-06
0.000124197 5.47141e-05 -2.51987e-06
5.47141e-05 -0.000553247 3.63067e-07
-2.51987e-06 3.63067e-07 -0.00110167
-0.00105272 5.64016e-05 1.21569e-05
5.64016e-05 0.000649837 -1.55884e-05
1.21569e-05 -1.55884e-05 9.70573e-05
7.99285e-05 -0.000110336 0.00025638
-0.000110336 0.000799694 8.61415e-06
0.00025638 8.61415e-06 -0.00234058
-0.000624596 0.000221528 -5.52474e-06
0.000221528 -0.000219012 1.97335e-05
-5.52474e-06 1.97335e-05 -0.000517574
0.000852238 0.000636883 -5.1678e-06
0.000636883 0.000350085 -4.50767e-06
-5.1678e-06 -4.50767e-06 -0.000132409
-0.00133365 -1.56697e-05 -2.25945e-06
-1.56697e-05 -0.000126544 -6.07588e-06
-2.25945e-06 -6.07588e-06 -0.000326771
-0.00377645 0.000646775 5.32553e-05
0.000646775 0.00155115 0.000136139
5.32553e-05 0.000136139 -0.00321815
-0.00600101 0.0011026 -0.000167432
0.0011026 -0.00290257 -0.000389054
-0.000167432 -0.000389054 -0.00622452
0.00313034 8.32856e-05 6.23491e-05
8.32856e-05 -9.61477e-05 9.60543e-05
6.23491e-05 9.60543e-05 -8.63255e-05
0.00542966 0.000220887 -0.000185677
0.000220887 -0.00289177 0.000173151
-0.000185677 0.000173151 -0.002757
0.000433514 0.000263332 3.11377e-06
0.000263332 0.000462276 -1.25735e-06
3.11377e-06 -1.25735e-06 0.000119188
0.00103589 3.07883e-06 2.33581e-05
3.07883e-06 -0.000371736 -2.78729e-05
2.33581e-05 -2.78729e-05 -0.000190098
0.00361161 -0.000444151 -5.61875e-05
-0.000444151 0.00258814 6.93196e-06
-5.61875e-05 6.93196e-06 0.00126437
0.000563847 0.000453341 -8.30895e-05
0.000453341 0.000964283 -6.24398e-06
-8.30895e-05 -6.24398e-06 -7.68634e-05
0.00951474 0.00328046 7.06002e-05
0.00328046 0.000673347 -0.000295075
7.06002e-05 -0.000295075 -0.000504882
-0.00151366 0.00210724 6.17695e-05
0.00210724 0.00200356 0.000235113
6.17695e-05 0.000235113 -0.00131604
0.00617095 0.000311923 4.79726e-05
0.000311923 0.0060434 -2.39428e-05
4.79726e-05 -2.39428e-05 -0.000455613
0.00101515 -1.01986e-05 3.2815e-05
-1.01986e-05 0.00135007 -2.55266e-05
3.2815e-05 -2.55266e-05 0.000583708
0.000276018 -5.10233e-05 -5.73137e-05
-5.10233e-05 0.00109903 3.53562e-06
-5.73137e-05 3.53562e-06 0.000857458
0.00256654 -0.000714878 0.000516687
-0.000714878 0.000917659 -0.000215754
0.000516687 -0.000215754 -0.00330789
0.0118199 0.00452315 -1.80691e-05
0.00452315 0.0082951 8.81095e-06
-1.80691e-05 8.81095e-06 0.00705579
-0.000406881 0.00261938 -8.23103e-05
0.00261938 -0.00169662 0.000576875
-8.23103e-05 0.000576875 -0.00374288
0.0121788 -0.00243669 0.000199354
-0.00243669 0.00540676 -0.000171299
0.000199354 -0.000171299 0.000673675
0.00335197 -0.000650999 -6.01077e-05
-0.000650999 0.00227695 5.06403e-05
-6.01077e-05 5.06403e-05 0.00162335
0.00149408 0.00026414 7.68484e-06
0.00026414 0.00111108 5.39038e-06
7.68484e-06 5.39038e-06 0.000772533
-0.000103126 -2.21111e-05 -7.24244e-06
-2.21111e-05 0.000216282 -1.72043e-06
-7.24244e-06 -1.72043e-06 -5.86554e-05
0.00179077 -0.000385133 2.67041e-05
-0.000385133 0.00109605 -1.1281e-05
2.67041e-05 -1.1281e-05 0.000720914
0.000816436 -8.80379e-05 3.26798e-07
-8.80379e-05 0.00043501 4.29694e-06
3.26798e-07 4.29694e-06 0.000258561
0.000127388 -3.75289e-05 -4.67861e-06
-3.75289e-05 0.000265381 2.60748e-06
-4.67861e-06 2.60748e-06 -4.92747e-05
0.000264839 -0.000204954 -2.43264e-06
-0.000204954 0.000288105 -2.39601e-07
-2.43264e-06 -2.39601e-07 1.35293e-05
0.000784943 -0.000408399 2.60695e-05
-0.000408399 0.000275737 -2.17068e-05
2.60695e-05 -2.17068e-05 8.52101e-05
0.00239832 -0.00030123 -3.91797e-06
-0.00030123 0.00119509 3.54375e-06
-3.91797e-06 3.54375e-06 0.00101822
0.00219978 -0.000561727 1.06509e-05
-0.000561727 0.00100394 -2.63739e-06
1.06509e-05 -2.63739e-06 0.000683981
0.00191609 -0.000545888 1.29945e-05
-0.000545888 0.000809551 -1.69762e-06
1.29945e-05 -1.69762e-06 0.000319332
0.000392991 -0.000260636 -3.81414e-06
-0.000260636 -0.000130623 -2.02385e-06
-3.81414e-06 -2.02385e-06 -0.000314672
0.00151761 -0.000457421 -2.38744e-06
-0.000457421 0.000397259 7.44336e-07
-2.38744e-06 7.44336e-07 4.15391e-05
0.00213104 -0.000620238 4.65892e-07
-0.000620238 0.000690531 9.97739e-07
4.65892e-07 9.97739e-07 0.000235609
0.00172185 -0.000623884 -4.10842e-06
-0.000623884 0.000340221 1.63807e-06
-4.10842e-06 1.63807e-06 -5.57011e-05
0.00156936 -0.000495457 -1.26959e-06
-0.000495457 0.000373126 6.51123e-07
-1.26959e-06 6.51123e-07 3.33268e-05
0.00147553 -0.000485337 -4.14499e-06
-0.000485337 0.00030265 1.24494e-06
-4.14499e-06 1.24494e-06 -5.17257e-05
0.00109307 -0.000359448 -5.15396e-06
-0.000359448 0.000189236 -5.59843e-07
-5.15396e-06 -5.59843e-07 -0.000111447
0.00218715 -0.000444169 4.4375e-06
-0.000444169 0.000839457 1.56005e-06
4.4375e-06 1.56005e-06 0.000561993
0.00145529 -0.000397051 4.6141e-06
-0.000397051 0.000342868 -3.08483e-06
4.6141e-06 -3.08483e-06 5.48391e-05
0.000266967 -0.000148517 1.37521e-06
-0.000148517 -0.000176004 3.0332e-08
1.37521e-06 3.0332e-08 -0.000399396
0.000825437 -0.000287805 3.4295e-06
-0.000287805 7.71823e-05 -6.78527e-07
3.4295e-06 -6.78527e-07 -0.00017104
0.000239588 -0.000245608 -5.18153e-07
-0.000245608 -0.000369222 -7.56318e-06
-5.18153e-07 -7.56318e-06 -0.000622068
-0.000120157 -1.57081e-05 4.09381e-07
-1.57081e-05 -0.000342624 1.5855e-06
4.09381e-07 1.5855e-06 -0.000525267
0.00106067 -0.000172 -2.55762e-07
-0.000172 0.000403875 2.40145e-09
-2.55762e-07 2.40145e-09 0.000169676
0.000970552 -0.000301292 -5.04137e-07
-0.000301292 0.00031659 -1.62993e-06
-5.04137e-07 -1.62993e-06 6.18765e-05
0.0006956 -9.61887e-06 -9.76008e-07
-9.61887e-06 0.000111421 4.40235e-06
-9.76008e-07 4.40235e-06 1.54065e-05
0.000808908 -8.82188e-05 -1.95763e-07
-8.82188e-05 0.000186815 -2.34716e-07
-1.95763e-07 -2.34716e-07 5.25211e-05
0.00030155 -8.10242e-05 -8.66032e-09
-8.10242e-05 -6.31727e-05 9.89682e-07
-8.66032e-09 9.89682e-07 -0.000244387
0.000717792 -8.24877e-05 7.14103e-07
-8.24877e-05 0.000149445 -9.21103e-07
7.14103e-07 -9.21103e-07 1.9254e-05
0.000613619 -2.94645e-05 -5.26163e-08
-2.94645e-05 6.00427e-05 -2.51716e-07
-5.26163e-08 -2.51716e-07 -2.53239e-05
0.000471562 3.56123e-05 3.94758e-07
3.56123e-05 -3.7857e-05 6.7955e-06
3.94758e-07 6.7955e-06 -7.11751e-05
0.000620619 -3.57012e-05 1.41113e-06
-3.57012e-05 6.70773e-05 -3.16237e-06
1.41113e-06 -3.16237e-06 -1.04165e-05
0.00050793 2.80333e-05 -1.23007e-06
2.80333e-05 -2.31675e-05 -1.58493e-07
-1.23007e-06 -1.58493e-07 -5.1587e-05
0.00258746 9.44787e-05 -3.10189e-05
9.44787e-05 0.00126344 4.33741e-06
-3.10189e-05 4.33741e-06 0.00126901
0.000525174 1.42627e-05 1.672e-06
1.42627e-05 -1.89525e-05 -5.31962e-06
1.672e-06 -5.31962e-06 -4.37909e-05
0.0016759 6.26672e-05 1.53091e-05
6.26672e-05 0.000693717 -8.54828e-07
1.53091e-05 -8.54828e-07 0.000697779
0.00257273 6.3728e-05 2.17252e-05
6.3728e-05 0.00124487 -5.03073e-06
2.17252e-05 -5.03073e-06 0.00125489
0.000707262 8.00239e-05 2.36788e-06
8.00239e-05 0.000144459 -3.95578e-07
2.36788e-06 -3.95578e-07 2.40708e-05
0.000545763 3.80055e-05 1.00875e-06
3.80055e-05 1.40603e-05 -2.60507e-06
1.00875e-06 -2.60507e-06 -5.55966e-05
0.000487221 4.48153e-05 -1.1257e-06
4.48153e-05 1.23332e-05 -1.19157e-06
-1.1257e-06 -1.19157e-06 -0.000106404
0.000510474 -5.53778e-06 9.57164e-07
-5.53778e-06 -3.41788e-05 -4.82408e-06
9.57164e-07 -4.82408e-06 -5.05839e-05
0.000374689 3.03766e-05 -1.98312e-06
3.03766e-05 -8.89578e-05 -1.55719e-06
-1.98312e-06 -1.55719e-06 -0.000153937
0.000709127 6.19188e-05 -9.03888e-07
6.19188e-05 0.000152675 -1.02118e-06
-9.03888e-07 -1.02118e-06 3.95613e-05
0.0021727 -3.63976e-05 -1.82859e-05
-3.63976e-05 0.000992931 -4.68298e-06
-1.82859e-05 -4.68298e-06 0.00100928
0.000506008 -7.04953e-06 -1.30152e-07
-7.04953e-06 -3.7516e-05 -1.00054e-07
-1.30152e-07 -1.00054e-07 -4.99295e-05
0.000174354 9.74194e-06 -1.61892e-06
9.74194e-06 -0.000210647 4.79144e-07
-1.61892e-06 4.79144e-07 -0.000270484
0.00211098 -2.08153e-05 -4.84608e-06
-2.08153e-05 0.000954273 1.11761e-07
-4.84608e-06 1.11761e-07 0.000972019
0.000503224 -4.62204e-06 -1.79838e-06
-4.62204e-06 -3.93424e-05 3.48985e-06
-1.79838e-06 3.48985e-06 -4.89276e-05
0.00206325 -5.46646e-06 9.23511e-06
-5.46646e-06 0.000924983 4.73498e-06
9.23511e-06 4.73498e-06 0.000943346
0.00119857 -0.000124627 -2.80307e-05
-0.000124627 -0.000307084 2.69703e-05
-2.80307e-05 2.69703e-05 -0.000190374
6.90058e-05 -0.000153589 3.63512e-05
-0.000153589 0.000979112 -2.3428e-06
3.63512e-05 -2.3428e-06 0.000753008
-0.000121903 -0.000289518 0.00014
-0.000289518 0.000343884 -8.35744e-05
0.00014 -8.35744e-05 -0.00270409
0.000367026 4.31836e-05 2.53279e-06
4.31836e-05 -9.13314e-05 1.31844e-06
2.53279e-06 1.31844e-06 -0.000215415
0.00160268 9.38785e-05 2.25421e-07
9.38785e-05 0.000647462 3.13454e-06
2.25421e-07 3.13454e-06 0.000503738
0.000747401 0.000124612 -1.41898e-06
0.000124612 0.000163787 -1.27993e-06
-1.41898e-06 -1.27993e-06 3.40304e-05
0.000508209 6.6007e-05 5.00131e-07
6.6007e-05 -9.10499e-06 6.82368e-07
5.00131e-07 6.82368e-07 -0.000125695
0.000562587 8.50236e-05 2.36703e-07
8.50236e-05 4.40969e-05 -1.57015e-07
2.36703e-07 -1.57015e-07 -8.19972e-05
0.000556666 7.48332e-05 3.26986e-06
7.48332e-05 3.05184e-05 2.76095e-07
3.26986e-06 2.76095e-07 -8.64948e-05
0.000601962 0.000163285 6.90561e-06
0.000163285 0.000106673 3.55383e-06
6.90561e-06 3.55383e-06 -3.54696e-05
0.000630235 0.00038141 0.000114851
0.00038141 -0.000391469 0.000223477
0.000114851 0.000223477 -0.0016335
0.00363219 -7.99225e-05 -2.63351e-05
-7.99225e-05 -0.000131314 5.71406e-05
-2.63351e-05 5.71406e-05 -0.000649055
0.00359537 -0.000427965 0.000100162
-0.000427965 0.00243776 -9.14429e-05
0.000100162 -9.14429e-05 0.00144576
0.00607748 -0.000123212 -6.85197e-06
-0.000123212 -0.00541887 0.0001279
-6.85197e-06 0.0001279 -0.00179806
0.00279493 -0.0017654 -9.26139e-05
-0.0017654 0.000473146 6.23876e-05
-9.26139e-05 6.23876e-05 0.000124518
-0.000228125 -0.00258919 -0.000119099
-0.00258919 0.00083099 8.55153e-05
-0.000119099 8.55153e-05 -0.00401467
0.0119188 0.00314777 8.44943e-05
0.00314777 0.00593252 -0.00010941
8.44943e-05 -0.00010941 0.00270092
0.00294388 -0.00161598 -3.52038e-05
-0.00161598 0.000588249 1.59479e-05
-3.52038e-05 1.59479e-05 0.000606642
-0.0012053 -0.00062176 -1.39054e-05
-0.00062176 0.00269246 4.30091e-05
-1.39054e-05 4.30091e-05 -0.00310439
0.00576633 0.000400028 0.000112395
0.000400028 0.00267105 -1.68025e-05
0.000112395 -1.68025e-05 0.000159226
0.0127645 -0.00191648 -5.30512e-05
-0.00191648 0.0016749 -2.93775e-05
-5.30512e-05 -2.93775e-05 0.00302347
-0.000763396 -0.000309408 -0.00010451
-0.000309408 -0.00024947 9.73567e-05
-0.00010451 9.73567e-05 -5.1297e-05
0.00253745 0.00192859 -0.000128018
0.00192859 0.00381645 -7.98924e-05
-0.000128018 -7.98924e-05 -0.00206475
-0.0042019 -0.00359509 4.39531e-05
-0.00359509 -0.00175408 -0.000208542
4.39531e-05 -0.000208542 -0.00532001
0.010035 -0.0022314 8.00904e-05
-0.0022314 0.00141934 -0.00045402
8.00904e-05 -0.00045402 0.00109948
0.000919238 2.79444e-05 8.88481e-06
2.79444e-05 0.000358028 2.76307e-06
8.88481e-06 2.76307e-06 0.0002031
0.000669993 0.000127183 -1.00222e-06
0.000127183 0.000148274 -1.24774e-06
-1.00222e-06 -1.24774e-06 3.23608e-06
0.000711628 -1.51905e-05 -5.78713e-07
-1.51905e-05 0.000218405 -3.26815e-06
-5.78713e-07 -3.26815e-06 1.00398e-05
0.000869197 0.000104877 -2.80441e-06
0.000104877 0.000258792 -5.68189e-06
-2.80441e-06 -5.68189e-06 9.94512e-05
-0.000500887 -0.00060883 -2.21736e-06
-0.00060883 -0.000776639 4.17236e-05
-2.21736e-06 4.17236e-05 -0.000918582
0.00315527 -0.000274857 1.55015e-06
-0.000274857 0.0018025 -2.43487e-05
1.55015e-06 -2.43487e-05 0.00150006
0.000634565 6.87489e-05 -4.07059e-06
6.87489e-05 0.00014143 -7.41107e-06
-4.07059e-06 -7.41107e-06 -9.90486e-07
0.000721423 0.000193159 -2.50945e-06
0.000193159 0.000280474 -1.97656e-06
-2.50945e-06 -1.97656e-06 0.000107812
0.00127926 8.86711e-05 -5.18583e-06
8.86711e-05 0.000944202 -3.84795e-06
-5.18583e-06 -3.84795e-06 0.000577144
0.000629958 6.85299e-05 3.83229e-06
6.85299e-05 0.00016569 2.89679e-06
3.83229e-06 2.89679e-06 4.24663e-05
0.000237665 0.000134045 -6.9444e-07
0.000134045 0.000370948 1.06631e-06
-6.9444e-07 1.06631e-06 -1.43644e-05
0.00169748 -0.000332622 -4.55853e-06
-0.000332622 0.00138638 4.64409e-06
-4.55853e-06 4.64409e-06 0.000496985
-6.91022e-05 -0.000103274 1.78109e-05
-0.000103274 0.000368142 -3.1318e-07
1.78109e-05 -3.1318e-07 3.52691e-05
-7.78576e-05 0.00011106 3.97991e-06
0.00011106 1.77954e-05 -2.60878e-06
3.97991e-06 -2.60878e-06 -0.000209554
0.0016431 -8.91057e-05 -1.67441e-05
-8.91057e-05 0.00246204 -3.85386e-05
-1.67441e-05 -3.85386e-05 0.0010398
0.00140691 0.000272061 -3.86912e-06
0.000272061 0.00112918 1.74541e-05
-3.86912e-06 1.74541e-05 0.000690985
-0.000816737 4.92827e-05 -3.9101e-05
4.92827e-05 0.000986064 1.08651e-05
-3.9101e-05 1.08651e-05 0.000274313
0.000940939 1.68627e-06 3.62692e-06
1.68627e-06 -0.000214854 1.28304e-06
3.62692e-06 1.28304e-06 -0.000294397
-0.00140003 6.38491e-05 1.27752e-06
6.38491e-05 0.000346239 -3.58295e-05
1.27752e-06 -3.58295e-05 -5.973e-05
0.000183086 0.000170395 -8.7383e-06
0.000170395 0.000409733 8.54959e-06
-8.7383e-06 8.54959e-06 0.000139181
-0.00124025 0.000559333 9.15742e-05
0.000559333 -0.000566367 8.36643e-05
9.15742e-05 8.36643e-05 -0.00108795
0.000844351 2.85471e-06 3.50749e-05
2.85471e-06 -0.000450544 -4.64997e-06
3.50749e-05 -4.64997e-06 -0.000139131
0.0038935 -0.00165757 0.000136727
-0.00165757 0.00449948 -0.000163713
0.000136727 -0.000163713 -0.00253011
0.0137013 0.00279654 -0.000131946
0.00279654 0.00617681 0.000100928
-0.000131946 0.000100928 0.00325614
0.00348034 -0.000333445 -9.85031e-05
-0.000333445 0.00226663 9.81859e-05
-9.85031e-05 9.81859e-05 0.00136832
0.00982409 0.00324824 -1.46555e-05
0.00324824 0.00248148 -0.000132761
-1.46555e-05 -0.000132761 0.000668577
0.0004112 0.00012844 -4.39378e-05
0.00012844 0.000918215 1.00338e-05
-4.39378e-05 1.00338e-05 0.000152513
0.000355195 -7.82707e-05 -4.23763e-05
-7.82707e-05 0.000932059 1.56601e-06
-4.23763e-05 1.56601e-06 0.000839881
0.00354749 -0.000921479 0.000204795
-0.000921479 0.00141889 -1.95047e-05
0.000204795 -1.95047e-05 -0.00265431
-0.00130539 -0.000177009 2.62816e-05
-0.000177009 -0.00038194 2.89063e-05
2.62816e-05 2.89063e-05 -0.000687608
0.00516405 0.00497912 0.000356937
0.00497912 0.00451341 -0.000176817
0.000356937 -0.000176817 0.00373464
0.00745991 0.00209751 -0.000133602
0.00209751 0.00136939 0.000246602
-0.000133602 0.000246602 -0.000781627
-0.00285587 -0.000986427 0.0001055
-0.000986427 0.00193646 -0.00011012
0.0001055 -0.00011012 -0.00434564
-0.000128256 -0.000316393 2.0025e-05
-0.000316393 0.000473708 -2.00171e-05
2.0025e-05 -2.00171e-05 -0.000277584
0.000202071 -0.000437302 0.000184465
-0.000437302 -0.00030267 -4.13666e-05
0.000184465 -4.13666e-05 -0.00261468
-0.00221526 -1.13424e-06 -0.000632494
-1.13424e-06 0.00448285 0.000167649
-0.000632494 0.000167649 0.00162946
0.00965992 0.00472324 -0.000437978
0.00472324 0.00231059 0.00046999
-0.000437978 0.00046999 0.000922656
0.00859674 -0.00216149 -7.17123e-05
-0.00216149 0.0035915 2.70776e-05
-7.17123e-05 2.70776e-05 -4.73068e-05
0.00279396 -0.00100886 -3.62516e-05
-0.00100886 0.00173135 2.4411e-05
-3.62516e-05 2.4411e-05 0.00121073
0.000432391 -4.90152e-05 6.8048e-06
-4.90152e-05 0.000458736 1.30715e-05
6.8048e-06 1.30715e-05 0.000197137
0.000335775 -0.00026796 4.18836e-06
-0.00026796 0.000370234 -5.21607e-07
4.18836e-06 -5.21607e-07 -8.68218e-06
0.00118871 -0.000545531 1.09721e-05
-0.000545531 0.000569527 -5.27242e-07
1.09721e-05 -5.27242e-07 0.00041651
-0.000447045 -0.000186975 -4.47247e-07
-0.000186975 -3.57153e-05 7.5359e-06
-4.47247e-07 7.5359e-06 -0.000315131
-0.000789581 -0.000263897 1.42046e-06
-0.000263897 -0.000486259 -1.47286e-06
1.42046e-06 -1.47286e-06 -0.000685453
0.00271458 -0.000665606 4.22073e-05
-0.000665606 0.00108168 -3.41076e-06
4.22073e-05 -3.41076e-06 0.000804558
0.00554862 -0.000920989 -1.41868e-05
-0.000920989 0.00281325 5.32971e-06
-1.41868e-05 5.32971e-06 0.00244575
0.00267327 -0.000638869 6.77291e-06
-0.000638869 0.00114393 1.99893e-07
6.77291e-06 1.99893e-07 0.000663873
0.00160709 -0.00061127 1.07439e-05
-0.00061127 0.000404311 -8.89144e-06
1.07439e-05 -8.89144e-06 -0.000104009
0.00153278 -0.000456669 -9.1256e-06
-0.000456669 0.000373169 -9.87652e-07
-9.1256e-06 -9.87652e-07 1.9129e-05
0.00226645 -0.000645645 2.41815e-06
-0.000645645 0.000738977 -3.18655e-07
2.41815e-06 -3.18655e-07 0.000276199
0.00229744 -0.000691034 3.38249e-06
-0.000691034 0.000697068 -8.8699e-06
3.38249e-06 -8.8699e-06 0.000233147
0.00203492 -0.000604329 -1.70427e-06
-0.000604329 0.000393989 -4.62228e-06
-1.70427e-06 -4.62228e-06 5.98595e-05
0.00203496 -0.000656242 -1.31429e-06
-0.000656242 0.000496486 1.29574e-06
-1.31429e-06 1.29574e-06 0.000120818
0.0019324 -0.000648436 -1.97795e-06
-0.000648436 0.000456197 -1.93298e-08
-1.97795e-06 -1.93298e-08 5.19006e-05
0.00203806 -0.000510649 7.22898e-06
-0.000510649 0.000691269 2.27185e-06
7.22898e-06 2.27185e-06 0.000373391
0.00125555 -0.000454258 1.46776e-06
-0.000454258 0.000191754 1.10406e-08
1.46776e-06 1.10406e-08 -0.000133171
0.00129625 -0.000467508 -5.15428e-07
-0.000467508 0.000196145 -7.96197e-08
-5.15428e-07 -7.96197e-08 -0.000156499
0.00159878 -0.000354293 3.53111e-06
-0.000354293 0.000518155 2.19918e-07
3.53111e-06 2.19918e-07 0.000268115
0.00150661 -0.000373622 -1.13182e-06
-0.000373622 0.000421846 -1.55631e-06
-1.13182e-06 -1.55631e-06 0.000156201
0.00123706 -0.000376212 1.04422e-05
-0.000376212 0.000217651 -5.34439e-06
1.04422e-05 -5.34439e-06 -6.70848e-05
0.000662259 -0.000163621 3.21519e-06
-0.000163621 0.000157952 4.68968e-07
3.21519e-06 4.68968e-07 -9.70018e-05
0.000717985 -0.000191299 -2.06377e-06
-0.000191299 0.000114505 1.34038e-06
-2.06377e-06 1.34038e-06 -0.000119231
0.000985736 -0.000316842 7.67677e-06
-0.000316842 0.000192901 -6.77193e-06
7.67677e-06 -6.77193e-06 -6.12744e-05
0.000372305 -1.52403e-05 6.34661e-07
-1.52403e-05 -9.00334e-05 4.9148e-06
6.34661e-07 4.9148e-06 -0.000199475
0.000687018 -5.97514e-05 -9.7765e-07
-5.97514e-05 0.000152805 8.45693e-09
-9.7765e-07 8.45693e-09 -4.01319e-05
0.00142489 -0.000232491 9.98957e-07
-0.000232491 0.000630789 3.62945e-07
9.98957e-07 3.62945e-07 0.000387413
0.000468145 2.47462e-05 -3.17142e-06
2.47462e-05 -3.90587e-05 9.85757e-06
-3.17142e-06 9.85757e-06 -7.52125e-05
0.000637099 -1.75323e-05 -3.49128e-07
-1.75323e-05 7.09756e-05 -1.42504e-07
-3.49128e-07 -1.42504e-07 -2.38666e-05
0.00116685 -0.000126871 1.36193e-07
-0.000126871 0.0004138 -1.07881e-06
1.36193e-07 -1.07881e-06 0.000267147
0.000658362 -2.98082e-05 1.07987e-06
-2.98082e-05 8.64858e-05 -3.54173e-06
1.07987e-06 -3.54173e-06 8.23875e-07
0.000498026 3.08394e-05 1.7215e-07
3.08394e-05 -2.31783e-05 -7.38447e-08
1.7215e-07 -7.38447e-08 -5.59389e-05
0.00269515 0.000115752 -3.24679e-05
0.000115752 0.00133843 4.09664e-06
-3.24679e-05 4.09664e-06 0.00133914
0.000547613 2.79899e-05 5.16185e-07
2.79899e-05 -2.06478e-07 -6.01465e-06
5.16185e-07 -6.01465e-06 -2.85626e-05
0.00260667 9.78455e-05 3.76926e-06
9.78455e-05 0.00127613 4.01386e-07
3.76926e-06 4.01386e-07 0.00128097
0.00254561 8.05272e-05 2.52829e-05
8.05272e-05 0.0012323 -4.59135e-06
2.52829e-05 -4.59135e-06 0.0012404
0.000669457 8.05769e-05 1.16052e-06
8.05769e-05 0.000158741 -1.59552e-06
1.16052e-06 -1.59552e-06 -3.71203e-06
0.000762446 0.000101724 3.82229e-06
0.000101724 0.000190796 -9.28068e-07
3.82229e-06 -9.28068e-07 4.8524e-05
0.000590406 3.01348e-05 1.66279e-06
3.01348e-05 4.06615e-05 -3.21864e-06
1.66279e-06 -3.21864e-06 -3.64856e-05
0.000644429 9.26311e-05 1.60203e-07
9.26311e-05 0.00010281 -1.93908e-07
1.60203e-07 -1.93908e-07 -1.60559e-05
0.000497675 -8.29992e-06 2.05275e-07
-8.29992e-06 -3.93618e-05 -5.77922e-06
2.05275e-07 -5.77922e-06 -6.02634e-05
0.000565214 4.10219e-05 2.21278e-07
4.10219e-05 2.63813e-05 -1.30674e-07
2.21278e-07 -1.30674e-07 -4.33421e-05
0.000595193 4.87871e-05 -3.19033e-06
4.87871e-05 6.63393e-05 -2.31314e-07
-3.19033e-06 -2.31314e-07 -4.36809e-05
0.00230315 -5.1864e-05 -2.38857e-05
-5.1864e-05 0.00107533 -4.73416e-06
-2.38857e-05 -4.73416e-06 0.00108942
0.000506385 -1.03264e-05 -5.85651e-07
-1.03264e-05 -3.6129e-05 -9.06635e-08
-5.85651e-07 -9.06635e-08 -5.243e-05
0.000503989 4.66785e-05 -2.6185e-06
4.66785e-05 -8.4243e-06 8.48229e-07
-2.6185e-06 8.48229e-07 -7.26177e-05
0.00218413 -3.55717e-05 -4.51214e-06
-3.55717e-05 0.000999927 2.03481e-07
-4.51214e-06 2.03481e-07 0.00101636
0.000505709 -7.21443e-06 -1.89687e-06
-7.21443e-06 -3.78579e-05 3.78501e-06
-1.89687e-06 3.78501e-06 -5.00417e-05
0.00209541 -1.98295e-05 1.34331e-05
-1.98295e-05 0.000944409 4.65076e-06
1.34331e-05 4.65076e-06 0.000962298
-0.00126751 1.30955e-05 -1.02915e-05
1.30955e-05 -0.000115352 -5.68959e-06
-1.02915e-05 -5.68959e-06 -2.5146e-05
0.00119191 -0.000140183 -1.72449e-05
-0.000140183 -0.000324658 2.56868e-05
-1.72449e-05 2.56868e-05 -9.32291e-05
0.000275137 -0.000159219 7.43601e-06
-0.000159219 0.000938733 -2.54024e-05
7.43601e-06 -2.54024e-05 0.000720774
0.000765183 8.4684e-05 -3.68546e-07
8.4684e-05 0.000183996 4.67888e-07
-3.68546e-07 4.67888e-07 3.7903e-05
0.000553381 7.56373e-05 3.1674e-06
7.56373e-05 1.11913e-05 -9.42806e-07
3.1674e-06 -9.42806e-07 -0.000123892
-0.00120941 4.73471e-06 -4.24275e-06
4.73471e-06 -0.00104269 -7.15053e-06
-4.24275e-06 -7.15053e-06 -0.0011524
0.000190639 2.94322e-05 2.05651e-06
2.94322e-05 -0.000182306 7.48204e-06
2.05651e-06 7.48204e-06 -0.0003116
0.00242707 0.000306449 -1.34721e-06
0.000306449 0.00120303 3.18021e-07
-1.34721e-06 3.18021e-07 0.00100069
0.000711148 4.10612e-05 -3.84834e-06
4.10612e-05 0.000105912 -1.39517e-06
-3.84834e-06 -1.39517e-06 -8.19169e-06
0.000577764 7.88289e-05 -4.12418e-06
7.88289e-05 4.50845e-05 -4.92509e-06
-4.12418e-06 -4.92509e-06 -7.22791e-05
0.000731329 7.00083e-05 1.03355e-07
7.00083e-05 0.000139906 -3.25641e-07
1.03355e-07 -3.25641e-07 1.95562e-05
0.000959049 0.000133903 -7.48441e-08
0.000133903 0.000299621 -9.1991e-07
-7.48441e-08 -9.1991e-07 0.000171337
0.000760556 9.7216e-05 5.1483e-06
9.7216e-05 0.000258591 -6.58814e-06
5.1483e-06 -6.58814e-06 8.75682e-05
0.00433039 0.000563119 0.000279189
0.000563119 0.00299458 0.000370295
0.000279189 0.000370295 -0.00119297
0.00126247 0.000349878 1.44808e-05
0.000349878 -8.38548e-05 8.20556e-05
1.44808e-05 8.20556e-05 -0.00156079
0.00319033 -6.78609e-05 1.47089e-06
-6.78609e-05 2.6478e-05 -1.35357e-05
1.47089e-06 -1.35357e-05 -0.000229204
0.0127163 -0.00164636 -0.000178136
-0.00164636 0.00172916 -0.000135753
-0.000178136 -0.000135753 0.00339075
-0.00627084 0.00150905 3.38681e-05
0.00150905 -0.00260811 0.000365328
3.38681e-05 0.000365328 -0.00613588
0.00363424 -0.00172448 -9.33195e-05
-0.00172448 0.00115799 1.48601e-05
-9.33195e-05 1.48601e-05 0.00118722
0.0103946 -0.00160311 -0.000111261
-0.00160311 0.00524314 8.89146e-06
-0.000111261 8.89146e-06 0.0010133
0.000737765 -0.000407068 -2.03714e-05
-0.000407068 0.000225217 8.08309e-05
-2.03714e-05 8.08309e-05 9.22374e-05
0.0100609 -0.000281138 -8.0046e-05
-0.000281138 0.00594077 -7.52143e-06
-8.0046e-05 -7.52143e-06 0.000341789
0.00391147 -0.00209648 8.3312e-05
-0.00209648 0.00213529 0.000131346
8.3312e-05 0.000131346 -0.00121361
0.0107753 -0.00291758 -0.000179504
-0.00291758 0.000586522 -0.00053726
-0.000179504 -0.00053726 0.000187508
0.00347632 9.6889e-05 -0.000102316
9.6889e-05 0.00225455 8.00274e-05
-0.000102316 8.00274e-05 0.0015761
0.0119418 0.00195111 -0.000113783
0.00195111 0.00583485 2.76195e-05
-0.000113783 2.76195e-05 0.00154085
0.0150055 -0.00421726 -0.000181966
-0.00421726 0.0064821 -0.000495356
-0.000181966 -0.000495356 0.00433781
0.015077 -0.00526928 7.58632e-05
-0.00526928 0.00487253 -3.68678e-05
7.58632e-05 -3.68678e-05 0.00447837
0.000400373 0.000134946 1.07935e-05
0.000134946 0.000120632 7.82928e-07
1.07935e-05 7.82928e-07 -6.70327e-05
0.000478868 3.94865e-05 1.59695e-06
3.94865e-05 0.000132008 2.26368e-06
1.59695e-06 2.26368e-06 -4.78612e-05
0.00087026 0.000149746 -5.65977e-06
0.000149746 0.000278993 -8.00938e-06
-5.65977e-06 -8.00938e-06 0.000126109
0.00313328 -0.000339006 -5.74663e-05
-0.000339006 0.00167861 3.87959e-05
-5.74663e-05 3.87959e-05 0.000675087
0.000261931 -7.38345e-05 -8.00306e-06
-7.38345e-05 0.000623268 -3.7376e-05
-8.00306e-06 -3.7376e-05 0.000275661
0.000431669 -1.03834e-07 -7.66343e-06
-1.03834e-07 3.6587e-05 -1.07253e-06
-7.66343e-06 -1.07253e-06 -7.892e-05
3.287e-05 4.63253e-05 -6.51095e-07
4.63253e-05 0.000257682 -4.73696e-06
-6.51095e-07 -4.73696e-06 -0.000125261
0.000297281 9.94169e-05 1.32813e-06
9.94169e-05 0.000211689 -1.05151e-06
1.32813e-06 -1.05151e-06 -2.20823e-05
0.000514461 0.000238925 8.6375e-06
0.000238925 0.000580769 1.15077e-06
8.6375e-06 1.15077e-06 0.000141725
-0.00150392 -9.1315e-05 0.000197831
-9.1315e-05 0.000624059 -1.72816e-05
0.000197831 -1.72816e-05 -0.00093141
-0.00178279 0.000152839 -1.38097e-05
0.000152839 -0.00090857 1.3239e-05
-1.38097e-05 1.3239e-05 -0.00122154
0.00267492 0.000594916 -0.000116938
0.000594916 0.00193126 -6.99317e-05
-0.000116938 -6.99317e-05 0.000835689
0.00161612 0.000164352 0.000128981
0.000164352 0.00154528 3.96171e-05
0.000128981 3.96171e-05 -0.00161979
-0.00114082 6.55053e-05 -1.16346e-05
6.55053e-05 0.000701017 1.76805e-05
-1.16346e-05 1.76805e-05 6.39142e-05
0.00176428 -0.000130701 -7.28399e-06
-0.000130701 0.000157454 9.72142e-07
-7.28399e-06 9.72142e-07 0.000493887
-0.00110789 0.000398395 0.000115332
0.000398395 6.01563e-06 1.23045e-05
0.000115332 1.23045e-05 -0.000853444
0.00172448 0.000255349 -6.128e-05
0.000255349 0.0014849 5.62359e-05
-6.128e-05 5.62359e-05 0.00038078
0.000255467 -0.000144143 -1.47988e-05
-0.000144143 0.000904599 8.03569e-06
-1.47988e-05 8.03569e-06 0.000695045
0.0160798 -0.00288081 0.000158011
-0.00288081 0.00746834 -7.06326e-05
0.000158011 -7.06326e-05 0.00240736
0.0175557 0.00316445 -5.65715e-05
0.00316445 0.00725196 -9.55882e-05
-5.65715e-05 -9.55882e-05 0.004643
0.00448857 -0.00100327 -0.000142707
-0.00100327 0.00203016 0.000181009
-0.000142707 0.000181009 -0.00207386
-0.00219913 0.00568053 0.0016228
0.00568053 0.000148072 -0.00114645
0.0016228 -0.00114645 -0.000447768
0.000789537 -0.00033865 2.19026e-05
-0.00033865 0.000994909 -6.32556e-06
2.19026e-05 -6.32556e-06 0.000163479
0.000108522 -0.000315474 2.22629e-05
-0.000315474 0.000111047 1.53121e-05
2.22629e-05 1.53121e-05 -0.00263396
-0.00230899 0.000284009 -0.000789684
0.000284009 0.00437977 0.000287108
-0.000789684 0.000287108 0.00139128
0.000948714 -0.000587024 -8.3321e-06
-0.000587024 0.000775612 3.39478e-05
-8.3321e-06 3.39478e-05 0.000315819
0.017359 0.00420413 0.000219886
0.00420413 0.00503465 8.16893e-05
0.000219886 8.16893e-05 0.00379935
0.00781919 -0.00301693 0.000140423
-0.00301693 0.00286918 -6.44731e-05
0.000140423 -6.44731e-05 -0.000604696
0.00220073 -0.000909692 -1.32798e-05
-0.000909692 0.00113613 2.86595e-05
-1.32798e-05 2.86595e-05 0.000687862
-0.00617389 -0.00110637 9.02569e-05
-0.00110637 0.00365982 -4.90297e-05
9.02569e-05 -4.90297e-05 0.000421721
0.013483 0.00383137 -0.00097255
0.00383137 0.00543683 0.000420043
-0.00097255 0.000420043 0.00394368
0.00384653 -0.00209464 -0.000301995
-0.00209464 -0.000532746 0.000171632
-0.000301995 0.000171632 -0.00409955
0.00221648 -0.00150571 0.000164644
-0.00150571 0.000410553 -9.08144e-05
0.000164644 -9.08144e-05 0.00100703
-3.12404e-05 -0.000289436 -6.56097e-05
-0.000289436 0.000146813 2.22207e-05
-6.56097e-05 2.22207e-05 -0.000207596
0.000693493 -0.000474684 -8.54083e-06
-0.000474684 0.000353935 1.20662e-05
-8.54083e-06 1.20662e-05 0.000125447
0.00332161 -0.000722879 2.70974e-05
-0.000722879 0.00151373 1.02328e-06
2.70974e-05 1.02328e-06 0.00123948
-0.00249119 -0.000119868 1.52775e-06
-0.000119868 -0.00130705 1.17752e-05
1.52775e-06 1.17752e-05 -0.00151586
0.000855526 -0.000453465 5.85702e-06
-0.000453465 0.000116467 6.69957e-07
5.85702e-06 6.69957e-07 -0.000146211
0.00221084 -0.000705953 8.99799e-06
-0.000705953 0.000542693 -9.80621e-07
8.99799e-06 -9.80621e-07 0.00023369
0.00334464 -0.000719965 -2.41027e-05
-0.000719965 0.00143174 7.09197e-06
-2.41027e-05 7.09197e-06 0.000965506
0.00144546 -0.000576902 -1.22621e-06
-0.000576902 0.000294412 -2.02686e-06
-1.22621e-06 -2.02686e-06 -0.000190502
0.00177602 -0.000711847 5.75563e-06
-0.000711847 0.000250265 -9.52159e-06
5.75563e-06 -9.52159e-06 -0.000141329
0.00270391 -0.000703577 -4.30621e-06
-0.000703577 0.000955839 2.22667e-06
-4.30621e-06 2.22667e-06 0.000483921
0.00190399 -0.000654019 3.10629e-07
-0.000654019 0.000459073 -4.74326e-06
3.10629e-07 -4.74326e-06 1.35625e-05
0.00240636 -0.00064432 2.66175e-06
-0.00064432 0.000546874 -8.48015e-06
2.66175e-06 -8.48015e-06 0.000221638
0.00167537 -0.000448118 -4.12396e-06
-0.000448118 4.37298e-05 -3.35775e-06
-4.12396e-06 -3.35775e-06 -0.000187335
0.00174221 -0.000594729 1.03445e-06
-0.000594729 0.000187689 -1.13786e-06
1.03445e-06 -1.13786e-06 -0.000142128
0.0019417 -0.000594389 2.45559e-06
-0.000594389 0.000339112 -2.89399e-06
2.45559e-06 -2.89399e-06 9.01641e-06
0.001955 -0.000573365 6.68689e-07
-0.000573365 0.000516026 -2.29013e-07
6.68689e-07 -2.29013e-07 0.000176992
0.00204223 -0.000656569 -2.19233e-06
-0.000656569 0.000514733 1.28161e-07
-2.19233e-06 1.28161e-07 0.000134152
0.00214052 -0.000674659 7.9593e-07
-0.000674659 0.000569296 -2.96253e-06
7.9593e-07 -2.96253e-06 0.000156505
0.00186883 -0.000425781 4.14339e-06
-0.000425781 0.000625758 2.6581e-06
4.14339e-06 2.6581e-06 0.000345086
0.00124769 -0.000423808 1.52901e-06
-0.000423808 0.000227913 9.8584e-07
1.52901e-06 9.8584e-07 -6.9234e-05
0.00102591 -0.000423631 3.26291e-06
-0.000423631 5.79682e-05 3.05476e-07
3.26291e-06 3.05476e-07 -0.000253773
0.00113671 -0.000297933 -1.07144e-06
-0.000297933 0.000330987 4.28665e-07
-1.07144e-06 4.28665e-07 8.59062e-05
0.00104276 -0.000293048 -5.33422e-07
-0.000293048 0.000185125 -8.96614e-07
-5.33422e-07 -8.96614e-07 -5.42041e-05
0.000964402 -0.000316977 -3.96914e-06
-0.000316977 9.02447e-05 -3.73148e-06
-3.96914e-06 -3.73148e-06 -0.000166865
-0.000115878 -4.1624e-05 -1.1707e-06
-4.1624e-05 -0.000373797 5.27377e-06
-1.1707e-06 5.27377e-06 -0.000529646
0.000753686 -0.000168746 2.38923e-06
-0.000168746 0.000209811 2.02618e-07
2.38923e-06 2.02618e-07 -4.37551e-05
0.00135541 -0.00024142 -1.76947e-06
-0.00024142 0.000518635 1.91747e-06
-1.76947e-06 1.91747e-06 0.000271052
0.00164885 6.26843e-05 -2.89458e-05
6.26843e-05 0.000698783 6.59853e-06
-2.89458e-05 6.59853e-06 0.000657357
0.000707307 -5.48193e-05 5.12916e-07
-5.48193e-05 0.000108501 -5.62256e-07
5.12916e-07 -5.62256e-07 -4.56041e-06
0.00148124 -0.000103291 -3.33017e-06
-0.000103291 0.000642808 -2.11483e-06
-3.33017e-06 -2.11483e-06 0.000438195
0.000774603 4.73512e-05 -3.87323e-05
4.73512e-05 0.000154784 4.67936e-06
-3.87323e-05 4.67936e-06 0.000148514
0.00103232 4.1583e-05 -1.23703e-05
4.1583e-05 0.000311539 -4.7376e-07
-1.23703e-05 -4.7376e-07 0.000275844
0.000624903 -2.5891e-05 1.16002e-06
-2.5891e-05 5.86309e-05 -4.48682e-06
1.16002e-06 -4.48682e-06 -3.51047e-05
0.000533429 3.02206e-05 1.35959e-06
3.02206e-05 -1.8716e-06 -7.07084e-06
1.35959e-06 -7.07084e-06 -3.48568e-05
0.00272368 0.000116963 6.31625e-06
0.000116963 0.0013566 5.84333e-07
6.31625e-06 5.84333e-07 0.00135715
0.00259713 9.93532e-05 2.79026e-05
9.93532e-05 0.00127101 -4.4216e-06
2.79026e-05 -4.4216e-06 0.00127552
0.00110664 0.000121278 5.52111e-06
0.000121278 0.000406401 3.42748e-06
5.52111e-06 3.42748e-06 0.000249267
0.00103892 0.000126409 2.47751e-06
0.000126409 0.000375783 -2.38333e-06
2.47751e-06 -2.38333e-06 0.000214857
0.000398821 6.6773e-05 -6.0338e-07
6.6773e-05 -3.26958e-05 1.30789e-06
-6.0338e-07 1.30789e-06 -0.000176055
0.000635999 2.26438e-05 1.65941e-06
2.26438e-05 6.82514e-05 -4.24617e-06
1.65941e-06 -4.24617e-06 -1.79888e-05
0.000770386 8.94951e-05 6.04177e-07
8.94951e-05 0.000187036 -1.33826e-08
6.04177e-07 -1.33826e-08 5.44652e-05
0.000493261 -4.40926e-06 -9.73711e-07
-4.40926e-06 -3.70833e-05 -6.71473e-06
-9.73711e-07 -6.71473e-06 -6.26277e-05
0.000564739 3.19819e-05 -6.63096e-08
3.19819e-05 2.66031e-05 -2.83138e-07
-6.63096e-08 -2.83138e-07 -5.11776e-05
0.000705356 6.67933e-05 -2.15896e-06
6.67933e-05 0.000159527 1.08521e-06
-2.15896e-06 1.08521e-06 2.59208e-05
0.00248184 -6.87251e-05 -3.12059e-05
-6.87251e-05 0.00118935 -4.62129e-06
-3.12059e-05 -4.62129e-06 0.00120051
0.000485601 -8.29604e-06 -7.75883e-07
-8.29604e-06 -4.64492e-05 -8.86244e-08
-7.75883e-07 -8.86244e-08 -6.71355e-05
0.000570856 4.55531e-05 -2.61611e-07
4.55531e-05 3.07009e-05 2.86284e-06
-2.61611e-07 2.86284e-06 -3.91819e-05
0.00231128 -5.15824e-05 -5.2652e-06
-5.15824e-05 0.00108026 3.09066e-07
-5.2652e-06 3.09066e-07 0.00109442
0.000486916 -1.36541e-05 -2.70018e-06
-1.36541e-05 -4.7668e-05 4.63293e-06
-2.70018e-06 4.63293e-06 -6.38635e-05
0.00218602 -3.42032e-05 1.87853e-05
-3.42032e-05 0.00100098 4.56552e-06
1.87853e-05 4.56552e-06 0.00101759
0.00600072 0.000345234 0.000211227
0.000345234 0.00293055 3.96452e-05
0.000211227 3.96452e-05 0.00126169
-0.00112572 -1.15677e-05 -8.78199e-07
-1.15677e-05 -0.000116227 -3.75059e-06
-8.78199e-07 -3.75059e-06 -0.000147347
0.000944857 -4.94164e-05 -2.35621e-05
-4.94164e-05 -0.000313975 7.7292e-07
-2.35621e-05 7.7292e-07 -2.64591e-05
-0.000186479 9.00215e-05 -6.72652e-06
9.00215e-05 -0.000417516 -1.92696e-06
-6.72652e-06 -1.92696e-06 -0.000545552
0.000702059 7.81968e-05 -3.86956e-06
7.81968e-05 0.000141066 -1.2235e-06
-3.86956e-06 -1.2235e-06 3.95953e-06
0.000198766 5.92283e-05 4.82686e-07
5.92283e-05 -0.000207019 -2.82067e-06
4.82686e-07 -2.82067e-06 -0.000335471
0.000944491 5.87527e-05 4.86642e-07
5.87527e-05 0.000262574 -4.00645e-07
4.86642e-07 -4.00645e-07 0.000127798
0.000352723 8.77531e-05 -1.47619e-06
8.77531e-05 -0.00010989 -1.20954e-07
-1.47619e-06 -1.20954e-07 -0.000227612
0.00173916 0.000236613 3.3503e-07
0.000236613 0.000780837 -2.61666e-06
3.3503e-07 -2.61666e-06 0.000612395
0.00105252 0.000189933 -3.59797e-06
0.000189933 0.000332973 -1.24289e-05
-3.59797e-06 -1.24289e-05 0.000107973
-0.000374744 4.64379e-05 2.40687e-06
4.64379e-05 -0.000384731 4.09934e-06
2.40687e-06 4.09934e-06 -0.000598455
0.000776802 0.000132001 -3.1899e-06
0.000132001 0.000187144 -1.38788e-06
-3.1899e-06 -1.38788e-06 5.37046e-05
0.000222804 4.21987e-05 -4.76218e-06
4.21987e-05 -0.000181246 -3.92224e-06
-4.76218e-06 -3.92224e-06 -0.000279686
0.000259351 5.30618e-05 1.41998e-07
5.30618e-05 -5.73681e-05 1.01769e-06
1.41998e-07 1.01769e-06 -0.000217349
0.00108068 0.000210922 1.3983e-05
0.000210922 0.000548277 5.57005e-06
1.3983e-05 5.57005e-06 0.000296733
0.00155181 -0.00177009 0.000144953
-0.00177009 0.00409044 0.000243121
0.000144953 0.000243121 0.000175623
0.00493847 0.000745197 6.54821e-05
0.000745197 0.00266121 0.000136322
6.54821e-05 0.000136322 -0.00175577
0.00179236 0.000261998 -2.76968e-05
0.000261998 0.000283747 -7.00528e-05
-2.76968e-05 -7.00528e-05 -0.00140764
0.0169224 -0.00360695 -0.000471965
-0.00360695 0.00380673 -0.000288164
-0.000471965 -0.000288164 0.00333029
0.0063226 -0.00131136 0.000173479
-0.00131136 0.00265268 0.000380893
0.000173479 0.000380893 0.0001684
0.00270674 -0.00115347 -0.000160574
-0.00115347 0.00376952 8.49635e-05
-0.000160574 8.49635e-05 -0.00221376
0.000931977 -0.000557022 5.0286e-05
-0.000557022 0.00115958 2.74151e-05
5.0286e-05 2.74151e-05 0.000421631
0.00120906 -0.000114642 1.50385e-05
-0.000114642 0.000989162 5.3748e-05
1.50385e-05 5.3748e-05 0.000634546
0.00702564 -0.00543397 0.000294546
-0.00543397 0.0025594 0.000286271
0.000294546 0.000286271 0.00208237
0.00302859 0.00127721 -5.79332e-05
0.00127721 0.0038266 -5.77453e-05
-5.79332e-05 -5.77453e-05 -0.00176229
0.00551598 -0.00256522 -8.66913e-05
-0.00256522 0.00123213 7.83313e-05
-8.66913e-05 7.83313e-05 -0.00139506
0.000421782 0.00047828 -2.33687e-05
0.00047828 0.000621506 5.99648e-05
-2.33687e-05 5.99648e-05 0.000454113
0.0103596 0.0024217 -8.62526e-05
0.0024217 0.00407345 -1.16828e-07
-8.62526e-05 -1.16828e-07 0.000585509
0.00958313 -0.0044825 -0.00057085
-0.0044825 0.00213492 -0.000397751
-0.00057085 -0.000397751 0.000565456
0.000105617 0.000375355 3.38043e-06
0.000375355 -0.000282494 -5.28335e-06
3.38043e-06 -5.28335e-06 -0.000440414
0.000461486 0.000106957 6.15762e-06
0.000106957 0.000142335 1.93972e-06
6.15762e-06 1.93972e-06 -2.82391e-05
9.10341e-05 4.58516e-05 -6.50897e-06
4.58516e-05 -9.97272e-05 -3.89418e-06
-6.50897e-06 -3.89418e-06 -0.00028061
-0.00255517 -0.000274258 -9.17752e-05
-0.000274258 0.000167125 -5.33711e-05
-9.17752e-05 -5.33711e-05 -0.00136193
-0.000803173 0.000173774 8.22758e-06
0.000173774 -0.000214947 -1.6186e-05
8.22758e-06 -1.6186e-05 -0.000654106
0.000420447 0.000103282 -8.68693e-06
0.000103282 0.000258142 1.66768e-06
-8.68693e-06 1.66768e-06 1.80498e-05
0.000810525 0.000469692 1.45417e-05
0.000469692 0.0004385 3.46763e-06
1.45417e-05 3.46763e-06 9.63078e-05
-0.000286654 0.000324179 4.63392e-05
0.000324179 0.000477944 -2.77227e-05
4.63392e-05 -2.77227e-05 -0.000477223
0.000317503 0.000861315 4.23009e-05
0.000861315 -0.000211005 3.8067e-06
4.23009e-05 3.8067e-06 -0.000798175
-0.0041987 0.00077132 0.000247557
0.00077132 0.00453253 1.20945e-05
0.000247557 1.20945e-05 -0.000386313
0.0022517 -3.24847e-05 -5.48176e-06
-3.24847e-05 0.00173529 4.64036e-05
-5.48176e-06 4.64036e-05 -0.000555861
-0.00149061 -3.89072e-05 -6.68897e-06
-3.89072e-05 0.000322541 3.0278e-05
-6.68897e-06 3.0278e-05 -8.99767e-05
-0.000180742 -0.000192804 -5.87431e-05
-0.000192804 0.000602747 1.22543e-05
-5.87431e-05 1.22543e-05 -0.000249747
-0.00113618 -0.000248296 -5.90788e-05
-0.000248296 -0.00073483 3.67658e-05
-5.90788e-05 3.67658e-05 -0.000428525
0.000316123 -0.000244827 -0.000136931
-0.000244827 0.000309465 7.31971e-05
-0.000136931 7.31971e-05 -0.00253862
-0.00121588 -0.00248796 0.000162508
-0.00248796 0.00125636 -9.99564e-05
0.000162508 -9.99564e-05 -0.00365518
0.00284786 0.00363093 0.000436421
0.00363093 -0.00212293 -0.000343664
0.000436421 -0.000343664 -0.0033039
0.00593731 0.0018248 -0.000328482
0.0018248 0.00558518 0.000223814
-0.000328482 0.000223814 0.0030116
0.0013205 -0.000525421 -5.62049e-06
-0.000525421 0.000931407 -3.29256e-06
-5.62049e-06 -3.29256e-06 0.000516017
0.00136425 0.000317673 7.21326e-05
0.000317673 0.00548856 -5.0086e-06
7.21326e-05 -5.0086e-06 0.00280793
-0.0012705 0.00253503 1.60789e-05
0.00253503 4.37182e-05 4.35153e-05
1.60789e-05 4.35153e-05 -0.00246845
0.00263506 -0.00174178 7.68007e-05
-0.00174178 0.000809985 -2.78362e-05
7.68007e-05 -2.78362e-05 0.000711633
0.0159251 -0.00222529 2.59132e-05
-0.00222529 0.00414204 -1.16362e-05
2.59132e-05 -1.16362e-05 0.00223794
0.00303451 -0.00112143 -8.75943e-06
-0.00112143 0.0010989 2.37136e-05
-8.75943e-06 2.37136e-05 0.000960059
-0.00909765 0.000813073 -0.000362655
0.000813073 -0.00346989 3.59273e-05
-0.000362655 3.59273e-05 -0.00527192
0.0147974 -0.00142761 -0.000170169
-0.00142761 0.00266336 5.8617e-05
-0.000170169 5.8617e-05 0.00112827
0.0035203 -0.00200275 7.14812e-05
-0.00200275 -0.000193921 -5.70607e-05
7.14812e-05 -5.70607e-05 -0.000214777
-3.59392e-05 -0.000355578 -1.39747e-05
-0.000355578 3.48896e-05 1.53618e-05
-1.39747e-05 1.53618e-05 -0.000266093
0.00106427 -0.000578372 -3.25111e-06
-0.000578372 0.000181906 5.14e-07
-3.25111e-06 5.14e-07 3.62086e-05
0.00469229 -0.000796944 2.09496e-05
-0.000796944 0.00191746 -4.32599e-06
2.09496e-05 -4.32599e-06 0.00163496
-0.000783228 -0.000271447 -1.0554e-05
-0.000271447 -0.000718543 5.56271e-06
-1.0554e-05 5.56271e-06 -0.000976773
0.00139743 -0.000619507 -6.41576e-06
-0.000619507 0.000146593 -3.28428e-06
-6.41576e-06 -3.28428e-06 -0.000180038
0.00259113 -0.000803604 6.43963e-06
-0.000803604 0.000554408 -7.62793e-06
6.43963e-06 -7.62793e-06 0.000236459
0.00119015 -0.000534423 -1.5961e-05
-0.000534423 0.00013506 2.62127e-06
-1.5961e-05 2.62127e-06 -0.000327964
0.00172551 -0.000691129 -9.42926e-07
-0.000691129 0.000236414 -3.32529e-07
-9.42926e-07 -3.32529e-07 -0.000158529
0.0015294 -0.000574762 3.98526e-06
-0.000574762 -9.17809e-05 -5.37578e-06
3.98526e-06 -5.37578e-06 -0.00034035
0.0013875 -0.000605492 -7.42197e-06
-0.000605492 0.000151768 1.30121e-06
-7.42197e-06 1.30121e-06 -0.000275753
0.00178704 -0.000575117 -5.20852e-07
-0.000575117 0.000210666 1.22339e-06
-5.20852e-07 1.22339e-06 -0.000100747
0.00184355 -0.000451274 -3.81344e-07
-0.000451274 7.70672e-05 -4.64657e-06
-3.81344e-07 -4.64657e-06 -0.000111985
0.00174065 -0.000363651 -5.0762e-06
-0.000363651 5.75382e-05 -1.6805e-06
-5.0762e-06 -1.6805e-06 -0.000100215
0.00158971 -0.000448718 -4.71081e-06
-0.000448718 1.11946e-05 -2.06451e-06
-4.71081e-06 -2.06451e-06 -0.000227766
0.00169788 -0.000441894 1.23929e-06
-0.000441894 6.38831e-05 2.39199e-06
1.23929e-06 2.39199e-06 -0.000162235
0.00154337 -0.000512135 -3.34386e-06
-0.000512135 0.000125279 -1.81869e-06
-3.34386e-06 -1.81869e-06 -0.000175104
0.00189295 -0.000599948 2.24124e-06
-0.000599948 0.000289859 -5.04095e-07
2.24124e-06 -5.04095e-07 -3.64572e-05
0.00192322 -0.000590793 1.65232e-06
-0.000590793 0.000326808 1.0109e-06
1.65232e-06 1.0109e-06 2.37673e-08
0.00148872 -0.000461284 -1.98921e-06
-0.000461284 0.000292311 1.09344e-06
-1.98921e-06 1.09344e-06 -1.53482e-05
0.00180868 -0.000562436 6.69664e-07
-0.000562436 0.000428906 -1.69144e-07
6.69664e-07 -1.69144e-07 9.02728e-05
0.00198577 -0.000649117 -3.63358e-06
-0.000649117 0.000496134 -8.14581e-07
-3.63358e-06 -8.14581e-07 0.000111749
0.00121683 -0.000295761 -3.44235e-06
-0.000295761 0.000253039 7.5881e-07
-3.44235e-06 7.5881e-07 2.62221e-05
0.00130937 -0.000371081 1.9278e-06
-0.000371081 0.00027613 4.22534e-07
1.9278e-06 4.22534e-07 6.61353e-06
0.000471869 -0.00033763 -5.70672e-07
-0.00033763 -0.000227712 -1.30552e-06
-5.70672e-07 -1.30552e-06 -0.000504336
0.000529599 -0.000159492 -3.07684e-06
-0.000159492 1.43171e-07 3.36478e-06
-3.07684e-06 3.36478e-06 -0.000199596
0.00112937 -0.000296514 -1.86109e-07
-0.000296514 0.00031392 4.7392e-07
-1.86109e-07 4.7392e-07 7.48533e-05
0.000411267 -0.000228003 -5.50309e-06
-0.000228003 -0.000193388 -1.09611e-06
-5.50309e-06 -1.09611e-06 -0.000421238
0.000464439 -1.39784e-06 -4.94503e-06
-1.39784e-06 -3.1561e-05 1.10649e-05
-4.94503e-06 1.10649e-05 -8.97219e-05
0.000748868 -0.000111063 7.72275e-08
-0.000111063 0.000156077 2.05275e-07
7.72275e-08 2.05275e-07 -1.47417e-05
0.001074 -0.000176507 9.52841e-07
-0.000176507 0.000399194 -9.3676e-07
9.52841e-07 -9.3676e-07 0.000147732
0.00310053 0.000181926 -1.95179e-06
0.000181926 0.00161454 3.39546e-06
-1.95179e-06 3.39546e-06 0.00159486
0.000433513 1.44579e-05 -9.31455e-08
1.44579e-05 -5.71565e-05 -1.045e-07
-9.31455e-08 -1.045e-07 -0.000103701
0.000910583 -8.42861e-05 2.79156e-06
-8.42861e-05 0.000232775 -5.79671e-06
2.79156e-06 -5.79671e-06 0.000112453
0.0029027 0.000133609 6.04112e-06
0.000133609 0.00147442 4.78864e-07
6.04112e-06 4.78864e-07 0.00147117
0.000549371 2.23709e-05 2.13192e-06
2.23709e-05 1.18091e-05 -8.07487e-06
2.13192e-06 -8.07487e-06 -2.64562e-05
0.0027747 0.000117489 3.82977e-05
0.000117489 0.00138836 -3.8284e-06
3.82977e-05 -3.8284e-06 0.00138895
0.00132764 0.000201851 5.82995e-06
0.000201851 0.000505204 5.08015e-06
5.82995e-06 5.08015e-06 0.00032931
0.000757993 0.000114239 5.9213e-07
0.000114239 0.000201249 -2.14671e-07
5.9213e-07 -2.14671e-07 3.89981e-05
0.00108925 0.00010561 1.23352e-06
0.00010561 0.000419239 -3.78305e-06
1.23352e-06 -3.78305e-06 0.00023577
0.000667618 2.83697e-05 1.33376e-06
2.83697e-05 9.68015e-05 -5.77617e-06
1.33376e-06 -5.77617e-06 -2.54392e-06
0.000704155 7.23801e-05 9.95447e-09
7.23801e-05 0.000156467 6.20367e-07
9.95447e-09 6.20367e-07 7.82154e-06
0.000424711 8.73469e-05 -2.47801e-07
8.73469e-05 -1.1274e-05 1.94044e-06
-2.47801e-07 1.94044e-06 -0.000160591
0.000514321 -6.49757e-06 -1.73086e-06
-6.49757e-06 -2.00512e-05 -7.84408e-06
-1.73086e-06 -7.84408e-06 -5.05632e-05
0.000594954 2.92109e-05 -5.91573e-08
2.92109e-05 4.79193e-05 -2.31889e-07
-5.91573e-08 -2.31889e-07 -3.9842e-05
0.000537152 7.54581e-05 -2.2722e-06
7.54581e-05 3.65636e-05 1.13146e-06
-2.2722e-06 1.13146e-06 -8.65289e-05
0.00262767 -8.46756e-05 -3.96728e-05
-8.46756e-05 0.00128456 -4.31427e-06
-3.96728e-05 -4.31427e-06 0.00129285
0.000461749 -1.90441e-05 1.75022e-06
-1.90441e-05 -5.59498e-05 -1.21139e-07
1.75022e-06 -1.21139e-07 -8.1707e-05
0.000554855 3.62664e-05 -1.19302e-06
3.62664e-05 2.15249e-05 3.2654e-06
-1.19302e-06 3.2654e-06 -5.66907e-05
0.0024603 -6.83257e-05 -5.66088e-06
-6.83257e-05 0.00117574 3.92479e-07
-5.66088e-06 3.92479e-07 0.00118698
0.000479696 -1.41569e-05 -2.05905e-06
-1.41569e-05 -4.97665e-05 5.57773e-06
-2.05905e-06 5.57773e-06 -7.03869e-05
0.00229774 -5.06945e-05 2.22521e-05
-5.06945e-05 0.00107177 4.53794e-06
2.22521e-05 4.53794e-06 0.00108613
-0.00883872 0.000759572 -5.07571e-05
0.000759572 0.00264382 7.50771e-05
-5.07571e-05 7.50771e-05 -0.00211078
0.00568236 0.000200785 -6.38458e-06
0.000200785 0.00300315 -2.77033e-06
-6.38458e-06 -2.77033e-06 0.00140338
-0.000931807 -3.73105e-05 7.17781e-06
-3.73105e-05 -0.000133341 -1.93861e-06
7.17781e-06 -1.93861e-06 -0.000296904
-4.02301e-05 7.41411e-05 -2.51716e-06
7.41411e-05 -0.000326138 2.45744e-06
-2.51716e-06 2.45744e-06 -0.000459237
0.00340134 0.000543043 6.23342e-06
0.000543043 0.00172809 8.43618e-06
6.23342e-06 8.43618e-06 0.00145159
0.00118759 0.000118323 -5.45319e-06
0.000118323 0.00044541 -3.35111e-07
-5.45319e-06 -3.35111e-07 0.000258336
0.000743047 6.29527e-05 -4.51475e-06
6.29527e-05 0.000135944 -7.84555e-06
-4.51475e-06 -7.84555e-06 5.4458e-07
0.00184612 0.000198287 2.57864e-06
0.000198287 0.000782702 -1.11691e-06
2.57864e-06 -1.11691e-06 0.000652067
-0.000146523 5.86264e-05 -6.55756e-06
5.86264e-05 -0.000372977 3.02073e-06
-6.55756e-06 3.02073e-06 -0.000495042
0.000342151 7.21613e-05 -1.27853e-06
7.21613e-05 1.96358e-05 3.64521e-06
-1.27853e-06 3.64521e-06 -0.000187922
0.000510447 0.000128831 -3.54087e-06
0.000128831 3.16845e-05 -4.54408e-06
-3.54087e-06 -4.54408e-06 -0.000187257
0.00145066 0.000295679 7.29205e-06
0.000295679 0.000645359 -1.48902e-05
7.29205e-06 -1.48902e-05 0.000336525
0.000448632 0.000373681 -8.35171e-06
0.000373681 -9.1918e-05 2.08949e-05
-8.35171e-06 2.08949e-05 -0.000241784
0.00127507 6.84175e-05 -6.31011e-06
6.84175e-05 0.00054886 5.88367e-06
-6.31011e-06 5.88367e-06 0.000383184
0.00109028 0.000185234 2.3492e-06
0.000185234 0.000563905 -2.02005e-06
2.3492e-06 -2.02005e-06 0.000316519
-0.0026417 -0.00155409 -0.000927298
-0.00155409 0.000425943 -0.000153056
-0.000927298 -0.000153056 -0.0021239
-0.0035291 -0.00130003 0.000336016
-0.00130003 0.00353467 0.000157044
0.000336016 0.000157044 -0.00066778
0.00553173 0.000896029 -0.000330737
0.000896029 0.00258388 -0.000120247
-0.000330737 -0.000120247 -0.00209545
-0.00288193 -0.00566339 0.00151178
-0.00566339 0.000100224 0.00106119
0.00151178 0.00106119 -0.000824605
0.020023 -0.00270492 1.5667e-05
-0.00270492 0.00645117 0.000252129
1.5667e-05 0.000252129 0.00479839
-0.00207857 0.00144793 -1.35457e-06
0.00144793 0.00137595 -0.000148251
-1.35457e-06 -0.000148251 -0.00362257
-0.000878526 0.000175304 -0.000298731
0.000175304 0.000270744 -4.1798e-05
-0.000298731 -4.1798e-05 -0.000910354
0.00141543 0.000587968 5.08732e-05
0.000587968 0.00110003 4.18959e-05
5.08732e-05 4.18959e-05 0.000915806
0.0147573 -0.00329199 -0.000396663
-0.00329199 0.00627163 3.03623e-05
-0.000396663 3.03623e-05 0.00447391
-0.00159101 0.00197826 -6.19689e-05
0.00197826 0.000469241 -4.45021e-05
-6.19689e-05 -4.45021e-05 -0.00375108
0.00250059 0.00144314 -2.06539e-05
0.00144314 0.000689396 -6.20292e-05
-2.06539e-05 -6.20292e-05 0.00108734
0.00268425 0.00297145 -0.000264558
0.00297145 -0.00134013 -0.000120738
-0.000264558 -0.000120738 -0.00404599
0.00293851 0.000932124 1.79269e-05
0.000932124 0.000996761 -1.25968e-05
1.79269e-05 -1.25968e-05 0.000691538
0.00104203 0.000443767 -5.83305e-06
0.000443767 0.000303465 -5.20958e-07
-5.83305e-06 -5.20958e-07 0.000135415
0.000791004 0.000157717 -6.86937e-06
0.000157717 0.00033803 -8.27397e-07
-6.86937e-06 -8.27397e-07 0.000161969
-0.00175488 0.000209642 -6.2534e-05
0.000209642 -0.000351666 -5.89376e-05
-6.2534e-05 -5.89376e-05 -0.00118312
0.00227032 0.000659199 -3.0689e-05
0.000659199 0.00117048 -1.94746e-05
-3.0689e-05 -1.94746e-05 0.000812581
0.00148437 0.000997194 1.43404e-05
0.000997194 0.000303345 -5.96165e-06
1.43404e-05 -5.96165e-06 -0.000275226
0.000498169 0.00123175 0.000101467
0.00123175 -0.000971774 3.80929e-05
0.000101467 3.80929e-05 -0.0012151
-0.00557821 -0.0002593 -0.000414554
-0.0002593 -0.00459596 2.04033e-05
-0.000414554 2.04033e-05 -0.00346468
-0.00633436 0.000368965 0.000251784
0.000368965 0.00439192 9.57398e-06
0.000251784 9.57398e-06 -0.000413968
0.00284429 -0.00010542 -9.4964e-05
-0.00010542 0.0019115 3.31081e-05
-9.4964e-05 3.31081e-05 0.000345739
0.00195202 -0.000621172 -3.80636e-05
-0.000621172 0.000927962 -4.89085e-05
-3.80636e-05 -4.89085e-05 0.000527889
0.00041121 -0.0014888 -1.73331e-05
-0.0014888 -0.00045672 4.24242e-05
-1.73331e-05 4.24242e-05 -0.000419857
0.000767191 0.000340523 -4.26343e-06
0.000340523 0.00523099 2.92734e-05
-4.26343e-06 2.92734e-05 0.00259811
0.00147567 -0.00202596 0.000312922
-0.00202596 -0.00125492 -0.000134671
0.000312922 -0.000134671 -0.00393422
0.0159986 0.00229863 0.000453216
0.00229863 0.00713844 -6.55749e-05
0.000453216 -6.55749e-05 0.00531293
0.00218538 -0.00123405 -2.31955e-05
-0.00123405 0.000561773 7.26514e-06
-2.31955e-05 7.26514e-06 0.000160547
0.000779516 0.000930967 0.00017036
0.000930967 -6.81354e-05 -4.79647e-05
0.00017036 -4.79647e-05 -0.0012786
0.00762319 -0.00127812 -0.000108829
-0.00127812 -0.000911051 0.000100263
-0.000108829 0.000100263 -0.00320191
0.00501402 -0.00211458 -2.34121e-05
-0.00211458 0.000451524 2.31752e-05
-2.34121e-05 2.31752e-05 0.000413713
0.00280292 -0.00101126 7.76569e-05
-0.00101126 0.000551928 -1.02875e-05
7.76569e-05 -1.02875e-05 0.000380126
0.0135835 -0.0006723 -8.64212e-06
-0.0006723 0.00294526 2.14272e-06
-8.64212e-06 2.14272e-06 0.00145758
0.00220232 -0.00120347 9.90775e-05
-0.00120347 -0.00232043 -7.66712e-05
9.90775e-05 -7.66712e-05 -0.00165535
-0.000462175 -0.000458959 -3.20622e-05
-0.000458959 -0.000739948 1.78151e-05
-3.20622e-05 1.78151e-05 -0.000770846
0.000196541 -0.000432963 -2.39309e-05
-0.000432963 -0.000561785 1.22508e-06
-2.39309e-05 1.22508e-06 -0.00066564
0.00474923 -0.000851037 5.27706e-05
-0.000851037 0.00157269 -2.12912e-05
5.27706e-05 -2.12912e-05 0.00144494
0.000499676 -0.000520297 -2.07619e-05
-0.000520297 -0.000304287 -5.21517e-06
-2.07619e-05 -5.21517e-06 -0.000636452
0.0019398 -0.000728512 -6.74762e-07
-0.000728512 0.000220781 -1.97112e-06
-6.74762e-07 -1.97112e-06 -7.783e-05
0.00254543 -0.000674821 2.89994e-06
-0.000674821 0.00029187 -3.89502e-06
2.89994e-06 -3.89502e-06 0.000117256
0.00189763 -0.00069389 -6.16451e-06
-0.00069389 0.00033639 5.75847e-06
-6.16451e-06 5.75847e-06 -6.39672e-05
0.00195379 -0.000611441 -6.53521e-07
-0.000611441 0.00013624 1.54986e-06
-6.53521e-07 1.54986e-06 -0.000117351
0.00200413 -0.000465964 2.27708e-06
-0.000465964 5.95463e-05 -2.8858e-07
2.27708e-06 -2.8858e-07 -7.52389e-05
0.00122198 -0.000510887 2.98946e-06
-0.000510887 -9.68977e-05 6.70694e-06
2.98946e-06 6.70694e-06 -0.000395194
0.00184109 -0.000444325 -5.41579e-07
-0.000444325 8.0534e-05 1.63656e-06
-5.41579e-07 1.63656e-06 -0.000106029
0.00188084 -0.000394526 -2.4401e-06
-0.000394526 6.46281e-05 4.55139e-07
-2.4401e-06 4.55139e-07 -6.73978e-05
0.00206338 -0.000377888 -4.34456e-06
-0.000377888 0.000254393 5.73733e-07
-4.34456e-06 5.73733e-07 0.000119788
0.00184041 -0.000368751 -2.78998e-06
-0.000368751 0.000110335 3.32995e-06
-2.78998e-06 3.32995e-06 -4.36381e-05
0.00189547 -0.00038761 -2.55815e-06
-0.00038761 0.000179272 -4.65249e-06
-2.55815e-06 -4.65249e-06 6.02741e-06
0.00183407 -0.000464398 -5.18076e-06
-0.000464398 0.000189069 -2.20044e-06
-5.18076e-06 -2.20044e-06 -5.56972e-05
0.00179146 -0.000464689 1.56132e-06
-0.000464689 0.000135126 6.6129e-07
1.56132e-06 6.6129e-07 -0.000105192
0.0017265 -0.000436344 5.27582e-06
-0.000436344 8.63578e-05 7.06891e-06
5.27582e-06 7.06891e-06 -0.000134988
0.00168435 -0.000487249 -6.61224e-06
-0.000487249 0.000277844 -7.88233e-07
-6.61224e-06 -7.88233e-07 -1.76152e-05
0.00157099 -0.000519416 -6.64606e-07
-0.000519416 0.000130655 1.93913e-07
-6.64606e-07 1.93913e-07 -0.000172306
0.00202204 -0.000604522 4.14699e-06
-0.000604522 0.000377931 3.57578e-07
4.14699e-06 3.57578e-07 5.49811e-05
0.00138099 -0.00033973 -6.59734e-06
-0.00033973 0.000298045 4.99617e-06
-6.59734e-06 4.99617e-06 4.67254e-05
0.00151724 -0.000460978 1.62051e-07
-0.000460978 0.000311501 1.03987e-06
1.62051e-07 1.03987e-06 5.06719e-06
0.00161129 -0.000546908 1.18147e-06
-0.000546908 0.000308968 2.44162e-07
1.18147e-06 2.44162e-07 -2.79549e-05
0.00079953 -0.000205857 -6.52271e-06
-0.000205857 9.42957e-05 5.01297e-06
-6.52271e-06 5.01297e-06 -9.91721e-05
0.00107304 -0.000285891 1.37245e-07
-0.000285891 0.000164795 -8.68932e-07
1.37245e-07 -8.68932e-07 -6.28024e-05
0.000851688 -0.000326593 6.41008e-07
-0.000326593 -1.17881e-05 -1.45349e-06
6.41008e-07 -1.45349e-06 -0.000272339
0.000424159 -8.13114e-05 -1.52719e-05
-8.13114e-05 -8.09331e-05 1.37222e-05
-1.52719e-05 1.37222e-05 -0.000153072
0.000671966 -0.000158199 4.83499e-07
-0.000158199 9.52993e-05 9.70216e-07
4.83499e-07 9.70216e-07 -0.000110295
0.000962208 -0.00030491 1.78937e-06
-0.00030491 0.000200462 -1.63448e-07
1.78937e-06 -1.63448e-07 -3.6014e-05
0.00353525 0.000176543 -6.92159e-05
0.000176543 0.00188702 3.80942e-06
-6.92159e-05 3.80942e-06 0.00187059
0.000510269 -2.11804e-05 7.03163e-07
-2.11804e-05 -1.08566e-05 -5.28667e-07
7.03163e-07 -5.28667e-07 -7.05399e-05
0.0015072 -0.000158914 2.09961e-06
-0.000158914 0.000619903 -6.11713e-06
2.09961e-06 -6.11713e-06 0.000437259
0.00205527 0.000115021 3.69536e-05
0.000115021 0.00096083 1.06206e-06
3.69536e-05 1.06206e-06 0.000946863
0.00060206 9.03835e-06 5.04346e-06
9.03835e-06 4.2767e-05 -9.91755e-06
5.04346e-06 -9.91755e-06 -3.60507e-06
0.00298495 0.000128083 5.69162e-05
0.000128083 0.00152451 -3.53431e-06
5.69162e-05 -3.53431e-06 0.00152264
0.00116912 0.000230124 6.44421e-06
0.000230124 0.000338607 8.9677e-07
6.44421e-06 8.9677e-07 0.000162036
0.000501633 0.000107295 -1.01176e-06
0.000107295 -6.97405e-06 -4.2756e-07
-1.01176e-06 -4.2756e-07 -0.000159102
0.000601075 0.000119261 1.11938e-06
0.000119261 8.51315e-05 -2.54955e-06
1.11938e-06 -2.54955e-06 -8.42329e-05
0.000671497 0.000113839 -1.49584e-06
0.000113839 0.000148012 1.36275e-07
-1.49584e-06 1.36275e-07 -1.62032e-05
0.000640084 7.69787e-05 3.29109e-07
7.69787e-05 0.000116081 4.00976e-07
3.29109e-07 4.00976e-07 -4.46168e-05
0.000745825 5.61027e-05 -3.33382e-07
5.61027e-05 0.000142741 -6.69212e-06
-3.33382e-07 -6.69212e-06 2.85681e-05
0.000567738 4.7928e-06 -3.30902e-06
4.7928e-06 1.97114e-05 -9.66556e-06
-3.30902e-06 -9.66556e-06 -1.84936e-05
0.00062192 2.6582e-05 4.85885e-07
2.6582e-05 7.28196e-05 -1.60964e-07
4.85885e-07 -1.60964e-07 -2.80096e-05
0.000395363 3.96819e-05 -2.85644e-06
3.96819e-05 -5.90776e-05 2.70968e-06
-2.85644e-06 2.70968e-06 -0.000187216
0.00274416 -9.82487e-05 -5.16163e-05
-9.82487e-05 0.0013629 -4.15856e-06
-5.16163e-05 -4.15856e-06 0.00136866
0.000469323 -3.79063e-06 6.28676e-07
-3.79063e-06 -4.50013e-05 -1.89349e-07
6.28676e-07 -1.89349e-07 -7.59648e-05
0.00054542 2.9276e-05 -1.58896e-06
2.9276e-05 2.37849e-05 4.12724e-06
-1.58896e-06 4.12724e-06 -6.60617e-05
0.00260011 -8.48691e-05 -6.14249e-06
-8.48691e-05 0.0012674 4.63587e-07
-6.14249e-06 4.63587e-07 0.0012755
0.000450431 -2.14961e-05 -1.56038e-07
-2.14961e-05 -6.14107e-05 6.48978e-06
-1.56038e-07 6.48978e-06 -8.76934e-05
0.00245707 -6.77409e-05 2.78228e-05
-6.77409e-05 0.00117341 4.59083e-06
2.78228e-05 4.59083e-06 0.00118471
0.000386469 0.000264667 -0.000513777
0.000264667 0.00290578 -2.24734e-05
-0.000513777 -2.24734e-05 0.00118142
-0.00485018 0.000144813 3.47262e-05
0.000144813 0.00345155 6.14568e-06
3.47262e-05 6.14568e-06 -0.00140078
0.00532713 7.63625e-05 -0.000145139
7.63625e-05 0.00300838 -3.6208e-05
-0.000145139 -3.6208e-05 0.00150822
0.000349524 5.19343e-05 3.30287e-07
5.19343e-05 -9.17271e-05 -4.98635e-06
3.30287e-07 -4.98635e-06 -0.000225168
0.000851995 7.32944e-05 4.88792e-06
7.32944e-05 0.000238171 3.46359e-06
4.88792e-06 3.46359e-06 3.72214e-05
0.00244087 0.000432266 -2.18493e-06
0.000432266 0.00116786 2.9033e-06
-2.18493e-06 2.9033e-06 0.000920186
0.00182805 0.000469136 6.41879e-06
0.000469136 0.000661522 -2.11031e-06
6.41879e-06 -2.11031e-06 0.000330001
0.000440323 0.00023148 -1.01881e-07
0.00023148 4.09303e-05 -2.76753e-06
-1.01881e-07 -2.76753e-06 -0.000214732
0.000505286 0.000107276 -3.54276e-06
0.000107276 0.000119728 4.72759e-06
-3.54276e-06 4.72759e-06 -9.68818e-05
0.000700619 0.000146379 8.8946e-06
0.000146379 0.000171955 7.18876e-06
8.8946e-06 7.18876e-06 -4.32958e-05
0.000466848 0.000259271 -6.77013e-06
0.000259271 9.40858e-05 -3.40334e-06
-6.77013e-06 -3.40334e-06 -0.000219173
-0.000636517 0.000286531 6.65687e-06
0.000286531 -0.000771251 -4.20379e-06
6.65687e-06 -4.20379e-06 -0.00102789
0.00199717 0.00058191 2.44161e-06
0.00058191 0.000672007 1.45903e-05
2.44161e-06 1.45903e-05 0.000514714
0.00137551 0.000686377 1.94004e-05
0.000686377 2.8002e-05 -5.93271e-06
1.94004e-05 -5.93271e-06 -0.000146996
0.00127563 0.000467216 -9.02316e-06
0.000467216 0.000400842 -1.15215e-06
-9.02316e-06 -1.15215e-06 0.000216223
0.00143175 0.00020035 -7.13447e-06
0.00020035 0.000681322 9.66761e-06
-7.13447e-06 9.66761e-06 0.000465114
0.0133957 0.00170646 -8.47525e-05
0.00170646 0.00236297 6.13961e-05
-8.47525e-05 6.13961e-05 0.000957788
5.90063e-05 -0.00128726 -0.000379101
-0.00128726 0.00287714 -0.000143545
-0.000379101 -0.000143545 0.000378641
-0.0010636 -0.00210425 0.000403604
-0.00210425 0.00379665 0.000106031
0.000403604 0.000106031 -0.000434978
0.00259633 -0.00195378 0.000164817
-0.00195378 0.00145261 0.000277263
0.000164817 0.000277263 -0.000295166
0.0121511 0.00284391 -5.38912e-05
0.00284391 0.00465816 -3.42339e-05
-5.38912e-05 -3.42339e-05 0.000841506
-0.00255583 0.000170323 -5.64087e-05
0.000170323 -0.000581774 -4.42476e-05
-5.64087e-05 -4.42476e-05 -0.000805256
0.00174339 0.001258 -3.43494e-05
0.001258 0.000425638 -1.21142e-05
-3.43494e-05 -1.21142e-05 0.000807942
0.0153414 0.00266328 2.24865e-05
0.00266328 0.00427817 3.2124e-05
2.24865e-05 3.2124e-05 0.00206349
0.00637845 0.00252612 -2.89121e-05
0.00252612 0.0006084 -8.24519e-05
-2.89121e-05 -8.24519e-05 0.000510651
0.00179558 0.000925861 1.03693e-05
0.000925861 0.00023529 -2.99721e-06
1.03693e-05 -2.99721e-06 2.58348e-05
0.00130348 0.000707369 6.59685e-06
0.000707369 0.000254444 -1.73878e-06
6.59685e-06 -1.73878e-06 -1.98814e-05
0.00147611 0.000448358 -2.14317e-05
0.000448358 0.0005956 6.06098e-06
-2.14317e-05 6.06098e-06 0.000430208
0.00256694 0.00116602 -5.43466e-05
0.00116602 0.000766916 -1.90499e-05
-5.43466e-05 -1.90499e-05 0.000202625
0.00188669 0.00137036 3.39613e-05
0.00137036 -0.000427525 2.31801e-05
3.39613e-05 2.31801e-05 -0.00069929
0.00139149 -0.000372302 -7.87304e-05
-0.000372302 -0.00404682 3.65019e-05
-7.87304e-05 3.65019e-05 -0.00436152
0.00138267 -0.00107717 6.32568e-06
-0.00107717 0.00156869 -1.74632e-05
6.32568e-06 -1.74632e-05 0.00128388
-0.00894328 -0.0001219 0.000233702
-0.0001219 0.00439504 -1.99675e-05
0.000233702 -1.99675e-05 -0.000286008
0.000467617 -0.00122922 -2.97792e-05
-0.00122922 -0.000493784 3.67724e-06
-2.97792e-05 3.67724e-06 -0.0010793
0.00362721 -0.00204062 3.16302e-05
-0.00204062 0.00020488 2.7776e-05
3.16302e-05 2.7776e-05 -0.000180213
0.00144316 -0.00023708 0.000553551
-0.00023708 0.00310627 -0.00011216
0.000553551 -0.00011216 0.00159155
0.0126039 -0.00152125 -0.000210307
-0.00152125 0.00181005 9.73258e-05
-0.000210307 9.73258e-05 0.000298282
0.00132985 -0.000969941 -3.2161e-05
-0.000969941 -0.000189346 -5.73618e-07
-3.2161e-05 -5.73618e-07 -0.00042632
0.0101325 -2.51315e-05 -0.000141325
-2.51315e-05 -3.09184e-05 3.99153e-05
-0.000141325 3.99153e-05 -0.00106663
0.00622508 -0.00139696 9.58772e-05
-0.00139696 -4.36295e-05 1.41919e-05
9.58772e-05 1.41919e-05 0.000207094
0.00495351 -0.000963803 7.76623e-05
-0.000963803 0.00146636 -2.0317e-05
7.76623e-05 -2.0317e-05 0.00114671
0.00297593 -0.00053824 -5.98178e-05
-0.00053824 -0.000991149 1.89128e-05
-5.98178e-05 1.89128e-05 -0.000381142
-0.00448955 -6.17365e-05 -5.74621e-06
-6.17365e-05 -0.00312932 4.04707e-06
-5.74621e-06 4.04707e-06 -0.00309039
0.0015961 -0.000608995 -7.97104e-06
-0.000608995 -0.000139137 2.71573e-07
-7.97104e-06 2.71573e-07 -0.000170985
0.00294804 -0.000587417 2.82633e-05
-0.000587417 0.000396771 -1.21998e-05
2.82633e-05 -1.21998e-05 0.000441602
0.00103497 -0.000634322 -7.38522e-06
-0.000634322 -0.000237853 8.33768e-06
-7.38522e-06 8.33768e-06 -0.000516162
0.00196695 -0.00062179 -2.4698e-06
-0.00062179 -8.58183e-07 2.56677e-06
-2.4698e-06 2.56677e-06 -0.000171352
0.0022238 -0.000500354 5.01923e-06
-0.000500354 1.99434e-05 1.16507e-07
5.01923e-06 1.16507e-07 -2.80574e-05
0.00223699 -0.000632277 -6.78928e-06
-0.000632277 0.00029173 8.70915e-06
-6.78928e-06 8.70915e-06 3.53275e-05
0.00198985 -0.000463356 1.49976e-07
-0.000463356 5.01596e-05 1.44239e-06
1.49976e-07 1.44239e-06 -8.02494e-05
0.002108 -0.000443719 -4.07705e-07
-0.000443719 0.000112876 1.0568e-06
-4.07705e-07 1.0568e-06 2.55533e-05
0.00184906 -0.00043829 2.39586e-06
-0.00043829 9.02069e-05 6.12858e-06
2.39586e-06 6.12858e-06 -9.35016e-05
0.00190575 -0.000398653 -2.00617e-07
-0.000398653 7.66496e-05 1.42102e-06
-2.00617e-07 1.42102e-06 -5.50322e-05
0.00204067 -0.000420603 -2.09111e-06
-0.000420603 0.000163059 1.33924e-06
-2.09111e-06 1.33924e-06 3.79201e-05
0.0019622 -0.000377109 -4.11361e-06
-0.000377109 0.000185433 3.13525e-06
-4.11361e-06 3.13525e-06 5.23852e-05
0.00204798 -0.000382902 -6.21769e-07
-0.000382902 0.000268087 -2.06227e-06
-6.21769e-07 -2.06227e-06 0.000124955
0.00193708 -0.000374488 3.98625e-06
-0.000374488 0.000161658 7.1434e-06
3.98625e-06 7.1434e-06 1.12485e-05
0.00190455 -0.000388133 3.80381e-07
-0.000388133 0.000183698 -7.65801e-07
3.80381e-07 -7.65801e-07 1.02287e-05
0.00180254 -0.00039791 -2.38619e-06
-0.00039791 0.000134847 -3.43287e-06
-2.38619e-06 -3.43287e-06 -5.93049e-05
0.00183454 -0.000436648 -4.318e-06
-0.000436648 0.00026465 -2.40981e-06
-4.318e-06 -2.40981e-06 1.55767e-05
0.00189181 -0.000470811 -1.49617e-07
-0.000470811 0.000225524 -1.4642e-07
-1.49617e-07 -1.4642e-07 -2.14316e-05
0.00199477 -0.000480383 6.56412e-06
-0.000480383 0.000261025 3.50507e-06
6.56412e-06 3.50507e-06 1.94648e-05
0.00134477 -0.000362183 -8.64744e-06
-0.000362183 0.000176042 2.62493e-06
-8.64744e-06 2.62493e-06 -8.26214e-05
0.00160759 -0.000475808 -1.58753e-06
-0.000475808 0.000239163 -6.77591e-08
-1.58753e-06 -6.77591e-08 -5.52182e-05
0.00158542 -0.000524366 3.70963e-06
-0.000524366 0.000129173 1.17638e-06
3.70963e-06 1.17638e-06 -0.000175856
0.000667427 -0.000195528 -8.47371e-06
-0.000195528 -5.13677e-05 6.77029e-06
-8.47371e-06 6.77029e-06 -0.000240452
0.00118386 -0.000326276 1.69956e-06
-0.000326276 0.000171328 5.07975e-07
1.69956e-06 5.07975e-07 -7.88249e-05
0.00137816 -0.000442569 3.89684e-06
-0.000442569 0.000231372 1.61533e-07
3.89684e-06 1.61533e-07 -7.01026e-05
0.000465575 -0.000149288 -2.09327e-05
-0.000149288 -8.34074e-05 1.64336e-05
-2.09327e-05 1.64336e-05 -0.000176251
0.000747298 -0.000211667 -6.47372e-07
-0.000211667 6.79958e-05 3.52218e-07
-6.47372e-07 3.52218e-07 -0.000127979
0.000851581 -0.00026198 2.51511e-06
-0.00026198 2.78394e-05 -2.36541e-06
2.51511e-06 -2.36541e-06 -0.000196248
0.00444863 0.000204593 -0.000101799
0.000204593 0.00246227 7.11191e-06
-0.000101799 7.11191e-06 0.0024375
0.000550506 -9.70713e-05 -2.15855e-07
-9.70713e-05 -2.00144e-06 -8.11161e-07
-2.15855e-07 -8.11161e-07 -8.13455e-05
0.00108553 -0.000188501 4.02207e-06
-0.000188501 0.000351819 -3.77341e-06
4.02207e-06 -3.77341e-06 0.000139585
0.0038605 0.000161278 1.42348e-05
0.000161278 0.00208359 3.52697e-07
1.42348e-05 3.52697e-07 0.00207194
0.000558156 -4.0869e-05 1.20379e-05
-4.0869e-05 1.17735e-05 -1.21919e-05
1.20379e-05 -1.21919e-05 -5.12753e-05
0.00336145 0.00012985 8.94527e-05
0.00012985 0.00176253 -3.76725e-06
8.94527e-05 -3.76725e-06 0.00176046
0.000742031 0.000293772 4.29447e-06
0.000293772 -1.02198e-05 -5.70302e-06
4.29447e-06 -5.70302e-06 -0.000261729
0.000870651 0.000215778 2.34286e-06
0.000215778 0.000156576 -8.88601e-07
2.34286e-06 -8.88601e-07 -2.08567e-05
7.52555e-05 0.000104006 3.63456e-06
0.000104006 -0.000261796 -7.58438e-07
3.63456e-06 -7.58438e-07 -0.000438091
-0.000479598 2.85124e-05 -3.41523e-06
2.85124e-05 -0.000595797 -2.27676e-06
-3.41523e-06 -2.27676e-06 -0.000736282
0.00040604 6.1154e-05 -1.8086e-08
6.1154e-05 -4.41546e-05 9.325e-07
-1.8086e-08 9.325e-07 -0.000207426
0.000751138 7.85948e-05 -8.31052e-07
7.85948e-05 0.000135104 -7.65371e-06
-8.31052e-07 -7.65371e-06 5.56822e-06
0.00041282 4.14405e-05 -1.48832e-06
4.14405e-05 -3.95813e-05 2.95702e-06
-1.48832e-06 2.95702e-06 -0.000185624
0.000574735 4.03781e-05 -7.18267e-08
4.03781e-05 4.29376e-05 -7.45412e-08
-7.18267e-08 -7.45412e-08 -7.03419e-05
0.000619476 6.28468e-06 -4.89531e-06
6.28468e-06 5.19347e-05 -1.1492e-05
-4.89531e-06 -1.1492e-05 5.14372e-06
0.0030237 -0.000112081 -6.98084e-05
-0.000112081 0.00154387 -4.41753e-06
-6.98084e-05 -4.41753e-06 0.00154633
0.000462082 -4.59218e-06 9.88741e-07
-4.59218e-06 -4.28812e-05 -2.95187e-07
9.88741e-07 -2.95187e-07 -8.12157e-05
0.000516064 2.65921e-05 -1.2481e-06
2.65921e-05 1.06725e-05 5.88821e-06
-1.2481e-06 5.88821e-06 -9.04106e-05
0.00276061 -0.0001021 -6.88812e-06
-0.0001021 0.00137348 5.73023e-07
-6.88812e-06 5.73023e-07 0.00137798
0.000396321 -3.97504e-05 -3.23938e-06
-3.97504e-05 -8.54332e-05 7.53326e-06
-3.23938e-06 7.53326e-06 -0.000118172
0.00259295 -8.50488e-05 3.43823e-05
-8.50488e-05 0.00126239 4.48045e-06
3.43823e-05 4.48045e-06 0.00127036
0.0134434 0.000516202 0.00035857
0.000516202 0.00238985 9.14831e-05
0.00035857 9.14831e-05 0.00167024
-0.00230494 -0.00185854 -0.00030788
-0.00185854 -0.0027413 -5.50196e-05
-0.00030788 -5.50196e-05 -0.00386299
-0.00814035 0.000997727 -0.000134306
0.000997727 0.00259251 -9.81127e-05
-0.000134306 -9.81127e-05 -0.00278045
0.000216642 2.55585e-05 1.74218e-05
2.55585e-05 -0.000144069 5.01175e-07
1.74218e-05 5.01175e-07 -0.000364475
0.00162169 0.000331574 -1.28781e-05
0.000331574 0.000681053 2.3057e-06
-1.28781e-05 2.3057e-06 0.000463899
0.00176263 0.000377264 -6.35014e-06
0.000377264 0.000808602 -2.6674e-06
-6.35014e-06 -2.6674e-06 0.000519729
0.00177573 0.000458272 -2.42908e-07
0.000458272 0.000653999 7.45618e-07
-2.42908e-07 7.45618e-07 0.000330226
0.000987128 0.00042782 1.00753e-05
0.00042782 2.69429e-05 1.04896e-05
1.00753e-05 1.04896e-05 -0.000297374
-0.000526376 0.00026348 1.47118e-05
0.00026348 -0.000727092 -6.74486e-07
1.47118e-05 -6.74486e-07 -0.0009991
1.61192e-05 0.000228331 -8.07323e-06
0.000228331 -0.000124601 7.81981e-07
-8.07323e-06 7.81981e-07 -0.000458435
0.000154966 0.000383075 5.74282e-06
0.000383075 -0.000345233 -1.698e-07
5.74282e-06 -1.698e-07 -0.00063461
0.00205419 0.000586164 2.45324e-06
0.000586164 0.000749617 3.05808e-06
2.45324e-06 3.05808e-06 0.000545262
4.93485e-05 0.000430354 8.21358e-06
0.000430354 -0.000526415 3.37884e-06
8.21358e-06 3.37884e-06 -0.000747223
0.00268198 0.000760154 2.9023e-06
0.000760154 0.000715647 4.58524e-06
2.9023e-06 4.58524e-06 0.00055236
0.00154551 0.000722711 1.3331e-05
0.000722711 9.45961e-05 8.84566e-07
1.3331e-05 8.84566e-07 -0.000127931
0.000871977 0.000624945 3.22354e-06
0.000624945 -0.000251944 -6.00116e-07
3.22354e-06 -6.00116e-07 -0.000392903
0.000753518 0.000404724 4.48624e-07
0.000404724 0.000120249 -2.36948e-05
4.48624e-07 -2.36948e-05 -6.3884e-05
0.00542766 0.00116664 6.00239e-06
0.00116664 -0.000494298 7.98132e-06
6.00239e-06 7.98132e-06 0.00033264
0.0121186 0.00174189 0.000198539
0.00174189 0.0015977 9.58491e-05
0.000198539 9.58491e-05 -0.000105786
0.00989706 -0.00273611 0.000278528
-0.00273611 0.0047207 -4.8081e-05
0.000278528 -4.8081e-05 0.00285444
0.00465896 0.0029571 0.000421884
0.0029571 -0.000523322 0.000243172
0.000421884 0.000243172 -0.00453726
0.000186701 0.000866715 -5.56239e-05
0.000866715 5.4925e-06 -6.06648e-06
-5.56239e-05 -6.06648e-06 0.000429451
0.00346481 0.00184762 -0.000107913
0.00184762 -0.000335977 -4.28017e-05
-0.000107913 -4.28017e-05 -0.000171807
0.00545206 0.00161847 6.79816e-05
0.00161847 0.0011358 2.18903e-05
6.79816e-05 2.18903e-05 0.000943761
0.00363389 0.00115531 1.55377e-05
0.00115531 0.00103959 5.01605e-06
1.55377e-05 5.01605e-06 0.000798797
0.000345648 0.000567017 -1.86543e-05
0.000567017 -0.000194537 1.13324e-05
-1.86543e-05 1.13324e-05 -0.000436808
0.00535594 0.00173401 -0.000155055
0.00173401 0.00115625 -1.85434e-05
-0.000155055 -1.85434e-05 0.000819974
0.002853 -0.00034605 4.3311e-06
-0.00034605 0.000168122 3.39395e-06
4.3311e-06 3.39395e-06 0.000263825
0.0107422 -0.000430843 -2.36254e-05
-0.000430843 0.0020089 3.45159e-06
-2.36254e-05 3.45159e-06 0.0015422
-0.0114377 -0.00163553 0.000519983
-0.00163553 -0.005709 3.76189e-06
0.000519983 3.76189e-06 -0.00575976
-0.000181284 -0.000807278 -6.87241e-05
-0.000807278 -0.00097093 9.62485e-06
-6.87241e-05 9.62485e-06 -0.00117144
0.00849587 -0.00181978 5.88096e-05
-0.00181978 0.00069658 7.82147e-05
5.88096e-05 7.82147e-05 0.00121248
0.00105165 -0.00029425 -0.000183337
-0.00029425 -0.00341506 4.2065e-05
-0.000183337 4.2065e-05 -0.00543569
0.0019037 -0.00068147 1.36871e-05
-0.00068147 -0.000249467 2.63373e-06
1.36871e-05 2.63373e-06 -0.000303084
0.00420995 -0.000424402 -2.64749e-05
-0.000424402 -0.000263631 -4.17681e-06
-2.64749e-05 -4.17681e-06 0.000112087
0.00479894 -0.000630586 3.19646e-05
-0.000630586 0.00101356 -1.83304e-05
3.19646e-05 -1.83304e-05 0.00122639
0.00422534 -0.000251108 7.61886e-05
-0.000251108 0.000959918 5.83424e-06
7.61886e-05 5.83424e-06 0.000911962
-0.00195573 -0.000364034 -4.85465e-06
-0.000364034 -0.00211195 1.10415e-05
-4.85465e-06 1.10415e-05 -0.00200239
0.00197942 -0.000526629 -2.72569e-06
-0.000526629 -0.000143699 4.84167e-08
-2.72569e-06 4.84167e-08 -5.5411e-05
0.00202677 -0.000388621 1.88694e-05
-0.000388621 -0.000251473 -4.12328e-06
1.88694e-05 -4.12328e-06 -5.40745e-05
0.00172957 -0.000601407 -2.24886e-06
-0.000601407 -0.000125435 6.06424e-06
-2.24886e-06 6.06424e-06 -0.000297137
0.00217911 -0.000500259 1.52313e-06
-0.000500259 -1.56865e-06 8.84966e-07
1.52313e-06 8.84966e-07 -5.10217e-05
0.00215178 -0.000427925 1.33682e-06
-0.000427925 3.15887e-05 4.13429e-07
1.33682e-06 4.13429e-07 1.98921e-05
0.00199752 -0.000462637 3.4033e-08
-0.000462637 5.26716e-05 3.69768e-06
3.4033e-08 3.69768e-06 -7.40446e-05
0.00203347 -0.000433173 3.83798e-07
-0.000433173 8.07119e-05 3.50545e-07
3.83798e-07 3.50545e-07 -5.63263e-06
0.00202365 -0.000388219 -3.17512e-06
-0.000388219 7.05678e-05 7.18313e-07
-3.17512e-06 7.18313e-07 -7.41196e-06
0.00190747 -0.000401169 3.72528e-06
-0.000401169 7.48342e-05 2.40897e-06
3.72528e-06 2.40897e-06 -5.69242e-05
0.00195505 -0.000413242 -8.36047e-08
-0.000413242 0.00012829 1.67492e-07
-8.36047e-08 1.67492e-07 3.67443e-06
0.0018636 -0.000377117 5.6455e-07
-0.000377117 0.000105544 -8.48404e-08
5.6455e-07 -8.48404e-08 -2.10825e-05
0.00186432 -0.00037634 6.8161e-08
-0.00037634 0.00011893 3.87614e-06
6.8161e-08 3.87614e-06 -1.25618e-05
0.0019872 -0.000375064 -2.15974e-06
-0.000375064 0.000226019 4.04126e-07
-2.15974e-06 4.04126e-07 8.67658e-05
0.00198875 -0.000379454 -1.71025e-07
-0.000379454 0.000239089 -1.75398e-06
-1.71025e-07 -1.75398e-06 7.47589e-05
0.00191218 -0.000387584 4.13622e-06
-0.000387584 0.000187394 3.44789e-06
4.13622e-06 3.44789e-06 1.4004e-05
0.00186258 -0.000403352 1.47919e-07
-0.000403352 0.000172349 -4.07978e-07
1.47919e-07 -4.07978e-07 -2.34376e-05
0.00188739 -0.000388247 -1.43366e-06
-0.000388247 0.000250816 -2.24649e-06
-1.43366e-06 -2.24649e-06 3.99432e-05
0.00143439 -0.000351863 -8.82885e-06
-0.000351863 0.000135934 9.84498e-07
-8.82885e-06 9.84498e-07 -0.000102505
0.00179962 -0.00043736 -9.04129e-07
-0.00043736 0.000244285 -7.02888e-07
-9.04129e-07 -7.02888e-07 -8.22012e-06
0.0019491 -0.000477393 4.19084e-06
-0.000477393 0.000262278 1.74601e-06
4.19084e-06 1.74601e-06 1.3063e-05
0.000835101 -0.000212803 -1.21627e-05
-0.000212803 -1.33988e-05 7.1831e-06
-1.21627e-05 7.1831e-06 -0.000203349
0.00132504 -0.000359578 7.0984e-08
-0.000359578 0.000163955 4.2651e-07
7.0984e-08 4.2651e-07 -9.3611e-05
0.00153318 -0.000465118 3.03312e-06
-0.000465118 0.00020056 6.03129e-07
3.03312e-06 6.03129e-07 -9.29308e-05
0.000440407 -0.000164588 -2.08372e-05
-0.000164588 -0.000121284 1.68311e-05
-2.08372e-05 1.68311e-05 -0.000223744
0.000804019 -0.000207174 4.1772e-07
-0.000207174 3.16988e-05 2.99921e-07
4.1772e-07 2.99921e-07 -0.000160452
0.000948871 -0.000308912 7.35324e-06
-0.000308912 2.25831e-05 -2.57466e-06
7.35324e-06 -2.57466e-06 -0.000225694
0.0054633 0.000157604 -0.000169094
0.000157604 0.00305782 9.37694e-06
-0.000169094 9.37694e-06 0.00304508
0.000498372 -0.000157024 -6.92789e-07
-0.000157024 -6.40758e-05 -5.69521e-08
-6.92789e-07 -5.69521e-08 -0.000159125
0.000667443 -0.000215428 7.77646e-06
-0.000215428 2.22513e-05 -5.64008e-06
7.77646e-06 -5.64008e-06 -0.000174261
0.00475612 0.000142799 8.68434e-06
0.000142799 0.00263094 4.90355e-08
8.68434e-06 4.90355e-08 0.00262131
0.000490879 -0.000108219 1.71373e-05
-0.000108219 -3.7748e-05 -1.47231e-05
1.71373e-05 -1.47231e-05 -0.000120178
0.00410122 0.000111278 0.000141456
0.000111278 0.00222198 -9.18911e-06
0.000141456 -9.18911e-06 0.00222149
0.00079811 0.000352837 -4.99048e-06
0.000352837 -6.19704e-05 -2.31072e-06
-4.99048e-06 -2.31072e-06 -0.000344978
0.00153855 0.000370281 -5.70282e-07
0.000370281 0.00048316 -9.8621e-07
-5.70282e-07 -9.8621e-07 0.000218769
0.000295371 0.000183417 -7.7776e-07
0.000183417 -0.000246211 -2.73869e-06
-7.7776e-07 -2.73869e-06 -0.000455005
0.000598005 0.000207252 -4.8337e-06
0.000207252 4.41298e-06 -2.02201e-06
-4.8337e-06 -2.02201e-06 -0.000178506
-4.27578e-05 0.000105529 7.89663e-07
0.000105529 -0.000341203 -8.10169e-07
7.89663e-07 -8.10169e-07 -0.000520401
0.00118384 0.000199226 -3.2306e-06
0.000199226 0.000422177 -7.09147e-06
-3.2306e-06 -7.09147e-06 0.00024025
2.22168e-06 3.15762e-05 -1.18817e-06
3.15762e-05 -0.00029708 7.52865e-07
-1.18817e-06 7.52865e-07 -0.000455179
0.000742935 7.40769e-05 4.10612e-07
7.40769e-05 0.000135835 -4.06955e-07
4.10612e-07 -4.06955e-07 4.88779e-06
0.000629913 2.02896e-05 -7.51271e-06
2.02896e-05 5.6536e-05 -1.34272e-05
-7.51271e-06 -1.34272e-05 1.04965e-06
0.000573954 2.62555e-05 -1.00907e-06
2.62555e-05 4.65474e-05 7.75235e-06
-1.00907e-06 7.75235e-06 -6.72113e-05
0.000497858 1.08555e-05 1.53957e-07
1.08555e-05 -1.95862e-05 -1.78557e-07
1.53957e-07 -1.78557e-07 -6.56906e-05
0.0033397 -0.000125995 -8.73554e-05
-0.000125995 0.00174805 -4.96742e-06
-8.73554e-05 -4.96742e-06 0.00174652
0.00296622 -0.000119647 -6.98381e-06
-0.000119647 0.00150936 6.44717e-07
-6.98381e-06 6.44717e-07 0.00150954
0.000396108 1.43024e-05 4.08635e-06
1.43024e-05 -8.33493e-05 9.37401e-06
4.08635e-06 9.37401e-06 -0.0001203
0.00270206 -0.000101486 4.20599e-05
-0.000101486 0.00133734 4.24387e-06
4.20599e-05 4.24387e-06 0.0013417
0.00398986 0.000115933 7.70207e-05
0.000115933 -0.000802631 1.87373e-05
7.70207e-05 1.87373e-05 0.000159551
0.00388404 -0.000802692 0.000116193
-0.000802692 -0.00342067 5.85861e-05
0.000116193 5.85861e-05 -0.00459387
0.010255 -0.0019891 -0.000158218
-0.0019891 0.00380909 -7.42793e-05
-0.000158218 -7.42793e-05 0.00353771
0.00117437 0.000467291 8.63392e-06
0.000467291 -3.25452e-05 6.93536e-06
8.63392e-06 6.93536e-06 -0.000328385
0.00322412 0.00053376 -6.15304e-06
0.00053376 0.00166176 7.02268e-06
-6.15304e-06 7.02268e-06 0.00133967
0.00161183 0.000437228 -1.83318e-06
0.000437228 0.000575134 1.51722e-06
-1.83318e-06 1.51722e-06 0.000261207
0.00107043 0.000441309 3.24369e-06
0.000441309 0.000222775 1.86951e-06
3.24369e-06 1.86951e-06 -8.46211e-05
0.00135548 0.000465935 -2.41685e-06
0.000465935 0.000264587 1.59878e-06
-2.41685e-06 1.59878e-06 -7.35979e-05
0.00129785 0.000544198 1.64279e-05
0.000544198 0.000172984 1.32245e-05
1.64279e-05 1.32245e-05 -0.000126405
0.00158627 0.000539734 -2.52811e-05
0.000539734 0.000473572 -6.15045e-06
-2.52811e-05 -6.15045e-06 0.000136281
0.000853842 0.000489257 1.42142e-05
0.000489257 9.10029e-05 -1.46641e-05
1.42142e-05 -1.46641e-05 -0.000123323
0.00121567 0.000562656 2.33189e-06
0.000562656 0.000122873 -2.08712e-06
2.33189e-06 -2.08712e-06 -0.000121254
0.0015362 0.000650773 4.29772e-06
0.000650773 4.09363e-05 1.43541e-06
4.29772e-06 1.43541e-06 -4.99743e-05
0.00171666 0.000695951 1.16904e-05
0.000695951 0.000110726 5.01054e-07
1.16904e-05 5.01054e-07 -0.000129623
0.00160558 0.000638603 2.06347e-05
0.000638603 8.57329e-05 1.12997e-05
2.06347e-05 1.12997e-05 -8.2503e-05
0.00102825 0.000674618 -4.03428e-06
0.000674618 -0.000184992 -5.75885e-06
-4.03428e-06 -5.75885e-06 -0.000393344
0.000662775 0.000593654 -9.66993e-06
0.000593654 -0.00035455 -6.05254e-06
-9.66993e-06 -6.05254e-06 -0.000477345
0.0015226 0.000616265 4.20296e-05
0.000616265 -0.000631548 3.74112e-05
4.20296e-05 3.74112e-05 -0.000474754
0.00574112 0.00124081 -7.90888e-05
0.00124081 -0.00070729 -2.33277e-05
-7.90888e-05 -2.33277e-05 0.000192151
0.00354178 0.00112928 0.000415893
0.00112928 -0.00314733 6.20522e-05
0.000415893 6.20522e-05 -0.00505182
0.000419349 0.00136852 -9.44124e-05
0.00136852 -0.00142624 -3.39533e-05
-9.44124e-05 -3.39533e-05 -0.00113297
0.00397757 0.0013094 -3.25003e-05
0.0013094 0.000724764 -7.69301e-06
-3.25003e-05 -7.69301e-06 0.000579282
0.00357258 0.00115392 -0.000109053
0.00115392 0.000957295 -3.12083e-05
-0.000109053 -3.12083e-05 0.000709934
0.00276049 -0.000260672 -4.44685e-05
-0.000260672 -0.000155303 -1.99222e-05
-4.44685e-05 -1.99222e-05 5.22464e-05
0.000302369 -0.000179448 4.71646e-05
-0.000179448 -0.000390807 1.13771e-05
4.71646e-05 1.13771e-05 -9.14697e-05
0.00182507 0.000847422 0.000144466
0.000847422 -0.00430236 -5.47768e-06
0.000144466 -5.47768e-06 -0.00451503
-0.00124525 -0.000442741 -2.92207e-05
-0.000442741 -0.00189967 4.08929e-05
-2.92207e-05 4.08929e-05 -0.00175237
0.00584697 -0.000440338 -0.000109034
-0.000440338 0.000688788 3.52445e-05
-0.000109034 3.52445e-05 0.000671632
0.00249397 -0.000474938 -2.5259e-05
-0.000474938 -0.000193818 9.81308e-06
-2.5259e-05 9.81308e-06 7.626e-05
0.00393763 -0.000288827 1.1617e-06
-0.000288827 0.000701226 -3.68309e-06
1.1617e-06 -3.68309e-06 0.000708906
0.00213707 -0.00027928 4.31776e-05
-0.00027928 -0.000293435 -5.6935e-06
4.31776e-05 -5.6935e-06 -6.1533e-06
0.00347052 -8.29089e-05 3.14297e-05
-8.29089e-05 0.00103832 -1.66384e-06
3.14297e-05 -1.66384e-06 0.00100536
0.000861762 -0.000447629 -2.54373e-05
-0.000447629 -0.000753686 1.19963e-05
-2.54373e-05 1.19963e-05 -0.000617092
0.00194661 -0.00040056 -7.35483e-07
-0.00040056 -0.000322326 2.18115e-06
-7.35483e-07 2.18115e-06 -0.000131857
0.0022071 -0.000361876 2.87474e-06
-0.000361876 -0.000141108 -8.23142e-07
2.87474e-06 -8.23142e-07 1.42421e-05
0.00212027 -0.000494519 -3.00903e-06
-0.000494519 -2.45764e-05 2.11094e-06
-3.00903e-06 2.11094e-06 -7.37496e-05
0.00214404 -0.000424953 2.94972e-07
-0.000424953 3.43274e-05 -1.58229e-07
2.94972e-07 -1.58229e-07 2.29504e-05
0.00211033 -0.000349032 -1.65436e-06
-0.000349032 2.93217e-05 -1.6758e-07
-1.65436e-06 -1.6758e-07 9.35419e-06
0.00195093 -0.000421508 -2.01537e-08
-0.000421508 4.40367e-05 6.43958e-07
-2.01537e-08 6.43958e-07 -4.01249e-05
0.00201112 -0.000394242 -6.96519e-07
-0.000394242 7.05862e-05 1.30869e-07
-6.96519e-07 1.30869e-07 -9.09919e-06
0.00193706 -0.000343096 -1.75106e-06
-0.000343096 9.01607e-05 9.82237e-07
-1.75106e-06 9.82237e-07 -1.12099e-05
0.00186798 -0.000405569 7.17026e-07
-0.000405569 9.24908e-05 -4.40674e-07
7.17026e-07 -4.40674e-07 -3.14753e-05
0.00184477 -0.00037651 1.09246e-06
-0.00037651 9.01284e-05 -5.91603e-07
1.09246e-06 -5.91603e-07 -3.70002e-05
0.0018724 -0.00035494 9.49573e-07
-0.00035494 0.000125366 -1.61839e-06
9.49573e-07 -1.61839e-06 -1.41596e-05
0.00192622 -0.000367226 -2.85113e-06
-0.000367226 0.00018428 3.47446e-06
-2.85113e-06 3.47446e-06 4.88889e-05
0.00202785 -0.000379054 -1.84828e-06
-0.000379054 0.000258111 5.27146e-07
-1.84828e-06 5.27146e-07 9.79066e-05
0.00194433 -0.00036295 -1.08718e-06
-0.00036295 0.000251203 -1.73244e-06
-1.08718e-06 -1.73244e-06 6.54196e-05
0.00192473 -0.000409392 2.69519e-06
-0.000409392 0.000210908 2.37467e-06
2.69519e-06 2.37467e-06 1.33337e-05
0.00188989 -0.000390696 7.0518e-07
-0.000390696 0.000252914 -5.46779e-07
7.0518e-07 -5.46779e-07 4.15755e-05
0.00156143 -0.000319113 -6.84458e-06
-0.000319113 0.00016544 1.07983e-06
-6.84458e-06 1.07983e-06 -4.88915e-05
0.000910229 -0.000214224 -1.34808e-05
-0.000214224 -2.01818e-05 6.88847e-06
-1.34808e-05 6.88847e-06 -0.000204732
0.0014222 -0.000348551 -1.18026e-06
-0.000348551 0.000135654 -9.56929e-08
-1.18026e-06 -9.56929e-08 -0.000103327
0.00176047 -0.000438065 2.79065e-06
-0.000438065 0.000220894 5.15878e-07
2.79065e-06 5.15878e-07 -3.50962e-05
0.000457148 -0.000207288 -2.2506e-05
-0.000207288 -0.000113017 1.74768e-05
-2.2506e-05 1.74768e-05 -0.000232142
0.000839832 -0.000216032 5.58779e-07
-0.000216032 -1.38985e-05 1.30026e-07
5.58779e-07 1.30026e-07 -0.000205243
0.00133757 -0.000359938 7.94715e-06
-0.000359938 0.000171075 -1.53299e-06
7.94715e-06 -1.53299e-06 -8.5863e-05
0.00605988 0.000115487 -0.000212085
0.000115487 0.0034028 1.26155e-05
-0.000212085 1.26155e-05 0.00339742
0.000487912 -0.000207139 -1.14713e-06
-0.000207139 -8.69568e-05 4.19189e-07
-1.14713e-06 4.19189e-07 -0.000198003
0.000868563 -0.000218373 1.09988e-05
-0.000218373 7.22252e-05 -6.84728e-06
1.09988e-05 -6.84728e-06 -0.000123491
0.00569757 0.000135194 -2.40693e-06
0.000135194 0.00320064 -4.16277e-07
-2.40693e-06 -4.16277e-07 0.00318923
0.00060702 -0.000178389 2.24328e-05
-0.000178389 3.98214e-06 -1.69064e-05
2.24328e-05 -1.69064e-05 -9.64761e-05
0.00516382 0.000122165 0.000182103
0.000122165 0.00288033 -1.57124e-05
0.000182103 -1.57124e-05 0.00287185
0.00134732 0.000425593 -2.60593e-06
0.000425593 0.000149884 2.74896e-06
-2.60593e-06 2.74896e-06 -0.000140737
0.00143053 0.000420144 -3.7001e-06
0.000420144 0.000317851 -1.22974e-06
-3.7001e-06 -1.22974e-06 2.02255e-05
0.000962683 0.000293395 -6.15347e-06
0.000293395 5.26265e-05 -1.57589e-06
-6.15347e-06 -1.57589e-06 -0.000188027
0.00264372 0.000477445 -3.34204e-07
0.000477445 0.00116684 3.97818e-06
-3.34204e-07 3.97818e-06 0.000883573
0.000860027 0.000240106 -1.94253e-06
0.000240106 0.000108899 -1.27506e-06
-1.94253e-06 -1.27506e-06 -0.000113763
0.00122965 0.000226884 -5.89006e-06
0.000226884 0.00041313 -4.05316e-06
-5.89006e-06 -4.05316e-06 0.000211757
-7.19518e-05 9.93963e-05 -2.58049e-06
9.93963e-05 -0.000370182 -1.01982e-06
-2.58049e-06 -1.01982e-06 -0.000551567
0.000674325 0.000112965 -5.9955e-07
0.000112965 9.74845e-05 -2.88972e-07
-5.9955e-07 -2.88972e-07 -6.80656e-05
0.000601213 5.32838e-05 -1.28701e-05
5.32838e-05 3.06788e-05 -1.46041e-05
-1.28701e-05 -1.46041e-05 -3.85934e-05
0.000439635 4.25421e-05 3.91121e-07
4.25421e-05 -4.85657e-05 8.14325e-06
3.91121e-07 8.14325e-06 -0.000174491
0.000461373 1.61751e-05 1.31204e-07
1.61751e-05 -4.28091e-05 -3.10176e-07
1.31204e-07 -3.10176e-07 -9.78149e-05
0.0037937 -0.000137535 -0.000112032
-0.000137535 0.00203778 -6.10305e-06
-0.000112032 -6.10305e-06 0.00203231
0.000334457 1.43342e-05 4.79543e-06
1.43342e-05 -0.000116904 1.13942e-05
4.79543e-06 1.13942e-05 -0.000162321
0.00329141 -0.00013662 -6.65992e-06
-0.00013662 0.00171978 6.65722e-07
-6.65992e-06 6.65722e-07 0.00171541
0.00292956 -0.000121748 5.13767e-05
-0.000121748 0.00148674 4.11008e-06
5.13767e-05 4.11008e-06 0.00148618
0.000515627 9.56772e-05 8.22732e-06
9.56772e-05 -0.00139041 1.58904e-05
8.22732e-06 1.58904e-05 -0.00100553
0.00525838 2.01908e-05 6.13546e-05
2.01908e-05 -2.84829e-05 9.1616e-06
6.13546e-05 9.1616e-06 0.000769641
0.0124636 0.000764427 -5.99628e-05
0.000764427 0.00271218 -2.66559e-06
-5.99628e-05 -2.66559e-06 0.00203652
0.00185737 0.000598725 3.51369e-06
0.000598725 0.0003314 4.01645e-06
3.51369e-06 4.01645e-06 3.74979e-05
0.00197934 0.00058477 1.17534e-06
0.00058477 0.000287429 2.73229e-06
1.17534e-06 2.73229e-06 1.57792e-05
0.00129906 0.000483758 4.10021e-07
0.000483758 5.56575e-05 -3.09651e-06
4.10021e-07 -3.09651e-06 -0.000240465
0.00238657 0.00059019 -5.13098e-06
0.00059019 0.00100241 6.52063e-06
-5.13098e-06 6.52063e-06 0.000666609
0.00174679 0.000503672 -4.22786e-06
0.000503672 0.000521281 -5.39725e-06
-4.22786e-06 -5.39725e-06 0.000168809
0.00169106 0.000589464 6.84261e-06
0.000589464 0.000378007 3.08815e-06
6.84261e-06 3.08815e-06 7.76135e-05
0.00161948 0.000637192 4.56762e-07
0.000637192 9.62278e-06 -2.12096e-06
4.56762e-07 -2.12096e-06 -0.000245307
0.00226796 0.000680484 -1.61131e-05
0.000680484 0.000690822 -3.68526e-07
-1.61131e-05 -3.68526e-07 0.000421226
0.00127802 0.000617153 1.29682e-07
0.000617153 -0.000136348 1.48911e-05
1.29682e-07 1.48911e-05 -0.000179036
0.00253818 0.000775931 -1.56741e-06
0.000775931 0.000569739 1.23232e-07
-1.56741e-06 1.23232e-07 0.000314546
0.00251584 0.000682662 -5.59983e-06
0.000682662 0.000391254 1.4587e-06
-5.59983e-06 1.4587e-06 0.000187916
0.00095229 0.000340569 2.3718e-05
0.000340569 -0.000420044 1.63467e-05
2.3718e-05 1.63467e-05 -0.00042869
0.000901584 0.000574074 1.07255e-05
0.000574074 -0.000266439 -2.20827e-06
1.07255e-05 -2.20827e-06 -0.00042921
0.00126888 0.000695116 -2.84949e-05
0.000695116 -5.95846e-05 2.20371e-06
-2.84949e-05 2.20371e-06 -0.000274486
0.00269901 0.000685956 3.58367e-06
0.000685956 -1.32111e-05 8.87011e-06
3.58367e-06 8.87011e-06 6.74001e-05
0.00561068 0.000847509 -5.64835e-06
0.000847509 -0.000692918 -2.67175e-05
-5.64835e-06 -2.67175e-05 -0.000204481
0.003647 0.00109601 -1.96979e-05
0.00109601 0.000889001 -4.05987e-05
-1.96979e-05 -4.05987e-05 0.000792424
0.00136197 -5.55572e-05 2.65732e-05
-5.55572e-05 -0.000266412 1.01444e-06
2.65732e-05 1.01444e-06 -0.000202791
0.00228013 -0.000190019 -4.22421e-05
-0.000190019 -0.000299359 2.35286e-06
-4.22421e-05 2.35286e-06 -0.000179336
0.00206418 0.000258872 1.60673e-05
0.000258872 -0.000601375 -3.09092e-06
1.60673e-05 -3.09092e-06 -0.000457423
0.000246834 -0.000342021 -4.32722e-05
-0.000342021 -0.00136362 3.4288e-05
-4.32722e-05 3.4288e-05 -0.00108192
0.00337333 -0.000360196 -9.76728e-05
-0.000360196 0.000310386 -5.90304e-06
-9.76728e-05 -5.90304e-06 0.000354424
0.0022778 -0.000299257 7.12929e-06
-0.000299257 -0.00012472 -3.87472e-06
7.12929e-06 -3.87472e-06 0.000135716
0.00246958 -8.25139e-05 -1.04283e-05
-8.25139e-05 0.000395413 4.45415e-07
-1.04283e-05 4.45415e-07 0.000373559
0.00225188 -0.000219235 6.71566e-06
-0.000219235 -1.05216e-05 -1.81833e-07
6.71566e-06 -1.81833e-07 5.50926e-05
0.00217385 -1.11785e-05 6.50942e-06
-1.11785e-05 -1.33436e-05 6.79641e-07
6.50942e-06 6.79641e-07 -2.71477e-06
0.00191171 -0.000420259 -1.23364e-05
-0.000420259 -0.000376327 3.5921e-06
-1.23364e-05 3.5921e-06 -0.000194056
0.00223567 -0.000368708 -2.24361e-06
-0.000368708 -0.000109425 5.34651e-07
-2.24361e-06 5.34651e-07 1.50725e-05
0.00218096 -0.000264228 -3.66239e-07
-0.000264228 -3.67529e-05 -6.81442e-07
-3.66239e-07 -6.81442e-07 1.61688e-06
0.00213248 -0.000423308 -2.94973e-06
-0.000423308 3.26682e-05 1.46421e-07
-2.94973e-06 1.46421e-07 2.0408e-05
0.0021064 -0.000346001 -1.42393e-07
-0.000346001 3.82648e-05 5.9994e-08
-1.42393e-07 5.9994e-08 1.40304e-05
0.00202418 -0.000296401 -1.86289e-06
-0.000296401 4.51347e-05 5.99573e-07
-1.86289e-06 5.99573e-07 -9.62686e-06
0.00200077 -0.000400749 3.04531e-07
-0.000400749 7.18274e-05 -1.22561e-06
3.04531e-07 -1.22561e-06 -9.9407e-06
0.00191866 -0.000340386 6.30515e-07
-0.000340386 7.60019e-05 -2.78276e-07
6.30515e-07 -2.78276e-07 -2.57414e-05
0.00192878 -0.00031521 -4.38955e-07
-0.00031521 0.000115784 -2.34286e-07
-4.38955e-07 -2.34286e-07 4.06462e-07
0.00181614 -0.000375567 1.29816e-06
-0.000375567 6.89085e-05 -9.61311e-07
1.29816e-06 -9.61311e-07 -5.87001e-05
0.0019065 -0.000356822 2.32316e-07
-0.000356822 0.000144965 -4.51471e-07
2.32316e-07 -4.51471e-07 4.97952e-06
0.00186531 -0.000330944 -4.70982e-07
-0.000330944 0.000163291 -1.54052e-06
-4.70982e-07 -1.54052e-06 -7.78117e-07
0.00206269 -0.000378473 -1.81827e-06
-0.000378473 0.000274098 3.58127e-06
-1.81827e-06 3.58127e-06 0.000118045
0.00193882 -0.000363106 -5.65618e-07
-0.000363106 0.000248628 -1.25375e-07
-5.65618e-07 -1.25375e-07 6.39824e-05
0.0015438 -0.000290838 -5.57945e-06
-0.000290838 0.000120028 8.45993e-07
-5.57945e-06 8.45993e-07 -7.73086e-05
0.00189689 -0.00039335 3.35845e-06
-0.00039335 0.000257811 1.28799e-06
3.35845e-06 1.28799e-06 4.5982e-05
0.00158601 -0.000322194 -4.33768e-07
-0.000322194 0.000180629 1.04002e-08
-4.33768e-07 1.04002e-08 -3.32019e-05
0.000953852 -0.000200012 -1.42794e-05
-0.000200012 -2.74108e-05 6.56749e-06
-1.42794e-05 6.56749e-06 -0.000203202
0.00038328 -0.00018526 -2.00063e-05
-0.00018526 -0.000171511 1.62997e-05
-2.00063e-05 1.62997e-05 -0.000288135
0.000939514 -0.000217523 2.43118e-07
-0.000217523 -5.87641e-06 7.26895e-08
2.43118e-07 7.26895e-08 -0.000191265
0.00142071 -0.000346073 5.80479e-06
-0.000346073 0.000141757 -1.30893e-06
5.80479e-06 -1.30893e-06 -9.7902e-05
0.00630179 3.88457e-05 -0.000240429
3.88457e-05 0.0035278 1.50169e-05
-0.000240429 1.50169e-05 0.00353282
0.000465837 -0.000202688 -1.45347e-06
-0.000202688 -0.000115264 9.677e-07
-1.45347e-06 9.677e-07 -0.000230087
0.000886313 -0.000220818 1.22948e-05
-0.000220818 1.14015e-05 -6.52451e-06
1.22948e-05 -6.52451e-06 -0.000181503
0.00616679 9.067e-05 -1.45853e-06
9.067e-05 0.00346642 1.24042e-07
-1.45853e-06 1.24042e-07 0.00346199
0.000546744 -0.000211873 2.46665e-05
-0.000211873 -5.61642e-05 -1.74544e-05
2.46665e-05 -1.74544e-05 -0.000167595
0.005896 0.000113306 0.000209917
0.000113306 0.00331743 -1.7714e-05
0.000209917 -1.7714e-05 0.00330784
0.00161728 0.00049118 -1.42057e-06
0.00049118 0.00018265 3.78804e-06
-1.42057e-06 3.78804e-06 -9.32123e-05
0.00140722 0.000439603 3.39496e-07
0.000439603 0.000183712 8.12285e-07
3.39496e-07 8.12285e-07 -0.000109181
0.00126935 0.000342664 -7.00685e-06
0.000342664 0.000162507 -7.9728e-07
-7.00685e-06 -7.9728e-07 -8.67042e-05
0.00174336 0.000454639 1.36826e-06
0.000454639 0.000502744 2.20809e-06
1.36826e-06 2.20809e-06 0.000197301
0.00112352 0.000302101 -1.54872e-06
0.000302101 0.000156121 1.56893e-07
-1.54872e-06 1.56893e-07 -8.34455e-05
0.00102079 0.000227574 -9.99878e-06
0.000227574 0.000209992 -3.53949e-06
-9.99878e-06 -3.53949e-06 1.36256e-05
0.0013016 0.000284882 -2.377e-06
0.000284882 0.000384842 -4.47861e-08
-2.377e-06 -4.47861e-08 0.000151794
0.000690701 0.000189611 6.15569e-07
0.000189611 9.1576e-05 6.47021e-07
6.15569e-07 6.47021e-07 -0.00010867
0.000618983 0.000130837 -2.19522e-05
0.000130837 2.66115e-05 -1.5927e-05
-2.19522e-05 -1.5927e-05 -5.97795e-05
0.000353606 5.89264e-05 3.92696e-07
5.89264e-05 -0.000101439 6.27391e-06
3.92696e-07 6.27391e-06 -0.000258052
0.000530193 4.38067e-05 -1.09026e-06
4.38067e-05 -8.10088e-06 -4.33158e-07
-1.09026e-06 -4.33158e-07 -7.40369e-05
0.00447497 -0.000147506 -0.000143509
-0.000147506 0.00246589 -9.0847e-06
-0.000143509 -9.0847e-06 0.00245529
0.000407443 1.50823e-05 6.51985e-06
1.50823e-05 -7.29209e-05 1.30617e-05
6.51985e-06 1.30617e-05 -0.000127553
0.00366492 -0.000155647 -6.72582e-06
-0.000155647 0.00196194 6.59692e-07
-6.72582e-06 6.59692e-07 0.00195169
0.00320408 -0.000142912 6.39619e-05
-0.000142912 0.00166706 4.19159e-06
6.39619e-05 4.19159e-06 0.00166059
0.000809926 0.000102733 2.18258e-05
0.000102733 -0.00058662 1.6606e-05
2.18258e-05 1.6606e-05 -0.000444104
0.00238485 0.000104015 -9.77579e-06
0.000104015 -0.000640354 -4.03907e-06
-9.77579e-06 -4.03907e-06 -0.000219747
0.0038645 0.000157645 0.000175524
0.000157645 -0.00129726 5.23911e-05
0.000175524 5.23911e-05 -1.14221e-05
0.0025401 0.000652457 -5.86026e-06
0.000652457 0.000549034 -3.61846e-07
-5.86026e-06 -3.61846e-07 0.000287084
0.00169973 0.000603265 -5.54014e-06
0.000603265 0.000223289 -4.46411e-06
-5.54014e-06 -4.46411e-06 -6.65096e-05
0.00204665 0.000489593 -8.58563e-07
0.000489593 0.000183008 3.98257e-06
-8.58563e-07 3.98257e-06 -2.59719e-05
0.00194629 0.000573157 1.06271e-06
0.000573157 0.000266672 3.41115e-07
1.06271e-06 3.41115e-07 -1.93067e-06
0.00140627 0.000498217 1.71808e-07
0.000498217 0.000131062 -9.63689e-06
1.71808e-07 -9.63689e-06 -0.000164884
0.00186242 0.00050676 -1.78861e-06
0.00050676 6.40236e-06 7.43728e-07
-1.78861e-06 7.43728e-07 -0.000182684
0.00229042 0.000657222 -7.64038e-06
0.000657222 0.000703424 -3.24071e-06
-7.64038e-06 -3.24071e-06 0.000398537
0.00208612 0.000667188 -8.45873e-08
0.000667188 0.000294213 -5.64548e-07
-8.45873e-08 -5.64548e-07 3.27397e-05
0.00198275 0.000379331 -9.54071e-06
0.000379331 -6.8559e-05 7.94986e-08
-9.54071e-06 7.94986e-08 -0.000127482
0.00292203 0.000822275 -4.50761e-06
0.000822275 0.000773161 6.33745e-06
-4.50761e-06 6.33745e-06 0.000518142
0.00225762 0.000664288 -8.34498e-07
0.000664288 0.00024236 -3.29631e-07
-8.34498e-07 -3.29631e-07 3.92987e-05
0.000762822 0.000339099 4.40931e-06
0.000339099 -0.00048843 3.04697e-06
4.40931e-06 3.04697e-06 -0.000503003
-0.000505002 0.000458302 -1.89891e-05
0.000458302 -0.00099416 -3.92639e-06
-1.89891e-05 -3.92639e-06 -0.00113639
0.00312282 0.000737315 -8.74582e-05
0.000737315 0.000183858 -3.19793e-05
-8.74582e-05 -3.19793e-05 0.000200213
0.00200917 6.13525e-05 -1.59604e-06
6.13525e-05 -0.00014046 -1.20412e-06
-1.59604e-06 -1.20412e-06 -9.04705e-05
0.00243117 -5.93252e-05 5.35998e-06
-5.93252e-05 0.000419933 1.63555e-07
5.35998e-06 1.63555e-07 0.000470411
0.00211648 -0.000158883 -6.94732e-05
-0.000158883 -0.000301338 7.85111e-06
-6.94732e-05 7.85111e-06 -0.000244241
0.00227333 -0.000315295 -5.0132e-05
-0.000315295 -4.06472e-05 7.14716e-06
-5.0132e-05 7.14716e-06 0.000183509
0.00145243 -9.39863e-05 -8.77652e-06
-9.39863e-05 -0.000253738 2.77801e-06
-8.77652e-06 2.77801e-06 -0.00026437
0.00221954 -0.000216524 4.84553e-08
-0.000216524 -3.77671e-05 -1.49229e-06
4.84553e-08 -1.49229e-06 4.55787e-05
0.00222961 -1.2449e-05 -2.12725e-06
-1.2449e-05 -6.81606e-06 1.42526e-06
-2.12725e-06 1.42526e-06 1.10611e-05
0.00224005 -7.33314e-05 -8.36068e-07
-7.33314e-05 -6.63363e-06 -1.09579e-07
-8.36068e-07 -1.09579e-07 3.05926e-05
0.00225907 -0.000372102 -4.81506e-06
-0.000372102 -7.63774e-05 2.11468e-07
-4.81506e-06 2.11468e-07 1.90483e-05
0.00215196 -0.000254756 4.44837e-07
-0.000254756 -3.74225e-05 -2.27692e-07
4.44837e-07 -2.27692e-07 -5.19308e-06
0.00209726 -0.000200902 -8.7031e-07
-0.000200902 9.17398e-06 -8.79923e-08
-8.7031e-07 -8.79923e-08 1.27912e-05
0.00210736 -0.000343154 8.77097e-07
-0.000343154 4.99584e-05 -1.81705e-07
8.77097e-07 -1.81705e-07 2.20219e-05
0.00201974 -0.000293205 1.65524e-07
-0.000293205 4.7848e-05 1.50776e-07
1.65524e-07 1.50776e-07 -7.18058e-06
0.00199729 -0.000252966 -1.6166e-06
-0.000252966 0.000106979 2.68563e-07
-1.6166e-06 2.68563e-07 2.28977e-05
0.00190876 -0.000337932 2.31282e-06
-0.000337932 6.66292e-05 -1.30062e-06
2.31282e-06 -1.30062e-06 -3.54871e-05
0.00191291 -0.000314132 3.41585e-07
-0.000314132 0.000103566 -2.45233e-07
3.41585e-07 -2.45233e-07 -1.21178e-05
0.00187783 -0.000287808 -9.8211e-08
-0.000287808 0.000126508 -1.29273e-06
-9.8211e-08 -1.29273e-06 -1.15469e-05
0.00193958 -0.000358691 1.3474e-07
-0.000358691 0.000164021 5.81952e-07
1.3474e-07 5.81952e-07 2.35685e-05
0.00189241 -0.000332006 -3.67219e-07
-0.000332006 0.000181346 -6.13245e-08
-3.67219e-07 -6.13245e-08 1.72999e-05
0.0015926 -0.000265178 -3.60652e-06
-0.000265178 0.000113608 4.82925e-07
-3.60652e-06 4.82925e-07 -6.77379e-05
0.00193331 -0.000363142 5.72579e-07
-0.000363142 0.000245916 1.61838e-06
5.72579e-07 1.61838e-06 6.24606e-05
0.00157634 -0.000292925 -3.97852e-07
-0.000292925 0.000139188 9.8021e-08
-3.97852e-07 9.8021e-08 -5.79312e-05
0.000977096 -0.000180505 -1.44246e-05
-0.000180505 -3.21714e-05 5.91601e-06
-1.44246e-05 5.91601e-06 -0.000200251
0.00160594 -0.00032495 5.8187e-06
-0.00032495 0.000193027 -7.55382e-07
5.8187e-06 -7.55382e-07 -2.02531e-05
0.000990727 -0.000201392 1.11201e-07
-0.000201392 -7.66096e-06 8.82355e-08
1.11201e-07 8.82355e-08 -0.000183218
0.00261619 -0.000154412 -4.13197e-05
-0.000154412 0.00118053 1.04757e-05
-4.13197e-05 1.04757e-05 0.0010885
0.00194483 -7.74655e-05 -0.000222844
-7.74655e-05 0.000844222 2.80673e-05
-0.000222844 2.80673e-05 0.000825853
0.00157336 -0.000182762 -1.0103e-05
-0.000182762 0.000552354 -3.01266e-07
-1.0103e-05 -3.01266e-07 0.000444714
0.000958905 -0.000220174 1.33172e-05
-0.000220174 2.89929e-06 -6.38634e-06
1.33172e-05 -6.38634e-06 -0.000183274
0.00635568 2.18759e-05 -6.84982e-06
2.18759e-05 0.00356762 4.07602e-07
-6.84982e-06 4.07602e-07 0.00356915
0.000496113 -0.000228676 2.47645e-05
-0.000228676 -9.73694e-05 -1.70716e-05
2.47645e-05 -1.70716e-05 -0.000214416
0.00625042 6.99948e-05 0.000232914
6.99948e-05 0.00352245 -2.0899e-05
0.000232914 -2.0899e-05 0.00351552
0.00206517 0.000375771 -1.64949e-08
0.000375771 0.000171439 7.97405e-07
-1.64949e-08 7.97405e-07 1.0665e-05
0.00192034 0.00047868 2.19492e-06
0.00047868 0.000248139 4.37184e-06
2.19492e-06 4.37184e-06 1.12784e-05
0.00188708 0.000515022 9.04982e-08
0.000515022 0.000338724 2.05235e-07
9.04982e-08 2.05235e-07 6.13547e-05
0.00142497 0.000373633 -6.09404e-06
0.000373633 0.00018076 1.57108e-07
-6.09404e-06 1.57108e-07 -6.66216e-05
0.00148484 0.000456923 4.67776e-06
0.000456923 0.000225972 -9.65429e-07
4.67776e-06 -9.65429e-07 -7.01829e-05
0.00124729 0.000339739 -4.23929e-07
0.000339739 0.000150016 3.10493e-07
-4.23929e-07 3.10493e-07 -9.89206e-05
0.00083689 0.000207551 -1.16514e-05
0.000207551 1.64e-05 -5.34895e-06
-1.16514e-05 -5.34895e-06 -0.000168661
0.00128128 0.000310221 5.1632e-06
0.000310221 0.000258899 2.41039e-06
5.1632e-06 2.41039e-06 2.04842e-05
0.000747012 0.000201979 7.66493e-07
0.000201979 3.78312e-05 7.9371e-07
7.66493e-07 7.9371e-07 -0.000154108
0.00059121 0.000205279 -2.55703e-05
0.000205279 -7.7675e-06 -1.71031e-05
-2.55703e-05 -1.71031e-05 -0.000115051
0.000328251 0.000151889 2.32231e-06
0.000151889 -0.0001291 3.17034e-06
2.32231e-06 3.17034e-06 -0.000327394
0.00057749 0.000111902 -1.26579e-06
0.000111902 2.15879e-06 -7.3598e-07
-1.26579e-06 -7.3598e-07 -8.13397e-05
0.00538479 -0.000145736 -0.000187003
-0.000145736 0.0030306 -1.55928e-05
-0.000187003 -1.55928e-05 0.00301304
0.000352613 3.47373e-05 9.56648e-06
3.47373e-05 -0.000111353 1.45217e-05
9.56648e-06 1.45217e-05 -0.000175249
0.00421251 -0.000175337 -8.81709e-06
-0.000175337 0.00231091 7.76524e-07
-8.81709e-06 7.76524e-07 0.00229383
0.00357109 -0.000163982 8.14408e-05
-0.000163982 0.00190516 4.49567e-06
8.14408e-05 4.49567e-06 0.00189268
0.00213752 0.00019379 -3.98005e-06
0.00019379 -8.56207e-05 -5.58451e-07
-3.98005e-06 -5.58451e-07 -3.24748e-05
0.00204933 7.21774e-05 2.36764e-05
7.21774e-05 5.00583e-05 -2.76282e-06
2.36764e-05 -2.76282e-06 0.000185284
0.00497879 0.000158196 -0.000108597
0.000158196 0.000515627 -1.32629e-05
-0.000108597 -1.32629e-05 0.00095586
0.00196547 0.000439125 -4.89667e-06
0.000439125 9.15447e-05 1.44456e-06
-4.89667e-06 1.44456e-06 -8.18268e-05
0.00210564 0.000607667 -3.19282e-06
0.000607667 0.000317779 -2.1127e-07
-3.19282e-06 -2.1127e-07 6.19214e-05
0.00162974 0.00061536 -6.32316e-06
0.00061536 0.000165319 -8.65046e-06
-6.32316e-06 -8.65046e-06 -0.000120972
0.00217555 0.000484472 3.06137e-06
0.000484472 0.000278187 1.31368e-06
3.06137e-06 1.31368e-06 7.20833e-05
0.00190893 0.000562253 -2.9501e-07
0.000562253 0.00024436 -3.66507e-06
-2.9501e-07 -3.66507e-06 -2.15789e-05
0.00228631 0.000365171 -7.05479e-07
0.000365171 0.000113223 8.92874e-08
-7.05479e-07 8.92874e-08 4.22326e-05
0.00184041 0.000506627 7.01142e-08
0.000506627 2.02284e-05 7.3221e-07
7.01142e-08 7.3221e-07 -0.000169717
0.00256746 0.000699423 -5.29912e-06
0.000699423 0.000587675 -9.92998e-07
-5.29912e-06 -9.92998e-07 0.000317073
0.0020079 0.000375867 -4.96017e-07
0.000375867 -4.55519e-05 -5.04128e-07
-4.96017e-07 -5.04128e-07 -0.000103402
0.00210878 0.000652129 1.26763e-05
0.000652129 0.000147022 1.6695e-06
1.26763e-05 1.6695e-06 -5.866e-05
0.000911751 0.000339904 -3.6741e-05
0.000339904 -0.000382453 -1.47895e-05
-3.6741e-05 -1.47895e-05 -0.000404255
0.00220683 6.91289e-05 -3.0303e-07
6.91289e-05 -8.83992e-06 3.61246e-07
-3.0303e-07 3.61246e-07 2.82358e-05
0.00214577 7.26362e-05 -1.96662e-06
7.26362e-05 -4.14652e-05 2.51263e-07
-1.96662e-06 2.51263e-07 3.69426e-06
0.00313759 -5.33412e-05 -4.01896e-05
-5.33412e-05 0.000895344 3.01353e-06
-4.01896e-05 3.01353e-06 0.000930973
0.00216191 -0.000211059 -1.22943e-05
-0.000211059 -8.29876e-05 1.93487e-06
-1.22943e-05 1.93487e-06 1.69479e-05
0.00227815 -1.01173e-05 -3.11121e-06
-1.01173e-05 -9.33536e-06 -2.13572e-06
-3.11121e-06 -2.13572e-06 1.5658e-05
0.00219684 -7.89186e-05 -6.2072e-07
-7.89186e-05 -5.20454e-05 -9.56573e-08
-6.2072e-07 -9.56573e-08 -7.16703e-06
0.00199576 -6.38518e-05 -9.55002e-07
-6.38518e-05 -2.95841e-06 2.62812e-07
-9.55002e-07 2.62812e-07 -2.50413e-07
0.00211577 -0.000243991 4.3675e-07
-0.000243991 -4.08317e-05 2.61591e-07
4.3675e-07 2.61591e-07 -1.48973e-05
0.00205296 -0.000204348 -1.61417e-07
-0.000204348 -8.42464e-06 -4.0179e-09
-1.61417e-07 -4.0179e-09 -1.01122e-05
0.00202547 -0.000172613 -1.14773e-06
-0.000172613 8.16491e-05 -1.45331e-08
-1.14773e-06 -1.45331e-08 3.12174e-05
0.00201759 -0.000290201 2.08716e-06
-0.000290201 5.22286e-05 -3.54947e-07
2.08716e-06 -3.54947e-07 -3.1857e-06
0.00194025 -0.000249992 1.98051e-07
-0.000249992 6.71707e-05 -1.87188e-07
1.98051e-07 -1.87188e-07 -1.70239e-05
0.00187497 -0.000230338 -3.97643e-07
-0.000230338 8.03565e-05 -9.7448e-07
-3.97643e-07 -9.7448e-07 -3.21237e-05
0.00190052 -0.00031318 1.53293e-06
-0.00031318 9.34354e-05 -2.22636e-07
1.53293e-06 -2.22636e-07 -2.2542e-05
0.00191624 -0.00028972 -3.06943e-07
-0.00028972 0.000150118 -4.06126e-08
-3.06943e-07 -4.06126e-08 1.18564e-05
0.00163728 -0.000230647 -2.35023e-06
-0.000230647 0.000106282 1.76042e-07
-2.35023e-06 1.76042e-07 -5.82782e-05
0.00191822 -0.000333051 2.9701e-07
-0.000333051 0.00019852 1.23267e-06
2.9701e-07 1.23267e-06 3.44864e-05
0.00162336 -0.000267042 -3.22774e-07
-0.000267042 0.000131052 4.7563e-08
-3.22774e-07 4.7563e-08 -5.00236e-05
0.000994095 -0.000161143 -1.38395e-05
-0.000161143 -3.7754e-05 4.96128e-06
-1.38395e-05 4.96128e-06 -0.000199809
0.00160863 -0.000295037 4.58556e-06
-0.000295037 0.000158151 -6.72055e-07
4.58556e-06 -6.72055e-07 -3.87578e-05
0.00101889 -0.000181375 4.26852e-09
-0.000181375 -1.04513e-05 1.48025e-07
4.26852e-09 1.48025e-07 -0.000177885
0.00263369 -0.00015419 -4.93817e-05
-0.00015419 0.00118042 9.92243e-06
-4.93817e-05 9.92243e-06 0.00109633
0.00102609 -0.000203046 1.43001e-05
-0.000203046 1.11662e-05 -6.26135e-06
1.43001e-05 -6.26135e-06 -0.000164233
0.00275496 -0.000195112 4.38732e-05
-0.000195112 0.00126442 -6.40187e-06
4.38732e-05 -6.40187e-06 0.00117926
0.0020076 -0.00011593 -0.0002254
-0.00011593 0.000888921 3.27706e-05
-0.0002254 3.27706e-05 0.000868497
0.00406227 -7.49042e-05 -0.000220847
-7.49042e-05 0.00216068 1.9508e-05
-0.000220847 1.9508e-05 0.0021523
0.00284318 -0.000250444 0.000141486
-0.000250444 0.00133147 -2.16611e-05
0.000141486 -2.16611e-05 0.00124657
0.0064016 6.62131e-06 0.000248524
6.62131e-06 0.00360461 -2.4805e-05
0.000248524 -2.4805e-05 0.00360202
0.00227532 0.000375478 -2.36877e-06
0.000375478 0.000291481 -1.49679e-07
-2.36877e-06 -1.49679e-07 0.000153751
0.0017527 0.000367996 2.79591e-06
0.000367996 9.43077e-05 1.65129e-06
2.79591e-06 1.65129e-06 -9.49364e-05
0.00204503 0.000367739 5.4246e-07
0.000367739 0.000163207 -1.77099e-06
5.4246e-07 -1.77099e-06 9.2323e-06
0.00157945 0.000368093 -5.00604e-06
0.000368093 0.000173954 7.92311e-07
-5.00604e-06 7.92311e-07 -5.53798e-05
0.00200176 0.000483993 5.77961e-07
0.000483993 0.000284626 4.1761e-07
5.77961e-07 4.1761e-07 4.70338e-05
0.00215837 0.000539577 1.61321e-06
0.000539577 0.00049558 -3.06289e-06
1.61321e-06 -3.06289e-06 0.000216528
0.00140529 0.000374348 1.51604e-07
0.000374348 0.000163184 3.26181e-07
1.51604e-07 3.26181e-07 -8.55327e-05
0.000906026 0.000226932 -1.35247e-05
0.000226932 -9.99628e-06 -5.64293e-06
-1.35247e-05 -5.64293e-06 -0.000196216
0.00128921 0.000342859 8.11529e-06
0.000342859 0.000176622 2.2749e-06
8.11529e-06 2.2749e-06 -7.32779e-05
0.000776667 0.000201833 -2.3384e-07
0.000201833 -2.16342e-05 -1.99873e-07
-2.3384e-07 -1.99873e-07 -0.000204124
0.00048262 0.000231705 -2.57791e-05
0.000231705 -8.90506e-05 -1.76871e-05
-2.57791e-05 -1.76871e-05 -0.000204943
0.00033764 0.00017565 6.66815e-06
0.00017565 -0.000214661 3.52522e-06
6.66815e-06 3.52522e-06 -0.000402232
0.000426304 0.000175483 2.08303e-06
0.000175483 -0.000111542 4.71554e-07
2.08303e-06 4.71554e-07 -0.000211617
0.00610635 -0.000114359 -0.000214803
-0.000114359 0.00346695 -2.13098e-05
-0.000214803 -2.13098e-05 0.00344649
0.000339766 7.94335e-05 1.5928e-05
7.94335e-05 -0.000139744 1.51453e-05
1.5928e-05 1.51453e-05 -0.000217263
0.00502437 -0.000177126 -7.13177e-06
-0.000177126 0.00281044 -1.50054e-07
-7.13177e-06 -1.50054e-07 0.00279031
0.0039888 -0.000189052 9.58717e-05
-0.000189052 0.00217704 5.58711e-06
9.58717e-05 5.58711e-06 0.00215631
0.00222654 0.000219133 -8.9269e-07
0.000219133 3.95366e-06 3.01945e-07
-8.9269e-07 3.01945e-07 2.16718e-05
0.00207292 0.000198202 1.21952e-06
0.000198202 -0.000115592 4.94476e-08
1.21952e-06 4.94476e-08 -6.38247e-05
0.00296809 4.75812e-05 -7.94525e-05
4.75812e-05 0.000514373 -1.23471e-05
-7.94525e-05 -1.23471e-05 0.000649788
0.00202243 0.00031806 -6.02945e-07
0.00031806 4.76142e-05 2.12161e-07
-6.02945e-07 2.12161e-07 -5.31952e-05
0.00199686 0.000439272 -1.49855e-07
0.000439272 0.000131387 4.36623e-07
-1.49855e-07 4.36623e-07 -4.23523e-05
0.0016367 0.000557837 3.67723e-06
0.000557837 6.7552e-05 -1.97664e-06
3.67723e-06 -1.97664e-06 -0.000181098
0.00230675 0.000479218 3.88443e-07
0.000479218 0.000375244 -2.98267e-06
3.88443e-07 -2.98267e-06 0.000172115
0.00219074 0.000352165 -7.04773e-07
0.000352165 6.52002e-05 3.0954e-08
-7.04773e-07 3.0954e-08 -3.77452e-06
0.0018219 0.000506693 -3.10029e-06
0.000506693 3.67337e-05 3.54826e-07
-3.10029e-06 3.54826e-07 -0.000154065
0.00191996 0.000365924 1.09452e-05
0.000365924 -6.48631e-05 2.39658e-09
1.09452e-05 2.39658e-09 -0.000121265
0.00204733 5.78667e-05 6.9853e-07
5.78667e-05 2.39389e-07 5.12171e-07
6.9853e-07 5.12171e-07 1.21677e-05
0.00215376 6.63356e-05 8.96838e-08
6.63356e-05 -2.99203e-05 8.24832e-09
8.96838e-08 8.24832e-09 4.75142e-06
0.00226656 8.75363e-05 -7.56111e-06
8.75363e-05 5.07015e-05 -9.2409e-08
-7.56111e-06 -9.2409e-08 9.0775e-05
0.00191922 -1.18985e-05 -4.31876e-06
-1.18985e-05 1.13371e-05 5.35981e-07
-4.31876e-06 5.35981e-07 -2.5521e-06
0.00216352 -8.99927e-05 1.64744e-06
-8.99927e-05 -9.03374e-05 -6.26896e-07
1.64744e-06 -6.26896e-07 -3.79132e-05
0.00201201 -6.66014e-05 -8.35847e-07
-6.66014e-05 2.11579e-06 3.29884e-07
-8.35847e-07 3.29884e-07 5.94393e-06
0.00197363 -9.99018e-05 -3.9395e-06
-9.99018e-05 4.01114e-05 2.81492e-07
-3.9395e-06 2.81492e-07 7.61746e-06
0.00201159 -0.000207754 1.53066e-06
-0.000207754 -2.44584e-05 5.55467e-08
1.53066e-06 5.55467e-08 -3.16882e-05
0.00197803 -0.000169849 1.73432e-06
-0.000169849 5.1312e-05 -3.91042e-07
1.73432e-06 -3.91042e-07 1.33247e-06
0.00191688 -0.000159552 1.84267e-06
-0.000159552 8.64464e-05 -1.54524e-06
1.84267e-06 -1.54524e-06 -4.15384e-06
0.001882 -0.000246315 2.00189e-06
-0.000246315 2.65475e-05 -5.9978e-07
2.00189e-06 -5.9978e-07 -5.76449e-05
0.00194074 -0.000231488 -1.9533e-07
-0.000231488 0.000121596 -1.61545e-07
-1.9533e-07 -1.61545e-07 9.20668e-06
0.00167683 -0.000182894 -1.45495e-06
-0.000182894 0.000105736 -1.68978e-07
-1.45495e-06 -1.68978e-07 -4.09857e-05
0.00195423 -0.000291425 3.31332e-07
-0.000291425 0.000174119 9.92195e-07
3.31332e-07 9.92195e-07 3.56946e-05
0.00165851 -0.000231045 -2.59528e-07
-0.000231045 0.000117945 8.80831e-08
-2.59528e-07 8.80831e-08 -4.61246e-05
0.00101349 -0.000138904 -1.31104e-05
-0.000138904 -4.02184e-05 3.86246e-06
-1.31104e-05 3.86246e-06 -0.000195585
0.00165354 -0.000268768 2.77414e-06
-0.000268768 0.000148294 -3.9605e-07
2.77414e-06 -3.9605e-07 -3.24785e-05
0.00103689 -0.000161045 -1.30078e-07
-0.000161045 -1.54894e-05 2.30287e-07
-1.30078e-07 2.30287e-07 -0.000176592
0.00262917 -0.000153703 -5.70289e-05
-0.000153703 0.00117437 9.71884e-06
-5.70289e-05 9.71884e-06 0.00109329
0.0010613 -0.000182309 1.4351e-05
-0.000182309 1.14304e-05 -5.63191e-06
1.4351e-05 -5.63191e-06 -0.000155311
0.00271947 -0.000179167 4.01263e-05
-0.000179167 0.00123269 -5.12203e-06
4.01263e-05 -5.12203e-06 0.00115447
0.00204573 -9.96465e-05 -0.000220411
-9.96465e-05 0.000905318 2.88922e-05
-0.000220411 2.88922e-05 0.000886991
0.00287474 -0.000205407 0.000138058
-0.000205407 0.00133351 -2.29953e-05
0.000138058 -2.29953e-05 0.00125626
0.00171571 -5.46142e-05 -9.46534e-05
-5.46142e-05 0.000712928 1.27702e-05
-9.46534e-05 1.27702e-05 0.000681379
0.00604883 7.54375e-05 6.61703e-05
7.54375e-05 0.00337172 -2.82524e-06
6.61703e-05 -2.82524e-06 0.00335117
0.00200473 0.00031317 9.31321e-07
0.00031317 0.000106157 5.98288e-07
9.31321e-07 5.98288e-07 -1.47614e-05
0.002053 0.000347099 3.0276e-07
0.000347099 0.000227779 -1.77168e-07
3.0276e-07 -1.77168e-07 6.64499e-05
0.00214109 0.00037057 -3.91132e-06
0.00037057 0.000200613 -8.30679e-08
-3.91132e-06 -8.30679e-08 6.00927e-05
0.00177651 0.000332357 -2.22735e-06
0.000332357 0.000233447 3.99815e-07
-2.22735e-06 3.99815e-07 3.02651e-05
0.0017563 0.000373931 -4.46936e-07
0.000373931 8.12929e-05 -1.88005e-06
-4.46936e-07 -1.88005e-06 -0.000104721
0.00202927 0.00036006 -3.76744e-06
0.00036006 0.000157638 -5.49154e-06
-3.76744e-06 -5.49154e-06 1.04261e-05
0.0010243 0.000227109 -1.46973e-05
0.000227109 2.46595e-06 -5.29944e-06
-1.46973e-05 -5.29944e-06 -0.000178111
0.00153183 0.000365415 5.14474e-07
0.000365415 0.000144034 3.60264e-07
5.14474e-07 3.60264e-07 -8.57846e-05
0.00208205 0.000488932 2.82825e-06
0.000488932 0.000319643 -3.09475e-06
2.82825e-06 -3.09475e-06 8.14247e-05
0.00136886 0.000373229 7.11804e-06
0.000373229 0.000136469 7.93563e-07
7.11804e-06 7.93563e-07 -0.000113219
0.000870061 0.000220302 -8.79981e-07
0.000220302 -2.5696e-05 3.31251e-08
-8.79981e-07 3.31251e-08 -0.000209809
0.000446932 0.000229632 -2.50495e-05
0.000229632 -0.000115388 -1.68757e-05
-2.50495e-05 -1.68757e-05 -0.000235521
0.000642451 0.000189458 1.13749e-05
0.000189458 -0.000103545 5.14207e-06
1.13749e-05 5.14207e-06 -0.000282414
0.000437596 0.000217411 2.22022e-06
0.000217411 -0.000110908 5.77607e-07
2.22022e-06 5.77607e-07 -0.000227318
0.00639172 -3.13116e-05 -0.000236347
-3.13116e-05 0.0036259 -2.67708e-05
-0.000236347 -2.67708e-05 0.00361043
0.000483743 0.000159689 2.28783e-05
0.000159689 -8.02414e-05 1.69997e-05
2.28783e-05 1.69997e-05 -0.000176396
0.00588892 -0.000147768 2.75421e-06
-0.000147768 0.00332994 -1.10758e-06
2.75421e-06 -1.10758e-06 0.00331119
0.00471071 -0.000226146 0.000116674
-0.000226146 0.00263635 8.05055e-06
0.000116674 8.05055e-06 0.00260329
0.00203846 0.000174034 -1.37636e-06
0.000174034 2.55679e-05 2.04099e-08
-1.37636e-06 2.04099e-08 -1.03826e-06
0.00221036 0.000221597 1.8689e-07
0.000221597 -1.40306e-05 5.65123e-07
1.8689e-07 5.65123e-07 6.13966e-06
0.0020799 0.000203066 3.97068e-06
0.000203066 -0.000117126 3.11216e-07
3.97068e-06 3.11216e-07 -6.62081e-05
0.00205764 0.000315071 -1.4956e-07
0.000315071 7.57775e-05 7.38074e-08
-1.4956e-07 7.38074e-08 -2.12554e-05
0.00200663 0.000437298 8.1132e-07
0.000437298 0.000160366 -6.32612e-07
8.1132e-07 -6.32612e-07 -1.34608e-05
0.00212448 0.000340908 1.263e-06
0.000340908 3.02791e-05 -3.47469e-07
1.263e-06 -3.47469e-07 -3.68543e-05
0.0019661 5.88142e-05 -2.29251e-06
5.88142e-05 1.71113e-05 3.87188e-07
-2.29251e-06 3.87188e-07 6.89291e-06
0.00203468 5.3519e-05 3.70335e-07
5.3519e-05 -2.87629e-06 -8.4278e-08
3.70335e-07 -8.4278e-08 6.23701e-06
0.00210207 6.37344e-05 3.5869e-07
6.37344e-05 -5.15704e-05 -3.72284e-07
3.5869e-07 -3.72284e-07 -1.86537e-05
0.00192653 -1.29684e-05 -1.30137e-06
-1.29684e-05 1.26873e-05 8.22096e-08
-1.30137e-06 8.22096e-08 -1.67962e-06
0.00188457 -3.9398e-05 -5.77007e-06
-3.9398e-05 5.42241e-06 5.48818e-07
-5.77007e-06 5.48818e-07 -3.26324e-05
0.00202783 -6.90784e-05 1.12448e-06
-6.90784e-05 6.52114e-06 -5.84563e-08
1.12448e-06 -5.84563e-08 1.1727e-05
0.00194181 -9.85767e-05 -1.46086e-06
-9.85767e-05 2.55188e-05 2.6461e-07
-1.46086e-06 2.6461e-07 -1.01156e-05
0.00195963 -0.00010032 -2.92608e-06
-0.00010032 0.000107022 1.08072e-07
-2.92608e-06 1.08072e-07 3.56544e-05
0.00193537 -0.000167623 4.33615e-06
-0.000167623 2.48646e-05 -7.13218e-07
4.33615e-06 -7.13218e-07 -2.47689e-05
0.00192119 -0.000161446 2.61235e-06
-0.000161446 8.54315e-05 -9.39438e-07
2.61235e-06 -9.39438e-07 -5.31439e-06
0.00167915 -0.000130599 1.08577e-06
-0.000130599 9.30529e-05 -6.88661e-07
1.08577e-06 -6.88661e-07 -3.88138e-05
0.00199221 -0.000233835 6.09227e-07
-0.000233835 0.00015318 5.37336e-07
6.09227e-07 5.37336e-07 4.0566e-05
0.00167343 -0.000183419 -1.94297e-07
-0.000183419 9.96513e-05 1.32559e-08
-1.94297e-07 1.32559e-08 -4.68838e-05
0.00102866 -0.000111074 -1.25715e-05
-0.000111074 -4.13492e-05 2.81873e-06
-1.25715e-05 2.81873e-06 -0.000188649
0.00168344 -0.000231785 1.56929e-06
-0.000231785 0.000130775 6.94314e-09
1.56929e-06 6.94314e-09 -3.2848e-05
0.00104806 -0.000137702 -2.54925e-07
-0.000137702 -2.17813e-05 2.73395e-07
-2.54925e-07 2.73395e-07 -0.000176165
0.00258201 -0.00015912 -5.99167e-05
-0.00015912 0.00114435 8.58612e-06
-5.99167e-05 8.58612e-06 0.00106467
0.00107968 -0.000160986 1.37865e-05
-0.000160986 6.55009e-06 -4.5925e-06
1.37865e-05 -4.5925e-06 -0.000153576
0.00269101 -0.000156429 3.85358e-05
-0.000156429 0.00120786 -3.89367e-06
3.85358e-05 -3.89367e-06 0.00113384
0.00207016 -8.38762e-05 -0.000219438
-8.38762e-05 0.000913463 2.449e-05
-0.000219438 2.449e-05 0.000896316
0.00280524 -0.000173897 0.000135398
-0.000173897 0.00127862 -1.96869e-05
0.000135398 -1.96869e-05 0.00120916
0.00171414 -6.15299e-05 -8.58392e-05
-6.15299e-05 0.000706484 1.04319e-05
-8.58392e-05 1.04319e-05 0.00067763
0.0014642 -5.1729e-05 4.97649e-05
-5.1729e-05 0.000566921 -7.58143e-06
4.97649e-05 -7.58143e-06 0.000522847
0.00202206 0.000198758 -4.04854e-07
0.000198758 9.42499e-05 1.02273e-06
-4.04854e-07 1.02273e-06 1.90466e-05
0.00199691 0.000288143 -6.21476e-07
0.000288143 0.000161781 7.35519e-07
-6.21476e-07 7.35519e-07 2.22706e-05
0.00199852 0.00031426 -1.48919e-07
0.00031426 8.69849e-05 1.48598e-07
-1.48919e-07 1.48598e-07 -2.93615e-05
0.00187964 0.000303904 -1.15548e-06
0.000303904 0.000247796 3.98685e-07
-1.15548e-06 3.98685e-07 6.83494e-05
0.00198746 0.000341506 -5.06977e-07
0.000341506 0.000196184 -2.91276e-07
-5.06977e-07 -2.91276e-07 3.32069e-05
0.00200204 0.00036578 3.43479e-07
0.00036578 0.00010691 -2.89659e-07
3.43479e-07 -2.89659e-07 -3.64909e-05
0.00109319 0.000208428 -1.52322e-05
0.000208428 1.60387e-05 -4.89407e-06
-1.52322e-05 -4.89407e-06 -0.00015489
0.00168619 0.000331507 2.77483e-06
0.000331507 0.000170695 2.42732e-07
2.77483e-06 2.42732e-07 -3.07915e-05
0.00177137 0.000380738 -8.38393e-07
0.000380738 7.56525e-05 -3.52257e-06
-8.38393e-07 -3.52257e-06 -0.000107251
0.000368439 0.000184106 -2.24501e-05
0.000184106 -0.000182764 -1.40883e-05
-2.24501e-05 -1.40883e-05 -0.000294775
0.000977214 0.000221824 -5.53094e-07
0.000221824 -2.10948e-05 9.18787e-08
-5.53094e-07 9.18787e-08 -0.000200624
0.0014911 0.000363622 6.72598e-06
0.000363622 0.000117498 1.32305e-07
6.72598e-06 1.32305e-07 -0.000113007
0.000870286 0.000216829 1.3631e-05
0.000216829 -1.98315e-05 6.34498e-06
1.3631e-05 6.34498e-06 -0.000202397
0.00043809 0.000213753 1.00129e-06
0.000213753 -0.000117824 8.61983e-07
1.00129e-06 8.61983e-07 -0.000239073
0.00654321 6.85666e-05 -0.000251611
6.85666e-05 0.00369922 -3.06308e-05
-0.000251611 -3.06308e-05 0.00368946
0.000415051 0.000201924 2.29144e-05
0.000201924 -0.000123032 1.67851e-05
2.29144e-05 1.67851e-05 -0.000237985
0.0062855 -5.83308e-05 6.71513e-06
-5.83308e-05 0.00354872 -4.92734e-07
6.71513e-06 -4.92734e-07 0.00354034
0.00558672 -0.000179516 0.000166789
-0.000179516 0.00314513 9.01892e-06
0.000166789 9.01892e-06 0.0031244
0.00198951 0.000118862 -4.6276e-06
0.000118862 5.87094e-05 -9.62072e-07
-4.6276e-06 -9.62072e-07 2.91066e-05
0.00202827 0.000176282 9.50004e-07
0.000176282 1.92005e-05 3.9819e-07
9.50004e-07 3.9819e-07 -6.63707e-06
0.00217993 0.000224113 1.78274e-07
0.000224113 -3.7999e-05 -5.9919e-07
1.78274e-07 -5.9919e-07 -1.58233e-05
0.00209975 0.00031172 3.17293e-06
0.00031172 0.000108371 -4.81879e-08
3.17293e-06 -4.81879e-08 1.5231e-05
0.00181772 7.69389e-06 -4.3533e-06
7.69389e-06 -1.05364e-05 4.21658e-07
-4.3533e-06 4.21658e-07 -5.79052e-05
0.00194578 4.93637e-05 1.40998e-07
4.93637e-05 5.25957e-06 7.98491e-08
1.40998e-07 7.98491e-08 -6.5017e-06
0.0020228 4.91332e-05 2.52056e-08
4.91332e-05 -4.59019e-06 -3.48494e-07
2.52056e-08 -3.48494e-07 1.07049e-06
0.00193685 -1.25382e-05 1.59129e-06
-1.25382e-05 1.62145e-05 -6.9888e-07
1.59129e-06 -6.9888e-07 1.16926e-06
0.00189576 -3.44442e-05 -1.13228e-06
-3.44442e-05 1.29843e-05 -9.45934e-08
-1.13228e-06 -9.45934e-08 -2.40939e-05
0.00188166 -4.3815e-05 -1.22575e-06
-4.3815e-05 6.49188e-05 1.08502e-07
-1.22575e-06 1.08502e-07 -8.01852e-06
0.00190641 -9.73607e-05 2.5064e-06
-9.73607e-05 8.26217e-06 8.3192e-08
2.5064e-06 8.3192e-08 -3.06682e-05
0.00189095 -0.000100194 -1.61437e-06
-0.000100194 6.62827e-05 6.55684e-07
-1.61437e-06 6.55684e-07 -1.19583e-05
0.0017845 -8.14657e-05 -6.62005e-07
-8.14657e-05 0.000154161 -1.52091e-07
-6.62005e-07 -1.52091e-07 4.0147e-05
0.00194732 -0.000162543 4.18359e-06
-0.000162543 9.77048e-05 -4.43287e-07
4.18359e-06 -4.43287e-07 7.12182e-06
0.00166638 -0.000128117 1.65747e-06
-0.000128117 8.33926e-05 -5.25205e-07
1.65747e-06 -5.25205e-07 -4.78749e-05
0.00102125 -8.00971e-05 -1.22218e-05
-8.00971e-05 -4.97952e-05 2.08915e-06
-1.22218e-05 2.08915e-06 -0.000189532
0.00168185 -0.000181961 1.04504e-06
-0.000181961 0.000102253 1.59505e-07
1.04504e-06 1.59505e-07 -4.36735e-05
0.0010353 -0.000110026 -1.35419e-07
-0.000110026 -3.67697e-05 1.44689e-07
-1.35419e-07 1.44689e-07 -0.000183482
0.000488962 -8.67998e-05 -2.00054e-05
-8.67998e-05 -0.000157171 5.53643e-06
-2.00054e-05 5.53643e-06 -0.000243859
0.00107988 -0.000136287 1.30682e-05
-0.000136287 -4.64696e-06 -3.41221e-06
1.30682e-05 -3.41221e-06 -0.000157999
0.00158157 -0.000103346 5.61007e-05
-0.000103346 0.000517935 -4.0211e-06
5.61007e-05 -4.0211e-06 0.000441132
0.00613486 -0.000144674 -0.00028906
-0.000144674 0.00341857 2.01343e-05
-0.00028906 2.01343e-05 0.00343161
0.00276921 -0.000140896 0.000133525
-0.000140896 0.00124629 -1.57362e-05
0.000133525 -1.57362e-05 0.00118173
0.00172385 -6.48272e-05 -7.75943e-05
-6.48272e-05 0.000710408 6.88071e-06
-7.75943e-05 6.88071e-06 0.000681506
0.00138176 -8.32416e-05 6.13221e-05
-8.32416e-05 0.000519949 -9.06824e-06
6.13221e-05 -9.06824e-06 0.000474716
0.00200118 0.000149509 -2.4091e-06
0.000149509 0.000109016 1.78748e-07
-2.4091e-06 1.78748e-07 4.69871e-05
0.00198214 0.000211592 3.43593e-07
0.000211592 0.000138961 1.53657e-06
3.43593e-07 1.53657e-06 2.84416e-05
0.00200063 0.000194515 9.78854e-07
0.000194515 8.56317e-05 5.22461e-07
9.78854e-07 5.22461e-07 8.08146e-06
0.0017794 0.000245438 -1.05267e-06
0.000245438 0.000156177 6.76652e-07
-1.05267e-06 6.76652e-07 -1.41435e-06
0.00195251 0.000283449 6.752e-07
0.000283449 0.000137636 5.93431e-08
6.752e-07 5.93431e-08 -1.21873e-06
0.00199225 0.000315895 7.93723e-07
0.000315895 6.71947e-05 1.44201e-07
7.93723e-07 1.44201e-07 -4.46639e-05
0.000998128 0.000178271 -1.59874e-05
0.000178271 -6.60996e-05 -3.89773e-06
-1.59874e-05 -3.89773e-06 -0.000226794
0.00188261 0.000303287 2.53621e-06
0.000303287 0.000249133 6.41539e-07
2.53621e-06 6.41539e-07 7.0084e-05
0.00191014 0.000334985 -1.15161e-06
0.000334985 0.000157865 -1.26122e-06
-1.15161e-06 -1.26122e-06 -6.66279e-06
0.000371808 0.000131758 -1.9489e-05
0.000131758 -0.000204583 -1.05273e-05
-1.9489e-05 -1.05273e-05 -0.00030469
0.000957169 0.00020153 3.71431e-07
0.00020153 -6.82595e-05 3.55e-07
3.71431e-07 3.55e-07 -0.000238707
0.00158365 0.000329725 7.62244e-06
0.000329725 0.000100203 -1.98701e-07
7.62244e-06 -1.98701e-07 -9.93957e-05
0.00650452 0.000150259 -0.000262744
0.000150259 0.00365615 -3.03912e-05
-0.000262744 -3.03912e-05 0.00365388
0.000394936 0.000175373 5.07185e-07
0.000175373 -0.00016728 7.73654e-07
5.07185e-07 7.73654e-07 -0.000280189
0.000920639 0.000216002 1.48092e-05
0.000216002 -4.99648e-05 5.81494e-06
1.48092e-05 5.81494e-06 -0.000228384
0.000373353 0.000197354 2.101e-05
0.000197354 -0.000153675 1.67088e-05
2.101e-05 1.67088e-05 -0.000275798
0.00641951 5.76184e-05 9.85492e-06
5.76184e-05 0.00361557 3.89198e-07
9.85492e-06 3.89198e-07 0.00361274
0.00619007 -9.07317e-05 0.000220599
-9.07317e-05 0.0034822 1.26931e-05
0.000220599 1.26931e-05 0.0034777
0.00189844 6.39605e-05 -7.14847e-06
6.39605e-05 4.40539e-05 -1.45365e-07
-7.14847e-06 -1.45365e-07 -7.10722e-06
0.00196778 0.000115912 2.38273e-07
0.000115912 4.21615e-05 6.29894e-08
2.38273e-07 6.29894e-08 1.25235e-05
0.00201685 0.000178632 1.78977e-06
0.000178632 1.18656e-05 3.67892e-07
1.78977e-06 3.67892e-07 -1.28056e-05
0.00180504 1.56657e-06 -6.67267e-07
1.56657e-06 2.78486e-05 -3.21038e-09
-6.67267e-07 -3.21038e-09 -5.04623e-05
0.00187417 1.28454e-05 3.96337e-08
1.28454e-05 2.43139e-05 1.97264e-08
3.96337e-08 1.97264e-08 -1.97383e-05
0.0019259 3.87469e-05 1.76089e-06
3.87469e-05 -6.43407e-06 -4.51905e-07
1.76089e-06 -4.51905e-07 -1.96394e-05
0.00190728 -3.03476e-05 2.65632e-06
-3.03476e-05 2.0514e-05 -4.14839e-07
2.65632e-06 -4.14839e-07 -1.53026e-05
0.00185716 -4.22165e-05 -8.26546e-07
-4.22165e-05 4.92054e-05 2.05988e-07
-8.26546e-07 2.05988e-07 -2.27495e-05
0.0018539 -3.55355e-05 1.80825e-06
-3.55355e-05 0.000212761 -5.10145e-07
1.80825e-06 -5.10145e-07 0.00010262
0.00180722 -9.95674e-05 -1.30475e-06
-9.95674e-05 1.65137e-05 9.81554e-07
-1.30475e-06 9.81554e-07 -6.84721e-05
0.00174332 -8.18413e-05 4.4727e-07
-8.18413e-05 0.000132996 4.35672e-08
4.4727e-07 4.35672e-08 1.38795e-05
0.000949413 -4.4725e-05 -1.31492e-05
-4.4725e-05 -9.90672e-05 1.21668e-06
-1.31492e-05 1.21668e-06 -0.00023011
0.00164138 -0.000127558 1.9716e-06
-0.000127558 6.59476e-05 -3.71247e-07
1.9716e-06 -3.71247e-07 -6.51071e-05
0.00102372 -7.63946e-05 -5.32283e-08
-7.63946e-05 -4.81008e-05 1.01407e-07
-5.32283e-08 1.01407e-07 -0.000187121
0.000491545 -2.21945e-05 -1.85726e-05
-2.21945e-05 -0.00015938 3.44676e-06
-1.85726e-05 3.44676e-06 -0.000242079
0.0010612 -0.000108493 1.23382e-05
-0.000108493 -2.17389e-05 -2.54593e-06
1.23382e-05 -2.54593e-06 -0.000167673
0.000492929 -7.08587e-05 -1.95896e-07
-7.08587e-05 -0.00015314 3.84178e-07
-1.95896e-07 3.84178e-07 -0.000240784
0.00608897 -3.80209e-05 -0.000279236
-3.80209e-05 0.00338594 1.22824e-05
-0.000279236 1.22824e-05 0.00340274
0.000527173 -7.28392e-05 1.52378e-05
-7.28392e-05 -0.000133108 -7.41235e-06
1.52378e-05 -7.41235e-06 -0.000224548
0.00385183 -9.45423e-05 0.000125545
-9.45423e-05 0.00201998 -5.85967e-06
0.000125545 -5.85967e-06 0.00200418
0.00134696 -8.26244e-05 6.74233e-05
-8.26244e-05 0.000499067 -9.20637e-06
6.74233e-05 -9.20637e-06 0.000453378
0.00185181 0.000114255 -5.35572e-06
0.000114255 2.76437e-05 -2.02464e-07
-5.35572e-06 -2.02464e-07 -3.70364e-05
0.00194609 0.000153047 7.59422e-07
0.000153047 0.000119966 2.06955e-06
7.59422e-07 2.06955e-06 2.29079e-05
0.00195351 0.000143921 -3.47556e-07
0.000143921 7.66309e-05 1.06844e-08
-3.47556e-07 1.06844e-08 1.4889e-05
0.00170109 0.000181872 -4.05951e-07
0.000181872 9.73816e-05 7.63641e-07
-4.05951e-07 7.63641e-07 -4.69366e-05
0.00196471 0.000210794 4.42351e-07
0.000210794 0.000125465 1.20277e-07
4.42351e-07 1.20277e-07 1.34432e-05
0.00198048 0.000190003 2.14302e-06
0.000190003 7.77899e-05 -7.05193e-08
2.14302e-06 -7.05193e-08 -2.14005e-06
0.000998806 0.000145935 -1.46003e-05
0.000145935 -7.74453e-05 -2.89403e-06
-1.46003e-05 -2.89403e-06 -0.000228221
0.00179253 0.000243889 8.72249e-07
0.000243889 0.000169598 4.70963e-07
8.72249e-07 4.70963e-07 9.14845e-06
0.00190905 0.000278728 -2.00053e-07
0.000278728 0.000114067 -9.72311e-07
-2.00053e-07 -9.72311e-07 -2.40832e-05
0.000397096 9.37563e-05 -1.81357e-05
9.37563e-05 -0.000207145 -7.53865e-06
-1.81357e-05 -7.53865e-06 -0.000298868
0.000934003 0.000174485 -1.8521e-06
0.000174485 -0.000103797 -5.69217e-08
-1.8521e-06 -5.69217e-08 -0.000264198
0.00189109 0.000303134 6.28236e-06
0.000303134 0.00025384 9.47156e-07
6.28236e-06 9.47156e-07 7.51044e-05
0.00637533 0.000216201 -0.000279945
0.000216201 0.00357176 -2.93569e-05
-0.000279945 -2.93569e-05 0.00357304
0.000403031 0.000129542 2.79054e-08
0.000129542 -0.00018706 4.20291e-07
2.79054e-08 4.20291e-07 -0.000287656
0.000829018 0.000195482 1.46221e-05
0.000195482 -0.000148097 4.86177e-06
1.46221e-05 4.86177e-06 -0.000318163
0.00643464 0.000165884 1.35262e-05
0.000165884 0.00361888 2.70098e-06
1.35262e-05 2.70098e-06 0.00361561
0.000410114 0.000165476 1.99315e-05
0.000165476 -0.000158715 1.39328e-05
1.99315e-05 1.39328e-05 -0.000272347
0.00630693 2.30758e-05 0.000246087
2.30758e-05 0.00353502 1.89764e-05
0.000246087 1.89764e-05 0.00353968
0.00184139 4.39235e-05 -1.81236e-06
4.39235e-05 3.8476e-05 3.00517e-08
-1.81236e-06 3.00517e-08 -4.03489e-05
0.00190589 6.59413e-05 -1.08216e-06
6.59413e-05 5.84171e-05 -1.13058e-07
-1.08216e-06 -1.13058e-07 5.81538e-06
0.00194078 0.000112904 4.02993e-06
0.000112904 2.26166e-05 5.22594e-07
4.02993e-06 5.22594e-07 -7.0467e-06
0.00181672 -4.00407e-06 2.21634e-06
-4.00407e-06 0.000188986 -4.59633e-07
2.21634e-06 -4.59633e-07 8.07785e-05
0.00180178 1.97342e-06 -1.33918e-06
1.97342e-06 2.30163e-05 2.0333e-07
-1.33918e-06 2.0333e-07 -5.28132e-05
0.0019259 1.93043e-05 6.37533e-06
1.93043e-05 5.6023e-05 -2.1886e-07
6.37533e-06 -2.1886e-07 1.52175e-05
0.0018296 -4.10066e-05 -6.73008e-07
-4.10066e-05 3.18424e-05 4.58475e-07
-6.73008e-07 4.58475e-07 -3.93653e-05
0.00182786 -3.44036e-05 3.20094e-06
-3.44036e-05 0.000195057 -2.43352e-07
3.20094e-06 -2.43352e-07 8.51733e-05
0.000934222 -1.67471e-05 -1.28695e-05
-1.67471e-05 -0.000103993 3.17478e-07
-1.28695e-05 3.17478e-07 -0.00023039
0.00170762 -8.25072e-05 3.19308e-07
-8.25072e-05 0.000115149 2.30693e-07
3.19308e-07 2.30693e-07 -9.11517e-06
0.000981473 -4.4643e-05 -1.19388e-06
-4.4643e-05 -7.8033e-05 9.19064e-08
-1.19388e-06 9.19064e-08 -0.0002102
0.00049704 -7.52513e-06 -1.88382e-05
-7.52513e-06 -0.000158011 2.18725e-06
-1.88382e-05 2.18725e-06 -0.000238354
0.00102792 -7.39356e-05 1.17191e-05
-7.39356e-05 -4.46821e-05 -1.881e-06
1.17191e-05 -1.881e-06 -0.000183127
0.000472485 -3.42504e-05 8.31915e-07
-3.42504e-05 -0.000171643 -1.71407e-07
8.31915e-07 -1.71407e-07 -0.00025344
0.00596937 -0.000134794 -0.000284143
-0.000134794 0.00332558 1.33825e-05
-0.000284143 1.33825e-05 0.00333749
0.000461255 -5.41452e-05 1.7985e-05
-5.41452e-05 -0.000172386 -4.30406e-06
1.7985e-05 -4.30406e-06 -0.000259641
0.00604603 -7.41943e-05 7.58818e-06
-7.41943e-05 0.00336179 -6.87637e-08
7.58818e-06 -6.87637e-08 0.00337833
0.00168347 -2.89598e-05 0.000222195
-2.89598e-05 0.000676823 -1.37564e-05
0.000222195 -1.37564e-05 0.000665852
0.00182162 0.00010244 -5.43759e-07
0.00010244 3.03711e-05 5.86321e-07
-5.43759e-07 5.86321e-07 -6.15276e-05
0.00188566 0.000118527 -3.34822e-06
0.000118527 4.54243e-05 -8.72214e-07
-3.34822e-06 -8.72214e-07 -1.65054e-05
0.00168875 0.000124567 4.65985e-07
0.000124567 8.57398e-05 9.33065e-07
4.65985e-07 9.33065e-07 -4.38563e-05
0.00194308 0.000151988 8.31502e-07
0.000151988 0.000115969 1.97051e-07
8.31502e-07 1.97051e-07 1.90861e-05
0.00191693 0.000138669 2.98514e-06
0.000138669 5.04538e-05 -5.98537e-07
2.98514e-06 -5.98537e-07 -1.09845e-05
0.00109627 0.000109882 -1.27025e-05
0.000109882 -1.29322e-05 -1.96497e-06
-1.27025e-05 -1.96497e-06 -0.00015543
0.00169886 0.000180826 1.56798e-07
0.000180826 9.90826e-05 9.73179e-08
1.56798e-07 9.73179e-08 -4.52592e-05
0.00194499 0.000209863 5.77939e-07
0.000209863 0.000110798 -1.30012e-06
5.77939e-07 -1.30012e-06 -2.73129e-06
0.000439082 6.82593e-05 -1.78094e-05
6.82593e-05 -0.000191476 -5.41895e-06
-1.78094e-05 -5.41895e-06 -0.000278809
0.00100595 0.000146382 -1.84976e-06
0.000146382 -6.96009e-05 5.10671e-09
-1.84976e-06 5.10671e-09 -0.000221546
0.00181012 0.000242347 2.79752e-06
0.000242347 0.000186177 4.55824e-07
2.79752e-06 4.55824e-07 2.28901e-05
0.00625785 0.000242939 -0.000297305
0.000242939 0.00350729 -2.77724e-05
-0.000297305 -2.77724e-05 0.00350743
0.000438619 9.56883e-05 -8.69696e-08
9.56883e-05 -0.000183307 1.6978e-07
-8.69696e-08 1.6978e-07 -0.000275433
0.000871819 0.00017077 1.08103e-05
0.00017077 -0.00014065 3.56815e-06
1.08103e-05 3.56815e-06 -0.000300676
0.00635736 0.000238237 1.10915e-05
0.000238237 0.0035724 4.12701e-06
1.10915e-05 4.12701e-06 0.00356826
0.000440382 0.000125777 1.87199e-05
0.000125777 -0.000166336 1.06508e-05
1.87199e-05 1.06508e-05 -0.000267033
0.00639834 0.000163387 0.000272746
0.000163387 0.00358667 2.73473e-05
0.000272746 2.73473e-05 0.00359019
0.00178326 3.66313e-05 3.32986e-06
3.66313e-05 0.000160292 1.85527e-07
3.32986e-06 1.85527e-07 5.02771e-05
0.00184957 4.20328e-05 -2.27159e-06
4.20328e-05 4.88935e-05 1.29645e-09
-2.27159e-06 1.29645e-09 -3.11017e-05
0.00193826 6.77737e-05 4.04889e-06
6.77737e-05 8.84531e-05 -9.71153e-08
4.04889e-06 -9.71153e-08 3.4647e-05
0.000929202 -8.3246e-06 -1.32047e-05
-8.3246e-06 -9.76468e-05 -1.68871e-07
-1.32047e-05 -1.68871e-07 -0.000221928
0.00181444 1.13991e-06 3.41568e-06
1.13991e-06 0.00018759 -7.86895e-08
3.41568e-06 -7.86895e-08 7.94752e-05
0.00180933 1.91544e-06 -9.5638e-07
1.91544e-06 2.51058e-05 2.7716e-07
-9.5638e-07 2.7716e-07 -4.81686e-05
0.00180503 -3.35567e-05 4.46259e-06
-3.35567e-05 0.000179386 1.57588e-07
4.46259e-06 1.57588e-07 6.97604e-05
0.000932324 -1.75651e-05 -8.69116e-07
-1.75651e-05 -0.000106591 3.27863e-08
-8.69116e-07 3.27863e-08 -0.000233274
0.000502633 -3.15228e-05 -1.93579e-05
-3.15228e-05 -0.0001541 9.66769e-07
-1.93579e-05 9.66769e-07 -0.000231594
0.000993893 -4.36285e-05 1.10716e-05
-4.36285e-05 -6.88244e-05 -1.26802e-06
1.10716e-05 -1.26802e-06 -0.000202143
0.000476455 3.75164e-06 3.54634e-07
3.75164e-06 -0.000171314 7.72098e-08
3.54634e-07 7.72098e-08 -0.000250684
0.00594863 -0.000108405 -0.00028824
-0.000108405 0.00331089 9.83663e-06
-0.00028824 9.83663e-06 0.00332563
0.000487295 -4.06888e-05 1.88282e-05
-4.06888e-05 -0.00016053 -2.99762e-06
1.88282e-05 -2.99762e-06 -0.000243477
0.00598501 -2.93057e-05 -3.02272e-06
-2.93057e-05 0.00332391 2.31513e-06
-3.02272e-06 2.31513e-06 0.00334265
0.00602973 -8.97049e-05 0.000283818
-8.97049e-05 0.00335185 -1.18327e-05
0.000283818 -1.18327e-05 0.00336907
0.00164151 7.46234e-05 6.46518e-07
7.46234e-05 6.05415e-05 5.09745e-07
6.46518e-07 5.09745e-07 -6.00681e-05
0.0018779 0.000102904 -2.75231e-06
0.000102904 6.14808e-05 -1.04561e-06
-2.75231e-06 -1.04561e-06 -2.48399e-05
0.0018763 0.000122265 3.56715e-07
0.000122265 3.66962e-05 -2.49317e-07
3.56715e-07 -2.49317e-07 -2.28563e-05
0.0010889 6.91286e-05 -1.22692e-05
6.91286e-05 -1.29433e-05 -1.39535e-06
-1.22692e-05 -1.39535e-06 -0.000146738
0.00168113 0.000123267 2.3429e-07
0.000123267 8.4145e-05 -2.23358e-08
2.3429e-07 -2.23358e-08 -4.56434e-05
0.0019414 0.000150835 -2.91026e-08
0.000150835 0.000113354 -1.88775e-06
-2.91026e-08 -1.88775e-06 1.66666e-05
0.000468114 4.499e-05 -1.74128e-05
4.499e-05 -0.000176042 -3.84754e-06
-1.74128e-05 -3.84754e-06 -0.000260264
0.00105945 0.000111136 3.35108e-07
0.000111136 -3.58149e-05 2.88301e-07
3.35108e-07 2.88301e-07 -0.000179215
0.00169647 0.000179793 1.05167e-06
0.000179793 0.000100385 -5.05776e-07
1.05167e-06 -5.05776e-07 -4.39995e-05
0.00613126 0.000212465 -0.000307493
0.000212465 0.00343073 -2.32932e-05
-0.000307493 -2.32932e-05 0.00343543
0.000470443 7.3332e-05 3.7651e-07
7.3332e-05 -0.000172302 1.57752e-07
3.7651e-07 1.57752e-07 -0.000260576
0.00101118 0.000146702 1.08427e-05
0.000146702 -6.32218e-05 2.98406e-06
1.08427e-05 2.98406e-06 -0.000216278
0.00627745 0.000257523 6.31238e-06
0.000257523 0.00352527 3.23205e-06
6.31238e-06 3.23205e-06 0.00352294
0.000484057 9.95063e-05 1.8119e-05
9.95063e-05 -0.000156028 8.12054e-06
1.8119e-05 8.12054e-06 -0.000249004
0.00636408 0.000266855 0.00029084
0.000266855 0.0035811 3.36095e-05
0.00029084 3.36095e-05 0.0035747
0.00101228 1.96724e-05 -1.26357e-05
1.96724e-05 -4.17219e-05 -5.97365e-07
-1.26357e-05 -5.97365e-07 -0.000168583
0.0017429 3.27418e-05 3.72272e-06
3.27418e-05 0.00013472 1.04831e-07
3.72272e-06 1.04831e-07 2.62013e-05
0.00183614 3.96172e-05 -3.66692e-06
3.96172e-05 4.5556e-05 -1.59872e-07
-3.66692e-06 -1.59872e-07 -3.58988e-05
0.000537465 3.12361e-05 -1.99226e-05
3.12361e-05 -0.000140225 -5.99094e-07
-1.99226e-05 -5.99094e-07 -0.000209994
0.000911419 -2.40904e-06 -1.02441e-06
-2.40904e-06 -0.000109952 -1.38941e-08
-1.02441e-06 -1.38941e-08 -0.000234415
0.0018026 7.43575e-06 4.64049e-06
7.43575e-06 0.000179923 2.07814e-07
4.64049e-06 2.07814e-07 7.18885e-05
0.000930026 -1.80024e-05 1.12541e-05
-1.80024e-05 -0.000109689 -4.98928e-07
1.12541e-05 -4.98928e-07 -0.000236628
0.000497444 -5.30099e-06 3.71806e-07
-5.30099e-06 -0.000157137 3.73382e-07
3.71806e-07 3.73382e-07 -0.000234779
0.00587875 2.48664e-05 -0.000292037
2.48664e-05 0.0032621 5.69887e-07
-0.000292037 5.69887e-07 0.00328262
0.00045581 1.53389e-05 1.83771e-05
1.53389e-05 -0.000185377 -1.23823e-06
1.83771e-05 -1.23823e-06 -0.000263474
0.00591715 -0.000106495 -7.75553e-06
-0.000106495 0.00329289 1.80997e-06
-7.75553e-06 1.80997e-06 0.00330724
0.00593518 -1.07188e-05 0.000273449
-1.07188e-05 0.00329353 -5.86739e-06
0.000273449 -5.86739e-06 0.00331227
0.00105121 3.88648e-05 -1.24686e-05
3.88648e-05 -2.59374e-05 -1.17928e-06
-1.24686e-05 -1.17928e-06 -0.000154559
0.00167411 7.22016e-05 -2.35588e-07
7.22016e-05 8.17476e-05 -1.67947e-07
-2.35588e-07 -1.67947e-07 -3.52749e-05
0.00195631 0.000103653 -3.78664e-06
0.000103653 0.000106098 -2.37149e-06
-3.78664e-06 -2.37149e-06 2.56267e-05
0.00265644 5.87615e-05 -0.000136214
5.87615e-05 0.00116664 -4.57587e-06
-0.000136214 -4.57587e-06 0.00111608
0.00104213 7.07683e-05 3.46175e-07
7.07683e-05 -4.19572e-05 1.27896e-07
3.46175e-07 1.27896e-07 -0.00017647
0.00167591 0.00012195 9.19511e-07
0.00012195 8.39129e-05 -8.48008e-07
9.19511e-07 -8.48008e-07 -4.60739e-05
0.00601022 0.000157887 -0.000307114
0.000157887 0.00335173 -1.68249e-05
-0.000307114 -1.68249e-05 0.00336359
0.000502673 6.37911e-05 8.59231e-07
6.37911e-05 -0.00015279 4.20395e-07
8.59231e-07 4.20395e-07 -0.000238938
0.0010255 0.000112388 1.25568e-05
0.000112388 -5.68554e-05 2.44151e-06
1.25568e-05 2.44151e-06 -0.000201129
0.00620155 0.000226348 1.63795e-06
0.000226348 0.00347521 1.63142e-06
1.63795e-06 1.63142e-06 0.00347872
0.000512511 8.13126e-05 1.83063e-05
8.13126e-05 -0.00014543 6.39082e-06
1.83063e-05 6.39082e-06 -0.000235311
0.00628959 0.000289522 0.000301781
0.000289522 0.00354457 3.43292e-05
0.000301781 3.43292e-05 0.00353587
0.000595799 1.08889e-05 -1.61087e-05
1.08889e-05 -9.35816e-05 -1.81744e-06
-1.61087e-05 -1.81744e-06 -0.000172191
0.000956808 1.86772e-05 4.44402e-07
1.86772e-05 -7.93886e-05 2.1164e-07
4.44402e-07 2.1164e-07 -0.000205267
0.00170072 2.78733e-05 3.67701e-06
2.78733e-05 0.000107864 -6.26402e-08
3.67701e-06 -6.26402e-08 8.88776e-07
0.00572485 -9.83877e-05 -0.000274981
-9.83877e-05 0.00318577 2.78927e-06
-0.000274981 2.78927e-06 0.00319568
0.000492827 8.77468e-06 -5.6602e-07
8.77468e-06 -0.00016292 -5.85039e-09
-5.6602e-07 -5.85039e-09 -0.000235282
0.000909433 2.44083e-06 1.11249e-05
2.44083e-06 -0.000112797 1.93557e-08
1.11249e-05 1.93557e-08 -0.000237391
0.000451925 2.09562e-05 1.86123e-05
2.09562e-05 -0.000185956 1.94128e-07
1.86123e-05 1.94128e-07 -0.000262641
0.00582265 -1.10431e-05 2.20443e-06
-1.10431e-05 0.00323336 -1.37198e-06
2.20443e-06 -1.37198e-06 0.00324973
0.00591446 -2.63208e-05 0.00028075
-2.63208e-05 0.00328015 -3.8056e-06
0.00028075 -3.8056e-06 0.00330009
0.00273223 1.31775e-05 -0.000131292
1.31775e-05 0.0012116 -2.66565e-06
-0.000131292 -2.66565e-06 0.00116356
0.00103308 4.20571e-05 9.74906e-08
4.20571e-05 -3.88436e-05 8.11208e-09
9.74906e-08 8.11208e-09 -0.000168
0.00170348 6.98759e-05 1.01499e-06
6.98759e-05 0.000101295 -8.33134e-07
1.01499e-06 -8.33134e-07 -1.21288e-05
0.00554079 -4.23106e-05 -0.000113119
-4.23106e-05 0.00307572 5.13917e-07
-0.000113119 5.13917e-07 0.00306345
0.000516008 5.59925e-05 6.59361e-08
5.59925e-05 -0.000144266 2.29156e-07
6.59361e-08 2.29156e-07 -0.000225919
0.00101208 7.30274e-05 1.21682e-05
7.30274e-05 -6.13858e-05 1.64248e-06
1.21682e-05 1.64248e-06 -0.000196561
0.00607872 0.000132041 -1.06468e-05
0.000132041 0.00338853 -1.61841e-06
-1.06468e-05 -1.61841e-06 0.00340182
0.000533302 8.6884e-05 1.96549e-05
8.6884e-05 -0.000133498 5.41644e-06
1.96549e-05 5.41644e-06 -0.000220569
0.00624192 0.000250354 0.000311129
0.000250354 0.00350691 3.00143e-05
0.000311129 3.00143e-05 0.00350728
0.00173713 -5.254e-05 -0.000222332
-5.254e-05 0.000708528 1.14704e-06
-0.000222332 1.14704e-06 0.000705036
0.0016205 2.92659e-05 -5.58079e-05
2.92659e-05 0.000527809 1.50368e-07
-5.58079e-05 1.50368e-07 0.000469433
0.000896653 2.03191e-05 1.24254e-05
2.03191e-05 -0.00011947 7.82354e-07
1.24254e-05 7.82354e-07 -0.00024444
0.00579504 -4.51149e-05 7.17792e-06
-4.51149e-05 0.00322253 2.18008e-06
7.17792e-06 2.18008e-06 0.00323745
0.00050834 -1.23178e-05 1.92132e-05
-1.23178e-05 -0.000147155 7.24792e-07
1.92132e-05 7.24792e-07 -0.000223289
0.00585803 -7.57618e-05 0.000293597
-7.57618e-05 0.0032578 -3.80488e-06
0.000293597 -3.80488e-06 0.00327414
0.00130978 1.90018e-05 -5.38553e-05
1.90018e-05 0.000472245 -8.39226e-07
-5.38553e-05 -8.39226e-07 0.000435873
0.00161067 1.6547e-05 -5.64308e-05
1.6547e-05 0.000524772 -1.11801e-06
-5.64308e-05 -1.11801e-06 0.000462619
0.00100449 4.38376e-05 1.2291e-05
4.38376e-05 -5.7947e-05 1.22466e-06
1.2291e-05 1.22466e-06 -0.000187667
0.00366065 6.20696e-05 0.000108557
6.20696e-05 0.00190422 3.00967e-06
0.000108557 3.00967e-06 0.0018954
0.000527755 6.65389e-05 1.99536e-05
6.65389e-05 -0.000137177 4.10618e-06
1.99536e-05 4.10618e-06 -0.000218814
0.00615316 0.000120046 0.000297484
0.000120046 0.00342694 1.80003e-05
0.000297484 1.80003e-05 0.00344375
0.00574179 -2.04928e-05 -8.89341e-06
-2.04928e-05 0.00319308 -2.78261e-06
-8.89341e-06 -2.78261e-06 0.00320684
0.000506959 4.81575e-05 2.0745e-05
4.81575e-05 -0.000158211 2.22795e-06
2.0745e-05 2.22795e-06 -0.000227436
0.00570421 4.17404e-05 0.00028098
4.17404e-05 0.00316316 2.18125e-07
0.00028098 2.18125e-07 0.00318145
0.00355692 2.99458e-05 0.000121046
2.99458e-05 0.00184549 4.45065e-06
0.000121046 4.45065e-06 0.00183803
0.000539144 7.53038e-06 1.91461e-05
7.53038e-06 -0.000129992 2.5714e-06
1.91461e-05 2.5714e-06 -0.000207037
0.00597046 -8.05554e-06 0.000286165
-8.05554e-06 0.00331695 7.86957e-06
0.000286165 7.86957e-06 0.00333476
0.00578714 -0.000121252 0.00027812
-0.000121252 0.00322546 -3.89258e-06
0.00027812 -3.89258e-06 0.00323465
0.00579514 2.60961e-06 0.000279647
2.60961e-06 0.00320957 4.40821e-06
0.000279647 4.40821e-06 0.00323043
