# vtk DataFile Version 2.0
Wound Healing Simulation
ASCII
DATASET UNSTRUCTURED_GRID
POINTS 3012 float
69.9759 18.75 4
67.2507 60.3285 4
69.976 18.75 2
73.0099 25.446 4
71.1327 20.9142 4
68.6801 16.6661 4
67.8263 19.9131 3.99371
67.2507 60.3286 2
71.1327 54.0858 4
68.6801 58.3339 4
65.6939 62.2254 4
65.3129 59.0117 3.99458
74.6784 42.3946 4
73.7221 47.2057 4
69.9759 18.75 0
73.0099 25.446 2
68.6801 16.6661 2
71.1327 20.9142 2
67.8263 19.9125 2
74.6792 32.6053 4
73.7222 27.7943 4
72.1454 23.1494 4
70.6165 26.2101 3.99219
68.887 21.9453 3.99327
67.2507 14.6715 4
66.6376 17.9596 3.99411
65.8041 21.0017 3.98992
67.2507 60.3285 0
71.1327 54.0858 2
68.6801 58.3339 2
65.694 62.2255 2
65.3128 59.0122 2
72.1454 51.8506 4
69.9759 56.25 4
68.8378 53.1257 3.99308
64.0165 64.0165 4
66.6114 57.1455 3.99426
63.8864 60.7747 3.99487
63.5044 57.7956 3.99104
60.3285 67.2507 4
74.6792 42.3947 2
73.7222 47.2057 2
74.9194 39.9526 4
74.2788 44.8158 4
72.1718 42.0915 3.99129
73.0099 49.554 4
71.2522 46.6079 3.99173
73.0099 25.446 0
71.1327 20.9142 0
68.6801 16.6661 0
67.8263 19.9131 0.00628907
74.6792 32.6053 2
73.7222 27.7943 2
67.2508 14.6715 2
72.1455 23.1494 2
70.6165 26.2096 2
66.6375 17.959 2
68.887 21.9447 2
65.8041 21.0012 2
74.9197 35.0474 4
74.2794 30.1841 4
72.1883 32.9374 3.99113
71.2809 28.4217 3.99157
69.8174 24.0477 3.99276
68.3571 26.9341 3.98833
66.7709 22.9115 3.98943
65.694 12.7746 4
65.3241 16.0926 3.99445
64.7191 19.1701 3.9904
63.9013 22.0034 3.98783
71.1327 54.0858 0
65.6939 62.2254 0
68.6801 58.3339 0
65.3129 59.0117 0.00541698
72.1455 51.8506 2
69.9759 56.25 2
68.8378 53.1263 2
64.0165 64.0165 2
66.6113 57.146 2
63.8863 60.7752 2
63.5043 57.7961 2
62.2254 65.694 4
58.8936 65.4196 3.99503
69.7709 51.001 3.99245
67.7847 55.1799 3.99376
66.6581 52.2309 3.98911
62.3365 62.4347 3.99502
64.6663 56.0555 3.99062
62.2052 59.4269 3.99145
61.8318 56.7139 3.98883
58.3339 68.6801 4
60.3285 67.2508 2
73.7221 47.2057 0
74.6784 42.3946 0
74.9197 39.9526 2
74.2794 44.8159 2
72.1719 42.0917 2
73.0099 49.554 2
71.2522 46.6083 2
75 37.5 4
72.4095 39.8054 3.99168
71.7858 44.361 3.99139
69.8169 41.7981 3.98806
70.5776 48.8246 3.99203
68.9238 46.03 3.98818
74.6792 32.6053 0
73.7222 27.7943 0
67.2507 14.6715 0
72.1454 23.1494 0
70.6165 26.2101 0.0078108
68.887 21.9453 0.00673375
66.6376 17.9596 0.00588756
65.8041 21.0017 0.0100812
74.9197 35.0474 2
74.2794 30.1841 2
72.1883 32.9372 2
71.2809 28.4213 2
65.694 12.7745 2
65.324 16.0921 2
69.8174 24.0471 2
68.3573 26.9337 2
64.7191 19.1696 2
66.7709 22.911 2
63.9014 22.003 2
72.4172 35.221 3.99141
71.807 30.6683 3.9912
69.8523 33.2604 3.9878
68.9771 29.0236 3.98775
67.6207 24.8923 3.9889
66.2141 27.6124 3.9866
64.0165 10.9835 4
64.773 23.8008 3.98744
63.8904 14.3183 3.99469
63.5166 17.4221 3.99085
62.9185 20.2868 3.98818
62.1146 22.9048 3.98681
60.6839 11.0911 3.99489
57.6121 11.4318 3.99159
72.1454 51.8506 0
69.9759 56.25 0
68.8378 53.1257 0.00691886
64.0165 64.0165 0
63.8864 60.7747 0.00512856
66.6114 57.1455 0.00573509
63.5044 57.7956 0.00895935
62.2255 65.694 2
58.8934 65.4201 2
69.7709 51.0015 2
67.7846 55.1805 2
66.6581 52.2314 2
62.3364 62.4351 2
64.6663 56.056 2
62.2051 59.4274 2
61.8318 56.7143 2
60.6685 63.9833 3.99502
57.0241 66.7397 3.99507
57.5574 63.7053 3.99177
67.5172 50.1966 3.98854
65.7092 54.1965 3.98989
64.5547 51.4144 3.98708
60.774 60.9577 3.99172
62.8316 55.1003 3.98844
60.6643 58.1906 3.98919
60.3407 55.825 3.98772
56.25 69.9759 4
58.3339 68.6801 2
60.3285 67.2507 0
58.9208 9.65004 3.99492
62.2254 9.30607 4
73.0099 49.554 0
74.2788 44.8158 0
71.2522 46.6079 0.00827386
72.1718 42.0915 0.00870714
74.9194 39.9526 0
75 37.5 2
72.4096 39.8055 2
71.7859 44.3613 2
69.8171 41.7982 2
70.5776 48.8252 2
68.924 46.0303 2
72.493 37.512 3.99175
70.0548 39.6618 3.98873
69.4425 43.9195 3.98793
67.6209 41.5082 3.98701
68.2767 48.1248 3.98833
66.7314 45.4593 3.98686
74.9197 35.0474 0
74.2794 30.1841 0
72.1883 32.9374 0.00887315
71.2809 28.4217 0.00843108
65.694 12.7746 0
65.3241 16.0926 0.00555264
69.8174 24.0477 0.00724047
68.3571 26.9341 0.0116727
66.7709 22.9115 0.0105749
64.7191 19.1701 0.00960451
63.9013 22.0034 0.0121705
72.4173 35.2208 2
71.807 30.6679 2
69.8525 33.2602 2
68.9772 29.0233 2
64.0165 10.9835 2
63.8903 14.3178 2
63.5165 17.4216 2
67.6208 24.8919 2
66.2142 27.6121 2
62.9185 20.2864 2
64.7731 23.8005 2
62.1147 22.9045 2
60.6838 11.0907 2
57.612 11.4313 2
70.0712 35.3878 3.98832
69.4787 31.138 3.98762
67.6781 33.5813 3.98665
66.7927 29.6045 3.98619
65.5422 25.6733 3.98704
64.1753 28.2291 3.98584
62.3418 12.6476 3.99483
62.8817 24.602 3.98655
62.2004 15.7618 3.99122
61.8216 18.6513 3.98859
61.2353 21.3014 3.98697
60.4545 23.6834 3.98643
59.2463 12.7609 3.99155
55.8738 10.2201 3.99163
56.4061 13.0905 3.98943
69.7709 51.001 0.00755195
62.2254 65.694 0
58.8936 65.4196 0.00497123
67.7847 55.1799 0.00623589
66.6581 52.2309 0.0108943
62.3365 62.4347 0.00498319
62.2052 59.4269 0.00854655
64.6663 56.0555 0.0093775
61.8318 56.7139 0.0111725
60.6684 63.9837 2
57.0239 66.7401 2
57.5573 63.7057 2
67.5173 50.197 2
65.7092 54.197 2
64.5548 51.4148 2
60.774 60.9581 2
62.8316 55.1007 2
60.6643 58.191 2
60.3408 55.8254 2
55.0696 67.936 3.99511
59.2195 62.3829 3.99175
55.8034 64.9209 3.99183
56.3278 62.1098 3.98963
65.3507 49.4346 3.98685
63.7205 53.3237 3.98766
62.4674 50.6878 3.98618
59.3366 59.5844 3.9895
61.0935 54.3481 3.98739
59.2983 57.0504 3.98772
59.2575 55.2264 3.98739
48.102 68.5847 3.99183
50.9476 69.9346 3.99509
54.0858 71.1327 4
56.25 69.976 2
58.3339 68.6801 0
57.0579 8.33053 3.99494
60.3285 7.74928 4
58.9207 9.64959 2
62.2255 9.30602 2
70.5776 48.8246 0.00797279
71.7858 44.361 0.00860728
68.9238 46.03 0.0118236
69.8169 41.7981 0.0119358
72.4095 39.8054 0.00831759
75 37.5 0
72.4931 37.512 2
70.055 39.6618 2
69.4426 43.9198 2
67.6211 41.5082 2
68.2768 48.1252 2
66.7316 45.4595 2
70.1432 37.5216 3.98893
67.8593 39.518 3.98775
67.2461 43.4851 3.98668
65.5904 41.2224 3.98672
66.0892 47.4411 3.98697
64.6842 44.8717 3.9865
72.4172 35.221 0.008586
71.807 30.6683 0.00880326
69.8523 33.2604 0.0121971
68.9771 29.0236 0.0122526
64.0165 10.9835 0
63.8904 14.3183 0.00531418
63.5166 17.4221 0.0091473
67.6207 24.8923 0.0111015
66.2141 27.6124 0.0133993
64.773 23.8008 0.0125605
62.9185 20.2868 0.0118202
62.1146 22.9048 0.0131851
60.6839 11.0911 0.00511438
57.6121 11.4318 0.00840935
70.0713 35.3878 2
69.4788 31.1378 2
67.6783 33.5813 2
66.7929 29.6043 2
62.3417 12.6471 2
62.2003 15.7613 2
61.8216 18.6509 2
65.5424 25.673 2
64.1756 28.2289 2
61.2354 21.3011 2
62.8818 24.6017 2
60.4547 23.6832 2
59.2462 12.7605 2
56.4061 13.0901 2
55.8737 10.2197 2
67.8946 35.5427 3.98725
67.2869 31.6083 3.9863
65.7306 33.9167 3.98642
64.6935 30.171 3.98548
63.5653 26.383 3.98626
62.2956 28.7475 3.98594
60.7756 14.2031 3.99145
61.0779 25.2973 3.98619
60.6169 17.0968 3.98898
60.2348 19.7768 3.98727
59.6849 22.2126 3.9864
59.0131 24.2713 3.98663
54.0368 9.12465 3.99165
57.9115 14.3065 3.98942
54.7872 11.9923 3.98946
55.3142 14.618 3.98807
67.5172 50.1966 0.0114559
57.0241 66.7397 0.00493461
60.6685 63.9833 0.00497991
57.5574 63.7053 0.00823181
65.7092 54.1965 0.0101071
64.5547 51.4144 0.0129247
60.774 60.9577 0.00828412
60.6643 58.1906 0.0108148
62.8316 55.1003 0.011564
60.3407 55.825 0.0122807
55.0695 67.9364 2
59.2194 62.3833 2
55.8034 64.9213 2
56.3278 62.1102 2
65.3508 49.4349 2
63.7206 53.324 2
62.4675 50.688 2
59.3366 59.5849 2
61.0935 54.3484 2
59.2983 57.0507 2
59.2576 55.2266 2
53.0416 69.0033 3.99512
53.9655 66.0218 3.9919
57.8825 60.8937 3.98962
54.6838 63.2233 3.98972
55.2135 60.6408 3.98824
63.2229 48.6935 3.98626
61.7629 52.6131 3.98653
60.308 50.0613 3.98575
58.0235 58.2943 3.98795
59.3469 53.9916 3.98691
58.1392 55.8566 3.98657
50.1083 67.8634 3.99185
47.4627 66.5905 3.98968
46.0559 69.1636 3.99184
48.1019 68.5851 2
48.802 70.7255 3.99508
50.9475 69.9349 2
51.8506 72.1454 4
54.0858 71.1327 2
56.25 69.9759 0
55.1022 7.13559 3.99495
58.3339 6.31992 4
57.0577 8.33011 2
60.3286 7.74926 2
58.9208 9.65004 0.00508297
62.2254 9.30607 0
68.2767 48.1248 0.0116679
69.4425 43.9195 0.0120659
66.7314 45.4593 0.0131446
67.6209 41.5082 0.0129933
70.0548 39.6618 0.0112704
72.493 37.512 0.00824654
70.1434 37.5216 2
67.8595 39.518 2
67.2463 43.4852 2
65.5906 41.2225 2
66.0893 47.4414 2
64.6844 44.8718 2
67.956 37.5224 3.98807
65.8239 39.3771 3.98746
65.209 43.0434 3.9863
63.8005 40.9438 3.98666
63.9963 46.7448 3.9866
62.8493 44.2434 3.98631
70.0712 35.3878 0.0116755
69.4787 31.138 0.0123839
67.6781 33.5813 0.013355
66.7927 29.6045 0.0138095
62.3418 12.6476 0.00517332
62.2004 15.7618 0.0087835
61.8216 18.6513 0.0114079
65.5422 25.6733 0.0129551
64.1753 28.2291 0.0141611
62.8817 24.602 0.0134474
61.2353 21.3014 0.0130293
60.4545 23.6834 0.0135698
59.2463 12.7609 0.00844714
56.4061 13.0905 0.0105718
55.8738 10.2201 0.0083702
67.8948 35.5427 2
67.287 31.6082 2
65.7309 33.9167 2
64.6938 30.1708 2
60.7756 14.2026 2
60.617 17.0964 2
60.2349 19.7765 2
63.5655 26.3828 2
62.2958 28.7473 2
59.685 22.2123 2
61.0782 25.297 2
59.0132 24.2711 2
57.9115 14.3061 2
55.3142 14.6177 2
54.0367 9.12423 2
54.7872 11.9919 2
65.9112 35.6616 3.98672
65.2182 32.1385 3.9859
64.3251 34.239 3.98546
62.636 30.6113 3.98551
61.6876 27.0364 3.98612
60.8959 29.1077 3.98561
59.3126 15.641 3.98927
59.3712 25.7508 3.98643
59.1303 18.319 3.98765
58.757 20.8094 3.98648
58.3143 23.0416 3.98631
58.0066 24.6128 3.98722
52.1114 8.14419 3.9916
53.0581 11.0004 3.98947
56.6785 15.7118 3.98811
53.8107 13.6559 3.98804
54.3783 15.9664 3.98736
55.0696 67.936 0.00489022
65.3507 49.4346 0.0131524
55.8034 64.9209 0.00816804
59.2195 62.3829 0.00825217
56.3278 62.1098 0.0103724
63.7205 53.3237 0.0123397
62.4674 50.6878 0.0138212
59.3366 59.5844 0.0104997
59.2983 57.0504 0.0122806
61.0935 54.3481 0.0126104
59.2575 55.2264 0.012606
53.0415 69.0036 2
53.9655 66.0223 2
57.8825 60.8941 2
54.6838 63.2237 2
55.2135 60.6412 2
63.2231 48.6937 2
61.763 52.6134 2
60.3082 50.0615 2
58.0236 58.2946 2
59.347 53.9918 2
58.1393 55.8568 2
52.0691 67.0073 3.9919
52.9528 64.2318 3.98978
56.6516 59.5176 3.98826
53.6821 61.6429 3.98836
54.263 59.3503 3.98741
61.033 47.9193 3.98636
59.7372 52.1492 3.98621
58.0677 49.6674 3.98697
56.7846 57.0269 3.9867
57.1407 54.1719 3.98614
50.1082 67.8637 2
49.3363 65.9315 3.9897
47.4627 66.5909 2
46.892 64.749 3.98825
45.558 67.1075 3.98972
43.9732 69.5958 3.99176
46.0559 69.164 2
46.6088 71.3698 3.99507
48.102 68.5847 0.008169
48.8019 70.7259 2
49.554 73.0099 4
50.9476 69.9346 0.00490943
51.8506 72.1455 2
54.0858 71.1327 0
53.0632 6.06756 3.99491
55.102 7.1352 2
56.25 5.02411 4
58.3339 6.3199 2
57.0579 8.33053 0.00505934
60.3285 7.74928 0
66.0892 47.4411 0.0130303
67.2461 43.4851 0.0133234
64.6842 44.8717 0.0134965
65.5904 41.2224 0.0132822
67.8593 39.518 0.0122475
70.1432 37.5216 0.0110651
67.9562 37.5224 2
65.8242 39.3771 2
65.2092 43.0435 2
63.8008 40.9439 2
63.9965 46.745 2
62.8496 44.2435 2
65.9273 37.5025 3.98784
63.9473 39.2747 3.98713
63.3724 42.5706 3.98605
62.4849 40.7128 3.98509
62.0092 45.9527 3.98708
61.5025 43.7129 3.98585
67.8946 35.5427 0.0127512
67.2869 31.6083 0.0136982
65.7306 33.9167 0.0135755
64.6935 30.171 0.0145193
60.7756 14.2031 0.00854892
60.6169 17.0968 0.0110159
60.2348 19.7768 0.0127307
63.5653 26.383 0.0137383
62.2956 28.7475 0.0140553
61.0779 25.2973 0.0138125
59.6849 22.2126 0.0136017
59.0131 24.2713 0.0133718
57.9115 14.3065 0.0105832
55.3142 14.618 0.0119286
54.0368 9.12465 0.00835184
54.7872 11.9923 0.0105378
65.9114 35.6616 2
65.2184 32.1385 2
64.3254 34.239 2
62.6363 30.6112 2
59.3126 15.6405 2
59.1304 18.3187 2
58.757 20.8091 2
61.6878 27.0362 2
60.8962 29.1075 2
58.3145 23.0414 2
59.3714 25.7506 2
58.0068 24.6125 2
56.6786 15.7115 2
54.3784 15.9661 2
53.8108 13.6555 2
52.1114 8.14379 2
53.0581 11.0001 2
64.1354 35.6265 3.98617
62.9757 33.0297 3.98556
60.6659 30.5842 3.98535
59.6199 27.87 3.98614
57.9426 16.9501 3.98794
57.7844 25.6746 3.98719
57.7245 19.4352 3.9868
57.3927 21.7913 3.98596
57.2215 23.8928 3.98664
50.1116 7.277 3.99158
51.2325 10.1104 3.98948
52.1728 12.7755 3.98796
55.54 16.9379 3.98733
52.9792 15.234 3.98718
53.7606 16.9462 3.98691
53.0416 69.0033 0.00488093
53.9655 66.0218 0.00809879
63.2229 48.6935 0.0137402
54.6838 63.2233 0.0102828
57.8825 60.8937 0.0103828
55.2135 60.6408 0.0117562
61.7629 52.6131 0.0134722
60.308 50.0613 0.0142468
58.0235 58.2943 0.01205
58.1392 55.8566 0.0134298
59.3469 53.9916 0.0130915
52.069 67.0077 2
52.9527 64.2322 2
56.6516 59.518 2
53.6821 61.6433 2
54.263 59.3506 2
61.0332 47.9194 2
59.7373 52.1495 2
58.0679 49.6675 2
56.7847 57.0272 2
57.1408 54.1721 2
51.1672 65.1394 3.98974
52.0463 62.5559 3.98832
55.4849 58.283 3.98742
52.8362 60.1601 3.98754
53.6436 58.5027 3.98695
58.3601 46.8963 3.98766
57.5922 51.8373 3.98616
56.2942 49.6095 3.98795
55.483 55.8382 3.98603
55.3811 53.4351 3.98508
50.1083 67.8634 0.00815151
49.3363 65.9318 2
48.6178 64.136 3.98827
47.4627 66.5905 0.0103163
45.5579 67.1079 2
46.892 64.7493 2
46.3815 63.069 3.9873
45.1323 65.2102 3.98828
43.6313 67.4781 3.98966
41.8607 69.8833 3.99168
43.9732 69.5962 2
44.3764 71.8645 3.99501
46.0559 69.1636 0.00816279
46.6087 71.3701 2
47.2057 73.7222 4
48.802 70.7255 0.00491883
49.554 73.0099 2
51.8506 72.1454 0
50.953 5.12831 3.99494
53.0631 6.0672 2
54.0858 3.86728 4
55.1022 7.13559 0.00505365
56.25 5.02406 2
58.3339 6.31992 0
63.9963 46.7448 0.0133953
65.209 43.0434 0.0136994
62.8493 44.2434 0.0136913
63.8005 40.9438 0.013343
65.8239 39.3771 0.0125428
67.956 37.5224 0.0119347
65.9276 37.5026 2
63.9477 39.2747 2
63.3727 42.5707 2
62.4852 40.7128 2
62.0094 45.9528 2
61.5028 43.7131 2
64.0086 37.4581 3.98786
62.2173 39.3637 3.98627
61.2759 41.9814 3.98542
60.3041 44.8077 3.98743
65.9112 35.6616 0.0132848
65.2182 32.1385 0.0140975
64.3251 34.239 0.0145432
62.636 30.6113 0.0144873
59.3126 15.641 0.0107263
59.1303 18.319 0.0123519
58.757 20.8094 0.013519
61.6876 27.0364 0.0138812
60.8959 29.1077 0.0143927
59.3712 25.7508 0.0135741
58.3143 23.0416 0.0136936
58.0066 24.6128 0.0127768
56.6785 15.7118 0.0118895
54.3783 15.9664 0.0126449
53.8107 13.6559 0.0119584
52.1114 8.14419 0.00839578
53.0581 11.0004 0.0105297
64.1357 35.6266 2
62.976 33.0297 2
60.6662 30.5841 2
57.9426 16.9498 2
57.7246 19.4349 2
57.3928 21.7911 2
59.6202 27.8698 2
57.2216 23.8926 2
57.7846 25.6744 2
50.1115 7.27662 2
55.5401 16.9376 2
53.7607 16.9459 2
52.9792 15.2337 2
52.1729 12.7751 2
51.2325 10.11 2
62.2465 35.3513 3.98648
60.3511 32.726 3.98522
58.6834 30.0402 3.98579
57.3481 27.3324 3.98688
56.6405 18.1191 3.9871
56.337 25.045 3.98741
56.3704 20.4773 3.98612
56.1373 22.8159 3.9857
48.0554 6.52074 3.99175
49.3244 9.31953 3.9893
50.4336 11.9754 3.98807
51.3789 14.4725 3.98694
54.4183 17.8848 3.98671
52.3633 17.0022 3.98647
52.0691 67.0073 0.00810346
52.9528 64.2318 0.0102187
61.033 47.9193 0.0136434
53.6821 61.6429 0.0116372
56.6516 59.5176 0.0117384
54.263 59.3503 0.0125943
59.7372 52.1492 0.0137866
58.0677 49.6674 0.0130305
56.7846 57.0269 0.0132958
57.1407 54.1719 0.0138598
51.1671 65.1398 2
52.0463 62.5562 2
55.4849 58.2833 2
52.8363 60.1605 2
53.6437 58.5031 2
58.3604 46.8964 2
57.5923 51.8374 2
56.2944 49.6096 2
55.4831 55.8384 2
55.3812 53.4352 2
50.346 63.3955 3.98826
51.245 60.9562 3.98728
54.2247 57.3005 3.98667
52.3153 58.6635 3.98684
56.7961 44.2278 3.98772
55.5532 47.9514 3.98775
55.106 51.4461 3.98582
54.0208 54.5945 3.98548
49.3363 65.9315 0.0102982
48.6178 64.1364 2
47.9619 62.4908 3.98733
45.558 67.1075 0.010282
46.892 64.749 0.0117544
43.6312 67.4784 2
46.3815 63.0693 2
45.1323 65.2106 2
45.9871 61.6039 3.98673
44.7667 63.4699 3.98726
43.3562 65.5197 3.98832
41.6635 67.6972 3.98955
39.7026 70.0307 3.99164
41.8607 69.8837 2
42.111 72.2093 3.99496
43.9732 69.5958 0.00824173
44.3763 71.8648 2
44.8159 74.2794 4
46.6088 71.3698 0.00493129
47.2057 73.7222 2
49.554 73.0099 0
48.7836 4.31965 3.99503
50.9529 5.12797 2
51.8506 2.85458 4
53.0632 6.06756 0.00508646
54.0858 3.86728 2
56.25 5.02411 0
62.0092 45.9527 0.0129166
63.3724 42.5706 0.0139477
61.5025 43.7129 0.0141529
62.4849 40.7128 0.0149124
63.9473 39.2747 0.0128716
65.9273 37.5025 0.0121639
64.0089 37.4581 2
62.2177 39.3637 2
61.2762 41.9816 2
60.3044 44.8079 2
62.0589 37.4451 3.98806
60.3218 39.8607 3.98538
59.0652 42.9529 3.98693
64.1354 35.6265 0.0138307
62.9757 33.0297 0.0144428
60.6659 30.5842 0.0146483
57.9426 16.9501 0.0120623
57.7245 19.4352 0.0132011
57.3927 21.7913 0.0140424
59.6199 27.87 0.0138584
57.7844 25.6746 0.0128148
57.2215 23.8928 0.0133591
55.54 16.9379 0.0126704
53.7606 16.9462 0.013092
52.9792 15.234 0.0128197
50.1116 7.277 0.0084154
52.1728 12.7755 0.0120449
51.2325 10.1104 0.0105225
62.2467 35.3513 2
60.3514 32.7259 2
58.6837 30.04 2
56.6406 18.1188 2
56.3705 20.4771 2
56.1374 22.8158 2
57.3484 27.3321 2
56.3372 25.0448 2
48.0554 6.52037 2
49.3244 9.31916 2
54.4184 17.8845 2
52.3633 17.0019 2
51.379 14.4722 2
50.4337 11.9751 2
59.9676 35.1104 3.98685
58.0695 32.2432 3.98484
56.6171 29.295 3.9865
55.5069 26.5414 3.98789
55.3483 19.1511 3.98645
54.9682 23.9981 3.98611
55.0198 21.5149 3.98562
45.9615 5.87651 3.99184
43.3734 7.4652 3.9895
47.3549 8.61398 3.98947
48.6003 11.2786 3.98782
49.7148 13.7215 3.98708
50.6348 16.1033 3.98626
53.1288 18.6231 3.98621
51.3057 18.0143 3.98605
51.1672 65.1394 0.0102577
52.0463 62.5559 0.011677
58.3601 46.8963 0.0123367
52.8362 60.1601 0.0124578
55.4849 58.283 0.0125832
53.6436 58.5027 0.013053
57.5922 51.8373 0.0138423
56.2942 49.6095 0.0120487
55.483 55.8382 0.0139677
55.3811 53.4351 0.0149231
50.346 63.3959 2
51.245 60.9566 2
54.2249 57.3008 2
52.3154 58.6638 2
56.7964 44.2281 2
55.5534 47.9515 2
55.1062 51.4462 2
54.021 54.5947 2
49.5919 61.7621 3.98726
55.7463 41.7403 3.98596
50.5685 59.3532 3.98644
52.1913 56.5261 3.98592
54.2728 45.6173 3.98843
53.3994 49.3914 3.98666
52.6949 52.9095 3.98493
48.6178 64.136 0.0117327
47.9619 62.4912 2
47.3292 61.0277 3.9867
43.6313 67.4781 0.0103394
45.1323 65.2102 0.0117184
46.3815 63.069 0.0127039
41.6635 67.6975 2
43.3562 65.52 2
45.9871 61.6042 2
44.7667 63.4702 2
45.7659 60.6495 3.98649
44.4828 61.8531 3.98653
43.1459 63.7423 3.98741
41.5458 65.6576 3.98819
39.6328 67.7774 3.98948
37.5263 70.0561 3.99162
39.7026 70.031 2
39.8179 72.4064 3.99494
41.8607 69.8833 0.00832449
42.1109 72.2095 2
42.3947 74.6792 4
44.3764 71.8645 0.0049917
44.8159 74.2794 2
47.2057 73.7222 0
43.851 5.35421 3.9917
46.5698 3.64452 3.99505
48.7835 4.31933 2
49.554 1.99015 4
50.953 5.12831 0.00505869
51.8506 2.85453 2
54.0858 3.86728 0
60.3041 44.8077 0.0125711
61.2759 41.9814 0.0145803
62.2173 39.3637 0.0137289
64.0086 37.4581 0.0121354
62.0592 37.4451 2
60.3223 39.8607 2
59.0655 42.9531 2
59.8476 37.5682 3.98819
58.0933 40.6829 3.98613
55.2388 39.7431 3.99114
62.2465 35.3513 0.0135227
60.3511 32.726 0.0147819
58.6834 30.0402 0.0142069
56.6405 18.1191 0.0128998
56.3704 20.4773 0.0138788
56.1373 22.8159 0.0143041
57.3481 27.3324 0.0131201
56.337 25.045 0.012594
54.4183 17.8848 0.013291
52.3633 17.0022 0.0135267
51.3789 14.4725 0.0130591
48.0554 6.52074 0.00824909
49.3244 9.31953 0.0106951
50.4336 11.9754 0.0119279
59.9679 35.1104 2
45.9614 5.87615 2
43.3734 7.46485 2
58.0698 32.2431 2
56.6175 29.2947 2
55.3484 19.1508 2
55.0199 21.5148 2
54.9683 23.998 2
55.5072 26.5411 2
47.3548 8.6136 2
48.6003 11.2783 2
53.1289 18.6228 2
51.3058 18.014 2
50.6349 16.103 2
49.7148 13.7212 2
57.4924 34.7483 3.98432
55.8179 31.4818 3.98529
54.5927 28.3479 3.98828
53.8251 25.4337 3.98708
53.9768 20.0962 3.98595
53.6068 22.6555 3.98531
41.3986 7.07044 3.98984
45.3595 7.98612 3.98969
42.8655 9.40474 3.98805
46.6667 10.64 3.98793
47.7457 13.0838 3.98693
48.9321 15.3763 3.98604
50.0078 17.6684 3.98581
51.6577 19.291 3.98611
50.346 63.3955 0.0117424
51.245 60.9562 0.0127182
56.7961 44.2278 0.0122833
55.5532 47.9514 0.012254
52.3153 58.6635 0.0131617
54.2247 57.3005 0.0133295
55.106 51.4461 0.0141821
54.0208 54.5945 0.0145232
49.592 61.7625 2
55.7468 41.7405 2
50.5686 59.3535 2
52.1915 56.5264 2
54.2731 45.6174 2
53.3996 49.3914 2
52.6951 52.9097 2
48.8494 60.2224 3.98657
52.6643 42.6867 3.98941
49.7922 57.657 3.98595
50.6099 54.4666 3.98507
51.9092 47.3345 3.98729
51.2607 51.0111 3.98412
48.3767 43.7898 3.98183
47.9619 62.4908 0.0126742
47.3292 61.028 2
46.6186 59.8161 3.98626
41.6635 67.6972 0.010448
43.3562 65.5197 0.0116784
44.7667 63.4699 0.012738
45.9871 61.6039 0.0132746
39.6328 67.7777 2
41.5458 65.658 2
45.766 60.6498 2
43.1459 63.7426 2
44.4828 61.8534 2
44.6232 60.3122 3.98622
42.95 62.1018 3.98653
41.5993 63.8357 3.98728
39.6474 65.6265 3.98804
37.5636 67.7603 3.98943
31.698 65.1455 3.9881
33.3927 67.4978 3.98939
35.3338 69.9664 3.99162
37.5263 70.0564 2
37.5097 72.4611 3.99493
39.7026 70.0307 0.00835766
39.8179 72.4067 2
39.9526 74.9197 4
42.111 72.2093 0.00504469
42.3947 74.6792 2
44.8159 74.2794 0
41.7358 4.96352 3.99193
43.8509 5.35387 2
44.3252 3.10805 3.99501
46.5697 3.64423 2
47.2057 1.27793 4
48.7836 4.31965 0.00496992
49.554 1.99013 2
51.8506 2.85458 0
59.0652 42.9529 0.0130683
60.3218 39.8607 0.014617
62.0589 37.4451 0.0119443
59.848 37.5681 2
58.0938 40.683 2
55.2393 39.7432 2
56.9435 37.9061 3.98679
49.8429 41.3366 3.99116
53.2939 39.3306 3.99357
39.442 6.79421 3.9898
59.9676 35.1104 0.0131516
58.0695 32.2432 0.0151623
56.6171 29.295 0.0134978
55.3483 19.1511 0.0135538
55.0198 21.5149 0.0143761
54.9682 23.9981 0.013894
55.5069 26.5414 0.0121071
53.1288 18.6231 0.0137863
51.3057 18.0143 0.0139451
50.6348 16.1033 0.0137387
45.9615 5.87651 0.00816064
49.7148 13.7215 0.0129195
47.3549 8.61398 0.0105303
48.6003 11.2786 0.012179
43.3734 7.4652 0.010499
57.4927 34.7483 2
41.3986 7.07009 2
45.3595 7.98575 2
42.8655 9.4044 2
55.8183 31.4816 2
54.5931 28.3476 2
53.977 20.096 2
53.6069 22.6554 2
53.8253 25.4336 2
46.6667 10.6397 2
47.7457 13.0835 2
51.6578 19.2908 2
50.008 17.6682 2
48.9322 15.376 2
55.0054 33.9489 3.98242
53.6014 30.4359 3.98754
52.6676 27.1323 3.98838
52.1834 24.0229 3.9857
52.4042 21.0301 3.98564
41.0134 9.03769 3.98813
44.7239 9.98355 3.98808
42.4682 10.8891 3.98786
46.0053 12.7123 3.98645
47.6819 14.563 3.98644
48.114 16.9611 3.98504
49.8204 19.5591 3.98566
49.5919 61.7621 0.0127406
50.5685 59.3532 0.0135632
55.7463 41.7403 0.0140446
54.2728 45.6173 0.0115736
53.3994 49.3914 0.0133396
52.1913 56.5261 0.0140768
52.6949 52.9095 0.0150741
48.8495 60.2227 2
52.6648 42.6868 2
49.7923 57.6573 2
50.6101 54.4669 2
51.9095 47.3346 2
51.2609 51.0112 2
48.3774 43.7896 2
47.9876 58.767 3.98603
50.2476 45.3321 3.98588
48.6053 55.9506 3.98571
49.1574 52.6485 3.98389
49.7446 49.1198 3.98333
46.1922 39.8896 3.9651
46.64 42.7234 3.98449
46.6632 45.7991 3.97792
44.0347 41.2431 4.05084
42.0701 41.9948 4.01521
47.3292 61.0277 0.0133008
46.6186 59.8164 2
45.4683 58.8134 3.98605
39.6328 67.7774 0.0105179
41.5458 65.6576 0.0118064
43.1459 63.7423 0.0125929
44.4828 61.8531 0.0134651
45.7659 60.6495 0.0135116
41.5993 63.836 2
37.5636 67.7606 2
39.6474 65.6268 2
44.6232 60.3125 2
42.95 62.1021 2
41.7529 62.5121 3.98681
42.4808 60.0042 3.98599
39.8929 63.5713 3.98703
37.6423 65.526 3.98796
35.4638 67.6698 3.98943
33.5761 65.359 3.98802
31.9603 63.3201 3.98719
29.8841 64.7367 3.98816
31.698 65.1458 2
31.3775 67.2074 3.98943
33.3927 67.4981 2
33.1567 69.7596 3.99155
35.3338 69.9667 2
35.1952 72.3755 3.99492
37.5263 70.0561 0.00838079
37.5097 72.4613 2
37.5 75 4
39.8179 72.4064 0.00506456
39.9526 74.9197 2
42.3947 74.6792 0
39.6235 4.71086 3.99195
41.7358 4.96319 2
42.0618 2.71579 3.99512
43.851 5.35421 0.00830407
44.3252 3.10779 2
44.8158 0.721173 4
46.5698 3.64452 0.0049505
47.2057 1.27779 2
49.554 1.99015 0
58.0933 40.6829 0.0138692
59.8476 37.5682 0.0118135
55.2388 39.7431 0.00886337
49.8435 41.3364 2
56.944 37.9062 2
53.2945 39.3308 2
54.1437 36.6287 3.98502
47.7721 40.44 3.99269
50.797 38.503 3.99138
37.5158 6.66489 3.99025
39.442 6.79388 2
39.2108 8.68061 3.98836
35.941 8.48013 3.98882
57.4924 34.7483 0.0156831
55.8179 31.4818 0.0147099
54.5927 28.3479 0.0117189
53.9768 20.0962 0.0140499
53.6068 22.6555 0.0146936
53.8251 25.4337 0.0129196
51.6577 19.291 0.0138914
50.0078 17.6684 0.0141852
48.9321 15.3763 0.0139614
45.3595 7.98612 0.0103138
47.7457 13.0838 0.0130692
46.6667 10.64 0.0120702
41.3986 7.07044 0.0101645
42.8655 9.40474 0.0119524
55.0059 33.9488 2
41.0134 9.03733 2
44.7239 9.98318 2
42.4682 10.8888 2
53.6018 30.4354 2
52.6679 27.1322 2
52.4044 21.0299 2
52.1836 24.0228 2
46.0053 12.7119 2
47.6819 14.5626 2
49.8205 19.5588 2
48.1141 16.9608 2
52.5587 32.8342 3.98458
51.4541 29.0901 3.99062
50.8549 25.6529 3.98529
49.9539 22.1269 3.98566
40.5691 11.5914 3.98688
43.858 11.9027 3.98658
45.8024 15.3982 3.98532
47.5054 19.1896 3.98469
46.5277 37.5033 3.9718
48.8494 60.2224 0.013433
49.7922 57.657 0.0140544
52.6643 42.6867 0.0105893
51.9092 47.3345 0.0127091
51.2607 51.0111 0.015885
50.6099 54.4666 0.0149321
48.3767 43.7898 0.018166
47.9877 58.7673 2
50.248 45.3322 2
48.6054 55.951 2
49.1577 52.6489 2
49.7448 49.1199 2
46.1924 39.8862 2
46.6409 42.7229 2
46.6637 45.7992 2
44.0318 41.2369 2
42.0674 41.9929 2
46.8403 57.3713 3.98599
44.7901 39.4947 4.05334
42.4299 40.8653 4.00963
48.2032 47.3256 3.98299
47.1809 54.2875 3.98528
47.6336 50.8346 3.98099
44.924 47.4296 3.97473
45.2758 42.0031 3.95097
45.1584 44.6365 3.98204
42.853 42.7527 4.03648
40.9191 42.3462 4.00716
46.6186 59.8161 0.0137382
45.4684 58.8137 2
43.8769 57.7382 3.98585
37.5636 67.7603 0.0105743
39.6474 65.6265 0.0119611
41.5993 63.8357 0.0127189
42.95 62.1018 0.0134678
44.6232 60.3122 0.0137773
35.4638 67.6701 2
41.753 62.5124 2
39.8929 63.5716 2
37.6423 65.5263 2
42.4808 60.0045 2
40.6226 61.6714 3.98639
40.445 58.2377 3.9857
37.8366 63.2333 3.98694
35.5734 65.4484 3.98793
33.5761 65.3593 2
31.9603 63.3204 2
33.6297 63.36 3.98704
30.3793 62.8792 3.9872
32.1237 62.0279 3.98695
26.8684 61.5242 3.9869
28.0629 64.1651 3.98808
29.8841 64.7371 2
29.4071 66.7713 3.98953
31.698 65.1455 0.0119024
31.3775 67.2077 2
31.0142 69.4246 3.99156
33.3927 67.4978 0.0106079
33.1568 69.7599 2
32.8924 72.1498 3.99487
35.3338 69.9664 0.00838183
35.1952 72.3758 2
35.0474 74.9194 4
37.5097 72.4611 0.0050716
37.5 75 2
39.9526 74.9197 0
35.6203 6.71612 3.98998
37.5229 4.61026 3.9922
39.6235 4.71055 2
39.7884 2.47233 3.99518
41.7358 4.96352 0.00806914
42.0617 2.71554 2
42.3946 0.32156 4
44.3252 3.10805 0.00499102
44.8159 0.72056 2
47.2057 1.27793 0
49.8429 41.3366 0.0088393
56.9435 37.9061 0.0132059
53.2939 39.3306 0.00642795
47.7729 40.4397 2
50.7977 38.5031 2
54.1442 36.629 2
51.5742 35.5672 3.98184
48.4395 37.753 3.99202
46.1897 35.1153 3.97087
44.0329 33.7588 4.05014
42.0691 33.003 4.01397
37.4574 8.52151 3.98872
37.5158 6.66455 2
39.442 6.79421 0.0101973
39.2108 8.68027 2
38.9759 10.1113 3.98812
35.8976 9.75796 3.98817
34.1493 8.80917 3.98863
35.941 8.47979 2
55.0054 33.9489 0.0175801
53.6014 30.4359 0.0124612
52.6676 27.1323 0.0116243
52.4042 21.0301 0.0143633
52.1834 24.0229 0.0143049
49.8204 19.5591 0.0143386
48.114 16.9611 0.0149647
47.6819 14.563 0.0135636
44.7239 9.98355 0.0119217
46.0053 12.7123 0.0135536
41.0134 9.03769 0.0118704
42.4682 10.8891 0.0121373
52.5592 32.8338 2
40.5691 11.5911 2
43.858 11.9023 2
51.4545 29.0899 2
50.8551 25.653 2
49.9541 22.1267 2
45.8024 15.3978 2
47.5055 19.1893 2
50.1764 31.3653 3.99026
49.3874 27.3988 3.98644
49.4478 24.3328 3.98401
47.1937 21.8648 3.98464
38.3013 12.7145 3.98559
42.1004 14.2842 3.9855
44.8004 18.4308 3.98394
45.0746 37.5017 4.05765
46.5275 37.5035 2
47.9876 58.767 0.0139663
48.6053 55.9506 0.0142925
50.2476 45.3321 0.0141206
49.7446 49.1198 0.0166706
49.1574 52.6485 0.0161067
46.1922 39.8896 0.0349023
46.64 42.7234 0.0155116
46.6632 45.7991 0.0220763
44.0347 41.2431 -0.0508423
42.0701 41.9948 -0.0152081
46.8404 57.3716 2
44.7868 39.4904 2
42.4266 40.8639 2
48.2036 47.3259 2
47.1811 54.2879 2
47.6338 50.8351 2
44.9245 47.4299 2
45.2771 41.9982 2
45.1595 44.636 2
42.8512 42.7467 2
40.9168 42.3475 2
45.4015 55.9581 3.98587
42.7703 39.2615 3.99362
40.8724 40.8082 3.96903
46.1697 49.027 3.98096
45.5701 52.5792 3.98441
43.5505 48.5207 3.97633
43.5235 46.2095 3.98119
43.8508 43.8212 3.94367
41.32 43.9205 4.0217
39.2976 42.6701 3.98215
45.4683 58.8134 0.0139506
43.8769 57.7384 2
42.1083 56.3647 3.9855
35.4638 67.6698 0.0105735
37.6423 65.526 0.0120435
39.8929 63.5713 0.0129705
41.7529 62.5121 0.0131947
42.4808 60.0042 0.0140093
35.5734 65.4487 2
40.6226 61.6717 2
37.8366 63.2336 2
40.445 58.238 2
38.9262 56.534 3.98558
38.2501 60.3563 3.98602
35.6072 63.2269 3.98686
33.5761 65.359 0.0119847
31.9603 63.3201 0.0128055
33.6297 63.3603 2
30.3793 62.8795 2
32.1237 62.0283 2
28.6816 62.2251 3.9872
33.3462 61.541 3.98642
31.0667 61.2458 3.98643
27.5669 59.6247 3.98648
23.788 59.1171 3.98739
25.0331 60.8989 3.98731
26.8684 61.5245 2
26.2292 63.498 3.98799
28.0629 64.1654 2
27.4638 66.1955 3.98953
29.8841 64.7367 0.0118388
29.4071 66.7716 2
28.9067 68.9503 3.99164
31.3775 67.2074 0.0105721
31.0143 69.4249 2
30.6149 71.7809 3.99486
33.1567 69.7596 0.00844541
32.8924 72.15 2
32.6054 74.6784 4
35.1952 72.3755 0.00508132
35.0474 74.9197 2
37.5 75 0
33.7229 6.97033 3.98989
35.4344 4.68068 3.99205
35.6203 6.71579 2
37.5141 2.38496 3.99528
37.5229 4.60995 2
39.6235 4.71086 0.0080524
39.7884 2.47209 2
39.9526 0.0806499 4
42.0618 2.71579 0.00487534
42.3947 0.320817 2
44.8158 0.721173 0
44.7929 35.5071 4.05942
42.4279 34.1297 4.011
47.7721 40.44 0.00731081
50.797 38.503 0.00862258
54.1437 36.6287 0.014981
48.4404 37.753 2
51.5748 35.5671 2
46.19 35.1187 2
44.03 33.765 2
42.0661 33.0052 2
48.5998 34.2525 3.98729
45.2755 32.9999 3.95172
42.8533 32.2468 4.03945
40.9171 32.6509 4.00537
37.3098 10.613 3.98722
37.4574 8.52115 2
37.5158 6.66489 0.00975306
39.2108 8.68061 0.0116354
38.9759 10.1109 2
34.7527 10.363 3.98745
35.8976 9.7576 2
32.3759 9.35521 3.98829
34.1493 8.80882 2
35.941 8.48013 0.0111832
52.5587 32.8342 0.0154151
51.4541 29.0901 0.00938102
50.8549 25.6529 0.0147094
49.9539 22.1269 0.0143373
47.5054 19.1896 0.015307
45.8024 15.3982 0.0146843
43.858 11.9027 0.0134151
40.5691 11.5914 0.0131226
50.177 31.3651 2
38.3013 12.7142 2
42.1004 14.2839 2
49.3877 27.3989 2
49.448 24.3326 2
47.1939 21.8644 2
44.8005 18.4304 2
47.9545 29.4994 3.98574
47.1515 25.0398 3.98327
44.2924 21.2792 3.98228
36.5808 12.9106 3.98598
38.6797 14.7828 3.98522
41.7491 17.809 3.98448
42.9088 37.4898 3.98841
45.0715 37.5016 2
46.5277 37.5033 0.0281984
46.8403 57.3713 0.0140144
47.1809 54.2875 0.0147223
48.2032 47.3256 0.0170137
47.6336 50.8346 0.0190122
44.7901 39.4947 -0.0533356
45.2758 42.0031 0.0490311
45.1584 44.6365 0.0179608
44.924 47.4296 0.0252732
42.853 42.7527 -0.0364767
42.4299 40.8653 -0.00963371
40.9191 42.3462 -0.00715585
45.4015 55.9585 2
42.7664 39.2607 2
40.8693 40.8097 2
46.17 49.0277 2
45.5703 52.5798 2
43.5508 48.5219 2
43.5243 46.2099 2
43.8526 43.8147 2
41.3198 43.9181 2
39.2964 42.6749 2
43.7439 54.4678 3.98629
40.9582 39.1762 3.95411
39.2224 40.8786 3.95716
43.7537 50.5588 3.98493
42.0727 47.7541 3.98393
42.0112 45.2181 3.947
39.5365 44.6819 3.99421
37.5062 42.7867 3.97906
43.8769 57.7382 0.0141531
42.1083 56.365 2
40.4224 54.9739 3.98485
35.5734 65.4484 0.0120721
37.8366 63.2333 0.01306
40.6226 61.6714 0.0136132
40.445 58.2377 0.0143012
35.6072 63.2273 2
38.2501 60.3566 2
38.9262 56.5343 2
38.0011 55.2899 3.98523
36.9345 57.6611 3.98551
35.3636 60.9405 3.98613
33.6297 63.36 0.0129556
30.3793 62.8792 0.0128002
32.1237 62.0279 0.0130509
33.3462 61.5413 2
28.6815 62.2254 2
31.0666 61.2461 2
29.4024 60.3168 3.98638
32.356 59.7745 3.98636
28.0186 58.4057 3.98688
27.5669 59.625 2
25.3754 58.6288 3.98662
22.7497 58.2787 3.9865
23.3979 60.3807 3.98751
23.7879 59.1175 2
25.0331 60.8993 2
24.4313 62.7916 3.98822
26.8684 61.5242 0.0131042
26.2292 63.4983 2
25.5478 65.5061 3.98956
28.0629 64.1651 0.0119222
27.4638 66.1958 2
26.8367 68.3391 3.9917
29.4071 66.7713 0.0104663
28.9068 68.9507 2
28.3702 71.2662 3.99491
31.0142 69.4246 0.00844322
30.615 71.7812 2
30.1842 74.2788 4
32.8924 72.1498 0.00512978
32.6053 74.6792 2
35.0474 74.9194 0
31.7873 7.40952 3.9897
33.3466 4.91953 3.99201
33.7229 6.96999 2
35.2444 2.4611 3.9952
35.4345 4.68037 2
35.6203 6.71612 0.0100157
37.5 0 4
37.5141 2.38473 2
37.5229 4.61026 0.00779793
39.7884 2.47233 0.00481901
39.9526 0.0802889 2
42.3946 0.32156 0
42.7743 35.7229 3.9949
44.7898 35.5113 2
40.8692 34.1878 3.96858
42.4245 34.1313 2
48.4395 37.753 0.00798396
51.5742 35.5672 0.0181571
46.1897 35.1153 0.0291313
44.0329 33.7588 -0.050145
42.0691 33.003 -0.0139696
48.6006 34.2525 2
45.2765 33.0048 2
42.8511 32.2533 2
40.9145 32.6496 2
46.5751 31.533 3.98144
43.8536 31.1828 3.94357
41.3248 31.0774 4.02155
39.2918 32.3376 3.98537
35.6912 11.7564 3.98634
37.3097 10.6126 2
37.4574 8.52151 0.0112782
38.9759 10.1113 0.0118793
33.0965 11.1985 3.98713
34.7527 10.3626 2
35.8976 9.75796 0.0118313
30.4806 10.0024 3.98812
32.3759 9.35486 2
34.1493 8.80917 0.0113689
50.1764 31.3653 0.00973732
49.3874 27.3988 0.0135607
49.4478 24.3328 0.0159857
47.1937 21.8648 0.0153649
44.8004 18.4308 0.0160588
42.1004 14.2842 0.0145041
38.3013 12.7145 0.014405
36.5808 12.9103 2
47.9549 29.4996 2
38.6797 14.7825 2
41.7492 17.8086 2
47.1518 25.0393 2
44.2925 21.2788 2
45.6806 27.6854 3.98113
43.8271 23.979 3.98111
41.3433 20.6837 3.98331
35.77 14.7333 3.98546
38.6802 17.5659 3.98505
41.0095 37.4805 3.94763
42.9049 37.4898 2
45.0746 37.5017 -0.0576537
45.4015 55.9581 0.0141319
45.5701 52.5792 0.0155866
46.1697 49.027 0.0190353
42.7703 39.2615 0.00637827
43.8508 43.8212 0.0563322
43.5235 46.2095 0.0188092
43.5505 48.5207 0.0236672
41.32 43.9205 -0.0216969
40.8724 40.8082 0.0309703
39.2976 42.6701 0.0178528
43.744 54.4682 2
40.9549 39.177 2
39.2208 40.882 2
43.7539 50.5596 2
42.073 47.7548 2
42.0121 45.2153 2
37.5066 42.7916 2
39.537 44.6853 2
41.8918 53.0398 3.98396
39.2202 39.1671 3.94811
37.5049 40.9163 3.95847
35.7143 42.6564 3.98915
40.9952 49.7779 3.98875
39.8832 46.1112 3.96708
37.4981 44.9434 3.99001
42.1083 56.3647 0.0144957
40.4225 54.9742 2
38.7329 53.9078 3.98541
35.6072 63.2269 0.0131369
38.2501 60.3563 0.0139803
38.9262 56.534 0.0144191
35.3636 60.9408 2
36.9345 57.6613 2
38.0011 55.2901 2
36.3201 55.4213 3.98549
34.4872 58.5531 3.98578
33.3462 61.541 0.0135828
28.6816 62.2251 0.0128048
31.0667 61.2458 0.013572
32.356 59.7748 2
29.4024 60.3171 2
30.2946 57.8495 3.98601
28.0185 58.406 2
26.9356 56.8609 3.98581
27.5669 59.6247 0.013523
25.3753 58.6291 2
23.8273 56.8486 3.98574
21.3239 57.4411 3.98656
21.9892 59.6555 3.98766
22.7496 58.279 2
22.7345 62.0447 3.98828
23.3979 60.381 2
23.788 59.1171 0.0126108
25.0331 60.8989 0.0126856
24.4313 62.792 2
23.6816 64.7252 3.98961
26.2292 63.498 0.0120095
25.5478 65.5064 2
24.8092 67.6008 3.99176
27.4638 66.1955 0.0104677
26.8367 68.3394 2
26.1656 70.6072 3.99498
28.9067 68.9503 0.008364
28.3703 71.2665 2
27.7943 73.7221 4
30.6149 71.7809 0.00513565
30.1841 74.2794 2
32.6054 74.6784 0
29.8098 7.98209 3.98955
31.2518 5.32618 3.99188
31.7873 7.40917 2
32.9803 2.69909 3.99518
33.3466 4.91921 2
33.7229 6.97033 0.0101133
35.0474 0.080333 4
35.2445 2.46087 2
35.4344 4.68068 0.00795455
37.5 0 2
37.5141 2.38496 0.00472127
39.9526 0.0806499 0
40.9635 35.7965 3.95294
42.7704 35.7237 2
44.7929 35.5071 -0.0594199
28.5417 10.6772 3.98785
39.2166 34.1269 3.96031
40.866 34.1863 2
42.4279 34.1297 -0.0109996
48.5998 34.2525 0.0127074
45.2755 32.9999 0.0482797
42.8533 32.2468 -0.0394466
40.9171 32.6509 -0.00536816
46.5759 31.5338 2
43.8544 31.1891 2
41.3243 31.0798 2
39.2903 32.3333 2
44.6282 29.673 3.9809
42.0166 29.7776 3.94662
39.5403 30.3258 3.98797
37.4984 32.2095 3.97637
34.0908 12.9126 3.98609
35.6912 11.7561 2
37.3098 10.613 0.0127819
31.1846 11.9658 3.98684
33.0965 11.1981 2
34.7527 10.363 0.0125518
30.4806 10.002 2
32.3759 9.35521 0.0117056
47.9545 29.4994 0.0142639
47.1515 25.0398 0.0167323
36.5808 12.9106 0.0140178
44.2924 21.2792 0.0177154
41.7491 17.809 0.0155219
38.6797 14.7828 0.0147763
35.77 14.733 2
45.6811 27.6847 2
38.6802 17.5656 2
41.3433 20.6832 2
43.8273 23.9785 2
33.6059 15.8497 3.98487
43.1405 26.3783 3.97905
40.9279 23.2564 3.9827
38.4228 20.2918 3.98467
35.8467 17.4799 3.98443
39.2328 37.4826 3.94348
41.0063 37.4805 2
42.9088 37.4898 0.0115936
43.7439 54.4678 0.0137128
43.7537 50.5588 0.015075
40.9582 39.1762 0.0458856
42.0112 45.2181 0.0529953
42.0727 47.7541 0.0160666
39.5365 44.6819 0.00579028
39.2224 40.8786 0.0428353
37.5062 42.7867 0.0209443
41.8918 53.0402 2
39.2185 39.1688 2
37.5052 40.9197 2
40.9953 49.778 2
35.7164 42.6603 2
39.8836 46.113 2
37.4983 44.9477 2
39.8322 51.9568 3.98332
37.5002 39.1765 3.94921
35.7898 40.8772 3.96313
34.0885 42.3421 4.00697
35.4607 44.6558 3.99265
38.7466 48.9132 3.99542
37.498 46.3883 3.96616
40.4224 54.9739 0.0151497
38.733 53.9079 2
36.7191 53.2512 3.98696
35.3636 60.9405 0.0138737
36.9345 57.6611 0.0144921
38.0011 55.2899 0.0147674
34.4872 58.5535 2
36.3201 55.4216 2
33.2229 55.538 3.98506
32.356 59.7745 0.0136374
29.4024 60.3168 0.0136157
30.2946 57.8499 2
28.6726 55.3474 3.98462
28.0186 58.4057 0.0131202
26.9355 56.8613 2
25.2895 55.1914 3.98502
21.7887 55.3952 3.98545
25.3754 58.6288 0.0133826
23.8271 56.8489 2
20.2066 57.073 3.98692
20.6387 58.8165 3.98748
21.3238 57.4414 2
21.1638 61.1971 3.98853
21.9892 59.6559 2
22.7497 58.2787 0.0135018
21.8946 63.8545 3.98968
22.7345 62.045 2
23.3979 60.3807 0.0124908
24.4313 62.7916 0.0117783
23.6816 64.7256 2
22.8376 66.7452 3.99177
25.5478 65.5061 0.0104443
24.8092 67.6012 2
24.01 69.8086 3.99504
26.8367 68.3391 0.00830306
26.1657 70.6075 2
25.446 73.0099 4
28.3702 71.2662 0.00508554
27.7943 73.7222 2
30.1842 74.2788 0
27.8198 8.641 3.98936
29.154 5.8714 3.99172
29.8098 7.98174 2
30.7257 3.09603 3.99512
31.2519 5.32585 2
31.7873 7.40952 0.010304
32.6053 0.320823 4
32.9804 2.69885 2
33.3466 4.91953 0.00799082
35.0474 0.0802903 2
35.2444 2.4611 0.00479809
37.5 0 0
39.2253 35.8114 3.9487
40.9602 35.7956 2
42.7743 35.7229 0.00510042
28.5417 10.6768 2
26.6209 11.371 3.98801
29.2238 12.6222 3.98686
37.4962 34.0847 3.9567
39.2147 34.1239 2
40.8692 34.1878 0.0314222
46.5751 31.533 0.0185556
43.8536 31.1828 0.056428
41.3248 31.0774 -0.0215477
39.2918 32.3376 0.0146262
44.6291 29.672 2
42.0171 29.7806 2
39.5403 30.3226 2
37.4985 32.2047 2
42.472 28.3229 3.98412
39.8882 28.8931 3.96004
37.5025 30.0445 3.98616
35.7067 32.331 3.98419
31.9125 14.4568 3.98574
34.0908 12.9122 2
35.6912 11.7564 0.0136567
31.1846 11.9654 2
33.0965 11.1985 0.0128665
30.4806 10.0024 0.0118832
45.6806 27.6854 0.0188656
43.8271 23.979 0.0188939
35.77 14.7333 0.0145433
41.3433 20.6837 0.016685
38.6802 17.5659 0.0149493
33.6058 15.8493 2
35.8466 17.4795 2
43.1408 26.3776 2
38.4228 20.2914 2
40.9281 23.2559 2
33.548 17.358 3.98435
40.4941 25.5563 3.9801
38.0834 22.8226 3.98488
35.5834 20.0467 3.98301
37.5017 37.4904 3.94568
39.2312 37.4827 2
41.0095 37.4805 0.0523678
41.8918 53.0398 0.016041
40.9952 49.7779 0.0112468
39.2202 39.1671 0.0518865
39.8832 46.1112 0.0329177
37.4981 44.9434 0.00999251
37.5049 40.9163 0.0415257
35.7143 42.6564 0.0108529
39.8323 51.9569 2
37.5003 39.1782 2
35.7919 40.8801 2
38.7466 48.914 2
34.0916 42.343 2
35.4609 44.6582 2
37.4981 46.3903 2
37.6635 51.1079 3.98523
35.7844 39.1765 3.95163
34.1449 40.8118 3.9704
32.9347 41.9901 4.01498
33.6756 43.9096 4.02394
35.1138 46.084 3.96262
36.862 48.5027 3.98901
38.7329 53.9078 0.0145874
36.7191 53.2516 2
34.347 52.5251 3.98478
34.4872 58.5531 0.0142249
36.3201 55.4213 0.0145114
33.2229 55.5385 2
30.4958 53.4583 3.98334
30.2946 57.8495 0.0139919
28.6724 55.3479 2
26.8499 53.4998 3.98375
26.9356 56.8609 0.0141888
25.2893 55.1917 2
23.5383 53.5392 3.98453
20.4322 53.2833 3.98503
19.9151 55.879 3.98637
21.7885 55.3954 2
23.8273 56.8486 0.0142598
19.4291 57.9319 3.98727
20.2065 57.0733 2
19.7023 60.2337 3.98836
20.6386 58.8169 2
21.3239 57.4411 0.0134429
20.2064 62.8779 3.98984
21.1637 61.1975 2
21.9892 59.6555 0.0123442
20.9389 65.7752 3.99182
21.8946 63.8549 2
22.7345 62.0447 0.0117205
23.6816 64.7252 0.0103931
22.8377 66.7456 2
21.9127 68.8761 3.99504
24.8092 67.6008 0.0082377
24.0101 69.809 2
23.1494 72.1454 4
26.1656 70.6072 0.00501817
25.446 73.0099 2
27.7943 73.7221 0
25.8592 9.36804 3.98951
27.0689 6.53477 3.9916
27.8198 8.64064 2
28.488 3.64171 3.99502
29.154 5.87105 2
29.8098 7.98209 0.010451
30.1841 0.720592 4
30.7258 3.09576 2
31.2518 5.32618 0.00811932
32.6053 0.320817 2
32.9803 2.69909 0.00482018
35.0474 0.080333 0
37.5016 35.8103 3.94763
39.2236 35.8099 2
40.9635 35.7965 0.0470614
24.7759 12.0528 3.98815
23.7498 14.3337 3.98754
28.5417 10.6772 0.0121549
26.6209 11.3707 2
29.2237 12.6219 2
27.29 13.3537 3.98677
29.7786 14.1794 3.98657
35.78 34.1169 3.95967
37.4961 34.0816 2
39.2166 34.1269 0.0396919
37.4984 32.2095 0.0236284
44.6282 29.673 0.0191038
42.0166 29.7776 0.053377
39.5403 30.3258 0.0120299
42.4726 28.3223 2
39.8885 28.8918 2
37.5026 30.0402 2
35.7086 32.3265 2
40.112 27.4652 3.99036
37.5022 28.5978 3.9603
35.4634 30.3202 3.98761
34.0849 32.646 4.006
30.9241 16.8116 3.98536
31.9125 14.4565 2
34.0908 12.9126 0.0139131
31.1846 11.9658 0.0131621
43.1405 26.3783 0.0209463
40.9279 23.2564 0.0172974
33.6059 15.8497 0.0151287
35.8467 17.4799 0.0155684
38.4228 20.2918 0.0153256
33.548 17.3576 2
35.5833 20.0463 2
40.4942 25.5557 2
38.0834 22.8221 2
32.8606 19.7649 3.98317
37.7853 25.1395 3.98255
35.2039 22.6057 3.98156
35.7733 37.494 3.94576
37.5017 37.4905 2
39.2328 37.4826 0.0565188
39.8322 51.9568 0.016679
38.7466 48.9132 0.00457605
37.5002 39.1765 0.0507921
37.498 46.3883 0.0338434
35.4607 44.6558 0.00734848
35.7898 40.8772 0.0368694
34.0885 42.3421 -0.00696703
37.6635 51.1084 2
35.7862 39.1779 2
34.1483 40.813 2
36.862 48.5036 2
32.9381 41.9876 2
33.6764 43.9065 2
35.1135 46.0841 2
35.4059 50.2839 3.98237
34.0538 39.1879 3.95505
32.5774 40.8643 4.01229
32.1468 42.7453 4.04096
32.9865 45.2122 3.94711
34.2168 47.5165 3.98375
36.7191 53.2512 0.0130435
34.3469 52.5258 2
31.9575 51.2998 3.98171
33.2229 55.538 0.0149356
30.4956 53.4589 2
28.3809 51.7062 3.98193
28.6726 55.3474 0.0153842
26.8497 53.5002 2
25.0281 51.8431 3.98371
25.2895 55.1914 0.0149771
23.5381 53.5395 2
21.9147 51.8773 3.98492
19.1551 51.6963 3.98549
18.8955 54.3592 3.98561
20.432 53.2834 2
18.4344 56.7659 3.9871
19.915 55.8793 2
21.7887 55.3952 0.0145535
18.3627 59.1444 3.98803
19.429 57.9322 2
20.2066 57.073 0.0130766
18.6165 61.7879 3.98974
19.7022 60.2341 2
20.6387 58.8165 0.0125197
19.1275 64.6874 3.99189
20.2064 62.8783 2
21.1638 61.1971 0.0114675
19.8868 67.8132 3.99507
20.939 65.7757 2
21.8946 63.8545 0.010317
22.8376 66.7452 0.00823013
21.9128 68.8765 2
20.9142 71.1327 4
24.01 69.8086 0.00496388
23.1494 72.1455 2
25.446 73.0099 0
23.0953 12.7663 3.9883
23.972 10.1536 3.9896
25.0229 7.3041 3.99167
25.8592 9.36769 2
26.2798 4.32561 3.99496
27.069 6.5344 2
27.8198 8.641 0.0106395
27.7943 1.27781 4
28.4881 3.64142 2
29.154 5.8714 0.0082831
30.1841 0.720551 2
30.7257 3.09603 0.00488125
32.6053 0.320823 0
35.7797 35.8134 3.94938
37.5015 35.8088 2
39.2253 35.8114 0.0513021
24.7759 12.0525 2
23.7498 14.3334 2
22.4781 15.0084 3.98773
25.3561 13.8843 3.98718
24.0225 15.5935 3.98711
26.6209 11.371 0.0119949
29.2238 12.6222 0.0131424
27.2899 13.3534 2
29.7785 14.1791 2
28.3547 15.9513 3.98626
34.1361 34.1807 3.96874
35.7817 34.1138 2
37.4962 34.0847 0.0432968
35.7067 32.331 0.0158111
37.5025 30.0445 0.0138395
42.472 28.3229 0.0158815
39.8882 28.8931 0.0399618
40.1123 27.464 2
37.5023 28.5954 2
35.4635 30.3168 2
34.0879 32.6447 2
37.5999 27.1054 3.99291
35.115 28.8862 3.9606
33.6781 31.0748 4.02391
32.9333 33.0013 4.01721
30.2049 19.3129 3.98532
30.9241 16.8113 2
31.9125 14.4568 0.0142613
40.4941 25.5563 0.0198991
38.0834 22.8226 0.0151209
33.548 17.358 0.0156486
35.5834 20.0467 0.0169864
32.8606 19.7644 2
35.204 22.6053 2
37.7853 25.1389 2
32.3055 22.3785 3.98282
34.9309 25.1109 3.97949
34.0023 37.4951 3.94904
35.775 37.4939 2
37.5017 37.4904 0.0543203
37.6635 51.1079 0.0147689
36.862 48.5027 0.01099
35.7844 39.1765 0.0483665
35.1138 46.084 0.0373824
33.6756 43.9096 -0.0239409
34.1449 40.8118 0.029595
32.9347 41.9901 -0.0149785
35.4057 50.2848 2
34.0572 39.1885 2
32.581 40.8625 2
34.2166 47.517 2
32.1492 42.7385 2
32.9858 45.2086 2
33.1528 49.2758 3.97968
32.2321 39.2683 3.99619
30.9655 41.2371 4.05039
31.1485 43.8125 3.94308
32.1049 46.4448 3.98222
34.347 52.5251 0.0152169
31.9573 51.3005 2
29.7759 49.8295 3.98018
30.4958 53.4583 0.016659
28.3806 51.7067 2
26.4287 50.0948 3.98276
26.8499 53.4998 0.0162542
25.0278 51.8433 2
23.2703 50.2801 3.98537
23.5383 53.5392 0.0154698
21.9145 51.8773 2
20.405 50.3856 3.98614
17.9383 50.3882 3.98642
17.7994 52.8447 3.98563
19.1549 51.6965 2
17.4186 55.3847 3.98643
18.8954 54.3594 2
20.4322 53.2833 0.0149692
17.1266 57.9091 3.98793
18.4343 56.7662 2
19.9151 55.879 0.0136308
17.133 60.574 3.98944
18.3627 59.1448 2
19.4291 57.9319 0.0127292
17.4075 63.4816 3.99184
18.6165 61.7883 2
19.7023 60.2337 0.0116429
17.9429 66.6222 3.99508
19.1276 64.6878 2
20.2064 62.8779 0.0101615
18.75 69.9759 4
19.8869 67.8136 2
20.9389 65.7752 0.00817861
21.9127 68.8761 0.0049569
20.9142 71.1327 2
23.1494 72.1454 0
21.586 13.5847 3.98848
22.1903 11.0118 3.98967
23.0953 12.7659 2
23.0411 8.16871 3.99174
23.972 10.1533 2
24.1176 5.13998 3.99496
25.023 7.30373 2
25.8592 9.36804 0.010485
25.446 1.99014 4
26.2799 4.3253 2
27.0689 6.53477 0.00839619
27.7943 1.27778 2
28.488 3.64171 0.00498471
30.1841 0.720592 0
34.0462 35.8027 3.953
35.7814 35.8118 2
37.5016 35.8103 0.0523658
21.3028 15.802 3.98749
24.7759 12.0528 0.0118533
23.7498 14.3337 0.0124589
25.3561 13.884 2
22.4781 15.008 2
24.0225 15.5932 2
23.2614 16.2233 3.98685
25.3779 16.0615 3.98685
27.29 13.3537 0.0132265
29.7786 14.1794 0.013433
28.3547 15.9511 2
27.4361 18.7689 3.98607
32.574 34.1288 4.01242
34.1392 34.1792 2
35.78 34.1169 0.040331
34.0849 32.646 -0.00599821
35.4634 30.3202 0.0123942
37.5022 28.5978 0.039704
40.112 27.4652 0.00964146
37.5999 27.1037 2
32.9364 33.0036 2
35.1149 28.8847 2
33.6787 31.0775 2
34.9938 27.2666 3.99163
32.9869 29.778 3.94712
32.1497 32.2475 4.0427
29.5645 21.9075 3.98659
30.2048 19.3125 2
30.9241 16.8116 0.0146445
37.7853 25.1395 0.0174481
35.2039 22.6057 0.0184427
32.8606 19.7649 0.0168289
32.3055 22.3781 2
34.9307 25.1105 2
31.6114 25.5527 3.98098
32.0956 37.4984 3.98878
34.0056 37.495 2
35.7733 37.494 0.0542441
35.4059 50.2839 0.0176299
34.2168 47.5165 0.0162463
34.0538 39.1879 0.0449501
32.9865 45.2122 0.0528899
32.1468 42.7453 -0.0409574
32.5774 40.8643 -0.0122854
33.1525 49.2767 2
32.2361 39.2673 2
30.9686 41.2307 2
32.1043 46.4452 2
31.1475 43.8058 2
31.0138 48.0228 3.97728
30.2044 39.4909 4.05984
29.7239 41.9995 3.95123
30.18 45.0159 3.98033
31.9575 51.2998 0.0182947
29.7756 49.8301 2
27.7536 48.3002 3.98257
28.3809 51.7062 0.0180702
26.4283 50.0951 2
24.5481 48.5659 3.98635
25.0281 51.8431 0.0162858
23.2701 50.28 2
21.5694 48.8696 3.98742
21.9147 51.8773 0.0150759
20.4049 50.3856 2
18.9698 49.1561 3.98742
16.8443 49.3837 3.98685
16.7353 51.4585 3.98609
17.9381 50.3884 2
16.3653 53.9161 3.98616
17.7993 52.8449 2
19.1551 51.6963 0.0145065
15.9652 56.5129 3.98751
17.4185 55.385 2
18.8955 54.3592 0.0143942
15.7454 59.2376 3.98925
17.1265 57.9094 2
18.4344 56.7659 0.012899
15.7875 62.1542 3.99164
17.133 60.5744 2
18.3627 59.1444 0.0119722
16.0894 65.3053 3.99506
17.4075 63.4821 2
18.6165 61.7879 0.0102598
16.6661 68.6801 4
17.943 66.6226 2
19.1275 64.6874 0.00811389
18.75 69.9759 2
19.8868 67.8132 0.00493124
20.9142 71.1327 0
20.2176 14.5714 3.98827
21.586 13.5844 2
20.5297 11.9802 3.98976
21.1444 9.1377 3.99178
22.1903 11.0114 2
23.0953 12.7663 0.0117015
22.0167 6.07864 3.995
23.0412 8.16832 2
23.972 10.1536 0.0104009
23.1494 2.85457 4
24.1177 5.13964 2
25.0229 7.3041 0.0083266
25.446 1.99012 2
26.2798 4.32561 0.00504384
27.7943 1.27781 0
32.2299 35.7276 3.99238
34.0495 35.8018 2
35.7797 35.8134 0.0506194
21.3027 15.8016 2
20.299 16.9328 3.98742
22.0942 16.6059 3.98722
25.3561 13.8843 0.0128216
22.4781 15.0084 0.0122675
24.0225 15.5935 0.0128872
25.3779 16.0612 2
23.2613 16.223 2
24.2001 18.4187 3.98627
27.0026 21.4244 3.98638
28.3547 15.9513 0.0137445
27.436 18.7686 2
30.9665 33.7603 4.05163
32.577 34.1302 2
34.1361 34.1807 0.031259
32.9333 33.0013 -0.0172096
33.6781 31.0748 -0.0239074
35.115 28.8862 0.0394029
37.5999 27.1054 0.00708772
34.9935 27.2655 2
32.1521 32.2544 2
32.9865 29.7813 2
32.3845 28.0194 3.98634
31.1507 31.1887 3.9484
28.7329 24.3771 3.98574
29.5644 21.9071 2
30.2049 19.3129 0.0146801
34.9309 25.1109 0.0205092
32.3055 22.3785 0.0171822
31.6111 25.5522 2
29.5057 27.1848 3.98493
29.9219 37.4984 4.05753
32.0997 37.4982 2
34.0023 37.4951 0.0509577
33.1528 49.2758 0.0203203
32.1049 46.4448 0.0177797
32.2321 39.2683 0.00380569
31.1485 43.8125 0.056919
30.9655 41.2371 -0.0503889
31.0134 48.0233 2
30.2077 39.487 2
29.7228 41.9944 2
30.179 45.0169 2
29.0081 46.5569 3.9795
28.8076 39.8846 3.97023
28.4078 43.2036 3.98125
29.7759 49.8295 0.019825
27.7532 48.3007 2
25.7956 46.757 3.98748
26.4287 50.0948 0.0172429
24.5478 48.5658 2
22.6893 47.1673 3.98918
23.2703 50.2801 0.0146293
21.5692 48.8697 2
19.9038 47.6861 3.98841
20.405 50.3856 0.0138626
18.9696 49.1563 2
17.6121 48.2328 3.98726
16.0953 48.7303 3.98659
16.844 49.3839 2
15.8104 50.2178 3.98648
15.3507 52.4602 3.98624
16.7351 51.4587 2
17.9383 50.3882 0.0135847
14.8533 55.0155 3.98703
16.3652 53.9164 2
17.7994 52.8447 0.0143717
14.4533 57.7686 3.98891
15.9651 56.5132 2
17.4186 55.3847 0.0135655
14.2651 60.7108 3.99146
15.7453 59.238 2
17.1266 57.9091 0.0120668
14.3334 63.8651 3.99497
15.7875 62.1547 2
17.133 60.574 0.0105628
14.6715 67.2507 4
16.0895 65.3058 2
17.4075 63.4816 0.00816254
16.6661 68.6801 2
17.9429 66.6222 0.00491513
18.75 69.9759 0
18.9306 15.7553 3.98814
20.2176 14.571 2
18.9792 13.0891 3.98961
21.586 13.5847 0.0115152
20.5297 11.9798 2
19.3439 10.2246 3.99181
19.9914 7.14297 3.99502
21.1445 9.1373 2
22.1903 11.0118 0.0103312
20.9142 3.86727 4
22.0168 6.07828 2
23.0411 8.16871 0.00826473
23.1494 2.85451 2
24.1176 5.13998 0.00503774
25.446 1.99014 0
30.2031 35.5071 4.05347
32.2338 35.7282 2
34.0462 35.8027 0.0470002
21.3028 15.802 0.0125096
22.0941 16.6056 2
20.299 16.9325 2
19.2363 18.3761 3.98729
21.7778 17.8185 3.98699
25.3779 16.0615 0.0131535
23.2614 16.2233 0.0131528
24.2001 18.4185 2
22.2681 19.8549 3.9865
24.5778 21.2821 3.98599
26.3667 23.6804 3.98646
27.0026 21.424 2
27.4361 18.7689 0.0139302
29.7285 33.0024 3.95774
30.9689 33.7666 2
32.574 34.1288 -0.0124189
32.1497 32.2475 -0.0426961
32.9869 29.778 0.0528811
34.9938 27.2666 0.00836972
32.384 28.0185 2
31.1498 31.1959 2
29.883 29.4802 3.98486
27.7609 26.4939 3.98243
28.7327 24.3765 2
29.5645 21.9075 0.0134142
31.6114 25.5527 0.0190207
29.5051 27.1841 2
28.4676 37.4973 3.97033
29.9252 37.4987 2
32.0956 37.4984 0.0112245
31.0138 48.0228 0.0227222
30.18 45.0159 0.0196655
30.2044 39.4909 -0.059837
29.7239 41.9995 0.048773
29.0075 46.5574 2
28.8073 39.881 2
28.4069 43.2027 2
27.0629 44.9043 3.98469
26.5226 40.6356 3.98771
27.7536 48.3002 0.0174322
25.7953 46.7568 2
23.8192 45.293 3.99088
24.5481 48.5659 0.0136486
22.6889 47.1674 2
20.8176 45.965 3.98882
21.5694 48.8696 0.0125792
19.9034 47.6863 2
18.2477 46.7912 3.98727
18.9698 49.1561 0.012583
17.6118 48.233 2
16.2811 47.7588 3.9863
16.0951 48.7305 2
15.1549 49.0587 3.98629
16.8443 49.3837 0.0131521
15.8102 50.218 2
14.4616 51.0265 3.9864
13.8121 53.4717 3.98682
15.3506 52.4605 2
16.7353 51.4585 0.0139091
13.2463 56.1978 3.98841
14.8533 55.0158 2
16.3653 53.9161 0.01384
12.8471 59.1462 3.9912
14.4532 57.769 2
15.9652 56.5129 0.0124934
12.6786 62.3084 3.99485
14.2651 60.7113 2
15.7454 59.2376 0.0107493
12.7746 65.6939 4
14.3335 63.8656 2
15.7875 62.1542 0.00835786
14.6714 67.2507 2
16.0894 65.3053 0.00493526
16.6661 68.6801 0
17.6639 17.1277 3.98789
18.9306 15.755 2
17.5101 14.3506 3.98944
20.2176 14.5714 0.0117276
18.9792 13.0887 2
17.6394 11.4421 3.99172
20.5297 11.9802 0.0102437
19.3439 10.2241 2
18.0517 8.3354 3.99503
18.75 5.0241 4
19.9916 7.14259 2
21.1444 9.1377 0.00822385
20.9142 3.86727 2
22.0167 6.07864 0.00500466
23.1494 2.85457 0
28.8011 35.1109 3.96678
30.2063 35.5113 2
32.2299 35.7276 0.00762034
22.0942 16.6059 0.0127797
20.299 16.9328 0.0125778
21.7777 17.8182 2
19.2362 18.3758 2
17.9685 19.9043 3.98718
20.8677 19.3414 3.9869
24.2001 18.4187 0.0137291
22.268 19.8546 2
24.5777 21.2818 2
22.3387 21.6748 3.98643
24.6544 23.1244 3.98654
25.3608 25.905 3.98342
26.3665 23.6799 2
27.0026 21.4244 0.0136198
28.0789 32.2684 3.98786
29.727 33.0076 2
30.9665 33.7603 -0.0516307
31.1507 31.1887 0.0516025
32.3845 28.0194 0.0136587
29.8823 29.4791 2
26.8474 29.0971 3.97755
27.7604 26.4933 2
28.7329 24.3771 0.0142632
29.5057 27.1848 0.0150714
26.631 37.3651 3.98931
28.4681 37.4969 2
29.9219 37.4984 -0.0575269
29.0081 46.5569 0.0204952
28.4078 43.2036 0.0187505
28.8076 39.8846 0.0297653
27.0625 44.9039 2
26.5218 40.6355 2
25.0262 43.2212 3.98965
23.777 39.4376 3.98324
25.7956 46.757 0.0125159
23.8188 45.2933 2
21.7764 44.0092 3.98759
22.6893 47.1673 0.0108204
20.8171 45.9653 2
18.8951 45.0191 3.98678
19.9038 47.6861 0.0115911
18.2473 46.7913 2
16.5634 46.2541 3.98594
17.6121 48.2328 0.0127384
16.2808 47.759 2
14.8807 47.7095 3.98577
16.0953 48.7303 0.0134076
15.1547 49.0589 2
13.7572 49.5842 3.98623
15.8104 50.2178 0.0135176
14.4615 51.0268 2
12.8765 51.9092 3.98674
12.1318 54.5567 3.98803
13.8121 53.472 2
15.3507 52.4602 0.0137558
11.5308 57.4798 3.99077
13.2463 56.1982 2
14.8533 55.0155 0.0129697
11.1332 60.6355 3.99469
12.8471 59.1467 2
14.4533 57.7686 0.0110898
10.9835 64.0165 4
12.6787 62.3089 2
14.2651 60.7108 0.00853947
12.7745 65.694 2
14.3334 63.8651 0.00502565
14.6715 67.2507 0
16.3942 18.6181 3.98779
17.6638 17.1273 2
16.1005 15.757 3.98923
18.9306 15.7553 0.0118605
17.5101 14.3502 2
16.0209 12.7936 3.99156
18.9792 13.0891 0.0103884
17.6395 11.4416 2
16.2029 9.65791 3.99499
19.3439 10.2246 0.00819431
18.0518 8.33498 2
16.6661 6.31991 4
18.75 5.02404 2
19.9914 7.14297 0.00497976
20.9142 3.86727 0
27.1433 34.7412 3.9943
28.801 35.1141 2
30.2031 35.5071 -0.0534687
16.6638 21.3356 3.98657
21.7778 17.8185 0.0130054
19.2363 18.3761 0.0127128
20.8676 19.3411 2
17.9684 19.904 2
19.706 21.5295 3.98679
22.2681 19.8549 0.0135003
24.5778 21.2821 0.0140065
22.3386 21.6745 2
24.6542 23.124 2
22.785 24.5543 3.98494
24.4036 28.4847 3.98141
25.3603 25.9046 2
26.3667 23.6804 0.0135429
25.9279 31.6799 3.98061
28.0777 32.2685 2
29.7285 33.0024 0.0422618
29.883 29.4802 0.0151422
26.847 29.097 2
27.7609 26.4939 0.0175726
24.454 36.8549 3.98878
26.6304 37.3651 2
28.4676 37.4973 0.0296679
27.0629 44.9043 0.015312
26.5226 40.6356 0.0122889
25.0256 43.2214 2
23.7765 39.4378 2
22.8111 41.84 3.98436
21.542 38.5039 3.98666
23.8192 45.293 0.00911971
21.7759 44.0097 2
19.632 42.927 3.98554
20.8176 45.965 0.0111835
18.8947 45.0192 2
16.8828 44.4153 3.98576
18.2477 46.7912 0.0127303
16.5631 46.2543 2
14.7957 46.1252 3.98538
16.2811 47.7588 0.013702
14.8804 47.7097 2
13.2612 48.043 3.98573
15.1549 49.0587 0.0137115
13.757 49.5845 2
12.0935 50.2851 3.98653
14.4616 51.0265 0.0135981
12.8764 51.9095 2
11.1257 52.8648 3.98775
10.3203 55.7325 3.99029
12.1317 54.5571 2
13.8121 53.4717 0.0131814
9.69988 58.8593 3.99443
11.5308 57.4803 2
13.2463 56.1978 0.0115896
9.30605 62.2254 4
11.1333 60.636 2
12.8471 59.1462 0.00879914
10.9835 64.0165 2
12.6786 62.3084 0.00514873
12.7746 65.6939 0
15.1358 20.1495 3.98735
16.3941 18.6177 2
14.7451 17.2768 3.98898
17.6639 17.1277 0.012107
16.1005 15.7566 2
14.4831 14.2731 3.99136
17.5101 14.3506 0.0105616
16.021 12.7931 2
14.4455 11.1084 3.99489
17.6394 11.4421 0.00827588
16.203 9.65747 2
14.6715 7.74927 4
18.0517 8.3354 0.00497344
16.6661 6.31988 2
18.75 5.0241 0
25.0963 34.2592 3.99303
27.1426 34.7416 2
28.8011 35.1109 0.0332231
17.8311 22.2786 3.98695
15.5029 22.8771 3.98604
16.6637 21.3353 2
20.8677 19.3414 0.0131031
17.9685 19.9043 0.0128229
19.7059 21.5292 2
19.6149 24.3344 3.98557
22.3387 21.6748 0.0135656
24.6544 23.1244 0.0134558
22.7846 24.5539 2
21.7996 27.7778 3.98206
23.5604 31.1496 3.98415
24.4033 28.4846 2
25.3608 25.905 0.0165813
25.9271 31.6801 2
28.0789 32.2684 0.0121398
26.8474 29.0971 0.0224546
22.243 36.2553 3.99166
24.4535 36.8552 2
26.631 37.3651 0.0106868
25.0262 43.2212 0.0103483
23.777 39.4376 0.0167574
22.8105 41.8403 2
21.5415 38.5037 2
20.5393 40.6527 3.98369
19.9114 37.7813 3.98902
21.7764 44.0092 0.0124132
19.6316 42.9272 2
17.2668 42.1259 3.98511
18.8951 45.0191 0.0132221
16.8824 44.4154 2
14.7904 44.229 3.98516
16.5634 46.2541 0.0140628
14.7953 46.1254 2
12.9293 46.3257 3.98534
14.8807 47.7095 0.0142286
13.2609 48.0432 2
11.4626 48.5791 3.98609
13.7572 49.5842 0.0137739
12.0933 50.2854 2
10.2499 51.1067 3.98742
12.8765 51.9092 0.0132623
11.1256 52.8652 2
9.22817 53.9104 3.98984
8.38349 56.9934 3.99406
10.3203 55.733 2
12.1318 54.5567 0.0119729
7.74927 60.3285 4
9.69996 58.8598 2
11.5308 57.4798 0.00923109
9.306 62.2255 2
11.1332 60.6355 0.0053094
10.9835 64.0165 0
13.9444 21.7144 3.98701
15.1357 20.1492 2
13.4442 18.8714 3.98857
16.3942 18.6181 0.0122122
14.7451 17.2764 2
13.0282 15.8634 3.9911
16.1005 15.757 0.010766
14.4832 14.2726 2
12.7827 12.681 3.99475
16.0209 12.7936 0.00843684
14.4456 11.108 2
12.7746 9.30605 4
16.2029 9.65791 0.0050108
14.6715 7.74924 2
16.6661 6.31991 0
22.8433 33.7684 3.99338
25.0956 34.2597 2
27.1433 34.7412 0.00570408
17.5881 23.9965 3.98624
17.8309 22.2783 2
14.2806 24.4096 3.98544
15.5027 22.8768 2
16.6638 21.3356 0.0134337
18.9509 27.158 3.98289
19.706 21.5295 0.0132124
19.6147 24.3341 2
21.0225 30.6253 3.98291
22.785 24.5543 0.0150587
21.7993 27.7777 2
23.5598 31.1497 2
24.4036 28.4847 0.018594
25.9279 31.6799 0.0193867
20.0206 35.9076 3.99099
22.2425 36.2552 2
24.454 36.8549 0.0112249
22.8111 41.84 0.0156384
21.542 38.5039 0.013341
20.5389 40.6526 2
19.9109 37.7812 2
17.9224 39.0088 3.98701
19.632 42.927 0.0144609
17.2664 42.1259 2
14.7296 41.9378 3.9853
16.8828 44.4153 0.0142377
14.7901 44.2291 2
12.6651 44.4167 3.98521
14.7957 46.1252 0.0146229
12.929 46.3259 2
10.9617 46.7595 3.98565
13.2612 48.043 0.0142671
11.4624 48.5794 2
9.51159 49.2643 3.98694
12.0935 50.2851 0.013474
10.2498 51.107 2
8.26018 52.0224 3.98937
11.1257 52.8648 0.0122509
9.22816 53.9109 2
7.19241 55.0446 3.99366
6.31991 58.3339 4
8.38357 56.9939 2
10.3203 55.7325 0.00971094
7.74924 60.3285 2
9.69988 58.8593 0.00557421
9.30605 62.2254 0
13.2001 25.3263 3.98611
12.808 23.2439 3.98661
13.9442 21.7141 2
12.2275 20.5191 3.98821
15.1358 20.1495 0.0126508
13.4442 18.871 2
11.6573 17.5425 3.9908
14.7451 17.2768 0.0110247
13.0282 15.8629 2
11.2201 14.3648 3.99457
14.4831 14.2731 0.00863652
12.7828 12.6805 2
10.9835 10.9835 4
14.4455 11.1084 0.00511235
12.7745 9.306 2
14.6715 7.74927 0
20.4185 33.366 3.98943
22.8427 33.7686 2
25.0963 34.2592 0.00696579
15.851 26.3588 3.98436
17.5878 23.9962 2
17.8311 22.2786 0.0130511
14.2804 24.4093 2
15.5029 22.8771 0.0139638
18.279 30.137 3.98259
18.9507 27.1579 2
19.6149 24.3344 0.0144259
21.022 30.6254 2
21.7996 27.7778 0.0179374
23.5604 31.1496 0.0158495
17.5375 35.9539 3.99163
20.02 35.9077 2
22.243 36.2553 0.00834428
20.5393 40.6527 0.0163134
19.9114 37.7813 0.010976
17.9221 39.0087 2
14.2275 39.1838 3.98778
17.2668 42.1259 0.0148859
14.7293 41.9378 2
12.3471 42.2953 3.98638
14.7904 44.229 0.0148432
12.6648 44.4168 2
10.5362 44.8241 3.98547
12.9293 46.3257 0.0146647
10.9615 46.7597 2
8.89247 47.3407 3.98642
11.4626 48.5791 0.0139076
9.51144 49.2646 2
7.4262 50.0543 3.98879
10.2499 51.1067 0.0125794
8.26014 52.0229 2
6.13276 53.0196 3.99322
9.22817 53.9104 0.0101567
7.19247 55.0451 2
5.0241 56.25 4
6.31988 58.3339 2
8.38349 56.9934 0.00593536
7.74927 60.3285 0
13.431 26.78 3.98457
11.9187 24.7547 3.98587
13.1999 25.326 2
11.1281 22.2039 3.98778
12.8078 23.2436 2
13.9444 21.7144 0.0129939
12.2274 20.5187 2
10.3865 19.2962 3.99048
13.4442 18.8714 0.0114259
11.6573 17.542 2
9.76099 16.1468 3.99438
13.0282 15.8634 0.00889573
11.2202 14.3643 2
9.30607 12.7746 4
12.7827 12.681 0.00524936
10.9835 10.9835 2
12.7746 9.30605 0
17.7316 33.0868 3.98769
20.418 33.3662 2
22.8433 33.7684 0.00662091
15.4274 29.6037 3.98366
15.8509 26.3586 2
17.5881 23.9965 0.0137576
14.2806 24.4096 0.014563
18.2786 30.137 2
18.9509 27.158 0.0171087
21.0225 30.6253 0.0170887
14.8095 36.0108 3.99047
17.537 35.9539 2
20.0206 35.9076 0.00901336
12.5302 37.8317 3.98766
17.9224 39.0088 0.0129897
14.2272 39.1837 2
11.8561 40.1531 3.988
14.7296 41.9378 0.0147004
12.3469 42.2953 2
10.1322 42.7949 3.98612
12.6651 44.4167 0.0147857
10.5359 44.8242 2
8.36884 45.3395 3.98603
10.9617 46.7595 0.0143463
8.89229 47.341 2
6.71665 48.0177 3.98813
9.51159 49.2643 0.0130595
7.42613 50.0548 2
5.20914 50.9225 3.99268
8.26018 52.0224 0.0106265
6.1328 53.0202 2
3.86727 54.0858 4
7.19241 55.0446 0.00633725
5.02404 56.25 2
6.31991 58.3339 0
12.8812 29.0044 3.98415
11.3458 26.4578 3.98519
13.4308 26.7798 2
10.1852 23.9395 3.98696
11.9186 24.7544 2
13.2001 25.3263 0.0138905
9.23733 21.115 3.99001
11.128 22.2035 2
12.808 23.2439 0.0133904
12.2275 20.5191 0.0117908
10.3865 19.2957 2
8.41685 18.0163 3.99414
11.6573 17.5425 0.00919827
9.76108 16.1462 2
7.74928 14.6715 4
11.2201 14.3648 0.00542754
9.30602 12.7745 2
10.9835 10.9835 0
14.4106 32.8403 3.98683
17.7311 33.0869 2
20.4185 33.366 0.0105725
15.4271 29.6036 2
15.851 26.3588 0.0156374
18.279 30.137 0.0174123
12.8137 36.2043 3.98863
14.809 36.0108 2
17.5375 35.9539 0.00836876
12.5298 37.8317 2
11.2127 38.3158 3.98766
14.2275 39.1838 0.0122226
11.8558 40.1532 2
9.71465 40.7664 3.9874
12.3471 42.2953 0.0136186
10.132 42.7949 2
7.91626 43.2847 3.98634
10.5362 44.8241 0.0145336
8.36865 45.3396 2
6.12204 45.9206 3.98755
8.89247 47.3407 0.0135844
6.71654 48.0181 2
4.42027 48.7625 3.99203
7.4262 50.0543 0.0112144
5.20915 50.9231 2
2.85457 51.8506 4
6.13276 53.0196 0.00677613
3.86727 54.0858 2
5.0241 56.25 0
12.0183 31.2334 3.98723
10.7558 28.39 3.9845
12.881 29.0043 2
9.39843 25.773 3.98624
11.3457 26.4576 2
13.431 26.78 0.0154315
8.22327 23.0014 3.98917
10.1851 23.9391 2
11.9187 24.7547 0.014132
7.1988 19.9653 3.99379
9.23731 21.1145 2
11.1281 22.2039 0.012223
10.3865 19.2962 0.00952396
8.41693 18.0158 2
6.31992 16.6661 4
9.76099 16.1468 0.00562178
7.74926 14.6714 2
9.30607 12.7746 0
12.0269 34.2811 3.98557
14.4103 32.8404 2
17.7316 33.0868 0.0123113
15.4274 29.6037 0.0163366
10.776 36.6107 3.98843
12.8133 36.2044 2
14.8095 36.0108 0.00952923
12.5302 37.8317 0.0123352
11.2124 38.3158 2
9.30776 38.8303 3.98805
11.8561 40.1531 0.0120014
9.71441 40.7664 2
7.52549 41.222 3.98723
10.1322 42.7949 0.0138787
7.91607 43.2848 2
5.63305 43.7807 3.98748
8.36884 45.3395 0.0139667
6.12191 45.9208 2
3.76553 46.5472 3.99136
6.71665 48.0177 0.0118715
4.42025 48.763 2
1.99014 49.554 4
5.20914 50.9225 0.00732249
2.85451 51.8506 2
3.86727 54.0858 0
10.8809 32.9018 3.98687
10.0664 30.3618 3.98607
12.018 31.2333 2
8.70522 27.7106 3.98545
10.7556 28.3899 2
12.8812 29.0044 0.0158492
7.34781 24.9626 3.98834
9.39832 25.7727 2
11.3458 26.4578 0.0148118
6.1154 21.9889 3.9932
8.22322 23.0009 2
10.1852 23.9395 0.0130434
5.02411 18.75 4
7.19885 19.9648 2
9.23733 21.115 0.00999289
8.41685 18.0163 0.00585794
6.3199 16.6661 2
7.74928 14.6715 0
10.3925 34.9926 3.98586
12.0266 34.2811 2
14.4106 32.8403 0.0131684
8.98009 36.986 3.98852
10.7756 36.6108 2
12.8137 36.2043 0.0113668
11.2127 38.3158 0.0123389
9.30748 38.8303 2
7.20445 39.1881 3.98807
9.71465 40.7664 0.0126032
7.52528 41.2221 2
5.2472 41.623 3.98807
7.91626 43.2847 0.0136607
5.63291 43.7808 2
3.24279 44.2905 3.991
6.12204 45.9206 0.012451
3.76549 46.5476 2
1.27781 47.2057 4
4.42027 48.7625 0.00797226
1.99012 49.554 2
2.85457 51.8506 0
10.0496 33.8695 3.98556
9.35773 32.1385 3.98701
10.8806 32.9017 2
8.05308 29.6781 3.986
10.0662 30.3617 2
12.0183 31.2334 0.0127727
6.59077 26.9912 3.98743
8.70508 27.7104 2
10.7558 28.39 0.0155025
5.17024 24.0825 3.99248
7.34775 24.9622 2
9.39843 25.773 0.0137623
3.86728 20.9142 4
6.11543 21.9883 2
8.22327 23.0014 0.0108309
5.02406 18.75 2
7.1988 19.9653 0.00620936
6.31992 16.6661 0
8.80899 35.2742 3.98707
10.3922 34.9926 2
12.0269 34.2811 0.0144268
6.98834 37.2067 3.9888
8.97977 36.986 2
10.776 36.6107 0.0115705
9.30776 38.8303 0.0119524
7.20421 39.1882 2
4.97382 39.4725 3.98895
7.52549 41.222 0.0127728
5.24704 41.6231 2
2.85279 42.0086 3.99119
5.63305 43.7807 0.0125152
3.24274 44.2908 2
0.720592 44.8159 4
3.76553 46.5472 0.00864025
1.27778 47.2057 2
1.99014 49.554 0
8.85351 33.6869 3.98673
10.0493 33.8694 2
7.48872 31.5955 3.98711
9.35747 32.1384 2
10.8809 32.9018 0.0131326
5.93522 29.0553 3.98723
8.05293 29.678 2
10.0664 30.3618 0.0139266
4.35747 26.2363 3.99165
6.59069 26.9909 2
8.70522 27.7106 0.014552
2.85458 23.1494 4
5.17026 24.082 2
7.34781 24.9626 0.0116622
3.86728 20.9142 2
6.1154 21.9889 0.0068049
5.02411 18.75 0
6.93997 35.3017 3.98809
8.80869 35.2742 2
10.3925 34.9926 0.0141397
4.8239 37.3406 3.98962
6.98807 37.2067 2
8.98009 36.986 0.0114783
7.20445 39.1881 0.011926
4.97364 39.4726 2
2.60031 39.7176 3.99178
5.2472 41.623 0.0119289
2.85271 42.0089 2
0.320823 42.3947 4
3.24279 44.2905 0.00900116
0.720551 44.8159 2
1.27781 47.2057 0
7.10155 33.4517 3.98734
8.85325 33.6869 2
10.0496 33.8695 0.0144404
5.40478 31.1222 3.98808
7.4885 31.5954 2
9.35773 32.1385 0.0129862
3.67882 28.4338 3.99108
5.93512 29.055 2
8.05308 29.6781 0.0140046
1.99015 25.446 4
4.35746 26.2358 2
6.59077 26.9912 0.0125741
2.85453 23.1494 2
5.17024 24.0825 0.0075216
3.86728 20.9142 0
4.83891 35.2479 3.9892
6.93971 35.3016 2
8.80899 35.2742 0.0129348
2.49161 37.4289 3.99226
4.82369 37.3406 2
6.98834 37.2067 0.0111967
4.97382 39.4725 0.0110517
2.60021 39.7177 2
0.080333 39.9526 4
2.85279 42.0086 0.0088138
0.320817 42.3947 2
0.720592 44.8159 0
5.03333 33.1825 3.98847
7.10133 33.4517 2
8.85351 33.6869 0.0132724
3.14255 30.6583 3.9914
5.40463 31.122 2
7.48872 31.5955 0.0128919
1.27793 27.7943 4
3.6788 28.4334 2
5.93522 29.0553 0.0127731
1.99013 25.446 2
4.35747 26.2363 0.00835345
2.85458 23.1494 0
2.54402 35.1562 3.99211
4.83871 35.2479 2
6.93997 35.3017 0.0119102
0 37.5 4
2.4915 37.4289 2
4.8239 37.3406 0.0103825
2.60031 39.7176 0.0082187
0.0802903 39.9526 2
0.320823 42.3947 0
2.76209 32.9002 3.99165
5.03316 33.1824 2
7.10155 33.4517 0.0126559
0.721173 30.1842 4
3.14249 30.6579 2
5.40478 31.1222 0.0119203
1.27779 27.7943 2
3.67882 28.4338 0.00892406
1.99015 25.446 0
0.0806499 35.0474 4
2.54392 35.1561 2
4.83891 35.2479 0.0107968
0 37.5 2
2.49161 37.4289 0.00773519
0.080333 39.9526 0
0.32156 32.6054 4
2.76201 32.8999 2
5.03333 33.1825 0.0115265
0.72056 30.1841 2
3.14255 30.6583 0.00859984
1.27793 27.7943 0
0.0802889 35.0474 2
2.54402 35.1562 0.00788946
0 37.5 0
0.320817 32.6053 2
2.76209 32.9002 0.00835484
0.721173 30.1842 0
0.0806499 35.0474 0
0.32156 32.6054 0
CELLS 1910 17190
8 18 6 25 56 2 0 5 16
8 57 23 6 18 17 4 0 2
8 78 36 9 29 31 11 1 7
8 31 11 1 7 79 37 10 30
8 110 57 18 50 48 17 2 14
8 50 18 56 111 14 2 16 49
8 116 62 22 55 52 20 3 15
8 56 25 67 118 16 5 24 53
8 119 63 23 57 54 21 4 17
8 55 22 63 119 15 3 21 54
8 58 26 68 121 18 6 25 56
8 122 65 26 58 57 23 6 18
8 73 31 7 27 142 79 30 71
8 143 78 29 72 73 31 7 27
8 83 147 76 34 32 74 28 8
8 84 148 78 36 33 75 29 9
8 76 34 8 28 148 84 33 75
8 37 79 150 86 10 30 77 35
8 151 87 36 78 80 38 11 31
8 80 38 11 31 152 88 37 79
8 175 100 42 94 96 44 12 40
8 44 96 176 101 12 40 95 43
8 101 176 98 46 43 95 41 13
8 46 98 178 103 13 41 97 45
8 178 103 45 97 147 83 32 74
8 189 116 55 109 106 52 15 47
8 111 56 118 191 49 16 53 107
8 192 119 57 110 108 54 17 48
8 109 55 119 192 47 15 54 108
8 194 122 58 112 110 57 18 50
8 112 58 121 195 50 18 56 111
8 115 61 19 51 197 124 59 113
8 115 61 125 198 51 19 60 114
8 198 125 62 116 114 60 20 52
8 200 127 64 120 116 62 22 55
8 118 67 132 202 53 24 66 117
8 121 68 133 203 56 25 67 118
8 120 64 128 204 55 22 63 119
8 204 128 65 122 119 63 23 57
8 206 134 68 121 123 69 26 58
8 123 69 26 58 207 131 65 122
8 226 147 74 138 140 76 28 70
8 229 148 75 139 143 78 29 72
8 140 76 28 70 229 148 75 139
8 142 79 30 71 231 150 77 141
8 144 80 31 73 232 152 79 142
8 233 151 78 143 144 80 31 73
8 150 86 35 77 235 154 81 145
8 235 154 81 145 146 82 39 91
8 146 82 39 91 236 155 90 165
8 238 157 83 147 149 85 34 76
8 239 158 84 148 151 87 36 78
8 149 85 34 76 239 158 84 148
8 152 88 37 79 241 160 86 150
8 242 161 87 151 153 89 38 80
8 153 89 38 80 243 162 88 152
8 171 98 41 92 265 178 97 169
8 265 178 97 169 226 147 74 138
8 172 96 40 93 266 176 95 170
8 266 176 95 170 171 98 41 92
8 269 175 94 173 172 96 40 93
8 271 180 99 174 175 100 42 94
8 197 124 59 113 271 180 99 174
8 272 181 100 175 177 102 44 96
8 273 182 101 176 179 104 46 98
8 177 102 44 96 273 182 101 176
8 179 104 46 98 275 184 103 178
8 275 184 103 178 238 157 83 147
8 188 115 51 105 283 197 113 186
8 188 115 198 284 105 51 114 187
8 284 198 116 189 187 114 52 106
8 286 200 120 193 189 116 55 109
8 191 118 202 288 107 53 117 190
8 195 121 203 289 111 56 118 191
8 193 120 204 290 109 55 119 192
8 290 204 122 194 192 119 57 110
8 196 123 58 112 292 207 122 194
8 293 206 121 195 196 123 58 112
8 199 126 61 115 297 211 124 197
8 298 212 127 200 198 125 62 116
8 199 126 212 298 115 61 125 198
8 205 129 64 120 300 214 127 200
8 301 217 130 201 202 132 66 117
8 209 136 168 264 301 217 130 201
8 302 219 132 202 203 133 67 118
8 303 220 133 203 206 134 68 121
8 205 129 215 304 120 64 128 204
8 304 215 131 207 204 128 65 122
8 306 221 134 206 208 135 69 123
8 208 135 69 123 307 218 131 207
8 210 137 167 263 309 223 136 209
8 328 238 147 226 230 149 76 140
8 228 146 91 166 329 236 165 260
8 231 150 77 141 330 235 145 227
8 330 235 145 227 228 146 91 166
8 332 239 148 229 233 151 78 143
8 230 149 76 140 332 239 148 229
8 232 152 79 142 334 241 150 231
8 234 153 80 144 335 243 152 232
8 336 242 151 233 234 153 80 144
8 236 155 90 165 338 245 164 259
8 241 160 86 150 339 246 154 235
8 339 246 154 235 237 156 82 146
8 237 156 82 146 340 247 155 236
8 342 249 157 238 240 159 85 149
8 343 250 158 239 242 161 87 151
8 240 159 85 149 343 250 158 239
8 243 162 88 152 345 252 160 241
8 244 163 253 346 153 89 161 242
8 244 163 89 153 347 254 162 243
8 311 224 261 371 210 137 167 263
8 263 167 262 372 209 136 168 264
8 267 179 98 171 375 275 178 265
8 375 275 178 265 328 238 147 226
8 376 273 176 266 267 179 98 171
8 268 177 96 172 376 273 176 266
8 379 272 175 269 268 177 96 172
8 380 271 174 270 269 175 94 173
8 283 197 113 186 380 271 174 270
8 381 277 180 271 272 181 100 175
8 297 211 124 197 381 277 180 271
8 382 278 181 272 274 183 102 177
8 274 183 102 177 383 279 182 273
8 383 279 182 273 276 185 104 179
8 385 281 184 275 342 249 157 238
8 276 185 104 179 385 281 184 275
8 285 199 115 188 393 297 197 283
8 394 298 200 286 284 198 116 189
8 285 199 298 394 188 115 198 284
8 291 205 120 193 396 300 200 286
8 397 301 201 287 288 202 117 190
8 295 209 264 374 397 301 201 287
8 398 302 202 288 289 203 118 191
8 399 303 203 289 293 206 121 195
8 291 205 304 400 193 120 204 290
8 400 304 207 292 290 204 122 194
8 294 208 123 196 402 307 207 292
8 403 306 206 293 294 208 123 196
8 296 210 263 373 405 309 209 295
8 408 312 213 299 297 211 126 199
8 299 213 313 409 199 126 212 298
8 409 313 214 300 298 212 127 200
8 305 216 129 205 411 315 214 300
8 412 318 217 301 302 219 132 202
8 309 223 136 209 412 318 217 301
8 413 320 219 302 303 220 133 203
8 306 221 321 414 206 134 220 303
8 307 218 131 207 415 316 215 304
8 305 216 316 415 205 129 215 304
8 417 322 221 306 308 222 135 208
8 308 222 135 208 418 319 218 307
8 310 225 137 210 420 325 223 309
8 423 326 224 311 310 225 137 210
8 329 236 165 260 441 338 259 368
8 442 342 238 328 333 240 149 230
8 331 237 146 228 443 340 236 329
8 334 241 150 231 444 339 235 330
8 444 339 235 330 331 237 146 228
8 446 343 239 332 336 242 151 233
8 333 240 149 230 446 343 239 332
8 335 243 152 232 448 345 241 334
8 337 244 153 234 449 347 243 335
8 337 244 346 450 234 153 242 336
8 338 245 164 259 452 349 258 367
8 340 247 155 236 453 350 245 338
8 345 252 160 241 454 351 246 339
8 454 351 246 339 341 248 156 237
8 341 248 156 237 455 352 247 340
8 240 159 251 344 342 249 354 457
8 242 161 253 346 343 250 355 458
8 343 250 355 458 240 159 251 344
8 347 254 162 243 460 357 252 345
8 348 255 358 461 244 163 253 346
8 348 255 163 244 462 359 254 347
8 473 360 257 365 363 256 364 482
8 452 349 258 367 365 257 366 485
8 422 324 369 488 311 224 261 371
8 371 261 370 490 263 167 262 372
8 407 311 371 491 296 210 263 373
8 373 263 372 492 295 209 264 374
8 493 385 275 375 442 342 238 328
8 377 276 179 267 493 385 275 375
8 378 274 177 268 494 383 273 376
8 494 383 273 376 377 276 179 267
8 497 382 272 379 378 274 177 268
8 498 381 271 380 379 272 175 269
8 393 297 197 283 498 381 271 380
8 499 387 277 381 382 278 181 272
8 408 312 211 297 499 387 277 381
8 500 388 278 382 384 280 183 274
8 501 389 279 383 386 282 185 276
8 384 280 183 274 501 389 279 383
8 386 282 185 276 503 391 281 385
8 503 391 281 385 457 354 249 342
8 511 408 299 395 393 297 199 285
8 395 299 409 512 285 199 298 394
8 512 409 300 396 394 298 200 286
8 401 305 205 291 514 411 300 396
8 515 412 301 397 398 302 202 288
8 405 309 209 295 515 412 301 397
8 516 413 302 398 399 303 203 289
8 403 306 414 517 293 206 303 399
8 402 307 207 292 518 415 304 400
8 401 305 415 518 291 205 304 400
8 404 308 208 294 520 418 307 402
8 521 417 306 403 404 308 208 294
8 406 310 210 296 523 420 309 405
8 526 423 311 407 406 310 210 296
8 410 314 213 299 527 424 312 408
8 528 425 315 411 409 313 214 300
8 410 314 425 528 299 213 313 409
8 416 317 216 305 530 427 315 411
8 531 430 318 412 413 320 219 302
8 420 325 223 309 531 430 318 412
8 532 432 320 413 414 321 220 303
8 417 322 433 533 306 221 321 414
8 418 319 218 307 534 428 316 415
8 416 317 428 534 305 216 316 415
8 419 323 434 536 308 222 322 417
8 419 323 222 308 537 431 319 418
8 421 327 225 310 539 438 325 420
8 421 327 439 541 310 225 326 423
8 543 437 324 422 423 326 224 311
8 441 338 259 368 559 452 367 486
8 443 340 236 329 560 453 338 441
8 333 240 344 447 442 342 457 561
8 445 341 237 331 562 455 340 443
8 448 345 241 334 563 454 339 444
8 563 454 339 444 445 341 237 331
8 336 242 346 450 446 343 458 565
8 446 343 458 565 333 240 344 447
8 449 347 243 335 567 460 345 448
8 451 348 244 337 568 462 347 449
8 451 348 461 569 337 244 346 450
8 570 463 349 452 473 360 257 365
8 453 350 245 338 570 463 349 452
8 455 352 247 340 571 464 350 453
8 460 357 252 345 572 465 351 454
8 572 465 351 454 456 353 248 341
8 456 353 248 341 573 466 352 455
8 344 251 356 459 457 354 468 575
8 458 355 469 576 344 251 356 459
8 346 253 358 461 458 355 469 576
8 462 359 254 347 578 471 357 460
8 348 255 359 462 461 358 472 579
8 591 474 360 473 475 361 256 363
8 475 361 256 363 594 477 362 479
8 363 256 364 482 479 362 480 603
8 590 473 365 484 481 363 482 605
8 482 364 257 365 606 483 366 485
8 559 452 367 486 484 365 485 607
8 542 436 487 609 422 324 369 488
8 525 422 488 611 407 311 371 491
8 488 369 489 612 371 261 370 490
8 491 371 490 613 373 263 372 492
8 495 386 276 377 614 503 385 493
8 614 503 385 493 561 457 342 442
8 615 501 383 494 495 386 276 377
8 496 384 274 378 615 501 383 494
8 618 500 382 497 496 384 274 378
8 619 499 381 498 497 382 272 379
8 511 408 297 393 619 499 381 498
8 620 505 387 499 500 388 278 382
8 527 424 312 408 620 505 387 499
8 502 390 506 621 384 280 388 500
8 622 507 389 501 504 392 282 386
8 502 390 280 384 622 507 389 501
8 504 392 282 386 624 509 391 503
8 624 509 391 503 575 468 354 457
8 513 410 299 395 630 527 408 511
8 631 528 411 514 512 409 300 396
8 513 410 528 631 395 299 409 512
8 519 416 305 401 633 530 411 514
8 634 531 412 515 516 413 302 398
8 523 420 309 405 634 531 412 515
8 635 532 413 516 517 414 303 399
8 521 417 533 636 403 306 414 517
8 520 418 307 402 637 534 415 518
8 519 416 534 637 401 305 415 518
8 522 419 308 404 639 537 418 520
8 522 419 536 640 404 308 417 521
8 524 421 310 406 642 539 420 523
8 524 421 541 644 406 310 423 526
8 646 543 422 525 526 423 311 407
8 529 426 314 410 647 544 424 527
8 528 425 545 648 411 315 427 530
8 529 426 545 648 410 314 425 528
8 535 429 317 416 649 546 427 530
8 650 548 430 531 532 432 320 413
8 539 438 325 420 650 548 430 531
8 533 433 550 651 414 321 432 532
8 536 434 551 652 417 322 433 533
8 537 431 319 418 653 547 428 534
8 535 429 547 653 416 317 428 534
8 538 435 552 654 419 323 434 536
8 538 435 323 419 655 549 431 537
8 540 440 327 421 657 556 438 539
8 540 440 557 659 421 327 439 541
8 541 439 555 660 423 326 437 543
8 661 554 436 542 543 437 324 422
8 676 570 452 559 590 473 365 484
8 560 453 338 441 676 570 452 559
8 562 455 340 443 677 571 453 560
8 447 344 459 566 561 457 575 678
8 564 456 341 445 679 573 455 562
8 567 460 345 448 680 572 454 563
8 680 572 454 563 564 456 341 445
8 565 458 576 682 447 344 459 566
8 450 346 461 569 565 458 576 682
8 568 462 347 449 684 578 460 567
8 451 348 462 568 569 461 579 685
8 686 580 463 570 591 474 360 473
8 571 464 350 453 686 580 463 570
8 573 466 352 455 687 581 464 571
8 572 465 582 688 460 357 471 578
8 574 467 582 688 456 353 465 572
8 574 467 353 456 689 583 466 573
8 459 356 470 577 575 468 585 691
8 576 469 586 692 459 356 470 577
8 461 358 472 579 576 469 586 692
8 462 359 471 578 579 472 588 694
8 704 591 473 590 593 475 363 481
8 595 476 592 705 475 361 474 591
8 593 475 363 481 707 594 479 602
8 594 477 362 479 709 598 478 600
8 595 476 361 475 711 597 477 594
8 479 362 480 603 600 478 601 720
8 481 363 482 605 602 479 603 722
8 603 480 364 482 723 604 483 606
8 605 482 365 484 724 606 485 607
8 656 553 608 726 542 436 487 609
8 645 542 609 728 525 422 488 611
8 609 487 610 729 488 369 489 612
8 611 488 612 730 491 371 490 613
8 616 504 386 495 731 624 503 614
8 731 624 503 614 678 575 457 561
8 732 622 501 615 616 504 386 495
8 617 502 384 496 732 622 501 615
8 617 502 621 735 496 384 500 618
8 736 620 499 619 618 500 382 497
8 630 527 408 511 736 620 499 619
8 621 506 626 737 500 388 505 620
8 647 544 424 527 737 626 505 620
8 623 508 627 738 502 390 506 621
8 623 508 390 502 739 628 507 622
8 625 510 628 739 504 392 507 622
8 740 629 509 624 691 585 468 575
8 625 510 392 504 740 629 509 624
8 632 529 410 513 744 647 527 630
8 631 528 648 745 514 411 530 633
8 632 529 648 745 513 410 528 631
8 638 535 416 519 746 649 530 633
8 747 650 531 634 635 532 413 516
8 642 539 420 523 747 650 531 634
8 636 533 651 748 517 414 532 635
8 640 536 652 749 521 417 533 636
8 639 537 418 520 750 653 534 637
8 638 535 653 750 519 416 534 637
8 641 538 419 522 751 655 537 639
8 641 538 654 752 522 419 536 640
8 643 540 421 524 753 657 539 642
8 643 540 659 755 524 421 541 644
8 644 541 660 757 526 423 543 646
8 758 661 542 645 646 543 422 525
8 529 426 544 647 648 545 662 759
8 530 427 545 648 649 546 663 760
8 535 429 546 649 653 547 664 761
8 762 666 548 650 651 550 432 532
8 657 556 438 539 762 666 548 650
8 652 551 668 763 533 433 550 651
8 654 552 669 764 536 434 551 652
8 655 549 431 537 765 665 547 653
8 538 435 549 655 654 552 667 766
8 661 554 671 768 542 436 553 656
8 658 558 440 540 769 674 556 657
8 658 558 675 770 540 440 557 659
8 659 557 673 771 541 439 555 660
8 660 555 672 772 543 437 554 661
8 788 686 570 676 704 591 473 590
8 677 571 453 560 788 686 570 676
8 679 573 455 562 789 687 571 677
8 566 459 577 683 678 575 691 790
8 681 574 456 564 791 689 573 679
8 680 572 688 792 567 460 578 684
8 681 574 688 792 564 456 572 680
8 682 576 692 794 566 459 577 683
8 569 461 579 685 682 576 692 794
8 568 462 578 684 685 579 694 796
8 687 581 464 571 798 696 580 686
8 798 696 580 686 705 592 474 591
8 689 583 466 573 799 697 581 687
8 688 582 698 800 578 471 588 694
8 690 584 698 800 574 467 582 688
8 690 584 467 574 801 699 583 689
8 693 587 701 803 577 470 585 691
8 693 587 470 577 804 702 586 692
8 695 589 702 804 579 472 586 692
8 695 589 472 579 805 703 588 694
8 708 595 705 813 593 475 591 704
8 710 596 706 814 595 476 592 705
8 707 594 479 602 816 709 600 719
8 708 595 475 593 817 711 594 707
8 709 598 478 600 819 715 599 717
8 711 597 477 594 820 714 598 709
8 710 596 476 595 822 713 597 711
8 600 478 601 720 717 599 718 832
8 602 479 603 722 719 600 720 834
8 720 601 480 603 835 721 604 723
8 722 603 482 605 836 723 606 724
8 767 670 725 839 656 553 608 726
8 756 656 726 841 645 542 609 728
8 726 608 727 842 609 487 610 729
8 728 609 729 843 611 488 612 730
8 844 740 624 731 790 691 575 678
8 733 625 504 616 844 740 624 731
8 734 623 502 617 845 739 622 732
8 733 625 739 845 616 504 622 732
8 734 623 738 846 617 502 621 735
8 735 621 737 847 618 500 620 736
8 744 647 527 630 847 737 620 736
8 621 506 627 738 737 626 741 848
8 647 544 626 737 759 662 741 848
8 623 508 628 739 738 627 742 849
8 740 629 585 691 850 743 700 802
8 625 510 629 740 739 628 743 850
8 632 529 647 744 745 648 759 854
8 633 530 648 745 746 649 760 855
8 638 535 649 746 750 653 761 856
8 857 762 650 747 748 651 532 635
8 753 657 539 642 857 762 650 747
8 749 652 763 858 636 533 651 748
8 752 654 764 859 640 536 652 749
8 751 655 537 639 860 765 653 750
8 641 538 655 751 752 654 766 861
8 754 658 540 643 862 769 657 753
8 754 658 770 863 643 540 659 755
8 755 659 771 864 644 541 660 757
8 758 661 768 866 645 542 656 756
8 757 660 772 867 646 543 661 758
8 759 662 773 868 648 545 663 760
8 649 546 663 760 761 664 774 871
8 765 665 547 653 872 775 664 761
8 873 777 666 762 763 668 550 651
8 769 674 556 657 873 777 666 762
8 764 669 779 874 652 551 668 763
8 654 552 667 766 764 669 778 875
8 655 549 665 765 766 667 776 876
8 768 671 782 877 656 553 670 767
8 772 672 783 878 661 554 671 768
8 658 558 674 769 770 675 786 879
8 659 557 675 770 771 673 785 881
8 882 784 672 772 771 673 555 660
8 789 687 571 677 897 798 686 788
8 897 798 686 788 813 705 591 704
8 791 689 573 679 898 799 687 789
8 795 693 803 900 683 577 691 790
8 793 690 574 681 901 801 689 791
8 792 688 800 902 684 578 694 796
8 793 690 800 902 681 574 688 792
8 795 693 577 683 903 804 692 794
8 797 695 804 903 685 579 692 794
8 797 695 579 685 904 805 694 796
8 905 806 697 799 798 696 581 687
8 814 706 806 905 705 592 696 798
8 689 583 697 799 801 699 808 907
8 800 698 809 908 694 588 703 805
8 690 584 699 801 800 698 809 908
8 803 701 810 909 691 585 700 802
8 693 587 702 804 803 701 811 910
8 695 589 703 805 804 702 812 911
8 818 710 814 919 708 595 705 813
8 821 712 815 920 710 596 706 814
8 816 709 600 719 922 819 717 831
8 817 711 594 707 923 820 709 816
8 818 710 595 708 924 822 711 817
8 819 715 599 717 926 827 716 829
8 820 714 598 709 927 826 715 819
8 929 825 713 822 820 714 597 711
8 821 712 596 710 930 824 713 822
8 717 599 718 832 829 716 830 942
8 719 600 720 834 831 717 832 944
8 832 718 601 720 945 833 721 835
8 834 720 603 722 946 835 723 836
8 869 780 838 950 767 670 725 839
8 865 767 839 952 756 656 726 841
8 839 725 840 953 726 608 727 842
8 841 726 842 954 728 609 729 843
8 844 740 691 790 955 850 802 899
8 733 625 740 844 845 739 850 955
8 734 623 739 845 846 738 849 956
8 735 621 738 846 847 737 848 957
8 744 647 737 847 854 759 848 957
8 738 627 742 849 848 741 851 958
8 848 741 851 958 759 662 773 868
8 850 743 700 802 959 852 807 906
8 849 742 628 739 959 852 743 850
8 854 759 868 965 745 648 760 855
8 746 649 760 855 856 761 871 966
8 860 765 653 750 967 872 761 856
8 968 873 762 857 858 763 651 748
8 862 769 657 753 968 873 762 857
8 859 764 874 969 749 652 763 858
8 752 654 766 861 859 764 875 970
8 751 655 765 860 861 766 876 971
8 754 658 769 862 863 770 879 972
8 755 659 770 863 864 771 881 974
8 976 882 772 867 864 771 660 757
8 866 768 877 977 756 656 767 865
8 867 772 878 978 758 661 768 866
8 760 663 773 868 871 774 883 980
8 870 781 837 948 982 890 780 869
8 982 890 780 869 877 782 670 767
8 761 664 774 871 872 775 884 984
8 876 776 665 765 985 885 775 872
8 873 777 668 763 986 887 779 874
8 769 674 777 873 879 786 887 986
8 764 669 778 875 874 779 888 987
8 766 667 776 876 875 778 886 988
8 878 783 892 989 768 671 782 877
8 878 783 672 772 990 893 784 882
8 880 787 675 770 991 896 786 879
8 880 787 895 992 770 675 785 881
8 881 785 894 993 771 673 784 882
8 1006 905 799 898 897 798 687 789
8 919 814 905 1006 813 705 798 897
8 791 689 799 898 901 801 907 1007
8 900 803 909 1009 790 691 802 899
8 795 693 804 903 900 803 910 1010
8 902 800 908 1011 796 694 805 904
8 793 690 801 901 902 800 908 1011
8 797 695 805 904 903 804 911 1012
8 799 697 806 905 907 808 912 1013
8 920 815 912 1013 814 706 806 905
8 802 700 810 909 906 807 913 1014
8 801 699 808 907 908 809 914 1015
8 805 703 809 908 911 812 915 1016
8 803 701 811 910 909 810 916 1017
8 911 812 917 1018 804 702 811 910
8 925 821 920 1030 818 710 814 919
8 928 823 921 1031 821 712 815 920
8 922 819 717 831 1033 926 829 941
8 923 820 709 816 1034 927 819 922
8 1035 929 822 924 923 820 711 817
8 925 821 710 818 1036 930 822 924
8 1038 933 825 929 927 826 714 820
8 926 827 716 829 1039 935 828 939
8 927 826 715 819 1040 934 827 926
8 928 823 712 821 1041 931 824 930
8 1042 932 824 930 929 825 713 822
8 829 716 830 942 939 828 940 1058
8 831 717 832 944 941 829 942 1060
8 942 830 718 832 1061 943 833 945
8 944 832 720 834 1062 945 835 946
8 981 889 947 1064 870 781 837 948
8 948 837 949 1067 869 780 838 950
8 975 869 950 1069 865 767 839 952
8 950 838 951 1070 839 725 840 953
8 952 839 953 1071 841 726 842 954
8 955 850 802 899 1072 959 906 1008
8 956 849 739 845 1072 959 850 955
8 846 738 849 956 957 848 958 1073
8 957 848 958 1073 854 759 868 965
8 849 742 852 959 958 851 961 1076
8 960 853 961 1076 906 807 852 959
8 958 851 961 1076 868 773 883 980
8 960 853 807 906 1077 963 913 1014
8 855 760 868 965 966 871 980 1085
8 856 761 871 966 967 872 984 1086
8 971 876 765 860 1087 985 872 967
8 968 873 763 858 1088 986 874 969
8 862 769 873 968 972 879 986 1088
8 859 764 875 970 969 874 987 1089
8 861 766 876 971 970 875 988 1090
8 973 880 770 863 1091 991 879 972
8 973 880 992 1092 863 770 881 974
8 974 881 993 1093 864 771 882 976
8 979 870 948 1066 1094 982 869 975
8 1094 982 869 975 977 877 767 865
8 978 878 772 867 1095 990 882 976
8 978 878 989 1096 866 768 877 977
8 871 774 883 980 984 884 994 1099
8 983 891 999 1100 870 781 889 981
8 1101 1000 890 982 989 892 782 877
8 983 891 781 870 1101 1000 890 982
8 872 775 884 984 985 885 995 1103
8 876 776 885 985 988 886 996 1104
8 986 887 779 874 1105 998 888 987
8 879 786 887 986 991 896 998 1105
8 875 778 886 988 987 888 997 1106
8 990 893 1002 1107 878 783 892 989
8 1108 1003 893 990 993 894 784 882
8 880 787 896 991 992 895 1005 1109
8 993 894 785 881 1110 1004 895 992
8 898 799 905 1006 1007 907 1013 1120
8 1030 920 1013 1120 919 814 905 1006
8 901 801 907 1007 1011 908 1015 1121
8 899 802 909 1009 1008 906 1014 1122
8 900 803 910 1010 1009 909 1017 1123
8 1012 911 1018 1124 903 804 910 1010
8 904 805 908 1011 1012 911 1016 1125
8 1013 912 1020 1127 907 808 914 1015
8 1031 921 1020 1127 920 815 912 1013
8 1019 918 962 1075 1128 1021 913 1014
8 1128 1021 913 1014 1017 916 810 909
8 1015 914 1022 1129 908 809 915 1016
8 1016 915 1023 1130 911 812 917 1018
8 1018 917 1024 1131 910 811 916 1017
8 1037 928 1031 1148 925 821 920 1030
8 928 823 931 1041 1031 921 1032 1149
8 1033 926 829 941 1151 1039 939 1057
8 1034 927 819 922 1152 1040 926 1033
8 1153 1038 929 1035 1034 927 820 923
8 1154 1042 930 1036 1035 929 822 924
8 1037 928 821 925 1155 1041 930 1036
8 1039 935 828 939 1156 1047 938 1055
8 1157 1043 932 1042 1038 933 825 929
8 1038 933 826 927 1158 1045 934 1040
8 1040 934 827 926 1159 1046 935 1039
8 930 824 932 1042 1041 931 1044 1160
8 1051 936 1048 1165 1175 1052 937 1053
8 1156 1047 938 1055 1053 937 1054 1178
8 939 828 940 1058 1055 938 1056 1181
8 941 829 942 1060 1057 939 1058 1183
8 942 830 943 1061 1058 940 1059 1184
8 1060 942 832 944 1185 1061 945 1062
8 1082 964 1063 1188 981 889 947 1064
8 1097 981 1064 1190 979 870 948 1066
8 1064 947 1065 1191 948 837 949 1067
8 1066 948 1067 1193 975 869 950 1069
8 1067 949 1068 1194 950 838 951 1070
8 1069 950 1070 1195 952 839 953 1071
8 956 849 959 1072 1073 958 1076 1197
8 1074 960 1076 1197 1008 906 959 1072
8 1073 958 1076 1197 965 868 980 1085
8 1074 960 906 1008 1198 1077 1014 1122
8 1133 1026 1079 1199 1019 918 962 1075
8 1077 963 913 1014 1200 1080 962 1075
8 960 853 963 1077 1076 961 1078 1201
8 980 883 961 1076 1099 994 1078 1201
8 1210 1083 964 1082 1100 999 889 981
8 966 871 980 1085 1086 984 1099 1215
8 967 872 984 1086 1087 985 1103 1216
8 971 876 985 1087 1090 988 1104 1217
8 1088 986 874 969 1218 1105 987 1089
8 972 879 986 1088 1091 991 1105 1218
8 970 875 988 1090 1089 987 1106 1219
8 973 880 991 1091 1092 992 1109 1220
8 1093 993 881 974 1221 1110 992 1092
8 1222 1108 990 1095 1093 993 882 976
8 1223 1101 982 1094 1096 989 877 977
8 1098 983 870 979 1223 1101 982 1094
8 1095 990 1107 1224 978 878 989 1096
8 1098 983 1100 1225 979 870 981 1097
8 984 884 994 1099 1103 995 1111 1227
8 1102 1001 1115 1228 983 891 999 1100
8 1101 1000 892 989 1229 1116 1002 1107
8 1102 1001 891 983 1229 1116 1000 1101
8 985 885 995 1103 1104 996 1112 1230
8 988 886 996 1104 1106 997 1113 1231
8 1105 998 888 987 1232 1114 997 1106
8 991 896 998 1105 1109 1005 1114 1232
8 1108 1003 1117 1233 990 893 1002 1107
8 1108 1003 894 993 1233 1117 1004 1110
8 992 895 1005 1109 1110 1004 1118 1234
8 1120 1013 1127 1244 1007 907 1015 1121
8 1148 1031 1127 1244 1030 920 1013 1120
8 1121 1015 1129 1245 1011 908 1016 1125
8 1126 1019 1075 1196 1246 1128 1014 1122
8 1246 1128 1014 1122 1123 1017 909 1009
8 1124 1018 1131 1247 1010 910 1017 1123
8 1125 1016 1130 1248 1012 911 1018 1124
8 1127 1020 1137 1254 1015 914 1022 1129
8 1031 921 1032 1149 1127 1020 1137 1254
8 1134 1027 918 1019 1257 1140 1021 1128
8 1257 1140 1021 1128 1131 1024 916 1017
8 1129 1022 1141 1258 1016 915 1023 1130
8 1130 1023 1142 1259 1018 917 1024 1131
8 1261 1144 1025 1132 1133 1026 1079 1199
8 1255 1138 1025 1132 1135 1028 1144 1261
8 1133 1026 918 1019 1262 1145 1027 1134
8 1136 1029 1139 1256 1263 1146 1028 1135
8 1037 928 1041 1155 1148 1031 1149 1275
8 1041 931 1044 1160 1149 1032 1150 1276
8 1151 1039 939 1057 1278 1156 1055 1180
8 1152 1040 926 1033 1279 1159 1039 1151
8 1153 1038 927 1034 1280 1158 1040 1152
8 1281 1157 1042 1154 1153 1038 929 1035
8 1036 930 1042 1154 1155 1041 1160 1282
8 1283 1164 1046 1159 1156 1047 935 1039
8 1165 1048 1164 1283 1053 937 1047 1156
8 1157 1043 933 1038 1284 1161 1045 1158
8 1157 1043 1161 1284 1042 932 1044 1160
8 1040 934 1046 1159 1158 1045 1163 1285
8 1166 1049 1167 1292 1051 936 1048 1165
8 1166 1049 936 1051 1293 1168 1050 1172
8 1051 936 1052 1175 1172 1050 1173 1306
8 1174 1051 1165 1290 1308 1175 1053 1177
8 1053 937 1054 1178 1175 1052 1176 1309
8 1278 1156 1055 1180 1177 1053 1178 1311
8 1055 938 1056 1181 1178 1054 1179 1312
8 1057 939 1058 1183 1180 1055 1181 1314
8 1058 940 1059 1184 1181 1056 1182 1315
8 1060 942 1061 1185 1183 1058 1184 1316
8 1208 1081 1187 1321 1082 964 1063 1188
8 1209 1082 1188 1322 1097 981 1064 1190
8 1188 1063 1189 1323 1064 947 1065 1191
8 1190 1064 1191 1325 1066 948 1067 1193
8 1191 1065 1192 1326 1067 949 1068 1194
8 1067 1193 1069 950 1194 1327 1195 1070
8 1250 1133 1199 1330 1126 1019 1075 1196
8 1198 1077 1014 1122 1331 1200 1075 1196
8 1074 960 1077 1198 1197 1076 1201 1332
8 1085 980 1076 1197 1215 1099 1201 1332
8 1199 1079 1203 1333 1075 962 1080 1200
8 1132 1025 1119 1243 1199 1079 1203 1333
8 1201 1078 963 1077 1334 1202 1080 1200
8 1099 994 1078 1201 1227 1111 1202 1334
8 1343 1207 1081 1208 1210 1083 964 1082
8 1214 1084 1186 1319 1343 1207 1081 1208
8 1345 1210 1082 1209 1225 1100 981 1097
8 1346 1211 1083 1210 1228 1115 999 1100
8 1086 984 1099 1215 1216 1103 1227 1352
8 1087 985 1103 1216 1217 1104 1230 1353
8 1090 988 1104 1217 1219 1106 1231 1354
8 1218 1105 987 1089 1355 1232 1106 1219
8 1091 991 1105 1218 1220 1109 1232 1355
8 1092 992 1109 1220 1221 1110 1234 1356
8 1222 1108 1233 1357 1095 990 1107 1224
8 1222 1108 993 1093 1357 1233 1110 1221
8 1223 1101 989 1096 1358 1229 1107 1224
8 1226 1102 983 1098 1358 1229 1101 1223
8 1226 1102 1228 1359 1098 983 1100 1225
8 1103 995 1111 1227 1230 1112 1235 1360
8 1107 1002 1117 1233 1229 1116 1240 1362
8 1102 1001 1116 1229 1228 1115 1240 1362
8 1104 996 1112 1230 1231 1113 1236 1363
8 1364 1237 1114 1232 1231 1113 997 1106
8 1109 1005 1114 1232 1234 1118 1238 1365
8 1110 1004 1118 1234 1233 1117 1241 1366
8 1242 1374 1255 1138 1119 1243 1132 1025
8 1244 1127 1254 1376 1121 1015 1129 1245
8 1148 1031 1149 1275 1244 1127 1254 1376
8 1245 1129 1258 1377 1125 1016 1130 1248
8 1251 1134 1019 1126 1378 1257 1128 1246
8 1378 1257 1128 1246 1247 1131 1017 1123
8 1248 1130 1259 1379 1124 1018 1131 1247
8 1261 1381 1250 1133 1132 1249 1330 1199
8 1255 1380 1252 1135 1132 1249 1381 1261
8 1250 1133 1019 1126 1382 1262 1134 1251
8 1253 1136 1256 1385 1384 1263 1135 1252
8 1254 1137 1265 1387 1129 1022 1141 1258
8 1149 1032 1150 1276 1254 1137 1265 1387
8 1028 1135 1255 1138 1139 1256 1388 1266
8 1136 1029 1147 1264 1256 1139 1267 1389
8 1390 1268 1140 1257 1259 1142 1024 1131
8 1260 1143 1027 1134 1390 1268 1140 1257
8 1258 1141 1269 1391 1130 1023 1142 1259
8 1262 1145 1027 1134 1393 1271 1143 1260
8 1261 1144 1026 1133 1394 1272 1145 1262
8 1135 1028 1144 1261 1263 1146 1272 1394
8 1136 1029 1146 1263 1264 1147 1273 1395
8 1155 1041 1160 1282 1275 1149 1276 1405
8 1276 1150 1044 1160 1406 1277 1162 1286
8 1408 1283 1159 1279 1278 1156 1039 1151
8 1290 1165 1283 1408 1177 1053 1156 1278
8 1152 1040 1159 1279 1280 1158 1285 1409
8 1281 1157 1038 1153 1410 1284 1158 1280
8 1281 1157 1284 1410 1154 1042 1160 1282
8 1159 1046 1164 1283 1285 1163 1289 1412
8 1292 1167 1289 1412 1165 1048 1164 1283
8 1158 1045 1163 1285 1284 1161 1288 1413
8 1284 1161 1288 1413 1160 1044 1162 1286
8 1291 1166 1292 1418 1174 1051 1165 1290
8 1291 1166 1051 1174 1419 1293 1172 1305
8 1294 1169 1296 1421 1166 1049 1167 1292
8 1293 1168 1050 1172 1422 1295 1171 1303
8 1294 1169 1049 1166 1423 1297 1168 1293
8 1422 1295 1171 1303 1301 1170 1302 1435
8 1172 1050 1173 1306 1303 1171 1304 1438
8 1174 1051 1175 1308 1305 1172 1306 1440
8 1175 1052 1176 1309 1306 1173 1307 1441
8 1177 1053 1178 1311 1308 1175 1309 1443
8 1178 1054 1179 1312 1309 1176 1310 1444
8 1180 1055 1181 1314 1311 1178 1312 1446
8 1056 1181 1312 1179 1182 1315 1447 1313
8 1183 1058 1184 1316 1314 1181 1315 1448
8 1319 1186 1084 1214 1451 1317 1213 1350
8 1319 1186 1318 1453 1208 1081 1187 1321
8 1321 1187 1320 1456 1188 1063 1189 1323
8 1344 1208 1321 1457 1209 1082 1188 1322
8 1322 1188 1323 1458 1190 1064 1191 1325
8 1323 1189 1324 1459 1191 1065 1192 1326
8 1191 1325 1193 1067 1326 1460 1327 1194
8 1242 1374 1243 1119 1328 1462 1335 1204
8 1330 1199 1333 1465 1196 1075 1200 1331
8 1132 1249 1330 1199 1243 1375 1465 1333
8 1332 1201 1077 1198 1466 1334 1200 1331
8 1215 1099 1201 1332 1352 1227 1334 1466
8 1119 1243 1333 1203 1204 1335 1470 1338
8 1333 1203 1338 1470 1200 1080 1202 1334
8 1227 1111 1202 1334 1360 1235 1338 1470
8 1328 1462 1335 1204 1205 1336 1471 1339
8 1337 1206 1340 1472 1464 1329 1205 1336
8 1346 1211 1342 1479 1210 1083 1207 1343
8 1346 1211 1115 1228 1479 1342 1239 1361
8 1348 1212 1084 1214 1479 1342 1207 1343
8 1480 1343 1208 1344 1345 1210 1082 1209
8 1351 1214 1319 1454 1480 1343 1208 1344
8 1481 1346 1210 1345 1359 1228 1100 1225
8 1348 1212 1347 1483 1214 1084 1213 1350
8 1216 1103 1227 1352 1353 1230 1360 1488
8 1217 1104 1230 1353 1354 1231 1363 1489
8 1490 1364 1232 1355 1354 1231 1106 1219
8 1220 1109 1232 1355 1356 1234 1365 1491
8 1221 1110 1234 1356 1357 1233 1366 1492
8 1224 1107 1233 1357 1358 1229 1362 1493
8 1226 1102 1229 1358 1359 1228 1362 1493
8 1230 1112 1235 1360 1363 1236 1367 1496
8 1361 1239 1115 1228 1497 1371 1240 1362
8 1366 1241 1372 1498 1233 1117 1240 1362
8 1364 1237 1113 1231 1499 1368 1236 1363
8 1364 1237 1368 1499 1232 1114 1238 1365
8 1234 1118 1238 1365 1366 1241 1369 1500
8 1507 1373 1242 1374 1388 1266 1138 1255
8 1508 1374 1243 1375 1380 1255 1132 1249
8 1376 1254 1387 1509 1245 1129 1258 1377
8 1275 1149 1276 1405 1376 1254 1387 1509
8 1377 1258 1391 1510 1248 1130 1259 1379
8 1511 1390 1257 1378 1379 1259 1131 1247
8 1383 1260 1134 1251 1511 1390 1257 1378
8 1252 1135 1256 1385 1380 1255 1388 1512
8 1261 1381 1513 1394 1133 1250 1382 1262
8 1135 1252 1384 1263 1261 1381 1513 1394
8 1382 1262 1134 1251 1514 1393 1260 1383
8 1253 1136 1263 1384 1386 1264 1395 1516
8 1253 1136 1264 1386 1385 1256 1389 1517
8 1387 1265 1397 1519 1258 1141 1269 1391
8 1276 1150 1277 1406 1387 1265 1397 1519
8 1256 1139 1267 1389 1388 1266 1398 1520
8 1264 1147 1274 1396 1389 1267 1399 1521
8 1392 1270 1143 1260 1522 1400 1268 1390
8 1390 1268 1142 1259 1522 1400 1269 1391
8 1392 1270 1401 1523 1260 1143 1271 1393
8 1272 1394 1524 1402 1145 1262 1393 1271
8 1395 1273 1146 1263 1524 1402 1272 1394
8 1273 1395 1264 1147 1403 1526 1396 1274
8 1405 1276 1160 1282 1534 1406 1286 1411
8 1414 1287 1407 1535 1286 1162 1277 1406
8 1279 1159 1283 1408 1409 1285 1412 1537
8 1418 1292 1412 1537 1290 1165 1283 1408
8 1280 1158 1285 1409 1410 1284 1413 1538
8 1410 1284 1413 1538 1282 1160 1286 1411
8 1285 1163 1289 1412 1413 1288 1417 1540
8 1421 1296 1417 1540 1292 1167 1289 1412
8 1414 1287 1162 1286 1541 1416 1288 1413
8 1420 1294 1421 1545 1291 1166 1292 1418
8 1419 1293 1172 1305 1546 1422 1303 1437
8 1420 1294 1166 1291 1547 1423 1293 1419
8 1294 1169 1297 1423 1421 1296 1425 1548
8 1423 1297 1168 1293 1549 1424 1295 1422
8 1301 1170 1298 1427 1422 1295 1424 1549
8 1432 1300 1428 1554 1301 1170 1298 1427
8 1431 1299 1428 1554 1560 1430 1300 1432
8 1563 1433 1300 1432 1435 1302 1170 1301
8 1546 1422 1303 1437 1434 1301 1435 1565
8 1303 1171 1304 1438 1435 1302 1436 1566
8 1305 1172 1306 1440 1437 1303 1438 1568
8 1306 1173 1307 1441 1438 1304 1439 1569
8 1308 1175 1309 1443 1440 1306 1441 1571
8 1309 1176 1310 1444 1441 1307 1442 1572
8 1311 1178 1312 1446 1443 1309 1444 1574
8 1179 1312 1444 1310 1313 1447 1575 1445
8 1314 1181 1315 1448 1446 1312 1447 1576
8 1350 1213 1349 1486 1451 1317 1449 1579
8 1451 1317 1450 1581 1319 1186 1318 1453
8 1454 1319 1214 1351 1582 1451 1350 1487
8 1453 1318 1452 1584 1321 1187 1320 1456
8 1454 1319 1453 1585 1344 1208 1321 1457
8 1456 1320 1455 1586 1323 1189 1324 1459
8 1457 1321 1456 1587 1322 1188 1323 1458
8 1458 1323 1459 1588 1325 1191 1326 1460
8 1205 1336 1464 1329 1328 1462 1590 1461
8 1507 1373 1461 1590 1374 1242 1328 1462
8 1508 1374 1462 1591 1375 1243 1335 1467
8 1337 1206 1329 1464 1473 1341 1463 1594
8 1375 1243 1335 1467 1465 1333 1470 1596
8 1465 1333 1470 1596 1331 1200 1334 1466
8 1352 1227 1334 1466 1488 1360 1470 1596
8 1591 1462 1336 1468 1467 1335 1471 1597
8 1469 1337 1472 1598 1595 1464 1336 1468
8 1471 1339 1474 1600 1335 1204 1338 1470
8 1600 1474 1367 1496 1470 1338 1235 1360
8 1336 1205 1340 1472 1471 1339 1475 1601
8 1337 1206 1341 1473 1472 1340 1476 1602
8 1495 1370 1478 1609 1361 1239 1342 1479
8 1348 1212 1342 1479 1483 1347 1478 1609
8 1481 1346 1479 1610 1345 1210 1343 1480
8 1481 1346 1228 1359 1610 1479 1361 1494
8 1484 1348 1214 1351 1610 1479 1343 1480
8 1483 1347 1482 1612 1350 1213 1349 1486
8 1484 1348 1483 1613 1351 1214 1350 1487
8 1353 1230 1360 1488 1489 1363 1496 1616
8 1490 1364 1231 1354 1617 1499 1363 1489
8 1490 1364 1499 1617 1355 1232 1365 1491
8 1356 1234 1365 1491 1492 1366 1500 1619
8 1492 1366 1498 1620 1357 1233 1362 1493
8 1494 1361 1228 1359 1621 1497 1362 1493
8 1495 1370 1239 1361 1622 1504 1371 1497
8 1363 1236 1367 1496 1499 1368 1501 1623
8 1497 1371 1240 1362 1624 1505 1372 1498
8 1625 1503 1372 1498 1500 1369 1241 1366
8 1365 1238 1368 1499 1500 1369 1502 1626
8 1520 1398 1506 1633 1388 1266 1373 1507
8 1634 1507 1374 1508 1512 1388 1255 1380
8 1509 1387 1519 1635 1377 1258 1391 1510
8 1405 1276 1406 1534 1509 1387 1519 1635
8 1515 1392 1260 1383 1636 1522 1390 1511
8 1511 1390 1259 1379 1636 1522 1391 1510
8 1385 1256 1389 1517 1512 1388 1520 1637
8 1513 1394 1262 1382 1638 1524 1393 1514
8 1395 1516 1638 1524 1263 1384 1513 1394
8 1515 1392 1523 1639 1383 1260 1393 1514
8 1516 1395 1526 1640 1386 1264 1396 1518
8 1386 1264 1396 1518 1517 1389 1521 1641
8 1519 1397 1527 1643 1391 1269 1400 1522
8 1535 1407 1527 1643 1406 1277 1397 1519
8 1389 1267 1399 1521 1520 1398 1528 1644
8 1645 1529 1399 1521 1525 1404 1274 1396
8 1392 1270 1400 1522 1523 1401 1531 1646
8 1524 1402 1271 1393 1648 1532 1401 1523
8 1403 1526 1648 1532 1273 1395 1524 1402
8 1525 1404 1274 1396 1649 1533 1403 1526
8 1539 1414 1535 1657 1411 1286 1406 1534
8 1542 1415 1536 1658 1414 1287 1407 1535
8 1409 1285 1412 1537 1538 1413 1540 1660
8 1545 1421 1540 1660 1418 1292 1412 1537
8 1539 1414 1286 1411 1661 1541 1413 1538
8 1540 1417 1544 1663 1413 1288 1416 1541
8 1421 1296 1425 1548 1540 1417 1544 1663
8 1542 1415 1287 1414 1664 1543 1416 1541
8 1420 1294 1423 1547 1545 1421 1548 1666
8 1547 1423 1293 1419 1667 1549 1422 1546
8 1434 1301 1427 1553 1546 1422 1549 1667
8 1423 1297 1424 1549 1548 1425 1550 1668
8 1551 1426 1550 1668 1427 1298 1424 1549
8 1551 1426 1298 1427 1671 1552 1428 1554
8 1562 1432 1554 1674 1434 1301 1427 1553
8 1431 1299 1429 1558 1554 1428 1555 1675
8 1431 1299 1430 1560 1558 1429 1557 1680
8 1560 1430 1300 1432 1683 1559 1433 1563
8 1561 1431 1554 1674 1684 1560 1432 1562
8 1685 1563 1432 1562 1565 1435 1301 1434
8 1435 1302 1436 1566 1563 1433 1564 1686
8 1437 1303 1438 1568 1565 1435 1566 1688
8 1438 1304 1439 1569 1566 1436 1567 1689
8 1440 1306 1441 1571 1568 1438 1569 1691
8 1441 1307 1442 1572 1569 1439 1570 1692
8 1443 1309 1444 1574 1571 1441 1572 1694
8 1310 1444 1572 1442 1445 1575 1695 1573
8 1446 1312 1447 1576 1574 1444 1575 1696
8 1486 1349 1485 1614 1579 1449 1577 1699
8 1451 1317 1449 1579 1581 1450 1578 1701
8 1487 1350 1486 1615 1582 1451 1579 1702
8 1581 1450 1580 1704 1453 1318 1452 1584
8 1582 1451 1581 1705 1454 1319 1453 1585
8 1584 1452 1583 1706 1456 1320 1455 1586
8 1585 1453 1584 1707 1457 1321 1456 1587
8 1587 1456 1586 1708 1458 1323 1459 1588
8 1633 1506 1589 1710 1507 1373 1461 1590
8 1464 1329 1461 1590 1594 1463 1589 1710
8 1468 1336 1462 1591 1595 1464 1590 1711
8 1634 1507 1590 1711 1508 1374 1462 1591
8 1473 1341 1463 1594 1603 1477 1593 1716
8 1469 1337 1464 1595 1599 1473 1594 1717
8 1471 1597 1467 1335 1600 1718 1596 1470
8 1718 1600 1496 1616 1596 1470 1360 1488
8 1336 1468 1597 1471 1472 1598 1719 1601
8 1469 1337 1473 1599 1598 1472 1602 1720
8 1722 1604 1501 1623 1600 1474 1367 1496
8 1475 1601 1471 1339 1604 1722 1600 1474
8 1602 1476 1605 1723 1472 1340 1475 1601
8 1476 1602 1724 1606 1341 1473 1603 1477
8 1483 1347 1478 1609 1612 1482 1608 1731
8 1495 1370 1504 1622 1609 1478 1608 1731
8 1618 1495 1609 1732 1494 1361 1479 1610
8 1484 1348 1479 1610 1613 1483 1609 1732
8 1486 1349 1482 1612 1614 1485 1611 1733
8 1613 1483 1612 1734 1487 1350 1486 1615
8 1489 1363 1496 1616 1617 1499 1623 1736
8 1491 1365 1499 1617 1619 1500 1626 1737
8 1618 1495 1361 1494 1738 1622 1497 1621
8 1739 1625 1498 1620 1619 1500 1366 1492
8 1621 1497 1362 1493 1740 1624 1498 1620
8 1742 1631 1504 1622 1624 1505 1371 1497
8 1743 1628 1502 1626 1623 1501 1368 1499
8 1744 1630 1505 1624 1625 1503 1372 1498
8 1745 1629 1503 1625 1626 1502 1369 1500
8 1520 1398 1528 1644 1633 1506 1632 1751
8 1637 1520 1633 1752 1512 1388 1507 1634
8 1635 1519 1643 1753 1510 1391 1522 1636
8 1657 1535 1643 1753 1534 1406 1519 1635
8 1515 1392 1522 1636 1639 1523 1646 1754
8 1517 1389 1521 1641 1637 1520 1644 1755
8 1524 1638 1756 1648 1393 1514 1639 1523
8 1640 1526 1395 1516 1756 1648 1524 1638
8 1642 1525 1396 1518 1757 1649 1526 1640
8 1758 1645 1521 1641 1642 1525 1396 1518
8 1646 1531 1400 1522 1760 1650 1527 1643
8 1535 1407 1536 1658 1643 1527 1650 1760
8 1521 1399 1529 1645 1644 1528 1651 1761
8 1647 1530 1652 1762 1525 1404 1529 1645
8 1401 1523 1648 1532 1531 1646 1763 1655
8 1525 1404 1533 1649 1647 1530 1654 1765
8 1533 1649 1766 1656 1403 1526 1648 1532
8 1662 1542 1658 1774 1539 1414 1535 1657
8 1542 1415 1543 1664 1658 1536 1659 1775
8 1660 1540 1663 1777 1538 1413 1541 1661
8 1545 1421 1548 1666 1660 1540 1663 1777
8 1662 1542 1414 1539 1778 1664 1541 1661
8 1664 1543 1416 1541 1779 1665 1544 1663
8 1548 1425 1550 1668 1663 1544 1665 1779
8 1547 1423 1549 1667 1666 1548 1668 1781
8 1670 1551 1668 1781 1553 1427 1549 1667
8 1551 1426 1552 1671 1668 1550 1669 1782
8 1670 1551 1427 1553 1784 1671 1554 1674
8 1675 1555 1672 1785 1554 1428 1552 1671
8 1678 1556 1673 1789 1558 1429 1555 1675
8 1561 1431 1558 1681 1674 1554 1675 1790
8 1794 1677 1556 1678 1680 1557 1429 1558
8 1560 1430 1559 1683 1680 1557 1679 1797
8 1561 1431 1560 1684 1681 1558 1680 1798
8 1563 1433 1564 1686 1683 1559 1682 1800
8 1684 1560 1432 1562 1801 1683 1563 1685
8 1565 1435 1566 1688 1685 1563 1686 1802
8 1566 1436 1567 1689 1686 1564 1687 1803
8 1568 1438 1569 1691 1688 1566 1689 1805
8 1569 1439 1570 1692 1689 1567 1690 1806
8 1571 1441 1572 1694 1691 1569 1692 1808
8 1442 1572 1692 1570 1573 1695 1809 1693
8 1574 1444 1575 1696 1694 1572 1695 1810
8 1614 1485 1592 1712 1699 1577 1697 1813
8 1579 1449 1577 1699 1701 1578 1698 1815
8 1615 1486 1614 1735 1702 1579 1699 1816
8 1701 1578 1700 1818 1581 1450 1580 1704
8 1582 1451 1579 1702 1705 1581 1701 1819
8 1704 1580 1703 1820 1584 1452 1583 1706
8 1705 1581 1704 1821 1585 1453 1584 1707
8 1707 1584 1706 1822 1587 1456 1586 1708
8 1710 1589 1506 1633 1824 1709 1632 1751
8 1594 1463 1589 1710 1716 1593 1709 1824
8 1752 1633 1710 1825 1634 1507 1590 1711
8 1595 1464 1590 1711 1717 1594 1710 1825
8 1830 1714 1592 1712 1733 1611 1485 1614
8 1603 1477 1593 1716 1725 1607 1715 1834
8 1599 1473 1594 1717 1721 1603 1716 1835
8 1837 1722 1623 1736 1718 1600 1496 1616
8 1719 1601 1722 1837 1597 1471 1600 1718
8 1602 1720 1598 1472 1723 1838 1719 1601
8 1720 1602 1473 1599 1839 1724 1603 1721
8 1723 1605 1726 1840 1601 1475 1604 1722
8 1840 1726 1628 1743 1722 1604 1501 1623
8 1724 1606 1727 1841 1602 1476 1605 1723
8 1725 1607 1728 1842 1603 1477 1606 1724
8 1612 1482 1608 1731 1733 1611 1730 1849
8 1741 1627 1730 1849 1622 1504 1608 1731
8 1613 1483 1609 1732 1734 1612 1731 1850
8 1618 1495 1622 1738 1732 1609 1731 1850
8 1615 1486 1612 1734 1735 1614 1733 1851
8 1852 1743 1626 1737 1736 1623 1499 1617
8 1853 1745 1625 1739 1737 1626 1500 1619
8 1855 1742 1622 1738 1740 1624 1497 1621
8 1856 1744 1624 1740 1739 1625 1498 1620
8 1741 1627 1504 1622 1857 1746 1631 1742
8 1742 1631 1505 1624 1858 1749 1630 1744
8 1859 1747 1629 1745 1743 1628 1502 1626
8 1860 1748 1630 1744 1745 1629 1503 1625
8 1644 1528 1651 1761 1751 1632 1750 1865
8 1637 1520 1644 1755 1752 1633 1751 1866
8 1754 1646 1522 1636 1867 1760 1643 1753
8 1657 1535 1658 1774 1753 1643 1760 1867
8 1639 1523 1646 1754 1756 1648 1763 1868
8 1641 1521 1645 1758 1755 1644 1761 1869
8 1757 1649 1526 1640 1870 1766 1648 1756
8 1642 1525 1649 1757 1759 1647 1765 1871
8 1759 1647 1762 1872 1642 1525 1645 1758
8 1760 1650 1767 1874 1646 1531 1655 1763
8 1658 1536 1659 1775 1760 1650 1767 1874
8 1762 1652 1768 1875 1645 1529 1651 1761
8 1764 1653 1769 1876 1647 1530 1652 1762
8 1656 1766 1877 1773 1532 1648 1763 1655
8 1771 1879 1765 1654 1653 1764 1647 1530
8 1533 1649 1765 1654 1656 1766 1880 1772
8 1662 1542 1664 1778 1774 1658 1775 1887
8 1664 1543 1665 1779 1775 1659 1776 1888
8 1778 1664 1541 1661 1890 1779 1663 1777
8 1666 1548 1668 1781 1777 1663 1779 1890
8 1782 1669 1780 1891 1668 1550 1665 1779
8 1670 1551 1671 1784 1781 1668 1782 1893
8 1671 1552 1672 1785 1782 1669 1783 1894
8 1790 1675 1785 1896 1674 1554 1671 1784
8 1675 1555 1673 1789 1785 1672 1786 1897
8 1792 1676 1788 1903 1678 1556 1673 1789
8 1795 1678 1789 1904 1681 1558 1675 1790
8 1792 1676 1556 1678 1906 1791 1677 1794
8 1680 1557 1679 1797 1794 1677 1793 1909
8 1910 1794 1678 1795 1798 1680 1558 1681
8 1683 1559 1682 1800 1797 1679 1796 1912
8 1684 1560 1683 1801 1798 1680 1797 1913
8 1686 1564 1687 1803 1800 1682 1799 1915
8 1685 1563 1686 1802 1801 1683 1800 1916
8 1688 1566 1689 1805 1802 1686 1803 1917
8 1689 1567 1690 1806 1803 1687 1804 1918
8 1691 1569 1692 1808 1805 1689 1806 1920
8 1692 1570 1693 1809 1806 1690 1807 1921
8 1694 1572 1695 1810 1808 1692 1809 1922
8 1829 1713 1811 1926 1712 1592 1697 1813
8 1813 1697 1812 1928 1699 1577 1698 1815
8 1735 1614 1712 1828 1816 1699 1813 1929
8 1815 1698 1814 1931 1701 1578 1700 1818
8 1702 1579 1699 1816 1819 1701 1815 1932
8 1818 1700 1817 1933 1704 1580 1703 1820
8 1819 1701 1818 1934 1705 1581 1704 1821
8 1821 1704 1820 1935 1707 1584 1706 1822
8 1824 1709 1632 1751 1937 1823 1750 1865
8 1716 1593 1709 1824 1834 1715 1823 1937
8 1825 1710 1633 1752 1938 1824 1751 1866
8 1717 1594 1710 1825 1835 1716 1824 1938
8 1945 1830 1712 1828 1851 1733 1614 1735
8 1830 1714 1831 1946 1712 1592 1713 1829
8 1947 1832 1714 1830 1849 1730 1611 1733
8 1843 1729 1607 1725 1950 1833 1715 1834
8 1721 1603 1716 1835 1836 1725 1834 1951
8 1836 1725 1842 1953 1721 1603 1724 1839
8 1723 1838 1719 1601 1840 1954 1837 1722
8 1954 1840 1743 1852 1837 1722 1623 1736
8 1724 1839 1720 1602 1841 1955 1838 1723
8 1841 1727 1844 1956 1723 1605 1726 1840
8 1956 1844 1747 1859 1840 1726 1628 1743
8 1728 1842 1724 1606 1845 1957 1841 1727
8 1725 1607 1729 1843 1842 1728 1846 1958
8 1741 1627 1746 1857 1849 1730 1848 1965
8 1734 1612 1731 1850 1851 1733 1849 1966
8 1854 1741 1849 1966 1738 1622 1731 1850
8 1967 1859 1745 1853 1852 1743 1626 1737
8 1968 1860 1744 1856 1853 1745 1625 1739
8 1854 1741 1622 1738 1969 1857 1742 1855
8 1855 1742 1624 1740 1970 1858 1744 1856
8 1857 1746 1631 1742 1971 1861 1749 1858
8 1858 1749 1630 1744 1972 1863 1748 1860
8 1859 1747 1862 1973 1745 1629 1748 1860
8 1875 1768 1864 1977 1761 1651 1750 1865
8 1755 1644 1761 1869 1866 1751 1865 1978
8 1867 1760 1874 1979 1754 1646 1763 1868
8 1774 1658 1775 1887 1867 1760 1874 1979
8 1870 1766 1648 1756 1980 1877 1763 1868
8 1872 1762 1875 1981 1758 1645 1761 1869
8 1757 1649 1766 1870 1871 1765 1880 1982
8 1983 1879 1764 1873 1871 1765 1647 1759
8 1873 1764 1876 1984 1759 1647 1762 1872
8 1877 1773 1655 1763 1986 1881 1767 1874
8 1775 1659 1776 1888 1874 1767 1881 1986
8 1876 1769 1882 1987 1762 1652 1768 1875
8 1878 1770 1883 1988 1764 1653 1769 1876
8 1880 1772 1656 1766 1989 1886 1773 1877
8 1878 1770 1653 1764 1990 1884 1771 1879
8 1765 1654 1772 1880 1879 1771 1885 1991
8 1778 1664 1779 1890 1887 1775 1888 1997
8 1998 1889 1776 1888 1891 1780 1665 1779
8 1893 1782 1891 2000 1781 1668 1779 1890
8 1894 1783 1892 2001 1782 1669 1780 1891
8 1784 1671 1785 1896 1893 1782 1894 2003
8 1897 1786 1895 2004 1785 1672 1783 1894
8 1790 1675 1789 1904 1896 1785 1897 2006
8 1901 1787 1898 2007 1789 1673 1786 1897
8 1903 1788 1900 2013 1789 1673 1787 1901
8 1792 1676 1791 1906 1903 1788 1902 2016
8 1907 1792 1903 2017 1795 1678 1789 1904
8 1906 1791 1677 1794 2019 1905 1793 1909
8 1907 1792 1678 1795 2020 1906 1794 1910
8 1797 1679 1796 1912 1909 1793 1908 2022
8 1798 1680 1797 1913 1910 1794 1909 2023
8 1800 1682 1799 1915 1912 1796 1911 2025
8 1801 1683 1800 1916 1913 1797 1912 2026
8 1803 1687 1804 1918 1915 1799 1914 2028
8 1802 1686 1803 1917 1916 1800 1915 2029
8 1805 1689 1806 1920 1917 1803 1918 2030
8 1806 1690 1807 1921 1918 1804 1919 2031
8 1808 1692 1809 1922 1920 1806 1921 2032
8 1939 1826 1924 2037 1829 1713 1811 1926
8 1926 1811 1925 2039 1813 1697 1812 1928
8 1944 1829 1926 2040 1828 1712 1813 1929
8 1928 1812 1927 2042 1815 1698 1814 1931
8 1929 1813 1928 2043 1816 1699 1815 1932
8 1931 1814 1930 2044 1818 1700 1817 1933
8 1932 1815 1931 2045 1819 1701 1818 1934
8 1934 1818 1933 2046 1821 1704 1820 1935
8 2048 1936 1823 1937 1977 1864 1750 1865
8 1950 1833 1715 1834 2048 1936 1823 1937
8 1938 1824 1751 1866 2049 1937 1865 1978
8 1835 1716 1824 1938 1951 1834 1937 2049
8 1939 1826 1713 1829 2053 1942 1831 1946
8 1940 1827 1923 2035 2053 1942 1826 1939
8 1945 1830 1946 2058 1828 1712 1829 1944
8 2059 1947 1830 1945 1966 1849 1733 1851
8 1947 1832 1730 1849 2060 1948 1848 1965
8 1947 1832 1948 2060 1830 1714 1831 1946
8 1959 1847 1729 1843 2063 1949 1833 1950
8 1952 1843 1725 1836 2064 1950 1834 1951
8 1836 1725 1843 1952 1953 1842 1958 2066
8 1953 1842 1957 2067 1839 1724 1841 1955
8 1841 1955 1838 1723 1956 2068 1954 1840
8 2068 1956 1859 1967 1954 1840 1743 1852
8 1956 1844 1960 2069 1859 1747 1862 1973
8 1845 1957 1841 1727 1960 2069 1956 1844
8 1728 1842 1957 1845 1846 1958 2071 1961
8 1962 2072 1959 1847 1846 1958 1843 1729
8 1971 1861 1964 2077 1857 1746 1848 1965
8 1854 1741 1857 1969 1966 1849 1965 2078
8 1967 1859 1973 2079 1853 1745 1860 1968
8 1970 1858 1744 1856 2080 1972 1860 1968
8 1969 1857 1742 1855 2081 1971 1858 1970
8 1971 1861 1749 1858 2082 1974 1863 1972
8 1973 1862 1975 2083 1860 1748 1863 1972
8 1987 1882 1976 2086 1875 1768 1864 1977
8 1981 1875 1977 2087 1869 1761 1865 1978
8 1980 1877 1763 1868 2088 1986 1874 1979
8 1887 1775 1888 1997 1979 1874 1986 2088
8 1880 1982 2089 1989 1766 1870 1980 1877
8 1984 1876 1987 2090 1872 1762 1875 1981
8 1765 1871 1983 1879 1880 1982 2091 1991
8 1985 1878 1764 1873 2092 1990 1879 1983
8 1985 1878 1988 2093 1873 1764 1876 1984
8 2094 1992 1881 1986 1998 1889 1776 1888
8 1986 1881 1992 2094 1877 1773 1886 1989
8 1988 1883 1993 2095 1876 1769 1882 1987
8 1878 1770 1884 1990 1988 1883 1994 2096
8 1991 1885 1772 1880 2097 1996 1886 1989
8 1879 1771 1885 1991 1990 1884 1995 2098
8 2103 1998 1888 1997 2000 1891 1779 1890
8 2104 1999 1889 1998 2001 1892 1780 1891
8 2003 1894 2001 2106 1893 1782 1891 2000
8 2004 1895 2002 2107 1894 1783 1892 2001
8 2006 1897 2004 2109 1896 1785 1894 2003
8 2007 1898 2005 2110 1897 1786 1895 2004
8 2014 1901 2007 2112 1904 1789 1897 2006
8 2011 1899 2008 2113 1901 1787 1898 2007
8 2119 2010 1899 2011 2013 1900 1787 1901
8 2016 1902 2012 2122 1903 1788 1900 2013
8 2017 1903 2013 2123 1904 1789 1901 2014
8 1906 1791 1905 2019 2016 1902 2015 2125
8 1907 1792 1906 2020 2017 1903 2016 2126
8 1909 1793 1908 2022 2019 1905 2018 2128
8 2020 1906 1794 1910 2129 2019 1909 2023
8 1912 1796 1911 2025 2022 1908 2021 2131
8 1913 1797 1912 2026 2023 1909 2022 2132
8 1915 1799 1914 2028 2025 1911 2024 2134
8 1916 1800 1915 2029 2026 1912 2025 2135
8 1918 1804 1919 2031 2028 1914 2027 2136
8 1917 1803 1918 2030 2029 1915 2028 2137
8 1920 1806 1921 2032 2030 1918 2031 2138
8 1940 1827 1941 2054 2035 1923 2033 2140
8 2035 1923 2034 2143 1939 1826 1924 2037
8 2037 1924 2036 2146 1926 1811 1925 2039
8 2051 1939 2037 2147 1944 1829 1926 2040
8 2039 1925 2038 2149 1928 1812 1927 2042
8 2040 1926 2039 2150 1929 1813 1928 2043
8 2042 1927 2041 2151 1931 1814 1930 2044
8 2043 1928 2042 2152 1932 1815 1931 2045
8 2045 1931 2044 2153 1934 1818 1933 2046
8 2155 2047 1936 2048 2086 1976 1864 1977
8 2063 1949 1833 1950 2155 2047 1936 2048
8 2156 2048 1937 2049 2087 1977 1865 1978
8 2064 1950 1834 1951 2156 2048 1937 2049
8 2051 1939 1829 1944 2160 2053 1946 2058
8 2052 1940 2035 2144 2160 2053 1939 2051
8 2053 1942 1831 1946 2163 2057 1948 2060
8 2055 1943 1827 1940 2163 2057 1942 2053
8 2055 1943 2056 2164 1940 1827 1941 2054
8 2059 1947 1849 1966 2167 2060 1965 2078
8 2059 1947 2060 2167 1945 1830 1946 2058
8 2077 1964 2061 2168 1965 1848 1948 2060
8 2070 1963 1847 1959 2170 2062 1949 2063
8 2065 1959 1843 1952 2171 2063 1950 2064
8 2173 2072 1958 2066 2065 1959 1843 1952
8 1953 1842 1958 2066 2067 1957 2071 2174
8 2068 1956 2069 2175 1967 1859 1973 2079
8 2067 1957 2069 2175 1955 1841 1956 2068
8 1845 1957 2069 1960 1961 2071 2176 2073
8 2069 1960 2073 2176 1973 1862 1975 2083
8 2070 1963 2075 2177 1959 1847 1962 2072
8 1846 1958 2071 1961 1962 2072 2178 2074
8 2077 1964 1861 1971 2182 2076 1974 2082
8 2081 1971 2077 2183 1969 1857 1965 2078
8 2079 1973 2083 2184 1968 1860 1972 2080
8 2081 1971 1858 1970 2185 2082 1972 2080
8 2083 1975 2084 2186 1972 1863 1974 2082
8 2086 1976 1882 1987 2189 2085 1993 2095
8 2090 1987 2086 2190 1981 1875 1977 2087
8 2191 2094 1986 2088 2103 1998 1888 1997
8 2088 1986 2094 2191 1980 1877 1989 2089
8 1991 2091 2192 2097 1880 1982 2089 1989
8 2093 1988 2095 2193 1984 1876 1987 2090
8 1879 1983 2092 1990 1991 2091 2194 2098
8 1985 1878 1990 2092 2093 1988 2096 2195
8 2097 1996 1886 1989 2196 2099 1992 2094
8 2196 2099 1992 2094 2104 1999 1889 1998
8 1994 2096 1988 1883 2100 2197 2095 1993
8 2096 1994 1884 1990 2198 2101 1995 2098
8 1995 2098 2199 2102 1885 1991 2097 1996
8 2203 2104 1998 2103 2106 2001 1891 2000
8 2107 2002 2105 2204 2001 1892 1999 2104
8 2109 2004 2107 2206 2003 1894 2001 2106
8 2110 2005 2108 2207 2004 1895 2002 2107
8 2112 2007 2110 2209 2006 1897 2004 2109
8 2113 2008 2111 2210 2007 1898 2005 2110
8 2120 2011 2113 2212 2014 1901 2007 2112
8 2117 2009 2114 2213 2011 1899 2008 2113
8 2219 2116 2009 2117 2119 2010 1899 2011
8 2222 2118 2010 2119 2122 2012 1900 2013
8 2223 2119 2011 2120 2123 2013 1901 2014
8 2016 1902 2015 2125 2122 2012 2121 2225
8 2126 2016 2122 2226 2017 1903 2013 2123
8 2019 1905 2018 2128 2125 2015 2124 2228
8 2020 1906 2019 2129 2126 2016 2125 2229
8 2022 1908 2021 2131 2128 2018 2127 2231
8 2023 1909 2022 2132 2129 2019 2128 2232
8 2025 1911 2024 2134 2131 2021 2130 2234
8 2026 1912 2025 2135 2132 2022 2131 2235
8 1914 2028 2134 2024 2027 2136 2236 2133
8 2029 1915 2028 2137 2135 2025 2134 2237
8 2030 1918 2031 2138 2137 2028 2136 2238
8 2157 2050 2139 2240 2054 1941 2033 2140
8 2052 1940 2054 2161 2144 2035 2140 2242
8 2140 2033 2141 2243 2035 1923 2034 2143
8 2143 2034 2142 2246 2037 1924 2036 2146
8 2144 2035 2143 2247 2051 1939 2037 2147
8 2146 2036 2145 2249 2039 1925 2038 2149
8 2147 2037 2146 2250 2040 1926 2039 2150
8 2149 2038 2148 2251 2042 1927 2041 2151
8 2150 2039 2149 2252 2043 1928 2042 2152
8 2152 2042 2151 2253 2045 1931 2044 2153
8 2255 2154 2047 2155 2189 2085 1976 2086
8 2170 2062 1949 2063 2255 2154 2047 2155
8 2256 2155 2048 2156 2190 2086 1977 2087
8 2171 2063 1950 2064 2256 2155 2048 2156
8 2258 2159 2050 2157 2164 2056 1941 2054
8 2160 2053 1946 2058 2262 2163 2060 2167
8 2162 2055 1940 2052 2262 2163 2053 2160
8 2162 2055 2164 2263 2052 1940 2054 2161
8 2163 2057 1948 2060 2264 2165 2061 2168
8 2055 1943 2057 2163 2164 2056 2165 2264
8 2182 2076 2166 2268 2077 1964 2061 2168
8 2183 2077 2168 2269 2078 1965 2060 2167
8 2070 1963 2062 2170 2177 2075 2169 2271
8 2172 2070 1959 2065 2272 2170 2063 2171
8 2172 2070 2177 2273 2065 1959 2072 2173
8 2066 1958 2072 2173 2174 2071 2178 2274
8 2067 1957 2071 2174 2175 2069 2176 2275
8 2175 2069 2176 2275 2079 1973 2083 2184
8 2071 1961 2074 2178 2176 2073 2179 2276
8 2176 2073 2179 2276 2083 1975 2084 2186
8 2072 1962 2075 2177 2178 2074 2180 2277
8 2182 2076 1974 2082 2280 2181 2084 2186
8 2183 2077 1971 2081 2281 2182 2082 2185
8 2184 2083 2186 2282 2080 1972 2082 2185
8 2189 2085 1993 2095 2285 2188 2100 2197
8 2190 2086 1987 2090 2286 2189 2095 2193
8 2192 2097 1989 2089 2287 2196 2094 2191
8 2287 2196 2094 2191 2203 2104 1998 2103
8 2194 2098 1991 2091 2288 2199 2097 2192
8 2195 2096 2197 2289 2093 1988 2095 2193
8 2096 2195 2290 2198 1990 2092 2194 2098
8 2097 1996 2099 2196 2199 2102 2200 2291
8 2196 2099 1999 2104 2291 2200 2105 2204
8 2100 2197 2292 2201 1994 2096 2198 2101
8 1995 2098 2198 2101 2102 2199 2293 2202
8 2206 2107 2204 2296 2106 2001 2104 2203
8 2207 2108 2205 2297 2107 2002 2105 2204
8 2209 2110 2207 2299 2109 2004 2107 2206
8 2210 2111 2208 2300 2110 2005 2108 2207
8 2212 2113 2210 2302 2112 2007 2110 2209
8 2213 2114 2211 2303 2113 2008 2111 2210
8 2220 2117 2213 2305 2120 2011 2113 2212
8 2216 2115 2214 2306 2117 2009 2114 2213
8 2216 2115 2009 2117 2311 2217 2116 2219
8 2219 2116 2010 2119 2314 2218 2118 2222
8 2315 2219 2117 2220 2223 2119 2011 2120
8 2122 2012 2121 2225 2222 2118 2221 2317
8 2318 2222 2119 2223 2226 2122 2013 2123
8 2125 2015 2124 2228 2225 2121 2224 2320
8 2126 2016 2125 2229 2226 2122 2225 2321
8 2128 2018 2127 2231 2228 2124 2227 2323
8 2129 2019 2128 2232 2229 2125 2228 2324
8 2131 2021 2130 2234 2231 2127 2230 2326
8 2132 2022 2131 2235 2232 2128 2231 2327
8 2134 2024 2133 2236 2234 2130 2233 2328
8 2135 2025 2134 2237 2235 2131 2234 2329
8 2137 2028 2136 2238 2237 2134 2236 2330
8 2157 2050 2158 2259 2240 2139 2239 2332
8 2257 2157 2240 2334 2161 2054 2140 2242
8 2240 2139 2241 2335 2140 2033 2141 2243
8 2242 2140 2243 2337 2144 2035 2143 2247
8 2243 2141 2244 2338 2143 2034 2142 2246
8 2246 2142 2245 2341 2146 2036 2145 2249
8 2247 2143 2246 2342 2147 2037 2146 2250
8 2249 2145 2248 2343 2149 2038 2148 2251
8 2250 2146 2249 2344 2150 2039 2149 2252
8 2252 2149 2251 2345 2152 2042 2151 2253
8 2169 2271 2347 2254 2062 2170 2255 2154
8 2189 2085 2188 2285 2255 2154 2254 2347
8 2348 2255 2155 2256 2286 2189 2086 2190
8 2272 2170 2063 2171 2348 2255 2155 2256
8 2349 2258 2157 2257 2263 2164 2054 2161
8 2258 2159 2261 2351 2157 2050 2158 2259
8 2258 2159 2056 2164 2351 2261 2165 2264
8 2262 2163 2060 2167 2355 2264 2168 2269
8 2162 2055 2163 2262 2263 2164 2264 2355
8 2357 2266 2165 2264 2268 2166 2061 2168
8 2268 2166 2076 2182 2361 2267 2181 2280
8 2281 2182 2268 2362 2183 2077 2168 2269
8 2271 2169 2270 2364 2177 2075 2180 2277
8 2172 2070 2170 2272 2273 2177 2271 2365
8 2072 2173 2274 2178 2177 2273 2366 2277
8 2071 2174 2275 2176 2178 2274 2367 2276
8 2275 2176 2276 2367 2184 2083 2186 2282
8 2283 2187 2084 2186 2368 2278 2179 2276
8 2178 2074 2180 2277 2276 2179 2278 2368
8 2283 2187 2279 2370 2186 2084 2181 2280
8 2281 2182 2082 2185 2371 2280 2186 2282
8 2188 2285 2374 2284 2100 2197 2292 2201
8 2286 2189 2095 2193 2375 2285 2197 2289
8 2192 2097 2196 2287 2288 2199 2291 2376
8 2287 2196 2104 2203 2376 2291 2204 2296
8 2194 2098 2199 2288 2290 2198 2293 2377
8 2289 2197 2096 2195 2378 2292 2198 2290
8 2291 2200 2105 2204 2379 2294 2205 2297
8 2199 2102 2200 2291 2293 2202 2294 2379
8 2198 2101 2202 2293 2292 2201 2295 2380
8 2299 2207 2297 2383 2206 2107 2204 2296
8 2300 2208 2298 2384 2207 2108 2205 2297
8 2302 2210 2300 2386 2209 2110 2207 2299
8 2303 2211 2301 2387 2210 2111 2208 2300
8 2305 2213 2303 2389 2212 2113 2210 2302
8 2306 2214 2304 2390 2213 2114 2211 2303
8 2310 2216 2306 2392 2220 2117 2213 2305
8 2308 2215 2307 2393 2216 2115 2214 2306
8 2308 2215 2115 2216 2396 2309 2217 2311
8 2310 2216 2117 2220 2398 2311 2219 2315
8 2311 2217 2116 2219 2399 2312 2218 2314
8 2314 2218 2118 2222 2402 2313 2221 2317
8 2315 2219 2119 2223 2403 2314 2222 2318
8 2225 2121 2224 2320 2317 2221 2316 2405
8 2226 2122 2225 2321 2318 2222 2317 2406
8 2228 2124 2227 2323 2320 2224 2319 2408
8 2229 2125 2228 2324 2321 2225 2320 2409
8 2231 2127 2230 2326 2323 2227 2322 2411
8 2232 2128 2231 2327 2324 2228 2323 2412
8 2234 2130 2233 2328 2326 2230 2325 2413
8 2235 2131 2234 2329 2327 2231 2326 2414
8 2237 2134 2236 2330 2329 2234 2328 2415
8 2259 2158 2260 2352 2332 2239 2331 2417
8 2257 2157 2259 2350 2334 2240 2332 2419
8 2240 2139 2239 2332 2335 2241 2333 2420
8 2334 2240 2335 2422 2242 2140 2243 2337
8 2335 2241 2336 2423 2243 2141 2244 2338
8 2337 2243 2338 2425 2247 2143 2246 2342
8 2338 2244 2339 2426 2246 2142 2245 2341
8 2341 2245 2340 2428 2249 2145 2248 2343
8 2342 2246 2341 2429 2250 2146 2249 2344
8 2344 2249 2343 2430 2252 2149 2251 2345
8 2188 2285 2347 2254 2284 2374 2432 2346
8 2347 2254 2346 2432 2271 2169 2270 2364
8 2365 2271 2170 2272 2433 2347 2255 2348
8 2286 2189 2285 2375 2348 2255 2347 2433
8 2349 2258 2351 2435 2257 2157 2259 2350
8 2349 2258 2164 2263 2435 2351 2264 2355
8 2259 2158 2261 2351 2352 2260 2354 2437
8 2356 2265 2354 2437 2264 2165 2261 2351
8 2441 2357 2264 2355 2362 2268 2168 2269
8 2356 2265 2165 2264 2442 2358 2266 2357
8 2443 2359 2266 2357 2361 2267 2166 2268
8 2370 2279 2360 2446 2280 2181 2267 2361
8 2362 2268 2182 2281 2447 2361 2280 2371
8 2180 2277 2368 2278 2270 2364 2449 2363
8 2271 2365 2273 2177 2364 2450 2366 2277
8 2372 2283 2186 2282 2451 2368 2276 2367
8 2178 2274 2367 2276 2277 2366 2451 2368
8 2283 2187 2278 2368 2370 2279 2369 2452
8 2372 2283 2370 2453 2282 2186 2280 2371
8 2284 2374 2455 2373 2201 2292 2380 2295
8 2375 2285 2197 2289 2456 2374 2292 2378
8 2376 2291 2204 2296 2457 2379 2297 2383
8 2288 2199 2291 2376 2377 2293 2379 2457
8 2198 2290 2378 2292 2293 2377 2458 2380
8 2293 2202 2294 2379 2380 2295 2381 2459
8 2384 2298 2381 2459 2297 2205 2294 2379
8 2386 2300 2384 2463 2299 2207 2297 2383
8 2387 2301 2385 2464 2300 2208 2298 2384
8 2389 2303 2387 2466 2302 2210 2300 2386
8 2390 2304 2388 2467 2303 2211 2301 2387
8 2392 2306 2390 2469 2305 2213 2303 2389
8 2393 2307 2391 2470 2306 2214 2304 2390
8 2395 2308 2393 2472 2310 2216 2306 2392
8 2308 2215 2309 2396 2393 2307 2394 2473
8 2395 2308 2216 2310 2475 2396 2311 2398
8 2396 2309 2217 2311 2476 2397 2312 2399
8 2398 2311 2219 2315 2478 2399 2314 2403
8 2399 2312 2218 2314 2479 2400 2313 2402
8 2317 2221 2316 2405 2402 2313 2401 2482
8 2403 2314 2222 2318 2483 2402 2317 2406
8 2320 2224 2319 2408 2405 2316 2404 2485
8 2321 2225 2320 2409 2406 2317 2405 2486
8 2323 2227 2322 2411 2408 2319 2407 2488
8 2324 2228 2323 2412 2409 2320 2408 2489
8 2326 2230 2325 2413 2411 2322 2410 2490
8 2327 2231 2326 2414 2412 2323 2411 2491
8 2329 2234 2328 2415 2414 2326 2413 2492
8 2417 2331 2260 2352 2494 2416 2353 2438
8 2350 2259 2352 2436 2419 2332 2417 2496
8 2332 2239 2331 2417 2420 2333 2418 2497
8 2334 2240 2332 2419 2422 2335 2420 2499
8 2420 2333 2421 2500 2335 2241 2336 2423
8 2422 2335 2423 2502 2337 2243 2338 2425
8 2423 2336 2424 2503 2338 2244 2339 2426
8 2425 2338 2426 2505 2342 2246 2341 2429
8 2426 2339 2427 2506 2341 2245 2340 2428
8 2429 2341 2428 2507 2344 2249 2343 2430
8 2432 2346 2284 2374 2509 2431 2373 2455
8 2432 2346 2431 2509 2364 2270 2363 2449
8 2375 2285 2374 2456 2433 2347 2432 2510
8 2347 2433 2365 2271 2432 2510 2450 2364
8 2350 2259 2351 2435 2436 2352 2437 2514
8 2440 2356 2437 2514 2355 2264 2351 2435
8 2352 2260 2354 2437 2438 2353 2439 2516
8 2356 2265 2358 2442 2437 2354 2439 2516
8 2440 2356 2264 2355 2518 2442 2357 2441
8 2519 2443 2357 2441 2447 2361 2268 2362
8 2443 2359 2444 2520 2357 2266 2358 2442
8 2443 2359 2267 2361 2520 2444 2360 2446
8 2446 2360 2279 2370 2523 2445 2369 2452
8 2453 2370 2446 2524 2371 2280 2361 2447
8 2449 2363 2448 2525 2368 2278 2369 2452
8 2366 2277 2364 2450 2451 2368 2449 2526
8 2372 2283 2368 2451 2453 2370 2452 2527
8 2455 2373 2295 2380 2529 2454 2382 2460
8 2456 2374 2292 2378 2530 2455 2380 2458
8 2377 2293 2379 2457 2458 2380 2459 2531
8 2463 2384 2459 2531 2383 2297 2379 2457
8 2533 2461 2382 2460 2459 2381 2295 2380
8 2464 2385 2461 2533 2384 2298 2381 2459
8 2466 2387 2464 2537 2386 2300 2384 2463
8 2467 2388 2465 2538 2387 2301 2385 2464
8 2469 2390 2467 2540 2389 2303 2387 2466
8 2470 2391 2468 2541 2390 2304 2388 2467
8 2472 2393 2470 2543 2392 2306 2390 2469
8 2393 2307 2394 2473 2470 2391 2471 2544
8 2395 2308 2396 2475 2472 2393 2473 2546
8 2396 2309 2397 2476 2473 2394 2474 2547
8 2475 2396 2311 2398 2549 2476 2399 2478
8 2476 2397 2312 2399 2550 2477 2400 2479
8 2478 2399 2314 2403 2552 2479 2402 2483
8 2479 2400 2313 2402 2553 2480 2401 2482
8 2405 2316 2404 2485 2482 2401 2481 2556
8 2406 2317 2405 2486 2483 2402 2482 2557
8 2408 2319 2407 2488 2485 2404 2484 2559
8 2409 2320 2408 2489 2486 2405 2485 2560
8 2411 2322 2410 2490 2488 2407 2487 2561
8 2412 2323 2411 2491 2489 2408 2488 2562
8 2414 2326 2413 2492 2491 2411 2490 2563
8 2513 2434 2493 2565 2438 2353 2416 2494
8 2496 2417 2352 2436 2567 2494 2438 2515
8 2494 2416 2495 2568 2417 2331 2418 2497
8 2419 2332 2417 2496 2499 2420 2497 2570
8 2497 2418 2498 2571 2420 2333 2421 2500
8 2499 2420 2500 2573 2422 2335 2423 2502
8 2500 2421 2501 2574 2423 2336 2424 2503
8 2502 2423 2503 2576 2425 2338 2426 2505
8 2503 2424 2504 2577 2426 2339 2427 2506
8 2505 2426 2506 2578 2429 2341 2428 2507
8 2509 2431 2373 2455 2580 2508 2454 2529
8 2509 2431 2508 2580 2449 2363 2448 2525
8 2432 2510 2581 2509 2374 2456 2530 2455
8 2432 2510 2450 2364 2509 2581 2526 2449
8 2583 2511 2434 2513 2516 2439 2353 2438
8 2436 2352 2437 2514 2515 2438 2516 2588
8 2440 2356 2442 2518 2514 2437 2516 2588
8 2442 2358 2444 2520 2516 2439 2517 2589
8 2519 2443 2520 2591 2441 2357 2442 2518
8 2519 2443 2361 2447 2591 2520 2446 2524
8 2446 2360 2445 2523 2520 2444 2521 2592
8 2525 2448 2522 2593 2452 2369 2445 2523
8 2524 2446 2370 2453 2594 2523 2452 2527
8 2526 2449 2525 2595 2451 2368 2452 2527
8 2534 2462 2528 2597 2460 2382 2454 2529
8 2530 2455 2380 2458 2598 2529 2460 2532
8 2599 2533 2460 2532 2531 2459 2380 2458
8 2537 2464 2533 2599 2463 2384 2459 2531
8 2534 2462 2382 2460 2601 2535 2461 2533
8 2538 2465 2535 2601 2464 2385 2461 2533
8 2540 2467 2538 2604 2466 2387 2464 2537
8 2541 2468 2539 2605 2467 2388 2465 2538
8 2543 2470 2541 2607 2469 2390 2467 2540
8 2470 2391 2471 2544 2541 2468 2542 2608
8 2472 2393 2473 2546 2543 2470 2544 2610
8 2473 2394 2474 2547 2544 2471 2545 2611
8 2475 2396 2476 2549 2546 2473 2547 2613
8 2476 2397 2477 2550 2547 2474 2548 2614
8 2549 2476 2399 2478 2616 2550 2479 2552
8 2479 2400 2480 2553 2550 2477 2551 2617
8 2552 2479 2402 2483 2619 2553 2482 2557
8 2482 2401 2481 2556 2553 2480 2554 2620
8 2485 2404 2484 2559 2556 2481 2555 2623
8 2486 2405 2485 2560 2557 2482 2556 2624
8 2488 2407 2487 2561 2559 2484 2558 2625
8 2489 2408 2488 2562 2560 2485 2559 2626
8 2491 2411 2490 2563 2562 2488 2561 2627
8 2513 2434 2512 2585 2565 2493 2564 2630
8 2586 2513 2565 2632 2515 2438 2494 2567
8 2565 2493 2566 2633 2494 2416 2495 2568
8 2567 2494 2568 2635 2496 2417 2497 2570
8 2568 2495 2569 2636 2497 2418 2498 2571
8 2570 2497 2571 2638 2499 2420 2500 2573
8 2571 2498 2572 2639 2500 2421 2501 2574
8 2573 2500 2574 2641 2502 2423 2503 2576
8 2574 2501 2575 2642 2503 2424 2504 2577
8 2576 2503 2577 2643 2505 2426 2506 2578
8 2597 2528 2579 2645 2529 2454 2508 2580
8 2580 2508 2579 2645 2525 2448 2522 2593
8 2581 2509 2455 2530 2646 2580 2529 2598
8 2581 2509 2580 2646 2526 2449 2525 2595
8 2583 2511 2582 2648 2513 2434 2512 2585
8 2583 2511 2439 2516 2648 2582 2517 2589
8 2649 2583 2513 2586 2588 2516 2438 2515
8 2589 2517 2444 2520 2653 2587 2521 2592
8 2518 2442 2520 2591 2588 2516 2589 2654
8 2593 2522 2590 2655 2523 2445 2521 2592
8 2524 2446 2523 2594 2591 2520 2592 2656
8 2595 2525 2593 2657 2527 2452 2523 2594
8 2602 2536 2596 2659 2534 2462 2528 2597
8 2600 2534 2597 2660 2532 2460 2529 2598
8 2600 2534 2460 2532 2661 2601 2533 2599
8 2604 2538 2601 2661 2537 2464 2533 2599
8 2602 2536 2462 2534 2663 2603 2535 2601
8 2601 2535 2465 2538 2663 2603 2539 2605
8 2607 2541 2605 2665 2540 2467 2538 2604
8 2608 2542 2606 2666 2541 2468 2539 2605
8 2543 2470 2544 2610 2607 2541 2608 2668
8 2544 2471 2545 2611 2608 2542 2609 2669
8 2546 2473 2547 2613 2610 2544 2611 2671
8 2547 2474 2548 2614 2611 2545 2612 2672
8 2549 2476 2550 2616 2613 2547 2614 2674
8 2550 2477 2551 2617 2614 2548 2615 2675
8 2552 2479 2553 2619 2616 2550 2617 2677
8 2553 2480 2554 2620 2617 2551 2618 2678
8 2557 2482 2556 2624 2619 2553 2620 2680
8 2556 2481 2555 2623 2620 2554 2621 2681
8 2559 2484 2558 2625 2623 2555 2622 2683
8 2560 2485 2559 2626 2624 2556 2623 2684
8 2562 2488 2561 2627 2626 2559 2625 2685
8 2690 2629 2564 2630 2650 2584 2512 2585
8 2586 2513 2585 2651 2632 2565 2630 2691
8 2630 2564 2631 2692 2565 2493 2566 2633
8 2632 2565 2633 2694 2567 2494 2568 2635
8 2633 2566 2634 2695 2568 2495 2569 2636
8 2635 2568 2636 2697 2570 2497 2571 2638
8 2636 2569 2637 2698 2571 2498 2572 2639
8 2638 2571 2639 2700 2573 2500 2574 2641
8 2639 2572 2640 2701 2574 2501 2575 2642
8 2641 2574 2642 2702 2576 2503 2577 2643
8 2597 2528 2596 2659 2645 2579 2644 2704
8 2645 2579 2644 2704 2593 2522 2590 2655
8 2660 2597 2645 2705 2598 2529 2580 2646
8 2646 2580 2645 2705 2595 2525 2593 2657
8 2650 2584 2512 2585 2707 2647 2582 2648
8 2648 2582 2517 2589 2707 2647 2587 2653
8 2649 2583 2648 2708 2586 2513 2585 2651
8 2649 2583 2516 2588 2708 2648 2589 2654
8 2655 2590 2652 2710 2592 2521 2587 2653
8 2654 2589 2520 2591 2711 2653 2592 2656
8 2657 2593 2655 2712 2594 2523 2592 2656
8 2602 2536 2603 2663 2659 2596 2658 2714
8 2662 2602 2659 2715 2600 2534 2597 2660
8 2662 2602 2534 2600 2717 2663 2601 2661
8 2661 2601 2538 2604 2717 2663 2605 2665
8 2666 2606 2664 2718 2605 2539 2603 2663
8 2668 2608 2666 2720 2607 2541 2605 2665
8 2608 2542 2609 2669 2666 2606 2667 2721
8 2610 2544 2611 2671 2668 2608 2669 2723
8 2611 2545 2612 2672 2669 2609 2670 2724
8 2613 2547 2614 2674 2671 2611 2672 2726
8 2614 2548 2615 2675 2672 2612 2673 2727
8 2616 2550 2617 2677 2674 2614 2675 2729
8 2617 2551 2618 2678 2675 2615 2676 2730
8 2619 2553 2620 2680 2677 2617 2678 2732
8 2620 2554 2621 2681 2678 2618 2679 2733
8 2624 2556 2623 2684 2680 2620 2681 2735
8 2681 2621 2555 2623 2736 2682 2622 2683
8 2626 2559 2625 2685 2684 2623 2683 2737
8 2688 2628 2584 2650 2740 2686 2647 2707
8 2688 2628 2687 2742 2650 2584 2629 2690
8 2690 2629 2689 2745 2630 2564 2631 2692
8 2746 2690 2630 2691 2709 2650 2585 2651
8 2691 2630 2692 2747 2632 2565 2633 2694
8 2692 2631 2693 2748 2633 2566 2634 2695
8 2694 2633 2695 2750 2635 2568 2636 2697
8 2695 2634 2696 2751 2636 2569 2637 2698
8 2697 2636 2698 2753 2638 2571 2639 2700
8 2698 2637 2699 2754 2639 2572 2640 2701
8 2700 2639 2701 2755 2641 2574 2642 2702
8 2659 2596 2658 2714 2704 2644 2703 2757
8 2704 2644 2703 2757 2655 2590 2652 2710
8 2660 2597 2659 2715 2705 2645 2704 2758
8 2705 2645 2704 2758 2657 2593 2655 2712
8 2759 2706 2647 2707 2710 2652 2587 2653
8 2709 2650 2585 2651 2760 2707 2648 2708
8 2708 2648 2589 2654 2760 2707 2653 2711
8 2712 2655 2710 2761 2656 2592 2653 2711
8 2763 2713 2658 2714 2718 2664 2603 2663
8 2662 2602 2663 2717 2715 2659 2714 2764
8 2720 2666 2718 2767 2665 2605 2663 2717
8 2768 2719 2664 2718 2721 2667 2606 2666
8 2668 2608 2669 2723 2720 2666 2721 2770
8 2669 2609 2670 2724 2721 2667 2722 2771
8 2671 2611 2672 2726 2723 2669 2724 2773
8 2672 2612 2673 2727 2724 2670 2725 2774
8 2674 2614 2675 2729 2726 2672 2727 2776
8 2675 2615 2676 2730 2727 2673 2728 2777
8 2677 2617 2678 2732 2729 2675 2730 2779
8 2678 2618 2679 2733 2730 2676 2731 2780
8 2680 2620 2681 2735 2732 2678 2733 2782
8 2733 2679 2621 2681 2783 2734 2682 2736
8 2735 2681 2623 2684 2784 2736 2683 2737
8 2740 2686 2647 2707 2787 2738 2706 2759
8 2688 2628 2686 2740 2742 2687 2739 2789
8 2743 2688 2650 2709 2790 2740 2707 2760
8 2742 2687 2741 2792 2690 2629 2689 2745
8 2743 2688 2742 2793 2709 2650 2690 2746
8 2745 2689 2744 2795 2692 2631 2693 2748
8 2746 2690 2745 2796 2691 2630 2692 2747
8 2747 2692 2748 2797 2694 2633 2695 2750
8 2748 2693 2749 2798 2695 2634 2696 2751
8 2750 2695 2751 2800 2697 2636 2698 2753
8 2751 2696 2752 2801 2698 2637 2699 2754
8 2753 2698 2754 2802 2700 2639 2701 2755
8 2763 2713 2756 2804 2714 2658 2703 2757
8 2759 2706 2652 2710 2804 2756 2703 2757
8 2715 2659 2714 2764 2758 2704 2757 2805
8 2758 2704 2757 2805 2712 2655 2710 2761
8 2806 2759 2707 2760 2761 2710 2653 2711
8 2765 2716 2762 2808 2718 2664 2713 2763
8 2809 2763 2714 2764 2767 2718 2663 2717
8 2765 2716 2664 2718 2811 2766 2719 2768
8 2813 2768 2718 2767 2770 2721 2666 2720
8 2814 2769 2719 2768 2771 2722 2667 2721
8 2723 2669 2724 2773 2770 2721 2771 2816
8 2724 2670 2725 2774 2771 2722 2772 2817
8 2726 2672 2727 2776 2773 2724 2774 2819
8 2727 2673 2728 2777 2774 2725 2775 2820
8 2729 2675 2730 2779 2776 2727 2777 2822
8 2730 2676 2731 2780 2777 2728 2778 2823
8 2732 2678 2733 2782 2779 2730 2780 2825
8 2780 2731 2679 2733 2826 2781 2734 2783
8 2782 2733 2681 2735 2827 2783 2736 2784
8 2830 2785 2738 2787 2804 2756 2706 2759
8 2789 2739 2686 2740 2832 2786 2738 2787
8 2790 2740 2707 2760 2833 2787 2759 2806
8 2742 2687 2739 2789 2792 2741 2788 2835
8 2743 2688 2740 2790 2793 2742 2789 2836
8 2792 2741 2791 2838 2745 2689 2744 2795
8 2793 2742 2792 2839 2746 2690 2745 2796
8 2795 2744 2794 2841 2748 2693 2749 2798
8 2796 2745 2795 2842 2747 2692 2748 2797
8 2797 2748 2798 2843 2750 2695 2751 2800
8 2798 2749 2799 2844 2751 2696 2752 2801
8 2800 2751 2801 2845 2753 2698 2754 2802
8 2808 2762 2803 2847 2763 2713 2756 2804
8 2809 2763 2804 2848 2764 2714 2757 2805
8 2806 2759 2710 2761 2848 2804 2757 2805
8 2765 2716 2766 2811 2808 2762 2807 2850
8 2810 2765 2808 2851 2767 2718 2763 2809
8 2810 2765 2718 2767 2852 2811 2768 2813
8 2811 2766 2719 2768 2853 2812 2769 2814
8 2855 2814 2768 2813 2816 2771 2721 2770
8 2856 2815 2769 2814 2817 2772 2722 2771
8 2773 2724 2774 2819 2816 2771 2817 2858
8 2774 2725 2775 2820 2817 2772 2818 2859
8 2776 2727 2777 2822 2819 2774 2820 2861
8 2777 2728 2778 2823 2820 2775 2821 2862
8 2779 2730 2780 2825 2822 2777 2823 2864
8 2823 2778 2731 2780 2865 2824 2781 2826
8 2825 2780 2733 2782 2866 2826 2783 2827
8 2869 2828 2785 2830 2847 2803 2756 2804
8 2871 2829 2786 2832 2830 2785 2738 2787
8 2872 2830 2787 2833 2848 2804 2759 2806
8 2789 2739 2786 2832 2835 2788 2831 2874
8 2836 2789 2740 2790 2875 2832 2787 2833
8 2792 2741 2788 2835 2838 2791 2834 2877
8 2793 2742 2789 2836 2839 2792 2835 2878
8 2838 2791 2837 2880 2795 2744 2794 2841
8 2839 2792 2838 2881 2796 2745 2795 2842
8 2841 2794 2840 2882 2798 2749 2799 2844
8 2842 2795 2841 2883 2797 2748 2798 2843
8 2843 2798 2844 2884 2800 2751 2801 2845
8 2886 2846 2803 2847 2850 2807 2762 2808
8 2851 2808 2847 2887 2809 2763 2804 2848
8 2850 2807 2766 2811 2889 2849 2812 2853
8 2810 2765 2811 2852 2851 2808 2850 2890
8 2852 2811 2768 2813 2891 2853 2814 2855
8 2853 2812 2769 2814 2892 2854 2815 2856
8 2894 2856 2814 2855 2858 2817 2771 2816
8 2817 2772 2818 2859 2856 2815 2857 2895
8 2819 2774 2820 2861 2858 2817 2859 2897
8 2820 2775 2821 2862 2859 2818 2860 2898
8 2822 2777 2823 2864 2861 2820 2862 2900
8 2823 2778 2824 2865 2862 2821 2863 2901
8 2864 2823 2780 2825 2902 2865 2826 2866
8 2904 2867 2828 2869 2886 2846 2803 2847
8 2869 2828 2868 2906 2830 2785 2829 2871
8 2907 2869 2830 2872 2887 2847 2804 2848
8 2871 2829 2870 2909 2832 2786 2831 2874
8 2910 2871 2832 2875 2872 2830 2787 2833
8 2835 2788 2831 2874 2877 2834 2873 2912
8 2836 2789 2832 2875 2878 2835 2874 2913
8 2877 2834 2876 2915 2838 2791 2837 2880
8 2839 2792 2835 2878 2881 2838 2877 2916
8 2880 2837 2879 2917 2841 2794 2840 2882
8 2881 2838 2880 2918 2842 2795 2841 2883
8 2883 2841 2882 2919 2843 2798 2844 2884
8 2921 2885 2846 2886 2889 2849 2807 2850
8 2922 2886 2847 2887 2890 2850 2808 2851
8 2889 2849 2812 2853 2924 2888 2854 2892
8 2890 2850 2811 2852 2925 2889 2853 2891
8 2891 2853 2814 2855 2926 2892 2856 2894
8 2892 2854 2815 2856 2927 2893 2857 2895
8 2858 2817 2859 2897 2894 2856 2895 2929
8 2859 2818 2860 2898 2895 2857 2896 2930
8 2861 2820 2862 2900 2897 2859 2898 2932
8 2862 2821 2863 2901 2898 2860 2899 2933
8 2864 2823 2865 2902 2900 2862 2901 2934
8 2904 2867 2846 2886 2936 2903 2885 2921
8 2904 2867 2903 2936 2869 2828 2868 2906
8 2937 2904 2869 2907 2922 2886 2847 2887
8 2906 2868 2905 2939 2871 2829 2870 2909
8 2907 2869 2906 2940 2872 2830 2871 2910
8 2909 2870 2908 2942 2874 2831 2873 2912
8 2910 2871 2909 2943 2875 2832 2874 2913
8 2912 2873 2911 2945 2877 2834 2876 2915
8 2878 2835 2874 2913 2916 2877 2912 2946
8 2915 2876 2914 2947 2880 2837 2879 2917
8 2916 2877 2915 2948 2881 2838 2880 2918
8 2918 2880 2917 2949 2883 2841 2882 2919
8 2921 2885 2849 2889 2951 2920 2888 2924
8 2952 2921 2886 2922 2925 2889 2850 2890
8 2924 2888 2854 2892 2954 2923 2893 2927
8 2925 2889 2853 2891 2955 2924 2892 2926
8 2926 2892 2856 2894 2956 2927 2895 2929
8 2895 2857 2896 2930 2927 2893 2928 2957
8 2897 2859 2898 2932 2929 2895 2930 2959
8 2898 2860 2899 2933 2930 2896 2931 2960
8 2900 2862 2901 2934 2932 2898 2933 2961
8 2936 2903 2885 2921 2963 2935 2920 2951
8 2936 2903 2935 2963 2906 2868 2905 2939
8 2937 2904 2886 2922 2964 2936 2921 2952
8 2937 2904 2936 2964 2907 2869 2906 2940
8 2939 2905 2938 2966 2909 2870 2908 2942
8 2940 2906 2939 2967 2910 2871 2909 2943
8 2942 2908 2941 2969 2912 2873 2911 2945
8 2943 2909 2942 2970 2913 2874 2912 2946
8 2945 2911 2944 2971 2915 2876 2914 2947
8 2946 2912 2945 2972 2916 2877 2915 2948
8 2948 2915 2947 2973 2918 2880 2917 2949
8 2951 2920 2888 2924 2975 2950 2923 2954
8 2952 2921 2889 2925 2976 2951 2924 2955
8 2927 2893 2928 2957 2954 2923 2953 2978
8 2955 2924 2892 2926 2979 2954 2927 2956
8 2929 2895 2930 2959 2956 2927 2957 2980
8 2930 2896 2931 2960 2957 2928 2958 2981
8 2932 2898 2933 2961 2959 2930 2960 2982
8 2951 2920 2950 2975 2963 2935 2962 2984
8 2963 2935 2962 2984 2939 2905 2938 2966
8 2964 2936 2921 2952 2985 2963 2951 2976
8 2964 2936 2963 2985 2940 2906 2939 2967
8 2966 2938 2965 2987 2942 2908 2941 2969
8 2967 2939 2966 2988 2943 2909 2942 2970
8 2969 2941 2968 2989 2945 2911 2944 2971
8 2970 2942 2969 2990 2946 2912 2945 2972
8 2972 2945 2971 2991 2948 2915 2947 2973
8 2954 2923 2953 2978 2975 2950 2974 2993
8 2976 2951 2924 2955 2994 2975 2954 2979
8 2957 2928 2958 2981 2978 2953 2977 2995
8 2956 2927 2957 2980 2979 2954 2978 2996
8 2959 2930 2960 2982 2980 2957 2981 2997
8 2984 2962 2983 2999 2966 2938 2965 2987
8 2975 2950 2974 2993 2984 2962 2983 2999
8 2976 2951 2975 2994 2985 2963 2984 3000
8 2985 2963 2984 3000 2967 2939 2966 2988
8 2987 2965 2986 3001 2969 2941 2968 2989
8 2988 2966 2987 3002 2970 2942 2969 2990
8 2990 2969 2989 3003 2972 2945 2971 2991
8 2978 2953 2977 2995 2993 2974 2992 3004
8 2979 2954 2978 2996 2994 2975 2993 3005
8 2980 2957 2981 2997 2996 2978 2995 3006
8 2974 2993 2999 2983 2992 3004 3007 2998
8 2983 2999 2987 2965 2998 3007 3001 2986
8 3000 2984 2999 3008 2988 2966 2987 3002
8 2994 2975 2993 3005 3000 2984 2999 3008
8 3002 2987 3001 3009 2990 2969 2989 3003
8 2996 2978 2995 3006 3005 2993 3004 3010
8 3005 2993 3004 3010 3008 2999 3007 3011
8 3008 2999 3007 3011 3002 2987 3001 3009

CELL_TYPES 1910
12
12
12
12
12
12
12
12
12
12
12
12
12
12
12
12
12
12
12
12
12
12
12
12
12
12
12
12
12
12
12
12
12
12
12
12
12
12
12
12
12
12
12
12
12
12
12
12
12
12
12
12
12
12
12
12
12
12
12
12
12
12
12
12
12
12
12
12
12
12
12
12
12
12
12
12
12
12
12
12
12
12
12
12
12
12
12
12
12
12
12
12
12
12
12
12
12
12
12
12
12
12
12
12
12
12
12
12
12
12
12
12
12
12
12
12
12
12
12
12
12
12
12
12
12
12
12
12
12
12
12
12
12
12
12
12
12
12
12
12
12
12
12
12
12
12
12
12
12
12
12
12
12
12
12
12
12
12
12
12
12
12
12
12
12
12
12
12
12
12
12
12
12
12
12
12
12
12
12
12
12
12
12
12
12
12
12
12
12
12
12
12
12
12
12
12
12
12
12
12
12
12
12
12
12
12
12
12
12
12
12
12
12
12
12
12
12
12
12
12
12
12
12
12
12
12
12
12
12
12
12
12
12
12
12
12
12
12
12
12
12
12
12
12
12
12
12
12
12
12
12
12
12
12
12
12
12
12
12
12
12
12
12
12
12
12
12
12
12
12
12
12
12
12
12
12
12
12
12
12
12
12
12
12
12
12
12
12
12
12
12
12
12
12
12
12
12
12
12
12
12
12
12
12
12
12
12
12
12
12
12
12
12
12
12
12
12
12
12
12
12
12
12
12
12
12
12
12
12
12
12
12
12
12
12
12
12
12
12
12
12
12
12
12
12
12
12
12
12
12
12
12
12
12
12
12
12
12
12
12
12
12
12
12
12
12
12
12
12
12
12
12
12
12
12
12
12
12
12
12
12
12
12
12
12
12
12
12
12
12
12
12
12
12
12
12
12
12
12
12
12
12
12
12
12
12
12
12
12
12
12
12
12
12
12
12
12
12
12
12
12
12
12
12
12
12
12
12
12
12
12
12
12
12
12
12
12
12
12
12
12
12
12
12
12
12
12
12
12
12
12
12
12
12
12
12
12
12
12
12
12
12
12
12
12
12
12
12
12
12
12
12
12
12
12
12
12
12
12
12
12
12
12
12
12
12
12
12
12
12
12
12
12
12
12
12
12
12
12
12
12
12
12
12
12
12
12
12
12
12
12
12
12
12
12
12
12
12
12
12
12
12
12
12
12
12
12
12
12
12
12
12
12
12
12
12
12
12
12
12
12
12
12
12
12
12
12
12
12
12
12
12
12
12
12
12
12
12
12
12
12
12
12
12
12
12
12
12
12
12
12
12
12
12
12
12
12
12
12
12
12
12
12
12
12
12
12
12
12
12
12
12
12
12
12
12
12
12
12
12
12
12
12
12
12
12
12
12
12
12
12
12
12
12
12
12
12
12
12
12
12
12
12
12
12
12
12
12
12
12
12
12
12
12
12
12
12
12
12
12
12
12
12
12
12
12
12
12
12
12
12
12
12
12
12
12
12
12
12
12
12
12
12
12
12
12
12
12
12
12
12
12
12
12
12
12
12
12
12
12
12
12
12
12
12
12
12
12
12
12
12
12
12
12
12
12
12
12
12
12
12
12
12
12
12
12
12
12
12
12
12
12
12
12
12
12
12
12
12
12
12
12
12
12
12
12
12
12
12
12
12
12
12
12
12
12
12
12
12
12
12
12
12
12
12
12
12
12
12
12
12
12
12
12
12
12
12
12
12
12
12
12
12
12
12
12
12
12
12
12
12
12
12
12
12
12
12
12
12
12
12
12
12
12
12
12
12
12
12
12
12
12
12
12
12
12
12
12
12
12
12
12
12
12
12
12
12
12
12
12
12
12
12
12
12
12
12
12
12
12
12
12
12
12
12
12
12
12
12
12
12
12
12
12
12
12
12
12
12
12
12
12
12
12
12
12
12
12
12
12
12
12
12
12
12
12
12
12
12
12
12
12
12
12
12
12
12
12
12
12
12
12
12
12
12
12
12
12
12
12
12
12
12
12
12
12
12
12
12
12
12
12
12
12
12
12
12
12
12
12
12
12
12
12
12
12
12
12
12
12
12
12
12
12
12
12
12
12
12
12
12
12
12
12
12
12
12
12
12
12
12
12
12
12
12
12
12
12
12
12
12
12
12
12
12
12
12
12
12
12
12
12
12
12
12
12
12
12
12
12
12
12
12
12
12
12
12
12
12
12
12
12
12
12
12
12
12
12
12
12
12
12
12
12
12
12
12
12
12
12
12
12
12
12
12
12
12
12
12
12
12
12
12
12
12
12
12
12
12
12
12
12
12
12
12
12
12
12
12
12
12
12
12
12
12
12
12
12
12
12
12
12
12
12
12
12
12
12
12
12
12
12
12
12
12
12
12
12
12
12
12
12
12
12
12
12
12
12
12
12
12
12
12
12
12
12
12
12
12
12
12
12
12
12
12
12
12
12
12
12
12
12
12
12
12
12
12
12
12
12
12
12
12
12
12
12
12
12
12
12
12
12
12
12
12
12
12
12
12
12
12
12
12
12
12
12
12
12
12
12
12
12
12
12
12
12
12
12
12
12
12
12
12
12
12
12
12
12
12
12
12
12
12
12
12
12
12
12
12
12
12
12
12
12
12
12
12
12
12
12
12
12
12
12
12
12
12
12
12
12
12
12
12
12
12
12
12
12
12
12
12
12
12
12
12
12
12
12
12
12
12
12
12
12
12
12
12
12
12
12
12
12
12
12
12
12
12
12
12
12
12
12
12
12
12
12
12
12
12
12
12
12
12
12
12
12
12
12
12
12
12
12
12
12
12
12
12
12
12
12
12
12
12
12
12
12
12
12
12
12
12
12
12
12
12
12
12
12
12
12
12
12
12
12
12
12
12
12
12
12
12
12
12
12
12
12
12
12
12
12
12
12
12
12
12
12
12
12
12
12
12
12
12
12
12
12
12
12
12
12
12
12
12
12
12
12
12
12
12
12
12
12
12
12
12
12
12
12
12
12
12
12
12
12
12
12
12
12
12
12
12
12
12
12
12
12
12
12
12
12
12
12
12
12
12
12
12
12
12
12
12
12
12
12
12
12
12
12
12
12
12
12
12
12
12
12
12
12
12
12
12
12
12
12
12
12
12
12
12
12
12
12
12
12
12
12
12
12
12
12
12
12
12
12
12
12
12
12
12
12
12
12
12
12
12
12
12
12
12
12
12
12
12
12
12
12
12
12
12
12
12
12
12
12
12
12
12
12
12
12
12
12
12
12
12
12
12
12
12
12
12
12
12
12
12
12
12
12
12
12
12
12
12
12
12
12
12
12
12
12
12
12
12
12
12
12
12
12
12
12
12
12
12
12
12
12
12
12
12
12
12
12
12
12
12
12
12
12
12
12
12
12
12
12
12
12
12
12
12
12
12
12
12
12
12
12
12
12
12
12
12
12
12
12
12
12
12
12
12
12
12
12
12
12
12
12
12
12
12
12
12
12
12
12
12
12
12
12
12
12
12
12
12
12
12
12
12
12
12
12
12
12
12
12
12
12
12
12
12
12
12
12
12
12
12
12
12
12
12
12
12
12
12
12
12
12
12
12
12
12
12
12
12
12
12
12
12
12
12
12
12
12
12
12
12
12
12
12
12
12
12
12
12
12
12
12
12
12
12
12
12
12
12
12
12
12
12
12
12
12
12
12
12
12
12
12
12
12
12
12
12
12
12
12
12
12
12
12
12
12
12
12
12
12
12
12
12
12
12
12
12
12
12
12
12
12
12
12
12
12
12
12
12
12
12
12
12
12
12
12
12
12
12
12
12
12
12
12
12
12
12
12
12
12
12
12
12
12
12
12
12
12
12
12
12
12
12
12
12
12
12
12
12
12
12
12
12
12
12
12
12
12
12
12
12
12
12
12
12
12
12
12
12
12
12
12
12
12
12
12
12
12
12
12
12
12
12
12
12
12
12
12
12
12
12
12
12
12
12
12
12
12
12
12
12
12
12
12
12
12
12
12
12
12
12
12
12
12
12
12
12
12
12
12
12
12
12
12
12
12
12
12
12
12
12
12
12
12
12
12
12
12
12
12
12
12
12
12
12
12
12
12
12
12
12
12
12
12
12
12
12
12
12
12
12
12
12
12
12
12
12
12
12
12
12
12
12
12
12
12
12
12
12
12
12
12
12
12
12
12
12
12
12
12
12
12
12
12
12
12
12
12
12
12
12
12
12
12
12
12
12
12
12
12
12
12
12
12
12
12
12
12
12
12
12
12
12
12
12
12
12
12
12
12
12
12
12
12
12
12
12
12
12
12
12
12
12
12
12
12
12
12
12
12
12
12
12
12
12
12

POINT_DATA 3012
SCALARS Jp_lamdaP float 4
LOOKUP_TABLE default
1 1 1 1
1 1 1 1
1 1 1 1
1 1 1 1
1 1 1 1
1 1 1 1
1 1 1 1
1 1 1 1
1 1 1 1
1 1 1 1
1 1 1 1
1 1 1 1
1 1 1 1
1 1 1 1
1 1 1 1
1 1 1 1
1 1 1 1
1 1 1 1
1 1 1 1
1 1 1 1
1 1 1 1
1 1 1 1
1 1 1 1
1 1 1 1
1 1 1 1
1 1 1 1
1 1 1 1
1 1 1 1
1 1 1 1
1 1 1 1
1 1 1 1
1 1 1 1
1 1 1 1
1 1 1 1
1 1 1 1
1 1 1 1
1 1 1 1
1 1 1 1
1 1 1 1
1 1 1 1
1 1 1 1
1 1 1 1
1 1 1 1
1 1 1 1
1 1 1 1
1 1 1 1
1 1 1 1
1 1 1 1
1 1 1 1
1 1 1 1
1 1 1 1
1 1 1 1
1 1 1 1
1 1 1 1
1 1 1 1
1 1 1 1
1 1 1 1
1 1 1 1
1 1 1 1
1 1 1 1
1 1 1 1
1 1 1 1
0.999999 1 1 0.999999
1 1 1 1
0.999998 1 1 0.999998
0.999999 1 1 0.999999
1 1 1 1
1 1 1 1
1 1 1 1
0.999996 1 1 0.999996
1 1 1 1
1 1 1 1
1 1 1 1
1 1 1 1
1 1 1 1
1 1 1 1
1 1 1 1
1 1 1 1
1 1 1 1
1 1 1 1
1 1 1 1
1 1 1 1
1 1 1 1
1 1 1 1
1 1 1 1
0.999999 1 1 0.999999
1 1 1 1
1 1 1 1
1 1 1 1
0.999998 1 1 0.999998
1 1 1 1
1 1 1 1
1 1 1 1
1 1 1 1
1 1 1 1
1 1 1 1
1 1 1 1
1 1 1 1
1 1 1 1
1 1 1 1
1 1 1 1
1 1 1 1
0.999998 1 1 0.999998
1 1 1 1
0.999997 1 1 0.999997
1 1 1 1
1 1 1 1
1 1 1 1
1 1 1 1
1 1 1 1
1 1 1 1
1 1 1 1
1 1 1 1
1 1 1 1
1 1 1 1
1 1 1 1
0.999999 1 1 0.999999
1 1 1 1
1 1 1 1
1 1 1 1
0.999998 1 1 0.999998
1 1 1 1
0.999999 1 1 0.999999
0.999996 1 1 0.999996
1 1 1 1
0.999999 1 1 0.999999
0.999998 1 1 0.999998
0.999997 1 1 0.999997
0.999998 1 1 0.999998
0.999994 1 1 0.999994
1 1 1 1
0.999995 1 1 0.999995
1 1 1 1
1 1 1 1
0.999997 1 1 0.999997
0.999994 1 1 0.999994
1 1 1 1
1 1 1 1
1 1 1 1
1 1 1 1
1 1 1 1
1 1 1 1
1 1 1 1
1 1 1 1
1 1 1 1
1 1 1 1
1 1 1 1
1 1 1 1
1 1 1 1
0.999999 1 1 0.999999
1 1 1 1
1 1 1 1
1 1 1 1
0.999998 1 1 0.999998
1 1 1 1
1 1 1 1
1 1 1 1
0.999998 1 1 0.999998
0.999999 1 1 0.999999
0.999995 1 1 0.999995
1 1 1 1
0.999997 1 1 0.999997
0.999999 1 1 0.999999
0.999996 1 1 0.999996
1 1 1 1
1 1 1 1
1 1 1 1
1 1 1 1
1 1 1 1
1 1 1 1
1 1 1 1
1 1 1 1
1 1 1 1
1 1 1 1
1 1 1 1
1 1 1 1
1 1 1 1
0.999998 1 1 0.999998
1 1 1 1
0.999997 1 1 0.999997
1 1 1 1
0.999999 1 1 0.999999
0.999997 1 1 0.999997
0.999995 1 1 0.999995
0.999998 1 1 0.999998
0.999995 1 1 0.999995
1 1 1 1
1 1 1 1
0.999999 1 1 0.999999
0.999999 1 1 0.999999
1 1 1 1
1 1 1 1
1 1 1 1
0.999997 1 1 0.999997
0.999999 1 1 0.999999
1 1 1 1
0.999996 1 1 0.999996
1 1 1 1
0.999999 1 1 0.999999
0.999997 1 1 0.999997
0.999997 1 1 0.999997
1 1 1 1
1 1 1 1
1 1 1 1
0.999998 1 1 0.999998
0.999994 1 1 0.999994
0.999997 1 1 0.999997
0.999996 1 1 0.999996
0.999994 1 1 0.999994
1 1 1 1
1 1 1 1
0.999998 1 1 0.999998
0.999997 1 1 0.999997
0.999995 1 1 0.999995
0.999993 1 1 0.999993
0.999995 1 1 0.999995
0.999992 1 1 0.999992
1 1 1 1
0.999993 1 1 0.999993
1 1 1 1
0.999997 1 1 0.999997
0.999995 1 1 0.999995
0.999993 1 1 0.999993
1 1 1 1
1 1 1 1
0.999999 1 1 0.999999
1 1 1 1
1 1 1 1
1 1 1 1
1 1 1 1
0.999999 1 1 0.999999
1 1 1 1
1 1 1 1
1 1 1 1
0.999998 1 1 0.999998
1 1 1 1
1 1 1 1
1 1 1 1
0.999998 1 1 0.999998
1 1 1 1
0.999995 1 1 0.999995
1 1 1 1
0.999997 1 1 0.999997
0.999999 1 1 0.999999
0.999996 1 1 0.999996
1 1 1 1
1 1 1 1
1 1 1 1
1 1 1 1
0.999995 1 1 0.999995
0.999996 1 1 0.999996
0.999993 1 1 0.999993
0.999999 1 1 0.999999
0.999995 1 1 0.999995
0.999996 1 1 0.999996
0.999995 1 1 0.999995
1 1 1 1
1 1 1 1
1 1 1 1
1 1 1 1
1 1 1 1
1 1 1 1
1 1 1 1
1 1 1 1
1 1 1 1
1 1 1 1
1 1 1 1
0.999997 1 1 0.999997
0.999998 1 1 0.999998
1 1 1 1
1 1 1 1
1 1 1 1
0.999999 1 1 0.999999
0.999997 1 1 0.999997
0.999995 1 1 0.999995
0.999998 1 1 0.999998
0.999995 1 1 0.999995
0.999999 1 1 0.999999
0.999997 1 1 0.999997
0.999995 1 1 0.999995
0.999994 1 1 0.999994
0.999995 1 1 0.999995
0.999994 1 1 0.999994
1 1 1 1
0.999999 1 1 0.999999
0.999997 1 1 0.999997
0.999997 1 1 0.999997
1 1 1 1
1 1 1 1
1 1 1 1
0.999998 1 1 0.999998
0.999993 1 1 0.999993
0.999996 1 1 0.999996
0.999997 1 1 0.999997
0.999994 1 1 0.999994
1 1 1 1
1 1 1 1
0.999998 1 1 0.999998
0.999997 1 1 0.999997
0.999995 1 1 0.999995
0.999993 1 1 0.999993
1 1 1 1
1 1 1 1
0.999998 1 1 0.999998
0.999995 1 1 0.999995
0.999992 1 1 0.999992
0.999994 1 1 0.999994
0.999993 1 1 0.999993
0.999993 1 1 0.999993
1 1 1 1
0.999999 1 1 0.999999
1 1 1 1
0.999996 1 1 0.999996
0.999994 1 1 0.999994
0.999994 1 1 0.999994
0.999992 1 1 0.999992
0.999993 1 1 0.999993
0.999992 1 1 0.999992
1 1 1 1
0.999993 1 1 0.999993
0.999999 1 1 0.999999
0.999995 1 1 0.999995
0.999993 1 1 0.999993
0.999993 1 1 0.999993
1 1 1 1
0.999999 1 1 0.999999
0.999999 1 1 0.999999
0.999997 1 1 0.999997
0.999998 1 1 0.999998
1 1 1 1
1 1 1 1
1 1 1 1
1 1 1 1
0.999995 1 1 0.999995
1 1 1 1
0.999999 1 1 0.999999
0.999997 1 1 0.999997
0.999996 1 1 0.999996
1 1 1 1
1 1 1 1
1 1 1 1
1 1 1 1
0.999994 1 1 0.999994
0.999996 1 1 0.999996
0.999993 1 1 0.999993
0.999999 1 1 0.999999
0.999995 1 1 0.999995
0.999996 1 1 0.999996
0.999995 1 1 0.999995
1 1 1 1
1 1 1 1
1 1 1 1
1 1 1 1
0.999997 1 1 0.999997
0.999993 1 1 0.999993
0.999994 1 1 0.999994
0.999993 1 1 0.999993
0.999996 1 1 0.999996
0.999994 1 1 0.999994
0.999994 1 1 0.999994
1 1 1 1
1 1 1 1
1 1 1 1
1 1 1 1
1 1 1 1
1 1 1 1
1 1 1 1
1 1 1 1
1 1 1 1
1 1 1 1
1 1 1 1
1 1 1 1
1 1 1 1
1 1 1 1
1 1 1 1
0.999998 1 1 0.999998
0.999997 1 1 0.999997
0.999995 1 1 0.999995
0.999995 1 1 0.999995
0.999999 1 1 0.999999
1 1 1 1
0.999999 1 1 0.999999
0.999997 1 1 0.999997
0.999995 1 1 0.999995
0.999994 1 1 0.999994
0.999995 1 1 0.999995
0.999994 1 1 0.999994
0.999997 1 1 0.999997
0.999996 1 1 0.999996
0.999994 1 1 0.999994
0.999994 1 1 0.999994
0.999994 1 1 0.999994
0.999993 1 1 0.999993
0.999998 1 1 0.999998
0.999997 1 1 0.999997
0.999995 1 1 0.999995
0.999994 1 1 0.999994
1 1 1 1
1 1 1 1
0.999998 1 1 0.999998
0.999995 1 1 0.999995
0.999992 1 1 0.999992
0.999993 1 1 0.999993
0.999994 1 1 0.999994
0.999993 1 1 0.999993
1 1 1 1
0.999999 1 1 0.999999
1 1 1 1
0.999996 1 1 0.999996
0.999994 1 1 0.999994
0.999994 1 1 0.999994
0.999992 1 1 0.999992
1 1 1 1
0.999999 1 1 0.999999
0.999995 1 1 0.999995
0.999993 1 1 0.999993
0.999992 1 1 0.999992
0.999993 1 1 0.999993
0.999993 1 1 0.999993
0.999994 1 1 0.999994
0.999999 1 1 0.999999
0.999997 1 1 0.999997
1 1 1 1
0.999999 1 1 0.999999
0.999995 1 1 0.999995
0.999992 1 1 0.999992
0.999993 1 1 0.999993
0.999991 1 1 0.999991
0.999992 1 1 0.999992
0.999992 1 1 0.999992
0.999999 1 1 0.999999
0.999993 1 1 0.999993
0.999995 1 1 0.999995
0.999993 1 1 0.999993
0.999993 1 1 0.999993
0.999994 1 1 0.999994
1 1 1 1
0.999999 1 1 0.999999
0.999997 1 1 0.999997
0.999997 1 1 0.999997
0.999995 1 1 0.999995
1 1 1 1
0.999994 1 1 0.999994
1 1 1 1
1 1 1 1
1 1 1 1
0.999996 1 1 0.999996
0.999993 1 1 0.999993
0.999999 1 1 0.999999
0.999996 1 1 0.999996
0.999995 1 1 0.999995
0.999995 1 1 0.999995
1 1 1 1
1 1 1 1
1 1 1 1
1 1 1 1
0.999997 1 1 0.999997
0.999993 1 1 0.999993
0.999994 1 1 0.999994
0.999993 1 1 0.999993
0.999996 1 1 0.999996
0.999994 1 1 0.999994
0.999994 1 1 0.999994
1 1 1 1
1 1 1 1
0.999997 1 1 0.999997
0.999997 1 1 0.999997
0.999996 1 1 0.999996
0.999994 1 1 0.999994
0.999993 1 1 0.999993
0.999994 1 1 0.999994
0.999994 1 1 0.999994
0.999993 1 1 0.999993
1 1 1 1
0.999999 1 1 0.999999
0.999999 1 1 0.999999
0.999997 1 1 0.999997
0.999999 1 1 0.999999
1 1 1 1
1 1 1 1
1 1 1 1
1 1 1 1
1 1 1 1
1 1 1 1
1 1 1 1
1 1 1 1
1 1 1 1
1 1 1 1
1 1 1 1
1 1 1 1
1 1 1 1
1 1 1 1
1 1 1 1
0.999995 1 1 0.999995
0.999995 1 1 0.999995
0.999994 1 1 0.999994
0.999994 1 1 0.999994
0.999997 1 1 0.999997
0.999999 1 1 0.999999
0.999997 1 1 0.999997
0.999996 1 1 0.999996
0.999994 1 1 0.999994
0.999993 1 1 0.999993
0.999994 1 1 0.999994
0.999993 1 1 0.999993
0.999996 1 1 0.999996
0.999995 1 1 0.999995
0.999993 1 1 0.999993
0.999993 1 1 0.999993
0.999994 1 1 0.999994
0.999993 1 1 0.999993
0.999996 1 1 0.999996
0.999994 1 1 0.999994
0.999993 1 1 0.999993
0.999992 1 1 0.999992
1 1 1 1
0.999999 1 1 0.999999
0.999995 1 1 0.999995
0.999993 1 1 0.999993
0.999992 1 1 0.999992
0.999993 1 1 0.999993
0.999993 1 1 0.999993
0.999994 1 1 0.999994
0.999999 1 1 0.999999
0.999997 1 1 0.999997
1 1 1 1
0.999999 1 1 0.999999
0.999995 1 1 0.999995
0.999993 1 1 0.999993
0.999992 1 1 0.999992
0.999991 1 1 0.999991
0.999999 1 1 0.999999
0.999996 1 1 0.999996
0.999993 1 1 0.999993
0.999992 1 1 0.999992
0.999991 1 1 0.999991
0.999993 1 1 0.999993
0.999993 1 1 0.999993
0.999994 1 1 0.999994
0.999997 1 1 0.999997
0.999995 1 1 0.999995
0.999997 1 1 0.999997
1 1 1 1
0.999999 1 1 0.999999
0.999994 1 1 0.999994
0.999992 1 1 0.999992
0.999991 1 1 0.999991
0.999992 1 1 0.999992
0.999996 1 1 0.999996
0.999995 1 1 0.999995
0.999994 1 1 0.999994
0.999993 1 1 0.999993
0.999993 1 1 0.999993
1 1 1 1
0.999999 1 1 0.999999
0.999997 1 1 0.999997
0.999995 1 1 0.999995
0.999995 1 1 0.999995
0.999994 1 1 0.999994
1 1 1 1
1 1 1 1
0.999993 1 1 0.999993
1 1 1 1
1 1 1 1
0.999997 1 1 0.999997
0.999994 1 1 0.999994
0.999993 1 1 0.999993
0.999996 1 1 0.999996
0.999994 1 1 0.999994
0.999994 1 1 0.999994
1 1 1 1
1 1 1 1
0.999997 1 1 0.999997
0.999997 1 1 0.999997
0.999995 1 1 0.999995
0.999994 1 1 0.999994
0.999993 1 1 0.999993
0.999994 1 1 0.999994
0.999994 1 1 0.999994
0.999993 1 1 0.999993
1 1 1 1
0.999997 1 1 0.999997
0.999995 1 1 0.999995
0.999995 1 1 0.999995
0.999994 1 1 0.999994
0.999996 1 1 0.999996
0.999993 1 1 0.999993
0.999995 1 1 0.999995
0.999993 1 1 0.999993
0.999992 1 1 0.999992
1 1 1 1
0.999999 1 1 0.999999
0.999997 1 1 0.999997
0.999999 1 1 0.999999
0.999999 1 1 0.999999
0.999997 1 1 0.999997
0.999995 1 1 0.999995
0.999997 1 1 0.999997
0.999999 1 1 0.999999
1 1 1 1
1 1 1 1
1 1 1 1
1 1 1 1
1 1 1 1
1 1 1 1
1 1 1 1
1 1 1 1
1 1 1 1
1 1 1 1
1 1 1 1
1 1 1 1
1 1 1 1
1 1 1 1
1 1 1 1
0.999994 1 1 0.999994
0.999994 1 1 0.999994
0.999993 1 1 0.999993
0.999993 1 1 0.999993
0.999996 1 1 0.999996
0.999997 1 1 0.999997
0.999996 1 1 0.999996
0.999995 1 1 0.999995
0.999993 1 1 0.999993
0.999992 1 1 0.999992
0.999994 1 1 0.999994
0.999993 1 1 0.999993
0.999996 1 1 0.999996
0.999994 1 1 0.999994
0.999992 1 1 0.999992
0.999995 1 1 0.999995
0.999995 1 1 0.999995
0.999993 1 1 0.999993
0.999992 1 1 0.999992
0.999991 1 1 0.999991
0.999999 1 1 0.999999
0.999996 1 1 0.999996
0.999993 1 1 0.999993
0.999992 1 1 0.999992
0.999991 1 1 0.999991
0.999993 1 1 0.999993
0.999993 1 1 0.999993
0.999995 1 1 0.999995
0.999997 1 1 0.999997
0.999995 1 1 0.999995
0.999997 1 1 0.999997
1 1 1 1
0.999999 1 1 0.999999
0.999994 1 1 0.999994
0.999992 1 1 0.999992
0.999991 1 1 0.999991
0.999996 1 1 0.999996
0.999994 1 1 0.999994
0.999993 1 1 0.999993
0.999992 1 1 0.999992
0.999994 1 1 0.999994
0.999995 1 1 0.999995
1 1 1 1
0.999995 1 1 0.999995
0.999994 1 1 0.999994
0.999995 1 1 0.999995
0.999997 1 1 0.999997
0.999999 1 1 0.999999
0.999994 1 1 0.999994
0.999992 1 1 0.999992
0.999992 1 1 0.999992
0.999994 1 1 0.999994
0.999994 1 1 0.999994
0.999995 1 1 0.999995
0.999992 1 1 0.999992
0.999992 1 1 0.999992
1 1 1 1
0.999999 1 1 0.999999
0.999997 1 1 0.999997
0.999994 1 1 0.999994
0.999993 1 1 0.999993
0.999993 1 1 0.999993
1 1 1 1
1 1 1 1
0.999994 1 1 0.999994
0.999997 1 1 0.999997
0.999997 1 1 0.999997
0.999995 1 1 0.999995
0.999993 1 1 0.999993
0.999995 1 1 0.999995
0.999994 1 1 0.999994
0.999993 1 1 0.999993
1 1 1 1
0.999997 1 1 0.999997
0.999995 1 1 0.999995
0.999995 1 1 0.999995
0.999994 1 1 0.999994
0.999996 1 1 0.999996
0.999993 1 1 0.999993
0.999995 1 1 0.999995
0.999993 1 1 0.999993
0.999991 1 1 0.999991
0.999997 1 1 0.999997
0.999995 1 1 0.999995
0.999993 1 1 0.999993
0.999994 1 1 0.999994
0.999996 1 1 0.999996
0.999996 1 1 0.999996
0.999993 1 1 0.999993
0.999991 1 1 0.999991
1 1 1 1
0.999997 1 1 0.999997
0.999995 1 1 0.999995
0.999999 1 1 0.999999
0.999997 1 1 0.999997
0.999999 1 1 0.999999
0.999995 1 1 0.999995
0.999997 1 1 0.999997
0.999994 1 1 0.999994
0.999995 1 1 0.999995
0.999996 1 1 0.999996
0.999999 1 1 0.999999
1 1 1 1
1 1 1 1
1 1 1 1
1 1 1 1
1 1 1 1
1 1 1 1
1 1 1 1
1 1 1 1
1 1 1 1
1 1 1 1
1 1 1 1
1 1 1 1
1 1 1 1
1 1 1 1
1 1 1 1
0.999994 1 1 0.999994
0.999993 1 1 0.999993
0.999992 1 1 0.999992
0.999992 1 1 0.999992
0.999995 1 1 0.999995
0.999996 1 1 0.999996
0.999996 1 1 0.999996
0.999994 1 1 0.999994
0.999992 1 1 0.999992
0.999995 1 1 0.999995
0.999996 1 1 0.999996
0.999993 1 1 0.999993
0.999994 1 1 0.999994
0.999994 1 1 0.999994
0.999992 1 1 0.999992
0.999991 1 1 0.999991
0.999996 1 1 0.999996
0.999994 1 1 0.999994
0.999992 1 1 0.999992
0.999992 1 1 0.999992
0.999995 1 1 0.999995
0.999994 1 1 0.999994
0.999995 1 1 0.999995
0.999994 1 1 0.999994
0.999995 1 1 0.999995
1 1 1 1
0.999997 1 1 0.999997
0.999999 1 1 0.999999
0.999994 1 1 0.999994
0.999991 1 1 0.999991
0.999991 1 1 0.999991
0.999994 1 1 0.999994
0.999993 1 1 0.999993
0.999992 1 1 0.999992
0.999994 1 1 0.999994
0.999995 1 1 0.999995
1 1 1 1
0.999999 1 1 0.999999
0.999994 1 1 0.999994
0.999993 1 1 0.999993
0.999995 1 1 0.999995
0.999997 1 1 0.999997
0.999995 1 1 0.999995
0.99999 1 1 0.99999
0.999994 1 1 0.999994
0.999995 1 1 0.999995
0.999993 1 1 0.999993
0.999993 1 1 0.999993
0.999992 1 1 0.999992
1 1 1 1
0.999999 1 1 0.999999
0.999999 1 1 0.999999
0.999996 1 1 0.999996
0.999994 1 1 0.999994
0.999993 1 1 0.999993
0.999993 1 1 0.999993
0.999993 1 1 0.999993
1 1 1 1
0.999997 1 1 0.999997
0.999996 1 1 0.999996
0.999995 1 1 0.999995
0.999995 1 1 0.999995
0.999994 1 1 0.999994
0.999993 1 1 0.999993
0.999996 1 1 0.999996
0.999993 1 1 0.999993
0.999991 1 1 0.999991
0.999997 1 1 0.999997
0.999995 1 1 0.999995
0.999994 1 1 0.999994
0.999994 1 1 0.999994
0.999995 1 1 0.999995
0.999996 1 1 0.999996
0.999993 1 1 0.999993
0.999991 1 1 0.999991
0.999995 1 1 0.999995
0.999995 1 1 0.999995
0.999994 1 1 0.999994
0.999992 1 1 0.999992
0.999997 1 1 0.999997
0.999993 1 1 0.999993
0.999991 1 1 0.999991
0.999997 1 1 0.999997
0.999995 1 1 0.999995
0.999994 1 1 0.999994
0.999999 1 1 0.999999
0.999997 1 1 0.999997
0.999995 1 1 0.999995
0.999999 1 1 0.999999
0.999996 1 1 0.999996
0.999994 1 1 0.999994
0.999995 1 1 0.999995
0.999993 1 1 0.999993
0.999993 1 1 0.999993
0.999995 1 1 0.999995
0.999996 1 1 0.999996
0.999999 1 1 0.999999
1 1 1 1
1 1 1 1
1 1 1 1
1 1 1 1
1 1 1 1
1 1 1 1
1 1 1 1
1 1 1 1
1 1 1 1
1 1 1 1
1 1 1 1
1 1 1 1
1 1 1 1
1 1 1 1
1 1 1 1
1 1 1 1
0.999994 1 1 0.999994
0.999992 1 1 0.999992
0.999994 1 1 0.999994
0.999996 1 1 0.999996
0.999996 1 1 0.999996
0.999993 1 1 0.999993
0.999994 1 1 0.999994
0.999995 1 1 0.999995
0.999994 1 1 0.999994
0.999997 1 1 0.999997
0.999995 1 1 0.999995
0.999991 1 1 0.999991
0.999991 1 1 0.999991
0.999994 1 1 0.999994
0.999993 1 1 0.999993
0.999993 1 1 0.999993
0.999994 1 1 0.999994
0.999995 1 1 0.999995
0.999994 1 1 0.999994
0.999993 1 1 0.999993
0.999995 1 1 0.999995
1 1 1 1
0.999999 1 1 0.999999
0.999997 1 1 0.999997
0.999994 1 1 0.999994
1 1 1 1
0.999999 1 1 0.999999
0.99999 1 1 0.99999
0.999993 1 1 0.999993
0.999993 1 1 0.999993
0.999992 1 1 0.999992
0.999993 1 1 0.999993
0.999996 1 1 0.999996
0.999999 1 1 0.999999
0.999996 1 1 0.999996
0.999993 1 1 0.999993
0.999992 1 1 0.999992
0.999993 1 1 0.999993
0.999994 1 1 0.999994
0.999991 1 1 0.999991
0.999991 1 1 0.999991
0.999997 1 1 0.999997
0.999994 1 1 0.999994
0.999992 1 1 0.999992
0.999992 1 1 0.999992
0.999999 1 1 0.999999
0.999999 1 1 0.999999
0.999997 1 1 0.999997
0.999996 1 1 0.999996
0.999994 1 1 0.999994
0.999992 1 1 0.999992
0.999992 1 1 0.999992
0.999992 1 1 0.999992
0.999997 1 1 0.999997
0.999995 1 1 0.999995
0.999995 1 1 0.999995
0.999996 1 1 0.999996
0.999994 1 1 0.999994
0.999994 1 1 0.999994
0.999993 1 1 0.999993
0.999991 1 1 0.999991
0.999995 1 1 0.999995
0.999996 1 1 0.999996
0.999994 1 1 0.999994
0.999992 1 1 0.999992
0.999997 1 1 0.999997
0.999993 1 1 0.999993
0.999991 1 1 0.999991
0.999994 1 1 0.999994
0.999998 1 1 0.999998
0.999992 1 1 0.999992
0.999991 1 1 0.999991
0.999993 1 1 0.999993
0.99999 1 1 0.99999
0.999987 1 1 0.999987
0.999995 1 1 0.999995
0.999994 1 1 0.999994
0.999993 1 1 0.999993
0.999999 1 1 0.999999
0.999997 1 1 0.999997
0.999995 1 1 0.999995
0.999994 1 1 0.999994
0.999999 1 1 0.999999
0.999996 1 1 0.999996
0.999993 1 1 0.999993
0.999995 1 1 0.999995
0.999993 1 1 0.999993
0.999993 1 1 0.999993
0.999993 1 1 0.999993
0.999995 1 1 0.999995
0.999996 1 1 0.999996
0.999999 1 1 0.999999
0.999997 1 1 0.999997
0.999999 1 1 0.999999
1 1 1 1
1 1 1 1
1 1 1 1
1 1 1 1
1 1 1 1
1 1 1 1
1 1 1 1
1 1 1 1
1 1 1 1
1 1 1 1
1 1 1 1
1 1 1 1
1 1 1 1
1 1 1 1
1 1 1 1
1 1 1 1
1 1 1 1
0.999994 1 1 0.999994
0.999993 1 1 0.999993
0.999996 1 1 0.999996
0.999995 1 1 0.999995
0.999994 1 1 0.999994
0.999998 1 1 0.999998
0.999994 1 1 0.999994
0.999999 1 1 0.999999
1 1 1 1
1 1 1 1
0.999993 1 1 0.999993
0.99999 1 1 0.99999
0.999993 1 1 0.999993
0.999993 1 1 0.999993
0.999992 1 1 0.999992
0.999993 1 1 0.999993
0.999996 1 1 0.999996
0.999993 1 1 0.999993
0.999992 1 1 0.999992
0.999993 1 1 0.999993
1 1 1 1
0.999994 1 1 0.999994
0.999999 1 1 0.999999
0.999996 1 1 0.999996
0.999999 1 1 0.999999
0.99999 1 1 0.99999
0.999999 1 1 0.999999
0.999999 1 1 0.999999
0.999997 1 1 0.999997
0.999991 1 1 0.999991
0.999996 1 1 0.999996
0.999992 1 1 0.999992
0.999992 1 1 0.999992
0.999994 1 1 0.999994
0.999996 1 1 0.999996
0.999994 1 1 0.999994
0.999992 1 1 0.999992
0.999992 1 1 0.999992
0.999992 1 1 0.999992
1.00003 1 1.00004 0.999987
0.999995 1 1 0.999995
0.999996 1 1 0.999996
0.999992 1 1 0.999992
0.999992 1 1 0.999992
0.999996 1 1 0.999996
0.999996 1 1 0.999996
0.999995 1 1 0.999995
0.999993 1 1 0.999993
0.999993 1 1 0.999993
0.999991 1 1 0.999991
0.999991 1 1 0.999991
0.999995 1 1 0.999995
0.999994 1 1 0.999994
0.999997 1 1 0.999997
0.999997 1 1 0.999997
0.999993 1 1 0.999993
0.999992 1 1 0.999992
0.999991 1 1 0.999991
0.999994 1 1 0.999994
0.999998 1 1 0.999998
0.999992 1 1 0.999992
0.999991 1 1 0.999991
0.999993 1 1 0.999993
0.99999 1 1 0.99999
0.999987 1 1 0.999987
0.999992 1 1 0.999992
0.999991 1 1 0.999991
0.999992 1 1 0.999992
0.999989 1 1 0.999989
0.999987 1 1 0.999987
0.989258 0.989548 0.999718 0.999988
0.99998 1 1 0.99998
0.999981 1 1 0.999981
0.9922 0.992379 0.999813 1.00001
0.999617 0.999983 0.999634 1
0.999994 1 1 0.999994
0.999993 1 1 0.999993
0.999992 1 1 0.999992
0.999999 1 1 0.999999
0.999996 1 1 0.999996
0.999995 1 1 0.999995
0.999994 1 1 0.999994
0.999993 1 1 0.999993
0.999995 1 1 0.999995
0.999999 1 1 0.999999
0.999996 1 1 0.999996
0.999993 1 1 0.999993
0.999993 1 1 0.999993
0.999994 1 1 0.999994
0.999992 1 1 0.999992
0.999994 1 1 0.999994
0.999996 1 1 0.999996
0.999999 1 1 0.999999
0.999996 1 1 0.999996
0.999995 1 1 0.999995
0.999997 1 1 0.999997
0.999997 1 1 0.999997
0.999999 1 1 0.999999
0.999999 1 1 0.999999
1 1 1 1
1 1 1 1
1 1 1 1
1 1 1 1
1 1 1 1
1 1 1 1
1 1 1 1
1 1 1 1
1 1 1 1
1 1 1 1
1 1 1 1
1 1 1 1
1 1 1 1
1 1 1 1
1 1 1 1
1 1 1 1
1 1 1 1
1 1 1 1
0.999994 1 1 0.999994
0.999995 1 1 0.999995
1 1 1 1
0.999999 1 1 0.999999
0.999994 1 1 0.999994
0.999999 1 1 0.999999
1.00003 1 1.00004 0.999993
0.99999 1 1 0.99999
1 1 1 1
1 1 1 1
1 1 1 1
0.999997 1 1 0.999997
0.999998 1 1 0.999998
0.999989 1 1 0.999989
0.999991 1 1 0.999991
0.999996 1 1 0.999996
0.999992 1 1 0.999992
0.999992 1 1 0.999992
0.999995 1 1 0.999995
0.999992 1 1 0.999992
0.999992 1 1 0.999992
0.999993 1 1 0.999993
0.999999 1 1 0.999999
0.999994 1 1 0.999994
0.999996 1 1 0.999996
1 1 1 1
0.999996 1 1 0.999996
1.00002 1 1.00003 0.999987
0.999997 1 1 0.999997
0.999996 1 1 0.999996
0.999995 1 1 0.999995
0.999995 1 1 0.999995
0.999996 1 1 0.999996
0.999992 1 1 0.999992
0.999992 1 1 0.999992
0.999994 1 1 0.999994
0.999993 1 1 0.999993
0.999991 1 1 0.999991
0.999991 1 1 0.999991
1.00002 1 1.00003 0.999991
0.999997 1 1 0.999997
0.999993 1 1 0.999993
0.999991 1 1 0.999991
0.999994 1 1 0.999994
0.999994 1 1 0.999994
0.999991 1 1 0.999991
0.99999 1 1 0.99999
0.989175 0.990397 0.998771 0.999996
0.999994 1 1 0.999994
0.999992 1 1 0.999992
0.999999 1 1 0.999999
0.999994 1 1 0.999994
0.99999 1 1 0.99999
0.999991 1 1 0.999991
0.999986 1 1 0.999986
0.999993 1 1 0.999993
0.999991 1 1 0.999991
0.999992 1 1 0.999992
0.999989 1 1 0.999989
0.999988 1 1 0.999988
0.990164 0.990884 0.999284 0.999989
0.999984 1 1.00001 0.999974
0.99998 1 1 0.99998
0.991733 0.991922 0.999805 1
0.999848 0.999981 0.999867 1
0.999992 1 1 0.999992
0.990301 0.990484 0.999811 1
0.999795 0.999969 0.999826 1
0.999984 1 1 0.999984
0.99999 1 1 0.99999
0.999986 1 1 0.999986
1.00056 1 1.00058 0.999976
0.989847 0.989875 1 0.999971
1.00078 1 1.00082 0.999964
0.99359 0.9942 0.999383 1
1.00001 0.999995 1.00002 1
0.999993 1 1 0.999993
0.999992 1 1 0.999992
0.999992 1 1 0.999992
0.999999 1 1 0.999999
0.999996 1 1 0.999996
0.999994 1 1 0.999994
0.999993 1 1 0.999993
0.999993 1 1 0.999993
0.999999 1 1 0.999999
0.999994 1 1 0.999994
0.999994 1 1 0.999994
0.999996 1 1 0.999996
0.999992 1 1 0.999992
0.999993 1 1 0.999993
0.999991 1 1 0.999991
0.999994 1 1 0.999994
0.999996 1 1 0.999996
0.999996 1 1 0.999996
0.999995 1 1 0.999995
0.999994 1 1 0.999994
0.999995 1 1 0.999995
0.999994 1 1 0.999994
0.999995 1 1 0.999995
0.999997 1 1 0.999997
0.999997 1 1 0.999997
0.999999 1 1 0.999999
0.999996 1 1 0.999996
0.999999 1 1 0.999999
1 1 1 1
0.999999 1 1 0.999999
1 1 1 1
1 1 1 1
1 1 1 1
1 1 1 1
1 1 1 1
1 1 1 1
1 1 1 1
1 1 1 1
1 1 1 1
1 1 1 1
1 1 1 1
1 1 1 1
1 1 1 1
1 1 1 1
1 1 1 1
1 1 1 1
1 1 1 1
1 1 1 1
0.999999 1 1 0.999999
0.999994 1 1 0.999994
0.999999 1 1 0.999999
0.999993 1 1 0.999993
1 1 1 1
1.00003 1 1.00003 0.999992
1.00003 1 1.00004 0.99999
0.999993 1 1 0.999993
0.987915 0.988208 0.999719 0.999985
0.990747 0.991211 0.999532 1
0.999544 0.999986 0.999558 1
0.999997 1 1 0.999997
1 1 1 1
1 1 1 1
0.999997 1 1 0.999997
0.999995 1 1 0.999995
0.999996 1 1 0.999996
0.999997 1 1 0.999997
0.999998 1 1 0.999998
1.00001 1 1.00003 0.999988
0.999995 1 1 0.999995
0.999996 1 1 0.999996
0.999992 1 1 0.999992
0.999993 1 1 0.999993
0.999991 1 1 0.999991
0.999991 1 1 0.999991
0.999993 1 1 0.999993
0.999996 1 1 0.999996
0.999994 1 1 0.999994
0.999997 1 1 0.999997
0.999995 1 1 0.999995
1.00003 1 1.00004 0.999991
0.999994 1 1 0.999994
0.999994 1 1 0.999994
0.999997 1 1 0.999997
0.999993 1 1 0.999993
0.999991 1 1 0.999991
0.999991 1 1 0.999991
0.99999 1 1 0.99999
0.999995 1 1 0.999995
0.999993 1 1 0.999993
0.99999 1 1 0.99999
0.999988 1 1 0.999988
0.999992 1 1 0.999992
0.999991 1 1 0.999991
0.999989 1 1 0.999989
0.990559 0.992668 0.997864 1.00001
0.988348 0.989134 0.999213 0.999993
0.999993 1 1 0.999993
0.999992 1 1 0.999992
0.999992 1 1 0.999992
0.999989 1 1 0.999989
0.999989 1 1 0.999989
0.989185 0.989478 0.999718 0.999985
0.999981 1 1 0.999981
0.999979 1 1 0.999979
0.990482 0.990945 0.999533 0.999999
1.00005 0.999979 1.00007 1
0.999992 1 1 0.999992
0.991697 0.992805 0.998874 1.00001
0.999865 0.99997 0.999895 1
0.999984 1 1 0.999984
0.99999 1 1 0.99999
0.999986 1 1 0.999986
1.00048 1 1.00051 0.999976
0.98994 0.989958 1.00001 0.999968
1.00041 1 1.00044 0.999972
0.992507 0.992951 0.999559 0.999993
1 0.999989 1.00001 1
0.999991 1 1 0.999991
0.999959 0.99996 0.999999 1
1.00002 1.00001 1.00002 1
1.00013 1 1.00015 0.999982
0.999989 1 1 0.999989
1.00151 1 1.00153 0.999979
1.003 1 1.00303 0.999969
0.992975 0.992641 1.00037 0.999963
0.995664 0.996858 0.998812 0.99999
0.999984 0.999982 1 1
0.999992 1 1 0.999992
0.999992 1 1 0.999992
0.999991 1 1 0.999991
0.999999 1 1 0.999999
0.999996 1 1 0.999996
0.999994 1 1 0.999994
0.999994 1 1 0.999994
0.999992 1 1 0.999992
0.999996 1 1 0.999996
0.999993 1 1 0.999993
0.999994 1 1 0.999994
0.999991 1 1 0.999991
0.99999 1 1 0.99999
0.999992 1 1 0.999992
0.999994 1 1 0.999994
0.999996 1 1 0.999996
0.999995 1 1 0.999995
0.999994 1 1 0.999994
0.999995 1 1 0.999995
0.999994 1 1 0.999994
0.999995 1 1 0.999995
0.999993 1 1 0.999993
0.999993 1 1 0.999993
0.999994 1 1 0.999994
0.999994 1 1 0.999994
0.999995 1 1 0.999995
0.999995 1 1 0.999995
0.999997 1 1 0.999997
0.999997 1 1 0.999997
0.999999 1 1 0.999999
0.999997 1 1 0.999997
0.999999 1 1 0.999999
1 1 1 1
0.999999 1 1 0.999999
1 1 1 1
1 1 1 1
1 1 1 1
1 1 1 1
1 1 1 1
1 1 1 1
1 1 1 1
1 1 1 1
1 1 1 1
1 1 1 1
1 1 1 1
1 1 1 1
1 1 1 1
1 1 1 1
1 1 1 1
1 1 1 1
1 1 1 1
1 1 1 1
1 1 1 1
0.991137 0.992494 0.998622 1.00001
1.00002 0.999989 1.00003 1
0.999993 1 1 0.999993
1 1 1 1
1.00002 1 1.00003 0.999991
0.999998 1 1 0.999998
1.00003 1 1.00004 0.999991
0.988887 0.989624 0.999266 0.999989
0.992267 0.992559 0.999698 1.00001
0.999809 0.999982 0.999827 1
0.999992 1 1 0.999988
0.989277 0.989151 1.00015 0.999976
0.993582 0.994104 0.999471 1
0.999845 1.00003 0.999811 1
0.999994 1 1 0.999994
0.999997 1 1 0.999997
1 1 1 1
0.999997 1 1 0.999997
0.999996 1 1 0.999996
0.999995 1 1 0.999995
0.999996 1 1 0.999996
0.999997 1 1 0.999997
0.999997 1 1 0.999997
0.999998 1 1 0.999998
1.00003 1 1.00004 0.999991
0.999997 1 1 0.999997
0.999993 1 1 0.999993
0.999991 1 1 0.999991
0.99999 1 1 0.99999
0.999991 1 1 0.999991
0.999994 1 1 0.999994
0.999994 1 1 0.999994
0.999995 1 1 0.999995
0.999992 1 1 0.999992
0.999991 1 1 0.999991
0.999994 1 1 0.999994
0.999989 1 1 0.999989
0.999989 1 1 0.999989
0.999989 1 1 0.999989
0.999991 1 1 0.999991
0.999986 1 1 0.999986
0.999986 1 1 0.999986
0.999992 1 1 0.999992
0.99999 1 1 0.99999
0.999989 1 1 0.999989
0.999854 0.999977 0.999877 1
0.989404 0.990634 0.998753 1.00001
0.989604 0.990841 0.998756 0.999995
0.999992 1 1 0.999992
0.999991 1 1 0.999991
0.999984 1 1 0.999984
0.999986 1 1 0.999986
0.989953 0.991401 0.998535 1
0.990808 0.990824 1 0.999983
1.00013 1 1.00017 0.999964
1.00043 1 1.00046 0.999976
0.994001 0.99421 0.999786 1
0.999757 0.999971 0.999786 1
0.999845 1.00002 0.999828 1
0.999992 1 1 0.999992
0.999891 0.999974 0.999917 1
1.00002 1 1.00002 1
1.00013 1 1.00015 0.999981
0.999989 1 1 0.999989
1.00113 1 1.00116 0.999978
1.00314 1 1.00318 0.999964
0.991369 0.991158 1.00025 0.999958
0.997415 0.997749 0.999665 1
0.999956 1.00002 0.999941 1
0.99999 1 1 0.99999
1.00001 1.00001 1 1
0.999988 0.999986 1 1
1.00021 1 1.00022 0.999988
1.00532 1 1.00534 0.999975
0.99738 0.995035 1.0024 0.999961
0.995109 1.00004 0.995074 1
0.999963 0.999995 0.999968 1
0.999992 1 1 0.999992
0.999991 1 1 0.999991
0.99999 1 1 0.99999
0.999996 1 1 0.999996
0.999994 1 1 0.999994
0.999993 1 1 0.999993
0.999991 1 1 0.999991
0.999994 1 1 0.999994
0.999992 1 1 0.999992
0.99999 1 1 0.99999
0.99999 1 1 0.99999
0.999991 1 1 0.999991
0.999993 1 1 0.999993
0.999994 1 1 0.999994
0.999995 1 1 0.999995
0.999994 1 1 0.999994
0.999993 1 1 0.999993
0.999995 1 1 0.999995
0.999993 1 1 0.999993
0.999993 1 1 0.999993
0.999993 1 1 0.999993
0.999993 1 1 0.999993
0.999994 1 1 0.999994
0.999994 1 1 0.999994
0.999994 1 1 0.999994
0.999996 1 1 0.999996
0.999995 1 1 0.999995
0.999995 1 1 0.999995
0.999997 1 1 0.999997
0.999995 1 1 0.999995
0.999997 1 1 0.999997
0.999999 1 1 0.999999
0.999997 1 1 0.999997
0.999999 1 1 0.999999
1 1 1 1
0.999999 1 1 0.999999
1 1 1 1
1 1 1 1
1 1 1 1
1 1 1 1
1 1 1 1
1 1 1 1
1 1 1 1
1 1 1 1
0.999999 1 1 0.999999
1 1 1 1
1 1 1 1
1 1 1 1
1 1 1 1
1 1 1 1
1 1 1 1
1 1 1 1
1 1 1 1
1 1 1 1
1 1 1 1
1 1 1 1
0.999981 0.999982 0.999999 1
0.990006 0.991091 0.998897 1.00001
1.00003 1 1.00003 1
1 0.999987 1.00001 1
0.999994 1 1 0.999994
1.00003 1 1.00004 0.999991
0.989957 0.990248 0.999711 0.999996
0.990204 0.99067 0.999531 1
1.00004 0.999977 1.00007 1
0.999993 1 1 0.999989
0.990993 0.99095 1.00007 0.999974
0.992397 0.992811 0.99959 0.999993
0.999881 0.999975 0.999907 1
1.00033 1 1.00035 0.99998
0.994546 0.993035 1.00156 0.999959
0.997448 0.997572 0.999874 1
0.999973 0.999963 1.00001 1
0.999993 1 1 0.999993
0.999995 1 1 0.999995
0.999998 1 1 0.999998
0.999996 1 1 0.999996
0.999994 1 1 0.999994
0.999995 1 1 0.999995
0.999996 1 1 0.999996
0.999997 1 1 0.999997
0.999997 1 1 0.999997
0.999997 1 1 0.999997
0.999995 1 1 0.999995
0.999994 1 1 0.999994
0.999989 1 1 0.999989
0.999989 1 1 0.999989
0.999989 1 1 0.999989
0.999991 1 1 0.999991
0.999991 1 1 0.999991
0.999992 1 1 0.999992
0.999991 1 1 0.999991
0.99999 1 1 0.99999
0.999989 1 1 0.999989
0.999987 1 1 0.999987
0.999986 1 1 0.999986
0.999983 1 1 0.999983
0.999983 1 1 0.999983
0.999986 1 1 0.999986
0.999991 1 1 0.999991
0.999989 1 1 0.999989
1.00001 1.00001 1 1
0.999925 0.999978 0.999948 1
0.990664 0.992668 0.99797 1.00001
0.999992 1 1 0.999992
0.999989 1 1 0.999989
1.00012 1 1.00014 0.999981
0.999985 0.999986 0.999999 1
0.993486 0.993193 1.00034 0.99996
1.00299 1 1.00302 0.999969
1.00075 1 1.00078 0.999976
0.995627 0.996057 0.999576 0.999992
1.00001 1 1.00001 1
0.999969 1.00002 0.999953 1
0.999991 1 1 0.999991
1.00002 1.00002 1 1
0.999989 0.999987 1 1
1.00034 1 1.00035 0.999987
1.00539 1 1.00541 0.999976
0.998641 0.996574 1.00211 0.999961
0.999978 0.999988 0.999989 1
0.996084 0.999357 0.996729 0.999996
0.999989 1 1 0.999989
1 1 1 1
1 0.999997 1 1
0.99998 0.999962 1.00002 1
1.00238 1 1.00239 0.999987
1.00726 0.998505 1.0088 0.999968
0.992099 1.00007 0.992026 1
0.999991 1 1 0.999991
0.99999 1 1 0.99999
0.999989 1 1 0.999989
0.999994 1 1 0.999994
0.999992 1 1 0.999992
0.99999 1 1 0.99999
0.999993 1 1 0.999993
0.999991 1 1 0.999991
0.99999 1 1 0.99999
0.99999 1 1 0.99999
0.999992 1 1 0.999992
0.999994 1 1 0.999994
0.999995 1 1 0.999995
0.999993 1 1 0.999993
0.999993 1 1 0.999993
0.999993 1 1 0.999993
0.999992 1 1 0.999992
0.999993 1 1 0.999993
0.999991 1 1 0.999991
0.999994 1 1 0.999994
0.999994 1 1 0.999994
0.999992 1 1 0.999992
0.999993 1 1 0.999993
0.999996 1 1 0.999996
0.999993 1 1 0.999993
0.999997 1 1 0.999997
0.999996 1 1 0.999996
0.999995 1 1 0.999995
0.999995 1 1 0.999995
0.999997 1 1 0.999997
1 1 1 1
0.999997 1 1 0.999997
0.999999 1 1 0.999999
1 1 1 1
0.999999 1 1 0.999999
1 1 1 1
1 1 1 1
1 1 1 1
1 1 1 1
1 1 1 1
1 1 1 1
1 1 1 1
1 1 1 1
0.999999 1 1 0.999999
1 1 1 1
0.999999 1 1 0.999999
1 1 1 1
1 1 1 1
0.999999 1 1 0.999999
1 1 1 1
1 1 1 1
1 1 1 1
1 1 1 1
1 1 1 1
1 1 1 1
0.99999 0.99999 1 1
0.999822 0.99998 0.999842 1
0.989893 0.990133 0.999753 1.00001
0.999996 1 1 0.999996
1.00002 1.00002 0.999998 1
1.00002 1 1.00002 1
0.999773 0.999984 0.999788 1
0.999986 1 1 0.999986
0.989748 0.989234 1.00055 0.999968
0.993934 0.994095 0.999834 1
0.999787 0.999977 0.99981 1
1.00042 1 1.00045 0.999973
0.992839 0.991116 1.00178 0.999958
0.996495 0.997148 0.999349 0.999995
0.999956 0.99999 0.999966 1
1.00187 1 1.0019 0.999965
0.998109 0.995837 1.00233 0.999949
0.996535 0.999924 0.99662 0.99999
0.99997 1 0.99997 1
0.999992 1 1 0.999992
0.999993 1 1 0.999993
0.999995 1 1 0.999995
0.999994 1 1 0.999994
0.999994 1 1 0.999994
0.999996 1 1 0.999996
0.999997 1 1 0.999997
0.999997 1 1 0.999997
0.999991 1 1 0.999991
0.999988 1 1 0.999988
0.999992 1 1 0.999992
0.999986 1 1 0.999986
0.999989 1 1 0.999989
0.99999 1 1 0.99999
0.99999 1 1 0.99999
0.999983 1 1 0.999983
0.999989 1 1 0.999989
0.999986 1 1 0.999986
1.00002 1 1.00003 0.999983
0.99999 1 1 0.99999
1.00105 1 1.00107 0.99998
0.999983 1 1 0.999983
0.999987 1 1 0.999987
0.999988 1 1 0.999988
1.00001 1.00001 1 1
0.999998 0.999998 1 1
0.999979 0.999979 1 1
0.999991 1 1 0.999991
1.00046 1 1.00047 0.999986
1.00003 1.00003 1 1
0.998056 0.995077 1.00304 0.999955
1.00496 1 1.00498 0.999972
0.995281 0.99992 0.995368 0.999993
0.999988 0.999986 1 1
0.999988 0.999979 1.00001 1
0.999989 1 1 0.999989
1 1 1 1
1 1 1 1
1.00168 1 1.00169 0.99999
0.999952 0.99999 0.999962 1
1.00467 0.999183 1.00552 0.999969
0.991567 1.00006 0.99152 0.999992
0.99999 1 1 0.99999
1 1 1 1
1.00002 1.00002 0.999997 1
0.999834 1.00003 0.999799 1
0.996109 0.999801 0.996315 0.999992
1.0087 1 1.00871 0.999991
1.01079 0.999861 1.01095 0.999972
0.99999 1 1 0.99999
0.999989 1 1 0.999989
0.99999 1 1 0.99999
0.999993 1 1 0.999993
0.999991 1 1 0.999991
0.99999 1 1 0.99999
0.999992 1 1 0.999992
0.99999 1 1 0.99999
0.999989 1 1 0.999989
0.999993 1 1 0.999993
0.999993 1 1 0.999993
0.999992 1 1 0.999992
0.99999 1 1 0.99999
0.999994 1 1 0.999994
0.999991 1 1 0.999991
0.99999 1 1 0.99999
0.999991 1 1 0.999991
0.999994 1 1 0.999994
0.999992 1 1 0.999992
0.999994 1 1 0.999994
0.999995 1 1 0.999995
0.999994 1 1 0.999994
0.999997 1 1 0.999997
0.999996 1 1 0.999996
0.999993 1 1 0.999993
1 1 1 1
0.999997 1 1 0.999997
0.999995 1 1 0.999995
0.999997 1 1 0.999997
1 1 1 1
1 1 1 1
1 1 1 1
1 1 1 1
1 1 1 1
1 1 1 1
1 1 1 1
1 1 1 1
1 1 1 1
1 1 1 1
1 1 1 1
0.999999 1 1 0.999999
1 1 1 1
0.999999 1 1 0.999999
1 1 1 1
1 1 1 1
0.999999 1 1 0.999999
1 1 1 1
1 1 1 1
1 1 1 1
1 1 1 1
1 1 1 1
1 1 1 1
1.00001 1.00001 1 1
0.999992 0.999992 1 1
0.999861 0.999981 0.99988 1
0.999996 1 1 0.999996
0.999996 1 1 0.999996
0.999994 1 1 0.999994
0.999999 0.999996 1 1
1.00002 1.00002 0.999999 1
1.00001 1 1 1
1.00033 1 1.00035 0.999977
0.994611 0.992521 1.00214 0.999962
0.996078 0.996552 0.999534 0.99999
0.999979 0.999962 1.00002 1
1.00194 1 1.00197 0.999972
0.999972 0.995564 1.00447 0.99996
0.996933 1.00009 0.99684 0.999999
0.999978 0.999989 0.999989 1
1.00537 1 1.00539 0.999975
1.00156 0.999261 1.00234 0.999961
0.992179 1.00008 0.992102 0.999999
0.999988 0.999982 1.00001 1
0.999992 1 1 0.999992
0.999992 1 1 0.999992
0.999993 1 1 0.999993
0.999994 1 1 0.999994
0.999995 1 1 0.999995
0.999997 1 1 0.999997
0.999983 1 1 0.999983
1.00005 1 1.00006 0.999983
0.99999 1 1 0.99999
0.999986 1 1 0.999986
0.999989 1 1 0.999989
0.99999 1 1 0.99999
0.999988 1 1 0.999988
1.00071 1 1.00073 0.999979
0.999987 1 1 0.999987
1.00002 1 1.00003 0.999983
0.999988 1 1 0.999988
1.00246 1 1.00248 0.99998
1 1 1.00002 0.999984
0.999986 1 1 0.999986
0.999989 0.999989 1 1
1 1 1 1
0.999988 0.999988 1 1
0.999989 1 1 0.999989
1.00344 1 1.00345 0.99999
1 1 1 1
1.0042 0.999924 1.0043 0.999979
0.992081 1.00004 0.992045 1
1.00001 1.00001 1 1
0.999987 0.999962 1.00003 1
0.99999 1 1 0.99999
0.999999 0.999999 1 1
1.00002 1.00002 0.999999 1
1.01038 1 1.0104 0.999984
0.999881 0.999974 0.999907 1
0.996365 1.00009 0.996272 1
1.00381 1 1.00384 0.999968
1.00005 1 1.00006 0.999991
1.00001 1.00001 1 1
1.00003 0.999999 1.00003 1
0.999521 0.999984 0.999536 1
0.997296 0.99746 0.999834 1
1.00539 0.999104 1.00633 0.999963
1.01586 0.999961 1.01592 0.999976
0.999989 1 1 0.999989
0.99999 1 1 0.99999
1 1 1.00002 0.999986
0.999992 1 1 0.999992
0.99999 1 1 0.99999
0.999989 1 1 0.999989
0.999985 1 1 0.999985
0.999992 1 1 0.999992
0.99999 1 1 0.99999
0.999988 1 1 0.999988
0.999992 1 1 0.999992
0.99999 1 1 0.99999
0.99999 1 1 0.99999
0.999991 1 1 0.999991
0.999993 1 1 0.999993
0.999991 1 1 0.999991
0.999992 1 1 0.999992
0.999995 1 1 0.999995
0.999994 1 1 0.999994
0.999997 1 1 0.999997
0.999995 1 1 0.999995
0.999994 1 1 0.999994
1 1 1 1
0.999997 1 1 0.999997
0.999995 1 1 0.999995
1 1 1 1
1 1 1 1
0.999997 1 1 0.999997
1 1 1 1
1 1 1 1
1 1 1 1
1 1 1 1
1 1 1 1
1 1 1 1
1 1 1 1
1 1 1 1
1 1 1 1
0.999999 1 1 0.999999
1 1 1 1
0.999999 1 1 0.999999
1 1 1 1
1 1 1 1
0.999999 1 1 0.999999
1 1 1 1
1 1 1 1
1 1 1 1
1 1 1 1
1 1 1 1
1 1 1 1
1 1 1 1
1.00001 1.00001 1 1
0.999991 0.999991 1 1
0.999996 1 1 0.999996
0.999996 1 1 0.999996
0.999996 1 1 0.999996
0.999996 1 1 0.999996
0.999994 1 1 0.999994
0.999994 1 1 0.999994
0.999993 1 1 0.999993
0.999992 0.999985 1.00001 1
1 1 1 1
1.00002 1.00002 1 1
0.999984 0.99998 1 1
1.00139 1 1.00142 0.999965
1.00029 0.996449 1.00388 0.999967
0.993517 0.999363 0.99416 0.99999
1.00428 1 1.00431 0.99997
1.00291 0.999249 1.0037 0.999966
0.992004 1.00006 0.991955 0.99999
0.999962 1.00002 0.999937 1
1.01033 1 1.01035 0.999978
1.00822 1 1.00825 0.999967
0.995137 1.00005 0.995084 0.999999
1.00001 0.999996 1.00002 1
0.99999 1 1 0.99999
0.999992 1 1 0.999992
0.999992 1 1 0.999992
0.999994 1 1 0.999994
1.00039 1 1.00041 0.999979
1.00005 1 1.00007 0.999983
0.99999 1 1 0.99999
0.999988 1 1 0.999988
0.999987 1 1 0.999987
0.999989 1 1 0.999989
0.999986 1 1 0.999986
1.00209 1 1.00211 0.99998
1.00001 1 1.00003 0.999984
0.999987 1 1 0.999987
1.00331 1 1.00333 0.999982
0.999983 1 1 0.999983
1.00001 1.00001 1 1
0.999997 0.999997 1 1
0.999997 0.999997 1 1
0.999989 1 1 0.999989
1.00864 1 1.00865 0.999991
0.999997 0.999997 1 1
1.0111 0.999886 1.01125 0.999971
0.992649 0.999255 0.993398 0.999991
1.00002 1.00002 1 1
0.999779 0.999976 0.999803 1
1.00002 1 1.00003 0.999991
1.00001 1.00001 1 1
1.00002 1 1.00002 1
1.01936 1 1.01938 0.999978
0.999802 0.99998 0.999822 1
0.996058 0.997018 0.999041 0.999996
1.00536 0.999175 1.00622 0.999968
1.00139 1 1.00141 0.999982
0.99999 0.99999 1 1
1.00002 0.999988 1.00003 1
0.993437 0.994015 0.999414 1
0.99932 0.995613 1.00377 0.999956
1.01439 1 1.01442 0.999967
0.99999 1 1 0.99999
0.999998 1 1.00001 0.999986
1.00043 1 1.00045 0.999982
0.999989 1 1 0.999989
0.999986 1 1 0.999986
0.999985 1 1 0.999985
0.999989 1 1 0.999989
0.999988 1 1 0.999988
0.999989 1 1 0.999989
0.99999 1 1 0.99999
0.99999 1 1 0.99999
0.999991 1 1 0.999991
0.999992 1 1 0.999992
0.999992 1 1 0.999992
0.999991 1 1 0.999991
0.999994 1 1 0.999994
0.999993 1 1 0.999993
0.999991 1 1 0.999991
0.999997 1 1 0.999997
0.999995 1 1 0.999995
0.999994 1 1 0.999994
1 1 1 1
0.999997 1 1 0.999997
0.999996 1 1 0.999996
1 1 1 1
1 1 1 1
0.999997 1 1 0.999997
1 1 1 1
1 1 1 1
1 1 1 1
1 1 1 1
1 1 1 1
1 1 1 1
1 1 1 1
1 1 1 1
1 1 1 1
0.999997 1 1 0.999997
0.999999 1 1 0.999999
1 1 1 1
0.999999 1 1 0.999999
1 1 1 1
1 1 1 1
0.999999 1 1 0.999999
1 1 1 1
1 1 1 1
1 1 1 1
1 1 1 1
1 1 1 1
1 1 1 1
1 1 1 1
0.999999 0.999999 1 1
1.00001 1.00001 1 1
0.999997 1 1 0.999997
0.999995 1 1 0.999995
0.999995 1 1 0.999995
0.999995 1 1 0.999995
0.999994 1 1 0.999994
0.999996 1 1 0.999996
0.999994 1 1 0.999994
0.999994 1 1 0.999994
0.999993 1 1 0.999993
0.999993 1 1 0.999993
1.00002 1.00001 1.00002 1
0.999991 0.999987 1 1
1.00001 1.00001 1 1
0.999975 1.00002 0.999956 1
0.992158 1.00004 0.992119 0.999999
1.00417 1 1.0042 0.999968
1.00551 0.999241 1.00631 0.999963
1.01117 1 1.01119 0.999973
1.00037 1 1.00041 0.999964
0.996672 0.999548 0.997128 0.999995
1 0.99999 1.00001 1
1.01513 1 1.01516 0.999975
1.00523 0.998346 1.00693 0.999965
0.995298 0.996543 0.99876 0.999991
0.999615 0.999984 0.999631 1
0.999991 1 1 0.999991
0.999991 1 1 0.999991
0.999992 1 1 0.999992
1.00171 1 1.00173 0.99998
1.00002 1 1.00004 0.999984
0.999989 1 1 0.999989
0.999986 1 1 0.999986
0.999987 1 1 0.999987
0.999983 1 1 0.999983
1.00332 1 1.00333 0.999982
0.999985 1 1 0.999985
1.00112 1 1.00114 0.999983
1.00001 1.00001 1 1
1 1 1 1
1 1 1 1
0.999991 1 1 0.999991
1.01948 1 1.01951 0.999973
1.00001 1.00001 1 1
1.0062 0.999053 1.00719 0.99996
0.995889 0.996403 0.999493 0.999991
1.00001 1 1.00001 1
1.00005 0.999975 1.00008 1
1.00142 1 1.00144 0.999983
0.999992 0.999992 1 1
1 0.999986 1.00002 1
1.01559 1 1.01562 0.999969
0.992274 0.992724 0.999553 0.999994
1.0001 0.995323 1.00485 0.999955
1.00263 1 1.00265 0.999977
0.999981 0.999981 0.999999 1
0.990716 0.991272 0.999439 1
0.99468 0.992881 1.00185 0.99996
1.00635 1 1.00638 0.999969
0.999987 1 1 0.999987
1.00048 1 1.0005 0.999982
1.00033 1 1.00035 0.999982
0.999986 1 1 0.999986
0.999985 1 1 0.999985
0.999987 1 1 0.999987
0.999988 1 1 0.999988
0.999989 1 1 0.999989
0.999992 1 1 0.999992
0.99999 1 1 0.99999
0.999991 1 1 0.999991
0.999993 1 1 0.999993
0.999993 1 1 0.999993
0.999992 1 1 0.999992
0.999992 1 1 0.999992
0.999993 1 1 0.999993
0.999992 1 1 0.999992
0.999991 1 1 0.999991
0.999996 1 1 0.999996
0.999994 1 1 0.999994
0.999993 1 1 0.999993
0.999999 1 1 0.999999
0.999997 1 1 0.999997
0.999995 1 1 0.999995
1 1 1 1
1 1 1 1
0.999997 1 1 0.999997
1 1 1 1
1 1 1 1
1 1 1 1
1 1 1 1
1 1 1 1
1 1 1 1
1 1 1 1
1 1 1 1
1 1 1 1
0.999997 1 1 0.999997
1 1 1 1
0.999997 1 1 0.999997
1 1 1 1
0.999999 1 1 0.999999
1 1 1 1
1 1 1 1
0.999999 1 1 0.999999
1 1 1 1
1 1 1 1
1 1 1 1
1 1 1 1
1 1 1 1
1 1 1 1
1.00003 1.00003 1 1
1 1 1 1
0.999997 0.999997 1 1
0.999996 1 1 0.999996
0.999997 1 1 0.999997
0.999995 1 1 0.999995
0.999995 1 1 0.999995
0.999996 1 1 0.999996
0.999994 1 1 0.999994
0.999994 1 1 0.999994
0.999994 1 1 0.999994
0.999994 1 1 0.999994
0.999993 1 1 0.999993
0.999993 1 1 0.999993
0.999992 1 1 0.999992
0.999758 0.999966 0.999791 1
1.00002 1 1.00002 1
0.999991 0.999988 1 1
0.999847 1.00004 0.999812 1
0.995979 1.00004 0.995949 0.999991
1.00821 1 1.00825 0.999967
1.01081 1 1.01083 0.99998
1.01889 1 1.01891 0.99998
0.999853 0.999982 0.999871 1
1.00048 0.999152 1.00137 0.999963
0.997334 0.997666 0.999667 1
1.00793 1 1.00794 0.999983
0.998859 0.994828 1.00409 0.999959
0.993444 0.994004 0.999431 1.00001
0.999991 1 1 0.999991
0.999991 1 1 0.999991
0.999991 1 1 0.999991
1.00332 1 1.00334 0.999982
0.999983 1 1 0.999983
0.999987 1 1 0.999987
0.999985 1 1 0.999985
1.00109 1 1.00111 0.999983
0.999984 1 1 0.999984
0.999817 0.999952 0.999864 1
1.00001 1.00001 1 1
0.999997 0.999997 1 1
1.00147 1 1.00149 0.999983
1.01397 1 1.014 0.99997
0.99999 0.99999 1 1
1.00273 0.99627 1.00652 0.999969
0.993806 0.994007 0.999793 1
0.999762 0.999983 0.999778 1
1.00291 1 1.00294 0.999976
0.999809 0.999979 0.99983 1
0.992234 0.992565 0.999658 1.00001
1.00664 1 1.00668 0.999963
0.992964 0.990976 1.00205 0.999958
1.00093 1 1.00095 0.999976
0.991127 0.99261 0.998494 1.00001
0.989283 0.989184 1.00013 0.999976
1.00243 1 1.00247 0.999963
1.00053 1 1.00055 0.999982
1.00039 1 1.00041 0.999981
0.999986 1 1 0.999986
0.999985 1 1 0.999985
0.999988 1 1 0.999988
0.999993 1 1 0.999993
0.999989 1 1 0.999989
0.999992 1 1 0.999992
0.999995 1 1 0.999995
0.999991 1 1 0.999991
0.999993 1 1 0.999993
0.999995 1 1 0.999995
0.999994 1 1 0.999994
0.999993 1 1 0.999993
0.999993 1 1 0.999993
0.999993 1 1 0.999993
0.999992 1 1 0.999992
0.999992 1 1 0.999992
0.999995 1 1 0.999995
0.999993 1 1 0.999993
0.999992 1 1 0.999992
0.999999 1 1 0.999999
0.999996 1 1 0.999996
0.999994 1 1 0.999994
1 1 1 1
0.999999 1 1 0.999999
0.999996 1 1 0.999996
1 1 1 1
1 1 1 1
1 1 1 1
1 1 1 1
1 1 1 1
1 1 1 1
1 1 1 1
1 1 1 1
1 1 1 1
0.999998 1 1 0.999998
0.999997 1 1 0.999997
1 1 1 1
1 1 1 1
1 1 1 1
0.999997 1 1 0.999997
1 1 1 1
1 1 1 1
0.999999 1 1 0.999999
1 1 1 1
1 1 1 1
1 1 1 1
1 1 1 1
1 1 1 1
1 1 1 1
0.999955 0.999956 0.999999 1
1.00003 1.00003 1 1
1 1 1 1
0.999996 1 1 0.999996
0.999995 1 1 0.999995
0.999994 1 1 0.999994
0.999995 1 1 0.999995
0.999996 1 1 0.999996
0.999994 1 1 0.999994
0.999994 1 1 0.999994
0.999994 1 1 0.999994
0.999993 1 1 0.999993
0.999992 1 1 0.999992
0.999993 1 1 0.999993
0.999992 1 1 0.999992
0.992234 0.992446 0.999778 1.00001
0.999861 0.999969 0.999892 1
1.00002 1 1.00001 1
1.00005 0.99998 1.00007 1
0.995518 0.99596 0.999563 0.999992
1.00217 1 1.0022 0.999971
1.01628 1 1.01631 0.999974
1.00944 1 1.00946 0.999975
0.992098 0.992538 0.999561 0.999995
1.00036 0.996493 1.00391 0.999967
1.00362 1 1.00365 0.999971
0.994632 0.991994 1.00269 0.999969
0.99999 1 1 0.99999
0.999991 1 1 0.999991
0.999991 1 1 0.999991
1.00107 1 1.00108 0.999983
0.999985 1 1 0.999985
0.999997 1 1.00001 0.999984
0.999985 1 1 0.999985
0.99049 0.992841 0.997621 1.00001
0.999907 0.999966 0.999941 1
1.00001 1.00001 1 1
1.0032 1 1.00322 0.999976
1.00637 1 1.0064 0.999969
0.999848 0.99998 0.999867 1
0.994357 0.992465 1.00194 0.999962
0.990158 0.990654 0.999499 1
1.00092 1 1.00094 0.999976
0.989948 0.991157 0.998772 1.00001
0.99099 0.990974 1.00004 0.999973
1.00262 1 1.00265 0.99997
0.99998 1 1 0.99998
0.987914 0.988288 0.999638 0.999984
1.00034 1 1.00036 0.999979
1.00045 1 1.00047 0.99998
0.999986 1 1 0.999986
0.999993 1 1 0.999993
0.999988 1 1 0.999988
0.999993 1 1 0.999993
0.999997 1 1 0.999997
0.999992 1 1 0.999992
0.999995 1 1 0.999995
0.999996 1 1 0.999996
0.999993 1 1 0.999993
0.999995 1 1 0.999995
0.999995 1 1 0.999995
0.999993 1 1 0.999993
0.999994 1 1 0.999994
0.999993 1 1 0.999993
0.999993 1 1 0.999993
0.999993 1 1 0.999993
0.999993 1 1 0.999993
0.999994 1 1 0.999994
0.999993 1 1 0.999993
0.999992 1 1 0.999992
0.999998 1 1 0.999998
0.999995 1 1 0.999995
0.999993 1 1 0.999993
1 1 1 1
0.999999 1 1 0.999999
0.999996 1 1 0.999996
1 1 1 1
1 1 1 1
0.999999 1 1 0.999999
1 1 1 1
1 1 1 1
1 1 1 1
1 1 1 1
1 1 1 1
1 1 1 1
0.999997 1 1 0.999997
0.999997 1 1 0.999997
1 1 1 1
0.999997 1 1 0.999997
1 1 1 1
1 1 1 1
1 1 1 1
1 1 1 1
1 1 1 1
1 1 1 1
1 1 1 1
1 1 1 1
1 1 1 1
1 1 1 1
1 1 1 1
0.990231 0.990473 0.999751 1
0.999859 0.99996 0.999899 1
1.00003 1.00003 1 1
0.999995 1 1 0.999995
0.999995 1 1 0.999995
0.999995 1 1 0.999995
0.999995 1 1 0.999995
0.999994 1 1 0.999994
0.999994 1 1 0.999994
0.999994 1 1 0.999994
0.999993 1 1 0.999993
0.999993 1 1 0.999993
0.999992 1 1 0.999992
0.999991 1 1 0.999991
0.999992 1 1 0.999992
0.999992 1 1 0.999992
0.990141 0.989709 1.00046 0.999973
0.991601 0.991849 0.999744 1.00001
0.999755 0.999972 0.999783 1
0.993876 0.994036 0.999833 1.00001
0.999066 0.994858 1.00428 0.999951
1.00797 1 1.00798 0.999983
1.00409 1 1.00411 0.999975
0.992969 0.990775 1.00225 0.999965
1.00166 1 1.00169 0.999975
0.999986 1 1 0.999986
0.999989 1 1 0.999989
0.999991 1 1 0.999991
1.00001 1 1.00002 0.999984
0.999986 1 1 0.999986
0.989173 0.990551 0.998615 0.999995
0.989364 0.990775 0.99857 1.00001
0.999977 0.999977 1 1
1.0009 1 1.00092 0.999975
1.00223 1 1.00227 0.999963
0.989924 0.990239 0.999676 1.00001
0.989749 0.989283 1.0005 0.999968
0.99998 1 1 0.99998
0.988928 0.989767 0.999163 0.999989
1.00042 1 1.00045 0.999972
0.999989 1 1 0.999989
0.999989 1 1 0.999988
0.999986 1 1 0.999986
0.999994 1 1 0.999994
0.999998 1 1 0.999998
0.999993 1 1 0.999993
0.999997 1 1 0.999997
0.999997 1 1 0.999997
0.999995 1 1 0.999995
0.999996 1 1 0.999996
0.999995 1 1 0.999995
0.999995 1 1 0.999995
0.999994 1 1 0.999994
0.999993 1 1 0.999993
0.999993 1 1 0.999993
0.999992 1 1 0.999992
0.999994 1 1 0.999994
0.999993 1 1 0.999993
0.999993 1 1 0.999993
0.999994 1 1 0.999994
0.999993 1 1 0.999993
0.999993 1 1 0.999993
0.999997 1 1 0.999997
0.999995 1 1 0.999995
0.999993 1 1 0.999993
1 1 1 1
0.999998 1 1 0.999998
0.999995 1 1 0.999995
1 1 1 1
1 1 1 1
0.999999 1 1 0.999999
1 1 1 1
1 1 1 1
1 1 1 1
1 1 1 1
1 1 1 1
1 1 1 1
0.999996 1 1 0.999996
0.999997 1 1 0.999997
0.999999 1 1 0.999999
0.999997 1 1 0.999997
0.999999 1 1 0.999999
1 1 1 1
1 1 1 1
1 1 1 1
1 1 1 1
1 1 1 1
1 1 1 1
1 1 1 1
1 1 1 1
1 1 1 1
1 1 1 1
0.989369 0.989729 0.999647 0.999989
0.99164 0.992898 0.998722 1.00001
0.999962 0.999963 0.999999 1
0.999995 1 1 0.999995
0.999995 1 1 0.999995
0.999994 1 1 0.999994
0.999995 1 1 0.999995
0.999994 1 1 0.999994
0.999994 1 1 0.999994
0.999993 1 1 0.999993
0.999993 1 1 0.999993
0.999992 1 1 0.999992
0.999992 1 1 0.999992
0.999991 1 1 0.999991
0.999987 1 1 0.999987
0.999991 1 1 0.999991
0.999992 1 1 0.999992
1.00041 1 1.00042 0.999988
0.989879 0.98989 1.00001 0.999981
0.990035 0.990565 0.999462 1
0.994994 0.992905 1.00214 0.999964
1.00466 1 1.00468 0.99998
1.00198 1 1.002 0.99998
0.999983 1 1 0.999983
0.999986 1 1 0.999986
0.999989 1 1 0.999989
0.999987 1 1 0.999987
1.00001 1 1.00002 0.999991
0.988475 0.989392 0.999081 0.999992
0.990607 0.992841 0.997739 1.00001
0.99998 1 1 0.99998
1.00033 1 1.00036 0.999976
0.98993 0.990355 0.999575 0.999995
0.999989 1 1 0.999989
0.999994 1 1.00001 0.999989
0.999994 1 1 0.999994
0.999992 1 1 0.999991
0.999994 1 1 0.999994
0.999998 1 1 0.999998
0.999995 1 1 0.999995
0.999997 1 1 0.999997
0.999997 1 1 0.999997
0.999994 1 1 0.999994
0.999996 1 1 0.999996
0.999995 1 1 0.999995
0.999992 1 1 0.999992
0.999994 1 1 0.999994
0.999993 1 1 0.999993
0.999992 1 1 0.999992
0.999993 1 1 0.999993
0.999993 1 1 0.999993
0.999993 1 1 0.999993
0.999993 1 1 0.999993
0.999993 1 1 0.999993
0.999994 1 1 0.999994
0.999996 1 1 0.999996
0.999994 1 1 0.999994
0.999993 1 1 0.999993
1 1 1 1
0.999998 1 1 0.999998
0.999995 1 1 0.999995
1 1 1 1
1 1 1 1
0.999998 1 1 0.999998
1 1 1 1
1 1 1 1
1 1 1 1
1 1 1 1
1 1 1 1
1 1 1 1
0.999996 1 1 0.999996
0.999996 1 1 0.999996
0.999999 1 1 0.999999
0.999997 1 1 0.999997
0.999999 1 1 0.999999
1 1 1 1
0.999999 1 1 0.999999
1 1 1 1
1 1 1 1
1 1 1 1
1 1 1 1
1 1 1 1
1 1 1 1
1 1 1 1
1 1 1 1
0.999996 1 1 0.999996
0.990218 0.991027 0.999193 0.999991
0.990044 0.991687 0.998338 1.00001
0.999994 1 1 0.999994
0.999994 1 1 0.999994
0.999995 1 1 0.999995
0.999994 1 1 0.999994
0.999994 1 1 0.999994
0.999993 1 1 0.999993
0.999993 1 1 0.999993
0.999992 1 1 0.999992
0.999992 1 1 0.999992
0.999992 1 1 0.999992
0.99999 1 1 0.99999
0.999985 1 1 0.999985
0.999988 1 1 0.999988
0.999991 1 1 0.999991
0.999989 1 1 0.999989
1.0004 1 1.00041 0.999984
0.990586 0.990405 1.0002 0.999988
1.00166 1 1.00168 0.999974
0.999982 1 1 0.999982
0.999985 1 1 0.999985
1.00002 1 1.00002 0.999999
1.00001 1 1.00001 0.999995
0.989539 0.990911 0.998621 0.999994
0.999989 1 1 0.999989
0.999997 1 1.00001 0.999986
0.999994 1 1 0.999994
0.999998 1 1.00001 0.999992
0.999991 1 1 0.999991
0.999993 1 1 0.999993
0.999998 1 1 0.999998
0.999995 1 1 0.999995
0.999991 1 1 0.999991
0.999996 1 1 0.999996
0.999994 1 1 0.999994
0.999992 1 1 0.999992
0.999994 1 1 0.999994
0.999992 1 1 0.999992
0.999991 1 1 0.999991
0.999993 1 1 0.999993
0.999992 1 1 0.999992
0.999992 1 1 0.999992
0.999993 1 1 0.999993
0.999992 1 1 0.999992
0.999993 1 1 0.999993
0.999993 1 1 0.999993
0.999994 1 1 0.999994
0.999996 1 1 0.999996
1 1 1 1
0.999997 1 1 0.999997
0.999994 1 1 0.999994
1 1 1 1
1 1 1 1
0.999998 1 1 0.999998
1 1 1 1
1 1 1 1
1 1 1 1
1 1 1 1
1 1 1 1
1 1 1 1
0.999995 1 1 0.999995
0.999996 1 1 0.999996
0.999998 1 1 0.999998
0.999997 1 1 0.999997
0.999999 1 1 0.999999
1 1 1 1
0.999999 1 1 0.999999
1 1 1 1
1 1 1 1
1 1 1 1
1 1 1 1
1 1 1 1
1 1 1 1
1 1 1 1
1 1 1 1
0.999998 1 1 0.999998
0.99999 1 1 0.99999
0.989366 0.98967 0.9997 0.999992
0.999993 1 1 0.999993
0.999993 1 1 0.999993
0.999994 1 1 0.999994
0.999994 1 1 0.999994
0.999994 1 1 0.999994
0.999993 1 1 0.999993
0.99999 1 1 0.99999
0.999993 1 1 0.999993
0.999992 1 1 0.999992
0.99999 1 1 0.99999
0.999986 1 1 0.999986
0.999991 1 1 0.999991
0.999985 1 1 0.999985
0.999988 1 1 0.999988
0.999989 1 1 0.999989
1.00041 1 1.00042 0.999983
0.999981 1 1 0.999981
1 1 1 1
1.00001 1 1.00001 0.999999
0.999994 1 1 0.999993
0.999994 1 1 0.999994
1 1 1.00001 0.999992
0.999991 1 1 0.999991
0.999994 1 1 0.999994
0.999991 1 1 0.999991
0.999997 1 1 0.999997
0.999995 1 1 0.999995
0.999992 1 1 0.999992
0.999991 1 1 0.999991
0.999994 1 1 0.999994
0.999992 1 1 0.999992
0.999991 1 1 0.999991
0.999993 1 1 0.999993
0.999991 1 1 0.999991
0.999991 1 1 0.999991
0.999992 1 1 0.999992
0.999992 1 1 0.999992
0.999992 1 1 0.999992
0.999992 1 1 0.999992
0.999993 1 1 0.999993
0.999995 1 1 0.999995
0.999994 1 1 0.999994
0.999996 1 1 0.999996
1 1 1 1
1 1 1 1
1 1 1 1
0.999997 1 1 0.999997
1 1 1 1
1 1 1 1
1 1 1 1
1 1 1 1
1 1 1 1
1 1 1 1
0.999994 1 1 0.999994
0.999995 1 1 0.999995
0.999998 1 1 0.999998
0.999996 1 1 0.999996
0.999998 1 1 0.999998
1 1 1 1
0.999999 1 1 0.999999
1 1 1 1
1 1 1 1
1 1 1 1
1 1 1 1
1 1 1 1
1 1 1 1
1 1 1 1
1 1 1 1
0.999998 1 1 0.999998
0.999998 1 1 0.999998
0.999996 1 0.999998 0.999997
0.999992 1 1 0.999992
0.999993 1 1 0.999993
0.999991 1 1 0.999991
0.999993 1 1 0.999993
0.999994 1 1 0.999994
0.999988 1 1 0.999988
0.999993 1 1 0.999993
0.99999 1 1 0.99999
0.99999 1 1 0.99999
0.99999 1 1 0.99999
0.999986 1 1 0.999986
0.999991 1 1 0.999991
0.999985 1 1 0.999985
0.999989 1 1 0.999989
1 1 1 1
1 1 1 1
0.999999 1 1 0.999999
0.999991 1 1 0.999991
0.999994 1 1 0.999994
0.999991 1 1 0.999991
0.999998 1 1 0.999998
0.999996 1 1 0.999996
0.999992 1 1 0.999992
0.999991 1 1 0.999991
0.999992 1 1 0.999992
0.999992 1 1 0.999992
0.999991 1 1 0.999991
0.999992 1 1 0.999992
0.999991 1 1 0.999991
0.999991 1 1 0.999991
0.999992 1 1 0.999992
0.999992 1 1 0.999992
0.999992 1 1 0.999992
0.999994 1 1 0.999994
0.999993 1 1 0.999993
0.999995 1 1 0.999995
0.999999 1 1 0.999999
0.999996 1 1 0.999996
1 1 1 1
1 1 1 1
1 1 1 1
1 1 1 1
1 1 1 1
1 1 1 1
1 1 1 1
1 1 1 1
0.999991 1 1 0.999991
0.999993 1 1 0.999993
0.999994 1 1 0.999994
0.999997 1 1 0.999997
0.999995 1 1 0.999995
0.999998 1 1 0.999998
1 1 1 1
0.999998 1 1 0.999998
1 1 1 1
1 1 1 1
1 1 1 1
1 1 1 1
1 1 1 1
1 1 1 1
1 1 1 1
1 1 1 1
0.999997 1 1 0.999997
0.999998 1 1 0.999998
0.999998 1 1 0.999998
0.999989 1 1 0.999989
0.999992 1 1 0.999992
0.999994 1 1 0.999994
0.999991 1 1 0.999991
0.999993 1 1 0.999993
0.999989 1 1 0.999989
0.999988 1 1 0.999988
0.99999 1 1 0.99999
0.99999 1 1 0.99999
0.999986 1 1 0.999986
0.999991 1 1 0.999991
0.999999 1 1 0.999999
1 1 1 1
1 1 1 1
0.99999 1 1 0.99999
0.999999 1 1 0.999999
0.999996 1 1 0.999996
0.999997 1 1 0.999997
0.999991 1 1 0.999991
0.999992 1 1 0.999992
0.999994 1 1 0.999994
0.999991 1 1 0.999991
0.999991 1 1 0.999991
0.999992 1 1 0.999992
0.999991 1 1 0.999991
0.999992 1 1 0.999992
0.999993 1 1 0.999993
0.999992 1 1 0.999992
0.999994 1 1 0.999994
0.999998 1 1 0.999998
0.999995 1 1 0.999995
0.999999 1 1 0.999999
1 1 1 1
0.999999 1 1 0.999999
1 1 1 1
1 1 1 1
1 1 1 1
1 1 1 1
1 1 1 1
0.99999 1 1 0.99999
0.999993 1 1 0.999993
0.999991 1 1 0.999991
0.999996 1 1 0.999996
0.999993 1 1 0.999993
0.999994 1 1 0.999994
0.999997 1 1 0.999997
1 1 1 1
0.999998 1 1 0.999998
1 1 1 1
1 1 1 1
1 1 1 1
1 1 1 1
1 1 1 1
1 1 1 1
1 1 1 1
1 1 1 1
0.999995 1 1 0.999995
0.999997 1 1 0.999997
0.999998 1 1 0.999998
0.99999 1 1 0.99999
0.999989 1 1 0.999989
0.999992 1 1 0.999992
0.999991 1 1 0.999991
0.999989 1 1 0.999989
0.999987 1 1 0.999987
0.99999 1 1 0.99999
0.999999 1 1 0.999999
0.999999 1 1 0.999999
1 1 1 1
0.999997 1 1 0.999997
0.999996 1 1 0.999996
0.999996 1 1 0.999996
0.999996 1 1 0.999996
0.999992 1 1 0.999992
0.999994 1 1 0.999994
0.999993 1 1 0.999993
0.999991 1 1 0.999991
0.999992 1 1 0.999992
0.999993 1 1 0.999993
0.999992 1 1 0.999992
0.999993 1 1 0.999993
0.999997 1 1 0.999997
0.999994 1 1 0.999994
0.999998 1 1 0.999998
1 1 1 1
0.999999 1 1 0.999999
1 1 1 1
1 1 1 1
1 1 1 1
1 1 1 1
1 1 1 1
0.99999 1 1 0.99999
0.999991 1 1 0.999991
0.99999 1 1 0.99999
0.999995 1 1 0.999995
0.999993 1 1 0.999993
0.999992 1 1 0.999992
0.999999 1 1 0.999999
0.999996 1 1 0.999996
0.999993 1 1 0.999993
0.999997 1 1 0.999997
1 1 1 1
1 1 1 1
1 1 1 1
1 1 1 1
1 1 1 1
1 1 1 1
1 1 1 1
1 1 1 1
0.999994 1 1 0.999994
0.999995 1 1 0.999995
0.999997 1 1 0.999997
0.999989 1 1 0.999989
0.999989 1 1 0.999989
0.999989 1 1 0.999989
0.999997 1 1 0.999997
0.999999 1 1 0.999999
0.999999 1 1 0.999999
0.999997 1 1 0.999997
0.999997 1 1 0.999997
0.999996 1 1 0.999996
0.999996 1 1 0.999996
0.999996 1 1 0.999996
0.999994 1 1 0.999994
0.999993 1 1 0.999993
0.999994 1 1 0.999994
0.999992 1 1 0.999992
0.999993 1 1 0.999993
0.999996 1 1 0.999996
0.999993 1 1 0.999993
0.999997 1 1 0.999997
1 1 1 1
0.999998 1 1 0.999998
1 1 1 1
1 1 1 1
1 1 1 1
1 1 1 1
1 1 1 1
0.999994 1 1 0.999994
0.99999 1 1 0.99999
0.99999 1 1 0.99999
0.999993 1 1 0.999993
0.999991 1 1 0.999991
0.99999 1 1 0.99999
0.999999 1 1 0.999999
0.999995 1 1 0.999995
0.999992 1 1 0.999992
1 1 1 1
1 1 1 1
0.999996 1 1 0.999996
1 1 1 1
1 1 1 1
1 1 1 1
1 1 1 1
1 1 1 1
1 1 1 1
0.999993 1 1 0.999993
0.999994 1 1 0.999994
0.999995 1 1 0.999995
0.999989 1 1 0.999989
0.999996 1 1 0.999996
0.999998 1 1 0.999998
0.999999 1 1 0.999999
0.999997 1 1 0.999997
0.999997 1 1 0.999997
0.999997 1 1 0.999997
0.999996 1 1 0.999996
0.999995 1 1 0.999995
0.999995 1 1 0.999995
0.999994 1 1 0.999994
0.999994 1 1 0.999994
0.999997 1 1 0.999997
0.999993 1 1 0.999993
0.999996 1 1 0.999996
1 1 1 1
0.999997 1 1 0.999997
1 1 1 1
1 1 1 1
1 1 1 1
1 1 1 1
1 1 1 1
0.999994 1 1 0.999994
0.999993 1 1 0.999993
0.999994 1 1 0.999994
0.999992 1 1 0.999992
0.999991 1 1 0.999991
0.99999 1 1 0.99999
0.999997 1 1 0.999997
0.999993 1 1 0.999993
0.999991 1 1 0.999991
1 1 1 1
0.999999 1 1 0.999999
0.999994 1 1 0.999994
1 1 1 1
1 1 1 1
1 1 1 1
1 1 1 1
1 1 1 1
1 1 1 1
0.999994 1 1 0.999994
0.999994 1 1 0.999994
0.999994 1 1 0.999994
0.999998 1 1 0.999998
0.999996 1 1 0.999996
0.999998 1 1 0.999998
0.999997 1 1 0.999997
0.999997 1 1 0.999997
0.999998 1 1 0.999998
0.999995 1 1 0.999995
0.999996 1 1 0.999996
0.999997 1 1 0.999997
0.999994 1 1 0.999994
0.999997 1 1 0.999997
1 1 1 1
0.999996 1 1 0.999996
1 1 1 1
1 1 1 1
1 1 1 1
1 1 1 1
1 1 1 1
0.999993 1 1 0.999993
0.999994 1 1 0.999994
0.999994 1 1 0.999994
0.999993 1 1 0.999993
0.999993 1 1 0.999993
0.999994 1 1 0.999994
0.999996 1 1 0.999996
0.999992 1 1 0.999992
0.999991 1 1 0.999991
1 1 1 1
0.999997 1 1 0.999997
0.999993 1 1 0.999993
1 1 1 1
1 1 1 1
0.999998 1 1 0.999998
1 1 1 1
1 1 1 1
1 1 1 1
0.999996 1 1 0.999996
0.999994 1 1 0.999994
0.999995 1 1 0.999995
0.999999 1 1 0.999999
0.999998 1 1 0.999998
0.999996 1 1 0.999996
0.999997 1 1 0.999997
0.999998 1 1 0.999998
0.999999 1 1 0.999999
0.999996 1 1 0.999996
0.999998 1 1 0.999998
1 1 1 1
0.999997 1 1 0.999997
1 1 1 1
1 1 1 1
1 1 1 1
1 1 1 1
1 1 1 1
0.999995 1 1 0.999995
0.999993 1 1 0.999993
0.999995 1 1 0.999995
0.999994 1 1 0.999994
0.999994 1 1 0.999994
0.999996 1 1 0.999996
0.999993 1 1 0.999993
0.999993 1 1 0.999993
1 1 1 1
0.999996 1 1 0.999996
0.999993 1 1 0.999993
1 1 1 1
1 1 1 1
0.999997 1 1 0.999997
1 1 1 1
1 1 1 1
1 1 1 1
0.999997 1 1 0.999997
0.999996 1 1 0.999996
0.999994 1 1 0.999994
1 1 1 1
0.999999 1 1 0.999999
0.999997 1 1 0.999997
0.999998 1 1 0.999998
0.999999 1 1 0.999999
1 1 1 1
0.999998 1 1 0.999998
1 1 1 1
1 1 1 1
1 1 1 1
1 1 1 1
1 1 1 1
0.999996 1 1 0.999996
0.999994 1 1 0.999994
0.999992 1 1 0.999992
0.999997 1 1 0.999997
0.999995 1 1 0.999995
0.999994 1 1 0.999994
1 1 1 1
0.999996 1 1 0.999996
0.999993 1 1 0.999993
1 1 1 1
1 1 1 1
0.999996 1 1 0.999996
1 1 1 1
1 1 1 1
1 1 1 1
0.999999 1 1 0.999999
0.999997 1 1 0.999997
0.999996 1 1 0.999996
1 1 1 1
1 1 1 1
0.999999 1 1 0.999999
0.999999 1 1 0.999999
1 1 1 1
1 1 1 1
1 1 1 1
1 1 1 1
1 1 1 1
0.999999 1 1 0.999999
0.999996 1 1 0.999996
0.999994 1 1 0.999994
1 1 1 1
0.999997 1 1 0.999997
0.999995 1 1 0.999995
1 1 1 1
1 1 1 1
0.999996 1 1 0.999996
1 1 1 1
1 1 1 1
1 1 1 1
1 1 1 1
0.999999 1 1 0.999999
0.999997 1 1 0.999997
1 1 1 1
1 1 1 1
1 1 1 1
1 1 1 1
1 1 1 1
1 1 1 1
1 1 1 1
0.999998 1 1 0.999998
0.999996 1 1 0.999996
1 1 1 1
1 1 1 1
0.999997 1 1 0.999997
1 1 1 1
1 1 1 1
1 1 1 1
1 1 1 1
1 1 1 1
0.999999 1 1 0.999999
1 1 1 1
1 1 1 1
1 1 1 1
1 1 1 1
1 1 1 1
0.999998 1 1 0.999998
1 1 1 1
1 1 1 1
1 1 1 1
1 1 1 1
1 1 1 1
1 1 1 1
1 1 1 1
1 1 1 1
1 1 1 1
1 1 1 1
1 1 1 1

VECTORS lamdaE float
0.999388 0.997455 0.998413
0.999509 0.996878 0.999417
0.999393 0.99741 0.998426
0.998973 0.998772 0.998027
0.999274 0.997827 0.998299
0.999475 0.997152 0.998514
0.999582 0.998258 0.997159
0.99952 0.996898 0.999426
0.999293 0.997723 0.999269
0.999463 0.997087 0.999392
0.999576 0.996655 0.998711
0.999653 0.997725 0.997381
0.998297 1.00026 0.997843
0.998773 0.999215 0.99794
0.999397 0.997364 0.998439
0.99897 0.998728 0.998045
0.999481 0.997108 0.998526
0.999277 0.997781 0.998314
0.999574 0.998269 0.997166
0.998381 0.999899 0.999065
0.998803 0.999296 0.997882
0.999134 0.998271 0.998171
0.9993 0.999466 0.996578
0.999505 0.998606 0.996985
0.999544 0.996906 0.9986
0.999637 0.997967 0.997318
0.999868 0.999582 0.995353
0.999531 0.996918 0.999436
0.999292 0.997768 0.998761
0.999463 0.997105 0.998967
0.999572 0.996692 0.999452
0.999648 0.997705 0.997387
0.999129 0.998222 0.99812
0.999369 0.997398 0.998433
0.99954 0.998588 0.997202
0.999641 0.996497 0.999472
0.999617 0.997963 0.997633
0.999678 0.997544 0.997496
0.999846 0.99914 0.995588
0.999726 0.996282 0.999474
0.998315 0.99993 0.999091
0.998738 0.999206 0.998518
0.998136 1.00019 0.999119
0.998553 0.999759 0.997861
0.998765 1.00087 0.995991
0.998978 0.998575 0.999159
0.999137 0.999863 0.99669
0.998968 0.998681 0.998064
0.99928 0.997733 0.998329
0.999487 0.997064 0.998538
0.999566 0.998282 0.997173
0.998359 1.00006 0.998431
0.998797 0.999257 0.997898
0.999552 0.996862 0.998609
0.999134 0.998225 0.998188
0.999297 0.999462 0.996587
0.999629 0.997983 0.997325
0.999499 0.998613 0.996992
0.999869 0.999588 0.995321
0.998245 1.00013 0.999083
0.998607 0.999807 0.997799
0.998812 1.00071 0.996529
0.999192 0.999919 0.996368
0.999408 0.999014 0.996792
0.999788 1.00051 0.994557
0.999856 0.999867 0.994979
0.999615 0.996732 0.998667
0.999682 0.997715 0.997477
0.999869 0.999353 0.995575
1.00007 1.00031 0.993966
0.999308 0.997751 0.99929
0.999585 0.996727 0.99946
0.999469 0.997145 0.999401
0.999643 0.997684 0.997394
0.999137 0.998166 0.999197
0.999368 0.997412 0.999328
0.999542 0.998598 0.996722
0.999641 0.996508 0.999108
0.999618 0.997939 0.997235
0.999679 0.997532 0.997694
0.999843 0.999136 0.995589
0.999677 0.996388 0.999473
0.999814 0.997159 0.997607
0.999455 0.999024 0.9964
0.999575 0.998271 0.996948
0.999909 0.999888 0.994688
0.999727 0.997379 0.99794
0.999859 0.999352 0.995347
0.999846 0.998963 0.995768
0.999974 0.999984 0.994497
0.99977 0.996184 0.999477
0.999733 0.996304 0.999475
0.998819 0.999026 0.999134
0.998397 0.999867 0.999088
0.998173 1.00016 0.999112
0.998522 0.999702 0.998469
0.998787 1.00079 0.996304
0.998983 0.998671 0.99858
0.999171 0.999919 0.996414
0.998123 1.00026 0.999113
0.998604 1.00115 0.996094
0.998958 1.00032 0.996599
0.9994 1.00143 0.99422
0.999334 0.999375 0.996829
0.999713 1.00079 0.994201
0.998339 1.00023 0.997795
0.998791 0.999217 0.997914
0.99956 0.996818 0.998618
0.999134 0.998177 0.998205
0.999294 0.99946 0.996595
0.999492 0.998619 0.997
0.999621 0.997999 0.997332
0.999871 0.999593 0.995289
0.998205 1.00016 0.999093
0.9986 0.999771 0.997806
0.99882 1.0008 0.996091
0.999188 0.999916 0.996373
0.999614 0.996689 0.999052
0.999673 0.997731 0.997603
0.999404 0.999015 0.9968
0.999792 1.00051 0.994474
0.999872 0.999362 0.995544
0.999855 0.999859 0.995033
1.00007 1.0003 0.99397
0.99866 1.00114 0.995995
0.999039 1.00035 0.996264
0.999464 1.00138 0.994231
0.999772 1.00081 0.994226
0.999823 1.00019 0.994701
1.00005 1.00095 0.993453
0.999668 0.99656 0.999454
1.00008 1.00048 0.993808
0.999721 0.997514 0.997447
0.999874 0.999154 0.995519
1.00005 1.00018 0.994122
1.00021 1.00057 0.993428
0.999797 0.997242 0.997534
0.999947 0.998647 0.995857
0.999192 0.998135 0.999223
0.999394 0.99742 0.999354
0.999521 0.998596 0.996714
0.999641 0.996569 0.999472
0.99968 0.997495 0.997515
0.999605 0.997919 0.997229
0.999839 0.999133 0.99559
0.999685 0.996414 0.999474
0.999814 0.997148 0.997608
0.999458 0.999002 0.99671
0.999571 0.998255 0.997209
0.999907 0.999895 0.994684
0.999732 0.997357 0.997584
0.999853 0.99935 0.99535
0.999843 0.998958 0.99577
0.999973 1 0.99444
0.999776 0.997247 0.9976
0.999848 0.997073 0.997622
0.999931 0.998603 0.995949
0.999908 1.00013 0.99444
0.999879 0.999626 0.995027
1.00015 1.00044 0.993655
0.999878 0.998781 0.995886
1.00002 1.00015 0.994155
0.999952 0.999891 0.994636
1.00005 1.00043 0.993968
0.999809 0.99609 0.999481
0.999775 0.996201 0.999478
0.99974 0.996327 0.999476
0.999829 0.997161 0.997551
0.999714 0.996434 0.99946
0.999027 0.998565 0.999171
0.998603 0.999478 0.999102
0.999147 0.999986 0.996111
0.998785 1.00088 0.995985
0.998208 1.00014 0.999105
0.998117 1.00025 0.999117
0.998606 1.00116 0.996087
0.998992 1.00039 0.996307
0.999403 1.00143 0.994214
0.999347 0.999453 0.99626
0.999711 1.0008 0.994199
0.998549 1.00126 0.996109
0.999202 1.00165 0.99442
0.999574 1.00115 0.994137
0.999654 1.00155 0.993604
0.999837 1.00042 0.994301
0.999964 1.00102 0.993476
0.998164 1.00018 0.999103
0.998592 0.999735 0.997814
0.998828 1.00088 0.995654
0.999184 0.999913 0.996378
0.999613 0.996647 0.999437
0.999663 0.997746 0.997728
0.999399 0.999018 0.996808
0.999797 1.00052 0.994391
0.999854 0.999851 0.995087
0.999875 0.999371 0.995513
1.00007 1.0003 0.993974
0.998655 1.00113 0.996004
0.999038 1.00034 0.996264
0.999484 1.00139 0.994091
0.999769 1.00081 0.994259
0.999659 0.996535 0.999451
0.999718 0.997532 0.997629
0.999876 0.999155 0.995632
0.999824 1.00018 0.994699
1.00005 1.00096 0.993364
1.00005 1.00018 0.994096
1.00008 1.00046 0.993867
1.00021 1.00057 0.993432
0.999797 0.997254 0.997533
0.999948 0.998651 0.995857
0.999248 1.00163 0.994315
0.99967 1.0011 0.994117
0.999751 1.00153 0.993474
1.00006 1.00115 0.993158
1.00007 1.00069 0.993687
1.00019 1.00106 0.993003
0.999758 0.997352 0.997501
1.00022 1.00068 0.993306
0.999886 0.998966 0.99566
1.00002 1.00005 0.994251
1.00018 1.00052 0.993606
1.00029 1.00059 0.99322
0.999933 0.998701 0.995832
0.999961 0.998605 0.995873
1.00003 0.999606 0.994757
0.999451 0.99901 0.996448
0.999694 0.99644 0.999474
0.999813 0.997137 0.997609
0.999563 0.998227 0.997
0.999904 0.999903 0.99468
0.999728 0.997336 0.997582
0.99984 0.998953 0.995772
0.999846 0.999348 0.995353
0.999971 1.00002 0.994383
0.999776 0.997235 0.997601
0.999848 0.997063 0.997623
0.99993 0.998597 0.995949
0.999909 1.00014 0.994432
0.999872 0.999629 0.995028
1.00015 1.00045 0.993647
0.999875 0.998775 0.995888
1.00002 1.00015 0.99418
0.999949 0.999897 0.994633
1.00005 1.00044 0.993907
0.999881 0.996986 0.997639
0.999911 0.998665 0.995931
0.99995 0.998536 0.995975
1 0.999556 0.994864
1.00016 1.00052 0.99354
1.00008 1.00033 0.993919
1.00031 1.00057 0.99319
0.999971 0.999732 0.994763
1.00014 1.00049 0.993612
1.00001 1.00048 0.993925
1.00012 1.0006 0.993567
1.00003 0.998362 0.995976
0.999941 0.996853 0.997637
0.999846 0.996005 0.999483
0.999814 0.996104 0.999482
0.999781 0.996218 0.99948
0.99986 0.99709 0.997561
0.999756 0.996325 0.999463
0.99983 0.997171 0.99755
0.999707 0.996409 0.999458
0.999321 0.999477 0.996255
0.998969 1.00048 0.995997
0.999708 1.00081 0.994196
0.999406 1.00144 0.994208
0.998608 1.00117 0.99608
0.99811 1.00025 0.999121
0.998546 1.00126 0.996112
0.999204 1.00165 0.994415
0.999574 1.00115 0.994132
0.999656 1.00155 0.993601
0.999836 1.00043 0.994296
0.999963 1.00102 0.993475
0.999139 1.00174 0.994469
0.999432 1.00176 0.993864
0.999828 1.00132 0.993456
0.999796 1.00154 0.993363
1.00009 1.0007 0.993519
1.00007 1.00102 0.993257
0.99865 1.00112 0.996012
0.999037 1.00034 0.996263
0.999503 1.00141 0.99395
0.999765 1.00081 0.994291
0.99965 0.996509 0.999448
0.999716 0.997549 0.997811
0.999877 0.999156 0.995746
0.999826 1.00018 0.994698
1.00005 1.00096 0.993275
1.00008 1.00045 0.993925
1.00004 1.00018 0.994069
1.00021 1.00056 0.993436
0.999798 0.997266 0.997532
0.999948 0.998654 0.995857
0.999262 1.00164 0.994263
0.99967 1.0011 0.99411
0.99974 1.00152 0.993483
1.00005 1.00115 0.993237
0.99976 0.997366 0.997498
0.999889 0.998972 0.995658
1.00002 1.00004 0.994313
1.00007 1.00069 0.9937
1.00019 1.00104 0.992977
1.00018 1.00052 0.993542
1.00022 1.00067 0.99331
1.0003 1.00057 0.993226
0.999934 0.998706 0.995831
1.00003 0.999605 0.99471
0.999961 0.998608 0.995873
0.999515 1.00174 0.993767
0.999945 1.00131 0.99329
0.999836 1.00154 0.99322
1.0002 1.0012 0.992853
1.00021 1.00082 0.993176
1.00026 1.00096 0.992914
0.99991 0.998804 0.995774
1.0003 1.00067 0.993148
1 0.99988 0.994528
1.00013 1.00049 0.993619
1.00027 1.00061 0.993278
1.00034 1.00045 0.99329
0.999981 0.99856 0.995877
1.00002 0.999627 0.994736
1.00003 0.999598 0.994666
1.00008 1.00018 0.994173
0.999909 1.00015 0.994425
0.999847 0.997053 0.997624
0.999775 0.997223 0.997601
0.999929 0.998591 0.995949
0.999865 0.999631 0.995029
1.00016 1.00046 0.993638
0.999871 0.99877 0.99589
0.999947 0.999904 0.994629
1.00002 1.00016 0.994205
1.00005 1.00045 0.993846
0.999881 0.996979 0.997639
0.999909 0.998659 0.995932
0.999949 0.998531 0.995975
1 0.999553 0.994864
1.00017 1.00053 0.99353
1.00008 1.00033 0.993917
1.00032 1.00058 0.993182
0.999966 0.99973 0.994764
1.00014 1.00048 0.993666
1.00002 1.00049 0.993915
1.00011 1.00059 0.993604
0.999914 0.996912 0.997643
0.999975 0.998458 0.995999
0.999995 0.999607 0.994833
1.00001 0.999503 0.994895
1.00005 1.00016 0.994169
1.00032 1.00053 0.993216
1.00023 1.00057 0.993371
1.00041 1.00049 0.993093
1.00002 1.0004 0.994004
1.0002 1.00061 0.993397
1.00008 1.00083 0.993351
1.00002 0.99838 0.995986
1.00007 0.999391 0.994884
1.00005 0.998337 0.995967
1.00003 0.99836 0.995977
0.999964 0.996792 0.997984
0.999939 0.996854 0.997813
0.999887 0.995969 0.998773
0.999851 0.996018 0.999483
0.99982 0.996118 0.999483
0.999893 0.997023 0.997561
0.999795 0.996224 0.999465
0.999861 0.997098 0.997561
0.99975 0.996303 0.999462
0.99983 0.997182 0.99755
0.9997 0.996383 0.999457
0.999835 1.00044 0.99429
0.999575 1.00116 0.994128
0.999962 1.00103 0.993475
0.999659 1.00155 0.993598
0.999207 1.00165 0.994411
0.998543 1.00126 0.996115
0.999137 1.00174 0.994471
0.999433 1.00176 0.993862
0.999831 1.00133 0.993454
0.999781 1.00154 0.993383
1.00009 1.00071 0.993515
1.00007 1.00102 0.993262
0.999357 1.00186 0.993925
0.999542 1.00177 0.993642
0.999935 1.00133 0.993244
0.99984 1.00157 0.993228
1.00023 1.00067 0.993286
1.00017 1.00093 0.99322
0.999277 1.00164 0.99421
0.99967 1.0011 0.994103
0.99973 1.00151 0.993491
1.00004 1.00115 0.993316
0.999761 0.997381 0.997496
0.999892 0.998977 0.995656
1.00002 1.00003 0.994375
1.00007 1.00068 0.993713
1.00019 1.00103 0.992951
1.00022 1.00067 0.993313
1.00018 1.00052 0.993479
1.00031 1.00055 0.993231
0.999934 0.99871 0.995831
1.00003 0.999604 0.994662
0.999962 0.998612 0.995873
0.9995 1.00174 0.99375
0.999945 1.00132 0.993283
0.999852 1.00154 0.993181
1.00018 1.0012 0.992888
0.999912 0.99881 0.995773
1.00001 0.999876 0.994528
1.00013 1.00049 0.993677
1.00021 1.00083 0.99321
1.00027 1.00095 0.992908
1.00027 1.00062 0.993251
1.0003 1.00066 0.993149
1.00034 1.0004 0.993316
1.00003 0.999627 0.994736
1.00008 1.00018 0.994097
0.999982 0.998562 0.995877
1.00003 0.999597 0.994666
0.999619 1.0018 0.993452
1.00013 1.00131 0.992941
0.999859 1.00162 0.993009
1.00025 1.00111 0.992803
1.0003 1.00078 0.993074
1.00029 1.00089 0.992897
1.00001 0.999725 0.994665
1.00035 1.00048 0.993238
1.00009 1.0004 0.993783
1.00021 1.00072 0.993301
1.00032 1.00057 0.993221
1.00038 1.00018 0.99344
1 0.99853 0.995868
1.00004 0.999573 0.994663
1.00009 1.00018 0.994062
1.00007 1.00022 0.994095
1.00013 1.00048 0.993738
0.999881 0.996971 0.99764
1.00018 1.00054 0.993521
0.999949 0.998526 0.995976
0.999907 0.998652 0.995933
1 0.99955 0.994865
1.00008 1.00034 0.993915
1.00033 1.00058 0.993175
0.999961 0.999728 0.994766
1.00002 1.0005 0.993905
1.00014 1.00048 0.99372
1.0001 1.00057 0.99364
0.999914 0.996908 0.997643
0.999974 0.998456 0.995999
0.999992 0.999602 0.994835
1.00001 0.999502 0.994895
1.00005 1.00017 0.994139
1.00033 1.00054 0.993205
1.00023 1.00058 0.99337
1.00041 1.00051 0.99308
1.00001 1.0004 0.994008
1.0002 1.0006 0.993423
1.0001 1.00082 0.99337
1 0.998402 0.996
1.00004 0.99943 0.994916
1.00004 1.00025 0.994052
1.00005 1.00013 0.994193
1.00007 1.00053 0.993802
1.00044 1.00026 0.993252
1.00031 1.00061 0.993183
1.0004 1.00014 0.993427
1.00005 1.00087 0.993462
1.00021 1.00091 0.993108
1.00002 0.998379 0.995986
1.00007 0.999389 0.994788
1.00007 0.999391 0.994834
1.00009 1.00009 0.99426
1.00008 0.999374 0.994884
1.00006 0.998329 0.995939
1.00005 0.998335 0.995967
0.999988 0.996748 0.997978
1.00003 0.998359 0.995977
0.999963 0.996811 0.997984
0.999925 0.995915 0.99877
0.999937 0.996854 0.99799
0.999889 0.995938 0.999127
0.999857 0.996031 0.999483
0.999926 0.996962 0.997556
0.999894 0.997029 0.997561
0.999834 0.996131 0.999464
0.999789 0.996207 0.999465
0.999862 0.997107 0.99756
0.999744 0.996281 0.999461
1.0001 1.00071 0.99351
0.999834 1.00133 0.993451
1.00007 1.00102 0.993268
0.999766 1.00154 0.993403
0.999434 1.00176 0.99386
0.999136 1.00174 0.994472
0.999355 1.00186 0.993927
0.99951 1.00177 0.993683
0.99994 1.00132 0.993243
0.999852 1.00161 0.993178
1.00022 1.00068 0.993286
1.00017 1.00094 0.993204
0.999439 1.0019 0.993734
0.999495 1.00191 0.993568
1.00002 1.00135 0.993057
0.999832 1.0019 0.992986
1.00033 1.00038 0.993353
1.00019 1.00098 0.99318
0.999484 1.00175 0.993734
0.999945 1.00132 0.993276
0.999868 1.00155 0.993143
1.00016 1.0012 0.992923
0.999914 0.998815 0.995771
1.00001 0.999873 0.994527
1.00012 1.00049 0.993736
1.00021 1.00084 0.993244
1.00027 1.00095 0.992901
1.00031 1.00065 0.993149
1.00028 1.00063 0.993223
1.00035 1.00036 0.993341
1.00003 0.999628 0.994736
1.00009 1.00017 0.99402
0.999983 0.998565 0.995876
1.00003 0.999597 0.994667
0.999615 1.0018 0.99346
1.00011 1.0013 0.992966
0.99991 1.00166 0.992932
1.00026 1.00111 0.992806
1.00001 0.999724 0.994664
1.00009 1.0004 0.993827
1.00021 1.00074 0.993294
1.0003 1.00078 0.993079
1.0003 1.00093 0.992874
1.00032 1.00058 0.993209
1.00035 1.00047 0.993238
1.00038 1.00014 0.993489
1.00009 1.00018 0.994061
1.00014 1.00047 0.993691
1.00007 1.00022 0.994091
1 0.998531 0.995789
1.00004 0.999576 0.994664
0.999628 1.00188 0.993319
1.00011 1.0014 0.992824
1.00027 1.00116 0.99274
1.00034 1.00065 0.993101
1.00008 1.00027 0.993985
1.00041 1.00002 0.993563
1.00014 1.00072 0.99339
1.00027 1.00086 0.993058
1.00039 1.0004 0.993237
1.00002 0.998513 0.995698
1.00005 0.999552 0.994822
1.00007 1.00025 0.994064
1.00014 1.00049 0.993657
1.00013 1.00059 0.993602
1.00017 1.00066 0.993439
0.999914 0.996903 0.997642
0.999974 0.998454 0.995999
1.00033 1.00056 0.993194
1.00001 0.999501 0.994894
0.999989 0.999596 0.994837
1.00005 1.00018 0.99411
1.00023 1.00059 0.993368
1.0004 1.00053 0.993066
1.00001 1.00039 0.994011
1.00011 1.00081 0.993389
1.00021 1.0006 0.99345
1 0.998401 0.996
1.00004 0.999431 0.994914
1.00004 1.00025 0.994088
1.00005 1.00014 0.994191
1.00007 1.00055 0.993752
1.00043 1.00028 0.993252
1.00031 1.00062 0.993168
1.0004 1.0001 0.99346
1.00004 1.00088 0.993437
1.00022 1.00093 0.993079
1.00006 0.999389 0.994907
1.00008 1.00007 0.994114
1.00006 1.00072 0.993585
1.00009 1.00052 0.993689
1.00012 1.00072 0.993489
1.00051 0.999678 0.993733
1.00032 1.00066 0.993166
1.00044 0.999901 0.993518
1.00012 1.00112 0.993156
1.00021 1.0011 0.992844
1.00002 0.998378 0.995986
1.00007 0.999389 0.99484
1.0001 1.00007 0.994093
1.00007 0.999391 0.994783
1.00008 0.999372 0.994885
1.00009 1.00009 0.994174
1.0001 1.00055 0.993739
1.00009 1.00008 0.994095
1.00009 0.999369 0.994863
1.00007 0.99834 0.995905
1.00006 0.99833 0.995939
1.00001 0.996722 0.99796
1.00005 0.998334 0.995968
0.999988 0.996767 0.997976
0.999956 0.995855 0.998765
0.999963 0.996829 0.997983
0.999928 0.995879 0.99877
0.999891 0.99591 0.999481
0.999954 0.99689 0.99757
0.999927 0.996967 0.997557
0.999871 0.99604 0.999464
0.999895 0.997035 0.997561
0.999828 0.996117 0.999465
0.999784 0.996189 0.999464
1.00022 1.00069 0.993287
0.999944 1.00132 0.993241
1.00016 1.00096 0.993189
0.999863 1.00164 0.993129
0.999477 1.00177 0.993723
0.999353 1.00186 0.99393
0.999421 1.0019 0.993755
0.999519 1.00187 0.993571
1.00001 1.00133 0.993075
0.999833 1.00199 0.992867
1.00032 1.00038 0.993369
1.0002 1.00099 0.99311
0.999366 1.00194 0.993816
0.999513 1.0021 0.993326
0.999937 1.00176 0.992817
1.00036 1.00023 0.993581
0.999611 1.0018 0.993467
1.00009 1.00129 0.992992
0.99996 1.00169 0.992855
1.00027 1.00111 0.99281
1.00002 0.999723 0.994664
1.00009 1.00039 0.99387
1.0002 1.00076 0.993288
1.0003 1.00079 0.993084
1.00031 1.00096 0.992851
1.00035 1.00047 0.993238
1.00033 1.0006 0.993197
1.00038 1.0001 0.993538
1.0001 1.00018 0.99406
1.00015 1.00047 0.993644
1.00007 1.00022 0.994088
1 0.998531 0.995711
1.00004 0.999579 0.994664
0.999676 1.00188 0.993239
1.0001 1.0014 0.992852
1.00027 1.00113 0.992765
1.00009 1.00027 0.993984
1.00014 1.00071 0.993443
1.00026 1.00088 0.993047
1.00034 1.00067 0.993076
1.00038 1.00037 0.993282
1.0004 1.00005 0.993564
1.00002 0.998512 0.995702
1.00014 1.00049 0.993655
1.00018 1.00063 0.993444
1.00013 1.00058 0.993632
1.00007 1.00025 0.994095
1.00005 0.999548 0.994744
0.999785 1.00177 0.993183
1.00008 1.00154 0.992764
1.00029 1.00096 0.992929
1.00041 1.00015 0.99343
1.00013 1.00061 0.993557
1.00048 0.999925 0.993528
1.00018 1.00098 0.993054
1.00032 1.00086 0.992939
1.00003 0.998416 0.995758
1.00005 0.999592 0.994772
1.00008 1.00023 0.994146
1.00011 1.00069 0.993511
1.00017 1.00074 0.99331
1.00019 1.0008 0.993254
1 0.9984 0.995999
1.00004 0.999433 0.994913
1.00042 1.00031 0.993252
1.00005 1.00014 0.994189
1.00003 1.00024 0.994123
1.00007 1.00056 0.993701
1.00031 1.00062 0.993152
1.00041 1.00007 0.993493
1.00003 1.00089 0.993411
1.00022 1.00094 0.993051
1.00006 0.999389 0.994907
1.00008 1.00008 0.994151
1.00005 1.00071 0.993643
1.00008 1.00052 0.993721
1.00011 1.00073 0.993486
1.0005 0.999683 0.993748
1.00033 1.00063 0.993159
1.0004 0.999903 0.993644
1.00011 1.00112 0.993132
1.00023 1.00116 0.992764
1.0001 1.00007 0.99409
1.00011 1.00055 0.99361
1.00009 1.00097 0.993282
1.00012 1.00078 0.993345
1.00038 1.00004 0.993744
1.00057 0.999399 0.99388
1.00033 1.00078 0.992979
1.00014 1.00134 0.99275
1.00007 0.999389 0.994893
1.0001 1.00007 0.994144
1.00011 1.00054 0.993704
1.00008 0.999369 0.994887
1.00009 1.00009 0.994088
1.00009 0.999368 0.994864
1.0001 1.00055 0.993682
1.00009 1.00008 0.994129
1.00012 1.00082 0.993405
1.0001 1.00056 0.993611
1.00011 1.00004 0.994103
1.0001 0.999395 0.994823
1.00008 0.998346 0.995883
1.00007 0.998342 0.995905
1.00003 0.996708 0.99794
1.00006 0.998331 0.995939
1.00001 0.996741 0.997957
0.999984 0.995812 0.99875
0.999987 0.996786 0.997974
0.999957 0.995821 0.998766
0.99993 0.995842 0.998771
0.999983 0.996803 0.997598
0.999955 0.996896 0.997569
0.999906 0.995944 0.999469
0.999927 0.996971 0.997557
0.999866 0.996031 0.999464
0.999822 0.996103 0.999465
1.00032 1.00038 0.993384
0.999995 1.00131 0.993093
1.0002 1.001 0.99304
0.999835 1.00206 0.992748
0.999543 1.00183 0.993573
0.999403 1.0019 0.993777
0.999415 1.00193 0.993734
0.999554 1.00206 0.993314
0.999906 1.00171 0.992888
1.00034 1.00024 0.993526
0.999465 1.00193 0.993614
0.999481 1.00232 0.993134
1.00008 1.00103 0.993278
0.999723 1.00187 0.993159
1.00009 1.00141 0.99288
1.00027 1.00111 0.99279
1.00009 1.00027 0.993984
1.00015 1.00071 0.993496
1.00025 1.0009 0.993036
1.00034 1.00069 0.993051
1.0004 1.00007 0.993565
1.00038 1.00034 0.993327
1.00014 1.0005 0.993652
1.00019 1.0006 0.99345
1.00013 1.00057 0.993661
1.00001 0.998512 0.995705
1.00007 1.00026 0.994126
1.00005 0.999544 0.994666
0.999728 1.00177 0.993276
1.00011 1.00149 0.992723
1.00028 1.00098 0.9929
1.00013 1.00061 0.993556
1.00018 1.00097 0.993087
1.00031 1.00083 0.992978
1.00041 1.00014 0.993477
1.00047 0.999946 0.993515
1.00003 0.998412 0.995844
1.00005 0.999601 0.994769
1.00017 1.00073 0.993325
1.00019 1.0008 0.993262
1.00011 1.00068 0.993532
1.00008 1.00023 0.994107
0.99972 1.00165 0.993385
1.00014 1.00171 0.992503
1.00033 1.00034 0.993421
1.00053 0.999617 0.993762
1.00016 1.0009 0.993176
1.00041 1.00049 0.993134
1.00023 1.00112 0.992889
1.00006 0.998331 0.995947
1.0001 0.999385 0.994827
1.00005 0.999518 0.994681
1.00008 1.00032 0.994003
1.00011 1.00068 0.993521
1.00015 1.00095 0.993187
1.00017 1.00091 0.993169
1.00018 1.00107 0.99306
1.00006 0.999388 0.994907
1.00008 1.00009 0.994187
1.0005 0.999688 0.993763
1.00008 1.00053 0.993753
1.00005 1.00069 0.9937
1.0001 1.00073 0.993484
1.00035 1.00061 0.993152
1.00036 0.999906 0.99377
1.00009 1.00113 0.993107
1.00025 1.00122 0.992684
1.0001 1.00007 0.994092
1.00011 1.00054 0.993655
1.00009 1.00096 0.993319
1.00013 1.00079 0.993375
1.00037 1.00001 0.993708
1.00052 0.999483 0.993853
1.00035 1.00077 0.993015
1.00015 1.00135 0.992734
1.00011 1.00056 0.993679
0.999931 1.00099 0.993602
1.00014 1.00089 0.993326
1.00014 1.00114 0.993029
1.00064 0.99919 0.994144
1.00048 1.00032 0.993053
1.00018 1.00145 0.992624
1.00009 1.00007 0.994196
1.0001 1.00054 0.993703
1.00012 1.00084 0.993379
1.00009 0.999367 0.994864
1.00009 1.00008 0.994164
1.00011 1.00056 0.993625
1.0001 0.999398 0.994821
1.00011 1.00004 0.994106
1.00012 1.00083 0.993373
1.0001 1.00057 0.993672
1.00013 1.00098 0.993218
1.00013 1.00086 0.993294
1.00011 1.0005 0.993711
1.00011 1.00008 0.994112
1.0001 0.999425 0.994784
1.00009 0.998348 0.995872
1.00008 0.998348 0.995882
1.00004 0.996692 0.997928
1.00007 0.998344 0.995904
1.00003 0.996725 0.997938
1.00001 0.995777 0.998739
1.00001 0.99676 0.997953
0.999983 0.995781 0.998752
0.999958 0.995788 0.998767
1.00007 0.998305 0.995954
1.00001 0.996743 0.997607
0.999984 0.99681 0.997596
0.999938 0.995855 0.999475
0.999956 0.996902 0.997568
0.999901 0.995942 0.999467
0.99986 0.996023 0.999464
1.00032 1.00025 0.99347
0.999875 1.00166 0.992959
0.999595 1.00203 0.993301
0.999464 1.00192 0.993653
0.999453 1.00193 0.993661
0.999485 1.00237 0.993118
1.00006 1.00098 0.993359
0.999462 1.00205 0.993508
0.999586 1.00197 0.993255
0.999622 1.00098 0.994427
0.99967 1.00176 0.993369
1.00014 1.00145 0.992682
1.00027 1.001 0.992871
1.00014 1.00061 0.993555
1.00017 1.00097 0.99312
1.0003 1.0008 0.993016
1.00041 1.00012 0.993523
1.00047 0.999969 0.993502
1.00017 1.00072 0.993341
1.00019 1.0008 0.993269
1.00011 1.00067 0.993553
1.00003 0.998409 0.99593
1.00005 0.99961 0.994767
1.00009 1.00022 0.994068
0.99974 1.00168 0.993264
1.00006 0.998333 0.995947
1.0001 0.999382 0.994784
1.00014 1.00164 0.992546
1.00032 1.00044 0.993335
1.00016 1.00089 0.993197
1.00022 1.00112 0.992884
1.0004 1.00045 0.993143
1.00053 0.999604 0.993774
1.00005 0.999516 0.994818
1.00007 1.00032 0.993998
1.00018 1.00092 0.993168
1.00018 1.00104 0.993054
1.00016 1.00095 0.993148
1.00012 1.00068 0.993527
0.999779 1.00246 0.992531
1.00016 1.00136 0.992795
1.0005 0.999362 0.994061
1.00053 0.999917 0.993464
1.00018 1.00108 0.993003
1.00027 1.00111 0.992825
1.0001 0.999325 0.994783
1.00009 0.999396 0.994829
1.00012 1.00007 0.994202
1.00006 1.00035 0.99388
1.00011 1.00073 0.993545
1.00015 1.00107 0.992995
1.00016 1.00127 0.992887
1.00015 1.00112 0.992998
1.0001 1.00006 0.994093
1.00011 1.00053 0.9937
1.00037 0.999983 0.993671
1.00047 0.999565 0.993827
1.00013 1.0008 0.993405
1.00008 1.00095 0.993357
1.00037 1.00076 0.993051
1.00017 1.00137 0.992718
1.00011 1.00055 0.993676
0.999826 1.00086 0.993857
1.00014 1.00087 0.993309
1.00015 1.00113 0.992998
1.00055 0.999248 0.994097
1.00054 1.00032 0.993075
1.00019 1.0015 0.992594
1.00013 1.0009 0.993306
1.00021 0.999623 0.994424
1.0002 1.00107 0.993035
1.00018 1.00152 0.992642
1.00085 0.999549 0.993026
1.00027 1.00143 0.992375
1.00211 0.99808 0.991749
1.0001 1.00054 0.993701
1.00012 1.00084 0.993375
1.00014 1.00103 0.993169
1.0001 0.999401 0.99482
1.00011 1.00004 0.994109
1.0001 1.00057 0.993733
1.00012 1.00083 0.99334
1.0001 0.999428 0.994782
1.00011 1.00008 0.994083
1.00013 1.00096 0.993227
1.00012 1.00051 0.993708
1.00012 1.00086 0.993332
1.00014 1.00104 0.993117
1.00013 1.00086 0.993365
1.00013 1.00052 0.993709
1.00012 1.00013 0.993985
1.0001 0.999444 0.994653
1.00011 1.00012 0.994175
1.0001 0.999471 0.994645
1.00009 0.998362 0.99586
1.00009 0.998349 0.995872
1.00006 0.996695 0.997558
1.00008 0.99835 0.995882
1.00004 0.996706 0.997745
1 0.995718 0.999465
1.00003 0.996741 0.997935
1.00001 0.995748 0.99874
0.999983 0.995749 0.998754
1.00007 0.998257 0.995997
1.00007 0.998308 0.995953
1.00002 0.996702 0.997614
1.00001 0.996745 0.997787
0.999966 0.995793 0.999475
0.999985 0.996816 0.997595
0.999933 0.995854 0.999473
0.999895 0.99594 0.999465
1.00003 1.00093 0.99344
0.999488 1.00242 0.993101
0.999442 1.00192 0.993708
0.999465 1.00204 0.993524
0.999598 1.00201 0.993241
0.999328 1.00115 0.994753
0.999528 1.00216 0.993366
1.00053 0.99837 0.995205
0.998886 1.00072 0.995806
1.0001 0.999211 0.994993
0.999761 1.00171 0.993143
1.00014 1.00156 0.992588
1.00032 1.00053 0.99325
1.00016 1.00087 0.993218
1.00021 1.00112 0.992879
1.0004 1.00041 0.993152
1.00053 0.999591 0.993786
1.00018 1.00092 0.993167
1.00018 1.00101 0.993048
1.00016 1.00096 0.993108
1.00006 0.998335 0.995946
1.00012 1.00067 0.993532
1.00006 0.999514 0.994955
1.00007 1.00033 0.993993
1.0001 0.999379 0.99474
0.99983 1.00241 0.992393
1.0001 0.999313 0.994852
1.00009 0.999402 0.994827
1.00012 1.00009 0.994122
1.00015 1.00136 0.992811
1.00049 0.999471 0.993956
1.00018 1.00107 0.993005
1.00026 1.00108 0.992835
1.00051 0.999895 0.993471
1.00006 1.00034 0.993936
1.00012 1.00074 0.99352
1.00015 1.00112 0.993002
1.00016 1.00122 0.992922
1.00015 1.00108 0.993035
0.999814 1.00303 0.991859
1.00034 0.999931 0.993809
1.00065 0.999267 0.993833
1.00036 1.00085 0.992933
1.00017 1.00121 0.992877
1.00012 1.00002 0.994067
1.00011 1.00016 0.993944
1.00009 1.00062 0.993653
1.0001 1.00095 0.993328
1.00014 1.001 0.993091
1.00015 1.00151 0.992689
1.00015 1.00136 0.992775
1.00011 1.00055 0.993674
1.00014 1.00086 0.993293
0.99972 1.00073 0.994112
1.00046 0.999304 0.994049
1.0006 1.00032 0.993097
1.00015 1.00113 0.992967
1.0002 1.00155 0.992564
1.00013 1.00089 0.993327
1.00012 0.999549 0.994527
1.00019 1.00105 0.993021
1.00017 1.00151 0.992627
1.00086 0.999494 0.993191
1.00029 1.00151 0.992333
1.00239 0.998074 0.991758
1.00016 1.00109 0.993045
1.00113 0.999146 0.992608
1.00018 1.00133 0.992793
1.00012 1.00211 0.992105
1.00067 1.00124 0.99163
0.996297 0.997541 0.990201
1.00258 0.999948 0.990285
1.00215 0.999374 0.990119
0.992274 0.991547 1.01384
1.00626 0.981208 1.00834
1.00011 1.00085 0.993372
1.00013 1.00102 0.993181
1.00012 1.00115 0.993048
1.0001 0.999432 0.994781
1.00011 1.00008 0.994053
1.00012 1.00051 0.993705
1.00012 1.00087 0.993371
1.00012 1.00094 0.993236
1.00013 1.00052 0.993654
1.0001 0.999446 0.994706
1.00012 1.00013 0.994022
1.00013 1.00103 0.993138
1.00013 1.00084 0.993356
1.00013 1.00081 0.993385
1.00015 1.00108 0.993082
1.00015 1.00058 0.993518
1.00012 1.00018 0.993935
1.0001 0.999463 0.994641
1.00011 1.00017 0.994065
1.00013 1.00053 0.993692
1.00011 1.00011 0.99409
1.00011 1.00012 0.994093
1.0001 0.999448 0.994767
1.0001 0.999469 0.994645
1.00008 0.998387 0.995846
1.00009 0.998362 0.995861
1.00006 0.996716 0.997552
1.00009 0.99835 0.995871
1.00006 0.996696 0.997557
1.00001 0.995705 0.999464
1.00005 0.996721 0.997561
1.00001 0.995717 0.9991
1 0.995718 0.998741
1.00008 0.998173 0.996064
1.00007 0.998259 0.995996
1.00003 0.996651 0.997644
1.00007 0.99831 0.995953
1.00002 0.996699 0.997792
0.999986 0.99574 0.999478
1.00001 0.99674 0.99761
0.999959 0.995799 0.999476
0.999928 0.995852 0.999471
0.999612 1.00204 0.993226
0.999469 1.00204 0.993539
0.999037 1.00131 0.995079
1.00039 0.998569 0.995204
0.999443 1.00219 0.993387
0.998956 1.0011 0.995397
0.99908 1.00295 0.993238
1.00083 0.998404 0.992171
0.998953 1.00144 0.995572
1.0001 0.999145 0.99507
1.0001 0.999215 0.994991
1.00012 0.999926 0.994231
1.00011 0.999775 0.994416
0.999882 1.00237 0.992255
1.00013 1.00136 0.992828
1.00049 0.999581 0.99385
1.00018 1.00107 0.993007
1.00024 1.00105 0.992845
1.0005 0.999875 0.993478
1.00016 1.00112 0.993005
1.00016 1.00116 0.992957
1.00015 1.00109 0.993075
1.00009 0.999409 0.994826
1.00012 1.00074 0.993494
1.00006 1.00033 0.993992
1.0001 0.999302 0.994921
1.00013 1.00011 0.994042
0.999862 1.00288 0.991917
1.00012 1.00004 0.994154
1.00011 1.00016 0.993993
1.00008 1.00053 0.99373
1.00032 1.00007 0.993764
1.00064 0.999254 0.993825
1.00017 1.00123 0.992872
1.00033 1.0008 0.992973
1.00009 1.00095 0.993354
1.00015 1.00098 0.993127
1.00015 1.00136 0.992775
1.00014 1.00149 0.992711
0.99984 1.00206 0.992761
1.00074 0.998675 0.994314
1.00052 1.00033 0.99302
1.00019 1.00133 0.992739
1.00008 1.00078 0.993477
1.00011 1.00082 0.993373
1.00012 1.00149 0.992702
1.00014 1.00182 0.992367
0.993907 0.995055 0.997335
1.00013 1.00088 0.993349
1.00018 1.00104 0.993007
1.00003 0.999476 0.994629
1.00086 0.999438 0.993356
1.00031 1.00159 0.992291
1.00015 1.00152 0.992611
1.00269 0.99806 0.991768
1.00015 1.00108 0.993072
1.00116 0.999206 0.99267
1.00017 1.0013 0.992807
1.00013 1.00208 0.992107
1.00069 1.00112 0.991819
0.994544 0.996692 0.995139
1.00263 0.999236 0.988283
1.00239 0.999632 0.98991
0.993224 0.992361 1.01109
1.00646 0.981325 1.00817
1.00013 1.00124 0.992968
0.992851 0.992904 1.00837
1.00406 0.987684 1.0066
1.00113 1.00086 0.990966
1.00007 1.00188 0.992489
1.0001 1.00314 0.991159
1.0011 1.00318 0.988939
0.99682 1.00109 0.985511
1.00266 1.00147 0.986387
0.995767 0.990283 1.01217
1.00972 0.986266 0.997322
1.00013 1.00101 0.993194
1.00013 1.00114 0.993046
1.00011 1.0013 0.992937
1.0001 0.999448 0.994758
1.00011 1.00013 0.99406
1.00013 1.00052 0.993599
1.00013 1.00083 0.993347
1.00013 1.00102 0.993159
1.0001 0.999461 0.994642
1.00013 1.00078 0.993391
1.00014 1.00058 0.993577
1.00012 1.00018 0.993991
1.00015 1.00109 0.993055
1.00016 1.0009 0.993191
1.00017 1.00118 0.992916
1.00014 1.00067 0.993494
1.00011 1.0002 0.994029
1.00011 1.00017 0.994062
1.00013 1.00054 0.993643
1.00013 1.00061 0.993578
1.00013 1.00056 0.993623
1.00013 1.0008 0.993384
1.00011 1.00064 0.993564
1.0001 1.00015 0.994071
1.00011 1.00011 0.99409
1.00009 0.999426 0.994795
1.00012 1.00012 0.994011
1.0001 0.999447 0.994718
1.00007 0.998395 0.995849
1.0001 0.999467 0.994644
1.00008 0.998386 0.995846
1.00004 0.996745 0.997906
1.00009 0.998361 0.995861
1.00005 0.996712 0.997733
1.00003 0.995707 0.998728
1.00006 0.996697 0.997557
1.00001 0.995702 0.999464
1.00002 0.995715 0.998734
1.0001 0.99916 0.995054
1.00008 0.998125 0.996109
1.00008 0.998178 0.996062
1.00004 0.996597 0.997684
1.00007 0.998262 0.995995
1.00004 0.996648 0.997646
0.999999 0.995689 0.999486
1.00002 0.996695 0.997966
0.999989 0.995755 0.999116
0.999971 0.995813 0.99876
1.00025 0.998766 0.995203
0.999357 1.00222 0.993407
0.999025 1.00148 0.994988
1.0008 0.998533 0.993327
0.998824 1.00154 0.995564
0.999239 1.00294 0.992931
0.999197 1.00393 0.992442
0.999568 1.00086 0.992672
0.995924 0.996853 0.989037
0.994228 0.990409 1.01093
1.00432 0.983113 1.00849
1.00011 0.999845 0.994264
1.0001 0.999147 0.995068
1.0001 0.999219 0.994988
1.00012 0.999927 0.994217
1.0001 1.00046 0.9938
1.00013 1.00024 0.993952
1.00009 0.999918 0.994345
1.0001 0.99981 0.994374
0.99991 1.00271 0.991975
1.0003 1.00022 0.993718
1.00063 0.999246 0.993817
1.00017 1.00124 0.992868
1.0003 1.00076 0.993012
1.00015 1.00137 0.992775
1.00014 1.00147 0.992733
1.00016 1.00095 0.993163
1.00011 1.00017 0.994041
1.00009 1.00096 0.99338
1.00012 1.00005 0.99424
1.00008 1.00044 0.993806
0.999857 1.00206 0.992784
1.00008 1.00076 0.993497
1.0001 1.00083 0.993419
1.00072 0.998729 0.994282
1.00053 1.00025 0.993032
1.00021 1.00134 0.992668
1.00011 1.00148 0.992728
1.00015 1.00176 0.992389
1.00077 0.999177 0.993752
1.00074 0.999958 0.993161
1.00037 1.00114 0.99239
1.00024 1.00199 0.992002
1.00008 1.00128 0.992989
1.00008 1.00143 0.992852
1.0001 1.00214 0.992217
0.99064 0.990556 1.02052
0.995737 0.99705 0.992365
1.00015 1.00107 0.993098
1.00016 1.00127 0.992821
1.00119 0.999261 0.992732
1.00071 1.001 0.992008
1.00013 1.00205 0.992109
0.99639 0.996301 0.988679
1.00252 0.999452 0.990657
1.00262 0.999916 0.9897
0.993687 0.991049 1.01036
1.00661 0.981473 1.008
1.00012 1.00122 0.99297
0.99133 0.990992 1.01901
1.00386 0.988767 1.00569
1.00121 1.00087 0.990972
1.00005 1.00182 0.992522
1.00005 1.00303 0.991244
1.00113 1.00328 0.988935
0.995867 1.00049 0.986025
1.0024 1.00119 0.98898
0.997573 0.989707 1.00424
1.00926 0.983726 0.999655
1.00006 1.00148 0.992867
1.00367 0.995687 0.998387
1.01114 0.994436 0.9883
0.999987 1.00391 0.990278
0.999726 1.00306 0.992054
0.999901 1.00515 0.990416
1.00119 1.00419 0.988929
0.996174 1.00326 0.986287
1.00106 0.987334 0.999653
1.01148 0.991135 0.989774
1.00013 1.00114 0.993043
1.00011 1.00129 0.992937
1.0001 1.00148 0.992747
1.0001 0.999459 0.994642
1.00012 1.00018 0.994047
1.00014 1.00058 0.993637
1.00013 1.00075 0.993397
1.00015 1.00111 0.993028
1.00011 1.0002 0.994028
1.00016 1.00088 0.99323
1.00014 1.00067 0.993495
1.00018 1.00121 0.992893
1.00017 1.00133 0.992775
1.00017 1.00101 0.993078
1.00014 1.00068 0.993492
1.00011 1.00017 0.99406
1.00014 1.00054 0.993594
1.00014 1.00061 0.993573
1.00013 1.00056 0.993618
1.00012 1.00077 0.993409
1.0001 1.00064 0.993578
1.00014 1.0009 0.993274
1.00013 1.00086 0.993264
1.00015 1.00083 0.993298
1.00008 1.00075 0.993488
1.00011 1.00056 0.993599
1.00011 1.00064 0.993565
1.00009 1.00017 0.994064
1.0001 1.00016 0.994068
1.00009 0.999429 0.994809
1.00011 1.00012 0.994089
1.00009 0.999429 0.994793
1.00007 0.998384 0.995877
1.0001 0.999446 0.994669
1.00008 0.998394 0.99585
1.00003 0.996777 0.997902
1.00008 0.998385 0.995847
1.00004 0.99674 0.99772
1.00002 0.995707 0.998718
1.00006 0.996707 0.997548
1.00001 0.995707 0.999463
1.00001 0.9957 0.999464
1.00009 0.999234 0.995144
1.00008 0.998147 0.996093
1.0001 0.999156 0.995054
1.00004 0.996575 0.997704
1.00008 0.998129 0.996108
1.00008 0.998183 0.99606
1.00004 0.996603 0.997682
1.00001 0.995649 0.999494
1.00003 0.996647 0.997994
1 0.995692 0.99913
0.999996 0.995777 0.998758
0.990869 0.991891 1.016
1.00352 0.989879 1.00106
1.00083 0.999751 0.993538
0.998695 1.00164 0.995556
0.999397 1.00294 0.992623
0.999468 1.00167 0.994551
0.999295 1.00362 0.992514
0.995027 0.997168 0.99344
0.992333 0.991772 1.01597
1.00543 0.982413 1.00812
1.0004 1.0023 0.991943
0.996401 1.0003 0.986558
0.995448 0.989956 1.013
1.00946 0.984696 1.00092
1.00009 1.00059 0.993614
1.00011 0.999852 0.994312
1.0001 0.999148 0.995065
1.00012 0.999928 0.994202
1.0001 1.00038 0.993872
1.00011 1.00044 0.993816
1.00012 1.0002 0.993989
1.00008 1.00011 0.994173
1.00009 0.999928 0.994289
1.0001 0.999843 0.994331
0.999873 1.00205 0.992807
1.0007 0.998779 0.994251
1.00053 1.00017 0.993043
1.00023 1.00136 0.992596
1.00015 1.00171 0.992411
1.00011 1.00147 0.992754
1.00009 1.00085 0.993465
1.00009 1.00074 0.993517
1.00064 0.999357 0.993747
1.00008 1.00131 0.992957
1.00008 1.00145 0.9928
1.00071 0.9997 0.993323
1.00042 1.00123 0.992282
1.00021 1.00199 0.992027
1.0001 1.00213 0.992167
1.00154 0.998576 0.99277
1.00039 1.00214 0.991564
1.00013 1.0026 0.991578
1.00008 1.00128 0.992954
1.00007 1.00167 0.992663
1.00008 1.00197 0.992357
1.00355 0.996393 0.998481
0.992433 0.991943 1.0116
0.993876 0.99523 0.996918
1.00012 1.00121 0.992972
1.00004 1.00176 0.992555
1.0013 1.00089 0.990979
1.00001 1.00293 0.991328
0.993089 0.990286 1.01284
0.994633 1.0002 0.993228
1.00257 1.00075 0.986444
1.00117 1.00338 0.988931
0.996584 0.9905 1.00937
1.00363 0.989047 1.00717
1.00865 0.984043 1.00116
1.00005 1.00148 0.992873
1.00342 0.995162 0.999856
1.01082 0.994414 0.988395
1.00009 1.00384 0.990164
0.999705 1.00299 0.992062
0.99993 1.00519 0.98979
1.00118 1.00402 0.986755
0.997059 1.00263 0.982263
0.999991 0.989704 1.00461
1.01114 0.990263 0.991442
0.999834 1.00214 0.992625
1.01233 0.999684 0.982789
1.01459 0.995417 0.981483
0.999122 1.00415 0.992045
0.999328 1.00576 0.990408
0.997371 1.00121 0.98366
1.00509 0.986549 0.99685
1.01123 0.991033 0.99105
1.00011 1.00129 0.992938
1.00011 1.00149 0.992764
1.00014 1.00161 0.992503
1.00011 1.0002 0.994027
1.00014 1.00067 0.993497
1.00015 1.00087 0.993269
1.00018 1.00125 0.99287
1.00014 1.00068 0.993489
1.00018 1.00102 0.993079
1.00018 1.00134 0.992761
1.00013 1.00142 0.992758
1.00019 1.00124 0.992815
1.00016 1.00099 0.993148
1.00014 1.00061 0.993568
1.00013 1.00057 0.993614
1.00012 1.00074 0.993434
1.00014 1.00088 0.993298
1.0001 1.00064 0.993579
1.00013 1.00086 0.993279
1.00014 1.00093 0.993218
1.00012 1.00109 0.993113
1.00015 1.00103 0.993103
1.00015 1.00083 0.993295
1.00012 1.00085 0.993309
1.00011 1.0009 0.993318
1.0001 1.00044 0.993853
1.00008 1.00071 0.993546
1.00011 1.00056 0.993651
1.00009 1.00014 0.994053
1.00011 1.00064 0.993565
1.00009 1.00017 0.994065
1.00007 0.999452 0.994818
1.0001 1.00016 0.994066
1.00009 0.999435 0.994807
1.00005 0.99838 0.995909
1.00009 0.999431 0.994792
1.00007 0.998385 0.995877
1.00001 0.996798 0.997917
1.00008 0.998393 0.995851
1.00003 0.996766 0.99772
1.00001 0.995739 0.998718
1.00005 0.996735 0.997536
1.00001 0.99572 0.99909
1.00001 0.995709 0.999461
1.00007 0.999369 0.994951
1.00007 0.998195 0.996058
1.00009 0.999234 0.995022
1.00004 0.996594 0.997693
1.00008 0.998142 0.996095
1.0001 0.999152 0.995053
1.00001 0.995636 0.999497
1.00004 0.996577 0.997704
1.00008 0.998132 0.996107
1.00004 0.996609 0.997679
1.00001 0.995653 0.999492
0.999997 0.995691 0.999484
1.00327 0.995691 0.99603
0.991441 0.991713 1.01504
1.01092 0.993453 0.988988
1.00424 0.989248 1.00209
0.999374 1.00042 0.993119
0.999396 1.00331 0.992585
0.994056 0.997767 0.997934
0.993934 0.990858 1.01003
1.00648 0.981943 1.00775
1.00042 1.00129 0.991929
0.994991 1.0004 0.990442
0.996789 0.989662 1.00555
1.00917 0.983725 1.00182
1.00159 1.00138 0.990082
0.995452 1.00297 0.986167
1.00066 0.989296 1.00497
1.01104 0.990569 0.991596
1.00011 1.00092 0.993302
1.0001 1.00055 0.993694
1.00011 0.999859 0.994361
1.00009 1.00029 0.993944
1.00011 1.00064 0.993558
1.00012 1.0004 0.99385
1.00012 1.00015 0.994025
1.00008 1.00021 0.994157
1.00009 1.0001 0.994221
1.0001 0.999939 0.994233
1.00052 0.999531 0.993742
1.00068 0.99944 0.993486
1.00047 1.00133 0.992174
1.00018 1.00198 0.992053
1.00011 1.00211 0.992118
1.00008 1.00148 0.992748
1.00007 1.00134 0.992924
1.00009 1.00129 0.992964
1.00133 0.998751 0.992763
1.00007 1.00165 0.992681
1.00008 1.00205 0.992316
1.00035 1.00207 0.991713
1.00014 1.00258 0.991581
1.00106 1.00131 0.991056
0.999994 1.0035 0.990982
1.00009 1.00249 0.991761
1.00008 1.00156 0.992714
1.0001 1.00179 0.992462
1.01294 1.00157 0.979325
1.0034 0.997653 0.995884
0.990777 0.992305 1.01543
1.00004 1.00147 0.992878
0.999685 1.00292 0.99207
1.0002 1.00377 0.990049
1.00314 0.996069 0.996425
0.995494 1.00221 0.986024
1.00118 1.00385 0.988845
0.999949 1.0052 0.989163
0.999755 0.989315 1.00174
1.01049 0.994393 0.98849
1.01098 0.99128 0.99036
0.999835 1.00207 0.992706
1.01224 1.00002 0.981521
1.01463 0.995259 0.981307
0.999176 1.00427 0.99179
0.999299 1.00588 0.990459
0.997101 1.00193 0.985488
1.01169 0.991385 0.989885
1.00388 0.990762 0.994876
0.999763 1.00243 0.992322
1.01714 0.997298 0.975121
1.01549 0.993327 0.982028
1.01127 0.988551 0.993237
0.999167 1.0036 0.99248
0.996254 1.00253 0.986539
1.00675 0.9869 0.993512
1.00012 1.00151 0.992782
1.00013 1.00163 0.992514
1.00015 1.0016 0.99251
1.00014 1.00068 0.993487
1.00018 1.00102 0.993081
1.00019 1.00135 0.992746
1.00016 1.00097 0.993163
1.00018 1.00125 0.992811
1.00015 1.00143 0.99272
1.00011 1.00137 0.992845
1.00014 1.00124 0.992928
1.00014 1.00085 0.993323
1.0001 1.00065 0.993581
1.00013 1.00086 0.993294
1.00012 1.00108 0.993117
1.00013 1.00092 0.993216
1.0001 1.00128 0.992996
1.00013 1.00096 0.993198
1.00014 1.00133 0.992757
1.00016 1.00084 0.993292
1.00014 1.00086 0.993314
1.00014 1.00117 0.992958
1.00006 1.00102 0.993296
1.00006 1.00051 0.9938
1.00009 1.00091 0.993314
1.00008 1.00006 0.994201
1.0001 1.00045 0.993807
1.00008 1.00066 0.993603
1.00011 1.00056 0.993702
1.00009 1.00014 0.994085
1.00006 0.999454 0.994844
1.00009 1.00017 0.994065
1.00007 0.999453 0.994818
1.00003 0.9984 0.995931
1.00009 0.999441 0.994804
1.00005 0.998383 0.995908
0.999989 0.996796 0.997943
1.00007 0.998386 0.995877
1.00001 0.996783 0.997739
0.999986 0.99577 0.998731
1.00004 0.996759 0.997536
1 0.995756 0.999088
1 0.995735 0.999458
1.00006 0.999478 0.99471
1.00006 0.998284 0.995846
1.00007 0.99937 0.99495
1.00004 0.99663 0.997671
1.00007 0.998197 0.995977
1.00009 0.999234 0.9949
1 0.995648 0.999493
1.00004 0.996589 0.997695
1.00008 0.998137 0.996097
1.00001 0.995636 0.999497
1.00004 0.996578 0.997703
1 0.995657 0.99949
1.01232 0.998994 0.981714
1.00336 0.994251 1.0009
0.992528 0.992034 1.01046
1.0001 1.00024 0.993974
1.01497 0.993919 0.981694
1.01101 0.993763 0.989122
1.00476 0.987758 1.00556
1.00068 1.00114 0.991075
0.996868 1.00144 0.984614
0.995402 0.989841 1.01187
1.00889 0.985617 1.00202
1.00206 1.00093 0.98797
0.996828 1.00293 0.982288
1.00091 0.98883 0.999866
1.01094 0.989617 0.993264
1.00156 1.00319 0.986509
0.996913 1.00205 0.979693
1.0024 0.992622 0.992782
1.011 0.992659 0.989571
1.00014 1.00112 0.993019
1.00011 1.00096 0.993268
1.0001 1.00051 0.993773
1.0001 1.00073 0.993487
1.00011 1.00062 0.993612
1.00012 1.00037 0.993884
1.00008 1.0002 0.994171
1.00009 1.00008 0.994269
1.00111 0.998977 0.992756
1.0003 1.00201 0.991862
1.00009 1.0013 0.992973
1.00014 1.00256 0.991584
1.00008 1.00212 0.992276
1.00006 1.00164 0.992698
1.00008 1.00156 0.992701
1.00093 1.00136 0.990996
1.0001 1.00184 0.992411
1.00009 1.00254 0.991741
1.00001 1.0035 0.99098
1.0001 1.00163 0.992584
1.00013 1.00389 0.990397
0.999876 1.00361 0.99119
1.00013 1.00204 0.992174
1.00011 1.00199 0.992246
1.01807 0.998543 0.973247
1.01295 1.00117 0.979375
1.00325 0.998777 0.993288
0.999836 1.002 0.992788
0.999232 1.0044 0.991536
1.01215 1.00028 0.980252
0.997114 1.0013 0.981972
0.999692 1.0058 0.988723
1.0025 0.990772 0.993202
1.01466 0.995095 0.98113
1.01224 0.991688 0.988721
0.999793 1.0025 0.992379
1.01706 0.997293 0.975055
1.01601 0.993446 0.980861
0.998882 1.0035 0.99328
1.01116 0.987732 0.99479
0.997386 1.00122 0.986722
1.00443 0.99005 0.991649
1.00004 1.00153 0.992793
1.01856 0.994383 0.975845
1.01513 0.992508 0.982875
1.00976 0.983084 1.00205
1.00231 0.991166 0.994442
0.9984 1.00421 0.99454
0.997381 0.999065 0.987442
1.00013 1.00165 0.992525
1.00013 1.00164 0.992487
0.999855 1.00168 0.992913
1.00016 1.00096 0.993179
1.00018 1.00126 0.992806
1.00017 1.00142 0.992682
1.00014 1.00122 0.992929
1.00011 1.00135 0.992852
1.00002 1.00194 0.992467
1.00013 1.00106 0.993121
1.00013 1.00091 0.993213
1.00011 1.00129 0.992953
1.00004 1.00184 0.992526
1.00011 1.00089 0.993294
1.00012 1.00132 0.992818
1.00016 1.00162 0.992512
1.00017 1.00128 0.992819
1.00016 1.00087 0.993319
1.00015 1.00119 0.992935
1.00006 1.00099 0.993384
0.999993 1.0007 0.993693
1.00006 1.00099 0.993341
1.00005 1.00008 0.994242
1.00007 1.00052 0.993793
1.00007 1.00091 0.99331
1.00005 0.999425 0.99489
1.00008 1.00006 0.99417
1.00011 1.00046 0.993761
1.00009 1.00013 0.994117
1.00006 0.999452 0.994846
1.00001 0.998425 0.995948
1.00007 0.999453 0.994819
1.00003 0.998401 0.995932
0.999969 0.996831 0.997601
1.00005 0.998386 0.995907
0.999996 0.996793 0.997583
0.999948 0.995809 0.99947
1.00002 0.996775 0.997555
0.99998 0.995791 0.999094
0.999986 0.995765 0.99946
1.00007 0.999515 0.994653
1.00005 0.998393 0.995765
1.00006 0.999483 0.994781
1.00002 0.996688 0.997639
1.00006 0.99829 0.995836
1.00007 0.99937 0.994948
0.999996 0.995674 0.999488
1.00004 0.996625 0.997672
1.00008 0.998199 0.995897
1.00001 0.995647 0.999494
1.00004 0.996584 0.997696
1.00001 0.995638 0.999496
1.01733 0.997014 0.975222
1.01246 0.998986 0.98167
1.00327 0.994166 1.00073
1.00011 1.00023 0.994003
1.00013 1.00017 0.993926
1.00012 1.0007 0.993541
1.01552 0.994165 0.981132
1.01502 0.994498 0.981513
1.01109 0.994022 0.989257
1.00224 1.00153 0.98958
0.995958 1.0036 0.986516
1.00112 0.988778 0.999585
1.01083 0.990478 0.992887
1.00135 1.00338 0.988874
0.996586 1.00262 0.984298
1.00511 0.990957 0.993565
1.0116 0.992882 0.988533
1.00006 1.0048 0.990444
0.99656 1.00101 0.984109
1.00699 0.988538 0.991429
1.01148 0.990839 0.990098
1.00012 1.00125 0.992937
1.00013 1.00113 0.993032
1.00011 1.00099 0.993235
1.0001 1.00074 0.99348
1.00012 1.00059 0.993666
1.00008 1.00018 0.994185
1.0008 1.00136 0.990935
1.00003 1.00351 0.990978
1.00009 1.00156 0.992689
1.00009 1.00258 0.991721
1.0001 1.00189 0.99236
1.0001 1.0017 0.992546
1.00011 1.002 0.992191
1.00011 1.00373 0.990321
1.00013 1.00205 0.992136
0.999858 1.00358 0.991171
1.0001 1.00204 0.992128
0.999611 1.00464 0.99089
0.999968 1.00265 0.991739
1.00016 1.00248 0.991642
1.01972 0.995294 0.973435
1.01795 0.998009 0.973128
1.01297 1.00073 0.979426
0.999821 1.00258 0.992435
0.998754 1.00383 0.993499
1.01698 0.997287 0.97499
0.99727 1.00133 0.990279
1.00712 0.986295 0.993009
1.01655 0.993577 0.979693
1.01108 0.988539 0.994393
1.00004 1.00164 0.992729
1.01865 0.994641 0.975341
1.01519 0.993029 0.982707
0.998428 1.00426 0.992462
1.00946 0.982219 1.00282
1.00504 0.989087 0.995572
0.996056 1.00028 0.987126
0.999845 1.00144 0.993773
1.01732 0.995908 0.976354
1.01115 0.992127 0.989962
1.00448 0.982034 1.00918
1.00067 0.988343 1.00598
0.996472 1.00131 0.985283
0.99786 1.00602 0.991227
1.00012 1.00168 0.992464
0.99992 1.00161 0.992919
0.999622 1.00301 0.992074
1.00015 1.0012 0.99293
1.00011 1.00134 0.992858
1.00002 1.0019 0.992516
0.999943 1.003 0.991477
1.00012 1.00131 0.99291
1.00007 1.00193 0.992441
1.00014 1.00219 0.992058
1.0001 1.00132 0.99288
1.00016 1.00162 0.992509
1.00024 1.00162 0.992434
1.00027 1.00126 0.992686
1.0001 1.00107 0.993113
1.00016 1.0013 0.992795
1.00015 1.00122 0.992912
1.00004 1.00073 0.993705
1.00005 1.00095 0.993407
0.999985 1.00027 0.994128
1 1.00069 0.993754
1.00006 1.00096 0.993386
1.00002 0.99945 0.994926
1.00006 1.00008 0.994242
1.00007 1.00053 0.993786
0.999993 0.998444 0.99597
1.00005 0.999423 0.994891
1.00009 1.00006 0.994139
1.00006 0.999449 0.994847
1.00001 0.998426 0.995948
0.999939 0.996881 0.997612
1.00003 0.998403 0.995932
0.999969 0.996833 0.997602
0.999919 0.995907 0.999473
0.999997 0.996796 0.997582
0.999953 0.995824 0.999106
0.999965 0.995796 0.999465
1.00008 0.999468 0.994786
1.00004 0.998439 0.995884
1.00007 0.999521 0.9947
1.00001 0.996762 0.9976
1.00005 0.998392 0.995839
1.00006 0.99949 0.994852
0.999981 0.99572 0.999481
1.00002 0.996681 0.997642
1.00006 0.998296 0.995826
0.999998 0.995676 0.99949
1.00004 0.99662 0.997673
1.00001 0.995647 0.999496
1.01868 0.994868 0.975124
1.01735 0.997232 0.975146
1.01259 0.999138 0.981626
1.00013 1.00007 0.994034
1.00016 1.00035 0.993814
1.00011 1.00021 0.994033
1.00013 1.00016 0.993937
1.00012 1.00072 0.993483
1.00014 1.00067 0.993507
1.00013 1.001 0.993176
1.01485 0.99441 0.982171
1.01596 0.994423 0.979988
1.01508 0.995099 0.981333
1.01229 0.99307 0.987496
1.00159 1.00342 0.986366
0.996905 1.00287 0.987044
1.00469 0.987378 0.993079
0.999984 1.00501 0.988683
0.997855 1.00023 0.984965
1.00474 0.991673 0.989455
1.0114 0.989824 0.991266
0.998763 1.00589 0.991725
0.997782 0.999283 0.985206
1.00579 0.987272 0.995619
1.00986 0.986197 0.997343
1.00011 1.00159 0.992629
1.00012 1.00128 0.992922
1.00012 1.00113 0.993045
1.00011 1.00075 0.993473
1.0001 1.00358 0.990245
0.999843 1.00354 0.991152
1.00009 1.00176 0.992507
1.00011 1.00201 0.992136
1.00013 1.00207 0.992097
1.0001 1.00202 0.992196
1.00015 1.0025 0.991632
0.999459 1.00455 0.991134
0.999973 1.00253 0.99181
1.00012 1.00243 0.991771
0.99924 1.00382 0.992592
1.00004 1.00335 0.990925
1.01822 0.997462 0.974036
1.01955 0.995222 0.97325
1.01783 0.997515 0.97301
1.00004 1.00175 0.992665
0.998377 1.00382 0.994521
1.01874 0.99491 0.974838
0.997332 0.999113 0.987121
1.00465 0.985813 0.994808
1.01526 0.993571 0.982539
1.00915 0.983998 1.00312
0.999892 1.00117 0.993766
1.01734 0.996102 0.976289
1.01123 0.992411 0.990105
0.998292 1.00646 0.992517
1.00563 0.9814 1.00876
1.00088 0.987729 1.00103
0.997425 1.00026 0.986497
0.999666 1.00334 0.992293
1.01242 0.997827 0.982725
1.00372 0.988874 1.00172
0.995364 0.989489 1.01362
0.99675 1.0022 0.98238
0.999271 1.00636 0.988596
0.999982 1.00154 0.992925
0.999653 1.00295 0.9921
0.999675 1.00416 0.990856
1.00001 1.00186 0.992566
0.999918 1.00293 0.991594
1.00015 1.00305 0.99115
1.00011 1.00201 0.992356
1.00015 1.00222 0.991987
1.00031 1.00183 0.992041
1.00015 1.00161 0.992506
1.00023 1.00161 0.992404
1.00034 1.00121 0.99257
1.00041 1.00078 0.992833
1.00022 1.00112 0.99292
1.00026 1.00126 0.992663
1.00006 1.00079 0.993457
1.0001 1.00105 0.993159
1.00016 1.00131 0.99277
1.00001 1.00038 0.994054
1.00004 1.00073 0.993657
1.00004 1.00091 0.99343
0.999974 0.999584 0.994886
0.999989 1.00025 0.99417
1.00001 1.00068 0.993816
0.999962 0.998488 0.995988
1.00002 0.999449 0.994927
1.00006 1.00008 0.994241
0.999906 0.996968 0.997621
0.999993 0.998443 0.995971
1.00005 0.999421 0.994893
1.00001 0.998426 0.995949
0.999939 0.996885 0.997613
0.999885 0.995979 0.999476
0.99997 0.996835 0.997602
0.999913 0.995898 0.999474
0.999939 0.995834 0.999471
1.00013 0.999996 0.994175
1.00007 0.999431 0.994836
1.00003 0.998441 0.995897
1.00008 0.99947 0.994785
0.99999 0.996822 0.997576
1.00004 0.998438 0.995884
1.00007 0.999527 0.994747
0.999962 0.995782 0.999472
1.00001 0.996754 0.997602
1.00004 0.998391 0.995913
0.999985 0.995721 0.999483
1.00002 0.996673 0.997644
1 0.995678 0.999491
1.01737 0.996259 0.975763
1.01877 0.995153 0.97466
1.01737 0.997452 0.975071
1.00012 1.00007 0.994073
1.00016 1.00035 0.993767
1.00013 1.00032 0.993782
1.00015 1.00046 0.993623
1.00019 1.00057 0.993546
1.00013 1.00014 0.993947
1.00012 1.00074 0.993425
1.00014 1.00066 0.993506
1.00013 1.00096 0.993207
1.00014 1.00103 0.993165
1.01124 0.994338 0.988232
1.01471 0.994375 0.981986
1.01638 0.994691 0.978844
1.01131 0.990808 0.990173
1.0073 0.987992 0.99106
1.0001 1.00519 0.987816
0.996077 1.00137 0.985094
0.99837 1.00621 0.989821
0.996576 1.00021 0.985568
1.0043 0.991493 0.99306
1.00934 0.983544 0.99975
0.997509 1.00643 0.990858
0.995977 1.00145 0.985155
1.00114 0.987827 0.999826
1.00606 0.980976 1.00946
1.00007 1.00157 0.992728
1.00011 1.00157 0.992659
1.00012 1.00131 0.992906
0.999311 1.00447 0.991378
0.99998 1.00242 0.991881
1.00009 1.00201 0.992264
1.00015 1.00252 0.991621
1.00009 1.00246 0.991802
1.00003 1.00338 0.990925
0.999225 1.00376 0.992611
0.999882 1.00319 0.991344
0.999381 1.00438 0.9917
1.01321 1.00068 0.980147
1.0181 0.996986 0.973881
1.01939 0.99515 0.973064
0.999944 1.00092 0.993759
0.998097 1.0063 0.990482
1.01736 0.996299 0.976224
0.995784 1.00146 0.984016
1.00112 0.987841 1.00057
1.01131 0.992646 0.990248
1.0067 0.980998 1.00834
0.999627 1.00321 0.992342
1.01255 0.997836 0.982678
1.00444 0.988272 1.00275
0.998852 1.00653 0.989746
0.996775 0.989244 1.00598
0.996394 1.00269 0.982864
0.999842 1.00448 0.990686
1.00342 0.9948 0.996688
0.994333 0.990024 1.01113
0.995363 1.00305 0.986252
1.00055 1.00493 0.988682
0.999685 1.0029 0.992126
0.999659 1.00416 0.990871
1.00013 1.00397 0.990521
0.999893 1.00286 0.991712
1.00012 1.00304 0.991153
1.0005 1.00175 0.991717
1.00015 1.00225 0.991917
1.00029 1.00177 0.992076
1.00049 1.00077 0.992725
1.00022 1.0016 0.992374
1.00034 1.00114 0.992598
1.00052 1.00028 0.993095
1.00051 1.00025 0.993149
1.00033 1.00091 0.992858
1.00041 1.00074 0.992848
1.00015 1.0009 0.993234
1.00021 1.00115 0.992873
1.00025 1.00126 0.99264
1.00003 1.0004 0.993957
1.00006 1.00077 0.993503
1.00011 1.00104 0.993204
0.999959 0.999726 0.994776
1 1.00037 0.994038
1.00003 1.00074 0.993608
0.999922 0.998594 0.995963
0.999978 0.999587 0.994884
0.999993 1.00024 0.994212
0.99986 0.997016 0.997983
0.999963 0.998489 0.995989
1.00002 0.999448 0.994927
0.999859 0.996054 0.998767
0.999901 0.996956 0.9978
0.999994 0.998442 0.995973
0.999939 0.996889 0.997613
0.999879 0.995968 0.999476
0.999908 0.995889 0.999475
1.00012 0.999972 0.99417
1.00007 0.999392 0.994878
1.00013 0.999991 0.994152
1.00002 0.998441 0.995925
1.00007 0.999433 0.994835
0.999967 0.996866 0.997577
1.00003 0.998443 0.995895
1.00008 0.999473 0.994784
0.999937 0.995844 0.999468
0.999989 0.996818 0.997576
1.00004 0.998437 0.995884
0.999966 0.995784 0.999474
1.00001 0.996746 0.997604
0.999988 0.995722 0.999486
1.01261 0.999722 0.979932
1.0173 0.996248 0.975697
1.01887 0.995447 0.974196
1.00011 1.00041 0.993853
1.00012 1.00008 0.994112
1.00016 1.00034 0.99372
1.00015 1.00047 0.993672
1.00013 1.00033 0.993833
1.00018 1.00053 0.993551
1.00016 1.00061 0.993477
1.00016 1.00072 0.993369
1.00015 1.00064 0.993506
1.00013 1.00092 0.993238
1.00014 1.001 0.993171
1.00014 1.00113 0.993105
1.00425 0.986697 1.0072
1.01094 0.994328 0.988308
1.01459 0.994337 0.981801
1.00876 0.983925 1.00143
1.00307 0.991468 0.99126
0.997803 0.999275 0.985166
0.998352 1.00608 0.992835
0.99779 1.00704 0.993255
1.00606 0.981104 1.00927
0.99756 1.00011 0.983947
0.999639 0.98935 1.00513
0.998429 1.00582 0.99256
0.996631 1.00219 0.983061
0.995034 0.989133 1.01456
0.999931 1.00174 0.992841
1.00009 1.00154 0.992741
1.00011 1.00154 0.992688
0.999208 1.00369 0.992629
1.00002 1.00341 0.990924
1.00007 1.0025 0.991833
0.999906 1.00324 0.991374
0.999406 1.00438 0.991666
0.999575 1.0036 0.991571
1.00391 0.995274 1.00145
1.01315 1.00056 0.978583
1.01798 0.99654 0.973725
0.999586 1.00308 0.992391
0.999241 1.00636 0.990033
1.01268 0.998002 0.982631
0.996777 1.00308 0.988206
0.995388 0.98941 1.01238
1.00496 0.986848 1.00615
0.999825 1.00453 0.990703
1.00351 0.993407 1.00149
0.99242 0.991356 1.01625
1.00059 1.00504 0.986532
0.99682 1.00296 0.982179
1.0007 1.00344 0.989648
0.991043 0.991411 1.01616
0.996408 1.00045 0.986387
1.00187 1.00302 0.986114
0.999643 1.00417 0.990886
1.00006 1.00395 0.990372
1.00073 1.00166 0.991448
1.00009 1.00303 0.991156
1.00047 1.00167 0.99176
1.00076 0.999872 0.993065
1.00028 1.00172 0.99211
1.00048 1.00068 0.992761
1.00065 0.999522 0.993595
1.00033 1.00108 0.992626
1.00052 1.00025 0.993108
1.00058 0.999675 0.993549
1.00047 1.00011 0.993348
1.00043 1.00053 0.993073
1.0005 1.00023 0.993155
1.00025 1.0008 0.993107
1.00032 1.00089 0.9929
1.0004 1.0007 0.992863
1.00006 1.00052 0.993774
1.00013 1.00091 0.993231
1.00019 1.00117 0.992826
0.999966 0.999833 0.994653
1.00004 1.0004 0.993955
1.00006 1.00075 0.993549
0.999891 0.998735 0.995885
0.999962 0.999726 0.994776
0.999994 1.00037 0.994022
0.999821 0.997114 0.997616
0.999925 0.9986 0.99596
0.999982 0.99959 0.994882
0.999804 0.996104 0.99948
0.999865 0.997015 0.997628
0.999964 0.998491 0.995989
0.999843 0.996059 0.999478
0.999906 0.996948 0.997623
0.999872 0.995958 0.999477
1.00008 1.00007 0.994283
1.00011 0.999974 0.994204
1.00006 0.999408 0.99489
1 0.998445 0.995948
1.00007 0.999394 0.994876
1.00013 0.999986 0.994129
0.999941 0.996907 0.997589
1.00002 0.998441 0.995925
1.00007 0.999435 0.994833
0.999909 0.995905 0.999469
0.999967 0.996864 0.997576
1.00003 0.998446 0.995894
0.999942 0.995851 0.999469
0.999988 0.996813 0.997577
0.999969 0.995786 0.999477
1.00428 0.994808 0.997836
1.0126 0.999742 0.979857
1.01721 0.996238 0.97563
1.00011 1.00042 0.99381
1.00012 1.00046 0.993741
1.00014 1.00057 0.993573
1.00014 1.00048 0.993721
1.00013 1.00035 0.993884
1.00018 1.00049 0.993555
1.00016 1.00071 0.993393
1.00016 1.0006 0.993508
1.00013 1.00094 0.993246
1.0001 1.00113 0.993142
1.00014 1.00097 0.993177
1.00014 1.0011 0.99308
0.992433 0.989882 1.01511
1.00395 0.987865 1.00646
1.01064 0.994321 0.988384
1.00605 0.981282 1.00908
0.999606 0.988568 1.00256
0.997317 1.00072 0.987116
0.997509 1.00661 0.990796
0.998356 1.00616 0.989996
0.996907 0.988983 1.00604
0.996644 1.00243 0.987621
0.999617 1.00519 0.988087
0.995616 1.00284 0.988635
0.999797 1.00249 0.992497
0.999951 1.00167 0.992861
1.00011 1.00151 0.992754
0.999425 1.00437 0.991632
0.999928 1.00328 0.991404
0.999771 1.00358 0.991574
1.00007 1.00249 0.991612
0.990968 0.990034 1.02046
1.00373 0.996685 0.997629
1.01308 1.00034 0.977019
0.999801 1.00458 0.99072
1.00061 1.00513 0.9891
1.00343 0.993291 1.00133
0.995848 1.00358 0.986527
0.993997 0.990631 1.01024
1.00058 1.00347 0.98969
0.991569 0.991344 1.01519
0.994918 1.0004 0.990326
1.00173 1.00313 0.988487
1.00167 1.00048 0.990402
0.995999 0.99696 0.988688
1.00173 1.00133 0.989975
0.999998 1.00393 0.990223
1.0007 1.00154 0.991471
1.00115 0.998916 0.99335
1.00045 1.00159 0.991803
1.00073 0.99977 0.9931
1.00078 0.998632 0.994195
1.00047 1.00058 0.992798
1.00064 0.999496 0.993594
1.00062 0.999191 0.993953
1.00051 1.00021 0.99312
1.00058 0.999694 0.993537
1.0005 0.999838 0.993544
1.00043 1.00024 0.993258
1.00047 1.00011 0.993345
1.00041 1.00036 0.993256
1.00034 1.00057 0.993193
1.00041 1.00053 0.993077
1.0005 1.00022 0.99316
1.00014 1.00056 0.993516
1.00024 1.0008 0.993156
1.0003 1.00087 0.992942
0.999975 0.999983 0.994487
1.00007 1.00052 0.993774
1.00011 1.00091 0.993228
0.999872 0.998874 0.995784
0.999971 0.99983 0.994653
1.00004 1.0004 0.993952
0.999775 0.997245 0.997576
0.999894 0.998741 0.995883
0.999965 0.999727 0.994776
0.999754 0.996277 0.999478
0.999823 0.997125 0.997614
0.999927 0.998606 0.995958
0.999805 0.99612 0.999125
0.999867 0.997026 0.997628
0.999832 0.996037 0.999479
1.00007 1.00018 0.99414
1.00008 1.00007 0.994208
1.00004 0.999495 0.994855
1.0001 0.999976 0.994238
1.00006 0.999407 0.99489
0.999985 0.998481 0.99595
0.999912 0.996956 0.9976
1 0.998445 0.995947
1.00007 0.999397 0.994874
0.999877 0.995968 0.999472
0.999941 0.996904 0.997589
1.00002 0.998441 0.995924
0.999914 0.995917 0.999468
0.999966 0.996861 0.997575
0.999946 0.995859 0.999469
0.993268 0.992006 1.00865
1.004 0.994019 1.00118
1.01258 0.999764 0.979783
1.00012 1.00042 0.993767
1.00013 1.00057 0.993584
1.00012 1.00046 0.993761
1.00011 1.00056 0.993654
1.00014 1.00064 0.993495
1.00016 1.00069 0.993416
1.00016 1.00058 0.993539
1.00013 1.00093 0.99323
1.00009 1.00093 0.993276
1.0001 1.00115 0.993109
1.00013 1.00142 0.992825
1.00008 1.00115 0.993129
1.00014 1.00107 0.993054
0.996908 0.999103 0.985361
0.993336 0.991202 1.01219
1.00377 0.988195 1.00777
0.996091 0.989137 1.01127
0.996676 1.0021 0.980326
0.998494 1.00586 0.992484
0.999633 1.00516 0.98927
0.996428 1.00191 0.984306
1.00061 1.00289 0.98892
1.00015 1.00261 0.991564
0.999803 1.00247 0.992458
0.99997 1.00161 0.99288
0.99997 1.00357 0.991576
1.00003 1.00232 0.991844
0.994069 0.995029 0.996928
0.992685 0.991498 1.01154
1.00356 0.998046 0.993804
1.00048 1.00352 0.989732
1.00198 1.00308 0.985986
0.992653 0.991572 1.01061
0.996821 1.00167 0.984453
1.00156 1.00061 0.990339
0.995007 0.997228 0.993224
1.00221 1.0008 0.987808
1.002 0.997938 0.992359
1.00034 1.00251 0.991979
1.00066 1.00141 0.991493
1.00109 0.998832 0.993378
1.00084 0.998331 0.994472
1.0007 0.999666 0.993135
1.00076 0.998666 0.994173
1.00057 0.999053 0.994188
1.00063 0.999473 0.993594
1.00061 0.999247 0.993927
1.00046 0.999861 0.993612
1.00057 0.999715 0.993526
1.0005 0.999891 0.993524
1.00043 1.0003 0.993223
1.00043 1.00025 0.99327
1.0004 1.0005 0.993107
1.00048 1.00011 0.993342
1.00042 1.00035 0.993254
1.00036 1.00047 0.993245
1.00024 1.00048 0.993417
1.00034 1.00058 0.993184
1.0004 1.00054 0.99308
1.00001 1.00012 0.994272
1.00014 1.00056 0.993556
1.00023 1.00081 0.993205
0.999857 0.99904 0.995646
0.99998 0.999978 0.994485
1.00007 1.00052 0.993773
0.999731 0.99739 0.997517
0.999875 0.998879 0.995782
0.999975 0.999826 0.994652
0.999701 0.996416 0.999471
0.999778 0.997259 0.997573
0.999897 0.998747 0.995881
0.999745 0.996263 0.999476
0.999824 0.997137 0.997612
0.999787 0.996131 0.999479
1.00005 1.00033 0.993942
1.00007 1.00018 0.994141
1.00002 0.999627 0.99468
1.00009 1.00008 0.994133
1.00004 0.999502 0.994802
0.99996 0.998575 0.995913
1.00006 0.999407 0.99489
0.999985 0.998479 0.99595
0.999881 0.997023 0.9976
0.999841 0.996039 0.999474
0.999912 0.996951 0.9976
1 0.998445 0.995946
0.999882 0.995984 0.999471
0.99994 0.996901 0.997588
0.999919 0.995929 0.999468
0.996312 0.997335 0.990387
0.991782 0.990099 1.01915
1.00379 0.994651 0.999339
1.00013 1.00056 0.993596
1.00012 1.00046 0.993781
1.00014 1.00064 0.993517
1.00011 1.00055 0.993681
1.00007 1.00075 0.99356
1.00011 1.00075 0.99346
1.00013 1.00091 0.993214
1.0001 1.00095 0.99327
1.00008 1.00116 0.993106
1.00007 1.0011 0.993112
1.00022 1.00119 0.992937
1.00045 1.00173 0.991882
1.0001 1.0014 0.992842
1.00007 1.00117 0.993115
1.00154 0.999763 0.992445
0.995544 0.999011 0.989814
0.993825 0.989453 1.01162
0.995171 1.00235 0.987887
0.999813 1.00508 0.991106
1.00053 1.00303 0.990677
1.00136 1.00103 0.990738
1.00014 1.00252 0.991484
0.999805 1.00244 0.99242
0.999972 1.00218 0.992077
0.999599 1.00138 0.992054
0.995771 0.997237 0.991956
0.991135 0.991762 1.01541
1.00145 1.00069 0.990276
1.00241 1.00146 0.989402
0.99406 0.997818 0.997787
1.00181 0.99814 0.992352
1.00038 1.00146 0.99188
1.00083 0.999245 0.993536
0.99894 1.00406 0.992617
1.00103 0.998763 0.993406
1.0008 0.998396 0.994451
1.00034 0.999874 0.993882
1.00073 0.998705 0.99415
1.00056 0.999153 0.994148
1.00036 1.00026 0.993476
1.0006 0.999305 0.9939
1.00046 0.999908 0.993598
1.00039 1.00051 0.993101
1.0005 0.999943 0.993503
1.00043 1.00032 0.993241
1.0004 1.00069 0.99293
1.00043 1.00026 0.993282
1.0004 1.00047 0.993123
1.00035 1.0006 0.993111
1.00042 1.00034 0.993253
1.00037 1.00046 0.993241
1.00027 1.00045 0.993438
1.00008 1.00018 0.993996
1.00023 1.00048 0.993464
1.00034 1.00059 0.993176
0.999859 0.999231 0.995451
1.00002 1.00011 0.994274
1.00013 1.00056 0.993596
0.99969 0.997553 0.997434
0.999861 0.999046 0.995643
0.999986 0.999973 0.994483
0.999647 0.996573 0.999459
0.999735 0.997406 0.997514
0.999879 0.998883 0.995781
0.999692 0.996401 0.999468
0.99978 0.997274 0.997571
0.999736 0.996248 0.999475
1.00003 1.00049 0.993887
1.00005 1.00033 0.994011
0.999991 0.999804 0.99456
1.00007 1.00019 0.994143
1.00001 0.999643 0.994666
0.99993 0.998712 0.995839
1.00004 0.99951 0.994749
0.999959 0.99857 0.995914
0.999844 0.997123 0.997577
0.999985 0.998476 0.99595
0.999881 0.997015 0.9976
0.9998 0.996124 0.999473
0.999847 0.996058 0.999473
0.999912 0.996946 0.997599
0.999888 0.996 0.99947
1.00106 0.998965 0.994394
0.994482 0.995527 0.995319
0.993451 0.989197 1.01319
1.00008 1.00087 0.993451
1.00014 1.00064 0.993539
1.00011 1.00054 0.993708
1.00012 1.00076 0.993439
1.00006 1.00076 0.993556
1.00006 1.00096 0.993345
1.00011 1.00097 0.993265
1.00006 1.00119 0.993103
1.00009 1.0011 0.993153
1.00015 1.00118 0.993034
1.00032 1.00136 0.992453
1.00102 1.0013 0.991015
1.0004 1.00173 0.991941
1.00007 1.00138 0.992859
1.00177 0.998594 0.991921
1.00163 0.99984 0.99104
0.994346 0.999331 0.994313
1.00091 1.00301 0.988582
1.00135 1.00122 0.990356
1.00014 1.00241 0.991404
0.998938 1.00228 0.994783
0.999631 1.00231 0.993668
0.994035 0.995182 0.996678
1.00161 0.998385 0.992345
1.00057 1.00134 0.991049
1.00073 0.99937 0.99355
0.999043 1.00386 0.992781
0.999729 1.00206 0.992825
0.998983 1.00334 0.993011
1.00077 0.998458 0.994429
1.00032 0.999989 0.993854
1.00011 1.00135 0.992928
1.00054 0.999253 0.994109
1.00035 1.00027 0.993475
1.00031 1.00087 0.992954
1.00046 0.999953 0.993583
1.0004 1.00051 0.99312
1.00038 1.00089 0.992748
1.00043 1.00034 0.993258
1.0004 1.00069 0.992932
1.00035 1.00081 0.992907
1.0004 1.00045 0.993138
1.00035 1.00058 0.993102
1.00027 1.00058 0.993257
1.00037 1.00046 0.993238
1.00028 1.00045 0.993407
1.00012 1.00025 0.993907
0.999881 0.999407 0.995228
1.00008 1.00017 0.994052
1.00023 1.00049 0.993511
0.999654 0.997744 0.997311
0.999862 0.999235 0.995449
1.00002 1.0001 0.994275
0.999591 0.996748 0.999442
0.999695 0.997571 0.997429
0.999865 0.999052 0.99564
0.999638 0.996557 0.999455
0.999738 0.997421 0.99751
0.999683 0.996385 0.999464
1.00003 1.00062 0.993738
1.00003 1.00049 0.993887
0.999968 0.999975 0.99452
1.00005 1.00032 0.994081
0.999986 0.999806 0.9946
0.999897 0.998881 0.99574
1.00001 0.99966 0.994653
0.999928 0.998707 0.99584
0.999801 0.997261 0.997531
0.999958 0.998565 0.995915
0.999844 0.997112 0.997579
0.999753 0.996234 0.999466
0.999881 0.997006 0.9976
0.999808 0.996145 0.999473
0.999853 0.996077 0.999473
1.00057 0.998213 0.995
1.00098 0.998202 0.992411
0.996427 0.99624 0.991277
1.00009 1.00093 0.993285
1.00021 1.00089 0.993168
1.00006 1.00089 0.993429
1.00012 1.00077 0.993419
1.00006 1.00077 0.993551
1.00007 1.00098 0.993309
1.0003 1.00126 0.992565
1.0001 1.00111 0.993193
1.00008 1.00116 0.99313
1.00031 1.00135 0.992435
1.00072 1.00135 0.991483
1.00109 0.999503 0.992731
1.00101 1.00128 0.991123
1.00034 1.00173 0.992
1.00177 0.998682 0.991941
1.00115 0.999182 0.990586
1.00135 1.00143 0.989973
0.998897 1.00117 0.99538
0.998901 1.00218 0.994784
0.999484 1.00091 0.992576
1.00064 0.99948 0.993565
0.999147 1.00365 0.992945
0.999792 1.00203 0.99286
0.999054 1.00322 0.993168
0.999637 1.00258 0.992659
0.999114 1.00236 0.994244
1.0003 1.0001 0.993827
1.00011 1.00128 0.992972
1.00013 1.00156 0.992689
1.00034 1.00029 0.993475
1.00031 1.00087 0.992951
1.00029 1.00109 0.992715
1.0004 1.00051 0.99314
1.00039 1.00089 0.992748
1.00035 1.00099 0.992728
1.0004 1.00069 0.992934
1.00035 1.0008 0.992907
1.00027 1.00079 0.993079
1.00036 1.00056 0.993092
1.00028 1.00057 0.993255
1.00013 1.00041 0.993748
1.00028 1.00045 0.993375
1.00012 1.00024 0.993882
0.999897 0.999592 0.995008
0.999633 0.997967 0.997173
0.999883 0.999407 0.995229
1.00008 1.00017 0.994107
0.999535 0.996942 0.999418
0.99966 0.997763 0.997304
0.999866 0.999239 0.995447
0.999582 0.99673 0.999436
0.9997 0.997589 0.997423
0.999629 0.99654 0.99945
1.00008 1.00073 0.993476
1.00003 1.00063 0.993698
0.999977 1.00013 0.994346
1.00002 1.0005 0.993888
0.999964 0.999975 0.99452
0.999867 0.999072 0.995614
0.999981 0.999808 0.994639
0.999895 0.998877 0.995741
0.999752 0.99743 0.997465
0.999927 0.998702 0.995841
0.9998 0.997247 0.997534
0.999697 0.996374 0.999455
0.999843 0.9971 0.997581
0.999762 0.996254 0.999468
0.999815 0.996165 0.999474
1.00019 0.998915 0.995263
1.00058 0.998377 0.99503
1.00065 0.999101 0.995028
1.00031 1.00096 0.992883
1.00007 1.00093 0.993341
1.00029 1.00098 0.992737
1.0002 1.0009 0.993154
1.00003 1.0009 0.993407
1.00061 1.00128 0.991895
1.00008 1.00099 0.993272
1.0003 1.00125 0.992554
1.00083 1.00034 0.992284
1.0003 1.00134 0.992417
1.00078 1.00136 0.991388
1.00114 0.999474 0.99267
1.00101 1.00126 0.99123
1.00174 0.998776 0.99196
0.99915 1.00115 0.995201
0.998869 1.00129 0.995321
0.998867 1.00208 0.994785
0.999852 1.00201 0.992895
0.999126 1.0031 0.993325
0.999662 1.00257 0.992579
0.999124 1.00215 0.994311
0.999416 1.00182 0.99388
1.00011 1.00121 0.993015
1.00013 1.00147 0.992732
1.00006 1.0014 0.992962
1.00031 1.00087 0.992949
1.00032 1.00111 0.992686
1.00028 1.00109 0.992773
1.00039 1.00089 0.992748
1.00035 1.00099 0.992729
1.00027 1.00099 0.992886
1.00035 1.0008 0.992906
1.00027 1.00078 0.99308
1.00013 1.00064 0.99352
1.00028 1.00056 0.993252
1.00013 1.0004 0.993751
0.99989 0.999842 0.994771
1.00012 1.00024 0.993858
0.9999 0.999589 0.99501
0.999596 0.998212 0.997444
0.999481 0.997182 0.998514
0.999632 0.997985 0.997371
0.999885 0.999407 0.99523
0.999526 0.996926 0.999408
0.999666 0.997782 0.997297
0.999573 0.996712 0.999429
1.00034 1.00098 0.992731
1.00012 1.00088 0.993218
1.00009 1.00073 0.993446
0.999999 1.00028 0.994155
1.00003 1.00064 0.993658
0.999969 1.00014 0.994347
0.999843 0.999269 0.995467
0.99996 0.999975 0.99452
0.999862 0.999068 0.995617
0.999698 0.997627 0.997383
0.999892 0.998872 0.995742
0.99975 0.997416 0.997469
0.999632 0.996547 0.999439
0.999799 0.997233 0.997537
0.999708 0.996392 0.999458
0.999771 0.996274 0.999471
1.00016 1.00002 0.994173
1.00021 0.99887 0.995149
1.0006 0.998538 0.995059
1.00054 1.00104 0.992304
1.00027 1.00096 0.992975
1.00004 1.00094 0.993396
1.00033 1.00096 0.992778
1.0002 1.0009 0.99314
1.00066 1.00091 0.992047
1.00062 1.00133 0.991855
1.0003 1.00123 0.992542
1.00088 1.00036 0.99223
1.00084 1.00137 0.991293
1.0012 0.999446 0.992608
0.998944 1.00137 0.995016
0.999073 1.00126 0.995154
0.998838 1.00141 0.995262
0.999689 1.00257 0.992499
0.999133 1.00193 0.994378
0.999428 1.00181 0.993848
0.99948 1.00163 0.99388
1.00013 1.00137 0.992776
1.00013 1.00135 0.992877
1.00009 1.00108 0.993204
1.00034 1.00112 0.992657
1.00028 1.00109 0.992769
1.00023 1.00111 0.992859
1.00035 1.00099 0.992729
1.00027 1.00099 0.992889
1.00013 1.00088 0.993278
1.00028 1.00078 0.993081
1.00013 1.00063 0.993523
0.999871 1.00016 0.994492
1.00013 1.00039 0.993755
0.999895 0.999835 0.994773
0.999531 0.998535 0.997276
0.999902 0.999585 0.995012
0.999588 0.998236 0.997419
0.9994 0.997445 0.998401
0.999479 0.997146 0.998943
0.999632 0.998004 0.99757
0.999517 0.996909 0.999398
1.00051 1.00102 0.992331
1.00021 1.00095 0.993135
1.00032 1.00095 0.99282
1.00001 1.0005 0.993902
1.00014 1.00088 0.993232
1.0001 1.00073 0.993416
0.999991 1.00029 0.994155
0.999823 0.999484 0.995294
0.999962 1.00014 0.994348
0.999838 0.999267 0.99547
0.999639 0.997844 0.997288
0.999858 0.999064 0.995619
0.999693 0.997613 0.997387
0.999557 0.996748 0.99942
0.999747 0.997401 0.997472
0.999645 0.996561 0.999444
0.99972 0.996409 0.999462
0.99996 1.0009 0.993666
1.00012 1.00003 0.994185
1.00023 0.998827 0.995035
1.00055 1.00084 0.992276
1.00054 1.00104 0.992294
1.00023 1.00095 0.993066
1.00037 1.00094 0.992819
1.0007 1.00091 0.992065
1.00064 1.00138 0.991815
1.00094 1.00038 0.992175
0.999063 1.00168 0.994616
0.999072 1.00144 0.994847
0.998997 1.00137 0.995107
0.999309 1.00181 0.994063
0.999441 1.0018 0.993816
0.999476 1.00165 0.993876
0.999695 1.00137 0.993718
1.00019 1.00131 0.992792
1.00007 1.00109 0.99321
1.00006 1.00117 0.993155
1.00028 1.0011 0.992765
1.00022 1.00111 0.992867
1.00009 1.00109 0.993151
1.00027 1.00098 0.992892
1.00012 1.00088 0.993283
0.99985 1.00051 0.994189
1.00013 1.00063 0.993526
0.999877 1.00015 0.994494
0.999443 0.998936 0.997075
0.9999 0.999829 0.994774
0.999524 0.998551 0.997247
0.999297 0.997799 0.998287
0.99958 0.998259 0.997394
0.999404 0.997402 0.998414
0.999475 0.99711 0.999372
1.00065 1.00083 0.992294
1.00038 1.001 0.992628
1.00049 1.00103 0.992398
1.00007 1.00066 0.993764
1.00021 1.00095 0.993087
1.00029 1.00092 0.99291
0.999816 0.999752 0.995039
1.00001 1.00051 0.993901
1.00015 1.00089 0.993247
0.999982 1.0003 0.994154
0.999817 0.999485 0.995295
0.99958 0.998088 0.997167
0.999832 0.999265 0.995472
0.999633 0.997831 0.997293
0.999475 0.996975 0.999398
0.999689 0.997598 0.997392
0.999573 0.996759 0.999426
0.999659 0.996575 0.999449
1 1.0011 0.99339
1.00005 1.00086 0.993549
1.00008 1.00005 0.994197
1.00067 1.00081 0.992149
1.00055 1.00104 0.992284
1.00074 1.00091 0.992084
0.999098 1.00216 0.994094
0.999014 1.00178 0.994679
0.999201 1.0015 0.994678
0.999331 1.00185 0.993994
0.999381 1.00179 0.993918
0.999473 1.00167 0.993872
0.999685 1.00137 0.993719
0.999776 1.00136 0.99362
1.00005 1.00111 0.993215
1.00005 1.00118 0.993167
0.999953 1.00125 0.993288
1.00021 1.00111 0.992876
1.00008 1.00109 0.993159
0.999809 1.00084 0.993956
1.00012 1.00088 0.993288
0.999854 1.0005 0.994192
0.999319 0.999418 0.996803
0.999882 1.00014 0.994495
0.999438 0.998945 0.997041
0.999162 0.99824 0.998147
0.999516 0.998568 0.997218
0.999299 0.997752 0.998303
0.999408 0.997358 0.998427
1.00038 1.00043 0.993336
1.00054 1.00092 0.992412
1.00068 1.00082 0.992277
1.0002 1.00082 0.993251
1.00039 1.00099 0.992668
1.00047 1.00104 0.992466
0.999845 1.00001 0.994738
1.00007 1.00068 0.993646
1.00021 1.00096 0.993039
0.999531 0.998373 0.996984
0.999809 0.999753 0.995041
1 1.00053 0.9939
0.999812 0.999485 0.995297
0.999572 0.998075 0.997173
0.999387 0.997232 0.999368
0.999627 0.997817 0.997297
0.999492 0.996984 0.999404
0.999588 0.99677 0.999431
0.999618 1.0021 0.99316
1.00004 1.00105 0.993348
1.00015 1.00082 0.993433
1.00079 1.00079 0.992023
0.999177 1.0023 0.993846
0.999068 1.00219 0.994158
0.998966 1.00188 0.994742
0.999352 1.00189 0.993924
0.999372 1.00181 0.993951
0.9994 1.00169 0.993981
0.999676 1.00137 0.993721
0.999767 1.00137 0.993606
0.999718 1.00145 0.993607
1.00003 1.00118 0.993179
0.99994 1.00125 0.993299
0.999683 1.00112 0.99394
1.00008 1.00108 0.993168
0.999806 1.00083 0.993963
0.99921 0.999983 0.995977
0.999857 1.00049 0.994195
0.999331 0.999449 0.996492
0.998987 0.998578 0.999157
0.999432 0.998955 0.997006
0.999163 0.998191 0.998166
0.999301 0.997702 0.998318
1.00001 1.00128 0.993268
1.00042 1.00056 0.993068
1.00032 1.00047 0.993297
1.00027 1.0009 0.992844
1.00052 1.00088 0.992517
1.00071 1.0008 0.992259
0.999915 1.00029 0.99418
1.0002 1.00082 0.993254
1.00039 1.00099 0.992707
0.9995 0.998694 0.99672
0.99984 1.00003 0.994632
1.00006 1.00071 0.993528
0.999301 0.997525 0.999322
0.999518 0.99836 0.996994
0.999802 0.999755 0.995043
0.999563 0.998062 0.997179
0.999405 0.997237 0.999377
0.999509 0.996992 0.999411
0.999294 1.00256 0.993303
0.999534 1.00204 0.993322
1.00007 1.001 0.993307
0.999125 1.00208 0.994182
0.999184 1.0023 0.993857
0.999038 1.00223 0.994223
0.999365 1.00183 0.993984
0.999404 1.00168 0.99399
0.99932 1.00174 0.994134
0.999757 1.00137 0.993593
0.999706 1.00146 0.993639
0.999442 1.00141 0.994123
0.999928 1.00125 0.99331
0.999676 1.00112 0.99395
0.999048 1.00046 0.995848
0.999804 1.00082 0.993971
0.999224 0.999967 0.995972
0.998856 0.999011 0.99911
0.999341 0.999479 0.996182
0.998973 0.998645 0.998581
0.999163 0.99814 0.998185
0.999701 1.00207 0.993177
1.00006 1.00098 0.993342
0.999978 1.00128 0.993231
1.0002 1.00082 0.993149
1.00036 1.00059 0.993098
1.00026 1.00051 0.993258
0.999966 1.00053 0.993791
1.00028 1.00088 0.992937
1.00051 1.00084 0.992623
0.999477 0.999055 0.996392
0.999919 1.00031 0.994121
1.00021 1.00082 0.993257
0.999215 0.997859 0.999257
0.999484 0.998684 0.996732
0.999836 1.00006 0.994526
0.999317 0.997524 0.999337
0.999505 0.998347 0.997004
0.999422 0.997241 0.999386
0.999267 1.0022 0.993685
0.999317 1.00251 0.993335
0.999451 1.00198 0.993483
0.999071 1.002 0.994382
0.999173 1.00206 0.994124
0.999191 1.0023 0.993869
0.999407 1.00168 0.993999
0.999324 1.00173 0.994137
0.999089 1.00169 0.994552
0.999693 1.00147 0.99367
0.999454 1.0014 0.994129
0.998817 1.00088 0.995927
0.999668 1.00111 0.99396
0.999052 1.00044 0.995852
0.998659 0.999464 0.999065
0.999237 0.99995 0.995967
0.998808 0.999055 0.999094
0.998961 0.998714 0.998005
0.999694 1.00171 0.993441
0.99969 1.00212 0.993071
0.999923 1.00109 0.993492
1.00004 1.00098 0.993365
0.99994 1.00127 0.993194
0.999898 1.00068 0.993893
1.00022 1.00082 0.993135
1.0003 1.00061 0.993128
0.999428 0.999457 0.996068
0.999975 1.00053 0.993823
1.0003 1.00087 0.993031
0.999119 0.998235 0.999178
0.999459 0.999052 0.996405
0.999923 1.00033 0.994061
0.999232 0.997849 0.999277
0.999467 0.998675 0.996745
0.999334 0.997522 0.999351
0.999296 1.00194 0.99401
0.999314 1.00218 0.99367
0.999339 1.00246 0.993367
0.99892 1.00185 0.99476
0.999078 1.00197 0.994392
0.999222 1.00204 0.994065
0.999329 1.00171 0.99414
0.999124 1.00168 0.9945
0.998568 1.00119 0.996149
0.999465 1.0014 0.994136
0.998812 1.00086 0.995938
0.998428 0.999857 0.999066
0.999056 1.00043 0.995856
0.998599 0.999509 0.999062
0.99876 0.9991 0.999078
0.999606 1.00159 0.99371
0.999699 1.00175 0.993385
0.999679 1.00216 0.992964
0.999649 1.001 0.994115
0.999918 1.00109 0.993497
1.00002 1.00097 0.993388
0.999288 0.999877 0.995913
0.999909 1.00069 0.993878
1.00023 1.00082 0.993121
0.998992 0.998652 0.999102
0.999413 0.999464 0.996077
0.999983 1.00054 0.993854
0.99914 0.998216 0.999201
0.999441 0.999049 0.996418
0.999248 0.99784 0.999297
0.999068 1.00174 0.994633
0.99927 1.00196 0.994002
0.999361 1.00215 0.993654
0.998426 1.00131 0.996322
0.998923 1.00185 0.994752
0.999085 1.00194 0.994401
0.999159 1.00167 0.994447
0.99856 1.00118 0.996161
0.998194 1.00014 0.999111
0.998808 1.00085 0.995949
0.998363 0.999896 0.999078
0.99854 0.999555 0.999059
0.999319 1.00143 0.994391
0.999581 1.00161 0.993717
0.999703 1.0018 0.99333
0.999024 1.00021 0.996591
0.999651 1.00101 0.994109
0.999914 1.0011 0.993501
0.998785 0.999092 0.999076
0.999286 0.999893 0.995908
0.99992 1.0007 0.993864
0.999025 0.998624 0.999123
0.999399 0.999471 0.996085
0.999161 0.998197 0.999225
0.998468 1.00119 0.996319
0.99906 1.00175 0.994606
0.999245 1.00197 0.993993
0.998045 1.00026 0.99916
0.998424 1.00131 0.996324
0.998926 1.00184 0.994744
0.998552 1.00117 0.996173
0.998146 1.00016 0.999128
0.998298 0.999935 0.99909
0.998696 1.00067 0.99674
0.999319 1.00143 0.994389
0.999556 1.00163 0.993724
0.998575 0.999484 0.99909
0.999053 1.00036 0.995958
0.999653 1.00102 0.994103
0.998845 0.999055 0.99908
0.999284 0.999909 0.995903
0.999057 0.998594 0.999145
0.998068 1.00056 0.998014
0.998503 1.00109 0.996572
0.999052 1.00176 0.99458
0.99804 1.00026 0.999165
0.998423 1.00131 0.996326
0.998096 1.00019 0.999145
0.998309 1.00018 0.997906
0.998753 1.00076 0.996412
0.999319 1.00144 0.994387
0.99859 0.999635 0.998472
0.999035 1.00039 0.995955
0.998905 0.999018 0.999083
0.998075 1.00018 0.999164
0.998506 1.0012 0.996275
0.998034 1.00026 0.99917
0.998275 1.0001 0.998531
0.998739 1.00086 0.996114
0.998663 0.99945 0.99908
0.99815 1.00014 0.999148
0.998383 0.999848 0.999111

TENSORS stress float
0.00119482 1.84389e-05 6.7631e-06
1.84389e-05 0.000123888 -3.26955e-06
6.7631e-06 -3.26955e-06 0.000130423
0.00222095 -1.7138e-05 4.00013e-06
-1.7138e-05 0.000600976 2.26085e-06
4.00013e-06 2.26085e-06 0.000618489
0.00116323 1.86719e-05 2.44697e-06
1.86719e-05 0.000107986 -1.38422e-06
2.44697e-06 -1.38422e-06 0.000114957
0.00120499 1.81932e-05 8.56021e-06
1.81932e-05 0.000178808 -2.62781e-06
8.56021e-06 -2.62781e-06 0.000173328
0.00120354 1.89322e-05 7.30864e-06
1.89322e-05 0.000141873 -3.06919e-06
7.30864e-06 -3.06919e-06 0.000144932
0.00118203 1.76296e-05 6.23793e-06
1.76296e-05 0.000107105 -3.45215e-06
6.23793e-06 -3.45215e-06 0.000116562
0.00116679 1.37257e-05 2.95372e-06
1.37257e-05 9.72745e-05 -1.15701e-06
2.95372e-06 -1.15701e-06 8.91792e-05
0.00229886 -1.70582e-05 5.17829e-08
-1.70582e-05 0.000637506 -6.63994e-08
5.17829e-08 -6.63994e-08 0.000654916
0.0025382 -1.96189e-05 2.13239e-06
-1.96189e-05 0.000780456 7.09641e-07
2.13239e-06 7.09641e-07 0.000790925
0.00234149 -1.83244e-05 1.80273e-06
-1.83244e-05 0.000664827 7.8994e-07
1.80273e-06 7.8994e-07 0.000680641
0.00107215 -1.5795e-05 3.67294e-06
-1.5795e-05 4.09155e-05 2.14917e-06
3.67294e-06 2.14917e-06 5.54739e-05
0.000943976 -1.24298e-05 3.05874e-06
-1.24298e-05 -2.05834e-05 1.41652e-06
3.05874e-06 1.41652e-06 -2.28651e-05
0.000912491 -9.87797e-06 6.08234e-06
-9.87797e-06 0.000114998 4.01752e-07
6.08234e-06 4.01752e-07 9.83841e-05
0.00107821 -1.73047e-05 2.42564e-06
-1.73047e-05 0.000140729 2.70971e-07
2.42564e-06 2.70971e-07 0.000131645
0.00112969 1.89036e-05 -1.87765e-06
1.89036e-05 9.11593e-05 4.96602e-07
-1.87765e-06 4.96602e-07 9.85719e-05
0.00115966 1.84482e-05 3.14317e-06
1.84482e-05 0.000157023 -1.11063e-06
3.14317e-06 -1.11063e-06 0.000151995
0.0011553 1.78529e-05 2.24929e-06
1.78529e-05 9.3354e-05 -1.44386e-06
2.24929e-06 -1.44386e-06 0.00010323
0.00116624 1.9176e-05 2.65925e-06
1.9176e-05 0.00012341 -1.30434e-06
2.65925e-06 -1.30434e-06 0.000126922
0.00116958 1.35907e-05 -5.02666e-07
1.35907e-05 9.94429e-05 1.82883e-07
-5.02666e-07 1.82883e-07 9.13231e-05
0.00246176 1.19916e-05 6.52899e-06
1.19916e-05 0.000847989 -7.8213e-07
6.52899e-06 -7.8213e-07 0.000842599
0.0012092 1.66858e-05 9.29731e-06
1.66858e-05 0.00020114 -2.21595e-06
9.29731e-06 -2.21595e-06 0.000191079
0.00120628 1.89118e-05 7.89937e-06
1.89118e-05 0.000160112 -2.85971e-06
7.89937e-06 -2.85971e-06 0.000159127
0.00117192 1.33203e-05 3.20164e-06
1.33203e-05 0.000135703 -8.6726e-07
3.20164e-06 -8.6726e-07 0.000114975
0.00117323 1.39824e-05 3.05614e-06
1.39824e-05 0.000110332 -1.03242e-06
3.05614e-06 -1.03242e-06 9.85096e-05
0.00117419 1.66448e-05 5.76883e-06
1.66448e-05 9.48003e-05 -3.60794e-06
5.76883e-06 -3.60794e-06 0.000106665
0.00115397 1.32635e-05 2.81514e-06
1.32635e-05 8.37163e-05 -1.28439e-06
2.81514e-06 -1.28439e-06 7.88504e-05
0.00140174 6.27813e-06 1.28907e-06
6.27813e-06 0.000191314 -8.67745e-08
1.28907e-06 -8.67745e-08 0.000160933
0.00237729 -1.69796e-05 -3.77574e-06
-1.69796e-05 0.000674263 -2.25934e-06
-3.77574e-06 -2.25934e-06 0.000691572
0.00185291 -1.92771e-05 -1.45684e-06
-1.92771e-05 0.000451701 -7.95082e-07
-1.45684e-06 -7.95082e-07 0.000458345
0.00174161 -1.80229e-05 -1.2007e-06
-1.80229e-05 0.000376808 -8.3477e-07
-1.2007e-06 -8.3477e-07 0.000389654
0.00220333 -1.60444e-05 5.02197e-08
-1.60444e-05 0.000585099 -5.2097e-08
5.02197e-08 -5.2097e-08 0.000604199
0.000906655 -1.25389e-05 8.42481e-08
-1.25389e-05 -3.81557e-05 -1.95789e-08
8.42481e-08 -1.95789e-08 -4.02366e-05
0.00104377 -1.87336e-05 5.47861e-06
-1.87336e-05 8.22682e-05 1.5338e-06
5.47861e-06 1.5338e-06 8.13062e-05
0.00107758 -1.84874e-05 4.66175e-06
-1.84874e-05 6.90677e-05 1.84718e-06
4.66175e-06 1.84718e-06 7.6221e-05
0.00158195 -1.35221e-05 3.8048e-06
-1.35221e-05 0.000302933 1.16154e-06
3.8048e-06 1.16154e-06 0.00029305
0.00217375 -1.50647e-05 1.49974e-06
-1.50647e-05 0.000562733 9.4975e-07
1.49974e-06 9.4975e-07 0.000583407
0.00154628 -1.29983e-05 3.40026e-06
-1.29983e-05 0.000274009 1.37599e-06
3.40026e-06 1.37599e-06 0.000271623
0.000926823 -1.18586e-05 3.71276e-06
-1.18586e-05 -3.25037e-05 2.37094e-06
3.71276e-06 2.37094e-06 -3.26571e-05
0.00102094 -5.92069e-06 1.97004e-06
-5.92069e-06 7.68653e-06 8.04735e-07
1.97004e-06 8.04735e-07 -1.79544e-05
0.00214085 -1.25149e-05 3.11913e-06
-1.25149e-05 0.000537066 2.76413e-06
3.11913e-06 2.76413e-06 0.000559361
0.00232724 -1.1211e-05 4.51918e-08
-1.1211e-05 0.000790136 -1.3014e-07
4.51918e-08 -1.3014e-07 0.000784711
0.00179892 -1.69485e-05 -1.7684e-06
-1.69485e-05 0.000490149 -5.5409e-07
-1.7684e-06 -5.5409e-07 0.000485269
0.00216645 -6.83931e-06 5.60458e-06
-6.83931e-06 0.000732184 2.04489e-07
5.60458e-06 2.04489e-07 0.000725313
0.00104209 -1.47424e-05 2.51386e-06
-1.47424e-05 0.000148816 2.20031e-07
2.51386e-06 2.20031e-07 0.000135553
0.000631065 -8.25155e-06 5.70353e-06
-8.25155e-06 -6.20474e-05 2.55998e-07
5.70353e-06 2.55998e-07 -9.58756e-05
0.00259923 -1.91161e-05 2.44064e-06
-1.91161e-05 0.000846538 5.52979e-07
2.44064e-06 5.52979e-07 0.000850428
0.00138586 -1.23896e-05 5.75071e-06
-1.23896e-05 0.000257056 1.14051e-06
5.75071e-06 1.14051e-06 0.000234774
0.00111212 1.87136e-05 -2.30427e-06
1.87136e-05 0.000134159 3.65942e-07
-2.30427e-06 3.65942e-07 0.000129594
0.00112625 1.94199e-05 -2.0083e-06
1.94199e-05 0.000103649 4.39122e-07
-2.0083e-06 4.39122e-07 0.000107627
0.00112762 1.80756e-05 -1.75032e-06
1.80756e-05 7.91611e-05 5.54044e-07
-1.75032e-06 5.54044e-07 8.94582e-05
0.00117305 1.34555e-05 -3.9592e-06
1.34555e-05 0.00010194 1.52555e-06
-3.9592e-06 1.52555e-06 9.37923e-05
0.00169156 1.11292e-05 -2.36317e-07
1.11292e-05 0.00048152 -1.09419e-07
-2.36317e-07 -1.09419e-07 0.000470461
0.00115489 1.69204e-05 3.41416e-06
1.69204e-05 0.000175485 -9.84223e-07
3.41416e-06 -9.84223e-07 0.000165804
0.00114882 1.6856e-05 2.0758e-06
1.6856e-05 8.15441e-05 -1.49039e-06
2.0758e-06 -1.49039e-06 9.38101e-05
0.00116431 1.91631e-05 2.88883e-06
1.91631e-05 0.000139655 -1.2143e-06
2.88883e-06 -1.2143e-06 0.000139131
0.00116879 1.31972e-05 -8.01911e-07
1.31972e-05 0.000134457 1.72456e-07
-8.01911e-07 1.72456e-07 0.000113826
0.00116112 1.31441e-05 -4.38822e-07
1.31441e-05 8.80387e-05 1.78641e-07
-4.38822e-07 1.78641e-07 8.31158e-05
0.00117262 1.38433e-05 -5.8274e-07
1.38433e-05 0.000110688 1.8643e-07
-5.8274e-07 1.8643e-07 9.88868e-05
0.00136613 6.19809e-06 -7.33917e-07
6.19809e-06 0.000174121 4.92625e-07
-7.33917e-07 4.92625e-07 0.000143435
0.00238956 9.18741e-06 6.44617e-06
9.18741e-06 0.000828204 -3.88757e-07
6.44617e-06 -3.88757e-07 0.000821456
0.00120039 1.4306e-05 9.80301e-06
1.4306e-05 0.000219575 -1.63059e-06
9.80301e-06 -1.63059e-06 0.000205558
0.00133657 8.25459e-06 2.45772e-06
8.25459e-06 0.000271027 -5.65805e-08
2.45772e-06 -5.65805e-08 0.000242138
0.00117605 1.23194e-05 3.30149e-06
1.23194e-05 0.000151413 -6.57603e-07
3.30149e-06 -6.57603e-07 0.000126092
0.00117358 1.3886e-05 3.12933e-06
1.3886e-05 0.000122809 -9.39391e-07
3.12933e-06 -9.39391e-07 0.000106738
0.00133323 6.09331e-06 1.00696e-06
6.09331e-06 0.000172327 -2.2904e-08
1.00696e-06 -2.2904e-08 0.000129628
0.00123116 6.2889e-06 1.59328e-06
6.2889e-06 0.000112498 -3.12086e-07
1.59328e-06 -3.12086e-07 7.71737e-05
0.00124617 1.54451e-05 5.38333e-06
1.54451e-05 0.000121279 -3.73676e-06
5.38333e-06 -3.73676e-06 0.000134887
0.00116625 1.27242e-05 2.6419e-06
1.27242e-05 8.33529e-05 -1.36944e-06
2.6419e-06 -1.36944e-06 8.14595e-05
0.00139425 6.14747e-06 1.29861e-06
6.14747e-06 0.000186055 -1.81899e-07
1.29861e-06 -1.81899e-07 0.000158912
0.001095 1.52148e-06 9.75201e-07
1.52148e-06 2.90424e-05 -2.62489e-07
9.75201e-07 -2.62489e-07 -1.73312e-05
0.00265752 -1.93534e-05 -4.72727e-06
-1.93534e-05 0.000836435 -1.93554e-06
-4.72727e-06 -1.93554e-06 0.000846826
0.00231148 -1.59087e-05 -3.54994e-06
-1.59087e-05 0.000635988 -2.37571e-06
-3.54994e-06 -2.37571e-06 0.000654864
0.00245754 -1.79693e-05 -4.05288e-06
-1.79693e-05 0.000720427 -2.14188e-06
-4.05288e-06 -2.14188e-06 0.000735861
0.000869496 -1.26479e-05 -2.94473e-06
-1.26479e-05 -5.56473e-05 -1.50962e-06
-2.94473e-06 -1.50962e-06 -5.75284e-05
0.00257513 -1.92062e-05 6.28469e-08
-1.92062e-05 0.000816421 -9.51152e-08
6.28469e-08 -9.51152e-08 0.000823348
0.00241377 -1.88248e-05 5.16885e-08
-1.88248e-05 0.000711094 -6.41289e-08
5.16885e-08 -6.41289e-08 0.000724156
0.00089529 -1.35473e-05 1.03152e-07
-1.35473e-05 -2.69445e-05 -4.81548e-08
1.03152e-07 -4.81548e-08 -4.01877e-05
0.00165378 -1.48138e-05 -9.60463e-07
-1.48138e-05 0.000313 -9.07174e-07
-9.60463e-07 -9.07174e-07 0.000331213
0.000927567 -1.30022e-05 4.68537e-08
-1.30022e-05 -2.34466e-05 -7.5418e-09
4.68537e-08 -7.5418e-09 -2.83061e-05
0.00120531 -1.19828e-05 5.66191e-07
-1.19828e-05 0.000101065 4.37048e-07
5.66191e-07 4.37048e-07 0.000102296
0.00100682 -5.94034e-06 5.29044e-08
-5.94034e-06 1.21051e-06 -3.57331e-08
5.29044e-08 -3.57331e-08 -2.44029e-05
0.00213254 -1.37338e-05 3.29896e-06
-1.37338e-05 0.000538643 2.60538e-06
3.29896e-06 2.60538e-06 0.000560148
0.000971576 -9.50107e-06 2.38891e-06
-9.50107e-06 -2.71221e-05 1.89015e-06
2.38891e-06 1.89015e-06 -2.36949e-05
0.000765872 -1.33781e-05 5.23054e-06
-1.33781e-05 -7.76196e-05 1.65231e-06
5.23054e-06 1.65231e-06 -9.62332e-05
0.000853989 -1.31233e-05 4.53798e-06
-1.31233e-05 -5.22784e-05 2.08894e-06
4.53798e-06 2.08894e-06 -6.1585e-05
0.00101093 -5.56089e-06 1.8837e-06
-5.56089e-06 1.61466e-06 5.08361e-07
1.8837e-06 5.08361e-07 -3.61428e-05
0.00149903 -1.12853e-05 2.87548e-06
-1.12853e-05 0.000236388 1.67625e-06
2.87548e-06 1.67625e-06 0.000240361
0.00102318 -5.70775e-06 1.95038e-06
-5.70775e-06 8.9071e-06 8.22119e-07
1.95038e-06 8.22119e-07 -2.00419e-05
0.00102801 -6.01652e-06 1.86499e-06
-6.01652e-06 9.79931e-06 9.39795e-07
1.86499e-06 9.39795e-07 -1.32443e-05
0.00108534 -1.60396e-06 1.13951e-06
-1.60396e-06 3.16323e-05 4.31959e-07
1.13951e-06 4.31959e-07 -8.26647e-06
0.00214243 -1.133e-05 2.90405e-06
-1.133e-05 0.000532891 2.89529e-06
2.90405e-06 2.89529e-06 0.000555938
0.00219681 -1.24433e-05 6.62315e-08
-1.24433e-05 0.000563458 -4.62575e-08
6.62315e-08 -4.62575e-08 0.000585574
0.00270724 -1.78786e-05 -5.86949e-06
-1.78786e-05 0.000916937 -1.34944e-06
-5.86949e-06 -1.34944e-06 0.000917655
0.00249819 -1.27337e-05 -6.3163e-06
-1.27337e-05 0.000863723 -7.45123e-07
-6.3163e-06 -7.45123e-07 0.000858687
0.00224079 -7.78733e-06 4.83225e-08
-7.78733e-06 0.000764127 -1.00286e-07
4.83225e-08 -1.00286e-07 0.000757359
0.00175234 -1.4366e-05 -1.84739e-06
-1.4366e-05 0.00049236 -4.53468e-07
-1.84739e-06 -4.53468e-07 0.000483884
0.00104333 -8.60003e-06 9.427e-07
-8.60003e-06 0.00013308 -1.95316e-08
9.427e-07 -1.95316e-08 0.000102096
0.00190582 -1.87105e-05 -1.68574e-06
-1.87105e-05 0.000513697 -6.68363e-07
-1.68574e-06 -6.68363e-07 0.000512831
0.00117351 -1.26701e-05 9.22848e-07
-1.26701e-05 0.000152124 2.06799e-07
9.22848e-07 2.06799e-07 0.000127547
0.00221179 1.19884e-06 6.07609e-06
1.19884e-06 0.000755706 -5.78677e-08
6.07609e-06 -5.78677e-08 0.000748378
0.000655664 -5.86309e-06 3.77411e-06
-5.86309e-06 -3.27079e-05 -7.76553e-08
3.77411e-06 -7.76553e-08 -6.73971e-05
0.00133658 -1.07862e-05 5.90094e-06
-1.07862e-05 0.000253943 8.46873e-07
5.90094e-06 8.46873e-07 0.000228047
0.000928474 -5.7734e-06 1.39561e-06
-5.7734e-06 2.18388e-05 -5.01813e-07
1.39561e-06 -5.01813e-07 -2.93714e-05
0.00151712 -1.3534e-05 4.08867e-06
-1.3534e-05 0.00029743 7.08412e-07
4.08867e-06 7.08412e-07 0.000279432
0.00098262 -6.34398e-06 1.5401e-06
-6.34398e-06 1.30567e-05 1.01915e-07
1.5401e-06 1.01915e-07 -3.43999e-05
0.000936152 1.00866e-05 -6.301e-06
1.00866e-05 0.000122039 4.26739e-07
-6.301e-06 4.26739e-07 0.000105268
0.0010994 1.71724e-05 -2.47802e-06
1.71724e-05 0.000149244 3.32271e-07
-2.47802e-06 3.32271e-07 0.00013995
0.00112323 1.70672e-05 -1.63598e-06
1.70672e-05 6.81878e-05 6.06402e-07
-1.63598e-06 6.06402e-07 8.08564e-05
0.00111984 1.94191e-05 -2.14729e-06
1.94191e-05 0.000117984 3.95295e-07
-2.14729e-06 3.95295e-07 0.000117932
0.00116733 1.30687e-05 -4.8134e-06
1.30687e-05 0.000134016 1.19769e-06
-4.8134e-06 1.19769e-06 0.000113473
0.00117338 1.37039e-05 -4.22651e-06
1.37039e-05 0.000111702 1.3988e-06
-4.22651e-06 1.3988e-06 9.99155e-05
0.00116843 1.30242e-05 -3.69023e-06
1.30242e-05 9.24429e-05 1.64495e-06
-3.69023e-06 1.64495e-06 8.74612e-05
0.0013312 6.12057e-06 -2.66707e-06
6.12057e-06 0.000157238 1.06099e-06
-2.66707e-06 1.06099e-06 0.000126249
0.00230421 8.08722e-06 -5.7099e-08
8.08722e-06 0.000791343 -1.17657e-07
-5.7099e-08 -1.17657e-07 0.000784517
0.00113379 1.45357e-05 3.61247e-06
1.45357e-05 0.000188219 -7.51297e-07
3.61247e-06 -7.51297e-07 0.00017448
0.000851201 8.06165e-06 -1.83884e-06
8.06165e-06 3.77396e-05 1.67584e-07
-1.83884e-06 1.67584e-07 4.9185e-06
0.00116631 1.21734e-05 -9.32715e-07
1.21734e-05 0.000147042 1.52202e-07
-9.32715e-07 1.52202e-07 0.000121785
0.00175097 1.57958e-05 2.09195e-06
1.57958e-05 0.000363518 -1.60447e-06
2.09195e-06 -1.60447e-06 0.000379988
0.00134255 1.26559e-05 -3.65383e-07
1.26559e-05 0.000169053 2.12958e-07
-3.65383e-07 2.12958e-07 0.000168025
0.00117154 1.37529e-05 -6.82714e-07
1.37529e-05 0.000122285 1.84421e-07
-6.82714e-07 1.84421e-07 0.000106276
0.00123244 5.97732e-06 -7.70827e-07
5.97732e-06 0.000123488 3.61013e-07
-7.70827e-07 3.61013e-07 8.00163e-05
0.00137006 6.06304e-06 -7.01162e-07
6.06304e-06 0.000174234 5.2557e-07
-7.01162e-07 5.2557e-07 0.000146784
0.00129647 6.32357e-06 -3.66845e-07
6.32357e-06 0.000143874 1.73527e-07
-3.66845e-07 1.73527e-07 0.000109088
0.00109169 1.51027e-06 2.37264e-08
1.51027e-06 2.73808e-05 -2.78036e-08
2.37264e-08 -2.78036e-08 -1.89179e-05
0.000690708 5.0166e-06 4.02943e-06
5.0166e-06 -2.13591e-05 4.04079e-08
4.02943e-06 4.04079e-08 -5.67854e-05
0.00116376 1.08317e-05 3.29436e-06
1.08317e-05 0.000163371 -3.49235e-07
3.29436e-06 -3.49235e-07 0.000134476
0.0010773 5.16603e-06 1.06239e-06
5.16603e-06 8.67094e-05 3.71343e-07
1.06239e-06 3.71343e-07 3.59159e-05
0.00124737 5.91796e-06 1.30378e-06
5.91796e-06 0.000134505 -7.45681e-08
1.30378e-06 -7.45681e-08 8.71395e-05
0.00118717 6.17967e-06 1.44231e-06
6.17967e-06 9.66455e-05 -2.66348e-07
1.44231e-06 -2.66348e-07 5.70208e-05
0.00120936 3.13152e-06 2.03255e-07
3.13152e-06 9.0173e-05 2.76226e-08
2.03255e-07 2.76226e-08 3.55594e-05
0.00232626 1.47057e-05 3.42166e-06
1.47057e-05 0.000633837 -2.54839e-06
3.42166e-06 -2.54839e-06 0.000653891
0.00113987 2.3985e-06 8.2947e-07
2.3985e-06 5.07512e-05 -1.83588e-07
8.2947e-07 -1.83588e-07 2.02713e-06
0.00095227 1.18945e-05 2.7727e-06
1.18945e-05 -2.47725e-05 -1.55419e-06
2.7727e-06 -1.55419e-06 -2.50477e-05
0.0010339 5.95854e-06 1.85978e-06
5.95854e-06 1.12046e-05 -8.44487e-07
1.85978e-06 -8.44487e-07 -1.50658e-05
0.00107093 7.99746e-07 1.03102e-06
7.99746e-07 1.87543e-05 -4.13135e-07
1.03102e-06 -4.13135e-07 -2.55265e-05
0.00115727 -1.76979e-06 3.51674e-07
-1.76979e-06 4.65497e-05 6.51733e-08
3.51674e-07 6.51733e-08 -5.97578e-06
0.000929561 1.02367e-05 2.47116e-06
1.02367e-05 -4.50425e-05 -1.81433e-06
2.47116e-06 -1.81433e-06 -4.27149e-05
0.00102387 4.75787e-06 1.53253e-06
4.75787e-06 -4.31173e-06 -1.09287e-06
1.53253e-06 -1.09287e-06 -2.4517e-05
0.00274707 -1.95025e-05 -5.19218e-06
-1.95025e-05 0.000893386 -1.80296e-06
-5.19218e-06 -1.80296e-06 0.000900676
0.00254834 -1.88053e-05 -4.33854e-06
-1.88053e-05 0.000773234 -2.03032e-06
-4.33854e-06 -2.03032e-06 0.000786384
0.000812802 -1.3569e-05 -3.5862e-06
-1.3569e-05 -6.44792e-05 -1.32413e-06
-3.5862e-06 -1.32413e-06 -7.77628e-05
0.00227847 -1.47499e-05 -3.39115e-06
-1.47499e-05 0.000613568 -2.52243e-06
-3.39115e-06 -2.52243e-06 0.000633681
0.000888979 -1.20586e-05 -2.75812e-06
-1.20586e-05 -5.12238e-05 -1.58026e-06
-2.75812e-06 -1.58026e-06 -5.0872e-05
0.000848106 -1.31309e-05 -3.15983e-06
-1.31309e-05 -6.05276e-05 -1.3859e-06
-3.15983e-06 -1.3859e-06 -6.5269e-05
0.000992703 -5.95905e-06 -1.9202e-06
-5.95905e-06 -5.26803e-06 -9.11228e-07
-1.9202e-06 -9.11228e-07 -3.08541e-05
0.00219924 -1.36414e-05 6.21982e-08
-1.36414e-05 0.000570064 -5.07172e-08
6.21982e-08 -5.07172e-08 0.000591356
0.000954985 -9.53738e-06 6.35927e-08
-9.53738e-06 -3.51406e-05 -3.00666e-08
6.35927e-08 -3.00666e-08 -3.16178e-05
0.00119827 -1.35745e-05 9.08502e-07
-1.35745e-05 0.000129585 2.90772e-07
9.08502e-07 2.90772e-07 0.000113329
0.00120266 -1.33334e-05 7.48739e-07
-1.33334e-05 0.000115446 4.18192e-07
7.48739e-07 4.18192e-07 0.000108044
0.00100752 -5.497e-06 3.24108e-08
-5.497e-06 2.78315e-07 -8.46268e-08
3.24108e-08 -8.46268e-08 -3.75507e-05
0.000958971 -1.12186e-05 2.86049e-08
-1.12186e-05 -2.36924e-05 -2.11737e-08
2.86049e-08 -2.11737e-08 -2.18665e-05
0.0010038 -5.73026e-06 1.05906e-08
-5.73026e-06 2.19965e-07 2.86543e-08
1.05906e-08 2.86543e-08 -2.87016e-05
0.00101264 -6.03779e-06 3.59789e-08
-6.03779e-06 2.70931e-06 2.83379e-09
3.59789e-08 2.83379e-09 -2.02909e-05
0.00102398 -1.66315e-06 7.24061e-09
-1.66315e-06 2.46056e-06 -3.87364e-08
7.24061e-09 -3.87364e-08 -3.80588e-05
0.000964963 -1.03489e-05 2.58065e-06
-1.03489e-05 -2.59459e-05 1.72661e-06
2.58065e-06 1.72661e-06 -2.32106e-05
0.000978092 -8.68025e-06 2.17137e-06
-8.68025e-06 -2.79277e-05 2.03568e-06
2.17137e-06 2.03568e-06 -2.37629e-05
0.0010389 -5.18849e-06 1.62179e-06
-5.18849e-06 4.24099e-06 1.04221e-06
1.62179e-06 1.04221e-06 -1.49613e-05
0.00100251 -5.88295e-06 1.79907e-06
-5.88295e-06 -7.72995e-07 1.73554e-07
1.79907e-06 1.73554e-07 -4.21343e-05
0.00102107 -5.53993e-06 1.92222e-06
-5.53993e-06 7.77825e-06 7.54831e-07
1.92222e-06 7.54831e-07 -2.55353e-05
0.00109006 -6.48454e-07 8.29234e-07
-6.48454e-07 1.96647e-05 1.71299e-07
8.29234e-07 1.71299e-07 -3.01584e-05
0.00103585 -5.84364e-06 1.80723e-06
-5.84364e-06 9.23321e-06 9.58007e-07
1.80723e-06 9.58007e-07 -1.16706e-05
0.000983711 -2.82618e-07 1.02089e-06
-2.82618e-07 -2.1014e-05 4.7734e-07
1.02089e-06 4.7734e-07 -6.48308e-05
0.00107734 -2.30633e-06 1.12697e-06
-2.30633e-06 2.94305e-05 5.68749e-07
1.12697e-06 5.68749e-07 -8.72663e-06
0.0012266 2.42114e-06 2.84712e-07
2.42114e-06 9.45525e-05 -1.59982e-07
2.84712e-07 -1.59982e-07 4.74965e-05
0.00213966 -1.01635e-05 2.66436e-06
-1.01635e-05 0.000527012 2.99667e-06
2.66436e-06 2.99667e-06 0.000550792
0.00218858 -1.1277e-05 6.78495e-08
-1.1277e-05 0.000554639 -4.07079e-08
6.78495e-08 -4.07079e-08 0.000577549
0.00225312 -1.23726e-05 -3.00589e-06
-1.23726e-05 0.000590007 -2.81479e-06
-3.00589e-06 -2.81479e-06 0.000611946
0.000941091 9.37919e-06 2.2793e-06
9.37919e-06 -4.32489e-05 -1.9645e-06
2.2793e-06 -1.9645e-06 -4.02104e-05
0.00230446 1.34928e-05 3.23892e-06
1.34928e-05 0.000617897 -2.69844e-06
3.23892e-06 -2.69844e-06 0.000638922
0.00276314 -1.90852e-05 -5.59144e-06
-1.90852e-05 0.000920263 -1.5982e-06
-5.59144e-06 -1.5982e-06 0.000924289
0.00262145 -1.57562e-05 -6.11001e-06
-1.57562e-05 0.000899993 -1.07835e-06
-6.11001e-06 -1.07835e-06 0.000897555
0.000748109 -1.22044e-05 -4.01054e-06
-1.22044e-05 -4.91923e-05 -7.13533e-07
-4.01054e-06 -7.13533e-07 -7.63887e-05
0.000705762 -8.06664e-06 -4.06286e-06
-8.06664e-06 -2.81212e-05 -2.79579e-07
-4.06286e-06 -2.79579e-07 -6.20257e-05
0.00231137 -8.87498e-06 -6.25278e-06
-8.87498e-06 0.000794423 -3.76056e-07
-6.25278e-06 -3.76056e-07 0.000787752
0.00219774 1.72903e-07 4.71457e-08
1.72903e-07 0.000749572 -9.59793e-08
4.71457e-08 -9.59793e-08 0.000742272
0.000668261 -5.39829e-06 -5.75212e-08
-5.39829e-06 -2.67967e-05 -2.087e-08
-5.75212e-08 -2.087e-08 -6.15963e-05
0.00112234 -1.11086e-05 9.81682e-07
-1.11086e-05 0.000148295 8.89878e-08
9.81682e-07 8.89878e-08 0.000119877
0.000935935 -5.65355e-06 -3.55584e-08
-5.65355e-06 2.51768e-05 -1.55947e-07
-3.55584e-08 -1.55947e-07 -2.61062e-05
0.000837799 -1.3486e-05 6.92167e-08
-1.3486e-05 -2.94846e-05 -8.79617e-08
6.92167e-08 -8.79617e-08 -5.20185e-05
0.000981789 -6.24704e-06 -2.15894e-08
-6.24704e-06 1.30039e-05 -1.67626e-08
-2.15894e-08 -1.67626e-08 -3.45203e-05
0.000665557 -3.494e-07 3.79969e-06
-3.494e-07 -2.19215e-05 1.15602e-07
3.79969e-06 1.15602e-07 -5.71681e-05
0.000897803 -4.59612e-06 1.19256e-06
-4.59612e-06 2.79432e-05 -2.94298e-07
1.19256e-06 -2.94298e-07 -2.29294e-05
0.000957668 -6.08053e-06 1.48535e-06
-6.08053e-06 1.70832e-05 -1.14857e-07
1.48535e-06 -1.14857e-07 -3.31046e-05
0.00103028 -5.55354e-06 2.70134e-07
-5.55354e-06 4.64204e-05 -6.4847e-07
2.70134e-07 -6.4847e-07 -1.06034e-05
0.00099552 -6.30226e-06 1.66022e-06
-6.30226e-06 4.72146e-06 5.62878e-08
1.66022e-06 5.62878e-08 -3.96255e-05
0.00108462 -4.63415e-06 2.79449e-07
-4.63415e-06 3.87656e-05 -2.6097e-08
2.79449e-07 -2.6097e-08 -1.61615e-05
0.002218 7.14647e-06 -5.79508e-06
7.14647e-06 0.000754142 1.78278e-07
-5.79508e-06 1.78278e-07 0.000747233
0.00106641 1.47821e-05 -2.59776e-06
1.47821e-05 0.00015649 2.42847e-07
-2.59776e-06 2.42847e-07 0.000143031
0.000358095 7.95434e-06 -5.87621e-06
7.95434e-06 -0.00019922 3.30892e-07
-5.87621e-06 3.30892e-07 -0.000235949
0.00115794 1.20194e-05 -5.15839e-06
1.20194e-05 0.000143332 1.05563e-06
-5.15839e-06 1.05563e-06 0.000118131
0.00225173 1.62259e-05 -1.59809e-06
1.62259e-05 0.000603954 9.00163e-07
-1.59809e-06 9.00163e-07 0.000623282
0.00151877 1.25946e-05 -3.47532e-06
1.25946e-05 0.000254713 1.72587e-06
-3.47532e-06 1.72587e-06 0.000254551
0.00117111 1.36177e-05 -4.50392e-06
1.36177e-05 0.000122529 1.29049e-06
-4.50392e-06 1.29049e-06 0.000106575
0.0011305 5.85997e-06 -2.4746e-06
5.85997e-06 7.41308e-05 8.19692e-07
-2.4746e-06 8.19692e-07 2.98856e-05
0.0013603 6.35972e-06 -2.29845e-06
6.35972e-06 0.000174575 6.29152e-07
-2.29845e-06 6.29152e-07 0.000140329
0.00134708 5.97954e-06 -2.63597e-06
5.97954e-06 0.000162965 1.2236e-06
-2.63597e-06 1.2236e-06 0.000135208
0.00108793 1.45958e-06 -9.05621e-07
1.45958e-06 2.55099e-05 1.95313e-07
-9.05621e-07 1.95313e-07 -2.07138e-05
0.000673394 5.46604e-06 7.23677e-08
5.46604e-06 -2.92587e-05 -9.91696e-08
7.23677e-08 -9.91696e-08 -6.45659e-05
0.00114575 1.06985e-05 -1.04181e-06
1.06985e-05 0.000154731 1.67817e-07
-1.04181e-06 1.67817e-07 0.000125878
0.000961565 5.15465e-06 -4.12695e-07
5.15465e-06 2.9325e-05 1.05965e-07
-4.12695e-07 1.05965e-07 -2.27804e-05
0.00128323 5.89191e-06 -4.57969e-07
5.89191e-06 0.000152068 1.27372e-07
-4.57969e-07 1.27372e-07 0.000105008
0.00225556 1.47991e-05 -5.67805e-08
1.47991e-05 0.000600548 -5.18918e-08
-5.67805e-08 -5.18918e-08 0.000620787
0.00123805 1.19106e-05 -2.8508e-08
1.19106e-05 0.000112921 -8.04129e-08
-2.8508e-08 -8.04129e-08 0.0001137
0.00120686 5.96067e-06 -1.12594e-08
5.96067e-06 9.41054e-05 -4.01693e-09
-1.12594e-08 -4.01693e-09 6.87164e-05
0.00118591 6.19785e-06 -3.96879e-07
6.19785e-06 9.58792e-05 1.62253e-07
-3.96879e-07 1.62253e-07 5.6261e-05
0.00109847 2.98775e-06 -3.42486e-07
2.98775e-06 3.67167e-05 2.0443e-07
-3.42486e-07 2.0443e-07 -1.87648e-05
0.00101778 9.02132e-07 1.05083e-09
9.02132e-07 -6.55709e-06 -5.47465e-08
1.05083e-09 -5.47465e-08 -5.10692e-05
0.00120253 2.37743e-06 1.33478e-08
2.37743e-06 8.08478e-05 -2.09029e-08
1.33478e-08 -2.09029e-08 3.27225e-05
0.00114887 -1.62704e-06 4.93187e-08
-1.62704e-06 4.25926e-05 -3.31448e-09
4.93187e-08 -3.31448e-09 -9.86112e-06
0.000947839 1.01917e-05 -5.17787e-08
1.01917e-05 -3.62315e-05 -2.90058e-08
-5.17787e-08 -2.90058e-08 -3.4011e-05
0.0010308 4.75146e-06 -4.74648e-08
4.75146e-06 -1.00616e-06 -2.48698e-08
-4.74648e-08 -2.48698e-08 -2.12354e-05
0.000872997 4.00247e-06 1.35057e-06
4.00247e-06 1.14626e-05 3.90004e-07
1.35057e-06 3.90004e-07 -4.02007e-05
0.00117502 5.72485e-06 1.18527e-06
5.72485e-06 0.000111632 1.62633e-07
1.18527e-06 1.62633e-07 6.15871e-05
0.00114032 4.78202e-06 3.65981e-08
4.78202e-06 8.9601e-05 3.47241e-07
3.65981e-08 3.47241e-07 3.16268e-05
0.00112253 3.74754e-06 6.73351e-07
3.74754e-06 4.83145e-05 -1.04264e-07
6.73351e-07 -1.04264e-07 -1.01076e-05
0.00124381 3.17358e-06 4.51411e-07
3.17358e-06 0.000102953 -5.05718e-08
4.51411e-07 -5.05718e-08 5.19207e-05
0.00117576 2.76296e-06 -3.69242e-07
2.76296e-06 6.06727e-05 7.68222e-08
-3.69242e-07 7.68222e-08 1.51375e-06
0.000914489 1.1119e-05 2.63014e-06
1.1119e-05 -4.77168e-05 -1.66728e-06
2.63014e-06 -1.66728e-06 -4.6423e-05
0.00115328 -3.12846e-07 1.33907e-07
-3.12846e-07 4.47407e-05 4.90112e-08
1.33907e-07 4.90112e-08 -9.48652e-06
0.00100313 5.76994e-06 1.79359e-06
5.76994e-06 -5.97939e-06 -8.68565e-07
1.79359e-06 -8.68565e-07 -2.98911e-05
0.000956036 1.04875e-06 1.29397e-06
1.04875e-06 -3.40692e-05 -8.0338e-07
1.29397e-06 -8.0338e-07 -7.64942e-05
0.00124874 -3.03363e-06 2.19097e-07
-3.03363e-06 9.29383e-05 1.68438e-07
2.19097e-07 1.68438e-07 4.22916e-05
0.00115526 -2.94843e-06 -2.05496e-07
-2.94843e-06 3.7457e-05 3.99581e-07
-2.05496e-07 3.99581e-07 -1.69855e-05
0.00101802 5.10373e-06 1.66588e-06
5.10373e-06 -5.30836e-06 -9.78246e-07
1.66588e-06 -9.78246e-07 -2.60821e-05
0.00102884 4.45455e-06 1.39035e-06
4.45455e-06 -3.51494e-06 -1.18169e-06
1.39035e-06 -1.18169e-06 -2.33099e-05
0.00107613 1.71468e-06 9.74119e-07
1.71468e-06 1.96736e-05 -6.13688e-07
9.74119e-07 -6.13688e-07 -1.56515e-05
0.00080054 -1.35543e-05 -3.82326e-06
-1.35543e-05 -6.05667e-05 -1.14417e-06
-3.82326e-06 -1.14417e-06 -7.86889e-05
0.00226634 -1.35494e-05 -3.21835e-06
-1.35494e-05 0.000601658 -2.68e-06
-3.21835e-06 -2.68e-06 0.000622737
0.00093828 -9.57429e-06 -2.25982e-06
-9.57429e-06 -4.32068e-05 -1.96151e-06
-2.25982e-06 -1.96151e-06 -3.9589e-05
0.000826727 -1.34439e-05 -3.34163e-06
-1.34439e-05 -6.44867e-05 -1.35754e-06
-3.34163e-06 -1.35754e-06 -7.30863e-05
0.00100393 -5.43649e-06 -1.94657e-06
-5.43649e-06 -1.13725e-06 -7.25394e-07
-1.94657e-06 -7.25394e-07 -3.90378e-05
0.000910931 -1.13068e-05 -2.62918e-06
-1.13068e-05 -4.6502e-05 -1.65339e-06
-2.62918e-06 -1.65339e-06 -4.4521e-05
0.000997756 -6.05824e-06 -1.82761e-06
-6.05824e-06 -4.15706e-06 -9.58426e-07
-1.82761e-06 -9.58426e-07 -2.71147e-05
0.000984228 -5.74791e-06 -1.99298e-06
-5.74791e-06 -8.54883e-06 -7.96333e-07
-1.99298e-06 -7.96333e-07 -3.74434e-05
0.000962096 -1.71635e-06 -1.14678e-06
-1.71635e-06 -2.69554e-05 -5.65286e-07
-1.14678e-06 -5.65286e-07 -6.80949e-05
0.000946502 -1.03915e-05 5.38569e-08
-1.03915e-05 -3.48554e-05 -3.69559e-08
5.38569e-08 -3.69559e-08 -3.20198e-05
0.000963356 -8.71162e-06 6.33142e-08
-8.71162e-06 -3.50505e-05 -1.91766e-08
6.33142e-08 -1.91766e-08 -3.07952e-05
0.00102801 -5.20168e-06 5.45934e-08
-5.20168e-06 -9.59305e-07 -2.51235e-08
5.45934e-08 -2.51235e-08 -2.0118e-05
0.00100776 -5.80963e-06 8.84812e-09
-5.80963e-06 1.7654e-06 -1.16026e-07
8.84812e-09 -1.16026e-07 -3.97059e-05
0.00100413 -5.52034e-06 3.65572e-08
-5.52034e-06 3.42844e-07 -2.23957e-08
3.65572e-08 -2.23957e-08 -3.29773e-05
0.00110416 -5.13672e-07 1.11768e-08
-5.13672e-07 2.60144e-05 2.33902e-10
1.11768e-08 2.33902e-10 -2.39118e-05
0.00101992 -5.86703e-06 1.11294e-08
-5.86703e-06 1.8541e-06 1.52526e-08
1.11294e-08 1.52526e-08 -1.89963e-05
0.00102528 -2.51362e-07 -1.28493e-08
-2.51362e-07 -8.16085e-07 -2.86639e-08
-1.28493e-08 -2.86639e-08 -4.44488e-05
0.00107365 -2.42183e-06 3.34801e-08
-2.42183e-06 2.79432e-05 -2.30207e-08
3.34801e-08 -2.30207e-08 -1.02851e-05
0.00114376 2.51846e-06 -3.21969e-07
2.51846e-06 5.50199e-05 -1.86457e-07
-3.21969e-07 -1.86457e-07 7.3522e-06
0.000982976 -7.83215e-06 1.95858e-06
-7.83215e-06 -2.94719e-05 2.1527e-06
1.95858e-06 2.1527e-06 -2.45492e-05
0.00103755 -5.49829e-06 1.76373e-06
-5.49829e-06 6.00794e-06 9.49826e-07
1.76373e-06 9.49826e-07 -1.37545e-05
0.00104155 -4.87758e-06 1.45443e-06
-4.87758e-06 3.14888e-06 1.15726e-06
1.45443e-06 1.15726e-06 -1.5388e-05
0.00108366 -2.82294e-06 1.04736e-06
-2.82294e-06 2.52592e-05 5.70269e-07
1.04736e-06 5.70269e-07 -8.87349e-06
0.00109109 -2.76271e-06 7.43848e-07
-2.76271e-06 1.89116e-05 -1.73783e-07
7.43848e-07 -1.73783e-07 -3.23675e-05
0.00109266 4.63245e-07 9.54206e-07
4.63245e-07 2.66894e-05 4.87801e-07
9.54206e-07 4.87801e-07 -2.018e-05
0.00114273 1.60102e-06 2.28511e-07
1.60102e-06 2.94622e-05 -2.36474e-08
2.28511e-07 -2.36474e-08 -2.51269e-05
0.00109076 -2.69481e-06 1.11349e-06
-2.69481e-06 3.2953e-05 6.595e-07
1.11349e-06 6.595e-07 -3.14224e-06
0.00106914 3.72558e-06 1.50762e-07
3.72558e-06 1.08198e-05 2.55348e-08
1.50762e-07 2.55348e-08 -3.96766e-05
0.00110978 1.71808e-06 7.46983e-07
1.71808e-06 4.27505e-05 1.41413e-07
7.46983e-07 1.41413e-07 -5.03631e-06
0.00110743 5.30403e-06 1.81879e-07
5.30403e-06 3.18488e-05 -3.00693e-07
1.81879e-07 -3.00693e-07 -1.97343e-05
0.00105685 -2.83138e-06 9.19111e-07
-2.83138e-06 1.20716e-06 1.47749e-06
9.19111e-07 1.47749e-06 -1.61075e-05
0.000980682 -6.02781e-06 1.57849e-06
-6.02781e-06 -3.74497e-05 2.37545e-06
1.57849e-06 2.37545e-06 -3.15464e-05
0.0021409 -8.98656e-06 2.41892e-06
-8.98656e-06 0.000523345 3.0849e-06
2.41892e-06 3.0849e-06 0.000547775
0.00217913 -1.01186e-05 6.71519e-08
-1.01186e-05 0.00054557 -3.44613e-08
6.71519e-08 -3.44613e-08 0.000569236
0.00223487 -1.12244e-05 -2.76796e-06
-1.12244e-05 0.000576443 -2.92281e-06
-2.76796e-06 -2.92281e-06 0.000599218
0.000951495 8.5546e-06 2.07724e-06
8.5546e-06 -4.1783e-05 -2.09141e-06
2.07724e-06 -2.09141e-06 -3.81496e-05
0.00228426 1.23035e-05 3.02994e-06
1.23035e-05 0.000603394 -2.83474e-06
3.02994e-06 -2.83474e-06 0.000625254
0.000957227 9.34382e-06 -5.93906e-08
9.34382e-06 -3.54835e-05 -2.84149e-08
-5.93906e-08 -2.84149e-08 -3.25331e-05
0.00224133 1.35778e-05 -6.20828e-08
1.35778e-05 0.000588084 -4.84837e-08
-6.20828e-08 -4.84837e-08 0.000609305
0.000779022 -1.3214e-05 -3.9637e-06
-1.3214e-05 -5.49138e-05 -8.84378e-07
-3.9637e-06 -8.84378e-07 -7.76528e-05
0.000722676 -1.04388e-05 -4.06064e-06
-1.04388e-05 -4.0654e-05 -5.96549e-07
-4.06064e-06 -5.96549e-07 -7.1896e-05
0.000981112 -6.15074e-06 -1.55578e-06
-6.15074e-06 1.30158e-05 -1.35748e-07
-1.55578e-06 -1.35748e-07 -3.45753e-05
0.000943213 -5.53453e-06 -1.42559e-06
-5.53453e-06 2.84315e-05 1.79254e-07
-1.42559e-06 1.79254e-07 -2.29241e-05
0.000680887 -4.93109e-06 -3.88965e-06
-4.93109e-06 -2.08903e-05 5.47442e-08
-3.88965e-06 5.47442e-08 -5.57983e-05
0.00218186 -8.61728e-07 -5.91804e-06
-8.61728e-07 0.000742581 -9.58596e-08
-5.91804e-06 -9.58596e-08 0.000735309
0.000659135 1.00573e-07 3.54647e-08
1.00573e-07 -2.46708e-05 4.88872e-09
3.54647e-08 4.88872e-09 -5.9895e-05
0.00090317 -4.45752e-06 -6.09544e-08
-4.45752e-06 3.031e-05 7.5356e-08
-6.09544e-08 7.5356e-08 -2.06151e-05
0.000962238 -5.97279e-06 -5.25285e-09
-5.97279e-06 1.9263e-05 -1.24327e-07
-5.25285e-09 -1.24327e-07 -3.09921e-05
0.00103473 -5.53854e-06 -1.8896e-08
-5.53854e-06 4.82918e-05 -1.20331e-07
-1.8896e-08 -1.20331e-07 -8.75142e-06
0.000998923 -6.21802e-06 -2.83478e-08
-6.21802e-06 6.53032e-06 -4.6745e-08
-2.83478e-08 -4.6745e-08 -3.79174e-05
0.00108349 -4.60575e-06 -1.05783e-08
-4.60575e-06 3.83418e-05 6.72945e-09
-1.05783e-08 6.72945e-09 -1.66035e-05
0.000895368 -6.42581e-08 1.20117e-06
-6.42581e-08 3.35208e-05 3.18568e-07
1.20117e-06 3.18568e-07 -1.74719e-05
0.000994875 -4.83363e-06 1.26121e-07
-4.83363e-06 5.24978e-05 -3.98473e-07
1.26121e-07 -3.98473e-07 -3.57022e-06
0.00105638 -4.98975e-06 3.07988e-07
-4.98975e-06 4.04229e-05 -3.04891e-07
3.07988e-07 -3.04891e-07 -1.65146e-05
0.00112858 -6.55124e-06 -1.37978e-07
-6.55124e-06 7.94465e-05 -7.03959e-07
-1.37978e-07 -7.03959e-07 2.04937e-05
0.00109419 -4.18654e-06 3.73174e-07
-4.18654e-06 2.88077e-05 -1.72388e-07
3.73174e-07 -1.72388e-07 -2.37948e-05
0.00112038 -4.90269e-06 -2.55311e-07
-4.90269e-06 4.51994e-05 -8.27473e-09
-2.55311e-07 -8.27473e-09 -1.15934e-05
0.000656517 5.9135e-06 -3.90163e-06
5.9135e-06 -3.69802e-05 -2.19922e-07
-3.90163e-06 -2.19922e-07 -7.2166e-05
0.00112897 1.05563e-05 -5.39001e-06
1.05563e-05 0.000146691 7.568e-07
-5.39001e-06 7.568e-07 0.000117875
0.000846598 5.14992e-06 -1.95267e-06
5.14992e-06 -2.76694e-05 -1.90944e-07
-1.95267e-06 -1.90944e-07 -8.10915e-05
0.00131982 5.86847e-06 -2.17515e-06
5.86847e-06 0.000169949 4.11634e-07
-2.17515e-06 4.11634e-07 0.000123198
0.00218478 1.48921e-05 -3.52435e-06
1.48921e-05 0.000567209 2.49924e-06
-3.52435e-06 2.49924e-06 0.000587636
0.00152564 1.18857e-05 -3.0351e-06
1.18857e-05 0.000251421 1.5602e-06
-3.0351e-06 1.5602e-06 0.000253257
0.00138043 5.95548e-06 -1.93365e-06
5.95548e-06 0.0001773 7.54982e-07
-1.93365e-06 7.54982e-07 0.00015279
0.00118473 6.21556e-06 -2.23364e-06
6.21556e-06 9.51449e-05 5.8848e-07
-2.23364e-06 5.8848e-07 5.55334e-05
0.000987178 2.84324e-06 -8.62093e-07
2.84324e-06 -1.69267e-05 4.58093e-07
-8.62093e-07 4.58093e-07 -7.32756e-05
0.00126599 2.35515e-06 -7.72059e-07
2.35515e-06 0.000111316 1.20392e-07
-7.72059e-07 1.20392e-07 6.37893e-05
0.000964948 1.04646e-06 -1.02088e-06
1.04646e-06 -3.17283e-05 3.17184e-07
-1.02088e-06 3.17184e-07 -7.64708e-05
0.00113993 -1.48114e-06 -2.72577e-07
-1.48114e-06 3.83899e-05 -6.21261e-08
-2.72577e-07 -6.21261e-08 -1.3992e-05
0.00096603 1.01469e-05 -2.57295e-06
1.01469e-05 -2.74546e-05 1.74106e-06
-2.57295e-06 1.74106e-06 -2.53418e-05
0.00103778 4.74519e-06 -1.61984e-06
4.74519e-06 2.32468e-06 1.03642e-06
-1.61984e-06 1.03642e-06 -1.79287e-05
0.000845425 4.17948e-06 6.48046e-08
4.17948e-06 -3.17787e-06 -3.98265e-08
6.48046e-08 -3.98265e-08 -5.53113e-05
0.00116386 5.68885e-06 -4.46358e-07
5.68885e-06 0.000106233 1.41964e-07
-4.46358e-07 1.41964e-07 5.61317e-05
0.00110042 4.78181e-06 -2.95124e-07
4.78181e-06 7.14132e-05 -7.70673e-08
-2.95124e-07 -7.70673e-08 1.35499e-05
0.00120233 3.66128e-06 1.62827e-07
3.66128e-06 8.76798e-05 -1.36864e-07
1.62827e-07 -1.36864e-07 2.99882e-05
0.000937672 1.10565e-05 -4.62524e-08
1.10565e-05 -3.66321e-05 -1.99047e-08
-4.62524e-08 -1.99047e-08 -3.54744e-05
0.00101735 5.74569e-06 -2.75567e-08
5.74569e-06 5.76386e-07 2.04564e-10
-2.75567e-08 2.04564e-10 -2.3385e-05
0.00102976 8.9571e-07 2.41934e-07
8.9571e-07 1.22494e-06 -2.94377e-07
2.41934e-07 -2.94377e-07 -4.05706e-05
0.00125439 3.12065e-06 -2.15525e-07
3.12065e-06 0.000108049 1.06447e-07
-2.15525e-07 1.06447e-07 5.7163e-05
0.00112932 2.84133e-06 -1.38528e-07
2.84133e-06 3.78977e-05 1.63346e-07
-1.38528e-07 1.63346e-07 -2.14265e-05
0.0011474 -2.75603e-06 -2.25486e-07
-2.75603e-06 4.44479e-05 2.0344e-07
-2.25486e-07 2.0344e-07 -6.78538e-06
0.00115095 -1.70754e-07 2.64094e-08
-1.70754e-07 4.35964e-05 -2.10166e-08
2.64094e-08 -2.10166e-08 -1.05713e-05
0.00115335 -2.7889e-06 9.27719e-08
-2.7889e-06 3.58425e-05 9.70891e-08
9.27719e-08 9.70891e-08 -1.84298e-05
0.0010268 5.09297e-06 -2.92354e-08
5.09297e-06 -1.13994e-06 -1.68345e-08
-2.92354e-08 -1.68345e-08 -2.19491e-05
0.00101173 1.74005e-06 -4.46054e-08
1.74005e-06 -1.14476e-05 -3.45491e-08
-4.46054e-08 -3.45491e-08 -4.71883e-05
0.00103554 4.44725e-06 -4.30057e-08
4.44725e-06 -3.42069e-07 -1.40246e-08
-4.30057e-08 -1.40246e-08 -2.01583e-05
0.00110642 4.46443e-06 1.81399e-09
4.46443e-06 9.77761e-05 4.31335e-07
1.81399e-09 4.31335e-07 4.10262e-05
0.0011701 4.37395e-06 2.43406e-07
4.37395e-06 8.33579e-05 3.65426e-07
2.43406e-07 3.65426e-07 2.51674e-05
0.00104674 5.62956e-06 1.81172e-07
5.62956e-06 3.62351e-05 1.6602e-07
1.81172e-07 1.6602e-07 -2.39875e-05
0.00122111 3.99635e-06 -1.76323e-07
3.99635e-06 8.1638e-05 5.78477e-08
-1.76323e-07 5.78477e-08 2.03377e-05
0.00116763 1.28078e-06 -1.5757e-08
1.28078e-06 5.27621e-05 -3.70434e-08
-1.5757e-08 -3.70434e-08 -3.4608e-06
0.00114531 3.29444e-06 -4.00446e-07
3.29444e-06 3.79367e-05 1.5463e-08
-4.00446e-07 1.5463e-08 -2.14043e-05
0.00101022 5.49319e-06 1.73708e-06
5.49319e-06 -6.04629e-06 -8.97035e-07
1.73708e-06 -8.97035e-07 -2.79726e-05
0.00119247 -5.84786e-07 -4.139e-07
-5.84786e-07 5.49992e-05 2.08452e-07
-4.139e-07 2.08452e-07 -5.24907e-07
0.00107446 1.41215e-06 1.03915e-06
1.41215e-06 2.28144e-05 -5.27602e-07
1.03915e-06 -5.27602e-07 -1.616e-05
0.00105409 -2.94133e-06 6.9359e-07
-2.94133e-06 4.39556e-06 -4.64163e-07
6.9359e-07 -4.64163e-07 -4.60558e-05
0.00119402 -4.51997e-06 -6.54941e-10
-4.51997e-06 5.82365e-05 4.54744e-07
-6.54941e-10 4.54744e-07 4.21982e-06
0.00120022 -3.22768e-06 -7.54288e-07
-3.22768e-06 5.33294e-05 8.00142e-07
-7.54288e-07 8.00142e-07 4.20864e-07
0.00103394 4.06476e-06 1.26776e-06
4.06476e-06 -3.37807e-06 -1.22877e-06
1.26776e-06 -1.22877e-06 -2.2824e-05
0.00107447 1.70547e-06 1.06438e-06
1.70547e-06 1.90808e-05 -5.20019e-07
1.06438e-06 -5.20019e-07 -1.65544e-05
0.000941837 1.83018e-06 1.10047e-06
1.83018e-06 -4.5204e-05 -1.02586e-06
1.10047e-06 -1.02586e-06 -8.12879e-05
0.00124877 -1.53851e-06 3.73094e-07
-1.53851e-06 0.000100903 9.00482e-08
3.73094e-07 9.00482e-08 5.71308e-05
0.0010128 -5.73445e-06 -1.8669e-06
-5.73445e-06 4.20713e-06 -4.37117e-07
-1.8669e-06 -4.37117e-07 -3.7374e-05
0.000948492 -8.74352e-06 -2.04496e-06
-8.74352e-06 -4.22278e-05 -2.08885e-06
-2.04496e-06 -2.08885e-06 -3.78824e-05
0.000927743 -1.04347e-05 -2.46471e-06
-1.04347e-05 -4.38975e-05 -1.80476e-06
-2.46471e-06 -1.80476e-06 -4.09616e-05
0.00101716 -5.21504e-06 -1.51827e-06
-5.21504e-06 -6.13907e-06 -1.09654e-06
-1.51827e-06 -1.09654e-06 -2.52545e-05
0.00098746 -5.50615e-06 -1.9561e-06
-5.50615e-06 -6.97394e-06 -8.44162e-07
-1.9561e-06 -8.44162e-07 -4.03007e-05
0.00111815 -4.17701e-07 -8.09247e-07
-4.17701e-07 3.2307e-05 -1.7067e-07
-8.09247e-07 -1.7067e-07 -1.77219e-05
0.00100387 -5.89008e-06 -1.77834e-06
-5.89008e-06 -5.57076e-06 -9.17834e-07
-1.77834e-06 -9.17834e-07 -2.63682e-05
0.00107056 -2.61947e-06 -1.13181e-06
-2.61947e-06 2.67431e-05 -6.76722e-07
-1.13181e-06 -6.76722e-07 -1.1558e-05
0.00106752 -2.62942e-07 -1.01225e-06
-2.62942e-07 1.96887e-05 -5.05841e-07
-1.01225e-06 -5.05841e-07 -2.37597e-05
0.00106036 2.60851e-06 -1.00036e-06
2.60851e-06 1.52334e-05 -4.15942e-07
-1.00036e-06 -4.15942e-07 -3.30461e-05
0.000972024 -7.85359e-06 5.13828e-08
-7.85359e-06 -3.47787e-05 -1.27673e-08
5.13828e-08 -1.27673e-08 -2.97891e-05
0.00102437 -5.5157e-06 3.95076e-08
-5.5157e-06 -1.9907e-07 -2.08843e-08
3.95076e-08 -2.08843e-08 -1.99148e-05
0.00103339 -4.88779e-06 4.64002e-08
-4.88779e-06 -7.53484e-07 -1.33827e-08
4.64002e-08 -1.33827e-08 -1.92535e-05
0.00107623 -2.81552e-06 5.38973e-08
-2.81552e-06 2.17602e-05 -2.70079e-08
5.38973e-08 -2.70079e-08 -1.23555e-05
0.00110915 -2.66533e-06 1.11037e-07
-2.66533e-06 2.70926e-05 -1.17285e-08
1.11037e-07 -1.17285e-08 -2.43077e-05
0.0010928 3.7411e-07 -6.62151e-10
3.7411e-07 2.71199e-05 8.08851e-09
-6.62151e-10 8.08851e-09 -1.98223e-05
0.00116397 1.72492e-06 1.86564e-08
1.72492e-06 3.89031e-05 1.3706e-07
1.86564e-08 1.3706e-07 -1.57604e-05
0.00107435 -2.83562e-06 4.10295e-09
-2.83562e-06 2.55343e-05 2.49454e-08
4.10295e-09 2.49454e-08 -1.05395e-05
0.00115186 3.8831e-06 -1.62289e-07
3.8831e-06 5.02092e-05 -3.42973e-07
-1.62289e-07 -3.42973e-07 2.3258e-07
0.00111236 1.82787e-06 4.89396e-08
1.82787e-06 4.37799e-05 -1.07528e-07
4.89396e-08 -1.07528e-07 -4.13366e-06
0.00110688 5.19204e-06 -4.71735e-07
5.19204e-06 3.24125e-05 -3.07042e-07
-4.71735e-07 -3.07042e-07 -1.87562e-05
0.000987515 -6.92136e-06 1.77375e-06
-6.92136e-06 -3.10509e-05 2.25947e-06
1.77375e-06 2.25947e-06 -2.55461e-05
0.00104359 -4.40206e-06 1.31818e-06
-4.40206e-06 1.15766e-06 1.2358e-06
1.31818e-06 1.2358e-06 -1.66558e-05
0.00108957 -2.6614e-06 1.11439e-06
-2.6614e-06 2.91656e-05 5.89243e-07
1.11439e-06 5.89243e-07 -5.54921e-06
0.00108345 -2.83782e-06 9.06307e-07
-2.83782e-06 2.38019e-05 6.70923e-07
9.06307e-07 6.70923e-07 -9.73387e-06
0.0011034 -1.02409e-06 6.60565e-07
-1.02409e-06 3.42339e-05 2.51997e-07
6.60565e-07 2.51997e-07 -9.49592e-06
0.00115053 -2.27652e-06 1.00535e-07
-2.27652e-06 3.19227e-05 -5.87669e-07
1.00535e-07 -5.87669e-07 -2.21655e-05
0.00114212 4.02248e-06 2.32864e-07
4.02248e-06 3.72749e-05 3.91622e-07
2.32864e-07 3.91622e-07 -1.57712e-05
0.00121364 1.58364e-06 -5.93132e-07
1.58364e-06 5.28554e-05 -2.9556e-07
-5.93132e-07 -2.9556e-07 -2.01393e-06
0.00112389 1.26169e-06 8.75923e-07
1.26169e-06 4.83226e-05 8.58325e-07
8.75923e-07 8.58325e-07 1.73359e-06
0.00112896 6.17899e-06 2.17864e-07
6.17899e-06 3.40781e-05 -2.73977e-09
2.17864e-07 -2.73977e-09 -1.89614e-05
0.00101034 5.09317e-06 5.8197e-07
5.09317e-06 -9.73082e-06 -2.07195e-07
5.8197e-07 -2.07195e-07 -6.4634e-05
0.00105217 -3.24568e-06 1.10994e-06
-3.24568e-06 4.17285e-07 1.39631e-06
1.10994e-06 1.39631e-06 -1.69519e-05
0.00109386 -1.39886e-06 6.05188e-07
-1.39886e-06 2.23074e-05 8.75668e-07
6.05188e-07 8.75668e-07 -1.05696e-05
0.00105973 -2.29901e-06 7.31751e-07
-2.29901e-06 7.72817e-07 1.53091e-06
7.31751e-07 1.53091e-06 -1.64394e-05
0.00105259 -2.83938e-06 5.49964e-08
-2.83938e-06 -7.92274e-07 -9.18735e-09
5.49964e-08 -9.18735e-09 -1.80925e-05
0.00147766 -5.19221e-06 9.58688e-07
-5.19221e-06 0.000198708 1.52614e-06
9.58688e-07 1.52614e-06 0.000207309
0.00123609 -6.05938e-06 7.16692e-08
-6.05938e-06 8.5472e-05 1.32691e-08
7.16692e-08 1.32691e-08 9.2506e-05
0.00117534 -7.66873e-06 2.92249e-06
-7.66873e-06 5.50394e-05 5.10087e-06
2.92249e-06 5.10087e-06 7.51575e-05
0.00217604 -8.94162e-06 7.05932e-08
-8.94162e-06 0.00053983 -2.99293e-08
7.05932e-08 -2.99293e-08 0.000564149
0.00221899 -1.0072e-05 -2.53195e-06
-1.0072e-05 0.0005643 -3.0239e-06
-2.53195e-06 -3.0239e-06 0.000587852
0.000962423 7.70454e-06 1.891e-06
7.70454e-06 -4.02951e-05 -2.2026e-06
1.891e-06 -2.2026e-06 -3.61691e-05
0.00226635 1.11369e-05 2.80282e-06
1.11369e-05 0.000590267 -2.9545e-06
2.80282e-06 -2.9545e-06 0.000612895
0.000966248 8.5247e-06 -5.79653e-08
8.5247e-06 -3.47242e-05 -2.20268e-08
-5.79653e-08 -2.20268e-08 -3.11635e-05
0.00223129 1.23709e-05 -6.62335e-08
1.23709e-05 0.000578354 -4.42312e-08
-6.62335e-08 -4.42312e-08 0.000600388
0.000973301 9.30898e-06 -2.39748e-06
9.30898e-06 -2.77421e-05 1.89377e-06
-2.39748e-06 1.89377e-06 -2.48803e-05
0.00217877 1.36625e-05 -3.33152e-06
1.36625e-05 0.000558527 2.63516e-06
-3.33152e-06 2.63516e-06 0.000579946
0.00100207 -6.13225e-06 -1.7219e-06
-6.13225e-06 8.21776e-06 -1.57321e-07
-1.7219e-06 -1.57321e-07 -3.63303e-05
0.000967053 -5.86612e-06 -1.48759e-06
-5.86612e-06 2.15508e-05 -1.4352e-07
-1.48759e-06 -1.4352e-07 -2.87711e-05
0.00108272 -4.5786e-06 -2.75241e-07
-4.5786e-06 3.80782e-05 3.83426e-08
-2.75241e-07 3.83426e-08 -1.68848e-05
0.00103878 -5.52384e-06 -2.69408e-07
-5.52384e-06 4.99865e-05 4.04018e-07
-2.69408e-07 4.04018e-07 -7.07653e-06
0.000908575 -4.3197e-06 -1.27265e-06
-4.3197e-06 3.26953e-05 4.30594e-07
-1.27265e-06 4.30594e-07 -1.82825e-05
0.000653163 5.49655e-07 -3.75433e-06
5.49655e-07 -2.72353e-05 -8.79557e-08
-3.75433e-06 -8.79557e-08 -6.24343e-05
0.000892179 4.51981e-08 2.40902e-08
4.51981e-08 3.21594e-05 1.64119e-07
2.40902e-08 1.64119e-07 -1.88188e-05
0.000995599 -4.79723e-06 -4.19891e-08
-4.79723e-06 5.27574e-05 1.00033e-07
-4.19891e-08 1.00033e-07 -3.32831e-06
0.00106363 -4.96899e-06 6.83202e-09
-4.96899e-06 4.36103e-05 -1.44194e-07
6.83202e-09 -1.44194e-07 -1.33463e-05
0.00111402 -6.61868e-06 -1.31374e-08
-6.61868e-06 7.39611e-05 -5.73812e-08
-1.31374e-08 -5.73812e-08 1.51512e-05
0.0011006 -4.17286e-06 -5.81333e-08
-4.17286e-06 3.16117e-05 3.36324e-08
-5.81333e-08 3.36324e-08 -2.10398e-05
0.00112337 -4.92671e-06 4.83152e-09
-4.92671e-06 4.67119e-05 8.81709e-09
4.83152e-09 8.81709e-09 -1.00211e-05
0.000985457 1.45357e-07 1.90572e-07
1.45357e-07 5.59494e-05 4.99362e-07
1.90572e-07 4.99362e-07 -1.87308e-07
0.00105716 -5.75067e-06 -1.08911e-07
-5.75067e-06 7.16077e-05 -6.30413e-07
-1.08911e-07 -6.30413e-07 1.35975e-05
0.0010984 -5.5238e-06 -1.58321e-07
-5.5238e-06 5.00279e-05 -4.07941e-07
-1.58321e-07 -4.07941e-07 -8.71247e-06
0.00112652 -7.78507e-06 5.10712e-07
-7.78507e-06 7.4273e-05 -4.64519e-07
5.10712e-07 -4.64519e-07 1.39426e-05
0.00114945 -4.40384e-06 -2.75638e-07
-4.40384e-06 4.17802e-05 -2.28846e-07
-2.75638e-07 -2.28846e-07 -1.25959e-05
0.00126331 -6.75715e-06 -3.54597e-07
-6.75715e-06 0.000103215 1.67891e-07
-3.54597e-07 1.67891e-07 4.67503e-05
0.000816855 4.35272e-06 -1.28143e-06
4.35272e-06 -1.83158e-05 -5.20204e-07
-1.28143e-06 -5.20204e-07 -7.09143e-05
0.00115226 5.65297e-06 -2.0863e-06
5.65297e-06 0.000100623 1.2275e-07
-2.0863e-06 1.2275e-07 5.04665e-05
0.00105956 4.7791e-06 -6.74926e-07
4.7791e-06 5.27454e-05 -5.09072e-07
-6.74926e-07 -5.09072e-07 -5.00214e-06
0.00128208 3.57527e-06 -3.85057e-07
3.57527e-06 0.000127016 -1.23244e-07
-3.85057e-07 -1.23244e-07 7.00554e-05
0.000960519 1.09941e-05 -2.71951e-06
1.09941e-05 -2.56951e-05 1.61125e-06
-2.71951e-06 1.61125e-06 -2.46741e-05
0.00103166 5.72078e-06 -1.8296e-06
5.72078e-06 7.17708e-06 8.56103e-07
-1.8296e-06 8.56103e-07 -1.68341e-05
0.00110367 6.93229e-07 -8.31806e-07
6.93229e-07 3.66053e-05 1.91014e-07
-8.31806e-07 1.91014e-07 -4.56086e-06
0.00126434 3.0688e-06 -8.67891e-07
3.0688e-06 0.000112856 2.36956e-07
-8.67891e-07 2.36956e-07 6.21164e-05
0.0010823 2.91772e-06 8.46117e-08
2.91772e-06 1.48497e-05 2.49864e-07
8.46117e-08 2.49864e-07 -4.4639e-05
0.00114846 -2.72132e-08 -7.34824e-08
-2.72132e-08 4.23769e-05 -9.22633e-08
-7.34824e-08 -9.22633e-08 -1.17314e-05
0.00104675 -2.48722e-06 -6.75911e-07
-2.48722e-06 -3.74161e-06 2.39439e-07
-6.75911e-07 2.39439e-07 -5.55606e-05
0.00115288 -2.6299e-06 2.75672e-07
-2.6299e-06 3.48615e-05 -2.60814e-07
2.75672e-07 -2.60814e-07 -1.92375e-05
0.00103548 5.08176e-06 -1.71911e-06
5.08176e-06 2.98205e-06 9.40745e-07
-1.71911e-06 9.40745e-07 -1.78626e-05
0.000947589 1.75487e-06 -1.03453e-06
1.75487e-06 -4.24503e-05 5.66602e-07
-1.03453e-06 5.66602e-07 -7.86061e-05
0.00104241 4.43965e-06 -1.47172e-06
4.43965e-06 2.90926e-06 1.14943e-06
-1.47172e-06 1.14943e-06 -1.69287e-05
0.00103316 4.43711e-06 -2.57223e-07
4.43711e-06 6.41532e-05 -2.01498e-07
-2.57223e-07 -2.01498e-07 7.21705e-06
0.00117136 4.36444e-06 -1.79875e-07
4.36444e-06 8.40305e-05 1.07678e-07
-1.79875e-07 1.07678e-07 2.57342e-05
0.00105014 5.75262e-06 -2.18648e-07
5.75262e-06 3.6306e-05 -2.6354e-07
-2.18648e-07 -2.6354e-07 -2.42788e-05
0.00120431 4.03126e-06 3.08116e-08
4.03126e-06 7.55164e-05 -1.20029e-07
3.08116e-08 -1.20029e-07 1.45262e-05
0.0010225 5.47088e-06 -2.16954e-08
5.47088e-06 -3.21579e-07 -3.70913e-09
-2.16954e-08 -3.70913e-09 -2.22963e-05
0.00108059 1.23706e-06 -9.55113e-09
1.23706e-06 2.53487e-05 1.95734e-09
-9.55113e-09 1.95734e-09 -1.36029e-05
0.00112067 -2.81355e-06 1.35876e-07
-2.81355e-06 3.68187e-05 -2.14652e-07
1.35876e-07 -2.14652e-07 -1.30923e-05
0.00121572 1.46061e-06 2.97517e-08
1.46061e-06 7.62054e-05 -7.83308e-08
2.97517e-08 -7.83308e-08 2.02641e-05
0.00114556 3.25751e-06 -7.56704e-09
3.25751e-06 3.74671e-05 4.83108e-08
-7.56704e-09 4.83108e-08 -2.18975e-05
0.00117305 -4.56157e-06 -4.58738e-08
-4.56157e-06 4.80523e-05 1.37519e-07
-4.58738e-08 1.37519e-07 -6.26978e-06
0.00118874 -3.75053e-07 1.77472e-08
-3.75053e-07 5.29098e-05 -4.91086e-08
1.77472e-08 -4.91086e-08 -2.55946e-06
0.00118468 -3.09991e-06 1.78287e-07
-3.09991e-06 4.53091e-05 2.50638e-07
1.78287e-07 2.50638e-07 -7.11928e-06
0.00108026 1.67249e-06 -1.99358e-09
1.67249e-06 2.17097e-05 4.68071e-10
-1.99358e-09 4.68071e-10 -1.39254e-05
0.00114304 -1.53519e-06 -2.40217e-07
-1.53519e-06 4.97197e-05 2.86233e-07
-2.40217e-07 2.86233e-07 5.29168e-06
0.0010405 4.05598e-06 -3.14549e-08
4.05598e-06 -3.04103e-07 -8.37544e-09
-3.14549e-08 -8.37544e-09 -1.97695e-05
0.000940323 1.84668e-06 1.98378e-07
1.84668e-06 -4.58838e-05 -3.32727e-07
1.98378e-07 -3.32727e-07 -8.19624e-05
0.00106291 5.5425e-06 2.70019e-07
5.5425e-06 6.69381e-05 4.99612e-07
2.70019e-07 4.99612e-07 7.18002e-06
0.00125675 5.34411e-06 -1.72793e-07
5.34411e-06 0.000106825 1.16367e-07
-1.72793e-07 1.16367e-07 4.56858e-05
0.000941002 6.62226e-06 -2.92367e-07
6.62226e-06 -1.63216e-05 2.35603e-07
-2.92367e-07 2.35603e-07 -7.89549e-05
0.00115428 4.61067e-06 -3.21244e-07
4.61067e-06 4.48252e-05 -1.21681e-07
-3.21244e-07 -1.21681e-07 -1.64267e-05
0.00123786 1.70174e-06 -5.52912e-07
1.70174e-06 7.74417e-05 8.13613e-08
-5.52912e-07 8.13613e-08 2.06563e-05
0.00112417 3.45968e-06 -5.28493e-07
3.45968e-06 2.42754e-05 1.28554e-07
-5.28493e-07 1.28554e-07 -3.4826e-05
0.00107151 2.01223e-06 1.04689e-06
2.01223e-06 1.96331e-05 -5.07759e-07
1.04689e-06 -5.07759e-07 -1.72192e-05
0.00118303 5.65436e-08 -1.08867e-06
5.65436e-08 4.47771e-05 2.79973e-07
-1.08867e-06 2.79973e-07 -8.76336e-06
0.00102483 -2.6414e-06 6.73694e-07
-2.6414e-06 -5.92187e-06 -5.53144e-07
6.73694e-07 -5.53144e-07 -5.44556e-05
0.00119664 -5.12092e-06 2.85676e-07
-5.12092e-06 6.63102e-05 7.89772e-08
2.85676e-07 7.89772e-08 1.1761e-05
0.00121878 -5.31404e-06 -1.65103e-07
-5.31404e-06 6.49411e-05 1.0795e-06
-1.65103e-07 1.0795e-06 1.06776e-05
0.00117221 -3.19883e-06 -5.93713e-07
-3.19883e-06 3.39141e-05 6.40173e-07
-5.93713e-07 6.40173e-07 -1.60646e-05
0.00104063 3.70482e-06 1.13132e-06
3.70482e-06 -2.27547e-06 -1.30262e-06
1.13132e-06 -1.30262e-06 -2.15841e-05
0.000936999 1.63383e-06 9.89943e-07
1.63383e-06 -4.87684e-05 -1.10426e-06
9.89943e-07 -1.10426e-06 -8.47136e-05
0.00111313 -1.66825e-06 6.16763e-07
-1.66825e-06 3.47408e-05 -1.89826e-07
6.16763e-07 -1.89826e-07 -9.9854e-06
0.00117067 -1.29806e-06 5.57249e-07
-1.29806e-06 6.44469e-05 -1.83912e-07
5.57249e-07 -1.83912e-07 1.97113e-05
0.0012182 -4.02686e-06 2.40693e-07
-4.02686e-06 8.29924e-05 1.54397e-07
2.40693e-07 1.54397e-07 3.36948e-05
0.000960899 -7.87563e-06 -1.85882e-06
-7.87563e-06 -4.01619e-05 -2.19759e-06
-1.85882e-06 -2.19759e-06 -3.51056e-05
0.0011282 -2.52964e-06 -4.90938e-07
-2.52964e-06 3.57288e-05 1.57992e-07
-4.90938e-07 1.57992e-07 -1.57924e-05
0.00102522 -4.89766e-06 -1.36725e-06
-4.89766e-06 -4.66286e-06 -1.18915e-06
-1.36725e-06 -1.18915e-06 -2.31261e-05
0.00101093 -5.5329e-06 -1.67808e-06
-5.5329e-06 -6.52347e-06 -9.83281e-07
-1.67808e-06 -9.83281e-07 -2.61922e-05
0.00106873 -2.80757e-06 -9.46914e-07
-2.80757e-06 1.82299e-05 -6.27358e-07
-9.46914e-07 -6.27358e-07 -1.58685e-05
0.00109147 3.21363e-07 -9.44313e-07
3.21363e-07 2.68829e-05 -4.67557e-07
-9.44313e-07 -4.67557e-07 -2.01326e-05
0.00118532 1.84232e-06 -1.52308e-07
1.84232e-06 4.83948e-05 3.10499e-07
-1.52308e-07 3.10499e-07 -6.34309e-06
0.00105807 -2.91364e-06 -1.1017e-06
-2.91364e-06 1.8175e-05 -6.01739e-07
-1.1017e-06 -6.01739e-07 -1.78775e-05
0.00111537 1.94369e-06 -7.57838e-07
1.94369e-06 4.501e-05 -4.62751e-07
-7.57838e-07 -4.62751e-07 -3.03107e-06
0.00123455 4.07902e-06 -5.9304e-07
4.07902e-06 8.95746e-05 -6.42114e-07
-5.9304e-07 -6.42114e-07 4.01184e-05
0.00110796 5.08361e-06 -1.19886e-06
5.08361e-06 3.37074e-05 -2.93138e-08
-1.19886e-06 -2.93138e-08 -1.70464e-05
0.000980498 -6.93368e-06 5.00687e-08
-6.93368e-06 -3.44532e-05 -1.80629e-08
5.00687e-08 -1.80629e-08 -2.89126e-05
0.00103947 -4.40321e-06 2.16794e-08
-4.40321e-06 -8.14849e-07 -5.66326e-09
2.16794e-08 -5.66326e-09 -1.8615e-05
0.00107487 -2.68628e-06 1.02957e-08
-2.68628e-06 2.23591e-05 1.04652e-08
1.02957e-08 1.04652e-08 -1.23134e-05
0.00108015 -2.82724e-06 2.32709e-08
-2.82724e-06 2.2263e-05 -3.97322e-09
2.32709e-08 -3.97322e-09 -1.12741e-05
0.00106898 -1.18748e-06 7.05751e-08
-1.18748e-06 1.78162e-05 -3.71624e-08
7.05751e-08 -3.71624e-08 -2.62255e-05
0.00116787 -2.20992e-06 1.87656e-07
-2.20992e-06 3.99443e-05 -5.46274e-08
1.87656e-07 -5.46274e-08 -1.43125e-05
0.00114847 4.25953e-06 -4.6876e-09
4.25953e-06 4.05013e-05 1.43162e-07
-4.6876e-09 1.43162e-07 -1.26072e-05
0.00120452 1.86752e-06 6.4246e-08
1.86752e-06 4.91779e-05 2.34076e-07
6.4246e-08 2.34076e-07 -5.939e-06
0.00110667 1.18038e-06 1.95819e-07
1.18038e-06 4.06131e-05 3.00546e-07
1.95819e-07 3.00546e-07 -5.9471e-06
0.00117707 6.09412e-06 1.23911e-07
6.09412e-06 5.67723e-05 -2.40528e-07
1.23911e-07 -2.40528e-07 4.00117e-06
0.00106222 5.20353e-06 -2.35236e-07
5.20353e-06 1.375e-05 -2.32277e-07
-2.35236e-07 -2.32277e-07 -4.08714e-05
0.00104738 -3.77742e-06 1.23886e-06
-3.77742e-06 3.62383e-08 1.30609e-06
1.23886e-06 1.30609e-06 -1.7379e-05
0.0010848 -2.33458e-06 8.56896e-07
-2.33458e-06 2.15996e-05 7.13671e-07
8.56896e-07 7.13671e-07 -1.12896e-05
0.00105717 8.79666e-07 5.99507e-07
8.79666e-07 1.29924e-05 3.27357e-07
5.99507e-07 3.27357e-07 -3.2315e-05
0.00110869 -1.84602e-06 4.96216e-07
-1.84602e-06 3.60606e-05 3.44781e-07
4.96216e-07 3.44781e-07 -7.25506e-06
0.00119233 1.34681e-06 2.37414e-07
1.34681e-06 7.69451e-05 -1.33372e-07
2.37414e-07 -1.33372e-07 2.78503e-05
0.00119855 -3.38219e-06 -5.65144e-07
-3.38219e-06 4.12175e-05 -1.18149e-06
-5.65144e-07 -1.18149e-06 -1.08211e-05
0.00117634 6.05696e-06 -1.30588e-07
6.05696e-06 4.63172e-05 1.76657e-07
-1.30588e-07 1.76657e-07 -8.57333e-06
0.00112828 4.36746e-06 -8.91416e-07
4.36746e-06 1.10643e-05 -7.76313e-07
-8.91416e-07 -7.76313e-07 -3.874e-05
0.00111657 4.39257e-06 3.21311e-07
4.39257e-06 4.49349e-05 7.86267e-07
3.21311e-07 7.86267e-07 -9.17002e-06
0.00119864 6.88895e-06 6.44269e-07
6.88895e-06 6.81038e-05 -1.85204e-07
6.44269e-07 -1.85204e-07 1.07567e-05
0.00104865 -3.24807e-06 5.01678e-08
-3.24807e-06 -1.232e-06 -1.81651e-08
5.01678e-08 -1.81651e-08 -1.85933e-05
0.000949897 -1.32663e-06 8.857e-07
-1.32663e-06 -4.69099e-05 1.20424e-06
8.857e-07 1.20424e-06 -8.06291e-05
0.00102071 -1.39758e-06 4.96061e-08
-1.39758e-06 -1.28774e-05 -3.15865e-09
4.96061e-08 -3.15865e-09 -4.62006e-05
0.00125664 2.97224e-07 2.72972e-07
2.97224e-07 0.000103436 1.11659e-07
2.72972e-07 1.11659e-07 6.10062e-05
0.00109809 -1.19627e-06 4.46017e-07
-1.19627e-06 2.33313e-05 9.12899e-07
4.46017e-07 9.12899e-07 -9.43261e-06
0.00105987 -1.70608e-06 6.01641e-07
-1.70608e-06 -7.56583e-07 1.55524e-06
6.01641e-07 1.55524e-06 -1.81265e-05
0.00105632 -2.30894e-06 2.74965e-08
-2.30894e-06 -8.30299e-07 9.42406e-10
2.74965e-08 9.42406e-10 -1.80288e-05
0.00148251 -4.23187e-06 7.86345e-07
-4.23187e-06 0.000198367 1.58214e-06
7.86345e-07 1.58214e-06 0.000207247
0.00104837 -2.84768e-06 -8.11608e-07
-2.84768e-06 -2.76879e-06 -1.49291e-06
-8.11608e-07 -1.49291e-06 -2.00551e-05
0.00150199 -5.15306e-06 -4.16558e-07
-5.15306e-06 0.000210586 -1.0122e-06
-4.16558e-07 -1.0122e-06 0.000219035
0.00121473 -6.46229e-06 2.49985e-06
-6.46229e-06 6.98419e-05 5.23609e-06
2.49985e-06 5.23609e-06 9.03404e-05
0.00148875 -6.04794e-06 -1.61404e-06
-6.04794e-06 0.000207084 -2.44112e-06
-1.61404e-06 -2.44112e-06 0.000215261
0.00165731 -7.71026e-06 1.19421e-06
-7.71026e-06 0.00028629 1.98762e-06
1.19421e-06 1.98762e-06 0.000308928
0.00221157 -8.89478e-06 -2.29318e-06
-8.89478e-06 0.000556492 -3.13097e-06
-2.29318e-06 -3.13097e-06 0.0005807
0.000972656 6.86581e-06 1.65698e-06
6.86581e-06 -3.90047e-05 -2.33709e-06
1.65698e-06 -2.33709e-06 -3.4464e-05
0.000974533 7.68151e-06 -4.97946e-08
7.68151e-06 -3.45281e-05 -1.96468e-08
-4.97946e-08 -1.96468e-08 -3.04508e-05
0.00225577 9.96334e-06 2.57479e-06
9.96334e-06 0.000580703 -3.07188e-06
2.57479e-06 -3.07188e-06 0.000604028
0.00222206 1.11901e-05 -6.82112e-08
1.11901e-05 0.000569386 -3.89308e-08
-6.82112e-08 -3.89308e-08 0.000592157
0.000980856 8.49541e-06 -2.197e-06
8.49541e-06 -2.77278e-05 2.0392e-06
-2.197e-06 2.0392e-06 -2.42401e-05
0.00217863 1.24387e-05 -3.13927e-06
1.24387e-05 0.000553449 2.77941e-06
-3.13927e-06 2.77941e-06 0.000575658
0.00110682 -4.15912e-06 -4.60339e-07
-4.15912e-06 3.43284e-05 2.42567e-07
-4.60339e-07 2.42567e-07 -1.8372e-05
0.00107105 -4.94957e-06 -2.53189e-07
-4.94957e-06 4.68715e-05 1.7123e-08
-2.53189e-07 1.7123e-08 -1.01038e-05
0.00112727 -4.9535e-06 4.38866e-07
-4.9535e-06 4.86245e-05 8.57284e-08
4.38866e-07 8.57284e-08 -8.04712e-06
0.00109824 -6.68633e-06 1.39947e-07
-6.68633e-06 6.79471e-05 5.12692e-07
1.39947e-07 5.12692e-07 9.27703e-06
0.000996216 -4.76117e-06 -1.84521e-07
-4.76117e-06 5.29709e-05 5.89793e-07
-1.84521e-07 5.89793e-07 -3.13283e-06
0.000889406 1.54705e-07 -1.15784e-06
1.54705e-07 3.09882e-05 -9.50248e-09
-1.15784e-06 -9.50248e-09 -1.99756e-05
0.000982097 1.41448e-07 2.09108e-08
1.41448e-07 5.45483e-05 2.82823e-07
2.09108e-08 2.82823e-07 -1.56819e-06
0.00100662 -5.65972e-06 6.54087e-08
-5.65972e-06 5.05793e-05 -1.46097e-07
6.54087e-08 -1.46097e-07 -7.11198e-06
0.00110495 -5.56318e-06 4.23832e-08
-5.56318e-06 5.26869e-05 -1.78449e-07
4.23832e-08 -1.78449e-07 -6.03606e-06
0.00114313 -8.05756e-06 -8.02638e-08
-8.05756e-06 8.12509e-05 -1.39911e-07
-8.02638e-08 -1.39911e-07 2.03074e-05
0.00115393 -4.34531e-06 -8.12869e-08
-4.34531e-06 4.41879e-05 1.21133e-07
-8.12869e-08 1.21133e-07 -1.02278e-05
0.00123552 -6.80928e-06 1.72259e-07
-6.80928e-06 9.05293e-05 -1.18878e-07
1.72259e-07 -1.18878e-07 3.3852e-05
0.00103794 3.40689e-07 -1.33388e-07
3.40689e-07 7.33548e-05 5.58278e-07
-1.33388e-07 5.58278e-07 1.53774e-05
0.000988631 -5.81414e-06 -4.24244e-08
-5.81414e-06 4.41686e-05 -8.00395e-07
-4.24244e-08 -8.00395e-07 -1.52975e-05
0.00112819 -7.40726e-06 4.83306e-07
-7.40726e-06 5.60492e-05 -1.4825e-07
4.83306e-07 -1.4825e-07 -4.41504e-06
0.00123535 -9.29717e-06 -1.78971e-07
-9.29717e-06 0.000129131 -2.61614e-07
-1.78971e-07 -2.61614e-07 6.48581e-05
0.00115575 -5.44335e-06 -7.50811e-07
-5.44335e-06 3.26095e-05 1.59142e-07
-7.50811e-07 1.59142e-07 -1.93535e-05
0.00132359 -8.75811e-06 -7.75929e-07
-8.75811e-06 0.00013094 3.18412e-08
-7.75929e-07 3.18412e-08 7.38511e-05
0.000961018 4.41566e-06 -5.12886e-07
4.41566e-06 3.10829e-05 -8.22167e-07
-5.12886e-07 -8.22167e-07 -2.60446e-05
0.00117249 4.35474e-06 -6.18247e-07
4.35474e-06 8.46401e-05 -1.85559e-07
-6.18247e-07 -1.85559e-07 2.62381e-05
0.00105488 5.88182e-06 -1.9815e-07
5.88182e-06 3.70197e-05 -4.05666e-07
-1.9815e-07 -4.05666e-07 -2.39311e-05
0.00118751 4.06703e-06 9.71448e-08
4.06703e-06 6.93735e-05 -1.90091e-07
9.71448e-08 -1.90091e-07 8.69559e-06
0.00103463 5.44816e-06 -1.77635e-06
5.44816e-06 5.33236e-06 8.87821e-07
-1.77635e-06 8.87821e-07 -1.66911e-05
0.00108706 8.58656e-07 -1.05464e-06
8.58656e-07 2.80416e-05 5.20773e-07
-1.05464e-06 5.20773e-07 -1.08879e-05
0.00118638 -2.68182e-06 -3.92468e-07
-2.68182e-06 6.8863e-05 4.58141e-08
-3.92468e-07 4.58141e-08 1.94899e-05
0.00126434 1.68012e-06 7.33971e-08
1.68012e-06 9.98995e-05 -1.30549e-07
7.33971e-08 -1.30549e-07 4.4239e-05
0.001148 3.22725e-06 5.41236e-07
3.22725e-06 3.801e-05 1.91778e-07
5.41236e-07 1.91778e-07 -2.13801e-05
0.00118555 -9.24627e-08 3.24598e-07
-9.24627e-08 5.10639e-05 -2.70289e-07
3.24598e-07 -2.70289e-07 -4.35018e-06
0.00115052 -4.60107e-06 -2.05285e-07
-4.60107e-06 3.71844e-05 -1.90635e-07
-2.05285e-07 -1.90635e-07 -1.74463e-05
0.00116874 -3.00042e-06 9.21717e-07
-3.00042e-06 3.71134e-05 -6.23655e-07
9.21717e-07 -6.23655e-07 -1.48346e-05
0.00108571 1.65143e-06 -1.0618e-06
1.65143e-06 2.41818e-05 5.14474e-07
-1.0618e-06 5.14474e-07 -1.14527e-05
0.00103755 -1.52122e-06 -8.61692e-07
-1.52122e-06 -1.35168e-06 5.37201e-07
-8.61692e-07 5.37201e-07 -4.64353e-05
0.00104713 4.04743e-06 -1.33514e-06
4.04743e-06 2.80229e-06 1.22509e-06
-1.33514e-06 1.22509e-06 -1.66832e-05
0.000938682 1.86089e-06 -7.08097e-07
1.86089e-06 -4.66213e-05 3.53007e-07
-7.08097e-07 3.53007e-07 -8.26943e-05
0.00106317 5.48271e-06 2.86526e-09
5.48271e-06 6.74705e-05 -2.14861e-07
2.86526e-09 -2.14861e-07 7.76741e-06
0.00122043 5.25291e-06 -4.25849e-08
5.25291e-06 9.12665e-05 -5.25451e-08
-4.25849e-08 -5.25451e-08 3.03691e-05
0.00104838 6.89219e-06 -2.07559e-07
6.89219e-06 3.04259e-05 -3.10019e-07
-2.07559e-07 -3.10019e-07 -3.30154e-05
0.00120132 4.58629e-06 -3.58558e-08
4.58629e-06 6.61255e-05 -7.96211e-08
-3.58558e-08 -7.96211e-08 4.93787e-06
0.00107996 1.60849e-06 -5.88755e-09
1.60849e-06 2.33341e-05 8.41287e-09
-5.88755e-09 8.41287e-09 -1.35145e-05
0.00107811 -2.1728e-06 1.467e-07
-2.1728e-06 1.96437e-05 -2.21129e-07
1.467e-07 -2.21129e-07 -2.84475e-05
0.00119507 -5.11705e-06 -4.85235e-08
-5.11705e-06 6.61131e-05 6.18236e-08
-4.85235e-08 6.18236e-08 1.14106e-05
0.00124283 1.89488e-06 3.93108e-08
1.89488e-06 8.01555e-05 -3.72272e-08
3.93108e-08 -3.72272e-08 2.33891e-05
0.00116175 3.46806e-06 -9.38502e-10
3.46806e-06 4.18765e-05 1.98395e-07
-9.38502e-10 1.98395e-07 -1.76069e-05
0.00122801 -5.32048e-06 -2.34871e-08
-5.32048e-06 6.92004e-05 2.19763e-07
-2.34871e-08 2.19763e-07 1.47607e-05
0.00119294 8.35321e-08 -3.79581e-08
8.35321e-08 4.91874e-05 2.77633e-08
-3.79581e-08 2.77633e-08 -4.34287e-06
0.00117644 -3.50248e-06 3.36082e-07
-3.50248e-06 3.57829e-05 -3.5156e-07
3.36082e-07 -3.5156e-07 -1.35024e-05
0.00111864 -1.68313e-06 2.5189e-08
-1.68313e-06 3.71655e-05 1.68391e-08
2.5189e-08 1.68391e-08 -7.56144e-06
0.00116448 -3.9834e-06 -1.46424e-07
-3.9834e-06 5.6421e-05 1.9478e-07
-1.46424e-07 1.9478e-07 6.73937e-06
0.00116533 -1.36489e-06 -3.78296e-08
-1.36489e-06 6.17807e-05 1.24844e-07
-3.78296e-08 1.24844e-07 1.70266e-05
0.000932292 3.65892e-06 -3.65842e-08
3.65892e-06 -5.44998e-05 -2.61605e-08
-3.65842e-08 -2.61605e-08 -7.44673e-05
0.000936788 1.70427e-06 1.51238e-07
1.70427e-06 -4.87088e-05 -3.55298e-07
1.51238e-07 -3.55298e-07 -8.4668e-05
0.00102087 7.09762e-06 -2.91091e-07
7.09762e-06 4.63245e-05 7.11282e-07
-2.91091e-07 7.11282e-07 -1.51081e-05
0.00116334 6.64208e-06 -5.47026e-07
6.64208e-06 6.41526e-05 5.05464e-07
-5.47026e-07 5.05464e-07 1.39075e-06
0.0012085 4.97717e-06 -4.59585e-07
4.97717e-06 6.85722e-05 -4.51385e-08
-4.59585e-07 -4.51385e-08 6.55573e-06
0.00122312 3.20044e-06 -9.97102e-07
3.20044e-06 6.53605e-05 2.81639e-08
-9.97102e-07 2.81639e-08 9.60211e-06
0.0011114 -1.95867e-06 5.48285e-07
-1.95867e-06 3.52605e-05 -2.68664e-07
5.48285e-07 -2.68664e-07 -1.06889e-05
0.00118628 -1.38917e-06 -9.89309e-07
-1.38917e-06 3.75422e-05 3.21539e-07
-9.89309e-07 3.21539e-07 -1.03666e-05
0.00107396 -4.68124e-06 4.01165e-07
-4.68124e-06 1.46231e-05 -4.1937e-07
4.01165e-07 -4.1937e-07 -3.91767e-05
0.00121543 -6.08037e-06 2.47082e-07
-6.08037e-06 7.0656e-05 4.39128e-07
2.47082e-07 4.39128e-07 1.32216e-05
0.00119999 -5.41719e-06 -2.20995e-07
-5.41719e-06 4.83384e-05 1.04505e-06
-2.20995e-07 1.04505e-06 -4.71578e-06
0.000819399 3.41268e-06 1.1181e-06
3.41268e-06 -0.000110259 -1.94686e-06
1.1181e-06 -1.94686e-06 -0.000130865
0.00116311 1.61199e-06 6.68482e-07
1.61199e-06 5.89499e-05 -5.79525e-07
6.68482e-07 -5.79525e-07 2.44656e-05
0.00115726 -1.34862e-06 4.78585e-07
-1.34862e-06 5.81307e-05 -3.02211e-07
4.78585e-07 -3.02211e-07 1.29905e-05
0.00114115 -4.07675e-06 3.48945e-07
-4.07675e-06 4.51843e-05 -9.48618e-08
3.48945e-07 -9.48618e-08 -4.88805e-06
0.00118817 -4.19975e-06 2.72144e-07
-4.19975e-06 6.9082e-05 1.30915e-07
2.72144e-07 1.30915e-07 1.79318e-05
0.00116607 -4.55067e-06 4.1472e-08
-4.55067e-06 5.52048e-05 2.66985e-07
4.1472e-08 2.66985e-07 2.25218e-06
0.000973316 -6.94689e-06 -1.67449e-06
-6.94689e-06 -3.79311e-05 -2.31033e-06
-1.67449e-06 -2.31033e-06 -3.23543e-05
0.00103533 -4.4041e-06 -1.28282e-06
-4.4041e-06 -2.80147e-06 -1.25546e-06
-1.28282e-06 -1.25546e-06 -2.05881e-05
0.00118515 -2.0988e-06 1.95213e-07
-2.0988e-06 4.79562e-05 4.39414e-07
1.95213e-07 4.39414e-07 -6.47211e-06
0.00107686 -2.81397e-06 -8.74755e-07
-2.81397e-06 2.07265e-05 -6.97973e-07
-8.74755e-07 -6.97973e-07 -1.28118e-05
0.0010597 -2.69574e-06 -1.07942e-06
-2.69574e-06 1.53281e-05 -5.49992e-07
-1.07942e-06 -5.49992e-07 -1.93015e-05
0.00103504 -1.4731e-06 -4.91303e-07
-1.4731e-06 1.63241e-06 -3.17558e-07
-4.91303e-07 -3.17558e-07 -4.27221e-05
0.00115457 4.43138e-06 -2.47222e-07
4.43138e-06 4.36075e-05 -1.02104e-07
-2.47222e-07 -1.02104e-07 -9.56297e-06
0.00119375 2.15011e-06 5.88622e-07
2.15011e-06 4.47352e-05 7.23279e-07
5.88622e-07 7.23279e-07 -1.0628e-05
0.00108722 1.09313e-06 -4.41162e-07
1.09313e-06 3.1827e-05 -2.19675e-07
-4.41162e-07 -2.19675e-07 -1.46977e-05
0.0011123 5.30547e-06 -6.41667e-07
5.30547e-06 3.63985e-05 -1.47719e-07
-6.41667e-07 -1.47719e-07 -1.79397e-05
0.00122464 6.00836e-06 -4.06742e-07
6.00836e-06 7.92276e-05 -3.77492e-07
-4.06742e-07 -3.77492e-07 2.6724e-05
0.00104459 -3.77629e-06 3.13903e-08
-3.77629e-06 -1.28507e-06 -1.60769e-08
3.13903e-08 -1.60769e-08 -1.86958e-05
0.00108552 -2.31599e-06 -3.89939e-10
-2.31599e-06 2.19427e-05 -1.73687e-09
-3.89939e-10 -1.73687e-09 -1.09665e-05
0.00107913 8.57031e-07 -7.39713e-09
8.57031e-07 2.40638e-05 -4.06912e-08
-7.39713e-09 -4.06912e-08 -2.0893e-05
0.00111243 -1.26696e-06 -3.92701e-08
-1.26696e-06 3.79664e-05 1.01003e-08
-3.92701e-08 1.01003e-08 -5.4064e-06
0.00114325 1.26772e-06 -1.07439e-07
1.26772e-06 5.33074e-05 -2.37737e-07
-1.07439e-07 -2.37737e-07 3.67607e-06
0.00120338 -3.15632e-06 -2.27094e-07
-3.15632e-06 4.45963e-05 -3.83622e-07
-2.27094e-07 -3.83622e-07 -7.59284e-06
0.00116818 6.08969e-06 2.4662e-07
6.08969e-06 4.20992e-05 1.54331e-07
2.4662e-07 1.54331e-07 -1.29479e-05
0.00114056 4.13046e-06 2.33045e-08
4.13046e-06 1.63119e-05 2.338e-07
2.33045e-08 2.338e-07 -3.29894e-05
0.00106796 4.35301e-06 1.65965e-07
4.35301e-06 2.24943e-05 4.46586e-07
1.65965e-07 4.46586e-07 -3.19294e-05
0.00119075 6.8626e-06 5.18664e-08
6.8626e-06 6.40862e-05 -1.3538e-07
5.18664e-08 -1.3538e-07 6.38382e-06
0.00108967 -1.65674e-06 8.54567e-07
-1.65674e-06 2.13246e-05 7.7308e-07
8.54567e-07 7.7308e-07 -1.13615e-05
0.0010088 3.52806e-07 7.46754e-07
3.52806e-07 -1.53634e-05 6.24376e-07
7.46754e-07 6.24376e-07 -5.903e-05
0.00111063 3.67206e-06 1.4821e-07
3.67206e-06 4.01467e-05 -1.68193e-08
1.4821e-07 -1.68193e-08 -1.19955e-05
0.00104761 1.3507e-06 2.62494e-07
1.3507e-06 5.98902e-06 1.79531e-07
2.62494e-07 1.79531e-07 -4.40477e-05
0.00116508 1.75495e-06 -9.84033e-09
1.75495e-06 6.02608e-05 -3.00611e-07
-9.84033e-09 -3.00611e-07 7.33451e-06
0.00126823 -1.56955e-06 -1.08185e-06
-1.56955e-06 6.42909e-05 -6.21633e-07
-1.08185e-06 -6.21633e-07 2.00877e-05
0.00125108 7.71171e-06 -1.61145e-07
7.71171e-06 8.1517e-05 -8.64063e-07
-1.61145e-07 -8.64063e-07 2.62275e-05
0.00104777 5.34379e-06 -3.2947e-07
5.34379e-06 -3.30548e-05 -5.24249e-07
-3.2947e-07 -5.24249e-07 -8.0635e-05
0.00126276 5.47279e-06 3.68573e-07
5.47279e-06 0.000109587 7.49034e-07
3.68573e-07 7.49034e-07 5.1442e-05
0.00109656 6.94614e-06 -8.83495e-08
6.94614e-06 2.00767e-05 -2.29637e-07
-8.83495e-08 -2.29637e-07 -4.07874e-05
0.00104519 -3.25051e-06 -1.01057e-06
-3.25051e-06 -2.85822e-06 -1.4272e-06
-1.01057e-06 -1.4272e-06 -2.02118e-05
0.00101799 -1.35665e-06 1.85303e-07
-1.35665e-06 -1.39251e-05 3.48233e-07
1.85303e-07 3.48233e-07 -4.71833e-05
0.00102832 1.14883e-06 5.86046e-07
1.14883e-06 -7.59022e-06 7.22472e-07
5.86046e-07 7.22472e-07 -5.14039e-05
0.000948408 -1.39391e-06 -4.95615e-07
-1.39391e-06 -4.76651e-05 -9.02214e-07
-4.95615e-07 -9.02214e-07 -8.14366e-05
0.00109484 -1.20241e-06 1.58446e-08
-1.20241e-06 2.17963e-05 8.39065e-09
1.58446e-08 8.39065e-09 -1.09438e-05
0.00114246 3.40559e-07 -9.65975e-08
3.40559e-07 4.82376e-05 -3.73739e-07
-9.65975e-08 -3.73739e-07 5.03846e-06
0.00121723 2.41029e-06 1.68209e-07
2.41029e-06 8.61522e-05 -6.54194e-08
1.68209e-07 -6.54194e-08 3.64368e-05
0.00102115 -7.45204e-07 2.43548e-07
-7.45204e-07 -1.0419e-05 8.35485e-07
2.43548e-07 8.35485e-07 -5.42604e-05
0.00109755 -6.79416e-07 3.80577e-07
-6.79416e-07 2.18957e-05 9.05721e-07
3.80577e-07 9.05721e-07 -1.10086e-05
0.00106019 -1.26066e-06 4.12602e-07
-1.26066e-06 -1.56627e-06 1.57805e-06
4.12602e-07 1.57805e-06 -1.92678e-05
0.00105898 -1.71065e-06 4.27137e-08
-1.71065e-06 -1.14513e-06 -4.08014e-09
4.27137e-08 -4.08014e-09 -1.85207e-05
0.00148902 -3.24814e-06 6.19976e-07
-3.24814e-06 0.000199187 1.62347e-06
6.19976e-07 1.62347e-06 0.000208137
0.00105279 -2.31906e-06 -6.7825e-07
-2.31906e-06 -2.48236e-06 -1.5203e-06
-6.7825e-07 -1.5203e-06 -1.96669e-05
0.00150622 -4.19974e-06 -3.50119e-07
-4.19974e-06 0.00020991 -1.02329e-06
-3.50119e-07 -1.02329e-06 0.000218626
0.00122175 -5.27239e-06 2.06044e-06
-5.27239e-06 6.96864e-05 5.33677e-06
2.06044e-06 5.33677e-06 9.06084e-05
0.00152575 -5.12037e-06 -1.74633e-06
-5.12037e-06 0.000222208 -3.55192e-06
-1.74633e-06 -3.55192e-06 0.000230506
0.00117081 -6.48744e-06 8.53038e-07
-6.48744e-06 4.8243e-05 2.01234e-06
8.53038e-07 2.01234e-06 6.90303e-05
0.00214476 -7.84111e-06 -9.19988e-07
-7.84111e-06 0.000520149 -1.28695e-06
-9.19988e-07 -1.28695e-06 0.000545284
0.000979972 6.07268e-06 1.37463e-06
6.07268e-06 -3.88215e-05 -2.4302e-06
1.37463e-06 -2.4302e-06 -3.36502e-05
0.00098262 6.84666e-06 -7.07156e-08
6.84666e-06 -3.42788e-05 -2.21657e-08
-7.07156e-08 -2.21657e-08 -2.97707e-05
0.00224466 8.79387e-06 2.29891e-06
8.79387e-06 0.000571015 -3.16623e-06
2.29891e-06 -3.16623e-06 0.000595025
0.000986381 7.6593e-06 -1.99717e-06
7.6593e-06 -2.88798e-05 2.16081e-06
-1.99717e-06 2.16081e-06 -2.48509e-05
0.00221714 1.00128e-05 -6.89439e-08
1.00128e-05 0.000562587 -3.33909e-08
-6.89439e-08 -3.33909e-08 0.000586032
0.00217795 1.12433e-05 -2.92577e-06
1.12433e-05 0.000548576 2.91027e-06
-2.92577e-06 2.91027e-06 0.000571489
0.00115849 -4.28883e-06 2.38509e-07
-4.28883e-06 4.66297e-05 5.0733e-07
2.38509e-07 5.0733e-07 -7.82436e-06
0.00111137 -5.60321e-06 2.18373e-07
-5.60321e-06 5.52916e-05 4.27855e-08
2.18373e-07 4.27855e-08 -3.41382e-06
0.00120976 -6.86186e-06 7.91989e-07
-6.86186e-06 7.88045e-05 -3.29548e-07
7.91989e-07 -3.29548e-07 2.19104e-05
0.00116242 -8.33043e-06 -2.17952e-07
-8.33043e-06 8.95938e-05 7.72486e-07
-2.17952e-07 7.72486e-07 2.80229e-05
0.000956828 -5.56774e-06 2.81988e-07
-5.56774e-06 2.98629e-05 4.8003e-07
2.81988e-07 4.8003e-07 -2.75062e-05
0.000978993 1.3699e-07 -1.06617e-07
1.3699e-07 5.32659e-05 5.48836e-08
-1.06617e-07 5.48836e-08 -2.8305e-06
0.00101027 3.73509e-07 5.41254e-08
3.73509e-07 6.18146e-05 3.15832e-07
5.41254e-08 3.15832e-07 4.00536e-06
0.00101127 -5.76812e-06 1.0073e-07
-5.76812e-06 5.24674e-05 1.93132e-07
1.0073e-07 1.93132e-07 -6.72559e-06
0.00109145 -7.3868e-06 1.6136e-07
-7.3868e-06 3.95261e-05 -9.35351e-08
1.6136e-07 -9.35351e-08 -2.07078e-05
0.00118447 -9.29872e-06 -5.42788e-07
-9.29872e-06 0.000105082 2.13096e-07
-5.42788e-07 2.13096e-07 3.92661e-05
0.00115759 -5.44441e-06 -1.54736e-07
-5.44441e-06 3.41502e-05 3.382e-07
-1.54736e-07 3.382e-07 -1.76841e-05
0.0012648 -8.48817e-06 3.36315e-07
-8.48817e-06 0.000101886 -4.1565e-07
3.36315e-07 -4.1565e-07 4.41008e-05
0.00097551 1.32794e-06 -4.96225e-07
1.32794e-06 5.07358e-05 3.11318e-07
-4.96225e-07 3.11318e-07 -6.80343e-06
0.000981957 -6.56229e-06 -3.46133e-07
-6.56229e-06 4.0269e-05 -9.47286e-07
-3.46133e-07 -9.47286e-07 -2.23972e-05
0.00111362 -9.97945e-06 -7.78035e-07
-9.97945e-06 5.94201e-05 2.71066e-07
-7.78035e-07 2.71066e-07 -5.52789e-06
0.00135596 -6.99319e-06 -1.19173e-06
-6.99319e-06 0.000125104 2.31451e-07
-1.19173e-06 2.31451e-07 7.61351e-05
0.00106393 5.42184e-06 9.75219e-08
5.42184e-06 6.82336e-05 -9.50281e-07
9.75219e-08 -9.50281e-07 8.58554e-06
0.00118273 5.15841e-06 -1.39055e-07
5.15841e-06 7.50654e-05 -4.28559e-07
-1.39055e-07 -4.28559e-07 1.44109e-05
0.00115359 7.15783e-06 -2.73688e-07
7.15783e-06 7.61327e-05 -5.27184e-07
-2.73688e-07 -5.27184e-07 1.18884e-05
0.00124645 4.55271e-06 4.06579e-07
4.55271e-06 8.65714e-05 -1.2287e-07
4.06579e-07 -1.2287e-07 2.54468e-05
0.00108834 1.44565e-06 -1.05244e-06
1.44565e-06 2.70054e-05 5.15809e-07
-1.05244e-06 5.15809e-07 -9.8402e-06
0.00113262 -1.74556e-06 -3.74795e-07
-1.74556e-06 4.57694e-05 8.31216e-08
-3.74795e-07 8.31216e-08 -1.87912e-06
0.00119348 -5.11383e-06 -3.03199e-07
-5.11383e-06 6.59129e-05 1.65304e-07
-3.03199e-07 1.65304e-07 1.10563e-05
0.00124651 1.97615e-06 4.32975e-07
1.97615e-06 8.22432e-05 -2.03733e-07
4.32975e-07 -2.03733e-07 2.54999e-05
0.00119481 3.47501e-06 5.44904e-07
3.47501e-06 5.7346e-05 4.65754e-07
5.44904e-07 4.65754e-07 -2.51134e-06
0.00120445 1.33363e-07 9.252e-07
1.33363e-07 5.43134e-05 -2.29548e-07
9.252e-07 -2.29548e-07 7.94314e-07
0.00123735 -5.32569e-06 8.68375e-08
-5.32569e-06 7.3471e-05 -6.48694e-07
8.68375e-08 -6.48694e-07 1.88597e-05
0.00118038 -3.78704e-06 8.96928e-07
-3.78704e-06 3.75609e-05 -1.2636e-06
8.96928e-07 -1.2636e-06 -1.10358e-05
0.00112417 -1.69026e-06 -5.87993e-07
-1.69026e-06 3.95948e-05 2.50857e-07
-5.87993e-07 2.50857e-07 -5.13251e-06
0.00111078 -3.94182e-06 -5.53521e-07
-3.94182e-06 2.98579e-05 2.51287e-07
-5.53521e-07 2.51287e-07 -2.02074e-05
0.00115996 -1.42956e-06 -6.48608e-07
-1.42956e-06 5.91001e-05 4.27172e-07
-6.48608e-07 4.27172e-07 1.43276e-05
0.000824263 3.61095e-06 -1.20365e-06
3.61095e-06 -0.000106599 1.28943e-06
-1.20365e-06 1.28943e-06 -0.000127223
0.000936834 1.77958e-06 -6.21861e-07
1.77958e-06 -4.85295e-05 3.99235e-07
-6.21861e-07 3.99235e-07 -8.4503e-05
0.00105372 7.1695e-06 3.40592e-07
7.1695e-06 5.73415e-05 -3.94022e-07
3.40592e-07 -3.94022e-07 -4.72163e-06
0.00118716 6.52455e-06 -2.14779e-07
6.52455e-06 7.64672e-05 2.22797e-07
-2.14779e-07 2.22797e-07 1.3926e-05
0.00120473 5.00097e-06 1.4049e-07
5.00097e-06 6.6695e-05 1.31222e-07
1.4049e-07 1.31222e-07 5.04366e-06
0.00111942 -1.73863e-06 3.67005e-09
-1.73863e-06 3.87625e-05 7.01466e-09
3.67005e-09 7.01466e-09 -7.18001e-06
0.00115872 -4.78746e-06 1.19005e-07
-4.78746e-06 5.49171e-05 -1.90058e-07
1.19005e-07 -1.90058e-07 1.64427e-06
0.00120934 -6.06544e-06 -3.46093e-08
-6.06544e-06 6.86637e-05 9.13884e-08
-3.46093e-08 9.13884e-08 1.09843e-05
0.00122048 3.20821e-06 -6.02773e-08
3.20821e-06 6.42777e-05 2.86874e-08
-6.02773e-08 2.86874e-08 8.15552e-06
0.00119771 -5.18392e-06 -4.45987e-09
-5.18392e-06 4.76392e-05 -3.81319e-07
-4.45987e-09 -3.81319e-07 -4.8227e-06
0.00120982 -1.85615e-06 2.00327e-08
-1.85615e-06 4.93042e-05 -1.56167e-08
2.00327e-08 -1.56167e-08 1.27947e-06
0.000819132 3.46464e-06 1.41629e-07
3.46464e-06 -0.000110251 -5.19863e-07
1.41629e-07 -5.19863e-07 -0.00013082
0.00114768 -4.10515e-06 1.29523e-08
-4.10515e-06 4.81974e-05 3.35798e-08
1.29523e-08 3.35798e-08 -1.91527e-06
0.00115445 -4.52931e-06 -3.06442e-07
-4.52931e-06 4.87112e-05 3.32616e-07
-3.06442e-07 3.32616e-07 -4.02077e-06
0.00120561 -4.17862e-06 -1.68414e-07
-4.17862e-06 7.78295e-05 2.05721e-07
-1.68414e-07 2.05721e-07 2.69918e-05
0.00121331 -1.42326e-06 -5.78198e-08
-1.42326e-06 8.51183e-05 9.75065e-08
-5.78198e-08 9.75065e-08 4.02237e-05
0.00105227 1.51022e-06 -5.73681e-08
1.51022e-06 5.40746e-06 1.51805e-07
-5.73681e-08 1.51805e-07 -2.97015e-05
0.00117037 7.99767e-06 -9.43394e-07
7.99767e-06 0.000101943 1.44902e-06
-9.43394e-07 1.44902e-06 4.01015e-05
0.00117946 7.55464e-06 -4.40039e-07
7.55464e-06 7.58261e-05 5.21886e-07
-4.40039e-07 5.21886e-07 1.17169e-05
0.00125383 5.30126e-06 -1.00077e-06
5.30126e-06 8.74803e-05 -3.97131e-07
-1.00077e-06 -3.97131e-07 2.83183e-05
0.00118224 1.21761e-06 -1.06118e-06
1.21761e-06 3.64642e-05 1.26887e-07
-1.06118e-06 1.26887e-07 -1.34088e-05
0.00114071 -4.42196e-06 2.91832e-07
-4.42196e-06 4.65222e-05 -2.07113e-07
2.91832e-07 -2.07113e-07 -5.13497e-06
0.00122176 -4.68939e-06 -5.88075e-07
-4.68939e-06 4.68667e-05 7.7308e-07
-5.88075e-07 7.7308e-07 -6.97446e-07
0.00111677 -5.77672e-06 1.63192e-07
-5.77672e-06 3.24632e-05 -1.37012e-07
1.63192e-07 -1.37012e-07 -2.58312e-05
0.00123763 -6.52948e-06 6.43404e-08
-6.52948e-06 7.55963e-05 8.27045e-07
6.43404e-08 8.27045e-07 1.71273e-05
0.000816518 3.07706e-06 8.69711e-07
3.07706e-06 -0.000113914 -1.98699e-06
8.69711e-07 -1.98699e-06 -0.000133384
0.00116626 1.90643e-06 5.75308e-07
1.90643e-06 6.01976e-05 -6.39654e-07
5.75308e-07 -6.39654e-07 2.5048e-05
0.00126667 -1.42971e-06 1.60605e-07
-1.42971e-06 0.00011025 2.12549e-07
1.60605e-07 2.12549e-07 6.59565e-05
0.00113369 -4.00302e-06 4.0291e-07
-4.00302e-06 4.54502e-05 -3.94849e-07
4.0291e-07 -3.94849e-07 -7.10199e-06
0.00111099 -4.87915e-06 1.04504e-07
-4.87915e-06 2.91464e-05 3.58913e-08
1.04504e-07 3.58913e-08 -2.54918e-05
0.0011626 -5.03885e-06 2.41521e-07
-5.03885e-06 5.30002e-05 8.15277e-08
2.41521e-07 8.15277e-08 -2.45385e-06
0.00104185 -3.77524e-06 -1.17879e-06
-3.77524e-06 -2.58793e-06 -1.33648e-06
-1.17879e-06 -1.33648e-06 -1.99943e-05
0.00108625 -2.297e-06 -8.73304e-07
-2.297e-06 2.22965e-05 -7.3704e-07
-8.73304e-07 -7.3704e-07 -1.06329e-05
0.00120845 -2.92949e-06 5.42747e-07
-2.92949e-06 4.81179e-05 5.82975e-07
5.42747e-07 5.82975e-07 -4.22571e-06
0.00111658 -1.11693e-06 -5.90566e-07
-1.11693e-06 4.00758e-05 -3.43234e-07
-5.90566e-07 -3.43234e-07 -3.35523e-06
0.00110255 8.4553e-07 -5.71346e-07
8.4553e-07 3.58388e-05 -3.53464e-07
-5.71346e-07 -3.53464e-07 -8.77166e-06
0.00109573 1.19931e-06 -4.18919e-07
1.19931e-06 3.04007e-05 -3.90341e-07
-4.18919e-07 -3.90341e-07 -1.97702e-05
0.00116084 6.12286e-06 1.56564e-07
6.12286e-06 3.82351e-05 2.18632e-08
1.56564e-07 2.18632e-08 -1.6966e-05
0.00115296 3.90107e-06 7.66149e-07
3.90107e-06 2.15779e-05 8.64655e-07
7.66149e-07 8.64655e-07 -2.72148e-05
0.00101996 4.31836e-06 -1.55379e-07
4.31836e-06 3.56019e-07 -8.85835e-09
-1.55379e-07 -8.85835e-09 -5.43896e-05
0.00118516 6.84307e-06 -1.46052e-07
6.84307e-06 6.11757e-05 1.56522e-07
-1.46052e-07 1.56522e-07 3.11139e-06
0.00108847 -1.64275e-06 2.66506e-08
-1.64275e-06 2.07517e-05 -1.44586e-08
2.66506e-08 -1.44586e-08 -1.193e-05
0.00106476 3.63454e-07 1.74611e-07
3.63454e-07 1.18273e-05 2.41733e-07
1.74611e-07 2.41733e-07 -3.15482e-05
0.00115745 3.7387e-06 -4.04224e-08
3.7387e-06 6.29309e-05 -3.17478e-07
-4.04224e-08 -3.17478e-07 1.13978e-05
0.00109223 1.27948e-06 -1.19901e-07
1.27948e-06 2.77233e-05 2.51293e-08
-1.19901e-07 2.51293e-08 -2.20402e-05
0.00114072 1.86152e-06 -2.4873e-07
1.86152e-06 4.96049e-05 -3.94942e-07
-2.4873e-07 -3.94942e-07 -3.40467e-06
0.00127911 -1.87274e-06 -2.00847e-07
-1.87274e-06 7.00705e-05 -2.14561e-07
-2.00847e-07 -2.14561e-07 2.597e-05
0.00125092 7.67461e-06 1.09337e-07
7.67461e-06 7.97332e-05 -2.99018e-08
1.09337e-07 -2.99018e-08 2.45585e-05
0.0011065 5.26405e-06 -6.98018e-08
5.26405e-06 -9.75138e-07 4.89122e-07
-6.98018e-08 4.89122e-07 -4.74612e-05
0.00119537 5.3701e-06 1.98146e-07
5.3701e-06 7.85152e-05 3.78114e-07
1.98146e-07 3.78114e-07 2.00772e-05
0.00112322 7.0341e-06 -2.74838e-07
7.0341e-06 3.17235e-05 -3.73389e-08
-2.74838e-07 -3.73389e-08 -3.02043e-05
0.00102935 1.1441e-06 6.94563e-07
1.1441e-06 -7.36662e-06 7.13619e-07
6.94563e-07 7.13619e-07 -5.11925e-05
0.00105844 3.23886e-06 3.38711e-07
3.23886e-06 8.90179e-06 -3.55022e-08
3.38711e-07 -3.55022e-08 -4.19737e-05
0.00114449 4.16046e-06 2.90923e-08
4.16046e-06 5.46845e-05 -5.98589e-09
2.90923e-08 -5.98589e-09 -1.56916e-06
0.0010493 3.10728e-06 2.55226e-07
3.10728e-06 4.69694e-06 1.18585e-07
2.55226e-07 1.18585e-07 -4.98846e-05
0.00138924 -5.40819e-06 -1.07943e-06
-5.40819e-06 0.000137492 -3.78325e-08
-1.07943e-06 -3.78325e-08 9.11129e-05
0.00128118 2.99488e-06 -1.25309e-07
2.99488e-06 6.21782e-05 -4.74661e-07
-1.25309e-07 -4.74661e-07 2.10345e-05
0.00119229 7.5474e-06 6.53812e-08
7.5474e-06 5.2512e-05 -1.21816e-06
6.53812e-08 -1.21816e-06 -5.11146e-06
0.00105102 5.95925e-06 -3.10227e-08
5.95925e-06 7.45116e-06 2.79079e-07
-3.10227e-08 2.79079e-07 -5.5693e-05
0.00108544 -1.38857e-06 -5.31486e-07
-1.38857e-06 1.87593e-05 -4.78603e-07
-5.31486e-07 -4.78603e-07 -1.4036e-05
0.00109565 1.13033e-06 1.31976e-07
1.13033e-06 2.50777e-05 2.63311e-07
1.31976e-07 2.63311e-07 -1.82985e-05
0.00117078 3.15e-06 2.43129e-07
3.15e-06 6.3142e-05 1.33422e-07
2.43129e-07 1.33422e-07 1.31707e-05
0.00109172 -1.20892e-06 -4.15826e-07
-1.20892e-06 2.032e-05 -8.83343e-07
-4.15826e-07 -8.83343e-07 -1.2397e-05
0.00102817 4.1912e-07 -4.5393e-07
4.1912e-07 -7.01706e-06 -9.02649e-07
-4.5393e-07 -9.02649e-07 -5.0984e-05
0.00109585 -6.69557e-07 1.73244e-08
-6.69557e-07 2.10937e-05 4.05222e-09
1.73244e-08 4.05222e-09 -1.17979e-05
0.00114806 2.34105e-06 -1.01585e-07
2.34105e-06 5.26763e-05 -2.73466e-07
-1.01585e-07 -2.73466e-07 2.4241e-06
0.00107226 -6.31747e-07 7.37904e-08
-6.31747e-07 1.41806e-05 3.02752e-07
7.37904e-08 3.02752e-07 -2.9352e-05
0.00119626 3.26177e-06 8.93973e-08
3.26177e-06 7.57089e-05 -1.93191e-07
8.93973e-08 -1.93191e-07 2.14733e-05
0.00106222 4.90456e-07 2.27316e-07
4.90456e-07 1.13701e-05 5.19383e-07
2.27316e-07 5.19383e-07 -3.95938e-05
0.00102975 3.70833e-07 2.30504e-07
3.70833e-07 -7.84681e-06 7.65484e-07
2.30504e-07 7.65484e-07 -5.14117e-05
0.00109424 -6.41104e-07 2.84879e-07
-6.41104e-07 1.99266e-05 8.87116e-07
2.84879e-07 8.87116e-07 -1.3475e-05
0.00106114 -8.11285e-07 1.87635e-07
-8.11285e-07 -1.8504e-06 1.58598e-06
1.87635e-07 1.58598e-06 -1.97578e-05
0.00106091 -1.26939e-06 6.05979e-08
-1.26939e-06 -1.18177e-06 2.03808e-10
6.05979e-08 2.03808e-10 -1.89017e-05
0.00149612 -2.27562e-06 4.23077e-07
-2.27562e-06 0.000200758 1.65733e-06
4.23077e-07 1.65733e-06 0.000209672
0.00105812 -1.71526e-06 -5.18344e-07
-1.71526e-06 -1.52268e-06 -1.55495e-06
-5.18344e-07 -1.55495e-06 -1.89038e-05
0.00151209 -3.21308e-06 -2.6129e-07
-3.21308e-06 0.000210373 -1.04096e-06
-2.6129e-07 -1.04096e-06 0.000219148
0.00122859 -4.05667e-06 1.58733e-06
-4.05667e-06 6.99343e-05 5.44524e-06
1.58733e-06 5.44524e-06 9.10831e-05
0.00152927 -4.17506e-06 -1.41954e-06
-4.17506e-06 0.000221146 -3.63191e-06
-1.41954e-06 -3.63191e-06 0.000229699
0.00117714 -5.29323e-06 6.85035e-07
-5.29323e-06 4.79634e-05 2.04385e-06
6.85035e-07 2.04385e-06 6.91581e-05
0.00112765 -6.50071e-06 -7.39965e-07
-6.50071e-06 2.69839e-05 -1.19739e-06
-7.39965e-07 -1.19739e-06 4.80609e-05
0.000987375 5.15472e-06 1.17734e-06
5.15472e-06 -3.87227e-05 -2.46895e-06
1.17734e-06 -2.46895e-06 -3.27068e-05
0.000991167 6.04783e-06 -7.98453e-08
6.04783e-06 -3.35151e-05 -8.81905e-09
-7.98453e-08 -8.81905e-09 -2.83991e-05
0.00222428 7.63087e-06 1.97903e-06
7.63087e-06 0.000557113 -3.2174e-06
1.97903e-06 -3.2174e-06 0.000581887
0.000992439 6.82826e-06 -1.79688e-06
6.82826e-06 -2.96167e-05 2.27479e-06
-1.79688e-06 2.27479e-06 -2.51412e-05
0.00221337 8.8358e-06 -8.01587e-08
8.8358e-06 0.000556472 -3.08309e-08
-8.01587e-08 -3.08309e-08 0.000580557
0.00217876 1.00609e-05 -2.69437e-06
1.00609e-05 0.000544582 3.0218e-06
-2.69437e-06 3.0218e-06 0.000568148
0.00115915 -5.44957e-06 8.01682e-07
-5.44957e-06 3.55333e-05 7.25248e-07
8.01682e-07 7.25248e-07 -1.61685e-05
0.00105445 -7.36819e-06 2.79765e-07
-7.36819e-06 2.28466e-05 7.96498e-08
2.79765e-07 7.96498e-08 -3.71528e-05
0.00120029 -8.21855e-06 1.33842e-06
-8.21855e-06 7.02357e-05 -1.23779e-06
1.33842e-06 -1.23779e-06 1.17526e-05
0.00112777 -9.2921e-06 -8.51103e-07
-9.2921e-06 7.81275e-05 7.12281e-07
-8.51103e-07 7.12281e-07 1.07939e-05
0.0010325 -5.72202e-06 -7.00246e-08
-5.72202e-06 6.00305e-05 9.78064e-07
-7.00246e-08 9.78064e-07 1.11995e-06
0.000982376 4.06777e-07 3.23915e-07
4.06777e-07 5.01847e-05 -4.05867e-08
3.23915e-07 -4.05867e-08 -7.45778e-06
0.00100272 1.46855e-06 2.25663e-07
1.46855e-06 5.88926e-05 -3.10959e-08
2.25663e-07 -3.10959e-08 7.32862e-07
0.00104255 -6.70088e-06 -4.25263e-07
-6.70088e-06 6.50751e-05 5.92426e-07
-4.25263e-07 5.92426e-07 2.55225e-06
0.00104479 -9.73565e-06 1.07011e-07
-9.73565e-06 2.91533e-05 1.87113e-07
1.07011e-07 1.87113e-07 -3.49487e-05
0.00122431 -7.04369e-06 3.02386e-07
-7.04369e-06 6.38711e-05 1.10775e-07
3.02386e-07 1.10775e-07 1.43032e-05
0.000989445 1.55153e-06 -4.59815e-07
1.55153e-06 4.75829e-05 -5.25612e-07
-4.59815e-07 -5.25612e-07 -1.16147e-05
0.000914229 -1.07704e-05 -7.68524e-07
-1.07704e-05 1.20738e-05 -4.99198e-07
-7.68524e-07 -4.99198e-07 -5.35602e-05
0.00119583 -9.20333e-06 -1.56205e-06
-9.20333e-06 7.99491e-05 5.94524e-07
-1.56205e-06 5.94524e-07 2.3467e-05
0.00108524 7.24301e-06 4.92379e-07
7.24301e-06 6.77557e-05 -1.56545e-06
4.92379e-07 -1.56545e-06 5.06175e-06
0.00121296 6.41106e-06 2.84378e-07
6.41106e-06 8.96997e-05 -2.89784e-07
2.84378e-07 -2.89784e-07 2.73768e-05
0.00120329 5.02876e-06 6.92937e-07
5.02876e-06 6.59198e-05 8.05125e-08
6.92937e-07 8.05125e-08 4.629e-06
0.0011268 -1.48908e-06 -5.39479e-07
-1.48908e-06 4.19591e-05 2.91069e-07
-5.39479e-07 2.91069e-07 -3.97522e-06
0.00124367 -4.89385e-06 -1.56757e-07
-4.89385e-06 9.52963e-05 2.2983e-08
-1.56757e-07 2.2983e-08 4.25504e-05
0.00120299 -6.05097e-06 -1.7791e-07
-6.05097e-06 6.65509e-05 -6.61385e-08
-1.7791e-07 -6.61385e-08 8.62598e-06
0.00122192 3.21997e-06 8.06148e-07
3.21997e-06 6.50662e-05 -5.69738e-08
8.06148e-07 -5.69738e-08 8.57892e-06
0.00122857 -2.34014e-06 1.20941e-06
-2.34014e-06 5.88046e-05 -3.70938e-07
1.20941e-06 -3.70938e-07 1.06747e-05
0.00119994 -4.969e-06 6.53285e-08
-4.969e-06 4.90988e-05 -1.60759e-06
6.53285e-08 -1.60759e-06 -2.78431e-06
0.0011542 -4.13265e-06 -3.09537e-07
-4.13265e-06 5.12055e-05 1.54127e-07
-3.09537e-07 1.54127e-07 1.05273e-06
0.00114239 -4.50463e-06 -6.34669e-07
-4.50463e-06 4.20432e-05 4.35811e-07
-6.34669e-07 4.35811e-07 -1.04711e-05
0.00122296 -4.15724e-06 -6.20301e-07
-4.15724e-06 8.65234e-05 2.74626e-07
-6.20301e-07 2.74626e-07 3.59991e-05
0.000818909 3.51906e-06 -7.91267e-07
3.51906e-06 -0.000110226 9.15194e-07
-7.91267e-07 9.15194e-07 -0.000130757
0.0012699 -1.50659e-06 -5.29066e-07
-1.50659e-06 0.000112377 5.28337e-07
-5.29066e-07 5.28337e-07 6.77245e-05
0.000941426 1.40133e-06 -8.1846e-07
1.40133e-06 -4.81321e-05 8.56303e-07
-8.1846e-07 8.56303e-07 -8.3866e-05
0.00111634 7.94396e-06 -1.52754e-07
7.94396e-06 8.15999e-05 3.64111e-07
-1.52754e-07 3.64111e-07 2.05305e-05
0.00115322 7.49512e-06 -7.34424e-08
7.49512e-06 5.98434e-05 2.11048e-07
-7.34424e-08 2.11048e-07 -4.37383e-06
0.0012163 5.39382e-06 -1.13543e-07
5.39382e-06 7.0346e-05 -1.38648e-08
-1.13543e-07 -1.38648e-08 1.07789e-05
0.00114559 -4.44018e-06 -6.39517e-10
-4.44018e-06 4.86882e-05 8.83056e-09
-6.39517e-10 8.83056e-09 -2.97559e-06
0.00114439 -5.77636e-06 -2.74424e-09
-5.77636e-06 4.60128e-05 1.61e-08
-2.74424e-09 1.61e-08 -1.19394e-05
0.001209 -6.27497e-06 -1.68239e-07
-6.27497e-06 6.29373e-05 1.56035e-07
-1.68239e-07 1.56035e-07 4.9651e-06
0.00123116 1.18918e-06 1.79342e-07
1.18918e-06 5.96665e-05 1.61673e-07
1.79342e-07 1.61673e-07 1.0326e-05
0.00121621 -4.70008e-06 -2.45042e-07
-4.70008e-06 4.48389e-05 -3.8501e-07
-2.45042e-07 -3.8501e-07 -2.96881e-06
0.000936841 3.08417e-06 1.32713e-07
3.08417e-06 -5.61265e-05 -5.05423e-07
1.32713e-07 -5.05423e-07 -7.48529e-05
0.00116408 1.99086e-06 -6.45791e-08
1.99086e-06 5.95642e-05 1.58727e-07
-6.45791e-08 1.58727e-07 2.43382e-05
0.00111799 -4.84493e-06 -1.18183e-07
-4.84493e-06 3.24945e-05 1.81297e-07
-1.18183e-07 1.81297e-07 -2.19472e-05
0.00117222 -5.07927e-06 -6.26549e-08
-5.07927e-06 5.75916e-05 5.12887e-08
-6.26549e-08 5.12887e-08 2.21376e-06
0.00114441 -3.95567e-06 1.07183e-07
-3.95567e-06 5.08741e-05 -1.8602e-07
1.07183e-07 -1.8602e-07 -1.4548e-06
0.00122021 -1.52307e-06 -3.01209e-07
-1.52307e-06 8.73944e-05 5.75302e-07
-3.01209e-07 5.75302e-07 4.2774e-05
0.00107699 8.45879e-06 1.14474e-07
8.45879e-06 6.28586e-05 1.16357e-06
1.14474e-07 1.16357e-06 3.37171e-06
0.00123892 8.52702e-06 -2.15621e-07
8.52702e-06 9.96412e-05 -8.00309e-08
-2.15621e-07 -8.00309e-08 3.2288e-05
0.00119778 3.78699e-06 -1.46712e-06
3.78699e-06 5.24121e-05 -4.84137e-07
-1.46712e-06 -4.84137e-07 1.30337e-06
0.00127573 -2.73844e-06 -9.5697e-07
-2.73844e-06 6.58257e-05 4.52909e-07
-9.5697e-07 4.52909e-07 2.22695e-05
0.00110571 -5.36198e-06 3.69624e-08
-5.36198e-06 2.8866e-05 -1.3311e-08
3.69624e-08 -1.3311e-08 -2.78934e-05
0.00125091 -6.42666e-06 1.07418e-07
-6.42666e-06 7.10162e-05 1.58268e-06
1.07418e-07 1.58268e-06 1.65698e-05
0.00123565 -6.62593e-06 6.52143e-09
-6.62593e-06 8.58589e-05 3.10928e-08
6.52143e-09 3.10928e-08 2.53427e-05
0.00105506 2.12906e-06 7.84887e-07
2.12906e-06 -2.50198e-06 -1.46928e-06
7.84887e-07 -1.46928e-06 -1.9825e-05
0.00109266 9.03988e-07 1.82201e-07
9.03988e-07 1.89239e-05 -9.63859e-07
1.82201e-07 -9.63859e-07 -1.43715e-05
0.00091563 2.30084e-06 4.51607e-07
2.30084e-06 -6.04379e-05 -1.27591e-06
4.51607e-07 -1.27591e-06 -9.58799e-05
0.00118377 6.40604e-07 2.07919e-07
6.40604e-07 7.10248e-05 -2.80098e-08
2.07919e-07 -2.80098e-08 2.49414e-05
0.00114248 -3.89658e-06 4.81928e-07
-3.89658e-06 4.96203e-05 -4.13837e-07
4.81928e-07 -4.13837e-07 -2.82921e-06
0.00117998 -4.82119e-06 3.05273e-07
-4.82119e-06 6.53264e-05 3.04687e-08
3.05273e-07 3.04687e-08 8.40375e-06
0.00115745 -5.60408e-06 2.08714e-07
-5.60408e-06 5.24819e-05 -1.86204e-07
2.08714e-07 -1.86204e-07 -4.38749e-06
0.00124724 -5.74536e-06 -8.87762e-08
-5.74536e-06 9.59126e-05 3.79766e-07
-8.87762e-08 3.79766e-07 3.72164e-05
0.00108728 -1.6296e-06 -7.98286e-07
-1.6296e-06 2.01793e-05 -7.87668e-07
-7.98286e-07 -7.87668e-07 -1.24977e-05
0.00111988 8.02243e-07 -4.37487e-07
8.02243e-07 3.8621e-05 -1.41767e-07
-4.37487e-07 -1.41767e-07 -4.46232e-06
0.00129152 -2.18573e-06 7.82767e-07
-2.18573e-06 7.65816e-05 3.57353e-07
7.82767e-07 3.57353e-07 3.25793e-05
0.00113797 1.318e-06 -4.77301e-07
1.318e-06 4.99356e-05 -9.44623e-08
-4.77301e-07 -9.44623e-08 4.48689e-07
0.00120409 3.80007e-06 -3.95963e-07
3.80007e-06 8.56074e-05 -7.00916e-07
-3.95963e-07 -7.00916e-07 3.46857e-05
0.00111059 1.6385e-06 -3.92327e-07
1.6385e-06 3.6269e-05 -4.9103e-07
-3.92327e-07 -4.9103e-07 -1.68171e-05
0.0012492 7.63977e-06 5.05687e-07
7.63977e-06 7.7198e-05 5.74697e-07
5.05687e-07 5.74697e-07 2.21415e-05
0.00116719 5.18136e-06 2.94777e-07
5.18136e-06 3.20264e-05 1.5501e-06
2.94777e-07 1.5501e-06 -1.3373e-05
0.00112732 5.26257e-06 9.6568e-08
5.26257e-06 4.71144e-05 1.66276e-07
9.6568e-08 1.66276e-07 -1.16137e-05
0.00114624 7.10996e-06 -3.62967e-07
7.10996e-06 4.15796e-05 1.94304e-07
-3.62967e-07 1.94304e-07 -2.13973e-05
0.00102183 1.12337e-06 1.59422e-07
1.12337e-06 -1.07854e-05 2.59686e-07
1.59422e-07 2.59686e-07 -5.4591e-05
0.00110915 3.2987e-06 -1.28978e-07
3.2987e-06 3.32295e-05 -2.56491e-07
-1.28978e-07 -2.56491e-07 -1.71865e-05
0.00117018 4.19178e-06 -8.94192e-08
4.19178e-06 6.73405e-05 -2.78971e-07
-8.94192e-08 -2.78971e-07 1.14892e-05
0.00112307 2.64344e-06 4.21924e-08
2.64344e-06 3.97238e-05 9.93949e-10
4.21924e-08 9.93949e-10 -1.46189e-05
0.00127362 -5.39138e-06 1.17861e-07
-5.39138e-06 8.24096e-05 -3.45857e-07
1.17861e-07 -3.45857e-07 3.58518e-05
0.00119652 2.80633e-06 2.63789e-07
2.80633e-06 2.72562e-05 -6.39074e-08
2.63789e-07 -6.39074e-08 -1.4695e-05
0.00129718 7.7175e-06 -2.64712e-07
7.7175e-06 0.000100807 -7.25046e-08
-2.64712e-07 -7.25046e-08 4.36179e-05
0.00110311 6.18408e-06 1.0919e-07
6.18408e-06 3.08335e-05 1.60745e-07
1.0919e-07 1.60745e-07 -3.24911e-05
0.00117511 3.38834e-06 1.64032e-07
3.38834e-06 6.50406e-05 -5.11677e-08
1.64032e-07 -5.11677e-08 1.4724e-05
0.00112702 -1.02261e-05 -2.48475e-06
-1.02261e-05 6.10686e-05 -7.96895e-07
-2.48475e-06 -7.96895e-07 7.44037e-06
0.00123668 4.5363e-06 3.78404e-07
4.5363e-06 9.3692e-05 2.2325e-07
3.78404e-07 2.2325e-07 3.8398e-05
0.00118506 5.30665e-06 4.94689e-08
5.30665e-06 6.98828e-05 1.77445e-07
4.94689e-08 1.77445e-07 1.04882e-05
0.00154919 -2.60148e-07 -1.4012e-07
-2.60148e-07 0.00018421 -8.79754e-07
-1.4012e-07 -8.79754e-07 0.000146763
0.00111022 7.37779e-06 1.12961e-06
7.37779e-06 -4.44268e-06 -1.5484e-06
1.12961e-06 -1.5484e-06 -5.86176e-05
0.00118376 7.16415e-06 -2.44561e-08
7.16415e-06 6.69394e-05 1.31068e-07
-2.44561e-08 1.31068e-07 2.15894e-06
0.00116355 1.1137e-06 -3.25642e-07
1.1137e-06 5.80152e-05 -1.97665e-07
-3.25642e-07 -1.97665e-07 1.50747e-05
0.00116598 3.13396e-06 -4.23293e-08
3.13396e-06 6.10315e-05 -6.51575e-08
-4.23293e-08 -6.51575e-08 1.10336e-05
0.00117085 3.57819e-06 9.3651e-08
3.57819e-06 6.39844e-05 3.27647e-08
9.3651e-08 3.27647e-08 9.39387e-06
0.00109409 -6.58769e-07 -3.4597e-07
-6.58769e-07 2.02602e-05 -8.7666e-07
-3.4597e-07 -8.7666e-07 -1.26185e-05
0.00112315 -4.96865e-07 -1.56869e-07
-4.96865e-07 3.86867e-05 -2.57319e-07
-1.56869e-07 -2.57319e-07 -4.53675e-06
0.00107817 2.20934e-06 -3.58657e-07
2.20934e-06 1.88697e-05 -5.21382e-07
-3.58657e-07 -5.21382e-07 -3.19184e-05
0.00109654 -6.42312e-07 4.94867e-08
-6.42312e-07 2.10708e-05 5.71142e-10
4.94867e-08 5.71142e-10 -1.23604e-05
0.00102768 2.06125e-07 2.80762e-08
2.06125e-07 -8.724e-06 2.8829e-07
2.80762e-08 2.8829e-07 -5.22564e-05
0.00115282 3.17008e-06 -1.40978e-07
3.17008e-06 5.50186e-05 -1.82662e-07
-1.40978e-07 -1.82662e-07 4.40372e-07
0.00115179 7.06593e-07 8.70133e-08
7.06593e-07 5.45489e-05 2.18118e-07
8.70133e-08 2.18118e-07 4.13545e-06
0.00118629 3.55683e-06 -2.05673e-08
3.55683e-06 7.0829e-05 -3.57671e-07
-2.05673e-08 -3.57671e-07 1.40234e-05
0.00111822 2.29488e-06 2.22852e-07
2.29488e-06 3.7679e-05 2.25667e-08
2.22852e-07 2.25667e-08 -1.78e-05
0.00115752 1.42041e-06 2.77225e-08
1.42041e-06 5.57464e-05 3.5736e-07
2.77225e-08 3.5736e-07 6.03364e-06
0.00111694 1.34637e-07 2.18571e-07
1.34637e-07 3.39224e-05 4.76805e-07
2.18571e-07 4.76805e-07 -9.77931e-06
0.00109404 -7.93831e-07 1.21016e-07
-7.93831e-07 1.96533e-05 8.9592e-07
1.21016e-07 8.9592e-07 -1.42581e-05
0.00106299 -1.68565e-07 1.46046e-08
-1.68565e-07 -1.40798e-06 1.57792e-06
1.46046e-08 1.57792e-06 -1.94163e-05
0.00106265 -8.19043e-07 4.22573e-08
-8.19043e-07 -1.10251e-06 4.86991e-09
4.22573e-08 4.86991e-09 -1.90294e-05
0.001498 -1.2448e-06 2.05417e-07
-1.2448e-06 0.000200226 1.6675e-06
2.05417e-07 1.6675e-06 0.000209184
0.00106154 -1.27839e-06 -2.95689e-07
-1.27839e-06 -8.39662e-07 -1.58055e-06
-2.95689e-07 -1.58055e-06 -1.85777e-05
0.00151765 -2.24609e-06 -1.65054e-07
-2.24609e-06 0.000211172 -1.0504e-06
-1.65054e-07 -1.0504e-06 0.000219939
0.00123426 -2.82477e-06 1.0633e-06
-2.82477e-06 7.01654e-05 5.50952e-06
1.0633e-06 5.50952e-06 9.14969e-05
0.00153509 -3.18759e-06 -1.07537e-06
-3.18759e-06 0.000221538 -3.70947e-06
-1.07537e-06 -3.70947e-06 0.000230137
0.00118372 -4.06551e-06 5.20432e-07
-4.06551e-06 4.82257e-05 2.07554e-06
5.20432e-07 2.07554e-06 6.96367e-05
0.00113344 -5.29969e-06 -6.01695e-07
-5.29969e-06 2.6647e-05 -1.24088e-06
-6.01695e-07 -1.24088e-06 4.81153e-05
0.00105601 1.73632e-06 4.04103e-07
1.73632e-06 -3.09863e-06 -1.5843e-06
4.04103e-07 -1.5843e-06 -2.01905e-05
0.000997933 4.06323e-06 1.02729e-06
4.06323e-06 -3.66914e-05 -2.56295e-06
1.02729e-06 -2.56295e-06 -3.01612e-05
0.000998037 5.12848e-06 -4.1115e-08
5.12848e-06 -3.36644e-05 -5.42015e-12
-4.1115e-08 -5.42015e-12 -2.77134e-05
0.00220859 6.40406e-06 1.69751e-06
6.40406e-06 0.000545771 -3.27436e-06
1.69751e-06 -3.27436e-06 0.000571256
0.00100239 6.0242e-06 -1.53055e-06
6.0242e-06 -2.8194e-05 2.39015e-06
-1.53055e-06 2.39015e-06 -2.31338e-05
0.00220141 7.66473e-06 -8.6325e-08
7.66473e-06 0.000546633 -2.63602e-08
-8.6325e-08 -2.63602e-08 0.000571416
0.00218254 8.87803e-06 -2.44991e-06
8.87803e-06 0.000542139 3.12634e-06
-2.44991e-06 3.12634e-06 0.0005663
0.00109395 -7.08848e-06 1.1428e-06
-7.08848e-06 3.24746e-06 -2.31687e-07
1.1428e-06 -2.31687e-07 -4.69225e-05
0.000980512 -9.49002e-06 5.38967e-07
-9.49002e-06 1.03465e-06 -2.27473e-07
5.38967e-07 -2.27473e-07 -6.22277e-05
0.00110635 -6.84295e-06 9.00385e-08
-6.84295e-06 9.14481e-05 1.66372e-06
9.00385e-08 1.66372e-06 2.90572e-05
0.00103069 1.61253e-06 4.78774e-07
1.61253e-06 6.74189e-05 -4.27023e-07
4.78774e-07 -4.27023e-07 8.63592e-06
0.00101633 1.57326e-06 5.97649e-08
1.57326e-06 6.16575e-05 -4.54332e-07
5.97649e-08 -4.54332e-07 2.8835e-06
0.000980433 -1.06824e-05 1.48121e-08
-1.06824e-05 4.36605e-05 4.19775e-07
1.48121e-08 4.19775e-07 -2.23569e-05
0.00115241 -9.22512e-06 -2.60383e-07
-9.22512e-06 6.13986e-05 1.99077e-07
-2.60383e-07 1.99077e-07 5.87999e-06
0.00100319 -5.69291e-07 -2.8531e-07
-5.69291e-07 5.50925e-05 -1.29222e-06
-2.8531e-07 -1.29222e-06 -5.69193e-06
0.00092277 -1.15762e-05 -2.21019e-06
-1.15762e-05 3.47483e-06 2.75223e-07
-2.21019e-06 2.75223e-07 -5.9049e-05
0.00123901 -1.30735e-05 -1.69629e-06
-1.30735e-05 0.000148472 -5.59335e-07
-1.69629e-06 -5.59335e-07 0.000101774
0.00105978 7.88507e-06 7.1454e-07
7.88507e-06 6.01268e-05 -6.87116e-07
7.1454e-07 -6.87116e-07 -1.7304e-07
0.00113142 7.43637e-06 1.82939e-07
7.43637e-06 4.60146e-05 -4.01461e-07
1.82939e-07 -4.01461e-07 -1.8325e-05
0.00117192 5.48711e-06 8.23658e-07
5.48711e-06 5.00883e-05 1.88023e-07
8.23658e-07 1.88023e-07 -9.88371e-06
0.00114989 -4.45768e-06 -2.74394e-07
-4.45768e-06 5.05906e-05 2.13482e-07
-2.74394e-07 2.13482e-07 -1.08013e-06
0.00117067 -5.77096e-06 -1.10477e-07
-5.77096e-06 5.89236e-05 1.96259e-07
-1.10477e-07 1.96259e-07 1.31683e-06
0.00117797 -6.01037e-06 -5.01352e-08
-6.01037e-06 4.90951e-05 -6.45257e-07
-5.01352e-08 -6.45257e-07 -8.36856e-06
0.00128441 1.1474e-06 1.72128e-06
1.1474e-06 8.48881e-05 8.90399e-08
1.72128e-06 8.90399e-08 3.60735e-05
0.0012149 -4.71184e-06 -3.58597e-08
-4.71184e-06 4.48138e-05 -1.38245e-06
-3.58597e-08 -1.38245e-06 -3.24912e-06
0.00112501 -4.81163e-06 -3.51024e-07
-4.81163e-06 3.58542e-05 2.86408e-07
-3.51024e-07 2.86408e-07 -1.83908e-05
0.00118284 -5.12083e-06 -2.70651e-07
-5.12083e-06 6.26435e-05 1.84102e-08
-2.70651e-07 1.84102e-08 7.34147e-06
0.00115482 -3.90296e-06 -2.48652e-07
-3.90296e-06 5.61423e-05 -2.44802e-08
-2.48652e-07 -2.44802e-08 4.03838e-06
0.00105682 3.09143e-06 -6.30635e-07
3.09143e-06 1.52682e-06 9.58142e-07
-6.30635e-07 9.58142e-07 -1.64588e-05
0.00116148 2.09531e-06 -6.70752e-07
2.09531e-06 5.87398e-05 9.70477e-07
-6.70752e-07 9.70477e-07 2.34374e-05
0.00117135 -1.6063e-06 -7.66346e-07
-1.6063e-06 6.34162e-05 9.55673e-07
-7.66346e-07 9.55673e-07 1.84728e-05
0.00101436 8.07941e-06 -6.44951e-08
8.07941e-06 3.09957e-05 -4.3848e-08
-6.44951e-08 -4.3848e-08 -2.97827e-05
0.00105834 2.12768e-06 2.8444e-08
2.12768e-06 -9.41481e-07 -3.3912e-09
2.8444e-08 -3.3912e-09 -1.82814e-05
0.0010297 9.45656e-07 -1.43072e-07
9.45656e-07 -1.15128e-05 -3.63956e-08
-1.43072e-07 -3.63956e-08 -4.51763e-05
0.00119699 8.491e-06 4.85315e-08
8.491e-06 7.89088e-05 4.80367e-07
4.85315e-08 4.80367e-07 1.23344e-05
0.00119806 3.88008e-06 -1.3447e-07
3.88008e-06 5.3796e-05 -1.58336e-07
-1.3447e-07 -1.58336e-07 1.33855e-06
0.00110707 -5.29266e-06 -7.37795e-08
-5.29266e-06 2.95863e-05 1.81338e-07
-7.37795e-08 1.81338e-07 -2.68951e-05
0.00120092 -6.55531e-06 -6.55341e-08
-6.55531e-06 6.98706e-05 7.54479e-08
-6.55341e-08 7.54479e-08 9.3015e-06
0.00119229 -6.22776e-06 1.46331e-07
-6.22776e-06 4.31818e-05 1.08659e-07
1.46331e-07 1.08659e-07 -1.09927e-05
0.0012803 -2.99899e-06 5.45693e-08
-2.99899e-06 6.7709e-05 -2.38893e-07
5.45693e-08 -2.38893e-07 2.43418e-05
0.00112295 2.34596e-06 6.28767e-08
2.34596e-06 3.88393e-05 -3.57588e-07
6.28767e-08 -3.57588e-07 4.58856e-06
0.00117362 5.52979e-07 -1.12934e-07
5.52979e-07 6.64954e-05 3.50973e-07
-1.12934e-07 3.50973e-07 2.03339e-05
0.00117808 -5.63055e-06 1.30725e-07
-5.63055e-06 6.19352e-05 -1.23967e-07
1.30725e-07 -1.23967e-07 5.04323e-06
0.00119726 -5.66979e-06 -1.77205e-07
-5.66979e-06 7.1565e-05 9.44577e-08
-1.77205e-07 9.44577e-08 1.29727e-05
0.00114339 -4.83303e-06 3.76769e-08
-4.83303e-06 4.72371e-05 4.63192e-08
3.76769e-08 4.63192e-08 -1.00649e-05
0.00114678 -3.90428e-06 1.28735e-07
-3.90428e-06 5.15182e-05 -2.56623e-07
1.28735e-07 -2.56623e-07 -8.33337e-07
0.00122994 9.26589e-06 5.39818e-07
9.26589e-06 0.000134513 1.16083e-06
5.39818e-07 1.16083e-06 6.30667e-05
0.00122091 8.40676e-06 -7.73662e-07
8.40676e-06 8.66432e-05 -9.10796e-07
-7.73662e-07 -9.10796e-07 2.39039e-05
0.00124691 -1.66515e-07 -1.85938e-06
-1.66515e-07 5.29484e-05 1.04099e-08
-1.85938e-06 1.04099e-08 1.35881e-05
0.00127339 -6.43601e-06 -1.26232e-07
-6.43601e-06 6.6772e-05 1.32008e-06
-1.26232e-07 1.32008e-06 1.87726e-05
0.00116552 -6.1534e-06 -2.78967e-08
-6.1534e-06 5.69225e-05 -1.46325e-07
-2.78967e-08 -1.46325e-07 -2.35959e-06
0.00126282 -7.23054e-06 -1.03818e-07
-7.23054e-06 9.42304e-05 6.85512e-07
-1.03818e-07 6.85512e-07 3.32868e-05
0.000946613 1.11076e-06 2.87755e-07
1.11076e-06 -5.18322e-05 -1.42615e-06
2.87755e-07 -1.42615e-06 -8.51714e-05
0.00108837 8.28587e-07 5.73921e-07
8.28587e-07 1.75916e-05 -8.41553e-07
5.73921e-07 -8.41553e-07 -1.57623e-05
0.00125007 5.48589e-07 1.11612e-07
5.48589e-07 9.70196e-05 1.38698e-07
1.11612e-07 1.38698e-07 5.42076e-05
0.000982216 8.93176e-07 3.59907e-07
8.93176e-07 -2.37517e-05 -5.08969e-07
3.59907e-07 -5.08969e-07 -7.1127e-05
0.00123328 -2.22167e-06 4.22472e-07
-2.22167e-06 9.415e-05 -7.6008e-08
4.22472e-07 -7.6008e-08 4.16522e-05
0.00106925 -4.81325e-06 1.02776e-07
-4.81325e-06 1.28355e-05 -8.16715e-08
1.02776e-07 -8.16715e-08 -4.65155e-05
0.00122935 -5.63397e-06 2.91407e-07
-5.63397e-06 9.05495e-05 2.41042e-07
2.91407e-07 2.41042e-07 2.91184e-05
0.0011391 -6.40228e-06 -1.33427e-07
-6.40228e-06 4.68452e-05 2.0232e-07
-1.33427e-07 2.0232e-07 -1.27442e-05
0.00101448 1.10285e-06 -3.73623e-07
1.10285e-06 -1.41277e-05 -1.97621e-07
-3.73623e-07 -1.97621e-07 -5.79126e-05
0.00116035 3.35826e-06 -6.37037e-07
3.35826e-06 5.77826e-05 -3.85692e-07
-6.37037e-07 -3.85692e-07 7.82583e-06
0.00115812 -5.38205e-06 7.79089e-07
-5.38205e-06 2.73269e-05 -4.73717e-07
7.79089e-07 -4.73717e-07 -1.9403e-05
0.00110845 2.6194e-06 3.62685e-07
2.6194e-06 -9.26455e-06 8.4888e-07
3.62685e-07 8.4888e-07 -5.20136e-05
0.00119853 2.49869e-06 -3.11804e-07
2.49869e-06 7.55246e-05 -1.13135e-07
-3.11804e-07 -1.13135e-07 2.14197e-05
0.0011985 4.15334e-06 -2.31672e-07
4.15334e-06 8.1222e-05 -5.09741e-07
-2.31672e-07 -5.09741e-07 2.5769e-05
0.0014039 7.89106e-06 6.66502e-08
7.89106e-06 0.00014999 7.42194e-07
6.66502e-08 7.42194e-07 9.32306e-05
0.00115825 6.41601e-06 -4.29404e-08
6.41601e-06 5.57152e-05 -3.55673e-08
-4.29404e-08 -3.55673e-08 -7.80291e-06
0.00116641 3.38937e-06 -1.58939e-07
3.38937e-06 6.0777e-05 -2.62354e-07
-1.58939e-07 -2.62354e-07 1.0464e-05
0.000956499 -1.01605e-05 -4.04767e-07
-1.01605e-05 -1.07764e-05 5.86327e-07
-4.04767e-07 5.86327e-07 -6.15721e-05
0.00119223 4.52125e-06 1.11243e-07
4.52125e-06 7.21617e-05 2.32991e-07
1.11243e-07 2.32991e-07 1.67919e-05
0.00114642 5.2598e-06 6.67568e-08
5.2598e-06 5.09583e-05 3.60413e-08
6.67568e-08 3.60413e-08 -8.71802e-06
0.00126995 -7.53744e-07 3.08675e-07
-7.53744e-07 5.94311e-05 -1.92241e-07
3.08675e-07 -1.92241e-07 2.11008e-05
0.00134429 7.84065e-06 3.58038e-07
7.84065e-06 0.000101779 -3.20219e-07
3.58038e-07 -3.20219e-07 4.7922e-05
0.00124393 7.4102e-06 1.5298e-07
7.4102e-06 9.53553e-05 2.80997e-07
1.5298e-07 2.80997e-07 3.00366e-05
0.00118863 4.09103e-06 1.40091e-07
4.09103e-06 7.2066e-05 5.70661e-08
1.40091e-07 5.70661e-08 1.64676e-05
0.00133443 -7.12376e-06 -1.19527e-06
-7.12376e-06 0.000119039 -2.85594e-06
-1.19527e-06 -2.85594e-06 8.10083e-05
0.00127993 5.48498e-06 9.95572e-08
5.48498e-06 0.000109366 -6.75167e-08
9.95572e-08 -6.75167e-08 5.04988e-05
0.00131598 7.29116e-06 -2.31953e-07
7.29116e-06 0.000130841 3.21468e-07
-2.31953e-07 3.21468e-07 6.58973e-05
0.00113054 8.25114e-06 1.85278e-06
8.25114e-06 -3.53946e-05 -1.35766e-06
1.85278e-06 -1.35766e-06 -8.48483e-05
0.00106166 8.79199e-06 5.26346e-07
8.79199e-06 2.93116e-07 -1.61804e-07
5.26346e-07 -1.61804e-07 -6.66513e-05
0.00137291 2.21235e-06 4.91101e-08
2.21235e-06 -6.37664e-05 -3.01074e-06
4.91101e-08 -3.01074e-06 -0.000114562
0.00116139 3.11851e-06 -3.09338e-07
3.11851e-06 5.90141e-05 -2.70902e-07
-3.09338e-07 -2.70902e-07 8.98987e-06
0.00116594 3.55544e-06 -2.489e-08
3.55544e-06 6.18195e-05 -3.6095e-08
-2.489e-08 -3.6095e-08 7.17618e-06
0.00121165 3.94275e-06 -6.84634e-08
3.94275e-06 8.26729e-05 -2.26509e-07
-6.84634e-08 -2.26509e-07 2.51517e-05
0.00109859 -6.44043e-07 -1.90032e-07
-6.44043e-07 2.2096e-05 -8.93816e-07
-1.90032e-07 -8.93816e-07 -1.13638e-05
0.00102536 -4.25821e-08 -1.39714e-07
-4.25821e-08 -9.71599e-06 -2.23797e-07
-1.39714e-07 -2.23797e-07 -5.32157e-05
0.00124147 9.24584e-07 -6.65457e-08
9.24584e-07 9.7786e-05 -8.22161e-08
-6.65457e-08 -8.22161e-08 4.7922e-05
0.00111021 3.07876e-06 -3.0087e-07
3.07876e-06 3.4722e-05 -1.69096e-07
-3.0087e-07 -1.69096e-07 -2.02002e-05
0.00109684 -7.99598e-07 3.11778e-08
-7.99598e-07 2.10244e-05 2.35787e-09
3.11778e-08 2.35787e-09 -1.29183e-05
0.00107609 1.26292e-07 4.00846e-08
1.26292e-07 1.42005e-05 1.15929e-09
4.00846e-08 1.15929e-09 -2.97693e-05
0.00115724 3.46293e-06 -1.01392e-07
3.46293e-06 5.72595e-05 -2.37263e-07
-1.01392e-07 -2.37263e-07 6.19716e-07
0.00115772 1.23802e-06 1.05413e-08
1.23802e-06 5.58033e-05 -5.34411e-09
1.05413e-08 -5.34411e-09 6.05568e-06
0.00116576 2.27136e-06 5.38789e-08
2.27136e-06 6.09696e-05 -3.27927e-08
5.38789e-08 -3.27927e-08 5.82576e-06
0.00114701 3.28667e-06 1.28436e-07
3.28667e-06 5.19287e-05 -1.50293e-07
1.28436e-07 -1.50293e-07 -6.16378e-06
0.00120696 2.445e-06 -8.30845e-08
2.445e-06 8.05995e-05 -9.0866e-08
-8.30845e-08 -9.0866e-08 2.57979e-05
0.0012286 2.12825e-06 9.00027e-08
2.12825e-06 8.86143e-05 -1.50571e-08
9.00027e-08 -1.50571e-08 3.88098e-05
0.0010203 -1.50128e-06 8.64518e-08
-1.50128e-06 -1.27318e-05 4.88252e-07
8.64518e-08 4.88252e-07 -5.78697e-05
0.000943943 -2.75977e-07 4.73284e-10
-2.75977e-07 -5.27068e-05 1.2486e-06
4.73284e-10 1.2486e-06 -8.78787e-05
0.00125582 -5.47968e-07 -1.63316e-07
-5.47968e-07 0.000100871 8.30587e-08
-1.63316e-07 8.30587e-08 5.75397e-05
0.000958813 9.05228e-07 -2.17177e-07
9.05228e-07 -4.49838e-05 1.18968e-06
-2.17177e-07 1.18968e-06 -8.03895e-05
0.00106368 6.29013e-07 -1.31748e-07
6.29013e-07 -8.74942e-07 1.56148e-06
-1.31748e-07 1.56148e-06 -1.90708e-05
0.00106386 -1.74406e-07 3.6668e-08
-1.74406e-07 -9.81854e-07 4.8165e-09
3.6668e-08 4.8165e-09 -1.89989e-05
0.00101052 -1.78467e-07 4.07726e-08
-1.78467e-07 -3.56578e-05 2.68762e-06
4.07726e-08 2.68762e-06 -2.91242e-05
0.00106414 -8.26694e-07 -1.07827e-07
-8.26694e-07 -3.5898e-07 -1.58378e-06
-1.07827e-07 -1.58378e-06 -1.83052e-05
0.00126387 -1.23595e-06 -7.26965e-08
-1.23595e-06 8.73388e-05 -1.06811e-06
-7.26965e-08 -1.06811e-06 9.49977e-05
0.00220972 -1.54316e-06 4.6022e-07
-1.54316e-06 0.000538839 3.4453e-06
4.6022e-07 3.4453e-06 0.000565303
0.00153894 -2.22815e-06 -6.72462e-07
-2.22815e-06 0.00022147 -3.75343e-06
-6.72462e-07 -3.75343e-06 0.00023009
0.00118775 -2.82829e-06 3.27181e-07
-2.82829e-06 4.77797e-05 2.0962e-06
3.27181e-07 2.0962e-06 6.93564e-05
0.00113946 -4.05499e-06 -4.60765e-07
-4.05499e-06 2.67852e-05 -1.28287e-06
-4.60765e-07 -1.28287e-06 4.84599e-05
0.00105691 1.418e-06 3.25238e-07
1.418e-06 -3.27471e-06 -1.62386e-06
3.25238e-07 -1.62386e-06 -1.96967e-05
0.00105915 1.73062e-06 -1.4064e-07
1.73062e-06 -1.60374e-06 -3.18577e-08
-1.4064e-07 -3.18577e-08 -1.87136e-05
0.00100012 3.10121e-06 6.82934e-07
3.10121e-06 -3.75101e-05 -2.66303e-06
6.82934e-07 -2.66303e-06 -3.06248e-05
0.00125454 4.0714e-06 -3.82457e-08
4.0714e-06 8.69673e-05 1.3482e-08
-3.82457e-08 1.3482e-08 9.46307e-05
0.00220782 5.10676e-06 1.42818e-06
5.10676e-06 0.000542242 -3.36872e-06
1.42818e-06 -3.36872e-06 0.000568205
0.00100828 5.10345e-06 -1.26678e-06
5.10345e-06 -2.88039e-05 2.47234e-06
-1.26678e-06 2.47234e-06 -2.29164e-05
0.00218744 6.44971e-06 -7.61989e-08
6.44971e-06 0.000536099 -1.99684e-08
-7.61989e-08 -1.99684e-08 0.000561591
0.0021789 7.69859e-06 -2.16668e-06
7.69859e-06 0.000536322 3.22257e-06
-2.16668e-06 3.22257e-06 0.000561114
0.00110527 -9.25011e-06 8.24753e-07
-9.25011e-06 4.11396e-05 -1.65039e-07
8.24753e-07 -1.65039e-07 -1.34163e-05
0.00104164 -1.05948e-05 1.16184e-06
-1.05948e-05 7.29364e-05 1.34592e-06
1.16184e-06 1.34592e-06 6.53749e-06
0.00104563 1.59485e-06 6.29491e-07
1.59485e-06 7.67873e-05 -3.16983e-07
6.29491e-07 -3.16983e-07 1.84416e-05
0.00102619 -9.65287e-07 -4.14545e-07
-9.65287e-07 6.57842e-05 -8.29418e-07
-4.14545e-07 -8.29418e-07 5.19111e-06
0.000995413 -1.13917e-05 -1.70889e-08
-1.13917e-05 3.73509e-05 9.57733e-08
-1.70889e-08 9.57733e-08 -2.54503e-05
0.00105384 -1.31113e-05 7.87639e-07
-1.31113e-05 8.71242e-05 2.89745e-07
7.87639e-07 2.89745e-07 4.19651e-05
0.00118127 -3.75324e-06 -1.51847e-06
-3.75324e-06 0.000134275 1.05882e-06
-1.51847e-06 1.05882e-06 7.17673e-05
0.000882426 -1.35171e-05 -7.29399e-07
-1.35171e-05 -9.68344e-05 -3.52428e-06
-7.29399e-07 -3.52428e-06 -0.000119959
0.000582074 -8.43143e-06 -1.9699e-06
-8.43143e-06 -0.000102031 -3.97303e-07
-1.9699e-06 -3.97303e-07 -0.000136092
0.0010992 8.07466e-07 -1.78096e-07
8.07466e-07 2.02672e-05 -1.0437e-06
-1.78096e-07 -1.0437e-06 -1.05461e-05
0.000947399 7.6843e-06 -1.20092e-07
7.6843e-06 -2.98934e-06 -8.39122e-07
-1.20092e-07 -8.39122e-07 -6.50424e-05
0.00115376 8.4534e-06 4.65262e-07
8.4534e-06 5.75617e-05 3.79812e-07
4.65262e-07 3.79812e-07 -8.23072e-06
0.00119079 3.99153e-06 1.31506e-06
3.99153e-06 5.16074e-05 3.20409e-07
1.31506e-06 3.20409e-07 -2.18061e-06
0.00110997 -5.22857e-06 -2.06846e-07
-5.22857e-06 3.10387e-05 3.38513e-07
-2.06846e-07 3.38513e-07 -2.5169e-05
0.00116402 -6.47868e-06 7.32904e-08
-6.47868e-06 5.28657e-05 5.03298e-08
7.32904e-08 5.03298e-08 -7.75349e-06
0.00113477 -6.03865e-06 -4.41064e-08
-6.03865e-06 1.58737e-05 -1.12103e-06
-4.41064e-08 -1.12103e-06 -3.8032e-05
0.00127673 -3.23907e-06 8.91724e-07
-3.23907e-06 6.59053e-05 -1.08861e-06
8.91724e-07 -1.08861e-06 2.2726e-05
0.00119946 -5.65533e-06 1.29404e-07
-5.65533e-06 7.17461e-05 -1.66772e-07
1.29404e-07 -1.66772e-07 1.48291e-05
0.00114398 -5.59297e-06 -4.40451e-07
-5.59297e-06 4.56575e-05 -1.64466e-07
-4.40451e-07 -1.64466e-07 -1.28248e-05
0.00110378 -4.84737e-06 -4.25543e-07
-4.84737e-06 2.77418e-05 -2.55329e-08
-4.25543e-07 -2.55329e-08 -2.99363e-05
0.00106108 2.1261e-06 -7.30192e-07
2.1261e-06 3.56563e-07 1.48884e-06
-7.30192e-07 1.48884e-06 -1.69983e-05
0.00115319 -3.91673e-06 -1.30089e-07
-3.91673e-06 5.44284e-05 4.81413e-08
-1.30089e-07 4.81413e-08 2.16894e-06
0.00133067 2.39426e-06 -3.5645e-07
2.39426e-06 0.000138293 4.85774e-07
-3.5645e-07 4.85774e-07 0.000105233
0.00116597 4.48029e-07 -6.0841e-07
4.48029e-07 6.31061e-05 6.55554e-07
-6.0841e-07 6.55554e-07 1.68666e-05
0.000967574 9.86779e-07 -5.2556e-07
9.86779e-07 -4.15895e-05 8.98865e-07
-5.2556e-07 8.98865e-07 -7.56185e-05
0.00111785 9.30261e-06 2.19822e-07
9.30261e-06 7.54435e-05 -1.18799e-08
2.19822e-07 -1.18799e-08 2.95961e-06
0.00102269 1.09925e-06 5.88675e-08
1.09925e-06 -1.51356e-05 -4.37238e-07
5.88675e-08 -4.37238e-07 -4.77978e-05
0.00109914 8.291e-07 8.04158e-08
8.291e-07 2.27265e-05 2.34362e-08
8.04158e-08 2.34362e-08 -1.06775e-05
0.00117478 3.95257e-07 7.64606e-08
3.95257e-07 6.05505e-05 4.09744e-07
7.64606e-08 4.09744e-07 1.69227e-05
0.00120895 8.42419e-06 2.93382e-07
8.42419e-06 8.20309e-05 3.59917e-07
2.93382e-07 3.59917e-07 1.94318e-05
0.00124388 -5.46135e-07 -4.36364e-08
-5.46135e-07 5.24125e-05 -4.82061e-07
-4.36364e-08 -4.82061e-07 1.14455e-05
0.00117164 -6.16346e-06 5.63581e-08
-6.16346e-06 5.96402e-05 -4.24367e-08
5.63581e-08 -4.24367e-08 3.90224e-07
0.00118316 -7.09491e-06 1.51329e-07
-7.09491e-06 5.74697e-05 1.57773e-07
1.51329e-07 1.57773e-07 -3.27442e-06
0.00121037 -6.26439e-06 -1.72129e-07
-6.26439e-06 3.76501e-05 -1.1958e-08
-1.72129e-07 -1.1958e-08 -1.01789e-05
0.00105183 1.24268e-06 -1.71135e-08
1.24268e-06 9.64492e-06 -2.66304e-10
-1.71135e-08 -2.66304e-10 -3.71818e-05
0.00122093 -2.46544e-06 1.38927e-07
-2.46544e-06 8.75335e-05 2.8905e-08
1.38927e-07 2.8905e-08 3.48041e-05
0.00115613 -6.35806e-06 -1.89434e-08
-6.35806e-06 5.47846e-05 -6.75991e-08
-1.89434e-08 -6.75991e-08 -4.77496e-06
0.00120745 -5.59481e-06 4.20977e-09
-5.59481e-06 7.94046e-05 3.95541e-09
4.20977e-09 3.95541e-09 1.86007e-05
0.00112829 -4.82031e-06 -2.69166e-07
-4.82031e-06 4.169e-05 2.7386e-07
-2.69166e-07 2.7386e-07 -1.73462e-05
0.00119413 1.28551e-05 -1.40662e-07
1.28551e-05 0.000117493 3.79686e-07
-1.40662e-07 3.79686e-07 3.6593e-05
0.00118484 5.0177e-06 -1.97014e-06
5.0177e-06 4.27333e-05 -1.18125e-06
-1.97014e-06 -1.18125e-06 -2.41616e-06
0.00129907 -5.89401e-06 -8.78272e-07
-5.89401e-06 6.09749e-05 1.23228e-06
-8.78272e-07 1.23228e-06 2.03078e-05
0.00133618 -8.10484e-06 5.22538e-07
-8.10484e-06 0.000119216 7.5915e-07
5.22538e-07 7.5915e-07 6.08167e-05
0.00115336 -7.14282e-06 -2.67144e-07
-7.14282e-06 5.27402e-05 1.04538e-08
-2.67144e-07 1.04538e-08 -8.46436e-06
0.000974168 2.00738e-06 1.69114e-07
2.00738e-06 -3.54598e-05 -6.14977e-07
1.69114e-07 -6.14977e-07 -7.92276e-05
0.000959515 -7.51393e-07 2.18651e-07
-7.51393e-07 -4.05978e-05 -3.41375e-07
2.18651e-07 -3.41375e-07 -8.62682e-05
0.00114309 1.36086e-06 -1.0965e-09
1.36086e-06 5.24081e-05 2.25794e-07
-1.0965e-09 2.25794e-07 1.50807e-06
0.00119513 -2.50305e-06 4.49871e-07
-2.50305e-06 7.80642e-05 -2.70587e-07
4.49871e-07 -2.70587e-07 2.23892e-05
0.00107837 -4.35306e-06 6.1808e-08
-4.35306e-06 1.78357e-05 2.32689e-07
6.1808e-08 2.32689e-07 -4.0288e-05
0.0012512 -5.88183e-06 6.46207e-07
-5.88183e-06 0.000103522 -1.80776e-07
6.46207e-07 -1.80776e-07 3.89668e-05
0.00114982 -7.20026e-06 1.74995e-07
-7.20026e-06 5.38938e-05 4.14709e-07
1.74995e-07 4.14709e-07 -9.06958e-06
0.00115642 3.38921e-06 -4.50587e-07
3.38921e-06 5.59487e-05 -4.8673e-07
-4.50587e-07 -4.8673e-07 5.63671e-06
0.00114851 4.51079e-06 -1.07392e-07
4.51079e-06 5.09938e-05 1.86711e-07
-1.07392e-07 1.86711e-07 -4.45525e-06
0.000782997 -1.00784e-05 2.4426e-06
-1.00784e-05 -8.37067e-05 1.41598e-06
2.4426e-06 1.41598e-06 -0.00013169
0.0009887 -1.229e-06 1.3488e-06
-1.229e-06 -6.62296e-05 1.03611e-07
1.3488e-06 1.03611e-07 -0.000105441
0.00158069 8.30919e-06 -5.06294e-08
8.30919e-06 0.000209016 8.13874e-07
-5.06294e-08 8.13874e-07 0.000155479
0.00110375 5.20952e-06 3.54346e-08
5.20952e-06 3.01241e-05 1.47254e-08
3.54346e-08 1.47254e-08 -2.98257e-05
0.00129873 7.64408e-06 -1.06987e-07
7.64408e-06 0.000121202 3.27769e-07
-1.06987e-07 3.27769e-07 5.53586e-05
0.00120319 4.12137e-06 1.35549e-08
4.12137e-06 7.89189e-05 2.05195e-08
1.35549e-08 2.05195e-08 2.35886e-05
0.0010525 -7.08475e-06 -7.14172e-07
-7.08475e-06 -6.53666e-06 -4.19703e-08
-7.14172e-07 -4.19703e-08 -4.34081e-05
0.00121047 5.34918e-06 2.23049e-08
5.34918e-06 7.68663e-05 6.69025e-08
2.23049e-08 6.69025e-08 1.7905e-05
0.00123117 7.10605e-06 -3.71695e-08
7.10605e-06 9.19033e-05 1.76292e-07
-3.71695e-08 1.76292e-07 2.67677e-05
0.00131917 7.49425e-06 9.74651e-07
7.49425e-06 5.38302e-05 -6.1389e-07
9.74651e-07 -6.1389e-07 6.23477e-06
0.00118605 9.24301e-06 -8.24521e-08
9.24301e-06 5.83581e-05 5.49608e-07
-8.24521e-08 5.49608e-07 -9.34234e-06
0.00190004 2.70071e-06 -8.18471e-07
2.70071e-06 0.000182379 -2.87854e-07
-8.18471e-07 -2.87854e-07 0.000132092
0.00118894 4.48582e-06 -1.54195e-07
4.48582e-06 6.984e-05 -3.36639e-07
-1.54195e-07 -3.36639e-07 1.08927e-05
0.00102561 7.3607e-06 2.59143e-06
7.3607e-06 -0.000126182 -3.98496e-07
2.59143e-06 -3.98496e-07 -0.000177
0.00122969 6.3338e-06 -3.28509e-07
6.3338e-06 8.91369e-05 -2.3311e-07
-3.28509e-07 -2.3311e-07 2.65683e-05
0.00117996 9.04643e-06 -2.30425e-07
9.04643e-06 7.58042e-05 7.33275e-07
-2.30425e-07 7.33275e-07 2.56176e-06
0.000998308 1.40445e-05 1.99145e-06
1.40445e-05 -7.07591e-05 -1.17832e-06
1.99145e-06 -1.17832e-06 -0.000143407
0.00641478 8.03931e-06 -3.32939e-05
8.03931e-06 0.00192241 -3.57836e-06
-3.32939e-05 -3.57836e-06 0.00186148
0.00294414 1.83224e-05 1.79911e-05
1.83224e-05 0.000681215 6.88355e-06
1.79911e-05 6.88355e-06 0.00060661
0.00106005 1.84276e-05 -6.21684e-07
1.84276e-05 -0.000211952 -2.12984e-06
-6.21684e-07 -2.12984e-06 -0.000286794
-0.00569667 -4.11501e-05 -3.47765e-05
-4.11501e-05 -0.00238216 -1.52724e-05
-3.47765e-05 -1.52724e-05 -0.00229743
0.000607926 -3.23237e-05 7.34075e-06
-3.23237e-05 0.000172986 4.70301e-06
7.34075e-06 4.70301e-06 0.000256071
0.00116138 3.53337e-06 -1.69671e-07
3.53337e-06 5.98095e-05 -9.08107e-08
-1.69671e-07 -9.08107e-08 5.1141e-06
0.00119462 3.85425e-06 1.52151e-08
3.85425e-06 7.50135e-05 -1.02382e-07
1.52151e-08 -1.02382e-07 1.76538e-05
0.00116879 3.86268e-06 3.82833e-08
3.86268e-06 6.41649e-05 -2.45348e-07
3.82833e-08 -2.45348e-07 4.84343e-06
0.00109972 -8.05912e-07 -6.26848e-08
-8.05912e-07 2.24334e-05 -8.94818e-07
-6.26848e-08 -8.94818e-07 -1.15411e-05
0.00103581 1.18032e-07 -1.35119e-07
1.18032e-07 -5.25247e-06 -4.7901e-07
-1.35119e-07 -4.7901e-07 -4.94916e-05
0.00115803 1.14261e-06 -9.67751e-08
1.14261e-06 5.59179e-05 -3.62555e-07
-9.67751e-08 -3.62555e-07 6.13578e-06
0.00121396 2.25167e-06 -5.47525e-08
2.25167e-06 8.45495e-05 -4.37929e-08
-5.47525e-08 -4.37929e-08 2.97423e-05
0.00112701 3.36822e-06 -2.2592e-07
3.36822e-06 4.314e-05 -2.14261e-07
-2.2592e-07 -2.14261e-07 -1.33316e-05
0.00115328 1.84275e-06 -1.04279e-07
1.84275e-06 5.22857e-05 -2.53789e-07
-1.04279e-07 -2.53789e-07 1.97674e-06
0.00102151 -2.84555e-07 1.14498e-08
-2.84555e-07 -1.53659e-05 3.45198e-07
1.14498e-08 3.45198e-07 -5.0082e-05
0.00107189 -1.5615e-06 4.99393e-08
-1.5615e-06 1.21897e-05 4.16904e-09
4.99393e-08 4.16904e-09 -3.26054e-05
0.00115862 3.14725e-06 4.58981e-09
3.14725e-06 5.75733e-05 1.64045e-08
4.58981e-09 1.64045e-08 -2.64761e-07
0.00118514 2.46961e-06 -3.77182e-09
2.46961e-06 6.96954e-05 -2.12055e-07
-3.77182e-09 -2.12055e-07 1.48847e-05
0.00119505 3.10196e-06 -2.47721e-08
3.10196e-06 7.36918e-05 -2.75261e-07
-2.47721e-08 -2.75261e-07 1.93549e-05
0.00119079 2.6879e-06 2.31657e-08
2.6879e-06 7.19435e-05 -4.45228e-08
2.31657e-08 -4.45228e-08 1.33549e-05
0.00109558 5.86481e-07 6.77601e-08
5.86481e-07 2.33398e-05 4.78219e-07
6.77601e-08 4.78219e-07 -2.85315e-05
0.00101796 -2.64254e-07 -1.68322e-10
-2.64254e-07 -1.35242e-05 2.11942e-07
-1.68322e-10 2.11942e-07 -5.93834e-05
0.000947611 5.93974e-07 -1.19121e-07
5.93974e-07 -5.06541e-05 1.24029e-06
-1.19121e-07 1.24029e-06 -8.60489e-05
0.00117962 7.97932e-07 -1.552e-07
7.97932e-07 6.43432e-05 3.52079e-07
-1.552e-07 3.52079e-07 1.97146e-05
0.00122611 -1.81557e-06 -1.33699e-07
-1.81557e-06 8.72368e-05 -1.84392e-07
-1.33699e-07 -1.84392e-07 3.72408e-05
0.00111589 -1.40906e-06 -3.11301e-07
-1.40906e-06 3.37743e-05 4.10713e-07
-3.11301e-07 4.10713e-07 -1.02726e-05
0.00115119 -6.87969e-07 1.02369e-07
-6.87969e-07 5.02665e-05 -3.26902e-07
1.02369e-07 -3.26902e-07 6.18981e-06
0.00109722 6.06171e-07 -3.26528e-07
6.06171e-07 2.15079e-05 8.13694e-07
-3.26528e-07 8.13694e-07 -1.26827e-05
0.00095476 8.92758e-07 -2.21357e-08
8.92758e-07 -4.69342e-05 3.41099e-07
-2.21357e-08 3.41099e-07 -8.23368e-05
0.00106183 1.23967e-06 -2.57689e-07
1.23967e-06 -1.09247e-06 1.54552e-06
-2.57689e-07 1.54552e-06 -1.95724e-05
0.00106384 6.21359e-07 2.03127e-08
6.21359e-07 -8.11156e-07 6.2112e-10
2.03127e-08 6.2112e-10 -1.90024e-05
0.00103702 9.08194e-07 -2.85523e-07
9.08194e-07 -2.2932e-05 3.73812e-06
-2.85523e-07 3.73812e-06 -1.66001e-05
0.0010648 -1.80229e-07 5.43919e-08
-1.80229e-07 -5.23671e-07 -1.57449e-06
5.43919e-08 -1.57449e-06 -1.85497e-05
0.00101154 -1.93349e-07 5.34441e-08
-1.93349e-07 -3.51569e-05 4.79941e-09
5.34441e-08 4.79941e-09 -2.8633e-05
0.00221255 -2.89441e-07 6.03564e-08
-2.89441e-07 0.000539379 3.4434e-06
6.03564e-08 3.4434e-06 0.000565943
0.00103284 -1.2439e-06 -2.68267e-07
-1.2439e-06 -2.4147e-05 -3.77076e-06
-2.68267e-07 -3.77076e-06 -1.77895e-05
0.00169854 -1.52751e-06 5.92043e-08
-1.52751e-06 0.00029227 1.08437e-08
5.92043e-08 1.08437e-08 0.000316396
0.00114157 -2.80905e-06 -3.0128e-07
-2.80905e-06 2.55426e-05 -1.30988e-06
-3.0128e-07 -1.30988e-06 4.73652e-05
0.00105785 8.8749e-07 -1.30143e-08
8.8749e-07 -4.21025e-06 -1.63243e-06
-1.30143e-08 -1.63243e-06 -1.95472e-05
0.00106078 1.40631e-06 1.66102e-08
1.40631e-06 -1.44594e-06 3.551e-09
1.66102e-08 3.551e-09 -1.78895e-05
0.0010016 2.15907e-06 4.48124e-07
2.15907e-06 -3.81382e-05 -2.71129e-06
4.48124e-07 -2.71129e-06 -3.06629e-05
0.00106271 1.72518e-06 -6.83171e-07
1.72518e-06 9.85111e-08 1.5325e-06
-6.83171e-07 1.5325e-06 -1.70306e-05
0.00125096 3.07254e-06 2.81915e-08
3.07254e-06 8.32322e-05 -5.15448e-07
2.81915e-08 -5.15448e-07 9.1275e-05
0.00220076 3.83835e-06 1.03886e-06
3.83835e-06 0.000536503 -3.41153e-06
1.03886e-06 -3.41153e-06 0.000562888
0.000997024 4.06839e-06 -1.10092e-06
4.06839e-06 -3.70734e-05 2.51585e-06
-1.10092e-06 2.51585e-06 -3.05096e-05
0.00219506 5.17309e-06 -4.60548e-07
5.17309e-06 0.000536845 9.80778e-07
-4.60548e-07 9.80778e-07 0.000562769
0.00216609 6.49192e-06 -1.85413e-06
6.49192e-06 0.000526321 3.27393e-06
-1.85413e-06 3.27393e-06 0.000551821
0.00107636 -1.12068e-05 7.54162e-07
-1.12068e-05 7.49582e-05 5.44013e-07
7.54162e-07 5.44013e-07 1.18814e-05
0.00105101 -1.34697e-06 4.16485e-07
-1.34697e-06 7.72942e-05 -4.90332e-07
4.16485e-07 -4.90332e-07 1.68936e-05
0.000871296 -1.31611e-05 5.66009e-06
-1.31611e-05 2.6379e-05 1.61633e-06
5.66009e-06 1.61633e-06 -1.71948e-05
0.000754932 -1.2672e-05 -3.8941e-07
-1.2672e-05 -0.000144761 -2.08583e-07
-3.8941e-07 -2.08583e-07 -0.000169326
0.000970658 -3.78454e-06 6.9079e-08
-3.78454e-06 4.20942e-05 -2.04119e-07
6.9079e-08 -2.04119e-07 -2.05867e-05
0.000813227 -7.87426e-06 6.67873e-08
-7.87426e-06 2.29242e-06 -1.8967e-06
6.67873e-08 -1.8967e-06 -3.73845e-05
0.000772221 7.17635e-06 -1.70006e-06
7.17635e-06 -1.75847e-05 2.77261e-06
-1.70006e-06 2.77261e-06 -8.64659e-05
0.000805969 -8.72044e-07 2.84525e-05
-8.72044e-07 -0.000341891 5.88948e-06
2.84525e-05 5.88948e-06 -0.000398768
0.000882794 -1.31772e-06 -1.95176e-06
-1.31772e-06 7.35119e-05 3.54822e-06
-1.95176e-06 3.54822e-06 3.38911e-05
0.00110632 1.25785e-08 1.07747e-07
1.25785e-08 2.35621e-05 -9.4699e-07
1.07747e-07 -9.4699e-07 -6.19777e-06
0.00110085 8.35247e-07 -1.66579e-07
8.35247e-07 2.11141e-05 -3.73239e-09
-1.66579e-07 -3.73239e-09 -9.74174e-06
0.0010969 2.20234e-06 -1.63203e-07
2.20234e-06 2.20833e-05 -3.93395e-07
-1.63203e-07 -3.93395e-07 -1.96351e-05
0.00109071 -1.37016e-06 3.31165e-08
-1.37016e-06 1.98121e-05 -1.65899e-07
3.31165e-08 -1.65899e-07 -1.94046e-05
0.00102157 9.3555e-06 -5.39951e-07
9.3555e-06 2.38662e-05 -3.43906e-07
-5.39951e-07 -3.43906e-07 -4.96837e-05
0.00119608 8.43603e-06 1.50496e-06
8.43603e-06 7.68859e-05 1.16866e-06
1.50496e-06 1.16866e-06 1.44328e-05
0.00124868 -9.29856e-07 1.28456e-06
-9.29856e-07 5.54154e-05 -5.12328e-07
1.28456e-06 -5.12328e-07 1.28461e-05
0.00117735 -6.17418e-06 1.58366e-07
-6.17418e-06 6.21608e-05 8.54267e-08
1.58366e-07 8.54267e-08 2.94386e-06
0.00109954 -6.95497e-06 3.06478e-07
-6.95497e-06 1.88768e-05 -4.02456e-07
3.06478e-07 -4.02456e-07 -4.1663e-05
0.00115501 -6.11066e-06 -7.28973e-08
-6.11066e-06 1.20574e-05 -1.51642e-06
-7.28973e-08 -1.51642e-06 -3.56078e-05
0.00117167 -6.31294e-06 -4.96616e-08
-6.31294e-06 6.19876e-05 -1.72163e-07
-4.96616e-08 -1.72163e-07 2.46496e-06
0.00118895 -5.55638e-06 -3.91783e-07
-5.55638e-06 6.98253e-05 -2.67959e-07
-3.91783e-07 -2.67959e-07 9.64636e-06
0.00118753 -4.82415e-06 -4.48016e-07
-4.82415e-06 7.06172e-05 5.26943e-07
-4.48016e-07 5.26943e-07 1.1898e-05
0.00110988 8.29073e-07 -4.03616e-07
8.29073e-07 2.78524e-05 8.77301e-07
-4.03616e-07 8.77301e-07 -5.60223e-06
0.00120602 -2.71308e-06 -4.05044e-07
-2.71308e-06 7.97311e-05 1.68604e-07
-4.05044e-07 1.68604e-07 2.67735e-05
0.00111988 1.52696e-06 -2.94212e-07
1.52696e-06 4.23277e-05 5.64614e-07
-2.94212e-07 5.64614e-07 -3.95073e-06
0.00109801 1.0873e-06 -1.1142e-07
1.0873e-06 2.12397e-05 6.10376e-07
-1.1142e-07 6.10376e-07 -1.07489e-05
0.0010981 2.44989e-07 -3.96887e-07
2.44989e-07 2.34136e-05 8.82355e-07
-3.96887e-07 8.82355e-07 -2.1025e-05
0.00119171 1.26076e-05 4.3817e-07
1.26076e-05 0.000111134 5.83137e-07
4.3817e-07 5.83137e-07 3.17274e-05
0.001126 2.13041e-06 -3.70703e-08
2.13041e-06 3.74924e-05 -2.37453e-07
-3.70703e-08 -2.37453e-07 -5.58218e-06
0.00105025 -1.17901e-06 2.77719e-08
-1.17901e-06 2.65674e-06 -9.73938e-09
2.77719e-08 -9.73938e-09 -4.2588e-05
0.0011189 2.71391e-07 -1.9086e-08
2.71391e-07 4.04255e-05 5.9397e-07
-1.9086e-08 5.9397e-07 -9.28958e-06
0.00125644 4.941e-06 2.42924e-07
4.941e-06 8.04109e-05 -1.22665e-07
2.42924e-07 -1.22665e-07 3.39926e-05
0.00124105 -5.77787e-06 -4.8077e-07
-5.77787e-06 3.37468e-05 -6.04028e-07
-4.8077e-07 -6.04028e-07 -6.92729e-06
0.00117465 -7.15743e-06 3.97388e-08
-7.15743e-06 6.28781e-05 -9.21162e-08
3.97388e-08 -9.21162e-08 1.55569e-06
0.00121914 -7.76872e-06 1.75398e-07
-7.76872e-06 6.58488e-05 3.97208e-07
1.75398e-07 3.97208e-07 8.02735e-06
0.00122323 -2.19495e-06 3.44083e-08
-2.19495e-06 9.22119e-05 -2.97141e-08
3.44083e-08 -2.97141e-08 3.67424e-05
0.00111152 -4.61951e-06 -3.00245e-07
-4.61951e-06 3.3026e-05 5.37625e-07
-3.00245e-07 5.37625e-07 -2.46017e-05
0.00116242 -7.2319e-06 -1.28171e-07
-7.2319e-06 5.98047e-05 -9.45796e-08
-1.28171e-07 -9.45796e-08 -3.17974e-06
0.00123778 -5.71181e-06 2.11869e-07
-5.71181e-06 9.74647e-05 -1.69039e-07
2.11869e-07 -1.69039e-07 3.32091e-05
0.00117229 1.31736e-05 -1.81003e-06
1.31736e-05 9.79144e-05 -1.52697e-06
-1.81003e-06 -1.52697e-06 3.06021e-05
0.00135006 -4.22129e-06 -1.76467e-06
-4.22129e-06 7.61112e-05 -2.4463e-07
-1.76467e-06 -2.4463e-07 4.34171e-05
0.00125716 -8.99998e-06 1.09663e-06
-8.99998e-06 5.97457e-05 1.97203e-06
1.09663e-06 1.97203e-06 5.27838e-06
0.00118851 -9.37948e-06 -3.92091e-08
-9.37948e-06 6.82584e-05 -7.74808e-08
-3.92091e-08 -7.74808e-08 5.16184e-06
0.00110161 1.82702e-06 8.90735e-09
1.82702e-06 3.39484e-05 -3.1196e-07
8.90735e-09 -3.1196e-07 -1.94343e-05
0.00109696 -3.35027e-06 -1.44601e-08
-3.35027e-06 2.94154e-05 -7.97842e-07
-1.44601e-08 -7.97842e-07 -2.51135e-05
0.00113979 -4.79872e-06 2.53565e-07
-4.79872e-06 5.28515e-05 -2.53153e-07
2.53565e-07 -2.53153e-07 -1.15194e-05
0.00121802 -7.27264e-06 5.13379e-07
-7.27264e-06 8.97515e-05 4.79634e-07
5.13379e-07 4.79634e-07 2.05612e-05
-0.00135468 -3.72578e-07 -6.69329e-05
-3.72578e-07 -0.00137121 5.03463e-06
-6.69329e-05 5.03463e-06 -0.00133687
0.00121592 4.14664e-06 -1.26933e-07
4.14664e-06 8.49107e-05 -5.63991e-08
-1.26933e-07 -5.63991e-08 2.98513e-05
0.00114366 5.21589e-06 1.40697e-07
5.21589e-06 4.55982e-05 3.30967e-07
1.40697e-07 3.30967e-07 -1.34607e-05
0.000788866 -7.10166e-06 1.05141e-06
-7.10166e-06 -0.000124235 9.34471e-07
1.05141e-06 9.34471e-07 -0.000159946
0.00149906 6.73297e-06 -9.03536e-08
6.73297e-06 0.000139141 6.02937e-07
-9.03536e-08 6.02937e-07 9.33998e-05
0.00131171 9.69896e-06 -8.88895e-07
9.69896e-06 0.000116975 1.04103e-06
-8.88895e-07 1.04103e-06 4.85231e-05
0.00115094 6.92762e-06 1.43822e-07
6.92762e-06 5.51751e-05 1.16942e-07
1.43822e-07 1.16942e-07 -1.01661e-05
0.00249909 3.10877e-06 -1.91353e-06
3.10877e-06 0.000459477 3.29395e-06
-1.91353e-06 3.29395e-06 0.000409769
0.00119122 4.46269e-06 -5.25763e-08
4.46269e-06 7.16702e-05 -1.47482e-07
-5.25763e-08 -1.47482e-07 1.29975e-05
0.00129961 6.80393e-06 9.1765e-07
6.80393e-06 3.14821e-06 -3.2334e-07
9.1765e-07 -3.2334e-07 -4.73035e-05
0.00117875 6.16714e-06 -1.61474e-08
6.16714e-06 6.53984e-05 -1.3367e-07
-1.61474e-08 -1.3367e-07 3.08412e-06
0.00116275 8.99511e-06 -2.78285e-07
8.99511e-06 6.66221e-05 2.58445e-07
-2.78285e-07 2.58445e-07 -6.44407e-06
0.0011675 1.33805e-05 3.21353e-07
1.33805e-05 7.47759e-06 -9.6829e-08
3.21353e-07 -9.6829e-08 -6.25282e-05
-0.000916703 5.13445e-06 4.35606e-06
5.13445e-06 -0.00115488 3.15717e-06
4.35606e-06 3.15717e-06 -0.00117054
0.00189769 1.84164e-05 1.67388e-06
1.84164e-05 2.50435e-05 -1.50962e-06
1.67388e-06 -1.50962e-06 -7.67393e-05
0.00192884 2.05105e-05 -1.38032e-06
2.05105e-05 0.000182187 -5.40572e-07
-1.38032e-06 -5.40572e-07 0.000104365
-0.000691846 -3.7678e-05 -4.93021e-06
-3.7678e-05 -0.000284803 -2.79398e-06
-4.93021e-06 -2.79398e-06 -0.000232242
0.000414138 -3.44417e-05 -7.38968e-06
-3.44417e-05 6.0167e-05 -3.90524e-06
-7.38968e-06 -3.90524e-06 0.000143883
0.00119073 4.8167e-06 -1.35461e-07
4.8167e-06 7.50262e-05 -3.79597e-07
-1.35461e-07 -3.79597e-07 1.44771e-05
-0.00024762 -9.11964e-06 -6.64583e-05
-9.11964e-06 -0.000215365 -6.92961e-06
-6.64583e-05 -6.92961e-06 -0.00016716
0.000987964 -2.70433e-05 1.32306e-05
-2.70433e-05 0.000487302 8.22847e-06
1.32306e-05 8.22847e-06 0.000537842
0.00116778 1.84167e-05 3.51954e-06
1.84167e-05 -4.88334e-05 6.93352e-07
3.51954e-06 6.93352e-07 -0.000125567
0.00123442 7.15267e-06 -4.24446e-07
7.15267e-06 0.000105706 6.36421e-08
-4.24446e-07 6.36421e-08 3.72457e-05
0.00128058 1.24095e-05 -2.35306e-07
1.24095e-05 0.000129951 -1.53026e-07
-2.35306e-07 -1.53026e-07 4.24831e-05
0.0015388 2.36211e-05 -3.18979e-06
2.36211e-05 0.000148122 -3.4138e-06
-3.18979e-06 -3.4138e-06 3.51319e-05
0.00686776 -1.38782e-05 -7.63832e-05
-1.38782e-05 0.00206759 -3.10812e-05
-7.63832e-05 -3.10812e-05 0.00190282
0.00194464 3.61845e-05 1.54245e-05
3.61845e-05 0.000105663 1.65053e-05
1.54245e-05 1.65053e-05 -4.99872e-05
-0.000955406 -6.1011e-05 -3.04078e-05
-6.1011e-05 -0.000187797 -2.95109e-05
-3.04078e-05 -2.95109e-05 -0.000115832
-0.000241276 -1.78634e-05 1.29981e-05
-1.78634e-05 -0.000375191 6.51349e-06
1.29981e-05 6.51349e-06 -0.000338266
0.00117597 3.76237e-06 -6.63511e-08
3.76237e-06 6.66164e-05 -7.91227e-08
-6.63511e-08 -7.91227e-08 9.41877e-06
0.0011651 3.83275e-06 1.28246e-08
3.83275e-06 6.21346e-05 3.2827e-08
1.28246e-08 3.2827e-08 2.81993e-06
0.00118207 3.50819e-06 -3.16899e-08
3.50819e-06 7.27149e-05 -4.51483e-07
-3.16899e-08 -4.51483e-07 1.15468e-05
0.00109808 -2.90881e-07 2.33088e-08
-2.90881e-07 2.15243e-05 -5.48239e-07
2.33088e-08 -5.48239e-07 -1.27364e-05
0.00112391 -1.6217e-06 -1.90471e-08
-1.6217e-06 3.73045e-05 -4.73962e-07
-1.90471e-08 -4.73962e-07 -7.14811e-06
0.00107838 1.50005e-06 -1.75268e-07
1.50005e-06 1.61577e-05 -5.02319e-07
-1.75268e-07 -5.02319e-07 -3.4657e-05
0.00116312 2.4546e-06 -1.28419e-07
2.4546e-06 5.87203e-05 -4.22055e-07
-1.28419e-07 -4.22055e-07 3.89899e-06
0.00117021 3.00549e-06 -6.77887e-08
3.00549e-06 6.32053e-05 2.20197e-07
-6.77887e-08 2.20197e-07 5.62155e-06
0.000946494 6.25368e-07 -2.48496e-09
6.25368e-07 -5.12087e-05 3.53987e-07
-2.48496e-09 3.53987e-07 -8.65865e-05
0.00116055 3.04186e-06 -5.96573e-08
3.04186e-06 5.68964e-05 -3.68602e-07
-5.96573e-08 -3.68602e-07 2.77599e-06
0.00116601 -2.98397e-07 4.89075e-08
-2.98397e-07 5.76176e-05 2.68616e-07
4.89075e-08 2.68616e-07 6.2984e-06
0.00109368 -1.73937e-07 -9.74794e-09
-1.73937e-07 2.28898e-05 -2.37335e-07
-9.74794e-09 -2.37335e-07 -2.24516e-05
0.00118147 2.44162e-06 -1.11546e-08
2.44162e-06 6.72244e-05 1.06831e-07
-1.11546e-08 1.06831e-07 8.31872e-06
0.00112052 2.57647e-06 2.35724e-08
2.57647e-06 3.58993e-05 7.1252e-08
2.35724e-08 7.1252e-08 -2.06806e-05
0.00117153 3.06733e-07 -2.04983e-09
3.06733e-07 6.10391e-05 -1.5802e-07
-2.04983e-09 -1.5802e-07 3.85858e-07
0.00116276 -8.85295e-07 8.89576e-09
-8.85295e-07 5.66616e-05 2.31628e-07
8.89576e-09 2.31628e-07 4.11424e-06
0.00117259 1.27287e-06 -7.0169e-08
1.27287e-06 6.11698e-05 1.10756e-07
-7.0169e-08 1.10756e-07 1.60418e-05
0.00117503 7.2817e-07 -9.46238e-10
7.2817e-07 6.21863e-05 -8.23809e-08
-9.46238e-10 -8.23809e-08 1.75318e-05
0.00116877 -2.11936e-06 -1.74237e-08
-2.11936e-06 5.94584e-05 -2.49155e-07
-1.74237e-08 -2.49155e-07 8.99024e-06
0.00116943 -1.09442e-08 -2.58847e-07
-1.09442e-08 6.04411e-05 1.10068e-07
-2.58847e-07 1.10068e-07 8.97622e-06
0.00114302 -2.61758e-06 -1.63442e-07
-2.61758e-06 4.80687e-05 1.04031e-07
-1.63442e-07 1.04031e-07 -2.72053e-06
0.00114941 -2.71093e-06 -4.50282e-08
-2.71093e-06 5.24968e-05 -3.39408e-07
-4.50282e-08 -3.39408e-07 -1.79882e-06
0.00112127 -1.57568e-06 -4.18249e-07
-1.57568e-06 3.9718e-05 2.29862e-07
-4.18249e-07 2.29862e-07 -1.20756e-05
0.0011086 -4.17568e-07 -2.82865e-07
-4.17568e-07 3.16082e-05 4.1687e-07
-2.82865e-07 4.1687e-07 -1.28467e-05
0.00112233 -1.43158e-06 -8.96826e-09
-1.43158e-06 3.68777e-05 -1.35426e-08
-8.96826e-09 -1.35426e-08 -7.20212e-06
0.00109206 6.64851e-07 -4.81077e-07
6.64851e-07 1.92781e-05 7.77715e-07
-4.81077e-07 7.77715e-07 -1.45526e-05
0.00104632 -8.64272e-07 3.64465e-07
-8.64272e-07 -4.4426e-07 -7.45739e-07
3.64465e-07 -7.45739e-07 -4.52662e-05
0.00102736 5.83273e-07 5.44491e-08
5.83273e-07 -1.21362e-05 1.64113e-08
5.44491e-08 1.64113e-08 -4.67618e-05
0.0010591 1.5677e-06 -4.86566e-07
1.5677e-06 -1.75345e-06 1.50546e-06
-4.86566e-07 1.50546e-06 -2.0264e-05
0.000950788 8.81306e-07 1.84523e-07
8.81306e-07 -4.88471e-05 -5.14298e-07
1.84523e-07 -5.14298e-07 -8.42469e-05
0.00106222 1.2332e-06 5.81178e-08
1.2332e-06 -9.39414e-07 2.20399e-09
5.81178e-08 2.20399e-09 -1.941e-05
0.00154704 1.94733e-06 -6.67627e-07
1.94733e-06 0.000224055 3.71316e-06
-6.67627e-07 3.71316e-06 0.000232442
0.00106392 6.13694e-07 1.6748e-07
6.13694e-07 -7.88272e-07 -1.55754e-06
1.6748e-07 -1.55754e-06 -1.89747e-05
0.00127852 9.14021e-07 -4.50175e-08
9.14021e-07 9.36855e-05 5.2584e-07
-4.50175e-08 5.2584e-07 0.00010121
0.00119069 1.04476e-06 -2.79708e-07
1.04476e-06 4.65043e-05 3.33072e-06
-2.79708e-07 3.33072e-06 6.83094e-05
0.00101246 -2.08223e-07 7.12991e-08
-2.08223e-07 -3.47124e-05 -2.67848e-06
7.12991e-08 -2.67848e-06 -2.81965e-05
0.00220846 -2.28129e-07 1.06384e-07
-2.28129e-07 0.000537394 -4.01005e-11
1.06384e-07 -4.01005e-11 0.000563977
0.00118131 -1.47641e-06 -2.1448e-07
-1.47641e-06 4.29636e-05 -3.34642e-06
-2.1448e-07 -3.34642e-06 6.47559e-05
0.00111108 -1.04248e-06 -2.81112e-08
-1.04248e-06 2.57579e-05 -5.72507e-07
-2.81112e-08 -5.72507e-07 -4.22153e-06
0.0010593 8.80297e-08 4.97275e-08
8.80297e-08 -3.99618e-06 -1.63327e-06
4.97275e-08 -1.63327e-06 -1.86496e-05
0.00106236 8.76989e-07 -1.18434e-07
8.76989e-07 -2.02878e-06 -8.1541e-10
-1.18434e-07 -8.1541e-10 -1.74086e-05
0.00100462 1.14081e-06 1.43337e-07
1.14081e-06 -3.77889e-05 -2.71049e-06
1.43337e-07 -2.71049e-06 -2.96434e-05
0.00106446 1.39451e-06 -2.8658e-07
1.39451e-06 2.91942e-07 1.62669e-06
-2.8658e-07 1.62669e-06 -1.61726e-05
0.00100181 2.12881e-06 4.51246e-08
2.12881e-06 -3.81004e-05 -5.35964e-07
4.51246e-08 -5.35964e-07 -3.05927e-05
0.00218056 2.5705e-06 6.7199e-07
2.5705e-06 0.000525109 -3.43164e-06
6.7199e-07 -3.43164e-06 0.000551945
0.00148307 3.13309e-06 -6.36401e-07
3.13309e-06 0.000195343 1.60579e-06
-6.36401e-07 1.60579e-06 0.000204536
0.00169843 3.88688e-06 -2.60747e-07
3.88688e-06 0.000294841 1.01176e-06
-2.60747e-07 1.01176e-06 0.000318787
0.00120047 5.15301e-06 -2.08759e-06
5.15301e-06 5.77161e-05 5.30186e-06
-2.08759e-06 5.30186e-06 7.89315e-05
0.000604519 -1.17912e-05 7.72382e-07
-1.17912e-05 -0.000202719 1.52832e-06
7.72382e-07 1.52832e-06 -0.000228726
0.00074518 -3.82681e-06 6.86527e-07
-3.82681e-06 -5.68797e-05 -7.61636e-07
6.86527e-07 -7.61636e-07 -0.000119723
0.0010413 -7.28897e-06 1.28388e-06
-7.28897e-06 0.000105311 -2.81659e-06
1.28388e-06 -2.81659e-06 6.0014e-05
0.00102406 -3.72332e-06 6.8363e-06
-3.72332e-06 -0.000149887 1.57355e-06
6.8363e-06 1.57355e-06 -0.000193071
0.000636342 -1.13678e-06 -1.10561e-07
-1.13678e-06 -3.36775e-05 7.63334e-07
-1.10561e-07 7.63334e-07 -7.40265e-05
0.000799663 7.11204e-06 -2.12425e-07
7.11204e-06 -1.87399e-05 -1.34024e-07
-2.12425e-07 -1.34024e-07 -9.01259e-05
0.000996149 1.67355e-05 -2.4013e-06
1.67355e-05 0.00010634 3.45264e-06
-2.4013e-06 3.45264e-06 2.5957e-05
0.000860741 -4.91881e-06 1.60676e-05
-4.91881e-06 -0.000164955 1.31582e-06
1.60676e-05 1.31582e-06 -0.000228746
0.00434972 7.14603e-06 -8.40241e-05
7.14603e-06 0.000909461 3.55249e-05
-8.40241e-05 3.55249e-05 0.000834395
0.00226808 4.91139e-05 -1.29073e-05
4.91139e-05 0.00118451 7.40824e-06
-1.29073e-05 7.40824e-06 0.00121634
-0.00015595 3.78076e-05 8.19137e-06
3.78076e-05 -0.000263097 -6.19513e-06
8.19137e-06 -6.19513e-06 -0.000183804
0.000974148 4.19316e-07 1.01175e-07
4.19316e-07 -3.58755e-05 -9.34893e-07
1.01175e-07 -9.34893e-07 -7.68695e-05
0.00110371 3.47709e-08 1.51699e-07
3.47709e-08 2.23213e-05 7.01122e-09
1.51699e-07 7.01122e-09 -7.46634e-06
0.00110252 8.62154e-07 -1.55941e-07
8.62154e-07 2.19683e-05 1.04158e-06
-1.55941e-07 1.04158e-06 -8.92986e-06
0.00107446 2.21639e-06 1.12927e-07
2.21639e-06 1.13888e-05 5.13079e-09
1.12927e-07 5.13079e-09 -3.0465e-05
0.00118376 3.87621e-06 -4.76534e-09
3.87621e-06 6.95057e-05 2.0177e-07
-4.76534e-09 2.0177e-07 2.08106e-05
0.00116594 -3.95144e-07 5.25151e-09
-3.95144e-07 5.70379e-05 8.6832e-08
5.25151e-09 8.6832e-08 1.09934e-05
0.00115665 -4.19987e-07 7.08582e-08
-4.19987e-07 5.36278e-05 -1.034e-06
7.08582e-08 -1.034e-06 1.29089e-05
0.0010705 -1.629e-06 1.10193e-07
-1.629e-06 1.05942e-05 3.77624e-07
1.10193e-07 3.77624e-07 -2.92095e-05
0.00118747 1.23533e-05 1.21191e-06
1.23533e-05 0.000103926 4.77932e-07
1.21191e-06 4.77932e-07 2.60103e-05
0.00131951 4.87221e-06 2.57396e-06
4.87221e-06 0.000114299 7.22063e-07
2.57396e-06 7.22063e-07 6.66123e-05
0.00118491 -5.65788e-06 -4.94343e-07
-5.65788e-06 7.55294e-06 -1.93401e-06
-4.94343e-07 -1.93401e-06 -3.31588e-05
0.00120026 -7.17239e-06 3.67467e-07
-7.17239e-06 7.50662e-05 -1.9856e-07
3.67467e-07 -1.9856e-07 1.3616e-05
0.00110474 -7.43616e-06 1.77077e-07
-7.43616e-06 1.37665e-05 -4.4681e-07
1.77077e-07 -4.4681e-07 -4.34869e-05
0.00117526 -7.2653e-06 -4.04648e-07
-7.2653e-06 6.58592e-05 -3.87844e-07
-4.04648e-07 -3.87844e-07 2.85039e-06
0.00122425 -5.54145e-06 -7.67239e-08
-5.54145e-06 9.13756e-05 -2.17928e-07
-7.67239e-08 -2.17928e-07 2.74174e-05
0.00114679 -4.88754e-06 -5.72574e-07
-4.88754e-06 4.92428e-05 7.87941e-07
-5.72574e-07 7.87941e-07 -7.89645e-06
0.00114291 -1.53041e-06 -3.01385e-07
-1.53041e-06 4.68231e-05 6.24944e-07
-3.01385e-07 6.24944e-07 1.99924e-06
0.00125339 -1.82573e-06 -2.21346e-07
-1.82573e-06 0.000107287 2.59564e-07
-2.21346e-07 2.59564e-07 5.20247e-05
0.00127884 2.26148e-06 -3.41515e-08
2.26148e-06 0.000110922 2.82706e-07
-3.41515e-08 2.82706e-07 6.85387e-05
0.00109484 -8.09326e-07 4.75846e-09
-8.09326e-07 2.85688e-05 8.15119e-07
4.75846e-09 8.15119e-07 -1.99702e-05
0.00128953 1.31823e-05 3.97438e-07
1.31823e-05 0.000150947 7.10851e-07
3.97438e-07 7.10851e-07 8.39349e-05
0.00111392 1.28501e-06 -2.47115e-07
1.28501e-06 3.93825e-05 1.20807e-07
-2.47115e-07 1.20807e-07 -1.37229e-05
0.00116319 -3.33926e-06 1.86698e-08
-3.33926e-06 6.20205e-05 -1.65854e-07
1.86698e-08 -1.65854e-07 7.82112e-06
0.00128414 -4.08111e-06 -1.19662e-06
-4.08111e-06 4.82362e-05 -9.25357e-07
-1.19662e-06 -9.25357e-07 1.49592e-05
0.00115371 -8.93186e-06 6.66872e-07
-8.93186e-06 1.04608e-05 2.77902e-07
6.66872e-07 2.77902e-07 -4.34472e-05
0.00118327 -9.43179e-06 -2.05996e-07
-9.43179e-06 6.33285e-05 -4.16972e-08
-2.05996e-07 -4.16972e-08 -4.92453e-07
0.001151 -4.67759e-06 -6.05711e-08
-4.67759e-06 5.86695e-05 -1.22325e-07
-6.05711e-08 -1.22325e-07 -5.42909e-06
0.00117981 -7.22271e-06 1.40269e-08
-7.22271e-06 7.09118e-05 1.41066e-07
1.40269e-08 1.41066e-07 2.18428e-06
0.00155934 -8.54701e-07 -5.99908e-07
-8.54701e-07 0.000165113 -2.12308e-06
-5.99908e-07 -2.12308e-06 0.000124948
0.00156495 -1.28776e-05 1.57037e-06
-1.28776e-05 0.000186613 2.46969e-06
1.57037e-06 2.46969e-06 0.000136083
0.000972729 -1.12917e-05 -6.71854e-08
-1.12917e-05 -5.33167e-05 4.52421e-07
-6.71854e-08 4.52421e-07 -0.000118498
0.00122393 -1.18331e-05 3.92341e-07
-1.18331e-05 8.48523e-05 2.73345e-07
3.92341e-07 2.73345e-07 1.13992e-05
0.00114056 -1.29009e-06 -1.14911e-07
-1.29009e-06 5.52134e-05 -5.73695e-07
-1.14911e-07 -5.73695e-07 -5.39462e-06
0.00115078 -3.73087e-06 -3.52465e-08
-3.73087e-06 6.13938e-05 -5.27407e-07
-3.52465e-08 -5.27407e-07 -1.31268e-06
0.00133357 -5.58411e-06 3.22836e-07
-5.58411e-06 0.000151624 -1.08082e-07
3.22836e-07 -1.08082e-07 7.92944e-05
-0.0037866 8.50525e-07 -7.0571e-05
8.50525e-07 -0.00113312 -2.6165e-06
-7.0571e-05 -2.6165e-06 -0.000962429
0.00668556 5.03476e-06 -6.50718e-06
5.03476e-06 0.00207848 6.05851e-06
-6.50718e-06 6.05851e-06 0.00206528
0.00119493 4.44206e-06 1.22776e-08
4.44206e-06 7.41455e-05 5.36707e-08
1.22776e-08 5.36707e-08 1.5748e-05
0.00112775 6.00088e-06 3.40656e-07
6.00088e-06 4.16507e-05 2.20509e-09
3.40656e-07 2.20509e-09 -2.04107e-05
0.00156212 6.29722e-06 -1.83673e-06
6.29722e-06 0.000127123 9.34054e-07
-1.83673e-06 9.34054e-07 7.70579e-05
0.00134185 1.27277e-05 -7.17959e-07
1.27277e-05 8.8121e-05 1.23513e-06
-7.17959e-07 1.23513e-06 2.07485e-05
0.00114273 8.9347e-06 -3.89355e-07
8.9347e-06 5.61534e-05 -2.96453e-07
-3.89355e-07 -2.96453e-07 -1.67372e-05
0.00537118 3.67423e-07 6.82505e-05
3.67423e-07 0.0012373 2.69603e-05
6.82505e-05 2.69603e-05 0.00116423
0.00177851 1.52362e-05 -1.70216e-05
1.52362e-05 0.00016577 -8.00283e-06
-1.70216e-05 -8.00283e-06 9.73661e-05
0.00277572 2.26704e-05 -1.49547e-06
2.26704e-05 0.000567844 2.00033e-06
-1.49547e-06 2.00033e-06 0.000486851
0.00139029 -4.70601e-05 1.83539e-05
-4.70601e-05 0.000761844 8.33922e-06
1.83539e-05 8.33922e-06 0.000787745
0.000184408 -3.60239e-05 -2.01887e-05
-3.60239e-05 -7.32811e-05 -1.56125e-05
-2.01887e-05 -1.56125e-05 1.11103e-05
0.00116327 4.71986e-06 2.52876e-08
4.71986e-06 6.19144e-05 -4.97104e-08
2.52876e-08 -4.97104e-08 1.46128e-06
-0.00318146 -6.67448e-06 -1.25446e-05
-6.67448e-06 -0.000854849 -1.61303e-06
-1.25446e-05 -1.61303e-06 -0.000725707
0.000609958 -2.74051e-05 -6.85028e-06
-2.74051e-05 0.000268556 -3.22013e-06
-6.85028e-06 -3.22013e-06 0.000316249
0.00145594 1.82308e-05 8.80598e-07
1.82308e-05 8.16258e-05 7.86221e-07
8.80598e-07 7.86221e-07 5.32571e-06
0.00115246 6.85247e-06 -1.18336e-07
6.85247e-06 6.73593e-05 -3.76245e-07
-1.18336e-07 -3.76245e-07 -5.40132e-07
0.00107852 1.22191e-05 4.74375e-08
1.22191e-05 3.79242e-05 -1.31217e-08
4.74375e-08 -1.31217e-08 -4.83744e-05
0.00179382 2.45868e-05 -2.41726e-06
2.45868e-05 0.000266007 -3.17553e-06
-2.41726e-06 -3.17553e-06 0.000153265
0.0019429 -8.11845e-06 5.39638e-06
-8.11845e-06 -0.000135671 7.33133e-06
5.39638e-06 7.33133e-06 -0.000309656
0.00124912 3.2431e-05 -4.30104e-06
3.2431e-05 -5.33969e-05 -4.58458e-06
-4.30104e-06 -4.58458e-06 -0.000152791
0.00150222 -8.12713e-05 2.36878e-07
-8.12713e-05 0.000403514 3.53517e-06
2.36878e-07 3.53517e-06 0.000409517
-0.000842029 -2.15757e-05 1.53544e-06
-2.15757e-05 -0.000756282 -2.29105e-06
1.53544e-06 -2.29105e-06 -0.000699643
0.00118903 4.75433e-06 -2.01519e-07
4.75433e-06 8.20325e-05 -5.66241e-07
-2.01519e-07 -5.66241e-07 1.91649e-05
-0.000139687 -1.71242e-05 2.37855e-05
-1.71242e-05 -0.000162234 7.93417e-06
2.37855e-05 7.93417e-06 -0.00015197
0.000719565 -8.34616e-06 1.28475e-05
-8.34616e-06 0.000228272 1.42733e-05
1.28475e-05 1.42733e-05 0.000204553
0.000950494 1.68119e-05 2.16335e-06
1.68119e-05 -2.18586e-05 2.72784e-06
2.16335e-06 2.72784e-06 -0.000124314
0.00124039 7.8615e-06 -1.65198e-06
7.8615e-06 0.00014771 4.24021e-07
-1.65198e-06 4.24021e-07 6.8856e-05
0.00178928 1.84311e-05 -2.20752e-06
1.84311e-05 0.000450654 -4.78569e-07
-2.20752e-06 -4.78569e-07 0.000336733
0.00141437 3.88033e-05 -7.15845e-07
3.88033e-05 0.00020194 2.1759e-06
-7.15845e-07 2.1759e-06 6.35811e-05
0.00341011 -2.22543e-05 -5.1774e-05
-2.22543e-05 0.000585545 -3.72497e-05
-5.1774e-05 -3.72497e-05 0.000382246
0.00113577 -0.000108846 -4.05853e-06
-0.000108846 -5.17091e-05 -1.51188e-05
-4.05853e-06 -1.51188e-05 -3.30647e-05
-9.08889e-05 7.62785e-07 3.98916e-06
7.62785e-07 -0.000293289 3.53172e-06
3.98916e-06 3.53172e-06 -0.000298308
0.00116154 3.80432e-06 5.05953e-08
3.80432e-06 6.01724e-05 3.58286e-07
5.05953e-08 3.58286e-07 8.63187e-07
0.00117658 3.57752e-06 -6.84664e-11
3.57752e-06 7.00111e-05 1.81161e-08
-6.84664e-11 1.81161e-08 8.86766e-06
0.00113021 1.81075e-06 3.35918e-07
1.81075e-06 5.00965e-05 -9.73706e-08
3.35918e-07 -9.73706e-08 -1.3844e-05
0.000945579 6.55764e-07 7.61748e-08
6.55764e-07 -5.16638e-05 -5.41296e-07
7.61748e-08 -5.41296e-07 -8.70259e-05
0.00117047 -8.41107e-09 2.91153e-08
-8.41107e-09 5.97824e-05 -6.79244e-07
2.91153e-08 -6.79244e-07 1.49594e-05
0.00123609 -1.25457e-06 -2.33541e-09
-1.25457e-06 9.17254e-05 6.4504e-08
-2.33541e-09 6.4504e-08 4.09604e-05
0.00112452 2.97936e-06 -3.21445e-08
2.97936e-06 3.93757e-05 -5.82063e-07
-3.21445e-08 -5.82063e-07 -1.45249e-05
0.00117319 2.25372e-06 -6.67226e-09
2.25372e-06 6.30082e-05 2.77184e-07
-6.67226e-09 2.77184e-07 3.78196e-06
0.00117 1.5028e-06 5.26953e-09
1.5028e-06 5.99445e-05 -3.48103e-07
5.26953e-09 -3.48103e-07 1.4807e-05
0.00114986 1.81865e-06 5.66326e-09
1.81865e-06 5.02421e-05 3.47847e-08
5.66326e-09 3.47847e-08 -5.90876e-06
0.00116412 1.35456e-07 -1.31229e-08
1.35456e-07 5.73932e-05 6.73454e-08
-1.31229e-08 6.73454e-08 4.84839e-06
0.00120982 9.88337e-08 -2.59199e-08
9.88337e-08 7.89207e-05 1.35781e-07
-2.59199e-08 1.35781e-07 1.79002e-05
0.00119144 -2.12451e-06 -1.18852e-07
-2.12451e-06 7.11479e-05 -2.24133e-07
-1.18852e-07 -2.24133e-07 8.41022e-06
0.00117464 -7.18424e-07 -3.61672e-08
-7.18424e-07 6.10093e-05 5.5875e-08
-3.61672e-08 5.5875e-08 2.78807e-06
0.00118199 1.48957e-06 -4.14019e-08
1.48957e-06 6.61828e-05 1.6305e-07
-4.14019e-08 1.6305e-07 1.3514e-05
0.00117036 6.18694e-07 1.70384e-07
6.18694e-07 5.99994e-05 -5.16125e-07
1.70384e-07 -5.16125e-07 1.5319e-05
0.00111157 -2.38654e-06 2.8395e-07
-2.38654e-06 3.17386e-05 -4.38963e-07
2.8395e-07 -4.38963e-07 -1.92009e-05
0.00117502 -2.6607e-07 3.30531e-09
-2.6607e-07 6.27474e-05 -7.57344e-08
3.30531e-09 -7.57344e-08 1.1243e-05
0.00114453 -2.62904e-06 1.76575e-08
-2.62904e-06 4.87548e-05 2.9821e-08
1.76575e-08 2.9821e-08 -2.09168e-06
0.00113841 -2.89974e-06 1.25537e-07
-2.89974e-06 4.7288e-05 -3.09112e-07
1.25537e-07 -3.09112e-07 -6.63827e-06
0.00112899 -9.61509e-07 -2.35097e-07
-9.61509e-07 4.40527e-05 3.60752e-07
-2.35097e-07 3.60752e-07 -7.64751e-06
0.00117049 -1.98009e-06 -2.34329e-07
-1.98009e-06 6.23003e-05 -2.32158e-07
-2.34329e-07 -2.32158e-07 6.44325e-06
0.00108088 -3.36379e-06 9.4967e-08
-3.36379e-06 1.94986e-05 -1.1502e-07
9.4967e-08 -1.1502e-07 -3.62552e-05
0.00114373 -2.90386e-06 -7.64654e-08
-2.90386e-06 4.76236e-05 -5.40038e-07
-7.64654e-08 -5.40038e-07 -7.60073e-06
0.00107043 -4.08402e-06 8.45066e-08
-4.08402e-06 1.92877e-05 -2.37422e-07
8.45066e-08 -2.37422e-07 -3.38987e-05
0.00106234 -2.59554e-06 -3.32933e-07
-2.59554e-06 1.07302e-05 -2.89011e-07
-3.32933e-07 -2.89011e-07 -4.03067e-05
0.00112954 -1.7065e-06 -1.70647e-07
-1.7065e-06 4.35947e-05 1.95399e-07
-1.70647e-07 1.95399e-07 -8.20375e-06
0.00111425 -4.40663e-07 -5.25797e-07
-4.40663e-07 3.50298e-05 6.17239e-07
-5.25797e-07 6.17239e-07 -9.62203e-06
0.00111863 -6.35278e-07 4.68681e-09
-6.35278e-07 3.63591e-05 -1.903e-08
4.68681e-09 -1.903e-08 -8.15354e-06
0.00108661 1.17494e-06 -5.20272e-07
1.17494e-06 1.76066e-05 7.81323e-07
-5.20272e-07 7.81323e-07 -1.61264e-05
0.00112895 -1.45413e-06 2.73193e-07
-1.45413e-06 4.00692e-05 -3.86106e-07
2.73193e-07 -3.86106e-07 -4.04409e-06
0.00109504 6.82743e-07 2.04348e-09
6.82743e-07 2.07092e-05 -2.34168e-09
2.04348e-09 -2.34168e-09 -1.31494e-05
0.00105412 1.99647e-06 -7.0658e-07
1.99647e-06 -3.33409e-06 1.43865e-06
-7.0658e-07 1.43865e-06 -2.1553e-05
0.000958324 5.57404e-07 4.28193e-07
5.57404e-07 -4.54214e-05 -8.08785e-07
4.28193e-07 -8.08785e-07 -8.04808e-05
0.00105975 1.56409e-06 6.35838e-08
1.56409e-06 -1.48434e-06 1.17817e-08
6.35838e-08 1.17817e-08 -1.99831e-05
0.00154804 2.89656e-06 -1.0756e-06
2.89656e-06 0.000225981 3.66946e-06
-1.0756e-06 3.66946e-06 0.000234102
0.0010626 1.22682e-06 3.68474e-07
1.22682e-06 -7.86999e-07 -1.53205e-06
3.68474e-07 -1.53205e-06 -1.92482e-05
0.0012761 1.98081e-06 -8.03193e-08
1.98081e-06 9.34918e-05 5.32348e-07
-8.03193e-08 5.32348e-07 0.000100717
0.00114537 2.42726e-06 -3.00793e-07
2.42726e-06 2.56295e-05 1.29335e-06
-3.00793e-07 1.29335e-06 4.738e-05
0.0010138 9.01303e-07 2.8812e-07
9.01303e-07 -3.40031e-05 -2.66513e-06
2.8812e-07 -2.66513e-06 -2.76214e-05
0.00221551 1.08585e-06 1.05559e-07
1.08585e-06 0.000540742 1.48872e-09
1.05559e-07 1.48872e-09 0.000567282
0.00220475 -1.66835e-07 1.41966e-07
-1.66835e-07 0.0005356 -3.42519e-06
1.41966e-07 -3.42519e-06 0.000562199
0.00131325 -8.68451e-07 -1.1057e-07
-8.68451e-07 0.000124514 -7.43803e-07
-1.1057e-07 -7.43803e-07 9.47998e-05
0.00106723 -7.43964e-07 -1.82964e-07
-7.43964e-07 -5.36317e-09 -1.65107e-06
-1.82964e-07 -1.65107e-06 -1.49286e-05
0.00110253 -1.0496e-06 -7.70365e-08
-1.0496e-06 2.16442e-05 3.35634e-07
-7.70365e-08 3.35634e-07 -8.31806e-06
0.00100838 4.19523e-08 -1.30298e-08
4.19523e-08 -3.63364e-05 -2.71238e-06
-1.30298e-08 -2.71238e-06 -2.78777e-05
0.00106291 8.09496e-08 6.57948e-08
8.09496e-08 -2.23972e-06 6.619e-09
6.57948e-08 6.619e-09 -1.69254e-05
0.00106733 8.66212e-07 -2.18736e-07
8.66212e-07 3.70739e-07 1.63754e-06
-2.18736e-07 1.63754e-06 -1.50538e-05
0.00100988 1.13318e-06 -8.23766e-08
1.13318e-06 -3.52096e-05 5.96049e-09
-8.23766e-08 5.96049e-09 -2.71211e-05
0.00215893 1.2863e-06 2.59209e-07
1.2863e-06 0.000513664 -3.4198e-06
2.59209e-07 -3.4198e-06 0.000540866
0.00148915 2.13877e-06 -3.83162e-07
2.13877e-06 0.000196851 1.67768e-06
-3.83162e-07 1.67768e-06 0.000206603
0.001678 2.62816e-06 1.56511e-08
2.62816e-06 0.000283065 8.14154e-10
1.56511e-08 8.14154e-10 0.000307595
0.00122811 3.85894e-06 -1.59663e-06
3.85894e-06 6.81981e-05 5.4697e-06
-1.59663e-06 5.4697e-06 8.96703e-05
-0.00575051 2.4407e-05 -3.04665e-05
2.4407e-05 -0.00239928 1.47615e-05
-3.04665e-05 1.47615e-05 -0.00225875
-0.00210972 3.32272e-05 2.31258e-05
3.32272e-05 -0.00142246 -1.11755e-05
2.31258e-05 -1.11755e-05 -0.00138662
0.00178166 2.64823e-06 -1.76871e-05
2.64823e-06 0.000293774 -3.23005e-06
-1.76871e-05 -3.23005e-06 0.000247167
0.000392895 -8.97039e-07 1.29982e-06
-8.97039e-07 -0.000139198 -6.12709e-07
1.29982e-06 -6.12709e-07 -0.000180304
0.000840836 7.04767e-06 4.25731e-07
7.04767e-06 -1.32047e-05 -2.40005e-06
4.25731e-07 -2.40005e-06 -8.71162e-05
0.00165417 1.72327e-06 2.91548e-06
1.72327e-06 0.000380735 -3.59002e-07
2.91548e-06 -3.59002e-07 0.000331723
0.00105416 1.66373e-05 -2.14934e-08
1.66373e-05 0.000118411 1.63649e-06
-2.14934e-08 1.63649e-06 4.02449e-05
0.00268557 -3.79387e-07 -2.47171e-05
-3.79387e-07 0.000386277 1.21681e-05
-2.47171e-05 1.21681e-05 0.000362605
-0.00270333 3.47669e-05 1.61555e-05
3.47669e-05 -0.000837778 -7.43965e-06
1.61555e-05 -7.43965e-06 -0.000753117
-2.53589e-05 3.71121e-05 -8.2635e-06
3.71121e-05 -0.000192631 5.96867e-06
-8.2635e-06 5.96867e-06 -0.000111699
0.00171472 -5.19441e-06 8.44567e-06
-5.19441e-06 0.000324855 -4.23371e-06
8.44567e-06 -4.23371e-06 0.000249897
0.00484954 1.62563e-05 -7.39648e-05
1.62563e-05 0.00124432 4.44204e-05
-7.39648e-05 4.44204e-05 0.00110148
-0.00105439 6.04643e-05 -2.17636e-05
6.04643e-05 -0.000222235 3.15307e-05
-2.17636e-05 3.15307e-05 -0.000145943
0.00104742 1.82638e-05 9.65611e-06
1.82638e-05 0.0004209 -7.29844e-06
9.65611e-06 -7.29844e-06 0.00047404
0.00105057 4.10092e-07 9.25435e-08
4.10092e-07 7.42217e-06 -8.00941e-07
9.25435e-08 -8.00941e-07 -4.36484e-05
0.00106103 3.99046e-07 -1.51116e-08
3.99046e-07 5.71637e-06 -3.3005e-07
-1.51116e-08 -3.3005e-07 -3.48685e-05
0.00110105 5.72821e-08 2.07094e-07
5.72821e-08 2.10563e-05 1.00208e-06
2.07094e-07 1.00208e-06 -8.75936e-06
0.00105081 2.22312e-06 -3.16729e-09
2.22312e-06 1.05964e-07 4.67852e-07
-3.16729e-09 4.67852e-07 -4.18785e-05
0.00114905 3.73702e-06 9.19465e-08
3.73702e-06 5.25924e-05 6.22138e-07
9.19465e-08 6.22138e-07 5.03785e-06
0.001197 -3.87957e-07 8.89098e-08
-3.87957e-07 7.46947e-05 -4.01223e-07
8.89098e-08 -4.01223e-07 2.63229e-05
0.00114228 -1.13926e-06 2.86518e-08
-1.13926e-06 4.55652e-05 7.63639e-07
2.86518e-08 7.63639e-07 1.2012e-07
0.00115685 -4.20469e-07 -7.22575e-08
-4.20469e-07 5.59397e-05 -1.90425e-07
-7.22575e-08 -1.90425e-07 1.25629e-05
0.00109129 -9.42374e-07 -3.35822e-08
-9.42374e-07 2.22503e-05 -3.63209e-07
-3.35822e-08 -3.63209e-07 -1.90219e-05
0.00104904 -1.88115e-06 -1.36916e-08
-1.88115e-06 7.64869e-07 9.58968e-07
-1.36916e-08 9.58968e-07 -3.96192e-05
0.0013963 1.31991e-05 3.26576e-06
1.31991e-05 0.000198652 1.67389e-06
3.26576e-06 1.67389e-06 0.000131983
0.00122678 -3.94684e-06 -6.1866e-07
-3.94684e-06 2.40497e-05 -1.68659e-06
-6.1866e-07 -1.68659e-06 -9.78928e-06
0.00103727 -8.86047e-06 -3.09329e-07
-8.86047e-06 -4.50017e-05 -1.17559e-06
-3.09329e-07 -1.17559e-06 -9.83029e-05
0.00116434 -9.43911e-06 -4.96069e-08
-9.43911e-06 5.21062e-05 -2.00403e-07
-4.96069e-08 -2.00403e-07 -1.24324e-05
0.00114429 -7.17874e-06 -4.58167e-07
-7.17874e-06 5.33564e-05 -3.03971e-07
-4.58167e-07 -3.03971e-07 -1.4915e-05
0.00116152 -4.55604e-06 -1.84186e-07
-4.55604e-06 6.41575e-05 9.63606e-09
-1.84186e-07 9.63606e-09 3.32828e-07
0.0012277 -3.40543e-06 1.0029e-07
-3.40543e-06 9.38169e-05 3.0996e-08
1.0029e-07 3.0996e-08 3.99498e-05
0.00112388 7.3738e-07 -1.07444e-07
7.3738e-07 4.36859e-05 5.76025e-07
-1.07444e-07 5.76025e-07 -9.13406e-06
0.00147025 -8.63952e-07 -6.6216e-07
-8.63952e-07 0.000132575 -7.9596e-07
-6.6216e-07 -7.9596e-07 9.11302e-05
0.00111238 -2.37792e-07 5.5959e-08
-2.37792e-07 4.26312e-05 -1.75394e-07
5.5959e-08 -1.75394e-07 -1.84579e-05
0.0011116 -3.67616e-06 3.96068e-08
-3.67616e-06 4.28875e-05 -3.00172e-07
3.96068e-08 -3.00172e-07 -2.04626e-05
0.00128584 -1.19417e-05 3.49604e-07
-1.19417e-05 5.5995e-05 7.40315e-07
3.49604e-07 7.40315e-07 8.41617e-06
0.00113166 -1.19357e-05 -5.4381e-07
-1.19357e-05 1.71956e-05 -1.79491e-07
-5.4381e-07 -1.79491e-07 -4.93878e-05
0.00118239 -1.15169e-05 -1.73825e-07
-1.15169e-05 6.68359e-05 -4.23679e-08
-1.73825e-07 -4.23679e-08 -6.44194e-06
0.00125681 -5.42912e-06 1.45599e-07
-5.42912e-06 0.000114133 -1.37224e-07
1.45599e-07 -1.37224e-07 4.13939e-05
0.00190868 -1.92772e-05 2.27409e-06
-1.92772e-05 0.000244223 9.66549e-07
2.27409e-06 9.66549e-07 0.000199349
0.00125337 -1.63017e-05 1.26132e-06
-1.63017e-05 8.72379e-05 8.64986e-07
1.26132e-06 8.64986e-07 9.1439e-06
0.00121745 -7.90231e-06 5.56812e-07
-7.90231e-06 9.35612e-05 -1.38764e-07
5.56812e-07 -1.38764e-07 1.27447e-05
0.001101 -9.58765e-07 -8.26562e-08
-9.58765e-07 3.62555e-05 3.39639e-07
-8.26562e-08 3.39639e-07 -2.47307e-05
0.00119716 -2.14988e-06 -1.1489e-07
-2.14988e-06 8.61065e-05 3.90901e-08
-1.1489e-07 3.90901e-08 2.03645e-05
0.00121488 -2.92111e-06 -2.71675e-07
-2.92111e-06 9.58926e-05 2.01466e-07
-2.71675e-07 2.01466e-07 2.56878e-05
0.000929712 -5.67449e-06 1.89918e-05
-5.67449e-06 0.00048823 6.93722e-07
1.89918e-05 6.93722e-07 0.000479733
0.00106241 2.27188e-06 2.70544e-06
2.27188e-06 0.000522102 -6.0383e-06
2.70544e-06 -6.0383e-06 0.000620995
-0.00165806 1.07275e-05 5.94428e-05
1.07275e-05 -0.00152967 9.33716e-06
5.94428e-05 9.33716e-06 -0.00150237
0.00113529 4.62136e-06 2.24242e-07
4.62136e-06 4.85474e-05 3.12446e-07
2.24242e-07 3.12446e-07 -1.18083e-05
0.00107103 6.5538e-06 5.29146e-07
6.5538e-06 2.92419e-05 -4.64653e-07
5.29146e-07 -4.64653e-07 -3.80939e-05
0.00175315 1.8032e-05 -1.58962e-06
1.8032e-05 0.000216472 7.96965e-07
-1.58962e-06 7.96965e-07 0.000140581
0.000879429 1.20129e-05 4.59417e-07
1.20129e-05 -5.26846e-05 1.38749e-07
4.59417e-07 1.38749e-07 -0.000137826
0.00196412 -2.1209e-05 2.40418e-05
-2.1209e-05 0.00103959 5.73481e-06
2.40418e-05 5.73481e-06 0.00113313
0.000251266 -1.18915e-05 9.90204e-05
-1.18915e-05 -0.00051684 5.89466e-05
9.90204e-05 5.89466e-05 -0.000603289
0.000755672 3.44926e-05 -2.94197e-05
3.44926e-05 -0.000485713 -2.59933e-05
-2.94197e-05 -2.59933e-05 -0.000619282
0.00210472 2.55504e-05 -1.0756e-06
2.55504e-05 0.000409403 -1.38305e-06
-1.0756e-06 -1.38305e-06 0.000296804
-0.00239601 -6.35343e-05 2.24135e-05
-6.35343e-05 -0.00107116 3.17319e-05
2.24135e-05 3.17319e-05 -0.000999844
0.00173056 -2.37075e-05 -2.17269e-05
-2.37075e-05 0.000966537 -1.21481e-05
-2.17269e-05 -1.21481e-05 0.00101187
2.4141e-05 -2.65749e-05 -1.71727e-05
-2.65749e-05 -0.000215499 -1.54543e-05
-1.71727e-05 -1.54543e-05 -0.000157758
0.00115911 4.65208e-06 7.94237e-08
4.65208e-06 6.85288e-05 -1.61013e-07
7.94237e-08 -1.61013e-07 5.72551e-06
0.000550434 -1.54896e-05 7.99706e-06
-1.54896e-05 0.000261455 1.79126e-06
7.99706e-06 1.79126e-06 0.000269319
0.000416129 -9.02112e-06 2.10421e-06
-9.02112e-06 4.50698e-05 2.67346e-06
2.10421e-06 2.67346e-06 2.26313e-05
0.00100485 1.80167e-05 1.15513e-06
1.80167e-05 -5.62047e-06 1.23384e-06
1.15513e-06 1.23384e-06 -0.000108309
0.00108706 7.31432e-06 -4.9688e-08
7.31432e-06 7.56794e-05 3.52781e-07
-4.9688e-08 3.52781e-07 -2.93076e-06
0.00157947 1.73344e-05 1.97877e-06
1.73344e-05 0.00031675 -9.0403e-07
1.97877e-06 -9.0403e-07 0.000197883
0.00110353 4.08462e-05 -2.39737e-06
4.08462e-05 -9.95753e-05 -1.06651e-05
-2.39737e-06 -1.06651e-05 -0.000285363
0.00534326 -5.22257e-05 7.81456e-06
-5.22257e-05 0.00127695 3.16978e-06
7.81456e-06 3.16978e-06 0.00104959
-0.000729976 -8.307e-05 3.72038e-06
-8.307e-05 -0.000528998 1.25663e-05
3.72038e-06 1.25663e-05 -0.000470859
0.00035837 -1.05988e-06 -1.62851e-06
-1.05988e-06 -2.1336e-05 -6.22627e-07
-1.62851e-06 -6.22627e-07 -1.7648e-05
0.00107362 3.67256e-06 2.33728e-07
3.67256e-06 5.23381e-05 -1.96527e-07
2.33728e-07 -1.96527e-07 -1.65214e-05
0.00184215 -4.21894e-06 1.33739e-05
-4.21894e-06 0.000924826 6.85757e-06
1.33739e-05 6.85757e-06 0.000868025
0.000706655 6.55122e-06 6.74862e-06
6.55122e-06 0.000157423 4.29905e-06
6.74862e-06 4.29905e-06 0.000105239
0.000848303 5.45827e-06 -4.59041e-07
5.45827e-06 2.71707e-05 1.94228e-06
-4.59041e-07 1.94228e-06 -5.95331e-05
7.72554e-05 2.77179e-05 3.3089e-06
2.77179e-05 -0.000243838 1.37069e-05
3.3089e-06 1.37069e-05 -0.000396381
0.00530169 -8.15338e-05 -4.37304e-05
-8.15338e-05 0.00114304 -5.21728e-05
-4.37304e-05 -5.21728e-05 0.000929
-0.00133711 -4.65325e-05 -8.23219e-07
-4.65325e-05 -0.00143051 -3.28704e-05
-8.23219e-07 -3.28704e-05 -0.00126361
0.000574532 8.29632e-06 -1.95267e-06
8.29632e-06 0.000121343 4.63109e-06
-1.95267e-06 4.63109e-06 0.000121575
0.00116901 3.64091e-06 -7.26258e-08
3.64091e-06 6.62869e-05 4.1171e-07
-7.26258e-08 4.1171e-07 5.17697e-06
0.00120222 1.67761e-06 2.06497e-08
1.67761e-06 8.39149e-05 2.50893e-07
2.06497e-08 2.50893e-07 2.01045e-05
0.00110179 -1.43427e-06 -1.33273e-07
-1.43427e-06 3.30102e-05 -3.76753e-07
-1.33273e-07 -3.76753e-07 -3.38998e-05
0.00116628 1.74119e-06 3.221e-08
1.74119e-06 5.82163e-05 -8.1011e-07
3.221e-08 -8.1011e-07 1.30684e-05
0.00116505 1.03327e-06 8.42411e-09
1.03327e-06 5.79321e-05 -9.26374e-08
8.42411e-09 -9.26374e-08 5.38975e-06
0.00117927 1.15663e-06 1.04508e-09
1.15663e-06 6.4614e-05 4.21593e-08
1.04508e-09 4.21593e-08 8.89166e-06
0.00124603 -1.41244e-07 4.54477e-08
-1.41244e-07 9.58138e-05 2.86646e-07
4.54477e-08 2.86646e-07 3.4431e-05
0.00117951 1.51375e-06 1.9418e-10
1.51375e-06 6.49073e-05 2.55935e-09
1.9418e-10 2.55935e-09 1.22207e-05
0.0011906 -1.82709e-08 7.62949e-10
-1.82709e-08 6.86158e-05 1.5683e-07
7.62949e-10 1.5683e-07 1.03804e-05
0.00120978 -2.30693e-06 -1.40557e-08
-2.30693e-06 7.92506e-05 -1.15339e-07
-1.40557e-08 -1.15339e-07 1.63391e-05
0.00117341 -2.95123e-06 -2.66835e-07
-2.95123e-06 6.69468e-05 -5.15532e-07
-2.66835e-07 -5.15532e-07 3.44501e-06
0.00116098 -2.27891e-06 2.51577e-08
-2.27891e-06 5.49756e-05 -1.71133e-07
2.51577e-08 -1.71133e-07 -6.91648e-06
0.00120803 -2.78631e-07 -8.35107e-08
-2.78631e-07 7.81728e-05 -9.56868e-08
-8.35107e-08 -9.56868e-08 2.0699e-05
0.00118071 -4.83072e-07 1.45427e-07
-4.83072e-07 6.50949e-05 -2.49321e-07
1.45427e-07 -2.49321e-07 1.3551e-05
0.00114681 -2.64298e-06 2.52922e-07
-2.64298e-06 4.97997e-05 -1.85189e-07
2.52922e-07 -1.85189e-07 -1.10512e-06
0.00112436 -3.08539e-06 1.81285e-07
-3.08539e-06 4.06727e-05 -3.97237e-07
1.81285e-07 -3.97237e-07 -1.28816e-05
0.00118593 -2.11083e-06 1.17875e-07
-2.11083e-06 6.9133e-05 -7.82822e-08
1.17875e-07 -7.82822e-08 1.36403e-05
0.00113317 -1.02742e-06 -7.52793e-08
-1.02742e-06 4.60814e-05 1.41315e-07
-7.52793e-08 1.41315e-07 -5.60948e-06
0.00111107 -3.35223e-06 3.26208e-08
-3.35223e-06 3.38444e-05 -1.50258e-07
3.26208e-08 -1.50258e-07 -2.17754e-05
0.00112734 -2.50374e-06 -3.5175e-07
-2.50374e-06 4.17407e-05 -1.72321e-07
-3.5175e-07 -1.72321e-07 -1.47781e-05
0.00115249 -3.59088e-06 1.04739e-07
-3.59088e-06 5.68224e-05 -2.40326e-07
1.04739e-07 -2.40326e-07 -1.602e-06
0.00115038 -4.71141e-06 1.35155e-07
-4.71141e-06 5.22308e-05 -4.25498e-07
1.35155e-07 -4.25498e-07 -5.901e-06
0.00115357 -2.97372e-06 -1.91765e-07
-2.97372e-06 5.21301e-05 -5.12963e-08
-1.91765e-07 -5.12963e-08 -3.14457e-06
0.00109933 -4.75897e-06 3.3197e-08
-4.75897e-06 2.90736e-05 8.8611e-08
3.3197e-08 8.8611e-08 -2.62032e-05
0.00114257 -5.00416e-06 -1.77067e-07
-5.00416e-06 5.1768e-05 7.08645e-07
-1.77067e-07 7.08645e-07 -3.73794e-06
0.00121371 -2.29521e-06 -1.62109e-07
-2.29521e-06 8.40535e-05 -3.79259e-07
-1.62109e-07 -3.79259e-07 3.59796e-05
0.00109127 -4.21376e-06 1.66213e-07
-4.21376e-06 2.8938e-05 -5.70528e-07
1.66213e-07 -5.70528e-07 -2.34698e-05
0.00113706 -2.58382e-06 1.62141e-07
-2.58382e-06 4.66402e-05 -1.73758e-07
1.62141e-07 -1.73758e-07 -3.92185e-06
0.00102709 -1.28665e-07 -5.20057e-07
-1.28665e-07 -6.31672e-06 2.76761e-07
-5.20057e-07 2.76761e-07 -5.09178e-05
0.00113819 -1.87031e-06 5.91686e-08
-1.87031e-06 4.76378e-05 1.99426e-07
5.91686e-08 1.99426e-07 -4.16466e-06
0.0011162 -5.34305e-07 -7.99703e-08
-5.34305e-07 3.59017e-05 2.54839e-07
-7.99703e-08 2.54839e-07 -8.74331e-06
0.00108911 1.71849e-06 -6.41087e-07
1.71849e-06 2.03465e-05 7.68641e-07
-6.41087e-07 7.68641e-07 -1.34691e-05
0.00112847 -8.1435e-07 2.83766e-07
-8.1435e-07 4.1015e-05 -4.29323e-07
2.83766e-07 -4.29323e-07 -3.55422e-06
0.0010934 1.1746e-06 3.25077e-08
1.1746e-06 2.08761e-05 -3.05823e-09
3.25077e-08 -3.05823e-09 -1.29129e-05
0.00105029 2.59862e-06 -8.48624e-07
2.59862e-06 -3.83303e-06 1.37931e-06
-8.48624e-07 1.37931e-06 -2.17849e-05
0.00109794 7.0007e-07 4.84892e-07
7.0007e-07 2.21023e-05 -7.99261e-07
4.84892e-07 -7.99261e-07 -1.17839e-05
0.00105731 1.99378e-06 3.41354e-08
1.99378e-06 -1.8317e-06 9.50901e-09
3.41354e-08 9.50901e-09 -2.00621e-05
0.00154447 3.86404e-06 -1.45217e-06
3.86404e-06 0.000226103 3.57115e-06
-1.45217e-06 3.57115e-06 0.000234168
0.00106038 1.56085e-06 6.09025e-07
1.56085e-06 -1.2222e-06 -1.47878e-06
6.09025e-07 -1.47878e-06 -1.97089e-05
0.00127246 2.93404e-06 -1.28812e-07
2.93404e-06 9.32003e-05 5.39989e-07
-1.28812e-07 5.39989e-07 0.000100233
0.00114779 3.69288e-06 -4.63334e-07
3.69288e-06 2.84233e-05 1.26924e-06
-4.63334e-07 1.26924e-06 4.9924e-05
0.0010122 1.94748e-06 5.62732e-07
1.94748e-06 -3.3862e-05 -2.6453e-06
5.62732e-07 -2.6453e-06 -2.77763e-05
0.00169011 2.4133e-06 2.87405e-07
2.4133e-06 0.000288216 -1.05639e-06
2.87405e-07 -1.05639e-06 0.000312252
0.00220952 1.17491e-06 5.04484e-07
1.17491e-06 0.000538081 -3.42819e-06
5.04484e-07 -3.42819e-06 0.000564597
0.00116115 -1.30205e-06 -1.89368e-07
-1.30205e-06 5.44599e-05 -7.44859e-07
-1.89368e-07 -7.44859e-07 2.22255e-05
0.0010666 -1.1655e-06 -3.54418e-07
-1.1655e-06 5.77931e-07 -1.63094e-06
-3.54418e-07 -1.63094e-06 -1.49475e-05
0.00112823 -9.57879e-07 5.57135e-08
-9.57879e-07 3.58349e-05 1.79522e-07
5.57135e-08 1.79522e-07 5.08252e-06
0.00101359 -1.02842e-06 -3.08235e-07
-1.02842e-06 -3.35154e-05 -2.71128e-06
-3.08235e-07 -2.71128e-06 -2.52748e-05
0.00106242 -7.49098e-07 -9.12076e-08
-7.49098e-07 -2.33824e-06 -1.99993e-09
-9.12076e-08 -1.99993e-09 -1.72149e-05
0.00109427 -1.06179e-06 -1.20401e-07
-1.06179e-06 1.76856e-05 1.34991e-06
-1.20401e-07 1.34991e-06 -1.22622e-05
0.00214916 -2.53689e-08 -8.84947e-08
-2.53689e-08 0.000508685 -3.44087e-06
-8.84947e-08 -3.44087e-06 0.00053601
0.00100978 3.91497e-08 -1.57128e-08
3.91497e-08 -3.56409e-05 2.14886e-10
-1.57128e-08 2.14886e-10 -2.72009e-05
0.00106592 7.42199e-08 8.6361e-08
7.42199e-08 -7.75245e-07 1.6434e-06
8.6361e-08 1.6434e-06 -1.54908e-05
0.00101517 1.1262e-06 -3.11152e-07
1.1262e-06 -3.26247e-05 2.71322e-06
-3.11152e-07 2.71322e-06 -2.4592e-05
0.00215741 1.33099e-06 -1.23013e-07
1.33099e-06 0.000513067 -3.53636e-09
-1.23013e-07 -3.53636e-09 0.000540228
0.00217484 2.6065e-06 -8.74067e-07
2.6065e-06 0.000522575 3.42417e-06
-8.74067e-07 3.42417e-06 0.000549385
-0.0019027 1.97968e-05 1.71391e-05
1.97968e-05 -0.00126272 -4.79038e-06
1.71391e-05 -4.79038e-06 -0.00126346
-0.00222326 1.67928e-05 2.86593e-05
1.67928e-05 -0.000722516 -7.9829e-06
2.86593e-05 -7.9829e-06 -0.000614187
0.000281285 7.6066e-06 1.83285e-05
7.6066e-06 -4.51054e-05 -9.52989e-06
1.83285e-05 -9.52989e-06 -6.39856e-05
-0.00110352 3.40313e-05 -7.21745e-07
3.40313e-05 -0.000807969 -5.30294e-08
-7.21745e-07 -5.30294e-08 -0.000768321
-3.77747e-05 6.32187e-06 -1.15178e-05
6.32187e-06 -0.000565161 -2.9023e-06
-1.15178e-05 -2.9023e-06 -0.000622751
0.00107828 1.64605e-05 2.18857e-06
1.64605e-05 0.000116057 1.68598e-07
2.18857e-06 1.68598e-07 4.00486e-05
0.00112362 -6.66899e-06 2.11648e-05
-6.66899e-06 1.14573e-05 -3.08487e-06
2.11648e-05 -3.08487e-06 8.60403e-06
0.0014937 4.49186e-05 7.45148e-05
4.49186e-05 0.000767616 -3.68328e-05
7.45148e-05 -3.68328e-05 0.000795676
0.000181686 3.59172e-05 -2.24723e-05
3.59172e-05 -7.10213e-05 1.6452e-05
-2.24723e-05 1.6452e-05 1.07012e-05
0.00117493 -4.00819e-07 7.33307e-07
-4.00819e-07 1.17323e-05 -7.48451e-08
7.33307e-07 -7.48451e-08 -5.86162e-05
0.000221299 7.98078e-07 -5.4351e-06
7.98078e-07 -0.00067317 4.97282e-06
-5.4351e-06 4.97282e-06 -0.000799389
0.00148895 8.04928e-05 8.63949e-07
8.04928e-05 0.000424821 3.01419e-06
8.63949e-07 3.01419e-06 0.000432875
0.000522371 1.41376e-05 -3.75837e-06
1.41376e-05 9.93455e-05 2.21245e-06
-3.75837e-06 2.21245e-06 0.000160204
0.00106106 -2.90381e-05 5.32585e-06
-2.90381e-05 -8.64259e-05 -5.40568e-06
5.32585e-06 -5.40568e-06 -0.000175883
0.000370503 3.62612e-05 -4.42691e-05
3.62612e-05 -0.000768981 4.22768e-05
-4.42691e-05 4.22768e-05 -0.00100341
0.000391985 7.29058e-05 -1.14731e-06
7.29058e-05 -1.58627e-05 3.74611e-05
-1.14731e-06 3.74611e-05 4.31498e-05
0.000150202 -1.10822e-06 7.94884e-06
-1.10822e-06 -0.000131806 -3.0207e-06
7.94884e-06 -3.0207e-06 -0.000127887
0.00116249 -2.66468e-06 -5.89729e-08
-2.66468e-06 6.11111e-05 -4.31013e-07
-5.89729e-08 -4.31013e-07 5.34461e-06
0.00113624 6.94246e-07 -1.11427e-07
6.94246e-07 4.76272e-05 -1.64515e-07
-1.11427e-07 -1.64515e-07 -2.50469e-06
0.00114969 3.84366e-07 1.24012e-07
3.84366e-07 4.81708e-05 3.3564e-07
1.24012e-07 3.3564e-07 7.98702e-06
0.00111748 3.6116e-06 -9.8045e-08
3.6116e-06 3.71962e-05 9.02003e-07
-9.8045e-08 9.02003e-07 -9.2291e-06
0.00111846 4.62844e-07 -8.19187e-08
4.62844e-07 3.83818e-05 -8.92041e-08
-8.19187e-08 -8.92041e-08 -1.34888e-05
0.00122027 -2.40742e-07 -1.87152e-09
-2.40742e-07 8.49816e-05 2.53727e-07
-1.87152e-09 2.53727e-07 3.71132e-05
0.00111984 -1.87277e-06 -7.06471e-08
-1.87277e-06 3.46783e-05 1.45757e-06
-7.06471e-08 1.45757e-06 -1.01717e-05
0.00125364 1.10395e-06 -1.76136e-07
1.10395e-06 0.0001039 -4.31441e-07
-1.76136e-07 -4.31441e-07 5.98139e-05
0.00121325 3.71768e-07 6.34671e-08
3.71768e-07 8.27375e-05 3.53369e-07
6.34671e-08 3.53369e-07 3.98766e-05
0.00102592 -1.02131e-06 1.26377e-08
-1.02131e-06 -9.1172e-06 2.60622e-07
1.26377e-08 2.60622e-07 -5.09456e-05
0.00138629 -8.46302e-07 -7.07984e-08
-8.46302e-07 0.000102075 -2.49663e-07
-7.07984e-08 -2.49663e-07 5.94215e-05
0.000998786 -1.09598e-05 -8.54388e-07
-1.09598e-05 -7.83367e-05 -9.56728e-07
-8.54388e-07 -9.56728e-07 -0.000122959
0.00132459 -1.26566e-05 -1.12481e-06
-1.26566e-05 0.000103395 -2.77753e-08
-1.12481e-06 -2.77753e-08 3.5374e-05
0.00114612 -1.12318e-05 -1.0315e-06
-1.12318e-05 5.11408e-05 -9.59007e-08
-1.0315e-06 -9.59007e-08 -2.19477e-05
0.00117804 -5.26666e-06 9.31595e-08
-5.26666e-06 7.57191e-05 -2.07565e-07
9.31595e-08 -2.07565e-07 2.57099e-06
0.00107227 -3.62209e-06 1.15277e-07
-3.62209e-06 2.4339e-05 -2.52376e-07
1.15277e-07 -2.52376e-07 -3.96573e-05
0.00108529 5.18217e-07 -1.29459e-07
5.18217e-07 3.05545e-05 -2.73282e-09
-1.29459e-07 -2.73282e-09 -3.10165e-05
0.00112623 -2.06608e-06 1.05453e-07
-2.06608e-06 4.83843e-05 4.433e-07
1.05453e-07 4.433e-07 -1.25444e-05
0.00148864 -1.86497e-05 -8.47769e-08
-1.86497e-05 6.34863e-05 -8.44316e-08
-8.47769e-08 -8.44316e-08 1.71113e-05
0.00118444 -1.05215e-06 1.1846e-07
-1.05215e-06 8.04302e-05 -1.38667e-07
1.1846e-07 -1.38667e-07 1.49099e-05
0.00126857 -3.37212e-06 -4.83745e-08
-3.37212e-06 0.000121871 2.2741e-08
-4.83745e-08 2.2741e-08 5.09402e-05
0.00125748 -1.5611e-05 3.13173e-07
-1.5611e-05 9.19477e-05 2.36111e-07
3.13173e-07 2.36111e-07 1.55298e-05
0.00120922 -7.81668e-06 3.30124e-07
-7.81668e-06 8.8954e-05 -4.70432e-07
3.30124e-07 -4.70432e-07 8.27688e-06
0.0018223 -2.52807e-05 8.97727e-07
-2.52807e-05 0.000268797 2.28412e-06
8.97727e-07 2.28412e-06 0.000191229
0.00112226 -8.88878e-06 -7.72115e-08
-8.88878e-06 7.12328e-05 -5.81307e-07
-7.72115e-08 -5.81307e-07 -1.98765e-05
0.00116584 -2.43155e-06 -8.56756e-07
-2.43155e-06 7.30642e-05 2.87217e-07
-8.56756e-07 2.87217e-07 -5.5193e-06
0.00115144 -1.30673e-06 -2.25131e-08
-1.30673e-06 6.22827e-05 1.06578e-07
-2.25131e-08 1.06578e-07 -2.4107e-06
0.00116634 -1.15947e-06 1.19255e-08
-1.15947e-06 6.973e-05 3.73568e-07
1.19255e-08 3.73568e-07 1.45746e-06
0.00150813 -2.33539e-06 7.17199e-06
-2.33539e-06 0.000710364 1.04713e-06
7.17199e-06 1.04713e-06 0.000633604
-0.000350869 -3.2943e-06 7.28404e-07
-3.2943e-06 -0.000297031 -5.90501e-07
7.28404e-07 -5.90501e-07 -0.000311522
-0.00629806 4.63627e-07 6.88981e-05
4.63627e-07 -0.00268221 1.64292e-06
6.88981e-05 1.64292e-06 -0.00251925
0.00113001 4.5553e-06 3.91932e-07
4.5553e-06 5.54793e-05 2.82362e-07
3.91932e-07 2.82362e-07 -7.26988e-06
0.000940447 6.79145e-06 6.22916e-07
6.79145e-06 6.76748e-06 -6.34043e-07
6.22916e-07 -6.34043e-07 -7.16014e-05
0.00103302 1.93514e-05 1.54909e-07
1.93514e-05 -1.78326e-06 -2.2285e-07
1.54909e-07 -2.2285e-07 -0.000104507
-0.00154553 -1.61248e-05 -1.08787e-05
-1.61248e-05 -0.00103275 -3.36068e-06
-1.08787e-05 -3.36068e-06 -0.00103402
-0.000685026 -3.84858e-05 5.7519e-05
-3.84858e-05 -0.00131051 5.07697e-05
5.7519e-05 5.07697e-05 -0.00151218
0.000682063 3.71541e-05 -6.91519e-06
3.71541e-05 -0.000148862 -1.30069e-05
-6.91519e-06 -1.30069e-05 -0.000285794
0.00131179 1.62187e-05 7.60774e-06
1.62187e-05 0.000154917 -2.97528e-06
7.60774e-06 -2.97528e-06 3.10615e-05
0.00316331 -9.77644e-05 2.83011e-05
-9.77644e-05 0.000982416 5.36614e-05
2.83011e-05 5.36614e-05 0.000990366
0.000107909 -9.78493e-06 -1.58761e-05
-9.78493e-06 -0.000140144 -9.46522e-06
-1.58761e-05 -9.46522e-06 -0.00016112
0.000123559 1.6147e-06 -6.96619e-06
1.6147e-06 -0.000160067 -5.73513e-06
-6.96619e-06 -5.73513e-06 -0.000163998
0.00109376 4.00904e-06 4.87187e-07
4.00904e-06 6.1683e-05 -1.3321e-07
4.87187e-07 -1.3321e-07 -6.0835e-06
0.00122005 -3.66288e-06 2.1199e-06
-3.66288e-06 0.000536253 1.53224e-06
2.1199e-06 1.53224e-06 0.000473443
0.000544698 7.07203e-06 4.12289e-07
7.07203e-06 5.46528e-05 -1.16637e-06
4.12289e-07 -1.16637e-06 2.22327e-06
0.000895816 6.28758e-06 9.66669e-07
6.28758e-06 4.31139e-05 4.49173e-07
9.66669e-07 4.49173e-07 -4.78926e-05
0.00111785 2.38541e-05 -1.15215e-06
2.38541e-05 0.000216264 -2.79366e-07
-1.15215e-06 -2.79366e-07 6.11048e-05
0.0029539 -5.36895e-05 -1.72009e-06
-5.36895e-05 0.000210546 -4.7776e-06
-1.72009e-06 -4.7776e-06 6.61839e-06
0.000451027 8.94229e-06 -4.40178e-07
8.94229e-06 4.01148e-05 2.45655e-06
-4.40178e-07 2.45655e-06 3.45252e-05
0.00285554 -6.10298e-05 3.81693e-06
-6.10298e-05 0.000530334 5.02916e-06
3.81693e-06 5.02916e-06 0.000620463
0.000818966 -1.72373e-06 -4.63512e-07
-1.72373e-06 -6.14068e-05 -1.10891e-06
-4.63512e-07 -1.10891e-06 -0.000134793
0.00070844 5.8626e-06 3.84299e-06
5.8626e-06 0.000108648 3.22019e-06
3.84299e-06 3.22019e-06 2.26073e-05
0.000693484 9.73033e-06 -2.68614e-06
9.73033e-06 0.000124069 5.45496e-06
-2.68614e-06 5.45496e-06 8.16927e-05
0.000159826 1.536e-06 -8.16194e-06
1.536e-06 -0.000137728 3.68156e-06
-8.16194e-06 3.68156e-06 -0.00012125
0.000716634 4.11966e-06 -2.72105e-06
4.11966e-06 -2.34729e-05 -2.2555e-07
-2.72105e-06 -2.2555e-07 -0.000119936
0.00467224 -1.90603e-05 -2.61885e-05
-1.90603e-05 0.000974592 -3.23174e-05
-2.61885e-05 -3.23174e-05 0.000786934
0.000400201 2.21568e-05 1.46843e-06
2.21568e-05 -0.000861366 -4.30719e-05
1.46843e-06 -4.30719e-05 -0.000630265
0.00127802 1.51564e-06 -3.49462e-08
1.51564e-06 0.000119582 6.06699e-07
-3.49462e-08 6.06699e-07 5.58878e-05
0.00113294 -1.8145e-06 -2.16195e-07
-1.8145e-06 4.85248e-05 -2.51773e-07
-2.16195e-07 -2.51773e-07 -1.8364e-05
0.00112924 -4.43235e-06 -8.41918e-07
-4.43235e-06 4.48737e-05 -5.38097e-07
-8.41918e-07 -5.38097e-07 -2.18737e-05
0.00117729 1.60485e-06 3.68055e-08
1.60485e-06 6.37454e-05 -1.62802e-07
3.68055e-08 -1.62802e-07 1.10413e-05
0.00120464 7.4533e-07 2.76326e-08
7.4533e-07 7.53162e-05 2.75382e-07
2.76326e-08 2.75382e-07 1.70702e-05
0.00123961 -2.54676e-06 9.41184e-08
-2.54676e-06 9.28894e-05 1.89049e-07
9.41184e-08 1.89049e-07 2.97686e-05
0.00120871 -4.72979e-07 -7.8504e-09
-4.72979e-07 7.83035e-05 -2.99716e-08
-7.8504e-09 -2.99716e-08 2.10677e-05
0.00116458 -2.21724e-06 9.47932e-09
-2.21724e-06 5.69803e-05 5.16143e-08
9.47932e-09 5.16143e-08 -5.02064e-06
0.00119078 -3.01047e-06 3.1737e-07
-3.01047e-06 7.35597e-05 9.91213e-08
3.1737e-07 9.91213e-08 9.70853e-06
0.00113104 -2.09715e-06 1.95971e-08
-2.09715e-06 5.00304e-05 -7.68902e-07
1.95971e-08 -7.68902e-07 -1.24227e-05
0.00116664 -3.02131e-06 -2.57204e-07
-3.02131e-06 6.2716e-05 -1.79662e-07
-2.57204e-07 -1.79662e-07 1.78271e-06
0.00120225 -2.27795e-06 2.31782e-07
-2.27795e-06 7.64075e-05 -1.0548e-07
2.31782e-07 -1.0548e-07 2.12746e-05
0.00113606 -1.05593e-06 3.01928e-08
-1.05593e-06 4.75261e-05 4.67197e-08
3.01928e-08 4.67197e-08 -4.15638e-06
0.00114204 -3.33922e-06 7.82637e-08
-3.33922e-06 4.85271e-05 1.04954e-07
7.82637e-08 1.04954e-07 -6.95667e-06
0.00116226 -3.58887e-06 5.83997e-08
-3.58887e-06 6.07339e-05 -7.28456e-08
5.83997e-08 -7.28456e-08 2.42691e-06
0.00110398 -2.13162e-06 -1.04822e-07
-2.13162e-06 3.06116e-05 1.89931e-07
-1.04822e-07 1.89931e-07 -2.5885e-05
0.00118433 -4.70003e-06 -6.03423e-08
-4.70003e-06 7.52432e-05 1.47935e-07
-6.03423e-08 1.47935e-07 1.47269e-05
0.00114177 -4.70002e-06 7.47119e-08
-4.70002e-06 4.91487e-05 -3.73076e-07
7.47119e-08 -3.73076e-07 -7.76263e-06
0.00104274 -6.12924e-06 3.19737e-07
-6.12924e-06 3.52458e-06 1.89448e-07
3.19737e-07 1.89448e-07 -5.95001e-05
0.00116726 -2.88148e-06 1.27793e-07
-2.88148e-06 5.83752e-05 2.16728e-07
1.27793e-07 2.16728e-07 3.05227e-06
0.00118136 -4.89809e-06 8.09367e-08
-4.89809e-06 6.6828e-05 2.92612e-07
8.09367e-08 2.92612e-07 1.15633e-05
0.00112118 -5.95036e-06 1.44395e-07
-5.95036e-06 3.96147e-05 4.2818e-07
1.44395e-07 4.2818e-07 -2.0663e-05
0.00111377 -4.4981e-06 -3.09616e-07
-4.4981e-06 4.37155e-05 -9.74914e-09
-3.09616e-07 -9.74914e-09 -1.2712e-05
0.0011272 -2.14903e-06 -4.44109e-07
-2.14903e-06 4.62752e-05 3.4521e-07
-4.44109e-07 3.4521e-07 -2.72009e-06
0.00109097 -4.8618e-06 -1.16451e-07
-4.8618e-06 2.8572e-05 1.58465e-07
-1.16451e-07 1.58465e-07 -2.7027e-05
0.00111631 1.07823e-07 -4.90694e-07
1.07823e-07 3.6354e-05 2.22889e-07
-4.90694e-07 2.22889e-07 -6.45755e-06
0.00117913 -2.53415e-06 3.49732e-08
-2.53415e-06 6.70137e-05 -2.23214e-07
3.49732e-08 -2.23214e-07 1.84642e-05
0.00111502 -4.29527e-06 2.88741e-08
-4.29527e-06 3.99518e-05 -6.90878e-07
2.88741e-08 -6.90878e-07 -1.16823e-05
0.00121375 -2.54984e-06 5.99675e-07
-2.54984e-06 8.34335e-05 -1.83909e-07
5.99675e-07 -1.83909e-07 3.33481e-05
0.00106791 9.85581e-09 1.93524e-08
9.85581e-09 1.32114e-05 -3.42086e-09
1.93524e-08 -3.42086e-09 -3.10659e-05
0.00108748 2.16179e-06 -7.54989e-07
2.16179e-06 2.0847e-05 7.14374e-07
-7.54989e-07 7.14374e-07 -1.27711e-05
0.00111708 -6.25669e-07 3.73642e-07
-6.25669e-07 3.62811e-05 -1.31794e-07
3.73642e-07 -1.31794e-07 -8.35652e-06
0.00109122 1.71822e-06 3.55961e-08
1.71822e-06 2.13251e-05 9.17888e-09
3.55961e-08 9.17888e-09 -1.24866e-05
0.00104793 3.29568e-06 -9.9467e-07
3.29568e-06 -2.86634e-06 1.32878e-06
-9.9467e-07 1.32878e-06 -2.07866e-05
0.00110032 1.17315e-06 5.87827e-07
1.17315e-06 2.42103e-05 -8.04502e-07
5.87827e-07 -8.04502e-07 -9.63531e-06
0.00105504 2.59186e-06 3.97354e-08
2.59186e-06 -1.58203e-06 1.04665e-08
3.97354e-08 1.04665e-08 -1.95601e-05
0.00150467 4.91481e-06 -1.36599e-06
4.91481e-06 0.000209248 2.43711e-06
-1.36599e-06 2.43711e-06 0.000217528
0.00106044 1.99103e-06 7.7448e-07
1.99103e-06 -3.61177e-07 -1.43067e-06
7.7448e-07 -1.43067e-06 -1.86028e-05
0.00126605 3.9001e-06 -1.85367e-07
3.9001e-06 9.19737e-05 5.35806e-07
-1.85367e-07 5.35806e-07 9.9013e-05
0.00114626 4.96379e-06 -6.11329e-07
4.96379e-06 2.98439e-05 1.22307e-06
-6.11329e-07 1.22307e-06 5.12002e-05
0.00100725 2.89872e-06 8.59717e-07
2.89872e-06 -3.48257e-05 -2.58739e-06
8.59717e-07 -2.58739e-06 -2.89212e-05
0.00169484 3.69771e-06 3.93029e-07
3.69771e-06 0.00029211 -1.04997e-06
3.93029e-07 -1.04997e-06 0.000315852
0.00221617 2.49193e-06 8.86817e-07
2.49193e-06 0.000542316 -3.41722e-06
8.86817e-07 -3.41722e-06 0.000568608
0.000935757 -1.36255e-06 -3.97285e-07
-1.36255e-06 -5.21514e-05 -1.20443e-06
-3.97285e-07 -1.20443e-06 -8.70905e-05
0.000853661 -1.85823e-06 -5.54347e-07
-1.85823e-06 -0.000100074 -2.11548e-06
-5.54347e-07 -2.11548e-06 -0.000117926
0.00116269 -1.27268e-06 3.47021e-08
-1.27268e-06 5.51035e-05 1.66467e-07
3.47021e-08 1.66467e-07 2.28487e-05
0.00101374 -1.99884e-06 -5.68868e-07
-1.99884e-06 -3.25741e-05 -2.67167e-06
-5.68868e-07 -2.67167e-06 -2.47626e-05
0.000953581 -1.19565e-06 -2.61946e-08
-1.19565e-06 -5.37636e-05 2.12737e-09
-2.61946e-08 2.12737e-09 -6.99655e-05
0.000942135 -1.04292e-06 1.73279e-07
-1.04292e-06 -5.33492e-05 1.11025e-06
1.73279e-07 1.11025e-06 -8.51369e-05
0.00215034 -1.32153e-06 -5.0355e-07
-1.32153e-06 0.000509688 -3.43436e-06
-5.0355e-07 -3.43436e-06 0.000536891
0.00100895 -1.03441e-06 -8.43487e-08
-1.03441e-06 -3.57796e-05 -1.83526e-09
-8.43487e-08 -1.83526e-09 -2.74943e-05
0.00105771 -7.54083e-07 4.50096e-09
-7.54083e-07 -4.62381e-06 1.62348e-06
4.50096e-09 1.62348e-06 -1.94539e-05
0.00214987 2.35535e-08 -9.22308e-08
2.35535e-08 0.000509029 9.86594e-10
-9.22308e-08 9.86594e-10 0.000536347
0.00101068 3.64707e-08 -2.41463e-08
3.64707e-08 -3.52038e-05 2.72411e-06
-2.41463e-08 2.72411e-06 -2.67784e-05
0.00215626 1.37499e-06 -5.02193e-07
1.37499e-06 0.000512658 3.44405e-06
-5.02193e-07 3.44405e-06 0.000539773
0.000687576 2.11461e-06 1.09608e-05
2.11461e-06 0.000201333 -4.63612e-06
1.09608e-05 -4.63612e-06 0.000137783
0.000895966 1.70051e-05 -3.95468e-06
1.70051e-05 0.000462346 1.31582e-06
-3.95468e-06 1.31582e-06 0.000467956
0.000836368 2.06205e-05 9.34144e-05
2.06205e-05 0.000264391 -1.81623e-05
9.34144e-05 -1.81623e-05 0.000327769
0.00111396 1.8141e-06 -4.03281e-07
1.8141e-06 3.45208e-05 -4.06433e-07
-4.03281e-07 -4.06433e-07 -1.13469e-05
0.000394948 -3.30298e-06 6.51006e-06
-3.30298e-06 -5.47864e-05 -9.54725e-06
6.51006e-06 -9.54725e-06 -0.000100583
0.000643532 7.83608e-06 3.37123e-06
7.83608e-06 0.000181882 -3.98302e-07
3.37123e-06 -3.98302e-07 0.000164043
0.00121281 3.03715e-05 -1.95355e-05
3.03715e-05 0.000608575 1.33586e-05
-1.95355e-05 1.33586e-05 0.000653547
0.00157054 -5.21042e-06 -6.63441e-06
-5.21042e-06 0.000120886 -1.21368e-06
-6.63441e-06 -1.21368e-06 4.15205e-05
0.00603562 7.75742e-06 2.84545e-05
7.75742e-06 0.0017611 -8.19137e-06
2.84545e-05 -8.19137e-06 0.00157789
-0.00234574 6.32605e-05 3.10561e-05
6.32605e-05 -0.00103 -2.88786e-05
3.10561e-05 -2.88786e-05 -0.00095144
0.00171749 1.2775e-05 -1.55309e-05
1.2775e-05 0.000856869 8.55103e-06
-1.55309e-05 8.55103e-06 0.000905723
0.00159092 -3.50117e-05 -7.78465e-06
-3.50117e-05 -2.46388e-05 4.24816e-07
-7.78465e-06 4.24816e-07 -0.000142359
0.00491313 5.40221e-05 4.26251e-06
5.40221e-05 0.00112323 -8.48709e-06
4.26251e-06 -8.48709e-06 0.000876684
-0.00142465 8.29653e-05 5.54885e-06
8.29653e-05 -0.00121014 5.63449e-06
5.54885e-06 5.63449e-06 -0.00117156
0.000658957 2.05061e-06 1.07143e-06
2.05061e-06 0.000178633 -1.32615e-06
1.07143e-06 -1.32615e-06 0.00019194
0.00123009 -4.64065e-05 1.262e-05
-4.64065e-05 -0.000130192 -2.12125e-05
1.262e-05 -2.12125e-05 -0.000294419
0.00371153 6.20664e-05 -1.99895e-05
6.20664e-05 0.000158114 1.10073e-05
-1.99895e-05 1.10073e-05 -0.000112124
0.00258993 5.52633e-05 1.98391e-06
5.52633e-05 0.000176834 3.52774e-05
1.98391e-06 3.52774e-05 0.000310909
0.000431201 6.38294e-07 1.58486e-06
6.38294e-07 4.17644e-05 -1.50488e-06
1.58486e-06 -1.50488e-06 3.15177e-05
0.00113165 -2.20626e-06 -2.4452e-07
-2.20626e-06 4.48205e-05 -3.97926e-07
-2.4452e-07 -3.97926e-07 -1.46183e-05
0.00116092 -2.43457e-06 3.75694e-08
-2.43457e-06 6.05065e-05 -9.36313e-09
3.75694e-08 -9.36313e-09 4.2667e-06
0.00122042 9.60608e-07 2.6836e-08
9.60608e-07 8.71128e-05 5.44181e-07
2.6836e-08 5.44181e-07 3.79249e-05
0.00112048 1.2067e-06 -2.86948e-07
1.2067e-06 4.06127e-05 -6.94107e-07
-2.86948e-07 -6.94107e-07 -1.23993e-05
0.00117805 1.37617e-06 1.25136e-08
1.37617e-06 6.63737e-05 2.53954e-07
1.25136e-08 2.53954e-07 1.51353e-05
0.00124216 -3.00608e-07 1.71571e-07
-3.00608e-07 9.46411e-05 1.02122e-06
1.71571e-07 1.02122e-06 4.72759e-05
0.00126257 1.09474e-06 -7.21152e-09
1.09474e-06 0.00010779 3.90664e-08
-7.21152e-09 3.90664e-08 6.39155e-05
0.00126918 1.16535e-06 1.98491e-07
1.16535e-06 0.000109322 8.96857e-07
1.98491e-07 8.96857e-07 6.69763e-05
0.0011234 -1.81827e-05 -2.79806e-06
-1.81827e-05 -8.98991e-05 -4.20496e-07
-2.79806e-06 -4.20496e-07 -0.000138096
0.00125641 -1.49153e-05 -5.72616e-07
-1.49153e-05 9.44394e-05 -2.11658e-07
-5.72616e-07 -2.11658e-07 1.96779e-05
0.00115564 -3.12201e-06 3.43258e-07
-3.12201e-06 6.24828e-05 2.93711e-07
3.43258e-07 2.93711e-07 1.60403e-06
0.00120119 -7.6988e-06 2.37197e-08
-7.6988e-06 8.44627e-05 -4.66802e-07
2.37197e-08 -4.66802e-07 3.92267e-06
0.00132369 -3.79245e-06 2.09868e-07
-3.79245e-06 0.000148463 4.45634e-08
2.09868e-07 4.45634e-08 7.68102e-05
0.00117251 3.4431e-07 -3.81211e-08
3.4431e-07 7.5106e-05 -3.97962e-07
-3.81211e-08 -3.97962e-07 9.80815e-06
0.00113585 -1.60907e-06 -6.53134e-08
-1.60907e-06 5.47342e-05 3.21958e-08
-6.53134e-08 3.21958e-08 -1.0086e-05
0.00138103 -2.44524e-05 4.96053e-07
-2.44524e-05 7.06576e-05 -2.52292e-07
4.96053e-07 -2.52292e-07 -8.19355e-06
0.00116912 -1.80315e-06 5.61404e-08
-1.80315e-06 7.08747e-05 -1.66151e-08
5.61404e-08 -1.66151e-08 1.87644e-06
0.00121298 -2.54114e-06 -9.7517e-08
-2.54114e-06 9.54757e-05 1.07394e-07
-9.7517e-08 1.07394e-07 1.6532e-05
0.00117365 -9.28523e-06 -2.10578e-07
-9.28523e-06 9.44749e-05 -2.46785e-07
-2.10578e-07 -2.46785e-07 3.1678e-06
0.00112145 -1.01487e-06 1.55131e-09
-1.01487e-06 4.65698e-05 4.09695e-07
1.55131e-09 4.09695e-07 -1.9695e-05
0.00160403 -1.5907e-05 -2.20245e-06
-1.5907e-05 0.000279629 3.71566e-06
-2.20245e-06 3.71566e-06 0.000173693
0.00120007 1.23162e-06 -1.27719e-06
1.23162e-06 0.000121306 -3.89563e-07
-1.27719e-06 -3.89563e-07 3.15831e-05
0.00122937 -2.89625e-06 1.33602e-07
-2.89625e-06 9.73156e-05 5.12871e-07
1.33602e-07 5.12871e-07 2.50887e-05
0.00119843 -1.69368e-06 2.17642e-07
-1.69368e-06 8.42028e-05 2.0635e-07
2.17642e-07 2.0635e-07 1.28755e-05
0.00132107 5.46232e-07 3.21529e-06
5.46232e-07 0.000476817 4.89546e-07
3.21529e-06 4.89546e-07 0.00037988
0.00128273 -1.55949e-06 -4.62755e-06
-1.55949e-06 0.000567451 5.29285e-07
-4.62755e-06 5.29285e-07 0.00049091
-0.00171737 -1.09907e-06 -2.51707e-05
-1.09907e-06 -0.00113669 4.18739e-07
-2.51707e-05 4.18739e-07 -0.00115654
0.00110928 4.32172e-06 2.11686e-08
4.32172e-06 6.86455e-05 -3.08508e-07
2.11686e-08 -3.08508e-07 1.9997e-06
0.000954224 6.9509e-06 1.4088e-06
6.9509e-06 6.41559e-05 -2.0387e-07
1.4088e-06 -2.0387e-07 -3.10933e-05
0.000545041 -2.98112e-06 -1.37498e-05
-2.98112e-06 0.000114234 -3.85333e-06
-1.37498e-05 -3.85333e-06 4.55327e-05
0.00324072 -8.20591e-05 1.61832e-05
-8.20591e-05 0.00014516 1.28533e-05
1.61832e-05 1.28533e-05 -0.000104005
0.00147414 3.20667e-05 3.36239e-06
3.20667e-05 0.000260212 -1.41601e-05
3.36239e-06 -1.41601e-05 8.06217e-05
0.00113873 -5.01922e-05 -3.29251e-06
-5.01922e-05 -0.000615557 5.10884e-05
-3.29251e-06 5.10884e-05 -0.000421322
0.000360969 7.60199e-06 -4.37691e-06
7.60199e-06 -6.14228e-05 -7.06579e-06
-4.37691e-06 -7.06579e-06 -0.000114247
0.000382311 9.40808e-06 1.82686e-06
9.40808e-06 -8.36459e-06 -1.80082e-06
1.82686e-06 -1.80082e-06 -1.95345e-05
0.00109672 -6.9147e-07 -3.4332e-07
-6.9147e-07 7.04004e-05 -3.79954e-07
-3.4332e-07 -3.79954e-07 -2.63641e-06
0.000578772 5.60366e-06 1.32811e-07
5.60366e-06 2.90786e-05 7.64035e-07
1.32811e-07 7.64035e-07 -5.75883e-05
0.000625378 9.08702e-06 -9.98734e-07
9.08702e-06 6.9898e-05 4.75804e-07
-9.98734e-07 4.75804e-07 2.20281e-05
0.00095732 -2.3918e-06 -1.58603e-07
-2.3918e-06 0.000107772 -8.28265e-07
-1.58603e-07 -8.28265e-07 2.43409e-05
0.000669558 4.44164e-06 -9.65541e-07
4.44164e-06 0.000174073 1.33667e-06
-9.65541e-07 1.33667e-06 0.000198843
0.00302099 -2.29193e-06 -4.9922e-06
-2.29193e-06 0.000180643 -7.5515e-07
-4.9922e-06 -7.5515e-07 5.7466e-05
0.00407085 2.51047e-05 2.2955e-06
2.51047e-05 0.000515597 2.59661e-07
2.2955e-06 2.59661e-07 0.000831738
0.00108286 -8.08415e-06 -1.1013e-06
-8.08415e-06 3.31033e-05 -1.44767e-06
-1.1013e-06 -1.44767e-06 -3.08035e-05
0.000811306 5.98226e-06 -1.77197e-06
5.98226e-06 0.000135148 3.79925e-06
-1.77197e-06 3.79925e-06 6.13154e-05
0.000420256 6.83008e-07 -6.39763e-06
6.83008e-07 -4.68206e-05 9.76528e-06
-6.39763e-06 9.76528e-06 -8.29812e-05
0.00108006 1.6959e-05 -9.63589e-06
1.6959e-05 0.000429273 7.80571e-06
-9.63589e-06 7.80571e-06 0.000491502
0.00254543 6.07447e-05 -2.19714e-07
6.07447e-05 0.000152777 -3.42926e-05
-2.19714e-07 -3.42926e-05 0.000319947
0.00142767 7.89587e-06 2.6069e-07
7.89587e-06 0.000469849 -1.82163e-06
2.6069e-07 -1.82163e-06 0.000349886
0.00187358 2.49359e-05 1.7769e-06
2.49359e-05 -0.000353797 -2.27857e-05
1.7769e-06 -2.27857e-05 -0.000563164
0.00115832 -2.17273e-06 1.62096e-07
-2.17273e-06 6.13671e-05 -2.29445e-07
1.62096e-07 -2.29445e-07 -5.4965e-06
0.00108431 -3.97872e-06 4.54565e-07
-3.97872e-06 2.60904e-05 -3.36723e-07
4.54565e-07 -3.36723e-07 -4.11125e-05
0.00100172 1.64645e-07 2.9863e-07
1.64645e-07 7.15883e-06 -1.1544e-06
2.9863e-07 -1.1544e-06 -5.67394e-05
0.00121247 -7.03169e-07 8.41299e-08
-7.03169e-07 7.98768e-05 1.17145e-07
8.41299e-08 1.17145e-07 2.28746e-05
0.00116641 -2.12459e-06 3.46083e-08
-2.12459e-06 5.81047e-05 3.23325e-07
3.46083e-08 3.23325e-07 -3.99638e-06
0.00119096 -3.07343e-06 3.4691e-07
-3.07343e-06 7.17101e-05 5.47312e-07
3.4691e-07 5.47312e-07 7.58424e-06
0.00115157 -2.98946e-06 -5.69955e-08
-2.98946e-06 5.48347e-05 1.49742e-07
-5.69955e-08 1.49742e-07 -5.96172e-06
0.00111664 -2.61973e-06 -2.49038e-07
-2.61973e-06 4.27648e-05 2.92014e-07
-2.49038e-07 2.92014e-07 -1.95202e-05
0.0011171 -4.05883e-06 6.60527e-07
-4.05883e-06 5.53194e-05 7.11747e-08
6.60527e-07 7.11747e-08 -1.37571e-05
0.00116891 -3.58628e-06 1.70864e-07
-3.58628e-06 6.3152e-05 2.11591e-07
1.70864e-07 2.11591e-07 4.97134e-06
0.0010799 -1.92982e-06 4.55403e-09
-1.92982e-06 1.91835e-05 3.54293e-07
4.55403e-09 3.54293e-07 -3.72939e-05
0.00119354 -4.83973e-06 6.95826e-08
-4.83973e-06 7.82822e-05 2.63741e-07
6.95826e-08 2.63741e-07 1.72953e-05
0.00113317 -6.97709e-06 -3.21893e-08
-6.97709e-06 5.98102e-05 7.36393e-07
-3.21893e-08 7.36393e-07 -8.18817e-06
0.00112514 -4.67448e-06 -9.46786e-08
-4.67448e-06 4.23896e-05 8.04277e-08
-9.46786e-08 8.04277e-08 -1.32996e-05
0.00106622 -5.98418e-06 2.22188e-07
-5.98418e-06 1.64888e-05 -2.29002e-07
2.22188e-07 -2.29002e-07 -4.59401e-05
0.00120563 -7.36352e-06 6.40937e-08
-7.36352e-06 8.05657e-05 1.97218e-07
6.40937e-08 1.97218e-07 1.37806e-05
0.00118425 -6.39051e-06 -3.06493e-07
-6.39051e-06 6.75818e-05 3.55103e-07
-3.06493e-07 3.55103e-07 5.4782e-06
0.00126065 -5.06214e-06 9.45489e-08
-5.06214e-06 0.000103342 1.264e-07
9.45489e-08 1.264e-07 4.80887e-05
0.00113904 -6.06265e-06 -4.87728e-08
-6.06265e-06 4.78473e-05 2.39298e-08
-4.87728e-08 2.39298e-08 -1.27525e-05
0.00122349 -4.52609e-06 4.71643e-09
-4.52609e-06 9.57136e-05 -2.3333e-07
4.71643e-09 -2.3333e-07 4.0252e-05
0.00102509 -5.7135e-07 -3.49457e-07
-5.7135e-07 5.42459e-06 2.36624e-07
-3.49457e-07 2.36624e-07 -4.57312e-05
0.00114283 -4.4889e-06 1.38998e-07
-4.4889e-06 5.74052e-05 -1.87477e-07
1.38998e-07 -1.87477e-07 1.54856e-06
0.00110931 1.0281e-06 -6.27038e-07
1.0281e-06 3.62659e-05 1.63351e-07
-6.27038e-07 1.63351e-07 -6.36446e-06
0.00114271 -2.26034e-06 -2.16338e-07
-2.26034e-06 5.34537e-05 2.82889e-07
-2.16338e-07 2.82889e-07 4.34693e-06
0.00103762 -4.71985e-06 -1.07766e-07
-4.71985e-06 4.56477e-06 -8.15677e-08
-1.07766e-07 -8.15677e-08 -5.1125e-05
0.00108502 2.36463e-06 -8.41794e-07
2.36463e-06 2.02886e-05 6.11217e-07
-8.41794e-07 6.11217e-07 -1.27751e-05
0.00108016 1.32136e-07 7.34929e-08
1.32136e-07 1.87183e-05 3.34177e-08
7.34929e-08 3.34177e-08 -2.43735e-05
0.0011421 -2.7965e-06 5.52736e-07
-2.7965e-06 4.88706e-05 -2.9454e-07
5.52736e-07 -2.9454e-07 -1.56003e-07
0.00110789 1.1871e-07 5.49875e-07
1.1871e-07 3.23697e-05 -2.78217e-07
5.49875e-07 -2.78217e-07 -1.15854e-05
0.00108799 2.1696e-06 2.49086e-08
2.1696e-06 2.10324e-05 1.18425e-08
2.49086e-08 1.18425e-08 -1.25571e-05
0.00104356 3.9258e-06 -1.11123e-06
3.9258e-06 -2.83467e-06 1.27229e-06
-1.11123e-06 1.27229e-06 -2.08057e-05
0.00109362 1.72079e-06 7.0186e-07
1.72079e-06 2.24419e-05 -7.35215e-07
7.0186e-07 -7.35215e-07 -1.13668e-05
0.00105159 3.29197e-06 2.5596e-08
3.29197e-06 -1.15443e-06 7.02084e-09
2.5596e-08 7.02084e-09 -1.90828e-05
0.000986047 5.93752e-06 -1.43046e-06
5.93752e-06 -3.77881e-05 2.32474e-06
-1.43046e-06 2.32474e-06 -3.19551e-05
0.00105984 2.58514e-06 9.32379e-07
2.58514e-06 6.9002e-07 -1.38023e-06
9.32379e-07 -1.38023e-06 -1.73146e-05
0.000992624 4.90145e-06 5.0816e-08
4.90145e-06 -3.7551e-05 1.75737e-08
5.0816e-08 1.75737e-08 -3.15705e-05
0.00216469 6.38564e-06 -7.79861e-07
6.38564e-06 0.000523413 1.29509e-06
-7.79861e-07 1.29509e-06 0.000549231
0.00100341 3.86315e-06 1.11772e-06
3.86315e-06 -3.48412e-05 -2.50038e-06
1.11772e-06 -2.50038e-06 -2.89294e-05
0.00169173 4.97412e-06 4.79712e-07
4.97412e-06 0.000292794 -1.0343e-06
4.79712e-07 -1.0343e-06 0.000316316
0.00221208 3.78434e-06 1.25106e-06
3.78434e-06 0.00054206 -3.36501e-06
1.25106e-06 -3.36501e-06 0.000568132
0.000932981 -8.07602e-07 -6.85185e-07
-8.07602e-07 -5.39939e-05 -1.16262e-06
-6.85185e-07 -1.16262e-06 -8.96401e-05
0.000845751 -2.295e-06 -7.60645e-07
-2.295e-06 -0.000101574 -2.02535e-06
-7.60645e-07 -2.02535e-06 -0.00012081
0.0010489 -1.39995e-06 -7.04232e-08
-1.39995e-06 2.22146e-06 -3.59154e-07
-7.04232e-08 -3.59154e-07 -3.21615e-05
0.00101519 -3.02249e-06 -7.91432e-07
-3.02249e-06 -3.0293e-05 -2.6174e-06
-7.91432e-07 -2.6174e-06 -2.3137e-05
0.000838999 -1.87066e-06 -1.16135e-07
-1.87066e-06 -0.000106799 -5.20725e-07
-1.16135e-07 -5.20725e-07 -0.000124774
0.00116435 -1.24228e-06 3.00342e-07
-1.24228e-06 5.57998e-05 1.06858e-06
3.00342e-07 1.06858e-06 2.3525e-05
0.00215153 -2.60428e-06 -8.81026e-07
-2.60428e-06 0.000511324 -3.40099e-06
-8.81026e-07 -3.40099e-06 0.000538303
0.00100833 -2.00843e-06 -5.47162e-08
-2.00843e-06 -3.52088e-05 7.07599e-09
-5.47162e-08 7.07599e-09 -2.73502e-05
0.000841927 -1.22771e-06 2.92715e-07
-1.22771e-06 -0.000107477 1.62492e-06
2.92715e-07 1.62492e-06 -0.000124357
0.00215508 -1.27799e-06 -1.2683e-07
-1.27799e-06 0.000511851 5.83042e-09
-1.2683e-07 5.83042e-09 0.000539069
0.00100432 -1.04088e-06 1.34618e-07
-1.04088e-06 -3.80469e-05 2.70808e-06
1.34618e-07 2.70808e-06 -2.97154e-05
0.00215092 7.23602e-08 -9.62192e-08
7.23602e-08 0.000509551 3.43998e-06
-9.62192e-08 3.43998e-06 0.000536857
0.000793883 -3.61116e-06 3.63071e-06
-3.61116e-06 0.000157319 -3.90585e-06
3.63071e-06 -3.90585e-06 7.29549e-05
0.000792939 2.26408e-06 -4.37997e-07
2.26408e-06 0.00026454 5.71316e-07
-4.37997e-07 5.71316e-07 0.00020201
0.000635009 1.7734e-05 -1.97584e-05
1.7734e-05 0.000299439 7.46594e-06
-1.97584e-05 7.46594e-06 0.00030572
0.00114746 1.821e-06 -8.83306e-08
1.821e-06 5.00652e-05 1.65682e-08
-8.83306e-08 1.65682e-08 4.55457e-06
0.00103141 2.42203e-06 -4.50929e-07
2.42203e-06 -8.62935e-06 -4.79018e-07
-4.50929e-07 -4.79018e-07 -5.44643e-05
0.00120262 1.61864e-06 -4.35672e-08
1.61864e-06 7.83882e-05 2.23108e-07
-4.35672e-08 2.23108e-07 2.60651e-05
0.000704199 2.4719e-06 4.96343e-07
2.4719e-06 0.000132895 -7.92339e-06
4.96343e-07 -7.92339e-06 8.39697e-05
0.000713771 -3.7179e-06 7.90373e-07
-3.7179e-06 0.000146211 -3.47854e-07
7.90373e-07 -3.47854e-07 9.90188e-05
0.000974453 8.00951e-06 -1.03213e-05
8.00951e-06 0.000390139 1.04127e-05
-1.03213e-05 1.04127e-05 0.000373401
0.00248443 -3.12615e-05 -1.34234e-05
-3.12615e-05 0.000542753 7.61962e-06
-1.34234e-05 7.61962e-06 0.000448528
0.00318148 1.54643e-05 6.57117e-05
1.54643e-05 0.00056515 -5.65297e-05
6.57117e-05 -5.65297e-05 0.000324407
0.00312678 9.84931e-05 6.21134e-06
9.84931e-05 0.000927845 -1.83162e-05
6.21134e-06 -1.83162e-05 0.000922323
0.000680013 8.16625e-07 -5.27607e-06
8.16625e-07 0.000205535 3.111e-06
-5.27607e-06 3.111e-06 0.000213356
0.00126371 -3.8294e-05 -5.38715e-06
-3.8294e-05 6.45274e-05 4.76533e-06
-5.38715e-06 4.76533e-06 -6.31161e-05
0.003829 6.10297e-05 5.74642e-06
6.10297e-05 0.000595529 -1.79021e-05
5.74642e-06 -1.79021e-05 0.000335688
0.000527787 6.60969e-05 1.43898e-06
6.60969e-05 -0.000428608 6.59875e-06
1.43898e-06 6.59875e-06 -0.000361738
0.000444571 1.60087e-06 8.08071e-07
1.60087e-06 4.32909e-05 2.82637e-07
8.08071e-07 2.82637e-07 2.8128e-05
0.00139773 -3.51017e-05 2.71732e-06
-3.51017e-05 0.000281866 -1.52702e-05
2.71732e-06 -1.52702e-05 0.000148527
0.0045895 3.99505e-05 -2.87492e-06
3.99505e-05 0.000454031 -3.06024e-06
-2.87492e-06 -3.06024e-06 0.000422559
0.000517177 5.59797e-06 -4.96557e-07
5.59797e-06 -0.000811695 4.60155e-05
-4.96557e-07 4.60155e-05 -0.000611142
-7.49225e-05 -3.85008e-07 -4.4353e-06
-3.85008e-07 -0.000283542 4.46015e-07
-4.4353e-06 4.46015e-07 -0.000286534
0.00115663 1.19227e-06 -4.08168e-07
1.19227e-06 5.89426e-05 -1.09886e-07
-4.08168e-07 -1.09886e-07 -1.95402e-06
0.00112893 -2.62997e-06 -1.19352e-08
-2.62997e-06 4.43558e-05 -1.61593e-07
-1.19352e-08 -1.61593e-07 -1.49905e-05
0.00115824 -2.20635e-06 1.34345e-07
-2.20635e-06 5.93678e-05 4.45839e-07
1.34345e-07 4.45839e-07 2.65842e-06
0.00113221 1.00138e-06 -1.49659e-07
1.00138e-06 4.60493e-05 -5.31687e-07
-1.49659e-07 -5.31687e-07 -7.07326e-06
0.00123816 1.92452e-06 1.76455e-07
1.92452e-06 9.45958e-05 7.5751e-07
1.76455e-07 7.5751e-07 4.3994e-05
0.00127093 1.08332e-06 1.61456e-07
1.08332e-06 0.00011139 5.64127e-07
1.61456e-07 5.64127e-07 6.77309e-05
0.000858957 -2.34404e-05 -1.32787e-06
-2.34404e-05 -0.000166689 -5.15707e-07
-1.32787e-06 -5.15707e-07 -0.000246525
0.00123115 -9.65137e-06 -2.07626e-07
-9.65137e-06 0.000120624 -3.25614e-07
-2.07626e-07 -3.25614e-07 2.91194e-05
0.0011179 -1.89618e-06 1.27585e-08
-1.89618e-06 4.60615e-05 -7.18205e-08
1.27585e-08 -7.18205e-08 -1.88791e-05
0.00126151 -2.68255e-06 6.55173e-07
-2.68255e-06 0.000118565 -3.39626e-08
6.55173e-07 -3.39626e-08 3.92564e-05
0.00117005 -2.30671e-06 -2.38568e-07
-2.30671e-06 7.11817e-05 -1.93925e-07
-2.38568e-07 -1.93925e-07 1.45714e-06
0.00114743 -1.8066e-06 6.22449e-08
-1.8066e-06 5.98531e-05 3.60671e-07
6.22449e-08 3.60671e-07 -7.11858e-06
0.00113223 -1.40791e-06 -2.06711e-07
-1.40791e-06 5.26399e-05 1.7022e-07
-2.06711e-07 1.7022e-07 -1.92977e-05
0.00121051 -1.49302e-05 -4.63212e-07
-1.49302e-05 8.94392e-05 -2.74309e-07
-4.63212e-07 -2.74309e-07 -1.45571e-05
0.00118401 -3.22777e-06 2.24529e-07
-3.22777e-06 7.62754e-05 8.64479e-08
2.24529e-07 8.64479e-08 3.60262e-06
0.00114609 1.28312e-06 -2.16224e-07
1.28312e-06 9.26459e-05 1.18687e-07
-2.16224e-07 1.18687e-07 2.58166e-06
0.00106689 1.4446e-06 -2.23076e-07
1.4446e-06 2.24067e-05 -4.30297e-08
-2.23076e-07 -4.30297e-08 -5.03631e-05
0.00158438 -2.7394e-06 -2.09717e-06
-2.7394e-06 0.000343701 5.04056e-06
-2.09717e-06 5.04056e-06 0.00022873
0.00109834 -7.80418e-07 6.42008e-07
-7.80418e-07 4.6768e-05 -5.09099e-07
6.42008e-07 -5.09099e-07 -3.32462e-05
0.00115505 -4.56647e-06 6.34221e-07
-4.56647e-06 6.36609e-05 -1.05606e-07
6.34221e-07 -1.05606e-07 -1.59211e-05
0.00109945 2.61913e-06 -1.12395e-06
2.61913e-06 0.000295105 4.86994e-07
-1.12395e-06 4.86994e-07 0.000207024
0.000774695 -2.97666e-08 5.38725e-07
-2.97666e-08 0.000135283 7.50139e-07
5.38725e-07 7.50139e-07 3.74832e-05
0.00103229 -8.59581e-07 -1.6594e-05
-8.59581e-07 0.000408653 1.34926e-06
-1.6594e-05 1.34926e-06 0.00033241
0.00136542 3.89914e-07 -4.55854e-07
3.89914e-07 0.000198037 5.7034e-07
-4.55854e-07 5.7034e-07 0.000125358
0.00137339 -3.90095e-06 3.44295e-06
-3.90095e-06 0.000330038 -1.77082e-06
3.44295e-06 -1.77082e-06 0.000236563
0.0004444 5.35131e-06 -2.65452e-06
5.35131e-06 -5.33854e-05 -1.7013e-06
-2.65452e-06 -1.7013e-06 -0.000140708
0.00183814 -1.45422e-05 7.19144e-07
-1.45422e-05 -0.000162779 5.15521e-06
7.19144e-07 5.15521e-06 -0.000154744
-0.000173413 2.34538e-05 -3.04447e-07
2.34538e-05 -0.00122024 4.38333e-05
-3.04447e-07 4.38333e-05 -0.000988485
0.000573444 8.44047e-06 1.2361e-06
8.44047e-06 2.55026e-05 -5.27222e-06
1.2361e-06 -5.27222e-06 -2.78095e-05
0.000670006 3.25333e-06 5.71331e-06
3.25333e-06 0.000187331 -3.6293e-06
5.71331e-06 -3.6293e-06 0.000206735
0.00119126 -7.44462e-06 -7.10022e-08
-7.44462e-06 8.354e-05 7.22302e-07
-7.10022e-08 7.22302e-07 1.84557e-05
0.000752587 5.12181e-06 -3.72863e-07
5.12181e-06 9.73753e-05 1.91859e-06
-3.72863e-07 1.91859e-06 2.0185e-05
0.000712903 7.14386e-08 -4.88046e-07
7.14386e-08 0.000137606 3.23388e-07
-4.88046e-07 3.23388e-07 0.000100096
0.00049814 1.87454e-05 -1.05297e-06
1.87454e-05 -1.83553e-05 -4.87114e-07
-1.05297e-06 -4.87114e-07 -0.000227591
0.000530846 1.30275e-05 3.51697e-06
1.30275e-05 9.27411e-05 -2.50674e-06
3.51697e-06 -2.50674e-06 0.000162411
0.000447328 6.96624e-05 -1.316e-06
6.96624e-05 -0.000479107 -6.7147e-06
-1.316e-06 -6.7147e-06 -0.000375492
0.00544465 3.10537e-05 -2.0851e-06
3.10537e-05 0.000721126 -3.76338e-06
-2.0851e-06 -3.76338e-06 0.000951047
0.00119942 1.09304e-06 2.16171e-06
1.09304e-06 0.000136457 -2.21096e-06
2.16171e-06 -2.21096e-06 8.14312e-05
0.000790631 -1.20345e-06 -3.55095e-06
-1.20345e-06 0.000152423 4.12213e-06
-3.55095e-06 4.12213e-06 7.67943e-05
0.000293633 7.87745e-06 -1.81483e-05
7.87745e-06 -4.57752e-05 9.58717e-06
-1.81483e-05 9.58717e-06 -5.67002e-05
-0.000214414 3.60038e-05 -8.30786e-06
3.60038e-05 -0.000306939 6.51688e-06
-8.30786e-06 6.51688e-06 -0.000221468
0.000363028 6.72339e-05 2.3908e-06
6.72339e-05 -1.59875e-05 -3.65198e-05
2.3908e-06 -3.65198e-05 5.21978e-05
0.00618124 3.15137e-05 5.39371e-06
3.15137e-05 0.00123517 -9.94381e-06
5.39371e-06 -9.94381e-06 0.00123748
0.000284547 -1.50317e-06 2.46396e-06
-1.50317e-06 9.18105e-06 1.24809e-05
2.46396e-06 1.24809e-05 -0.000335498
0.00104615 -3.5492e-06 1.27656e-06
-3.5492e-06 1.03978e-05 -5.22714e-07
1.27656e-06 -5.22714e-07 -5.72592e-05
0.00109333 -8.64708e-07 -9.70187e-08
-8.64708e-07 4.52635e-05 -7.27618e-07
-9.70187e-08 -7.27618e-07 -1.80554e-05
0.00102088 9.71848e-07 1.03193e-06
9.71848e-07 4.44844e-05 1.58284e-07
1.03193e-06 1.58284e-07 -3.45588e-05
0.0011361 -2.95334e-06 8.41033e-08
-2.95334e-06 4.67471e-05 3.09956e-07
8.41033e-08 3.09956e-07 -1.391e-05
0.0011112 -3.12623e-06 1.17076e-07
-3.12623e-06 3.97761e-05 1.32306e-06
1.17076e-07 1.32306e-06 -2.23653e-05
0.00111947 -3.98189e-06 4.04727e-08
-3.98189e-06 5.65235e-05 2.70887e-07
4.04727e-08 2.70887e-07 -1.18877e-05
0.000986231 -7.64734e-06 4.9838e-07
-7.64734e-06 6.17947e-06 8.17928e-07
4.9838e-07 8.17928e-07 -7.79763e-05
0.00120435 -4.97502e-06 3.84568e-08
-4.97502e-06 8.2096e-05 2.92296e-07
3.84568e-08 2.92296e-07 2.06326e-05
0.00125006 -7.43771e-06 -1.68464e-07
-7.43771e-06 0.000112924 3.98988e-07
-1.68464e-07 3.98988e-07 4.37757e-05
0.00131868 -9.45307e-06 -3.17033e-07
-9.45307e-06 0.000140085 4.58494e-07
-3.17033e-07 4.58494e-07 6.60425e-05
0.0010939 -5.84053e-06 -1.00797e-07
-5.84053e-06 3.13766e-05 -3.1977e-07
-1.00797e-07 -3.1977e-07 -3.04573e-05
0.00117447 -7.25076e-06 -2.77029e-08
-7.25076e-06 6.6301e-05 -8.99498e-08
-2.77029e-08 -8.99498e-08 -5.22537e-07
0.00134968 -8.17967e-06 -2.03955e-07
-8.17967e-06 0.000141861 -4.73978e-08
-2.03955e-07 -4.73978e-08 7.44862e-05
0.00127165 -7.16032e-06 -1.66257e-07
-7.16032e-06 9.99303e-05 -1.29674e-07
-1.66257e-07 -1.29674e-07 3.68421e-05
0.00107786 -5.31639e-06 -1.61175e-07
-5.31639e-06 2.19679e-05 4.57294e-07
-1.61175e-07 4.57294e-07 -3.63712e-05
0.00114333 -6.35286e-06 -6.48895e-08
-6.35286e-06 4.88557e-05 8.14034e-08
-6.48895e-08 8.14034e-08 -1.35882e-05
0.00115783 -6.16618e-06 -1.56252e-07
-6.16618e-06 5.65081e-05 -1.84006e-07
-1.56252e-07 -1.84006e-07 -4.41518e-06
0.00123353 -2.70977e-06 -8.14699e-08
-2.70977e-06 0.000100959 -1.1776e-07
-8.14699e-08 -1.1776e-07 4.98722e-05
0.00115636 -4.3237e-06 2.95915e-07
-4.3237e-06 6.44351e-05 -4.60403e-07
2.95915e-07 -4.60403e-07 9.38757e-06
0.000999525 2.93705e-06 -4.47753e-07
2.93705e-06 -8.72807e-06 6.14579e-07
-4.47753e-07 6.14579e-07 -5.35452e-05
0.0011217 -5.89589e-07 2.94262e-08
-5.89589e-07 5.10145e-05 -4.60576e-08
2.94262e-08 -4.60576e-08 5.03342e-07
0.00117246 -4.48044e-06 5.75732e-07
-4.48044e-06 7.13445e-05 -6.21206e-07
5.75732e-07 -6.21206e-07 1.60592e-05
0.0010793 2.92031e-06 -9.47199e-07
2.92031e-06 2.0586e-05 5.28111e-07
-9.47199e-07 5.28111e-07 -1.23546e-05
0.00112019 1.02266e-06 -1.01859e-07
1.02266e-06 4.10164e-05 -4.66329e-08
-1.01859e-07 -4.66329e-08 -1.5987e-06
0.00116093 -2.37796e-06 1.39112e-07
-2.37796e-06 6.1918e-05 1.88899e-08
1.39112e-07 1.88899e-08 1.26932e-05
0.0010396 4.46743e-06 -1.27575e-06
4.46743e-06 -2.68363e-06 1.16511e-06
-1.27575e-06 1.16511e-06 -2.06162e-05
0.00108692 2.36833e-06 5.11687e-08
2.36833e-06 2.11106e-05 3.09007e-08
5.11687e-08 3.09007e-08 -1.1929e-05
0.00104596 1.41528e-07 6.63988e-07
1.41528e-07 1.9681e-06 -1.9057e-07
6.63988e-07 -1.9057e-07 -4.14037e-05
0.00108845 2.17535e-06 7.9552e-07
2.17535e-06 2.11962e-05 -6.74179e-07
7.9552e-07 -6.74179e-07 -1.23646e-05
0.001047 3.92554e-06 4.91181e-08
3.92554e-06 -1.22994e-06 1.71159e-08
4.91181e-08 1.71159e-08 -1.92e-05
0.000977725 6.93587e-06 -1.61692e-06
6.93587e-06 -3.84522e-05 2.2277e-06
-1.61692e-06 2.2277e-06 -3.29168e-05
0.00105532 3.28838e-06 1.04327e-06
3.28838e-06 5.90659e-07 -1.31798e-06
1.04327e-06 -1.31798e-06 -1.73461e-05
0.000991949 5.9253e-06 4.31374e-08
5.9253e-06 -3.49765e-05 1.63823e-08
4.31374e-08 1.63823e-08 -2.91636e-05
0.00221979 7.54341e-06 -1.97748e-06
7.54341e-06 0.000553394 3.14732e-06
-1.97748e-06 3.14732e-06 0.000578475
0.00100074 4.87559e-06 1.33907e-06
4.87559e-06 -3.37712e-05 -2.39451e-06
1.33907e-06 -2.39451e-06 -2.78287e-05
0.00166775 6.28865e-06 5.55539e-07
6.28865e-06 0.000284198 -1.01651e-06
5.55539e-07 -1.01651e-06 0.000307557
0.00219536 5.07669e-06 1.56733e-06
5.07669e-06 0.000536303 -3.27942e-06
1.56733e-06 -3.27942e-06 0.000562185
0.00108343 -3.32448e-07 -7.1934e-07
-3.32448e-07 1.71852e-05 -7.42065e-07
-7.1934e-07 -7.42065e-07 -1.69911e-05
0.00105689 -2.49713e-06 -9.26461e-07
-2.49713e-06 1.05452e-06 -1.40281e-06
-9.26461e-07 -1.40281e-06 -1.74894e-05
0.00101235 -6.87042e-07 -1.82223e-07
-6.87042e-07 -1.58662e-05 -3.22293e-07
-1.82223e-07 -3.22293e-07 -5.11292e-05
0.00101343 -3.97434e-06 -1.04966e-06
-3.97434e-06 -2.90482e-05 -2.55205e-06
-1.04966e-06 -2.55205e-06 -2.27177e-05
0.000945933 -2.30769e-06 -1.49734e-07
-2.30769e-06 -5.32555e-05 -4.96352e-07
-1.49734e-07 -4.96352e-07 -7.18726e-05
0.00116366 -1.43472e-06 2.44558e-07
-1.43472e-06 5.7358e-05 5.0218e-07
2.44558e-07 5.0218e-07 2.35273e-05
0.00216072 -3.88408e-06 -1.22374e-06
-3.88408e-06 0.000517514 -3.37081e-06
-1.22374e-06 -3.37081e-06 0.000544084
0.00100616 -3.03976e-06 -5.16198e-08
-3.03976e-06 -3.46591e-05 2.49812e-09
-5.16198e-08 2.49812e-09 -2.74284e-05
0.000824334 -1.8834e-06 3.54374e-07
-1.8834e-06 -0.00011351 1.06288e-06
3.54374e-07 1.06288e-06 -0.000131612
0.00216381 -2.55828e-06 -1.05679e-07
-2.55828e-06 0.000517029 1.00112e-08
-1.05679e-07 1.00112e-08 0.000543995
0.00100274 -2.01881e-06 4.5452e-07
-2.01881e-06 -3.79336e-05 2.68983e-06
4.5452e-07 2.68983e-06 -3.00259e-05
0.00216037 -1.23406e-06 2.53429e-07
-1.23406e-06 0.000514291 3.41972e-06
2.53429e-07 3.41972e-06 0.000541518
0.000797912 2.27408e-06 2.46617e-08
2.27408e-06 0.00012573 -3.57217e-06
2.46617e-08 -3.57217e-06 4.67653e-05
0.000905352 -3.77072e-06 5.28151e-07
-3.77072e-06 0.000227354 -2.4626e-07
5.28151e-07 -2.4626e-07 0.000142712
0.00100341 2.52237e-06 -1.1722e-05
2.52237e-06 0.000393906 5.61318e-06
-1.1722e-05 5.61318e-06 0.000332112
0.00103029 1.74402e-06 -5.47994e-07
1.74402e-06 -9.27004e-06 -3.43971e-07
-5.47994e-07 -3.43971e-07 -5.35969e-05
0.00122655 3.45063e-06 -2.93222e-07
3.45063e-06 8.3638e-05 1.27048e-07
-2.93222e-07 1.27048e-07 3.57869e-05
0.00118317 1.84058e-06 2.2874e-07
1.84058e-06 6.66653e-05 5.15964e-07
2.2874e-07 5.15964e-07 2.1505e-05
0.00102367 2.35563e-06 2.24252e-09
2.35563e-06 -1.22553e-05 3.08812e-10
2.24252e-09 3.08812e-10 -5.79294e-05
0.00115625 1.79183e-06 1.5228e-07
1.79183e-06 5.59667e-05 2.63491e-07
1.5228e-07 2.63491e-07 3.00436e-06
0.00119169 3.97816e-06 -2.25929e-07
3.97816e-06 7.028e-05 -8.39719e-08
-2.25929e-07 -8.39719e-08 1.78471e-05
0.00114203 3.69512e-06 -3.61731e-08
3.69512e-06 5.01322e-05 3.53754e-07
-3.61731e-08 3.53754e-07 -7.19283e-06
0.00077634 4.36813e-06 -7.3366e-06
4.36813e-06 0.000192798 -7.90493e-06
-7.3366e-06 -7.90493e-06 0.00014658
0.00063782 2.19612e-06 6.17251e-07
2.19612e-06 8.21349e-05 -3.25819e-06
6.17251e-07 -3.25819e-06 2.74251e-05
0.00104572 -4.17241e-06 -4.42485e-06
-4.17241e-06 0.000355239 6.23223e-06
-4.42485e-06 6.23223e-06 0.000306489
0.000538444 2.37133e-06 2.22393e-07
2.37133e-06 9.32362e-05 4.08559e-06
2.22393e-07 4.08559e-06 7.34807e-05
0.00154312 -4.04649e-05 -2.15048e-05
-4.04649e-05 2.83578e-05 3.06986e-05
-2.15048e-05 3.06986e-05 -0.000154128
0.00290625 5.92191e-05 4.62266e-05
5.92191e-05 0.000419866 -7.67787e-05
4.62266e-05 -7.67787e-05 0.000200289
0.0029242 6.0829e-05 3.06116e-06
6.0829e-05 0.000191209 -1.71981e-05
3.06116e-06 -1.71981e-05 0.000348859
0.00045619 -3.4042e-05 -6.42243e-06
-3.4042e-05 -0.000230669 1.00819e-05
-6.42243e-06 1.00819e-05 -0.00040594
0.00232786 2.07783e-05 -2.73469e-06
2.07783e-05 -0.000280689 -1.5498e-05
-2.73469e-06 -1.5498e-05 -0.000443861
0.0042312 6.68706e-06 -3.18235e-06
6.68706e-06 0.000588094 -8.85067e-08
-3.18235e-06 -8.85067e-08 0.000862037
0.0002448 -2.75011e-06 2.37592e-06
-2.75011e-06 -9.91963e-05 3.18887e-06
2.37592e-06 3.18887e-06 -9.38064e-05
0.00140208 -2.3271e-05 -6.03582e-08
-2.3271e-05 0.000421918 -4.34248e-06
-6.03582e-08 -4.34248e-06 0.000252921
0.00117288 4.08201e-06 8.96837e-07
4.08201e-06 -0.000781524 -1.56776e-06
8.96837e-07 -1.56776e-06 -0.00102685
-0.000388269 -4.94685e-05 -4.11231e-06
-4.94685e-05 -0.000967089 3.54499e-05
-4.11231e-06 3.54499e-05 -0.000826436
-0.000132181 -1.72175e-05 -1.40902e-05
-1.72175e-05 -0.000310519 -5.98104e-06
-1.40902e-05 -5.98104e-06 -0.000273276
0.00115449 4.50234e-06 -1.06388e-06
4.50234e-06 6.14352e-05 -1.42162e-07
-1.06388e-06 -1.42162e-07 -4.1787e-06
0.00117323 5.75439e-07 -3.94428e-08
5.75439e-07 6.72999e-05 -1.63243e-08
-3.94428e-08 -1.63243e-08 6.08822e-06
0.00112841 -2.91389e-06 9.06717e-08
-2.91389e-06 4.49404e-05 -1.14592e-07
9.06717e-08 -1.14592e-07 -1.43196e-05
0.001144 4.38585e-07 2.82143e-08
4.38585e-07 5.15219e-05 -2.40468e-07
2.82143e-08 -2.40468e-07 -1.71159e-06
0.000843795 -1.40463e-05 1.13069e-07
-1.40463e-05 -8.777e-05 -1.50734e-06
1.13069e-07 -1.50734e-06 -0.00019003
0.00109214 1.2818e-06 9.69343e-07
1.2818e-06 6.38423e-05 2.01038e-07
9.69343e-07 2.01038e-07 -2.6547e-05
0.00117725 -2.58163e-06 1.29775e-07
-2.58163e-06 7.50175e-05 4.4737e-07
1.29775e-07 4.4737e-07 7.32289e-06
0.0010669 -1.21954e-06 -3.85581e-07
-1.21954e-06 2.14705e-05 2.99816e-07
-3.85581e-07 2.99816e-07 -5.1077e-05
0.00113643 -3.65665e-06 -1.69263e-07
-3.65665e-06 5.42241e-05 -4.46957e-07
-1.69263e-07 -4.46957e-07 -1.88928e-05
0.0011293 1.39465e-06 -8.01789e-08
1.39465e-06 5.26236e-05 -3.48091e-08
-8.01789e-08 -3.48091e-08 -1.93904e-05
0.00115671 -3.76028e-06 -2.55873e-07
-3.76028e-06 6.49763e-05 -6.84194e-08
-2.55873e-07 -6.84194e-08 -1.4818e-05
0.00100756 -2.06593e-06 4.17842e-07
-2.06593e-06 9.52578e-05 5.31289e-07
4.17842e-07 5.31289e-07 -1.46751e-05
0.00102348 -1.46194e-06 6.29605e-07
-1.46194e-06 1.10009e-05 -3.87509e-07
6.29605e-07 -3.87509e-07 -6.78336e-05
0.00112974 2.70886e-06 -2.54209e-07
2.70886e-06 5.51195e-05 1.85039e-07
-2.54209e-07 1.85039e-07 -2.30078e-05
0.000839654 -9.26806e-08 -4.10098e-07
-9.26806e-08 6.50186e-05 7.80265e-06
-4.10098e-07 7.80265e-06 -3.44024e-05
0.00118136 -3.23686e-06 1.28141e-06
-3.23686e-06 8.34642e-05 -9.00319e-07
1.28141e-06 -9.00319e-07 -7.62336e-06
0.00128946 2.13636e-06 -3.36964e-06
2.13636e-06 0.000450908 2.78532e-07
-3.36964e-06 2.78532e-07 0.000360783
0.000769819 1.70887e-06 -3.70355e-07
1.70887e-06 9.09095e-05 2.47352e-07
-3.70355e-07 2.47352e-07 1.20937e-06
0.000250298 -5.19684e-07 -1.45571e-06
-5.19684e-07 -0.000192219 6.83856e-07
-1.45571e-06 6.83856e-07 -0.000290943
0.00130438 -6.82794e-06 5.4103e-07
-6.82794e-06 0.000136408 2.73466e-06
5.4103e-07 2.73466e-06 7.01358e-05
0.000976445 5.7181e-06 -1.14825e-06
5.7181e-06 0.000240877 1.42367e-06
-1.14825e-06 1.42367e-06 0.000123153
0.000698854 4.26833e-06 1.13918e-06
4.26833e-06 6.2793e-05 -9.70643e-07
1.13918e-06 -9.70643e-07 -1.77837e-05
0.00143606 4.08907e-05 -4.16911e-06
4.08907e-05 -0.000561163 1.71814e-05
-4.16911e-06 1.71814e-05 -0.00078253
0.00299532 6.07308e-05 -3.20025e-06
6.07308e-05 0.000196374 1.58038e-05
-3.20025e-06 1.58038e-05 0.000411082
0.00101817 -5.77438e-07 4.95568e-06
-5.77438e-07 0.00032978 -6.58279e-06
4.95568e-06 -6.58279e-06 0.000290763
0.00167609 1.17045e-05 1.5126e-05
1.17045e-05 0.000819715 -9.33945e-06
1.5126e-05 -9.33945e-06 0.000877622
0.00105024 -7.51022e-07 3.12228e-07
-7.51022e-07 5.3465e-05 5.93275e-07
3.12228e-07 5.93275e-07 1.11334e-08
0.000894689 -1.281e-06 -1.72684e-07
-1.281e-06 0.000217728 1.4761e-07
-1.72684e-07 1.4761e-07 0.000141908
0.000642188 8.05167e-06 -3.45544e-06
8.05167e-06 0.000172644 3.83784e-07
-3.45544e-06 3.83784e-07 0.000162682
0.00139941 1.53355e-06 2.8761e-07
1.53355e-06 0.000540078 2.45871e-06
2.8761e-07 2.45871e-06 0.00032998
-4.14654e-05 3.53629e-05 8.11716e-06
3.53629e-05 -0.000210144 -6.00746e-06
8.11716e-06 -6.00746e-06 -0.000123653
-0.00152089 7.48675e-05 -5.03288e-06
7.48675e-05 -0.00124969 -5.85392e-06
-5.03288e-06 -5.85392e-06 -0.00118895
0.00139707 2.56632e-05 4.38941e-06
2.56632e-05 -0.000565418 -2.23763e-06
4.38941e-06 -2.23763e-06 -0.00073031
0.0010874 2.8699e-06 2.75516e-06
2.8699e-06 0.000126875 -2.06187e-06
2.75516e-06 -2.06187e-06 4.14518e-05
0.000681902 1.83661e-06 -1.07613e-05
1.83661e-06 0.00019299 4.8341e-06
-1.07613e-05 4.8341e-06 0.000137005
-0.00211017 3.16333e-05 -2.28791e-05
3.16333e-05 -0.00142955 1.11746e-05
-2.28791e-05 1.11746e-05 -0.0013882
-0.00107914 5.56782e-05 2.20526e-05
5.56782e-05 -0.000225543 -3.08427e-05
2.20526e-05 -3.08427e-05 -0.000145208
0.00419857 5.07628e-05 2.41965e-05
5.07628e-05 0.000550177 -3.09019e-05
2.41965e-05 -3.09019e-05 0.000356002
0.00204805 -4.0585e-05 -6.50118e-07
-4.0585e-05 0.000596907 2.04778e-05
-6.50118e-07 2.04778e-05 0.000316628
0.00117735 -1.91135e-06 3.58179e-07
-1.91135e-06 7.99992e-05 -1.17299e-07
3.58179e-07 -1.17299e-07 1.72529e-05
0.00106538 4.98046e-07 -1.85899e-08
4.98046e-07 6.26514e-05 -6.91645e-08
-1.85899e-08 -6.91645e-08 -1.56995e-05
0.00108458 -7.0014e-06 1.00437e-06
-7.0014e-06 8.01126e-05 8.64304e-07
1.00437e-06 8.64304e-07 -1.9789e-05
0.00111965 -3.95799e-06 -5.54173e-07
-3.95799e-06 5.68153e-05 5.37199e-07
-5.54173e-07 5.37199e-07 -1.09368e-05
0.000973652 -7.14949e-06 1.4871e-07
-7.14949e-06 2.15902e-06 4.70146e-07
1.4871e-07 4.70146e-07 -8.05281e-05
0.00130398 -1.25047e-05 -5.08856e-07
-1.25047e-05 0.000135468 2.54198e-07
-5.08856e-07 2.54198e-07 4.83768e-05
0.00136706 -7.90977e-06 -1.83388e-07
-7.90977e-06 0.00016607 -3.00645e-08
-1.83388e-07 -3.00645e-08 9.57748e-05
0.00126818 -9.4319e-06 -1.93616e-07
-9.4319e-06 0.000115751 2.01882e-07
-1.93616e-07 2.01882e-07 4.08758e-05
0.00127838 -1.01868e-05 -6.15416e-07
-1.01868e-05 0.000102885 -8.45402e-07
-6.15416e-07 -8.45402e-07 3.0775e-05
0.00114148 -7.1467e-06 -1.60366e-07
-7.1467e-06 5.12243e-05 -3.015e-07
-1.60366e-07 -3.015e-07 -1.56405e-05
0.00126037 -7.96558e-06 -5.62941e-08
-7.96558e-06 9.99136e-05 -4.99227e-08
-5.62941e-08 -4.99227e-08 3.22603e-05
0.00127261 -7.69577e-06 -1.00769e-07
-7.69577e-06 9.23172e-05 -1.03732e-06
-1.00769e-07 -1.03732e-06 2.85623e-05
0.00124595 -6.43826e-06 -7.78312e-09
-6.43826e-06 7.04352e-05 -1.10771e-06
-7.78312e-09 -1.10771e-06 1.15445e-05
0.00126933 -6.576e-06 -3.26437e-07
-6.576e-06 0.000102209 3.4971e-07
-3.26437e-07 3.4971e-07 4.19936e-05
0.0012133 -7.03353e-06 -7.3574e-08
-7.03353e-06 7.26765e-05 -6.91026e-08
-7.3574e-08 -6.91026e-08 9.34421e-06
0.001038 -4.4473e-06 -2.37219e-07
-4.4473e-06 5.33252e-06 1.96392e-07
-2.37219e-07 1.96392e-07 -4.83845e-05
0.00112333 -5.32533e-06 1.36713e-07
-5.32533e-06 4.36441e-05 -8.86403e-11
1.36713e-07 -8.86403e-11 -1.41769e-05
0.00110369 -6.32909e-06 7.68692e-09
-6.32909e-06 3.07162e-05 -1.94287e-07
7.68692e-09 -1.94287e-07 -3.2068e-05
0.00112115 7.35608e-07 -3.7685e-07
7.35608e-07 4.81099e-05 3.57691e-07
-3.7685e-07 3.57691e-07 2.07519e-06
0.00115808 -2.57832e-06 6.62694e-08
-2.57832e-06 6.52534e-05 -2.54013e-07
6.62694e-08 -2.54013e-07 1.3666e-05
0.001089 -4.12661e-06 6.47725e-07
-4.12661e-06 3.30631e-05 -5.78834e-07
6.47725e-07 -5.78834e-07 -2.15718e-05
0.00106585 3.5914e-06 -8.2894e-07
3.5914e-06 1.96414e-05 5.81889e-07
-8.2894e-07 5.81889e-07 -1.45114e-05
0.00104947 2.96117e-06 -7.8452e-08
2.96117e-06 1.47248e-05 2.31073e-07
-7.8452e-08 2.31073e-07 -2.96086e-05
0.00121615 -6.03396e-07 2.56317e-07
-6.03396e-07 9.55837e-05 -3.09989e-07
2.56317e-07 -3.09989e-07 4.5722e-05
0.00103067 5.10699e-06 -1.39791e-06
5.10699e-06 -3.62819e-06 1.05291e-06
-1.39791e-06 1.05291e-06 -2.17321e-05
0.00108549 2.92609e-06 -3.87197e-08
2.92609e-06 2.33594e-05 -1.7298e-08
-3.87197e-08 -1.7298e-08 -9.57102e-06
0.00113061 9.4513e-07 4.39868e-07
9.4513e-07 4.55495e-05 -2.86918e-07
4.39868e-07 -2.86918e-07 2.95125e-06
0.00100981 7.84319e-06 -2.42741e-06
7.84319e-06 -1.91593e-05 3.02608e-06
-2.42741e-06 3.02608e-06 -1.42296e-05
0.00104264 4.46925e-06 4.4124e-08
4.46925e-06 -1.28309e-06 2.494e-08
4.4124e-08 2.494e-08 -1.92026e-05
0.00108878 2.37387e-06 9.46662e-07
2.37387e-06 2.19052e-05 -5.61378e-07
9.46662e-07 -5.61378e-07 -1.11098e-05
0.00105057 3.92498e-06 1.20402e-06
3.92498e-06 4.37192e-07 -1.2328e-06
1.20402e-06 -1.2328e-06 -1.75322e-05
0.000985028 6.92252e-06 6.09411e-08
6.92252e-06 -3.49459e-05 2.10371e-08
6.09411e-08 2.10371e-08 -2.94418e-05
0.00221792 8.80169e-06 -2.22108e-06
8.80169e-06 0.000556361 3.04698e-06
-2.22108e-06 3.04698e-06 0.000580917
0.000997582 5.91405e-06 1.5236e-06
5.91405e-06 -3.22928e-05 -2.29396e-06
1.5236e-06 -2.29396e-06 -2.64988e-05
0.00218893 7.59668e-06 7.16106e-08
7.59668e-06 0.000539051 2.21438e-08
7.16106e-08 2.21438e-08 0.000564219
0.00217398 6.36926e-06 1.84552e-06
6.36926e-06 0.000528894 -3.18151e-06
1.84552e-06 -3.18151e-06 0.000554535
0.00113437 1.28906e-06 -6.37163e-07
1.28906e-06 4.00381e-05 -2.38022e-07
-6.37163e-07 -2.38022e-07 -2.5688e-06
0.0010849 -9.99352e-07 -7.76358e-07
-9.99352e-07 1.81891e-05 -6.96101e-07
-7.76358e-07 -6.96101e-07 -1.53504e-05
0.00104882 -2.84051e-06 -1.06655e-06
-2.84051e-06 -1.8907e-06 -1.30895e-06
-1.06655e-06 -1.30895e-06 -2.03646e-05
0.00108762 -2.55916e-07 2.8766e-09
-2.55916e-07 1.91448e-05 1.04225e-08
2.8766e-09 1.04225e-08 -1.5055e-05
0.00100645 -4.85245e-06 -1.32054e-06
-4.85245e-06 -3.01403e-05 -2.43994e-06
-1.32054e-06 -2.43994e-06 -2.44269e-05
0.00105222 -2.50751e-06 -7.98797e-08
-2.50751e-06 -1.10425e-06 3.04851e-08
-7.98797e-08 3.04851e-08 -1.96437e-05
0.00109075 -5.78174e-07 3.59951e-07
-5.78174e-07 2.17957e-05 4.87441e-07
3.59951e-07 4.87441e-07 -1.30808e-05
0.00217405 -5.13381e-06 -1.55794e-06
-5.13381e-06 0.000526308 -3.32273e-06
-1.55794e-06 -3.32273e-06 0.000552347
0.00100248 -3.99661e-06 -6.77561e-08
-3.99661e-06 -3.43073e-05 7.61554e-09
-6.77561e-08 7.61554e-09 -2.78993e-05
0.00104466 -2.31892e-06 4.76694e-07
-2.31892e-06 -5.61705e-06 1.01753e-06
4.76694e-07 1.01753e-06 -2.36125e-05
0.00217581 -3.84159e-06 -9.51563e-08
-3.84159e-06 0.000524477 1.42098e-08
-9.51563e-08 1.42098e-08 0.000551051
0.000996863 -3.05814e-06 6.85458e-07
-3.05814e-06 -3.91602e-05 2.63497e-06
6.85458e-07 2.63497e-06 -3.18529e-05
0.00217646 -2.51079e-06 6.79016e-07
-2.51079e-06 0.000522925 3.42298e-06
6.79016e-07 3.42298e-06 0.000549874
0.000694146 5.96752e-06 -4.06455e-06
5.96752e-06 9.19259e-05 -3.66323e-06
-4.06455e-06 -3.66323e-06 1.19479e-05
0.000784903 1.7175e-06 1.43874e-07
1.7175e-06 0.000116614 -1.99485e-06
1.43874e-07 -1.99485e-06 3.4528e-05
0.0010188 -3.91656e-06 -2.54721e-06
-3.91656e-06 0.000298616 2.91807e-06
-2.54721e-06 2.91807e-06 0.000213665
0.00107239 1.76891e-06 -6.29249e-10
1.76891e-06 1.1525e-05 1.51729e-08
-6.29249e-10 1.51729e-08 -3.24616e-05
0.00116198 3.38413e-06 2.53598e-07
3.38413e-06 5.22877e-05 1.60593e-07
2.53598e-07 1.60593e-07 4.03518e-06
0.00104937 1.64369e-06 -2.88581e-07
1.64369e-06 6.3959e-07 -4.6501e-07
-2.88581e-07 -4.6501e-07 -4.73422e-05
0.00108399 3.73857e-06 -6.27832e-07
3.73857e-06 1.63282e-05 -2.85394e-07
-6.27832e-07 -2.85394e-07 -3.38751e-05
0.00123857 4.57092e-06 2.48518e-08
4.57092e-06 8.80232e-05 3.26015e-07
2.48518e-08 3.26015e-07 3.65761e-05
0.00101431 2.29294e-06 5.53193e-07
2.29294e-06 -1.66235e-05 4.5313e-07
5.53193e-07 4.5313e-07 -6.21359e-05
0.00110986 2.44875e-06 2.77782e-07
2.44875e-06 3.35431e-05 3.97204e-07
2.77782e-07 3.97204e-07 -2.00605e-05
0.00117701 4.05538e-06 6.33041e-09
4.05538e-06 6.30911e-05 -5.97711e-09
6.33041e-09 -5.97711e-09 1.07181e-05
0.00113662 3.25739e-06 2.12252e-07
3.25739e-06 4.72103e-05 3.09613e-07
2.12252e-07 3.09613e-07 -9.62621e-06
0.00121527 4.78572e-06 -3.41768e-07
4.78572e-06 8.42811e-05 1.15839e-07
-3.41768e-07 1.15839e-07 2.67061e-05
0.000720541 -1.0653e-05 -1.29806e-05
-1.0653e-05 0.000225756 -1.41748e-05
-1.29806e-05 -1.41748e-05 0.000202108
0.000493538 4.21987e-06 -6.76663e-07
4.21987e-06 1.84924e-05 -1.8309e-06
-6.76663e-07 -1.8309e-06 -2.84748e-05
0.000569082 1.93699e-06 -4.93081e-08
1.93699e-06 3.00366e-05 2.19875e-06
-4.93081e-08 2.19875e-06 -3.05329e-05
6.04137e-05 -2.24005e-07 7.55479e-06
-2.24005e-07 -0.000208042 7.35298e-06
7.55479e-06 7.35298e-06 -0.000210567
-7.97979e-07 6.989e-06 -1.66932e-07
6.989e-06 -0.00113393 -4.66718e-05
-1.66932e-07 -4.66718e-05 -0.000932778
0.00140491 -3.98703e-05 -1.06125e-05
-3.98703e-05 0.000143057 3.71159e-05
-1.06125e-05 3.71159e-05 -5.92349e-05
0.00494754 3.31499e-05 1.45684e-05
3.31499e-05 0.000781608 -3.26174e-05
1.45684e-05 -3.26174e-05 0.000652914
0.000458723 -3.09377e-05 7.24459e-09
-3.09377e-05 -6.96059e-05 4.81802e-06
7.24459e-09 4.81802e-06 -0.00033106
0.00568438 9.61852e-06 2.86517e-06
9.61852e-06 0.00069769 5.62456e-07
2.86517e-06 5.62456e-07 0.000942144
0.00261285 -6.54384e-05 -3.09009e-06
-6.54384e-05 0.000391553 -4.4519e-06
-3.09009e-06 -4.4519e-06 0.000449189
-0.000811093 -2.07423e-05 -1.94527e-06
-2.07423e-05 -0.000740427 1.89595e-06
-1.94527e-06 1.89595e-06 -0.000682485
-0.000190027 -8.06861e-06 -2.78032e-07
-8.06861e-06 -0.000217347 -1.33657e-05
-2.78032e-07 -1.33657e-05 -0.000569533
0.00466247 -3.65685e-05 2.53364e-05
-3.65685e-05 0.000747592 5.48112e-05
2.53364e-05 5.48112e-05 0.00056184
0.00238492 -0.000108795 -4.75517e-07
-0.000108795 0.000547645 1.4847e-05
-4.75517e-07 1.4847e-05 0.000558138
0.000945647 -3.62755e-05 -8.08259e-06
-3.62755e-05 0.000386733 -5.2474e-06
-8.08259e-06 -5.2474e-06 0.000470752
0.00113018 6.69548e-06 -5.08938e-07
6.69548e-06 5.36059e-05 7.98904e-07
-5.08938e-07 7.98904e-07 -1.1021e-05
0.00116607 4.55751e-06 -3.13627e-07
4.55751e-06 6.67446e-05 -2.47023e-07
-3.13627e-07 -2.47023e-07 1.5365e-06
0.00118755 -4.70165e-07 2.11141e-07
-4.70165e-07 7.45666e-05 -1.20122e-07
2.11141e-07 -1.20122e-07 1.30462e-05
0.000460788 -1.34556e-06 2.4473e-06
-1.34556e-06 -0.000140096 -2.43936e-06
2.4473e-06 -2.43936e-06 -0.000244767
0.000952096 -2.18553e-06 2.56098e-07
-2.18553e-06 -2.32195e-05 -5.07431e-07
2.56098e-07 -5.07431e-07 -0.000100877
0.0011896 1.38112e-06 2.32998e-07
1.38112e-06 8.18404e-05 4.89974e-08
2.32998e-07 4.89974e-08 1.05891e-05
0.00115832 -2.9933e-06 -3.82407e-07
-2.9933e-06 6.62498e-05 9.20387e-08
-3.82407e-07 9.20387e-08 -1.37538e-05
0.00115961 2.60032e-06 4.13882e-07
2.60032e-06 7.15147e-05 1.21767e-07
4.13882e-07 1.21767e-07 -6.49067e-06
0.0011765 -2.4488e-06 2.26416e-07
-2.4488e-06 8.29083e-05 -6.4769e-07
2.26416e-07 -6.4769e-07 -8.36391e-06
0.000737654 1.56449e-07 -3.42973e-07
1.56449e-07 1.72625e-05 2.99325e-06
-3.42973e-07 2.99325e-06 -8.24315e-05
0.00099359 7.94725e-06 -1.36718e-06
7.94725e-06 1.03355e-05 -2.49178e-07
-1.36718e-06 -2.49178e-07 -7.62114e-05
0.000914402 7.873e-06 1.46732e-06
7.873e-06 7.21985e-05 7.52861e-06
1.46732e-06 7.52861e-06 -2.46299e-05
0.00173065 -2.43282e-06 -1.22599e-05
-2.43282e-06 0.000841861 -9.7321e-07
-1.22599e-05 -9.7321e-07 0.000771303
0.000753972 1.32056e-06 -4.56468e-07
1.32056e-06 0.00011632 -5.69246e-07
-4.56468e-07 -5.69246e-07 2.51789e-05
0.000449737 7.76191e-07 3.49747e-07
7.76191e-07 -0.0001074 -1.00934e-07
3.49747e-07 -1.00934e-07 -0.000198747
0.000909637 -2.51949e-06 1.64252e-07
-2.51949e-06 -2.51432e-05 4.49544e-06
1.64252e-07 4.49544e-06 -7.70171e-05
0.000331991 1.83159e-05 -1.51192e-06
1.83159e-05 2.74467e-05 -7.11755e-06
-1.51192e-06 -7.11755e-06 -0.000345972
0.00100051 -1.34316e-06 3.15842e-06
-1.34316e-06 0.00028412 -3.19824e-06
3.15842e-06 -3.19824e-06 0.000208081
0.00514118 2.54732e-05 -1.65452e-05
2.54732e-05 0.000784448 2.30539e-05
-1.65452e-05 2.30539e-05 0.000629524
0.00316317 9.11509e-05 -6.85649e-06
9.11509e-05 0.000953277 1.72405e-05
-6.85649e-06 1.72405e-05 0.000957006
0.000960552 8.17332e-06 1.00511e-05
8.17332e-06 0.000373013 -1.07852e-05
1.00511e-05 -1.07852e-05 0.000364091
0.000195852 3.42412e-05 2.25107e-05
3.42412e-05 -6.96078e-05 -1.70076e-05
2.25107e-05 -1.70076e-05 1.70913e-05
0.000839195 2.01304e-06 3.39826e-07
2.01304e-06 1.23816e-05 5.35478e-09
3.39826e-07 5.35478e-09 -7.36813e-05
0.000794475 2.0899e-06 3.05857e-07
2.0899e-06 0.000260773 -7.11018e-07
3.05857e-07 -7.11018e-07 0.000205792
-0.00109705 3.23935e-05 6.61561e-07
3.23935e-05 -0.000810363 1.27053e-07
6.61561e-07 1.27053e-07 -0.000765528
0.00100399 -3.23592e-05 8.70432e-08
-3.23592e-05 0.000243794 5.14794e-06
8.70432e-08 5.14794e-06 -4.19268e-05
0.00143427 7.4689e-05 -8.58896e-07
7.4689e-05 0.000407827 -2.80594e-06
-8.58896e-07 -2.80594e-06 0.000418919
0.00274438 3.91428e-05 3.26101e-07
3.91428e-05 5.14653e-05 3.49022e-06
3.26101e-07 3.49022e-06 -0.000259022
0.00106095 -1.18388e-05 2.02804e-06
-1.18388e-05 0.000109411 -2.10007e-06
2.02804e-06 -2.10007e-06 -7.84508e-06
-0.00189194 1.77488e-05 -1.68432e-05
1.77488e-05 -0.00126103 5.07551e-06
-1.68432e-05 5.07551e-06 -0.00125686
0.0022388 4.52386e-05 1.34233e-05
4.52386e-05 0.00117029 -7.45803e-06
1.34233e-05 -7.45803e-06 0.00120518
0.000495803 2.59103e-05 4.40712e-05
2.59103e-05 -0.000698625 -4.04334e-05
4.40712e-05 -4.04334e-05 -0.00094168
0.00119869 -4.09239e-05 -6.61983e-06
-4.09239e-05 0.000124711 1.71479e-05
-6.61983e-06 1.71479e-05 -4.63507e-05
0.00112565 5.09222e-08 -1.23904e-06
5.09222e-08 8.79352e-05 -3.61003e-07
-1.23904e-06 -3.61003e-07 1.02987e-05
0.0010614 -6.31848e-06 8.59519e-08
-6.31848e-06 7.10877e-05 2.26576e-07
8.59519e-08 2.26576e-07 -2.91605e-05
0.00159584 -1.70505e-05 -4.18043e-07
-1.70505e-05 0.000288559 3.10397e-08
-4.18043e-07 3.10397e-08 0.000188563
0.00095532 -6.6461e-06 -5.00848e-07
-6.6461e-06 -4.54062e-06 1.35481e-07
-5.00848e-07 1.35481e-07 -8.57553e-05
0.00116529 -1.18311e-05 -2.52016e-07
-1.18311e-05 7.33122e-05 4.0588e-08
-2.52016e-07 4.0588e-08 -1.38069e-05
0.00135364 -1.39902e-05 -1.29074e-06
-1.39902e-05 0.000117168 -1.85391e-06
-1.29074e-06 -1.85391e-06 4.26639e-05
0.0012171 -9.40271e-06 -8.02225e-08
-9.40271e-06 9.11288e-05 -1.12452e-07
-8.02225e-08 -1.12452e-07 1.54225e-05
0.001198 -9.84073e-06 -7.94576e-08
-9.84073e-06 6.54826e-05 -4.7656e-07
-7.94576e-08 -4.7656e-07 -6.06006e-06
0.00132776 -8.78182e-06 -3.70788e-07
-8.78182e-06 0.000102094 -1.71101e-06
-3.70788e-07 -1.71101e-06 4.2382e-05
0.00117252 -7.748e-06 -1.23212e-07
-7.748e-06 5.86338e-05 3.14234e-08
-1.23212e-07 3.14234e-08 -9.2993e-06
0.00119735 -7.38893e-06 4.4982e-08
-7.38893e-06 5.65673e-05 -3.34348e-07
4.4982e-08 -3.34348e-07 -6.62322e-06
0.00126906 -6.19824e-06 1.49804e-07
-6.19824e-06 6.71122e-05 -1.65086e-06
1.49804e-07 -1.65086e-06 1.36113e-05
0.00125894 -4.89495e-06 4.62949e-07
-4.89495e-06 6.33356e-05 -9.84605e-07
4.62949e-07 -9.84605e-07 1.04976e-05
0.00121257 -6.43196e-06 -1.15089e-07
-6.43196e-06 6.29358e-05 -4.6741e-07
-1.15089e-07 -4.6741e-07 3.46701e-06
0.00119917 -6.18256e-06 2.92838e-08
-6.18256e-06 4.80592e-05 -2.23867e-07
2.92838e-08 -2.23867e-07 -1.04832e-05
0.0011669 -5.47494e-06 -3.19807e-07
-5.47494e-06 5.90852e-05 3.93364e-07
-3.19807e-07 3.93364e-07 2.85542e-06
0.00118323 -6.46152e-06 -1.38652e-07
-6.46152e-06 6.26188e-05 1.0807e-07
-1.38652e-07 1.0807e-07 1.79455e-06
0.0011503 -6.88435e-06 -1.20869e-07
-6.88435e-06 4.32675e-05 1.56733e-07
-1.20869e-07 1.56733e-07 -2.0304e-05
0.00110056 -1.44601e-06 -5.43352e-07
-1.44601e-06 3.58975e-05 2.28644e-07
-5.43352e-07 2.28644e-07 -1.113e-05
0.00107658 -4.42942e-06 -4.03099e-08
-4.42942e-06 2.35959e-05 -1.28397e-07
-4.03099e-08 -1.28397e-07 -2.95697e-05
0.00117043 -5.33202e-06 3.21589e-07
-5.33202e-06 6.60754e-05 -4.44014e-07
3.21589e-07 -4.44014e-07 8.77107e-06
0.00106228 3.5665e-06 -8.59671e-07
3.5665e-06 2.04214e-05 6.30738e-07
-8.59671e-07 6.30738e-07 -1.55414e-05
0.00106773 8.61418e-07 7.99916e-08
8.61418e-07 2.30553e-05 6.81593e-08
7.99916e-08 6.81593e-08 -2.31093e-05
0.0010825 -2.47254e-06 3.96581e-07
-2.47254e-06 2.94678e-05 -3.48394e-07
3.96581e-07 -3.48394e-07 -2.26169e-05
0.00101632 5.67631e-06 -1.42896e-06
5.67631e-06 -5.78676e-06 1.00076e-06
-1.42896e-06 1.00076e-06 -2.48236e-05
0.00107938 3.60277e-06 -3.3396e-10
3.60277e-06 2.5794e-05 -2.78397e-08
-3.3396e-10 -2.78397e-08 -8.38525e-06
0.00110023 3.05841e-06 2.80096e-07
3.05841e-06 3.85614e-05 -1.10969e-07
2.80096e-07 -1.10969e-07 -5.28949e-06
0.00146466 8.93378e-06 -2.18792e-06
8.93378e-06 0.000204229 2.01023e-06
-2.18792e-06 2.01023e-06 0.000211164
0.00103766 5.10274e-06 1.1643e-08
5.10274e-06 -3.7701e-07 6.63963e-09
1.1643e-08 6.63963e-09 -1.84883e-05
0.00109106 2.92927e-06 8.7231e-07
2.92927e-06 2.58432e-05 -5.72285e-07
8.7231e-07 -5.72285e-07 -7.07579e-06
0.00119968 9.84458e-06 -2.42506e-06
9.84458e-06 7.00899e-05 2.77083e-06
-2.42506e-06 2.77083e-06 8.9503e-05
0.00124019 7.90252e-06 -3.25439e-07
7.90252e-06 9.1942e-05 5.01453e-07
-3.25439e-07 5.01453e-07 9.81283e-05
0.00104563 4.47154e-06 1.35741e-06
4.47154e-06 9.50693e-08 -1.11052e-06
1.35741e-06 -1.11052e-06 -1.78111e-05
0.000992251 6.90997e-06 1.74232e-06
6.90997e-06 -3.14759e-05 -2.17927e-06
1.74232e-06 -2.17927e-06 -2.60028e-05
0.00218216 8.85369e-06 7.38878e-08
8.85369e-06 0.000539724 2.76663e-08
7.38878e-08 2.76663e-08 0.000564375
0.00215818 7.64767e-06 2.10133e-06
7.64767e-06 0.000524761 -3.09694e-06
2.10133e-06 -3.09694e-06 0.000550014
0.00104994 7.77075e-08 -6.19187e-07
7.77075e-08 6.08979e-07 -5.03317e-07
-6.19187e-07 -5.03317e-07 -4.19337e-05
0.0010847 -1.57892e-06 -8.84168e-07
-1.57892e-06 1.79274e-05 -5.96322e-07
-8.84168e-07 -5.96322e-07 -1.50202e-05
0.00109258 1.24784e-06 -2.61713e-08
1.24784e-06 1.9937e-05 2.90173e-08
-2.61713e-08 2.90173e-08 -2.28546e-05
0.00104616 -3.40723e-06 -1.18326e-06
-3.40723e-06 -1.8456e-06 -1.23156e-06
-1.18326e-06 -1.23156e-06 -2.0101e-05
0.00108784 -9.41208e-07 -2.0237e-08
-9.41208e-07 1.95405e-05 7.13518e-09
-2.0237e-08 7.13518e-09 -1.4019e-05
0.000997812 -5.75194e-06 -1.54647e-06
-5.75194e-06 -3.1751e-05 -2.31505e-06
-1.54647e-06 -2.31505e-06 -2.63564e-05
0.00104864 -2.8338e-06 -2.51026e-08
-2.8338e-06 -1.92628e-06 2.03201e-08
-2.51026e-08 2.03201e-08 -2.0424e-05
0.00109181 -1.81502e-07 7.21787e-07
-1.81502e-07 2.11063e-05 7.42836e-07
7.21787e-07 7.42836e-07 -1.31169e-05
0.00217996 -6.36264e-06 -1.86758e-06
-6.36264e-06 0.000531992 -3.23892e-06
-1.86758e-06 -3.23892e-06 0.000557529
0.000997535 -4.87191e-06 -7.18987e-08
-4.87191e-06 -3.43726e-05 2.04937e-08
-7.18987e-08 2.04937e-08 -2.86187e-05
0.00104772 -2.51904e-06 7.68611e-07
-2.51904e-06 -3.17571e-06 1.4575e-06
7.68611e-07 1.4575e-06 -2.17114e-05
0.00219321 -5.09367e-06 -9.48236e-08
-5.09367e-06 0.000535161 1.94074e-08
-9.48236e-08 1.94074e-08 0.000561194
0.000991354 -4.01993e-06 9.11575e-07
-4.01993e-06 -3.96495e-05 2.58103e-06
9.11575e-07 2.58103e-06 -3.3163e-05
0.00219097 -3.79699e-06 1.03987e-06
-3.79699e-06 0.000531473 3.37641e-06
1.03987e-06 3.37641e-06 0.000558049
0.000483295 -6.17708e-06 -1.43068e-05
-6.17708e-06 6.3006e-05 -7.18216e-06
-1.43068e-05 -7.18216e-06 -6.79205e-06
0.000565302 4.98828e-06 -2.6303e-07
4.98828e-06 1.28168e-05 -1.15439e-06
-2.6303e-07 -1.15439e-06 -6.77326e-05
0.000776361 1.17337e-06 -1.36103e-07
1.17337e-06 0.000110355 6.9534e-07
-1.36103e-07 6.9534e-07 2.51266e-05
0.00121235 4.07631e-07 -1.09094e-07
4.07631e-07 8.17802e-05 2.11801e-07
-1.09094e-07 2.11801e-07 3.39148e-05
0.00111535 1.78987e-06 5.28402e-07
1.78987e-06 3.27041e-05 3.94183e-07
5.28402e-07 3.94183e-07 -1.09413e-05
0.00109743 3.32195e-06 5.92258e-07
3.32195e-06 2.09495e-05 1.59811e-07
5.92258e-07 1.59811e-07 -2.77039e-05
0.00115291 3.73868e-06 -1.79862e-07
3.73868e-06 5.00383e-05 -2.10954e-07
-1.79862e-07 -2.10954e-07 2.28095e-07
0.00113792 1.69341e-06 -1.36838e-07
1.69341e-06 4.35348e-05 -3.04276e-07
-1.36838e-07 -3.04276e-07 -4.06885e-06
0.00118352 4.44162e-06 1.78383e-07
4.44162e-06 6.15921e-05 2.59047e-07
1.78383e-07 2.59047e-07 1.03805e-05
0.00112111 4.11076e-06 -2.28835e-07
4.11076e-06 3.44789e-05 -9.93633e-08
-2.28835e-07 -9.93633e-08 -1.79008e-05
0.00111542 4.80512e-06 -1.72168e-07
4.80512e-06 3.26873e-05 1.80652e-07
-1.72168e-07 1.80652e-07 -2.1303e-05
0.00116314 4.12996e-06 3.22037e-07
4.12996e-06 5.62734e-05 4.60887e-08
3.22037e-07 4.60887e-08 3.95999e-06
0.00112961 3.28989e-06 5.18788e-07
3.28989e-06 4.35064e-05 1.36777e-07
5.18788e-07 1.36777e-07 -1.28363e-05
0.00118081 4.66761e-06 -1.34488e-07
4.66761e-06 6.75547e-05 -6.30436e-08
-1.34488e-07 -6.30436e-08 1.01856e-05
0.00126935 5.75105e-06 -6.30653e-08
5.75105e-06 0.000110628 4.84401e-07
-6.30653e-08 4.84401e-07 5.2001e-05
0.000951794 -3.35506e-05 -1.36592e-05
-3.35506e-05 0.00045502 -8.47008e-06
-1.36592e-05 -8.47008e-06 0.000511136
0.000440993 -1.12349e-05 -2.09946e-06
-1.12349e-05 5.71776e-05 -2.29194e-06
-2.09946e-06 -2.29194e-06 3.46427e-05
0.000223609 4.0527e-06 4.4331e-06
4.0527e-06 -0.000148191 4.70541e-06
4.4331e-06 4.70541e-06 -0.000195879
0.000237176 -2.66887e-05 1.8206e-05
-2.66887e-05 -8.41343e-05 1.53918e-05
1.8206e-05 1.53918e-05 -2.61123e-05
0.00124977 -5.08789e-05 5.6824e-06
-5.08789e-05 -0.000595828 -5.43291e-05
5.6824e-06 -5.43291e-05 -0.000451656
0.00118459 1.62682e-05 1.47273e-06
1.62682e-05 -0.000779209 1.03533e-06
1.47273e-06 1.03533e-06 -0.00102494
0.00114751 -2.38326e-05 -3.43741e-09
-2.38326e-05 0.000382595 9.90249e-06
-3.43741e-09 9.90249e-06 0.00022116
0.00212596 1.14794e-06 -7.95175e-07
1.14794e-06 0.000903241 -2.40438e-06
-7.95175e-07 -2.40438e-06 0.000709672
0.000543851 -3.93167e-05 7.82233e-06
-3.93167e-05 0.000145906 4.32126e-06
7.82233e-06 4.32126e-06 0.00023181
0.00416677 -1.36211e-05 6.1409e-06
-1.36211e-05 0.00032424 1.87921e-05
6.1409e-06 1.87921e-05 0.000229559
-0.00126313 -8.24229e-05 -3.64902e-06
-8.24229e-05 -0.000789537 -1.32203e-05
-3.64902e-06 -1.32203e-05 -0.000726291
0.00150407 2.76951e-05 -1.97052e-06
2.76951e-05 0.00048162 -1.25128e-05
-1.97052e-06 -1.25128e-05 0.000335968
0.0042945 -8.62333e-05 4.67855e-05
-8.62333e-05 0.000721026 5.75664e-05
4.67855e-05 5.75664e-05 0.000463661
-0.00103686 -7.0687e-05 3.07893e-05
-7.0687e-05 -0.000216477 2.78782e-05
3.07893e-05 2.78782e-05 -0.000127861
0.00110369 1.21452e-05 -1.01831e-06
1.21452e-05 5.49914e-05 6.3827e-07
-1.01831e-06 6.3827e-07 -9.62265e-06
0.00117432 6.38876e-06 6.59485e-07
6.38876e-06 7.26311e-05 2.16983e-07
6.59485e-07 2.16983e-07 8.29154e-06
0.0011798 4.61519e-06 1.28543e-07
4.61519e-06 7.30777e-05 -4.20819e-07
1.28543e-07 -4.20819e-07 8.27043e-06
0.000629299 4.57757e-07 -2.03798e-07
4.57757e-07 -3.33668e-05 -1.82102e-06
-2.03798e-07 -1.82102e-06 -0.000133346
0.00117049 -1.63496e-06 -2.70012e-07
-1.63496e-06 8.18725e-05 -2.9342e-07
-2.70012e-07 -2.9342e-07 -9.58871e-06
0.00119038 2.48023e-06 1.36344e-06
2.48023e-06 8.82831e-05 1.30044e-07
1.36344e-06 1.30044e-07 1.03993e-05
0.00115862 8.50788e-06 -1.41538e-07
8.50788e-06 8.83114e-05 -1.02322e-07
-1.41538e-07 -1.02322e-07 2.03215e-06
0.00095126 7.9486e-06 8.38655e-07
7.9486e-06 8.6698e-05 2.82989e-06
8.38655e-07 2.82989e-06 -1.03197e-05
0.00040601 2.41186e-05 2.91231e-08
2.41186e-05 -0.000213832 2.01248e-06
2.91231e-08 2.01248e-06 -0.000300624
0.00233827 -6.06501e-06 -1.61928e-05
-6.06501e-06 0.0013665 3.08697e-07
-1.61928e-05 3.08697e-07 0.00137546
0.000665979 -1.7031e-06 -1.32811e-06
-1.7031e-06 0.000173363 -1.55856e-06
-1.32811e-06 -1.55856e-06 9.45238e-05
0.000234015 5.7394e-07 2.08828e-06
5.7394e-07 -0.000208282 -1.17382e-06
2.08828e-06 -1.17382e-06 -0.000300496
0.00060139 1.17448e-06 -2.76586e-06
1.17448e-06 -9.79807e-05 1.76999e-06
-2.76586e-06 1.76999e-06 -0.000184722
0.00103715 -2.50161e-05 3.85712e-06
-2.50161e-05 0.000238209 -1.4521e-05
3.85712e-06 -1.4521e-05 1.70297e-05
0.00101041 2.46048e-06 1.12553e-05
2.46048e-06 0.000393638 -5.92433e-06
1.12553e-05 -5.92433e-06 0.000339334
0.00425566 4.12009e-05 -4.12651e-05
4.12009e-05 0.00111582 6.98419e-05
-4.12651e-05 6.98419e-05 0.000886893
-0.00234976 5.85489e-05 -3.16219e-05
5.85489e-05 -0.00102025 2.82911e-05
-3.16219e-05 2.82911e-05 -0.000937693
0.00122187 2.89451e-05 1.94685e-05
2.89451e-05 0.000608008 -1.34361e-05
1.94685e-05 -1.34361e-05 0.00065752
0.0011172 -9.81961e-06 -2.21884e-07
-9.81961e-06 0.000138545 -6.65385e-07
-2.21884e-07 -6.65385e-07 2.02478e-05
0.000899199 1.53239e-05 3.89799e-06
1.53239e-05 0.0004596 -1.3294e-06
3.89799e-06 -1.3294e-06 0.000469485
-0.00271513 3.11529e-05 -1.62756e-05
3.11529e-05 -0.000842193 7.47827e-06
-1.62756e-05 7.47827e-06 -0.000755157
0.00105925 -4.99654e-05 -1.74474e-06
-4.99654e-05 -5.64665e-05 9.68953e-06
-1.74474e-06 9.68953e-06 -0.000294311
0.00478836 4.45402e-05 2.24455e-07
4.45402e-05 0.00107286 2.23154e-06
2.24455e-07 2.23154e-06 0.000818454
0.00161394 -2.3883e-05 2.05005e-06
-2.3883e-05 0.000229821 -2.2696e-06
2.05005e-06 -2.2696e-06 0.000119602
-0.00571875 2.27355e-05 3.13658e-05
2.27355e-05 -0.00240167 -1.50407e-05
3.13658e-05 -1.50407e-05 -0.00225494
0.00492112 1.04794e-05 7.36449e-05
1.04794e-05 0.00127142 -4.40815e-05
7.36449e-05 -4.40815e-05 0.00112547
0.00129353 -5.131e-05 -1.33485e-05
-5.131e-05 -0.000122692 1.99429e-05
-1.33485e-05 1.99429e-05 -0.000293368
0.00104229 -5.65333e-06 -9.20172e-07
-5.65333e-06 6.39783e-05 -4.08874e-07
-9.20172e-07 -4.08874e-07 -3.65669e-05
0.00120394 -1.59444e-05 2.04831e-07
-1.59444e-05 0.000103859 7.29481e-08
2.04831e-07 7.29481e-08 1.13524e-06
0.00146737 -2.02181e-05 -2.10179e-06
-2.02181e-05 0.000153443 -1.36531e-06
-2.10179e-06 -1.36531e-06 7.7588e-05
0.00102902 -1.11466e-05 -2.62084e-07
-1.11466e-05 1.21508e-05 1.34463e-07
-2.62084e-07 1.34463e-07 -7.49874e-05
0.0012167 -1.34867e-05 -2.69436e-07
-1.34867e-05 5.33589e-05 -6.10967e-07
-2.69436e-07 -6.10967e-07 -2.03653e-05
0.00143311 -1.11143e-05 -7.57775e-07
-1.11143e-05 0.00011741 -2.27894e-06
-7.57775e-07 -2.27894e-06 6.63527e-05
0.00112147 -9.50427e-06 3.05058e-07
-9.50427e-06 2.98782e-05 4.25378e-08
3.05058e-07 4.25378e-08 -4.11034e-05
0.00120808 -8.39683e-06 1.24392e-07
-8.39683e-06 4.49841e-05 -3.19456e-07
1.24392e-07 -3.19456e-07 -1.38848e-05
0.0012925 -5.96242e-06 4.03191e-07
-5.96242e-06 6.08658e-05 -1.66429e-06
4.03191e-07 -1.66429e-06 1.65369e-05
0.00111984 -7.07513e-06 8.63169e-08
-7.07513e-06 1.97344e-05 4.96275e-07
8.63169e-08 4.96275e-07 -4.28834e-05
0.00121223 -5.9876e-06 1.26821e-08
-5.9876e-06 4.02061e-05 -1.00127e-07
1.26821e-08 -1.00127e-07 -1.29792e-05
0.00123412 -3.78108e-06 9.80338e-07
-3.78108e-06 4.04646e-05 -1.03456e-06
9.80338e-07 -1.03456e-06 -5.29685e-06
0.00119864 -2.77358e-06 9.13826e-07
-2.77358e-06 3.80135e-05 -5.25126e-07
9.13826e-07 -5.25126e-07 -1.22717e-05
0.00128773 -5.53382e-06 1.48849e-07
-5.53382e-06 8.72468e-05 -7.12019e-07
1.48849e-07 -7.12019e-07 3.2006e-05
0.00121728 -4.69407e-06 9.60447e-08
-4.69407e-06 4.39394e-05 2.90869e-07
9.60447e-08 2.90869e-07 -8.76372e-06
0.00113342 -5.58865e-06 -4.2775e-07
-5.58865e-06 3.29709e-05 -4.92621e-08
-4.2775e-07 -4.92621e-08 -2.37353e-05
0.00120211 -6.29887e-06 2.30023e-07
-6.29887e-06 5.93614e-05 -1.77576e-07
2.30023e-07 -1.77576e-07 3.39391e-07
0.00115353 -5.92916e-06 6.69807e-09
-5.92916e-06 2.61973e-05 7.36303e-07
6.69807e-09 7.36303e-07 -3.19956e-05
0.00111119 -3.22565e-06 -4.79933e-07
-3.22565e-06 3.85913e-05 4.24588e-07
-4.79933e-07 4.24588e-07 -1.07085e-05
0.00110441 -5.3356e-06 3.35182e-08
-5.3356e-06 3.08971e-05 -4.48147e-08
3.35182e-08 -4.48147e-08 -2.5409e-05
0.00109413 -6.34482e-06 5.92109e-08
-6.34482e-06 2.16281e-05 -6.79245e-08
5.92109e-08 -6.79245e-08 -3.98016e-05
0.00106359 3.25139e-06 -1.00829e-06
3.25139e-06 2.10585e-05 5.27086e-07
-1.00829e-06 5.27086e-07 -1.65961e-05
0.00111025 -1.24086e-06 -4.54756e-08
-1.24086e-06 4.00914e-05 -4.52459e-08
-4.54756e-08 -4.52459e-08 -6.94248e-06
0.00111742 -4.42006e-06 1.82079e-07
-4.42006e-06 4.29481e-05 -4.11936e-07
1.82079e-07 -4.11936e-07 -9.67318e-06
0.00100874 5.90884e-06 -1.51276e-06
5.90884e-06 -5.39365e-06 9.88306e-07
-1.51276e-06 9.88306e-07 -2.59911e-05
0.00107363 3.59727e-06 7.10597e-08
3.59727e-06 2.55355e-05 3.3617e-08
7.10597e-08 3.3617e-08 -1.04247e-05
0.00101406 1.01833e-06 5.56346e-07
1.01833e-06 -2.11791e-06 -2.42163e-07
5.56346e-07 -2.42163e-07 -4.84127e-05
0.000939022 9.81778e-06 -2.17976e-06
9.81778e-06 -4.38028e-05 1.84001e-06
-2.17976e-06 1.84001e-06 -3.99649e-05
0.00103161 5.65213e-06 1.9949e-08
5.65213e-06 1.31177e-06 -7.29648e-09
1.9949e-08 -7.29648e-09 -1.77793e-05
0.00109304 3.61446e-06 8.19595e-07
3.61446e-06 3.20117e-05 -6.37827e-07
8.19595e-07 -6.37827e-07 -2.195e-06
0.00214161 1.14775e-05 -1.21226e-06
1.14775e-05 0.00052858 1.09675e-06
-1.21226e-06 1.09675e-06 0.000552242
0.000956779 8.87711e-06 4.7026e-08
8.87711e-06 -4.03063e-05 2.0309e-08
4.7026e-08 2.0309e-08 -3.56551e-05
0.00104435 5.09814e-06 1.41848e-06
5.09814e-06 2.72893e-06 -1.03939e-06
1.41848e-06 -1.03939e-06 -1.53892e-05
0.00220018 1.00627e-05 6.68872e-08
1.00627e-05 0.00055253 3.20898e-08
6.68872e-08 3.20898e-08 0.000576507
0.000984719 7.8734e-06 1.944e-06
7.8734e-06 -3.13896e-05 -2.04161e-06
1.944e-06 -2.04161e-06 -2.62867e-05
0.00214679 8.90503e-06 2.35215e-06
8.90503e-06 0.000523266 -3.00136e-06
2.35215e-06 -3.00136e-06 0.000548011
0.00124931 -1.4765e-06 -3.11323e-07
-1.4765e-06 0.000100296 5.9841e-08
-3.11323e-07 5.9841e-08 5.81478e-05
0.00107865 -4.02848e-07 -9.48328e-08
-4.02848e-07 1.51194e-05 -2.16879e-07
-9.48328e-08 -2.16879e-07 -2.71389e-05
0.00108916 -2.25855e-06 -8.44849e-07
-2.25855e-06 2.12775e-05 -5.99931e-07
-8.44849e-07 -5.99931e-07 -1.16747e-05
0.00104216 -4.0138e-06 -1.3167e-06
-4.0138e-06 -2.4337e-06 -1.12732e-06
-1.3167e-06 -1.12732e-06 -2.05525e-05
0.00108753 -1.52985e-06 -3.55223e-08
-1.52985e-06 1.92421e-05 2.16803e-08
-3.55223e-08 2.16803e-08 -1.37351e-05
0.00105078 1.20451e-06 5.78036e-07
1.20451e-06 -1.64256e-07 3.093e-07
5.78036e-07 3.093e-07 -4.31407e-05
0.000991182 -6.68518e-06 -1.74587e-06
-6.68518e-06 -3.20456e-05 -2.19011e-06
-1.74587e-06 -2.19011e-06 -2.68776e-05
0.00104489 -3.40244e-06 -3.145e-08
-3.40244e-06 -2.44125e-06 1.44144e-08
-3.145e-08 1.44144e-08 -2.07003e-05
0.00109103 -8.83477e-07 7.4477e-07
-8.83477e-07 2.10106e-05 7.20167e-07
7.4477e-07 7.20167e-07 -1.25695e-05
0.00217682 -7.5912e-06 -2.13622e-06
-7.5912e-06 0.000533724 -3.13385e-06
-2.13622e-06 -3.13385e-06 0.000558808
0.000990959 -5.76476e-06 -5.47506e-08
-5.76476e-06 -3.49888e-05 2.41548e-08
-5.47506e-08 2.41548e-08 -2.95791e-05
0.00104842 -2.82671e-06 1.0182e-06
-2.82671e-06 -1.98482e-06 1.34548e-06
1.0182e-06 1.34548e-06 -2.05059e-05
0.0022065 -6.31814e-06 -8.89443e-08
-6.31814e-06 0.000544358 2.37755e-08
-8.89443e-08 2.37755e-08 0.000569836
0.00098849 -4.89273e-06 1.1767e-06
-4.89273e-06 -3.86683e-05 2.49664e-06
1.1767e-06 2.49664e-06 -3.28734e-05
0.00221258 -5.05249e-06 1.37418e-06
-5.05249e-06 0.000544114 3.33088e-06
1.37418e-06 3.33088e-06 0.000570139
-0.000402547 -2.08561e-05 -2.09207e-05
-2.08561e-05 -0.000340985 -7.73423e-06
-2.09207e-05 -7.73423e-06 -0.000329416
0.000435114 -4.53802e-06 -6.79373e-07
-4.53802e-06 3.4134e-05 -1.93555e-06
-6.79373e-07 -1.93555e-06 -3.58445e-05
0.000430482 4.01947e-06 3.13753e-06
4.01947e-06 -6.99548e-05 1.36371e-06
3.13753e-06 1.36371e-06 -0.000151102
0.00116914 5.28299e-07 8.01011e-08
5.28299e-07 6.08788e-05 2.33855e-07
8.01011e-08 2.33855e-07 1.25745e-05
0.0011577 3.19292e-07 -1.02309e-07
3.19292e-07 5.4986e-05 2.60342e-07
-1.02309e-07 2.60342e-07 5.79878e-06
0.00113826 3.71543e-06 -5.7426e-08
3.71543e-06 4.44501e-05 3.42386e-07
-5.7426e-08 3.42386e-07 -6.87117e-06
0.00122128 3.74039e-06 2.39754e-07
3.74039e-06 8.34954e-05 -2.54423e-07
2.39754e-07 -2.54423e-07 3.40784e-05
0.00122735 1.74193e-06 2.8089e-07
1.74193e-06 8.68559e-05 -5.54844e-08
2.8089e-07 -5.54844e-08 3.9628e-05
0.00112826 4.31263e-06 1.77175e-07
4.31263e-06 3.50724e-05 4.3077e-07
1.77175e-07 4.3077e-07 -1.59042e-05
0.00113871 4.74752e-06 -7.47047e-08
4.74752e-06 4.34345e-05 2.92669e-08
-7.47047e-08 2.92669e-08 -1.0252e-05
0.00114181 4.10799e-06 5.25231e-08
4.10799e-06 4.43755e-05 5.44223e-08
5.25231e-08 5.44223e-08 -7.63676e-06
0.00118527 5.0139e-06 -2.21223e-07
5.0139e-06 6.97569e-05 9.58921e-08
-2.21223e-07 9.58921e-08 1.34137e-05
0.00119352 7.35059e-06 3.3313e-07
7.35059e-06 7.82001e-05 8.85282e-07
3.3313e-07 8.85282e-07 1.98268e-05
0.00114588 4.54822e-06 6.23437e-08
4.54822e-06 5.06246e-05 -2.40807e-07
6.23437e-08 -2.40807e-07 -6.53999e-06
0.00119423 5.5537e-06 -3.44689e-08
5.5537e-06 7.43566e-05 6.44765e-08
-3.44689e-08 6.44765e-08 1.56225e-05
-0.00566627 -5.42001e-05 3.35355e-05
-5.42001e-05 -0.00240927 1.34059e-05
3.35355e-05 1.34059e-05 -0.00230685
0.000618434 -3.40274e-05 6.52276e-06
-3.40274e-05 0.000266365 3.64099e-06
6.52276e-06 3.64099e-06 0.000319186
0.00015853 -1.18672e-05 1.57182e-05
-1.18672e-05 -0.000112183 9.98923e-06
1.57182e-05 9.98923e-06 -0.000133378
0.00015792 -4.14763e-05 2.35749e-05
-4.14763e-05 -8.34846e-05 1.72228e-05
2.35749e-05 1.72228e-05 3.96032e-06
0.00266084 -9.83034e-05 -2.33368e-05
-9.83034e-05 0.000764461 -5.72898e-05
-2.33368e-05 -5.72898e-05 0.00077982
0.00117209 -2.94331e-05 1.02798e-06
-2.94331e-05 -0.000741302 2.20303e-06
1.02798e-06 2.20303e-06 -0.00077429
-5.52275e-05 1.44339e-05 -2.53327e-07
1.44339e-05 -0.000148563 9.16864e-06
-2.53327e-07 9.16864e-06 -0.00050502
0.000894738 3.58544e-05 -1.03149e-06
3.58544e-05 9.94896e-05 -8.43209e-06
-1.03149e-06 -8.43209e-06 -0.000133506
0.00136867 -9.21138e-05 -7.16824e-07
-9.21138e-05 0.000357155 -4.88355e-06
-7.16824e-07 -4.88355e-06 0.000382936
0.00341819 -5.72084e-05 7.08091e-06
-5.72084e-05 0.000584816 1.77251e-05
7.08091e-06 1.77251e-05 0.000402003
0.000746435 4.38087e-05 -9.32581e-06
4.38087e-05 -0.000155521 -3.12596e-05
-9.32581e-06 -3.12596e-05 -0.000352047
0.00323499 -2.23289e-05 6.60673e-05
-2.23289e-05 0.000681946 5.93908e-05
6.60673e-05 5.93908e-05 0.000469611
0.00122687 1.93285e-05 1.02069e-07
1.93285e-05 0.000133168 -1.187e-06
1.02069e-07 -1.187e-06 6.14111e-05
0.00108866 1.12714e-05 1.84883e-07
1.12714e-05 4.6055e-05 2.22986e-07
1.84883e-07 2.22986e-07 -1.80281e-05
0.00121957 6.08787e-06 1.09718e-06
6.08787e-06 9.21799e-05 -5.44747e-07
1.09718e-06 -5.44747e-07 2.81277e-05
0.000972118 8.02248e-06 -1.34571e-06
8.02248e-06 9.40058e-05 -1.72413e-06
-1.34571e-06 -1.72413e-06 -3.25674e-06
0.00132456 9.06365e-06 1.12874e-06
9.06365e-06 0.000166511 3.58842e-08
1.12874e-06 3.58842e-08 8.0495e-05
0.00106194 2.4914e-05 1.77834e-08
2.4914e-05 7.96429e-05 5.6104e-07
1.77834e-08 5.6104e-07 -6.48233e-06
0.000269432 3.13096e-05 1.21998e-06
3.13096e-05 -0.000325174 1.13592e-06
1.21998e-06 1.13592e-06 -0.000405442
-0.00368657 1.89253e-06 7.16821e-05
1.89253e-06 -0.00111994 2.37835e-06
7.16821e-05 2.37835e-06 -0.000941037
0.000417695 -4.31948e-06 -7.83686e-07
-4.31948e-06 0.000178492 6.47526e-07
-7.83686e-07 6.47526e-07 0.000174788
-0.000477418 -9.17139e-07 1.32727e-05
-9.17139e-07 -0.000544763 -2.75359e-06
1.32727e-05 -2.75359e-06 -0.000631699
0.00111995 -7.76726e-06 -2.70113e-06
-7.76726e-06 0.000144492 6.11188e-07
-2.70113e-06 6.11188e-07 2.48955e-05
0.00139753 -4.28455e-05 7.96511e-07
-4.28455e-05 0.000263836 -4.99103e-06
7.96511e-07 -4.99103e-06 9.79011e-05
0.000627204 1.61595e-05 1.95257e-05
1.61595e-05 0.000289504 -7.50282e-06
1.95257e-05 -7.50282e-06 0.000300319
0.00309684 6.88384e-06 -5.5728e-05
6.88384e-06 0.000514419 4.06387e-05
-5.5728e-05 4.06387e-05 0.000273953
0.00163274 4.02832e-05 -7.49903e-05
4.02832e-05 0.000832909 3.6544e-05
-7.49903e-05 3.6544e-05 0.000861106
0.0010095 -2.34102e-05 6.74432e-07
-2.34102e-05 -3.05587e-05 -3.16281e-07
6.74432e-07 -3.16281e-07 -0.000141062
-0.00218257 1.4234e-05 -2.91819e-05
1.4234e-05 -0.000716141 7.96624e-06
-2.91819e-05 7.96624e-06 -0.000603281
5.7141e-05 -4.01742e-06 5.05056e-06
-4.01742e-06 -0.000757176 -4.68841e-06
5.05056e-06 -4.68841e-06 -0.000885586
0.00131148 -4.30941e-05 1.90509e-06
-4.30941e-05 6.80712e-05 7.42939e-07
1.90509e-06 7.42939e-07 -6.76038e-05
0.00176735 -2.84178e-05 -4.21305e-07
-2.84178e-05 0.000169399 -1.98116e-06
-4.21305e-07 -1.98116e-06 9.06952e-05
0.00444556 5.64225e-06 8.36466e-05
5.64225e-06 0.000930441 -3.47445e-05
8.36466e-05 -3.47445e-05 0.000853207
0.00113349 -2.96538e-05 -5.70718e-06
-2.96538e-05 -5.77481e-05 5.42924e-06
-5.70718e-06 5.42924e-06 -0.000147399
0.000824896 -1.4856e-05 7.16142e-07
-1.4856e-05 -7.46268e-05 -3.26165e-07
7.16142e-07 -3.26165e-07 -0.000180123
0.00122748 -1.95984e-05 2.65647e-08
-1.95984e-05 4.10451e-05 -7.66087e-10
2.65647e-08 -7.66087e-10 -3.42165e-05
0.00158292 -1.46078e-05 -3.50766e-06
-1.46078e-05 0.000150664 -1.4716e-06
-3.50766e-06 -1.4716e-06 0.00010839
0.00108613 -1.29973e-05 7.58134e-07
-1.29973e-05 -7.41516e-06 6.34358e-07
7.58134e-07 6.34358e-07 -8.03748e-05
0.00123695 -1.0682e-05 2.2273e-07
-1.0682e-05 2.54938e-05 -9.23597e-08
2.2273e-07 -9.23597e-08 -2.46883e-05
0.00131823 -5.18181e-06 1.10933e-06
-5.18181e-06 5.29888e-05 -1.02425e-06
1.10933e-06 -1.02425e-06 1.95898e-05
0.00108547 -8.0104e-06 5.57925e-07
-8.0104e-06 -1.35441e-05 1.1796e-06
5.57925e-07 1.1796e-06 -7.15556e-05
0.0012267 -5.82462e-06 1.50579e-07
-5.82462e-06 2.99929e-05 1.97109e-07
1.50579e-07 1.97109e-07 -1.41904e-05
0.00122973 -2.08725e-06 1.58608e-06
-2.08725e-06 3.16148e-05 -4.0829e-07
1.58608e-06 -4.0829e-07 -7.55538e-06
0.00115725 -5.78835e-06 2.67329e-09
-5.78835e-06 1.41518e-05 1.35374e-06
2.67329e-09 1.35374e-06 -3.87188e-05
0.0012314 -3.82883e-06 2.0651e-07
-3.82883e-06 3.97119e-05 3.63642e-07
2.0651e-07 3.63642e-07 -6.26619e-06
0.00119632 -8.68714e-07 1.63334e-06
-8.68714e-07 3.16448e-05 -1.85656e-08
1.63334e-06 -1.85656e-08 -1.5221e-05
0.00114241 -9.36018e-07 8.26977e-07
-9.36018e-07 1.55719e-05 -2.88576e-07
8.26977e-07 -2.88576e-07 -3.6372e-05
0.00120892 -2.81433e-06 -1.08283e-07
-2.81433e-06 4.25135e-05 3.35891e-07
-1.08283e-07 3.35891e-07 -7.79565e-06
0.00123789 -3.79491e-06 6.89977e-07
-3.79491e-06 6.42333e-05 -6.88467e-07
6.89977e-07 -6.88467e-07 1.16125e-05
0.001243 -5.08053e-06 -1.35492e-07
-5.08053e-06 7.45981e-05 -4.9942e-07
-1.35492e-07 -4.9942e-07 2.01038e-05
0.00125511 -5.41352e-06 1.64074e-07
-5.41352e-06 7.29131e-05 -6.01606e-09
1.64074e-07 -6.01606e-09 1.76595e-05
0.00117826 -4.50078e-06 -1.51106e-07
-4.50078e-06 2.57811e-05 1.43619e-06
-1.51106e-07 1.43619e-06 -2.67924e-05
0.00104802 -4.14921e-06 -7.82753e-07
-4.14921e-06 7.38279e-07 5.09102e-07
-7.82753e-07 5.09102e-07 -5.104e-05
0.00119155 -5.63351e-06 2.00078e-08
-5.63351e-06 6.15925e-05 -1.20166e-08
2.00078e-08 -1.20166e-08 5.30967e-06
0.00118944 -6.15772e-06 3.52114e-07
-6.15772e-06 5.47447e-05 1.75224e-07
3.52114e-07 1.75224e-07 -3.82654e-06
0.00106914 1.44773e-06 -9.68971e-07
1.44773e-06 2.38208e-05 5.62013e-07
-9.68971e-07 5.62013e-07 -1.6163e-05
0.00111572 -2.921e-06 3.03599e-08
-2.921e-06 4.06011e-05 8.68519e-09
3.03599e-08 8.68519e-09 -8.70341e-06
0.00103954 -5.18867e-06 2.86426e-07
-5.18867e-06 1.58558e-06 -4.42391e-07
2.86426e-07 -4.42391e-07 -5.47921e-05
0.00100351 5.89551e-06 -1.66997e-06
5.89551e-06 -5.07614e-06 9.08269e-07
-1.66997e-06 9.08269e-07 -2.74008e-05
0.00107371 2.70313e-06 2.83211e-09
2.70313e-06 2.54098e-05 -9.4973e-09
2.83211e-09 -9.4973e-09 -1.22208e-05
0.00111922 -1.0062e-06 5.13827e-07
-1.0062e-06 4.39488e-05 -3.7647e-07
5.13827e-07 -3.7647e-07 -3.09082e-06
0.00092305 1.06219e-05 -2.34283e-06
1.06219e-05 -4.59913e-05 1.74201e-06
-2.34283e-06 1.74201e-06 -4.33884e-05
0.00102538 5.88316e-06 5.69739e-08
5.88316e-06 2.31094e-06 1.98754e-08
5.69739e-08 1.98754e-08 -1.83377e-05
0.00108523 3.6272e-06 9.66223e-07
3.6272e-06 3.0766e-05 -5.34481e-07
9.66223e-07 -5.34481e-07 -5.19227e-06
0.00222915 1.24939e-05 -2.88864e-06
1.24939e-05 0.000576741 2.70588e-06
-2.88864e-06 2.70588e-06 0.000599071
0.000958677 9.77465e-06 4.54514e-08
9.77465e-06 -3.44304e-05 1.46397e-08
4.54514e-08 1.46397e-08 -3.06981e-05
0.00104678 5.62746e-06 1.47527e-06
5.62746e-06 8.35533e-06 -1.02699e-06
1.47527e-06 -1.02699e-06 -1.07904e-05
0.00164476 1.13089e-05 8.18159e-07
1.13089e-05 0.000289798 -9.26621e-07
8.18159e-07 -9.26621e-07 0.000311046
0.000979628 8.83648e-06 2.11754e-06
8.83648e-06 -2.94605e-05 -1.91139e-06
2.11754e-06 -1.91139e-06 -2.49036e-05
0.00213442 1.01554e-05 2.58078e-06
1.01554e-05 0.000521827 -2.89048e-06
2.58078e-06 -2.89048e-06 0.000545993
0.00115879 -2.69058e-06 -4.14434e-07
-2.69058e-06 5.86719e-05 -3.6539e-08
-4.14434e-07 -3.6539e-08 1.46108e-05
0.00115405 -1.97531e-06 1.57801e-07
-1.97531e-06 5.4326e-05 3.34667e-07
1.57801e-07 3.34667e-07 1.14875e-05
0.00110229 -2.93809e-06 -9.08942e-07
-2.93809e-06 3.01194e-05 -5.48568e-07
-9.08942e-07 -5.48568e-07 -3.68419e-06
0.00110708 -8.40415e-07 4.1167e-07
-8.40415e-07 2.94925e-05 3.02186e-08
4.1167e-07 3.02186e-08 -1.24803e-05
0.00108657 -2.24094e-06 2.38919e-08
-2.24094e-06 2.00984e-05 -1.67477e-08
2.38919e-08 -1.67477e-08 -1.28542e-05
0.00104123 -4.6584e-06 -1.39647e-06
-4.6584e-06 -9.00104e-07 -1.05888e-06
-1.39647e-06 -1.05888e-06 -1.92593e-05
0.000984143 -7.63586e-06 -1.9366e-06
-7.63586e-06 -3.22454e-05 -2.05257e-06
-1.9366e-06 -2.05257e-06 -2.73655e-05
0.00104127 -4.00592e-06 -3.92848e-08
-4.00592e-06 -2.87713e-06 2.02255e-08
-3.92848e-08 2.02255e-08 -2.09992e-05
0.00109019 -1.48161e-06 8.26231e-07
-1.48161e-06 2.04789e-05 6.56871e-07
8.26231e-07 6.56871e-07 -1.25274e-05
0.00216793 -8.82431e-06 -2.37561e-06
-8.82431e-06 0.000533059 -3.02158e-06
-2.37561e-06 -3.02158e-06 0.000557689
0.000983531 -6.69906e-06 -5.00381e-08
-6.69906e-06 -3.56978e-05 2.40788e-08
-5.00381e-08 2.40788e-08 -3.05023e-05
0.00104371 -3.39747e-06 1.12031e-06
-3.39747e-06 -2.99213e-06 1.25472e-06
1.12031e-06 1.25472e-06 -2.1255e-05
0.00221031 -7.54076e-06 -7.74587e-08
-7.54076e-06 0.000549415 2.70351e-08
-7.74587e-08 2.70351e-08 0.000574393
0.000983957 -5.77831e-06 1.43644e-06
-5.77831e-06 -3.82966e-05 2.37804e-06
1.43644e-06 2.37804e-06 -3.2871e-05
0.00223291 -6.27392e-06 1.70712e-06
-6.27392e-06 0.000556671 3.27979e-06
1.70712e-06 3.27979e-06 0.00058209
-0.000111207 -1.35521e-05 6.46762e-05
-1.35521e-05 -0.00017017 4.3824e-06
6.46762e-05 4.3824e-06 -0.000112814
0.00120012 -1.84146e-05 -3.22003e-06
-1.84146e-05 0.000656082 -1.01547e-06
-3.22003e-06 -1.01547e-06 0.000673444
0.00038701 -2.94871e-06 1.35373e-05
-2.94871e-06 5.10121e-06 3.11598e-06
1.35373e-05 3.11598e-06 -6.50603e-05
0.00112417 4.89322e-07 3.88951e-07
4.89322e-07 3.9141e-05 4.45012e-07
3.88951e-07 4.45012e-07 -9.59761e-06
0.00112838 3.61026e-06 3.00573e-07
3.61026e-06 4.02595e-05 3.17545e-07
3.00573e-07 3.17545e-07 -1.09376e-05
0.00117903 6.01338e-07 1.0285e-07
6.01338e-07 6.54197e-05 1.68627e-07
1.0285e-07 1.68627e-07 1.64215e-05
0.00113697 1.81208e-06 -1.70262e-08
1.81208e-06 4.69297e-05 3.1209e-07
-1.70262e-08 3.1209e-07 -3.62562e-06
0.00112442 3.95244e-06 -2.55518e-07
3.95244e-06 3.82645e-05 1.89614e-07
-2.55518e-07 1.89614e-07 -1.41498e-05
0.00116207 4.69083e-06 9.05768e-08
4.69083e-06 5.42078e-05 -4.70193e-08
9.05768e-08 -4.70193e-08 8.25628e-07
0.00116211 4.1009e-06 3.9218e-07
4.1009e-06 5.40917e-05 6.86496e-09
3.9218e-07 6.86496e-09 2.44697e-06
0.00113166 4.98866e-06 -9.45707e-08
4.98866e-06 4.4165e-05 -1.20185e-07
-9.45707e-08 -1.20185e-07 -1.22602e-05
0.00107697 5.02163e-06 4.58164e-08
5.02163e-06 2.20162e-05 4.85776e-07
4.58164e-08 4.85776e-07 -3.41092e-05
0.00117302 7.09303e-06 1.23775e-07
7.09303e-06 6.85e-05 6.33808e-07
1.23775e-07 6.33808e-07 9.7203e-06
0.00126586 1.18785e-05 3.61202e-07
1.18785e-05 0.000110546 -4.81572e-07
3.61202e-07 -4.81572e-07 4.76981e-05
0.00116276 7.3275e-06 9.79341e-08
7.3275e-06 6.50192e-05 -5.57005e-08
9.79341e-08 -5.57005e-08 6.35944e-06
0.00111765 5.3576e-06 1.25369e-07
5.3576e-06 3.74175e-05 -4.27703e-07
1.25369e-07 -4.27703e-07 -2.14231e-05
0.00638956 -1.90731e-05 6.30504e-05
-1.90731e-05 0.00170137 2.59516e-05
6.30504e-05 2.59516e-05 0.00154644
-0.000551339 -4.90846e-05 4.627e-06
-4.90846e-05 -0.00023163 2.61253e-06
4.627e-06 2.61253e-06 -0.000163268
0.00170874 -3.02781e-05 2.22248e-05
-3.02781e-05 0.000944722 1.40927e-05
2.22248e-05 1.40927e-05 0.000994211
-0.00264882 -7.40341e-05 -2.06733e-05
-7.40341e-05 -0.00121552 -3.21036e-05
-2.06733e-05 -3.21036e-05 -0.00112548
0.00309023 -8.54227e-05 -1.34489e-05
-8.54227e-05 3.82167e-05 3.2968e-06
-1.34489e-05 3.2968e-06 -0.0002916
0.00168024 2.7181e-05 -1.8754e-06
2.7181e-05 0.000561147 -1.52001e-06
-1.8754e-06 -1.52001e-06 0.000414857
0.00102954 4.00537e-05 -5.59671e-06
4.00537e-05 4.69799e-05 -7.45671e-06
-5.59671e-06 -7.45671e-06 -0.000122452
0.00481362 -6.51434e-05 3.70815e-06
-6.51434e-05 0.00113467 5.48448e-06
3.70815e-06 5.48448e-06 0.000922845
0.000482868 3.35274e-05 -1.40254e-05
3.35274e-05 -0.000338998 -1.63475e-05
-1.40254e-05 -1.63475e-05 -0.000491833
0.00118868 2.2998e-05 2.45073e-06
2.2998e-05 8.02269e-05 -4.41041e-07
2.45073e-06 -4.41041e-07 -7.08683e-07
0.0011325 1.87843e-05 -7.2598e-07
1.87843e-05 8.82602e-05 -1.10321e-06
-7.2598e-07 -1.10321e-06 1.62451e-05
0.00107432 1.04118e-05 1.06047e-06
1.04118e-05 3.75072e-05 -2.62884e-07
1.06047e-06 -2.62884e-07 -2.60529e-05
0.00167967 2.56749e-05 -7.41782e-07
2.56749e-05 0.000356849 -1.93634e-06
-7.41782e-07 -1.93634e-06 0.000271417
0.000712635 3.23275e-05 -4.0636e-07
3.23275e-05 -0.000136388 4.73526e-07
-4.0636e-07 4.73526e-07 -0.000213487
-0.00131448 2.76448e-06 6.78159e-05
2.76448e-06 -0.0013858 -4.46565e-06
6.78159e-05 -4.46565e-06 -0.00135086
0.00097795 3.36931e-06 -2.43612e-06
3.36931e-06 0.000462171 5.7219e-06
-2.43612e-06 5.7219e-06 0.000567528
-0.00152271 -2.82548e-06 2.50367e-05
-2.82548e-06 -0.00102246 -9.42742e-07
2.50367e-05 -9.42742e-07 -0.00103829
0.000483804 -2.3129e-05 -1.21265e-07
-2.3129e-05 -0.000255658 6.55303e-07
-1.21265e-07 6.55303e-07 -0.000366343
0.0015316 -4.68355e-05 1.29986e-05
-4.68355e-05 1.36885e-05 -1.67686e-05
1.29986e-05 -1.67686e-05 -0.000189014
0.000731582 1.84777e-05 -9.5349e-05
1.84777e-05 0.000200761 1.82976e-05
-9.5349e-05 1.82976e-05 0.000268558
0.00607291 1.00979e-06 -2.86136e-05
1.00979e-06 0.00177728 7.80256e-06
-2.86136e-05 7.80256e-06 0.00159085
0.00151388 -2.82783e-05 5.99036e-07
-2.82783e-05 5.93484e-05 4.10172e-07
5.99036e-07 4.10172e-07 -2.09566e-05
0.00255799 -1.09897e-06 2.48863e-05
-1.09897e-06 0.000310451 -1.23483e-05
2.48863e-05 -1.23483e-05 0.000287129
0.00156795 -3.56776e-05 8.12467e-06
-3.56776e-05 -4.85861e-05 -4.50818e-07
8.12467e-06 -4.50818e-07 -0.000166984
0.00196943 -1.90256e-05 -4.16888e-06
-1.90256e-05 0.000218048 -1.30691e-06
-4.16888e-06 -1.30691e-06 0.000173764
0.00176526 -3.46648e-06 -9.14308e-06
-3.46648e-06 0.000362004 4.2533e-06
-9.14308e-06 4.2533e-06 0.000286376
0.000943908 -1.88741e-05 2.56004e-06
-1.88741e-05 -9.18446e-05 8.51471e-07
2.56004e-06 8.51471e-07 -0.000166431
0.00130348 -1.40296e-05 -1.02578e-06
-1.40296e-05 2.21023e-05 -5.51971e-08
-1.02578e-06 -5.51971e-08 -1.9439e-05
0.00139971 -2.23656e-06 1.69071e-06
-2.23656e-06 8.75844e-05 9.17094e-07
1.69071e-06 9.17094e-07 5.85816e-05
0.00103751 -1.02494e-05 1.37194e-06
-1.02494e-05 -6.80389e-05 1.93992e-06
1.37194e-06 1.93992e-06 -0.000117323
0.00125749 -5.13367e-06 4.97735e-07
-5.13367e-06 2.62814e-05 6.44243e-07
4.97735e-07 6.44243e-07 -7.52588e-06
0.00122667 1.74068e-06 2.03357e-06
1.74068e-06 3.3479e-05 4.55325e-07
2.03357e-06 4.55325e-07 -2.78303e-06
0.00116507 -5.69217e-06 9.7485e-08
-5.69217e-06 1.05748e-06 1.83992e-06
9.7485e-08 1.83992e-06 -4.29881e-05
0.0012471 -2.14411e-06 3.18981e-07
-2.14411e-06 4.11606e-05 5.08153e-07
3.18981e-07 5.08153e-07 1.40732e-06
0.00120951 2.44996e-06 1.90805e-06
2.44996e-06 4.17828e-05 2.65052e-07
1.90805e-06 2.65052e-07 -4.64444e-06
0.00123301 -3.87954e-06 -3.70267e-07
-3.87954e-06 4.10196e-05 1.51454e-06
-3.70267e-07 1.51454e-06 -5.18926e-06
0.00123801 -9.00134e-07 1.59916e-07
-9.00134e-07 5.22298e-05 2.76304e-07
1.59916e-07 2.76304e-07 4.87378e-06
0.00116844 1.30608e-06 1.19664e-06
1.30608e-06 2.86051e-05 8.31864e-08
1.19664e-06 8.31864e-08 -2.39765e-05
0.00117765 -1.4509e-06 -4.49506e-07
-1.4509e-06 3.23609e-05 -1.02656e-07
-4.49506e-07 -1.02656e-07 -1.95082e-05
0.00118429 -2.15971e-06 8.37585e-07
-2.15971e-06 4.06198e-05 -2.83587e-07
8.37585e-07 -2.83587e-07 -1.41798e-05
0.0012202 -2.86645e-06 -8.57468e-07
-2.86645e-06 4.74923e-05 9.29189e-07
-8.57468e-07 9.29189e-07 -2.84339e-06
0.00124296 -3.76231e-06 7.25508e-08
-3.76231e-06 6.58593e-05 -1.19874e-07
7.25508e-08 -1.19874e-07 1.33022e-05
0.00123714 -4.00703e-06 2.90548e-07
-4.00703e-06 6.92307e-05 -4.39526e-07
2.90548e-07 -4.39526e-07 1.58036e-05
0.00110114 -3.83941e-06 -6.6622e-07
-3.83941e-06 1.60542e-05 1.01615e-07
-6.6622e-07 1.01615e-07 -3.60208e-05
0.00123624 -5.08882e-06 4.57413e-08
-5.08882e-06 7.1668e-05 -1.40492e-07
4.57413e-08 -1.40492e-07 1.70326e-05
0.00122539 -5.30256e-06 5.73656e-08
-5.30256e-06 5.99348e-05 8.08679e-07
5.73656e-08 8.08679e-07 4.6648e-06
0.00108477 -3.6539e-07 -1.03149e-06
-3.6539e-07 2.83241e-05 5.88547e-07
-1.03149e-06 5.88547e-07 -1.42973e-05
0.00109526 -4.14804e-06 -1.52413e-07
-4.14804e-06 2.3835e-05 2.47519e-07
-1.52413e-07 2.47519e-07 -2.75843e-05
0.00124992 -5.67941e-06 3.50631e-07
-5.67941e-06 9.03271e-05 -4.86247e-08
3.50631e-07 -4.86247e-08 3.4467e-05
0.0009958 5.79554e-06 -1.74893e-06
5.79554e-06 -6.12957e-06 8.68208e-07
-1.74893e-06 8.68208e-07 -3.06474e-05
0.00107731 9.47414e-07 1.48868e-08
9.47414e-07 2.71484e-05 -1.61087e-08
1.48868e-08 -1.61087e-08 -1.28089e-05
0.00112159 -2.62274e-06 5.21152e-07
-2.62274e-06 4.32244e-05 -4.04635e-07
5.21152e-07 -4.04635e-07 -6.08516e-06
0.000906759 1.13011e-05 -2.53503e-06
1.13011e-05 -4.85045e-05 1.63148e-06
-2.53503e-06 1.63148e-06 -4.73779e-05
0.00101946 5.87135e-06 3.39743e-08
5.87135e-06 2.26461e-06 1.149e-08
3.39743e-08 1.149e-08 -2.01007e-05
0.00108339 2.18075e-06 1.01337e-06
2.18075e-06 2.95637e-05 -5.31927e-07
1.01337e-06 -5.31927e-07 -8.04342e-06
0.0022494 1.36604e-05 -3.08687e-06
1.36604e-05 0.000592632 2.5863e-06
-3.08687e-06 2.5863e-06 0.00061388
0.000948561 1.05638e-05 5.94512e-08
1.05638e-05 -3.38883e-05 1.86765e-08
5.94512e-08 1.86765e-08 -3.14174e-05
0.00104223 5.85743e-06 1.62055e-06
5.85743e-06 1.01195e-05 -9.46082e-07
1.62055e-06 -9.46082e-07 -1.05812e-05
0.00217647 1.2554e-05 6.03995e-08
1.2554e-05 0.000552182 3.98884e-08
6.03995e-08 3.98884e-08 0.000574626
0.000978037 9.73182e-06 2.27998e-06
9.73182e-06 -2.51881e-05 -1.80819e-06
2.27998e-06 -1.80819e-06 -2.15619e-05
0.00212436 1.14e-05 2.7914e-06
1.14e-05 0.000522127 -2.7746e-06
2.7914e-06 -2.7746e-06 0.000545588
0.00104442 -1.14898e-06 -4.43886e-07
-1.14898e-06 6.32908e-06 -4.19364e-08
-4.43886e-07 -4.19364e-08 -4.04085e-05
0.00116003 -2.40737e-06 8.68124e-08
-2.40737e-06 5.95251e-05 1.11394e-07
8.68124e-08 1.11394e-07 1.54457e-05
0.000978801 -3.36555e-06 -1.14219e-06
-3.36555e-06 -2.64813e-05 -7.57884e-07
-1.14219e-06 -7.57884e-07 -6.26386e-05
0.00105899 -2.35771e-06 6.23288e-07
-2.35771e-06 8.4432e-06 6.14329e-07
6.23288e-07 6.14329e-07 -3.50843e-05
0.00103101 -2.94234e-06 -2.91526e-08
-2.94234e-06 -3.91967e-06 1.42963e-08
-2.91526e-08 1.42963e-08 -3.82364e-05
0.00104088 -5.28947e-06 -1.47997e-06
-5.28947e-06 2.10066e-06 -9.81739e-07
-1.47997e-06 -9.81739e-07 -1.71931e-05
0.00108373 -2.22237e-06 8.97174e-07
-2.22237e-06 1.88048e-05 5.70669e-07
8.97174e-07 5.70669e-07 -1.41479e-05
0.00103721 -4.65847e-06 -1.7546e-08
-4.65847e-06 -2.8351e-06 6.99896e-09
-1.7546e-08 6.99896e-09 -2.11722e-05
0.000978019 -8.59696e-06 -2.10948e-06
-8.59696e-06 -3.1597e-05 -1.91883e-06
-2.10948e-06 -1.91883e-06 -2.72206e-05
0.00215782 -1.00647e-05 -2.59475e-06
-1.00647e-05 0.000532204 -2.90184e-06
-2.59475e-06 -2.90184e-06 0.000556315
0.00097551 -7.65128e-06 -5.12786e-08
-7.65128e-06 -3.64238e-05 2.53423e-08
-5.12786e-08 2.53423e-08 -3.15e-05
0.00104041 -3.99814e-06 1.24354e-06
-3.99814e-06 -3.30322e-06 1.17214e-06
1.24354e-06 1.17214e-06 -2.14287e-05
0.00220842 -8.76865e-06 -7.08708e-08
-8.76865e-06 0.000552098 3.04666e-08
-7.08708e-08 3.04666e-08 0.000576587
0.000975725 -6.71377e-06 1.63943e-06
-6.71377e-06 -3.942e-05 2.24112e-06
1.63943e-06 2.24112e-06 -3.41968e-05
0.00224438 -7.48908e-06 2.00911e-06
-7.48908e-06 0.000565385 3.19554e-06
2.00911e-06 3.19554e-06 0.000590253
0.0063182 5.72441e-06 3.43033e-05
5.72441e-06 0.00186542 1.77811e-06
3.43033e-05 1.77811e-06 0.00181195
-0.00318911 -9.17649e-06 1.22795e-05
-9.17649e-06 -0.000875769 1.35544e-06
1.22795e-05 1.35544e-06 -0.00073816
-5.4425e-05 -1.90205e-05 1.37778e-05
-1.90205e-05 -0.000111702 4.16737e-06
1.37778e-05 4.16737e-06 -9.56849e-05
0.00112059 3.51071e-06 6.2046e-07
3.51071e-06 3.70647e-05 5.02185e-08
6.2046e-07 5.02185e-08 -1.40127e-05
0.00120073 9.58422e-07 3.58658e-07
9.58422e-07 7.60413e-05 6.70009e-08
3.58658e-07 6.70009e-08 2.72299e-05
0.00115701 3.93475e-06 -8.11788e-08
3.93475e-06 5.37582e-05 -6.22218e-09
-8.11788e-08 -6.22218e-09 1.56991e-06
0.00116692 2.22476e-06 8.12649e-08
2.22476e-06 6.11606e-05 1.14694e-07
8.12649e-08 1.14694e-07 1.0906e-05
0.00115297 2.22336e-06 1.31226e-07
2.22336e-06 5.96379e-05 -8.52308e-08
1.31226e-07 -8.52308e-08 7.12129e-06
0.00114484 4.1284e-06 -1.45668e-07
4.1284e-06 5.15099e-05 2.86807e-07
-1.45668e-07 2.86807e-07 -1.8742e-06
0.00107684 4.95815e-06 2.95861e-08
4.95815e-06 1.80125e-05 -4.20102e-07
2.95861e-08 -4.20102e-07 -3.84938e-05
0.00112144 4.96407e-06 2.4159e-07
4.96407e-06 4.26779e-05 1.33741e-07
2.4159e-07 1.33741e-07 -1.35716e-05
0.00112968 7.09543e-06 1.3038e-07
7.09543e-06 4.98304e-05 -1.12944e-07
1.3038e-07 -1.12944e-07 -9.12161e-06
0.0010023 7.0619e-06 3.53819e-07
7.0619e-06 -1.0656e-05 1.90128e-07
3.53819e-07 1.90128e-07 -6.92349e-05
0.00141053 1.03147e-05 4.20654e-07
1.03147e-05 0.000169693 4.31034e-07
4.20654e-07 4.31034e-07 0.000109265
0.00141029 1.52175e-05 5.95368e-07
1.52175e-05 0.000149605 -9.49449e-07
5.95368e-07 -9.49449e-07 7.65707e-05
0.00116582 1.16122e-05 -8.19924e-08
1.16122e-05 6.542e-05 -9.60833e-09
-8.19924e-08 -9.60833e-09 2.75926e-06
0.00112737 7.28821e-06 -6.62522e-08
7.28821e-06 4.96249e-05 -6.82266e-07
-6.62522e-08 -6.82266e-07 -9.30883e-06
0.00184778 3.3212e-06 -1.1907e-05
3.3212e-06 0.000291723 -1.26242e-06
-1.1907e-05 -1.26242e-06 0.000234213
0.00240378 -2.83277e-05 -5.9582e-06
-2.83277e-05 0.000201704 -5.35117e-06
-5.9582e-06 -5.35117e-06 9.41432e-05
0.00127117 -5.75969e-05 -1.74325e-05
-5.75969e-05 0.000695882 -6.941e-06
-1.74325e-05 -6.941e-06 0.000745791
0.000227859 -4.60565e-05 -4.85998e-05
-4.60565e-05 -0.000758916 -5.27442e-05
-4.85998e-05 -5.27442e-05 -0.00097335
0.00281044 4.17789e-05 3.31959e-06
4.17789e-05 0.000937827 1.26414e-05
3.31959e-06 1.26414e-05 0.000813099
0.00127757 3.44745e-05 -3.58738e-06
3.44745e-05 0.000123864 -1.18557e-06
-3.58738e-06 -1.18557e-06 1.41338e-05
0.00137734 1.2627e-05 3.33343e-06
1.2627e-05 5.35762e-05 1.01032e-06
3.33343e-06 1.01032e-06 -2.55624e-05
0.00100384 2.38761e-05 1.85411e-07
2.38761e-05 -1.27692e-05 7.26642e-07
1.85411e-07 7.26642e-07 -9.42444e-05
0.00102173 1.81958e-05 -8.644e-08
1.81958e-05 3.59095e-05 -1.86839e-07
-8.644e-08 -1.86839e-07 -3.63731e-05
0.00123468 3.34104e-05 -1.98844e-06
3.34104e-05 8.88172e-05 -2.63588e-06
-1.98844e-06 -2.63588e-06 1.4699e-05
0.000814219 -2.51569e-06 -1.63561e-05
-2.51569e-06 -0.000186539 -1.97145e-06
-1.63561e-05 -1.97145e-06 -0.000259046
0.00650374 9.12736e-06 6.14635e-06
9.12736e-06 0.00197502 -5.1852e-06
6.14635e-06 -5.1852e-06 0.00196207
-0.00616446 1.02064e-06 -6.99022e-05
1.02064e-06 -0.00264875 -1.40787e-06
-6.99022e-05 -1.40787e-06 -0.00247738
0.00118709 -2.79618e-05 3.02373e-06
-2.79618e-05 -8.61191e-05 9.49934e-07
3.02373e-06 9.49934e-07 -0.000167778
0.00247025 -3.1594e-05 1.42471e-05
-3.1594e-05 0.000528374 -7.62981e-06
1.42471e-05 -7.62981e-06 0.000433323
0.00109568 -7.12332e-06 -2.0954e-05
-7.12332e-06 -1.43343e-05 2.25314e-06
-2.0954e-05 2.25314e-06 -1.44226e-05
0.00164277 -1.8422e-05 -1.36879e-06
-1.8422e-05 8.09792e-05 5.0908e-08
-1.36879e-06 5.0908e-08 3.50156e-05
0.001155 1.69129e-06 -6.0387e-07
1.69129e-06 9.9223e-06 -2.58321e-07
-6.0387e-07 -2.58321e-07 -6.17668e-05
0.00156276 2.28109e-06 5.35561e-07
2.28109e-06 0.000159976 2.03407e-06
5.35561e-07 2.03407e-06 0.000117589
0.000674122 1.84404e-05 1.75176e-06
1.84404e-05 -2.67179e-05 -2.11137e-06
1.75176e-06 -2.11137e-06 -0.000106266
0.00104696 -1.3504e-05 1.41845e-06
-1.3504e-05 -9.54225e-05 1.36269e-06
1.41845e-06 1.36269e-06 -0.000136332
0.00132878 -2.12229e-06 1.35833e-06
-2.12229e-06 5.85653e-05 7.7576e-07
1.35833e-06 7.7576e-07 2.89763e-05
0.00121097 8.32051e-06 1.80363e-06
8.32051e-06 5.45763e-05 1.39927e-06
1.80363e-06 1.39927e-06 1.0439e-05
0.00120201 -5.09124e-06 1.26835e-07
-5.09124e-06 2.18651e-06 1.99143e-06
1.26835e-07 1.99143e-06 -3.20673e-05
0.00126763 1.62579e-06 1.57787e-07
1.62579e-06 5.52679e-05 4.45341e-07
1.57787e-07 4.45341e-07 1.80134e-05
0.00124832 7.11921e-06 1.6154e-06
7.11921e-06 7.32222e-05 4.98689e-07
1.6154e-06 4.98689e-07 2.3123e-05
0.00126652 -2.19601e-06 -8.10191e-07
-2.19601e-06 5.17286e-05 1.22559e-06
-8.10191e-07 1.22559e-06 1.13809e-05
0.00124414 2.38797e-06 3.55344e-08
2.38797e-06 5.91187e-05 5.37577e-08
3.55344e-08 5.37577e-08 1.22767e-05
0.00118007 4.59328e-06 1.22113e-06
4.59328e-06 3.89055e-05 9.48709e-08
1.22113e-06 9.48709e-08 -1.60348e-05
0.00127789 -9.07497e-07 -1.30809e-06
-9.07497e-07 7.19747e-05 5.87905e-07
-1.30809e-06 5.87905e-07 2.41319e-05
0.00121844 1.09167e-06 -3.06912e-07
1.09167e-06 5.28149e-05 -1.59712e-07
-3.06912e-07 -1.59712e-07 2.943e-07
0.00120758 5.48555e-07 9.96614e-07
5.48555e-07 5.30522e-05 2.12125e-07
9.96614e-07 2.12125e-07 -4.46664e-06
0.00120816 -1.94439e-06 -1.59981e-06
-1.94439e-06 4.69912e-05 -1.92527e-07
-1.59981e-06 -1.92527e-07 -4.80112e-06
0.00117614 -2.02681e-06 -5.75051e-08
-2.02681e-06 3.63287e-05 -1.89026e-07
-5.75051e-08 -1.89026e-07 -1.81844e-05
0.00119183 -2.85066e-06 4.44192e-07
-2.85066e-06 4.96335e-05 -2.484e-07
4.44192e-07 -2.484e-07 -5.79876e-06
0.00124859 -3.72623e-06 -4.53025e-07
-3.72623e-06 6.77335e-05 5.78188e-07
-4.53025e-07 5.78188e-07 1.52406e-05
0.00123226 -3.98102e-06 7.21095e-08
-3.98102e-06 6.64875e-05 -1.25799e-07
7.21095e-08 -1.25799e-07 1.30726e-05
0.00119743 -2.96429e-06 -1.3355e-07
-2.96429e-06 5.90357e-05 -2.20394e-07
-1.3355e-07 -2.20394e-07 7.34451e-06
0.000987867 -2.28684e-07 -1.33539e-06
-2.28684e-07 -2.43151e-05 6.10827e-07
-1.33539e-06 6.10827e-07 -6.96906e-05
0.00115476 -3.90752e-06 -1.61261e-07
-3.90752e-06 4.24437e-05 1.21973e-07
-1.61261e-07 1.21973e-07 -9.22956e-06
0.00122981 -5.09721e-06 2.56179e-07
-5.09721e-06 6.88798e-05 2.45396e-07
2.56179e-07 2.45396e-07 1.41044e-05
0.000995259 5.58605e-06 -1.8179e-06
5.58605e-06 -5.27388e-06 8.82782e-07
-1.8179e-06 8.82782e-07 -3.26016e-05
0.00108264 -3.08057e-07 3.17549e-08
-3.08057e-07 2.70295e-05 4.69902e-08
3.17549e-08 4.69902e-08 -1.55281e-05
0.00114084 -4.16872e-06 4.35593e-07
-4.16872e-06 4.6184e-05 -3.58909e-08
4.35593e-07 -3.58909e-08 -4.87792e-06
0.000887982 1.19044e-05 -2.70903e-06
1.19044e-05 -5.22488e-05 1.51898e-06
-2.70903e-06 1.51898e-06 -5.28947e-05
0.00101386 5.76295e-06 2.32191e-08
5.76295e-06 2.1521e-06 -1.16862e-08
2.32191e-08 -1.16862e-08 -2.2422e-05
0.00108611 4.15482e-07 1.00638e-06
4.15482e-07 3.07659e-05 -5.86966e-07
1.00638e-06 -5.86966e-07 -9.16559e-06
0.00228517 1.47716e-05 -3.30112e-06
1.47716e-05 0.000616257 2.46928e-06
-3.30112e-06 2.46928e-06 0.000636254
0.000936426 1.12315e-05 5.97453e-08
1.12315e-05 -3.44823e-05 2.02107e-08
5.97453e-08 2.02107e-08 -3.35008e-05
0.00103515 5.8464e-06 1.72852e-06
5.8464e-06 9.49163e-06 -8.79184e-07
1.72852e-06 -8.79184e-07 -1.29144e-05
0.00219357 1.37185e-05 6.03394e-08
1.37185e-05 0.000566563 4.61933e-08
6.03394e-08 4.61933e-08 0.000587917
0.000973926 1.05062e-05 2.4609e-06
1.05062e-05 -2.18446e-05 -1.69093e-06
2.4609e-06 -1.69093e-06 -1.95065e-05
0.00212384 1.26134e-05 3.00151e-06
1.26134e-05 0.000527625 -2.66794e-06
3.00151e-06 -2.66794e-06 0.000550185
0.00111929 -4.25365e-08 -4.10411e-07
-4.25365e-08 4.54768e-05 -3.07542e-07
-4.10411e-07 -3.07542e-07 -2.6564e-06
0.00113515 -1.05514e-06 3.83725e-09
-1.05514e-06 4.99337e-05 2.23162e-08
3.83725e-09 2.23162e-08 3.85469e-06
0.00096604 -3.66605e-06 -1.10543e-06
-3.66605e-06 -2.84642e-05 -6.64085e-07
-1.10543e-06 -6.64085e-07 -6.67476e-05
0.00116067 -2.20077e-06 5.79231e-07
-2.20077e-06 6.00895e-05 2.64108e-07
5.79231e-07 2.64108e-07 1.59936e-05
0.000963369 -3.35791e-06 -2.04516e-07
-3.35791e-06 -3.319e-05 -2.73731e-07
-2.04516e-07 -2.73731e-07 -6.95688e-05
0.0010367 -5.79537e-06 -1.56739e-06
-5.79537e-06 3.99509e-06 -8.7966e-07
-1.56739e-06 -8.7966e-07 -1.68022e-05
0.000960433 -2.94396e-06 8.34446e-07
-2.94396e-06 -3.76288e-05 5.85135e-07
8.34446e-07 5.85135e-07 -7.24612e-05
0.00103227 -5.30148e-06 -3.00772e-08
-5.30148e-06 -1.96857e-06 1.08693e-08
-3.00772e-08 1.08693e-08 -2.12177e-05
0.000973187 -9.55241e-06 -2.26571e-06
-9.55241e-06 -2.9584e-05 -1.79183e-06
-2.26571e-06 -1.79183e-06 -2.61059e-05
0.00103309 -4.65798e-06 1.36281e-06
-4.65798e-06 -4.81696e-06 1.07266e-06
1.36281e-06 1.07266e-06 -2.3132e-05
0.000966777 -8.62041e-06 -4.60938e-08
-8.62041e-06 -3.70698e-05 2.28667e-08
-4.60938e-08 2.28667e-08 -3.26193e-05
0.00214891 -1.13145e-05 -2.79675e-06
-1.13145e-05 0.000532496 -2.77852e-06
-2.79675e-06 -2.77852e-06 0.000555962
0.00220547 -1.00022e-05 -6.73457e-08
-1.00022e-05 0.000554638 3.47302e-08
-6.73457e-08 3.47302e-08 0.000578587
0.000966716 -7.66758e-06 1.83061e-06
-7.66758e-06 -4.06749e-05 2.11153e-06
1.83061e-06 2.11153e-06 -3.57069e-05
0.00224927 -8.71169e-06 2.26405e-06
-8.71169e-06 0.000571302 3.08422e-06
2.26405e-06 3.08422e-06 0.000595649
0.00255855 -9.29237e-06 -1.17671e-05
-9.29237e-06 0.000642424 -3.76719e-06
-1.17671e-05 -3.76719e-06 0.000609515
-0.00134439 -9.38799e-07 -1.33097e-05
-9.38799e-07 -0.00143799 -5.64472e-06
-1.33097e-05 -5.64472e-06 -0.00143666
0.00186289 -2.90557e-05 -2.44746e-05
-2.90557e-05 0.000950446 -4.98809e-06
-2.44746e-05 -4.98809e-06 0.00105933
0.00121 3.43205e-06 5.02523e-07
3.43205e-06 8.65317e-05 2.93224e-07
5.02523e-07 2.93224e-07 3.23699e-05
0.00118881 3.91785e-06 1.81241e-07
3.91785e-06 6.89175e-05 -2.09158e-07
1.81241e-07 -2.09158e-07 1.69527e-05
0.00119702 2.56747e-06 2.21445e-07
2.56747e-06 7.54335e-05 -3.53685e-08
2.21445e-07 -3.53685e-08 2.54828e-05
0.00114927 4.13766e-06 7.07069e-09
4.13766e-06 5.30548e-05 3.53027e-08
7.07069e-09 3.53027e-08 -5.58813e-07
0.00113988 2.66909e-06 -1.27139e-07
2.66909e-06 5.38972e-05 -3.19569e-07
-1.27139e-07 -3.19569e-07 1.29085e-06
0.0011123 5.13992e-06 -5.78281e-08
5.13992e-06 4.247e-05 1.06221e-07
-5.78281e-08 1.06221e-07 -1.3217e-05
0.00117271 4.91957e-06 3.95862e-07
4.91957e-06 6.65459e-05 -3.13334e-07
3.95862e-07 -3.13334e-07 1.0159e-05
0.0010919 7.10584e-06 -4.8488e-07
7.10584e-06 3.3776e-05 -6.30678e-07
-4.8488e-07 -6.30678e-07 -2.53576e-05
0.00113328 7.22189e-06 -6.4275e-08
7.22189e-06 5.04484e-05 8.59655e-09
-6.4275e-08 8.59655e-09 -7.74242e-06
0.00129028 9.94942e-06 8.76374e-08
9.94942e-06 0.000119309 3.79874e-07
8.76374e-08 3.79874e-07 5.97426e-05
0.0012405 1.14619e-05 4.96355e-07
1.14619e-05 8.06198e-05 -8.15312e-07
4.96355e-07 -8.15312e-07 1.48324e-05
0.00128348 1.03378e-05 -1.43502e-06
1.03378e-05 3.38265e-05 -8.44206e-08
-1.43502e-06 -8.44206e-08 -4.44828e-05
0.00131497 1.50704e-05 4.32471e-07
1.50704e-05 0.000109152 7.23288e-07
4.32471e-07 7.23288e-07 3.66132e-05
0.00108696 1.13876e-05 -5.16066e-07
1.13876e-05 2.99912e-05 4.17241e-07
-5.16066e-07 4.17241e-07 -3.24878e-05
0.00151939 -1.81852e-05 -1.72159e-07
-1.81852e-05 2.97018e-05 6.60856e-06
-1.72159e-07 6.60856e-06 -2.33607e-05
0.00157297 9.66778e-06 -3.3459e-07
9.66778e-06 7.81599e-05 1.35933e-06
-3.3459e-07 1.35933e-06 3.44661e-06
-0.000497322 -1.88408e-05 -8.81329e-05
-1.88408e-05 -0.000829997 -5.16989e-05
-8.81329e-05 -5.16989e-05 -0.000897607
0.00195968 4.11417e-05 6.57045e-06
4.11417e-05 0.000277856 1.35507e-05
6.57045e-06 1.35507e-05 0.000143656
0.00138972 1.307e-05 4.82168e-07
1.307e-05 4.53413e-05 -2.65856e-07
4.82168e-07 -2.65856e-07 -3.88031e-05
0.000801733 2.47466e-05 -3.47271e-08
2.47466e-05 -0.00011501 2.65754e-06
-3.47271e-08 2.65754e-06 -0.000196879
0.00089893 -5.2586e-07 1.2179e-06
-5.2586e-07 8.82677e-05 -5.08012e-06
1.2179e-06 -5.08012e-06 3.74953e-05
0.00171003 3.74743e-06 -2.91749e-06
3.74743e-06 0.000401865 7.27078e-07
-2.91749e-06 7.27078e-07 0.000341848
-0.00141561 1.54608e-05 -5.83342e-05
1.54608e-05 -0.00144672 -7.42758e-06
-5.83342e-05 -7.42758e-06 -0.00141745
0.0013417 -1.79299e-05 2.12913e-06
-1.79299e-05 -4.23949e-05 3.8516e-07
2.12913e-06 3.8516e-07 -9.03071e-05
0.00149376 -3.1752e-06 7.58115e-06
-3.1752e-06 9.52881e-05 3.86259e-07
7.58115e-06 3.86259e-07 1.4203e-05
0.00152072 2.30768e-06 7.51861e-07
2.30768e-06 0.000146491 6.27316e-07
7.51861e-07 6.27316e-07 0.000103346
0.00094385 1.86644e-05 3.33613e-07
1.86644e-05 9.21993e-05 -1.07086e-06
3.33613e-07 -1.07086e-06 1.53699e-05
0.00101667 1.56707e-05 8.04412e-07
1.56707e-05 2.80775e-05 7.57321e-07
8.04412e-07 7.57321e-07 -3.87437e-05
0.000682743 1.23516e-05 5.22051e-07
1.23516e-05 -4.84697e-05 -2.2473e-06
5.22051e-07 -2.2473e-06 -0.000121069
0.00126578 -2.01001e-06 6.87578e-07
-2.01001e-06 3.29309e-05 1.09135e-06
6.87578e-07 1.09135e-06 2.7844e-06
0.00127221 8.22083e-06 -2.67227e-07
8.22083e-06 8.70761e-05 -9.01672e-08
-2.67227e-07 -9.01672e-08 4.19783e-05
0.00124055 1.27214e-05 9.49008e-07
1.27214e-05 0.000100659 4.18645e-07
9.49008e-07 4.18645e-07 3.91718e-05
0.00130694 1.52351e-06 -1.61754e-06
1.52351e-06 7.6244e-05 3.15479e-07
-1.61754e-06 3.15479e-07 3.80095e-05
0.00124312 7.09068e-06 -1.71468e-07
7.09068e-06 7.17979e-05 -1.7109e-07
-1.71468e-07 -1.7109e-07 2.15785e-05
0.00123217 8.19835e-06 1.19162e-06
8.19835e-06 7.41522e-05 2.1787e-07
1.19162e-06 2.1787e-07 1.57161e-05
0.00127471 2.32685e-06 -1.91573e-06
2.32685e-06 7.45348e-05 4.29375e-08
-1.91573e-06 4.29375e-08 2.72896e-05
0.00122139 4.45099e-06 -3.3224e-07
4.45099e-06 5.82897e-05 -1.9688e-07
-3.3224e-07 -1.9688e-07 3.55209e-06
0.00119423 3.60708e-06 9.46711e-07
3.60708e-06 4.90341e-05 1.40388e-07
9.46711e-07 1.40388e-07 -1.13069e-05
0.00126589 8.5995e-07 -1.89332e-06
8.5995e-07 7.58236e-05 -2.5485e-07
-1.89332e-06 -2.5485e-07 2.33698e-05
0.00121584 6.1313e-07 2.77778e-08
6.1313e-07 5.6738e-05 4.15346e-08
2.77778e-08 4.15346e-08 -7.4531e-07
0.00120392 -9.1219e-07 4.80825e-07
-9.1219e-07 5.63219e-05 1.62059e-07
4.80825e-07 1.62059e-07 -2.11721e-06
0.00116814 -1.94088e-06 -1.01036e-06
-1.94088e-06 3.21175e-05 -1.42716e-07
-1.01036e-06 -1.42716e-07 -2.21099e-05
0.00116284 -2.66944e-06 5.76051e-08
-2.66944e-06 3.50706e-05 -1.75725e-07
5.76051e-08 -1.75725e-07 -2.0324e-05
0.00113067 -1.80624e-06 -1.01227e-07
-1.80624e-06 2.76077e-05 -4.33997e-08
-1.01227e-07 -4.33997e-08 -2.64704e-05
0.0012279 -3.95581e-06 -5.3995e-08
-3.95581e-06 6.39851e-05 3.314e-07
-5.3995e-08 3.314e-07 1.05818e-05
0.00116061 -2.86185e-06 1.06325e-07
-2.86185e-06 4.08677e-05 -1.21166e-07
1.06325e-07 -1.21166e-07 -1.10842e-05
0.00107781 2.38586e-07 -9.50859e-07
2.38586e-07 1.5678e-05 2.12146e-07
-9.50859e-07 2.12146e-07 -3.08224e-05
0.0010011 5.40841e-06 -1.91725e-06
5.40841e-06 -3.45968e-06 8.00101e-07
-1.91725e-06 8.00101e-07 -3.37179e-05
0.00105159 -2.65607e-07 -2.56616e-07
-2.65607e-07 6.41402e-06 2.66727e-07
-2.56616e-07 2.66727e-07 -3.84132e-05
0.00120938 -3.97224e-06 3.88809e-07
-3.97224e-06 6.92798e-05 1.272e-07
3.88809e-07 1.272e-07 1.80086e-05
0.000870526 1.243e-05 -2.88049e-06
1.243e-05 -5.57602e-05 1.45581e-06
-2.88049e-06 1.45581e-06 -5.86613e-05
0.00101004 5.56095e-06 4.76528e-08
5.56095e-06 1.48663e-06 9.92653e-09
4.76528e-08 9.92653e-09 -2.58773e-05
0.00108114 -2.47243e-07 1.06377e-06
-2.47243e-07 2.60175e-05 -4.73325e-07
1.06377e-06 -4.73325e-07 -1.64761e-05
0.00233437 1.58478e-05 -3.51452e-06
1.58478e-05 0.000646571 2.34518e-06
-3.51452e-06 2.34518e-06 0.00066517
0.000923095 1.18164e-05 5.43304e-08
1.18164e-05 -3.5745e-05 4.56547e-09
5.43304e-08 4.56547e-09 -3.65653e-05
0.00103204 5.72875e-06 1.78083e-06
5.72875e-06 1.04883e-05 -8.83094e-07
1.78083e-06 -8.83094e-07 -1.41425e-05
0.0022246 1.48353e-05 5.81814e-08
1.48353e-05 0.000587917 5.16823e-08
5.81814e-08 5.16823e-08 0.000608025
0.000965805 1.1162e-05 2.64293e-06
1.1162e-05 -2.05856e-05 -1.56667e-06
2.64293e-06 -1.56667e-06 -1.97498e-05
0.00213789 1.37768e-05 3.22036e-06
1.37768e-05 0.000540546 -2.5591e-06
3.22036e-06 -2.5591e-06 0.000562009
0.00110423 1.02606e-06 -3.2747e-07
1.02606e-06 3.90917e-05 -1.89632e-07
-3.2747e-07 -1.89632e-07 -1.11526e-05
0.0011119 -2.40013e-07 -4.04031e-08
-2.40013e-07 4.23821e-05 -1.78044e-07
-4.04031e-08 -1.78044e-07 -5.77718e-06
0.00108269 -3.82417e-06 -8.40594e-07
-3.82417e-06 3.09422e-05 -3.83835e-07
-8.40594e-07 -3.83835e-07 -8.7054e-06
0.00122617 -8.48935e-07 4.35629e-07
-8.48935e-07 9.37057e-05 3.793e-08
4.35629e-07 3.793e-08 4.82812e-05
0.00101212 -3.63433e-06 -2.13843e-07
-3.63433e-06 -5.86113e-06 -2.53717e-07
-2.13843e-07 -2.53717e-07 -4.38118e-05
0.00103184 -6.15044e-06 -1.62606e-06
-6.15044e-06 6.06193e-06 -7.87644e-07
-1.62606e-06 -7.87644e-07 -1.6651e-05
0.00094818 -3.34996e-06 7.01644e-07
-3.34996e-06 -3.97886e-05 2.14254e-07
7.01644e-07 2.14254e-07 -7.6389e-05
0.00102592 -5.80796e-06 -3.33574e-08
-5.80796e-06 -1.06068e-06 1.77693e-08
-3.33574e-08 1.77693e-08 -2.1818e-05
0.000966713 -1.04558e-05 -2.42865e-06
-1.04558e-05 -2.75039e-05 -1.65771e-06
-2.42865e-06 -1.65771e-06 -2.53551e-05
0.00102368 -5.31346e-06 1.42452e-06
-5.31346e-06 -6.02645e-06 1.00546e-06
1.42452e-06 1.00546e-06 -2.52314e-05
0.000957451 -9.59003e-06 -4.57725e-08
-9.59003e-06 -3.71911e-05 1.81103e-08
-4.57725e-08 1.81103e-08 -3.36041e-05
0.00214595 -1.2557e-05 -2.99448e-06
-1.2557e-05 0.000536497 -2.66167e-06
-2.99448e-06 -2.66167e-06 0.000559102
0.000955357 -8.64432e-06 2.0139e-06
-8.64432e-06 -4.26213e-05 1.97455e-06
2.0139e-06 1.97455e-06 -3.80969e-05
0.00220439 -1.12434e-05 -6.32333e-08
-1.12434e-05 0.000558591 3.88494e-08
-6.32333e-08 3.88494e-08 0.000581886
0.00225351 -9.9387e-06 2.49232e-06
-9.9387e-06 0.000577254 2.96291e-06
2.49232e-06 2.96291e-06 0.00060104
0.00132756 -2.8601e-05 1.38215e-06
-2.8601e-05 6.48481e-05 -5.72129e-07
1.38215e-06 -5.72129e-07 4.07141e-05
0.000776637 -1.0013e-05 -5.94909e-07
-1.0013e-05 -0.000342589 6.01917e-08
-5.94909e-07 6.01917e-08 -0.000393556
0.00625686 -5.99201e-06 -8.27494e-05
-5.99201e-06 0.00180668 -2.71726e-05
-8.27494e-05 -2.71726e-05 0.0017674
0.00108566 4.6524e-06 3.35255e-07
4.6524e-06 2.61332e-05 3.98237e-07
3.35255e-07 3.98237e-07 -2.98759e-05
0.0012358 5.43761e-06 3.24739e-07
5.43761e-06 8.65342e-05 -1.76596e-07
3.24739e-07 -1.76596e-07 2.98467e-05
0.00112306 3.77151e-06 1.35863e-07
3.77151e-06 4.72238e-05 1.30739e-07
1.35863e-07 1.30739e-07 -7.27052e-06
0.00115131 4.14403e-06 1.34936e-07
4.14403e-06 5.34183e-05 -2.97761e-07
1.34936e-07 -2.97761e-07 -4.14107e-07
0.00112831 3.11953e-06 -1.57425e-07
3.11953e-06 4.88692e-05 -3.46506e-07
-1.57425e-07 -3.46506e-07 -3.82933e-06
0.00112177 5.30357e-06 1.57358e-08
5.30357e-06 4.57419e-05 -2.09257e-08
1.57358e-08 -2.09257e-08 -1.03299e-05
0.00119671 8.68449e-06 4.24725e-08
8.68449e-06 6.08273e-05 -5.10175e-07
4.24725e-08 -5.10175e-07 -3.43906e-06
0.00126068 7.38667e-06 -8.1464e-09
7.38667e-06 0.000109944 -1.1146e-07
-8.1464e-09 -1.1146e-07 5.21388e-05
0.00116526 9.5933e-06 -1.1017e-06
9.5933e-06 6.67548e-05 5.3006e-08
-1.1017e-06 5.3006e-08 8.05062e-06
0.00118264 1.13109e-05 -4.93702e-08
1.13109e-05 5.31605e-05 -1.23404e-08
-4.93702e-08 -1.23404e-08 -1.28202e-05
0.00110866 8.76992e-06 5.00727e-07
8.76992e-06 -2.22488e-05 -5.6757e-07
5.00727e-07 -5.6757e-07 -9.67751e-05
0.00135303 -1.14668e-05 -3.1024e-07
-1.14668e-05 4.91472e-05 5.06404e-06
-3.1024e-07 5.06404e-06 -2.67324e-06
0.00140041 9.95043e-06 -4.52159e-07
9.95043e-06 8.99287e-05 4.00364e-07
-4.52159e-07 4.00364e-07 1.28328e-05
0.00120664 1.49288e-05 -3.4529e-07
1.49288e-05 6.28384e-05 1.96255e-06
-3.4529e-07 1.96255e-06 -9.21236e-06
0.00166405 -1.6919e-05 -1.342e-08
-1.6919e-05 9.98858e-05 1.82796e-06
-1.342e-08 1.82796e-06 4.65078e-05
-0.00019714 5.89766e-06 1.64425e-05
5.89766e-06 -0.000804208 5.14897e-06
1.64425e-05 5.14897e-06 -0.000883117
0.00141712 1.35187e-05 -1.55038e-06
1.35187e-05 4.52066e-05 -2.11841e-07
-1.55038e-06 -2.11841e-07 -4.40028e-05
0.000753732 -8.74365e-06 1.18834e-06
-8.74365e-06 -2.33547e-05 -1.79189e-06
1.18834e-06 -1.79189e-06 -6.33043e-05
0.000672702 -1.06029e-06 1.94565e-08
-1.06029e-06 -1.9513e-05 -1.28641e-06
1.94565e-08 -1.28641e-06 -6.97534e-05
0.000223596 8.81266e-06 1.11416e-05
8.81266e-06 -0.000447032 3.8497e-06
1.11416e-05 3.8497e-06 -0.000512132
0.00148135 2.36257e-06 5.52205e-07
2.36257e-06 0.000133475 -1.92101e-07
5.52205e-07 -1.92101e-07 8.9688e-05
0.00116974 1.88372e-05 -1.99159e-06
1.88372e-05 0.000192207 -1.23007e-07
-1.99159e-06 -1.23007e-07 0.000118111
0.00120756 1.59263e-05 -6.3446e-07
1.59263e-05 0.0001146 -5.72788e-07
-6.3446e-07 -5.72788e-07 4.8491e-05
0.000933499 1.2394e-05 -2.10029e-08
1.2394e-05 6.60935e-05 9.73147e-07
-2.10029e-08 9.73147e-07 -4.26905e-06
0.00107912 1.49331e-05 4.92068e-07
1.49331e-05 7.85602e-05 -1.64244e-06
4.92068e-07 -1.64244e-06 7.52649e-06
0.00136628 9.87098e-06 6.12329e-07
9.87098e-06 0.00026745 -1.10598e-06
6.12329e-07 -1.10598e-06 0.000211243
0.00132396 8.12e-06 -2.58273e-06
8.12e-06 0.000115194 -1.13113e-06
-2.58273e-06 -1.13113e-06 6.9153e-05
0.00119961 1.27013e-05 -7.77275e-08
1.27013e-05 8.03287e-05 -5.91728e-07
-7.77275e-08 -5.91728e-07 1.96341e-05
0.00125573 1.2954e-05 3.5488e-07
1.2954e-05 0.000107595 -2.31219e-07
3.5488e-07 -2.31219e-07 4.27529e-05
0.00123282 7.06172e-06 -2.05971e-06
7.06172e-06 6.79786e-05 -6.25945e-07
-2.05971e-06 -6.25945e-07 1.76494e-05
0.00122069 8.15392e-06 -7.57435e-08
8.15392e-06 6.86819e-05 -2.06095e-07
-7.57435e-08 -2.06095e-07 1.02441e-05
0.00114389 6.40916e-06 7.63928e-07
6.40916e-06 3.52255e-05 5.12349e-08
7.63928e-07 5.12349e-08 -2.66975e-05
0.00126256 4.30791e-06 -1.95678e-06
4.30791e-06 7.76076e-05 -2.64805e-07
-1.95678e-06 -2.64805e-07 2.30726e-05
0.00121218 3.65518e-06 2.61979e-08
3.65518e-06 5.71194e-05 6.67607e-08
2.61979e-08 6.67607e-08 -3.21233e-06
0.00120067 2.06072e-06 4.54438e-07
2.06072e-06 5.63284e-05 1.19141e-07
4.54438e-07 1.19141e-07 -4.80522e-06
0.00122488 7.52219e-07 -9.27663e-07
7.52219e-07 6.07721e-05 -1.16281e-07
-9.27663e-07 -1.16281e-07 3.32493e-06
0.00119997 -6.81463e-07 1.64376e-08
-6.81463e-07 5.42615e-05 3.79555e-08
1.64376e-08 3.79555e-08 -4.15093e-06
0.00117436 -7.2191e-07 1.91729e-08
-7.2191e-07 4.9687e-05 1.46228e-07
1.91729e-08 1.46228e-07 -7.15973e-06
0.00113344 -2.55806e-06 -3.753e-07
-2.55806e-06 2.03178e-05 -1.51776e-07
-3.753e-07 -1.51776e-07 -3.50386e-05
0.00112609 -1.67343e-06 -4.0375e-08
-1.67343e-06 2.49314e-05 -3.57867e-08
-4.0375e-08 -3.57867e-08 -2.91136e-05
0.00111007 1.11338e-06 -8.10204e-07
1.11338e-06 3.1009e-05 1.84974e-07
-8.10204e-07 1.84974e-07 -1.77791e-05
0.00112171 -2.76662e-06 4.37892e-07
-2.76662e-06 2.17681e-05 3.4512e-08
4.37892e-07 3.4512e-08 -3.04462e-05
0.00103329 3.42525e-07 -4.25267e-08
3.42525e-07 -5.79347e-06 2.34505e-08
-4.25267e-08 2.34505e-08 -5.24877e-05
0.0010035 5.49157e-06 -1.95351e-06
5.49157e-06 -2.67724e-06 6.43771e-07
-1.95351e-06 6.43771e-07 -3.59128e-05
0.000925712 1.28886e-05 -3.09004e-06
1.28886e-05 -2.56287e-05 1.38384e-06
-3.09004e-06 1.38384e-06 -3.1121e-05
0.00100923 5.41167e-06 4.70675e-08
5.41167e-06 2.23878e-07 3.52397e-08
4.70675e-08 3.52397e-08 -3.0027e-05
0.00111322 -3.0681e-07 8.45188e-07
-3.0681e-07 3.61981e-05 -8.59241e-08
8.45188e-07 -8.59241e-08 -8.08166e-06
0.00240151 1.68839e-05 -3.73629e-06
1.68839e-05 0.000685633 2.2287e-06
-3.73629e-06 2.2287e-06 0.000702642
0.000908583 1.23258e-05 7.45715e-08
1.23258e-05 -3.79573e-05 -1.43815e-09
7.45715e-08 -1.43815e-09 -4.10518e-05
0.00102533 5.53549e-06 1.85845e-06
5.53549e-06 8.47876e-06 -8.28138e-07
1.85845e-06 -8.28138e-07 -1.89216e-05
0.00226955 1.59158e-05 5.14547e-08
1.59158e-05 0.000616174 5.39577e-08
5.14547e-08 5.39577e-08 0.000634877
0.000958042 1.17282e-05 2.80416e-06
1.17282e-05 -1.93118e-05 -1.4847e-06
2.80416e-06 -1.4847e-06 -2.03072e-05
0.00216402 1.49e-05 3.44003e-06
1.49e-05 0.000559555 -2.4389e-06
3.44003e-06 -2.4389e-06 0.000579778
0.00102826 2.54684e-06 -3.1632e-07
2.54684e-06 -1.50757e-06 -2.87027e-07
-3.1632e-07 -2.87027e-07 -5.46624e-05
0.00105102 1.11597e-06 -1.39254e-08
1.11597e-06 1.3855e-05 -5.52415e-09
-1.39254e-08 -5.52415e-09 -3.68264e-05
0.00109178 -2.80163e-06 -8.83412e-07
-2.80163e-06 3.54541e-05 -3.52618e-07
-8.83412e-07 -3.52618e-07 -6.64246e-06
0.00110454 -4.37478e-07 2.56302e-07
-4.37478e-07 3.92802e-05 -1.06129e-07
2.56302e-07 -1.06129e-07 -8.90299e-06
0.00106925 -3.78034e-06 8.27988e-09
-3.78034e-06 2.4895e-05 -2.31355e-08
8.27988e-09 -2.31355e-08 -1.47621e-05
0.00102892 -6.34197e-06 -1.6944e-06
-6.34197e-06 8.98456e-06 -7.31599e-07
-1.6944e-06 -7.31599e-07 -1.59944e-05
0.0010575 -3.60938e-06 7.2921e-07
-3.60938e-06 1.64074e-05 1.38412e-07
7.2921e-07 1.38412e-07 -2.12085e-05
0.00101845 -6.16421e-06 -2.63593e-08
-6.16421e-06 -1.31862e-07 1.19805e-08
-2.63593e-08 1.19805e-08 -2.28109e-05
0.000958392 -1.12641e-05 -2.58707e-06
-1.12641e-05 -2.54595e-05 -1.5284e-06
-2.58707e-06 -1.5284e-06 -2.50159e-05
0.00101521 -5.82018e-06 1.5194e-06
-5.82018e-06 -6.08207e-06 9.31685e-07
1.5194e-06 9.31685e-07 -2.67998e-05
0.000946572 -1.05057e-05 -5.35777e-08
-1.05057e-05 -3.71588e-05 1.91568e-08
-5.35777e-08 1.91568e-08 -3.48811e-05
0.0021525 -1.37614e-05 -3.19816e-06
-1.37614e-05 0.000546129 -2.54346e-06
-3.19816e-06 -2.54346e-06 0.000567609
0.000941487 -9.62821e-06 2.17404e-06
-9.62821e-06 -4.48982e-05 1.84209e-06
2.17404e-06 1.84209e-06 -4.12027e-05
0.00220824 -1.24822e-05 -5.91471e-08
-1.24822e-05 0.000565693 4.27216e-08
-5.91471e-08 4.27216e-08 0.000588143
0.00226034 -1.11711e-05 2.70308e-06
-1.11711e-05 0.000584893 2.83599e-06
2.70308e-06 2.83599e-06 0.000608019
0.00124324 -2.46228e-05 1.80282e-06
-2.46228e-05 8.16678e-05 7.73157e-07
1.80282e-06 7.73157e-07 5.48235e-05
0.00135321 -2.78576e-05 1.11409e-06
-2.78576e-05 9.26829e-05 -3.12522e-06
1.11409e-06 -3.12522e-06 6.79349e-05
0.00149657 -1.01742e-05 1.30637e-05
-1.01742e-05 0.000218416 2.69748e-06
1.30637e-05 2.69748e-06 0.000190012
0.00127755 6.48497e-06 3.26215e-07
6.48497e-06 9.6242e-05 -3.02571e-07
3.26215e-07 -3.02571e-07 3.6652e-05
0.0010946 4.78811e-06 2.02247e-08
4.78811e-06 3.2847e-05 2.54272e-07
2.02247e-08 2.54272e-07 -2.27087e-05
0.000997796 6.08403e-06 -3.55563e-07
6.08403e-06 -3.51987e-05 -2.37272e-07
-3.55563e-07 -2.37272e-07 -9.634e-05
0.0012134 5.41413e-06 1.44862e-08
5.41413e-06 7.60674e-05 1.46708e-08
1.44862e-08 1.46708e-08 1.9214e-05
0.00103613 4.10835e-06 -1.79285e-07
4.10835e-06 7.94829e-06 3.42206e-07
-1.79285e-07 3.42206e-07 -4.68823e-05
0.00127349 7.94202e-06 -3.4824e-08
7.94202e-06 6.67251e-05 -1.3068e-06
-3.4824e-08 -1.3068e-06 -3.57898e-06
0.00113259 5.45866e-06 -9.8549e-08
5.45866e-06 4.96049e-05 -2.52204e-07
-9.8549e-08 -2.52204e-07 -6.84926e-06
0.00116557 8.6449e-06 -2.90743e-08
8.6449e-06 4.55736e-05 2.76282e-07
-2.90743e-08 2.76282e-07 -1.87203e-05
0.00119426 -9.10943e-06 1.30531e-06
-9.10943e-06 -8.58734e-07 3.74465e-06
1.30531e-06 3.74465e-06 -6.20341e-05
0.00112594 1.1137e-05 -2.58839e-07
1.1137e-05 2.61674e-05 7.3652e-07
-2.58839e-07 7.3652e-07 -3.99995e-05
0.00120567 8.9759e-06 -1.40647e-07
8.9759e-06 1.74301e-05 -3.66282e-07
-1.40647e-07 -3.66282e-07 -5.79748e-05
0.00140738 -1.17351e-05 1.87777e-07
-1.17351e-05 6.94205e-05 1.4854e-06
1.87777e-07 1.4854e-06 1.72676e-05
0.00151568 9.48317e-06 -3.78408e-07
9.48317e-06 0.000145195 3.61488e-07
-3.78408e-07 3.61488e-07 6.93159e-05
0.00177372 -1.56354e-05 -1.85383e-06
-1.56354e-05 0.000154653 -3.57959e-06
-1.85383e-06 -3.57959e-06 0.000100899
0.00116362 -1.09934e-05 9.6782e-07
-1.09934e-05 0.000155112 -8.84447e-07
9.6782e-07 -8.84447e-07 0.000113753
0.000724745 -8.62426e-06 -4.9483e-08
-8.62426e-06 -3.2364e-05 5.88677e-07
-4.9483e-08 5.88677e-07 -7.35355e-05
0.00045659 -1.54353e-06 -1.00589e-06
-1.54353e-06 -0.000122531 1.28746e-06
-1.00589e-06 1.28746e-06 -0.000172238
0.00139928 1.6185e-05 -3.15931e-06
1.6185e-05 0.000201232 -1.71742e-06
-3.15931e-06 -1.71742e-06 0.000135823
0.00117617 1.2403e-05 3.92284e-07
1.2403e-05 0.000177176 3.67571e-06
3.92284e-07 3.67571e-06 0.000109059
0.0010413 1.50116e-05 -1.48085e-07
1.50116e-05 5.76565e-05 -8.23422e-07
-1.48085e-07 -8.23422e-07 -1.40722e-05
0.00120607 9.16381e-06 2.69406e-07
9.16381e-06 0.000186708 1.74399e-06
2.69406e-07 1.74399e-06 0.000132217
0.00105631 1.18027e-05 8.93445e-08
1.18027e-05 8.34953e-05 -2.64482e-06
8.93445e-08 -2.64482e-06 2.7162e-05
0.00116764 1.26796e-05 -1.40461e-06
1.26796e-05 6.43644e-05 -8.98657e-07
-1.40461e-06 -8.98657e-07 4.42497e-06
0.00118569 1.27395e-05 -5.19396e-08
1.27395e-05 7.3449e-05 -4.08277e-07
-5.19396e-08 -4.08277e-07 9.47272e-06
0.00121201 1.01695e-05 -1.26529e-07
1.01695e-05 9.21766e-05 -7.71577e-07
-1.26529e-07 -7.71577e-07 3.05886e-05
0.00121171 8.10804e-06 -1.34475e-06
8.10804e-06 6.435e-05 -3.84198e-07
-1.34475e-06 -3.84198e-07 5.91022e-06
0.00120467 6.60436e-06 1.68668e-07
6.60436e-06 6.18279e-05 6.47199e-09
1.68668e-07 6.47199e-09 -3.73676e-07
0.0011966 5.01739e-06 3.81002e-07
5.01739e-06 6.12864e-05 -1.8175e-07
3.81002e-07 -1.8175e-07 -5.2437e-08
0.00123091 3.6713e-06 -8.86683e-07
3.6713e-06 6.55552e-05 2.33991e-09
-8.86683e-07 2.33991e-09 5.23359e-06
0.00120235 2.23016e-06 1.00101e-09
2.23016e-06 5.69758e-05 8.67456e-08
1.00101e-09 8.67456e-08 -4.14301e-06
0.0011779 1.56087e-06 5.6646e-08
1.56087e-06 5.2821e-05 1.71422e-07
5.6646e-08 1.71422e-07 -6.91739e-06
0.00119653 -4.82331e-07 -4.25611e-07
-4.82331e-07 5.24342e-05 -8.65054e-08
-4.25611e-07 -8.65054e-08 -5.9507e-06
0.00116992 -5.50655e-07 -1.08743e-08
-5.50655e-07 4.74948e-05 2.20607e-08
-1.08743e-08 2.20607e-08 -9.3215e-06
0.00111307 1.77171e-06 -6.37823e-07
1.77171e-06 3.39413e-05 2.57016e-07
-6.37823e-07 2.57016e-07 -1.82119e-05
0.00112343 -1.50765e-06 8.46182e-08
-1.50765e-06 2.31117e-05 -6.32329e-08
8.46182e-08 -6.32329e-08 -3.08976e-05
0.00110685 1.09442e-06 -3.82364e-08
1.09442e-06 2.93761e-05 9.65002e-10
-3.82364e-08 9.65002e-10 -1.93511e-05
0.00100087 5.73761e-06 -1.90218e-06
5.73761e-06 -1.60592e-06 5.4546e-07
-1.90218e-06 5.4546e-07 -3.83749e-05
0.000990386 4.52781e-07 9.20326e-07
4.52781e-07 -2.65465e-05 -1.7941e-07
9.20326e-07 -1.7941e-07 -7.34328e-05
0.00100995 5.52037e-06 2.5001e-08
5.52037e-06 1.23826e-07 2.98752e-08
2.5001e-08 2.98752e-08 -3.30765e-05
0.00156587 1.36723e-05 -2.24004e-06
1.36723e-05 0.000287202 6.25709e-07
-2.24004e-06 6.25709e-07 0.000281707
0.00124748 1.73445e-05 -6.09854e-06
1.73445e-05 0.000138183 3.3563e-06
-6.09854e-06 3.3563e-06 0.000147389
0.00124269 1.2875e-05 5.49713e-08
1.2875e-05 0.000126854 8.6244e-08
5.49713e-08 8.6244e-08 0.000122544
0.00101758 5.41558e-06 1.92901e-06
5.41558e-06 4.0101e-06 -6.83057e-07
1.92901e-06 -6.83057e-07 -2.62333e-05
0.00233262 1.69476e-05 4.93175e-08
1.69476e-05 0.000653324 5.95611e-08
4.93175e-08 5.95611e-08 0.000670407
0.00094683 1.22218e-05 2.98499e-06
1.22218e-05 -2.00631e-05 -1.41314e-06
2.98499e-06 -1.41314e-06 -2.33517e-05
0.00220454 1.59828e-05 3.6812e-06
1.59828e-05 0.000585681 -2.33538e-06
3.6812e-06 -2.33538e-06 0.000604489
0.00117297 5.73854e-06 1.31288e-07
5.73854e-06 4.33345e-05 7.36647e-08
1.31288e-07 7.36647e-08 -1.77441e-05
0.0010059 3.75729e-06 -1.54092e-08
3.75729e-06 -1.52629e-05 -3.09929e-07
-1.54092e-08 -3.09929e-07 -7.15966e-05
0.00102314 2.88839e-06 -2.51883e-10
2.88839e-06 -5.09234e-06 -2.15873e-09
-2.51883e-10 -2.15873e-09 -5.85141e-05
0.00109642 -1.36263e-06 -8.92244e-07
-1.36263e-06 3.64194e-05 -3.70797e-07
-8.92244e-07 -3.70797e-07 -8.16691e-06
0.000997755 1.16662e-06 1.9576e-07
1.16662e-06 -1.14089e-05 2.18343e-07
1.9576e-07 2.18343e-07 -6.2527e-05
0.00107366 -3.09112e-06 -4.11718e-08
-3.09112e-06 2.75143e-05 8.7449e-09
-4.11718e-08 8.7449e-09 -1.46025e-05
0.00102614 -6.38449e-06 -1.78402e-06
-6.38449e-06 1.12998e-05 -6.72137e-07
-1.78402e-06 -6.72137e-07 -1.6147e-05
0.00105572 -3.73895e-06 9.04515e-07
-3.73895e-06 1.88142e-05 3.70376e-07
9.04515e-07 3.70376e-07 -2.08529e-05
0.00101196 -6.35944e-06 -2.97503e-08
-6.35944e-06 1.25111e-06 5.62758e-09
-2.97503e-08 5.62758e-09 -2.36903e-05
0.000948857 -1.19543e-05 -2.75845e-06
-1.19543e-05 -2.32863e-05 -1.40439e-06
-2.75845e-06 -1.40439e-06 -2.48485e-05
0.00100507 -6.17769e-06 1.59862e-06
-6.17769e-06 -6.31679e-06 8.31625e-07
1.59862e-06 8.31625e-07 -2.89619e-05
0.000933639 -1.13257e-05 -5.42156e-08
-1.13257e-05 -3.72028e-05 1.58426e-08
-5.42156e-08 1.58426e-08 -3.66201e-05
0.00216851 -1.48989e-05 -3.41203e-06
-1.48989e-05 0.000561441 -2.4253e-06
-3.41203e-06 -2.4253e-06 0.000581538
0.000926356 -1.05558e-05 2.33312e-06
-1.05558e-05 -4.68433e-05 1.72279e-06
2.33312e-06 1.72279e-06 -4.44372e-05
0.00221988 -1.36885e-05 -5.78861e-08
-1.36885e-05 0.000577542 4.80067e-08
-5.78861e-08 4.80067e-08 0.000598896
0.00227056 -1.24064e-05 2.89467e-06
-1.24064e-05 0.000594887 2.70446e-06
2.89467e-06 2.70446e-06 0.000617184
0.00130661 -2.4042e-05 1.69704e-06
-2.4042e-05 0.000115954 1.67388e-06
1.69704e-06 1.67388e-06 7.3085e-05
0.00116925 -2.49262e-05 4.96023e-07
-2.49262e-05 3.89267e-05 -1.74059e-06
4.96023e-07 -1.74059e-06 1.14352e-05
0.00143151 -2.71449e-05 -1.50793e-06
-2.71449e-05 0.000143434 -5.73072e-06
-1.50793e-06 -5.73072e-06 0.000118084
0.0012853 6.65419e-06 -1.25048e-07
6.65419e-06 7.80572e-05 -7.53083e-07
-1.25048e-07 -7.53083e-07 1.29081e-05
0.0012578 6.25516e-06 -8.14609e-09
6.25516e-06 9.10699e-05 1.00873e-07
-8.14609e-09 1.00873e-07 3.23148e-05
0.00109791 4.92653e-06 -5.465e-07
4.92653e-06 3.69808e-05 -2.12043e-09
-5.465e-07 -2.12043e-09 -1.812e-05
0.00116721 6.18333e-06 2.22856e-08
6.18333e-06 4.17391e-05 1.76186e-07
2.22856e-08 1.76186e-07 -1.88079e-05
0.0011909 5.38956e-06 -3.35494e-07
5.38956e-06 6.55268e-05 2.67298e-07
-3.35494e-07 2.67298e-07 8.51048e-06
0.00112137 -4.39085e-06 4.97133e-07
-4.39085e-06 -1.3905e-05 1.497e-06
4.97133e-07 1.497e-06 -8.07658e-05
0.00131749 8.09548e-06 -3.11026e-07
8.09548e-06 8.71377e-05 -5.75989e-07
-3.11026e-07 -5.75989e-07 1.62368e-05
0.00113253 8.61978e-06 -7.73124e-08
8.61978e-06 2.95547e-05 1.07987e-06
-7.73124e-08 1.07987e-06 -3.47787e-05
0.00132531 -8.65562e-06 4.78991e-08
-8.65562e-06 5.6671e-05 1.14479e-06
4.78991e-08 1.14479e-06 -5.01869e-06
0.00130029 9.17463e-06 -5.61958e-07
9.17463e-06 5.59464e-05 5.0206e-08
-5.61958e-07 5.0206e-08 -2.03234e-05
0.00145936 -1.1975e-05 4.66565e-07
-1.1975e-05 8.86155e-05 -2.21986e-06
4.66565e-07 -2.21986e-06 3.6138e-05
0.000515836 -4.48922e-06 1.08685e-06
-4.48922e-06 -0.000131936 -1.45777e-07
1.08685e-06 -1.45777e-07 -0.000176575
0.00097972 -1.01336e-05 -2.32895e-07
-1.01336e-05 7.64829e-05 -3.25887e-07
-2.32895e-07 -3.25887e-07 3.40348e-05
0.000682041 -8.48998e-06 -4.89338e-07
-8.48998e-06 -4.76031e-05 2.94115e-06
-4.89338e-07 2.94115e-06 -9.00041e-05
0.00100667 1.51022e-05 1.95451e-07
1.51022e-05 3.82539e-05 -3.70612e-07
1.95451e-07 -3.70612e-07 -3.41634e-05
0.00105722 8.48483e-06 2.23476e-08
8.48483e-06 0.000111299 4.0819e-06
2.23476e-08 4.0819e-06 5.84911e-05
0.00103646 1.15638e-05 -4.76705e-07
1.15638e-05 7.2578e-05 -4.77551e-07
-4.76705e-07 -4.77551e-07 1.59689e-05
0.000996768 8.01181e-06 7.2821e-07
8.01181e-06 4.7746e-05 -1.12219e-06
7.2821e-07 -1.12219e-06 -7.49e-06
0.00110681 1.25221e-05 -6.54999e-07
1.25221e-05 3.50281e-05 -1.28535e-07
-6.54999e-07 -1.28535e-07 -2.80552e-05
0.00122865 1.01302e-05 -1.4337e-07
1.01302e-05 9.34399e-05 -7.91817e-08
-1.4337e-07 -7.91817e-08 3.14247e-05
0.00116538 7.45663e-06 -1.07891e-07
7.45663e-06 6.56786e-05 -1.70087e-06
-1.07891e-07 -1.70087e-06 8.11158e-06
0.0012653 6.79676e-06 -6.77727e-07
6.79676e-06 8.83716e-05 2.00875e-07
-6.77727e-07 2.00875e-07 2.58901e-05
0.00119828 4.97627e-06 -1.23954e-08
4.97627e-06 6.20776e-05 2.92495e-07
-1.23954e-08 2.92495e-07 6.78929e-07
0.00117298 4.10778e-06 8.98644e-08
4.10778e-06 5.56841e-05 -7.62051e-08
8.98644e-08 -7.62051e-08 -5.05836e-06
0.00120413 2.46955e-06 -3.8467e-07
2.46955e-06 5.76633e-05 4.7469e-08
-3.8467e-07 4.7469e-08 -3.44062e-06
0.00117125 1.64746e-06 -1.67429e-08
1.64746e-06 4.98719e-05 8.44109e-08
-1.67429e-08 8.44109e-08 -9.83655e-06
0.00112047 2.70983e-06 -5.32027e-07
2.70983e-06 3.91248e-05 2.86486e-07
-5.32027e-07 2.86486e-07 -1.66212e-05
0.0011657 -4.07431e-07 3.02067e-09
-4.07431e-07 4.54071e-05 -1.16613e-07
3.02067e-09 -1.16613e-07 -1.13786e-05
0.00111146 1.71109e-06 -2.52631e-08
1.71109e-06 3.30956e-05 2.29256e-08
-2.52631e-08 2.29256e-08 -1.9009e-05
0.00100043 5.85365e-06 -1.81001e-06
5.85365e-06 2.14e-06 5.34026e-07
-1.81001e-06 5.34026e-07 -3.89597e-05
0.00110332 1.07528e-06 7.57478e-07
1.07528e-06 2.76002e-05 -1.92207e-07
7.57478e-07 -1.92207e-07 -2.1066e-05
0.00100972 5.78738e-06 9.9371e-09
5.78738e-06 2.10687e-06 1.55418e-08
9.9371e-09 1.55418e-08 -3.46131e-05
0.0015826 1.41063e-05 -2.32383e-06
1.41063e-05 0.000303791 5.38994e-07
-2.32383e-06 5.38994e-07 0.000294832
0.00101622 5.55078e-06 1.92299e-06
5.55078e-06 2.83866e-06 -5.46055e-07
1.92299e-06 -5.46055e-07 -3.03263e-05
0.00153735 1.34529e-05 1.23144e-06
1.34529e-05 0.000274442 -6.68564e-07
1.23144e-06 -6.68564e-07 0.000268595
0.00120161 1.83138e-05 -6.7173e-06
1.83138e-05 0.000125912 3.24295e-06
-6.7173e-06 3.24295e-06 0.000132434
0.00181857 1.77283e-05 -2.40091e-06
1.77283e-05 0.000412509 1.47809e-06
-2.40091e-06 1.47809e-06 0.000424869
0.00156265 1.28214e-05 3.36567e-06
1.28214e-05 0.000280671 -1.33359e-06
3.36567e-06 -1.33359e-06 0.000277546
0.00226376 1.70104e-05 3.9754e-06
1.70104e-05 0.000621023 -2.24935e-06
3.9754e-06 -2.24935e-06 0.000638181
0.00118907 4.57549e-06 -3.21436e-08
4.57549e-06 3.50504e-05 -5.2834e-07
-3.21436e-08 -5.2834e-07 -2.98013e-05
0.00128516 4.33026e-06 2.89712e-07
4.33026e-06 0.000110092 -8.57842e-08
2.89712e-07 -8.57842e-08 5.28161e-05
0.00117005 5.81727e-06 2.61449e-07
5.81727e-06 4.43582e-05 5.15102e-07
2.61449e-07 5.15102e-07 -1.57373e-05
0.00109329 -3.46042e-07 -7.91057e-07
-3.46042e-07 3.50623e-05 -5.98348e-07
-7.91057e-07 -5.98348e-07 -1.30321e-05
0.00108742 4.10324e-06 -2.69444e-08
4.10324e-06 2.22709e-05 -2.7982e-08
-2.69444e-08 -2.7982e-08 -3.39051e-05
0.00101963 3.20649e-06 3.09085e-07
3.20649e-06 -7.96024e-06 3.22246e-07
3.09085e-07 3.22246e-07 -6.16469e-05
0.00108742 -1.77065e-06 -1.28337e-08
-1.77065e-06 3.29917e-05 -4.59349e-09
-1.28337e-08 -4.59349e-09 -1.16808e-05
0.00102128 -6.31689e-06 -1.81898e-06
-6.31689e-06 1.24266e-05 -6.64119e-07
-1.81898e-06 -6.64119e-07 -1.78112e-05
0.00105585 -3.41574e-06 8.25998e-07
-3.41574e-06 1.97205e-05 3.88025e-07
8.25998e-07 3.88025e-07 -2.24174e-05
0.00100875 -6.39652e-06 -4.05286e-08
-6.39652e-06 3.477e-06 1.1473e-08
-4.05286e-08 1.1473e-08 -2.3941e-05
0.000937069 -1.25132e-05 -2.93065e-06
-1.25132e-05 -2.16691e-05 -1.29053e-06
-2.93065e-06 -1.29053e-06 -2.54721e-05
0.000995044 -6.37602e-06 1.65005e-06
-6.37602e-06 -6.45761e-06 7.52815e-07
1.65005e-06 7.52815e-07 -3.13616e-05
0.000919461 -1.20257e-05 -6.10367e-08
-1.20257e-05 -3.70834e-05 1.66198e-08
-6.10367e-08 1.66198e-08 -3.8503e-05
0.00219232 -1.59461e-05 -3.64061e-06
-1.59461e-05 0.000581608 -2.30366e-06
-3.64061e-06 -2.30366e-06 0.000600096
0.000908896 -1.13872e-05 2.49873e-06
-1.13872e-05 -4.89348e-05 1.59335e-06
2.49873e-06 1.59335e-06 -4.82141e-05
0.00223992 -1.4833e-05 -5.46741e-08
-1.4833e-05 0.000594551 5.18966e-08
-5.46741e-08 5.18966e-08 0.000614555
0.00228752 -1.3615e-05 3.08077e-06
-1.3615e-05 0.000609063 2.57615e-06
3.08077e-06 2.57615e-06 0.000630294
0.00117049 -1.5352e-05 4.86364e-07
-1.5352e-05 7.86645e-05 2.99898e-06
4.86364e-07 2.99898e-06 2.59651e-05
0.00120276 -2.34314e-05 1.37057e-07
-2.34314e-05 7.0537e-05 -1.02253e-06
1.37057e-07 -1.02253e-06 2.76135e-05
0.00111949 -2.52436e-05 -1.77054e-07
-2.52436e-05 6.89923e-06 -3.57533e-06
-1.77054e-07 -3.57533e-06 -2.1245e-05
0.00099063 -1.04538e-06 -9.91421e-08
-1.04538e-06 -6.60875e-05 9.29898e-07
-9.91421e-08 9.29898e-07 -0.000130483
0.0012852 6.3852e-06 4.2366e-08
6.3852e-06 7.76104e-05 -3.07737e-07
4.2366e-08 -3.07737e-07 1.23565e-05
0.00124252 6.02787e-06 -3.84182e-07
6.02787e-06 8.79676e-05 4.66685e-07
-3.84182e-07 4.66685e-07 3.00439e-05
0.00133488 6.28341e-06 -3.13905e-08
6.28341e-06 0.000117857 2.77636e-07
-3.13905e-08 2.77636e-07 5.79072e-05
0.00127113 -3.89072e-06 -3.92115e-08
-3.89072e-06 5.40558e-05 7.05504e-08
-3.92115e-08 7.05504e-08 -1.24911e-05
0.00136945 8.24276e-06 -2.73572e-07
8.24276e-06 0.000111148 8.57436e-08
-2.73572e-07 8.57436e-08 3.96557e-05
0.00144963 -8.18021e-06 -7.33873e-07
-8.18021e-06 0.000111184 -1.32211e-06
-7.33873e-07 -1.32211e-06 4.8971e-05
0.000769946 -3.37351e-06 2.03121e-06
-3.37351e-06 -1.97297e-05 3.64705e-07
2.03121e-06 3.64705e-07 -6.92633e-05
0.000781101 -4.01991e-06 -3.54343e-08
-4.01991e-06 -1.69208e-05 -4.66408e-08
-3.54343e-08 -4.66408e-08 -6.31535e-05
0.000794631 -9.24763e-06 -1.99006e-06
-9.24763e-06 -2.69193e-06 5.7592e-07
-1.99006e-06 5.7592e-07 -4.62222e-05
0.000955405 4.95087e-06 7.77247e-07
4.95087e-06 4.59802e-05 -3.10532e-07
7.77247e-07 -3.10532e-07 -8.73212e-06
0.00102224 1.13074e-05 -2.97478e-07
1.13074e-05 6.43266e-05 1.27893e-06
-2.97478e-07 1.27893e-06 7.43137e-06
0.00100424 8.13492e-06 3.46878e-07
8.13492e-06 5.18477e-05 6.92001e-09
3.46878e-07 6.92001e-09 -3.55399e-06
0.00107884 7.61125e-06 4.05013e-07
7.61125e-06 6.4469e-05 -1.76552e-07
4.05013e-07 -1.76552e-07 9.47627e-06
0.00124854 1.00987e-05 -3.12276e-07
1.00987e-05 9.62758e-05 6.35866e-07
-3.12276e-07 6.35866e-07 3.38228e-05
0.00114489 7.18504e-06 -3.36733e-07
7.18504e-06 5.76171e-05 -5.95901e-07
-3.36733e-07 -5.95901e-07 -2.53165e-08
0.00115206 6.14462e-06 5.21558e-08
6.14462e-06 6.25275e-05 -1.36517e-06
5.21558e-08 -1.36517e-06 3.95183e-06
0.00119941 4.93777e-06 -2.40552e-09
4.93777e-06 6.26111e-05 7.13792e-07
-2.40552e-09 7.13792e-07 1.1532e-06
0.00116167 4.11201e-06 -1.01507e-08
4.11201e-06 5.10372e-05 2.3513e-07
-1.01507e-08 2.3513e-07 -9.6467e-06
0.00112597 3.96932e-06 -4.50221e-07
3.96932e-06 4.62319e-05 1.20504e-07
-4.50221e-07 1.20504e-07 -1.18462e-05
0.00116416 1.76291e-06 -4.84754e-08
1.76291e-06 4.67248e-05 -1.27619e-08
-4.84754e-08 -1.27619e-08 -1.29537e-05
0.0011139 2.69787e-06 -2.2015e-08
2.69787e-06 3.62149e-05 6.58149e-08
-2.2015e-08 6.58149e-08 -1.94801e-05
0.00100502 5.76237e-06 -1.73039e-06
5.76237e-06 8.61664e-06 5.28788e-07
-1.73039e-06 5.28788e-07 -3.72037e-05
0.00110971 1.65171e-06 6.18624e-07
1.65171e-06 3.21879e-05 -2.22031e-07
6.18624e-07 -2.22031e-07 -1.98679e-05
0.00100903 5.92099e-06 9.19475e-09
5.92099e-06 5.65123e-06 2.47683e-08
9.19475e-09 2.47683e-08 -3.53887e-05
0.00158907 1.42177e-05 -2.38529e-06
1.42177e-05 0.000318317 4.93437e-07
-2.38529e-06 4.93437e-07 0.000305144
0.00101818 5.83834e-06 1.85163e-06
5.83834e-06 5.64873e-06 -4.87476e-07
1.85163e-06 -4.87476e-07 -3.10223e-05
0.00153788 1.38514e-05 1.32944e-06
1.38514e-05 0.000283181 -6.37846e-07
1.32944e-06 -6.37846e-07 0.000273887
0.00121624 1.89665e-05 -7.26061e-06
1.89665e-05 0.000145583 3.05957e-06
-7.26061e-06 3.05957e-06 0.000148753
0.00151051 1.32352e-05 4.6857e-06
1.32352e-05 0.000262462 -1.96637e-06
4.6857e-06 -1.96637e-06 0.00025626
0.00117042 1.85408e-05 -2.42822e-06
1.85408e-05 0.000110276 1.37663e-06
-2.42822e-06 1.37663e-06 0.00011722
0.00238534 1.81942e-05 1.80115e-06
1.81942e-05 0.000684913 -7.8821e-07
1.80115e-06 -7.8821e-07 0.000700422
0.00130744 -1.08467e-06 -2.51712e-07
-1.08467e-06 7.67851e-05 7.0518e-07
-2.51712e-07 7.0518e-07 1.28829e-05
0.00117726 4.17643e-06 5.88323e-08
4.17643e-06 4.15767e-05 -5.30642e-07
5.88323e-08 -5.30642e-07 -2.04938e-05
0.00123412 4.79694e-06 -1.50944e-07
4.79694e-06 5.87129e-05 2.62742e-07
-1.50944e-07 2.62742e-07 -5.55931e-06
0.00132282 1.38427e-07 -4.53298e-07
1.38427e-07 0.000140176 -1.37206e-07
-4.53298e-07 -1.37206e-07 9.00567e-05
0.00121774 4.42782e-06 2.37158e-07
4.42782e-06 7.79467e-05 6.05745e-08
2.37158e-07 6.05745e-08 2.01742e-05
0.001171 5.89326e-06 3.32583e-07
5.89326e-06 4.72284e-05 8.80498e-07
3.32583e-07 8.80498e-07 -1.18948e-05
0.00102089 -6.04208e-06 -1.78035e-06
-6.04208e-06 1.46796e-05 -8.19299e-07
-1.78035e-06 -8.19299e-07 -1.93457e-05
0.00109601 -4.96322e-07 3.27503e-08
-4.96322e-07 3.69349e-05 -6.45075e-08
3.27503e-08 -6.45075e-08 -1.1252e-05
0.00116791 4.47712e-06 3.78782e-07
4.47712e-06 5.93748e-05 4.20672e-07
3.78782e-07 4.20672e-07 3.35199e-06
0.00107761 -2.10177e-06 8.62049e-07
-2.10177e-06 2.91896e-05 3.64313e-07
8.62049e-07 3.64313e-07 -1.55683e-05
0.00100615 -6.30918e-06 -2.90757e-08
-6.30918e-06 5.72613e-06 -7.72589e-09
-2.90757e-08 -7.72589e-09 -2.45087e-05
0.00092401 -1.29128e-05 -3.09743e-06
-1.29128e-05 -2.03923e-05 -1.22427e-06
-3.09743e-06 -1.22427e-06 -2.67947e-05
0.000991378 -6.40867e-06 1.71236e-06
-6.40867e-06 -4.33736e-06 6.97816e-07
1.71236e-06 6.97816e-07 -3.17264e-05
0.000904009 -1.25905e-05 -6.63001e-08
-1.25905e-05 -3.70526e-05 1.35493e-08
-6.63001e-08 1.35493e-08 -4.07167e-05
0.00222421 -1.6885e-05 -3.89194e-06
-1.6885e-05 0.000606615 -2.18377e-06
-3.89194e-06 -2.18377e-06 0.000623295
0.000890114 -1.20969e-05 2.65824e-06
-1.20969e-05 -5.0852e-05 1.46974e-06
2.65824e-06 1.46974e-06 -5.21299e-05
0.00226703 -1.58914e-05 -5.29393e-08
-1.58914e-05 0.000616082 5.66099e-08
-5.29393e-08 5.66099e-08 0.000634507
0.00231159 -1.47663e-05 3.27785e-06
-1.47663e-05 0.00062777 2.45115e-06
3.27785e-06 2.45115e-06 0.000647684
0.00119749 -9.71881e-06 8.77584e-07
-9.71881e-06 8.92627e-05 1.69272e-06
8.77584e-07 1.69272e-06 3.32517e-05
0.00124607 -1.54448e-05 9.35475e-08
-1.54448e-05 0.00010545 5.66773e-07
9.35475e-08 5.66773e-07 5.20845e-05
0.00109842 -2.28254e-05 -1.4225e-06
-2.28254e-05 2.4895e-05 -3.68425e-06
-1.4225e-06 -3.68425e-06 -1.80774e-05
0.00116073 -1.40818e-06 -1.21088e-07
-1.40818e-06 3.36187e-06 -1.10035e-07
-1.21088e-07 -1.10035e-07 -6.18692e-05
0.00128538 6.11856e-06 5.27388e-09
6.11856e-06 7.72206e-05 1.85667e-07
5.27388e-09 1.85667e-07 1.18693e-05
0.00141042 -3.395e-06 -3.36366e-07
-3.395e-06 0.00011726 -1.42763e-06
-3.36366e-07 -1.42763e-06 5.10252e-05
0.000833644 -3.3467e-06 1.27736e-06
-3.3467e-06 1.01366e-05 6.49972e-07
1.27736e-06 6.49972e-07 -4.64757e-05
0.00085408 -2.76875e-06 4.59189e-07
-2.76875e-06 2.59495e-05 9.52682e-09
4.59189e-07 9.52682e-09 -2.36052e-05
0.00105308 -3.5516e-06 -8.97319e-07
-3.5516e-06 0.00010118 1.55212e-07
-8.97319e-07 1.55212e-07 5.3351e-05
0.000991872 4.74294e-06 -2.39033e-07
4.74294e-06 6.15703e-05 3.81048e-07
-2.39033e-07 3.81048e-07 6.04334e-06
0.000958074 5.57491e-06 4.67756e-07
5.57491e-06 4.00571e-05 -1.60058e-07
4.67756e-07 -1.60058e-07 -1.57772e-05
0.00101136 8.25836e-06 -2.59395e-07
8.25836e-06 5.57927e-05 9.48032e-07
-2.59395e-07 9.48032e-07 2.26152e-07
0.00104695 7.37297e-06 8.04498e-08
7.37297e-06 5.01633e-05 3.85423e-07
8.04498e-08 3.85423e-07 -4.83539e-06
0.00118332 7.42941e-06 5.36337e-07
7.42941e-06 0.000106601 -3.25605e-07
5.36337e-07 -3.25605e-07 5.0895e-05
0.00112321 6.90337e-06 -2.50499e-07
6.90337e-06 4.90483e-05 4.64761e-07
-2.50499e-07 4.64761e-07 -8.67313e-06
0.00113052 6.15712e-06 -1.3464e-07
6.15712e-06 5.35436e-05 -4.77934e-07
-1.3464e-07 -4.77934e-07 -4.96091e-06
0.00110195 5.25832e-06 -4.6543e-07
5.25832e-06 4.95226e-05 -6.27299e-07
-4.6543e-07 -6.27299e-07 -8.35884e-06
0.00115052 4.11651e-06 -1.06413e-07
4.11651e-06 4.64651e-05 5.45402e-07
-1.06413e-07 5.45402e-07 -1.41601e-05
0.00110897 3.98545e-06 -1.37387e-08
3.98545e-06 3.8891e-05 1.92284e-07
-1.37387e-08 1.92284e-07 -1.91197e-05
0.00100907 5.75618e-06 -1.66377e-06
5.75618e-06 1.66834e-05 3.95199e-07
-1.66377e-06 3.95199e-07 -3.30999e-05
0.00110716 2.68609e-06 4.99009e-07
2.68609e-06 3.32268e-05 -1.58333e-07
4.99009e-07 -1.58333e-07 -2.24172e-05
0.00100761 5.84389e-06 7.61364e-09
5.84389e-06 9.46103e-06 5.72975e-08
7.61364e-09 5.72975e-08 -3.62861e-05
0.00149279 1.35145e-05 -2.47036e-06
1.35145e-05 0.000287639 4.87078e-07
-2.47036e-06 4.87078e-07 0.000269174
0.00101743 5.98731e-06 1.76723e-06
5.98731e-06 9.06703e-06 -4.65956e-07
1.76723e-06 -4.65956e-07 -3.19131e-05
0.00153316 1.39317e-05 1.44441e-06
1.39317e-05 0.000292059 -5.94167e-07
1.44441e-06 -5.94167e-07 0.000278548
0.00122061 1.90905e-05 -7.87072e-06
1.90905e-05 0.000163949 2.87896e-06
-7.87072e-06 2.87896e-06 0.000163007
0.0014944 1.3598e-05 4.96275e-06
1.3598e-05 0.00026317 -1.81985e-06
4.96275e-06 -1.81985e-06 0.000253536
0.00117679 1.92004e-05 -2.6423e-06
1.92004e-05 0.00012611 1.29731e-06
-2.6423e-06 1.29731e-06 0.000129748
0.00113714 1.87655e-05 1.86455e-06
1.87655e-05 9.36611e-05 -4.89892e-07
1.86455e-06 -4.89892e-07 0.000101033
0.00138498 -8.30786e-06 5.38546e-07
-8.30786e-06 0.00013746 1.21028e-06
5.38546e-07 1.21028e-06 8.51405e-05
0.00124539 -2.85654e-07 -3.00408e-07
-2.85654e-07 5.84786e-05 4.67461e-07
-3.00408e-07 4.67461e-07 -4.9523e-06
0.0013681 -1.27732e-06 -8.05192e-09
-1.27732e-06 0.000102533 -1.11165e-07
-8.05192e-09 -1.11165e-07 3.86009e-05
0.00123409 7.18857e-07 -6.22747e-07
7.18857e-07 8.59907e-05 -4.78179e-07
-6.22747e-07 -4.78179e-07 3.04118e-05
0.00124184 4.11281e-06 1.6545e-07
4.11281e-06 7.22762e-05 2.66979e-07
1.6545e-07 2.66979e-07 1.06124e-05
0.00127583 5.02098e-06 1.3829e-07
5.02098e-06 8.08246e-05 5.17105e-07
1.3829e-07 5.17105e-07 1.71349e-05
0.00104754 -5.67437e-06 -1.88746e-06
-5.67437e-06 2.63094e-05 -7.99748e-07
-1.88746e-06 -7.99748e-07 -1.17678e-05
0.00117445 6.80278e-08 3.68317e-07
6.80278e-08 6.94872e-05 4.24415e-07
3.68317e-07 4.24415e-07 1.81262e-05
0.00114822 4.5614e-06 3.75686e-07
4.5614e-06 4.47782e-05 8.8719e-07
3.75686e-07 8.8719e-07 -1.34832e-05
0.000912783 -1.30752e-05 -3.29169e-06
-1.30752e-05 -1.89193e-05 -1.26755e-06
-3.29169e-06 -1.26755e-06 -2.86611e-05
0.00100214 -6.011e-06 -1.88841e-08
-6.011e-06 6.40379e-06 -5.88243e-08
-1.88841e-08 -5.88243e-08 -2.76168e-05
0.00109901 -7.25633e-07 8.3033e-07
-7.25633e-07 3.89374e-05 4.61719e-07
8.3033e-07 4.61719e-07 -9.342e-06
0.000990488 -6.30182e-06 1.7977e-06
-6.30182e-06 -1.21576e-06 6.66315e-07
1.7977e-06 6.66315e-07 -3.14476e-05
0.00088608 -1.29963e-05 -7.39582e-08
-1.29963e-05 -3.78697e-05 -2.16314e-09
-7.39582e-08 -2.16314e-09 -4.41317e-05
0.00227191 -1.7681e-05 -4.196e-06
-1.7681e-05 0.000639906 -2.0838e-06
-4.196e-06 -2.0838e-06 0.000654536
0.000870887 -1.26675e-05 2.82973e-06
-1.26675e-05 -5.24564e-05 1.35223e-06
2.82973e-06 1.35223e-06 -5.59827e-05
0.00230123 -1.68449e-05 -5.01631e-08
-1.68449e-05 0.000642028 6.07835e-08
-5.01631e-08 6.07835e-08 0.000658673
0.00234208 -1.58362e-05 3.48101e-06
-1.58362e-05 0.000650703 2.3244e-06
3.48101e-06 2.3244e-06 0.000669067
0.00107964 -9.87691e-06 1.08268e-06
-9.87691e-06 7.66254e-05 -6.40713e-07
1.08268e-06 -6.40713e-07 1.26646e-05
0.00118185 -9.9997e-06 -7.2101e-08
-9.9997e-06 7.78848e-05 2.89083e-07
-7.2101e-08 2.89083e-07 2.17561e-05
0.00131819 -1.5521e-05 -7.70927e-07
-1.5521e-05 0.000130605 -2.00222e-06
-7.70927e-07 -2.00222e-06 7.65798e-05
0.00133457 -1.77812e-06 2.20726e-07
-1.77812e-06 7.45854e-05 -8.12438e-07
2.20726e-07 -8.12438e-07 8.51028e-06
0.000938715 -1.40262e-06 4.60673e-07
-1.40262e-06 5.3732e-05 1.59548e-06
4.60673e-07 1.59548e-06 -5.67604e-06
0.000881511 -2.94492e-06 -4.31847e-07
-2.94492e-06 3.62737e-05 8.09809e-08
-4.31847e-07 8.09809e-08 -1.99599e-05
0.000937357 -2.16535e-06 -1.47167e-06
-2.16535e-06 7.11758e-05 -1.8203e-07
-1.47167e-06 -1.8203e-07 2.16083e-05
0.00102029 4.52791e-06 -1.01308e-06
4.52791e-06 7.3428e-05 1.01215e-06
-1.01308e-06 1.01215e-06 1.7096e-05
0.00100316 5.64357e-06 1.76755e-07
5.64357e-06 6.26383e-05 3.14555e-07
1.76755e-07 3.14555e-07 7.00829e-06
0.000961946 6.49661e-06 1.6193e-07
6.49661e-06 3.94033e-05 -5.69754e-07
1.6193e-07 -5.69754e-07 -1.53046e-05
0.00101412 7.13822e-06 -1.8112e-07
7.13822e-06 3.53522e-05 1.17646e-06
-1.8112e-07 1.17646e-06 -1.96433e-05
0.00113706 7.31826e-06 5.21268e-08
7.31826e-06 8.53543e-05 3.1085e-07
5.21268e-08 3.1085e-07 2.9493e-05
0.00110646 6.30936e-06 -1.07199e-07
6.30936e-06 7.60353e-05 -7.07925e-07
-1.07199e-07 -7.07925e-07 1.96518e-05
0.00110872 6.16863e-06 -3.17541e-07
6.16863e-06 4.44431e-05 4.14655e-07
-3.17541e-07 4.14655e-07 -1.39908e-05
0.00108138 5.26192e-06 -1.12136e-07
5.26192e-06 4.09222e-05 -7.3298e-08
-1.12136e-07 -7.3298e-08 -1.6902e-05
0.000994301 5.99703e-06 -1.57597e-06
5.99703e-06 2.37366e-05 -2.76711e-08
-1.57597e-06 -2.76711e-08 -2.79402e-05
0.0010918 4.00204e-06 4.27248e-07
4.00204e-06 3.14706e-05 2.65909e-07
4.27248e-07 2.65909e-07 -2.64729e-05
0.000999896 5.84885e-06 1.34318e-09
5.84885e-06 1.24691e-05 1.57499e-07
1.34318e-09 1.57499e-07 -3.72182e-05
0.000753681 1.21941e-05 -4.09325e-06
1.21941e-05 -5.27911e-05 9.30227e-07
-4.09325e-06 9.30227e-07 -8.09916e-05
0.00101008 5.92442e-06 1.69173e-06
5.92442e-06 1.02505e-05 -3.99387e-07
1.69173e-06 -3.99387e-07 -3.54232e-05
0.00111969 1.33054e-05 1.65516e-06
1.33054e-05 0.00010748 -5.94845e-07
1.65516e-06 -5.94845e-07 8.65716e-05
0.00263117 1.8973e-05 -5.59873e-06
1.8973e-05 0.000860866 1.66261e-06
-5.59873e-06 1.66261e-06 0.00086472
0.00147802 1.36441e-05 5.24945e-06
1.36441e-05 0.000266194 -1.7046e-06
5.24945e-06 -1.7046e-06 0.000252337
0.00117628 1.93307e-05 -2.87903e-06
1.93307e-05 0.000142354 1.21831e-06
-2.87903e-06 1.21831e-06 0.000141907
0.00113441 1.94329e-05 1.99568e-06
1.94329e-05 0.000105226 -4.32453e-07
1.99568e-06 -4.32453e-07 0.000109344
0.0013325 -9.45894e-06 8.01438e-07
-9.45894e-06 0.000153962 -7.93326e-07
8.01438e-07 -7.93326e-07 9.58817e-05
0.00130002 -6.58331e-06 6.23312e-08
-6.58331e-06 9.42426e-05 1.12636e-06
6.23312e-08 1.12636e-06 3.87378e-05
0.00118908 -8.04176e-06 2.02094e-07
-8.04176e-06 4.97381e-05 8.48469e-08
2.02094e-07 8.48469e-08 -3.29256e-06
0.000968576 -9.35062e-07 -8.89827e-07
-9.35062e-07 -4.78431e-05 9.07052e-08
-8.89827e-07 9.07052e-08 -0.000107545
0.00129267 -4.37846e-07 4.53331e-08
-4.37846e-07 8.2463e-05 3.04222e-10
4.53331e-08 3.04222e-10 2.02317e-05
0.00142735 -1.4607e-06 1.23351e-07
-1.4607e-06 0.000127601 -1.01078e-06
1.23351e-07 -1.01078e-06 6.36431e-05
0.000873311 -4.76084e-06 -2.30511e-06
-4.76084e-06 -6.24477e-05 -1.2072e-06
-2.30511e-06 -1.2072e-06 -0.000107028
0.00124191 6.8863e-07 1.7319e-07
6.8863e-07 8.94555e-05 1.08217e-07
1.7319e-07 1.08217e-07 3.39198e-05
0.00130642 4.05701e-06 4.53075e-07
4.05701e-06 0.000103019 6.98248e-07
4.53075e-07 6.98248e-07 4.17562e-05
0.0008959 -1.30177e-05 -3.58163e-06
-1.30177e-05 -2.1788e-05 -1.27006e-06
-3.58163e-06 -1.27006e-06 -3.57184e-05
0.000915042 -5.44896e-06 -6.95838e-08
-5.44896e-06 -3.66719e-05 7.70698e-09
-6.95838e-08 7.70698e-09 -7.58615e-05
0.00102552 -6.68331e-09 1.14858e-06
-6.68331e-09 -1.48903e-06 1.06735e-06
1.14858e-06 1.06735e-06 -5.40879e-05
0.00235219 -1.82655e-05 -4.61967e-06
-1.82655e-05 0.000688977 -2.03152e-06
-4.61967e-06 -2.03152e-06 0.000701206
0.000866094 -1.31701e-05 -9.51883e-08
-1.31701e-05 -4.01561e-05 -3.58844e-08
-9.51883e-08 -3.58844e-08 -4.97321e-05
0.000983486 -5.98096e-06 1.82425e-06
-5.98096e-06 -1.82001e-06 7.392e-07
1.82425e-06 7.392e-07 -3.58366e-05
0.000847788 -1.30788e-05 3.00835e-06
-1.30788e-05 -5.55014e-05 1.26637e-06
3.00835e-06 1.26637e-06 -6.16244e-05
0.00234908 -1.76661e-05 -4.59257e-08
-1.76661e-05 0.000675298 6.41803e-08
-4.59257e-08 6.41803e-08 0.000689937
0.0023788 -1.68046e-05 3.70152e-06
-1.68046e-05 0.000677668 2.19709e-06
3.70152e-06 2.19709e-06 0.00069428
0.000906824 -8.20915e-06 4.69855e-07
-8.20915e-06 2.83609e-05 5.63473e-07
4.69855e-07 5.63473e-07 -3.71877e-05
0.000953358 -9.79716e-06 -5.73228e-07
-9.79716e-06 2.39148e-05 -8.88273e-07
-5.73228e-07 -8.88273e-07 -3.84119e-05
0.00116291 -1.02825e-05 -7.15901e-07
-1.02825e-05 6.50355e-05 -1.09991e-06
-7.15901e-07 -1.09991e-06 8.78502e-06
0.000937254 9.13835e-07 3.4783e-07
9.13835e-07 5.69226e-05 5.19073e-07
3.4783e-07 5.19073e-07 1.59591e-06
0.000979021 -1.34013e-06 2.00838e-07
-1.34013e-06 7.23878e-05 6.46516e-07
2.00838e-07 6.46516e-07 1.31025e-05
0.000928412 -2.54212e-06 -1.9834e-06
-2.54212e-06 6.19494e-05 -4.1452e-07
-1.9834e-06 -4.1452e-07 6.09665e-06
0.00105239 5.7204e-06 -3.24213e-07
5.7204e-06 8.71352e-05 4.911e-07
-3.24213e-07 4.911e-07 3.17052e-05
0.000980675 6.56609e-06 -2.46145e-08
6.56609e-06 4.80199e-05 1.64281e-07
-2.46145e-08 1.64281e-07 -6.58095e-06
0.000998872 5.66313e-06 1.32905e-07
5.66313e-06 6.53979e-05 -6.56029e-07
1.32905e-07 -6.56029e-07 1.16793e-05
0.00109024 7.20727e-06 -2.83006e-07
7.20727e-06 6.38305e-05 1.23572e-06
-2.83006e-07 1.23572e-06 7.81686e-06
0.00112249 6.20385e-06 -2.11995e-09
6.20385e-06 8.50245e-05 7.49784e-09
-2.11995e-09 7.49784e-09 2.88672e-05
0.000889328 6.07804e-06 -1.60463e-06
6.07804e-06 -1.21026e-06 -6.35352e-07
-1.60463e-06 -6.35352e-07 -5.31227e-05
0.00106099 5.27231e-06 2.29412e-07
5.27231e-06 3.23823e-05 4.92897e-07
2.29412e-07 4.92897e-07 -2.53823e-05
0.000976604 6.0958e-06 -3.71448e-08
6.0958e-06 1.59452e-05 1.82254e-07
-3.71448e-08 1.82254e-07 -3.56242e-05
0.000740322 1.06408e-05 -4.20428e-06
1.06408e-05 -4.00713e-05 5.75553e-07
-4.20428e-06 5.75553e-07 -7.23648e-05
0.000990663 5.94149e-06 1.62452e-06
5.94149e-06 8.22811e-06 -6.66151e-08
1.62452e-06 -6.66151e-08 -4.1363e-05
0.000766761 1.24051e-05 1.26683e-07
1.24051e-05 -4.79871e-05 1.16283e-07
1.26683e-07 1.16283e-07 -7.61303e-05
0.00277017 1.80883e-05 -5.90069e-06
1.80883e-05 0.000943457 1.39656e-06
-5.90069e-06 1.39656e-06 0.000944117
0.000740493 1.31345e-05 5.39261e-06
1.31345e-05 -7.54559e-05 -1.59575e-06
5.39261e-06 -1.59575e-06 -9.88003e-05
0.00183438 1.85966e-05 2.25957e-07
1.85966e-05 0.000480178 1.1537e-07
2.25957e-07 1.1537e-07 0.000479519
0.00112931 1.9575e-05 2.13951e-06
1.9575e-05 0.000119475 -3.95835e-07
2.13951e-06 -3.95835e-07 0.000119538
0.00133817 -9.80965e-06 3.5287e-07
-9.80965e-06 0.000192339 -1.01622e-07
3.5287e-07 -1.01622e-07 0.000128827
0.00113847 -7.77053e-06 -8.02753e-08
-7.77053e-06 5.46439e-05 -2.12109e-07
-8.02753e-08 -2.12109e-07 -1.11108e-06
0.00114474 -9.23912e-06 -4.11036e-07
-9.23912e-06 6.74633e-05 1.96894e-08
-4.11036e-07 1.96894e-08 8.99883e-06
0.00108462 -4.79768e-06 -5.61899e-07
-4.79768e-06 1.39977e-05 9.85629e-07
-5.61899e-07 9.85629e-07 -4.25139e-05
0.00118028 -6.44175e-06 2.67036e-07
-6.44175e-06 4.27462e-05 -2.21221e-07
2.67036e-07 -2.21221e-07 -1.26991e-05
0.000994257 -7.78562e-06 -4.1861e-08
-7.78562e-06 -3.75397e-05 -6.19615e-07
-4.1861e-08 -6.19615e-07 -9.12773e-05
0.000823554 -4.3444e-06 -2.29304e-06
-4.3444e-06 -8.98993e-05 -6.85549e-07
-2.29304e-06 -6.85549e-07 -0.000139284
0.00113848 -8.81129e-07 -2.14392e-07
-8.81129e-07 3.20228e-05 1.24944e-07
-2.14392e-07 1.24944e-07 -2.66741e-05
0.00134091 -5.56732e-07 3.32375e-07
-5.56732e-07 0.000106892 -8.01631e-07
3.32375e-07 -8.01631e-07 4.58597e-05
0.000870049 -1.28175e-05 -3.90054e-06
-1.28175e-05 -2.94632e-05 -1.26206e-06
-3.90054e-06 -1.26206e-06 -4.83246e-05
0.000832323 -4.53917e-06 -4.08892e-07
-4.53917e-06 -8.23575e-05 -3.8378e-07
-4.08892e-07 -3.8378e-07 -0.000127592
0.00125022 6.97333e-07 9.80938e-07
6.97333e-07 9.31563e-05 6.71176e-07
9.80938e-07 6.71176e-07 3.76627e-05
0.00246426 -1.85759e-05 -5.16157e-06
-1.85759e-05 0.00075355 -1.97041e-06
-5.16157e-06 -1.97041e-06 0.000762999
0.000846222 -1.31022e-05 -1.50638e-07
-1.31022e-05 -4.40761e-05 -1.23877e-08
-1.50638e-07 -1.23877e-08 -5.78421e-05
0.000784278 -5.21626e-06 1.8161e-06
-5.21626e-06 -9.88317e-05 9.30317e-07
1.8161e-06 9.30317e-07 -0.000139138
0.00242485 -1.82989e-05 -4.02806e-08
-1.82989e-05 0.000722275 6.72323e-08
-4.02806e-08 6.72323e-08 0.000734595
0.00081918 -1.32628e-05 3.19677e-06
-1.32628e-05 -6.1481e-05 1.25612e-06
3.19677e-06 1.25612e-06 -7.08929e-05
0.00242599 -1.76516e-05 3.94055e-06
-1.76516e-05 0.000710551 2.07238e-06
3.94055e-06 2.07238e-06 0.000725203
0.000851261 -5.50865e-06 -1.97184e-07
-5.50865e-06 2.43794e-06 5.98192e-07
-1.97184e-07 5.98192e-07 -5.78643e-05
0.000952088 -8.07246e-06 4.75098e-07
-8.07246e-06 4.75002e-05 -9.78725e-07
4.75098e-07 -9.78725e-07 -1.74367e-05
0.000832429 -9.71388e-06 -1.58283e-06
-9.71388e-06 -2.63469e-05 -1.50686e-06
-1.58283e-06 -1.50686e-06 -8.70416e-05
0.000937081 7.33323e-07 6.44261e-08
7.33323e-07 6.17049e-05 2.71197e-07
6.44261e-08 2.71197e-07 8.48356e-06
0.000976954 8.59099e-07 -1.11261e-07
8.59099e-07 7.11e-05 4.45263e-08
-1.11261e-07 4.45263e-08 1.54324e-05
0.0010189 -1.27947e-06 -5.64973e-07
-1.27947e-06 9.08546e-05 -9.98891e-08
-5.64973e-07 -9.98891e-08 3.16915e-05
0.000998957 6.6343e-06 -3.12755e-07
6.6343e-06 5.64227e-05 5.65497e-07
-3.12755e-07 5.65497e-07 1.92988e-06
0.000998908 5.72759e-06 1.82903e-07
5.72759e-06 6.48836e-05 1.19685e-10
1.82903e-07 1.19685e-10 1.1268e-05
0.000775474 4.90056e-06 -1.37493e-06
4.90056e-06 -1.94145e-05 -7.47415e-07
-1.37493e-06 -7.47415e-07 -6.95027e-05
0.00113848 6.09167e-06 1.41791e-07
6.09167e-06 9.40118e-05 8.21284e-07
1.41791e-07 8.21284e-07 3.80789e-05
0.000933266 6.1686e-06 -3.10807e-07
6.1686e-06 1.87037e-05 -1.03157e-07
-3.10807e-07 -1.03157e-07 -3.31067e-05
0.000718529 8.44756e-06 -4.09074e-06
8.44756e-06 -2.51524e-05 9.75538e-08
-4.09074e-06 9.75538e-08 -5.94809e-05
0.000959103 6.19542e-06 1.5016e-06
6.19542e-06 8.23961e-06 4.03815e-07
1.5016e-06 4.03815e-07 -4.32219e-05
0.000730815 1.09613e-05 4.80121e-08
1.09613e-05 -4.51615e-05 1.80651e-07
4.80121e-08 1.80651e-07 -7.73158e-05
0.00272707 1.60417e-05 -6.30463e-06
1.60417e-05 0.000945136 1.10726e-06
-6.30463e-06 1.10726e-06 0.000942548
0.000780032 1.26125e-05 4.07167e-06
1.26125e-05 -4.30936e-05 -6.40345e-07
4.07167e-06 -6.40345e-07 -7.11801e-05
0.00265557 1.74609e-05 3.98425e-08
1.74609e-05 0.000893456 1.24428e-07
3.98425e-08 1.24428e-07 0.000893721
0.0010487 1.81236e-05 5.82231e-06
1.81236e-05 0.000104578 -1.36721e-06
5.82231e-06 -1.36721e-06 9.93897e-05
0.00116742 -7.68615e-06 -4.19227e-07
-7.68615e-06 0.00010915 1.96479e-07
-4.19227e-07 1.96479e-07 4.98695e-05
0.0012115 -9.51794e-06 2.61432e-07
-9.51794e-06 0.000132955 1.79304e-07
2.61432e-07 1.79304e-07 6.81643e-05
0.00107401 -6.14489e-06 -3.73937e-07
-6.14489e-06 3.809e-05 4.22117e-07
-3.73937e-07 4.22117e-07 -1.71174e-05
0.00110493 -7.79394e-06 5.36011e-08
-7.79394e-06 4.04137e-05 -3.40336e-07
5.36011e-08 -3.40336e-07 -1.51485e-05
0.000957098 -9.01324e-06 -2.22198e-07
-9.01324e-06 -1.88619e-05 9.11599e-07
-2.22198e-07 9.11599e-07 -7.77227e-05
0.00097997 -5.84516e-06 -1.8804e-06
-5.84516e-06 -7.11636e-06 5.25961e-07
-1.8804e-06 5.25961e-07 -5.65001e-05
0.00111878 -4.782e-06 7.31023e-08
-4.782e-06 2.885e-05 1.68386e-07
7.31023e-08 1.68386e-07 -2.77764e-05
0.00105942 -6.30105e-06 -1.75866e-07
-6.30105e-06 -9.25964e-06 -1.48448e-06
-1.75866e-07 -1.48448e-06 -6.46449e-05
0.000825481 -1.25409e-05 -4.21429e-06
-1.25409e-05 -4.32813e-05 -1.00996e-06
-4.21429e-06 -1.00996e-06 -6.73275e-05
0.000907127 -4.24468e-06 -4.17905e-07
-4.24468e-06 -5.05541e-05 -1.52022e-07
-4.17905e-07 -1.52022e-07 -9.96437e-05
0.00130887 -8.99339e-07 5.54252e-07
-8.99339e-07 0.000112125 1.19136e-07
5.54252e-07 1.19136e-07 5.44325e-05
0.00258846 -1.85112e-05 -5.79844e-06
-1.85112e-05 0.000825144 -1.88398e-06
-5.79844e-06 -1.88398e-06 0.000831466
0.000825683 -1.28546e-05 -1.73088e-07
-1.28546e-05 -4.899e-05 -1.13391e-08
-1.73088e-07 -1.13391e-08 -6.77244e-05
0.000790363 -4.36339e-06 1.53679e-06
-4.36339e-06 -0.000102725 5.18839e-07
1.53679e-06 5.18839e-07 -0.000148613
0.00253601 -1.86765e-05 -4.23778e-08
-1.86765e-05 0.000786283 8.22267e-08
-4.23778e-08 8.22267e-08 0.000795916
0.000796704 -1.31852e-05 3.45082e-06
-1.31852e-05 -6.62791e-05 1.32964e-06
3.45082e-06 1.32964e-06 -7.98825e-05
0.00249729 -1.83304e-05 4.22419e-06
-1.83304e-05 0.000755447 1.9664e-06
4.22419e-06 1.9664e-06 0.000767861
0.00104034 -4.95638e-06 -4.65352e-07
-4.95638e-06 8.88559e-05 6.6404e-07
-4.65352e-07 6.6404e-07 3.2925e-05
0.000941673 -5.67355e-06 8.54123e-09
-5.67355e-06 4.10383e-05 -3.40498e-07
8.54123e-09 -3.40498e-07 -1.91551e-05
0.000998282 -7.93991e-06 -4.68107e-07
-7.93991e-06 6.71697e-05 -2.07007e-06
-4.68107e-07 -2.07007e-06 2.83326e-06
0.000772414 3.51266e-07 -1.23945e-06
3.51266e-07 -3.34327e-06 -7.69732e-08
-1.23945e-06 -7.69732e-08 -5.2694e-05
0.000928029 8.64941e-07 1.17157e-07
8.64941e-07 5.65238e-05 1.18978e-08
1.17157e-07 1.18978e-08 3.54998e-06
0.00101841 8.04541e-07 -1.78098e-07
8.04541e-07 8.61227e-05 -2.18147e-07
-1.78098e-07 -2.18147e-07 3.01094e-05
0.00099829 5.79074e-06 2.34201e-07
5.79074e-06 6.40555e-05 6.36299e-07
2.34201e-07 6.36299e-07 1.05448e-05
0.000803933 5.1303e-06 -2.92283e-07
5.1303e-06 -9.24692e-06 -1.75313e-07
-2.92283e-07 -1.75313e-07 -5.97103e-05
0.000687327 5.40015e-06 -3.7917e-06
5.40015e-06 -1.37817e-05 -2.10579e-07
-3.7917e-06 -2.10579e-07 -4.83089e-05
0.000977897 6.26572e-06 1.1146e-06
6.26572e-06 3.89967e-05 4.96727e-07
1.1146e-06 4.96727e-07 -1.27189e-05
0.0006933 8.85651e-06 -6.06108e-08
8.85651e-06 -3.69186e-05 1.60335e-07
-6.06108e-08 1.60335e-07 -7.10606e-05
0.00255281 1.30692e-05 -6.44359e-06
1.30692e-05 0.000886823 7.28565e-07
-6.44359e-06 7.28565e-07 0.000881715
0.000722033 1.12785e-05 4.12266e-06
1.12785e-05 -4.99314e-05 -1.92257e-07
4.12266e-06 -1.92257e-07 -8.1946e-05
0.00259543 1.51957e-05 4.14147e-08
1.51957e-05 0.000888121 1.37148e-07
4.14147e-08 1.37148e-07 0.000885215
0.00253977 1.68356e-05 6.30314e-06
1.68356e-05 0.000842925 -1.27915e-06
6.30314e-06 -1.27915e-06 0.000842795
0.00110003 -6.18949e-06 -4.89467e-07
-6.18949e-06 8.48541e-05 6.22929e-07
-4.89467e-07 6.22929e-07 2.85093e-05
0.00116414 -7.9464e-06 8.10595e-08
-7.9464e-06 0.000107333 2.44903e-07
8.10595e-08 2.44903e-07 4.73327e-05
0.00108152 -9.2247e-06 1.11907e-07
-9.2247e-06 7.18517e-05 1.04013e-06
1.11907e-07 1.04013e-06 5.8038e-06
0.000958205 -6.43299e-06 -1.60558e-06
-6.43299e-06 8.97366e-06 4.31785e-07
-1.60558e-06 4.31785e-07 -4.05164e-05
0.00107122 -6.1055e-06 8.71612e-08
-6.1055e-06 3.719e-05 -2.06388e-07
8.71612e-08 -2.06388e-07 -1.8e-05
0.001074 -7.82395e-06 -4.19598e-07
-7.82395e-06 2.73201e-05 -7.35405e-07
-4.19598e-07 -7.35405e-07 -2.80446e-05
0.000758057 -1.22268e-05 -4.40645e-06
-1.22268e-05 -5.90536e-05 -3.27276e-07
-4.40645e-06 -3.27276e-07 -8.70863e-05
0.00100801 -5.76738e-06 1.08819e-08
-5.76738e-06 5.31985e-06 2.87279e-07
1.08819e-08 2.87279e-07 -4.42209e-05
0.00115242 -4.76378e-06 6.78309e-07
-4.76378e-06 4.34688e-05 -6.43141e-07
6.78309e-07 -6.43141e-07 -1.32732e-05
0.00267646 -1.79257e-05 -6.38081e-06
-1.79257e-05 0.000882701 -1.67834e-06
-6.38081e-06 -1.67834e-06 0.000885693
0.00080034 -1.24823e-05 -1.95041e-07
-1.24823e-05 -5.38528e-05 8.70064e-08
-1.95041e-07 8.70064e-08 -7.78683e-05
0.000990271 -4.10592e-06 1.57744e-06
-4.10592e-06 -1.14214e-05 4.01162e-07
1.57744e-06 4.01162e-07 -6.02141e-05
0.00266469 -1.87158e-05 -3.94934e-08
-1.87158e-05 0.000859569 9.26051e-08
-3.94934e-08 9.26051e-08 0.000866166
0.000781759 -1.28897e-05 3.81751e-06
-1.28897e-05 -6.8302e-05 1.34409e-06
3.81751e-06 1.34409e-06 -8.69109e-05
0.0026064 -1.87778e-05 4.61043e-06
-1.87778e-05 0.000818384 1.89209e-06
4.61043e-06 1.89209e-06 0.000828205
0.000903609 -4.511e-06 -1.25642e-06
-4.511e-06 4.44701e-05 4.92072e-07
-1.25642e-06 4.92072e-07 -5.17641e-06
0.000962878 -4.87912e-06 4.32282e-08
-4.87912e-06 5.42545e-05 1.71397e-07
4.32282e-08 1.71397e-07 -1.85895e-06
0.00102986 -5.83491e-06 6.37028e-07
-5.83491e-06 7.85521e-05 -1.54172e-06
6.37028e-07 -1.54172e-06 1.84751e-05
0.000651418 -1.47871e-07 -3.54733e-06
-1.47871e-07 -1.63334e-05 -1.34136e-07
-3.54733e-06 -1.34136e-07 -5.02737e-05
0.000763795 5.95253e-07 -1.98873e-07
5.95253e-07 -7.7806e-06 -1.43212e-07
-1.98873e-07 -1.43212e-07 -5.71762e-05
0.000917728 1.00047e-06 1.76257e-07
1.00047e-06 5.07341e-05 4.50456e-08
1.76257e-07 4.50456e-08 -1.98791e-06
0.000832622 5.36179e-06 9.2527e-07
5.36179e-06 1.02615e-06 4.30055e-07
9.2527e-07 4.30055e-07 -4.98122e-05
0.000661026 5.86527e-06 -1.0683e-07
5.86527e-06 -2.56795e-05 5.78706e-08
-1.0683e-07 5.78706e-08 -6.00518e-05
0.00227483 9.16355e-06 -6.20419e-06
9.16355e-06 0.000778164 3.45731e-07
-6.20419e-06 3.45731e-07 0.000771538
0.000668877 9.26169e-06 3.97321e-06
9.26169e-06 -4.83336e-05 2.10615e-07
3.97321e-06 2.10615e-07 -8.22881e-05
0.00241446 1.20249e-05 4.5013e-08
1.20249e-05 0.000827078 1.29733e-07
4.5013e-08 1.29733e-07 0.000821795
0.00246497 1.43593e-05 6.39462e-06
1.43593e-05 0.000831663 -8.89302e-07
6.39462e-06 -8.89302e-07 0.000828439
0.000917363 -5.89463e-06 -1.46067e-06
-5.89463e-06 2.44663e-05 5.96567e-07
-1.46067e-06 5.96567e-07 -2.53433e-05
0.00105473 -6.2109e-06 -2.62307e-08
-6.2109e-06 6.56405e-05 1.20991e-07
-2.62307e-08 1.20991e-07 9.22003e-06
0.00116233 -8.20529e-06 2.26759e-07
-8.20529e-06 0.000106294 5.43944e-08
2.26759e-07 5.43944e-08 4.55619e-05
0.00138143 -1.14109e-05 -4.40159e-06
-1.14109e-05 0.000268306 -1.69872e-07
-4.40159e-06 -1.69872e-07 0.000243058
0.000968906 -6.31583e-06 1.0959e-07
-6.31583e-06 1.39486e-05 -5.94077e-08
1.0959e-07 -5.94077e-08 -3.56336e-05
0.00106902 -6.07103e-06 3.35032e-07
-6.07103e-06 3.65415e-05 -8.77417e-07
3.35032e-07 -8.77417e-07 -1.86293e-05
0.0026081 -1.66565e-05 -6.50654e-06
-1.66565e-05 0.000873199 -1.24322e-06
-6.50654e-06 -1.24322e-06 0.000873102
0.000767735 -1.20426e-05 -1.02582e-07
-1.20426e-05 -5.40874e-05 2.5093e-07
-1.02582e-07 2.5093e-07 -8.22464e-05
0.00103573 -5.68917e-06 1.94197e-06
-5.68917e-06 1.76042e-05 7.35188e-08
1.94197e-06 7.35188e-08 -3.20934e-05
0.00277153 -1.82742e-05 -4.57186e-08
-1.82742e-05 0.000924967 1.19613e-07
-4.57186e-08 1.19613e-07 0.000928289
0.000775689 -1.24228e-05 4.17391e-06
-1.24228e-05 -6.41852e-05 1.29244e-06
4.17391e-06 1.29244e-06 -8.8172e-05
0.00274193 -1.89179e-05 5.14358e-06
-1.89179e-05 0.000894432 1.81851e-06
5.14358e-06 1.81851e-06 0.000901304
0.000607945 -5.17001e-06 -5.21228e-06
-5.17001e-06 -4.20406e-05 8.37493e-08
-5.21228e-06 8.37493e-08 -7.53112e-05
0.00085874 -4.32393e-06 1.0183e-07
-4.32393e-06 2.37759e-05 -6.06776e-09
1.0183e-07 -6.06776e-09 -2.62e-05
0.000887553 -4.79987e-06 4.81599e-07
-4.79987e-06 2.06622e-05 -7.17746e-07
4.81599e-07 -7.17746e-07 -3.56372e-05
0.00203737 1.20998e-06 -5.71708e-06
1.20998e-06 0.000679653 5.22138e-08
-5.71708e-06 5.22138e-08 0.000672571
0.00064618 3.01022e-07 -2.42408e-08
3.01022e-07 -1.86627e-05 -5.21481e-08
-2.42408e-08 -5.21481e-08 -5.258e-05
0.000756613 8.36429e-07 8.13223e-07
8.36429e-07 -1.15831e-05 -2.45705e-08
8.13223e-07 -2.45705e-08 -6.10212e-05
0.000635027 6.3275e-06 3.6789e-06
6.3275e-06 -3.74577e-05 3.03251e-07
3.6789e-06 3.03251e-07 -7.16731e-05
0.00217491 8.01927e-06 4.72343e-08
8.01927e-06 0.00073513 1.04392e-07
4.72343e-08 1.04392e-07 0.000728461
0.00227707 1.10138e-05 6.13451e-06
1.10138e-05 0.000767791 -4.77171e-07
6.13451e-06 -4.77171e-07 0.000762331
0.00120708 -8.73296e-06 -5.85567e-06
-8.73296e-06 0.000219814 -2.02873e-07
-5.85567e-06 -2.02873e-07 0.000192759
0.000919865 -5.77759e-06 4.21439e-08
-5.77759e-06 2.56967e-05 1.27494e-07
4.21439e-08 1.27494e-07 -2.41497e-05
0.00100922 -6.23521e-06 2.44144e-07
-6.23521e-06 4.63635e-05 -2.85934e-07
2.44144e-07 -2.85934e-07 -1.01367e-05
0.0025199 -1.56223e-05 -2.73428e-06
-1.56223e-05 0.000854176 -3.37626e-07
-2.73428e-06 -3.37626e-07 0.000851618
0.000763501 -1.12021e-05 3.73143e-08
-1.12021e-05 -3.01264e-05 8.58821e-08
3.73143e-08 8.58821e-08 -6.09064e-05
0.000979332 -6.20004e-06 1.69968e-06
-6.20004e-06 1.87925e-05 -5.62385e-07
1.69968e-06 -5.62385e-07 -3.08811e-05
0.00275406 -1.71817e-05 -5.39539e-08
-1.71817e-05 0.000937147 1.54446e-07
-5.39539e-08 1.54446e-07 0.000937317
0.000777837 -1.18532e-05 4.45471e-06
-1.18532e-05 -4.89208e-05 8.88376e-07
4.45471e-06 8.88376e-07 -7.72084e-05
0.00286597 -1.86307e-05 5.75296e-06
-1.86307e-05 0.000966938 1.70667e-06
5.75296e-06 1.70667e-06 0.000970591
0.000864925 -5.95994e-06 -5.23449e-06
-5.95994e-06 0.000116569 -6.04629e-08
-5.23449e-06 -6.04629e-08 9.93177e-05
0.000952301 -5.59119e-06 -8.04243e-07
-5.59119e-06 0.000119147 -6.23621e-08
-8.04243e-07 -6.23621e-08 8.83326e-05
0.000811746 -4.13896e-06 1.29732e-06
-4.13896e-06 2.0688e-06 -5.43227e-07
1.29732e-06 -5.43227e-07 -4.82315e-05
0.00203001 7.12755e-08 -3.07803e-08
7.12755e-08 0.000676616 8.17977e-08
-3.07803e-08 8.17977e-08 0.000669562
0.00064129 7.49102e-07 3.56615e-06
7.49102e-07 -2.08532e-05 1.10366e-08
3.56615e-06 1.10366e-08 -5.47448e-05
0.0020732 6.99182e-06 5.44861e-06
6.99182e-06 0.000691325 -1.52523e-07
5.44861e-06 -1.52523e-07 0.000684609
0.000941427 -1.16884e-05 -2.49902e-06
-1.16884e-05 0.000127221 -6.22349e-08
-2.49902e-06 -6.22349e-08 0.000111537
0.00104997 -9.10773e-06 -9.20482e-07
-9.10773e-06 0.000139418 -9.40801e-09
-9.20482e-07 -9.40801e-09 0.000109437
0.000922747 -5.66298e-06 1.42114e-06
-5.66298e-06 2.70961e-05 -3.44057e-07
1.42114e-06 -3.44057e-07 -2.27868e-05
0.00188188 -1.50456e-05 1.89563e-06
-1.50456e-05 0.000547381 4.61413e-07
1.89563e-06 4.61413e-07 0.000539372
0.000750022 -1.0613e-05 4.3885e-06
-1.0613e-05 -3.46439e-05 2.28144e-07
4.3885e-06 2.28144e-07 -6.56473e-05
0.00290337 -1.77364e-05 6.35904e-06
-1.77364e-05 0.00100262 1.47451e-06
6.35904e-06 1.47451e-06 0.00100306
0.00202016 -7.30711e-06 1.80843e-09
-7.30711e-06 0.000667909 9.55889e-08
1.80843e-09 9.55889e-08 0.00066137
0.000678097 -4.96107e-06 3.79286e-06
-4.96107e-06 -1.20958e-05 -1.44098e-07
3.79286e-06 -1.44098e-07 -4.56996e-05
0.00201969 -1.07178e-06 5.63541e-06
-1.07178e-06 0.000672217 7.53811e-08
5.63541e-06 7.53811e-08 0.000665191
0.00161453 -1.12524e-05 1.85616e-06
-1.12524e-05 0.00045307 3.31489e-07
1.85616e-06 3.31489e-07 0.000442521
0.000710296 -8.28608e-06 4.06511e-06
-8.28608e-06 -2.15943e-05 7.84552e-08
4.06511e-06 7.84552e-08 -5.43634e-05
0.00274159 -1.59373e-05 6.62297e-06
-1.59373e-05 0.000951629 1.08527e-06
6.62297e-06 1.08527e-06 0.000949223
0.00218262 -9.05872e-06 6.09242e-06
-9.05872e-06 0.000738241 3.47937e-07
6.09242e-06 3.47937e-07 0.000731854
0.00245779 -1.30317e-05 6.39451e-06
-1.30317e-05 0.000845554 7.13044e-07
6.39451e-06 7.13044e-07 0.000840796
