# vtk DataFile Version 2.0
Wound Healing Simulation
ASCII
DATASET UNSTRUCTURED_GRID
POINTS 3012 float
69.9759 18.75 4
67.2507 60.3285 4
69.976 18.75 2
73.0099 25.446 4
71.1327 20.9142 4
68.6801 16.6661 4
67.8273 19.9256 3.98632
67.2507 60.3286 2
71.1327 54.0858 4
68.6801 58.3339 4
65.6939 62.2254 4
65.3138 59.0031 3.98734
74.6784 42.3946 4
73.7221 47.2057 4
69.9759 18.75 0
73.0099 25.446 2
68.6801 16.6661 2
71.1327 20.9142 2
67.8278 19.9277 2
74.6792 32.6053 4
73.7222 27.7943 4
72.1454 23.1494 4
70.6153 26.2221 3.98526
68.8874 21.9587 3.98602
67.2507 14.6715 4
66.6389 17.9703 3.98695
65.8016 21.0233 3.97996
67.2507 60.3285 0
71.1327 54.0858 2
68.6801 58.3339 2
65.694 62.2255 2
65.3146 59.0019 2
72.1454 51.8506 4
69.9759 56.25 4
68.8379 53.1128 3.98543
64.0165 64.0165 4
66.6124 57.1352 3.98699
63.8872 60.768 3.9889
63.5042 57.7767 3.98207
60.3285 67.2507 4
74.6792 42.3947 2
73.7222 47.2057 2
74.9194 39.9526 4
74.2788 44.8158 4
72.1688 42.0857 3.98347
73.0099 49.554 4
71.2503 46.5979 3.98472
73.0099 25.446 0
71.1327 20.9142 0
68.6801 16.6661 0
67.8273 19.9256 0.0136828
74.6792 32.6053 2
73.7222 27.7943 2
67.2508 14.6715 2
72.1455 23.1494 2
70.6154 26.2227 2
66.6397 17.9719 2
68.8876 21.9605 2
65.8014 21.023 2
74.9197 35.0474 4
74.2794 30.1841 4
72.1855 32.9434 3.98389
71.2793 28.432 3.98517
69.8169 24.0609 3.98553
68.3496 26.9518 3.97663
66.7664 22.9327 3.97841
65.694 12.7746 4
65.3254 16.1012 3.98811
64.7185 19.1909 3.98153
63.8931 22.0318 3.97626
71.1327 54.0858 0
65.6939 62.2254 0
68.6801 58.3339 0
65.3138 59.0031 0.0126575
72.1455 51.8506 2
69.9759 56.25 2
68.8382 53.1108 2
64.0165 64.0165 2
66.6132 57.1333 2
63.8879 60.7674 2
63.5044 57.7775 2
62.2254 65.694 4
58.895 65.4154 3.99257
69.7702 50.9882 3.98502
67.7854 55.1679 3.98621
66.653 52.2103 3.97771
62.3374 62.4292 3.99064
64.6653 56.0354 3.98171
62.2058 59.4101 3.98293
61.8287 56.6886 3.97906
58.3339 68.6801 4
60.3285 67.2508 2
73.7221 47.2057 0
74.6784 42.3946 0
74.9197 39.9526 2
74.2794 44.8159 2
72.1687 42.0857 2
73.0099 49.554 2
71.2504 46.5976 2
75 37.5 4
72.4059 39.8023 3.98315
71.7834 44.353 3.98419
69.8058 41.7901 3.97498
70.5763 48.813 3.98489
68.915 46.0154 3.97606
74.6792 32.6053 0
73.7222 27.7943 0
67.2507 14.6715 0
72.1454 23.1494 0
70.6153 26.2221 0.0147446
68.8874 21.9587 0.0139781
66.6389 17.9703 0.0130487
65.8016 21.0233 0.020035
74.9197 35.0474 2
74.2794 30.1841 2
72.1853 32.9434 2
71.2793 28.4321 2
65.694 12.7745 2
65.3262 16.1019 2
69.817 24.0621 2
68.3495 26.9519 2
64.7187 19.19 2
66.766 22.9327 2
63.893 22.0312 2
72.4137 35.2242 3.98316
71.8048 30.6765 3.98473
69.8419 33.2684 3.9754
68.9691 29.0382 3.97674
67.6143 24.9124 3.977
66.198 27.6341 3.9734
64.0165 10.9835 4
64.7614 23.8284 3.97473
63.8915 14.3249 3.98938
63.5176 17.441 3.9833
62.9137 20.3145 3.97766
62.0994 22.9386 3.97422
60.6849 11.0958 3.99139
57.6134 11.4417 3.98612
72.1454 51.8506 0
69.9759 56.25 0
68.8379 53.1128 0.0145718
64.0165 64.0165 0
63.8872 60.768 0.0111041
66.6124 57.1352 0.0130087
63.5042 57.7767 0.0179272
62.2255 65.694 2
58.8954 65.4154 2
69.7704 50.9868 2
67.786 55.1657 2
66.6528 52.2102 2
62.3379 62.4288 2
64.6654 56.0362 2
62.2059 59.411 2
61.8288 56.6896 2
60.6697 63.9784 3.99173
57.0257 66.7362 3.99317
57.559 63.696 3.98709
67.5103 50.1773 3.97638
65.7062 54.1756 3.97972
64.542 51.388 3.97371
60.7751 60.9434 3.98417
62.8266 55.0741 3.97877
60.6627 58.1676 3.97938
60.3344 55.7946 3.97794
56.25 69.9759 4
58.3339 68.6801 2
60.3285 67.2507 0
58.922 9.65422 3.9921
62.2254 9.30607 4
73.0099 49.554 0
74.2788 44.8158 0
71.2503 46.5979 0.0152832
72.1688 42.0857 0.0165322
74.9194 39.9526 0
75 37.5 2
72.4058 39.8024 2
71.7834 44.3528 2
69.8057 41.79 2
70.5763 48.8122 2
68.915 46.0152 2
72.4892 37.5121 3.98304
70.0424 39.6577 3.97416
69.4327 43.908 3.97569
67.5996 41.4987 3.97153
68.2687 48.1077 3.97612
66.7134 45.4417 3.97276
74.9197 35.0474 0
74.2794 30.1841 0
72.1855 32.9434 0.0161086
71.2793 28.432 0.0148281
65.694 12.7746 0
65.3254 16.1012 0.0118892
69.8169 24.0609 0.0144696
68.3496 26.9518 0.0233661
66.7664 22.9327 0.0215946
64.7185 19.1909 0.0184661
63.8931 22.0318 0.0237417
72.4136 35.2241 2
71.8049 30.6765 2
69.8418 33.2686 2
68.9691 29.0383 2
64.0165 10.9835 2
63.892 14.3253 2
63.5178 17.4401 2
67.614 24.9124 2
66.1979 27.634 2
62.9139 20.3136 2
64.7611 23.828 2
62.0993 22.9381 2
60.6853 11.0962 2
57.6135 11.441 2
70.0591 35.3921 3.97436
69.4697 31.1495 3.97625
67.6579 33.5906 3.97182
66.7762 29.6219 3.97329
65.5275 25.6987 3.97347
64.1501 28.2541 3.97272
62.3427 12.653 3.99042
62.8617 24.6347 3.97268
62.2021 15.7784 3.98415
61.82 18.6767 3.97971
61.225 21.3348 3.97517
60.4319 23.7221 3.97369
59.2476 12.7731 3.98452
55.8752 10.2284 3.98757
56.4065 13.105 3.9829
69.7702 50.9882 0.014984
62.2254 65.694 0
58.895 65.4154 0.00742616
67.7854 55.1679 0.0137868
66.653 52.2103 0.0222864
62.3374 62.4292 0.00936188
62.2058 59.4101 0.0170653
64.6653 56.0354 0.0182935
61.8287 56.6886 0.0209359
60.6701 63.9782 2
57.026 66.7363 2
57.559 63.6969 2
67.5101 50.177 2
65.7062 54.176 2
64.5419 51.3883 2
60.7752 60.9443 2
62.8267 55.0751 2
60.6628 58.1685 2
60.3346 55.7954 2
55.0711 67.9332 3.99345
59.2207 62.371 3.98511
55.8056 64.9136 3.98892
56.3283 62.0967 3.98367
65.3352 49.4102 3.97256
63.7116 53.2966 3.97592
62.4458 50.656 3.97151
59.3362 59.5649 3.9816
61.0841 54.3167 3.97769
59.2939 57.0217 3.97664
59.2488 55.1921 3.97913
48.1036 68.5814 3.99017
50.9487 69.9328 3.99386
54.0858 71.1327 4
56.25 69.976 2
58.3339 68.6801 0
57.0591 8.3342 3.99242
60.3285 7.74928 4
58.9224 9.65436 2
62.2255 9.30602 2
70.5763 48.813 0.0151109
71.7834 44.353 0.0158105
68.915 46.0154 0.0239383
69.8058 41.7901 0.0250242
72.4059 39.8023 0.0168491
75 37.5 0
72.4891 37.5121 2
70.0424 39.6577 2
69.4327 43.908 2
67.5995 41.4987 2
68.2686 48.1074 2
66.7133 45.4418 2
70.1304 37.5218 3.97427
67.8359 39.5131 3.97079
67.2267 43.4715 3.97218
65.5585 41.2116 3.97072
66.0722 47.4198 3.97288
64.6563 44.8513 3.97172
72.4137 35.2242 0.0168401
71.8048 30.6765 0.015274
69.8419 33.2684 0.0245983
68.9691 29.0382 0.0232564
64.0165 10.9835 0
63.8915 14.3249 0.0106182
63.5176 17.441 0.0167002
67.6143 24.9124 0.0230008
66.198 27.6341 0.0265995
64.7614 23.8284 0.0252702
62.9137 20.3145 0.0223387
62.0994 22.9386 0.0257777
60.6849 11.0958 0.00860947
57.6134 11.4417 0.0138799
70.059 35.3923 2
69.4698 31.1496 2
67.6579 33.5906 2
66.7762 29.6217 2
62.3431 12.6534 2
62.2021 15.7778 2
61.8202 18.6757 2
65.5273 25.6985 2
64.15 28.2539 2
61.2252 21.334 2
62.8615 24.6344 2
60.4319 23.7217 2
59.2476 12.7726 2
56.4065 13.1041 2
55.8753 10.2277 2
67.872 35.5477 3.97103
67.2687 31.6217 3.97267
65.7004 33.9269 3.97094
64.6673 30.1905 3.97181
63.5414 26.413 3.97203
62.2614 28.7754 3.97224
60.7772 14.2177 3.98414
61.049 25.3343 3.9723
60.6172 17.1192 3.9816
60.2295 19.8075 3.97729
59.6682 22.2511 3.97338
58.9837 24.3142 3.97435
54.0382 9.13169 3.98823
57.9119 14.3239 3.98252
54.7877 12.0042 3.98426
55.3138 14.6362 3.98142
67.5103 50.1773 0.0236191
57.0257 66.7362 0.00682537
60.6697 63.9784 0.00827462
57.559 63.696 0.0129147
65.7062 54.1756 0.0202756
64.542 51.388 0.0262909
60.7751 60.9434 0.0158277
60.6627 58.1676 0.0206239
62.8266 55.0741 0.021227
60.3344 55.7946 0.0220628
55.0714 67.9333 2
59.2207 62.372 2
55.8055 64.9144 2
56.3283 62.0977 2
65.335 49.4102 2
63.7117 53.2973 2
62.4458 50.6562 2
59.3363 59.566 2
61.0844 54.3176 2
59.2941 57.0225 2
59.2491 55.1927 2
53.0429 69.001 3.99369
53.9678 66.0158 3.98954
57.8825 60.8772 3.9826
54.6849 63.2135 3.98539
55.2129 60.6245 3.98193
63.1974 48.664 3.97089
61.7472 52.5807 3.97399
60.2766 50.0246 3.97048
58.0214 58.27 3.97884
59.3339 53.9557 3.97704
58.1316 55.8212 3.97466
50.1103 67.8593 3.99006
47.4642 66.5857 3.98789
46.0572 69.1609 3.99034
48.1036 68.5818 2
48.8028 70.7241 3.99398
50.949 69.9329 2
51.8506 72.1454 4
54.0858 71.1327 2
56.25 69.9759 0
55.1034 7.13872 3.9927
58.3339 6.31992 4
57.0595 8.33419 2
60.3286 7.74926 2
58.922 9.65422 0.00790422
62.2254 9.30607 0
68.2687 48.1077 0.023878
69.4327 43.908 0.0243072
66.7134 45.4417 0.0272371
67.5996 41.4987 0.0284723
70.0424 39.6577 0.0258416
72.4892 37.5121 0.0169608
70.1304 37.5218 2
67.8359 39.5131 2
67.2267 43.4715 2
65.5584 41.2117 2
66.0721 47.4199 2
64.6562 44.8514 2
67.9323 37.5224 3.97092
65.7893 39.3714 3.97014
65.1794 43.0277 3.97106
63.7586 40.9318 3.97126
63.9694 46.7197 3.97199
62.8116 44.2202 3.97188
70.0591 35.3921 0.0256362
69.4697 31.1495 0.0237544
67.6579 33.5906 0.0281842
66.7762 29.6219 0.0267097
62.3427 12.653 0.00958033
62.2021 15.7784 0.0158496
61.82 18.6767 0.0202936
65.5275 25.6987 0.0265331
64.1501 28.2541 0.027281
62.8617 24.6347 0.027325
61.225 21.3348 0.0248292
60.4319 23.7221 0.0263105
59.2476 12.7731 0.0154831
56.4065 13.105 0.0170993
55.8752 10.2284 0.0124339
67.872 35.5477 2
67.2689 31.6215 2
65.7004 33.9267 2
64.6674 30.1902 2
60.7772 14.2172 2
60.6172 17.1183 2
60.2298 19.8066 2
63.5413 26.4127 2
62.2613 28.7753 2
59.6684 22.2506 2
61.0488 25.3341 2
58.9836 24.3139 2
57.9117 14.3232 2
55.3137 14.6353 2
54.0382 9.13112 2
54.7877 12.0033 2
65.878 35.6669 3.97025
65.1899 32.1532 3.97111
64.287 34.2495 3.97108
62.5998 30.634 3.97188
61.6539 27.0696 3.9715
60.8545 29.1377 3.97246
59.3132 15.6608 3.98236
59.3339 25.7919 3.97372
59.1286 18.346 3.98011
58.7466 20.845 3.97469
58.2907 23.0851 3.97248
57.9727 24.659 3.97582
52.1128 8.15022 3.98868
53.0586 11.0105 3.98513
56.6784 15.7329 3.98157
53.8104 13.6709 3.98271
54.3778 15.9877 3.98117
55.0711 67.9332 0.00655472
65.3352 49.4102 0.0274411
55.8056 64.9136 0.0110846
59.2207 62.371 0.0148858
56.3283 62.0967 0.0163308
63.7116 53.2966 0.0240844
62.4458 50.656 0.0284859
59.3362 59.5649 0.0184029
59.2939 57.0217 0.0233628
61.0841 54.3167 0.0223141
59.2488 55.1921 0.0208697
53.0432 69.0011 2
53.9677 66.0164 2
57.8825 60.8781 2
54.6848 63.2145 2
55.2129 60.6257 2
63.1972 48.6641 2
61.7474 52.5814 2
60.2767 50.0248 2
58.0218 58.2711 2
59.3343 53.9562 2
58.1319 55.8216 2
52.0714 67.0023 3.98988
52.9542 64.2239 3.98673
56.6504 59.4972 3.98098
53.6822 61.6304 3.98334
54.2619 59.3306 3.97989
60.9961 47.8852 3.97031
59.7146 52.112 3.97355
58.027 49.6242 3.97175
56.7804 56.9965 3.97521
57.1259 54.1297 3.97515
50.1102 67.8598 2
49.3379 65.926 3.9878
47.464 66.5863 2
46.893 64.7431 3.98651
45.5593 67.1033 3.9877
43.9741 69.5932 3.99027
46.0572 69.1613 2
46.6094 71.3686 3.9941
48.1036 68.5814 0.00982965
48.8031 70.7242 2
49.554 73.0099 4
50.9487 69.9328 0.00614194
51.8506 72.1455 2
54.0858 71.1327 0
53.0644 6.07022 3.99293
55.1037 7.13867 2
56.25 5.02411 4
58.3339 6.3199 2
57.0591 8.3342 0.00758001
60.3285 7.74928 0
66.0722 47.4198 0.0271241
67.2267 43.4715 0.0278151
64.6563 44.8513 0.0282804
65.5585 41.2116 0.0292761
67.8359 39.5131 0.0292056
70.1304 37.5218 0.02573
67.9323 37.5225 2
65.7893 39.3715 2
65.1794 43.0279 2
63.7585 40.9319 2
63.9692 46.7198 2
62.8115 44.2203 2
65.8924 37.5024 3.97007
63.8971 39.2683 3.97068
63.3327 42.5531 3.97124
62.4308 40.7004 3.97193
61.9719 45.9239 3.97201
61.4558 43.6878 3.97285
67.872 35.5477 0.0289697
67.2687 31.6217 0.0273271
65.7004 33.9269 0.0290569
64.6673 30.1905 0.0281869
60.7772 14.2177 0.0158571
60.6172 17.1192 0.0183985
60.2295 19.8075 0.0227088
63.5414 26.413 0.0279732
62.2614 28.7754 0.0277585
61.049 25.3343 0.0277007
59.6682 22.2511 0.0266202
58.9837 24.3142 0.0256519
57.9119 14.3239 0.0174834
55.3138 14.6362 0.0185782
54.0382 9.13169 0.0117656
54.7877 12.0042 0.0157448
65.878 35.6669 2
65.1901 32.1529 2
64.287 34.2495 2
62.5998 30.6339 2
59.313 15.66 2
59.1288 18.345 2
58.747 20.8442 2
61.6539 27.0694 2
60.8544 29.1375 2
58.2908 23.0848 2
59.3337 25.7916 2
57.9726 24.6589 2
56.6781 15.7322 2
54.3775 15.9869 2
53.8104 13.67 2
52.1128 8.14969 2
53.0585 11.0098 2
64.0913 35.6324 3.9705
62.9345 33.0455 3.97113
60.621 30.61 3.97283
59.5734 27.9061 3.97205
57.9424 16.974 3.98145
57.7424 25.7212 3.9739
57.7198 19.4661 3.97836
57.3761 21.8323 3.97189
57.1907 23.9415 3.97258
50.1128 7.28221 3.98902
51.2329 10.119 3.98588
52.1726 12.7884 3.98384
55.5395 16.9619 3.98149
52.9786 15.2523 3.9809
53.7599 16.9693 3.98138
53.0429 69.001 0.00630803
53.9678 66.0158 0.0104562
63.1974 48.664 0.0291061
54.6849 63.2135 0.0146059
57.8825 60.8772 0.0173978
55.2129 60.6245 0.0180714
61.7472 52.5807 0.0260096
60.2766 50.0246 0.0295241
58.0214 58.27 0.0211557
58.1316 55.8212 0.0253424
59.3339 53.9557 0.0229553
52.0713 67.0029 2
52.9539 64.2246 2
56.6505 59.4983 2
53.6821 61.6315 2
54.2618 59.3321 2
60.9959 47.8852 2
59.715 52.1124 2
58.0271 49.6243 2
56.7807 56.9981 2
57.1264 54.13 2
51.1688 65.1329 3.98747
52.0469 62.5459 3.98488
55.4832 58.2586 3.97977
52.8357 60.1444 3.98139
53.6419 58.4808 3.98008
58.3085 46.8555 3.97317
57.5632 51.794 3.97344
56.2475 49.5599 3.97746
55.4752 55.799 3.97405
55.3599 53.3871 3.97005
50.1103 67.8593 0.00994418
49.3377 65.9266 2
48.6188 64.1294 3.98608
47.4642 66.5857 0.0121106
45.559 67.1038 2
46.8929 64.7437 2
46.3824 63.062 3.98539
45.1333 65.2046 3.98658
43.6322 67.4741 3.98777
41.8611 69.8806 3.99014
43.9741 69.5936 2
44.3768 71.8634 3.99401
46.0572 69.1609 0.00966298
46.6097 71.3688 2
47.2057 73.7222 4
48.8028 70.7241 0.00602096
49.554 73.0099 2
51.8506 72.1454 0
50.954 5.13059 3.99315
53.0647 6.07013 2
54.0858 3.86728 4
55.1034 7.13872 0.00729847
56.25 5.02406 2
58.3339 6.31992 0
63.9694 46.7197 0.0280117
65.1794 43.0277 0.0289365
62.8116 44.2202 0.0281228
63.7586 40.9318 0.0287355
65.7893 39.3714 0.0298637
67.9323 37.5224 0.0290811
65.8923 37.5024 2
63.8971 39.2683 2
63.3327 42.5532 2
62.431 40.7004 2
61.9717 45.9239 2
61.4556 43.6878 2
63.9578 37.4578 3.97055
62.15 39.357 3.97159
61.2199 41.9621 3.97259
60.2563 44.7763 3.97377
65.878 35.6669 0.0297474
65.1899 32.1532 0.0288886
64.287 34.2495 0.0289192
62.5998 30.634 0.0281209
59.3132 15.6608 0.0176431
59.1286 18.346 0.0198875
58.7466 20.845 0.0253097
61.6539 27.0696 0.0285031
60.8545 29.1377 0.0275386
59.3339 25.7919 0.0262849
58.2907 23.0851 0.0275207
57.9727 24.659 0.024182
56.6784 15.7329 0.0184284
54.3778 15.9877 0.018833
53.8104 13.6709 0.0172858
52.1128 8.15022 0.0113248
53.0586 11.0105 0.0148734
64.0913 35.6324 2
62.9348 33.0454 2
60.621 30.6099 2
57.9423 16.9731 2
57.7202 19.465 2
57.3766 21.8317 2
59.5736 27.906 2
57.1908 23.9416 2
57.7422 25.721 2
50.1128 7.28175 2
55.5392 16.961 2
53.7596 16.9684 2
52.9784 15.2514 2
52.1725 12.7876 2
51.2328 10.1184 2
62.1862 35.3596 3.97116
60.2955 32.7445 3.97238
58.628 30.0728 3.97306
57.2917 27.3769 3.97352
56.6391 18.1461 3.98116
56.2953 25.0973 3.9734
56.3615 20.5122 3.97453
56.1128 22.8639 3.96911
48.0565 6.5253 3.9894
49.3247 9.32695 3.98629
50.4335 11.9866 3.98423
51.3784 14.4879 3.98252
54.417 17.9104 3.9817
52.3624 17.0245 3.98043
52.0714 67.0023 0.0101249
52.9542 64.2239 0.0132711
60.9961 47.8852 0.0296874
53.6822 61.6304 0.0166644
56.6504 59.4972 0.0190191
54.2619 59.3306 0.0201085
59.7146 52.112 0.0264529
58.027 49.6242 0.028251
56.7804 56.9965 0.0247938
57.1259 54.1297 0.0248482
51.1685 65.1335 2
52.0467 62.5468 2
55.4832 58.2601 2
52.8355 60.1456 2
53.6418 58.4822 2
58.3082 46.8555 2
57.5637 51.7942 2
56.2477 49.5597 2
55.4758 55.8 2
55.3606 53.3876 2
50.3469 63.3876 3.98564
51.2449 60.9441 3.98287
54.2218 57.2747 3.97942
52.314 58.6436 3.97955
56.718 44.1906 3.97576
55.4956 47.9033 3.97472
55.0699 51.3906 3.97106
54.0065 54.548 3.97255
49.3379 65.926 0.0122032
48.6186 64.13 2
47.9625 62.4829 3.9849
45.5593 67.1033 0.0122979
46.893 64.7431 0.013488
43.632 67.4746 2
46.3821 63.0627 2
45.1331 65.2052 2
45.9878 61.5956 3.98462
44.7676 63.4633 3.98598
43.3572 65.5145 3.98665
41.664 67.693 3.98765
39.7026 70.0278 3.98999
41.8612 69.8811 2
42.1111 72.2081 3.99388
43.9741 69.5932 0.00972511
44.377 71.8636 2
44.8159 74.2794 4
46.6094 71.3686 0.00590021
47.2057 73.7222 2
49.554 73.0099 0
48.7845 4.32159 3.99341
50.9543 5.13046 2
51.8506 2.85458 4
53.0644 6.07022 0.00707215
54.0858 3.86728 2
56.25 5.02411 0
61.9719 45.9239 0.0279917
63.3327 42.5531 0.028756
61.4558 43.6878 0.0271536
62.4308 40.7004 0.0280659
63.8971 39.2683 0.0293245
65.8924 37.5024 0.0299301
63.9576 37.4578 2
62.1499 39.357 2
61.22 41.9621 2
60.2561 44.7763 2
61.9841 37.4456 3.97148
60.2408 39.8502 3.97295
58.9949 42.9239 3.97354
64.0913 35.6324 0.0295046
62.9345 33.0455 0.0288659
60.621 30.61 0.0271706
57.9424 16.974 0.018551
57.7198 19.4661 0.0216364
57.3761 21.8323 0.0281109
59.5734 27.9061 0.0279501
57.7424 25.7212 0.0260952
57.1907 23.9415 0.0274201
55.5395 16.9619 0.0185072
53.7599 16.9693 0.0186189
52.9786 15.2523 0.0190995
50.1128 7.28221 0.0109799
52.1726 12.7884 0.0161644
51.2329 10.119 0.0141189
62.1859 35.3595 2
60.2958 32.7445 2
58.6279 30.0728 2
56.6391 18.1451 2
56.3621 20.5111 2
56.1133 22.8641 2
57.2925 27.3769 2
56.2951 25.0977 2
48.0565 6.5248 2
49.3246 9.32653 2
54.4169 17.9094 2
52.362 17.0237 2
51.3783 14.4871 2
50.4333 11.9859 2
59.8846 35.1199 3.97223
58.0003 32.2686 3.97417
56.5482 29.3365 3.97408
55.4473 26.594 3.97552
55.3448 19.1798 3.98045
54.9323 24.0532 3.96911
55.0047 21.5541 3.97303
45.9623 5.8803 3.98974
43.3735 7.47021 3.98759
47.355 8.62072 3.98673
48.6001 11.2881 3.98469
49.7143 13.7352 3.98328
50.6342 16.1216 3.98065
53.1264 18.6491 3.97901
51.3035 18.0373 3.98555
51.1688 65.1329 0.0125326
52.0469 62.5459 0.0151226
58.3085 46.8555 0.0268275
52.8357 60.1444 0.0186107
55.4832 58.2586 0.020228
53.6419 58.4808 0.0199226
57.5632 51.794 0.0265572
56.2475 49.5599 0.0225431
55.4752 55.799 0.025947
55.3599 53.3871 0.0299536
50.3466 63.3882 2
51.2447 60.945 2
54.2221 57.2762 2
52.3139 58.6447 2
56.7169 44.1905 2
55.4954 47.903 2
55.0705 51.3906 2
54.0072 54.5499 2
49.5924 61.7528 3.98427
55.6242 41.7122 3.97586
50.5679 59.3378 3.97984
52.187 56.4987 3.97599
54.1789 45.5713 3.97671
53.336 49.332 3.97448
52.6685 52.8498 3.96935
48.6188 64.1294 0.0139244
47.9622 62.4834 2
47.3297 61.0184 3.98413
43.6322 67.4741 0.0122326
45.1333 65.2046 0.013425
46.3824 63.062 0.0146136
41.6639 67.6936 2
43.357 65.5149 2
45.9877 61.5964 2
44.7673 63.4639 2
45.7667 60.6404 3.98374
44.4837 61.8457 3.98463
43.1469 63.736 3.98585
41.5466 65.6523 3.98649
39.6328 67.7728 3.98744
37.5259 70.0529 3.98985
39.7027 70.0283 2
39.8179 72.4052 3.99379
41.8611 69.8806 0.00986404
42.1113 72.2084 2
42.3947 74.6792 4
44.3768 71.8634 0.00598857
44.8159 74.2794 2
47.2057 73.7222 0
43.8516 5.3574 3.98992
46.5705 3.64612 3.99366
48.7847 4.3214 2
49.554 1.99015 4
50.954 5.13059 0.00684755
51.8506 2.85453 2
54.0858 3.86728 0
60.2563 44.7763 0.0262329
61.2199 41.9621 0.0274115
62.15 39.357 0.0284062
63.9578 37.4578 0.0294532
61.9841 37.4456 2
60.2405 39.8502 2
58.9944 42.9239 2
59.7436 37.5682 3.97234
57.9855 40.6615 3.97359
55.0922 39.7259 3.97519
62.1862 35.3596 0.0288442
60.2955 32.7445 0.0276196
58.628 30.0728 0.0269389
56.6391 18.1461 0.0188428
56.3615 20.5122 0.0254652
56.1128 22.8639 0.0308865
57.2917 27.3769 0.0264802
56.2953 25.0973 0.0265986
54.417 17.9104 0.018304
52.3624 17.0245 0.0195663
51.3784 14.4879 0.0174754
48.0565 6.5253 0.0106012
49.3247 9.32695 0.0137128
50.4335 11.9866 0.0157734
59.884 35.1198 2
45.9623 5.87982 2
43.3735 7.4698 2
58.0009 32.2686 2
56.5495 29.3365 2
55.3451 19.1787 2
55.0053 21.5527 2
54.9326 24.0539 2
55.4461 26.5945 2
47.3549 8.62017 2
48.5999 11.2878 2
53.1264 18.6481 2
51.3034 18.0368 2
50.634 16.1208 2
49.7141 13.7345 2
57.3859 34.7606 3.97495
55.731 31.5171 3.97525
54.4926 28.4 3.97642
53.7722 25.4935 3.97468
53.9716 20.1278 3.97994
53.5831 22.705 3.96896
41.3985 7.07561 3.98788
45.3596 7.9921 3.98698
42.8653 9.41163 3.98609
46.6663 10.649 3.98497
47.7455 13.0956 3.9834
48.9317 15.3926 3.98217
50.0072 17.6911 3.97978
51.6522 19.313 3.98797
50.3469 63.3876 0.0143644
51.2449 60.9441 0.0171262
56.718 44.1906 0.0242443
55.4956 47.9033 0.0252832
52.314 58.6436 0.0204549
54.2218 57.2747 0.0205819
55.0699 51.3906 0.028944
54.0065 54.548 0.02745
49.5921 61.7533 2
55.623 41.7122 2
50.5677 59.3388 2
52.1874 56.4999 2
54.1822 45.5711 2
53.337 49.3309 2
52.6695 52.8496 2
48.8496 60.2111 3.98283
52.5225 42.6495 3.97648
49.7905 57.6363 3.97843
50.5939 54.4336 3.97397
51.7988 47.2752 3.97642
51.2116 50.9446 3.96936
48.1448 43.8142 3.99204
47.9625 62.4829 0.0150974
47.3295 61.0188 2
46.6193 59.8054 3.98328
41.664 67.693 0.0123509
43.3572 65.5145 0.013346
44.7676 63.4633 0.0140228
45.9878 61.5956 0.0153777
39.6328 67.7733 2
41.5464 65.6527 2
45.7664 60.6411 2
43.1466 63.7364 2
44.4836 61.8463 2
44.624 60.3034 3.98403
42.9508 62.0946 3.98519
41.6003 63.8295 3.9858
39.6479 65.6205 3.98613
37.5632 67.7551 3.98742
31.6965 65.1391 3.98636
33.3916 67.4926 3.98737
35.3331 69.963 3.98982
37.526 70.0535 2
37.5095 72.4598 3.99366
39.7026 70.0278 0.0100148
39.818 72.4056 2
39.9526 74.9197 4
42.1111 72.2081 0.00611524
42.3947 74.6792 2
44.8159 74.2794 0
41.7361 4.96666 3.9901
43.8516 5.35699 2
44.3257 3.1094 3.99376
46.5707 3.64589 2
47.2057 1.27793 4
48.7845 4.32159 0.00659172
49.554 1.99013 2
51.8506 2.85458 0
58.9949 42.9239 0.0264644
60.2408 39.8502 0.0270469
61.9841 37.4456 0.0285162
59.7441 37.5682 2
57.9847 40.6615 2
55.0914 39.7259 2
56.8073 37.8985 3.97565
49.5609 41.3434 3.98733
53.1242 39.3101 3.97744
39.4418 6.79917 3.98797
59.8846 35.1199 0.0277669
58.0003 32.2686 0.0258253
56.5482 29.3365 0.0259233
55.3448 19.1798 0.0195504
55.0047 21.5541 0.0269722
54.9323 24.0532 0.0308881
55.4473 26.594 0.0244757
53.1264 18.6491 0.0209923
51.3035 18.0373 0.014447
50.6342 16.1216 0.0193473
45.9623 5.8803 0.0102644
49.7143 13.7352 0.0167242
47.355 8.62072 0.013266
48.6001 11.2881 0.0153141
43.3735 7.47021 0.0124079
57.3857 34.7606 2
41.3985 7.07508 2
45.3596 7.99163 2
42.8652 9.41119 2
55.7281 31.5174 2
54.4941 28.4005 2
53.9719 20.1265 2
53.5834 22.7015 2
53.7718 25.4939 2
46.6662 10.6484 2
47.7452 13.0952 2
51.6524 19.3126 2
50.0071 17.6903 2
48.9314 15.3917 2
54.8775 33.971 3.97617
53.4833 30.4825 3.97514
52.5832 27.1936 3.97556
52.1453 24.0906 3.97285
52.3923 21.049 3.98119
41.0132 9.04493 3.98598
44.7234 9.99203 3.98524
42.468 10.8978 3.98438
46.005 12.7239 3.98328
47.6817 14.5776 3.98304
48.1146 16.9813 3.97946
49.8187 19.5959 3.97625
49.5924 61.7528 0.0157345
50.5679 59.3378 0.0201642
55.6242 41.7122 0.0241421
54.1789 45.5713 0.0232882
53.336 49.332 0.0255229
52.187 56.4987 0.0240105
52.6685 52.8498 0.0306547
48.8493 60.2116 2
52.5232 42.6483 2
49.7905 57.6374 2
50.5945 54.4354 2
51.7982 47.2737 2
51.213 50.9432 2
48.1453 43.8209 2
47.9878 58.7533 3.98167
50.0792 45.2861 3.97544
48.5986 55.9272 3.97921
49.1275 52.5993 3.97341
49.6608 49.0512 3.97254
45.9664 39.8838 3.90013
46.3894 42.6997 3.9465
46.4788 45.8684 3.99603
43.8196 41.1835 3.89382
42.0191 42.0302 3.84765
47.3297 61.0184 0.0158679
46.6189 59.806 2
45.4691 58.8026 3.98381
39.6328 67.7728 0.0125568
41.5466 65.6523 0.0135127
43.1469 63.736 0.0141545
44.4837 61.8457 0.0153672
45.7667 60.6404 0.0162622
41.6 63.8299 2
37.5632 67.7557 2
39.6477 65.621 2
44.6238 60.304 2
42.9506 62.095 2
41.7538 62.5053 3.98539
42.4819 59.9967 3.98544
39.8937 63.5648 3.98543
37.6423 65.5195 3.98568
35.4631 67.6644 3.98736
33.5749 65.3525 3.98598
31.9588 63.3129 3.98552
29.8825 64.7301 3.98652
31.6966 65.1396 2
31.376 67.2024 3.98749
33.3917 67.4932 2
33.1557 69.7563 3.98984
35.3331 69.9636 2
35.1948 72.3742 3.99364
37.5259 70.0529 0.010146
37.5095 72.4601 2
37.5 75 4
39.8179 72.4052 0.00621152
39.9526 74.9197 2
42.3947 74.6792 0
39.6235 4.71381 3.99018
41.7361 4.96618 2
42.062 2.71707 3.99384
43.8516 5.3574 0.010079
44.3259 3.10917 2
44.8158 0.721173 4
46.5705 3.64612 0.00634315
47.2057 1.27779 2
49.554 1.99015 0
57.9855 40.6615 0.0264104
59.7436 37.5682 0.0276649
55.0922 39.7259 0.0248063
49.5708 41.3469 2
56.8076 37.8985 2
53.1233 39.3091 2
53.9747 36.6293 3.97725
47.4889 40.4319 3.94956
50.5074 38.5125 3.98341
37.5156 6.67018 3.98795
39.4419 6.79867 2
39.2106 8.68754 3.98622
35.941 8.48712 3.98644
57.3859 34.7606 0.0250515
55.731 31.5171 0.0247477
54.4926 28.4 0.0235756
53.9716 20.1278 0.0200639
53.5831 22.705 0.0310388
53.7722 25.4935 0.0253218
51.6522 19.313 0.0120252
50.0072 17.6911 0.0202236
48.9317 15.3926 0.0178325
45.3596 7.9921 0.0130197
47.7455 13.0956 0.016599
46.6663 10.649 0.0150345
41.3985 7.07561 0.0121178
42.8653 9.41163 0.0139079
54.8794 33.9709 2
41.0132 9.04443 2
44.7233 9.99163 2
42.4678 10.8974 2
53.4805 30.4821 2
52.5851 27.1944 2
52.3929 21.0485 2
52.1459 24.0912 2
46.0047 12.7233 2
47.6814 14.577 2
49.8188 19.5949 2
48.1144 16.9802 2
52.4312 32.873 3.97838
51.3091 29.1524 3.97432
50.7891 25.7197 3.97153
49.9418 22.178 3.97833
40.5688 11.6015 3.98396
43.8577 11.9133 3.98439
45.8031 15.4138 3.98215
47.5049 19.2149 3.97771
46.3018 37.5013 3.90688
48.8496 60.2111 0.0171737
49.7905 57.6363 0.0215735
52.5225 42.6495 0.0235214
51.7988 47.2752 0.0235817
51.2116 50.9446 0.03064
50.5939 54.4336 0.0260342
48.1448 43.8142 0.00796253
47.9875 58.7538 2
50.0829 45.2874 2
48.5988 55.9285 2
49.1284 52.602 2
49.662 49.0502 2
45.9833 39.8913 2
46.4031 42.7091 2
46.4786 45.8608 2
43.8355 41.1941 2
42.0246 42.0354 2
46.8395 57.3569 3.98382
44.5667 39.4686 3.8837
42.3772 40.8945 3.86806
48.0706 47.2523 3.97736
47.1669 54.26 3.97901
47.5826 50.7561 3.97454
44.7901 47.4465 3.99796
45.0594 41.98 3.90535
44.9089 44.6055 3.95168
42.6503 42.7109 3.89356
40.9027 42.379 3.87686
46.6193 59.8054 0.0167179
45.4686 58.8034 2
43.8772 57.7291 3.98474
37.5632 67.7551 0.0125774
39.6479 65.6205 0.0138693
41.6003 63.8295 0.0141984
42.9508 62.0946 0.0148132
44.624 60.3034 0.0159729
35.4631 67.665 2
41.7536 62.5057 2
39.8935 63.5652 2
37.6422 65.5201 2
42.4817 59.9972 2
40.6234 61.6645 3.98479
40.4459 58.2319 3.98593
37.8369 63.2261 3.98508
35.5727 65.4416 3.98576
33.575 65.353 2
31.9588 63.3134 2
33.6285 63.3528 3.98514
30.3777 62.8714 3.98575
32.1225 62.0204 3.98546
26.8673 61.5147 3.9849
28.0612 64.158 3.98631
29.8826 64.7306 2
29.4053 66.766 3.9876
31.6965 65.1391 0.0136421
31.3761 67.2029 2
31.0128 69.4212 3.98987
33.3916 67.4926 0.0126289
33.1557 69.7568 2
32.8918 72.1484 3.99366
35.3331 69.963 0.0101844
35.1948 72.3745 2
35.0474 74.9194 4
37.5095 72.4598 0.00633739
37.5 75 2
39.9526 74.9197 0
35.6201 6.72109 3.98802
37.5226 4.61326 3.99031
39.6236 4.71337 2
39.7884 2.47352 3.99394
41.7361 4.96666 0.00990226
42.0622 2.71679 2
42.3946 0.32156 4
44.3257 3.1094 0.00624207
44.8159 0.72056 2
47.2057 1.27793 0
49.5609 41.3434 0.0126651
56.8073 37.8985 0.0243479
53.1242 39.3101 0.0225552
47.4988 40.438 2
50.514 38.5132 2
53.9754 36.6296 2
51.3048 35.5833 3.97263
48.1472 37.7656 3.96826
45.972 35.1409 3.90525
43.824 33.8315 3.88963
42.0212 32.9875 3.84577
37.4573 8.52928 3.98611
37.5156 6.66963 2
39.4418 6.79917 0.0120292
39.2107 8.68701 2
38.9757 10.12 3.98578
35.8976 9.76667 3.98521
34.1494 8.81642 3.98636
35.941 8.4865 2
54.8775 33.971 0.0238323
53.4833 30.4825 0.0248624
52.5832 27.1936 0.0244422
52.3923 21.049 0.0188123
52.1453 24.0906 0.0271486
49.8187 19.5959 0.0237536
48.1146 16.9813 0.0205382
47.6817 14.5776 0.0169619
44.7234 9.99203 0.0147625
46.005 12.7239 0.0167233
41.0132 9.04493 0.0140169
42.468 10.8978 0.015618
52.4314 32.8726 2
40.5685 11.6011 2
43.8574 11.9129 2
51.3181 29.1528 2
50.7898 25.7213 2
49.9424 22.1768 2
45.8026 15.4131 2
47.505 19.2138 2
49.967 31.4088 3.96904
49.2796 27.4681 3.97659
49.4054 24.3911 3.97827
47.1884 21.9308 3.97545
38.301 12.7258 3.9845
42.1012 14.2966 3.98335
44.8015 18.4486 3.98188
44.851 37.5144 3.88271
46.3239 37.5081 2
47.9878 58.7533 0.0183316
48.5986 55.9272 0.0207897
50.0792 45.2861 0.0245612
49.6608 49.0512 0.0274555
49.1275 52.5993 0.026593
45.9664 39.8838 0.0998708
46.3894 42.6997 0.0535017
46.4788 45.8684 0.0039659
43.8196 41.1835 0.106178
42.0191 42.0302 0.152345
46.8391 57.3579 2
44.5798 39.4752 2
42.3754 40.8945 2
48.0727 47.2527 2
47.1672 54.2629 2
47.584 50.7581 2
44.794 47.423 2
45.0718 41.9893 2
44.9226 44.6183 2
42.6721 42.7272 2
40.9033 42.3781 2
45.3991 55.9452 3.98556
42.7138 39.2783 3.88185
40.8369 40.8204 3.92656
46.0841 48.9292 3.98398
45.541 52.5527 3.98039
43.4468 48.4774 4.01252
43.3512 46.1733 3.95859
43.6558 43.8 3.90324
41.1557 43.8892 3.89118
39.3032 42.7327 3.89328
45.4691 58.8026 0.0161916
43.8768 57.7293 2
42.1076 56.358 3.98754
35.4631 67.6644 0.0126432
37.6423 65.5195 0.0143213
39.8937 63.5648 0.0145671
41.7538 62.5053 0.0146071
42.4819 59.9967 0.0145613
35.5727 65.4422 2
40.6232 61.6648 2
37.8367 63.2264 2
40.4459 58.2324 2
38.9263 56.5301 3.99054
38.2505 60.3493 3.98534
35.6068 63.2196 3.98488
33.5749 65.3525 0.0140183
31.9588 63.3129 0.0144831
33.6285 63.3532 2
30.3777 62.8719 2
32.1225 62.0208 2
28.6801 62.2165 3.98549
33.3453 61.5337 3.98531
31.0655 61.238 3.98557
27.5663 59.6135 3.98326
23.789 59.0979 3.98218
25.0328 60.8868 3.98363
26.8675 61.5151 2
26.2277 63.4902 3.98608
28.0614 64.1584 2
27.4617 66.1898 3.98766
29.8825 64.7301 0.0134756
29.4054 66.7666 2
28.9049 68.9467 3.98994
31.376 67.2024 0.0125127
31.0128 69.4217 2
30.6142 71.7794 3.99372
33.1557 69.7563 0.0101576
32.8917 72.1487 2
32.6054 74.6784 4
35.1948 72.3742 0.00635702
35.0474 74.9197 2
37.5 75 0
33.7226 6.97555 3.98769
35.4339 4.68363 3.99027
35.62 6.72051 2
37.5139 2.38615 3.99403
37.5227 4.6128 2
39.6235 4.71381 0.00982382
39.7885 2.47323 2
39.9526 0.0806499 4
42.062 2.71707 0.00615944
42.3947 0.320817 2
44.8158 0.721173 0
44.5817 35.5488 3.88124
42.3834 34.1177 3.86636
47.4889 40.4319 0.0504409
50.5074 38.5125 0.0165949
53.9747 36.6293 0.0227503
48.1547 37.7676 2
51.3095 35.5825 2
45.9833 35.1291 2
43.8424 33.819 2
42.0274 32.9833 2
48.3254 34.2866 3.98804
45.0597 33.039 3.9022
42.6541 32.3085 3.89363
40.9036 32.6405 3.87624
37.3096 10.6233 3.98493
37.4573 8.52861 2
37.5156 6.67018 0.0120519
39.2106 8.68754 0.0137826
38.9757 10.1194 2
34.7526 10.372 3.9851
35.8976 9.76601 2
32.3759 9.36276 3.98589
34.1493 8.81571 2
35.941 8.48712 0.0135594
52.4312 32.873 0.0216212
51.3091 29.1524 0.0256788
50.7891 25.7197 0.0284718
49.9418 22.178 0.0216735
47.5049 19.2149 0.022293
45.8031 15.4138 0.0178451
43.8577 11.9133 0.01561
40.5688 11.6015 0.0160405
49.969 31.4063 2
38.3007 12.7255 2
42.1006 14.296 2
49.2798 27.4697 2
49.4059 24.3902 2
47.1893 21.9323 2
44.8015 18.4482 2
47.7826 29.5553 3.98474
47.1045 25.1232 3.98168
44.2914 21.2972 3.98071
36.5805 12.922 3.98397
38.6805 14.7938 3.98374
41.75 17.8235 3.98149
42.8662 37.4963 3.88061
44.8753 37.5098 2
46.3018 37.5013 0.093118
46.8395 57.3569 0.0161792
47.1669 54.26 0.0209877
48.0706 47.2523 0.0226434
47.5826 50.7561 0.0254552
44.5667 39.4686 0.116304
45.0594 41.98 0.0946452
44.9089 44.6055 0.0483188
44.7901 47.4465 0.00203611
42.6503 42.7109 0.106445
42.3772 40.8945 0.131941
40.9027 42.379 0.123142
45.3986 55.9461 2
42.7168 39.2773 2
40.8346 40.8174 2
46.0855 48.9302 2
45.5424 52.5564 2
43.4491 48.4971 2
43.3756 46.1898 2
43.6717 43.811 2
41.1723 43.8972 2
39.3029 42.7276 2
43.7376 54.4616 3.99288
40.9482 39.1831 3.95337
39.2061 40.9133 3.95457
43.6992 50.5309 3.9952
41.9578 47.712 3.98314
41.8673 45.2115 3.90394
39.4048 44.6245 3.90259
37.4915 42.8641 3.89964
43.8772 57.7291 0.0152617
42.1074 56.3578 2
40.4202 54.9695 3.98885
35.5727 65.4416 0.0142393
37.8369 63.2261 0.0149178
40.6234 61.6645 0.0152069
40.4459 58.2319 0.0140716
35.6067 63.2199 2
38.2503 60.3494 2
38.9259 56.5321 2
38.0003 55.2896 3.98816
36.9349 57.6565 3.98683
35.3632 60.9333 3.98527
33.6285 63.3528 0.014864
30.3777 62.8714 0.0142526
32.1225 62.0204 0.0145395
33.3453 61.5341 2
28.6802 62.2169 2
31.0655 61.2384 2
29.4016 60.3075 3.98484
32.3551 59.7673 3.98562
28.0188 58.3932 3.9839
27.5663 59.6138 2
25.3759 58.6112 3.98053
22.7522 58.2552 3.97734
23.3984 60.3652 3.98156
23.789 59.0986 2
25.0329 60.8874 2
24.4302 62.7822 3.98543
26.8673 61.5147 0.0150975
26.228 63.4906 2
25.5457 65.4997 3.98771
28.0612 64.158 0.0136911
27.4619 66.1903 2
26.8345 68.335 3.98997
29.4053 66.766 0.0124004
28.9049 68.9472 2
28.3692 71.2646 3.99378
31.0128 69.4212 0.0101321
30.614 71.7797 2
30.1842 74.2788 4
32.8918 72.1484 0.00633537
32.6053 74.6792 2
35.0474 74.9194 0
31.7869 7.41524 3.98748
33.3458 4.92275 3.9902
33.7225 6.97493 2
35.2441 2.4623 3.994
35.434 4.68314 2
35.6201 6.72109 0.0119804
37.5 0 4
37.514 2.38584 2
37.5226 4.61326 0.00969456
39.7884 2.47352 0.00606073
39.9526 0.0802889 2
42.3946 0.32156 0
42.7299 35.7224 3.88026
44.5954 35.5429 2
40.8436 34.1913 3.92504
42.3829 34.1183 2
48.1472 37.7656 0.0317384
51.3048 35.5833 0.0273691
45.972 35.1409 0.0947531
43.824 33.8315 0.110366
42.0212 32.9875 0.154233
48.3322 34.2793 2
45.0727 33.0282 2
42.6727 32.2956 2
40.9023 32.6406 2
46.305 31.5584 3.96945
43.6556 31.2265 3.90233
41.1661 31.1326 3.89043
39.3045 32.2763 3.89275
35.6907 11.7671 3.98402
37.3097 10.6228 2
37.4573 8.52928 0.0138887
38.9757 10.12 0.0142201
33.0963 11.2082 3.984
34.7526 10.3712 2
35.8976 9.76667 0.0147931
30.4805 10.0107 3.98532
32.3759 9.36204 2
34.1494 8.81642 0.0136433
49.967 31.4088 0.0309642
49.2796 27.4681 0.0234107
49.4054 24.3911 0.0217295
47.1884 21.9308 0.0245454
44.8015 18.4486 0.018118
42.1012 14.2966 0.0166495
38.301 12.7258 0.0154981
36.5802 12.9215 2
47.7829 29.5519 2
38.6798 14.7937 2
41.7497 17.8225 2
47.1056 25.1249 2
44.2922 21.2967 2
45.555 27.6492 4.00003
43.805 24.019 3.99789
41.3421 20.6987 3.98146
35.7703 14.7459 3.9836
38.6807 17.5779 3.98259
40.9952 37.4882 3.96407
42.8734 37.4981 2
44.851 37.5144 0.117287
45.3991 55.9452 0.0144355
45.541 52.5527 0.0196127
46.0841 48.9292 0.0160188
42.7138 39.2783 0.118148
43.6558 43.8 0.0967552
43.3512 46.1733 0.0414096
43.4468 48.4774 -0.012524
41.1557 43.8892 0.108823
40.8369 40.8204 0.0734419
39.3032 42.7327 0.106721
43.7375 54.4612 2
40.9469 39.1809 2
39.2035 40.9069 2
43.7011 50.5402 2
41.9617 47.7263 2
41.8897 45.2235 2
37.4929 42.8593 2
39.4233 44.6284 2
41.8833 53.0386 3.99627
39.2137 39.1828 3.9793
37.4926 40.9635 3.96454
35.6862 42.7317 3.89376
40.935 49.7651 4.00444
39.8003 46.1126 3.89006
37.4915 44.8737 3.90223
42.1076 56.358 0.0124554
40.4194 54.9704 2
38.7303 53.9033 3.99144
35.6068 63.2196 0.0151237
38.2505 60.3493 0.0146648
38.9263 56.5301 0.00946022
35.3631 60.9335 2
36.9344 57.6566 2
37.9994 55.2904 2
36.3188 55.4225 3.99208
34.4868 58.5472 3.98604
33.3453 61.5337 0.0146917
28.6801 62.2165 0.0145094
31.0655 61.238 0.0144339
32.3551 59.7676 2
29.4016 60.3077 2
30.2944 57.8409 3.98705
28.0188 58.3937 2
26.9391 56.8417 3.98042
27.5663 59.6135 0.0167381
25.3759 58.6117 2
23.8328 56.8195 3.97563
21.3281 57.4132 3.97709
21.9904 59.6363 3.9811
22.7521 58.2561 2
22.734 62.0328 3.98397
23.3984 60.366 2
23.789 59.0979 0.0178213
25.0328 60.8868 0.0163702
24.4304 62.7828 2
23.6796 64.7178 3.98728
26.2277 63.4902 0.0139228
25.5459 65.5002 2
24.8066 67.5961 3.98993
27.4617 66.1898 0.0123359
26.8344 68.3355 2
26.1644 70.6054 3.99383
28.9049 68.9467 0.0100638
28.369 71.2648 2
27.7943 73.7221 4
30.6142 71.7794 0.00628085
30.1841 74.2794 2
32.6054 74.6784 0
29.8093 7.98835 3.98703
31.2508 5.3299 3.98992
31.7868 7.41453 2
32.9798 2.70042 3.99393
33.3458 4.92219 2
33.7226 6.97555 0.0123124
35.0474 0.080333 4
35.2441 2.46199 2
35.4339 4.68363 0.00972655
37.5 0 2
37.5139 2.38615 0.00597496
39.9526 0.0806499 0
40.9558 35.8049 3.95412
42.7315 35.7248 2
44.5817 35.5488 0.118757
28.5412 10.6856 3.98541
39.2089 34.0975 3.95476
40.8416 34.1945 2
42.3834 34.1177 0.133645
48.3254 34.2866 0.0119615
45.0597 33.039 0.0978008
42.6541 32.3085 0.106374
40.9036 32.6405 0.123761
46.3184 31.552 2
43.6653 31.2149 2
41.1829 31.1204 2
39.3035 32.2805 2
44.4 29.7391 3.95528
41.882 29.811 3.90648
39.4175 30.3828 3.90313
37.4923 32.1413 3.90008
34.0904 12.9245 3.98349
35.6906 11.7664 2
37.3096 10.6233 0.0150748
31.1841 11.9761 3.9845
33.0963 11.2074 2
34.7526 10.372 0.0148973
30.4804 10.0098 2
32.3759 9.36276 0.0141081
47.7826 29.5553 0.0152638
47.1045 25.1232 0.0183154
36.5805 12.922 0.0160258
44.2914 21.2972 0.0192941
41.75 17.8235 0.0185102
38.6805 14.7938 0.0162629
35.7698 14.7455 2
45.5548 27.6458 2
38.6801 17.5776 2
41.3423 20.6964 2
43.8067 24.0232 2
33.6054 15.8618 3.98333
43.0659 26.4786 4.00168
40.9192 23.2661 3.9926
38.4216 20.3039 3.98383
35.8467 17.4914 3.98432
39.2234 37.4869 3.98613
40.9923 37.4881 2
42.8662 37.4963 0.11939
43.7376 54.4616 0.00711516
43.6992 50.5309 0.00479959
40.9482 39.1831 0.0466272
41.8673 45.2115 0.0960564
41.9578 47.712 0.0168623
39.4048 44.6245 0.0974133
39.2061 40.9133 0.04543
37.4915 42.8641 0.10036
41.8833 53.0399 2
39.213 39.1821 2
37.4925 40.9585 2
40.9374 49.77 2
35.6863 42.7284 2
39.8228 46.129 2
37.49 44.8706 2
39.827 51.9581 3.99784
37.4906 39.1937 3.98008
35.7802 40.9199 3.95394
34.0845 42.3731 3.87693
35.562 44.6267 3.90011
38.7252 48.7689 3.99429
37.4885 46.4403 3.89047
40.4202 54.9695 0.0111539
38.7293 53.9034 2
36.7206 53.2634 4.00457
35.3632 60.9333 0.0147323
36.9349 57.6565 0.0131718
38.0003 55.2896 0.011843
34.4866 58.5472 2
36.3181 55.4219 2
33.2224 55.5351 3.98807
32.3551 59.7673 0.0143847
29.4016 60.3075 0.0151579
30.2945 57.8413 2
28.682 55.3336 3.98002
28.0188 58.3932 0.0161027
26.9389 56.8421 2
25.3011 55.158 3.97649
21.7994 55.3594 3.97299
25.3759 58.6112 0.019469
23.8325 56.8203 2
20.2121 57.0421 3.97942
20.6409 58.7933 3.97977
21.3278 57.4141 2
21.164 61.1818 3.98291
21.9904 59.6372 2
22.7522 58.2552 0.0226617
21.893 63.8454 3.98648
22.7341 62.0336 2
23.3984 60.3652 0.0184412
24.4302 62.7822 0.0145701
23.6798 64.7184 2
22.8349 66.7396 3.98982
25.5457 65.4997 0.0122948
24.8067 67.5965 2
24.0086 69.8065 3.99377
26.8345 68.335 0.0100273
26.1641 70.6056 2
25.446 73.0099 4
28.3692 71.2646 0.00622073
27.7943 73.7222 2
30.1842 74.2788 0
27.819 8.6478 3.98681
29.1527 5.8756 3.98961
29.8092 7.98757 2
30.725 3.09759 3.99374
31.2508 5.3293 2
31.7869 7.41524 0.0125159
32.6053 0.320823 4
32.9797 2.7001 2
33.3458 4.92275 0.0098033
35.0474 0.0802903 2
35.2441 2.4623 0.00599893
37.5 0 0
39.2238 35.8033 3.97974
40.9542 35.8073 2
42.7299 35.7224 0.119743
28.5412 10.6849 2
26.62 11.3804 3.98524
29.2229 12.6321 3.98483
37.4933 34.0434 3.96507
39.2068 34.1026 2
40.8436 34.1913 0.0749575
46.305 31.5584 0.0305487
43.6556 31.2265 0.0976703
41.1661 31.1326 0.109575
39.3045 32.2763 0.107246
44.4173 29.7267 2
41.904 29.7956 2
39.433 30.3779 2
37.4928 32.1461 2
42.354 28.3757 3.94186
39.8415 28.8967 3.9024
37.5008 30.1232 3.90191
35.6839 32.2661 3.89219
31.9116 14.4686 3.984
34.0903 12.9238 2
35.6907 11.7671 0.0159788
31.1842 11.9753 2
33.0963 11.2082 0.0159951
30.4805 10.0107 0.0146828
45.555 27.6492 -2.60997e-05
43.805 24.019 0.00210613
35.7703 14.7459 0.0163973
41.3421 20.6987 0.0185413
38.6807 17.5779 0.0174067
33.605 15.8616 2
35.846 17.4913 2
43.0673 26.4765 2
38.4209 20.3035 2
40.92 23.2611 2
33.5475 17.369 3.98504
40.4411 25.6062 4.01162
38.0767 22.8291 3.99302
35.5823 20.055 3.9862
37.4948 37.4945 3.98009
39.2216 37.4864 2
40.9952 37.4882 0.0359302
41.8833 53.0386 0.00372961
40.935 49.7651 -0.00443709
39.2137 39.1828 0.0207016
39.8003 46.1126 0.109942
37.4915 44.8737 0.0977719
37.4926 40.9635 0.0354584
35.6862 42.7317 0.106244
39.8285 51.9605 2
37.4914 39.1927 2
35.7827 40.9152 2
38.7238 48.797 2
34.0853 42.3722 2
35.5512 44.6355 2
37.4863 46.4609 2
37.6679 51.061 4.00998
35.7727 39.1963 3.97979
34.1534 40.8238 3.9264
32.965 42.0237 3.84671
33.8135 43.8799 3.88922
35.159 46.1063 3.89884
36.8557 48.4207 3.98089
38.7303 53.9033 0.00856381
36.7203 53.262 2
34.3588 52.5153 3.98994
34.4868 58.5472 0.0139638
36.3188 55.4225 0.00792001
33.2222 55.5346 2
30.5101 53.4236 3.98304
30.2944 57.8409 0.0129513
28.6818 55.3345 2
26.8694 53.4481 3.97503
26.9391 56.8417 0.0195807
25.3009 55.1593 2
23.5602 53.4943 3.97166
20.4546 53.234 3.96877
19.9236 55.8442 3.97667
21.799 55.3603 2
23.8328 56.8195 0.0243675
19.433 57.9037 3.97875
20.2118 57.0428 2
19.7033 60.2148 3.98159
20.6408 58.7943 2
21.3281 57.4132 0.0229121
20.2054 62.8663 3.98502
21.1641 61.1827 2
21.9904 59.6363 0.0189024
20.9363 65.7685 3.98951
21.8932 63.8462 2
22.734 62.0328 0.0160265
23.6796 64.7178 0.0127238
22.8349 66.7401 2
21.9111 68.8735 3.99366
24.8066 67.5961 0.0100678
24.0083 69.8066 2
23.1494 72.1454 4
26.1644 70.6054 0.00616862
25.446 73.0099 2
27.7943 73.7221 0
25.8581 9.3756 3.98661
27.0674 6.53959 3.98929
27.8189 8.64702 2
28.4871 3.6435 3.99358
29.1526 5.87496 2
29.8093 7.98835 0.0129692
30.1841 0.720592 4
30.7248 3.09728 2
31.2508 5.3299 0.0100814
32.6053 0.320817 2
32.9798 2.70042 0.00607252
35.0474 0.080333 0
37.4973 35.8014 3.98098
39.2215 35.8032 2
40.9558 35.8049 0.0458803
24.7749 12.0631 3.9854
23.749 14.347 3.98439
28.5412 10.6856 0.0145866
26.6202 11.3799 2
29.223 12.6313 2
27.2891 13.3646 3.98462
29.7775 14.1906 3.98387
35.7834 34.0831 3.95449
37.4935 34.0481 2
39.2089 34.0975 0.0452449
37.4923 32.1413 0.0999188
44.4 29.7391 0.0447247
41.882 29.811 0.0935231
39.4175 30.3828 0.0968694
42.3723 28.362 2
39.8581 28.8784 2
37.503 30.1245 2
35.6854 32.2701 2
40.0417 27.5182 3.94301
37.5139 28.5581 3.89913
35.5735 30.3747 3.90348
34.0883 32.6201 3.87564
30.923 16.8234 3.98417
31.9116 14.4679 2
34.0904 12.9245 0.0165128
31.1841 11.9761 0.0154989
43.0659 26.4786 -0.00168243
40.9192 23.2661 0.00739794
33.6054 15.8618 0.0166679
35.8467 17.4914 0.0156798
38.4216 20.3039 0.0161705
33.5469 17.3692 2
35.5817 20.0544 2
40.4404 25.6032 2
38.0776 22.8295 2
32.8603 19.7724 3.98601
37.7991 25.1371 4.02225
35.2009 22.608 3.99014
35.7693 37.4983 3.98602
37.4949 37.4936 2
39.2234 37.4869 0.0138724
39.827 51.9581 0.00216176
38.7252 48.7689 0.00570628
37.4906 39.1937 0.0199184
37.4885 46.4403 0.109526
35.562 44.6267 0.0998933
35.7802 40.9199 0.0460579
34.0845 42.3731 0.123075
37.6698 51.0699 2
35.7752 39.1954 2
34.1557 40.8204 2
36.8553 48.4352 2
32.959 42.027 2
33.8019 43.8895 2
35.1381 46.1206 2
35.4501 50.1945 4.01409
34.046 39.1925 3.95388
32.6026 40.8921 3.86734
32.3269 42.7016 3.89336
33.121 45.1977 3.90533
34.2663 47.4815 3.95246
36.7206 53.2634 -0.00456653
34.3588 52.5157 2
31.9871 51.2311 3.99372
33.2224 55.5351 0.0119311
30.51 53.4249 2
28.4131 51.6275 3.97896
28.682 55.3336 0.0199754
26.8692 53.4487 2
25.0616 51.767 3.96948
25.3011 55.158 0.0235133
23.56 53.4942 2
21.9484 51.8164 3.96834
19.1867 51.6439 3.96919
18.9109 54.319 3.97143
20.4543 53.2337 2
18.4402 56.735 3.97885
19.9232 55.8447 2
21.7994 55.3594 0.027015
18.365 59.1209 3.9791
19.4328 57.9045 2
20.2121 57.0421 0.0205833
18.6164 61.7732 3.98346
19.7033 60.2158 2
20.6409 58.7933 0.0202348
19.1253 64.6792 3.98863
20.2056 62.8671 2
21.164 61.1818 0.0170906
19.8851 67.8101 3.99345
20.9364 65.7691 2
21.893 63.8454 0.013515
22.8349 66.7396 0.0101771
21.9108 68.8736 2
20.9142 71.1327 4
24.0086 69.8065 0.00622802
23.1494 72.1455 2
25.446 73.0099 0
23.0942 12.7776 3.98496
23.9706 10.162 3.98655
25.0211 7.30959 3.98916
25.8581 9.37495 2
26.2788 4.32769 3.99341
27.0672 6.53893 2
27.819 8.6478 0.0131882
27.7943 1.27781 4
28.4869 3.64322 2
29.1527 5.8756 0.0103891
30.1841 0.720551 2
30.725 3.09759 0.00625953
32.6053 0.320823 0
35.7735 35.8029 3.98021
37.4969 35.8009 2
39.2238 35.8033 0.0202598
24.7751 12.0627 2
23.7494 14.3468 2
22.4776 15.0233 3.98391
25.3552 13.8964 3.98422
24.022 15.6086 3.98341
26.62 11.3804 0.0147582
29.2229 12.6321 0.0151663
27.2893 13.3643 2
29.7776 14.1898 2
28.3533 15.9642 3.98423
34.1622 34.1766 3.925
35.7858 34.0882 2
37.4933 34.0434 0.0349264
35.6839 32.2661 0.107813
37.5008 30.1232 0.0980899
42.354 28.3757 0.0581377
39.8415 28.8967 0.0976029
40.0526 27.505 2
37.516 28.539 2
35.5596 30.369 2
34.0908 32.6199 2
37.6207 27.1894 3.94966
35.1695 28.8772 3.9002
33.8171 31.1164 3.8904
32.9754 32.9701 3.847
30.2043 19.3245 3.98629
30.9228 16.8231 2
31.9116 14.4686 0.0159996
40.4411 25.6062 -0.0116172
38.0767 22.8291 0.00698159
33.5475 17.369 0.0149593
35.5823 20.055 0.0137966
32.8591 19.7729 2
35.1995 22.6043 2
37.7921 25.1386 2
32.3065 22.3828 3.98836
34.9654 25.1319 4.01309
34.0003 37.498 3.96239
35.7714 37.4977 2
37.4948 37.4945 0.0199136
37.6679 51.061 -0.00997761
36.8557 48.4207 0.019109
35.7727 39.1963 0.0202053
35.159 46.1063 0.101155
33.8135 43.8799 0.11078
34.1534 40.8238 0.0736044
32.965 42.0237 0.153286
35.4487 50.2021 2
34.0498 39.1902 2
32.6027 40.8903 2
34.2596 47.5128 2
32.3096 42.7119 2
33.0996 45.2169 2
33.221 49.1878 4.00638
32.2609 39.2817 3.88159
31.1567 41.1761 3.89072
31.3309 43.7889 3.90169
32.2285 46.4045 3.95164
34.3588 52.5153 0.010058
31.9867 51.2347 2
29.8329 49.7412 3.98634
30.5101 53.4236 0.0169627
28.4128 51.6247 2
26.4845 50.0077 3.97091
26.8694 53.4481 0.02497
25.0615 51.7657 2
23.3204 50.2108 3.97348
23.5602 53.4943 0.0283393
21.9485 51.8158 2
20.4484 50.3262 3.97007
17.9748 50.3378 3.97236
17.8224 52.8001 3.97007
19.1867 51.6439 2
17.4284 55.3502 3.97503
18.9106 54.3194 2
20.4546 53.234 0.0312296
17.1299 57.8826 3.97964
18.4399 56.7357 2
19.9236 55.8442 0.0233272
17.1337 60.5559 3.98135
18.365 59.1217 2
19.433 57.9037 0.0212518
17.4058 63.4714 3.987
18.6164 61.7742 2
19.7033 60.2148 0.0184076
17.9412 66.6185 3.99315
19.1253 64.6799 2
20.2054 62.8663 0.0149767
18.75 69.9759 4
19.8848 67.8101 2
20.9363 65.7685 0.0104886
21.9111 68.8735 0.00633625
20.9142 71.1327 2
23.1494 72.1454 0
21.5849 13.5977 3.98448
22.1887 11.0211 3.98618
23.0945 12.7776 2
23.039 8.17492 3.98903
23.9707 10.1617 2
24.1164 5.14237 3.99329
25.021 7.30909 2
25.8581 9.3756 0.0133909
25.446 1.99014 4
26.2785 4.32746 2
27.0674 6.53959 0.010705
27.7943 1.27778 2
28.4871 3.6435 0.00642453
30.1841 0.720592 0
34.0432 35.8046 3.95185
35.7751 35.8028 2
37.4973 35.8014 0.0190202
21.3026 15.8191 3.98301
24.7749 12.0631 0.0146028
23.749 14.347 0.0156066
25.3555 13.8961 2
22.4781 15.0234 2
24.0225 15.6086 2
23.2611 16.24 3.98303
25.3772 16.0765 3.98412
27.2891 13.3646 0.0153786
29.7775 14.1906 0.0161347
28.3537 15.9638 2
27.4359 18.7851 3.98519
32.6224 34.1034 3.86819
34.1666 34.1787 2
35.7834 34.0831 0.0455137
34.0883 32.6201 0.124359
35.5735 30.3747 0.096515
37.5139 28.5581 0.100867
40.0417 27.5182 0.0569857
37.619 27.1583 2
32.9709 32.9673 2
35.1539 28.8574 2
33.8011 31.0986 2
35.0677 27.3198 3.95869
33.1182 29.7989 3.89975
32.329 32.2834 3.89056
29.5691 21.9173 3.99397
30.2038 19.3251 2
30.923 16.8234 0.0158317
37.7991 25.1371 -0.0222492
35.2009 22.608 0.00985981
32.8603 19.7724 0.0139866
32.3049 22.3839 2
34.9732 25.1342 2
31.673 25.5974 3.99969
32.1223 37.5013 3.8815
34.0047 37.4979 2
35.7693 37.4983 0.0139787
35.4501 50.1945 -0.014092
34.2663 47.4815 0.0475393
34.046 39.1925 0.0461175
33.121 45.1977 0.0946699
32.3269 42.7016 0.106644
32.6026 40.8921 0.132663
33.219 49.1742 2
32.2584 39.2784 2
31.1387 41.1834 2
32.2086 46.4213 2
31.3177 43.7999 2
31.1159 48.0106 3.99763
30.4033 39.4541 3.88251
29.9228 41.973 3.89996
30.3951 44.9807 3.95296
31.9871 51.2311 0.00627706
29.8323 49.7368 2
27.8417 48.2054 3.97461
28.4131 51.6275 0.0210419
26.4847 50.0057 2
24.622 48.4912 3.97902
25.0616 51.767 0.0305219
23.3208 50.2097 2
21.6331 48.8067 3.9737
21.9484 51.8164 0.0316595
20.4487 50.3261 2
19.0168 49.1031 3.97447
16.8825 49.3384 3.9753
16.7634 51.4135 3.97145
17.9753 50.3376 2
16.3809 53.8778 3.97253
17.8222 52.8005 2
19.1867 51.6439 0.0308089
15.9707 56.4836 3.97773
17.4281 55.3508 2
18.9109 54.319 0.0285727
15.7467 59.2163 3.98075
17.1298 57.8834 2
18.4402 56.735 0.021146
15.7864 62.1415 3.98471
17.1338 60.5568 2
18.365 59.1209 0.0208963
16.0879 65.3009 3.99254
17.4058 63.4722 2
18.6164 61.7732 0.0165409
16.6661 68.6801 4
17.9409 66.6185 2
19.1253 64.6792 0.011374
18.75 69.9759 2
19.8851 67.8101 0.00655214
20.9142 71.1327 0
20.2169 14.5865 3.98368
21.5853 13.5977 2
20.5279 11.9907 3.98555
21.142 9.14459 3.98901
22.1889 11.0209 2
23.0942 12.7776 0.015038
22.0154 6.08134 3.99318
23.039 8.1746 2
23.9706 10.162 0.0134545
23.1494 2.85457 4
24.116 5.14225 2
25.0211 7.30959 0.0108415
25.446 1.99012 2
26.2788 4.32769 0.00658625
27.7943 1.27781 0
32.2728 35.716 3.88132
34.0468 35.8065 2
35.7735 35.8029 0.0197861
21.3029 15.8185 2
20.2999 16.9535 3.98291
22.0942 16.6244 3.98171
25.3552 13.8964 0.0157793
22.4776 15.0233 0.0160867
24.022 15.6086 0.0165935
25.3777 16.0764 2
23.2616 16.24 2
24.2003 18.4391 3.98121
27.0063 21.4425 3.98671
28.3533 15.9642 0.0157657
27.4358 18.7851 2
31.1762 33.8199 3.89058
32.6224 34.1067 2
34.1622 34.1766 0.074998
32.9754 32.9701 0.153003
33.8171 31.1164 0.109597
35.1695 28.8772 0.099804
37.6207 27.1894 0.0503387
35.051 27.2986 2
32.3199 32.2834 2
33.0999 29.7759 2
32.5216 28.0532 3.97462
31.3215 31.2111 3.90176
28.7843 24.3832 3.98729
29.5673 21.9193 2
30.2043 19.3245 0.0137148
34.9654 25.1319 -0.0130945
32.3065 22.3828 0.0116422
31.6781 25.5848 2
29.6223 27.2911 3.97118
30.1267 37.4892 3.88147
32.1208 37.4996 2
34.0003 37.498 0.0376138
33.221 49.1878 -0.0063798
32.2285 46.4045 0.04836
32.2609 39.2817 0.118408
31.3309 43.7889 0.0983062
31.1567 41.1761 0.109275
31.1163 48.0103 2
30.3876 39.4646 2
29.91 41.9841 2
30.3757 44.9944 2
29.1455 46.5975 3.9979
29.0095 39.8609 3.90081
28.6491 43.187 3.95772
29.8329 49.7412 0.0136625
27.8416 48.1996 2
25.9145 46.6875 3.97806
26.4845 50.0077 0.0290937
24.6226 48.4896 2
22.7832 47.1014 3.97831
23.3204 50.2108 0.0265215
21.6333 48.8063 2
19.9632 47.633 3.97699
20.4484 50.3262 0.0299322
19.0177 49.1028 2
17.6588 48.1869 3.97512
16.134 48.6891 3.97601
16.883 49.3386 2
15.8416 50.1755 3.97379
15.3711 52.4208 3.9723
16.7637 51.4136 2
17.9748 50.3378 0.0276397
14.8627 54.9831 3.97505
16.3806 53.8784 2
17.8224 52.8001 0.0299292
14.4554 57.7449 3.97978
15.9704 56.4844 2
17.4284 55.3502 0.0249708
14.2645 60.6955 3.98343
15.7467 59.2173 2
17.1299 57.8826 0.0203599
14.3322 63.8601 3.99156
15.7864 62.1422 2
17.1337 60.5559 0.0186514
14.6715 67.2507 4
16.0875 65.3008 2
17.4058 63.4714 0.0129992
16.6661 68.6801 2
17.9412 66.6185 0.00685171
18.75 69.9759 0
18.9308 15.7742 3.98266
20.2171 14.5862 2
18.9776 13.1017 3.9847
21.5849 13.5977 0.0155188
20.5283 11.9906 2
19.3414 10.2322 3.98881
19.99 7.14599 3.99316
21.1421 9.14428 2
22.1887 11.0211 0.0138153
20.9142 3.86727 4
22.015 6.08137 2
23.039 8.17492 0.0109674
23.1494 2.85451 2
24.1164 5.14237 0.00671381
25.446 1.99014 0
30.4212 35.5433 3.88564
32.2721 35.718 2
34.0432 35.8046 0.0481545
21.3026 15.8191 0.0169899
22.0945 16.624 2
20.3 16.9528 2
19.2387 18.4008 3.9816
21.7785 17.8407 3.98217
25.3772 16.0765 0.015876
23.2611 16.24 0.0169709
24.2005 18.4393 2
22.2723 19.8829 3.9785
24.5836 21.3113 3.9822
26.4047 23.7075 3.98001
27.006 21.443 2
27.4359 18.7851 0.0148109
29.9339 33.0181 3.89999
31.1564 33.7993 2
32.6224 34.1034 0.131809
32.329 32.2834 0.109445
33.1182 29.7989 0.100246
35.0677 27.3198 0.0413055
32.5128 28.0454 2
31.3233 31.2071 2
30.0906 29.5168 3.96706
27.8613 26.525 3.97237
28.7859 24.3895 2
29.5691 21.9173 0.00603033
31.673 25.5974 0.000306096
29.6178 27.2532 2
28.6745 37.5028 3.90637
30.1113 37.4933 2
32.1223 37.5013 0.118499
31.1159 48.0106 0.00236781
30.3951 44.9807 0.0470358
30.4033 39.4541 0.117494
29.9228 41.973 0.100044
29.1462 46.6132 2
28.9955 39.8712 2
28.634 43.1987 2
27.2409 44.8571 3.98929
26.7823 40.6145 3.98054
27.8417 48.2054 0.025393
25.9141 46.6892 2
23.9755 45.2341 3.97673
24.622 48.4912 0.0209774
22.7835 47.1011 2
20.9136 45.913 3.97805
21.6331 48.8067 0.026302
19.9649 47.6325 2
18.3064 46.7468 3.97605
19.0168 49.1031 0.0255311
17.6592 48.1871 2
16.325 47.7193 3.97432
16.1344 48.6893 2
15.1889 49.0198 3.97476
16.8825 49.3384 0.0247034
15.8421 50.1756 2
14.4856 50.9885 3.97316
13.8255 53.4378 3.97388
15.3712 52.421 2
16.7634 51.4135 0.0285535
13.2506 56.1715 3.97777
14.8624 54.9838 2
16.3809 53.8778 0.0274693
12.8466 59.1289 3.98298
14.4553 57.7457 2
15.9707 56.4836 0.0222703
12.6778 62.3025 3.98999
14.2644 60.6961 2
15.7467 59.2163 0.0192467
12.7746 65.6939 4
14.3318 63.8598 2
15.7864 62.1415 0.0152914
14.6714 67.2507 2
16.0879 65.3009 0.00745507
16.6661 68.6801 0
17.6647 17.1501 3.98154
18.9309 15.7736 2
17.5093 14.3665 3.9835
20.2169 14.5865 0.0163242
18.9779 13.1011 2
17.6371 11.4512 3.98795
20.5279 11.9907 0.0144481
19.3417 10.2319 2
18.0501 8.33884 3.99311
18.75 5.0241 4
19.9896 7.14612 2
21.142 9.14459 0.0109917
20.9142 3.86727 2
22.0154 6.08134 0.00681635
23.1494 2.85457 0
29.0182 35.1136 3.9006
30.404 35.5352 2
32.2728 35.716 0.118682
22.0942 16.6244 0.0182889
20.2999 16.9535 0.0170924
21.7786 17.84 2
19.2388 18.4 2
17.9748 19.9342 3.97923
20.8709 19.3693 3.98078
24.2003 18.4391 0.0187902
22.2726 19.8823 2
24.5838 21.3122 2
22.3491 21.7094 3.98067
24.6842 23.1569 3.97804
25.4442 25.9354 3.96794
26.4068 23.7073 2
27.0063 21.4425 0.0132917
28.3102 32.2965 3.94736
29.9213 33.0146 2
31.1762 33.8199 0.109415
31.3215 31.2111 0.0982421
32.5216 28.0532 0.0253773
30.0694 29.5031 2
27.0001 29.1182 3.99255
27.8581 26.5227 2
28.7843 24.3832 0.012711
29.6223 27.2911 0.0288245
26.9022 37.3627 3.96218
28.6584 37.4968 2
30.1267 37.4892 0.118533
29.1455 46.5975 0.00210056
28.6491 43.187 0.0422833
29.0095 39.8609 0.0991925
27.2424 44.8608 2
26.7729 40.6254 2
25.2436 43.1875 3.97198
24.0283 39.4295 3.97548
25.9145 46.6875 0.0219416
23.9702 45.2353 2
21.8795 43.9655 3.97836
22.7832 47.1014 0.0216941
20.9171 45.9122 2
18.9605 44.9792 3.97679
19.9632 47.633 0.0230104
18.3072 46.7469 2
16.6128 46.218 3.97391
17.6588 48.1869 0.0248778
16.3253 47.7195 2
14.9191 47.6742 3.97316
16.134 48.6891 0.0239935
15.1894 49.0201 2
13.7844 49.5487 3.97332
15.8416 50.1755 0.0262122
14.486 50.9887 2
12.8931 51.876 3.97371
12.1388 54.5289 3.97632
13.8255 53.4383 2
15.3711 52.4208 0.027697
11.5313 57.4604 3.98162
13.2504 56.1725 2
14.8627 54.9831 0.0249539
11.1324 60.6284 3.98867
12.8465 59.1296 2
14.4554 57.7449 0.0202244
10.9835 64.0165 4
12.6773 62.3021 2
14.2645 60.6955 0.0165722
12.7745 65.694 2
14.3322 63.8601 0.00843669
14.6715 67.2507 0
16.397 18.6449 3.98033
17.6647 17.1494 2
16.1002 15.7758 3.98298
18.9308 15.7742 0.0173446
17.5095 14.3658 2
16.019 12.8049 3.98598
18.9776 13.1017 0.0153043
17.6374 11.4505 2
16.2012 9.662 3.99288
19.3414 10.2322 0.0111936
18.0498 8.33904 2
16.6661 6.31991 4
18.75 5.02404 2
19.99 7.14599 0.00683791
20.9142 3.86727 0
27.4103 34.7555 3.94745
29 35.1051 2
30.4212 35.5433 0.114355
16.676 21.3723 3.97513
21.7785 17.8407 0.0178327
19.2387 18.4008 0.0183985
20.8711 19.3685 2
17.9751 19.9334 2
19.717 21.5653 3.98113
22.2723 19.8829 0.0215047
24.5836 21.3113 0.0177952
22.3496 21.7086 2
24.6848 23.1571 2
22.8341 24.5942 3.97085
24.5416 28.5167 3.96774
25.4422 25.9334 2
26.4047 23.7075 0.0199889
26.1518 31.691 3.992
28.2958 32.2847 2
29.9339 33.0181 0.10001
30.0906 29.5168 0.0329367
27.0072 29.1184 2
27.8613 26.525 0.0276311
24.7218 36.8555 3.98145
26.8913 37.3636 2
28.6745 37.5028 0.0936262
27.2409 44.8571 0.0107104
26.7823 40.6145 0.0194628
25.2382 43.1918 2
24.0214 39.4308 2
22.948 41.8087 3.97975
21.7454 38.5012 3.97427
23.9755 45.2341 0.0232654
21.881 43.9665 2
19.7174 42.8949 3.97677
20.9136 45.913 0.0219548
18.9597 44.9793 2
16.9387 44.3845 3.97359
18.3064 46.7468 0.0239492
16.613 46.2182 2
14.8373 46.0942 3.97238
16.325 47.7193 0.0256847
14.9193 47.6745 2
13.292 48.0108 3.97254
15.1889 49.0198 0.0252444
13.7848 49.549 2
12.113 50.2538 3.9734
14.4856 50.9885 0.0268353
12.8934 51.8763 2
11.1351 52.8371 3.97556
10.3222 55.7116 3.98017
12.1388 54.5296 2
13.8255 53.4378 0.0261241
9.69901 58.8505 3.9873
11.531 57.4613 2
13.2506 56.1715 0.0222348
9.30605 62.2254 4
11.1317 60.6279 2
12.8466 59.1289 0.017021
10.9835 64.0165 2
12.6778 62.3025 0.0100131
12.7746 65.6939 0
15.1427 20.1809 3.97693
16.3971 18.6441 2
14.7457 17.299 3.98133
17.6647 17.1501 0.0184569
16.1003 15.7749 2
14.4816 14.2871 3.98464
17.5093 14.3665 0.0165047
16.0192 12.8042 2
14.4441 11.1132 3.99224
17.6371 11.4512 0.0120495
16.201 9.66214 2
14.6715 7.74927 4
18.0501 8.33884 0.00689011
16.6661 6.31988 2
18.75 5.0241 0
25.3615 34.2567 3.98756
27.3979 34.7522 2
29.0182 35.1136 0.0993976
17.8494 22.3181 3.98191
15.5227 22.9175 3.97156
16.6763 21.3714 2
20.8709 19.3693 0.0192159
17.9748 19.9342 0.0207739
19.7173 21.5644 2
19.6552 24.3752 3.97153
22.3491 21.7094 0.0193251
24.6842 23.1569 0.021956
22.8329 24.593 2
21.9102 27.8136 3.9702
23.7268 31.1773 3.9728
24.5462 28.5167 2
25.4442 25.9354 0.0320557
26.1511 31.6849 2
28.3102 32.2965 0.052637
27.0001 29.1182 0.00745292
22.4791 36.2718 3.97639
24.7118 36.8553 2
26.9022 37.3627 0.0378235
25.2436 43.1875 0.0280158
24.0283 39.4295 0.0245188
22.9466 41.8088 2
21.744 38.5015 2
20.6853 40.6345 3.97541
20.09 37.7812 3.97588
21.8795 43.9655 0.0216365
19.7188 42.8951 2
17.3466 42.1033 3.9738
18.9605 44.9792 0.0232074
16.9387 44.3846 2
14.8369 44.2032 3.97204
16.6128 46.218 0.0260935
14.8374 46.0944 2
12.9625 46.298 3.97215
14.9191 47.6742 0.026842
13.2922 48.0111 2
11.4851 48.5505 3.97256
13.7844 49.5487 0.0266788
12.1134 50.2541 2
10.2616 51.0803 3.97482
12.8931 51.876 0.0262908
11.1354 52.8376 2
9.23148 53.8892 3.97925
8.38269 56.9827 3.98619
10.3221 55.7122 2
12.1388 54.5289 0.0236819
7.74927 60.3285 4
9.69819 58.8495 2
11.5313 57.4604 0.0183767
9.306 62.2255 2
11.1324 60.6284 0.0113313
10.9835 64.0165 0
13.956 21.749 3.97415
15.1428 20.18 2
13.4467 18.8971 3.97904
16.397 18.6449 0.019669
14.7458 17.298 2
13.0269 15.8801 3.98377
16.1002 15.7758 0.017023
14.4817 14.2862 2
12.7815 12.6864 3.9911
16.019 12.8049 0.0140157
14.4438 11.1134 2
12.7746 9.30605 4
16.2012 9.662 0.00712073
14.6715 7.74924 2
16.6661 6.31991 0
23.0509 33.7934 3.97479
25.3498 34.2552 2
27.4103 34.7555 0.0525492
17.621 24.0393 3.97263
17.8496 22.3173 2
14.3051 24.4486 3.97254
15.5228 22.9165 2
16.676 21.3723 0.0248718
19.0287 27.1943 3.96984
19.717 21.5653 0.0188728
19.6544 24.375 2
21.1648 30.6544 3.97165
22.8341 24.5942 0.0291458
21.9118 27.8134 2
23.7184 31.1778 2
24.5416 28.5167 0.0322605
26.1518 31.691 0.00799942
20.2305 35.9186 3.97499
22.4775 36.2724 2
24.7218 36.8555 0.0185485
22.948 41.8087 0.0202488
21.7454 38.5012 0.0257309
20.6836 40.635 2
20.0884 37.7814 2
18.0643 39.0012 3.97417
19.7174 42.8949 0.0232285
17.3469 42.1034 2
14.7933 41.9197 3.97178
16.9387 44.3845 0.0264088
14.8368 44.2034 2
12.7016 44.3939 3.97149
14.8373 46.0942 0.0276151
12.9626 46.2983 2
10.9859 46.7347 3.97247
13.292 48.0108 0.0274586
11.4853 48.5508 2
9.52557 49.2398 3.97386
12.113 50.2538 0.0265955
10.262 51.0806 2
8.26489 52.0018 3.97837
11.1351 52.8371 0.0244449
9.23172 53.8893 2
7.19181 55.0323 3.98578
6.31991 58.3339 4
8.3819 56.9809 2
10.3222 55.7116 0.0198275
7.74924 60.3285 2
9.69901 58.8505 0.0127006
9.30605 62.2254 0
13.2256 25.3608 3.97644
12.8239 23.2786 3.97397
13.9562 21.7481 2
12.2328 20.5473 3.97712
15.1427 20.1809 0.0230713
13.4468 18.896 2
11.6567 17.5616 3.9827
14.7457 17.299 0.018666
13.0269 15.8792 2
11.219 14.3714 3.98952
14.4816 14.2871 0.0153581
12.7812 12.6867 2
10.9835 10.9835 4
14.4441 11.1132 0.00775989
12.7745 9.306 2
14.6715 7.74927 0
20.6004 33.388 3.9737
23.0512 33.7938 2
25.3615 34.2567 0.012436
15.8921 26.3966 3.97162
17.6206 24.0388 2
17.8494 22.3181 0.0180874
14.3051 24.448 2
15.5227 22.9175 0.0284384
18.3793 30.1653 3.97161
19.0287 27.1943 2
19.6552 24.3752 0.028474
21.166 30.6543 2
21.9102 27.8136 0.0298043
23.7268 31.1773 0.0271996
17.7052 35.961 3.97413
20.2314 35.9186 2
22.4791 36.2718 0.0236076
20.6853 40.6345 0.0245929
20.09 37.7812 0.0241225
18.0645 39.0014 2
14.321 39.1761 3.97227
17.3466 42.1033 0.0261956
14.7932 41.9198 2
12.3913 42.2778 3.97031
14.8369 44.2032 0.0279606
12.7016 44.3941 2
10.5625 44.8038 3.97179
12.9625 46.298 0.027848
10.9861 46.735 2
8.90779 47.3193 3.97355
11.4851 48.5505 0.0274393
9.52587 49.2401 2
7.43239 50.0348 3.97728
10.2616 51.0803 0.0251787
8.26526 52.0017 2
6.13254 53.0065 3.98579
9.23148 53.8892 0.0207545
7.1913 55.0301 2
5.0241 56.25 4
6.31988 58.3339 2
8.38269 56.9827 0.0138112
7.74927 60.3285 0
13.4637 26.8118 3.97074
11.938 24.7869 3.97353
13.2255 25.3603 2
11.1368 22.233 3.97565
12.8241 23.2778 2
13.956 21.749 0.0258467
12.233 20.5461 2
10.3873 19.3172 3.98124
13.4467 18.8971 0.0209625
11.6567 17.5605 2
9.75984 16.1552 3.98799
13.0269 15.8801 0.0162255
11.2185 14.3718 2
9.30607 12.7746 4
12.7815 12.6864 0.00890402
10.9835 10.9835 2
12.7746 9.30605 0
17.8677 33.1055 3.97329
20.6017 33.388 2
23.0509 33.7934 0.0252069
15.4846 29.632 3.97189
15.8916 26.3964 2
17.621 24.0393 0.0273668
14.3051 24.4486 0.0274562
18.3807 30.1654 2
19.0287 27.1943 0.0301615
21.1648 30.6544 0.0283499
14.9293 36.0162 3.97277
17.7057 35.9612 2
20.2305 35.9186 0.0250088
12.6071 37.8289 3.9722
18.0643 39.0012 0.0258316
14.3214 39.1762 2
11.9104 40.1409 3.9707
14.7933 41.9197 0.0282195
12.3911 42.2779 2
10.1634 42.7786 3.97
12.7016 44.3939 0.0285069
10.5625 44.8041 2
8.3854 45.3215 3.97308
10.9859 46.7347 0.0275261
8.90794 47.3195 2
6.72379 48 3.97683
9.52557 49.2398 0.0261389
7.43266 50.0347 2
5.20956 50.9095 3.9856
8.26489 52.0018 0.0216296
6.13233 53.0046 2
3.86727 54.0858 4
7.19181 55.0323 0.0142247
5.02404 56.25 2
6.31991 58.3339 0
12.9164 29.0302 3.9702
11.3689 26.4867 3.97153
13.4635 26.8115 2
10.1968 23.9672 3.97441
11.938 24.7863 2
13.2256 25.3608 0.0235567
9.24014 21.1371 3.97948
11.1372 22.2321 2
12.8239 23.2786 0.0260259
12.2328 20.5473 0.0228812
10.3874 19.3162 2
8.41572 18.0268 3.98686
11.6567 17.5616 0.0173019
9.75921 16.1559 2
7.74928 14.6715 4
11.219 14.3714 0.01048
9.30602 12.7745 2
10.9835 10.9835 0
14.4935 32.859 3.97247
17.87 33.1057 2
20.6004 33.388 0.0263039
15.485 29.6319 2
15.8921 26.3966 0.0283773
18.3793 30.1653 0.0283887
12.9014 36.208 3.97166
14.9298 36.0162 2
17.7052 35.961 0.025874
12.6074 37.8289 2
11.2686 38.3097 3.97119
14.321 39.1761 0.0277277
11.9106 40.141 2
9.75017 40.7546 3.96984
12.3913 42.2778 0.0296894
10.1633 42.7788 2
7.93579 43.2701 3.97143
10.5625 44.8038 0.0282148
8.38543 45.3218 2
6.12991 45.9054 3.97658
8.90779 47.3193 0.0264524
6.72393 48 2
4.42129 48.7504 3.98545
7.43239 50.0348 0.0227247
5.20946 50.9083 2
2.85457 51.8506 4
6.13254 53.0065 0.0142056
3.86727 54.0858 2
5.0241 56.25 0
12.0601 31.2543 3.971
10.7806 28.4139 3.97101
12.9163 29.03 2
9.41259 25.7981 3.97308
11.3688 26.4864 2
13.4637 26.8118 0.0292639
8.2279 23.023 3.97793
10.1971 23.9666 2
11.938 24.7869 0.0264721
7.19802 19.9777 3.98592
9.24053 21.1365 2
11.1368 22.233 0.0243487
10.3873 19.3172 0.0187567
8.41509 18.0282 2
6.31992 16.6661 4
9.75984 16.1552 0.0120063
7.74926 14.6714 2
9.30607 12.7746 0
12.0897 34.2933 3.97171
14.4932 32.859 2
17.8677 33.1055 0.0267094
15.4846 29.632 0.0281067
10.8327 36.6107 3.97113
12.9018 36.2081 2
14.9293 36.0162 0.0272268
12.6071 37.8289 0.0277992
11.2687 38.3097 2
9.34538 38.8236 3.9701
11.9104 40.1409 0.029301
9.75035 40.7547 2
7.54847 41.2111 3.97061
10.1634 42.7786 0.0299971
7.93572 43.2703 2
5.6426 43.7683 3.9756
8.3854 45.3215 0.0269211
6.12996 45.9054 2
3.76701 46.5366 3.98524
6.72379 48 0.0231738
4.42127 48.7499 2
1.99014 49.554 4
5.20956 50.9095 0.0143995
2.85451 51.8506 2
3.86727 54.0858 0
10.9202 32.918 3.9715
10.094 30.3812 3.97054
12.0599 31.2542 2
8.72062 27.7317 3.97271
10.7805 28.4137 2
12.9164 29.0302 0.0297967
7.354 24.9826 3.97672
9.41264 25.7977 2
11.3689 26.4867 0.0284651
6.11514 22.0023 3.98551
8.2283 23.0227 2
10.1968 23.9672 0.025594
5.02411 18.75 4
7.19766 19.9795 2
9.24014 21.1371 0.0205202
8.41572 18.0268 0.0131414
6.3199 16.6661 2
7.74928 14.6715 0
10.4413 34.9994 3.97097
12.0897 34.2932 2
14.4935 32.859 0.0275307
9.01696 36.985 3.97013
10.8331 36.6108 2
12.9014 36.208 0.0283359
11.2686 38.3097 0.0288131
9.34538 38.8237 2
7.2297 39.1819 3.97059
9.75017 40.7546 0.0301622
7.54863 41.2111 2
5.25891 41.614 3.97424
7.93579 43.2701 0.0285678
5.64254 43.7683 2
3.24503 44.2818 3.98437
6.12991 45.9054 0.0234168
3.76704 46.5365 2
1.27781 47.2057 4
4.42129 48.7504 0.0145532
1.99012 49.554 2
2.85457 51.8506 0
10.0872 33.8808 3.97134
9.38732 32.1538 3.97111
10.9201 32.9179 2
8.07021 29.6953 3.972
10.0938 30.3811 2
12.0601 31.2543 0.0290019
6.5979 27.0087 3.97627
8.72059 27.7315 2
10.7806 28.4139 0.028986
5.17065 24.0958 3.98531
7.35419 24.9825 2
9.41259 25.7981 0.0269172
3.86728 20.9142 4
6.11504 22.0038 2
8.2279 23.023 0.0220715
5.02406 18.75 2
7.19802 19.9777 0.0140797
6.31992 16.6661 0
8.84339 35.2792 3.97035
10.4413 34.9994 2
12.0897 34.2933 0.0282928
7.01349 37.2058 3.97069
9.01698 36.985 2
10.8327 36.6107 0.028873
9.34538 38.8236 0.0298969
7.22974 39.1819 2
4.98733 39.4673 3.97357
7.54847 41.2111 0.0293945
5.25907 41.6139 2
2.85589 42.0023 3.9832
5.6426 43.7683 0.0243983
3.24503 44.282 2
0.720592 44.8159 4
3.76701 46.5366 0.0147581
1.27778 47.2057 2
1.99014 49.554 0
8.88404 33.6973 3.97135
10.0872 33.8808 2
7.5082 31.609 3.97217
9.3872 32.1537 2
10.9202 32.918 0.0285029
5.94337 29.0697 3.97576
8.07011 29.6952 2
10.094 30.3812 0.0294637
4.35848 26.2483 3.98509
6.59795 27.0087 2
8.72062 27.7317 0.0272904
2.85458 23.1494 4
5.1706 24.0966 2
7.354 24.9826 0.0232781
3.86728 20.9142 2
6.11514 22.0023 0.0144873
5.02411 18.75 0
6.96381 35.306 3.97065
8.84351 35.2791 2
10.4413 34.9994 0.0290339
4.83749 37.3398 3.97396
7.01352 37.2059 2
9.01696 36.985 0.0298664
7.2297 39.1819 0.0294094
4.98736 39.4673 2
2.60425 39.714 3.98245
5.25891 41.614 0.0257608
2.85608 42.0025 2
0.320823 42.3947 4
3.24503 44.2818 0.0156324
0.720551 44.8159 2
1.27781 47.2057 0
7.1227 33.4608 3.97191
8.88403 33.6972 2
10.0872 33.8808 0.0286608
5.41469 31.1337 3.97547
7.50805 31.6089 2
9.38732 32.1538 0.0288914
3.68041 28.4439 3.98463
5.9433 29.0698 2
8.07021 29.6953 0.0280045
1.99015 25.446 4
4.35847 26.2486 2
6.5979 27.0087 0.0237275
2.85453 23.1494 2
5.17065 24.0958 0.0146911
3.86728 20.9142 0
4.85184 35.2517 3.97396
6.96394 35.306 2
8.84339 35.2792 0.0296485
2.49566 37.4286 3.98279
4.83753 37.34 2
7.01349 37.2058 0.0293075
4.98733 39.4673 0.0264313
2.60434 39.7144 2
0.080333 39.9526 4
2.85589 42.0023 0.016797
0.320817 42.3947 2
0.720592 44.8159 0
5.0446 33.1903 3.97499
7.12268 33.4607 2
8.88404 33.6973 0.0286483
3.14497 30.6663 3.98389
5.41453 31.1338 2
7.5082 31.609 0.027834
1.27793 27.7943 4
3.68041 28.4439 2
5.94337 29.0697 0.0242365
1.99013 25.446 2
4.35848 26.2483 0.0149083
2.85458 23.1494 0
2.54781 35.1591 3.98281
4.85198 35.2518 2
6.96381 35.306 0.0293515
0 37.5 4
2.49578 37.4289 2
4.83749 37.3398 0.0260421
2.60425 39.714 0.0175544
0.0802903 39.9526 2
0.320823 42.3947 0
2.7652 32.9058 3.98335
5.04458 33.1905 2
7.1227 33.4608 0.0280934
0.721173 30.1842 4
3.14494 30.6664 2
5.41469 31.1337 0.0245342
1.27779 27.7943 2
3.68041 28.4439 0.0153697
1.99015 25.446 0
0.0806499 35.0474 4
2.54798 35.1595 2
4.85184 35.2517 0.0260439
0 37.5 2
2.49566 37.4286 0.0172127
0.080333 39.9526 0
0.32156 32.6054 4
2.76526 32.9062 2
5.0446 33.1903 0.0250141
0.72056 30.1841 2
3.14497 30.6663 0.0161147
1.27793 27.7943 0
0.0802889 35.0474 2
2.54781 35.1591 0.0171917
0 37.5 0
0.320817 32.6053 2
2.7652 32.9058 0.0166536
0.721173 30.1842 0
0.0806499 35.0474 0
0.32156 32.6054 0
CELLS 1910 17190
8 18 6 25 56 2 0 5 16
8 57 23 6 18 17 4 0 2
8 78 36 9 29 31 11 1 7
8 31 11 1 7 79 37 10 30
8 110 57 18 50 48 17 2 14
8 50 18 56 111 14 2 16 49
8 116 62 22 55 52 20 3 15
8 56 25 67 118 16 5 24 53
8 119 63 23 57 54 21 4 17
8 55 22 63 119 15 3 21 54
8 58 26 68 121 18 6 25 56
8 122 65 26 58 57 23 6 18
8 73 31 7 27 142 79 30 71
8 143 78 29 72 73 31 7 27
8 83 147 76 34 32 74 28 8
8 84 148 78 36 33 75 29 9
8 76 34 8 28 148 84 33 75
8 37 79 150 86 10 30 77 35
8 151 87 36 78 80 38 11 31
8 80 38 11 31 152 88 37 79
8 175 100 42 94 96 44 12 40
8 44 96 176 101 12 40 95 43
8 101 176 98 46 43 95 41 13
8 46 98 178 103 13 41 97 45
8 178 103 45 97 147 83 32 74
8 189 116 55 109 106 52 15 47
8 111 56 118 191 49 16 53 107
8 192 119 57 110 108 54 17 48
8 109 55 119 192 47 15 54 108
8 194 122 58 112 110 57 18 50
8 112 58 121 195 50 18 56 111
8 115 61 19 51 197 124 59 113
8 115 61 125 198 51 19 60 114
8 198 125 62 116 114 60 20 52
8 200 127 64 120 116 62 22 55
8 118 67 132 202 53 24 66 117
8 121 68 133 203 56 25 67 118
8 120 64 128 204 55 22 63 119
8 204 128 65 122 119 63 23 57
8 206 134 68 121 123 69 26 58
8 123 69 26 58 207 131 65 122
8 226 147 74 138 140 76 28 70
8 229 148 75 139 143 78 29 72
8 140 76 28 70 229 148 75 139
8 142 79 30 71 231 150 77 141
8 144 80 31 73 232 152 79 142
8 233 151 78 143 144 80 31 73
8 150 86 35 77 235 154 81 145
8 235 154 81 145 146 82 39 91
8 146 82 39 91 236 155 90 165
8 238 157 83 147 149 85 34 76
8 239 158 84 148 151 87 36 78
8 149 85 34 76 239 158 84 148
8 152 88 37 79 241 160 86 150
8 242 161 87 151 153 89 38 80
8 153 89 38 80 243 162 88 152
8 171 98 41 92 265 178 97 169
8 265 178 97 169 226 147 74 138
8 172 96 40 93 266 176 95 170
8 266 176 95 170 171 98 41 92
8 269 175 94 173 172 96 40 93
8 271 180 99 174 175 100 42 94
8 197 124 59 113 271 180 99 174
8 272 181 100 175 177 102 44 96
8 273 182 101 176 179 104 46 98
8 177 102 44 96 273 182 101 176
8 179 104 46 98 275 184 103 178
8 275 184 103 178 238 157 83 147
8 188 115 51 105 283 197 113 186
8 188 115 198 284 105 51 114 187
8 284 198 116 189 187 114 52 106
8 286 200 120 193 189 116 55 109
8 191 118 202 288 107 53 117 190
8 195 121 203 289 111 56 118 191
8 193 120 204 290 109 55 119 192
8 290 204 122 194 192 119 57 110
8 196 123 58 112 292 207 122 194
8 293 206 121 195 196 123 58 112
8 199 126 61 115 297 211 124 197
8 298 212 127 200 198 125 62 116
8 199 126 212 298 115 61 125 198
8 205 129 64 120 300 214 127 200
8 301 217 130 201 202 132 66 117
8 209 136 168 264 301 217 130 201
8 302 219 132 202 203 133 67 118
8 303 220 133 203 206 134 68 121
8 205 129 215 304 120 64 128 204
8 304 215 131 207 204 128 65 122
8 306 221 134 206 208 135 69 123
8 208 135 69 123 307 218 131 207
8 210 137 167 263 309 223 136 209
8 328 238 147 226 230 149 76 140
8 228 146 91 166 329 236 165 260
8 231 150 77 141 330 235 145 227
8 330 235 145 227 228 146 91 166
8 332 239 148 229 233 151 78 143
8 230 149 76 140 332 239 148 229
8 232 152 79 142 334 241 150 231
8 234 153 80 144 335 243 152 232
8 336 242 151 233 234 153 80 144
8 236 155 90 165 338 245 164 259
8 241 160 86 150 339 246 154 235
8 339 246 154 235 237 156 82 146
8 237 156 82 146 340 247 155 236
8 342 249 157 238 240 159 85 149
8 343 250 158 239 242 161 87 151
8 240 159 85 149 343 250 158 239
8 243 162 88 152 345 252 160 241
8 244 163 253 346 153 89 161 242
8 244 163 89 153 347 254 162 243
8 311 224 261 371 210 137 167 263
8 263 167 262 372 209 136 168 264
8 267 179 98 171 375 275 178 265
8 375 275 178 265 328 238 147 226
8 376 273 176 266 267 179 98 171
8 268 177 96 172 376 273 176 266
8 379 272 175 269 268 177 96 172
8 380 271 174 270 269 175 94 173
8 283 197 113 186 380 271 174 270
8 381 277 180 271 272 181 100 175
8 297 211 124 197 381 277 180 271
8 382 278 181 272 274 183 102 177
8 274 183 102 177 383 279 182 273
8 383 279 182 273 276 185 104 179
8 385 281 184 275 342 249 157 238
8 276 185 104 179 385 281 184 275
8 285 199 115 188 393 297 197 283
8 394 298 200 286 284 198 116 189
8 285 199 298 394 188 115 198 284
8 291 205 120 193 396 300 200 286
8 397 301 201 287 288 202 117 190
8 295 209 264 374 397 301 201 287
8 398 302 202 288 289 203 118 191
8 399 303 203 289 293 206 121 195
8 291 205 304 400 193 120 204 290
8 400 304 207 292 290 204 122 194
8 294 208 123 196 402 307 207 292
8 403 306 206 293 294 208 123 196
8 296 210 263 373 405 309 209 295
8 408 312 213 299 297 211 126 199
8 299 213 313 409 199 126 212 298
8 409 313 214 300 298 212 127 200
8 305 216 129 205 411 315 214 300
8 412 318 217 301 302 219 132 202
8 309 223 136 209 412 318 217 301
8 413 320 219 302 303 220 133 203
8 306 221 321 414 206 134 220 303
8 307 218 131 207 415 316 215 304
8 305 216 316 415 205 129 215 304
8 417 322 221 306 308 222 135 208
8 308 222 135 208 418 319 218 307
8 310 225 137 210 420 325 223 309
8 423 326 224 311 310 225 137 210
8 329 236 165 260 441 338 259 368
8 442 342 238 328 333 240 149 230
8 331 237 146 228 443 340 236 329
8 334 241 150 231 444 339 235 330
8 444 339 235 330 331 237 146 228
8 446 343 239 332 336 242 151 233
8 333 240 149 230 446 343 239 332
8 335 243 152 232 448 345 241 334
8 337 244 153 234 449 347 243 335
8 337 244 346 450 234 153 242 336
8 338 245 164 259 452 349 258 367
8 340 247 155 236 453 350 245 338
8 345 252 160 241 454 351 246 339
8 454 351 246 339 341 248 156 237
8 341 248 156 237 455 352 247 340
8 240 159 251 344 342 249 354 457
8 242 161 253 346 343 250 355 458
8 343 250 355 458 240 159 251 344
8 347 254 162 243 460 357 252 345
8 348 255 358 461 244 163 253 346
8 348 255 163 244 462 359 254 347
8 473 360 257 365 363 256 364 482
8 452 349 258 367 365 257 366 485
8 422 324 369 488 311 224 261 371
8 371 261 370 490 263 167 262 372
8 407 311 371 491 296 210 263 373
8 373 263 372 492 295 209 264 374
8 493 385 275 375 442 342 238 328
8 377 276 179 267 493 385 275 375
8 378 274 177 268 494 383 273 376
8 494 383 273 376 377 276 179 267
8 497 382 272 379 378 274 177 268
8 498 381 271 380 379 272 175 269
8 393 297 197 283 498 381 271 380
8 499 387 277 381 382 278 181 272
8 408 312 211 297 499 387 277 381
8 500 388 278 382 384 280 183 274
8 501 389 279 383 386 282 185 276
8 384 280 183 274 501 389 279 383
8 386 282 185 276 503 391 281 385
8 503 391 281 385 457 354 249 342
8 511 408 299 395 393 297 199 285
8 395 299 409 512 285 199 298 394
8 512 409 300 396 394 298 200 286
8 401 305 205 291 514 411 300 396
8 515 412 301 397 398 302 202 288
8 405 309 209 295 515 412 301 397
8 516 413 302 398 399 303 203 289
8 403 306 414 517 293 206 303 399
8 402 307 207 292 518 415 304 400
8 401 305 415 518 291 205 304 400
8 404 308 208 294 520 418 307 402
8 521 417 306 403 404 308 208 294
8 406 310 210 296 523 420 309 405
8 526 423 311 407 406 310 210 296
8 410 314 213 299 527 424 312 408
8 528 425 315 411 409 313 214 300
8 410 314 425 528 299 213 313 409
8 416 317 216 305 530 427 315 411
8 531 430 318 412 413 320 219 302
8 420 325 223 309 531 430 318 412
8 532 432 320 413 414 321 220 303
8 417 322 433 533 306 221 321 414
8 418 319 218 307 534 428 316 415
8 416 317 428 534 305 216 316 415
8 419 323 434 536 308 222 322 417
8 419 323 222 308 537 431 319 418
8 421 327 225 310 539 438 325 420
8 421 327 439 541 310 225 326 423
8 543 437 324 422 423 326 224 311
8 441 338 259 368 559 452 367 486
8 443 340 236 329 560 453 338 441
8 333 240 344 447 442 342 457 561
8 445 341 237 331 562 455 340 443
8 448 345 241 334 563 454 339 444
8 563 454 339 444 445 341 237 331
8 336 242 346 450 446 343 458 565
8 446 343 458 565 333 240 344 447
8 449 347 243 335 567 460 345 448
8 451 348 244 337 568 462 347 449
8 451 348 461 569 337 244 346 450
8 570 463 349 452 473 360 257 365
8 453 350 245 338 570 463 349 452
8 455 352 247 340 571 464 350 453
8 460 357 252 345 572 465 351 454
8 572 465 351 454 456 353 248 341
8 456 353 248 341 573 466 352 455
8 344 251 356 459 457 354 468 575
8 458 355 469 576 344 251 356 459
8 346 253 358 461 458 355 469 576
8 462 359 254 347 578 471 357 460
8 348 255 359 462 461 358 472 579
8 591 474 360 473 475 361 256 363
8 475 361 256 363 594 477 362 479
8 363 256 364 482 479 362 480 603
8 590 473 365 484 481 363 482 605
8 482 364 257 365 606 483 366 485
8 559 452 367 486 484 365 485 607
8 542 436 487 609 422 324 369 488
8 525 422 488 611 407 311 371 491
8 488 369 489 612 371 261 370 490
8 491 371 490 613 373 263 372 492
8 495 386 276 377 614 503 385 493
8 614 503 385 493 561 457 342 442
8 615 501 383 494 495 386 276 377
8 496 384 274 378 615 501 383 494
8 618 500 382 497 496 384 274 378
8 619 499 381 498 497 382 272 379
8 511 408 297 393 619 499 381 498
8 620 505 387 499 500 388 278 382
8 527 424 312 408 620 505 387 499
8 502 390 506 621 384 280 388 500
8 622 507 389 501 504 392 282 386
8 502 390 280 384 622 507 389 501
8 504 392 282 386 624 509 391 503
8 624 509 391 503 575 468 354 457
8 513 410 299 395 630 527 408 511
8 631 528 411 514 512 409 300 396
8 513 410 528 631 395 299 409 512
8 519 416 305 401 633 530 411 514
8 634 531 412 515 516 413 302 398
8 523 420 309 405 634 531 412 515
8 635 532 413 516 517 414 303 399
8 521 417 533 636 403 306 414 517
8 520 418 307 402 637 534 415 518
8 519 416 534 637 401 305 415 518
8 522 419 308 404 639 537 418 520
8 522 419 536 640 404 308 417 521
8 524 421 310 406 642 539 420 523
8 524 421 541 644 406 310 423 526
8 646 543 422 525 526 423 311 407
8 529 426 314 410 647 544 424 527
8 528 425 545 648 411 315 427 530
8 529 426 545 648 410 314 425 528
8 535 429 317 416 649 546 427 530
8 650 548 430 531 532 432 320 413
8 539 438 325 420 650 548 430 531
8 533 433 550 651 414 321 432 532
8 536 434 551 652 417 322 433 533
8 537 431 319 418 653 547 428 534
8 535 429 547 653 416 317 428 534
8 538 435 552 654 419 323 434 536
8 538 435 323 419 655 549 431 537
8 540 440 327 421 657 556 438 539
8 540 440 557 659 421 327 439 541
8 541 439 555 660 423 326 437 543
8 661 554 436 542 543 437 324 422
8 676 570 452 559 590 473 365 484
8 560 453 338 441 676 570 452 559
8 562 455 340 443 677 571 453 560
8 447 344 459 566 561 457 575 678
8 564 456 341 445 679 573 455 562
8 567 460 345 448 680 572 454 563
8 680 572 454 563 564 456 341 445
8 565 458 576 682 447 344 459 566
8 450 346 461 569 565 458 576 682
8 568 462 347 449 684 578 460 567
8 451 348 462 568 569 461 579 685
8 686 580 463 570 591 474 360 473
8 571 464 350 453 686 580 463 570
8 573 466 352 455 687 581 464 571
8 572 465 582 688 460 357 471 578
8 574 467 582 688 456 353 465 572
8 574 467 353 456 689 583 466 573
8 459 356 470 577 575 468 585 691
8 576 469 586 692 459 356 470 577
8 461 358 472 579 576 469 586 692
8 462 359 471 578 579 472 588 694
8 704 591 473 590 593 475 363 481
8 595 476 592 705 475 361 474 591
8 593 475 363 481 707 594 479 602
8 594 477 362 479 709 598 478 600
8 595 476 361 475 711 597 477 594
8 479 362 480 603 600 478 601 720
8 481 363 482 605 602 479 603 722
8 603 480 364 482 723 604 483 606
8 605 482 365 484 724 606 485 607
8 656 553 608 726 542 436 487 609
8 645 542 609 728 525 422 488 611
8 609 487 610 729 488 369 489 612
8 611 488 612 730 491 371 490 613
8 616 504 386 495 731 624 503 614
8 731 624 503 614 678 575 457 561
8 732 622 501 615 616 504 386 495
8 617 502 384 496 732 622 501 615
8 617 502 621 735 496 384 500 618
8 736 620 499 619 618 500 382 497
8 630 527 408 511 736 620 499 619
8 621 506 626 737 500 388 505 620
8 647 544 424 527 737 626 505 620
8 623 508 627 738 502 390 506 621
8 623 508 390 502 739 628 507 622
8 625 510 628 739 504 392 507 622
8 740 629 509 624 691 585 468 575
8 625 510 392 504 740 629 509 624
8 632 529 410 513 744 647 527 630
8 631 528 648 745 514 411 530 633
8 632 529 648 745 513 410 528 631
8 638 535 416 519 746 649 530 633
8 747 650 531 634 635 532 413 516
8 642 539 420 523 747 650 531 634
8 636 533 651 748 517 414 532 635
8 640 536 652 749 521 417 533 636
8 639 537 418 520 750 653 534 637
8 638 535 653 750 519 416 534 637
8 641 538 419 522 751 655 537 639
8 641 538 654 752 522 419 536 640
8 643 540 421 524 753 657 539 642
8 643 540 659 755 524 421 541 644
8 644 541 660 757 526 423 543 646
8 758 661 542 645 646 543 422 525
8 529 426 544 647 648 545 662 759
8 530 427 545 648 649 546 663 760
8 535 429 546 649 653 547 664 761
8 762 666 548 650 651 550 432 532
8 657 556 438 539 762 666 548 650
8 652 551 668 763 533 433 550 651
8 654 552 669 764 536 434 551 652
8 655 549 431 537 765 665 547 653
8 538 435 549 655 654 552 667 766
8 661 554 671 768 542 436 553 656
8 658 558 440 540 769 674 556 657
8 658 558 675 770 540 440 557 659
8 659 557 673 771 541 439 555 660
8 660 555 672 772 543 437 554 661
8 788 686 570 676 704 591 473 590
8 677 571 453 560 788 686 570 676
8 679 573 455 562 789 687 571 677
8 566 459 577 683 678 575 691 790
8 681 574 456 564 791 689 573 679
8 680 572 688 792 567 460 578 684
8 681 574 688 792 564 456 572 680
8 682 576 692 794 566 459 577 683
8 569 461 579 685 682 576 692 794
8 568 462 578 684 685 579 694 796
8 687 581 464 571 798 696 580 686
8 798 696 580 686 705 592 474 591
8 689 583 466 573 799 697 581 687
8 688 582 698 800 578 471 588 694
8 690 584 698 800 574 467 582 688
8 690 584 467 574 801 699 583 689
8 693 587 701 803 577 470 585 691
8 693 587 470 577 804 702 586 692
8 695 589 702 804 579 472 586 692
8 695 589 472 579 805 703 588 694
8 708 595 705 813 593 475 591 704
8 710 596 706 814 595 476 592 705
8 707 594 479 602 816 709 600 719
8 708 595 475 593 817 711 594 707
8 709 598 478 600 819 715 599 717
8 711 597 477 594 820 714 598 709
8 710 596 476 595 822 713 597 711
8 600 478 601 720 717 599 718 832
8 602 479 603 722 719 600 720 834
8 720 601 480 603 835 721 604 723
8 722 603 482 605 836 723 606 724
8 767 670 725 839 656 553 608 726
8 756 656 726 841 645 542 609 728
8 726 608 727 842 609 487 610 729
8 728 609 729 843 611 488 612 730
8 844 740 624 731 790 691 575 678
8 733 625 504 616 844 740 624 731
8 734 623 502 617 845 739 622 732
8 733 625 739 845 616 504 622 732
8 734 623 738 846 617 502 621 735
8 735 621 737 847 618 500 620 736
8 744 647 527 630 847 737 620 736
8 621 506 627 738 737 626 741 848
8 647 544 626 737 759 662 741 848
8 623 508 628 739 738 627 742 849
8 740 629 585 691 850 743 700 802
8 625 510 629 740 739 628 743 850
8 632 529 647 744 745 648 759 854
8 633 530 648 745 746 649 760 855
8 638 535 649 746 750 653 761 856
8 857 762 650 747 748 651 532 635
8 753 657 539 642 857 762 650 747
8 749 652 763 858 636 533 651 748
8 752 654 764 859 640 536 652 749
8 751 655 537 639 860 765 653 750
8 641 538 655 751 752 654 766 861
8 754 658 540 643 862 769 657 753
8 754 658 770 863 643 540 659 755
8 755 659 771 864 644 541 660 757
8 758 661 768 866 645 542 656 756
8 757 660 772 867 646 543 661 758
8 759 662 773 868 648 545 663 760
8 649 546 663 760 761 664 774 871
8 765 665 547 653 872 775 664 761
8 873 777 666 762 763 668 550 651
8 769 674 556 657 873 777 666 762
8 764 669 779 874 652 551 668 763
8 654 552 667 766 764 669 778 875
8 655 549 665 765 766 667 776 876
8 768 671 782 877 656 553 670 767
8 772 672 783 878 661 554 671 768
8 658 558 674 769 770 675 786 879
8 659 557 675 770 771 673 785 881
8 882 784 672 772 771 673 555 660
8 789 687 571 677 897 798 686 788
8 897 798 686 788 813 705 591 704
8 791 689 573 679 898 799 687 789
8 795 693 803 900 683 577 691 790
8 793 690 574 681 901 801 689 791
8 792 688 800 902 684 578 694 796
8 793 690 800 902 681 574 688 792
8 795 693 577 683 903 804 692 794
8 797 695 804 903 685 579 692 794
8 797 695 579 685 904 805 694 796
8 905 806 697 799 798 696 581 687
8 814 706 806 905 705 592 696 798
8 689 583 697 799 801 699 808 907
8 800 698 809 908 694 588 703 805
8 690 584 699 801 800 698 809 908
8 803 701 810 909 691 585 700 802
8 693 587 702 804 803 701 811 910
8 695 589 703 805 804 702 812 911
8 818 710 814 919 708 595 705 813
8 821 712 815 920 710 596 706 814
8 816 709 600 719 922 819 717 831
8 817 711 594 707 923 820 709 816
8 818 710 595 708 924 822 711 817
8 819 715 599 717 926 827 716 829
8 820 714 598 709 927 826 715 819
8 929 825 713 822 820 714 597 711
8 821 712 596 710 930 824 713 822
8 717 599 718 832 829 716 830 942
8 719 600 720 834 831 717 832 944
8 832 718 601 720 945 833 721 835
8 834 720 603 722 946 835 723 836
8 869 780 838 950 767 670 725 839
8 865 767 839 952 756 656 726 841
8 839 725 840 953 726 608 727 842
8 841 726 842 954 728 609 729 843
8 844 740 691 790 955 850 802 899
8 733 625 740 844 845 739 850 955
8 734 623 739 845 846 738 849 956
8 735 621 738 846 847 737 848 957
8 744 647 737 847 854 759 848 957
8 738 627 742 849 848 741 851 958
8 848 741 851 958 759 662 773 868
8 850 743 700 802 959 852 807 906
8 849 742 628 739 959 852 743 850
8 854 759 868 965 745 648 760 855
8 746 649 760 855 856 761 871 966
8 860 765 653 750 967 872 761 856
8 968 873 762 857 858 763 651 748
8 862 769 657 753 968 873 762 857
8 859 764 874 969 749 652 763 858
8 752 654 766 861 859 764 875 970
8 751 655 765 860 861 766 876 971
8 754 658 769 862 863 770 879 972
8 755 659 770 863 864 771 881 974
8 976 882 772 867 864 771 660 757
8 866 768 877 977 756 656 767 865
8 867 772 878 978 758 661 768 866
8 760 663 773 868 871 774 883 980
8 870 781 837 948 982 890 780 869
8 982 890 780 869 877 782 670 767
8 761 664 774 871 872 775 884 984
8 876 776 665 765 985 885 775 872
8 873 777 668 763 986 887 779 874
8 769 674 777 873 879 786 887 986
8 764 669 778 875 874 779 888 987
8 766 667 776 876 875 778 886 988
8 878 783 892 989 768 671 782 877
8 878 783 672 772 990 893 784 882
8 880 787 675 770 991 896 786 879
8 880 787 895 992 770 675 785 881
8 881 785 894 993 771 673 784 882
8 1006 905 799 898 897 798 687 789
8 919 814 905 1006 813 705 798 897
8 791 689 799 898 901 801 907 1007
8 900 803 909 1009 790 691 802 899
8 795 693 804 903 900 803 910 1010
8 902 800 908 1011 796 694 805 904
8 793 690 801 901 902 800 908 1011
8 797 695 805 904 903 804 911 1012
8 799 697 806 905 907 808 912 1013
8 920 815 912 1013 814 706 806 905
8 802 700 810 909 906 807 913 1014
8 801 699 808 907 908 809 914 1015
8 805 703 809 908 911 812 915 1016
8 803 701 811 910 909 810 916 1017
8 911 812 917 1018 804 702 811 910
8 925 821 920 1030 818 710 814 919
8 928 823 921 1031 821 712 815 920
8 922 819 717 831 1033 926 829 941
8 923 820 709 816 1034 927 819 922
8 1035 929 822 924 923 820 711 817
8 925 821 710 818 1036 930 822 924
8 1038 933 825 929 927 826 714 820
8 926 827 716 829 1039 935 828 939
8 927 826 715 819 1040 934 827 926
8 928 823 712 821 1041 931 824 930
8 1042 932 824 930 929 825 713 822
8 829 716 830 942 939 828 940 1058
8 831 717 832 944 941 829 942 1060
8 942 830 718 832 1061 943 833 945
8 944 832 720 834 1062 945 835 946
8 981 889 947 1064 870 781 837 948
8 948 837 949 1067 869 780 838 950
8 975 869 950 1069 865 767 839 952
8 950 838 951 1070 839 725 840 953
8 952 839 953 1071 841 726 842 954
8 955 850 802 899 1072 959 906 1008
8 956 849 739 845 1072 959 850 955
8 846 738 849 956 957 848 958 1073
8 957 848 958 1073 854 759 868 965
8 849 742 852 959 958 851 961 1076
8 960 853 961 1076 906 807 852 959
8 958 851 961 1076 868 773 883 980
8 960 853 807 906 1077 963 913 1014
8 855 760 868 965 966 871 980 1085
8 856 761 871 966 967 872 984 1086
8 971 876 765 860 1087 985 872 967
8 968 873 763 858 1088 986 874 969
8 862 769 873 968 972 879 986 1088
8 859 764 875 970 969 874 987 1089
8 861 766 876 971 970 875 988 1090
8 973 880 770 863 1091 991 879 972
8 973 880 992 1092 863 770 881 974
8 974 881 993 1093 864 771 882 976
8 979 870 948 1066 1094 982 869 975
8 1094 982 869 975 977 877 767 865
8 978 878 772 867 1095 990 882 976
8 978 878 989 1096 866 768 877 977
8 871 774 883 980 984 884 994 1099
8 983 891 999 1100 870 781 889 981
8 1101 1000 890 982 989 892 782 877
8 983 891 781 870 1101 1000 890 982
8 872 775 884 984 985 885 995 1103
8 876 776 885 985 988 886 996 1104
8 986 887 779 874 1105 998 888 987
8 879 786 887 986 991 896 998 1105
8 875 778 886 988 987 888 997 1106
8 990 893 1002 1107 878 783 892 989
8 1108 1003 893 990 993 894 784 882
8 880 787 896 991 992 895 1005 1109
8 993 894 785 881 1110 1004 895 992
8 898 799 905 1006 1007 907 1013 1120
8 1030 920 1013 1120 919 814 905 1006
8 901 801 907 1007 1011 908 1015 1121
8 899 802 909 1009 1008 906 1014 1122
8 900 803 910 1010 1009 909 1017 1123
8 1012 911 1018 1124 903 804 910 1010
8 904 805 908 1011 1012 911 1016 1125
8 1013 912 1020 1127 907 808 914 1015
8 1031 921 1020 1127 920 815 912 1013
8 1019 918 962 1075 1128 1021 913 1014
8 1128 1021 913 1014 1017 916 810 909
8 1015 914 1022 1129 908 809 915 1016
8 1016 915 1023 1130 911 812 917 1018
8 1018 917 1024 1131 910 811 916 1017
8 1037 928 1031 1148 925 821 920 1030
8 928 823 931 1041 1031 921 1032 1149
8 1033 926 829 941 1151 1039 939 1057
8 1034 927 819 922 1152 1040 926 1033
8 1153 1038 929 1035 1034 927 820 923
8 1154 1042 930 1036 1035 929 822 924
8 1037 928 821 925 1155 1041 930 1036
8 1039 935 828 939 1156 1047 938 1055
8 1157 1043 932 1042 1038 933 825 929
8 1038 933 826 927 1158 1045 934 1040
8 1040 934 827 926 1159 1046 935 1039
8 930 824 932 1042 1041 931 1044 1160
8 1051 936 1048 1165 1175 1052 937 1053
8 1156 1047 938 1055 1053 937 1054 1178
8 939 828 940 1058 1055 938 1056 1181
8 941 829 942 1060 1057 939 1058 1183
8 942 830 943 1061 1058 940 1059 1184
8 1060 942 832 944 1185 1061 945 1062
8 1082 964 1063 1188 981 889 947 1064
8 1097 981 1064 1190 979 870 948 1066
8 1064 947 1065 1191 948 837 949 1067
8 1066 948 1067 1193 975 869 950 1069
8 1067 949 1068 1194 950 838 951 1070
8 1069 950 1070 1195 952 839 953 1071
8 956 849 959 1072 1073 958 1076 1197
8 1074 960 1076 1197 1008 906 959 1072
8 1073 958 1076 1197 965 868 980 1085
8 1074 960 906 1008 1198 1077 1014 1122
8 1133 1026 1079 1199 1019 918 962 1075
8 1077 963 913 1014 1200 1080 962 1075
8 960 853 963 1077 1076 961 1078 1201
8 980 883 961 1076 1099 994 1078 1201
8 1210 1083 964 1082 1100 999 889 981
8 966 871 980 1085 1086 984 1099 1215
8 967 872 984 1086 1087 985 1103 1216
8 971 876 985 1087 1090 988 1104 1217
8 1088 986 874 969 1218 1105 987 1089
8 972 879 986 1088 1091 991 1105 1218
8 970 875 988 1090 1089 987 1106 1219
8 973 880 991 1091 1092 992 1109 1220
8 1093 993 881 974 1221 1110 992 1092
8 1222 1108 990 1095 1093 993 882 976
8 1223 1101 982 1094 1096 989 877 977
8 1098 983 870 979 1223 1101 982 1094
8 1095 990 1107 1224 978 878 989 1096
8 1098 983 1100 1225 979 870 981 1097
8 984 884 994 1099 1103 995 1111 1227
8 1102 1001 1115 1228 983 891 999 1100
8 1101 1000 892 989 1229 1116 1002 1107
8 1102 1001 891 983 1229 1116 1000 1101
8 985 885 995 1103 1104 996 1112 1230
8 988 886 996 1104 1106 997 1113 1231
8 1105 998 888 987 1232 1114 997 1106
8 991 896 998 1105 1109 1005 1114 1232
8 1108 1003 1117 1233 990 893 1002 1107
8 1108 1003 894 993 1233 1117 1004 1110
8 992 895 1005 1109 1110 1004 1118 1234
8 1120 1013 1127 1244 1007 907 1015 1121
8 1148 1031 1127 1244 1030 920 1013 1120
8 1121 1015 1129 1245 1011 908 1016 1125
8 1126 1019 1075 1196 1246 1128 1014 1122
8 1246 1128 1014 1122 1123 1017 909 1009
8 1124 1018 1131 1247 1010 910 1017 1123
8 1125 1016 1130 1248 1012 911 1018 1124
8 1127 1020 1137 1254 1015 914 1022 1129
8 1031 921 1032 1149 1127 1020 1137 1254
8 1134 1027 918 1019 1257 1140 1021 1128
8 1257 1140 1021 1128 1131 1024 916 1017
8 1129 1022 1141 1258 1016 915 1023 1130
8 1130 1023 1142 1259 1018 917 1024 1131
8 1261 1144 1025 1132 1133 1026 1079 1199
8 1255 1138 1025 1132 1135 1028 1144 1261
8 1133 1026 918 1019 1262 1145 1027 1134
8 1136 1029 1139 1256 1263 1146 1028 1135
8 1037 928 1041 1155 1148 1031 1149 1275
8 1041 931 1044 1160 1149 1032 1150 1276
8 1151 1039 939 1057 1278 1156 1055 1180
8 1152 1040 926 1033 1279 1159 1039 1151
8 1153 1038 927 1034 1280 1158 1040 1152
8 1281 1157 1042 1154 1153 1038 929 1035
8 1036 930 1042 1154 1155 1041 1160 1282
8 1283 1164 1046 1159 1156 1047 935 1039
8 1165 1048 1164 1283 1053 937 1047 1156
8 1157 1043 933 1038 1284 1161 1045 1158
8 1157 1043 1161 1284 1042 932 1044 1160
8 1040 934 1046 1159 1158 1045 1163 1285
8 1166 1049 1167 1292 1051 936 1048 1165
8 1166 1049 936 1051 1293 1168 1050 1172
8 1051 936 1052 1175 1172 1050 1173 1306
8 1174 1051 1165 1290 1308 1175 1053 1177
8 1053 937 1054 1178 1175 1052 1176 1309
8 1278 1156 1055 1180 1177 1053 1178 1311
8 1055 938 1056 1181 1178 1054 1179 1312
8 1057 939 1058 1183 1180 1055 1181 1314
8 1058 940 1059 1184 1181 1056 1182 1315
8 1060 942 1061 1185 1183 1058 1184 1316
8 1208 1081 1187 1321 1082 964 1063 1188
8 1209 1082 1188 1322 1097 981 1064 1190
8 1188 1063 1189 1323 1064 947 1065 1191
8 1190 1064 1191 1325 1066 948 1067 1193
8 1191 1065 1192 1326 1067 949 1068 1194
8 1067 1193 1069 950 1194 1327 1195 1070
8 1250 1133 1199 1330 1126 1019 1075 1196
8 1198 1077 1014 1122 1331 1200 1075 1196
8 1074 960 1077 1198 1197 1076 1201 1332
8 1085 980 1076 1197 1215 1099 1201 1332
8 1199 1079 1203 1333 1075 962 1080 1200
8 1132 1025 1119 1243 1199 1079 1203 1333
8 1201 1078 963 1077 1334 1202 1080 1200
8 1099 994 1078 1201 1227 1111 1202 1334
8 1343 1207 1081 1208 1210 1083 964 1082
8 1214 1084 1186 1319 1343 1207 1081 1208
8 1345 1210 1082 1209 1225 1100 981 1097
8 1346 1211 1083 1210 1228 1115 999 1100
8 1086 984 1099 1215 1216 1103 1227 1352
8 1087 985 1103 1216 1217 1104 1230 1353
8 1090 988 1104 1217 1219 1106 1231 1354
8 1218 1105 987 1089 1355 1232 1106 1219
8 1091 991 1105 1218 1220 1109 1232 1355
8 1092 992 1109 1220 1221 1110 1234 1356
8 1222 1108 1233 1357 1095 990 1107 1224
8 1222 1108 993 1093 1357 1233 1110 1221
8 1223 1101 989 1096 1358 1229 1107 1224
8 1226 1102 983 1098 1358 1229 1101 1223
8 1226 1102 1228 1359 1098 983 1100 1225
8 1103 995 1111 1227 1230 1112 1235 1360
8 1107 1002 1117 1233 1229 1116 1240 1362
8 1102 1001 1116 1229 1228 1115 1240 1362
8 1104 996 1112 1230 1231 1113 1236 1363
8 1364 1237 1114 1232 1231 1113 997 1106
8 1109 1005 1114 1232 1234 1118 1238 1365
8 1110 1004 1118 1234 1233 1117 1241 1366
8 1242 1374 1255 1138 1119 1243 1132 1025
8 1244 1127 1254 1376 1121 1015 1129 1245
8 1148 1031 1149 1275 1244 1127 1254 1376
8 1245 1129 1258 1377 1125 1016 1130 1248
8 1251 1134 1019 1126 1378 1257 1128 1246
8 1378 1257 1128 1246 1247 1131 1017 1123
8 1248 1130 1259 1379 1124 1018 1131 1247
8 1261 1381 1250 1133 1132 1249 1330 1199
8 1255 1380 1252 1135 1132 1249 1381 1261
8 1250 1133 1019 1126 1382 1262 1134 1251
8 1253 1136 1256 1385 1384 1263 1135 1252
8 1254 1137 1265 1387 1129 1022 1141 1258
8 1149 1032 1150 1276 1254 1137 1265 1387
8 1028 1135 1255 1138 1139 1256 1388 1266
8 1136 1029 1147 1264 1256 1139 1267 1389
8 1390 1268 1140 1257 1259 1142 1024 1131
8 1260 1143 1027 1134 1390 1268 1140 1257
8 1258 1141 1269 1391 1130 1023 1142 1259
8 1262 1145 1027 1134 1393 1271 1143 1260
8 1261 1144 1026 1133 1394 1272 1145 1262
8 1135 1028 1144 1261 1263 1146 1272 1394
8 1136 1029 1146 1263 1264 1147 1273 1395
8 1155 1041 1160 1282 1275 1149 1276 1405
8 1276 1150 1044 1160 1406 1277 1162 1286
8 1408 1283 1159 1279 1278 1156 1039 1151
8 1290 1165 1283 1408 1177 1053 1156 1278
8 1152 1040 1159 1279 1280 1158 1285 1409
8 1281 1157 1038 1153 1410 1284 1158 1280
8 1281 1157 1284 1410 1154 1042 1160 1282
8 1159 1046 1164 1283 1285 1163 1289 1412
8 1292 1167 1289 1412 1165 1048 1164 1283
8 1158 1045 1163 1285 1284 1161 1288 1413
8 1284 1161 1288 1413 1160 1044 1162 1286
8 1291 1166 1292 1418 1174 1051 1165 1290
8 1291 1166 1051 1174 1419 1293 1172 1305
8 1294 1169 1296 1421 1166 1049 1167 1292
8 1293 1168 1050 1172 1422 1295 1171 1303
8 1294 1169 1049 1166 1423 1297 1168 1293
8 1422 1295 1171 1303 1301 1170 1302 1435
8 1172 1050 1173 1306 1303 1171 1304 1438
8 1174 1051 1175 1308 1305 1172 1306 1440
8 1175 1052 1176 1309 1306 1173 1307 1441
8 1177 1053 1178 1311 1308 1175 1309 1443
8 1178 1054 1179 1312 1309 1176 1310 1444
8 1180 1055 1181 1314 1311 1178 1312 1446
8 1056 1181 1312 1179 1182 1315 1447 1313
8 1183 1058 1184 1316 1314 1181 1315 1448
8 1319 1186 1084 1214 1451 1317 1213 1350
8 1319 1186 1318 1453 1208 1081 1187 1321
8 1321 1187 1320 1456 1188 1063 1189 1323
8 1344 1208 1321 1457 1209 1082 1188 1322
8 1322 1188 1323 1458 1190 1064 1191 1325
8 1323 1189 1324 1459 1191 1065 1192 1326
8 1191 1325 1193 1067 1326 1460 1327 1194
8 1242 1374 1243 1119 1328 1462 1335 1204
8 1330 1199 1333 1465 1196 1075 1200 1331
8 1132 1249 1330 1199 1243 1375 1465 1333
8 1332 1201 1077 1198 1466 1334 1200 1331
8 1215 1099 1201 1332 1352 1227 1334 1466
8 1119 1243 1333 1203 1204 1335 1470 1338
8 1333 1203 1338 1470 1200 1080 1202 1334
8 1227 1111 1202 1334 1360 1235 1338 1470
8 1328 1462 1335 1204 1205 1336 1471 1339
8 1337 1206 1340 1472 1464 1329 1205 1336
8 1346 1211 1342 1479 1210 1083 1207 1343
8 1346 1211 1115 1228 1479 1342 1239 1361
8 1348 1212 1084 1214 1479 1342 1207 1343
8 1480 1343 1208 1344 1345 1210 1082 1209
8 1351 1214 1319 1454 1480 1343 1208 1344
8 1481 1346 1210 1345 1359 1228 1100 1225
8 1348 1212 1347 1483 1214 1084 1213 1350
8 1216 1103 1227 1352 1353 1230 1360 1488
8 1217 1104 1230 1353 1354 1231 1363 1489
8 1490 1364 1232 1355 1354 1231 1106 1219
8 1220 1109 1232 1355 1356 1234 1365 1491
8 1221 1110 1234 1356 1357 1233 1366 1492
8 1224 1107 1233 1357 1358 1229 1362 1493
8 1226 1102 1229 1358 1359 1228 1362 1493
8 1230 1112 1235 1360 1363 1236 1367 1496
8 1361 1239 1115 1228 1497 1371 1240 1362
8 1366 1241 1372 1498 1233 1117 1240 1362
8 1364 1237 1113 1231 1499 1368 1236 1363
8 1364 1237 1368 1499 1232 1114 1238 1365
8 1234 1118 1238 1365 1366 1241 1369 1500
8 1507 1373 1242 1374 1388 1266 1138 1255
8 1508 1374 1243 1375 1380 1255 1132 1249
8 1376 1254 1387 1509 1245 1129 1258 1377
8 1275 1149 1276 1405 1376 1254 1387 1509
8 1377 1258 1391 1510 1248 1130 1259 1379
8 1511 1390 1257 1378 1379 1259 1131 1247
8 1383 1260 1134 1251 1511 1390 1257 1378
8 1252 1135 1256 1385 1380 1255 1388 1512
8 1261 1381 1513 1394 1133 1250 1382 1262
8 1135 1252 1384 1263 1261 1381 1513 1394
8 1382 1262 1134 1251 1514 1393 1260 1383
8 1253 1136 1263 1384 1386 1264 1395 1516
8 1253 1136 1264 1386 1385 1256 1389 1517
8 1387 1265 1397 1519 1258 1141 1269 1391
8 1276 1150 1277 1406 1387 1265 1397 1519
8 1256 1139 1267 1389 1388 1266 1398 1520
8 1264 1147 1274 1396 1389 1267 1399 1521
8 1392 1270 1143 1260 1522 1400 1268 1390
8 1390 1268 1142 1259 1522 1400 1269 1391
8 1392 1270 1401 1523 1260 1143 1271 1393
8 1272 1394 1524 1402 1145 1262 1393 1271
8 1395 1273 1146 1263 1524 1402 1272 1394
8 1273 1395 1264 1147 1403 1526 1396 1274
8 1405 1276 1160 1282 1534 1406 1286 1411
8 1414 1287 1407 1535 1286 1162 1277 1406
8 1279 1159 1283 1408 1409 1285 1412 1537
8 1418 1292 1412 1537 1290 1165 1283 1408
8 1280 1158 1285 1409 1410 1284 1413 1538
8 1410 1284 1413 1538 1282 1160 1286 1411
8 1285 1163 1289 1412 1413 1288 1417 1540
8 1421 1296 1417 1540 1292 1167 1289 1412
8 1414 1287 1162 1286 1541 1416 1288 1413
8 1420 1294 1421 1545 1291 1166 1292 1418
8 1419 1293 1172 1305 1546 1422 1303 1437
8 1420 1294 1166 1291 1547 1423 1293 1419
8 1294 1169 1297 1423 1421 1296 1425 1548
8 1423 1297 1168 1293 1549 1424 1295 1422
8 1301 1170 1298 1427 1422 1295 1424 1549
8 1432 1300 1428 1554 1301 1170 1298 1427
8 1431 1299 1428 1554 1560 1430 1300 1432
8 1563 1433 1300 1432 1435 1302 1170 1301
8 1546 1422 1303 1437 1434 1301 1435 1565
8 1303 1171 1304 1438 1435 1302 1436 1566
8 1305 1172 1306 1440 1437 1303 1438 1568
8 1306 1173 1307 1441 1438 1304 1439 1569
8 1308 1175 1309 1443 1440 1306 1441 1571
8 1309 1176 1310 1444 1441 1307 1442 1572
8 1311 1178 1312 1446 1443 1309 1444 1574
8 1179 1312 1444 1310 1313 1447 1575 1445
8 1314 1181 1315 1448 1446 1312 1447 1576
8 1350 1213 1349 1486 1451 1317 1449 1579
8 1451 1317 1450 1581 1319 1186 1318 1453
8 1454 1319 1214 1351 1582 1451 1350 1487
8 1453 1318 1452 1584 1321 1187 1320 1456
8 1454 1319 1453 1585 1344 1208 1321 1457
8 1456 1320 1455 1586 1323 1189 1324 1459
8 1457 1321 1456 1587 1322 1188 1323 1458
8 1458 1323 1459 1588 1325 1191 1326 1460
8 1205 1336 1464 1329 1328 1462 1590 1461
8 1507 1373 1461 1590 1374 1242 1328 1462
8 1508 1374 1462 1591 1375 1243 1335 1467
8 1337 1206 1329 1464 1473 1341 1463 1594
8 1375 1243 1335 1467 1465 1333 1470 1596
8 1465 1333 1470 1596 1331 1200 1334 1466
8 1352 1227 1334 1466 1488 1360 1470 1596
8 1591 1462 1336 1468 1467 1335 1471 1597
8 1469 1337 1472 1598 1595 1464 1336 1468
8 1471 1339 1474 1600 1335 1204 1338 1470
8 1600 1474 1367 1496 1470 1338 1235 1360
8 1336 1205 1340 1472 1471 1339 1475 1601
8 1337 1206 1341 1473 1472 1340 1476 1602
8 1495 1370 1478 1609 1361 1239 1342 1479
8 1348 1212 1342 1479 1483 1347 1478 1609
8 1481 1346 1479 1610 1345 1210 1343 1480
8 1481 1346 1228 1359 1610 1479 1361 1494
8 1484 1348 1214 1351 1610 1479 1343 1480
8 1483 1347 1482 1612 1350 1213 1349 1486
8 1484 1348 1483 1613 1351 1214 1350 1487
8 1353 1230 1360 1488 1489 1363 1496 1616
8 1490 1364 1231 1354 1617 1499 1363 1489
8 1490 1364 1499 1617 1355 1232 1365 1491
8 1356 1234 1365 1491 1492 1366 1500 1619
8 1492 1366 1498 1620 1357 1233 1362 1493
8 1494 1361 1228 1359 1621 1497 1362 1493
8 1495 1370 1239 1361 1622 1504 1371 1497
8 1363 1236 1367 1496 1499 1368 1501 1623
8 1497 1371 1240 1362 1624 1505 1372 1498
8 1625 1503 1372 1498 1500 1369 1241 1366
8 1365 1238 1368 1499 1500 1369 1502 1626
8 1520 1398 1506 1633 1388 1266 1373 1507
8 1634 1507 1374 1508 1512 1388 1255 1380
8 1509 1387 1519 1635 1377 1258 1391 1510
8 1405 1276 1406 1534 1509 1387 1519 1635
8 1515 1392 1260 1383 1636 1522 1390 1511
8 1511 1390 1259 1379 1636 1522 1391 1510
8 1385 1256 1389 1517 1512 1388 1520 1637
8 1513 1394 1262 1382 1638 1524 1393 1514
8 1395 1516 1638 1524 1263 1384 1513 1394
8 1515 1392 1523 1639 1383 1260 1393 1514
8 1516 1395 1526 1640 1386 1264 1396 1518
8 1386 1264 1396 1518 1517 1389 1521 1641
8 1519 1397 1527 1643 1391 1269 1400 1522
8 1535 1407 1527 1643 1406 1277 1397 1519
8 1389 1267 1399 1521 1520 1398 1528 1644
8 1645 1529 1399 1521 1525 1404 1274 1396
8 1392 1270 1400 1522 1523 1401 1531 1646
8 1524 1402 1271 1393 1648 1532 1401 1523
8 1403 1526 1648 1532 1273 1395 1524 1402
8 1525 1404 1274 1396 1649 1533 1403 1526
8 1539 1414 1535 1657 1411 1286 1406 1534
8 1542 1415 1536 1658 1414 1287 1407 1535
8 1409 1285 1412 1537 1538 1413 1540 1660
8 1545 1421 1540 1660 1418 1292 1412 1537
8 1539 1414 1286 1411 1661 1541 1413 1538
8 1540 1417 1544 1663 1413 1288 1416 1541
8 1421 1296 1425 1548 1540 1417 1544 1663
8 1542 1415 1287 1414 1664 1543 1416 1541
8 1420 1294 1423 1547 1545 1421 1548 1666
8 1547 1423 1293 1419 1667 1549 1422 1546
8 1434 1301 1427 1553 1546 1422 1549 1667
8 1423 1297 1424 1549 1548 1425 1550 1668
8 1551 1426 1550 1668 1427 1298 1424 1549
8 1551 1426 1298 1427 1671 1552 1428 1554
8 1562 1432 1554 1674 1434 1301 1427 1553
8 1431 1299 1429 1558 1554 1428 1555 1675
8 1431 1299 1430 1560 1558 1429 1557 1680
8 1560 1430 1300 1432 1683 1559 1433 1563
8 1561 1431 1554 1674 1684 1560 1432 1562
8 1685 1563 1432 1562 1565 1435 1301 1434
8 1435 1302 1436 1566 1563 1433 1564 1686
8 1437 1303 1438 1568 1565 1435 1566 1688
8 1438 1304 1439 1569 1566 1436 1567 1689
8 1440 1306 1441 1571 1568 1438 1569 1691
8 1441 1307 1442 1572 1569 1439 1570 1692
8 1443 1309 1444 1574 1571 1441 1572 1694
8 1310 1444 1572 1442 1445 1575 1695 1573
8 1446 1312 1447 1576 1574 1444 1575 1696
8 1486 1349 1485 1614 1579 1449 1577 1699
8 1451 1317 1449 1579 1581 1450 1578 1701
8 1487 1350 1486 1615 1582 1451 1579 1702
8 1581 1450 1580 1704 1453 1318 1452 1584
8 1582 1451 1581 1705 1454 1319 1453 1585
8 1584 1452 1583 1706 1456 1320 1455 1586
8 1585 1453 1584 1707 1457 1321 1456 1587
8 1587 1456 1586 1708 1458 1323 1459 1588
8 1633 1506 1589 1710 1507 1373 1461 1590
8 1464 1329 1461 1590 1594 1463 1589 1710
8 1468 1336 1462 1591 1595 1464 1590 1711
8 1634 1507 1590 1711 1508 1374 1462 1591
8 1473 1341 1463 1594 1603 1477 1593 1716
8 1469 1337 1464 1595 1599 1473 1594 1717
8 1471 1597 1467 1335 1600 1718 1596 1470
8 1718 1600 1496 1616 1596 1470 1360 1488
8 1336 1468 1597 1471 1472 1598 1719 1601
8 1469 1337 1473 1599 1598 1472 1602 1720
8 1722 1604 1501 1623 1600 1474 1367 1496
8 1475 1601 1471 1339 1604 1722 1600 1474
8 1602 1476 1605 1723 1472 1340 1475 1601
8 1476 1602 1724 1606 1341 1473 1603 1477
8 1483 1347 1478 1609 1612 1482 1608 1731
8 1495 1370 1504 1622 1609 1478 1608 1731
8 1618 1495 1609 1732 1494 1361 1479 1610
8 1484 1348 1479 1610 1613 1483 1609 1732
8 1486 1349 1482 1612 1614 1485 1611 1733
8 1613 1483 1612 1734 1487 1350 1486 1615
8 1489 1363 1496 1616 1617 1499 1623 1736
8 1491 1365 1499 1617 1619 1500 1626 1737
8 1618 1495 1361 1494 1738 1622 1497 1621
8 1739 1625 1498 1620 1619 1500 1366 1492
8 1621 1497 1362 1493 1740 1624 1498 1620
8 1742 1631 1504 1622 1624 1505 1371 1497
8 1743 1628 1502 1626 1623 1501 1368 1499
8 1744 1630 1505 1624 1625 1503 1372 1498
8 1745 1629 1503 1625 1626 1502 1369 1500
8 1520 1398 1528 1644 1633 1506 1632 1751
8 1637 1520 1633 1752 1512 1388 1507 1634
8 1635 1519 1643 1753 1510 1391 1522 1636
8 1657 1535 1643 1753 1534 1406 1519 1635
8 1515 1392 1522 1636 1639 1523 1646 1754
8 1517 1389 1521 1641 1637 1520 1644 1755
8 1524 1638 1756 1648 1393 1514 1639 1523
8 1640 1526 1395 1516 1756 1648 1524 1638
8 1642 1525 1396 1518 1757 1649 1526 1640
8 1758 1645 1521 1641 1642 1525 1396 1518
8 1646 1531 1400 1522 1760 1650 1527 1643
8 1535 1407 1536 1658 1643 1527 1650 1760
8 1521 1399 1529 1645 1644 1528 1651 1761
8 1647 1530 1652 1762 1525 1404 1529 1645
8 1401 1523 1648 1532 1531 1646 1763 1655
8 1525 1404 1533 1649 1647 1530 1654 1765
8 1533 1649 1766 1656 1403 1526 1648 1532
8 1662 1542 1658 1774 1539 1414 1535 1657
8 1542 1415 1543 1664 1658 1536 1659 1775
8 1660 1540 1663 1777 1538 1413 1541 1661
8 1545 1421 1548 1666 1660 1540 1663 1777
8 1662 1542 1414 1539 1778 1664 1541 1661
8 1664 1543 1416 1541 1779 1665 1544 1663
8 1548 1425 1550 1668 1663 1544 1665 1779
8 1547 1423 1549 1667 1666 1548 1668 1781
8 1670 1551 1668 1781 1553 1427 1549 1667
8 1551 1426 1552 1671 1668 1550 1669 1782
8 1670 1551 1427 1553 1784 1671 1554 1674
8 1675 1555 1672 1785 1554 1428 1552 1671
8 1678 1556 1673 1789 1558 1429 1555 1675
8 1561 1431 1558 1681 1674 1554 1675 1790
8 1794 1677 1556 1678 1680 1557 1429 1558
8 1560 1430 1559 1683 1680 1557 1679 1797
8 1561 1431 1560 1684 1681 1558 1680 1798
8 1563 1433 1564 1686 1683 1559 1682 1800
8 1684 1560 1432 1562 1801 1683 1563 1685
8 1565 1435 1566 1688 1685 1563 1686 1802
8 1566 1436 1567 1689 1686 1564 1687 1803
8 1568 1438 1569 1691 1688 1566 1689 1805
8 1569 1439 1570 1692 1689 1567 1690 1806
8 1571 1441 1572 1694 1691 1569 1692 1808
8 1442 1572 1692 1570 1573 1695 1809 1693
8 1574 1444 1575 1696 1694 1572 1695 1810
8 1614 1485 1592 1712 1699 1577 1697 1813
8 1579 1449 1577 1699 1701 1578 1698 1815
8 1615 1486 1614 1735 1702 1579 1699 1816
8 1701 1578 1700 1818 1581 1450 1580 1704
8 1582 1451 1579 1702 1705 1581 1701 1819
8 1704 1580 1703 1820 1584 1452 1583 1706
8 1705 1581 1704 1821 1585 1453 1584 1707
8 1707 1584 1706 1822 1587 1456 1586 1708
8 1710 1589 1506 1633 1824 1709 1632 1751
8 1594 1463 1589 1710 1716 1593 1709 1824
8 1752 1633 1710 1825 1634 1507 1590 1711
8 1595 1464 1590 1711 1717 1594 1710 1825
8 1830 1714 1592 1712 1733 1611 1485 1614
8 1603 1477 1593 1716 1725 1607 1715 1834
8 1599 1473 1594 1717 1721 1603 1716 1835
8 1837 1722 1623 1736 1718 1600 1496 1616
8 1719 1601 1722 1837 1597 1471 1600 1718
8 1602 1720 1598 1472 1723 1838 1719 1601
8 1720 1602 1473 1599 1839 1724 1603 1721
8 1723 1605 1726 1840 1601 1475 1604 1722
8 1840 1726 1628 1743 1722 1604 1501 1623
8 1724 1606 1727 1841 1602 1476 1605 1723
8 1725 1607 1728 1842 1603 1477 1606 1724
8 1612 1482 1608 1731 1733 1611 1730 1849
8 1741 1627 1730 1849 1622 1504 1608 1731
8 1613 1483 1609 1732 1734 1612 1731 1850
8 1618 1495 1622 1738 1732 1609 1731 1850
8 1615 1486 1612 1734 1735 1614 1733 1851
8 1852 1743 1626 1737 1736 1623 1499 1617
8 1853 1745 1625 1739 1737 1626 1500 1619
8 1855 1742 1622 1738 1740 1624 1497 1621
8 1856 1744 1624 1740 1739 1625 1498 1620
8 1741 1627 1504 1622 1857 1746 1631 1742
8 1742 1631 1505 1624 1858 1749 1630 1744
8 1859 1747 1629 1745 1743 1628 1502 1626
8 1860 1748 1630 1744 1745 1629 1503 1625
8 1644 1528 1651 1761 1751 1632 1750 1865
8 1637 1520 1644 1755 1752 1633 1751 1866
8 1754 1646 1522 1636 1867 1760 1643 1753
8 1657 1535 1658 1774 1753 1643 1760 1867
8 1639 1523 1646 1754 1756 1648 1763 1868
8 1641 1521 1645 1758 1755 1644 1761 1869
8 1757 1649 1526 1640 1870 1766 1648 1756
8 1642 1525 1649 1757 1759 1647 1765 1871
8 1759 1647 1762 1872 1642 1525 1645 1758
8 1760 1650 1767 1874 1646 1531 1655 1763
8 1658 1536 1659 1775 1760 1650 1767 1874
8 1762 1652 1768 1875 1645 1529 1651 1761
8 1764 1653 1769 1876 1647 1530 1652 1762
8 1656 1766 1877 1773 1532 1648 1763 1655
8 1771 1879 1765 1654 1653 1764 1647 1530
8 1533 1649 1765 1654 1656 1766 1880 1772
8 1662 1542 1664 1778 1774 1658 1775 1887
8 1664 1543 1665 1779 1775 1659 1776 1888
8 1778 1664 1541 1661 1890 1779 1663 1777
8 1666 1548 1668 1781 1777 1663 1779 1890
8 1782 1669 1780 1891 1668 1550 1665 1779
8 1670 1551 1671 1784 1781 1668 1782 1893
8 1671 1552 1672 1785 1782 1669 1783 1894
8 1790 1675 1785 1896 1674 1554 1671 1784
8 1675 1555 1673 1789 1785 1672 1786 1897
8 1792 1676 1788 1903 1678 1556 1673 1789
8 1795 1678 1789 1904 1681 1558 1675 1790
8 1792 1676 1556 1678 1906 1791 1677 1794
8 1680 1557 1679 1797 1794 1677 1793 1909
8 1910 1794 1678 1795 1798 1680 1558 1681
8 1683 1559 1682 1800 1797 1679 1796 1912
8 1684 1560 1683 1801 1798 1680 1797 1913
8 1686 1564 1687 1803 1800 1682 1799 1915
8 1685 1563 1686 1802 1801 1683 1800 1916
8 1688 1566 1689 1805 1802 1686 1803 1917
8 1689 1567 1690 1806 1803 1687 1804 1918
8 1691 1569 1692 1808 1805 1689 1806 1920
8 1692 1570 1693 1809 1806 1690 1807 1921
8 1694 1572 1695 1810 1808 1692 1809 1922
8 1829 1713 1811 1926 1712 1592 1697 1813
8 1813 1697 1812 1928 1699 1577 1698 1815
8 1735 1614 1712 1828 1816 1699 1813 1929
8 1815 1698 1814 1931 1701 1578 1700 1818
8 1702 1579 1699 1816 1819 1701 1815 1932
8 1818 1700 1817 1933 1704 1580 1703 1820
8 1819 1701 1818 1934 1705 1581 1704 1821
8 1821 1704 1820 1935 1707 1584 1706 1822
8 1824 1709 1632 1751 1937 1823 1750 1865
8 1716 1593 1709 1824 1834 1715 1823 1937
8 1825 1710 1633 1752 1938 1824 1751 1866
8 1717 1594 1710 1825 1835 1716 1824 1938
8 1945 1830 1712 1828 1851 1733 1614 1735
8 1830 1714 1831 1946 1712 1592 1713 1829
8 1947 1832 1714 1830 1849 1730 1611 1733
8 1843 1729 1607 1725 1950 1833 1715 1834
8 1721 1603 1716 1835 1836 1725 1834 1951
8 1836 1725 1842 1953 1721 1603 1724 1839
8 1723 1838 1719 1601 1840 1954 1837 1722
8 1954 1840 1743 1852 1837 1722 1623 1736
8 1724 1839 1720 1602 1841 1955 1838 1723
8 1841 1727 1844 1956 1723 1605 1726 1840
8 1956 1844 1747 1859 1840 1726 1628 1743
8 1728 1842 1724 1606 1845 1957 1841 1727
8 1725 1607 1729 1843 1842 1728 1846 1958
8 1741 1627 1746 1857 1849 1730 1848 1965
8 1734 1612 1731 1850 1851 1733 1849 1966
8 1854 1741 1849 1966 1738 1622 1731 1850
8 1967 1859 1745 1853 1852 1743 1626 1737
8 1968 1860 1744 1856 1853 1745 1625 1739
8 1854 1741 1622 1738 1969 1857 1742 1855
8 1855 1742 1624 1740 1970 1858 1744 1856
8 1857 1746 1631 1742 1971 1861 1749 1858
8 1858 1749 1630 1744 1972 1863 1748 1860
8 1859 1747 1862 1973 1745 1629 1748 1860
8 1875 1768 1864 1977 1761 1651 1750 1865
8 1755 1644 1761 1869 1866 1751 1865 1978
8 1867 1760 1874 1979 1754 1646 1763 1868
8 1774 1658 1775 1887 1867 1760 1874 1979
8 1870 1766 1648 1756 1980 1877 1763 1868
8 1872 1762 1875 1981 1758 1645 1761 1869
8 1757 1649 1766 1870 1871 1765 1880 1982
8 1983 1879 1764 1873 1871 1765 1647 1759
8 1873 1764 1876 1984 1759 1647 1762 1872
8 1877 1773 1655 1763 1986 1881 1767 1874
8 1775 1659 1776 1888 1874 1767 1881 1986
8 1876 1769 1882 1987 1762 1652 1768 1875
8 1878 1770 1883 1988 1764 1653 1769 1876
8 1880 1772 1656 1766 1989 1886 1773 1877
8 1878 1770 1653 1764 1990 1884 1771 1879
8 1765 1654 1772 1880 1879 1771 1885 1991
8 1778 1664 1779 1890 1887 1775 1888 1997
8 1998 1889 1776 1888 1891 1780 1665 1779
8 1893 1782 1891 2000 1781 1668 1779 1890
8 1894 1783 1892 2001 1782 1669 1780 1891
8 1784 1671 1785 1896 1893 1782 1894 2003
8 1897 1786 1895 2004 1785 1672 1783 1894
8 1790 1675 1789 1904 1896 1785 1897 2006
8 1901 1787 1898 2007 1789 1673 1786 1897
8 1903 1788 1900 2013 1789 1673 1787 1901
8 1792 1676 1791 1906 1903 1788 1902 2016
8 1907 1792 1903 2017 1795 1678 1789 1904
8 1906 1791 1677 1794 2019 1905 1793 1909
8 1907 1792 1678 1795 2020 1906 1794 1910
8 1797 1679 1796 1912 1909 1793 1908 2022
8 1798 1680 1797 1913 1910 1794 1909 2023
8 1800 1682 1799 1915 1912 1796 1911 2025
8 1801 1683 1800 1916 1913 1797 1912 2026
8 1803 1687 1804 1918 1915 1799 1914 2028
8 1802 1686 1803 1917 1916 1800 1915 2029
8 1805 1689 1806 1920 1917 1803 1918 2030
8 1806 1690 1807 1921 1918 1804 1919 2031
8 1808 1692 1809 1922 1920 1806 1921 2032
8 1939 1826 1924 2037 1829 1713 1811 1926
8 1926 1811 1925 2039 1813 1697 1812 1928
8 1944 1829 1926 2040 1828 1712 1813 1929
8 1928 1812 1927 2042 1815 1698 1814 1931
8 1929 1813 1928 2043 1816 1699 1815 1932
8 1931 1814 1930 2044 1818 1700 1817 1933
8 1932 1815 1931 2045 1819 1701 1818 1934
8 1934 1818 1933 2046 1821 1704 1820 1935
8 2048 1936 1823 1937 1977 1864 1750 1865
8 1950 1833 1715 1834 2048 1936 1823 1937
8 1938 1824 1751 1866 2049 1937 1865 1978
8 1835 1716 1824 1938 1951 1834 1937 2049
8 1939 1826 1713 1829 2053 1942 1831 1946
8 1940 1827 1923 2035 2053 1942 1826 1939
8 1945 1830 1946 2058 1828 1712 1829 1944
8 2059 1947 1830 1945 1966 1849 1733 1851
8 1947 1832 1730 1849 2060 1948 1848 1965
8 1947 1832 1948 2060 1830 1714 1831 1946
8 1959 1847 1729 1843 2063 1949 1833 1950
8 1952 1843 1725 1836 2064 1950 1834 1951
8 1836 1725 1843 1952 1953 1842 1958 2066
8 1953 1842 1957 2067 1839 1724 1841 1955
8 1841 1955 1838 1723 1956 2068 1954 1840
8 2068 1956 1859 1967 1954 1840 1743 1852
8 1956 1844 1960 2069 1859 1747 1862 1973
8 1845 1957 1841 1727 1960 2069 1956 1844
8 1728 1842 1957 1845 1846 1958 2071 1961
8 1962 2072 1959 1847 1846 1958 1843 1729
8 1971 1861 1964 2077 1857 1746 1848 1965
8 1854 1741 1857 1969 1966 1849 1965 2078
8 1967 1859 1973 2079 1853 1745 1860 1968
8 1970 1858 1744 1856 2080 1972 1860 1968
8 1969 1857 1742 1855 2081 1971 1858 1970
8 1971 1861 1749 1858 2082 1974 1863 1972
8 1973 1862 1975 2083 1860 1748 1863 1972
8 1987 1882 1976 2086 1875 1768 1864 1977
8 1981 1875 1977 2087 1869 1761 1865 1978
8 1980 1877 1763 1868 2088 1986 1874 1979
8 1887 1775 1888 1997 1979 1874 1986 2088
8 1880 1982 2089 1989 1766 1870 1980 1877
8 1984 1876 1987 2090 1872 1762 1875 1981
8 1765 1871 1983 1879 1880 1982 2091 1991
8 1985 1878 1764 1873 2092 1990 1879 1983
8 1985 1878 1988 2093 1873 1764 1876 1984
8 2094 1992 1881 1986 1998 1889 1776 1888
8 1986 1881 1992 2094 1877 1773 1886 1989
8 1988 1883 1993 2095 1876 1769 1882 1987
8 1878 1770 1884 1990 1988 1883 1994 2096
8 1991 1885 1772 1880 2097 1996 1886 1989
8 1879 1771 1885 1991 1990 1884 1995 2098
8 2103 1998 1888 1997 2000 1891 1779 1890
8 2104 1999 1889 1998 2001 1892 1780 1891
8 2003 1894 2001 2106 1893 1782 1891 2000
8 2004 1895 2002 2107 1894 1783 1892 2001
8 2006 1897 2004 2109 1896 1785 1894 2003
8 2007 1898 2005 2110 1897 1786 1895 2004
8 2014 1901 2007 2112 1904 1789 1897 2006
8 2011 1899 2008 2113 1901 1787 1898 2007
8 2119 2010 1899 2011 2013 1900 1787 1901
8 2016 1902 2012 2122 1903 1788 1900 2013
8 2017 1903 2013 2123 1904 1789 1901 2014
8 1906 1791 1905 2019 2016 1902 2015 2125
8 1907 1792 1906 2020 2017 1903 2016 2126
8 1909 1793 1908 2022 2019 1905 2018 2128
8 2020 1906 1794 1910 2129 2019 1909 2023
8 1912 1796 1911 2025 2022 1908 2021 2131
8 1913 1797 1912 2026 2023 1909 2022 2132
8 1915 1799 1914 2028 2025 1911 2024 2134
8 1916 1800 1915 2029 2026 1912 2025 2135
8 1918 1804 1919 2031 2028 1914 2027 2136
8 1917 1803 1918 2030 2029 1915 2028 2137
8 1920 1806 1921 2032 2030 1918 2031 2138
8 1940 1827 1941 2054 2035 1923 2033 2140
8 2035 1923 2034 2143 1939 1826 1924 2037
8 2037 1924 2036 2146 1926 1811 1925 2039
8 2051 1939 2037 2147 1944 1829 1926 2040
8 2039 1925 2038 2149 1928 1812 1927 2042
8 2040 1926 2039 2150 1929 1813 1928 2043
8 2042 1927 2041 2151 1931 1814 1930 2044
8 2043 1928 2042 2152 1932 1815 1931 2045
8 2045 1931 2044 2153 1934 1818 1933 2046
8 2155 2047 1936 2048 2086 1976 1864 1977
8 2063 1949 1833 1950 2155 2047 1936 2048
8 2156 2048 1937 2049 2087 1977 1865 1978
8 2064 1950 1834 1951 2156 2048 1937 2049
8 2051 1939 1829 1944 2160 2053 1946 2058
8 2052 1940 2035 2144 2160 2053 1939 2051
8 2053 1942 1831 1946 2163 2057 1948 2060
8 2055 1943 1827 1940 2163 2057 1942 2053
8 2055 1943 2056 2164 1940 1827 1941 2054
8 2059 1947 1849 1966 2167 2060 1965 2078
8 2059 1947 2060 2167 1945 1830 1946 2058
8 2077 1964 2061 2168 1965 1848 1948 2060
8 2070 1963 1847 1959 2170 2062 1949 2063
8 2065 1959 1843 1952 2171 2063 1950 2064
8 2173 2072 1958 2066 2065 1959 1843 1952
8 1953 1842 1958 2066 2067 1957 2071 2174
8 2068 1956 2069 2175 1967 1859 1973 2079
8 2067 1957 2069 2175 1955 1841 1956 2068
8 1845 1957 2069 1960 1961 2071 2176 2073
8 2069 1960 2073 2176 1973 1862 1975 2083
8 2070 1963 2075 2177 1959 1847 1962 2072
8 1846 1958 2071 1961 1962 2072 2178 2074
8 2077 1964 1861 1971 2182 2076 1974 2082
8 2081 1971 2077 2183 1969 1857 1965 2078
8 2079 1973 2083 2184 1968 1860 1972 2080
8 2081 1971 1858 1970 2185 2082 1972 2080
8 2083 1975 2084 2186 1972 1863 1974 2082
8 2086 1976 1882 1987 2189 2085 1993 2095
8 2090 1987 2086 2190 1981 1875 1977 2087
8 2191 2094 1986 2088 2103 1998 1888 1997
8 2088 1986 2094 2191 1980 1877 1989 2089
8 1991 2091 2192 2097 1880 1982 2089 1989
8 2093 1988 2095 2193 1984 1876 1987 2090
8 1879 1983 2092 1990 1991 2091 2194 2098
8 1985 1878 1990 2092 2093 1988 2096 2195
8 2097 1996 1886 1989 2196 2099 1992 2094
8 2196 2099 1992 2094 2104 1999 1889 1998
8 1994 2096 1988 1883 2100 2197 2095 1993
8 2096 1994 1884 1990 2198 2101 1995 2098
8 1995 2098 2199 2102 1885 1991 2097 1996
8 2203 2104 1998 2103 2106 2001 1891 2000
8 2107 2002 2105 2204 2001 1892 1999 2104
8 2109 2004 2107 2206 2003 1894 2001 2106
8 2110 2005 2108 2207 2004 1895 2002 2107
8 2112 2007 2110 2209 2006 1897 2004 2109
8 2113 2008 2111 2210 2007 1898 2005 2110
8 2120 2011 2113 2212 2014 1901 2007 2112
8 2117 2009 2114 2213 2011 1899 2008 2113
8 2219 2116 2009 2117 2119 2010 1899 2011
8 2222 2118 2010 2119 2122 2012 1900 2013
8 2223 2119 2011 2120 2123 2013 1901 2014
8 2016 1902 2015 2125 2122 2012 2121 2225
8 2126 2016 2122 2226 2017 1903 2013 2123
8 2019 1905 2018 2128 2125 2015 2124 2228
8 2020 1906 2019 2129 2126 2016 2125 2229
8 2022 1908 2021 2131 2128 2018 2127 2231
8 2023 1909 2022 2132 2129 2019 2128 2232
8 2025 1911 2024 2134 2131 2021 2130 2234
8 2026 1912 2025 2135 2132 2022 2131 2235
8 1914 2028 2134 2024 2027 2136 2236 2133
8 2029 1915 2028 2137 2135 2025 2134 2237
8 2030 1918 2031 2138 2137 2028 2136 2238
8 2157 2050 2139 2240 2054 1941 2033 2140
8 2052 1940 2054 2161 2144 2035 2140 2242
8 2140 2033 2141 2243 2035 1923 2034 2143
8 2143 2034 2142 2246 2037 1924 2036 2146
8 2144 2035 2143 2247 2051 1939 2037 2147
8 2146 2036 2145 2249 2039 1925 2038 2149
8 2147 2037 2146 2250 2040 1926 2039 2150
8 2149 2038 2148 2251 2042 1927 2041 2151
8 2150 2039 2149 2252 2043 1928 2042 2152
8 2152 2042 2151 2253 2045 1931 2044 2153
8 2255 2154 2047 2155 2189 2085 1976 2086
8 2170 2062 1949 2063 2255 2154 2047 2155
8 2256 2155 2048 2156 2190 2086 1977 2087
8 2171 2063 1950 2064 2256 2155 2048 2156
8 2258 2159 2050 2157 2164 2056 1941 2054
8 2160 2053 1946 2058 2262 2163 2060 2167
8 2162 2055 1940 2052 2262 2163 2053 2160
8 2162 2055 2164 2263 2052 1940 2054 2161
8 2163 2057 1948 2060 2264 2165 2061 2168
8 2055 1943 2057 2163 2164 2056 2165 2264
8 2182 2076 2166 2268 2077 1964 2061 2168
8 2183 2077 2168 2269 2078 1965 2060 2167
8 2070 1963 2062 2170 2177 2075 2169 2271
8 2172 2070 1959 2065 2272 2170 2063 2171
8 2172 2070 2177 2273 2065 1959 2072 2173
8 2066 1958 2072 2173 2174 2071 2178 2274
8 2067 1957 2071 2174 2175 2069 2176 2275
8 2175 2069 2176 2275 2079 1973 2083 2184
8 2071 1961 2074 2178 2176 2073 2179 2276
8 2176 2073 2179 2276 2083 1975 2084 2186
8 2072 1962 2075 2177 2178 2074 2180 2277
8 2182 2076 1974 2082 2280 2181 2084 2186
8 2183 2077 1971 2081 2281 2182 2082 2185
8 2184 2083 2186 2282 2080 1972 2082 2185
8 2189 2085 1993 2095 2285 2188 2100 2197
8 2190 2086 1987 2090 2286 2189 2095 2193
8 2192 2097 1989 2089 2287 2196 2094 2191
8 2287 2196 2094 2191 2203 2104 1998 2103
8 2194 2098 1991 2091 2288 2199 2097 2192
8 2195 2096 2197 2289 2093 1988 2095 2193
8 2096 2195 2290 2198 1990 2092 2194 2098
8 2097 1996 2099 2196 2199 2102 2200 2291
8 2196 2099 1999 2104 2291 2200 2105 2204
8 2100 2197 2292 2201 1994 2096 2198 2101
8 1995 2098 2198 2101 2102 2199 2293 2202
8 2206 2107 2204 2296 2106 2001 2104 2203
8 2207 2108 2205 2297 2107 2002 2105 2204
8 2209 2110 2207 2299 2109 2004 2107 2206
8 2210 2111 2208 2300 2110 2005 2108 2207
8 2212 2113 2210 2302 2112 2007 2110 2209
8 2213 2114 2211 2303 2113 2008 2111 2210
8 2220 2117 2213 2305 2120 2011 2113 2212
8 2216 2115 2214 2306 2117 2009 2114 2213
8 2216 2115 2009 2117 2311 2217 2116 2219
8 2219 2116 2010 2119 2314 2218 2118 2222
8 2315 2219 2117 2220 2223 2119 2011 2120
8 2122 2012 2121 2225 2222 2118 2221 2317
8 2318 2222 2119 2223 2226 2122 2013 2123
8 2125 2015 2124 2228 2225 2121 2224 2320
8 2126 2016 2125 2229 2226 2122 2225 2321
8 2128 2018 2127 2231 2228 2124 2227 2323
8 2129 2019 2128 2232 2229 2125 2228 2324
8 2131 2021 2130 2234 2231 2127 2230 2326
8 2132 2022 2131 2235 2232 2128 2231 2327
8 2134 2024 2133 2236 2234 2130 2233 2328
8 2135 2025 2134 2237 2235 2131 2234 2329
8 2137 2028 2136 2238 2237 2134 2236 2330
8 2157 2050 2158 2259 2240 2139 2239 2332
8 2257 2157 2240 2334 2161 2054 2140 2242
8 2240 2139 2241 2335 2140 2033 2141 2243
8 2242 2140 2243 2337 2144 2035 2143 2247
8 2243 2141 2244 2338 2143 2034 2142 2246
8 2246 2142 2245 2341 2146 2036 2145 2249
8 2247 2143 2246 2342 2147 2037 2146 2250
8 2249 2145 2248 2343 2149 2038 2148 2251
8 2250 2146 2249 2344 2150 2039 2149 2252
8 2252 2149 2251 2345 2152 2042 2151 2253
8 2169 2271 2347 2254 2062 2170 2255 2154
8 2189 2085 2188 2285 2255 2154 2254 2347
8 2348 2255 2155 2256 2286 2189 2086 2190
8 2272 2170 2063 2171 2348 2255 2155 2256
8 2349 2258 2157 2257 2263 2164 2054 2161
8 2258 2159 2261 2351 2157 2050 2158 2259
8 2258 2159 2056 2164 2351 2261 2165 2264
8 2262 2163 2060 2167 2355 2264 2168 2269
8 2162 2055 2163 2262 2263 2164 2264 2355
8 2357 2266 2165 2264 2268 2166 2061 2168
8 2268 2166 2076 2182 2361 2267 2181 2280
8 2281 2182 2268 2362 2183 2077 2168 2269
8 2271 2169 2270 2364 2177 2075 2180 2277
8 2172 2070 2170 2272 2273 2177 2271 2365
8 2072 2173 2274 2178 2177 2273 2366 2277
8 2071 2174 2275 2176 2178 2274 2367 2276
8 2275 2176 2276 2367 2184 2083 2186 2282
8 2283 2187 2084 2186 2368 2278 2179 2276
8 2178 2074 2180 2277 2276 2179 2278 2368
8 2283 2187 2279 2370 2186 2084 2181 2280
8 2281 2182 2082 2185 2371 2280 2186 2282
8 2188 2285 2374 2284 2100 2197 2292 2201
8 2286 2189 2095 2193 2375 2285 2197 2289
8 2192 2097 2196 2287 2288 2199 2291 2376
8 2287 2196 2104 2203 2376 2291 2204 2296
8 2194 2098 2199 2288 2290 2198 2293 2377
8 2289 2197 2096 2195 2378 2292 2198 2290
8 2291 2200 2105 2204 2379 2294 2205 2297
8 2199 2102 2200 2291 2293 2202 2294 2379
8 2198 2101 2202 2293 2292 2201 2295 2380
8 2299 2207 2297 2383 2206 2107 2204 2296
8 2300 2208 2298 2384 2207 2108 2205 2297
8 2302 2210 2300 2386 2209 2110 2207 2299
8 2303 2211 2301 2387 2210 2111 2208 2300
8 2305 2213 2303 2389 2212 2113 2210 2302
8 2306 2214 2304 2390 2213 2114 2211 2303
8 2310 2216 2306 2392 2220 2117 2213 2305
8 2308 2215 2307 2393 2216 2115 2214 2306
8 2308 2215 2115 2216 2396 2309 2217 2311
8 2310 2216 2117 2220 2398 2311 2219 2315
8 2311 2217 2116 2219 2399 2312 2218 2314
8 2314 2218 2118 2222 2402 2313 2221 2317
8 2315 2219 2119 2223 2403 2314 2222 2318
8 2225 2121 2224 2320 2317 2221 2316 2405
8 2226 2122 2225 2321 2318 2222 2317 2406
8 2228 2124 2227 2323 2320 2224 2319 2408
8 2229 2125 2228 2324 2321 2225 2320 2409
8 2231 2127 2230 2326 2323 2227 2322 2411
8 2232 2128 2231 2327 2324 2228 2323 2412
8 2234 2130 2233 2328 2326 2230 2325 2413
8 2235 2131 2234 2329 2327 2231 2326 2414
8 2237 2134 2236 2330 2329 2234 2328 2415
8 2259 2158 2260 2352 2332 2239 2331 2417
8 2257 2157 2259 2350 2334 2240 2332 2419
8 2240 2139 2239 2332 2335 2241 2333 2420
8 2334 2240 2335 2422 2242 2140 2243 2337
8 2335 2241 2336 2423 2243 2141 2244 2338
8 2337 2243 2338 2425 2247 2143 2246 2342
8 2338 2244 2339 2426 2246 2142 2245 2341
8 2341 2245 2340 2428 2249 2145 2248 2343
8 2342 2246 2341 2429 2250 2146 2249 2344
8 2344 2249 2343 2430 2252 2149 2251 2345
8 2188 2285 2347 2254 2284 2374 2432 2346
8 2347 2254 2346 2432 2271 2169 2270 2364
8 2365 2271 2170 2272 2433 2347 2255 2348
8 2286 2189 2285 2375 2348 2255 2347 2433
8 2349 2258 2351 2435 2257 2157 2259 2350
8 2349 2258 2164 2263 2435 2351 2264 2355
8 2259 2158 2261 2351 2352 2260 2354 2437
8 2356 2265 2354 2437 2264 2165 2261 2351
8 2441 2357 2264 2355 2362 2268 2168 2269
8 2356 2265 2165 2264 2442 2358 2266 2357
8 2443 2359 2266 2357 2361 2267 2166 2268
8 2370 2279 2360 2446 2280 2181 2267 2361
8 2362 2268 2182 2281 2447 2361 2280 2371
8 2180 2277 2368 2278 2270 2364 2449 2363
8 2271 2365 2273 2177 2364 2450 2366 2277
8 2372 2283 2186 2282 2451 2368 2276 2367
8 2178 2274 2367 2276 2277 2366 2451 2368
8 2283 2187 2278 2368 2370 2279 2369 2452
8 2372 2283 2370 2453 2282 2186 2280 2371
8 2284 2374 2455 2373 2201 2292 2380 2295
8 2375 2285 2197 2289 2456 2374 2292 2378
8 2376 2291 2204 2296 2457 2379 2297 2383
8 2288 2199 2291 2376 2377 2293 2379 2457
8 2198 2290 2378 2292 2293 2377 2458 2380
8 2293 2202 2294 2379 2380 2295 2381 2459
8 2384 2298 2381 2459 2297 2205 2294 2379
8 2386 2300 2384 2463 2299 2207 2297 2383
8 2387 2301 2385 2464 2300 2208 2298 2384
8 2389 2303 2387 2466 2302 2210 2300 2386
8 2390 2304 2388 2467 2303 2211 2301 2387
8 2392 2306 2390 2469 2305 2213 2303 2389
8 2393 2307 2391 2470 2306 2214 2304 2390
8 2395 2308 2393 2472 2310 2216 2306 2392
8 2308 2215 2309 2396 2393 2307 2394 2473
8 2395 2308 2216 2310 2475 2396 2311 2398
8 2396 2309 2217 2311 2476 2397 2312 2399
8 2398 2311 2219 2315 2478 2399 2314 2403
8 2399 2312 2218 2314 2479 2400 2313 2402
8 2317 2221 2316 2405 2402 2313 2401 2482
8 2403 2314 2222 2318 2483 2402 2317 2406
8 2320 2224 2319 2408 2405 2316 2404 2485
8 2321 2225 2320 2409 2406 2317 2405 2486
8 2323 2227 2322 2411 2408 2319 2407 2488
8 2324 2228 2323 2412 2409 2320 2408 2489
8 2326 2230 2325 2413 2411 2322 2410 2490
8 2327 2231 2326 2414 2412 2323 2411 2491
8 2329 2234 2328 2415 2414 2326 2413 2492
8 2417 2331 2260 2352 2494 2416 2353 2438
8 2350 2259 2352 2436 2419 2332 2417 2496
8 2332 2239 2331 2417 2420 2333 2418 2497
8 2334 2240 2332 2419 2422 2335 2420 2499
8 2420 2333 2421 2500 2335 2241 2336 2423
8 2422 2335 2423 2502 2337 2243 2338 2425
8 2423 2336 2424 2503 2338 2244 2339 2426
8 2425 2338 2426 2505 2342 2246 2341 2429
8 2426 2339 2427 2506 2341 2245 2340 2428
8 2429 2341 2428 2507 2344 2249 2343 2430
8 2432 2346 2284 2374 2509 2431 2373 2455
8 2432 2346 2431 2509 2364 2270 2363 2449
8 2375 2285 2374 2456 2433 2347 2432 2510
8 2347 2433 2365 2271 2432 2510 2450 2364
8 2350 2259 2351 2435 2436 2352 2437 2514
8 2440 2356 2437 2514 2355 2264 2351 2435
8 2352 2260 2354 2437 2438 2353 2439 2516
8 2356 2265 2358 2442 2437 2354 2439 2516
8 2440 2356 2264 2355 2518 2442 2357 2441
8 2519 2443 2357 2441 2447 2361 2268 2362
8 2443 2359 2444 2520 2357 2266 2358 2442
8 2443 2359 2267 2361 2520 2444 2360 2446
8 2446 2360 2279 2370 2523 2445 2369 2452
8 2453 2370 2446 2524 2371 2280 2361 2447
8 2449 2363 2448 2525 2368 2278 2369 2452
8 2366 2277 2364 2450 2451 2368 2449 2526
8 2372 2283 2368 2451 2453 2370 2452 2527
8 2455 2373 2295 2380 2529 2454 2382 2460
8 2456 2374 2292 2378 2530 2455 2380 2458
8 2377 2293 2379 2457 2458 2380 2459 2531
8 2463 2384 2459 2531 2383 2297 2379 2457
8 2533 2461 2382 2460 2459 2381 2295 2380
8 2464 2385 2461 2533 2384 2298 2381 2459
8 2466 2387 2464 2537 2386 2300 2384 2463
8 2467 2388 2465 2538 2387 2301 2385 2464
8 2469 2390 2467 2540 2389 2303 2387 2466
8 2470 2391 2468 2541 2390 2304 2388 2467
8 2472 2393 2470 2543 2392 2306 2390 2469
8 2393 2307 2394 2473 2470 2391 2471 2544
8 2395 2308 2396 2475 2472 2393 2473 2546
8 2396 2309 2397 2476 2473 2394 2474 2547
8 2475 2396 2311 2398 2549 2476 2399 2478
8 2476 2397 2312 2399 2550 2477 2400 2479
8 2478 2399 2314 2403 2552 2479 2402 2483
8 2479 2400 2313 2402 2553 2480 2401 2482
8 2405 2316 2404 2485 2482 2401 2481 2556
8 2406 2317 2405 2486 2483 2402 2482 2557
8 2408 2319 2407 2488 2485 2404 2484 2559
8 2409 2320 2408 2489 2486 2405 2485 2560
8 2411 2322 2410 2490 2488 2407 2487 2561
8 2412 2323 2411 2491 2489 2408 2488 2562
8 2414 2326 2413 2492 2491 2411 2490 2563
8 2513 2434 2493 2565 2438 2353 2416 2494
8 2496 2417 2352 2436 2567 2494 2438 2515
8 2494 2416 2495 2568 2417 2331 2418 2497
8 2419 2332 2417 2496 2499 2420 2497 2570
8 2497 2418 2498 2571 2420 2333 2421 2500
8 2499 2420 2500 2573 2422 2335 2423 2502
8 2500 2421 2501 2574 2423 2336 2424 2503
8 2502 2423 2503 2576 2425 2338 2426 2505
8 2503 2424 2504 2577 2426 2339 2427 2506
8 2505 2426 2506 2578 2429 2341 2428 2507
8 2509 2431 2373 2455 2580 2508 2454 2529
8 2509 2431 2508 2580 2449 2363 2448 2525
8 2432 2510 2581 2509 2374 2456 2530 2455
8 2432 2510 2450 2364 2509 2581 2526 2449
8 2583 2511 2434 2513 2516 2439 2353 2438
8 2436 2352 2437 2514 2515 2438 2516 2588
8 2440 2356 2442 2518 2514 2437 2516 2588
8 2442 2358 2444 2520 2516 2439 2517 2589
8 2519 2443 2520 2591 2441 2357 2442 2518
8 2519 2443 2361 2447 2591 2520 2446 2524
8 2446 2360 2445 2523 2520 2444 2521 2592
8 2525 2448 2522 2593 2452 2369 2445 2523
8 2524 2446 2370 2453 2594 2523 2452 2527
8 2526 2449 2525 2595 2451 2368 2452 2527
8 2534 2462 2528 2597 2460 2382 2454 2529
8 2530 2455 2380 2458 2598 2529 2460 2532
8 2599 2533 2460 2532 2531 2459 2380 2458
8 2537 2464 2533 2599 2463 2384 2459 2531
8 2534 2462 2382 2460 2601 2535 2461 2533
8 2538 2465 2535 2601 2464 2385 2461 2533
8 2540 2467 2538 2604 2466 2387 2464 2537
8 2541 2468 2539 2605 2467 2388 2465 2538
8 2543 2470 2541 2607 2469 2390 2467 2540
8 2470 2391 2471 2544 2541 2468 2542 2608
8 2472 2393 2473 2546 2543 2470 2544 2610
8 2473 2394 2474 2547 2544 2471 2545 2611
8 2475 2396 2476 2549 2546 2473 2547 2613
8 2476 2397 2477 2550 2547 2474 2548 2614
8 2549 2476 2399 2478 2616 2550 2479 2552
8 2479 2400 2480 2553 2550 2477 2551 2617
8 2552 2479 2402 2483 2619 2553 2482 2557
8 2482 2401 2481 2556 2553 2480 2554 2620
8 2485 2404 2484 2559 2556 2481 2555 2623
8 2486 2405 2485 2560 2557 2482 2556 2624
8 2488 2407 2487 2561 2559 2484 2558 2625
8 2489 2408 2488 2562 2560 2485 2559 2626
8 2491 2411 2490 2563 2562 2488 2561 2627
8 2513 2434 2512 2585 2565 2493 2564 2630
8 2586 2513 2565 2632 2515 2438 2494 2567
8 2565 2493 2566 2633 2494 2416 2495 2568
8 2567 2494 2568 2635 2496 2417 2497 2570
8 2568 2495 2569 2636 2497 2418 2498 2571
8 2570 2497 2571 2638 2499 2420 2500 2573
8 2571 2498 2572 2639 2500 2421 2501 2574
8 2573 2500 2574 2641 2502 2423 2503 2576
8 2574 2501 2575 2642 2503 2424 2504 2577
8 2576 2503 2577 2643 2505 2426 2506 2578
8 2597 2528 2579 2645 2529 2454 2508 2580
8 2580 2508 2579 2645 2525 2448 2522 2593
8 2581 2509 2455 2530 2646 2580 2529 2598
8 2581 2509 2580 2646 2526 2449 2525 2595
8 2583 2511 2582 2648 2513 2434 2512 2585
8 2583 2511 2439 2516 2648 2582 2517 2589
8 2649 2583 2513 2586 2588 2516 2438 2515
8 2589 2517 2444 2520 2653 2587 2521 2592
8 2518 2442 2520 2591 2588 2516 2589 2654
8 2593 2522 2590 2655 2523 2445 2521 2592
8 2524 2446 2523 2594 2591 2520 2592 2656
8 2595 2525 2593 2657 2527 2452 2523 2594
8 2602 2536 2596 2659 2534 2462 2528 2597
8 2600 2534 2597 2660 2532 2460 2529 2598
8 2600 2534 2460 2532 2661 2601 2533 2599
8 2604 2538 2601 2661 2537 2464 2533 2599
8 2602 2536 2462 2534 2663 2603 2535 2601
8 2601 2535 2465 2538 2663 2603 2539 2605
8 2607 2541 2605 2665 2540 2467 2538 2604
8 2608 2542 2606 2666 2541 2468 2539 2605
8 2543 2470 2544 2610 2607 2541 2608 2668
8 2544 2471 2545 2611 2608 2542 2609 2669
8 2546 2473 2547 2613 2610 2544 2611 2671
8 2547 2474 2548 2614 2611 2545 2612 2672
8 2549 2476 2550 2616 2613 2547 2614 2674
8 2550 2477 2551 2617 2614 2548 2615 2675
8 2552 2479 2553 2619 2616 2550 2617 2677
8 2553 2480 2554 2620 2617 2551 2618 2678
8 2557 2482 2556 2624 2619 2553 2620 2680
8 2556 2481 2555 2623 2620 2554 2621 2681
8 2559 2484 2558 2625 2623 2555 2622 2683
8 2560 2485 2559 2626 2624 2556 2623 2684
8 2562 2488 2561 2627 2626 2559 2625 2685
8 2690 2629 2564 2630 2650 2584 2512 2585
8 2586 2513 2585 2651 2632 2565 2630 2691
8 2630 2564 2631 2692 2565 2493 2566 2633
8 2632 2565 2633 2694 2567 2494 2568 2635
8 2633 2566 2634 2695 2568 2495 2569 2636
8 2635 2568 2636 2697 2570 2497 2571 2638
8 2636 2569 2637 2698 2571 2498 2572 2639
8 2638 2571 2639 2700 2573 2500 2574 2641
8 2639 2572 2640 2701 2574 2501 2575 2642
8 2641 2574 2642 2702 2576 2503 2577 2643
8 2597 2528 2596 2659 2645 2579 2644 2704
8 2645 2579 2644 2704 2593 2522 2590 2655
8 2660 2597 2645 2705 2598 2529 2580 2646
8 2646 2580 2645 2705 2595 2525 2593 2657
8 2650 2584 2512 2585 2707 2647 2582 2648
8 2648 2582 2517 2589 2707 2647 2587 2653
8 2649 2583 2648 2708 2586 2513 2585 2651
8 2649 2583 2516 2588 2708 2648 2589 2654
8 2655 2590 2652 2710 2592 2521 2587 2653
8 2654 2589 2520 2591 2711 2653 2592 2656
8 2657 2593 2655 2712 2594 2523 2592 2656
8 2602 2536 2603 2663 2659 2596 2658 2714
8 2662 2602 2659 2715 2600 2534 2597 2660
8 2662 2602 2534 2600 2717 2663 2601 2661
8 2661 2601 2538 2604 2717 2663 2605 2665
8 2666 2606 2664 2718 2605 2539 2603 2663
8 2668 2608 2666 2720 2607 2541 2605 2665
8 2608 2542 2609 2669 2666 2606 2667 2721
8 2610 2544 2611 2671 2668 2608 2669 2723
8 2611 2545 2612 2672 2669 2609 2670 2724
8 2613 2547 2614 2674 2671 2611 2672 2726
8 2614 2548 2615 2675 2672 2612 2673 2727
8 2616 2550 2617 2677 2674 2614 2675 2729
8 2617 2551 2618 2678 2675 2615 2676 2730
8 2619 2553 2620 2680 2677 2617 2678 2732
8 2620 2554 2621 2681 2678 2618 2679 2733
8 2624 2556 2623 2684 2680 2620 2681 2735
8 2681 2621 2555 2623 2736 2682 2622 2683
8 2626 2559 2625 2685 2684 2623 2683 2737
8 2688 2628 2584 2650 2740 2686 2647 2707
8 2688 2628 2687 2742 2650 2584 2629 2690
8 2690 2629 2689 2745 2630 2564 2631 2692
8 2746 2690 2630 2691 2709 2650 2585 2651
8 2691 2630 2692 2747 2632 2565 2633 2694
8 2692 2631 2693 2748 2633 2566 2634 2695
8 2694 2633 2695 2750 2635 2568 2636 2697
8 2695 2634 2696 2751 2636 2569 2637 2698
8 2697 2636 2698 2753 2638 2571 2639 2700
8 2698 2637 2699 2754 2639 2572 2640 2701
8 2700 2639 2701 2755 2641 2574 2642 2702
8 2659 2596 2658 2714 2704 2644 2703 2757
8 2704 2644 2703 2757 2655 2590 2652 2710
8 2660 2597 2659 2715 2705 2645 2704 2758
8 2705 2645 2704 2758 2657 2593 2655 2712
8 2759 2706 2647 2707 2710 2652 2587 2653
8 2709 2650 2585 2651 2760 2707 2648 2708
8 2708 2648 2589 2654 2760 2707 2653 2711
8 2712 2655 2710 2761 2656 2592 2653 2711
8 2763 2713 2658 2714 2718 2664 2603 2663
8 2662 2602 2663 2717 2715 2659 2714 2764
8 2720 2666 2718 2767 2665 2605 2663 2717
8 2768 2719 2664 2718 2721 2667 2606 2666
8 2668 2608 2669 2723 2720 2666 2721 2770
8 2669 2609 2670 2724 2721 2667 2722 2771
8 2671 2611 2672 2726 2723 2669 2724 2773
8 2672 2612 2673 2727 2724 2670 2725 2774
8 2674 2614 2675 2729 2726 2672 2727 2776
8 2675 2615 2676 2730 2727 2673 2728 2777
8 2677 2617 2678 2732 2729 2675 2730 2779
8 2678 2618 2679 2733 2730 2676 2731 2780
8 2680 2620 2681 2735 2732 2678 2733 2782
8 2733 2679 2621 2681 2783 2734 2682 2736
8 2735 2681 2623 2684 2784 2736 2683 2737
8 2740 2686 2647 2707 2787 2738 2706 2759
8 2688 2628 2686 2740 2742 2687 2739 2789
8 2743 2688 2650 2709 2790 2740 2707 2760
8 2742 2687 2741 2792 2690 2629 2689 2745
8 2743 2688 2742 2793 2709 2650 2690 2746
8 2745 2689 2744 2795 2692 2631 2693 2748
8 2746 2690 2745 2796 2691 2630 2692 2747
8 2747 2692 2748 2797 2694 2633 2695 2750
8 2748 2693 2749 2798 2695 2634 2696 2751
8 2750 2695 2751 2800 2697 2636 2698 2753
8 2751 2696 2752 2801 2698 2637 2699 2754
8 2753 2698 2754 2802 2700 2639 2701 2755
8 2763 2713 2756 2804 2714 2658 2703 2757
8 2759 2706 2652 2710 2804 2756 2703 2757
8 2715 2659 2714 2764 2758 2704 2757 2805
8 2758 2704 2757 2805 2712 2655 2710 2761
8 2806 2759 2707 2760 2761 2710 2653 2711
8 2765 2716 2762 2808 2718 2664 2713 2763
8 2809 2763 2714 2764 2767 2718 2663 2717
8 2765 2716 2664 2718 2811 2766 2719 2768
8 2813 2768 2718 2767 2770 2721 2666 2720
8 2814 2769 2719 2768 2771 2722 2667 2721
8 2723 2669 2724 2773 2770 2721 2771 2816
8 2724 2670 2725 2774 2771 2722 2772 2817
8 2726 2672 2727 2776 2773 2724 2774 2819
8 2727 2673 2728 2777 2774 2725 2775 2820
8 2729 2675 2730 2779 2776 2727 2777 2822
8 2730 2676 2731 2780 2777 2728 2778 2823
8 2732 2678 2733 2782 2779 2730 2780 2825
8 2780 2731 2679 2733 2826 2781 2734 2783
8 2782 2733 2681 2735 2827 2783 2736 2784
8 2830 2785 2738 2787 2804 2756 2706 2759
8 2789 2739 2686 2740 2832 2786 2738 2787
8 2790 2740 2707 2760 2833 2787 2759 2806
8 2742 2687 2739 2789 2792 2741 2788 2835
8 2743 2688 2740 2790 2793 2742 2789 2836
8 2792 2741 2791 2838 2745 2689 2744 2795
8 2793 2742 2792 2839 2746 2690 2745 2796
8 2795 2744 2794 2841 2748 2693 2749 2798
8 2796 2745 2795 2842 2747 2692 2748 2797
8 2797 2748 2798 2843 2750 2695 2751 2800
8 2798 2749 2799 2844 2751 2696 2752 2801
8 2800 2751 2801 2845 2753 2698 2754 2802
8 2808 2762 2803 2847 2763 2713 2756 2804
8 2809 2763 2804 2848 2764 2714 2757 2805
8 2806 2759 2710 2761 2848 2804 2757 2805
8 2765 2716 2766 2811 2808 2762 2807 2850
8 2810 2765 2808 2851 2767 2718 2763 2809
8 2810 2765 2718 2767 2852 2811 2768 2813
8 2811 2766 2719 2768 2853 2812 2769 2814
8 2855 2814 2768 2813 2816 2771 2721 2770
8 2856 2815 2769 2814 2817 2772 2722 2771
8 2773 2724 2774 2819 2816 2771 2817 2858
8 2774 2725 2775 2820 2817 2772 2818 2859
8 2776 2727 2777 2822 2819 2774 2820 2861
8 2777 2728 2778 2823 2820 2775 2821 2862
8 2779 2730 2780 2825 2822 2777 2823 2864
8 2823 2778 2731 2780 2865 2824 2781 2826
8 2825 2780 2733 2782 2866 2826 2783 2827
8 2869 2828 2785 2830 2847 2803 2756 2804
8 2871 2829 2786 2832 2830 2785 2738 2787
8 2872 2830 2787 2833 2848 2804 2759 2806
8 2789 2739 2786 2832 2835 2788 2831 2874
8 2836 2789 2740 2790 2875 2832 2787 2833
8 2792 2741 2788 2835 2838 2791 2834 2877
8 2793 2742 2789 2836 2839 2792 2835 2878
8 2838 2791 2837 2880 2795 2744 2794 2841
8 2839 2792 2838 2881 2796 2745 2795 2842
8 2841 2794 2840 2882 2798 2749 2799 2844
8 2842 2795 2841 2883 2797 2748 2798 2843
8 2843 2798 2844 2884 2800 2751 2801 2845
8 2886 2846 2803 2847 2850 2807 2762 2808
8 2851 2808 2847 2887 2809 2763 2804 2848
8 2850 2807 2766 2811 2889 2849 2812 2853
8 2810 2765 2811 2852 2851 2808 2850 2890
8 2852 2811 2768 2813 2891 2853 2814 2855
8 2853 2812 2769 2814 2892 2854 2815 2856
8 2894 2856 2814 2855 2858 2817 2771 2816
8 2817 2772 2818 2859 2856 2815 2857 2895
8 2819 2774 2820 2861 2858 2817 2859 2897
8 2820 2775 2821 2862 2859 2818 2860 2898
8 2822 2777 2823 2864 2861 2820 2862 2900
8 2823 2778 2824 2865 2862 2821 2863 2901
8 2864 2823 2780 2825 2902 2865 2826 2866
8 2904 2867 2828 2869 2886 2846 2803 2847
8 2869 2828 2868 2906 2830 2785 2829 2871
8 2907 2869 2830 2872 2887 2847 2804 2848
8 2871 2829 2870 2909 2832 2786 2831 2874
8 2910 2871 2832 2875 2872 2830 2787 2833
8 2835 2788 2831 2874 2877 2834 2873 2912
8 2836 2789 2832 2875 2878 2835 2874 2913
8 2877 2834 2876 2915 2838 2791 2837 2880
8 2839 2792 2835 2878 2881 2838 2877 2916
8 2880 2837 2879 2917 2841 2794 2840 2882
8 2881 2838 2880 2918 2842 2795 2841 2883
8 2883 2841 2882 2919 2843 2798 2844 2884
8 2921 2885 2846 2886 2889 2849 2807 2850
8 2922 2886 2847 2887 2890 2850 2808 2851
8 2889 2849 2812 2853 2924 2888 2854 2892
8 2890 2850 2811 2852 2925 2889 2853 2891
8 2891 2853 2814 2855 2926 2892 2856 2894
8 2892 2854 2815 2856 2927 2893 2857 2895
8 2858 2817 2859 2897 2894 2856 2895 2929
8 2859 2818 2860 2898 2895 2857 2896 2930
8 2861 2820 2862 2900 2897 2859 2898 2932
8 2862 2821 2863 2901 2898 2860 2899 2933
8 2864 2823 2865 2902 2900 2862 2901 2934
8 2904 2867 2846 2886 2936 2903 2885 2921
8 2904 2867 2903 2936 2869 2828 2868 2906
8 2937 2904 2869 2907 2922 2886 2847 2887
8 2906 2868 2905 2939 2871 2829 2870 2909
8 2907 2869 2906 2940 2872 2830 2871 2910
8 2909 2870 2908 2942 2874 2831 2873 2912
8 2910 2871 2909 2943 2875 2832 2874 2913
8 2912 2873 2911 2945 2877 2834 2876 2915
8 2878 2835 2874 2913 2916 2877 2912 2946
8 2915 2876 2914 2947 2880 2837 2879 2917
8 2916 2877 2915 2948 2881 2838 2880 2918
8 2918 2880 2917 2949 2883 2841 2882 2919
8 2921 2885 2849 2889 2951 2920 2888 2924
8 2952 2921 2886 2922 2925 2889 2850 2890
8 2924 2888 2854 2892 2954 2923 2893 2927
8 2925 2889 2853 2891 2955 2924 2892 2926
8 2926 2892 2856 2894 2956 2927 2895 2929
8 2895 2857 2896 2930 2927 2893 2928 2957
8 2897 2859 2898 2932 2929 2895 2930 2959
8 2898 2860 2899 2933 2930 2896 2931 2960
8 2900 2862 2901 2934 2932 2898 2933 2961
8 2936 2903 2885 2921 2963 2935 2920 2951
8 2936 2903 2935 2963 2906 2868 2905 2939
8 2937 2904 2886 2922 2964 2936 2921 2952
8 2937 2904 2936 2964 2907 2869 2906 2940
8 2939 2905 2938 2966 2909 2870 2908 2942
8 2940 2906 2939 2967 2910 2871 2909 2943
8 2942 2908 2941 2969 2912 2873 2911 2945
8 2943 2909 2942 2970 2913 2874 2912 2946
8 2945 2911 2944 2971 2915 2876 2914 2947
8 2946 2912 2945 2972 2916 2877 2915 2948
8 2948 2915 2947 2973 2918 2880 2917 2949
8 2951 2920 2888 2924 2975 2950 2923 2954
8 2952 2921 2889 2925 2976 2951 2924 2955
8 2927 2893 2928 2957 2954 2923 2953 2978
8 2955 2924 2892 2926 2979 2954 2927 2956
8 2929 2895 2930 2959 2956 2927 2957 2980
8 2930 2896 2931 2960 2957 2928 2958 2981
8 2932 2898 2933 2961 2959 2930 2960 2982
8 2951 2920 2950 2975 2963 2935 2962 2984
8 2963 2935 2962 2984 2939 2905 2938 2966
8 2964 2936 2921 2952 2985 2963 2951 2976
8 2964 2936 2963 2985 2940 2906 2939 2967
8 2966 2938 2965 2987 2942 2908 2941 2969
8 2967 2939 2966 2988 2943 2909 2942 2970
8 2969 2941 2968 2989 2945 2911 2944 2971
8 2970 2942 2969 2990 2946 2912 2945 2972
8 2972 2945 2971 2991 2948 2915 2947 2973
8 2954 2923 2953 2978 2975 2950 2974 2993
8 2976 2951 2924 2955 2994 2975 2954 2979
8 2957 2928 2958 2981 2978 2953 2977 2995
8 2956 2927 2957 2980 2979 2954 2978 2996
8 2959 2930 2960 2982 2980 2957 2981 2997
8 2984 2962 2983 2999 2966 2938 2965 2987
8 2975 2950 2974 2993 2984 2962 2983 2999
8 2976 2951 2975 2994 2985 2963 2984 3000
8 2985 2963 2984 3000 2967 2939 2966 2988
8 2987 2965 2986 3001 2969 2941 2968 2989
8 2988 2966 2987 3002 2970 2942 2969 2990
8 2990 2969 2989 3003 2972 2945 2971 2991
8 2978 2953 2977 2995 2993 2974 2992 3004
8 2979 2954 2978 2996 2994 2975 2993 3005
8 2980 2957 2981 2997 2996 2978 2995 3006
8 2974 2993 2999 2983 2992 3004 3007 2998
8 2983 2999 2987 2965 2998 3007 3001 2986
8 3000 2984 2999 3008 2988 2966 2987 3002
8 2994 2975 2993 3005 3000 2984 2999 3008
8 3002 2987 3001 3009 2990 2969 2989 3003
8 2996 2978 2995 3006 3005 2993 3004 3010
8 3005 2993 3004 3010 3008 2999 3007 3011
8 3008 2999 3007 3011 3002 2987 3001 3009

CELL_TYPES 1910
12
12
12
12
12
12
12
12
12
12
12
12
12
12
12
12
12
12
12
12
12
12
12
12
12
12
12
12
12
12
12
12
12
12
12
12
12
12
12
12
12
12
12
12
12
12
12
12
12
12
12
12
12
12
12
12
12
12
12
12
12
12
12
12
12
12
12
12
12
12
12
12
12
12
12
12
12
12
12
12
12
12
12
12
12
12
12
12
12
12
12
12
12
12
12
12
12
12
12
12
12
12
12
12
12
12
12
12
12
12
12
12
12
12
12
12
12
12
12
12
12
12
12
12
12
12
12
12
12
12
12
12
12
12
12
12
12
12
12
12
12
12
12
12
12
12
12
12
12
12
12
12
12
12
12
12
12
12
12
12
12
12
12
12
12
12
12
12
12
12
12
12
12
12
12
12
12
12
12
12
12
12
12
12
12
12
12
12
12
12
12
12
12
12
12
12
12
12
12
12
12
12
12
12
12
12
12
12
12
12
12
12
12
12
12
12
12
12
12
12
12
12
12
12
12
12
12
12
12
12
12
12
12
12
12
12
12
12
12
12
12
12
12
12
12
12
12
12
12
12
12
12
12
12
12
12
12
12
12
12
12
12
12
12
12
12
12
12
12
12
12
12
12
12
12
12
12
12
12
12
12
12
12
12
12
12
12
12
12
12
12
12
12
12
12
12
12
12
12
12
12
12
12
12
12
12
12
12
12
12
12
12
12
12
12
12
12
12
12
12
12
12
12
12
12
12
12
12
12
12
12
12
12
12
12
12
12
12
12
12
12
12
12
12
12
12
12
12
12
12
12
12
12
12
12
12
12
12
12
12
12
12
12
12
12
12
12
12
12
12
12
12
12
12
12
12
12
12
12
12
12
12
12
12
12
12
12
12
12
12
12
12
12
12
12
12
12
12
12
12
12
12
12
12
12
12
12
12
12
12
12
12
12
12
12
12
12
12
12
12
12
12
12
12
12
12
12
12
12
12
12
12
12
12
12
12
12
12
12
12
12
12
12
12
12
12
12
12
12
12
12
12
12
12
12
12
12
12
12
12
12
12
12
12
12
12
12
12
12
12
12
12
12
12
12
12
12
12
12
12
12
12
12
12
12
12
12
12
12
12
12
12
12
12
12
12
12
12
12
12
12
12
12
12
12
12
12
12
12
12
12
12
12
12
12
12
12
12
12
12
12
12
12
12
12
12
12
12
12
12
12
12
12
12
12
12
12
12
12
12
12
12
12
12
12
12
12
12
12
12
12
12
12
12
12
12
12
12
12
12
12
12
12
12
12
12
12
12
12
12
12
12
12
12
12
12
12
12
12
12
12
12
12
12
12
12
12
12
12
12
12
12
12
12
12
12
12
12
12
12
12
12
12
12
12
12
12
12
12
12
12
12
12
12
12
12
12
12
12
12
12
12
12
12
12
12
12
12
12
12
12
12
12
12
12
12
12
12
12
12
12
12
12
12
12
12
12
12
12
12
12
12
12
12
12
12
12
12
12
12
12
12
12
12
12
12
12
12
12
12
12
12
12
12
12
12
12
12
12
12
12
12
12
12
12
12
12
12
12
12
12
12
12
12
12
12
12
12
12
12
12
12
12
12
12
12
12
12
12
12
12
12
12
12
12
12
12
12
12
12
12
12
12
12
12
12
12
12
12
12
12
12
12
12
12
12
12
12
12
12
12
12
12
12
12
12
12
12
12
12
12
12
12
12
12
12
12
12
12
12
12
12
12
12
12
12
12
12
12
12
12
12
12
12
12
12
12
12
12
12
12
12
12
12
12
12
12
12
12
12
12
12
12
12
12
12
12
12
12
12
12
12
12
12
12
12
12
12
12
12
12
12
12
12
12
12
12
12
12
12
12
12
12
12
12
12
12
12
12
12
12
12
12
12
12
12
12
12
12
12
12
12
12
12
12
12
12
12
12
12
12
12
12
12
12
12
12
12
12
12
12
12
12
12
12
12
12
12
12
12
12
12
12
12
12
12
12
12
12
12
12
12
12
12
12
12
12
12
12
12
12
12
12
12
12
12
12
12
12
12
12
12
12
12
12
12
12
12
12
12
12
12
12
12
12
12
12
12
12
12
12
12
12
12
12
12
12
12
12
12
12
12
12
12
12
12
12
12
12
12
12
12
12
12
12
12
12
12
12
12
12
12
12
12
12
12
12
12
12
12
12
12
12
12
12
12
12
12
12
12
12
12
12
12
12
12
12
12
12
12
12
12
12
12
12
12
12
12
12
12
12
12
12
12
12
12
12
12
12
12
12
12
12
12
12
12
12
12
12
12
12
12
12
12
12
12
12
12
12
12
12
12
12
12
12
12
12
12
12
12
12
12
12
12
12
12
12
12
12
12
12
12
12
12
12
12
12
12
12
12
12
12
12
12
12
12
12
12
12
12
12
12
12
12
12
12
12
12
12
12
12
12
12
12
12
12
12
12
12
12
12
12
12
12
12
12
12
12
12
12
12
12
12
12
12
12
12
12
12
12
12
12
12
12
12
12
12
12
12
12
12
12
12
12
12
12
12
12
12
12
12
12
12
12
12
12
12
12
12
12
12
12
12
12
12
12
12
12
12
12
12
12
12
12
12
12
12
12
12
12
12
12
12
12
12
12
12
12
12
12
12
12
12
12
12
12
12
12
12
12
12
12
12
12
12
12
12
12
12
12
12
12
12
12
12
12
12
12
12
12
12
12
12
12
12
12
12
12
12
12
12
12
12
12
12
12
12
12
12
12
12
12
12
12
12
12
12
12
12
12
12
12
12
12
12
12
12
12
12
12
12
12
12
12
12
12
12
12
12
12
12
12
12
12
12
12
12
12
12
12
12
12
12
12
12
12
12
12
12
12
12
12
12
12
12
12
12
12
12
12
12
12
12
12
12
12
12
12
12
12
12
12
12
12
12
12
12
12
12
12
12
12
12
12
12
12
12
12
12
12
12
12
12
12
12
12
12
12
12
12
12
12
12
12
12
12
12
12
12
12
12
12
12
12
12
12
12
12
12
12
12
12
12
12
12
12
12
12
12
12
12
12
12
12
12
12
12
12
12
12
12
12
12
12
12
12
12
12
12
12
12
12
12
12
12
12
12
12
12
12
12
12
12
12
12
12
12
12
12
12
12
12
12
12
12
12
12
12
12
12
12
12
12
12
12
12
12
12
12
12
12
12
12
12
12
12
12
12
12
12
12
12
12
12
12
12
12
12
12
12
12
12
12
12
12
12
12
12
12
12
12
12
12
12
12
12
12
12
12
12
12
12
12
12
12
12
12
12
12
12
12
12
12
12
12
12
12
12
12
12
12
12
12
12
12
12
12
12
12
12
12
12
12
12
12
12
12
12
12
12
12
12
12
12
12
12
12
12
12
12
12
12
12
12
12
12
12
12
12
12
12
12
12
12
12
12
12
12
12
12
12
12
12
12
12
12
12
12
12
12
12
12
12
12
12
12
12
12
12
12
12
12
12
12
12
12
12
12
12
12
12
12
12
12
12
12
12
12
12
12
12
12
12
12
12
12
12
12
12
12
12
12
12
12
12
12
12
12
12
12
12
12
12
12
12
12
12
12
12
12
12
12
12
12
12
12
12
12
12
12
12
12
12
12
12
12
12
12
12
12
12
12
12
12
12
12
12
12
12
12
12
12
12
12
12
12
12
12
12
12
12
12
12
12
12
12
12
12
12
12
12
12
12
12
12
12
12
12
12
12
12
12
12
12
12
12
12
12
12
12
12
12
12
12
12
12
12
12
12
12
12
12
12
12
12
12
12
12
12
12
12
12
12
12
12
12
12
12
12
12
12
12
12
12
12
12
12
12
12
12
12
12
12
12
12
12
12
12
12
12
12
12
12
12
12
12
12
12
12
12
12
12
12
12
12
12
12
12
12
12
12
12
12
12
12
12
12
12
12
12
12
12
12
12
12
12
12
12
12
12
12
12
12
12
12
12
12
12
12
12
12
12
12
12
12
12
12
12
12
12
12
12
12
12
12
12
12
12
12
12
12
12
12
12
12
12
12
12
12
12
12
12
12
12
12
12
12
12
12
12
12
12
12
12
12
12
12
12
12
12
12
12
12
12
12
12
12
12
12
12
12
12
12
12
12
12
12
12
12
12
12
12
12
12
12
12
12
12
12
12
12
12
12
12
12
12
12
12
12
12
12
12
12
12
12
12
12
12
12
12
12
12
12
12
12
12
12
12
12
12
12
12
12
12
12
12
12
12
12
12
12
12
12
12
12
12
12
12
12
12
12
12
12
12
12
12
12
12
12
12
12
12
12
12
12
12
12
12
12
12
12
12
12
12
12
12
12
12
12
12

POINT_DATA 3012
SCALARS Jp_lamdaP float 4
LOOKUP_TABLE default
0.999996 1 1 0.999996
1 1 1 1
0.999997 1 1 0.999997
0.999978 1 1 0.999978
0.999992 1 1 0.999992
0.999999 1 1 0.999999
0.999847 1 1 0.999847
1 1 1 1
1 1 1 1
1 1 1 1
1 1 1 1
0.999945 1 1 0.999945
0.999956 1 1 0.999956
0.999979 1 1 0.999979
0.999998 1 1 0.999998
0.999981 1 1 0.999981
1 1 1 1
0.999994 1 1 0.999994
0.999849 1 1 0.999849
1 1 1 1
0.999974 1 1 0.999974
0.999986 1 1 0.999986
0.999748 1 1 0.999748
0.999817 1 1 0.999817
1 1 1 1
0.99988 1 1 0.99988
0.999585 1 1 0.999585
1 1 1 1
0.999994 1 1 0.999994
1 1 1 1
1 1 1 1
0.999951 1 1 0.999951
0.999986 1 1 0.999986
0.999998 1 1 0.999998
0.999872 1 1 0.999872
1 1 1 1
0.999928 1 1 0.999928
0.999966 1 1 0.999966
0.999645 1 1 0.999645
1 1 1 1
1 1 1 1
0.999988 1 1 0.999988
1 1 1 1
0.999971 1 1 0.999971
0.999731 1 1 0.999731
1 1 1 1
0.999818 1 1 0.999818
0.999983 1 1 0.999983
0.999995 1 1 0.999995
1 1 1 1
0.999851 1 1 0.999851
0.99998 1 1 0.99998
0.999977 1 1 0.999977
1 1 1 1
0.999988 1 1 0.999988
0.99975 1 1 0.99975
0.999881 1 1 0.999881
0.999819 1 1 0.999819
0.999575 1 1 0.999575
1 1 1 1
0.999968 1 1 0.999968
0.999773 1 1 0.999773
0.999733 1 1 0.999733
0.999782 1 1 0.999782
0.999355 1 1 0.999355
0.999484 1 1 0.999484
1 1 1 1
0.999921 1 1 0.999921
0.999657 1 1 0.999657
0.999274 1 1 0.999274
1 1 1 1
1 1 1 1
1 1 1 1
0.999956 1 1 0.999956
1 1 1 1
1 1 1 1
0.999874 1 1 0.999874
1 1 1 1
0.999933 1 1 0.999933
0.999973 1 1 0.999973
0.999643 1 1 0.999643
1 1 1 1
1 1 1 1
0.999838 1 1 0.999838
0.999899 1 1 0.999899
0.999433 1 1 0.999433
0.999989 1 1 0.999989
0.999609 1 1 0.999609
0.999681 1 1 0.999681
0.999428 1 1 0.999428
1 1 1 1
1 1 1 1
1 1 1 1
1 1 1 1
1 1 1 1
0.999983 1 1 0.999983
0.999752 1 1 0.999752
0.999991 1 1 0.999991
0.999815 1 1 0.999815
1 1 1 1
0.999701 1 1 0.999701
0.999794 1 1 0.999794
0.999163 1 1 0.999163
0.999834 1 1 0.999834
0.99925 1 1 0.99925
0.999963 1 1 0.999963
0.999979 1 1 0.999979
1 1 1 1
0.99999 1 1 0.99999
0.999752 1 1 0.999752
0.999822 1 1 0.999822
0.999882 1 1 0.999882
0.999564 1 1 0.999564
1 1 1 1
0.999972 1 1 0.999972
0.999719 1 1 0.999719
0.999733 1 1 0.999733
1 1 1 1
0.999941 1 1 0.999941
0.999785 1 1 0.999785
0.999336 1 1 0.999336
0.999646 1 1 0.999646
0.999496 1 1 0.999496
0.999275 1 1 0.999275
0.999716 1 1 0.999716
0.999723 1 1 0.999723
0.999223 1 1 0.999223
0.999291 1 1 0.999291
0.999394 1 1 0.999394
0.999053 1 1 0.999053
1 1 1 1
0.999212 1 1 0.999212
0.999986 1 1 0.999986
0.999681 1 1 0.999681
0.999335 1 1 0.999335
0.999146 1 1 0.999146
1 1 1 1
0.999806 1 1 0.999806
1 1 1 1
1 1 1 1
0.999879 1 1 0.999879
1 1 1 1
0.999981 1 1 0.999981
0.999936 1 1 0.999936
0.999642 1 1 0.999642
1 1 1 1
1 1 1 1
0.999848 1 1 0.999848
0.999907 1 1 0.999907
0.999435 1 1 0.999435
0.999993 1 1 0.999993
0.99961 1 1 0.99961
0.99968 1 1 0.99968
0.999421 1 1 0.999421
0.999999 1 1 0.999999
1 1 1 1
0.999833 1 1 0.999833
0.999348 1 1 0.999348
0.999534 1 1 0.999534
0.999172 1 1 0.999172
0.99973 1 1 0.99973
0.999386 1 1 0.999386
0.99945 1 1 0.99945
0.999335 1 1 0.999335
1 1 1 1
1 1 1 1
1 1 1 1
1 1 1 1
1 1 1 1
1 1 1 1
1 1 1 1
0.999811 1 1 0.999811
0.999745 1 1 0.999745
1 1 1 1
1 1 1 1
0.999703 1 1 0.999703
0.999791 1 1 0.999791
0.999163 1 1 0.999163
0.999827 1 1 0.999827
0.99925 1 1 0.99925
0.999692 1 1 0.999692
0.99911 1 1 0.99911
0.999214 1 1 0.999214
0.99891 1 1 0.99891
0.99929 1 1 0.99929
0.999005 1 1 0.999005
1 1 1 1
0.999976 1 1 0.999976
0.999664 1 1 0.999664
0.999734 1 1 0.999734
1 1 1 1
0.999961 1 1 0.999961
0.999788 1 1 0.999788
0.999317 1 1 0.999317
0.999509 1 1 0.999509
0.999635 1 1 0.999635
0.999276 1 1 0.999276
0.999713 1 1 0.999713
0.999724 1 1 0.999724
0.999185 1 1 0.999185
0.999305 1 1 0.999305
1 1 1 1
0.999981 1 1 0.999981
0.999697 1 1 0.999697
0.999396 1 1 0.999396
0.99903 1 1 0.99903
0.999332 1 1 0.999332
0.999222 1 1 0.999222
0.999148 1 1 0.999148
0.999999 1 1 0.999999
0.999806 1 1 0.999806
0.999121 1 1 0.999121
0.999271 1 1 0.999271
0.998957 1 1 0.998957
0.998971 1 1 0.998971
0.999143 1 1 0.999143
0.998943 1 1 0.998943
0.999996 1 1 0.999996
0.999088 1 1 0.999088
0.999712 1 1 0.999712
0.999415 1 1 0.999415
0.999206 1 1 0.999206
0.999104 1 1 0.999104
0.999754 1 1 0.999754
0.999871 1 1 0.999871
0.999539 1 1 0.999539
0.999848 1 1 0.999848
1 1 1 1
1 1 1 1
0.999914 1 1 0.999914
0.999437 1 1 0.999437
0.999997 1 1 0.999997
0.99968 1 1 0.99968
0.999611 1 1 0.999611
0.999413 1 1 0.999413
1 1 1 1
1 1 1 1
0.999833 1 1 0.999833
0.999348 1 1 0.999348
0.999537 1 1 0.999537
0.999173 1 1 0.999173
0.999731 1 1 0.999731
0.999393 1 1 0.999393
0.999449 1 1 0.999449
0.999326 1 1 0.999326
1 1 1 1
0.999778 1 1 0.999778
0.99989 1 1 0.99989
0.999583 1 1 0.999583
0.999089 1 1 0.999089
0.999297 1 1 0.999297
0.999042 1 1 0.999042
0.9995 1 1 0.9995
0.999293 1 1 0.999293
0.999315 1 1.00001 0.999306
0.999256 1 1 0.999256
0.999976 1 1 0.999976
1 1 1 1
1 1 1 1
1 1 1 1
1 1 1 1
1 1 1 1
1 1 1 1
1 1 1 1
1 1 1 1
0.999829 1 1 0.999829
0.999784 1 1 0.999784
0.99925 1 1 0.99925
0.999163 1 1 0.999163
0.999705 1 1 0.999705
1 1 1 1
0.999691 1 1 0.999691
0.999111 1 1 0.999111
0.999214 1 1 0.999214
0.99891 1 1 0.99891
0.99929 1 1 0.99929
0.999005 1 1 0.999005
0.999097 1 1 0.999097
0.998856 1 1 0.998856
0.998963 1 1 0.998963
0.998974 1.00014 1 0.998838
0.999043 1 1 0.999043
0.998922 1 1 0.998922
0.999711 1 1 0.999711
0.999724 1 1 0.999724
0.999147 1 1 0.999147
0.999319 1 1 0.999319
1 1 1 1
0.999976 1 1 0.999976
0.999713 1 1 0.999713
0.999397 1 1 0.999397
0.999008 1 1 0.999008
0.999232 1 1 0.999232
0.999328 1 1 0.999328
0.99915 1 1 0.99915
0.999998 1 1 0.999998
0.999806 1 1 0.999806
0.999109 1 1 0.999109
0.999271 1 1 0.999271
0.998947 1 1 0.998947
0.998995 1 1 0.998995
0.999994 1 1 0.999994
0.999712 1 1 0.999712
0.999432 1 1 0.999432
0.999143 1 1 0.999143
0.998938 1 1 0.998938
0.999189 1 1 0.999189
0.999088 1 1 0.999088
0.999104 1 1 0.999104
0.999755 1 1 0.999755
0.999536 1 1 0.999536
0.999869 1 1 0.999869
0.998907 1 1 0.998907
0.998981 1 1 0.998981
0.998869 1.00004 1 0.99883
0.998886 1 1 0.998886
0.999017 1 1 0.999017
0.999038 1.0001 1 0.99894
0.999729 1 1 0.999729
0.99906 1 1 0.99906
0.999505 1 1 0.999505
0.999266 1 1 0.999266
0.999097 1 1 0.999097
0.999141 1 1 0.999141
0.999921 1 1 0.999921
0.999532 1 1 0.999532
0.999562 1 1 0.999562
0.999438 1 1 0.999438
0.999349 1 1 0.999349
1 1 1 1
1 1 1 1
0.999834 1 1 0.999834
0.99954 1 1 0.99954
0.999173 1 1 0.999173
0.999731 1 1 0.999731
0.999448 1 1 0.999448
0.999401 1 1 0.999401
0.999317 1 1 0.999317
1 1 1 1
0.999778 1 1 0.999778
0.999892 1 1 0.999892
0.999581 1 1 0.999581
0.999087 1 1 0.999087
0.999299 1 1 0.999299
0.999042 1 1 0.999042
0.999501 1 1 0.999501
0.999303 1 1 0.999303
0.999301 1 1 0.999301
0.999284 1 1 0.999284
1 1 1 1
0.999929 1 1 0.999929
0.999545 1 1 0.999545
0.999633 1 1 0.999633
0.999439 1 1 0.999439
0.998974 1 1 0.998974
0.999179 1 1 0.999179
0.998995 1 1 0.998995
0.999342 1 1 0.999342
0.999237 1 1 0.999237
0.999174 1 1.00002 0.999153
0.999966 1 1 0.999966
0.999793 1 1 0.999793
0.999984 1 1 0.999984
0.999979 1 1 0.999979
1 1 1 1
1 1 1 1
1 1 1 1
1 1 1 1
1 1 1 1
1 1 1 1
1 1 1 1
1 1 1 1
1 1 1 1
1 1 1 1
1 1 1 1
0.999291 1 1 0.999291
0.999214 1 1 0.999214
0.999005 1 1 0.999005
0.998909 1 1 0.998909
0.999111 1 1 0.999111
0.99969 1 1 0.99969
0.999097 1 1 0.999097
0.998856 1 1 0.998856
0.998963 1 1 0.998963
0.998942 1.00011 1 0.998833
0.999041 1 1 0.999041
0.998922 1 1 0.998922
0.998841 1 1 0.998841
0.999925 1.00114 1 0.998784
0.998879 1 1 0.998878
1.00041 1.00159 1 0.998825
0.998951 1 1 0.998951
0.999286 1.00034 1 0.998949
0.999096 1 1 0.999096
0.99927 1 1 0.99927
0.998937 1 1 0.998937
0.999019 1 1 0.999019
0.999991 1 1 0.999991
0.999712 1 1 0.999712
0.999448 1 1 0.999448
0.999142 1 1 0.999142
0.998932 1 1 0.998932
0.999088 1 1 0.999088
0.999171 1 1 0.999171
0.999104 1 1 0.999104
0.999757 1 1 0.999757
0.999533 1 1 0.999533
0.999868 1 1 0.999868
0.998887 1 1 0.998887
0.998981 1 1 0.998981
0.998922 1.0001 1 0.998821
0.998891 1 1 0.998891
0.99973 1 1 0.99973
0.999503 1 1 0.999503
0.999285 1 1 0.999285
0.999025 1 1 0.999025
0.999051 1.00011 1 0.998947
0.999083 1 1 0.999083
0.999061 1 1 0.99906
0.999147 1 1 0.999147
0.999534 1 1 0.999534
0.999427 1 1 0.999427
0.999918 1 1 0.999918
0.999571 1 1 0.999571
0.999116 1.00034 1 0.998779
0.998858 1 1 0.998858
0.999816 1.00104 1 0.998781
0.99891 1.00004 1 0.99887
0.999236 1.00023 1 0.999006
0.9994 1.00044 1 0.998963
0.999531 1 1 0.999531
0.999133 1 1 0.999133
0.999375 1 1 0.999375
0.999142 1 1 0.999142
0.999024 1 1 0.999024
0.999145 1 1 0.999145
0.999946 1 1 0.999946
0.999623 1 1 0.999623
0.999438 1 1 0.999438
0.999438 1 1 0.999438
0.999388 1 1 0.999388
1 1 1 1
0.999086 1 1 0.999086
0.999895 1 1 0.999895
0.999778 1 1 0.999778
0.99958 1 1 0.99958
0.999301 1 1 0.999301
0.999042 1 1 0.999042
0.999502 1 1 0.999502
0.999296 1 1 0.999296
0.999312 1 1 0.999312
0.999313 1 1 0.999313
1 1 1 1
0.999933 1 1 0.999933
0.999545 1 1 0.999545
0.999633 1 1 0.999633
0.999432 1 1 0.999432
0.998972 1 1 0.998972
0.99918 1 1 0.99918
0.998991 1 1 0.998991
0.999349 1 1 0.999344
0.999243 1 1 0.999243
0.999222 1 1.00006 0.999166
0.999951 1 1 0.999951
0.999687 1 1 0.999687
0.999394 1 1 0.999394
0.999476 1 1 0.999476
0.999359 1 1 0.999359
0.99897 1.00003 1 0.998945
0.999124 1 1 0.999124
0.999063 1 1 0.999063
0.999792 1 1.0006 0.999195
0.999083 1 1 0.999083
0.999969 1 1 0.999969
0.999741 1 1 0.999741
0.999779 1 1 0.999779
0.999654 1 1 0.999654
0.999803 1 1 0.999803
0.999989 1 1 0.999989
0.999986 1 1 0.999986
1 1 1 1
0.999981 1 1 0.999981
1 1 1 1
1 1 1 1
1 1 1 1
1 1 1 1
1 1 1 1
1 1 1 1
1 1 1 1
1 1 1 1
1 1 1 1
1 1 1 1
1 1 1 1
0.99904 1 1 0.99904
0.998963 1 1 0.998963
0.998923 1 1 0.998923
0.998909 1.00008 1 0.998828
0.998856 1 1 0.998856
0.999096 1 1 0.999096
0.998841 1 1 0.998841
0.99993 1.00115 1 0.998777
0.998879 1 1 0.998879
1.00028 1.00146 1 0.998825
0.99895 1 1 0.99895
0.9992 1.00025 1 0.998948
0.999678 1.00092 1 0.998755
1.00247 1.00371 1 0.998769
0.999885 1.00101 1 0.998876
1.0018 1.00298 1 0.998821
0.999084 1.00013 1 0.998955
1.00041 1.00143 1 0.998974
0.998867 1 1 0.998867
0.99898 1 1 0.99898
0.998974 1.00016 1 0.998811
0.998895 1 1 0.998895
0.999731 1 1 0.999731
0.999501 1 1 0.999501
0.999304 1 1 0.999304
0.999033 1 1 0.999033
0.999063 1.00011 1 0.998953
0.99907 1.00001 1 0.99906
0.99907 1 1 0.99907
0.999154 1 1 0.999154
0.999536 1 1 0.999536
0.999415 1 1 0.999415
0.999915 1 1 0.999915
0.999579 1 1 0.999579
0.999302 1.00052 1 0.99878
0.998861 1 1 0.998861
0.999584 1.0008 1 0.998783
0.998902 1.00003 1 0.998872
0.999531 1 1 0.999531
0.99939 1 1 0.99939
0.999141 1 1 0.999141
0.999211 1.00021 1 0.999002
0.999447 1.00046 1 0.998992
0.999016 1 1 0.999016
0.999227 1.00009 1 0.999134
0.999167 1 1 0.999167
0.999438 1 1 0.999438
0.999385 1 1 0.999385
0.999436 1 1 0.999436
0.999926 1 1 0.999926
0.999631 1 1 0.999631
1.00139 1.00265 1 0.998745
0.999837 1.00106 1 0.998782
0.999637 1.00075 1 0.99889
0.999537 1.00049 1 0.999048
0.999442 1 1 0.999442
0.999651 1.00046 1 0.999192
0.999284 1 1 0.999284
0.999161 1 1.00018 0.998981
0.998958 1 1 0.998958
0.999928 1 1 0.999928
0.999709 1 1 0.999709
0.999495 1 1 0.999495
0.999407 1 1 0.999407
0.999342 1 1 0.999342
0.999351 1 1 0.999351
1 1 1 1
0.999936 1 1 0.999936
0.99897 1 1 0.99897
0.999632 1 1 0.999632
0.999545 1 1 0.999545
0.999425 1 1 0.999425
0.99918 1 1 0.99918
0.998987 1 1 0.998987
0.999346 1 1 0.999346
0.999213 1 1.00003 0.999178
0.99925 1 1 0.99925
0.999955 1 1 0.999955
0.999687 1 1 0.999687
0.999402 1 1 0.999402
0.999475 1 1 0.999475
0.999348 1 1 0.999348
0.998992 1.00005 1 0.998943
0.999119 1 1 0.999119
0.999073 1 1 0.999073
0.999513 1 1.00032 0.999188
0.99906 1 1 0.99906
0.999731 1 1 0.999731
0.999501 1 1 0.999501
0.999712 1 1.00043 0.999287
0.999348 1 1 0.999348
0.999283 1 1 0.999283
1.00018 1.00109 1 0.999092
0.999029 1 1 0.999029
0.999492 1.00043 1 0.99906
1.00054 1 1.00144 0.999101
0.998895 1 1 0.998895
0.999972 1 1 0.999972
0.999752 1 1 0.999752
0.999582 1 1 0.999582
0.999766 1 1 0.999766
0.999803 1 1 0.999803
0.999635 1 1 0.999635
0.999532 1 1 0.999532
0.999631 1 1 0.999631
0.999813 1 1 0.999813
0.999991 1 1 0.999991
0.99999 1 1 0.99999
1 1 1 1
0.999988 1 1 0.999988
1 1 1 1
1 1 1 1
1 1 1 1
1 1 1 1
1 1 1 1
1 1 1 1
1 1 1 1
1 1 1 1
1 1 1 1
1 1 1 1
1 1 1 1
0.998948 1 1 0.998948
0.998879 1 1 0.998879
0.999122 1.00018 1 0.998947
1.00015 1.00132 1 0.998824
0.999935 1.00117 1 0.99877
0.998841 1 1 0.998841
0.999805 1.00105 1 0.998752
1.00236 1.00359 1 0.99877
0.999802 1.00093 1 0.998868
1.00195 1.00313 1 0.998816
0.999058 1.0001 1 0.998955
1.00014 1.00115 1 0.99899
1.00288 1.00415 1 0.998741
1.00371 1.00492 1 0.998792
1.00216 1.00329 1 0.998882
1.00067 1.00163 1 0.999045
0.999481 1.0007 1 0.998781
0.998863 1 1 0.998863
0.999364 1.00058 1 0.998786
0.998893 1.00002 1 0.998874
0.999531 1 1 0.999531
0.999406 1 1 0.999406
0.999139 1 1 0.999139
0.99918 1.00018 1 0.998997
0.999516 1.0005 1 0.999021
0.999357 1.00022 1 0.999135
0.999009 1 1 0.999009
0.999189 1 1 0.999189
0.999439 1 1 0.999439
0.999381 1 1 0.999381
0.999434 1 1 0.999434
0.999906 1 1 0.999906
0.999639 1 1 0.999639
1.00119 1.00245 1 0.998748
1 1.00122 1 0.998787
0.999654 1.00076 1 0.998899
0.99944 1 1 0.99944
0.999303 1 1 0.999303
0.999299 1 1.00032 0.998977
0.999721 1.00068 1 0.999038
0.99899 1 1 0.99899
0.999423 1.00023 1 0.999193
0.999928 1 1 0.999928
0.999406 1 1 0.999406
0.999361 1 1 0.999361
0.999339 1 1 0.999339
0.999502 1 1 0.999502
0.999694 1 1 0.999694
1.00257 1.00383 1 0.998749
1.00159 1.00281 1 0.998783
1.00088 1.00194 1 0.998937
1.00127 1.00216 1 0.999113
0.999389 1 1 0.999389
0.999186 1.00015 1 0.999033
0.99935 1 1.00025 0.999103
0.999714 1 1.00086 0.998859
0.999945 1 1 0.999945
0.999752 1 1 0.999752
0.999552 1 1 0.999552
0.99935 1 1 0.99935
0.99936 1 1 0.99936
0.999299 1 1 0.999299
0.999958 1 1 0.999958
0.999688 1 1 0.999688
0.999016 1.00007 1 0.998941
0.999473 1 1 0.999473
0.99941 1 1 0.99941
0.999337 1 1 0.999337
0.999115 1 1 0.999115
0.999083 1 1 0.999083
0.999365 1 1.00018 0.999182
0.999037 1 1 0.999037
0.999731 1 1 0.999731
0.999507 1 1 0.999507
0.999533 1 1.00023 0.999301
0.999353 1 1 0.999353
0.999288 1 1 0.999288
1.00022 1.00113 1 0.999091
0.999033 1 1 0.999033
0.99937 1.00024 1 0.999129
1.00067 1 1.00158 0.999091
0.998891 1 1.00003 0.998862
0.99955 1 1 0.99955
0.99936 1 1 0.99936
1.00056 1 1.00136 0.999198
0.999233 1 1 0.999233
1.00427 1.00519 1 0.999079
1.0021 1.00308 0.999872 0.999148
0.999151 1.00029 1 0.998865
1.00168 1 1.00281 0.998872
0.999762 1 1 0.999762
0.999592 1 1 0.999592
0.999485 1 1 0.999485
0.999803 1 1 0.999803
0.999615 1 1 0.999615
0.999813 1 1 0.999813
0.999517 1 1 0.999517
0.999638 1 1 0.999638
0.999433 1 1 0.999433
0.999518 1 1 0.999518
0.999641 1 1 0.999641
0.999817 1 1 0.999817
0.99999 1 1 0.99999
0.999991 1 1 0.999991
1 1 1 1
0.99999 1 1 0.99999
1 1 1 1
1 1 1 1
1 1 1 1
1 1 1 1
1 1 1 1
1 1 1 1
1 1 1 1
1 1 1 1
1 1 1 1
1 1 1 1
1 1 1 1
0.999026 1.00007 1 0.998956
0.999723 1.00086 1 0.99886
0.999881 1.00087 1 0.999007
1.0021 1.0033 1 0.998812
1.00223 1.00347 1 0.998772
0.99994 1.00119 1 0.998749
1.00262 1.00388 1 0.998746
1.00361 1.00482 1 0.998791
1.00216 1.00328 1 0.998888
1.00083 1.00179 1 0.99904
1.00451 1.00575 1 0.998767
1.00484 1.00599 1 0.998853
1.00348 1.00452 1 0.998964
1.001 1.00225 1 0.998752
1.00017 1.00138 1 0.998792
0.999663 1.00075 1 0.998909
0.999439 1 1 0.999439
0.999321 1 1 0.999321
0.999479 1 1.00051 0.998973
0.999887 1.00086 1 0.999029
0.999199 1.00001 1 0.999194
0.999022 1 1 0.999022
0.999405 1 1 0.999405
0.99937 1 1 0.99937
0.999337 1 1 0.999337
0.999929 1 1 0.999929
0.999508 1 1 0.999508
0.999679 1 1 0.999679
1.00301 1.00427 1 0.99875
1.00131 1.00253 1 0.998781
1.00088 1.00196 1 0.998924
0.999385 1 1 0.999385
0.999325 1 1.00019 0.999135
0.999727 1 1.00086 0.998864
1.00178 1.00265 1 0.999131
0.999135 1.00011 1 0.999029
0.99996 1 1 0.99996
0.999752 1 1 0.999752
0.999359 1 1 0.999359
0.99931 1 1 0.99931
0.999353 1 1 0.999353
0.999541 1 1 0.999541
1.00411 1.00533 1 0.99879
1.00345 1.00464 1 0.998815
1.00437 1.0054 0.999905 0.999065
1.00311 1.00396 1 0.999159
0.999301 1 1 0.999301
1.00019 1 1.0014 0.99879
1.00034 1 1.00137 0.998981
0.999989 1 1 0.999989
0.999837 1 1 0.999837
0.999754 1 1 0.999754
0.999569 1 1 0.999569
0.999404 1 1 0.999404
0.999246 1 1 0.999246
0.999358 1 1 0.999358
0.999793 1 1.00049 0.999304
0.999732 1 1 0.999732
0.999513 1 1 0.999513
1.0002 1.00111 1 0.99909
0.999359 1 1 0.999359
0.999371 1 1.00006 0.999314
0.999292 1 1 0.999292
0.999037 1 1 0.999037
0.999198 1 1 0.999198
1.00075 1 1.00167 0.999082
0.998829 1 1 0.998829
0.999544 1 1 0.999544
0.999369 1 1 0.999369
1.00071 1 1.0015 0.999209
0.999243 1 1 0.999243
1.00414 1.00507 1 0.99907
1.00176 1.00267 0.999949 0.999147
0.999338 1.00044 1 0.998895
1.00124 1 1.00238 0.998857
0.999442 1 1 0.999442
1.0043 1.0053 1 0.999
0.999265 1 1 0.999265
1.00034 1 1.00125 0.999091
1.00734 1.00849 0.999722 0.99914
1.00222 1.00336 1 0.99887
1.00173 1 1.00297 0.998757
0.999601 1 1 0.999601
0.999485 1 1 0.999485
0.999392 1 1 0.999392
0.999813 1 1 0.999813
0.999645 1 1 0.999645
0.999502 1 1 0.999502
0.999817 1 1 0.999817
0.99964 1 1 0.99964
0.999421 1 1 0.999421
0.999533 1 1 0.999533
0.99936 1 1 0.99936
0.999421 1 1 0.999421
0.999547 1 1 0.999547
0.999659 1 1 0.999659
0.999813 1 1 0.999813
0.999988 1 1 0.999988
0.999989 1 1 0.999989
1 1 1 1
0.99999 1 1 0.99999
1 1 1 1
1 1 1 1
1 1 1 1
1 1 1 1
1 1 1 1
0.999996 1 1 0.999996
1 1 1 1
1 1 1 1
1 1 1 1
1 1 1 1
1 1 1 1
1 1 1 1
1.001 1.00197 1 0.999035
1.00215 1.00326 1 0.998894
1.0035 1.00472 1 0.998791
1.00237 1.00363 1 0.998751
1.00444 1.00567 1 0.998773
1.00515 1.00631 1 0.998844
1.00379 1.00481 1 0.998978
1.00439 1.00557 1 0.998832
1.00604 1.00714 1 0.998904
1.00372 1.00469 1 0.999029
1.00342 1.00467 1 0.998752
1.00102 1.00224 1 0.998779
1.00093 1.00202 1 0.998912
0.999381 1 1 0.999381
0.999259 1 1.00009 0.999167
0.99964 1 1.00077 0.998869
1.00234 1.00319 1 0.99915
0.999037 1.00001 1 0.999025
0.999359 1 1 0.999359
0.999321 1 1 0.999321
0.999357 1 1 0.999357
0.999975 1 1 0.999975
0.999752 1 1 0.999752
0.99953 1 1 0.99953
1.00368 1.00488 1 0.998798
0.999986 1 1 0.999986
0.999826 1 1 0.999826
1.0034 1.0046 1 0.998814
1.00503 1.006 1 0.999039
0.999319 1 1 0.999319
1.00074 1 1.00179 0.998954
0.999637 1 1.00084 0.998798
1.00272 1.00357 1 0.999159
0.999783 1 1 0.999783
0.999569 1 1 0.999569
0.999343 1 1 0.999343
0.999596 1 1.00025 0.999347
0.999228 1 1 0.999228
0.999406 1 1 0.999406
1.0048 1.00594 1 0.998867
1.0062 1.00731 1 0.998902
1.00644 1.00761 0.999601 0.999235
0.999543 1.00059 1 0.998958
1.00025 1 1.00099 0.999265
1.00309 1 1.00431 0.998787
0.999838 1 1 0.999838
0.999808 1 1 0.999808
0.999694 1 1 0.999694
0.999574 1 1 0.999574
0.99945 1 1 0.99945
0.99928 1 1 0.99928
0.999566 1 1.00041 0.999154
0.999355 1 1 0.999355
0.999538 1 1 0.999538
0.999377 1 1 0.999377
1.00416 1.00511 1 0.999061
1.00161 1.00246 1 0.999146
0.999252 1 1 0.999252
1.00081 1 1.0016 0.99922
0.999569 1.00061 1.00004 0.998926
1.00085 1 1.00201 0.998841
0.99944 1 1 0.99944
1.00475 1.00574 1 0.999016
0.999266 1 1 0.999266
1.0005 1 1.00143 0.999075
1.00662 1.00776 0.99974 0.999129
1.00261 1.00373 1 0.998879
1.00186 1 1.00311 0.998762
0.999322 1 1 0.999322
1.01498 1.0168 0.999096 0.999116
0.999177 1 1 0.999177
1.00184 1 1.00291 0.998929
1.00293 1.0068 0.997225 0.998932
1.00168 1.00075 1.00221 0.998725
1.00811 1.01 0.999009 0.99911
0.999485 1 1 0.999485
0.999392 1 1 0.999392
0.999326 1 1 0.999326
0.999817 1 1 0.999817
0.99964 1 1 0.99964
0.999548 1 1 0.999548
0.999409 1 1 0.999409
0.999813 1 1 0.999813
0.99965 1 1 0.99965
0.999356 1 1 0.999356
0.999547 1 1 0.999547
0.999434 1 1 0.999434
0.999342 1 1 0.999342
0.99947 1 1 0.99947
0.999556 1 1 0.999556
0.999633 1 1 0.999633
0.999784 1 1 0.999784
0.999679 1 1 0.999679
0.999785 1 1 0.999785
0.999987 1 1 0.999987
0.999988 1 1 0.999988
1 1 1 1
0.999989 1 1 0.999989
1 1 1 1
1 1 1 1
1 1 1 1
1 1 1 1
1 1 1 1
0.999999 1 1 0.999999
0.999994 1 1 0.999994
1 1 1 1
1 1 1 1
1 1 1 1
1 1 1 1
1 1 1 1
1 1 1 1
1.00408 1.00509 1 0.998992
1.00547 1.00665 1 0.998835
1.00439 1.00562 1 0.998779
1.00476 1.00594 1 0.998831
1.00555 1.00665 1 0.998909
1.0039 1.00487 1 0.999036
1.00523 1.00629 1 0.998948
1.01019 1.01547 0.995664 0.999126
1.01716 1.0188 0.999212 0.999179
0.999876 1 1 0.999876
1.0033 1.0045 1 0.998806
1.00324 1.00443 1 0.998813
1.00548 1.00647 1 0.999014
0.999337 1 1 0.999337
1.00134 1 1.00242 0.998926
0.999257 1 1.00045 0.998805
1.00231 1.00315 1 0.999159
0.999329 1 1 0.999329
0.99939 1 1 0.99939
0.99921 1 1 0.99921
0.999983 1 1 0.999983
0.999409 1 1 0.999409
0.999812 1 1 0.999812
0.999568 1 1 0.999568
0.999816 1 1 0.999816
1.00484 1.00598 1 0.998865
0.999851 1 1 0.999851
0.999807 1 1 0.999807
0.999672 1 1 0.999672
1.00667 1.00777 1 0.998906
1.00504 1.00637 0.999469 0.999202
0.999844 1 1.00057 0.999274
1.00338 1 1.0046 0.998777
0.999821 1.0007 1.00016 0.998963
0.999589 1 1 0.999589
0.999444 1 1 0.999444
0.99945 1 1.00012 0.999332
0.999694 1 1.00052 0.999175
0.999292 1 1 0.999292
1.00783 1.00891 1.00004 0.998879
1.0068 1.01043 0.997374 0.999033
1.00159 1.00282 0.999716 0.999056
1.00174 1.00007 1.00282 0.998851
1.00294 1 1.00377 0.99917
0.999674 1 1 0.999674
0.999617 1 1 0.999617
0.999554 1 1 0.999554
0.999461 1 1 0.999461
0.999353 1 1 0.999353
0.99925 1 1.00004 0.999205
1.00224 1 1.00313 0.999116
0.999439 1 1 0.999439
0.999268 1 1 0.999268
1.00515 1.00612 1 0.999033
1.00576 1.00694 0.999712 0.999118
1.00283 1.00395 1 0.998889
1.00064 1 1.00158 0.999059
1.00186 1 1.0031 0.998766
0.999335 1 1 0.999335
1.01446 1.01686 0.998519 0.999121
0.999181 1 1 0.999181
1.00186 1 1.00293 0.998935
1.00424 1.00745 0.99784 0.998968
1.00199 1.00058 1.00269 0.998719
1.00964 1.01163 0.998987 0.999041
0.999254 1 1 0.999254
1.00106 1.01136 0.990753 0.999061
0.999889 1 1.00075 0.999143
1.0049 1 1.00605 0.998856
1.00103 1.00115 1.00109 0.998798
0.958876 0.965647 0.998102 0.994876
1.00212 0.998076 1.00618 0.997881
0.989474 1.0087 0.981703 0.999225
0.922492 0.940297 0.983809 0.99721
0.922739 0.957884 0.965524 0.997707
0.999392 1 1 0.999392
0.999331 1 1 0.999331
0.999308 1 1 0.999308
0.999813 1 1 0.999813
0.999641 1 1 0.999641
0.999546 1 1 0.999546
0.999447 1 1 0.999447
0.999352 1 1 0.999352
0.999542 1 1 0.999542
0.999796 1 1 0.999796
0.999644 1 1 0.999644
0.999348 1 1 0.999348
0.999466 1 1 0.999466
0.999478 1 1 0.999478
0.999392 1 1 0.999392
0.999517 1 1 0.999517
0.999626 1 1 0.999626
0.999783 1 1 0.999783
0.999658 1 1 0.999658
0.99956 1 1 0.99956
0.999648 1 1 0.999648
0.99966 1 1 0.99966
0.999807 1 1 0.999807
0.999785 1 1 0.999785
0.999986 1 1 0.999986
0.999986 1 1 0.999986
1 1 1 1
0.999987 1 1 0.999987
1 1 1 1
1 1 1 1
1 1 1 1
1 1 1 1
1 1 1 1
1 1 1 1
0.999998 1 1 0.999998
1 1 1 1
0.999993 1 1 0.999993
1 1 1 1
1 1 1 1
1 1 1 1
1 1 1 1
1 1 1 1
1.00506 1.00615 1 0.998914
1.00506 1.00624 1 0.99883
1.00405 1.00501 1 0.999042
1.01117 1.01539 0.996705 0.999141
1.00501 1.00607 1 0.998946
1.01782 1.01935 0.999364 0.999139
1.01704 1.01819 1.00001 0.998861
0.978305 0.984914 0.995853 0.997426
1.01572 1.01754 0.998958 0.999251
0.999883 1 1 0.999883
0.999876 1 1 0.999876
0.99972 1 1 0.99972
0.999737 1 1 0.999737
1.00492 1.00607 1 0.998862
1.00729 1.00839 1 0.99891
1.00355 1.00491 0.999481 0.999169
0.999284 1 1 0.999284
1.00322 1 1.00446 0.998768
0.999951 1.00085 1.00013 0.998969
0.999548 1 1.00024 0.999307
0.999835 1 1.00064 0.999196
0.999305 1 1 0.999305
0.999807 1 1 0.999807
0.999438 1 1 0.999438
0.999605 1 1 0.999605
0.999864 1 1 0.999864
0.999649 1 1 0.999649
1.00646 1.00754 1.00003 0.998897
0.999697 1 1 0.999697
0.99963 1 1 0.99963
0.999551 1 1 0.999551
1.00815 1.01083 0.998305 0.999042
1.00043 1.00184 0.999541 0.999053
1.0026 1 1.00343 0.999168
1.00147 1.00009 1.00254 0.998839
0.999465 1 1 0.999465
0.999359 1 1 0.999359
1.00126 1 1.00215 0.999117
0.999528 1 1.00034 0.999189
1.01614 1.01728 0.999954 0.998924
1.00411 1.00875 0.996391 0.999012
1.00039 1.00087 1.00073 0.998799
1.00172 1 1.00266 0.999058
0.999511 1 1 0.999511
0.999495 1 1 0.999495
0.999314 1 1 0.999314
1.00266 1 1.00361 0.999046
0.950262 0.964016 0.990932 0.994753
0.999347 1 1 0.999347
0.999185 1 1 0.999185
1.01376 1.01676 0.997918 0.999127
1.00559 1.00803 0.99857 0.999004
1.00246 1.00045 1.0033 0.998714
1.00198 1 1.00304 0.998941
1.01101 1.01302 0.999044 0.998971
0.999262 1 1 0.999262
1.00069 1.01122 0.990527 0.999049
0.999643 1 1.0005 0.999146
1.00471 1 1.00586 0.998859
1.00052 1.0014 1.00031 0.998809
0.956634 0.965225 0.995963 0.995117
0.996745 0.995273 1.00444 0.997052
0.99275 1.00945 0.984182 0.999266
0.929533 0.943047 0.988796 0.996838
0.914073 0.951781 0.962747 0.997543
0.999279 1 1 0.999279
0.929808 0.941794 0.990787 0.996453
0.940746 0.959801 0.982194 0.997916
0.978106 1.00255 0.976532 0.999063
1.00278 1 1.00364 0.999142
1.00892 1 1.00998 0.99895
0.992279 1.00787 0.985204 0.999319
0.96884 0.970877 1.00332 0.994599
1.0019 0.997639 1.00745 0.996847
0.920709 0.946384 0.975697 0.997103
0.955715 0.985935 0.970878 0.998425
0.999336 1 1 0.999336
0.999309 1 1 0.999309
0.999326 1 1 0.999326
0.999808 1 1 0.999808
0.999654 1 1 0.999654
0.999529 1 1 0.999529
0.999462 1 1 0.999462
0.999355 1 1 0.999355
0.999783 1 1 0.999783
0.999479 1 1 0.999479
0.999532 1 1 0.999532
0.999639 1 1 0.999639
0.999381 1 1 0.999381
0.999433 1 1 0.999433
0.999553 1 1.0002 0.999356
0.999531 1 1 0.999531
0.99965 1 1 0.99965
0.999658 1 1 0.999658
0.999546 1 1 0.999546
0.999543 1 1 0.999543
0.999532 1 1 0.999532
0.999476 1 1 0.999476
0.999454 1 1 0.999454
0.999625 1 1 0.999625
0.999648 1 1 0.999648
0.999801 1 1 0.999801
0.999641 1 1 0.999641
0.999796 1 1 0.999796
0.999985 1 1 0.999985
0.999785 1 1 0.999785
0.999985 1 1 0.999985
1 1 1 1
0.999986 1 1 0.999986
1 1 1 1
1 1 1 1
1 1 1 1
1 1 1 1
1 1 1 1
0.999879 1 1 0.999879
1 1 1 1
0.999999 1 1 0.999999
1 1 1 1
0.999998 1 1 0.999998
1 1 1 1
1 1 1 1
1 1 1 1
1 1 1 1
1 1 1 1
1.01261 1.01571 0.997785 0.999156
1.00481 1.00587 1 0.998944
1.01847 1.01993 0.99947 0.999099
0.98023 0.98446 0.997769 0.99793
1.01576 1.01729 0.999227 0.999274
1.018 1.0193 0.999876 0.998848
1.01986 1.0197 1.00117 0.998985
0.984553 0.986526 1.00009 0.997913
0.958392 0.966862 0.997188 0.994034
0.91407 0.938965 0.977254 0.996145
0.915972 0.949455 0.966985 0.997673
0.999713 1 1 0.999713
0.999883 1 1 0.999883
0.999875 1 1 0.999875
0.999713 1 1 0.999713
0.999612 1 1 0.999612
0.999636 1 1 0.999636
0.99972 1 1 0.99972
0.999728 1 1 0.999728
1.0049 1.00597 1.00003 0.998914
1.00975 1.0116 0.999126 0.999051
0.999663 1.0013 0.999317 0.999051
1.00257 1 1.00341 0.999166
1.0016 1.00005 1.00272 0.998826
1.00036 1 1.00124 0.999117
0.999799 1 1.00063 0.999172
0.999365 1 1 0.999365
0.999643 1 1 0.999643
0.999469 1 1 0.999469
0.99972 1 1 0.99972
0.999547 1 1 0.999547
1.01639 1.01805 0.999465 0.998901
0.999522 1 1 0.999522
0.999495 1 1 0.999495
1.0036 1.0079 0.996726 0.999007
1.00034 1.00109 1.0004 0.998845
1.00268 1 1.00365 0.999026
0.999308 1 1 0.999308
1.00256 1 1.00351 0.99905
1.00865 1.01799 0.991972 0.998851
0.995468 1.00157 0.99499 0.998914
0.999969 1 1.00103 0.998938
1.00522 1 1.00618 0.999044
0.999437 1 1 0.999437
0.999358 1 1 0.999358
0.999711 1 1.00054 0.999167
0.921961 0.942473 0.98134 0.996836
0.956911 0.965861 0.995674 0.995038
0.99927 1 1 0.99927
0.999415 1 1.00027 0.99915
1.00096 1.0115 0.990528 0.999038
0.999878 1.00165 0.999411 0.99882
1.00442 1 1.00556 0.998863
0.958319 0.966429 0.997649 0.993945
0.996635 0.996066 1.00281 0.997764
0.996291 1.01046 0.986663 0.999306
0.924023 0.943839 0.982565 0.996377
0.90459 0.944879 0.959876 0.997379
0.999278 1 1 0.999278
0.924503 0.944919 0.981407 0.99693
0.943249 0.958401 0.986257 0.997904
0.980253 1.00282 0.978426 0.999054
1.00233 1 1.00319 0.999148
1.00811 1 1.00915 0.99897
0.985976 1.00506 0.981682 0.999319
0.969802 0.972104 1.0034 0.99425
0.998887 0.994935 1.00631 0.997681
0.922549 0.945787 0.979073 0.996279
0.953848 0.985147 0.969881 0.998297
0.999285 1 1 0.999285
0.954994 0.959295 0.997132 0.99838
1.00318 1.00457 0.999489 0.999134
0.986631 1 0.987361 0.999261
1.00754 1 1.00822 0.999322
1.00636 1.00128 1.00544 0.999633
0.992166 0.9923 1.00139 0.998472
0.974717 0.972554 1.00787 0.994402
0.939875 0.967154 0.975447 0.996256
0.977552 1.00641 0.972467 0.99883
0.99931 1 1 0.99931
0.999315 1 1 0.999315
0.999782 1 1.00042 0.99936
0.999783 1 1 0.999783
0.999652 1 1 0.999652
0.999546 1 1 0.999546
0.999481 1 1 0.999481
0.99937 1 1 0.99937
0.99965 1 1 0.99965
0.999444 1 1 0.999444
0.999531 1 1 0.999531
0.9996 1 1.00024 0.999356
0.999921 1 1.00055 0.999367
0.99951 1 1.00009 0.999423
0.999535 1 1 0.999535
0.999658 1 1 0.999658
0.999532 1 1 0.999532
0.999543 1 1 0.999543
0.999531 1 1 0.999531
0.999474 1 1 0.999474
0.999499 1 1 0.999499
0.999467 1 1 0.999467
0.99943 1 1 0.99943
0.999351 1 1 0.999351
0.999353 1 1.00004 0.999308
0.999411 1 1 0.999411
0.999454 1 1 0.999454
0.999591 1 1 0.999591
0.999624 1 1 0.999624
0.999788 1 1 0.999788
0.999648 1 1 0.999648
0.999801 1 1 0.999801
0.999983 1 1 0.999983
0.999786 1 1 0.999786
0.999984 1 1 0.999984
1 1 1 1
0.999985 1 1 0.999985
1 1 1 1
1 1 1 1
1 1 1 1
1 1 1 1
1 1 1 1
0.999891 1 1 0.999891
1 1 1 1
0.999879 1 1 0.999879
1 1 1 1
1 1 1 1
0.999999 1 1 0.999999
1 1 1 1
1 1 1 1
1 1 1 1
1 1 1 1
1 1 1 1
0.924137 0.94192 0.983947 0.997127
0.946497 0.959899 0.987816 0.998201
0.983191 0.98512 0.999732 0.99831
1.01588 1.01701 0.999595 0.999296
1.01902 1.02046 0.99975 0.998834
0.984291 0.985026 1.00048 0.998774
1.01918 1.01948 1.00072 0.998992
0.961173 0.968932 0.996993 0.994984
0.923492 0.940553 0.984741 0.997076
0.909732 0.947358 0.962678 0.997512
1.00068 0.999098 1.00243 0.999152
0.968108 0.970686 1.00248 0.994877
0.916562 0.943941 0.973851 0.997067
0.954053 0.982816 0.972582 0.9981
0.999573 1 1 0.999573
0.999722 1 1 0.999722
0.999882 1 1 0.999882
0.999706 1 1 0.999706
0.999624 1 1 0.999624
0.999591 1 1 0.999591
0.999637 1 1 0.999637
0.999659 1 1 0.999659
0.999708 1 1 0.999708
0.999718 1 1 0.999718
1.01663 1.01877 0.999025 0.998878
1.00236 1.00631 0.997063 0.999002
1.0002 1.00117 1.00013 0.998892
1.00336 1 1.00437 0.998994
1.00231 1 1.00326 0.999053
0.999301 1 1 0.999301
0.999495 1 1 0.999495
0.999532 1 1 0.999532
1.00986 1.01818 0.992996 0.998824
0.999431 1 1 0.999431
0.999343 1 1 0.999343
0.996288 1.00141 0.996 0.998881
1.00031 1 1.00133 0.998977
1.00408 1 1.00507 0.999017
1.00065 1 1.00149 0.99916
1.01001 1.01136 0.999846 0.998821
1.00015 1 1.00099 0.999156
1.00459 1 1.00551 0.99908
0.99942 1 1 0.99942
0.999329 1 1 0.999329
0.999213 1 1 0.999213
0.956707 0.963421 0.994652 0.99837
0.925378 0.942317 0.985696 0.996274
0.954049 0.966044 0.99282 0.994725
0.999277 1 1 0.999277
1.00185 1 1.0027 0.999154
0.982551 1.00301 0.980537 0.999044
1.00749 1 1.0085 0.99899
0.922938 0.944945 0.980412 0.996226
0.968419 0.971341 1.00153 0.995469
0.999833 0.996745 1.00622 0.996897
0.983206 1.00264 0.981276 0.999327
0.92584 0.944636 0.982883 0.997172
0.944099 0.959626 0.985972 0.997818
0.94876 0.98251 0.96747 0.998119
0.999348 1 1.00006 0.999283
0.952457 0.960228 0.993585 0.998312
1.00258 1.00379 0.999648 0.999139
0.989659 1 0.990381 0.999271
1.00763 1 1.00831 0.999325
1.00632 1.00203 1.00504 0.999247
0.993547 0.992351 1.00393 0.997285
0.972955 0.973785 1.00486 0.994313
0.942452 0.969343 0.974851 0.99734
0.971389 1.0004 0.972303 0.998657
0.999756 1 1.00025 0.999511
1.00782 1.00865 0.999791 0.999387
1.01814 1.01657 1.00201 0.999542
1.0076 0.999781 1.00811 0.999715
0.996074 0.990857 1.00602 0.99925
0.976923 0.977133 1.00559 0.994225
0.967934 0.984673 0.985434 0.997531
0.976192 1.00769 0.970081 0.998617
0.999303 1 1 0.999303
0.999731 1 1.00036 0.999376
1.00075 1 1.0013 0.999451
0.99965 1 1 0.99965
0.99953 1 1 0.99953
0.999454 1 1 0.999454
0.999637 1 1.00028 0.999355
0.999535 1 1 0.999535
0.999454 1 1.00003 0.999423
1.00031 1 1.00093 0.999373
1.00031 1 1.00086 0.999456
0.999585 1 1.00021 0.999373
0.999456 1 1 0.999456
0.999544 1 1 0.999544
0.999531 1 1 0.999531
0.999471 1 1 0.999471
0.999469 1 1 0.999469
0.999499 1 1 0.999499
0.999435 1 1 0.999435
0.999397 1 1 0.999397
0.999408 1 1 0.999408
0.999324 1 1 0.999324
0.999356 1 1 0.999356
0.999335 1 1.00003 0.999301
0.999211 1 1 0.999211
0.999419 1 1 0.999419
0.99937 1 1.00002 0.999346
0.999427 1 1 0.999427
0.999533 1 1 0.999533
0.999454 1 1 0.999454
0.999591 1 1 0.999591
0.999765 1 1 0.999765
0.999623 1 1 0.999623
0.999787 1 1 0.999787
0.999979 1 1 0.999979
0.999801 1 1 0.999801
0.999982 1 1 0.999982
1 1 1 1
0.999984 1 1 0.999984
1 1 1 1
1 1 1 1
1 1 1 1
1 1 1 1
1 1 1 1
0.999839 1 1 0.999839
0.999999 1 1 0.999999
0.999868 1 1 0.999868
1 1 1 1
1 1 1 1
0.999879 1 1 0.999879
1 1 1 1
1 1 1 1
1 1 1 1
1 1 1 1
1 1 1 1
1 1 1 1
0.957737 0.962043 0.996977 0.998543
0.92427 0.941799 0.984714 0.996622
1.00135 1.00487 0.997404 0.99909
0.942272 0.957506 0.985959 0.998104
0.980351 0.983685 0.998878 0.997731
1.01819 1.01927 0.999939 0.998998
0.961947 0.968748 0.997017 0.995951
0.920993 0.94228 0.981115 0.996222
0.903307 0.945254 0.958162 0.997351
0.998008 0.999448 0.999813 0.998746
0.968525 0.969823 1.00412 0.994568
0.919467 0.947611 0.974001 0.9962
0.952686 0.982339 0.97169 0.998068
0.99753 0.999937 0.998749 0.998842
0.970401 0.97059 1.0055 0.994341
0.944904 0.970812 0.975971 0.997276
0.976559 1.00591 0.972101 0.998688
0.999489 1 1 0.999489
0.999586 1 1 0.999586
0.999732 1 1 0.999732
0.999636 1 1 0.999636
0.99951 1 1 0.99951
0.999601 1 1 0.999601
0.999639 1 1 0.999639
0.999642 1 1 0.999642
0.999673 1 1 0.999673
0.999695 1 1 0.999695
1.01168 1.01904 0.993979 0.998797
0.997432 1.00159 0.997 0.998848
1.00061 1 1.00159 0.999017
1.00326 1 1.00427 0.998989
1.00168 1 1.00253 0.999153
0.999327 1 1 0.999327
0.999425 1 1 0.999425
0.999421 1 1 0.999421
1.00543 1.00971 0.996919 0.998841
0.999338 1 1 0.999338
0.999302 1 1.00009 0.999211
0.998616 1 0.999502 0.999113
1.00408 1 1.00501 0.99908
0.996787 1.00665 0.991059 0.99913
1.01301 1 1.01368 0.999346
0.999955 1 1.00078 0.999176
0.999349 1 1 0.999349
0.999219 1 1 0.999219
1.01138 1.01213 0.999768 0.999491
0.957961 0.962727 0.996551 0.998494
0.92511 0.943138 0.983738 0.997101
0.999426 1 1.00014 0.999282
1.00735 1 1.00803 0.999327
0.991101 1 0.991814 0.999281
0.957578 0.96171 0.997193 0.998506
0.972789 0.971684 1.00697 0.994207
0.995811 0.993715 1.0039 0.998213
1.00124 1.00186 1.00054 0.998837
0.94076 0.966561 0.976963 0.996257
1.00139 1.00244 0.999808 0.999145
0.967324 0.996877 0.971632 0.998686
0.999891 1 1.00037 0.999525
1.00612 1.0067 0.999934 0.999491
1.02007 1.01812 1.00237 0.999549
1.00718 0.999712 1.00788 0.999598
0.995716 0.992416 1.00443 0.9989
0.981505 0.979435 1.00805 0.994108
0.978636 1.01169 0.968513 0.998777
0.95418 0.977293 0.979299 0.996988
1.00029 0.999788 1.0008 0.999711
1.02137 1.02119 1.00033 0.999857
1.02665 1.02371 1.00327 0.999607
0.978212 1.006 0.973652 0.99869
1.00306 0.991475 1.01194 0.999751
0.97928 0.978601 1.00614 0.99459
0.948528 0.966905 0.983561 0.99739
0.999659 1 1.00027 0.999392
1.00051 1 1.00109 0.999415
1.00312 1 1.00355 0.999566
0.999535 1 1 0.999535
0.999423 1 1 0.999423
1.00075 1 1.00138 0.99938
0.999458 1 1 0.999458
0.999696 1 1.00033 0.999371
1.00069 1 1.00126 0.999429
0.999853 1 1.00035 0.999498
0.999383 1 1 0.999383
0.99947 1 1 0.99947
0.999498 1 1 0.999498
0.999439 1 1 0.999439
0.999407 1 1 0.999407
0.999402 1 1 0.999402
0.999379 1 1 0.999379
0.999349 1 1 0.999349
1.00097 1 1.00182 0.999156
0.999361 1 1 0.999361
0.999354 1 1.00006 0.999296
0.999259 1 1.00016 0.999098
0.999212 1 1 0.999211
0.999381 1 1 0.999381
0.999288 1 1.00007 0.999214
0.999513 1 1 0.999513
0.999408 1 1 0.999408
0.999383 1 1 0.999383
0.999442 1 1 0.999442
0.999547 1 1 0.999547
0.999732 1 1 0.999732
0.99959 1 1 0.99959
0.999764 1 1 0.999764
0.999973 1 1 0.999973
0.999787 1 1 0.999787
0.999978 1 1 0.999978
1 1 1 1
0.999981 1 1 0.999981
1 1 1 1
1 1 1 1
1 1 1 1
1 1 1 1
1 1 1 1
0.999769 1 1 0.999769
0.999966 1 1 0.999966
0.999838 1 1 0.999838
1 1 1 1
0.999986 1 1 0.999986
0.999845 1 1 0.999845
1 1 1 1
1 1 1 1
1 1 1 1
1 1 1 1
1 1 1 1
1 1 1 1
1.00779 1.0087 0.999662 0.999441
0.951484 0.961415 0.991369 0.998286
0.926939 0.941782 0.987842 0.996353
0.999593 1 1 0.999593
1.01789 1.0162 1.00203 0.999632
1.00271 1.00495 0.998669 0.999096
0.935907 0.956797 0.980205 0.997921
0.996114 0.999913 0.997894 0.998304
0.970511 0.971416 1.00429 0.994802
0.923715 0.951379 0.973756 0.997089
0.948238 0.980291 0.969288 0.997951
1.00025 1.00299 0.999533 0.997727
0.96873 0.970041 1.00417 0.994506
0.946156 0.97048 0.977996 0.996871
0.97516 1.00503 0.97169 0.998544
0.993497 0.993918 1.00239 0.997193
0.975401 0.972156 1.01003 0.993376
0.95482 0.979169 0.978491 0.996568
0.976577 1.00858 0.969624 0.998606
0.99941 1 1 0.99941
0.999481 1 1 0.999481
0.9996 1 1 0.9996
0.999496 1 1 0.999496
0.999527 1 1 0.999527
0.999611 1 1 0.999611
0.999647 1 1 0.999647
0.999686 1 1 0.999686
1.00087 1.00784 0.994215 0.998861
0.997085 1 0.998014 0.99907
0.999423 1 1 0.999423
1.00345 1 1.00438 0.99908
0.999375 1 1.00017 0.999209
0.999347 1 1 0.999347
0.999352 1 1 0.999352
1.00111 1.00739 0.994624 0.999136
0.999232 1 1 0.999232
1.00077 1 1.0016 0.999171
1.01005 1 1.01072 0.999336
0.999358 1 1 0.999358
0.992348 0.999901 0.9929 0.999543
1.01308 1 1.01363 0.999454
0.999254 1 1 0.999254
0.999293 1 1 0.999293
1.02233 1.02312 0.99935 0.99988
1.01093 1.01172 0.999723 0.999498
0.959082 0.961796 0.998555 0.99862
1.00015 1 1.00061 0.999539
1.00781 0.999579 1.00876 0.999481
1.00459 1.005 0.999995 0.999595
0.978298 0.975537 1.00858 0.994299
0.998622 0.993088 1.00782 0.997773
0.955915 0.978571 0.980258 0.996521
1.02201 1.01966 1.00275 0.999557
0.982363 1.01653 0.967414 0.998937
1.00039 0.999613 1.0011 0.999678
1.02172 1.02192 0.999948 0.99986
1.02624 1.02355 1.00294 0.999686
1.00591 0.994141 1.01191 0.999931
0.976064 1.00492 0.972704 0.998542
0.979104 0.97861 1.00583 0.994706
0.952771 0.974371 0.981335 0.996431
1.00526 0.996682 1.00884 0.999771
1.025 1.02403 1.00105 0.999893
1.01794 1.01677 1.00152 0.999633
0.955428 0.983191 0.973598 0.998116
0.95362 0.979091 0.977363 0.996544
0.997241 0.990195 1.00709 1.00003
0.978675 0.972867 1.01177 0.994271
1.00027 1 1.00089 0.999378
1.00223 1 1.00268 0.99955
1.01076 0.998582 1.01262 0.999582
0.99946 1 1 0.99946
0.999736 1 1.00037 0.99937
1.00094 1 1.00154 0.999403
0.999382 1 1 0.999382
0.999931 1 1.00043 0.999498
1.00317 1 1.00376 0.999407
0.999406 1 1 0.999406
0.999407 1 1 0.999407
0.999556 1 1.00019 0.999363
1.00412 1 1.00493 0.999189
0.999374 1 1 0.999374
1.00042 1 1.00124 0.999186
1.00232 1 1.00334 0.998984
0.999789 1 1.00078 0.999009
0.999359 1 1.00007 0.999291
0.99925 1 1.00018 0.999071
0.999277 1 1 0.999277
0.99934 1 1 0.99934
0.999232 1 1 0.999232
0.999493 1 1 0.999493
0.999379 1 1 0.999379
0.999364 1 1.00015 0.999217
0.999694 1 1 0.999694
0.999508 1 1 0.999508
0.999396 1 1 0.999396
0.99956 1 1 0.99956
0.999731 1 1 0.999731
0.999962 1 1 0.999962
0.999764 1 1 0.999764
0.999971 1 1 0.999971
1 1 1 1
0.999976 1 1 0.999976
1 1 1 1
1 1 1 1
1 1 1 1
1 1 1 1
1 1 1 1
0.999738 1 1 0.999738
0.999946 1 1 0.999946
0.999783 1 1 0.999783
1 1 1 1
0.999965 1 1 0.999965
0.999836 1 1 0.999836
1 1 1 1
1 1 1 1
0.999973 1 1 0.999973
1 1 1 1
1 1 1 1
1 1 1 1
1.02217 1.02231 1.00002 0.999848
1.00778 1.00864 0.999705 0.999447
0.952291 0.961231 0.992387 0.998299
0.999598 1 1 0.999598
0.999562 1 1 0.999562
0.999503 1 1 0.999503
1.02704 1.02277 1.00458 0.999602
1.01815 1.01632 1.00216 0.999641
1.00373 1.00504 0.999605 0.999101
1.00646 1.00477 1.00303 0.998661
0.970947 0.97061 1.00597 0.99441
0.943365 0.968267 0.977954 0.996246
0.975581 1.00664 0.970491 0.998617
0.988818 0.989799 1.00081 0.998197
0.972561 0.971969 1.00635 0.994299
0.955893 0.977044 0.980885 0.997418
0.979495 1.01228 0.968808 0.99877
0.982424 0.985211 0.999062 0.998108
0.98114 0.974887 1.01203 0.994452
0.950712 0.968354 0.984378 0.997362
0.97673 1.00489 0.973131 0.998817
0.999392 1 1 0.999392
0.999409 1 1 0.999409
0.999473 1 1 0.999473
0.999495 1 1 0.999495
0.999544 1 1 0.999544
0.999651 1 1 0.999651
1.00504 1.00787 0.998042 0.999142
1.0066 1 1.00728 0.999327
0.999354 1 1 0.999354
1.00148 1 1.00231 0.999166
0.999245 1 1 0.999245
0.999352 1 1 0.999352
0.999292 1 1 0.999292
0.999497 1.00191 0.998053 0.999534
0.99928 1 1 0.99928
1.01167 0.998573 1.01365 0.99948
0.999346 1 1 0.999346
1.01426 0.994529 1.02009 0.999754
0.997028 0.996963 1.00044 0.99963
0.999299 1 1 0.999299
1.02335 1.02394 0.999502 0.999922
1.02233 1.02315 0.999306 0.999892
1.01046 1.01132 0.99965 0.999504
1.00029 0.999528 1.00112 0.999644
1.00032 0.994243 1.00616 0.999947
1.02198 1.02254 0.99959 0.999863
0.987027 0.982263 1.00836 0.996519
0.959905 0.976682 0.985232 0.997554
1.02568 1.02333 1.00253 0.999766
0.976334 1.00658 0.971294 0.998617
1.00443 0.997739 1.00692 0.999788
1.02502 1.02419 1.00091 0.999901
1.01819 1.01687 1.00166 0.999642
0.997439 0.988055 1.01078 0.998735
0.95442 0.983076 0.972719 0.998079
0.954215 0.977294 0.978948 0.997381
0.986399 0.977783 1.01428 0.994604
1.02144 0.99592 1.02574 0.99989
1.0225 1.02272 0.999943 0.999846
1.00293 1.00591 0.997946 0.999089
0.917385 0.949896 0.968016 0.997684
0.944481 0.96969 0.976626 0.997314
0.986049 0.977825 1.014 0.99449
0.973185 0.983322 0.991319 0.998358
1.0012 1 1.00167 0.999534
1.01244 0.999184 1.01369 0.999586
1.0195 1 1.01998 0.999529
0.999381 1 1 0.999381
1.00005 1 1.00055 0.999497
1.00253 1 1.00311 0.999421
1.01182 1 1.01258 0.999242
0.999706 1 1.00036 0.999348
1.00399 1 1.00484 0.999155
1.00871 1 1.00982 0.998905
0.999903 1 1.00069 0.999217
1.00305 1 1.00408 0.998978
1.00322 1 1.0044 0.998821
0.999611 1 1.00075 0.998865
0.999546 1 1.00036 0.999185
0.99983 1 1.00084 0.998993
0.999303 1 1.00026 0.999044
0.999353 1 1 0.999353
0.999304 1 1 0.9993
0.999433 1 1 0.999433
0.999355 1 1 0.999355
0.999253 1 1 0.999253
0.999651 1 1 0.999651
0.999494 1 1 0.999494
0.999376 1 1 0.999376
0.999944 1 1 0.999944
0.999694 1 1 0.999694
0.999503 1 1 0.999503
0.999731 1 1 0.999731
0.999959 1 1 0.999959
1 1 1 1
0.999968 1 1 0.999968
1 1 1 1
1 1 1 1
1 1 1 1
1 1 1 1
1 1 1 1
0.999734 1 1 0.999734
0.999963 1 1 0.999963
0.999749 1 1 0.999749
1 1 1 1
0.999963 1 1 0.999963
0.999796 1 1 0.999796
1 1 1 1
1 1 1 1
0.999965 1 1 0.999965
1 1 1 1
1 1 1 1
1 1 1 1
1.02581 1.02374 1.00213 0.99989
1.02335 1.02263 1.00085 0.999851
1.00804 1.00853 1.00006 0.999453
0.999547 1 1 0.999547
0.999477 1 1 0.999477
0.999604 1 1 0.999604
0.99956 1 1 0.99956
0.999489 1 1 0.999489
0.999479 1 1 0.999479
0.999426 1 1 0.999426
1.01772 1.01494 1.00321 0.999536
1.0263 1.02261 1.00393 0.999682
1.01864 1.01645 1.0025 0.99965
0.983422 1.01676 0.968239 0.998934
0.989161 0.990972 1.00092 0.997258
0.976506 0.974858 1.00652 0.995197
0.957587 0.973162 0.98757 0.996382
0.981863 0.985364 0.998863 0.997582
0.978301 0.974673 1.00944 0.994334
0.955935 0.976516 0.982372 0.99649
0.972077 1.0004 0.973029 0.998626
0.974945 0.980264 0.995998 0.99857
0.974633 0.976042 1.00435 0.99423
0.972582 0.98785 0.987041 0.997471
0.954814 0.984618 0.971281 0.998404
0.999388 1 1 0.999388
0.99939 1 1 0.99939
0.999408 1 1 0.999408
0.999493 1 1 0.999493
1.0067 1.00385 1.00332 0.999525
1.01109 0.997372 1.01425 0.999505
0.999345 1 1 0.999345
0.999291 1 1 0.999291
0.999306 1 1 0.999306
0.999345 1 1 0.999345
0.999288 1 1 0.999288
1.0087 0.993008 1.01612 0.999695
0.998521 0.9984 1.00044 0.999684
0.999321 1 1 0.999321
1.01286 0.988447 1.02483 0.999871
1.00274 0.999402 1.00395 0.999392
1.02315 1.02353 0.999753 0.999877
1.02202 1.02263 0.999468 0.999928
1.02235 1.02314 0.999332 0.999903
1.00369 0.998778 1.00511 0.999805
0.998302 0.987529 1.01093 0.999982
1.0252 1.02443 1.00084 0.999908
0.978001 0.972695 1.0112 0.99432
0.956925 0.973091 0.98698 0.996359
1.01866 1.01699 1.002 0.999651
0.95077 0.981061 0.971094 0.997972
1.02367 0.995303 1.02863 0.999873
1.02321 1.02289 1.00046 0.999849
1.0043 1.00605 0.999164 0.999094
0.977314 0.986188 0.99135 0.999648
0.9112 0.94783 0.963737 0.997527
0.944212 0.968317 0.978137 0.996902
0.988992 0.978538 1.01596 0.994807
1.00806 0.99238 1.01598 0.999817
1.00882 1.00935 1.00004 0.999437
0.947813 0.960686 0.988362 0.998218
0.918212 0.943393 0.976167 0.997071
0.980078 0.974694 1.01116 0.994424
0.970828 0.982671 0.990232 0.997693
1.01446 1 1.01487 0.99959
1.01978 0.999612 1.02066 0.999523
1.0136 1 1.01419 0.999418
1.00193 1 1.0025 0.999434
1.01228 1 1.01302 0.99927
1.00918 1 1.01025 0.99894
1.00394 1 1.00482 0.999121
1.00892 1 1.01005 0.998878
1.00399 1 1.00528 0.998717
1.00374 1 1.00477 0.998972
1.003 1 1.0042 0.998798
1.00142 1 1.00269 0.998733
0.998831 1 1 0.998831
0.999219 1 1.0002 0.999018
0.999802 1 1.00096 0.99884
0.999298 1 1 0.999298
0.999354 1 1.00015 0.9992
0.999791 1 1.00081 0.998977
0.99939 1 1 0.99939
0.999347 1 1 0.999347
0.999324 1 1 0.999324
0.999592 1 1 0.999592
0.999445 1 1 0.999445
0.99937 1 1 0.99937
0.999909 1 1 0.999909
0.999652 1 1 0.999652
0.999495 1 1 0.999495
1 1 1 1
0.999941 1 1 0.999941
0.999694 1 1 0.999694
0.999956 1 1 0.999956
1 1 1 1
1 1 1 1
1 1 1 1
1 1 1 1
1 1 1 1
0.999545 1 1 0.999545
0.999707 1 1 0.999707
0.999953 1 1 0.999953
0.999734 1 1 0.999734
1 1 1 1
0.999967 1 1 0.999967
0.999759 1 1 0.999759
1 1 1 1
1 1 1 1
0.999981 1 1 0.999981
1 1 1 1
1 1 1 1
1 1 1 1
1.02191 1.02057 1.00146 0.999855
1.02592 1.02402 1.00196 0.999898
1.02409 1.02298 1.00123 0.999854
0.999552 1 1 0.999552
0.999469 1 1 0.999469
0.999438 1 1 0.999438
0.999465 1 1 0.999465
0.999424 1 1 0.999424
0.999557 1 1 0.999557
0.999476 1 1 0.999476
0.99948 1 1 0.99948
0.999422 1 1 0.999422
0.999427 1 1 0.999427
1.00209 1.00293 1.00004 0.99912
1.01959 1.01646 1.00354 0.999544
1.02538 1.02231 1.00324 0.999761
0.968022 0.996979 0.97226 0.998658
0.959844 0.976624 0.985229 0.997553
0.976231 0.981925 0.997119 0.997074
0.978915 0.978045 1.00649 0.994434
0.97559 0.979992 0.998044 0.99746
0.981303 0.978153 1.00888 0.994388
0.95936 0.980442 0.981469 0.996972
0.953847 0.984013 0.97102 0.998274
0.987884 0.980668 1.00953 0.997848
0.976575 0.978681 1.0033 0.994563
0.941341 0.967584 0.976543 0.996247
0.921661 0.957484 0.964829 0.997674
0.999502 1 1 0.999502
0.999388 1 1 0.999388
0.999388 1 1 0.999388
1.00309 0.991435 1.01212 0.999635
0.999175 0.999028 1.00041 0.999742
0.999345 1 1 0.999345
0.999278 1 1 0.999278
0.999364 1 1.00003 0.999331
1.00324 0.999414 1.00444 0.999387
1.01185 0.989337 1.02288 0.999879
1.00376 1 1.00435 0.999407
1.00985 0.996248 1.01406 0.9996
1.00972 1.01025 1 0.999473
1.02307 1.02348 0.999712 0.999889
1.02073 1.02141 0.999408 0.999934
1.02564 0.994645 1.03131 0.999855
0.976591 0.985621 0.992769 0.998056
1.0236 1.0231 1.00064 0.999852
0.979982 0.976413 1.0104 0.993327
0.942652 0.967255 0.978163 0.99632
1.00529 1.0062 0.999996 0.9991
0.905026 0.946 0.95921 0.997369
1.00884 0.993137 1.01598 0.999829
1.0089 1.00947 0.999993 0.999442
0.943739 0.958344 0.986615 0.99812
0.969376 0.983388 0.987403 0.998328
0.920768 0.947372 0.975598 0.996228
0.975661 0.974281 1.0076 0.993865
0.989047 0.992914 0.996575 0.999529
0.958183 0.962194 0.99727 0.998558
0.915925 0.939226 0.978944 0.996166
0.97383 0.972055 1.00752 0.99435
0.990597 0.990366 1.00187 0.998369
1.0196 0.999204 1.02091 0.999517
1.01595 1 1.01655 0.999413
0.993842 1 0.994668 0.99917
1.01258 1 1.01329 0.999299
1.00883 1 1.00987 0.998969
1.00188 1.00037 1.00272 0.998797
1.00896 1 1.01012 0.99885
1.00358 1 1.00487 0.998721
0.998822 1 1.00003 0.998788
1.0028 1 1.00403 0.998775
1.00083 1 1.00209 0.998742
0.999345 1.00049 1 0.99886
0.998944 1 1 0.998944
0.998934 1 1 0.998934
0.998839 1 1 0.998839
0.999169 1 1 0.999169
0.999346 1 1.00035 0.998991
1.00003 1 1.00122 0.998815
0.999388 1 1 0.999388
0.999316 1 1 0.999316
0.999214 1 1 0.999214
0.99953 1 1 0.99953
0.999395 1 1 0.999395
0.999347 1 1.00001 0.999341
0.99985 1 1 0.99985
0.999592 1 1 0.999592
0.999457 1 1 0.999457
1 1 1 1
0.999907 1 1 0.999907
0.999652 1 1 0.999652
1 1 1 1
1 1 1 1
0.999937 1 1 0.999937
1 1 1 1
1 1 1 1
1 1 1 1
0.999507 1 1 0.999507
0.999678 1 1 0.999678
0.999538 1 1 0.999538
0.999943 1 1 0.999943
0.999707 1 1 0.999707
1 1 1 1
0.999956 1 1 0.999956
0.999734 1 1 0.999734
1 1 1 1
1 1 1 1
0.999971 1 1 0.999971
1 1 1 1
1 1 1 1
1 1 1 1
1.00796 1.00839 1 0.999567
1.02247 1.02145 1.00115 0.999858
1.02615 1.02433 1.00187 0.999906
0.999438 1 1 0.999438
0.999558 1 1 0.999558
0.99946 1 1 0.99946
0.999474 1 1 0.999474
0.999446 1 1 0.999446
0.999422 1 1 0.999422
0.99939 1 1 0.99939
0.999407 1 1 0.999407
0.999481 1 1 0.999481
0.999417 1 1 0.999417
0.999425 1 1 0.999425
0.999419 1 1 0.999419
0.942424 0.959778 0.983997 0.997889
1.00136 1.002 1.00023 0.999124
1.02149 1.01801 1.00387 0.999552
0.949423 0.982264 0.968433 0.998073
0.962684 0.982969 0.982743 0.996562
0.973819 0.975581 1.00396 0.994253
0.977183 0.977979 1.00063 0.998557
0.987756 0.979771 1.0092 0.998956
0.913888 0.951263 0.963094 0.997524
0.981078 0.977442 1.0099 0.993876
0.939772 0.967012 0.974518 0.997242
0.98648 0.987224 1.00022 0.999023
0.975226 0.973517 1.00702 0.99477
0.917443 0.943394 0.975379 0.997041
1.00007 1 1.00041 0.999666
0.999504 1 1 0.999504
0.999388 1 1 0.999388
1.0124 0.991931 1.02076 0.999881
1.00444 1 1.00506 0.999383
0.999391 1 1.00005 0.999341
1.00405 1 1.00465 0.999411
1.00893 0.996843 1.01251 0.999616
1.0081 0.999077 1.00939 0.999647
0.957223 0.963203 0.995606 0.998178
1.0106 1.01103 0.999986 0.999583
1.02302 1.02339 0.999735 0.999902
1.00933 0.993637 1.01596 0.999844
0.971244 0.9858 0.986428 0.998789
1.00916 1.00954 1.00017 0.999449
0.977985 0.975824 1.00693 0.995312
0.925148 0.950893 0.975751 0.997104
0.937264 0.957698 0.980684 0.997939
0.988119 0.993253 0.995271 0.999558
0.951889 0.961523 0.991667 0.9983
0.925067 0.940172 0.986787 0.997108
0.989028 0.987048 1.0047 0.997319
0.974189 0.973772 1.00599 0.994474
0.978638 0.999831 0.979328 0.999464
0.925 0.94239 0.984349 0.997153
0.971758 0.972047 1.00501 0.994719
0.998406 0.997593 1.00367 0.997155
1.01922 1 1.01982 0.999409
0.990365 1 0.991163 0.999194
0.982724 1.00057 0.983058 0.999089
1.00869 1 1.0097 0.998998
1.00183 1.00054 1.00249 0.998799
0.999482 1.00106 0.999442 0.998985
1.00329 1 1.00457 0.998726
0.999221 1.00005 1.00037 0.998801
1.00117 1.00213 1 0.999045
1.00024 1 1.00149 0.998751
0.999138 1.00027 1 0.998866
0.999616 1.00053 1 0.999088
0.999123 1 1 0.999123
0.998981 1 1 0.998981
0.998962 1 1 0.998962
0.999069 1 1 0.999069
0.998952 1 1 0.998952
0.998846 1 1 0.998846
0.999327 1 1 0.999327
0.999169 1 1 0.999169
0.999442 1 1.00048 0.998964
0.999497 1 1 0.999497
0.999386 1 1 0.999386
0.999335 1 1 0.999335
0.999779 1 1 0.999779
0.999532 1 1 0.999532
0.999399 1 1 0.999399
1 1 1 1
0.999849 1 1 0.999849
0.999592 1 1 0.999592
1 1 1 1
1 1 1 1
0.999905 1 1 0.999905
1 1 1 1
1 1 1 1
1 1 1 1
0.999506 1 1 0.999506
0.99951 1 1 0.99951
0.999643 1 1 0.999643
0.999928 1 1 0.999928
0.999678 1 1 0.999678
0.999531 1 1 0.999531
1 1 1 1
0.999945 1 1 0.999945
0.999707 1 1 0.999707
1 1 1 1
1 1 1 1
0.999959 1 1 0.999959
1 1 1 1
1 1 1 1
1 1 1 1
0.957127 0.961336 0.997232 0.998385
1.00704 1.00747 1 0.999576
1.02304 1.02232 1.00084 0.999861
0.99943 1 1 0.99943
0.99943 1 1 0.99943
0.999394 1 1 0.999394
0.999483 1 1 0.999483
0.999455 1 1 0.999455
0.99942 1 1 0.99942
0.999408 1 1 0.999408
0.99939 1 1 0.99939
0.999346 1 1 0.999346
0.999416 1 1 0.999416
0.999423 1 1 0.999423
0.999421 1 1 0.999421
0.923246 0.941059 0.983896 0.997129
0.943198 0.958311 0.986314 0.997887
1.00042 1.00086 1.00044 0.999129
0.906291 0.945221 0.961338 0.997374
0.938797 0.964271 0.977251 0.996245
0.989911 0.982811 1.01172 0.995556
0.992463 0.979435 1.01557 0.99777
0.985929 0.98588 1.00217 0.997885
0.919839 0.94423 0.977857 0.996227
0.978298 0.975549 1.00777 0.995085
0.989691 0.987231 1.00449 0.998013
0.975688 0.974886 1.00625 0.994607
1.00759 1 1.00819 0.999411
0.999922 1 1.00027 0.999656
0.999505 1 1 0.999505
1.00602 0.995545 1.0109 0.999631
1.00435 1 1.00494 0.999415
1.00807 0.999302 1.00918 0.999597
1.00139 1.00067 1.00146 0.999254
0.921862 0.94356 0.980069 0.996872
0.957325 0.961662 0.997088 0.998397
1.01147 1.01187 0.999918 0.999693
0.986121 0.993314 0.993163 0.999592
0.989579 0.987181 1.00421 0.998229
0.952756 0.961453 0.992629 0.998312
0.976121 0.972864 1.009 0.994402
0.922094 0.94182 0.982753 0.996238
0.98216 1.0004 0.982372 0.999389
0.925049 0.942151 0.985175 0.996622
0.971781 0.971294 1.00604 0.994493
0.997862 0.993415 1.00636 0.998124
1.00129 1.00643 0.995656 0.999237
0.959475 0.967531 0.997705 0.993955
0.996063 0.998006 0.999528 0.998524
0.986883 1 0.987655 0.999218
0.984782 1.00064 0.985065 0.999073
0.987155 1.00169 0.98638 0.999096
1.00151 1.00067 1.00203 0.998801
0.999393 1.00145 0.998969 0.998981
1.00271 1.00521 0.998236 0.999279
0.999647 1.00012 1.00071 0.998814
1.0015 1.00245 1 0.999045
1.00303 1.00377 1 0.999263
0.998958 1.00009 1 0.998872
0.999518 1.00043 1 0.999087
0.999592 1.00036 1 0.999236
0.999211 1 1 0.999211
0.999143 1 1 0.999143
0.999107 1 1 0.999107
0.999058 1 1 0.999058
0.998984 1 1 0.998984
0.99898 1 1 0.99898
0.999206 1 1 0.999206
0.99909 1 1 0.99909
0.99897 1 1 0.99897
0.999457 1 1 0.999457
0.999324 1 1 0.999324
0.999169 1 1 0.999169
0.999724 1 1 0.999724
0.999498 1 1 0.999498
0.999385 1 1 0.999385
1 1 1 1
0.999779 1 1 0.999779
0.999534 1 1 0.999534
1 1 1 1
1 1 1 1
0.999847 1 1 0.999847
1 1 1 1
1 1 1 1
1 1 1 1
0.999478 1 1 0.999478
0.999495 1 1 0.999495
0.999609 1 1 0.999609
0.999513 1 1 0.999513
0.999643 1 1 0.999643
0.999901 1 1 0.999901
1 1 1 1
0.99993 1 1 0.99993
0.999678 1 1 0.999678
1 1 1 1
1 1 1 1
0.999947 1 1 0.999947
1 1 1 1
1 1 1 1
1 1 1 1
0.931402 0.943091 0.991105 0.996469
0.954605 0.961414 0.994687 0.998221
1.00601 1.00643 1 0.999584
0.999423 1 1 0.999423
0.999386 1 1 0.999386
0.999438 1 1 0.999438
0.999415 1 1 0.999415
0.999382 1 1 0.999382
0.999408 1 1 0.999408
0.999391 1 1 0.999391
0.999351 1 1 0.999351
0.999352 1 1 0.999352
0.999345 1 1 0.999345
0.999419 1 1.00026 0.999162
0.999417 1 1 0.999417
0.999423 1 1 0.999423
0.971033 0.97684 1.00024 0.993817
0.929319 0.943304 0.988377 0.99676
0.943473 0.958439 0.986564 0.997791
0.920653 0.943938 0.978161 0.997108
0.977029 0.973324 1.01032 0.993556
0.987881 0.986267 1.00257 0.999065
0.992405 0.990309 1.00351 0.998614
0.975119 0.97631 1.004 0.994804
0.990544 0.99841 0.994196 0.997913
1.00586 1.00132 1.0057 0.998844
1.00605 1 1.00666 0.999399
0.999646 1 1 0.999646
1.00759 1 1.00804 0.999549
1.00044 1.001 1.00017 0.999266
0.951562 0.965793 0.990457 0.994758
0.926016 0.943477 0.985095 0.996343
0.957846 0.960132 0.999 0.998619
0.98595 1.00139 0.985258 0.999311
0.999713 0.994779 1.0078 0.997179
0.928132 0.942232 0.988658 0.996337
0.973468 0.971796 1.00707 0.994691
0.997136 1.00712 0.990859 0.999224
0.961916 0.968981 0.997815 0.994883
0.998082 1.00011 1.00044 0.997534
1.00588 1.0088 0.998167 0.998935
0.997518 0.996292 1.00221 0.999023
0.98592 1.00069 0.986169 0.999055
0.989628 1.00151 0.98906 0.99907
1.00547 1.01219 0.994229 0.999128
0.999455 1.00177 0.998712 0.998976
1.00163 1.00398 0.998383 0.999272
1.00666 1.00871 0.998648 0.99932
1.00181 1.00277 1 0.999045
1.00296 1.00372 0.999994 0.99925
1.00204 1.00279 0.999987 0.999265
0.99943 1.00034 1 0.999086
0.999506 1.00028 1 0.999226
0.999484 1.00027 1 0.999214
0.999235 1 1 0.999235
0.999154 1 1 0.999154
0.999163 1 1 0.999163
0.999103 1 1 0.999103
0.999096 1 1 0.999096
0.999141 1 1 0.999141
0.999054 1 1 0.999054
0.998987 1 1 0.998987
0.999383 1 1 0.999383
0.99922 1 1 0.99922
0.99911 1 1 0.99911
0.999683 1 1 0.999683
0.999455 1 1 0.999455
0.999321 1 1 0.999321
0.999994 1 1 0.999994
0.999725 1 1 0.999725
0.999499 1 1 0.999499
1 1 1 1
0.999998 1 1 0.999998
0.999779 1 1 0.999779
1 1 1 1
1 1 1 1
1 1 1 1
0.999435 1 1 0.999435
0.999479 1 1 0.999479
0.999557 1 1 0.999557
0.999484 1 1 0.999484
0.999598 1 1 0.999598
0.999852 1 1 0.999852
0.999642 1 1 0.999642
0.999902 1 1 0.999902
1 1 1 1
1 1 1 1
1 1 1 1
0.999931 1 1 0.999931
1 1 1 1
1 1 1 1
1 1 1 1
0.965644 0.971689 0.998983 0.994791
0.926903 0.946265 0.982485 0.997
0.957741 0.961794 0.99747 0.998312
0.999378 1 1 0.999378
0.999447 1 1 0.999447
0.999387 1 1 0.999387
0.999416 1 1 0.999416
0.999361 1 1 0.999361
0.999394 1 1 0.999394
0.999356 1 1 0.999356
0.999331 1 1 0.999331
0.999337 1 1 0.999337
0.999297 1 1 0.999297
0.999224 1.00003 1 0.999193
0.998919 1.00004 1.00011 0.998768
0.999237 1 1.00006 0.99918
0.999418 1 1 0.999418
0.988672 0.994079 0.996408 0.998146
0.969589 0.973847 1.00105 0.994583
0.922622 0.943558 0.981516 0.996225
0.974553 0.974405 1.00569 0.99449
0.98755 0.989365 0.998983 0.999182
0.992444 0.997044 0.996501 0.998882
0.997001 1.00479 0.993247 0.998995
1.00296 1.00066 1.00337 0.998925
1.00501 1 1.00563 0.999386
0.99831 1.00111 0.997932 0.999273
0.984723 0.986386 1.00053 0.997789
0.958861 0.967313 0.996206 0.995037
0.924475 0.943693 0.982434 0.997152
0.994949 1.00756 0.988263 0.99921
1.00414 1.00194 1.00388 0.998325
0.962683 0.968802 0.997831 0.995844
1.00061 1.00714 0.994549 0.998955
0.994887 0.996385 0.999876 0.998621
1.00567 1.0171 0.989835 0.998921
1.01275 1.0126 1.00126 0.998887
0.992455 1.00138 0.992031 0.999045
1.00535 1.01183 0.994458 0.999126
1.00972 1.01339 0.997262 0.999113
1.00063 1.0029 0.998468 0.999265
1.00691 1.0087 0.998912 0.999312
1.00452 1.00574 0.999653 0.999134
1.00282 1.00358 1 0.999238
1.00144 1.00219 1 0.999255
0.999997 1.0009 1 0.999098
0.999372 1.00016 1 0.999217
0.999359 1.00014 1 0.999224
0.999103 1 1 0.999103
0.999259 1 1 0.999259
0.999166 1 1 0.999166
0.999095 1 1 0.999095
0.999099 1 1 0.999099
0.999092 1 1 0.999092
0.999141 1 1 0.999141
0.999289 1 1 0.999289
0.999154 1 1 0.999154
0.99905 1 1 0.99905
0.999627 1 1 0.999627
0.999382 1 1 0.999382
0.999234 1 1 0.999234
0.999979 1 1 0.999979
0.999683 1 1 0.999683
0.999453 1 1 0.999453
1 1 1 1
0.99999 1 1 0.99999
0.999726 1 1 0.999726
1 1 1 1
0.999997 1 1 0.999997
1 1 1 1
0.99939 1 1 0.99939
0.999443 1 1 0.999443
0.999519 1 1 0.999519
0.99948 1 1 0.99948
0.999551 1 1 0.999551
0.999792 1 1 0.999792
0.999587 1 1 0.999587
0.999853 1 1 0.999853
1 1 1 1
0.999903 1 1 0.999903
1 1 1 1
1 1 1 1
1 1 1 1
1 1 1 1
1 1 1 1
0.982154 0.986272 0.997684 0.998137
0.958813 0.968498 0.995272 0.994703
0.925075 0.946519 0.981017 0.996256
0.999273 1 1 0.999273
0.999393 1 1 0.999393
0.999416 1 1 0.999416
0.999391 1 1 0.999391
0.999356 1 1 0.999356
0.999426 1 1 0.999426
0.99931 1 1 0.99931
0.999329 1 1 0.999329
0.999318 1 1 0.999318
0.999222 1 1 0.999221
0.998982 1.00007 1 0.998912
1.00339 1.00491 1 0.998489
0.998939 1.00004 1.00013 0.998768
0.999198 1 1 0.999198
1.00036 1.00539 0.995817 0.999181
0.989633 0.995427 0.996468 0.997704
0.971868 0.975063 1.00129 0.995441
0.994286 0.997927 0.998369 0.997979
1.00171 1.00627 0.996474 0.998985
1.0015 1.00018 1.00231 0.999008
1.00378 1.00463 1.00002 0.99913
0.985958 0.985341 1.00206 0.998569
0.956336 0.967536 0.993597 0.994794
0.994235 1.00544 0.989867 0.998974
0.99294 0.996215 0.998538 0.998173
1.00727 1.01737 0.991152 0.998906
1.0108 1.01089 1.00093 0.99898
1.01798 1.01978 0.999372 0.998862
1.00965 1.01088 1 0.998783
1.00535 1.01131 0.99498 0.999125
1.01144 1.01441 0.997949 0.999121
1.00404 1.00506 1 0.998981
1.00734 1.0088 0.999247 0.999305
1.00534 1.00636 0.999855 0.999132
0.999928 1.00098 1 0.998945
1.00093 1.00168 1 0.999245
1.0001 1.00098 1 0.99912
0.999004 1.00003 1 0.998972
0.999246 1.00001 1 0.999234
0.999121 1.00002 1 0.999102
0.999033 1 1 0.999033
0.999179 1 1 0.999179
0.9991 1 1 0.9991
0.999099 1 1 0.999099
0.999088 1 1 0.999088
0.999132 1 1 0.999132
0.999247 1 1 0.999247
0.99956 1 1 0.99956
0.999303 1 1 0.999303
0.999168 1 1 0.999168
0.999955 1 1 0.999955
0.999626 1 1 0.999626
0.999381 1 1 0.999381
1 1 1 1
0.999972 1 1 0.999972
0.999682 1 1 0.999682
1 1 1 1
0.999986 1 1 0.999986
1 1 1 1
0.999309 1 1 0.999309
0.999391 1 1 0.999391
0.999482 1 1 0.999482
0.999451 1 1 0.999451
0.999524 1 1 0.999524
0.999737 1 1 0.999737
0.999546 1 1 0.999546
0.999791 1 1 0.999791
1 1 1 1
0.999853 1 1 0.999853
1 1 1 1
1 1 1 1
1 1 1 1
1 1 1 1
1 1 1 1
1.00422 1.00782 0.997094 0.999324
0.981913 0.987573 0.996973 0.997287
0.963103 0.969118 0.998917 0.994871
0.999313 1 1 0.999313
0.999102 1 1 0.999102
0.999286 1 1 0.999286
0.999389 1 1 0.999389
0.999352 1 1 0.999352
0.999406 1 1 0.999406
0.999981 1.00098 1 0.999007
0.999339 1 1 0.999339
0.999249 1 1 0.999249
0.999311 1.00038 1 0.998931
1.00133 1.00277 1 0.998568
1.0075 1.00925 0.999519 0.998747
1.00236 1.00386 1 0.998503
0.998768 1 1 0.998768
1.00323 1.00797 0.996069 0.999216
0.987729 0.994916 0.995596 0.997168
1.00483 1.00746 0.99841 0.998975
1.00553 1.00636 1 0.99918
1.00358 1.00376 1.00065 0.99917
0.983463 0.98512 1.00074 0.997577
1.00916 1.01801 0.992403 0.998893
1.00835 1.00904 1.00025 0.999072
1.01772 1.01979 0.999078 0.998888
1.011 1.0122 1 0.998816
1.00646 1.0076 1 0.998869
1.00769 1.0087 1 0.998999
1.0129 1.01547 0.998337 0.999129
1.00389 1.00504 0.999874 0.998987
1.00198 1.00313 1 0.998853
1.00591 1.00679 0.999994 0.99913
0.999935 1.00098 1 0.998956
0.99956 1.0007 1 0.998862
1.00017 1.00102 1 0.999143
0.999021 1.00005 1 0.99897
0.998929 1 1 0.998929
0.999138 1.00004 1 0.999102
0.999032 1 1 0.999032
0.999035 1 1 0.999035
0.999104 1 1 0.999104
0.9991 1 1 0.9991
0.999199 1 1 0.999199
0.999123 1 1 0.999123
0.999242 1 1 0.999242
0.9995 1 1 0.9995
0.999925 1 1 0.999925
0.999559 1 1 0.999559
0.999318 1 1 0.999318
1 1 1 1
0.999947 1 1 0.999947
0.999626 1 1 0.999626
1 1 1 1
0.999966 1 1 0.999966
1 1 1 1
0.99917 1 1 0.99917
0.999294 1 1 0.999294
0.999413 1 1 0.999413
0.999393 1 1 0.999393
0.999483 1 1 0.999483
0.999691 1 1 0.999691
0.999529 1 1 0.999529
0.999736 1 1 0.999736
0.999993 1 1 0.999993
0.999791 1 1 0.999791
1 1 1 1
1 1 1 1
1 1 1 1
1 1 1 1
1 1 1 1
1.00511 1.00667 0.999381 0.999068
1.00332 1.00699 0.997079 0.999276
0.981594 0.986214 0.997347 0.997963
1.00014 1.0011 1 0.999049
0.999384 1 1 0.999384
0.998931 1 1 0.998931
0.999093 1 1 0.999093
0.999299 1 1 0.999299
1.00348 1.0048 1 0.998682
0.999386 1 1 0.999386
0.999939 1.00095 1 0.998993
1.00357 1.00492 1 0.99866
0.999623 1.00067 1 0.99895
1.00205 1.00351 1 0.998542
1.00552 1.00712 0.999671 0.998743
1.00078 1.00227 1 0.998517
1.0054 1.0098 0.996392 0.999252
1.00664 1.00752 1 0.999122
1.00558 1.00641 1 0.999176
1.00378 1.0029 1.00167 0.99921
1.01766 1.01998 0.998809 0.998914
1.0126 1.01376 1 0.998848
1.00707 1.00821 1 0.998869
1.00794 1.00895 1 0.999004
1.00587 1.00694 1 0.998935
1.00393 1.00508 0.999867 0.998993
1.00181 1.00296 1 0.998858
1.00193 1.00311 1 0.998823
0.999987 1.00102 1 0.998967
0.999358 1.0005 1 0.998858
0.998913 1.00007 1 0.998842
0.999041 1.00007 1 0.998968
0.998927 1 1 0.998927
0.99895 1 1 0.99895
0.999031 1 1 0.999031
0.999035 1 1 0.999035
0.999126 1 1 0.999126
0.999101 1 1 0.999101
0.9992 1 1 0.9992
0.999442 1 1 0.999442
0.999238 1 1 0.999238
0.9995 1 1 0.9995
0.999901 1 1 0.999901
0.999996 1 1 0.999996
0.999919 1 1 0.999919
0.999559 1 1 0.999559
1 1 1 1
0.999939 1 1 0.999939
1 1 1 1
0.99897 1.00001 1 0.998964
0.999076 1 1 0.999076
0.999155 1 1 0.999155
0.999337 1 1 0.999337
0.99928 1 1 0.99928
0.999416 1 1 0.999416
0.999648 1 1 0.999648
0.999484 1 1 0.999484
0.999691 1 1 0.999691
0.999975 1 1 0.999975
0.999736 1 1 0.999736
0.999996 1 1 0.999996
1 1 1 1
1 1 1 1
1 1 1 1
1 1 1 1
1.00509 1.00615 1 0.998941
1.00706 1.0084 0.999567 0.999109
1.0034 1.00713 0.997069 0.999227
1.0012 1.00243 1 0.998775
0.99968 1.00058 1 0.999105
0.999456 1 1 0.999456
0.998978 1.00002 1 0.998953
0.999083 1 1 0.999083
1.00775 1.00914 1 0.99862
1.0032 1.00455 1 0.998654
0.999933 1.00095 1 0.998979
1.00425 1.0056 1 0.998653
1.00317 1.00467 1 0.998515
1.00496 1.00644 0.99979 0.998739
1.00843 1.00942 1 0.99902
1.00614 1.00703 1 0.999113
1.00566 1.00649 1 0.999172
1.00749 1.00863 1 0.99887
1.00825 1.00925 1 0.999009
1.00641 1.00748 1 0.99894
1.00599 1.00713 1 0.99887
1.00167 1.00281 1 0.998863
1.00142 1.0026 1 0.99882
0.999993 1.00118 1 0.998814
0.999159 1.00031 1 0.998854
0.999101 1.00026 1 0.998841
0.998881 1 1 0.998881
0.998924 1 1 0.998924
0.998949 1 1 0.998949
0.999049 1 1 0.999049
0.999034 1 1 0.999034
0.999126 1 1 0.999126
0.999371 1 1 0.999371
0.999201 1 1 0.999201
0.999441 1 1 0.999441
0.999883 1 1 0.999883
0.999499 1 1 0.999499
0.999896 1 1 0.999896
0.999994 1 1 0.999994
0.999998 1 1 0.999998
0.999913 1 1 0.999913
1 1 1 1
0.999544 1.00074 1 0.998802
0.999058 1 1 0.999058
0.999061 1.00001 1 0.999047
0.99924 1 1 0.99924
0.999074 1 1 0.999074
0.999139 1 1 0.999139
0.999339 1 1 0.999339
0.999592 1 1 0.999592
0.999418 1 1 0.999418
0.999649 1 1 0.999649
0.999951 1 1 0.999951
0.999691 1 1 0.999691
0.999981 1 1 0.999981
1 1 1 1
0.999998 1 1 0.999998
1 1 1 1
1 1 1 1
1.00875 1.00993 1 0.998827
1.005 1.00606 1 0.998939
1.00811 1.00918 0.999796 0.999149
1.00463 1.00596 1 0.998671
1.00097 1.0022 1 0.998777
0.999244 1.00008 1 0.999162
0.999043 1.00007 1 0.998976
1.00755 1.00894 1 0.99862
1.00294 1.00432 1 0.998627
1.0043 1.00566 1 0.998646
1.00831 1.00941 1 0.998916
1.00841 1.00943 1 0.998994
1.00543 1.00633 1 0.999104
1.00724 1.00841 1 0.998838
1.00687 1.00793 1 0.998946
1.0059 1.00704 1 0.99887
1.0026 1.00377 1 0.998832
1.0009 1.00208 1 0.998817
1.00042 1.00161 1 0.998816
0.998975 1.00013 1 0.998842
0.999283 1.00044 1 0.99884
0.998881 1 1 0.99888
0.998991 1 1 0.998991
0.998947 1 1 0.998947
0.999048 1 1 0.999048
0.9993 1 1 0.9993
0.999126 1 1 0.999126
0.999369 1 1 0.999369
0.999865 1 1 0.999865
0.99944 1 1 0.99944
0.999878 1 1 0.999878
0.999991 1 1 0.999991
0.999891 1 1 0.999891
0.999994 1 1 0.999994
1 1 1 1
1.00043 1.00172 1 0.998707
0.998893 1 1 0.998893
0.999271 1.00044 1 0.998831
0.999176 1 1 0.999176
0.999057 1 1 0.999057
0.99913 1 1 0.99913
0.9995 1 1 0.9995
0.999239 1 1 0.999239
0.999072 1 1 0.999072
0.99934 1 1 0.99934
0.999593 1 1 0.999593
0.999924 1 1 0.999924
0.999649 1 1 0.999649
0.999958 1 1 0.999958
1 1 1 1
0.999987 1 1 0.999987
1 1 1 1
1 1 1 1
1.00705 1.00826 1 0.998791
1.00882 1.01003 1 0.998808
1.00529 1.00636 1 0.998937
1.00467 1.00601 1 0.99867
1.0007 1.00192 1 0.99878
1.00728 1.00868 1 0.998619
1.0074 1.00857 1 0.998834
1.00856 1.00965 1 0.998915
1.00853 1.00957 1 0.998969
1.00721 1.00838 1 0.998841
1.00459 1.00579 1 0.998807
1.00581 1.00695 1 0.99887
1.00285 1.00403 1 0.99883
0.99956 1.00073 1 0.998833
1.00085 1.00203 1 0.998817
0.999112 1.00027 1 0.998843
0.998946 1 1 0.998946
0.998883 1 1 0.99888
0.99899 1 1 0.99899
0.999253 1 1 0.999253
0.999048 1 1 0.999048
0.999299 1 1 0.999299
0.999845 1 1 0.999845
0.999367 1 1 0.999367
0.99986 1 1 0.99986
0.999987 1 1 0.999987
0.999874 1 1 0.999874
0.999993 1 1 0.999993
0.999995 1 1 0.999995
1.0023 1.00352 1 0.998782
0.99881 1.00003 1 0.998782
1.00007 1.00138 1 0.9987
0.999044 1 1 0.999044
0.998904 1 1 0.998904
0.999037 1.00018 1 0.998861
0.999401 1 1 0.999401
0.99915 1 1 0.99915
0.999056 1 1 0.999056
0.999888 1 1 0.999888
0.999502 1 1 0.999502
0.999238 1 1 0.999238
0.999594 1 1 0.999594
0.999931 1 1 0.999931
1 1 1 1
0.999965 1 1 0.999965
1 1 1 1
1 1 1 1
1.00581 1.00703 1 0.998783
1.00713 1.00835 1 0.998787
1.00887 1.01009 1 0.998789
1.00476 1.0061 1 0.998669
1.00516 1.00639 1 0.998781
1.00767 1.00884 1 0.99884
1.0088 1.00989 1 0.998913
1.00716 1.00832 1 0.998845
1.00458 1.00578 1 0.998808
1.00042 1.0016 1 0.998822
1.00311 1.00429 1 0.998828
0.999726 1.00089 1 0.998838
0.998907 1 1 0.998907
0.99925 1.00041 1 0.998845
0.998946 1 1 0.998946
0.999216 1 1 0.999216
0.998989 1 1 0.998989
0.999252 1 1 0.999252
0.999819 1 1 0.999819
0.999297 1 1 0.999297
0.999837 1 1 0.999837
1 1 1 1
0.999855 1 1 0.999855
0.999989 1 1 0.999989
0.999993 1 1 0.999993
1.00236 1.00356 1 0.998804
0.999008 1.0002 1 0.998808
1.00235 1.00357 1 0.998785
0.998917 1 1 0.998917
0.99881 1.00001 1 0.998796
0.999696 1.001 1 0.998693
0.999267 1 1 0.999267
0.999042 1 1 0.999042
0.998915 1 1 0.998915
0.999849 1 1 0.999849
0.999378 1 1 0.999378
0.999123 1 1 0.999123
1 1 1 1
0.999897 1 1 0.999897
0.999503 1 1 0.999503
0.999938 1 1 0.999938
1 1 1 1
1 1 1 1
1.0042 1.00543 1 0.998783
1.00618 1.0074 1 0.998791
1.00718 1.00841 1 0.998782
1.00106 1.00229 1 0.998777
1.00489 1.00612 1 0.998778
1.00795 1.00911 1 0.998845
1.00458 1.00578 1 0.998809
1.00044 1.00162 1 0.998822
0.998927 1.00002 1 0.99891
0.999891 1.00105 1 0.998844
0.998929 1 1 0.998929
0.999136 1 1 0.999136
0.998947 1 1 0.998947
0.999216 1 1 0.999216
0.999796 1 1 0.999796
0.999251 1 1 0.999251
0.999817 1 1 0.999817
1 1 1 1
0.999828 1 1 0.999828
0.999992 1 1 0.999992
0.99999 1 1 0.99999
1.00108 1.00227 1 0.998811
0.998984 1.00014 1 0.998843
1.00234 1.00354 1 0.998804
0.998925 1 1 0.998925
0.999121 1.00031 1 0.998812
1.00242 1.00364 1 0.998789
0.99919 1 1 0.99919
0.998945 1 1 0.998945
0.998809 1 1 0.998809
0.999821 1 1 0.999821
0.999256 1 1 0.999256
0.999041 1 1 0.999041
1 1 1 1
0.999857 1 1 0.999857
0.999355 1 1 0.999355
1 1 1 1
0.999905 1 1 0.999905
1 1 1 1
1.00088 1.00209 1 0.998793
1.00388 1.00511 1 0.998784
1.00656 1.00777 1 0.998799
0.998871 1 1 0.998871
1.00097 1.00219 1 0.998781
1.00463 1.00586 1 0.998776
1.00047 1.00165 1 0.998822
0.998924 1.00001 1 0.99891
0.99909 1 1 0.99909
0.998952 1 1 0.998952
0.999157 1 1 0.999157
0.999753 1 1 0.999753
0.999216 1 1 0.999216
0.999794 1 1 0.999794
1 1 1 1
0.999816 1 1 0.999816
1 1 1 1
0.999986 1 1 0.999986
0.999169 1.00032 1 0.998848
1.00096 1.00215 1 0.99881
0.998926 1 1 0.998926
0.999051 1.00021 1 0.998843
1.00232 1.00352 1 0.998805
0.999192 1 1 0.999192
0.998923 1 1 0.998923
0.99923 1.00041 1 0.998817
0.999801 1 1 0.999801
0.999204 1 1 0.999204
0.998973 1 1 0.998973
1 1 1 1
0.999825 1 1 0.999825
0.999246 1 1 0.999246
1 1 1 1
0.999864 1 1 0.999864
1 1 1 1
0.998891 1 1 0.998891
1.00072 1.00193 1 0.998795
1.00352 1.00474 1 0.998785
0.999064 1 1 0.999064
0.998871 1 1 0.998871
1.00085 1.00207 1 0.998784
0.998921 1.00001 1 0.99891
0.999095 1 1 0.999095
0.999708 1 1 0.999708
0.999179 1 1 0.999179
0.99975 1 1 0.99975
1 1 1 1
0.999791 1 1 0.999791
1 1 1 1
1 1 1 1
0.998913 1 1 0.998913
0.999127 1.00028 1 0.998842
1.00085 1.00204 1 0.998809
0.999173 1 1 0.999173
0.998925 1 1 0.998925
0.999123 1.00028 1 0.998842
0.999782 1 1 0.999782
0.999191 1 1 0.999191
0.998921 1 1 0.998921
1 1 1 1
0.999804 1 1 0.999804
0.999219 1 1 0.999219
1 1 1 1
0.99983 1 1 0.99983
1 1 1 1
0.999108 1 1 0.999108
0.99887 1 1 0.99887
1.00059 1.00179 1 0.998798
0.999687 1 1 0.999687
0.999066 1 1 0.999066
0.998871 1 1 0.998871
0.999101 1 1 0.999101
0.999707 1 1 0.999707
1 1 1 1
0.999748 1 1 0.999748
1 1 1 1
1 1 1 1
0.999143 1 1 0.999143
0.998904 1 1 0.998904
0.999085 1.00025 1 0.998836
0.999778 1 1 0.999778
0.999172 1 1 0.999172
0.998924 1 1 0.998924
1 1 1 1
0.999783 1 1 0.999783
0.99919 1 1 0.99919
1 1 1 1
0.999807 1 1 0.999807
1 1 1 1
0.999684 1 1 0.999684
0.999092 1 1 0.999092
0.998849 1 1 0.998849
1 1 1 1
0.999686 1 1 0.999686
0.999068 1 1 0.999068
0.999705 1 1 0.999705
1 1 1 1
1 1 1 1
0.999743 1 1 0.999743
0.999143 1 1 0.999143
0.998895 1 1 0.998895
1 1 1 1
0.999757 1 1 0.999757
0.999171 1 1 0.999171
1 1 1 1
0.999783 1 1 0.999783
1 1 1 1
0.999931 1 1 0.999931
0.999709 1 1 0.999709
0.999076 1 1 0.999076
1 1 1 1
0.999686 1 1 0.999686
1 1 1 1
0.999946 1 1 0.999946
0.999735 1 1 0.999735
0.999143 1 1 0.999143
0.999978 1 1 0.999978
0.999755 1 1 0.999755
1 1 1 1
1 1 1 1
0.999693 1 1 0.999693
1 1 1 1
0.99997 1 1 0.99997
0.999721 1 1 0.999721
1 1 1 1
1 1 1 1
1 1 1 1

VECTORS lamdaE float
0.99909 1.00027 0.99645
0.999238 0.999513 0.99855
0.99899 1.00041 0.99653
0.999564 0.999969 0.996131
0.999209 1.00026 0.996336
0.999118 0.999982 0.996619
0.999952 1.00078 0.994206
0.999252 0.999386 0.998593
0.999123 1.00036 0.998462
0.998966 0.999975 0.998619
0.99937 0.999034 0.997138
0.999876 1.00061 0.994224
0.999761 1.00002 0.995728
0.999442 0.999879 0.996191
0.998872 1.00061 0.996608
0.999452 0.999963 0.996231
0.99903 1.0001 0.996692
0.999086 1.00038 0.996431
1.00003 1.00072 0.994199
0.999693 1 0.99811
0.999598 0.999955 0.996082
0.999423 1.00009 0.996206
1.00079 0.999928 0.99363
1.00028 1.00048 0.99395
0.999261 0.999415 0.99691
0.999668 1.0009 0.994535
1.00155 1.00108 0.991089
0.999258 0.999253 0.998645
0.9992 1.00025 0.997348
0.99906 1 0.997607
0.999341 0.998873 0.998732
0.999795 1.00071 0.99423
0.999478 1.00009 0.996127
0.999198 1.00042 0.99642
1.00058 1.00037 0.994203
0.999344 0.998314 0.998999
1.00005 1.00064 0.994781
0.999744 1.00039 0.994652
1.00069 1.00179 0.991581
0.999443 0.997785 0.99915
0.999753 1 0.99806
0.999531 0.999958 0.997186
0.99981 1 0.998013
0.999476 0.999969 0.996085
1.00115 1.00004 0.992334
0.999431 1.00002 0.998386
1.00101 0.999942 0.993829
0.99934 0.999946 0.996329
0.998967 1.00052 0.996516
0.998934 1.00024 0.996779
1.00011 1.0006 0.994193
0.999646 1 0.997027
0.99949 0.999927 0.996191
0.999189 0.999466 0.99698
0.999298 1.00015 0.996307
1.00084 0.999908 0.993589
0.999746 1.00084 0.994535
1.00035 1.00042 0.993935
1.00162 1.00111 0.991
0.999753 1 0.998058
0.999637 0.999995 0.99595
1.00102 1.00001 0.993675
1.00081 0.999914 0.993608
1.00062 1.00014 0.993711
1.00293 0.999809 0.989879
1.00215 1.00049 0.990305
0.999464 0.998694 0.997273
0.99944 1.00074 0.995071
1.00087 1.00163 0.991716
1.00244 1.00118 0.988909
0.999252 1.00021 0.998353
0.999351 0.998698 0.998825
0.999141 0.999765 0.998526
0.99972 1.00081 0.994235
0.999504 1.00012 0.998264
0.999176 1.00023 0.998403
1.00046 1.00038 0.993245
0.999376 0.99839 0.998265
0.999919 1.00076 0.993924
0.999691 1.00037 0.995136
1.00068 1.00177 0.991572
0.999433 0.998061 0.99904
0.999619 0.99897 0.996333
1.00083 1.00003 0.992963
1.00026 1.00061 0.993512
1.00238 1.00048 0.989676
0.999624 0.999868 0.996071
1.00115 1.00137 0.991148
1.00033 1.00207 0.99198
1.00122 1.00205 0.990223
0.999486 0.997479 0.99923
0.999428 0.997733 0.999178
0.999604 0.999983 0.998221
0.999715 1 0.998096
0.9998 1 0.998023
0.999578 0.999994 0.99709
1.00115 1.00003 0.992945
0.999492 0.999977 0.997233
1.00097 0.999959 0.99334
0.999817 0.999998 0.998014
1.0012 0.999985 0.992268
1.00108 1.00003 0.993648
1.00332 0.999821 0.988565
1.00094 0.999923 0.993944
1.0031 0.999826 0.989006
0.999722 1.00001 0.995817
0.99938 0.999874 0.9963
0.999115 0.999483 0.997065
0.999177 1.00022 0.996402
1.00088 0.999901 0.99355
1.00042 1.00034 0.993926
0.999827 1.00075 0.994528
1.00169 1.00116 0.990912
0.999787 1 0.998036
0.999518 0.999977 0.996076
1.00108 1.00001 0.992776
1.00085 0.999886 0.993566
0.999388 0.998697 0.998042
0.999562 1.00066 0.995186
1.00067 1.00011 0.993684
1.00292 0.999797 0.989772
1.00096 1.00167 0.991615
1.00218 1.00056 0.99038
1.00243 1.00119 0.988913
1.00116 1.00001 0.992322
1.00085 0.999971 0.993442
1.00324 0.999829 0.989005
1.00293 0.999741 0.989658
1.00274 1.00002 0.989762
1.00398 0.999464 0.987995
0.999461 0.998197 0.998971
1.00309 1.0005 0.988355
0.99959 1.00028 0.995029
1.00027 1.00195 0.992068
1.00176 1.00199 0.989491
1.00303 1.00105 0.987937
0.999664 0.999349 0.99579
1.00008 1.00105 0.993397
0.99944 1.00013 0.998283
0.99911 1.00011 0.998449
1.00044 1.00038 0.993255
0.999394 0.998271 0.998991
0.999611 1.00047 0.994775
0.999843 1.00086 0.993917
1.00068 1.00175 0.991564
0.999413 0.998015 0.999078
0.999621 0.998913 0.996361
1.00081 1.00004 0.99351
1.00018 1.00062 0.994036
1.00238 1.00047 0.989691
0.999608 0.999844 0.995457
1.00113 1.00135 0.991162
1.00031 1.00207 0.991976
1.00124 1.00205 0.990163
0.999584 0.999433 0.995916
0.9997 0.998512 0.996654
0.999998 1.00078 0.9938
1.00285 1.00007 0.989208
1.00172 1.00098 0.990439
1.00335 1.00046 0.987905
1.0002 1.00177 0.992504
1.0018 1.0015 0.98968
1.00079 1.00274 0.990524
1.00144 1.00233 0.989659
0.999568 0.997178 0.999278
0.999487 0.99742 0.999247
0.999416 0.997673 0.999205
0.999703 0.998965 0.996131
0.99948 0.997938 0.999073
0.999563 1.00003 0.998247
0.999637 0.999986 0.998173
1.00093 0.99995 0.992823
1.00109 1.00004 0.99242
0.999778 1 0.998038
0.999815 0.999999 0.998011
1.00119 0.999993 0.992272
1.00102 1.00003 0.993169
1.00332 0.999821 0.988567
1.00089 0.999895 0.99292
1.00309 0.999835 0.989006
1.00121 0.999974 0.992237
1.00346 0.999784 0.988351
1.00317 0.999839 0.988841
1.00439 0.999466 0.98697
1.00304 0.999852 0.989063
1.00415 0.999477 0.987423
0.999805 0.999999 0.998018
0.999399 0.999949 0.996208
1.00108 0.999996 0.991936
1.0009 0.999883 0.993524
0.999267 0.998656 0.99887
0.999688 1.0006 0.995295
1.00072 1.00009 0.99366
1.00292 0.999779 0.989666
1.00221 1.00062 0.990456
1.00105 1.00175 0.991514
1.00242 1.0012 0.988916
1.00116 0.999997 0.992316
1.0009 0.999962 0.993403
1.00323 0.999816 0.988764
1.00294 0.999778 0.989764
0.999448 0.998257 0.998933
0.999617 1.00022 0.995383
1.00036 1.00197 0.99216
1.00271 1.00007 0.989759
1.00399 0.999381 0.98786
1.00168 1.00198 0.989481
1.00311 1.00053 0.988436
1.00302 1.00105 0.987949
0.999642 0.999428 0.995776
1.00009 1.00101 0.993391
1.00344 0.999788 0.98837
1.003 0.999827 0.989435
1.00429 0.999568 0.987338
1.00402 0.999337 0.987653
1.00373 0.999819 0.987999
1.00455 0.998897 0.987348
0.999627 0.999809 0.995386
1.00378 1.00016 0.987422
1.00014 1.00187 0.992404
1.00085 1.00245 0.990319
1.00234 1.00213 0.988571
1.00349 1.00063 0.987602
1.00013 1.00151 0.992873
1.0001 1.00048 0.993922
1.00029 1.00208 0.992001
1.00076 1.00004 0.993023
0.999396 0.997974 0.999115
0.99962 0.998865 0.99639
1.00007 1.00072 0.993608
1.00237 1.00046 0.989706
0.999595 0.999833 0.995421
1.00028 1.00207 0.991971
1.00111 1.00135 0.991177
1.00125 1.00205 0.990102
0.999594 0.999364 0.995939
0.999691 0.998489 0.996673
0.999988 1.0008 0.99381
1.00285 1.00007 0.98921
1.0017 1.00097 0.990463
1.00335 1.00046 0.987904
1.00016 1.00181 0.992506
1.00183 1.00151 0.989714
1.00078 1.00273 0.990516
1.00141 1.00232 0.989621
0.999783 0.998164 0.996848
1.0001 1.0013 0.993093
0.999986 1.00015 0.994461
1.00017 1.00191 0.992418
1.00387 0.999879 0.987489
1.00254 1.00109 0.988814
1.00393 1.00026 0.987
1.00051 1.00268 0.991143
1.00219 1.00147 0.989118
1.00083 1.00362 0.989532
1.00162 1.00214 0.98922
1.00018 0.999094 0.995193
0.999926 0.997697 0.997037
0.999664 0.996912 0.99931
0.999579 0.997125 0.999289
0.999491 0.997358 0.999263
0.99977 0.998636 0.996354
0.999505 0.997695 0.999142
0.999699 0.999012 0.996108
0.999487 0.99797 0.999041
1.0009 0.999889 0.992917
1.00099 1.00002 0.992639
1.00308 0.999841 0.989005
1.00332 0.999823 0.98857
1.00119 1 0.992276
0.99982 1 0.99801
1.00122 0.999977 0.992235
1.00346 0.999786 0.988352
1.00317 0.999849 0.988841
1.00439 0.99947 0.986966
1.00304 0.999866 0.989059
1.00415 0.999476 0.987427
1.00349 0.999774 0.988308
1.00453 0.9994 0.986772
1.00424 0.999494 0.987233
1.00486 0.998977 0.986594
1.00409 0.999531 0.987458
1.00467 0.998996 0.986936
1.00118 0.999986 0.992308
1.00096 0.999957 0.993361
1.00322 0.999796 0.988523
1.00295 0.9998 0.989871
0.999439 0.998319 0.998894
0.999657 1.00021 0.99571
1.00048 1.00198 0.99225
1.00268 1.00012 0.989756
1.004 0.999294 0.987724
1.00314 1.00056 0.988517
1.00159 1.00198 0.989472
1.00301 1.00104 0.987962
0.999626 0.999494 0.99576
1.00011 1.00098 0.993385
1.00342 0.99977 0.988295
1.00302 0.999815 0.989431
1.0043 0.999528 0.987281
1.00403 0.99939 0.987801
0.999626 0.999842 0.995384
1.00018 1.00189 0.9924
1.00086 1.00242 0.990447
1.00375 0.99988 0.988001
1.00456 0.998826 0.987304
1.00227 1.00213 0.988441
1.00377 1.00015 0.987426
1.00343 1.00059 0.987619
1.00014 1.00145 0.99288
1.00028 1.00205 0.992013
1.0001 1.00049 0.993911
1.00448 0.99949 0.987056
1.00411 0.999496 0.987594
1.00483 0.999092 0.986677
1.00458 0.998934 0.987148
1.0044 0.999251 0.987115
1.00489 0.998449 0.987149
1.00014 1.00174 0.992599
1.00419 0.999492 0.98723
1.00057 1.00235 0.991229
1.00119 1.00296 0.989228
1.00267 1.00206 0.987814
1.00372 1.00012 0.987842
1.00014 1.0001 0.994251
1.0004 1.00211 0.991798
1.00026 1.00167 0.992421
1.0003 1.00264 0.991509
1.00285 1.00008 0.989211
0.999681 0.998468 0.996691
0.999608 0.999283 0.995961
0.99999 1.0008 0.99382
1.00168 1.00096 0.990488
1.00336 1.00046 0.987901
1.00012 1.00185 0.992509
1.00077 1.00273 0.990508
1.00186 1.00152 0.989748
1.00138 1.00231 0.989582
0.999774 0.998155 0.996855
1.00009 1.00134 0.993094
0.999994 1.00013 0.994476
1.00016 1.00195 0.992408
1.00389 0.999881 0.987475
1.00252 1.00109 0.988829
1.00393 1.00027 0.986998
1.00047 1.00267 0.991158
1.00222 1.00149 0.989162
1.00085 1.00363 0.989488
1.00159 1.00203 0.989487
0.999859 0.997904 0.996963
1.00005 0.99967 0.99485
1.00034 1.00229 0.991802
1.00015 1.00126 0.993083
1.00009 1.00287 0.991641
1.00447 0.999497 0.986747
1.00301 1.00099 0.988008
1.00424 0.999996 0.986726
1.00045 1.00391 0.990043
1.00237 1.00131 0.988895
1.00101 1.00362 0.988606
1.00014 0.999219 0.995132
1.00021 1.00006 0.994177
1.00021 0.999004 0.995223
1.00017 0.999111 0.995188
0.999967 0.997493 0.997534
0.999914 0.99768 0.997264
0.999807 0.996709 0.998451
0.999677 0.996867 0.999318
0.999592 0.997073 0.999299
0.999839 0.998367 0.996499
0.999568 0.997443 0.999185
0.999773 0.998658 0.996338
0.999514 0.997732 0.999122
0.999693 0.999059 0.996086
0.999496 0.998018 0.999009
1.00304 0.999877 0.989055
1.00316 0.999858 0.988841
1.00414 0.999484 0.987431
1.0044 0.999473 0.986962
1.00346 0.999789 0.988353
1.00122 0.999981 0.992235
1.00349 0.999771 0.988307
1.00453 0.999402 0.986771
1.00423 0.99951 0.987233
1.00487 0.998936 0.986591
1.0041 0.999528 0.98745
1.00466 0.999 0.986936
1.00456 0.99938 0.986735
1.00497 0.998875 0.986443
1.00476 0.998994 0.986751
1.00507 0.99847 0.986738
1.00464 0.999042 0.986923
1.00492 0.998431 0.987011
1.0034 0.999753 0.98822
1.00304 0.999803 0.989427
1.00431 0.999497 0.987223
1.00405 0.999444 0.98795
0.999627 0.999875 0.995383
1.0002 1.0019 0.992397
1.00087 1.00239 0.990575
1.00376 0.999943 0.988002
1.00457 0.998756 0.987259
1.00376 1.00015 0.987431
1.0022 1.00214 0.988312
1.00336 1.00056 0.987636
1.00015 1.0014 0.992888
1.00029 1.00202 0.992025
1.0001 1.0005 0.9939
1.00449 0.999465 0.986925
1.00412 0.99949 0.987589
1.00482 0.999022 0.986655
1.0046 0.998957 0.98717
1.00016 1.0017 0.992606
1.00062 1.00234 0.991205
1.00114 1.00297 0.989392
1.00438 0.999329 0.987175
1.00486 0.998401 0.987146
1.00257 1.00212 0.987728
1.00421 0.999492 0.987228
1.00368 0.999997 0.987886
1.0004 1.00212 0.991811
1.00031 1.00266 0.991451
1.00013 1.00011 0.994246
1.00025 1.00161 0.992493
1.00494 0.998976 0.986449
1.00467 0.999089 0.986957
1.00505 0.998611 0.986649
1.00492 0.998307 0.987118
1.00479 0.998621 0.986976
1.00498 0.998072 0.987199
1.00048 1.00213 0.991628
1.00439 0.998752 0.987575
1.00056 1.00299 0.990379
1.00155 1.00345 0.988304
1.00282 1.00196 0.98744
1.004 0.99969 0.9878
1.00016 0.999874 0.994434
1.00026 1.00122 0.992867
1.00042 1.00255 0.991353
1.00023 1.00237 0.991901
1.0003 1.00282 0.991285
0.999765 0.998147 0.996863
1.00391 0.999884 0.98746
1 1.00011 0.99449
1.00007 1.0014 0.993095
1.00014 1.00199 0.992399
1.00251 1.0011 0.988844
1.00392 1.00029 0.986997
1.00044 1.00266 0.991174
1.00087 1.00366 0.989443
1.00225 1.00152 0.989206
1.00157 1.00193 0.989753
0.999852 0.997897 0.996967
1.00005 0.999658 0.994859
1.00032 1.00228 0.991803
1.00014 1.00128 0.993087
1.00008 1.00295 0.991544
1.00448 0.999508 0.986731
1.003 1.00099 0.988018
1.00421 1.00001 0.986708
1.0004 1.0039 0.990055
1.00239 1.00134 0.988937
1.00116 1.00362 0.988691
1.0001 0.9994 0.995034
1.00017 1.00067 0.993643
1.00028 1.00341 0.990818
1.00006 1.00235 0.992203
1.00011 1.00356 0.990993
1.00481 0.999043 0.986586
1.00329 1.00072 0.987737
1.00417 0.999376 0.987271
1.00036 1.00486 0.989027
1.00211 1.00246 0.988248
1.00014 0.999232 0.99513
1.00019 1.00015 0.994036
1.00021 1.00007 0.994133
1.00017 1.00075 0.993701
1.00025 1.00004 0.994148
1.00025 0.998963 0.995201
1.00021 0.999009 0.99522
1.00003 0.997335 0.997571
1.00017 0.999125 0.995183
0.999975 0.997484 0.997539
0.999901 0.996484 0.99849
0.999903 0.997668 0.997487
0.999783 0.996667 0.998897
0.999691 0.996823 0.999326
0.999902 0.998134 0.996616
0.999843 0.99838 0.99649
0.999648 0.997201 0.999218
0.999566 0.997488 0.999172
0.999776 0.998683 0.996322
0.999521 0.997761 0.999101
1.00411 0.999525 0.987442
1.00423 0.999518 0.987232
1.00465 0.999 0.986936
1.00489 0.998893 0.986588
1.00453 0.999404 0.986771
1.00349 0.999769 0.988305
1.00456 0.99938 0.986736
1.00498 0.998885 0.986427
1.00476 0.999008 0.986746
1.00507 0.998398 0.986787
1.00465 0.999033 0.986914
1.00492 0.998366 0.987032
1.005 0.998899 0.986391
1.00512 0.998505 0.986611
1.00501 0.998267 0.986948
1.00513 0.998065 0.987065
1.00495 0.998471 0.9869
1.00496 0.997963 0.987354
1.0045 0.999437 0.986793
1.00413 0.999487 0.987585
1.00481 0.998949 0.986633
1.00462 0.99898 0.987192
1.00019 1.00166 0.992614
1.00067 1.00233 0.991182
1.00109 1.00297 0.989556
1.00437 0.999408 0.987235
1.00484 0.99835 0.987142
1.00423 0.99949 0.987228
1.00248 1.00217 0.987642
1.00363 0.999861 0.98793
1.00039 1.00213 0.991824
1.00031 1.00269 0.991393
1.00013 1.00012 0.99424
1.00025 1.00153 0.992566
1.00494 0.99898 0.986451
1.00468 0.999117 0.986923
1.00504 0.998561 0.986673
1.00489 0.998368 0.987115
1.0005 1.00215 0.99162
1.00056 1.00293 0.990512
1.00151 1.00356 0.988284
1.00481 0.99867 0.986974
1.00501 0.998023 0.987187
1.00281 1.00201 0.987388
1.0044 0.998751 0.987574
1.00383 0.999493 0.988042
1.00044 1.00254 0.991356
1.00031 1.00284 0.991271
1.00021 1.00238 0.991897
1.00016 0.999868 0.994361
1.00026 1.00118 0.992913
1.00512 0.99848 0.986591
1.00503 0.998392 0.986846
1.00502 0.99773 0.987478
1.00498 0.997956 0.987202
1.00047 1.0026 0.991167
1.00465 0.99817 0.987734
1.00043 1.00361 0.989742
1.00188 1.00394 0.987202
1.00335 1.00138 0.987107
1.00018 0.999686 0.994437
1.00025 1.00092 0.993313
1.0002 1.00192 0.992412
1.0004 1.00267 0.991267
1.00021 1.00289 0.991455
1.00039 1.00274 0.991163
0.999845 0.997892 0.996971
1.00006 0.999646 0.994867
1.0045 0.999518 0.986716
1.00014 1.00131 0.993091
1.0003 1.00228 0.991805
1.00008 1.00302 0.991447
1.00299 1.00099 0.988029
1.00419 1.00002 0.98669
1.00037 1.00388 0.990068
1.00129 1.0036 0.988776
1.00241 1.00136 0.988981
1.00009 0.999407 0.995035
1.00018 1.00066 0.993653
1.00026 1.00338 0.990852
1.00006 1.00234 0.992203
1.00009 1.0036 0.990925
1.00478 0.999075 0.986576
1.0033 1.00072 0.987719
1.0042 0.999239 0.987403
1.00034 1.00491 0.988997
1.00211 1.00265 0.988064
1.00017 1.00034 0.99398
1.00009 1.0017 0.992699
1.00025 1.00416 0.99006
1.00002 1.00329 0.991231
1.00024 1.0038 0.99051
1.00495 0.997645 0.987594
1.00345 1.00087 0.987529
1.00434 0.998195 0.987694
1.00093 1.00476 0.988652
1.00194 1.00301 0.987258
1.00013 0.999246 0.995128
1.0002 1.00015 0.994084
1.00015 1.00091 0.993396
1.00021 1.00008 0.99409
1.00025 1.00004 0.994148
1.00015 1.00075 0.993634
1.00007 1.0013 0.993293
1.00014 1.00071 0.993627
1.00028 1.00002 0.99412
1.00026 0.998991 0.995143
1.00025 0.998962 0.995202
1.00008 0.997253 0.997559
1.00021 0.999014 0.995217
1.00003 0.997337 0.997571
0.999967 0.99633 0.998515
0.999983 0.997474 0.997546
0.999892 0.996462 0.998492
0.999757 0.996618 0.99935
0.999959 0.997918 0.996728
0.999906 0.998142 0.99661
0.999728 0.996975 0.999247
0.999846 0.998395 0.996482
0.99964 0.997244 0.999208
0.999566 0.997526 0.999159
1.00465 0.999024 0.986906
1.00476 0.999024 0.98674
1.00492 0.998304 0.987052
1.00508 0.998325 0.986836
1.00498 0.998894 0.98641
1.00456 0.99938 0.986736
1.00499 0.99893 0.986376
1.00512 0.998535 0.986583
1.00503 0.998312 0.98689
1.00513 0.997981 0.98709
1.00493 0.998485 0.986909
1.00501 0.997845 0.987363
1.00511 0.998565 0.986543
1.00513 0.998065 0.987004
1.00513 0.997659 0.98738
1.00499 0.997637 0.987621
1.00493 0.998984 0.986453
1.00469 0.999144 0.986888
1.00503 0.998513 0.986696
1.00485 0.99843 0.987113
1.00053 1.00215 0.991612
1.00057 1.00287 0.990646
1.00147 1.00368 0.988264
1.00482 0.998721 0.986972
1.00503 0.997982 0.987176
1.00442 0.998751 0.987572
1.0028 1.00206 0.987337
1.00368 0.999329 0.988282
1.00046 1.00254 0.99136
1.00034 1.00284 0.991257
1.00019 1.0024 0.991892
1.00016 0.999865 0.994288
1.00026 1.00114 0.992959
1.00512 0.998488 0.986603
1.00502 0.998394 0.986889
1.00503 0.997813 0.987407
1.00052 1.0026 0.991152
1.00055 1.00355 0.989889
1.00183 1.00405 0.987172
1.00499 0.997985 0.987234
1.00333 1.00121 0.98727
1.00459 0.9982 0.987775
1.00018 0.999662 0.994461
1.00043 1.00266 0.991261
1.00038 1.00274 0.991206
1.00021 1.00293 0.991412
1.0002 1.00191 0.992439
1.00025 1.00091 0.99325
1.00514 0.998185 0.986815
1.00512 0.9976 0.987486
1.0051 0.997347 0.987627
1.00509 0.997266 0.987759
1.00045 1.00294 0.990886
1.00435 0.998939 0.98737
1.00077 1.00467 0.988298
1.00234 1.0039 0.986579
1.00019 0.999493 0.994626
1.00025 1.00072 0.993531
1.0002 1.00166 0.992711
1.00015 1.00256 0.991844
1.00046 1.00284 0.991037
1.0004 1.00279 0.991137
1.00009 0.999413 0.995037
1.00018 1.00064 0.993663
1.00476 0.999109 0.986566
1.00006 1.00234 0.992204
1.00023 1.00336 0.990886
1.00005 1.00365 0.990856
1.00331 1.00071 0.987702
1.00423 0.999101 0.987535
1.00032 1.00487 0.988966
1.00212 1.0029 0.987881
1.00018 1.00032 0.993985
1.00011 1.00167 0.992735
1.0002 1.00423 0.990131
1.00001 1.00335 0.991232
1.00016 1.00378 0.990575
1.00495 0.997719 0.987679
1.00351 1.00075 0.987486
1.0043 0.998033 0.988151
1.0008 1.00472 0.988611
1.00212 1.00328 0.986982
1.00013 1.00112 0.993203
1.00002 1.00264 0.991829
1.00034 1.00434 0.989762
1.00002 1.004 0.990285
1.00516 0.996424 0.988543
1.00508 0.996752 0.988342
1.00363 1.00073 0.987001
1.00108 1.00453 0.987474
1.0002 1.00014 0.994132
1.00015 1.00092 0.993429
1.00006 1.00158 0.993005
1.00024 1.00004 0.994149
1.00014 1.00074 0.993566
1.00028 1.00001 0.994121
1.00006 1.00131 0.993239
1.00015 1.00069 0.993646
1.00001 1.00174 0.992912
1.0001 1.00117 0.993281
1.00016 1.00066 0.993621
1.0003 1.00004 0.994068
1.00026 0.999061 0.995073
1.00026 0.998994 0.995142
1.00011 0.997238 0.997517
1.00024 0.998959 0.995203
1.00008 0.99727 0.997553
1.00002 0.996256 0.998495
1.00004 0.99734 0.997572
0.99996 0.996307 0.998518
0.999883 0.996441 0.998491
1.00001 0.997706 0.996844
0.999964 0.997923 0.996722
0.999803 0.99676 0.999276
0.999912 0.99815 0.996604
0.999719 0.997015 0.999238
0.999633 0.997289 0.999197
1.0049 0.998497 0.986917
1.00504 0.998357 0.986831
1.00507 0.997724 0.987373
1.00514 0.9979 0.987114
1.00512 0.998566 0.986554
1.00499 0.998961 0.986361
1.00511 0.99856 0.986557
1.00513 0.998084 0.986984
1.00513 0.997677 0.987362
1.00504 0.997592 0.987608
1.00513 0.998197 0.986873
1.00513 0.997522 0.987574
1.00514 0.997176 0.987818
1.00511 0.998495 0.986614
1.00502 0.998395 0.986932
1.00505 0.997893 0.987336
1.00056 1.0026 0.991137
1.00068 1.00348 0.990036
1.00177 1.00416 0.987141
1.00499 0.99801 0.987267
1.00452 0.998203 0.987818
1.00329 1.00105 0.987435
1.00045 1.00266 0.991254
1.00034 1.00273 0.991248
1.00021 1.00296 0.99137
1.00018 0.999636 0.994486
1.0002 1.0019 0.992466
1.00025 1.0009 0.993187
1.00515 0.99822 0.986816
1.00512 0.997582 0.987516
1.0051 0.997396 0.987618
1.00049 1.00295 0.990846
1.00069 1.00457 0.988604
1.00237 1.00382 0.986583
1.00508 0.997256 0.987817
1.00439 0.998951 0.987315
1.00019 0.999467 0.994721
1.00024 1.00072 0.993531
1.0004 1.00276 0.991061
1.0004 1.00269 0.991282
1.00016 1.00255 0.991807
1.00019 1.00169 0.992666
1.00514 0.997624 0.98742
1.00512 0.996825 0.988181
1.00511 0.996715 0.988134
1.00497 0.996955 0.988263
1.00025 1.00371 0.990244
1.00322 1.00211 0.986512
1.00126 1.00498 0.987693
1.0002 0.999312 0.994932
1.00018 1.00035 0.993946
1.00022 1.0006 0.993543
1.00017 1.00155 0.992809
1.00009 1.00235 0.992146
1.00001 1.00323 0.991322
1.00065 1.00178 0.99153
1.00028 1.00285 0.991947
1.00018 1.00031 0.99399
1.00012 1.00165 0.99277
1.00494 0.997796 0.987764
1.00001 1.00339 0.991233
1.00016 1.00429 0.990201
1.00008 1.00377 0.990641
1.00355 1.00061 0.987441
1.00429 0.997853 0.988604
1.00066 1.00473 0.98857
1.0023 1.00351 0.986705
1.00014 1.00116 0.993161
1.00003 1.00268 0.99183
1.00029 1.00436 0.989798
1.0001 1.00402 0.99036
1.00515 0.99643 0.988588
1.00496 0.996899 0.988286
1.0037 1.00067 0.987179
1.00132 1.00453 0.98731
1.00005 1.00193 0.992656
1.00517 0.995987 0.98881
1.00001 1.00377 0.99105
1.0005 1.00454 0.989207
1.00518 0.995916 0.98899
1.0048 0.997792 0.987609
1.00244 1.00357 0.986734
1.00016 1.00093 0.993462
1.00005 1.00159 0.992998
0.999964 1.00212 0.992628
1.00028 0.999992 0.994122
1.00016 1.00067 0.993666
1.00005 1.00133 0.993185
1.0003 1.00003 0.994066
1.00017 1.00066 0.993626
1.00002 1.00176 0.992863
1.0001 1.00116 0.993332
1.00001 1.00199 0.992622
1.00008 1.00154 0.99292
1.00012 1.00107 0.993392
1.00024 1.00062 0.993573
1.0003 1.00011 0.993993
1.00025 0.999128 0.995021
1.00026 0.999065 0.995074
1.00013 0.997258 0.997468
1.00026 0.999 0.995142
1.00011 0.997265 0.99751
1.00005 0.99623 0.998467
1.00008 0.997289 0.997547
1.00001 0.996227 0.998501
0.999953 0.996285 0.998519
1.00021 0.999179 0.995044
1.00006 0.997518 0.996944
1.00002 0.997712 0.996839
0.999871 0.996556 0.999305
0.999968 0.997932 0.996717
0.999794 0.996798 0.999267
0.99971 0.997055 0.999229
1.0051 0.997548 0.987594
1.00512 0.997695 0.987343
1.00513 0.998097 0.986964
1.00511 0.998555 0.98657
1.00513 0.998174 0.986912
1.00514 0.997519 0.987549
1.00514 0.997146 0.987812
1.00512 0.997582 0.987477
1.00515 0.996988 0.988145
1.00515 0.995633 0.98898
1.00515 0.998257 0.986818
1.00512 0.997564 0.987546
1.0051 0.997449 0.98761
1.00053 1.00297 0.990806
1.00061 1.00448 0.98891
1.0024 1.00373 0.986587
1.00506 0.997258 0.987874
1.00442 0.998973 0.987259
1.00033 1.00268 0.991084
1.00042 1.00259 0.991423
1.00013 1.00258 0.991769
1.00019 0.999439 0.994815
1.00025 1.00072 0.99353
1.00018 1.00171 0.992621
1.00513 0.997566 0.98751
1.00021 0.999304 0.994931
1.00017 1.00037 0.993904
1.00512 0.996894 0.988161
1.00513 0.996762 0.988054
1.00018 1.00372 0.990446
1.00124 1.00499 0.987521
1.00318 1.00198 0.986528
1.00496 0.997 0.988259
1.00022 1.00059 0.993674
1.00017 1.00155 0.992803
1.00077 1.00192 0.991252
1.00013 1.00232 0.992343
0.999988 1.00333 0.991236
1.00011 1.0023 0.992166
1.00513 0.996597 0.988468
1.00512 0.996477 0.988611
1.00509 0.99617 0.988638
1.00436 0.997851 0.988034
1.00047 1.00334 0.990488
1.00192 1.00464 0.986834
1.00015 1.00028 0.99397
1.0002 1.00049 0.993781
1.0001 1.00123 0.993351
1.00015 1.00148 0.9928
1.00007 1.00227 0.992372
0.99989 1.00308 0.991533
0.999746 1.00434 0.990988
1.00023 1.00166 0.992465
1.00015 1.00118 0.993118
1.00004 1.00271 0.991832
1.00514 0.996422 0.988632
1.00481 0.99708 0.988232
1.00018 1.00403 0.990435
1.00025 1.00437 0.989834
1.00377 1.00062 0.987358
1.00156 1.00457 0.987147
1.00004 1.00195 0.992634
1.00518 0.995976 0.988828
0.999967 1.00366 0.991088
1.0005 1.00448 0.989138
1.00519 0.995805 0.988898
1.0048 0.997754 0.987731
1.00236 1.0037 0.986826
0.999968 1.00297 0.991847
1.00515 0.995287 0.9902
1.00044 1.00407 0.990335
1.00115 1.00473 0.988324
1.00512 0.996423 0.98853
1.00324 1.00124 0.987208
1.00024 0.999796 0.992513
1.00004 1.0016 0.992992
0.999958 1.00214 0.992621
1.00003 1.00231 0.992306
1.0003 1.00002 0.994064
1.00017 1.00067 0.99363
1.00009 1.00115 0.993383
1.00002 1.00178 0.992813
1.00029 1.00011 0.99399
1.00024 1.00061 0.993561
1.00002 1.00201 0.992592
1.00013 1.00106 0.993386
1.00008 1.00156 0.992963
1.00008 1.00179 0.992716
1.00012 1.00122 0.993201
1.0002 1.00096 0.993362
1.00032 1.00064 0.99341
1.00031 1.00017 0.993844
1.00024 1.00067 0.993601
1.00028 1.00017 0.993872
1.00024 0.999163 0.995002
1.00025 0.999131 0.995022
1.00015 0.997315 0.996978
1.00025 0.999069 0.995075
1.00014 0.997285 0.997239
1.00003 0.99618 0.999343
1.00011 0.99729 0.997503
1.00005 0.996193 0.998472
1.00001 0.996199 0.998505
1.00021 0.999113 0.99512
1.00021 0.99918 0.99504
1.0001 0.997386 0.997007
1.00005 0.997522 0.997168
0.999931 0.99639 0.999328
1.00002 0.997718 0.996833
0.999863 0.996594 0.999296
0.999785 0.996839 0.999258
1.00515 0.997117 0.987806
1.00514 0.997513 0.987524
1.00512 0.998155 0.986952
1.00513 0.997578 0.987464
1.00514 0.996957 0.988113
1.00517 0.995885 0.988862
1.00512 0.996367 0.988599
1.00147 1.00006 0.988529
1.00522 0.995181 0.990157
1.00014 1.00027 0.994117
1.00513 0.997509 0.987601
1.00511 0.996953 0.988141
1.00514 0.996864 0.987976
1.00011 1.00374 0.990648
1.00122 1.00501 0.98735
1.00316 1.00188 0.986544
1.00495 0.997047 0.988257
1.00088 1.00209 0.990978
0.999961 1.00177 0.992747
0.999974 1.00339 0.991151
1.00021 0.999299 0.99493
1.00013 1.00225 0.992187
1.00023 1.00058 0.993805
1.00017 1.00155 0.992798
1.00016 1.00038 0.993861
1.00514 0.996508 0.988536
1.00015 1.00027 0.994031
1.0002 1.00049 0.993777
1.0001 1.00122 0.993257
1.00512 0.996358 0.988607
1.00505 0.99632 0.988575
1.00056 1.00299 0.99057
1.00167 1.00457 0.986869
1.00437 0.998169 0.988031
1.00015 1.00149 0.99286
1.00007 1.00224 0.992344
1.00016 1.00206 0.992151
0.999749 1.00406 0.99116
0.999926 1.00312 0.991592
1.00512 0.995822 0.989171
1.00507 0.996823 0.988437
1.00505 0.996509 0.988349
1.00279 1.00153 0.988061
1.00039 1.00336 0.990579
1.00012 1.00108 0.993234
1.0001 1.00137 0.993021
1.00011 1.00175 0.992817
1.00004 1.00216 0.992387
1 1.00278 0.99192
0.999775 1.00392 0.99109
0.999688 1.00443 0.990661
1.00004 1.00197 0.992611
0.999916 1.00356 0.991126
1.00518 0.99597 0.988845
1.00521 0.995704 0.988807
1.00479 0.997674 0.987852
1.00048 1.00443 0.98907
1.00226 1.00381 0.986919
0.999942 1.00289 0.991966
1.00516 0.995251 0.990166
1.00024 1.00404 0.990386
1.00088 1.00478 0.988422
1.00511 0.996117 0.988676
1.00321 1.00127 0.987177
1.0002 0.999824 0.991097
1.00005 1.00329 0.991391
1.00486 0.995727 0.990963
1.00011 1.0044 0.990313
1.00124 1.00421 0.988152
1.00375 0.997719 0.98846
1.00156 0.995202 0.961111
0.996119 1.00071 0.979193
0.999228 1.00018 0.993756
0.999249 0.9974 0.946084
0.994974 0.998268 0.941301
0.999957 1.00215 0.992614
0.999995 1.00234 0.992359
1.00003 1.00202 0.992657
1.00029 1.0001 0.993986
1.00023 1.00059 0.993549
1.00014 1.00106 0.99338
1.00008 1.00158 0.993007
1.00003 1.00202 0.992562
1.0002 1.00095 0.993332
1.00029 1.00017 0.993894
1.00032 1.00063 0.993436
1.00007 1.0018 0.992719
1.00012 1.00123 0.993201
1.00016 1.00111 0.993186
1.00011 1.00123 0.993206
1.00031 1.0009 0.993203
1.00037 1.00069 0.993247
1.00029 1.00019 0.993833
1.00032 1.00067 0.993409
1.00027 1.00091 0.993305
1.00016 1.00075 0.993584
1.00025 1.00068 0.993547
1.00027 1.00014 0.994008
1.00028 1.00018 0.993865
1.00024 0.999166 0.995008
1.00024 0.999162 0.995002
1.00014 0.997366 0.996959
1.00024 0.999132 0.995023
1.00015 0.997319 0.996977
1.00003 0.996189 0.999335
1.00014 0.997312 0.997011
1.00005 0.996184 0.998895
1.00005 0.996158 0.998475
1.0002 0.999066 0.995173
1.00021 0.999105 0.995119
1.00012 0.9973 0.99705
1.00022 0.999179 0.995036
1.00009 0.997374 0.997232
0.999977 0.996275 0.999341
1.00006 0.997538 0.99693
0.999921 0.996443 0.999318
0.999855 0.99663 0.999287
1.00513 0.996927 0.988081
1.00513 0.997577 0.987451
1.00518 0.996112 0.988744
1.00141 0.999023 0.988661
1.00512 0.996413 0.988619
1.00522 0.99545 0.990009
1.00521 0.996329 0.989196
0.998019 0.999995 0.975888
1.00294 0.996816 0.989343
1.00015 1.00025 0.994132
1.00015 1.00025 0.994118
1.00011 1.00103 0.993412
1.0001 1.00101 0.993458
1.00514 0.996432 0.988605
1.00512 0.996288 0.988603
1.00507 0.996391 0.988511
1.00065 1.00265 0.990651
1.00141 1.00448 0.986905
1.00438 0.998549 0.98803
1.0001 1.00246 0.991828
0.999767 1.0038 0.991333
0.999965 1.00316 0.991651
1.0002 1.0005 0.993773
1.00007 1.00221 0.992316
1.00014 1.00151 0.99292
1.00016 1.00027 0.994092
1.0001 1.00122 0.993162
1.00509 0.995885 0.989184
1.00012 1.00109 0.993334
1.0001 1.00137 0.99306
1.0001 1.00173 0.99277
1.00509 0.996465 0.988494
1.00502 0.996554 0.98832
1.00046 1.00321 0.990558
1.00276 1.00176 0.987985
1.00005 1.00221 0.992381
0.999952 1.00276 0.991985
0.99972 1.00446 0.990661
0.999857 1.00401 0.990996
1.00513 0.996047 0.988983
1.0051 0.996102 0.98861
1.00394 0.999208 0.988053
1.00043 1.00384 0.990098
1.00013 1.00174 0.99263
1.00002 1.00195 0.992639
0.999954 1.00296 0.991758
0.999899 1.00458 0.990187
1.00067 0.995044 0.958309
0.999908 1.00281 0.992086
1.00004 1.004 0.990436
1.00517 0.995177 0.990129
1.00511 0.995797 0.988821
1.00317 1.00129 0.987146
1.00061 1.00483 0.98852
1.00014 0.999819 0.989662
0.999945 1.00332 0.99148
1.00483 0.995446 0.990878
1.00002 1.00432 0.990359
1.00115 1.0043 0.988133
1.00405 0.997778 0.988432
1.00179 0.995553 0.958132
0.995988 1.00041 0.975425
0.999329 1.00017 0.994004
0.998133 0.99789 0.946779
0.994829 0.998233 0.937076
0.99979 1.00322 0.992022
0.999967 0.994941 0.947748
0.99482 0.999777 0.942693
1.00412 0.995682 0.991566
0.999647 1.00492 0.990548
1.00156 1.00194 0.989357
0.998384 1.00036 0.996188
0.998664 0.998303 0.961756
0.994811 1.0005 0.975283
0.997401 0.999949 0.947875
0.994439 0.999907 0.947534
0.999949 1.00237 0.992412
0.999995 1.00207 0.992639
0.99996 1.00139 0.993563
1.00028 1.00017 0.993943
1.00032 1.00061 0.993462
1.00019 1.00095 0.993301
1.00013 1.00124 0.993201
1.00007 1.00183 0.992721
1.00029 1.0002 0.993832
1.00017 1.00112 0.99319
1.0003 1.00091 0.993228
1.00037 1.00068 0.99331
1.00012 1.00122 0.993226
1.00028 1.00096 0.993122
1.00024 1.00049 0.993713
1.00039 1.00085 0.993122
1.00037 1.00069 0.993328
1.00033 1.00067 0.993406
1.00028 1.00089 0.993289
1.00038 1.00082 0.993152
1.00016 1.00105 0.99331
1.00028 1.00092 0.993255
0.999933 1.00182 0.992906
1.0001 1.00089 0.993557
1.00016 1.00077 0.993583
1.00024 1.00013 0.994055
1.00026 1.00069 0.993493
1.00027 1.00014 0.993973
1.00023 0.999156 0.99503
1.00028 1.0002 0.993857
1.00024 0.99916 0.995009
1.0001 0.997394 0.997422
1.00024 0.999161 0.995002
1.00013 0.997359 0.997189
1.00007 0.996216 0.998412
1.00015 0.997324 0.996975
1.00003 0.996196 0.999333
1.00007 0.996188 0.998446
1.00017 1.00021 0.994123
1.0002 0.99903 0.995209
1.00021 0.999061 0.995174
1.00014 0.997235 0.997092
1.00021 0.999099 0.995118
1.00013 0.997289 0.997051
1.00001 0.996191 0.999352
1.00008 0.997382 0.997449
0.99999 0.996313 0.998885
0.999961 0.996477 0.998402
1.00119 0.998112 0.988802
1.00512 0.996476 0.988639
1.00523 0.995772 0.989862
0.997472 0.999256 0.97789
1.00277 0.997288 0.989608
1.00522 0.995776 0.989235
1.00455 0.996429 0.989686
0.998579 0.996885 0.980617
1.0002 0.995736 0.960918
0.997628 0.997718 0.948075
0.994682 0.998296 0.94074
1.00008 1.00106 0.993355
1.00015 1.00025 0.994131
1.00016 1.00024 0.994119
1.00011 1.00104 0.993381
1.00005 1.00154 0.993006
1.00013 1.00139 0.993083
1.00012 1.00099 0.993459
1.0001 1.00103 0.993417
1.00508 0.995912 0.989197
1.00513 0.996062 0.988548
1.00491 0.996612 0.988291
1.00054 1.00304 0.99054
1.00271 1.00186 0.987909
0.99975 1.00447 0.990663
0.999929 1.0041 0.990902
0.999902 1.00275 0.992049
1.0001 1.00136 0.993099
1.00006 1.00227 0.992374
1.00013 1.0011 0.993435
1.0001 1.00171 0.992724
1.00513 0.996159 0.988915
1.00011 1.00173 0.992724
1.00004 1.00196 0.992609
1.00508 0.99622 0.98853
1.00356 0.998884 0.988378
1.00056 1.00378 0.989849
1.00001 1.00295 0.991759
0.999946 1.00462 0.990183
1.00397 1.00006 0.988956
1.00452 0.996577 0.989832
1.00121 1.00119 0.989547
1.00012 1.00384 0.990588
1.00012 1.00167 0.992674
1.00009 1.0023 0.992211
0.999978 1.00345 0.991249
0.999802 0.994942 0.945495
1.00109 0.99493 0.963766
0.999845 1.00336 0.99157
0.999935 1.0043 0.990406
1.00481 0.995237 0.990796
1.00438 0.997935 0.988405
1.00107 1.00441 0.988114
1.00088 0.995092 0.95886
0.996192 1.00063 0.975935
0.999348 1.00012 0.99426
0.997702 0.997417 0.949924
0.994698 0.998197 0.932831
0.999747 1.0032 0.99203
1.00002 0.994975 0.945851
0.994794 0.999812 0.940717
1.00431 0.99603 0.991523
0.99958 1.00481 0.990605
1.00137 1.00181 0.989601
0.998711 0.999347 0.996938
0.999187 0.998794 0.95901
0.995246 1.00029 0.977926
0.996727 0.999964 0.947999
0.994599 0.999975 0.945433
0.999475 1.00312 0.992741
0.994583 1 0.945646
0.994203 1.0039 0.960073
1.00136 0.998104 0.994423
0.999319 1.00433 0.992089
0.99756 1.00176 0.997312
0.995637 0.999963 0.982436
0.995986 1.00065 0.958565
0.995905 0.999978 0.950547
0.994226 1.00016 0.955377
0.999982 1.0021 0.992621
0.999967 1.00143 0.993427
0.99971 1.00033 0.994689
1.00029 1.0002 0.993831
1.00036 1.00066 0.993374
1.00029 1.00092 0.993252
1.00018 1.00113 0.993194
1.00012 1.0012 0.993245
1.00037 1.00068 0.993328
1.00028 1.00102 0.993142
1.00039 1.00084 0.993116
1.00017 1.00049 0.993867
1.00012 0.999689 0.994848
1.00042 1.00049 0.993375
1.00043 1.00081 0.993072
1.00034 1.00067 0.993402
1.00028 1.00088 0.993272
1.00037 1.00082 0.993155
1.00016 1.00104 0.993307
1.00027 1.00091 0.993256
1.00005 1.0013 0.993221
1.00034 1.00082 0.993187
1.00015 1.00105 0.993322
1.00001 1.00242 0.992166
0.999697 1.00426 0.990814
0.999818 1.00252 0.992264
0.999926 1.00189 0.992881
1.00005 1.00112 0.993424
1.0001 1.00091 0.993551
1.0002 1.00017 0.994093
1.00016 1.00079 0.993582
1.00024 1.00014 0.994054
1.00021 0.999162 0.995061
1.00027 1.00015 0.993938
1.00023 0.99915 0.995032
1.00007 0.997428 0.997438
1.00024 0.999155 0.995009
1.00011 0.997386 0.997197
1.00005 0.996223 0.998418
1.00014 0.997348 0.99696
1.00002 0.996217 0.999329
1.00003 0.996201 0.999331
1.00019 1.00025 0.994217
1.00021 0.999029 0.995203
1.00016 1.00023 0.99412
1.00014 0.997207 0.997119
1.0002 0.999032 0.995209
1.00021 0.999055 0.995175
1.00014 0.997238 0.99709
1.00003 0.996134 0.999362
1.00011 0.997283 0.997492
1.00003 0.996204 0.998904
1.00002 0.996318 0.998438
0.999519 0.995427 0.945188
0.994993 0.999387 0.943913
0.997993 0.998353 0.979088
1.00261 0.997798 0.989868
1.00522 0.995287 0.989273
0.998191 0.996916 0.98329
1.00455 0.996704 0.9897
1.00046 0.995311 0.962011
0.99828 0.997473 0.945993
0.994636 0.998204 0.936424
0.999565 0.996993 0.987146
0.997904 0.998299 0.96402
0.997138 0.999811 0.947587
0.994586 0.999947 0.944956
1.00012 1.00154 0.992877
1.00009 1.00106 0.993378
1.00015 1.00024 0.99413
1.00011 1.00105 0.99335
1.00005 1.00149 0.993064
1.00013 1.00149 0.992954
1.00014 1.00137 0.993049
1.00015 1.00111 0.993237
1.00013 1.00099 0.993412
1.0001 1.00103 0.993375
1.00512 0.996237 0.98885
1.00504 0.996408 0.988456
1.00321 0.99856 0.988706
1.00069 1.00377 0.9896
0.999994 1.00464 0.990179
1.00006 1.00295 0.991759
1.00006 1.00199 0.992578
1.00008 1.00171 0.992817
1.00391 0.999196 0.989019
1.00013 1.0017 0.992668
1.00009 1.00227 0.99221
1.00446 0.996448 0.989621
1.00114 1.00181 0.989701
1.00024 1.00396 0.990273
1.00003 1.0034 0.99122
1.00105 1.00232 0.992064
1.00125 0.999297 0.993132
0.999972 1.0029 0.991494
1.00012 1.00185 0.992592
1.0002 1.00172 0.992465
1.00022 1.00235 0.991911
0.994447 0.999589 0.952291
0.999828 0.995337 0.947626
1.00056 0.994912 0.957805
0.999681 1.00314 0.992039
0.999524 1.00476 0.990665
1.00456 0.996285 0.991473
1.00114 1.00173 0.989842
0.999957 0.995256 0.948091
0.998389 0.998277 0.960222
0.994868 1.00014 0.975331
0.999034 0.998018 0.997612
0.997399 0.99994 0.945091
0.994811 0.999849 0.940948
0.994804 0.999946 0.945424
0.999356 1.00319 0.992764
0.994625 1.00006 0.947669
0.994319 1.00399 0.959646
1.0016 0.998029 0.994354
0.998973 1.00436 0.992101
0.997071 0.999503 1.00033
0.99543 0.99982 0.978664
0.996238 1.00053 0.962791
0.997123 0.999818 0.948308
0.994311 1.00019 0.955535
0.998683 1.00251 0.995058
0.993756 1.00317 0.967619
0.993561 1.00524 0.972254
0.997161 1.00164 0.997967
0.995994 1.00051 0.987986
0.995538 0.99998 0.962754
0.995123 0.999968 0.950575
0.994628 1.00013 0.95399
0.999965 1.00153 0.993293
0.999809 1.00029 0.994739
0.99932 0.999625 0.995962
1.00037 1.00068 0.993327
1.00039 1.00084 0.99311
1.00028 1.00106 0.993161
1.0001 1.00046 0.99402
1.00043 1.00082 0.993075
1.00041 1.00053 0.993344
1.00013 0.999475 0.994968
0.999656 0.999131 0.996124
1.00036 0.999575 0.994421
1.0004 1.00066 0.993193
1.00037 1.00082 0.993158
1.00016 1.00103 0.993303
1.00027 1.0009 0.993258
1.00033 1.00083 0.99319
1.00004 1.00134 0.993208
1.00017 1.00104 0.993317
1.00007 1.00142 0.993144
1.00017 1.00083 0.993504
0.999947 1.0024 0.992338
1.00003 1.00239 0.992229
0.999712 1.00388 0.991215
1.00019 1.00462 0.989724
0.999902 1.00331 0.991671
0.99966 1.00414 0.991038
0.999834 1.00255 0.992386
0.999982 1.00159 0.992963
0.999918 1.00197 0.992855
1.00005 1.00115 0.993413
1.00016 1.00027 0.994071
1.00011 1.00093 0.993544
1.0002 1.00018 0.99409
1.00017 0.999223 0.995079
1.00025 1.00014 0.994053
1.00022 0.999157 0.995062
1.00003 0.997481 0.997458
1.00023 0.999144 0.995033
1.00008 0.997423 0.997216
1.00001 0.996287 0.998432
1.00013 0.997371 0.996969
1.00003 0.996237 0.998872
1.00002 0.996225 0.999329
1.0002 1.00031 0.994002
1.0002 0.999081 0.995161
1.00018 1.00025 0.9941
1.00013 0.997229 0.997114
1.00021 0.999034 0.995205
1.00015 1.00024 0.994117
1.00003 0.996117 0.999367
1.00014 0.997207 0.997119
1.0002 0.999032 0.995209
1.00014 0.99724 0.997089
1.00002 0.996142 0.999359
1.00001 0.996202 0.999348
0.994623 0.999431 0.950278
0.99976 0.995246 0.946345
0.994396 1.00438 0.959051
0.994924 0.999645 0.942444
0.999014 0.996855 0.979017
1.00454 0.997123 0.989689
1.00038 0.995209 0.963075
0.999036 0.998224 0.948992
0.994599 0.998134 0.932087
0.999075 0.997671 0.985472
0.998797 0.997836 0.95843
0.996885 0.999812 0.947518
0.994541 0.99986 0.942772
0.995808 0.999514 0.984157
0.997659 1.00019 0.958566
0.995486 0.999738 0.947052
0.99443 0.999999 0.951466
1.00015 1.00178 0.992636
1.00012 1.00154 0.992921
1.00009 1.00108 0.993402
1.00006 1.00145 0.993121
1.00016 1.00164 0.992669
1.00013 1.00148 0.992985
1.00014 1.00137 0.993016
1.00021 1.00111 0.993219
1.00017 1.0011 0.993297
1.00014 1.00098 0.993365
1.00378 0.998378 0.989091
1.00443 0.996292 0.989412
1.00107 1.0024 0.989853
1.00035 1.00406 0.989961
1.00008 1.00337 0.991191
1.00009 1.00222 0.992209
1.00014 1.00173 0.992663
1.00013 1.00184 0.992583
1.00111 1.00118 0.992338
1.0002 1.00179 0.992495
1.00023 1.00235 0.991863
1.00136 0.999433 0.99274
1.00024 1.00279 0.991445
0.99887 1.00063 0.995983
0.999385 0.99962 0.996859
1.00029 1.00142 0.992348
1.00026 1.00168 0.992485
1.00029 1.00188 0.992221
0.993332 1.00255 0.972473
0.994478 1.00009 0.952099
0.999778 0.995798 0.945188
0.999249 1.00318 0.992783
0.998692 1.00448 0.992107
1.00167 0.998039 0.99431
0.994656 1.00001 0.949611
0.997362 1.00072 0.958691
0.994922 0.999694 0.980485
0.996727 0.998338 1.00355
0.995701 0.999984 0.950213
0.994414 1.0041 0.95924
0.994274 1.00013 0.955851
0.998565 1.00257 0.995044
0.993723 1.00286 0.969757
0.993517 1.00531 0.972209
0.997123 1.00232 0.998218
0.995473 1.00041 0.988182
0.996096 0.999861 0.95846
0.994488 1.00007 0.955945
0.994928 0.99986 0.95184
0.997064 1.0024 0.997904
0.993251 1.00459 0.986113
0.993553 1.00565 0.973795
0.994429 1.00003 0.951548
0.995026 1.00174 0.99666
0.995944 0.99904 0.964384
0.994676 0.999984 0.952744
0.99993 1.00022 0.994785
0.999487 0.999801 0.995672
0.99905 0.999123 0.997294
1.00042 1.00082 0.993078
1.0004 1.00059 0.993313
1.00015 0.999243 0.995091
1.0004 1.0007 0.993181
1.00037 0.999496 0.994428
0.999922 0.99908 0.995724
0.999536 0.99858 0.99695
1.00032 1.00024 0.993814
1.00033 1.00084 0.993194
1.00004 1.00138 0.993194
1.00018 1.00102 0.993312
1.00018 1.00084 0.993479
1.00008 1.00133 0.993206
0.999565 1.00186 0.99354
0.999813 1.00254 0.992405
0.99997 1.00397 0.990669
1.00005 1.00236 0.992291
0.99987 1.00379 0.991186
1.00011 1.00492 0.989295
1.00019 1.00477 0.989447
0.999955 1.00374 0.991051
1.00013 1.00456 0.989791
0.99999 1.00229 0.992414
0.999899 1.00336 0.991565
0.999621 1.00402 0.991262
0.99985 1.00258 0.992508
0.999991 1.00155 0.99306
1.00012 1.0005 0.993906
1.00006 1.00116 0.993403
1.00016 1.00028 0.994066
1.00012 0.99933 0.995066
1.00021 1.00018 0.994087
1.00018 0.999209 0.995081
0.999963 0.99758 0.997469
1.00022 0.999149 0.995063
1.00004 0.997483 0.997238
0.99995 0.996375 0.998446
1.0001 0.997408 0.99699
0.999988 0.996297 0.99888
0.999995 0.996266 0.999331
1.00024 1.00042 0.993682
1.00019 0.999198 0.994906
1.00021 1.00031 0.994
1.00011 0.99731 0.997071
1.0002 0.999092 0.995076
1.00017 1.00025 0.993983
1.00002 0.996148 0.999363
1.00013 0.997226 0.997115
1.00021 0.999038 0.995206
1.00003 0.996118 0.999366
1.00014 0.997208 0.997118
1.00002 0.996152 0.999356
0.993334 1.00307 0.970764
0.994618 0.999202 0.95029
0.99968 0.995129 0.947022
1.00026 1.00104 0.99314
0.993381 1.00516 0.973462
0.99442 1.00439 0.958668
0.994933 0.999801 0.943092
0.999028 0.998461 0.983787
0.998283 0.998879 0.964026
0.997192 0.999768 0.944687
0.994531 0.999825 0.942782
0.995756 0.999782 0.979735
0.99648 1.00012 0.962818
0.997191 0.999863 0.948889
0.994497 0.999983 0.950651
0.995554 1.00012 0.975703
0.99531 1.00007 0.960495
0.994846 0.99986 0.952179
0.994565 1.00007 0.954048
1.0002 1.0018 0.992494
1.00014 1.00178 0.992624
1.00011 1.00153 0.992964
1.00019 1.00153 0.992759
1.00016 1.00164 0.992742
1.00013 1.00146 0.993015
1.00022 1.00112 0.993224
1.00017 1.00109 0.993356
1.00115 0.999968 0.992594
1.00147 0.999593 0.992342
1.00013 1.00184 0.992573
1.00049 1.00279 0.991393
1.00025 1.00231 0.991814
1.00018 1.00185 0.992525
1.00025 1.00172 0.992509
0.998974 1.00023 0.996357
1.00025 1.00189 0.992302
1.00046 1.00138 0.992396
0.999486 0.998791 0.996825
1.00028 1.0016 0.992652
0.997376 0.999601 0.998428
0.998495 1.00051 0.997796
1.00032 1.00096 0.99281
1.00027 1.00134 0.99283
0.993461 1.00394 0.98884
0.993213 1.003 0.972922
0.994505 1.00052 0.951919
0.998407 1.00256 0.995043
0.997151 1.00232 0.998423
0.993689 1.00259 0.971871
0.995595 1.00006 0.963694
0.995055 0.999435 0.984344
0.99519 0.99988 0.951466
0.993457 1.00537 0.972176
0.994383 1.00001 0.957898
0.997339 1.00237 0.997431
0.993075 1.00459 0.986278
0.993546 1.00572 0.976704
0.995244 1.00305 0.999411
0.994503 1.00001 0.950641
0.995224 0.999067 0.961926
0.994898 0.999871 0.952683
0.996861 1.00187 0.999184
0.994849 1.00413 0.987795
0.993374 1.0053 0.973399
0.994604 0.999998 0.945037
0.995213 0.999826 0.951456
0.99588 0.999118 0.993587
0.995969 1.00016 0.957099
0.99958 0.99995 0.995388
0.998993 0.999508 0.997076
0.997823 0.99836 1.00098
1.0004 1.00075 0.99317
1.00038 0.999414 0.994434
1.00014 0.999138 0.995324
1.00028 1.00037 0.993777
0.999616 0.99815 0.996998
0.999049 1.00182 0.994446
1.00019 1.00086 0.993453
1.0001 1.00125 0.993269
0.999745 1.00198 0.993316
0.999318 1.00417 0.991535
0.999672 1.00268 0.992469
0.999803 1.00382 0.990943
1.00031 1.005 0.9891
1.00108 1.00478 0.987865
1.00003 1.0037 0.991156
1.00024 1.00492 0.989154
1.00044 1.00452 0.989602
0.999819 1.00432 0.990449
1.00022 1.00462 0.989582
0.99997 1.00281 0.991927
0.999997 1.00371 0.991033
1.00007 1.00449 0.989859
1.00009 1.00095 0.993516
0.999977 1.00225 0.992391
0.999895 1.0034 0.991459
0.999999 1.00151 0.993157
1.00012 1.00053 0.993893
1.00006 0.999508 0.994998
1.00015 1.0003 0.994061
1.00013 0.99932 0.995067
0.99991 0.997738 0.997007
1.00018 0.999195 0.995083
0.999986 0.997583 0.997027
0.999831 0.996488 0.999347
1.00005 0.99747 0.997014
0.999935 0.99638 0.998889
0.999955 0.996327 0.999335
1.00029 1.00041 0.993621
1.00019 0.999342 0.994748
1.00025 1.00041 0.993754
1.00008 0.997439 0.996996
1.0002 0.999209 0.994887
1.00022 1.00032 0.993998
0.99999 0.996228 0.99935
1.00011 0.997304 0.997074
1.0002 0.999103 0.994992
1.00002 0.99614 0.999364
1.00013 0.997224 0.997116
1.00003 0.996118 0.999365
0.993551 1.00382 0.985829
0.993369 1.00345 0.970598
0.994656 0.999245 0.950234
1.00024 1.00107 0.993155
1.00024 1.00109 0.993078
1.00017 1.00149 0.992891
0.993579 1.00544 0.974014
0.993434 1.00497 0.973427
0.994452 1.00456 0.958274
0.995125 1.00053 0.982688
0.996604 1.00009 0.958176
0.995328 0.999892 0.95052
0.994486 0.999937 0.949954
0.99555 1.0001 0.978754
0.996346 1.00005 0.960262
0.995291 0.999925 0.952861
0.994471 1.00005 0.955986
0.995293 1.00001 0.975446
0.995723 1.00005 0.962115
0.994594 0.999963 0.95328
0.994262 1.00012 0.955098
1.00025 1.00164 0.99256
1.0002 1.00181 0.992475
1.00013 1.00179 0.992611
1.0002 1.00153 0.992753
1.00016 1.00164 0.992816
1.00022 1.00113 0.993228
0.999159 0.999925 0.996725
0.999404 0.998182 0.996795
1.00023 1.00179 0.992534
1.00064 1.00118 0.992443
1.00022 1.00193 0.992385
1.00031 1.00154 0.992565
1.00025 1.00134 0.99291
0.997414 1.00001 0.998658
1.00029 1.00092 0.99313
0.998308 0.999968 0.998504
1.00022 1.00119 0.993156
0.996097 0.999052 0.999456
0.998062 1.0009 0.998988
1.00007 1.00053 0.994044
0.995792 1.00349 0.991165
0.993559 1.00384 0.98957
0.993112 1.00348 0.973363
0.997636 1.00258 0.99694
0.996025 1.00214 0.997567
0.992909 1.00455 0.986442
0.995582 0.999243 0.967816
0.994693 0.999952 0.952088
0.993574 1.00581 0.979614
0.994486 0.99991 0.950099
0.996752 1.00209 0.999319
0.994797 1.00442 0.988596
0.99343 1.00511 0.973362
0.9952 0.999996 0.988973
0.994547 0.999946 0.942976
0.995531 0.99989 0.951838
0.995482 1.00015 0.962569
0.995851 1.00137 1.00164
0.993553 1.00392 0.985721
0.99427 1.00447 0.959386
0.994757 0.99824 0.940995
0.995536 0.999911 0.946646
0.995398 1.00006 0.962172
0.995698 0.998941 0.985236
0.998946 0.999993 0.996887
0.997786 0.998143 1.00086
0.998128 1.00019 0.998545
1.00024 1.00049 0.99374
0.999711 0.997686 0.997048
0.99888 1.0019 0.994722
0.998777 1.00385 0.99307
0.99993 1.00211 0.993093
0.999727 1.00418 0.991193
1.00041 1.00506 0.988878
0.999622 1.0037 0.991218
1.00035 1.00499 0.989016
1.00149 1.005 0.987225
1.00212 1.00456 0.986367
1.00078 1.00428 0.988686
1.00106 1.00484 0.987805
1.00035 1.00491 0.989013
1.00038 1.00398 0.990167
1.0003 1.00438 0.989804
0.999895 1.00359 0.991123
0.999889 1.00426 0.990569
1.00025 1.00449 0.989717
1.00007 1.00159 0.992913
0.999991 1.00277 0.991935
1.00004 1.00369 0.991015
1 0.999796 0.994806
1.00009 1.00097 0.993506
0.999965 1.00223 0.992369
1.00012 1.00056 0.993881
1.00006 0.999506 0.994994
0.999823 0.997949 0.996953
1.00013 0.999311 0.995068
0.999914 0.99774 0.997006
0.999769 0.996654 0.999335
0.999992 0.997577 0.997025
0.999859 0.99651 0.998895
0.999899 0.996414 0.999339
1.0003 1.00044 0.993651
1.0002 0.999435 0.994788
1.00028 1.00042 0.993655
1.00004 0.997595 0.996913
1.0002 0.999348 0.994813
1.00026 1.00041 0.993825
0.999951 0.996349 0.999331
1.00008 0.997431 0.997001
1.0002 0.99922 0.994867
0.999994 0.996211 0.999354
1.00011 0.997299 0.997076
1.00002 0.996131 0.999366
0.994868 1.00381 0.988053
0.993431 1.00385 0.986006
0.993403 1.00358 0.970491
1.00022 1.00117 0.993018
1.00011 1.0018 0.992706
1.00023 1.00109 0.993169
1.00024 1.0011 0.993073
1.00018 1.00148 0.992854
1.00015 1.00157 0.992848
1.00015 1.00168 0.992714
0.993638 1.00503 0.972175
0.99352 1.00547 0.97696
0.993484 1.00471 0.973392
0.994384 1.00003 0.957925
0.99483 1.00004 0.976263
0.995824 1.00009 0.960734
0.994705 0.999959 0.952941
0.995703 1.00002 0.974665
0.995386 1.00006 0.958759
0.99472 0.999876 0.953905
0.994342 1.00014 0.955361
0.995861 0.997838 0.979465
0.99512 1.0001 0.958426
0.995334 0.99994 0.950977
0.994453 0.999865 0.94703
1.00018 1.0014 0.992982
1.00025 1.00159 0.992562
1.0002 1.0018 0.992455
1.0002 1.00154 0.992748
0.997522 1.00047 0.998867
0.998204 0.999339 0.999194
1.00034 1.00147 0.992478
1.00021 1.00132 0.992991
1.00018 1.00094 0.993449
1.00021 1.0012 0.993085
0.999969 1.00058 0.994
0.995847 0.999955 0.99773
0.997611 1.00101 0.999261
0.999781 1.00101 0.993911
0.995914 0.998811 0.997781
0.998198 1.00126 0.998172
0.993483 1.00408 0.988738
0.996443 1.00306 0.990901
0.993701 1.00378 0.990301
0.996654 1.00218 0.99942
0.99575 0.999376 0.99431
0.994747 1.00463 0.989397
0.996104 1.00016 0.957597
0.994796 0.999991 0.952002
0.993486 1.00485 0.97332
0.994538 0.999853 0.942916
0.995784 1.00116 1.00181
0.993431 1.0041 0.985871
0.994311 1.0044 0.959007
0.995041 0.998819 0.989475
0.994715 0.998206 0.936735
0.997284 0.999924 0.948333
0.995471 1.00009 0.959383
0.996203 1.00124 0.999544
0.993318 1.00317 0.970876
0.994917 0.999435 0.94443
0.997316 0.999895 0.947484
0.995464 1.00053 0.962462
0.994859 0.999556 0.979451
0.997786 0.997877 1.00067
0.997862 1.00072 0.998517
0.999781 0.998833 0.997327
0.998691 1.002 0.994998
0.998364 1.00395 0.993357
1.00078 1.00302 0.989977
1.00015 1.00417 0.990849
1.00062 1.00498 0.988663
1.0019 1.00363 0.987309
1.0004 1.00495 0.988933
1.0015 1.00501 0.9871
1.00263 1.00337 0.986162
1.00326 1.00251 0.986136
1.00192 1.00443 0.98705
1.00218 1.00448 0.986166
1.00071 1.00356 0.989467
1.00077 1.00427 0.988839
1.00106 1.0049 0.987745
1.00036 1.00364 0.990418
1.00033 1.00406 0.990122
1.00017 1.00423 0.990007
1.00009 1.0023 0.992145
0.999926 1.00348 0.991254
0.999962 1.00418 0.990688
0.999965 1.00028 0.99439
1.00008 1.00157 0.992913
1.00001 1.00273 0.991943
0.999747 0.998183 0.99687
1 0.999813 0.994796
1.00009 1.00098 0.993495
1.00007 0.999505 0.994991
0.99983 0.997955 0.99695
0.999676 0.996855 0.999322
0.999918 0.997744 0.997005
0.999756 0.996686 0.999332
0.999828 0.996542 0.999338
1.00022 1.00127 0.99299
1.0003 1.00049 0.993597
1.00019 0.999531 0.994713
1.0003 1.00044 0.993649
0.999993 0.997756 0.996839
1.0002 0.999452 0.994785
1.00027 1.00043 0.993689
0.9999 0.996494 0.999311
1.00004 0.997587 0.996918
1.0002 0.999353 0.994878
0.999956 0.996326 0.999337
1.00008 0.997424 0.997005
0.999998 0.996193 0.999359
0.993261 1.0044 0.986221
0.994795 1.00411 0.988837
0.993274 1.00403 0.986184
1.00023 1.00116 0.99305
1.00011 1.00181 0.992661
1.00008 1.00211 0.992336
1.00009 1.00172 0.992704
1.00005 1.00225 0.992398
1.00024 1.0011 0.993068
1.00017 1.00146 0.992817
1.00013 1.00158 0.992849
1.00018 1.00168 0.992659
1.00006 1.00181 0.992798
0.994231 1.00413 0.959515
0.993577 1.00508 0.972133
0.993519 1.00549 0.979904
0.994346 1.00011 0.95568
0.994616 0.999942 0.952781
0.995187 1.00002 0.973248
0.994955 1.00004 0.96161
0.995692 0.998014 0.975296
0.995636 1.00006 0.96179
0.994779 0.9999 0.952522
0.994607 0.9999 0.944894
0.996026 0.995241 0.980099
0.995345 1.00004 0.962657
0.996124 0.999913 0.950059
0.994911 0.998171 0.940654
0.999679 1.00104 0.994145
1.00014 1.00147 0.992969
1.00025 1.00156 0.992564
0.995635 1.0008 0.99603
0.997408 1.00096 0.999537
1.00022 1.0012 0.993014
0.999943 1.00069 0.993956
0.999776 1.00101 0.993932
0.998193 1.00089 0.997989
0.995548 0.998716 0.997951
0.998377 1.00141 0.996298
0.995859 1.0006 0.997032
0.993433 1.00318 0.971481
0.9936 1.00393 0.989515
0.996985 1.00267 0.990637
0.995669 1.00101 1.00203
0.995098 0.998558 0.983161
0.99328 1.00439 0.986022
0.996098 1.00007 0.958779
0.995499 0.999947 0.949893
0.994343 1.00451 0.958623
0.994671 0.99817 0.932453
0.99616 1.00085 0.999734
0.99336 1.00356 0.970706
0.994879 0.999624 0.94294
0.994914 0.999483 0.981195
0.996902 0.999905 0.947434
0.995988 1.00001 0.959313
0.99789 0.999372 0.995383
0.994563 0.999603 0.950681
0.997488 0.997611 0.948065
0.997759 1.00096 0.958146
0.994844 0.999809 0.981005
0.997627 1.00114 0.99848
0.999588 0.99886 0.997384
1.00207 0.999011 0.992663
0.997983 1.004 0.993639
1.00033 1.00322 0.990346
1.00282 0.999849 0.988736
1.00083 1.00494 0.988446
1.00191 1.00357 0.987368
1.00352 1.00048 0.987466
1.0015 1.00501 0.986974
1.0027 1.0033 0.986214
1.00411 0.999973 0.986646
1.00418 0.99986 0.987013
1.0026 1.00337 0.986383
1.00319 1.00242 0.986176
1.00156 1.00374 0.988178
1.00181 1.00446 0.986877
1.00224 1.00442 0.985965
1.00075 1.00309 0.990162
1.0007 1.00352 0.989637
1.00076 1.00425 0.988993
1.00031 1.00267 0.99139
1.00031 1.00364 0.990482
1.00029 1.00413 0.990077
0.999966 1.00098 0.993694
1.00012 1.00227 0.992145
0.999954 1.00338 0.991385
0.999648 0.998524 0.997158
0.999958 1.0003 0.994376
1.00009 1.00155 0.992914
0.999598 0.997125 0.998345
0.999745 0.998218 0.99708
0.999999 0.999828 0.994787
0.999837 0.997961 0.996946
0.999663 0.9969 0.999316
0.999744 0.996722 0.999328
1.00018 1.0016 0.992676
1.00029 1.00064 0.993462
1.00021 1.00131 0.992954
1.00015 0.999654 0.994666
1.00029 1.00051 0.993599
0.999935 0.997922 0.99678
1.00019 0.999557 0.99471
1.0003 1.00045 0.993648
0.99984 0.996655 0.999293
0.99999 0.997755 0.996843
1.0002 0.999476 0.994782
0.999906 0.996469 0.999317
1.00004 0.997581 0.996923
0.999962 0.996301 0.999343
0.993753 1.00307 0.972201
0.993105 1.00437 0.98639
0.994733 1.00432 0.989621
1.00004 1.00246 0.992169
1.00022 1.00118 0.993083
1.00012 1.00182 0.992617
1.0001 1.00174 0.99274
1.00012 1.00206 0.992385
1.00005 1.00221 0.992372
1.00005 1.00254 0.99205
0.999959 1.00226 0.99236
1.00011 1.00159 0.99285
1.0002 1.00168 0.992605
1.00004 1.00185 0.992765
0.999917 1.00222 0.992993
0.994789 0.999788 0.942305
0.994375 1.00422 0.95907
0.993477 1.00514 0.972096
0.994799 0.999914 0.944952
0.995272 0.999903 0.952562
0.995123 1.00009 0.95857
0.995902 0.998163 0.974679
0.996338 0.995122 0.982092
0.99475 0.998153 0.936519
0.995213 1.00008 0.959302
0.996956 0.999889 0.947859
0.995507 0.997203 0.983726
0.996055 1.00006 0.963769
0.997349 0.999846 0.946639
0.999248 1.00057 0.995376
0.999806 1.00099 0.994136
1.0001 1.00155 0.992957
0.995107 0.998558 0.998057
0.998191 1.00037 0.997815
0.999743 1.001 0.993952
0.99888 1.00127 0.996106
0.995751 1.0006 0.997244
0.997753 1.00086 0.995324
0.99454 1.0001 0.946721
0.993258 1.00319 0.975069
0.993759 1.0038 0.990293
0.996074 1.00073 0.999972
0.99484 0.999595 0.982381
0.993404 1.00378 0.970589
0.99564 1.00002 0.960612
0.997295 0.999887 0.944754
0.994893 0.999702 0.943581
0.997722 0.999599 0.995483
0.994579 0.999269 0.950682
0.998179 0.997741 0.946227
0.994982 0.999795 0.976828
0.9963 1.00063 0.962227
0.998775 0.999324 0.995679
0.999648 0.995387 0.945344
0.997645 1.00024 0.962157
0.995072 1.00043 0.975318
0.999329 0.99894 0.997462
1.0016 0.998701 0.993416
1.00374 0.996988 0.990887
0.999872 1.00351 0.990716
1.00284 1.00011 0.988682
1.00445 0.996745 0.989203
1.00191 1.00348 0.987427
1.00345 1.00047 0.987522
1.00473 0.997399 0.988243
1.00276 1.00322 0.986266
1.0042 0.999984 0.986639
1.00481 0.997567 0.987758
1.00453 0.998231 0.98804
1.00358 1.00113 0.986902
1.00413 0.999809 0.987069
1.00215 1.00301 0.987315
1.00259 1.00329 0.986527
1.00313 1.00233 0.986215
1.00116 1.00305 0.98945
1.00141 1.00376 0.988193
1.00171 1.00449 0.986703
1.00065 1.00257 0.990895
1.00079 1.00309 0.990147
1.00068 1.00347 0.989807
1.00006 1.00164 0.992872
1.00033 1.00266 0.9914
1.00026 1.00364 0.990546
0.999603 0.998929 0.996355
0.999977 1.00096 0.993679
1.00015 1.00224 0.992146
0.999456 0.997408 0.999271
0.999662 0.998573 0.996647
0.999953 1.00032 0.994362
0.999572 0.997122 0.999294
0.999755 0.998233 0.996836
0.999651 0.996944 0.999309
1.00012 1.002 0.992471
1.0002 1.00158 0.992675
1.00025 1.00096 0.99321
1.0001 0.999799 0.994618
1.00028 1.00065 0.993468
1.0002 1.00132 0.992918
0.999872 0.998084 0.99674
1.00015 0.99966 0.994666
1.00029 1.0005 0.9936
0.999771 0.996824 0.999277
0.999931 0.997922 0.996782
1.00018 0.999575 0.994707
0.999846 0.996631 0.999298
0.999986 0.997753 0.996846
0.999913 0.996443 0.999323
0.994576 1.00011 0.945686
0.99373 1.00308 0.972048
0.992951 1.00432 0.986557
1.00002 1.00252 0.992121
1.00006 1.00293 0.991733
0.999968 1.00285 0.991879
1.00012 1.00174 0.992777
1.00014 1.00201 0.992433
1.00002 1.00219 0.992346
0.999989 1.00228 0.992336
1.00002 1.00255 0.992023
0.999846 1.00335 0.991691
1.00008 1.00158 0.992859
1.00003 1.00188 0.992733
0.999862 1.00205 0.992999
0.999075 0.997686 0.945171
0.994751 0.999891 0.94036
0.994491 1.00429 0.958661
0.994622 0.998134 0.932362
0.995718 0.999878 0.94958
0.996003 1.00006 0.961999
0.996023 0.995105 0.979352
0.995249 0.997298 0.981189
0.996898 0.999416 0.946972
0.995935 1.00005 0.960202
0.99618 0.997204 0.981636
0.997259 1.00094 0.957627
1.00101 1.0003 0.993105
0.999427 1.00045 0.995241
0.999911 1.00093 0.99413
0.995566 1.00075 0.997441
0.999242 1.00119 0.995904
0.998376 1.00121 0.994726
1.00119 0.999909 0.990248
0.999926 0.995053 0.94522
0.994536 1.00052 0.949235
0.993112 1.00318 0.978624
0.997595 0.999618 0.995637
0.994874 0.999775 0.977728
0.994605 0.999205 0.950645
0.996322 1.00094 0.957695
0.999029 0.999313 0.948939
0.998722 0.999541 0.994557
0.999803 0.995656 0.946426
0.999061 0.999081 0.957313
0.995137 1.00024 0.97809
0.999478 0.998941 0.995353
1.00015 0.997226 0.959494
0.996051 1.00065 0.980705
1.00113 0.998331 0.994167
1.00361 0.996743 0.990848
1.00494 0.994839 0.990131
1.00287 1.0003 0.988628
1.00437 0.996737 0.989193
1.00493 0.995387 0.989689
1.00337 1.00043 0.987578
1.00469 0.997447 0.988188
1.00513 0.996094 0.988717
1.00429 1 0.986632
1.00488 0.997605 0.98773
1.00496 0.996893 0.988237
1.00465 0.997823 0.988212
1.00445 0.998149 0.98812
1.00404 0.99931 0.987832
1.0032 1.00146 0.987264
1.00357 1.00116 0.986901
1.00405 0.999746 0.987125
1.00182 1.00269 0.988332
1.00218 1.00304 0.987465
1.00258 1.00322 0.986671
1.00095 1.00249 0.990384
1.00118 1.00306 0.989427
1.00128 1.00377 0.988207
1.00023 1.0019 0.992264
1.00068 1.00254 0.990897
1.00082 1.00309 0.990132
0.999602 0.999406 0.995846
1.00009 1.00157 0.992871
1.00037 1.00264 0.99141
0.999422 0.997676 0.999203
0.999605 0.998982 0.996326
0.99999 1.00094 0.993664
0.999484 0.997439 0.998766
0.999672 0.998587 0.996637
0.999559 0.997202 0.999279
1.00013 1.00246 0.99197
1.0001 1.00206 0.992429
1.00016 1.00145 0.992895
1.00022 1.00158 0.992675
1.00025 1.00096 0.993212
1.00002 1.00007 0.994479
0.999807 0.998237 0.996714
1.0001 0.999793 0.994623
1.00026 1.00067 0.993473
0.999693 0.996992 0.999265
0.999868 0.99808 0.996741
1.00015 0.999665 0.994666
0.999778 0.996802 0.999282
0.999926 0.997924 0.996784
0.999853 0.996604 0.999304
0.999819 0.995649 0.94742
0.99466 1.0004 0.945104
0.993705 1.00312 0.971892
0.999996 1.0026 0.992073
0.99996 1.00296 0.991772
0.999991 1.0029 0.991809
1.00023 1.00318 0.991169
0.999887 1.00342 0.991476
1.00001 1.0023 0.992312
1.00002 1.00256 0.991995
0.999807 1.00322 0.991717
0.99969 1.00385 0.990966
1.00014 1.0025 0.991809
1.00219 1.00092 0.989915
0.999857 1.00188 0.992982
0.999855 1.00187 0.993005
0.999631 0.998749 0.958404
0.998189 0.997758 0.946026
0.99477 0.999857 0.940538
0.99735 0.9999 0.944172
0.995903 1.00067 0.959576
0.995425 0.997339 0.984609
0.996041 0.997328 0.983808
0.997036 0.999748 0.962767
0.99847 0.999496 0.978572
1.00344 0.998664 0.989739
1.00065 1.0001 0.993106
0.999577 1.00033 0.995104
0.998729 1.00146 0.994166
1.00197 1.00063 0.989121
1.00071 0.995682 0.957393
0.999975 0.995425 0.947577
0.994544 1.00093 0.95178
0.998628 0.999764 0.993413
0.994819 1.0007 0.975431
0.999625 0.995081 0.946956
0.99807 1.00047 0.96238
0.999415 0.999383 0.995504
1.00119 0.995874 0.960383
0.995966 1.00077 0.977237
1.00092 1.00167 0.99259
1.00017 0.99729 0.98467
1.00351 0.996526 0.99081
1.00492 0.995006 0.989899
1.00501 0.99505 0.98976
1.00428 0.996767 0.98918
1.00481 0.995571 0.989671
1.00519 0.995188 0.989478
1.00465 0.997515 0.988133
1.00514 0.996089 0.988679
1.00509 0.996338 0.98861
1.00493 0.997645 0.987702
1.00496 0.997002 0.988195
1.0049 0.997361 0.988023
1.00456 0.997713 0.98835
1.00442 0.998524 0.987884
1.00441 0.99809 0.988201
1.00405 0.999275 0.987816
1.00375 1.00008 0.987612
1.00272 1.00162 0.987786
1.00319 1.00152 0.987229
1.00357 1.00118 0.986901
1.00143 1.00235 0.989635
1.00179 1.00271 0.988443
1.00219 1.00307 0.987615
1.00042 1.00194 0.991834
1.00099 1.00249 0.990364
1.00121 1.00307 0.989404
0.999651 0.999925 0.995229
1.00026 1.00187 0.992273
1.00071 1.00253 0.990899
0.999415 0.99798 0.999102
0.999594 0.999483 0.99582
1.00011 1.00152 0.99287
0.999438 0.997732 0.999175
0.999604 0.999039 0.996297
0.999486 0.99749 0.99923
1.00035 1.00278 0.991296
1.00013 1.00244 0.991972
1.00016 1.00196 0.992341
1.00009 1.00209 0.992388
1.00015 1.00153 0.992821
0.999968 1.00055 0.994083
1.00024 1.00095 0.993214
1.00003 1.00004 0.994487
0.999724 0.998454 0.996656
0.999606 0.997167 0.999257
0.9998 0.998237 0.996716
1.0001 0.999787 0.994628
0.999703 0.996971 0.999269
0.999864 0.998078 0.996742
0.999785 0.996779 0.999286
1.00148 0.995766 0.96077
0.999668 0.995736 0.946102
0.994734 1.00074 0.944367
0.999944 1.00306 0.991665
0.999924 1.00288 0.991885
0.999898 1.00342 0.991514
1.0002 1.00315 0.9912
1.00037 1.00382 0.990251
0.999868 1.00366 0.991108
0.999769 1.00307 0.991743
0.999904 1.00396 0.990685
1.00004 1.00281 0.991653
1.00054 1.00305 0.989966
1.00271 1.00109 0.989735
1.00377 0.999592 0.9876
1.00194 1.00088 0.990108
0.999636 1.00223 0.993103
0.997996 0.999702 0.977106
0.999633 0.998861 0.958728
0.998236 0.998058 0.948694
0.998523 1.00074 0.957582
0.996195 0.997473 0.985677
0.998872 0.999015 0.982929
1.0026 0.99819 0.990737
1.00341 0.998475 0.990128
1.00053 0.999886 0.993104
1.00329 1.00154 0.987962
0.999165 0.997827 0.978941
1.00127 0.995315 0.962764
0.999893 0.995905 0.945181
0.999389 0.999765 0.995618
0.995735 1.00106 0.979433
1.00075 0.995449 0.961451
1.00081 1.0008 0.992747
0.999538 0.997767 0.983204
1.00359 1.00039 0.989773
1.00457 0.996472 0.989318
1.00488 0.995203 0.989666
1.00501 0.995199 0.989699
1.00518 0.995299 0.989589
1.00468 0.995728 0.989654
1.0052 0.995196 0.989468
1.00513 0.995925 0.988997
1.00516 0.996057 0.98864
1.00508 0.996387 0.988588
1.00502 0.997151 0.988031
1.00499 0.997099 0.988153
1.00485 0.997368 0.988069
1.00473 0.998095 0.987603
1.00447 0.997594 0.988486
1.00442 0.998387 0.987958
1.00422 0.99937 0.987533
1.00407 0.999229 0.9878
1.00376 1.00009 0.987587
1.00341 1.00057 0.987844
1.00212 1.00161 0.988848
1.00267 1.00168 0.987886
1.00317 1.00157 0.987195
1.00075 1.0019 0.991285
1.00146 1.00233 0.989628
1.00177 1.00273 0.988554
0.99969 1.00044 0.994645
1.00045 1.00196 0.991831
1.00103 1.00248 0.990345
0.999436 0.9983 0.998952
0.999665 0.999947 0.995218
1.00029 1.00182 0.992282
0.999437 0.998032 0.999056
0.999591 0.999547 0.995793
0.999454 0.997782 0.999145
1.00053 1.00325 0.990498
1.00036 1.00275 0.991337
1.00032 1.00231 0.991776
1.00012 1.00243 0.991974
1.00016 1.00202 0.992269
0.999999 1.00111 0.993463
1.00014 1.0016 0.992747
0.999973 1.00054 0.994091
0.999641 0.998782 0.996478
1.00005 1.00001 0.994495
0.999721 0.998436 0.996663
0.99952 0.997384 0.99924
0.99962 0.997145 0.99926
0.999794 0.998235 0.996718
0.999712 0.996953 0.999272
0.998694 0.998594 0.978242
1.00146 0.996083 0.956421
0.999643 0.995839 0.94786
1.00114 1.00354 0.989127
0.999913 1.00342 0.991551
1.00016 1.00313 0.991232
0.999933 1.00373 0.991044
1.00032 1.00389 0.990216
1.00035 1.00321 0.990593
1.00011 1.00409 0.990404
1.00001 1.0031 0.991497
1.00073 1.00297 0.9902
1.00236 1.00121 0.989726
1.00393 1.00009 0.987091
1.00479 0.998224 0.987178
1.00378 0.999583 0.98741
1.00174 1.00078 0.990301
1.00173 0.998239 0.993035
0.998023 1.00013 0.975695
0.999411 0.998316 0.959401
0.998799 0.998715 0.980974
1.00261 0.997407 0.992258
1.003 0.998199 0.990521
1.00317 0.997792 0.988304
0.998693 0.996603 0.981555
1.00082 0.995494 0.95717
1.00072 0.999959 0.992902
0.99958 0.998439 0.981671
1.00348 0.999037 0.989917
1.00455 0.996644 0.989371
1.00513 0.99597 0.989309
1.00514 0.996876 0.988945
1.00499 0.995257 0.989637
1.00518 0.995125 0.989619
1.00512 0.995794 0.989211
1.0052 0.995219 0.989456
1.00513 0.995942 0.988988
1.00507 0.996969 0.988171
1.00507 0.996455 0.988565
1.00502 0.997164 0.988019
1.00493 0.998047 0.987313
1.00481 0.997385 0.988116
1.00476 0.998101 0.987597
1.00457 0.998766 0.98733
1.00443 0.998252 0.988031
1.00421 0.999255 0.987563
1.00385 0.999909 0.987571
1.00377 1.00009 0.987562
1.00338 1.00056 0.987784
1.00283 1.00086 0.988563
1.0013 1.00147 0.990709
1.00209 1.00165 0.988949
1.00261 1.00174 0.987985
0.999768 1.00084 0.994107
1.00077 1.00191 0.991278
1.00149 1.0023 0.98962
0.999398 0.99871 0.998786
0.999758 1.00037 0.994637
1.00047 1.00197 0.991828
0.999443 0.998373 0.998897
0.999678 0.999969 0.995207
0.999461 0.998091 0.999007
1.00099 1.00327 0.989425
1.00051 1.00322 0.990516
1.00055 1.0026 0.991139
1.00037 1.00272 0.991379
1.00031 1.0023 0.991796
1.00009 1.00157 0.992867
1.00016 1.00209 0.992197
0.999983 1.00116 0.993463
0.999569 0.999242 0.996132
0.999976 1.00055 0.9941
0.99964 0.998747 0.996499
0.999455 0.997632 0.999194
0.99972 0.998422 0.996672
0.99953 0.997345 0.999246
0.999631 0.997124 0.999262
1.00218 0.998513 0.991084
0.998675 0.998598 0.974881
1.0006 0.996504 0.961169
1.00121 1.003 0.989112
1.00291 1.00181 0.987443
1.00092 1.00359 0.989213
1 1.00378 0.99098
1.00027 1.00397 0.990177
1.00061 1.00314 0.990331
1.00366 1.00018 0.987729
1.00087 1.0029 0.990434
1.0018 1.00133 0.989716
1.00368 1.00019 0.98747
1.00502 0.998535 0.986536
1.00508 0.996608 0.988173
1.00484 0.998228 0.987137
1.00389 0.999623 0.987219
1.00202 0.998166 0.993209
0.997706 1.00087 0.973594
1.00285 0.996691 0.993767
1.00515 0.996483 0.989361
1.00304 0.997715 0.988519
0.999282 0.996124 0.977781
1.00337 0.997788 0.990072
1.00452 0.997058 0.989407
1.00513 0.995642 0.989494
1.00514 0.996562 0.988831
1.00514 0.996051 0.988817
1.00516 0.996122 0.988414
1.00518 0.995032 0.989648
1.00512 0.995798 0.989197
1.0051 0.996934 0.988138
1.00514 0.995958 0.98898
1.00506 0.997029 0.988106
1.00504 0.997865 0.987311
1.00501 0.997173 0.988007
1.00494 0.998053 0.987317
1.00479 0.998556 0.987136
1.00478 0.998108 0.987591
1.00457 0.998763 0.987319
1.00422 0.999395 0.987388
1.00419 0.999139 0.987592
1.00382 0.999879 0.987579
1.00325 1.00032 0.988275
1.00334 1.00055 0.987725
1.00277 1.00085 0.98853
1.00186 1.00086 0.990282
0.999941 1.00086 0.993695
1.00131 1.00148 0.990703
1.00207 1.00169 0.989049
0.999286 0.999236 0.998632
0.99985 1.00074 0.994093
1.00079 1.00193 0.99127
0.999389 0.998819 0.998734
0.99981 1.00033 0.994629
0.999455 0.998447 0.998842
1.00198 1.00248 0.988064
1.001 1.00327 0.989288
1.00102 1.00265 0.990194
1.00049 1.00319 0.990534
1.00051 1.0026 0.991159
1.0002 1.00197 0.992333
1.00029 1.00229 0.991816
1.00006 1.00163 0.992863
0.999571 0.999736 0.995627
0.99997 1.00119 0.993463
0.999581 0.999173 0.996157
0.999425 0.997911 0.999101
0.999638 0.998709 0.99652
0.999455 0.99759 0.999211
0.999542 0.997314 0.999252
1.00511 0.996069 0.988757
1.00225 0.998244 0.990229
0.998674 0.99774 0.9758
1.00362 1.0006 0.987424
1.00098 1.00286 0.989743
1.0039 0.999596 0.987439
1.00301 1.00175 0.987397
1.00069 1.00365 0.989303
1.00508 0.998234 0.986837
1.00086 1.00307 0.990073
1.00376 1.00021 0.98742
1.00511 0.997671 0.987251
1.00346 1.00028 0.987849
1.00505 0.998468 0.986598
1.00504 0.996705 0.988233
1.00477 0.998314 0.987087
1.00211 0.998083 0.993412
1.00517 0.996481 0.988263
1.00515 0.996563 0.989361
1.00292 0.997385 0.98872
1.00513 0.995291 0.989685
1.00513 0.996288 0.988719
1.00513 0.996021 0.988966
1.00516 0.996169 0.988543
1.00514 0.996879 0.98805
1.00511 0.995766 0.989183
1.0051 0.99695 0.988145
1.00515 0.99771 0.9873
1.00506 0.99709 0.98804
1.00503 0.997929 0.987274
1.00491 0.998658 0.986855
1.00495 0.998059 0.987322
1.00478 0.998559 0.987136
1.00446 0.999069 0.98725
1.00458 0.998761 0.987309
1.00421 0.999393 0.987389
1.00363 0.999888 0.987982
1.00378 0.999847 0.987587
1.00323 1.00033 0.98828
1.00229 1.00043 0.98992
1.00271 1.00084 0.988496
1.00186 1.00088 0.990274
1.00013 1.00067 0.994467
0.99929 0.999766 0.996485
1.00002 1.00078 0.994171
1.00131 1.0015 0.990698
0.999288 0.999372 0.998575
0.999947 1.00064 0.994078
0.999384 0.998916 0.998677
1.00426 0.999054 0.987515
1.00296 1.00095 0.987864
1.00215 1.00244 0.987972
1.00165 1.00224 0.989352
1.001 1.00327 0.989152
1.00097 1.00266 0.990219
1.00046 1.0021 0.991743
1.00046 1.00259 0.991178
1.00016 1.00198 0.99234
0.999646 1.00024 0.995017
1.00002 1.00171 0.99286
0.999569 0.999692 0.995644
0.999398 0.998257 0.998954
0.999591 0.999108 0.996181
0.999413 0.997862 0.999134
0.999457 0.997543 0.999227
1.00515 0.996966 0.987849
1.00513 0.996281 0.989218
1.00241 0.998117 0.989374
1.00489 0.998285 0.98713
1.00349 1.00057 0.987686
1.00075 1.00269 0.990366
1.00398 0.999629 0.987532
1.00312 1.00168 0.987352
1.00515 0.997793 0.987313
1.00506 0.99828 0.986747
1.00385 1.00027 0.98711
1.00511 0.99766 0.98723
1.00508 0.998375 0.98666
1.00504 0.996734 0.988311
1.00518 0.997021 0.987981
1.00517 0.996424 0.98832
1.00516 0.996609 0.989366
1.00513 0.995987 0.989112
1.00517 0.996203 0.988673
1.00515 0.996784 0.988171
1.00517 0.997751 0.98726
1.0051 0.996977 0.988152
1.00514 0.997731 0.9873
1.00507 0.998639 0.986556
1.00502 0.997992 0.987238
1.00488 0.998655 0.98687
1.00457 0.999179 0.986918
1.00477 0.998562 0.987136
1.00446 0.999072 0.98725
1.00388 0.999599 0.987808
1.00421 0.999391 0.987391
1.00363 0.999888 0.987986
1.00261 1.00015 0.989592
1.00322 1.00034 0.988286
1.00229 1.00043 0.989909
1.00036 1.00039 0.994395
1.00185 1.0009 0.990266
1.00025 1.00063 0.994416
0.999252 1.00015 0.996327
0.999208 0.999897 0.997448
1.00014 1.0007 0.994589
0.999287 0.999495 0.998516
1.00495 0.998475 0.986843
1.00371 0.999945 0.987893
1.00417 0.998806 0.987903
1.0024 1.0014 0.988731
1.00303 1.001 0.987872
1.0023 1.00239 0.98788
1.00163 1.00226 0.989349
1.00091 1.0019 0.99107
1.00092 1.00266 0.990245
1.00042 1.00208 0.991755
0.999759 1.00066 0.994409
1.00012 1.00198 0.992348
0.999605 1.00025 0.995027
0.999321 0.998753 0.998774
0.999571 0.999637 0.995658
0.99939 0.998188 0.999006
0.999407 0.997813 0.999166
1.00516 0.997344 0.987636
1.00514 0.996957 0.987842
1.00514 0.996447 0.989663
1.00513 0.99799 0.987064
1.00491 0.998361 0.987081
1.00337 1.00053 0.987952
1.00404 0.999658 0.987627
1.00515 0.997755 0.987262
1.00506 0.998321 0.986656
1.0051 0.997656 0.987209
1.00515 0.997586 0.987433
1.00517 0.997054 0.987918
1.00516 0.996385 0.988376
1.00515 0.997978 0.987027
1.00516 0.996678 0.98829
1.00517 0.997754 0.987262
1.00515 0.998479 0.986618
1.00512 0.997753 0.9873
1.00504 0.998647 0.986571
1.00478 0.999275 0.986414
1.00484 0.998655 0.986885
1.00457 0.999181 0.98692
1.00401 0.999638 0.987521
1.00446 0.999075 0.987249
1.00388 0.999598 0.987808
1.00281 0.999963 0.9894
1.00362 0.999887 0.987991
1.00262 1.00013 0.989586
1.00058 1.00012 0.994314
1.00229 1.00043 0.989899
1.00046 1.00036 0.994339
0.9993 1.00017 0.99629
1.00038 1.00056 0.994366
0.999142 1.00028 0.996399
0.999048 0.999992 0.998547
1.00507 0.998544 0.986644
1.00454 0.999066 0.987071
1.00488 0.998531 0.986975
1.00313 1.00055 0.988497
1.00371 0.999815 0.987895
1.00409 0.998559 0.988284
1.00155 1.00135 0.990388
1.00241 1.00142 0.988711
1.00311 1.00105 0.987879
1.00161 1.00229 0.989346
1.00089 1.00188 0.991079
0.999901 1.00092 0.99389
1.00039 1.00205 0.991767
0.999675 1.00075 0.994422
0.999192 0.999394 0.9986
0.999562 1.00028 0.995037
0.999329 0.998646 0.998838
0.999386 0.99812 0.999054
1.00515 0.997723 0.98724
1.00516 0.997301 0.987644
1.00514 0.996948 0.987836
1.00514 0.997908 0.987119
1.00493 0.99844 0.987031
1.00515 0.997717 0.987211
1.00513 0.997977 0.987107
1.00515 0.997646 0.987398
1.00517 0.997089 0.987855
1.00516 0.997936 0.987085
1.00514 0.998407 0.986665
1.00516 0.997759 0.987265
1.00514 0.998528 0.98654
1.00498 0.999076 0.986248
1.00501 0.998652 0.986586
1.00478 0.999282 0.986425
1.00425 0.99974 0.986994
1.00458 0.999179 0.986922
1.00402 0.999636 0.987512
1.00292 0.99994 0.989205
1.00388 0.999597 0.987808
1.00282 0.999946 0.989398
1.00073 0.99996 0.994229
1.00263 1.00011 0.98958
1.00066 1.00011 0.994256
0.999427 1.00006 0.996231
1.00056 1.00032 0.994291
0.999182 1.00027 0.996378
0.999017 1.00048 0.996469
1.00511 0.998234 0.98685
1.00478 0.998912 0.986762
1.00506 0.998486 0.986685
1.00386 0.999731 0.987808
1.00456 0.999128 0.987072
1.00481 0.998587 0.987114
1.00217 1.00065 0.989874
1.00312 1.00048 0.988349
1.0037 0.999683 0.987898
1.00011 1.00089 0.9935
1.00155 1.00133 0.990397
1.00242 1.00145 0.988692
1.00088 1.00187 0.991089
0.999797 1.00103 0.993908
0.999113 1 0.998461
0.999589 1.00085 0.994435
0.99921 0.999249 0.998663
0.999342 0.998533 0.998896
1.00514 0.997987 0.987036
1.00515 0.997715 0.987263
1.00516 0.997257 0.987652
1.00514 0.997824 0.987175
1.00514 0.998388 0.986675
1.00514 0.997988 0.987112
1.00515 0.997704 0.987363
1.00517 0.997901 0.987144
1.00514 0.998371 0.986698
1.00505 0.998919 0.986401
1.00513 0.998577 0.986461
1.00498 0.999132 0.986244
1.00451 0.999555 0.98657
1.00478 0.999293 0.986437
1.00423 0.99974 0.986997
1.00312 0.99998 0.988783
1.00402 0.999639 0.987503
1.00294 0.999928 0.989198
1.00081 0.999969 0.993022
1.00283 0.999927 0.989396
1.00078 0.999938 0.993658
0.999482 1.00002 0.99831
1.00073 1.0001 0.994201
0.999314 1.0001 0.996322
0.999071 1.00039 0.996451
1.00511 0.998227 0.986888
1.00486 0.998837 0.986685
1.00511 0.998285 0.986847
1.00418 0.999285 0.987339
1.00478 0.998924 0.986789
1.00504 0.998432 0.986725
1.00271 1.00002 0.989185
1.00387 0.999735 0.987802
1.00459 0.999193 0.987074
1.0004 1.00053 0.993251
1.00218 1.00061 0.98974
1.00311 1.0004 0.9882
0.999148 1.00037 0.99837
1.00004 1.00095 0.993516
1.00154 1.00132 0.990407
0.999706 1.00111 0.993925
0.999098 0.999864 0.99851
0.999222 0.999094 0.998722
1.00514 0.998331 0.986724
1.00515 0.997978 0.987044
1.00515 0.997709 0.987286
1.00505 0.998876 0.9864
1.00513 0.998365 0.986707
1.00514 0.997996 0.987117
1.00514 0.998327 0.986731
1.00505 0.998911 0.986398
1.00467 0.999372 0.9867
1.00498 0.99919 0.986241
1.0045 0.999615 0.986708
1.00342 0.999866 0.988069
1.00423 0.999734 0.986999
1.00313 0.999974 0.988779
1.00093 1.00006 0.992696
1.00296 0.999918 0.989191
1.00082 0.999961 0.993013
0.999511 0.999995 0.998283
1.00079 0.999933 0.993136
0.999432 0.999993 0.997316
0.999204 1.00015 0.996408
1.00508 0.99842 0.986797
1.0049 0.998756 0.986729
1.00511 0.998213 0.986889
1.00428 0.999301 0.98729
1.00486 0.998847 0.986652
1.0051 0.998334 0.986844
1.00304 0.999671 0.98893
1.00418 0.999362 0.9875
1.00478 0.998934 0.986817
1.00067 1.00012 0.993116
1.00274 1.00002 0.989146
1.00389 0.999737 0.987795
0.999273 1.00041 0.99832
1.00036 1.00055 0.993273
1.00218 1.00058 0.989605
0.999101 1.00027 0.998398
0.999965 1.00098 0.99354
0.999084 0.999711 0.998565
1.00504 0.998788 0.986508
1.00514 0.998347 0.986713
1.00515 0.997968 0.987051
1.00466 0.999281 0.986791
1.00505 0.998848 0.986437
1.00513 0.998349 0.986739
1.00505 0.998904 0.986395
1.00467 0.999376 0.986695
1.00361 0.999732 0.987845
1.00449 0.999676 0.986847
1.0034 0.999904 0.988203
1.00115 1.00006 0.992284
1.00315 0.999963 0.988776
1.00095 1.00005 0.99268
0.999584 0.999998 0.998208
1.00082 0.999959 0.993005
0.999534 0.999988 0.998262
0.999475 0.999925 0.99622
1.0049 0.998805 0.986809
1.00508 0.998345 0.986812
1.00436 0.999245 0.987223
1.00489 0.998755 0.986726
1.00511 0.998198 0.98689
1.00318 0.999682 0.988975
1.0043 0.999294 0.987285
1.00486 0.998857 0.986619
1.00086 0.999874 0.992991
1.00304 0.999724 0.989033
1.00418 0.999444 0.987661
0.999448 1.00022 0.998281
1.00066 1.00011 0.993128
1.00277 1.00001 0.989107
0.999225 1.00035 0.998332
1.00032 1.00056 0.993291
0.999046 1.00018 0.998436
1.0046 0.999264 0.986942
1.00504 0.998812 0.986493
1.00513 0.998365 0.986703
1.0036 0.999665 0.987933
1.00466 0.999288 0.986791
1.00506 0.998816 0.986474
1.00467 0.999382 0.98669
1.00361 0.999735 0.987849
1.00129 1.00003 0.992051
1.00338 0.99994 0.988336
1.00116 1.00007 0.992271
0.999731 1.00001 0.998087
1.00096 1.00005 0.992664
0.999637 0.999996 0.998168
0.999566 0.999977 0.998234
1.00442 0.999262 0.987129
1.0049 0.998724 0.9868
1.00508 0.998269 0.986827
1.00326 0.999692 0.988801
1.00437 0.999247 0.987212
1.00488 0.998755 0.986723
1.00099 0.999845 0.992798
1.00317 0.999693 0.988971
1.00432 0.999286 0.98728
0.999587 1.00003 0.998232
1.00086 0.999868 0.992997
1.00304 0.999771 0.989136
0.999397 1.00023 0.998292
1.00065 1.00011 0.99314
0.999168 1.00033 0.998347
1.00354 0.99973 0.988263
1.00461 0.999243 0.986799
1.00505 0.998834 0.986478
1.00131 0.999973 0.992064
1.00361 0.999657 0.98792
1.00467 0.999296 0.986791
1.0036 0.999736 0.987853
1.00129 1.00002 0.992051
0.999846 1.00001 0.997986
1.00116 1.00007 0.992257
0.999771 1.00001 0.998043
0.999678 0.999995 0.998122
1.00339 0.999722 0.98854
1.00444 0.999217 0.98707
1.00489 0.998644 0.986791
1.00113 0.999941 0.993648
1.00327 0.9997 0.988792
1.00438 0.99925 0.987201
0.999677 0.999955 0.998159
1.00098 0.999856 0.992804
1.00317 0.999702 0.988966
0.999545 1.00006 0.998251
1.00086 0.999869 0.993005
0.99935 1.00023 0.998301
1.0013 0.99998 0.992099
1.00354 0.999696 0.988165
1.00463 0.999218 0.986656
0.999882 1 0.997966
1.00131 0.999979 0.992065
1.00362 0.999652 0.987908
1.00129 1.00001 0.992049
0.99987 1.00001 0.997971
0.999825 1.00001 0.998008
1.00127 0.999992 0.993381
1.0034 0.999716 0.988543
1.00446 0.99917 0.987012
0.999528 0.999978 0.998285
1.00106 0.999955 0.992577
1.00328 0.999705 0.988784
0.999643 0.999981 0.998188
1.00097 0.999874 0.992811
0.999512 1.00008 0.998266
0.999855 1.00001 0.995585
1.0013 0.999978 0.992718
1.00353 0.999664 0.988067
0.999877 0.999999 0.997968
1.0013 0.999983 0.99207
0.999882 1.00001 0.99796
0.99958 1.00001 0.995903
1.00121 0.999993 0.992883
1.0034 0.999714 0.988547
0.999617 0.999988 0.997054
1.00106 0.999969 0.992569
0.999615 0.999999 0.998215
0.999857 0.999996 0.997981
1.00125 0.999978 0.992174
0.99987 0.999999 0.997971
0.999695 1 0.996948
1.00116 0.999992 0.992343
0.999685 0.999984 0.998143
0.999828 0.999992 0.998009
0.999757 0.999987 0.998069

TENSORS stress float
0.00123112 -2.7467e-05 9.09214e-05
-2.7467e-05 0.000329962 -1.02726e-05
9.09214e-05 -1.02726e-05 0.00030992
0.00359982 -8.70334e-05 8.52552e-05
-8.70334e-05 0.00161019 4.58277e-06
8.52552e-05 4.58277e-06 0.0016036
0.00126487 2.90393e-05 4.58166e-05
2.90393e-05 0.000360473 -3.12218e-06
4.58166e-05 -3.12218e-06 0.000332381
0.00166622 -2.51042e-05 0.000105425
-2.51042e-05 0.00053273 -7.49831e-06
0.000105425 -7.49831e-06 0.000512095
0.00138407 -2.96449e-05 9.57756e-05
-2.96449e-05 0.000406333 -1.02146e-05
9.57756e-05 -1.02146e-05 0.000384704
0.00113279 -3.37959e-08 7.93564e-05
-3.37959e-08 0.000273264 -9.10683e-06
7.93564e-05 -9.10683e-06 0.000255069
0.00116331 -6.69124e-06 9.44882e-06
-6.69124e-06 0.000244694 -5.79534e-06
9.44882e-06 -5.79534e-06 0.000187079
0.00351603 -0.000107672 4.03488e-06
-0.000107672 0.00156443 -4.36209e-07
4.03488e-06 -4.36209e-07 0.00155658
0.00441066 -0.000152308 9.15167e-06
-0.000152308 0.00206258 2.15621e-06
9.15167e-06 2.15621e-06 0.00204011
0.00360826 -0.000186467 5.4343e-06
-0.000186467 0.00164791 2.44041e-06
5.4343e-06 2.44041e-06 0.00162168
0.00122104 -2.6528e-05 6.8703e-05
-2.6528e-05 0.000300094 4.89392e-06
6.8703e-05 4.89392e-06 0.000289958
0.000749795 4.83346e-05 9.0797e-06
4.83346e-05 1.59254e-05 6.34148e-06
9.0797e-06 6.34148e-06 -3.32975e-05
0.00170683 -1.20361e-05 0.000121254
-1.20361e-05 0.000542256 1.28868e-06
0.000121254 1.28868e-06 0.000520652
0.00128012 3.11577e-05 1.93266e-05
3.11577e-05 0.000330451 1.98246e-06
1.93266e-05 1.98246e-06 0.000302453
0.00133973 0.000100659 1.3264e-06
0.000100659 0.000418669 4.25335e-06
1.3264e-06 4.25335e-06 0.000379508
0.00149012 -9.08845e-06 4.35057e-05
-9.08845e-06 0.000442779 -2.61944e-06
4.35057e-05 -2.61944e-06 0.000419559
0.00116293 3.75354e-05 3.83749e-05
3.75354e-05 0.000300248 -2.99501e-06
3.83749e-05 -2.99501e-06 0.000275366
0.00135283 2.31321e-05 4.83129e-05
2.31321e-05 0.00040055 -3.26121e-06
4.83129e-05 -3.26121e-06 0.000372505
0.00128183 -2.61315e-05 -1.99316e-05
-2.61315e-05 0.000301738 4.54147e-07
-1.99316e-05 4.54147e-07 0.00024793
0.00497739 -4.398e-05 0.000125444
-4.398e-05 0.00232525 -1.79044e-06
0.000125444 -1.79044e-06 0.00232079
0.001665 -1.55103e-05 0.000107538
-1.55103e-05 0.000529526 -5.73613e-06
0.000107538 -5.73613e-06 0.00050928
0.0015594 -2.89187e-05 0.000101268
-2.89187e-05 0.000485687 -9.1394e-06
0.000101268 -9.1394e-06 0.000464292
0.0014791 -3.98997e-05 2.35039e-05
-3.98997e-05 0.000343155 -3.569e-06
2.35039e-05 -3.569e-06 0.000291088
0.00129261 -1.08416e-05 1.22344e-05
-1.08416e-05 0.000289286 -5.72491e-06
1.22344e-05 -5.72491e-06 0.00023187
0.00112969 3.66108e-05 6.23891e-05
3.66108e-05 0.000260734 -7.59892e-06
6.23891e-05 -7.59892e-06 0.00024428
0.00103021 -1.88692e-06 9.12972e-06
-1.88692e-06 0.0001897 -4.9024e-06
9.12972e-06 -4.9024e-06 0.000136125
0.00163661 -0.00011802 5.77521e-06
-0.00011802 0.000392739 -2.6678e-06
5.77521e-06 -2.6678e-06 0.000303139
0.0034126 -0.000122289 -6.49397e-05
-0.000122289 0.00150797 -3.09816e-06
-6.49397e-05 -3.09816e-06 0.00149882
0.00283012 -5.29313e-05 -5.46368e-05
-5.29313e-05 0.00119738 -1.04314e-06
-5.46368e-05 -1.04314e-06 0.0011745
0.0024392 -9.34454e-05 -3.42794e-05
-9.34454e-05 0.000997315 -9.52042e-07
-3.42794e-05 -9.52042e-07 0.000975098
0.00321705 -0.000106714 2.75008e-06
-0.000106714 0.00139124 -2.36421e-07
2.75008e-06 -2.36421e-07 0.00138694
0.000673558 3.90532e-05 -1.29952e-07
3.90532e-05 -1.993e-05 -2.17092e-07
-1.29952e-07 -2.17092e-07 -6.91588e-05
0.00159445 3.80866e-05 0.000104693
3.80866e-05 0.000501078 6.82456e-06
0.000104693 6.82456e-06 0.000479976
0.00172486 3.67747e-05 9.62855e-05
3.67747e-05 0.000591707 8.25109e-06
9.62855e-05 8.25109e-06 0.000570929
0.00235205 0.000101748 6.06511e-05
0.000101748 0.000840675 7.20585e-06
6.06511e-05 7.20585e-06 0.000794286
0.00279636 -0.000112035 1.53866e-05
-0.000112035 0.00115796 1.3553e-06
1.53866e-05 1.3553e-06 0.00115508
0.0020911 6.35545e-05 4.81912e-05
6.35545e-05 0.000736968 6.14737e-06
4.81912e-05 6.14737e-06 0.000693113
0.00066744 7.63437e-06 8.76786e-06
7.63437e-06 -2.27807e-05 8.17683e-06
8.76786e-06 8.17683e-06 -6.59818e-05
0.000932061 8.47668e-05 4.13556e-06
8.47668e-05 7.47925e-05 1.38384e-06
4.13556e-06 1.38384e-06 -1.30374e-05
0.00251676 -7.56372e-05 4.46394e-05
-7.56372e-05 0.000993395 2.95727e-06
4.46394e-05 2.95727e-06 0.00100074
0.00507789 6.74522e-06 -8.58699e-09
6.74522e-06 0.00237544 -7.91966e-07
-8.58699e-09 -7.91966e-07 0.00237137
0.00310353 2.05772e-05 -4.83887e-05
2.05772e-05 0.00131428 -1.11313e-06
-4.83887e-05 -1.11313e-06 0.0012986
0.00516414 4.60155e-05 0.000131336
4.60155e-05 0.00241989 7.41929e-07
0.000131336 7.41929e-07 0.0024156
0.00135242 -1.74774e-05 1.21561e-05
-1.74774e-05 0.000367329 1.04731e-06
1.21561e-05 1.04731e-06 0.000338296
0.000770985 -2.59552e-06 1.51627e-05
-2.59552e-06 -7.10688e-05 2.20848e-06
1.51627e-05 2.20848e-06 -0.000130846
0.00468161 3.09076e-05 4.06465e-05
3.09076e-05 0.00217374 1.99126e-06
4.06465e-05 1.99126e-06 0.00216358
0.00240873 1.84017e-05 6.57705e-05
1.84017e-05 0.000830066 3.97656e-06
6.57705e-05 3.97656e-06 0.000787783
0.00129533 -2.03214e-05 -2.21865e-05
-2.03214e-05 0.000344227 2.33021e-06
-2.21865e-05 2.33021e-06 0.000317771
0.00136274 3.18591e-05 -1.11904e-05
3.18591e-05 0.000408205 3.09101e-06
-1.11904e-05 3.09101e-06 0.000379371
0.00122657 9.01379e-05 -3.33166e-06
9.01379e-05 0.000347885 3.46239e-06
-3.33166e-06 3.46239e-06 0.000314224
0.00134422 -5.16601e-05 -4.8955e-05
-5.16601e-05 0.000325547 6.67147e-06
-4.8955e-05 6.67147e-06 0.000277253
0.00325775 3.99316e-05 -5.07785e-05
3.99316e-05 0.00139967 -1.11062e-06
-5.07785e-05 -1.11062e-06 0.00137789
0.00148139 -1.20446e-05 4.33759e-05
-1.20446e-05 0.000436072 -1.6632e-06
4.33759e-05 -1.6632e-06 0.000412878
0.00110982 5.14476e-05 2.94271e-05
5.14476e-05 0.000256287 -2.44606e-06
2.94271e-05 -2.44606e-06 0.000236699
0.00144497 1.13507e-06 4.54455e-05
1.13507e-06 0.000430523 -3.34552e-06
4.54455e-05 -3.34552e-06 0.000405884
0.00151539 -4.54414e-05 -1.6013e-05
-4.54414e-05 0.000360337 5.04185e-07
-1.6013e-05 5.04185e-07 0.000310211
0.00116091 -1.40063e-05 -1.64505e-05
-1.40063e-05 0.000253833 3.4048e-07
-1.64505e-05 3.4048e-07 0.000203385
0.001386 -4.41565e-05 -1.7353e-05
-4.41565e-05 0.00033033 6.76788e-07
-1.7353e-05 6.76788e-07 0.000278572
0.00175477 -0.00012294 -2.89011e-06
-0.00012294 0.000452056 9.76071e-07
-2.89011e-06 9.76071e-07 0.000361203
0.0050744 5.0736e-05 0.000121952
5.0736e-05 0.00237402 1.55535e-07
0.000121952 1.55535e-07 0.00236978
0.00164021 -2.70829e-06 0.000110655
-2.70829e-06 0.000513894 -4.08792e-06
0.000110655 -4.08792e-06 0.000492954
0.00231357 5.62947e-05 1.37513e-05
5.62947e-05 0.000783304 -1.19877e-06
1.37513e-05 -1.19877e-06 0.000730282
0.0014636 -3.89859e-05 2.43995e-05
-3.89859e-05 0.00033285 -2.87128e-06
2.43995e-05 -2.87128e-06 0.000281353
0.00141652 -3.14612e-05 1.93492e-05
-3.14612e-05 0.000324934 -4.66618e-06
1.93492e-05 -4.66618e-06 0.000270996
0.00196313 -8.9643e-05 7.90762e-06
-8.9643e-05 0.000452667 -1.76855e-06
7.90762e-06 -1.76855e-06 0.00036407
0.00133509 -0.00010185 8.31342e-06
-0.00010185 0.000180766 -3.64574e-06
8.31342e-06 -3.64574e-06 8.82262e-05
0.00118384 4.79336e-05 5.16171e-05
4.79336e-05 0.000271301 -7.03518e-06
5.16171e-05 -7.03518e-06 0.00026047
0.000924653 2.39651e-05 7.59509e-06
2.39651e-05 0.000142319 -3.83057e-06
7.59509e-06 -3.83057e-06 9.75717e-05
0.00141929 -0.000103858 3.93296e-06
-0.000103858 0.00032439 -1.96534e-06
3.93296e-06 -1.96534e-06 0.000238457
0.00117984 -0.00012091 3.92485e-06
-0.00012091 7.88277e-05 -1.61034e-06
3.92485e-06 -1.61034e-06 -3.6674e-05
0.00438944 -4.40531e-05 -9.72507e-05
-4.40531e-05 0.00203477 -5.37638e-06
-9.72507e-05 -5.37638e-06 0.00202693
0.00312541 -0.000110503 -5.60686e-05
-0.000110503 0.0013397 -2.85816e-06
-5.60686e-05 -2.85816e-06 0.00133597
0.00366046 -0.000124254 -7.35962e-05
-0.000124254 0.00165621 -3.8928e-06
-7.35962e-05 -3.8928e-06 0.00164308
0.000603568 3.7522e-05 -7.84187e-06
3.7522e-05 -5.33998e-05 -6.8629e-06
-7.84187e-06 -6.8629e-06 -0.000102378
0.00484771 1.34999e-05 -2.76507e-06
1.34999e-05 0.00226278 -5.62467e-07
-2.76507e-06 -5.62467e-07 0.00225773
0.00426787 -9.2949e-05 -2.14962e-07
-9.2949e-05 0.00198513 2.16349e-08
-2.14962e-07 2.16349e-08 0.00197043
0.000620828 8.76187e-05 -7.12809e-07
8.76187e-05 -9.18482e-05 -1.85005e-07
-7.12809e-07 -1.85005e-07 -0.000149508
0.00193275 -7.71627e-05 -2.24924e-05
-7.71627e-05 0.000684595 -4.71702e-07
-2.24924e-05 -4.71702e-07 0.000679668
0.000639127 6.6972e-05 -2.76216e-07
6.6972e-05 -4.4601e-05 -9.63414e-08
-2.76216e-07 -9.63414e-08 -9.77191e-05
0.00119525 -1.20423e-05 1.30511e-05
-1.20423e-05 0.000269496 3.73571e-07
1.30511e-05 3.73571e-07 0.000229954
0.000871046 8.12493e-05 2.20408e-07
8.12493e-05 4.0891e-05 -1.82809e-07
2.20408e-07 -1.82809e-07 -4.61733e-05
0.00273652 -8.36517e-05 5.2097e-05
-8.36517e-05 0.00111592 3.00997e-06
5.2097e-05 3.00997e-06 0.00112053
0.000684358 -6.20778e-05 -1.41097e-07
-6.20778e-05 -7.98349e-06 4.76858e-06
-1.41097e-07 4.76858e-06 -3.17773e-05
0.000753545 6.70372e-05 1.5673e-05
6.70372e-05 -4.83151e-05 7.19133e-06
1.5673e-05 7.19133e-06 -0.000106184
0.000792858 8.90351e-05 1.66357e-05
8.90351e-05 1.6653e-05 9.62919e-06
1.66357e-05 9.62919e-06 -4.05129e-05
0.00106833 9.60644e-05 8.10355e-06
9.60644e-05 1.68174e-05 3.77401e-06
8.10355e-06 3.77401e-06 -8.13456e-05
0.00163115 -5.29582e-05 2.69137e-05
-5.29582e-05 0.000510885 4.09741e-06
2.69137e-05 4.09741e-06 0.000480786
0.000982649 9.71834e-05 4.92038e-06
9.71834e-05 6.82006e-05 2.59421e-06
4.92038e-06 2.59421e-06 -2.19926e-05
0.000908945 6.37102e-05 3.93324e-06
6.37102e-05 8.85822e-05 2.05021e-06
3.93324e-06 2.05021e-06 2.97129e-06
0.000868342 0.000108918 1.80727e-06
0.000108918 7.81907e-06 -3.26622e-07
1.80727e-06 -3.26622e-07 -9.99985e-05
0.00230636 -6.80996e-05 3.67562e-05
-6.80996e-05 0.000873406 2.99906e-06
3.67562e-05 2.99906e-06 0.000883474
0.0024421 -7.64859e-05 1.32515e-06
-7.64859e-05 0.000953481 -1.24681e-07
1.32515e-06 -1.24681e-07 0.000960832
0.00486498 5.52507e-05 -0.000123131
5.52507e-05 0.00226711 -4.6061e-06
-0.000123131 -4.6061e-06 0.00226285
0.00501992 2.62982e-05 -0.000122663
2.62982e-05 0.00234513 -1.87175e-06
-0.000122663 -1.87175e-06 0.00234157
0.00515299 4.91136e-05 3.75199e-06
4.91136e-05 0.00241656 -6.04701e-07
3.75199e-06 -6.04701e-07 0.00241085
0.0031496 -1.66667e-05 -5.2015e-05
-1.66667e-05 0.00133696 -8.27966e-07
-5.2015e-05 -8.27966e-07 0.00132058
0.00164298 1.07513e-05 2.85304e-05
1.07513e-05 0.000403677 1.57211e-07
2.85304e-05 1.57211e-07 0.00035124
0.00309148 2.28662e-05 -5.24382e-05
2.28662e-05 0.00130946 -1.88584e-06
-5.24382e-05 -1.88584e-06 0.00129375
0.0016045 3.30136e-05 2.62654e-05
3.30136e-05 0.00039773 6.17665e-07
2.62654e-05 6.17665e-07 0.000348115
0.00517923 0.000109621 0.000123658
0.000109621 0.00243444 1.75963e-06
0.000123658 1.75963e-06 0.00242558
0.000729105 -3.81105e-06 1.43419e-05
-3.81105e-06 -9.85932e-05 5.38583e-07
1.43419e-05 5.38583e-07 -0.000158647
0.00247311 -6.98762e-06 6.78788e-05
-6.98762e-06 0.000859652 2.90577e-06
6.78788e-05 2.90577e-06 0.000815766
0.00121317 1.98254e-05 9.54236e-06
1.98254e-05 8.5935e-06 1.49912e-06
9.54236e-06 1.49912e-06 -9.0237e-05
0.00234827 6.27068e-05 6.43722e-05
6.27068e-05 0.000806684 4.6564e-06
6.43722e-05 4.6564e-06 0.00076288
0.00119551 5.3145e-05 9.23603e-06
5.3145e-05 2.08742e-05 2.17691e-06
9.23603e-06 2.17691e-06 -7.48809e-05
0.00171763 2.02655e-05 -0.000119525
2.02655e-05 0.000550746 5.22069e-07
-0.000119525 5.22069e-07 0.000529617
0.00125533 -3.22399e-05 -2.07997e-05
-3.22399e-05 0.000321224 1.85507e-06
-2.07997e-05 1.85507e-06 0.000294158
0.00105156 7.61243e-05 -7.26141e-06
7.61243e-05 0.000232438 2.56796e-06
-7.26141e-06 2.56796e-06 0.000208135
0.00133819 -1.42899e-06 -1.82448e-05
-1.42899e-06 0.000378324 2.7368e-06
-1.82448e-05 2.7368e-06 0.000351324
0.00157322 -3.76495e-05 -5.71936e-05
-3.76495e-05 0.000388546 4.48474e-06
-5.71936e-05 4.48474e-06 0.000340578
0.00144787 -5.44316e-05 -5.26777e-05
-5.44316e-05 0.000358516 6.65036e-06
-5.26777e-05 6.65036e-06 0.000309718
0.00124247 -3.32965e-05 -4.26657e-05
-3.32965e-05 0.000290065 5.8183e-06
-4.26657e-05 5.8183e-06 0.000243872
0.00190772 -0.00012934 -1.25189e-05
-0.00012934 0.000530304 4.93529e-06
-1.25189e-05 4.93529e-06 0.000438005
0.00513663 -2.79832e-05 -2.48805e-06
-2.79832e-05 0.00240613 -5.98899e-07
-2.48805e-06 -5.98899e-07 0.00240162
0.00146453 3.41152e-07 4.78828e-05
3.41152e-07 0.000425526 -1.13863e-06
4.78828e-05 -1.13863e-06 0.000401458
0.0011601 5.85819e-06 -3.06317e-05
5.85819e-06 0.000146952 3.09894e-07
-3.06317e-05 3.09894e-07 9.23618e-05
0.00149366 -3.68518e-05 -1.67922e-05
-3.68518e-05 0.000346256 3.46406e-07
-1.67922e-05 3.46406e-07 0.000296744
0.0020921 7.44006e-05 4.45865e-05
7.44006e-05 0.000772322 -9.65208e-07
4.45865e-05 -9.65208e-07 0.000765719
0.00131932 2.05411e-05 -1.01369e-05
2.05411e-05 0.000350302 -1.06565e-09
-1.01369e-05 -1.06565e-09 0.000306824
0.00147771 -4.85887e-05 -1.63232e-05
-4.85887e-05 0.000354341 5.51179e-07
-1.63232e-05 5.51179e-07 0.000303095
0.00177445 -8.29368e-05 -5.36159e-06
-8.29368e-05 0.000350189 8.74143e-07
-5.36159e-06 8.74143e-07 0.000260595
0.00159681 -0.000114684 -2.19269e-06
-0.000114684 0.000415746 8.865e-07
-2.19269e-06 8.865e-07 0.000327702
0.00162914 -0.000111158 -1.45009e-06
-0.000111158 0.000338238 1.96953e-07
-1.45009e-06 1.96953e-07 0.000246124
0.00117254 -0.000119784 -7.33138e-08
-0.000119784 7.48997e-05 1.30259e-08
-7.33138e-08 1.30259e-08 -4.03848e-05
0.000745236 3.5241e-06 1.45206e-05
3.5241e-06 -8.62695e-05 -1.25072e-06
1.45206e-05 -1.25072e-06 -0.000145991
0.001438 -2.02691e-05 2.13084e-05
-2.02691e-05 0.0003146 -2.32725e-06
2.13084e-05 -2.32725e-06 0.000262145
0.00162857 -1.28323e-05 9.26012e-06
-1.28323e-05 0.000240656 -1.54045e-06
9.26012e-06 -1.54045e-06 0.000146686
0.00154617 -6.14516e-05 8.88958e-06
-6.14516e-05 0.000222763 -1.57047e-06
8.88958e-06 -1.57047e-06 0.000133508
0.00154315 -9.68922e-05 9.36842e-06
-9.68922e-05 0.000244608 -2.94931e-06
9.36842e-06 -2.94931e-06 0.000151174
0.00179788 -9.66343e-05 2.8666e-06
-9.66343e-05 0.000277053 -2.39991e-07
2.8666e-06 -2.39991e-07 0.000169163
0.00291595 9.595e-05 5.19423e-05
9.595e-05 0.00121293 -2.76534e-06
5.19423e-05 -2.76534e-06 0.00121474
0.00124608 -0.000115433 4.21522e-06
-0.000115433 5.94327e-05 -1.82678e-06
4.21522e-06 -1.82678e-06 -5.57864e-05
0.000628276 4.89692e-05 3.176e-06
4.89692e-05 -3.1198e-05 -5.34441e-06
3.176e-06 -5.34441e-06 -7.22705e-05
0.000668515 -6.90673e-05 3.05999e-06
-6.90673e-05 -4.13335e-05 -1.64586e-06
3.05999e-06 -1.64586e-06 -0.00012361
0.0012776 -0.000131458 3.48573e-06
-0.000131458 0.000189444 -1.77807e-06
3.48573e-06 -1.77807e-06 7.29616e-05
0.00131353 -0.000134844 2.18095e-06
-0.000134844 0.000102343 -8.73716e-07
2.18095e-06 -8.73716e-07 -2.4422e-05
0.000569361 6.60741e-05 5.91475e-07
6.60741e-05 -6.81828e-05 -5.41734e-06
5.91475e-07 -5.41734e-06 -9.96862e-05
0.00075853 4.26023e-05 2.08123e-07
4.26023e-05 1.1695e-05 -2.77024e-06
2.08123e-07 -2.77024e-06 -4.83544e-05
0.00470946 1.47069e-05 -0.000113725
1.47069e-05 0.00219131 -5.65208e-06
-0.000113725 -5.65208e-06 0.00218661
0.00396277 -0.000121704 -7.64185e-05
-0.000121704 0.00182754 -5.43431e-06
-7.64185e-05 -5.43431e-06 0.00181072
0.000572693 7.68811e-05 -1.2585e-05
7.68811e-05 -0.000116396 -7.45699e-06
-1.2585e-05 -7.45699e-06 -0.000174201
0.00286461 -9.64328e-05 -5.07088e-05
-9.64328e-05 0.00119067 -2.74421e-06
-5.07088e-05 -2.74421e-06 0.00119195
0.00058706 -2.00431e-05 -3.20444e-06
-2.00431e-05 -5.77007e-05 -6.37113e-06
-3.20444e-06 -6.37113e-06 -9.93632e-05
0.000559927 6.00711e-05 -9.58117e-06
6.00711e-05 -8.26002e-05 -6.99536e-06
-9.58117e-06 -6.99536e-06 -0.000136029
0.000831923 7.85116e-05 -4.15298e-06
7.85116e-05 1.88298e-05 -1.9017e-06
-4.15298e-06 -1.9017e-06 -6.77078e-05
0.0026673 -8.47461e-05 1.39583e-06
-8.47461e-05 0.00107947 -1.55109e-07
1.39583e-06 -1.55109e-07 0.00108406
0.000648528 -5.83974e-05 6.56219e-08
-5.83974e-05 -2.86382e-05 1.3688e-07
6.56219e-08 1.3688e-07 -5.13613e-05
0.00151036 7.57568e-05 2.45282e-05
7.57568e-05 0.00036455 5.38925e-07
2.45282e-05 5.38925e-07 0.000312723
0.00134402 8.25781e-05 2.06261e-05
8.25781e-05 0.000321019 4.43599e-07
2.06261e-05 4.43599e-07 0.000270335
0.00106186 9.68429e-05 3.78629e-07
9.68429e-05 1.43934e-05 -1.65354e-07
3.78629e-07 -1.65354e-07 -8.38049e-05
0.000656984 -4.65984e-05 -2.29831e-07
-4.65984e-05 -1.97638e-05 1.28532e-07
-2.29831e-07 1.28532e-07 -5.41542e-05
0.000921692 9.31985e-05 2.19729e-07
9.31985e-05 3.61446e-05 4.05316e-07
2.19729e-07 4.05316e-07 -5.34767e-05
0.000832839 5.6604e-05 3.79778e-07
5.6604e-05 4.78142e-05 -2.7016e-07
3.79778e-07 -2.7016e-07 -3.70119e-05
0.000816667 0.000106178 -9.17818e-08
0.000106178 -2.12581e-05 -7.78394e-08
-9.17818e-08 -7.78394e-08 -0.000129512
0.000655247 -5.42355e-05 2.13857e-06
-5.42355e-05 -1.99627e-05 5.02351e-06
2.13857e-06 5.02351e-06 -4.89424e-05
0.000716052 -5.14503e-05 1.34688e-06
-5.14503e-05 -2.80424e-06 3.93994e-06
1.34688e-06 3.93994e-06 -1.93355e-05
0.000706109 -8.37505e-06 2.12985e-06
-8.37505e-06 -9.21698e-06 2.45421e-06
2.12985e-06 2.45421e-06 -6.65562e-05
0.00110788 8.32073e-05 8.91495e-06
8.32073e-05 -9.181e-07 3.07172e-06
8.91495e-06 3.07172e-06 -9.92371e-05
0.00102912 0.00010125 6.60865e-06
0.00010125 4.86911e-05 3.59364e-06
6.60865e-06 3.59364e-06 -4.61883e-05
0.00129057 0.000120867 4.60142e-06
0.000120867 6.4382e-05 2.15297e-06
4.60142e-06 2.15297e-06 -5.6121e-05
0.000854062 3.98736e-05 2.96476e-06
3.98736e-05 6.70594e-05 2.51271e-06
2.96476e-06 2.51271e-06 -1.1605e-05
0.000916641 0.000112717 1.59655e-06
0.000112717 -1.27342e-05 7.32127e-07
1.59655e-06 7.32127e-07 -0.0001225
0.00108127 0.000116669 2.14455e-06
0.000116669 0.000158603 3.41851e-07
2.14455e-06 3.41851e-07 4.90616e-05
0.00109143 0.000129957 -1.4991e-06
0.000129957 0.000114774 -1.63794e-06
-1.4991e-06 -1.63794e-06 -3.74491e-06
0.00216662 -6.05134e-05 3.12493e-05
-6.05134e-05 0.000789118 3.13557e-06
3.12493e-05 3.13557e-06 0.000801932
0.00224869 -6.81376e-05 8.68007e-07
-6.81376e-05 0.00084152 -9.93133e-08
8.68007e-07 -9.93133e-08 0.000851822
0.00235902 -7.63077e-05 -3.62266e-05
-7.63077e-05 0.000908716 -2.8239e-06
-3.62266e-05 -2.8239e-06 0.000916301
0.000620995 5.32329e-05 1.94297e-06
5.32329e-05 -4.96499e-05 -4.51385e-06
1.94297e-06 -4.51385e-06 -7.36618e-05
0.00273716 8.65838e-05 4.58513e-05
8.65838e-05 0.00111207 -2.88238e-06
4.58513e-05 -2.88238e-06 0.00111679
0.00484873 4.65097e-05 -0.000122637
4.65097e-05 0.00225936 -5.49877e-06
-0.000122637 -5.49877e-06 0.00225522
0.00489113 -1.33546e-05 -0.000117484
-1.33546e-05 0.00227889 -2.74585e-06
-0.000117484 -2.74585e-06 0.00227541
0.000731998 4.1344e-05 -1.41274e-05
4.1344e-05 -7.35136e-05 -3.58728e-06
-1.41274e-05 -3.58728e-06 -0.000129539
0.000724047 1.77179e-05 -1.43765e-05
1.77179e-05 -9.14621e-05 -2.18674e-06
-1.43765e-05 -2.18674e-06 -0.000150884
0.00511209 -5.75936e-05 -0.000122325
-5.75936e-05 0.00239435 -3.44818e-07
-0.000122325 -3.44818e-07 0.00238938
0.00517373 3.10611e-06 -1.10543e-06
3.10611e-06 0.00242493 4.76705e-07
-1.10543e-06 4.76705e-07 0.00242053
0.000726119 -1.99998e-06 -1.51758e-07
-1.99998e-06 -9.94416e-05 -2.75798e-07
-1.51758e-07 -2.75798e-07 -0.000159571
0.0016155 1.31378e-05 2.73495e-05
1.31378e-05 0.000398478 4.74815e-07
2.73495e-05 4.74815e-07 0.000347893
0.00122003 2.37427e-05 1.61894e-07
2.37427e-05 1.25467e-05 -8.76311e-08
1.61894e-07 -8.76311e-08 -8.63546e-05
0.000674576 4.7599e-05 2.0417e-07
4.7599e-05 -9.98114e-05 -9.72214e-08
2.0417e-07 -9.72214e-08 -0.000155526
0.00118335 5.50529e-05 -9.00323e-08
5.50529e-05 1.52106e-05 -3.29915e-08
-9.00323e-08 -3.29915e-08 -8.08337e-05
0.000715531 -1.10162e-05 1.46799e-05
-1.10162e-05 -0.000107154 -2.91678e-07
1.46799e-05 -2.91678e-07 -0.000167534
0.00123747 8.45265e-06 9.67847e-06
8.45265e-06 1.04438e-05 4.07074e-07
9.67847e-06 4.07074e-07 -9.04438e-05
0.0012007 3.64443e-05 9.28057e-06
3.64443e-05 1.53959e-05 1.88564e-06
9.28057e-06 1.88564e-06 -8.11856e-05
0.00147853 2.46419e-05 4.258e-06
2.46419e-05 6.5983e-05 9.26653e-07
4.258e-06 9.26653e-07 -4.85665e-05
0.00115299 6.76838e-05 9.19393e-06
6.76838e-05 4.81756e-06 2.4884e-06
9.19393e-06 2.4884e-06 -9.18017e-05
0.0014559 6.24475e-05 4.1336e-06
6.24475e-05 7.63389e-05 1.01586e-06
4.1336e-06 1.01586e-06 -3.52285e-05
0.00515551 -2.36409e-05 -0.000132598
-2.36409e-05 0.00241538 -7.32822e-07
-0.000132598 -7.32822e-07 0.00241103
0.00128233 -2.30795e-05 -1.53198e-05
-2.30795e-05 0.000333927 1.17516e-06
-1.53198e-05 1.17516e-06 0.000306356
-7.6509e-05 -6.27314e-07 -1.33678e-05
-6.27314e-07 -0.000524773 2.38142e-06
-1.33678e-05 2.38142e-06 -0.000589704
0.0015675 -2.3818e-05 -5.79607e-05
-2.3818e-05 0.000382703 3.0729e-06
-5.79607e-05 3.0729e-06 0.000335493
0.00289364 0.000123621 -1.64689e-05
0.000123621 0.00121938 1.28171e-06
-1.64689e-05 1.28171e-06 0.00121192
0.00174884 -1.1136e-05 -3.49056e-05
-1.1136e-05 0.000570725 4.84811e-06
-3.49056e-05 4.84811e-06 0.000533028
0.00153916 -4.94336e-05 -5.55742e-05
-4.94336e-05 0.000384418 5.90488e-06
-5.55742e-05 5.90488e-06 0.00033538
0.00157683 -7.62298e-05 -1.72039e-05
-7.62298e-05 0.000242764 3.06468e-06
-1.72039e-05 3.06468e-06 0.000152252
0.00192849 -0.000121219 -1.26737e-05
-0.000121219 0.000498896 4.39722e-06
-1.26737e-05 4.39722e-06 0.000407118
0.00181351 -0.000126117 -9.81701e-06
-0.000126117 0.000528302 4.23426e-06
-9.81701e-06 4.23426e-06 0.000438037
0.0011692 -0.000118885 -3.50091e-06
-0.000118885 7.31004e-05 1.49888e-06
-3.50091e-06 1.49888e-06 -4.19971e-05
0.00072069 5.85598e-06 1.50074e-08
5.85598e-06 -0.000100079 -2.84131e-07
1.50074e-08 -2.84131e-07 -0.000159699
0.00151013 -2.06043e-05 -1.8972e-05
-2.06043e-05 0.00035078 1.13765e-07
-1.8972e-05 1.13765e-07 0.000300303
0.00121288 -1.15294e-05 -3.55067e-06
-1.15294e-05 1.64893e-05 7.57705e-08
-3.55067e-06 7.57705e-08 -8.0346e-05
0.00179129 -6.38041e-05 -2.59231e-06
-6.38041e-05 0.000354487 3.58245e-07
-2.59231e-06 3.58245e-07 0.000266711
0.00291174 9.45165e-05 -9.10478e-07
9.45165e-05 0.00121188 -1.9291e-07
-9.10478e-07 -1.9291e-07 0.00121344
0.00113272 2.85489e-05 2.17427e-06
2.85489e-05 0.000239208 3.11754e-07
2.17427e-06 3.11754e-07 0.000201687
0.00112327 -7.95375e-05 3.09504e-07
-7.95375e-05 0.000199874 -1.55388e-07
3.09504e-07 -1.55388e-07 0.000117428
0.00153863 -9.5767e-05 -2.69071e-06
-9.5767e-05 0.000243913 4.31942e-07
-2.69071e-06 4.31942e-07 0.000150304
0.00149755 -8.85963e-05 -2.02083e-06
-8.85963e-05 0.000112981 5.74248e-07
-2.02083e-06 5.74248e-07 3.95845e-06
0.00100436 -0.000117266 -4.94092e-07
-0.000117266 4.56124e-05 -1.70096e-07
-4.94092e-07 -1.70096e-07 -6.99201e-05
0.00149141 -0.000122606 1.31029e-08
-0.000122606 0.000190463 -1.94577e-07
1.31029e-08 -1.94577e-07 7.59867e-05
0.00129713 -0.000133369 8.18765e-08
-0.000133369 9.37899e-05 1.5146e-07
8.18765e-08 1.5146e-07 -3.26375e-05
0.000605626 6.26619e-05 -1.05488e-06
6.26619e-05 -4.8276e-05 -2.03734e-08
-1.05488e-06 -2.03734e-08 -7.96573e-05
0.000728514 2.72614e-05 -1.90824e-07
2.72614e-05 -6.6743e-06 1.98016e-07
-1.90824e-07 1.98016e-07 -6.59923e-05
0.00122062 -5.98598e-06 9.50082e-06
-5.98598e-06 2.93554e-06 -1.41818e-06
9.50082e-06 -1.41818e-06 -9.75943e-05
0.00155909 -3.18688e-05 8.64586e-06
-3.18688e-05 0.000221885 -1.57732e-06
8.64586e-06 -1.57732e-06 0.000131847
0.00188976 -1.84047e-05 2.94005e-06
-1.84047e-05 0.000296111 -7.24399e-07
2.94005e-06 -7.24399e-07 0.000186066
0.00122079 -6.07368e-05 4.83276e-06
-6.07368e-05 -4.28262e-05 -8.86837e-07
4.83276e-06 -8.86837e-07 -0.000152061
0.00159981 -0.000115955 4.16425e-06
-0.000115955 0.000195949 -7.45694e-07
4.16425e-06 -7.45694e-07 8.29266e-05
0.00170739 -9.28924e-05 1.06172e-06
-9.28924e-05 0.000174253 4.15375e-07
1.06172e-06 4.15375e-07 6.29046e-05
0.000551444 5.93586e-05 1.44509e-06
5.93586e-05 -7.47439e-05 -5.64965e-06
1.44509e-06 -5.64965e-06 -0.000111303
0.00144265 -0.000128457 1.74968e-06
-0.000128457 0.000106052 -1.16744e-06
1.74968e-06 -1.16744e-06 -1.82305e-05
0.000670973 -3.6271e-05 2.09592e-06
-3.6271e-05 -3.0194e-05 -1.42317e-06
2.09592e-06 -1.42317e-06 -0.000108706
0.000550139 -9.1253e-05 2.39418e-06
-9.1253e-05 -0.000138508 -2.23351e-06
2.39418e-06 -2.23351e-06 -0.000246953
0.0018252 -0.000169237 1.37646e-06
-0.000169237 0.000443885 -5.72302e-07
1.37646e-06 -5.72302e-07 0.000313011
0.0015958 -0.000151045 -1.99512e-07
-0.000151045 0.000210378 6.8543e-07
-1.99512e-07 6.8543e-07 8.17509e-05
0.000815797 -2.77748e-06 1.42013e-06
-2.77748e-06 4.58581e-05 -2.87427e-06
1.42013e-06 -2.87427e-06 -2.46139e-05
0.000744835 4.07296e-05 9.55612e-07
4.07296e-05 -1.57529e-07 -2.10176e-06
9.55612e-07 -2.10176e-06 -5.13976e-05
0.000836008 -3.19567e-05 3.58446e-07
-3.19567e-05 5.40054e-05 -8.8641e-07
3.58446e-07 -8.8641e-07 -3.31793e-05
0.000635889 6.72971e-05 -1.32305e-05
6.72971e-05 -0.000106747 -6.28831e-06
-1.32305e-05 -6.28831e-06 -0.0001643
0.0026118 -8.59713e-05 -4.33731e-05
-8.59713e-05 0.00105028 -2.73377e-06
-4.33731e-05 -2.73377e-06 0.00105483
0.000617978 -5.32001e-05 -1.93432e-06
-5.32001e-05 -4.66556e-05 -4.1301e-06
-1.93432e-06 -4.1301e-06 -6.81312e-05
0.000534192 7.64174e-05 -1.15595e-05
7.64174e-05 -0.000112317 -7.5486e-06
-1.15595e-05 -7.5486e-06 -0.000167599
0.00104776 9.75366e-05 -7.96915e-06
9.75366e-05 8.0105e-06 -4.17098e-06
-7.96915e-06 -4.17098e-06 -9.02443e-05
0.000546049 -6.40167e-05 -7.12896e-07
-6.40167e-05 -7.39384e-05 -5.79702e-06
-7.12896e-07 -5.79702e-06 -0.00011135
0.00073722 5.22261e-05 -2.65871e-06
5.22261e-05 -4.44318e-06 -2.26916e-06
-2.65871e-06 -2.26916e-06 -8.77297e-05
0.000870024 8.93605e-05 -4.55318e-06
8.93605e-05 9.30363e-06 -1.9074e-06
-4.55318e-06 -1.9074e-06 -7.97878e-05
0.000757909 0.000103092 -2.74206e-06
0.000103092 -5.41896e-05 -1.42161e-07
-2.74206e-06 -1.42161e-07 -0.000162834
0.000612329 -6.4262e-05 9.17985e-07
-6.4262e-05 -4.14171e-05 4.49866e-08
9.17985e-07 4.49866e-08 -7.14603e-05
0.000685336 -4.80533e-05 -1.14815e-07
-4.80533e-05 -1.98016e-05 1.12572e-07
-1.14815e-07 1.12572e-07 -3.56613e-05
0.000726796 -3.77561e-05 1.70544e-07
-3.77561e-05 -7.19914e-07 2.44513e-07
1.70544e-07 2.44513e-07 -5.56574e-05
0.00112394 8.51243e-05 3.02002e-07
8.51243e-05 8.20078e-06 -3.2418e-07
3.02002e-07 -3.2418e-07 -9.03935e-05
0.000986563 9.93921e-05 4.31442e-07
9.93921e-05 2.74284e-05 5.51248e-08
4.31442e-07 5.51248e-08 -6.71261e-05
0.00129051 0.000121801 2.51875e-07
0.000121801 6.46832e-05 6.61229e-08
2.51875e-07 6.61229e-08 -5.60262e-05
0.000808267 3.65505e-05 -7.04626e-08
3.65505e-05 4.42885e-05 -3.77665e-08
-7.04626e-08 -3.77665e-08 -3.39694e-05
0.00107656 0.000120932 -1.27697e-07
0.000120932 7.32033e-05 -1.0635e-07
-1.27697e-07 -1.0635e-07 -3.6914e-05
0.00102275 0.000112962 2.90179e-07
0.000112962 0.000127549 -4.18816e-07
2.90179e-07 -4.18816e-07 1.83062e-05
0.000950789 0.000123847 -8.21034e-07
0.000123847 3.9661e-05 6.74215e-07
-8.21034e-07 6.74215e-07 -7.89404e-05
0.000727995 -4.30208e-05 2.23694e-06
-4.30208e-05 -6.95658e-06 3.42912e-06
2.23694e-06 3.42912e-06 -1.85239e-05
0.000744661 1.15186e-05 2.46065e-06
1.15186e-05 7.06646e-06 2.20356e-06
2.46065e-06 2.20356e-06 -5.97457e-05
0.000718493 -4.58364e-05 3.3294e-07
-4.58364e-05 -8.74678e-06 2.2089e-06
3.3294e-07 2.2089e-06 -5.37162e-05
0.000844471 2.41938e-05 5.19688e-07
2.41938e-05 6.47682e-05 7.67502e-07
5.19688e-07 7.67502e-07 -1.66083e-05
0.00134184 0.000101902 5.51141e-06
0.000101902 4.50039e-05 1.22565e-06
5.51141e-06 1.22565e-06 -7.29887e-05
0.00121906 0.000127909 3.39237e-06
0.000127909 9.26333e-05 2.32716e-06
3.39237e-06 2.32716e-06 -2.41844e-05
0.00142316 0.000132826 2.22263e-06
0.000132826 8.53432e-05 1.94993e-06
2.22263e-06 1.94993e-06 -4.53051e-05
0.00108155 8.5215e-05 2.107e-06
8.5215e-05 0.000176629 1.50935e-06
2.107e-06 1.50935e-06 7.5854e-05
0.0012178 0.000136828 -4.60449e-07
0.000136828 0.000119372 5.32132e-07
-4.60449e-07 5.32132e-07 8.95274e-07
0.00106585 0.000128566 3.79958e-07
0.000128566 0.00015081 -1.60104e-06
3.79958e-07 -1.60104e-06 2.2866e-05
0.000726166 0.000115184 -1.00127e-07
0.000115184 -0.00010317 -1.19965e-06
-1.00127e-07 -1.19965e-06 -0.000224712
0.000789126 -2.27349e-05 1.1683e-06
-2.27349e-05 5.43674e-06 1.64378e-06
1.1683e-06 1.64378e-06 -2.37253e-05
0.000730776 -3.28587e-05 1.58073e-06
-3.28587e-05 -2.11486e-05 3.32642e-06
1.58073e-06 3.32642e-06 -2.70133e-05
0.00209422 -5.34218e-05 2.70561e-05
-5.34218e-05 0.000740796 3.33537e-06
2.70561e-05 3.33537e-06 0.000756044
0.0021366 -6.03413e-05 1.08349e-06
-6.03413e-05 0.000771637 -9.91969e-08
1.08349e-06 -9.91969e-08 0.000784735
0.00219212 -6.74095e-05 -3.19803e-05
-6.74095e-05 0.000810028 -2.98517e-06
-3.19803e-05 -2.98517e-06 0.000820741
0.000656982 4.42429e-05 2.45051e-06
4.42429e-05 -3.99608e-05 -3.99527e-06
2.45051e-06 -3.99527e-06 -5.8753e-05
0.00254946 7.81061e-05 3.96441e-05
7.81061e-05 0.00100617 -3.05253e-06
3.96441e-05 -3.05253e-06 0.00101336
0.000643097 5.86667e-05 -1.3706e-07
5.86667e-05 -3.58131e-05 7.93489e-08
-1.3706e-07 7.93489e-08 -6.10972e-05
0.00275869 8.52042e-05 -1.00097e-06
8.52042e-05 0.00112337 -1.45888e-07
-1.00097e-06 -1.45888e-07 0.00112813
0.000689092 5.21103e-05 -1.37165e-05
5.21103e-05 -9.19565e-05 -4.74255e-06
-1.37165e-05 -4.74255e-06 -0.000148151
0.00073016 2.97502e-05 -1.40509e-05
2.97502e-05 -7.93045e-05 -2.90887e-06
-1.40509e-05 -2.90887e-06 -0.000137065
0.00116749 5.59905e-05 -9.04584e-06
5.59905e-05 7.43249e-06 -2.14652e-06
-9.04584e-06 -2.14652e-06 -8.88173e-05
0.00122044 2.55589e-05 -9.39396e-06
2.55589e-05 1.31713e-05 -1.66011e-06
-9.39396e-06 -1.66011e-06 -8.57594e-05
0.000740462 2.12955e-06 -1.47773e-05
2.12955e-06 -9.17227e-05 -1.16056e-06
-1.47773e-05 -1.16056e-06 -0.000151628
0.00518825 -5.56716e-05 -0.000129407
-5.56716e-05 0.00243241 9.49728e-07
-0.000129407 9.49728e-07 0.00242831
0.000735776 -1.51845e-06 1.06544e-07
-1.51845e-06 -9.6956e-05 -2.50493e-07
1.06544e-07 -2.50493e-07 -0.000157153
0.00124279 1.25341e-05 2.96676e-08
1.25341e-05 1.34335e-05 -3.34551e-07
2.96676e-08 -3.34551e-07 -8.7456e-05
0.00119301 3.70175e-05 -1.25116e-08
3.70175e-05 1.20479e-05 -3.55433e-08
-1.25116e-08 -3.55433e-08 -8.46733e-05
0.00149623 2.44112e-05 5.54839e-08
2.44112e-05 7.50162e-05 -2.04173e-08
5.54839e-08 -2.04173e-08 -3.95474e-05
0.00116207 7.01943e-05 3.83315e-08
7.01943e-05 1.03064e-05 -1.39782e-07
3.83315e-08 -1.39782e-07 -8.67325e-05
0.00145383 6.47065e-05 -2.38329e-08
6.47065e-05 7.56708e-05 8.82919e-08
-2.38329e-08 8.82919e-08 -3.6067e-05
0.00124809 -7.05805e-07 9.67716e-06
-7.05805e-07 1.36696e-05 -2.90318e-07
9.67716e-06 -2.90318e-07 -8.75411e-05
0.0015044 1.60761e-05 4.29903e-06
1.60761e-05 6.78899e-05 1.56909e-07
4.29903e-06 1.56909e-07 -4.84917e-05
0.00147281 4.33022e-05 4.23156e-06
4.33022e-05 7.61732e-05 9.77477e-07
4.23156e-06 9.77477e-07 -3.63389e-05
0.00162311 2.27331e-05 1.1895e-06
2.27331e-05 9.82799e-05 4.22131e-07
1.1895e-06 4.22131e-07 -1.72508e-05
0.0014114 8.28281e-05 4.2232e-06
8.28281e-05 6.05377e-05 7.52714e-07
4.2232e-06 7.52714e-07 -5.29508e-05
0.00160268 6.82516e-05 1.22723e-06
6.82516e-05 0.000106303 4.85853e-07
1.22723e-06 4.85853e-07 -7.84015e-06
0.000728223 9.36459e-06 -1.40978e-05
9.36459e-06 -9.69786e-05 5.96873e-07
-1.40978e-05 5.96873e-07 -0.000156672
0.00158408 -6.99051e-06 -5.94971e-05
-6.99051e-06 0.000387873 2.1757e-06
-5.94971e-05 2.1757e-06 0.000339529
0.00079725 -8.66401e-06 -9.96999e-06
-8.66401e-06 -0.000207777 1.91435e-06
-9.96999e-06 1.91435e-06 -0.000307517
0.0020106 -6.48312e-05 -1.51193e-05
-6.48312e-05 0.000472122 2.19265e-06
-1.51193e-05 2.19265e-06 0.000385997
0.00291877 9.28045e-05 -5.64685e-05
9.28045e-05 0.00121666 2.9493e-06
-5.64685e-05 2.9493e-06 0.00121805
0.00169714 2.60618e-05 -2.92254e-05
2.60618e-05 0.000544104 3.65088e-06
-2.92254e-05 3.65088e-06 0.000510141
0.00159266 -9.7598e-05 -6.61863e-06
-9.7598e-05 0.000448701 2.65423e-06
-6.61863e-06 2.65423e-06 0.00036559
0.00152947 -9.45777e-05 -1.42709e-05
-9.45777e-05 0.000240718 3.86211e-06
-1.42709e-05 3.86211e-06 0.000146985
0.00119083 -8.03199e-05 -5.97924e-06
-8.03199e-05 -5.45004e-05 8.52714e-07
-5.97924e-06 8.52714e-07 -0.000164635
0.00174023 -0.000129965 -5.15805e-06
-0.000129965 0.000323324 1.70129e-06
-5.15805e-06 1.70129e-06 0.000209572
0.000724579 -0.000102596 -2.94079e-06
-0.000102596 -0.00010156 1.28093e-06
-2.94079e-06 1.28093e-06 -0.000216101
0.00128383 -0.000132016 -1.30471e-06
-0.000132016 8.68102e-05 9.61882e-07
-1.30471e-06 9.61882e-07 -3.92779e-05
0.000638284 5.26581e-05 -2.3608e-06
5.26581e-05 -3.17502e-05 5.21469e-06
-2.3608e-06 5.21469e-06 -6.21878e-05
0.000709606 1.26034e-05 -1.70145e-06
1.26034e-05 -1.78188e-05 2.48299e-06
-1.70145e-06 2.48299e-06 -7.73564e-05
0.00103321 -2.10313e-06 -4.28762e-07
-2.10313e-06 -9.69805e-05 -3.04419e-07
-4.28762e-07 -3.04419e-07 -0.000198647
0.00158483 -3.37553e-05 -2.92219e-06
-3.37553e-05 0.000234667 2.30769e-07
-2.92219e-06 2.30769e-07 0.000144672
0.00178106 -1.53529e-05 -2.08099e-06
-1.53529e-05 0.000236103 4.44666e-07
-2.08099e-06 4.44666e-07 0.000125477
0.00155269 -6.58592e-05 1.0902e-06
-6.58592e-05 0.000135905 -2.46424e-07
1.0902e-06 -2.46424e-07 2.85427e-05
0.000600593 4.6416e-05 8.17155e-08
4.6416e-05 -5.13517e-05 1.2202e-07
8.17155e-08 1.2202e-07 -8.63259e-05
0.000813733 -4.72352e-05 -2.20391e-07
-4.72352e-05 4.62515e-05 -1.94775e-08
-2.20391e-07 -1.94775e-08 -3.3623e-05
0.000706652 -9.95394e-05 8.96777e-07
-9.95394e-05 -5.3292e-05 -7.94392e-07
8.96777e-07 -7.94392e-07 -0.0001608
0.00172708 -0.000118491 -1.01459e-06
-0.000118491 0.000263984 2.24121e-07
-1.01459e-06 2.24121e-07 0.000150823
0.00157004 -8.81301e-05 -6.53814e-07
-8.81301e-05 9.81969e-05 4.63672e-07
-6.53814e-07 4.63672e-07 -1.3164e-05
0.00145069 -0.000150325 -1.23906e-06
-0.000150325 0.000243965 6.23533e-07
-1.23906e-06 6.23533e-07 0.000112871
0.00141212 -0.000126774 -8.37438e-08
-0.000126774 8.98929e-05 -2.70654e-07
-8.37438e-08 -2.70654e-07 -3.41746e-05
0.00138364 -0.000141393 4.57623e-07
-0.000141393 9.96625e-05 6.72117e-07
4.57623e-07 6.72117e-07 -2.81409e-05
0.000765065 -6.44017e-06 -2.49032e-07
-6.44017e-06 1.77232e-05 -1.12805e-07
-2.49032e-07 -1.12805e-07 -5.26936e-05
0.000786631 -6.01293e-06 -5.58313e-07
-6.01293e-06 2.23982e-05 -2.67179e-07
-5.58313e-07 -2.67179e-07 -6.10545e-05
0.000737625 3.2846e-05 4.65812e-07
3.2846e-05 -5.41215e-06 2.6565e-07
4.65812e-07 2.6565e-07 -5.60666e-05
0.0019146 -4.68226e-07 2.99893e-06
-4.68226e-07 0.000293605 -5.72684e-07
2.99893e-06 -5.72684e-07 0.000181112
0.0016185 -3.78116e-05 3.70083e-06
-3.78116e-05 0.000164392 -7.34692e-07
3.70083e-06 -7.34692e-07 5.6227e-05
0.00181147 -1.4402e-05 9.77116e-07
-1.4402e-05 0.000204999 -1.32123e-07
9.77116e-07 -1.32123e-07 9.01415e-05
0.0015745 -5.99698e-05 1.50601e-06
-5.99698e-05 9.5857e-05 -7.06414e-07
1.50601e-06 -7.06414e-07 -1.55508e-05
0.00147075 -0.000114489 2.56267e-06
-0.000114489 6.3658e-05 -1.07733e-07
2.56267e-06 -1.07733e-07 -5.57273e-05
0.00179124 -8.61337e-05 -6.67273e-07
-8.61337e-05 0.000181784 7.65157e-07
-6.67273e-07 7.65157e-07 7.24619e-05
0.00076484 -2.37573e-05 2.2721e-06
-2.37573e-05 2.33271e-05 -2.06447e-06
2.2721e-06 -2.06447e-06 -5.43517e-05
0.00142012 -0.000130282 -7.74e-07
-0.000130282 5.08075e-05 -6.57261e-07
-7.74e-07 -6.57261e-07 -7.14747e-05
0.000892352 -0.000102447 1.20958e-06
-0.000102447 6.97136e-05 -2.51384e-07
1.20958e-06 -2.51384e-07 -2.91841e-05
0.000701025 -0.000112486 2.33693e-06
-0.000112486 -7.75985e-05 -2.92074e-06
2.33693e-06 -2.92074e-06 -0.000204039
0.00162698 -0.000167274 1.72852e-06
-0.000167274 0.000303496 4.6359e-07
1.72852e-06 4.6359e-07 0.00016424
0.00193551 -0.000168745 -2.75791e-06
-0.000168745 0.000364149 2.29281e-06
-2.75791e-06 2.29281e-06 0.000240682
0.000760477 2.98388e-05 1.24646e-06
2.98388e-05 2.04319e-06 -1.87364e-06
1.24646e-06 -1.87364e-06 -4.2359e-05
0.000869446 -5.02534e-05 1.07998e-06
-5.02534e-05 6.37261e-05 -1.45622e-07
1.07998e-06 -1.45622e-07 -2.42176e-05
0.000756487 2.73639e-06 4.21464e-07
2.73639e-06 6.78575e-06 -1.42439e-06
4.21464e-07 -1.42439e-06 -7.117e-05
0.000956089 -9.25223e-05 -3.01341e-07
-9.25223e-05 0.000122413 8.71629e-07
-3.01341e-07 8.71629e-07 2.51201e-05
0.00113758 8.73385e-05 -9.20754e-06
8.73385e-05 1.60007e-05 -3.73806e-06
-9.20754e-06 -3.73806e-06 -8.28946e-05
0.000653544 -4.54458e-05 -2.44288e-06
-4.54458e-05 -3.70961e-05 -3.53817e-06
-2.44288e-06 -3.53817e-06 -5.24342e-05
0.000563769 -6.49802e-05 -7.58831e-07
-6.49802e-05 -6.82521e-05 -5.06435e-06
-7.58831e-07 -5.06435e-06 -9.79313e-05
0.00074775 -5.21585e-05 6.52189e-09
-5.21585e-05 1.22254e-05 -2.58304e-06
6.52189e-09 -2.58304e-06 -4.34914e-05
0.000938026 9.72819e-05 -5.71289e-06
9.72819e-05 3.30931e-06 -3.54859e-06
-5.71289e-06 -3.54859e-06 -9.09514e-05
0.00129991 0.0001229 -4.42366e-06
0.0001229 6.98528e-05 -2.09404e-06
-4.42366e-06 -2.09404e-06 -5.10447e-05
0.000748623 2.9243e-05 -2.12564e-06
2.9243e-05 1.48432e-05 -2.23228e-06
-2.12564e-06 -2.23228e-06 -6.34159e-05
0.000982742 0.000110282 -2.35711e-06
0.000110282 0.000106352 -1.56583e-06
-2.35711e-06 -1.56583e-06 -2.70805e-06
0.00122645 0.000128717 -2.01127e-06
0.000128717 0.00015398 -9.36855e-07
-2.01127e-06 -9.36855e-07 4.35297e-05
0.000786328 0.000116406 -1.90395e-06
0.000116406 -4.79931e-05 1.05136e-06
-1.90395e-06 1.05136e-06 -0.000166554
0.00070012 -4.15835e-05 8.5462e-08
-4.15835e-05 -2.1822e-05 3.24376e-08
8.5462e-08 3.24376e-08 -3.31819e-05
0.000766858 1.00005e-05 9.74713e-08
1.00005e-05 2.29701e-05 -4.2653e-08
9.74713e-08 -4.2653e-08 -4.58442e-05
0.000732598 -4.87816e-05 -1.92394e-07
-4.87816e-05 -1.10302e-06 3.054e-07
-1.92394e-07 3.054e-07 -4.60973e-05
0.000850821 9.40761e-06 3.07364e-07
9.40761e-06 6.72092e-05 -2.07069e-07
3.07364e-07 -2.07069e-07 -1.30416e-05
0.00138162 0.000103949 1.07214e-06
0.000103949 6.52641e-05 6.31723e-08
1.07214e-06 6.31723e-08 -5.30169e-05
0.00117528 0.000126747 7.11194e-08
0.000126747 7.1193e-05 5.33336e-08
7.11194e-08 5.33336e-08 -4.56101e-05
0.00142915 0.000133156 6.78908e-08
0.000133156 8.89916e-05 5.51188e-07
6.78908e-08 5.51188e-07 -4.17781e-05
0.000990635 8.63253e-05 3.50753e-07
8.63253e-05 0.000128548 3.2038e-07
3.50753e-07 3.2038e-07 2.89448e-05
0.00140235 0.000145983 -6.75192e-07
0.000145983 0.000218869 -1.30818e-06
-6.75192e-07 -1.30818e-06 0.000100083
0.00108172 0.000129885 3.57198e-07
0.000129885 0.000158611 -1.01754e-06
3.57198e-07 -1.01754e-06 2.99623e-05
0.000866624 0.00012266 -1.81624e-06
0.00012266 -2.47316e-05 -5.55155e-08
-1.81624e-06 -5.55155e-08 -0.000143358
0.000732408 -3.77861e-05 1.95221e-06
-3.77861e-05 -1.30702e-05 3.34204e-06
1.95221e-06 3.34204e-06 -2.13929e-05
0.000749354 -4.30007e-05 6.9529e-07
-4.30007e-05 4.97476e-07 1.82985e-06
6.9529e-07 1.82985e-06 -3.73813e-05
0.000976793 4.50614e-05 1.42731e-06
4.50614e-05 0.000128023 7.04986e-07
1.42731e-06 7.04986e-07 3.81593e-05
0.000811269 9.01966e-06 3.46027e-07
9.01966e-06 4.07604e-05 1.23409e-06
3.46027e-07 1.23409e-06 -2.77478e-05
0.000903095 7.24461e-05 7.78986e-07
7.24461e-05 0.00010693 -6.42424e-08
7.78986e-07 -6.42424e-08 1.0504e-05
0.00147122 0.000107027 3.49464e-06
0.000107027 6.10692e-05 8.13091e-08
3.49464e-06 8.13091e-08 -6.30779e-05
0.00130166 0.000140567 8.35563e-07
0.000140567 9.63282e-05 2.65741e-06
8.35563e-07 2.65741e-06 -3.05099e-05
0.00158376 0.00014339 -3.237e-07
0.00014339 0.000138528 1.69098e-06
-3.237e-07 1.69098e-06 5.58661e-06
0.00114152 0.000126903 2.83903e-06
0.000126903 0.000221292 3.07855e-06
2.83903e-06 3.07855e-06 9.75258e-05
0.00123574 0.00014531 1.16297e-06
0.00014531 0.000107936 9.01897e-07
1.16297e-06 9.01897e-07 -1.35154e-05
0.000279221 9.13658e-05 1.74013e-06
9.13658e-05 -0.000295228 -2.2868e-06
1.74013e-06 -2.2868e-06 -0.000431439
0.00078245 -2.71041e-05 1.34949e-06
-2.71041e-05 5.91221e-06 1.59761e-06
1.34949e-06 1.59761e-06 -2.49639e-05
0.000798687 1.72979e-06 4.07675e-07
1.72979e-06 2.23688e-05 6.39488e-07
4.07675e-07 6.39488e-07 -2.6513e-05
0.000800413 -1.67856e-05 8.39302e-07
-1.67856e-05 7.8851e-06 1.73346e-06
8.39302e-07 1.73346e-06 -2.00944e-05
0.000789497 -2.1636e-05 1.3699e-07
-2.1636e-05 6.11934e-06 -1.20314e-09
1.3699e-07 -1.20314e-09 -2.31434e-05
0.00126558 -3.51284e-05 1.75409e-06
-3.51284e-05 0.000265808 2.02635e-06
1.75409e-06 2.02635e-06 0.000264909
0.000996894 -3.59548e-05 7.86902e-07
-3.59548e-05 0.000124888 -2.20722e-08
7.86902e-07 -2.20722e-08 0.000120573
0.000973422 -3.15388e-05 2.21785e-05
-3.15388e-05 0.000116816 6.10895e-06
2.21785e-05 6.10895e-06 0.000128575
0.00207899 -5.325e-05 1.19716e-06
-5.325e-05 0.000731266 -9.17626e-08
1.19716e-06 -9.17626e-08 0.000746775
0.00211065 -5.99994e-05 -2.8376e-05
-5.99994e-05 0.000756294 -3.17569e-06
-2.8376e-05 -3.17569e-06 0.000769716
0.000674316 3.89269e-05 2.27912e-06
3.89269e-05 -3.8869e-05 -3.80838e-06
2.27912e-06 -3.80838e-06 -5.40738e-05
0.00242127 7.02203e-05 3.50323e-05
7.02203e-05 0.000929871 -3.27271e-06
3.50323e-05 -3.27271e-06 0.000939508
0.000676088 4.68438e-05 2.22082e-08
4.68438e-05 -2.90449e-05 4.34592e-08
2.22082e-08 4.34592e-08 -4.8369e-05
0.00260078 7.76744e-05 -1.15217e-06
7.76744e-05 0.00103363 -1.28407e-07
-1.15217e-06 -1.28407e-07 0.00104079
0.000664773 6.16995e-05 3.38594e-07
6.16995e-05 -2.27978e-05 5.12838e-06
3.38594e-07 5.12838e-06 -4.8997e-05
0.00280533 8.43587e-05 -5.20751e-05
8.43587e-05 0.00114834 3.09113e-06
-5.20751e-05 3.09113e-06 0.00115301
0.00117516 7.27963e-05 -9.44549e-06
7.27963e-05 1.76993e-05 -2.70555e-06
-9.44549e-06 -2.70555e-06 -7.97223e-05
0.00119773 4.05131e-05 -9.01203e-06
4.05131e-05 1.51855e-05 -1.90121e-06
-9.01203e-06 -1.90121e-06 -8.17541e-05
0.00144309 6.30793e-05 -4.10772e-06
6.30793e-05 7.0501e-05 -8.14895e-07
-4.10772e-06 -8.14895e-07 -4.12117e-05
0.00151566 2.44569e-05 -4.3908e-06
2.44569e-05 8.49321e-05 -9.47204e-07
-4.3908e-06 -9.47204e-07 -2.96469e-05
0.00124472 1.5266e-05 -9.75235e-06
1.5266e-05 1.47057e-05 -1.10657e-06
-9.75235e-06 -1.10657e-06 -8.62169e-05
0.000729658 7.84991e-06 -1.46231e-05
7.84991e-06 -9.98208e-05 -2.11864e-07
-1.46231e-05 -2.11864e-07 -0.000160155
0.00124388 1.26342e-06 1.55587e-08
1.26342e-06 1.13272e-05 -1.04928e-07
1.55587e-08 -1.04928e-07 -8.99269e-05
0.00151443 1.78565e-05 -5.05856e-08
1.78565e-05 7.31269e-05 -2.90692e-07
-5.05856e-08 -2.90692e-07 -4.32731e-05
0.00147186 4.06106e-05 1.0194e-07
4.06106e-05 7.60844e-05 -2.51212e-08
1.0194e-07 -2.51212e-08 -3.63861e-05
0.0016011 2.27256e-05 -9.88854e-08
2.27256e-05 8.4855e-05 9.57081e-08
-9.88854e-08 9.57081e-08 -3.05126e-05
0.00142615 8.36115e-05 -1.82034e-07
8.36115e-05 6.76798e-05 6.82679e-08
-1.82034e-07 6.82679e-08 -4.59098e-05
0.00158517 6.73415e-05 -6.39498e-09
6.73415e-05 9.73914e-05 1.31874e-07
-6.39498e-09 1.31874e-07 -1.67576e-05
0.00151754 6.09975e-06 4.56512e-06
6.09975e-06 7.21375e-05 -1.79668e-07
4.56512e-06 -1.79668e-07 -4.44361e-05
0.00160355 1.78586e-05 8.02174e-07
1.78586e-05 6.98247e-05 2.93225e-07
8.02174e-07 2.93225e-07 -4.71119e-05
0.00159062 4.45228e-05 1.2928e-06
4.45228e-05 9.07328e-05 2.3055e-07
1.2928e-06 2.3055e-07 -2.41233e-05
0.00176732 2.23458e-05 8.17744e-08
2.23458e-05 0.000138726 1.10826e-07
8.17744e-08 1.10826e-07 2.82213e-05
0.00155993 8.41118e-05 1.2927e-06
8.41118e-05 8.85485e-05 -1.30756e-08
1.2927e-06 -1.30756e-08 -2.75373e-05
0.00167195 5.92961e-05 -1.59796e-06
5.92961e-05 0.000108694 1.74561e-07
-1.59796e-06 1.74561e-07 1.91968e-07
0.000837614 -2.00517e-07 -9.43204e-06
-2.00517e-07 -0.000201007 6.54809e-07
-9.43204e-06 6.54809e-07 -0.000303863
0.00161601 -3.74242e-05 -1.45675e-05
-3.74242e-05 0.00025017 1.99014e-06
-1.45675e-05 1.99014e-06 0.000160237
0.00166363 -8.8164e-06 -6.7893e-06
-8.8164e-06 0.000171864 1.4702e-06
-6.7893e-06 1.4702e-06 6.06936e-05
0.00188797 -7.12136e-05 -4.36868e-06
-7.12136e-05 0.000316469 5.99431e-07
-4.36868e-06 5.99431e-07 0.000210964
0.000650769 3.84395e-05 -4.28157e-06
3.84395e-05 -2.41582e-05 5.09699e-06
-4.28157e-06 5.09699e-06 -5.9592e-05
0.000892928 -5.42083e-05 -3.48277e-06
-5.42083e-05 8.85771e-05 1.93455e-06
-3.48277e-06 1.93455e-06 8.11354e-06
0.000875351 -0.000108758 -7.92492e-07
-0.000108758 3.81699e-05 4.69741e-07
-7.92492e-07 4.69741e-07 -6.84848e-05
0.00185651 -0.000121104 -6.09249e-06
-0.000121104 0.000333221 1.52982e-06
-6.09249e-06 1.52982e-06 0.000219911
0.0014365 -8.33963e-05 -2.04985e-06
-8.33963e-05 2.40651e-05 1.52968e-07
-2.04985e-06 1.52968e-07 -8.7297e-05
0.00138015 -0.000125035 -2.04745e-06
-0.000125035 7.29751e-05 6.60736e-07
-2.04745e-06 6.60736e-07 -5.08744e-05
0.0010747 -0.00013138 -2.3413e-06
-0.00013138 4.33481e-05 1.64757e-06
-2.3413e-06 1.64757e-06 -8.79791e-05
0.00116695 -0.000131428 1.30962e-06
-0.000131428 -1.34185e-05 9.74521e-08
1.30962e-06 9.74521e-08 -0.000140365
0.000723727 -8.68779e-06 -2.41687e-06
-8.68779e-06 -6.63e-06 2.28561e-06
-2.41687e-06 2.28561e-06 -7.60951e-05
0.000758948 1.4018e-06 -1.05208e-06
1.4018e-06 6.99597e-06 3.95938e-07
-1.05208e-06 3.95938e-07 -7.60072e-05
0.000729143 2.5661e-05 -8.65012e-07
2.5661e-05 -1.10234e-05 2.27004e-06
-8.65012e-07 2.27004e-06 -6.12893e-05
0.00171191 4.97037e-07 -2.07396e-06
4.97037e-07 0.000183329 1.14837e-07
-2.07396e-06 1.14837e-07 6.90552e-05
0.00163944 -4.25431e-05 -1.05398e-06
-4.25431e-05 0.000174873 7.71053e-08
-1.05398e-06 7.71053e-08 6.65913e-05
0.00164754 -1.14858e-05 -7.28873e-07
-1.14858e-05 0.000116264 4.12879e-07
-7.28873e-07 4.12879e-07 1.25464e-06
0.00169984 -5.9566e-05 -2.64357e-08
-5.9566e-05 0.000161939 -2.08215e-07
-2.64357e-08 -2.08215e-07 5.09808e-05
0.000789263 -2.96564e-05 1.23947e-07
-2.96564e-05 3.45306e-05 -2.34903e-07
1.23947e-07 -2.34903e-07 -4.2688e-05
0.0009983 -0.000109048 -2.27609e-07
-0.000109048 0.000124301 3.77368e-07
-2.27609e-07 3.77368e-07 2.46089e-05
0.000809911 -0.000116724 6.8809e-07
-0.000116724 -1.52294e-05 -1.1865e-06
6.8809e-07 -1.1865e-06 -0.000140077
0.00161785 -0.000118494 4.46335e-07
-0.000118494 0.000145447 -3.28228e-07
4.46335e-07 -3.28228e-07 2.63138e-05
0.00165967 -8.24519e-05 -6.63629e-08
-8.24519e-05 0.000111352 1.31668e-07
-6.63629e-08 1.31668e-07 2.30266e-06
0.0013246 -0.000152555 -1.40626e-07
-0.000152555 0.000145879 4.40098e-07
-1.40626e-07 4.40098e-07 6.02803e-06
0.00148451 -0.000131205 -2.35305e-07
-0.000131205 8.35577e-05 -1.33049e-07
-2.35305e-07 -1.33049e-07 -3.8538e-05
0.00170725 -0.000158922 1.19718e-06
-0.000158922 0.000242242 1.17112e-06
1.19718e-06 1.17112e-06 0.000120516
0.000920207 -5.58413e-05 -2.84515e-07
-5.58413e-05 9.30088e-05 -1.82383e-07
-2.84515e-07 -1.82383e-07 3.85309e-06
0.000932579 -9.26122e-05 -3.13422e-07
-9.26122e-05 0.000110169 3.7798e-07
-3.13422e-07 3.7798e-07 1.14262e-05
0.000759026 2.41773e-05 1.62759e-07
2.41773e-05 1.0737e-06 8.78148e-08
1.62759e-07 8.78148e-08 -4.3206e-05
0.000739111 2.33932e-05 -1.50416e-07
2.33932e-05 -6.22013e-06 -4.97235e-07
-1.50416e-07 -4.97235e-07 -8.05504e-05
0.00165128 -1.35018e-06 1.639e-06
-1.35018e-06 0.000106173 -6.22102e-07
1.639e-06 -6.22102e-07 -1.10203e-05
0.00177304 -3.71483e-05 9.91623e-07
-3.71483e-05 0.000195988 1.21011e-07
9.91623e-07 1.21011e-07 8.34813e-05
0.00173673 -1.4177e-05 3.94096e-07
-1.4177e-05 0.000132291 1.98239e-08
3.94096e-07 1.98239e-08 1.97291e-05
0.00163609 -5.37876e-05 -5.29726e-07
-5.37876e-05 9.24095e-05 -2.52193e-07
-5.29726e-07 -2.52193e-07 -1.45465e-05
0.00153682 -0.000111523 -9.76465e-07
-0.000111523 5.47519e-05 2.49317e-07
-9.76465e-07 2.49317e-07 -6.11759e-05
0.00165532 -7.6422e-05 3.28999e-07
-7.6422e-05 8.77881e-05 5.36311e-07
3.28999e-07 5.36311e-07 -1.77449e-05
0.00089079 -9.80689e-05 1.26799e-06
-9.80689e-05 7.44852e-05 2.03802e-07
1.26799e-06 2.03802e-07 -1.8489e-05
0.00149794 -0.000134102 -3.44986e-06
-0.000134102 6.18085e-05 -3.24928e-07
-3.44986e-06 -3.24928e-07 -5.12483e-05
0.000592259 -9.80663e-05 -1.63619e-07
-9.80663e-05 -8.97763e-05 -1.69716e-06
-1.63619e-07 -1.69716e-06 -0.000202912
0.00113531 -0.000143973 2.62134e-06
-0.000143973 0.000132601 -1.99322e-06
2.62134e-06 -1.99322e-06 -9.95036e-06
0.00142638 -0.000166047 1.52167e-06
-0.000166047 0.000174852 2.78505e-06
1.52167e-06 2.78505e-06 3.11601e-05
0.00211489 -0.000180403 -3.30025e-07
-0.000180403 0.000426544 8.30056e-07
-3.30025e-07 8.30056e-07 0.000304778
0.000770919 1.96101e-05 1.66042e-06
1.96101e-05 3.47177e-06 -1.83774e-06
1.66042e-06 -1.83774e-06 -3.72045e-05
0.000715932 8.91007e-06 3.83357e-07
8.91007e-06 -1.53213e-05 -1.32535e-06
3.83357e-07 -1.32535e-06 -8.67641e-05
0.000932309 -0.000109978 1.83398e-07
-0.000109978 0.000106244 1.13703e-06
1.83398e-07 1.13703e-06 4.97605e-06
0.000944522 -6.72416e-05 9.20566e-07
-6.72416e-05 0.000114202 -1.75758e-07
9.20566e-07 -1.75758e-07 2.50517e-05
0.000927293 -0.000109459 -7.75464e-07
-0.000109459 0.000110866 1.81623e-06
-7.75464e-07 1.81623e-06 6.97648e-06
0.000674685 -4.03766e-05 -2.23882e-06
-4.03766e-05 -3.53125e-05 -3.40363e-06
-2.23882e-06 -3.40363e-06 -4.64988e-05
0.0014045 0.000105421 -3.6382e-06
0.000105421 7.68061e-05 -1.16589e-06
-3.6382e-06 -1.16589e-06 -4.17677e-05
0.000740888 -5.135e-05 -6.38543e-07
-5.135e-05 3.48571e-06 -1.83971e-06
-6.38543e-07 -1.83971e-06 -4.1585e-05
0.000805435 -8.15941e-06 -5.1173e-07
-8.15941e-06 4.37494e-05 -2.60451e-06
-5.1173e-07 -2.60451e-06 -2.4165e-05
0.00086157 -4.47751e-06 4.47312e-07
-4.47751e-06 7.18156e-05 -9.9723e-07
4.47312e-07 -9.9723e-07 -7.20252e-06
0.00115631 0.000126782 -3.40652e-06
0.000126782 6.27272e-05 -2.28073e-06
-3.40652e-06 -2.28073e-06 -5.41391e-05
0.00143073 0.000133324 -1.93406e-06
0.000133324 9.038e-05 -8.57199e-07
-1.93406e-06 -8.57199e-07 -4.05155e-05
0.000910083 9.87331e-05 -1.46357e-06
9.87331e-05 8.86004e-05 -7.96873e-07
-1.46357e-06 -7.96873e-07 -1.17767e-05
0.00112847 0.000133107 -2.08218e-06
0.000133107 0.000183275 -1.47702e-06
-2.08218e-06 -1.47702e-06 5.35869e-05
0.00159384 0.000155446 -1.48215e-06
0.000155446 0.000321935 -2.28109e-06
-1.48215e-06 -2.28109e-06 0.000202828
0.00103614 0.000131556 -3.42516e-06
0.000131556 6.92988e-05 1.99841e-06
-3.42516e-06 1.99841e-06 -4.65728e-05
0.000709612 -3.68239e-05 8.29634e-08
-3.68239e-05 -2.51907e-05 2.70762e-08
8.29634e-08 2.70762e-08 -3.33973e-05
0.000755491 -4.27784e-05 -1.79934e-07
-4.27784e-05 3.60455e-06 9.17212e-08
-1.79934e-07 9.17212e-08 -3.41452e-05
0.000929027 5.11309e-05 5.01304e-07
5.11309e-05 0.000103456 -7.67592e-08
5.01304e-07 -7.67592e-08 1.3322e-05
0.000820025 -1.47022e-05 -1.58137e-07
-1.47022e-05 4.40353e-05 1.32021e-07
-1.58137e-07 1.32021e-07 -2.30636e-05
0.000868552 5.57601e-05 5.32825e-07
5.57601e-05 8.57947e-05 -2.36752e-07
5.32825e-07 -2.36752e-07 -9.94968e-06
0.00150998 0.000108753 1.30655e-06
0.000108753 8.0948e-05 1.25321e-07
1.30655e-06 1.25321e-07 -4.35037e-05
0.00128933 0.000140832 7.50722e-09
0.000140832 9.08049e-05 3.89292e-07
7.50722e-09 3.89292e-07 -3.6095e-05
0.00151304 0.000142069 9.83153e-07
0.000142069 0.000102356 9.14503e-07
9.83153e-07 9.14503e-07 -3.10942e-05
0.00102404 0.000120075 1.06657e-06
0.000120075 0.000160562 1.2481e-06
1.06657e-06 1.2481e-06 3.74074e-05
0.00139109 0.000152174 1.02399e-06
0.000152174 0.000191992 -1.31135e-06
1.02399e-06 -1.31135e-06 7.04672e-05
0.000809648 0.00012138 -1.78665e-06
0.00012138 -1.54602e-05 -9.56231e-07
-1.78665e-06 -9.56231e-07 -0.000153279
0.00077173 -3.34622e-05 1.27069e-06
-3.34622e-05 5.62552e-06 1.63497e-06
1.27069e-06 1.63497e-06 -2.78644e-05
0.000814202 -7.64187e-07 4.74536e-07
-7.64187e-07 3.37056e-05 1.06842e-06
4.74536e-07 1.06842e-06 -2.28264e-05
0.00105388 0.000114294 1.6923e-07
0.000114294 0.000183363 -1.37236e-09
1.6923e-07 -1.37236e-09 7.19725e-05
0.000871129 8.27855e-06 4.921e-07
8.27855e-06 8.03358e-05 5.64603e-07
4.921e-07 5.64603e-07 -1.83535e-06
0.00106185 5.59975e-05 -2.99276e-07
5.59975e-05 0.000189612 -1.876e-06
-2.99276e-07 -1.876e-06 8.48655e-05
0.00162421 0.000108053 -1.25973e-06
0.000108053 0.000106561 -1.60527e-06
-1.25973e-06 -1.60527e-06 -1.59516e-05
0.00139226 0.000154391 5.18625e-07
0.000154391 0.000112825 2.68864e-06
5.18625e-07 2.68864e-06 -1.72755e-05
0.00139225 0.000150753 -4.47453e-06
0.000150753 2.29746e-05 2.7612e-08
-4.47453e-06 2.7612e-08 -0.000101958
0.000839143 0.000115451 2.6881e-07
0.000115451 6.79673e-05 2.34324e-06
2.6881e-07 2.34324e-06 -7.6546e-05
0.00125144 0.00015843 3.52022e-06
0.00015843 0.00014289 -6.32863e-07
3.52022e-06 -6.32863e-07 3.88962e-06
0.00078076 -2.6084e-05 3.11676e-08
-2.6084e-05 5.40194e-06 6.98263e-10
3.11676e-08 6.98263e-10 -2.55091e-05
0.000667854 -1.8554e-05 7.74474e-07
-1.8554e-05 -5.05531e-05 1.26224e-06
7.74474e-07 1.26224e-06 -9.92776e-05
0.00074689 -2.13571e-05 -6.91583e-07
-2.13571e-05 -8.03591e-06 -2.56622e-08
-6.91583e-07 -2.56622e-08 -5.59001e-05
0.000997094 1.37796e-05 1.09564e-06
1.37796e-05 0.000138732 -1.53206e-07
1.09564e-06 -1.53206e-07 7.84234e-05
0.000826408 1.27533e-05 1.67621e-06
1.27533e-05 3.21315e-05 7.72496e-07
1.67621e-06 7.72496e-07 -1.48529e-05
0.000803133 -7.94794e-06 8.72617e-07
-7.94794e-06 6.27464e-06 1.73472e-06
8.72617e-07 1.73472e-06 -2.12972e-05
0.000796863 -1.72476e-05 -2.72806e-08
-1.72476e-05 6.17452e-06 2.0051e-08
-2.72806e-08 2.0051e-08 -2.18594e-05
0.00126061 -2.84597e-05 1.20298e-06
-2.84597e-05 0.000256966 2.01295e-06
1.20298e-06 2.01295e-06 0.00025787
0.000786801 -2.08993e-05 -1.11262e-06
-2.08993e-05 5.09105e-06 -1.76213e-06
-1.11262e-06 -1.76213e-06 -2.4268e-05
0.00128137 -3.31354e-05 -4.06706e-06
-3.31354e-05 0.000273857 -1.15508e-06
-4.06706e-06 -1.15508e-06 0.000273288
0.000967191 -2.66785e-05 1.90639e-05
-2.66785e-05 0.000104919 6.15765e-06
1.90639e-05 6.15765e-06 0.000118785
0.00126949 -3.69497e-05 -9.34961e-06
-3.69497e-05 0.00027454 -3.085e-06
-9.34961e-06 -3.085e-06 0.000272063
0.00148561 -3.89845e-05 1.73781e-05
-3.89845e-05 0.000397922 1.95779e-06
1.73781e-05 1.95779e-06 0.000412609
0.00206459 -5.29385e-05 -2.49712e-05
-5.29385e-05 0.000722176 -3.35849e-06
-2.49712e-05 -3.35849e-06 0.000737972
0.000685397 3.51065e-05 1.88914e-06
3.51065e-05 -3.99868e-05 -3.71327e-06
1.88914e-06 -3.71327e-06 -5.22861e-05
0.00069131 3.99652e-05 -1.20865e-07
3.99652e-05 -2.95697e-05 3.00819e-08
-1.20865e-07 3.00819e-08 -4.49851e-05
0.00234226 6.28386e-05 3.09044e-05
6.28386e-05 0.000879192 -3.48332e-06
3.09044e-05 -3.48332e-06 0.000891141
0.00246523 7.03572e-05 -1.10761e-06
7.03572e-05 0.000954169 -1.20759e-07
-1.10761e-06 -1.20759e-07 0.000963613
0.000694346 5.03668e-05 -1.18855e-06
5.03668e-05 -1.82694e-05 4.32832e-06
-1.18855e-06 4.32832e-06 -3.83183e-05
0.00263378 7.63888e-05 -4.59902e-05
7.63888e-05 0.00105115 3.13248e-06
-4.59902e-05 3.13248e-06 0.00105844
0.00144212 8.45368e-05 -4.57806e-06
8.45368e-05 7.54145e-05 -6.22989e-07
-4.57806e-06 -6.22989e-07 -3.82826e-05
0.00147395 4.1398e-05 -4.18543e-06
4.1398e-05 7.76075e-05 -1.0081e-06
-4.18543e-06 -1.0081e-06 -3.50086e-05
0.00156667 6.7472e-05 -1.18804e-06
6.7472e-05 8.79533e-05 -2.54949e-07
-1.18804e-06 -2.54949e-07 -2.6253e-05
0.00157822 2.2636e-05 -1.26022e-06
2.2636e-05 7.09706e-05 -2.9271e-07
-1.26022e-06 -2.9271e-07 -4.42277e-05
0.00152841 2.12047e-05 -4.28895e-06
2.12047e-05 8.04286e-05 -7.19584e-07
-4.28895e-06 -7.19584e-07 -3.60209e-05
0.00125129 6.15378e-06 -9.64359e-06
6.15378e-06 1.48958e-05 1.16468e-08
-9.64359e-06 1.16468e-08 -8.63292e-05
0.00152319 1.01472e-05 6.69761e-08
1.01472e-05 7.51343e-05 -6.32557e-08
6.69761e-08 -6.32557e-08 -4.15079e-05
0.00160581 8.97853e-06 -6.62481e-08
8.97853e-06 7.06689e-05 9.79371e-09
-6.62481e-08 9.79371e-09 -4.64881e-05
0.00160188 4.37979e-05 3.44986e-08
4.37979e-05 9.67706e-05 -1.10903e-07
3.44986e-08 -1.10903e-07 -1.81186e-05
0.00174079 2.31036e-05 7.9663e-08
2.31036e-05 0.000124087 6.91014e-08
7.9663e-08 6.91014e-08 1.45482e-05
0.00155879 8.50825e-05 -2.84195e-07
8.50825e-05 8.72671e-05 3.22555e-07
-2.84195e-07 3.22555e-07 -2.89551e-05
0.00161784 5.8604e-05 3.77956e-08
5.8604e-05 7.91602e-05 2.25322e-07
3.77956e-08 2.25322e-07 -2.8722e-05
0.00162031 1.28045e-07 1.72968e-06
1.28045e-07 7.96345e-05 -8.89034e-08
1.72968e-06 -8.89034e-08 -3.80911e-05
0.00175809 2.32954e-05 -1.10677e-07
2.32954e-05 0.000115521 3.16087e-07
-1.10677e-07 3.16087e-07 2.68543e-06
0.00161494 3.74811e-05 -9.18959e-07
3.74811e-05 6.31244e-05 -3.52541e-08
-9.18959e-07 -3.52541e-08 -4.44233e-05
0.0018425 2.64026e-05 -1.06121e-07
2.64026e-05 0.000156283 6.26598e-08
-1.06121e-07 6.26598e-08 5.19914e-05
0.00167057 7.90571e-05 -1.32406e-06
7.90571e-05 0.000109846 -6.13429e-07
-1.32406e-06 -6.13429e-07 -1.76191e-06
0.00164834 5.09419e-05 -4.48479e-07
5.09419e-05 7.36513e-05 -3.16016e-08
-4.48479e-07 -3.16016e-08 -2.73736e-05
0.00151143 9.34914e-07 -6.19248e-06
9.34914e-07 7.40688e-05 7.31108e-07
-6.19248e-06 7.31108e-07 -4.19657e-05
0.00164767 -4.4175e-05 -5.80884e-06
-4.4175e-05 0.000178799 1.10112e-06
-5.80884e-06 1.10112e-06 7.04646e-05
0.00148886 -1.06877e-05 -2.1546e-06
-1.06877e-05 3.01688e-05 7.42451e-07
-2.1546e-06 7.42451e-07 -8.50246e-05
0.00182297 -5.96889e-05 -1.67847e-06
-5.96889e-05 0.000226871 2.19065e-07
-1.67847e-06 2.19065e-07 0.000116346
0.000815004 -3.43456e-05 -2.72742e-06
-3.43456e-05 4.67828e-05 1.94076e-06
-2.72742e-06 1.94076e-06 -3.0362e-05
0.00110137 -0.000115447 -1.75693e-06
-0.000115447 0.00017747 1.05317e-06
-1.75693e-06 1.05317e-06 7.69841e-05
0.000905678 -0.000120028 -7.12573e-07
-0.000120028 4.01977e-05 6.56903e-07
-7.12573e-07 6.56903e-07 -8.29512e-05
0.00176515 -0.000122432 -2.07541e-06
-0.000122432 0.00022737 -2.17816e-07
-2.07541e-06 -2.17816e-07 0.000108493
0.00152003 -7.8676e-05 -5.75702e-08
-7.8676e-05 3.66841e-05 -4.00587e-07
-5.75702e-08 -4.00587e-07 -7.20887e-05
0.00154587 -0.000132061 6.32427e-07
-0.000132061 0.000114624 3.75696e-07
6.32427e-07 3.75696e-07 -7.27853e-06
0.00101366 -0.000137494 -1.66504e-06
-0.000137494 -1.63217e-05 4.4224e-07
-1.66504e-06 4.4224e-07 -0.000156741
0.00143617 -0.000147515 3.05918e-06
-0.000147515 9.80194e-05 -1.44997e-06
3.05918e-06 -1.44997e-06 -2.1857e-05
0.000939407 -4.70737e-05 -1.31154e-06
-4.70737e-05 0.000102794 -1.68441e-07
-1.31154e-06 -1.68441e-07 1.44915e-05
0.000904936 -6.59605e-05 -6.81227e-07
-6.59605e-05 8.91167e-05 -3.22591e-07
-6.81227e-07 -3.22591e-07 -6.53651e-06
0.000751052 2.17971e-05 -1.24507e-06
2.17971e-05 -3.20713e-06 1.99696e-06
-1.24507e-06 1.99696e-06 -4.74893e-05
0.000733276 3.80026e-05 -7.41565e-08
3.80026e-05 -1.10667e-05 3.7406e-07
-7.41565e-08 3.7406e-07 -8.32645e-05
0.00164852 -8.17406e-07 -8.25792e-08
-8.17406e-07 0.00010365 -2.01211e-07
-8.25792e-08 -2.01211e-07 -1.35724e-05
0.00178839 -3.47503e-05 -7.29864e-07
-3.47503e-05 0.000203764 3.26039e-07
-7.29864e-07 3.26039e-07 9.08784e-05
0.00166886 -1.37151e-05 -4.3287e-07
-1.37151e-05 9.81918e-05 1.69017e-07
-4.3287e-07 1.69017e-07 -1.39079e-05
0.00161498 -5.33394e-05 3.84615e-08
-5.33394e-05 8.45008e-05 -1.03961e-07
3.84615e-08 -1.03961e-07 -2.29291e-05
0.000968385 -8.53536e-05 -2.82175e-07
-8.53536e-05 0.000113035 1.77907e-07
-2.82175e-07 1.77907e-07 2.1272e-05
0.00070317 -0.000103141 5.61356e-07
-0.000103141 -2.98133e-05 -6.21695e-07
5.61356e-07 -6.21695e-07 -0.000141439
0.00114949 -0.000143624 1.08709e-07
-0.000143624 0.000142681 -1.01764e-07
1.08709e-07 -1.01764e-07 -4.55403e-07
0.0016429 -0.00011486 -4.99149e-07
-0.00011486 0.000111995 -1.79784e-07
-4.99149e-07 -1.79784e-07 -4.28821e-06
0.00163652 -7.62952e-05 3.97215e-07
-7.62952e-05 7.54351e-05 -4.07815e-07
3.97215e-07 -4.07815e-07 -2.96556e-05
0.00140106 -0.000163264 -3.7877e-07
-0.000163264 0.000161833 8.47865e-07
-3.7877e-07 8.47865e-07 1.74289e-05
0.00153963 -0.000135191 -4.57711e-07
-0.000135191 8.20577e-05 1.49391e-07
-4.57711e-07 1.49391e-07 -3.09926e-05
0.00167494 -0.000161166 1.46223e-06
-0.000161166 0.000202151 -1.00915e-06
1.46223e-06 -1.00915e-06 8.52286e-05
0.000997538 -0.000113851 5.78498e-08
-0.000113851 0.000140414 -7.61698e-09
5.78498e-08 -7.61698e-09 3.88711e-05
0.000959109 -0.00010304 1.57355e-07
-0.00010304 0.000125346 2.15127e-07
1.57355e-07 2.15127e-07 2.26082e-05
0.000912959 -4.13722e-05 -2.54323e-07
-4.13722e-05 9.50425e-05 -7.83133e-08
-2.54323e-07 -7.83133e-08 7.77169e-06
0.000650803 2.59757e-05 -2.34638e-07
2.59757e-05 -6.11823e-05 2.08182e-08
-2.34638e-07 2.08182e-08 -0.000103115
0.000721998 2.5609e-05 9.1415e-08
2.5609e-05 -1.59286e-05 -3.47518e-07
9.1415e-08 -3.47518e-07 -8.41847e-05
0.0017151 -5.37062e-06 7.37504e-07
-5.37062e-06 9.93892e-05 -3.32697e-07
7.37504e-07 -3.32697e-07 -1.34112e-05
0.00166856 -2.40395e-05 1.93656e-07
-2.40395e-05 9.24933e-05 -8.58386e-11
1.93656e-07 -8.58386e-11 -1.68779e-05
0.00164889 -5.78161e-05 1.1222e-07
-5.78161e-05 7.50722e-05 1.66365e-07
1.1222e-07 1.66365e-07 -2.42059e-05
0.00152805 -0.000100181 -4.32569e-07
-0.000100181 1.7115e-05 -2.51589e-07
-4.32569e-07 -2.51589e-07 -9.00449e-05
0.000900132 -0.000110414 -2.14311e-07
-0.000110414 8.46769e-05 9.27149e-07
-2.14311e-07 9.27149e-07 -1.88123e-05
0.00178505 -0.000153494 -9.22097e-07
-0.000153494 0.000169961 -1.19046e-06
-9.22097e-07 -1.19046e-06 6.1803e-05
0.00021924 -8.02217e-05 2.49366e-07
-8.02217e-05 -0.000283744 -3.38866e-06
2.49366e-07 -3.38866e-06 -0.000406346
0.00126508 -0.000160813 3.65322e-06
-0.000160813 0.000175518 -1.27752e-06
3.65322e-06 -1.27752e-06 1.43686e-05
0.00171788 -0.000184118 2.03698e-06
-0.000184118 0.000277164 2.0443e-06
2.03698e-06 2.0443e-06 0.0001321
0.000544482 2.28188e-05 1.22218e-06
2.28188e-05 -0.000121933 -2.54793e-06
1.22218e-06 -2.54793e-06 -0.000162007
0.00092118 3.70594e-07 1.3668e-06
3.70594e-07 9.39474e-05 -7.25319e-07
1.3668e-06 -7.25319e-07 2.99727e-05
0.000947087 -2.99351e-05 -5.95849e-08
-2.99351e-05 0.000112108 -1.61811e-07
-5.95849e-08 -1.61811e-07 3.31698e-05
0.000940802 -0.000110976 -7.97813e-07
-0.000110976 0.000111405 1.95686e-06
-7.97813e-07 1.95686e-06 8.2766e-06
0.00102818 -6.77754e-05 3.23644e-07
-6.77754e-05 0.000159598 1.04995e-06
3.23644e-07 1.04995e-06 6.35031e-05
0.000891842 -0.000107733 -4.13254e-07
-0.000107733 8.42652e-05 1.57962e-06
-4.13254e-07 1.57962e-06 -2.03762e-05
0.000688144 -3.59674e-05 -1.86623e-06
-3.59674e-05 -3.65633e-05 -3.37518e-06
-1.86623e-06 -3.37518e-06 -4.46685e-05
0.000761146 -4.11284e-05 -1.46997e-06
-4.11284e-05 6.16338e-06 -1.49981e-06
-1.46997e-06 -1.49981e-06 -3.12689e-05
0.00155787 0.000110849 -1.03233e-06
0.000110849 0.000105528 1.68579e-07
-1.03233e-06 1.68579e-07 -1.92358e-05
0.000839225 -4.0438e-05 3.27171e-07
-4.0438e-05 5.28419e-05 -1.07481e-06
3.27171e-07 -1.07481e-06 -1.28807e-05
0.000843495 4.53083e-05 -5.09682e-07
4.53083e-05 5.61304e-05 -4.88415e-07
-5.09682e-07 -4.88415e-07 -3.21453e-05
0.000822107 4.0339e-05 5.44474e-07
4.0339e-05 5.78932e-05 -3.60774e-09
5.44474e-07 -3.60774e-09 -3.69645e-05
0.00127412 0.000140896 -1.44551e-06
0.000140896 8.38051e-05 -2.0749e-06
-1.44551e-06 -2.0749e-06 -4.31395e-05
0.00144011 0.000140532 6.69613e-07
0.000140532 6.50875e-05 -1.33479e-07
6.69613e-07 -1.33479e-07 -6.88452e-05
0.00091177 0.000113453 -2.47811e-07
0.000113453 0.00010179 -5.14342e-07
-2.47811e-07 -5.14342e-07 -2.05861e-05
0.00130918 0.000149545 -1.17109e-06
0.000149545 0.00024724 9.46173e-07
-1.17109e-06 9.46173e-07 0.000108524
0.00153913 0.000158871 -2.3354e-06
0.000158871 0.000272275 -2.49549e-06
-2.3354e-06 -2.49549e-06 0.000150673
0.000772501 -3.25887e-05 -3.06695e-08
-3.25887e-05 6.32024e-06 2.30482e-08
-3.06695e-08 2.30482e-08 -2.71454e-05
0.000814002 -2.45301e-05 -3.33043e-07
-2.45301e-05 3.29863e-05 2.31309e-07
-3.33043e-07 2.31309e-07 -2.30922e-05
0.000996524 0.000111097 -5.33353e-07
0.000111097 0.000153709 -1.73237e-07
-5.33353e-07 -1.73237e-07 4.30608e-05
0.000862801 -2.79503e-06 2.59588e-07
-2.79503e-06 7.2739e-05 1.09634e-08
2.59588e-07 1.09634e-08 -7.47229e-06
0.000932653 6.54576e-05 1.07961e-07
6.54576e-05 0.000123607 -7.3251e-07
1.07961e-07 -7.3251e-07 1.66043e-05
0.001581 0.000109467 -6.58721e-07
0.000109467 8.54654e-05 -5.81178e-07
-6.58721e-07 -5.81178e-07 -3.77848e-05
0.00138537 0.000153919 9.80579e-07
0.000153919 0.000109066 3.63335e-07
9.80579e-07 3.63335e-07 -2.11783e-05
0.00146541 0.000151186 9.55742e-07
0.000151186 5.8542e-05 1.45e-06
9.55742e-07 1.45e-06 -6.36613e-05
0.000812302 0.000114346 7.56404e-07
0.000114346 5.3461e-05 1.90898e-06
7.56404e-07 1.90898e-06 -8.96747e-05
0.0012912 0.000160544 -8.7737e-07
0.000160544 0.000165086 -1.09274e-06
-8.7737e-07 -1.09274e-06 2.26628e-05
0.000811007 -4.53177e-06 7.79034e-07
-4.53177e-06 2.87262e-05 8.27469e-07
7.79034e-07 8.27469e-07 -2.1259e-05
0.000722896 -2.39497e-05 -5.16596e-07
-2.39497e-05 -9.73907e-06 1.40792e-06
-5.16596e-07 1.40792e-06 -8.04822e-05
0.000983893 0.000116698 -9.82725e-07
0.000116698 0.000151978 -1.42945e-06
-9.82725e-07 -1.42945e-06 2.41419e-05
0.00075375 2.42091e-05 -2.20509e-07
2.42091e-05 2.19613e-05 -1.81583e-07
-2.20509e-07 -1.81583e-07 -7.5612e-05
0.00105089 8.8507e-05 -4.58484e-07
8.8507e-05 0.000181671 -2.02666e-06
-4.58484e-07 -2.02666e-06 6.66529e-05
0.00158456 0.000109146 -2.42679e-06
0.000109146 3.75762e-05 -5.92253e-07
-2.42679e-06 -5.92253e-07 -6.37796e-05
0.00188418 0.000193988 -1.25052e-06
0.000193988 0.000354667 -3.31826e-08
-1.25052e-06 -3.31826e-08 0.00021662
0.000866052 0.000131027 -4.47731e-07
0.000131027 -0.000295569 -3.06595e-07
-4.47731e-07 -3.06595e-07 -0.00040746
0.00180991 0.000174658 3.5722e-06
0.000174658 0.000558158 3.4501e-06
3.5722e-06 3.4501e-06 0.000397985
0.000196689 0.000112198 -3.98978e-07
0.000112198 -0.000419715 -6.00485e-07
-3.98978e-07 -6.00485e-07 -0.000572295
0.000780582 -2.43926e-05 -1.5053e-06
-2.43926e-05 5.7137e-06 -1.58534e-06
-1.5053e-06 -1.58534e-06 -2.52121e-05
0.000748748 -1.33101e-05 1.54983e-07
-1.33101e-05 -6.17611e-06 5.02905e-07
1.54983e-07 5.02905e-07 -5.48401e-05
0.00074182 -3.89843e-05 -1.447e-07
-3.89843e-05 -4.43938e-06 8.88155e-07
-1.447e-07 8.88155e-07 -6.50425e-05
0.000697719 -3.87579e-05 -8.37062e-07
-3.87579e-05 -3.50824e-05 -5.3634e-07
-8.37062e-07 -5.3634e-07 -8.31124e-05
0.000827212 -6.03304e-06 2.03794e-07
-6.03304e-06 3.24775e-05 -2.95543e-08
2.03794e-07 -2.95543e-08 -1.43553e-05
0.000853809 -2.1278e-05 2.39889e-07
-2.1278e-05 5.67535e-05 -3.58177e-07
2.39889e-07 -3.58177e-07 -9.46527e-07
0.000958577 6.23529e-06 1.06243e-07
6.23529e-06 0.000119476 -4.88135e-07
1.06243e-07 -4.88135e-07 5.46297e-05
0.000762987 -3.78326e-05 2.53431e-07
-3.78326e-05 9.73562e-06 2.18587e-07
2.53431e-07 2.18587e-07 -4.90171e-05
0.000854351 -7.47331e-06 3.50774e-07
-7.47331e-06 4.18778e-05 6.65779e-07
3.50774e-07 6.65779e-07 -3.09741e-06
0.000793812 -4.54658e-07 8.69937e-07
-4.54658e-07 3.67449e-07 1.58497e-06
8.69937e-07 1.58497e-06 -2.77531e-05
0.000798045 -1.18202e-05 -1.53118e-07
-1.18202e-05 3.74619e-06 7.15646e-09
-1.53118e-07 7.15646e-09 -2.38983e-05
0.00126363 -2.11284e-05 1.08949e-06
-2.11284e-05 0.000253961 1.95794e-06
1.08949e-06 1.95794e-06 0.000255719
0.000792649 -1.75487e-05 -8.29241e-07
-1.75487e-05 4.08689e-06 -1.78793e-06
-8.29241e-07 -1.78793e-06 -2.39939e-05
0.00127944 -2.66604e-05 -3.42422e-06
-2.66604e-05 0.000266932 -1.16212e-06
-3.42422e-06 -1.16212e-06 0.000267978
0.000965454 -2.20461e-05 1.54071e-05
-2.20461e-05 9.79384e-05 6.20401e-06
1.54071e-05 6.20401e-06 0.000113214
0.0012963 -3.16778e-05 -7.93197e-06
-3.16778e-05 0.000281497 -4.36725e-06
-7.93197e-06 -4.36725e-06 0.000281137
0.000912842 -2.79546e-05 6.24556e-06
-2.79546e-05 7.54511e-05 2.35381e-06
6.24556e-06 2.35381e-06 8.90407e-05
0.00198831 -5.0651e-05 -6.17238e-06
-5.0651e-05 0.000673723 -1.50653e-06
-6.17238e-06 -1.50653e-06 0.000690735
0.000698372 3.13148e-05 1.36496e-06
3.13148e-05 -3.94776e-05 -3.61539e-06
1.36496e-06 -3.61539e-06 -4.90774e-05
0.000701278 3.57089e-05 -1.3609e-07
3.57089e-05 -3.1484e-05 2.35976e-08
-1.3609e-07 2.35976e-08 -4.38974e-05
0.00227894 5.54217e-05 2.68525e-05
5.54217e-05 0.000837145 -3.66606e-06
2.68525e-05 -3.66606e-06 0.000851273
0.000709565 4.12835e-05 -2.27089e-06
4.12835e-05 -1.94632e-05 3.87357e-06
-2.27089e-06 3.87357e-06 -3.51329e-05
0.00236652 6.29159e-05 -1.30336e-06
6.29159e-05 0.000893257 -1.08828e-07
-1.30336e-06 -1.08828e-07 0.000904993
0.00250074 6.9762e-05 -3.96773e-05
6.9762e-05 0.000973742 3.21758e-06
-3.96773e-05 3.21758e-06 0.000983157
0.00155453 8.58956e-05 -2.17681e-06
8.58956e-05 8.44064e-05 6.26706e-07
-2.17681e-06 6.26706e-07 -3.19543e-05
0.00161387 4.22437e-05 -1.06413e-06
4.22437e-05 0.000103218 -4.52488e-07
-1.06413e-06 -4.52488e-07 -1.16657e-05
0.00155804 5.78203e-05 1.81407e-06
5.78203e-05 4.67547e-05 2.67238e-07
1.81407e-06 2.67238e-07 -6.05356e-05
0.00171574 2.38688e-05 4.75754e-07
2.38688e-05 0.000110223 -2.65601e-08
4.75754e-07 -2.65601e-08 1.66084e-06
0.00160696 3.20913e-06 -1.18683e-06
3.20913e-06 7.09682e-05 -3.04414e-07
-1.18683e-06 -3.04414e-07 -4.64399e-05
0.00152582 1.34371e-05 -4.25218e-06
1.34371e-05 7.65381e-05 8.16877e-08
-4.25218e-06 8.16877e-08 -4.01402e-05
0.00163365 3.53296e-06 1.14084e-08
3.53296e-06 8.6404e-05 -4.80909e-08
1.14084e-08 -4.80909e-08 -3.16944e-05
0.0017605 1.8131e-05 2.51231e-07
1.8131e-05 0.000118303 -4.10687e-08
2.51231e-07 -4.10687e-08 5.04473e-06
0.00163113 3.52774e-05 -4.84489e-07
3.52774e-05 7.19166e-05 -1.21232e-07
-4.84489e-07 -1.21232e-07 -3.64609e-05
0.00177906 2.7218e-05 5.5543e-07
2.7218e-05 0.000119124 -2.15693e-07
5.5543e-07 -2.15693e-07 1.54655e-05
0.00162174 7.86914e-05 -5.83159e-07
7.86914e-05 8.6106e-05 3.89096e-07
-5.83159e-07 3.89096e-07 -2.56083e-05
0.00165009 5.34213e-05 1.75039e-06
5.34213e-05 7.11431e-05 -4.34876e-08
1.75039e-06 -4.34876e-08 -2.88818e-05
0.00174202 6.90378e-06 5.86442e-08
6.90378e-06 0.00010489 6.38477e-08
5.86442e-08 6.38477e-08 -9.37302e-06
0.00174786 2.34635e-05 -4.63154e-07
2.34635e-05 9.26483e-05 3.45105e-07
-4.63154e-07 3.45105e-07 -1.30889e-05
0.00176345 3.84074e-05 -6.92571e-07
3.84074e-05 0.000102826 1.18586e-07
-6.92571e-07 1.18586e-07 4.37171e-06
0.00169439 7.69227e-05 -1.08187e-06
7.69227e-05 8.88297e-05 -2.68632e-07
-1.08187e-06 -2.68632e-07 -8.40693e-06
0.00164146 -2.99065e-07 -1.56149e-06
-2.99065e-07 9.89735e-05 2.1739e-07
-1.56149e-06 2.1739e-07 -1.82855e-05
0.00181221 -3.39342e-05 -2.60115e-06
-3.39342e-05 0.000215901 6.76164e-07
-2.60115e-06 6.76164e-07 0.000102596
0.00160779 -1.32832e-05 -1.33004e-06
-1.32832e-05 6.7556e-05 6.70206e-07
-1.33004e-06 6.70206e-07 -4.40753e-05
0.00159901 -5.23931e-05 1.06567e-07
-5.23931e-05 7.92345e-05 2.34176e-08
1.06567e-07 2.34176e-08 -2.86451e-05
0.00104927 -8.58646e-05 -1.47335e-06
-8.58646e-05 0.000155873 9.38963e-08
-1.47335e-06 9.38963e-08 6.34647e-05
0.000837556 -0.000109847 6.24889e-07
-0.000109847 4.25671e-05 2.30894e-07
6.24889e-07 2.30894e-07 -6.77331e-05
0.00118998 -0.00014462 -1.59703e-06
-0.00014462 0.000166903 2.44321e-06
-1.59703e-06 2.44321e-06 2.30393e-05
0.00175299 -0.000118247 -5.99581e-07
-0.000118247 0.000171466 -6.09251e-07
-5.99581e-07 -6.09251e-07 5.48157e-05
0.00163104 -7.65622e-05 -3.52001e-07
-7.65622e-05 7.00957e-05 -1.19264e-06
-3.52001e-07 -1.19264e-06 -3.4591e-05
0.00157257 -0.000136169 2.01624e-06
-0.000136169 9.76138e-05 7.45687e-07
2.01624e-06 7.45687e-07 -1.54619e-05
0.00137656 -0.00016043 -1.57459e-06
-0.00016043 0.000148855 -9.20729e-07
-1.57459e-06 -9.20729e-07 3.79171e-06
0.00135779 -0.000146642 -1.3439e-08
-0.000146642 4.16448e-05 -1.96052e-06
-1.3439e-08 -1.96052e-06 -7.08242e-05
0.00105911 -0.000117528 -4.84031e-08
-0.000117528 0.000172814 -1.06758e-06
-4.84031e-08 -1.06758e-06 7.09852e-05
0.00101001 -0.000106967 1.63718e-07
-0.000106967 0.000151546 -1.73591e-06
1.63718e-07 -1.73591e-06 4.85294e-05
0.00087516 -1.80079e-05 2.98422e-07
-1.80079e-05 7.37231e-05 1.8797e-07
2.98422e-07 1.8797e-07 -1.23033e-05
0.00053402 2.41718e-05 -1.44662e-06
2.41718e-05 -0.000124708 1.90664e-06
-1.44662e-06 1.90664e-06 -0.000167461
0.000735189 3.81213e-05 -1.66948e-08
3.81213e-05 -1.14905e-05 4.07507e-07
-1.66948e-08 4.07507e-07 -7.74568e-05
0.00171927 -6.20489e-06 -1.48535e-08
-6.20489e-06 0.000104096 -3.34454e-08
-1.48535e-08 -3.34454e-08 -8.57267e-06
0.00171999 -2.45692e-05 6.85091e-08
-2.45692e-05 0.000119661 2.247e-08
6.85091e-08 2.247e-08 1.0828e-05
0.00171016 -5.84382e-05 -7.01709e-07
-5.84382e-05 0.000107741 -2.0638e-07
-7.01709e-07 -2.0638e-07 7.29996e-06
0.00101087 -0.000116406 -4.39577e-08
-0.000116406 0.000142159 3.41492e-07
-4.39577e-08 3.41492e-07 3.80687e-05
0.000713261 -0.000107425 1.56524e-06
-0.000107425 -2.34622e-05 -1.43779e-06
1.56524e-06 -1.43779e-06 -0.000146143
0.00124231 -0.000157994 -4.35488e-07
-0.000157994 0.000167662 3.78113e-08
-4.35488e-07 3.78113e-08 4.49239e-06
0.00161832 -0.000101415 4.65091e-07
-0.000101415 6.42429e-05 -3.94568e-07
4.65091e-07 -3.94568e-07 -4.2703e-05
0.00162225 -0.000175883 3.5474e-07
-0.000175883 0.000227784 -1.51399e-06
3.5474e-07 -1.51399e-06 8.65484e-05
0.00169525 -0.000152836 -8.46862e-07
-0.000152836 0.00012955 -2.48972e-07
-8.46862e-07 -2.48972e-07 2.12557e-05
0.000543376 2.55586e-05 5.88693e-08
2.55586e-05 -0.000122724 -6.21317e-07
5.88693e-08 -6.21317e-07 -0.000162425
0.0010051 -0.000114733 -7.20574e-09
-0.000114733 0.000144896 2.00394e-07
-7.20574e-09 2.00394e-07 4.13719e-05
0.000900333 -0.000107656 -4.78646e-07
-0.000107656 8.96887e-05 3.52863e-07
-4.78646e-07 3.52863e-07 -1.43546e-05
0.00101938 -7.34061e-05 -3.33041e-07
-7.34061e-05 0.000157801 8.36427e-07
-3.33041e-07 8.36427e-07 5.93103e-05
0.00096851 -2.53818e-05 -7.38396e-09
-2.53818e-05 0.000124306 1.81172e-08
-7.38396e-09 1.81172e-08 4.53913e-05
0.000811288 1.49822e-05 -1.53141e-07
1.49822e-05 3.11153e-05 2.62211e-07
-1.53141e-07 2.62211e-07 -3.15271e-05
0.00169505 -1.50351e-05 9.02978e-08
-1.50351e-05 7.12115e-05 -9.20809e-09
9.02978e-08 -9.20809e-09 -3.73783e-05
0.00177616 -3.81724e-05 -6.45035e-07
-3.81724e-05 0.000114563 -2.18156e-07
-6.45035e-07 -2.18156e-07 1.72176e-05
0.00162439 -7.41051e-05 2.14304e-07
-7.41051e-05 3.69696e-05 6.6888e-07
2.14304e-07 6.6888e-07 -5.91265e-05
0.00184749 -0.000127037 -1.10478e-06
-0.000127037 0.000137943 -5.03368e-07
-1.10478e-06 -5.03368e-07 3.99309e-05
0.000950908 -0.00011476 -9.78133e-07
-0.00011476 0.000113507 7.93441e-07
-9.78133e-07 7.93441e-07 4.44166e-06
0.00153131 -0.000169511 1.87753e-06
-0.000169511 6.50783e-05 5.52183e-07
1.87753e-06 5.52183e-07 -5.80323e-05
0.000698925 -0.000114774 -3.40929e-07
-0.000114774 -4.30595e-05 -3.7362e-06
-3.40929e-07 -3.7362e-06 -0.000192962
0.00169348 -0.000190423 1.50042e-06
-0.000190423 0.000368218 1.19373e-06
1.50042e-06 1.19373e-06 0.000192412
0.00056522 2.15952e-05 7.82619e-07
2.15952e-05 -0.000113529 -2.46308e-06
7.82619e-07 -2.46308e-06 -0.00015035
0.000924784 -7.40461e-07 1.14811e-06
-7.40461e-07 9.33169e-05 -9.42852e-07
1.14811e-06 -9.42852e-07 3.41046e-05
0.00100798 -3.81513e-05 1.30737e-07
-3.81513e-05 0.00014624 6.21547e-07
1.30737e-07 6.21547e-07 7.07733e-05
0.000928924 -1.81623e-05 3.69086e-07
-1.81623e-05 0.000104444 -9.0395e-07
3.69086e-07 -9.0395e-07 1.63057e-05
0.00105494 -0.000118187 -4.76011e-07
-0.000118187 0.000169091 1.76952e-06
-4.76011e-07 1.76952e-06 6.17823e-05
0.000944667 -0.000112233 -2.10521e-06
-0.000112233 0.000111686 2.78087e-06
-2.10521e-06 2.78087e-06 5.5038e-06
0.000772699 -3.15801e-05 -1.61638e-06
-3.15801e-05 6.60586e-06 -1.50064e-06
-1.61638e-06 -1.50064e-06 -2.67929e-05
0.000803705 -4.19447e-05 -1.94839e-07
-4.19447e-05 2.74792e-05 -8.48948e-07
-1.94839e-07 -8.48948e-07 -2.8577e-05
0.001541 0.000111047 1.30879e-07
0.000111047 6.60215e-05 5.58749e-07
1.30879e-07 5.58749e-07 -5.79843e-05
0.000867349 -1.63612e-05 2.50867e-07
-1.63612e-05 7.23612e-05 -4.70079e-07
2.50867e-07 -4.70079e-07 -6.0755e-06
0.000926829 0.000107189 -3.81478e-08
0.000107189 0.000117861 -4.60396e-07
-3.81478e-08 -4.60396e-07 7.97312e-06
0.000816937 4.62321e-05 1.9238e-07
4.62321e-05 5.93223e-05 -1.23298e-07
1.9238e-07 -1.23298e-07 -4.60202e-05
0.00138668 0.000153868 -6.70219e-07
0.000153868 0.000109469 -2.32205e-06
-6.70219e-07 -2.32205e-06 -2.09433e-05
0.00154842 0.000152225 2.30262e-06
0.000152225 9.8916e-05 -7.53842e-08
2.30262e-06 -7.53842e-08 -2.05867e-05
0.000646237 0.000105271 2.95595e-07
0.000105271 -3.62905e-05 8.05787e-07
2.95595e-07 8.05787e-07 -0.000178095
0.00142411 0.000167808 -1.02879e-06
0.000167808 0.000238207 2.51526e-08
-1.02879e-06 2.51526e-08 9.165e-05
0.000805506 -2.00641e-05 -3.88021e-07
-2.00641e-05 2.60308e-05 1.15725e-07
-3.88021e-07 1.15725e-07 -2.42678e-05
0.00078349 -1.27082e-05 -4.16854e-08
-1.27082e-05 2.25493e-05 7.17875e-07
-4.16854e-08 7.17875e-07 -4.80964e-05
0.0010478 0.000119872 -2.46047e-07
0.000119872 0.000189795 -1.34938e-06
-2.46047e-07 -1.34938e-06 6.3461e-05
0.000800627 -6.40451e-06 -1.38696e-07
-6.40451e-06 4.21675e-05 4.59793e-08
-1.38696e-07 4.59793e-08 -5.14209e-05
0.000921423 7.67979e-05 -9.02741e-07
7.67979e-05 0.000114147 -9.48583e-07
-9.02741e-07 -9.48583e-07 1.1942e-06
0.00181311 0.000114495 -1.74309e-06
0.000114495 0.000160092 -5.22216e-07
-1.74309e-06 -5.22216e-07 5.9238e-05
0.00179354 0.000188671 1.47168e-06
0.000188671 0.000301488 4.47016e-07
1.47168e-06 4.47016e-07 0.000164254
0.00117745 0.000144791 -3.03515e-07
0.000144791 -0.000124419 7.99e-07
-3.03515e-07 7.99e-07 -0.000230552
0.0013098 0.000147414 1.29451e-06
0.000147414 0.000297693 1.78676e-06
1.29451e-06 1.78676e-06 0.000137435
0.00071235 0.000141652 -1.59183e-06
0.000141652 -0.000150867 -8.66926e-07
-1.59183e-06 -8.66926e-07 -0.000310591
0.000724598 -2.83022e-05 9.43064e-10
-2.83022e-05 -1.32026e-05 1.09015e-06
9.43064e-10 1.09015e-06 -7.61095e-05
0.000649475 2.60761e-05 -1.05113e-07
2.60761e-05 -3.63971e-05 2.59825e-07
-1.05113e-07 2.59825e-07 -0.000125261
0.00107532 0.000122054 9.97628e-08
0.000122054 0.000202303 -6.07374e-07
9.97628e-08 -6.07374e-07 6.15529e-05
0.000412656 4.06295e-05 1.96725e-07
4.06295e-05 -0.000156702 4.55281e-08
1.96725e-07 4.55281e-08 -0.00027013
0.00193079 0.000103307 -1.28059e-06
0.000103307 0.000146182 -4.92244e-07
-1.28059e-06 -4.92244e-07 6.57971e-05
0.00193003 0.000146238 1.38447e-06
0.000146238 0.000170125 9.85266e-07
1.38447e-06 9.85266e-07 8.0768e-05
0.00153299 0.000190422 -4.17608e-07
0.000190422 0.000140002 -2.74005e-06
-4.17608e-07 -2.74005e-06 -5.39368e-06
0.000216776 9.49708e-05 -5.51031e-07
9.49708e-05 -0.000311475 1.62012e-06
-5.51031e-07 1.62012e-06 -0.000495706
0.000821154 9.37215e-07 -7.90648e-07
9.37215e-07 3.64491e-05 -2.47344e-07
-7.90648e-07 -2.47344e-07 -1.40012e-05
0.000820237 -1.61563e-05 -1.89059e-07
-1.61563e-05 3.94364e-05 3.99623e-07
-1.89059e-07 3.99623e-07 -2.18565e-05
0.000918368 -3.11867e-05 -1.08451e-07
-3.11867e-05 9.71543e-05 2.20364e-07
-1.08451e-07 2.20364e-07 2.94451e-05
0.000820634 -2.84003e-05 -8.77108e-07
-2.84003e-05 2.72812e-05 -6.64049e-07
-8.77108e-07 -6.64049e-07 -1.84206e-05
0.000716756 -4.18656e-05 1.65431e-07
-4.18656e-05 -1.77347e-05 -4.15064e-07
1.65431e-07 -4.15064e-07 -7.58027e-05
0.000837885 -1.39064e-05 3.24162e-08
-1.39064e-05 3.33914e-05 3.38901e-08
3.24162e-08 3.38901e-08 -1.18767e-05
0.00086598 1.50126e-05 -1.62058e-07
1.50126e-05 7.42051e-05 -3.38042e-07
-1.62058e-07 -3.38042e-07 5.99215e-06
0.000780935 -1.93108e-05 1.77421e-07
-1.93108e-05 2.15478e-05 2.52889e-07
1.77421e-07 2.52889e-07 -3.86696e-05
0.000888732 -9.71784e-06 2.38427e-07
-9.71784e-06 8.49026e-05 -2.34839e-07
2.38427e-07 -2.34839e-07 1.41765e-05
0.000813559 -4.21272e-05 -2.19936e-07
-4.21272e-05 4.14118e-05 2.49849e-07
-2.19936e-07 2.49849e-07 -2.46938e-05
0.000738759 2.81873e-06 3.65639e-07
2.81873e-06 -6.25961e-06 3.48753e-07
3.65639e-07 3.48753e-07 -6.38421e-05
0.000846468 6.36016e-06 5.17181e-07
6.36016e-06 3.67281e-05 5.71036e-07
5.17181e-07 5.71036e-07 -8.72889e-06
0.00078602 4.78909e-06 6.88608e-07
4.78909e-06 -3.00224e-06 1.50841e-06
6.88608e-07 1.50841e-06 -3.2166e-05
0.000794166 -6.72151e-06 -2.31038e-07
-6.72151e-06 8.25851e-07 -7.3376e-10
-2.31038e-07 -7.3376e-10 -2.74086e-05
0.00127223 -1.39641e-05 8.9868e-07
-1.39641e-05 0.00025588 1.89254e-06
8.9868e-07 1.89254e-06 0.000257687
0.000791074 -1.63404e-05 -4.84532e-07
-1.63404e-05 1.6726e-07 -1.6999e-06
-4.84532e-07 -1.6999e-06 -2.75503e-05
0.00128664 -1.95371e-05 -2.77614e-06
-1.95371e-05 0.000266531 -1.21503e-06
-2.77614e-06 -1.21503e-06 0.00026822
0.000969386 -1.68625e-05 1.25206e-05
-1.68625e-05 9.58709e-05 6.36709e-06
1.25206e-05 6.36709e-06 0.000111669
0.00130069 -2.53576e-05 -6.2546e-06
-2.53576e-05 0.000278228 -4.34826e-06
-6.2546e-06 -4.34826e-06 0.000279316
0.000918771 -2.29295e-05 4.84942e-06
-2.29295e-05 7.24379e-05 2.38323e-06
4.84942e-06 2.38323e-06 8.76098e-05
0.000858499 -2.81684e-05 -2.18209e-06
-2.81684e-05 4.59144e-05 -1.61303e-06
-2.18209e-06 -1.61303e-06 5.94714e-05
0.000709067 2.70947e-05 9.34926e-07
2.70947e-05 -3.97786e-05 -3.49751e-06
9.34926e-07 -3.49751e-06 -4.66917e-05
0.000710572 3.1744e-05 -1.74477e-07
3.1744e-05 -3.30097e-05 2.3785e-08
-1.74477e-07 2.3785e-08 -4.2692e-05
0.00221872 4.78196e-05 2.26293e-05
4.78196e-05 0.000797211 -3.80168e-06
2.26293e-05 -3.80168e-06 0.000813417
0.000718143 3.63789e-05 -2.0695e-06
3.63789e-05 -2.24746e-05 3.72339e-06
-2.0695e-06 3.72339e-06 -3.50058e-05
0.00229908 5.56326e-05 -1.44648e-06
5.56326e-05 0.000849025 -1.02814e-07
-1.44648e-06 -1.02814e-07 0.000862921
0.00239851 6.28516e-05 -3.44487e-05
6.28516e-05 0.000911407 3.43956e-06
-3.44487e-05 3.43956e-06 0.000922964
0.00157634 7.84114e-05 1.0334e-06
7.84114e-05 6.40588e-05 1.66217e-06
1.0334e-06 1.66217e-06 -4.77426e-05
0.00164537 3.30574e-05 1.20917e-07
3.30574e-05 7.9662e-05 -4.1572e-08
1.20917e-07 -4.1572e-08 -2.95435e-05
0.00165973 5.59647e-05 3.52826e-06
5.59647e-05 7.24386e-05 -3.39751e-07
3.52826e-06 -3.39751e-07 -2.65513e-05
0.00172068 2.79861e-05 1.26189e-06
2.79861e-05 8.46489e-05 -5.23425e-07
1.26189e-06 -5.23425e-07 -1.83923e-05
0.00176216 1.39469e-05 7.14751e-07
1.39469e-05 0.00012095 -3.16674e-07
7.14751e-07 -3.16674e-07 7.19476e-06
0.00164699 2.30702e-06 -1.44875e-06
2.30702e-06 9.30966e-05 -5.75252e-09
-1.44875e-06 -5.75252e-09 -2.53409e-05
0.00175123 7.45813e-06 -8.81105e-08
7.45813e-06 0.000111933 1.58328e-09
-8.81105e-08 1.58328e-09 -2.05346e-06
0.00174519 1.93317e-05 3.07129e-07
1.93317e-05 9.21037e-05 -1.21014e-07
3.07129e-07 -1.21014e-07 -1.38867e-05
0.00175595 3.98664e-05 7.18937e-07
3.98664e-05 9.909e-05 -3.42425e-08
7.18937e-07 -3.42425e-08 2.76811e-07
0.00177401 7.42676e-05 3.03365e-07
7.42676e-05 0.000125228 7.22601e-08
3.03365e-07 7.22601e-08 2.85454e-05
0.0017635 4.41861e-06 -9.04591e-07
4.41861e-06 9.64863e-05 2.84065e-07
-9.04591e-07 2.84065e-07 -1.17856e-05
0.00187735 2.69084e-05 -1.6384e-07
2.69084e-05 0.000139111 2.1823e-07
-1.6384e-07 2.1823e-07 4.3882e-05
0.00178506 6.76411e-05 2.30542e-08
6.76411e-05 9.27563e-05 5.71781e-07
2.30542e-08 5.71781e-07 1.32467e-06
0.00171918 -6.78653e-06 -7.5575e-07
-6.78653e-06 0.000106523 8.48585e-08
-7.5575e-07 8.48585e-08 -6.01523e-06
0.00177255 -2.50393e-05 -5.02749e-07
-2.50393e-05 0.000147386 2.50643e-07
-5.02749e-07 2.50643e-07 3.90973e-05
0.00176363 -5.90134e-05 -3.98524e-07
-5.90134e-05 0.000136242 -3.82296e-07
-3.98524e-07 -3.82296e-07 3.46581e-05
0.00110894 -0.000121538 -2.59829e-07
-0.000121538 0.000192801 2.19763e-08
-2.59829e-07 2.19763e-08 8.82266e-05
0.00119657 -0.000134137 -3.62657e-08
-0.000134137 0.000230814 1.0172e-06
-3.62657e-08 1.0172e-06 0.000108135
0.00120626 -0.000154195 -2.51415e-06
-0.000154195 0.000153489 2.59493e-06
-2.51415e-06 2.59493e-06 -1.2162e-05
0.0017236 -0.000103047 3.89046e-07
-0.000103047 0.000119002 -5.28231e-07
3.89046e-07 -5.28231e-07 1.22936e-05
0.00154493 -0.00015016 -1.54597e-06
-0.00015016 5.72294e-05 1.89012e-07
-1.54597e-06 1.89012e-07 -5.09669e-05
0.00150281 -0.000167101 -2.83252e-06
-0.000167101 0.000166285 -3.62369e-06
-2.83252e-06 -3.62369e-06 2.88905e-05
0.00105982 -0.000117902 5.16871e-07
-0.000117902 0.000173335 -1.35814e-06
5.16871e-07 -1.35814e-06 6.94724e-05
0.000843266 -0.000103539 -1.33363e-06
-0.000103539 6.06465e-05 -1.72712e-06
-1.33363e-06 -1.72712e-06 -4.24158e-05
0.000997392 -8.72867e-05 5.58531e-07
-8.72867e-05 0.000150713 4.48268e-07
5.58531e-07 4.48268e-07 4.85697e-05
0.000534363 2.59236e-05 -9.50353e-07
2.59236e-05 -0.000127666 1.22657e-06
-9.50353e-07 1.22657e-06 -0.000166993
0.000989828 -1.37761e-05 3.60966e-08
-1.37761e-05 0.000134423 5.94099e-08
3.60966e-08 5.94099e-08 5.68448e-05
0.0006963 2.57665e-05 4.15324e-08
2.57665e-05 -3.45094e-05 1.16554e-06
4.15324e-08 1.16554e-06 -9.57473e-05
0.00176601 -1.28965e-05 -7.29965e-08
-1.28965e-05 0.000106312 4.69277e-08
-7.29965e-08 4.69277e-08 -2.37381e-06
0.00179306 -4.04464e-05 5.04292e-07
-4.04464e-05 0.000125619 -7.65661e-08
5.04292e-07 -7.65661e-08 2.86341e-05
0.00166622 -7.19994e-05 1.55518e-08
-7.19994e-05 6.02647e-05 5.60439e-09
1.55518e-08 5.60439e-09 -3.60859e-05
0.00101711 -0.000118246 -5.57599e-08
-0.000118246 0.000146755 8.12336e-07
-5.57599e-08 8.12336e-07 3.70448e-05
0.000762585 -0.000117262 -3.24789e-07
-0.000117262 -4.49915e-06 3.72306e-07
-3.24789e-07 3.72306e-07 -0.000150047
0.00168131 -0.000188209 -2.18496e-06
-0.000188209 0.000358723 1.60492e-06
-2.18496e-06 1.60492e-06 0.000183469
0.0018648 -0.000129599 5.35454e-07
-0.000129599 0.000145448 -2.92762e-08
5.35454e-07 -2.92762e-08 4.78699e-05
0.0015846 -0.000170646 9.39147e-07
-0.000170646 9.10328e-05 -1.52616e-06
9.39147e-07 -1.52616e-06 -3.26009e-05
0.00066844 2.13517e-05 1.97302e-07
2.13517e-05 -5.77749e-05 -5.90899e-07
1.97302e-07 -5.90899e-07 -9.33903e-05
0.00091425 9.21011e-06 -2.79814e-07
9.21011e-06 8.69006e-05 1.84468e-07
-2.79814e-07 1.84468e-07 2.83503e-05
0.000780506 -0.000102081 -9.86332e-07
-0.000102081 2.21483e-05 5.49518e-07
-9.86332e-07 5.49518e-07 -8.29933e-05
0.00100616 -0.000111202 1.15686e-06
-0.000111202 0.000143541 8.90504e-07
1.15686e-06 8.90504e-07 4.01047e-05
0.000884937 -2.43642e-05 7.53841e-08
-2.43642e-05 8.25756e-05 -3.56736e-07
7.53841e-08 -3.56736e-07 -7.37158e-06
0.000941151 -3.18882e-05 -6.11966e-07
-3.18882e-05 0.000109868 8.32461e-07
-6.11966e-07 8.32461e-07 3.44228e-05
0.00180841 -2.43728e-05 -1.19921e-06
-2.43728e-05 0.000108792 7.79818e-08
-1.19921e-06 7.79818e-08 1.09096e-05
0.00172012 -5.48525e-05 -4.1053e-07
-5.48525e-05 5.73501e-05 -7.77709e-08
-4.1053e-07 -7.77709e-08 -2.80429e-05
0.00162491 -9.06351e-05 -2.06958e-06
-9.06351e-05 -1.47286e-05 -1.60009e-07
-2.06958e-06 -1.60009e-07 -0.000101164
0.00192458 -0.000172388 4.09836e-08
-0.000172388 0.000154967 -4.60749e-07
4.09836e-08 -4.60749e-07 5.85627e-05
0.00057387 -9.58223e-05 -1.54591e-06
-9.58223e-05 -7.63512e-05 1.39258e-07
-1.54591e-06 1.39258e-07 -0.000195353
0.00162603 -0.000194562 -7.46683e-07
-0.000194562 0.000239015 5.22868e-06
-7.46683e-07 5.22868e-06 6.8238e-05
0.00171869 -0.000179926 1.20825e-06
-0.000179926 0.000479047 -3.56318e-06
1.20825e-06 -3.56318e-06 0.000306349
0.000798267 1.67879e-05 6.59887e-07
1.67879e-05 9.61089e-06 -1.747e-06
6.59887e-07 -1.747e-06 -2.2674e-05
0.000797207 -5.34823e-05 1.03096e-06
-5.34823e-05 3.01647e-05 -1.05106e-06
1.03096e-06 -1.05106e-06 -2.48361e-05
0.000693868 9.09555e-06 5.60358e-07
9.09555e-06 -2.96333e-05 -1.52059e-06
5.60358e-07 -1.52059e-06 -8.89417e-05
0.000886333 -3.13758e-05 9.67194e-07
-3.13758e-05 8.34367e-05 -1.93982e-07
9.67194e-07 -1.93982e-07 8.9472e-06
0.000903301 9.12379e-06 1.26368e-07
9.12379e-06 8.95281e-05 -2.84537e-07
1.26368e-07 -2.84537e-07 8.93823e-06
0.000760049 -0.000101518 1.73607e-06
-0.000101518 3.81291e-05 1.94541e-06
1.73607e-06 1.94541e-06 -6.88272e-05
0.000756921 -9.97885e-05 -3.33544e-06
-9.97885e-05 -1.66281e-05 1.51755e-06
-3.33544e-06 1.51755e-06 -0.00011064
0.00189508 -0.000165539 -3.17431e-06
-0.000165539 0.000639369 2.69809e-06
-3.17431e-06 2.69809e-06 0.000531864
0.000814241 -4.00427e-05 -4.54151e-07
-4.00427e-05 3.07021e-05 -7.36799e-07
-4.54151e-07 -7.36799e-07 -1.97007e-05
0.00084715 -6.10379e-07 -2.24646e-07
-6.10379e-07 5.66302e-05 1.37006e-07
-2.24646e-07 1.37006e-07 -1.39505e-05
0.0020428 0.000119335 1.15827e-06
0.000119335 0.000283887 4.15722e-07
1.15827e-06 4.15722e-07 0.000183569
0.000856523 1.14746e-05 -2.12535e-07
1.14746e-05 7.49849e-05 -3.32451e-07
-2.12535e-07 -3.32451e-07 -2.0275e-05
0.00111826 0.000123542 -3.59998e-07
0.000123542 0.000231232 -1.92706e-06
-3.59998e-07 -1.92706e-06 0.000106216
0.000771272 6.42378e-05 -7.68116e-07
6.42378e-05 3.60309e-05 9.99893e-07
-7.68116e-07 9.99893e-07 -7.47621e-05
0.00165695 0.000181051 9.33487e-07
0.000181051 0.000223986 -6.50506e-07
9.33487e-07 -6.50506e-07 8.77961e-05
0.0015353 0.000160616 5.70767e-06
0.000160616 6.97278e-05 2.68586e-06
5.70767e-06 2.68586e-06 -3.06084e-05
0.000859564 0.000122952 1.01271e-06
0.000122952 6.44536e-05 8.69948e-07
1.01271e-06 8.69948e-07 -9.59433e-05
0.00116086 0.000167532 -3.60622e-06
0.000167532 8.08322e-05 -1.59134e-06
-3.60622e-06 -1.59134e-06 -8.51146e-05
0.000733369 -1.09178e-05 1.5997e-07
-1.09178e-05 -5.91573e-06 5.21717e-07
1.5997e-07 5.21717e-07 -7.13967e-05
0.000744313 3.83853e-05 -1.20706e-07
3.83853e-05 1.51218e-05 -1.02913e-06
-1.20706e-07 -1.02913e-06 -7.43764e-05
0.00100786 0.000118568 6.37585e-08
0.000118568 0.000170584 -1.12439e-06
6.37585e-08 -1.12439e-06 2.88391e-05
0.000776198 6.19958e-05 -5.65377e-07
6.19958e-05 3.69091e-05 -5.56836e-07
-5.65377e-07 -5.56836e-07 -7.75051e-05
0.00194738 9.8865e-05 2.03513e-07
9.8865e-05 0.000158264 -3.97348e-07
2.03513e-07 -3.97348e-07 7.86633e-05
0.00167359 0.00014205 2.03672e-06
0.00014205 5.07614e-05 -4.88726e-07
2.03672e-06 -4.88726e-07 -4.12298e-05
0.00189701 0.000204945 -3.03041e-06
0.000204945 0.000327052 -3.79682e-07
-3.03041e-06 -3.79682e-07 0.000183801
0.00068529 0.000125396 1.09178e-06
0.000125396 -7.98451e-05 5.28482e-07
1.09178e-06 5.28482e-07 -0.000262387
0.000890681 -1.84416e-05 9.89562e-08
-1.84416e-05 8.25045e-05 2.18483e-07
9.89562e-08 2.18483e-07 1.01807e-05
0.00169441 6.85156e-05 7.09022e-07
6.85156e-05 1.5185e-05 8.5512e-07
7.09022e-07 8.5512e-07 -5.76278e-05
0.00116804 0.000107328 -2.43537e-07
0.000107328 0.000261026 2.11629e-06
-2.43537e-07 2.11629e-06 0.00014908
0.00103923 0.000123975 3.47802e-07
0.000123975 0.000170503 8.89245e-07
3.47802e-07 8.89245e-07 2.1654e-05
0.00220148 0.000127147 -3.03999e-06
0.000127147 0.000231665 3.27823e-07
-3.03999e-06 3.27823e-07 0.000159597
0.00169403 0.000204386 1.88701e-06
0.000204386 6.55704e-05 -2.32234e-06
1.88701e-06 -2.32234e-06 -5.34818e-05
0.00176823 0.00019633 -1.31196e-06
0.00019633 0.000410935 2.48644e-06
-1.31196e-06 2.48644e-06 0.00021938
0.000900351 -9.11058e-06 -1.39828e-06
-9.11058e-06 8.16669e-05 -9.31881e-08
-1.39828e-06 -9.31881e-08 2.13261e-05
0.000896187 -2.34684e-05 -4.85979e-08
-2.34684e-05 8.51738e-05 -1.90299e-08
-4.85979e-08 -1.90299e-08 1.76109e-05
0.000907359 -2.02605e-05 -1.27786e-07
-2.02605e-05 9.72754e-05 4.73455e-07
-1.27786e-07 4.73455e-07 2.30032e-05
0.000818398 -2.71055e-05 -4.80291e-07
-2.71055e-05 2.38222e-05 -6.95235e-07
-4.80291e-07 -6.95235e-07 -2.20685e-05
0.000821786 -8.41302e-06 3.59676e-08
-8.41302e-06 4.31868e-05 3.11287e-07
3.59676e-08 3.11287e-07 -1.69153e-05
0.000764087 -4.85918e-06 -2.55857e-07
-4.85918e-06 2.08028e-05 -4.94979e-07
-2.55857e-07 -4.94979e-07 -4.86151e-05
0.000831113 -1.76992e-05 -1.2419e-07
-1.76992e-05 3.10906e-05 1.96198e-08
-1.2419e-07 1.96198e-08 -1.61496e-05
0.00076668 -2.47427e-05 -5.37857e-07
-2.47427e-05 1.07485e-05 2.70354e-07
-5.37857e-07 2.70354e-07 -4.83063e-05
0.000863142 -3.47011e-05 3.60668e-07
-3.47011e-05 7.02755e-05 -3.89211e-07
3.60668e-07 -3.89211e-07 -8.34188e-07
0.000876025 4.22137e-06 1.10121e-07
4.22137e-06 7.84761e-05 5.48901e-07
1.10121e-07 5.48901e-07 1.08428e-05
0.000836094 -1.98437e-05 5.23918e-07
-1.98437e-05 5.43957e-05 -8.09501e-07
5.23918e-07 -8.09501e-07 -1.93932e-05
0.000803189 -4.99919e-05 -1.29609e-08
-4.99919e-05 3.51e-05 1.31666e-07
-1.29609e-08 1.31666e-07 -3.59486e-05
0.000909485 1.09122e-05 5.00395e-07
1.09122e-05 9.1545e-05 1.41473e-09
5.00395e-07 1.41473e-09 2.71309e-05
0.000832552 7.81479e-06 1.2306e-06
7.81479e-06 4.49262e-05 1.10508e-07
1.2306e-06 1.10508e-07 -1.62751e-05
0.000839763 4.78581e-06 5.47332e-07
4.78581e-06 3.36538e-05 5.37046e-07
5.47332e-07 5.37046e-07 -1.28493e-05
0.000780545 9.3971e-06 4.25864e-07
9.3971e-06 -4.57897e-06 1.46249e-06
4.25864e-07 1.46249e-06 -3.46914e-05
0.000789712 -1.48578e-06 -1.57683e-07
-1.48578e-06 -8.90341e-07 -8.53958e-10
-1.57683e-07 -8.53958e-10 -3.008e-05
0.00128086 -6.81334e-06 6.86465e-07
-6.81334e-06 0.000259272 1.85704e-06
6.86465e-07 1.85704e-06 0.000260723
0.000798468 -1.2787e-05 -3.36764e-07
-1.2787e-05 3.40247e-06 -1.5785e-06
-3.36764e-07 -1.5785e-06 -2.49442e-05
0.00130093 -1.25811e-05 -2.0604e-06
-1.25811e-05 0.000271871 -1.25458e-06
-2.0604e-06 -1.25458e-06 0.000273485
0.000981284 -1.16202e-05 9.35821e-06
-1.16202e-05 9.97325e-05 6.51691e-06
9.35821e-06 6.51691e-06 0.000115587
0.0013156 -1.84493e-05 -4.69072e-06
-1.84493e-05 0.00028231 -4.35955e-06
-4.69072e-06 -4.35955e-06 0.000283836
0.000932243 -1.74999e-05 3.46024e-06
-1.74999e-05 7.51172e-05 2.44766e-06
3.46024e-06 2.44766e-06 9.0973e-05
0.000870778 -2.28992e-05 -1.59019e-06
-2.28992e-05 4.61993e-05 -1.59426e-06
-1.59019e-06 -1.59426e-06 6.14466e-05
0.000789775 1.19347e-05 3.47747e-07
1.19347e-05 2.7392e-06 -1.69394e-06
3.47747e-07 -1.69394e-06 -2.75136e-05
0.000723798 2.18736e-05 8.25857e-07
2.18736e-05 -3.75487e-05 -3.39404e-06
8.25857e-07 -3.39404e-06 -4.20553e-05
0.0007239 2.75179e-05 -1.42096e-07
2.75179e-05 -3.19208e-05 3.01612e-08
-1.42096e-07 3.01612e-08 -3.8916e-05
0.00215593 3.98386e-05 1.86165e-05
3.98386e-05 0.000756507 -3.89715e-06
1.86165e-05 -3.89715e-06 0.000774714
0.000727186 3.23011e-05 -1.64703e-06
3.23011e-05 -2.4116e-05 3.61006e-06
-1.64703e-06 3.61006e-06 -3.39046e-05
0.00223658 4.81199e-05 -1.69373e-06
4.81199e-05 0.00080784 -9.61529e-08
-1.69373e-06 -9.61529e-08 0.0008238
0.00231827 5.56508e-05 -2.96762e-05
5.56508e-05 0.000860384 3.64334e-06
-2.96762e-05 3.64334e-06 0.000874086
0.00184741 7.15606e-05 1.08581e-06
7.15606e-05 0.00015845 6.30699e-07
1.08581e-06 6.30699e-07 6.23045e-05
0.00174657 4.12685e-05 9.29536e-07
4.12685e-05 9.44825e-05 -2.47902e-07
9.29536e-07 -2.47902e-07 -4.68771e-06
0.00173371 1.89564e-05 1.10223e-06
1.89564e-05 8.67917e-05 -5.02854e-07
1.10223e-06 -5.02854e-07 -1.94364e-05
0.0017614 8.27125e-06 1.54577e-07
8.27125e-06 0.000119276 -1.25835e-07
1.54577e-07 -1.25835e-07 5.64179e-06
0.00177805 4.2523e-06 -3.5819e-07
4.2523e-06 0.000104526 9.07537e-08
-3.5819e-07 9.07537e-08 -2.93849e-06
0.00185346 2.57917e-05 3.38443e-07
2.57917e-05 0.000123534 -1.78254e-07
3.38443e-07 -1.78254e-07 2.79181e-05
0.00175491 6.92245e-05 2.41731e-08
6.92245e-05 7.30287e-05 -3.57006e-08
2.41731e-08 -3.57006e-08 -1.83104e-05
0.00178806 7.51763e-07 -1.16228e-06
7.51763e-07 9.73161e-05 5.70875e-07
-1.16228e-06 5.70875e-07 6.35772e-07
0.00196859 3.72451e-05 -3.80041e-07
3.72451e-05 0.000171757 -1.21621e-07
-3.80041e-07 -1.21621e-07 8.60722e-05
0.0015917 2.54368e-05 1.00036e-06
2.54368e-05 -4.68719e-05 4.02908e-07
1.00036e-06 4.02908e-07 -0.000113676
0.00183241 -1.0947e-05 -2.51791e-08
-1.0947e-05 0.000139308 -2.26323e-09
-2.51791e-08 -2.26323e-09 3.05154e-05
0.0018083 -4.30016e-05 1.44371e-06
-4.30016e-05 0.000135992 -6.89537e-08
1.44371e-06 -6.89537e-08 3.93528e-05
0.00172765 -7.14028e-05 -1.80362e-07
-7.14028e-05 9.33161e-05 -4.07109e-07
-1.80362e-07 -4.07109e-07 -3.37241e-06
0.00109231 -0.000122314 -5.06281e-07
-0.000122314 0.000184936 1.37694e-06
-5.06281e-07 1.37694e-06 7.44891e-05
0.000850019 -0.000121206 1.29759e-07
-0.000121206 4.64773e-05 3.83452e-06
1.29759e-07 3.83452e-06 -9.44074e-05
0.00161216 -0.000182884 -2.75496e-06
-0.000182884 0.000318881 3.04058e-06
-2.75496e-06 3.04058e-06 0.000145352
0.00190072 -0.000132192 4.47203e-06
-0.000132192 0.000162644 -2.55237e-07
4.47203e-06 -2.55237e-07 6.54632e-05
0.00163574 -0.000170929 -2.75054e-06
-0.000170929 0.000116879 -2.9443e-06
-2.75054e-06 -2.9443e-06 -7.27491e-06
0.000512307 -8.64898e-05 -1.52023e-06
-8.64898e-05 -0.000121706 4.0272e-07
-1.52023e-06 4.0272e-07 -0.000224713
0.0011267 -0.000116516 4.70414e-06
-0.000116516 0.000207862 -2.92486e-06
4.70414e-06 -2.92486e-06 0.000106081
0.000811511 1.00251e-05 -1.75291e-08
1.00251e-05 3.72909e-05 -2.79768e-07
-1.75291e-08 -2.79768e-07 -4.82275e-05
0.000776087 2.06916e-05 -7.35541e-07
2.06916e-05 1.61759e-07 1.15298e-06
-7.35541e-07 1.15298e-06 -3.42219e-05
0.000911934 2.45453e-05 -6.65824e-07
2.45453e-05 8.5526e-05 1.24531e-06
-6.65824e-07 1.24531e-06 2.70685e-05
0.00087221 -1.14341e-05 -5.99375e-07
-1.14341e-05 7.29263e-05 1.03575e-06
-5.99375e-07 1.03575e-06 -2.84568e-06
0.00183306 -2.4394e-05 -8.39706e-08
-2.4394e-05 0.000125486 1.10923e-07
-8.39706e-08 1.10923e-07 2.90846e-05
0.000792506 1.54839e-05 6.55792e-08
1.54839e-05 6.23267e-06 1.6207e-08
6.55792e-08 1.6207e-08 -2.5991e-05
0.000735303 -6.70254e-06 -3.27309e-07
-6.70254e-06 -9.65861e-06 8.87658e-08
-3.27309e-07 8.87658e-08 -6.07557e-05
0.00178679 -5.79403e-05 4.56866e-10
-5.79403e-05 9.35491e-05 -1.36949e-07
4.56866e-10 -1.36949e-07 7.42429e-06
0.00162724 -9.06582e-05 -7.96253e-07
-9.06582e-05 -1.63079e-05 4.2157e-07
-7.96253e-07 4.2157e-07 -0.000104958
0.000687458 -0.000101125 -9.45397e-08
-0.000101125 -1.05317e-05 2.13853e-06
-9.45397e-08 2.13853e-06 -0.000127825
0.00142923 -0.00016268 -1.07722e-06
-0.00016268 0.000326513 4.85378e-07
-1.07722e-06 4.85378e-07 0.000148814
0.00134633 -0.000177271 1.47804e-06
-0.000177271 8.93001e-05 8.05943e-07
1.47804e-06 8.05943e-07 -7.53769e-05
0.00197096 -0.000179747 1.27605e-06
-0.000179747 0.000181968 -4.74655e-07
1.27605e-06 -4.74655e-07 8.46081e-05
0.000877097 -1.89511e-05 1.10954e-06
-1.89511e-05 6.8782e-05 -5.54139e-07
1.10954e-06 -5.54139e-07 1.15483e-05
0.000870002 -1.85397e-05 -4.25123e-07
-1.85397e-05 7.60479e-05 4.78689e-07
-4.25123e-07 4.78689e-07 5.32824e-07
0.00089375 -0.000101177 5.60354e-07
-0.000101177 5.06972e-05 2.67412e-07
5.60354e-07 2.67412e-07 -4.6443e-05
0.00126084 -0.000130128 3.16726e-06
-0.000130128 0.000298184 -1.55837e-06
3.16726e-06 -1.55837e-06 0.000202537
0.00072143 -7.24909e-05 -4.04619e-07
-7.24909e-05 1.36438e-05 3.53196e-07
-4.04619e-07 3.53196e-07 -9.13227e-05
0.000898025 4.04695e-06 1.78838e-07
4.04695e-06 8.84739e-05 -3.11311e-07
1.78838e-07 -3.11311e-07 6.42692e-06
0.00187676 -2.95403e-05 -2.94942e-06
-2.95403e-05 0.000122711 -3.42021e-08
-2.94942e-06 -3.42021e-08 4.34657e-05
0.00191431 -5.19575e-05 3.04055e-06
-5.19575e-05 0.00013405 6.68097e-07
3.04055e-06 6.68097e-07 5.58379e-05
0.00183793 -0.000157049 -4.76066e-06
-0.000157049 3.69743e-05 -1.55435e-06
-4.76066e-06 -1.55435e-06 -4.32485e-05
0.00110678 -0.000178357 3.20024e-07
-0.000178357 -0.000194368 1.49957e-06
3.20024e-07 1.49957e-06 -0.000307443
0.00103418 -9.71129e-05 -2.81251e-06
-9.71129e-05 0.000155507 -1.62793e-06
-2.81251e-06 -1.62793e-06 3.60193e-05
0.002025 -0.000215434 -2.25989e-06
-0.000215434 0.000588322 -2.94347e-07
-2.25989e-06 -2.94347e-07 0.000382298
0.000633324 4.10505e-05 -1.03082e-06
4.10505e-05 -6.17854e-05 -1.48634e-06
-1.03082e-06 -1.48634e-06 -0.000113241
0.000810127 -2.41404e-05 5.65817e-07
-2.41404e-05 2.92475e-05 -1.04207e-06
5.65817e-07 -1.04207e-06 -2.32763e-05
0.000996208 -3.20083e-05 8.19563e-07
-3.20083e-05 0.000146912 -4.5807e-07
8.19563e-07 -4.5807e-07 8.06039e-05
0.000695675 1.86906e-05 -5.62874e-07
1.86906e-05 -1.49456e-05 -5.57677e-07
-5.62874e-07 -5.57677e-07 -9.16054e-05
0.00104247 -1.22369e-05 2.74191e-07
-1.22369e-05 0.000170122 -3.52793e-08
2.74191e-07 -3.52793e-08 9.01955e-05
0.000510222 -1.89608e-05 4.91003e-07
-1.89608e-05 -0.000100951 3.60065e-07
4.91003e-07 3.60065e-07 -0.000196734
0.00118164 -7.87683e-05 5.83501e-06
-7.87683e-05 0.000284658 9.17425e-08
5.83501e-06 9.17425e-08 0.000165701
0.000768174 -0.000107783 -1.04807e-05
-0.000107783 1.17028e-05 2.94263e-06
-1.04807e-05 2.94263e-06 -7.51921e-05
0.000726025 7.25407e-06 -2.74199e-07
7.25407e-06 -7.54582e-06 -5.80199e-08
-2.74199e-07 -5.80199e-08 -7.54777e-05
0.000836211 4.77362e-05 -1.62376e-06
4.77362e-05 6.47389e-05 -1.90077e-06
-1.62376e-06 -1.90077e-06 -2.52804e-05
0.0019499 9.48372e-05 -9.0534e-07
9.48372e-05 0.000161306 -3.91063e-07
-9.0534e-07 -3.91063e-07 8.25209e-05
0.00142723 0.000137925 1.9086e-06
0.000137925 -6.36266e-05 8.20001e-07
1.9086e-06 8.20001e-07 -0.000158291
0.00115978 6.68887e-05 -2.17297e-06
6.68887e-05 0.000238597 -4.1517e-07
-2.17297e-06 -4.1517e-07 0.000124672
0.000958955 0.000115961 -6.15783e-07
0.000115961 0.000147901 -2.15559e-06
-6.15783e-07 -2.15559e-06 5.55755e-06
0.00229404 0.00022075 7.47138e-07
0.00022075 0.000531787 7.82585e-07
7.47138e-07 7.82585e-07 0.000390263
0.00122055 0.00015916 -9.12879e-07
0.00015916 0.000188616 -1.11954e-06
-9.12879e-07 -1.11954e-06 6.76975e-06
0.000867834 7.50562e-06 3.89882e-07
7.50562e-06 7.38232e-05 -5.70421e-07
3.89882e-07 -5.70421e-07 -8.96231e-07
0.0017771 6.63977e-05 -3.85325e-07
6.63977e-05 5.25148e-05 1.94341e-07
-3.85325e-07 1.94341e-07 -1.98323e-05
0.000937804 7.78109e-05 8.15953e-08
7.78109e-05 0.00013394 1.05855e-06
8.15953e-08 1.05855e-06 2.64304e-05
0.000840364 0.000111914 2.76697e-07
0.000111914 6.54633e-05 -1.79426e-07
2.76697e-07 -1.79426e-07 -8.54733e-05
0.00194118 0.000121234 2.06924e-06
0.000121234 9.68615e-05 -3.10323e-08
2.06924e-06 -3.10323e-08 2.45178e-05
0.00183709 0.00020758 2.90653e-07
0.00020758 0.000135274 -1.15223e-06
2.90653e-07 -1.15223e-06 1.78849e-05
0.00184599 0.000202786 8.45412e-07
0.000202786 0.000460135 1.28845e-06
8.45412e-07 1.28845e-06 0.000268241
0.00102381 2.50094e-05 -9.57754e-07
2.50094e-05 0.000169254 8.84386e-07
-9.57754e-07 8.84386e-07 7.83641e-05
0.00192514 7.76282e-05 -9.01745e-06
7.76282e-05 9.48606e-05 -1.22824e-06
-9.01745e-06 -1.22824e-06 4.55181e-05
0.0017927 0.000142208 -2.594e-06
0.000142208 0.00057276 3.9313e-07
-2.594e-06 3.9313e-07 0.000448593
0.00194704 0.000189034 -3.13207e-06
0.000189034 0.000614942 1.0485e-06
-3.13207e-06 1.0485e-06 0.000441594
0.0023431 0.000224057 3.29653e-07
0.000224057 0.000276276 -4.60942e-07
3.29653e-07 -4.60942e-07 0.000198717
0.0015124 0.000201478 -2.9524e-06
0.000201478 0.000157033 9.52585e-07
-2.9524e-06 9.52585e-07 -1.1956e-05
0.000467879 8.9098e-05 1.24851e-05
8.9098e-05 -0.000353013 1.60166e-06
1.24851e-05 1.60166e-06 -0.000494631
0.000878829 -9.05898e-06 1.14208e-08
-9.05898e-06 7.61954e-05 -3.5372e-07
1.14208e-08 -3.5372e-07 8.53799e-06
0.000898395 -1.68012e-05 -3.7954e-08
-1.68012e-05 9.31986e-05 1.26167e-07
-3.7954e-08 1.26167e-07 1.85603e-05
0.000903485 -9.38646e-06 4.22145e-08
-9.38646e-06 9.06439e-05 -7.49239e-07
4.22145e-08 -7.49239e-07 1.20297e-05
0.000823273 -3.94298e-05 -2.58182e-07
-3.94298e-05 2.88263e-05 -6.79768e-07
-2.58182e-07 -6.79768e-07 -1.97593e-05
0.000785215 -5.16976e-05 -8.72062e-07
-5.16976e-05 2.1185e-05 2.15027e-07
-8.72062e-07 2.15027e-07 -3.8135e-05
0.000914887 5.12413e-05 -8.29309e-07
5.12413e-05 0.000103392 4.46817e-07
-8.29309e-07 4.46817e-07 3.41065e-05
0.000837639 -3.70052e-05 1.34886e-07
-3.70052e-05 5.69983e-05 -1.13517e-07
1.34886e-07 -1.13517e-07 -1.52531e-05
0.000822189 -2.36697e-05 -1.15192e-07
-2.36697e-05 2.89278e-05 4.25976e-08
-1.15192e-07 4.25976e-08 -2.0686e-05
0.000786839 1.08414e-06 4.1279e-08
1.08414e-06 1.429e-05 -5.20857e-08
4.1279e-08 -5.20857e-08 -4.30241e-05
0.000844489 -2.29881e-05 4.46425e-07
-2.29881e-05 5.89699e-05 -4.5129e-07
4.46425e-07 -4.5129e-07 -1.54098e-05
0.000903987 -2.27642e-05 -8.94668e-08
-2.27642e-05 8.66308e-05 -8.22758e-10
-8.94668e-08 -8.22758e-10 2.32458e-05
0.000897264 -3.85298e-05 2.94299e-07
-3.85298e-05 8.56675e-05 -4.65754e-08
2.94299e-07 -4.65754e-08 1.52632e-05
0.0008613 -2.86144e-05 -1.68054e-07
-2.86144e-05 6.41204e-05 -6.3657e-07
-1.68054e-07 -6.3657e-07 -8.61869e-06
0.000850114 -1.07143e-05 5.13563e-07
-1.07143e-05 5.38379e-05 -6.44916e-07
5.13563e-07 -6.44916e-07 -1.06726e-05
0.00091348 -4.47548e-06 7.74855e-07
-4.47548e-06 8.5137e-05 -2.74936e-07
7.74855e-07 -2.74936e-07 2.33179e-05
0.000837234 1.96693e-05 1.4927e-07
1.96693e-05 4.33854e-05 1.68608e-07
1.4927e-07 1.68608e-07 -2.00607e-05
0.000731782 -4.87899e-06 1.62536e-07
-4.87899e-06 -2.52387e-05 9.54437e-07
1.62536e-07 9.54437e-07 -7.36493e-05
0.000940902 -4.26433e-06 3.09915e-07
-4.26433e-06 0.000111126 -3.51786e-07
3.09915e-07 -3.51786e-07 4.57131e-05
0.000711024 7.29041e-06 -4.94338e-07
7.29041e-06 -3.23368e-05 9.29689e-07
-4.94338e-07 9.29689e-07 -8.22486e-05
0.000783432 1.23637e-05 1.93381e-07
1.23637e-05 -2.12167e-06 1.4198e-06
1.93381e-07 1.4198e-06 -3.26908e-05
0.000783188 2.48283e-06 -1.80064e-07
2.48283e-06 -3.11415e-06 2.83206e-10
-1.80064e-07 2.83206e-10 -3.31939e-05
0.000731306 6.98512e-07 2.48085e-07
6.98512e-07 -4.21307e-05 3.12074e-06
2.48085e-07 3.12074e-06 -4.43058e-05
0.00079496 -7.97877e-06 -2.25913e-08
-7.97877e-06 2.08778e-06 -1.47513e-06
-2.25913e-08 -1.47513e-06 -2.71332e-05
0.00102323 -5.23161e-06 -1.32309e-06
-5.23161e-06 0.000118189 -1.3092e-06
-1.32309e-06 -1.3092e-06 0.000117953
0.00209702 -8.11976e-06 5.77352e-06
-8.11976e-06 0.000709984 4.11074e-06
5.77352e-06 4.11074e-06 0.000732011
0.00132857 -1.16608e-05 -2.87087e-06
-1.16608e-05 0.000287241 -4.37879e-06
-2.87087e-06 -4.37879e-06 0.00028862
0.000943116 -1.18978e-05 1.87455e-06
-1.18978e-05 7.80472e-05 2.51534e-06
1.87455e-06 2.51534e-06 9.40987e-05
0.000890019 -1.71796e-05 -1.09731e-06
-1.71796e-05 5.16849e-05 -1.59213e-06
-1.09731e-06 -1.59213e-06 6.77488e-05
0.000793463 8.33515e-06 2.53576e-07
8.33515e-06 4.02161e-06 -1.6498e-06
2.53576e-07 -1.6498e-06 -2.50663e-05
0.000793981 1.10501e-05 -2.81139e-08
1.10501e-05 4.80209e-06 7.10729e-09
-2.81139e-08 7.10729e-09 -2.54789e-05
0.000733802 1.6348e-05 4.62619e-07
1.6348e-05 -3.64482e-05 -3.35052e-06
4.62619e-07 -3.35052e-06 -3.92704e-05
0.00102674 2.47655e-05 -4.76479e-07
2.47655e-05 0.000128551 3.0226e-08
-4.76479e-07 3.0226e-08 0.000125453
0.00211251 3.15538e-05 1.53912e-05
3.15538e-05 0.000727263 -4.01176e-06
1.53912e-05 -4.01176e-06 0.000747151
0.000736837 2.79437e-05 -1.13144e-06
2.79437e-05 -2.50629e-05 3.49929e-06
-1.13144e-06 3.49929e-06 -3.21403e-05
0.00217481 4.03239e-05 -1.77151e-06
4.03239e-05 0.000767644 -8.4263e-08
-1.77151e-06 -8.4263e-08 0.000785572
0.00225673 4.83289e-05 -2.52422e-05
4.83289e-05 0.000819722 3.81007e-06
-2.52422e-05 3.81007e-06 0.000835442
0.00172665 7.08814e-05 -8.83897e-07
7.08814e-05 5.44681e-05 -3.55088e-07
-8.83897e-07 -3.55088e-07 -3.67894e-05
0.00182261 2.53829e-05 6.7553e-07
2.53829e-05 0.000104213 -4.11492e-07
6.7553e-07 -4.11492e-07 8.19462e-06
0.00180416 5.44414e-07 2.70486e-07
5.44414e-07 0.00011852 -1.91801e-07
2.70486e-07 -1.91801e-07 1.18528e-05
0.00177357 2.84998e-06 3.24841e-07
2.84998e-06 8.66873e-05 1.18571e-07
3.24841e-07 1.18571e-07 -1.02159e-05
0.00184441 3.6258e-05 -8.20208e-07
3.6258e-05 0.000109775 1.7809e-07
-8.20208e-07 1.7809e-07 2.37531e-05
0.00174177 2.27125e-05 2.2432e-06
2.27125e-05 3.9979e-05 1.32012e-07
2.2432e-06 1.32012e-07 -2.94051e-05
0.00165449 5.11598e-06 -1.2511e-06
5.11598e-06 6.64676e-06 -6.82846e-07
-1.2511e-06 -6.82846e-07 -6.92889e-05
0.00352109 -1.45583e-05 9.91737e-06
-1.45583e-05 0.00079573 2.69276e-06
9.91737e-06 2.69276e-06 0.000747227
0.00164606 2.87659e-05 -4.6017e-06
2.87659e-05 -4.25621e-05 4.44853e-07
-4.6017e-06 4.44853e-07 -8.76411e-05
0.000820272 2.7065e-05 6.56303e-08
2.7065e-05 3.69979e-05 -8.78538e-07
6.56303e-08 -8.78538e-07 -1.06305e-05
0.00186196 -2.45252e-05 1.47892e-06
-2.45252e-05 0.000143931 9.669e-09
1.47892e-06 9.669e-09 4.90058e-05
0.00183128 -5.91148e-05 -2.59895e-07
-5.91148e-05 0.000119051 -3.29554e-07
-2.59895e-07 -3.29554e-07 3.22988e-05
0.0016883 -9.03532e-05 2.70576e-06
-9.03532e-05 1.51347e-05 1.00222e-07
2.70576e-06 1.00222e-07 -7.51456e-05
0.00082284 -0.000107544 1.68395e-06
-0.000107544 6.71207e-05 2.5848e-06
1.68395e-06 2.5848e-06 -4.86012e-05
0.00117567 -0.000146983 7.9204e-07
-0.000146983 0.000194374 4.46765e-06
7.9204e-07 4.46765e-06 9.48195e-06
0.00113238 -0.000163775 8.51914e-07
-0.000163775 -2.52042e-05 -2.1476e-06
8.51914e-07 -2.1476e-06 -0.000185277
0.002028 -0.000188866 1.19938e-06
-0.000188866 0.000214106 -1.90065e-06
1.19938e-06 -1.90065e-06 0.00011561
0.00105073 -0.000109687 6.16608e-06
-0.000109687 0.000130885 -3.14617e-06
6.16608e-06 -3.14617e-06 2.95793e-05
0.000554184 -9.21217e-05 -2.99267e-07
-9.21217e-05 -8.08797e-05 -8.17988e-06
-2.99267e-07 -8.17988e-06 -0.000164511
0.000644829 -6.63439e-05 -2.48668e-07
-6.63439e-05 -2.78096e-05 -2.42376e-08
-2.48668e-07 -2.42376e-08 -0.000133256
0.000788696 1.44859e-05 -7.60891e-07
1.44859e-05 4.01067e-06 1.79885e-06
-7.60891e-07 1.79885e-06 -2.81788e-05
0.00090445 -5.8909e-06 -2.90742e-08
-5.8909e-06 9.36442e-05 -4.33146e-07
-2.90742e-08 -4.33146e-07 1.00505e-05
0.00105409 -4.51638e-05 -4.18638e-07
-4.51638e-05 0.000167689 4.65957e-07
-4.18638e-07 4.65957e-07 0.000109995
0.000857094 -1.11297e-05 -7.62362e-07
-1.11297e-05 6.89645e-05 1.13545e-06
-7.62362e-07 1.13545e-06 -6.48482e-06
0.000668882 -3.36622e-06 -9.68441e-08
-3.36622e-06 -4.87739e-05 9.72047e-07
-9.68441e-08 9.72047e-07 -9.82273e-05
0.00185424 -3.0866e-05 -3.35536e-07
-3.0866e-05 0.000109998 -1.02021e-07
-3.35536e-07 -1.02021e-07 3.20245e-05
0.000724926 1.7104e-05 1.86374e-07
1.7104e-05 -1.13869e-05 -5.53949e-07
1.86374e-07 -5.53949e-07 -6.27049e-05
0.000815732 -3.68406e-05 -4.26425e-07
-3.68406e-05 3.62647e-05 4.20757e-08
-4.26425e-07 4.20757e-08 -1.91721e-05
0.000853896 -1.11592e-05 -6.37516e-07
-1.11592e-05 7.11672e-05 5.10719e-07
-6.37516e-07 5.10719e-07 2.63277e-06
0.00174406 -5.49965e-05 6.73209e-07
-5.49965e-05 3.54666e-05 -3.4763e-07
6.73209e-07 -3.4763e-07 -4.21587e-05
0.0018088 -0.000155235 -7.93278e-07
-0.000155235 3.88153e-05 4.71213e-08
-7.93278e-07 4.71213e-08 -4.22818e-05
0.000890085 -9.97114e-05 8.44645e-08
-9.97114e-05 6.62774e-05 1.62706e-07
8.44645e-08 1.62706e-07 -4.76689e-05
0.00119794 -0.00016675 5.29825e-07
-0.00016675 0.000174097 -5.9722e-07
5.29825e-07 -5.9722e-07 -3.55897e-05
0.00159103 -0.000202281 -6.26943e-07
-0.000202281 6.13087e-05 3.97237e-07
-6.26943e-07 3.97237e-07 -5.61324e-05
0.000797895 2.61794e-06 -1.63309e-07
2.61794e-06 4.11164e-05 5.42258e-09
-1.63309e-07 5.42258e-09 -3.50492e-05
0.00095503 -2.90785e-05 -2.78819e-08
-2.90785e-05 0.000126583 6.93252e-08
-2.78819e-08 6.93252e-08 4.39703e-05
0.000685713 -0.000105228 -5.32044e-06
-0.000105228 -2.46307e-05 1.19804e-06
-5.32044e-06 1.19804e-06 -0.000118186
0.00103277 -6.39471e-05 8.70864e-07
-6.39471e-05 0.000200842 -5.31157e-07
8.70864e-07 -5.31157e-07 8.66649e-05
0.000763194 -3.98257e-05 -3.58536e-07
-3.98257e-05 3.49038e-05 8.89711e-07
-3.58536e-07 8.89711e-07 -6.14452e-05
0.0018548 -7.06515e-05 -3.2589e-06
-7.06515e-05 5.72824e-05 2.77528e-07
-3.2589e-06 2.77528e-07 -9.28617e-06
0.00228456 -9.26798e-05 -1.61972e-07
-9.26798e-05 0.000270303 9.79707e-07
-1.61972e-07 9.79707e-07 0.000206862
0.00196322 -0.000226187 2.59525e-07
-0.000226187 0.000129824 -1.09709e-06
2.59525e-07 -1.09709e-06 3.24578e-05
0.00184126 -0.00021803 -5.38978e-06
-0.00021803 0.000381502 3.26646e-07
-5.38978e-06 3.26646e-07 0.000218381
0.00097723 -0.000106857 -1.75013e-06
-0.000106857 0.00015195 -2.54803e-06
-1.75013e-06 -2.54803e-06 -8.41906e-07
0.00066162 1.65766e-05 2.94697e-07
1.65766e-05 -3.51472e-05 -1.04953e-06
2.94697e-07 -1.04953e-06 -0.000102769
0.00073065 5.38883e-05 -3.21797e-07
5.38883e-05 4.64318e-06 -8.47894e-07
-3.21797e-07 -8.47894e-07 -6.74227e-05
0.00102317 1.77777e-05 8.32324e-07
1.77777e-05 0.000160824 3.59477e-07
8.32324e-07 3.59477e-07 8.56027e-05
0.00079582 -5.56243e-05 1.36687e-06
-5.56243e-05 4.52239e-05 -9.85564e-08
1.36687e-06 -9.85564e-08 -3.8314e-05
0.000949871 1.35645e-06 6.12384e-07
1.35645e-06 0.000120285 5.96943e-07
6.12384e-07 5.96943e-07 3.58102e-05
0.00079843 -9.83632e-06 1.20594e-06
-9.83632e-06 6.31662e-05 -1.22843e-06
1.20594e-06 -1.22843e-06 -4.15989e-05
0.000684608 -7.96138e-05 8.54176e-06
-7.96138e-05 3.6803e-05 5.34649e-07
8.54176e-06 5.34649e-07 -0.000110473
0.000854947 3.70458e-05 4.03008e-08
3.70458e-05 7.11488e-05 -1.5586e-06
4.03008e-08 -1.5586e-06 -6.49637e-06
0.000694611 4.83012e-05 7.17605e-08
4.83012e-05 4.67118e-07 -1.12624e-07
7.17605e-08 -1.12624e-07 -0.000102632
0.00186128 6.3721e-05 -2.31139e-07
6.3721e-05 9.13598e-05 -4.80623e-07
-2.31139e-07 -4.80623e-07 1.94649e-05
0.00169348 0.000115052 2.87748e-06
0.000115052 -3.03553e-05 -5.87548e-07
2.87748e-06 -5.87548e-07 -0.000102606
0.00189581 0.000207425 9.8391e-07
0.000207425 0.000161667 -6.32561e-07
9.8391e-07 -6.32561e-07 4.6351e-05
0.000628532 9.95136e-05 1.20819e-06
9.95136e-05 -4.62477e-05 -2.92518e-07
1.20819e-06 -2.92518e-07 -0.000199062
0.00187047 0.000206674 1.39509e-06
0.000206674 0.0004803 1.16731e-06
1.39509e-06 1.16731e-06 0.000289219
0.00101447 1.59815e-05 -2.31742e-07
1.59815e-05 0.00016263 1.10446e-07
-2.31742e-07 1.10446e-07 7.5404e-05
0.00187557 7.68433e-05 -1.49501e-06
7.68433e-05 6.28402e-05 -3.81494e-07
-1.49501e-06 -3.81494e-07 1.91295e-05
0.00125397 0.000115383 -9.32962e-07
0.000115383 0.000292035 2.60722e-07
-9.32962e-07 2.60722e-07 0.00017119
0.00139082 0.000154745 -5.80297e-07
0.000154745 0.000337916 7.25697e-07
-5.80297e-07 7.25697e-07 0.000164283
0.00209701 0.000206908 1.5316e-06
0.000206908 0.000144158 -7.81856e-07
1.5316e-06 -7.81856e-07 6.84264e-05
0.00142802 0.000198887 -1.80565e-06
0.000198887 0.000117784 1.16598e-06
-1.80565e-06 1.16598e-06 -5.51366e-05
0.00152012 9.71242e-05 1.03127e-05
9.71242e-05 -2.79728e-05 1.37415e-06
1.03127e-05 1.37415e-06 -0.000189624
0.00107938 4.10819e-05 -1.34376e-06
4.10819e-05 0.000195916 -1.03383e-06
-1.34376e-06 -1.03383e-06 9.77661e-05
0.00276953 0.000142362 -1.23462e-05
0.000142362 0.000524049 -8.34729e-06
-1.23462e-05 -8.34729e-06 0.000519254
0.00133346 0.000144314 -4.44627e-06
0.000144314 0.000347394 -9.97782e-07
-4.44627e-06 -9.97782e-07 0.000214529
0.00129132 0.000161307 -4.98412e-06
0.000161307 0.000245603 -9.23256e-07
-4.98412e-06 -9.23256e-07 4.76424e-05
0.000163627 0.000194215 -6.87606e-06
0.000194215 -0.000682186 -2.19712e-06
-6.87606e-06 -2.19712e-06 -0.000812298
0.00705672 -1.63988e-06 -6.00254e-05
-1.63988e-06 0.0022893 -2.22903e-05
-6.00254e-05 -2.22903e-05 0.00147486
0.00388637 0.000127018 8.28322e-05
0.000127018 0.000569074 6.04941e-06
8.28322e-05 6.04941e-06 -3.51785e-05
-0.000167791 0.000178882 6.72339e-06
0.000178882 -0.000746755 1.828e-05
6.72339e-06 1.828e-05 -0.000820694
-0.0013193 -0.000327972 1.55675e-05
-0.000327972 -0.000615573 -1.05936e-05
1.55675e-05 -1.05936e-05 -0.000652578
0.00288309 -0.000588439 -2.37698e-05
-0.000588439 0.000345058 -9.53917e-06
-2.37698e-05 -9.53917e-06 0.00143268
0.00090505 -1.48632e-05 2.13499e-07
-1.48632e-05 9.64428e-05 -3.45514e-07
2.13499e-07 -3.45514e-07 2.19625e-05
0.000922819 -1.52217e-05 5.04816e-07
-1.52217e-05 0.000103527 -2.64725e-07
5.04816e-07 -2.64725e-07 2.5352e-05
0.000980471 2.4724e-05 -1.0464e-07
2.4724e-05 0.00013699 -1.55927e-06
-1.0464e-07 -1.55927e-06 5.94642e-05
0.000804902 -4.42264e-05 9.6712e-08
-4.42264e-05 2.26959e-05 -7.19034e-07
9.6712e-08 -7.19034e-07 -2.89405e-05
0.000731232 3.45889e-05 -8.7806e-07
3.45889e-05 -1.37996e-05 -1.15041e-07
-8.7806e-07 -1.15041e-07 -7.24965e-05
0.000907901 -4.44381e-05 -2.92813e-08
-4.44381e-05 8.87963e-05 -3.6227e-08
-2.92813e-08 -3.6227e-08 2.49978e-05
0.000977382 -2.47707e-05 -4.35829e-07
-2.47707e-05 0.000128306 2.63382e-07
-4.35829e-07 2.63382e-07 5.90485e-05
0.000846285 -2.73739e-05 5.27658e-07
-2.73739e-05 5.96012e-05 -4.5954e-07
5.27658e-07 -4.5954e-07 -1.53944e-05
0.00084724 2.33933e-05 -5.75139e-07
2.33933e-05 5.26148e-05 -2.39216e-07
-5.75139e-07 -2.39216e-07 -1.17505e-05
0.000766955 -2.08173e-06 1.02352e-08
-2.08173e-06 -2.76432e-06 4.65603e-07
1.02352e-08 4.65603e-07 -5.22742e-05
0.000847393 1.89173e-05 -2.75034e-07
1.89173e-05 4.83861e-05 -7.08869e-08
-2.75034e-07 -7.08869e-08 -1.42165e-05
0.000878163 -2.7668e-05 -1.75353e-07
-2.7668e-05 7.30327e-05 3.27019e-07
-1.75353e-07 3.27019e-07 5.32432e-07
0.000874871 -1.45034e-05 2.03436e-08
-1.45034e-05 6.70046e-05 -1.39722e-07
2.03436e-08 -1.39722e-07 2.52196e-06
0.000775728 8.68325e-06 5.51958e-07
8.68325e-06 9.49715e-06 -5.30111e-07
5.51958e-07 -5.30111e-07 -5.3765e-05
0.000850954 -1.2482e-05 5.47958e-07
-1.2482e-05 5.18516e-05 -9.5845e-07
5.47958e-07 -9.5845e-07 -1.21146e-05
0.000889124 8.5471e-06 1.25329e-06
8.5471e-06 6.51546e-05 1.48967e-07
1.25329e-06 1.48967e-07 1.55679e-06
0.000814488 2.58798e-06 1.00687e-06
2.58798e-06 2.37416e-05 -2.56088e-08
1.00687e-06 -2.56088e-08 -3.8485e-05
0.000708087 -3.29001e-05 -1.19863e-06
-3.29001e-05 -3.36428e-05 1.0088e-06
-1.19863e-06 1.0088e-06 -8.44491e-05
0.000893899 8.65144e-06 -3.41798e-07
8.65144e-06 7.51048e-05 5.55577e-08
-3.41798e-07 5.55577e-08 1.13188e-05
0.000963115 6.22967e-05 -5.60294e-08
6.22967e-05 0.000113789 -7.10486e-07
-5.60294e-08 -7.10486e-07 4.74574e-05
0.0007928 1.18368e-05 -5.78327e-07
1.18368e-05 3.05374e-05 3.30893e-09
-5.78327e-07 3.30893e-09 -3.19944e-05
0.000899628 1.34338e-05 5.08834e-07
1.34338e-05 8.27117e-05 -3.28e-07
5.08834e-07 -3.28e-07 2.01617e-05
0.000819922 -2.18297e-05 -1.37445e-06
-2.18297e-05 2.78454e-05 4.9244e-07
-1.37445e-06 4.9244e-07 -2.06855e-05
0.000718286 6.01911e-06 1.07839e-07
6.01911e-06 -2.52391e-05 4.10478e-07
1.07839e-07 4.10478e-07 -7.7289e-05
0.000789848 1.41665e-05 -1.72932e-07
1.41665e-05 1.58339e-06 1.45673e-06
-1.72932e-07 1.45673e-06 -2.90049e-05
0.00078134 5.22637e-06 -1.31793e-07
5.22637e-06 -3.4134e-06 1.82434e-09
-1.31793e-07 1.82434e-09 -3.38844e-05
0.000748719 5.82721e-06 -3.15745e-07
5.82721e-06 -3.13822e-05 4.44196e-06
-3.15745e-07 4.44196e-06 -3.41091e-05
0.000782953 -4.62811e-06 2.68151e-07
-4.62811e-06 -3.24411e-06 -1.42783e-06
2.68151e-07 -1.42783e-06 -3.32648e-05
0.000735261 8.41003e-07 2.02511e-07
8.41003e-07 -3.99505e-05 -8.16782e-09
2.02511e-07 -8.16782e-09 -4.21605e-05
0.00211356 -9.57365e-07 2.82221e-07
-9.57365e-07 0.000718625 4.1702e-06
2.82221e-07 4.1702e-06 0.000740521
0.000756592 -4.20858e-06 -5.56077e-07
-4.20858e-06 -2.78174e-05 -4.41991e-06
-5.56077e-07 -4.41991e-06 -2.97675e-05
0.00152246 -6.69865e-06 -3.3468e-07
-6.69865e-06 0.000394461 2.11842e-08
-3.3468e-07 2.11842e-08 0.000413461
0.000900744 -1.12094e-05 -6.00284e-07
-1.12094e-05 5.41836e-05 -1.57307e-06
-6.00284e-07 -1.57307e-06 7.05377e-05
0.000797958 4.18984e-06 -6.79114e-08
4.18984e-06 5.86737e-06 -1.71486e-06
-6.79114e-08 -1.71486e-06 -2.2393e-05
0.000792016 7.3324e-06 4.91706e-08
7.3324e-06 2.89532e-06 -3.33238e-09
4.91706e-08 -3.33238e-09 -2.61365e-05
0.000737601 1.08396e-05 2.41118e-07
1.08396e-05 -3.70901e-05 -3.33538e-06
2.41118e-07 -3.33538e-06 -3.87892e-05
0.000796167 1.01161e-05 -6.41254e-07
1.01161e-05 5.74179e-06 1.79367e-06
-6.41254e-07 1.79367e-06 -2.45496e-05
0.00101926 1.83536e-05 -2.45513e-07
1.83536e-05 0.000119861 -6.66288e-07
-2.45513e-07 -6.66288e-07 0.000118588
0.0020958 2.35202e-05 1.15472e-05
2.35202e-05 0.000713873 -4.13387e-06
1.15472e-05 -4.13387e-06 0.000734905
0.000738131 2.26761e-05 -7.88179e-07
2.26761e-05 -2.95177e-05 3.40468e-06
-7.88179e-07 3.40468e-06 -3.42858e-05
0.00214893 3.13654e-05 -6.50199e-06
3.13654e-05 0.000748466 1.12377e-06
-6.50199e-06 1.12377e-06 0.000768049
0.00219079 4.06597e-05 -2.06955e-05
4.06597e-05 0.000777187 3.9339e-06
-2.06955e-05 3.9339e-06 0.000794865
0.00172292 3.54915e-05 1.96335e-07
3.54915e-05 4.92009e-05 1.48893e-07
1.96335e-07 1.48893e-07 -3.7158e-05
0.00176588 4.22919e-06 1.11616e-06
4.22919e-06 8.00896e-05 -1.7236e-07
1.11616e-06 -1.7236e-07 -1.70178e-05
0.00185779 2.10113e-05 3.09361e-06
2.10113e-05 0.000108386 1.7905e-07
3.09361e-06 1.7905e-07 3.65356e-05
0.00186487 6.64619e-06 1.04367e-05
6.64619e-06 -2.61509e-05 2.0043e-06
1.04367e-05 2.0043e-06 -9.3153e-05
0.00183239 4.13425e-06 -4.60503e-07
4.13425e-06 9.92543e-05 -1.18299e-07
-4.60503e-07 -1.18299e-07 2.33543e-05
0.00178113 2.89077e-05 1.42969e-06
2.89077e-05 3.83742e-05 3.292e-08
1.42969e-06 3.292e-08 -1.0403e-05
0.00237946 1.28135e-05 -3.7748e-06
1.28135e-05 0.000344309 9.77205e-07
-3.7748e-06 9.77205e-07 0.000275706
0.00315691 -4.99132e-05 0.0001387
-4.99132e-05 0.000489461 8.5392e-06
0.0001387 8.5392e-06 0.000153062
0.00161243 -3.913e-05 -7.42797e-06
-3.913e-05 -0.00013448 -2.31236e-06
-7.42797e-06 -2.31236e-06 -0.000201774
0.00082386 3.31386e-05 -8.25878e-07
3.31386e-05 4.01869e-05 -9.47567e-07
-8.25878e-07 -9.47567e-07 -8.20723e-06
0.000817197 -1.37889e-05 6.80547e-07
-1.37889e-05 3.82825e-05 -5.83819e-08
6.80547e-07 -5.83819e-08 -1.15178e-05
0.000824559 -4.46917e-05 1.48742e-07
-4.46917e-05 4.66321e-05 -2.16542e-07
1.48742e-07 -2.16542e-07 -1.39421e-05
0.000823679 -2.20253e-05 -1.27312e-06
-2.20253e-05 5.67336e-05 -6.74267e-08
-1.27312e-06 -6.74267e-08 -9.43836e-06
0.00185584 -3.33062e-05 2.34866e-06
-3.33062e-05 0.000109454 -2.8816e-07
2.34866e-06 -2.8816e-07 3.26806e-05
0.00164239 -6.07188e-05 -1.94796e-06
-6.07188e-05 -2.69839e-05 -1.18398e-07
-1.94796e-06 -1.18398e-07 -0.000104459
0.00184973 -0.00015466 -1.22645e-06
-0.00015466 7.3681e-05 7.61124e-07
-1.22645e-06 7.61124e-07 -9.1002e-06
0.000767584 -0.000108191 3.12726e-06
-0.000108191 -1.02433e-05 2.88333e-06
3.12726e-06 2.88333e-06 -0.000118992
0.000341015 -0.000116491 3.25476e-06
-0.000116491 -0.000260984 -7.76966e-07
3.25476e-06 -7.76966e-07 -0.000470216
0.00220233 -0.000231906 2.54043e-07
-0.000231906 0.000383075 -2.25237e-06
2.54043e-07 -2.25237e-06 0.000262055
0.000634974 -9.25807e-05 -7.54841e-06
-9.25807e-05 -4.85239e-05 1.5035e-06
-7.54841e-06 1.5035e-06 -0.000146759
0.000949337 -5.22839e-05 -1.6421e-06
-5.22839e-05 0.000152094 -5.4365e-07
-1.6421e-06 -5.4365e-07 4.21516e-05
0.00101905 -6.10634e-05 -1.73627e-06
-6.10634e-05 0.000172323 1.64227e-06
-1.73627e-06 1.64227e-06 7.52787e-05
0.000825692 -1.20748e-05 -1.20381e-06
-1.20748e-05 4.01917e-05 1.11982e-06
-1.20381e-06 1.11982e-06 -1.44175e-05
0.000865751 -4.13841e-05 -5.06355e-07
-4.13841e-05 8.34647e-05 1.46255e-07
-5.06355e-07 1.46255e-07 -2.94811e-06
0.000905141 5.82327e-07 -7.12792e-07
5.82327e-07 9.76027e-05 6.78686e-07
-7.12792e-07 6.78686e-07 2.34031e-05
0.000823737 -3.67743e-06 -2.37892e-09
-3.67743e-06 4.36629e-05 3.71815e-07
-2.37892e-09 3.71815e-07 -8.04431e-06
0.000708622 2.20084e-05 1.66535e-07
2.20084e-05 -5.2579e-06 1.19167e-06
1.66535e-07 1.19167e-06 -7.64235e-05
0.00190382 -5.77322e-05 -3.20745e-07
-5.77322e-05 0.000101949 6.60819e-07
-3.20745e-07 6.60819e-07 3.50975e-05
0.000831073 1.10377e-05 5.67945e-07
1.10377e-05 5.60492e-05 -4.66749e-07
5.67945e-07 -4.66749e-07 -1.00054e-05
0.000781662 2.46636e-05 5.31454e-07
2.46636e-05 3.31912e-05 4.02929e-09
5.31454e-07 4.02929e-09 -3.90031e-05
0.000905879 5.25767e-05 -4.01069e-07
5.25767e-05 0.000100171 6.65622e-07
-4.01069e-07 6.65622e-07 2.30477e-05
0.00198612 -8.8087e-05 -3.03729e-06
-8.8087e-05 0.000102491 3.27847e-07
-3.03729e-06 3.27847e-07 3.475e-05
0.00184229 -0.00021265 6.66131e-07
-0.00021265 8.05074e-05 -1.01443e-06
6.66131e-07 -1.01443e-06 -1.50448e-05
0.000960371 -0.000122759 -1.17953e-06
-0.000122759 0.000128499 -5.35991e-08
-1.17953e-06 -5.35991e-08 -2.03091e-05
0.0019909 -0.000225731 -5.17085e-07
-0.000225731 0.000461271 -3.87461e-07
-5.17085e-07 -3.87461e-07 0.000294784
0.000904857 -1.25961e-05 -3.21303e-07
-1.25961e-05 0.00010081 6.38918e-08
-3.21303e-07 6.38918e-08 1.88178e-05
0.000878047 -1.06909e-05 6.86113e-08
-1.06909e-05 8.90846e-05 8.84991e-07
6.86113e-08 8.84991e-07 2.52854e-06
0.000817461 -8.26678e-05 3.80346e-06
-8.26678e-05 9.84957e-05 -9.80616e-07
3.80346e-06 -9.80616e-07 -4.10532e-05
0.00101597 -5.12745e-05 8.79808e-07
-5.12745e-05 0.000182361 -1.24769e-06
8.79808e-07 -1.24769e-06 7.03346e-05
0.00153031 -4.64721e-05 -2.63381e-06
-4.64721e-05 -0.000157702 2.59547e-06
-2.63381e-06 2.59547e-06 -0.000227222
0.00207552 -0.000186694 -7.1384e-07
-0.000186694 9.81906e-05 -1.40206e-06
-7.1384e-07 -1.40206e-06 3.82853e-05
0.0021193 -0.00024463 -1.97814e-06
-0.00024463 0.000354214 -1.61121e-06
-1.97814e-06 -1.61121e-06 0.000219093
0.00122326 -0.000171738 -7.55013e-07
-0.000171738 0.000259093 -1.60438e-06
-7.55013e-07 -1.60438e-06 9.67192e-05
0.000800439 2.82651e-05 -5.56971e-07
2.82651e-05 4.38047e-05 -1.87471e-07
-5.56971e-07 -1.87471e-07 -3.73731e-05
0.000818957 -3.43802e-05 5.12733e-07
-3.43802e-05 6.04425e-05 -5.19832e-07
5.12733e-07 -5.19832e-07 -2.09638e-05
0.000858815 -1.7141e-05 1.46796e-07
-1.7141e-05 7.79745e-05 -1.45189e-07
1.46796e-07 -1.45189e-07 -1.20038e-05
0.00079835 -4.273e-06 -1.06437e-06
-4.273e-06 8.404e-05 -4.17784e-07
-1.06437e-06 -4.17784e-07 -6.54931e-05
0.000858638 -9.69864e-05 -3.32137e-06
-9.69864e-05 -0.000919474 -3.12249e-06
-3.32137e-06 -3.12249e-06 -0.00137852
0.000976535 7.72167e-06 6.2979e-07
7.72167e-06 0.000140258 -1.01552e-06
6.2979e-07 -1.01552e-06 5.72341e-05
0.000708881 7.95743e-05 1.56885e-06
7.95743e-05 6.00255e-06 9.33867e-07
1.56885e-06 9.33867e-07 -0.000110498
0.00178335 7.60549e-05 8.25272e-06
7.60549e-05 7.71413e-06 5.58737e-07
8.25272e-06 5.58737e-07 -2.99188e-05
0.00182805 0.000189416 -4.64328e-08
0.000189416 1.06627e-06 -1.10257e-06
-4.64328e-08 -1.10257e-06 -7.26861e-05
0.00129864 0.000193979 1.9352e-06
0.000193979 5.69037e-05 2.43692e-06
1.9352e-06 2.43692e-06 -0.000121568
0.000821541 0.00011934 3.0316e-06
0.00011934 5.37096e-05 1.09196e-06
3.0316e-06 1.09196e-06 -0.00012044
0.00248076 0.000109183 6.95226e-06
0.000109183 0.000265452 -8.1474e-07
6.95226e-06 -8.1474e-07 7.28698e-05
0.000946725 3.62303e-05 8.07783e-07
3.62303e-05 0.00013025 -7.0265e-07
8.07783e-07 -7.0265e-07 3.36772e-05
0.00213428 0.000130187 -5.5382e-06
0.000130187 0.000190789 -2.53771e-06
-5.5382e-06 -2.53771e-06 0.000198605
0.00101465 0.00012438 1.65584e-08
0.00012438 0.000179881 -1.20773e-07
1.65584e-08 -1.20773e-07 5.08756e-05
0.00113472 0.000156786 3.21845e-08
0.000156786 0.000175139 3.44277e-07
3.21845e-08 3.44277e-07 -2.52847e-05
0.00111436 0.000237085 -3.46017e-06
0.000237085 -0.000223305 1.13982e-07
-3.46017e-06 1.13982e-07 -0.000348014
0.00264262 -0.000173232 -4.17912e-05
-0.000173232 0.000136709 -1.43833e-05
-4.17912e-05 -1.43833e-05 -0.000597501
0.00369725 4.9323e-05 -1.81614e-07
4.9323e-05 0.000365156 -1.37326e-05
-1.81614e-07 -1.37326e-05 -0.000345343
0.000305839 0.000158688 6.17804e-06
0.000158688 -0.000501492 4.83004e-06
6.17804e-06 4.83004e-06 -0.000584917
-0.0018899 -0.000225113 3.8563e-05
-0.000225113 -0.000544439 9.20425e-06
3.8563e-05 9.20425e-06 -0.000905453
-2.50239e-05 -0.000609681 6.48133e-06
-0.000609681 -0.0011256 -5.97683e-06
6.48133e-06 -5.97683e-06 0.000127425
0.00114947 8.02735e-05 -1.38932e-06
8.02735e-05 0.000255823 -2.17602e-06
-1.38932e-06 -2.17602e-06 0.000160142
0.000801608 0.000116069 -6.97407e-05
0.000116069 0.000786592 -2.23217e-05
-6.97407e-05 -2.23217e-05 0.000411135
0.00145897 -0.000328771 -4.35529e-05
-0.000328771 0.000587787 -3.6637e-05
-4.35529e-05 -3.6637e-05 0.000821888
0.00136504 0.000156108 -1.6833e-05
0.000156108 -0.000138524 -4.81733e-06
-1.6833e-05 -4.81733e-06 -0.000108523
0.00115617 7.80585e-05 -5.81732e-06
7.80585e-05 0.000279821 -1.86863e-06
-5.81732e-06 -1.86863e-06 0.000137174
0.00101651 0.000209468 -1.02137e-05
0.000209468 6.08638e-05 -5.70092e-06
-1.02137e-05 -5.70092e-06 -0.000147804
2.52573e-05 0.000201705 4.72742e-06
0.000201705 -0.000631023 4.18409e-05
4.72742e-06 4.18409e-05 -0.000601947
0.0065994 -0.000150439 -4.91885e-05
-0.000150439 0.00225807 -1.19463e-05
-4.91885e-05 -1.19463e-05 0.00103967
0.00375807 0.000244418 -6.92893e-06
0.000244418 0.000481862 2.44475e-05
-6.92893e-06 2.44475e-05 -0.000503183
0.000815276 -0.000522243 -1.52057e-05
-0.000522243 -4.20682e-05 -5.66651e-06
-1.52057e-05 -5.66651e-06 0.000259824
0.000917172 -0.00033202 -3.40037e-05
-0.00033202 -0.00152753 1.3812e-05
-3.40037e-05 1.3812e-05 -0.000560559
0.00091835 -1.97846e-05 6.16248e-07
-1.97846e-05 0.000104455 -2.79337e-07
6.16248e-07 -2.79337e-07 2.65447e-05
0.000937456 1.33333e-05 -2.23376e-07
1.33333e-05 0.000114111 1.35714e-07
-2.23376e-07 1.35714e-07 3.74507e-05
0.0011802 5.3967e-05 -7.5816e-07
5.3967e-05 0.000249184 -1.55879e-06
-7.5816e-07 -1.55879e-06 0.000181588
0.000802621 2.50692e-06 -1.54899e-07
2.50692e-06 2.50243e-05 -1.75296e-07
-1.54899e-07 -1.75296e-07 -2.89379e-05
0.000863229 1.22381e-05 -6.88784e-07
1.22381e-05 5.59329e-05 -1.93725e-07
-6.88784e-07 -1.93725e-07 -5.55686e-06
0.000792011 -3.49429e-05 -4.40159e-07
-3.49429e-05 1.81723e-05 -2.04231e-07
-4.40159e-07 -2.04231e-07 -4.35328e-05
0.000913655 -1.77636e-05 1.00835e-07
-1.77636e-05 8.76471e-05 2.60176e-08
1.00835e-07 2.60176e-08 2.29774e-05
0.000921753 -3.03738e-05 6.60951e-09
-3.03738e-05 9.70225e-05 1.09992e-06
6.60951e-09 1.09992e-06 2.42959e-05
0.000716818 -6.83052e-07 4.73631e-07
-6.83052e-07 -2.69374e-05 4.22558e-07
4.73631e-07 4.22558e-07 -7.91177e-05
0.000828284 -1.64391e-05 -9.85683e-08
-1.64391e-05 3.73637e-05 -2.02044e-07
-9.85683e-08 -2.02044e-07 -2.58363e-05
0.000917644 -2.27814e-05 -1.00452e-07
-2.27814e-05 8.30109e-05 2.81237e-07
-1.00452e-07 2.81237e-07 1.85031e-05
0.000878241 2.32053e-05 4.91616e-07
2.32053e-05 6.41481e-05 -1.82898e-07
4.91616e-07 -1.82898e-07 -1.04584e-06
0.000883038 -1.07944e-05 1.34935e-07
-1.07944e-05 6.87418e-05 -3.74327e-08
1.34935e-07 -3.74327e-08 4.95825e-06
0.000803389 -2.49258e-05 5.16893e-07
-2.49258e-05 1.56282e-05 -3.63598e-07
5.16893e-07 -3.63598e-07 -4.77716e-05
0.000874012 1.22445e-05 -5.96892e-07
1.22445e-05 5.3243e-05 -2.5176e-06
-5.96892e-07 -2.5176e-06 -5.22366e-06
0.000937598 -5.7983e-05 1.18187e-07
-5.7983e-05 8.80735e-05 -2.08321e-07
1.18187e-07 -2.08321e-07 2.27332e-05
0.00091731 -3.97325e-05 -4.58907e-07
-3.97325e-05 8.64738e-05 -2.93896e-07
-4.58907e-07 -2.93896e-07 2.08602e-05
0.00091288 -6.2487e-06 -4.17734e-07
-6.2487e-06 8.49556e-05 -9.94565e-08
-4.17734e-07 -9.94565e-08 2.09892e-05
0.000930045 5.12422e-05 -3.85951e-07
5.12422e-05 9.32217e-05 -2.57981e-07
-3.85951e-07 -2.57981e-07 2.81376e-05
0.000895138 2.12858e-05 -3.052e-07
2.12858e-05 7.53218e-05 -6.72268e-07
-3.052e-07 -6.72268e-07 4.48437e-06
0.00085931 4.92492e-05 1.46321e-07
4.92492e-05 6.19824e-05 -3.68254e-07
1.46321e-07 -3.68254e-07 -3.30054e-06
0.00091671 6.80403e-05 -2.49194e-07
6.80403e-05 8.50912e-05 -7.68944e-07
-2.49194e-07 -7.68944e-07 1.88601e-05
0.000774889 3.41645e-05 1.36921e-06
3.41645e-05 2.83779e-05 1.26719e-06
1.36921e-06 1.26719e-06 -4.24071e-05
0.000799853 2.59366e-05 -4.8679e-08
2.59366e-05 3.04175e-05 1.36568e-07
-4.8679e-08 1.36568e-07 -2.82015e-05
0.000820491 6.31225e-06 -1.20065e-07
6.31225e-06 4.3122e-05 -3.65132e-08
-1.20065e-07 -3.65132e-08 -1.79621e-05
0.000808575 1.56042e-05 -1.00211e-06
1.56042e-05 2.08892e-05 4.06985e-07
-1.00211e-06 4.06985e-07 -2.57006e-05
0.000860215 1.73802e-05 5.59628e-07
1.73802e-05 5.41479e-05 -2.10651e-07
5.59628e-07 -2.10651e-07 -4.78047e-06
0.000784694 -1.72854e-05 -2.73269e-08
-1.72854e-05 8.64332e-06 2.87661e-08
-2.73269e-08 2.87661e-08 -4.03613e-05
0.000791316 1.59263e-05 -4.97152e-07
1.59263e-05 2.75359e-06 1.52159e-06
-4.97152e-07 1.52159e-06 -2.76725e-05
0.000727792 7.85418e-06 4.22584e-07
7.85418e-06 -1.78728e-05 -1.74905e-07
4.22584e-07 -1.74905e-07 -7.14625e-05
0.000785249 8.15213e-06 -1.38328e-07
8.15213e-06 -1.20387e-06 8.67575e-11
-1.38328e-07 8.67575e-11 -3.1651e-05
0.00134109 1.29043e-05 -2.90334e-06
1.29043e-05 0.000295428 4.3865e-06
-2.90334e-06 4.3865e-06 0.00029546
0.000779582 -1.83943e-06 5.55846e-07
-1.83943e-06 -4.47104e-06 -1.42364e-06
5.55846e-07 -1.42364e-06 -3.48697e-05
0.00103937 6.78811e-06 -1.34993e-06
6.78811e-06 0.000128063 6.51155e-07
-1.34993e-06 6.51155e-07 0.000126923
0.00095646 3.41612e-06 -2.87913e-06
3.41612e-06 8.39435e-05 4.06953e-06
-2.87913e-06 4.06953e-06 9.95252e-05
0.000740163 9.763e-07 -4.94355e-09
9.763e-07 -3.72308e-05 -3.11364e-06
-4.94355e-09 -3.11364e-06 -3.94848e-05
0.00211883 -3.51653e-07 2.48356e-06
-3.51653e-07 0.00072155 -7.12871e-10
2.48356e-06 -7.12871e-10 0.000743393
0.000966302 -3.88555e-06 -2.26349e-06
-3.88555e-06 8.90358e-05 -4.05824e-06
-2.26349e-06 -4.05824e-06 0.000105065
0.00082021 4.97667e-05 4.75761e-07
4.97667e-05 4.07361e-05 -2.5706e-07
4.75761e-07 -2.5706e-07 -1.02892e-05
0.000795484 -1.99348e-07 -1.24661e-07
-1.99348e-07 4.18055e-06 -1.70421e-06
-1.24661e-07 -1.70421e-06 -2.35367e-05
0.000796009 3.30877e-06 -7.9214e-08
3.30877e-06 4.66611e-06 -9.85573e-09
-7.9214e-08 -9.85573e-09 -2.35469e-05
0.000742992 5.11011e-06 -5.19015e-08
5.11011e-06 -3.58389e-05 -3.31789e-06
-5.19015e-08 -3.31789e-06 -3.66543e-05
0.00079221 6.39268e-06 -2.98653e-07
6.39268e-06 2.64996e-06 1.66158e-06
-2.98653e-07 1.66158e-06 -2.63338e-05
0.000735644 1.10304e-05 3.86944e-08
1.10304e-05 -3.85331e-05 -6.82932e-07
3.86944e-08 -6.82932e-07 -4.01473e-05
0.00207643 1.53763e-05 7.71953e-06
1.53763e-05 0.000700399 -4.21704e-06
7.71953e-06 -4.21704e-06 0.000722282
0.0013006 2.17813e-05 -1.19325e-06
2.17813e-05 0.00027465 2.03599e-06
-1.19325e-06 2.03599e-06 0.000274684
0.00153284 2.01565e-05 3.61038e-07
2.01565e-05 0.00040591 1.31481e-06
3.61038e-07 1.31481e-06 0.000423653
0.00100019 2.26662e-05 -1.56817e-05
2.26662e-05 0.000118437 6.6703e-06
-1.56817e-05 6.6703e-06 0.000131787
-4.3286e-05 3.36516e-05 1.52296e-05
3.36516e-05 -0.000971351 7.73971e-06
1.52296e-05 7.73971e-06 -0.00105871
0.00203039 3.08034e-06 1.88082e-06
3.08034e-06 0.000202983 1.98143e-07
1.88082e-06 1.98143e-07 0.000127022
0.0019907 2.77599e-05 5.12437e-06
2.77599e-05 0.000162731 -1.59776e-06
5.12437e-06 -1.59776e-06 0.000110054
0.0010984 -5.35576e-06 2.56075e-05
-5.35576e-06 -0.000343784 -4.42744e-06
2.56075e-05 -4.42744e-06 -0.000671948
0.0018131 -3.08144e-05 -1.16305e-06
-3.08144e-05 3.69045e-05 5.84496e-07
-1.16305e-06 5.84496e-07 -4.20162e-05
0.00190799 5.0186e-06 -3.32852e-06
5.0186e-06 4.03334e-05 -1.38446e-06
-3.32852e-06 -1.38446e-06 -2.45834e-05
0.00206158 -2.94516e-06 -1.61096e-05
-2.94516e-06 0.000185326 1.76737e-06
-1.61096e-05 1.76737e-06 0.000106299
0.00151692 -9.21671e-05 0.000129189
-9.21671e-05 -0.000110244 -8.37745e-06
0.000129189 -8.37745e-06 -0.000464057
0.00825478 2.00427e-06 -2.64869e-05
2.00427e-06 0.00283178 -7.68528e-07
-2.64869e-05 -7.68528e-07 0.00198809
0.00274007 0.000574094 1.65861e-05
0.000574094 0.00128057 -5.07356e-06
1.65861e-05 -5.07356e-06 0.0014689
0.00221396 0.000588355 -1.58164e-05
0.000588355 0.000557466 1.09274e-05
-1.58164e-05 1.09274e-05 0.00155526
0.000699497 -5.1169e-05 1.03349e-06
-5.1169e-05 -1.60802e-05 -8.4943e-07
1.03349e-06 -8.4943e-07 -7.93282e-05
0.00082284 -1.03587e-05 2.47781e-07
-1.03587e-05 4.09142e-05 -5.00738e-08
2.47781e-07 -5.00738e-08 -8.33497e-06
0.000815047 -5.4978e-05 -1.02393e-06
-5.4978e-05 4.05219e-05 9.89406e-07
-1.02393e-06 9.89406e-07 -1.16942e-05
0.000799458 -1.9559e-05 -3.07527e-07
-1.9559e-05 3.70256e-05 1.95274e-08
-3.07527e-07 1.95274e-08 -2.65977e-05
0.000796213 3.97258e-05 1.55885e-07
3.97258e-05 4.66456e-05 5.69987e-07
1.55885e-07 5.69987e-07 -2.82808e-05
0.000936073 7.22345e-05 3.42692e-07
7.22345e-05 0.000113282 6.99965e-07
3.42692e-07 6.99965e-07 4.25233e-05
0.000866674 -2.71773e-05 6.18349e-07
-2.71773e-05 7.34454e-05 -8.3252e-07
6.18349e-07 -8.3252e-07 1.0281e-05
0.000787338 -3.70608e-05 -4.88943e-07
-3.70608e-05 3.24493e-05 5.69203e-07
-4.88943e-07 5.69203e-07 -3.12087e-05
0.001949 -4.31203e-05 3.37994e-06
-4.31203e-05 0.000145053 -6.94123e-07
3.37994e-06 -6.94123e-07 7.82583e-05
0.00164527 -8.59914e-05 -1.56796e-06
-8.59914e-05 -9.4711e-05 -6.35933e-07
-1.56796e-06 -6.35933e-07 -0.000166022
0.00150313 -0.000194446 -2.86754e-06
-0.000194446 -8.09982e-05 7.7397e-07
-2.86754e-06 7.7397e-07 -0.000174322
0.000895808 -0.000131007 9.8937e-07
-0.000131007 8.00577e-05 2.80715e-06
9.8937e-07 2.80715e-06 -6.57926e-05
0.00188259 -0.000220211 7.78101e-07
-0.000220211 0.000408237 2.6161e-07
7.78101e-07 2.6161e-07 0.000236329
0.000921278 -8.40047e-05 -7.72347e-07
-8.40047e-05 0.000145397 -2.53056e-07
-7.72347e-07 -2.53056e-07 1.32037e-05
0.00122204 -9.07483e-05 -1.51529e-07
-9.07483e-05 0.000295891 -1.5146e-07
-1.51529e-07 -1.5146e-07 0.000176704
0.000807436 -3.22041e-05 -1.37003e-06
-3.22041e-05 5.8013e-05 7.77791e-07
-1.37003e-06 7.77791e-07 -3.0178e-05
0.000815585 2.87966e-06 3.27458e-07
2.87966e-06 5.24689e-05 5.63456e-07
3.27458e-07 5.63456e-07 -1.96464e-05
0.00100384 1.33559e-05 -9.09762e-07
1.33559e-05 0.000151044 7.79639e-08
-9.09762e-07 7.79639e-08 7.06744e-05
0.00101782 -1.76579e-06 5.27521e-07
-1.76579e-06 0.000155893 2.32653e-07
5.27521e-07 2.32653e-07 9.16133e-05
0.000783934 8.54534e-05 1.07736e-06
8.54534e-05 3.67105e-05 1.44465e-06
1.07736e-06 1.44465e-06 -4.22298e-05
0.00159646 -4.55869e-05 -9.89728e-07
-4.55869e-05 -0.000125409 -2.40578e-06
-9.89728e-07 -2.40578e-06 -0.000191507
0.000853352 3.18144e-05 -3.55355e-07
3.18144e-05 7.2578e-05 2.72057e-07
-3.55355e-07 2.72057e-07 -6.62337e-06
0.000846762 -2.23584e-05 -3.62682e-07
-2.23584e-05 7.0946e-05 -4.01515e-07
-3.62682e-07 -4.01515e-07 -8.61034e-06
0.00214765 -0.000194263 4.46226e-07
-0.000194263 0.000140045 1.08708e-07
4.46226e-07 1.08708e-07 7.58432e-05
0.00106907 -0.00019762 1.21614e-06
-0.00019762 -0.000175242 4.86489e-07
1.21614e-06 4.86489e-07 -0.000300473
0.00117439 -0.000170744 8.30213e-07
-0.000170744 0.000226418 -1.40768e-06
8.30213e-07 -1.40768e-06 5.51367e-05
0.000985993 -1.76441e-05 1.24248e-07
-1.76441e-05 0.000146542 -3.7364e-07
1.24248e-07 -3.7364e-07 5.44859e-05
0.00097747 -2.83157e-05 3.32317e-07
-2.83157e-05 0.000179445 4.87025e-07
3.32317e-07 4.87025e-07 2.90572e-05
0.00364291 -0.000158067 -9.96167e-06
-0.000158067 0.00105605 6.78856e-06
-9.96167e-06 6.78856e-06 0.000974788
0.00283165 -0.000282035 -8.56945e-06
-0.000282035 0.000573624 -1.36868e-06
-8.56945e-06 -1.36868e-06 0.000515442
-0.000847507 -0.00011044 -3.0386e-06
-0.00011044 -0.000958012 -1.68159e-06
-3.0386e-06 -1.68159e-06 -0.00109517
0.00118734 -0.000104568 -3.95726e-06
-0.000104568 0.000264606 1.53475e-06
-3.95726e-06 1.53475e-06 8.55021e-05
0.000739594 -7.17057e-05 8.95007e-07
-7.17057e-05 4.74545e-06 -2.05296e-07
8.95007e-07 -2.05296e-07 -7.3146e-05
0.000906192 -2.76877e-05 1.11551e-06
-2.76877e-05 9.5174e-05 1.33608e-07
1.11551e-06 1.33608e-07 1.16035e-05
0.000893101 -9.77801e-06 -2.38119e-06
-9.77801e-06 0.000100359 1.35924e-07
-2.38119e-06 1.35924e-07 -3.65007e-06
-0.00392261 -4.03122e-05 3.8243e-05
-4.03122e-05 -0.00173534 8.68241e-06
3.8243e-05 8.68241e-06 -0.00154372
0.00797726 -5.10112e-05 -2.87329e-05
-5.10112e-05 0.00276931 -1.22647e-07
-2.87329e-05 -1.22647e-07 0.00217501
0.000859558 3.51137e-05 2.20489e-06
3.51137e-05 9.00935e-05 -4.74523e-07
2.20489e-06 -4.74523e-07 -5.81614e-06
0.000820611 0.000112192 2.69441e-06
0.000112192 8.05263e-05 -1.06448e-08
2.69441e-06 -1.06448e-08 -4.59063e-05
0.00162664 0.000115219 2.58064e-06
0.000115219 -7.87335e-05 4.88068e-06
2.58064e-06 4.88068e-06 -5.74739e-05
0.00231768 0.000291788 2.09654e-06
0.000291788 0.000361713 8.84322e-07
2.09654e-06 8.84322e-07 0.000242447
0.000987628 0.000151717 5.00329e-06
0.000151717 0.000108795 1.63726e-06
5.00329e-06 1.63726e-06 -9.31606e-05
0.00496354 0.000143275 5.44725e-05
0.000143275 0.00123773 -2.54433e-06
5.44725e-05 -2.54433e-06 0.000324115
0.00493808 9.44442e-05 -8.06233e-05
9.44442e-05 0.000862106 -2.91551e-05
-8.06233e-05 -2.91551e-05 0.000281817
0.000491282 0.000131391 3.77643e-06
0.000131391 -0.000417605 -1.79579e-05
3.77643e-06 -1.79579e-05 -0.000492518
0.00325978 -0.000459966 2.14474e-05
-0.000459966 0.00162914 1.70438e-05
2.14474e-05 1.70438e-05 0.00155877
-0.00298974 -0.000645049 -1.50612e-05
-0.000645049 -0.00259221 -3.18849e-05
-1.50612e-05 -3.18849e-05 -0.00115223
0.00100271 9.31464e-05 4.11328e-07
9.31464e-05 0.000183859 -7.37754e-07
4.11328e-07 -7.37754e-07 8.58175e-05
-0.00275574 -0.000137729 1.65335e-05
-0.000137729 -0.00138974 1.20584e-06
1.65335e-05 1.20584e-06 -0.00127685
-0.000264191 -0.000307576 -2.17996e-05
-0.000307576 -0.000127143 -7.14385e-06
-2.17996e-05 -7.14385e-06 -0.00012024
0.00245769 0.000192484 -3.51596e-06
0.000192484 0.000397747 -2.7203e-06
-3.51596e-06 -2.7203e-06 0.000433609
0.000851139 8.56041e-05 -5.60999e-07
8.56041e-05 0.00013047 -2.04998e-07
-5.60999e-07 -2.04998e-07 -1.42595e-05
0.000542405 0.00015973 8.77766e-07
0.00015973 -0.000173188 8.31529e-07
8.77766e-07 8.31529e-07 -0.000376669
-2.32809e-05 0.000123107 1.74972e-05
0.000123107 -0.000601293 1.08326e-05
1.74972e-05 1.08326e-05 -0.000532307
0.00606054 -0.000123316 -5.14362e-06
-0.000123316 0.00186769 -2.42185e-06
-5.14362e-06 -2.42185e-06 0.000564657
0.00550334 0.00034498 -2.20736e-05
0.00034498 0.00130834 -1.6555e-05
-2.20736e-05 -1.6555e-05 0.000591499
0.00402629 -0.000709623 1.701e-05
-0.000709623 0.00157485 -1.12406e-05
1.701e-05 -1.12406e-05 0.00164644
0.000948191 -0.000388628 1.77464e-05
-0.000388628 -0.00163678 4.3781e-05
1.77464e-05 4.3781e-05 -0.000583905
0.00114094 6.07096e-05 -4.47584e-06
6.07096e-05 0.000270987 -4.01083e-06
-4.47584e-06 -4.01083e-06 0.000186201
-0.00185624 -0.000105441 -6.99103e-05
-0.000105441 -0.00040086 -1.77371e-05
-6.99103e-05 -1.77371e-05 -0.000833281
0.00189959 -3.41754e-05 -5.09186e-05
-3.41754e-05 0.00016725 -5.05462e-05
-5.09186e-05 -5.05462e-05 -0.000177
0.000652219 0.000154361 -2.07903e-05
0.000154361 -0.000218926 -3.13184e-06
-2.07903e-05 -3.13184e-06 -0.00021126
0.00165609 0.00018407 -1.9122e-05
0.00018407 0.000605312 -5.87624e-06
-1.9122e-05 -5.87624e-06 0.000438882
0.00235649 0.000120347 -4.01688e-05
0.000120347 0.000908256 -3.90551e-06
-4.01688e-05 -3.90551e-06 0.000828606
0.00508772 0.000573408 -0.000107354
0.000573408 0.0012904 8.76629e-06
-0.000107354 8.76629e-06 0.000838754
-0.00104993 -0.000129203 3.37246e-05
-0.000129203 -0.0010473 4.21051e-05
3.37246e-05 4.21051e-05 -0.00274934
0.00718532 -0.0007501 -5.38734e-05
-0.0007501 0.00197036 1.37292e-05
-5.38734e-05 1.37292e-05 0.00217668
0.00151683 -0.000218028 -1.31685e-05
-0.000218028 -0.00173499 -1.42166e-05
-1.31685e-05 -1.42166e-05 -0.00074267
0.000905352 2.50517e-05 6.46146e-07
2.50517e-05 0.00010043 2.15018e-06
6.46146e-07 2.15018e-06 2.15734e-05
0.00106337 5.1074e-05 1.34797e-06
5.1074e-05 0.000184637 1.20542e-06
1.34797e-06 1.20542e-06 0.000116103
0.000545524 4.61457e-05 -5.77851e-08
4.61457e-05 -8.18018e-05 -3.39834e-06
-5.77851e-08 -3.39834e-06 -0.000137178
0.000721902 3.3756e-05 2.69794e-07
3.3756e-05 -2.41615e-05 -1.60776e-07
2.69794e-07 -1.60776e-07 -7.64117e-05
0.000932959 3.22036e-05 -6.81359e-07
3.22036e-05 9.69572e-05 -2.80755e-07
-6.81359e-07 -2.80755e-07 3.07392e-05
0.000937968 -3.65894e-05 -4.18573e-07
-3.65894e-05 9.50174e-05 3.3143e-07
-4.18573e-07 3.3143e-07 3.06228e-05
0.00086054 -2.63317e-05 -6.72021e-07
-2.63317e-05 5.53113e-05 -2.44247e-07
-6.72021e-07 -2.44247e-07 -8.30835e-06
0.000899323 -1.39869e-05 -6.0623e-07
-1.39869e-05 7.67341e-05 1.15714e-06
-6.0623e-07 1.15714e-06 1.33508e-05
0.000909376 2.47706e-05 3.06796e-07
2.47706e-05 8.26679e-05 -4.06317e-07
3.06796e-07 -4.06317e-07 1.67576e-05
0.000904202 -2.75342e-05 -1.78691e-08
-2.75342e-05 7.10564e-05 2.09842e-07
-1.78691e-08 2.09842e-07 7.3958e-06
0.00091793 -3.84088e-05 1.85889e-07
-3.84088e-05 7.97715e-05 1.8109e-07
1.85889e-07 1.8109e-07 1.29065e-05
0.000887882 -4.1207e-06 9.03084e-08
-4.1207e-06 6.47176e-05 -9.91126e-08
9.03084e-08 -9.91126e-08 8.0088e-06
0.00103083 -3.5222e-05 1.84193e-06
-3.5222e-05 0.000145224 -1.80162e-06
1.84193e-06 -1.80162e-06 9.61989e-05
0.000883617 -3.47541e-05 -9.29015e-08
-3.47541e-05 5.03086e-05 -1.78216e-06
-9.29015e-08 -1.78216e-06 -1.11684e-05
0.000919058 2.85573e-06 1.13766e-07
2.85573e-06 8.52582e-05 -4.73791e-07
1.13766e-07 -4.73791e-07 1.32687e-05
0.000921055 -2.98035e-05 1.51683e-07
-2.98035e-05 9.17059e-05 -3.29742e-07
1.51683e-07 -3.29742e-07 2.58797e-05
0.000894132 1.95789e-05 -2.20938e-07
1.95789e-05 6.86475e-05 1.66536e-07
-2.20938e-07 1.66536e-07 6.42599e-06
0.00089076 -1.51784e-06 2.12128e-07
-1.51784e-06 7.12535e-05 -2.80355e-07
2.12128e-07 -2.80355e-07 1.7052e-06
0.000843915 4.71514e-05 -1.97303e-07
4.71514e-05 5.25758e-05 -3.72771e-08
-1.97303e-07 -3.72771e-08 -1.21299e-05
0.000900162 3.73731e-05 -4.00483e-07
3.73731e-05 7.21067e-05 -1.89159e-08
-4.00483e-07 -1.89159e-08 8.70123e-06
0.000795811 4.97887e-05 9.35866e-07
4.97887e-05 3.25827e-05 2.66992e-07
9.35866e-07 2.66992e-07 -3.36107e-05
0.000846552 4.10143e-05 2.01323e-08
4.10143e-05 4.73979e-05 -7.96903e-07
2.01323e-08 -7.96903e-07 -2.22609e-05
0.000872038 4.47302e-05 1.35516e-07
4.47302e-05 6.41713e-05 -6.11675e-07
1.35516e-07 -6.11675e-07 4.23816e-07
0.000818309 2.36286e-05 1.91214e-06
2.36286e-05 4.71453e-05 3.24385e-07
1.91214e-06 3.24385e-07 -3.39024e-05
0.000658333 -4.37191e-05 2.33562e-07
-4.37191e-05 -3.87043e-07 2.22166e-07
2.33562e-07 2.22166e-07 -0.000110838
0.000547178 2.06132e-05 1.19607e-08
2.06132e-05 -8.47787e-05 4.4148e-07
1.19607e-08 4.4148e-07 -0.000165013
0.000822511 3.46044e-05 3.77383e-07
3.46044e-05 5.49128e-05 5.55818e-07
3.77383e-07 5.55818e-07 -1.64716e-05
0.000821696 3.63944e-05 4.07105e-07
3.63944e-05 4.54466e-05 7.28471e-07
4.07105e-07 7.28471e-07 -1.57089e-05
0.000827617 1.73941e-05 -1.68068e-07
1.73941e-05 4.73299e-05 -6.44273e-08
-1.68068e-07 -6.44273e-08 -1.28118e-05
0.00081037 3.05747e-05 -5.68425e-07
3.05747e-05 2.59761e-05 4.75339e-07
-5.68425e-07 4.75339e-07 -2.1519e-05
0.000852886 1.71488e-05 3.78816e-07
1.71488e-05 5.82305e-05 7.79316e-08
3.78816e-07 7.79316e-08 -1.35727e-06
0.000827356 2.91889e-06 -1.20818e-07
2.91889e-06 3.23215e-05 5.32576e-09
-1.20818e-07 5.32576e-09 -1.52706e-05
0.000787404 2.04974e-05 -8.76268e-07
2.04974e-05 2.42989e-06 1.52683e-06
-8.76268e-07 1.52683e-06 -2.80516e-05
0.000748899 -8.64494e-06 6.32619e-07
-8.64494e-06 -1.26014e-05 -4.02595e-07
6.32619e-07 -4.02595e-07 -6.09453e-05
0.000789363 1.19376e-05 -5.94961e-08
1.19376e-05 1.41149e-06 3.80226e-09
-5.94961e-08 3.80226e-09 -2.88945e-05
0.00133432 1.94618e-05 -4.72217e-06
1.94618e-05 0.000294274 4.35256e-06
-4.72217e-06 4.35256e-06 0.000294001
0.000783197 2.97159e-06 6.98934e-07
2.97159e-06 -2.59307e-06 -1.43743e-06
6.98934e-07 -1.43743e-06 -3.29234e-05
0.00103686 1.2846e-05 -2.12558e-06
1.2846e-05 0.000128413 6.37072e-07
-2.12558e-06 6.37072e-07 0.000127017
0.00090569 1.09744e-05 -5.76673e-07
1.09744e-05 5.74987e-05 1.57759e-06
-5.76673e-07 1.57759e-06 7.29512e-05
0.000734395 6.24255e-06 2.65607e-07
6.24255e-06 -3.96411e-05 -3.11058e-06
2.65607e-07 -3.11058e-06 -4.22251e-05
0.00212586 7.5811e-06 2.22733e-06
7.5811e-06 0.000725992 1.82806e-08
2.22733e-06 1.82806e-08 0.000747627
0.00212317 2.57793e-07 8.38544e-07
2.57793e-07 0.000723943 -4.19238e-06
8.38544e-07 -4.19238e-06 0.000745726
0.00107454 3.57627e-05 -1.12843e-06
3.57627e-05 0.000174726 -5.14317e-07
-1.12843e-06 -5.14317e-07 0.000126187
0.000793205 -4.33552e-06 -3.17511e-07
-4.33552e-06 2.93347e-06 -1.68557e-06
-3.17511e-07 -1.68557e-06 -2.48502e-05
0.000816191 3.59719e-06 7.33376e-07
3.59719e-06 3.80762e-05 5.05658e-07
7.33376e-07 5.05658e-07 -1.23441e-05
0.000747048 -7.89155e-07 -1.37983e-07
-7.89155e-07 -3.40562e-05 -3.28737e-06
-1.37983e-07 -3.28737e-06 -3.44332e-05
0.000800479 -8.35119e-07 4.36438e-08
-8.35119e-07 6.8757e-06 -1.86044e-10
4.36438e-08 -1.86044e-10 -2.0856e-05
0.000793537 2.49197e-06 -2.07155e-07
2.49197e-06 3.17774e-06 1.6535e-06
-2.07155e-07 1.6535e-06 -2.4985e-05
0.000745441 5.37052e-06 -1.60499e-07
5.37052e-06 -3.45088e-05 6.91141e-09
-1.60499e-07 6.91141e-09 -3.53494e-05
0.00205577 7.25783e-06 3.49278e-06
7.25783e-06 0.00068749 -4.24709e-06
3.49278e-06 -4.24709e-06 0.000709956
0.00129588 1.46346e-05 -7.08375e-07
1.46346e-05 0.000268985 2.00604e-06
-7.08375e-07 2.00604e-06 0.000270283
0.00150291 1.35978e-05 2.15822e-06
1.35978e-05 0.000385817 4.73072e-08
2.15822e-06 4.73072e-08 0.000404622
0.000979703 1.6437e-05 -1.34369e-05
1.6437e-05 0.000101946 6.70305e-06
-1.34369e-05 6.70305e-06 0.000116918
-0.00616423 0.000103055 2.48382e-05
0.000103055 -0.00297605 2.19909e-06
2.48382e-05 2.19909e-06 -0.00297571
-0.00123612 0.000263051 7.89209e-06
0.000263051 -0.000507611 1.73509e-05
7.89209e-06 1.73509e-05 -0.000489122
0.00183161 4.85707e-06 -0.000119548
4.85707e-06 -4.1206e-05 -6.18705e-06
-0.000119548 -6.18705e-06 -0.000360228
0.00208552 -2.77739e-05 1.27974e-05
-2.77739e-05 0.000243389 5.88578e-07
1.27974e-05 5.88578e-07 0.000150714
0.00151554 -3.09605e-06 -3.90787e-06
-3.09605e-06 -0.000220519 -4.36204e-07
-3.90787e-06 -4.36204e-07 -0.000282064
0.00141418 -5.5938e-06 2.70463e-05
-5.5938e-06 -3.46406e-06 -9.1826e-07
2.70463e-05 -9.1826e-07 -0.00025839
0.00206002 -3.09149e-06 -1.70875e-06
-3.09149e-06 0.000182211 1.19063e-06
-1.70875e-06 1.19063e-06 0.000105631
0.00518971 0.000217725 -1.79895e-05
0.000217725 0.00127289 -1.25518e-05
-1.79895e-05 -1.25518e-05 0.000543423
-0.00352128 0.000245522 -1.67515e-05
0.000245522 -0.00135823 -4.35536e-07
-1.67515e-05 -4.35536e-07 -0.00151968
-0.000393046 0.000618771 -5.97586e-06
0.000618771 -0.00107985 -5.24355e-07
-5.97586e-06 -5.24355e-07 0.000181663
0.00180467 -7.38579e-05 6.32106e-05
-7.38579e-05 0.000111274 -3.25632e-06
6.32106e-05 -3.25632e-06 -0.000141799
0.00677016 0.000358282 2.01597e-05
0.000358282 0.00230995 -4.03081e-06
2.01597e-05 -4.03081e-06 0.00123345
0.000170822 0.000511426 -2.52446e-05
0.000511426 -0.000284704 -1.14552e-05
-2.52446e-05 -1.14552e-05 0.000112811
0.00346192 0.000403891 -5.34606e-05
0.000403891 3.41114e-06 3.2303e-05
-5.34606e-05 3.2303e-05 0.000828951
0.000832515 4.45953e-05 -7.25552e-07
4.45953e-05 6.26191e-05 -6.52493e-09
-7.25552e-07 -6.52493e-09 -1.51006e-05
0.000744329 -1.42331e-06 -1.23362e-07
-1.42331e-06 6.89241e-06 -2.82055e-07
-1.23362e-07 -2.82055e-07 -5.52915e-05
0.000811854 -5.27065e-05 -9.05183e-07
-5.27065e-05 3.78221e-05 9.76109e-07
-9.05183e-07 9.76109e-07 -1.33334e-05
0.000739949 2.59728e-06 1.22581e-07
2.59728e-06 7.267e-06 5.31279e-07
1.22581e-07 5.31279e-07 -5.81462e-05
0.000815754 4.67937e-05 6.92125e-07
4.67937e-05 5.74781e-05 6.95879e-07
6.92125e-07 6.95879e-07 -1.69528e-05
0.000882739 3.54353e-05 -8.58527e-07
3.54353e-05 8.8158e-05 4.578e-07
-8.58527e-07 4.578e-07 1.25265e-05
0.000872322 4.86142e-05 1.33929e-06
4.86142e-05 8.34101e-05 9.24958e-07
1.33929e-06 9.24958e-07 9.03046e-06
0.000817608 -2.0966e-05 5.92345e-07
-2.0966e-05 4.36906e-05 1.78729e-07
5.92345e-07 1.78729e-07 -2.21734e-05
0.000812092 -2.64659e-05 4.03507e-07
-2.64659e-05 4.64766e-05 -5.3274e-07
4.03507e-07 -5.3274e-07 -1.92522e-05
0.00074054 -2.61093e-05 2.62616e-07
-2.61093e-05 5.48271e-06 6.86666e-07
2.62616e-07 6.86666e-07 -5.77985e-05
0.00159389 -4.35443e-05 1.05403e-06
-4.35443e-05 -0.000132389 -2.38287e-06
1.05403e-06 -2.38287e-06 -0.000195379
0.00228713 -0.000198668 1.90421e-06
-0.000198668 0.000225516 1.56479e-06
1.90421e-06 1.56479e-06 0.000156541
9.11164e-05 -0.00015317 3.52204e-06
-0.00015317 -0.000667292 1.76515e-06
3.52204e-06 1.76515e-06 -0.000782215
0.00118997 -0.000173881 1.01657e-06
-0.000173881 0.00022691 1.35778e-06
1.01657e-06 1.35778e-06 4.86227e-05
0.00113605 -5.36554e-05 2.42788e-06
-5.36554e-05 0.000262689 -2.70825e-07
2.42788e-06 -2.70825e-07 0.000112663
0.00112305 -3.76055e-05 -1.68164e-07
-3.76055e-05 0.000220378 -3.7794e-07
-1.68164e-07 -3.7794e-07 0.000126344
0.000888483 -1.41545e-05 -1.05854e-06
-1.41545e-05 8.74945e-05 -3.03782e-07
-1.05854e-06 -3.03782e-07 1.07087e-05
0.000889554 3.37235e-05 -7.77375e-07
3.37235e-05 9.28738e-05 5.84654e-08
-7.77375e-07 5.84654e-08 1.54185e-05
0.00182566 -0.000112227 -4.47807e-06
-0.000112227 0.000114262 1.63508e-06
-4.47807e-06 1.63508e-06 5.3331e-05
0.000795421 -3.32736e-05 -1.42389e-07
-3.32736e-05 3.64603e-05 5.84665e-08
-1.42389e-07 5.84665e-08 -4.29966e-05
0.000866866 -3.36418e-05 4.36583e-07
-3.36418e-05 7.41531e-05 -2.34335e-07
4.36583e-07 -2.34335e-07 -9.83115e-06
0.00225524 -0.000260292 3.31218e-06
-0.000260292 0.000278846 -1.6026e-06
3.31218e-06 -1.6026e-06 0.000213711
5.74597e-05 -0.000152243 1.46242e-06
-0.000152243 -0.000476836 1.60442e-06
1.46242e-06 1.60442e-06 -0.000616768
0.00119347 -9.91898e-05 2.68288e-06
-9.91898e-05 0.000260379 -1.17216e-06
2.68288e-06 -1.17216e-06 8.73008e-05
0.000911547 -2.93682e-05 -6.82898e-07
-2.93682e-05 0.000117627 -6.28598e-07
-6.82898e-07 -6.28598e-07 3.94242e-06
0.00315957 -0.000235818 3.29784e-06
-0.000235818 0.00109507 -7.70385e-06
3.29784e-06 -7.70385e-06 0.000913356
0.00174499 -0.000215491 -1.33315e-05
-0.000215491 0.000346014 7.06676e-08
-1.33315e-05 7.06676e-08 0.000260661
0.000506712 -9.96042e-08 -8.44051e-06
-9.96042e-08 -7.56701e-05 6.67e-06
-8.44051e-06 6.67e-06 -0.000220887
0.000896812 2.00895e-05 3.79107e-07
2.00895e-05 8.92886e-05 7.5444e-07
3.79107e-07 7.5444e-07 9.94433e-06
0.000742603 -7.45645e-05 1.21711e-06
-7.45645e-05 7.17354e-07 9.98002e-08
1.21711e-06 9.98002e-08 -8.0865e-05
0.000922411 -2.40401e-05 -1.50898e-07
-2.40401e-05 8.89746e-05 1.11259e-06
-1.50898e-07 1.11259e-06 4.30748e-06
0.000889668 2.09095e-06 -8.08751e-05
2.09095e-06 0.00107249 1.00137e-06
-8.08751e-05 1.00137e-06 0.000849231
0.00156915 -6.52669e-05 1.19137e-05
-6.52669e-05 0.00102795 2.44567e-06
1.19137e-05 2.44567e-06 0.000955001
-0.000784772 0.000199849 -4.49597e-05
0.000199849 -0.00174968 2.0987e-05
-4.49597e-05 2.0987e-05 -0.00232606
0.000740066 7.72171e-05 2.63592e-06
7.72171e-05 4.50089e-05 7.45144e-07
2.63592e-06 7.45144e-07 -5.13592e-05
0.000678448 0.000101123 4.34567e-06
0.000101123 5.0406e-05 1.79044e-06
4.34567e-06 1.79044e-06 -9.60389e-05
0.00356142 0.000221817 1.0224e-05
0.000221817 0.000955826 1.50607e-06
1.0224e-05 1.50607e-06 0.000981302
3.27533e-05 0.000109205 9.01028e-06
0.000109205 -0.00042332 5.4059e-06
9.01028e-06 5.4059e-06 -0.000624753
0.00363538 -0.000310096 5.01723e-05
-0.000310096 0.00159247 8.62211e-06
5.01723e-05 8.62211e-06 0.00174459
-0.000245057 -0.000171308 -2.19761e-06
-0.000171308 -0.00117976 6.64087e-06
-2.19761e-06 6.64087e-06 -0.00225349
0.004097 0.000312274 -6.28325e-05
0.000312274 0.000380046 -5.78308e-05
-6.28325e-05 -5.78308e-05 -0.00046309
-0.000681532 6.43145e-05 1.73983e-05
6.43145e-05 -0.000866002 -1.00428e-05
1.73983e-05 -1.00428e-05 -0.000808069
-0.0024743 -0.000385463 3.54116e-05
-0.000385463 -0.00124186 1.30667e-05
3.54116e-05 1.30667e-05 -0.00129921
0.00120493 -0.000315533 3.05564e-05
-0.000315533 0.000534646 2.33537e-05
3.05564e-05 2.33537e-05 0.000525213
0.00379007 -0.000458035 5.93015e-05
-0.000458035 -7.60489e-05 3.91911e-05
5.93015e-05 3.91911e-05 0.0010827
0.000928868 7.05325e-05 1.04464e-06
7.05325e-05 0.000167186 -1.21171e-06
1.04464e-06 -1.21171e-06 7.95541e-05
-9.72783e-05 -0.000135969 -2.41973e-05
-0.000135969 0.000392146 -7.22877e-06
-2.41973e-05 -7.22877e-06 0.000155055
0.00205572 -3.25888e-05 -2.00806e-06
-3.25888e-05 0.000250077 -9.92225e-06
-2.00806e-06 -9.92225e-06 -0.000103793
0.00105212 0.000130852 -5.5756e-06
0.000130852 3.24167e-05 1.37027e-07
-5.5756e-06 1.37027e-07 -1.29591e-05
0.000696518 9.26067e-05 -1.69857e-06
9.26067e-05 0.00012461 2.26612e-07
-1.69857e-06 2.26612e-07 -4.7608e-05
-0.000162218 9.34838e-05 2.47829e-05
9.34838e-05 -0.000326922 -1.5138e-05
2.47829e-05 -1.5138e-05 -0.000366536
0.00539566 0.000641721 -1.53413e-05
0.000641721 0.00141107 -5.05601e-06
-1.53413e-05 -5.05601e-06 0.000663125
0.00757467 -0.000369297 2.14506e-05
-0.000369297 0.00263367 7.868e-06
2.14506e-05 7.868e-06 0.00123267
0.000998762 -0.00039546 1.54741e-06
-0.00039546 -0.00112584 -2.4381e-06
1.54741e-06 -2.4381e-06 -0.000782392
0.00458999 -0.000277958 4.63982e-06
-0.000277958 0.000269171 -1.26889e-06
4.63982e-06 -1.26889e-06 0.00123951
0.00143761 0.000123816 -1.24881e-05
0.000123816 0.000480745 -6.99942e-06
-1.24881e-05 -6.99942e-06 0.000410188
0.00156023 -3.40662e-05 -4.59198e-05
-3.40662e-05 4.2175e-05 -2.0693e-05
-4.59198e-05 -2.0693e-05 -0.000219534
0.00161937 -9.26229e-06 -1.45659e-05
-9.26229e-06 0.000108037 -2.6978e-05
-1.45659e-05 -2.6978e-05 -0.000173748
-0.000852903 -2.66098e-05 -1.98824e-05
-2.66098e-05 -0.000540568 -1.701e-05
-1.98824e-05 -1.701e-05 -0.000639987
0.00379894 0.000358921 8.68348e-07
0.000358921 0.00125058 4.75574e-05
8.68348e-07 4.75574e-05 0.000850304
0.00867522 -0.000300996 1.89209e-05
-0.000300996 0.00282968 7.76798e-06
1.89209e-05 7.76798e-06 0.00130378
-0.00386161 -0.000263805 -5.37179e-05
-0.000263805 -0.00314451 -1.49252e-05
-5.37179e-05 -1.49252e-05 -0.00353583
0.00453817 3.66336e-05 -1.68729e-06
3.66336e-05 -9.18842e-06 -4.06873e-05
-1.68729e-06 -4.06873e-05 0.00105029
0.000998251 5.34027e-05 9.94584e-07
5.34027e-05 0.000149776 2.79261e-06
9.94584e-07 2.79261e-06 7.95521e-05
0.000850736 6.38971e-05 -1.11197e-06
6.38971e-05 7.83477e-05 -6.6675e-07
-1.11197e-06 -6.6675e-07 2.27501e-05
0.000313316 3.14207e-05 8.58895e-07
3.14207e-05 -0.000182576 -3.30528e-06
8.58895e-07 -3.30528e-06 -0.000228516
0.000916975 5.80369e-05 -1.18525e-06
5.80369e-05 8.21472e-05 -5.62508e-07
-1.18525e-06 -5.62508e-07 1.91218e-05
0.000915845 -2.99414e-05 7.59755e-09
-2.99414e-05 8.23122e-05 6.44643e-07
7.59755e-09 6.44643e-07 1.27655e-05
0.00100149 -2.13182e-05 -9.71321e-07
-2.13182e-05 0.000124112 9.33225e-07
-9.71321e-07 9.33225e-07 6.04515e-05
0.000882616 -1.81999e-05 -4.59616e-07
-1.81999e-05 6.63113e-05 2.01404e-06
-4.59616e-07 2.01404e-06 1.07853e-05
0.000925373 9.02524e-06 4.1332e-07
9.02524e-06 8.23539e-05 2.60109e-09
4.1332e-07 2.60109e-09 1.46408e-05
0.000875886 -2.3025e-05 -1.48887e-07
-2.3025e-05 4.63326e-05 -1.04152e-07
-1.48887e-07 -1.04152e-07 -1.51185e-05
0.000912553 -2.85313e-05 4.27944e-07
-2.85313e-05 8.09542e-05 2.51201e-07
4.27944e-07 2.51201e-07 3.18687e-05
0.000824548 -3.73877e-05 7.18324e-08
-3.73877e-05 5.94767e-05 -2.20109e-06
7.18324e-08 -2.20109e-06 2.36514e-05
0.000896007 -3.57805e-05 2.85171e-06
-3.57805e-05 5.26757e-05 -2.51643e-06
2.85171e-06 -2.51643e-06 5.37921e-06
0.000798935 3.92146e-05 6.41388e-07
3.92146e-05 1.3953e-05 -8.51711e-07
6.41388e-07 -8.51711e-07 -5.32607e-05
0.000897436 -2.2563e-05 1.02896e-06
-2.2563e-05 7.15378e-05 1.31797e-07
1.02896e-06 1.31797e-07 4.21781e-06
0.00082597 5.29692e-05 -4.09328e-07
5.29692e-05 4.25984e-05 1.49156e-07
-4.09328e-07 1.49156e-07 -2.20332e-05
0.000886136 2.95711e-05 -3.27681e-07
2.95711e-05 6.40895e-05 7.19818e-07
-3.27681e-07 7.19818e-07 1.18514e-06
0.00085785 4.15369e-05 -9.66999e-08
4.15369e-05 5.0783e-05 4.15748e-08
-9.66999e-08 4.15748e-08 -1.67747e-05
0.000818588 5.27577e-05 4.39883e-07
5.27577e-05 4.63724e-05 3.04805e-07
4.39883e-07 3.04805e-07 -2.07425e-05
0.000879162 5.47294e-05 -2.57527e-08
5.47294e-05 6.87582e-05 3.60566e-08
-2.57527e-08 3.60566e-08 4.08675e-06
0.000920104 4.02216e-05 2.2732e-06
4.02216e-05 9.55635e-05 -2.68608e-08
2.2732e-06 -2.68608e-08 2.83132e-05
0.000860943 4.27842e-05 1.34994e-07
4.27842e-05 5.52363e-05 -9.34973e-07
1.34994e-07 -9.34973e-07 -5.47108e-06
0.000843427 -5.20994e-05 8.65888e-07
-5.20994e-05 7.36402e-05 -1.17027e-07
8.65888e-07 -1.17027e-07 -1.24594e-05
0.000910006 8.26142e-06 -5.1933e-08
8.26142e-06 9.76757e-05 -5.83774e-08
-5.1933e-08 -5.83774e-08 1.59154e-05
0.000728073 -3.91017e-05 4.16058e-07
-3.91017e-05 3.19073e-05 2.11598e-06
4.16058e-07 2.11598e-06 -7.14769e-05
0.00100944 -0.000118348 -1.13875e-06
-0.000118348 0.000166247 3.35969e-06
-1.13875e-06 3.35969e-06 3.51815e-05
0.00108476 -2.12096e-05 9.40314e-07
-2.12096e-05 0.0002092 -6.32536e-07
9.40314e-07 -6.32536e-07 0.000116282
0.000691588 -4.95586e-05 2.08175e-07
-4.95586e-05 2.00908e-05 -2.33403e-06
2.08175e-07 -2.33403e-06 -8.74502e-05
0.000811361 2.30237e-05 -5.21862e-07
2.30237e-05 5.66267e-05 -5.69895e-07
-5.21862e-07 -5.69895e-07 -2.21391e-05
0.000642464 2.78513e-05 8.50385e-07
2.78513e-05 -4.58739e-05 9.56099e-07
8.50385e-07 9.56099e-07 -0.000113927
0.000877647 3.49417e-05 -5.25663e-07
3.49417e-05 8.54923e-05 -3.15631e-07
-5.25663e-07 -3.15631e-07 1.35181e-05
0.000844784 1.26733e-05 -1.84931e-07
1.26733e-05 5.80661e-05 3.28981e-07
-1.84931e-07 3.28981e-07 -3.45508e-06
0.000803919 3.49278e-05 -6.24449e-07
3.49278e-05 2.5634e-05 6.09168e-07
-6.24449e-07 6.09168e-07 -2.30153e-05
0.000854376 -1.0032e-05 3.10485e-07
-1.0032e-05 6.46002e-05 -2.05395e-07
3.10485e-07 -2.05395e-07 2.32443e-06
0.000817848 4.66378e-06 -3.53749e-07
4.66378e-06 3.06557e-05 3.88865e-08
-3.53749e-07 3.88865e-08 -1.74806e-05
0.000784176 2.52171e-05 -1.08318e-06
2.52171e-05 4.53326e-06 1.52973e-06
-1.08318e-06 1.52973e-06 -2.6536e-05
0.000845177 -1.72282e-05 1.13541e-06
-1.72282e-05 4.3099e-05 -4.94445e-07
1.13541e-06 -4.94445e-07 -5.40776e-06
0.000791346 1.63284e-05 -1.52914e-07
1.63284e-05 4.09748e-06 5.67927e-09
-1.52914e-07 5.67927e-09 -2.6212e-05
0.0013233 2.60745e-05 -6.49582e-06
2.60745e-05 0.000292049 4.29783e-06
-6.49582e-06 4.29783e-06 0.000291287
0.00078707 7.18166e-06 1.05765e-06
7.18166e-06 -1.72298e-07 -1.4743e-06
1.05765e-06 -1.4743e-06 -3.03252e-05
0.0010307 1.89354e-05 -2.84422e-06
1.89354e-05 0.000127822 6.09066e-07
-2.84422e-06 6.09066e-07 0.000126111
0.000900442 1.69473e-05 -1.08631e-06
1.69473e-05 5.82137e-05 1.58439e-06
-1.08631e-06 1.58439e-06 7.30969e-05
0.00073034 1.17481e-05 4.58402e-07
1.17481e-05 -4.02293e-05 -3.12629e-06
4.58402e-07 -3.12629e-06 -4.30441e-05
0.0015125 1.41886e-05 4.44209e-06
1.41886e-05 0.0003908 -1.24378e-06
4.44209e-06 -1.24378e-06 0.000409182
0.00212728 8.6063e-06 4.80751e-06
8.6063e-06 0.000727099 -4.14467e-06
4.80751e-06 -4.14467e-06 0.000748672
0.000882454 -2.54667e-05 5.51008e-07
-2.54667e-05 6.78649e-05 -4.18735e-07
5.51008e-07 -4.18735e-07 1.79286e-05
0.000797332 -9.14323e-06 -3.12533e-07
-9.14323e-06 6.15822e-06 -1.61939e-06
-3.12533e-07 -1.61939e-06 -2.24104e-05
0.00087158 -5.66666e-06 3.69932e-07
-5.66666e-06 6.42476e-05 1.32339e-07
3.69932e-07 1.32339e-07 1.51442e-05
0.000749122 -6.55913e-06 -3.60841e-07
-6.55913e-06 -3.20554e-05 -3.24637e-06
-3.60841e-07 -3.24637e-06 -3.26796e-05
0.000800751 -5.04084e-06 -4.11626e-08
-5.04084e-06 7.08315e-06 4.08194e-09
-4.11626e-08 4.08194e-09 -2.07294e-05
0.000815934 -3.57155e-05 -1.08836e-06
-3.57155e-05 3.48067e-05 1.3548e-06
-1.08836e-06 1.3548e-06 -1.33088e-05
0.00204427 -8.98293e-07 -5.30391e-07
-8.98293e-07 0.000680936 -4.24866e-06
-5.30391e-07 -4.24866e-06 0.000703595
0.000747272 -4.85062e-07 -7.50608e-08
-4.85062e-07 -3.3964e-05 3.41249e-09
-7.50608e-08 3.41249e-09 -3.43449e-05
0.000802245 -1.50693e-06 1.07081e-07
-1.50693e-06 7.78297e-06 1.68212e-06
1.07081e-07 1.68212e-06 -1.99447e-05
0.000748532 5.63462e-06 -1.27041e-07
5.63462e-06 -3.28206e-05 3.29602e-06
-1.27041e-07 3.29602e-06 -3.36919e-05
0.00205787 7.80789e-06 -2.3998e-06
7.80789e-06 0.000688832 -2.01567e-08
-2.3998e-06 -2.01567e-08 0.000711235
0.00208161 1.55079e-05 -1.00675e-05
1.55079e-05 0.000703398 4.16955e-06
-1.00675e-05 4.16955e-06 0.000725265
-0.00130018 9.60197e-05 -3.92976e-05
9.60197e-05 -0.000128132 6.74018e-06
-3.92976e-05 6.74018e-06 -0.000484732
-0.000772513 0.000237194 -6.0711e-06
0.000237194 -0.000194233 3.87884e-06
-6.0711e-06 3.87884e-06 -0.000253114
0.00199912 6.56079e-05 -6.60766e-05
6.56079e-05 8.31345e-05 4.55462e-05
-6.60766e-05 4.55462e-05 -0.000189658
-0.00142721 0.000306918 5.16413e-05
0.000306918 -0.000554352 -2.16408e-05
5.16413e-05 -2.16408e-05 -0.000459486
0.00246033 7.63673e-05 -9.41254e-05
7.63673e-05 0.000357192 9.61959e-06
-9.41254e-05 9.61959e-06 1.63974e-05
0.00203865 -3.97049e-06 4.24248e-05
-3.97049e-06 0.000170945 -5.14392e-06
4.24248e-05 -5.14392e-06 0.000103183
0.0011593 -0.000245705 -6.64493e-05
-0.000245705 -0.000586143 -1.9373e-05
-6.64493e-05 -1.9373e-05 -0.00123164
0.00834126 0.000516789 7.04242e-05
0.000516789 0.00402994 -1.78896e-05
7.04242e-05 -1.78896e-05 0.00409473
-0.00300345 0.000659936 -1.47644e-05
0.000659936 -0.00273046 3.84373e-05
-1.47644e-05 3.84373e-05 -0.00118354
0.0014634 2.78838e-05 -6.28263e-06
2.78838e-05 -0.000204065 -9.9256e-07
-6.28263e-06 -9.9256e-07 -0.000427075
0.00177768 0.000188993 1.7544e-05
0.000188993 -4.01691e-05 -1.79007e-05
1.7544e-05 -1.79007e-05 -0.00142677
0.00476935 0.000759826 -1.15733e-05
0.000759826 0.00143996 -1.41183e-05
-1.15733e-05 -1.41183e-05 0.00183201
0.00177364 0.000408176 -7.10841e-06
0.000408176 -0.00102541 1.77242e-05
-7.10841e-06 1.77242e-05 -0.000181594
0.0026811 -9.55586e-05 -2.13561e-05
-9.55586e-05 0.000180022 5.85223e-06
-2.13561e-05 5.85223e-06 -0.00011766
0.00470172 0.000350355 6.5457e-05
0.000350355 0.00141634 -4.43281e-05
6.5457e-05 -4.43281e-05 -9.50378e-05
-0.00542867 0.000181117 -7.85907e-05
0.000181117 -0.00405778 -1.24218e-05
-7.85907e-05 -1.24218e-05 -0.00377911
0.00135154 0.000259688 -1.99492e-05
0.000259688 -0.00195629 1.94805e-05
-1.99492e-05 1.94805e-05 -0.00101204
0.000920485 -2.14256e-05 9.79789e-07
-2.14256e-05 0.000107472 4.26701e-07
9.79789e-07 4.26701e-07 2.57586e-05
0.000878813 3.46543e-05 -1.43959e-06
3.46543e-05 8.70965e-05 -3.41706e-07
-1.43959e-06 -3.41706e-07 1.06698e-05
0.000826804 1.39913e-05 7.05638e-07
1.39913e-05 5.20846e-05 5.37331e-09
7.05638e-07 5.37331e-09 -1.04166e-05
0.000876364 5.41081e-05 1.81587e-06
5.41081e-05 9.04446e-05 9.76259e-07
1.81587e-06 9.76259e-07 1.62726e-05
0.000792255 1.30667e-05 -3.55968e-07
1.30667e-05 3.99744e-05 6.77691e-07
-3.55968e-07 6.77691e-07 -4.22286e-05
0.000913468 3.7698e-05 1.90905e-07
3.7698e-05 0.000105792 5.32545e-07
1.90905e-07 5.32545e-07 2.98708e-05
0.000817696 -2.01667e-06 6.26961e-10
-2.01667e-06 5.04578e-05 1.06817e-06
6.26961e-10 1.06817e-06 -2.1929e-05
0.000930475 6.64858e-05 -7.88044e-07
6.64858e-05 0.000113811 5.26086e-07
-7.88044e-07 5.26086e-07 3.93452e-05
0.000906592 2.76996e-05 -3.07959e-07
2.76996e-05 0.00010073 2.93144e-07
-3.07959e-07 2.93144e-07 2.9479e-05
0.000766215 -1.98295e-05 -7.88584e-07
-1.98295e-05 2.32657e-05 -2.58039e-07
-7.88584e-07 -2.58039e-07 -4.46752e-05
-0.00020529 -6.29785e-05 1.05355e-05
-6.29785e-05 -0.000924617 -4.08908e-06
1.05355e-05 -4.08908e-06 -0.000964879
0.00173705 -0.000244089 6.17525e-06
-0.000244089 9.57694e-06 1.03796e-06
6.17525e-06 1.03796e-06 -6.30775e-05
0.000917555 -0.000191821 7.01819e-06
-0.000191821 -1.79852e-05 2.0056e-06
7.01819e-06 2.0056e-06 -0.00016146
0.00115796 -9.07467e-05 6.20154e-06
-9.07467e-05 0.000236502 -4.94622e-07
6.20154e-06 -4.94622e-07 6.63336e-05
0.00096937 -1.92742e-05 7.48714e-07
-1.92742e-05 0.000156336 -6.05711e-07
7.48714e-07 -6.05711e-07 3.23738e-05
0.000808323 -4.07e-05 -3.9432e-07
-4.07e-05 4.59397e-05 -5.16448e-07
-3.9432e-07 -5.16448e-07 -4.05472e-05
0.000871217 4.92625e-05 -8.74783e-08
4.92625e-05 7.90551e-05 -9.42009e-08
-8.74783e-08 -9.42009e-08 -2.34756e-06
0.000888574 -3.29681e-05 -2.47322e-07
-3.29681e-05 8.75931e-05 3.37003e-07
-2.47322e-07 3.37003e-07 6.2461e-06
0.00147169 -0.000165106 2.59478e-06
-0.000165106 0.000214527 -5.98464e-07
2.59478e-06 -5.98464e-07 9.94488e-05
0.000883381 5.91849e-06 -8.97412e-08
5.91849e-06 7.93138e-05 -2.55377e-07
-8.97412e-08 -2.55377e-07 -3.80901e-06
0.00089156 -2.77979e-05 -3.86136e-07
-2.77979e-05 7.73068e-05 -2.80493e-08
-3.86136e-07 -2.80493e-08 -1.21037e-05
0.00162243 -0.00020948 -4.45432e-07
-0.00020948 0.000275434 2.90924e-07
-4.45432e-07 2.90924e-07 0.000195973
0.00105439 -2.39649e-05 -3.1079e-06
-2.39649e-05 0.000194047 1.84257e-06
-3.1079e-06 1.84257e-06 5.33492e-05
0.000797765 -0.000244282 -1.93208e-07
-0.000244282 -0.000150738 -1.09129e-05
-1.93208e-07 -1.09129e-05 -0.00017326
0.00163585 -7.04169e-05 -9.53468e-06
-7.04169e-05 0.000553279 8.44353e-06
-9.53468e-06 8.44353e-06 0.000430973
0.0005058 2.09419e-05 -3.17253e-06
2.09419e-05 -0.000144039 6.13137e-06
-3.17253e-06 6.13137e-06 -0.000228395
0.000876036 -3.66281e-06 3.67729e-07
-3.66281e-06 6.39168e-05 6.78627e-07
3.67729e-07 6.78627e-07 -1.36844e-05
0.000857933 2.82287e-05 -5.74983e-07
2.82287e-05 5.60683e-05 3.70668e-07
-5.74983e-07 3.70668e-07 -2.80916e-05
0.00130517 1.69735e-06 -2.45582e-05
1.69735e-06 -0.000125977 -2.88646e-06
-2.45582e-05 -2.88646e-06 -0.00033436
-0.000230242 -1.23414e-05 -2.16268e-05
-1.23414e-05 0.000542679 -1.36644e-06
-2.16268e-05 -1.36644e-06 0.000228114
-0.005963 -9.32635e-05 -5.04903e-05
-9.32635e-05 -0.0029494 -3.17216e-06
-5.04903e-05 -3.17216e-06 -0.00287696
0.000644331 7.45854e-05 4.6256e-06
7.45854e-05 2.22422e-05 1.11317e-06
4.6256e-06 1.11317e-06 -6.75304e-05
5.93201e-05 2.0671e-05 5.43957e-06
2.0671e-05 -0.000191906 3.7686e-06
5.43957e-06 3.7686e-06 -0.000366674
0.00117743 9.06393e-05 1.49035e-05
9.06393e-05 0.000119264 -1.87947e-06
1.49035e-05 -1.87947e-06 5.34758e-05
-0.00123418 -6.79818e-05 1.98849e-05
-6.79818e-05 -9.21841e-05 5.92312e-06
1.98849e-05 5.92312e-06 -0.000473323
0.00505263 -0.000457524 -6.73618e-06
-0.000457524 0.00157601 -1.75495e-05
-6.73618e-06 -1.75495e-05 -4.20818e-05
0.00409445 0.000575225 3.05762e-05
0.000575225 0.000620532 -2.57709e-05
3.05762e-05 -2.57709e-05 7.49501e-05
-0.000151878 6.95303e-05 -1.55213e-05
6.95303e-05 -0.000259841 3.47397e-06
-1.55213e-05 3.47397e-06 -0.000209771
0.00553305 -0.000638312 3.73944e-05
-0.000638312 0.00146453 2.08879e-05
3.73944e-05 2.08879e-05 0.00158625
0.00219557 -3.73118e-05 4.54313e-05
-3.73118e-05 0.000343826 3.04292e-05
4.54313e-05 3.04292e-05 -1.84673e-05
0.00442532 -0.000251973 2.62214e-05
-0.000251973 0.000342806 1.45556e-05
2.62214e-05 1.45556e-05 0.00133587
0.0011349 0.000106818 2.66044e-06
0.000106818 0.000330893 -1.13751e-06
2.66044e-06 -1.13751e-06 0.00026039
0.00160193 -3.02072e-05 2.92458e-06
-3.02072e-05 0.000137459 -5.53686e-06
2.92458e-06 -5.53686e-06 -9.33519e-05
0.00172738 -4.87482e-06 6.33356e-07
-4.87482e-06 0.000108625 4.35259e-06
6.33356e-07 4.35259e-06 -0.000179622
0.00028683 5.38944e-05 -5.9548e-06
5.38944e-05 6.17072e-05 8.03961e-07
-5.9548e-06 8.03961e-07 -4.27419e-05
0.00312779 0.000409776 -8.57934e-06
0.000409776 0.000636029 -2.63735e-05
-8.57934e-06 -2.63735e-05 0.000348658
0.00298435 0.0002148 4.01525e-05
0.0002148 0.000244033 1.86146e-05
4.01525e-05 1.86146e-05 -0.00156342
0.00310775 1.86744e-05 -5.32881e-08
1.86744e-05 -0.00106867 -1.56284e-05
-5.32881e-08 -1.56284e-05 0.000109336
0.000443483 -0.000213609 -1.12727e-05
-0.000213609 -0.00087373 1.74802e-05
-1.12727e-05 1.74802e-05 -0.00096006
0.000627658 4.33321e-05 -3.3561e-06
4.33321e-05 0.000165572 -8.69838e-06
-3.3561e-06 -8.69838e-06 0.000123687
0.00118987 -9.14755e-06 -8.9638e-06
-9.14755e-06 0.000111453 -1.09305e-05
-8.9638e-06 -1.09305e-05 2.35275e-05
0.00171905 7.90856e-06 1.37983e-06
7.90856e-06 2.55686e-05 -2.37472e-05
1.37983e-06 -2.37472e-05 -0.000249069
0.00136683 0.000236798 1.88706e-05
0.000236798 -0.00186355 -2.24132e-05
1.88706e-05 -2.24132e-05 -0.00100075
-0.00167864 3.19562e-05 7.25981e-06
3.19562e-05 -0.000824548 -1.32986e-05
7.25981e-06 -1.32986e-05 -0.00108202
0.00861609 0.000119668 7.94035e-05
0.000119668 0.0029044 2.74382e-05
7.94035e-05 2.74382e-05 0.00138163
-0.0028411 -8.21384e-05 1.83651e-05
-8.21384e-05 -0.000969225 -2.54207e-05
1.83651e-05 -2.54207e-05 -0.00131622
0.00116044 8.97635e-05 4.37106e-06
8.97635e-05 0.000239479 3.90066e-06
4.37106e-06 3.90066e-06 0.000183557
0.000603231 5.6902e-05 -2.12021e-06
5.6902e-05 -3.30799e-05 1.33505e-06
-2.12021e-06 1.33505e-06 -8.34773e-05
0.000513121 3.30445e-05 -4.00299e-06
3.30445e-05 -3.56393e-05 -7.18541e-06
-4.00299e-06 -7.18541e-06 -8.47246e-05
0.000915722 7.79583e-05 -1.80575e-07
7.79583e-05 8.02494e-05 4.59734e-07
-1.80575e-07 4.59734e-07 1.07441e-05
0.000880735 -2.72607e-06 -3.89404e-07
-2.72607e-06 4.85191e-05 8.7994e-07
-3.89404e-07 8.7994e-07 -1.23276e-05
0.000823482 -3.8951e-05 -2.38699e-06
-3.8951e-05 3.25443e-05 5.49079e-06
-2.38699e-06 5.49079e-06 -1.76125e-05
0.000849728 4.2998e-05 1.27238e-07
4.2998e-05 3.98114e-05 6.56173e-08
1.27238e-07 6.56173e-08 -2.64421e-05
0.000803811 -4.40617e-05 1.2425e-07
-4.40617e-05 4.58735e-06 -8.53263e-07
1.2425e-07 -8.53263e-07 -4.40131e-05
0.000914391 -6.36958e-05 3.21592e-06
-6.36958e-05 9.41713e-05 2.03987e-06
3.21592e-06 2.03987e-06 4.94089e-05
0.000995929 -2.92069e-06 1.16743e-06
-2.92069e-06 0.00014873 -1.84407e-06
1.16743e-06 -1.84407e-06 0.000123858
0.000861751 1.06155e-05 1.95015e-07
1.06155e-05 4.09215e-05 -2.22617e-06
1.95015e-07 -2.22617e-06 -1.28781e-05
0.000868898 4.51136e-05 -1.27858e-07
4.51136e-05 5.36366e-05 8.99313e-07
-1.27858e-07 8.99313e-07 -1.16106e-05
0.000832112 5.55368e-05 -1.67623e-07
5.55368e-05 5.51332e-05 8.15796e-08
-1.67623e-07 8.15796e-08 -1.28441e-05
0.000876331 5.85309e-05 -8.59519e-07
5.85309e-05 6.72985e-05 5.93759e-07
-8.59519e-07 5.93759e-07 2.2166e-06
0.000864661 3.88654e-05 2.73933e-07
3.88654e-05 5.60861e-05 1.70344e-07
2.73933e-07 1.70344e-07 -4.56528e-06
0.000934078 4.09576e-05 7.21709e-07
4.09576e-05 0.000101931 2.29768e-07
7.21709e-07 2.29768e-07 3.55853e-05
0.000706829 -2.26428e-05 1.45314e-06
-2.26428e-05 2.00378e-05 7.30775e-07
1.45314e-06 7.30775e-07 -4.92261e-05
0.000778813 -2.45481e-05 -5.82565e-07
-2.45481e-05 4.30902e-05 -1.01052e-06
-5.82565e-07 -1.01052e-06 -3.94034e-05
0.000800211 -5.06881e-05 2.27773e-06
-5.06881e-05 6.57244e-05 8.23334e-07
2.27773e-06 8.23334e-07 -5.94285e-05
0.00100405 -6.07208e-06 -1.70865e-06
-6.07208e-06 0.000148706 -5.49039e-07
-1.70865e-06 -5.49039e-07 6.65014e-05
0.000999853 -5.63279e-05 -4.46389e-07
-5.63279e-05 0.000169618 8.70256e-07
-4.46389e-07 8.70256e-07 6.46358e-05
0.000615877 -9.89392e-05 -4.74923e-07
-9.89392e-05 -4.09977e-05 2.60966e-06
-4.74923e-07 2.60966e-06 -0.000179673
0.000831111 -0.000108708 -2.80721e-06
-0.000108708 7.00009e-05 3.66527e-07
-2.80721e-06 3.66527e-07 -6.37947e-05
0.000958237 -8.18273e-05 -8.55829e-07
-8.18273e-05 0.000147177 1.53989e-06
-8.55829e-07 1.53989e-06 4.02749e-05
0.000846043 -0.000107962 9.59499e-08
-0.000107962 8.12869e-05 4.31647e-07
9.59499e-08 4.31647e-07 -4.85212e-05
0.000894933 7.77468e-07 8.88883e-07
7.77468e-07 9.43913e-05 1.12443e-06
8.88883e-07 1.12443e-06 1.68888e-05
0.000984339 -2.58002e-05 -9.47973e-07
-2.58002e-05 0.000155667 -6.60762e-07
-9.47973e-07 -6.60762e-07 6.10647e-05
0.000726194 -5.51137e-05 3.49893e-07
-5.51137e-05 4.13709e-05 -3.79329e-06
3.49893e-07 -3.79329e-06 -6.32634e-05
0.00107683 2.52445e-05 -1.70973e-06
2.52445e-05 0.000198682 -1.6266e-06
-1.70973e-06 -1.6266e-06 0.000121401
0.000751843 2.23552e-05 8.20137e-08
2.23552e-05 1.26382e-05 -1.02709e-08
8.20137e-08 -1.02709e-08 -5.42428e-05
0.000799764 4.35174e-05 -1.25223e-07
4.35174e-05 2.83151e-05 8.06426e-07
-1.25223e-07 8.06426e-07 -2.43663e-05
0.000863026 -3.42356e-06 6.21311e-08
-3.42356e-06 6.96011e-05 -1.75458e-07
6.21311e-08 -1.75458e-07 6.65412e-06
0.000816519 1.4686e-05 -5.40512e-07
1.4686e-05 3.26744e-05 -6.60113e-08
-5.40512e-07 -6.60113e-08 -1.61388e-05
0.000778729 3.046e-05 -1.27152e-06
3.046e-05 6.6044e-06 1.51111e-06
-1.27152e-06 1.51111e-06 -2.57335e-05
0.000832524 -1.48852e-05 1.15031e-06
-1.48852e-05 3.87546e-05 -6.03298e-07
1.15031e-06 -6.03298e-07 -9.75909e-06
0.000787622 2.39386e-05 -1.09143e-07
2.39386e-05 5.75393e-06 4.40539e-09
-1.09143e-07 4.40539e-09 -2.51603e-05
0.00128648 3.26434e-05 -7.28138e-06
3.26434e-05 0.000278199 3.01347e-06
-7.28138e-06 3.01347e-06 0.00027645
0.000792196 1.27866e-05 1.17195e-06
1.27866e-05 4.07915e-06 -1.48737e-06
1.17195e-06 -1.48737e-06 -2.60622e-05
0.00102471 2.50757e-05 -3.50869e-06
2.50757e-05 0.000128594 5.66324e-07
-3.50869e-06 5.66324e-07 0.000126342
0.000889542 2.26776e-05 -1.62833e-06
2.26776e-05 5.71604e-05 1.57907e-06
-1.62833e-06 1.57907e-06 7.12277e-05
0.000728625 1.74057e-05 6.97378e-07
1.74057e-05 -3.83949e-05 -3.14528e-06
6.97378e-07 -3.14528e-06 -4.15384e-05
0.00150121 2.12177e-05 5.87696e-06
2.12177e-05 0.000387992 -1.17123e-06
5.87696e-06 -1.17123e-06 0.000405821
0.00211807 1.68767e-05 8.51906e-06
1.68767e-05 0.000724287 -4.04436e-06
8.51906e-06 -4.04436e-06 0.000745496
0.000684536 -6.67851e-07 -3.7456e-07
-6.67851e-07 -3.52855e-05 -9.55414e-07
-3.7456e-07 -9.55414e-07 -9.34071e-05
0.000563317 -1.40386e-05 -2.7946e-07
-1.40386e-05 -0.000118595 -2.06484e-06
-2.7946e-07 -2.06484e-06 -0.000150568
0.000906733 -1.19288e-05 -3.38101e-09
-1.19288e-05 8.28489e-05 7.70753e-08
-3.38101e-09 7.70753e-08 3.14407e-05
0.000748338 -1.2318e-05 -3.71637e-07
-1.2318e-05 -3.01862e-05 -3.22858e-06
-3.71637e-07 -3.22858e-06 -3.18338e-05
0.000680534 -9.46343e-06 7.37307e-08
-9.46343e-06 -5.69281e-05 1.39308e-08
7.37307e-08 1.39308e-08 -8.64449e-05
0.000674111 -4.28842e-05 2.28948e-07
-4.28842e-05 -4.12327e-05 8.44238e-07
2.28948e-07 8.44238e-07 -9.22642e-05
0.00205002 -8.9312e-06 -4.78119e-06
-8.9312e-06 0.000685149 -4.21303e-06
-4.78119e-06 -4.21303e-06 0.00070753
0.000745954 -6.29548e-06 -1.71266e-07
-6.29548e-06 -3.38308e-05 -2.09778e-09
-1.71266e-07 -2.09778e-09 -3.44268e-05
0.000806758 -5.84097e-06 1.15747e-07
-5.84097e-06 1.03949e-05 1.66085e-06
1.15747e-07 1.66085e-06 -1.744e-05
0.00204415 -3.21074e-07 -2.3052e-06
-3.21074e-07 0.000680862 -5.35702e-10
-2.3052e-06 -5.35702e-10 0.000703517
0.000748873 -1.85605e-07 1.34594e-07
-1.85605e-07 -3.31134e-05 3.29187e-06
1.34594e-07 3.29187e-06 -3.35084e-05
0.00206185 8.35209e-06 -4.8678e-06
8.35209e-06 0.000691201 4.25463e-06
-4.8678e-06 4.25463e-06 0.000713519
0.00105586 2.42344e-05 -4.37988e-05
2.42344e-05 -0.000189931 1.63668e-05
-4.37988e-05 1.63668e-05 -0.000424489
0.00126412 0.000169262 -8.65324e-07
0.000169262 0.00109335 -4.03954e-06
-8.65324e-07 -4.03954e-06 0.00100465
0.000676089 -9.47787e-05 2.23091e-05
-9.47787e-05 0.000628258 -1.13826e-05
2.23091e-05 -1.13826e-05 0.000399322
0.000852122 1.94317e-05 -7.6108e-08
1.94317e-05 6.42842e-05 4.635e-07
-7.6108e-08 4.635e-07 -8.7318e-06
0.00192393 3.44816e-05 -1.93246e-05
3.44816e-05 0.00026002 3.00619e-05
-1.93246e-05 3.00619e-05 3.08887e-05
0.00200479 5.78699e-05 -1.5485e-05
5.78699e-05 0.000123491 2.60172e-06
-1.5485e-05 2.60172e-06 -0.000201379
0.00150167 0.00037785 6.06269e-05
0.00037785 0.000802458 -4.16121e-05
6.06269e-05 -4.16121e-05 0.00117045
0.00307905 -2.3511e-05 -3.08312e-05
-2.3511e-05 0.000411961 7.10598e-07
-3.08312e-05 7.10598e-07 0.00016625
0.00920642 0.00048616 2.26374e-05
0.00048616 0.00348671 -2.30383e-05
2.26374e-05 -2.30383e-05 0.00229256
-0.00243548 0.000434793 2.70046e-05
0.000434793 -0.00215474 -4.76074e-07
2.70046e-05 -4.76074e-07 -0.001644
0.00296135 0.000436521 3.71492e-05
0.000436521 -0.00036021 -2.06724e-05
3.71492e-05 -2.06724e-05 0.000520871
0.00285084 -0.000151969 -4.40376e-05
-0.000151969 -1.89989e-05 2.09437e-06
-4.40376e-05 2.09437e-06 -0.000538717
0.00707261 0.000334229 2.39379e-05
0.000334229 0.00257913 -1.18364e-05
2.39379e-05 -1.18364e-05 0.00123722
0.00453517 0.000530008 -7.53205e-07
0.000530008 0.000445443 -9.67031e-06
-7.53205e-07 -9.67031e-06 0.0006464
0.00300832 0.000270158 -8.44424e-06
0.000270158 -0.00102186 2.32348e-06
-8.44424e-06 2.32348e-06 -8.62186e-05
0.00406574 -0.000368933 1.55445e-05
-0.000368933 0.000553793 -2.19676e-05
1.55445e-05 -2.19676e-05 -0.000177504
0.00742608 0.000198478 3.0972e-05
0.000198478 0.00294414 3.42094e-06
3.0972e-05 3.42094e-06 0.00102178
0.00180115 0.000165598 -1.93911e-06
0.000165598 -0.000554444 2.20027e-05
-1.93911e-06 2.20027e-05 -0.000551889
0.00453149 5.60652e-05 -1.80789e-06
5.60652e-05 -8.53365e-05 2.28899e-05
-1.80789e-06 2.28899e-05 0.000995617
0.000892709 -2.55835e-05 3.50528e-07
-2.55835e-05 8.75539e-05 5.21497e-07
3.50528e-07 5.21497e-07 4.4029e-06
0.000882528 -3.74444e-05 5.01998e-07
-3.74444e-05 8.97756e-05 1.55187e-08
5.01998e-07 1.55187e-08 6.33965e-06
0.000907997 4.95955e-05 -1.0368e-06
4.95955e-05 0.000104823 -4.60334e-08
-1.0368e-06 -4.60334e-08 2.80504e-05
0.000855211 -1.95651e-05 -4.85239e-07
-1.95651e-05 6.38828e-05 2.79922e-07
-4.85239e-07 2.79922e-07 -1.1999e-05
0.000888536 4.36372e-05 -5.78741e-07
4.36372e-05 9.22898e-05 3.34496e-07
-5.78741e-07 3.34496e-07 1.10833e-05
0.000927354 2.14904e-05 7.46467e-07
2.14904e-05 0.000114961 8.0634e-07
7.46467e-07 8.0634e-07 3.86511e-05
0.000974991 5.97931e-05 -5.51937e-07
5.97931e-05 0.000136078 1.07789e-07
-5.51937e-07 1.07789e-07 6.26951e-05
0.00100992 6.71639e-05 8.58894e-07
6.71639e-05 0.000160193 8.76798e-07
8.58894e-07 8.76798e-07 8.70916e-05
-0.00042204 -8.45777e-05 1.8255e-05
-8.45777e-05 -0.000780733 -6.77236e-06
1.8255e-05 -6.77236e-06 -0.000831323
0.00151199 -0.00020565 6.31019e-06
-0.00020565 0.00020809 -1.83604e-06
6.31019e-06 -1.83604e-06 0.000137978
0.000878556 -0.000107885 -1.89977e-06
-0.000107885 9.00059e-05 -2.21868e-07
-1.89977e-06 -2.21868e-07 3.30412e-06
0.00175138 -4.90147e-05 3.53372e-06
-4.90147e-05 0.000543209 -1.90647e-06
3.53372e-06 -1.90647e-06 0.000408342
0.000791143 -3.72979e-05 -4.9132e-07
-3.72979e-05 2.51241e-05 -7.39045e-07
-4.9132e-07 -7.39045e-07 -6.69479e-05
0.000977357 -2.30609e-05 -8.54221e-07
-2.30609e-05 0.000125996 3.8354e-08
-8.54221e-07 3.8354e-08 4.63824e-05
0.000940503 7.97164e-06 2.90646e-08
7.97164e-06 0.000104395 -2.64694e-07
2.90646e-08 -2.64694e-07 2.3885e-05
0.000770245 -0.00025403 -4.34481e-06
-0.00025403 -0.000181198 2.94026e-07
-4.34481e-06 2.94026e-07 -0.000223471
0.000889454 2.25475e-05 9.9782e-08
2.25475e-05 7.93883e-05 -2.28453e-07
9.9782e-08 -2.28453e-07 -6.90976e-06
0.00101037 -2.36865e-05 -3.83315e-07
-2.36865e-05 0.000118974 1.99373e-07
-3.83315e-07 1.99373e-07 2.96223e-05
0.000622392 -6.29829e-05 8.98337e-07
-6.29829e-05 7.00376e-06 2.94385e-06
8.98337e-07 2.94385e-06 -9.68713e-05
0.00106124 -2.07242e-05 4.68434e-08
-2.07242e-05 0.000158663 8.09035e-07
4.68434e-08 8.09035e-07 8.62828e-05
-0.000133631 -0.000262659 3.56426e-05
-0.000262659 -0.000476724 -1.87331e-05
3.56426e-05 -1.87331e-05 -0.000465154
0.00137189 -2.16884e-05 -1.05151e-05
-2.16884e-05 0.000551829 1.38293e-05
-1.05151e-05 1.38293e-05 0.000427874
0.000547445 5.02277e-06 -1.17982e-06
5.02277e-06 -0.000128059 3.30408e-06
-1.17982e-06 3.30408e-06 -0.000198799
0.000917097 8.90737e-05 1.35902e-06
8.90737e-05 9.06578e-05 1.10394e-06
1.35902e-06 1.10394e-06 1.26031e-05
0.00140185 -1.58727e-06 -8.57772e-06
-1.58727e-06 0.000264717 4.27212e-07
-8.57772e-06 4.27212e-07 0.000210801
0.00113788 -9.87951e-06 2.27476e-05
-9.87951e-06 -0.000181494 -1.79769e-06
2.27476e-05 -1.79769e-06 -0.000390623
-0.00141437 -2.23233e-05 2.01538e-05
-2.23233e-05 -1.80988e-05 3.57986e-07
2.01538e-05 3.57986e-07 -0.00042921
0.000630015 7.56176e-05 8.79249e-06
7.56176e-05 7.68675e-05 6.17247e-07
8.79249e-06 6.17247e-07 5.89873e-06
0.000510347 0.000104217 1.67823e-05
0.000104217 0.000191394 9.40891e-06
1.67823e-05 9.40891e-06 7.64344e-05
0.00166561 -2.82125e-05 4.07607e-05
-2.82125e-05 0.000232145 9.37172e-06
4.07607e-05 9.37172e-06 3.59087e-05
0.00783477 -0.000492121 6.2184e-05
-0.000492121 0.00281467 2.4669e-05
6.2184e-05 2.4669e-05 0.00115683
0.00232004 0.0004088 -6.34402e-05
0.0004088 0.000213793 -7.3675e-05
-6.34402e-05 -7.3675e-05 -0.000464114
0.00349426 -0.000306897 1.70085e-05
-0.000306897 0.000307183 4.19571e-05
1.70085e-05 4.19571e-05 0.000130103
0.00182486 -1.0043e-06 1.40327e-05
-1.0043e-06 0.000102486 3.57975e-05
1.40327e-05 3.57975e-05 -0.000192487
0.00175745 1.16509e-05 1.66015e-06
1.16509e-05 -0.00210367 -6.33358e-07
1.66015e-06 -6.33358e-07 -0.000829527
0.000676115 7.05793e-05 2.15273e-06
7.05793e-05 0.000178567 1.309e-07
2.15273e-06 1.309e-07 0.000126248
0.00114756 -7.5288e-06 -1.204e-06
-7.5288e-06 6.25269e-05 -3.49165e-06
-1.204e-06 -3.49165e-06 -1.86607e-05
0.00173408 7.89225e-06 5.16017e-06
7.89225e-06 0.000141427 2.03852e-06
5.16017e-06 2.03852e-06 -8.6828e-05
-0.000614989 7.89482e-05 -9.43201e-06
7.89482e-05 -0.000232545 -3.10034e-06
-9.43201e-06 -3.10034e-06 -0.000407259
0.00298981 0.000251143 5.7525e-06
0.000251143 -0.000975242 -2.76977e-06
5.7525e-06 -2.76977e-06 -9.00618e-05
0.00525944 0.000469167 4.26412e-05
0.000469167 0.00123385 5.21168e-06
4.26412e-05 5.21168e-06 -0.000293973
0.00288686 0.000135933 -5.13038e-05
0.000135933 0.000903865 -5.4631e-06
-5.13038e-05 -5.4631e-06 0.000605294
0.000159189 6.64439e-05 -5.00649e-06
6.64439e-05 4.32535e-05 -1.26395e-05
-5.00649e-06 -1.26395e-05 -5.23918e-05
0.00109401 1.88731e-06 -2.33233e-06
1.88731e-06 0.000126184 -7.69793e-06
-2.33233e-06 -7.69793e-06 4.3156e-05
0.00193899 2.71373e-05 1.79873e-05
2.71373e-05 0.000256215 -2.97456e-05
1.79873e-05 -2.97456e-05 3.27402e-05
0.00348413 0.000400352 4.98587e-05
0.000400352 5.77401e-05 -3.11319e-05
4.98587e-05 -3.11319e-05 0.000829604
0.00251107 0.000244308 -1.02879e-05
0.000244308 -0.000284486 -2.66686e-05
-1.02879e-05 -2.66686e-05 -0.000208705
0.00195267 0.000288565 1.35661e-05
0.000288565 0.000227095 -1.51306e-05
1.35661e-05 -1.51306e-05 0.000309053
0.00238791 -9.16725e-05 0.000108909
-9.16725e-05 0.000867574 2.55965e-05
0.000108909 2.55965e-05 -0.00117961
0.00065267 7.47496e-05 1.31129e-06
7.47496e-05 -9.82517e-06 6.38558e-06
1.31129e-06 6.38558e-06 -6.38082e-05
0.000665915 9.17432e-06 3.37343e-06
9.17432e-06 4.4214e-05 1.36585e-06
3.37343e-06 1.36585e-06 -2.03083e-06
0.000659925 -2.6645e-05 1.03703e-05
-2.6645e-05 0.000205906 -9.12709e-06
1.03703e-05 -9.12709e-06 0.000138784
0.000897373 1.9316e-05 -3.56195e-07
1.9316e-05 6.18939e-05 9.40533e-07
-3.56195e-07 9.40533e-07 -1.9549e-06
0.000725848 -4.302e-05 -1.22972e-06
-4.302e-05 -3.86433e-05 2.45945e-06
-1.22972e-06 2.45945e-06 -8.6742e-05
0.00104383 -6.97998e-05 -2.19186e-06
-6.97998e-05 0.000150421 4.99384e-06
-2.19186e-06 4.99384e-06 9.94157e-05
0.000886661 -2.64337e-06 -2.12324e-07
-2.64337e-06 5.79103e-05 -3.60437e-07
-2.12324e-07 -3.60437e-07 2.9815e-06
0.000658326 -9.98757e-06 -1.9395e-06
-9.98757e-06 -4.30435e-05 2.93929e-06
-1.9395e-06 2.93929e-06 -6.3845e-05
0.000586513 -6.29446e-05 2.04763e-06
-6.29446e-05 2.65739e-05 -2.07592e-06
2.04763e-06 -2.07592e-06 -7.5921e-05
0.000883136 3.17268e-05 1.94691e-07
3.17268e-05 6.52882e-05 1.17055e-06
1.94691e-07 1.17055e-06 4.51165e-06
0.000954887 5.25672e-05 -3.21292e-07
5.25672e-05 0.000113184 1.02726e-06
-3.21292e-07 1.02726e-06 4.69301e-05
0.00106657 -3.00626e-05 6.71464e-07
-3.00626e-05 0.000203104 4.45805e-07
6.71464e-07 4.45805e-07 0.000129112
0.000453861 -3.0308e-05 3.59909e-06
-3.0308e-05 -4.7171e-05 1.61814e-06
3.59909e-06 1.61814e-06 -0.000194196
0.000674365 1.6915e-06 -4.65764e-06
1.6915e-06 -8.02137e-06 -8.96662e-07
-4.65764e-06 -8.96662e-07 -8.71972e-05
0.000494555 -4.85023e-05 3.35185e-07
-4.85023e-05 -9.18706e-05 -2.72954e-07
3.35185e-07 -2.72954e-07 -0.000209396
0.00105217 -0.00013492 2.03747e-06
-0.00013492 0.000197661 9.64827e-07
2.03747e-06 9.64827e-07 2.80511e-05
0.00112751 -0.000138342 -2.72714e-06
-0.000138342 0.000169637 3.32278e-06
-2.72714e-06 3.32278e-06 8.64191e-06
0.00129426 -7.54774e-05 -1.50511e-06
-7.54774e-05 0.000319524 -1.18064e-06
-1.50511e-06 -1.18064e-06 0.000212796
0.000770616 -0.000108799 -3.89615e-07
-0.000108799 3.37175e-05 2.16096e-07
-3.89615e-07 2.16096e-07 -0.000107223
0.00139937 -0.00014473 2.85602e-07
-0.00014473 0.000365399 -4.75868e-07
2.85602e-07 -4.75868e-07 0.000231454
0.000552684 -7.91196e-05 -1.19959e-06
-7.91196e-05 -5.95676e-05 4.14459e-07
-1.19959e-06 4.14459e-07 -0.000176288
0.000904283 -0.000112863 2.10475e-07
-0.000112863 0.000107706 -7.72275e-08
2.10475e-07 -7.72275e-08 -2.42026e-05
0.000895931 -5.74338e-06 -3.69976e-07
-5.74338e-06 9.82977e-05 7.68276e-07
-3.69976e-07 7.68276e-07 1.35844e-05
0.00101298 -8.04857e-05 -1.39985e-06
-8.04857e-05 0.000174092 1.27494e-06
-1.39985e-06 1.27494e-06 6.69171e-05
0.000685112 -9.77849e-05 -3.80212e-07
-9.77849e-05 -2.4892e-06 -1.10635e-06
-3.80212e-07 -1.10635e-06 -0.000131056
0.000813046 4.27747e-05 1.58863e-07
4.27747e-05 4.02525e-05 1.04293e-06
1.58863e-07 1.04293e-06 -1.91656e-05
0.000776243 1.25851e-06 6.87384e-07
1.25851e-06 3.10405e-05 3.13374e-08
6.87384e-07 3.13374e-08 -4.66398e-05
0.000883979 -3.04527e-05 7.30126e-07
-3.04527e-05 0.000102233 -2.22386e-06
7.30126e-07 -2.22386e-06 5.89292e-06
0.000858214 1.54636e-05 -1.28973e-07
1.54636e-05 6.9491e-05 -8.61021e-07
-1.28973e-07 -8.61021e-07 3.86699e-06
0.000813929 2.4028e-05 -4.14717e-07
2.4028e-05 3.50612e-05 -1.529e-07
-4.14717e-07 -1.529e-07 -1.71165e-05
0.000769284 3.74432e-05 -1.25136e-06
3.74432e-05 8.00834e-06 1.46525e-06
-1.25136e-06 1.46525e-06 -2.67856e-05
0.000821731 -4.09118e-06 7.77591e-07
-4.09118e-06 3.58882e-05 -7.86881e-07
7.77591e-07 -7.86881e-07 -1.31325e-05
0.000780177 3.12179e-05 -6.07641e-08
3.12179e-05 7.10107e-06 -4.56877e-09
-6.07641e-08 -4.56877e-09 -2.52409e-05
0.000702367 3.30471e-05 -1.29394e-06
3.30471e-05 -3.53582e-05 3.23668e-06
-1.29394e-06 3.23668e-06 -4.1799e-05
0.000791173 2.21988e-05 1.12034e-06
2.21988e-05 6.99888e-06 -1.4923e-06
1.12034e-06 -1.4923e-06 -2.3741e-05
0.000722708 2.84137e-05 1.22289e-07
2.84137e-05 -3.15019e-05 1.57451e-08
1.22289e-07 1.57451e-08 -3.62852e-05
0.00200239 4.2926e-05 -4.73956e-06
4.2926e-05 0.00067477 1.52331e-06
-4.73956e-06 1.52331e-06 0.000693243
0.000728218 2.31003e-05 9.179e-07
2.31003e-05 -3.45387e-05 -3.15439e-06
9.179e-07 -3.15439e-06 -3.82396e-05
0.00148409 2.79885e-05 7.14278e-06
2.79885e-05 0.00038332 -1.08452e-06
7.14278e-06 -1.08452e-06 0.00040036
0.00209968 2.48966e-05 1.20597e-05
2.48966e-05 0.000717778 -3.90116e-06
1.20597e-05 -3.90116e-06 0.000738418
0.000713465 -2.0513e-05 -1.64836e-07
-2.0513e-05 -2.69984e-05 -6.77577e-07
-1.64836e-07 -6.77577e-07 -8.29804e-05
0.000541154 -1.79356e-05 -2.91663e-07
-1.79356e-05 -0.000128637 -2.00548e-06
-2.91663e-07 -2.00548e-06 -0.000163221
0.000798409 -2.57838e-06 -2.98079e-07
-2.57838e-06 2.604e-05 -5.16942e-07
-2.98079e-07 -5.16942e-07 -3.11588e-05
0.000743148 -1.80814e-05 -4.21632e-07
-1.80814e-05 -2.93588e-05 -3.24722e-06
-4.21632e-07 -3.24722e-06 -3.26894e-05
0.000554548 -1.41557e-05 3.43852e-08
-1.41557e-05 -0.000123309 -6.05266e-07
3.43852e-08 -6.05266e-07 -0.000155552
0.000922639 -5.48516e-07 -1.31196e-07
-5.48516e-07 9.47138e-05 6.53527e-07
-1.31196e-07 6.53527e-07 4.0973e-05
0.00207474 -1.71127e-05 -8.48356e-06
-1.71127e-05 0.000701062 -4.17045e-06
-8.48356e-06 -4.17045e-06 0.00072267
0.000741467 -1.20287e-05 -1.0434e-07
-1.20287e-05 -3.39636e-05 -1.20207e-08
-1.0434e-07 -1.20207e-08 -3.55499e-05
0.000561329 -9.60844e-06 2.19152e-07
-9.60844e-06 -0.000121243 1.54649e-06
2.19152e-07 1.54649e-06 -0.000151704
0.002046 -8.40558e-06 -2.46753e-06
-8.40558e-06 0.000682748 2.03533e-08
-2.46753e-06 2.03533e-08 0.000705202
0.000743593 -6.03806e-06 1.96377e-07
-6.03806e-06 -3.51524e-05 3.26708e-06
1.96377e-07 3.26708e-06 -3.57272e-05
0.00204354 2.57934e-07 -6.09853e-07
2.57934e-07 0.000680516 4.26546e-06
-6.09853e-07 4.26546e-06 0.00070316
0.00114528 1.64145e-05 -1.14827e-05
1.64145e-05 2.49804e-05 1.17943e-05
-1.14827e-05 1.17943e-05 -5.72431e-05
0.00128333 2.59717e-05 4.57976e-06
2.59717e-05 -5.01924e-05 -1.61374e-06
4.57976e-06 -1.61374e-06 -0.000284065
0.00114501 0.000134635 4.71059e-05
0.000134635 0.00114026 -1.56291e-05
4.71059e-05 -1.56291e-05 0.00100605
0.00087122 1.84408e-05 2.20893e-07
1.84408e-05 7.17654e-05 2.97505e-08
2.20893e-07 2.97505e-08 1.35431e-06
0.000794988 -1.09639e-05 -5.90042e-08
-1.09639e-05 2.72727e-05 1.8925e-07
-5.90042e-08 1.8925e-07 -4.21097e-05
0.000936296 2.92465e-05 -5.83991e-07
2.92465e-05 0.000111488 9.2308e-07
-5.83991e-07 9.2308e-07 3.54261e-05
0.00174949 1.96218e-05 3.0008e-06
1.96218e-05 8.28697e-05 4.25739e-05
3.0008e-06 4.25739e-05 -0.000213268
0.00192408 3.64105e-05 -5.98538e-06
3.64105e-05 0.000258056 2.91882e-06
-5.98538e-06 2.91882e-06 2.41788e-05
0.00211735 5.47474e-05 3.48423e-05
5.47474e-05 0.000218852 -3.57963e-05
3.48423e-05 -3.57963e-05 -0.000145745
0.00411933 -0.000184092 -5.13174e-05
-0.000184092 0.000719636 5.99129e-06
-5.13174e-05 5.99129e-06 0.000247564
-0.000436714 9.84031e-05 -2.61689e-05
9.84031e-05 -0.000738296 1.12948e-05
-2.61689e-05 1.12948e-05 -0.00230867
0.00481509 0.000589596 6.36375e-05
0.000589596 0.00107032 -2.08375e-05
6.36375e-05 -2.08375e-05 0.00115304
0.0014899 0.000204302 1.10077e-05
0.000204302 -0.00199739 -2.41311e-05
1.10077e-05 -2.41311e-05 -0.00101031
0.00401164 -0.000425075 -1.03236e-05
-0.000425075 0.000810789 3.44035e-06
-1.03236e-05 3.44035e-06 0.000347526
0.00594535 9.56361e-05 1.59355e-05
9.56361e-05 0.00196679 -1.24006e-05
1.59355e-05 -1.24006e-05 0.000392503
0.00028054 9.77226e-05 -1.07957e-05
9.77226e-05 -0.000736847 -2.72123e-06
-1.07957e-05 -2.72123e-06 -0.000819182
0.00314365 3.3126e-05 -3.49921e-06
3.3126e-05 -0.00107276 1.19188e-06
-3.49921e-06 1.19188e-06 8.7504e-05
0.00225682 -0.000437409 -2.61092e-05
-0.000437409 -0.000228431 -4.38786e-05
-2.61092e-05 -4.38786e-05 -0.000687476
0.00875283 -0.000176464 6.93168e-05
-0.000176464 0.00361036 6.09976e-07
6.93168e-05 6.09976e-07 0.00166418
-0.00272884 7.58006e-05 2.09103e-05
7.58006e-05 -0.000994564 1.07868e-05
2.09103e-05 1.07868e-05 -0.00136737
0.00143765 -0.000203761 7.53731e-06
-0.000203761 -0.00171045 3.19412e-06
7.53731e-06 3.19412e-06 -0.000742342
0.000899175 -1.51328e-06 -1.90476e-07
-1.51328e-06 8.42579e-05 1.00063e-06
-1.90476e-07 1.00063e-06 4.12815e-06
0.000871394 -1.52492e-05 1.58871e-07
-1.52492e-05 7.87576e-05 -5.18968e-08
1.58871e-07 -5.18968e-08 -6.41814e-06
0.000851185 -4.56355e-05 -1.17882e-07
-4.56355e-05 7.40409e-05 -3.5902e-07
-1.17882e-07 -3.5902e-07 -1.01378e-05
0.000869478 5.0208e-06 -2.42425e-07
5.0208e-06 7.16911e-05 -2.58395e-07
-2.42425e-07 -2.58395e-07 -4.57513e-06
0.00098843 8.06151e-05 1.37636e-06
8.06151e-05 0.000145949 -6.7732e-08
1.37636e-06 -6.7732e-08 6.61118e-05
0.00101979 6.58538e-05 -2.51044e-08
6.58538e-05 0.000162357 1.36473e-08
-2.51044e-08 1.36473e-08 8.74273e-05
0.00113366 -0.000273555 -2.31583e-08
-0.000273555 -2.22678e-06 3.58846e-06
-2.31583e-08 3.58846e-06 -6.83517e-05
-0.000612542 -4.68599e-05 7.90454e-06
-4.68599e-05 -0.000640709 -3.6733e-06
7.90454e-06 -3.6733e-06 -0.000728876
0.00101843 4.09923e-05 -2.63601e-07
4.09923e-05 0.000153021 -5.70178e-07
-2.63601e-07 -5.70178e-07 6.93318e-05
0.0013425 -6.87092e-05 5.05324e-06
-6.87092e-05 0.000287311 -7.52522e-06
5.05324e-06 -7.52522e-06 0.000193514
0.0010308 1.48105e-05 -2.54842e-07
1.48105e-05 0.000155681 -1.27034e-06
-2.54842e-07 -1.27034e-06 7.06145e-05
0.000936198 -1.23722e-05 1.64335e-07
-1.23722e-05 9.05678e-05 -3.34779e-07
1.64335e-07 -3.34779e-07 1.62584e-05
0.000965387 4.66175e-05 2.50567e-07
4.66175e-05 0.000114107 -1.70457e-07
2.50567e-07 -1.70457e-07 3.99385e-05
0.000727411 -0.00025073 -9.48456e-06
-0.00025073 -6.91557e-05 -8.36046e-07
-9.48456e-06 -8.36046e-07 -7.14786e-05
0.000885546 -1.67737e-05 9.56709e-07
-1.67737e-05 5.76038e-05 -1.47026e-06
9.56709e-07 -1.47026e-06 -1.12136e-05
0.000712017 -1.10796e-05 1.98238e-06
-1.10796e-05 0.00022991 -1.98427e-06
1.98238e-06 -1.98427e-06 0.00011338
0.000980845 1.13143e-05 1.71017e-06
1.13143e-05 0.000122054 1.04665e-06
1.71017e-06 1.04665e-06 5.39523e-05
-0.00181919 -5.11e-05 1.36004e-05
-5.11e-05 -0.000894488 -2.31869e-05
1.36004e-05 -2.31869e-05 -0.0011506
0.00161832 9.81449e-06 1.33202e-05
9.81449e-06 0.000667515 1.88732e-05
1.33202e-05 1.88732e-05 0.000635856
0.00105585 -1.92968e-05 3.1757e-07
-1.92968e-05 0.000161529 3.39993e-06
3.1757e-07 3.39993e-06 0.000102811
0.00132041 -1.89388e-06 -1.7116e-07
-1.89388e-06 0.000381187 3.75497e-07
-1.7116e-07 3.75497e-07 0.000343642
0.000945418 -2.66198e-07 -3.81638e-06
-2.66198e-07 2.12098e-05 -9.61192e-07
-3.81638e-06 -9.61192e-07 -2.64634e-05
0.00100285 -2.03088e-05 7.14383e-05
-2.03088e-05 -0.00021633 -9.69292e-07
7.14383e-05 -9.69292e-07 -0.000426955
0.00111592 0.000108257 1.25896e-05
0.000108257 0.000396306 9.01029e-06
1.25896e-05 9.01029e-06 0.000335374
0.00270808 0.000269546 3.50414e-06
0.000269546 0.00111329 -1.33575e-05
3.50414e-06 -1.33575e-05 0.00100892
0.00109782 -7.16251e-06 5.54278e-06
-7.16251e-06 1.07968e-05 3.84881e-06
5.54278e-06 3.84881e-06 -6.31993e-05
0.00157197 0.00018569 -2.19918e-05
0.00018569 -9.33517e-05 -8.68915e-07
-2.19918e-05 -8.68915e-07 -0.00159982
-0.00552329 2.02768e-05 -2.52775e-05
2.02768e-05 -0.00307617 2.67115e-05
-2.52775e-05 2.67115e-05 -0.0035086
0.0017914 1.11397e-05 4.2088e-06
1.11397e-05 0.00028353 2.22862e-05
4.2088e-06 2.22862e-05 0.000106034
0.00151579 0.000190552 -9.81432e-06
0.000190552 -0.00193412 2.47048e-05
-9.81432e-06 2.47048e-05 -0.000986491
0.000352416 5.0441e-05 -2.38471e-06
5.0441e-05 0.000130987 -2.65245e-06
-2.38471e-06 -2.65245e-06 5.31029e-05
0.000991994 1.34685e-07 8.62071e-08
1.34685e-07 9.86667e-05 -3.04579e-06
8.62071e-08 -3.04579e-06 2.55761e-05
0.00193649 2.90863e-05 5.52289e-06
2.90863e-05 0.000250732 -2.66779e-06
5.52289e-06 -2.66779e-06 2.47538e-05
0.00183149 0.000293782 5.3708e-05
0.000293782 -2.75923e-05 7.00504e-07
5.3708e-05 7.00504e-07 -9.00777e-05
0.00186352 0.000398412 5.83336e-06
0.000398412 -0.000940949 -1.61905e-05
5.83336e-06 -1.61905e-05 -0.000153561
0.000300064 9.72791e-05 1.16751e-05
9.72791e-05 -0.000897232 -1.62449e-07
1.16751e-05 -1.62449e-07 -0.000844842
0.00702791 0.000171571 3.55038e-05
0.000171571 0.00311176 -1.64457e-05
3.55038e-05 -1.64457e-05 0.00087995
-0.000111255 3.95719e-06 -2.12921e-05
3.95719e-06 0.000101686 -1.19492e-05
-2.12921e-05 -1.19492e-05 -7.79186e-05
0.00107155 1.33851e-05 1.08586e-05
1.33851e-05 -2.5761e-05 -1.0493e-05
1.08586e-05 -1.0493e-05 -0.000108277
0.00202494 5.79335e-05 6.50077e-05
5.79335e-05 9.14187e-05 -4.37614e-05
6.50077e-05 -4.37614e-05 -0.000200389
0.00222799 0.000599643 1.47634e-05
0.000599643 0.0005851 -6.89296e-06
1.47634e-05 -6.89296e-06 0.00153347
-0.00559361 0.000200171 6.71595e-05
0.000200171 -0.00399305 1.3113e-05
6.71595e-05 1.3113e-05 -0.00375383
0.00801235 3.88767e-05 3.13745e-05
3.88767e-05 0.00314066 -4.96938e-05
3.13745e-05 -4.96938e-05 0.00107372
0.00411079 -0.000178893 -3.75611e-05
-0.000178893 0.000822686 0.00011234
-3.75611e-05 0.00011234 0.000915921
0.00104118 -8.84131e-06 -3.88768e-06
-8.84131e-06 0.000244978 8.27951e-06
-3.88768e-06 8.27951e-06 0.000200928
0.000109189 -1.87673e-05 2.23616e-06
-1.87673e-05 -7.28653e-05 -5.21469e-07
2.23616e-06 -5.21469e-07 -0.000159874
0.000282435 -8.74381e-05 7.19176e-06
-8.74381e-05 6.2122e-05 -7.86553e-06
7.19176e-06 -7.86553e-06 -9.59706e-05
0.000882118 -1.71122e-05 -6.24035e-08
-1.71122e-05 6.15485e-05 9.02888e-07
-6.24035e-08 9.02888e-07 3.9234e-06
0.000312799 -1.55986e-05 -7.53694e-07
-1.55986e-05 -0.000239479 7.90646e-06
-7.53694e-07 7.90646e-06 -0.00025672
0.00064423 -1.58732e-05 1.82925e-07
-1.58732e-05 5.59976e-05 9.52099e-08
1.82925e-07 9.52099e-08 -3.35759e-05
0.000788933 -0.000104202 9.37006e-06
-0.000104202 0.000229219 -3.87988e-06
9.37006e-06 -3.87988e-06 2.39683e-05
0.0014708 -4.35496e-05 -1.39291e-06
-4.35496e-05 0.000409099 9.74677e-07
-1.39291e-06 9.74677e-07 0.000330844
0.00117808 -0.000101859 9.49362e-07
-0.000101859 0.000309962 5.06722e-07
9.49362e-07 5.06722e-07 0.000159422
0.00109459 -0.000143045 3.30528e-06
-0.000143045 0.000261996 2.98135e-06
3.30528e-06 2.98135e-06 2.76444e-05
0.000201427 -4.43939e-05 -1.57837e-06
-4.43939e-05 -0.000243201 -1.68096e-06
-1.57837e-06 -1.68096e-06 -0.000352264
0.00102382 -0.000130425 -1.91063e-07
-0.000130425 0.000182635 4.38659e-07
-1.91063e-07 4.38659e-07 6.4427e-06
0.00179143 -0.000194345 6.60479e-08
-0.000194345 0.000512966 2.57139e-06
6.60479e-08 2.57139e-06 0.000307385
0.00169457 -0.000188516 -3.54773e-06
-0.000188516 0.000391003 2.75215e-06
-3.54773e-06 2.75215e-06 0.000209828
0.000689914 -0.000110373 -9.60093e-07
-0.000110373 -4.67809e-05 3.64992e-06
-9.60093e-07 3.64992e-06 -0.000190123
0.00108588 -0.000136604 -1.50474e-06
-0.000136604 0.000147525 1.11603e-06
-1.50474e-06 1.11603e-06 -1.49105e-05
0.000889007 -0.000116338 -1.78187e-06
-0.000116338 8.98124e-05 -6.16243e-07
-1.78187e-06 -6.16243e-07 -5.3724e-05
0.00122341 -0.000131865 1.39927e-06
-0.000131865 0.000272549 -1.09761e-06
1.39927e-06 -1.09761e-06 0.000148998
0.00108337 -0.000124913 1.92646e-06
-0.000124913 0.000201237 -1.45825e-06
1.92646e-06 -1.45825e-06 7.20409e-05
0.000663538 -3.19956e-05 5.28205e-07
-3.19956e-05 -1.47464e-05 1.34089e-06
5.28205e-07 1.34089e-06 -0.000114872
0.000831571 -8.90012e-05 6.91247e-07
-8.90012e-05 8.76839e-05 -2.57577e-07
6.91247e-07 -2.57577e-07 -2.8445e-05
0.000986447 -0.00011743 3.78945e-06
-0.00011743 0.000150602 -2.76481e-06
3.78945e-06 -2.76481e-06 2.04907e-05
0.00081905 4.54945e-05 3.01028e-07
4.54945e-05 4.9369e-05 1.32316e-06
3.01028e-07 1.32316e-06 -2.03745e-05
0.000910404 -2.21338e-05 -2.54025e-07
-2.21338e-05 0.000107616 1.73303e-08
-2.54025e-07 1.73303e-08 2.11959e-05
0.00106413 -7.80984e-05 -1.18456e-07
-7.80984e-05 0.000198849 -3.17224e-07
-1.18456e-07 -3.17224e-07 9.17417e-05
0.000748522 4.51932e-05 -9.48313e-07
4.51932e-05 4.22243e-06 1.58596e-06
-9.48313e-07 1.58596e-06 -3.5037e-05
0.000814716 2.77355e-05 -3.36264e-07
2.77355e-05 4.0316e-05 -2.04895e-07
-3.36264e-07 -2.04895e-07 -1.86098e-05
0.000666941 7.71162e-07 1.93837e-07
7.71162e-07 -2.73367e-05 -1.00447e-06
1.93837e-07 -1.00447e-06 -0.000105204
0.000829062 7.04067e-06 6.00017e-07
7.04067e-06 4.26734e-05 -1.08409e-06
6.00017e-07 -1.08409e-06 -9.24236e-06
0.000770764 3.99182e-05 -6.6726e-08
3.99182e-05 9.04686e-06 -3.43312e-08
-6.6726e-08 -3.43312e-08 -2.60402e-05
0.000685136 3.79007e-05 -1.55469e-06
3.79007e-05 -3.61763e-05 3.25548e-06
-1.55469e-06 3.25548e-06 -4.49979e-05
0.000783715 3.21845e-05 1.0382e-06
3.21845e-05 8.73805e-06 -1.56436e-06
1.0382e-06 -1.56436e-06 -2.36197e-05
0.000715853 3.36777e-05 8.39631e-08
3.36777e-05 -2.82085e-05 -1.00615e-09
8.39631e-08 -1.00615e-09 -3.46965e-05
0.00205097 4.65125e-05 -2.02781e-05
4.65125e-05 0.000707636 3.45553e-06
-2.02781e-05 3.45553e-06 0.000724983
0.000730254 2.88068e-05 1.11661e-06
2.88068e-05 -2.78285e-05 -3.17123e-06
1.11661e-06 -3.17123e-06 -3.25897e-05
0.00146933 3.48524e-05 8.36289e-06
3.48524e-05 0.000381894 -9.8733e-07
8.36289e-06 -9.8733e-07 0.000397683
0.00207571 3.26217e-05 1.52892e-05
3.26217e-05 0.000709556 -3.72096e-06
1.52892e-05 -3.72096e-06 0.000729371
0.000834885 1.87879e-05 -6.29136e-07
1.87879e-05 3.87886e-05 -3.99565e-07
-6.29136e-07 -3.99565e-07 -1.75158e-05
0.000763813 -2.07757e-05 -7.23808e-07
-2.07757e-05 -7.04824e-06 -1.4307e-06
-7.23808e-07 -1.4307e-06 -4.17492e-05
0.000755344 1.43748e-05 -7.35052e-07
1.43748e-05 -9.09382e-08 -4.24425e-07
-7.35052e-07 -4.24425e-07 -5.81021e-05
0.000734097 -2.37969e-05 -3.95474e-07
-2.37969e-05 -2.94907e-05 -3.30228e-06
-3.95474e-07 -3.30228e-06 -3.48408e-05
0.000659466 -1.81856e-05 -1.17876e-07
-1.81856e-05 -6.465e-05 -6.3362e-07
-1.17876e-07 -6.3362e-07 -9.85244e-05
0.000918315 -3.90493e-06 5.11119e-08
-3.90493e-06 9.05529e-05 -8.7574e-08
5.11119e-08 -8.7574e-08 3.42828e-05
0.00211425 -2.52971e-05 -1.21328e-05
-2.52971e-05 0.000726285 -4.0898e-06
-1.21328e-05 -4.0898e-06 0.000746711
0.000734046 -1.77489e-05 -1.64319e-07
-1.77489e-05 -3.4352e-05 -8.93653e-09
-1.64319e-07 -8.93653e-09 -3.75945e-05
0.00054597 -1.41511e-05 9.75518e-08
-1.41511e-05 -0.00012793 8.62937e-07
9.75518e-08 8.62937e-07 -0.000160436
0.00206706 -1.65466e-05 -2.2291e-06
-1.65466e-05 0.000696485 3.97029e-08
-2.2291e-06 3.97029e-08 0.000718242
0.000735233 -1.17553e-05 3.80059e-07
-1.17553e-05 -3.73833e-05 3.24786e-06
3.80059e-07 3.24786e-06 -3.89152e-05
0.0020425 -7.8709e-06 3.39326e-06
-7.8709e-06 0.000680624 4.22929e-06
3.39326e-06 4.22929e-06 0.000703138
0.00109671 2.51662e-06 1.89411e-06
2.51662e-06 0.000144225 8.63519e-06
1.89411e-06 8.63519e-06 4.76879e-05
0.00116123 1.2049e-05 -4.66093e-06
1.2049e-05 4.37718e-05 1.31213e-06
-4.66093e-06 1.31213e-06 -4.75876e-05
0.00138287 2.45415e-05 5.44661e-05
2.45415e-05 1.8783e-05 -1.3243e-05
5.44661e-05 -1.3243e-05 -0.00021808
0.000773735 -4.69873e-05 2.68391e-08
-4.69873e-05 1.09268e-05 -3.43276e-07
2.68391e-08 -3.43276e-07 -5.54889e-05
0.000945759 -1.83651e-05 -3.14425e-07
-1.83651e-05 0.000110968 -5.46939e-07
-3.14425e-07 -5.46939e-07 3.90047e-05
0.000887831 1.98701e-05 1.35373e-06
1.98701e-05 7.90769e-05 -3.72029e-07
1.35373e-06 -3.72029e-07 1.04993e-05
0.000801236 -2.73335e-05 3.74962e-08
-2.73335e-05 2.6863e-05 1.30282e-08
3.74962e-08 1.30282e-08 -4.01399e-05
0.000867982 5.73814e-06 -9.42177e-09
5.73814e-06 7.18145e-05 2.52999e-07
-9.42177e-09 2.52999e-07 -3.02542e-06
0.000916556 -5.22318e-06 -9.55987e-07
-5.22318e-06 9.7034e-05 3.13159e-07
-9.55987e-07 3.13159e-07 2.39253e-05
0.000885361 0.000102324 4.35704e-07
0.000102324 9.11106e-05 1.0423e-06
4.35704e-07 1.0423e-06 8.01218e-06
0.00157519 -5.16671e-06 1.86738e-05
-5.16671e-06 0.000139763 4.27501e-05
1.86738e-05 4.27501e-05 -0.000169706
0.00171404 1.9406e-05 -9.55561e-07
1.9406e-05 0.000161349 1.3267e-05
-9.55561e-07 1.3267e-05 -8.02321e-05
0.00187298 3.87193e-05 7.8004e-06
3.87193e-05 0.000227315 -2.60583e-05
7.8004e-06 -2.60583e-05 -1.50096e-05
0.00179034 1.33212e-05 -3.09423e-06
1.33212e-05 -0.0020583 -1.25204e-05
-3.09423e-06 -1.25204e-05 -0.000827657
0.00235613 -0.000393801 -2.36638e-05
-0.000393801 -1.70724e-05 5.18767e-05
-2.36638e-05 5.18767e-05 -0.000692184
0.000480268 -7.15358e-05 4.81265e-05
-7.15358e-05 -0.000597116 -1.20587e-05
4.81265e-05 -1.20587e-05 -0.00212112
0.00471278 0.000441938 3.86525e-05
0.000441938 0.00185161 -2.47609e-05
3.86525e-05 -2.47609e-05 0.00127124
0.00451457 -0.000557627 -2.30065e-05
-0.000557627 0.000826298 5.8497e-06
-2.30065e-05 5.8497e-06 0.000253345
0.00177068 -0.000153595 4.0134e-05
-0.000153595 0.000180014 -2.40194e-05
4.0134e-05 -2.40194e-05 -0.00160347
0.00340715 7.29706e-06 -2.00323e-05
7.29706e-06 0.0010249 2.03326e-06
-2.00323e-05 2.03326e-06 0.000714623
0.0045997 -0.000259744 -9.01859e-06
-0.000259744 0.000296401 -1.44031e-05
-9.01859e-06 -1.44031e-05 0.00124162
0.00196479 -0.000171047 -9.38785e-06
-0.000171047 -0.000278896 2.82372e-06
-9.38785e-06 2.82372e-06 -0.000308491
0.00158261 -0.000248462 3.42102e-05
-0.000248462 -0.000445604 -6.13411e-05
3.42102e-05 -6.13411e-05 -0.00179015
-0.00296373 -0.000269241 4.16098e-05
-0.000269241 -0.00281347 1.44899e-05
4.16098e-05 1.44899e-05 -0.00325424
0.000814514 -0.000315246 2.8175e-05
-0.000315246 -0.00153482 -1.23206e-05
2.8175e-05 -1.23206e-05 -0.000574395
0.000956796 -5.59342e-05 -4.65037e-07
-5.59342e-05 0.000111466 1.82389e-06
-4.65037e-07 1.82389e-06 4.13919e-05
0.000821892 -1.17822e-06 1.52025e-07
-1.17822e-06 4.16051e-05 -2.6562e-08
1.52025e-07 -2.6562e-08 -3.76868e-05
0.000825315 -2.00744e-06 -3.98286e-07
-2.00744e-06 5.61114e-05 -1.17675e-06
-3.98286e-07 -1.17675e-06 -3.05539e-05
0.000876535 2.17776e-05 8.07555e-08
2.17776e-05 7.66776e-05 -1.35763e-06
8.07555e-08 -1.35763e-06 -6.46225e-07
0.00180326 -0.00026443 -2.42593e-06
-0.00026443 0.000448732 1.14215e-05
-2.42593e-06 1.14215e-05 0.000425558
0.000189788 -1.86482e-05 6.01831e-06
-1.86482e-05 -2.16241e-05 -8.75693e-06
6.01831e-06 -8.75693e-06 -0.000130398
0.000797648 -3.09153e-05 -3.17465e-08
-3.09153e-05 9.96678e-06 -1.76552e-06
-3.17465e-08 -1.76552e-06 -6.28883e-05
0.000932203 5.16573e-05 -1.51842e-07
5.16573e-05 0.000104691 -1.58419e-06
-1.51842e-07 -1.58419e-06 2.77056e-05
0.00109039 9.80398e-06 3.44743e-06
9.80398e-06 0.000180854 -7.64423e-06
3.44743e-06 -7.64423e-06 0.000110936
0.000882547 -8.75405e-06 -1.40309e-07
-8.75405e-06 6.74852e-05 3.38396e-08
-1.40309e-07 3.38396e-08 -2.80754e-07
0.000798397 -1.26429e-05 -5.2778e-07
-1.26429e-05 3.1633e-05 -5.24707e-07
-5.2778e-07 -5.24707e-07 -3.01244e-05
-0.000721756 -5.59857e-05 -1.06968e-05
-5.59857e-05 -0.000360863 -9.69377e-06
-1.06968e-05 -9.69377e-06 -0.000637778
0.000885412 -1.80855e-05 -6.14489e-06
-1.80855e-05 0.000307076 3.02262e-06
-6.14489e-06 3.02262e-06 0.000282945
0.000818116 -2.0668e-05 2.27527e-06
-2.0668e-05 5.15209e-05 2.547e-07
2.27527e-06 2.547e-07 -1.11281e-05
0.00117271 2.64383e-05 -8.04926e-06
2.64383e-05 0.00103024 -4.43514e-05
-8.04926e-06 -4.43514e-05 0.000287289
0.00140947 -3.1218e-05 -3.10443e-06
-3.1218e-05 0.000564926 1.52644e-05
-3.10443e-06 1.52644e-05 0.000505108
0.00140612 -2.46297e-06 8.63472e-06
-2.46297e-06 0.000267364 3.00055e-07
8.63472e-06 3.00055e-07 0.000207381
0.000808069 -1.59983e-06 2.04309e-08
-1.59983e-06 9.20747e-05 -7.84108e-08
2.04309e-08 -7.84108e-08 5.54034e-05
0.000552581 1.29977e-06 5.27196e-07
1.29977e-06 -0.000181241 -3.00883e-07
5.27196e-07 -3.00883e-07 -0.000223463
0.000403535 3.7044e-05 3.27653e-06
3.7044e-05 0.000130949 7.83294e-06
3.27653e-06 7.83294e-06 7.35909e-05
0.00211974 0.000213133 -6.63605e-05
0.000213133 0.000408127 1.55035e-05
-6.63605e-05 1.55035e-05 0.000460513
0.000847462 -1.31625e-06 -1.16522e-07
-1.31625e-06 4.30942e-05 1.28386e-06
-1.16522e-07 1.28386e-06 -2.32019e-05
0.00316924 2.27724e-05 8.36612e-05
2.27724e-05 0.00111283 -0.00010557
8.36612e-05 -0.00010557 -0.000837229
0.00457429 0.000470757 -3.49334e-05
0.000470757 0.00168865 2.69665e-05
-3.49334e-05 2.69665e-05 0.0011397
0.0018881 2.71074e-05 -8.3802e-06
2.71074e-05 0.000219325 2.57822e-05
-8.3802e-06 2.57822e-05 -1.28369e-05
0.0029679 0.000420671 -3.59606e-05
0.000420671 -0.000288755 2.18211e-05
-3.59606e-05 2.18211e-05 0.000503875
-0.000545906 -1.59234e-05 2.2409e-05
-1.59234e-05 -8.49205e-05 -1.57501e-06
2.2409e-05 -1.57501e-06 -0.000299034
0.00115247 9.32181e-06 4.79206e-06
9.32181e-06 3.37097e-05 -1.10528e-06
4.79206e-06 -1.10528e-06 -5.39504e-05
0.00200327 4.80529e-05 1.5874e-05
4.80529e-05 0.000111805 -2.5505e-06
1.5874e-05 -2.5505e-06 -0.000231167
0.00190547 -5.24118e-05 -2.18766e-05
-5.24118e-05 -0.000201084 2.54709e-05
-2.18766e-05 2.54709e-05 5.69699e-05
-0.000303355 0.000624951 5.65471e-06
0.000624951 -0.0010022 8.90309e-07
5.65471e-06 8.90309e-07 0.000201425
0.00445955 0.000553534 5.16069e-07
0.000553534 0.000464438 1.02553e-05
5.16069e-07 1.02553e-05 0.000662554
0.00148541 -0.000208528 4.37525e-05
-0.000208528 0.000189586 -2.22726e-05
4.37525e-05 -2.22726e-05 -0.00210522
0.00147501 -8.85558e-05 5.13213e-05
-8.85558e-05 0.000630784 -9.9987e-06
5.13213e-05 -9.9987e-06 0.000598721
0.0010079 1.70029e-05 4.10959e-05
1.70029e-05 -0.000219985 -1.49249e-05
4.10959e-05 -1.49249e-05 -0.000464448
-0.00116671 0.000261769 -7.24627e-06
0.000261769 -0.000471921 -1.53126e-05
-7.24627e-06 -1.53126e-05 -0.000476295
0.000370817 0.000523093 2.00244e-05
0.000523093 -5.58296e-05 1.72545e-05
2.00244e-05 1.72545e-05 0.000216166
0.00794072 0.000408102 2.60733e-05
0.000408102 0.00298442 -4.07721e-05
2.60733e-05 -4.07721e-05 0.00113343
0.00284086 -0.000323414 -5.7425e-05
-0.000323414 0.000207231 8.09312e-05
-5.7425e-05 8.09312e-05 -0.000135653
-0.000501539 -1.37408e-05 9.82488e-07
-1.37408e-05 -0.000382878 7.31003e-06
9.82488e-07 7.31003e-06 -0.00049402
0.00029788 -4.25596e-05 -4.17677e-06
-4.25596e-05 8.89327e-05 -3.99121e-07
-4.17677e-06 -3.99121e-07 -7.24873e-05
0.0011799 -0.000151573 1.55311e-05
-0.000151573 0.000370187 -5.35253e-06
1.55311e-05 -5.35253e-06 0.000234736
0.000659859 2.55204e-05 -4.45963e-06
2.55204e-05 6.53853e-05 2.53656e-09
-4.45963e-06 2.53656e-09 -1.20281e-05
0.000165903 -5.16577e-05 9.82413e-07
-5.16577e-05 -7.01801e-05 -1.71278e-06
9.82413e-07 -1.71278e-06 -0.000279415
0.00109574 -0.000157341 9.12717e-06
-0.000157341 0.000195087 3.87033e-06
9.12717e-06 3.87033e-06 -1.72148e-05
0.00189218 -0.000174165 -3.05387e-06
-0.000174165 0.000661154 -2.29791e-07
-3.05387e-06 -2.29791e-07 0.000506379
0.00130144 -0.000152964 3.05143e-07
-0.000152964 0.000351478 1.327e-06
3.05143e-07 1.327e-06 0.000117641
0.00120219 -0.000182754 -7.66582e-08
-0.000182754 0.000142017 -8.1986e-07
-7.66582e-08 -8.1986e-07 -6.75383e-05
0.00100483 -0.000126723 -2.10141e-06
-0.000126723 0.000170367 -1.57089e-06
-2.10141e-06 -1.57089e-06 -1.16704e-05
0.00166945 -0.000186551 9.47181e-07
-0.000186551 0.000440655 2.56561e-07
9.47181e-07 2.56561e-07 0.000237048
0.00124233 -0.000178249 8.49606e-07
-0.000178249 0.000100391 -1.03967e-06
8.49606e-07 -1.03967e-06 -9.37356e-05
0.0016902 -0.000190625 -2.32468e-06
-0.000190625 0.000280267 -2.31991e-06
-2.32468e-06 -2.31991e-06 0.000114944
0.00187181 -0.000190067 -5.20662e-06
-0.000190067 0.000506017 4.58824e-06
-5.20662e-06 4.58824e-06 0.00033924
0.00149259 -0.000179081 -7.55933e-07
-0.000179081 0.000277293 5.36856e-07
-7.55933e-07 5.36856e-07 9.28678e-05
0.000560347 -0.000100776 7.96644e-07
-0.000100776 -0.000116886 6.67285e-08
7.96644e-07 6.67285e-08 -0.000243241
0.000880935 -0.000120447 1.4121e-06
-0.000120447 5.53479e-05 -4.60723e-07
1.4121e-06 -4.60723e-07 -8.50339e-05
0.00109181 -0.000137673 1.32472e-07
-0.000137673 0.000149426 -1.98368e-06
1.32472e-07 -1.98368e-06 -1.38074e-05
0.00103666 -0.000115556 2.9718e-07
-0.000115556 0.000169369 6.30566e-07
2.9718e-07 6.30566e-07 5.26311e-05
0.00114933 -0.000126697 -2.59193e-07
-0.000126697 0.000234681 -7.00287e-07
-2.59193e-07 -7.00287e-07 0.000110827
0.000774754 -0.00010566 2.36263e-06
-0.00010566 4.0819e-05 -1.67266e-06
2.36263e-06 -1.67266e-06 -8.36187e-05
0.000791086 1.54735e-05 8.04166e-07
1.54735e-05 4.17957e-05 1.306e-06
8.04166e-07 1.306e-06 -4.32359e-05
0.000782497 -4.06999e-05 4.97463e-08
-4.06999e-05 4.96608e-05 6.12432e-07
4.97463e-08 6.12432e-07 -5.02294e-05
0.00110919 -9.94524e-05 1.23907e-06
-9.94524e-05 0.000234436 -1.36524e-06
1.23907e-06 -1.36524e-06 0.000118625
0.000738498 5.79558e-05 -3.4445e-07
5.79558e-05 7.62078e-06 2.02369e-06
-3.4445e-07 2.02369e-06 -4.03864e-05
0.000811656 2.22219e-05 -2.37731e-07
2.22219e-05 4.6661e-05 -1.26823e-07
-2.37731e-07 -1.26823e-07 -2.42641e-05
0.000919558 -3.5819e-05 2.37933e-07
-3.5819e-05 0.000114002 -7.89549e-07
2.37933e-07 -7.89549e-07 2.59009e-05
0.00068744 4.25567e-05 -2.71661e-06
4.25567e-05 -2.66299e-05 4.53262e-06
-2.71661e-06 4.53262e-06 -3.8194e-05
0.000752665 5.08305e-05 4.68257e-09
5.08305e-05 7.91983e-06 -1.22889e-07
4.68257e-09 -1.22889e-07 -3.23548e-05
0.000816524 1.29836e-05 2.46731e-07
1.29836e-05 4.05439e-05 -1.24416e-06
2.46731e-07 -1.24416e-06 -1.79648e-05
0.000771418 4.26462e-05 6.69782e-07
4.26462e-05 9.66752e-06 -1.68657e-06
6.69782e-07 -1.68657e-06 -2.57342e-05
0.000708092 3.8854e-05 3.19584e-08
3.8854e-05 -2.39655e-05 -2.48439e-08
3.19584e-08 -2.48439e-08 -3.28933e-05
0.00206309 5.37584e-05 -2.305e-05
5.37584e-05 0.000722557 3.27264e-06
-2.305e-05 3.27264e-06 0.000737945
0.000732324 3.44011e-05 1.35149e-06
3.44011e-05 -1.94242e-05 -3.19637e-06
1.35149e-06 -3.19637e-06 -2.59749e-05
0.00205842 4.70258e-05 1.29075e-06
4.70258e-05 0.000712785 8.23667e-08
1.29075e-06 8.23667e-08 0.000729908
0.00205969 4.01028e-05 1.83475e-05
4.01028e-05 0.000707047 -3.55365e-06
1.83475e-05 -3.55365e-06 0.000725646
0.000871974 5.00649e-06 -1.605e-07
5.00649e-06 6.85863e-05 -7.01436e-07
-1.605e-07 -7.01436e-07 -1.16911e-06
0.000825947 3.24368e-05 -1.14397e-06
3.24368e-05 3.93527e-05 -1.01039e-06
-1.14397e-06 -1.01039e-06 -2.13053e-05
0.000762234 -2.8475e-05 -7.4193e-07
-2.8475e-05 -5.34816e-06 -1.61726e-06
-7.4193e-07 -1.61726e-06 -4.18659e-05
0.000829742 2.09031e-05 -8.73784e-08
2.09031e-05 3.59968e-05 -2.71156e-08
-8.73784e-08 -2.71156e-08 -2.02238e-05
0.00072024 -2.88149e-05 -6.75159e-07
-2.88149e-05 -3.1483e-05 -3.3738e-06
-6.75159e-07 -3.3738e-06 -3.88601e-05
0.000774552 -2.23471e-05 -1.38841e-07
-2.23471e-05 -6.99304e-07 8.14597e-09
-1.38841e-07 8.14597e-09 -3.5583e-05
0.000795522 1.09781e-05 9.15326e-08
1.09781e-05 1.52496e-05 -7.64262e-08
9.15326e-08 -7.64262e-08 -3.76933e-05
0.00215465 -3.33556e-05 -1.56057e-05
-3.33556e-05 0.000753043 -3.97834e-06
-1.56057e-05 -3.97834e-06 0.000772053
0.000724783 -2.33262e-05 -1.4211e-07
-2.33262e-05 -3.46073e-05 -4.00477e-09
-1.4211e-07 -4.00477e-09 -3.98608e-05
0.000777012 -1.88593e-05 1.04039e-07
-1.88593e-05 -1.09998e-06 8.57508e-07
1.04039e-07 8.57508e-07 -3.42761e-05
0.00210291 -2.47768e-05 -2.1994e-06
-2.47768e-05 0.000719579 6.03916e-08
-2.1994e-06 6.03916e-08 0.000740202
0.000725032 -1.74363e-05 3.39241e-07
-1.74363e-05 -3.92756e-05 3.25763e-06
3.39241e-07 3.25763e-06 -4.24358e-05
0.00205851 -1.59418e-05 7.55031e-06
-1.59418e-05 0.000691418 4.17496e-06
7.55031e-06 4.17496e-06 0.000713323
0.00115868 -1.35567e-05 9.16077e-06
-1.35567e-05 0.000118171 1.24856e-05
9.16077e-06 1.24856e-05 1.31812e-05
0.000969237 1.26909e-06 -2.09856e-07
1.26909e-06 9.62968e-05 3.25863e-06
-2.09856e-07 3.25863e-06 1.17219e-05
0.00122785 9.12787e-06 2.31825e-06
9.12787e-06 8.86876e-05 -6.29406e-06
2.31825e-06 -6.29406e-06 -3.91517e-06
0.000817476 -6.79572e-06 -2.87511e-07
-6.79572e-06 3.92501e-05 -5.36746e-08
-2.87511e-07 -5.36746e-08 -3.01706e-05
0.000876007 -2.73321e-05 -1.19456e-07
-2.73321e-05 7.32314e-05 2.38754e-07
-1.19456e-07 2.38754e-07 8.58982e-07
0.000784208 -2.92448e-05 3.84291e-07
-2.92448e-05 2.55758e-05 -1.9149e-06
3.84291e-07 -1.9149e-06 -5.1468e-05
0.00075425 -3.79187e-05 -1.16127e-07
-3.79187e-05 8.87045e-06 -7.45474e-07
-1.16127e-07 -7.45474e-07 -6.33302e-05
0.000980543 3.13645e-05 -7.32e-07
3.13645e-05 0.000141491 -3.48329e-07
-7.32e-07 -3.48329e-07 5.965e-05
0.000782805 -3.96642e-05 8.53799e-08
-3.96642e-05 1.4092e-05 1.31501e-08
8.53799e-08 1.31501e-08 -5.11942e-05
0.000784597 -1.74657e-05 4.68846e-07
-1.74657e-05 2.37758e-05 -7.60772e-07
4.68846e-07 -7.60772e-07 -4.95287e-05
0.000871951 6.72439e-06 -1.78566e-07
6.72439e-06 7.39321e-05 -5.71838e-08
-1.78566e-07 -5.71838e-08 9.56805e-07
0.000895198 2.5233e-05 -1.05956e-07
2.5233e-05 8.6816e-05 3.06894e-07
-1.05956e-07 3.06894e-07 8.25297e-06
0.00096786 1.25713e-05 -9.8344e-08
1.25713e-05 0.000133094 7.6941e-07
-9.8344e-08 7.6941e-07 5.56237e-05
0.00179609 -4.60134e-05 4.71969e-05
-4.60134e-05 0.000184227 5.14265e-05
4.71969e-05 5.14265e-05 -0.000189276
0.00165989 -5.40355e-07 2.82845e-06
-5.40355e-07 0.000126727 1.14811e-05
2.82845e-06 1.14811e-05 -0.000187296
0.00172676 1.95581e-05 -9.66634e-07
1.95581e-05 0.000269493 -1.02025e-05
-9.66634e-07 -1.02025e-05 8.56782e-05
0.00447828 -0.000239259 -2.45804e-05
-0.000239259 0.000380936 -3.56755e-05
-2.45804e-05 -3.56755e-05 0.0013544
-0.0053242 0.00016914 -1.61043e-05
0.00016914 -0.00300987 -8.56506e-06
-1.61043e-05 -8.56506e-06 -0.00343579
0.00389306 -0.000532832 -6.09259e-05
-0.000532832 0.000631175 6.29813e-05
-6.09259e-05 6.29813e-05 1.51759e-05
0.00624274 2.66436e-05 -7.12848e-06
2.66436e-05 0.00180993 -4.56871e-05
-7.12848e-06 -4.56871e-05 0.000351951
0.00346509 -0.000300552 -4.28906e-05
-0.000300552 0.000396702 4.03264e-05
-4.28906e-05 4.03264e-05 6.72761e-05
0.0088749 -0.000207549 5.30559e-05
-0.000207549 0.00338899 -8.29322e-06
5.30559e-05 -8.29322e-06 0.00161019
0.00027076 -0.000218331 2.02737e-05
-0.000218331 -0.000943413 -6.77739e-06
2.02737e-05 -6.77739e-06 -0.00113112
0.000815884 -0.000358118 -1.75418e-05
-0.000358118 -0.00162182 -4.46807e-05
-1.75418e-05 -4.46807e-05 -0.000615341
0.00386892 -7.27376e-05 -0.00010215
-7.27376e-05 0.000695389 -2.71937e-05
-0.00010215 -2.71937e-05 0.000410806
0.00815449 -0.000370824 -2.22919e-05
-0.000370824 0.00248681 5.08237e-05
-2.22919e-05 5.08237e-05 0.00122867
0.00782041 -0.000786025 2.12495e-05
-0.000786025 0.00224137 -2.86375e-06
2.12495e-05 -2.86375e-06 0.00239922
0.0027576 -0.00056472 1.40482e-05
-0.00056472 0.000284067 5.61926e-07
1.40482e-05 5.61926e-07 0.00142057
0.000733271 1.08604e-05 1.60367e-06
1.08604e-05 2.55296e-05 1.34762e-06
1.60367e-06 1.34762e-06 -3.5617e-05
0.000941299 -4.44035e-05 -1.05174e-07
-4.44035e-05 0.000105978 4.78237e-07
-1.05174e-07 4.78237e-07 3.50562e-05
0.000786646 -2.36433e-06 1.96793e-07
-2.36433e-06 2.04405e-05 -1.13069e-06
1.96793e-07 -1.13069e-06 -5.75791e-05
0.000397343 -2.07842e-05 -5.35957e-06
-2.07842e-05 0.000157304 1.09147e-05
-5.35957e-06 1.09147e-05 -0.000110372
0.000627582 -5.56339e-05 -2.34458e-06
-5.56339e-05 0.000187151 -6.2785e-06
-2.34458e-06 -6.2785e-06 0.000169611
0.000814774 -2.0564e-05 -9.34906e-07
-2.0564e-05 3.12729e-05 -6.64912e-07
-9.34906e-07 -6.64912e-07 -3.81308e-05
0.000840289 -5.65879e-05 -7.58852e-07
-5.65879e-05 5.20632e-05 -4.45024e-06
-7.58852e-07 -4.45024e-06 -8.26725e-06
0.000821452 -1.15862e-05 -5.2451e-07
-1.15862e-05 5.47889e-05 -8.8447e-07
-5.2451e-07 -8.8447e-07 -7.85536e-06
0.000580324 -3.43565e-05 1.44948e-06
-3.43565e-05 0.000124311 4.68656e-06
1.44948e-06 4.68656e-06 6.48005e-05
0.000135826 -1.04823e-05 2.31607e-05
-1.04823e-05 0.000450887 -3.14937e-05
2.31607e-05 -3.14937e-05 -0.000263034
-0.00037217 -2.36022e-05 -4.15675e-06
-2.36022e-05 -0.000398664 7.21849e-06
-4.15675e-06 7.21849e-06 -0.000477728
0.000729698 0.000102198 3.64485e-06
0.000102198 0.00032889 -2.65108e-05
3.64485e-06 -2.65108e-05 -7.6633e-05
0.0012936 3.16411e-07 3.90422e-05
3.16411e-07 -6.93617e-05 5.48253e-06
3.90422e-05 5.48253e-06 -0.000297707
0.000970832 -1.51922e-06 4.21447e-06
-1.51922e-06 3.92754e-05 8.91733e-07
4.21447e-06 8.91733e-07 -1.43432e-05
0.00021515 -1.37454e-06 1.11744e-07
-1.37454e-06 -0.000247146 -5.87107e-07
1.11744e-07 -5.87107e-07 -0.000283092
-0.00127312 -2.83479e-05 -3.56257e-05
-2.83479e-05 -0.000379061 1.11586e-05
-3.56257e-05 1.11586e-05 -0.00064089
0.0015219 7.52544e-05 2.05823e-05
7.52544e-05 -0.000548373 -4.36953e-05
2.05823e-05 -4.36953e-05 -0.000602668
0.00127313 5.88383e-06 -1.26012e-06
5.88383e-06 0.000114497 5.40854e-06
-1.26012e-06 5.40854e-06 2.7286e-05
0.0107302 -4.56588e-05 7.65585e-05
-4.56588e-05 0.00423735 -4.82526e-07
7.65585e-05 -4.82526e-07 0.00224599
0.00502118 0.000655032 -5.28549e-05
0.000655032 0.00113349 2.18575e-05
-5.28549e-05 2.18575e-05 0.00120786
0.00208611 4.51965e-05 -3.35366e-05
4.51965e-05 0.000181682 3.39846e-05
-3.35366e-05 3.39846e-05 -0.000196468
-0.00284878 0.000661787 1.44249e-05
0.000661787 -0.00262424 -3.8706e-05
1.44249e-05 -3.8706e-05 -0.00114202
0.000345948 -3.42195e-05 -1.55715e-05
-3.42195e-05 0.000104217 -1.24317e-06
-1.55715e-05 -1.24317e-06 2.83265e-05
0.00125426 1.58659e-05 -4.77992e-06
1.58659e-05 -7.39557e-05 1.48538e-06
-4.77992e-06 1.48538e-06 -0.000316692
-0.00136653 0.000305463 -5.08521e-05
0.000305463 -0.000528106 2.06493e-05
-5.08521e-05 2.06493e-05 -0.000458858
0.00206585 -0.000292781 -1.79639e-05
-0.000292781 -0.00016877 2.83536e-05
-1.79639e-05 2.83536e-05 -0.00036408
0.00458615 0.000769332 1.1004e-05
0.000769332 0.00142242 1.43235e-05
1.1004e-05 1.43235e-05 0.00171089
0.00637013 7.78291e-06 4.59201e-05
7.78291e-06 0.00192309 -2.49805e-05
4.59201e-05 -2.49805e-05 0.000132912
0.00211886 -0.000204789 2.44677e-05
-0.000204789 0.00045979 1.49914e-05
2.44677e-05 1.49914e-05 0.000592101
-0.00124567 8.82961e-05 3.77909e-05
8.82961e-05 -8.37187e-05 -5.62002e-06
3.77909e-05 -5.62002e-06 -0.00044734
0.00154103 0.000502863 -1.24999e-05
0.000502863 0.000819668 5.31077e-06
-1.24999e-05 5.31077e-06 0.000896503
0.00605347 0.000433135 -5.26842e-05
0.000433135 0.00194238 4.69649e-05
-5.26842e-05 4.69649e-05 0.000278807
0.00247037 -0.00049505 2.10115e-06
-0.00049505 0.000132798 1.81406e-05
2.10115e-06 1.81406e-05 -0.000507124
0.000191424 9.86939e-06 9.9497e-06
9.86939e-06 5.8136e-05 7.82269e-06
9.9497e-06 7.82269e-06 -0.000108308
0.00078096 -0.000133953 8.01547e-07
-0.000133953 0.000183981 -1.12912e-06
8.01547e-07 -1.12912e-06 3.20919e-05
0.00238459 -0.000213205 1.27552e-05
-0.000213205 0.000635064 3.67789e-06
1.27552e-05 3.67789e-06 0.00060171
-0.000445427 2.50079e-07 -2.93535e-06
2.50079e-07 -0.000366512 1.95864e-06
-2.93535e-06 1.95864e-06 -0.00057846
0.000565631 -0.000122306 3.59314e-06
-0.000122306 -5.15755e-05 -2.93124e-07
3.59314e-06 -2.93124e-07 -0.000265382
0.000871922 -0.00019256 -8.86817e-07
-0.00019256 -0.000190543 -2.92036e-07
-8.86817e-07 -2.92036e-07 -0.000344907
0.0015381 -0.000163586 -3.05575e-06
-0.000163586 0.000457009 -9.25317e-07
-3.05575e-06 -9.25317e-07 0.000224641
0.00121474 -0.000181329 -1.59277e-06
-0.000181329 0.000144797 -1.72237e-06
-1.59277e-06 -1.72237e-06 -5.95646e-05
0.00163637 -0.000215775 1.86457e-06
-0.000215775 0.000179854 -1.75329e-06
1.86457e-06 -1.75329e-06 3.59575e-05
0.00149587 -0.000175615 -4.10142e-07
-0.000175615 0.000343153 -2.22351e-06
-4.10142e-07 -2.22351e-06 0.000140876
0.00139705 -0.000181956 6.87085e-07
-0.000181956 0.000175167 -1.45721e-06
6.87085e-07 -1.45721e-06 -1.30085e-05
0.00127365 -0.000173234 -1.5562e-06
-0.000173234 -4.22728e-05 -4.14036e-06
-1.5562e-06 -4.14036e-06 -0.000184605
0.00175627 -0.000175517 -1.80272e-06
-0.000175517 0.000223564 -2.48018e-06
-1.80272e-06 -2.48018e-06 8.94587e-05
0.00133259 -0.000164499 -2.3541e-06
-0.000164499 0.000151229 -3.97941e-07
-2.3541e-06 -3.97941e-07 -1.35603e-05
0.00140907 -0.000174817 3.66295e-07
-0.000174817 0.000134245 -1.04667e-06
3.66295e-07 -1.04667e-06 -2.89946e-05
0.00140814 -0.000156052 -2.4803e-06
-0.000156052 0.000282005 3.34659e-06
-2.4803e-06 3.34659e-06 0.000136419
0.0013674 -0.000163063 -2.83485e-07
-0.000163063 0.000240663 8.64145e-07
-2.83485e-07 8.64145e-07 7.17592e-05
0.00126585 -0.000168101 7.04763e-07
-0.000168101 0.000152029 -1.8171e-06
7.04763e-07 -1.8171e-06 -3.61193e-05
0.000955686 -0.000117955 -6.9411e-08
-0.000117955 9.71197e-05 -7.47991e-07
-6.9411e-08 -7.47991e-07 -1.98938e-05
0.000697031 -0.000107471 -2.19573e-07
-0.000107471 -4.16385e-05 -1.30021e-06
-2.19573e-07 -1.30021e-06 -0.000166347
0.00104516 -0.000128988 4.25723e-06
-0.000128988 0.000143288 -3.78018e-06
4.25723e-06 -3.78018e-06 5.59688e-06
0.000872033 -5.97778e-05 3.33133e-08
-5.97778e-05 7.62547e-05 1.34438e-06
3.33133e-08 1.34438e-06 -2.14444e-05
0.000988785 -0.000103025 4.69128e-07
-0.000103025 0.000144651 5.29969e-07
4.69128e-07 5.29969e-07 3.00295e-05
0.00106562 -0.000120959 1.53608e-07
-0.000120959 0.000191639 2.10332e-07
1.53608e-07 2.10332e-07 6.75e-05
0.000747029 7.54272e-05 5.06328e-07
7.54272e-05 2.07366e-05 2.72871e-06
5.06328e-07 2.72871e-06 -4.10622e-05
0.000840376 -2.0113e-06 9.60684e-09
-2.0113e-06 6.91809e-05 -8.20379e-08
9.60684e-09 -8.20379e-08 -1.77236e-05
0.000900604 -5.25272e-05 -6.82777e-07
-5.25272e-05 0.000113703 -1.74206e-07
-6.82777e-07 -1.74206e-07 1.40962e-05
0.00131149 5.67516e-05 -1.3366e-05
5.67516e-05 0.000325026 2.97778e-06
-1.3366e-05 2.97778e-06 0.000312476
0.000732325 5.11014e-05 -3.95698e-08
5.11014e-05 3.25586e-06 -2.37938e-07
-3.95698e-08 -2.37938e-07 -4.41372e-05
0.000806141 -5.63068e-07 3.6004e-07
-5.63068e-07 4.49633e-05 -1.36892e-06
3.6004e-07 -1.36892e-06 -2.71679e-05
0.000836426 3.53319e-05 -2.188e-05
3.53319e-05 6.03925e-05 3.30819e-06
-2.188e-05 3.30819e-06 6.78549e-05
0.00103294 4.88358e-05 -5.93562e-06
4.88358e-05 0.000162607 3.18344e-07
-5.93562e-06 3.18344e-07 0.000152169
0.000753359 5.54875e-05 -3.68327e-08
5.54875e-05 9.36601e-06 -1.99431e-06
-3.68327e-08 -1.99431e-06 -3.16684e-05
0.000732535 3.99425e-05 1.46085e-06
3.99425e-05 -1.09401e-05 -3.24488e-06
1.46085e-06 -3.24488e-06 -1.99916e-05
0.00208463 5.43585e-05 1.03989e-06
5.43585e-05 0.000735468 8.45351e-08
1.03989e-06 8.45351e-08 0.000750532
0.00207018 4.74811e-05 2.14852e-05
4.74811e-05 0.000720312 -3.3855e-06
2.14852e-05 -3.3855e-06 0.000737202
0.000781752 -1.6735e-05 8.1552e-08
-1.6735e-05 1.92752e-05 -1.30197e-06
8.1552e-08 -1.30197e-06 -5.28545e-05
0.000823574 1.07281e-05 -6.16296e-07
1.07281e-05 3.78827e-05 -1.48305e-06
-6.16296e-07 -1.48305e-06 -2.41001e-05
0.00085242 -1.75618e-05 1.75942e-08
-1.75618e-05 5.68518e-05 -2.84921e-08
1.75942e-08 -2.84921e-08 -1.22656e-05
0.000760532 -4.20933e-05 -6.16278e-07
-4.20933e-05 -4.93233e-07 -1.93613e-06
-6.16278e-07 -1.93613e-06 -3.95305e-05
0.00083948 -9.74463e-07 6.37263e-07
-9.74463e-07 4.40381e-05 -8.311e-08
6.37263e-07 -8.311e-08 -1.45311e-05
0.000709182 -3.35461e-05 -9.09116e-07
-3.35461e-05 -3.12745e-05 -3.51439e-06
-9.09116e-07 -3.51439e-06 -4.06606e-05
0.000772765 -2.51886e-05 -1.66239e-07
-2.51886e-05 9.46273e-07 1.49274e-08
-1.66239e-07 1.49274e-08 -3.56101e-05
0.000850584 3.85743e-05 1.14095e-06
3.85743e-05 5.32433e-05 6.00549e-07
1.14095e-06 6.00549e-07 -6.90315e-06
0.00219252 -4.09531e-05 -1.96288e-05
-4.09531e-05 0.000779264 -3.83274e-06
-1.96288e-05 -3.83274e-06 0.00079675
0.000715092 -2.83926e-05 -2.70251e-07
-2.83926e-05 -3.41781e-05 1.11691e-08
-2.70251e-07 1.11691e-08 -4.15141e-05
0.0007919 -2.25502e-05 3.33653e-07
-2.25502e-05 9.20159e-06 1.49592e-06
3.33653e-07 1.49592e-06 -2.58329e-05
0.00214398 -3.29278e-05 -1.98767e-06
-3.29278e-05 0.000746634 7.68358e-08
-1.98767e-06 7.68358e-08 0.000765831
0.000716359 -2.29146e-05 3.92367e-07
-2.29146e-05 -3.92046e-05 3.29603e-06
3.92367e-07 3.29603e-06 -4.43753e-05
0.00209133 -2.42082e-05 1.10349e-05
-2.42082e-05 0.000712713 4.09862e-06
1.10349e-05 4.09862e-06 0.000733534
0.00182339 -3.39198e-05 3.87281e-05
-3.39198e-05 0.000290366 2.1292e-05
3.87281e-05 2.1292e-05 8.91447e-05
0.0011194 -1.06248e-05 1.33982e-06
-1.06248e-05 6.98526e-05 3.82312e-06
1.33982e-06 3.82312e-06 -2.96746e-05
0.00080735 -2.84872e-07 4.37535e-07
-2.84872e-07 2.71295e-05 -2.27986e-06
4.37535e-07 -2.27986e-06 -4.94755e-05
0.0009255 3.73675e-05 -7.64147e-07
3.73675e-05 0.000113631 -2.50903e-07
-7.64147e-07 -2.50903e-07 2.86471e-05
0.000900257 -1.14015e-05 2.46964e-07
-1.14015e-05 8.41274e-05 3.23543e-07
2.46964e-07 3.23543e-07 1.51051e-05
0.000858977 -3.57319e-05 1.80408e-07
-3.57319e-05 6.37975e-05 5.80972e-07
1.80408e-07 5.80972e-07 -9.40429e-06
0.000877567 -3.78914e-05 1.05057e-07
-3.78914e-05 7.44795e-05 -1.66357e-07
1.05057e-07 -1.66357e-07 2.86119e-06
0.00088127 -5.64909e-06 2.01112e-07
-5.64909e-06 7.78949e-05 -4.96589e-07
2.01112e-07 -4.96589e-07 2.313e-07
0.000899419 1.60454e-05 9.77532e-09
1.60454e-05 9.54803e-05 6.15187e-07
9.77532e-09 6.15187e-07 1.47354e-05
0.000914212 1.8001e-05 -2.82755e-07
1.8001e-05 0.000103908 -1.8567e-06
-2.82755e-07 -1.8567e-06 1.84708e-05
0.000700338 -2.05181e-05 1.64975e-07
-2.05181e-05 -1.18574e-05 -2.41305e-07
1.64975e-07 -2.41305e-07 -8.96562e-05
0.000840082 3.83171e-05 4.66295e-07
3.83171e-05 6.09433e-05 -3.02258e-07
4.66295e-07 -3.02258e-07 -1.41246e-05
0.000880632 -5.36344e-05 5.98781e-07
-5.36344e-05 7.08784e-05 -6.98666e-07
5.98781e-07 -6.98666e-07 -3.78911e-06
0.000908007 -2.77244e-07 -9.7258e-08
-2.77244e-07 0.000100191 1.5697e-07
-9.7258e-08 1.5697e-07 2.37298e-05
0.00144841 3.8839e-06 2.97632e-06
3.8839e-06 0.000403709 1.07182e-06
2.97632e-06 1.07182e-06 0.000325957
0.00134368 -0.000322585 4.58534e-05
-0.000322585 0.000628875 3.8937e-05
4.58534e-05 3.8937e-05 0.000772485
0.00197001 -4.18384e-05 2.45928e-06
-4.18384e-05 0.000280463 9.90631e-06
2.45928e-06 9.90631e-06 -0.000104228
0.00171097 4.1759e-06 -1.083e-05
4.1759e-06 9.22239e-05 -1.97182e-05
-1.083e-05 -1.97182e-05 -0.000227238
0.00374141 -0.000434785 -5.12997e-05
-0.000434785 -4.75742e-05 -4.17765e-05
-5.12997e-05 -4.17765e-05 0.00107872
0.00416707 -0.000240292 -1.41569e-05
-0.000240292 0.000499894 -2.7012e-05
-1.41569e-05 -2.7012e-05 0.00025854
0.00167236 -0.000232143 -9.95112e-05
-0.000232143 -0.000408702 6.2993e-05
-9.95112e-05 6.2993e-05 -0.00171216
0.00277205 -0.000250432 -4.07511e-05
-0.000250432 0.000291439 8.97527e-05
-4.07511e-05 8.97527e-05 -0.000142043
0.00367359 -0.000219676 -4.62287e-06
-0.000219676 0.00068059 2.76804e-05
-4.62287e-06 2.76804e-05 0.000513214
-0.000124552 -0.00057497 -5.79552e-06
-0.00057497 -0.0011169 5.03068e-06
-5.79552e-06 5.03068e-06 0.000134785
0.00482199 -3.30695e-05 6.464e-06
-3.30695e-05 0.00150682 3.14538e-05
6.464e-06 3.14538e-05 -0.000316518
0.000658973 -0.000395648 -3.01392e-06
-0.000395648 -0.00116997 6.99831e-06
-3.01392e-06 6.99831e-06 -0.000812487
0.0027875 0.000133926 -6.77816e-05
0.000133926 0.00025451 -3.1214e-05
-6.77816e-05 -3.1214e-05 0.000134352
0.00958632 -0.000505696 -2.47019e-05
-0.000505696 0.00366538 3.90376e-05
-2.47019e-05 3.90376e-05 0.00214183
5.29639e-05 -0.000479678 -1.8164e-05
-0.000479678 -0.000205618 -2.698e-05
-1.8164e-05 -2.698e-05 0.000107326
0.000609267 0.000122584 -4.7619e-07
0.000122584 -3.66997e-05 -1.62798e-06
-4.7619e-07 -1.62798e-06 -9.59256e-05
0.00099408 1.57239e-05 3.15906e-06
1.57239e-05 0.000158618 -2.41702e-08
3.15906e-06 -2.41702e-08 9.88785e-05
0.000928307 -2.83938e-05 -5.37065e-07
-2.83938e-05 0.000102472 -5.02888e-07
-5.37065e-07 -5.02888e-07 3.05086e-05
-0.0012203 -1.27513e-05 -2.08569e-05
-1.27513e-05 -0.00034754 -1.49203e-05
-2.08569e-05 -1.49203e-05 -0.00101402
-0.000449609 7.90591e-06 2.72196e-06
7.90591e-06 -0.000426104 -6.32922e-06
2.72196e-06 -6.32922e-06 -0.000488297
0.000728479 1.22958e-05 6.2577e-08
1.22958e-05 7.66359e-06 -8.42779e-07
6.2577e-08 -8.42779e-07 -5.4871e-05
0.000741029 5.38548e-05 2.81705e-06
5.38548e-05 0.000142853 1.3575e-06
2.81705e-06 1.3575e-06 5.90936e-05
0.000581939 0.000123883 6.7238e-06
0.000123883 0.000149484 -1.90242e-05
6.7238e-06 -1.90242e-05 -0.000156511
-0.000341314 0.000128643 1.24116e-05
0.000128643 -0.00049708 6.46614e-06
1.24116e-05 6.46614e-06 -0.000632761
0.000276786 -1.72677e-05 7.94772e-05
-1.72677e-05 0.000674262 -5.90969e-07
7.94772e-05 -5.90969e-07 0.00032971
0.00134464 -7.86784e-06 -4.33556e-06
-7.86784e-06 2.64591e-05 4.29009e-06
-4.33556e-06 4.29009e-06 -0.000157664
0.000588528 1.89696e-07 -2.05782e-07
1.89696e-07 -0.000155402 -4.77822e-07
-2.05782e-07 -4.77822e-07 -0.00020342
-0.000115407 -1.9209e-05 8.16218e-06
-1.9209e-05 -0.000116293 4.26607e-06
8.16218e-06 4.26607e-06 -0.000206456
0.00137921 -0.000260132 1.18092e-05
-0.000260132 -0.000581344 -2.90431e-05
1.18092e-05 -2.90431e-05 -0.000670108
0.00141467 1.28202e-05 -5.13069e-05
1.28202e-05 3.10669e-05 1.16746e-05
-5.13069e-05 1.16746e-05 -0.00021295
0.00122253 -2.83348e-05 1.51499e-05
-2.83348e-05 -0.000424709 -1.60251e-05
1.51499e-05 -1.60251e-05 -0.00200583
-0.00230395 0.000442033 -2.45813e-05
0.000442033 -0.00196124 -5.86733e-06
-2.45813e-05 -5.86733e-06 -0.00156956
0.00152411 0.000375327 -6.06284e-05
0.000375327 0.000784234 3.78168e-05
-6.06284e-05 3.78168e-05 0.00113718
0.00177392 -0.000165977 -4.94736e-06
-0.000165977 0.000221057 3.80066e-06
-4.94736e-06 3.80066e-06 0.000441472
0.00125991 0.000158395 -1.20964e-07
0.000158395 0.00110944 4.25155e-06
-1.20964e-07 4.25155e-06 0.00101277
-0.00370763 0.000225717 1.4561e-05
0.000225717 -0.00129168 9.29051e-08
1.4561e-05 9.29051e-08 -0.00157822
0.00380276 -0.000518153 -5.37594e-06
-0.000518153 0.000896847 8.38025e-06
-5.37594e-06 8.38025e-06 -3.87287e-05
0.00718798 0.000335903 -5.80644e-06
0.000335903 0.00245892 1.4376e-09
-5.80644e-06 1.4376e-09 0.000973801
4.14024e-05 -0.000156219 -1.87287e-06
-0.000156219 -0.000559513 1.24936e-05
-1.87287e-06 1.24936e-05 -0.000490666
-0.00609351 0.00012562 -2.46294e-05
0.00012562 -0.00295802 -4.64587e-06
-2.46294e-05 -4.64587e-06 -0.00299447
0.00628128 0.000296397 -7.98658e-06
0.000296397 0.00223328 3.28291e-06
-7.98658e-06 3.28291e-06 0.000909497
0.00462673 -0.000356855 -8.85274e-06
-0.000356855 0.00062059 2.5164e-05
-8.85274e-06 2.5164e-05 -0.000191982
0.000283704 -0.000105353 -1.24882e-05
-0.000105353 -3.57396e-05 3.61796e-06
-1.24882e-05 3.61796e-06 -0.000216513
0.00122737 -0.000156271 -8.60104e-07
-0.000156271 5.85547e-05 1.47785e-07
-8.60104e-07 1.47785e-07 5.90507e-05
0.00207099 -0.000198696 7.67498e-06
-0.000198696 0.000201205 -7.65599e-07
7.67498e-06 -7.65599e-07 0.00024592
0.000148511 -9.31507e-05 -2.84348e-06
-9.31507e-05 -0.000238544 -3.56315e-06
-2.84348e-06 -3.56315e-06 -0.000455574
0.00126797 -0.00021246 -3.73756e-06
-0.00021246 8.73779e-06 -1.79074e-06
-3.73756e-06 -1.79074e-06 -0.000144938
0.00190817 -0.000246861 -1.79183e-06
-0.000246861 0.000151801 7.64661e-07
-1.79183e-06 7.64661e-07 5.63844e-05
0.00118278 -0.000177885 -1.24887e-06
-0.000177885 0.000125129 -3.14602e-06
-1.24887e-06 -3.14602e-06 -7.49611e-05
0.00148539 -0.000205805 2.10661e-06
-0.000205805 0.000107506 -6.30072e-08
2.10661e-06 -6.30072e-08 -3.76784e-05
0.00183077 -0.000193827 -1.14368e-06
-0.000193827 0.000144532 -3.27896e-06
-1.14368e-06 -3.27896e-06 3.91492e-05
0.00154069 -0.000185587 -1.28715e-06
-0.000185587 0.000243576 -8.00091e-07
-1.28715e-06 -8.00091e-07 6.15965e-05
0.0015371 -0.000182337 -1.03787e-06
-0.000182337 9.33636e-05 -4.00527e-07
-1.03787e-06 -4.00527e-07 -4.89526e-05
0.0014357 -0.000150429 -1.20948e-06
-0.000150429 -3.66341e-05 -2.28234e-06
-1.20948e-06 -2.28234e-06 -0.000142712
0.00188458 -0.000155352 -1.74212e-06
-0.000155352 0.000248255 -1.18047e-06
-1.74212e-06 -1.18047e-06 0.000141867
0.00163247 -0.000169415 -2.42161e-06
-0.000169415 0.000222471 -2.05773e-06
-2.42161e-06 -2.05773e-06 7.93068e-05
0.00159342 -0.000165573 4.2369e-07
-0.000165573 0.000141084 1.18931e-06
4.2369e-07 1.18931e-06 8.80902e-06
0.000795745 -0.00012896 -2.75565e-06
-0.00012896 -0.000101171 1.38545e-06
-2.75565e-06 1.38545e-06 -0.000250328
0.0013879 -0.000165055 1.64359e-06
-0.000165055 0.00018172 -1.20682e-06
1.64359e-06 -1.20682e-06 1.93173e-05
0.00113269 -0.000159166 2.37189e-06
-0.000159166 -9.77595e-06 2.51085e-07
2.37189e-06 2.51085e-07 -0.000170877
0.00104541 -0.000129154 -6.51253e-07
-0.000129154 0.000115579 1.40724e-06
-6.51253e-07 1.40724e-06 -9.90793e-06
0.00103547 -0.000135056 7.98918e-07
-0.000135056 8.86121e-05 -3.82645e-07
7.98918e-07 -3.82645e-07 -5.53803e-05
0.000836455 -0.0001346 1.47326e-06
-0.0001346 -3.90454e-05 -2.5646e-06
1.47326e-06 -2.5646e-06 -0.00020962
0.000953007 -0.000102268 -1.72334e-06
-0.000102268 9.77019e-05 4.11376e-07
-1.72334e-06 4.11376e-07 -4.98633e-06
0.0010468 -0.000122566 -1.32345e-07
-0.000122566 0.000143834 -5.22754e-07
-1.32345e-07 -5.22754e-07 2.64309e-05
0.000844155 -0.000114786 3.00867e-07
-0.000114786 3.9237e-05 -2.49317e-06
3.00867e-07 -2.49317e-06 -8.38923e-05
0.000806119 1.60526e-05 3.3216e-07
1.60526e-05 4.69749e-05 3.16932e-06
3.3216e-07 3.16932e-06 -2.5076e-05
0.000931431 -5.6901e-05 8.98262e-07
-5.6901e-05 0.000107029 4.18316e-07
8.98262e-07 4.18316e-07 9.48073e-06
0.000940239 -8.94645e-05 4.42477e-07
-8.94645e-05 0.00011951 5.89502e-07
4.42477e-07 5.89502e-07 7.00334e-06
0.000613197 5.41453e-05 -1.68532e-06
5.41453e-05 -4.75494e-05 4.14104e-06
-1.68532e-06 4.14104e-06 -6.98542e-05
0.00073377 3.01374e-05 -7.10701e-07
3.01374e-05 7.61081e-06 -3.54289e-07
-7.10701e-07 -3.54289e-07 -5.11339e-05
0.000887848 -1.9854e-05 1.43999e-08
-1.9854e-05 9.53565e-05 -1.65212e-06
1.43999e-08 -1.65212e-06 6.74489e-06
0.00217759 7.55831e-05 -9.64228e-06
7.55831e-05 0.000804838 1.27436e-06
-9.64228e-06 1.27436e-06 0.000813486
0.000688029 4.94187e-05 5.43633e-08
4.94187e-05 -1.56264e-05 -6.32841e-08
5.43633e-08 -6.32841e-08 -3.23961e-05
0.000724588 4.33298e-05 9.93577e-07
4.33298e-05 -1.14839e-06 -2.22887e-06
9.93577e-07 -2.22887e-06 -4.84833e-05
0.00212137 6.0964e-05 1.08492e-06
6.0964e-05 0.000763797 8.30393e-08
1.08492e-06 8.30393e-08 0.000776751
0.000733215 4.56685e-05 1.61322e-06
4.56685e-05 -1.39587e-06 -3.42147e-06
1.61322e-06 -3.42147e-06 -1.3806e-05
0.00210584 5.47473e-05 2.47784e-05
5.47473e-05 0.000748185 -3.22399e-06
2.47784e-05 -3.22399e-06 0.000762965
0.000929432 2.95294e-05 -3.93409e-07
2.95294e-05 0.000107886 -1.88611e-07
-3.93409e-07 -1.88611e-07 2.93112e-05
0.000818234 -9.16554e-06 1.07122e-07
-9.16554e-06 3.91258e-05 -2.93865e-07
1.07122e-07 -2.93865e-07 -3.39022e-05
0.000815908 -2.02071e-06 -4.12453e-07
-2.02071e-06 3.8742e-05 -1.67963e-06
-4.12453e-07 -1.67963e-06 -2.86103e-05
0.000747266 -5.06578e-05 -4.32113e-07
-5.06578e-05 -1.44528e-06 -2.2666e-06
-4.32113e-07 -2.2666e-06 -4.30075e-05
0.000805511 -1.56683e-05 7.75351e-07
-1.56683e-05 2.92079e-05 -8.68893e-08
7.75351e-07 -8.68893e-08 -3.29929e-05
0.000792162 -3.57256e-06 5.84602e-07
-3.57256e-06 2.75835e-05 9.00073e-07
5.84602e-07 9.00073e-07 -4.39118e-05
0.000708015 -3.7891e-05 -1.49426e-06
-3.7891e-05 -2.54384e-05 -3.62273e-06
-1.49426e-06 -3.62273e-06 -3.66756e-05
0.000764445 -3.40864e-05 -2.02375e-07
-3.40864e-05 7.39383e-07 2.49952e-08
-2.02375e-07 2.49952e-08 -3.76403e-05
0.000815425 -1.21726e-05 1.21877e-06
-1.21726e-05 3.1611e-05 9.34086e-07
1.21877e-06 9.34086e-07 -2.70661e-05
0.00222124 -4.8231e-05 -2.32915e-05
-4.8231e-05 0.00080124 -3.67135e-06
-2.32915e-05 -3.67135e-06 0.000817116
0.000701539 -3.28834e-05 -1.83789e-07
-3.28834e-05 -3.52704e-05 1.65292e-08
-1.83789e-07 1.65292e-08 -4.46123e-05
0.000781261 -2.37787e-05 8.73306e-07
-2.37787e-05 5.83112e-06 1.62328e-06
8.73306e-07 1.62328e-06 -3.07031e-05
0.00218441 -4.07124e-05 -2.08828e-06
-4.07124e-05 0.000774237 9.66277e-08
-2.08828e-06 9.66277e-08 0.00079186
0.000705639 -2.79124e-05 4.43962e-07
-2.79124e-05 -3.91929e-05 3.39575e-06
4.43962e-07 3.39575e-06 -4.64771e-05
0.00213194 -3.23913e-05 1.4477e-05
-3.23913e-05 0.000739436 4.01075e-06
1.4477e-05 4.01075e-06 0.000758839
-0.00190282 -0.000133579 4.00423e-05
-0.000133579 -0.000506383 1.52738e-05
4.00423e-05 1.52738e-05 -0.000942616
0.00178642 -4.08969e-05 2.04717e-06
-4.08969e-05 0.000271466 5.7815e-06
2.04717e-06 5.7815e-06 7.18656e-05
0.00107292 -8.54497e-06 -5.49311e-06
-8.54497e-06 1.66882e-05 -4.62106e-06
-5.49311e-06 -4.62106e-06 -7.67731e-05
0.000896795 7.94105e-06 -8.67725e-07
7.94105e-06 9.52931e-05 7.14565e-07
-8.67725e-07 7.14565e-07 1.22706e-05
0.00104676 0.000104284 1.0851e-07
0.000104284 0.000189753 1.0544e-06
1.0851e-07 1.0544e-06 9.1237e-05
0.000885891 3.08992e-05 -4.46067e-07
3.08992e-05 9.74996e-05 1.55104e-07
-4.46067e-07 1.55104e-07 7.80813e-06
0.000983483 -4.32603e-05 4.44307e-07
-4.32603e-05 0.00013126 -2.74937e-07
4.44307e-07 -2.74937e-07 5.98192e-05
0.00092781 1.69704e-05 6.58258e-07
1.69704e-05 0.000100458 6.59989e-07
6.58258e-07 6.59989e-07 2.43313e-05
0.000745412 -2.87868e-05 -8.30654e-07
-2.87868e-05 8.87275e-06 1.70714e-06
-8.30654e-07 1.70714e-06 -6.87265e-05
0.000765328 1.75139e-06 -6.15252e-07
1.75139e-06 2.71269e-05 3.56658e-08
-6.15252e-07 3.56658e-08 -5.46975e-05
0.000811202 6.24631e-06 1.85463e-07
6.24631e-06 4.81235e-05 -7.83041e-08
1.85463e-07 -7.83041e-08 -3.62871e-05
0.00101622 5.07407e-05 1.13053e-06
5.07407e-05 0.000181807 -1.85283e-06
1.13053e-06 -1.85283e-06 8.32442e-05
0.000823503 5.27134e-05 3.35892e-06
5.27134e-05 4.52505e-05 -2.75794e-06
3.35892e-06 -2.75794e-06 -3.48435e-05
0.000878907 2.74007e-05 -1.23939e-07
2.74007e-05 8.66993e-05 -8.10538e-07
-1.23939e-07 -8.10538e-07 8.69692e-06
0.0010471 3.02019e-05 7.00767e-07
3.02019e-05 0.000190149 6.50208e-07
7.00767e-07 6.50208e-07 0.000112805
-0.0018924 -0.000318399 -1.57722e-05
-0.000318399 -0.00089057 1.93423e-05
-1.57722e-05 1.93423e-05 -0.000967053
-0.000276144 -0.000319144 2.09048e-05
-0.000319144 -0.000105737 7.62525e-06
2.09048e-05 7.62525e-06 -0.000104153
0.002101 -4.7432e-05 -4.10394e-05
-4.7432e-05 0.000364967 -3.17897e-05
-4.10394e-05 -3.17897e-05 -2.99422e-05
-0.0029999 -0.000586397 1.5576e-05
-0.000586397 -0.00251659 3.52643e-05
1.5576e-05 3.52643e-05 -0.00115027
0.00510115 -0.000626785 -1.57971e-05
-0.000626785 0.00143966 -2.49805e-05
-1.57971e-05 -2.49805e-05 0.00154607
0.00345368 0.000213161 4.80574e-05
0.000213161 0.000828568 1.46088e-06
4.80574e-05 1.46088e-06 -0.00101135
0.00298844 -0.000245052 -0.000122698
-0.000245052 0.000394756 8.21317e-05
-0.000122698 8.21317e-05 -0.000163434
0.00315787 0.000107896 -2.9732e-05
0.000107896 0.000356563 1.72943e-07
-2.9732e-05 1.72943e-07 0.000114563
0.00366833 -0.00066248 -1.35131e-05
-0.00066248 0.00142603 1.73163e-05
-1.35131e-05 1.73163e-05 0.00155544
0.00172145 3.34242e-05 1.14394e-05
3.34242e-05 3.03405e-05 2.31774e-05
1.14394e-05 2.31774e-05 -0.0016093
0.00202871 0.000313622 -0.000107132
0.000313622 0.000270543 -8.51838e-05
-0.000107132 -8.51838e-05 -0.000427846
0.00211803 0.000296011 -0.000131969
0.000296011 0.000324994 -4.65835e-05
-0.000131969 -4.65835e-05 -0.00130602
0.00229012 0.000293492 1.19427e-05
0.000293492 0.000656715 -1.03278e-05
1.19427e-05 -1.03278e-05 0.000525223
0.000812278 0.000118265 -1.81616e-06
0.000118265 6.31555e-05 8.44149e-08
-1.81616e-06 8.44149e-08 6.13442e-06
0.00117061 1.79157e-05 -9.17445e-07
1.79157e-05 0.000246419 -2.1671e-06
-9.17445e-07 -2.1671e-06 0.000188178
0.000431054 0.0001142 -3.10769e-05
0.0001142 3.40133e-05 -1.45146e-05
-3.10769e-05 -1.45146e-05 -0.000184838
0.00153824 0.000102003 -4.13891e-06
0.000102003 0.000525112 -5.90924e-06
-4.13891e-06 -5.90924e-06 0.000437041
0.00120376 0.000215888 1.25751e-05
0.000215888 0.000207516 -3.56148e-07
1.25751e-05 -3.56148e-07 8.69066e-05
0.00139103 0.000286406 4.88018e-05
0.000286406 -0.000104506 2.85089e-05
4.88018e-05 2.85089e-05 -0.000148202
-0.00380048 -3.92416e-05 -5.23278e-05
-3.92416e-05 -0.00183562 -9.81458e-06
-5.23278e-05 -9.81458e-06 -0.00157618
-0.000457339 -1.44841e-05 1.80306e-05
-1.44841e-05 0.000417723 6.54037e-07
1.80306e-05 6.54037e-07 4.05371e-05
0.00140375 -1.45032e-05 -3.5757e-05
-1.45032e-05 0.00012023 2.76179e-06
-3.5757e-05 2.76179e-06 -1.81982e-05
0.00135934 -0.000180157 -3.43549e-05
-0.000180157 1.14026e-05 -1.56971e-05
-3.43549e-05 -1.56971e-05 0.000224822
0.00382625 -0.000563226 -6.2045e-05
-0.000563226 0.000718485 -5.36554e-06
-6.2045e-05 -5.36554e-06 3.49965e-06
0.00111174 0.000127753 -4.52279e-05
0.000127753 0.00111582 1.49666e-05
-4.52279e-05 1.49666e-05 0.000976223
-0.000669437 6.90852e-05 3.85279e-05
6.90852e-05 -0.000778435 -4.7781e-05
3.85279e-05 -4.7781e-05 -0.00258599
0.00923766 0.000514656 -8.72069e-05
0.000514656 0.00456678 1.05474e-05
-8.72069e-05 1.05474e-05 0.00454208
0.00139391 -0.00026025 7.67912e-06
-0.00026025 4.29944e-05 1.06687e-06
7.67912e-06 1.06687e-06 3.14303e-05
-0.000417211 0.000237369 -4.88956e-06
0.000237369 -2.16302e-05 -3.48859e-06
-4.88956e-06 -3.48859e-06 -0.000117678
0.00247301 0.000188869 -1.45887e-05
0.000188869 0.000343756 1.63354e-05
-1.45887e-05 1.63354e-05 -0.00120791
0.00458104 -0.00035196 -8.70726e-06
-0.00035196 0.00107161 7.10811e-06
-8.70726e-06 7.10811e-06 0.000333011
-5.46126e-05 -0.000125518 -7.8608e-07
-0.000125518 -0.000502203 -3.29738e-06
-7.8608e-07 -3.29738e-06 -0.000665554
0.00781527 -2.70235e-05 4.78811e-05
-2.70235e-05 0.0026556 -6.78221e-07
4.78811e-05 -6.78221e-07 0.00172337
0.003076 -2.77228e-05 4.52131e-06
-2.77228e-05 0.000314261 -9.92956e-06
4.52131e-06 -9.92956e-06 -0.00011383
-1.58893e-05 -0.000100538 -1.17756e-05
-0.000100538 -0.000561719 6.7402e-07
-1.17756e-05 6.7402e-07 -0.000528442
0.00123027 -0.000177047 -7.41338e-07
-0.000177047 -0.00021972 -4.58186e-07
-7.41338e-07 -4.58186e-07 -0.000177374
0.00177707 -0.000221182 3.71659e-06
-0.000221182 -8.67886e-05 -8.37528e-06
3.71659e-06 -8.37528e-06 -5.19944e-05
0.00156641 -0.000226195 -4.39624e-06
-0.000226195 0.000157234 -4.13721e-06
-4.39624e-06 -4.13721e-06 6.53787e-06
0.00163996 -0.00023305 -4.21866e-07
-0.00023305 1.22004e-05 1.68893e-06
-4.21866e-07 1.68893e-06 -7.7939e-05
0.00198135 -0.000208099 -5.75241e-06
-0.000208099 0.000103298 7.85884e-07
-5.75241e-06 7.85884e-07 4.48442e-05
0.0012619 -0.000193217 1.63255e-06
-0.000193217 -2.08654e-06 1.49241e-06
1.63255e-06 1.49241e-06 -0.000148503
0.00168715 -0.000187883 -1.79938e-06
-0.000187883 6.83821e-05 -3.45462e-08
-1.79938e-06 -3.45462e-08 -3.73366e-05
0.00184399 -0.000157408 -1.9298e-06
-0.000157408 8.59479e-05 -9.08596e-07
-1.9298e-06 -9.08596e-07 3.97338e-06
0.0018264 -0.000192559 1.24617e-06
-0.000192559 0.000242184 2.18451e-06
1.24617e-06 2.18451e-06 9.97969e-05
0.00166153 -0.000158044 4.00036e-07
-0.000158044 7.91903e-05 9.55825e-07
4.00036e-07 9.55825e-07 -2.75148e-05
0.00158164 -0.000131491 -8.71579e-07
-0.000131491 2.02537e-05 4.91358e-07
-8.71579e-07 4.91358e-07 -7.07304e-05
0.00186108 -0.000134947 -5.17662e-07
-0.000134947 0.000221586 -2.9904e-07
-5.17662e-07 -2.9904e-07 0.00012378
0.00164707 -0.000144619 -1.88955e-06
-0.000144619 0.000126926 2.04407e-06
-1.88955e-06 2.04407e-06 2.26638e-05
0.00164359 -0.000148275 2.14631e-07
-0.000148275 0.000176592 -3.40709e-06
2.14631e-07 -3.40709e-06 6.02076e-05
0.00149957 -0.000157632 -3.17682e-06
-0.000157632 0.000190308 -7.26429e-07
-3.17682e-06 -7.26429e-07 5.0349e-05
0.00164917 -0.000168801 1.3138e-06
-0.000168801 0.000232593 -2.09805e-07
1.3138e-06 -2.09805e-07 8.94031e-05
0.00133169 -0.00015197 3.07158e-06
-0.00015197 7.59828e-06 4.11529e-06
3.07158e-06 4.11529e-06 -0.000122666
0.000803609 -0.000122031 -3.22138e-06
-0.000122031 -6.87634e-05 2.79158e-06
-3.22138e-06 2.79158e-06 -0.000203589
0.00113303 -0.000144207 3.48209e-07
-0.000144207 7.9841e-05 -1.29152e-07
3.48209e-07 -1.29152e-07 -6.83778e-05
0.00146747 -0.000166931 4.46989e-06
-0.000166931 0.000225099 -1.92181e-06
4.46989e-06 -1.92181e-06 6.4958e-05
0.000951048 -0.000110131 -1.5853e-06
-0.000110131 7.6204e-05 7.45635e-07
-1.5853e-06 7.45635e-07 -3.2581e-05
0.00109675 -0.000130988 1.59324e-07
-0.000130988 0.000141073 -2.6166e-07
1.59324e-07 -2.6166e-07 1.54004e-05
0.000687518 -0.000115426 1.29378e-06
-0.000115426 -9.21482e-05 -3.75131e-06
1.29378e-06 -3.75131e-06 -0.00023463
0.00078812 -3.59309e-05 -2.51073e-06
-3.59309e-05 2.75361e-05 2.64259e-06
-2.51073e-06 2.64259e-06 -5.2428e-05
0.00102116 -0.000106871 4.85519e-08
-0.000106871 0.000132778 -7.21591e-08
4.85519e-08 -7.21591e-08 2.97579e-05
0.00113266 -0.000126879 9.87149e-07
-0.000126879 0.000187795 -8.59806e-07
9.87149e-07 -8.59806e-07 7.00278e-05
0.000560421 6.60895e-05 -1.74893e-08
6.60895e-05 -6.87996e-05 5.21173e-06
-1.74893e-08 5.21173e-06 -0.00010036
0.000774818 -2.8058e-06 -1.72728e-08
-2.8058e-06 3.0214e-05 6.69288e-08
-1.72728e-08 6.69288e-08 -4.30404e-05
0.00100248 -6.29942e-05 1.47204e-06
-6.29942e-05 0.000145074 -5.15278e-07
1.47204e-06 -5.15278e-07 4.6632e-05
0.00237723 7.77067e-05 -3.42613e-05
7.77067e-05 0.000918312 2.76124e-06
-3.42613e-05 2.76124e-06 0.000925616
0.000651107 5.89288e-05 -1.44351e-07
5.89288e-05 -2.57184e-05 -1.73174e-07
-1.44351e-07 -1.73174e-07 -4.92187e-05
0.000717971 -1.63282e-06 2.18275e-06
-1.63282e-06 -3.45288e-06 -2.87141e-06
2.18275e-06 -2.87141e-06 -6.14193e-05
0.0015779 5.9043e-05 1.34616e-05
5.9043e-05 0.000475526 -6.22421e-07
1.34616e-05 -6.22421e-07 0.000482016
0.000721603 5.25288e-05 1.22365e-06
5.25288e-05 2.66157e-06 -3.88369e-06
1.22365e-06 -3.88369e-06 -1.45945e-05
0.00217995 6.19626e-05 2.89373e-05
6.19626e-05 0.000797161 -3.04656e-06
2.89373e-05 -3.04656e-06 0.000809541
0.000908069 4.58525e-05 3.03821e-07
4.58525e-05 9.90131e-05 6.00837e-07
3.03821e-07 6.00837e-07 1.2051e-05
0.000900359 -2.8518e-06 -2.43077e-07
-2.8518e-06 8.9017e-05 5.07577e-07
-2.43077e-07 5.07577e-07 1.27338e-05
0.000835643 -3.0618e-05 4.77912e-08
-3.0618e-05 5.47191e-05 -1.37978e-06
4.77912e-08 -1.37978e-06 -1.71216e-05
0.000880619 2.35531e-06 2.29355e-07
2.35531e-06 7.32979e-05 7.03876e-07
2.29355e-07 7.03876e-07 -1.02575e-06
0.000814218 -3.21543e-05 3.71384e-07
-3.21543e-05 3.46076e-05 -8.64465e-08
3.71384e-07 -8.64465e-08 -3.05471e-05
0.00071606 -4.89793e-05 -6.27297e-07
-4.89793e-05 -1.19702e-05 -2.41051e-06
-6.27297e-07 -2.41051e-06 -5.65352e-05
0.000707953 -4.24831e-05 -1.97281e-06
-4.24831e-05 -1.88248e-05 -3.70556e-06
-1.97281e-06 -3.70556e-06 -3.18327e-05
0.000747763 -4.43226e-05 -1.31245e-08
-4.43226e-05 -2.28832e-06 -1.91633e-08
-1.31245e-08 -1.91633e-08 -4.30514e-05
0.000807797 -5.53817e-05 -1.54562e-07
-5.53817e-05 2.79158e-05 1.40614e-06
-1.54562e-07 1.40614e-06 -3.20186e-05
0.00223149 -5.50315e-05 -2.68004e-05
-5.50315e-05 0.000813807 -3.44421e-06
-2.68004e-05 -3.44421e-06 0.000828092
0.000691924 -3.70238e-05 -2.35396e-07
-3.70238e-05 -3.40489e-05 3.41263e-08
-2.35396e-07 3.41263e-08 -4.52013e-05
0.000767933 -2.54255e-05 1.5612e-06
-2.54255e-05 1.82932e-06 1.85321e-06
1.5612e-06 1.85321e-06 -3.5938e-05
0.00221868 -4.81006e-05 -1.70513e-06
-4.81006e-05 0.000799163 1.07979e-07
-1.70513e-06 1.07979e-07 0.00081514
0.000693458 -3.22795e-05 8.21345e-07
-3.22795e-05 -3.94342e-05 3.54303e-06
8.21345e-07 3.54303e-06 -4.87492e-05
0.00217097 -4.03703e-05 1.7745e-05
-4.03703e-05 0.000766281 3.88322e-06
1.7745e-05 3.88322e-06 0.000784075
0.00122261 0.000123172 7.98995e-05
0.000123172 0.000904291 2.97528e-05
7.98995e-05 2.97528e-05 0.000489577
-0.000259666 -0.000161548 3.17697e-06
-0.000161548 0.000260049 4.91867e-06
3.17697e-06 4.91867e-06 -6.99099e-05
0.0017558 -4.65346e-05 -3.76602e-05
-4.65346e-05 0.000262679 -1.03205e-05
-3.76602e-05 -1.03205e-05 6.47485e-05
0.000888222 -1.5571e-05 7.51402e-08
-1.5571e-05 8.86401e-05 8.72184e-07
7.51402e-08 8.72184e-07 7.07104e-06
0.000865779 5.38209e-06 -3.50684e-08
5.38209e-06 8.37176e-05 6.64436e-07
-3.50684e-08 6.64436e-07 -5.16063e-06
0.000923358 9.35027e-05 -1.9704e-08
9.35027e-05 0.000127181 2.54579e-07
-1.9704e-08 2.54579e-07 2.97943e-05
0.00109954 0.000123515 8.43108e-07
0.000123515 0.000211439 5.72115e-07
8.43108e-07 5.72115e-07 0.000102675
0.000915487 7.81957e-05 -1.10535e-06
7.81957e-05 0.00012983 -2.14534e-07
-1.10535e-06 -2.14534e-07 2.71434e-05
0.000821454 2.38376e-05 4.82185e-07
2.38376e-05 5.69465e-05 1.21156e-06
4.82185e-07 1.21156e-06 -2.56553e-05
0.000766635 8.39575e-06 2.81225e-07
8.39575e-06 2.36107e-05 1.26518e-06
2.81225e-07 1.26518e-06 -6.04576e-05
0.000736645 5.14551e-05 -9.25948e-07
5.14551e-05 3.11081e-05 -9.21616e-07
-9.25948e-07 -9.21616e-07 -6.49275e-05
0.000249602 7.30249e-05 -2.69693e-07
7.30249e-05 -0.000215569 6.3259e-07
-2.69693e-07 6.3259e-07 -0.000326042
0.000857773 0.000102923 9.00663e-07
0.000102923 5.90297e-05 -2.88066e-06
9.00663e-07 -2.88066e-06 -3.9411e-05
0.00192727 0.00022122 4.62907e-06
0.00022122 0.000450865 -7.14278e-06
4.62907e-06 -7.14278e-06 0.000328638
0.000806306 5.54397e-05 -1.30286e-06
5.54397e-05 5.40205e-05 -3.64823e-07
-1.30286e-06 -3.64823e-07 -2.71132e-05
0.000766025 1.18186e-06 -4.22235e-07
1.18186e-06 3.29622e-05 -7.10193e-07
-4.22235e-07 -7.10193e-07 -4.00825e-05
0.00909148 -5.34558e-05 -3.94495e-05
-5.34558e-05 0.00287247 -1.02665e-05
-3.94495e-05 -1.02665e-05 0.00168986
-0.00222618 -0.000274315 -3.68835e-05
-0.000274315 -0.00078269 -4.2854e-06
-3.68835e-05 -4.2854e-06 -0.00113214
0.00108082 -0.000333205 -3.10504e-05
-0.000333205 0.000575883 -2.43602e-05
-3.10504e-05 -2.43602e-05 0.000538348
-0.00274321 -0.000369066 -8.24804e-06
-0.000369066 -0.00155539 9.48152e-06
-8.24804e-06 9.48152e-06 -0.00136162
0.00965924 -0.000415883 7.3003e-05
-0.000415883 0.00377421 1.12338e-05
7.3003e-05 1.12338e-05 0.00176562
0.00333513 0.000115673 9.38241e-07
0.000115673 0.000537516 1.68267e-05
9.38241e-07 1.68267e-05 0.000485085
0.0014956 0.000302475 -4.07104e-05
0.000302475 -0.000135216 -2.1681e-05
-4.07104e-05 -2.1681e-05 -0.000692319
0.00699178 -0.00030939 4.86124e-05
-0.00030939 0.00219262 1.79426e-05
4.86124e-05 1.79426e-05 0.000881077
0.00297848 0.000322056 4.2576e-06
0.000322056 0.000167071 -3.56818e-05
4.2576e-06 -3.56818e-05 -0.000337676
0.00212877 0.000339218 1.01173e-05
0.000339218 0.000358517 1.21577e-05
1.01173e-05 1.21577e-05 0.000204239
0.000872062 0.000197038 1.50551e-06
0.000197038 1.09662e-05 -5.26113e-06
1.50551e-06 -5.26113e-06 -0.000130976
0.000930349 0.000108326 -5.86799e-06
0.000108326 0.000122244 3.56088e-06
-5.86799e-06 3.56088e-06 6.87694e-05
0.00161717 0.000249842 -3.39069e-05
0.000249842 0.00036663 -1.65616e-05
-3.39069e-05 -1.65616e-05 0.000257772
0.000764487 0.000269091 -1.7368e-05
0.000269091 -0.000381535 1.43784e-05
-1.7368e-05 1.43784e-05 -0.00044319
0.000571651 -0.000107311 -1.36892e-06
-0.000107311 -0.00121704 -3.94896e-06
-1.36892e-06 -3.94896e-06 -0.00166213
0.00193337 -2.84649e-05 -3.61378e-06
-2.84649e-05 0.00108436 -1.07463e-06
-3.61378e-06 -1.07463e-06 0.00104445
-0.00120849 -1.36072e-05 -1.2608e-05
-1.36072e-05 0.00017395 3.88984e-08
-1.2608e-05 3.88984e-08 -0.000257797
0.0025293 -0.000336828 -4.68776e-05
-0.000336828 0.00054134 4.44972e-06
-4.68776e-05 4.44972e-06 0.000480835
0.00409596 -0.00035565 -1.03314e-05
-0.00035565 0.000825309 -1.70972e-05
-1.03314e-05 -1.70972e-05 -0.000188786
-0.00016852 -6.78555e-05 -3.19889e-05
-6.78555e-05 0.000223378 1.95314e-05
-3.19889e-05 1.95314e-05 -5.55509e-05
0.00852944 0.000383103 -3.55705e-05
0.000383103 0.00341662 2.54657e-05
-3.55705e-05 2.54657e-05 0.00198171
0.00050904 -0.000167757 7.98151e-07
-0.000167757 -0.000272784 -5.58386e-08
7.98151e-07 -5.58386e-08 -0.000391725
0.00570704 0.000161328 1.87025e-05
0.000161328 0.00154457 1.39919e-05
1.87025e-05 1.39919e-05 0.000721986
0.00375039 -8.08309e-05 4.0301e-05
-8.08309e-05 0.00041203 -1.84062e-06
4.0301e-05 -1.84062e-06 -0.000227301
0.00338222 -0.000195387 -6.37595e-06
-0.000195387 0.00119959 2.0424e-06
-6.37595e-06 2.0424e-06 0.00101266
0.00258095 -2.47915e-05 -7.35242e-05
-2.47915e-05 0.000465332 -5.32612e-06
-7.35242e-05 -5.32612e-06 0.000161721
0.000581599 -0.00015881 -5.22748e-06
-0.00015881 -0.000556462 1.08338e-06
-5.22748e-06 1.08338e-06 -0.00050928
0.00164579 -0.000225383 -5.20552e-07
-0.000225383 -0.000128198 7.30353e-07
-5.20552e-07 7.30353e-07 -0.000120126
0.00175405 -0.000144982 -2.56625e-06
-0.000144982 -0.000107793 -2.52973e-06
-2.56625e-06 -2.52973e-06 -0.000123558
0.00141205 -0.000221362 6.14254e-06
-0.000221362 -0.000102985 1.30245e-06
6.14254e-06 1.30245e-06 -0.000189995
0.00179417 -0.000193172 -7.53468e-08
-0.000193172 3.33249e-05 -3.18719e-07
-7.53468e-08 -3.18719e-07 -2.66063e-05
0.00192075 -0.000123298 -3.34474e-06
-0.000123298 4.99363e-05 5.98413e-07
-3.34474e-06 5.98413e-07 -1.97516e-06
0.00161284 -0.000184372 -7.6096e-07
-0.000184372 2.76243e-05 2.7034e-06
-7.6096e-07 2.7034e-06 -7.86164e-05
0.001803 -0.000154548 1.44184e-07
-0.000154548 6.54649e-05 1.10122e-06
1.44184e-07 1.10122e-06 -1.67698e-05
0.00179923 -0.000118867 5.22816e-07
-0.000118867 8.63962e-05 2.83301e-07
5.22816e-07 2.83301e-07 6.27547e-06
0.00182967 -0.000163891 3.22394e-06
-0.000163891 0.000165968 3.82806e-06
3.22394e-06 3.82806e-06 5.8638e-05
0.00168524 -0.000135388 -1.45917e-07
-0.000135388 7.76851e-05 7.33485e-07
-1.45917e-07 7.33485e-07 -1.47873e-05
0.00171843 -0.00011743 6.2338e-07
-0.00011743 0.000109349 1.30122e-06
6.2338e-07 1.30122e-06 1.49996e-05
0.00165668 -0.000129476 -2.19539e-06
-0.000129476 0.000117324 -8.66655e-09
-2.19539e-06 -8.66655e-09 2.18211e-05
0.00168825 -0.000129816 2.17867e-06
-0.000129816 0.000161969 -1.44296e-06
2.17867e-06 -1.44296e-06 5.53682e-05
0.00153041 -0.00013825 1.44432e-06
-0.00013825 6.80775e-05 3.83787e-06
1.44432e-06 3.83787e-06 -3.4332e-05
0.00161738 -0.000146557 4.17681e-07
-0.000146557 0.000160851 -6.37132e-07
4.17681e-07 -6.37132e-07 4.46376e-05
0.00156024 -0.000143196 -9.3809e-07
-0.000143196 0.000168149 -1.62016e-06
-9.3809e-07 -1.62016e-06 4.45334e-05
0.00101683 -0.000130124 -3.97646e-06
-0.000130124 -2.81674e-05 1.17162e-06
-3.97646e-06 1.17162e-06 -0.000161453
0.00147777 -0.000155473 1.90122e-07
-0.000155473 0.000179672 -4.38596e-07
1.90122e-07 -4.38596e-07 3.91853e-05
0.00167206 -0.000168437 3.64052e-06
-0.000168437 0.000246187 1.66588e-06
3.64052e-06 1.66588e-06 0.000102921
0.00103682 -0.000121238 -2.56441e-06
-0.000121238 8.7234e-05 1.67769e-06
-2.56441e-06 1.67769e-06 -2.9646e-05
0.000914158 -0.00012655 -8.96758e-07
-0.00012655 -7.01295e-06 1.01664e-06
-8.96758e-07 1.01664e-06 -0.000140824
0.00144394 -0.000157967 3.47104e-06
-0.000157967 0.000247296 -1.94954e-06
3.47104e-06 -1.94954e-06 0.00010011
0.000741257 -5.54785e-05 -2.97729e-06
-5.54785e-05 -1.22324e-05 1.97454e-06
-2.97729e-06 1.97454e-06 -9.5775e-05
0.00104461 -0.000115932 1.08357e-07
-0.000115932 0.000124428 -2.83978e-07
1.08357e-07 -2.83978e-07 1.49612e-05
0.00115745 -0.000133426 1.51806e-06
-0.000133426 0.00017164 -2.0199e-06
1.51806e-06 -2.0199e-06 4.57039e-05
0.000564487 4.48405e-05 -1.48411e-06
4.48405e-05 -7.20162e-05 5.84721e-06
-1.48411e-06 5.84721e-06 -0.000108391
0.000823007 -4.05165e-05 1.50372e-07
-4.05165e-05 4.49817e-05 2.82809e-07
1.50372e-07 2.82809e-07 -3.50098e-05
0.00107712 -0.000102899 1.77924e-06
-0.000102899 0.000160494 -5.19607e-07
1.77924e-06 -5.19607e-07 5.81583e-05
0.00265573 8.90935e-05 -4.00322e-05
8.90935e-05 0.00107304 2.72066e-06
-4.00322e-05 2.72066e-06 0.00107694
0.000616666 5.7674e-05 7.9527e-07
5.7674e-05 -4.03565e-05 -1.33077e-07
7.9527e-07 -1.33077e-07 -7.09273e-05
0.000761816 -3.34603e-05 2.37102e-06
-3.34603e-05 1.95034e-05 -2.6885e-06
2.37102e-06 -2.6885e-06 -5.24394e-05
0.00246253 7.85309e-05 9.21807e-07
7.85309e-05 0.000964042 1.18337e-07
9.21807e-07 1.18337e-07 0.000970994
0.000691666 6.23478e-05 -5.31672e-07
6.23478e-05 -2.7269e-06 -4.80272e-06
-5.31672e-07 -4.80272e-06 -2.72372e-05
0.00232532 6.98064e-05 3.4519e-05
6.98064e-05 0.000883789 -2.90942e-06
3.4519e-05 -2.90942e-06 0.000893474
0.00101973 0.000111759 4.58607e-07
0.000111759 0.000156517 7.22929e-08
4.58607e-07 7.22929e-08 5.37218e-05
0.000855528 7.41729e-05 3.21808e-07
7.41729e-05 7.47152e-05 9.97049e-08
3.21808e-07 9.97049e-08 -1.45836e-05
0.000777015 -2.24261e-05 -5.28759e-07
-2.24261e-05 2.76341e-05 -7.51596e-07
-5.28759e-07 -7.51596e-07 -5.41564e-05
0.000857757 -2.63705e-05 -3.25458e-07
-2.63705e-05 6.53068e-05 9.61259e-07
-3.25458e-07 9.61259e-07 -1.06242e-05
0.000805137 -4.42195e-05 1.67325e-07
-4.42195e-05 3.78919e-05 5.2796e-08
1.67325e-07 5.2796e-08 -3.41113e-05
0.000697289 -5.07371e-05 -6.16367e-07
-5.07371e-05 -1.61908e-05 -2.46999e-06
-6.16367e-07 -2.46999e-06 -6.78222e-05
0.000793709 -5.48859e-05 -1.38114e-07
-5.48859e-05 2.29623e-05 1.64322e-06
-1.38114e-07 1.64322e-06 -4.16594e-05
0.000731267 -5.32917e-05 6.45909e-08
-5.32917e-05 -3.93438e-06 -1.31542e-07
6.45909e-08 -1.31542e-07 -4.87962e-05
0.000703433 -4.99432e-05 -1.74635e-06
-4.99432e-05 -1.21394e-05 -3.87684e-06
-1.74635e-06 -3.87684e-06 -2.80638e-05
0.00222933 -6.16058e-05 -2.97494e-05
-6.16058e-05 0.000820354 -3.16667e-06
-2.97494e-05 -3.16667e-06 0.000832952
0.000690904 -4.13722e-05 -6.04506e-08
-4.13722e-05 -2.77835e-05 2.54404e-08
-6.04506e-08 2.54404e-08 -4.0693e-05
0.000749088 -4.20704e-05 1.58134e-06
-4.20704e-05 -1.75061e-06 2.00521e-06
1.58134e-06 2.00521e-06 -4.22991e-05
0.00223463 -5.49472e-05 -1.51156e-06
-5.49472e-05 0.000814673 1.14489e-07
-1.51156e-06 1.14489e-07 0.000829033
0.000680787 -3.62319e-05 1.19183e-06
-3.62319e-05 -3.99826e-05 3.68625e-06
1.19183e-06 3.68625e-06 -5.10659e-05
0.00221087 -4.78287e-05 2.16366e-05
-4.78287e-05 0.000794271 3.72937e-06
2.16366e-05 3.72937e-06 0.000810378
0.00769126 0.000106391 7.06042e-05
0.000106391 0.00231097 2.09797e-05
7.06042e-05 2.09797e-05 0.00142352
-0.00235963 -0.00012841 -1.36304e-05
-0.00012841 -0.001199 -1.64135e-06
-1.36304e-05 -1.64135e-06 -0.00115951
-0.00146896 -0.000104701 -4.37413e-05
-0.000104701 -0.000297632 -6.59246e-06
-4.37413e-05 -6.59246e-06 -0.000769892
0.000825502 -1.90023e-05 3.72171e-07
-1.90023e-05 5.99524e-05 1.1024e-06
3.72171e-07 1.1024e-06 -2.83999e-05
0.000800969 9.33899e-05 -4.89011e-07
9.33899e-05 6.45593e-05 1.21163e-10
-4.89011e-07 1.21163e-10 -3.13807e-05
0.000992616 8.19846e-05 3.77238e-07
8.19846e-05 0.00017128 -1.29181e-07
3.77238e-07 -1.29181e-07 6.86757e-05
0.001003 0.000117801 -9.7028e-07
0.000117801 0.000160852 9.56318e-08
-9.7028e-07 9.56318e-08 5.30479e-05
0.00110797 0.000127939 7.18801e-06
0.000127939 0.000206789 5.52132e-07
7.18801e-06 5.52132e-07 8.49441e-05
0.000676808 9.85595e-05 -7.1462e-07
9.85595e-05 5.90853e-06 3.72321e-07
-7.1462e-07 3.72321e-07 -0.000104193
0.00045115 4.93455e-05 -5.64098e-07
4.93455e-05 -0.000119868 1.17567e-07
-5.64098e-07 1.17567e-07 -0.000215338
0.000606345 9.55879e-05 4.89544e-07
9.55879e-05 -3.43024e-05 5.46376e-07
4.89544e-07 5.46376e-07 -0.000150303
0.000774572 8.5214e-05 -6.99805e-08
8.5214e-05 2.21805e-05 -2.02529e-07
-6.99805e-08 -2.02529e-07 -7.84252e-05
0.000141696 9.03353e-05 2.01335e-06
9.03353e-05 -0.000345771 -1.11823e-06
2.01335e-06 -1.11823e-06 -0.00046493
0.00335316 0.000277521 1.02935e-06
0.000277521 0.00117558 -1.91932e-06
1.02935e-06 -1.91932e-06 0.00105091
0.00136776 0.000221323 3.49268e-06
0.000221323 -7.3522e-06 -1.67288e-06
3.49268e-06 -1.67288e-06 -0.000146532
0.00139369 0.000192964 1.75146e-06
0.000192964 0.000188149 -1.30515e-06
1.75146e-06 -1.30515e-06 7.06738e-05
0.000860885 6.27709e-05 -4.18906e-06
6.27709e-05 9.56763e-05 1.947e-06
-4.18906e-06 1.947e-06 1.45036e-05
0.00267129 3.32977e-05 -1.50865e-05
3.32977e-05 -0.000112144 -4.64678e-06
-1.50865e-05 -4.64678e-06 -0.000397435
0.00557995 -4.39015e-05 1.47389e-05
-4.39015e-05 0.00146235 4.44804e-06
1.47389e-05 4.44804e-06 0.000320753
0.00499957 -0.000552542 -3.29022e-05
-0.000552542 0.00241216 -2.93024e-05
-3.29022e-05 -2.93024e-05 0.00239485
0.0074382 -0.000105307 0.000225649
-0.000105307 0.00244311 6.64306e-05
0.000225649 6.64306e-05 0.000856154
0.00284741 0.000341413 4.08951e-05
0.000341413 0.000438655 4.36277e-05
4.08951e-05 4.36277e-05 0.000257674
0.00219138 0.000232691 -5.80259e-05
0.000232691 2.75271e-05 -1.84413e-05
-5.80259e-05 -1.84413e-05 -0.000293001
0.00223791 0.000287936 3.70665e-05
0.000287936 0.000232974 1.92456e-05
3.70665e-05 1.92456e-05 0.000227563
0.00201652 0.000328862 -1.70023e-06
0.000328862 0.0002992 5.56857e-06
-1.70023e-06 5.56857e-06 0.000166489
0.000257764 0.000151517 -1.94982e-06
0.000151517 -0.000283284 5.21918e-06
-1.94982e-06 5.21918e-06 -0.000419664
0.00213208 0.000356626 -7.23534e-05
0.000356626 0.000284272 -4.62802e-05
-7.23534e-05 -4.62802e-05 0.000214607
0.0033045 -0.000117936 -0.000146633
-0.000117936 0.000751755 9.54885e-07
-0.000146633 9.54885e-07 0.000348422
0.007791 -1.68153e-05 1.51428e-05
-1.68153e-05 0.00262828 -1.68337e-06
1.51428e-05 -1.68337e-06 0.00198166
-0.00568278 -0.000103304 5.9125e-05
-0.000103304 -0.00294529 5.51251e-06
5.9125e-05 5.51251e-06 -0.00280269
0.0010201 -0.000182415 -5.09319e-07
-0.000182415 -4.01283e-05 6.21352e-06
-5.09319e-07 6.21352e-06 -0.000144975
0.00515022 -0.000128436 7.80407e-05
-0.000128436 0.00114824 1.85813e-06
7.80407e-05 1.85813e-06 0.000554094
0.000386869 -0.000238596 7.05552e-05
-0.000238596 -0.000946195 2.5386e-05
7.05552e-05 2.5386e-05 -0.00169612
0.00127134 -0.000125131 5.09379e-06
-0.000125131 0.000123716 -1.32247e-06
5.09379e-06 -1.32247e-06 2.86328e-06
0.00158633 4.42015e-05 -3.36171e-06
4.42015e-05 -0.000163029 1.49218e-06
-3.36171e-06 1.49218e-06 -0.000442908
0.00439556 -0.000111251 3.98147e-06
-0.000111251 0.00147966 -3.07853e-06
3.98147e-06 -3.07853e-06 0.00141083
0.00170089 2.37622e-05 2.95441e-05
2.37622e-05 2.36282e-05 -2.52286e-06
2.95441e-05 -2.52286e-06 -6.54991e-05
0.00150382 -0.000231794 2.22308e-07
-0.000231794 -0.0001702 2.39951e-06
2.22308e-07 2.39951e-06 -0.000191028
0.00197156 -0.000155935 -1.58897e-06
-0.000155935 8.70748e-06 4.63162e-07
-1.58897e-06 4.63162e-07 -1.27805e-05
0.00201027 -5.23116e-05 1.89704e-06
-5.23116e-05 7.89604e-05 -1.41104e-06
1.89704e-06 -1.41104e-06 4.43527e-05
0.00157758 -0.000178193 5.78078e-06
-0.000178193 -5.56454e-05 -2.69998e-07
5.78078e-06 -2.69998e-07 -0.000116462
0.00189721 -0.000123029 1.85532e-06
-0.000123029 4.39553e-05 -4.32705e-09
1.85532e-06 -4.32705e-09 -1.03569e-05
0.00179924 -6.20661e-05 1.34074e-06
-6.20661e-05 6.29249e-05 6.77394e-07
1.34074e-06 6.77394e-07 -3.42682e-06
0.00173987 -0.000150522 4.26488e-06
-0.000150522 3.33532e-05 2.79404e-06
4.26488e-06 2.79404e-06 -4.90114e-05
0.00179026 -0.000115482 8.79878e-07
-0.000115482 9.05351e-05 2.43783e-07
8.79878e-07 2.43783e-07 9.87604e-06
0.00176486 -8.52979e-05 3.60968e-07
-8.52979e-05 0.000116143 1.71766e-07
3.60968e-07 1.71766e-07 2.60528e-05
0.00184005 -0.000140795 3.12122e-07
-0.000140795 0.000160797 1.70962e-06
3.12122e-07 1.70962e-06 6.69273e-05
0.00165619 -0.000117893 2.02768e-07
-0.000117893 8.16186e-05 -2.22398e-08
2.02768e-07 -2.22398e-08 -1.2592e-05
0.00156241 -0.000109088 2.69758e-06
-0.000109088 6.31925e-05 1.14656e-06
2.69758e-06 1.14656e-06 -4.12671e-05
0.00140835 -0.000122557 -1.67602e-06
-0.000122557 -9.79922e-06 -6.83901e-07
-1.67602e-06 -6.83901e-07 -0.000102908
0.0015984 -0.00012637 -1.15657e-06
-0.00012637 0.000111668 -9.46386e-07
-1.15657e-06 -9.46386e-07 6.99979e-06
0.00176563 -0.000132068 5.45464e-07
-0.000132068 0.000235164 -8.71304e-07
5.45464e-07 -8.71304e-07 0.000118687
0.00156727 -0.000144071 9.11822e-07
-0.000144071 0.000132442 2.38959e-06
9.11822e-07 2.38959e-06 1.64891e-05
0.00155108 -0.000141914 5.04208e-07
-0.000141914 0.000162551 -6.1584e-07
5.04208e-07 -6.1584e-07 3.87396e-05
0.00156382 -0.000140094 -2.29796e-06
-0.000140094 0.000207188 -1.40386e-07
-2.29796e-06 -1.40386e-07 8.33545e-05
0.000785692 -0.000110087 -4.92994e-06
-0.000110087 -0.000105827 2.07364e-06
-4.92994e-06 2.07364e-06 -0.000225333
0.00111808 -0.000133275 -6.90785e-07
-0.000133275 3.05338e-05 4.75552e-07
-6.90785e-07 4.75552e-07 -0.000102081
0.00145452 -0.000153255 3.18328e-06
-0.000153255 0.000168264 -2.84591e-07
3.18328e-06 -2.84591e-07 2.72571e-05
0.00083331 -8.08636e-05 -3.87623e-06
-8.08636e-05 1.56782e-05 2.471e-06
-3.87623e-06 2.471e-06 -7.46467e-05
0.00107884 -0.000122952 2.28656e-07
-0.000122952 0.000107584 9.99879e-08
2.28656e-07 9.99879e-08 -9.21134e-06
0.00103933 -0.000131813 1.07258e-06
-0.000131813 6.21337e-05 -6.32076e-07
1.07258e-06 -6.32076e-07 -7.06883e-05
0.000587823 2.26373e-05 -4.58706e-06
2.26373e-05 -6.27117e-05 5.89686e-06
-4.58706e-06 5.89686e-06 -0.000105118
0.00085894 -6.15659e-05 1.10733e-07
-6.15659e-05 5.12221e-05 -5.67521e-08
1.10733e-07 -5.67521e-08 -3.35045e-05
0.00113231 -0.000121319 2.30866e-06
-0.000121319 0.000169538 -1.49095e-06
2.30866e-06 -1.49095e-06 5.94326e-05
0.00296911 0.000100952 -4.81266e-05
0.000100952 0.00124484 2.74367e-06
-4.81266e-05 2.74367e-06 0.00124505
0.000624436 3.50226e-05 3.53277e-07
3.50226e-05 -4.17661e-05 -1.41422e-07
3.53277e-07 -1.41422e-07 -7.78845e-05
0.000855776 -4.545e-05 3.40686e-06
-4.545e-05 6.0801e-05 -2.21807e-06
3.40686e-06 -2.21807e-06 -1.90347e-05
0.00272812 8.84384e-05 1.16975e-06
8.84384e-05 0.00111118 1.37307e-07
1.16975e-06 1.37307e-07 0.00111492
0.00066583 5.14038e-05 2.00293e-06
5.14038e-05 -1.46633e-05 -5.20306e-06
2.00293e-06 -5.20306e-06 -4.50508e-05
0.00253845 7.81861e-05 4.13253e-05
7.81861e-05 0.00100451 -2.90744e-06
4.13253e-05 -2.90744e-06 0.00101134
0.00108303 0.00012227 -3.20561e-07
0.00012227 0.000179914 -1.97155e-06
-3.20561e-07 -1.97155e-06 6.5066e-05
0.00105599 0.000113992 3.05401e-07
0.000113992 0.000176192 1.81158e-07
3.05401e-07 1.81158e-07 7.37446e-05
0.000932874 5.48918e-05 -1.26462e-06
5.48918e-05 0.000105587 -7.16134e-07
-1.26462e-06 -7.16134e-07 1.39727e-05
0.000817539 9.38825e-05 9.38425e-08
9.38825e-05 5.87468e-05 2.71955e-08
9.38425e-08 2.71955e-08 -3.32024e-05
0.000770647 -5.15719e-06 -4.46983e-07
-5.15719e-06 2.50412e-05 -1.38024e-07
-4.46983e-07 -1.38024e-07 -5.8385e-05
0.000711092 2.13139e-07 -2.00636e-06
2.13139e-07 -6.33835e-06 -2.04656e-06
-2.00636e-06 -2.04656e-06 -6.83002e-05
0.000786425 -5.71709e-05 -9.10221e-08
-5.71709e-05 2.9291e-05 1.29564e-06
-9.10221e-08 1.29564e-06 -4.43978e-05
0.000717836 -4.65879e-05 2.03964e-07
-4.65879e-05 -5.31964e-06 -3.26351e-07
2.03964e-07 -3.26351e-07 -5.67345e-05
0.000683783 -6.0538e-05 -4.38067e-07
-6.0538e-05 -1.16758e-05 -4.39944e-06
-4.38067e-07 -4.39944e-06 -3.28901e-05
0.000742689 -5.39506e-05 8.6732e-07
-5.39506e-05 1.29945e-06 2.22546e-06
8.6732e-07 2.22546e-06 -4.33378e-05
0.000680388 -4.74198e-05 1.5442e-07
-4.74198e-05 -2.51428e-05 -2.59923e-08
1.5442e-07 -2.59923e-08 -4.06008e-05
0.00227802 -6.87561e-05 -3.31436e-05
-6.87561e-05 0.00085488 -2.8638e-06
-3.31436e-05 -2.8638e-06 0.000865378
0.00223931 -6.16073e-05 -9.20146e-07
-6.16073e-05 0.000824717 1.07229e-07
-9.20146e-07 1.07229e-07 0.000837391
0.0006742 -4.02942e-05 1.8977e-06
-4.02942e-05 -3.66347e-05 3.73597e-06
1.8977e-06 3.73597e-06 -4.94421e-05
0.0022389 -5.495e-05 2.51652e-05
-5.495e-05 0.000816251 3.54678e-06
2.51652e-05 3.54678e-06 0.000830657
0.00185991 -3.54197e-05 -5.87267e-05
-3.54197e-05 -0.000114973 6.37621e-06
-5.87267e-05 6.37621e-06 -0.000390687
0.00197398 -0.000139522 1.30617e-05
-0.000139522 -0.000440005 2.92668e-06
1.30617e-05 2.92668e-06 -0.00122533
0.00332492 -0.000335371 -4.89872e-05
-0.000335371 0.00142401 -1.46159e-05
-4.89872e-05 -1.46159e-05 0.00154462
0.00127293 0.000143148 6.99291e-06
0.000143148 0.000237563 1.22702e-06
6.99291e-06 1.22702e-06 0.000104735
0.00109241 8.4657e-05 2.87102e-07
8.4657e-05 0.000224529 -1.29764e-09
2.87102e-07 -1.29764e-09 0.000122005
0.000895578 0.000111363 -9.08269e-07
0.000111363 0.000104768 4.2116e-07
-9.08269e-07 4.2116e-07 -2.02977e-06
0.000872318 0.000110595 2.85753e-07
0.000110595 0.000108948 6.18028e-07
2.85753e-07 6.18028e-07 -3.33598e-06
0.00100901 0.000123084 -2.28161e-07
0.000123084 0.000157196 -1.44682e-06
-2.28161e-07 -1.44682e-06 3.47444e-05
0.000679932 0.000108769 -3.09889e-07
0.000108769 -3.86084e-05 -3.89272e-08
-3.09889e-07 -3.89272e-08 -0.00015166
0.00098767 0.000120288 -5.48597e-07
0.000120288 0.000161015 -5.74404e-07
-5.48597e-07 -5.74404e-07 3.9048e-05
0.000914257 7.87212e-05 -2.61872e-06
7.87212e-05 9.88009e-05 2.69783e-06
-2.61872e-06 2.69783e-06 -4.87348e-06
0.000911111 0.00013261 2.73528e-07
0.00013261 5.36847e-05 -4.99001e-08
2.73528e-07 -4.99001e-08 -6.57191e-05
0.00248241 0.000233354 5.45407e-07
0.000233354 0.000742648 3.29576e-06
5.45407e-07 3.29576e-06 0.000620336
0.00173961 0.00021692 5.96116e-07
0.00021692 0.000198824 -2.11498e-06
5.96116e-07 -2.11498e-06 5.60254e-05
0.00173685 0.000198216 1.01599e-05
0.000198216 6.36135e-05 8.54174e-06
1.01599e-05 8.54174e-06 -6.46161e-05
0.00116242 0.000212736 -5.58169e-07
0.000212736 -0.0001149 -1.08252e-06
-5.58169e-07 -1.08252e-06 -0.00025648
0.00093051 0.000165615 -1.33331e-06
0.000165615 -4.53432e-05 5.60597e-06
-1.33331e-06 5.60597e-06 -0.000157674
0.000299042 9.65567e-05 -4.8816e-07
9.65567e-05 -0.000430746 7.04337e-07
-4.8816e-07 7.04337e-07 -0.00043496
0.00438919 8.0923e-05 -1.59415e-05
8.0923e-05 0.000571299 1.29788e-06
-1.59415e-05 1.29788e-06 0.000207433
0.000730108 -0.000112303 2.2818e-05
-0.000112303 -0.000877912 1.0524e-05
2.2818e-05 1.0524e-05 -0.00194963
0.00278192 0.000307802 6.00117e-05
0.000307802 0.000190893 1.92107e-05
6.00117e-05 1.92107e-05 -0.000284923
0.00141819 0.000230578 -1.38047e-05
0.000230578 -2.67584e-05 -1.04367e-06
-1.38047e-05 -1.04367e-06 -5.25034e-05
0.00055077 0.000237506 -2.15531e-05
0.000237506 -0.000360799 -1.4522e-05
-2.15531e-05 -1.4522e-05 -0.000498399
0.00250291 -9.48866e-05 1.38064e-05
-9.48866e-05 0.000411162 -1.5939e-06
1.38064e-05 -1.5939e-06 0.000305923
0.00123778 -6.53829e-06 -2.21997e-05
-6.53829e-06 -0.000138058 1.25904e-06
-2.21997e-05 1.25904e-06 -0.000482232
0.000203414 0.000218681 5.45091e-05
0.000218681 -0.00138098 -1.61461e-05
5.45091e-05 -1.61461e-05 -0.00201804
-0.000704491 -8.16917e-05 7.02485e-07
-8.16917e-05 -0.000911203 8.86771e-06
7.02485e-07 8.86771e-06 -0.000954336
0.00317681 7.06974e-05 2.84122e-05
7.06974e-05 0.000491417 4.39884e-06
2.84122e-05 4.39884e-06 0.000163726
0.00170818 -6.49892e-05 1.06055e-06
-6.49892e-05 6.37502e-05 -1.11028e-06
1.06055e-06 -1.11028e-06 2.90537e-05
0.00200175 2.4354e-05 8.68684e-08
2.4354e-05 0.000179793 -1.28998e-06
8.68684e-08 -1.28998e-06 9.42045e-05
0.00142341 -3.84278e-06 8.33863e-06
-3.84278e-06 -0.000200541 -2.3435e-06
8.33863e-06 -2.3435e-06 -0.000263251
0.00252981 6.29672e-06 2.87823e-06
6.29672e-06 0.00046159 -1.66829e-06
2.87823e-06 -1.66829e-06 0.000386905
0.00199954 -0.000160966 8.2999e-07
-0.000160966 3.0122e-05 5.23919e-07
8.2999e-07 5.23919e-07 2.23942e-06
0.00190599 -5.714e-05 3.16601e-06
-5.714e-05 1.03232e-05 2.10588e-07
3.16601e-06 2.10588e-07 -2.90444e-05
0.00181262 -5.36496e-05 -3.70214e-07
-5.36496e-05 8.12774e-05 -3.13897e-07
-3.70214e-07 -3.13897e-07 1.59622e-05
0.00189204 -0.000124221 3.61256e-06
-0.000124221 4.76477e-05 7.17875e-07
3.61256e-06 7.17875e-07 -9.82806e-06
0.0018315 -7.32342e-05 4.75394e-07
-7.32342e-05 7.59913e-05 1.54702e-07
4.75394e-07 1.54702e-07 7.00868e-06
0.00175809 -6.48794e-05 1.79778e-06
-6.48794e-05 0.000112704 1.24187e-07
1.79778e-06 1.24187e-07 2.64557e-05
0.00179949 -0.000113448 -6.56357e-07
-0.000113448 0.00010406 8.87817e-07
-6.56357e-07 8.87817e-07 2.27583e-05
0.00175043 -9.04931e-05 -1.09028e-06
-9.04931e-05 0.000109243 -1.10437e-07
-1.09028e-06 -1.10437e-07 1.8592e-05
0.00160614 -8.38158e-05 4.54029e-07
-8.38158e-05 7.04575e-05 2.94567e-07
4.54029e-07 2.94567e-07 -3.45772e-05
0.00161609 -0.000119111 -1.20809e-06
-0.000119111 6.56082e-05 -9.54228e-07
-1.20809e-06 -9.54228e-07 -2.85531e-05
0.00163017 -0.000110923 8.15761e-07
-0.000110923 9.78303e-05 2.87519e-07
8.15761e-07 2.87519e-07 -6.71494e-06
0.00157937 -0.000111533 5.61038e-07
-0.000111533 0.000100943 1.11951e-07
5.61038e-07 1.11951e-07 -1.18538e-05
0.00151728 -0.000123228 -3.54804e-06
-0.000123228 6.59055e-05 1.81256e-07
-3.54804e-06 1.81256e-07 -3.6856e-05
0.00158733 -0.000125148 -1.93365e-07
-0.000125148 0.000138779 -6.02267e-07
-1.93365e-07 -6.02267e-07 2.36203e-05
0.00148103 -0.000121054 -2.13227e-06
-0.000121054 0.00012034 2.13545e-07
-2.13227e-06 2.13545e-07 8.39188e-07
0.00154327 -0.000140682 2.07991e-06
-0.000140682 0.000157688 6.96872e-07
2.07991e-06 6.96872e-07 3.36743e-05
0.00136869 -0.000131979 5.68384e-07
-0.000131979 0.000103109 -3.9978e-07
5.68384e-07 -3.9978e-07 -2.10374e-05
0.00132857 -0.000123802 -4.77649e-06
-0.000123802 0.000129322 1.35353e-06
-4.77649e-06 1.35353e-06 1.28642e-05
0.000934936 -9.39105e-05 -5.30049e-06
-9.39105e-05 3.08223e-05 2.92356e-06
-5.30049e-06 2.92356e-06 -6.39737e-05
0.000922281 -0.000115577 -1.12579e-06
-0.000115577 -2.9839e-05 7.24627e-07
-1.12579e-06 7.24627e-07 -0.000148628
0.00120306 -0.000135493 2.33608e-06
-0.000135493 8.07984e-05 -2.24144e-07
2.33608e-06 -2.24144e-07 -5.10755e-05
0.000597262 -3.81848e-05 -7.40155e-06
-3.81848e-05 -6.02412e-05 6.63859e-06
-7.40155e-06 6.63859e-06 -0.000110141
0.000894215 -8.50826e-05 2.38644e-07
-8.50826e-05 4.8085e-05 -2.8089e-08
2.38644e-07 -2.8089e-08 -4.29641e-05
0.00112112 -0.000124826 3.03999e-06
-0.000124826 0.000127984 -1.47706e-06
3.03999e-06 -1.47706e-06 1.12611e-05
0.00322012 0.000112427 -5.65075e-05
0.000112427 0.0013877 2.76896e-06
-5.65075e-05 2.76896e-06 0.00138353
0.00065566 -7.57474e-06 -1.5331e-07
-7.57474e-06 -3.08068e-05 -1.47686e-07
-1.5331e-07 -1.47686e-07 -7.31775e-05
0.00093974 -6.80497e-05 4.04863e-06
-6.80497e-05 9.46778e-05 -2.42086e-06
4.04863e-06 -2.42086e-06 8.99877e-06
0.00301484 9.83142e-05 1.51228e-06
9.83142e-05 0.00126954 2.03977e-07
1.51228e-06 2.03977e-07 0.00126973
0.000676651 2.03165e-05 5.45864e-06
2.03165e-05 -1.52544e-05 -5.36404e-06
5.45864e-06 -5.36404e-06 -5.11883e-05
0.00281247 8.64488e-05 5.03542e-05
8.64488e-05 0.00115558 -3.0948e-06
5.03542e-05 -3.0948e-06 0.00115938
0.000877755 0.000118915 -7.52998e-07
0.000118915 3.29166e-05 -1.69351e-06
-7.52998e-07 -1.69351e-06 -9.31632e-05
0.00100229 0.000117193 -3.21407e-08
0.000117193 0.00013734 -9.19354e-07
-3.21407e-08 -9.19354e-07 2.32766e-05
0.00110383 0.000109247 -9.34064e-07
0.000109247 0.000184939 -8.41732e-07
-9.34064e-07 -8.41732e-07 8.36791e-05
0.00109735 0.000116638 -4.06958e-07
0.000116638 0.000198369 -2.60326e-07
-4.06958e-07 -2.60326e-07 9.62423e-05
0.000907854 5.69918e-05 -9.04679e-07
5.69918e-05 9.19501e-05 -4.89855e-07
-9.04679e-07 -4.89855e-07 1.18805e-06
0.000777324 1.93396e-05 -2.10779e-06
1.93396e-05 2.88659e-05 -1.71579e-06
-2.10779e-06 -1.71579e-06 -4.36073e-05
0.000765682 1.32178e-05 -8.86751e-09
1.32178e-05 2.24291e-05 1.22509e-07
-8.86751e-09 1.22509e-07 -6.2045e-05
0.00073323 -3.42298e-05 -4.28482e-07
-3.42298e-05 6.18739e-06 -2.41564e-08
-4.28482e-07 -2.41564e-08 -5.53697e-05
0.000646429 -7.04191e-05 3.81067e-07
-7.04191e-05 -2.10048e-05 -4.86784e-06
3.81067e-07 -4.86784e-06 -4.97908e-05
0.000740609 -5.59365e-05 6.14395e-07
-5.59365e-05 8.37185e-06 2.43542e-06
6.14395e-07 2.43542e-06 -4.37539e-05
0.000659903 -5.71918e-05 1.70532e-07
-5.71918e-05 -2.56034e-05 -1.13104e-07
1.70532e-07 -1.13104e-07 -4.59297e-05
0.00239328 -7.64488e-05 -3.79601e-05
-7.64488e-05 0.000924303 -2.6394e-06
-3.79601e-05 -2.6394e-06 0.000932352
0.000668957 -4.56683e-05 2.35787e-06
-4.56683e-05 -3.17602e-05 3.74345e-06
2.35787e-06 3.74345e-06 -4.68709e-05
0.00225856 -6.85561e-05 -5.05483e-07
-6.85561e-05 0.000843305 9.38263e-08
-5.05483e-07 9.38263e-08 0.000853992
0.00224439 -6.14266e-05 2.87582e-05
-6.14266e-05 0.00082657 3.30571e-06
2.87582e-05 3.30571e-06 0.000839338
0.000432305 -3.69181e-07 4.02954e-06
-3.69181e-07 -0.000453396 8.72432e-08
4.02954e-06 8.72432e-08 -0.000489192
0.00348195 -1.53482e-05 1.73981e-06
-1.53482e-05 0.000437617 1.11585e-05
1.73981e-06 1.11585e-05 5.78397e-05
0.00606323 0.000190547 -8.13035e-05
0.000190547 0.00180196 -1.78247e-05
-8.13035e-05 -1.78247e-05 0.000915679
0.000697071 0.000109096 2.54583e-06
0.000109096 -9.13115e-05 4.54478e-07
2.54583e-06 4.54478e-07 -0.000217434
0.00142619 0.000156932 2.66125e-06
0.000156932 0.000172333 -2.21312e-06
2.66125e-06 -2.21312e-06 3.15715e-05
0.000842062 0.000121791 -1.32735e-07
0.000121791 1.83241e-05 -7.88665e-07
-1.32735e-07 -7.88665e-07 -0.000112642
0.00104552 0.000121301 -1.09658e-06
0.000121301 0.000199436 -7.25859e-07
-1.09658e-06 -7.25859e-07 8.52286e-05
0.000938852 0.000119751 -8.98025e-07
0.000119751 0.000122282 -7.8947e-07
-8.98025e-07 -7.8947e-07 -8.701e-07
0.000962883 0.000127706 3.19763e-06
0.000127706 9.6546e-05 1.11656e-06
3.19763e-06 1.11656e-06 -2.06839e-05
0.00187955 0.000203326 -4.07717e-06
0.000203326 0.000308055 -5.04719e-06
-4.07717e-06 -5.04719e-06 0.000174853
0.00155222 0.000167802 1.94539e-07
0.000167802 0.000388651 1.60961e-06
1.94539e-07 1.60961e-06 0.000269373
0.000936576 0.000155155 -3.02023e-06
0.000155155 -3.29595e-05 8.73947e-06
-3.02023e-06 8.73947e-06 -0.000150856
0.0016955 0.000212572 -1.35473e-06
0.000212572 0.00019485 4.57349e-07
-1.35473e-06 4.57349e-07 5.55177e-05
0.00200217 0.000208676 -5.44372e-06
0.000208676 0.000210173 9.96423e-07
-5.44372e-06 9.96423e-07 7.34622e-05
0.00137692 7.20944e-05 1.35488e-05
7.20944e-05 -0.000179725 3.69561e-06
1.35488e-05 3.69561e-06 -0.000264288
0.00184559 0.000195906 6.81147e-06
0.000195906 0.000124224 2.86438e-06
6.81147e-06 2.86438e-06 -3.50287e-06
0.00130884 0.000216584 -5.03825e-06
0.000216584 -4.50718e-05 1.54067e-07
-5.03825e-06 1.54067e-07 -0.000188232
0.000921422 8.7434e-05 -2.30655e-06
8.7434e-05 -0.000121007 -6.09926e-08
-2.30655e-06 -6.09926e-08 -0.000132204
0.00477552 -3.31818e-05 4.57609e-05
-3.31818e-05 0.000647336 1.46062e-05
4.57609e-05 1.46062e-05 0.000258404
0.00135212 0.000200358 2.96987e-06
0.000200358 6.28135e-05 -7.8961e-06
2.96987e-06 -7.8961e-06 2.81484e-05
0.00161987 -2.27734e-05 8.18862e-06
-2.27734e-05 5.24097e-05 -4.70065e-07
8.18862e-06 -4.70065e-07 -1.33846e-05
0.00201791 -5.1245e-05 -2.43274e-06
-5.1245e-05 0.000203086 2.32901e-07
-2.43274e-06 2.32901e-07 8.65483e-05
0.00118047 8.93831e-05 5.61376e-05
8.93831e-05 -0.000384705 -3.64534e-06
5.61376e-05 -3.64534e-06 -0.00079676
-0.000907326 -2.83728e-05 -1.1437e-05
-2.83728e-05 -0.00129597 6.25421e-06
-1.1437e-05 6.25421e-06 -0.00129919
0.0024701 2.19261e-05 -4.06363e-05
2.19261e-05 0.000426293 4.62825e-06
-4.06363e-05 4.62825e-06 0.000352991
0.00132319 -2.47434e-05 7.06508e-07
-2.47434e-05 -0.000274997 2.54313e-06
7.06508e-07 2.54313e-06 -0.000327819
0.00224793 -6.76648e-06 3.80908e-07
-6.76648e-06 0.000274529 3.8042e-07
3.80908e-07 3.8042e-07 0.000200069
0.00193983 -5.92999e-05 1.20462e-06
-5.92999e-05 0.000102489 5.89512e-07
1.20462e-06 5.89512e-07 3.18924e-05
0.00154891 -2.33487e-05 6.38629e-07
-2.33487e-05 -0.000108166 -6.27914e-07
6.38629e-07 -6.27914e-07 -0.000184023
0.00191607 -6.32942e-05 5.14452e-06
-6.32942e-05 1.04245e-06 1.55164e-06
5.14452e-06 1.55164e-06 -4.13696e-05
0.00179516 -5.38595e-05 -1.7899e-06
-5.38595e-05 6.88112e-05 -1.35711e-07
-1.7899e-06 -1.35711e-07 4.51752e-06
0.00178809 -5.80555e-05 1.64143e-06
-5.80555e-05 9.88393e-05 3.73756e-07
1.64143e-06 3.73756e-07 1.38244e-05
0.00185778 -8.20311e-05 -1.84594e-06
-8.20311e-05 8.71376e-05 -1.63882e-07
-1.84594e-06 -1.63882e-07 1.6156e-05
0.00174023 -6.44954e-05 -5.43584e-07
-6.44954e-05 0.000103809 -1.65245e-07
-5.43584e-07 -1.65245e-07 1.64849e-05
0.00164737 -5.79726e-05 6.67486e-07
-5.79726e-05 7.52183e-05 1.83817e-08
6.67486e-07 1.83817e-08 -2.67123e-05
0.0017331 -9.50863e-05 -3.90715e-06
-9.50863e-05 0.000100765 -1.42252e-07
-3.90715e-06 -1.42252e-07 9.62117e-06
0.00165693 -8.40893e-05 1.49131e-07
-8.40893e-05 9.65277e-05 1.2059e-07
1.49131e-07 1.2059e-07 -8.38874e-06
0.00164302 -8.78338e-05 -5.95521e-07
-8.78338e-05 0.000113349 -1.03816e-07
-5.95521e-07 -1.03816e-07 2.32311e-06
0.00170132 -0.000112854 -1.05984e-06
-0.000112854 0.00013419 -5.51316e-07
-1.05984e-06 -5.51316e-07 2.95614e-05
0.0015804 -0.000110775 2.7551e-07
-0.000110775 0.00010092 1.47509e-07
2.7551e-07 1.47509e-07 -1.18553e-05
0.00151533 -0.000110483 -1.8792e-06
-0.000110483 0.00010526 3.89253e-07
-1.8792e-06 3.89253e-07 -1.13632e-05
0.0014118 -0.000118384 -1.27912e-07
-0.000118384 4.37348e-05 2.18497e-08
-1.27912e-07 2.18497e-08 -7.01034e-05
0.00134513 -0.000116314 -1.55032e-07
-0.000116314 4.89498e-05 -1.71187e-07
-1.55032e-07 -1.71187e-07 -7.02094e-05
0.0013133 -0.000111959 -4.80717e-06
-0.000111959 8.3535e-05 1.36053e-06
-4.80717e-06 1.36053e-06 -3.04255e-05
0.0011729 -0.000123907 3.27631e-06
-0.000123907 -1.20741e-06 -4.19417e-07
3.27631e-06 -4.19417e-07 -0.000125694
0.00109778 -0.000113675 2.50062e-07
-0.000113675 7.43517e-06 -3.24347e-08
2.50062e-07 -3.24347e-08 -0.000108861
0.0010068 -9.47714e-05 -6.93255e-06
-9.47714e-05 2.5815e-05 3.16041e-06
-6.93255e-06 3.16041e-06 -6.89869e-05
0.000514624 -6.55449e-05 -9.61421e-06
-6.55449e-05 -0.00011443 7.3446e-06
-9.61421e-06 7.3446e-06 -0.000169241
0.000951909 -9.60028e-05 2.87968e-07
-9.60028e-05 4.00452e-05 8.91757e-08
2.87968e-07 8.91757e-08 -5.50901e-05
0.00106571 -0.00012153 2.34878e-06
-0.00012153 4.98208e-05 -4.49745e-07
2.34878e-06 -4.49745e-07 -6.83124e-05
0.00344937 0.000127112 -6.09836e-05
0.000127112 0.00152584 2.84178e-06
-6.09836e-05 2.84178e-06 0.00151591
0.000675072 -3.22976e-05 -2.53835e-07
-3.22976e-05 -2.25654e-05 2.25094e-09
-2.53835e-07 2.25094e-09 -7.3148e-05
0.000978356 -8.81734e-05 4.58684e-06
-8.81734e-05 9.34029e-05 -2.49647e-06
4.58684e-06 -2.49647e-06 1.36904e-06
0.0032804 0.000110532 2.0991e-06
0.000110532 0.00142179 2.90518e-07
2.0991e-06 2.90518e-07 0.00141729
0.000737171 -9.96084e-06 7.27992e-06
-9.96084e-06 9.60694e-06 -5.80304e-06
7.27992e-06 -5.80304e-06 -3.29137e-05
0.0030764 9.55643e-05 5.88741e-05
9.55643e-05 0.00130243 -3.09826e-06
5.88741e-05 -3.09826e-06 0.00130262
0.000595431 0.000113186 -1.55624e-06
0.000113186 -0.000200636 -1.06451e-06
-1.55624e-06 -1.06451e-06 -0.000336571
0.000685795 0.000108994 -8.99608e-08
0.000108994 -7.1466e-05 -1.39291e-07
-8.99608e-08 -1.39291e-07 -0.000198389
0.00113138 0.00012001 -2.0587e-06
0.00012001 0.000167536 -1.155e-06
-2.0587e-06 -1.155e-06 5.51493e-05
0.000913617 0.000111639 -3.58862e-07
0.000111639 9.05224e-05 -1.14307e-07
-3.58862e-07 -1.14307e-07 -2.26923e-05
0.00098389 0.000101723 -2.45746e-07
0.000101723 0.00012222 -3.29427e-07
-2.45746e-07 -3.29427e-07 2.19474e-05
0.000903942 4.7756e-05 -3.07663e-06
4.7756e-05 9.33e-05 -1.66211e-06
-3.07663e-06 -1.66211e-06 1.22407e-05
0.000878164 5.85015e-05 2.27635e-08
5.85015e-05 7.59735e-05 -5.5105e-07
2.27635e-08 -5.5105e-07 -1.39984e-05
0.000767859 4.59574e-06 -1.8383e-08
4.59574e-06 2.70837e-05 9.72791e-08
-1.8383e-08 9.72791e-08 -4.62261e-05
0.000644504 -4.94731e-05 -3.08514e-06
-4.94731e-05 -2.34754e-05 -4.78639e-06
-3.08514e-06 -4.78639e-06 -5.70054e-05
0.000747425 -5.59888e-05 6.22236e-07
-5.59888e-05 1.57919e-05 2.57039e-06
6.22236e-07 2.57039e-06 -4.64376e-05
0.000616646 -6.80506e-05 -4.55237e-08
-6.80506e-05 -3.86665e-05 -1.5297e-07
-4.55237e-08 -1.5297e-07 -6.65392e-05
0.00258024 -8.51531e-05 -4.4056e-05
-8.51531e-05 0.00103063 -2.57456e-06
-4.4056e-05 -2.57456e-06 0.00103576
0.000632246 -5.31874e-05 2.2331e-06
-5.31874e-05 -4.17399e-05 3.88012e-06
2.2331e-06 3.88012e-06 -6.11045e-05
0.00235642 -7.65554e-05 -5.76182e-07
-7.65554e-05 0.000903969 9.25898e-08
-5.76182e-07 9.25898e-08 0.000912166
0.00225617 -6.82658e-05 3.14207e-05
-6.82658e-05 0.000840952 3.00831e-06
3.14207e-05 3.00831e-06 0.000851831
0.00140587 1.39855e-05 1.21201e-05
1.39855e-05 -0.000149883 1.02678e-06
1.21201e-05 1.02678e-06 -0.00021663
0.00117376 -3.18457e-05 -2.01488e-06
-3.18457e-05 -0.000154844 3.26797e-06
-2.01488e-06 3.26797e-06 -0.000211811
0.00262241 -6.61867e-05 7.36386e-05
-6.61867e-05 3.18061e-05 8.45844e-06
7.36386e-05 8.45844e-06 -0.000277993
0.00177457 0.000169788 4.41881e-07
0.000169788 0.000280442 -3.31046e-06
4.41881e-07 -3.31046e-06 0.000147472
0.00074932 0.000115142 -1.34507e-06
0.000115142 -4.72644e-05 1.50651e-06
-1.34507e-06 1.50651e-06 -0.000166961
0.00114126 0.000139028 -3.31123e-06
0.000139028 -8.32186e-05 2.10851e-06
-3.31123e-06 2.10851e-06 -0.000208927
0.0015674 0.000164409 5.24869e-07
0.000164409 0.000241809 1.51281e-07
5.24869e-07 1.51281e-07 0.000100503
0.000420014 0.000100638 -3.01016e-06
0.000100638 -0.000195592 2.24582e-06
-3.01016e-06 2.24582e-06 -0.000324791
0.00185561 0.000173613 -4.86672e-06
0.000173613 0.000142315 -5.04514e-07
-4.86672e-06 -5.04514e-07 1.65968e-05
0.00122063 0.000145291 -9.86205e-07
0.000145291 0.000219008 7.60108e-07
-9.86205e-07 7.60108e-07 9.776e-05
0.00175969 0.000195704 4.04455e-07
0.000195704 0.000238875 -1.86418e-06
4.04455e-07 -1.86418e-06 0.000103186
0.00178916 0.000109731 -6.14313e-07
0.000109731 8.13382e-05 1.66195e-06
-6.14313e-07 1.66195e-06 -2.64213e-05
0.00175544 0.000214927 2.73231e-06
0.000214927 0.000244579 3.86841e-06
2.73231e-06 3.86841e-06 0.000108045
0.0020394 0.000210089 -2.10885e-06
0.000210089 0.000223012 -1.02975e-07
-2.10885e-06 -1.02975e-07 8.73014e-05
0.00149659 8.30028e-05 -3.61206e-07
8.30028e-05 -9.52191e-05 -6.71713e-07
-3.61206e-07 -6.71713e-07 -0.000180975
0.00167952 0.000181867 -1.73685e-06
0.000181867 5.77944e-05 -2.48568e-06
-1.73685e-06 -2.48568e-06 -6.99358e-05
0.00100416 8.14008e-05 -8.4828e-06
8.14008e-05 -7.75025e-05 -4.1835e-06
-8.4828e-06 -4.1835e-06 -9.35748e-05
0.00171519 -9.46653e-06 -1.21197e-07
-9.46653e-06 3.52614e-06 3.13585e-07
-1.21197e-07 3.13585e-07 -7.48573e-05
0.00186715 -6.8485e-06 -1.44661e-06
-6.8485e-06 0.000181889 -6.84375e-08
-1.44661e-06 -6.84375e-08 0.000116206
0.00116108 5.54813e-07 -2.06664e-05
5.54813e-07 -0.000200838 1.55733e-06
-2.06664e-05 1.55733e-06 -0.000338879
0.00126861 -4.34418e-05 -4.83982e-06
-4.34418e-05 -0.000335202 2.60758e-06
-4.83982e-06 2.60758e-06 -0.000378466
0.00198518 -1.8899e-05 1.71268e-06
-1.8899e-05 9.62535e-05 5.32246e-07
1.71268e-06 5.32246e-07 2.18114e-05
0.00204823 -5.48447e-05 -2.00083e-06
-5.48447e-05 0.000159329 4.01913e-09
-2.00083e-06 4.01913e-09 9.04196e-05
0.0017346 -2.54383e-05 1.27645e-06
-2.54383e-05 -4.64752e-06 3.67472e-07
1.27645e-06 3.67472e-07 -7.91448e-05
0.00173138 -3.49739e-05 5.70945e-07
-3.49739e-05 3.3574e-05 -5.75641e-07
5.70945e-07 -5.75641e-07 -5.11793e-05
0.00172745 -5.45421e-05 -2.04883e-06
-5.45421e-05 2.98411e-05 -3.50028e-07
-2.04883e-06 -3.50028e-07 -3.429e-05
0.00181021 -5.58264e-05 2.91011e-07
-5.58264e-05 0.000113565 -7.09614e-08
2.91011e-07 -7.09614e-08 2.85026e-05
0.00177289 -4.14891e-05 2.28353e-07
-4.14891e-05 0.000103968 -3.26484e-07
2.28353e-07 -3.26484e-07 4.71577e-06
0.00172357 -6.49364e-05 -3.66768e-06
-6.49364e-05 9.51744e-05 -7.50363e-08
-3.66768e-06 -7.50363e-08 6.73407e-06
0.00165682 -5.75731e-05 -2.17342e-07
-5.75731e-05 8.32719e-05 4.57331e-08
-2.17342e-07 4.57331e-08 -1.94371e-05
0.00172714 -5.40007e-05 -6.55807e-07
-5.40007e-05 0.000145665 2.70553e-07
-6.55807e-07 2.70553e-07 3.36321e-05
0.00170487 -8.42557e-05 -3.11652e-07
-8.42557e-05 0.000121121 -3.17376e-08
-3.11652e-07 -3.17376e-08 1.63227e-05
0.00161857 -8.65009e-05 6.5702e-08
-8.65009e-05 0.000100805 -6.36764e-08
6.5702e-08 -6.36764e-08 -1.0219e-05
0.00154004 -8.94921e-05 -2.10361e-06
-8.94921e-05 9.41217e-05 -1.5156e-07
-2.10361e-06 -1.5156e-07 -1.9601e-05
0.00157808 -0.000109962 6.24599e-07
-0.000109962 9.92007e-05 4.68192e-08
6.24599e-07 4.68192e-08 -1.35609e-05
0.00150389 -0.000109472 1.04488e-07
-0.000109472 9.92036e-05 2.44218e-07
1.04488e-07 2.44218e-07 -1.73017e-05
0.00137017 -0.000102218 -4.54346e-06
-0.000102218 7.96591e-05 1.25214e-06
-4.54346e-06 1.25214e-06 -3.30429e-05
0.00121295 -0.000111664 2.00333e-06
-0.000111664 -2.06072e-05 -4.58494e-07
2.00333e-06 -4.58494e-07 -0.000139407
0.00129293 -0.000110412 1.38049e-08
-0.000110412 7.31471e-05 -1.63992e-08
1.38049e-08 -1.63992e-08 -4.06232e-05
0.00106245 -8.90994e-05 -8.15412e-06
-8.90994e-05 2.04727e-05 3.36557e-06
-8.15412e-06 3.36557e-06 -7.39463e-05
0.000868907 -0.000103544 4.19764e-06
-0.000103544 -0.000113478 -1.04942e-06
4.19764e-06 -1.04942e-06 -0.000229597
0.00101125 -9.49863e-05 2.95595e-07
-9.49863e-05 2.82445e-05 1.3823e-08
2.95595e-07 1.3823e-08 -6.66945e-05
0.00189728 -1.95382e-05 -8.278e-06
-1.95382e-05 0.000630748 5.28368e-06
-8.278e-06 5.28368e-06 0.000576811
0.00110503 2.01747e-05 -7.37782e-05
2.01747e-05 0.000245817 8.21502e-06
-7.37782e-05 8.21502e-06 0.000226144
0.00132979 -4.06597e-05 -3.66676e-07
-4.06597e-05 0.00032599 -7.84717e-08
-3.66676e-07 -7.84717e-08 0.000272007
0.000985218 -9.87378e-05 5.66203e-06
-9.87378e-05 5.82811e-05 -2.54312e-06
5.66203e-06 -2.54312e-06 -3.72963e-05
0.00357385 0.000116389 4.73928e-06
0.000116389 0.00159344 3.47646e-07
4.73928e-06 3.47646e-07 0.00158441
0.000771894 -4.92435e-05 9.18199e-06
-4.92435e-05 2.28455e-05 -6.62461e-06
9.18199e-06 -6.62461e-06 -2.74958e-05
0.00332304 9.84665e-05 7.05938e-05
9.84665e-05 0.00144495 -3.22162e-06
7.05938e-05 -3.22162e-06 0.00144164
0.00149431 0.000135603 1.95135e-08
0.000135603 7.32134e-05 3.50531e-07
1.95135e-08 3.50531e-07 -4.48086e-05
0.000907069 0.00012867 1.31097e-06
0.00012867 -0.000116618 1.69147e-06
1.31097e-06 1.69147e-06 -0.000246052
0.000885453 0.000128769 -1.57994e-07
0.000128769 -5.45905e-05 -7.61857e-08
-1.57994e-07 -7.61857e-08 -0.000192341
0.00112946 0.000125375 -2.97561e-06
0.000125375 0.000116895 -8.01662e-07
-2.97561e-06 -8.01662e-07 -2.15113e-06
0.000494513 9.91606e-05 2.66541e-07
9.91606e-05 -0.000175463 1.76129e-06
2.66541e-07 1.76129e-06 -0.000303249
0.00102735 0.00011311 -4.28918e-07
0.00011311 0.000114335 -8.76684e-08
-4.28918e-07 -8.76684e-08 2.82148e-06
0.000976492 7.47973e-05 -3.83198e-06
7.47973e-05 0.000114768 -1.77606e-06
-3.83198e-06 -1.77606e-06 2.72049e-05
0.000873872 9.46507e-05 9.10504e-07
9.46507e-05 6.48158e-05 4.25581e-07
9.10504e-07 4.25581e-07 -3.45186e-05
0.000813091 4.03146e-05 -2.05105e-07
4.03146e-05 4.61331e-05 9.66019e-08
-2.05105e-07 9.66019e-08 -3.44699e-05
0.000703687 -1.22933e-05 -5.74174e-06
-1.22933e-05 2.64103e-06 -5.06834e-06
-5.74174e-06 -5.06834e-06 -3.6943e-05
0.000774374 -9.41899e-06 1.10493e-06
-9.41899e-06 3.09666e-05 1.82215e-06
1.10493e-06 1.82215e-06 -4.12247e-05
0.000596454 -6.13815e-05 -6.99757e-07
-6.13815e-05 -4.74553e-05 -1.09299e-07
-6.99757e-07 -1.09299e-07 -8.16933e-05
0.00279846 -9.46311e-05 -5.11212e-05
-9.46311e-05 0.00115428 -2.60982e-06
-5.11212e-05 -2.60982e-06 0.00115573
0.000584339 -6.47504e-05 1.20109e-06
-6.47504e-05 -5.7785e-05 4.44405e-06
1.20109e-06 4.44405e-06 -8.45312e-05
0.00252418 -8.56992e-05 -7.54274e-07
-8.56992e-05 0.00100064 1.1663e-07
-7.54274e-07 1.1663e-07 0.0010059
0.00231391 -7.59857e-05 3.39611e-05
-7.59857e-05 0.000880405 2.69712e-06
3.39611e-05 2.69712e-06 0.000888902
0.00179025 4.60982e-05 5.32489e-07
4.60982e-05 5.59231e-05 1.12778e-06
5.32489e-07 1.12778e-06 -3.26871e-05
0.00193293 8.13624e-06 -8.43871e-07
8.13624e-06 0.000153801 -7.18035e-07
-8.43871e-07 -7.18035e-07 8.9294e-05
0.00247345 -7.37546e-05 -1.15869e-05
-7.37546e-05 0.000424771 -5.68572e-07
-1.15869e-05 -5.68572e-07 0.000343872
0.00171065 0.00014542 -5.19974e-06
0.00014542 0.000108762 -6.40923e-08
-5.19974e-06 -6.40923e-08 -9.61226e-06
0.00169379 0.000166051 -1.42853e-06
0.000166051 0.000253256 2.25623e-07
-1.42853e-06 2.25623e-07 0.000123629
0.000735359 0.00011839 -8.19996e-06
0.00011839 -3.90455e-05 3.36677e-06
-8.19996e-06 3.36677e-06 -0.000152026
0.00154828 0.000153224 2.30875e-06
0.000153224 0.00013044 8.34658e-07
2.30875e-06 8.34658e-07 5.69458e-06
0.00171584 0.000172347 -1.21689e-06
0.000172347 0.0003152 2.24555e-07
-1.21689e-06 2.24555e-07 0.00017332
0.00203722 0.00011188 -3.78281e-06
0.00011188 0.000196196 9.15324e-07
-3.78281e-06 9.15324e-07 8.83354e-05
0.00175871 0.000172976 -2.3294e-06
0.000172976 9.2381e-05 -2.19866e-07
-2.3294e-06 -2.19866e-07 -3.5224e-05
0.00163764 0.000188495 2.96785e-06
0.000188495 0.000168644 2.15581e-06
2.96785e-06 2.15581e-06 3.02151e-05
0.00177515 0.000110905 -5.26521e-07
0.000110905 6.77702e-05 4.28739e-08
-5.26521e-07 4.28739e-08 -4.04812e-05
0.00205005 0.00020938 4.54391e-06
0.00020938 0.000218944 -4.78797e-07
4.54391e-06 -4.78797e-07 8.46027e-05
0.00164012 9.29341e-05 -1.62069e-05
9.29341e-05 -1.4052e-05 -5.76375e-06
-1.62069e-05 -5.76375e-06 -0.000100087
0.00191962 3.69162e-07 -1.34981e-07
3.69162e-07 0.000120443 3.76313e-08
-1.34981e-07 3.76313e-08 3.45417e-05
0.00176117 -5.10072e-06 2.43919e-07
-5.10072e-06 2.99081e-05 -4.50286e-07
2.43919e-07 -4.50286e-07 -4.75886e-05
0.0020884 8.48589e-06 -1.03971e-05
8.48589e-06 0.000295733 7.89697e-07
-1.03971e-05 7.89697e-07 0.00023029
0.00215932 -5.17094e-05 -5.09794e-06
-5.17094e-05 0.000218725 -2.29092e-07
-5.09794e-06 -2.29092e-07 0.000151583
0.00193579 -2.67569e-05 1.27702e-06
-2.67569e-05 0.000105562 9.56552e-07
1.27702e-06 9.56552e-07 3.25406e-05
0.00182251 -3.41358e-05 -2.08293e-07
-3.41358e-05 7.58673e-05 -1.69523e-07
-2.08293e-07 -1.69523e-07 -6.85411e-06
0.00183645 -1.93403e-05 -9.4003e-08
-1.93403e-05 0.000109507 -4.24627e-07
-9.4003e-08 -4.24627e-07 9.77449e-06
0.00184948 -5.39947e-05 -2.89507e-07
-5.39947e-05 0.000137096 -3.53087e-08
-2.89507e-07 -3.53087e-08 5.19354e-05
0.00176815 -4.29073e-05 -5.39291e-07
-4.29073e-05 0.000107198 -9.14123e-08
-5.39291e-07 -9.14123e-08 7.65226e-06
0.00175294 -2.92761e-05 -1.60828e-07
-2.92761e-05 0.000133856 8.25044e-08
-1.60828e-07 8.25044e-08 2.01836e-05
0.00166793 -5.7362e-05 -7.45686e-07
-5.7362e-05 9.20775e-05 9.10073e-08
-7.45686e-07 9.10073e-08 -1.14059e-05
0.00164198 -5.31281e-05 -1.15355e-07
-5.31281e-05 0.000101138 -1.06552e-07
-1.15355e-07 -1.06552e-07 -1.09099e-05
0.00154588 -5.87789e-05 -1.93922e-06
-5.87789e-05 8.49387e-05 5.04047e-07
-1.93922e-06 5.04047e-07 -3.04146e-05
0.00159687 -8.51307e-05 9.42613e-07
-8.51307e-05 8.9665e-05 -4.60517e-08
9.42613e-07 -4.60517e-08 -2.13442e-05
0.0015457 -8.89371e-05 -9.45187e-08
-8.89371e-05 9.69607e-05 -1.27958e-07
-9.45187e-08 -1.27958e-07 -1.67133e-05
0.00140377 -8.51954e-05 -4.55791e-06
-8.51954e-05 7.39016e-05 6.28419e-07
-4.55791e-06 6.28419e-07 -3.68453e-05
0.00149131 -0.000108454 2.34528e-06
-0.000108454 9.25586e-05 5.23282e-08
2.34528e-06 5.23282e-08 -2.38328e-05
0.00135907 -0.00010107 7.76124e-08
-0.00010107 7.38446e-05 2.38637e-07
7.76124e-08 2.38637e-07 -3.86748e-05
0.00111556 -8.19557e-05 -8.79671e-06
-8.19557e-05 2.15019e-05 3.17597e-06
-8.79671e-06 3.17597e-06 -7.33858e-05
0.00127305 -0.000108896 4.44932e-06
-0.000108896 6.30336e-05 -1.30715e-06
4.44932e-06 -1.30715e-06 -5.05523e-05
0.00106288 -8.84681e-05 3.33984e-07
-8.84681e-05 2.00568e-05 -2.44002e-08
3.33984e-07 -2.44002e-08 -7.43461e-05
0.00202082 -2.08672e-05 -9.65118e-06
-2.08672e-05 0.000680102 4.9719e-06
-9.65118e-06 4.9719e-06 0.000627541
0.00100904 -9.51066e-05 6.97738e-06
-9.51066e-05 2.74504e-05 -2.96853e-06
6.97738e-06 -2.96853e-06 -6.76767e-05
0.00210633 -4.75177e-05 2.32783e-05
-4.75177e-05 0.000734733 -1.32644e-06
2.32783e-05 -1.32644e-06 0.000683626
0.00133096 -2.44639e-05 -9.39989e-05
-2.44639e-05 0.000372031 1.02705e-05
-9.39989e-05 1.02705e-05 0.000352039
0.0024731 4.36676e-05 -7.56112e-05
4.36676e-05 0.000999078 1.87234e-06
-7.56112e-05 1.87234e-06 0.000984748
0.00216778 -6.4238e-05 4.9261e-05
-6.4238e-05 0.000772301 -6.1197e-06
4.9261e-05 -6.1197e-06 0.000726464
0.00366463 8.8023e-05 8.52483e-05
8.8023e-05 0.00164145 -4.49103e-06
8.52483e-05 -4.49103e-06 0.00163468
0.00164344 0.000120304 -3.34906e-06
0.000120304 8.84235e-05 -2.61578e-06
-3.34906e-06 -2.61578e-06 -3.02291e-05
0.00166021 0.00014631 3.7e-06
0.00014631 0.00022473 3.2127e-07
3.7e-06 3.2127e-07 0.000104044
0.00141381 0.000134039 9.58539e-07
0.000134039 3.57493e-05 1.10032e-06
9.58539e-07 1.10032e-06 -7.6049e-05
0.00117011 0.000129955 -3.45447e-06
0.000129955 7.63019e-05 -6.82969e-07
-3.45447e-06 -6.82969e-07 -4.45629e-05
0.00120528 0.00014336 -6.86282e-08
0.00014336 3.99594e-05 5.4931e-08
-6.86282e-08 5.4931e-08 -9.05325e-05
0.00114087 0.000142871 2.04012e-06
0.000142871 7.3405e-05 5.42732e-07
2.04012e-06 5.42732e-07 -6.60784e-05
0.00110354 0.000124275 -3.89973e-07
0.000124275 0.000104776 8.41063e-08
-3.89973e-07 8.41063e-08 -1.45007e-05
0.000987258 9.41096e-05 -4.73075e-06
9.41096e-05 8.7532e-05 -2.1519e-06
-4.73075e-06 -2.1519e-06 -6.18758e-06
0.00092116 0.000106136 1.20698e-06
0.000106136 5.98592e-05 9.41789e-07
1.20698e-06 9.41789e-07 -5.07615e-05
0.000855806 6.92917e-05 -3.10364e-07
6.92917e-05 5.02733e-05 -5.53225e-08
-3.10364e-07 -5.53225e-08 -3.60089e-05
0.000765144 2.36947e-05 -7.47443e-06
2.36947e-05 3.03214e-05 -5.63892e-06
-7.47443e-06 -5.63892e-06 -1.67364e-05
0.000700611 3.28732e-05 1.52018e-06
3.28732e-05 -1.29441e-05 1.40176e-06
1.52018e-06 1.40176e-06 -9.2809e-05
0.000624345 -2.9131e-05 1.46537e-07
-2.9131e-05 -3.64152e-05 -1.97871e-07
1.46537e-07 -1.97871e-07 -7.63076e-05
0.00304682 -0.000101337 -6.19446e-05
-0.000101337 0.00129883 -2.61346e-06
-6.19446e-05 -2.61346e-06 0.00129606
0.000537286 -7.42005e-05 -2.74979e-07
-7.42005e-05 -7.5299e-05 5.24028e-06
-2.74979e-07 5.24028e-06 -0.000111665
0.00275084 -9.65229e-05 -1.18021e-06
-9.65229e-05 0.00112856 1.68348e-07
-1.18021e-06 1.68348e-07 0.00113011
0.00248003 -8.56909e-05 3.79311e-05
-8.56909e-05 0.000976725 2.44276e-06
3.79311e-05 2.44276e-06 0.000982262
0.00189522 4.99681e-05 -2.60812e-06
4.99681e-05 0.000102261 7.45695e-07
-2.60812e-06 7.45695e-07 7.85654e-06
0.00173933 4.55459e-05 7.10594e-07
4.55459e-05 3.17873e-05 -1.26533e-07
7.10594e-07 -1.26533e-07 -5.69014e-05
0.00232535 2.99022e-06 -2.57801e-05
2.99022e-06 0.000398179 -2.59233e-06
-2.57801e-05 -2.59233e-06 0.000335813
0.00186479 0.000101729 -4.73894e-07
0.000101729 0.000137602 7.82947e-07
-4.73894e-07 7.82947e-07 2.65447e-05
0.00178578 0.000147204 -7.09207e-07
0.000147204 0.000151347 -5.31337e-07
-7.09207e-07 -5.31337e-07 3.21009e-05
0.00165425 0.000163822 -1.88392e-06
0.000163822 0.000247154 1.55625e-06
-1.88392e-06 1.55625e-06 0.000120838
0.00189649 0.00016498 1.58245e-06
0.00016498 0.000313638 -9.64803e-07
1.58245e-06 -9.64803e-07 0.000189932
0.00190422 0.000108331 6.60998e-08
0.000108331 0.000125206 -8.00863e-08
6.60998e-08 -8.00863e-08 1.69451e-05
0.00168467 0.000173295 1.54698e-06
0.000173295 5.40884e-05 -8.12624e-08
1.54698e-06 -8.12624e-08 -7.5389e-05
0.00172617 0.000111332 2.09931e-06
0.000111332 4.21837e-05 -1.3802e-06
2.09931e-06 -1.3802e-06 -6.66145e-05
0.00182534 8.79713e-06 7.40238e-07
8.79713e-06 8.41867e-05 1.02192e-07
7.40238e-07 1.02192e-07 -1.27142e-05
0.00186812 1.33211e-06 -3.92098e-07
1.33211e-06 9.30574e-05 -5.40337e-08
-3.92098e-07 -5.40337e-08 5.88798e-06
0.00180767 -8.71915e-07 -2.07128e-06
-8.71915e-07 5.90708e-05 -9.00474e-08
-2.07128e-06 -9.00474e-08 -1.76034e-05
0.00174878 5.42771e-08 -3.96304e-07
5.42771e-08 6.3213e-05 -1.66336e-07
-3.96304e-07 -1.66336e-07 -4.13659e-05
0.00188195 -3.26841e-05 -6.06691e-07
-3.26841e-05 0.000102323 4.58425e-07
-6.06691e-07 4.58425e-07 2.16649e-05
0.00184125 -1.91729e-05 -1.10837e-07
-1.91729e-05 0.000112718 3.05563e-07
-1.10837e-07 3.05563e-07 1.30204e-05
0.00183114 -1.14803e-05 3.78648e-07
-1.14803e-05 0.000149439 -8.14145e-07
3.78648e-07 -8.14145e-07 3.78661e-05
0.00176157 -4.41808e-05 -1.06523e-06
-4.41808e-05 0.000109556 4.48352e-07
-1.06523e-06 4.48352e-07 9.7197e-06
0.00168581 -2.91073e-05 -6.84372e-08
-2.91073e-05 9.73187e-05 1.70115e-07
-6.84372e-08 1.70115e-07 -1.64318e-05
0.00155869 -2.69764e-05 -2.46411e-06
-2.69764e-05 7.24654e-05 1.17795e-06
-2.46411e-06 1.17795e-06 -4.71805e-05
0.00154732 -5.16445e-05 4.63851e-07
-5.16445e-05 5.18215e-05 -4.89746e-07
4.63851e-07 -4.89746e-07 -6.02464e-05
0.00156555 -5.72774e-05 -3.62427e-08
-5.72774e-05 9.50144e-05 -2.79932e-07
-3.62427e-08 -2.79932e-07 -2.02233e-05
0.0014245 -6.24484e-05 -4.32102e-06
-6.24484e-05 7.16411e-05 8.65677e-07
-4.32102e-06 8.65677e-07 -4.01967e-05
0.00155018 -8.82797e-05 2.25304e-06
-8.82797e-05 9.91896e-05 -1.48855e-07
2.25304e-06 -1.48855e-07 -1.44286e-05
0.00140657 -8.44506e-05 -7.93014e-08
-8.44506e-05 7.51362e-05 4.75893e-09
-7.93014e-08 4.75893e-09 -3.55005e-05
0.00114456 -6.99629e-05 -9.13487e-06
-6.99629e-05 1.85237e-05 2.31169e-06
-9.13487e-06 2.31169e-06 -7.58877e-05
0.0013459 -9.98108e-05 4.68123e-06
-9.98108e-05 6.69317e-05 -7.72981e-07
4.68123e-06 -7.72981e-07 -4.53961e-05
0.00110965 -8.02764e-05 3.4314e-07
-8.02764e-05 1.7075e-05 2.18933e-07
3.4314e-07 2.18933e-07 -7.75244e-05
0.00214516 -4.43962e-05 -1.67974e-05
-4.43962e-05 0.000723884 3.92314e-06
-1.67974e-05 3.92314e-06 0.000676564
0.00105456 -8.75854e-05 8.05609e-06
-8.75854e-05 1.50129e-05 -3.32895e-06
8.05609e-06 -3.32895e-06 -7.93596e-05
0.00219653 -6.26737e-05 2.09971e-05
-6.26737e-05 0.000763834 -1.72145e-06
2.09971e-05 -1.72145e-06 0.000716325
0.00143993 -2.44169e-05 -9.60179e-05
-2.44169e-05 0.000429535 9.80061e-06
-9.60179e-05 9.80061e-06 0.000408195
0.00229529 -8.20316e-05 5.73673e-05
-8.20316e-05 0.000825093 -8.54025e-06
5.73673e-05 -8.54025e-06 0.000778246
0.00132174 3.1978e-05 -4.68937e-05
3.1978e-05 0.000380284 3.07142e-06
-4.68937e-05 3.07142e-06 0.000351919
0.00376048 0.000190975 6.2138e-06
0.000190975 0.00172494 -2.42115e-06
6.2138e-06 -2.42115e-06 0.00169797
0.00180113 9.00219e-05 -1.25887e-06
9.00219e-05 0.000154505 6.03031e-08
-1.25887e-06 6.03031e-08 3.67138e-05
0.00158404 0.000116782 -9.83802e-07
0.000116782 0.000107469 -2.54872e-06
-9.83802e-07 -2.54872e-06 -1.20461e-05
0.00172477 0.000124398 -2.7921e-06
0.000124398 0.000141044 7.57648e-07
-2.7921e-06 7.57648e-07 2.33831e-05
0.00169023 0.000142217 -2.29629e-06
0.000142217 0.000295881 -3.17252e-07
-2.29629e-06 -3.17252e-07 0.000178871
0.00146297 0.000141271 4.7674e-07
0.000141271 0.000116773 -1.248e-06
4.7674e-07 -1.248e-06 -3.25382e-06
0.00138347 0.000134217 2.97894e-06
0.000134217 2.38797e-05 1.7801e-06
2.97894e-06 1.7801e-06 -8.16831e-05
0.00100449 0.000102549 -6.41907e-06
0.000102549 4.79335e-05 -2.65468e-06
-6.41907e-06 -2.65468e-06 -5.03985e-05
0.00120084 0.000132268 -1.89302e-07
0.000132268 9.30516e-05 6.65111e-08
-1.89302e-07 6.65111e-08 -2.84665e-05
0.00153078 0.000159213 3.11149e-06
0.000159213 0.000210688 -2.4821e-07
3.11149e-06 -2.4821e-07 7.9076e-05
0.00107365 0.000123071 2.43957e-06
0.000123071 9.05975e-05 1.09615e-06
2.43957e-06 1.09615e-06 -2.89109e-05
0.000918589 8.96626e-05 -3.90984e-07
8.96626e-05 5.10682e-05 -1.30998e-07
-3.90984e-07 -1.30998e-07 -4.20523e-05
0.000788513 6.75437e-05 -1.04228e-05
6.75437e-05 3.7839e-05 -6.56629e-06
-1.04228e-05 -6.56629e-06 -1.68728e-05
0.000745862 6.38942e-05 2.71318e-06
6.38942e-05 -8.46346e-06 1.49172e-06
2.71318e-06 1.49172e-06 -9.36185e-05
0.000669134 1.90561e-05 6.44629e-08
1.90561e-05 -1.49951e-05 -4.7696e-08
6.44629e-08 -4.7696e-08 -6.2527e-05
0.00336732 -8.97799e-05 -7.7481e-05
-8.97799e-05 0.00148607 -3.7038e-06
-7.7481e-05 -3.7038e-06 0.00147985
0.000560876 -4.52062e-05 1.81567e-06
-4.52062e-05 -6.64223e-05 5.43528e-06
1.81567e-06 5.43528e-06 -0.000106909
0.00300579 -0.000109464 -1.85414e-06
-0.000109464 0.00127586 2.66587e-07
-1.85414e-06 2.66587e-07 0.00127241
0.00271173 -9.73433e-05 4.30316e-05
-9.73433e-05 0.00110708 2.32962e-06
4.30316e-05 2.32962e-06 0.00110897
0.00178384 4.88982e-05 3.94429e-07
4.88982e-05 6.73472e-05 6.8358e-07
3.94429e-07 6.8358e-07 -3.44966e-05
0.00183638 5.18058e-05 -6.92088e-07
5.18058e-05 6.93407e-05 1.59638e-07
-6.92088e-07 1.59638e-07 -2.50618e-05
0.00171865 4.51891e-05 -2.44934e-07
4.51891e-05 1.93069e-05 -1.41495e-06
-2.44934e-07 -1.41495e-06 -6.94169e-05
0.00185014 0.000100155 7.7471e-07
0.000100155 0.000126588 -8.93422e-08
7.7471e-07 -8.93422e-08 1.68889e-05
0.0018902 0.000150353 8.5606e-07
0.000150353 0.000209383 -6.44754e-07
8.5606e-07 -6.44754e-07 8.91774e-05
0.00177744 0.00010454 2.92959e-06
0.00010454 5.8027e-05 -1.02792e-06
2.92959e-06 -1.02792e-06 -5.05876e-05
0.0018444 1.23572e-05 -1.19089e-07
1.23572e-05 0.000110187 1.40262e-07
-1.19089e-07 1.40262e-07 6.52387e-06
0.00186069 1.05865e-05 3.73714e-07
1.05865e-05 0.00010257 -1.56751e-07
3.73714e-07 -1.56751e-07 4.89123e-06
0.00182852 2.96468e-06 9.03419e-07
2.96468e-06 7.06585e-05 -6.16294e-08
9.03419e-07 -6.16294e-08 -1.77801e-05
0.00179088 -7.82624e-06 -8.89985e-07
-7.82624e-06 8.57566e-05 1.33383e-07
-8.89985e-07 1.33383e-07 -1.78658e-05
0.00177343 -3.9022e-06 8.20834e-07
-3.9022e-06 0.000105992 -5.84713e-07
8.20834e-07 -5.84713e-07 -5.33562e-06
0.00184863 -1.90076e-05 -3.78963e-07
-1.90076e-05 0.000117283 6.90091e-07
-3.78963e-07 6.90091e-07 1.76184e-05
0.00176771 -1.1359e-05 1.33289e-07
-1.1359e-05 0.000114376 1.2785e-07
1.33289e-07 1.2785e-07 1.45434e-06
0.00162635 -7.03459e-06 -3.79846e-07
-7.03459e-06 8.66336e-05 -5.11868e-07
-3.79846e-07 -5.11868e-07 -3.29685e-05
0.00162709 -2.95436e-05 2.81496e-07
-2.95436e-05 6.50693e-05 2.29415e-07
2.81496e-07 2.29415e-07 -4.87578e-05
0.00159971 -2.79199e-05 -7.12144e-07
-2.79199e-05 9.32613e-05 5.82329e-07
-7.12144e-07 5.82329e-07 -2.62971e-05
0.00149356 -3.32437e-05 -5.4128e-06
-3.32437e-05 8.87243e-05 1.83923e-06
-5.4128e-06 1.83923e-06 -2.75036e-05
0.00159247 -5.72827e-05 1.57076e-06
-5.72827e-05 0.000108732 -1.03136e-06
1.57076e-06 -1.03136e-06 -6.42418e-06
0.00143872 -6.15642e-05 5.30939e-08
-6.15642e-05 7.83344e-05 -2.93628e-07
5.30939e-08 -2.93628e-07 -3.34715e-05
0.00114018 -5.22136e-05 -8.96529e-06
-5.22136e-05 4.90846e-06 1.90059e-06
-8.96529e-06 1.90059e-06 -8.97418e-05
0.00140819 -8.36202e-05 4.53391e-06
-8.36202e-05 7.57417e-05 -6.31792e-07
4.53391e-06 -6.31792e-07 -3.47797e-05
0.00114555 -6.78899e-05 6.87582e-08
-6.78899e-05 1.78678e-05 1.55619e-07
6.87582e-08 1.55619e-07 -7.61897e-05
0.00221628 -4.97577e-05 -2.05204e-05
-4.97577e-05 0.000748271 2.89435e-06
-2.05204e-05 2.89435e-06 0.000702708
0.00110145 -7.86968e-05 8.89187e-06
-7.86968e-05 1.13591e-05 -2.75621e-06
8.89187e-06 -2.75621e-06 -8.29516e-05
0.00226114 -6.61913e-05 2.01685e-05
-6.61913e-05 0.000781777 -1.518e-06
2.01685e-05 -1.518e-06 0.000736319
0.001556 -2.33228e-05 -9.88446e-05
-2.33228e-05 0.000482931 8.4896e-06
-9.88446e-05 8.4896e-06 0.000461874
0.00235719 -8.18871e-05 6.00701e-05
-8.18871e-05 0.000844416 -7.9598e-06
6.00701e-05 -7.9598e-06 0.000798732
0.00138215 2.93179e-05 -4.86014e-05
2.93179e-05 0.000410019 3.00845e-06
-4.86014e-05 3.00845e-06 0.000381625
0.00136021 0.000101523 -7.60208e-07
0.000101523 0.000419222 -4.42662e-06
-7.60208e-07 -4.42662e-06 0.00037977
0.00176441 4.78327e-05 8.28186e-08
4.78327e-05 0.000108984 8.1037e-07
8.28186e-08 8.1037e-07 -2.95689e-07
0.00158892 8.59802e-05 -2.69407e-06
8.59802e-05 8.57157e-05 -5.33493e-07
-2.69407e-06 -5.33493e-07 -3.28919e-05
0.0017423 8.99779e-05 -1.40779e-06
8.99779e-05 0.000125089 -2.82875e-07
-1.40779e-06 -2.82875e-07 7.89031e-06
0.00158808 0.000118729 -3.66755e-06
0.000118729 0.000174941 -1.22465e-06
-3.66755e-06 -1.22465e-06 5.91526e-05
0.00173557 0.000122171 1.30057e-06
0.000122171 0.000188809 4.03207e-07
1.30057e-06 4.03207e-07 6.89382e-05
0.0017739 0.000127453 3.53972e-06
0.000127453 0.000177338 1.51259e-06
3.53972e-06 1.51259e-06 6.06374e-05
0.00100779 0.000100433 -7.68437e-06
0.000100433 -8.57284e-07 -2.85676e-06
-7.68437e-06 -2.85676e-06 -9.97027e-05
0.00133367 0.000130293 2.26711e-06
0.000130293 0.000102899 7.54512e-07
2.26711e-06 7.54512e-07 -1.52462e-05
0.00126452 0.000136311 1.33549e-06
0.000136311 7.83784e-06 9.28012e-07
1.33549e-06 9.28012e-07 -0.000111522
0.000745643 9.55582e-05 -1.42843e-05
9.55582e-05 2.41914e-06 -6.98261e-06
-1.42843e-05 -6.98261e-06 -5.65187e-05
0.000990614 0.000100884 -5.48495e-07
0.000100884 4.06976e-05 -2.91002e-08
-5.48495e-07 -2.91002e-08 -5.73039e-05
0.00123186 0.000134529 3.90792e-06
0.000134529 0.000110009 1.1159e-06
3.90792e-06 1.1159e-06 -1.21631e-05
0.00086915 8.59488e-05 4.17007e-06
8.59488e-05 2.51787e-05 2.09658e-06
4.17007e-06 2.09658e-06 -6.74512e-05
0.000672311 5.9787e-05 -9.71676e-08
5.9787e-05 -1.84255e-05 5.47703e-08
-9.71676e-08 5.47703e-08 -7.29445e-05
0.00383891 -7.50756e-05 -8.90156e-05
-7.50756e-05 0.00175407 -5.9123e-06
-8.90156e-05 -5.9123e-06 0.00174236
0.000589357 1.16247e-05 5.15324e-06
1.16247e-05 -5.38773e-05 5.73851e-06
5.15324e-06 5.73851e-06 -0.000100436
0.00329685 -0.000118675 -4.35116e-06
-0.000118675 0.00144815 3.32546e-07
-4.35116e-06 3.32546e-07 0.00143944
0.00295965 -0.000110712 4.89377e-05
-0.000110712 0.00124903 2.30756e-06
4.89377e-05 2.30756e-06 0.00124609
0.00180047 3.05384e-05 3.34343e-07
3.05384e-05 9.46628e-05 -3.47716e-08
3.34343e-07 -3.47716e-08 -1.04231e-05
0.00179978 4.80845e-05 -2.45748e-07
4.80845e-05 7.53301e-05 2.04173e-07
-2.45748e-07 2.04173e-07 -2.6198e-05
0.00177329 5.31817e-05 3.61765e-06
5.31817e-05 3.44774e-05 -5.68982e-07
3.61765e-06 -5.68982e-07 -5.99245e-05
0.00183253 9.84404e-05 1.73857e-06
9.84404e-05 0.000113563 -5.8989e-07
1.73857e-06 -5.8989e-07 5.2525e-06
0.00176583 -2.69647e-06 3.96025e-07
-2.69647e-06 9.52524e-05 -1.01185e-07
3.96025e-07 -1.01185e-07 -1.62847e-05
0.00187814 9.59117e-06 -1.3033e-07
9.59117e-06 0.00012673 -5.28447e-08
-1.3033e-07 -5.28447e-08 2.3062e-05
0.00189243 1.18428e-05 -2.9104e-07
1.18428e-05 0.000119144 1.28823e-07
-2.9104e-07 1.28823e-07 2.06957e-05
0.00184056 -1.21936e-05 -1.67576e-06
-1.21936e-05 0.000112676 1.47358e-07
-1.67576e-06 1.47358e-07 9.9668e-06
0.00176571 1.42085e-06 -4.22439e-07
1.42085e-06 0.000101351 -6.72474e-08
-4.22439e-07 -6.72474e-08 -9.37231e-06
0.0018026 4.34013e-06 -1.68845e-07
4.34013e-06 0.000169833 -4.19094e-07
-1.68845e-07 -4.19094e-07 5.30816e-05
0.0017033 -1.12509e-05 5.56499e-08
-1.12509e-05 7.87734e-05 9.16756e-07
5.56499e-08 9.16756e-07 -3.55016e-05
0.00169572 -6.25567e-06 7.26827e-07
-6.25567e-06 0.000123549 -1.08365e-07
7.26827e-07 -1.08365e-07 3.73184e-06
0.00138914 -7.58029e-06 -4.32444e-06
-7.58029e-06 9.13418e-06 5.42432e-07
-4.32444e-06 5.42432e-07 -0.000109969
0.00162845 -2.73136e-05 7.46723e-07
-2.73136e-05 0.000107843 2.23218e-08
7.46723e-07 2.23218e-08 -1.16062e-05
0.00146074 -3.05988e-05 -5.64566e-07
-3.05988e-05 7.17134e-05 4.88054e-07
-5.64566e-07 4.88054e-07 -4.44012e-05
0.00117431 -3.0736e-05 -9.03987e-06
-3.0736e-05 6.09925e-06 2.1774e-06
-9.03987e-06 2.1774e-06 -9.17614e-05
0.00144653 -5.85796e-05 4.21705e-06
-5.85796e-05 8.1729e-05 -1.42611e-06
4.21705e-06 -1.42611e-06 -2.99396e-05
0.00116672 -5.22379e-05 -5.57305e-08
-5.22379e-05 1.77438e-05 -9.28987e-08
-5.57305e-08 -9.28987e-08 -7.68186e-05
0.000685245 -3.48425e-05 -1.36878e-05
-3.48425e-05 -9.00568e-05 3.08317e-06
-1.36878e-05 3.08317e-06 -0.000144057
0.00114707 -6.60066e-05 9.14623e-06
-6.60066e-05 1.73851e-05 -2.10573e-06
9.14623e-06 -2.10573e-06 -7.63157e-05
0.00148872 -5.32281e-05 2.50189e-05
-5.32281e-05 0.000351012 -1.13972e-06
2.50189e-05 -1.13972e-06 0.000302954
0.00471148 -3.33852e-05 -0.000118204
-3.33852e-05 0.00218944 4.89812e-06
-0.000118204 4.89812e-06 0.00218574
0.002381 -7.09547e-05 6.17827e-05
-7.09547e-05 0.000842433 -6.6585e-06
6.17827e-05 -6.6585e-06 0.000798314
0.00144046 5.04357e-06 -4.37574e-05
5.04357e-06 0.000426578 3.0528e-06
-4.37574e-05 3.0528e-06 0.000402251
0.00136635 3.77786e-05 1.09314e-05
3.77786e-05 0.000403025 -3.11209e-06
1.09314e-05 -3.11209e-06 0.000374071
0.00178336 2.91904e-05 5.90078e-07
2.91904e-05 0.000121596 2.32988e-07
5.90078e-07 2.32988e-07 1.37734e-05
0.00159777 4.92904e-05 -1.41209e-06
4.92904e-05 7.87648e-05 4.68563e-07
-1.41209e-06 4.68563e-07 -3.66359e-05
0.00182294 4.62567e-05 -2.19602e-07
4.62567e-05 0.000141773 -1.79869e-07
-2.19602e-07 -1.79869e-07 3.23072e-05
0.00117891 8.23866e-05 -5.10814e-06
8.23866e-05 -7.90053e-05 -1.44348e-06
-5.10814e-06 -1.44348e-06 -0.000194149
0.00164241 8.76295e-05 3.25364e-08
8.76295e-05 0.000115293 3.18169e-09
3.25364e-08 3.18169e-09 -2.98303e-06
0.00168713 9.02259e-05 -2.29568e-07
9.02259e-05 9.78545e-05 -6.77439e-07
-2.29568e-07 -6.77439e-07 -1.87931e-05
0.000654006 7.61637e-05 -1.03543e-05
7.61637e-05 -0.000240206 -3.21831e-06
-1.03543e-05 -3.21831e-06 -0.000340287
0.00163502 0.00012214 1.05482e-06
0.00012214 0.000199421 2.25828e-07
1.05482e-06 2.25828e-07 8.32801e-05
0.00190043 0.000128087 3.53981e-06
0.000128087 0.00027731 1.18152e-06
3.53981e-06 1.18152e-06 0.000157051
0.000696122 9.70158e-05 -1.48351e-05
9.70158e-05 -4.65572e-05 -6.44573e-06
-1.48351e-05 -6.44573e-06 -0.000105561
0.000791957 9.23211e-05 9.32528e-08
9.23211e-05 -0.000118792 1.01376e-07
9.32528e-08 1.01376e-07 -0.000218745
0.000971534 0.000118161 5.60733e-06
0.000118161 -9.30717e-05 1.96998e-06
5.60733e-06 1.96998e-06 -0.000212329
0.0043515 -7.77253e-05 -9.32532e-05
-7.77253e-05 0.00203675 -7.46074e-06
-9.32532e-05 -7.46074e-06 0.00201894
0.000656222 8.43261e-05 4.82785e-07
8.43261e-05 -4.20359e-05 1.60348e-07
4.82785e-07 1.60348e-07 -0.000100594
0.000968222 9.88875e-05 6.00799e-06
9.88875e-05 2.93644e-05 2.84649e-06
6.00799e-06 2.84649e-06 -6.8346e-05
0.000564389 5.20174e-05 8.05916e-06
5.20174e-05 -7.12416e-05 6.42788e-06
8.05916e-06 6.42788e-06 -0.000125533
0.00365908 -0.000109502 -6.226e-06
-0.000109502 0.00165819 2.99508e-07
-6.226e-06 2.99508e-07 0.00164536
0.00319046 -0.000125977 5.4288e-05
-0.000125977 0.00138885 2.336e-06
5.4288e-05 2.336e-06 0.00137969
0.00178799 1.30863e-05 -6.24257e-07
1.30863e-05 0.000109515 -3.57586e-07
-6.24257e-07 -3.57586e-07 -7.83837e-07
0.00181535 2.99594e-05 -3.128e-07
2.99594e-05 9.92666e-05 1.03985e-07
-3.128e-07 1.03985e-07 -5.61336e-06
0.00182337 4.7719e-05 5.18611e-07
4.7719e-05 8.75778e-05 -3.61224e-07
5.18611e-07 -3.61224e-07 -1.36417e-05
0.00177502 8.5418e-06 -8.70051e-08
8.5418e-06 0.000147214 -2.51207e-07
-8.70051e-08 -2.51207e-07 3.01238e-05
0.00176188 9.40114e-07 -2.25595e-07
9.40114e-07 9.50998e-05 1.26024e-08
-2.25595e-07 1.26024e-08 -1.58617e-05
0.00190729 4.0249e-06 -8.14375e-07
4.0249e-06 0.000140693 1.45366e-07
-8.14375e-07 1.45366e-07 3.70468e-05
0.00174882 5.29907e-06 -7.77233e-07
5.29907e-06 9.15026e-05 5.8561e-07
-7.77233e-07 5.8561e-07 -1.85669e-05
0.00179103 6.97467e-06 8.8985e-07
6.97467e-06 0.000163183 -1.8149e-07
8.8985e-07 -1.8149e-07 4.63975e-05
0.00177583 2.89078e-06 -3.01298e-06
2.89078e-06 0.000203707 4.53072e-08
-3.01298e-06 4.53072e-08 8.79527e-05
0.00177413 -5.4585e-06 2.23868e-06
-5.4585e-06 0.000165157 1.17382e-07
2.23868e-06 1.17382e-07 4.51324e-05
0.00164274 -5.58508e-06 4.5242e-09
-5.58508e-06 0.000147331 6.57116e-08
4.5242e-09 6.57116e-08 3.00392e-05
0.000826249 -9.19839e-06 -1.10764e-05
-9.19839e-06 -0.000206394 2.04224e-06
-1.10764e-05 2.04224e-06 -0.000311226
0.00144544 -3.02685e-05 3.68548e-06
-3.02685e-05 6.37264e-05 -8.23969e-07
3.68548e-06 -8.23969e-07 -5.23683e-05
0.00118363 -2.83275e-05 4.80907e-08
-2.83275e-05 1.01005e-05 3.83611e-08
4.80907e-08 3.83611e-08 -8.75934e-05
0.0006982 -1.82973e-05 -1.35762e-05
-1.82973e-05 -9.30895e-05 2.51015e-06
-1.35762e-05 2.51015e-06 -0.000149833
0.00119101 -5.09305e-05 9.27479e-06
-5.09305e-05 2.93076e-05 -2.21357e-06
9.27479e-06 -2.21357e-06 -6.50641e-05
0.000690948 -2.56325e-05 -1.72748e-07
-2.56325e-05 -8.80012e-05 2.6082e-08
-1.72748e-07 2.6082e-08 -0.000141884
0.00471031 -3.75757e-05 -0.000117692
-3.75757e-05 0.0021878 3.83861e-06
-0.000117692 3.83861e-06 0.00218407
0.000736741 -4.71894e-05 1.49695e-05
-4.71894e-05 -5.847e-05 -4.82486e-06
1.49695e-05 -4.82486e-06 -0.000112337
0.00306671 -1.42237e-05 4.75842e-05
-1.42237e-05 0.00129909 2.28187e-07
4.75842e-05 2.28187e-07 0.00128428
0.00132267 1.08872e-07 1.81174e-05
1.08872e-07 0.000367634 -2.63317e-06
1.81174e-05 -2.63317e-06 0.000341151
0.00183121 1.80208e-05 -7.20236e-09
1.80208e-05 0.000163751 -1.45021e-07
-7.20236e-09 -1.45021e-07 5.42799e-05
0.00164808 2.66438e-05 -9.50086e-07
2.66438e-05 0.000102663 3.10144e-07
-9.50086e-07 3.10144e-07 -1.00834e-05
0.00176823 2.76198e-05 -1.9026e-07
2.76198e-05 0.000113468 -1.09906e-07
-1.9026e-07 -1.09906e-07 5.747e-06
0.00143481 5.68621e-05 -4.09669e-06
5.68621e-05 4.78371e-05 -5.23718e-07
-4.09669e-06 -5.23718e-07 -6.44248e-05
0.00157265 4.82785e-05 3.43503e-07
4.82785e-05 6.42865e-05 1.72545e-07
3.43503e-07 1.72545e-07 -5.14626e-05
0.00187965 4.45214e-05 -7.11502e-07
4.45214e-05 0.000173453 -7.81894e-07
-7.11502e-07 -7.81894e-07 6.38139e-05
0.00071404 6.22159e-05 -1.07879e-05
6.22159e-05 -0.000237319 -2.78811e-06
-1.07879e-05 -2.78811e-06 -0.000335954
0.00153795 9.27005e-05 -1.39774e-06
9.27005e-05 0.000115599 -4.03824e-07
-1.39774e-06 -4.03824e-07 1.95962e-06
0.001694 8.90838e-05 2.88437e-06
8.90838e-05 0.000143789 9.06657e-08
2.88437e-06 9.06657e-08 2.58721e-05
0.000665231 7.74013e-05 -1.45039e-05
7.74013e-05 -8.56447e-05 -5.20989e-06
-1.45039e-05 -5.20989e-06 -0.000142954
0.000678791 7.78326e-05 -2.55015e-06
7.78326e-05 -0.000228469 -5.9533e-07
-2.55015e-06 -5.9533e-07 -0.000329163
0.00168115 0.000125551 6.0053e-06
0.000125551 0.000223451 1.42241e-06
6.0053e-06 1.42241e-06 0.000106965
0.00468923 -5.38024e-05 -0.000101346
-5.38024e-05 0.00220435 -7.03511e-06
-0.000101346 -7.03511e-06 0.00219051
0.000638442 8.90862e-05 9.35635e-07
8.90862e-05 -7.5269e-05 2.28308e-07
9.35635e-07 2.28308e-07 -0.000134282
0.000569791 8.3882e-05 7.60897e-06
8.3882e-05 -0.000239989 3.07284e-06
7.60897e-06 3.07284e-06 -0.000341047
0.00410013 -7.86238e-05 -2.32908e-06
-7.86238e-05 0.00189786 1.26419e-07
-2.32908e-06 1.26419e-07 0.00188396
0.0005406 7.6803e-05 1.10217e-05
7.6803e-05 -0.000100988 6.82129e-06
1.10217e-05 6.82129e-06 -0.000158869
0.00347351 -0.000135641 6.24429e-05
-0.000135641 0.0015593 2.8076e-06
6.24429e-05 2.8076e-06 0.00154457
0.00179243 1.37763e-05 -6.69112e-07
1.37763e-05 0.000155805 -5.22537e-07
-6.69112e-07 -5.22537e-07 4.06206e-05
0.00178348 1.29859e-05 -1.83937e-08
1.29859e-05 0.000110397 8.61804e-08
-1.83937e-08 8.61804e-08 -1.114e-07
0.00183019 2.94494e-05 -5.65809e-07
2.94494e-05 0.000103713 3.61113e-08
-5.65809e-07 3.61113e-08 -9.61554e-07
0.00175533 -1.98567e-06 -3.34803e-06
-1.98567e-06 0.000191379 -1.41379e-07
-3.34803e-06 -1.41379e-07 7.66714e-05
0.00179512 8.04006e-06 7.04376e-07
8.04006e-06 0.000158464 -2.96701e-08
7.04376e-07 -2.96701e-08 4.20244e-05
0.00176972 6.91772e-06 5.21692e-07
6.91772e-06 0.000101278 1.34498e-07
5.21692e-07 1.34498e-07 -9.17435e-06
0.00177983 8.36218e-06 1.49555e-06
8.36218e-06 0.000156794 2.8235e-07
1.49555e-06 2.8235e-07 3.99761e-05
0.00177061 3.41934e-06 1.30721e-06
3.41934e-06 0.000200911 -2.0884e-07
1.30721e-06 -2.0884e-07 8.50875e-05
0.000871809 -1.84676e-06 -1.06218e-05
-1.84676e-06 -0.000198209 8.69039e-07
-1.06218e-05 8.69039e-07 -0.000304719
0.00188696 -3.76828e-06 5.26332e-06
-3.76828e-06 0.000280753 -7.12596e-07
5.26332e-06 -7.12596e-07 0.000165256
0.00102663 -7.40384e-06 -2.22341e-06
-7.40384e-06 -9.68124e-05 5.60805e-07
-2.22341e-06 5.60805e-07 -0.000199891
0.000713923 -7.25259e-06 -1.41909e-05
-7.25259e-06 -0.000100414 1.96195e-06
-1.41909e-05 1.96195e-06 -0.000160979
0.00120336 -2.74567e-05 9.13239e-06
-2.74567e-05 1.94756e-05 -2.1533e-06
9.13239e-06 -2.1533e-06 -7.8114e-05
0.00071174 -1.13543e-05 2.44195e-07
-1.13543e-05 -8.71541e-05 -4.87669e-08
2.44195e-07 -4.87669e-08 -0.000143875
0.00480986 -2.95881e-05 -0.000117372
-2.95881e-05 0.002238 2.58658e-06
-0.000117372 2.58658e-06 0.00223419
0.00068642 -2.00104e-05 1.29553e-05
-2.00104e-05 -9.13683e-05 -2.85527e-06
1.29553e-05 -2.85527e-06 -0.000144891
0.004731 -3.95917e-06 4.74492e-06
-3.95917e-06 0.00219724 2.60059e-07
4.74492e-06 2.60059e-07 0.00219405
0.00148154 -1.46979e-05 0.000101724
-1.46979e-05 0.000439009 -4.31528e-06
0.000101724 -4.31528e-06 0.000419576
0.0018359 1.64199e-05 -6.03584e-07
1.64199e-05 0.000203821 -4.81351e-07
-6.03584e-07 -4.81351e-07 9.24091e-05
0.0017454 1.95366e-05 9.26801e-08
1.95366e-05 0.000117305 3.73549e-07
9.26801e-08 3.73549e-07 8.32443e-06
0.00146327 2.66506e-05 -3.59872e-06
2.66506e-05 5.55366e-05 -4.94735e-07
-3.59872e-06 -4.94735e-07 -5.49573e-05
0.00161477 2.59121e-05 3.83308e-07
2.59121e-05 8.49241e-05 -4.99136e-08
3.83308e-07 -4.99136e-08 -2.79047e-05
0.00174984 2.60349e-05 1.90637e-07
2.60349e-05 0.000103682 -4.34763e-07
1.90637e-07 -4.34763e-07 -3.93011e-06
0.00119351 5.01758e-05 -9.21938e-06
5.01758e-05 9.21782e-06 -1.92561e-06
-9.21938e-06 -1.92561e-06 -8.62954e-05
0.00146379 5.7388e-05 -7.33537e-08
5.7388e-05 6.19914e-05 2.72367e-07
-7.33537e-08 2.72367e-07 -5.02298e-05
0.00154569 4.72046e-05 1.15875e-06
4.72046e-05 4.89341e-05 1.60572e-07
1.15875e-06 1.60572e-07 -6.71756e-05
0.000666375 5.41896e-05 -1.43086e-05
5.41896e-05 -0.000102931 -4.01057e-06
-1.43086e-05 -4.01057e-06 -0.000158436
0.000939735 6.9279e-05 -2.79834e-06
6.9279e-05 -0.000114377 -5.20606e-07
-2.79834e-06 -5.20606e-07 -0.000212235
0.00190352 0.000103157 4.43012e-06
0.000103157 0.000313747 8.78565e-07
4.43012e-06 8.78565e-07 0.000201592
0.00485709 1.41195e-05 -0.00011912
1.41195e-05 0.00227159 -5.82784e-06
-0.00011912 -5.82784e-06 0.00226649
0.000639738 7.2181e-05 1.30643e-07
7.2181e-05 -9.83417e-05 2.18392e-07
1.30643e-07 2.18392e-07 -0.000155921
0.000704259 7.97359e-05 6.14041e-06
7.97359e-05 -0.000216485 2.13848e-06
6.14041e-06 2.13848e-06 -0.000317806
0.00449246 -3.60834e-05 7.99729e-06
-3.60834e-05 0.00209959 -1.12818e-07
7.99729e-06 -1.12818e-07 0.00208695
0.000563352 7.80933e-05 1.26425e-05
7.80933e-05 -0.000112599 6.42485e-06
1.26425e-05 6.42485e-06 -0.000171942
0.00386861 -0.000125759 7.14956e-05
-0.000125759 0.00178194 4.95939e-06
7.14956e-05 4.95939e-06 0.00176372
0.0017639 1.43174e-05 -2.9178e-06
1.43174e-05 0.000200356 -7.59035e-07
-2.9178e-06 -7.59035e-07 8.75186e-05
0.00180472 1.08103e-05 2.24206e-07
1.08103e-05 0.000164281 5.31408e-08
2.24206e-07 5.31408e-08 4.88728e-05
0.00177932 1.25369e-05 4.59837e-07
1.25369e-05 0.000111808 5.79534e-07
4.59837e-07 5.79534e-07 1.09869e-06
0.000874126 -1.13416e-05 -1.11499e-05
-1.13416e-05 -0.000197042 -1.47349e-07
-1.11499e-05 -1.47349e-07 -0.00030267
0.00177447 4.99985e-06 1.35491e-06
4.99985e-06 0.000201661 -1.56271e-09
1.35491e-06 -1.56271e-09 8.69332e-05
0.00181015 7.80341e-06 1.97154e-06
7.80341e-06 0.000167108 5.23905e-08
1.97154e-06 5.23905e-08 5.13441e-05
0.00177056 3.73825e-06 5.45096e-06
3.73825e-06 0.000200876 -6.4918e-08
5.45096e-06 -6.4918e-08 8.49757e-05
0.000866726 -2.24419e-06 -1.67782e-06
-2.24419e-06 -0.000200513 2.57927e-07
-1.67782e-06 2.57927e-07 -0.000306969
0.00075615 -2.87131e-06 -1.47505e-05
-2.87131e-06 -8.96762e-05 7.70799e-07
-1.47505e-05 7.70799e-07 -0.000152097
0.00121735 -4.80074e-06 7.35305e-06
-4.80074e-06 7.65191e-06 -1.18097e-06
7.35305e-06 -1.18097e-06 -9.36707e-05
0.000733028 2.20086e-06 2.36712e-07
2.20086e-06 -9.13241e-05 1.61794e-07
2.36712e-07 1.61794e-07 -0.000151825
0.00506196 -3.25797e-05 -0.000122858
-3.25797e-05 0.00236736 1.4328e-06
-0.000122858 1.4328e-06 0.00236276
0.000737069 1.1534e-06 1.34114e-05
1.1534e-06 -7.53125e-05 -2.19828e-06
1.34114e-05 -2.19828e-06 -0.000131853
0.00489454 3.23442e-05 7.40052e-06
3.23442e-05 0.00228479 1.61973e-07
7.40052e-06 1.61973e-07 0.00227868
0.00476514 -1.95759e-05 0.000125183
-1.95759e-05 0.00221399 -2.76922e-06
0.000125183 -2.76922e-06 0.00221128
0.00153156 1.5485e-05 -3.68395e-06
1.5485e-05 8.79836e-05 -1.26043e-06
-3.68395e-06 -1.26043e-06 -2.31616e-05
0.00169704 1.65246e-05 5.53415e-07
1.65246e-05 0.00012837 8.21139e-08
5.53415e-07 8.21139e-08 1.70713e-05
0.00165985 2.12078e-05 3.17946e-07
2.12078e-05 7.09509e-05 6.77394e-07
3.17946e-07 6.77394e-07 -3.75378e-05
0.0012 2.25343e-05 -8.90494e-06
2.25343e-05 4.39581e-06 -1.62378e-06
-8.90494e-06 -1.62378e-06 -9.12972e-05
0.00148624 2.69605e-05 2.15826e-07
2.69605e-05 6.68317e-05 -4.49339e-08
2.15826e-07 -4.49339e-08 -4.37555e-05
0.00157902 2.51785e-05 9.68526e-07
2.51785e-05 6.59111e-05 -5.36562e-07
9.68526e-07 -5.36562e-07 -4.7009e-05
0.000692158 3.26537e-05 -1.38682e-05
3.26537e-05 -0.000100855 -3.09501e-06
-1.38682e-05 -3.09501e-06 -0.000156336
0.00118967 5.13719e-05 1.66111e-08
5.13719e-05 7.61519e-06 1.95855e-07
1.66111e-08 1.95855e-07 -8.81579e-05
0.00149343 5.78784e-05 4.30813e-06
5.78784e-05 7.64216e-05 1.12184e-06
4.30813e-06 1.12184e-06 -3.57526e-05
0.00490767 4.11744e-05 -0.000130173
4.11744e-05 0.0022891 -4.91875e-06
-0.000130173 -4.91875e-06 0.00228599
0.000667603 5.38427e-05 2.11653e-08
5.38427e-05 -0.000102133 1.11971e-07
2.11653e-08 1.11971e-07 -0.00015775
0.00115352 7.62268e-05 6.7696e-06
7.62268e-05 2.19926e-06 1.92766e-06
6.7696e-06 1.92766e-06 -9.48592e-05
0.00474367 2.31003e-05 5.01798e-06
2.31003e-05 0.00221512 6.60543e-07
5.01798e-06 6.60543e-07 0.00220894
0.000617126 6.73969e-05 1.31475e-05
6.73969e-05 -0.000109745 5.36666e-06
1.31475e-05 5.36666e-06 -0.000167309
0.00431755 -2.59304e-05 9.71843e-05
-2.59304e-05 0.00200101 5.54847e-06
9.71843e-05 5.54847e-06 0.00199324
0.00126371 6.7007e-06 -9.83692e-06
6.7007e-06 1.80299e-05 -6.81765e-07
-9.83692e-06 -6.81765e-07 -8.34088e-05
0.00158151 9.28103e-06 1.48975e-06
9.28103e-06 0.000100392 2.62064e-08
1.48975e-06 2.62064e-08 -1.43236e-05
0.00181237 6.71079e-06 1.53956e-06
6.71079e-06 0.000170086 7.94259e-07
1.53956e-06 7.94259e-07 5.44389e-05
0.000741188 1.74026e-05 -1.51443e-05
1.74026e-05 -0.000103717 -3.84212e-07
-1.51443e-05 -3.84212e-07 -0.000163494
0.000863236 -4.69918e-06 -1.87179e-06
-4.69918e-06 -0.000203471 4.43851e-08
-1.87179e-06 4.43851e-08 -0.00030915
0.00179351 1.17018e-05 6.01952e-06
1.17018e-05 0.000211892 5.64945e-08
6.01952e-06 5.64945e-08 9.71359e-05
0.000857373 -2.15621e-06 7.10203e-06
-2.15621e-06 -0.000205135 -1.84066e-07
7.10203e-06 -1.84066e-07 -0.000311527
0.000730129 4.14408e-06 6.94807e-08
4.14408e-06 -0.000103879 3.47168e-07
6.94807e-08 3.47168e-07 -0.000166193
0.00524449 4.52181e-05 -0.00012641
4.52181e-05 0.00245945 -4.42808e-07
-0.00012641 -4.42808e-07 0.00245511
0.000731996 1.13174e-05 1.39284e-05
1.13174e-05 -9.25451e-05 -1.26891e-06
1.39284e-05 -1.26891e-06 -0.000153105
0.00511481 -2.31238e-05 3.29004e-07
-2.31238e-05 0.00239316 6.02804e-07
3.29004e-07 6.02804e-07 0.00238902
0.00494425 2.59889e-05 0.00012568
2.59889e-05 0.00230482 -1.23147e-06
0.00012568 -1.23147e-06 0.00230174
0.00123365 1.03934e-05 -9.47282e-06
1.03934e-05 1.25453e-05 -1.78274e-06
-9.47282e-06 -1.78274e-06 -8.56994e-05
0.00143192 1.38062e-05 -1.89851e-09
1.38062e-05 3.24372e-05 -2.4509e-07
-1.89851e-09 -2.4509e-07 -7.93076e-05
0.00155943 1.65528e-05 1.23531e-06
1.65528e-05 5.3626e-05 3.79473e-07
1.23531e-06 3.79473e-07 -5.75684e-05
0.00249228 1.30363e-05 -6.90616e-05
1.30363e-05 0.000865609 -1.97839e-06
-6.90616e-05 -1.97839e-06 0.00082194
0.00120721 2.42373e-05 1.4561e-07
2.42373e-05 8.13651e-06 7.94529e-08
1.4561e-07 7.94529e-08 -8.77814e-05
0.00150934 2.71362e-05 4.07672e-06
2.71362e-05 7.82178e-05 4.28601e-07
4.07672e-06 4.28601e-07 -3.24677e-05
0.00493788 4.39976e-05 -0.000136108
4.39976e-05 0.00230125 -3.69919e-06
-0.000136108 -3.69919e-06 0.00229814
0.000708101 3.46461e-05 9.94194e-08
3.46461e-05 -9.17123e-05 8.57228e-08
9.94194e-08 8.57228e-08 -0.000147354
0.00118756 5.25928e-05 9.27959e-06
5.25928e-05 6.83261e-06 2.26402e-06
9.27959e-06 2.26402e-06 -8.91882e-05
0.00485968 5.05654e-05 1.42348e-06
5.05654e-05 0.00226702 7.44665e-07
1.42348e-06 7.44665e-07 0.00226292
0.000672153 5.36983e-05 1.37636e-05
5.36983e-05 -9.92837e-05 4.23337e-06
1.37636e-05 4.23337e-06 -0.000155023
0.00462929 3.58501e-05 0.000114644
3.58501e-05 0.00215494 6.12593e-06
0.000114644 6.12593e-06 0.00214952
0.000777672 7.67236e-06 -1.55733e-05
7.67236e-06 -7.97055e-05 -1.66751e-06
-1.55733e-05 -1.66751e-06 -0.000141385
0.00106705 3.8043e-06 4.21205e-07
3.8043e-06 -8.81217e-05 4.88481e-07
4.21205e-07 4.88481e-07 -0.000190854
0.00139399 4.198e-06 5.42959e-06
4.198e-06 -2.43899e-06 7.62515e-07
5.42959e-06 7.62515e-07 -0.000118981
0.00529592 -6.371e-05 -0.000122732
-6.371e-05 0.00249392 -1.89274e-06
-0.000122732 -1.89274e-06 0.00248426
0.000741026 9.68667e-06 -1.42544e-07
9.68667e-06 -0.000101377 2.0247e-07
-1.42544e-07 2.0247e-07 -0.000162596
0.00086276 1.55613e-06 7.29666e-06
1.55613e-06 -0.000204463 2.08165e-07
7.29666e-06 2.08165e-07 -0.000310186
0.000723372 1.48103e-05 1.43088e-05
1.48103e-05 -0.000107831 9.02884e-08
1.43088e-05 9.02884e-08 -0.000170213
0.00528795 4.16777e-05 4.59377e-06
4.16777e-05 0.00248489 4.51671e-07
4.59377e-06 4.51671e-07 0.0024783
0.00521089 9.89767e-05 0.000125575
9.89767e-05 0.00244866 5.70492e-08
0.000125575 5.70492e-08 0.00243983
0.00258655 -7.61624e-06 -7.19055e-05
-7.61624e-06 0.00090619 -1.9071e-06
-7.19055e-05 -1.9071e-06 0.000860151
0.00124207 1.24468e-05 -7.71595e-08
1.24468e-05 1.68654e-05 -5.36163e-08
-7.71595e-08 -5.36163e-08 -8.13539e-05
0.00133287 1.22719e-05 3.81402e-06
1.22719e-05 -2.28444e-05 7.74143e-07
3.81402e-06 7.74143e-07 -0.000135182
0.00473749 3.49411e-05 -3.25059e-05
3.49411e-05 0.00220268 -1.41509e-06
-3.25059e-05 -1.41509e-06 0.00219117
0.000749977 1.65008e-05 -7.06573e-08
1.65008e-05 -7.57031e-05 1.94481e-07
-7.06573e-08 1.94481e-07 -0.000133173
0.00123084 2.66496e-05 9.14608e-06
2.66496e-05 2.0194e-05 1.82862e-06
9.14608e-06 1.82862e-06 -7.58926e-05
0.00492267 5.09796e-05 -3.24284e-06
5.09796e-05 0.00229543 5.52815e-07
-3.24284e-06 5.52815e-07 0.0022919
0.00072318 3.88179e-05 1.4405e-05
3.88179e-05 -8.24551e-05 3.47439e-06
1.4405e-05 3.47439e-06 -0.000138441
0.00481746 6.27974e-05 0.00012539
6.27974e-05 0.00224703 6.05825e-06
0.00012539 6.05825e-06 0.00224217
0.00174528 -2.06532e-05 -0.000123305
-2.06532e-05 0.000557202 1.62802e-07
-0.000123305 1.62802e-07 0.000533896
0.00167643 1.15909e-05 -2.93245e-05
1.15909e-05 0.000407272 4.61774e-07
-2.93245e-05 4.61774e-07 0.000354464
0.000869826 4.00966e-06 9.53957e-06
4.00966e-06 -0.000194441 1.47012e-06
9.53957e-06 1.47012e-06 -0.000298493
0.00528436 -3.46522e-05 4.81069e-06
-3.46522e-05 0.0024856 -1.05118e-06
4.81069e-06 -1.05118e-06 0.00247774
0.000728687 3.67881e-06 1.49991e-05
3.67881e-06 -0.000106129 8.2731e-07
1.49991e-05 8.2731e-07 -0.000168171
0.00530036 -1.994e-05 0.000136012
-1.994e-05 0.00248835 7.83822e-07
0.000136012 7.83822e-07 0.00248369
0.00143818 -8.93755e-05 -6.87958e-06
-8.93755e-05 0.000416626 -8.34934e-07
-6.87958e-06 -8.34934e-07 0.000379921
0.00166955 8.00211e-06 -2.85367e-05
8.00211e-06 0.000412734 3.60853e-08
-2.85367e-05 3.60853e-08 0.000360134
0.00124683 1.25874e-05 9.12153e-06
1.25874e-05 1.94538e-05 1.72278e-06
9.12153e-06 1.72278e-06 -7.87693e-05
0.00319889 2.89513e-05 5.02257e-05
2.89513e-05 0.00136163 5.36107e-07
5.02257e-05 5.36107e-07 0.00134468
0.00076591 2.50611e-05 1.46865e-05
2.50611e-05 -6.68646e-05 2.99868e-06
1.46865e-05 2.99868e-06 -0.0001247
0.00490822 6.81738e-05 0.00012949
6.81738e-05 0.00229078 5.18954e-06
0.00012949 5.18954e-06 0.00228619
0.00524299 -3.89832e-05 -7.33228e-06
-3.89832e-05 0.00246292 4.21694e-07
-7.33228e-06 4.21694e-07 0.002456
0.000736129 2.01883e-05 1.52146e-05
2.01883e-05 -0.000100881 1.78822e-06
1.52146e-05 1.78822e-06 -0.000160308
0.00526807 5.88073e-05 0.000126561
5.88073e-05 0.00247802 -1.33406e-06
0.000126561 -1.33406e-06 0.0024696
0.00327993 1.99951e-05 5.86628e-05
1.99951e-05 0.00140133 4.46422e-07
5.86628e-05 4.46422e-07 0.00138365
0.000745187 1.00667e-05 1.45217e-05
1.00667e-05 -8.58667e-05 2.44797e-06
1.45217e-05 2.44797e-06 -0.000145583
0.00497923 5.72444e-06 0.000124006
5.72444e-06 0.00232254 2.95935e-06
0.000124006 2.95935e-06 0.00231971
0.00519161 -0.000121846 0.000119541
-0.000121846 0.00244352 -8.5448e-08
0.000119541 -8.5448e-08 0.00243175
0.00507604 -9.21169e-05 0.000118809
-9.21169e-05 0.00238019 1.20317e-06
0.000118809 1.20317e-06 0.00237127
