# vtk DataFile Version 2.0
Wound Healing Simulation
ASCII
DATASET UNSTRUCTURED_GRID
POINTS 3012 float
69.9759 18.75 4
67.2507 60.3285 4
69.976 18.75 2
73.0099 25.446 4
71.1327 20.9142 4
68.6801 16.6661 4
67.8219 19.9261 3.97459
67.2507 60.3286 2
71.1327 54.0858 4
68.6801 58.3339 4
65.6939 62.2254 4
65.3088 58.999 3.97293
74.6784 42.3946 4
73.7221 47.2057 4
69.9759 18.75 0
73.0099 25.446 2
68.6801 16.6661 2
71.1327 20.9142 2
67.8228 19.9303 2
74.6792 32.6053 4
73.7222 27.7943 4
72.1454 23.1494 4
70.6116 26.2215 3.97443
68.8823 21.9578 3.97495
67.2507 14.6715 4
66.6332 17.9729 3.97332
65.7746 21.0328 3.96315
67.2507 60.3285 0
71.1327 54.0858 2
68.6801 58.3339 2
65.694 62.2255 2
65.3097 58.9945 2
72.1454 51.8506 4
69.9759 56.25 4
68.8329 53.1138 3.97456
64.0165 64.0165 4
66.6071 57.1327 3.97433
63.882 60.763 3.97245
63.4912 57.7635 3.96439
60.3285 67.2507 4
74.6792 42.3947 2
73.7222 47.2057 2
74.9194 39.9526 4
74.2788 44.8158 4
72.1663 42.0857 3.97581
73.0099 49.554 4
71.2468 46.5982 3.97435
73.0099 25.446 0
71.1327 20.9142 0
68.6801 16.6661 0
67.8219 19.9261 0.0254099
74.6792 32.6053 2
73.7222 27.7943 2
67.2508 14.6715 2
72.1455 23.1494 2
70.611 26.2224 2
66.6346 17.9777 2
68.8827 21.9608 2
65.772 21.0351 2
74.9197 35.0474 4
74.2794 30.1841 4
72.183 32.9445 3.97629
71.2759 28.4324 3.97468
69.8125 24.0596 3.97468
68.3357 26.956 3.96412
66.7432 22.9395 3.96345
65.694 12.7746 4
65.3192 16.1059 3.97161
64.695 19.2035 3.96288
63.7771 22.078 3.96423
71.1327 54.0858 0
65.6939 62.2254 0
68.6801 58.3339 0
65.3088 58.999 0.0270744
72.1455 51.8506 2
69.9759 56.25 2
68.8331 53.111 2
64.0165 64.0165 2
66.6083 57.1284 2
63.8833 60.7579 2
63.4889 57.7633 2
62.2254 65.694 4
58.8915 65.4126 3.98217
69.7657 50.9897 3.97428
67.7801 55.1674 3.97467
66.6248 52.2036 3.96351
62.3323 62.4244 3.97641
64.6477 56.026 3.96374
62.1945 59.3904 3.96461
61.7542 56.646 3.961
58.3339 68.6801 4
60.3285 67.2508 2
73.7221 47.2057 0
74.6784 42.3946 0
74.9197 39.9526 2
74.2794 44.8159 2
72.1655 42.0855 2
73.0099 49.554 2
71.2461 46.5977 2
75 37.5 4
72.4037 39.8026 3.97705
71.7803 44.3531 3.97557
69.7982 41.7897 3.96649
70.5723 48.814 3.97406
68.9014 46.0129 3.96532
74.6792 32.6053 0
73.7222 27.7943 0
67.2507 14.6715 0
72.1454 23.1494 0
70.6116 26.2215 0.0255692
68.8823 21.9578 0.0250455
66.6332 17.9729 0.026681
65.7746 21.0328 0.036848
74.9197 35.0474 2
74.2794 30.1841 2
72.1822 32.9447 2
71.2754 28.4327 2
65.694 12.7745 2
65.3208 16.111 2
69.8124 24.0614 2
68.3381 26.957 2
64.6888 19.2061 2
66.7432 22.9414 2
63.7763 22.079 2
72.4115 35.2251 3.97712
71.8019 30.6775 3.97572
69.8346 33.2716 3.96658
68.9596 29.0421 3.96498
67.5965 24.9172 3.96371
66.0704 27.6676 3.96894
64.0165 10.9835 4
64.6391 23.8702 3.96597
63.8853 14.331 3.97157
63.5019 17.4577 3.96243
62.8025 20.3662 3.96232
61.8836 23.0235 3.96895
60.6806 11.1021 3.97725
57.6048 11.4775 3.96851
72.1454 51.8506 0
69.9759 56.25 0
68.8329 53.1138 0.0254367
64.0165 64.0165 0
63.882 60.763 0.0275463
66.6071 57.1327 0.0256704
63.4912 57.7635 0.0356078
62.2255 65.694 2
58.8936 65.4083 2
69.7655 50.9878 2
67.7807 55.1636 2
66.6244 52.2022 2
62.3345 62.4194 2
64.6409 56.0242 2
62.1918 59.3901 2
61.7529 56.6464 2
60.6656 63.9731 3.97897
57.0221 66.7335 3.98488
57.5511 63.6713 3.97087
67.4843 50.1718 3.96394
65.6816 54.1679 3.9635
64.402 51.3455 3.96615
60.7671 60.917 3.96768
62.7266 55.0309 3.9634
60.6076 58.1229 3.95971
60.1924 55.7219 3.96492
56.25 69.9759 4
58.3339 68.6801 2
60.3285 67.2507 0
58.9178 9.6602 3.9786
62.2254 9.30607 4
73.0099 49.554 0
74.2788 44.8158 0
71.2468 46.5982 0.0256458
72.1663 42.0857 0.0241928
74.9194 39.9526 0
75 37.5 2
72.4034 39.8025 2
71.7801 44.3526 2
69.7974 41.7896 2
70.5717 48.813 2
68.9044 46.0125 2
72.4871 37.5127 3.97666
70.036 39.6582 3.96703
69.4245 43.907 3.96625
67.4883 41.4874 3.97376
68.2468 48.1035 3.96451
66.5715 45.4145 3.97122
74.9197 35.0474 0
74.2794 30.1841 0
72.183 32.9445 0.0237106
71.2759 28.4324 0.0253223
65.694 12.7746 0
65.3192 16.1059 0.0283915
69.8125 24.0596 0.0253213
68.3357 26.956 0.0358802
66.7432 22.9395 0.0365477
64.695 19.2035 0.0371169
63.7771 22.078 0.0357699
72.4113 35.2251 2
71.8017 30.678 2
69.8338 33.2722 2
68.9596 29.0428 2
64.0165 10.9835 2
63.8872 14.3363 2
63.4978 17.4593 2
67.5978 24.9187 2
66.0691 27.6686 2
62.8013 20.367 2
64.6376 23.8714 2
61.8825 23.0246 2
60.6833 11.107 2
57.6056 11.4705 2
70.0528 35.3944 3.96711
69.4612 31.1531 3.96563
67.5525 33.6051 3.97282
66.651 29.6502 3.9702
65.4023 25.7362 3.96765
63.8953 28.319 3.97569
62.3374 12.6591 3.97538
62.6288 24.7136 3.97142
62.1889 15.8021 3.96484
61.7262 18.7321 3.95993
61.0194 21.4272 3.96569
60.1229 23.8432 3.9729
59.2385 12.8114 3.96531
55.8676 10.2621 3.97242
56.3925 13.1759 3.96931
69.7657 50.9897 0.0257182
62.2254 65.694 0
58.8915 65.4126 0.0178301
67.7801 55.1674 0.02533
66.6248 52.2036 0.0364914
62.3323 62.4244 0.0235864
62.1945 59.3904 0.0353935
64.6477 56.026 0.0362591
61.7542 56.646 0.038998
60.6679 63.9702 2
57.0249 66.7306 2
57.552 63.6754 2
67.4854 50.1707 2
65.6785 54.1663 2
64.4012 51.345 2
60.7653 60.9183 2
62.7252 55.0309 2
60.609 58.1245 2
60.191 55.7218 2
55.0679 67.931 3.98711
59.2125 62.3354 3.96807
55.7996 64.8986 3.97314
56.3148 62.0416 3.97174
65.1856 49.3707 3.9677
63.5856 53.2525 3.96467
62.1809 50.5769 3.97035
59.3103 59.5218 3.96043
60.8943 54.2396 3.96754
59.1612 56.9431 3.96113
59.0482 55.099 3.96804
48.0994 68.5731 3.98285
50.9458 69.9311 3.98922
54.0858 71.1327 4
56.25 69.976 2
58.3339 68.6801 0
57.0553 8.33903 3.98098
60.3285 7.74928 4
58.921 9.66425 2
62.2255 9.30602 2
70.5723 48.814 0.025943
71.7803 44.3531 0.0244271
68.9014 46.0129 0.0346785
69.7982 41.7897 0.0335072
72.4037 39.8026 0.0229549
75 37.5 0
72.4863 37.5126 2
70.0357 39.6582 2
69.4239 43.9066 2
67.486 41.4871 2
68.249 48.1027 2
66.5698 45.4139 2
70.124 37.5232 3.96714
67.7334 39.5088 3.97383
67.0977 43.4524 3.97241
65.2988 41.1863 3.97628
65.9223 47.3855 3.96966
64.3687 44.7965 3.97635
72.4115 35.2251 0.0228846
71.8019 30.6775 0.0242802
69.8346 33.2716 0.0334205
68.9596 29.0421 0.0350185
64.0165 10.9835 0
63.8853 14.331 0.0284315
63.5019 17.4577 0.0375653
67.5965 24.9172 0.0362943
66.0704 27.6676 0.0310591
64.6391 23.8702 0.0340302
62.8025 20.3662 0.037682
61.8836 23.0235 0.0310536
60.6806 11.1021 0.0227547
57.6048 11.4775 0.0314944
70.0526 35.3948 2
69.4609 31.1538 2
67.5504 33.6056 2
66.6488 29.651 2
62.34 12.6644 2
62.1869 15.8032 2
61.7246 18.7327 2
65.4006 25.7375 2
63.8928 28.3205 2
61.0188 21.4279 2
62.627 24.7148 2
60.121 23.8445 2
59.2387 12.812 2
56.3939 13.1735 2
55.87 10.261 2
67.7716 35.5557 3.97328
67.1564 31.643 3.97199
65.4558 33.9543 3.97661
64.4049 30.2467 3.97618
63.2975 26.4846 3.97382
61.8898 28.8728 3.97585
60.7672 14.2479 3.9657
60.7156 25.4497 3.97512
60.5562 17.1738 3.95903
60.0341 19.9075 3.96196
59.3696 22.3811 3.96856
58.6006 24.4681 3.97439
54.0332 9.14986 3.97167
57.8937 14.3823 3.96327
54.7741 12.0745 3.96694
55.2886 14.7247 3.96338
67.4843 50.1718 0.0360555
57.0221 66.7335 0.0151171
60.6656 63.9731 0.0210323
57.5511 63.6713 0.0291268
65.6816 54.1679 0.0365026
64.402 51.3455 0.0338507
60.7671 60.917 0.0323229
60.6076 58.1229 0.0402941
62.7266 55.0309 0.0365988
60.1924 55.7219 0.0350801
55.0707 67.9289 2
59.2123 62.3384 2
55.8004 64.8969 2
56.3133 62.0416 2
65.1841 49.37 2
63.5854 53.2524 2
62.18 50.5763 2
59.3132 59.5259 2
60.8943 54.2396 2
59.1675 56.9449 2
59.0532 55.1 2
53.04 68.9991 3.98854
53.9627 66.0035 3.97725
57.8656 60.8305 3.96802
54.6714 63.1676 3.97079
55.1913 60.5613 3.97532
62.9157 48.5905 3.97262
61.5161 52.5011 3.96883
59.8962 49.9102 3.97295
57.9401 58.2036 3.96038
59.0789 53.8528 3.96984
57.9017 55.714 3.96318
50.1059 67.8508 3.98174
47.4597 66.5681 3.97705
46.0535 69.1527 3.98445
48.1006 68.5728 2
48.7998 70.7224 3.9898
50.948 69.9301 2
51.8506 72.1454 4
54.0858 71.1327 2
56.25 69.9759 0
55.1003 7.14335 3.98479
58.3339 6.31992 4
57.0587 8.34279 2
60.3286 7.74926 2
58.9178 9.6602 0.0214042
62.2254 9.30607 0
68.2468 48.1035 0.0354927
69.4245 43.907 0.0337517
66.5715 45.4145 0.0287836
67.4883 41.4874 0.0262379
70.036 39.6582 0.0329697
72.4871 37.5127 0.0233371
70.1233 37.5234 2
67.7309 39.5087 2
67.0963 43.452 2
65.2959 41.1859 2
65.9209 47.3848 2
64.3671 44.7957 2
67.8337 37.5245 3.97363
65.5387 39.3604 3.97652
64.9088 42.9855 3.9765
63.3877 40.8969 3.97658
63.6767 46.6543 3.97473
62.4024 44.1414 3.97618
70.0528 35.3944 0.0328854
69.4612 31.1531 0.0343733
67.5525 33.6051 0.0271763
66.651 29.6502 0.0297968
62.3374 12.6591 0.0246166
62.1889 15.8021 0.0351551
61.7262 18.7321 0.0400715
65.4023 25.7362 0.0323471
63.8953 28.319 0.0243147
62.6288 24.7136 0.0285842
61.0194 21.4272 0.0343124
60.1229 23.8432 0.0271044
59.2385 12.8114 0.0346946
56.3925 13.1759 0.0306921
55.8676 10.2621 0.027583
67.7689 35.5561 2
67.155 31.6436 2
65.4519 33.955 2
64.4021 30.2481 2
60.7666 14.249 2
60.551 17.1748 2
60.0319 19.9085 2
63.2954 26.4859 2
61.8878 28.8734 2
59.3711 22.3818 2
60.7135 25.451 2
58.5976 24.4698 2
57.8925 14.3831 2
55.2902 14.7215 2
54.0358 9.14915 2
54.7748 12.0718 2
65.6373 35.6823 3.97652
64.9281 32.1951 3.97618
63.9578 34.2831 3.97642
62.2073 30.7109 3.97603
61.3004 27.178 3.97557
60.4028 29.2532 3.97613
59.2814 15.7149 3.95944
58.9134 25.9463 3.97601
58.9853 18.4424 3.95968
58.4713 20.9816 3.96375
57.9225 23.2465 3.97002
57.5537 24.8337 3.97555
52.1091 8.16444 3.97567
53.047 11.0637 3.96896
56.6387 15.8157 3.95895
53.7875 13.7634 3.96714
54.325 16.0967 3.95983
55.0679 67.931 0.0128944
65.1856 49.3707 0.0323021
55.7996 64.8986 0.0268592
59.2125 62.3354 0.0319309
56.3148 62.0416 0.0282558
63.5856 53.2525 0.0353326
62.1809 50.5769 0.0296479
59.3103 59.5218 0.0395731
59.1612 56.9431 0.0388695
60.8943 54.2396 0.032456
59.0482 55.099 0.031958
53.0425 68.9978 2
53.9639 66.0029 2
57.8649 60.8317 2
54.6706 63.1688 2
55.1889 60.561 2
62.9141 48.5897 2
61.5165 52.501 2
59.8973 49.91 2
57.9388 58.205 2
59.0833 53.8534 2
57.8978 55.7125 2
52.067 66.9925 3.98032
52.9454 64.196 3.97469
56.6133 59.4385 3.96308
53.6579 61.5615 3.97275
54.2211 59.2627 3.97037
60.5696 47.7737 3.97423
59.3871 51.9998 3.9709
57.5542 49.4747 3.97411
56.6452 56.9046 3.96255
56.8059 53.9991 3.96672
50.107 67.8503 2
49.333 65.9081 3.97738
47.4605 66.5674 2
46.887 64.7152 3.97624
45.5558 67.0865 3.97929
43.9712 69.585 3.98552
46.0548 69.153 2
46.6064 71.3668 3.99054
48.0994 68.5731 0.0171476
48.8018 70.7218 2
49.554 73.0099 4
50.9458 69.9311 0.0107832
51.8506 72.1455 2
54.0858 71.1327 0
53.0627 6.07379 3.98817
55.1038 7.14494 2
56.25 5.02411 4
58.3339 6.3199 2
57.0553 8.33903 0.019024
60.3285 7.74928 0
65.9223 47.3855 0.0303428
67.0977 43.4524 0.0275924
64.3687 44.7965 0.0236467
65.2988 41.1863 0.0237161
67.7334 39.5088 0.0261733
70.124 37.5232 0.0328553
67.8313 37.5246 2
65.5355 39.3603 2
64.9056 42.9847 2
63.3872 40.8965 2
63.6747 46.6533 2
62.4014 44.1412 2
65.6477 37.505 3.97649
63.5379 39.2528 3.97661
62.9401 42.502 3.9762
61.9774 40.6583 3.97661
61.547 45.8253 3.97583
60.9493 43.601 3.97601
67.7716 35.5557 0.0267226
67.1564 31.643 0.028011
65.4558 33.9543 0.023387
64.4049 30.2467 0.0238215
60.7672 14.2479 0.0342979
60.5562 17.1738 0.0409718
60.0341 19.9075 0.0380395
63.2975 26.4846 0.0261751
61.8898 28.8728 0.024146
60.7156 25.4497 0.0248816
59.3696 22.3811 0.0314426
58.6006 24.4681 0.0256138
57.8937 14.3823 0.036732
55.2886 14.7247 0.0366247
54.0332 9.14986 0.0283264
54.7741 12.0745 0.0330628
65.6337 35.6824 2
64.9249 32.1959 2
63.9565 34.2834 2
62.2059 30.7112 2
59.2808 15.7137 2
58.995 18.4401 2
58.4698 20.983 2
61.2985 27.179 2
60.4025 29.2538 2
57.9123 23.2499 2
58.9122 25.9473 2
57.5572 24.8351 2
56.6339 15.8167 2
54.3303 16.0912 2
53.7861 13.7539 2
52.1113 8.16405 2
53.0486 11.0609 2
63.7482 35.6525 3.9764
62.5321 33.1 3.97611
60.1161 30.7183 3.97577
59.0976 28.0506 3.97589
57.8584 17.0621 3.9583
57.2625 25.9098 3.9759
57.4968 19.6004 3.95957
57.0186 22.0043 3.96447
56.7466 24.1317 3.97107
50.1102 7.29318 3.98132
51.2247 10.1516 3.97247
52.1524 12.872 3.96658
55.4579 17.0729 3.95765
52.9373 15.3651 3.96266
53.6804 17.0977 3.95696
53.04 68.9991 0.0114572
53.9627 66.0035 0.0227523
62.9157 48.5905 0.0273769
54.6714 63.1676 0.0292108
57.8656 60.8305 0.0319807
55.1913 60.5613 0.0246774
61.5161 52.5011 0.0311654
59.8962 49.9102 0.0270537
57.9401 58.2036 0.039622
57.9017 55.714 0.0368206
59.0789 53.8528 0.0301601
52.0682 66.9924 2
52.9452 64.1987 2
56.6126 59.4391 2
53.6562 61.5623 2
54.2166 59.2645 2
60.5692 47.7731 2
59.3888 51.9997 2
57.554 49.474 2
56.6407 56.9078 2
56.8029 53.9978 2
51.1632 65.114 3.97677
52.0285 62.5009 3.97136
55.4052 58.1835 3.96053
52.7926 60.0575 3.97019
53.5798 58.4029 3.96592
57.7263 46.6943 3.97585
57.163 51.6518 3.97102
55.6948 49.3853 3.97328
55.286 55.6894 3.96273
54.9885 53.2429 3.96286
50.1059 67.8508 0.0182609
49.3334 65.9076 2
48.6109 64.1036 3.978
47.4597 66.5681 0.0229463
45.5564 67.0876 2
46.8876 64.7144 2
46.373 63.0252 3.98202
45.1292 65.1788 3.97773
43.6297 67.459 3.98114
41.859 69.872 3.98521
43.9721 69.5854 2
44.3739 71.8613 3.99095
46.0535 69.1527 0.0155541
46.608 71.3665 2
47.2057 73.7222 4
48.7998 70.7224 0.0102039
49.554 73.0099 2
51.8506 72.1454 0
50.9538 5.13429 3.99018
53.0653 6.07456 2
54.0858 3.86728 4
55.1003 7.14335 0.0152098
56.25 5.02406 2
58.3339 6.31992 0
63.6767 46.6543 0.0252733
64.9088 42.9855 0.0234954
62.4024 44.1414 0.0238178
63.3877 40.8969 0.0234246
65.5387 39.3604 0.0234806
67.8337 37.5245 0.0263667
65.6442 37.505 2
63.5376 39.2527 2
62.9398 42.5017 2
61.9785 40.6581 2
61.5459 45.8245 2
60.9493 43.6011 2
63.6022 37.4597 3.97651
61.6841 39.3328 3.97677
60.6936 41.8916 3.97662
59.702 44.652 3.97608
65.6373 35.6823 0.0234752
64.9281 32.1951 0.0238229
63.9578 34.2831 0.0235837
62.2073 30.7109 0.0239722
59.2814 15.7149 0.0405608
58.9853 18.4424 0.0403209
58.4713 20.9816 0.0362494
61.3004 27.178 0.0244272
60.4028 29.2532 0.0238709
58.9134 25.9463 0.0239932
57.9225 23.2465 0.0299763
57.5537 24.8337 0.0244536
56.6387 15.8157 0.041053
54.325 16.0967 0.040173
53.7875 13.7634 0.0328584
52.1091 8.16444 0.0243326
53.047 11.0637 0.0310363
63.7476 35.6526 2
62.5326 33.1004 2
60.1167 30.7185 2
57.8616 17.0613 2
57.5127 19.5962 2
57.0138 22.0071 2
59.0972 28.0511 2
56.7599 24.1326 2
57.265 25.912 2
50.1123 7.29076 2
55.4624 17.0708 2
53.6911 17.0884 2
52.9347 15.3577 2
52.1532 12.8749 2
51.2267 10.1479 2
61.7278 35.3879 3.97652
59.733 32.8258 3.97605
58.0264 30.2147 3.97566
56.7364 27.5689 3.97629
56.505 18.266 3.95951
55.7851 25.3123 3.97509
56.0828 20.6781 3.96059
55.6881 23.0647 3.96433
48.0558 6.53292 3.98563
49.3199 9.34799 3.97534
50.4179 12.0472 3.97081
51.3401 14.5852 3.96324
54.2967 18.0479 3.95932
52.2958 17.1673 3.95814
52.067 66.9925 0.0196761
52.9454 64.196 0.025311
60.5696 47.7737 0.0257668
53.6579 61.5615 0.0272473
56.6133 59.4385 0.036915
54.2211 59.2627 0.0296296
59.3871 51.9998 0.0291044
57.5542 49.4747 0.0258918
56.6452 56.9046 0.0374542
56.8059 53.9991 0.0332778
51.1631 65.1136 2
52.0275 62.5022 2
55.4025 58.1844 2
52.7912 60.0601 2
53.577 58.4055 2
57.7261 46.6936 2
57.1601 51.6506 2
55.6904 49.3839 2
55.2829 55.6892 2
54.9883 53.243 2
50.3355 63.3614 3.97785
51.2089 60.8708 3.97461
54.1128 57.1883 3.96614
52.2211 58.5505 3.96518
55.9423 44.0194 3.97636
54.8389 47.706 3.97522
54.5663 51.2217 3.96582
53.7488 54.4228 3.96508
49.333 65.9081 0.0226197
48.6105 64.1017 2
47.9474 62.4508 3.98258
45.5558 67.0865 0.0207115
46.887 64.7152 0.0237612
43.63 67.4595 2
46.3728 63.026 2
45.1299 65.1776 2
45.9725 61.5537 3.99018
44.7615 63.4234 3.97688
43.3557 65.4909 3.97832
41.6623 67.6773 3.98077
39.7014 70.018 3.98461
41.8598 69.8724 2
42.1087 72.2056 3.99131
43.9712 69.585 0.0144812
44.3752 71.8611 2
44.8159 74.2794 4
46.6064 71.3668 0.00945758
47.2057 73.7222 2
49.554 73.0099 0
48.7853 4.32453 3.99104
50.9555 5.13382 2
51.8506 2.85458 4
53.0627 6.07379 0.0118332
54.0858 3.86728 2
56.25 5.02411 0
61.547 45.8253 0.0241727
62.9401 42.502 0.0238007
60.9493 43.601 0.0239874
61.9774 40.6583 0.0233946
63.5379 39.2528 0.0233873
65.6477 37.505 0.0235053
63.6018 37.4596 2
61.6854 39.3328 2
60.6953 41.8917 2
59.7026 44.6517 2
61.5123 37.4463 3.97692
59.6419 39.8057 3.97679
58.3198 42.8152 3.97596
63.7482 35.6525 0.0235997
62.5321 33.1 0.0238901
60.1161 30.7183 0.0242258
57.8584 17.0621 0.041702
57.4968 19.6004 0.0404276
57.0186 22.0043 0.0355262
59.0976 28.0506 0.0241119
57.2625 25.9098 0.0240987
56.7466 24.1317 0.0289335
55.4579 17.0729 0.0423483
53.6804 17.0977 0.0430448
52.9373 15.3651 0.0373447
50.1102 7.29318 0.0186777
52.1524 12.872 0.0334177
51.2247 10.1516 0.0275255
61.729 35.388 2
59.7333 32.8255 2
58.0276 30.214 2
56.5069 18.2649 2
56.1081 20.6714 2
55.6975 23.0685 2
56.7374 27.5708 2
55.7931 25.3179 2
48.0568 6.53186 2
49.3218 9.34589 2
54.3135 18.0464 2
52.2877 17.1616 2
51.3366 14.5865 2
50.4199 12.0467 2
59.2764 35.16 3.97655
57.2929 32.3809 3.97556
55.8799 29.5219 3.97594
54.8342 26.843 3.97545
55.1728 19.3247 3.96216
54.4664 24.2811 3.97339
54.6692 21.7489 3.96071
45.9626 5.88652 3.98766
43.3745 7.48071 3.9833
47.3532 8.63485 3.9804
48.5893 11.3273 3.97303
49.6811 13.8034 3.96791
50.576 16.2381 3.96053
52.9904 18.8177 3.96354
51.2131 18.2275 3.95979
51.1632 65.114 0.023228
52.0285 62.5009 0.0286372
57.7263 46.6943 0.0241497
52.7926 60.0575 0.0298112
55.4052 58.1835 0.0394743
53.5798 58.4029 0.0340832
57.163 51.6518 0.0289773
55.6948 49.3853 0.0267223
55.286 55.6894 0.0372689
54.9885 53.2429 0.0371432
50.3347 63.3603 2
51.207 60.8698 2
54.1114 57.1897 2
52.2161 58.5522 2
55.9432 44.0199 2
54.8368 47.7047 2
54.5626 51.2205 2
53.7455 54.4242 2
49.5686 61.7216 3.97503
54.6692 41.6189 3.97398
50.4989 59.2579 3.96941
52.0207 56.3934 3.96515
53.3418 45.3383 3.97437
52.6937 49.131 3.96957
52.269 52.7014 3.95982
48.6109 64.1036 0.0219957
47.9466 62.4471 2
47.3047 60.9814 3.99433
43.6297 67.459 0.0188553
45.1292 65.1788 0.0222743
46.373 63.0252 0.0179812
41.6631 67.6767 2
43.3572 65.4915 2
45.9723 61.5547 2
44.7618 63.422 2
45.7393 60.5994 3.99145
44.4734 61.7972 3.97897
43.1434 63.6998 3.97815
41.5459 65.6292 3.976
39.6321 67.7546 3.97988
37.5259 70.0423 3.98384
39.702 70.0181 2
39.8161 72.4023 3.99136
41.859 69.872 0.0147851
42.1096 72.2058 2
42.3947 74.6792 4
44.3739 71.8613 0.00905328
44.8159 74.2794 2
47.2057 73.7222 0
43.852 5.36302 3.98698
46.5715 3.64891 3.99162
48.786 4.32422 2
49.554 1.99015 4
50.9538 5.13429 0.00981501
51.8506 2.85453 2
54.0858 3.86728 0
59.702 44.652 0.0239178
60.6936 41.8916 0.0233807
61.6841 39.3328 0.0232323
63.6022 37.4597 0.0234852
61.5132 37.4462 2
59.6438 39.8053 2
58.3208 42.8157 2
59.1312 37.5661 3.97734
57.2413 40.5858 3.97732
54.0675 39.6365 3.97547
61.7278 35.3879 0.023479
59.733 32.8258 0.023948
58.0264 30.2147 0.0243413
56.505 18.266 0.0404904
56.0828 20.6781 0.0394079
55.6881 23.0647 0.0356716
56.7364 27.5689 0.0237136
55.7851 25.3123 0.0249095
54.2967 18.0479 0.0406805
52.2958 17.1673 0.0418604
51.3401 14.5852 0.036759
48.0558 6.53292 0.0143652
49.3199 9.34799 0.024657
50.4179 12.0472 0.0291927
59.2773 35.1594 2
45.9631 5.88514 2
43.3747 7.47826 2
57.2936 32.3815 2
55.8795 29.5213 2
55.1626 19.3305 2
54.7099 21.7491 2
54.4683 24.2883 2
54.834 26.8441 2
47.3547 8.63214 2
48.5915 11.3241 2
53.0011 18.7886 2
51.2178 18.2196 2
50.5732 16.2386 2
49.6799 13.8083 2
56.6113 34.8196 3.97711
54.9308 31.671 3.97555
53.7926 28.6353 3.97701
53.2124 25.7602 3.9745
53.7612 20.2985 3.9609
53.2072 22.9398 3.95852
41.4004 7.0846 3.98329
45.3599 8.00049 3.98667
42.8667 9.4279 3.976
46.6622 10.672 3.97825
47.7188 13.1401 3.97283
48.8827 15.4787 3.96815
49.9169 17.7997 3.95661
51.5052 19.5146 3.97538
50.3355 63.3614 0.0221519
51.2089 60.8708 0.0253941
55.9423 44.0194 0.0236415
54.8389 47.706 0.0247814
52.2211 58.5505 0.0348163
54.1128 57.1883 0.0338647
54.5663 51.2217 0.0341774
53.7488 54.4228 0.0349236
49.5673 61.7198 2
54.6609 41.6146 2
50.4951 59.2609 2
52.0247 56.3976 2
53.3364 45.3363 2
52.6907 49.1289 2
52.272 52.7017 2
48.8033 60.1707 3.98025
51.41 42.4888 3.98344
49.6754 57.5534 3.96393
50.3231 54.3146 3.96118
51.0115 47.0404 3.97569
50.7005 50.7725 3.95456
47.1078 43.5225 3.97296
47.9474 62.4508 0.0174181
47.3039 60.9776 2
46.5793 59.7706 3.99332
41.6623 67.6773 0.0192289
43.3557 65.4909 0.0216799
44.7615 63.4234 0.0231177
45.9725 61.5537 0.00981693
39.6331 67.7551 2
41.5471 65.6269 2
45.7394 60.6003 2
43.1428 63.6985 2
44.4718 61.7983 2
44.5962 60.2536 3.99556
42.9423 62.0517 3.97489
41.5986 63.7979 3.97709
39.6469 65.5937 3.97535
37.5634 67.7355 3.97813
31.6986 65.1118 3.97493
33.3934 67.4738 3.9781
35.3341 69.953 3.9842
37.5259 70.0439 2
37.509 72.4565 3.99191
39.7014 70.018 0.0153915
39.8169 72.4023 2
39.9526 74.9197 4
42.1087 72.2056 0.0086916
42.3947 74.6792 2
44.8159 74.2794 0
41.7368 4.97108 3.98792
43.8523 5.36121 2
44.3271 3.11177 3.99233
46.5719 3.64839 2
47.2057 1.27793 4
48.7853 4.32453 0.00895663
49.554 1.99013 2
51.8506 2.85458 0
58.3198 42.8152 0.0240359
59.6419 39.8057 0.0232137
61.5123 37.4463 0.0230824
59.1327 37.5664 2
57.2432 40.5876 2
54.0592 39.6449 2
55.9639 37.8739 3.97685
48.4351 41.207 3.96964
51.9947 39.2702 3.98148
39.444 6.80794 3.98361
59.2764 35.16 0.0234452
57.2929 32.3809 0.024443
55.8799 29.5219 0.0240632
55.1728 19.3247 0.0378426
54.6692 21.7489 0.0392913
54.4664 24.2811 0.026613
54.8342 26.843 0.0245487
52.9904 18.8177 0.0364592
51.2131 18.2275 0.0402056
50.576 16.2381 0.0394684
45.9626 5.88652 0.0123378
49.6811 13.8034 0.0320899
47.3532 8.63485 0.0195989
48.5893 11.3273 0.0269723
43.3745 7.48071 0.0166972
56.6113 34.8191 2
41.4005 7.08422 2
45.3604 7.99854 2
42.8669 9.42582 2
54.933 31.6706 2
53.7916 28.6369 2
53.766 20.3147 2
53.193 22.9447 2
53.2093 25.7604 2
46.6639 10.6666 2
47.7197 13.1354 2
51.525 19.5123 2
49.9168 17.8065 2
48.8753 15.4943 2
53.8887 34.0226 3.97488
52.6236 30.7336 3.97517
51.9058 27.4954 3.97509
51.7093 24.3891 3.97823
52.1535 21.263 3.97619
41.0136 9.05858 3.97705
44.7266 10.0026 3.98572
42.4588 10.9117 4.00561
45.9812 12.7472 3.96766
47.6409 14.6552 3.96576
48.026 17.0542 3.96642
49.7209 19.9158 3.98159
49.5686 61.7216 0.0249678
50.4989 59.2579 0.0305895
54.6692 41.6189 0.0260236
53.3418 45.3383 0.0256334
52.6937 49.131 0.0304273
52.0207 56.3934 0.0348525
52.269 52.7014 0.0401765
48.8 60.1675 2
51.4221 42.5004 2
49.6723 57.5533 2
50.325 54.3174 2
51.014 47.0397 2
50.705 50.7722 2
47.118 43.5567 2
47.9134 58.6819 3.9908
49.0999 45.0668 3.98109
48.4216 55.8353 3.95761
48.7709 52.4624 3.97627
49.0515 48.8462 3.96994
44.83 39.7635 3.84446
45.3399 42.4507 3.88602
45.6271 45.5133 3.98238
42.6751 40.987 3.64788
41.4788 41.7299 3.44716
47.3047 60.9814 0.00566995
46.5778 59.7668 2
45.4158 58.765 3.99502
39.6321 67.7546 0.0201163
41.5459 65.6292 0.0239982
43.1434 63.6998 0.0218461
44.4734 61.7972 0.0210349
45.7393 60.5994 0.00855318
41.599 63.795 2
37.5641 67.7374 2
39.6485 65.5943 2
44.5974 60.2552 2
42.9403 62.0516 2
41.7461 62.4579 3.97685
42.4592 59.9459 3.9835
39.8939 63.5299 3.97641
37.6417 65.4897 3.9746
35.464 67.6453 3.97809
33.5765 65.3231 3.97422
31.9612 63.2699 3.97688
29.8867 64.7013 3.97902
31.6981 65.1114 2
31.3785 67.1848 3.9785
33.3929 67.4751 2
33.1578 69.7466 3.98414
35.3336 69.9545 2
35.196 72.3712 3.992
37.5259 70.0423 0.0161586
37.5094 72.4571 2
37.5 75 4
39.8161 72.4023 0.00863653
39.9526 74.9197 2
42.3947 74.6792 0
39.6249 4.71874 3.98893
41.7368 4.97054 2
42.0636 2.71879 3.9927
43.852 5.36302 0.013025
44.3271 3.11082 2
44.8158 0.721173 4
46.5715 3.64891 0.00838425
47.2057 1.27779 2
49.554 1.99015 0
57.2413 40.5858 0.0226807
59.1312 37.5661 0.0226598
54.0675 39.6365 0.0245322
48.4577 41.2157 2
55.9665 37.8707 2
51.9887 39.2346 2
52.8517 36.614 3.97755
46.3657 40.2834 3.89236
49.3717 38.5011 3.9823
37.518 6.67728 3.985
39.4446 6.80619 2
39.2115 8.70093 3.98138
35.9441 8.4983 3.9831
56.6113 34.8196 0.0228923
54.9308 31.671 0.02445
53.7926 28.6353 0.0229925
53.7612 20.2985 0.0390972
53.2072 22.9398 0.0414764
53.2124 25.7602 0.0254997
51.5052 19.5146 0.0246171
49.9169 17.7997 0.0433927
48.8827 15.4787 0.0318473
45.3599 8.00049 0.013333
47.7188 13.1401 0.0271714
46.6622 10.672 0.0217491
41.4004 7.0846 0.0167097
42.8667 9.4279 0.0240013
53.8864 34.0184 2
41.0147 9.06006 2
44.7261 9.99981 2
42.46 10.9136 2
52.6164 30.7308 2
51.9149 27.4972 2
52.1513 21.2727 2
51.6946 24.392 2
45.9824 12.7396 2
47.6329 14.627 2
49.7404 19.9067 2
48.0233 17.0661 2
51.3771 32.9514 3.98191
50.4575 29.4564 3.97722
50.2111 25.9892 3.97001
49.7194 22.5172 3.98597
40.5623 11.6204 3.98451
43.8366 11.916 3.97496
45.7581 15.5063 3.9902
47.429 19.5311 3.98126
45.2872 37.4836 3.84375
48.8033 60.1707 0.0197547
49.6754 57.5534 0.0360687
51.41 42.4888 0.0165606
51.0115 47.0404 0.0243144
50.7005 50.7725 0.0454369
50.3231 54.3146 0.0388186
47.1078 43.5225 0.0270435
47.9093 58.6873 2
49.1157 45.0826 2
48.4176 55.8376 2
48.7722 52.4679 2
49.0566 48.8484 2
44.9357 39.7894 2
45.368 42.4709 2
45.6351 45.5334 2
42.7344 41.0424 2
41.5187 41.7546 2
46.7337 57.2871 3.98103
43.3812 39.3476 3.64545
41.8594 40.6789 3.44954
47.3058 47.0919 3.98374
46.93 54.1375 3.95886
47.139 50.6028 3.97721
44.1925 47.1429 3.98535
43.9909 41.7938 3.84365
44.1257 44.2484 3.87859
41.7592 42.3716 3.69474
40.5302 42.0172 3.41423
46.5793 59.7706 0.006684
45.4156 58.7639 2
43.8232 57.6428 3.98332
37.5634 67.7355 0.02187
39.6469 65.5937 0.0246482
41.5986 63.7979 0.0229147
42.9423 62.0517 0.0251074
44.5962 60.2536 0.00443516
35.464 67.6476 2
41.7444 62.4604 2
39.8932 63.5303 2
37.6428 65.492 2
42.4619 59.9434 2
40.6163 61.5987 3.98276
40.4228 58.1195 3.98514
37.8371 63.186 3.97258
35.573 65.4127 3.97651
33.5766 65.3228 2
31.9632 63.2735 2
33.6298 63.3139 3.97557
30.3814 62.833 3.98144
32.1309 61.9726 3.98736
26.8848 61.4478 3.98164
28.0683 64.1304 3.9802
29.8863 64.7013 2
29.4086 66.7475 3.9785
31.6986 65.1118 0.0250682
31.3782 67.1847 2
31.0158 69.4122 3.98398
33.3934 67.4738 0.0218995
33.1571 69.7477 2
32.8942 72.1456 3.99131
35.3341 69.953 0.015796
35.1956 72.372 2
35.0474 74.9194 4
37.509 72.4565 0.00808559
37.5 75 2
39.9526 74.9197 0
35.6224 6.72882 3.98406
37.5248 4.61773 3.98931
39.6249 4.71722 2
39.7902 2.47541 3.99282
41.7368 4.97108 0.0120808
42.0633 2.71838 2
42.3946 0.32156 4
44.3271 3.11177 0.00766533
44.8159 0.72056 2
47.2057 1.27793 0
48.4351 41.207 0.030361
55.9639 37.8739 0.0231522
51.9947 39.2702 0.0185197
46.3856 40.2908 2
49.3702 38.4958 2
52.8581 36.6419 2
50.1784 35.5547 3.97447
47.0189 37.75 3.89595
44.8584 35.2006 3.8436
42.726 33.9623 3.64772
41.5166 33.2218 3.44612
37.4595 8.53799 3.9843
37.5184 6.67674 2
39.444 6.80794 0.0163905
39.2133 8.69854 2
38.9754 10.1374 3.98619
35.9002 9.78126 3.9801
34.1541 8.83034 3.98098
35.945 8.49591 2
53.8887 34.0226 0.0251206
52.6236 30.7336 0.0248256
51.9058 27.4954 0.024911
52.1535 21.263 0.0238133
51.7093 24.3891 0.0217656
49.7209 19.9158 0.0184067
48.026 17.0542 0.0335804
47.6409 14.6552 0.0342387
44.7266 10.0026 0.0142841
45.9812 12.7472 0.0323383
41.0136 9.05858 0.0229546
42.4588 10.9117 -0.00560779
51.3904 32.9427 2
40.5654 11.6246 2
43.8359 11.9073 2
50.474 29.4573 2
50.2074 25.9982 2
49.7016 22.4967 2
45.7451 15.4475 2
47.4327 19.562 2
48.9677 31.5615 3.98475
48.5713 27.7582 3.97603
48.9764 24.6284 3.98074
47.0462 22.3042 3.99071
38.2986 12.7546 3.9774
42.079 14.3347 3.98144
44.7449 18.6342 3.97321
43.8003 37.4833 3.65956
45.3876 37.4871 2
47.9134 58.6819 0.00919937
48.4216 55.8353 0.0423875
49.0999 45.0668 0.0189122
49.0515 48.8462 0.0300634
48.7709 52.4624 0.0237294
44.83 39.7635 0.155537
45.3399 42.4507 0.113983
45.6271 45.5133 0.0176242
42.6751 40.987 0.352123
41.4788 41.7299 0.552837
46.73 57.2934 2
43.4586 39.374 2
41.87 40.6918 2
47.3137 47.0899 2
46.9247 54.1421 2
47.1415 50.6123 2
44.2281 47.1425 2
44.0561 41.8296 2
44.1836 44.2769 2
41.814 42.4353 2
40.566 42.0345 2
45.2605 55.8629 4.0008
42.2029 39.1778 3.46013
40.4191 40.5621 3.55897
45.5428 48.7349 4.00146
45.2058 52.3963 3.98674
42.9623 48.1345 3.99308
42.84 45.7723 3.87462
42.9296 43.5576 3.82922
40.6703 43.3438 3.66756
39.1604 42.2749 3.47298
45.4158 58.765 0.00497869
43.8208 57.6526 2
42.0458 56.2171 3.98997
35.464 67.6453 0.021912
37.6417 65.4897 0.0253985
39.8939 63.5299 0.0235902
41.7461 62.4579 0.023154
42.4592 59.9459 0.0165036
35.574 65.4162 2
40.6163 61.5967 2
37.8377 63.1844 2
40.4231 58.1241 2
38.9025 56.3572 3.99418
38.2447 60.2798 3.98239
35.6072 63.1801 3.97216
33.5765 65.3231 0.0257848
31.9612 63.2699 0.0231172
33.6319 63.3155 2
30.383 62.8356 2
32.1334 61.9753 2
28.6893 62.1722 3.98012
33.3497 61.478 3.97947
31.0821 61.1999 3.98682
27.6026 59.5426 3.9781
23.8389 59.015 3.99187
25.0568 60.8131 3.97711
26.8861 61.4489 2
26.2385 63.4602 3.97538
28.0676 64.1286 2
27.4659 66.1702 3.97827
29.8867 64.7013 0.0209758
29.408 66.7466 2
28.9084 68.9374 3.98289
31.3785 67.1848 0.0215002
31.0148 69.4121 2
30.6172 71.7772 3.99065
33.1578 69.7466 0.0158577
32.8933 72.1461 2
32.6054 74.6784 4
35.196 72.3712 0.0079957
35.0474 74.9197 2
37.5 75 0
33.7255 6.98498 3.9827
35.4369 4.6878 3.98885
35.6229 6.72758 2
37.5159 2.38779 3.99294
37.5247 4.61701 2
39.6249 4.71874 0.0110722
39.7897 2.4746 2
39.9526 0.0806499 4
42.0636 2.71879 0.00729678
42.3947 0.320817 2
44.8158 0.721173 0
43.4029 35.6137 3.65064
41.8854 34.2678 3.43531
46.3657 40.2834 0.107637
49.3717 38.5011 0.0176985
52.8517 36.614 0.0224497
47.0155 37.731 2
50.1921 35.5594 2
44.9452 35.1833 2
42.7701 33.9119 2
41.5442 33.1966 2
47.2329 34.3728 3.93944
44.0481 33.1653 3.83579
41.8138 32.582 3.69259
40.5596 32.9436 3.41331
37.3116 10.6355 3.98132
37.4609 8.53797 2
37.518 6.67728 0.0149988
39.2115 8.70093 0.0186243
38.9792 10.1353 2
34.7572 10.3913 3.97947
35.9028 9.77625 2
32.3811 9.37683 3.9772
34.1533 8.82605 2
35.9441 8.4983 0.0168958
51.3771 32.9514 0.0180858
50.4575 29.4564 0.0227786
50.2111 25.9892 0.0299856
49.7194 22.5172 0.0140254
47.429 19.5311 0.0187398
45.7581 15.5063 0.00979585
43.8366 11.916 0.0250409
40.5623 11.6204 0.0154861
48.9884 31.545 2
38.3005 12.7495 2
42.0855 14.3478 2
48.5706 27.7597 2
48.9688 24.6357 2
47.0322 22.3073 2
44.7508 18.7042 2
46.9026 29.755 3.98274
46.6601 25.3428 3.9739
44.1926 21.6388 3.98201
36.5863 12.9686 3.97492
38.676 14.8715 3.97587
41.716 17.9669 3.97669
42.3731 37.4614 3.49629
43.8653 37.4848 2
45.2872 37.4836 0.156248
46.7337 57.2871 0.0189665
46.93 54.1375 0.0411439
47.3058 47.0919 0.0162608
47.139 50.6028 0.0227946
43.3812 39.3476 0.354554
43.9909 41.7938 0.156351
44.1257 44.2484 0.121414
44.1925 47.1429 0.0146513
41.7592 42.3716 0.305263
41.8594 40.6789 0.550456
40.5302 42.0172 0.585773
45.2567 55.8659 2
42.2099 39.1853 2
40.4642 40.5497 2
45.5442 48.7554 2
45.2011 52.3991 2
42.998 48.1501 2
42.8998 45.827 2
42.9767 43.5911 2
40.7167 43.4167 2
39.1533 42.2962 2
43.5807 54.3147 3.99788
40.5162 39.0214 3.58189
39.0562 40.6408 3.52859
43.2809 50.2258 4.00318
41.6113 47.2757 3.92309
41.5188 44.8688 3.83822
39.3493 43.9929 3.63641
37.5041 42.4009 3.52117
43.8232 57.6428 0.0166841
42.0504 56.2095 2
40.3592 54.7752 3.99478
35.573 65.4127 0.0234904
37.8371 63.186 0.0274164
40.6163 61.5987 0.0172415
40.4228 58.1195 0.0148627
35.6088 63.1772 2
38.243 60.2789 2
38.9053 56.3388 2
37.976 55.034 3.99487
36.9254 57.5539 3.99137
35.3647 60.8761 3.98041
33.6298 63.3139 0.0244253
30.3814 62.833 0.0185571
32.1309 61.9726 0.0126443
33.3514 61.478 2
28.6905 62.1766 2
31.0843 61.205 2
29.4282 60.257 3.97764
32.3692 59.6866 3.99613
28.0768 58.3298 4.01651
27.6044 59.5402 2
25.428 58.536 3.97863
22.8294 58.1711 3.96859
23.4277 60.2802 3.97597
23.8412 59.0152 2
25.0587 60.8121 2
24.4451 62.7383 3.97596
26.8848 61.4478 0.0183591
26.2388 63.4587 2
25.5509 65.4794 3.97689
28.0683 64.1304 0.0198021
27.4656 66.1708 2
26.8383 68.3248 3.98249
29.4086 66.7475 0.0215015
28.9076 68.9367 2
28.3724 71.2625 3.98981
31.0158 69.4122 0.0160238
30.616 71.7769 2
30.1842 74.2788 4
32.8942 72.1456 0.00868668
32.6053 74.6792 2
35.0474 74.9194 0
31.7899 7.42448 3.98118
33.3495 4.92757 3.9878
33.7252 6.9825 2
35.2464 2.46363 3.99299
35.4367 4.68716 2
35.6224 6.72882 0.0159369
37.5 0 4
37.5151 2.38737 2
37.5248 4.61773 0.0106929
39.7902 2.47541 0.0071835
39.9526 0.0802889 2
42.3946 0.32156 0
42.1976 35.7428 3.44021
43.489 35.5838 2
40.4666 34.3841 3.56011
41.8866 34.2503 2
47.0189 37.75 0.104049
50.1784 35.5547 0.0255343
44.8584 35.2006 0.156399
42.726 33.9623 0.35228
41.5166 33.2218 0.553879
47.2657 34.388 2
44.0938 33.1251 2
41.8653 32.5183 2
40.5917 32.9266 2
45.3633 31.801 3.89644
42.982 31.4007 3.82115
40.7164 31.6135 3.66738
39.1776 32.7036 3.46858
35.6967 11.7898 3.97606
37.3163 10.6347 2
37.4595 8.53799 0.0156958
38.9754 10.1374 0.0138117
33.1025 11.2297 3.97249
34.7569 10.3833 2
35.9002 9.78126 0.0198988
30.4869 10.0289 3.9768
32.3803 9.37546 2
34.1541 8.83034 0.0190182
48.9677 31.5615 0.0152516
48.5713 27.7582 0.023969
48.9764 24.6284 0.0192647
47.0462 22.3042 0.00929344
44.7449 18.6342 0.0267851
42.079 14.3347 0.018556
38.2986 12.7546 0.0226038
36.5833 12.9468 2
46.9053 29.6989 2
38.6751 14.8506 2
41.7085 17.9687 2
46.6586 25.3426 2
44.1756 21.6174 2
44.8986 27.8952 3.99331
43.5281 24.2798 4.02371
41.2715 20.9833 3.99149
35.771 14.8084 3.98073
38.6571 17.6938 3.98391
40.5724 37.4401 3.60038
42.3869 37.4661 2
43.8003 37.4833 0.340435
45.2605 55.8629 -0.000795638
45.2058 52.3963 0.0132607
45.5428 48.7349 -0.0014584
42.2029 39.1778 0.539873
42.9296 43.5576 0.170783
42.84 45.7723 0.125377
42.9623 48.1345 0.00692494
40.6703 43.3438 0.332436
40.4191 40.5621 0.441027
39.1604 42.2749 0.527018
43.5772 54.3108 2
40.533 39.0224 2
39.0533 40.6393 2
43.2727 50.2401 2
41.6105 47.3094 2
41.5425 44.9141 2
37.5005 42.4249 2
39.3706 44.066 2
41.7304 52.7733 4.00032
39.0651 39.0663 3.53223
37.5067 40.6947 3.56847
35.8562 42.2855 3.46918
40.7635 49.3622 3.99358
39.6924 45.5809 3.80194
37.5014 44.2672 3.6741
42.0458 56.2171 0.0100314
40.3592 54.7834 2
38.7169 53.5634 3.99666
35.6072 63.1801 0.0278355
38.2447 60.2798 0.0176056
38.9025 56.3572 0.00581931
35.3642 60.8652 2
36.9271 57.5649 2
37.9754 55.0291 2
36.3138 55.1203 3.99755
34.4934 58.4691 3.99339
33.3497 61.478 0.0205322
28.6893 62.1722 0.0198755
31.0821 61.1999 0.013182
32.3685 59.6887 2
29.4297 60.2576 2
30.3451 57.7715 3.98737
28.08 58.3272 2
27.0533 56.7747 3.96933
27.6026 59.5426 0.021903
25.4306 58.5351 2
23.9658 56.7243 3.96033
21.458 57.3096 3.95838
22.0303 59.5552 3.97936
22.8314 58.1721 2
22.7528 61.976 3.97294
23.4294 60.2803 2
23.8389 59.015 0.00812513
25.0568 60.8131 0.0228923
24.446 62.7394 2
23.6873 64.6935 3.97466
26.2385 63.4602 0.0246214
25.5509 65.481 2
24.8106 67.5862 3.98158
27.4659 66.1702 0.0217277
26.8373 68.3263 2
26.1678 70.6031 3.98946
28.9084 68.9374 0.0171057
28.3712 71.2621 2
27.7943 73.7221 4
30.6172 71.7772 0.00935261
30.1841 74.2794 2
32.6054 74.6784 0
29.8128 8.00078 3.9793
31.2548 5.33433 3.98677
31.7893 7.423 2
32.9824 2.70183 3.99254
33.3488 4.92614 2
33.7255 6.98498 0.0173002
35.0474 0.080333 4
35.2454 2.46343 2
35.4369 4.6878 0.0111483
37.5 0 2
37.5159 2.38779 0.00705943
39.9526 0.0806499 0
40.5778 35.8893 3.58977
42.2087 35.7433 2
43.4029 35.6137 0.349364
28.5472 10.7031 3.97685
39.0693 34.3372 3.52398
40.4788 34.3894 2
41.8854 34.2678 0.564689
47.2329 34.3728 0.0605562
44.0481 33.1653 0.164207
41.8138 32.582 0.307413
40.5596 32.9436 0.586694
45.3981 31.7825 2
43.0301 31.3619 2
40.7608 31.54 2
39.1781 32.6806 2
43.7683 30.04 3.88686
41.5455 30.0812 3.83854
39.3784 30.9719 3.63602
37.5316 32.5862 3.51849
34.1006 12.9539 3.9753
35.6969 11.7764 2
37.3116 10.6355 0.0186826
31.1932 12.0014 3.97779
33.1031 11.2281 2
34.7572 10.3913 0.0205341
30.4842 10.0234 2
32.3811 9.37683 0.0228047
46.9026 29.755 0.0172559
46.6601 25.3428 0.0260964
36.5863 12.9686 0.025082
44.1926 21.6388 0.017994
41.716 17.9669 0.0233077
38.676 14.8715 0.0241278
35.7741 14.8142 2
44.8914 27.8926 2
38.657 17.6976 2
41.2549 20.9728 2
43.5141 24.2606 2
33.6182 15.912 3.98834
42.6804 26.7253 3.9807
40.7715 23.5899 3.99414
38.3818 20.4789 3.99442
35.8453 17.5776 3.98795
39.0863 37.4862 3.5411
40.5808 37.4456 2
42.3731 37.4614 0.503705
43.5807 54.3147 0.00211832
43.2809 50.2258 -0.00318038
40.5162 39.0214 0.418106
41.5188 44.8688 0.161782
41.6113 47.2757 0.0769132
39.3493 43.9929 0.363589
39.0562 40.6408 0.471412
37.5041 42.4009 0.478832
41.7209 52.7737 2
39.0563 39.0544 2
37.5009 40.6878 2
40.7434 49.3752 2
35.8586 42.3039 2
39.712 45.6429 2
37.4968 44.335 2
39.706 51.5588 4.00245
37.5113 39.0667 3.57474
35.9656 40.6561 3.52991
34.4791 42.0347 3.41599
35.6511 44.0107 3.62967
38.6491 48.2354 3.93172
37.5328 45.8751 3.83628
40.3592 54.7752 0.00522293
38.7156 53.5642 2
36.7698 52.8936 3.99692
35.3647 60.8761 0.0195914
36.9254 57.5539 0.00863126
37.976 55.034 0.00513338
34.4918 58.4702 2
36.3173 55.1097 2
33.2787 55.3223 3.99284
32.3692 59.6866 0.0038669
29.4282 60.257 0.0223593
30.3479 57.7663 2
28.8545 55.2799 3.98996
28.0768 58.3298 -0.0165074
27.0567 56.772 2
25.5083 55.054 3.95429
22.0286 55.2352 3.96086
25.428 58.536 0.0213664
23.969 56.7256 2
20.3338 56.941 3.96273
20.6939 58.7104 3.96394
21.461 57.3106 2
21.1886 61.1052 3.97263
22.0317 59.5563 2
22.8294 58.1711 0.0314073
21.9037 63.811 3.97392
22.7542 61.9769 2
23.4277 60.2802 0.0240274
24.4451 62.7383 0.0240376
23.6872 64.6934 2
22.8394 66.7281 3.97837
25.5509 65.4794 0.0231064
24.8096 67.5867 2
24.012 69.8049 3.98938
26.8383 68.3248 0.0175064
26.1659 70.6033 2
25.446 73.0099 4
28.3724 71.2625 0.0101906
27.7943 73.7222 2
30.1842 74.2788 0
27.8227 8.66046 3.97987
29.157 5.88129 3.98488
29.8111 7.99681 2
30.7279 3.09864 3.99222
31.254 5.33291 2
31.7899 7.42448 0.0188162
32.6053 0.320823 4
32.9812 2.70137 2
33.3495 4.92757 0.0122041
35.0474 0.0802903 2
35.2464 2.46363 0.00701499
37.5 0 0
39.0407 35.9132 3.54403
40.5591 35.8874 2
42.1976 35.7428 0.559791
28.5446 10.7002 2
26.6264 11.4017 3.97711
29.2343 12.6517 3.98117
37.5309 34.2985 3.56829
39.09 34.3525 2
40.4666 34.3841 0.439887
45.3633 31.801 0.103563
42.982 31.4007 0.178848
40.7164 31.6135 0.332625
39.1776 32.7036 0.531416
43.7975 30.0085 2
41.5744 30.0367 2
39.3912 30.9006 2
37.5356 32.5594 2
41.9659 28.738 3.86091
39.6975 29.3744 3.82401
37.5292 30.719 3.67938
35.8742 32.7031 3.4754
31.9311 14.5003 3.98166
34.1008 12.9587 2
35.6967 11.7898 0.0239386
31.1907 11.9921 2
33.1025 11.2297 0.0275142
30.4869 10.0289 0.023197
44.8986 27.8952 0.0066942
43.5281 24.2798 -0.0237073
35.771 14.8084 0.0192713
41.2715 20.9833 0.00851048
38.6571 17.6938 0.0160914
33.6109 15.8946 2
35.8401 17.5674 2
42.728 26.7033 2
38.3661 20.5308 2
40.762 23.5784 2
33.5538 17.4562 3.98409
40.2072 26.0475 3.9621
38.0269 23.3414 3.99739
35.5516 20.247 3.9962
37.5196 37.4845 3.59047
39.07 37.4769 2
40.5724 37.4401 0.399617
41.7304 52.7733 -0.000317337
40.7635 49.3622 0.00642011
39.0651 39.0663 0.467772
39.6924 45.5809 0.198059
37.5014 44.2672 0.325905
37.5067 40.6947 0.431532
35.8562 42.2855 0.530817
39.6866 51.5592 2
37.5124 39.065 2
35.9617 40.6444 2
38.6684 48.2969 2
34.4485 42.0512 2
35.6334 44.0773 2
37.5216 45.9351 2
37.682 50.5447 3.99296
35.9827 39.0763 3.54396
34.5929 40.5888 3.56305
33.5245 41.75 3.44978
34.3501 43.3592 3.65976
35.2724 45.6109 3.82341
36.9195 47.8448 3.89605
38.7169 53.5634 0.00334413
36.7638 52.8557 2
34.4704 52.2146 3.99915
34.4934 58.4691 0.00661004
36.3138 55.1203 0.00245339
33.2837 55.3299 2
30.6987 53.2404 3.9976
30.3451 57.7715 0.012629
28.8571 55.2743 2
27.1544 53.3382 3.95696
27.0533 56.7747 0.0306682
25.5122 55.0543 2
23.8893 53.3439 3.95433
20.8547 53.0704 3.95824
20.1269 55.7248 3.96147
22.0289 55.2367 2
23.9658 56.7243 0.039669
19.5138 57.8133 3.96189
20.3311 56.943 2
19.7294 60.1384 3.97432
20.6934 58.7117 2
21.458 57.3096 0.0416198
20.2195 62.8148 3.97164
21.1898 61.107 2
22.0303 59.5552 0.0206441
20.9415 65.7535 3.97549
21.904 63.8143 2
22.7528 61.976 0.0270555
23.6873 64.6935 0.0253407
22.8385 66.7283 2
21.9148 68.8719 3.98849
24.8106 67.5862 0.0184239
24.0097 69.804 2
23.1494 72.1454 4
26.1678 70.6031 0.0105406
25.446 73.0099 2
27.7943 73.7221 0
25.8623 9.39039 3.97827
27.0717 6.54568 3.98339
27.8202 8.65828 2
28.4904 3.6446 3.99134
29.1556 5.87897 2
29.8128 8.00078 0.0207023
30.1841 0.720592 4
30.7262 3.09836 2
31.2548 5.33433 0.0132298
32.6053 0.320817 2
32.9824 2.70183 0.00746232
35.0474 0.080333 0
37.5149 35.9077 3.56851
39.0235 35.9018 2
40.5778 35.8893 0.410232
24.7848 12.0878 3.97616
23.7706 14.4061 3.97835
28.5472 10.7031 0.0231513
26.6233 11.3976 2
29.231 12.6503 2
27.3015 13.3874 3.97692
29.7987 14.2106 3.98396
35.9733 34.337 3.5315
37.5391 34.3027 2
39.0693 34.3372 0.47602
37.5316 32.5862 0.48151
43.7683 30.04 0.113145
41.5455 30.0812 0.161459
39.3784 30.9719 0.363982
42.003 28.6734 2
39.7224 29.3136 2
37.5305 30.6503 2
35.8774 32.6859 2
39.8609 28.0065 3.87152
37.4895 29.1014 3.82815
35.6838 30.9897 3.6386
34.4967 32.9564 3.41772
30.9496 16.8551 3.99382
31.9242 14.4847 2
34.1006 12.9539 0.0247032
31.1932 12.0014 0.0222098
42.6804 26.7253 0.0192976
40.7715 23.5899 0.00586307
33.6182 15.912 0.0116553
35.8453 17.5776 0.0120516
38.3818 20.4789 0.00558178
33.5461 17.4629 2
35.5561 20.2557 2
40.272 26.0224 2
38.0176 23.3087 2
32.9045 19.8696 3.99561
37.6714 25.6819 3.96347
35.2706 22.9963 4.00417
35.9601 37.4797 3.54385
37.5092 37.4838 2
39.0863 37.4862 0.458897
39.706 51.5588 -0.00245335
38.6491 48.2354 0.0682771
37.5113 39.0667 0.425258
37.5328 45.8751 0.16372
35.6511 44.0107 0.370326
35.9656 40.6561 0.470085
34.4791 42.0347 0.584015
37.6616 50.5848 2
36.0068 39.0639 2
34.5499 40.587 2
36.9108 47.9081 2
33.4858 41.7769 2
34.3001 43.4291 2
35.2516 45.6666 2
35.568 49.7407 3.98397
34.4872 39.0674 3.58677
33.1513 40.706 3.44122
33.243 42.3903 3.69907
33.5233 44.8764 3.82736
34.5221 47.0008 3.86881
36.7698 52.8936 0.00308381
34.4568 52.2269 2
32.275 51.0318 4.00706
33.2787 55.3223 0.00716057
30.703 53.2402 2
28.762 51.4361 3.98081
28.8545 55.2799 0.0100432
27.1571 53.3353 2
25.4759 51.5768 3.95275
25.5083 55.054 0.045713
23.8924 53.3511 2
22.4279 51.6306 3.95245
19.7247 51.4579 3.96199
19.2347 54.1759 3.96148
20.8585 53.0685 2
18.5943 56.6307 3.96305
20.126 55.726 2
22.0286 55.2352 0.0391448
18.404 59.0488 3.96385
19.5115 57.8148 2
20.3338 56.941 0.0372748
18.6335 61.7094 3.97165
19.7304 60.1402 2
20.6939 58.7104 0.0360557
19.1315 64.6634 3.97398
20.2202 62.8187 2
21.1886 61.1052 0.027375
19.8892 67.808 3.98584
20.9408 65.7529 2
21.9037 63.811 0.0260838
22.8394 66.7281 0.0216257
21.9119 68.8705 2
20.9142 71.1327 4
24.012 69.8049 0.0106235
23.1494 72.1455 2
25.446 73.0099 0
23.1078 12.821 3.97687
23.9748 10.1787 3.97514
25.0253 7.31697 3.98162
25.859 9.38812 2
26.2823 4.32871 3.9904
27.0697 6.54455 2
27.8227 8.66046 0.0201339
27.7943 1.27781 4
28.4879 3.64445 2
29.157 5.88129 0.0151211
30.1841 0.720551 2
30.7279 3.09864 0.00777926
32.6053 0.320823 0
35.963 35.8965 3.533
37.5395 35.9167 2
39.0407 35.9132 0.455971
24.7807 12.0904 2
23.7705 14.4096 2
22.5065 15.098 3.97732
25.3717 13.9505 3.97196
24.0613 15.6649 3.98699
26.6264 11.4017 0.0228872
29.2343 12.6517 0.0188304
27.3021 13.3845 2
29.7901 14.2094 2
28.3876 15.977 3.98616
34.6129 34.4074 3.55794
35.9733 34.3388 2
37.5309 34.2985 0.431706
35.8742 32.7031 0.524595
37.5292 30.719 0.320619
41.9659 28.738 0.13909
39.6975 29.3744 0.175991
39.8903 27.9583 2
37.4901 29.0445 2
35.6696 30.9147 2
34.4612 32.9411 2
37.6261 27.7359 3.87064
35.3352 29.39 3.82226
34.3513 31.6306 3.66613
33.5411 33.2398 3.44756
30.2485 19.4643 3.98031
30.9404 16.8413 2
31.9311 14.5003 0.0183398
40.2072 26.0475 0.0378987
38.0269 23.3414 0.0026098
33.5538 17.4562 0.0159126
35.5516 20.247 0.00379985
32.9056 19.896 2
35.2589 22.9854 2
37.7132 25.6623 2
32.4684 22.6109 3.99763
35.1529 25.585 3.98931
34.4494 37.5045 3.60566
35.9589 37.4916 2
37.5196 37.4845 0.40953
37.682 50.5447 0.00704005
36.9195 47.8448 0.103945
35.9827 39.0763 0.456036
35.2724 45.6109 0.176593
34.3501 43.3592 0.340241
34.5929 40.5888 0.43695
33.5245 41.75 0.550221
35.5503 49.7549 2
34.4782 39.0666 2
33.1428 40.7185 2
34.4855 47.0615 2
33.1952 42.4525 2
33.4932 44.9247 2
33.4473 48.8452 3.97279
32.8247 39.2201 3.44524
32.312 41.0081 3.64898
32.0711 43.5733 3.82726
32.7256 45.9928 3.8688
34.4704 52.2146 0.000854652
32.2897 51.0372 2
30.3135 49.5821 4.00106
30.6987 53.2404 0.00240427
28.7668 51.4349 2
27.0028 49.7997 3.97486
27.1544 53.3382 0.0430398
25.4778 51.5793 2
23.8856 49.9853 3.9664
23.8893 53.3439 0.0456671
22.4317 51.6284 2
21.0591 50.1156 3.96444
18.4985 50.1635 3.97058
18.265 52.6399 3.96455
19.7212 51.4571 2
17.689 55.2272 3.96241
19.234 54.1755 2
20.8547 53.0704 0.0417593
17.226 57.8015 3.96086
18.5914 56.6318 2
20.1269 55.7248 0.0385295
17.1485 60.4989 3.96582
18.4036 59.0498 2
19.5138 57.8133 0.0381126
17.4151 63.4375 3.9688
18.6352 61.7103 2
19.7294 60.1384 0.0256794
17.9452 66.6154 3.98383
19.131 64.6617 2
20.2195 62.8148 0.0283629
18.75 69.9759 4
19.8861 67.8054 2
20.9415 65.7535 0.024507
21.9148 68.8719 0.0115133
20.9142 71.1327 2
23.1494 72.1454 0
21.6043 13.6554 3.97419
22.1955 11.0496 3.97289
23.1057 12.8213 2
23.0423 8.18393 3.97865
23.9727 10.1818 2
24.1201 5.14359 3.98993
25.0224 7.31573 2
25.8623 9.39039 0.0217315
25.446 1.99014 4
26.2791 4.32945 2
27.0717 6.54568 0.0166076
27.7943 1.27778 2
28.4904 3.6446 0.00865836
30.1841 0.720592 0
34.5197 35.9333 3.58105
35.9763 35.9119 2
37.5149 35.9077 0.43149
21.3424 15.9019 3.97545
24.7848 12.0878 0.02384
23.7706 14.4061 0.0216523
25.3704 13.9235 2
22.5079 15.0914 2
24.0654 15.6695 2
23.3131 16.3057 3.96574
25.4188 16.1353 3.98674
27.3015 13.3874 0.0230806
29.7987 14.2106 0.0160375
28.378 15.9936 2
27.4876 18.8995 3.98262
33.1636 34.2913 3.45228
34.5678 34.4196 2
35.9733 34.337 0.468496
34.4967 32.9564 0.58228
35.6838 30.9897 0.361401
37.4895 29.1014 0.171849
39.8609 28.0065 0.128475
37.5975 27.6973 2
33.507 33.2146 2
35.3313 29.3259 2
34.3065 31.559 2
35.22 27.8251 3.88327
33.512 30.1029 3.82981
33.2609 32.5987 3.69705
29.7846 22.0689 4.00716
30.2496 19.4813 2
30.9496 16.8551 0.00617943
37.6714 25.6819 0.0365337
35.2706 22.9963 -0.0041657
32.9045 19.8696 0.0043899
32.4692 22.5967 2
35.1808 25.5769 2
32.0563 25.8846 4.00839
32.6476 37.5013 3.49419
34.4575 37.4979 2
35.9601 37.4797 0.456148
35.568 49.7407 0.0160296
34.5221 47.0008 0.131188
34.4872 39.0674 0.413227
33.5233 44.8764 0.172642
33.243 42.3903 0.300934
33.1513 40.706 0.558776
33.4302 48.8454 2
32.8311 39.2294 2
32.2634 41.062 2
32.6999 46.0469 2
32.0174 43.6081 2
31.6654 47.6887 3.98294
31.6289 39.3665 3.65097
30.9976 41.8176 3.83915
31.1545 44.629 3.87869
32.275 51.0318 -0.00706285
30.3212 49.6127 2
28.4907 47.9738 3.96962
28.762 51.4361 0.0191931
27.0029 49.8026 2
25.31 48.2404 3.96618
25.4759 51.5768 0.047251
23.8898 49.9836 2
22.355 48.5593 3.97125
22.4279 51.6306 0.0475536
21.0602 50.1141 2
19.6247 48.9034 3.97383
17.3726 49.1799 3.97522
17.2042 51.2631 3.96965
18.5005 50.1617 2
16.7067 53.749 3.96578
18.2621 52.6396 2
19.7247 51.4579 0.0380132
16.1331 56.3928 3.96199
17.6887 55.2274 2
19.2347 54.1759 0.0385196
15.7705 59.1664 3.9619
17.2207 57.8035 2
18.5943 56.6307 0.0369489
15.7938 62.0997 3.96845
17.1505 60.5008 2
18.404 59.0488 0.0361538
16.0916 65.2974 3.98151
17.4141 63.442 2
18.6335 61.7094 0.0283485
16.6661 68.6801 4
17.9422 66.6123 2
19.1315 64.6634 0.0260166
18.75 69.9759 2
19.8892 67.808 0.014156
20.9142 71.1327 0
20.2406 14.6615 3.96822
21.6021 13.6661 2
20.5384 12.0365 3.97361
21.1458 9.15742 3.97674
22.1925 11.0481 2
23.1078 12.821 0.0231272
22.0192 6.08212 3.98897
23.04 8.18497 2
23.9748 10.1787 0.0248588
23.1494 2.85457 4
24.116 5.1446 2
25.0253 7.31697 0.0183789
25.446 1.99012 2
26.2823 4.32871 0.00960056
27.7943 1.27781 0
32.8145 35.7882 3.46051
34.4984 35.9329 2
35.963 35.8965 0.467
21.3463 15.8951 2
20.361 17.0286 3.966
22.1463 16.702 3.96331
25.3717 13.9505 0.0280353
22.5065 15.098 0.0226821
24.0613 15.6649 0.0130136
25.4206 16.133 2
23.3182 16.3013 2
24.2702 18.586 3.97145
27.2173 21.6948 3.9939
28.3876 15.977 0.0138373
27.4854 18.9401 2
32.3489 33.9803 3.64339
33.157 34.2754 2
34.6129 34.4074 0.442056
33.5411 33.2398 0.552437
34.3513 31.6306 0.333868
35.3352 29.39 0.177738
37.6261 27.7359 0.129361
35.2201 27.7776 2
33.1881 32.5345 2
33.4812 30.0593 2
32.9667 28.4682 3.89131
32.0764 31.4148 3.81809
29.1923 24.5634 4.01029
29.7681 22.0977 2
30.2485 19.4643 0.0196932
35.1529 25.585 0.010689
32.4684 22.6109 0.00236955
32.0444 25.8577 2
30.2177 27.5498 3.9763
31.224 37.4896 3.65623
32.6498 37.5006 2
34.4494 37.5045 0.394337
33.4473 48.8452 0.027208
32.7256 45.9928 0.131201
32.8247 39.2201 0.554763
32.0711 43.5733 0.172735
32.312 41.0081 0.35102
31.6158 47.7156 2
31.5485 39.3854 2
30.9434 41.8581 2
31.1099 44.669 2
29.9271 46.2973 3.9891
30.1675 39.7814 3.84665
29.6777 42.9235 3.89191
30.3135 49.5821 -0.00105616
28.4892 47.9767 2
26.7358 46.405 3.98041
27.0028 49.7997 0.0251425
25.312 48.2386 2
23.6158 46.8216 3.97322
23.8856 49.9853 0.0335969
22.3557 48.5594 2
20.6419 47.4093 3.97652
21.0591 50.1156 0.0355626
19.6256 48.9016 2
18.2161 48.0092 3.97696
16.6048 48.5416 3.97657
17.3726 49.1788 2
16.2655 50.0377 3.97381
15.7132 52.2989 3.9697
17.2056 51.2619 2
18.4985 50.1635 0.029424
15.0902 54.8862 3.96423
16.7076 53.7486 2
18.265 52.6399 0.0354452
14.5184 57.6936 3.96107
16.1335 56.3931 2
17.689 55.2272 0.0375932
14.2722 60.6664 3.96678
15.7738 59.167 2
17.226 57.8015 0.0391447
14.3366 63.8538 3.97739
15.7946 62.1012 2
17.1485 60.4989 0.0341765
14.6715 67.2507 4
16.0892 65.2936 2
17.4151 63.4375 0.0311983
16.6661 68.6801 2
17.9452 66.6154 0.0161728
18.75 69.9759 0
18.9622 15.8431 3.97451
20.2424 14.6588 2
18.9923 13.16 3.97243
21.6043 13.6554 0.0258148
20.5367 12.0361 2
19.3466 10.2487 3.97361
19.994 7.14766 3.98678
21.143 9.15806 2
22.1955 11.0496 0.0271083
20.9142 3.86727 4
22.0148 6.08475 2
23.0423 8.18393 0.0213526
23.1494 2.85451 2
24.1201 5.14359 0.010072
25.446 1.99014 0
31.6565 35.6285 3.64538
32.816 35.7793 2
34.5197 35.9333 0.418949
21.3424 15.9019 0.0245476
22.1496 16.695 2
20.3634 17.025 2
19.3798 18.5024 3.95765
21.8458 17.9561 3.97667
25.4188 16.1353 0.0132601
23.3131 16.3057 0.0342578
24.2595 18.6072 2
22.4656 20.0319 3.97665
24.801 21.5488 3.98818
26.82 23.8445 3.98515
27.2219 21.6069 2
27.4876 18.8995 0.0173758
31.0482 33.179 3.83942
32.3015 33.926 2
33.1636 34.2913 0.547724
33.2609 32.5987 0.302948
33.512 30.1029 0.170188
35.22 27.8251 0.116734
32.9288 28.4353 2
32.0205 31.3694 2
30.8439 29.8461 3.91697
28.4861 26.7306 3.99791
29.1798 24.5578 2
29.7846 22.0689 -0.00715731
32.0563 25.8846 -0.00839468
30.2098 27.5247 2
29.7285 37.486 3.84485
31.154 37.4877 2
32.6476 37.5013 0.505813
31.6654 47.6887 0.0170552
31.1545 44.629 0.121307
31.6289 39.3665 0.349026
30.9976 41.8176 0.160847
29.9298 46.3036 2
30.0882 39.7982 2
29.6459 42.9485 2
28.2211 44.625 3.96803
27.9224 40.4957 3.92939
28.4907 47.9738 0.0303809
26.7348 46.4057 2
24.9336 44.9349 3.97951
25.31 48.2404 0.0338225
23.6148 46.8206 2
21.677 45.6967 3.97788
22.355 48.5593 0.0287503
20.6427 47.4081 2
18.9593 46.5641 3.97641
19.6247 48.9034 0.0261694
18.2168 48.0077 2
16.8511 47.5662 3.9762
16.6061 48.5405 2
15.6142 48.8895 3.97552
17.3726 49.1799 0.0247832
16.2675 50.0366 2
14.8245 50.8773 3.97308
14.0597 53.3492 3.96722
15.7144 52.2982 2
17.2042 51.2631 0.030345
13.3623 56.1168 3.96128
15.0905 54.8859 2
16.7067 53.749 0.034221
12.8603 59.106 3.96513
14.5227 57.6932 2
16.1331 56.3928 0.0380123
12.6826 62.2966 3.9754
14.2735 60.6663 2
15.7705 59.1664 0.0381035
12.7746 65.6939 4
14.3343 63.8503 2
15.7938 62.0997 0.0315519
14.6714 67.2507 2
16.0916 65.2974 0.0184862
16.6661 68.6801 0
17.7411 17.2275 3.96188
18.9622 15.8417 2
17.5291 14.4264 3.9675
20.2406 14.6615 0.0317788
18.9922 13.164 2
17.6447 11.4761 3.97293
20.5384 12.0365 0.0263891
19.343 10.2496 2
18.0541 8.34123 3.98446
18.75 5.0241 4
19.9891 7.15067 2
21.1458 9.15742 0.0232649
20.9142 3.86727 2
22.0192 6.08212 0.0110252
23.1494 2.85457 0
30.1956 35.2146 3.84504
31.5762 35.6045 2
32.8145 35.7882 0.539491
22.1463 16.702 0.0366891
20.361 17.0286 0.0339969
21.8449 17.9543 2
19.3724 18.4959 2
18.2259 20.06 3.9615
21.0468 19.5026 3.9659
24.2702 18.586 0.0285516
22.457 20.0376 2
24.8084 21.5338 2
22.6558 21.8791 3.98028
25.1003 23.2783 3.9731
26.0948 26.104 3.97895
26.8175 23.8384 2
27.2173 21.6948 0.00610474
29.4421 32.5283 3.89199
30.9737 33.144 2
32.3489 33.9803 0.356613
32.0764 31.4148 0.181913
32.9667 28.4682 0.10869
30.8215 29.8356 2
27.8677 29.3156 4.01332
28.4747 26.7337 2
29.1923 24.5634 -0.0102911
30.2177 27.5498 0.0237043
28.0804 37.3706 3.89133
29.6522 37.4819 2
31.224 37.4896 0.343775
29.9271 46.2973 0.0108968
29.6777 42.9235 0.108087
30.1675 39.7814 0.153352
28.2169 44.6794 2
27.8901 40.4978 2
26.3192 43.0144 3.98414
25.202 39.4327 3.97172
26.7358 46.405 0.0195882
24.9235 44.9369 2
22.8545 43.7333 3.97513
23.6158 46.8216 0.0267765
21.6739 45.6978 2
19.7432 44.8024 3.97598
20.6419 47.4093 0.0234792
18.9592 46.5646 2
17.2148 46.0657 3.97598
18.2161 48.0092 0.0230423
16.8521 47.5656 2
15.3839 47.5447 3.97582
16.6048 48.5416 0.0234307
15.6161 48.8885 2
14.1356 49.4447 3.97505
16.2655 50.0377 0.0261932
14.826 50.8765 2
13.1287 51.7963 3.96987
12.2682 54.478 3.96343
14.0601 53.3487 2
15.7132 52.2989 0.0303008
11.549 57.445 3.96296
13.3633 56.1164 2
15.0902 54.8862 0.0357688
11.138 60.6214 3.97059
12.8622 59.1052 2
14.5184 57.6936 0.0389274
10.9835 64.0165 4
12.6807 62.2921 2
14.2722 60.6664 0.0332204
12.7745 65.694 2
14.3366 63.8538 0.022614
14.6715 67.2507 0
16.554 18.7372 3.96159
17.7329 17.2233 2
16.1239 15.8289 3.96377
18.9622 15.8431 0.0254893
17.5295 14.4234 2
16.0286 12.8451 3.96909
18.9923 13.16 0.027566
17.6424 11.4852 2
16.2053 9.66573 3.98184
19.3466 10.2487 0.0263872
18.049 8.34642 2
16.6661 6.31991 4
18.75 5.02404 2
19.994 7.14766 0.0132197
20.9142 3.86727 0
28.5898 34.8575 3.89482
30.1034 35.1762 2
31.6565 35.6285 0.354622
16.9711 21.4974 3.9677
21.8458 17.9561 0.0233296
19.3798 18.5024 0.0423509
21.0354 19.498 2
18.2268 20.0579 2
20.0617 21.724 3.97189
22.4656 20.0319 0.023346
24.801 21.5488 0.0118225
22.6544 21.884 2
25.0909 23.2875 2
23.407 24.7693 3.97173
25.4219 28.7026 3.98377
26.0879 26.1106 2
26.82 23.8445 0.014853
27.2989 31.8876 3.9815
29.4041 32.5057 2
31.0482 33.179 0.160576
30.8439 29.8461 0.0830251
27.8799 29.2905 2
28.4861 26.7306 0.00209452
25.9038 36.8462 3.97325
28.0578 37.3706 2
29.7285 37.486 0.155146
28.2211 44.625 0.0319709
27.9224 40.4957 0.0706066
26.2967 43.0375 2
25.1751 39.4372 2
24.0763 41.7503 3.98174
22.9203 38.519 3.97864
24.9336 44.9349 0.0204889
22.8524 43.7342 2
20.6316 42.7562 3.97523
21.677 45.6967 0.0221248
19.744 44.8028 2
17.6291 44.2482 3.9754
18.9593 46.5641 0.0235861
17.2153 46.0659 2
15.3502 45.9728 3.97557
16.8511 47.5662 0.0237966
15.3853 47.5439 2
13.6672 47.9107 3.97555
15.6142 48.8895 0.0244831
14.1374 49.4438 2
12.3619 50.1803 3.972
14.8245 50.8773 0.0269219
13.1297 51.7955 2
11.2634 52.7929 3.96507
10.3527 55.6993 3.96334
12.2685 54.4774 2
14.0597 53.3492 0.032781
9.70472 58.8453 3.9724
11.5522 57.4433 2
13.3623 56.1168 0.0387186
9.30605 62.2254 4
11.1367 60.617 2
12.8603 59.106 0.0348729
10.9835 64.0165 2
12.6826 62.2966 0.0245989
12.7746 65.6939 0
15.3504 20.2767 3.96402
16.5577 18.7368 2
14.8037 17.354 3.96231
17.7411 17.2275 0.0381171
16.1262 15.8275 2
14.4904 14.3248 3.96835
17.5291 14.4264 0.0325008
16.0282 12.8421 2
14.4478 11.1179 3.97923
17.6447 11.4761 0.0270715
16.2007 9.67162 2
14.6715 7.74927 4
18.0541 8.34123 0.0155415
16.6661 6.31988 2
18.75 5.0241 0
26.5483 34.3748 3.97385
28.5724 34.8658 2
30.1956 35.2146 0.154963
18.2401 22.4681 3.97512
15.8777 23.0412 3.9717
16.9744 21.497 2
21.0468 19.5026 0.0340982
18.2259 20.06 0.0384958
20.0616 21.7218 2
20.1946 24.5663 3.97201
22.6558 21.8791 0.0197189
25.1003 23.2783 0.0269023
23.402 24.7705 2
22.7844 28.0432 3.97145
24.8647 31.3925 3.98238
25.4278 28.6885 2
26.0948 26.104 0.0210546
27.2707 31.8491 2
29.4421 32.5283 0.108013
27.8677 29.3156 -0.0133205
23.6522 36.3048 3.97801
25.8814 36.8408 2
28.0804 37.3706 0.108668
26.3192 43.0144 0.0158574
25.202 39.4327 0.0282805
24.0546 41.7485 2
22.906 38.5152 2
21.7521 40.5771 3.97443
21.0934 37.798 3.97677
22.8545 43.7333 0.0248708
20.6321 42.7561 2
18.1108 42.0037 3.97565
19.7432 44.8024 0.0240189
17.6295 44.2484 2
15.3997 44.0962 3.9753
17.2148 46.0657 0.0240178
15.3507 45.9726 2
13.3678 46.2035 3.9756
15.3839 47.5447 0.0241785
13.6688 47.9098 2
11.7518 48.4824 3.97401
14.1356 49.4447 0.0249529
12.3638 50.1793 2
10.3945 51.0405 3.96649
13.1287 51.7963 0.0301278
11.2642 52.792 2
9.2638 53.8803 3.96357
8.38826 56.9801 3.97379
10.357 55.6971 2
12.2682 54.478 0.0365698
7.74927 60.3285 4
9.70336 58.841 2
11.549 57.445 0.0370395
9.306 62.2255 2
11.138 60.6214 0.0294142
10.9835 64.0165 0
14.1901 21.8398 3.96772
15.3491 20.2755 2
13.5367 18.9515 3.96204
16.554 18.7372 0.0384143
14.8048 17.3529 2
13.0371 15.9097 3.96814
16.1239 15.8289 0.0362268
14.4929 14.3231 2
12.7858 12.6933 3.97637
16.0286 12.8451 0.0309135
14.4447 11.1251 2
12.7746 9.30605 4
16.2053 9.66573 0.0181555
14.6715 7.74924 2
16.6661 6.31991 0
24.2221 33.8863 3.98111
26.5282 34.3755 2
28.5898 34.8575 0.105178
18.1173 24.202 3.97339
18.2488 22.4686 2
14.7107 24.5691 3.97372
15.879 23.0408 2
16.9711 21.4974 0.0323014
19.7428 27.404 3.97389
20.0617 21.724 0.028111
20.1876 24.5643 2
22.1676 30.8531 3.97437
23.407 24.7693 0.0282704
22.7846 28.0454 2
24.8276 31.3947 2
25.4219 28.7026 0.0162291
27.2989 31.8876 0.0184973
21.2066 35.9652 3.97664
23.6497 36.3039 2
25.9038 36.8462 0.0267502
24.0763 41.7503 0.0182553
22.9203 38.519 0.0213603
21.7571 40.5803 2
21.0941 37.7975 2
18.8781 38.9785 3.97701
20.6316 42.7562 0.024771
18.1109 42.0037 2
15.3848 41.8519 3.97597
17.6291 44.2482 0.0246016
15.3993 44.0962 2
13.1308 44.316 3.97563
15.3502 45.9728 0.0244342
13.3691 46.2029 2
11.2673 46.6721 3.97558
13.6672 47.9107 0.0244511
11.754 48.4813 2
9.66475 49.2038 3.96823
12.3619 50.1803 0.0280021
10.3957 51.0395 2
8.2935 51.9956 3.96382
11.2634 52.7929 0.0349337
9.26529 53.8784 2
7.19738 55.0322 3.97473
6.31991 58.3339 4
8.38699 56.9759 2
10.3527 55.6993 0.0366592
7.74924 60.3285 2
9.70472 58.8453 0.027596
9.30605 62.2254 0
13.5687 25.4602 3.97622
13.0925 23.3651 3.97087
14.1896 21.839 2
12.3585 20.601 3.96376
15.3504 20.2767 0.0359816
13.5367 18.9504 2
11.6712 17.5822 3.9655
14.8037 17.354 0.0376855
13.041 15.9086 2
11.224 14.3793 3.97223
14.4904 14.3248 0.0316464
12.7837 12.6996 2
10.9835 10.9835 4
14.4478 11.1179 0.0207724
12.7745 9.306 2
14.6715 7.74927 0
21.5555 33.5106 3.97623
24.2262 33.8695 2
26.5483 34.3748 0.0261539
16.4435 26.5528 3.97463
18.1204 24.2015 2
18.2401 22.4681 0.0248809
14.7098 24.5689 2
15.8777 23.0412 0.0282963
19.1455 30.3404 3.97459
19.743 27.4047 2
20.1946 24.5663 0.0279948
22.1864 30.8542 2
22.7844 28.0432 0.0285548
24.8647 31.3925 0.0176191
18.4756 36.0038 3.9778
21.2095 35.9655 2
23.6522 36.3048 0.0219937
21.7521 40.5771 0.025573
21.0934 37.798 0.0232336
18.877 38.9776 2
14.8783 39.1554 3.97692
18.1108 42.0037 0.0243475
15.3842 41.8516 2
12.8249 42.227 3.97597
15.3997 44.0962 0.0246998
13.1312 44.3158 2
10.8554 44.749 3.9762
13.3678 46.2035 0.0244034
11.2701 46.6709 2
9.05174 47.2873 3.9696
11.7518 48.4824 0.0259908
9.66625 49.2028 2
7.45556 50.0306 3.96396
10.3945 51.0405 0.0335082
8.2931 51.994 2
6.13792 53.0081 3.97491
9.2638 53.8803 0.0364314
7.19655 55.0284 2
5.0241 56.25 4
6.31988 58.3339 2
8.38826 56.9801 0.0262051
7.74927 60.3285 0
13.8546 26.9184 3.97573
12.2008 24.8623 3.97398
13.5681 25.4602 2
11.2879 22.2835 3.96584
13.0929 23.3651 2
14.1901 21.8398 0.0322772
12.3603 20.6007 2
10.411 19.332 3.96392
13.5367 18.9515 0.0379641
11.6753 17.5818 2
9.76509 16.1625 3.97126
13.0371 15.9097 0.0318633
11.2229 14.385 2
9.30607 12.7746 4
12.7858 12.6933 0.0236341
10.9835 10.9835 2
12.7746 9.30605 0
18.6362 33.1958 3.97592
21.5534 33.5145 2
24.2221 33.8863 0.0188936
16.0697 29.7654 3.97532
16.4427 26.5526 2
18.1173 24.202 0.0266074
14.7107 24.5691 0.0262755
19.1436 30.3402 2
19.7428 27.404 0.0261115
22.1676 30.8531 0.0256341
15.5146 36.0393 3.97744
18.4756 36.0044 2
21.2066 35.9652 0.0233558
13.0558 37.8282 3.97698
18.8781 38.9785 0.02299
14.878 39.1553 2
12.3232 40.1134 3.97651
15.3848 41.8519 0.0240283
12.8251 42.2265 2
10.4551 42.7387 3.97596
13.1308 44.316 0.0243719
10.8576 44.748 2
8.52635 45.2953 3.97091
11.2673 46.6721 0.0244193
9.05312 47.2864 2
6.74182 47.9969 3.96419
9.66475 49.2038 0.0317748
7.45404 50.0293 2
5.21447 50.9115 3.97447
8.2935 51.9956 0.0361845
6.13756 53.0052 2
3.86727 54.0858 4
7.19738 55.0322 0.0252656
5.02404 56.25 2
6.31991 58.3339 0
13.3359 29.1207 3.97501
11.647 26.5564 3.97487
13.8541 26.9186 2
10.3395 24.0091 3.96807
12.2039 24.863 2
13.5687 25.4602 0.0237814
9.27741 21.1489 3.96421
11.288 22.2834 2
13.0925 23.3651 0.0291315
12.3585 20.601 0.0362403
10.4218 19.334 2
8.421 18.0318 3.97336
11.6712 17.5822 0.0344998
9.76448 16.1671 2
7.74928 14.6715 4
11.224 14.3793 0.0277687
9.30602 12.7745 2
10.9835 10.9835 0
15.0541 32.9266 3.97624
18.6351 33.1954 2
21.5555 33.5106 0.0237698
16.0698 29.7654 2
16.4435 26.5528 0.0253713
19.1455 30.3404 0.0254098
13.3596 36.2221 3.97673
15.5144 36.0393 2
18.4756 36.0038 0.0222037
13.0555 37.828 2
11.6452 38.3038 3.97675
14.8783 39.1554 0.0230788
12.3238 40.1133 2
10.0301 40.7322 3.97625
12.8249 42.227 0.0240269
10.4583 42.7382 2
8.06483 43.2515 3.97239
10.8554 44.749 0.0238006
8.52865 45.2946 2
6.14127 45.9031 3.96482
9.05174 47.2873 0.0304038
6.73956 47.996 2
4.42552 48.7519 3.97413
7.45556 50.0306 0.0360444
5.21453 50.9096 2
2.85457 51.8506 4
6.13792 53.0081 0.0250876
3.86727 54.0858 2
5.0241 56.25 0
12.4646 31.3147 3.97592
11.058 28.474 3.97578
13.3361 29.1207 2
9.55456 25.8339 3.96917
11.6497 26.5571 2
13.8546 26.9184 0.0242682
8.25924 23.0302 3.96446
10.3417 24.0097 2
12.2008 24.8623 0.0260218
7.20315 19.9797 3.97469
9.28372 21.1507 2
11.2879 22.2835 0.0341607
10.411 19.332 0.0360775
8.41987 18.0359 2
6.31992 16.6661 4
9.76509 16.1625 0.0287392
7.74926 14.6714 2
9.30607 12.7746 0
12.5001 34.3284 3.97653
15.0535 32.9273 2
18.6362 33.1958 0.0240752
16.0697 29.7654 0.0246778
11.1786 36.621 3.97656
13.3594 36.2221 2
15.5146 36.0393 0.0225601
13.0558 37.8282 0.0230153
11.646 38.3034 2
9.60807 38.8159 3.97657
12.3232 40.1134 0.0234903
10.0331 40.7317 2
7.66657 41.2001 3.97309
10.4551 42.7387 0.0240435
8.06613 43.251 2
5.65142 43.7666 3.9654
8.52635 45.2953 0.0290891
6.14047 45.9024 2
3.77079 46.537 3.97425
6.74182 47.9969 0.0358099
4.42605 48.7507 2
1.99014 49.554 4
5.21447 50.9115 0.0255275
2.85451 51.8506 2
3.86727 54.0858 0
11.2662 32.96 3.97647
10.3632 30.4277 3.97593
12.4647 31.3152 2
8.86006 27.762 3.96979
11.0604 28.4748 2
13.3359 29.1207 0.0249861
7.37806 24.9869 3.96449
9.5566 25.8346 2
11.647 26.5564 0.0251308
6.12012 22.0017 3.97528
8.26103 23.0316 2
10.3395 24.0091 0.0319255
5.02411 18.75 4
7.2026 19.9833 2
9.27741 21.1489 0.0357853
8.421 18.0318 0.0266384
6.3199 16.6661 2
7.74928 14.6715 0
10.7605 35.0198 3.97647
12.4995 34.3285 2
15.0541 32.9266 0.0237551
9.26341 36.9889 3.97667
11.1797 36.621 2
13.3596 36.2221 0.0232736
11.6452 38.3038 0.0232478
9.61124 38.8155 2
7.34115 39.1775 3.9731
10.0301 40.7322 0.0237509
7.66888 41.1997 2
5.26632 41.6127 3.96579
8.06483 43.2515 0.0276066
5.65193 43.7659 2
3.24825 44.2816 3.97499
6.14127 45.9031 0.0351815
3.77137 46.5364 2
1.27781 47.2057 4
4.42552 48.7519 0.0258701
1.99012 49.554 2
2.85457 51.8506 0
10.3923 33.908 3.9762
9.63588 32.1864 3.97637
11.2675 32.9604 2
8.19584 29.7186 3.97077
10.3655 30.4285 2
12.4646 31.3147 0.024076
6.61391 27.0112 3.96477
8.86212 27.7627 2
11.058 28.474 0.0242205
5.17516 24.094 3.975
7.37682 24.9878 2
9.55456 25.8339 0.0308318
3.86728 20.9142 4
6.11987 22.0043 2
8.25924 23.0302 0.0355395
5.02406 18.75 2
7.20315 19.9797 0.025312
6.31992 16.6661 0
9.07563 35.2929 3.97683
10.7619 35.0199 2
12.5001 34.3284 0.0234657
7.1183 37.2069 3.97272
9.26675 36.9887 2
11.1786 36.621 0.0234395
9.60807 38.8159 0.0234349
7.34381 39.1772 2
4.99336 39.4667 3.96656
7.66657 41.2001 0.026914
5.26704 41.6123 2
2.85846 42.0017 3.97548
5.65142 43.7666 0.0346
3.24853 44.2811 2
0.720592 44.8159 4
3.77079 46.537 0.0257513
1.27778 47.2057 2
1.99014 49.554 0
9.11498 33.7191 3.97689
10.3947 33.9083 2
7.623 31.6257 3.97155
9.63916 32.187 2
11.2662 32.96 0.0235336
5.95304 29.0714 3.96509
8.19733 29.7191 2
10.3632 30.4277 0.0240738
4.36232 26.2468 3.97469
6.61125 27.0117 2
8.86006 27.762 0.0302127
2.85458 23.1494 4
5.17537 24.0956 2
7.37806 24.9869 0.0355059
3.86728 20.9142 2
6.12012 22.0017 0.0247184
5.02411 18.75 0
7.06701 35.312 3.97229
9.07945 35.2929 2
10.7605 35.0198 0.0235341
4.84343 37.3398 3.96704
7.12133 37.2068 2
9.26341 36.9889 0.023335
7.34115 39.1775 0.026899
4.99409 39.4665 2
2.60629 39.7134 3.97608
5.26632 41.6127 0.0342116
2.8591 42.0015 2
0.320823 42.3947 4
3.24825 44.2816 0.0250056
0.720551 44.8159 2
1.27781 47.2057 0
7.23042 33.4718 3.97205
9.11875 33.7195 2
10.3923 33.908 0.0238019
5.42236 31.1349 3.96571
7.62526 31.626 2
9.63588 32.1864 0.0236344
3.68366 28.4433 3.97472
5.95254 29.0718 2
8.19584 29.7186 0.0292298
1.99015 25.446 4
4.36286 26.2476 2
6.61391 27.0112 0.0352328
2.85453 23.1494 2
5.17516 24.094 0.0249996
3.86728 20.9142 0
4.85766 35.2523 3.96691
7.0692 35.3121 2
9.07563 35.2929 0.0231678
2.49771 37.4281 3.97698
4.84362 37.3399 2
7.1183 37.2069 0.0272751
4.99336 39.4667 0.0334384
2.60701 39.7137 2
0.080333 39.9526 4
2.85846 42.0017 0.0245231
0.320817 42.3947 2
0.720592 44.8159 0
5.05125 33.1914 3.96648
7.23288 33.4721 2
9.11498 33.7191 0.0231096
3.1477 30.6663 3.97539
5.42292 31.1356 2
7.623 31.6257 0.0284467
1.27793 27.7943 4
3.68431 28.4437 2
5.95304 29.0714 0.0349052
1.99013 25.446 2
4.36232 26.2468 0.0253067
2.85458 23.1494 0
2.54977 35.1589 3.97674
4.8585 35.2526 2
7.06701 35.312 0.0277126
0 37.5 4
2.49791 37.4286 2
4.84343 37.3398 0.0329614
2.60629 39.7134 0.0239198
0.0802903 39.9526 2
0.320823 42.3947 0
2.76749 32.9058 3.97662
5.0516 33.1918 2
7.23042 33.4718 0.0279529
0.721173 30.1842 4
3.14821 30.6668 2
5.42236 31.1349 0.0342937
1.27779 27.7943 2
3.68366 28.4433 0.0252824
1.99015 25.446 0
0.0806499 35.0474 4
2.55057 35.1594 2
4.85766 35.2523 0.0330879
0 37.5 2
2.49771 37.4281 0.0230158
0.080333 39.9526 0
0.32156 32.6054 4
2.7678 32.9064 2
5.05125 33.1914 0.0335202
0.72056 30.1841 2
3.1477 30.6663 0.0246072
1.27793 27.7943 0
0.0802889 35.0474 2
2.54977 35.1589 0.0232629
0 37.5 0
0.320817 32.6053 2
2.76749 32.9058 0.0233757
0.721173 30.1842 0
0.0806499 35.0474 0
0.32156 32.6054 0
CELLS 1910 17190
8 18 6 25 56 2 0 5 16
8 57 23 6 18 17 4 0 2
8 78 36 9 29 31 11 1 7
8 31 11 1 7 79 37 10 30
8 110 57 18 50 48 17 2 14
8 50 18 56 111 14 2 16 49
8 116 62 22 55 52 20 3 15
8 56 25 67 118 16 5 24 53
8 119 63 23 57 54 21 4 17
8 55 22 63 119 15 3 21 54
8 58 26 68 121 18 6 25 56
8 122 65 26 58 57 23 6 18
8 73 31 7 27 142 79 30 71
8 143 78 29 72 73 31 7 27
8 83 147 76 34 32 74 28 8
8 84 148 78 36 33 75 29 9
8 76 34 8 28 148 84 33 75
8 37 79 150 86 10 30 77 35
8 151 87 36 78 80 38 11 31
8 80 38 11 31 152 88 37 79
8 175 100 42 94 96 44 12 40
8 44 96 176 101 12 40 95 43
8 101 176 98 46 43 95 41 13
8 46 98 178 103 13 41 97 45
8 178 103 45 97 147 83 32 74
8 189 116 55 109 106 52 15 47
8 111 56 118 191 49 16 53 107
8 192 119 57 110 108 54 17 48
8 109 55 119 192 47 15 54 108
8 194 122 58 112 110 57 18 50
8 112 58 121 195 50 18 56 111
8 115 61 19 51 197 124 59 113
8 115 61 125 198 51 19 60 114
8 198 125 62 116 114 60 20 52
8 200 127 64 120 116 62 22 55
8 118 67 132 202 53 24 66 117
8 121 68 133 203 56 25 67 118
8 120 64 128 204 55 22 63 119
8 204 128 65 122 119 63 23 57
8 206 134 68 121 123 69 26 58
8 123 69 26 58 207 131 65 122
8 226 147 74 138 140 76 28 70
8 229 148 75 139 143 78 29 72
8 140 76 28 70 229 148 75 139
8 142 79 30 71 231 150 77 141
8 144 80 31 73 232 152 79 142
8 233 151 78 143 144 80 31 73
8 150 86 35 77 235 154 81 145
8 235 154 81 145 146 82 39 91
8 146 82 39 91 236 155 90 165
8 238 157 83 147 149 85 34 76
8 239 158 84 148 151 87 36 78
8 149 85 34 76 239 158 84 148
8 152 88 37 79 241 160 86 150
8 242 161 87 151 153 89 38 80
8 153 89 38 80 243 162 88 152
8 171 98 41 92 265 178 97 169
8 265 178 97 169 226 147 74 138
8 172 96 40 93 266 176 95 170
8 266 176 95 170 171 98 41 92
8 269 175 94 173 172 96 40 93
8 271 180 99 174 175 100 42 94
8 197 124 59 113 271 180 99 174
8 272 181 100 175 177 102 44 96
8 273 182 101 176 179 104 46 98
8 177 102 44 96 273 182 101 176
8 179 104 46 98 275 184 103 178
8 275 184 103 178 238 157 83 147
8 188 115 51 105 283 197 113 186
8 188 115 198 284 105 51 114 187
8 284 198 116 189 187 114 52 106
8 286 200 120 193 189 116 55 109
8 191 118 202 288 107 53 117 190
8 195 121 203 289 111 56 118 191
8 193 120 204 290 109 55 119 192
8 290 204 122 194 192 119 57 110
8 196 123 58 112 292 207 122 194
8 293 206 121 195 196 123 58 112
8 199 126 61 115 297 211 124 197
8 298 212 127 200 198 125 62 116
8 199 126 212 298 115 61 125 198
8 205 129 64 120 300 214 127 200
8 301 217 130 201 202 132 66 117
8 209 136 168 264 301 217 130 201
8 302 219 132 202 203 133 67 118
8 303 220 133 203 206 134 68 121
8 205 129 215 304 120 64 128 204
8 304 215 131 207 204 128 65 122
8 306 221 134 206 208 135 69 123
8 208 135 69 123 307 218 131 207
8 210 137 167 263 309 223 136 209
8 328 238 147 226 230 149 76 140
8 228 146 91 166 329 236 165 260
8 231 150 77 141 330 235 145 227
8 330 235 145 227 228 146 91 166
8 332 239 148 229 233 151 78 143
8 230 149 76 140 332 239 148 229
8 232 152 79 142 334 241 150 231
8 234 153 80 144 335 243 152 232
8 336 242 151 233 234 153 80 144
8 236 155 90 165 338 245 164 259
8 241 160 86 150 339 246 154 235
8 339 246 154 235 237 156 82 146
8 237 156 82 146 340 247 155 236
8 342 249 157 238 240 159 85 149
8 343 250 158 239 242 161 87 151
8 240 159 85 149 343 250 158 239
8 243 162 88 152 345 252 160 241
8 244 163 253 346 153 89 161 242
8 244 163 89 153 347 254 162 243
8 311 224 261 371 210 137 167 263
8 263 167 262 372 209 136 168 264
8 267 179 98 171 375 275 178 265
8 375 275 178 265 328 238 147 226
8 376 273 176 266 267 179 98 171
8 268 177 96 172 376 273 176 266
8 379 272 175 269 268 177 96 172
8 380 271 174 270 269 175 94 173
8 283 197 113 186 380 271 174 270
8 381 277 180 271 272 181 100 175
8 297 211 124 197 381 277 180 271
8 382 278 181 272 274 183 102 177
8 274 183 102 177 383 279 182 273
8 383 279 182 273 276 185 104 179
8 385 281 184 275 342 249 157 238
8 276 185 104 179 385 281 184 275
8 285 199 115 188 393 297 197 283
8 394 298 200 286 284 198 116 189
8 285 199 298 394 188 115 198 284
8 291 205 120 193 396 300 200 286
8 397 301 201 287 288 202 117 190
8 295 209 264 374 397 301 201 287
8 398 302 202 288 289 203 118 191
8 399 303 203 289 293 206 121 195
8 291 205 304 400 193 120 204 290
8 400 304 207 292 290 204 122 194
8 294 208 123 196 402 307 207 292
8 403 306 206 293 294 208 123 196
8 296 210 263 373 405 309 209 295
8 408 312 213 299 297 211 126 199
8 299 213 313 409 199 126 212 298
8 409 313 214 300 298 212 127 200
8 305 216 129 205 411 315 214 300
8 412 318 217 301 302 219 132 202
8 309 223 136 209 412 318 217 301
8 413 320 219 302 303 220 133 203
8 306 221 321 414 206 134 220 303
8 307 218 131 207 415 316 215 304
8 305 216 316 415 205 129 215 304
8 417 322 221 306 308 222 135 208
8 308 222 135 208 418 319 218 307
8 310 225 137 210 420 325 223 309
8 423 326 224 311 310 225 137 210
8 329 236 165 260 441 338 259 368
8 442 342 238 328 333 240 149 230
8 331 237 146 228 443 340 236 329
8 334 241 150 231 444 339 235 330
8 444 339 235 330 331 237 146 228
8 446 343 239 332 336 242 151 233
8 333 240 149 230 446 343 239 332
8 335 243 152 232 448 345 241 334
8 337 244 153 234 449 347 243 335
8 337 244 346 450 234 153 242 336
8 338 245 164 259 452 349 258 367
8 340 247 155 236 453 350 245 338
8 345 252 160 241 454 351 246 339
8 454 351 246 339 341 248 156 237
8 341 248 156 237 455 352 247 340
8 240 159 251 344 342 249 354 457
8 242 161 253 346 343 250 355 458
8 343 250 355 458 240 159 251 344
8 347 254 162 243 460 357 252 345
8 348 255 358 461 244 163 253 346
8 348 255 163 244 462 359 254 347
8 473 360 257 365 363 256 364 482
8 452 349 258 367 365 257 366 485
8 422 324 369 488 311 224 261 371
8 371 261 370 490 263 167 262 372
8 407 311 371 491 296 210 263 373
8 373 263 372 492 295 209 264 374
8 493 385 275 375 442 342 238 328
8 377 276 179 267 493 385 275 375
8 378 274 177 268 494 383 273 376
8 494 383 273 376 377 276 179 267
8 497 382 272 379 378 274 177 268
8 498 381 271 380 379 272 175 269
8 393 297 197 283 498 381 271 380
8 499 387 277 381 382 278 181 272
8 408 312 211 297 499 387 277 381
8 500 388 278 382 384 280 183 274
8 501 389 279 383 386 282 185 276
8 384 280 183 274 501 389 279 383
8 386 282 185 276 503 391 281 385
8 503 391 281 385 457 354 249 342
8 511 408 299 395 393 297 199 285
8 395 299 409 512 285 199 298 394
8 512 409 300 396 394 298 200 286
8 401 305 205 291 514 411 300 396
8 515 412 301 397 398 302 202 288
8 405 309 209 295 515 412 301 397
8 516 413 302 398 399 303 203 289
8 403 306 414 517 293 206 303 399
8 402 307 207 292 518 415 304 400
8 401 305 415 518 291 205 304 400
8 404 308 208 294 520 418 307 402
8 521 417 306 403 404 308 208 294
8 406 310 210 296 523 420 309 405
8 526 423 311 407 406 310 210 296
8 410 314 213 299 527 424 312 408
8 528 425 315 411 409 313 214 300
8 410 314 425 528 299 213 313 409
8 416 317 216 305 530 427 315 411
8 531 430 318 412 413 320 219 302
8 420 325 223 309 531 430 318 412
8 532 432 320 413 414 321 220 303
8 417 322 433 533 306 221 321 414
8 418 319 218 307 534 428 316 415
8 416 317 428 534 305 216 316 415
8 419 323 434 536 308 222 322 417
8 419 323 222 308 537 431 319 418
8 421 327 225 310 539 438 325 420
8 421 327 439 541 310 225 326 423
8 543 437 324 422 423 326 224 311
8 441 338 259 368 559 452 367 486
8 443 340 236 329 560 453 338 441
8 333 240 344 447 442 342 457 561
8 445 341 237 331 562 455 340 443
8 448 345 241 334 563 454 339 444
8 563 454 339 444 445 341 237 331
8 336 242 346 450 446 343 458 565
8 446 343 458 565 333 240 344 447
8 449 347 243 335 567 460 345 448
8 451 348 244 337 568 462 347 449
8 451 348 461 569 337 244 346 450
8 570 463 349 452 473 360 257 365
8 453 350 245 338 570 463 349 452
8 455 352 247 340 571 464 350 453
8 460 357 252 345 572 465 351 454
8 572 465 351 454 456 353 248 341
8 456 353 248 341 573 466 352 455
8 344 251 356 459 457 354 468 575
8 458 355 469 576 344 251 356 459
8 346 253 358 461 458 355 469 576
8 462 359 254 347 578 471 357 460
8 348 255 359 462 461 358 472 579
8 591 474 360 473 475 361 256 363
8 475 361 256 363 594 477 362 479
8 363 256 364 482 479 362 480 603
8 590 473 365 484 481 363 482 605
8 482 364 257 365 606 483 366 485
8 559 452 367 486 484 365 485 607
8 542 436 487 609 422 324 369 488
8 525 422 488 611 407 311 371 491
8 488 369 489 612 371 261 370 490
8 491 371 490 613 373 263 372 492
8 495 386 276 377 614 503 385 493
8 614 503 385 493 561 457 342 442
8 615 501 383 494 495 386 276 377
8 496 384 274 378 615 501 383 494
8 618 500 382 497 496 384 274 378
8 619 499 381 498 497 382 272 379
8 511 408 297 393 619 499 381 498
8 620 505 387 499 500 388 278 382
8 527 424 312 408 620 505 387 499
8 502 390 506 621 384 280 388 500
8 622 507 389 501 504 392 282 386
8 502 390 280 384 622 507 389 501
8 504 392 282 386 624 509 391 503
8 624 509 391 503 575 468 354 457
8 513 410 299 395 630 527 408 511
8 631 528 411 514 512 409 300 396
8 513 410 528 631 395 299 409 512
8 519 416 305 401 633 530 411 514
8 634 531 412 515 516 413 302 398
8 523 420 309 405 634 531 412 515
8 635 532 413 516 517 414 303 399
8 521 417 533 636 403 306 414 517
8 520 418 307 402 637 534 415 518
8 519 416 534 637 401 305 415 518
8 522 419 308 404 639 537 418 520
8 522 419 536 640 404 308 417 521
8 524 421 310 406 642 539 420 523
8 524 421 541 644 406 310 423 526
8 646 543 422 525 526 423 311 407
8 529 426 314 410 647 544 424 527
8 528 425 545 648 411 315 427 530
8 529 426 545 648 410 314 425 528
8 535 429 317 416 649 546 427 530
8 650 548 430 531 532 432 320 413
8 539 438 325 420 650 548 430 531
8 533 433 550 651 414 321 432 532
8 536 434 551 652 417 322 433 533
8 537 431 319 418 653 547 428 534
8 535 429 547 653 416 317 428 534
8 538 435 552 654 419 323 434 536
8 538 435 323 419 655 549 431 537
8 540 440 327 421 657 556 438 539
8 540 440 557 659 421 327 439 541
8 541 439 555 660 423 326 437 543
8 661 554 436 542 543 437 324 422
8 676 570 452 559 590 473 365 484
8 560 453 338 441 676 570 452 559
8 562 455 340 443 677 571 453 560
8 447 344 459 566 561 457 575 678
8 564 456 341 445 679 573 455 562
8 567 460 345 448 680 572 454 563
8 680 572 454 563 564 456 341 445
8 565 458 576 682 447 344 459 566
8 450 346 461 569 565 458 576 682
8 568 462 347 449 684 578 460 567
8 451 348 462 568 569 461 579 685
8 686 580 463 570 591 474 360 473
8 571 464 350 453 686 580 463 570
8 573 466 352 455 687 581 464 571
8 572 465 582 688 460 357 471 578
8 574 467 582 688 456 353 465 572
8 574 467 353 456 689 583 466 573
8 459 356 470 577 575 468 585 691
8 576 469 586 692 459 356 470 577
8 461 358 472 579 576 469 586 692
8 462 359 471 578 579 472 588 694
8 704 591 473 590 593 475 363 481
8 595 476 592 705 475 361 474 591
8 593 475 363 481 707 594 479 602
8 594 477 362 479 709 598 478 600
8 595 476 361 475 711 597 477 594
8 479 362 480 603 600 478 601 720
8 481 363 482 605 602 479 603 722
8 603 480 364 482 723 604 483 606
8 605 482 365 484 724 606 485 607
8 656 553 608 726 542 436 487 609
8 645 542 609 728 525 422 488 611
8 609 487 610 729 488 369 489 612
8 611 488 612 730 491 371 490 613
8 616 504 386 495 731 624 503 614
8 731 624 503 614 678 575 457 561
8 732 622 501 615 616 504 386 495
8 617 502 384 496 732 622 501 615
8 617 502 621 735 496 384 500 618
8 736 620 499 619 618 500 382 497
8 630 527 408 511 736 620 499 619
8 621 506 626 737 500 388 505 620
8 647 544 424 527 737 626 505 620
8 623 508 627 738 502 390 506 621
8 623 508 390 502 739 628 507 622
8 625 510 628 739 504 392 507 622
8 740 629 509 624 691 585 468 575
8 625 510 392 504 740 629 509 624
8 632 529 410 513 744 647 527 630
8 631 528 648 745 514 411 530 633
8 632 529 648 745 513 410 528 631
8 638 535 416 519 746 649 530 633
8 747 650 531 634 635 532 413 516
8 642 539 420 523 747 650 531 634
8 636 533 651 748 517 414 532 635
8 640 536 652 749 521 417 533 636
8 639 537 418 520 750 653 534 637
8 638 535 653 750 519 416 534 637
8 641 538 419 522 751 655 537 639
8 641 538 654 752 522 419 536 640
8 643 540 421 524 753 657 539 642
8 643 540 659 755 524 421 541 644
8 644 541 660 757 526 423 543 646
8 758 661 542 645 646 543 422 525
8 529 426 544 647 648 545 662 759
8 530 427 545 648 649 546 663 760
8 535 429 546 649 653 547 664 761
8 762 666 548 650 651 550 432 532
8 657 556 438 539 762 666 548 650
8 652 551 668 763 533 433 550 651
8 654 552 669 764 536 434 551 652
8 655 549 431 537 765 665 547 653
8 538 435 549 655 654 552 667 766
8 661 554 671 768 542 436 553 656
8 658 558 440 540 769 674 556 657
8 658 558 675 770 540 440 557 659
8 659 557 673 771 541 439 555 660
8 660 555 672 772 543 437 554 661
8 788 686 570 676 704 591 473 590
8 677 571 453 560 788 686 570 676
8 679 573 455 562 789 687 571 677
8 566 459 577 683 678 575 691 790
8 681 574 456 564 791 689 573 679
8 680 572 688 792 567 460 578 684
8 681 574 688 792 564 456 572 680
8 682 576 692 794 566 459 577 683
8 569 461 579 685 682 576 692 794
8 568 462 578 684 685 579 694 796
8 687 581 464 571 798 696 580 686
8 798 696 580 686 705 592 474 591
8 689 583 466 573 799 697 581 687
8 688 582 698 800 578 471 588 694
8 690 584 698 800 574 467 582 688
8 690 584 467 574 801 699 583 689
8 693 587 701 803 577 470 585 691
8 693 587 470 577 804 702 586 692
8 695 589 702 804 579 472 586 692
8 695 589 472 579 805 703 588 694
8 708 595 705 813 593 475 591 704
8 710 596 706 814 595 476 592 705
8 707 594 479 602 816 709 600 719
8 708 595 475 593 817 711 594 707
8 709 598 478 600 819 715 599 717
8 711 597 477 594 820 714 598 709
8 710 596 476 595 822 713 597 711
8 600 478 601 720 717 599 718 832
8 602 479 603 722 719 600 720 834
8 720 601 480 603 835 721 604 723
8 722 603 482 605 836 723 606 724
8 767 670 725 839 656 553 608 726
8 756 656 726 841 645 542 609 728
8 726 608 727 842 609 487 610 729
8 728 609 729 843 611 488 612 730
8 844 740 624 731 790 691 575 678
8 733 625 504 616 844 740 624 731
8 734 623 502 617 845 739 622 732
8 733 625 739 845 616 504 622 732
8 734 623 738 846 617 502 621 735
8 735 621 737 847 618 500 620 736
8 744 647 527 630 847 737 620 736
8 621 506 627 738 737 626 741 848
8 647 544 626 737 759 662 741 848
8 623 508 628 739 738 627 742 849
8 740 629 585 691 850 743 700 802
8 625 510 629 740 739 628 743 850
8 632 529 647 744 745 648 759 854
8 633 530 648 745 746 649 760 855
8 638 535 649 746 750 653 761 856
8 857 762 650 747 748 651 532 635
8 753 657 539 642 857 762 650 747
8 749 652 763 858 636 533 651 748
8 752 654 764 859 640 536 652 749
8 751 655 537 639 860 765 653 750
8 641 538 655 751 752 654 766 861
8 754 658 540 643 862 769 657 753
8 754 658 770 863 643 540 659 755
8 755 659 771 864 644 541 660 757
8 758 661 768 866 645 542 656 756
8 757 660 772 867 646 543 661 758
8 759 662 773 868 648 545 663 760
8 649 546 663 760 761 664 774 871
8 765 665 547 653 872 775 664 761
8 873 777 666 762 763 668 550 651
8 769 674 556 657 873 777 666 762
8 764 669 779 874 652 551 668 763
8 654 552 667 766 764 669 778 875
8 655 549 665 765 766 667 776 876
8 768 671 782 877 656 553 670 767
8 772 672 783 878 661 554 671 768
8 658 558 674 769 770 675 786 879
8 659 557 675 770 771 673 785 881
8 882 784 672 772 771 673 555 660
8 789 687 571 677 897 798 686 788
8 897 798 686 788 813 705 591 704
8 791 689 573 679 898 799 687 789
8 795 693 803 900 683 577 691 790
8 793 690 574 681 901 801 689 791
8 792 688 800 902 684 578 694 796
8 793 690 800 902 681 574 688 792
8 795 693 577 683 903 804 692 794
8 797 695 804 903 685 579 692 794
8 797 695 579 685 904 805 694 796
8 905 806 697 799 798 696 581 687
8 814 706 806 905 705 592 696 798
8 689 583 697 799 801 699 808 907
8 800 698 809 908 694 588 703 805
8 690 584 699 801 800 698 809 908
8 803 701 810 909 691 585 700 802
8 693 587 702 804 803 701 811 910
8 695 589 703 805 804 702 812 911
8 818 710 814 919 708 595 705 813
8 821 712 815 920 710 596 706 814
8 816 709 600 719 922 819 717 831
8 817 711 594 707 923 820 709 816
8 818 710 595 708 924 822 711 817
8 819 715 599 717 926 827 716 829
8 820 714 598 709 927 826 715 819
8 929 825 713 822 820 714 597 711
8 821 712 596 710 930 824 713 822
8 717 599 718 832 829 716 830 942
8 719 600 720 834 831 717 832 944
8 832 718 601 720 945 833 721 835
8 834 720 603 722 946 835 723 836
8 869 780 838 950 767 670 725 839
8 865 767 839 952 756 656 726 841
8 839 725 840 953 726 608 727 842
8 841 726 842 954 728 609 729 843
8 844 740 691 790 955 850 802 899
8 733 625 740 844 845 739 850 955
8 734 623 739 845 846 738 849 956
8 735 621 738 846 847 737 848 957
8 744 647 737 847 854 759 848 957
8 738 627 742 849 848 741 851 958
8 848 741 851 958 759 662 773 868
8 850 743 700 802 959 852 807 906
8 849 742 628 739 959 852 743 850
8 854 759 868 965 745 648 760 855
8 746 649 760 855 856 761 871 966
8 860 765 653 750 967 872 761 856
8 968 873 762 857 858 763 651 748
8 862 769 657 753 968 873 762 857
8 859 764 874 969 749 652 763 858
8 752 654 766 861 859 764 875 970
8 751 655 765 860 861 766 876 971
8 754 658 769 862 863 770 879 972
8 755 659 770 863 864 771 881 974
8 976 882 772 867 864 771 660 757
8 866 768 877 977 756 656 767 865
8 867 772 878 978 758 661 768 866
8 760 663 773 868 871 774 883 980
8 870 781 837 948 982 890 780 869
8 982 890 780 869 877 782 670 767
8 761 664 774 871 872 775 884 984
8 876 776 665 765 985 885 775 872
8 873 777 668 763 986 887 779 874
8 769 674 777 873 879 786 887 986
8 764 669 778 875 874 779 888 987
8 766 667 776 876 875 778 886 988
8 878 783 892 989 768 671 782 877
8 878 783 672 772 990 893 784 882
8 880 787 675 770 991 896 786 879
8 880 787 895 992 770 675 785 881
8 881 785 894 993 771 673 784 882
8 1006 905 799 898 897 798 687 789
8 919 814 905 1006 813 705 798 897
8 791 689 799 898 901 801 907 1007
8 900 803 909 1009 790 691 802 899
8 795 693 804 903 900 803 910 1010
8 902 800 908 1011 796 694 805 904
8 793 690 801 901 902 800 908 1011
8 797 695 805 904 903 804 911 1012
8 799 697 806 905 907 808 912 1013
8 920 815 912 1013 814 706 806 905
8 802 700 810 909 906 807 913 1014
8 801 699 808 907 908 809 914 1015
8 805 703 809 908 911 812 915 1016
8 803 701 811 910 909 810 916 1017
8 911 812 917 1018 804 702 811 910
8 925 821 920 1030 818 710 814 919
8 928 823 921 1031 821 712 815 920
8 922 819 717 831 1033 926 829 941
8 923 820 709 816 1034 927 819 922
8 1035 929 822 924 923 820 711 817
8 925 821 710 818 1036 930 822 924
8 1038 933 825 929 927 826 714 820
8 926 827 716 829 1039 935 828 939
8 927 826 715 819 1040 934 827 926
8 928 823 712 821 1041 931 824 930
8 1042 932 824 930 929 825 713 822
8 829 716 830 942 939 828 940 1058
8 831 717 832 944 941 829 942 1060
8 942 830 718 832 1061 943 833 945
8 944 832 720 834 1062 945 835 946
8 981 889 947 1064 870 781 837 948
8 948 837 949 1067 869 780 838 950
8 975 869 950 1069 865 767 839 952
8 950 838 951 1070 839 725 840 953
8 952 839 953 1071 841 726 842 954
8 955 850 802 899 1072 959 906 1008
8 956 849 739 845 1072 959 850 955
8 846 738 849 956 957 848 958 1073
8 957 848 958 1073 854 759 868 965
8 849 742 852 959 958 851 961 1076
8 960 853 961 1076 906 807 852 959
8 958 851 961 1076 868 773 883 980
8 960 853 807 906 1077 963 913 1014
8 855 760 868 965 966 871 980 1085
8 856 761 871 966 967 872 984 1086
8 971 876 765 860 1087 985 872 967
8 968 873 763 858 1088 986 874 969
8 862 769 873 968 972 879 986 1088
8 859 764 875 970 969 874 987 1089
8 861 766 876 971 970 875 988 1090
8 973 880 770 863 1091 991 879 972
8 973 880 992 1092 863 770 881 974
8 974 881 993 1093 864 771 882 976
8 979 870 948 1066 1094 982 869 975
8 1094 982 869 975 977 877 767 865
8 978 878 772 867 1095 990 882 976
8 978 878 989 1096 866 768 877 977
8 871 774 883 980 984 884 994 1099
8 983 891 999 1100 870 781 889 981
8 1101 1000 890 982 989 892 782 877
8 983 891 781 870 1101 1000 890 982
8 872 775 884 984 985 885 995 1103
8 876 776 885 985 988 886 996 1104
8 986 887 779 874 1105 998 888 987
8 879 786 887 986 991 896 998 1105
8 875 778 886 988 987 888 997 1106
8 990 893 1002 1107 878 783 892 989
8 1108 1003 893 990 993 894 784 882
8 880 787 896 991 992 895 1005 1109
8 993 894 785 881 1110 1004 895 992
8 898 799 905 1006 1007 907 1013 1120
8 1030 920 1013 1120 919 814 905 1006
8 901 801 907 1007 1011 908 1015 1121
8 899 802 909 1009 1008 906 1014 1122
8 900 803 910 1010 1009 909 1017 1123
8 1012 911 1018 1124 903 804 910 1010
8 904 805 908 1011 1012 911 1016 1125
8 1013 912 1020 1127 907 808 914 1015
8 1031 921 1020 1127 920 815 912 1013
8 1019 918 962 1075 1128 1021 913 1014
8 1128 1021 913 1014 1017 916 810 909
8 1015 914 1022 1129 908 809 915 1016
8 1016 915 1023 1130 911 812 917 1018
8 1018 917 1024 1131 910 811 916 1017
8 1037 928 1031 1148 925 821 920 1030
8 928 823 931 1041 1031 921 1032 1149
8 1033 926 829 941 1151 1039 939 1057
8 1034 927 819 922 1152 1040 926 1033
8 1153 1038 929 1035 1034 927 820 923
8 1154 1042 930 1036 1035 929 822 924
8 1037 928 821 925 1155 1041 930 1036
8 1039 935 828 939 1156 1047 938 1055
8 1157 1043 932 1042 1038 933 825 929
8 1038 933 826 927 1158 1045 934 1040
8 1040 934 827 926 1159 1046 935 1039
8 930 824 932 1042 1041 931 1044 1160
8 1051 936 1048 1165 1175 1052 937 1053
8 1156 1047 938 1055 1053 937 1054 1178
8 939 828 940 1058 1055 938 1056 1181
8 941 829 942 1060 1057 939 1058 1183
8 942 830 943 1061 1058 940 1059 1184
8 1060 942 832 944 1185 1061 945 1062
8 1082 964 1063 1188 981 889 947 1064
8 1097 981 1064 1190 979 870 948 1066
8 1064 947 1065 1191 948 837 949 1067
8 1066 948 1067 1193 975 869 950 1069
8 1067 949 1068 1194 950 838 951 1070
8 1069 950 1070 1195 952 839 953 1071
8 956 849 959 1072 1073 958 1076 1197
8 1074 960 1076 1197 1008 906 959 1072
8 1073 958 1076 1197 965 868 980 1085
8 1074 960 906 1008 1198 1077 1014 1122
8 1133 1026 1079 1199 1019 918 962 1075
8 1077 963 913 1014 1200 1080 962 1075
8 960 853 963 1077 1076 961 1078 1201
8 980 883 961 1076 1099 994 1078 1201
8 1210 1083 964 1082 1100 999 889 981
8 966 871 980 1085 1086 984 1099 1215
8 967 872 984 1086 1087 985 1103 1216
8 971 876 985 1087 1090 988 1104 1217
8 1088 986 874 969 1218 1105 987 1089
8 972 879 986 1088 1091 991 1105 1218
8 970 875 988 1090 1089 987 1106 1219
8 973 880 991 1091 1092 992 1109 1220
8 1093 993 881 974 1221 1110 992 1092
8 1222 1108 990 1095 1093 993 882 976
8 1223 1101 982 1094 1096 989 877 977
8 1098 983 870 979 1223 1101 982 1094
8 1095 990 1107 1224 978 878 989 1096
8 1098 983 1100 1225 979 870 981 1097
8 984 884 994 1099 1103 995 1111 1227
8 1102 1001 1115 1228 983 891 999 1100
8 1101 1000 892 989 1229 1116 1002 1107
8 1102 1001 891 983 1229 1116 1000 1101
8 985 885 995 1103 1104 996 1112 1230
8 988 886 996 1104 1106 997 1113 1231
8 1105 998 888 987 1232 1114 997 1106
8 991 896 998 1105 1109 1005 1114 1232
8 1108 1003 1117 1233 990 893 1002 1107
8 1108 1003 894 993 1233 1117 1004 1110
8 992 895 1005 1109 1110 1004 1118 1234
8 1120 1013 1127 1244 1007 907 1015 1121
8 1148 1031 1127 1244 1030 920 1013 1120
8 1121 1015 1129 1245 1011 908 1016 1125
8 1126 1019 1075 1196 1246 1128 1014 1122
8 1246 1128 1014 1122 1123 1017 909 1009
8 1124 1018 1131 1247 1010 910 1017 1123
8 1125 1016 1130 1248 1012 911 1018 1124
8 1127 1020 1137 1254 1015 914 1022 1129
8 1031 921 1032 1149 1127 1020 1137 1254
8 1134 1027 918 1019 1257 1140 1021 1128
8 1257 1140 1021 1128 1131 1024 916 1017
8 1129 1022 1141 1258 1016 915 1023 1130
8 1130 1023 1142 1259 1018 917 1024 1131
8 1261 1144 1025 1132 1133 1026 1079 1199
8 1255 1138 1025 1132 1135 1028 1144 1261
8 1133 1026 918 1019 1262 1145 1027 1134
8 1136 1029 1139 1256 1263 1146 1028 1135
8 1037 928 1041 1155 1148 1031 1149 1275
8 1041 931 1044 1160 1149 1032 1150 1276
8 1151 1039 939 1057 1278 1156 1055 1180
8 1152 1040 926 1033 1279 1159 1039 1151
8 1153 1038 927 1034 1280 1158 1040 1152
8 1281 1157 1042 1154 1153 1038 929 1035
8 1036 930 1042 1154 1155 1041 1160 1282
8 1283 1164 1046 1159 1156 1047 935 1039
8 1165 1048 1164 1283 1053 937 1047 1156
8 1157 1043 933 1038 1284 1161 1045 1158
8 1157 1043 1161 1284 1042 932 1044 1160
8 1040 934 1046 1159 1158 1045 1163 1285
8 1166 1049 1167 1292 1051 936 1048 1165
8 1166 1049 936 1051 1293 1168 1050 1172
8 1051 936 1052 1175 1172 1050 1173 1306
8 1174 1051 1165 1290 1308 1175 1053 1177
8 1053 937 1054 1178 1175 1052 1176 1309
8 1278 1156 1055 1180 1177 1053 1178 1311
8 1055 938 1056 1181 1178 1054 1179 1312
8 1057 939 1058 1183 1180 1055 1181 1314
8 1058 940 1059 1184 1181 1056 1182 1315
8 1060 942 1061 1185 1183 1058 1184 1316
8 1208 1081 1187 1321 1082 964 1063 1188
8 1209 1082 1188 1322 1097 981 1064 1190
8 1188 1063 1189 1323 1064 947 1065 1191
8 1190 1064 1191 1325 1066 948 1067 1193
8 1191 1065 1192 1326 1067 949 1068 1194
8 1067 1193 1069 950 1194 1327 1195 1070
8 1250 1133 1199 1330 1126 1019 1075 1196
8 1198 1077 1014 1122 1331 1200 1075 1196
8 1074 960 1077 1198 1197 1076 1201 1332
8 1085 980 1076 1197 1215 1099 1201 1332
8 1199 1079 1203 1333 1075 962 1080 1200
8 1132 1025 1119 1243 1199 1079 1203 1333
8 1201 1078 963 1077 1334 1202 1080 1200
8 1099 994 1078 1201 1227 1111 1202 1334
8 1343 1207 1081 1208 1210 1083 964 1082
8 1214 1084 1186 1319 1343 1207 1081 1208
8 1345 1210 1082 1209 1225 1100 981 1097
8 1346 1211 1083 1210 1228 1115 999 1100
8 1086 984 1099 1215 1216 1103 1227 1352
8 1087 985 1103 1216 1217 1104 1230 1353
8 1090 988 1104 1217 1219 1106 1231 1354
8 1218 1105 987 1089 1355 1232 1106 1219
8 1091 991 1105 1218 1220 1109 1232 1355
8 1092 992 1109 1220 1221 1110 1234 1356
8 1222 1108 1233 1357 1095 990 1107 1224
8 1222 1108 993 1093 1357 1233 1110 1221
8 1223 1101 989 1096 1358 1229 1107 1224
8 1226 1102 983 1098 1358 1229 1101 1223
8 1226 1102 1228 1359 1098 983 1100 1225
8 1103 995 1111 1227 1230 1112 1235 1360
8 1107 1002 1117 1233 1229 1116 1240 1362
8 1102 1001 1116 1229 1228 1115 1240 1362
8 1104 996 1112 1230 1231 1113 1236 1363
8 1364 1237 1114 1232 1231 1113 997 1106
8 1109 1005 1114 1232 1234 1118 1238 1365
8 1110 1004 1118 1234 1233 1117 1241 1366
8 1242 1374 1255 1138 1119 1243 1132 1025
8 1244 1127 1254 1376 1121 1015 1129 1245
8 1148 1031 1149 1275 1244 1127 1254 1376
8 1245 1129 1258 1377 1125 1016 1130 1248
8 1251 1134 1019 1126 1378 1257 1128 1246
8 1378 1257 1128 1246 1247 1131 1017 1123
8 1248 1130 1259 1379 1124 1018 1131 1247
8 1261 1381 1250 1133 1132 1249 1330 1199
8 1255 1380 1252 1135 1132 1249 1381 1261
8 1250 1133 1019 1126 1382 1262 1134 1251
8 1253 1136 1256 1385 1384 1263 1135 1252
8 1254 1137 1265 1387 1129 1022 1141 1258
8 1149 1032 1150 1276 1254 1137 1265 1387
8 1028 1135 1255 1138 1139 1256 1388 1266
8 1136 1029 1147 1264 1256 1139 1267 1389
8 1390 1268 1140 1257 1259 1142 1024 1131
8 1260 1143 1027 1134 1390 1268 1140 1257
8 1258 1141 1269 1391 1130 1023 1142 1259
8 1262 1145 1027 1134 1393 1271 1143 1260
8 1261 1144 1026 1133 1394 1272 1145 1262
8 1135 1028 1144 1261 1263 1146 1272 1394
8 1136 1029 1146 1263 1264 1147 1273 1395
8 1155 1041 1160 1282 1275 1149 1276 1405
8 1276 1150 1044 1160 1406 1277 1162 1286
8 1408 1283 1159 1279 1278 1156 1039 1151
8 1290 1165 1283 1408 1177 1053 1156 1278
8 1152 1040 1159 1279 1280 1158 1285 1409
8 1281 1157 1038 1153 1410 1284 1158 1280
8 1281 1157 1284 1410 1154 1042 1160 1282
8 1159 1046 1164 1283 1285 1163 1289 1412
8 1292 1167 1289 1412 1165 1048 1164 1283
8 1158 1045 1163 1285 1284 1161 1288 1413
8 1284 1161 1288 1413 1160 1044 1162 1286
8 1291 1166 1292 1418 1174 1051 1165 1290
8 1291 1166 1051 1174 1419 1293 1172 1305
8 1294 1169 1296 1421 1166 1049 1167 1292
8 1293 1168 1050 1172 1422 1295 1171 1303
8 1294 1169 1049 1166 1423 1297 1168 1293
8 1422 1295 1171 1303 1301 1170 1302 1435
8 1172 1050 1173 1306 1303 1171 1304 1438
8 1174 1051 1175 1308 1305 1172 1306 1440
8 1175 1052 1176 1309 1306 1173 1307 1441
8 1177 1053 1178 1311 1308 1175 1309 1443
8 1178 1054 1179 1312 1309 1176 1310 1444
8 1180 1055 1181 1314 1311 1178 1312 1446
8 1056 1181 1312 1179 1182 1315 1447 1313
8 1183 1058 1184 1316 1314 1181 1315 1448
8 1319 1186 1084 1214 1451 1317 1213 1350
8 1319 1186 1318 1453 1208 1081 1187 1321
8 1321 1187 1320 1456 1188 1063 1189 1323
8 1344 1208 1321 1457 1209 1082 1188 1322
8 1322 1188 1323 1458 1190 1064 1191 1325
8 1323 1189 1324 1459 1191 1065 1192 1326
8 1191 1325 1193 1067 1326 1460 1327 1194
8 1242 1374 1243 1119 1328 1462 1335 1204
8 1330 1199 1333 1465 1196 1075 1200 1331
8 1132 1249 1330 1199 1243 1375 1465 1333
8 1332 1201 1077 1198 1466 1334 1200 1331
8 1215 1099 1201 1332 1352 1227 1334 1466
8 1119 1243 1333 1203 1204 1335 1470 1338
8 1333 1203 1338 1470 1200 1080 1202 1334
8 1227 1111 1202 1334 1360 1235 1338 1470
8 1328 1462 1335 1204 1205 1336 1471 1339
8 1337 1206 1340 1472 1464 1329 1205 1336
8 1346 1211 1342 1479 1210 1083 1207 1343
8 1346 1211 1115 1228 1479 1342 1239 1361
8 1348 1212 1084 1214 1479 1342 1207 1343
8 1480 1343 1208 1344 1345 1210 1082 1209
8 1351 1214 1319 1454 1480 1343 1208 1344
8 1481 1346 1210 1345 1359 1228 1100 1225
8 1348 1212 1347 1483 1214 1084 1213 1350
8 1216 1103 1227 1352 1353 1230 1360 1488
8 1217 1104 1230 1353 1354 1231 1363 1489
8 1490 1364 1232 1355 1354 1231 1106 1219
8 1220 1109 1232 1355 1356 1234 1365 1491
8 1221 1110 1234 1356 1357 1233 1366 1492
8 1224 1107 1233 1357 1358 1229 1362 1493
8 1226 1102 1229 1358 1359 1228 1362 1493
8 1230 1112 1235 1360 1363 1236 1367 1496
8 1361 1239 1115 1228 1497 1371 1240 1362
8 1366 1241 1372 1498 1233 1117 1240 1362
8 1364 1237 1113 1231 1499 1368 1236 1363
8 1364 1237 1368 1499 1232 1114 1238 1365
8 1234 1118 1238 1365 1366 1241 1369 1500
8 1507 1373 1242 1374 1388 1266 1138 1255
8 1508 1374 1243 1375 1380 1255 1132 1249
8 1376 1254 1387 1509 1245 1129 1258 1377
8 1275 1149 1276 1405 1376 1254 1387 1509
8 1377 1258 1391 1510 1248 1130 1259 1379
8 1511 1390 1257 1378 1379 1259 1131 1247
8 1383 1260 1134 1251 1511 1390 1257 1378
8 1252 1135 1256 1385 1380 1255 1388 1512
8 1261 1381 1513 1394 1133 1250 1382 1262
8 1135 1252 1384 1263 1261 1381 1513 1394
8 1382 1262 1134 1251 1514 1393 1260 1383
8 1253 1136 1263 1384 1386 1264 1395 1516
8 1253 1136 1264 1386 1385 1256 1389 1517
8 1387 1265 1397 1519 1258 1141 1269 1391
8 1276 1150 1277 1406 1387 1265 1397 1519
8 1256 1139 1267 1389 1388 1266 1398 1520
8 1264 1147 1274 1396 1389 1267 1399 1521
8 1392 1270 1143 1260 1522 1400 1268 1390
8 1390 1268 1142 1259 1522 1400 1269 1391
8 1392 1270 1401 1523 1260 1143 1271 1393
8 1272 1394 1524 1402 1145 1262 1393 1271
8 1395 1273 1146 1263 1524 1402 1272 1394
8 1273 1395 1264 1147 1403 1526 1396 1274
8 1405 1276 1160 1282 1534 1406 1286 1411
8 1414 1287 1407 1535 1286 1162 1277 1406
8 1279 1159 1283 1408 1409 1285 1412 1537
8 1418 1292 1412 1537 1290 1165 1283 1408
8 1280 1158 1285 1409 1410 1284 1413 1538
8 1410 1284 1413 1538 1282 1160 1286 1411
8 1285 1163 1289 1412 1413 1288 1417 1540
8 1421 1296 1417 1540 1292 1167 1289 1412
8 1414 1287 1162 1286 1541 1416 1288 1413
8 1420 1294 1421 1545 1291 1166 1292 1418
8 1419 1293 1172 1305 1546 1422 1303 1437
8 1420 1294 1166 1291 1547 1423 1293 1419
8 1294 1169 1297 1423 1421 1296 1425 1548
8 1423 1297 1168 1293 1549 1424 1295 1422
8 1301 1170 1298 1427 1422 1295 1424 1549
8 1432 1300 1428 1554 1301 1170 1298 1427
8 1431 1299 1428 1554 1560 1430 1300 1432
8 1563 1433 1300 1432 1435 1302 1170 1301
8 1546 1422 1303 1437 1434 1301 1435 1565
8 1303 1171 1304 1438 1435 1302 1436 1566
8 1305 1172 1306 1440 1437 1303 1438 1568
8 1306 1173 1307 1441 1438 1304 1439 1569
8 1308 1175 1309 1443 1440 1306 1441 1571
8 1309 1176 1310 1444 1441 1307 1442 1572
8 1311 1178 1312 1446 1443 1309 1444 1574
8 1179 1312 1444 1310 1313 1447 1575 1445
8 1314 1181 1315 1448 1446 1312 1447 1576
8 1350 1213 1349 1486 1451 1317 1449 1579
8 1451 1317 1450 1581 1319 1186 1318 1453
8 1454 1319 1214 1351 1582 1451 1350 1487
8 1453 1318 1452 1584 1321 1187 1320 1456
8 1454 1319 1453 1585 1344 1208 1321 1457
8 1456 1320 1455 1586 1323 1189 1324 1459
8 1457 1321 1456 1587 1322 1188 1323 1458
8 1458 1323 1459 1588 1325 1191 1326 1460
8 1205 1336 1464 1329 1328 1462 1590 1461
8 1507 1373 1461 1590 1374 1242 1328 1462
8 1508 1374 1462 1591 1375 1243 1335 1467
8 1337 1206 1329 1464 1473 1341 1463 1594
8 1375 1243 1335 1467 1465 1333 1470 1596
8 1465 1333 1470 1596 1331 1200 1334 1466
8 1352 1227 1334 1466 1488 1360 1470 1596
8 1591 1462 1336 1468 1467 1335 1471 1597
8 1469 1337 1472 1598 1595 1464 1336 1468
8 1471 1339 1474 1600 1335 1204 1338 1470
8 1600 1474 1367 1496 1470 1338 1235 1360
8 1336 1205 1340 1472 1471 1339 1475 1601
8 1337 1206 1341 1473 1472 1340 1476 1602
8 1495 1370 1478 1609 1361 1239 1342 1479
8 1348 1212 1342 1479 1483 1347 1478 1609
8 1481 1346 1479 1610 1345 1210 1343 1480
8 1481 1346 1228 1359 1610 1479 1361 1494
8 1484 1348 1214 1351 1610 1479 1343 1480
8 1483 1347 1482 1612 1350 1213 1349 1486
8 1484 1348 1483 1613 1351 1214 1350 1487
8 1353 1230 1360 1488 1489 1363 1496 1616
8 1490 1364 1231 1354 1617 1499 1363 1489
8 1490 1364 1499 1617 1355 1232 1365 1491
8 1356 1234 1365 1491 1492 1366 1500 1619
8 1492 1366 1498 1620 1357 1233 1362 1493
8 1494 1361 1228 1359 1621 1497 1362 1493
8 1495 1370 1239 1361 1622 1504 1371 1497
8 1363 1236 1367 1496 1499 1368 1501 1623
8 1497 1371 1240 1362 1624 1505 1372 1498
8 1625 1503 1372 1498 1500 1369 1241 1366
8 1365 1238 1368 1499 1500 1369 1502 1626
8 1520 1398 1506 1633 1388 1266 1373 1507
8 1634 1507 1374 1508 1512 1388 1255 1380
8 1509 1387 1519 1635 1377 1258 1391 1510
8 1405 1276 1406 1534 1509 1387 1519 1635
8 1515 1392 1260 1383 1636 1522 1390 1511
8 1511 1390 1259 1379 1636 1522 1391 1510
8 1385 1256 1389 1517 1512 1388 1520 1637
8 1513 1394 1262 1382 1638 1524 1393 1514
8 1395 1516 1638 1524 1263 1384 1513 1394
8 1515 1392 1523 1639 1383 1260 1393 1514
8 1516 1395 1526 1640 1386 1264 1396 1518
8 1386 1264 1396 1518 1517 1389 1521 1641
8 1519 1397 1527 1643 1391 1269 1400 1522
8 1535 1407 1527 1643 1406 1277 1397 1519
8 1389 1267 1399 1521 1520 1398 1528 1644
8 1645 1529 1399 1521 1525 1404 1274 1396
8 1392 1270 1400 1522 1523 1401 1531 1646
8 1524 1402 1271 1393 1648 1532 1401 1523
8 1403 1526 1648 1532 1273 1395 1524 1402
8 1525 1404 1274 1396 1649 1533 1403 1526
8 1539 1414 1535 1657 1411 1286 1406 1534
8 1542 1415 1536 1658 1414 1287 1407 1535
8 1409 1285 1412 1537 1538 1413 1540 1660
8 1545 1421 1540 1660 1418 1292 1412 1537
8 1539 1414 1286 1411 1661 1541 1413 1538
8 1540 1417 1544 1663 1413 1288 1416 1541
8 1421 1296 1425 1548 1540 1417 1544 1663
8 1542 1415 1287 1414 1664 1543 1416 1541
8 1420 1294 1423 1547 1545 1421 1548 1666
8 1547 1423 1293 1419 1667 1549 1422 1546
8 1434 1301 1427 1553 1546 1422 1549 1667
8 1423 1297 1424 1549 1548 1425 1550 1668
8 1551 1426 1550 1668 1427 1298 1424 1549
8 1551 1426 1298 1427 1671 1552 1428 1554
8 1562 1432 1554 1674 1434 1301 1427 1553
8 1431 1299 1429 1558 1554 1428 1555 1675
8 1431 1299 1430 1560 1558 1429 1557 1680
8 1560 1430 1300 1432 1683 1559 1433 1563
8 1561 1431 1554 1674 1684 1560 1432 1562
8 1685 1563 1432 1562 1565 1435 1301 1434
8 1435 1302 1436 1566 1563 1433 1564 1686
8 1437 1303 1438 1568 1565 1435 1566 1688
8 1438 1304 1439 1569 1566 1436 1567 1689
8 1440 1306 1441 1571 1568 1438 1569 1691
8 1441 1307 1442 1572 1569 1439 1570 1692
8 1443 1309 1444 1574 1571 1441 1572 1694
8 1310 1444 1572 1442 1445 1575 1695 1573
8 1446 1312 1447 1576 1574 1444 1575 1696
8 1486 1349 1485 1614 1579 1449 1577 1699
8 1451 1317 1449 1579 1581 1450 1578 1701
8 1487 1350 1486 1615 1582 1451 1579 1702
8 1581 1450 1580 1704 1453 1318 1452 1584
8 1582 1451 1581 1705 1454 1319 1453 1585
8 1584 1452 1583 1706 1456 1320 1455 1586
8 1585 1453 1584 1707 1457 1321 1456 1587
8 1587 1456 1586 1708 1458 1323 1459 1588
8 1633 1506 1589 1710 1507 1373 1461 1590
8 1464 1329 1461 1590 1594 1463 1589 1710
8 1468 1336 1462 1591 1595 1464 1590 1711
8 1634 1507 1590 1711 1508 1374 1462 1591
8 1473 1341 1463 1594 1603 1477 1593 1716
8 1469 1337 1464 1595 1599 1473 1594 1717
8 1471 1597 1467 1335 1600 1718 1596 1470
8 1718 1600 1496 1616 1596 1470 1360 1488
8 1336 1468 1597 1471 1472 1598 1719 1601
8 1469 1337 1473 1599 1598 1472 1602 1720
8 1722 1604 1501 1623 1600 1474 1367 1496
8 1475 1601 1471 1339 1604 1722 1600 1474
8 1602 1476 1605 1723 1472 1340 1475 1601
8 1476 1602 1724 1606 1341 1473 1603 1477
8 1483 1347 1478 1609 1612 1482 1608 1731
8 1495 1370 1504 1622 1609 1478 1608 1731
8 1618 1495 1609 1732 1494 1361 1479 1610
8 1484 1348 1479 1610 1613 1483 1609 1732
8 1486 1349 1482 1612 1614 1485 1611 1733
8 1613 1483 1612 1734 1487 1350 1486 1615
8 1489 1363 1496 1616 1617 1499 1623 1736
8 1491 1365 1499 1617 1619 1500 1626 1737
8 1618 1495 1361 1494 1738 1622 1497 1621
8 1739 1625 1498 1620 1619 1500 1366 1492
8 1621 1497 1362 1493 1740 1624 1498 1620
8 1742 1631 1504 1622 1624 1505 1371 1497
8 1743 1628 1502 1626 1623 1501 1368 1499
8 1744 1630 1505 1624 1625 1503 1372 1498
8 1745 1629 1503 1625 1626 1502 1369 1500
8 1520 1398 1528 1644 1633 1506 1632 1751
8 1637 1520 1633 1752 1512 1388 1507 1634
8 1635 1519 1643 1753 1510 1391 1522 1636
8 1657 1535 1643 1753 1534 1406 1519 1635
8 1515 1392 1522 1636 1639 1523 1646 1754
8 1517 1389 1521 1641 1637 1520 1644 1755
8 1524 1638 1756 1648 1393 1514 1639 1523
8 1640 1526 1395 1516 1756 1648 1524 1638
8 1642 1525 1396 1518 1757 1649 1526 1640
8 1758 1645 1521 1641 1642 1525 1396 1518
8 1646 1531 1400 1522 1760 1650 1527 1643
8 1535 1407 1536 1658 1643 1527 1650 1760
8 1521 1399 1529 1645 1644 1528 1651 1761
8 1647 1530 1652 1762 1525 1404 1529 1645
8 1401 1523 1648 1532 1531 1646 1763 1655
8 1525 1404 1533 1649 1647 1530 1654 1765
8 1533 1649 1766 1656 1403 1526 1648 1532
8 1662 1542 1658 1774 1539 1414 1535 1657
8 1542 1415 1543 1664 1658 1536 1659 1775
8 1660 1540 1663 1777 1538 1413 1541 1661
8 1545 1421 1548 1666 1660 1540 1663 1777
8 1662 1542 1414 1539 1778 1664 1541 1661
8 1664 1543 1416 1541 1779 1665 1544 1663
8 1548 1425 1550 1668 1663 1544 1665 1779
8 1547 1423 1549 1667 1666 1548 1668 1781
8 1670 1551 1668 1781 1553 1427 1549 1667
8 1551 1426 1552 1671 1668 1550 1669 1782
8 1670 1551 1427 1553 1784 1671 1554 1674
8 1675 1555 1672 1785 1554 1428 1552 1671
8 1678 1556 1673 1789 1558 1429 1555 1675
8 1561 1431 1558 1681 1674 1554 1675 1790
8 1794 1677 1556 1678 1680 1557 1429 1558
8 1560 1430 1559 1683 1680 1557 1679 1797
8 1561 1431 1560 1684 1681 1558 1680 1798
8 1563 1433 1564 1686 1683 1559 1682 1800
8 1684 1560 1432 1562 1801 1683 1563 1685
8 1565 1435 1566 1688 1685 1563 1686 1802
8 1566 1436 1567 1689 1686 1564 1687 1803
8 1568 1438 1569 1691 1688 1566 1689 1805
8 1569 1439 1570 1692 1689 1567 1690 1806
8 1571 1441 1572 1694 1691 1569 1692 1808
8 1442 1572 1692 1570 1573 1695 1809 1693
8 1574 1444 1575 1696 1694 1572 1695 1810
8 1614 1485 1592 1712 1699 1577 1697 1813
8 1579 1449 1577 1699 1701 1578 1698 1815
8 1615 1486 1614 1735 1702 1579 1699 1816
8 1701 1578 1700 1818 1581 1450 1580 1704
8 1582 1451 1579 1702 1705 1581 1701 1819
8 1704 1580 1703 1820 1584 1452 1583 1706
8 1705 1581 1704 1821 1585 1453 1584 1707
8 1707 1584 1706 1822 1587 1456 1586 1708
8 1710 1589 1506 1633 1824 1709 1632 1751
8 1594 1463 1589 1710 1716 1593 1709 1824
8 1752 1633 1710 1825 1634 1507 1590 1711
8 1595 1464 1590 1711 1717 1594 1710 1825
8 1830 1714 1592 1712 1733 1611 1485 1614
8 1603 1477 1593 1716 1725 1607 1715 1834
8 1599 1473 1594 1717 1721 1603 1716 1835
8 1837 1722 1623 1736 1718 1600 1496 1616
8 1719 1601 1722 1837 1597 1471 1600 1718
8 1602 1720 1598 1472 1723 1838 1719 1601
8 1720 1602 1473 1599 1839 1724 1603 1721
8 1723 1605 1726 1840 1601 1475 1604 1722
8 1840 1726 1628 1743 1722 1604 1501 1623
8 1724 1606 1727 1841 1602 1476 1605 1723
8 1725 1607 1728 1842 1603 1477 1606 1724
8 1612 1482 1608 1731 1733 1611 1730 1849
8 1741 1627 1730 1849 1622 1504 1608 1731
8 1613 1483 1609 1732 1734 1612 1731 1850
8 1618 1495 1622 1738 1732 1609 1731 1850
8 1615 1486 1612 1734 1735 1614 1733 1851
8 1852 1743 1626 1737 1736 1623 1499 1617
8 1853 1745 1625 1739 1737 1626 1500 1619
8 1855 1742 1622 1738 1740 1624 1497 1621
8 1856 1744 1624 1740 1739 1625 1498 1620
8 1741 1627 1504 1622 1857 1746 1631 1742
8 1742 1631 1505 1624 1858 1749 1630 1744
8 1859 1747 1629 1745 1743 1628 1502 1626
8 1860 1748 1630 1744 1745 1629 1503 1625
8 1644 1528 1651 1761 1751 1632 1750 1865
8 1637 1520 1644 1755 1752 1633 1751 1866
8 1754 1646 1522 1636 1867 1760 1643 1753
8 1657 1535 1658 1774 1753 1643 1760 1867
8 1639 1523 1646 1754 1756 1648 1763 1868
8 1641 1521 1645 1758 1755 1644 1761 1869
8 1757 1649 1526 1640 1870 1766 1648 1756
8 1642 1525 1649 1757 1759 1647 1765 1871
8 1759 1647 1762 1872 1642 1525 1645 1758
8 1760 1650 1767 1874 1646 1531 1655 1763
8 1658 1536 1659 1775 1760 1650 1767 1874
8 1762 1652 1768 1875 1645 1529 1651 1761
8 1764 1653 1769 1876 1647 1530 1652 1762
8 1656 1766 1877 1773 1532 1648 1763 1655
8 1771 1879 1765 1654 1653 1764 1647 1530
8 1533 1649 1765 1654 1656 1766 1880 1772
8 1662 1542 1664 1778 1774 1658 1775 1887
8 1664 1543 1665 1779 1775 1659 1776 1888
8 1778 1664 1541 1661 1890 1779 1663 1777
8 1666 1548 1668 1781 1777 1663 1779 1890
8 1782 1669 1780 1891 1668 1550 1665 1779
8 1670 1551 1671 1784 1781 1668 1782 1893
8 1671 1552 1672 1785 1782 1669 1783 1894
8 1790 1675 1785 1896 1674 1554 1671 1784
8 1675 1555 1673 1789 1785 1672 1786 1897
8 1792 1676 1788 1903 1678 1556 1673 1789
8 1795 1678 1789 1904 1681 1558 1675 1790
8 1792 1676 1556 1678 1906 1791 1677 1794
8 1680 1557 1679 1797 1794 1677 1793 1909
8 1910 1794 1678 1795 1798 1680 1558 1681
8 1683 1559 1682 1800 1797 1679 1796 1912
8 1684 1560 1683 1801 1798 1680 1797 1913
8 1686 1564 1687 1803 1800 1682 1799 1915
8 1685 1563 1686 1802 1801 1683 1800 1916
8 1688 1566 1689 1805 1802 1686 1803 1917
8 1689 1567 1690 1806 1803 1687 1804 1918
8 1691 1569 1692 1808 1805 1689 1806 1920
8 1692 1570 1693 1809 1806 1690 1807 1921
8 1694 1572 1695 1810 1808 1692 1809 1922
8 1829 1713 1811 1926 1712 1592 1697 1813
8 1813 1697 1812 1928 1699 1577 1698 1815
8 1735 1614 1712 1828 1816 1699 1813 1929
8 1815 1698 1814 1931 1701 1578 1700 1818
8 1702 1579 1699 1816 1819 1701 1815 1932
8 1818 1700 1817 1933 1704 1580 1703 1820
8 1819 1701 1818 1934 1705 1581 1704 1821
8 1821 1704 1820 1935 1707 1584 1706 1822
8 1824 1709 1632 1751 1937 1823 1750 1865
8 1716 1593 1709 1824 1834 1715 1823 1937
8 1825 1710 1633 1752 1938 1824 1751 1866
8 1717 1594 1710 1825 1835 1716 1824 1938
8 1945 1830 1712 1828 1851 1733 1614 1735
8 1830 1714 1831 1946 1712 1592 1713 1829
8 1947 1832 1714 1830 1849 1730 1611 1733
8 1843 1729 1607 1725 1950 1833 1715 1834
8 1721 1603 1716 1835 1836 1725 1834 1951
8 1836 1725 1842 1953 1721 1603 1724 1839
8 1723 1838 1719 1601 1840 1954 1837 1722
8 1954 1840 1743 1852 1837 1722 1623 1736
8 1724 1839 1720 1602 1841 1955 1838 1723
8 1841 1727 1844 1956 1723 1605 1726 1840
8 1956 1844 1747 1859 1840 1726 1628 1743
8 1728 1842 1724 1606 1845 1957 1841 1727
8 1725 1607 1729 1843 1842 1728 1846 1958
8 1741 1627 1746 1857 1849 1730 1848 1965
8 1734 1612 1731 1850 1851 1733 1849 1966
8 1854 1741 1849 1966 1738 1622 1731 1850
8 1967 1859 1745 1853 1852 1743 1626 1737
8 1968 1860 1744 1856 1853 1745 1625 1739
8 1854 1741 1622 1738 1969 1857 1742 1855
8 1855 1742 1624 1740 1970 1858 1744 1856
8 1857 1746 1631 1742 1971 1861 1749 1858
8 1858 1749 1630 1744 1972 1863 1748 1860
8 1859 1747 1862 1973 1745 1629 1748 1860
8 1875 1768 1864 1977 1761 1651 1750 1865
8 1755 1644 1761 1869 1866 1751 1865 1978
8 1867 1760 1874 1979 1754 1646 1763 1868
8 1774 1658 1775 1887 1867 1760 1874 1979
8 1870 1766 1648 1756 1980 1877 1763 1868
8 1872 1762 1875 1981 1758 1645 1761 1869
8 1757 1649 1766 1870 1871 1765 1880 1982
8 1983 1879 1764 1873 1871 1765 1647 1759
8 1873 1764 1876 1984 1759 1647 1762 1872
8 1877 1773 1655 1763 1986 1881 1767 1874
8 1775 1659 1776 1888 1874 1767 1881 1986
8 1876 1769 1882 1987 1762 1652 1768 1875
8 1878 1770 1883 1988 1764 1653 1769 1876
8 1880 1772 1656 1766 1989 1886 1773 1877
8 1878 1770 1653 1764 1990 1884 1771 1879
8 1765 1654 1772 1880 1879 1771 1885 1991
8 1778 1664 1779 1890 1887 1775 1888 1997
8 1998 1889 1776 1888 1891 1780 1665 1779
8 1893 1782 1891 2000 1781 1668 1779 1890
8 1894 1783 1892 2001 1782 1669 1780 1891
8 1784 1671 1785 1896 1893 1782 1894 2003
8 1897 1786 1895 2004 1785 1672 1783 1894
8 1790 1675 1789 1904 1896 1785 1897 2006
8 1901 1787 1898 2007 1789 1673 1786 1897
8 1903 1788 1900 2013 1789 1673 1787 1901
8 1792 1676 1791 1906 1903 1788 1902 2016
8 1907 1792 1903 2017 1795 1678 1789 1904
8 1906 1791 1677 1794 2019 1905 1793 1909
8 1907 1792 1678 1795 2020 1906 1794 1910
8 1797 1679 1796 1912 1909 1793 1908 2022
8 1798 1680 1797 1913 1910 1794 1909 2023
8 1800 1682 1799 1915 1912 1796 1911 2025
8 1801 1683 1800 1916 1913 1797 1912 2026
8 1803 1687 1804 1918 1915 1799 1914 2028
8 1802 1686 1803 1917 1916 1800 1915 2029
8 1805 1689 1806 1920 1917 1803 1918 2030
8 1806 1690 1807 1921 1918 1804 1919 2031
8 1808 1692 1809 1922 1920 1806 1921 2032
8 1939 1826 1924 2037 1829 1713 1811 1926
8 1926 1811 1925 2039 1813 1697 1812 1928
8 1944 1829 1926 2040 1828 1712 1813 1929
8 1928 1812 1927 2042 1815 1698 1814 1931
8 1929 1813 1928 2043 1816 1699 1815 1932
8 1931 1814 1930 2044 1818 1700 1817 1933
8 1932 1815 1931 2045 1819 1701 1818 1934
8 1934 1818 1933 2046 1821 1704 1820 1935
8 2048 1936 1823 1937 1977 1864 1750 1865
8 1950 1833 1715 1834 2048 1936 1823 1937
8 1938 1824 1751 1866 2049 1937 1865 1978
8 1835 1716 1824 1938 1951 1834 1937 2049
8 1939 1826 1713 1829 2053 1942 1831 1946
8 1940 1827 1923 2035 2053 1942 1826 1939
8 1945 1830 1946 2058 1828 1712 1829 1944
8 2059 1947 1830 1945 1966 1849 1733 1851
8 1947 1832 1730 1849 2060 1948 1848 1965
8 1947 1832 1948 2060 1830 1714 1831 1946
8 1959 1847 1729 1843 2063 1949 1833 1950
8 1952 1843 1725 1836 2064 1950 1834 1951
8 1836 1725 1843 1952 1953 1842 1958 2066
8 1953 1842 1957 2067 1839 1724 1841 1955
8 1841 1955 1838 1723 1956 2068 1954 1840
8 2068 1956 1859 1967 1954 1840 1743 1852
8 1956 1844 1960 2069 1859 1747 1862 1973
8 1845 1957 1841 1727 1960 2069 1956 1844
8 1728 1842 1957 1845 1846 1958 2071 1961
8 1962 2072 1959 1847 1846 1958 1843 1729
8 1971 1861 1964 2077 1857 1746 1848 1965
8 1854 1741 1857 1969 1966 1849 1965 2078
8 1967 1859 1973 2079 1853 1745 1860 1968
8 1970 1858 1744 1856 2080 1972 1860 1968
8 1969 1857 1742 1855 2081 1971 1858 1970
8 1971 1861 1749 1858 2082 1974 1863 1972
8 1973 1862 1975 2083 1860 1748 1863 1972
8 1987 1882 1976 2086 1875 1768 1864 1977
8 1981 1875 1977 2087 1869 1761 1865 1978
8 1980 1877 1763 1868 2088 1986 1874 1979
8 1887 1775 1888 1997 1979 1874 1986 2088
8 1880 1982 2089 1989 1766 1870 1980 1877
8 1984 1876 1987 2090 1872 1762 1875 1981
8 1765 1871 1983 1879 1880 1982 2091 1991
8 1985 1878 1764 1873 2092 1990 1879 1983
8 1985 1878 1988 2093 1873 1764 1876 1984
8 2094 1992 1881 1986 1998 1889 1776 1888
8 1986 1881 1992 2094 1877 1773 1886 1989
8 1988 1883 1993 2095 1876 1769 1882 1987
8 1878 1770 1884 1990 1988 1883 1994 2096
8 1991 1885 1772 1880 2097 1996 1886 1989
8 1879 1771 1885 1991 1990 1884 1995 2098
8 2103 1998 1888 1997 2000 1891 1779 1890
8 2104 1999 1889 1998 2001 1892 1780 1891
8 2003 1894 2001 2106 1893 1782 1891 2000
8 2004 1895 2002 2107 1894 1783 1892 2001
8 2006 1897 2004 2109 1896 1785 1894 2003
8 2007 1898 2005 2110 1897 1786 1895 2004
8 2014 1901 2007 2112 1904 1789 1897 2006
8 2011 1899 2008 2113 1901 1787 1898 2007
8 2119 2010 1899 2011 2013 1900 1787 1901
8 2016 1902 2012 2122 1903 1788 1900 2013
8 2017 1903 2013 2123 1904 1789 1901 2014
8 1906 1791 1905 2019 2016 1902 2015 2125
8 1907 1792 1906 2020 2017 1903 2016 2126
8 1909 1793 1908 2022 2019 1905 2018 2128
8 2020 1906 1794 1910 2129 2019 1909 2023
8 1912 1796 1911 2025 2022 1908 2021 2131
8 1913 1797 1912 2026 2023 1909 2022 2132
8 1915 1799 1914 2028 2025 1911 2024 2134
8 1916 1800 1915 2029 2026 1912 2025 2135
8 1918 1804 1919 2031 2028 1914 2027 2136
8 1917 1803 1918 2030 2029 1915 2028 2137
8 1920 1806 1921 2032 2030 1918 2031 2138
8 1940 1827 1941 2054 2035 1923 2033 2140
8 2035 1923 2034 2143 1939 1826 1924 2037
8 2037 1924 2036 2146 1926 1811 1925 2039
8 2051 1939 2037 2147 1944 1829 1926 2040
8 2039 1925 2038 2149 1928 1812 1927 2042
8 2040 1926 2039 2150 1929 1813 1928 2043
8 2042 1927 2041 2151 1931 1814 1930 2044
8 2043 1928 2042 2152 1932 1815 1931 2045
8 2045 1931 2044 2153 1934 1818 1933 2046
8 2155 2047 1936 2048 2086 1976 1864 1977
8 2063 1949 1833 1950 2155 2047 1936 2048
8 2156 2048 1937 2049 2087 1977 1865 1978
8 2064 1950 1834 1951 2156 2048 1937 2049
8 2051 1939 1829 1944 2160 2053 1946 2058
8 2052 1940 2035 2144 2160 2053 1939 2051
8 2053 1942 1831 1946 2163 2057 1948 2060
8 2055 1943 1827 1940 2163 2057 1942 2053
8 2055 1943 2056 2164 1940 1827 1941 2054
8 2059 1947 1849 1966 2167 2060 1965 2078
8 2059 1947 2060 2167 1945 1830 1946 2058
8 2077 1964 2061 2168 1965 1848 1948 2060
8 2070 1963 1847 1959 2170 2062 1949 2063
8 2065 1959 1843 1952 2171 2063 1950 2064
8 2173 2072 1958 2066 2065 1959 1843 1952
8 1953 1842 1958 2066 2067 1957 2071 2174
8 2068 1956 2069 2175 1967 1859 1973 2079
8 2067 1957 2069 2175 1955 1841 1956 2068
8 1845 1957 2069 1960 1961 2071 2176 2073
8 2069 1960 2073 2176 1973 1862 1975 2083
8 2070 1963 2075 2177 1959 1847 1962 2072
8 1846 1958 2071 1961 1962 2072 2178 2074
8 2077 1964 1861 1971 2182 2076 1974 2082
8 2081 1971 2077 2183 1969 1857 1965 2078
8 2079 1973 2083 2184 1968 1860 1972 2080
8 2081 1971 1858 1970 2185 2082 1972 2080
8 2083 1975 2084 2186 1972 1863 1974 2082
8 2086 1976 1882 1987 2189 2085 1993 2095
8 2090 1987 2086 2190 1981 1875 1977 2087
8 2191 2094 1986 2088 2103 1998 1888 1997
8 2088 1986 2094 2191 1980 1877 1989 2089
8 1991 2091 2192 2097 1880 1982 2089 1989
8 2093 1988 2095 2193 1984 1876 1987 2090
8 1879 1983 2092 1990 1991 2091 2194 2098
8 1985 1878 1990 2092 2093 1988 2096 2195
8 2097 1996 1886 1989 2196 2099 1992 2094
8 2196 2099 1992 2094 2104 1999 1889 1998
8 1994 2096 1988 1883 2100 2197 2095 1993
8 2096 1994 1884 1990 2198 2101 1995 2098
8 1995 2098 2199 2102 1885 1991 2097 1996
8 2203 2104 1998 2103 2106 2001 1891 2000
8 2107 2002 2105 2204 2001 1892 1999 2104
8 2109 2004 2107 2206 2003 1894 2001 2106
8 2110 2005 2108 2207 2004 1895 2002 2107
8 2112 2007 2110 2209 2006 1897 2004 2109
8 2113 2008 2111 2210 2007 1898 2005 2110
8 2120 2011 2113 2212 2014 1901 2007 2112
8 2117 2009 2114 2213 2011 1899 2008 2113
8 2219 2116 2009 2117 2119 2010 1899 2011
8 2222 2118 2010 2119 2122 2012 1900 2013
8 2223 2119 2011 2120 2123 2013 1901 2014
8 2016 1902 2015 2125 2122 2012 2121 2225
8 2126 2016 2122 2226 2017 1903 2013 2123
8 2019 1905 2018 2128 2125 2015 2124 2228
8 2020 1906 2019 2129 2126 2016 2125 2229
8 2022 1908 2021 2131 2128 2018 2127 2231
8 2023 1909 2022 2132 2129 2019 2128 2232
8 2025 1911 2024 2134 2131 2021 2130 2234
8 2026 1912 2025 2135 2132 2022 2131 2235
8 1914 2028 2134 2024 2027 2136 2236 2133
8 2029 1915 2028 2137 2135 2025 2134 2237
8 2030 1918 2031 2138 2137 2028 2136 2238
8 2157 2050 2139 2240 2054 1941 2033 2140
8 2052 1940 2054 2161 2144 2035 2140 2242
8 2140 2033 2141 2243 2035 1923 2034 2143
8 2143 2034 2142 2246 2037 1924 2036 2146
8 2144 2035 2143 2247 2051 1939 2037 2147
8 2146 2036 2145 2249 2039 1925 2038 2149
8 2147 2037 2146 2250 2040 1926 2039 2150
8 2149 2038 2148 2251 2042 1927 2041 2151
8 2150 2039 2149 2252 2043 1928 2042 2152
8 2152 2042 2151 2253 2045 1931 2044 2153
8 2255 2154 2047 2155 2189 2085 1976 2086
8 2170 2062 1949 2063 2255 2154 2047 2155
8 2256 2155 2048 2156 2190 2086 1977 2087
8 2171 2063 1950 2064 2256 2155 2048 2156
8 2258 2159 2050 2157 2164 2056 1941 2054
8 2160 2053 1946 2058 2262 2163 2060 2167
8 2162 2055 1940 2052 2262 2163 2053 2160
8 2162 2055 2164 2263 2052 1940 2054 2161
8 2163 2057 1948 2060 2264 2165 2061 2168
8 2055 1943 2057 2163 2164 2056 2165 2264
8 2182 2076 2166 2268 2077 1964 2061 2168
8 2183 2077 2168 2269 2078 1965 2060 2167
8 2070 1963 2062 2170 2177 2075 2169 2271
8 2172 2070 1959 2065 2272 2170 2063 2171
8 2172 2070 2177 2273 2065 1959 2072 2173
8 2066 1958 2072 2173 2174 2071 2178 2274
8 2067 1957 2071 2174 2175 2069 2176 2275
8 2175 2069 2176 2275 2079 1973 2083 2184
8 2071 1961 2074 2178 2176 2073 2179 2276
8 2176 2073 2179 2276 2083 1975 2084 2186
8 2072 1962 2075 2177 2178 2074 2180 2277
8 2182 2076 1974 2082 2280 2181 2084 2186
8 2183 2077 1971 2081 2281 2182 2082 2185
8 2184 2083 2186 2282 2080 1972 2082 2185
8 2189 2085 1993 2095 2285 2188 2100 2197
8 2190 2086 1987 2090 2286 2189 2095 2193
8 2192 2097 1989 2089 2287 2196 2094 2191
8 2287 2196 2094 2191 2203 2104 1998 2103
8 2194 2098 1991 2091 2288 2199 2097 2192
8 2195 2096 2197 2289 2093 1988 2095 2193
8 2096 2195 2290 2198 1990 2092 2194 2098
8 2097 1996 2099 2196 2199 2102 2200 2291
8 2196 2099 1999 2104 2291 2200 2105 2204
8 2100 2197 2292 2201 1994 2096 2198 2101
8 1995 2098 2198 2101 2102 2199 2293 2202
8 2206 2107 2204 2296 2106 2001 2104 2203
8 2207 2108 2205 2297 2107 2002 2105 2204
8 2209 2110 2207 2299 2109 2004 2107 2206
8 2210 2111 2208 2300 2110 2005 2108 2207
8 2212 2113 2210 2302 2112 2007 2110 2209
8 2213 2114 2211 2303 2113 2008 2111 2210
8 2220 2117 2213 2305 2120 2011 2113 2212
8 2216 2115 2214 2306 2117 2009 2114 2213
8 2216 2115 2009 2117 2311 2217 2116 2219
8 2219 2116 2010 2119 2314 2218 2118 2222
8 2315 2219 2117 2220 2223 2119 2011 2120
8 2122 2012 2121 2225 2222 2118 2221 2317
8 2318 2222 2119 2223 2226 2122 2013 2123
8 2125 2015 2124 2228 2225 2121 2224 2320
8 2126 2016 2125 2229 2226 2122 2225 2321
8 2128 2018 2127 2231 2228 2124 2227 2323
8 2129 2019 2128 2232 2229 2125 2228 2324
8 2131 2021 2130 2234 2231 2127 2230 2326
8 2132 2022 2131 2235 2232 2128 2231 2327
8 2134 2024 2133 2236 2234 2130 2233 2328
8 2135 2025 2134 2237 2235 2131 2234 2329
8 2137 2028 2136 2238 2237 2134 2236 2330
8 2157 2050 2158 2259 2240 2139 2239 2332
8 2257 2157 2240 2334 2161 2054 2140 2242
8 2240 2139 2241 2335 2140 2033 2141 2243
8 2242 2140 2243 2337 2144 2035 2143 2247
8 2243 2141 2244 2338 2143 2034 2142 2246
8 2246 2142 2245 2341 2146 2036 2145 2249
8 2247 2143 2246 2342 2147 2037 2146 2250
8 2249 2145 2248 2343 2149 2038 2148 2251
8 2250 2146 2249 2344 2150 2039 2149 2252
8 2252 2149 2251 2345 2152 2042 2151 2253
8 2169 2271 2347 2254 2062 2170 2255 2154
8 2189 2085 2188 2285 2255 2154 2254 2347
8 2348 2255 2155 2256 2286 2189 2086 2190
8 2272 2170 2063 2171 2348 2255 2155 2256
8 2349 2258 2157 2257 2263 2164 2054 2161
8 2258 2159 2261 2351 2157 2050 2158 2259
8 2258 2159 2056 2164 2351 2261 2165 2264
8 2262 2163 2060 2167 2355 2264 2168 2269
8 2162 2055 2163 2262 2263 2164 2264 2355
8 2357 2266 2165 2264 2268 2166 2061 2168
8 2268 2166 2076 2182 2361 2267 2181 2280
8 2281 2182 2268 2362 2183 2077 2168 2269
8 2271 2169 2270 2364 2177 2075 2180 2277
8 2172 2070 2170 2272 2273 2177 2271 2365
8 2072 2173 2274 2178 2177 2273 2366 2277
8 2071 2174 2275 2176 2178 2274 2367 2276
8 2275 2176 2276 2367 2184 2083 2186 2282
8 2283 2187 2084 2186 2368 2278 2179 2276
8 2178 2074 2180 2277 2276 2179 2278 2368
8 2283 2187 2279 2370 2186 2084 2181 2280
8 2281 2182 2082 2185 2371 2280 2186 2282
8 2188 2285 2374 2284 2100 2197 2292 2201
8 2286 2189 2095 2193 2375 2285 2197 2289
8 2192 2097 2196 2287 2288 2199 2291 2376
8 2287 2196 2104 2203 2376 2291 2204 2296
8 2194 2098 2199 2288 2290 2198 2293 2377
8 2289 2197 2096 2195 2378 2292 2198 2290
8 2291 2200 2105 2204 2379 2294 2205 2297
8 2199 2102 2200 2291 2293 2202 2294 2379
8 2198 2101 2202 2293 2292 2201 2295 2380
8 2299 2207 2297 2383 2206 2107 2204 2296
8 2300 2208 2298 2384 2207 2108 2205 2297
8 2302 2210 2300 2386 2209 2110 2207 2299
8 2303 2211 2301 2387 2210 2111 2208 2300
8 2305 2213 2303 2389 2212 2113 2210 2302
8 2306 2214 2304 2390 2213 2114 2211 2303
8 2310 2216 2306 2392 2220 2117 2213 2305
8 2308 2215 2307 2393 2216 2115 2214 2306
8 2308 2215 2115 2216 2396 2309 2217 2311
8 2310 2216 2117 2220 2398 2311 2219 2315
8 2311 2217 2116 2219 2399 2312 2218 2314
8 2314 2218 2118 2222 2402 2313 2221 2317
8 2315 2219 2119 2223 2403 2314 2222 2318
8 2225 2121 2224 2320 2317 2221 2316 2405
8 2226 2122 2225 2321 2318 2222 2317 2406
8 2228 2124 2227 2323 2320 2224 2319 2408
8 2229 2125 2228 2324 2321 2225 2320 2409
8 2231 2127 2230 2326 2323 2227 2322 2411
8 2232 2128 2231 2327 2324 2228 2323 2412
8 2234 2130 2233 2328 2326 2230 2325 2413
8 2235 2131 2234 2329 2327 2231 2326 2414
8 2237 2134 2236 2330 2329 2234 2328 2415
8 2259 2158 2260 2352 2332 2239 2331 2417
8 2257 2157 2259 2350 2334 2240 2332 2419
8 2240 2139 2239 2332 2335 2241 2333 2420
8 2334 2240 2335 2422 2242 2140 2243 2337
8 2335 2241 2336 2423 2243 2141 2244 2338
8 2337 2243 2338 2425 2247 2143 2246 2342
8 2338 2244 2339 2426 2246 2142 2245 2341
8 2341 2245 2340 2428 2249 2145 2248 2343
8 2342 2246 2341 2429 2250 2146 2249 2344
8 2344 2249 2343 2430 2252 2149 2251 2345
8 2188 2285 2347 2254 2284 2374 2432 2346
8 2347 2254 2346 2432 2271 2169 2270 2364
8 2365 2271 2170 2272 2433 2347 2255 2348
8 2286 2189 2285 2375 2348 2255 2347 2433
8 2349 2258 2351 2435 2257 2157 2259 2350
8 2349 2258 2164 2263 2435 2351 2264 2355
8 2259 2158 2261 2351 2352 2260 2354 2437
8 2356 2265 2354 2437 2264 2165 2261 2351
8 2441 2357 2264 2355 2362 2268 2168 2269
8 2356 2265 2165 2264 2442 2358 2266 2357
8 2443 2359 2266 2357 2361 2267 2166 2268
8 2370 2279 2360 2446 2280 2181 2267 2361
8 2362 2268 2182 2281 2447 2361 2280 2371
8 2180 2277 2368 2278 2270 2364 2449 2363
8 2271 2365 2273 2177 2364 2450 2366 2277
8 2372 2283 2186 2282 2451 2368 2276 2367
8 2178 2274 2367 2276 2277 2366 2451 2368
8 2283 2187 2278 2368 2370 2279 2369 2452
8 2372 2283 2370 2453 2282 2186 2280 2371
8 2284 2374 2455 2373 2201 2292 2380 2295
8 2375 2285 2197 2289 2456 2374 2292 2378
8 2376 2291 2204 2296 2457 2379 2297 2383
8 2288 2199 2291 2376 2377 2293 2379 2457
8 2198 2290 2378 2292 2293 2377 2458 2380
8 2293 2202 2294 2379 2380 2295 2381 2459
8 2384 2298 2381 2459 2297 2205 2294 2379
8 2386 2300 2384 2463 2299 2207 2297 2383
8 2387 2301 2385 2464 2300 2208 2298 2384
8 2389 2303 2387 2466 2302 2210 2300 2386
8 2390 2304 2388 2467 2303 2211 2301 2387
8 2392 2306 2390 2469 2305 2213 2303 2389
8 2393 2307 2391 2470 2306 2214 2304 2390
8 2395 2308 2393 2472 2310 2216 2306 2392
8 2308 2215 2309 2396 2393 2307 2394 2473
8 2395 2308 2216 2310 2475 2396 2311 2398
8 2396 2309 2217 2311 2476 2397 2312 2399
8 2398 2311 2219 2315 2478 2399 2314 2403
8 2399 2312 2218 2314 2479 2400 2313 2402
8 2317 2221 2316 2405 2402 2313 2401 2482
8 2403 2314 2222 2318 2483 2402 2317 2406
8 2320 2224 2319 2408 2405 2316 2404 2485
8 2321 2225 2320 2409 2406 2317 2405 2486
8 2323 2227 2322 2411 2408 2319 2407 2488
8 2324 2228 2323 2412 2409 2320 2408 2489
8 2326 2230 2325 2413 2411 2322 2410 2490
8 2327 2231 2326 2414 2412 2323 2411 2491
8 2329 2234 2328 2415 2414 2326 2413 2492
8 2417 2331 2260 2352 2494 2416 2353 2438
8 2350 2259 2352 2436 2419 2332 2417 2496
8 2332 2239 2331 2417 2420 2333 2418 2497
8 2334 2240 2332 2419 2422 2335 2420 2499
8 2420 2333 2421 2500 2335 2241 2336 2423
8 2422 2335 2423 2502 2337 2243 2338 2425
8 2423 2336 2424 2503 2338 2244 2339 2426
8 2425 2338 2426 2505 2342 2246 2341 2429
8 2426 2339 2427 2506 2341 2245 2340 2428
8 2429 2341 2428 2507 2344 2249 2343 2430
8 2432 2346 2284 2374 2509 2431 2373 2455
8 2432 2346 2431 2509 2364 2270 2363 2449
8 2375 2285 2374 2456 2433 2347 2432 2510
8 2347 2433 2365 2271 2432 2510 2450 2364
8 2350 2259 2351 2435 2436 2352 2437 2514
8 2440 2356 2437 2514 2355 2264 2351 2435
8 2352 2260 2354 2437 2438 2353 2439 2516
8 2356 2265 2358 2442 2437 2354 2439 2516
8 2440 2356 2264 2355 2518 2442 2357 2441
8 2519 2443 2357 2441 2447 2361 2268 2362
8 2443 2359 2444 2520 2357 2266 2358 2442
8 2443 2359 2267 2361 2520 2444 2360 2446
8 2446 2360 2279 2370 2523 2445 2369 2452
8 2453 2370 2446 2524 2371 2280 2361 2447
8 2449 2363 2448 2525 2368 2278 2369 2452
8 2366 2277 2364 2450 2451 2368 2449 2526
8 2372 2283 2368 2451 2453 2370 2452 2527
8 2455 2373 2295 2380 2529 2454 2382 2460
8 2456 2374 2292 2378 2530 2455 2380 2458
8 2377 2293 2379 2457 2458 2380 2459 2531
8 2463 2384 2459 2531 2383 2297 2379 2457
8 2533 2461 2382 2460 2459 2381 2295 2380
8 2464 2385 2461 2533 2384 2298 2381 2459
8 2466 2387 2464 2537 2386 2300 2384 2463
8 2467 2388 2465 2538 2387 2301 2385 2464
8 2469 2390 2467 2540 2389 2303 2387 2466
8 2470 2391 2468 2541 2390 2304 2388 2467
8 2472 2393 2470 2543 2392 2306 2390 2469
8 2393 2307 2394 2473 2470 2391 2471 2544
8 2395 2308 2396 2475 2472 2393 2473 2546
8 2396 2309 2397 2476 2473 2394 2474 2547
8 2475 2396 2311 2398 2549 2476 2399 2478
8 2476 2397 2312 2399 2550 2477 2400 2479
8 2478 2399 2314 2403 2552 2479 2402 2483
8 2479 2400 2313 2402 2553 2480 2401 2482
8 2405 2316 2404 2485 2482 2401 2481 2556
8 2406 2317 2405 2486 2483 2402 2482 2557
8 2408 2319 2407 2488 2485 2404 2484 2559
8 2409 2320 2408 2489 2486 2405 2485 2560
8 2411 2322 2410 2490 2488 2407 2487 2561
8 2412 2323 2411 2491 2489 2408 2488 2562
8 2414 2326 2413 2492 2491 2411 2490 2563
8 2513 2434 2493 2565 2438 2353 2416 2494
8 2496 2417 2352 2436 2567 2494 2438 2515
8 2494 2416 2495 2568 2417 2331 2418 2497
8 2419 2332 2417 2496 2499 2420 2497 2570
8 2497 2418 2498 2571 2420 2333 2421 2500
8 2499 2420 2500 2573 2422 2335 2423 2502
8 2500 2421 2501 2574 2423 2336 2424 2503
8 2502 2423 2503 2576 2425 2338 2426 2505
8 2503 2424 2504 2577 2426 2339 2427 2506
8 2505 2426 2506 2578 2429 2341 2428 2507
8 2509 2431 2373 2455 2580 2508 2454 2529
8 2509 2431 2508 2580 2449 2363 2448 2525
8 2432 2510 2581 2509 2374 2456 2530 2455
8 2432 2510 2450 2364 2509 2581 2526 2449
8 2583 2511 2434 2513 2516 2439 2353 2438
8 2436 2352 2437 2514 2515 2438 2516 2588
8 2440 2356 2442 2518 2514 2437 2516 2588
8 2442 2358 2444 2520 2516 2439 2517 2589
8 2519 2443 2520 2591 2441 2357 2442 2518
8 2519 2443 2361 2447 2591 2520 2446 2524
8 2446 2360 2445 2523 2520 2444 2521 2592
8 2525 2448 2522 2593 2452 2369 2445 2523
8 2524 2446 2370 2453 2594 2523 2452 2527
8 2526 2449 2525 2595 2451 2368 2452 2527
8 2534 2462 2528 2597 2460 2382 2454 2529
8 2530 2455 2380 2458 2598 2529 2460 2532
8 2599 2533 2460 2532 2531 2459 2380 2458
8 2537 2464 2533 2599 2463 2384 2459 2531
8 2534 2462 2382 2460 2601 2535 2461 2533
8 2538 2465 2535 2601 2464 2385 2461 2533
8 2540 2467 2538 2604 2466 2387 2464 2537
8 2541 2468 2539 2605 2467 2388 2465 2538
8 2543 2470 2541 2607 2469 2390 2467 2540
8 2470 2391 2471 2544 2541 2468 2542 2608
8 2472 2393 2473 2546 2543 2470 2544 2610
8 2473 2394 2474 2547 2544 2471 2545 2611
8 2475 2396 2476 2549 2546 2473 2547 2613
8 2476 2397 2477 2550 2547 2474 2548 2614
8 2549 2476 2399 2478 2616 2550 2479 2552
8 2479 2400 2480 2553 2550 2477 2551 2617
8 2552 2479 2402 2483 2619 2553 2482 2557
8 2482 2401 2481 2556 2553 2480 2554 2620
8 2485 2404 2484 2559 2556 2481 2555 2623
8 2486 2405 2485 2560 2557 2482 2556 2624
8 2488 2407 2487 2561 2559 2484 2558 2625
8 2489 2408 2488 2562 2560 2485 2559 2626
8 2491 2411 2490 2563 2562 2488 2561 2627
8 2513 2434 2512 2585 2565 2493 2564 2630
8 2586 2513 2565 2632 2515 2438 2494 2567
8 2565 2493 2566 2633 2494 2416 2495 2568
8 2567 2494 2568 2635 2496 2417 2497 2570
8 2568 2495 2569 2636 2497 2418 2498 2571
8 2570 2497 2571 2638 2499 2420 2500 2573
8 2571 2498 2572 2639 2500 2421 2501 2574
8 2573 2500 2574 2641 2502 2423 2503 2576
8 2574 2501 2575 2642 2503 2424 2504 2577
8 2576 2503 2577 2643 2505 2426 2506 2578
8 2597 2528 2579 2645 2529 2454 2508 2580
8 2580 2508 2579 2645 2525 2448 2522 2593
8 2581 2509 2455 2530 2646 2580 2529 2598
8 2581 2509 2580 2646 2526 2449 2525 2595
8 2583 2511 2582 2648 2513 2434 2512 2585
8 2583 2511 2439 2516 2648 2582 2517 2589
8 2649 2583 2513 2586 2588 2516 2438 2515
8 2589 2517 2444 2520 2653 2587 2521 2592
8 2518 2442 2520 2591 2588 2516 2589 2654
8 2593 2522 2590 2655 2523 2445 2521 2592
8 2524 2446 2523 2594 2591 2520 2592 2656
8 2595 2525 2593 2657 2527 2452 2523 2594
8 2602 2536 2596 2659 2534 2462 2528 2597
8 2600 2534 2597 2660 2532 2460 2529 2598
8 2600 2534 2460 2532 2661 2601 2533 2599
8 2604 2538 2601 2661 2537 2464 2533 2599
8 2602 2536 2462 2534 2663 2603 2535 2601
8 2601 2535 2465 2538 2663 2603 2539 2605
8 2607 2541 2605 2665 2540 2467 2538 2604
8 2608 2542 2606 2666 2541 2468 2539 2605
8 2543 2470 2544 2610 2607 2541 2608 2668
8 2544 2471 2545 2611 2608 2542 2609 2669
8 2546 2473 2547 2613 2610 2544 2611 2671
8 2547 2474 2548 2614 2611 2545 2612 2672
8 2549 2476 2550 2616 2613 2547 2614 2674
8 2550 2477 2551 2617 2614 2548 2615 2675
8 2552 2479 2553 2619 2616 2550 2617 2677
8 2553 2480 2554 2620 2617 2551 2618 2678
8 2557 2482 2556 2624 2619 2553 2620 2680
8 2556 2481 2555 2623 2620 2554 2621 2681
8 2559 2484 2558 2625 2623 2555 2622 2683
8 2560 2485 2559 2626 2624 2556 2623 2684
8 2562 2488 2561 2627 2626 2559 2625 2685
8 2690 2629 2564 2630 2650 2584 2512 2585
8 2586 2513 2585 2651 2632 2565 2630 2691
8 2630 2564 2631 2692 2565 2493 2566 2633
8 2632 2565 2633 2694 2567 2494 2568 2635
8 2633 2566 2634 2695 2568 2495 2569 2636
8 2635 2568 2636 2697 2570 2497 2571 2638
8 2636 2569 2637 2698 2571 2498 2572 2639
8 2638 2571 2639 2700 2573 2500 2574 2641
8 2639 2572 2640 2701 2574 2501 2575 2642
8 2641 2574 2642 2702 2576 2503 2577 2643
8 2597 2528 2596 2659 2645 2579 2644 2704
8 2645 2579 2644 2704 2593 2522 2590 2655
8 2660 2597 2645 2705 2598 2529 2580 2646
8 2646 2580 2645 2705 2595 2525 2593 2657
8 2650 2584 2512 2585 2707 2647 2582 2648
8 2648 2582 2517 2589 2707 2647 2587 2653
8 2649 2583 2648 2708 2586 2513 2585 2651
8 2649 2583 2516 2588 2708 2648 2589 2654
8 2655 2590 2652 2710 2592 2521 2587 2653
8 2654 2589 2520 2591 2711 2653 2592 2656
8 2657 2593 2655 2712 2594 2523 2592 2656
8 2602 2536 2603 2663 2659 2596 2658 2714
8 2662 2602 2659 2715 2600 2534 2597 2660
8 2662 2602 2534 2600 2717 2663 2601 2661
8 2661 2601 2538 2604 2717 2663 2605 2665
8 2666 2606 2664 2718 2605 2539 2603 2663
8 2668 2608 2666 2720 2607 2541 2605 2665
8 2608 2542 2609 2669 2666 2606 2667 2721
8 2610 2544 2611 2671 2668 2608 2669 2723
8 2611 2545 2612 2672 2669 2609 2670 2724
8 2613 2547 2614 2674 2671 2611 2672 2726
8 2614 2548 2615 2675 2672 2612 2673 2727
8 2616 2550 2617 2677 2674 2614 2675 2729
8 2617 2551 2618 2678 2675 2615 2676 2730
8 2619 2553 2620 2680 2677 2617 2678 2732
8 2620 2554 2621 2681 2678 2618 2679 2733
8 2624 2556 2623 2684 2680 2620 2681 2735
8 2681 2621 2555 2623 2736 2682 2622 2683
8 2626 2559 2625 2685 2684 2623 2683 2737
8 2688 2628 2584 2650 2740 2686 2647 2707
8 2688 2628 2687 2742 2650 2584 2629 2690
8 2690 2629 2689 2745 2630 2564 2631 2692
8 2746 2690 2630 2691 2709 2650 2585 2651
8 2691 2630 2692 2747 2632 2565 2633 2694
8 2692 2631 2693 2748 2633 2566 2634 2695
8 2694 2633 2695 2750 2635 2568 2636 2697
8 2695 2634 2696 2751 2636 2569 2637 2698
8 2697 2636 2698 2753 2638 2571 2639 2700
8 2698 2637 2699 2754 2639 2572 2640 2701
8 2700 2639 2701 2755 2641 2574 2642 2702
8 2659 2596 2658 2714 2704 2644 2703 2757
8 2704 2644 2703 2757 2655 2590 2652 2710
8 2660 2597 2659 2715 2705 2645 2704 2758
8 2705 2645 2704 2758 2657 2593 2655 2712
8 2759 2706 2647 2707 2710 2652 2587 2653
8 2709 2650 2585 2651 2760 2707 2648 2708
8 2708 2648 2589 2654 2760 2707 2653 2711
8 2712 2655 2710 2761 2656 2592 2653 2711
8 2763 2713 2658 2714 2718 2664 2603 2663
8 2662 2602 2663 2717 2715 2659 2714 2764
8 2720 2666 2718 2767 2665 2605 2663 2717
8 2768 2719 2664 2718 2721 2667 2606 2666
8 2668 2608 2669 2723 2720 2666 2721 2770
8 2669 2609 2670 2724 2721 2667 2722 2771
8 2671 2611 2672 2726 2723 2669 2724 2773
8 2672 2612 2673 2727 2724 2670 2725 2774
8 2674 2614 2675 2729 2726 2672 2727 2776
8 2675 2615 2676 2730 2727 2673 2728 2777
8 2677 2617 2678 2732 2729 2675 2730 2779
8 2678 2618 2679 2733 2730 2676 2731 2780
8 2680 2620 2681 2735 2732 2678 2733 2782
8 2733 2679 2621 2681 2783 2734 2682 2736
8 2735 2681 2623 2684 2784 2736 2683 2737
8 2740 2686 2647 2707 2787 2738 2706 2759
8 2688 2628 2686 2740 2742 2687 2739 2789
8 2743 2688 2650 2709 2790 2740 2707 2760
8 2742 2687 2741 2792 2690 2629 2689 2745
8 2743 2688 2742 2793 2709 2650 2690 2746
8 2745 2689 2744 2795 2692 2631 2693 2748
8 2746 2690 2745 2796 2691 2630 2692 2747
8 2747 2692 2748 2797 2694 2633 2695 2750
8 2748 2693 2749 2798 2695 2634 2696 2751
8 2750 2695 2751 2800 2697 2636 2698 2753
8 2751 2696 2752 2801 2698 2637 2699 2754
8 2753 2698 2754 2802 2700 2639 2701 2755
8 2763 2713 2756 2804 2714 2658 2703 2757
8 2759 2706 2652 2710 2804 2756 2703 2757
8 2715 2659 2714 2764 2758 2704 2757 2805
8 2758 2704 2757 2805 2712 2655 2710 2761
8 2806 2759 2707 2760 2761 2710 2653 2711
8 2765 2716 2762 2808 2718 2664 2713 2763
8 2809 2763 2714 2764 2767 2718 2663 2717
8 2765 2716 2664 2718 2811 2766 2719 2768
8 2813 2768 2718 2767 2770 2721 2666 2720
8 2814 2769 2719 2768 2771 2722 2667 2721
8 2723 2669 2724 2773 2770 2721 2771 2816
8 2724 2670 2725 2774 2771 2722 2772 2817
8 2726 2672 2727 2776 2773 2724 2774 2819
8 2727 2673 2728 2777 2774 2725 2775 2820
8 2729 2675 2730 2779 2776 2727 2777 2822
8 2730 2676 2731 2780 2777 2728 2778 2823
8 2732 2678 2733 2782 2779 2730 2780 2825
8 2780 2731 2679 2733 2826 2781 2734 2783
8 2782 2733 2681 2735 2827 2783 2736 2784
8 2830 2785 2738 2787 2804 2756 2706 2759
8 2789 2739 2686 2740 2832 2786 2738 2787
8 2790 2740 2707 2760 2833 2787 2759 2806
8 2742 2687 2739 2789 2792 2741 2788 2835
8 2743 2688 2740 2790 2793 2742 2789 2836
8 2792 2741 2791 2838 2745 2689 2744 2795
8 2793 2742 2792 2839 2746 2690 2745 2796
8 2795 2744 2794 2841 2748 2693 2749 2798
8 2796 2745 2795 2842 2747 2692 2748 2797
8 2797 2748 2798 2843 2750 2695 2751 2800
8 2798 2749 2799 2844 2751 2696 2752 2801
8 2800 2751 2801 2845 2753 2698 2754 2802
8 2808 2762 2803 2847 2763 2713 2756 2804
8 2809 2763 2804 2848 2764 2714 2757 2805
8 2806 2759 2710 2761 2848 2804 2757 2805
8 2765 2716 2766 2811 2808 2762 2807 2850
8 2810 2765 2808 2851 2767 2718 2763 2809
8 2810 2765 2718 2767 2852 2811 2768 2813
8 2811 2766 2719 2768 2853 2812 2769 2814
8 2855 2814 2768 2813 2816 2771 2721 2770
8 2856 2815 2769 2814 2817 2772 2722 2771
8 2773 2724 2774 2819 2816 2771 2817 2858
8 2774 2725 2775 2820 2817 2772 2818 2859
8 2776 2727 2777 2822 2819 2774 2820 2861
8 2777 2728 2778 2823 2820 2775 2821 2862
8 2779 2730 2780 2825 2822 2777 2823 2864
8 2823 2778 2731 2780 2865 2824 2781 2826
8 2825 2780 2733 2782 2866 2826 2783 2827
8 2869 2828 2785 2830 2847 2803 2756 2804
8 2871 2829 2786 2832 2830 2785 2738 2787
8 2872 2830 2787 2833 2848 2804 2759 2806
8 2789 2739 2786 2832 2835 2788 2831 2874
8 2836 2789 2740 2790 2875 2832 2787 2833
8 2792 2741 2788 2835 2838 2791 2834 2877
8 2793 2742 2789 2836 2839 2792 2835 2878
8 2838 2791 2837 2880 2795 2744 2794 2841
8 2839 2792 2838 2881 2796 2745 2795 2842
8 2841 2794 2840 2882 2798 2749 2799 2844
8 2842 2795 2841 2883 2797 2748 2798 2843
8 2843 2798 2844 2884 2800 2751 2801 2845
8 2886 2846 2803 2847 2850 2807 2762 2808
8 2851 2808 2847 2887 2809 2763 2804 2848
8 2850 2807 2766 2811 2889 2849 2812 2853
8 2810 2765 2811 2852 2851 2808 2850 2890
8 2852 2811 2768 2813 2891 2853 2814 2855
8 2853 2812 2769 2814 2892 2854 2815 2856
8 2894 2856 2814 2855 2858 2817 2771 2816
8 2817 2772 2818 2859 2856 2815 2857 2895
8 2819 2774 2820 2861 2858 2817 2859 2897
8 2820 2775 2821 2862 2859 2818 2860 2898
8 2822 2777 2823 2864 2861 2820 2862 2900
8 2823 2778 2824 2865 2862 2821 2863 2901
8 2864 2823 2780 2825 2902 2865 2826 2866
8 2904 2867 2828 2869 2886 2846 2803 2847
8 2869 2828 2868 2906 2830 2785 2829 2871
8 2907 2869 2830 2872 2887 2847 2804 2848
8 2871 2829 2870 2909 2832 2786 2831 2874
8 2910 2871 2832 2875 2872 2830 2787 2833
8 2835 2788 2831 2874 2877 2834 2873 2912
8 2836 2789 2832 2875 2878 2835 2874 2913
8 2877 2834 2876 2915 2838 2791 2837 2880
8 2839 2792 2835 2878 2881 2838 2877 2916
8 2880 2837 2879 2917 2841 2794 2840 2882
8 2881 2838 2880 2918 2842 2795 2841 2883
8 2883 2841 2882 2919 2843 2798 2844 2884
8 2921 2885 2846 2886 2889 2849 2807 2850
8 2922 2886 2847 2887 2890 2850 2808 2851
8 2889 2849 2812 2853 2924 2888 2854 2892
8 2890 2850 2811 2852 2925 2889 2853 2891
8 2891 2853 2814 2855 2926 2892 2856 2894
8 2892 2854 2815 2856 2927 2893 2857 2895
8 2858 2817 2859 2897 2894 2856 2895 2929
8 2859 2818 2860 2898 2895 2857 2896 2930
8 2861 2820 2862 2900 2897 2859 2898 2932
8 2862 2821 2863 2901 2898 2860 2899 2933
8 2864 2823 2865 2902 2900 2862 2901 2934
8 2904 2867 2846 2886 2936 2903 2885 2921
8 2904 2867 2903 2936 2869 2828 2868 2906
8 2937 2904 2869 2907 2922 2886 2847 2887
8 2906 2868 2905 2939 2871 2829 2870 2909
8 2907 2869 2906 2940 2872 2830 2871 2910
8 2909 2870 2908 2942 2874 2831 2873 2912
8 2910 2871 2909 2943 2875 2832 2874 2913
8 2912 2873 2911 2945 2877 2834 2876 2915
8 2878 2835 2874 2913 2916 2877 2912 2946
8 2915 2876 2914 2947 2880 2837 2879 2917
8 2916 2877 2915 2948 2881 2838 2880 2918
8 2918 2880 2917 2949 2883 2841 2882 2919
8 2921 2885 2849 2889 2951 2920 2888 2924
8 2952 2921 2886 2922 2925 2889 2850 2890
8 2924 2888 2854 2892 2954 2923 2893 2927
8 2925 2889 2853 2891 2955 2924 2892 2926
8 2926 2892 2856 2894 2956 2927 2895 2929
8 2895 2857 2896 2930 2927 2893 2928 2957
8 2897 2859 2898 2932 2929 2895 2930 2959
8 2898 2860 2899 2933 2930 2896 2931 2960
8 2900 2862 2901 2934 2932 2898 2933 2961
8 2936 2903 2885 2921 2963 2935 2920 2951
8 2936 2903 2935 2963 2906 2868 2905 2939
8 2937 2904 2886 2922 2964 2936 2921 2952
8 2937 2904 2936 2964 2907 2869 2906 2940
8 2939 2905 2938 2966 2909 2870 2908 2942
8 2940 2906 2939 2967 2910 2871 2909 2943
8 2942 2908 2941 2969 2912 2873 2911 2945
8 2943 2909 2942 2970 2913 2874 2912 2946
8 2945 2911 2944 2971 2915 2876 2914 2947
8 2946 2912 2945 2972 2916 2877 2915 2948
8 2948 2915 2947 2973 2918 2880 2917 2949
8 2951 2920 2888 2924 2975 2950 2923 2954
8 2952 2921 2889 2925 2976 2951 2924 2955
8 2927 2893 2928 2957 2954 2923 2953 2978
8 2955 2924 2892 2926 2979 2954 2927 2956
8 2929 2895 2930 2959 2956 2927 2957 2980
8 2930 2896 2931 2960 2957 2928 2958 2981
8 2932 2898 2933 2961 2959 2930 2960 2982
8 2951 2920 2950 2975 2963 2935 2962 2984
8 2963 2935 2962 2984 2939 2905 2938 2966
8 2964 2936 2921 2952 2985 2963 2951 2976
8 2964 2936 2963 2985 2940 2906 2939 2967
8 2966 2938 2965 2987 2942 2908 2941 2969
8 2967 2939 2966 2988 2943 2909 2942 2970
8 2969 2941 2968 2989 2945 2911 2944 2971
8 2970 2942 2969 2990 2946 2912 2945 2972
8 2972 2945 2971 2991 2948 2915 2947 2973
8 2954 2923 2953 2978 2975 2950 2974 2993
8 2976 2951 2924 2955 2994 2975 2954 2979
8 2957 2928 2958 2981 2978 2953 2977 2995
8 2956 2927 2957 2980 2979 2954 2978 2996
8 2959 2930 2960 2982 2980 2957 2981 2997
8 2984 2962 2983 2999 2966 2938 2965 2987
8 2975 2950 2974 2993 2984 2962 2983 2999
8 2976 2951 2975 2994 2985 2963 2984 3000
8 2985 2963 2984 3000 2967 2939 2966 2988
8 2987 2965 2986 3001 2969 2941 2968 2989
8 2988 2966 2987 3002 2970 2942 2969 2990
8 2990 2969 2989 3003 2972 2945 2971 2991
8 2978 2953 2977 2995 2993 2974 2992 3004
8 2979 2954 2978 2996 2994 2975 2993 3005
8 2980 2957 2981 2997 2996 2978 2995 3006
8 2974 2993 2999 2983 2992 3004 3007 2998
8 2983 2999 2987 2965 2998 3007 3001 2986
8 3000 2984 2999 3008 2988 2966 2987 3002
8 2994 2975 2993 3005 3000 2984 2999 3008
8 3002 2987 3001 3009 2990 2969 2989 3003
8 2996 2978 2995 3006 3005 2993 3004 3010
8 3005 2993 3004 3010 3008 2999 3007 3011
8 3008 2999 3007 3011 3002 2987 3001 3009

CELL_TYPES 1910
12
12
12
12
12
12
12
12
12
12
12
12
12
12
12
12
12
12
12
12
12
12
12
12
12
12
12
12
12
12
12
12
12
12
12
12
12
12
12
12
12
12
12
12
12
12
12
12
12
12
12
12
12
12
12
12
12
12
12
12
12
12
12
12
12
12
12
12
12
12
12
12
12
12
12
12
12
12
12
12
12
12
12
12
12
12
12
12
12
12
12
12
12
12
12
12
12
12
12
12
12
12
12
12
12
12
12
12
12
12
12
12
12
12
12
12
12
12
12
12
12
12
12
12
12
12
12
12
12
12
12
12
12
12
12
12
12
12
12
12
12
12
12
12
12
12
12
12
12
12
12
12
12
12
12
12
12
12
12
12
12
12
12
12
12
12
12
12
12
12
12
12
12
12
12
12
12
12
12
12
12
12
12
12
12
12
12
12
12
12
12
12
12
12
12
12
12
12
12
12
12
12
12
12
12
12
12
12
12
12
12
12
12
12
12
12
12
12
12
12
12
12
12
12
12
12
12
12
12
12
12
12
12
12
12
12
12
12
12
12
12
12
12
12
12
12
12
12
12
12
12
12
12
12
12
12
12
12
12
12
12
12
12
12
12
12
12
12
12
12
12
12
12
12
12
12
12
12
12
12
12
12
12
12
12
12
12
12
12
12
12
12
12
12
12
12
12
12
12
12
12
12
12
12
12
12
12
12
12
12
12
12
12
12
12
12
12
12
12
12
12
12
12
12
12
12
12
12
12
12
12
12
12
12
12
12
12
12
12
12
12
12
12
12
12
12
12
12
12
12
12
12
12
12
12
12
12
12
12
12
12
12
12
12
12
12
12
12
12
12
12
12
12
12
12
12
12
12
12
12
12
12
12
12
12
12
12
12
12
12
12
12
12
12
12
12
12
12
12
12
12
12
12
12
12
12
12
12
12
12
12
12
12
12
12
12
12
12
12
12
12
12
12
12
12
12
12
12
12
12
12
12
12
12
12
12
12
12
12
12
12
12
12
12
12
12
12
12
12
12
12
12
12
12
12
12
12
12
12
12
12
12
12
12
12
12
12
12
12
12
12
12
12
12
12
12
12
12
12
12
12
12
12
12
12
12
12
12
12
12
12
12
12
12
12
12
12
12
12
12
12
12
12
12
12
12
12
12
12
12
12
12
12
12
12
12
12
12
12
12
12
12
12
12
12
12
12
12
12
12
12
12
12
12
12
12
12
12
12
12
12
12
12
12
12
12
12
12
12
12
12
12
12
12
12
12
12
12
12
12
12
12
12
12
12
12
12
12
12
12
12
12
12
12
12
12
12
12
12
12
12
12
12
12
12
12
12
12
12
12
12
12
12
12
12
12
12
12
12
12
12
12
12
12
12
12
12
12
12
12
12
12
12
12
12
12
12
12
12
12
12
12
12
12
12
12
12
12
12
12
12
12
12
12
12
12
12
12
12
12
12
12
12
12
12
12
12
12
12
12
12
12
12
12
12
12
12
12
12
12
12
12
12
12
12
12
12
12
12
12
12
12
12
12
12
12
12
12
12
12
12
12
12
12
12
12
12
12
12
12
12
12
12
12
12
12
12
12
12
12
12
12
12
12
12
12
12
12
12
12
12
12
12
12
12
12
12
12
12
12
12
12
12
12
12
12
12
12
12
12
12
12
12
12
12
12
12
12
12
12
12
12
12
12
12
12
12
12
12
12
12
12
12
12
12
12
12
12
12
12
12
12
12
12
12
12
12
12
12
12
12
12
12
12
12
12
12
12
12
12
12
12
12
12
12
12
12
12
12
12
12
12
12
12
12
12
12
12
12
12
12
12
12
12
12
12
12
12
12
12
12
12
12
12
12
12
12
12
12
12
12
12
12
12
12
12
12
12
12
12
12
12
12
12
12
12
12
12
12
12
12
12
12
12
12
12
12
12
12
12
12
12
12
12
12
12
12
12
12
12
12
12
12
12
12
12
12
12
12
12
12
12
12
12
12
12
12
12
12
12
12
12
12
12
12
12
12
12
12
12
12
12
12
12
12
12
12
12
12
12
12
12
12
12
12
12
12
12
12
12
12
12
12
12
12
12
12
12
12
12
12
12
12
12
12
12
12
12
12
12
12
12
12
12
12
12
12
12
12
12
12
12
12
12
12
12
12
12
12
12
12
12
12
12
12
12
12
12
12
12
12
12
12
12
12
12
12
12
12
12
12
12
12
12
12
12
12
12
12
12
12
12
12
12
12
12
12
12
12
12
12
12
12
12
12
12
12
12
12
12
12
12
12
12
12
12
12
12
12
12
12
12
12
12
12
12
12
12
12
12
12
12
12
12
12
12
12
12
12
12
12
12
12
12
12
12
12
12
12
12
12
12
12
12
12
12
12
12
12
12
12
12
12
12
12
12
12
12
12
12
12
12
12
12
12
12
12
12
12
12
12
12
12
12
12
12
12
12
12
12
12
12
12
12
12
12
12
12
12
12
12
12
12
12
12
12
12
12
12
12
12
12
12
12
12
12
12
12
12
12
12
12
12
12
12
12
12
12
12
12
12
12
12
12
12
12
12
12
12
12
12
12
12
12
12
12
12
12
12
12
12
12
12
12
12
12
12
12
12
12
12
12
12
12
12
12
12
12
12
12
12
12
12
12
12
12
12
12
12
12
12
12
12
12
12
12
12
12
12
12
12
12
12
12
12
12
12
12
12
12
12
12
12
12
12
12
12
12
12
12
12
12
12
12
12
12
12
12
12
12
12
12
12
12
12
12
12
12
12
12
12
12
12
12
12
12
12
12
12
12
12
12
12
12
12
12
12
12
12
12
12
12
12
12
12
12
12
12
12
12
12
12
12
12
12
12
12
12
12
12
12
12
12
12
12
12
12
12
12
12
12
12
12
12
12
12
12
12
12
12
12
12
12
12
12
12
12
12
12
12
12
12
12
12
12
12
12
12
12
12
12
12
12
12
12
12
12
12
12
12
12
12
12
12
12
12
12
12
12
12
12
12
12
12
12
12
12
12
12
12
12
12
12
12
12
12
12
12
12
12
12
12
12
12
12
12
12
12
12
12
12
12
12
12
12
12
12
12
12
12
12
12
12
12
12
12
12
12
12
12
12
12
12
12
12
12
12
12
12
12
12
12
12
12
12
12
12
12
12
12
12
12
12
12
12
12
12
12
12
12
12
12
12
12
12
12
12
12
12
12
12
12
12
12
12
12
12
12
12
12
12
12
12
12
12
12
12
12
12
12
12
12
12
12
12
12
12
12
12
12
12
12
12
12
12
12
12
12
12
12
12
12
12
12
12
12
12
12
12
12
12
12
12
12
12
12
12
12
12
12
12
12
12
12
12
12
12
12
12
12
12
12
12
12
12
12
12
12
12
12
12
12
12
12
12
12
12
12
12
12
12
12
12
12
12
12
12
12
12
12
12
12
12
12
12
12
12
12
12
12
12
12
12
12
12
12
12
12
12
12
12
12
12
12
12
12
12
12
12
12
12
12
12
12
12
12
12
12
12
12
12
12
12
12
12
12
12
12
12
12
12
12
12
12
12
12
12
12
12
12
12
12
12
12
12
12
12
12
12
12
12
12
12
12
12
12
12
12
12
12
12
12
12
12
12
12
12
12
12
12
12
12
12
12
12
12
12
12
12
12
12
12
12
12
12
12
12
12
12
12
12
12
12
12
12
12
12
12
12
12
12
12
12
12
12
12
12
12
12
12
12
12
12
12
12
12
12
12
12
12
12
12
12
12
12
12
12
12
12
12
12
12
12
12
12
12
12
12
12
12
12
12
12
12
12
12
12
12
12
12
12
12
12
12
12
12
12
12
12
12
12
12
12
12
12
12
12
12
12
12
12
12
12
12
12
12
12
12
12
12
12
12
12
12
12
12
12
12
12
12
12
12
12
12
12
12
12
12
12
12
12
12
12
12
12
12
12
12
12
12
12
12
12
12
12
12
12
12
12
12
12
12
12
12
12
12
12
12
12
12
12
12
12
12
12
12
12
12
12
12
12
12
12
12
12
12
12
12
12
12
12
12
12
12
12
12
12
12
12
12
12
12
12
12
12
12
12
12
12
12
12
12
12
12
12
12
12
12
12
12
12
12
12
12
12
12
12
12
12
12
12
12
12
12
12
12
12
12
12
12
12
12
12
12
12
12
12
12
12
12
12
12
12
12
12
12
12
12
12
12
12
12
12
12
12
12
12
12
12
12
12
12
12
12
12
12
12
12
12
12
12
12
12
12
12
12
12
12
12
12
12
12
12
12
12
12
12
12
12
12
12
12
12
12
12
12
12
12
12
12
12
12
12
12
12
12
12
12
12
12

POINT_DATA 3012
SCALARS Jp_lamdaP float 4
LOOKUP_TABLE default
0.999609 1 1 0.999609
1 1 1 1
0.999621 1 1 0.999621
0.999553 1 1 0.999553
0.999612 1 1 0.999612
0.999587 1 1 0.999587
1.00157 1.00288 1 0.998699
1 1 1 1
1 1 1 1
1 1 1 1
0.999683 1 1 0.999683
0.99918 1.00039 1 0.998786
0.999563 1 1 0.999563
0.999563 1 1 0.999563
0.999624 1 1 0.999624
0.999583 1 1 0.999583
0.999594 1 1 0.999594
0.999631 1 1 0.999631
1.00167 1.00297 1 0.9987
1 1 1 1
0.999537 1 1 0.999537
0.999587 1 1 0.999587
0.999368 1.00079 1 0.998581
1.00109 1.00242 1 0.99868
0.999585 1 1 0.999585
1.00056 1.00186 1 0.998707
1.02011 1.02284 1 0.997325
1 1 1 1
0.999798 1 1 0.999798
0.999811 1 1 0.999811
1 1 1 1
0.999168 1.00037 1 0.998795
0.999588 1 1 0.999588
0.999617 1 1 0.999617
1.00201 1.00315 1 0.998866
1 1 1 1
1.00068 1.00173 1 0.998944
0.998885 1 1 0.998885
1.01136 1.0141 1 0.997296
1 1 1 1
1 1 1 1
0.999783 1 1 0.999783
1 1 1 1
0.999574 1 1 0.999574
0.998514 1 1 0.998514
1 1 1 1
0.99908 1.00031 1 0.998771
0.999609 1 1 0.999609
0.999645 1 1 0.999645
0.999596 1 1 0.999596
1.00177 1.00307 1 0.998705
0.999767 1 1 0.999767
0.999564 1 1 0.999564
0.9996 1 1 0.9996
0.999614 1 1 0.999614
0.999183 1.00061 1 0.998576
1.00084 1.00214 1 0.99871
1.00107 1.0024 1 0.99868
1.02017 1.02292 1 0.997312
1 1 1 1
0.999543 1 1 0.999543
0.998817 1 1 0.998817
0.998639 1.00008 1 0.998557
1.00015 1.00152 1 0.998633
1.02246 1.02546 1 0.99708
1.0209 1.02378 1 0.997187
0.99965 1 1 0.99965
0.998807 1.00001 1 0.998802
1.01733 1.01998 1 0.997408
1.04037 1.04409 1 0.996435
1 1 1 1
1 1 1 1
1 1 1 1
0.999005 1.0002 1 0.998804
1 1 1 1
1 1 1 1
1.00173 1.00308 1 0.998658
0.999879 1 1 0.999879
0.999994 1.00124 1 0.998757
0.999088 1.00001 1.00006 0.999021
1.00998 1.01272 1 0.997292
1 1 1 1
1.00145 1 1.00177 0.999683
1.00127 1.0027 1 0.998576
1.00151 1.00282 1 0.99869
1.0246 1.02781 1 0.996878
0.999697 1 1.00039 0.999306
1.01598 1.01883 1 0.997195
1.00627 1.00883 1 0.997452
1.02343 1.02697 1 0.996546
1 1 1 1
1 1 1 1
1 1 1 1
1 1 1 1
1 1 1 1
0.999786 1 1 0.999786
0.998657 1 1 0.998657
0.999783 1 1 0.999783
0.999444 1.00078 1 0.998662
1 1 1 1
0.998537 1 1 0.998537
0.998772 1 1 0.998772
1.01938 1.02271 1 0.996739
1.00037 1.00157 1 0.998803
1.02542 1.02876 1 0.996752
0.999586 1 1 0.999586
0.999588 1 1 0.999588
0.99961 1 1 0.99961
0.999637 1 1 0.999637
0.99903 1.00046 1 0.998574
1.00107 1.00239 1 0.998683
1.00103 1.00232 1 0.998715
1.02021 1.02297 1 0.997299
1 1 1 1
0.999568 1 1 0.999568
0.998568 1 1 0.998568
0.998609 1.00006 1 0.99855
0.999827 1 1 0.999827
0.999137 1.00025 1 0.998884
1.00005 1.00142 1 0.998632
1.02258 1.02561 1 0.997048
1.01728 1.01994 1 0.997391
1.02131 1.02417 1 0.99721
1.0403 1.04401 1 0.996443
0.99856 1 1 0.99856
0.998561 1 1 0.998561
1.0187 1.02176 1 0.997005
1.02184 1.0249 1 0.997008
1.02211 1.02509 1 0.997095
1.05129 1.05506 1 0.996424
1 1 1 1
1.04401 1.04775 1 0.99643
0.999309 1 1.00032 0.998993
1.0106 1.01326 1 0.997371
1.03691 1.04062 1 0.996438
1.04555 1.04936 1 0.996367
1.00148 1 1.00211 0.999362
1.00657 1 1.00839 0.998191
1 1 1 1
1 1 1 1
1.00162 1.00296 1 0.998663
1 1 1 1
0.999197 1 1.00024 0.99896
0.999818 1.00106 1 0.998764
1.0091 1.01185 1 0.997289
1 1 1 1
1.00114 1 1.00143 0.999707
1.00156 1.00286 1 0.998706
1.00129 1.00248 1 0.998809
1.02398 1.02719 1 0.996878
0.99998 1 1.00076 0.999225
1.01556 1.01841 1 0.997197
1.00482 1.00735 1.00004 0.99745
1.02483 1.02839 1 0.996539
1.00115 1 1.00169 0.999457
1.00044 1 1.00061 0.999838
1.00397 1 1.00547 0.998507
1.02661 1.02992 1 0.996784
1.02113 1.02417 1 0.997034
1.04722 1.0511 1 0.996307
1.00227 1.00382 1.00071 0.997748
1.03329 1.0369 1 0.996526
1.0161 1.01895 1.00057 0.996628
1.03284 1.03657 1 0.996407
1 1 1 1
1 1 1 1
1 1 1 1
1.00158 1 1.00206 0.999524
1 1 1 1
1 1 1 1
1 1 1 1
0.999615 1.00106 1 0.998555
0.998549 1 1 0.998549
1 1 1 1
1 1 1 1
0.998538 1 1 0.998538
0.998708 1.00004 1 0.998664
1.02014 1.02348 1 0.996739
1.00049 1.00193 1 0.998565
1.02515 1.0285 1 0.996751
0.998537 1 1 0.998537
1.01795 1.02131 1 0.996713
1.02199 1.02532 1 0.996758
1.05633 1.06013 1 0.996415
1.02694 1.03029 1 0.996749
1.05805 1.06188 1 0.996391
1 1 1 1
0.999594 1 1 0.999594
0.998292 1 1 0.998292
0.998566 1.00002 1 0.998544
1 1 1 1
0.999665 1.0007 1 0.998968
0.999952 1.00132 1 0.998632
1.02272 1.02578 1 0.997016
1.02184 1.02468 1 0.997234
1.01712 1.0198 1 0.997375
1.04028 1.04399 1 0.996451
0.998557 1 1 0.998557
0.998554 1 1 0.998554
1.01863 1.02183 1 0.996871
1.022 1.02505 1 0.997025
1 1 1 1
0.999291 1.0001 1.00014 0.999055
1.01217 1.01475 1 0.997456
1.02239 1.02537 1 0.997089
1.05126 1.05504 1 0.99642
1.03663 1.04035 1 0.996433
1.04425 1.04795 1 0.996464
1.04513 1.04893 1 0.996376
1.00129 1 1.00194 0.99935
1.00532 1 1.00714 0.998193
1.0179 1.02124 1 0.996733
1.01969 1.02275 1 0.997015
1.05328 1.05702 1 0.996461
1.05205 1.05615 0.999692 0.996419
1.04819 1.05189 1 0.996489
1.05578 1.05996 0.999478 0.996576
1.00042 1 1.00125 0.999178
1.04848 1.05218 1 0.99648
1.00489 1.00723 1.00011 0.997564
1.03077 1.0344 1 0.996493
1.0428 1.04671 1 0.996271
1.04503 1.04859 1 0.99661
1.00325 1.00062 1.00471 0.997938
1.00614 1 1.00765 0.998501
1.00382 1.00088 1.00546 0.997492
1.00161 1.00301 1 0.998607
1 1 1 1
1.00047 1 1.00074 0.99973
1.00081 1.00209 1 0.998724
1.02345 1.02666 1 0.996878
1.00017 1 1.00094 0.999226
1.00322 1.00574 1.00004 0.997448
1.01452 1.01737 1 0.997199
1.02618 1.02976 1 0.996532
1.00117 1 1.00169 0.999479
1.00004 1 1.00018 0.999856
1.00495 1 1.00645 0.998506
1.02593 1.02924 1 0.996781
1.02049 1.02352 1 0.997037
1.04735 1.05123 1 0.996302
1.00095 1.00268 1.00052 0.997753
1.03425 1.03785 1 0.996528
1.01702 1.01998 1.00047 0.996621
1.03382 1.03754 1 0.996406
0.999918 1 1 0.999918
1.00224 1.00087 1.00328 0.998097
1.00364 1 1.00472 0.998929
1.00524 1.00084 1.00659 0.997816
1.05171 1.05562 1 0.996295
1.04144 1.0452 1 0.996408
1.0499 1.05381 1 0.996297
1.00897 1.01154 1.00049 0.996973
1.03761 1.04128 1 0.996472
1.02932 1.03149 1.00158 0.996322
1.04175 1.04556 1 0.996351
0.999602 1 1 0.999602
0.999978 1 1 0.999978
1 1 1 1
1 1 1 1
1 1 1 1
1.00085 1 1.00117 0.99968
1 1 1 1
1.00181 1 1.0023 0.999509
1 1 1 1
1.00084 1.00227 1 0.998566
0.998807 1.00025 1 0.998556
1.02522 1.02856 1 0.99675
1.0209 1.02424 1 0.99674
0.99854 1 1 0.99854
1 1 1 1
0.998536 1 1 0.998536
1.01828 1.02164 1 0.996713
1.02288 1.02621 1 0.996758
1.05538 1.05918 1 0.996413
1.02639 1.02974 1 0.996746
1.05775 1.06158 1 0.996388
1.01759 1.02095 1 0.996711
1.05405 1.05787 1 0.996393
1.05818 1.06199 1 0.996417
1.05852 1.06583 0.996393 0.99674
1.05607 1.05995 1 0.996341
1.06025 1.0651 0.998812 0.996633
0.998555 1 1 0.998555
0.998546 1 1 0.998546
1.01858 1.02192 1 0.996738
1.02212 1.02515 1 0.997043
1 1 1 1
0.999156 1.00004 1 0.999117
1.0136 1.0161 1 0.99754
1.02265 1.02565 1 0.997083
1.0512 1.05498 1 0.996416
1.04434 1.04801 1 0.996498
1.03654 1.04026 1 0.996429
1.04481 1.0486 1 0.996385
1.00129 1 1.00195 0.999338
1.00473 1.00008 1.00647 0.998195
1.01779 1.02113 1 0.99672
1.0198 1.02286 1 0.997009
1.05296 1.05689 0.999795 0.996487
1.05248 1.05644 0.99983 0.996419
1.00009 1 1.00092 0.999168
1.00654 1.0089 1.0001 0.997563
1.03005 1.03365 1 0.996522
1.04822 1.05193 1 0.996468
1.05528 1.0597 0.999208 0.996623
1.04261 1.04652 1 0.996257
1.04833 1.05203 1 0.996484
1.04512 1.04868 1 0.996605
1.00333 1.00097 1.00442 0.997939
1.00452 1.0011 1.00594 0.99749
1.00636 1 1.00787 0.9985
1.05258 1.05634 1 0.996437
1.05337 1.05742 0.999674 0.996494
1.05818 1.06423 0.997637 0.996672
1.05641 1.06178 0.998305 0.996632
1.05113 1.0552 0.999555 0.996587
1.04881 1.05739 0.994942 0.996924
1.00085 1.00249 1.0006 0.997762
1.0469 1.05093 0.999407 0.996762
1.01765 1.02093 1 0.996781
1.03475 1.03878 1 0.996115
1.04113 1.04503 1 0.99627
1.03889 1.04225 0.999894 0.996874
1.00442 1 1.00564 0.998792
1.00099 1.00297 1.00067 0.997352
1.00861 1 1.01098 0.997655
1.00379 1.00393 1.00266 0.997204
1.02531 1.02862 1 0.996778
0.999874 1 1 0.999874
1.00134 1 1.00184 0.999502
1.00668 1 1.00819 0.998506
1.01986 1.02289 1 0.99704
1.04741 1.0513 1 0.996296
0.99947 1.00131 1.00041 0.997758
1.01742 1.02054 1.00033 0.996613
1.03547 1.03908 1 0.996529
1.03369 1.03742 1 0.996406
0.999931 1 1 0.999931
1.00273 1.00047 1.00417 0.998099
1.00345 1 1.00451 0.998938
1.00522 1.00047 1.00695 0.99781
1.05173 1.05565 1 0.996288
1.0416 1.04536 1 0.996406
1.04944 1.05334 1 0.996294
1.00713 1.00973 1.00045 0.996979
1.03723 1.04091 1 0.996467
1.02779 1.02981 1.00173 0.99631
1.0414 1.04513 1 0.996435
0.999959 1 1 0.999959
1.00127 1 1.00203 0.999247
1.00429 1.00495 1.00191 0.997435
1.00694 1 1.00877 0.99819
1.00283 1.00208 1.00322 0.997539
1.05489 1.05873 1 0.996374
1.04347 1.04729 1 0.99635
1.04467 1.04839 1 0.996448
1.01181 1.01326 1.00199 0.996584
1.03644 1.04009 1 0.99649
1.02419 1.0273 1.00086 0.996117
0.999546 1 1 0.999546
0.99901 1 1.00002 0.998994
0.999648 1 1 0.999648
0.999604 1 1 0.999604
0.999987 1 1 0.999987
0.99998 1 1 0.99998
1 1 1 1
1 1 1 1
1 1 1 1
1.00007 1 1.00024 0.999832
1 1 1 1
1.0013 1 1.00164 0.999664
1 1 1 1
1.00165 1 1.00216 0.999493
1 1 1 1
1.02587 1.02922 1 0.996743
1.02348 1.0268 1 0.996757
1.05715 1.06099 1 0.996385
1.0544 1.05819 1 0.996412
1.01866 1.02202 1 0.996713
0.998535 1 1 0.998535
1.01766 1.02102 1 0.996711
1.0538 1.05761 1 0.996393
1.05701 1.06081 1 0.996415
1.05857 1.06627 0.996009 0.996757
1.05562 1.0595 1 0.996336
1.06044 1.06514 0.998951 0.996631
1.0527 1.05652 1 0.996384
1.05838 1.06592 0.99615 0.996762
1.05918 1.06576 0.997113 0.996708
1.05362 1.06336 0.99385 0.996974
1.05777 1.0617 0.999786 0.996512
1.05378 1.06502 0.992445 0.996979
1.0177 1.02106 1 0.996707
1.01992 1.02299 1 0.997003
1.05264 1.05677 0.999574 0.996513
1.05298 1.05677 1 0.996419
0.999749 1 1.00059 0.999157
1.0085 1.01089 1.00008 0.997562
1.03004 1.03361 1 0.996551
1.04826 1.052 1 0.996448
1.05479 1.05946 0.998917 0.996671
1.0482 1.05189 1 0.996489
1.04232 1.04625 1 0.996243
1.04526 1.04883 1 0.996599
1.00313 1.00132 1.00388 0.99794
1.00517 1.00141 1.00629 0.997488
1.0064 1 1.00791 0.9985
1.05262 1.05641 1 0.996418
1.05337 1.05746 0.99963 0.996492
1.05768 1.06412 0.997223 0.996717
1.05609 1.06138 0.998407 0.99661
1.00239 1.00385 1.00079 0.99776
1.01821 1.0215 1 0.996778
1.03347 1.03743 1.00003 0.996153
1.05143 1.05533 0.999763 0.996549
1.04853 1.0577 0.99434 0.996973
1.04202 1.04596 1 0.996232
1.04714 1.05115 0.999419 0.996763
1.03988 1.0432 0.999907 0.99691
1.00252 1.00401 1.00117 0.997352
1.00399 1.00406 1.00277 0.997166
1.00458 1 1.0058 0.998789
1.00823 1.00001 1.01055 0.997695
1.05773 1.06426 0.997138 0.996713
1.05867 1.06476 0.997607 0.996659
1.04853 1.05865 0.993533 0.99689
1.04708 1.05932 0.99142 0.997001
1.04802 1.05393 0.997473 0.996904
1.04613 1.05748 0.992091 0.997153
1.00638 1.00931 1 0.997099
1.0398 1.04643 0.996523 0.99713
1.02119 1.02494 1 0.996347
1.03178 1.03581 1.00018 0.995937
1.04245 1.04636 1 0.996266
1.04122 1.04441 1 0.99694
1.00065 1 1.0016 0.999046
1.01032 1 1.01239 0.997956
1.00392 1.00691 1 0.997031
1.00511 1.00131 1.00645 0.997356
1.00522 1.00558 1.00262 0.997037
0.999943 1 1 0.999943
1.05169 1.05561 1 0.996282
1.00274 1 1.0038 0.998947
1.00322 1.00027 1.00485 0.998101
1.00495 1.00014 1.00703 0.997804
1.04179 1.04555 1 0.996403
1.04904 1.05294 1 0.996291
1.00633 1.00887 1.00051 0.996986
1.0281 1.02993 1.00193 0.996297
1.03699 1.04068 1 0.996461
1.0418 1.04544 1 0.99652
0.999965 1 1 0.999965
1.00079 1 1.00153 0.999257
1.00245 1.00368 1.00134 0.99744
1.00817 1 1.01 0.998187
1.00282 1.00169 1.00363 0.997513
1.05472 1.05856 1 0.996369
1.04326 1.04708 1 0.996349
1.04468 1.04842 1 0.996436
1.01276 1.01408 1.00213 0.996586
1.0392 1.04287 1 0.996479
1.02454 1.02752 1.00096 0.996143
0.999775 1 1.00033 0.999443
1.00365 1 1.00509 0.998568
1.00148 1.00394 1.00048 0.99708
1.0089 1.00159 1.0095 0.997822
1.00374 1.00426 1.00203 0.997459
1.05192 1.05589 0.999643 0.996592
1.03888 1.0426 1 0.996436
1.04424 1.04778 0.999952 0.996662
1.00451 1.00431 1.00379 0.996418
1.02218 1.02618 1 0.996101
0.999548 1 1 0.999548
0.998909 1 1 0.998909
0.999133 1 1.00016 0.998968
0.998921 1 1.00021 0.99871
0.999145 1 1.00012 0.999027
0.999676 1 1 0.999676
0.99965 1 1 0.99965
0.999994 1 1 0.999994
0.999606 1 1 0.999606
0.999989 1 1 0.999989
1 1 1 1
0.999983 1 1 0.999983
1 1 1 1
1 1 1 1
0.99994 1 1 0.99994
1.00047 1 1.00065 0.999811
1 1 1 1
1 1 1 1
1.00184 1 1.0022 0.999647
1 1 1 1
1.0552 1.05909 1 0.996331
1.05614 1.05994 1 0.996413
1.06081 1.06539 0.999075 0.996629
1.05869 1.06679 0.995626 0.996775
1.05348 1.0573 1 0.996393
1.01767 1.02103 1 0.996711
1.05278 1.0566 1 0.996385
1.05817 1.06564 0.996224 0.996757
1.05981 1.06634 0.997157 0.996708
1.05304 1.0633 0.993322 0.997004
1.05854 1.06244 0.99982 0.996506
1.05408 1.06499 0.992739 0.997001
1.05812 1.06518 0.996627 0.996732
1.0514 1.06217 0.99289 0.996951
1.05372 1.06473 0.992597 0.997044
1.05338 1.06688 0.990191 0.997126
1.05529 1.06189 0.996955 0.996816
1.05285 1.06775 0.988807 0.997206
1.05259 1.05639 1 0.996399
1.05333 1.05748 0.999583 0.99649
1.05717 1.06398 0.996823 0.996763
1.05565 1.06088 0.998476 0.996588
1.00372 1.005 1.00097 0.997758
1.01739 1.02068 1 0.996774
1.03154 1.0353 1.00018 0.99619
1.05173 1.05541 0.999999 0.99651
1.04826 1.05796 0.993785 0.997023
1.04728 1.05128 0.999428 0.996765
1.0427 1.04668 1 0.996193
1.04016 1.04342 0.999935 0.996947
1.00423 1.0051 1.00179 0.997351
1.00405 1.00403 1.0029 0.997128
1.00473 1 1.00595 0.998786
1.00757 1.0001 1.00975 0.997736
1.05771 1.06425 0.997126 0.996713
1.05824 1.0642 0.997751 0.99664
1.04865 1.05886 0.993419 0.996922
1.04806 1.05959 0.992113 0.996983
1.00704 1.00997 1 0.997092
1.01965 1.02332 1.00003 0.996387
1.03159 1.0354 1.00039 0.995926
1.04848 1.05392 0.997985 0.996853
1.04489 1.05662 0.991667 0.99721
1.03858 1.04249 1 0.996252
1.04075 1.04733 0.996578 0.99713
1.04205 1.04518 1 0.997003
1.00352 1.00651 1 0.997031
1.00461 1.00571 1.00188 0.997029
1.00628 1.00158 1.00736 0.997351
1.00133 1 1.00232 0.999011
1.00994 1 1.01196 0.997999
1.04989 1.06089 0.992674 0.996936
1.04986 1.06151 0.992035 0.996962
1.04567 1.06169 0.987689 0.997194
1.04102 1.05331 0.991096 0.997216
1.00977 1.01307 1 0.99675
1.04504 1.0519 0.996159 0.997304
1.01182 1.01549 1.00029 0.996105
1.02675 1.03061 1.00051 0.995748
1.03478 1.03867 1 0.996256
0.999583 1 1.00032 0.999261
1.00688 1 1.00855 0.998351
1.00731 1 1.00963 0.997696
1.00401 1.00702 1.00011 0.996895
1.00522 1.00179 1.0064 0.997042
1.00622 1.00676 1.00261 0.996872
0.999971 1 1 0.999971
1.00009 1 1.00082 0.999268
1.05454 1.05839 1 0.996363
1.0095 1 1.01134 0.998184
0.999985 1.0018 1.00074 0.997444
1.0027 1.00132 1.0039 0.997487
1.04287 1.0467 1 0.996347
1.04471 1.04846 1 0.996425
1.01273 1.01387 1.00229 0.996587
1.02367 1.02681 1.00077 0.996169
1.04201 1.04571 1 0.996469
0.999534 1 1.00009 0.999448
1.00406 1 1.0055 0.998572
1.00291 1.00544 1.00041 0.997071
1.00964 1.00126 1.01058 0.997815
1.00395 1.00477 1.00174 0.997456
1.05144 1.05531 0.99974 0.996586
1.03983 1.04356 1 0.996423
1.04446 1.04801 0.999924 0.996688
1.00574 1.00612 1.00324 0.996383
1.02074 1.02471 1.00006 0.996071
1.00003 1 1.0012 0.998832
1.00956 1 1.01145 0.998131
1.00385 1.00494 1.002 0.996927
1.00945 1.0046 1.00726 0.997583
1.01287 1.01459 1.001 0.997307
1.047 1.05501 0.995305 0.997084
1.04029 1.04413 1 0.996323
1.04325 1.0468 0.999944 0.996666
1.00752 1.00691 1.00433 0.996288
1.01016 1.01434 1 0.995879
0.999551 1 1 0.999551
0.998927 1 1 0.998927
0.998646 1 1 0.998646
0.999036 1 1.00009 0.998942
0.99909 1 1.00006 0.999025
0.999129 1 1.00045 0.998684
0.999089 1 1.00047 0.998623
0.999608 1 1.00099 0.998623
0.999077 1 1.00002 0.999057
0.99967 1 1 0.99967
0.999676 1 1 0.999676
0.999998 1 1 0.999998
0.999652 1 1 0.999652
0.999995 1 1 0.999995
1 1 1 1
0.999991 1 1 0.999991
1 1 1 1
1 1 1 1
0.999987 1 1 0.999987
0.999921 1 1 0.999921
1 1 1 1
1.00094 1 1.00115 0.999791
1 1 1 1
1 1 1 1
1.05927 1.06314 0.999859 0.9965
1.0602 1.06668 0.997207 0.996708
1.05432 1.06487 0.993051 0.997023
1.05242 1.0632 0.992801 0.997034
1.05799 1.06537 0.996306 0.996752
1.05293 1.05675 1 0.996386
1.05806 1.06495 0.99681 0.996713
1.05199 1.06236 0.993274 0.996944
1.05294 1.06409 0.992471 0.997029
1.0521 1.06634 0.989476 0.997137
1.05497 1.06127 0.997233 0.996817
1.05061 1.06627 0.988032 0.997244
1.05208 1.06204 0.993679 0.996926
1.05325 1.06799 0.989045 0.997124
1.05373 1.06907 0.988396 0.997221
1.04708 1.0635 0.987261 0.997266
1.05774 1.0643 0.997115 0.996712
1.0579 1.06372 0.997897 0.996621
1.04881 1.0591 0.993309 0.996954
1.04914 1.05998 0.992779 0.996966
1.00835 1.01129 1 0.997084
1.01894 1.0226 1 0.996427
1.03145 1.03507 1.00058 0.995915
1.04892 1.05391 0.998452 0.996802
1.04361 1.05577 0.991196 0.997266
1.04195 1.0485 0.99661 0.997131
1.03563 1.03955 1 0.996236
1.04417 1.04725 0.999988 0.997065
1.00235 1.00533 1 0.997032
1.00431 1.00638 1.00092 0.997021
1.00757 1.00155 1.00869 0.997346
1.00182 1 1.00285 0.998977
1.00984 1 1.01182 0.998042
1.05013 1.06107 0.992726 0.996938
1.05041 1.06214 0.991976 0.996957
1.04572 1.06093 0.988445 0.997186
1.0094 1.01269 1 0.996746
1.01233 1.01599 1.00026 0.996145
1.025 1.0286 1.00076 0.995737
1.0414 1.05328 0.991497 0.997202
1.03829 1.04208 1 0.99637
1.04141 1.04852 0.995938 0.997271
0.999594 1 1.00029 0.999302
1.00395 1.00674 1.00034 0.996888
1.00431 1.00535 1.00198 0.99699
1.00774 1.00307 1.00764 0.997035
1.00774 1.00001 1.01004 0.99772
1.00691 1 1.00861 0.998317
1.0517 1.06594 0.989596 0.997013
1.0497 1.06887 0.984894 0.997124
1.03941 1.05952 0.983701 0.997274
1.03808 1.05575 0.985815 0.997415
1.00778 1.01126 1 0.996557
1.03668 1.04147 0.998529 0.996868
1.00536 1.00803 1.00165 0.995712
1.0147 1.01813 1.00104 0.995589
0.999581 1 1 0.999581
1.00159 1 1.0029 0.998691
1.00699 1 1.00901 0.998005
1.00702 1.00003 1.00977 0.997236
1.00371 1.00491 1.00208 0.996732
1.00909 1.00334 1.00906 0.996704
0.999454 1 1 0.999454
1.00474 1 1.00618 0.998577
1.05112 1.05489 0.999842 0.99658
1.01023 1.00081 1.01163 0.997809
1.00442 1.00711 1.00027 0.997062
1.00351 1.00455 1.00152 0.997452
1.04095 1.0447 1 0.996411
1.04475 1.04829 0.999904 0.996713
1.00731 1.00824 1.00273 0.996346
1.01926 1.02303 1.00027 0.996042
0.999954 1 1.00112 0.998835
1.00996 1 1.01187 0.998115
1.00427 1.00537 1.00198 0.996935
1.00902 1.00479 1.00664 0.997587
1.01391 1.0161 1.00048 0.997374
1.04869 1.05671 0.995273 0.997131
1.03975 1.04356 1 0.99635
1.04433 1.04784 0.999907 0.996742
1.00772 1.0069 1.00458 0.996256
1.01009 1.01432 1.00003 0.995803
1.00107 1 1.00256 0.998513
1.01017 1.00112 1.01132 0.997751
1.01007 1.00944 1.00378 0.996847
1.01151 1.01273 1.00161 0.99719
1.04548 1.07278 0.977113 0.997383
1.04347 1.04906 0.997507 0.997151
1.0271 1.03123 1 0.995997
1.01301 1.01289 1.00426 0.995877
0.998945 1 1 0.998945
0.998714 1 1.00006 0.998657
0.998642 1 1 0.998642
0.999275 1 1.00025 0.999024
0.999445 1 1.00079 0.998657
0.999114 1 1.00006 0.999055
0.998902 1 1.00027 0.998635
0.999871 1 1.00124 0.998632
0.998711 1 1 0.998711
1.00023 1 1.00175 0.998484
0.999832 1 1.00125 0.998587
0.999038 1 1 0.999038
0.999636 1 1 0.999636
0.999669 1 1 0.999669
1 1 1 1
0.999676 1 1 0.999676
0.999999 1 1 0.999999
1 1 1 1
0.999997 1 1 0.999997
1 1 1 1
1 1 1 1
0.999999 1 1 0.999999
0.999977 1 1 0.999977
1 1 1 1
0.999901 1 1 0.999901
1 1 1 1
1 1 1 1
1.05457 1.06058 0.997503 0.996819
1.05228 1.06358 0.992336 0.997014
1.04846 1.06487 0.987272 0.997283
1.05085 1.06586 0.988735 0.997148
1.05258 1.06257 0.993645 0.996937
1.05797 1.06469 0.996987 0.996695
1.05186 1.06192 0.99358 0.996926
1.05309 1.06765 0.989212 0.997115
1.05223 1.06822 0.987781 0.997219
1.04819 1.06434 0.987514 0.997276
1.05429 1.06792 0.99014 0.997069
1.05473 1.07457 0.984217 0.997275
1.05344 1.07519 0.982391 0.997335
1.05035 1.06124 0.992772 0.99694
1.0509 1.06269 0.991935 0.996953
1.04585 1.06015 0.989303 0.997178
1.00959 1.01289 1 0.996743
1.01219 1.01589 1.00018 0.996184
1.02292 1.02644 1.00085 0.995724
1.04183 1.0533 0.9919 0.997188
1.03721 1.04484 0.995447 0.997237
1.0408 1.04448 1 0.996484
1.0033 1.00569 1.00075 0.996881
0.999979 1.002 1.00088 0.997108
1.00963 1.00408 1.00852 0.997029
0.999623 1 1.00028 0.999343
1.00729 1.00017 1.00939 0.997744
1.00714 1 1.00888 0.998281
1.05249 1.06643 0.989876 0.997021
1.04898 1.06859 0.984471 0.99713
1.03966 1.05927 0.984181 0.997266
1.0052 1.00868 1 0.99655
1.00525 1.00809 1.0014 0.995788
1.01488 1.01837 1.0009 0.995676
1.03833 1.0554 0.986371 0.997418
1.03324 1.03874 0.99785 0.996847
0.999648 1 1 0.999648
1.00161 1 1.00292 0.998689
1.00105 1.00336 1.00092 0.996777
1.01126 1.00263 1.01179 0.996858
1.00676 1.00057 1.00893 0.997285
1.00681 1 1.00886 0.997965
1.05215 1.07241 0.983867 0.997195
1.04064 1.0702 0.97508 0.997229
1.03639 1.0594 0.98077 0.997461
1.02829 1.04296 0.988491 0.997419
1.0024 1.00482 1.00133 0.996267
1.01624 1.01895 1.00136 0.995976
1.00617 1.00805 1.00264 0.995505
0.99982 1 1 0.99982
0.999297 1 1 0.999297
0.99928 1 1.00028 0.999002
1.00225 1 1.00406 0.998205
1.00776 1 1.01017 0.99761
1.00984 1.00066 1.01218 0.997026
1.00063 1.00192 1.00183 0.996891
1.03538 1.00129 1.03702 0.997133
0.999773 1 1.00094 0.998839
1.01046 1 1.01238 0.998099
1.05044 1.05842 0.995266 0.997178
1.01012 1.00622 1.0063 0.997592
1.00494 1.00585 1.00215 0.996944
1.0147 1.01727 1.00004 0.997441
1.03903 1.04281 1 0.996378
1.04533 1.04881 0.999859 0.996818
1.0079 1.00687 1.00482 0.996223
1.00975 1.01409 1 0.995727
1.00152 1 1.00305 0.998475
1.00898 1.0005 1.01074 0.997754
1.01285 1.01183 1.00415 0.996871
1.01122 1.01259 1.00142 0.997227
1.04729 1.07512 0.976653 0.997403
1.0451 1.05011 0.998125 0.997099
1.02651 1.03058 1 0.996048
1.01475 1.01518 1.00377 0.995825
1.00269 1 1.00442 0.998276
1.05038 1.07993 0.975167 0.997409
1.00366 1.001 1.00528 0.997391
1.01266 1.01337 1.00268 0.996628
1.03742 1.06052 0.980656 0.997512
1.02328 1.02738 0.99987 0.996138
1.01091 1.0121 1.00323 0.995611
0.998669 1 1 0.998669
0.998566 0.999908 1.00003 0.998632
0.999186 0.999997 1.00045 0.99874
0.999053 1 1 0.999053
1.00002 1 1.00139 0.998642
0.998994 1 1.00035 0.998647
0.999034 1 1 0.999034
0.999916 1 1.00132 0.998593
0.998729 1 1 0.998729
0.999812 1 1.00132 0.998498
0.998815 1 1 0.998815
0.998772 1 1.00018 0.998595
1.00021 1 1.00186 0.998357
0.998677 1 1.00016 0.998521
0.998963 1 1 0.998963
0.999594 1 1 0.999594
0.999633 1 1 0.999633
1 1 1 1
0.999667 1 1 0.999667
1 1 1 1
1 1 1 1
0.999999 1 1 0.999999
1 1 1 1
1 1 1 1
0.999847 1 1 0.999847
1 1 1 1
0.999997 1 1 0.999997
1 1 1 1
0.999968 1 1 0.999968
1 1 1 1
1 1 1 1
1.04928 1.06518 0.987745 0.997287
1.05072 1.0673 0.987214 0.997218
1.0529 1.06727 0.989399 0.997106
1.05161 1.06177 0.993489 0.996926
1.05391 1.06783 0.989847 0.997088
1.05454 1.07403 0.984548 0.997266
1.05109 1.07274 0.98243 0.997343
1.05429 1.07454 0.98385 0.997256
1.06487 1.08693 0.982294 0.997364
1.05994 1.08554 0.978744 0.99763
1.05325 1.06689 0.990158 0.997029
1.04815 1.06833 0.983935 0.997135
1.03988 1.05905 0.984595 0.997258
1.00435 1.00778 1.00006 0.996543
1.0059 1.00881 1.00126 0.995866
1.01747 1.02101 1.00078 0.995762
1.03869 1.05485 0.987225 0.997422
1.02976 1.03569 0.997441 0.996826
1.00173 1.00369 1.00123 0.996822
1.01459 1.00315 1.01443 0.99701
1.0076 1.00081 1.00947 0.997333
0.999715 1 1 0.999715
1.00149 1 1.0028 0.998686
1.00678 1 1.00887 0.997925
1.05202 1.07273 0.98344 0.997206
0.999815 1 1 0.999815
0.999261 1 1 0.999261
1.04148 1.06935 0.976641 0.99723
1.03461 1.05811 0.980307 0.99743
1.0032 1.00496 1.00191 0.996351
1.00621 1.00741 1.00332 0.995502
1.01639 1.0201 1.0004 0.995965
1.02721 1.04262 0.9878 0.997393
0.999374 1 1.00029 0.999086
1.00228 1 1.00409 0.998196
1.0019 1.00183 1.0033 0.996784
1.03061 1.00132 1.03205 0.997283
1.00773 1.00045 1.01026 0.997042
1.00726 1 1.00966 0.997626
1.06205 1.08684 0.979825 0.997317
1.02185 1.06775 0.959534 0.997364
1.02308 1.05001 0.976689 0.99761
1.00905 1.02355 0.988693 0.997112
1.00541 1.00279 1.00617 0.996461
1.00592 1.00492 1.0055 0.995514
0.999218 1 1 0.999218
0.999262 1 1 0.999262
0.998956 1 1 0.998956
0.998705 1 1.0003 0.998411
1.00595 1 1.00803 0.997937
1.00583 1.00025 1.00833 0.997267
1.05117 1.0001 1.05415 0.997069
1.00062 1.00049 1.00263 0.997508
1.00219 1 1.00376 0.998437
1.00738 1 1.00965 0.997758
1.04838 1.07644 0.976446 0.997422
1.04629 1.05076 0.998694 0.997046
1.01099 1.0126 1.00115 0.997265
1.01592 1.01461 1.00441 0.996895
1.02628 1.03026 1.00004 0.996099
1.01692 1.01783 1.00335 0.995772
1.00281 1 1.00456 0.998256
1.05329 1.08349 0.974601 0.997468
1.00409 1.00056 1.00612 0.997421
1.01083 1.01159 1.00269 0.996565
1.03647 1.05966 0.980574 0.997487
1.02229 1.02629 0.999884 0.996223
1.0121 1.01301 1.00348 0.995627
1.00606 0.99997 1.00814 0.997964
1.01294 1.04944 0.967258 0.997894
1.00447 1.00324 1.00412 0.997122
1.00494 1.00505 1.00379 0.996109
1.0178 1.03054 0.990561 0.997047
1.00277 1.00474 1.00221 0.995838
0.973886 1.00332 0.973398 0.997193
0.998332 0.999607 1.0001 0.998621
0.999139 0.999257 1.00114 0.99874
0.999684 1 1.00102 0.998668
0.999031 1 1 0.999031
1.00033 1 1.00173 0.998598
0.999117 1 1.0006 0.998513
0.998748 1 1 0.998748
0.998962 1 1 0.998962
0.998805 1 1.00029 0.998515
0.998781 1 1 0.998781
1.00012 1 1.00177 0.998358
0.998734 1 1.00016 0.998574
0.999026 1 1.00026 0.99877
0.998783 1 1.00061 0.998178
1.00112 1 1.0028 0.998329
0.998515 1 1.00012 0.998397
0.998815 1 1 0.998815
0.999311 1 1.00073 0.99858
0.998885 1 1.0001 0.998782
0.999573 1 1 0.999573
0.999591 1 1 0.999591
1 1 1 1
0.999629 1 1 0.999629
1 1 1 1
1 1 1 1
1 1 1 1
1 1 1 1
1 1 1 1
0.999877 1 1 0.999877
0.999848 1 1 0.999848
1 1 1 1
1 1 1 1
1 1 1 1
0.999995 1 1 0.999995
1 1 1 1
1 1 1 1
1.04896 1.07063 0.982363 0.99735
1.05419 1.07345 0.98476 0.997257
1.05359 1.0678 0.989553 0.997107
1.05422 1.0744 0.98392 0.997254
1.06229 1.08454 0.982081 0.99736
1.05893 1.08358 0.97965 0.997552
1.06737 1.09403 0.978146 0.997429
0.97037 1.01605 0.959455 0.995396
1.01551 1.04923 0.969474 0.998338
0.999368 1 1 0.999368
1.0519 1.07302 0.98305 0.997216
1.04244 1.06858 0.978243 0.997232
1.03268 1.05694 0.979596 0.9974
1.00004 1.0028 1.00082 0.996433
1.00471 1.00521 1.00402 0.995498
1.01541 1.01966 0.999869 0.995955
1.02594 1.04226 0.986941 0.997366
0.998847 1.00199 1.00018 0.996681
1.02405 1.00043 1.02624 0.997438
1.00534 1.00007 1.00824 0.99706
0.99981 1 1 0.99981
1.008 1 1.01038 0.997641
0.99946 1 1.00029 0.99917
1.00237 1 1.00419 0.998187
0.999224 1 1 0.999224
1.0585 1.08702 0.976381 0.997324
0.999265 1 1 0.999265
0.999262 1 1 0.999262
0.998709 1.00009 0.999694 0.99892
1.0264 1.06825 0.963363 0.997362
1.02331 1.05007 0.976902 0.997563
1.00184 1.00216 1.00321 0.996491
1.00993 1.0088 1.00551 0.995642
1.00805 1.02128 0.989913 0.997094
0.998822 1 1.00035 0.998468
1.00588 1 1.00801 0.997886
1.00812 1.00031 1.01045 0.997387
1.04086 1.00016 1.04373 0.997092
1.00532 1.00042 1.00759 0.997317
1.03844 1.07535 0.968157 0.997432
1.00312 1.05675 0.951614 0.997519
1.01552 1.03255 0.986215 0.99726
0.991422 1.00902 0.985661 0.996853
1.00371 1 1.00659 0.997135
0.998789 1 1 0.998789
0.998723 1 1 0.998723
0.999732 1 1.00106 0.998669
1.00603 1 1.00785 0.998199
1.00873 1 1.01098 0.997782
1.03791 0.99994 1.04071 0.99737
1.03154 1.00168 1.03243 0.997459
1.00277 1 1.00454 0.998236
1.00419 1 1.00676 0.997452
1.05526 1.08786 0.97244 0.997526
1.03606 1.05964 0.980231 0.99746
1.02165 1.02557 0.999874 0.996307
1.00832 1.00915 1.00268 0.996502
1.01282 1.0136 1.0036 0.995643
1.00572 1 1.00773 0.998006
1.01271 1.04997 0.966509 0.997935
1.00159 1.00204 1.00242 0.997131
1.004 1.00382 1.00408 0.99611
1.01669 1.03049 0.98941 0.997166
1.00329 1.00475 1.00273 0.995832
0.973627 1.0033 0.974144 0.996179
1.00634 1.00061 1.00788 0.997867
1.00148 1.02436 0.97974 0.99788
1.00051 1.00137 1.00217 0.996976
1.00431 1.00152 1.00644 0.996377
0.992086 1.00607 0.989141 0.996921
0.912842 0.976694 0.959114 0.974467
0.908559 0.967883 0.951257 0.986808
0.968148 0.984223 0.986277 0.997354
0.725921 0.836145 0.914468 0.949379
0.64406 0.795776 0.866674 0.933856
0.999091 0.998629 1.00172 0.998741
1.00072 0.999125 1.00288 0.998721
1.00044 1 1.00174 0.998704
0.998961 1 1 0.998961
0.998688 1 1.00018 0.998508
0.999664 1 1.00131 0.998359
0.998713 1 1.00016 0.998552
0.998747 1 1 0.998747
1.00177 1 1.00347 0.998305
0.99885 1 1 0.99885
0.998501 1 1.00008 0.998417
0.999022 1 1.0003 0.998723
0.999074 1 1.00085 0.998224
1.00301 1 1.00478 0.998236
1.00352 1 1.00516 0.998369
1.00247 1 1.00424 0.998243
0.998947 1 1.00063 0.998318
0.99878 1 1 0.99878
0.998928 1 1.00052 0.99841
0.999176 1 1.00075 0.998428
0.99906 1 1.00045 0.998612
0.99935 1 1.00081 0.998541
0.998902 1 1 0.998902
0.998968 1 1.00019 0.998779
0.999567 1 1 0.999567
0.999573 1 1 0.999573
1 1 1 1
0.999588 1 1 0.999588
1 1 1 1
1 1 1 1
1 1 1 1
1 1 1 1
1 1 1 1
0.999911 1 1 0.999911
0.999873 1 1 0.999873
1 1 1 1
0.999849 1 1 0.999849
1 1 1 1
1 1 1 1
1 1 1 1
1 1 1 1
1 1 1 1
1.05936 1.08184 0.981814 0.997356
1.05425 1.07431 0.984033 0.997253
1.05829 1.08176 0.980772 0.997476
0.971502 1.01586 0.960678 0.995475
1.06435 1.09138 0.977756 0.997428
1.02784 1.05273 0.978109 0.998208
1.04646 1.06524 0.984773 0.997559
0.92617 0.979656 0.958903 0.985922
0.990726 1.01935 0.975517 0.99631
0.999392 1 1 0.999392
0.999363 1 1 0.999363
0.998901 1 1 0.998901
0.999 1 1 0.999
1.05597 1.08717 0.973901 0.997331
1.03056 1.06812 0.967384 0.99736
1.02375 1.04998 0.977442 0.997515
1.00049 1.00094 1.00303 0.996521
1.01485 1.01407 1.00503 0.995769
1.00723 1.01944 0.990914 0.997076
1.01871 1 1.0215 0.997265
1.03296 1.00026 1.03567 0.997113
1.00371 1.00029 1.00606 0.997367
0.999262 1 1 0.999262
1.0042 1 1.00638 0.997835
0.998887 1 1.00036 0.998526
0.999311 1 1 0.999311
0.998864 1.00023 0.999752 0.998884
1.03634 1.07533 0.966209 0.997447
0.998825 1 1 0.998825
0.998778 1.00011 0.999876 0.998787
0.999504 0.999881 1.00079 0.998835
1.00888 1.05963 0.954483 0.99751
1.01542 1.03257 0.986094 0.997259
1.00343 1.00067 1.00566 0.997117
0.994836 1.00901 0.988989 0.996928
1.00441 1 1.00629 0.998133
1.00798 1 1.01035 0.997662
1.03805 1.0017 1.03895 0.997438
1.03806 1.00021 1.04066 0.997286
0.99573 1.0469 0.953377 0.997636
0.995354 1.03634 0.962847 0.99751
1.00584 1.0128 0.996191 0.996924
0.981974 1.00095 0.983152 0.997854
1.0007 1 1.00218 0.998529
1.00187 1 1.00349 0.998389
1.01478 0.999631 1.01696 0.998219
1.05898 1.00008 1.06159 0.997471
0.89085 0.968018 0.947611 0.971161
1.00608 1 1.00805 0.998048
0.999267 1.00091 1.00122 0.997139
1.01389 1.05022 0.967359 0.997978
1.01566 1.02992 0.988838 0.997285
1.00376 1.00466 1.0033 0.995823
1.00357 1.00301 1.00447 0.99611
0.973997 1.00458 0.974294 0.995136
1.00474 1.00008 1.00675 0.997923
1.00082 1.0254 0.978117 0.997863
1.00031 1.00147 1.00185 0.996992
1.00461 1.00213 1.00611 0.996382
0.995685 1.00722 0.991609 0.996914
0.910118 0.982814 0.953482 0.971212
0.90189 0.964172 0.950651 0.983961
0.972149 0.984893 0.989649 0.997384
0.72215 0.831289 0.91393 0.950522
0.63027 0.785868 0.863195 0.929111
1.00184 0.999619 1.00415 0.998087
0.753343 0.85138 0.92839 0.953101
0.680811 0.802914 0.907007 0.934861
0.98766 1.00608 0.983775 0.997881
1.00782 1.0016 1.00872 0.997511
1.01359 1.00511 1.01117 0.997299
0.961838 0.976019 0.987756 0.997686
0.891749 0.956158 0.958905 0.972606
0.873626 0.937061 0.94917 0.982232
0.71361 0.829823 0.901672 0.953734
0.700705 0.850005 0.884344 0.932164
1.00215 0.998467 1.00492 0.998773
1.00113 0.999418 1.00304 0.998677
1.00574 1 1.00691 0.998839
0.998885 1 1 0.998885
0.998438 1 1 0.998438
1.00238 1 1.00411 0.998282
0.99973 1 1.00146 0.99827
0.998677 1 1 0.998677
0.998781 1 1 0.998781
1.00335 1 1.00514 0.998221
1.0028 1 1.00456 0.998249
0.998568 1 1.00021 0.998358
1.00388 1 1.00549 0.998399
1.00547 1 1.00716 0.998319
1.01421 1 1.01571 0.998517
1.00123 1 1.00307 0.998167
0.998975 1 1.0006 0.998376
0.998611 1 1.00021 0.998405
0.999559 1 1.00112 0.998441
0.999874 1 1.00164 0.998242
0.999305 1 1.00082 0.998483
1.00173 1 1.00325 0.998482
1.006 1 1.00775 0.998263
0.999918 1 1.00134 0.998575
0.998932 1 1.00032 0.998614
0.99894 1 1 0.99894
0.999121 1 1.00062 0.998501
0.998873 1 1 0.998873
0.999554 1 1 0.999554
0.99903 1 1.00026 0.998776
0.999569 1 1 0.999569
0.999999 1 1 0.999999
0.999573 1 1 0.999573
1 1 1 1
1 1 1 1
1 1 1 1
1 1 1 1
1 1 1 1
0.999344 1 1 0.999344
0.999918 1 1 0.999918
0.999907 1 1 0.999907
1 1 1 1
0.99987 1 1 0.99987
1 1 1 1
1 1 1 1
1 1 1 1
1 1 1 1
1 1 1 1
0.973297 1.01558 0.96264 0.995558
1.0622 1.0886 0.978266 0.997428
1.03583 1.05603 0.982765 0.998075
0.918623 0.973968 0.955529 0.987072
0.990034 1.01917 0.974833 0.996493
1.04531 1.06922 0.980082 0.997513
1.00073 1.02832 0.976438 0.996649
0.933439 0.975191 0.968321 0.9885
0.911393 0.976968 0.959507 0.972248
0.724615 0.834144 0.91089 0.953676
0.6081 0.752975 0.865616 0.932972
0.998946 1 1 0.998946
0.99939 1 1 0.99939
0.999358 1 1 0.999358
0.998897 1 1 0.998897
0.998676 1 1 0.998676
0.998681 1 1 0.998681
0.998864 1 1 0.998864
0.998958 1 1 0.998958
1.03317 1.07588 0.962748 0.997461
1.01511 1.0637 0.956716 0.9975
1.01488 1.03256 0.985586 0.997259
1.00327 1.00187 1.00431 0.997101
0.997632 1.0085 0.992198 0.997004
1.043 1.00131 1.04433 0.997415
1.03844 1.00086 1.04046 0.997203
1.00842 1 1.01091 0.997544
0.99843 1.00019 0.999388 0.998852
1.0045 1 1.00645 0.998065
0.998862 1 1 0.998862
0.999002 1 1 0.999002
0.994626 1.04766 0.951606 0.997656
1.00051 1 1.00198 0.998539
1.00237 1 1.00393 0.998446
0.993172 1.03464 0.962339 0.997484
1.00294 1.01335 0.992631 0.997069
0.984529 1.00122 0.985566 0.997727
1.02401 0.999979 1.02609 0.99799
1.0549 1.0015 1.05596 0.997507
0.977006 1.02787 0.952815 0.997583
0.987763 1.01133 0.979149 0.9975
0.975612 1.00166 0.976389 0.997549
0.985751 1.00118 0.986547 0.998021
1.00508 1 1.007 0.998095
1.01226 1 1.0141 0.99819
1.05156 1 1.05385 0.997822
0.758314 0.860915 0.92221 0.955122
0.908519 0.975872 0.954391 0.975473
1.0022 0.999439 1.00479 0.997979
0.99999 1.00132 1.00167 0.997009
1.00037 1.02677 0.976388 0.997847
0.998764 1.00875 0.993176 0.996908
1.00502 1.00294 1.00571 0.99639
0.908101 0.974501 0.958064 0.972653
0.906505 0.971798 0.947428 0.984574
0.974017 0.98376 0.992667 0.997411
0.728719 0.83318 0.916243 0.954577
0.617666 0.776412 0.860774 0.924214
1.00122 0.999666 1.00348 0.998089
0.755125 0.85902 0.921503 0.953935
0.665108 0.788423 0.905006 0.93214
0.987648 1.00715 0.982725 0.997877
1.00785 1.00206 1.00827 0.997527
1.01182 1.00341 1.01097 0.99745
0.955053 0.969997 0.986692 0.997873
0.903181 0.968446 0.961596 0.969855
0.86923 0.933228 0.945843 0.984754
0.720254 0.828276 0.91365 0.951768
0.700344 0.856678 0.877961 0.931147
1.00336 1 1.00475 0.998609
0.711092 0.815264 0.932225 0.935635
0.78234 0.889478 0.932347 0.943371
0.986688 0.994335 0.993641 0.99866
1.0152 1.00263 1.01397 0.998584
0.963894 0.96158 1.00497 0.997451
0.88198 0.923704 0.968351 0.986038
0.854733 0.921098 0.958345 0.968283
0.724842 0.822147 0.925378 0.952741
0.75241 0.901983 0.891622 0.935568
1.002 0.999179 1.00417 0.998652
1.00459 1 1.0058 0.998797
1.00706 0.999273 1.00872 0.999074
0.998782 1 1 0.998782
0.998399 1 1 0.998399
1.00354 1 1.00529 0.998256
1.00398 1 1.00579 0.998206
1.00397 1 1.00555 0.99843
0.99886 1 1.00049 0.998374
1.00412 1 1.00584 0.998292
1.00126 1 1.00309 0.99817
1.01348 0.999793 1.01514 0.998577
1.03317 0.998677 1.03548 0.999094
1.00802 1 1.00971 0.998331
1.00055 1 1.00243 0.998125
0.998476 1 1.00008 0.998401
1.00001 1 1.00156 0.998452
1.00037 1 1.00214 0.998233
0.999693 1 1.00123 0.998469
1.0002 1 1.00162 0.998578
1.00333 1 1.00493 0.998409
1.00301 1 1.00465 0.998367
1.00254 0.999532 1.00441 0.998598
0.999423 1 1.00109 0.998339
0.999024 1.00039 1.00093 0.997704
1.00502 1 1.00687 0.998159
1.00506 1 1.0068 0.998265
1.00462 1 1.00618 0.998451
1.00073 1 1.00216 0.998573
0.998952 1 1.00003 0.998919
0.999084 1 1.00047 0.998615
0.998959 1 1.00002 0.998943
0.999541 1 1 0.999541
0.998843 1 1 0.998843
0.999557 1 1 0.999557
0.999994 1 1 0.999994
0.99957 1 1 0.99957
0.999998 1 1 0.999998
1 1 1 1
1 1 1 1
1 1 1 1
1 1 1 1
0.999348 1 1 0.999348
0.999893 1 1 0.999893
0.999345 1 1 0.999345
1 1 1 1
0.999918 1 1 0.999918
0.999903 1 1 0.999903
1 1 1 1
1 1 1 1
1 1 1 1
1 1 1 1
1 1 1 1
0.747745 0.8499 0.925741 0.950377
0.670594 0.797273 0.90075 0.933789
0.91862 0.9761 0.952912 0.987617
0.991636 1.01916 0.976225 0.996685
1.04698 1.07302 0.978208 0.997468
0.916176 0.958193 0.965916 0.989889
1.0013 1.02749 0.977621 0.996812
0.923882 0.989266 0.959597 0.973228
0.721354 0.835385 0.908563 0.950401
0.611453 0.764649 0.861513 0.928195
0.947152 0.995965 0.958225 0.992448
0.908234 0.968014 0.964182 0.973099
0.713623 0.830521 0.901582 0.953043
0.687821 0.842155 0.876864 0.931432
1.00012 1 1.00162 0.998509
0.998983 1 1 0.998983
0.999388 1 1 0.999388
0.998893 1 1 0.998893
0.99878 1 1.00004 0.998739
0.999536 1 1.00109 0.998451
0.998657 1 1 0.998657
0.998526 1 1 0.998526
0.998821 1 1 0.998821
0.998916 1 1 0.998916
0.993701 1.04766 0.950703 0.997677
0.989835 1.03188 0.9617 0.997461
1.0012 1.0143 0.989841 0.997214
0.986604 1.00148 0.987513 0.997599
1.0485 1.00318 1.04775 0.997542
1.03366 1.00027 1.0357 0.997763
1.00156 1 1.00306 0.998503
1.00024 0.999857 1.00184 0.998547
0.977443 1.02824 0.952826 0.997662
1.00615 1 1.00811 0.998054
1.01201 1 1.0139 0.998141
0.984082 1.00944 0.977383 0.99744
0.9735 1.00141 0.974419 0.997649
0.985639 1.00195 0.985731 0.997957
1.04482 0.999929 1.04723 0.997771
0.97523 1.00359 0.973805 0.99788
0.967255 0.998918 0.969903 0.99835
1.01337 1.00077 1.01444 0.998179
1.00877 1 1.0108 0.997997
1.01057 1 1.01268 0.99791
1.02794 1 1.03008 0.997931
0.738216 0.831207 0.940248 0.944565
0.764436 0.859661 0.930765 0.955375
0.897069 0.97238 0.949817 0.971291
1.00061 0.999349 1.00318 0.998088
1.0075 1.00209 1.00788 0.997542
0.990135 1.00822 0.984158 0.997873
1.01043 1.00208 1.01076 0.997596
0.752401 0.854181 0.921607 0.95577
0.897209 0.964872 0.957411 0.971238
0.867267 0.930295 0.94901 0.98234
0.952241 0.965992 0.987689 0.998052
0.715042 0.830061 0.908155 0.948554
0.663812 0.788035 0.902667 0.933194
0.694975 0.850003 0.875119 0.934289
1.00348 0.999766 1.00513 0.998593
0.713065 0.817157 0.929537 0.938765
0.794762 0.901185 0.935125 0.943091
0.986338 0.992319 0.995214 0.998753
1.0155 1.0018 1.01516 0.998537
0.961093 0.959834 1.00336 0.997959
0.873807 0.92779 0.957479 0.98364
0.878614 0.932772 0.969432 0.971639
0.740891 0.841601 0.927046 0.949613
0.741949 0.891824 0.886816 0.938127
1.00749 0.99873 1.00935 0.999431
0.81368 0.907649 0.9437 0.949953
0.784482 0.899897 0.920188 0.947357
0.984217 0.969391 1.01558 0.999715
0.90745 0.925077 0.990438 0.990415
0.882009 0.918483 0.989762 0.970222
0.79558 0.884407 0.949581 0.947326
0.782827 0.932418 0.895116 0.937941
1.00435 1 1.0056 0.998754
1.00764 0.998839 1.00976 0.999065
1.02372 0.995125 1.0294 0.999354
0.999025 1 1.00065 0.998372
1.00122 1 1.00306 0.998172
1.00231 1 1.00405 0.998264
1.01304 0.999583 1.01485 0.998638
1.00106 1 1.00294 0.998125
1.00753 1 1.00923 0.998321
1.03818 0.999544 1.03951 0.999173
1.04496 0.995852 1.0499 0.999446
1.03743 0.999102 1.03933 0.999068
1.00188 1 1.00363 0.998258
1.00057 1 1.00235 0.998224
0.999762 1 1.00131 0.998456
0.998861 1 1.00019 0.998672
1.00265 1 1.00427 0.998387
1.00237 1 1.00397 0.998411
1.00374 0.999864 1.00526 0.998619
1.00202 1 1.00359 0.998433
1.00839 0.998753 1.01069 0.998962
0.996601 1.00053 0.997612 0.998459
1.00001 1.00067 1.00099 0.998352
0.998628 1 1.00069 0.997935
1.00233 1.00399 1.00153 0.99682
1.00301 1.00028 1.00469 0.998049
0.998896 1.00014 1.00079 0.997967
1.00476 1 1.0066 0.998169
1.00843 1 1.01017 0.998279
1.00366 1 1.0054 0.998266
1.00429 1 1.00585 0.99845
0.999549 1 1.00074 0.998808
1.00117 1 1.0026 0.99857
0.998916 1 1 0.998916
0.99952 1 1 0.99952
0.998945 1 1 0.998945
0.999542 1 1 0.999542
0.999984 1 1 0.999984
0.999559 1 1 0.999559
0.999991 1 1 0.999991
1 1 1 1
0.999997 1 1 0.999997
1 1 1 1
1 1 1 1
0.999096 1 1 0.999096
0.999847 1 1 0.999847
0.999272 1 1 0.999272
1 1 1 1
0.999898 1 1 0.999898
0.999347 1 1 0.999347
1 1 1 1
1 1 1 1
0.999919 1 1 0.999919
1 1 1 1
1 1 1 1
1 1 1 1
0.703884 0.812717 0.922669 0.938675
0.754822 0.856981 0.924566 0.952654
0.787999 0.899353 0.929578 0.942561
0.667005 0.794963 0.899903 0.932366
0.916776 0.96769 0.959519 0.987355
0.99937 1.027 0.976038 0.996986
0.927563 0.986537 0.965358 0.973961
0.732508 0.838377 0.916031 0.953811
0.618105 0.779555 0.858734 0.92333
0.946748 0.990408 0.964069 0.991543
0.900693 0.967134 0.961812 0.968277
0.727681 0.838767 0.912109 0.951158
0.686239 0.843826 0.875519 0.928875
0.919354 0.974538 0.954022 0.988839
0.869914 0.923769 0.973236 0.967598
0.751768 0.860667 0.922022 0.947344
0.747413 0.899255 0.891099 0.93272
1.00179 1 1.00359 0.998204
0.999379 1 1.00082 0.998557
0.99902 1 1 0.99902
0.998802 1 1 0.998802
0.998485 1 1.0004 0.998084
0.998849 1 1.00035 0.998499
0.998632 1 1 0.998632
0.998494 1 1 0.998494
0.998574 1 1.00001 0.998566
0.998778 1 1 0.998778
0.978569 1.02938 0.952797 0.99774
0.98235 1.00822 0.976899 0.997384
0.970163 1.00129 0.971101 0.997748
0.988209 1.00319 0.98714 0.997897
1.03709 1 1.03946 0.997719
1.01175 1 1.01368 0.998094
1.00659 1 1.00859 0.998013
1.00797 1 1.01004 0.997952
0.973321 1.00383 0.971645 0.997905
1.00919 1 1.01132 0.997893
1.02793 1 1.03008 0.997912
0.966104 0.999438 0.968252 0.998343
1.00905 1.00194 1.00898 0.998136
0.951374 0.98078 0.9717 0.998268
0.979345 0.985145 0.994877 0.999232
1.03967 0.999587 1.04178 0.998389
1.00476 1 1.00685 0.997924
1.01993 1 1.02194 0.998031
0.824723 0.915229 0.944826 0.953732
0.738064 0.83018 0.942014 0.943766
0.753749 0.854488 0.926286 0.952304
1.0034 0.99973 1.0051 0.998578
1.01606 1.00079 1.0168 0.99849
0.982798 0.990298 0.99357 0.998849
0.714233 0.817969 0.929406 0.939502
0.869852 0.92511 0.971414 0.967937
0.878617 0.925627 0.963519 0.985151
0.952263 0.955122 0.998538 0.998466
0.744636 0.847943 0.921336 0.953145
0.80209 0.907007 0.937853 0.942926
0.746028 0.894147 0.88916 0.938352
1.00582 0.998683 1.00777 0.999379
0.811294 0.906991 0.940014 0.95157
0.78418 0.899334 0.920313 0.947456
0.986265 0.973003 1.01409 0.999541
0.920185 0.935694 0.993141 0.990218
0.853096 0.91106 0.968816 0.966518
0.782095 0.931464 0.894739 0.938419
0.810486 0.891179 0.958417 0.948912
1.00045 0.977074 1.02423 0.999711
0.795999 0.894103 0.929616 0.957682
0.812628 0.925587 0.924707 0.949446
0.745951 0.897664 0.890705 0.93296
0.957455 0.9467 1.01391 0.997484
0.912342 0.9347 1.00467 0.971544
0.858447 0.931821 0.968721 0.951004
1.00861 0.998384 1.0112 0.999055
1.02348 0.995473 1.02888 0.99927
1.02367 0.983887 1.04088 0.999566
1.00114 1 1.00302 0.998125
1.00629 1 1.00799 0.998311
1.04261 0.999586 1.04382 0.999251
1.00243 1 1.00417 0.998263
1.03682 0.999187 1.03862 0.999079
1.04658 0.995671 1.05174 0.999421
1.03599 0.990842 1.0461 0.999489
1.02287 0.998258 1.02562 0.999058
1.0021 1 1.0037 0.998408
1.00185 1 1.00344 0.998412
1.00478 1 1.00614 0.998641
1.0078 0.99916 1.00973 0.998933
1.00167 1 1.00324 0.998432
1.00235 1 1.00352 0.998838
0.997705 1.00021 0.998754 0.998744
1.00266 1.00043 1.00477 0.997469
1.00056 1.00129 1.0009 0.99837
0.999432 1.00101 1.00059 0.997838
0.999024 1.00148 1.00101 0.996542
1.01424 1.01653 1.00129 0.99646
1.00297 1.00253 1.00276 0.997682
1.00091 1.00266 1.00138 0.996879
1.00972 1 1.01168 0.998062
1.0042 1.00079 1.00537 0.99805
0.998872 1 1.00065 0.998228
1.0048 1 1.00664 0.998179
1.00767 1 1.00937 0.998315
1.00136 1 1.0027 0.998661
1.00411 1 1.00567 0.99845
0.999523 1 1.00072 0.998808
0.99945 1 1 0.99945
0.998913 1 1 0.998913
0.999517 1 1 0.999517
0.999976 1 1 0.999976
0.999542 1 1 0.999542
0.999981 1 1 0.999981
1 1 1 1
0.999988 1 1 0.999988
1 1 1 1
1 1 1 1
0.998836 1 1 0.998836
0.999645 1 1 0.999645
0.999094 1 1 0.999094
1 1 1 1
0.999795 1 1 0.999795
0.999196 1 1 0.999196
1 1 1 1
1 1 1 1
0.999903 1 1 0.999903
1 1 1 1
1 1 1 1
1 1 1 1
0.811996 0.913054 0.935715 0.950416
0.704105 0.812836 0.920246 0.941306
0.749576 0.852424 0.923573 0.952113
0.998375 1 1 0.998375
0.791103 0.898051 0.927236 0.95004
0.786886 0.899014 0.928766 0.942408
0.673064 0.803817 0.895559 0.934985
0.955324 0.993631 0.97076 0.990407
0.894689 0.95683 0.961582 0.972413
0.730477 0.851679 0.904932 0.947795
0.680229 0.830394 0.880234 0.93062
0.915996 0.969658 0.95826 0.985807
0.876007 0.928755 0.971094 0.971281
0.755745 0.855729 0.931732 0.947869
0.743819 0.894365 0.890869 0.933553
0.870801 0.926204 0.956875 0.982556
0.86562 0.909642 0.982565 0.968491
0.823789 0.902189 0.961729 0.949435
0.784307 0.931655 0.897594 0.937888
1.00109 1 1.00311 0.997986
1.00306 1 1.00491 0.998159
0.998894 1 1.00029 0.998604
0.998197 1 1.00002 0.998179
0.998721 1 1.00056 0.998157
0.998547 1 1 0.998547
0.998499 1 1 0.998499
0.99863 1 1.00003 0.998605
0.970697 1.00452 0.968346 0.99792
0.96516 1.00076 0.966028 0.998343
1.00764 1 1.00975 0.997907
1.00476 1.00297 1.00371 0.998092
1.0296 1 1.03177 0.997893
1.00891 1 1.01106 0.997877
1.0054 1 1.00748 0.997935
0.954214 0.980396 0.974869 0.998385
1.01828 1 1.02026 0.998053
1.02941 1.00027 1.03075 0.998428
0.976669 0.986991 0.99025 0.999284
1.00731 1 1.00923 0.998094
0.943784 0.962453 0.982556 0.998012
1.00196 0.983275 1.01953 0.999475
1.05309 0.997171 1.05763 0.998536
1.01916 0.999835 1.02114 0.998228
0.805172 0.896415 0.93495 0.960707
0.824392 0.915439 0.944415 0.953546
0.739565 0.828883 0.946224 0.942951
1.00374 0.998648 1.00578 0.99933
0.989034 0.975986 1.01401 0.999371
0.811566 0.90879 0.936919 0.953144
0.878946 0.911249 0.993314 0.971044
0.908985 0.93373 0.986497 0.986824
0.808252 0.88911 0.959491 0.947438
0.785187 0.900581 0.92015 0.947527
0.782918 0.931885 0.894817 0.9389
1.00524 0.984468 1.02144 0.999669
0.797658 0.895649 0.929975 0.957652
0.812486 0.923455 0.924573 0.95161
0.967032 0.952614 1.01581 0.999337
0.741881 0.892523 0.890249 0.933691
0.888091 0.917601 0.998742 0.969059
0.863132 0.936718 0.969372 0.950556
0.997605 0.971032 1.02763 0.999739
0.823269 0.918026 0.933909 0.960246
0.788347 0.894339 0.927556 0.950331
0.685109 0.84014 0.875308 0.931638
0.822052 0.901183 0.961333 0.948883
0.946788 0.946407 1.00609 0.994345
0.920987 0.933385 1.02234 0.96516
1.0213 0.996514 1.02571 0.999188
1.02563 0.984022 1.04277 0.999534
1.01367 0.972153 1.04314 0.999582
1.00343 1 1.00517 0.998269
1.03958 0.999246 1.04131 0.999091
1.05056 0.996567 1.05482 0.999396
1.01809 0.998543 1.02055 0.999045
1.03554 0.992658 1.04373 0.999488
1.01007 0.987687 1.02345 0.999235
1.00748 0.999713 1.00888 0.998903
1.00144 1 1.00301 0.998432
1.00519 1 1.00638 0.998816
1.01139 0.999644 1.01366 0.998117
0.999028 1 1 0.999028
0.999983 1.0003 1.00201 0.997671
1.00266 1.0012 1.00531 0.996167
1.00514 1.00746 1.0019 0.995799
1.00025 1.00211 1.0004 0.997738
0.999711 1.00215 1.00122 0.996346
1.01547 1.01845 1.00053 0.996547
1.00917 1.00945 1.00261 0.997115
1.01323 1.01545 1.00125 0.996558
1.0076 1.00013 1.00962 0.997866
1.00555 1.00455 1.00335 0.997653
0.999176 1.00096 1.00128 0.99694
1.00643 1 1.00798 0.998458
1.00899 1 1.01093 0.998083
1.00547 1.0013 1.00613 0.99805
1.00704 1 1.0087 0.99835
1.00181 1 1.00315 0.998661
0.999631 1 1.00031 0.999318
0.999652 1 1.00084 0.998809
0.999467 1 1.00002 0.999445
0.999969 1 1 0.999969
0.999514 1 1 0.999514
0.999975 1 1 0.999975
1 1 1 1
0.999979 1 1 0.999979
1 1 1 1
1 1 1 1
0.998747 1 1 0.998747
0.999487 1 1 0.999487
0.998884 1 1 0.998884
1 1 1 1
0.999629 1 1 0.999629
0.999092 1 1 0.999092
1 1 1 1
1 1 1 1
0.999743 1 1 0.999743
1 1 1 1
1 1 1 1
1 1 1 1
0.802693 0.897273 0.932876 0.958961
0.814399 0.912438 0.939123 0.95041
0.704973 0.812551 0.921541 0.941472
0.998413 1 1 0.998413
0.998337 1 1 0.998337
0.9983 1 1 0.9983
0.812431 0.927406 0.922937 0.949171
0.787602 0.897456 0.923652 0.950135
0.785646 0.898428 0.928044 0.94227
0.922307 0.975765 0.956845 0.987845
0.854345 0.920047 0.959801 0.96748
0.750782 0.841585 0.936317 0.952781
0.753862 0.902969 0.895828 0.931954
0.873902 0.931308 0.952283 0.985379
0.875689 0.91604 0.986796 0.968742
0.804788 0.881589 0.960681 0.950247
0.782532 0.931964 0.894884 0.938289
0.876648 0.922561 0.966631 0.983036
0.892162 0.921489 0.998181 0.969939
0.858516 0.929684 0.970705 0.951318
0.756496 0.905257 0.89321 0.935581
0.998733 1 1.00064 0.998091
1.0017 1 1.00376 0.997953
1.00291 1 1.00481 0.998114
0.998179 1 1.00001 0.998168
0.998568 1 1.00034 0.99823
0.998504 1 1 0.998504
0.955352 0.976652 0.979671 0.998489
0.972762 0.986224 0.987024 0.999317
1.00577 1 1.00784 0.997947
1.02091 1.00046 1.02201 0.998466
1.0186 1 1.02057 0.998075
1.00942 1 1.01135 0.998098
1.01634 0.998345 1.0198 0.998259
0.951783 0.962514 0.990728 0.998105
1.05011 0.996176 1.05553 0.998678
1.00582 0.978929 1.02813 0.999353
1.01099 0.997425 1.01521 0.998418
0.974308 0.957941 1.01933 0.997798
1.00894 0.975709 1.03474 0.999341
1.03605 0.984885 1.05323 0.998792
0.83643 0.923837 0.940459 0.962708
0.807433 0.897291 0.936182 0.961198
0.823781 0.91554 0.943795 0.953359
1.01085 0.99154 1.01986 0.999627
0.955985 0.949773 1.00855 0.998009
0.798964 0.896537 0.930604 0.957622
0.884055 0.905742 1.00297 0.973164
0.858055 0.934755 0.968114 0.94818
0.81291 0.921964 0.924452 0.953771
0.754206 0.902008 0.896937 0.932218
0.99326 0.968002 1.02632 0.999775
0.82396 0.917191 0.934745 0.961066
0.789813 0.897761 0.92564 0.950432
0.942341 0.941994 1.01002 0.990445
0.684199 0.841667 0.874835 0.929214
0.799993 0.879396 0.958209 0.949383
0.929788 0.939956 1.01945 0.970314
1.00235 0.956986 1.04873 0.998736
0.803526 0.896088 0.934913 0.95913
0.796962 0.905684 0.933152 0.942993
0.607928 0.751139 0.866898 0.933606
0.742635 0.851914 0.920282 0.947238
0.894096 0.91872 1.00416 0.969168
0.920571 0.93708 0.994778 0.98754
1.02589 0.984161 1.04292 0.999501
1.01848 0.979325 1.04042 0.999586
1.00983 0.982212 1.02863 0.999506
1.01229 0.998905 1.01439 0.999032
1.03212 0.993896 1.03899 0.999487
1.01375 0.985099 1.02979 0.999319
1.00772 0.998981 1.00997 0.998794
1.00803 1 1.00924 0.998794
1.00905 0.999853 1.01131 0.997914
1.02134 1.00087 1.02412 0.996421
0.997187 1.00005 0.999256 0.997877
1.00403 1.0014 1.00647 0.996181
1.00461 1.00252 1.00682 0.995291
1.00693 1.00967 1.00191 0.995392
1.00855 1.01134 1.00108 0.996164
1.00508 1.00733 1.00203 0.995745
1.00001 1.00263 1.00124 0.996151
1.0083 1.01036 1.0011 0.996865
1.01595 1.01889 1.00048 0.996634
1.00295 1.00089 1.00464 0.997438
1.01101 1.01109 1.00274 0.997189
1.01281 1.01502 1.00117 0.996655
1.00999 1 1.01186 0.998145
1.00736 1.00069 1.00882 0.997863
1.00814 1.00668 1.00383 0.997623
1.00043 1 1.00128 0.999153
1.00562 1 1.00718 0.998457
1.00796 1 1.00988 0.998104
1.00172 1 1.00306 0.99866
0.999768 1 1.00045 0.999314
0.999946 1 1 0.999946
0.999468 1 1.00003 0.99944
0.999964 1 1 0.999964
1 1 1 1
0.999974 1 1 0.999974
1 1 1 1
1 1 1 1
0.998705 1 1 0.998705
0.999462 1 1 0.999462
0.998776 1 1 0.998776
0.999997 1 1 0.999997
0.999531 1 1 0.999531
0.998932 1 1 0.998932
1 1 1 1
1 1 1 1
0.999612 1 1 0.999612
1 1 1 1
1 1 1 1
1 1 1 1
0.822266 0.91777 0.933252 0.960019
0.805689 0.898194 0.93542 0.958939
0.81621 0.911322 0.942336 0.950439
1.00149 1 1.00328 0.998215
1.00129 1 1.00321 0.998089
0.998451 1 1 0.998451
0.998323 1 1 0.998322
0.998296 1 1 0.998296
0.998881 1 1.0006 0.998279
0.998287 1 1 0.998287
0.786716 0.903819 0.918998 0.947156
0.815159 0.925707 0.925595 0.951366
0.786932 0.89561 0.924671 0.950235
0.781789 0.932401 0.893217 0.938707
0.87128 0.930201 0.952959 0.982894
0.875278 0.911881 0.990671 0.9689
0.813724 0.893872 0.956199 0.952036
0.865138 0.923637 0.953775 0.98206
0.892601 0.91468 1.0101 0.966107
0.861316 0.934483 0.968941 0.951248
0.743876 0.894043 0.886906 0.938133
0.897348 0.9298 0.979962 0.984832
0.907336 0.925086 1.01555 0.965795
0.79955 0.88766 0.950416 0.947731
0.702077 0.852743 0.883441 0.931942
1.01899 1 1.02062 0.998396
1.00032 1 1.00221 0.998114
1.00277 1 1.00486 0.997919
0.998157 1 1 0.998157
0.960543 0.963674 0.998516 0.998232
1.00757 0.976846 1.03225 0.999226
1.00881 1 1.01073 0.998102
1.01318 0.998082 1.01686 0.998291
1.04133 0.992955 1.04995 0.998821
1.01015 0.999145 1.01261 0.998421
1.03826 0.984838 1.05554 0.998779
0.974196 0.957614 1.02099 0.996405
1.00743 0.966518 1.04286 0.999493
1.01204 0.986678 1.02682 0.998906
0.953835 0.928959 1.03098 0.995929
1.00882 0.961541 1.04991 0.999294
0.806618 0.895951 0.93699 0.960834
0.834366 0.922694 0.938021 0.96402
0.80981 0.898036 0.937683 0.961685
0.988907 0.963476 1.0266 0.999805
0.948252 0.946173 1.00753 0.994711
0.822625 0.915514 0.934134 0.961896
0.929808 0.94375 1.02004 0.965872
0.804459 0.886932 0.953483 0.951263
0.791601 0.90005 0.925287 0.950524
0.679309 0.828482 0.880788 0.930921
1.0034 0.959572 1.0468 0.998928
0.805279 0.899431 0.933489 0.959112
0.790712 0.900583 0.931222 0.942847
0.922865 0.937326 0.994409 0.990107
0.611952 0.76402 0.862278 0.928893
0.745868 0.847395 0.928992 0.947467
0.892836 0.91608 1.00848 0.966431
0.994321 0.965152 1.03321 0.997106
0.813849 0.915336 0.935223 0.95071
0.670503 0.795558 0.901919 0.934462
0.715979 0.832883 0.901425 0.953645
0.85645 0.896691 0.984839 0.969826
0.882147 0.914856 0.980325 0.983599
1.02502 0.983677 1.04246 0.99959
1.01227 0.979881 1.03357 0.999508
0.982581 0.977287 1.00612 0.999297
1.01881 0.983151 1.03689 0.999402
1.00521 0.991344 1.01512 0.998888
1.00212 1.0008 1.00359 0.997739
1.00684 1.00003 1.00913 0.997711
1.01924 1.00081 1.02219 0.9963
1.01036 1.00059 1.01439 0.995433
1.00585 1.00186 1.00782 0.996194
1.00535 1.00229 1.00789 0.9952
1.00183 1.00237 1.00448 0.995002
1.02493 1.02948 1 0.995581
1.01557 1.01918 1.00077 0.995694
1.00729 1.00981 1.00218 0.995334
1.00701 1.01046 1.00013 0.996467
1.00731 1.01037 1.00074 0.996228
1.00513 1.00714 1.00232 0.995691
1.00578 1.00775 1.00112 0.996931
1.00796 1.01007 1.00108 0.996838
1.01616 1.01907 1.00043 0.99672
1.00609 1.00049 1.00787 0.997742
1.00386 1.00173 1.00463 0.997512
1.0126 1.01246 1.00288 0.997264
1.00436 1 1.00549 0.998875
1.00865 1 1.01052 0.998152
1.00718 1.00127 1.00806 0.997859
0.999905 1 1 0.999905
1.00113 1 1.00199 0.999146
1.00515 1 1.00671 0.998455
1.00006 1 1.00075 0.99931
0.999937 1 1 0.999937
1 1 1 1
0.999959 1 1 0.999959
1 1 1 1
1 1 1 1
1.00431 1 1.00611 0.998208
0.999528 1 1.00098 0.998547
0.99933 1 1 0.99933
0.998701 1 1 0.998701
0.999982 1 1 0.999982
0.999464 1 1 0.999464
0.998804 1 1 0.998804
1 1 1 1
0.999998 1 1 0.999998
0.999574 1 1 0.999574
1 1 1 1
1 1 1 1
1 1 1 1
0.796237 0.894585 0.929503 0.957569
0.81989 0.915038 0.932519 0.960857
0.806499 0.900809 0.933669 0.95891
1.00233 1 1.00411 0.998226
1.00319 1 1.0051 0.998095
1.00054 1 1.00243 0.998108
1.00403 1 1.00593 0.998105
1.00764 1 1.0096 0.998064
0.998864 1 1.00056 0.998308
0.998292 1 1 0.998292
0.99885 1 1.00057 0.998282
0.998293 1 1 0.998293
1.01173 1 1.0134 0.998355
0.783028 0.891563 0.931268 0.943084
0.786632 0.902227 0.920392 0.94729
0.816557 0.925087 0.92568 0.953549
0.745972 0.895878 0.887362 0.938367
0.859186 0.933417 0.970377 0.948574
0.860136 0.919337 0.954083 0.980632
0.900729 0.922164 1.00745 0.969529
0.891378 0.932229 0.974076 0.981628
0.916121 0.936258 1.00915 0.96962
0.814068 0.891761 0.9611 0.949826
0.702392 0.859751 0.877674 0.930837
0.907056 0.923546 0.998084 0.984031
0.898763 0.916635 1.01054 0.970272
0.729922 0.825824 0.928054 0.952392
0.643931 0.79527 0.867758 0.933096
1.0189 1 1.01995 0.998971
1.02051 1 1.02213 0.99841
1.00313 1 1.005 0.998138
0.9755 0.959355 1.02199 0.99495
1.00935 0.960184 1.05157 0.999652
1.01041 1 1.012 0.998422
1.04236 0.984294 1.0603 0.998767
1.01422 0.990229 1.02534 0.998912
1.01505 0.969298 1.04795 0.999283
0.958581 0.938245 1.02591 0.995872
1.01636 0.991526 1.02572 0.999345
0.969649 0.955563 1.01832 0.996487
0.823951 0.915206 0.944383 0.953311
0.810406 0.898255 0.938506 0.961317
0.831992 0.921198 0.935591 0.965339
1.00457 0.966133 1.04073 0.999092
0.918003 0.933793 0.997272 0.985781
0.809649 0.902712 0.935168 0.959087
0.895643 0.922402 1.00429 0.96684
0.739542 0.831299 0.934176 0.952307
0.783539 0.895542 0.928083 0.942732
0.617654 0.777855 0.859281 0.924083
0.991792 0.963372 1.03224 0.997344
0.814252 0.911973 0.939156 0.950691
0.667612 0.794578 0.90048 0.933068
0.892627 0.925282 0.979296 0.985104
0.729402 0.84005 0.912393 0.951655
0.852739 0.904969 0.974036 0.967402
0.950239 0.949249 1.00549 0.995577
0.704718 0.813735 0.92209 0.939201
0.725143 0.833992 0.91113 0.954292
0.867302 0.924412 0.969539 0.967696
0.860319 0.914198 0.954452 0.985973
1.01133 0.977057 1.03559 0.999511
0.984773 0.973973 1.01182 0.999272
0.99458 0.991465 1.00471 0.998436
1.00122 0.981937 1.02068 0.998979
1.002 1.00072 1.00346 0.997827
0.998042 1.00216 0.999119 0.996771
1.01708 1.00071 1.02025 0.996177
1.00909 1.00098 1.01272 0.995436
0.999177 1.00211 1.00137 0.995709
1.00554 1.002 1.00847 0.995109
1.00207 1.00335 1.0037 0.995037
1.02231 1.02662 1 0.995808
1.04766 1.05164 1 0.996214
1.03529 1.03977 1.00002 0.99567
1.02511 1.02963 1 0.995611
1.01877 1.02288 1 0.995983
1.01421 1.01755 1.00107 0.995639
1.00807 1.01039 1.00244 0.995277
1.0113 1.01473 1 0.996621
1.00532 1.00879 1.00002 0.996541
1.00583 1.00926 1.00032 0.996292
1.00225 1.00286 1.00208 0.99732
1.00448 1.00623 1.0013 0.996971
1.0079 1.01002 1.0011 0.996811
1.00873 1 1.01033 0.998418
1.00708 1.001 1.00835 0.997745
1.00482 1.00244 1.0048 0.997585
1.00005 1 1.00022 0.999835
1.00464 1 1.00577 0.998868
1.00791 1 1.00977 0.998158
0.999992 1 1 0.999992
0.999892 1 1 0.999892
1.00173 1 1.00259 0.99914
0.999928 1 1 0.999928
1 1 1 1
1 1 1 1
1.00586 1 1.00778 0.998091
1.00227 1 1.00389 0.998384
1.00525 1 1.00708 0.998187
0.999587 1 1.0004 0.999189
0.999713 1 1.00117 0.998544
0.999956 1 1 0.999956
0.999335 1 1 0.999335
0.998697 1 1 0.998697
1 1 1 1
0.999987 1 1 0.999987
0.999467 1 1 0.999467
1 1 1 1
1 1 1 1
1 1 1 1
0.810066 0.908435 0.935149 0.953556
0.799837 0.897348 0.930852 0.957546
0.820265 0.912063 0.935171 0.961697
0.999293 1.00081 1.00039 0.998099
1.0022 1 1.00397 0.998237
1.00235 1 1.00425 0.998102
1.00135 1 1.00326 0.998092
1.00053 1 1.0024 0.998133
1.00446 1 1.0063 0.998178
1.01241 1 1.01474 0.99771
1.01628 1 1.01817 0.998147
0.998558 1 1.00027 0.998285
0.998299 1 1 0.998299
1.01225 1 1.01393 0.998338
1.02649 0.999904 1.02808 0.998549
0.680914 0.802282 0.908341 0.934365
0.794742 0.902893 0.933608 0.942813
0.7875 0.901983 0.921557 0.947392
0.697792 0.853997 0.874895 0.933929
0.812961 0.892749 0.959752 0.948814
0.910697 0.929247 1.01467 0.965873
0.891701 0.924562 0.98177 0.982365
0.905638 0.923807 0.994219 0.986032
0.63154 0.787353 0.863923 0.928445
0.89203 0.916297 1.00684 0.966905
0.744948 0.84434 0.929577 0.949125
0.905998 0.93286 0.9836 0.987398
0.879921 0.915798 0.988971 0.97154
0.715904 0.832227 0.903368 0.952243
0.994103 1 0.994565 0.999536
1.01794 1 1.01899 0.998976
1.02102 1 1.02264 0.998422
0.958327 0.940447 1.02321 0.995898
1.02179 0.977434 1.04614 0.999273
1.01589 0.994419 1.0227 0.998919
1.01525 0.991403 1.02473 0.999344
0.966064 0.95428 1.01587 0.996532
0.991092 0.985059 1.00846 0.997681
0.738197 0.83033 0.944603 0.941179
0.820897 0.914288 0.939911 0.955254
0.811042 0.899555 0.937427 0.961786
0.992892 0.962672 1.03397 0.997502
0.882667 0.921345 0.97164 0.985983
0.812587 0.908784 0.940495 0.950719
0.861709 0.898155 0.990816 0.968314
0.734307 0.855117 0.905429 0.948414
0.67535 0.804468 0.897255 0.935631
0.950724 0.94596 1.00943 0.995647
0.705256 0.813589 0.920431 0.941782
0.722564 0.835703 0.909132 0.951036
0.858666 0.915521 0.954544 0.982563
0.875478 0.932006 0.967051 0.971353
0.945559 0.961118 0.985902 0.99788
0.745394 0.846799 0.925848 0.950749
0.909897 0.970397 0.96363 0.973044
0.865753 0.927395 0.950346 0.982308
0.988278 0.972215 1.01728 0.999253
0.98589 0.991313 0.996001 0.998523
0.994908 1.00102 0.996362 0.997521
1.0023 1.00077 1.00362 0.997914
1.00107 1.00251 1.00182 0.996746
1.00064 1.00452 0.999428 0.996712
1.00792 1.00139 1.01113 0.995438
0.99911 1.00174 1.00167 0.995716
1.02596 1.03101 0.99843 0.996667
1.00235 1.00411 1.00319 0.995072
1.02102 1.02531 1 0.995819
1.04819 1.05239 0.999169 0.996833
1.04995 1.05353 0.999705 0.996897
1.0497 1.05378 1 0.996129
1.04817 1.05211 1 0.996261
1.03706 1.04133 1 0.995896
1.03354 1.03797 1 0.995733
1.02462 1.02911 1 0.995641
1.02583 1.02963 1 0.996312
1.01913 1.02308 1.00014 0.996008
1.01293 1.01592 1.00148 0.995583
1.00708 1.01016 1 0.996958
1.01083 1.01426 1 0.996617
1.00352 1.00692 1 0.996616
1.00353 1.00035 1.00522 0.997962
1.0043 1.00465 1.00234 0.997315
1.00275 1.00431 1.00145 0.997011
1.00135 1 1.00167 0.999676
1.00663 1.00005 1.00818 0.998415
1.00719 1.00155 1.0079 0.997747
1 1 1 1
1.00045 1 1.00064 0.999808
1.00434 1 1.00548 0.99886
1 1 1 1
0.999879 1 1 0.999879
1 1 1 1
1.00046 1.00067 1.00185 0.997951
1.0048 1.00002 1.00671 0.998074
1.00591 1 1.00769 0.998232
1.00095 1 1.00191 0.999039
1.00304 1 1.00467 0.998381
1.00636 1 1.00821 0.998166
0.999917 1 1 0.999917
0.999335 1 1.00014 0.999194
0.99952 1 1.00098 0.998541
1 1 1 1
0.999964 1 1 0.999964
0.999339 1 1 0.999339
1 1 1 1
0.999992 1 1 0.999992
1 1 1 1
0.711032 0.815409 0.931351 0.936268
0.812067 0.910353 0.935457 0.953583
0.803676 0.900375 0.932195 0.957527
1.00158 1.00031 1.0032 0.998076
1.00586 1.00313 1.00502 0.997721
1.00976 1.00035 1.01153 0.997901
1.0027 1 1.00463 0.998078
1.0003 1.00005 1.00209 0.998157
1.00496 1 1.00668 0.998291
1.01555 1 1.01748 0.998101
1.01221 1.00016 1.0143 0.997783
1.01574 1.00104 1.01702 0.997697
0.985216 1.00117 0.985077 0.998968
1.01093 1 1.01263 0.998321
1.02222 0.999932 1.0238 0.998528
0.72395 0.83231 0.91704 0.948495
0.664648 0.787483 0.905931 0.931657
0.802378 0.909298 0.936089 0.942662
0.619723 0.778625 0.861703 0.923659
0.748815 0.848938 0.925923 0.95263
0.879876 0.910516 0.99754 0.968731
0.911368 0.929091 0.997522 0.983362
0.893807 0.924363 0.981615 0.985055
0.719269 0.827182 0.914576 0.950759
0.861518 0.90571 0.982292 0.968355
0.879765 0.929925 0.959043 0.986463
0.857533 0.928746 0.953614 0.968236
1.00184 1 1.00283 0.999021
0.995212 1 0.995727 0.999482
1.01713 1 1.01817 0.998981
0.961608 0.952347 1.01319 0.996582
1.01381 0.990477 1.02423 0.999344
0.992298 0.986799 1.00797 0.997625
0.977991 0.990641 0.990536 0.996663
0.759963 0.862965 0.922113 0.955026
0.737062 0.828401 0.944783 0.941739
0.822503 0.916034 0.938089 0.957154
0.953972 0.952744 1.0055 0.995817
0.861999 0.915146 0.958166 0.98305
0.706452 0.813998 0.921403 0.94191
0.851787 0.920341 0.956246 0.96786
0.735423 0.841 0.916179 0.954467
0.948351 0.963671 0.987315 0.996746
0.755638 0.856745 0.925453 0.953033
0.903167 0.968899 0.962415 0.968561
0.868531 0.929717 0.948481 0.984931
0.957706 0.983369 0.976108 0.997741
0.916601 0.978934 0.962938 0.972363
0.913996 0.972622 0.951684 0.987433
0.976755 0.990225 0.987785 0.998594
0.990859 1.00142 0.991942 0.997492
0.982119 1.00809 0.976814 0.997365
1.00294 1.00284 1.0034 0.996722
1.00001 1.00468 0.998648 0.996706
1.02417 1.03882 0.988493 0.997377
0.998934 1.00136 1.00186 0.995724
1.02461 1.0306 0.997529 0.996646
1.0406 1.05364 0.990171 0.997429
1.02015 1.02442 1 0.99583
1.047 1.05191 0.998498 0.996826
1.04626 1.05426 0.995003 0.997402
1.04593 1.05063 0.998245 0.997281
1.05081 1.0546 0.999431 0.996971
1.04866 1.05208 1 0.996747
1.05116 1.05518 1 0.996193
1.04974 1.05379 1 0.996149
1.04912 1.05301 1 0.996307
1.03903 1.04307 1 0.996133
1.03878 1.04303 1 0.995926
1.03185 1.0362 1 0.995796
1.02055 1.02398 1 0.996653
1.02537 1.02917 1 0.996309
1.01941 1.02329 1.00017 0.996034
0.999593 1.00168 1.00026 0.997654
1.00864 1.01172 1 0.996954
1.01119 1.01462 1 0.996612
1.002 1 1.00259 0.999414
1.00359 1.0007 1.00493 0.997963
1.00699 1.00668 1.003 0.99731
1 1 1 1
1.00202 1 1.00237 0.999651
1.00558 1.0001 1.00707 0.998412
0.999991 1 1 0.999991
1.00106 1 1.00126 0.999794
1 1 1 1
0.999557 1.00172 1 0.997839
1.00126 1.0004 1.00289 0.99797
1.005 1 1.00693 0.998084
1.00297 1 1.00492 0.998056
1.00622 1 1.008 0.998233
1.00337 1 1.00452 0.998861
0.999865 1 1 0.999865
1.00045 1 1.00141 0.999041
1.00408 1 1.00571 0.998379
1 1 1 1
0.999929 1 1 0.999929
0.999199 1 1 0.999199
1 1 1 1
0.999972 1 1 0.999972
1 1 1 1
0.752484 0.851262 0.927689 0.952865
0.713541 0.816915 0.932075 0.937111
0.812329 0.911072 0.934998 0.953605
1.0041 1 1.00606 0.998053
1.01192 1 1.01422 0.997732
1.00349 1.00203 1.00367 0.997795
1.0044 1.00657 1.00099 0.99686
1.01195 1.00141 1.0128 0.997755
1.01403 1 1.01601 0.998058
1.01033 1 1.0125 0.997856
1.01794 1.00087 1.0193 0.997789
0.99935 1.00294 0.99894 0.997475
0.976441 1.00169 0.976241 0.998523
0.973835 1.00035 0.975743 0.997695
0.985237 1.00088 0.985352 0.999004
1.01682 1 1.01834 0.998508
0.892512 0.959323 0.958121 0.971022
0.718981 0.827458 0.914728 0.949903
0.662524 0.786601 0.903065 0.932671
0.716602 0.831579 0.90952 0.947463
0.87153 0.91629 0.981994 0.968592
0.898058 0.920524 0.987973 0.987469
0.880455 0.928639 0.959426 0.988209
0.882525 0.936016 0.969632 0.972383
0.905952 0.965802 0.950064 0.987334
0.993726 1.00132 0.994189 0.998218
1.00046 1 1.00147 0.998999
0.996514 1 0.997084 0.999428
0.994721 0.989933 1.00724 0.997612
0.983362 0.993371 0.992961 0.996941
0.892991 0.966161 0.951696 0.971179
0.765783 0.86144 0.930437 0.955418
0.734751 0.82476 0.945378 0.942339
0.952477 0.968936 0.987413 0.995545
0.874832 0.937515 0.949762 0.982498
0.751656 0.853137 0.924995 0.952492
0.894098 0.956858 0.960918 0.972414
0.964468 0.983013 0.983272 0.997827
0.925998 0.989322 0.961866 0.973102
0.911522 0.968643 0.955515 0.984841
0.972579 1.0036 0.971798 0.997215
0.944586 0.993017 0.959588 0.991288
0.991046 1.00363 0.989944 0.997488
0.980536 1.00781 0.975551 0.997318
0.994951 1.03692 0.961767 0.997671
0.99932 1.00451 0.998123 0.996701
1.02581 1.0398 0.989173 0.997348
1.03745 1.0614 0.97967 0.997717
1.0231 1.03013 0.996537 0.996626
1.04031 1.0538 0.989763 0.997405
1.03461 1.05302 0.984838 0.997645
1.04543 1.0511 0.997778 0.996819
1.04606 1.05446 0.994643 0.997381
1.04325 1.05372 0.99256 0.997482
1.04584 1.05096 0.99779 0.997337
1.04457 1.04881 0.998857 0.997092
1.05137 1.0554 0.999126 0.997044
1.04847 1.0519 1 0.996738
1.05025 1.05391 1 0.996532
1.04832 1.0523 1 0.996216
1.05093 1.05496 1 0.996181
1.04972 1.05376 1 0.996169
1.03435 1.03804 1 0.996446
1.03893 1.04296 1 0.996139
1.04066 1.04489 1 0.995956
1.00413 1.00673 1 0.997418
1.01968 1.02311 1 0.996652
1.02465 1.02845 1 0.996306
1.00033 1 1.00122 0.99912
1.00117 1.003 1.00052 0.997655
1.00975 1.01284 1 0.996951
1 1 1 1
1.00169 1 1.0023 0.999388
1.00314 1.00102 1.00416 0.997963
1 1 1 1
1.00236 1 1.00274 0.999625
1 1 1 1
1.00698 1.01001 1 0.997003
0.999978 1.00216 1 0.997824
1.00073 1.00062 1.00226 0.997856
1.00259 1 1.00461 0.997989
1.00435 1 1.00631 0.998048
1.00514 1 1.00653 0.998615
1.0072 1 1.00898 0.998234
1.00329 1 1.00444 0.998861
1.00045 1 1.00065 0.999791
1 1 1 1
0.999878 1 1 0.999878
0.999819 1 1.00078 0.999043
1 1 1 1
0.99994 1 1 0.99994
1 1 1 1
0.915805 0.979213 0.959846 0.97437
0.754846 0.858581 0.921778 0.953785
0.71664 0.819045 0.935256 0.93554
1.01376 1 1.01623 0.997563
1.00147 1.00161 1.00199 0.99787
1.01015 1.00161 1.01085 0.997698
1.00538 1.00726 1.00118 0.996951
1.01741 1.02081 1.00016 0.996505
1.00008 1.00278 1 0.997308
1.02152 1.00115 1.02252 0.997879
1.00042 1.0036 0.999546 0.99728
0.982712 1.00222 0.982 0.998506
0.995514 1.00215 0.995845 0.997524
0.971887 1.00345 0.970736 0.997744
0.994333 1.00146 0.99561 0.997261
0.975974 1.00082 0.977312 0.997814
0.989461 1.00068 0.989734 0.999041
0.915374 0.973931 0.951953 0.987314
0.900284 0.966779 0.959027 0.971005
0.726218 0.82862 0.918876 0.953794
0.876845 0.934576 0.969538 0.967706
0.889217 0.930002 0.966569 0.989216
0.907578 0.959912 0.954126 0.99094
0.979986 1.00377 0.978977 0.997273
0.991603 1.00066 0.992766 0.998171
0.998883 0.999978 0.999927 0.998978
0.984862 0.995141 0.99245 0.9972
0.931525 0.973292 0.968998 0.987707
0.90821 0.973399 0.956545 0.975417
0.754241 0.8558 0.925484 0.95229
0.963268 0.978863 0.986129 0.99791
0.91695 0.974812 0.953479 0.986538
0.928216 0.986711 0.966088 0.973738
0.965886 1.00181 0.966776 0.997277
0.944015 0.988999 0.963695 0.990474
0.967013 1.02464 0.946292 0.99732
0.987683 1.01743 0.974577 0.996082
0.97778 1.00755 0.97312 0.997264
0.992408 1.03492 0.961167 0.997667
1.00576 1.06167 0.949559 0.997669
1.02804 1.04135 0.989874 0.997319
1.03704 1.06112 0.979566 0.997697
1.03484 1.05823 0.980258 0.997596
1.0405 1.05423 0.989563 0.99738
1.0349 1.05248 0.985632 0.997626
1.0444 1.05977 0.988016 0.997449
1.04615 1.05481 0.994413 0.997359
1.0414 1.05146 0.992933 0.997475
1.04489 1.05286 0.99521 0.997203
1.04596 1.05144 0.99739 0.997392
1.04488 1.04905 0.998885 0.997138
1.04895 1.05248 0.999883 0.996761
1.0484 1.05184 1 0.99673
1.05035 1.05402 1 0.996521
1.05003 1.0538 1 0.996421
1.04152 1.04531 1 0.996376
1.04855 1.05254 1 0.996212
1.05065 1.05469 1 0.996169
1.0128 1.01563 1 0.997214
1.03311 1.03679 1 0.996451
1.03877 1.04279 1 0.996145
0.999141 1 1.00026 0.998882
1.0064 1.009 1.00001 0.997416
1.01869 1.02211 1 0.996651
1 1 1 1
0.999988 1 1.00089 0.999103
1.00275 1.00433 1.00078 0.997655
1 1 1 1
1.00155 1 1.00219 0.999364
1 1 1 1
1.01876 1.02224 1 0.996595
1.00908 1.01208 1 0.997034
1.00654 1.00856 1.00066 0.997335
0.999576 1.00177 1 0.99781
1.00024 1.00024 1.0022 0.997808
1.00332 1.0006 1.00444 0.998291
1.00368 1 1.00568 0.998013
1.00558 1 1.00697 0.998617
1.0021 1 1.00242 0.999685
1.00364 1 1.00479 0.998861
1.0003 1 1.0005 0.999802
1 1 1 1
1 1 1 1
0.999891 1 1 0.999891
1 1 1 1
0.921472 0.974436 0.957043 0.988093
0.906228 0.978266 0.954435 0.970587
0.749461 0.851451 0.921156 0.955555
1.03451 1.03822 1.00007 0.99636
1.0083 1.00142 1.00925 0.997643
1.0065 1.00812 1.00136 0.997043
1.00039 1.0031 1 0.997301
1.01623 1.01939 1.00042 0.996486
1.00491 1.00785 0.999828 0.997262
1.00021 1.00314 1 0.997086
0.984305 1.00196 0.983867 0.998488
0.993557 1.00261 0.993418 0.997536
0.965423 1.00246 0.965362 0.997612
1.00612 1.01335 0.995994 0.996851
0.997365 1.00706 0.993046 0.997309
0.994802 1.00207 0.995503 0.99723
0.977113 1.00134 0.977831 0.997932
0.977657 1.00613 0.97387 0.997776
0.909662 0.970465 0.9507 0.985954
0.89953 0.968155 0.956479 0.971394
0.902609 0.95326 0.957732 0.988654
0.982979 1.00513 0.97986 0.998066
0.991494 1.0002 0.993167 0.998115
0.980685 1.00694 0.978247 0.995587
0.916453 0.957881 0.967244 0.989151
0.895729 0.970405 0.950312 0.97131
0.963622 0.999594 0.966588 0.997337
0.951729 0.991066 0.970575 0.989421
0.97097 1.0261 0.948701 0.997444
0.990977 1.01732 0.977655 0.996372
0.992266 1.04264 0.954074 0.9975
1.04585 1.0648 0.984804 0.997358
0.98921 1.03234 0.96047 0.997661
1.01064 1.06305 0.952942 0.997652
1.02488 1.07098 0.9594 0.99745
1.03593 1.06035 0.979245 0.997676
1.03231 1.05663 0.979346 0.997592
1.04444 1.06687 0.981602 0.997331
1.03484 1.05177 0.986257 0.997607
1.04263 1.05833 0.987666 0.997462
1.04693 1.05879 0.991617 0.997153
1.0394 1.04915 0.993222 0.997467
1.04536 1.05332 0.995231 0.997201
1.05092 1.05572 0.998578 0.996877
1.04513 1.04922 0.99891 0.997184
1.04938 1.05286 0.999894 0.996806
1.05204 1.05573 1 0.996508
1.05045 1.05412 1 0.99651
1.04976 1.05355 1 0.996405
1.04394 1.04769 1 0.996419
1.01972 1.0227 1 0.997092
1.041 1.04477 1 0.996388
1.04875 1.05274 1 0.996209
0.99944 1.00071 1 0.998731
1.01399 1.01683 1 0.997213
1.03208 1.03575 1 0.996455
1 1 1 1
0.99914 1.00018 1.00009 0.998868
1.00894 1.01155 1 0.997415
1 1 1 1
0.999531 1 1.00045 0.999087
1 1 1 1
1.03346 1.03727 1 0.99632
1.02076 1.02425 1 0.996591
1.01746 1.0206 1 0.996926
1.01169 1.01466 1.00001 0.997065
1.00629 1.00843 1.00056 0.997327
1.00356 1.00344 1.00217 0.997954
0.999716 1 1.00196 0.997759
1.00384 1.00027 1.0053 0.998292
1.00196 1 1.00244 0.999527
1.00512 1 1.00651 0.998618
1.00119 1 1.0015 0.999696
1 1 1 1
0.999946 1 1.00013 0.999812
1 1 1 1
1 1 1 1
0.976173 1.01057 0.96842 0.997466
0.916148 0.971909 0.956528 0.985468
0.905006 0.969786 0.9574 0.974725
1.02488 1.02813 1.00001 0.996823
1.0444 1.04809 1 0.996476
1.03255 1.03611 1.00013 0.996435
1.00112 1.00383 1 0.997293
1.01496 1.01781 1.00073 0.996465
1.00647 1.0103 0.998962 0.997242
1.02555 1.03119 0.997718 0.996797
0.992958 1.00372 0.991714 0.997548
0.962496 1.00189 0.963109 0.997479
1.0073 1.01525 0.995204 0.996951
1.02367 1.03585 0.99152 0.996696
1.00119 1.02589 0.978354 0.997519
1.00129 1.00905 0.995037 0.997261
0.996023 1.00262 0.996207 0.997198
0.98193 1.00781 0.976232 0.998047
0.913915 0.973651 0.95342 0.984505
0.983243 1.00527 0.979178 0.998884
1.02548 1.05082 0.977891 0.997955
0.978765 1.00572 0.977384 0.99572
0.919967 0.968863 0.962159 0.986877
0.973946 1.02791 0.94982 0.997561
0.994259 1.01771 0.980214 0.996678
0.989015 1.0431 0.950376 0.997654
1.04489 1.06589 0.982877 0.997378
1.04103 1.07748 0.968722 0.997366
1.07761 1.09873 0.983227 0.997507
1.01542 1.0652 0.955532 0.997636
1.03076 1.07264 0.963407 0.99745
1.04776 1.0768 0.97572 0.997237
1.03001 1.05516 0.978521 0.997588
1.04415 1.06595 0.982162 0.997331
1.0476 1.06466 0.98682 0.997118
1.04094 1.05693 0.987362 0.997475
1.04752 1.05937 0.991641 0.997149
1.05161 1.05965 0.995511 0.996887
1.04583 1.05377 0.995252 0.997199
1.05134 1.0561 0.998614 0.996876
1.05534 1.059 0.999995 0.996551
1.04981 1.05323 0.999907 0.99685
1.05158 1.05525 1 0.996523
1.0473 1.05106 1 0.996417
1.04951 1.05332 1 0.99639
1.04388 1.04763 1 0.996419
1.02193 1.02497 1 0.99703
1.00121 1.00253 1 0.998679
1.0195 1.02247 1 0.997092
1.04067 1.04443 1 0.9964
1 1 1 1
0.999863 1.00115 1 0.998719
1.01504 1.01788 1 0.997213
1 1 1 1
0.999077 1.00022 1 0.998854
1 1 1 1
1.04192 1.04579 1 0.996301
1.03296 1.03678 1 0.996315
1.02727 1.03075 1 0.996628
1.02194 1.02544 1 0.996587
1.01675 1.01988 1 0.996932
1.00696 1.00897 1.00035 0.997662
1.00527 1.0075 1.00046 0.99732
1.00279 1.00227 1.00258 0.997956
1.00048 1 1.00119 0.999288
1.00519 1 1.0069 0.998294
1.00199 1 1.00245 0.999544
1 1 1 1
1.00085 1 1.00114 0.999708
1 1 1 1
1 1 1 1
1.00371 1.04202 0.965201 0.997956
0.973156 1.00952 0.967256 0.996612
0.917544 0.973895 0.955335 0.986186
1.03942 1.04298 0.999903 0.996683
1.02624 1.02931 1 0.997025
1.05925 1.06303 0.999872 0.996571
1.04491 1.04863 0.999996 0.996459
1.03067 1.03409 1.00018 0.996511
1.04962 1.05941 0.994165 0.996575
1.00808 1.01299 0.997929 0.997222
1.0257 1.03082 0.998293 0.996735
1.04349 1.06873 0.979459 0.996862
1.00685 1.01704 0.992913 0.997051
1.02448 1.03665 0.9916 0.996631
1.0021 1.02849 0.976727 0.997556
1.00254 1.00932 0.996054 0.99721
0.986845 1.00952 0.979208 0.998297
1.06376 1.08952 0.978757 0.997544
1.0291 1.05079 0.981341 0.997981
0.977535 1.0045 0.977209 0.99585
0.986526 1.04277 0.948145 0.997806
1.04261 1.06578 0.980817 0.997399
1.03616 1.07603 0.965468 0.997389
1.07998 1.10141 0.983008 0.997498
1.06522 1.091 0.978933 0.997384
1.03638 1.07394 0.967489 0.99745
1.04846 1.07611 0.976991 0.997247
1.04865 1.06984 0.982998 0.997148
1.04381 1.065 0.982722 0.997331
1.04767 1.0645 0.987051 0.997099
1.05034 1.062 0.992126 0.996874
1.04814 1.05997 0.991668 0.997146
1.05198 1.06 0.995541 0.996882
1.05833 1.06244 0.999553 0.996581
1.05176 1.05649 0.998647 0.996874
1.05527 1.05892 0.999996 0.996554
1.05181 1.05562 1 0.996392
1.05114 1.05479 1 0.996537
1.04722 1.05098 1 0.996423
1.02272 1.02583 1 0.996964
1.04377 1.04752 1 0.996419
1.02222 1.02526 1 0.997029
1.00266 1.00375 1 0.998914
0.999571 1 1 0.999571
1.00167 1.0029 1 0.998779
1.01895 1.02192 1 0.997092
1 1 1 1
1.00038 1.00168 1 0.998707
1 1 1 1
1.06443 1.06817 0.999834 0.996669
1.05082 1.05456 1 0.996449
1.0427 1.04656 1 0.99631
1.03512 1.03876 1 0.996497
1.03293 1.03676 1 0.99631
1.02839 1.03187 1 0.996624
1.01222 1.01484 1 0.997413
1.01672 1.01985 1 0.996939
1.00525 1.00712 1.00048 0.997664
0.999125 1 1.00012 0.999004
1.00188 1.0011 1.00282 0.997958
1.00083 1 1.00152 0.999308
1 1 1 1
1.00159 1 1.00203 0.999562
1 1 1 1
1 1 1 1
1.05465 1.08723 0.972668 0.99729
1.00865 1.04918 0.963291 0.998
0.969949 1.00962 0.964788 0.995772
1.05514 1.06179 0.997115 0.996606
1.03588 1.03938 0.999901 0.996732
1.0273 1.03016 1 0.997224
1.05762 1.06138 0.999874 0.996587
1.04544 1.04919 0.999983 0.996442
1.05657 1.07965 0.981728 0.996841
1.04614 1.0563 0.993824 0.996535
1.02568 1.03007 0.99907 0.996672
1.04133 1.06641 0.979558 0.996859
1.02832 1.03983 0.992341 0.996565
1.00711 1.03564 0.974793 0.9976
1.06504 1.08678 0.982471 0.997485
1.0668 1.09212 0.979186 0.99758
1.03209 1.05117 0.983815 0.998007
1.0329 1.07592 0.962502 0.99741
1.08353 1.10506 0.982984 0.99749
1.06546 1.09205 0.978202 0.99739
1.05524 1.0715 0.987538 0.99725
1.04918 1.07535 0.978347 0.997257
1.0491 1.0696 0.983655 0.997134
1.05211 1.06421 0.991693 0.996912
1.04777 1.06437 0.987283 0.997079
1.05108 1.06274 0.992133 0.996873
1.05973 1.06545 0.998029 0.996598
1.05235 1.06034 0.995574 0.996878
1.0583 1.06242 0.999541 0.996581
1.05503 1.05889 1 0.996359
1.05522 1.05887 0.999997 0.996557
1.05173 1.05553 1 0.996397
1.0239 1.02711 1 0.996875
1.04713 1.05089 1 0.996429
1.02355 1.02667 1 0.996964
1.00235 1.00342 1 0.998928
1.02257 1.02561 1 0.997028
1.00264 1.00374 1 0.998908
0.999597 1 1 0.999597
0.999795 1 1 0.999795
1.00229 1.00341 1 0.998888
1 1 1 1
1.0578 1.06407 0.99742 0.996678
1.05579 1.05947 1 0.996526
1.0632 1.06694 0.999701 0.996796
1.04599 1.04972 1 0.996453
1.05299 1.05676 1 0.996437
1.04351 1.04737 1 0.996319
1.03608 1.03973 1 0.996488
1.01761 1.02046 1 0.997208
1.02927 1.03276 1 0.996621
1.01054 1.01316 1 0.997414
0.999588 1.0008 1 0.998791
1.00341 1.00523 1.00052 0.997667
0.999425 1 1.0004 0.999022
1 1 1 1
1.00128 1 1.00195 0.999328
1 1 1 1
1 1 1 1
1.05573 1.08063 0.979721 0.997178
1.05053 1.08282 0.972824 0.997287
1.0118 1.05324 0.962547 0.998036
1.05548 1.07079 0.988902 0.996763
1.05217 1.05905 0.996886 0.996605
1.03268 1.0361 0.999918 0.996782
1.0558 1.05954 0.999868 0.996603
1.05499 1.07767 0.982074 0.996817
1.04255 1.05308 0.993487 0.996495
1.03447 1.05902 0.979901 0.996856
1.05939 1.07478 0.988335 0.997313
1.06329 1.08479 0.982693 0.997445
1.0694 1.09411 0.979749 0.997617
1.05393 1.06603 0.991473 0.997151
1.06504 1.09268 0.977247 0.997396
1.05512 1.07154 0.9874 0.997236
1.05406 1.06513 0.992568 0.997017
1.04958 1.06936 0.984338 0.99712
1.05215 1.0643 0.991643 0.996914
1.05994 1.06696 0.99679 0.996619
1.05179 1.06345 0.992145 0.996871
1.05915 1.06485 0.998045 0.996598
1.05626 1.06014 1 0.99634
1.05816 1.06229 0.999531 0.996581
1.05523 1.05909 1 0.996362
1.02459 1.02788 1 0.99679
1.05159 1.05539 1 0.996401
1.02471 1.02792 1 0.996876
1.0014 1.0025 1 0.998902
1.02444 1.02756 1 0.996964
1.00211 1.0032 1 0.998916
0.999601 1 1 0.999601
1.00259 1.00369 1 0.998906
0.999606 1 1 0.999606
1 1 1 1
1.05533 1.0646 0.99469 0.996584
1.05788 1.06208 0.999543 0.996501
1.05949 1.06576 0.99743 0.996675
1.05243 1.05613 1 0.996493
1.05717 1.06091 0.999911 0.996566
1.06217 1.06591 0.999565 0.996921
1.02442 1.02744 1 0.997053
1.04571 1.04944 1 0.996442
1.05528 1.05907 1 0.996425
1.03715 1.04082 1 0.996479
1.01757 1.02042 1 0.997209
1.00206 1.00337 1 0.998696
1.0093 1.01191 1 0.997415
0.99952 1.00071 1 0.998806
1 1 1 1
0.999708 1 1.00067 0.99904
1 1 1 1
1 1 1 1
1.05389 1.07042 0.987461 0.997054
1.05581 1.08102 0.979463 0.997159
1.04915 1.08149 0.972738 0.997284
1.055 1.07034 0.988856 0.99678
1.04886 1.05596 0.996664 0.996604
1.05457 1.0769 0.982419 0.996793
1.05582 1.06792 0.991502 0.99715
1.05952 1.07489 0.988357 0.997307
1.06168 1.083 0.982869 0.997405
1.0544 1.06625 0.991691 0.997172
1.05296 1.06272 0.993831 0.99697
1.05499 1.07161 0.987236 0.997222
1.05431 1.06507 0.992899 0.996977
1.05977 1.06728 0.996244 0.996707
1.05222 1.06443 0.991591 0.996917
1.05949 1.06656 0.996742 0.996621
1.05625 1.06013 1 0.996332
1.05874 1.06444 0.998045 0.996599
1.05725 1.06113 1 0.996342
1.02423 1.02759 1 0.996739
1.05548 1.05933 1 0.996365
1.02505 1.02835 1 0.996792
1.00032 1.00148 1 0.998846
1.02557 1.02878 1 0.996877
1.0011 1.00222 1 0.998884
0.999577 1 1 0.999577
1.00185 1.00294 1 0.998907
0.999621 1 1 0.999621
0.999611 1 1 0.999611
1.05509 1.06601 0.992892 0.996843
1.05898 1.06398 0.998866 0.996431
1.05536 1.06572 0.993648 0.996612
1.05562 1.05938 1 0.996448
1.05727 1.06138 0.999638 0.996488
1.06115 1.06742 0.997452 0.996673
1.02708 1.03022 1 0.996952
1.05231 1.05604 1 0.996473
1.05839 1.06216 0.999835 0.996606
1.00333 1.00466 1 0.99868
1.02411 1.02714 1 0.997054
1.04566 1.0494 1 0.996432
1.01681 1.01966 1 0.99721
1.00121 1.0025 1 0.998708
1 1 1 1
0.999203 1.00038 1 0.998822
1 1 1 1
1 1 1 1
1.05272 1.06493 0.991466 0.997043
1.05425 1.07059 0.987653 0.997045
1.05525 1.0807 0.979253 0.997141
1.05455 1.06993 0.988798 0.996796
1.05352 1.06153 0.995512 0.996928
1.05589 1.06798 0.991495 0.997161
1.05968 1.07499 0.988433 0.997301
1.05491 1.06648 0.991936 0.997192
1.05312 1.06303 0.993682 0.996979
1.05993 1.06633 0.997301 0.99669
1.0546 1.06503 0.993251 0.996938
1.06019 1.06718 0.996784 0.996655
1.05545 1.05976 0.99954 0.996396
1.05899 1.06609 0.996706 0.996624
1.05714 1.06103 1 0.996334
1.02255 1.02593 1 0.996704
1.05803 1.06192 1 0.996343
1.02401 1.02736 1 0.99674
0.99915 1.00057 1 0.998577
1.02565 1.02894 1 0.996793
0.999927 1.0012 1 0.998727
1 1 1 1
1.0008 1.00194 1 0.998868
0.999603 1 1 0.999603
0.999634 1 1 0.999634
1.0537 1.06262 0.994644 0.996937
1.05807 1.06434 0.997532 0.996566
1.05556 1.06566 0.993672 0.996834
1.05651 1.0604 1 0.996332
1.05806 1.06349 0.998448 0.99644
1.05543 1.06687 0.992617 0.996639
1.02658 1.02988 1 0.996794
1.05556 1.05932 1 0.996449
1.05666 1.06071 0.999712 0.996474
1.00249 1.00381 1 0.998687
1.02636 1.02953 1 0.996915
1.05202 1.05576 1 0.996452
1 1 1 1
1.00307 1.00438 1 0.998691
1.02365 1.02667 1 0.997056
1.00075 1.00203 1 0.998721
1 1 1 1
1 1 1 1
1.05192 1.05967 0.995742 0.996938
1.05309 1.06502 0.991723 0.99705
1.05456 1.07075 0.987803 0.997036
1.05956 1.06508 0.998173 0.99663
1.05296 1.06135 0.995141 0.99694
1.05596 1.06806 0.99148 0.997172
1.05323 1.06334 0.993486 0.996989
1.05955 1.06612 0.997144 0.996691
1.05436 1.05848 0.999656 0.996449
1.06053 1.06702 0.997306 0.996603
1.05586 1.05994 0.999766 0.996383
1.02064 1.02409 1 0.996637
1.05819 1.06208 1 0.996336
1.02205 1.02543 1 0.996705
0.998604 1.00006 1 0.998546
1.02386 1.02721 1 0.996741
0.998918 1.00034 1 0.998575
1 1 1 1
0.999426 1.00084 1 0.998588
0.999779 1 1 0.999779
0.999626 1 1 0.999626
1.05168 1.05924 0.995953 0.996896
1.05916 1.06444 0.998398 0.99664
1.05348 1.06226 0.994766 0.996945
1.05668 1.06058 1 0.996323
1.05908 1.06506 0.99783 0.996551
1.05599 1.06527 0.994444 0.996825
1.0251 1.02849 1 0.996709
1.05608 1.05996 1 0.996343
1.05712 1.06299 0.998019 0.996449
1.00089 1.00223 1 0.998664
1.02619 1.0295 1 0.996781
1.05549 1.05925 1 0.996449
1 1 1 1
1.00285 1.00416 1 0.998696
1.02589 1.0291 1 0.996878
1 1 1 1
1.0028 1.0041 1 0.998702
1 1 1 1
1.05881 1.06416 0.998299 0.996674
1.05153 1.05929 0.995735 0.996923
1.05339 1.06503 0.991993 0.997056
1.05371 1.05778 0.999699 0.996446
1.05892 1.06478 0.997842 0.996651
1.0524 1.06115 0.994783 0.996952
1.0592 1.0659 0.997011 0.996692
1.05417 1.05839 0.999553 0.99645
1.01951 1.02296 1 0.996633
1.05629 1.06014 1 0.996371
1.02047 1.0239 1 0.996655
0.998507 1 1 0.998507
1.02138 1.02475 1 0.996706
0.998544 1 1 0.998544
1 1 1 1
0.998681 1.00011 1 0.998573
1 1 1 1
0.999599 1 1 0.999599
1.0598 1.0649 0.998551 0.99665
1.05096 1.05909 0.995398 0.996916
1.0556 1.05945 1 0.996369
1.0596 1.0649 0.998373 0.996639
1.0533 1.06196 0.994878 0.996952
1.02267 1.02602 1 0.996732
1.05583 1.05974 1 0.996319
1.06011 1.06577 0.998143 0.996536
0.999399 1.00079 1 0.998611
1.02513 1.02849 1 0.996727
1.05551 1.05938 1 0.996353
1 1 1 1
1.00132 1.00266 1 0.99867
1.02586 1.02919 1 0.996769
1 1 1 1
1.00316 1.00446 1 0.998705
1 1 1 1
1.05379 1.05773 0.999803 0.99647
1.05868 1.06393 0.998392 0.996662
1.05116 1.05893 0.995739 0.996908
1.019 1.02242 1 0.996648
1.0535 1.05764 0.999632 0.996446
1.05825 1.06445 0.997489 0.996672
1.05397 1.05831 0.999454 0.99645
1.01963 1.02308 1 0.996631
0.998487 1 1 0.998487
1.02033 1.02374 1 0.996673
0.998504 1 1 0.998504
1 1 1 1
0.998542 1 1 0.998542
1 1 1 1
1 1 1 1
1.05491 1.05873 1 0.996394
1.05942 1.06477 0.998272 0.996697
1.05024 1.05894 0.994832 0.996937
1.02102 1.02436 1 0.996739
1.05521 1.05906 1 0.996365
1.06003 1.06537 0.998347 0.996638
0.998647 1.00008 1 0.998565
1.02308 1.02644 1 0.99673
1.05509 1.05899 1 0.996316
1 1 1 1
0.999847 1.00123 1 0.998614
1.0254 1.02874 1 0.996745
1 1 1 1
1.0017 1.00303 1 0.998675
1 1 1 1
1.01946 1.02283 1 0.996705
1.05349 1.05755 0.99971 0.996448
1.05854 1.06373 0.998465 0.99665
0.998509 1 1 0.998509
1.01917 1.02261 1 0.996645
1.05331 1.05752 0.999574 0.996446
1.01975 1.0232 1 0.996629
0.998487 1 1 0.998487
1 1 1 1
0.998502 1 1 0.998502
1 1 1 1
1 1 1 1
1.02013 1.02347 1 0.996733
1.05452 1.05842 0.999898 0.99642
1.05908 1.06463 0.998035 0.996744
0.998793 1 1 0.998793
1.02141 1.02476 1 0.996738
1.05484 1.05869 1 0.996362
1 1 1 1
0.998849 1.00028 1 0.998566
1.02338 1.02674 1 0.996727
1 1 1 1
1.00017 1.00155 1 0.998617
1 1 1 1
0.998496 1 1 0.998496
1.01962 1.023 1 0.996687
1.05323 1.0574 0.999627 0.996427
1 1 1 1
0.998508 1 1 0.998508
1.01935 1.02278 1 0.996642
0.998486 1 1 0.998486
1 1 1 1
1 1 1 1
0.998759 1 1 0.998759
1.0204 1.02375 1 0.996733
1.05408 1.05809 0.999765 0.996446
1 1 1 1
0.998547 1 1 0.998547
1.02174 1.02508 1 0.996736
1 1 1 1
0.999074 1.00051 1 0.998567
1 1 1 1
0.99956 1 1 0.99956
0.99864 1 1 0.99864
1.01974 1.02315 1 0.996669
1 1 1 1
0.998509 1 1 0.998509
1 1 1 1
0.999573 1 1 0.999573
0.998652 1 1 0.998652
1.02072 1.02407 1 0.996733
0.999783 1 1 0.999783
0.998602 1.00005 1 0.998548
1 1 1 1
1 1 1 1
0.998531 1 1 0.998531
1 1 1 1
0.999785 1 1 0.999785
0.998544 1 1 0.998544
1 1 1 1
1 1 1 1
1 1 1 1

VECTORS lamdaE float
1.00176 1.00004 0.993284
1.00133 1.0008 0.996628
1.00123 1.00027 0.993618
1.00178 1.00007 0.99318
1.00181 0.99993 0.993315
1.00174 1.00027 0.993063
1.00301 1.00051 0.990232
1.00135 1.00077 0.996591
1.00115 1.00011 0.997217
1.00065 1.0009 0.997226
1.00112 1.00109 0.99307
1.00293 1.00121 0.988621
1.00125 1.00001 0.993827
1.00107 0.999985 0.993957
1.00076 1.00052 0.993924
1.00143 1.00003 0.993551
1.00116 1.00066 0.993363
1.00138 0.999994 0.993667
1.00325 1.00035 0.990071
1.00127 1.00002 0.996854
1.00167 1.00012 0.993267
1.00183 0.99997 0.993231
1.0031 1.00016 0.990474
1.0031 1.00024 0.990382
1.00182 1.00049 0.992734
1.00292 1.00099 0.989888
1.00527 1.00104 0.985622
1.00136 1.00074 0.996581
1.00139 0.99999 0.995336
1.00103 1.00063 0.995294
1.00123 1.00087 0.996632
1.00283 1.00138 0.988641
1.00168 0.999779 0.993377
1.00146 1.00013 0.993469
1.00341 1.00009 0.990683
1.00015 1.00117 0.997483
1.00327 1.00068 0.99044
1.00254 1.002 0.988511
1.0049 1.00144 0.9851
1.00035 0.999874 0.997738
1.00129 0.999994 0.996828
1.0013 0.999981 0.995346
1.00119 0.99997 0.996909
1.00085 1.00001 0.994207
1.00295 0.999965 0.989957
1.00124 0.999943 0.99714
1.00343 1.00006 0.990755
1.00108 0.999962 0.993923
1.00097 1.00006 0.994006
1.00062 1.00106 0.993642
1.00347 1.00018 0.989926
1.00107 1.00005 0.995529
1.00129 1.00014 0.993637
1.00119 1.00099 0.993013
1.00146 0.999944 0.993596
1.00327 1.00012 0.990286
1.0032 1.00076 0.989734
1.0033 1.00014 0.990215
1.00527 1.00102 0.985668
1.00116 1 0.996907
1.00151 1.00009 0.993508
1.00266 0.999993 0.991773
1.00296 1.00019 0.99067
1.00314 1.00015 0.990411
1.00526 1.00014 0.986519
1.00525 1.00039 0.986222
1.00145 1.00058 0.992926
1.00265 1.0019 0.989449
1.00529 1.00149 0.98516
1.00527 1.00017 0.985756
1.0017 1.00001 0.99671
1.00111 1.00076 0.996836
1.00141 1.00054 0.996643
1.00273 1.00151 0.988649
1.00175 0.9999 0.996652
1.00158 1.00019 0.996731
1.00327 1.00003 0.989217
1.00042 1.00095 0.995643
1.00301 1.00068 0.988971
1.0024 1.0022 0.989515
1.00501 1.00131 0.985088
1.00064 1.00028 0.997348
1.00052 1.00235 0.99166
1.00343 1 0.989073
1.00331 1.00013 0.989136
1.00529 1.00043 0.985601
1.00175 1.00269 0.991031
1.00519 1.00097 0.985161
1.00397 1.00281 0.985346
1.00536 1.00145 0.984249
1.00015 0.999054 0.998149
1.00019 0.999603 0.997909
1.00163 0.999966 0.996648
1.00135 0.99999 0.996806
1.00123 0.999977 0.9969
1.00112 1 0.995511
1.00299 0.999954 0.990674
1.00145 0.999943 0.995262
1.00331 1.00008 0.990042
1.00119 0.999983 0.996928
1.00277 0.999831 0.990317
1.00322 1.00003 0.991066
1.00501 0.999245 0.987347
1.00343 1.00004 0.990682
1.00526 0.999498 0.986676
1.00122 0.999997 0.993898
1.00091 1.00011 0.994012
1.00057 1.00149 0.993286
1.00109 0.999906 0.993958
1.00344 1.00011 0.990097
1.00349 1.00005 0.990055
1.00347 1.00051 0.989589
1.00527 1.001 0.985711
1.00121 0.999982 0.996918
1.00113 1.00009 0.993872
1.00286 0.999946 0.990613
1.00312 1.00014 0.990478
1.00123 1.00105 0.994734
1.00301 1.00168 0.989534
1.00332 1.0001 0.990234
1.00525 0.999985 0.986723
1.00527 1.00148 0.985224
1.00526 1.00057 0.986094
1.00527 1.00017 0.985787
1.00275 0.99986 0.990348
1.00279 1.00007 0.990984
1.00492 0.999012 0.988274
1.00514 0.999605 0.987268
1.00525 1.00004 0.986614
1.00534 0.998249 0.98785
1.00071 1.0009 0.997087
1.00528 0.999384 0.986523
1.00204 1.00289 0.988283
1.00512 1.00179 0.98439
1.00527 1.00106 0.984962
1.00525 0.997893 0.987892
1.00112 1.00306 0.989844
1.00233 1.00439 0.986587
1.00176 0.999918 0.996672
1.00157 1.00024 0.996717
1.00329 1.00001 0.989199
1.00065 1.00061 0.997237
1.002 1.00251 0.98877
1.00304 1.00066 0.98899
1.00508 1.00121 0.98508
1.00047 1.00029 0.997492
1.00045 1.00245 0.991674
1.00345 1.00004 0.989865
1.00335 1.00019 0.989871
1.00529 1.00044 0.985574
1.00131 1.00286 0.989683
1.00521 1.00094 0.985147
1.00419 1.0024 0.985319
1.00535 1.00135 0.984433
1.00091 1.00263 0.990612
1.0003 1.00175 0.992709
1.00199 1.00462 0.987466
1.00529 1.00013 0.985926
1.00528 1.00069 0.985332
1.00529 0.999143 0.986851
1.00324 1.00337 0.985919
1.00532 1.00041 0.985568
1.00524 1.00217 0.983839
1.00532 1.00022 0.985376
1.00007 0.998493 0.998476
1.00007 0.998978 0.998285
1.0001 0.99947 0.998071
1.00082 1.00297 0.990541
1.00041 1.00075 0.997349
1.00175 0.999926 0.996632
1.00145 0.999984 0.99672
1.00315 1.00012 0.98939
1.00284 0.999965 0.990042
1.00122 0.999975 0.996879
1.00117 0.999974 0.996924
1.00276 0.999844 0.990307
1.00312 1.00004 0.990361
1.00499 0.999258 0.987348
1.00329 1.00008 0.989186
1.00524 0.999521 0.986666
1.00271 0.999825 0.990411
1.00497 0.999109 0.987556
1.0051 0.999352 0.987056
1.00532 0.996188 0.99006
1.00529 0.99982 0.986284
1.00536 0.997084 0.989086
1.00118 0.999982 0.996918
1.00073 1.00017 0.994235
1.00289 0.999937 0.989604
1.00329 1.00014 0.990283
1.00047 1.00165 0.99702
1.00344 1.00127 0.989624
1.00349 1.00006 0.990061
1.00526 0.999818 0.98693
1.00526 1.00073 0.985962
1.00524 1.00147 0.985292
1.00527 1.00017 0.985818
1.00273 0.999853 0.990352
1.00295 1.0001 0.990792
1.00496 0.998979 0.988009
1.00517 0.999786 0.987064
1.00086 1.00095 0.99696
1.00227 1.00263 0.989216
1.00496 1.00207 0.984687
1.00526 1.00009 0.986571
1.00535 0.997883 0.988261
1.00529 1.00095 0.98503
1.00528 0.999528 0.986471
1.00525 0.997923 0.987905
1.00116 1.003 0.989823
1.0024 1.00429 0.986584
1.00492 0.999159 0.987583
1.00501 0.999347 0.987817
1.00531 0.996913 0.98931
1.00536 0.997049 0.989027
1.0053 0.998557 0.987452
1.00525 0.995661 0.990398
1.00145 1.00313 0.989066
1.00525 0.996751 0.989074
1.0044 1.00266 0.984737
1.00533 1.0018 0.983958
1.00525 0.999472 0.986463
1.00523 0.996216 0.989732
1.00316 1.00372 0.985636
1.00163 1.00493 0.987423
1.00392 1.00237 0.986028
1.00332 1.00002 0.989166
1.00026 1.00011 0.997656
1.00034 1.0025 0.991688
1.00319 1.00018 0.98918
1.00528 1.00045 0.985546
1.00126 1.00301 0.989592
1.00442 1.00202 0.985292
1.00527 1.00091 0.985127
1.00535 1.00123 0.984617
1.00087 1.00273 0.990627
1.00016 1.00181 0.99274
1.00166 1.0047 0.987442
1.00528 1.00015 0.985897
1.00528 1.00069 0.985308
1.00529 0.999143 0.986831
1.00339 1.00318 0.985929
1.0053 1.00051 0.98547
1.00532 1.00212 0.983788
1.00533 0.999925 0.9856
1.00016 1.00099 0.993649
1.00282 1.00378 0.98663
1.00118 1.00478 0.988384
1.00314 1.00226 0.987473
1.0053 0.998409 0.987638
1.00529 0.999868 0.986087
1.00525 0.997015 0.98882
1.00484 1.00235 0.984275
1.00523 0.998615 0.98736
1.00535 1.00129 0.984639
1.00536 0.998919 0.986692
1.00022 1.00258 0.991962
1.00026 0.999682 0.99474
1.00007 0.997958 0.998691
1.00003 0.998383 0.99856
0.999999 0.998852 0.998398
1.00037 1.00269 0.991467
1.0002 1.00037 0.997617
1.00088 1.00285 0.990497
1.00053 1.00076 0.99726
1.00327 1.00011 0.989186
1.00299 1.00003 0.989722
1.00522 0.999543 0.98666
1.00498 0.999278 0.987348
1.00277 0.999862 0.990305
1.00122 0.999962 0.996921
1.00273 0.999817 0.990414
1.00495 0.999119 0.987563
1.00511 0.999368 0.987051
1.00532 0.996211 0.990066
1.00528 0.999836 0.98626
1.00535 0.997062 0.989088
1.00492 0.999087 0.987636
1.0053 0.996087 0.990233
1.00537 0.996538 0.989636
1.00532 0.994948 0.991258
1.00531 0.997709 0.988419
1.00524 0.995066 0.991061
1.00274 0.999853 0.990362
1.00313 1.00007 0.990602
1.00499 0.998927 0.987746
1.00519 0.999963 0.98686
1.00102 1.001 0.996805
1.00268 1.00245 0.989923
1.00482 1.00231 0.984981
1.00527 1.00014 0.986527
1.00535 0.997519 0.988671
1.00528 0.999677 0.98642
1.00531 1.00084 0.985098
1.00524 0.997953 0.987918
1.0012 1.00293 0.989804
1.00243 1.00415 0.986583
1.00493 0.998938 0.987804
1.00504 0.999319 0.987792
1.00531 0.996806 0.989441
1.00537 0.997436 0.988624
1.00152 1.0031 0.989072
1.00422 1.00286 0.984766
1.00533 1.00193 0.98381
1.00529 0.998776 0.987296
1.00524 0.995474 0.990601
1.00525 0.999238 0.986703
1.00526 0.996781 0.989064
1.00522 0.996182 0.989636
1.00316 1.00391 0.985581
1.00383 1.00259 0.985816
1.00159 1.00479 0.987472
1.00531 0.996716 0.989555
1.00534 0.997046 0.989167
1.00528 0.995121 0.991091
1.00529 0.994991 0.991056
1.00525 0.995874 0.989991
1.00524 0.994921 0.990947
1.00364 1.00352 0.985113
1.00524 0.995242 0.990447
1.00531 1.00281 0.983079
1.00527 1.00065 0.985013
1.00522 0.997805 0.988075
1.00521 0.995738 0.990145
1.00097 1.00508 0.988047
1.00469 1.00286 0.984454
1.00306 1.00346 0.986213
1.00506 1.00245 0.984487
1.00528 1.00017 0.985869
1.00008 1.00186 0.992767
1.00071 1.00295 0.990649
1.00138 1.00469 0.987416
1.00529 1.0007 0.985282
1.00529 0.999145 0.986811
1.00352 1.00285 0.985943
1.00535 1.00211 0.983737
1.0053 1.00063 0.985371
1.00533 0.999642 0.985824
1.00012 1.00094 0.99369
1.00271 1.00362 0.986681
1.00097 1.00491 0.988358
1.00311 1.00222 0.987516
1.0053 0.998412 0.987619
1.00529 0.999865 0.986065
1.00525 0.997002 0.988821
1.00497 1.00234 0.984259
1.00523 0.998802 0.987129
1.00532 1.00116 0.984616
1.00535 0.99878 0.986869
1.00022 1.00019 0.994352
1.00079 1.00422 0.9896
1.00387 1.0023 0.985974
1.00224 1.00375 0.988011
1.00379 0.999933 0.988788
1.00526 0.996175 0.989713
1.00524 0.997833 0.987954
1.00523 0.995811 0.989838
1.00513 1.00207 0.984169
1.00526 0.997522 0.988195
1.00517 0.999989 0.985843
1.00042 1.00274 0.99145
1.00031 1.00441 0.990066
1.0001 1.00223 0.992542
1.00019 1.00259 0.991966
1.00021 0.999378 0.995789
1.00025 0.999618 0.995158
1.00024 0.997526 0.997272
1.00006 0.997899 0.998733
1.00001 0.998272 0.998629
0.999939 1.00213 0.992717
1.00002 0.99984 0.998011
1.00048 1.0026 0.99146
1.00033 1.00047 0.997509
1.00096 1.00276 0.990452
1.00065 1.00081 0.997171
1.00526 0.999852 0.986237
1.00511 0.999376 0.987042
1.00533 0.997065 0.989091
1.00532 0.996231 0.990073
1.00492 0.999129 0.98757
1.00272 0.999802 0.990411
1.00492 0.999087 0.987641
1.0053 0.996093 0.990237
1.00535 0.996565 0.989648
1.00531 0.994943 0.991264
1.00532 0.997695 0.988406
1.00525 0.995048 0.991081
1.00531 0.996143 0.99019
1.0053 0.994956 0.991314
1.00529 0.994929 0.991237
1.00525 0.994956 0.991226
1.00524 0.995489 0.990528
1.00525 0.994886 0.991022
1.00494 0.998718 0.988026
1.00506 0.999295 0.987767
1.00531 0.996733 0.989572
1.00539 0.997802 0.988222
1.00159 1.00307 0.989084
1.00401 1.0032 0.984803
1.00534 1.00206 0.983663
1.00528 0.998986 0.987141
1.00522 0.995282 0.990804
1.00527 0.996814 0.989053
1.00525 0.999004 0.986943
1.00522 0.996131 0.989539
1.00321 1.00418 0.985523
1.00374 1.00272 0.985603
1.00155 1.00462 0.987521
1.00531 0.996498 0.989811
1.00534 0.997003 0.98918
1.00528 0.995045 0.991176
1.00527 0.995178 0.990866
1.00357 1.00369 0.985123
1.0053 1.00283 0.983138
1.00527 1.00082 0.984798
1.00525 0.996102 0.98974
1.00524 0.994915 0.99092
1.00523 0.997671 0.988053
1.00524 0.995261 0.990419
1.00521 0.995639 0.990187
1.00438 1.00313 0.984434
1.0049 1.00244 0.98425
1.00116 1.00495 0.988064
1.00292 1.0034 0.986214
1.00528 0.99496 0.991354
1.0053 0.995198 0.99085
1.00524 0.99495 0.991275
1.00524 0.99491 0.990963
1.00527 0.994927 0.99077
1.00529 0.99491 0.990757
1.00521 1.0031 0.983177
1.00523 0.994944 0.990617
1.00525 1.00219 0.98356
1.00522 0.999763 0.985831
1.0052 0.997046 0.988598
1.00523 0.995688 0.990064
1.00069 1.00464 0.989048
1.0018 1.00502 0.986391
1.00512 1.00339 0.982934
1.00468 1.00274 0.985478
1.00492 1.00388 0.982977
1.00007 1.00087 0.993733
1.0053 0.998413 0.987599
1.00077 1.00506 0.988331
1.00252 1.00363 0.98673
1.00309 1.00208 0.987557
1.00529 0.999864 0.986044
1.00525 0.996988 0.988821
1.00519 1.00213 0.984241
1.00531 1.00107 0.984593
1.00523 0.998975 0.9869
1.00534 0.99866 0.987045
1.0002 1.00013 0.994381
1.00055 1.00438 0.989608
1.00413 1.00193 0.986054
1.00189 1.00377 0.987933
1.00378 0.999976 0.988279
1.00526 0.996146 0.989723
1.00523 0.997812 0.987953
1.00523 0.995763 0.989842
1.00514 1.00215 0.984082
1.00528 0.997613 0.988015
1.0052 1.00001 0.986019
1.00049 1.00337 0.990764
1.00123 1.00497 0.988645
1.00451 1.00188 0.985396
1.00296 1.00165 0.988523
1.00488 1.00052 0.987494
1.00527 0.995195 0.990483
1.00523 0.996532 0.988991
1.00523 0.995408 0.989955
1.005 1.0013 0.984622
1.00516 0.998648 0.986883
1.00039 1.00282 0.99144
1.00057 1.00385 0.989966
1.00007 1.00444 0.990075
1.00054 1.00444 0.990024
1.0001 1.00414 0.99075
1 1.00192 0.992969
1.00003 1.00225 0.992563
1.00017 0.999116 0.996066
1.00017 1.00262 0.991969
1.00023 0.999301 0.99583
1.00026 0.997235 0.997453
1.00024 0.999584 0.995566
1.00015 0.997584 0.998054
1.00006 0.997806 0.998771
0.999781 1.00102 0.994061
1.00004 1.00201 0.992714
0.999813 0.999098 0.998468
1.00015 0.999897 0.997848
1.00057 1.00246 0.991455
1.00043 1.00054 0.997409
1.00533 0.997677 0.988392
1.00532 0.996569 0.989659
1.00526 0.995029 0.991101
1.0053 0.994938 0.99127
1.00531 0.996097 0.99024
1.00492 0.999088 0.987646
1.00531 0.996145 0.99019
1.0053 0.994957 0.991322
1.00529 0.994929 0.991253
1.00525 0.994957 0.991206
1.00524 0.995442 0.990546
1.00526 0.994881 0.991013
1.00529 0.994958 0.991345
1.00525 0.994939 0.991325
1.00524 0.99495 0.991116
1.00528 0.994935 0.991163
1.00528 0.9949 0.990865
1.00532 0.9949 0.990868
1.00531 0.996277 0.990067
1.00534 0.996973 0.989193
1.00529 0.994949 0.991262
1.00526 0.995376 0.990676
1.0035 1.00377 0.985133
1.00525 1.00282 0.983191
1.00527 1.00093 0.98458
1.00526 0.996326 0.989489
1.00525 0.994909 0.990893
1.00525 0.995277 0.990391
1.00524 0.997545 0.988032
1.00522 0.995492 0.990235
1.00398 1.00366 0.984419
1.00495 1.00258 0.984015
1.00134 1.00481 0.988081
1.00283 1.00314 0.986217
1.00528 0.994961 0.991348
1.00531 0.995178 0.99089
1.00524 0.994947 0.991248
1.00523 0.994917 0.990979
1.00501 1.00334 0.983192
1.00526 1.00227 0.983436
1.00522 0.999733 0.985816
1.00527 0.994933 0.990738
1.00529 0.994907 0.990737
1.00521 0.997026 0.9886
1.00524 0.994924 0.990601
1.00523 0.995486 0.990204
1.0051 1.00349 0.983008
1.00477 1.00418 0.982784
1.00417 1.00251 0.985514
1.00067 1.00444 0.989116
1.00172 1.00505 0.986518
1.00525 0.994949 0.991275
1.00526 0.994938 0.991092
1.00531 0.994895 0.990687
1.00528 0.994889 0.990707
1.00518 1.00344 0.982642
1.00524 0.994948 0.990519
1.00516 1.00146 0.984003
1.00518 0.999087 0.98643
1.00521 0.996651 0.988819
1.00003 1.00376 0.990751
1.00139 1.00508 0.9878
1.00244 1.00504 0.985959
1.00492 1.00462 0.982402
1.00506 1.00282 0.984209
1.00487 1.00359 0.982624
1.00018 1.00008 0.994408
1.00035 1.00461 0.989616
1.00525 0.996119 0.989734
1.00153 1.00391 0.987854
1.00439 1.00181 0.986139
1.00382 1.00018 0.987775
1.00523 0.997793 0.987951
1.00523 0.995717 0.989845
1.0052 1.00212 0.983996
1.0052 1.00004 0.986197
1.0053 0.997689 0.987834
1.00042 1.00348 0.990762
1.00076 1.00508 0.988625
1.0048 1.00176 0.985067
1.00286 1.00156 0.988541
1.00448 0.999978 0.987271
1.00526 0.995154 0.990507
1.00524 0.996551 0.988968
1.00524 0.995449 0.98992
1.00503 1.00134 0.984723
1.00515 0.998767 0.986831
1.00082 1.00448 0.989519
1.00073 1.00428 0.988729
1.00487 1.00212 0.984564
1.00379 1.00047 0.987475
1.00491 1.00119 0.986004
1.00524 0.994888 0.990541
1.00528 0.996747 0.988518
1.0053 0.9958 0.989322
1.00506 1.00035 0.985718
1.00512 0.999075 0.98664
1.00037 1.00287 0.99143
1.00058 1.00396 0.989928
0.999945 1.00395 0.990771
0.999927 1.00447 0.990081
0.999949 1.00425 0.990745
0.999938 1.00471 0.990176
0.99995 1.00335 0.991618
0.999744 1.00486 0.990266
0.999916 1.00377 0.991334
0.999995 1.00191 0.992995
1 1.00189 0.992972
1.00008 0.999026 0.996279
1 1.0022 0.99258
1.00018 0.999089 0.996106
1.00022 0.997108 0.997631
1.00025 0.99924 0.995876
1.00022 0.997296 0.997447
1.00003 0.997614 0.998859
0.999805 0.999951 0.995096
0.999833 1.00105 0.994013
0.999738 0.998446 0.998794
1.0002 1.00187 0.992712
0.999945 0.999271 0.9983
1.00027 1.00006 0.997699
1.00525 0.995394 0.990564
1.0053 0.99493 0.991269
1.00526 0.994877 0.991005
1.00526 0.994959 0.991186
1.00529 0.994958 0.99133
1.0053 0.99615 0.99019
1.00528 0.99496 0.991358
1.00526 0.994939 0.991327
1.00525 0.994951 0.991121
1.00528 0.994933 0.99115
1.00527 0.994906 0.990891
1.00531 0.994899 0.990807
1.00525 0.994944 0.991322
1.00528 0.994925 0.991246
1.0053 0.994927 0.991013
1.00531 0.994856 0.99068
1.00529 0.994962 0.991344
1.00531 0.995157 0.99093
1.00524 0.994943 0.99122
1.00523 0.994922 0.990994
1.00486 1.00338 0.983207
1.00526 1.0024 0.983314
1.00522 0.99975 0.985801
1.00527 0.994949 0.990706
1.00529 0.994905 0.990718
1.00524 0.994922 0.990585
1.00521 0.996979 0.988599
1.00521 0.99543 0.990343
1.00476 1.00364 0.983078
1.00475 1.0043 0.982594
1.00379 1.00263 0.985547
1.00068 1.00422 0.989195
1.00166 1.00507 0.986645
1.00524 0.99495 0.991266
1.00526 0.994938 0.991113
1.00531 0.994902 0.990714
1.00519 1.00344 0.982696
1.00514 1.0017 0.983887
1.00517 0.999081 0.986433
1.00527 0.994892 0.99071
1.0052 0.996547 0.989037
1.00524 0.994953 0.990491
0.999963 1.00357 0.990995
1.00466 1.0045 0.98249
1.00465 1.00487 0.982198
1.00473 1.0031 0.984333
1.00286 1.00466 0.985892
1.00111 1.00509 0.987829
1.00528 0.994933 0.991186
1.00531 0.99491 0.990896
1.0053 0.994892 0.990603
1.00526 0.994854 0.990592
1.00502 1.00338 0.983004
1.0052 0.995225 0.990412
1.00502 1.00099 0.984806
1.00513 0.998856 0.986654
0.999931 1.00184 0.992709
1.00039 1.00497 0.989528
1.00205 1.00507 0.987352
1.00331 1.00478 0.984603
1.00447 1.00477 0.983422
1.00485 1.00407 0.982866
1.00034 1.00358 0.990761
1.0003 1.00511 0.988606
1.00525 0.99511 0.990531
1.00276 1.0014 0.988555
1.00515 1.00161 0.984734
1.00379 1.00006 0.987042
1.00526 0.99657 0.988945
1.00524 0.995487 0.989883
1.00507 1.00148 0.98482
1.00517 0.998904 0.98678
1.00061 1.00452 0.989532
1.0012 1.00424 0.988475
1.00485 1.00212 0.984543
1.0041 1.00054 0.987547
1.00471 1.00147 0.985847
1.00526 0.994938 0.990561
1.00527 0.996641 0.988757
1.00529 0.995847 0.989412
1.00505 1.00032 0.985703
1.00507 0.999334 0.986409
0.999604 1.00443 0.989887
1.00096 1.00332 0.988778
1.00486 1.00114 0.985547
1.00486 1.00059 0.985771
1.00534 0.994838 0.990443
1.00528 0.99528 0.990165
1.00524 0.998024 0.987145
1.0051 0.999724 0.985895
1.00081 1.00391 0.989889
1.00012 1.00394 0.990674
0.999131 1.00365 0.993133
0.999785 1.00439 0.990744
0.999317 1.00497 0.990328
0.999908 1.00376 0.991316
0.999598 1.00347 0.992035
0.999816 1.00494 0.990195
0.999753 1.00096 0.994359
0.999737 1.00448 0.990937
0.99969 1.00463 0.990421
1.00006 1.00355 0.991305
0.999958 1.00212 0.992777
0.999954 1.00191 0.992983
0.999969 0.99906 0.996394
0.999975 1.00188 0.992977
1.00009 0.999014 0.996297
1.00014 0.997124 0.997739
1.00018 0.99905 0.996147
1.00021 0.99713 0.997622
1.00018 0.997358 0.997432
0.999954 0.999164 0.995699
0.999806 1.00009 0.995029
0.999723 0.997935 0.998972
0.999843 1.00118 0.993962
0.999788 0.998557 0.998703
1.00009 0.999327 0.998116
1.00527 0.994912 0.990916
1.00525 0.994952 0.991125
1.00531 0.994897 0.990746
1.00527 0.994931 0.991137
1.00526 0.994938 0.991329
1.00528 0.994962 0.99137
1.00525 0.994943 0.991331
1.00528 0.994923 0.99124
1.0053 0.994924 0.990988
1.00531 0.994854 0.99069
1.00528 0.994924 0.991269
1.00527 0.994917 0.991161
1.00533 0.994882 0.990789
1.00524 0.994951 0.991256
1.00526 0.994939 0.991134
1.00531 0.994909 0.99074
1.00524 1.00339 0.982753
1.00514 1.00188 0.983769
1.00517 0.998955 0.986434
1.00527 0.994893 0.990714
1.00526 0.994949 0.990461
1.00522 0.996341 0.989253
1.0045 1.00438 0.982578
1.00486 1.00512 0.981794
1.00432 1.00323 0.984456
1 1.00339 0.991248
1.00328 1.00442 0.985825
1.00077 1.00509 0.987849
1.00528 0.994935 0.991205
1.00531 0.994906 0.990864
1.00531 0.994887 0.990596
1.00502 1.00339 0.983022
1.00496 1.00089 0.984718
1.00513 0.998673 0.98699
1.00526 0.994857 0.990562
1.00504 0.995222 0.990359
0.999942 1.00184 0.992926
1.00028 1.00495 0.989507
1.00449 1.00359 0.983265
1.00469 1.00392 0.983066
1.00365 1.00448 0.984741
1.00179 1.00508 0.987154
1.00529 0.99491 0.991137
1.00533 0.994847 0.990614
1.0053 0.994885 0.990557
1.0052 0.994884 0.990379
1.0044 1.00245 0.984218
1.00515 0.996427 0.98917
1.005 1.00089 0.985126
1.00013 1.00091 0.993787
1.00025 1.00208 0.992566
0.999563 1.00369 0.991711
1.00089 1.00503 0.988592
1.00161 1.00507 0.986479
1.0042 1.00437 0.983253
1.00318 1.00439 0.98495
1.00369 1.00514 0.984627
1.00031 1.00456 0.989545
1.00168 1.00422 0.98822
1.00527 0.994989 0.99058
1.0044 0.999567 0.987621
1.00483 1.00212 0.984526
1.00462 1.00175 0.985697
1.00527 0.996512 0.988998
1.00528 0.995879 0.989505
1.00504 1.00024 0.985687
1.00502 0.999533 0.98618
1.00029 1.00414 0.989703
1.00158 1.0034 0.988512
1.0049 1.00114 0.985407
1.00506 1.0008 0.985985
1.00535 0.994813 0.990437
1.00529 0.995258 0.990102
1.00519 0.997965 0.987257
1.00512 0.999819 0.985935
0.999477 1.00442 0.990521
1.00538 0.994885 0.990431
1.00319 1.00274 0.988055
1.00493 1.00058 0.985709
1.0053 0.99474 0.990801
1.00519 0.997144 0.987117
1.00505 1.00067 0.985562
1.00025 1.00396 0.990576
0.998997 1.00347 0.993058
0.997865 1.00231 0.996132
0.999905 1.00367 0.991297
0.999825 1.00501 0.990122
0.998432 1.00425 0.992448
1.00008 1.00344 0.991293
0.99971 1.00471 0.990439
0.998696 1.00188 0.994764
0.99985 1.00441 0.990813
0.999299 0.99961 0.997262
0.998844 1.00296 0.993544
0.999639 1.00503 0.990293
1.00031 1.00455 0.989791
1.00019 1.00366 0.990891
0.999931 1.00236 0.992595
0.999894 1.00226 0.992755
0.999843 0.999244 0.996463
0.999908 1.00202 0.992972
0.999984 0.999097 0.996395
1.00002 0.997258 0.997821
1.00011 0.998991 0.996318
1.00014 0.99714 0.997733
1.0002 0.997158 0.997608
1.00013 1.00084 0.993895
1.00003 0.998721 0.996031
0.999938 0.999262 0.995653
0.999799 0.99758 0.999063
0.999805 1.0002 0.994964
0.999758 0.998062 0.998932
0.999874 0.998696 0.998582
1.0053 0.994853 0.9907
1.0053 0.994921 0.990962
1.00528 0.994921 0.991233
1.00525 0.994943 0.991341
1.00528 0.994922 0.991275
1.00528 0.994914 0.99117
1.00532 0.994884 0.990747
1.00528 0.99491 0.991212
1.00535 0.994898 0.991011
1.00551 0.995096 0.991077
1.00528 0.994937 0.991225
1.0053 0.9949 0.990832
1.00532 0.994887 0.990589
1.00477 1.00343 0.983044
1.00503 1.00125 0.984656
1.00491 0.99857 0.987317
1.00526 0.994869 0.990532
1.00504 0.9953 0.990308
1.00414 1.00405 0.983109
1.00436 1.00437 0.98322
1.0038 1.00401 0.984877
0.999953 1.00174 0.993141
1.00017 1.005 0.989484
1.00156 1.00508 0.986953
1.00529 0.994907 0.991116
1.00012 1.00089 0.993777
1.00016 1.0021 0.992421
1.00533 0.994863 0.990626
1.00529 0.994888 0.990565
1.00466 1.00269 0.984127
1.00477 1.00077 0.985385
1.00508 0.996404 0.989084
1.00521 0.994873 0.990335
0.999667 1.00363 0.991866
1.00085 1.00504 0.988538
1.00338 1.00429 0.984821
1.00368 1.00477 0.983889
1.00436 1.00443 0.983208
1.00179 1.00506 0.986436
1.00538 0.994867 0.990868
1.00534 0.994846 0.990494
1.00524 0.994857 0.990501
1.00518 0.994904 0.990401
1.0039 1.00207 0.985646
1.00465 0.99995 0.987113
1.0001 1.00254 0.991969
0.999918 1.00219 0.992822
1.00162 1.00049 0.992268
1.00064 1.00384 0.989814
1.00113 1.00509 0.988013
1.00275 1.00453 0.986177
1.00262 1.0051 0.984063
1.00202 1.0014 0.989447
1.00078 1.00393 0.989521
1.00225 1.00356 0.988243
1.00536 0.99479 0.99043
1.00531 0.995279 0.990039
1.0052 1.00124 0.986197
1.00496 1.00119 0.985267
1.00515 0.997924 0.987369
1.00514 0.999944 0.985978
1.00011 1.00402 0.9904
1.00539 0.994907 0.990665
1.00245 1.00294 0.988298
1.00501 1.00064 0.985615
1.00531 0.994768 0.990812
1.00518 0.997322 0.987323
1.00493 1.00056 0.985513
0.999168 1.00503 0.991805
1.00495 0.994779 0.990751
1.0024 1.00227 0.988243
1.00463 1.00175 0.984671
1.00509 0.995595 0.990007
1.00372 1.001 0.98629
0.99882 0.994767 0.985797
0.998763 1.00356 0.99299
0.997657 1.00257 0.996173
0.997757 1.00181 0.997313
1 1.00349 0.991279
0.999616 1.00489 0.990457
1.00033 1.00416 0.990692
0.998171 1.00213 0.995185
1.00012 1.00376 0.990891
1.00021 1.00451 0.989899
0.999191 0.999361 0.997224
0.999678 1.00498 0.990294
0.999299 1.00301 0.993076
0.99793 1.00153 0.997371
1.00038 1.00402 0.99033
1.00008 1.0049 0.990068
1.00073 1.00435 0.989539
1.00015 1.00405 0.990335
1.00038 1.00491 0.989815
1.00008 1.0043 0.990148
0.999902 1.00241 0.992559
0.999914 1.00239 0.992579
0.99972 0.999308 0.99593
0.999884 1.00225 0.992734
0.999828 0.999282 0.996141
0.999988 0.997382 0.999091
0.999994 0.99914 0.996397
1.00004 0.997232 0.997818
1.00016 0.997152 0.997723
1.00003 1.0007 0.994096
1.00015 1.00073 0.993929
1.00008 0.998447 0.996278
1.00002 0.99874 0.996318
0.999858 0.997297 0.999135
0.999913 0.999394 0.995606
0.999799 0.997657 0.999043
0.999794 0.998103 0.99889
1.0053 0.994885 0.990705
1.00528 0.994912 0.991179
1.00528 0.99492 0.991281
1.00528 0.99491 0.991214
1.00534 0.994897 0.990977
1.0055 0.995034 0.990864
1.00543 0.994876 0.991003
1.00126 0.994837 0.981241
1.00488 0.995102 0.991794
1.00013 1.00193 0.992717
1.00529 0.994906 0.991095
1.00533 0.994876 0.990639
1.00528 0.994882 0.990574
1.00475 1.00239 0.984011
1.00501 1.00028 0.985623
1.00483 0.996244 0.988992
1.00522 0.994858 0.990293
1.00395 1.0034 0.984746
1.00433 1.00444 0.983225
1.00422 1.00443 0.983159
1.0001 1.00092 0.99377
1.00239 1.00507 0.986391
0.999733 1.00356 0.992006
1.00081 1.00504 0.988482
1.0001 1.00212 0.992277
1.00538 0.994862 0.990869
1.00008 1.00249 0.992141
0.999894 1.00227 0.992851
1.00105 1.00076 0.992707
1.00534 0.994847 0.990469
1.00522 0.994851 0.990456
1.00315 1.00301 0.985744
1.00485 0.998733 0.987574
1.00517 0.994899 0.990348
1.00049 1.00384 0.990018
1.00138 1.00508 0.987855
1.00243 1.00257 0.988634
1.00328 1.00508 0.983782
1.00317 1.00365 0.986333
1.00537 0.994748 0.991
1.00525 0.994825 0.990698
1.00519 0.994881 0.990032
1.00511 0.996656 0.990552
1.00175 1.00125 0.989625
0.999498 1.00344 0.991874
1.00166 1.00082 0.991574
1.00009 1.00029 0.993073
1.001 1.00429 0.989952
1.00069 1.00493 0.989059
1.00096 1.00403 0.988155
1.00155 1.00013 0.991786
1.00114 1.00351 0.990267
1.00147 1.00315 0.988546
1.0054 0.994965 0.990889
1.00531 0.99476 0.990815
1.00518 0.997468 0.987529
1.00509 1.00068 0.985516
1.00482 1.00042 0.98547
0.999638 1.00476 0.991856
1.00465 0.994815 0.990959
1.00264 1.00221 0.988124
1.00477 1.00172 0.984601
1.00504 0.99548 0.990306
1.00398 1.0009 0.986368
0.998582 0.995836 0.983866
0.997986 1.00439 0.993509
1.00317 0.995347 0.991121
1.00322 1.0025 0.986012
1.00304 1.00121 0.986924
1.00354 0.997527 0.990621
0.999961 0.994883 0.942339
0.995094 0.994776 0.963857
0.99578 0.998967 0.987813
0.998866 0.994792 0.855563
0.994708 0.994865 0.81653
0.997573 1.00263 0.996207
0.997443 1.00193 0.997454
0.997309 1.00311 0.997064
1.0001 1.00379 0.990892
1.00019 1.00443 0.990006
0.999816 1.00496 0.990297
0.999608 1.0032 0.992586
0.999042 0.998989 0.997178
0.999954 1.00496 0.990139
1.0002 1.00402 0.990413
1.00063 1.00439 0.98954
0.998334 1.00062 0.996846
0.999922 1.00433 0.990728
1.00047 1.00434 0.990846
0.998507 1.00421 0.992929
0.999897 1.00472 0.990517
1.00057 1.00466 0.989004
1.00015 1.00413 0.990321
1.00023 1.005 0.989426
1.0004 1.004 0.990758
0.999704 1.00493 0.990592
1.00019 1.00485 0.989824
1.00024 1.00412 0.990417
1.00013 1.00428 0.990156
0.999897 1.00247 0.992543
0.999912 1.00243 0.992564
0.999696 0.999352 0.995968
0.999871 1.00249 0.992564
0.999705 0.99935 0.995928
0.999939 0.997374 0.999124
0.999804 0.999335 0.995822
0.999954 0.997381 0.998478
1.00007 0.997211 0.997812
0.999914 1.00051 0.994441
1.00002 1.00074 0.994101
1.00009 0.998254 0.996475
1.00018 1.0006 0.993961
1.00007 0.998391 0.996571
0.999914 0.996988 0.999196
1.00004 0.998814 0.995969
0.999857 0.997438 0.999104
0.999811 0.997761 0.999025
1.00533 0.994896 0.990944
1.00528 0.99491 0.991215
1.00548 0.994904 0.990656
1.00053 0.994839 0.981409
1.00543 0.994875 0.990998
1.00474 0.994964 0.991661
1.00536 0.995431 0.99117
0.996059 0.994896 0.963806
1.00178 0.994971 0.98299
1.00019 1.00161 0.993014
1.0001 1.00209 0.992679
0.99943 1.00384 0.991809
0.999864 1.00251 0.992481
1.00537 0.994859 0.990869
1.00534 0.994856 0.990443
1.00521 0.994856 0.990412
1.00407 1.00354 0.985848
1.00465 0.997008 0.988068
1.00516 0.994902 0.990301
1.00207 1.00308 0.987778
1.00475 1.00486 0.983489
1.00339 1.00201 0.986478
0.999846 1.00237 0.992884
1.00119 1.00507 0.987715
1.00039 1.00392 0.990223
0.999988 1.00262 0.992309
1.00045 1.00112 0.993121
1.00537 0.994765 0.991001
0.99985 1.00345 0.991609
1.00161 1.00047 0.991907
0.998115 1.00102 0.995897
1.00526 0.994839 0.990627
1.00519 0.994941 0.990047
1.00308 1.00023 0.989653
1.00473 0.995744 0.990743
1.00111 1.00442 0.989222
1.00091 1.00454 0.988136
1.00138 1.0013 0.991736
1.0026 1.00342 0.987542
1.00424 0.995377 0.9914
1.00516 0.995004 0.990947
1.00509 0.995753 0.989713
1.00352 0.996046 0.993574
0.997668 1.00463 0.993739
1.00137 1.00151 0.990934
0.998009 1.00455 0.993437
0.999146 1.00441 0.991865
0.999997 0.994895 0.928368
0.999806 1.00458 0.99191
1.00269 1.00256 0.987994
1.00426 0.994826 0.991198
1.00499 0.995394 0.9906
1.00416 1.00085 0.986424
1.00469 1.00179 0.984521
0.998456 0.996628 0.981782
0.998631 1.00416 0.993431
1.00304 0.995713 0.991004
1.00319 1.00294 0.985979
1.00364 1.00105 0.98705
1.00382 0.997683 0.990397
0.999942 0.994867 0.928923
0.995491 0.994809 0.960457
0.99576 0.999334 0.988081
0.997878 0.99477 0.86034
0.99472 0.994864 0.808249
0.999042 1.00421 0.991961
0.999733 0.994815 0.866434
0.994731 0.99482 0.808051
1.00055 0.99912 0.992587
1.00154 1.002 0.989489
1.00153 0.999693 0.99251
0.994909 0.997879 0.990872
0.99752 0.994806 0.941505
0.994887 0.994785 0.956424
0.996112 0.99482 0.879599
0.994733 0.994824 0.797528
0.99713 1.00215 0.997607
0.997145 1.0026 0.996958
0.99717 1.00467 0.996001
1.00028 1.00396 0.990488
1.00059 1.00439 0.989542
0.999462 1.00506 0.99021
0.999605 1.00455 0.991124
0.998855 0.999853 0.996332
1.00022 1.00404 0.99032
1.00019 1.00442 0.990664
0.999781 1.00488 0.99029
1.00074 1.00467 0.989151
0.998442 1.00398 0.993236
0.999309 1.00414 0.992515
0.997137 1.00501 0.994127
0.999965 1.00505 0.989661
1.00049 1.00471 0.989477
1.0004 1.00499 0.989398
1.00017 1.00352 0.991106
1.00015 1.00499 0.990013
1.00013 1.00308 0.991766
0.999112 1.00219 0.992846
0.998826 1.005 0.99146
0.999389 1.00477 0.990823
0.999807 1.00473 0.990618
1.00012 1.00417 0.990455
1.00005 1.00484 0.989834
1.00026 1.0041 0.990345
0.999987 1.00251 0.992382
1.00019 1.00426 0.990164
0.999923 1.00241 0.992554
0.999896 0.999322 0.996396
0.999871 1.00246 0.992568
0.999748 0.999319 0.996224
0.999894 0.997339 0.997968
0.999693 0.999358 0.995924
0.999932 0.997389 0.999133
0.999941 0.997413 0.997862
1.0003 1.00159 0.992809
0.999924 1.00037 0.994589
0.999916 1.00055 0.994433
1.00005 0.998179 0.996586
1 1.0008 0.994106
1.0001 0.998218 0.99647
0.999963 0.996862 0.999229
1.00007 0.998389 0.996817
0.999915 0.997164 0.998612
0.999878 0.997502 0.997908
1.00005 0.994826 0.981548
1.00545 0.99487 0.99099
1.00468 0.99515 0.991516
0.996299 0.994838 0.96432
1.00194 0.995019 0.983377
1.0053 0.995506 0.991158
1.00344 0.996152 0.986278
0.997449 0.994843 0.966755
0.999938 0.994862 0.941074
0.997194 0.99481 0.881169
0.994665 0.994813 0.815044
0.999655 1.00262 0.99254
1.0002 1.00158 0.993
1.00021 1.00198 0.992639
0.999756 1.00326 0.992011
0.998887 1.00439 0.992599
1.00052 1.00223 0.991791
1.00023 1.00309 0.991693
1.00014 1.00228 0.992359
1.00539 0.994789 0.990993
1.00528 0.994852 0.990561
1.00518 0.995053 0.990057
1.00302 1.00067 0.989677
1.00458 0.995484 0.990927
1.00116 1.00176 0.991668
1.00392 1.00358 0.98694
1.00209 1.00485 0.987221
1.00147 1.00021 0.99223
1.00129 1.00455 0.988447
1.00039 1.00317 0.99136
0.996655 1.00189 0.998643
1.00425 0.994888 0.991689
0.998056 1.00436 0.99363
1.00104 1.0018 0.99189
1.00487 0.994918 0.990919
1.00472 0.995816 0.990091
1.0028 0.996172 0.993248
0.999524 1.00503 0.991523
1.00018 1.00308 0.992109
1.00338 0.995019 0.990748
1.00374 0.998595 0.990577
1.0045 0.995483 0.991526
1.0008 0.997421 0.994671
0.999179 1.00486 0.991309
0.998546 1.00475 0.992435
0.999282 1.00515 0.992087
0.999789 0.994923 0.86866
1.00018 0.994865 0.942961
0.999776 1.00357 0.993364
1.00337 1.00327 0.985962
1.00292 0.99636 0.990883
1.00409 0.99786 0.990188
1.00413 1.00098 0.987205
0.999989 0.994849 0.940565
0.995794 0.9948 0.959996
0.995764 0.999264 0.988392
0.997376 0.994825 0.878913
0.99474 0.994837 0.799476
0.999325 1.00422 0.991935
0.999816 0.994854 0.865187
0.994699 0.994804 0.801304
1.00059 0.999097 0.992513
1.00156 1.00222 0.989509
1.00139 0.999825 0.992942
0.994903 0.998911 0.991673
0.998171 0.994819 0.934922
0.994961 0.994798 0.957323
0.995521 0.994828 0.879399
0.994749 0.994823 0.79576
0.998168 1.00432 0.994647
0.994724 0.994796 0.797684
0.994745 0.994776 0.804789
0.996948 1.00174 0.99691
0.99988 1.00169 0.995178
0.994907 0.999277 0.988609
0.995077 0.994869 0.959371
0.995153 0.994781 0.930234
0.994751 0.994876 0.883833
0.994831 0.994853 0.804052
0.997249 1.002 0.996859
0.997716 1.00406 0.995682
0.996498 1.00385 0.996458
1.00027 1.00397 0.990319
1.00082 1.00456 0.989299
0.999857 1.00504 0.990062
0.999827 1.00453 0.990484
0.998033 1.00379 0.993545
1.00048 1.00476 0.989459
0.999384 1.00388 0.992086
1.00023 1.00499 0.989684
0.996736 1.00491 0.994449
0.995974 1.00512 0.99671
0.998552 1.00481 0.992527
1.00056 1.00505 0.989555
1.00056 1.00474 0.989371
1.00002 1.00308 0.991447
1.00004 1.00491 0.989959
1.00025 1.0029 0.991664
0.998848 1.00279 0.993378
0.998866 1.00435 0.991879
0.998399 1.00512 0.991997
0.998581 1.00235 0.994612
1.00031 1.00214 0.992409
1.00306 0.999273 0.99075
0.998963 1.00488 0.991174
0.999077 1.00488 0.9915
0.999447 1.00505 0.990071
0.999488 1.00493 0.990839
1.00012 1.00422 0.99035
0.999697 1.00481 0.990642
1.00014 1.00418 0.990505
1.00002 1.00262 0.992101
1.00029 1.00414 0.990273
0.999974 1.0025 0.992394
1.00003 0.999314 0.996163
0.99993 1.00239 0.992567
0.999877 0.999298 0.996038
1.00001 0.997258 0.997808
0.99974 0.999308 0.995934
0.999951 0.997325 0.999144
0.999928 0.997382 0.999143
1.00038 1.002 0.992631
0.999961 1.00053 0.994413
1.00019 1.00178 0.992822
1.00005 0.99813 0.996632
0.99991 1.00039 0.994585
0.999906 1.00061 0.994426
1.00006 0.998179 0.996575
0.999992 0.996775 0.999245
1.00007 0.998234 0.996977
0.999973 0.996868 0.998691
0.999932 0.997169 0.998089
0.999726 0.994832 0.852722
0.994704 0.994786 0.797212
0.996368 0.994843 0.964763
1.00155 0.994908 0.98388
1.00526 0.994778 0.99116
0.997183 0.994925 0.965977
1.0035 0.995067 0.986815
1.0004 0.994871 0.937114
0.997783 0.994767 0.86111
0.994708 0.994841 0.807092
0.997794 0.994755 0.972821
0.997874 0.994849 0.942086
0.996479 0.994835 0.879456
0.994768 0.994842 0.805151
0.999946 1.00352 0.991768
0.999814 1.00239 0.99265
1.00013 1.00171 0.99299
0.999884 1.00296 0.992212
0.998678 1.00418 0.993049
1.00032 1.00363 0.990667
1.00018 1.00302 0.991703
1.00062 1.0035 0.990254
1.00019 1.00309 0.99157
0.999949 1.00267 0.992232
1.00406 0.994761 0.991963
1.00473 0.994861 0.990888
1.00426 0.995807 0.990471
1.00227 0.996645 0.992918
1.00062 1.0026 0.992344
0.999504 1.0051 0.989648
1.00036 1.00187 0.992962
0.998307 1.0041 0.993497
1.00239 0.995087 0.991234
0.999254 1.00496 0.991073
0.998258 1.00494 0.992381
1.00341 0.997787 0.990697
1.00417 0.995524 0.991739
1.00094 0.997838 0.994908
0.999089 1.00508 0.991695
1.00016 0.995366 0.98962
1.00112 0.998865 0.993991
0.998018 1.00203 0.995757
0.998657 1.00454 0.990708
0.998187 1.00499 0.991683
0.998671 1.0051 0.992181
0.994719 0.994832 0.820893
0.999787 0.99488 0.874227
1.00001 0.994875 0.928789
0.999245 1.00423 0.991886
1.00184 1.00246 0.989493
1.00065 0.998888 0.992429
1.00113 0.999816 0.993377
0.999822 0.994889 0.878546
0.997731 0.994822 0.929159
0.99486 0.994815 0.956476
0.994905 1.0002 0.992359
0.996358 0.994829 0.863925
0.994671 0.994795 0.807299
0.994792 0.994847 0.810852
0.998072 1.00372 0.994349
0.994711 0.994806 0.807681
0.994766 0.994782 0.80417
0.997111 1.00022 0.997523
0.999377 1.00148 0.995067
0.994895 0.998054 0.990825
0.995318 0.994818 0.95822
0.996131 0.995281 0.941704
0.994704 0.997062 0.865721
0.995068 0.994851 0.814309
0.996878 1.00345 0.997578
0.994774 0.994824 0.813006
0.994813 0.994807 0.801813
0.994931 1.00232 0.999953
0.995148 0.996805 0.967353
0.994827 0.996111 0.940081
0.994971 0.994947 0.858756
0.995609 0.994889 0.824634
0.998198 1.00292 0.995325
0.996865 1.00417 0.996584
0.995552 1.00413 0.998342
1.00035 1.00481 0.989439
1.00037 1.00505 0.989709
0.999501 1.00356 0.991655
0.996577 1.00474 0.994774
1.00012 1.00506 0.989573
0.998469 1.00488 0.992485
0.995678 1.00508 0.996994
0.994989 1.00485 0.998367
0.995872 1.00513 0.996842
0.999206 1.00511 0.991724
1.00007 1.00505 0.9899
1.00031 1.0025 0.991563
0.998441 1.00323 0.993895
0.998446 1.00512 0.992099
0.999234 1.00424 0.99184
0.998265 1.00283 0.994698
0.998462 1.00437 0.992872
0.995867 1.00516 0.99678
1.00185 0.998143 0.994164
0.99981 1.0018 0.993254
1.00163 1.00059 0.991293
1.00486 1.00004 0.987323
1.00217 1.00142 0.990597
1.00195 0.998932 0.992539
0.999521 1.00463 0.99094
0.999693 1.00514 0.989517
0.999396 1.00472 0.99154
0.999861 1.00509 0.990074
1.00024 1.00455 0.989753
0.999913 1.00479 0.990852
1.00036 1.00403 0.990336
1.00012 1.00285 0.991816
1.00032 1.00392 0.990555
1.00012 1.00261 0.992107
1.00016 0.999383 0.995901
1.00003 1.00242 0.992407
1.00002 0.999325 0.995769
1.0001 0.997326 0.997634
0.999885 0.999266 0.995741
1 0.997269 0.998475
0.999963 0.997295 0.999125
1.00029 1.00264 0.991719
1.00011 1.00066 0.9941
1.00026 1.00205 0.992445
1.00005 0.998177 0.996576
0.999978 1.00047 0.994422
1.00017 1.00176 0.992834
1.00002 0.996727 0.999255
1.00004 0.998134 0.996632
0.999911 1.00043 0.994583
1.00007 0.998167 0.996564
0.999992 0.996812 0.999242
0.999958 0.996865 0.999225
0.994694 0.994769 0.799777
0.999728 0.994845 0.865313
0.994755 0.994772 0.802029
0.994719 0.99478 0.796857
0.997396 0.994875 0.964276
1.00338 0.994787 0.987355
0.999776 0.994839 0.932447
0.998942 0.994816 0.880927
0.994753 0.99484 0.798952
0.998401 0.994816 0.9718
0.998175 0.995362 0.927895
0.995653 0.995382 0.878207
0.994727 0.994831 0.797678
0.99504 0.994818 0.964221
0.996126 0.99516 0.928711
0.994858 0.997396 0.857949
0.994831 0.994868 0.804128
1.00066 1.00462 0.990438
0.99957 1.0035 0.991893
1.00001 1.00209 0.992756
0.998307 1.00381 0.993505
1.001 1.0036 0.989505
1.00022 1.00356 0.990874
0.999698 1.00348 0.991619
1.00115 1.00289 0.990338
1.0007 1.00364 0.990332
1.00027 1.00285 0.991448
1.00199 0.994783 0.991704
1.00314 0.997227 0.990821
1.00374 0.995616 0.991954
1.00059 0.997239 0.995158
1.00029 1.00504 0.991284
0.998615 1.00509 0.99234
0.99932 1.00504 0.990833
0.999909 1.00467 0.990418
0.999831 0.995925 0.990179
0.99914 1.00504 0.991402
0.999396 1.00503 0.992003
1.00095 0.99868 0.994534
0.999122 1.00087 0.995558
0.996376 1.00041 0.989071
0.996732 0.999592 1.00025
0.995979 1.00441 0.996366
0.998849 1.00437 0.992381
0.997429 1.0051 0.993956
0.994801 0.994812 0.819332
0.994712 0.99481 0.816623
0.999804 0.994901 0.856316
0.998134 1.00351 0.994115
0.999104 1.00105 0.994956
0.997313 0.999706 0.998134
0.994684 0.99479 0.805909
0.996202 0.994891 0.930057
0.995419 0.994847 0.95761
0.994855 0.996176 0.993392
0.994756 0.996621 0.884871
0.994772 0.994787 0.804322
0.995262 0.994853 0.815741
0.997226 1.00337 0.997532
0.994784 0.994825 0.81577
0.9948 0.994807 0.802824
0.995196 1.00156 0.99903
0.995174 0.99598 0.969199
0.994809 0.995822 0.928271
0.99523 0.994878 0.820295
0.995106 0.998617 0.867365
0.994902 1.00467 1.00022
0.994792 0.99483 0.805513
0.994868 0.99483 0.81218
0.994823 0.994874 0.804297
0.994768 0.998777 0.989755
0.994867 0.99792 0.943246
0.997645 0.996124 0.876713
0.997304 1.00476 0.996735
0.995702 1.00469 0.998099
0.995012 1.00514 0.999169
1.00003 1.00506 0.989592
0.998483 1.00499 0.992439
0.995454 1.00516 0.997271
0.9988 1.00511 0.991716
0.995951 1.00516 0.996845
0.995056 1.00503 0.998292
0.994956 1.00516 0.998503
0.995604 1.00512 0.997068
0.998287 1.00511 0.992222
0.999523 1.00428 0.9918
0.998175 1.00348 0.994799
0.99607 1.00495 0.996661
0.998372 1.00454 0.992862
0.998715 1.00177 0.995396
0.999071 0.998159 0.998083
1.00228 0.999793 0.989873
0.999404 1.00139 0.994034
1.00213 1.00048 0.990917
1.00458 1.00151 0.986021
1.00488 1.00246 0.98435
1.00401 0.999005 0.989661
1.00393 1.00006 0.987656
1.00111 1.00471 0.988676
1.00138 1.00183 0.990987
1.00076 0.998602 0.9943
1.00009 1.00443 0.990707
0.999981 1.00513 0.9895
1.0003 1.0051 0.988996
1.00029 1.00508 0.990081
1.0004 1.00452 0.989751
1.00016 1.00323 0.99127
1.0005 1.0039 0.990321
1.00017 1.00273 0.991809
1.00019 0.999512 0.99572
1.00011 1.00261 0.992113
1.00014 0.99942 0.995497
1.0002 0.997373 0.997447
1.00003 0.999343 0.995441
1.00009 0.997302 0.998351
1.00004 0.997257 0.999059
1.00064 1.00279 0.990871
1.00014 1.00103 0.993356
1.00044 1.0025 0.991715
1.00012 0.998234 0.99641
1.00008 1.00067 0.993939
1.00019 1.00211 0.992261
1.00005 0.996739 0.999239
1.00006 0.998148 0.996588
0.999992 1.0004 0.99443
1.00002 0.996753 0.999252
1.00003 0.998152 0.996632
0.999993 0.996794 0.999238
0.994819 0.994818 0.809478
0.994702 0.994807 0.813281
0.999708 0.994815 0.864117
1.00116 1.00271 0.990372
0.994816 0.994799 0.808258
0.994756 0.994772 0.801986
0.994752 0.994783 0.810362
0.998932 0.994849 0.971058
0.997353 0.994824 0.941437
0.996155 0.994857 0.861425
0.994693 0.99483 0.807314
0.996161 0.994826 0.961993
0.996238 0.996121 0.940314
0.994758 0.995965 0.861463
0.994843 0.994861 0.807724
0.994811 0.99478 0.956182
0.99481 0.994793 0.937922
0.995571 0.999768 0.87094
0.995155 0.994891 0.824895
0.999424 1.00463 0.991068
1.00003 1.00442 0.990429
0.999754 1.00342 0.992018
1.00086 1.00271 0.990682
1.00078 1.00403 0.989733
1.00016 1.0039 0.991079
1.00117 1.00304 0.990284
1.0007 1.00368 0.990403
0.99864 0.997376 0.990586
1.00035 0.998297 0.995
1.00012 1.00471 0.990121
1.00034 0.999783 0.995369
0.999612 1.00488 0.991831
0.99963 1.00506 0.991125
0.998744 1.00424 0.992346
0.995972 0.999893 0.98962
0.997929 1.00494 0.994056
0.996945 1.00342 0.996645
0.996126 1.00035 1.00033
0.998358 1.00397 0.993788
0.994768 1.0015 0.986996
0.995336 1.00273 0.998794
0.995778 1.00493 0.997308
0.997137 1.00506 0.995451
0.994774 0.994811 0.810801
0.994804 0.994814 0.816624
0.994703 0.994793 0.812223
0.997413 1.00344 0.997461
0.995449 1.00057 0.998085
0.9948 0.994829 0.818339
0.994754 0.995956 0.941162
0.995531 0.996007 0.966367
0.99527 0.997338 0.865645
0.994801 0.994807 0.803603
0.994895 0.994869 0.815944
0.995253 1.0046 0.999933
0.994794 0.994828 0.805654
0.99487 0.994842 0.812609
0.994797 0.999359 0.9935
0.994842 0.994859 0.807832
0.99485 0.996512 0.935423
0.996247 0.99744 0.878847
0.994827 1.00328 0.998287
0.994837 0.994839 0.813377
0.994803 0.994804 0.809686
0.99477 0.994828 0.80509
0.995971 0.99973 0.869827
0.994871 1.00109 0.973559
0.99556 0.997609 0.928373
0.996046 1.005 0.997868
0.995115 1.00514 0.999165
0.994893 1.00524 0.99834
0.998241 1.00513 0.991706
0.995616 1.0052 0.996852
0.994974 1.00515 0.998232
0.995613 1.00498 0.997015
0.994953 1.00512 0.998517
0.997593 1.00221 0.998064
0.996048 1.00484 0.996528
0.998173 1.00467 0.992879
0.998406 1.002 0.996007
0.998602 1.00104 0.993781
0.996427 0.998341 1.00179
1.00195 0.999586 0.991173
1.00442 1.00454 0.98227
1.00443 1.00289 0.984238
1.00257 1.00038 0.990479
1.00434 1.00183 0.985512
1.0051 1.00226 0.984036
1.00508 1.00023 0.98637
1.00455 1.00223 0.98466
1.00239 1.00223 0.988782
1.00348 0.999677 0.989428
1.00311 1.00009 0.988018
1.00051 1.00515 0.988409
1.00061 1.00473 0.988885
1.00055 1.00217 0.991362
1.00025 1.0051 0.989483
1.00051 1.00507 0.989023
1.00022 1.00422 0.990222
1.00054 1.00466 0.989748
1.00023 1.00327 0.991255
1.00016 0.999737 0.994787
1.00032 1.00267 0.991803
1.00021 0.999529 0.994953
1.00012 0.997378 0.998889
1.00012 0.999501 0.995145
1.00016 0.997362 0.99821
1.00011 0.997293 0.998976
1.00053 1.003 0.990809
1.00031 1.00148 0.992668
1.00058 1.00285 0.991036
1.00019 0.998398 0.996145
1.00023 1.00099 0.993276
1.00048 1.00248 0.991706
1.00008 0.996737 0.999201
1.00013 0.998207 0.996425
1.00009 1.00066 0.993779
1.00005 0.996726 0.999245
1.00007 0.998115 0.996599
1.00001 0.996791 0.99925
0.994797 0.994829 0.813386
0.994815 0.994817 0.809818
0.994694 0.994822 0.813005
1.00111 1.00271 0.990526
1.00049 1.00341 0.990252
1.00133 1.0017 0.991425
0.994874 0.994839 0.811215
0.994817 0.994798 0.809117
0.994756 0.99476 0.802054
0.996922 0.994802 0.962271
0.995318 0.994755 0.928369
0.994799 0.997271 0.883287
0.994834 0.994845 0.80205
0.995001 0.994918 0.958185
0.994873 0.996939 0.933871
0.995584 0.997456 0.86766
0.995174 0.994883 0.820278
0.995406 0.995119 0.955549
0.994837 0.997132 0.938212
0.996584 0.995977 0.878214
0.994841 0.994856 0.805283
0.999594 1.00253 0.992706
1.00011 1.00387 0.990869
1.00009 1.00408 0.99042
1.00102 1.00261 0.990619
1.00042 1.00433 0.989962
1.00113 1.00322 0.990231
0.996011 0.998669 0.990356
0.996026 1.00128 1.00056
0.99928 1.00349 0.992311
0.998288 1.0026 0.99683
0.99831 1.00453 0.994149
0.997751 1.00378 0.99437
0.996624 1.00469 0.995751
0.994765 1.00217 0.986877
0.995485 1.00517 0.997665
0.995231 1.00346 0.998149
0.996684 1.00497 0.995656
0.995136 1.00149 0.985142
0.995311 1.00525 0.995061
0.994891 1.00409 0.998887
0.994853 0.994837 0.809862
0.99478 0.99482 0.809938
0.994806 0.994811 0.813963
0.995656 1.004 0.999609
0.994826 0.999552 0.989242
0.994791 0.994827 0.805805
0.994833 0.997546 0.934978
0.99672 0.996133 0.863641
0.994871 0.994844 0.813016
0.994829 0.994845 0.802401
0.994803 1.00315 0.998773
0.994827 0.994839 0.813359
0.99482 0.994802 0.810612
0.994878 1.00012 0.971021
0.994716 0.994825 0.798054
0.995734 0.998908 0.86577
0.994881 0.995676 0.942129
0.994882 1.0052 0.989869
0.994789 0.994835 0.813918
0.994772 0.994785 0.803451
0.994674 0.994825 0.816533
0.994811 0.997357 0.856908
0.994866 0.998028 0.937639
0.994867 1.00129 0.965353
0.995121 1.00512 0.999119
0.994922 1.00523 0.998258
0.995974 1.00434 0.99735
0.995858 1.00473 0.996967
0.994949 1.00507 0.998561
0.99623 1.00387 0.997995
0.999127 0.999328 0.998317
0.998049 1.00233 0.9966
1.00108 1.00074 0.992781
1.00218 1.00502 0.985881
1.00139 0.999393 0.992776
1.0043 1.00426 0.98325
1.00427 1.00449 0.982431
1.005 1.00125 0.98451
1.00504 1.00174 0.984494
1.00442 1.00298 0.984077
1.00438 1.00212 0.985019
1.00511 1.00163 0.984611
1.00511 1.00214 0.98413
1.00436 1.00036 0.987368
1.00469 1.0003 0.986673
1.00417 1.00199 0.984971
1.00106 1.00476 0.987971
1.00225 1.0026 0.988711
1.00291 1.00043 0.989185
1.00049 1.00487 0.989158
1.00086 1.00513 0.988419
1.00029 1.00475 0.989095
1.00076 1.00505 0.989052
1.0004 1.00403 0.990232
1.00008 1.00038 0.994246
1.00037 1.00314 0.99124
1.00018 0.99978 0.994763
1.00015 0.997528 0.998849
1.00023 0.999528 0.994955
1.00019 0.997411 0.998126
1.00015 0.997385 0.998904
1.00086 1.00331 0.990386
1.00044 1.00178 0.992367
1.0007 1.0028 0.990872
1.00027 0.99864 0.995764
1.00031 1.00147 0.992754
1.00058 1.00283 0.991205
1.00012 0.996809 0.999141
1.0002 0.99834 0.996164
1.00028 1.00095 0.993197
1.00008 0.996751 0.999213
1.00013 0.998181 0.99644
1.00005 0.996746 0.999252
0.994834 0.994838 0.812257
0.994798 0.994843 0.813552
0.994813 0.994824 0.810179
0.999822 1.00508 0.989712
1.00098 1.00414 0.990495
1.00093 1.00278 0.990688
1.00044 1.00384 0.990148
1.00069 1.00185 0.991685
1.00026 1.00301 0.991265
0.999846 1.00156 0.993255
0.994829 0.994814 0.802681
0.994882 0.994846 0.811731
0.994811 0.994825 0.809992
0.994896 0.994874 0.815697
0.995365 0.995139 0.956381
0.994836 0.997714 0.928524
0.995673 0.994911 0.881688
0.995078 0.995274 0.954916
0.994861 0.998304 0.925269
0.995748 0.997443 0.87934
0.994906 0.994853 0.815393
0.995753 0.996396 0.959225
0.994925 0.998383 0.927354
0.994891 0.995384 0.859527
0.994742 0.994824 0.798659
0.997305 1.00457 0.994782
0.999283 1.0031 0.993106
1.0002 1.00405 0.990671
1.00104 1.00286 0.990564
0.994809 1.00181 0.986827
0.995255 1.00395 0.997393
0.997306 1.00467 0.99495
0.996745 1.00462 0.996061
0.995323 1.00516 0.998123
0.996389 1.00497 0.995786
0.995379 1.0042 0.998929
0.995521 1.00113 0.981888
0.995215 1.00524 0.995237
0.995734 1.00401 0.997754
0.995131 1.00379 0.979307
0.995221 1.00305 0.99908
0.994774 0.994819 0.811609
0.994844 0.994836 0.813303
0.994787 0.994836 0.809053
0.994786 1.00321 0.999247
0.994868 1.00042 0.974314
0.994818 0.994836 0.813385
0.994958 0.997736 0.929512
0.996399 0.995542 0.880183
0.994826 0.994826 0.811431
0.994686 0.994831 0.807399
0.994891 1.00486 0.990792
0.994805 0.994836 0.81411
0.994758 0.994783 0.803466
0.99486 0.99988 0.965408
0.994716 0.994832 0.808616
0.994733 0.996949 0.859769
0.994861 0.998288 0.925396
0.994879 1.00462 0.984763
0.994833 0.994815 0.809652
0.994693 0.99479 0.798851
0.996116 0.994825 0.881153
0.994758 0.996056 0.937494
0.994793 0.999975 0.95897
0.994937 1.00529 0.99858
0.995453 1.00457 0.997438
0.996622 1.00071 0.998558
0.995186 1.00508 0.997917
0.997192 1.00111 0.998688
1.00185 1.00071 0.992481
1.00361 1.00028 0.99179
1.00309 1.00503 0.985124
1.00414 1.00298 0.983915
1.00393 1.00398 0.984229
1.0044 1.00448 0.982385
1.00451 1.00348 0.983389
1.00524 0.999286 0.985986
1.00512 1.00064 0.985349
1.00504 1.00142 0.984449
1.00511 1.00155 0.984587
1.00502 1.00158 0.984501
1.00435 1.0031 0.983914
1.00512 1.00144 0.98506
1.00509 1.00185 0.984499
1.00513 1.00203 0.98423
1.003 1.0028 0.987399
1.0037 1.00083 0.987833
1.00435 1.00033 0.986979
1.00073 1.0051 0.98815
1.00145 1.00453 0.988026
1.00189 1.00306 0.988638
1.0002 1.00098 0.993449
1.00063 1.0047 0.989178
1.00114 1.0051 0.988428
1.0005 1.00392 0.990241
1.0001 1.00044 0.994212
1.0001 0.997774 0.998765
1.00019 0.999825 0.994739
1.00015 0.997514 0.998834
1.00017 0.997364 0.998868
1.00016 1.00509 0.989912
1.00073 1.00478 0.989405
1.00065 1.00225 0.991564
1.00062 1.00355 0.990359
1.00027 0.999018 0.995371
1.00044 1.0018 0.992361
1.00073 1.00277 0.990936
1.00014 0.996974 0.999047
1.00026 0.998635 0.995786
1.00032 1.00149 0.992837
1.00011 0.996799 0.999159
1.00021 0.998309 0.996186
1.00008 0.996735 0.999226
0.994799 0.994835 0.806174
0.99482 0.994834 0.812269
0.994806 0.994836 0.813712
1.00012 1.0051 0.989704
1.00015 1.0035 0.990706
1.00078 1.00286 0.98911
0.999072 1.00438 0.990705
1.00129 1.00314 0.990954
1.00063 1.00409 0.990042
1.00047 1.00203 0.991943
1.00028 1.00332 0.991292
1.00023 1.00147 0.993361
0.998928 1.00395 0.993412
0.994755 0.994772 0.805305
0.994811 0.994813 0.803772
0.994883 0.994841 0.812185
0.995152 0.994855 0.816746
0.995513 0.995987 0.864728
0.994877 0.995086 0.95393
0.994815 0.9971 0.937588
0.995437 0.996193 0.955388
0.994851 0.99612 0.939444
0.99504 0.998663 0.86833
0.994758 0.994825 0.796934
0.994929 0.998065 0.95851
0.99484 0.999725 0.938979
0.994785 0.995463 0.88402
0.994711 0.994868 0.818116
0.998626 1.00125 0.996232
0.996947 1.00437 0.995258
0.999277 1.00292 0.993524
0.995415 1.00224 0.978348
0.99503 1.00522 0.995281
0.996193 1.0049 0.995907
0.994886 1.00451 0.998968
0.996014 1.00393 0.99772
0.995119 1.00236 0.999485
0.994907 1.0022 0.978913
0.9961 1.00096 1.00028
0.995493 1.00023 0.985654
0.994809 0.99482 0.818516
0.994791 0.99483 0.810753
0.994832 0.994833 0.81681
0.994922 1.00452 0.991068
0.994834 0.999883 0.963059
0.994822 0.994842 0.814298
0.99484 0.998642 0.937376
0.994773 0.997183 0.880692
0.994747 0.994762 0.80369
0.994748 0.994841 0.800449
0.995341 1.00483 0.98547
0.994816 0.99482 0.809864
0.994716 0.994793 0.798537
0.995027 0.998798 0.960047
0.995481 0.994865 0.879128
0.994809 0.997202 0.931805
0.995245 1.00241 0.982539
0.994697 0.994776 0.800652
0.997495 0.994818 0.882209
0.995896 0.995092 0.929038
0.994843 0.996008 0.960882
0.995635 1.00508 0.997547
0.996076 1.00229 0.998446
0.998824 1.00181 0.995886
0.995561 1.00344 0.999075
1.00054 1.00086 0.993593
1.00407 0.998378 0.989934
1.00393 1.00503 0.984353
1.00396 1.00321 0.983811
1.00452 0.999944 0.986301
1.00463 1.00452 0.982339
1.00459 1.00297 0.983482
1.00502 0.999363 0.986418
1.00532 0.996712 0.988316
1.00525 0.998798 0.98636
1.00525 0.99921 0.986056
1.00517 1.00057 0.985509
1.00513 1.00068 0.98527
1.00506 1.00154 0.984386
1.00519 1.00201 0.984308
1.00509 1.00146 0.984591
1.00499 1.00146 0.984506
1.00458 1.00159 0.985947
1.00463 1.00181 0.985264
1.00506 1.00211 0.984386
1.00152 1.00458 0.987158
1.00275 1.00288 0.987372
1.00323 1.00117 0.988296
1.00021 1.00203 0.993477
1.00104 1.00503 0.988173
1.0018 1.00425 0.988083
1.00016 0.998383 0.996452
1.0002 1.00119 0.99382
1.00079 1.00456 0.989198
1.00014 1.00053 0.994176
1.00012 0.997874 0.998705
1.00015 0.997536 0.998816
1.00105 1.00443 0.988933
1.00104 1.00511 0.988712
0.999561 1.00509 0.989858
1.00052 1.00348 0.990568
1.00061 1.0046 0.989376
1.00023 0.999459 0.995004
1.00054 1.00243 0.991587
1.00059 1.00366 0.990327
1.00013 0.997257 0.998961
1.00028 0.998982 0.995391
1.00043 1.00182 0.992355
1.00013 0.996973 0.999077
1.00025 0.998606 0.995806
1.00011 0.996795 0.999178
0.994781 0.994821 0.81941
0.994806 0.994836 0.806348
0.994808 0.994848 0.812283
1.00261 1.00128 0.988324
0.99981 1.00505 0.989692
0.999874 1.00353 0.990944
1.00006 1.00508 0.990346
1.00177 1.00242 0.989237
1.00051 1.00314 0.992101
1.00338 1.00251 0.986953
0.997519 1.00493 0.992776
1.00003 1.00351 0.991313
1.00002 1.00085 0.993464
0.998244 1.00377 0.993356
0.998335 1.00398 0.993891
0.99473 0.994814 0.808624
0.994771 0.994777 0.804732
0.994812 0.994811 0.80465
0.994795 0.99499 0.811744
0.99493 0.99787 0.866848
0.994836 0.998402 0.927512
0.995294 0.995058 0.955127
0.994974 0.998416 0.958389
0.994731 0.994965 0.809611
0.994857 0.996548 0.930667
0.994739 0.997321 0.866109
0.994873 0.996391 0.963474
0.994811 0.997643 0.940608
0.995608 0.994848 0.881166
1.00003 0.994841 1.00047
0.998511 1.00129 0.996134
0.996696 1.00423 0.995705
0.994911 1.00187 0.978756
0.995244 1.0014 0.999845
0.996515 1.00386 0.997704
0.997073 1.00025 1.00055
0.995134 0.999147 0.985789
0.996127 0.998472 0.992334
0.99471 0.994826 0.815605
0.994806 0.994813 0.819556
0.994803 0.994832 0.809787
0.994989 1.00454 0.985702
0.994846 0.999964 0.959576
0.994799 0.994827 0.810287
0.994835 0.997665 0.926508
0.9959 0.994835 0.862906
0.994757 0.994811 0.811651
0.994823 1.00486 0.98242
0.994706 0.994819 0.813875
0.997598 0.994762 0.862095
0.994866 0.995712 0.956657
0.996013 0.995923 0.940736
0.994887 1.0019 0.989568
0.999779 0.994854 0.852858
0.997668 0.994827 0.942721
0.994854 0.994815 0.955556
0.995177 1.00351 0.998346
0.998134 1.00155 0.995717
1.00097 1.00166 0.992312
0.999578 1.00073 0.9947
1.00339 0.998946 0.989714
1.00458 0.998589 0.98845
1.00386 1.00347 0.983704
1.00443 1.00009 0.9862
1.00507 0.996441 0.988717
1.00464 1.0024 0.983579
1.00494 0.999222 0.986389
1.00533 0.995724 0.98934
1.00528 0.995418 0.990119
1.0053 0.996873 0.988313
1.00533 0.996665 0.988422
1.00526 0.998724 0.98652
1.00525 0.998782 0.986546
1.00523 0.999159 0.986126
1.00526 1.00106 0.984751
1.00518 1.00047 0.985461
1.00513 1.00068 0.98519
1.00518 1.00173 0.984493
1.00509 1.00198 0.984352
1.00507 1.00135 0.984595
1.00289 1.00337 0.986532
1.00425 1.00195 0.98586
1.00406 1.00219 0.98547
1.00044 1.00267 0.991316
1.00198 1.00453 0.98717
1.00256 1.00315 0.987342
0.999875 0.999345 0.998289
1.00031 1.00198 0.992307
1.00131 1.00493 0.988196
1.00014 0.998323 0.99849
1.00022 1.00126 0.993291
1.00014 0.997932 0.998635
1.0035 1.00244 0.987679
1.00115 1.00424 0.988793
1.0013 1.00493 0.988343
1.00067 1.0043 0.989585
1.00073 1.00514 0.988692
0.9998 1.00516 0.989809
1.00011 1.00025 0.994462
1.0005 1.00348 0.99058
1.0005 1.00444 0.989347
1.00011 0.997454 0.998877
1.00022 0.999434 0.995023
1.00042 1.00256 0.991606
1.00012 0.997196 0.998985
1.00029 0.998952 0.995407
1.00012 0.996924 0.999106
0.994726 0.994794 0.800058
0.9948 0.994823 0.819762
0.994809 0.994836 0.806554
1.0025 1.00214 0.988188
1.00481 1.00197 0.986396
1.00239 1.00311 0.987522
0.999786 1.00509 0.989982
1.0031 1.00206 0.989363
0.998966 1.0022 0.993205
0.998643 1.00444 0.992242
1.00216 1.00304 0.988047
1.00211 1.00166 0.989957
0.998851 0.999641 0.996417
0.999049 1.00381 0.993282
0.99867 1.00425 0.993721
0.998491 0.9948 0.855473
0.994701 0.994803 0.802172
0.994779 0.994781 0.804894
0.994753 0.994845 0.800585
0.994804 0.997095 0.885045
0.994832 0.997027 0.926392
0.994848 0.996953 0.956843
0.994869 0.996708 0.961175
0.99583 0.995946 0.879262
0.994832 0.996217 0.92814
0.994861 0.997372 0.964611
0.995661 0.99477 0.929147
0.999568 0.995363 1.00263
0.999682 0.995836 1.00045
0.998297 1.00114 0.996121
0.994855 0.998893 0.986089
0.997619 0.999538 1.00083
0.996545 0.998676 0.991919
0.996106 0.996654 0.99027
0.999792 0.994935 0.867552
0.994701 0.994812 0.81277
0.994812 0.994815 0.820396
0.994805 1.00494 0.982792
0.994848 0.994884 0.954803
0.994699 0.994828 0.813436
0.995241 0.994761 0.929686
0.998603 0.994819 0.882171
0.994906 0.999868 0.986203
0.999751 0.994856 0.865553
0.997915 0.994847 0.928884
0.994844 0.994792 0.956889
0.996455 0.998306 0.987272
0.999955 0.994886 0.941626
0.995113 0.994815 0.962767
0.997068 1.00102 0.995548
1.00006 1.00071 0.992316
1.00354 0.999472 0.990963
1.00251 0.999932 0.989513
1.00428 0.998503 0.988389
1.00518 0.996173 0.989276
1.00442 1.00028 0.986104
1.00493 0.996956 0.988663
1.00529 0.994882 0.99011
1.0049 0.999109 0.986356
1.00533 0.995748 0.989286
1.00527 0.994897 0.99055
1.00529 0.995052 0.990583
1.00528 0.99539 0.990236
1.00524 0.995722 0.990089
1.00529 0.997257 0.988291
1.0053 0.996918 0.988452
1.00535 0.996605 0.98853
1.00529 0.999597 0.986049
1.00526 0.998774 0.986468
1.00524 0.99874 0.986733
1.0053 1.00174 0.98414
1.00527 1.00108 0.984779
1.00518 1.00041 0.985412
1.00363 1.00279 0.985882
1.00513 1.00179 0.984507
1.00493 1.00197 0.984398
1.0009 1.00307 0.990225
1.0029 1.00341 0.986494
1.00405 1.00201 0.985779
1.00013 0.999591 0.997974
1.0006 1.00257 0.991302
1.0023 1.00443 0.987181
1.00006 0.999235 0.997092
1.00048 1.00184 0.992325
1.00016 0.99858 0.998358
1.00455 1.00086 0.987051
1.00272 1.00241 0.987733
1.00144 1.00442 0.987885
1.00109 1.00421 0.988646
1.00093 1.00501 0.988385
1.001 1.0048 0.98875
1.00017 1.00103 0.993631
1.00059 1.00444 0.98956
1.00018 1.00513 0.988674
1.00008 0.997879 0.998709
1.00012 1.00012 0.994488
1.00051 1.00352 0.990594
1.00009 0.997487 0.998904
1.0002 0.999404 0.995054
1.00012 0.997177 0.99901
0.999695 0.994817 0.865784
0.99471 0.994801 0.805963
0.994811 0.994822 0.820161
1.00218 1.00238 0.988057
1.00272 1.00351 0.986644
1.00444 1.00243 0.986352
1.00488 1.0035 0.98356
1.00216 1.00304 0.988206
0.999483 1.00476 0.991759
1.00185 1.00348 0.989133
1.0015 1.00168 0.990597
1.00454 0.996527 0.989656
1.00213 0.998611 0.993521
1.00205 0.996507 0.995123
1.00023 0.998864 0.996094
0.999823 1.00257 0.99355
0.997532 0.994843 0.939177
0.998501 0.994769 0.860072
0.994674 0.994797 0.807942
0.996007 0.994845 0.864841
0.994817 0.997398 0.938331
0.994893 0.995895 0.96255
0.99486 0.996692 0.966267
0.996442 0.996554 0.941573
0.995741 0.99479 0.96515
0.998841 0.99688 1.00049
0.998757 0.996046 1.00269
0.99932 0.997014 1.00036
0.997035 0.997979 0.99162
0.997211 0.997074 0.990411
0.999986 0.994896 0.928203
0.999793 0.994887 0.873536
0.994687 0.994794 0.810056
0.994925 0.99911 0.982502
0.99512 0.994779 0.955918
0.999768 0.994815 0.864564
0.997569 0.994811 0.9421
0.996224 0.998054 0.987514
1.00005 0.994868 0.93725
0.99578 0.994827 0.960652
1.00039 0.994977 0.986698
0.997941 0.994788 0.97102
0.999281 0.999198 0.992351
1.00266 0.997931 0.990995
1.0051 0.995094 0.991308
1.00418 0.998193 0.988317
1.00514 0.995992 0.989189
1.00529 0.994821 0.990397
1.0047 0.997397 0.988608
1.00529 0.994942 0.990062
1.00527 0.994811 0.990516
1.00532 0.995758 0.989233
1.00526 0.994924 0.990523
1.0053 0.994837 0.990639
1.00528 0.995006 0.990639
1.00528 0.995196 0.990582
1.00528 0.995356 0.990353
1.00524 0.995704 0.990093
1.00522 0.996218 0.989594
1.00529 0.998333 0.987448
1.00529 0.997317 0.988276
1.0053 0.996963 0.988592
1.00534 1.00121 0.984561
1.0053 0.999696 0.985902
1.00527 0.998829 0.986417
1.00447 1.0021 0.985201
1.00527 1.00176 0.984198
1.00529 1.0011 0.984806
1.00136 1.0032 0.989145
1.00342 1.00307 0.985896
1.00489 1.00201 0.984519
1.00028 1.00035 0.997549
1.00102 1.0029 0.990212
1.00308 1.00349 0.986457
1.00021 0.999796 0.997817
1.00073 1.00243 0.991286
1.0002 0.999186 0.99806
1.00518 1.00289 0.98404
1.0042 1.00077 0.986996
1.00297 1.00271 0.986956
1.00222 1.00236 0.9878
1.00152 1.00438 0.987723
1.00134 1.005 0.987904
1.00067 1.00506 0.988423
1.00074 1.00493 0.988714
1.00027 1.00178 0.992665
1.00006 0.998427 0.998444
1.0001 1.00097 0.993652
1.00041 1.00454 0.989536
1.00006 0.997777 0.998772
1.00013 1.00001 0.994498
1.00008 0.997433 0.998928
0.999964 0.994887 0.942142
0.999814 0.994853 0.864842
0.994687 0.994789 0.799951
1.00238 1.00463 0.98576
1.0037 1.00275 0.986309
1.00326 1.00297 0.987503
1.00444 1.00333 0.983927
1.00518 1.00066 0.985033
1.00363 1.00002 0.987242
1.00069 1.00219 0.991201
1.00452 0.995809 0.990114
1.00209 0.9983 0.993554
1.00432 0.995347 0.990645
1.00355 0.997422 0.992601
1.00219 0.997361 0.993726
1.00164 0.996798 0.99496
0.999754 0.99957 0.995782
0.99561 0.994797 0.963469
0.998465 0.995757 0.934502
0.997357 0.994827 0.877805
0.995626 0.99554 0.928919
0.994884 0.996714 0.966621
0.995542 0.995691 0.970852
0.999256 0.994808 0.991892
0.99973 0.996167 0.99984
0.99803 0.99665 1.00277
0.998672 0.998867 0.990599
0.997354 0.994869 0.965383
1.00003 0.994875 0.94266
0.999807 0.99491 0.855536
0.995883 0.998094 0.987878
0.996284 0.994827 0.960889
0.999752 0.994832 0.932407
0.999706 0.995946 0.987121
0.998281 0.99483 0.970086
1.00293 0.995614 0.98909
1.00355 0.995899 0.984672
1.00165 0.996945 0.991015
1.00459 0.995081 0.991333
1.00527 0.994834 0.990727
1.00508 0.995941 0.989102
1.00529 0.994815 0.990345
1.00532 0.994897 0.990477
1.00529 0.995023 0.99001
1.00528 0.994826 0.990498
1.00533 0.994893 0.990501
1.00525 0.994958 0.990495
1.00529 0.994853 0.990649
1.00531 0.994893 0.990638
1.00527 0.994965 0.990693
1.00527 0.995158 0.99059
1.00524 0.995573 0.990364
1.00524 0.995693 0.990096
1.00522 0.996227 0.989596
1.00526 0.997524 0.988399
1.0053 1.00017 0.985676
1.00529 0.998526 0.987192
1.00528 0.99738 0.988261
1.00526 1.00111 0.984887
1.00533 1.00123 0.984611
1.00531 0.9998 0.985756
1.00214 1.00277 0.988304
1.00426 1.00237 0.985216
1.00524 1.00178 0.984254
1.0007 1.00085 0.997097
1.00147 1.00311 0.989129
1.00324 1.00335 0.985908
1.00049 1.00049 0.997372
1.00106 1.00277 0.990208
1.00037 1.00001 0.997637
1.00525 1.00149 0.984583
1.00516 1.00238 0.984152
1.00463 1.00214 0.984957
1.00418 1.0013 0.986941
1.00306 1.00278 0.98674
1.0024 1.00396 0.986979
1.00152 1.00436 0.987565
1.00117 1.005 0.987921
1.00053 1.00244 0.991652
1.00047 1.00512 0.988684
1.00015 1.00194 0.992683
1.00005 0.999256 0.998132
1.00004 0.998371 0.998543
1.00006 1.001 0.99368
1.00005 0.997757 0.998826
0.996565 0.99489 0.965796
0.999904 0.99488 0.927698
0.999819 0.994886 0.877971
1.00528 0.998461 0.986875
1.00453 1.00286 0.986819
1.00403 1.00312 0.984292
1.00428 0.999825 0.987716
1.00518 1.00088 0.984995
1.00502 0.997127 0.98862
1.00489 0.996475 0.990579
1.00186 0.99755 0.993603
1.00474 0.995927 0.99068
1.00324 0.997885 0.991679
1.00452 0.996818 0.989751
1.00328 0.994894 0.994279
1.00215 0.996877 0.993856
1.00155 0.99701 0.994787
0.998639 0.994771 0.990512
0.995745 0.994807 0.961931
0.998246 0.994811 0.928823
0.995254 0.996177 0.970636
0.998879 0.994823 0.994617
0.999985 0.995444 0.999141
1.00226 0.994888 0.981427
0.997358 0.994886 0.965055
0.999997 0.994882 0.92834
0.9987 0.996255 0.987538
0.998555 0.994848 0.96946
1.00206 0.995133 0.989629
1.00326 0.995435 0.985494
1.00386 0.995546 0.990573
1.0053 0.996125 0.990719
1.0041 0.994983 0.991352
1.00525 0.99485 0.990653
1.00538 0.994903 0.990333
1.00529 0.99481 0.990296
1.0053 0.994882 0.990488
1.00536 0.99489 0.990433
1.00528 0.994841 0.990481
1.00532 0.994883 0.990516
1.00532 0.994906 0.990628
1.00529 0.994868 0.99066
1.00531 0.994892 0.99063
1.00528 0.994985 0.990772
1.00526 0.995121 0.990598
1.00525 0.995447 0.990437
1.00526 0.996544 0.989454
1.00523 0.996232 0.989598
1.00526 0.997416 0.988505
1.00529 0.999706 0.986314
1.0053 1.00093 0.985019
1.00532 1.00034 0.985491
1.00529 0.998717 0.986936
1.00297 1.00141 0.988355
1.00511 1.00128 0.984882
1.00531 1.00125 0.984662
1.0011 1.00107 0.9967
1.00235 1.0025 0.988282
1.00405 1.00258 0.985239
1.00084 1.00092 0.996941
1.00164 1.00301 0.989121
1.00063 1.0006 0.997218
1.00525 1.00002 0.985645
1.00525 1.0015 0.984501
1.00517 1.00153 0.984609
1.00516 1.00184 0.984266
1.00488 1.00193 0.98485
1.00319 1.00329 0.986444
1.00331 1.00246 0.986523
1.00231 1.00409 0.986998
1.00079 1.00286 0.990638
1.00106 1.00506 0.987921
1.00034 1.00258 0.991679
1.00007 0.999985 0.997786
0.999995 1.00201 0.992703
0.999999 0.999061 0.998248
1.00001 0.998203 0.998633
1.00011 0.995224 0.986357
0.996486 0.994891 0.96189
0.99998 0.994861 0.941911
1.00526 0.99665 0.988771
1.00526 0.996396 0.989087
1.00528 0.99817 0.987154
1.00489 0.999211 0.988185
1.00517 1.00116 0.984962
1.00512 0.997073 0.98885
1.00527 0.995351 0.989603
1.00496 0.995708 0.990718
1.00298 0.99825 0.990764
1.00435 0.997079 0.990212
1.00516 0.994933 0.990816
1.00372 0.99478 0.993049
1.00292 0.994928 0.99398
1.00244 0.996448 0.993999
0.999305 0.994766 0.990557
0.995878 0.994817 0.960645
0.998896 0.994915 0.997481
1.00499 0.994893 0.990466
1.00221 0.994923 0.981567
0.997527 0.994873 0.963784
1.00174 0.994787 0.990113
1.00295 0.994807 0.986331
1.00393 0.99524 0.99124
1.00528 0.995396 0.990808
1.00544 0.994818 0.990833
1.00553 0.99485 0.991062
1.00528 0.994866 0.990578
1.0054 0.994901 0.990314
1.00536 0.994892 0.990558
1.00528 0.994865 0.990499
1.00536 0.99489 0.990458
1.00533 0.99491 0.990641
1.00531 0.994874 0.990531
1.00533 0.994907 0.990625
1.00527 0.994908 0.990888
1.00531 0.994892 0.990623
1.00529 0.994974 0.990746
1.00527 0.995777 0.990161
1.00525 0.995317 0.99051
1.00527 0.996492 0.989471
1.00531 0.999065 0.986933
1.00525 0.997309 0.988611
1.00529 0.999592 0.986446
1.00529 1.00067 0.985326
1.00311 1.00062 0.988838
1.00527 1.00094 0.985034
1.00533 1.00052 0.985305
1.00146 1.00093 0.996482
1.00297 1.00139 0.988342
1.00493 1.00152 0.984873
1.00125 1.0011 0.996566
1.0025 1.00232 0.988246
1.00102 1.00103 0.996758
1.00525 0.998099 0.987529
1.00525 0.999863 0.985853
1.00529 1.00106 0.984931
1.00523 1.00145 0.984413
1.00522 1.00153 0.984564
1.00374 1.00256 0.986114
1.00515 1.00177 0.984747
1.00322 1.00291 0.986433
1.00116 1.00322 0.989592
1.00216 1.00404 0.987025
1.00072 1.00299 0.990653
1.00023 1.0008 0.997414
1.0002 1.00274 0.991702
1 0.999861 0.99792
0.999947 0.998939 0.998357
1.00425 0.995203 0.991895
1.00012 0.995116 0.984111
0.996493 0.994915 0.961638
1.00529 0.995509 0.989927
1.00526 0.996193 0.989122
1.00525 0.995406 0.99025
1.00525 0.996474 0.989048
1.00527 0.997839 0.987428
1.00536 0.994858 0.990225
1.00514 0.997228 0.989071
1.00527 0.995605 0.989612
1.00533 0.994786 0.990586
1.00423 0.997421 0.990671
1.00515 0.995013 0.990493
1.00333 0.994948 0.993314
1.00224 0.995388 0.993689
0.999657 0.994765 0.990365
1.00553 0.994862 0.990831
1.00506 0.995233 0.990422
1.00197 0.995207 0.981801
1.00387 0.994795 0.9919
1.00525 0.994819 0.99091
1.00541 0.994829 0.990861
1.00556 0.994856 0.991019
1.0054 0.994868 0.991019
1.00542 0.994898 0.990299
1.00536 0.994893 0.990572
1.00531 0.994906 0.99086
1.00536 0.994891 0.990484
1.00533 0.99491 0.990634
1.00527 0.994922 0.990956
1.00533 0.994908 0.990621
1.00528 0.994908 0.990871
1.00528 0.995233 0.990788
1.00529 0.994963 0.99072
1.00527 0.995806 0.990139
1.00533 0.998354 0.987694
1.00528 0.996438 0.989487
1.0053 0.999069 0.986955
1.00528 1.00047 0.98557
1.00529 0.999479 0.986579
1.00529 1.00065 0.985345
1.00311 1.00033 0.99089
1.00179 1.00017 0.993163
1.00313 1.00065 0.989696
1.00526 1.00095 0.985046
1.00145 1.00089 0.996535
1.00303 1.00122 0.98833
1.00131 1.00118 0.996497
1.00521 0.995292 0.990599
1.00524 0.996778 0.989063
1.00525 0.998069 0.987738
1.00528 1.00029 0.985663
1.00525 0.999718 0.986063
1.00528 1.00111 0.984855
1.00454 1.00147 0.985567
1.00527 1.00153 0.984518
1.00393 1.00205 0.986085
1.00201 1.00287 0.988582
1.00338 1.00256 0.986421
1.00113 1.00328 0.989579
1.00059 1.00135 0.996951
1.00061 1.00306 0.990677
1.00011 1.00055 0.997561
0.999928 0.999684 0.998045
1.00548 0.994803 0.990817
1.00419 0.995065 0.991526
1.00049 0.994892 0.981934
1.00529 0.994902 0.990589
1.00526 0.995544 0.989823
1.00525 0.995764 0.989475
1.00524 0.995563 0.990201
1.00525 0.996566 0.989008
1.00538 0.994836 0.990577
1.00535 0.99486 0.990206
1.00527 0.995783 0.989618
1.00528 0.994786 0.990629
1.00513 0.995078 0.99017
1.00313 0.994694 0.993574
1.00533 0.994892 0.991146
1.00554 0.994848 0.990883
1.00519 0.995312 0.990372
1.00538 0.994838 0.990867
1.0056 0.994873 0.990979
1.00541 0.994868 0.990966
1.00531 0.994914 0.991156
1.00536 0.994896 0.990587
1.00532 0.994906 0.99082
1.00528 0.994936 0.991064
1.00534 0.994911 0.990626
1.00527 0.994921 0.990958
1.0053 0.994961 0.991102
1.00529 0.994908 0.990854
1.00526 0.995245 0.990768
1.00534 0.997667 0.988408
1.00528 0.995835 0.990117
1.00532 0.998366 0.987714
1.00528 1.00025 0.985806
1.0053 0.999072 0.986978
1.00529 1.00044 0.985597
1.00318 1.00014 0.990974
1.0053 1.00064 0.985362
1.00333 1.00022 0.99075
1.00186 0.999827 0.993354
1.00146 1.00049 0.994988
1.00333 1.00065 0.990372
1.00142 1.00086 0.996583
1.00522 0.9949 0.991014
1.00523 0.996421 0.989485
1.00522 0.995237 0.990704
1.00528 0.999297 0.986657
1.00525 0.996813 0.989065
1.00524 0.99804 0.987947
1.00527 1.0003 0.98561
1.00513 1.00083 0.985339
1.00527 1.00116 0.984779
1.00475 1.00125 0.985564
1.00279 1.00178 0.988253
1.0041 1.00166 0.98606
1.0018 1.00305 0.988602
1.001 1.00157 0.99656
1.001 1.00341 0.989576
1.00041 1.00118 0.99714
1 1.00042 0.997703
1.00533 0.994894 0.990843
1.0054 0.994807 0.990879
1.00394 0.995085 0.99116
1.00529 0.994867 0.990805
1.00528 0.994956 0.990526
1.00523 0.99557 0.989728
1.00524 0.995722 0.990151
1.00537 0.994837 0.990578
1.00534 0.994861 0.990188
1.00525 0.994791 0.990672
1.00528 0.994932 0.991213
1.00532 0.994894 0.991117
1.00554 0.994824 0.990931
1.00529 0.994931 0.991242
1.00542 0.994869 0.990915
1.0053 0.994915 0.991148
1.00527 0.994935 0.991184
1.00532 0.994908 0.990781
1.00527 0.994936 0.991073
1.00532 0.994925 0.991198
1.00526 0.994919 0.990959
1.00529 0.994964 0.991083
1.00535 0.997091 0.989046
1.00524 0.995257 0.990748
1.00535 0.997691 0.988414
1.00527 1.00004 0.986086
1.0053 0.998378 0.987734
1.00529 1.00023 0.985835
1.0032 1.00015 0.990917
1.0053 1.00042 0.985624
1.00338 1.00006 0.990805
1.00192 0.999757 0.993329
1.00354 1.00009 0.990619
1.00138 1.00002 0.993677
1.00079 1.00085 0.997173
1.00521 0.994892 0.991084
1.00523 0.995641 0.990349
1.00521 0.994945 0.990983
1.00528 0.998877 0.987151
1.00523 0.996138 0.989726
1.00522 0.995185 0.990809
1.0053 1.00034 0.985617
1.00528 0.999283 0.986623
1.00525 0.996847 0.989069
1.00527 1.0003 0.985555
1.00517 1.00076 0.985338
1.00299 1.00094 0.988721
1.00488 1.00103 0.985565
1.00262 1.002 0.988292
1.0012 1.00137 0.996523
1.0017 1.00313 0.98861
1.00086 1.00145 0.996702
1.00024 1.00101 0.997312
1.00528 0.994936 0.991026
1.00534 0.994892 0.990791
1.00535 0.994808 0.990946
1.00529 0.994867 0.990804
1.00528 0.995009 0.990464
1.00538 0.994838 0.990579
1.00527 0.994949 0.991235
1.00527 0.99493 0.991234
1.00532 0.994897 0.991088
1.00529 0.994934 0.991242
1.00524 0.994946 0.991346
1.0053 0.994916 0.99114
1.00527 0.994937 0.991206
1.00532 0.994953 0.991222
1.00527 0.994937 0.991083
1.00532 0.994926 0.991184
1.00535 0.996637 0.989582
1.00528 0.994966 0.991064
1.00538 0.997086 0.989038
1.0052 0.999849 0.986426
1.00535 0.997715 0.988421
1.00528 1.00001 0.986105
1.00314 1.00024 0.990894
1.00531 1.00021 0.985865
1.00338 1.00009 0.990736
1.00193 0.999851 0.993207
1.00356 0.999982 0.990643
1.00149 0.999812 0.993679
1.00091 1.00023 0.993985
1.00521 0.994945 0.991114
1.00524 0.994992 0.991049
1.0052 0.994891 0.991048
1.00534 0.997803 0.988203
1.00524 0.995677 0.990301
1.00521 0.994981 0.990952
1.00529 1.00008 0.985928
1.00528 0.998477 0.987502
1.00523 0.995854 0.989966
1.00305 1.00032 0.989239
1.00529 1.00035 0.985595
1.00528 0.999269 0.98659
1.00526 1.00067 0.985332
1.00296 1.00097 0.988725
1.00126 1.00096 0.996673
1.00242 1.00225 0.988324
1.00118 1.00135 0.996508
1.00071 1.00136 0.996866
1.00527 0.994949 0.99118
1.00529 0.994937 0.990996
1.00534 0.994889 0.990739
1.0053 0.994866 0.990803
1.00523 0.994962 0.991359
1.00527 0.994945 0.991241
1.00527 0.994928 0.991255
1.00529 0.994938 0.991242
1.00525 0.994944 0.991342
1.00529 0.995047 0.99114
1.00527 0.994939 0.991229
1.00532 0.995026 0.991148
1.00533 0.996276 0.990058
1.00532 0.994927 0.991171
1.00536 0.99662 0.989572
1.00512 0.999645 0.986772
1.0054 0.997095 0.98903
1.00522 0.999807 0.986439
1.00309 1.00032 0.989274
1.0053 0.999992 0.986127
1.0033 1.0002 0.989889
1.00166 0.999938 0.996642
1.00356 1.00004 0.990555
1.00155 0.999834 0.993567
1.00109 0.999866 0.994014
1.00522 0.994958 0.991204
1.00527 0.994941 0.991102
1.00521 0.994945 0.991146
1.00537 0.996945 0.989072
1.00525 0.995191 0.990795
1.00518 0.99489 0.991012
1.0053 0.999512 0.986532
1.00533 0.997788 0.988217
1.00525 0.995711 0.990253
1.00319 0.999927 0.989434
1.00528 0.999897 0.986089
1.00528 0.998073 0.987853
1.00139 1.0005 0.996777
1.0031 1.00026 0.989232
1.00529 1.00037 0.985569
1.00295 1.00101 0.988739
1.00132 1.00098 0.996612
1.00114 1.00133 0.99654
1.00522 0.994962 0.991291
1.00527 0.994953 0.991177
1.00529 0.994939 0.990967
1.00527 0.995105 0.991185
1.00523 0.99496 0.991336
1.00527 0.994941 0.991247
1.00525 0.994942 0.991338
1.00529 0.995103 0.991136
1.00532 0.996615 0.989657
1.00532 0.995113 0.991074
1.00533 0.996575 0.989695
1.00501 0.999039 0.987644
1.00537 0.996591 0.989563
1.00511 0.999637 0.986779
1.00301 1.00019 0.98954
1.00523 0.999769 0.986453
1.00312 1.00027 0.989284
1.00157 1.00001 0.996647
1.00334 1.0002 0.989037
1.0015 0.99996 0.995144
1.00118 0.99981 0.993926
1.00518 0.994957 0.991343
1.00527 0.994962 0.991252
1.00521 0.994959 0.991211
1.00537 0.997086 0.988982
1.00527 0.994939 0.991136
1.00521 0.994945 0.991177
1.00525 0.999319 0.9868
1.00537 0.997357 0.98867
1.00526 0.995395 0.99054
1.00324 0.999878 0.989419
1.00529 0.99947 0.986556
1.00533 0.997781 0.98823
1.00156 1.0001 0.996777
1.00321 0.999884 0.98943
1.00527 0.999709 0.986249
1.00141 1.00051 0.996744
1.00314 1.00019 0.989224
1.00128 1.00102 0.996551
1.00525 0.995163 0.99109
1.00522 0.994962 0.991311
1.00527 0.994957 0.991173
1.00532 0.99664 0.989653
1.00527 0.995152 0.991158
1.00523 0.994958 0.991312
1.00529 0.995158 0.991132
1.00532 0.996649 0.989665
1.00495 0.998848 0.987925
1.00533 0.996857 0.989332
1.00503 0.999235 0.987341
1.00292 1.00005 0.98983
1.00511 0.999624 0.986784
1.00299 1.00021 0.989548
1.00145 1.00003 0.996686
1.00314 1.00023 0.989291
1.00153 1.00003 0.996654
1.0016 0.999929 0.993339
1.00524 0.995232 0.991067
1.00519 0.994953 0.991278
1.00534 0.996879 0.989288
1.00526 0.994961 0.99126
1.00521 0.994961 0.991217
1.00521 0.999607 0.986607
1.00536 0.997108 0.988988
1.00527 0.994937 0.99117
1.00322 0.999982 0.989384
1.00525 0.999518 0.986598
1.00536 0.997772 0.98827
1.00164 0.99993 0.996715
1.00325 0.99987 0.989416
1.00528 0.999426 0.986581
1.00156 1.00014 0.996782
1.00325 0.999851 0.989425
1.00145 1.00053 0.996707
1.00532 0.996742 0.989519
1.00525 0.995202 0.991115
1.00522 0.994961 0.99133
1.00493 0.998795 0.988001
1.00531 0.996678 0.989655
1.00526 0.995202 0.991132
1.00531 0.996688 0.989672
1.00498 0.998819 0.987889
1.0028 0.999955 0.990135
1.00506 0.999436 0.987037
1.00291 1.00006 0.989841
1.00138 1.00002 0.996752
1.00299 1.00022 0.989559
1.00142 1.00006 0.996715
1.0015 1.00004 0.996672
1.00531 0.996777 0.9895
1.00524 0.995107 0.991177
1.0052 0.99495 0.991212
1.0051 0.999549 0.986887
1.00534 0.996894 0.989294
1.00526 0.994959 0.991268
1.00314 1.00004 0.989483
1.00518 0.999661 0.986602
1.00536 0.997128 0.988994
1.00162 0.999931 0.996663
1.00321 1 0.989382
1.00524 0.999706 0.986398
1.00165 0.999956 0.99674
1.00327 0.999872 0.989411
1.00159 1.00014 0.996777
1.00495 0.99924 0.987453
1.00532 0.996574 0.989743
1.00525 0.995245 0.99114
1.00274 0.999867 0.990362
1.00494 0.998763 0.987995
1.00531 0.996711 0.989657
1.00501 0.998783 0.987854
1.00281 0.999929 0.990145
1.00129 1.00001 0.996807
1.00289 1.00006 0.98985
1.00135 1.00003 0.996766
1.00136 1.00008 0.996737
1.00502 0.999379 0.987217
1.00532 0.996635 0.989659
1.00523 0.994963 0.991289
1.00311 1.00005 0.991161
1.00508 0.999552 0.986894
1.00534 0.996913 0.989301
1.00152 0.999969 0.996679
1.00311 1.00009 0.989482
1.00514 0.999719 0.986597
1.00164 0.999937 0.996682
1.00321 1.00002 0.989377
1.00167 0.999967 0.996762
1.00284 0.999861 0.990258
1.00495 0.999038 0.987673
1.00531 0.996402 0.989965
1.00119 0.999979 0.99689
1.00272 0.999862 0.990358
1.00495 0.998733 0.98799
1.00281 0.999904 0.990153
1.00126 1.00001 0.996838
1.00131 1.00005 0.996789
1.00304 0.999956 0.99141
1.00499 0.99939 0.987222
1.00532 0.996507 0.989818
1.00088 1.00001 0.997301
1.00298 1.00006 0.989751
1.00507 0.999548 0.9869
1.00154 0.999977 0.996675
1.00309 1.00014 0.989479
1.00166 0.99994 0.996701
1.00117 0.999936 0.994022
1.00287 0.99987 0.990946
1.00494 0.998833 0.987891
1.00121 0.999982 0.9969
1.00273 0.999862 0.990361
1.00126 0.999994 0.996862
1.00068 0.999998 0.994467
1.00295 0.999937 0.990744
1.00497 0.999407 0.987227
1.00112 1 0.995505
1.00296 1.00006 0.989777
1.00158 0.999975 0.996678
1.0012 0.999967 0.996895
1.00273 0.999861 0.990352
1.00117 0.999982 0.996899
1.00097 0.999965 0.995683
1.00283 0.999932 0.990139
1.00143 0.999994 0.996718
1.00123 0.999969 0.996894
1.00129 0.999979 0.996819

TENSORS stress float
0.0023535 -0.000163024 0.000272257
-0.000163024 0.00115728 -4.77011e-05
0.000272257 -4.77011e-05 0.00113075
0.00728949 8.58373e-05 0.000320056
8.58373e-05 0.00428899 3.73375e-05
0.000320056 3.73375e-05 0.00429742
0.00195449 -9.29138e-05 0.000112979
-9.29138e-05 0.000903032 -1.85156e-05
0.000112979 -1.85156e-05 0.000863941
0.00229254 -9.19328e-05 0.000261544
-9.19328e-05 0.00109572 -2.72191e-05
0.000261544 -2.72191e-05 0.00107913
0.00236365 -0.000142868 0.000265557
-0.000142868 0.00115393 -4.20036e-05
0.000265557 -4.20036e-05 0.00113094
0.00233473 -0.000167577 0.000283495
-0.000167577 0.00114625 -4.95551e-05
0.000283495 -4.95551e-05 0.00111974
0.00191577 -0.00015955 5.40398e-05
-0.00015955 0.000774542 -1.51672e-05
5.40398e-05 -1.51672e-05 0.000653306
0.0072458 7.83247e-05 -7.78901e-06
7.83247e-05 0.00425302 -1.95915e-06
-7.78901e-06 -1.95915e-06 0.0042662
0.00672285 0.000231504 0.000157944
0.000231504 0.00393027 1.62904e-05
0.000157944 1.62904e-05 0.00390198
0.00673637 1.47958e-06 9.31166e-05
1.47958e-06 0.00391605 5.07545e-06
9.31166e-05 5.07545e-06 0.00389655
0.00207139 0.000214775 0.000295609
0.000214775 0.000989246 4.03814e-05
0.000295609 4.03814e-05 0.000976856
0.000358292 0.000266574 2.68328e-05
0.000266574 -0.00016802 2.0601e-05
2.68328e-05 2.0601e-05 -0.000316528
0.00186355 -3.2497e-05 0.000254788
-3.2497e-05 0.00082416 4.20658e-06
0.000254788 4.20658e-06 0.000826096
0.00157792 3.67897e-06 6.87257e-05
3.67897e-06 0.00066358 2.06879e-06
6.87257e-05 2.06879e-06 0.000615505
0.00164063 -9.1872e-05 -6.17539e-05
-9.1872e-05 0.000716822 1.16219e-05
-6.17539e-05 1.16219e-05 0.000658746
0.00193257 -9.11822e-05 8.47986e-05
-9.11822e-05 0.000885647 -5.38314e-06
8.47986e-05 -5.38314e-06 0.000849903
0.0019674 -8.16039e-05 0.000122876
-8.16039e-05 0.000915451 -2.00752e-05
0.000122876 -2.00752e-05 0.000872519
0.00195241 -9.86938e-05 0.000100782
-9.86938e-05 0.000896212 -1.41744e-05
0.000100782 -1.41744e-05 0.000859927
0.00200849 -0.000195763 -4.28576e-05
-0.000195763 0.000831775 6.52463e-06
-4.28576e-05 6.52463e-06 0.000719806
0.00630677 -0.000151599 0.000332973
-0.000151599 0.00367575 -1.50878e-05
0.000332973 -1.50878e-05 0.00369623
0.00222183 -6.82626e-05 0.000258427
-6.82626e-05 0.00105168 -2.00181e-05
0.000258427 -2.00181e-05 0.0010384
0.00236045 -0.000118368 0.000263959
-0.000118368 0.00114275 -3.49244e-05
0.000263959 -3.49244e-05 0.00112334
0.00188284 -0.000145993 7.29341e-05
-0.000145993 0.000758469 -1.14955e-05
7.29341e-05 -1.14955e-05 0.000655841
0.00191089 -0.000160736 6.22659e-05
-0.000160736 0.000766426 -1.47162e-05
6.22659e-05 -1.47162e-05 0.000654534
0.00237896 -0.000147668 0.000290638
-0.000147668 0.00116208 -4.65232e-05
0.000290638 -4.65232e-05 0.00113853
0.00192025 -0.000159816 4.8266e-05
-0.000159816 0.000797684 -1.55557e-05
4.8266e-05 -1.55557e-05 0.000662994
0.00206786 -0.000356999 1.99305e-05
-0.000356999 0.000616791 -8.72545e-06
1.99305e-05 -8.72545e-06 0.000383975
0.00722145 6.23672e-05 -0.000321548
6.23672e-05 0.00422637 -2.78801e-05
-0.000321548 -2.78801e-05 0.00424415
0.0043944 0.000170291 -0.000152249
0.000170291 0.0024476 -1.76844e-05
-0.000152249 -1.76844e-05 0.00242448
0.00442665 9.02601e-05 -0.000154303
9.02601e-05 0.00247344 -1.6273e-05
-0.000154303 -1.6273e-05 0.00245207
0.00716043 4.1872e-06 -3.16508e-06
4.1872e-06 0.00420852 -7.31665e-07
-3.16508e-06 -7.31665e-07 0.00421822
0.000401128 0.00025029 -8.82158e-07
0.00025029 -0.000139208 -1.43586e-06
-8.82158e-07 -1.43586e-06 -0.000287855
0.00192917 7.23671e-05 0.00026488
7.23671e-05 0.000864412 2.55671e-05
0.00026488 2.55671e-05 0.000852866
0.00206383 0.000163615 0.000272851
0.000163615 0.000983715 3.95607e-05
0.000272851 3.95607e-05 0.000959387
0.00287402 0.000222524 0.000162463
0.000222524 0.00136767 2.44122e-05
0.000162463 2.44122e-05 0.00128011
0.00624975 -0.000272173 2.32152e-05
-0.000272173 0.0036941 4.21648e-06
2.32152e-05 4.21648e-06 0.00364332
0.00300029 0.000301506 0.000171513
0.000301506 0.00149203 3.03457e-05
0.000171513 3.03457e-05 0.00138611
0.000409063 0.000237895 2.61658e-05
0.000237895 -0.000126945 2.84985e-05
2.61658e-05 2.84985e-05 -0.000276603
0.000879619 0.000292549 1.69155e-05
0.000292549 -2.41322e-05 6.40022e-06
1.69155e-05 6.40022e-06 -0.000267439
0.00514763 -0.000115399 0.000193585
-0.000115399 0.00300755 2.03676e-05
0.000193585 2.03676e-05 0.00300211
0.00629513 8.54864e-05 3.11501e-06
8.54864e-05 0.00365365 -1.98098e-06
3.11501e-06 -1.98098e-06 0.00368205
0.00413675 9.57253e-05 -0.000127414
9.57253e-05 0.00228082 -6.02273e-06
-0.000127414 -6.02273e-06 0.00226993
0.00612938 5.7728e-05 0.00032328
5.7728e-05 0.0035521 4.54743e-06
0.00032328 4.54743e-06 0.00358134
0.00145689 9.06499e-05 6.98865e-05
9.06499e-05 0.000592172 4.66909e-06
6.98865e-05 4.66909e-06 0.000549059
0.000476796 1.21768e-05 1.48038e-05
1.21768e-05 -0.00015464 1.602e-06
1.48038e-05 1.602e-06 -0.000244568
0.00653838 0.000241136 0.000188054
0.000241136 0.00383574 1.85225e-05
0.000188054 1.85225e-05 0.0038099
0.0029224 8.16014e-05 0.000152574
8.16014e-05 0.0013785 9.93573e-06
0.000152574 9.93573e-06 0.00131824
0.00152799 -9.15909e-05 -8.31817e-05
-9.15909e-05 0.0006483 1.09574e-05
-8.31817e-05 1.09574e-05 0.00059284
0.00155375 -0.000117703 -7.49894e-05
-0.000117703 0.000669235 1.38827e-05
-7.49894e-05 1.38827e-05 0.000608917
0.00170543 -5.05861e-05 -4.9532e-05
-5.05861e-05 0.000751342 9.69278e-06
-4.9532e-05 9.69278e-06 0.00069329
0.00206513 -0.000197913 -0.000147117
-0.000197913 0.000858221 2.82402e-05
-0.000147117 2.82402e-05 0.000758559
0.003956 -2.64183e-05 -0.000129431
-2.64183e-05 0.00217897 -1.49186e-06
-0.000129431 -1.49186e-06 0.00216802
0.00188923 -7.07491e-05 8.98985e-05
-7.07491e-05 0.000856165 -4.30841e-06
8.98985e-05 -4.30841e-06 0.000824819
0.00203711 -6.00841e-05 0.000130446
-6.00841e-05 0.000957231 -1.94459e-05
0.000130446 -1.94459e-05 0.000912228
0.001951 -9.55098e-05 9.15363e-05
-9.55098e-05 0.000894271 -9.29987e-06
9.15363e-05 -9.29987e-06 0.000858646
0.00195781 -0.000123699 -3.46217e-05
-0.000123699 0.000794798 2.5747e-06
-3.46217e-05 2.5747e-06 0.000704749
0.0020143 -0.000202245 -4.98973e-05
-0.000202245 0.000850147 7.56292e-06
-4.98973e-05 7.56292e-06 0.000728289
0.00200063 -0.000177385 -3.72065e-05
-0.000177385 0.000821375 4.69435e-06
-3.72065e-05 4.69435e-06 0.000718273
0.00211474 -0.000360926 -1.05061e-05
-0.000360926 0.00064459 2.74134e-06
-1.05061e-05 2.74134e-06 0.000412275
0.00611074 -1.18212e-06 0.00031924
-1.18212e-06 0.00353819 -2.97885e-06
0.00031924 -2.97885e-06 0.0035687
0.0021424 -4.29022e-05 0.000253109
-4.29022e-05 0.00100543 -1.38678e-05
0.000253109 -1.38678e-05 0.00099641
0.00245044 -1.38408e-05 5.44628e-05
-1.38408e-05 0.0011123 -1.03109e-06
5.44628e-05 -1.03109e-06 0.0010419
0.00184981 -0.000117868 6.59014e-05
-0.000117868 0.000738052 -7.33924e-06
6.59014e-05 -7.33924e-06 0.000644825
0.00190458 -0.000155128 6.90981e-05
-0.000155128 0.000766221 -1.37146e-05
6.90981e-05 -1.37146e-05 0.000659139
0.00193832 -0.000231813 7.50782e-06
-0.000231813 0.000456436 -2.77809e-06
7.50782e-06 -2.77809e-06 0.000281606
0.00196138 -0.000313387 1.62952e-05
-0.000313387 0.000510444 -6.18177e-06
1.62952e-05 -6.18177e-06 0.000303526
0.00189537 -0.000105403 0.000260311
-0.000105403 0.000863168 -3.80199e-05
0.000260311 -3.80199e-05 0.00084232
0.0019986 -0.000128982 3.95237e-05
-0.000128982 0.000864388 -1.43259e-05
3.95237e-05 -1.43259e-05 0.000725229
0.00206254 -0.00039311 2.31729e-05
-0.00039311 0.000660504 -9.60657e-06
2.31729e-05 -9.60657e-06 0.000403208
0.00180453 -0.000473673 7.17305e-06
-0.000473673 0.000214014 -7.50687e-07
7.17305e-06 -7.50687e-07 -6.48774e-05
0.00713473 0.000286947 -0.000365109
0.000286947 0.00418867 -4.26775e-05
-0.000365109 -4.26775e-05 0.0041953
0.00698671 -2.59678e-05 -0.000284507
-2.59678e-05 0.0041014 -2.21472e-05
-0.000284507 -2.21472e-05 0.00411266
0.00712964 0.000140982 -0.000336764
0.000140982 0.00416678 -3.3122e-05
-0.000336764 -3.3122e-05 0.00418579
0.000356069 0.000236331 -2.51922e-05
0.000236331 -0.000160541 -2.09524e-05
-2.51922e-05 -2.09524e-05 -0.000311307
0.00699242 0.000252851 -2.21422e-06
0.000252851 0.00409309 -2.48339e-06
-2.21422e-06 -2.48339e-06 0.00410529
0.00714686 0.000241587 -8.96181e-06
0.000241587 0.00418767 -3.26806e-06
-8.96181e-06 -3.26806e-06 0.00419746
0.000341614 0.000139695 3.53417e-07
0.000139695 -0.000239436 -2.69273e-07
3.53417e-07 -2.69273e-07 -0.000360936
0.00390609 -7.71017e-05 -0.000126915
-7.71017e-05 0.00219098 -6.19423e-06
-0.000126915 -6.19423e-06 0.0021593
0.00028977 0.000215153 7.145e-07
0.000215153 -0.000220997 -5.32556e-07
7.145e-07 -5.32556e-07 -0.00036309
0.00181018 0.00025098 6.29811e-05
0.00025098 0.000763549 3.99465e-06
6.29811e-05 3.99465e-06 0.000639244
0.000930167 0.000294294 9.02006e-07
0.000294294 1.48895e-05 1.54156e-07
9.02006e-07 1.54156e-07 -0.00022749
0.00586383 -0.000131891 0.000219271
-0.000131891 0.00346648 2.7054e-05
0.000219271 2.7054e-05 0.00345109
0.00055496 8.92848e-05 2.05551e-05
8.92848e-05 1.96424e-05 1.44286e-05
2.05551e-05 1.44286e-05 -6.24289e-05
0.000457066 0.000109024 1.4707e-05
0.000109024 -0.000183937 1.12094e-05
1.4707e-05 1.12094e-05 -0.000298296
0.000461734 0.000169692 1.94041e-05
0.000169692 -0.000150181 1.90837e-05
1.94041e-05 1.90837e-05 -0.000280094
0.00124799 0.000282455 1.55512e-05
0.000282455 2.45184e-05 5.92338e-06
1.55512e-05 5.92338e-06 -0.000190871
0.00315639 0.000243538 0.000155573
0.000243538 0.00162537 2.27267e-05
0.000155573 2.27267e-05 0.00153916
0.00106247 0.000315235 2.17018e-05
0.000315235 2.79464e-05 7.6224e-06
2.17018e-05 7.6224e-06 -0.000214848
0.000873002 0.000287934 1.40489e-05
0.000287934 7.81578e-05 6.13827e-06
1.40489e-05 6.13827e-06 -0.000169635
0.00141155 0.000488416 5.21504e-06
0.000488416 0.000177628 -2.75537e-06
5.21504e-06 -2.75537e-06 -0.000156344
0.00407611 -0.000130702 0.000126243
-0.000130702 0.0023113 9.66254e-06
0.000126243 9.66254e-06 0.00230706
0.00462248 -0.000170566 2.37668e-05
-0.000170566 0.00267927 -2.87564e-07
2.37668e-05 -2.87564e-07 0.00266224
0.00679901 6.86924e-05 -0.000344101
6.86924e-05 0.00395426 -1.78542e-05
-0.000344101 -1.78542e-05 0.00398129
0.00639718 7.69048e-05 -0.000335563
7.69048e-05 0.00371378 -1.08932e-05
-0.000335563 -1.08932e-05 0.00374343
0.00622249 8.37183e-05 -5.60068e-08
8.37183e-05 0.00361556 -4.01645e-06
-5.60068e-08 -4.01645e-06 0.00364177
0.00397957 3.72952e-05 -0.000138534
3.72952e-05 0.00218324 -7.62055e-06
-0.000138534 -7.62055e-06 0.00217764
0.00158558 3.98464e-05 6.60197e-05
3.98464e-05 0.000548418 1.84996e-06
6.60197e-05 1.84996e-06 0.000477389
0.00431583 0.000156651 -0.000130829
0.000156651 0.00239959 -7.96316e-06
-0.000130829 -7.96316e-06 0.00238022
0.00163447 9.56448e-05 6.72171e-05
9.56448e-05 0.000568008 3.48431e-06
6.72171e-05 3.48431e-06 0.000485233
0.00616485 0.000117427 0.000325739
0.000117427 0.00358804 7.33205e-06
0.000325739 7.33205e-06 0.00360952
0.000370068 1.02985e-05 1.8125e-05
1.02985e-05 -0.000216827 7.47832e-07
1.8125e-05 7.47832e-07 -0.000302489
0.00282019 4.26735e-05 0.000149498
4.26735e-05 0.00132155 6.56363e-06
0.000149498 6.56363e-06 0.00126748
0.00111957 7.18588e-05 1.11637e-05
7.18588e-05 -5.47663e-05 3.92837e-07
1.11637e-05 3.92837e-07 -0.000190033
0.00281205 0.000128164 0.000157198
0.000128164 0.0013092 1.36025e-05
0.000157198 1.36025e-05 0.00124095
0.00123767 0.000157515 7.68279e-06
0.000157515 -2.96292e-05 1.31268e-06
7.68279e-06 1.31268e-06 -0.000188748
0.00188126 4.0856e-05 -0.000253692
4.0856e-05 0.000833124 3.47467e-06
-0.000253692 3.47467e-06 0.000837823
0.00145987 -2.19063e-05 -6.86368e-05
-2.19063e-05 0.000597263 3.20964e-06
-6.86368e-05 3.20964e-06 0.000548534
0.00170078 -2.06327e-05 -4.34448e-05
-2.06327e-05 0.000746886 8.91676e-06
-4.34448e-05 8.91676e-06 0.000687091
0.00152277 -0.000108576 -8.40884e-05
-0.000108576 0.000648204 1.3585e-05
-8.40884e-05 1.3585e-05 0.000590295
0.00207729 -0.000101678 -0.000137103
-0.000101678 0.000859098 1.35022e-05
-0.000137103 1.35022e-05 0.000781733
0.00209847 -0.000163339 -0.000142019
-0.000163339 0.000869916 2.3788e-05
-0.000142019 2.3788e-05 0.000780686
0.00206921 -0.00021924 -0.00015274
-0.00021924 0.000878362 3.01422e-05
-0.00015274 3.01422e-05 0.000768092
0.00216265 -0.000364967 -3.64898e-05
-0.000364967 0.000674145 1.29813e-05
-3.64898e-05 1.29813e-05 0.000442425
0.00620908 -0.000111042 2.40454e-06
-0.000111042 0.00361338 -1.96171e-06
2.40454e-06 -1.96171e-06 0.0036358
0.00177211 2.54763e-05 9.67478e-05
2.54763e-05 0.000775028 -4.97198e-06
9.67478e-05 -4.97198e-06 0.000753481
0.00117178 -1.34557e-05 -6.90197e-05
-1.34557e-05 0.000292356 2.27748e-06
-6.90197e-05 2.27748e-06 0.000221172
0.00190043 -8.19795e-05 -3.78043e-05
-8.19795e-05 0.000760914 3.24304e-06
-3.78043e-05 3.24304e-06 0.000678549
0.00467733 -6.52938e-05 0.0002717
-6.52938e-05 0.00263674 -2.07739e-05
0.0002717 -2.07739e-05 0.002631
0.002616 -0.000210699 -4.72896e-05
-0.000210699 0.00124364 4.61268e-06
-4.72896e-05 4.61268e-06 0.0011187
0.00199301 -0.000151629 -3.45311e-05
-0.000151629 0.000815474 3.35526e-06
-3.45311e-05 3.35526e-06 0.000719411
0.00201216 -0.000232426 -9.41902e-06
-0.000232426 0.000499305 1.79296e-06
-9.41902e-06 1.79296e-06 0.000328629
0.00212046 -0.0004011 -9.10336e-06
-0.0004011 0.000698113 2.57081e-06
-9.10336e-06 2.57081e-06 0.000439783
0.00204155 -0.000316839 -9.39446e-06
-0.000316839 0.00056137 2.48678e-06
-9.39446e-06 2.48678e-06 0.000352708
0.00185121 -0.000476518 9.46153e-07
-0.000476518 0.000244945 -2.14556e-07
9.46153e-07 -2.14556e-07 -3.36869e-05
0.000405162 8.60238e-06 1.88988e-05
8.60238e-06 -0.000198108 -5.95503e-07
1.88988e-05 -5.95503e-07 -0.00027995
0.0017373 -8.83201e-06 5.63273e-05
-8.83201e-06 0.000656567 -2.73888e-06
5.63273e-05 -2.73888e-06 0.000577654
0.00189613 -7.81951e-05 9.00875e-06
-7.81951e-05 0.000440751 -2.92754e-07
9.00875e-06 -2.92754e-07 0.000321719
0.00190809 -0.000183571 8.94113e-06
-0.000183571 0.000433228 -9.51147e-07
8.94113e-06 -9.51147e-07 0.000281534
0.00197542 -0.000274232 1.14495e-05
-0.000274232 0.00049174 -4.08664e-06
1.14495e-05 -4.08664e-06 0.000305683
0.00197321 -0.00033067 -2.17555e-07
-0.00033067 0.00017823 -3.19249e-07
-2.17555e-07 -3.19249e-07 -1.01218e-06
0.00662674 7.55998e-05 0.000244993
7.55998e-05 0.00389879 -1.99958e-05
0.000244993 -1.99958e-05 0.00389943
0.00178387 -0.00043363 5.19367e-06
-0.00043363 0.000143925 -5.57828e-07
5.19367e-06 -5.57828e-07 -0.000101265
0.000215879 -0.000195389 2.02775e-05
-0.000195389 -0.000265089 -2.28818e-05
2.02775e-05 -2.28818e-05 -0.000397984
0.000968624 -0.000318176 1.94262e-05
-0.000318176 3.58654e-05 -1.06126e-05
1.94262e-05 -1.06126e-05 -0.000226417
0.0019303 -0.000533251 1.05006e-05
-0.000533251 0.000360231 -1.00485e-06
1.05006e-05 -1.00485e-06 3.73609e-05
0.00199442 -0.00054539 2.33206e-06
-0.00054539 0.000228599 2.55743e-06
2.33206e-06 2.55743e-06 -3.32098e-05
0.00044594 -0.000165031 2.29584e-05
-0.000165031 -8.07127e-05 -1.85051e-05
2.29584e-05 -1.85051e-05 -0.000192406
0.000712098 -0.000149583 -6.1251e-07
-0.000149583 0.000136392 -1.29029e-06
-6.1251e-07 -1.29029e-06 -0.000116803
0.00708395 0.000277958 -0.000371973
0.000277958 0.00415692 -3.98964e-05
-0.000371973 -3.98964e-05 0.00416578
0.00716292 0.000231403 -0.000352821
0.000231403 0.0041958 -3.95355e-05
-0.000352821 -3.95355e-05 0.00420936
0.000327154 0.000137917 -1.81928e-05
0.000137917 -0.000250112 -1.38275e-05
-1.81928e-05 -1.38275e-05 -0.000372042
0.00625827 -0.000101642 -0.000230176
-0.000101642 0.00367753 -1.73655e-05
-0.000230176 -1.73655e-05 0.00367752
0.000235296 0.00021136 -2.27317e-05
0.00021136 -0.000235943 -2.1932e-05
-2.27317e-05 -2.1932e-05 -0.000368932
0.000356072 0.000207512 -2.16173e-05
0.000207512 -0.000178652 -1.89507e-05
-2.16173e-05 -1.89507e-05 -0.000322239
0.000911451 0.00029136 -1.84881e-05
0.00029136 7.76925e-06 -7.41746e-06
-1.84881e-05 -7.41746e-06 -0.000233505
0.00569494 -0.000117394 -6.80218e-06
-0.000117394 0.0033451 1.64582e-06
-6.80218e-06 1.64582e-06 0.00333892
0.000552001 7.0546e-05 1.6662e-06
7.0546e-05 2.04564e-05 3.6635e-07
1.6662e-06 3.6635e-07 -5.82697e-05
0.00169009 0.000152924 6.97808e-05
0.000152924 0.000600745 6.29726e-06
6.97808e-05 6.29726e-06 0.000502629
0.00167981 0.000217483 7.18277e-05
0.000217483 0.000629545 7.38596e-06
7.18277e-05 7.38596e-06 0.000514534
0.00122115 0.000281496 -1.6253e-09
0.000281496 1.28901e-05 -3.4779e-07
-1.6253e-09 -3.4779e-07 -0.000203497
0.000412279 0.000185185 -4.81769e-07
0.000185185 -0.000106464 -3.68324e-07
-4.81769e-07 -3.68324e-07 -0.000222361
0.00103977 0.000310675 1.36887e-06
0.000310675 1.6271e-05 1.60825e-07
1.36887e-06 1.60825e-07 -0.000225395
0.000763152 0.000269039 4.14254e-07
0.000269039 4.80202e-06 -9.45145e-07
4.14254e-07 -9.45145e-07 -0.000236323
0.00155942 0.000511646 -5.1242e-07
0.000511646 0.000258594 -4.93003e-07
-5.1242e-07 -4.93003e-07 -7.89784e-05
0.000415363 0.000145846 1.9928e-05
0.000145846 -8.37237e-05 1.73587e-05
1.9928e-05 1.73587e-05 -0.000188058
0.000641509 3.0676e-05 1.15712e-05
3.0676e-05 8.87037e-05 1.35397e-05
1.15712e-05 1.35397e-05 2.51087e-05
0.00144202 0.000245571 5.01372e-06
0.000245571 0.00061943 3.64853e-06
5.01372e-06 3.64853e-06 0.000389851
0.00127467 0.000245759 1.13245e-05
0.000245759 5.58729e-06 4.22083e-06
1.13245e-05 4.22083e-06 -0.000190658
0.00119892 0.000310338 2.03264e-05
0.000310338 4.5718e-05 7.42852e-06
2.03264e-05 7.42852e-06 -0.000186922
0.00199391 0.000464938 4.22606e-06
0.000464938 0.000254813 -3.60041e-07
4.22606e-06 -3.60041e-07 5.18642e-06
0.000590892 0.000232246 1.01544e-05
0.000232246 -2.01259e-05 5.99145e-06
1.01544e-05 5.99145e-06 -0.0002541
0.00195879 0.000552672 5.6456e-06
0.000552672 0.00039958 -1.64267e-06
5.6456e-06 -1.64267e-06 8.11972e-05
0.0013408 0.000473942 2.14806e-06
0.000473942 0.000252171 -3.29063e-06
2.14806e-06 -3.29063e-06 -0.000101083
0.00160209 0.000584027 -6.0747e-06
0.000584027 0.000184133 -5.7256e-06
-6.0747e-06 -5.7256e-06 -0.000166135
0.00355676 -0.000135873 8.34098e-05
-0.000135873 0.00197316 5.43526e-06
8.34098e-05 5.43526e-06 0.00196815
0.00398446 -0.000171805 1.71125e-05
-0.000171805 0.00226098 -1.14313e-06
1.71125e-05 -1.14313e-06 0.00224588
0.00446559 -0.000220592 -9.42884e-05
-0.000220592 0.00258882 -9.02005e-06
-9.42884e-05 -9.02005e-06 0.002559
0.000561437 -0.000151959 2.23749e-05
-0.000151959 1.39734e-05 -1.61197e-05
2.23749e-05 -1.61197e-05 -8.47798e-05
0.0060289 0.000124435 0.000205895
0.000124435 0.00355626 -1.98711e-05
0.000205895 -1.98711e-05 0.00354513
0.00699442 0.000231062 -0.000369802
0.000231062 0.00409352 -3.28023e-05
-0.000369802 -3.28023e-05 0.0041096
0.00650679 0.000101827 -0.000338208
0.000101827 0.00377879 -1.53399e-05
-0.000338208 -1.53399e-05 0.00380657
0.000375162 0.00010099 -1.85468e-05
0.00010099 -0.000228098 -5.89219e-06
-1.85468e-05 -5.89219e-06 -0.000329234
0.000336153 4.29693e-05 -1.83827e-05
4.29693e-05 -0.000237171 -2.66062e-06
-1.83827e-05 -2.66062e-06 -0.000327823
0.00616918 -4.33636e-06 -0.000321516
-4.33636e-06 0.00357282 -2.91658e-06
-0.000321516 -2.91658e-06 0.00360346
0.0061039 2.79246e-06 -4.32482e-08
2.79246e-06 0.00353343 -1.12473e-06
-4.32482e-08 -1.12473e-06 0.00356426
0.000348145 7.37968e-07 7.22234e-08
7.37968e-07 -0.000233371 2.33561e-07
7.22234e-08 2.33561e-07 -0.000317309
0.00159027 4.26877e-05 6.65013e-05
4.26877e-05 0.000544598 3.21803e-06
6.65013e-05 3.21803e-06 0.000470709
0.00108659 7.55139e-05 1.78926e-07
7.55139e-05 -8.02074e-05 -1.30006e-07
1.78926e-07 -1.30006e-07 -0.00021659
0.000370656 8.94762e-05 -7.07682e-07
8.94762e-05 -0.000234713 -3.80289e-07
-7.07682e-07 -3.80289e-07 -0.000343176
0.00120791 0.000159152 -3.20672e-08
0.000159152 -4.5283e-05 -1.58052e-07
-3.20672e-08 -1.58052e-07 -0.00020572
0.000347796 -3.2302e-05 1.86559e-05
-3.2302e-05 -0.000234565 -8.91461e-07
1.86559e-05 -8.91461e-07 -0.000315418
0.00108199 3.18588e-05 1.07525e-05
3.18588e-05 -6.8128e-05 8.12998e-08
1.07525e-05 8.12998e-08 -0.000197209
0.0011206 0.000115351 9.31326e-06
0.000115351 -7.41807e-05 1.02945e-06
9.31326e-06 1.02945e-06 -0.000219966
0.00188754 0.00011906 1.46612e-06
0.00011906 3.57387e-05 -3.02216e-07
1.46612e-06 -3.02216e-07 -5.88687e-05
0.0012831 0.000201607 8.11317e-06
0.000201607 -5.08017e-06 2.55114e-06
8.11317e-06 2.55114e-06 -0.000181756
0.00208117 0.000275039 2.71758e-07
0.000275039 0.000171914 -9.29363e-07
2.71758e-07 -9.29363e-07 3.1335e-05
0.00612613 -7.27476e-05 -0.000324913
-7.27476e-05 0.00355514 3.86247e-06
-0.000324913 3.86247e-06 0.00358159
0.0014241 -0.000159626 -6.89972e-05
-0.000159626 0.000595138 8.55183e-06
-6.89972e-05 8.55183e-06 0.000540456
-0.000230577 -8.01962e-06 -1.17413e-05
-8.01962e-06 -0.000590577 1.61729e-06
-1.17413e-05 1.61729e-06 -0.00068871
0.00202017 -7.30632e-05 -0.000135638
-7.30632e-05 0.000829338 9.16895e-06
-0.000135638 9.16895e-06 0.000757361
0.00707668 0.000235811 -4.36719e-05
0.000235811 0.00417351 3.42638e-06
-4.36719e-05 3.42638e-06 0.00412752
0.00311133 -0.000287122 -0.000158987
-0.000287122 0.00155677 3.11446e-05
-0.000158987 3.11446e-05 0.00143889
0.00210435 -0.000131354 -0.000139501
-0.000131354 0.000872474 1.86334e-05
-0.000139501 1.86334e-05 0.00079014
0.00208093 -0.000233175 -2.87384e-05
-0.000233175 0.000538967 5.46661e-06
-2.87384e-05 5.46661e-06 0.000372541
0.00209786 -0.000318888 -3.25651e-05
-0.000318888 0.000595692 1.12081e-05
-3.25651e-05 1.12081e-05 0.000385636
0.00215439 -0.000405583 -3.84567e-05
-0.000405583 0.000721163 1.39326e-05
-3.84567e-05 1.39326e-05 0.000462771
0.00188818 -0.000478672 -5.80837e-06
-0.000478672 0.000269276 4.88129e-07
-5.80837e-06 4.88129e-07 -9.02335e-06
0.000347105 3.68997e-06 4.57442e-09
3.68997e-06 -0.000232753 3.67131e-07
4.57442e-09 3.67131e-07 -0.0003156
0.00187879 -9.15263e-05 -3.63509e-05
-9.15263e-05 0.000753646 5.79381e-07
-3.63509e-05 5.79381e-07 0.000676072
0.00155477 -7.38788e-05 -1.16559e-05
-7.38788e-05 0.000223828 7.5029e-07
-1.16559e-05 7.5029e-07 0.000100727
0.00194312 -0.000183366 -9.915e-06
-0.000183366 0.000452903 1.68749e-06
-9.915e-06 1.68749e-06 0.000298905
0.0068554 7.44747e-05 4.62148e-06
7.44747e-05 0.0040451 4.01661e-07
4.62148e-06 4.01661e-07 0.0040437
0.00174383 -0.000202819 6.85335e-06
-0.000202819 0.000715459 6.73895e-07
6.85335e-06 6.73895e-07 0.000573729
0.00142902 -0.000349134 -1.69148e-08
-0.000349134 0.000323098 -1.28476e-06
-1.69148e-08 -1.28476e-06 5.99511e-05
0.00202189 -0.000277725 -9.69556e-06
-0.000277725 0.000517971 2.57588e-06
-9.69556e-06 2.57588e-06 0.000331075
0.0020815 -0.00033915 3.94749e-07
-0.00033915 0.000243492 -3.1276e-07
3.94749e-07 -3.1276e-07 7.0185e-05
0.00192104 -0.00053216 1.26716e-06
-0.00053216 0.000354378 -1.18878e-07
1.26716e-06 -1.18878e-07 3.31045e-05
0.00189515 -0.000437489 4.074e-07
-0.000437489 0.000218004 -2.5523e-07
4.074e-07 -2.5523e-07 -2.78439e-05
0.00203928 -0.000547646 8.72498e-07
-0.000547646 0.000261799 1.66155e-07
8.72498e-07 1.66155e-07 -2.18887e-07
0.000444978 -0.000177862 1.97639e-06
-0.000177862 -8.63752e-05 3.44548e-07
1.97639e-06 3.44548e-07 -0.000197695
0.000748902 -0.000205177 1.60993e-06
-0.000205177 0.000151592 5.22065e-07
1.60993e-06 5.22065e-07 -9.64257e-05
0.00108145 -3.65669e-05 1.10714e-05
-3.65669e-05 -6.47627e-05 -5.5161e-07
1.10714e-05 -5.5161e-07 -0.000193756
0.00196533 -0.000127712 8.16199e-06
-0.000127712 0.000479626 -4.948e-07
8.16199e-06 -4.948e-07 0.000347639
0.00183393 -0.000129096 1.86896e-06
-0.000129096 3.23666e-05 -1.5656e-07
1.86896e-06 -1.5656e-07 -7.57402e-05
0.00194887 -0.000272547 2.19412e-08
-0.000272547 0.000123322 6.72895e-07
2.19412e-08 6.72895e-07 -1.4826e-05
0.00189896 -0.000391377 2.85275e-07
-0.000391377 0.000165743 1.69476e-07
2.85275e-07 1.69476e-07 -4.22697e-05
0.00209336 -0.000377562 4.11362e-06
-0.000377562 0.000150257 -1.33135e-06
4.11362e-06 -1.33135e-06 1.18264e-05
0.000277355 -0.000180374 2.02779e-05
-0.000180374 -0.000201423 -2.19524e-05
2.02779e-05 -2.19524e-05 -0.000327605
0.00202538 -0.000500738 1.45744e-06
-0.000500738 0.000195173 1.55111e-06
1.45744e-06 1.55111e-06 -2.09699e-05
0.000817262 -0.000277744 1.31405e-05
-0.000277744 3.31197e-05 -9.5206e-06
1.31405e-05 -9.5206e-06 -0.000218207
0.0016418 -0.000561448 1.47524e-05
-0.000561448 0.000265807 -1.8813e-06
1.47524e-05 -1.8813e-06 -0.000102583
0.00223419 -0.000612981 3.03975e-06
-0.000612981 0.000450614 1.63103e-06
3.03975e-06 1.63103e-06 0.000128775
0.00230998 -0.000585649 4.34284e-07
-0.000585649 0.0003953 3.65482e-06
4.34284e-07 3.65482e-06 0.000161226
0.000442252 -0.000206294 1.04667e-06
-0.000206294 -6.43501e-05 -4.76356e-06
1.04667e-06 -4.76356e-06 -0.000326931
0.000951872 -0.000142035 -2.30873e-07
-0.000142035 0.000313801 -1.58438e-06
-2.30873e-07 -1.58438e-06 8.47766e-05
0.000931565 -0.000280228 -8.54841e-07
-0.000280228 0.000252167 1.74552e-06
-8.54841e-07 1.74552e-06 -4.78403e-05
0.000341534 0.000115093 -1.71706e-05
0.000115093 -0.000252338 -1.07088e-05
-1.71706e-05 -1.07088e-05 -0.000368205
0.00517537 -0.000162687 -0.000161255
-0.000162687 0.00302381 -1.27666e-05
-0.000161255 -1.27666e-05 0.00300952
0.000371487 5.97166e-05 -1.5424e-05
5.97166e-05 -9.26104e-05 -1.4161e-05
-1.5424e-05 -1.4161e-05 -0.000164542
0.000297974 0.00016845 -1.98001e-05
0.00016845 -0.00024395 -1.69748e-05
-1.98001e-05 -1.69748e-05 -0.000374907
0.00118601 0.000280371 -1.66543e-05
0.000280371 -4.6681e-06 -6.5302e-06
-1.66543e-05 -6.5302e-06 -0.00022207
0.000368311 0.000177004 -2.29331e-05
0.000177004 -0.00013796 -1.99812e-05
-2.29331e-05 -1.99812e-05 -0.00025229
0.000683046 0.000255679 -1.27585e-05
0.000255679 -4.57775e-05 -8.01146e-06
-1.27585e-05 -8.01146e-06 -0.000281443
0.00108975 0.000309572 -2.25847e-05
0.000309572 5.34793e-05 -8.47406e-06
-2.25847e-05 -8.47406e-06 -0.000187018
0.00168338 0.000532487 -6.87629e-06
0.000532487 0.000323625 1.23606e-06
-6.87629e-06 1.23606e-06 -1.69055e-05
0.000478672 0.00014587 -2.27113e-06
0.00014587 -5.3067e-05 1.5002e-06
-2.27113e-06 1.5002e-06 -0.000149095
0.000419809 9.02532e-06 1.1666e-06
9.02532e-06 -4.16691e-05 4.11657e-07
1.1666e-06 4.11657e-07 -0.000104377
0.00071864 0.000156763 1.9709e-06
0.000156763 0.000147217 -4.50303e-07
1.9709e-06 -4.50303e-07 -6.3819e-05
0.00124462 0.000245095 -1.64602e-07
0.000245095 -7.54614e-06 -3.04074e-07
-1.64602e-07 -3.04074e-07 -0.000204919
0.00115446 0.000306639 3.39675e-07
0.000306639 2.32573e-05 -2.14713e-07
3.39675e-07 -2.14713e-07 -0.000209546
0.00196728 0.000462981 -3.37197e-07
0.000462981 0.000236576 -1.4652e-07
-3.37197e-07 -1.4652e-07 -1.30806e-05
0.000697021 0.000233548 -3.50206e-07
0.000233548 4.69043e-05 4.70233e-08
-3.50206e-07 4.70233e-08 -0.000183015
0.00191637 0.000545572 -2.92395e-07
0.000545572 0.000370037 -4.13112e-07
-2.92395e-07 -4.13112e-07 5.17792e-05
0.00141627 0.000487922 -3.36587e-07
0.000487922 0.000290816 -1.14564e-06
-3.36587e-07 -1.14564e-06 -6.65308e-05
0.00160582 0.000594853 -8.86722e-07
0.000594853 0.000167035 2.14835e-06
-8.86722e-07 2.14835e-06 -0.00018266
0.00054154 -6.95477e-06 3.44096e-06
-6.95477e-06 3.54399e-05 1.18265e-05
3.44096e-06 1.18265e-05 -1.55785e-05
0.00108537 0.000207298 5.64994e-06
0.000207298 0.00034563 2.73095e-06
5.64994e-06 2.73095e-06 0.000113923
0.00101 0.000110903 2.84445e-06
0.000110903 0.000330876 5.62981e-06
2.84445e-06 5.62981e-06 0.000160062
0.000857038 0.000223576 -1.97495e-07
0.000223576 0.00024789 1.55409e-06
-1.97495e-07 1.55409e-06 -2.93337e-05
0.00203647 0.000410356 1.64932e-06
0.000410356 0.00021892 -1.82346e-06
1.64932e-06 -1.82346e-06 7.98796e-06
0.0019339 0.000511616 5.40197e-06
0.000511616 0.000293481 -4.0086e-07
5.40197e-06 -4.0086e-07 5.63105e-06
0.00213668 0.000530454 2.74383e-07
0.000530454 0.000255526 -1.37734e-06
2.74383e-07 -1.37734e-06 2.17483e-05
0.000977335 0.000376319 2.1132e-06
0.000376319 0.000102184 -8.8573e-07
2.1132e-06 -8.8573e-07 -0.000211999
0.00232529 0.000661575 -4.23503e-06
0.000661575 0.00052275 -2.86281e-06
-4.23503e-06 -2.86281e-06 0.000200492
0.0019772 0.000657816 -6.05622e-06
0.000657816 0.000535049 -8.61096e-06
-6.05622e-06 -8.61096e-06 0.000115784
0.00202603 0.000644223 -1.73523e-06
0.000644223 0.000333536 -2.4888e-06
-1.73523e-06 -2.4888e-06 -2.93424e-06
0.000577256 6.02427e-05 1.74419e-06
6.02427e-05 8.09049e-05 5.71414e-06
1.74419e-06 5.71414e-06 -7.09168e-06
0.000472585 -6.52624e-06 2.2292e-06
-6.52624e-06 -1.71073e-05 8.37783e-06
2.2292e-06 8.37783e-06 -5.19398e-05
0.00310297 -0.000124287 5.51496e-05
-0.000124287 0.00167577 4.68577e-06
5.51496e-05 4.68577e-06 0.00167363
0.00342815 -0.000154079 9.97615e-06
-0.000154079 0.0018953 -9.66967e-07
9.97615e-06 -9.66967e-07 0.00188501
0.00379795 -0.000190052 -6.59194e-05
-0.000190052 0.00214612 -5.42706e-06
-6.59194e-05 -5.42706e-06 0.00212517
0.000395291 -0.000136257 2.08467e-05
-0.000136257 -6.73604e-05 -1.51232e-05
2.08467e-05 -1.51232e-05 -0.000150898
0.00536313 0.000154988 0.000162838
0.000154988 0.0031525 -1.81802e-05
0.000162838 -1.81802e-05 0.00313365
0.000484044 -0.000155492 1.82088e-06
-0.000155492 -3.88243e-05 6.5169e-07
1.82088e-06 6.5169e-07 -0.000140343
0.00621042 0.000103852 6.05247e-06
0.000103852 0.00366429 5.54494e-07
6.05247e-06 5.54494e-07 0.00365593
0.000368591 0.000114809 -1.81471e-05
0.000114809 -0.00023459 -8.35244e-06
-1.81471e-05 -8.35244e-06 -0.000345492
0.000337334 3.45878e-05 -1.66939e-05
3.45878e-05 -0.000245582 -3.21337e-06
-1.66939e-05 -3.21337e-06 -0.00033899
0.00119341 0.000160806 -8.07499e-06
0.000160806 -5.393e-05 -1.60551e-06
-8.07499e-06 -1.60551e-06 -0.000215592
0.0010918 7.90838e-05 -1.13293e-05
7.90838e-05 -8.23766e-05 -6.28602e-07
-1.13293e-05 -6.28602e-07 -0.000219574
0.000405857 -7.5894e-06 -1.88483e-05
-7.5894e-06 -0.000200055 -5.44504e-07
-1.88483e-05 -5.44504e-07 -0.000282271
0.00619801 -0.000101488 -0.000331764
-0.000101488 0.00360505 5.90139e-06
-0.000331764 5.90139e-06 0.00362964
0.000393915 -2.79021e-06 4.95919e-08
-2.79021e-06 -0.000206479 -7.1398e-07
4.95919e-08 -7.1398e-07 -0.000287177
0.00105936 3.70672e-05 -1.30321e-07
3.70672e-05 -8.42347e-05 9.38086e-08
-1.30321e-07 9.38086e-08 -0.000213825
0.00116363 0.000118622 -3.81918e-09
0.000118622 -5.44581e-05 8.21201e-08
-3.81918e-09 8.21201e-08 -0.000201093
0.00192055 0.000117878 -2.33632e-07
0.000117878 6.63922e-05 3.45208e-07
-2.33632e-07 3.45208e-07 -2.80391e-05
0.0012468 0.000202244 -3.10343e-07
0.000202244 -2.30141e-05 -2.70988e-07
-3.10343e-07 -2.70988e-07 -0.000201102
0.00201622 0.000271737 -2.08201e-07
0.000271737 0.000131785 1.21401e-07
-2.08201e-07 1.21401e-07 -8.66243e-06
0.00104686 -4.11877e-06 1.08398e-05
-4.11877e-06 -8.56333e-05 -4.24079e-07
1.08398e-05 -4.24079e-07 -0.000213172
0.00188272 5.86169e-05 2.12038e-06
5.86169e-05 4.7587e-05 4.38891e-08
2.12038e-06 4.38891e-08 -3.88851e-05
0.00199098 0.000193988 7.76117e-07
0.000193988 9.98819e-05 -9.7911e-07
7.76117e-07 -9.7911e-07 -1.33005e-05
0.00212277 0.000147635 5.27588e-06
0.000147635 7.47136e-05 6.64274e-07
5.27588e-06 6.64274e-07 3.46131e-05
0.00204966 0.000346476 1.08741e-06
0.000346476 0.000177709 -1.05666e-06
1.08741e-06 -1.05666e-06 3.92009e-06
0.00205531 0.000296347 2.78651e-06
0.000296347 6.47907e-05 6.42825e-07
2.78651e-06 6.42825e-07 -3.29253e-05
0.000381004 -3.52613e-06 -1.79092e-05
-3.52613e-06 -0.000208068 8.51286e-07
-1.79092e-05 8.51286e-07 -0.000293155
0.00197844 -4.74329e-05 -0.000133214
-4.74329e-05 0.000806264 6.23477e-06
-0.000133214 6.23477e-06 0.000740233
0.00117969 -6.88936e-05 -1.88448e-05
-6.88936e-05 -1.41982e-05 1.62073e-06
-1.88448e-05 1.62073e-06 -0.00014177
0.00195874 -0.000181894 -2.79194e-05
-0.000181894 0.000460141 3.93034e-06
-2.79194e-05 3.93034e-06 0.000303935
0.00709749 4.84922e-05 -0.000283372
4.84922e-05 0.00419091 2.8608e-05
-0.000283372 2.8608e-05 0.00419214
0.0034789 -0.000289294 -0.000170078
-0.000289294 0.00180651 2.71607e-05
-0.000170078 2.71607e-05 0.00169576
0.00185941 -0.000392478 -3.01259e-05
-0.000392478 0.000596698 1.17569e-05
-3.01259e-05 1.17569e-05 0.000327645
0.00205717 -0.000280374 -3.03981e-05
-0.000280374 0.000536905 8.57094e-06
-3.03981e-05 8.57094e-06 0.000349404
0.00218022 -0.00034722 -2.07942e-06
-0.00034722 0.000302695 -3.66837e-07
-2.07942e-06 -3.66837e-07 0.000135265
0.00200767 -0.00044127 -3.84493e-06
-0.00044127 0.0002946 9.75456e-07
-3.84493e-06 9.75456e-07 4.80971e-05
0.00192752 -0.000532778 -8.36398e-06
-0.000532778 0.000356671 4.25023e-07
-8.36398e-06 4.25023e-07 3.66892e-05
0.00208003 -0.000549921 -6.50112e-07
-0.000549921 0.000291389 -2.17159e-06
-6.50112e-07 -2.17159e-06 2.90984e-05
0.0004174 -0.000188243 -2.21647e-05
-0.000188243 -9.97961e-05 1.96496e-05
-2.21647e-05 1.96496e-05 -0.000216527
0.000608387 -0.000223652 1.73933e-07
-0.000223652 7.01369e-05 1.10253e-06
1.73933e-07 1.10253e-06 -0.000181545
0.00110729 -3.16922e-05 4.81359e-07
-3.16922e-05 -4.98086e-05 5.20803e-08
4.81359e-07 5.20803e-08 -0.000174711
0.00194775 -0.000127906 -1.02299e-05
-0.000127906 0.00046597 1.34894e-06
-1.02299e-05 1.34894e-06 0.000334199
0.00187716 -0.00012622 9.44257e-07
-0.00012622 5.75991e-05 -2.32653e-07
9.44257e-07 -2.32653e-07 -4.54361e-05
0.00193797 -0.000272928 -2.55004e-06
-0.000272928 0.000121589 8.76965e-07
-2.55004e-06 8.76965e-07 -2.5037e-05
0.00041133 -0.00020349 4.08018e-07
-0.00020349 -0.000117443 3.08779e-07
4.08018e-07 3.08779e-07 -0.000245035
0.000756801 -0.000283506 -7.956e-07
-0.000283506 -8.66342e-06 1.37792e-07
-7.956e-07 1.37792e-07 -0.00026416
0.00160147 -0.000555207 2.15935e-06
-0.000555207 0.000247462 -2.92167e-07
2.15935e-06 -2.92167e-07 -0.000121513
0.00194049 -0.000391983 -2.75586e-06
-0.000391983 0.000197299 8.64221e-07
-2.75586e-06 8.64221e-07 -1.37386e-05
0.00211207 -0.000380257 2.30154e-06
-0.000380257 0.000155687 -8.2354e-07
2.30154e-06 -8.2354e-07 2.32665e-05
0.00227625 -0.000620732 -5.17765e-07
-0.000620732 0.000472047 -8.9078e-07
-5.17765e-07 -8.9078e-07 0.00015203
0.00206819 -0.000503877 5.18005e-07
-0.000503877 0.000223485 5.28538e-08
5.18005e-07 5.28538e-08 6.57227e-06
0.00213768 -0.000577477 6.95586e-07
-0.000577477 0.000280177 8.92927e-07
6.95586e-07 8.92927e-07 4.52563e-05
0.0006264 -0.000212481 2.66959e-07
-0.000212481 5.32677e-05 -6.61146e-07
2.66959e-07 -6.61146e-07 -0.000209866
0.000743986 -0.000224008 1.2522e-06
-0.000224008 0.000106188 7.88343e-07
1.2522e-06 7.88343e-07 -0.000175436
0.000717183 -0.000155903 6.71613e-07
-0.000155903 0.000173862 1.08923e-07
6.71613e-07 1.08923e-07 -6.0669e-05
0.00182765 -5.94896e-05 2.09453e-06
-5.94896e-05 3.09818e-05 -2.02868e-07
2.09453e-06 -2.02868e-07 -6.67058e-05
0.00198452 -0.000195743 -4.06239e-07
-0.000195743 0.00012841 5.66693e-07
-4.06239e-07 5.66693e-07 1.14813e-05
0.00201058 -0.000137748 7.47725e-06
-0.000137748 2.51405e-05 -7.44527e-07
7.47725e-06 -7.44527e-07 -2.92686e-05
0.00210446 -0.000313727 2.35699e-06
-0.000313727 0.000111164 -1.25457e-06
2.35699e-06 -1.25457e-06 1.57e-05
0.00201295 -0.000449531 3.52071e-07
-0.000449531 0.000136146 1.3342e-06
3.52071e-07 1.3342e-06 -3.60528e-05
0.00213098 -0.000397158 4.1093e-06
-0.000397158 9.99879e-05 -1.29256e-06
4.1093e-06 -1.29256e-06 1.37406e-05
0.000627849 -0.000245927 7.81196e-06
-0.000245927 1.61119e-06 -7.94782e-06
7.81196e-06 -7.94782e-06 -0.000245689
0.00203958 -0.000531892 1.17274e-06
-0.000531892 0.000158388 6.42203e-07
1.17274e-06 6.42203e-07 -3.23994e-05
0.00143965 -0.000523285 1.20422e-05
-0.000523285 0.000301863 -3.8452e-06
1.20422e-05 -3.8452e-06 -7.94951e-05
0.00198639 -0.000699459 7.98386e-06
-0.000699459 0.000380766 2.60918e-06
7.98386e-06 2.60918e-06 -2.46984e-05
0.00234267 -0.000648973 6.385e-06
-0.000648973 0.000474869 3.47293e-06
6.385e-06 3.47293e-06 0.000172714
0.00234291 -0.000607697 3.31414e-07
-0.000607697 0.000422625 1.84428e-06
3.31414e-07 1.84428e-06 0.000193671
0.000407032 -0.000122204 -3.90019e-07
-0.000122204 1.66552e-06 -5.62377e-06
-3.90019e-07 -5.62377e-06 -0.000202247
0.00140927 -0.000348586 6.54596e-08
-0.000348586 0.000458308 -5.32455e-06
6.54596e-08 -5.32455e-06 0.000169434
0.000562457 -0.00022075 -1.33643e-06
-0.00022075 0.000110507 4.69363e-06
-1.33643e-06 4.69363e-06 -0.000225736
0.00176179 -0.000427689 -4.33794e-06
-0.000427689 0.000713485 2.14484e-06
-4.33794e-06 2.14484e-06 0.000373308
0.00121218 0.000244625 -1.26533e-05
0.000244625 -2.27096e-05 -4.73644e-06
-1.26533e-05 -4.73644e-06 -0.00022125
0.000333812 -1.69602e-05 -2.50515e-07
-1.69602e-05 -8.03849e-05 -1.446e-05
-2.50515e-07 -1.446e-05 -0.000148365
0.000442276 0.000117137 -2.30452e-05
0.000117137 -7.12553e-05 -1.48407e-05
-2.30452e-05 -1.48407e-05 -0.00016376
-3.21038e-05 0.00011609 -3.58906e-06
0.00011609 -0.000309496 -1.74961e-06
-3.58906e-06 -1.74961e-06 -0.000528175
0.00112796 0.000304532 -2.10401e-05
0.000304532 1.20162e-05 -7.98161e-06
-2.10401e-05 -7.98161e-06 -0.000221201
0.00194 0.000460724 -3.98535e-06
0.000460724 0.000218405 4.12091e-07
-3.98535e-06 4.12091e-07 -3.11944e-05
0.000525767 0.000214467 -6.96911e-06
0.000214467 -6.19774e-05 -3.8236e-06
-6.96911e-06 -3.8236e-06 -0.000283719
0.00139991 0.000489406 -5.01228e-06
0.000489406 0.000274929 3.99866e-07
-5.01228e-06 3.99866e-07 -8.29291e-05
0.00192124 0.000543688 -6.42371e-06
0.000543688 0.000368933 1.06288e-06
-6.42371e-06 1.06288e-06 4.96833e-05
0.00158413 0.00059968 4.47392e-06
0.00059968 0.000142343 8.62381e-06
4.47392e-06 8.62381e-06 -0.00020496
0.000431324 -2.13621e-05 -3.75165e-06
-2.13621e-05 -2.52307e-05 9.06585e-07
-3.75165e-06 9.06585e-07 -7.92835e-05
0.000633476 0.000214465 -1.41965e-06
0.000214465 7.82355e-05 -7.81645e-07
-1.41965e-06 -7.81645e-07 -0.000161423
0.000640346 9.46333e-05 1.19156e-06
9.46333e-05 0.000101948 -5.33096e-07
1.19156e-06 -5.33096e-07 -6.39651e-05
0.000792116 0.000209457 -8.37415e-07
0.000209457 0.000184843 4.41345e-07
-8.37415e-07 4.41345e-07 -7.76106e-05
0.00201513 0.000408477 -1.51417e-06
0.000408477 0.000204916 -1.19125e-06
-1.51417e-06 -1.19125e-06 -6.04846e-06
0.00190363 0.000509993 -5.56426e-07
0.000509993 0.000273584 -2.5908e-07
-5.56426e-07 -2.5908e-07 -1.46372e-05
0.00211205 0.000526799 2.1965e-07
0.000526799 0.000244236 1.94369e-07
2.1965e-07 1.94369e-07 1.13629e-05
0.00120776 0.000390556 3.38962e-06
0.000390556 0.000264798 -1.40422e-07
3.38962e-06 -1.40422e-07 -4.98567e-05
0.00221987 0.00064462 6.55303e-07
0.00064462 0.000466588 5.90856e-07
6.55303e-07 5.90856e-07 0.000144996
0.00171908 0.00062961 -1.0229e-06
0.00062961 0.000378339 -1.93271e-06
-1.0229e-06 -1.93271e-06 -3.66642e-05
0.0020227 0.000631535 -5.19795e-06
0.000631535 0.000337062 2.27799e-06
-5.19795e-06 2.27799e-06 1.03154e-05
0.000543737 -1.22895e-05 2.31263e-06
-1.22895e-05 3.26377e-05 9.62355e-06
2.31263e-06 9.62355e-06 -8.54088e-06
0.000933683 8.37397e-05 1.12206e-06
8.37397e-05 0.00029588 7.41706e-06
1.12206e-06 7.41706e-06 0.000160972
0.000708241 0.000254152 -1.68869e-06
0.000254152 2.62339e-05 2.16653e-06
-1.68869e-06 2.16653e-06 -0.000229658
0.00154475 0.000199741 1.36865e-06
0.000199741 0.00074646 -1.63735e-06
1.36865e-06 -1.63735e-06 0.000463056
0.00107839 0.000278299 -3.05977e-06
0.000278299 0.000312918 5.81475e-06
-3.05977e-06 5.81475e-06 7.00922e-05
0.00217456 0.000468573 2.24079e-07
0.000468573 0.000210068 -3.06975e-06
2.24079e-07 -3.06975e-06 2.23589e-05
0.00211952 0.000594235 -1.33461e-06
0.000594235 0.000317312 -1.82697e-06
-1.33461e-06 -1.82697e-06 3.5851e-05
0.00212801 0.000576484 -2.76873e-06
0.000576484 0.00023528 -1.59358e-06
-2.76873e-06 -1.59358e-06 6.6227e-06
0.00156541 0.000589607 3.61977e-06
0.000589607 0.000466886 -1.89767e-06
3.61977e-06 -1.89767e-06 4.36e-05
0.00239956 0.000705539 -3.82365e-06
0.000705539 0.000514962 -2.51893e-06
-3.82365e-06 -2.51893e-06 0.000195753
0.0016855 0.000674181 7.00817e-06
0.000674181 0.000289513 -4.73434e-06
7.00817e-06 -4.73434e-06 -0.000114658
0.00054508 5.53723e-05 1.56237e-06
5.53723e-05 5.40448e-05 5.88908e-06
1.56237e-06 5.88908e-06 -4.02751e-05
0.000708718 0.000123258 -7.29449e-07
0.000123258 0.000211008 3.06893e-06
-7.29449e-07 3.06893e-06 6.18924e-05
0.000600111 6.4128e-05 1.2408e-06
6.4128e-05 0.000100211 5.09034e-06
1.2408e-06 5.09034e-06 1.82989e-05
0.000525526 1.75287e-05 -6.34601e-07
1.75287e-05 4.84536e-05 -7.29695e-08
-6.34601e-07 -7.29695e-08 -3.91143e-05
0.00141217 -2.7945e-05 1.70787e-06
-2.7945e-05 0.000580982 5.01715e-06
1.70787e-06 5.01715e-06 0.000553691
0.000927487 -2.00246e-05 2.03985e-07
-2.00246e-05 0.000273406 -1.39755e-07
2.03985e-07 -1.39755e-07 0.000240791
0.000864078 -4.55617e-05 4.03421e-05
-4.55617e-05 0.000233836 1.03125e-05
4.03421e-05 1.03125e-05 0.000230412
0.00306039 -0.000130085 8.7587e-06
-0.000130085 0.0016497 -8.31372e-07
8.7587e-06 -8.31372e-07 0.00164594
0.00331159 -0.000157723 -5.26443e-05
-0.000157723 0.00182236 -4.70526e-06
-5.26443e-05 -4.70526e-06 0.00181092
0.000338083 -8.04197e-05 1.15165e-05
-8.04197e-05 -8.18749e-05 -1.26114e-05
1.15165e-05 -1.26114e-05 -0.000147573
0.00471686 0.000177834 0.000113843
0.000177834 0.00274758 -1.31686e-05
0.000113843 -1.31686e-05 0.00272374
0.000522068 -0.000127734 -6.46885e-07
-0.000127734 1.39758e-05 8.98178e-07
-6.46885e-07 8.98178e-07 -7.56567e-05
0.00565045 0.000134003 -4.54804e-06
0.000134003 0.00333103 1.90694e-07
-4.54804e-06 1.90694e-07 0.00331554
0.00048243 -0.000154761 -2.16009e-05
-0.000154761 -4.25391e-05 1.70792e-05
-2.16009e-05 1.70792e-05 -0.000146645
0.00644163 0.00010835 -0.000235537
0.00010835 0.00381445 2.67517e-05
-0.000235537 2.67517e-05 0.00380345
0.00119159 0.000201979 -9.05436e-06
0.000201979 -5.30039e-05 -3.02314e-06
-9.05436e-06 -3.02314e-06 -0.000232432
0.00117282 0.000122542 -1.05801e-05
0.000122542 -5.30536e-05 -9.05657e-07
-1.05801e-05 -9.05657e-07 -0.000200858
0.00198319 0.000265912 -1.08053e-06
0.000265912 0.000113558 1.30411e-06
-1.08053e-06 1.30411e-06 -2.59861e-05
0.00195057 0.000116762 -1.41902e-06
0.000116762 9.53555e-05 1.15427e-06
-1.41902e-06 1.15427e-06 1.09017e-06
0.00103394 4.18811e-05 -1.07298e-05
4.18811e-05 -0.000102401 8.78249e-08
-1.07298e-05 8.78249e-08 -0.000232542
0.000353548 2.88024e-05 -1.8663e-05
2.88024e-05 -0.000234132 -6.44458e-07
-1.8663e-05 -6.44458e-07 -0.00031331
0.00104223 -7.88877e-08 -3.69241e-08
-7.88877e-08 -8.84878e-05 -3.46281e-08
-3.69241e-08 -3.46281e-08 -0.000216035
0.00190833 5.94057e-05 -2.93637e-08
5.94057e-05 6.77853e-05 1.76311e-07
-2.93637e-08 1.76311e-07 -1.8655e-05
0.00198148 0.000189455 -1.18735e-07
0.000189455 0.00010192 3.11506e-08
-1.18735e-07 3.11506e-08 -1.06447e-05
0.00212354 0.000143778 -1.91272e-07
0.000143778 6.62905e-05 2.68864e-08
-1.91272e-07 2.68864e-08 3.05057e-05
0.00202981 0.000343618 -5.79153e-07
0.000343618 0.000167127 -4.22203e-08
-5.79153e-07 -4.22203e-08 -6.21995e-06
0.00209278 0.000299817 -2.93828e-07
0.000299817 9.08865e-05 4.34528e-07
-2.93828e-07 4.34528e-07 -8.10815e-06
0.00189884 -4.41596e-07 2.39989e-06
-4.41596e-07 6.86761e-05 8.36862e-08
2.39989e-06 8.36862e-08 -1.667e-05
0.00209415 6.99083e-05 4.25909e-06
6.99083e-05 5.35437e-05 3.33767e-07
4.25909e-06 3.33767e-07 2.46727e-05
0.00207158 0.000216 4.20973e-06
0.000216 5.28358e-05 1.03244e-06
4.20973e-06 1.03244e-06 -6.571e-06
0.00203448 0.00012842 5.24753e-06
0.00012842 -4.64007e-06 8.07316e-07
5.24753e-06 8.07316e-07 -1.65412e-05
0.00216595 0.000393872 1.86331e-06
0.000393872 0.000165338 -6.29116e-07
1.86331e-06 -6.29116e-07 2.22003e-05
0.00215281 0.000315698 2.54223e-06
0.000315698 2.56734e-05 7.02161e-07
2.54223e-06 7.02161e-07 -1.19819e-05
0.00112521 -2.77432e-05 -1.16607e-05
-2.77432e-05 -3.95153e-05 7.60806e-07
-1.16607e-05 7.60806e-07 -0.000160453
0.00194218 -0.000128388 -2.82041e-05
-0.000128388 0.000459592 2.92264e-06
-2.82041e-05 2.92264e-06 0.000327993
0.0019733 -0.000122529 -2.05671e-06
-0.000122529 0.000117064 -3.45481e-07
-2.05671e-06 -3.45481e-07 1.96013e-05
0.00191135 -0.000272475 -2.86819e-06
-0.000272475 0.000108746 6.99153e-07
-2.86819e-06 6.99153e-07 -4.64756e-05
0.000552735 -0.000236761 -2.66145e-05
-0.000236761 -2.86548e-05 2.20274e-05
-2.66145e-05 2.20274e-05 -0.000157721
0.000818585 -0.000294719 -1.34866e-05
-0.000294719 2.54868e-05 9.3682e-06
-1.34866e-05 9.3682e-06 -0.000234524
0.00160204 -0.000556324 -1.10602e-05
-0.000556324 0.000249472 2.15201e-06
-1.10602e-05 2.15201e-06 -0.000122192
0.00196845 -0.00039155 -4.51508e-06
-0.00039155 0.000219571 1.22859e-06
-4.51508e-06 1.22859e-06 5.7225e-06
0.00212053 -0.000382337 -4.16593e-07
-0.000382337 0.000153841 -1.17114e-07
-4.16593e-07 -1.17114e-07 2.77407e-05
0.00211354 -0.000507253 -1.47219e-06
-0.000507253 0.000253469 -1.08604e-06
-1.47219e-06 -1.08604e-06 3.57186e-05
0.0023161 -0.000627361 -2.40592e-06
-0.000627361 0.000493492 -4.49635e-06
-2.40592e-06 -4.49635e-06 0.000175697
0.00194746 -0.000564485 2.12253e-07
-0.000564485 0.000153599 -1.93784e-06
2.12253e-07 -1.93784e-06 -8.0522e-05
0.00105756 -0.00024513 -6.33538e-06
-0.00024513 0.000318301 5.57831e-06
-6.33538e-06 5.57831e-06 5.72844e-05
0.000409344 -0.000177105 2.99462e-06
-0.000177105 -0.000115839 6.91968e-07
2.99462e-06 6.91968e-07 -0.000391344
0.000466798 -0.000187302 -1.69521e-07
-0.000187302 1.70261e-05 1.27644e-06
-1.69521e-07 1.27644e-06 -0.000218281
0.00188367 -5.62656e-05 1.16955e-06
-5.62656e-05 6.47502e-05 -1.03571e-07
1.16955e-06 -1.03571e-07 -2.83938e-05
0.00194472 -0.000202585 -1.63029e-06
-0.000202585 0.000102819 -6.89559e-09
-1.63029e-06 -6.89559e-09 -1.50221e-05
0.00206371 -0.000136129 1.99006e-06
-0.000136129 5.32043e-05 -2.69558e-07
1.99006e-06 -2.69558e-07 5.41983e-06
0.00203872 -0.000301921 -1.27774e-06
-0.000301921 7.50404e-05 4.68298e-07
-1.27774e-06 4.68298e-07 -2.29205e-05
0.000737092 -0.000260945 9.40281e-07
-0.000260945 6.88428e-05 -4.48047e-07
9.40281e-07 -4.48047e-07 -0.000185203
0.00153039 -0.000536053 -6.85231e-07
-0.000536053 0.000354838 -4.56154e-07
-6.85231e-07 -4.56154e-07 -2.88402e-05
0.00188544 -0.000688328 5.93658e-07
-0.000688328 0.000330997 1.12342e-06
5.93658e-07 1.12342e-06 -7.67549e-05
0.00196376 -0.00044417 -9.33221e-07
-0.00044417 0.000110343 9.38738e-07
-9.33221e-07 9.38738e-07 -6.78294e-05
0.00213192 -0.000402583 4.20299e-07
-0.000402583 8.90359e-05 -2.56405e-07
4.20299e-07 -2.56405e-07 7.54763e-06
0.00219459 -0.000642673 -3.31581e-07
-0.000642673 0.000367685 3.75002e-07
-3.31581e-07 3.75002e-07 6.51338e-05
0.00203279 -0.000530213 -4.75253e-07
-0.000530213 0.00015128 8.38879e-07
-4.75253e-07 8.38879e-07 -3.95053e-05
0.00225462 -0.00059077 6.50063e-07
-0.00059077 0.000358611 -3.90737e-07
6.50063e-07 -3.90737e-07 0.000136419
0.00102919 -0.000326462 -1.77782e-06
-0.000326462 0.000232163 5.1209e-07
-1.77782e-06 5.1209e-07 -6.47036e-05
0.00103504 -0.000349743 -1.5928e-06
-0.000349743 0.000245549 2.12579e-06
-1.5928e-06 2.12579e-06 -8.26168e-05
0.000705418 -0.000141708 6.56058e-08
-0.000141708 0.000184062 -9.28629e-07
6.56058e-08 -9.28629e-07 -2.25254e-05
0.000133017 -0.000145123 2.42379e-06
-0.000145123 -0.000192152 -1.26984e-06
2.42379e-06 -1.26984e-06 -0.000497896
0.0020936 -7.27812e-05 6.70846e-06
-7.27812e-05 7.68549e-05 -3.61599e-07
6.70846e-06 -3.61599e-07 3.83454e-05
0.00199207 -0.000219679 4.59376e-06
-0.000219679 3.0609e-06 -1.1196e-06
4.59376e-06 -1.1196e-06 -6.7747e-05
0.00204182 -0.00012733 6.47622e-06
-0.00012733 3.76692e-05 -8.39453e-07
6.47622e-06 -8.39453e-07 2.85686e-05
0.00211779 -0.00032511 1.26231e-06
-0.00032511 3.01805e-05 -6.32649e-07
1.26231e-06 -6.32649e-07 -1.26194e-06
0.00206541 -0.000477417 1.54918e-07
-0.000477417 0.000113339 -5.68125e-07
1.54918e-07 -5.68125e-07 -2.74184e-05
0.00217495 -0.000421932 3.65084e-06
-0.000421932 7.2452e-05 -1.30112e-06
3.65084e-06 -1.30112e-06 8.32018e-06
0.00137196 -0.000448106 7.60401e-06
-0.000448106 0.000388773 -5.65108e-06
7.60401e-06 -5.65108e-06 3.70999e-05
0.0020669 -0.000566491 -1.89103e-06
-0.000566491 0.000142156 1.55088e-07
-1.89103e-06 1.55088e-07 -2.41618e-05
0.00173371 -0.000709311 -6.77403e-06
-0.000709311 0.0004084 4.66745e-06
-6.77403e-06 4.66745e-06 -5.06245e-05
0.00213836 -0.000755314 6.55306e-06
-0.000755314 0.00043135 2.90423e-06
6.55306e-06 2.90423e-06 2.02976e-05
0.00214876 -0.000650309 4.51839e-06
-0.000650309 0.000300842 3.58088e-06
4.51839e-06 3.58088e-06 7.39068e-06
0.00228849 -0.000627374 -8.34742e-06
-0.000627374 0.000344026 -1.63056e-06
-8.34742e-06 -1.63056e-06 0.000110391
0.000504269 -0.000129038 -1.81826e-06
-0.000129038 4.88006e-05 -6.60972e-06
-1.81826e-06 -6.60972e-06 -0.000107309
-7.18905e-05 -0.000141781 -2.26831e-06
-0.000141781 -0.000214638 -8.47064e-07
-2.26831e-06 -8.47064e-07 -0.000556415
0.0012927 -0.000467032 -1.0431e-06
-0.000467032 0.000376105 -3.67482e-06
-1.0431e-06 -3.67482e-06 7.24347e-07
0.00255663 -0.000449394 -2.27892e-06
-0.000449394 0.00128601 8.77375e-06
-2.27892e-06 8.77375e-06 0.00094104
0.00155235 -0.000472401 -1.50643e-05
-0.000472401 0.000584193 7.81981e-06
-1.50643e-05 7.81981e-06 0.000184622
0.000271033 -2.79766e-05 -1.74911e-06
-2.79766e-05 -0.000123805 -1.10883e-05
-1.74911e-06 -1.10883e-05 -0.000176757
0.00199125 0.000406131 -4.08773e-06
0.000406131 0.000189851 -2.86066e-07
-4.08773e-06 -2.86066e-07 -2.10413e-05
0.000293402 5.05551e-05 -2.45523e-07
5.05551e-05 -0.000103231 -6.79137e-06
-2.45523e-07 -6.79137e-06 -0.000267776
0.000286066 0.00020966 -7.04248e-06
0.00020966 -0.000166962 2.04855e-07
-7.04248e-06 2.04855e-07 -0.000386782
0.000601667 0.000194911 -7.67397e-07
0.000194911 4.48605e-05 2.89327e-06
-7.67397e-07 2.89327e-06 -0.000202048
0.00186452 0.000507682 -5.16674e-06
0.000507682 0.000247957 3.64202e-07
-5.16674e-06 3.64202e-07 -4.05575e-05
0.0020887 0.000523387 9.82229e-07
0.000523387 0.000233249 1.9483e-06
9.82229e-07 1.9483e-06 1.2172e-06
0.00138143 0.000424428 -1.06876e-06
0.000424428 0.000397508 -3.10815e-06
-1.06876e-06 -3.10815e-06 6.97213e-05
0.0016022 0.000625958 1.45277e-06
0.000625958 0.000299634 4.6453e-06
1.45277e-06 4.6453e-06 -0.000118734
0.00209471 0.000624915 2.16099e-06
0.000624915 0.000396636 4.18408e-06
2.16099e-06 4.18408e-06 7.64901e-05
0.00207155 0.000629637 6.19531e-06
0.000629637 0.00037067 1.14728e-05
6.19531e-06 1.14728e-05 4.99368e-05
0.000446947 -8.087e-06 -8.28751e-07
-8.087e-06 -2.72776e-05 2.63582e-07
-8.28751e-07 2.63582e-07 -6.7777e-05
0.000592466 6.14027e-05 -4.40161e-07
6.14027e-05 8.69075e-05 4.95134e-07
-4.40161e-07 4.95134e-07 -4.39243e-05
0.000907661 0.000290629 1.70885e-06
0.000290629 0.000163061 1.73447e-06
1.70885e-06 1.73447e-06 -9.61095e-05
0.000614186 0.000140895 7.08409e-07
0.000140895 0.000147434 -1.50976e-06
7.08409e-07 -1.50976e-06 -0.000122459
0.000409298 0.00019823 -1.05066e-06
0.00019823 -0.000137463 3.37674e-06
-1.05066e-06 3.37674e-06 -0.000360132
0.00215244 0.000467167 -1.95498e-06
0.000467167 0.000196738 -1.94469e-06
-1.95498e-06 -1.94469e-06 9.42296e-06
0.00208105 0.000589601 5.03198e-07
0.000589601 0.000296047 1.85351e-07
5.03198e-07 1.85351e-07 1.57251e-05
0.00207068 0.000572898 1.64698e-06
0.000572898 0.000201569 1.27473e-07
1.64698e-06 1.27473e-07 -2.68297e-05
0.00155428 0.000588765 1.7494e-06
0.000588765 0.000463824 -5.40065e-07
1.7494e-06 -5.40065e-07 3.70779e-05
0.00229342 0.000693857 2.62447e-06
0.000693857 0.000432606 4.92057e-07
2.62447e-06 4.92057e-07 0.000113607
0.00203861 0.000710968 -4.14144e-06
0.000710968 0.000516226 7.16731e-08
-4.14144e-06 7.16731e-08 0.000107218
0.000635435 6.43041e-05 1.05779e-06
6.43041e-05 0.00011158 6.00802e-06
1.05779e-06 6.00802e-06 4.77119e-06
0.00175522 0.000218264 -3.48686e-08
0.000218264 0.000889948 9.23322e-07
-3.48686e-08 9.23322e-07 0.00065632
0.00109514 0.00042086 -1.13307e-06
0.00042086 0.000280848 5.4825e-06
-1.13307e-06 5.4825e-06 -4.63451e-05
0.00109289 0.000148084 5.17111e-06
0.000148084 0.000367333 -1.37961e-06
5.17111e-06 -1.37961e-06 0.000109989
0.00297901 0.000436263 -4.03735e-06
0.000436263 0.00138647 3.5493e-07
-4.03735e-06 3.5493e-07 0.00111525
0.00213912 0.000492527 -3.85865e-06
0.000492527 0.000155695 -2.12709e-06
-3.85865e-06 -2.12709e-06 -1.7855e-05
0.0021065 0.000643264 -2.91001e-06
0.000643264 0.000276556 -1.39764e-06
-2.91001e-06 -1.39764e-06 -2.03108e-06
0.00204012 0.000626881 3.55362e-06
0.000626881 0.000140656 -3.95579e-07
3.55362e-06 -3.95579e-07 -0.000100715
0.00117251 0.000624133 1.16759e-05
0.000624133 0.000245464 -4.76488e-06
1.16759e-05 -4.76488e-06 -0.000216352
0.00172612 0.000701484 1.28612e-05
0.000701484 0.00021098 -2.13804e-06
1.28612e-05 -2.13804e-06 -0.000159801
0.000583371 4.9982e-05 -3.82201e-07
4.9982e-05 7.67726e-05 1.40943e-07
-3.82201e-07 1.40943e-07 -1.60746e-05
0.0003795 8.74501e-05 1.25358e-06
8.74501e-05 -3.24327e-05 3.13636e-06
1.25358e-06 3.13636e-06 -0.000166894
0.000212872 6.99329e-05 2.03561e-07
6.99329e-05 -0.000123351 -5.30093e-07
2.03561e-07 -5.30093e-07 -0.000254255
0.00127791 0.000195093 -2.17923e-06
0.000195093 0.00058104 -1.46332e-06
-2.17923e-06 -1.46332e-06 0.000409474
0.000794946 0.000135106 -1.74302e-07
0.000135106 0.000270817 3.00036e-06
-1.74302e-07 3.00036e-06 0.000130192
0.000539463 7.17522e-05 1.85845e-06
7.17522e-05 6.76669e-05 4.16071e-06
1.85845e-06 4.16071e-06 -1.09434e-05
0.000516907 2.10822e-05 -8.91961e-07
2.10822e-05 4.90583e-05 2.09851e-08
-8.91961e-07 2.09851e-08 -3.21123e-05
0.00132802 -1.23337e-05 1.52767e-06
-1.23337e-05 0.000526402 4.28194e-06
1.52767e-06 4.28194e-06 0.000503747
0.000527742 3.76883e-05 -3.97569e-07
3.76883e-05 4.36759e-05 -5.72531e-06
-3.97569e-07 -5.72531e-06 -3.96821e-05
0.00140111 -2.09921e-05 -9.41453e-06
-2.09921e-05 0.000572745 -1.73083e-06
-9.41453e-06 -1.73083e-06 0.000547708
0.000761377 -3.18507e-05 3.75867e-05
-3.18507e-05 0.000162402 1.00636e-05
3.75867e-05 1.00636e-05 0.000163836
0.00144064 -2.62793e-05 -1.79103e-05
-2.62793e-05 0.000601715 -6.56871e-06
-1.79103e-05 -6.56871e-06 0.00057295
0.0018519 -7.63093e-05 3.90229e-05
-7.63093e-05 0.000867933 1.36532e-06
3.90229e-05 1.36532e-06 0.000866674
0.00297233 -0.000127301 -4.42806e-05
-0.000127301 0.00159271 -4.83143e-06
-4.42806e-05 -4.83143e-06 0.00158946
0.000273095 6.57547e-05 -4.99104e-06
6.57547e-05 -9.57633e-05 -9.70253e-06
-4.99104e-06 -9.70253e-06 -0.000155828
0.000409899 -6.16927e-05 -5.59771e-07
-6.16927e-05 -3.35097e-05 5.38838e-07
-5.59771e-07 5.38838e-07 -0.000105914
0.00382821 0.000192602 2.09615e-05
0.000192602 0.00216967 -7.6928e-06
2.09615e-05 -7.6928e-06 0.00214315
0.0048721 0.000137584 -1.71476e-05
0.000137584 0.00284 -1.75129e-06
-1.71476e-05 -1.75129e-06 0.00282496
0.000522601 -0.000132506 -1.94795e-05
-0.000132506 9.96779e-06 1.44567e-05
-1.94795e-05 1.44567e-05 -8.26558e-05
0.00584106 0.000137296 -0.000199204
0.000137296 0.00346093 2.68577e-05
-0.000199204 2.68577e-05 0.0034405
0.0020102 0.000341035 -1.98489e-06
0.000341035 0.000156335 1.21361e-06
-1.98489e-06 1.21361e-06 -1.66387e-05
0.00194016 0.000187251 -7.9337e-07
0.000187251 8.21218e-05 1.25809e-06
-7.9337e-07 1.25809e-06 -3.05752e-05
0.00211523 0.000303744 -2.71307e-06
0.000303744 0.000105855 3.81769e-07
-2.71307e-06 3.81769e-07 5.45595e-06
0.00212575 0.000139951 -4.75506e-06
0.000139951 5.82853e-05 -6.23994e-07
-4.75506e-06 -6.23994e-07 2.68146e-05
0.00193582 6.14001e-05 -2.1753e-06
6.14001e-05 8.97474e-05 3.3802e-07
-2.1753e-06 3.3802e-07 3.32743e-06
0.00105195 4.68502e-06 -1.05011e-05
4.68502e-06 -8.23156e-05 2.38703e-07
-1.05011e-05 2.38703e-07 -0.000209743
0.00190267 2.48911e-06 1.02212e-07
2.48911e-06 7.17714e-05 1.32886e-07
1.02212e-07 1.32886e-07 -1.3652e-05
0.00208751 6.11207e-05 -7.17358e-07
6.11207e-05 5.23366e-05 -2.48738e-08
-7.17358e-07 -2.48738e-08 2.32868e-05
0.00211098 0.000217093 9.62847e-08
0.000217093 7.43032e-05 1.82184e-07
9.62847e-08 1.82184e-07 1.47807e-05
0.0020422 0.000128804 4.21394e-08
0.000128804 -6.20789e-06 9.53444e-08
4.21394e-08 9.53444e-08 -1.31209e-05
0.00214153 0.000394793 -4.11674e-07
0.000394793 0.000143686 1.11061e-07
-4.11674e-07 1.11061e-07 2.33324e-07
0.00212468 0.000307253 1.45008e-07
0.000307253 8.57247e-06 9.08559e-08
1.45008e-07 9.08559e-08 -2.92836e-05
0.00206922 -5.93573e-06 5.2587e-06
-5.93573e-06 4.88112e-05 9.31626e-08
5.2587e-06 9.31626e-08 1.77831e-05
0.00206004 5.58659e-05 4.59244e-06
5.58659e-05 1.97437e-05 2.44022e-07
4.59244e-06 2.44022e-07 2.4056e-05
0.00208886 0.000205589 1.63159e-06
0.000205589 -2.66113e-06 1.75264e-07
1.63159e-06 1.75264e-07 -1.64332e-05
0.00214107 0.000134318 7.4561e-07
0.000134318 -9.90982e-06 3.67138e-07
7.4561e-07 3.67138e-07 1.21425e-05
0.00210669 0.000393046 1.03663e-06
0.000393046 5.92397e-05 3.19735e-07
1.03663e-06 3.19735e-07 -4.50981e-05
0.00230221 0.00031201 1.67279e-06
0.00031201 4.18931e-05 3.12361e-07
1.67279e-06 3.12361e-07 3.96409e-05
0.00193373 -5.29565e-05 -2.10268e-06
-5.29565e-05 9.52095e-05 -1.32878e-07
-2.10268e-06 -1.32878e-07 6.6362e-06
0.00193206 -0.000208472 -2.66294e-06
-0.000208472 9.35526e-05 -2.97293e-07
-2.66294e-06 -2.97293e-07 -2.48091e-05
0.00208564 -0.000134543 -3.11301e-06
-0.000134543 6.08338e-05 1.56742e-07
-3.11301e-06 1.56742e-07 1.9387e-05
0.00199299 -0.000291531 -3.91489e-06
-0.000291531 5.33756e-05 1.06021e-06
-3.91489e-06 1.06021e-06 -4.70392e-05
0.000732757 -0.000263716 -1.07997e-05
-0.000263716 6.17219e-05 9.31175e-06
-1.07997e-05 9.31175e-06 -0.000195552
0.00147188 -0.00052755 -1.2386e-05
-0.00052755 0.000322416 2.83508e-06
-1.2386e-05 2.83508e-06 -5.76952e-05
0.00168469 -0.000665435 9.30449e-07
-0.000665435 0.000224557 -2.20575e-06
9.30449e-07 -2.20575e-06 -0.000183366
0.0019114 -0.000438596 -2.53468e-06
-0.000438596 8.30484e-05 5.78915e-07
-2.53468e-06 5.78915e-07 -0.000101281
0.0021296 -0.000407344 -2.07325e-06
-0.000407344 7.68906e-05 6.99428e-07
-2.07325e-06 6.99428e-07 -1.21643e-07
0.00202689 -0.000528249 -1.19724e-06
-0.000528249 0.000145375 6.95616e-07
-1.19724e-06 6.95616e-07 -4.52916e-05
0.00205313 -0.000642826 -4.81084e-06
-0.000642826 0.000265384 -3.40634e-06
-4.81084e-06 -3.40634e-06 -4.00683e-05
0.00213334 -0.00057865 4.84255e-06
-0.00057865 0.000277558 -3.80663e-06
4.84255e-06 -3.80663e-06 5.99909e-05
0.000806346 -0.00030798 -7.46501e-07
-0.00030798 0.000104394 3.19906e-06
-7.46501e-07 3.19906e-06 -0.000198095
0.00106965 -0.000331189 3.07432e-06
-0.000331189 0.000238221 1.40886e-06
3.07432e-06 1.40886e-06 -7.98592e-05
0.000973521 -0.000154392 -4.47562e-07
-0.000154392 0.000344533 5.34763e-06
-4.47562e-07 5.34763e-06 0.000137263
-0.000467092 -8.984e-05 6.04041e-07
-8.984e-05 -0.000596689 -6.1699e-06
6.04041e-07 -6.1699e-06 -0.00087609
0.00209508 -7.27918e-05 -2.16278e-07
-7.27918e-05 7.76801e-05 6.65527e-08
-2.16278e-07 6.65527e-08 3.92125e-05
0.00203355 -0.000221897 2.62153e-06
-0.000221897 3.58136e-05 -7.12429e-07
2.62153e-06 -7.12429e-07 -3.62064e-05
0.00201561 -0.000126034 8.05333e-07
-0.000126034 1.55059e-05 -2.14627e-07
8.05333e-07 -2.14627e-07 7.8163e-06
0.0021144 -0.00032441 -5.47525e-07
-0.00032441 3.55843e-05 1.21888e-07
-5.47525e-07 1.21888e-07 -2.22314e-06
0.00128229 -0.000421972 -2.91749e-06
-0.000421972 0.000314943 2.09962e-07
-2.91749e-06 2.09962e-07 -2.49684e-05
0.00164021 -0.00068867 1.37478e-06
-0.00068867 0.000362516 -1.72495e-07
1.37478e-06 -1.72495e-07 -9.11698e-05
0.00207824 -0.000764214 -6.56458e-07
-0.000764214 0.00039162 4.88429e-07
-6.56458e-07 4.88429e-07 -2.68466e-05
0.00202014 -0.000469849 -1.26706e-06
-0.000469849 9.13885e-05 4.18806e-07
-1.26706e-06 4.18806e-07 -5.36066e-05
0.00214048 -0.00042057 1.04391e-06
-0.00042057 5.19782e-05 -3.21334e-07
1.04391e-06 -3.21334e-07 -7.69755e-06
0.00215077 -0.000654203 -4.86366e-07
-0.000654203 0.00032587 4.40862e-07
-4.86366e-07 4.40862e-07 3.03092e-05
0.00204673 -0.000567076 -9.38809e-07
-0.000567076 0.000121743 9.06959e-07
-9.38809e-07 9.06959e-07 -4.52566e-05
0.00218219 -0.000617503 4.0421e-06
-0.000617503 0.000269358 -4.16507e-06
4.0421e-06 -4.16507e-06 4.23029e-05
0.00150072 -0.000491587 -8.69554e-07
-0.000491587 0.000513851 -1.3847e-06
-8.69554e-07 -1.3847e-06 0.000132596
0.0013559 -0.000449465 -1.18314e-06
-0.000449465 0.000448207 1.47334e-06
-1.18314e-06 1.47334e-06 5.98787e-05
0.00101476 -0.000307524 2.03954e-06
-0.000307524 0.000304889 -1.27613e-06
2.03954e-06 -1.27613e-06 -1.88571e-05
0.000284538 -0.000101462 -2.58757e-06
-0.000101462 -9.18235e-05 1.10838e-06
-2.58757e-06 1.10838e-06 -0.000249004
-1.89547e-05 -0.00011656 -1.26938e-06
-0.00011656 -0.000206477 -1.26421e-06
-1.26938e-06 -1.26421e-06 -0.000526793
0.00200865 -7.25424e-05 3.90203e-06
-7.25424e-05 -8.36126e-06 -2.17354e-07
3.90203e-06 -2.17354e-07 -3.48355e-06
0.0020586 -0.000194516 2.63162e-06
-0.000194516 -6.54145e-06 -5.73807e-07
2.63162e-06 -5.73807e-07 -1.29294e-05
0.00219044 -0.000385699 2.46626e-07
-0.000385699 -8.04085e-06 -3.60914e-07
2.46626e-07 -3.60914e-07 -1.95826e-05
0.00216226 -0.000497736 1.32829e-06
-0.000497736 8.68719e-05 -1.52163e-06
1.32829e-06 -1.52163e-06 5.47801e-06
0.00144898 -0.000584898 -4.14072e-06
-0.000584898 0.000400858 3.0851e-07
-4.14072e-06 3.0851e-07 -3.15832e-05
0.00231453 -0.000682557 -8.12865e-06
-0.000682557 0.000190462 -4.9753e-06
-8.12865e-06 -4.9753e-06 -4.11861e-06
0.00142196 -0.000755222 -2.1673e-05
-0.000755222 0.000218572 8.27098e-06
-2.1673e-05 8.27098e-06 -0.000265391
0.00222693 -0.000829191 1.41689e-06
-0.000829191 0.000446732 1.27559e-06
1.41689e-06 1.27559e-06 1.63557e-05
0.00201939 -0.000627438 -1.27935e-05
-0.000627438 0.000240089 8.7932e-07
-1.27935e-05 8.7932e-07 -3.94019e-05
9.50672e-05 -2.44532e-05 -2.36497e-06
-2.44532e-05 -0.000195995 -5.94655e-06
-2.36497e-06 -5.94655e-06 -0.000317692
0.00106507 -0.000174242 -3.67331e-06
-0.000174242 0.00050205 -5.11244e-07
-3.67331e-06 -5.11244e-07 0.000209642
0.000971732 -0.000261414 -6.39757e-07
-0.000261414 0.000388858 -2.80874e-06
-6.39757e-07 -2.80874e-06 6.52264e-05
0.00205104 -0.000619323 -1.534e-05
-0.000619323 0.000850795 4.64519e-06
-1.534e-05 4.64519e-06 0.000407263
0.00200561 -0.000402797 -1.39414e-06
-0.000402797 0.000872208 8.47968e-06
-1.39414e-06 8.47968e-06 0.00051943
0.000798691 -0.000436527 -1.66337e-05
-0.000436527 6.57166e-05 1.6239e-05
-1.66337e-05 1.6239e-05 -0.000336542
0.000365039 -5.58623e-06 -2.82422e-06
-5.58623e-06 -7.82599e-05 -9.13208e-06
-2.82422e-06 -9.13208e-06 -0.00011812
0.000453768 4.58449e-05 -4.88778e-07
4.58449e-05 5.09227e-06 -7.58548e-06
-4.88778e-07 -7.58548e-06 -0.000121746
0.00213324 0.000465852 -3.26036e-06
0.000465852 0.000185629 -5.42071e-07
-3.26036e-06 -5.42071e-07 -1.29846e-06
-0.000193635 5.03787e-05 1.36101e-07
5.03787e-05 -0.000368448 -1.77406e-07
1.36101e-07 -1.77406e-07 -0.000628633
0.00145099 0.000328196 2.34995e-06
0.000328196 0.000506716 -3.71263e-07
2.34995e-06 -3.71263e-07 0.000252059
0.000102566 0.000155829 -3.58593e-06
0.000155829 -0.000354866 1.99649e-07
-3.58593e-06 1.99649e-07 -0.000567355
0.00204851 0.000585017 2.28873e-06
0.000585017 0.000279721 2.09938e-06
2.28873e-06 2.09938e-06 6.26373e-07
0.00202257 0.00056996 2.84241e-06
0.00056996 0.000173294 1.14419e-06
2.84241e-06 1.14419e-06 -5.49099e-05
0.0015201 0.000580907 3.16487e-07
0.000580907 0.000450365 1.42534e-06
3.16487e-07 1.42534e-06 2.24714e-05
0.00233935 0.000734607 -5.39934e-06
0.000734607 0.000714155 4.54864e-06
-5.39934e-06 4.54864e-06 0.000306636
0.00217419 0.000682239 2.32949e-06
0.000682239 0.000340801 3.40081e-06
2.32949e-06 3.40081e-06 2.17853e-05
0.000618535 5.80102e-05 -8.95758e-08
5.80102e-05 0.000103154 5.17441e-07
-8.95758e-08 5.17441e-07 -2.46572e-06
0.000743226 0.000101749 -1.19974e-06
0.000101749 0.000244403 -1.99948e-07
-1.19974e-06 -1.99948e-07 2.73896e-05
0.00115098 0.000433191 6.15738e-07
0.000433191 0.000296574 1.97794e-06
6.15738e-07 1.97794e-06 -3.63218e-05
0.000729272 0.000109068 5.52919e-07
0.000109068 0.000132257 -1.00965e-06
5.52919e-07 -1.00965e-06 -0.000119622
0.000915073 0.000256761 3.78426e-06
0.000256761 7.19272e-05 -2.73836e-06
3.78426e-06 -2.73836e-06 -0.000163185
0.00208264 0.000490936 -2.29852e-06
0.000490936 0.000128503 -1.36141e-06
-2.29852e-06 -1.36141e-06 -4.63241e-05
0.0021492 0.000647027 2.09784e-06
0.000647027 0.000297171 6.30292e-07
2.09784e-06 6.30292e-07 1.78494e-05
0.00208462 0.000626971 1.19679e-06
0.000626971 0.000162556 1.76911e-07
1.19679e-06 1.76911e-07 -7.76277e-05
0.0014706 0.000672085 2.21758e-06
0.000672085 0.000408008 7.3402e-07
2.21758e-06 7.3402e-07 -6.0331e-05
0.0018248 0.000715756 -1.96014e-06
0.000715756 0.000291262 -2.07347e-06
-1.96014e-06 -2.07347e-06 -8.71282e-05
0.00126751 0.000155866 1.25656e-06
0.000155866 0.000554963 3.2764e-06
1.25656e-06 3.2764e-06 0.000383727
-0.000303226 1.03275e-05 -2.91763e-07
1.03275e-05 -0.000377057 2.97088e-07
-2.91763e-07 2.97088e-07 -0.000649316
0.00142889 0.00052829 -5.26267e-07
0.00052829 0.000466802 -3.20229e-06
-5.26267e-07 -3.20229e-06 7.1333e-05
0.000124512 0.00017817 5.67026e-06
0.00017817 -0.000403743 1.68586e-06
5.67026e-06 1.68586e-06 -0.00063332
0.00217138 0.00056188 5.40177e-07
0.00056188 0.000810505 -3.54003e-06
5.40177e-07 -3.54003e-06 0.000473264
0.00208179 0.000541159 -6.34761e-07
0.000541159 2.95567e-05 -4.52313e-07
-6.34761e-07 -4.52313e-07 -0.000109097
0.00220831 0.000710015 9.35672e-06
0.000710015 0.000292857 -2.55571e-06
9.35672e-06 -2.55571e-06 -1.89113e-05
0.00220754 0.000665517 9.30965e-06
0.000665517 0.000193658 1.40308e-06
9.30965e-06 1.40308e-06 -6.66617e-05
0.00171562 0.000724533 1.40622e-05
0.000724533 0.000502304 9.80897e-08
1.40622e-05 9.80897e-08 3.294e-05
0.00213151 0.000828063 5.74943e-06
0.000828063 0.000495179 -5.59844e-07
5.74943e-06 -5.59844e-07 7.11993e-05
0.000569538 4.16337e-05 -1.36599e-06
4.16337e-05 6.66594e-05 -6.17429e-06
-1.36599e-06 -6.17429e-06 -2.47455e-05
0.000515575 9.76416e-05 1.12646e-06
9.76416e-05 5.71324e-05 -2.2176e-07
1.12646e-06 -2.2176e-07 -8.02747e-05
0.000242405 7.77458e-05 -4.42834e-07
7.77458e-05 -0.000116754 3.92591e-07
-4.42834e-07 3.92591e-07 -0.00023762
-8.98159e-05 -2.11256e-05 1.88431e-06
-2.11256e-05 -0.000312119 -4.08513e-06
1.88431e-06 -4.08513e-06 -0.000441105
0.000599051 7.62219e-05 -8.63334e-07
7.62219e-05 0.000144297 2.78785e-07
-8.63334e-07 2.78785e-07 8.94025e-06
0.000461519 0.000101527 4.49555e-07
0.000101527 4.87872e-05 -1.59767e-07
4.49555e-07 -1.59767e-07 -9.56613e-05
0.000586671 0.00014516 -2.11177e-06
0.00014516 0.000136724 -5.53175e-06
-2.11177e-06 -5.53175e-06 -4.27639e-06
0.000333468 4.68579e-05 -3.24117e-06
4.68579e-05 -1.06016e-05 5.73259e-07
-3.24117e-06 5.73259e-07 -0.000166145
0.000675804 0.000106337 -1.09911e-07
0.000106337 0.000179508 2.7506e-06
-1.09911e-07 2.7506e-06 5.98655e-05
0.000543514 7.84874e-05 2.78923e-06
7.84874e-05 7.24509e-05 4.13504e-06
2.78923e-06 4.13504e-06 -7.49194e-06
0.000504295 2.78129e-05 -2.72431e-06
2.78129e-05 4.23172e-05 6.294e-08
-2.72431e-06 6.294e-08 -3.43514e-05
0.00128998 2.83097e-06 2.16254e-06
2.83097e-06 0.0005055 3.71079e-06
2.16254e-06 3.71079e-06 0.000485124
0.000375182 -7.08375e-05 3.97852e-06
-7.08375e-05 -3.18191e-05 -4.64232e-06
3.97852e-06 -4.64232e-06 -0.000117228
0.00136285 -8.95947e-06 -8.2185e-06
-8.95947e-06 0.000548096 -1.72023e-06
-8.2185e-06 -1.72023e-06 0.000526927
0.00073928 -2.29428e-05 3.24065e-05
-2.29428e-05 0.00014724 9.65455e-06
3.24065e-05 9.65455e-06 0.00015124
0.00142222 -1.58467e-05 -1.51978e-05
-1.58467e-05 0.000584984 -8.25942e-06
-1.51978e-05 -8.25942e-06 0.000561266
0.000752062 -3.85235e-05 1.36738e-05
-3.85235e-05 0.000156755 3.67865e-06
1.36738e-05 3.67865e-06 0.00015517
0.00275934 -0.000121436 -5.93688e-07
-0.000121436 0.00144951 -3.28726e-06
-5.93688e-07 -3.28726e-06 0.00144666
0.000269072 6.66958e-05 -4.34664e-06
6.66958e-05 -0.000105048 -6.28748e-06
-4.34664e-06 -6.28748e-06 -0.000150252
0.000385811 2.97453e-07 -3.69653e-06
2.97453e-07 -3.99552e-05 3.65349e-07
-3.69653e-06 3.65349e-07 -9.41258e-05
0.00317028 0.000169937 -6.46082e-06
0.000169937 0.00174551 -7.78091e-06
-6.46082e-06 -7.78091e-06 0.00172783
0.000587453 -9.36211e-05 -1.35425e-05
-9.36211e-05 7.03585e-05 1.25695e-05
-1.35425e-05 1.25695e-05 -3.75521e-06
0.00414602 0.000143253 -3.7572e-05
0.000143253 0.00236447 -5.35486e-08
-3.7572e-05 -5.35486e-08 0.00235093
0.00519019 0.000108201 -0.000179049
0.000108201 0.00303479 2.17999e-05
-0.000179049 2.17999e-05 0.00302607
0.002119 0.000395688 -2.68336e-06
0.000395688 0.00012367 9.61656e-07
-2.68336e-06 9.61656e-07 -2.01062e-05
0.00215641 0.000217251 -3.99775e-06
0.000217251 0.000101203 -6.91804e-07
-3.99775e-06 -6.91804e-07 4.17936e-05
0.00209818 0.000298471 -8.34208e-07
0.000298471 -6.63878e-06 -1.08763e-07
-8.34208e-07 -1.08763e-07 -4.47965e-05
0.00205094 0.00012937 -1.46348e-06
0.00012937 -6.74792e-06 -2.76945e-07
-1.46348e-06 -2.76945e-07 -8.78093e-06
0.00207892 5.37586e-05 -5.94526e-06
5.37586e-05 5.00026e-05 -7.60544e-08
-5.94526e-06 -7.60544e-08 2.06369e-05
0.00190586 4.75466e-06 -2.34107e-06
4.75466e-06 7.36325e-05 2.33365e-07
-2.34107e-06 2.33365e-07 -1.18218e-05
0.00207775 -7.19575e-06 -4.09496e-08
-7.19575e-06 5.92716e-05 1.68215e-08
-4.09496e-08 1.68215e-08 2.64989e-05
0.00205497 5.6745e-05 1.23745e-06
5.6745e-05 1.95343e-05 3.82759e-08
1.23745e-06 3.82759e-08 2.02033e-05
0.00210794 0.000204258 -2.46061e-07
0.000204258 1.32829e-05 -9.40813e-08
-2.46061e-07 -9.40813e-08 8.76379e-07
0.00212473 0.000135338 6.20023e-07
0.000135338 -2.50802e-05 1.78532e-07
6.20023e-07 1.78532e-07 3.74066e-06
0.0021167 0.000393424 -4.57194e-07
0.000393424 7.53341e-05 3.35863e-07
-4.57194e-07 3.35863e-07 -3.12592e-05
0.00223403 0.000312611 2.61793e-06
0.000312611 -2.42071e-06 3.34484e-07
2.61793e-06 3.34484e-07 2.11119e-06
0.00201164 -1.35231e-05 3.73132e-06
-1.35231e-05 -8.2978e-07 1.49951e-07
3.73132e-06 1.49951e-07 -2.69823e-06
0.00213429 6.45602e-05 -6.0869e-07
6.45602e-05 -2.56917e-05 5.43482e-08
-6.0869e-07 5.43482e-08 1.41664e-05
0.00220848 0.0002074 -1.71262e-06
0.0002074 -1.7499e-05 -4.14579e-07
-1.71262e-06 -4.14579e-07 9.54992e-06
0.00227839 0.000430957 -1.14536e-06
0.000430957 2.63363e-05 1.10511e-07
-1.14536e-06 1.10511e-07 5.06266e-06
0.00209717 -7.29584e-05 -6.91683e-06
-7.29584e-05 7.84428e-05 4.75774e-07
-6.91683e-06 4.75774e-07 3.99941e-05
0.00206465 -0.000224567 -1.95313e-06
-0.000224567 6.21355e-05 3.00053e-07
-1.95313e-06 3.00053e-07 -1.12516e-05
0.00198736 -0.000125156 -4.56956e-06
-0.000125156 -7.95442e-06 6.16159e-07
-4.56956e-06 6.16159e-07 -1.43487e-05
0.0021126 -0.000323883 -5.07271e-06
-0.000323883 4.0211e-05 1.15335e-06
-5.07271e-06 1.15335e-06 -3.73824e-06
0.00103127 -0.000403505 -7.68601e-06
-0.000403505 0.0001472 3.261e-06
-7.68601e-06 3.261e-06 -0.000190393
0.00160447 -0.00067584 1.34759e-05
-0.00067584 0.000347341 -4.70048e-06
1.34759e-05 -4.70048e-06 -0.000102564
0.00206939 -0.000779226 -3.90705e-06
-0.000779226 0.000382871 -2.70586e-06
-3.90705e-06 -2.70586e-06 -4.46777e-05
0.0019808 -0.000462922 -4.03771e-06
-0.000462922 7.29817e-05 1.36894e-06
-4.03771e-06 1.36894e-06 -7.60111e-05
0.00211401 -0.000420142 -2.21461e-07
-0.000420142 3.63593e-05 1.14886e-06
-2.21461e-07 1.14886e-06 -1.87151e-05
0.00202654 -0.000568444 -4.41082e-07
-0.000568444 9.96844e-05 1.7809e-06
-4.41082e-07 1.7809e-06 -6.80998e-05
0.00209587 -0.000640301 -4.71337e-06
-0.000640301 0.000311868 -2.28864e-06
-4.71337e-06 -2.28864e-06 2.0209e-05
0.00220303 -0.000612869 1.33835e-05
-0.000612869 0.000272227 -6.19667e-06
1.33835e-05 -6.19667e-06 5.08311e-05
0.000988812 -0.000427099 -1.41368e-06
-0.000427099 0.000200006 1.3662e-06
-1.41368e-06 1.3662e-06 -0.00016443
0.00123686 -0.000442702 1.69196e-05
-0.000442702 0.000355354 -6.84486e-06
1.69196e-05 -6.84486e-06 -2.57167e-05
0.000263595 -0.000172314 -6.02755e-07
-0.000172314 -0.000173015 -1.13197e-05
-6.02755e-07 -1.13197e-05 -0.00048065
0.000104529 -9.18433e-05 3.17913e-07
-9.18433e-05 -0.0002067 4.85689e-06
3.17913e-07 4.85689e-06 -0.000365592
6.94741e-05 -0.000105229 4.51748e-06
-0.000105229 -0.000164535 -1.05172e-06
4.51748e-06 -1.05172e-06 -0.000472582
0.00199505 -8.09048e-05 1.38004e-07
-8.09048e-05 -1.86554e-05 -1.45375e-07
1.38004e-07 -1.45375e-07 -1.50246e-05
0.00208621 -0.000195676 1.5224e-06
-0.000195676 7.2945e-06 -1.88599e-08
1.5224e-06 -1.88599e-08 8.64994e-07
0.00219631 -0.000379198 -6.4451e-07
-0.000379198 1.28408e-05 8.67897e-08
-6.4451e-07 8.67897e-08 -4.45087e-06
0.00157531 -0.000597108 -1.3654e-06
-0.000597108 0.000478278 -6.41245e-07
-1.3654e-06 -6.41245e-07 4.48542e-05
0.00152796 -0.000748557 3.82141e-06
-0.000748557 0.000283309 -7.44459e-07
3.82141e-06 -7.44459e-07 -0.000196
0.0022002 -0.000836367 -4.72286e-07
-0.000836367 0.00043698 -4.04893e-07
-4.72286e-07 -4.04893e-07 1.46281e-07
0.0021465 -0.000493618 4.8425e-07
-0.000493618 8.14229e-05 1.71936e-08
4.8425e-07 1.71936e-08 -2.57865e-06
0.00217672 -0.000661829 2.72118e-06
-0.000661829 0.000308009 -3.9721e-06
2.72118e-06 -3.9721e-06 2.45145e-05
0.00223053 -0.000660099 -1.36483e-06
-0.000660099 0.000172392 -2.38163e-07
-1.36483e-06 -2.38163e-07 -1.59583e-05
1.97346e-05 4.47639e-05 -1.98371e-06
4.47639e-05 -0.000254791 -9.50535e-07
-1.98371e-06 -9.50535e-07 -0.000364501
0.00131882 -0.000525048 2.61366e-07
-0.000525048 0.000396517 -1.97514e-06
2.61366e-07 -1.97514e-06 -2.2381e-05
0.00148623 -0.000522623 -4.2757e-06
-0.000522623 0.00051434 1.02483e-06
-4.2757e-06 1.02483e-06 8.07439e-05
0.00171136 -0.000381218 -1.28997e-06
-0.000381218 0.000715917 2.58767e-06
-1.28997e-06 2.58767e-06 0.000349685
0.00133503 -0.000312203 1.73962e-06
-0.000312203 0.000606818 -1.752e-06
1.73962e-06 -1.752e-06 0.000275499
0.000421706 -9.35675e-05 -8.40445e-07
-9.35675e-05 8.37788e-05 1.18747e-06
-8.40445e-07 1.18747e-06 -0.000192806
0.00208946 -0.000103557 5.11431e-07
-0.000103557 -3.60019e-05 1.72214e-07
5.11431e-07 1.72214e-07 -5.80883e-06
0.00225649 -0.000264066 -1.96343e-07
-0.000264066 -3.39125e-05 3.39074e-07
-1.96343e-07 3.39074e-07 1.28547e-05
0.00226873 -0.000467094 3.3723e-07
-0.000467094 7.75707e-06 -3.90017e-07
3.3723e-07 -3.90017e-07 9.4075e-06
0.00229986 -0.000592544 -5.10374e-08
-0.000592544 6.84114e-05 -2.84176e-06
-5.10374e-08 -2.84176e-06 7.56653e-06
0.00182427 -0.000702008 -1.45412e-05
-0.000702008 0.000600206 6.29279e-06
-1.45412e-05 6.29279e-06 0.000127511
0.00253163 -0.000783612 -1.03111e-05
-0.000783612 0.000407737 -7.73823e-06
-1.03111e-05 -7.73823e-06 0.000141997
0.00188018 -0.000869573 -5.16334e-05
-0.000869573 0.0004748 7.93059e-06
-5.16334e-05 7.93059e-06 -4.65396e-05
0.00225882 -0.0008884 -2.99677e-05
-0.0008884 0.000490205 1.7203e-06
-2.99677e-05 1.7203e-06 3.4612e-05
-0.000123191 4.93258e-05 -6.19884e-06
4.93258e-05 -0.000348536 -2.88779e-06
-6.19884e-06 -2.88779e-06 -0.00043028
0.000988625 -5.44607e-07 -3.65474e-06
-5.44607e-07 0.000422278 1.98005e-07
-3.65474e-06 1.98005e-07 0.000222996
0.00202472 -0.000318559 -6.84388e-06
-0.000318559 0.00111236 7.51953e-07
-6.84388e-06 7.51953e-07 0.000784769
0.000824438 -0.00020364 3.54068e-07
-0.00020364 0.000230269 -6.95776e-06
3.54068e-07 -6.95776e-06 -0.000100178
0.00290515 -0.000748025 -2.32233e-05
-0.000748025 0.00135164 1.52995e-05
-2.32233e-05 1.52995e-05 0.000872815
0.00173669 -0.000526929 -1.73878e-06
-0.000526929 0.000715654 1.97429e-05
-1.73878e-06 1.97429e-05 0.000241801
0.0005729 4.26832e-05 -1.05524e-06
4.26832e-05 7.54389e-05 -6.29241e-06
-1.05524e-06 -6.29241e-06 -2.85922e-05
-0.000368585 3.0758e-05 1.00511e-06
3.0758e-05 -0.000458807 -3.06215e-07
1.00511e-06 -3.06215e-07 -0.00066335
0.00202144 0.000489605 -1.7134e-06
0.000489605 9.6924e-05 -7.91088e-07
-1.7134e-06 -7.91088e-07 -7.9338e-05
0.000266519 8.60969e-05 -3.1039e-06
8.60969e-05 -0.000167117 2.8918e-06
-3.1039e-06 2.8918e-06 -0.000411682
0.00132309 0.000460178 5.34573e-07
0.000460178 0.000384477 -5.2108e-06
5.34573e-07 -5.2108e-06 4.29367e-05
-0.000992868 5.62389e-05 -5.853e-06
5.62389e-05 -0.0011368 -5.77403e-06
-5.853e-06 -5.77403e-06 -0.00131822
0.00219144 0.000651126 3.76655e-06
0.000651126 0.00031616 1.94762e-06
3.76655e-06 1.94762e-06 3.5983e-05
0.00211192 0.000625054 -5.60352e-06
0.000625054 0.000173822 2.67675e-07
-5.60352e-06 2.67675e-07 -6.49022e-05
0.0019048 0.000735569 -6.50678e-06
0.000735569 0.00065536 4.39758e-06
-6.50678e-06 4.39758e-06 0.000176099
0.00198131 0.00073602 -8.225e-06
0.00073602 0.000410255 1.59219e-06
-8.225e-06 1.59219e-06 2.16826e-05
0.000841932 0.000121104 -6.95066e-07
0.000121104 0.000276042 3.04535e-08
-6.95066e-07 3.04535e-08 0.000117606
0.000410265 0.000106688 2.02529e-06
0.000106688 6.52838e-05 -6.73125e-07
2.02529e-06 -6.73125e-07 -0.000221445
0.00133611 0.000509286 -3.82493e-06
0.000509286 0.000406321 -1.31227e-06
-3.82493e-06 -1.31227e-06 1.78534e-05
0.00110272 0.000211017 -4.27222e-07
0.000211017 0.000195534 3.50475e-07
-4.27222e-07 3.50475e-07 -2.99206e-05
0.00186774 0.000471539 1.49741e-06
0.000471539 0.000602644 -3.19847e-06
1.49741e-06 -3.19847e-06 0.00029588
0.00223485 0.000557609 -2.45368e-06
0.000557609 0.000109201 -8.69238e-07
-2.45368e-06 -8.69238e-07 -3.16561e-05
0.00236205 0.000709956 2.86308e-06
0.000709956 0.000392648 -6.48741e-07
2.86308e-06 -6.48741e-07 8.83572e-05
0.00238255 0.000688243 1.65505e-06
0.000688243 0.000294352 2.75155e-06
1.65505e-06 2.75155e-06 3.0374e-05
0.00167266 0.000726305 4.56333e-06
0.000726305 0.000477064 1.14039e-06
4.56333e-06 1.14039e-06 2.61314e-06
0.00204426 0.00084658 -4.92253e-06
0.00084658 0.000446065 6.56936e-07
-4.92253e-06 6.56936e-07 6.45056e-06
-0.00115225 1.21616e-05 -5.10732e-06
1.21616e-05 -0.000963261 6.03026e-06
-5.10732e-06 6.03026e-06 -0.00111461
-0.00106074 0.000175612 1.74593e-06
0.000175612 -0.000799162 5.73215e-07
1.74593e-06 5.73215e-07 -0.00112804
0.00159148 0.000577607 5.08053e-06
0.000577607 0.00051523 -2.27757e-06
5.08053e-06 -2.27757e-06 0.000106188
0.000844036 0.000331088 6.53489e-06
0.000331088 -6.62747e-05 6.4828e-07
6.53489e-06 6.4828e-07 -0.000330782
0.00251847 0.000563776 4.50175e-06
0.000563776 -2.89565e-05 1.67124e-06
4.50175e-06 1.67124e-06 4.04626e-06
0.00263559 0.000684282 8.43133e-06
0.000684282 0.0003662 9.91222e-07
8.43133e-06 9.91222e-07 0.000159926
0.00230413 0.000824498 8.26786e-06
0.000824498 0.000373202 -3.73061e-06
8.26786e-06 -3.73061e-06 -1.25609e-05
0.00166365 0.000819304 3.52869e-06
0.000819304 0.000331262 -1.36865e-06
3.52869e-06 -1.36865e-06 -0.000168532
0.000913654 0.000145523 -5.91636e-07
0.000145523 0.000321271 -2.92927e-06
-5.91636e-07 -2.92927e-06 0.000170884
0.000483033 0.000139701 -1.99305e-06
0.000139701 5.17843e-05 -9.43428e-07
-1.99305e-06 -9.43428e-07 -8.43753e-05
0.001275 0.00012701 -8.52304e-06
0.00012701 0.000558027 -3.6178e-06
-8.52304e-06 -3.6178e-06 0.000453561
0.00043686 4.84942e-05 2.51074e-07
4.84942e-05 1.58514e-05 -3.09311e-06
2.51074e-07 -3.09311e-06 -0.000100379
-0.000432903 4.4056e-05 5.27351e-07
4.4056e-05 -0.000506961 -1.16344e-06
5.27351e-07 -1.16344e-06 -0.000640654
0.000616391 5.82015e-05 -7.82338e-07
5.82015e-05 0.000143716 1.6399e-07
-7.82338e-07 1.6399e-07 2.30237e-05
0.000511437 0.000151349 1.05004e-06
0.000151349 0.000114103 1.05527e-06
1.05004e-06 1.05527e-06 -2.81908e-05
0.000512073 7.32532e-05 6.71139e-07
7.32532e-05 0.000117509 4.46011e-07
6.71139e-07 4.46011e-07 -5.13771e-05
0.000645742 0.000129513 4.54845e-06
0.000129513 0.000130267 -4.43727e-06
4.54845e-06 -4.43727e-06 4.40978e-05
0.000745681 3.46452e-05 2.318e-06
3.46452e-05 0.000255214 -4.66686e-06
2.318e-06 -4.66686e-06 9.37595e-05
9.29973e-05 7.19438e-05 -4.66116e-07
7.19438e-05 -0.000160918 2.858e-06
-4.66116e-07 2.858e-06 -0.000314752
0.000670992 0.000118323 1.95148e-06
0.000118323 0.000177164 4.01489e-06
1.95148e-06 4.01489e-06 5.35274e-05
0.00045383 8.31663e-05 2.76519e-06
8.31663e-05 2.23363e-05 4.00938e-06
2.76519e-06 4.00938e-06 -6.37616e-05
0.000443013 1.88001e-05 -1.55662e-06
1.88001e-05 6.43472e-06 -3.66179e-07
-1.55662e-06 -3.66179e-07 -7.11745e-05
0.00124088 1.00637e-05 1.13847e-06
1.00637e-05 0.000479979 3.22125e-06
1.13847e-06 3.22125e-06 0.000459958
0.000431926 -4.16981e-05 8.97212e-07
-4.16981e-05 -6.20955e-06 -3.56084e-06
8.97212e-07 -3.56084e-06 -8.04483e-05
0.00132764 -3.24755e-06 -7.87604e-06
-3.24755e-06 0.000528872 -1.72423e-06
-7.87604e-06 -1.72423e-06 0.00050953
0.000716615 -1.30851e-05 2.95994e-05
-1.30851e-05 0.000135345 9.5693e-06
2.95994e-05 9.5693e-06 0.000140363
0.00137207 -1.80978e-05 -1.12404e-05
-1.80978e-05 0.000554127 -7.39851e-06
-1.12404e-05 -7.39851e-06 0.000533754
0.00073924 -2.78285e-05 1.18177e-05
-2.78285e-05 0.000145587 3.64017e-06
1.18177e-05 3.64017e-06 0.000147621
0.000729531 -4.08296e-05 8.88813e-07
-4.08296e-05 0.000142424 -3.69135e-06
8.88813e-07 -3.69135e-06 0.00013949
0.000365162 4.73961e-05 -1.86393e-06
4.73961e-05 -6.79569e-05 -4.37987e-06
-1.86393e-06 -4.37987e-06 -9.75161e-05
0.000385821 6.95534e-05 -7.81156e-07
6.95534e-05 -3.18908e-05 2.63054e-07
-7.81156e-07 2.63054e-07 -7.81918e-05
0.00265291 0.000128431 2.33882e-06
0.000128431 0.00140382 -5.87132e-06
2.33882e-06 -5.87132e-06 0.00139765
0.000523955 -2.7345e-06 -7.76862e-06
-2.7345e-06 4.78919e-05 1.06291e-05
-7.76862e-06 1.06291e-05 -8.61887e-06
0.00332163 0.000162535 -2.24006e-05
0.000162535 0.00183796 -2.23257e-06
-2.24006e-05 -2.23257e-06 0.00182158
0.00430652 8.29572e-05 -0.000146608
8.29572e-05 0.00246049 1.59912e-05
-0.000146608 1.59912e-05 0.00246117
0.00212727 0.00039356 -8.259e-07
0.00039356 9.2381e-05 4.43448e-07
-8.259e-07 4.43448e-07 -1.63439e-05
0.002126 0.000203393 -3.50112e-06
0.000203393 2.73765e-05 -7.8205e-07
-3.50112e-06 -7.8205e-07 1.63589e-05
0.00216747 0.000313128 1.20133e-06
0.000313128 -4.62278e-05 8.21325e-07
1.20133e-06 8.21325e-07 -3.49745e-05
0.00210522 0.000136504 1.18029e-06
0.000136504 -4.29269e-05 -7.02995e-08
1.18029e-06 -7.02995e-08 -7.06168e-06
0.00204951 5.77943e-05 -3.6095e-06
5.77943e-05 1.87514e-05 -3.0104e-07
-3.6095e-06 -3.0104e-07 1.59282e-05
0.00209011 -1.02876e-05 -7.55919e-06
-1.02876e-05 7.21662e-05 8.92497e-08
-7.55919e-06 8.92497e-08 3.77437e-05
0.00202232 -1.19224e-05 1.80122e-07
-1.19224e-05 7.08238e-06 -9.9202e-09
1.80122e-07 -9.9202e-09 6.01829e-06
0.00211567 6.7353e-05 1.11285e-06
6.7353e-05 -3.34133e-05 1.14379e-07
1.11285e-06 1.14379e-07 4.66473e-06
0.00219942 0.000213992 1.09505e-06
0.000213992 -2.51347e-05 1.83646e-07
1.09505e-06 1.83646e-07 5.79469e-06
0.00226974 0.000418852 5.34116e-07
0.000418852 1.40283e-05 1.67807e-07
5.34116e-07 1.67807e-07 -5.26223e-06
0.00208345 -1.69552e-05 -1.0815e-06
-1.69552e-05 -4.28857e-05 6.52716e-08
-1.0815e-06 6.52716e-08 -1.10943e-05
0.00224288 0.000118759 -3.28141e-06
0.000118759 -6.93399e-05 -4.47104e-07
-3.28141e-06 -4.47104e-07 1.05702e-05
0.00244092 0.000324056 2.6153e-07
0.000324056 -4.53013e-06 -6.66462e-07
2.6153e-07 -6.66462e-07 4.87087e-05
0.0019816 -8.91243e-05 -3.48519e-06
-8.91243e-05 -2.8857e-05 1.7643e-07
-3.48519e-06 1.7643e-07 -2.64068e-05
0.00211392 -0.000196251 -2.98344e-06
-0.000196251 2.1967e-05 3.79665e-07
-2.98344e-06 3.79665e-07 1.5436e-05
0.00219468 -0.000371906 -1.72114e-06
-0.000371906 2.99279e-05 4.9203e-07
-1.72114e-06 4.9203e-07 6.19279e-06
0.00171944 -0.000614766 2.83642e-06
-0.000614766 0.000559696 -1.20769e-06
2.83642e-06 -1.20769e-06 0.0001238
0.00156298 -0.000726703 2.44569e-05
-0.000726703 0.000310273 -8.10244e-06
2.44569e-05 -8.10244e-06 -0.000158731
0.00201441 -0.000824826 6.76827e-07
-0.000824826 0.000341818 -3.59636e-07
6.76827e-07 -3.59636e-07 -9.59802e-05
0.00213191 -0.000489674 -1.46843e-06
-0.000489674 7.60754e-05 1.34191e-06
-1.46843e-06 1.34191e-06 -1.04841e-05
0.00218175 -0.000640299 8.76991e-06
-0.000640299 0.000173431 2.82333e-06
8.76991e-06 2.82333e-06 -6.63472e-06
0.00226299 -0.000696557 1.25225e-05
-0.000696557 0.000333609 -7.08552e-06
1.25225e-05 -7.08552e-06 4.5455e-05
0.000891088 -0.000464581 7.70608e-06
-0.000464581 0.000130239 -5.8534e-06
7.70608e-06 -5.8534e-06 -0.000273234
0.00182855 -0.000580409 1.9427e-05
-0.000580409 0.000741338 -1.68961e-05
1.9427e-05 -1.68961e-05 0.000294389
0.00106443 -0.00039052 -3.50184e-06
-0.00039052 0.000351598 -7.40001e-06
-3.50184e-06 -7.40001e-06 -3.69176e-05
0.000211935 3.9327e-05 4.20257e-06
3.9327e-05 -0.000137154 2.02217e-06
4.20257e-06 2.02217e-06 -0.000242276
0.00195045 -0.000347687 2.07353e-06
-0.000347687 0.000963055 3.65433e-06
2.07353e-06 3.65433e-06 0.000637689
-0.00035211 6.11262e-06 6.95713e-06
6.11262e-06 -0.000416461 -8.06809e-07
6.95713e-06 -8.06809e-07 -0.000676616
0.0021041 -0.000100577 -5.77087e-07
-0.000100577 -2.64328e-05 1.23831e-07
-5.77087e-07 1.23831e-07 1.60497e-06
0.00222816 -0.000272691 1.52083e-07
-0.000272691 -5.54352e-05 -9.25971e-08
1.52083e-07 -9.25971e-08 -6.65719e-06
0.00225943 -0.00045897 -6.72242e-07
-0.00045897 6.86673e-06 3.34195e-07
-6.72242e-07 3.34195e-07 6.34213e-06
0.00184192 -0.000703231 -7.99691e-07
-0.000703231 0.000624384 9.03919e-07
-7.99691e-07 9.03919e-07 0.000151365
0.00143005 -0.000805434 6.9715e-06
-0.000805434 0.000215065 -2.32857e-06
6.9715e-06 -2.32857e-06 -0.000288515
0.00244791 -0.000884697 -2.99492e-06
-0.000884697 0.00060261 -5.56709e-07
-2.99492e-06 -5.56709e-07 0.00016185
0.00227689 -0.000602097 2.27608e-07
-0.000602097 5.73736e-05 -3.29307e-07
2.27608e-07 -3.29307e-07 -1.21476e-05
0.00198995 -0.000717436 2.38444e-06
-0.000717436 0.000111781 -9.2343e-07
2.38444e-06 -9.2343e-07 -0.000134731
0.000212346 6.04258e-05 -2.00746e-06
6.04258e-05 -0.0001375 -1.38438e-06
-2.00746e-06 -1.38438e-06 -0.000216163
0.000664303 -3.77138e-05 -1.05032e-06
-3.77138e-05 0.000205931 9.7782e-07
-1.05032e-06 9.7782e-07 1.72363e-05
0.00103759 -0.000532816 -2.92093e-06
-0.000532816 0.000199669 1.60353e-06
-2.92093e-06 1.60353e-06 -0.000221468
0.00135056 -0.000455267 -5.54191e-06
-0.000455267 0.000487694 1.96384e-06
-5.54191e-06 1.96384e-06 2.23797e-05
0.00145146 -0.000235712 -1.07885e-06
-0.000235712 0.000616092 -1.68255e-06
-1.07885e-06 -1.68255e-06 0.000277749
0.00112797 -0.000225018 -1.57859e-07
-0.000225018 0.000535813 1.88245e-06
-1.57859e-07 1.88245e-06 0.000220564
0.00222077 -0.000138545 -2.42964e-06
-0.000138545 -6.73172e-05 1.28746e-06
-2.42964e-06 1.28746e-06 1.31398e-05
0.00237537 -0.000392977 -2.03563e-06
-0.000392977 -9.85582e-05 9.79371e-07
-2.03563e-06 9.79371e-07 7.43787e-06
0.00236082 -0.000567694 2.23139e-06
-0.000567694 1.17293e-05 -1.1957e-06
2.23139e-06 -1.1957e-06 1.53098e-05
0.00242922 -0.000769298 4.70046e-06
-0.000769298 0.000167938 -3.73684e-06
4.70046e-06 -3.73684e-06 1.38176e-05
0.00100644 -0.000639532 -1.2131e-05
-0.000639532 0.000110195 -7.05145e-06
-1.2131e-05 -7.05145e-06 -0.000350353
0.00266327 -0.000960919 -7.52737e-06
-0.000960919 0.00063459 -2.43047e-06
-7.52737e-06 -2.43047e-06 0.000222509
0.00246734 -0.00102121 -5.90967e-05
-0.00102121 0.000739987 -1.06601e-06
-5.90967e-05 -1.06601e-06 0.000168304
0.000544009 4.45598e-05 -7.13032e-08
4.45598e-05 5.42331e-05 -2.18984e-07
-7.13032e-08 -2.18984e-07 -4.95388e-06
0.000737353 -0.000155542 4.03795e-06
-0.000155542 0.000243188 -1.50988e-06
4.03795e-06 -1.50988e-06 0.000120411
0.000271831 8.96488e-05 -8.77613e-06
8.96488e-05 -4.94513e-05 -3.98324e-08
-8.77613e-06 -3.98324e-08 -0.000176961
0.000949171 -6.93221e-05 -4.66113e-06
-6.93221e-05 0.000411791 3.9653e-06
-4.66113e-06 3.9653e-06 0.000165893
-0.000232274 -0.000160149 2.05149e-06
-0.000160149 -0.000374554 -9.42098e-06
2.05149e-06 -9.42098e-06 -0.000668241
0.000543515 -0.000210446 6.8925e-06
-0.000210446 0.000102023 -6.32186e-06
6.8925e-06 -6.32186e-06 -0.000321697
0.00122153 -0.000583842 -3.82829e-05
-0.000583842 0.000331537 3.09051e-05
-3.82829e-05 3.09051e-05 -8.96538e-05
0.0030291 -0.00059157 -3.10552e-05
-0.00059157 0.00172054 1.82741e-05
-3.10552e-05 1.82741e-05 0.00100558
0.000211868 6.07642e-05 -1.31608e-07
6.07642e-05 -0.00014174 -1.447e-06
-1.31608e-07 -1.447e-06 -0.000278843
0.00119712 0.000255692 -7.00839e-07
0.000255692 0.000536685 4.00053e-07
-7.00839e-07 4.00053e-07 0.000243146
0.00238706 0.000574557 -2.09703e-06
0.000574557 0.000188292 -1.15085e-06
-2.09703e-06 -1.15085e-06 4.49874e-05
0.000507578 0.00018862 -5.77626e-06
0.00018862 -0.000169349 -1.53595e-06
-5.77626e-06 -1.53595e-06 -0.000410201
0.0012137 0.000488604 -2.30823e-06
0.000488604 0.000327924 -5.22041e-07
-2.30823e-06 -5.22041e-07 -5.53196e-05
0.0018445 0.00041542 -7.10085e-06
0.00041542 0.000569865 -1.76739e-06
-7.10085e-06 -1.76739e-06 0.000284404
0.00248978 0.000705348 -6.97918e-06
0.000705348 0.000478347 -1.90984e-07
-6.97918e-06 -1.90984e-07 0.000183026
0.00253812 0.000709386 -1.02148e-05
0.000709386 0.000384152 5.35803e-06
-1.02148e-05 5.35803e-06 0.000117123
0.00157729 0.000724602 -5.76188e-06
0.000724602 0.000415175 1.58476e-06
-5.76188e-06 1.58476e-06 -6.28489e-05
0.00186403 0.00085646 -9.40537e-06
0.00085646 0.000340915 2.14476e-07
-9.40537e-06 2.14476e-07 -0.000111706
-0.000205338 7.3773e-05 1.27708e-06
7.3773e-05 -0.000356487 1.38753e-06
1.27708e-06 1.38753e-06 -0.0005386
0.000188247 0.000290323 9.86594e-07
0.000290323 -1.85209e-05 -2.41939e-06
9.86594e-07 -2.41939e-06 -0.000358255
0.00155119 0.000583198 2.43264e-06
0.000583198 0.000468978 2.06775e-07
2.43264e-06 2.06775e-07 5.2215e-05
0.00189888 0.000430811 -4.79618e-06
0.000430811 0.000626437 1.33634e-06
-4.79618e-06 1.33634e-06 0.000339158
0.00246582 0.000540443 5.48733e-07
0.000540443 -8.72416e-05 -9.34537e-07
5.48733e-07 -9.34537e-07 -3.83822e-05
0.00258667 0.000690327 3.25951e-06
0.000690327 0.000336438 5.99617e-09
3.25951e-06 5.99617e-09 0.000119713
0.00220314 0.000798289 -2.74151e-06
0.000798289 0.000335497 3.1165e-10
-2.74151e-06 3.1165e-10 -4.0559e-05
0.00193728 0.000843036 1.50644e-06
0.000843036 0.000473663 2.1808e-07
1.50644e-06 2.1808e-07 -2.21748e-05
-0.000566523 3.59921e-05 -4.11003e-06
3.59921e-05 -0.000565256 3.99508e-06
-4.11003e-06 3.99508e-06 -0.000738847
0.00234452 0.000403116 1.0889e-05
0.000403116 -0.000196734 2.72537e-06
1.0889e-05 2.72537e-06 -0.000101523
0.00269157 0.000575315 7.05662e-06
0.000575315 0.00149014 8.9815e-06
7.05662e-06 8.9815e-06 0.00111186
0.00151275 0.000581371 3.70331e-06
0.000581371 0.000368785 -4.16104e-06
3.70331e-06 -4.16104e-06 -2.6814e-05
0.00255662 0.000672742 -1.25073e-05
0.000672742 0.000118563 -8.06826e-06
-1.25073e-05 -8.06826e-06 7.19649e-05
0.00131063 0.00074638 4.01954e-06
0.00074638 -0.000288776 -9.00447e-06
4.01954e-06 -9.00447e-06 -0.000642321
0.00286451 0.000976637 2.14446e-06
0.000976637 0.000946 3.33796e-06
2.14446e-06 3.33796e-06 0.000421164
0.000664012 0.000134373 -1.25836e-06
0.000134373 0.000168659 -2.61328e-06
-1.25836e-06 -2.61328e-06 2.849e-05
0.000563321 0.000124043 -3.61583e-06
0.000124043 0.000134658 -1.35041e-06
-3.61583e-06 -1.35041e-06 2.3704e-05
0.00057283 9.93427e-05 -3.18357e-06
9.93427e-05 0.000164733 4.5282e-06
-3.18357e-06 4.5282e-06 8.94616e-05
0.000453041 9.9986e-06 1.44657e-06
9.9986e-06 4.00768e-05 -3.7829e-06
1.44657e-06 -3.7829e-06 -7.96924e-05
0.000539225 8.52582e-05 2.87294e-06
8.52582e-05 0.00013634 -2.27357e-06
2.87294e-06 -2.27357e-06 -3.50512e-05
-0.000568529 0.000108584 -3.51525e-06
0.000108584 -0.000524732 7.14482e-06
-3.51525e-06 7.14482e-06 -0.000656483
0.000527012 2.50316e-05 -1.6219e-06
2.50316e-05 9.01262e-05 4.6812e-09
-1.6219e-06 4.6812e-09 -3.60605e-05
0.000267919 -2.66832e-06 -7.86072e-07
-2.66832e-06 -3.37205e-05 -2.30125e-07
-7.86072e-07 -2.30125e-07 -0.000198958
2.03903e-05 6.89308e-05 -2.46105e-06
6.89308e-05 -0.000230208 2.53354e-06
-2.46105e-06 2.53354e-06 -0.000302712
0.000729237 0.000122253 1.20768e-06
0.000122253 0.000258134 -1.57699e-06
1.20768e-06 -1.57699e-06 8.65302e-05
0.00179895 0.000166305 -1.47514e-06
0.000166305 0.000842013 -2.66932e-06
-1.47514e-06 -2.66932e-06 0.00079274
0.000180072 2.88964e-05 1.06593e-05
2.88964e-05 -0.000130189 -8.82309e-06
1.06593e-05 -8.82309e-06 -0.000220214
0.000380145 0.000121341 7.14681e-07
0.000121341 4.9111e-05 3.2561e-06
7.14681e-07 3.2561e-06 -0.000131243
0.000534988 6.14174e-05 1.05163e-06
6.14174e-05 0.000122078 4.32524e-06
1.05163e-06 4.32524e-06 -5.21265e-05
0.00053851 2.82052e-05 2.10929e-06
2.82052e-05 8.57818e-05 3.47494e-06
2.10929e-06 3.47494e-06 -4.11914e-05
0.000484971 -6.56161e-05 -1.34137e-06
-6.56161e-05 3.67841e-05 3.15842e-06
-1.34137e-06 3.15842e-06 -4.8585e-05
0.000474825 1.39603e-05 5.49075e-07
1.39603e-05 2.50757e-05 -4.29136e-07
5.49075e-07 -4.29136e-07 -5.38511e-05
0.0013115 2.95354e-05 3.4825e-06
2.95354e-05 0.000532213 3.45465e-06
3.4825e-06 3.45465e-06 0.000510479
0.000476041 9.97196e-06 6.04e-07
9.97196e-06 1.56537e-05 -3.73029e-06
6.04e-07 -3.73029e-06 -5.42635e-05
0.00132819 1.62903e-05 -7.75092e-06
1.62903e-05 0.000536082 -1.82149e-06
-7.75092e-06 -1.82149e-06 0.000515669
0.000748358 -6.19596e-06 2.47549e-05
-6.19596e-06 0.000160786 9.20672e-06
2.47549e-05 9.20672e-06 0.000165231
0.00134797 -1.24891e-05 -8.84651e-06
-1.24891e-05 0.000541373 -7.11042e-06
-8.84651e-06 -7.11042e-06 0.000522745
0.000762868 -1.8252e-05 9.46586e-06
-1.8252e-05 0.000161821 3.62257e-06
9.46586e-06 3.62257e-06 0.000165233
0.000745038 -3.03821e-05 7.11971e-07
-3.03821e-05 0.000147261 -3.13194e-06
7.11971e-07 -3.13194e-06 0.000148389
0.000615006 -1.66311e-05 1.54754e-06
-1.66311e-05 9.31605e-05 -1.48182e-06
1.54754e-06 -1.48182e-06 3.86572e-05
0.000378161 2.85503e-05 -1.1979e-07
2.85503e-05 -7.26133e-05 -3.85621e-06
-1.1979e-07 -3.85621e-06 -9.34769e-05
0.000400833 4.89993e-05 3.19414e-07
4.89993e-05 -4.30831e-05 2.82109e-07
3.19414e-07 2.82109e-07 -7.39629e-05
0.00244903 0.000100283 8.89838e-06
0.000100283 0.00126223 -4.99865e-06
8.89838e-06 -4.99865e-06 0.00126383
0.000451408 5.47e-05 4.01086e-06
5.47e-05 1.14704e-06 7.68442e-06
4.01086e-06 7.68442e-06 -4.17533e-05
0.00286242 0.000140471 -4.71746e-06
0.000140471 0.00153948 -5.47468e-07
-4.71746e-06 -5.47468e-07 0.00153055
0.00355753 0.000116148 -6.04089e-05
0.000116148 0.00197544 6.82046e-06
-6.04089e-05 6.82046e-06 0.00196901
0.00226517 0.00040756 1.20111e-06
0.00040756 4.15905e-06 3.3237e-07
1.20111e-06 3.3237e-07 -1.32194e-05
0.00219267 0.000220747 6.97886e-07
0.000220747 -3.02279e-05 4.13461e-07
6.97886e-07 4.13461e-07 4.03645e-06
0.00209822 7.11202e-05 7.02194e-07
7.11202e-05 -3.95636e-05 -1.05084e-07
7.02194e-07 -1.05084e-07 -3.49762e-06
0.00203151 -1.02233e-05 -3.94393e-06
-1.02233e-05 1.43469e-05 -2.22766e-07
-3.94393e-06 -2.22766e-07 1.40533e-05
0.00209263 -1.18515e-05 -9.43064e-07
-1.18515e-05 -3.85887e-05 -3.62612e-08
-9.43064e-07 -3.62612e-08 -3.89075e-06
0.00223293 0.000112491 1.10316e-07
0.000112491 -6.60974e-05 4.49659e-07
1.10316e-07 4.49659e-07 1.13268e-05
0.0023572 0.000331279 -1.13814e-06
0.000331279 -4.14063e-05 -1.82672e-07
-1.13814e-06 -1.82672e-07 1.04572e-05
0.00221086 -1.16859e-05 -3.20944e-06
-1.16859e-05 -8.65465e-05 3.67003e-07
-3.20944e-06 3.67003e-07 3.59297e-06
0.00247957 0.000168179 1.38444e-06
0.000168179 -5.38507e-05 -1.78955e-06
1.38444e-06 -1.78955e-06 3.88742e-05
0.00259723 0.000129827 1.18275e-05
0.000129827 8.15465e-05 1.20305e-05
1.18275e-05 1.20305e-05 0.000180897
0.00212024 -9.81551e-05 -4.43835e-07
-9.81551e-05 -1.55894e-05 -1.12144e-07
-4.43835e-07 -1.12144e-07 1.02314e-05
0.00220286 -0.000282649 -2.57164e-07
-0.000282649 -7.65932e-05 -4.88457e-07
-2.57164e-07 -4.88457e-07 -2.50481e-05
0.00225673 -0.000450317 1.2226e-07
-0.000450317 1.04284e-05 -2.46656e-07
1.2226e-07 -2.46656e-07 8.25785e-06
0.00130751 -0.000647902 1.04324e-05
-0.000647902 0.000297664 -3.96187e-06
1.04324e-05 -3.96187e-06 -0.000165069
0.00203947 -0.000879465 3.66882e-05
-0.000879465 0.000563195 -3.16912e-06
3.66882e-05 -3.16912e-06 4.26344e-05
0.00209701 -0.000815882 1.54348e-05
-0.000815882 0.000410685 -2.3584e-06
1.54348e-05 -2.3584e-06 -3.96474e-06
0.00224734 -0.00060828 2.59091e-06
-0.00060828 4.76552e-05 2.84849e-06
2.59091e-06 2.84849e-06 -3.22485e-05
0.00200384 -0.00070529 1.38563e-05
-0.00070529 0.000140137 4.65297e-06
1.38563e-05 4.65297e-06 -9.94606e-05
0.000577033 -0.000468044 1.90129e-05
-0.000468044 -7.1967e-05 -2.15682e-05
1.90129e-05 -2.15682e-05 -0.000485582
0.00126877 -0.000421331 1.58354e-05
-0.000421331 0.00049106 -2.0856e-05
1.58354e-05 -2.0856e-05 1.61954e-05
0.00133126 -0.000178759 -5.1235e-06
-0.000178759 0.000500058 3.49612e-06
-5.1235e-06 3.49612e-06 0.000186428
0.000407738 1.54538e-05 2.7207e-06
1.54538e-05 -1.57311e-05 1.03407e-06
2.7207e-06 1.03407e-06 -9.0346e-05
0.000431787 2.32382e-05 7.67763e-06
2.32382e-05 5.06528e-05 5.79124e-07
7.67763e-06 5.79124e-07 -0.0001294
0.000306191 -0.000155577 1.85934e-06
-0.000155577 -1.71176e-06 6.68229e-06
1.85934e-06 6.68229e-06 -0.00030122
0.00222837 -0.000141235 5.57386e-07
-0.000141235 -7.21614e-05 -7.6872e-09
5.57386e-07 -7.6872e-09 1.09811e-05
0.000474952 6.28403e-06 1.86922e-06
6.28403e-06 1.08183e-05 3.63751e-07
1.86922e-06 3.63751e-07 -4.84455e-05
0.000384562 -7.906e-05 -2.84724e-06
-7.906e-05 -1.72947e-05 -7.22697e-07
-2.84724e-06 -7.22697e-07 -0.000116997
0.00234901 -0.000381745 -2.46161e-07
-0.000381745 -9.01205e-05 7.05611e-08
-2.46161e-07 7.05611e-08 3.76648e-06
0.00231013 -0.000552693 -1.8819e-06
-0.000552693 -6.7259e-06 4.44984e-07
-1.8819e-06 4.44984e-07 4.65574e-06
0.00189219 -0.000762713 -7.36696e-07
-0.000762713 0.000633576 2.10228e-06
-7.36696e-07 2.10228e-06 0.000136133
0.00197992 -0.000956009 1.05866e-05
-0.000956009 0.000484861 9.84981e-08
1.05866e-05 9.84981e-08 -7.7114e-05
0.00228998 -0.000919994 1.86184e-06
-0.000919994 0.000407828 -5.71147e-06
1.86184e-06 -5.71147e-06 1.16741e-05
0.00238719 -0.000766451 2.86302e-06
-0.000766451 0.000142524 -8.86581e-07
2.86302e-06 -8.86581e-07 -5.96672e-06
0.000637262 9.88915e-06 -1.01703e-06
9.88915e-06 0.000189403 -1.4266e-06
-1.01703e-06 -1.4266e-06 5.7635e-05
0.000782885 -6.28406e-05 1.62627e-06
-6.28406e-05 0.000304383 2.19017e-06
1.62627e-06 2.19017e-06 6.15001e-05
0.00141835 -0.00058336 6.38365e-06
-0.00058336 0.000480174 7.22368e-06
6.38365e-06 7.22368e-06 4.65302e-05
0.00131231 -0.000433887 1.35544e-05
-0.000433887 0.000647032 -9.03059e-06
1.35544e-05 -9.03059e-06 3.55173e-05
0.000910821 -0.000184416 1.86014e-08
-0.000184416 0.000273822 -3.91014e-07
1.86014e-08 -3.91014e-07 -0.000103971
0.000120984 -0.000125701 9.24013e-07
-0.000125701 -0.000142905 -2.79958e-06
9.24013e-07 -2.79958e-06 -0.000446801
0.00223484 -0.000166115 2.56853e-08
-0.000166115 -0.000234609 1.34132e-06
2.56853e-08 1.34132e-06 -0.000117498
0.00236498 -0.00049356 -4.33636e-07
-0.00049356 -0.000239688 3.14516e-06
-4.33636e-07 3.14516e-06 -9.57576e-06
0.0026305 -0.000776263 -5.0781e-06
-0.000776263 0.00011656 -2.488e-06
-5.0781e-06 -2.488e-06 8.21489e-05
0.00262888 -0.00100097 1.23516e-05
-0.00100097 0.000367094 -4.67002e-06
1.23516e-05 -4.67002e-06 0.000108398
0.00113927 -0.000718902 -4.75438e-06
-0.000718902 0.000240992 -2.00107e-05
-4.75438e-06 -2.00107e-05 -0.000271888
0.00335406 -0.00121216 -1.42274e-05
-0.00121216 0.0011462 5.59914e-06
-1.42274e-05 5.59914e-06 0.000540953
0.000214509 5.9335e-05 -2.8049e-06
5.9335e-05 -0.000121018 -4.60593e-06
-2.8049e-06 -4.60593e-06 -0.000227347
0.000502903 -4.74593e-05 4.85832e-06
-4.74593e-05 6.36431e-05 7.77533e-07
4.85832e-06 7.77533e-07 -3.03904e-05
0.00133347 -0.00018526 -4.20544e-06
-0.00018526 0.000547552 1.6817e-05
-4.20544e-06 1.6817e-05 0.000422233
0.000371722 1.14014e-05 -4.44853e-06
1.14014e-05 1.49371e-06 5.29682e-06
-4.44853e-06 5.29682e-06 -0.000174332
0.000825258 -0.000124131 -5.37417e-06
-0.000124131 0.000317389 9.9045e-06
-5.37417e-06 9.9045e-06 4.92439e-05
0.00130022 -0.000101661 1.38524e-05
-0.000101661 0.000505011 -1.6827e-05
1.38524e-05 -1.6827e-05 0.000234777
-0.00109621 -0.000344341 -2.63416e-06
-0.000344341 -0.000444707 -4.42518e-06
-2.63416e-06 -4.42518e-06 -0.00133748
0.000360884 -0.000637896 -6.04939e-05
-0.000637896 -0.000225001 3.10976e-05
-6.04939e-05 3.10976e-05 -0.000603692
0.00037338 0.000115797 -8.46369e-07
0.000115797 3.96743e-05 -2.10568e-06
-8.46369e-07 -2.10568e-06 -0.000182395
0.0016738 0.00036699 -1.24733e-05
0.00036699 0.000875348 -6.96639e-06
-1.24733e-05 -6.96639e-06 0.00054974
0.00241838 0.000516315 -8.37336e-06
0.000516315 -0.000133302 -1.97897e-06
-8.37336e-06 -1.97897e-06 -7.14462e-05
0.00259939 0.000700688 -8.13794e-06
0.000700688 0.000347004 -8.59203e-07
-8.13794e-06 -8.59203e-07 0.000119129
0.00316646 0.000506071 -6.4264e-06
0.000506071 0.00142221 1.57378e-06
-6.4264e-06 1.57378e-06 0.00113373
0.00158293 0.000595893 -6.60738e-06
0.000595893 0.000471462 -2.29449e-06
-6.60738e-06 -2.29449e-06 4.56447e-05
0.00214597 0.000776776 -6.36685e-06
0.000776776 0.000322201 2.10668e-06
-6.36685e-06 2.10668e-06 -4.55386e-05
0.00227566 0.000870498 -7.09585e-06
0.000870498 0.000655298 -3.78402e-07
-7.09585e-06 -3.78402e-07 0.000162581
0.000178688 0.000129056 1.74272e-06
0.000129056 -6.11134e-05 -1.02488e-06
1.74272e-06 -1.02488e-06 -0.000282194
0.00247745 0.000387733 -2.13073e-06
0.000387733 -0.00011155 -2.05067e-06
-2.13073e-06 -2.05067e-06 -9.5349e-06
0.00151353 0.00039757 1.39791e-06
0.00039757 0.000739268 2.30869e-06
1.39791e-06 2.30869e-06 0.000413071
0.0016033 0.0005835 2.23231e-06
0.0005835 0.000452544 1.4613e-06
2.23231e-06 1.4613e-06 5.49086e-05
0.00263887 0.000665167 1.33816e-06
0.000665167 0.000189007 2.71861e-07
1.33816e-06 2.71861e-07 0.000139335
0.00180518 0.000795195 -1.99631e-06
0.000795195 7.90799e-06 -4.89259e-06
-1.99631e-06 -4.89259e-06 -0.000352436
0.00229399 0.000890008 -4.03687e-07
0.000890008 0.000637123 3.44204e-09
-4.03687e-07 3.44204e-09 0.000130388
0.00142009 0.000342629 -2.65672e-06
0.000342629 0.000829907 -1.04266e-06
-2.65672e-06 -1.04266e-06 0.000529463
0.00369851 0.000592485 -8.30354e-05
0.000592485 0.000586009 -2.15212e-05
-8.30354e-05 -2.15212e-05 0.000774907
0.000643904 0.000487742 -1.05415e-05
0.000487742 0.000149996 6.38503e-06
-1.05415e-05 6.38503e-06 -0.000223445
0.00149142 0.000662831 -4.7914e-06
0.000662831 0.000324591 -8.76051e-06
-4.7914e-06 -8.76051e-06 -0.000132531
0.00252836 0.000888886 -3.42613e-05
0.000888886 0.000264172 -2.17867e-05
-3.42613e-05 -2.17867e-05 2.30756e-05
0.00117676 0.000770203 -2.50022e-05
0.000770203 -3.2897e-05 -3.74828e-06
-2.50022e-05 -3.74828e-06 -0.000491954
0.000512604 0.000980229 3.54861e-05
0.000980229 -0.00199776 -3.79071e-05
3.54861e-05 -3.79071e-05 -0.00146341
-1.92964e-05 0.000146446 5.20522e-06
0.000146446 -0.000186718 -7.88903e-07
5.20522e-06 -7.88903e-07 -0.000311651
0.000478147 0.000120148 3.02178e-06
0.000120148 0.000144366 2.33648e-06
3.02178e-06 2.33648e-06 5.56621e-05
0.00125391 0.000155059 1.61406e-06
0.000155059 0.000596529 1.9976e-06
1.61406e-06 1.9976e-06 0.0005193
0.000382274 -6.55575e-05 1.37097e-06
-6.55575e-05 5.82812e-06 -4.6453e-06
1.37097e-06 -4.6453e-06 -0.000123234
0.000338841 -2.99394e-05 -4.53794e-07
-2.99394e-05 8.99441e-06 -2.11465e-06
-4.53794e-07 -2.11465e-06 -0.000153768
0.00134469 0.00022264 1.49521e-07
0.00022264 0.000646915 -6.66833e-10
1.49521e-07 -6.66833e-10 0.000463526
-0.000289663 4.30701e-05 -7.18533e-06
4.30701e-05 -0.000399686 1.57626e-05
-7.18533e-06 1.57626e-05 -0.000468619
0.000501616 -1.63914e-05 -2.35662e-07
-1.63914e-05 8.04356e-05 -1.90121e-07
-2.35662e-07 -1.90121e-07 -5.61671e-05
0.000410484 7.71613e-05 2.18346e-07
7.71613e-05 1.90581e-05 -7.36652e-07
2.18346e-07 -7.36652e-07 -0.000136221
0.00110802 0.000138661 2.98402e-06
0.000138661 0.000410968 4.40687e-06
2.98402e-06 4.40687e-06 0.000365711
0.000407732 7.79201e-05 1.6263e-06
7.79201e-05 4.26045e-05 7.76056e-07
1.6263e-06 7.76056e-07 -0.000123707
0.000678456 7.07812e-05 -8.9626e-07
7.07812e-05 0.000175301 -2.07394e-06
-8.9626e-07 -2.07394e-06 7.15344e-05
0.00138345 0.000146417 -3.78452e-06
0.000146417 0.000635519 -1.43187e-05
-3.78452e-06 -1.43187e-05 0.000576666
0.000811552 0.000153744 -2.70035e-06
0.000153744 0.000234898 -2.81032e-06
-2.70035e-06 -2.81032e-06 8.59458e-05
0.000933498 0.000140435 1.68617e-06
0.000140435 0.00036594 2.66343e-06
1.68617e-06 2.66343e-06 0.000186369
0.000891277 0.000114216 -6.06725e-07
0.000114216 0.000340815 1.8446e-06
-6.06725e-07 1.8446e-06 0.000156728
0.000210691 -2.46243e-05 -1.61456e-06
-2.46243e-05 -0.00012664 1.96147e-06
-1.61456e-06 1.96147e-06 -0.000256769
0.00125514 -0.000104807 7.03468e-07
-0.000104807 0.000627028 -1.4936e-06
7.03468e-07 -1.4936e-06 0.000415909
0.000122787 -4.7715e-05 -1.02038e-06
-4.7715e-05 -0.000176562 3.77693e-06
-1.02038e-06 3.77693e-06 -0.000311877
0.000430129 3.09784e-06 -2.24273e-06
3.09784e-06 8.52207e-06 2.96874e-06
-2.24273e-06 2.96874e-06 -8.09649e-05
0.000450354 4.04934e-05 2.52936e-06
4.04934e-05 1.9363e-05 -1.22543e-07
2.52936e-06 -1.22543e-07 -6.85592e-05
0.00036066 2.12195e-05 -9.01636e-07
2.12195e-05 -6.50243e-05 4.74008e-06
-9.01636e-07 4.74008e-06 -9.08561e-05
0.000398579 4.52157e-06 -1.92539e-06
4.52157e-06 -1.26072e-05 -4.08373e-06
-1.92539e-06 -4.08373e-06 -9.80524e-05
0.000874641 1.67793e-05 -3.90687e-06
1.67793e-05 0.000255522 -1.52359e-06
-3.90687e-06 -1.52359e-06 0.000232474
0.00265874 -1.36066e-06 2.30874e-05
-1.36066e-06 0.00137361 5.72188e-06
2.30874e-05 5.72188e-06 0.00138597
0.0014143 3.36145e-05 -1.25825e-05
3.36145e-05 0.000592042 -7.27042e-06
-1.25825e-05 -7.27042e-06 0.000570945
0.000766569 -8.7199e-06 8.68028e-06
-8.7199e-06 0.000168816 3.55598e-06
8.68028e-06 3.55598e-06 0.000172561
0.000814608 -2.05815e-05 9.09601e-07
-2.05815e-05 0.000190908 -2.9008e-06
9.09601e-07 -2.9008e-06 0.000193829
0.000464555 1.3306e-05 -2.05295e-06
1.3306e-05 5.64224e-06 -2.42289e-06
-2.05295e-06 -2.42289e-06 -4.90885e-05
0.000544631 -3.10504e-05 7.12489e-07
-3.10504e-05 5.23325e-05 -3.48018e-07
7.12489e-07 -3.48018e-07 -4.12469e-06
0.000473192 2.34717e-05 3.58269e-07
2.34717e-05 -1.90438e-05 -3.53632e-06
3.58269e-07 -3.53632e-06 -3.54769e-05
0.000793345 4.18115e-05 1.128e-08
4.18115e-05 0.00019325 1.80641e-07
1.128e-08 1.80641e-07 0.000173209
0.00228227 7.77069e-05 7.03247e-06
7.77069e-05 0.00114741 -4.77984e-06
7.03247e-06 -4.77984e-06 0.00115455
0.000463839 6.10307e-05 5.31253e-06
6.10307e-05 3.79e-06 6.01928e-06
5.31253e-06 6.01928e-06 -3.13529e-05
0.00253271 0.000107157 -2.74542e-06
0.000107157 0.00131734 -2.75968e-07
-2.74542e-06 -2.75968e-07 0.00131725
0.0029464 0.000143936 1.10153e-05
0.000143936 0.00159291 8.31678e-06
1.10153e-05 8.31678e-06 0.00158313
0.00226513 0.000337928 -3.23865e-07
0.000337928 -8.7261e-05 8.21941e-07
-3.23865e-07 8.21941e-07 -3.54061e-05
0.00221714 0.000107744 4.35167e-06
0.000107744 -6.76198e-05 2.18488e-07
4.35167e-06 2.18488e-07 8.51945e-06
0.00210227 -7.4012e-06 7.89394e-07
-7.4012e-06 -3.46821e-05 -3.2287e-07
7.89394e-07 -3.2287e-07 2.96877e-06
0.00219423 -6.92983e-06 4.4772e-08
-6.92983e-06 -9.55289e-05 -3.26652e-07
4.4772e-08 -3.26652e-07 -5.58772e-06
0.00242046 0.000174592 3.32579e-08
0.000174592 -7.70618e-05 4.23229e-07
3.32579e-08 4.23229e-07 1.48825e-05
0.00244687 0.000105691 8.06932e-06
0.000105691 -2.27424e-05 -6.68658e-06
8.06932e-06 -6.68658e-06 6.87973e-05
0.00251276 4.78938e-06 -3.11506e-06
4.78938e-06 -0.000109502 -1.61809e-06
-3.11506e-06 -1.61809e-06 3.08677e-05
0.00478216 0.00102398 7.46465e-05
0.00102398 -0.000668476 1.4829e-05
7.46465e-05 1.4829e-05 0.000204426
0.00300873 8.91943e-05 -2.28153e-05
8.91943e-05 0.000470913 3.09272e-05
-2.28153e-05 3.09272e-05 0.000714746
0.000476848 0.000114643 -2.80624e-06
0.000114643 5.30027e-05 -1.11027e-06
-2.80624e-06 -1.11027e-06 -4.91837e-05
0.00223042 -0.000142242 1.82151e-06
-0.000142242 -7.99086e-05 -1.4581e-06
1.82151e-06 -1.4581e-06 5.7225e-06
0.00232578 -0.000370758 2.17302e-06
-0.000370758 -8.07218e-05 -5.77263e-07
2.17302e-06 -5.77263e-07 8.11907e-07
0.00226481 -0.000541388 1.99743e-07
-0.000541388 -2.65171e-05 8.60425e-07
1.99743e-07 8.60425e-07 -5.98615e-06
0.00146626 -0.00072402 3.23141e-06
-0.00072402 0.000394132 1.03059e-05
3.23141e-06 1.03059e-05 -9.17151e-05
0.00229147 -0.000979396 3.57017e-05
-0.000979396 0.00066274 8.97156e-06
3.57017e-05 8.97156e-06 0.000105065
0.00124307 -0.000802044 1.94853e-07
-0.000802044 -0.000182369 -2.71549e-07
1.94853e-07 -2.71549e-07 -0.000549663
0.00235452 -0.00076626 -2.30272e-06
-0.00076626 0.000120886 1.75498e-06
-2.30272e-06 1.75498e-06 -2.12504e-05
0.00155924 -0.000571365 4.69772e-05
-0.000571365 0.000472518 -4.02794e-05
4.69772e-05 -4.02794e-05 8.75965e-05
0.00157333 -0.000484702 2.43339e-05
-0.000484702 0.000735705 -4.25798e-05
2.43339e-05 -4.25798e-05 0.000174665
0.000495486 -7.31267e-05 8.35213e-07
-7.31267e-05 -3.15603e-05 1.07689e-05
8.35213e-07 1.07689e-05 -0.000364377
0.000472118 1.07965e-05 2.6984e-06
1.07965e-05 1.07284e-05 1.01701e-06
2.6984e-06 1.01701e-06 -4.96213e-05
0.00156129 -0.000140612 9.34366e-07
-0.000140612 0.000763691 1.01598e-05
9.34366e-07 1.01598e-05 0.00043707
0.000883411 -2.47549e-05 8.00294e-06
-2.47549e-05 0.000358187 -1.54608e-06
8.00294e-06 -1.54608e-06 0.00022064
0.000609733 -6.25577e-05 3.65134e-06
-6.25577e-05 0.000183968 -3.44424e-06
3.65134e-06 -3.44424e-06 -5.19616e-05
5.24672e-05 -4.54984e-05 -4.05361e-06
-4.54984e-05 -0.000237178 -6.29401e-07
-4.05361e-06 -6.29401e-07 -0.000330992
0.00232053 -0.000185235 -1.17582e-07
-0.000185235 -0.000212471 3.48e-07
-1.17582e-07 3.48e-07 -6.7518e-05
0.000330501 3.1018e-05 5.6535e-07
3.1018e-05 -3.58553e-05 -2.69932e-06
5.6535e-07 -2.69932e-06 -0.000146932
0.000595921 -6.6305e-05 3.02257e-06
-6.6305e-05 0.000143515 1.11742e-06
3.02257e-06 1.11742e-06 3.68828e-05
0.0010412 -0.000151309 5.77812e-06
-0.000151309 0.000365955 -2.24071e-07
5.77812e-06 -2.24071e-07 0.000253557
0.00237889 -0.000509242 2.17857e-06
-0.000509242 -0.00021283 -9.90412e-07
2.17857e-06 -9.90412e-07 -2.35465e-05
0.00250456 -0.000766087 4.06977e-07
-0.000766087 4.76754e-05 -2.845e-07
4.06977e-07 -2.845e-07 1.53091e-05
0.000583348 -0.000577586 7.17901e-06
-0.000577586 -9.00435e-05 -5.72691e-08
7.17901e-06 -5.72691e-08 -0.000527323
0.00278708 -0.001156 2.09988e-05
-0.001156 0.000802902 6.92282e-07
2.09988e-05 6.92282e-07 0.000225399
0.00253671 -0.000999435 -6.06284e-07
-0.000999435 0.000330287 2.20298e-06
-6.06284e-07 2.20298e-06 6.10039e-05
0.000279053 -2.54688e-05 -2.80223e-07
-2.54688e-05 -5.54262e-05 3.27798e-07
-2.80223e-07 3.27798e-07 -0.000225148
0.00118209 -0.000147881 2.24482e-07
-0.000147881 0.000562919 3.33095e-06
2.24482e-07 3.33095e-06 0.000269009
0.00198252 -0.000846975 -1.53605e-07
-0.000846975 0.000726815 1.76952e-06
-1.53605e-07 1.76952e-06 0.000236457
0.000290387 -0.000288554 -1.50026e-06
-0.000288554 0.000129688 4.64693e-06
-1.50026e-06 4.64693e-06 -0.000556431
0.00124733 -0.000140677 1.62041e-06
-0.000140677 0.000470874 6.62274e-06
1.62041e-06 6.62274e-06 0.000196355
0.00275646 -0.000354614 -8.78779e-06
-0.000354614 3.66312e-05 5.28098e-06
-8.78779e-06 5.28098e-06 0.000198948
0.00213167 -0.000569 -1.48778e-05
-0.000569 -0.000336919 7.77625e-06
-1.48778e-05 7.77625e-06 -6.89619e-05
0.00228699 -0.000899076 -9.07228e-06
-0.000899076 6.076e-05 -4.49195e-06
-9.07228e-06 -4.49195e-06 -0.000130067
0.00486672 -0.00137782 -1.65047e-06
-0.00137782 0.00176939 -1.03925e-06
-1.65047e-06 -1.03925e-06 0.00136498
-0.000237186 -0.000679951 -1.66618e-05
-0.000679951 -0.000607533 -2.11351e-06
-1.66618e-05 -2.11351e-06 -0.0010737
-2.05077e-05 -3.08069e-05 1.15512e-06
-3.08069e-05 -0.00025407 2.8665e-06
1.15512e-06 2.8665e-06 -0.000366501
0.000943777 -6.73904e-06 -5.22773e-06
-6.73904e-06 0.000264457 1.62396e-05
-5.22773e-06 1.62396e-05 0.000152062
-0.00140743 -0.000157764 -7.14631e-06
-0.000157764 -0.00116287 2.47477e-06
-7.14631e-06 2.47477e-06 -0.00124937
0.00214331 -0.00032211 -3.26005e-05
-0.00032211 0.00113119 3.03698e-05
-3.26005e-05 3.03698e-05 0.000887364
0.00102075 -0.000138359 -4.40873e-06
-0.000138359 0.000445314 2.79383e-05
-4.40873e-06 2.79383e-05 0.000175339
-0.00158435 -0.000134257 5.98094e-06
-0.000134257 -0.000556018 -3.05292e-06
5.98094e-06 -3.05292e-06 -0.00135921
0.000644525 -0.000900716 -2.33592e-05
-0.000900716 0.000268764 1.0114e-05
-2.33592e-05 1.0114e-05 -0.000439097
0.00175562 0.000361727 -5.31637e-06
0.000361727 0.000928163 -5.65088e-06
-5.31637e-06 -5.65088e-06 0.000668621
-0.000280432 0.00016081 -5.26741e-06
0.00016081 -0.000378778 -1.79693e-06
-5.26741e-06 -1.79693e-06 -0.00064314
0.00263039 0.00036384 2.50308e-06
0.00036384 -2.12402e-05 1.92185e-06
2.50308e-06 1.92185e-06 9.65634e-05
0.00266626 0.000654412 1.1946e-05
0.000654412 0.000218602 6.35479e-06
1.1946e-05 6.35479e-06 0.00017094
0.00224086 0.000837435 5.62804e-06
0.000837435 0.000269715 3.45642e-06
5.62804e-06 3.45642e-06 -9.56127e-05
0.00166086 0.000581327 -2.51375e-06
0.000581327 0.000521492 3.12775e-06
-2.51375e-06 3.12775e-06 0.000122828
0.00172449 0.00080675 2.00407e-06
0.00080675 0.00032845 3.99166e-06
2.00407e-06 3.99166e-06 -0.000160457
0.00228609 0.000406283 9.37762e-07
0.000406283 0.00128732 -9.98962e-07
9.37762e-07 -9.98962e-07 0.00102424
0.00289152 0.000477186 7.35223e-06
0.000477186 0.000157325 3.83649e-06
7.35223e-06 3.83649e-06 0.000387474
0.000978646 0.000443737 -4.93285e-06
0.000443737 0.00031842 5.52558e-06
-4.93285e-06 5.52558e-06 -1.47828e-05
0.00169799 0.000695582 3.22298e-06
0.000695582 0.000485626 -1.0183e-06
3.22298e-06 -1.0183e-06 8.08176e-06
0.00249768 0.000870054 -2.87693e-06
0.000870054 0.000265164 -3.90196e-06
-2.87693e-06 -3.90196e-06 4.74468e-05
0.00190208 0.000865207 -4.42339e-06
0.000865207 0.000376683 5.71473e-06
-4.42339e-06 5.71473e-06 -0.000105323
0.00308421 0.00132295 3.53653e-05
0.00132295 -0.000915315 7.56034e-06
3.53653e-05 7.56034e-06 -0.000561175
3.41326e-05 0.000287161 1.58166e-06
0.000287161 1.94967e-05 4.00572e-07
1.58166e-06 4.00572e-07 -0.000270049
0.00283113 0.000874774 -8.5473e-05
0.000874774 0.000246832 -4.18095e-05
-8.5473e-05 -4.18095e-05 0.000219667
0.000491383 0.000440462 -1.01958e-05
0.000440462 -0.000175065 4.63797e-06
-1.01958e-05 4.63797e-06 -0.000527436
-4.04066e-06 0.000538327 -3.34767e-06
0.000538327 -0.000522353 -1.87618e-05
-3.34767e-06 -1.87618e-05 -0.000962014
0.00172436 0.000971676 -4.36065e-05
0.000971676 4.15484e-05 -1.67615e-05
-4.36065e-05 -1.67615e-05 -0.000279215
0.0153271 0.000516204 -0.000599556
0.000516204 0.00198021 -9.5979e-05
-0.000599556 -9.5979e-05 0.00180208
0.00323486 0.00202777 -7.61309e-05
0.00202777 -0.00267101 -7.14205e-05
-7.61309e-05 -7.14205e-05 -0.000850232
0.000806556 0.00154955 2.11927e-05
0.00154955 -0.00079323 -3.12861e-07
2.11927e-05 -3.12861e-07 -0.0010301
0.00422514 -0.00276591 0.00189147
-0.00276591 0.00256844 0.000333926
0.00189147 0.000333926 -0.00156645
0.02514 -0.0103222 -4.93437e-05
-0.0103222 0.0109092 8.17379e-05
-4.93437e-05 8.17379e-05 0.00653518
0.00038659 0.000134519 7.20121e-06
0.000134519 0.000112423 2.16971e-06
7.20121e-06 2.16971e-06 1.37879e-05
0.000863659 0.000130061 -2.28388e-06
0.000130061 0.000392127 -2.87926e-06
-2.28388e-06 -2.87926e-06 0.000303804
0.00158794 0.000269356 3.33212e-06
0.000269356 0.000861451 -1.37127e-06
3.33212e-06 -1.37127e-06 0.000724714
0.000499725 -5.91442e-05 3.51679e-07
-5.91442e-05 8.95606e-05 -3.05723e-06
3.51679e-07 -3.05723e-06 -5.29027e-05
0.000396767 6.93818e-05 -4.59229e-07
6.93818e-05 1.46671e-05 -3.88102e-06
-4.59229e-07 -3.88102e-06 -0.000140915
0.000726325 -1.52554e-05 -4.81213e-07
-1.52554e-05 0.000242391 -2.11395e-06
-4.81213e-07 -2.11395e-06 7.43712e-05
0.0010008 9.64359e-05 -2.05368e-06
9.64359e-05 0.000365862 1.07385e-05
-2.05368e-06 1.07385e-05 0.000255793
0.000127451 9.7116e-05 4.0755e-06
9.7116e-05 -0.000197844 8.88788e-06
4.0755e-06 8.88788e-06 -0.00023643
0.000807882 0.000163728 -1.30782e-06
0.000163728 0.000324393 -1.10439e-07
-1.30782e-06 -1.10439e-07 0.000122457
0.000395749 -1.71653e-05 3.22978e-07
-1.71653e-05 4.58827e-07 1.13085e-06
3.22978e-07 1.13085e-06 -0.000136186
0.000705345 6.3042e-05 -8.31823e-07
6.3042e-05 0.000216799 4.33772e-08
-8.31823e-07 4.33772e-08 4.03028e-05
0.000265923 0.000101967 -1.40002e-06
0.000101967 -7.05797e-05 -2.91182e-06
-1.40002e-06 -2.91182e-06 -0.000125775
0.000711071 0.000131572 -1.59159e-06
0.000131572 0.00019302 -2.99751e-07
-1.59159e-06 -2.99751e-07 4.63973e-05
0.00221211 0.000268874 -1.5577e-06
0.000268874 0.0011814 -2.11089e-07
-1.5577e-06 -2.11089e-07 0.000972117
0.000189847 0.00010673 -7.66559e-07
0.00010673 -2.68733e-05 -4.57048e-06
-7.66559e-07 -4.57048e-06 -0.000201407
0.000879191 0.000105586 2.86505e-06
0.000105586 0.000351614 1.94635e-07
2.86505e-06 1.94635e-07 0.00016518
0.00019943 4.12148e-08 -1.13239e-07
4.12148e-08 -0.000125607 4.04039e-08
-1.13239e-07 4.04039e-08 -0.000294889
0.000310539 -7.30658e-05 -8.27438e-07
-7.30658e-05 -5.20825e-05 3.48748e-07
-8.27438e-07 3.48748e-07 -0.000190264
0.000500113 -2.75732e-05 -6.93742e-07
-2.75732e-05 8.48858e-05 -1.46426e-06
-6.93742e-07 -1.46426e-06 -8.4755e-05
0.0013977 -4.09083e-05 1.01975e-06
-4.09083e-05 0.000644806 -1.16277e-05
1.01975e-06 -1.16277e-05 0.00047957
0.000801723 -5.6312e-05 -1.69025e-06
-5.6312e-05 0.000321391 -1.08785e-06
-1.69025e-06 -1.08785e-06 0.000147302
0.000734633 -8.96345e-05 1.91381e-06
-8.96345e-05 0.000255074 -9.33901e-07
1.91381e-06 -9.33901e-07 7.61101e-05
0.000636441 -0.000130144 -1.91003e-06
-0.000130144 0.000161987 4.37552e-06
-1.91003e-06 4.37552e-06 1.83597e-05
0.000228873 -2.76893e-05 2.32162e-07
-2.76893e-05 -0.000103473 9.82713e-07
2.32162e-07 9.82713e-07 -0.000244014
0.000495376 -6.35079e-05 -1.88291e-06
-6.35079e-05 4.04314e-05 3.85332e-06
-1.88291e-06 3.85332e-06 -4.35739e-05
0.000494436 -4.27099e-05 2.02456e-06
-4.27099e-05 4.68635e-05 1.16516e-07
2.02456e-06 1.16516e-07 -4.15108e-05
0.000414576 1.84918e-06 3.218e-06
1.84918e-06 -2.73014e-05 6.57301e-06
3.218e-06 6.57301e-06 -5.47826e-05
0.000486095 5.75659e-05 -1.4225e-06
5.75659e-05 3.53747e-05 -3.46819e-06
-1.4225e-06 -3.46819e-06 -4.80266e-05
0.000381396 3.20363e-05 4.06428e-07
3.20363e-05 -5.01844e-05 9.22752e-08
4.06428e-07 9.22752e-08 -7.68419e-05
0.00257894 7.63489e-06 9.02644e-06
7.63489e-06 0.00132487 5.48807e-06
9.02644e-06 5.48807e-06 0.00133675
0.000436195 4.88707e-05 -4.04502e-06
4.88707e-05 -1.7905e-05 -7.76365e-06
-4.04502e-06 -7.76365e-06 -4.64597e-05
0.00171225 -3.39223e-06 -5.69862e-06
-3.39223e-06 0.000772531 1.83987e-07
-5.69862e-06 1.83987e-07 0.000779763
0.000810228 -1.00568e-05 6.1794e-07
-1.00568e-05 0.000191745 -2.44482e-06
6.1794e-07 -2.44482e-06 0.000195421
0.000412864 1.19666e-05 -2.19143e-07
1.19666e-05 -3.37358e-05 -1.75014e-06
-2.19143e-07 -1.75014e-06 -7.83633e-05
0.00051167 -4.10828e-05 1.53522e-07
-4.10828e-05 3.89767e-05 6.64873e-08
1.53522e-07 6.64873e-08 -1.79501e-05
0.000505555 1.1332e-05 1.46417e-06
1.1332e-05 -2.08831e-06 -3.30061e-06
1.46417e-06 -3.30061e-06 -1.48281e-05
0.000477717 -4.41352e-05 -1.40287e-06
-4.41352e-05 1.08564e-05 1.85931e-07
-1.40287e-06 1.85931e-07 -4.62727e-05
0.000787928 2.85661e-05 -1.32621e-07
2.85661e-05 0.000181649 -7.44894e-07
-1.32621e-07 -7.44894e-07 0.000167463
0.00205502 5.65765e-05 4.39527e-06
5.65765e-05 0.000995545 -4.75129e-06
4.39527e-06 -4.75129e-06 0.00100756
0.000453484 3.82489e-05 1.43308e-06
3.82489e-05 -2.24665e-05 4.10788e-06
1.43308e-06 4.10788e-06 -4.55868e-05
0.00243715 8.5139e-05 -4.87934e-06
8.5139e-05 0.00124965 1.27053e-06
-4.87934e-06 1.27053e-06 0.00125485
0.0026853 0.000117486 6.3151e-06
0.000117486 0.00141745 6.68344e-06
6.3151e-06 6.68344e-06 0.0014151
0.00236309 0.000183898 2.83152e-07
0.000183898 -9.65603e-05 -5.05755e-07
2.83152e-07 -5.05755e-07 -5.12779e-06
0.00218578 -5.01707e-06 3.45623e-06
-5.01707e-06 -9.89009e-05 -8.31616e-07
3.45623e-06 -8.31616e-07 -9.64474e-06
0.00218139 7.49935e-05 -6.95628e-06
7.49935e-05 -0.000214356 5.00552e-06
-6.95628e-06 5.00552e-06 -0.00012317
0.00258546 0.000774481 0.000106055
0.000774481 -0.00181727 2.45057e-05
0.000106055 2.45057e-05 -0.000829734
0.00247938 -2.77903e-05 2.8812e-07
-2.77903e-05 -0.00010597 -2.93367e-06
2.8812e-07 -2.93367e-06 3.24267e-05
0.00233256 7.67008e-05 -2.3209e-06
7.67008e-05 5.66292e-05 -9.98947e-06
-2.3209e-06 -9.98947e-06 0.00023614
0.00284425 -5.06436e-05 -2.67545e-05
-5.06436e-05 0.000466495 -4.39723e-06
-2.67545e-05 -4.39723e-06 0.000529594
0.00336528 0.000298684 -3.59314e-05
0.000298684 -0.00217692 -4.63434e-05
-3.59314e-05 -4.63434e-05 -0.000794994
0.00235403 0.000263514 0.000144565
0.000263514 -0.00116531 5.50794e-05
0.000144565 5.50794e-05 -0.000552983
0.000582885 9.19273e-05 4.61359e-07
9.19273e-05 0.000123035 -9.93818e-07
4.61359e-07 -9.93818e-07 2.14935e-05
0.00057538 -4.46926e-06 1.24952e-07
-4.46926e-06 0.000129874 -1.41487e-07
1.24952e-07 -1.41487e-07 1.85985e-05
0.000321494 -9.53109e-05 -6.23726e-06
-9.53109e-05 -2.29317e-05 2.70892e-06
-6.23726e-06 2.70892e-06 -0.000144096
0.000361487 -4.6473e-05 -3.51118e-06
-4.6473e-05 9.93115e-06 2.1211e-06
-3.51118e-06 2.1211e-06 -0.000114209
0.00238986 -0.000205174 -3.04665e-06
-0.000205174 -0.000193243 -2.67358e-06
-3.04665e-06 -2.67358e-06 -2.97641e-05
0.0023591 -0.000517606 -2.15282e-07
-0.000517606 -0.000198181 -1.96206e-06
-2.15282e-07 -1.96206e-06 -4.88152e-05
0.00240193 -0.000755666 -1.6492e-06
-0.000755666 -4.82425e-06 1.92417e-06
-1.6492e-06 1.92417e-06 -3.81736e-05
0.00404854 -0.000972638 2.46648e-05
-0.000972638 0.00189848 1.35309e-05
2.46648e-05 1.35309e-05 0.0013843
0.000346736 -0.000886297 -2.96721e-06
-0.000886297 -0.000576169 4.51189e-06
-2.96721e-06 4.51189e-06 -0.00109573
0.0024334 -0.000998363 -1.08915e-06
-0.000998363 0.00028506 -2.09866e-06
-1.08915e-06 -2.09866e-06 5.91061e-06
0.000607582 -0.000746668 2.45024e-05
-0.000746668 -8.50827e-05 -2.67022e-05
2.45024e-05 -2.67022e-05 -0.000610232
0.0035379 -0.000387267 1.3916e-05
-0.000387267 0.00170621 -4.11073e-06
1.3916e-05 -4.11073e-06 0.00128441
-0.000332354 -4.73679e-05 -7.08121e-06
-4.73679e-05 -0.000557186 8.93653e-06
-7.08121e-06 8.93653e-06 -0.000795972
0.000682757 -7.1886e-05 3.88859e-06
-7.1886e-05 0.000199513 -8.69623e-07
3.88859e-06 -8.69623e-07 9.21795e-05
0.000478818 -0.000126972 -6.8205e-06
-0.000126972 0.000145643 -1.36736e-05
-6.8205e-06 -1.36736e-05 -0.00015375
0.000472836 -2.28781e-05 5.80262e-06
-2.28781e-05 6.84455e-05 -2.1023e-06
5.80262e-06 -2.1023e-06 -9.80407e-05
0.000549647 -1.09904e-06 4.35269e-07
-1.09904e-06 0.000128271 1.59034e-06
4.35269e-07 1.59034e-06 4.8638e-06
0.000740355 -8.36657e-05 -9.49807e-06
-8.36657e-05 0.00017576 -2.03715e-07
-9.49807e-06 -2.03715e-07 7.82221e-05
0.00268691 -0.000335173 2.19587e-06
-0.000335173 6.58263e-06 1.59238e-06
2.19587e-06 1.59238e-06 0.000185361
0.000450818 -3.32437e-05 -8.56544e-07
-3.32437e-05 6.42748e-05 2.69639e-06
-8.56544e-07 2.69639e-06 -7.11922e-05
0.000801723 -5.73634e-05 7.96594e-06
-5.73634e-05 0.000193075 -8.57823e-07
7.96594e-06 -8.57823e-07 7.26788e-05
-0.00105249 -4.96444e-05 6.9419e-06
-4.96444e-05 -0.000867582 -1.33719e-06
6.9419e-06 -1.33719e-06 -0.000930659
0.00214219 -0.000585384 7.18463e-07
-0.000585384 -0.000349178 -1.19498e-06
7.18463e-07 -1.19498e-06 -0.000104587
0.00235896 -0.000909642 2.30619e-06
-0.000909642 9.51462e-05 -1.47149e-06
2.30619e-06 -1.47149e-06 -9.33438e-05
0.00204467 -0.000984986 -7.32261e-06
-0.000984986 0.000661728 9.07301e-07
-7.32261e-06 9.07301e-07 0.000137591
0.00275925 -0.00115444 -5.84519e-06
-0.00115444 0.000619221 1.48008e-06
-5.84519e-06 1.48008e-06 0.000248594
0.00152242 -0.000177755 6.56674e-06
-0.000177755 0.000741229 -3.8423e-06
6.56674e-06 -3.8423e-06 0.000497539
-0.000338221 -4.00977e-05 6.30591e-06
-4.00977e-05 -0.000421016 8.35037e-06
6.30591e-06 8.35037e-06 -0.000693122
0.00180761 -0.00117826 -4.55239e-07
-0.00117826 0.00100884 -2.15378e-06
-4.55239e-07 -2.15378e-06 0.000199032
0.0015607 -0.000476152 -1.04977e-05
-0.000476152 0.000774806 -6.14871e-07
-1.04977e-05 -6.14871e-07 0.000238927
0.00361699 -0.000495414 -5.00922e-05
-0.000495414 0.000494483 1.27628e-05
-5.00922e-05 1.27628e-05 0.000781591
0.00276444 -0.00075996 -4.05286e-05
-0.00075996 0.00023516 1.29818e-05
-4.05286e-05 1.29818e-05 0.000302802
0.00266466 -0.0010488 2.63805e-06
-0.0010488 0.000479809 -1.64229e-05
2.63805e-06 -1.64229e-05 0.000118765
0.00318546 -0.00118225 1.49892e-05
-0.00118225 0.00109009 1.88089e-05
1.49892e-05 1.88089e-05 0.000697797
1.20158e-05 -9.07558e-05 -3.08515e-06
-9.07558e-05 -0.00010856 -7.35638e-06
-3.08515e-06 -7.35638e-06 -0.000252378
0.000351049 -0.000151669 -1.47403e-05
-0.000151669 9.35639e-06 -1.19992e-07
-1.47403e-05 -1.19992e-07 -0.000210205
-1.08437e-05 -0.000198429 -5.14543e-06
-0.000198429 8.87911e-05 5.8306e-05
-5.14543e-06 5.8306e-05 -0.000264026
0.00012358 -0.00102421 -4.21346e-06
-0.00102421 0.000757214 -3.19962e-05
-4.21346e-06 -3.19962e-05 -0.000431757
0.00348155 -0.000449598 6.66592e-05
-0.000449598 -0.00574011 -2.52965e-05
6.66592e-05 -2.52965e-05 -0.00580426
0.00250357 0.000347087 4.43796e-06
0.000347087 0.00139751 -2.82763e-06
4.43796e-06 -2.82763e-06 0.0011379
0.00139398 0.000418938 -1.40289e-06
0.000418938 0.000559872 -7.46675e-07
-1.40289e-06 -7.46675e-07 0.000250428
0.00188079 0.000381552 5.34991e-05
0.000381552 -0.000415533 1.66555e-05
5.34991e-05 1.66555e-05 -0.000149214
0.0025023 0.0008541 2.5194e-05
0.0008541 0.000288403 1.21675e-05
2.5194e-05 1.21675e-05 9.02805e-05
0.00240601 0.000928937 1.09078e-05
0.000928937 0.000669481 1.28574e-05
1.09078e-05 1.28574e-05 0.00016989
0.00144857 0.000671309 1.02037e-05
0.000671309 0.000369793 9.78177e-06
1.02037e-05 9.78177e-06 -0.00011498
0.0054795 0.00169857 0.000110187
0.00169857 -1.6026e-05 3.44431e-05
0.000110187 3.44431e-05 0.000134268
0.0012036 0.000343765 4.98938e-06
0.000343765 0.000687454 -4.01481e-07
4.98938e-06 -4.01481e-07 0.000410232
0.00266106 0.000830826 -2.64587e-05
0.000830826 0.000137277 9.3568e-07
-2.64587e-05 9.3568e-07 0.000154907
0.000936932 0.00049682 -6.44993e-06
0.00049682 0.000144357 4.65244e-06
-6.44993e-06 4.65244e-06 -0.000232107
0.00156207 0.000758003 5.10915e-07
0.000758003 0.000374477 -7.38811e-06
5.10915e-07 -7.38811e-06 -0.000111639
0.0024666 0.00102803 -1.16229e-05
0.00102803 0.000451979 -3.26883e-07
-1.16229e-05 -3.26883e-07 0.000106816
0.00517905 -0.000611401 -0.000182102
-0.000611401 -0.00531483 -0.000107781
-0.000182102 -0.000107781 -0.00595899
0.00684855 0.0021447 -0.000162271
0.0021447 -0.000795403 -6.73465e-05
-0.000162271 -6.73465e-05 0.000733207
0.00150522 0.00154666 -9.17938e-07
0.00154666 -0.000391433 3.09916e-06
-9.17938e-07 3.09916e-06 -0.000749811
0.00260816 -0.0025392 0.000650257
-0.0025392 0.00345187 0.000237494
0.000650257 0.000237494 0.000102371
0.0177004 -0.0107104 -0.000545802
-0.0107104 0.0093186 -0.000488671
-0.000545802 -0.000488671 0.00473087
0.000451002 0.000262478 -1.32566e-05
0.000262478 6.67249e-05 -2.57665e-06
-1.32566e-05 -2.57665e-06 -0.000170355
0.00194374 0.000503821 0.000947377
0.000503821 0.00464208 8.0734e-05
0.000947377 8.0734e-05 0.00251588
0.00517407 -0.00415391 -0.00016289
-0.00415391 0.00693657 -0.000221516
-0.00016289 -0.000221516 0.000609294
0.00350821 0.00136549 -6.85973e-05
0.00136549 0.0007385 -2.09611e-05
-6.85973e-05 -2.09611e-05 0.000493723
0.00053466 0.000394738 -3.065e-05
0.000394738 -0.000116186 -7.115e-06
-3.065e-05 -7.115e-06 -0.000444271
0.00119196 0.000777517 -4.10145e-05
0.000777517 0.000212007 -3.28839e-05
-4.10145e-05 -3.28839e-05 -0.000199679
-0.000380871 0.00138264 7.98171e-05
0.00138264 -0.00105494 0.000105786
7.98171e-05 0.000105786 -0.00142851
0.0130396 0.00293443 9.28618e-05
0.00293443 0.00104105 -9.6046e-06
9.28618e-05 -9.6046e-06 0.00066708
0.00553826 0.00319087 -6.12666e-05
0.00319087 -0.000441985 -6.28088e-05
-6.12666e-05 -6.28088e-05 0.000703529
0.0189138 -0.0072419 0.00116715
-0.0072419 0.00666166 0.000516163
0.00116715 0.000516163 0.00159773
0.0148114 -0.00322403 -0.000154117
-0.00322403 0.00510835 0.00067899
-0.000154117 0.00067899 0.00266549
0.000630104 0.000103418 1.76224e-06
0.000103418 0.000286186 -3.2096e-06
1.76224e-06 -3.2096e-06 0.00018076
0.000272599 0.000154493 7.44345e-06
0.000154493 6.40274e-05 1.43397e-06
7.44345e-06 1.43397e-06 -6.17969e-05
0.00178168 0.000315014 3.20339e-06
0.000315014 0.00100771 -3.5757e-06
3.20339e-06 -3.5757e-06 0.000800522
0.000588252 1.13287e-06 1.88885e-06
1.13287e-06 0.000149852 3.09526e-07
1.88885e-06 3.09526e-07 -4.80347e-06
0.000615871 7.32717e-05 2.69289e-07
7.32717e-05 0.000151422 -2.29688e-06
2.69289e-07 -2.29688e-06 -1.79531e-05
-0.000115596 3.81522e-05 -1.29843e-06
3.81522e-05 -0.000282567 6.63426e-07
-1.29843e-06 6.63426e-07 -0.000456062
0.000834451 0.000134356 -6.93693e-06
0.000134356 0.000294387 2.15128e-06
-6.93693e-06 2.15128e-06 0.000141975
-0.000311722 7.48076e-05 -2.65545e-06
7.48076e-05 -0.000451256 1.6796e-06
-2.65545e-06 1.6796e-06 -0.000502249
0.000337257 -1.28373e-05 -2.37434e-07
-1.28373e-05 -2.99434e-05 7.1284e-07
-2.37434e-07 7.1284e-07 -0.000172788
0.00141095 0.000169233 2.54401e-06
0.000169233 0.000654291 7.90551e-07
2.54401e-06 7.90551e-07 0.00046415
0.000498446 6.23958e-05 -3.72154e-07
6.23958e-05 0.000124006 -3.81527e-07
-3.72154e-07 -3.81527e-07 -7.1156e-05
0.000798508 4.25866e-05 1.51166e-06
4.25866e-05 0.000289616 -2.54568e-07
1.51166e-06 -2.54568e-07 9.59766e-05
0.000135232 9.91486e-05 -7.79337e-07
9.91486e-05 -5.7707e-05 -3.3736e-06
-7.79337e-07 -3.3736e-06 -0.000232041
0.00155153 0.000155337 -2.51413e-06
0.000155337 0.000772569 -3.00023e-06
-2.51413e-06 -3.00023e-06 0.000593657
-0.000360097 7.19723e-05 -7.45407e-06
7.19723e-05 -0.000189178 -4.81169e-06
-7.45407e-06 -4.81169e-06 -0.000464669
0.000270785 -6.35126e-05 -7.67869e-08
-6.35126e-05 -3.68275e-05 1.63438e-06
-7.67869e-08 1.63438e-06 -0.000225631
0.000750299 -8.72905e-05 -2.60349e-06
-8.72905e-05 0.00026682 -1.26355e-06
-2.60349e-06 -1.26355e-06 7.65861e-05
0.000826852 -6.10578e-05 -3.97926e-07
-6.10578e-05 0.000314719 -8.85095e-07
-3.97926e-07 -8.85095e-07 0.000126805
0.000655806 -4.73501e-05 -4.17013e-06
-4.73501e-05 0.000163463 9.18193e-07
-4.17013e-06 9.18193e-07 1.77063e-05
0.00109329 1.17613e-05 -7.92286e-06
1.17613e-05 0.000526395 -5.66514e-06
-7.92286e-06 -5.66514e-06 0.000312708
0.000883811 -0.000104992 2.78816e-06
-0.000104992 0.000298108 -1.28154e-05
2.78816e-06 -1.28154e-05 0.000165835
-0.00134277 7.1517e-07 -5.71318e-06
7.1517e-07 -0.00105064 -8.80071e-06
-5.71318e-06 -8.80071e-06 -0.00117652
6.59566e-05 -3.91558e-05 1.83409e-06
-3.91558e-05 -0.000110141 -2.43483e-06
1.83409e-06 -2.43483e-06 -0.000317559
0.00017327 -7.26249e-05 7.6206e-07
-7.26249e-05 -0.000115406 -9.68936e-08
7.6206e-07 -9.68936e-08 -0.000258121
0.000806573 -0.000127419 -9.67653e-07
-0.000127419 0.000304779 5.50655e-07
-9.67653e-07 5.50655e-07 0.000140164
0.000501605 -9.15417e-05 -1.15176e-06
-9.15417e-05 5.61701e-05 3.35935e-06
-1.15176e-06 3.35935e-06 -7.11345e-05
0.000424201 -0.000100058 3.60659e-06
-0.000100058 2.07539e-05 4.74009e-07
3.60659e-06 4.74009e-07 -0.000130127
0.000549498 -0.000122994 -3.08616e-09
-0.000122994 0.000104067 1.172e-07
-3.08616e-09 1.172e-07 -3.90456e-05
0.000520597 -6.28977e-05 -2.21795e-06
-6.28977e-05 5.36881e-05 5.24375e-06
-2.21795e-06 5.24375e-06 -3.21993e-05
0.00035656 -5.29582e-06 7.1763e-07
-5.29582e-06 -4.88132e-06 -8.7815e-07
7.1763e-07 -8.7815e-07 -0.000158228
0.00047191 9.16846e-09 2.45659e-06
9.16846e-09 3.34687e-05 1.50411e-07
2.45659e-06 1.50411e-07 -5.56784e-05
0.00144584 -3.97165e-05 -1.15704e-05
-3.97165e-05 0.000618243 7.00478e-06
-1.15704e-05 7.00478e-06 0.000594985
0.000449635 7.23292e-05 -2.05921e-06
7.23292e-05 1.88443e-05 -3.12315e-06
-2.05921e-06 -3.12315e-06 -6.87185e-05
0.000851103 -2.11316e-05 -4.54178e-06
-2.11316e-05 0.000248535 7.33871e-07
-4.54178e-06 7.33871e-07 0.000223149
0.000800131 3.08358e-06 -3.40139e-06
3.08358e-06 0.000198498 4.76594e-06
-3.40139e-06 4.76594e-06 0.00020257
0.000358483 -2.691e-05 4.44951e-06
-2.691e-05 -6.5176e-05 -5.16834e-06
4.44951e-06 -5.16834e-06 -9.11228e-05
0.0025982 4.5317e-06 8.42806e-06
4.5317e-06 0.00133752 5.66146e-10
8.42806e-06 5.66146e-10 0.0013493
0.000865838 4.51286e-06 -1.11876e-05
4.51286e-06 0.000238439 -5.51938e-06
-1.11876e-05 -5.51938e-06 0.000241364
0.000506455 7.15454e-05 2.7954e-06
7.15454e-05 7.6022e-05 6.46083e-07
2.7954e-06 6.46083e-07 -3.12578e-05
0.000441211 5.77452e-05 -2.2725e-06
5.77452e-05 -3.10387e-06 -2.46778e-06
-2.2725e-06 -2.46778e-06 -5.42419e-05
0.000462188 -4.79809e-07 1.54409e-06
-4.79809e-07 1.06651e-05 1.9386e-07
1.54409e-06 1.9386e-07 -4.22257e-05
0.000461925 9.95004e-06 1.37716e-06
9.95004e-06 -2.88836e-05 -3.13532e-06
1.37716e-06 -3.13532e-06 -4.0135e-05
0.000550311 -6.88224e-05 -2.08294e-06
-6.88224e-05 7.27362e-05 2.08871e-06
-2.08294e-06 2.08871e-06 1.04925e-05
0.000460603 1.27487e-05 1.54112e-07
1.27487e-05 -3.09176e-05 -7.35431e-07
1.54112e-07 -7.35431e-07 -4.34984e-05
0.00203401 3.95184e-05 2.87076e-06
3.95184e-05 0.000977343 -4.78964e-06
2.87076e-06 -4.78964e-06 0.000992001
0.00111189 3.77979e-05 -7.59626e-11
3.77979e-05 0.000388994 1.6922e-06
-7.59626e-11 1.6922e-06 0.000375832
0.00149082 4.89154e-05 -5.65336e-07
4.89154e-05 0.000637747 1.43518e-06
-5.65336e-07 1.43518e-06 0.000644688
0.000896795 5.32616e-05 -3.21885e-06
5.32616e-05 0.000266895 8.77352e-06
-3.21885e-06 8.77352e-06 0.000265053
0.00100857 0.000559911 7.6426e-05
0.000559911 -0.00255855 1.78964e-05
7.6426e-05 1.78964e-05 -0.0015383
0.00245247 -5.19416e-05 -9.65512e-07
-5.19416e-05 -8.79374e-05 6.46708e-06
-9.65512e-07 6.46708e-06 4.12517e-05
0.00226183 7.39454e-05 3.42136e-05
7.39454e-05 3.80249e-05 -1.28825e-05
3.42136e-05 -1.28825e-05 0.000181065
0.00305001 0.000510981 -6.79099e-05
0.000510981 -0.00222594 -4.06139e-05
-6.79099e-05 -4.06139e-05 -0.000452873
0.00297977 0.000120454 5.90411e-05
0.000120454 -0.000622481 -1.97582e-06
5.90411e-05 -1.97582e-06 -6.42404e-05
0.00283842 -5.23759e-05 6.66962e-07
-5.23759e-05 0.000398298 -1.02253e-05
6.66962e-07 -1.02253e-05 0.000498135
0.00511982 -0.000449075 -6.64474e-05
-0.000449075 0.00106398 -2.59087e-05
-6.64474e-05 -2.59087e-05 0.00137095
0.00373618 -0.00042197 3.02727e-05
-0.00042197 -0.000690708 -5.11073e-06
3.02727e-05 -5.11073e-06 0.000343009
0.0184277 -0.000991474 8.28048e-05
-0.000991474 0.0030606 -5.60644e-05
8.28048e-05 -5.60644e-05 0.00228266
0.0156517 0.00684337 0.00175237
0.00684337 0.00616222 -0.000471983
0.00175237 -0.000471983 0.00222202
0.0231287 0.00788606 9.21684e-05
0.00788606 0.0148587 2.36444e-05
9.21684e-05 2.36444e-05 0.0105404
0.000120562 -0.000101852 6.7465e-07
-0.000101852 -0.000146991 -3.72133e-07
6.7465e-07 -3.72133e-07 -0.000263984
0.000529722 -5.5948e-06 1.7267e-06
-5.5948e-06 8.81023e-05 -3.34965e-08
1.7267e-06 -3.34965e-08 -1.27383e-05
0.000613381 -9.16168e-05 -9.73012e-07
-9.16168e-05 0.000160414 3.33395e-06
-9.73012e-07 3.33395e-06 4.24907e-05
0.000535583 -3.65625e-05 1.33477e-06
-3.65625e-05 0.000100489 2.69775e-07
1.33477e-06 2.69775e-07 -1.85476e-05
0.000966522 0.000126594 -5.09327e-06
0.000126594 0.000436033 1.20818e-06
-5.09327e-06 1.20818e-06 0.000293931
0.000528117 0.000140538 6.32736e-07
0.000140538 8.135e-05 7.42923e-06
6.32736e-07 7.42923e-06 -4.81502e-05
0.000946381 5.78278e-06 2.73834e-06
5.78278e-06 0.000382017 3.90341e-06
2.73834e-06 3.90341e-06 0.000234807
0.000515496 -2.52633e-05 -1.50421e-06
-2.52633e-05 8.86867e-05 1.31382e-06
-1.50421e-06 1.31382e-06 -3.27699e-05
0.00268422 -0.000322495 1.30017e-05
-0.000322495 -3.04157e-07 -6.01735e-06
1.30017e-05 -6.01735e-06 0.000207908
0.00219922 -0.000612911 1.38057e-05
-0.000612911 -0.000345895 -6.71413e-06
1.38057e-05 -6.71413e-06 -0.000124888
0.00247634 -0.000921867 1.54262e-06
-0.000921867 0.000153876 6.34781e-06
1.54262e-06 6.34781e-06 -2.89895e-05
0.00263318 -0.00102711 1.55836e-05
-0.00102711 0.000946464 5.152e-06
1.55836e-05 5.152e-06 0.000442779
0.00226006 -0.00111721 -2.58062e-05
-0.00111721 0.000346944 1.94943e-06
-2.58062e-05 1.94943e-06 -3.36403e-05
0.00169181 -0.00122878 3.79472e-05
-0.00122878 0.00103668 -1.1204e-05
3.79472e-05 -1.1204e-05 0.000126068
0.00470093 -0.000827233 7.89436e-06
-0.000827233 0.00236476 9.22946e-06
7.89436e-06 9.22946e-06 0.00191946
0.00166375 -0.000341404 1.52613e-05
-0.000341404 0.000903056 -5.07379e-05
1.52613e-05 -5.07379e-05 0.000527692
0.000583226 -0.000116889 1.75142e-06
-0.000116889 3.80491e-05 1.79553e-07
1.75142e-06 1.79553e-07 -6.43942e-05
0.00104067 -8.7535e-05 1.22523e-05
-8.7535e-05 0.00040399 -2.39227e-05
1.22523e-05 -2.39227e-05 0.000174788
0.000975497 -5.48368e-05 4.00164e-06
-5.48368e-05 0.00038586 1.20848e-06
4.00164e-06 1.20848e-06 0.000239739
0.000726632 7.73041e-06 9.37914e-06
7.73041e-06 0.000269538 -7.25077e-06
9.37914e-06 -7.25077e-06 0.000242923
0.00247618 -0.000435823 -5.90721e-07
-0.000435823 -0.000137927 2.91752e-06
-5.90721e-07 2.91752e-06 0.000196668
0.000391248 -9.61092e-05 -4.6408e-06
-9.61092e-05 0.000108192 -9.50339e-07
-4.6408e-06 -9.50339e-07 -3.58067e-05
0.00137981 -0.00021615 -9.27565e-06
-0.00021615 0.000627285 4.24758e-06
-9.27565e-06 4.24758e-06 0.000440326
0.00172787 -0.000689349 8.80401e-06
-0.000689349 -0.000371416 -4.14059e-06
8.80401e-06 -4.14059e-06 -0.000239118
0.002023 -0.000938393 2.00945e-06
-0.000938393 0.00012362 2.1053e-06
2.00945e-06 2.1053e-06 -0.000157521
0.000978185 -0.000905634 -4.54399e-06
-0.000905634 -0.000185805 -1.02023e-05
-4.54399e-06 -1.02023e-05 -0.00049998
0.00190354 -0.000406887 -4.98607e-07
-0.000406887 0.00113944 -2.88259e-05
-4.98607e-07 -2.88259e-05 0.000707197
0.00144458 -0.000727173 1.05591e-05
-0.000727173 0.00127391 4.29928e-06
1.05591e-05 4.29928e-06 0.000340442
0.00575646 -0.000974711 -5.83822e-05
-0.000974711 0.00148045 3.18585e-05
-5.83822e-05 3.18585e-05 0.00170799
0.00400827 -0.00106293 -4.56968e-05
-0.00106293 0.00123099 1.0461e-05
-4.56968e-05 1.0461e-05 0.00100533
0.00234796 -0.00110481 1.5631e-05
-0.00110481 0.000420069 -9.19385e-07
1.5631e-05 -9.19385e-07 0.000120562
-0.00109094 -0.000501285 -1.7059e-06
-0.000501285 -0.00103868 1.47063e-05
-1.7059e-06 1.47063e-05 -0.0011601
0.000471333 -0.000162878 1.32728e-06
-0.000162878 0.000199154 8.37516e-06
1.32728e-06 8.37516e-06 -4.88037e-05
0.000343706 -0.000180988 5.09686e-06
-0.000180988 0.000198162 1.38108e-06
5.09686e-06 1.38108e-06 -0.000107328
0.00208277 -0.000259347 -1.28443e-05
-0.000259347 0.00158321 -2.43838e-05
-1.28443e-05 -2.43838e-05 0.000838447
-0.00725926 -0.000479694 0.000686528
-0.000479694 -0.00391623 -4.18673e-05
0.000686528 -4.18673e-05 -0.00431076
0.0119789 -0.000406744 7.78348e-05
-0.000406744 0.000509189 3.1831e-05
7.78348e-05 3.1831e-05 0.000961995
0.00315029 0.000449123 1.16662e-05
0.000449123 0.00178753 -1.12804e-05
1.16662e-05 -1.12804e-05 0.00154349
0.00179357 0.000604203 -1.94533e-06
0.000604203 0.000709922 6.86871e-06
-1.94533e-06 6.86871e-06 0.000296886
0.00288742 0.000786959 0.00010895
0.000786959 0.000273431 4.8193e-05
0.00010895 4.8193e-05 0.000321005
0.00324165 0.00109916 2.93518e-05
0.00109916 0.00087503 1.35681e-05
2.93518e-05 1.35681e-05 0.00050655
0.00300769 0.000957136 2.15437e-05
0.000957136 0.00119684 8.24186e-06
2.15437e-05 8.24186e-06 0.000671561
0.0169435 0.000791775 0.000104285
0.000791775 0.00265697 -5.85424e-05
0.000104285 -5.85424e-05 0.00222975
0.00852672 0.00269958 -0.000249606
0.00269958 -0.00111871 -3.6056e-05
-0.000249606 -3.6056e-05 0.000783095
0.00153606 0.00145334 1.28856e-05
0.00145334 -0.000172059 -3.1398e-05
1.28856e-05 -3.1398e-05 -0.000654948
0.0147752 -0.00525913 -0.000605288
-0.00525913 0.00642152 1.67327e-05
-0.000605288 1.67327e-05 0.00276435
0.0084458 -0.0114242 -0.00277802
-0.0114242 0.00763663 -0.00165217
-0.00277802 -0.00165217 0.00259562
0.00097479 0.000353839 3.5516e-06
0.000353839 0.000455719 -2.53579e-06
3.5516e-06 -2.53579e-06 0.000178228
-0.00103769 -0.00309739 0.00060684
-0.00309739 -0.00241626 9.0291e-05
0.00060684 9.0291e-05 -0.00500714
-0.00134992 -0.00322714 -0.000640184
-0.00322714 0.00705135 -0.000205754
-0.000640184 -0.000205754 0.000728727
0.00364109 0.00127545 -1.76146e-05
0.00127545 0.000763911 2.15793e-06
-1.76146e-05 2.15793e-06 0.000582188
0.000832639 0.00049504 -1.01327e-05
0.00049504 0.000121387 8.64889e-06
-1.01327e-05 8.64889e-06 -0.000260955
0.00159003 0.000903253 6.38143e-06
0.000903253 0.000427906 1.84528e-06
6.38143e-06 1.84528e-06 -3.86778e-05
0.00123254 0.00137952 5.71885e-05
0.00137952 0.000108009 4.28839e-05
5.71885e-05 4.28839e-05 -0.00021696
0.0142269 0.00322536 -0.000157874
0.00322536 0.000534206 -0.000104618
-0.000157874 -0.000104618 -0.000925647
0.00396857 0.0032944 -2.16825e-05
0.0032944 -0.000861504 -3.93493e-05
-2.16825e-05 -3.93493e-05 0.000455648
0.019511 -0.00587343 0.000653411
-0.00587343 0.00821466 -1.99401e-05
0.000653411 -1.99401e-05 0.00306368
0.0189719 -0.00490955 7.97942e-05
-0.00490955 0.00458419 0.000797139
7.97942e-05 0.000797139 0.00139645
0.0018626 0.0004238 -2.02838e-05
0.0004238 0.000941642 -1.67938e-05
-2.02838e-05 -1.67938e-05 0.000695582
-0.0100236 0.00134042 -0.000132314
0.00134042 0.00443024 -0.000149773
-0.000132314 -0.000149773 -0.0029875
0.00572021 0.00115868 -0.000446365
0.00115868 0.00464252 -0.000549047
-0.000446365 -0.000549047 -0.000397417
0.00258605 0.000944369 -3.5669e-05
0.000944369 0.000606933 -1.16381e-05
-3.5669e-05 -1.16381e-05 0.000532179
0.00293239 0.000959472 -8.43481e-05
0.000959472 0.00129374 -3.12382e-05
-8.43481e-05 -3.12382e-05 0.000858847
0.00143335 0.00103175 -9.73005e-05
0.00103175 0.00102022 -2.72485e-05
-9.73005e-05 -2.72485e-05 0.000271342
-0.00264548 0.00212433 1.40629e-05
0.00212433 -0.00106993 -3.45563e-05
1.40629e-05 -3.45563e-05 -0.00125453
0.00222387 0.00413562 0.000503802
0.00413562 -0.00194915 0.000140261
0.000503802 0.000140261 -0.00381615
0.0202314 -0.00747891 9.02193e-05
-0.00747891 0.0110671 0.000795696
9.02193e-05 0.000795696 0.00526778
0.00918721 -0.000438948 -0.000197477
-0.000438948 -0.00197803 -0.000183813
-0.000197477 -0.000183813 -0.00116862
-0.000538221 0.000144202 5.5729e-07
0.000144202 -0.000392302 -4.95897e-06
5.5729e-07 -4.95897e-06 -0.000543372
0.00182666 0.000344281 1.0722e-05
0.000344281 0.00101921 2.6369e-06
1.0722e-05 2.6369e-06 0.000807603
-0.000653369 8.55054e-05 -2.66586e-06
8.55054e-05 -0.000414792 -1.18282e-06
-2.66586e-06 -1.18282e-06 -0.000592209
0.000336426 5.17929e-05 2.29664e-06
5.17929e-05 -3.22429e-05 1.57022e-06
2.29664e-06 1.57022e-06 -0.000174859
0.00106015 9.01394e-05 2.52357e-07
9.01394e-05 0.000465536 -1.46409e-06
2.52357e-07 -1.46409e-06 0.00026587
0.000570955 3.19203e-05 -2.0275e-06
3.19203e-05 0.000176197 1.56579e-06
-2.0275e-06 1.56579e-06 -2.99269e-05
0.000424462 0.000107862 6.68877e-06
0.000107862 5.45226e-05 5.98716e-06
6.68877e-06 5.98716e-06 -0.00014098
-0.00071957 3.77671e-05 -4.17473e-06
3.77671e-05 -0.000564436 1.29318e-06
-4.17473e-06 1.29318e-06 -0.000733094
0.000767681 3.85182e-05 3.60968e-07
3.85182e-05 0.000281029 -7.37224e-07
3.60968e-07 -7.37224e-07 8.88625e-05
0.000719435 9.72032e-05 6.73983e-07
9.72032e-05 0.0002467 -1.5171e-07
6.73983e-07 -1.5171e-07 7.47961e-05
0.000838781 -3.98169e-05 -1.31549e-06
-3.98169e-05 0.000334613 2.20059e-06
-1.31549e-06 2.20059e-06 0.000130657
-0.00104758 3.59759e-05 1.93028e-06
3.59759e-05 -0.000596421 5.11341e-07
1.93028e-06 5.11341e-07 -0.000862938
0.000497172 6.65855e-05 -2.9184e-06
6.65855e-05 0.00050558 5.85935e-06
-2.9184e-06 5.85935e-06 0.000119154
0.000639793 -2.24375e-05 -8.44555e-07
-2.24375e-05 0.000309783 -6.46435e-06
-8.44555e-07 -6.46435e-06 8.66156e-05
0.00150989 -1.4555e-05 -2.18124e-06
-1.4555e-05 0.000804918 2.67965e-06
-2.18124e-06 2.67965e-06 0.000563542
0.000817939 -8.80177e-05 -3.73008e-07
-8.80177e-05 0.000310032 -1.56297e-06
-3.73008e-07 -1.56297e-06 0.000118115
0.000146959 -0.000104327 5.01773e-06
-0.000104327 -0.000166613 1.17232e-05
5.01773e-06 1.17232e-05 -0.000300798
0.000651348 -9.10374e-05 5.03503e-07
-9.10374e-05 0.000223835 -8.2636e-07
5.03503e-07 -8.2636e-07 2.5916e-05
0.000763307 -0.000101152 -2.52138e-06
-0.000101152 0.000212557 -7.06074e-07
-2.52138e-06 -7.06074e-07 8.03411e-05
-0.000336503 -6.8509e-05 2.16296e-06
-6.8509e-05 -0.000417173 5.35676e-06
2.16296e-06 5.35676e-06 -0.000534644
-0.00018 -5.72777e-05 -1.95559e-07
-5.72777e-05 -0.000292574 -5.28553e-06
-1.95559e-07 -5.28553e-06 -0.00045778
-5.18846e-05 -3.7793e-05 -8.79462e-06
-3.7793e-05 -0.000141606 -3.20701e-06
-8.79462e-06 -3.20701e-06 -0.000336854
0.000101799 -0.000107146 1.87654e-06
-0.000107146 -0.000117837 -8.65454e-06
1.87654e-06 -8.65454e-06 -0.000247442
0.000991568 -0.000125182 1.56278e-05
-0.000125182 0.000306913 -1.58274e-05
1.56278e-05 -1.58274e-05 0.000191768
0.00144382 -0.000306614 -1.46818e-06
-0.000306614 0.000523236 4.2531e-06
-1.46818e-06 4.2531e-06 0.000323683
-0.000176642 -6.77434e-05 -6.99388e-06
-6.77434e-05 -0.000282233 -1.71258e-06
-6.99388e-06 -1.71258e-06 -0.000480092
0.000581412 -5.01214e-05 1.85328e-06
-5.01214e-05 0.000196461 -7.98832e-07
1.85328e-06 -7.98832e-07 -4.14271e-06
-0.000368178 -2.74075e-05 3.11962e-06
-2.74075e-05 -0.000419865 -2.04477e-07
3.11962e-06 -2.04477e-07 -0.000614602
0.000665889 -0.000134432 -9.6821e-07
-0.000134432 0.00021943 -5.10119e-07
-9.6821e-07 -5.10119e-07 5.21142e-05
0.000417555 -3.42008e-05 5.45295e-07
-3.42008e-05 4.94051e-06 1.0164e-06
5.45295e-07 1.0164e-06 -0.000126023
0.000708762 -0.000136523 2.20808e-07
-0.000136523 0.000228248 4.61455e-07
2.20808e-07 4.61455e-07 7.40579e-05
0.000616286 -9.0441e-05 -5.19071e-07
-9.0441e-05 0.00014541 2.25452e-07
-5.19071e-07 2.25452e-07 7.4846e-06
0.000371689 3.16228e-05 1.13905e-07
3.16228e-05 -4.21025e-05 4.81318e-06
1.13905e-07 4.81318e-06 -0.00013037
0.000573293 -0.000120372 7.40049e-07
-0.000120372 0.000112793 -2.72823e-06
7.40049e-07 -2.72823e-06 -2.83194e-05
0.000505276 -4.58961e-05 -5.53803e-07
-4.58961e-05 3.95378e-05 1.28816e-07
-5.53803e-07 1.28816e-07 -4.30709e-05
0.00141865 1.88155e-05 -8.09645e-06
1.88155e-05 0.000591665 7.57281e-06
-8.09645e-06 7.57281e-06 0.000569268
0.000479929 -6.84717e-05 1.36922e-06
-6.84717e-05 3.23996e-05 -3.56843e-06
1.36922e-06 -3.56843e-06 -5.29857e-05
0.000861659 -2.20221e-05 -8.51521e-06
-2.20221e-05 0.000247493 8.61167e-07
-8.51521e-06 8.61167e-07 0.000222476
0.00074004 1.14109e-05 1.27813e-06
1.14109e-05 0.000150606 2.20247e-06
1.27813e-06 2.20247e-06 0.000153838
0.000414963 -2.51693e-05 3.34536e-06
-2.51693e-05 -3.30526e-05 -4.73011e-06
3.34536e-06 -4.73011e-06 -5.81198e-05
0.00256464 1.09988e-05 7.18338e-06
1.09988e-05 0.00131514 1.29737e-08
7.18338e-06 1.29737e-08 0.00132749
0.00259179 4.95416e-07 3.33805e-06
4.95416e-07 0.00133336 -5.06788e-06
3.33805e-06 -5.06788e-06 0.00134519
0.00104295 8.35471e-05 -4.63196e-07
8.35471e-05 0.000416624 6.60815e-07
-4.63196e-07 6.60815e-07 0.000303379
0.000499722 6.69023e-05 -1.57579e-06
6.69023e-05 3.77338e-05 -2.795e-06
-1.57579e-06 -2.795e-06 -1.903e-05
0.000532376 -1.40401e-05 -4.25233e-07
-1.40401e-05 9.7462e-05 7.97513e-07
-4.25233e-07 7.97513e-07 -1.07327e-05
0.000458582 8.75234e-06 1.43955e-06
8.75234e-06 -3.13782e-05 -3.4565e-06
1.43955e-06 -3.4565e-06 -4.18502e-05
0.00043592 -1.1057e-05 1.28431e-06
-1.1057e-05 -8.12648e-06 -2.11706e-07
1.28431e-06 -2.11706e-07 -5.80235e-05
0.000506539 -6.30775e-05 -2.11886e-06
-6.30775e-05 4.36027e-05 2.23486e-06
-2.11886e-06 2.23486e-06 -1.2367e-05
0.000465164 7.30227e-06 -5.36716e-07
7.30227e-06 -2.72022e-05 2.15904e-09
-5.36716e-07 2.15904e-09 -3.84215e-05
0.00199982 2.50114e-05 -2.53154e-06
2.50114e-05 0.000952613 -4.87528e-06
-2.53154e-06 -4.87528e-06 0.000968932
0.00113471 2.49309e-05 -7.86457e-07
2.49309e-05 0.000399804 2.07372e-06
-7.86457e-07 2.07372e-06 0.000390075
0.00131256 3.13718e-05 -2.35609e-06
3.13718e-05 0.00051666 -3.76656e-08
-2.35609e-06 -3.76656e-08 0.000527859
0.000804209 3.77435e-05 -6.77144e-06
3.77435e-05 0.000199615 7.60783e-06
-6.77144e-06 7.60783e-06 0.000203605
-0.00796052 0.00164297 0.000683776
0.00164297 -0.00263808 -8.31648e-05
0.000683776 -8.31648e-05 -0.00600881
0.000260232 0.000751188 0.0014991
0.000751188 0.00755302 -0.000350196
0.0014991 -0.000350196 0.00305319
0.00217683 0.000478236 -0.000165323
0.000478236 -0.00274329 -3.24936e-05
-0.000165323 -3.24936e-05 -0.00069535
0.00208419 -1.62221e-05 1.38766e-05
-1.62221e-05 -0.0010951 -3.02068e-05
1.38766e-05 -3.02068e-05 -0.000475036
0.00177255 -8.059e-05 1.66199e-05
-8.059e-05 -0.000351838 2.48221e-05
1.66199e-05 2.48221e-05 -0.000234714
-0.00173565 4.30152e-06 -0.000112767
4.30152e-06 -0.00228442 -3.09686e-05
-0.000112767 -3.09686e-05 -0.000839996
0.00390616 -0.000504136 3.32251e-06
-0.000504136 0.00021209 5.32785e-06
3.32251e-06 5.32785e-06 0.00048387
0.0124077 -0.00018059 0.000219974
-0.00018059 -0.00143575 -9.86785e-05
0.000219974 -9.86785e-05 -0.00195379
0.0028325 0.00449797 -8.54046e-07
0.00449797 0.00128859 -7.35785e-05
-8.54046e-07 -7.35785e-05 -0.00272221
0.0175154 0.0092462 -0.000634974
0.0092462 0.0116351 0.000286856
-0.000634974 0.000286856 0.00717963
0.00182121 -0.000996253 1.03094e-05
-0.000996253 -0.00281075 -3.67864e-05
1.03094e-05 -3.67864e-05 -0.00123788
0.0159516 -0.00301957 0.000257892
-0.00301957 0.00148076 -7.34129e-05
0.000257892 -7.34129e-05 0.000254931
0.0210297 0.00690595 0.000418775
0.00690595 0.00712188 -0.00054293
0.000418775 -0.00054293 0.00208935
0.0231448 0.00500392 -0.000334546
0.00500392 0.0076966 0.000313321
-0.000334546 0.000313321 0.00465665
0.00102471 0.000175845 -3.46539e-06
0.000175845 0.00047802 3.34682e-06
-3.46539e-06 3.34682e-06 0.000289961
0.000319609 4.06744e-05 5.16696e-07
4.06744e-05 -3.84152e-05 -1.01866e-06
5.16696e-07 -1.01866e-06 -0.000147197
0.000539717 -9.90474e-05 1.74467e-06
-9.90474e-05 0.000107457 1.51439e-06
1.74467e-06 1.51439e-06 -2.17092e-07
0.00068935 4.74661e-06 6.7027e-06
4.74661e-06 0.00020758 -1.71393e-06
6.7027e-06 -1.71393e-06 8.19806e-05
0.000809445 8.47459e-05 2.90035e-06
8.47459e-05 0.00034503 9.24276e-07
2.90035e-06 9.24276e-07 0.000208505
0.000506426 3.55065e-05 1.76013e-07
3.55065e-05 0.000106067 8.43274e-06
1.76013e-07 8.43274e-06 -6.64451e-05
0.000737417 9.59657e-05 4.02937e-07
9.59657e-05 0.000242672 3.1752e-06
4.02937e-07 3.1752e-06 9.97783e-05
0.000440956 7.25275e-05 5.64091e-06
7.25275e-05 1.74498e-05 2.8918e-06
5.64091e-06 2.8918e-06 -0.000128325
0.000663237 -1.92535e-05 2.54305e-06
-1.92535e-05 0.000200917 -1.19725e-06
2.54305e-06 -1.19725e-06 5.58167e-05
0.000455446 -1.70901e-05 2.1079e-06
-1.70901e-05 4.1912e-05 -2.69656e-06
2.1079e-06 -2.69656e-06 -7.15139e-05
0.00129783 -0.000362051 3.82418e-05
-0.000362051 -0.000778476 -1.31518e-05
3.82418e-05 -1.31518e-05 -0.000401306
0.00109165 -0.000635141 2.71912e-05
-0.000635141 -0.000716337 -9.28993e-06
2.71912e-05 -9.28993e-06 -0.000546036
0.00102028 -0.000793496 1.86844e-06
-0.000793496 -0.000434715 8.23001e-06
1.86844e-06 8.23001e-06 -0.000630383
-0.000214426 -0.000750096 -2.09105e-05
-0.000750096 -0.000835395 2.64531e-07
-2.09105e-05 2.64531e-07 -0.00111221
0.00245804 -0.000524594 7.38029e-06
-0.000524594 0.00162391 4.01769e-05
7.38029e-06 4.01769e-05 0.000908678
-0.000632244 -0.000584956 -8.36498e-06
-0.000584956 -0.000375861 -8.23016e-06
-8.36498e-06 -8.23016e-06 -0.000967443
0.00138091 -0.000286731 7.24974e-06
-0.000286731 0.000636718 -5.86334e-06
7.24974e-06 -5.86334e-06 0.000476036
0.000418406 -6.38731e-05 8.81787e-07
-6.38731e-05 0.000103918 2.68987e-06
8.81787e-07 2.68987e-06 -3.32464e-05
0.00257605 -0.000688446 1.46175e-05
-0.000688446 -0.000265833 -9.91666e-06
1.46175e-05 -9.91666e-06 8.98914e-05
0.000454389 -7.94101e-05 4.1358e-07
-7.94101e-05 0.000184895 1.86753e-06
4.1358e-07 1.86753e-06 -7.08009e-05
-0.000171658 -0.000220712 -2.74238e-06
-0.000220712 -0.000106159 -5.90607e-06
-2.74238e-06 -5.90607e-06 -0.000414445
0.00179981 -0.000843507 1.91601e-05
-0.000843507 -1.7655e-05 -1.13957e-06
1.91601e-05 -1.13957e-06 -0.00010367
0.00197628 -0.00105405 -1.62097e-06
-0.00105405 0.000148558 -3.10342e-08
-1.62097e-06 -3.10342e-08 -6.38146e-05
0.000276789 -0.000776487 1.92995e-05
-0.000776487 -0.000232436 -1.76823e-05
1.92995e-05 -1.76823e-05 -0.000489607
0.000945488 -0.000377059 1.15853e-05
-0.000377059 0.000925391 -2.17311e-05
1.15853e-05 -2.17311e-05 0.000176592
0.00199214 -0.00103663 -7.00397e-05
-0.00103663 -9.10636e-05 4.89239e-05
-7.00397e-05 4.89239e-05 -0.000317218
0.00124201 -0.000823734 -2.6537e-05
-0.000823734 -9.07651e-05 4.23161e-06
-2.6537e-05 4.23161e-06 -0.000110978
-0.000395107 -0.00062497 -5.91565e-05
-0.00062497 -0.000168381 3.63688e-05
-5.91565e-05 3.63688e-05 -0.000595263
-0.0021608 -0.000202286 -9.26356e-06
-0.000202286 -0.00145642 1.27167e-05
-9.26356e-06 1.27167e-05 -0.00170264
-0.00124949 -1.44956e-05 9.85199e-08
-1.44956e-05 -0.000781794 1.19473e-05
9.85199e-08 1.19473e-05 -0.00108313
0.000833944 -8.91386e-05 7.11806e-06
-8.91386e-05 0.000545881 -1.52362e-05
7.11806e-06 -1.52362e-05 0.000149247
-0.00273576 0.00142637 -0.000494484
0.00142637 0.00757365 2.35989e-05
-0.000494484 2.35989e-05 0.00195243
-5.74178e-05 -0.00181888 -1.83491e-05
-0.00181888 0.00285813 -2.02798e-06
-1.83491e-05 -2.02798e-06 0.0015378
0.00358211 0.00098974 -0.000146643
0.00098974 -0.0058187 -2.17143e-05
-0.000146643 -2.17143e-05 -0.00598433
0.000602216 0.000327957 1.42723e-05
0.000327957 0.000267918 -3.95149e-06
1.42723e-05 -3.95149e-06 -1.46803e-05
0.00184899 0.000689844 1.55063e-05
0.000689844 0.000770406 2.41627e-05
1.55063e-05 2.41627e-05 0.000314411
0.0035598 0.00112722 7.7723e-05
0.00112722 0.00070265 2.9044e-05
7.7723e-05 2.9044e-05 0.000571797
0.00136116 0.000946511 1.7549e-05
0.000946511 0.000338166 2.50689e-05
1.7549e-05 2.50689e-05 -0.000172078
0.0138841 -0.00360916 0.000288518
-0.00360916 0.00561581 9.16308e-05
0.000288518 9.16308e-05 0.00360373
0.00361137 0.00194047 -0.000416409
0.00194047 -0.00516016 -0.000101094
-0.000416409 -0.000101094 -0.00645204
0.00545794 0.00320921 5.11503e-05
0.00320921 0.000369506 2.97418e-05
5.11503e-05 2.97418e-05 0.0011887
0.00326817 0.00143248 6.32558e-05
0.00143248 0.00137006 -5.51054e-06
6.32558e-05 -5.51054e-06 0.00107294
0.0117632 -0.00350239 -0.000499744
-0.00350239 0.00488881 -0.000364114
-0.000499744 -0.000364114 0.000343507
0.00060531 -0.00443107 -0.000913478
-0.00443107 0.00777192 -0.000258121
-0.000913478 -0.000258121 0.00135887
0.0281014 -0.0065534 0.00090376
-0.0065534 0.0084503 0.000429358
0.00090376 0.000429358 0.00476333
0.000285514 0.000285752 1.7428e-05
0.000285752 1.76785e-05 -4.79395e-06
1.7428e-05 -4.79395e-06 -0.000218807
-0.00387721 0.000447966 -0.000196923
0.000447966 0.00650141 -3.37079e-05
-0.000196923 -3.37079e-05 0.00013988
0.00642677 0.00158326 -0.000174833
0.00158326 0.0036836 -0.000188375
-0.000174833 -0.000188375 -0.00195302
0.00180887 0.000974782 8.98144e-06
0.000974782 0.00029527 2.69264e-06
8.98144e-06 2.69264e-06 0.000145407
0.000784242 0.000726382 1.72837e-05
0.000726382 0.000243089 6.12281e-06
1.72837e-05 6.12281e-06 -0.000204348
0.000924925 0.00114054 -7.07378e-05
0.00114054 0.00061726 -6.8418e-05
-7.07378e-05 -6.8418e-05 -8.39748e-07
0.00402198 0.00368728 4.03009e-05
0.00368728 0.00111899 3.98116e-05
4.03009e-05 3.98116e-05 0.00108313
0.0156521 0.00526943 7.08984e-06
0.00526943 0.00275842 6.03591e-06
7.08984e-06 6.03591e-06 0.000506719
0.0100778 -0.00417696 9.18676e-05
-0.00417696 0.00545079 -0.000113965
9.18676e-05 -0.000113965 -0.000711298
0.0165981 -0.00219117 -2.15411e-05
-0.00219117 0.00239182 -7.10929e-05
-2.15411e-05 -7.10929e-05 0.00333986
0.0007476 0.000563877 -1.55665e-05
0.000563877 0.000277349 -9.81384e-06
-1.55665e-05 -9.81384e-06 -5.22947e-05
0.00168315 0.000274262 -0.000414346
0.000274262 0.00257179 -0.000106533
-0.000414346 -0.000106533 -0.00286923
0.00141641 0.00107588 -0.000155326
0.00107588 -8.80095e-05 -0.000190797
-0.000155326 -0.000190797 -0.00180197
-0.000812814 0.00035643 -6.11356e-06
0.00035643 -0.000183716 -2.11199e-05
-6.11356e-06 -2.11199e-05 -0.000484368
-0.00135641 0.000787393 -0.000187271
0.000787393 0.000860189 -1.06671e-05
-0.000187271 -1.06671e-05 7.97013e-05
0.0112185 0.00563244 0.000128236
0.00563244 0.00374938 -3.5961e-05
0.000128236 -3.5961e-05 -0.00098866
-0.00085095 -0.00615897 -2.99156e-05
-0.00615897 9.58089e-05 0.000234922
-2.99156e-05 0.000234922 -0.00565149
0.0130634 -5.85636e-05 6.70917e-05
-5.85636e-05 -0.00152486 -0.000340019
6.70917e-05 -0.000340019 0.00083924
0.000904049 0.000222903 -2.90828e-06
0.000222903 0.000406191 1.92033e-05
-2.90828e-06 1.92033e-05 0.000239419
0.000944995 0.00026219 -9.4629e-06
0.00026219 0.000572289 -5.57538e-06
-9.4629e-06 -5.57538e-06 0.000345095
-0.000362817 0.000143474 1.06735e-06
0.000143474 -2.20913e-05 -1.93327e-06
1.06735e-06 -1.93327e-06 -0.000367405
0.000505058 8.68355e-05 -4.50128e-07
8.68355e-05 9.2797e-05 -8.37181e-07
-4.50128e-07 -8.37181e-07 -8.25804e-05
0.0012991 -2.8457e-05 -2.51611e-06
-2.8457e-05 0.000645237 3.68355e-06
-2.51611e-06 3.68355e-06 0.000424898
-0.000100498 7.8073e-05 3.25492e-06
7.8073e-05 -0.000273673 2.28712e-06
3.25492e-06 2.28712e-06 -0.000439652
-0.00125063 5.09117e-05 2.44808e-06
5.09117e-05 -0.00070731 1.11476e-06
2.44808e-06 1.11476e-06 -0.000973995
0.000511746 -2.01692e-05 1.32522e-06
-2.01692e-05 0.000131677 5.15958e-07
1.32522e-06 5.15958e-07 -7.2485e-05
0.000474128 5.73323e-05 7.69705e-07
5.73323e-05 0.000197672 -2.3177e-06
7.69705e-07 -2.3177e-06 -1.81803e-05
8.68449e-05 5.01062e-05 2.83811e-06
5.01062e-05 0.000323981 2.93242e-06
2.83811e-06 2.93242e-06 -0.000112102
-0.000681412 5.02001e-05 -2.61956e-06
5.02001e-05 1.96819e-05 1.25542e-05
-2.61956e-06 1.25542e-05 -0.00050926
0.000621344 1.53333e-05 -2.41557e-06
1.53333e-05 0.00061968 -5.80002e-06
-2.41557e-06 -5.80002e-06 0.000206335
0.00149268 3.42603e-05 -2.07274e-06
3.42603e-05 0.000816641 -2.96937e-07
-2.07274e-06 -2.96937e-07 0.000608703
0.000858535 -0.000170435 3.89739e-06
-0.000170435 0.000352342 2.02951e-06
3.89739e-06 2.02951e-06 0.000153839
0.000182156 -6.85901e-05 1.58833e-06
-6.85901e-05 -0.000170626 6.46476e-06
1.58833e-06 6.46476e-06 -0.000292062
7.85464e-05 -9.03136e-05 7.4079e-06
-9.03136e-05 -0.000155944 1.73043e-05
7.4079e-06 1.73043e-05 -0.000256729
0.000214088 -3.46967e-05 1.73054e-06
-3.46967e-05 8.95927e-06 1.79826e-06
1.73054e-06 1.79826e-06 -0.000174018
0.000509547 -4.49617e-05 -2.31366e-07
-4.49617e-05 0.000120057 1.34984e-06
-2.31366e-07 1.34984e-06 -4.02951e-05
0.00017034 -5.49288e-05 -1.67692e-06
-5.49288e-05 -6.08325e-05 -1.77931e-06
-1.67692e-06 -1.77931e-06 -0.000193113
0.000313922 -7.40961e-05 -6.90031e-06
-7.40961e-05 1.24297e-05 -4.72033e-06
-6.90031e-06 -4.72033e-06 -0.000128516
0.000687153 -9.5076e-05 8.74143e-06
-9.5076e-05 0.00043997 -8.24901e-06
8.74143e-06 -8.24901e-06 0.000260174
0.00169172 -0.000300036 3.04536e-06
-0.000300036 0.000654299 5.83522e-06
3.04536e-06 5.83522e-06 0.000556284
0.000559235 -0.000134172 -1.6432e-05
-0.000134172 5.84429e-05 -4.58157e-07
-1.6432e-05 -4.58157e-07 -5.80422e-05
0.000599203 -0.000252737 7.31679e-06
-0.000252737 3.78112e-05 6.58543e-06
7.31679e-06 6.58543e-06 -0.000143693
0.00239528 -0.000643264 -4.37718e-06
-0.000643264 0.00106148 2.21944e-05
-4.37718e-06 2.21944e-05 0.000683848
0.00193552 -0.000276592 5.2268e-06
-0.000276592 0.000895702 -1.00056e-05
5.2268e-06 -1.00056e-05 0.0006874
0.00071505 -0.000238681 -5.69735e-06
-0.000238681 0.000105911 -6.65684e-06
-5.69735e-06 -6.65684e-06 -5.51823e-05
0.000504042 -9.39787e-05 -3.8177e-07
-9.39787e-05 0.000113274 -1.05624e-06
-3.8177e-07 -1.05624e-06 -8.28644e-05
-0.000453938 -4.72142e-05 -4.21511e-07
-4.72142e-05 -0.000446623 -1.25833e-06
-4.21511e-07 -1.25833e-06 -0.000689366
0.00118408 -4.93434e-05 1.55001e-06
-4.93434e-05 0.000559179 1.22654e-06
1.55001e-06 1.22654e-06 0.000364465
0.00070386 -0.000147378 5.61761e-07
-0.000147378 0.000250051 -2.61413e-07
5.61761e-07 -2.61413e-07 4.44935e-05
0.000337614 -6.39918e-05 6.05587e-07
-6.39918e-05 -5.98608e-05 9.17887e-07
6.05587e-07 9.17887e-07 -0.000195975
0.00150065 -0.000226084 -3.1307e-06
-0.000226084 0.000764365 -4.02003e-08
-3.1307e-06 -4.02003e-08 0.000569583
0.000703519 -0.000123532 -5.41817e-07
-0.000123532 0.000188608 1.46909e-08
-5.41817e-07 1.46909e-08 4.91656e-05
0.000515088 -1.70202e-06 -1.6066e-06
-1.70202e-06 4.02332e-05 3.58274e-06
-1.6066e-06 3.58274e-06 -4.83524e-05
0.00072978 -0.000139158 7.95827e-07
-0.000139158 0.000219261 -2.35281e-06
7.95827e-07 -2.35281e-06 7.65908e-05
0.000583919 -6.31478e-05 -7.01019e-08
-6.31478e-05 8.89643e-05 1.11109e-07
-7.01019e-08 1.11109e-07 4.57585e-07
0.00145095 8.53723e-06 -1.33458e-05
8.53723e-06 0.000607914 8.01217e-06
-1.33458e-05 8.01217e-06 0.000583007
0.000535279 -7.35938e-05 1.6741e-06
-7.35938e-05 6.73246e-05 -4.94846e-06
1.6741e-06 -4.94846e-06 -2.16812e-05
0.000855443 -1.6644e-05 -9.86802e-06
-1.6644e-05 0.000236439 7.64651e-07
-9.86802e-06 7.64651e-07 0.000210221
0.00080421 2.05689e-05 1.25447e-06
2.05689e-05 0.000188519 3.02531e-06
1.25447e-06 3.02531e-06 0.000189497
0.000419197 -3.78922e-05 3.02459e-06
-3.78922e-05 -3.52958e-05 -5.23414e-06
3.02459e-06 -5.23414e-06 -6.24717e-05
0.001664 1.92362e-05 1.25131e-05
1.92362e-05 0.000740443 -1.54e-06
1.25131e-05 -1.54e-06 0.000748452
0.00252123 9.23766e-06 1.42724e-05
9.23766e-06 0.00128686 -5.18856e-06
1.42724e-05 -5.18856e-06 0.00129947
0.000476201 5.99969e-05 1.82389e-06
5.99969e-05 3.23733e-05 -8.48511e-07
1.82389e-06 -8.48511e-07 -7.54835e-05
0.000585198 6.86135e-05 -9.79951e-07
6.86135e-05 8.59195e-05 -2.30729e-06
-9.79951e-07 -2.30729e-06 2.59249e-05
0.000571253 6.42742e-06 6.63854e-07
6.42742e-06 0.000108804 8.62003e-07
6.63854e-07 8.62003e-07 1.87722e-06
0.000450123 6.54148e-06 2.19562e-06
6.54148e-06 -3.61202e-05 -3.84569e-06
2.19562e-06 -3.84569e-06 -4.72404e-05
0.000479474 5.80054e-05 -2.05341e-08
5.80054e-05 1.97765e-05 -1.8991e-07
-2.05341e-08 -1.8991e-07 -3.38068e-05
0.000486362 -0.00011544 -3.15382e-06
-0.00011544 5.66522e-05 1.06529e-06
-3.15382e-06 1.06529e-06 -4.39706e-05
0.0020165 1.09301e-05 -7.73047e-06
1.09301e-05 0.000960932 -4.92407e-06
-7.73047e-06 -4.92407e-06 0.000978269
0.000439494 6.82333e-06 -2.62776e-07
6.82333e-06 -4.30418e-05 3.03423e-08
-2.62776e-07 3.03423e-08 -5.34957e-05
0.00049003 -4.82129e-06 -1.59978e-06
-4.82129e-06 2.02633e-05 2.25451e-06
-1.59978e-06 2.25451e-06 -2.60645e-05
0.000453867 4.82593e-06 -2.02765e-06
4.82593e-06 -3.50329e-05 3.38215e-06
-2.02765e-06 3.38215e-06 -4.62253e-05
0.00204996 2.65732e-05 -5.60669e-06
2.65732e-05 0.000984826 -1.2146e-07
-5.60669e-06 -1.2146e-07 0.00100078
0.00202174 4.09051e-05 -3.61421e-06
4.09051e-05 0.000969887 4.81122e-06
-3.61421e-06 4.81122e-06 0.000984423
-0.00577293 -0.0020277 -0.000232749
-0.0020277 0.00664739 6.22969e-05
-0.000232749 6.22969e-05 0.00210202
0.00298953 0.00181367 -0.000318866
0.00181367 0.00125483 0.000103574
-0.000318866 0.000103574 -0.00150297
0.002926 -0.00109871 -0.000658582
-0.00109871 0.00130771 0.000282237
-0.000658582 0.000282237 -0.00350145
0.0015242 0.00134508 0.00127102
0.00134508 0.00739845 -0.000334109
0.00127102 -0.000334109 0.00234996
0.00377588 0.000732616 -5.67948e-05
0.000732616 -0.000756598 1.30043e-05
-5.67948e-05 1.30043e-05 0.000380999
0.00326264 -0.000566751 9.90126e-05
-0.000566751 -0.000177781 1.26765e-05
9.90126e-05 1.26765e-05 4.07347e-05
0.00113904 -0.00040279 0.000342058
-0.00040279 -0.00583045 -5.08009e-05
0.000342058 -5.08009e-05 -0.00703739
0.0254673 0.00389046 -0.0011258
0.00389046 0.0112916 7.80004e-05
-0.0011258 7.80004e-05 0.00743429
0.0100048 0.0108859 -0.00266241
0.0108859 0.00747433 0.00164365
-0.00266241 0.00164365 0.00259748
0.00515114 -0.000823464 3.98428e-05
-0.000823464 -0.000644553 6.13142e-06
3.98428e-05 6.13142e-06 0.000378434
0.0083591 -0.00289739 0.00020217
-0.00289739 -0.00287781 -0.000162971
0.00020217 -0.000162971 -0.00484416
0.0216371 0.00642734 -0.000384041
0.00642734 0.00744023 -0.000125767
-0.000384041 -0.000125767 0.00232251
0.0172713 0.00497006 6.30974e-05
0.00497006 0.00458386 0.00044317
6.30974e-05 0.00044317 0.00140302
0.00167473 -0.00207469 -0.000120459
-0.00207469 -0.00371164 4.18433e-05
-0.000120459 4.18433e-05 -0.0020526
0.00663089 -0.00454936 0.000532374
-0.00454936 -0.000263132 -0.000241829
0.000532374 -0.000241829 -0.00379975
0.0107002 0.00375915 4.70833e-05
0.00375915 0.00297546 -0.000926688
4.70833e-05 -0.000926688 -0.00226739
0.00922577 0.000421523 -0.000348716
0.000421523 -0.00170204 3.20655e-05
-0.000348716 3.20655e-05 -0.00132041
0.00245557 -7.55279e-05 1.09614e-06
-7.55279e-05 0.00143173 1.7948e-05
1.09614e-06 1.7948e-05 0.00115174
0.000277305 9.22242e-05 -1.62489e-06
9.22242e-05 -2.85904e-05 -2.26811e-06
-1.62489e-06 -2.26811e-06 -0.000175913
0.000525734 0.000108015 2.81834e-06
0.000108015 7.95067e-05 -7.79843e-07
2.81834e-06 -7.79843e-07 -2.47239e-05
4.88962e-05 -2.19899e-05 5.1973e-06
-2.19899e-05 -0.000166381 -3.92577e-06
5.1973e-06 -3.92577e-06 -0.000264275
0.000439001 0.00011533 4.30089e-06
0.00011533 3.40993e-05 7.19489e-06
4.30089e-06 7.19489e-06 -0.00015301
0.000461522 5.46299e-05 -1.09876e-07
5.46299e-05 6.8783e-05 1.78213e-06
-1.09876e-07 1.78213e-06 -9.05726e-05
0.000157419 2.49424e-05 1.47637e-06
2.49424e-05 -0.000124684 -3.53706e-06
1.47637e-06 -3.53706e-06 -0.000257402
0.00089993 0.000185757 6.25125e-06
0.000185757 0.000345781 9.65561e-06
6.25125e-06 9.65561e-06 0.000163502
0.000917903 0.00014397 -2.87749e-07
0.00014397 0.000368751 -5.5474e-07
-2.87749e-07 -5.5474e-07 0.000188285
0.000331229 -7.48986e-06 -3.90633e-06
-7.48986e-06 -2.46999e-05 -6.65572e-06
-3.90633e-06 -6.65572e-06 -0.00016283
0.000444679 -0.00053737 9.37504e-05
-0.00053737 -0.00143175 -5.30126e-05
9.37504e-05 -5.30126e-05 -0.00101308
0.000132437 -0.000688979 6.45568e-06
-0.000688979 -0.000971259 -6.83268e-06
6.45568e-06 -6.83268e-06 -0.000958779
0.00131606 -0.000975628 -1.39511e-05
-0.000975628 -0.000278301 2.27786e-05
-1.39511e-05 2.27786e-05 -0.00036816
-0.0012095 -0.000758534 3.69648e-06
-0.000758534 -0.00104443 -1.30265e-07
3.69648e-06 -1.30265e-07 -0.00137226
0.00352392 -0.000509571 -3.38688e-05
-0.000509571 0.0022266 7.61901e-05
-3.38688e-05 7.61901e-05 0.00167226
0.000878289 -0.000226981 -2.99352e-06
-0.000226981 0.000556321 7.10453e-06
-2.99352e-06 7.10453e-06 0.000224259
0.000396425 0.000120717 -2.47846e-06
0.000120717 0.000130504 -1.66956e-05
-2.47846e-06 -1.66956e-05 -0.000118079
0.000711441 -4.26822e-05 -3.53401e-06
-4.26822e-05 0.000327442 8.87664e-06
-3.53401e-06 8.87664e-06 4.41955e-05
0.00208775 -0.000973225 -1.58462e-05
-0.000973225 -0.000132793 -2.25319e-06
-1.58462e-05 -2.25319e-06 -0.000159868
0.000775979 -4.04733e-05 1.58758e-06
-4.04733e-05 0.000414873 4.63901e-06
1.58758e-06 4.63901e-06 0.000127983
0.00231905 -0.000342823 3.24919e-06
-0.000342823 0.00142927 -2.66928e-06
3.24919e-06 -2.66928e-06 0.00101315
0.00143252 -0.000842015 1.1398e-05
-0.000842015 1.1685e-05 4.51683e-07
1.1398e-05 4.51683e-07 -2.69235e-05
0.000526695 -0.000699422 -3.54426e-05
-0.000699422 0.000285348 9.70738e-06
-3.54426e-05 9.70738e-06 -0.000106796
0.00208864 -0.00167105 6.54745e-05
-0.00167105 1.63713e-05 -2.60981e-05
6.54745e-05 -2.60981e-05 -0.000184673
-6.7186e-05 -0.000579652 -5.11345e-06
-0.000579652 -0.000230803 2.33435e-05
-5.11345e-06 2.33435e-05 -0.000341669
-0.00156317 -0.000113902 1.59872e-05
-0.000113902 -0.000652184 -1.6737e-06
1.59872e-05 -1.6737e-06 -0.00114233
0.000514289 5.26464e-05 -4.17032e-06
5.26464e-05 0.000195911 5.91337e-06
-4.17032e-06 5.91337e-06 -1.6921e-05
0.000331685 -4.68946e-05 3.13548e-06
-4.68946e-05 0.000267392 -3.63711e-06
3.13548e-06 -3.63711e-06 -7.60472e-05
0.00138386 0.000192641 -6.37335e-05
0.000192641 0.00203553 -2.44663e-05
-6.37335e-05 -2.44663e-05 -0.00241104
-0.00723156 0.000457871 -0.000447589
0.000457871 0.00698978 -2.17527e-05
-0.000447589 -2.17527e-05 0.00138649
-0.0137312 -0.00304257 -0.000870647
-0.00304257 -0.00490626 -6.05622e-06
-0.000870647 -6.05622e-06 -0.00635905
-0.000273358 0.000275813 1.35522e-05
0.000275813 -0.000245414 -3.8389e-06
1.35522e-05 -3.8389e-06 -0.000518167
-0.000940744 0.000557801 -2.0479e-06
0.000557801 -0.000616413 1.03338e-05
-2.0479e-06 1.03338e-05 -0.00107655
0.00263699 0.00116581 4.10402e-05
0.00116581 0.000748623 3.49941e-05
4.10402e-05 3.49941e-05 0.0005346
-0.00520954 0.00224828 0.000109948
0.00224828 0.00724638 6.27452e-05
0.000109948 6.27452e-05 0.00217067
0.00673787 0.00449425 -0.000391225
0.00449425 -0.00028885 -0.000194111
-0.000391225 -0.000194111 -0.00346711
0.000845093 0.00235703 0.000456733
0.00235703 -8.49507e-05 0.000176698
0.000456733 0.000176698 -0.00011767
-0.000271556 0.00102744 3.19149e-06
0.00102744 -9.16299e-05 -4.93099e-05
3.19149e-06 -4.93099e-05 -0.000398596
0.0291631 -0.00410598 -0.000146977
-0.00410598 0.0099412 -0.00043232
-0.000146977 -0.00043232 0.0054822
0.00704261 0.00206053 0.000678939
0.00206053 0.00348775 0.00024259
0.000678939 0.00024259 -0.0026639
0.0139592 -0.0016244 0.000182235
-0.0016244 0.00250914 5.31858e-05
0.000182235 5.31858e-05 0.0038079
0.00139615 0.000631193 5.83745e-06
0.000631193 0.000733208 -1.48763e-06
5.83745e-06 -1.48763e-06 0.000388985
0.00385444 0.000790458 -2.50794e-05
0.000790458 0.00355441 1.02712e-05
-2.50794e-05 1.02712e-05 -0.000574756
0.00190651 0.000954642 8.60741e-05
0.000954642 0.000228485 -4.97039e-06
8.60741e-05 -4.97039e-06 -0.00149808
-0.000445614 0.000566242 -2.29099e-06
0.000566242 -8.90402e-05 -5.46063e-06
-2.29099e-06 -5.46063e-06 -0.000464336
-0.000240451 0.00150689 -0.000130471
0.00150689 0.000678169 -6.87157e-05
-0.000130471 -6.87157e-05 -0.000628692
0.00221581 0.00554847 0.000266979
0.00554847 0.00114018 0.000123272
0.000266979 0.000123272 -0.00331766
0.010583 -0.000260909 5.59715e-06
-0.000260909 -0.00346755 -0.000225474
5.59715e-06 -0.000225474 -0.00078889
0.00717386 -0.00270899 -8.93164e-05
-0.00270899 0.00414099 -0.000185209
-8.93164e-05 -0.000185209 -0.00141617
0.000991258 0.000500542 -7.30937e-06
0.000500542 0.000826452 -1.4842e-05
-7.30937e-06 -1.4842e-05 0.00042448
-0.00351651 0.000376084 2.29757e-05
0.000376084 0.000277345 3.9605e-05
2.29757e-05 3.9605e-05 -0.000536216
0.00586267 -0.000401291 0.000159644
-0.000401291 -0.000124037 -0.000155045
0.000159644 -0.000155045 -0.00155866
0.00897985 0.000546825 0.000321418
0.000546825 -0.00159507 -1.73899e-05
0.000321418 -1.73899e-05 -0.00114496
-0.00280057 0.000186268 5.1252e-05
0.000186268 -5.55918e-05 -2.2774e-05
5.1252e-05 -2.2774e-05 -0.000951617
0.012211 0.00385538 0.000375536
0.00385538 0.00626126 0.000109051
0.000375536 0.000109051 0.00050086
0.0039631 -0.000695956 -5.38155e-06
-0.000695956 0.00314688 0.00041398
-5.38155e-06 0.00041398 -0.000872135
0.00315933 0.000499994 2.6947e-05
0.000499994 0.00194899 1.19701e-05
2.6947e-05 1.19701e-05 0.00165839
0.000379103 0.000246443 -7.44176e-06
0.000246443 0.000445968 -1.94493e-06
-7.44176e-06 -1.94493e-06 5.79885e-05
0.000231959 0.00022258 3.90907e-06
0.00022258 0.000524316 -4.8414e-06
3.90907e-06 -4.8414e-06 2.43128e-05
0.000312004 0.000127919 1.54937e-06
0.000127919 1.46324e-05 -3.03948e-06
1.54937e-06 -3.03948e-06 -0.00019255
0.00061877 0.000109016 1.0175e-06
0.000109016 0.000264416 7.44279e-07
1.0175e-06 7.44279e-07 6.68407e-05
0.000115607 -2.39405e-06 7.00963e-06
-2.39405e-06 0.0003653 -3.85592e-06
7.00963e-06 -3.85592e-06 -8.14065e-05
0.000508745 3.75684e-05 2.59401e-07
3.75684e-05 0.000182373 -7.86968e-07
2.59401e-07 -7.86968e-07 -5.65146e-06
0.000825638 -4.04746e-05 -4.16465e-07
-4.04746e-05 0.000760015 -2.62502e-06
-4.16465e-07 -2.62502e-06 0.000338681
-8.57355e-05 2.68297e-05 2.37416e-07
2.68297e-05 0.000376143 -2.27986e-07
2.37416e-07 -2.27986e-07 -0.000144582
-4.09454e-05 -3.70638e-05 -9.18196e-07
-3.70638e-05 0.00036796 1.4081e-05
-9.18196e-07 1.4081e-05 -8.59395e-05
0.000347685 -3.2575e-05 -1.1235e-06
-3.2575e-05 0.000408 -8.95574e-06
-1.1235e-06 -8.95574e-06 7.89384e-05
8.33833e-06 -5.89238e-05 5.48744e-06
-5.89238e-05 -0.000150604 9.18912e-06
5.48744e-06 9.18912e-06 -0.000308112
0.00121649 -4.50066e-05 7.17968e-07
-4.50066e-05 0.000546665 4.42418e-06
7.17968e-07 4.42418e-06 0.000389307
0.00108599 -7.67205e-05 -1.467e-05
-7.67205e-05 0.000510907 1.28805e-05
-1.467e-05 1.28805e-05 0.000375679
0.000730214 -9.47836e-05 4.45609e-06
-9.47836e-05 0.00044549 -2.9019e-07
4.45609e-06 -2.9019e-07 0.000275121
0.000300912 -5.02786e-05 -1.20583e-06
-5.02786e-05 9.20958e-06 -1.61989e-06
-1.20583e-06 -1.61989e-06 -0.000129735
0.000742335 -0.000234058 -4.27496e-07
-0.000234058 0.000265355 4.74495e-06
-4.27496e-07 4.74495e-06 0.000124273
0.000382119 -0.000191008 -1.66361e-05
-0.000191008 -3.07444e-05 -3.92444e-07
-1.66361e-05 -3.92444e-07 -8.49273e-05
-0.000982359 -0.000288679 1.22284e-05
-0.000288679 -0.000811733 2.39356e-05
1.22284e-05 2.39356e-05 -0.00112131
0.000120437 -0.000141409 4.46264e-06
-0.000141409 -0.000189246 -8.05006e-07
4.46264e-06 -8.05006e-07 -0.000306249
0.00115896 -0.000318237 -4.96846e-06
-0.000318237 0.000366225 1.14488e-05
-4.96846e-06 1.14488e-05 0.000164589
0.00225744 -0.000656799 -7.06725e-06
-0.000656799 0.000969707 1.44205e-05
-7.06725e-06 1.44205e-05 0.000560489
0.00183455 -0.00062789 -7.22195e-06
-0.00062789 0.000614259 -4.53133e-07
-7.22195e-06 -4.53133e-07 0.000182852
0.00170171 -0.000423614 5.47057e-07
-0.000423614 0.000703373 1.43755e-06
5.47057e-07 1.43755e-06 0.000437751
0.000561036 -0.000401301 9.35482e-06
-0.000401301 -7.17447e-05 -4.17318e-06
9.35482e-06 -4.17318e-06 -0.000380609
0.00121431 -0.000194011 2.46494e-06
-0.000194011 0.000561837 -3.16791e-06
2.46494e-06 -3.16791e-06 0.000276877
0.00112868 -0.000235498 -8.42371e-06
-0.000235498 0.00044176 1.96723e-06
-8.42371e-06 1.96723e-06 0.000221715
-0.000238745 -0.000143087 1.87511e-05
-0.000143087 -0.000466945 -1.70998e-05
1.87511e-05 -1.70998e-05 -0.000580813
0.00127505 -0.00012661 -2.31309e-06
-0.00012661 0.000564861 1.7047e-06
-2.31309e-06 1.7047e-06 0.000368008
0.000216891 -9.66104e-05 8.17214e-07
-9.66104e-05 -3.94212e-05 2.80342e-07
8.17214e-07 2.80342e-07 -0.000279282
0.000213602 -5.45077e-05 1.05868e-06
-5.45077e-05 -0.000125469 5.18142e-07
1.05868e-06 5.18142e-07 -0.000290059
0.00173978 -0.000271185 -2.33799e-06
-0.000271185 0.000901115 -4.68868e-07
-2.33799e-06 -4.68868e-07 0.000680357
0.000675284 -0.000112041 -3.60908e-07
-0.000112041 0.000171235 -1.32788e-08
-3.60908e-07 -1.32788e-08 1.86391e-05
0.000379725 5.12714e-06 2.54274e-06
5.12714e-06 -3.19671e-05 4.31084e-06
2.54274e-06 4.31084e-06 -0.00013678
0.000817883 -0.000154059 -7.98746e-08
-0.000154059 0.000273252 -2.07703e-06
-7.98746e-08 -2.07703e-06 0.000122109
0.000460798 4.64747e-06 -2.21966e-06
4.64747e-06 1.80516e-05 -1.83984e-07
-2.21966e-06 -1.83984e-07 -7.915e-05
0.00145085 -1.07318e-07 -1.9476e-05
-1.07318e-07 0.00060794 5.62359e-06
-1.9476e-05 5.62359e-06 0.000581132
0.000584706 -7.24705e-05 2.24878e-06
-7.24705e-05 9.56972e-05 -4.85253e-06
2.24878e-06 -4.85253e-06 3.72955e-06
0.000870577 -1.27277e-05 -9.52551e-06
-1.27277e-05 0.000240528 5.51432e-07
-9.52551e-06 5.51432e-07 0.000212758
0.000839768 3.08254e-05 4.94289e-07
3.08254e-05 0.000208375 3.25141e-06
4.94289e-07 3.25141e-06 0.000206798
0.000442881 -3.1049e-05 3.17717e-06
-3.1049e-05 -2.75115e-05 -6.35755e-06
3.17717e-06 -6.35755e-06 -5.6487e-05
0.00174405 3.1541e-05 1.55988e-05
3.1541e-05 0.00078853 -1.26433e-06
1.55988e-05 -1.26433e-06 0.000795024
0.00254792 2.28464e-05 1.94313e-05
2.28464e-05 0.00130094 -5.5342e-06
1.94313e-05 -5.5342e-06 0.00131332
0.00029213 2.16146e-05 2.19257e-06
2.16146e-05 -6.64882e-05 2.51915e-06
2.19257e-06 2.51915e-06 -0.000205233
0.000119696 2.20233e-05 3.8309e-07
2.20233e-05 -0.00021385 -3.98201e-06
3.8309e-07 -3.98201e-06 -0.000281227
0.000608187 5.85577e-05 9.67697e-08
5.85577e-05 0.000127742 2.81807e-07
9.67697e-08 2.81807e-07 8.9198e-06
0.000452376 6.94062e-06 1.97863e-06
6.94062e-06 -3.67705e-05 -4.0599e-06
1.97863e-06 -4.0599e-06 -4.95429e-05
0.000313354 8.08742e-06 1.69768e-06
8.08742e-06 -9.32178e-05 5.3775e-08
1.69768e-06 5.3775e-08 -0.000150146
0.00022038 -9.54474e-05 -1.14672e-06
-9.54474e-05 -0.000115674 -3.62615e-07
-1.14672e-06 -3.62615e-07 -0.000221959
0.00206945 -3.20628e-06 -1.2424e-05
-3.20628e-06 0.000993559 -4.96836e-06
-1.2424e-05 -4.96836e-06 0.00101096
0.000446187 5.21264e-06 2.53698e-08
5.21264e-06 -3.94279e-05 -6.69495e-08
2.53698e-08 -6.69495e-08 -5.02566e-05
0.000418357 -1.3797e-05 -3.29901e-06
-1.3797e-05 -2.44633e-05 2.56985e-06
-3.29901e-06 2.56985e-06 -7.44301e-05
0.00204013 1.2323e-05 -4.81896e-06
1.2323e-05 0.000976447 5.04551e-09
-4.81896e-06 5.04551e-09 0.000993501
0.000441175 5.93321e-06 -1.83719e-06
5.93321e-06 -4.13557e-05 3.35802e-06
-1.83719e-06 3.35802e-06 -5.1895e-05
0.00201925 2.7607e-05 2.56699e-06
2.7607e-05 0.000965306 4.97799e-06
2.56699e-06 4.97799e-06 0.000981234
-0.000510747 -0.00100118 -0.000280676
-0.00100118 -0.000124092 0.000114353
-0.000280676 0.000114353 -0.00371398
0.00236643 0.000921246 -0.000145729
0.000921246 0.00856421 3.38353e-05
-0.000145729 3.38353e-05 0.00368147
0.00296581 0.000168187 -0.00105883
0.000168187 0.00416429 0.000236443
-0.00105883 0.000236443 0.00213299
0.000703683 0.000125697 7.63694e-06
0.000125697 0.000192571 7.09307e-06
7.63694e-06 7.09307e-06 2.9534e-05
0.0055617 -0.00109881 -0.000131382
-0.00109881 0.00344068 0.000274743
-0.000131382 0.000274743 0.00108465
0.00425175 -0.0014221 -0.000299901
-0.0014221 0.00185888 3.06506e-05
-0.000299901 3.06506e-05 -0.00297966
0.0137702 0.00451539 0.000335522
0.00451539 0.00891485 -0.000396537
0.000335522 -0.000396537 0.00367455
0.00766171 -0.00129535 0.000140386
-0.00129535 0.000591376 -2.14943e-05
0.000140386 -2.14943e-05 0.00114553
0.013366 -0.00273665 0.000290008
-0.00273665 0.000865257 -0.00017008
0.000290008 -0.00017008 0.000151674
0.0126076 0.00522195 -0.000811697
0.00522195 0.00224558 0.000445049
-0.000811697 0.000445049 -0.00251331
0.0148033 0.00458608 0.000161421
0.00458608 0.00637491 0.000253439
0.000161421 0.000253439 0.00322942
0.0078181 -0.00268386 -0.00011421
-0.00268386 -3.09286e-05 -3.67403e-06
-0.00011421 -3.67403e-06 0.000755762
0.0164974 -0.00502343 1.9065e-05
-0.00502343 0.00325689 -3.85546e-05
1.9065e-05 -3.85546e-05 0.000750543
0.00958875 0.00299667 0.000133933
0.00299667 0.00433429 -0.000391382
0.000133933 -0.000391382 -0.000935603
0.0133143 0.00128196 4.4417e-06
0.00128196 0.000252865 4.75505e-05
4.4417e-06 4.75505e-05 -9.25069e-05
0.00286 -0.00271947 -6.92147e-05
-0.00271947 7.17128e-05 8.61237e-05
-6.92147e-05 8.61237e-05 0.000372979
0.0102077 -0.00504718 0.000212117
-0.00504718 0.00432224 -0.000115429
0.000212117 -0.000115429 9.25077e-05
0.0103125 -0.000329377 0.000116096
-0.000329377 0.00548201 -0.000478487
0.000116096 -0.000478487 0.00196432
0.0129138 7.82317e-05 -0.000168536
7.82317e-05 -0.00118826 0.000288939
-0.000168536 0.000288939 0.000669559
0.000389878 9.15528e-05 6.87768e-06
9.15528e-05 0.000101172 1.47196e-05
6.87768e-06 1.47196e-05 -0.000113074
0.000615565 -0.00012498 6.05773e-07
-0.00012498 0.000258925 2.71018e-08
6.05773e-07 2.71018e-08 1.06805e-05
0.000765267 0.000109436 2.49078e-06
0.000109436 0.000294593 -4.89873e-06
2.49078e-06 -4.89873e-06 0.00013699
0.000517481 0.000150904 4.77406e-06
0.000150904 4.79932e-05 1.45663e-05
4.77406e-06 1.45663e-05 -9.79029e-05
0.000850388 0.000208568 2.60775e-07
0.000208568 0.000326953 2.55204e-07
2.60775e-07 2.55204e-07 0.000124365
0.00108508 0.000120723 -4.55903e-06
0.000120723 0.000483952 -5.31064e-06
-4.55903e-06 -5.31064e-06 0.000315255
0.00107061 0.00018384 -1.60392e-06
0.00018384 0.000458857 3.80013e-08
-1.60392e-06 3.80013e-08 0.000272108
0.00106836 0.000195659 1.04698e-06
0.000195659 0.000482804 1.54519e-06
1.04698e-06 1.54519e-06 0.000291188
0.000734342 -0.000745461 0.000130116
-0.000745461 -0.000955816 -7.66843e-05
0.000130116 -7.66843e-05 -0.000737959
2.73007e-05 -0.000717627 -3.53761e-05
-0.000717627 -0.000842991 -9.48557e-07
-3.53761e-05 -9.48557e-07 -0.000784996
0.000833111 -0.000216079 4.64827e-06
-0.000216079 0.000418431 -3.18743e-05
4.64827e-06 -3.18743e-05 0.000119949
0.00184676 -0.000754126 2.333e-05
-0.000754126 0.000977582 -2.00871e-05
2.333e-05 -2.00871e-05 0.000620232
0.00248859 -0.000511026 -2.28064e-05
-0.000511026 0.00146995 2.35777e-05
-2.28064e-05 2.35777e-05 0.00105799
0.00162532 -0.000166558 6.43834e-06
-0.000166558 0.000931979 -2.232e-05
6.43834e-06 -2.232e-05 0.000625611
3.97715e-05 2.73651e-06 3.84192e-06
2.73651e-06 -0.000109219 7.27004e-06
3.84192e-06 7.27004e-06 -0.000318144
0.000762286 -0.00143115 -8.48477e-06
-0.00143115 -0.000543463 -5.89282e-06
-8.48477e-06 -5.89282e-06 -0.000719432
0.00141109 -2.08266e-05 -1.02546e-06
-2.08266e-05 0.000929443 -1.10813e-07
-1.02546e-06 -1.10813e-07 0.000579611
-3.11027e-05 -0.000242954 -6.69699e-06
-0.000242954 0.000164186 6.87602e-06
-6.69699e-06 6.87602e-06 -0.000289611
-0.000571098 -0.00045296 2.43498e-05
-0.00045296 -0.000587139 -1.01842e-06
2.43498e-05 -1.01842e-06 -0.000568116
0.000790355 0.000117954 2.91275e-06
0.000117954 0.000367142 8.79014e-06
2.91275e-06 8.79014e-06 0.000176182
3.45044e-05 -0.00138538 -7.88951e-05
-0.00138538 -0.000157743 -2.71416e-05
-7.88951e-05 -2.71416e-05 -0.000575536
-0.00110086 -0.000466743 -1.83003e-05
-0.000466743 -0.00048658 2.54104e-05
-1.83003e-05 2.54104e-05 -0.000839197
0.000176855 0.000158776 1.2267e-05
0.000158776 0.000478428 -2.24585e-05
1.2267e-05 -2.24585e-05 -4.91846e-05
0.00161311 0.000265664 -1.20446e-06
0.000265664 0.00111605 -1.93568e-08
-1.20446e-06 -1.93568e-08 0.000766385
-0.00118784 0.000120419 0.000155946
0.000120419 0.00200633 3.53519e-05
0.000155946 3.53519e-05 0.000796325
0.00027423 -4.40505e-07 0.000178137
-4.40505e-07 0.00126825 -3.59733e-05
0.000178137 -3.59733e-05 -0.00326226
-0.0125923 -0.000414398 -0.000323409
-0.000414398 0.00648061 2.86607e-05
-0.000323409 2.86607e-05 0.000644503
0.00175352 0.000648794 2.09202e-05
0.000648794 0.00103312 3.18606e-06
2.09202e-05 3.18606e-06 0.000684116
-0.000559956 0.000795765 1.41346e-05
0.000795765 -0.00018194 1.05344e-05
1.41346e-05 1.05344e-05 -0.000686283
0.00573295 0.00107031 0.000390243
0.00107031 0.00409566 8.4213e-05
0.000390243 8.4213e-05 0.0011687
0.00805444 0.00428212 0.000254275
0.00428212 0.00301091 0.000212273
0.000254275 0.000212273 -0.00111343
0.00419798 0.00286965 -0.000127991
0.00286965 0.00237759 -0.00011852
-0.000127991 -0.00011852 0.000880412
0.00415353 -0.0023745 -0.000163899
-0.0023745 0.00461859 -0.000479213
-0.000163899 -0.000479213 0.000268449
0.00302223 0.00075059 0.000142876
0.00075059 0.00050682 0.000188363
0.000142876 0.000188363 -0.00120911
0.00842029 -0.000360026 -4.97254e-05
-0.000360026 -0.00548061 -0.000250757
-4.97254e-05 -0.000250757 -0.00239569
0.000993593 0.000588412 4.35891e-06
0.000588412 0.000776799 8.10561e-07
4.35891e-06 8.10561e-07 0.00033711
-0.00285978 0.00018676 -2.65875e-06
0.00018676 0.000390199 4.58583e-06
-2.65875e-06 4.58583e-06 -0.000576979
0.00501902 -0.000229251 0.00013646
-0.000229251 -0.000188952 2.01099e-05
0.00013646 2.01099e-05 -0.0010346
-0.00188332 0.000513049 -1.70695e-05
0.000513049 -0.000198473 -1.1949e-05
-1.70695e-05 -1.1949e-05 -0.00100683
0.0131233 0.00147812 3.48769e-08
0.00147812 0.000233614 -5.27048e-05
3.48769e-08 -5.27048e-05 -0.000104744
0.00312614 0.00221085 0.000262233
0.00221085 0.00433152 0.000156315
0.000262233 0.000156315 -0.00164819
0.00849838 0.000736978 -0.000192375
0.000736978 0.00353287 5.83922e-06
-0.000192375 5.83922e-06 -0.000554522
0.000270976 0.000496856 8.36029e-06
0.000496856 0.000553962 -2.20859e-05
8.36029e-06 -2.20859e-05 -3.48559e-05
0.00184982 -2.87007e-05 6.43714e-07
-2.87007e-05 0.000640437 -8.00607e-06
6.43714e-07 -8.00607e-06 -0.000105077
0.00405734 -0.0015118 0.000121397
-0.0015118 0.00343247 -0.000262063
0.000121397 -0.000262063 0.00139305
0.0229966 0.00553164 0.000336257
0.00553164 0.00755439 -0.000308048
0.000336257 -0.000308048 0.00442403
0.00990094 -0.000283778 -0.000136937
-0.000283778 0.00578804 0.000515227
-0.000136937 0.000515227 0.0019877
-0.000411044 0.000488029 -4.51092e-05
0.000488029 0.00071345 -0.000136917
-4.51092e-05 -0.000136917 -9.85715e-05
0.00468261 0.00136866 0.000279541
0.00136866 0.00664022 2.77752e-05
0.000279541 2.77752e-05 -0.00216694
0.00129943 0.000389884 9.07105e-06
0.000389884 0.000970588 1.16086e-05
9.07105e-06 1.16086e-05 0.0005607
0.000730068 0.000286093 4.49771e-06
0.000286093 0.000811844 4.05375e-06
4.49771e-06 4.05375e-06 0.000333656
0.000581507 -4.7511e-05 -1.00899e-05
-4.7511e-05 0.00090409 8.63962e-06
-1.00899e-05 8.63962e-06 0.000477886
-0.000821222 -1.71053e-05 2.17094e-06
-1.71053e-05 -0.000660549 -9.58627e-07
2.17094e-06 -9.58627e-07 -0.000833641
-2.11218e-06 -2.78754e-05 3.79906e-06
-2.78754e-05 0.000315388 2.58263e-06
3.79906e-06 2.58263e-06 -0.000151371
-6.76094e-05 4.0944e-05 2.45341e-06
4.0944e-05 0.000406906 -7.92466e-06
2.45341e-06 -7.92466e-06 -0.00012812
9.459e-05 -2.71624e-05 2.19559e-07
-2.71624e-05 0.000196441 7.1358e-07
2.19559e-07 7.1358e-07 -8.03124e-05
-0.000113245 -5.03891e-05 2.33823e-06
-5.03891e-05 0.000314516 1.43888e-06
2.33823e-06 1.43888e-06 -0.000139835
0.00174444 -0.000417183 6.10698e-06
-0.000417183 0.00116789 -1.00379e-05
6.10698e-06 -1.00379e-05 0.000822675
0.000336187 -7.63012e-05 -5.22151e-06
-7.63012e-05 0.000194799 6.07217e-06
-5.22151e-06 6.07217e-06 2.96644e-05
3.16127e-05 1.02565e-05 1.72538e-07
1.02565e-05 -0.000149762 2.66268e-06
1.72538e-07 2.66268e-06 -0.000285443
0.00123813 -0.000307672 3.04033e-07
-0.000307672 0.000568324 5.94389e-06
3.04033e-07 5.94389e-06 0.000386055
-0.00354113 -5.29953e-05 2.02104e-05
-5.29953e-05 -0.00211102 2.4504e-05
2.02104e-05 2.4504e-05 -0.00245764
-0.000632113 -9.93413e-05 1.54032e-05
-9.93413e-05 -0.000556832 -1.99266e-06
1.54032e-05 -1.99266e-06 -0.000571473
-0.000132539 -0.000351536 -1.75485e-06
-0.000351536 -0.000349483 -6.04482e-06
-1.75485e-06 -6.04482e-06 -0.00062252
0.00143985 -0.000618874 -1.97483e-06
-0.000618874 0.000439616 1.42967e-06
-1.97483e-06 1.42967e-06 -7.44582e-05
0.00178953 -0.000734091 -1.02411e-05
-0.000734091 0.000540392 1.43164e-06
-1.02411e-05 1.43164e-06 5.54469e-05
0.00152948 -0.000369456 6.69299e-06
-0.000369456 0.000577391 -6.38049e-06
6.69299e-06 -6.38049e-06 0.000358503
0.00141144 -0.000553504 8.02265e-07
-0.000553504 0.000445124 4.17012e-07
8.02265e-07 4.17012e-07 5.06179e-05
0.00164128 -0.000631379 3.22697e-06
-0.000631379 0.00045169 -3.8714e-06
3.22697e-06 -3.8714e-06 2.50774e-05
0.00157812 -0.0004778 -3.03339e-06
-0.0004778 0.000533682 8.44811e-06
-3.03339e-06 8.44811e-06 0.000195026
0.00105254 -0.000527495 2.26439e-06
-0.000527495 0.000140326 -4.5666e-06
2.26439e-06 -4.5666e-06 -0.000260489
0.000908297 -0.000202989 2.9972e-07
-0.000202989 0.000294236 -5.21507e-06
2.9972e-07 -5.21507e-06 2.88939e-05
0.00105255 -0.00037154 -5.22445e-06
-0.00037154 0.000304312 2.65113e-06
-5.22445e-06 2.65113e-06 3.32651e-05
-0.000964163 -0.000194692 2.2017e-06
-0.000194692 -0.00100401 -1.00196e-05
2.2017e-06 -1.00196e-05 -0.00125247
-7.31952e-05 -6.9131e-05 4.42361e-07
-6.9131e-05 -0.000268155 -2.79592e-06
4.42361e-07 -2.79592e-06 -0.000493529
0.000309433 -0.000156117 3.69415e-07
-0.000156117 2.63774e-05 2.80798e-07
3.69415e-07 2.80798e-07 -0.000258031
0.0001089 -0.000183259 1.20163e-05
-0.000183259 -0.000141099 2.9796e-07
1.20163e-05 2.9796e-07 -0.000372801
0.000810396 -0.000149907 -8.82742e-08
-0.000149907 0.000315087 1.09569e-06
-8.82742e-08 1.09569e-06 8.15489e-05
0.000697247 -0.000130419 1.52412e-07
-0.000130419 0.000191961 3.83575e-07
1.52412e-07 3.83575e-07 1.09791e-05
0.000480868 -1.49929e-05 1.22863e-06
-1.49929e-05 2.14123e-05 6.06383e-06
1.22863e-06 6.06383e-06 -9.34309e-05
0.00120318 -0.000175251 -1.27348e-06
-0.000175251 0.000524564 -9.03829e-07
-1.27348e-06 -9.03829e-07 0.000353058
0.000588005 -2.18686e-05 -1.25597e-06
-2.18686e-05 8.56849e-05 -3.2993e-07
-1.25597e-06 -3.2993e-07 -1.27892e-05
0.000369408 5.04897e-05 2.83154e-06
5.04897e-05 -6.84332e-05 7.47588e-06
2.83154e-06 7.47588e-06 -0.00010923
0.00071251 -7.51159e-05 1.69466e-06
-7.51159e-05 0.000166655 -3.71732e-06
1.69466e-06 -3.71732e-06 7.22266e-05
0.000442056 -4.20519e-06 -1.67041e-06
-4.20519e-06 -3.42143e-05 -7.84524e-08
-1.67041e-06 -7.84524e-08 -6.76107e-05
0.00267848 9.29751e-05 -1.65975e-06
9.29751e-05 0.00138562 2.71304e-06
-1.65975e-06 2.71304e-06 0.00138909
0.000470152 -2.35807e-05 3.25159e-06
-2.35807e-05 -1.43137e-05 -6.5805e-06
3.25159e-06 -6.5805e-06 -4.57285e-05
0.00178759 4.52217e-05 1.8726e-05
4.52217e-05 0.000815674 -1.04371e-06
1.8726e-05 -1.04371e-06 0.000819955
0.00264675 3.90036e-05 2.65131e-05
3.90036e-05 0.00136224 -5.81535e-06
2.65131e-05 -5.81535e-06 0.00137353
0.000253874 2.99283e-05 3.18486e-06
2.99283e-05 -0.000108704 1.62818e-06
3.18486e-06 1.62818e-06 -0.00023533
0.000196385 1.11925e-05 2.22293e-06
1.11925e-05 -0.000166797 -2.71762e-06
2.22293e-06 -2.71762e-06 -0.000245966
0.000455771 3.91192e-05 -4.98891e-07
3.91192e-05 3.19757e-05 -1.26507e-06
-4.98891e-07 -1.26507e-06 -9.97817e-05
0.000476056 8.81715e-06 1.72285e-06
8.81715e-06 -2.22757e-05 -4.58645e-06
1.72285e-06 -4.58645e-06 -3.82906e-05
0.000172268 1.9158e-05 -6.73869e-07
1.9158e-05 -0.000181294 -1.84547e-06
-6.73869e-07 -1.84547e-06 -0.000250954
0.000655878 6.12612e-05 -4.059e-07
6.12612e-05 0.000172024 1.46193e-06
-4.059e-07 1.46193e-06 4.34595e-05
0.00209877 -1.69254e-05 -1.77673e-05
-1.69254e-05 0.00101092 -4.90085e-06
-1.77673e-05 -4.90085e-06 0.00102812
0.000454769 4.64163e-06 -7.46123e-07
4.64163e-06 -3.58403e-05 -8.56189e-08
-7.46123e-07 -8.56189e-08 -4.8222e-05
8.79755e-05 1.75914e-05 1.34528e-06
1.75914e-05 -0.000232955 2.12547e-06
1.34528e-06 2.12547e-06 -0.000293907
0.00205741 -2.09688e-06 -4.12021e-06
-2.09688e-06 0.000985843 5.68997e-08
-4.12021e-06 5.68997e-08 0.00100333
0.000436558 4.61978e-06 -2.12811e-06
4.61978e-06 -4.60808e-05 3.63779e-06
-2.12811e-06 3.63779e-06 -5.65542e-05
0.00208256 1.38627e-05 8.19433e-06
1.38627e-05 0.00100394 5.04452e-06
8.19433e-06 5.04452e-06 0.00102056
0.000523599 -6.01015e-05 0.000166128
-6.01015e-05 0.00279651 7.77979e-05
0.000166128 7.77979e-05 0.00183397
-0.000384639 -0.00045278 -6.19208e-05
-0.00045278 0.000463767 -6.87104e-06
-6.19208e-05 -6.87104e-06 -0.00381282
0.000254171 0.000909391 -9.08093e-05
0.000909391 0.00816053 -5.83826e-05
-9.08093e-05 -5.83826e-05 0.00302122
0.000805707 0.00014375 8.78256e-07
0.00014375 0.000241912 2.03741e-07
8.78256e-07 2.03741e-07 9.09211e-05
-1.01926e-05 8.49513e-05 7.53292e-06
8.49513e-05 -0.000276397 5.0262e-06
7.53292e-06 5.0262e-06 -0.000414309
0.00121672 0.000215743 1.29622e-05
0.000215743 0.000504178 9.74751e-06
1.29622e-05 9.74751e-06 0.000349057
0.00690987 -0.000578207 -0.000146368
-0.000578207 -0.000288918 0.000218341
-0.000146368 0.000218341 -0.00160274
0.00555765 -0.00140126 0.000114428
-0.00140126 0.00306759 1.51325e-05
0.000114428 1.51325e-05 0.00146121
0.00464085 -0.00220772 0.000240932
-0.00220772 0.00192722 -0.000289194
0.000240932 -0.000289194 -0.00292437
0.00955806 -0.00326974 -5.89378e-06
-0.00326974 0.000150935 -4.81109e-05
-5.89378e-06 -4.81109e-05 0.00111409
0.00160262 -0.00405224 -0.000527729
-0.00405224 -0.00219514 8.33879e-05
-0.000527729 8.33879e-05 -0.00438129
0.0272213 0.00491055 0.000304376
0.00491055 0.0118041 0.000202042
0.000304376 0.000202042 0.00571293
0.00786385 -0.000374554 0.000351191
-0.000374554 -0.00238717 -0.000277034
0.000351191 -0.000277034 -0.00292845
0.00357004 -0.00306463 -2.86641e-05
-0.00306463 -0.00038618 1.76548e-05
-2.86641e-05 1.76548e-05 0.000393689
0.00747297 -0.00509817 -0.000156493
-0.00509817 0.00270433 2.16267e-05
-0.000156493 2.16267e-05 -0.00214976
-1.06983e-05 0.00406872 -9.98595e-05
0.00406872 0.00491075 -0.000338689
-9.98595e-05 -0.000338689 -0.000528627
0.0110017 -8.10497e-05 -9.67621e-05
-8.10497e-05 -0.00337432 0.000158401
-9.67621e-05 0.000158401 -0.000763491
0.000298503 -0.0020891 -0.000129177
-0.0020891 0.000655845 6.035e-05
-0.000129177 6.035e-05 0.000235371
0.0106627 -0.00344446 -0.000350016
-0.00344446 0.00606406 0.000215563
-0.000350016 0.000215563 0.000719956
0.00111254 -0.000249351 6.33562e-05
-0.000249351 0.00278284 -0.000345444
6.33562e-05 -0.000345444 -0.00138823
0.00949948 -0.000495413 0.000129173
-0.000495413 -0.00189047 8.78234e-05
0.000129173 8.78234e-05 -0.00131706
0.000111814 0.000107698 1.15186e-05
0.000107698 -0.000144456 2.49064e-05
1.15186e-05 2.49064e-05 -0.000284452
0.000676906 4.61148e-06 2.4349e-06
4.61148e-06 0.000257463 -2.94722e-06
2.4349e-06 -2.94722e-06 3.38798e-05
0.000311635 -0.000168399 3.17086e-06
-0.000168399 -9.97166e-06 -1.25112e-05
3.17086e-06 -1.25112e-05 -0.000219789
0.000638962 0.000146822 -1.96354e-06
0.000146822 0.000130005 2.02683e-06
-1.96354e-06 2.02683e-06 -2.34929e-05
0.00077412 0.000155509 1.74487e-06
0.000155509 0.000283732 -7.85605e-06
1.74487e-06 -7.85605e-06 9.19135e-05
0.00117675 0.000207511 -5.60014e-06
0.000207511 0.000526478 -5.98534e-06
-5.60014e-06 -5.98534e-06 0.000339
5.02777e-05 -0.00123012 4.28493e-05
-0.00123012 -0.00077647 -1.99005e-05
4.28493e-05 -1.99005e-05 -0.000918173
0.000925776 -0.000433346 2.11526e-05
-0.000433346 0.000223629 -2.22605e-05
2.11526e-05 -2.22605e-05 0.000266439
0.000192153 0.000109639 -2.50283e-06
0.000109639 9.93108e-07 -2.01923e-05
-2.50283e-06 -2.01923e-05 -0.000229332
0.00264902 -0.000514793 7.0038e-05
-0.000514793 0.00163653 -2.89117e-05
7.0038e-05 -2.89117e-05 0.00122686
0.00189512 -0.00015317 1.74239e-06
-0.00015317 0.00116494 7.3178e-07
1.74239e-06 7.3178e-07 0.000852266
-0.000171175 0.000102583 4.96775e-06
0.000102583 -0.000161213 4.03061e-06
4.96775e-06 4.03061e-06 -0.000377787
0.000292491 7.69307e-05 1.67277e-06
7.69307e-05 0.000282771 4.08565e-07
1.67277e-06 4.08565e-07 -1.65254e-05
0.00104461 -0.00142834 -4.44115e-05
-0.00142834 0.000302682 2.24394e-06
-4.44115e-05 2.24394e-06 -0.000176622
0.000119274 -3.52397e-05 -5.07939e-06
-3.52397e-05 0.000495279 3.32713e-06
-5.07939e-06 3.32713e-06 -6.19193e-05
0.00065637 -0.000398807 -1.20033e-05
-0.000398807 0.000618718 -5.04461e-06
-1.20033e-05 -5.04461e-06 0.000155294
0.000691761 0.000181744 4.54627e-06
0.000181744 0.00050963 -9.21957e-06
4.54627e-06 -9.21957e-06 0.000236689
-0.00182572 -0.00039376 -2.2368e-05
-0.00039376 6.36911e-05 -2.54414e-05
-2.2368e-05 -2.54414e-05 -0.00090621
0.000671105 -0.000227259 -2.59558e-05
-0.000227259 0.000982444 1.6264e-06
-2.59558e-05 1.6264e-06 0.000457378
-0.00131567 -2.74932e-05 -1.34608e-05
-2.74932e-05 -0.000205601 1.91497e-07
-1.34608e-05 1.91497e-07 -0.000745667
-9.08416e-05 0.000275112 -1.29295e-05
0.000275112 -0.000548617 2.72608e-06
-1.29295e-05 2.72608e-06 -0.00218028
-0.00198555 0.000304068 8.16871e-05
0.000304068 0.00173994 -1.06393e-05
8.16871e-05 -1.06393e-05 0.000483243
-0.000665427 -0.000148202 0.000371674
-0.000148202 0.00059132 3.60277e-05
0.000371674 3.60277e-05 -0.00392303
0.000297581 0.000589035 6.82694e-06
0.000589035 0.000346957 1.83845e-05
6.82694e-06 1.83845e-05 -0.000122681
9.92031e-05 0.000882719 -2.4474e-05
0.000882719 0.000433964 -1.6989e-05
-2.4474e-05 -1.6989e-05 -0.000301815
-0.00255995 0.000137753 -6.87138e-05
0.000137753 0.000505163 -2.89339e-05
-6.87138e-05 -2.89339e-05 -0.00061514
-0.00473908 0.000761414 9.3164e-05
0.000761414 0.00297036 0.00020576
9.3164e-05 0.00020576 -0.00267972
0.000698622 0.000983199 -0.000163555
0.000983199 -0.00148112 -0.000504546
-0.000163555 -0.000504546 -0.00652885
0.00420604 -3.96999e-05 9.51939e-05
-3.96999e-05 -0.000302422 8.58678e-05
9.51939e-05 8.58678e-05 -0.000595091
0.00715935 -0.000160414 -0.000336468
-0.000160414 -0.00231699 0.000263653
-0.000336468 0.000263653 -0.00301189
0.000178387 0.000409268 -1.66055e-06
0.000409268 0.00054542 -6.05176e-07
-1.66055e-06 -6.05176e-07 3.30403e-05
0.00118853 6.43616e-05 3.69517e-05
6.43616e-05 0.000563723 -3.17125e-06
3.69517e-05 -3.17125e-06 -0.000164581
0.0046141 -0.00106871 -0.000108554
-0.00106871 0.00306089 -4.09497e-06
-0.000108554 -4.09497e-06 0.00140307
-0.000540321 0.000747687 -0.000145861
0.000747687 0.00136095 -9.53549e-06
-0.000145861 -9.53549e-06 -0.000235046
0.0165274 0.00555101 -4.34122e-05
0.00555101 0.00459517 -0.000434817
-4.34122e-05 -0.000434817 0.0013653
0.00143081 0.00353148 9.40673e-05
0.00353148 0.00516615 0.000354459
9.40673e-05 0.000354459 -0.000585574
0.00517344 0.000980094 6.63106e-05
0.000980094 0.006042 -1.73174e-05
6.63106e-05 -1.73174e-05 -0.00150701
0.00030509 5.04733e-06 3.61946e-05
5.04733e-06 0.00139283 -2.36813e-05
3.61946e-05 -2.36813e-05 0.000230945
1.97253e-05 -0.00015301 -0.000151519
-0.00015301 0.00301209 2.79837e-06
-0.000151519 2.79837e-06 0.00183318
0.00166365 -0.000957158 0.000783146
-0.000957158 0.000597396 -0.000268811
0.000783146 -0.000268811 -0.00455475
0.0222968 0.00852123 -7.93459e-05
0.00852123 0.0150493 -1.3729e-05
-7.93459e-05 -1.3729e-05 0.0104738
0.00916091 0.00414602 -4.35715e-05
0.00414602 0.00311612 0.000903434
-4.35715e-05 0.000903434 -0.00207692
0.0120895 -0.00398114 0.000333239
-0.00398114 0.00648081 -0.00026417
0.000333239 -0.00026417 0.000247266
0.00308892 -0.000813536 -7.11103e-05
-0.000813536 0.00331345 3.55391e-05
-7.11103e-05 3.55391e-05 0.00225807
0.000896182 0.000267837 -4.83302e-06
0.000267837 0.000922031 2.34165e-06
-4.83302e-06 2.34165e-06 0.000467697
-1.71554e-05 -6.4114e-05 -4.7086e-06
-6.4114e-05 0.000484271 -4.4099e-06
-4.7086e-06 -4.4099e-06 1.03339e-05
0.00115006 -0.000556631 4.5873e-05
-0.000556631 0.00092074 -1.20304e-05
4.5873e-05 -1.20304e-05 0.000355001
0.000258817 -7.56755e-05 -2.48047e-06
-7.56755e-05 0.000247852 7.0163e-06
-2.48047e-06 7.0163e-06 1.87734e-05
-0.00011961 -7.24951e-05 -3.30125e-06
-7.24951e-05 0.000272662 -1.68265e-05
-3.30125e-06 -1.68265e-05 -0.000153605
0.000554268 -0.000320728 -4.93673e-06
-0.000320728 0.000604286 3.86376e-07
-4.93673e-06 3.86376e-07 0.00023939
0.00132193 -0.000687012 2.81952e-05
-0.000687012 0.000618874 -1.69689e-05
2.81952e-05 -1.69689e-05 0.000273963
0.00172684 -0.000389878 1.27182e-06
-0.000389878 0.000892746 -2.73911e-07
1.27182e-06 -2.73911e-07 0.000648159
0.00151762 -0.000659573 1.59911e-05
-0.000659573 0.000676396 -2.88212e-06
1.59911e-05 -2.88212e-06 0.000249977
0.00123728 -0.000641361 8.44523e-06
-0.000641361 0.000514326 2.93582e-06
8.44523e-06 2.93582e-06 -0.000170164
0.000609571 -0.000377212 -6.2158e-06
-0.000377212 5.97939e-05 -8.69574e-06
-6.2158e-06 -8.69574e-06 -0.000162282
0.00218949 -0.000712833 -3.38173e-06
-0.000712833 0.000841593 -2.03586e-06
-3.38173e-06 -2.03586e-06 0.000327862
0.00185233 -0.000835421 -1.27963e-05
-0.000835421 0.00052693 -8.13708e-07
-1.27963e-05 -8.13708e-07 -8.1643e-05
0.00209801 -0.00093549 -1.41742e-05
-0.00093549 0.000509272 2.31383e-06
-1.41742e-05 2.31383e-06 -2.98337e-05
0.00194382 -0.000805143 -5.16292e-06
-0.000805143 0.000589868 5.68729e-07
-5.16292e-06 5.68729e-07 9.7836e-05
0.0016926 -0.000722923 -4.69487e-06
-0.000722923 0.000473688 8.62173e-07
-4.69487e-06 8.62173e-07 -1.23103e-05
0.00126912 -0.000541188 2.39039e-06
-0.000541188 0.000333517 -7.67992e-06
2.39039e-06 -7.67992e-06 -6.52671e-05
0.00141827 -0.000569709 8.57322e-06
-0.000569709 0.00038906 -2.62315e-06
8.57322e-06 -2.62315e-06 -9.05979e-06
0.00163938 -0.00064105 6.692e-06
-0.00064105 0.000454663 -1.61524e-06
6.692e-06 -1.61524e-06 2.5907e-05
0.00113778 -0.000295432 4.18398e-07
-0.000295432 0.000321551 4.74336e-07
4.18398e-07 4.74336e-07 5.66631e-05
0.00117377 -0.000443329 5.7369e-06
-0.000443329 0.000277751 -4.54678e-06
5.7369e-06 -4.54678e-06 -5.27048e-05
0.000169346 -0.00041712 -3.28736e-06
-0.00041712 -0.000399776 -7.91548e-06
-3.28736e-06 -7.91548e-06 -0.000768446
7.9405e-05 -8.63778e-05 -1.48763e-07
-8.63778e-05 -0.00016883 -3.75626e-06
-1.48763e-07 -3.75626e-06 -0.000437237
0.00100673 -0.000241702 -5.31125e-07
-0.000241702 0.000371864 4.01092e-07
-5.31125e-07 4.01092e-07 9.92595e-05
0.000426674 -0.000318827 -3.45192e-06
-0.000318827 -8.27179e-05 -2.11148e-06
-3.45192e-06 -2.11148e-06 -0.000357969
0.000550669 -5.95661e-05 -2.13887e-07
-5.95661e-05 6.17575e-05 6.97627e-06
-2.13887e-07 6.97627e-06 -7.52002e-05
0.000780968 -0.00012674 -2.83152e-07
-0.00012674 0.000260403 1.34453e-07
-2.83152e-07 1.34453e-07 3.31575e-05
-0.000160301 -0.000129187 2.14139e-07
-0.000129187 -0.000259329 4.05001e-06
2.14139e-07 4.05001e-06 -0.000531303
0.0013227 -0.000165026 3.84093e-07
-0.000165026 0.000596873 -3.40559e-07
3.84093e-07 -3.40559e-07 0.00040294
0.000622685 -6.3853e-05 -5.00407e-07
-6.3853e-05 0.000110089 -3.32499e-07
-5.00407e-07 -3.32499e-07 -8.72957e-06
0.000326515 2.02348e-05 2.14322e-06
2.02348e-05 -9.11463e-05 9.87763e-06
2.14322e-06 9.87763e-06 -0.000138412
0.000708262 -7.07537e-05 7.04925e-07
-7.07537e-05 0.000160749 -4.45508e-06
7.04925e-07 -4.45508e-06 5.94065e-05
0.000463999 8.94047e-06 -3.52717e-06
8.94047e-06 -1.58452e-05 -3.01409e-07
-3.52717e-06 -3.01409e-07 -5.35576e-05
0.00288909 9.87912e-05 -4.16715e-05
9.87912e-05 0.00152664 4.89277e-06
-4.16715e-05 4.89277e-06 0.00153008
0.000483962 -1.54477e-05 3.15786e-06
-1.54477e-05 -1.05859e-05 -6.56418e-06
3.15786e-06 -6.56418e-06 -4.30337e-05
0.00181055 6.27649e-05 2.23713e-05
6.27649e-05 0.000832482 -7.50377e-07
2.23713e-05 -7.50377e-07 0.000834004
0.00277977 5.92703e-05 3.29497e-05
5.92703e-05 0.00144776 -5.44399e-06
3.29497e-05 -5.44399e-06 0.00145692
0.00086767 0.00011247 6.20985e-06
0.00011247 0.000291089 -2.47543e-07
6.20985e-06 -2.47543e-07 0.000142795
0.00050775 5.15551e-05 3.31625e-06
5.15551e-05 3.19218e-05 -2.30206e-06
3.31625e-06 -2.30206e-06 -5.43959e-05
0.000438915 5.25573e-05 -7.09618e-07
5.25573e-05 2.42339e-05 -1.42369e-06
-7.09618e-07 -1.42369e-06 -0.000114974
0.000468594 9.29991e-06 1.31803e-06
9.29991e-06 -2.69414e-05 -5.67002e-06
1.31803e-06 -5.67002e-06 -4.78714e-05
0.000305437 4.18371e-05 -2.40975e-06
4.18371e-05 -9.59025e-05 -1.98458e-06
-2.40975e-06 -1.98458e-06 -0.000174705
0.000665404 8.40467e-05 -2.07963e-06
8.40467e-05 0.000170034 -3.53641e-06
-2.07963e-06 -3.53641e-06 3.70173e-05
0.0021937 -3.27063e-05 -2.13875e-05
-3.27063e-05 0.00107133 -4.99284e-06
-2.13875e-05 -4.99284e-06 0.00108716
0.000448629 -1.37127e-06 2.52932e-07
-1.37127e-06 -4.08251e-05 -1.52622e-07
2.52932e-07 -1.52622e-07 -5.61247e-05
0.000114623 1.63971e-05 -2.05457e-06
1.63971e-05 -0.000218382 3.34512e-07
-2.05457e-06 3.34512e-07 -0.000289396
0.00213207 -1.63568e-05 -5.66015e-06
-1.63568e-05 0.00103231 1.30875e-07
-5.66015e-06 1.30875e-07 0.0010494
0.000448566 7.06762e-07 -3.15625e-06
7.06762e-07 -4.0241e-05 3.85908e-06
-3.15625e-06 3.85908e-06 -5.229e-05
0.0020999 -5.94165e-07 1.31499e-05
-5.94165e-07 0.00101301 5.02952e-06
1.31499e-05 5.02952e-06 0.00103028
0.00175302 -0.000304479 -7.98931e-05
-0.000304479 0.000480267 3.33999e-05
-7.98931e-05 3.33999e-05 -0.000286529
-0.00102336 -0.000196594 8.22038e-05
-0.000196594 0.00236534 -4.49817e-06
8.22038e-05 -4.49817e-06 0.00111733
-0.00098559 -0.000387626 0.000163832
-0.000387626 0.000844189 -0.000181812
0.000163832 -0.000181812 -0.0040107
5.96546e-05 4.51193e-05 4.69176e-06
4.51193e-05 -0.000197445 8.4456e-06
4.69176e-06 8.4456e-06 -0.000365082
0.00266985 0.000112564 3.30602e-06
0.000112564 0.00143221 9.06535e-06
3.30602e-06 9.06535e-06 0.00123891
0.000717738 0.000158604 -5.50046e-06
0.000158604 0.000195598 -6.38008e-06
-5.50046e-06 -6.38008e-06 4.48271e-05
0.000331559 8.79416e-05 1.12085e-06
8.79416e-05 -6.26388e-05 9.17426e-07
1.12085e-06 9.17426e-07 -0.000200233
0.000292941 8.87906e-05 4.27556e-07
8.87906e-05 -0.000100573 -1.34048e-06
4.27556e-07 -1.34048e-06 -0.000222444
0.000347991 0.000108131 8.97326e-06
0.000108131 -3.57066e-05 2.21907e-06
8.97326e-06 2.21907e-06 -0.00017402
9.53543e-05 0.00011249 1.71716e-05
0.00011249 -0.000174197 6.47069e-06
1.71716e-05 6.47069e-06 -0.000291763
0.00234795 0.00130369 0.000252604
0.00130369 -0.000375043 0.000254411
0.000252604 0.000254411 -0.00186943
0.0056669 -0.000353626 -6.46344e-05
-0.000353626 -0.000118844 5.29975e-05
-6.46344e-05 5.29975e-05 -0.00133936
0.00433315 -0.000825163 0.000273689
-0.000825163 0.00311135 -0.000121165
0.000273689 -0.000121165 0.00151593
0.00882965 -0.000203011 -6.59687e-07
-0.000203011 -0.00572649 0.000186446
-6.59687e-07 0.000186446 -0.0023466
0.00609753 -0.00356378 -0.000129974
-0.00356378 0.000952311 3.21658e-05
-0.000129974 3.21658e-05 0.00133965
0.00109172 -0.00457961 -0.000326042
-0.00457961 0.00156851 0.000103813
-0.000326042 0.000103813 -0.00437543
0.0172475 0.00458589 0.00015731
0.00458589 0.00769564 -0.000191165
0.00015731 -0.000191165 0.00255447
0.00237981 -0.00276382 -6.1633e-05
-0.00276382 0.000161341 2.56925e-05
-6.1633e-05 2.56925e-05 0.000584121
-0.00146516 -0.00100933 -5.87951e-05
-0.00100933 0.00427992 5.51244e-05
-5.87951e-05 5.51244e-05 -0.00318228
0.01013 0.000546088 0.000235886
0.000546088 0.00394407 -3.17405e-05
0.000235886 -3.17405e-05 7.43151e-05
0.0164745 -0.00200415 -8.15538e-05
-0.00200415 0.00213137 -1.27236e-05
-8.15538e-05 -1.27236e-05 0.00323045
-0.00197561 -0.000563885 -0.000170826
-0.000563885 0.0003202 0.000167344
-0.000170826 0.000167344 8.92127e-05
0.00270489 0.00214978 -0.00022362
0.00214978 0.0054787 -0.000121131
-0.00022362 -0.000121131 -0.0021516
-0.000452315 -0.00583614 4.26621e-06
-0.00583614 1.56761e-05 -0.000253161
4.26621e-06 -0.000253161 -0.00560867
0.0151962 -0.00305197 0.000176311
-0.00305197 0.00489815 -0.000684041
0.000176311 -0.000684041 0.00270594
0.000491703 1.81827e-05 1.95226e-05
1.81827e-05 0.000312522 5.28076e-08
1.95226e-05 5.28076e-08 4.22383e-05
0.000784766 0.000190029 -1.73334e-06
0.000190029 0.000306908 -4.21766e-06
-1.73334e-06 -4.21766e-06 0.000148777
0.000876896 -1.2534e-05 -1.55597e-06
-1.2534e-05 0.000400046 -6.90664e-06
-1.55597e-06 -6.90664e-06 0.000151028
0.000980609 0.000160057 -6.33459e-06
0.000160057 0.000369547 -1.23252e-05
-6.33459e-06 -1.23252e-05 0.000197101
0.000589228 -0.00121135 5.0599e-05
-0.00121135 0.000108193 3.17939e-05
5.0599e-05 3.17939e-05 -0.000416003
0.00219631 -0.000393097 8.33588e-06
-0.000393097 0.0015365 -2.52136e-05
8.33588e-06 -2.52136e-05 0.000989833
0.000892737 0.000110806 -1.68058e-05
0.000110806 0.000489952 -2.34704e-05
-1.68058e-05 -2.34704e-05 0.000294512
0.000940053 2.71417e-05 -2.23084e-07
2.71417e-05 0.000645735 -8.28894e-06
-2.23084e-07 -8.28894e-06 0.000381273
0.000291543 -3.24237e-05 -9.82339e-07
-3.24237e-05 0.000597825 1.41823e-05
-9.82339e-07 1.41823e-05 0.000110294
0.000229011 8.03182e-05 2.19771e-06
8.03182e-05 0.000160731 3.81471e-06
2.19771e-06 3.81471e-06 -6.36479e-05
0.00020046 1.14002e-06 6.4919e-07
1.14002e-06 0.000630938 9.05078e-07
6.4919e-07 9.05078e-07 0.000114605
0.000191356 -0.000521115 -8.01872e-06
-0.000521115 0.00107075 6.36679e-06
-8.01872e-06 6.36679e-06 -0.000220502
0.000407024 -0.000138832 5.61131e-06
-0.000138832 0.000987797 -3.8473e-06
5.61131e-06 -3.8473e-06 0.000471208
-0.000572244 0.0001121 4.25353e-06
0.0001121 -0.000131621 -1.22892e-05
4.25353e-06 -1.22892e-05 -0.00041501
0.00108049 9.62483e-05 -0.000151542
9.62483e-05 0.00333115 -1.87356e-05
-0.000151542 -1.87356e-05 0.00132768
0.00106445 0.000370476 -2.00337e-05
0.000370476 0.00126396 8.20519e-06
-2.00337e-05 8.20519e-06 0.000689686
-0.00225291 4.58298e-05 -9.03622e-05
4.58298e-05 0.00202478 -3.402e-05
-9.03622e-05 -3.402e-05 0.000717983
0.00110821 0.000100328 2.05056e-05
0.000100328 0.000100928 8.78264e-06
2.05056e-05 8.78264e-06 -0.000705223
-0.00323461 0.000439581 -3.20853e-05
0.000439581 0.00126524 -7.1894e-05
-3.20853e-05 -7.1894e-05 -8.66195e-05
0.000370932 0.000331476 -2.54188e-05
0.000331476 0.000742923 4.20385e-06
-2.54188e-05 4.20385e-06 0.000320164
-0.00129139 0.000890431 0.000163407
0.000890431 0.00027168 0.000113224
0.000163407 0.000113224 -0.00059627
0.000799086 4.90581e-05 7.64017e-05
4.90581e-05 0.000522829 -7.11319e-06
7.64017e-05 -7.11319e-06 4.59728e-05
0.00596941 -0.00234198 0.000283328
-0.00234198 0.00606566 -0.0001909
0.000283328 -0.0001909 -0.00260216
0.0196972 0.00393997 -0.000192553
0.00393997 0.00847382 0.000173344
-0.000192553 0.000173344 0.00329197
0.00326301 -0.000757417 -0.000245984
-0.000757417 0.00228274 0.000114547
-0.000245984 0.000114547 0.000849791
0.0137785 0.00494455 -0.000117239
0.00494455 0.00647587 -0.000249669
-0.000117239 -0.000249669 0.00310206
0.00048645 0.000244418 -5.64196e-05
0.000244418 0.0013167 1.3067e-05
-5.64196e-05 1.3067e-05 0.000216201
-4.684e-05 -0.000268852 -9.10545e-05
-0.000268852 0.0023635 1.0865e-06
-9.10545e-05 1.0865e-06 0.00147412
0.00306561 -0.00161569 0.000291465
-0.00161569 0.00163361 -4.52612e-05
0.000291465 -4.52612e-05 -0.00335043
-0.00310505 -0.000108798 5.40506e-05
-0.000108798 -0.000424379 3.31365e-05
5.40506e-05 3.31365e-05 -0.000955569
0.0165898 0.00978632 0.000697442
0.00978632 0.0116767 -0.000285173
0.000697442 -0.000285173 0.00704345
0.00938496 0.00319594 -0.000163476
0.00319594 0.00457294 0.000394176
-0.000163476 0.000394176 -0.000659443
-0.00301827 -0.0012597 0.000188208
-0.0012597 0.00301897 -0.000152486
0.000188208 -0.000152486 -0.00490688
-0.00131501 -0.000429659 2.02969e-06
-0.000429659 0.000412189 -3.08535e-05
2.02969e-06 -3.08535e-05 -0.000714014
0.000520574 -0.00089623 0.000326149
-0.00089623 -0.000121396 -8.37086e-05
0.000326149 -8.37086e-05 -0.00368278
-1.84382e-05 0.001008 -0.00141141
0.001008 0.00785681 0.000354573
-0.00141141 0.000354573 0.00328983
0.0209252 0.00741612 -0.000572142
0.00741612 0.00692654 0.000541913
-0.000572142 0.000541913 0.00188187
0.00674326 -0.00376178 -0.000198079
-0.00376178 0.00321703 6.5167e-05
-0.000198079 6.5167e-05 -0.00042665
0.00289461 -0.00174931 4.37979e-05
-0.00174931 0.00306875 -9.02465e-07
4.37979e-05 -9.02465e-07 0.00206363
0.000154155 -5.11896e-05 1.89485e-06
-5.11896e-05 0.000534152 -1.07994e-05
1.89485e-06 -1.07994e-05 2.54209e-05
1.87604e-05 -0.000401131 4.82012e-06
-0.000401131 0.000386582 -2.15966e-06
4.82012e-06 -2.15966e-06 -0.00020597
-3.73094e-05 -0.000739312 -5.56741e-06
-0.000739312 7.36868e-05 1.08049e-06
-5.56741e-06 1.08049e-06 -0.000295316
-0.000450791 -0.000218597 -7.22784e-07
-0.000218597 0.000134189 6.43599e-06
-7.22784e-07 6.43599e-06 -0.000244336
-0.000719167 -0.000401987 -1.402e-06
-0.000401987 -0.000386202 3.26763e-06
-1.402e-06 3.26763e-06 -0.000686048
0.00317062 -0.000971039 4.00289e-05
-0.000971039 0.00136564 -1.92827e-05
4.00289e-05 -1.92827e-05 0.000921981
0.00649785 -0.00128055 -1.24023e-05
-0.00128055 0.00340961 -2.86531e-06
-1.24023e-05 -2.86531e-06 0.00289705
0.00291462 -0.000872708 1.036e-05
-0.000872708 0.00134575 -2.98383e-06
1.036e-05 -2.98383e-06 0.000668377
0.00193055 -0.000932199 3.78377e-06
-0.000932199 0.000510766 -1.76352e-05
3.78377e-06 -1.76352e-05 -0.000160212
0.00226932 -0.000718292 -9.99012e-06
-0.000718292 0.000858607 -8.20429e-06
-9.99012e-06 -8.20429e-06 0.000360616
0.00219484 -0.000884573 1.26322e-06
-0.000884573 0.0007067 -2.23743e-06
1.26322e-06 -2.23743e-06 8.27564e-05
0.00268036 -0.00102736 -6.0993e-06
-0.00102736 0.000861632 -1.16101e-05
-6.0993e-06 -1.16101e-05 0.000246524
0.00224296 -0.000806173 -5.19244e-06
-0.000806173 0.000402299 -4.50292e-06
-5.19244e-06 -4.50292e-06 -1.32007e-05
0.00259021 -0.000987086 -1.0007e-05
-0.000987086 0.000755148 1.83787e-06
-1.0007e-05 1.83787e-06 0.000234476
0.00242977 -0.000979089 -3.25944e-06
-0.000979089 0.00068755 1.79287e-08
-3.25944e-06 1.79287e-08 0.000135371
0.00176523 -0.000762209 6.9935e-06
-0.000762209 0.000506439 -3.89134e-06
6.9935e-06 -3.89134e-06 4.17355e-05
0.00161175 -0.000750222 3.02654e-06
-0.000750222 0.000399952 -1.123e-06
3.02654e-06 -1.123e-06 -7.15692e-05
0.00149801 -0.000697445 7.52973e-06
-0.000697445 0.000346625 -5.99934e-07
7.52973e-06 -5.99934e-07 -0.000137356
0.00161309 -0.000513077 8.54153e-06
-0.000513077 0.000550541 5.06756e-06
8.54153e-06 5.06756e-06 0.000189246
0.00153052 -0.000579196 -1.24032e-06
-0.000579196 0.000466209 -2.17218e-06
-1.24032e-06 -2.17218e-06 6.39466e-05
0.00165688 -0.000651926 5.94698e-06
-0.000651926 0.000468736 2.75912e-06
5.94698e-06 2.75912e-06 3.82224e-05
0.00123534 -0.000226376 7.63935e-07
-0.000226376 0.000458972 -4.29327e-06
7.63935e-07 -4.29327e-06 0.000193243
0.000868383 -0.000278666 -3.60602e-06
-0.000278666 0.000180087 2.68288e-06
-3.60602e-06 2.68288e-06 -7.84999e-05
0.000813203 -0.000413461 -1.98366e-07
-0.000413461 5.0251e-05 -1.22084e-05
-1.98366e-07 -1.22084e-05 -0.000273215
1.18632e-05 -7.65517e-05 -2.08089e-06
-7.65517e-05 -0.000260368 4.79648e-06
-2.08089e-06 4.79648e-06 -0.000447661
0.000788643 -0.000162804 1.78174e-07
-0.000162804 0.00027368 8.19553e-07
1.78174e-07 8.19553e-07 5.25271e-07
0.000677224 -0.000270033 3.71108e-06
-0.000270033 0.000199493 1.08916e-06
3.71108e-06 1.08916e-06 -8.69337e-05
0.000335939 -2.12235e-05 -6.9374e-06
-2.12235e-05 -9.92766e-05 1.50367e-05
-6.9374e-06 1.50367e-05 -0.000150354
0.000668244 -8.36155e-05 6.997e-07
-8.36155e-05 0.000127601 1.2119e-07
6.997e-07 1.2119e-07 -1.01288e-05
0.00143425 -0.000209061 -1.04251e-06
-0.000209061 0.000661836 2.40103e-06
-1.04251e-06 2.40103e-06 0.000433021
0.00074103 -7.47698e-05 2.20145e-07
-7.47698e-05 0.000181912 -5.39404e-06
2.20145e-07 -5.39404e-06 6.11624e-05
0.000431019 5.60843e-06 -7.00205e-07
5.60843e-06 -3.18842e-05 -5.29441e-07
-7.00205e-07 -5.29441e-07 -7.6764e-05
0.00301131 0.000125403 -4.15104e-05
0.000125403 0.00161417 4.88467e-06
-4.15104e-05 4.88467e-06 0.00161136
0.000518671 -5.03445e-06 2.58186e-06
-5.03445e-06 1.37734e-05 -7.96259e-06
2.58186e-06 -7.96259e-06 -2.17957e-05
0.00284725 0.000100819 5.20442e-06
0.000100819 0.00150012 6.20458e-07
5.20442e-06 6.20458e-07 0.00150329
0.00273703 7.8638e-05 3.56992e-05
7.8638e-05 0.00142324 -4.95239e-06
3.56992e-05 -4.95239e-06 0.0014305
0.00116497 0.000104754 4.32269e-06
0.000104754 0.000586243 -1.85616e-06
4.32269e-06 -1.85616e-06 0.000342563
0.00128992 0.0001556 7.05325e-06
0.0001556 0.000621303 -2.65955e-06
7.05325e-06 -2.65955e-06 0.000417624
0.00053874 3.89977e-05 5.0715e-06
3.89977e-05 4.55566e-05 -4.86548e-06
5.0715e-06 -4.86548e-06 -5.19286e-05
0.00062116 0.000117012 1.74488e-07
0.000117012 0.000142945 -1.779e-07
1.74488e-07 -1.779e-07 -4.594e-06
0.000441705 -1.32662e-06 2.38856e-06
-1.32662e-06 -4.0639e-05 -6.91819e-06
2.38856e-06 -6.91819e-06 -6.66905e-05
0.000521388 5.45686e-05 2.1774e-07
5.45686e-05 4.07709e-05 -2.40429e-07
2.1774e-07 -2.40429e-07 -4.55387e-05
0.000570969 5.74305e-05 -5.99619e-06
5.74305e-05 9.39345e-05 -2.63666e-06
-5.99619e-06 -2.63666e-06 -3.65035e-05
0.00234525 -4.9245e-05 -2.75804e-05
-4.9245e-05 0.00116958 -5.20765e-06
-2.75804e-05 -5.20765e-06 0.00118302
0.000459851 3.89983e-06 -8.59099e-07
3.89983e-06 -3.18418e-05 -1.61981e-07
-8.59099e-07 -1.61981e-07 -5.22313e-05
0.000462685 5.93646e-05 -4.45482e-06
5.93646e-05 5.66987e-06 6.83803e-08
-4.45482e-06 6.83803e-08 -7.29091e-05
0.00219776 -3.21831e-05 -4.91007e-06
-3.21831e-05 0.0010739 2.50551e-07
-4.91007e-06 2.50551e-07 0.0010898
0.000460355 6.02584e-07 -3.20792e-06
6.02584e-07 -3.41726e-05 4.24498e-06
-3.20792e-06 4.24498e-06 -4.90542e-05
0.00212707 -1.58687e-05 1.69694e-05
-1.58687e-05 0.00102899 4.90189e-06
1.69694e-05 4.90189e-06 0.00104608
-0.00260383 0.000356473 -1.49435e-05
0.000356473 0.000647239 -6.38541e-05
-1.49435e-05 -6.38541e-05 -0.000154963
0.00188614 -0.000244627 -1.62323e-05
-0.000244627 0.000810177 -8.56001e-06
-1.62323e-05 -8.56001e-06 0.000240532
-6.69692e-05 -0.000250968 1.24406e-05
-0.000250968 0.00217833 -4.45048e-05
1.24406e-05 -4.45048e-05 0.0011835
0.000778685 0.000109603 9.20924e-07
0.000109603 0.000313353 -2.16414e-06
9.20924e-07 -2.16414e-06 9.75673e-05
8.64782e-06 0.000103439 6.31559e-06
0.000103439 -0.000223644 -2.56114e-06
6.31559e-06 -2.56114e-06 -0.000408554
-0.00170523 -5.9308e-06 2.20492e-07
-5.9308e-06 -0.0013487 -9.68674e-06
2.20492e-07 -9.68674e-06 -0.00151317
-0.00136636 1.45783e-05 -1.52802e-06
1.45783e-05 -0.00103143 2.20423e-05
-1.52802e-06 2.20423e-05 -0.00122383
0.00276353 0.000392428 9.36152e-07
0.000392428 0.00151106 5.55612e-07
9.36152e-07 5.55612e-07 0.00122732
0.00101975 5.14605e-05 -7.02668e-06
5.14605e-05 0.000358571 -4.73486e-06
-7.02668e-06 -4.73486e-06 0.000219361
0.000411008 0.000116118 -1.26861e-05
0.000116118 -1.78289e-05 -1.06953e-05
-1.26861e-05 -1.06953e-05 -0.000138468
0.000874302 4.07158e-05 1.5897e-06
4.07158e-05 0.000277119 -2.75849e-07
1.5897e-06 -2.75849e-07 0.000149414
0.00104567 0.000180414 -1.4047e-06
0.000180414 0.000413821 -3.81833e-06
-1.4047e-06 -3.81833e-06 0.000288855
0.00153896 0.000150206 8.19049e-06
0.000150206 0.000888941 -1.88995e-05
8.19049e-06 -1.88995e-05 0.000635561
0.00626956 0.00125015 0.000469831
0.00125015 0.00446704 0.000534304
0.000469831 0.000534304 -0.000432704
0.00268494 0.00102889 2.34191e-05
0.00102889 0.000235259 9.1661e-05
2.34191e-05 9.1661e-05 -0.00149185
0.00499778 -0.000275848 6.82691e-05
-0.000275848 -0.000227627 -2.00531e-05
6.82691e-05 -2.00531e-05 -0.000933372
0.0143155 -0.0014629 -0.000294988
-0.0014629 0.00216804 -0.0001345
-0.000294988 -0.0001345 0.00389519
-0.00276015 0.00111164 8.17051e-05
0.00111164 -0.00239989 0.000424973
8.17051e-05 0.000424973 -0.00743835
0.00236882 -0.00281779 -5.0431e-05
-0.00281779 0.000644526 -3.91427e-05
-5.0431e-05 -3.91427e-05 0.000840472
0.00736514 -0.0022017 -0.000182259
-0.0022017 0.00534875 3.94629e-05
-0.000182259 3.94629e-05 -0.000209565
0.000966702 -0.00121724 -0.000123586
-0.00121724 0.00109863 0.000128824
-0.000123586 0.000128824 0.00069637
0.0102474 -4.49214e-05 -0.000199343
-4.49214e-05 0.00711149 -1.4246e-06
-0.000199343 -1.4246e-06 0.000233129
0.00683121 -0.00274638 0.000100584
-0.00274638 0.00425569 0.000206636
0.000100584 0.000206636 -0.00116372
0.0191881 -0.00468302 -8.13592e-05
-0.00468302 0.00437177 -0.000792027
-8.13592e-05 -0.000792027 0.0013549
0.00163308 0.000220627 -0.000148516
0.000220627 0.00287417 0.000108684
-0.000148516 0.000108684 0.0015322
0.0119371 0.00277794 -0.000260166
0.00277794 0.00725981 -1.84551e-05
-0.000260166 -1.84551e-05 0.0016765
0.0204961 -0.00765275 -4.72209e-05
-0.00765275 0.0109379 -0.000795206
-4.72209e-05 -0.000795206 0.00503368
0.0255221 -0.00988991 9.90961e-05
-0.00988991 0.011148 -7.50691e-05
9.90961e-05 -7.50691e-05 0.0068213
0.000855833 0.000299145 2.13411e-05
0.000299145 0.000543059 -1.26361e-05
2.13411e-05 -1.26361e-05 0.000173006
-6.17243e-05 4.42377e-05 4.53029e-06
4.42377e-05 5.30305e-05 2.01761e-06
4.53029e-06 2.01761e-06 -0.000272531
0.00110101 0.000201189 -1.9288e-05
0.000201189 0.000523199 -1.96973e-05
-1.9288e-05 -1.96973e-05 0.000349348
0.00291558 -0.000909013 7.7549e-05
-0.000909013 0.00211746 8.3809e-06
7.7549e-05 8.3809e-06 0.000559472
-0.00038685 -0.000130848 4.71671e-05
-0.000130848 0.000741161 -2.49048e-05
4.71671e-05 -2.49048e-05 0.000152644
-0.000120636 7.60094e-05 -6.71899e-06
7.60094e-05 -6.18111e-05 -2.66927e-06
-6.71899e-06 -2.66927e-06 -0.000278042
-0.000420385 -5.79815e-05 1.52845e-05
-5.79815e-05 0.000311501 -3.47571e-06
1.52845e-05 -3.47571e-06 -0.000250017
-2.07573e-05 0.000138227 -1.06985e-06
0.000138227 0.000165868 -9.93599e-07
-1.06985e-06 -9.93599e-07 -0.000122668
0.000192932 0.000328389 1.56142e-05
0.000328389 0.000631589 2.93319e-06
1.56142e-05 2.93319e-06 3.77339e-05
-0.00235799 2.19828e-05 0.000227236
2.19828e-05 0.00104572 -3.01571e-05
0.000227236 -3.01571e-05 -0.000958174
-0.000531859 0.000471434 4.99581e-06
0.000471434 -0.000263697 1.7563e-05
4.99581e-06 1.7563e-05 -0.000666345
0.00256532 0.00096861 -0.000146323
0.00096861 0.00219886 -9.66081e-05
-0.000146323 -9.66081e-05 0.000669335
0.0010447 0.000150047 0.000212713
0.000150047 0.00176875 7.40937e-05
0.000212713 7.40937e-05 -0.00275976
-0.00253883 0.000266442 -8.91037e-05
0.000266442 0.00176711 1.19451e-05
-8.91037e-05 1.19451e-05 0.000261381
0.00278542 -0.000281143 -4.33049e-05
-0.000281143 0.00105734 -3.16089e-06
-4.33049e-05 -3.16089e-06 0.000980487
-0.000218701 0.000566888 0.000112648
0.000566888 0.000727271 1.42939e-05
0.000112648 1.42939e-05 -0.000432855
0.0013032 0.000310432 -0.00011513
0.000310432 0.00278578 0.000109818
-0.00011513 0.000109818 0.00123636
-0.000511779 -0.000268994 -7.10752e-06
-0.000268994 0.00195955 -2.06536e-05
-7.10752e-06 -2.06536e-05 0.00083462
0.0165159 -0.00463585 0.000262372
-0.00463585 0.008784 -0.000130632
0.000262372 -0.000130632 0.00214169
0.0239142 0.0054876 -0.000246055
0.0054876 0.0114675 -0.000188737
-0.000246055 -0.000188737 0.00534414
0.0052898 -0.00189811 -0.00033762
-0.00189811 0.00276816 0.000283171
-0.00033762 0.000283171 -0.00183582
0.00907965 0.0113518 0.00275806
0.0113518 0.00751009 -0.00168167
0.00275806 -0.00168167 0.00260121
0.00114762 -0.000601122 4.49999e-05
-0.000601122 0.00163388 -1.36098e-05
4.49999e-05 -1.36098e-05 0.000435226
-0.00036945 -0.00063179 5.56109e-05
-0.00063179 0.000552209 1.16239e-05
5.56109e-05 1.16239e-05 -0.00366123
0.00137696 0.00148313 -0.00130939
0.00148313 0.00746255 0.000334661
-0.00130939 0.000334661 0.00247472
0.000188396 -0.000931295 2.44849e-05
-0.000931295 0.00137121 2.90191e-05
2.44849e-05 2.90191e-05 0.000492985
0.0208825 0.00699915 0.000391186
0.00699915 0.00709849 0.000108855
0.000391186 0.000108855 0.00188927
0.0080046 -0.0058082 0.000251642
-0.0058082 0.00271416 -8.45632e-05
0.000251642 -8.45632e-05 -0.00136286
0.000305083 -0.00139538 1.84845e-06
-0.00139538 0.000501389 2.91783e-05
1.84845e-06 2.91783e-05 -0.000489627
-0.00564679 -0.00194594 0.000169871
-0.00194594 0.00645332 -9.40787e-05
0.000169871 -9.40787e-05 0.00210389
0.017007 0.00700696 -0.00175803
0.00700696 0.00675781 0.00052494
-0.00175803 0.00052494 0.00280072
0.00630665 -0.00431995 -0.000486546
-0.00431995 -0.000655053 0.000206737
-0.000486546 0.000206737 -0.00375833
0.000356626 -0.00211443 0.000194435
-0.00211443 -0.000127763 -0.000139174
0.000194435 -0.000139174 0.000822329
0.00135353 -0.000606249 -0.000113521
-0.000606249 0.00098155 3.53053e-05
-0.000113521 3.53053e-05 0.000444991
0.000849635 -0.000683479 -1.17017e-05
-0.000683479 0.000613613 1.23745e-05
-1.17017e-05 1.23745e-05 0.000188477
0.00295646 -0.000989509 1.67856e-05
-0.000989509 0.00135205 -2.10802e-05
1.67856e-05 -2.10802e-05 0.000908983
-0.00103502 -0.000239483 1.06014e-05
-0.000239483 -0.000399497 6.37136e-06
1.06014e-05 6.37136e-06 -0.000690135
0.00117449 -0.000717321 1.49406e-06
-0.000717321 0.000312605 -3.33675e-06
1.49406e-06 -3.33675e-06 -9.06554e-05
0.00323819 -0.00111468 7.46684e-06
-0.00111468 0.00102271 -6.0796e-06
7.46684e-06 -6.0796e-06 0.000575745
0.00426925 -0.00105645 -2.91862e-05
-0.00105645 0.00201761 5.35052e-07
-2.91862e-05 5.35052e-07 0.00135065
0.00155446 -0.000850887 -1.91087e-06
-0.000850887 0.000303566 -1.51458e-06
-1.91087e-06 -1.51458e-06 -0.000342415
0.00226287 -0.00106302 -9.46603e-07
-0.00106302 0.000431028 -1.10077e-05
-9.46603e-07 -1.10077e-05 -8.93329e-05
0.00288092 -0.000977676 6.51196e-06
-0.000977676 0.00107553 7.57148e-06
6.51196e-06 7.57148e-06 0.000433871
0.00233066 -0.000984719 1.89039e-06
-0.000984719 0.000643635 -4.29574e-06
1.89039e-06 -4.29574e-06 5.04783e-05
0.00263498 -0.000867461 -3.87788e-06
-0.000867461 0.000577865 -9.02824e-06
-3.87788e-06 -9.02824e-06 0.000163039
0.00182637 -0.000551102 -3.97347e-06
-0.000551102 2.92097e-06 -2.09297e-06
-3.97347e-06 -2.09297e-06 -0.00025124
0.00195634 -0.000800446 -5.10535e-07
-0.000800446 0.000181893 -1.56824e-06
-5.10535e-07 -1.56824e-06 -0.000230795
0.00224977 -0.000812864 3.26821e-06
-0.000812864 0.000394793 -2.66597e-06
3.26821e-06 -2.66597e-06 -2.08194e-05
0.00242522 -0.000871665 -4.75979e-06
-0.000871665 0.000722268 -6.01051e-07
-4.75979e-06 -6.01051e-07 0.00025362
0.00255761 -0.000982625 -3.33855e-06
-0.000982625 0.000745428 -4.91008e-08
-3.33855e-06 -4.91008e-08 0.000220182
0.00259605 -0.00100346 1.01151e-05
-0.00100346 0.000770454 -5.43912e-06
1.01151e-05 -5.43912e-06 0.000208559
0.00189027 -0.000670803 6.99229e-06
-0.000670803 0.000633489 -8.30292e-07
6.99229e-06 -8.30292e-07 0.00020609
0.00154817 -0.000726999 2.31876e-06
-0.000726999 0.000390758 -6.67696e-07
2.31876e-06 -6.67696e-07 -6.23503e-05
0.00132509 -0.000704296 4.0203e-06
-0.000704296 0.0002358 1.41045e-06
4.0203e-06 1.41045e-06 -0.00021743
0.00141532 -0.000354011 5.08838e-08
-0.000354011 0.00048096 1.1918e-06
5.08838e-08 1.1918e-06 0.000198499
0.00119959 -0.000452744 1.29641e-06
-0.000452744 0.000313753 2.68147e-07
1.29641e-06 2.68147e-07 -3.09761e-05
0.00167859 -0.000591503 -4.71908e-06
-0.000591503 0.000567287 9.18624e-07
-4.71908e-06 9.18624e-07 0.000160031
-0.000215057 -0.000117931 -2.23671e-06
-0.000117931 -0.000422644 2.0697e-06
-2.23671e-06 2.0697e-06 -0.00065874
0.000682129 -0.000243452 -1.21413e-06
-0.000243452 0.000139723 -1.09692e-06
-1.21413e-06 -1.09692e-06 -0.000141665
0.000847647 -0.000289911 -3.44701e-06
-0.000289911 0.000194637 -2.89055e-07
-3.44701e-06 -2.89055e-07 -6.58107e-05
0.00192502 4.73401e-06 -5.35473e-05
4.73401e-06 0.00091614 9.71764e-06
-5.35473e-05 9.71764e-06 0.000862071
0.00072266 -0.000131574 -2.31644e-07
-0.000131574 0.00016615 -3.48251e-07
-2.31644e-07 -3.48251e-07 -1.95317e-05
0.00133269 -0.00023663 6.91012e-07
-0.00023663 0.0006162 4.62816e-06
6.91012e-07 4.62816e-06 0.000334117
0.000742625 2.87825e-05 -5.80564e-05
2.87825e-05 0.000166638 6.44651e-06
-5.80564e-05 6.44651e-06 0.000154966
0.0011811 -3.96275e-07 -1.92737e-05
-3.96275e-07 0.000440634 -6.52067e-07
-1.92737e-05 -6.52067e-07 0.000391371
0.000873156 -0.000105841 3.83995e-06
-0.000105841 0.000249239 -5.75933e-06
3.83995e-06 -5.75933e-06 0.000110149
0.000592741 -5.25243e-06 3.52467e-06
-5.25243e-06 6.50856e-05 -1.01389e-05
3.52467e-06 -1.01389e-05 2.12589e-05
0.00311624 0.000125474 9.27025e-06
0.000125474 0.00168091 7.9511e-07
9.27025e-06 7.9511e-07 0.00167826
0.00286419 0.00010052 4.07525e-05
0.00010052 0.00151093 -4.81735e-06
4.07525e-05 -4.81735e-06 0.00151439
0.000958949 0.000186387 1.36466e-05
0.000186387 0.000406796 -4.25409e-07
1.36466e-05 -4.25409e-07 0.000151233
0.00154425 0.000195223 4.91503e-06
0.000195223 0.000798288 -2.44009e-06
4.91503e-06 -2.44009e-06 0.000551729
-0.000348409 3.26359e-05 1.32975e-06
3.26359e-05 -0.000398946 -2.09896e-07
1.32975e-06 -2.09896e-07 -0.000610134
0.000597952 5.73172e-05 2.50253e-06
5.73172e-05 9.33293e-05 -7.09145e-06
2.50253e-06 -7.09145e-06 -2.31664e-05
0.000728355 0.000118771 4.44907e-07
0.000118771 0.000233183 2.11545e-07
4.44907e-07 2.11545e-07 5.14954e-05
0.000436304 1.02603e-05 -8.88933e-07
1.02603e-05 -3.70331e-05 -9.29323e-06
-8.88933e-07 -9.29323e-06 -7.00766e-05
0.000557154 5.13817e-05 -8.4117e-08
5.13817e-05 6.56476e-05 -4.56819e-07
-8.4117e-08 -4.56819e-07 -3.41803e-05
0.000635949 4.68222e-05 -5.46248e-06
4.68222e-05 0.000174067 1.11785e-06
-5.46248e-06 1.11785e-06 1.41252e-05
0.00261502 -6.87267e-05 -3.64224e-05
-6.87267e-05 0.00134587 -5.08226e-06
-3.64224e-05 -5.08226e-06 0.00135589
0.000432867 3.07274e-06 -2.06056e-07
3.07274e-06 -4.53705e-05 -4.99033e-08
-2.06056e-07 -4.99033e-08 -7.15736e-05
0.000519888 6.07214e-05 -2.21074e-06
6.07214e-05 4.10842e-05 2.71661e-06
-2.21074e-06 2.71661e-06 -4.57879e-05
0.00236973 -5.01557e-05 -6.39938e-06
-5.01557e-05 0.00118531 4.01801e-07
-6.39938e-06 4.01801e-07 0.00119854
0.000418995 -1.18678e-05 -5.69717e-06
-1.18678e-05 -5.73757e-05 5.27693e-06
-5.69717e-06 5.27693e-06 -7.73859e-05
0.0022198 -3.09089e-05 2.24969e-05
-3.09089e-05 0.00108787 4.8966e-06
2.24969e-05 4.8966e-06 0.0011039
0.00672831 0.000848558 0.000398488
0.000848558 0.00421439 9.2699e-05
0.000398488 9.2699e-05 0.00158256
-0.00224378 0.000256955 -5.34332e-06
0.000256955 0.000580187 -9.91419e-06
-5.34332e-06 -9.91419e-06 -0.000513713
0.000493598 0.000278445 -9.35888e-06
0.000278445 0.000911951 -1.27654e-05
-9.35888e-06 -1.27654e-05 0.000149185
-0.000609295 0.000125305 -1.0235e-05
0.000125305 -0.000740426 3.19341e-06
-1.0235e-05 3.19341e-06 -0.000917919
-3.91876e-05 2.73316e-05 -6.71981e-06
2.73316e-05 -0.000257523 -8.73608e-07
-6.71981e-06 -8.73608e-07 -0.00042856
-0.000249968 5.53521e-05 -5.06514e-06
5.53521e-05 -0.000385109 -1.25372e-05
-5.06514e-06 -1.25372e-05 -0.00055596
0.0015894 8.28093e-05 3.21766e-06
8.28093e-05 0.000767014 6.17472e-07
3.21766e-06 6.17472e-07 0.000587687
0.000266889 0.000126255 -3.35817e-06
0.000126255 -0.000139194 -4.52303e-06
-3.35817e-06 -4.52303e-06 -0.000312876
0.00246445 0.000351476 -1.025e-05
0.000351476 0.00132295 -3.92735e-06
-1.025e-05 -3.92735e-06 0.00110268
0.00116628 0.000278583 -3.97746e-06
0.000278583 0.00043575 -1.23965e-05
-3.97746e-06 -1.23965e-05 0.000106341
-0.00149654 0.000137664 9.80332e-07
0.000137664 -0.000811457 4.85339e-07
9.80332e-07 4.85339e-07 -0.00119512
0.000561526 0.00012462 -8.36321e-06
0.00012462 0.000117308 -4.45595e-06
-8.36321e-06 -4.45595e-06 -2.55665e-05
-0.00018198 5.52795e-05 -1.56067e-05
5.52795e-05 -0.00041318 -8.02183e-06
-1.56067e-05 -8.02183e-06 -0.00049379
-0.00048909 2.93584e-05 -1.36941e-06
2.93584e-05 -0.000350787 2.02436e-06
-1.36941e-06 2.02436e-06 -0.000606666
0.000873892 0.000339196 1.96703e-05
0.000339196 0.000627201 -2.81791e-07
1.96703e-05 -2.81791e-07 0.000153842
0.00484064 -0.00406509 8.92186e-05
-0.00406509 0.00700666 0.000245324
8.92186e-05 0.000245324 0.000490503
0.00704446 0.00171471 0.000177156
0.00171471 0.00352986 0.00018487
0.000177156 0.00018487 -0.00189973
0.00354627 0.000603461 -2.97775e-05
0.000603461 0.000844917 -8.08875e-05
-2.97775e-05 -8.08875e-05 -0.00113364
0.0283262 -0.00622131 -0.000897923
-0.00622131 0.00822191 -0.000422746
-0.000897923 -0.000422746 0.00470218
0.00542938 -0.00170367 0.000300519
-0.00170367 0.00415762 0.000536691
0.000300519 0.000536691 0.000204477
0.00292989 -0.00178508 -0.000268523
-0.00178508 0.00524159 0.000119957
-0.000268523 0.000119957 -0.00236526
-0.00145934 -0.000713806 0.000108489
-0.000713806 0.00118305 2.25947e-05
0.000108489 2.25947e-05 0.000116595
-0.000841789 -0.000130789 0.000139393
-0.000130789 0.00128763 5.15896e-05
0.000139393 5.15896e-05 0.000431417
0.0184742 -0.0105349 0.00050736
-0.0105349 0.00945131 0.000479542
0.00050736 0.000479542 0.00478052
0.00231813 0.00180744 -0.000118723
0.00180744 0.00465384 -9.48868e-05
-0.000118723 -9.48868e-05 -0.00219593
0.010023 -0.00420076 -0.000140886
-0.00420076 0.00546455 0.000125945
-0.000140886 0.000125945 -0.000839809
0.000124823 0.000791926 -2.10928e-05
0.000791926 0.00119336 4.95437e-05
-2.10928e-05 4.95437e-05 0.000666813
0.0105803 0.00467837 -0.00014022
0.00467837 0.00358051 4.15798e-06
-0.00014022 4.15798e-06 -0.000366338
0.0185273 -0.00734457 -0.000910851
-0.00734457 0.00628278 -0.000501379
-0.000910851 -0.000501379 0.000912635
0.000566902 0.000624193 9.16635e-06
0.000624193 -7.85129e-05 -1.22885e-05
9.16635e-06 -1.22885e-05 -0.000245055
0.000501299 0.000216313 7.35594e-06
0.000216313 0.000306083 6.19618e-06
7.35594e-06 6.19618e-06 -8.72469e-06
-0.000273832 4.31715e-05 -1.64573e-05
4.31715e-05 -7.95607e-05 -3.24609e-06
-1.64573e-05 -3.24609e-06 -0.000400979
-0.00340128 -0.000310289 -0.000125025
-0.000310289 0.000244804 -6.04052e-05
-0.000125025 -6.04052e-05 -0.00165418
-0.000564177 0.000243437 5.92119e-06
0.000243437 -3.78247e-05 -1.50361e-05
5.92119e-06 -1.50361e-05 -0.00058756
0.00107983 0.000247422 -6.10945e-06
0.000247422 0.000779329 1.17947e-05
-6.10945e-06 1.17947e-05 0.000466579
0.00124735 0.00074088 1.30466e-05
0.00074088 0.000656726 3.79927e-06
1.30466e-05 3.79927e-06 0.000217864
-0.000398324 0.000574588 4.00986e-05
0.000574588 0.000813532 -3.2957e-05
4.00986e-05 -3.2957e-05 -0.000491878
0.00115959 0.00157304 7.73748e-05
0.00157304 0.000257812 4.55113e-06
7.73748e-05 4.55113e-06 -0.000704872
-0.00649581 0.00122526 0.00041322
0.00122526 0.00578894 -2.97434e-06
0.00041322 -2.97434e-06 -0.00187898
0.00227682 -0.000272628 -1.25401e-05
-0.000272628 0.00212635 7.55862e-05
-1.25401e-05 7.55862e-05 -0.000926285
-0.00289957 -3.68862e-05 -1.82358e-05
-3.68862e-05 0.00120157 6.70022e-05
-1.82358e-05 6.70022e-05 -5.82023e-05
-0.000604825 -0.000341956 -6.43583e-05
-0.000341956 0.000794622 1.76242e-05
-6.43583e-05 1.76242e-05 -0.000465476
-0.00163992 -0.000574163 -7.67733e-05
-0.000574163 -0.000170777 6.15704e-05
-7.67733e-05 6.15704e-05 2.4554e-06
-0.000554963 -0.000579951 -0.000216334
-0.000579951 0.00103339 0.000141742
-0.000216334 0.000141742 -0.00351445
-0.00123547 -0.0043929 0.000265166
-0.0043929 0.00204329 -0.000112429
0.000265166 -0.000112429 -0.00419046
0.0132964 0.00574432 0.000778633
0.00574432 0.00220246 -0.000473632
0.000778633 -0.000473632 -0.0026076
0.0129864 0.00445609 -0.000444132
0.00445609 0.00879639 0.000382913
-0.000444132 0.000382913 0.00339273
0.001044 -0.000987536 -1.67046e-05
-0.000987536 0.00140472 6.56182e-07
-1.67046e-05 6.56182e-07 0.000462309
0.00248944 0.000782219 0.000166469
0.000782219 0.00837317 -3.25929e-05
0.000166469 -3.25929e-05 0.00353014
0.00240609 0.00479658 8.42213e-06
0.00479658 0.0012516 7.90069e-05
8.42213e-06 7.90069e-05 -0.00284526
0.00254853 -0.00307474 8.7275e-05
-0.00307474 0.00084909 -5.04799e-05
8.7275e-05 -5.04799e-05 0.00108995
0.0165309 -0.00487536 5.99529e-06
-0.00487536 0.00259716 3.38397e-06
5.99529e-06 3.38397e-06 0.000705908
0.00325314 -0.00189578 -1.19129e-06
-0.00189578 0.00134025 1.90535e-05
-1.19129e-06 1.90535e-05 0.000861781
-0.00750984 0.00150269 -0.00071447
0.00150269 -0.00195138 0.00011782
-0.00071447 0.00011782 -0.00529483
0.0158876 -0.00311422 -0.000225769
-0.00311422 0.00156693 6.77134e-05
-0.000225769 6.77134e-05 0.000392098
0.00404203 -0.00302031 0.000123825
-0.00302031 2.52334e-05 -7.65959e-05
0.000123825 -7.65959e-05 0.000843077
0.000201788 -0.00051932 -1.92076e-07
-0.00051932 0.000319957 7.68253e-06
-1.92076e-07 7.68253e-06 -0.000140521
0.0017528 -0.000977303 3.14748e-06
-0.000977303 0.000589563 -4.66101e-06
3.14748e-06 -4.66101e-06 0.000254955
0.00442685 -0.00110822 2.19121e-05
-0.00110822 0.00170188 -1.83723e-05
2.19121e-05 -1.83723e-05 0.00131536
-0.000238916 -0.000539648 -7.33912e-06
-0.000539648 -0.000400913 1.05541e-05
-7.33912e-06 1.05541e-05 -0.000800896
0.00170052 -0.000935179 -3.16585e-06
-0.000935179 0.000231145 1.3022e-06
-3.16585e-06 1.3022e-06 -0.000212759
0.00334188 -0.00117081 2.47525e-06
-0.00117081 0.000880876 -7.85166e-06
2.47525e-06 -7.85166e-06 0.000431546
0.0014535 -0.000808768 -9.65981e-06
-0.000808768 0.000229179 9.81848e-06
-9.65981e-06 9.81848e-06 -0.000394809
0.00207335 -0.00103098 -7.62423e-07
-0.00103098 0.000338235 2.58428e-06
-7.62423e-07 2.58428e-06 -0.000183431
0.00204671 -0.000826384 -3.84102e-06
-0.000826384 7.76356e-05 -5.25568e-06
-3.84102e-06 -5.25568e-06 -0.000242162
0.00175878 -0.000915376 4.31508e-06
-0.000915376 0.00030849 4.51911e-06
4.31508e-06 4.51911e-06 -0.000260086
0.00212418 -0.000797681 -1.70678e-06
-0.000797681 0.000299914 1.6849e-06
-1.70678e-06 1.6849e-06 -9.81536e-05
0.00215067 -0.000588541 -2.65039e-06
-0.000588541 0.000121403 -3.00888e-06
-2.65039e-06 -3.00888e-06 -0.000100425
0.00196379 -0.000496146 -4.14041e-06
-0.000496146 8.04416e-05 9.84872e-08
-4.14041e-06 9.84872e-08 -0.000103398
0.00178093 -0.000566162 -4.68304e-06
-0.000566162 -2.45686e-06 -1.55195e-06
-4.68304e-06 -1.55195e-06 -0.000268508
0.00189067 -0.000550614 1.69889e-06
-0.000550614 4.2281e-05 2.66402e-06
1.69889e-06 2.66402e-06 -0.000208343
0.00176153 -0.000695131 -5.37396e-06
-0.000695131 0.000130372 -2.84681e-06
-5.37396e-06 -2.84681e-06 -0.000240069
0.00214061 -0.000809982 2.85596e-06
-0.000809982 0.000314273 -1.38974e-07
2.85596e-06 -1.38974e-07 -9.53548e-05
0.00224141 -0.000814201 5.7711e-06
-0.000814201 0.000384528 1.15143e-06
5.7711e-06 1.15143e-06 -2.96365e-05
0.0018378 -0.000735326 -1.08398e-06
-0.000735326 0.000407124 -2.17307e-06
-1.08398e-06 -2.17307e-06 -2.96998e-05
0.00225606 -0.000858465 2.09991e-06
-0.000858465 0.000615473 -6.77578e-07
2.09991e-06 -6.77578e-07 0.000146682
0.00245923 -0.000968225 3.38895e-06
-0.000968225 0.000698358 -2.81579e-06
3.38895e-06 -2.81579e-06 0.000170607
0.0012819 -0.000437968 -7.88384e-06
-0.000437968 0.000291328 3.6122e-06
-7.88384e-06 3.6122e-06 -3.12112e-05
0.00165137 -0.000634956 1.54895e-06
-0.000634956 0.000481888 8.47044e-07
1.54895e-06 8.47044e-07 6.65794e-05
0.00130526 -0.000686405 -3.13403e-06
-0.000686405 0.000261517 1.64846e-06
-3.13403e-06 1.64846e-06 -0.000178684
0.000569278 -0.000230933 -7.92509e-06
-0.000230933 -2.07254e-05 -1.37512e-07
-7.92509e-06 -1.37512e-07 -0.000239863
0.0010328 -0.000334368 1.41487e-06
-0.000334368 0.000229702 -8.00668e-07
1.41487e-06 -8.00668e-07 -4.83675e-05
0.000618652 -0.000378817 -7.78312e-06
-0.000378817 -2.2245e-05 4.87948e-07
-7.78312e-06 4.87948e-07 -0.00034799
0.000330622 -7.39188e-05 -1.47563e-05
-7.39188e-05 -0.000118971 1.40285e-05
-1.47563e-05 1.40285e-05 -0.000201243
0.00085198 -0.000202437 3.10737e-06
-0.000202437 0.000251603 1.57455e-06
3.10737e-06 1.57455e-06 5.52692e-06
0.000574441 -0.000274029 -3.86343e-07
-0.000274029 9.24198e-05 1.07962e-06
-3.86343e-07 1.07962e-06 -0.000198899
0.0040762 0.000252185 9.24611e-06
0.000252185 0.0023385 6.39393e-06
9.24611e-06 6.39393e-06 0.00229585
0.000426412 -4.48075e-05 3.96058e-07
-4.48075e-05 -4.62991e-05 -1.96321e-07
3.96058e-07 -1.96321e-07 -0.000114278
0.00126433 -0.000132166 2.83591e-07
-0.000132166 0.000505232 -5.78469e-06
2.83591e-07 -5.78469e-06 0.000314905
0.00350663 0.000143273 9.78071e-06
0.000143273 0.00193675 7.06665e-07
9.78071e-06 7.06665e-07 0.0019296
0.000581821 -2.03144e-05 6.11098e-06
-2.03144e-05 5.61029e-05 -1.20568e-05
6.11098e-06 -1.20568e-05 1.38098e-06
0.00315586 0.000116195 6.01695e-05
0.000116195 0.00170403 -5.31195e-06
6.01695e-05 -5.31195e-06 0.00170379
0.00225891 0.000380175 5.2217e-06
0.000380175 0.0011172 1.77984e-06
5.2217e-06 1.77984e-06 0.000857161
0.000711907 0.000189354 2.61726e-07
0.000189354 0.000257693 -4.70317e-06
2.61726e-07 -4.70317e-06 -4.06199e-06
0.00142388 0.000244814 -1.10363e-06
0.000244814 0.000719285 -4.25711e-06
-1.10363e-06 -4.25711e-06 0.000441891
0.000755253 9.27838e-05 1.77341e-06
9.27838e-05 0.000192533 -7.06043e-06
1.77341e-06 -7.06043e-06 5.17797e-05
0.000817665 0.000113006 5.3619e-07
0.000113006 0.000327422 1.44126e-06
5.3619e-07 1.44126e-06 9.37772e-05
0.000220376 0.000121492 -2.81102e-06
0.000121492 8.0461e-06 2.66523e-06
-2.81102e-06 2.66523e-06 -0.000244147
0.000539569 7.78565e-07 -1.65013e-06
7.78565e-07 3.75474e-05 -1.15262e-05
-1.65013e-06 -1.15262e-05 -5.42581e-06
0.000550132 4.72447e-05 -3.98487e-07
4.72447e-05 6.67249e-05 -1.48407e-07
-3.98487e-07 -1.48407e-07 -5.02169e-05
0.000180232 8.90324e-05 -5.50411e-06
8.90324e-05 -0.000138534 3.66024e-06
-5.50411e-06 3.66024e-06 -0.000299925
0.00272466 -8.51602e-05 -4.49589e-05
-8.51602e-05 0.00142123 -5.23438e-06
-4.49589e-05 -5.23438e-06 0.0014285
0.00040208 -2.41965e-05 2.89592e-06
-2.41965e-05 -5.5436e-05 -2.6913e-07
2.89592e-06 -2.6913e-07 -8.93088e-05
0.000473342 4.67701e-05 -3.78544e-06
4.67701e-05 1.90389e-05 4.5207e-06
-3.78544e-06 4.5207e-06 -8.16462e-05
0.00254331 -6.85044e-05 -7.0485e-06
-6.85044e-05 0.00130008 5.33698e-07
-7.0485e-06 5.33698e-07 0.00131003
0.00042592 5.55647e-07 -2.74095e-06
5.55647e-07 -4.98281e-05 6.66101e-06
-2.74095e-06 6.66101e-06 -7.55191e-05
0.002324 -4.92962e-05 2.42127e-05
-4.92962e-05 0.00115612 4.94018e-06
2.42127e-05 4.94018e-06 0.00116963
-0.00923447 0.00111874 -0.000161388
0.00111874 0.00440909 7.88313e-05
-0.000161388 7.88313e-05 -0.00269064
0.00633135 0.000652702 1.59219e-05
0.000652702 0.00389022 -8.46097e-07
1.59219e-05 -8.46097e-07 0.001382
-0.00175406 0.000189721 7.4655e-05
0.000189721 0.00060035 3.91969e-05
7.4655e-05 3.91969e-05 -0.000761268
0.000149445 0.000163754 -4.33706e-08
0.000163754 -0.000221925 4.39354e-06
-4.33706e-08 4.39354e-06 -0.00044293
0.00341669 0.00075524 1.84256e-05
0.00075524 0.00176979 1.34423e-05
1.84256e-05 1.34423e-05 0.00136624
0.000239558 0.000176126 -8.99275e-06
0.000176126 -9.87997e-06 4.33222e-06
-8.99275e-06 4.33222e-06 -0.000368958
0.000377639 7.04466e-05 -8.20115e-06
7.04466e-05 2.62519e-05 -2.37463e-05
-8.20115e-06 -2.37463e-05 -0.000163146
0.00318052 0.000359034 3.53002e-06
0.000359034 0.00164687 -2.15899e-06
3.53002e-06 -2.15899e-06 0.00144895
-0.00119395 1.21482e-05 -1.43198e-05
1.21482e-05 -0.000928871 1.09375e-05
-1.43198e-05 1.09375e-05 -0.00108671
-0.000121368 0.000156107 -9.41706e-07
0.000156107 -0.000102525 7.94907e-06
-9.41706e-07 7.94907e-06 -0.000414424
0.000380228 0.000157465 -3.71414e-06
0.000157465 2.86329e-05 -6.1105e-06
-3.71414e-06 -6.1105e-06 -0.000304983
0.00153997 0.000617307 7.29059e-06
0.000617307 0.000761 -2.28841e-05
7.29059e-06 -2.28841e-05 0.00026456
-0.000578981 0.000504233 -2.0981e-05
0.000504233 -0.000665463 5.78559e-05
-2.0981e-05 5.78559e-05 -0.000823433
0.00146657 6.81531e-05 -1.75527e-05
6.81531e-05 0.000793408 1.81758e-05
-1.75527e-05 1.81758e-05 0.00057088
0.00168251 0.000350889 7.69473e-06
0.000350889 0.00109565 -9.44178e-06
7.69473e-06 -9.44178e-06 0.000679072
0.00203187 -0.00289427 -0.00191919
-0.00289427 0.00229056 -0.000282375
-0.00191919 -0.000282375 -0.00229518
-0.00118932 -0.00313678 0.000638714
-0.00313678 0.00718311 0.000200645
0.000638714 0.000200645 0.000697919
0.00781331 0.00217183 -0.00068827
0.00217183 0.00325438 -0.000232948
-0.00068827 -0.000232948 -0.0026433
0.00895594 -0.011303 0.0027344
-0.011303 0.00762024 0.00162499
0.0027344 0.00162499 0.00237409
0.028801 -0.00425296 4.51628e-05
-0.00425296 0.0101209 0.000417252
4.51628e-05 0.000417252 0.00560212
-0.00360659 0.00144851 -2.75473e-05
0.00144851 0.00263873 -0.000200018
-2.75473e-05 -0.000200018 -0.00341322
-0.00245022 0.000173645 -0.000326318
0.000173645 0.00129581 -6.00175e-05
-0.000326318 -6.00175e-05 -0.000511089
0.00060681 0.000817697 7.74957e-05
0.000817697 0.0016847 5.69712e-05
7.74957e-05 5.69712e-05 0.00124969
0.0213561 -0.00568939 -0.000757485
-0.00568939 0.00899338 1.64973e-05
-0.000757485 1.64973e-05 0.00374255
-0.0022858 0.00368662 -0.000147557
0.00368662 0.000460468 -4.95724e-05
-0.000147557 -4.95724e-05 -0.00440242
0.0034818 0.00259309 2.62052e-05
0.00259309 0.00112722 -7.74905e-05
2.62052e-05 -7.74905e-05 0.00188386
0.00429762 0.00586882 -0.000509347
0.00586882 -0.00190491 -0.000117317
-0.000509347 -0.000117317 -0.00435713
0.00336187 0.0013031 2.51592e-05
0.0013031 0.00129917 -6.32229e-06
2.51592e-05 -6.32229e-06 0.000905406
0.00109657 0.000640121 -4.63586e-06
0.000640121 0.000303619 -2.98103e-06
-4.63586e-06 -2.98103e-06 0.000140703
-0.00024954 0.000183789 -1.63084e-05
0.000183789 -0.000156159 1.429e-05
-1.63084e-05 1.429e-05 -0.000462511
-0.00165379 0.000421193 -9.72805e-05
0.000421193 0.000235178 -7.22876e-05
-9.72805e-05 -7.22876e-05 -0.000884122
0.00186043 0.000832345 -4.59863e-05
0.000832345 0.000921463 -2.6849e-05
-4.59863e-05 -2.6849e-05 0.000480066
0.00218042 0.00171849 1.04219e-05
0.00171849 0.000649563 -9.06659e-06
1.04219e-05 -9.06659e-06 -0.000298703
-0.00115239 0.00176019 0.000103438
0.00176019 -0.00191228 5.52585e-05
0.000103438 5.52585e-05 -0.0023152
-0.00663805 -0.000576606 -0.000711372
-0.000576606 -0.00391514 5.62391e-05
-0.000711372 5.62391e-05 -0.00448804
-0.00940852 0.000518012 0.000475521
0.000518012 0.00615798 1.85686e-05
0.000475521 1.85686e-05 -0.000710171
0.0028649 -4.75857e-05 -0.000146829
-4.75857e-05 0.00212701 3.41264e-05
-0.000146829 3.41264e-05 0.000186605
0.00188146 -0.00113743 -6.48002e-05
-0.00113743 0.00139376 -4.52569e-05
-6.48002e-05 -4.52569e-05 0.000488609
-0.000923954 -0.00222298 9.74865e-05
-0.00222298 -0.000584142 4.19203e-05
9.74865e-05 4.19203e-05 -0.000327474
0.000868642 0.000900177 0.000120616
0.000900177 0.00804187 5.83911e-05
0.000120616 5.83911e-05 0.00297432
0.00337466 -0.00420371 0.000553094
-0.00420371 -0.00182522 -0.000102451
0.000553094 -0.000102451 -0.0035696
0.025055 0.00411371 0.00106216
0.00411371 0.0110942 -9.41441e-05
0.00106216 -9.41441e-05 0.00723043
0.0017156 -0.00200432 -2.20821e-05
-0.00200432 0.000423809 3.73763e-06
-2.20821e-05 3.73763e-06 -0.00032327
0.00305941 0.00185208 0.000322229
0.00185208 0.0013226 -9.79988e-05
0.000322229 -9.79988e-05 -0.00152884
0.00757572 -0.00275182 -0.000197014
-0.00275182 -0.00308789 0.000162849
-0.000197014 0.000162849 -0.00504382
0.00305077 -0.00292653 -7.71153e-06
-0.00292653 -0.000870817 2.5453e-05
-7.71153e-06 2.5453e-05 0.000366609
0.00260921 -0.00164671 7.72181e-05
-0.00164671 0.000224487 -2.05481e-05
7.72181e-05 -2.05481e-05 -3.0966e-06
0.0185608 -0.000999601 -0.000100594
-0.000999601 0.0035398 6.10496e-05
-0.000100594 6.10496e-05 0.00248855
0.00271243 -0.0020875 0.000135662
-0.0020875 -0.00346902 -8.43928e-05
0.000135662 -8.43928e-05 -0.00157154
-0.000878785 -0.000766311 -2.2455e-05
-0.000766311 -0.000931512 3.76487e-05
-2.2455e-05 3.76487e-05 -0.00108851
0.000277065 -0.00068767 -4.14157e-05
-0.00068767 -0.000560632 4.54505e-06
-4.14157e-05 4.54505e-06 -0.000736953
0.00635059 -0.0012807 6.23809e-05
-0.0012807 0.00238812 -2.58138e-05
6.23809e-05 -2.58138e-05 0.00212686
0.000139143 -0.000734645 -8.82702e-06
-0.000734645 -0.000547988 5.92747e-06
-8.82702e-06 5.92747e-06 -0.000979834
0.00220489 -0.00102449 -2.82473e-06
-0.00102449 0.000297203 -3.01097e-06
-2.82473e-06 -3.01097e-06 -0.000115694
0.002875 -0.00091722 -7.52872e-08
-0.00091722 0.000344111 -4.53808e-06
-7.52872e-08 -4.53808e-06 0.000128243
0.00216968 -0.00103459 7.74972e-06
-0.00103459 0.000392927 1.02983e-05
7.74972e-06 1.02983e-05 -0.000135732
0.00232312 -0.000845809 -1.85543e-06
-0.000845809 0.000236578 3.00911e-07
-1.85543e-06 3.00911e-07 -8.35384e-05
0.00220348 -0.000611597 -9.30842e-07
-0.000611597 7.6592e-06 -7.2433e-07
-9.30842e-07 -7.2433e-07 -0.000108558
0.0017785 -0.000748872 8.88129e-06
-0.000748872 0.000108576 6.95848e-06
8.88129e-06 6.95848e-06 -0.000277215
0.00207945 -0.000575529 -3.5142e-07
-0.000575529 7.79987e-05 2.56191e-06
-3.5142e-07 2.56191e-06 -0.000135083
0.00216188 -0.000556519 -2.73747e-06
-0.000556519 8.67503e-05 2.33713e-06
-2.73747e-06 2.33713e-06 -5.05851e-05
0.0021222 -0.000526983 -4.1513e-06
-0.000526983 0.000160414 1.60832e-06
-4.1513e-06 1.60832e-06 -5.65518e-07
0.00208667 -0.000506573 -3.08422e-06
-0.000506573 0.000148075 3.07853e-06
-3.08422e-06 3.07853e-06 -3.18886e-05
0.00213874 -0.000510961 -2.4978e-06
-0.000510961 0.000239029 -2.83869e-06
-2.4978e-06 -2.83869e-06 4.23502e-05
0.00210586 -0.000601226 -6.55066e-06
-0.000601226 0.000225933 -2.53404e-06
-6.55066e-06 -2.53404e-06 -5.09113e-05
0.00202089 -0.00058394 1.55666e-06
-0.00058394 0.000153055 1.02311e-06
1.55666e-06 1.02311e-06 -0.00011369
0.00196838 -0.000552576 5.1771e-06
-0.000552576 8.53671e-05 7.06159e-06
5.1771e-06 7.06159e-06 -0.000162202
0.00201339 -0.000695564 -7.32876e-06
-0.000695564 0.000345508 -2.96803e-06
-7.32876e-06 -2.96803e-06 -3.15971e-05
0.00176852 -0.000704535 -6.13629e-07
-0.000704535 0.000119863 1.36213e-07
-6.13629e-07 1.36213e-07 -0.000254767
0.00230395 -0.000819067 7.99658e-06
-0.000819067 0.000431663 1.47035e-06
7.99658e-06 1.47035e-06 2.49769e-05
0.00145676 -0.00055306 -1.2146e-05
-0.00055306 0.000261789 3.25899e-06
-1.2146e-05 3.25899e-06 -0.00010894
0.00194359 -0.000747905 -5.11814e-07
-0.000747905 0.000470461 8.54299e-07
-5.11814e-07 8.54299e-07 3.1269e-05
0.00213295 -0.000852355 4.51333e-06
-0.000852355 0.000534724 6.05697e-07
4.51333e-06 6.05697e-07 6.42564e-05
0.000683816 -0.000231981 -8.02763e-06
-0.000231981 1.94531e-05 6.12891e-06
-8.02763e-06 6.12891e-06 -0.000205411
0.00129019 -0.000446927 1.41257e-06
-0.000446927 0.000286973 3.63394e-07
1.41257e-06 3.63394e-07 -3.96651e-05
0.00131651 -0.000592099 -2.52827e-06
-0.000592099 0.000264446 2.30196e-06
-2.52827e-06 2.30196e-06 -0.000138171
0.000483688 -0.000149752 -2.58301e-05
-0.000149752 -5.54283e-05 1.52597e-05
-2.58301e-05 1.52597e-05 -0.000158234
0.000595088 -0.000227027 -2.82005e-06
-0.000227027 2.53464e-05 5.38532e-07
-2.82005e-06 5.38532e-07 -0.00021402
0.000538757 -0.000335891 2.34263e-06
-0.000335891 -8.62891e-05 -1.36241e-06
2.34263e-06 -1.36241e-06 -0.000371865
0.00456914 0.000221465 -9.48567e-05
0.000221465 0.00265181 9.04586e-06
-9.48567e-05 9.04586e-06 0.00262072
0.000559085 -9.2976e-05 2.07935e-06
-9.2976e-05 1.96569e-05 -1.22023e-07
2.07935e-06 -1.22023e-07 -6.86601e-05
0.00153173 -0.000286885 7.31087e-06
-0.000286885 0.000672872 -3.01497e-06
7.31087e-06 -3.01497e-06 0.000422587
0.00264927 0.000136554 5.88212e-05
0.000136554 0.00140738 1.45477e-06
5.88212e-05 1.45477e-06 0.00138023
0.000663494 -5.12328e-05 1.26663e-05
-5.12328e-05 9.69862e-05 -1.3991e-05
1.26663e-05 -1.3991e-05 2.53149e-05
0.00374086 0.00013251 9.05371e-05
0.00013251 0.0020851 -6.09744e-06
9.05371e-05 -6.09744e-06 0.00208063
0.00183389 0.000379215 2.67405e-06
0.000379215 0.000726887 -3.8038e-06
2.67405e-06 -3.8038e-06 0.000484836
0.000430588 0.000172439 -4.99264e-06
0.000172439 -7.06056e-05 1.14378e-08
-4.99264e-06 1.14378e-08 -0.000276633
0.000397946 0.000185841 9.4336e-07
0.000185841 1.96012e-05 -7.29222e-06
9.4336e-07 -7.29222e-06 -0.000236766
0.000318863 0.000152774 -2.06484e-06
0.000152774 -1.26719e-05 9.3081e-06
-2.06484e-06 9.3081e-06 -0.000248989
0.000698953 0.000115378 5.29389e-07
0.000115378 0.00024457 2.42372e-07
5.29389e-07 2.42372e-07 -1.12141e-05
0.00110365 0.000133835 -5.6837e-07
0.000133835 0.000406086 -9.64231e-06
-5.6837e-07 -9.64231e-06 0.000235221
0.000603705 4.46009e-05 -6.78755e-06
4.46009e-05 7.54921e-05 -1.39091e-05
-6.78755e-06 -1.39091e-05 2.19392e-05
0.000714253 8.42691e-05 5.37828e-07
8.42691e-05 0.000172131 -1.81163e-07
5.37828e-07 -1.81163e-07 3.17866e-05
-0.000526314 2.02434e-05 -6.06413e-06
2.02434e-05 -0.000549361 1.5042e-06
-6.06413e-06 1.5042e-06 -0.000755725
0.00303549 -0.000100047 -6.47615e-05
-0.000100047 0.00162758 -5.97064e-06
-6.47615e-05 -5.97064e-06 0.00163171
0.00038627 2.10649e-05 1.1227e-06
2.10649e-05 -5.82757e-05 -3.44724e-07
1.1227e-06 -3.44724e-07 -0.00010081
0.00066902 6.25268e-05 -3.55467e-06
6.25268e-05 0.000147128 7.5148e-06
-3.55467e-06 7.5148e-06 2.74055e-05
0.00277925 -8.85337e-05 -7.86492e-06
-8.85337e-05 0.00145697 6.78579e-07
-7.86492e-06 6.78579e-07 0.00146302
0.000349532 -1.31139e-05 -1.15249e-06
-1.31139e-05 -8.68509e-05 8.33217e-06
-1.15249e-06 8.33217e-06 -0.000120529
0.00254588 -6.88004e-05 3.01915e-05
-6.88004e-05 0.00130148 5.17117e-06
3.01915e-05 5.17117e-06 0.00131119
0.0018794 -4.56872e-05 -0.00105683
-4.56872e-05 0.00420809 -7.25717e-05
-0.00105683 -7.25717e-05 0.00192127
-0.00574217 8.75888e-05 2.83998e-05
8.75888e-05 0.0055501 -1.246e-05
2.83998e-05 -1.246e-05 -0.0018405
0.00611587 0.000319121 -0.000320419
0.000319121 0.00371909 -8.63714e-05
-0.000320419 -8.63714e-05 0.00138395
-0.000463311 5.80822e-05 5.2066e-06
5.80822e-05 -0.000593847 -6.18967e-06
5.2066e-06 -6.18967e-06 -0.000817478
0.000401438 0.000119293 7.20547e-06
0.000119293 1.20814e-05 6.69609e-06
7.20547e-06 6.69609e-06 -0.000320612
0.00302998 0.00068321 -3.79925e-06
0.00068321 0.00155956 3.53585e-06
-3.79925e-06 3.53585e-06 0.00116572
0.00230259 0.000782036 1.86174e-05
0.000782036 0.000963934 9.57586e-06
1.86174e-05 9.57586e-06 0.000459942
0.000937904 0.000529068 1.14091e-05
0.000529068 0.000432547 8.74006e-06
1.14091e-05 8.74006e-06 -1.16024e-05
0.00171128 0.000247389 -8.29367e-06
0.000247389 0.000995907 6.12841e-06
-8.29367e-06 6.12841e-06 0.000690641
0.00179046 0.000255429 1.06759e-05
0.000255429 0.000934862 9.42011e-06
1.06759e-05 9.42011e-06 0.000619
0.000829908 0.000534784 -4.32093e-06
0.000534784 0.000385877 -7.25398e-08
-4.32093e-06 -7.25398e-08 -0.00010276
0.000210537 0.000714771 1.79169e-05
0.000714771 -0.000393421 -8.93407e-06
1.79169e-05 -8.93407e-06 -0.000773771
0.00274318 0.000954871 -8.54381e-06
0.000954871 0.00106671 2.78454e-05
-8.54381e-06 2.78454e-05 0.000789657
0.00159942 0.000993085 3.26676e-05
0.000993085 0.000126661 1.32001e-05
3.26676e-05 1.32001e-05 -3.46367e-05
0.00153538 0.000728106 -3.95274e-06
0.000728106 0.000584926 -2.8714e-06
-3.95274e-06 -2.8714e-06 0.000327314
0.00207045 0.000476349 -6.3453e-06
0.000476349 0.00120872 3.30445e-05
-6.3453e-06 3.30445e-05 0.000795529
0.013939 0.00305435 -0.000138936
0.00305435 0.00140992 5.66235e-05
-0.000138936 5.66235e-05 0.000348573
0.00413314 -0.00249042 -0.0006637
-0.00249042 0.00431689 -0.00022774
-0.0006637 -0.00022774 0.000769412
0.000880799 -0.00447486 0.000988517
-0.00447486 0.00794853 0.000240765
0.000988517 0.000240765 0.00136308
0.0114386 -0.00330061 0.000381082
-0.00330061 0.00461695 0.000319429
0.000381082 0.000319429 -9.15062e-05
0.0138566 0.00578023 -0.000109088
0.00578023 0.00460911 -5.80636e-05
-0.000109088 -5.80636e-05 0.000477579
-0.00295238 0.000346142 -4.28118e-05
0.000346142 0.000298179 -3.8945e-05
-4.28118e-05 -3.8945e-05 -0.000254963
0.00205552 0.00220885 -7.58494e-05
0.00220885 0.000505395 -2.85667e-05
-7.58494e-05 -2.85667e-05 0.00141444
0.0165005 0.00563529 2.03725e-05
0.00563529 0.00295644 3.93214e-05
2.03725e-05 3.93214e-05 0.000399608
0.00690842 0.00419896 -0.000115698
0.00419896 -0.000321689 -0.000121536
-0.000115698 -0.000121536 0.000375054
0.00183356 0.00135826 4.20984e-06
0.00135826 0.000219941 7.42917e-06
4.20984e-06 7.42917e-06 -8.91815e-05
0.00161189 0.00102986 1.23248e-05
0.00102986 0.000462508 -4.23218e-06
1.23248e-05 -4.23218e-06 0.000135071
0.00168297 0.000638797 -3.32297e-05
0.000638797 0.000755386 5.66159e-06
-3.32297e-05 5.66159e-06 0.000585682
0.00241706 0.00184155 -7.46905e-05
0.00184155 0.000608275 -2.8092e-05
-7.46905e-05 -2.8092e-05 -0.000318806
0.0015315 0.00208412 8.72704e-05
0.00208412 -0.000756671 4.67208e-05
8.72704e-05 4.67208e-05 -0.00127654
0.00317411 -0.000290976 -0.000142268
-0.000290976 -0.00534592 4.94936e-05
-0.000142268 4.94936e-05 -0.00560868
0.000467602 -0.00198027 1.3747e-05
-0.00198027 0.00265782 2.32145e-05
1.3747e-05 2.32145e-05 0.00124786
-0.0127684 -0.000352642 0.000378225
-0.000352642 0.00682224 -2.21472e-05
0.000378225 -2.21472e-05 0.000886087
0.00112146 -0.00229135 -7.09008e-05
-0.00229135 -0.000198787 3.38023e-05
-7.09008e-05 3.38023e-05 -0.00116866
0.00642138 -0.00378936 2.75009e-05
-0.00378936 0.000290374 5.03341e-05
2.75009e-05 5.03341e-05 0.00100644
0.00324886 0.000194077 0.00113396
0.000194077 0.00434153 -0.000268146
0.00113396 -0.000268146 0.00223274
0.0147946 -0.00292043 -0.000343278
-0.00292043 0.00149636 0.000180951
-0.000343278 0.000180951 0.000917316
0.00177235 -0.00162486 -3.05487e-05
-0.00162486 -0.000169702 3.45852e-06
-3.05487e-05 3.45852e-06 -0.000511932
0.0117272 -0.000174604 -0.000218299
-0.000174604 -0.00165641 7.97078e-05
-0.000218299 7.97078e-05 -0.002318
0.0071975 -0.00241965 9.64621e-05
-0.00241965 -0.000699399 1.08434e-05
9.64621e-05 1.08434e-05 0.000446747
0.00369571 -0.00139003 6.5513e-05
-0.00139003 0.000233367 -4.34021e-05
6.5513e-05 -4.34021e-05 0.000102634
0.00245602 -0.000917122 9.48553e-06
-0.000917122 -0.00251199 3.23907e-06
9.48553e-06 3.23907e-06 -0.000975506
-0.00422451 -0.000250266 9.64212e-06
-0.000250266 -0.00301653 1.79038e-05
9.64212e-06 1.79038e-05 -0.00301751
0.00139208 -0.000816834 -2.06869e-05
-0.000816834 -0.000357652 2.92188e-06
-2.06869e-05 2.92188e-06 -0.000367117
0.00380331 -0.000862674 3.92769e-05
-0.000862674 0.000720139 -1.41606e-05
3.92769e-05 -1.41606e-05 0.000774848
0.00131782 -0.000916832 -1.00678e-05
-0.000916832 -0.000164355 7.55462e-06
-1.00678e-05 7.55462e-06 -0.000549742
0.00230515 -0.0008639 -4.09251e-06
-0.0008639 3.82638e-05 3.21709e-06
-4.09251e-06 3.21709e-06 -0.000172431
0.00252085 -0.000696651 5.29839e-06
-0.000696651 -9.5713e-06 -5.10045e-07
5.29839e-06 -5.10045e-07 -2.8795e-05
0.00221821 -0.000818778 -2.6991e-06
-0.000818778 0.000194402 9.25823e-06
-2.6991e-06 9.25823e-06 -0.000115452
0.00219918 -0.000609766 4.72754e-07
-0.000609766 4.29296e-06 1.41331e-06
4.72754e-07 1.41331e-06 -0.000109448
0.00234876 -0.000607233 -7.32092e-07
-0.000607233 6.8361e-05 6.54397e-07
-7.32092e-07 6.54397e-07 1.63629e-05
0.00195505 -0.000556069 5.41536e-06
-0.000556069 5.67392e-06 5.66233e-06
5.41536e-06 5.66233e-06 -0.000196975
0.00213062 -0.000553318 4.87112e-08
-0.000553318 6.76662e-05 1.25704e-06
4.87112e-08 1.25704e-06 -6.7301e-05
0.00228541 -0.000591434 -2.25395e-06
-0.000591434 0.000132823 1.97639e-06
-2.25395e-06 1.97639e-06 1.29309e-05
0.00212725 -0.00053475 -4.59463e-06
-0.00053475 0.000153907 2.07279e-06
-4.59463e-06 2.07279e-06 -3.73026e-06
0.00222519 -0.000526393 -1.43802e-06
-0.000526393 0.000267674 -2.42679e-07
-1.43802e-06 -2.42679e-07 9.63043e-05
0.00219057 -0.000515984 2.39037e-06
-0.000515984 0.000205962 4.43145e-06
2.39037e-06 4.43145e-06 3.01347e-05
0.00212979 -0.000510148 7.09351e-07
-0.000510148 0.000232349 -5.7751e-07
7.09351e-07 -5.7751e-07 3.59705e-05
0.0020483 -0.000528106 -3.42824e-06
-0.000528106 0.000187405 -1.97605e-06
-3.42824e-06 -1.97605e-06 -2.94382e-05
0.0021418 -0.000587034 -3.70233e-06
-0.000587034 0.000322903 -4.23971e-06
-3.70233e-06 -4.23971e-06 3.29319e-05
0.0021703 -0.000609694 -5.33468e-07
-0.000609694 0.000269256 5.14926e-08
-5.33468e-07 5.14926e-08 -1.05972e-05
0.00225655 -0.000600756 7.95924e-06
-0.000600756 0.000307847 3.96642e-06
7.95924e-06 3.96642e-06 4.06459e-05
0.00172852 -0.000589776 -1.13345e-05
-0.000589776 0.000273428 2.3736e-06
-1.13345e-05 2.3736e-06 -9.03132e-05
0.00194327 -0.000687626 -1.98983e-06
-0.000687626 0.000302134 -3.7549e-07
-1.98983e-06 -3.7549e-07 -7.59803e-05
0.00179051 -0.000715001 5.84166e-06
-0.000715001 0.000117806 2.23563e-06
5.84166e-06 2.23563e-06 -0.000261201
0.000850554 -0.000282059 -1.22322e-05
-0.000282059 4.39246e-05 8.32388e-06
-1.22322e-05 8.32388e-06 -0.000199045
0.00147732 -0.000553636 5.2999e-07
-0.000553636 0.000281696 3.71651e-07
5.2999e-07 3.71651e-07 -8.82491e-05
0.00204175 -0.000757921 2.93574e-06
-0.000757921 0.000531759 2.62721e-06
2.93574e-06 2.62721e-06 9.11151e-05
0.00023918 -0.000192394 -2.09176e-05
-0.000192394 -0.000212571 1.97238e-05
-2.09176e-05 1.97238e-05 -0.000343289
0.000622251 -0.0002353 -2.71301e-07
-0.0002353 -1.45777e-05 4.00484e-07
-2.71301e-07 4.00484e-07 -0.000245678
0.00107513 -0.000423378 8.8833e-06
-0.000423378 0.000144831 -1.68972e-06
8.8833e-06 -1.68972e-06 -0.000176505
0.00542782 0.00015437 -0.000162061
0.00015437 0.0031723 1.07281e-05
-0.000162061 1.07281e-05 0.00315913
0.000501676 -0.000170713 -4.51544e-06
-0.000170713 -4.12828e-05 -9.29631e-07
-4.51544e-06 -9.29631e-07 -0.000150288
0.00109879 -0.000276944 5.47966e-06
-0.000276944 0.000361074 -3.50427e-06
5.47966e-06 -3.50427e-06 0.000103273
0.00482114 0.00017645 2.05516e-05
0.00017645 0.0028007 8.61666e-08
2.05516e-05 8.61666e-08 0.00278182
0.000657952 -0.000119528 2.33652e-05
-0.000119528 7.87066e-05 -1.47056e-05
2.33652e-05 -1.47056e-05 -1.45887e-05
0.00427447 0.000141107 0.000124145
0.000141107 0.00243461 -8.80082e-06
0.000124145 -8.80082e-06 0.00242754
0.00247934 0.000692425 6.50771e-06
0.000692425 0.00108668 4.87344e-07
6.50771e-06 4.87344e-07 0.000653125
0.000732724 0.000296048 -1.84563e-06
0.000296048 5.21823e-05 -2.98701e-06
-1.84563e-06 -2.98701e-06 -0.000184349
0.000376551 0.000172614 4.97957e-06
0.000172614 -0.000133309 2.39682e-06
4.97957e-06 2.39682e-06 -0.000344887
-0.000749356 5.72481e-05 -2.4217e-06
5.72481e-05 -0.00080012 9.81297e-07
-2.4217e-06 9.81297e-07 -0.0010055
0.000317522 0.000149461 6.96427e-07
0.000149461 -7.04637e-05 1.86153e-06
6.96427e-07 1.86153e-06 -0.000302342
0.00102128 0.000135052 -1.06356e-06
0.000135052 0.000354967 -1.22866e-05
-1.06356e-06 -1.22866e-05 0.000149458
0.000206513 7.17177e-05 -3.26525e-06
7.17177e-05 -7.89334e-05 2.07092e-06
-3.26525e-06 2.07092e-06 -0.000322633
0.000615983 9.93102e-05 8.80041e-09
9.93102e-05 0.000115977 6.50022e-07
8.80041e-09 6.50022e-07 -5.85289e-05
0.000552836 5.62665e-05 -1.00949e-05
5.62665e-05 4.00028e-05 -1.65294e-05
-1.00949e-05 -1.65294e-05 -2.84595e-05
0.00340477 -0.000107841 -9.33047e-05
-0.000107841 0.0018726 -8.03384e-06
-9.33047e-05 -8.03384e-06 0.0018744
0.000398329 2.04703e-05 1.48341e-06
2.04703e-05 -4.74386e-05 -4.57765e-07
1.48341e-06 -4.57765e-07 -0.000102009
0.000399436 6.4204e-05 -2.87238e-06
6.4204e-05 -2.15497e-05 8.26057e-06
-2.87238e-06 8.26057e-06 -0.000158372
0.00292902 -0.00010809 -9.11443e-06
-0.00010809 0.00156064 8.73397e-07
-9.11443e-06 8.73397e-07 0.00156218
0.00026929 -5.5176e-05 -7.84133e-06
-5.5176e-05 -0.000123226 1.11225e-05
-7.84133e-06 1.11225e-05 -0.000169896
0.00269849 -8.78381e-05 3.75603e-05
-8.78381e-05 0.00140567 5.25193e-06
3.75603e-05 5.25193e-06 0.00141147
0.015505 0.000686189 0.000551758
0.000686189 0.0016802 0.000132995
0.000551758 0.000132995 0.00160293
-0.000456438 -0.00344235 -0.000632701
-0.00344235 -0.00215999 -9.21908e-05
-0.000632701 -9.21908e-05 -0.00501958
-0.00946963 0.0016573 -0.000241058
0.0016573 0.00510001 -0.000130112
-0.000241058 -0.000130112 -0.00243392
-4.9845e-05 5.49004e-05 1.48562e-05
5.49004e-05 -0.000267126 -1.15063e-05
1.48562e-05 -1.15063e-05 -0.000614545
0.00150974 0.000493387 -8.13372e-06
0.000493387 0.000638336 -1.37875e-06
-8.13372e-06 -1.37875e-06 0.000279074
0.00268825 0.000710404 -1.11414e-05
0.000710404 0.00143789 -2.99918e-06
-1.11414e-05 -2.99918e-06 0.000949403
0.00141265 0.000665054 1.13739e-06
0.000665054 0.000426554 -9.20494e-07
1.13739e-06 -9.20494e-07 -4.64061e-05
0.00153832 0.000731415 1.17457e-05
0.000731415 0.000285601 2.01507e-05
1.17457e-05 2.01507e-05 -0.000164092
-0.000560783 0.000527098 3.51036e-05
0.000527098 -0.000793734 9.73602e-06
3.51036e-05 9.73602e-06 -0.0011804
0.000229166 0.000410158 -1.41771e-05
0.000410158 9.57264e-05 9.1002e-06
-1.41771e-05 9.1002e-06 -0.000400659
-0.000179318 0.000644786 7.56349e-06
0.000644786 -0.000632898 -1.54056e-06
7.56349e-06 -1.54056e-06 -0.000986665
0.00222912 0.000902083 1.11216e-05
0.000902083 0.000828944 7.00413e-06
1.11216e-05 7.00413e-06 0.000507277
-2.83054e-05 0.000677893 6.43852e-06
0.000677893 -0.000678124 -6.12804e-06
6.43852e-06 -6.12804e-06 -0.000964439
0.00387164 0.00115587 7.03531e-06
0.00115587 0.00136338 1.30497e-05
7.03531e-06 1.30497e-05 0.00113655
0.00143962 0.00097971 2.24826e-05
0.00097971 6.00124e-05 7.22523e-06
2.24826e-05 7.22523e-06 -0.000268688
0.000625951 0.000866192 4.86821e-06
0.000866192 -0.000436444 -3.38646e-07
4.86821e-06 -3.38646e-07 -0.00051747
0.000890433 0.000606571 -5.16858e-06
0.000606571 0.000213671 -6.17299e-05
-5.16858e-06 -6.17299e-05 -1.72293e-05
0.00459238 0.00202195 2.47277e-05
0.00202195 -0.0022099 3.21903e-05
2.47277e-05 3.21903e-05 -0.000317444
0.0140799 0.003726 0.000321256
0.003726 0.000425785 0.000177115
0.000321256 0.000177115 -0.00101183
0.0125592 -0.00512748 0.000665032
-0.00512748 0.00612354 -5.1308e-05
0.000665032 -5.1308e-05 0.00205009
0.00584604 0.00592051 0.000657713
0.00592051 -0.00117925 0.000361617
0.000657713 0.000361617 -0.00529919
-0.000241819 0.00150548 -5.33065e-05
0.00150548 1.17545e-05 1.06871e-05
-5.33065e-05 1.06871e-05 0.000690038
0.00377064 0.0027756 -0.000102606
0.0027756 -0.000865471 -5.48529e-05
-0.000102606 -5.48529e-05 0.000254953
0.00644964 0.00246097 6.47767e-05
0.00246097 0.00114769 3.48767e-05
6.47767e-05 3.48767e-05 0.000915506
0.00477721 0.00180794 2.30664e-05
0.00180794 0.00153141 9.48865e-06
2.30664e-05 9.48865e-06 0.00111868
0.000254525 0.000818636 -2.97237e-05
0.000818636 -0.000249048 3.19362e-06
-2.97237e-05 3.19362e-06 -0.000495415
0.00770154 0.00288165 -0.00019432
0.00288165 0.0021064 -2.03277e-05
-0.00019432 -2.03277e-05 0.00136107
0.00320202 -0.000623404 7.62506e-06
-0.000623404 -0.0011184 2.07699e-05
7.62506e-06 2.07699e-05 -5.71677e-05
0.0116954 -0.000597618 -5.47557e-05
-0.000597618 0.000653433 -2.34432e-05
-5.47557e-05 -2.34432e-05 0.000914654
-0.013043 -0.00326374 0.000920588
-0.00326374 -0.00482404 6.06386e-07
0.000920588 6.06386e-07 -0.00645576
0.0011656 -0.00143737 -0.000124487
-0.00143737 -0.000374739 3.85677e-05
-0.000124487 3.85677e-05 -0.000658415
0.0084269 -0.00293779 -2.86575e-05
-0.00293779 -0.000795819 8.57252e-05
-2.86575e-05 8.57252e-05 0.0005875
0.00127611 -0.000320551 -0.000329304
-0.000320551 -0.00560906 4.24346e-05
-0.000329304 4.24346e-05 -0.00695473
0.00312575 -0.00120795 3.54833e-05
-0.00120795 -9.28636e-05 1.37841e-06
3.54833e-05 1.37841e-06 7.62966e-05
0.00525294 -0.000872621 -5.6322e-05
-0.000872621 -0.000790611 2.34372e-06
-5.6322e-05 2.34372e-06 0.000295976
0.00632598 -0.00102111 5.40619e-05
-0.00102111 0.0014572 -3.54334e-05
5.40619e-05 -3.54334e-05 0.00185742
0.00592952 -0.000554794 0.000117327
-0.000554794 0.00121669 -1.93339e-06
0.000117327 -1.93339e-06 0.00161524
-0.00309181 -0.000422163 1.13554e-05
-0.000422163 -0.00291609 1.23297e-05
1.13554e-05 1.23297e-05 -0.00263605
0.00217029 -0.000728081 -7.97216e-06
-0.000728081 -0.000221549 2.27772e-06
-7.97216e-06 2.27772e-06 -4.32576e-05
0.00239888 -0.000550952 2.55825e-05
-0.000550952 -0.000268338 -6.31442e-06
2.55825e-05 -6.31442e-06 2.51301e-05
0.00189639 -0.00083158 1.73589e-06
-0.00083158 -0.000186546 5.16279e-06
1.73589e-06 5.16279e-06 -0.00039797
0.00245137 -0.000691084 1.29062e-06
-0.000691084 -4.23118e-05 1.69533e-06
1.29062e-06 1.69533e-06 -6.22412e-05
0.00249963 -0.000605484 1.35649e-06
-0.000605484 1.86817e-05 -2.05409e-07
1.35649e-06 -2.05409e-07 2.74746e-05
0.00223032 -0.000613134 3.26026e-06
-0.000613134 2.08751e-05 4.96194e-06
3.26026e-06 4.96194e-06 -9.31315e-05
0.00231029 -0.000601043 2.25967e-07
-0.000601043 5.92551e-05 4.26592e-07
2.25967e-07 4.26592e-07 1.91945e-06
0.0023089 -0.00053318 -2.16302e-06
-0.00053318 4.89309e-05 2.6531e-07
-2.16302e-06 2.6531e-07 -7.74678e-06
0.0021171 -0.000552474 3.74396e-06
-0.000552474 5.83647e-05 6.62078e-07
3.74396e-06 6.62078e-07 -7.56971e-05
0.0022695 -0.000586092 -8.23585e-08
-0.000586092 0.000149747 -1.01286e-08
-8.23585e-08 -1.01286e-08 2.69903e-05
0.0021588 -0.000519473 8.26559e-08
-0.000519473 0.000127073 7.69077e-07
8.26559e-08 7.69077e-07 -1.8576e-06
0.00214231 -0.000543077 -1.4905e-06
-0.000543077 0.000153174 7.8144e-07
-1.4905e-06 7.8144e-07 -1.65465e-06
0.00215907 -0.000516872 -1.68091e-06
-0.000516872 0.000222568 1.85375e-07
-1.68091e-06 1.85375e-07 5.44356e-05
0.00224058 -0.000515445 -2.54675e-06
-0.000515445 0.000294 2.39999e-08
-2.54675e-06 2.39999e-08 0.000106491
0.0021293 -0.00050851 4.62742e-06
-0.00050851 0.000230806 1.94404e-06
4.62742e-06 1.94404e-06 3.51112e-05
0.00208424 -0.000530352 -3.61347e-07
-0.000530352 0.000208707 -5.16843e-08
-3.61347e-07 -5.16843e-08 -8.56395e-06
0.0021305 -0.000527243 -1.22482e-06
-0.000527243 0.000279879 -2.35169e-06
-1.22482e-06 -2.35169e-06 3.96843e-05
0.00180469 -0.000521254 -8.36533e-06
-0.000521254 0.000221245 -9.24358e-07
-8.36533e-06 -9.24358e-07 -8.26301e-05
0.00207201 -0.000587154 -6.82169e-07
-0.000587154 0.000276993 -1.26859e-06
-6.82169e-07 -1.26859e-06 -1.92277e-05
0.00223639 -0.000618705 4.80245e-06
-0.000618705 0.00031408 2.69085e-06
4.80245e-06 2.69085e-06 3.10318e-05
0.00105632 -0.000331203 -1.86488e-05
-0.000331203 5.3248e-05 9.88238e-06
-1.86488e-05 9.88238e-06 -0.00020185
0.00177937 -0.000586831 -3.08673e-07
-0.000586831 0.000315758 9.2933e-07
-3.08673e-07 9.2933e-07 -4.47567e-05
0.0018859 -0.000680585 2.98531e-06
-0.000680585 0.000267173 1.99051e-06
2.98531e-06 1.99051e-06 -0.000112032
0.000298409 -0.000202852 -1.82649e-05
-0.000202852 -0.000202391 2.15337e-05
-1.82649e-05 2.15337e-05 -0.00034361
0.000795153 -0.000288634 1.54974e-06
-0.000288634 2.16869e-06 -1.16277e-07
1.54974e-06 -1.16277e-07 -0.000245826
0.00151872 -0.000555826 1.24507e-05
-0.000555826 0.000315464 -2.22497e-06
1.24507e-05 -2.22497e-06 -5.39178e-05
0.00652627 7.26802e-05 -0.000241682
7.26802e-05 0.00383322 1.59713e-05
-0.000241682 1.59713e-05 0.00383558
0.000347283 -0.000203485 -1.84664e-06
-0.000203485 -0.000145573 -3.80438e-07
-1.84664e-06 -3.80438e-07 -0.000277341
0.000602256 -0.00024146 9.61504e-06
-0.00024146 -2.29812e-05 -6.7951e-06
9.61504e-06 -6.7951e-06 -0.000260595
0.00588779 0.00011077 -9.14538e-06
0.00011077 0.00345988 -2.11041e-06
-9.14538e-06 -2.11041e-06 0.00345213
0.000413611 -0.000170233 2.10081e-05
-0.000170233 -8.87274e-05 -1.75294e-05
2.10081e-05 -1.75294e-05 -0.000204344
0.00525383 0.000116348 0.00019105
0.000116348 0.00306935 -1.90687e-05
0.00019105 -1.90687e-05 0.00306167
0.00190092 0.000693163 -4.90361e-06
0.000693163 0.00055385 4.73968e-06
-4.90361e-06 4.73968e-06 0.000125311
0.00184432 0.000615432 -1.53964e-06
0.000615432 0.000665455 -1.40368e-06
-1.53964e-06 -1.40368e-06 0.000256946
0.00101318 0.000375823 -1.59894e-06
0.000375823 0.000170764 -2.68329e-06
-1.59894e-06 -2.68329e-06 -0.000132159
0.00136768 0.000394731 -9.15531e-06
0.000394731 0.000495672 -2.8817e-06
-9.15531e-06 -2.8817e-06 0.000220121
0.000394097 0.00019682 1.75619e-06
0.00019682 -0.000100936 -5.3461e-07
1.75619e-06 -5.3461e-07 -0.000327239
0.00076924 0.000241071 -3.16736e-06
0.000241071 0.00018255 -7.21429e-06
-3.16736e-06 -7.21429e-06 -5.76255e-05
9.23916e-05 9.38969e-05 -1.72629e-07
9.38969e-05 -0.000227276 2.89001e-06
-1.72629e-07 2.89001e-06 -0.000446668
0.000638351 0.000145764 1.03189e-06
0.000145764 0.000137321 -6.08897e-07
1.03189e-06 -6.08897e-07 -8.24101e-05
0.000702728 9.75718e-05 -1.80068e-05
9.75718e-05 0.000119491 -1.83593e-05
-1.80068e-05 -1.83593e-05 3.31568e-05
0.000179866 7.09808e-05 -2.69204e-06
7.09808e-05 -0.000134509 1.09309e-05
-2.69204e-06 1.09309e-05 -0.000319106
0.000523144 6.31463e-05 2.46633e-07
6.31463e-05 2.64145e-05 -1.71325e-07
2.46633e-07 -1.71325e-07 -4.08743e-05
0.00411602 -0.000132049 -0.000119826
-0.000132049 0.00234015 -1.09045e-05
-0.000119826 -1.09045e-05 0.00233427
0.00340116 -0.00013206 -1.2119e-05
-0.00013206 0.00187385 1.05053e-06
-1.2119e-05 1.05053e-06 0.00186918
0.000364106 5.0609e-05 6.89955e-06
5.0609e-05 -6.80189e-05 1.39745e-05
6.89955e-06 1.39745e-05 -0.000121317
0.00294902 -0.000110723 4.59011e-05
-0.000110723 0.00157375 5.45744e-06
4.59011e-05 5.45744e-06 0.00157448
0.00381043 0.000210976 9.41836e-05
0.000210976 -0.00149898 3.10897e-05
9.41836e-05 3.10897e-05 0.000210956
0.00569773 -0.000907636 0.000206857
-0.000907636 -0.00479318 9.82221e-05
0.000206857 9.82221e-05 -0.0055824
0.0137859 -0.00374913 -0.00025753
-0.00374913 0.00592958 -0.000112439
-0.00025753 -0.000112439 0.00382959
0.00157215 0.000703753 5.8301e-06
0.000703753 9.93682e-05 9.63252e-06
5.8301e-06 9.63252e-06 -0.000278539
0.00484695 0.000931823 -1.4119e-05
0.000931823 0.00265739 -2.54341e-06
-1.4119e-05 -2.54341e-06 0.00214055
0.000565107 0.000552536 -1.05775e-05
0.000552536 -8.36222e-05 -7.31513e-06
-1.05775e-05 -7.31513e-06 -0.0005261
0.00154316 0.000787511 1.32027e-06
0.000787511 0.000468131 -3.39295e-06
1.32027e-06 -3.39295e-06 2.21236e-05
0.00178637 0.000761037 -1.63796e-06
0.000761037 0.000460952 3.87193e-06
-1.63796e-06 3.87193e-06 -2.28105e-06
0.00162247 0.000825652 2.24856e-05
0.000825652 0.000295352 1.35569e-05
2.24856e-05 1.35569e-05 -0.000103118
0.00250114 0.000937897 -4.45409e-05
0.000937897 0.00097786 -2.99473e-06
-4.45409e-05 -2.99473e-06 0.000545723
0.000545879 0.00070119 1.44961e-05
0.00070119 -0.000106305 -3.69017e-05
1.44961e-05 -3.69017e-05 -0.000404909
0.00197105 0.000955459 2.49252e-07
0.000955459 0.000455928 -1.64929e-06
2.49252e-07 -1.64929e-06 0.000108427
0.0023431 0.000995454 9.78057e-06
0.000995454 0.000431 -4.27833e-06
9.78057e-06 -4.27833e-06 0.000350888
0.0023283 0.00100296 1.76329e-05
0.00100296 0.000381574 -3.47954e-06
1.76329e-05 -3.47954e-06 2.30681e-05
0.00195433 0.000844602 2.66411e-05
0.000844602 0.000250907 2.41077e-05
2.66411e-05 2.41077e-05 4.80303e-05
0.00072526 0.000895752 -7.69087e-06
0.000895752 -0.000321725 -6.35158e-06
-7.69087e-06 -6.35158e-06 -0.000615468
0.000372183 0.000829184 -2.21641e-05
0.000829184 -0.000554547 -2.53914e-05
-2.21641e-05 -2.53914e-05 -0.000623312
0.00161162 0.000910982 5.47479e-05
0.000910982 -0.00115038 3.70834e-05
5.47479e-05 3.70834e-05 -0.00065099
0.00613023 0.0021234 -9.84514e-05
0.0021234 -0.00155834 -3.04865e-05
-9.84514e-05 -3.04865e-05 0.000225183
0.00438312 0.00254845 0.000625882
0.00254845 -0.00513822 0.000153531
0.000625882 0.000153531 -0.0065976
0.00256004 0.00227883 -0.000208115
0.00227883 -0.000580075 -8.56874e-05
-0.000208115 -8.56874e-05 0.000344436
0.00488803 0.00200529 -3.10068e-05
0.00200529 0.000790867 -9.60989e-06
-3.10068e-05 -9.60989e-06 0.000655191
0.00554004 0.00193431 -0.000162341
0.00193431 0.00180606 -5.04653e-05
-0.000162341 -5.04653e-05 0.00137246
0.00309076 -0.000244305 -5.24644e-05
-0.000244305 -0.000510399 -1.83224e-05
-5.24644e-05 -1.83224e-05 -6.61895e-05
-0.000636092 -0.000351653 0.000101216
-0.000351653 -0.00159915 2.30251e-05
0.000101216 2.30251e-05 -0.000375468
0.00423646 0.000721935 0.000256837
0.000721935 -0.00539354 -1.86031e-05
0.000256837 -1.86031e-05 -0.00557396
0.000627928 -0.000914232 -5.66576e-05
-0.000914232 -0.00133684 7.79703e-05
-5.66576e-05 7.79703e-05 -0.000964313
0.0069044 -0.000981385 -0.000182574
-0.000981385 0.000132085 5.42723e-05
-0.000182574 5.42723e-05 0.000742539
0.00277723 -0.000758608 -2.42506e-05
-0.000758608 -0.000512936 1.18174e-05
-2.42506e-05 1.18174e-05 -1.50092e-06
0.00449454 -0.000544854 -1.10833e-05
-0.000544854 0.000450006 -2.85224e-06
-1.10833e-05 -2.85224e-06 0.000746143
0.00310584 -0.000418318 7.03749e-05
-0.000418318 4.62206e-05 -1.06474e-05
7.03749e-05 -1.06474e-05 0.000412105
0.00381552 -0.000119067 5.36184e-05
-0.000119067 0.00105177 2.60799e-07
5.36184e-05 2.60799e-07 0.00109709
0.000449729 -0.000572093 -2.1207e-05
-0.000572093 -0.00117964 1.26856e-05
-2.1207e-05 1.26856e-05 -0.000882137
0.0023129 -0.000573918 -2.87513e-06
-0.000573918 -0.000331716 1.0615e-06
-2.87513e-06 1.0615e-06 -5.75632e-05
0.00250079 -0.000471716 3.83874e-06
-0.000471716 -0.000203957 -1.2009e-06
3.83874e-06 -1.2009e-06 2.48914e-05
0.00237109 -0.000680048 -1.42617e-06
-0.000680048 -7.55507e-05 2.9274e-06
-1.42617e-06 2.9274e-06 -9.32994e-05
0.00247715 -0.00058879 -6.6536e-09
-0.00058879 2.8382e-05 -5.36911e-07
-6.6536e-09 -5.36911e-07 4.45908e-05
0.0023624 -0.000460012 -1.1609e-06
-0.000460012 -3.46936e-05 -1.54743e-07
-1.1609e-06 -1.54743e-07 -9.63121e-06
0.00226938 -0.000593084 -1.08707e-07
-0.000593084 5.03497e-05 5.62113e-07
-1.08707e-07 5.62113e-07 -1.07021e-05
0.00229711 -0.000537351 -8.27404e-07
-0.000537351 5.33571e-05 6.7205e-08
-8.27404e-07 6.7205e-08 -2.51605e-06
0.00219025 -0.000452267 -1.31944e-06
-0.000452267 6.25723e-05 9.98493e-07
-1.31944e-06 9.98493e-07 -9.36424e-06
0.00225112 -0.000580071 3.467e-07
-0.000580071 0.000165339 -1.56971e-06
3.467e-07 -1.56971e-06 4.05717e-05
0.00214275 -0.00051968 9.69282e-07
-0.00051968 0.000113985 -4.43921e-07
9.69282e-07 -4.43921e-07 -1.53279e-05
0.00212392 -0.000477766 -1.43734e-06
-0.000477766 0.000156926 5.28841e-07
-1.43734e-06 5.28841e-07 5.54428e-06
0.00209188 -0.000507734 -1.24502e-06
-0.000507734 0.000177359 7.66434e-07
-1.24502e-06 7.66434e-07 1.23528e-05
0.00217328 -0.000509025 -1.6014e-06
-0.000509025 0.000243906 6.32733e-07
-1.6014e-06 6.32733e-07 6.01724e-05
0.0022102 -0.000500835 -1.43484e-06
-0.000500835 0.000288832 -1.68392e-06
-1.43484e-06 -1.68392e-06 8.42283e-05
0.00211688 -0.000532671 3.16618e-06
-0.000532671 0.000227465 2.40981e-06
3.16618e-06 2.40981e-06 9.71963e-06
0.00213303 -0.000529367 2.34611e-07
-0.000529367 0.000281649 -3.42843e-07
2.34611e-07 -3.42843e-07 4.22802e-05
0.00192807 -0.000465553 -5.90141e-06
-0.000465553 0.00025925 3.34202e-07
-5.90141e-06 3.34202e-07 -2.23958e-06
0.00114509 -0.000332229 -2.05377e-05
-0.000332229 3.53059e-05 8.86212e-06
-2.05377e-05 8.86212e-06 -0.000213345
0.00181903 -0.000520717 -1.01415e-06
-0.000520717 0.000237873 -6.89662e-07
-1.01415e-06 -6.89662e-07 -6.88776e-05
0.0019956 -0.000586878 2.28219e-06
-0.000586878 0.000226827 1.38386e-06
2.28219e-06 1.38386e-06 -7.56528e-05
0.000402145 -0.000245614 -2.32649e-05
-0.000245614 -0.000148346 1.96628e-05
-2.32649e-05 1.96628e-05 -0.000303399
0.000955268 -0.000326507 2.15438e-06
-0.000326507 -1.44282e-05 9.59809e-09
2.15438e-06 9.59809e-09 -0.00027073
0.00182881 -0.000584592 9.98679e-06
-0.000584592 0.000355483 -5.14221e-07
9.98679e-06 -5.14221e-07 -2.08658e-06
0.00723578 2.74355e-05 -0.000284474
2.74355e-05 0.00425585 2.13069e-05
-0.000284474 2.13069e-05 0.00426306
0.000368548 -0.000254562 -7.95295e-07
-0.000254562 -0.000147216 1.28196e-06
-7.95295e-07 1.28196e-06 -0.000300244
0.000667089 -0.000292314 1.24807e-05
-0.000292314 -8.6934e-05 -7.78546e-06
1.24807e-05 -7.78546e-06 -0.000339791
0.00673757 5.76888e-05 -4.54011e-06
5.76888e-05 0.00396863 -1.57903e-07
-4.54011e-06 -1.57903e-07 0.00396923
0.00063125 -0.000252061 2.58769e-05
-0.000252061 3.0049e-05 -2.07882e-05
2.58769e-05 -2.07882e-05 -0.000104378
0.00615051 0.000121894 0.000221367
0.000121894 0.00364157 -2.68861e-05
0.000221367 -2.68861e-05 0.00362479
0.00163085 0.000642557 -2.32345e-06
0.000642557 0.000204335 6.61385e-06
-2.32345e-06 6.61385e-06 -0.000173276
0.00177403 0.000684586 -1.60205e-06
0.000684586 0.000463971 6.3955e-07
-1.60205e-06 6.3955e-07 3.50504e-05
0.00128639 0.000489432 -8.01699e-06
0.000489432 0.000210562 -1.67088e-08
-8.01699e-06 -1.67088e-08 -0.00013078
0.00121105 0.000541699 -6.21009e-06
0.000541699 0.000233107 -2.11171e-06
-6.21009e-06 -2.11171e-06 -0.000150654
0.00114171 0.000366558 -4.09064e-06
0.000366558 0.000234295 -2.00497e-06
-4.09064e-06 -2.00497e-06 -5.98479e-05
0.00103028 0.00025075 -9.79586e-06
0.00025075 0.000278901 -3.13906e-06
-9.79586e-06 -3.13906e-06 4.19056e-05
0.000220402 0.000173327 -3.34966e-06
0.000173327 -0.000219417 -1.20598e-06
-3.34966e-06 -1.20598e-06 -0.000444147
0.000789311 0.000178631 -2.93708e-07
0.000178631 0.00017205 -7.12187e-08
-2.93708e-07 -7.12187e-08 -5.05255e-05
0.000497457 0.000145693 -2.63811e-05
0.000145693 -3.72883e-05 -1.79969e-05
-2.63811e-05 -1.79969e-05 -0.000132877
0.000461026 0.00011428 9.12687e-07
0.00011428 1.31736e-05 1.13561e-05
9.12687e-07 1.13561e-05 -0.000192874
0.00046794 9.04387e-05 -9.8493e-07
9.04387e-05 -2.20271e-05 -2.9908e-07
-9.8493e-07 -2.9908e-07 -0.000102937
0.00472511 -0.000154272 -0.000145544
-0.000154272 0.00274331 -1.46102e-05
-0.000145544 -1.46102e-05 0.0027283
0.00028267 6.72185e-05 1.07392e-05
6.72185e-05 -0.000119677 1.62763e-05
1.07392e-05 1.62763e-05 -0.000184312
0.00388654 -0.0001514 -1.1384e-05
-0.0001514 0.00219885 1.22152e-06
-1.1384e-05 1.22152e-06 0.00218759
0.00323701 -0.000138431 5.46366e-05
-0.000138431 0.00176905 6.16792e-06
5.46366e-05 6.16792e-06 0.00176215
0.000773419 0.000202554 -3.71513e-06
0.000202554 -0.00186062 8.77309e-06
-3.71513e-06 8.77309e-06 -0.00102051
0.00498886 0.000103421 6.79688e-05
0.000103421 -0.000997714 2.18411e-05
6.79688e-05 2.18411e-05 0.000625669
0.0150892 0.000846428 -1.28767e-06
0.000846428 0.00195011 2.76496e-05
-1.28767e-06 2.76496e-05 0.00197964
0.00200132 0.000816581 -7.18863e-07
0.000816581 0.000324078 5.90949e-06
-7.18863e-07 5.90949e-06 -4.44456e-05
0.00221257 0.000773805 7.13405e-07
0.000773805 0.000293705 4.5985e-06
7.13405e-07 4.5985e-06 -3.3051e-05
0.00158934 0.000707321 -5.91364e-07
0.000707321 0.000120872 -4.13027e-06
-5.91364e-07 -4.13027e-06 -0.000253368
0.00295099 0.000965227 -1.57327e-05
0.000965227 0.00129972 6.2346e-07
-1.57327e-05 6.2346e-07 0.000819247
0.00211779 0.000799021 -5.56016e-06
0.000799021 0.000689355 -1.03461e-05
-5.56016e-06 -1.03461e-05 0.000210187
0.00213717 0.000912339 7.76332e-06
0.000912339 0.000553867 3.91922e-06
7.76332e-06 3.91922e-06 0.000144595
0.00216318 0.000914072 -1.67654e-06
0.000914072 0.000199404 -3.07095e-06
-1.67654e-06 -3.07095e-06 -0.000136066
0.00227944 0.00102031 -1.63907e-05
0.00102031 0.000578615 5.28415e-06
-1.63907e-05 5.28415e-06 0.000225914
0.000842835 0.000838552 -1.83461e-05
0.000838552 -0.000485597 2.26645e-05
-1.83461e-05 2.26645e-05 -0.000427342
0.00278167 0.00105991 4.59611e-07
0.00105991 0.000642092 3.26889e-06
4.59611e-07 3.26889e-06 0.000274141
0.00281501 0.000907259 -4.38544e-06
0.000907259 0.00043185 4.83989e-06
-4.38544e-06 4.83989e-06 0.000193128
0.00138479 0.000430621 4.39586e-05
0.000430621 -0.000270491 1.57226e-05
4.39586e-05 1.57226e-05 -0.000183097
0.000388802 0.000695434 8.75435e-06
0.000695434 -0.000569649 -5.00933e-06
8.75435e-06 -5.00933e-06 -0.000755111
0.00106751 0.000933766 -3.58888e-05
0.000933766 -0.000136562 -4.7768e-06
-3.58888e-05 -4.7768e-06 -0.000441003
0.00330173 0.00106052 1.28167e-05
0.00106052 -0.00020891 9.63698e-06
1.28167e-05 9.63698e-06 0.000137237
0.00775229 0.00181311 -4.10625e-05
0.00181311 -0.000742655 -4.2683e-05
-4.10625e-05 -4.2683e-05 0.000644951
0.0047869 0.00169551 -5.32384e-05
0.00169551 0.0011909 -6.54425e-05
-5.32384e-05 -6.54425e-05 0.00112168
0.00267198 -0.000100213 4.84806e-05
-0.000100213 0.000179078 5.72304e-06
4.84806e-05 5.72304e-06 0.000393384
0.00287987 -0.00023597 -7.15089e-05
-0.00023597 -0.000644689 4.84878e-06
-7.15089e-05 4.84878e-06 -0.000108411
0.00453725 0.000439941 2.34414e-05
0.000439941 -0.000182738 -2.17402e-05
2.34414e-05 -2.17402e-05 0.000698826
0.000804343 -0.000637172 -7.39074e-05
-0.000637172 -0.00159175 5.45723e-05
-7.39074e-05 5.45723e-05 -0.00103248
0.00270739 -0.000580523 -0.000100078
-0.000580523 -0.000512858 1.79722e-06
-0.000100078 1.79722e-06 -0.000314947
0.00277217 -0.000407736 8.06937e-06
-0.000407736 -8.55578e-05 -2.54321e-06
8.06937e-06 -2.54321e-06 0.000308445
0.00256991 -0.00010755 -1.7927e-05
-0.00010755 0.000231529 8.05672e-07
-1.7927e-05 8.05672e-07 0.000306165
0.00256648 -0.000264343 1.4857e-05
-0.000264343 -4.17263e-05 -1.62268e-06
1.4857e-05 -1.62268e-06 0.00013295
0.00236075 2.17528e-05 1.048e-05
2.17528e-05 -0.000148984 2.00688e-06
1.048e-05 2.00688e-06 -5.37267e-05
0.0023667 -0.00060635 -1.92204e-05
-0.00060635 -0.000314815 5.22591e-06
-1.92204e-05 5.22591e-06 -6.64143e-05
0.00252794 -0.000491048 -2.65357e-06
-0.000491048 -0.000188372 8.20248e-07
-2.65357e-06 8.20248e-07 1.63919e-06
0.00243485 -0.000339856 -5.84071e-07
-0.000339856 -0.000109958 -7.28794e-07
-5.84071e-07 -7.28794e-07 3.35028e-06
0.00245509 -0.000573086 -3.35977e-06
-0.000573086 3.48499e-05 5.41661e-07
-3.35977e-06 5.41661e-07 5.8326e-05
0.00237469 -0.000458324 6.80614e-08
-0.000458324 -1.43453e-05 -1.93357e-07
6.80614e-08 -1.93357e-07 5.82784e-06
0.00227278 -0.000378331 -5.61265e-07
-0.000378331 7.37423e-06 3.94056e-07
-5.61265e-07 3.94056e-07 3.78456e-06
0.00228861 -0.000541942 -3.7688e-07
-0.000541942 5.91602e-05 -8.3031e-07
-3.7688e-07 -8.3031e-07 3.67458e-06
0.0021986 -0.000451898 4.62617e-07
-0.000451898 6.31265e-05 -9.07578e-08
4.62617e-07 -9.07578e-08 -8.69132e-06
0.00214029 -0.000410188 -2.532e-06
-0.000410188 9.7072e-05 1.10042e-06
-2.532e-06 1.10042e-06 -3.32981e-08
0.00212858 -0.000519941 2.31126e-06
-0.000519941 0.000102027 -1.57549e-06
2.31126e-06 -1.57549e-06 -2.76602e-05
0.00209373 -0.000475339 7.57561e-07
-0.000475339 0.000133379 -4.26403e-07
7.57561e-07 -4.26403e-07 -1.80205e-05
0.00207982 -0.000446416 -1.75343e-06
-0.000446416 0.000164283 -9.02304e-07
-1.75343e-06 -9.02304e-07 -7.51589e-06
0.0021025 -0.000502519 -2.9932e-07
-0.000502519 0.000191375 1.3731e-06
-2.9932e-07 1.3731e-06 1.14068e-05
0.00217709 -0.000499692 -3.5209e-07
-0.000499692 0.000268754 -1.57749e-07
-3.5209e-07 -1.57749e-07 6.46288e-05
0.00192355 -0.000431113 -4.62377e-06
-0.000431113 0.000206306 2.1124e-07
-4.62377e-06 2.1124e-07 -2.70588e-05
0.00213286 -0.000531261 2.24085e-06
-0.000531261 0.000281747 2.26943e-06
2.24085e-06 2.26943e-06 4.32401e-05
0.00196511 -0.000470521 -7.99608e-07
-0.000470521 0.000282155 -2.34538e-08
-7.99608e-07 -2.34538e-08 2.16408e-05
0.00115655 -0.000292493 -1.79198e-05
-0.000292493 2.33298e-06 8.17319e-06
-1.79198e-05 8.17319e-06 -0.000223297
0.000255384 -0.000206756 -1.91722e-05
-0.000206756 -0.000259933 1.8664e-05
-1.91722e-05 1.8664e-05 -0.000403709
0.00111982 -0.000329751 4.34656e-07
-0.000329751 2.04463e-05 -3.91315e-08
4.34656e-07 -3.91315e-08 -0.000227421
0.00182856 -0.000520391 6.2928e-06
-0.000520391 0.000249936 -9.98959e-07
6.2928e-06 -9.98959e-07 -5.9833e-05
0.00759963 -6.20412e-05 -0.000329439
-6.20412e-05 0.0044593 2.63429e-05
-0.000329439 2.63429e-05 0.00447552
0.000334225 -0.000239054 -7.97198e-07
-0.000239054 -0.00020063 1.38766e-06
-7.97198e-07 1.38766e-06 -0.000349789
0.000857872 -0.000321454 1.74559e-05
-0.000321454 -7.79855e-05 -7.85353e-06
1.74559e-05 -7.85353e-06 -0.000335399
0.00745972 -8.32305e-06 -1.2381e-06
-8.32305e-06 0.00439355 9.67043e-07
-1.2381e-06 9.67043e-07 0.00440281
0.000425999 -0.000256132 2.40759e-05
-0.000256132 -0.000117 -2.1227e-05
2.40759e-05 -2.1227e-05 -0.000270031
0.00707264 1.44908e-05 0.000295305
1.44908e-05 0.00417017 -2.80727e-05
0.000295305 -2.80727e-05 0.00417597
0.00193448 0.000695024 1.38109e-07
0.000695024 0.000243523 6.97722e-06
1.38109e-07 6.97722e-06 -9.96574e-05
0.00171803 0.000657422 1.14389e-08
0.000657422 0.000263605 7.04029e-07
1.14389e-08 7.04029e-07 -0.000115111
0.00167668 0.000556992 -7.905e-06
0.000556992 0.000328601 1.77743e-06
-7.905e-06 1.77743e-06 -1.95881e-05
0.0015447 0.000661068 1.10738e-06
0.000661068 0.000316086 -3.58626e-06
1.10738e-06 -3.58626e-06 -0.000108955
0.00134539 0.000490592 -8.41014e-07
0.000490592 0.000252982 1.97832e-07
-8.41014e-07 1.97832e-07 -8.7917e-05
0.00102274 0.000271771 -1.2849e-05
0.000271771 0.000176025 -4.28524e-06
-1.2849e-05 -4.28524e-06 -5.73208e-05
0.00141319 0.000368091 2.13784e-06
0.000368091 0.00039717 -8.21442e-07
2.13784e-06 -8.21442e-07 0.000109253
0.000532226 0.000207871 1.03248e-06
0.000207871 -3.77366e-05 8.03562e-07
1.03248e-06 8.03562e-07 -0.000266482
0.000450203 0.000213327 -2.95148e-05
0.000213327 -8.19117e-05 -2.00531e-05
-2.95148e-05 -2.00531e-05 -0.000196132
0.000384699 0.000132424 1.70038e-06
0.000132424 -7.32796e-05 7.14676e-06
1.70038e-06 7.14676e-06 -0.00030148
0.000545736 0.000127431 -1.79564e-07
0.000127431 -1.25704e-06 -7.02953e-07
-1.79564e-07 -7.02953e-07 -9.63125e-05
0.00575604 -0.000173826 -0.00018856
-0.000173826 0.0034137 -2.07516e-05
-0.00018856 -2.07516e-05 0.00338807
0.000397406 8.50276e-05 1.55795e-05
8.50276e-05 -5.99536e-05 1.86185e-05
1.55795e-05 1.86185e-05 -0.000139386
0.0045785 -0.000181734 -1.15763e-05
-0.000181734 0.00265779 1.41307e-06
-1.15763e-05 1.41307e-06 0.00263586
0.00374367 -0.000166832 7.71056e-05
-0.000166832 0.00211069 7.81444e-06
7.71056e-05 7.81444e-06 0.00209488
0.00156309 0.000211525 3.50663e-05
0.000211525 -0.000358816 1.86752e-05
3.50663e-05 1.86752e-05 -8.67592e-05
0.00253085 0.000265807 -2.58375e-05
0.000265807 -0.00124437 -2.2702e-06
-2.58375e-05 -2.2702e-06 -0.000337219
0.00448692 0.000400037 0.000238743
0.000400037 -0.0017163 7.30909e-05
0.000238743 7.30909e-05 0.000346049
0.00256808 0.000824815 -7.78985e-06
0.000824815 0.000452908 5.79313e-07
-7.78985e-06 5.79313e-07 0.000141037
0.0019103 0.000831147 -7.45085e-06
0.000831147 0.000248683 -5.43447e-06
-7.45085e-06 -5.43447e-06 -0.000117093
0.00225315 0.000624561 2.00304e-06
0.000624561 0.000194211 4.83923e-06
2.00304e-06 4.83923e-06 -4.20632e-05
0.00224323 0.000766231 1.52063e-06
0.000766231 0.000316505 5.07834e-07
1.52063e-06 5.07834e-07 -7.95297e-06
0.0015666 0.000706991 4.26588e-06
0.000706991 0.000116291 -1.22945e-05
4.26588e-06 -1.22945e-05 -0.000253425
0.00236557 0.000708338 -2.36553e-06
0.000708338 0.00012331 9.17969e-07
-2.36553e-06 9.17969e-07 -7.73799e-05
0.00273823 0.00100896 -7.7461e-06
0.00100896 0.000865194 -4.65709e-06
-7.7461e-06 -4.65709e-06 0.000441378
0.0025232 0.000928003 1.16387e-06
0.000928003 0.000421772 2.38603e-07
1.16387e-06 2.38603e-07 7.96249e-05
0.00213769 0.000455163 -1.46666e-05
0.000455163 -0.000189031 -1.06762e-06
-1.46666e-05 -1.06762e-06 -0.000159355
0.00346664 0.00115187 -6.61698e-06
0.00115187 0.00101491 8.24263e-06
-6.61698e-06 8.24263e-06 0.000640937
0.00258566 0.000886008 -3.44632e-08
0.000886008 0.000304643 -6.52697e-07
-3.44632e-08 -6.52697e-07 6.4473e-05
0.000686724 0.000423925 -3.54499e-06
0.000423925 -0.000678904 1.65189e-06
-3.54499e-06 1.65189e-06 -0.000565087
-0.00142134 0.000518391 -2.53298e-05
0.000518391 -0.0015062 -1.10334e-05
-2.53298e-05 -1.10334e-05 -0.0016579
0.00381398 0.00116684 -0.000135946
0.00116684 5.72956e-05 -4.52596e-05
-0.000135946 -4.52596e-05 0.000281361
0.00231844 0.000127885 -1.9022e-06
0.000127885 -0.000178357 -1.29876e-06
-1.9022e-06 -1.29876e-06 -5.60306e-05
0.00282774 -8.12751e-05 -7.57428e-07
-8.12751e-05 0.000383156 -5.06967e-07
-7.57428e-07 -5.06967e-07 0.000522132
0.00270446 -0.000270567 -0.000103545
-0.000270567 -0.000744303 2.58741e-07
-0.000103545 2.58741e-07 -0.000134136
0.00197787 -0.000382701 -7.5538e-05
-0.000382701 -0.000494182 8.41727e-06
-7.5538e-05 8.41727e-06 -7.4906e-05
0.00156452 -0.000114194 -1.74218e-05
-0.000114194 -0.000436305 1.79963e-06
-1.74218e-05 1.79963e-06 -0.000335335
0.00252657 -0.000268945 2.02988e-06
-0.000268945 -8.81392e-05 -1.78855e-06
2.02988e-06 -1.78855e-06 0.000113449
0.00247528 2.8109e-05 -2.86514e-06
2.8109e-05 -0.000101813 2.60273e-08
-2.86514e-06 2.60273e-08 -6.91422e-06
0.00246415 -7.71296e-05 -2.71112e-07
-7.71296e-05 -0.000114845 -9.04541e-07
-2.71112e-07 -9.04541e-07 1.68481e-05
0.00254371 -0.000506919 -4.41914e-06
-0.000506919 -0.000172508 5.45823e-07
-4.41914e-06 5.45823e-07 -2.18334e-05
0.00238224 -0.00032708 3.60085e-07
-0.00032708 -0.000124266 -2.06895e-07
3.60085e-07 -2.06895e-07 -1.94026e-05
0.00231622 -0.000250582 3.43238e-07
-0.000250582 -3.2654e-05 -2.27068e-07
3.43238e-07 -2.27068e-07 3.29975e-05
0.00238721 -0.000456885 4.66979e-08
-0.000456885 6.96552e-06 1.32579e-07
4.66979e-08 1.32579e-07 2.19867e-05
0.00226399 -0.000374833 1.3354e-07
-0.000374833 5.29072e-06 2.05726e-07
1.3354e-07 2.05726e-07 4.68732e-07
0.00215491 -0.000316658 -2.67126e-06
-0.000316658 4.57497e-05 9.15238e-07
-2.67126e-06 9.15238e-07 8.43363e-06
0.00220679 -0.000451461 1.99098e-06
-0.000451461 6.34035e-05 -1.07865e-06
1.99098e-06 -1.07865e-06 -8.29302e-06
0.00213908 -0.000410345 5.90082e-07
-0.000410345 9.28375e-05 -1.72733e-07
5.90082e-07 -1.72733e-07 -4.61226e-06
0.00214237 -0.000384418 -2.51967e-06
-0.000384418 0.000160424 1.56946e-07
-2.51967e-06 1.56946e-07 2.65506e-05
0.00206235 -0.000472901 2.34672e-06
-0.000472901 0.000109125 -1.14498e-06
2.34672e-06 -1.14498e-06 -4.22839e-05
0.00210374 -0.000448134 -2.16237e-07
-0.000448134 0.000179151 -2.26713e-07
-2.16237e-07 -2.26713e-07 6.72311e-06
0.00196875 -0.000390156 -2.88497e-06
-0.000390156 0.000184719 -2.90345e-07
-2.88497e-06 -2.90345e-07 -1.80592e-05
0.00214483 -0.000498449 1.16755e-06
-0.000498449 0.000249012 1.31223e-06
1.16755e-06 1.31223e-06 4.5448e-05
0.00194402 -0.000432455 -6.26029e-07
-0.000432455 0.000220675 2.05325e-07
-6.26029e-07 2.05325e-07 -1.24981e-05
0.00116507 -0.000257207 -1.44168e-05
-0.000257207 -1.40202e-05 6.80753e-06
-1.44168e-05 6.80753e-06 -0.000221785
0.00200577 -0.000475632 5.0026e-06
-0.000475632 0.00030758 -1.16976e-07
5.0026e-06 -1.16976e-07 4.80569e-05
0.00118608 -0.00029366 9.66633e-08
-0.00029366 1.72306e-05 1.44065e-07
9.66633e-08 1.44065e-07 -0.000207644
0.00281909 -0.000203261 -5.27442e-05
-0.000203261 0.00133912 1.35871e-05
-5.27442e-05 1.35871e-05 0.00122645
0.00246681 -0.000117649 -0.000280542
-0.000117649 0.00121063 3.96843e-05
-0.000280542 3.96843e-05 0.00119278
0.00160752 -0.000222079 -1.5234e-05
-0.000222079 0.000589066 -1.64667e-08
-1.5234e-05 -1.64667e-08 0.000455591
0.00112659 -0.000328741 1.94892e-05
-0.000328741 2.86762e-05 -8.26283e-06
1.94892e-05 -8.26283e-06 -0.000218452
0.00758295 -7.73831e-05 -8.6279e-06
-7.73831e-05 0.00445787 1.75303e-06
-8.6279e-06 1.75303e-06 0.00447025
0.000213141 -0.000264436 2.5404e-05
-0.000264436 -0.000273702 -1.99358e-05
2.5404e-05 -1.99358e-05 -0.000425747
0.00762479 -2.73441e-05 0.000319226
-2.73441e-05 0.0045029 -3.20074e-05
0.000319226 -3.20074e-05 0.00450837
0.00211129 0.000476918 -1.5111e-07
0.000476918 0.000103837 7.77904e-07
-1.5111e-07 7.77904e-07 -6.8592e-05
0.00221163 0.000631852 3.39996e-06
0.000631852 0.000311998 6.16739e-06
3.39996e-06 6.16739e-06 3.8518e-05
0.00219891 0.000715536 4.71084e-07
0.000715536 0.000404585 1.4434e-07
4.71084e-07 1.4434e-07 6.19235e-05
0.00188997 0.000583977 -7.64838e-06
0.000583977 0.000345189 2.48887e-06
-7.64838e-06 2.48887e-06 1.2234e-05
0.00183308 0.000676936 5.9094e-06
0.000676936 0.000336523 -4.60568e-06
5.9094e-06 -4.60568e-06 -4.47463e-05
0.00163102 0.000557966 -3.14229e-07
0.000557966 0.000290268 8.21598e-07
-3.14229e-07 8.21598e-07 -6.04773e-05
0.000755644 0.000297641 -1.82199e-05
0.000297641 -9.54055e-05 -5.14397e-06
-1.82199e-05 -5.14397e-06 -0.000337302
0.00136447 0.000490661 8.32046e-06
0.000490661 0.000264983 1.19475e-06
8.32046e-06 1.19475e-06 -7.58086e-05
0.000662593 0.000252077 6.8336e-07
0.000252077 -4.43653e-05 3.13109e-08
6.8336e-07 3.13109e-08 -0.000272485
0.000548369 0.000280307 -2.95851e-05
0.000280307 -3.21857e-05 -2.13126e-05
-2.95851e-05 -2.13126e-05 -0.000173796
0.000378819 0.000191786 6.52253e-06
0.000191786 -0.000142115 1.98996e-06
6.52253e-06 1.98996e-06 -0.000363817
0.00043828 0.00019149 2.83918e-06
0.00019149 -9.34933e-05 -1.24733e-06
2.83918e-06 -1.24733e-06 -0.000203691
0.0067654 -0.000110241 -0.00025039
-0.000110241 0.00401975 -2.58865e-05
-0.00025039 -2.58865e-05 0.00400473
0.000393933 0.000119261 2.2377e-05
0.000119261 -9.47539e-05 1.85547e-05
2.2377e-05 1.85547e-05 -0.000183893
0.00532032 -0.000178884 -2.24439e-06
-0.000178884 0.003125 -9.83385e-07
-2.24439e-06 -9.83385e-07 0.00310278
0.00432569 -0.000198155 0.000100684
-0.000198155 0.00250207 1.07735e-05
0.000100684 1.07735e-05 0.00247548
0.00236314 0.000230434 -7.35166e-06
0.000230434 -0.000199518 -1.69895e-06
-7.35166e-06 -1.69895e-06 -3.57736e-05
0.0019715 0.000163727 1.67473e-05
0.000163727 -0.000290626 -3.35536e-06
1.67473e-05 -3.35536e-06 5.37657e-05
0.00513208 0.000382567 -0.000121759
0.000382567 -0.000131984 -1.47392e-06
-0.000121759 -1.47392e-06 0.000833157
0.00228499 0.00057452 -2.52883e-06
0.00057452 0.000142917 1.29968e-06
-2.52883e-06 1.29968e-06 -3.34519e-05
0.00231032 0.000785445 -4.34773e-06
0.000785445 0.000343 -4.09217e-07
-4.34773e-06 -4.09217e-07 3.78483e-05
0.00185047 0.000847672 -2.22982e-06
0.000847672 0.000193839 -1.11907e-05
-2.22982e-06 -1.11907e-05 -0.00016893
0.00233971 0.000616815 2.5611e-06
0.000616815 0.000266343 1.42662e-06
2.5611e-06 1.42662e-06 3.30802e-05
0.0022805 0.000759432 -3.90899e-07
0.000759432 0.000343884 -5.76897e-06
-3.90899e-07 -5.76897e-06 2.1467e-05
0.00251895 0.000459539 -6.56155e-08
0.000459539 6.69541e-06 3.65083e-07
-6.56155e-08 3.65083e-07 2.32681e-05
0.00234716 0.000712772 -8.20292e-07
0.000712772 0.000127765 6.09847e-08
-8.20292e-07 6.09847e-08 -7.23556e-05
0.00279614 0.000932649 -7.53811e-06
0.000932649 0.000597094 -2.85212e-06
-7.53811e-06 -2.85212e-06 0.000248896
0.00208515 0.000439251 9.3932e-08
0.000439251 -0.000190654 -2.98637e-07
9.3932e-08 -2.98637e-07 -0.000157908
0.00229084 0.000853382 1.44046e-05
0.000853382 0.000129544 1.99587e-06
1.44046e-05 1.99587e-06 -0.00010863
-0.000103831 0.000379216 -4.20727e-05
0.000379216 -0.001148 -1.80332e-05
-4.20727e-05 -1.80332e-05 -0.00100194
0.00244505 9.71195e-05 -1.50719e-08
9.71195e-05 -5.69672e-05 1.19252e-07
-1.50719e-08 1.19252e-07 4.18712e-05
0.002285 0.000133284 -8.30998e-07
0.000133284 -0.00019971 7.77274e-07
-8.30998e-07 7.77274e-07 -8.04843e-05
0.00277188 -5.94793e-05 -5.09594e-05
-5.94793e-05 0.00043591 -1.14018e-06
-5.09594e-05 -1.14018e-06 0.000514605
0.00244685 -0.000267339 -2.44216e-05
-0.000267339 -0.000165199 3.81638e-06
-2.44216e-05 3.81638e-06 6.33629e-05
0.00260006 3.97724e-05 -5.95466e-06
3.97724e-05 -5.33265e-05 -2.0932e-06
-5.95466e-06 -2.0932e-06 4.02605e-05
0.00242833 -8.65553e-05 -3.08949e-07
-8.65553e-05 -0.000152358 -2.23235e-07
-3.08949e-07 -2.23235e-07 -1.54521e-05
0.00217907 -7.4748e-05 3.05744e-07
-7.4748e-05 -5.08732e-05 5.83525e-08
3.05744e-07 5.83525e-08 1.85221e-06
0.00232752 -0.000313506 6.50844e-07
-0.000313506 -0.000138257 -1.10418e-07
6.50844e-07 -1.10418e-07 -4.24184e-05
0.00226303 -0.000256462 -1.24691e-07
-0.000256462 -5.9704e-05 2.06978e-08
-1.24691e-07 2.06978e-08 -1.47942e-06
0.00212164 -0.000213344 -1.45293e-06
-0.000213344 6.42741e-06 7.07356e-08
-1.45293e-06 7.07356e-08 -1.4662e-06
0.00225269 -0.00037122 5.94789e-07
-0.00037122 1.52782e-06 1.0772e-07
5.94789e-07 1.0772e-07 -4.4913e-06
0.00215211 -0.000317574 1.32652e-07
-0.000317574 3.85957e-05 6.59176e-08
1.32652e-07 6.59176e-08 1.1826e-06
0.00217199 -0.000308313 -3.52697e-06
-0.000308313 0.000124227 9.39156e-07
-3.52697e-06 9.39156e-07 3.31864e-05
0.00214325 -0.000410646 3.28921e-06
-0.000410646 9.20139e-05 -1.30568e-06
3.28921e-06 -1.30568e-06 -5.77866e-06
0.00208493 -0.000380777 -1.26921e-07
-0.000380777 0.000122028 -3.10771e-07
-1.26921e-07 -3.10771e-07 -1.17448e-05
0.00194745 -0.000330842 -1.79629e-06
-0.000330842 0.000128941 -3.44679e-07
-1.79629e-06 -3.44679e-07 -4.1582e-05
0.00212813 -0.000449971 2.37502e-06
-0.000449971 0.000194149 1.37411e-07
2.37502e-06 1.37411e-07 2.106e-05
0.00198244 -0.000391095 -6.01984e-07
-0.000391095 0.000195235 -2.34645e-09
-6.01984e-07 -2.34645e-09 -7.42143e-06
0.00116208 -0.00022641 -1.1338e-05
-0.00022641 -3.70065e-05 5.21469e-06
-1.1338e-05 5.21469e-06 -0.000230552
0.00196304 -0.000433609 3.74576e-06
-0.000433609 0.000234307 -3.64756e-08
3.74576e-06 -3.64756e-08 1.36305e-06
0.0012015 -0.000259271 -6.45554e-08
-0.000259271 9.98811e-07 2.06654e-07
-6.45554e-08 2.06654e-07 -0.000206021
0.00280178 -0.000192553 -6.0334e-05
-0.000192553 0.00132132 1.31643e-05
-6.0334e-05 1.31643e-05 0.0012182
0.00120637 -0.000294618 1.73464e-05
-0.000294618 2.59322e-05 -7.74966e-06
1.73464e-05 -7.74966e-06 -0.000198253
0.0029593 -0.000240168 5.18836e-05
-0.000240168 0.00142908 -8.3871e-06
5.18836e-05 -8.3871e-06 0.001325
0.00240105 -0.000148663 -0.000273038
-0.000148663 0.00117563 4.41337e-05
-0.000273038 4.41337e-05 0.0011548
0.00477015 -0.000136813 -0.000267365
-0.000136813 0.0026866 2.94899e-05
-0.000267365 2.94899e-05 0.00268219
0.00303802 -0.000298359 0.000170127
-0.000298359 0.00149797 -2.87902e-05
0.000170127 -2.87902e-05 0.00139188
0.00754536 -8.9008e-05 0.000323884
-8.9008e-05 0.00444294 -3.59219e-05
0.000323884 -3.59219e-05 0.00445107
0.00230108 0.000470765 -2.1203e-06
0.000470765 0.00019769 -6.21327e-07
-2.1203e-06 -6.21327e-07 6.24663e-05
0.00200891 0.000490546 2.82517e-07
0.000490546 0.000146155 1.65477e-06
2.82517e-07 1.65477e-06 -6.03121e-05
0.00216126 0.000470313 2.49314e-07
0.000470313 0.000144333 -1.36772e-06
2.49314e-07 -1.36772e-06 -2.11291e-05
0.00196613 0.000532111 -5.67055e-06
0.000532111 0.000272306 2.57335e-06
-5.67055e-06 2.57335e-06 -1.25559e-05
0.00228274 0.000640566 7.03354e-07
0.000640566 0.000340652 3.6689e-07
7.03354e-07 3.6689e-07 6.59805e-05
0.00247068 0.000738395 -1.88937e-07
0.000738395 0.000570157 -6.08558e-06
-1.88937e-07 -6.08558e-06 0.00022731
0.00181409 0.000579876 5.21419e-07
0.000579876 0.000289745 5.19149e-07
5.21419e-07 5.19149e-07 -4.40793e-05
0.00107752 0.000348149 -2.63105e-05
0.000348149 2.14522e-05 -6.68307e-06
-2.63105e-05 -6.68307e-06 -0.000230992
0.00158585 0.000558129 9.76361e-06
0.000558129 0.000253922 4.09058e-07
9.76361e-06 4.09058e-07 -9.90604e-05
0.000912936 0.000305989 -1.83168e-06
0.000305989 1.02903e-05 -2.01162e-07
-1.83168e-06 -2.01162e-07 -0.000230506
0.000375789 0.000277613 -2.73911e-05
0.000277613 -0.000158136 -2.01267e-05
-2.73911e-05 -2.01267e-05 -0.000311499
0.000433255 0.000233664 1.09053e-05
0.000233664 -0.00018133 3.33768e-06
1.09053e-05 3.33768e-06 -0.000404115
0.000328901 0.00023487 3.52714e-06
0.00023487 -0.000171592 5.18225e-07
3.52714e-06 5.18225e-07 -0.000306542
0.00752737 -1.69557e-05 -0.000300098
-1.69557e-05 0.00446491 -3.24979e-05
-0.000300098 -3.24979e-05 0.0044598
0.000299004 0.000147743 2.42544e-05
0.000147743 -0.000177836 1.90125e-05
2.42544e-05 1.90125e-05 -0.00028489
0.00637286 -0.0001446 7.14037e-06
-0.0001446 0.00377364 -2.69348e-06
7.14037e-06 -2.69348e-06 0.00375652
0.00508298 -0.000221923 0.000129595
-0.000221923 0.002993 1.29932e-05
0.000129595 1.29932e-05 0.00295858
0.00245322 0.000271493 2.97578e-07
0.000271493 -5.96056e-05 6.13147e-07
2.97578e-07 6.13147e-07 3.19377e-05
0.00225079 0.000234654 1.96954e-06
0.000234654 -0.000233073 -3.93801e-07
1.96954e-06 -3.93801e-07 -6.94506e-05
0.00210911 0.000118882 -6.93297e-05
0.000118882 -0.000364038 -9.58775e-06
-6.93297e-05 -9.58775e-06 5.34612e-05
0.00227657 0.000409723 1.21197e-06
0.000409723 1.35036e-05 3.42787e-07
1.21197e-06 3.42787e-07 -2.25226e-05
0.00225178 0.000569761 -7.55372e-07
0.000569761 0.000144155 3.23781e-07
-7.55372e-07 3.23781e-07 -3.04536e-05
0.00204598 0.000744701 6.37323e-06
0.000744701 0.0002275 -3.09265e-06
6.37323e-06 -3.09265e-06 -7.0586e-05
0.00243377 0.000609425 -1.15241e-06
0.000609425 0.000342895 -3.02148e-06
-1.15241e-06 -3.02148e-06 0.000112767
0.00245876 0.000441532 -1.05287e-06
0.000441532 -1.27923e-05 -1.60186e-07
-1.05287e-06 -1.60186e-07 5.45093e-06
0.00230897 0.000715673 -3.28392e-06
0.000715673 0.000121007 -2.37852e-07
-3.28392e-06 -2.37852e-07 -7.82146e-05
0.00201623 0.00042777 1.37065e-05
0.00042777 -0.000167572 4.90422e-07
1.37065e-05 4.90422e-07 -0.000134735
0.00223077 7.41152e-05 1.80877e-06
7.41152e-05 -3.42933e-05 3.26987e-07
1.80877e-06 3.26987e-07 1.16641e-05
0.00237469 9.17938e-05 2.25631e-07
9.17938e-05 -8.63348e-05 4.14705e-09
2.25631e-07 4.14705e-09 1.03115e-05
0.0022116 0.000144134 -6.99909e-06
0.000144134 -0.000243295 -1.42127e-06
-6.99909e-06 -1.42127e-06 -0.00012812
0.00208348 -1.35514e-05 -2.3289e-06
-1.35514e-05 -1.92951e-05 3.06632e-07
-2.3289e-06 3.06632e-07 7.04154e-07
0.00239523 -0.000102633 6.72921e-07
-0.000102633 -0.000187018 2.28528e-07
6.72921e-07 2.28528e-07 -4.31806e-05
0.00219139 -7.82887e-05 -6.18645e-07
-7.82887e-05 -4.66952e-05 2.6684e-07
-6.18645e-07 2.6684e-07 5.88033e-06
0.00204913 -0.000115033 -2.87151e-06
-0.000115033 -2.75267e-05 3.41452e-07
-2.87151e-06 3.41452e-07 -2.62673e-05
0.00221146 -0.000262179 1.91258e-07
-0.000262179 -8.5479e-05 2.07791e-07
1.91258e-07 2.07791e-07 -3.49649e-05
0.00211559 -0.000210463 9.95175e-07
-0.000210463 2.3445e-06 -3.10449e-07
9.95175e-07 -3.10449e-07 -4.58502e-06
0.00217454 -0.000215752 -2.85416e-06
-0.000215752 9.50761e-05 5.05063e-07
-2.85416e-06 5.05063e-07 3.85601e-05
0.00214856 -0.000318158 2.84868e-06
-0.000318158 3.09289e-05 -8.92048e-07
2.84868e-06 -8.92048e-07 -6.54037e-06
0.00212217 -0.000302365 2.11645e-07
-0.000302365 9.56683e-05 -2.79376e-07
2.11645e-07 -2.79376e-07 5.12135e-06
0.00195132 -0.000258297 -1.36891e-06
-0.000258297 0.000105066 -5.33193e-07
-1.36891e-06 -5.33193e-07 -3.39552e-05
0.00202757 -0.000376876 2.97785e-06
-0.000376876 8.45777e-05 -9.32097e-07
2.97785e-06 -9.32097e-07 -4.90149e-05
0.00200409 -0.000333472 -3.79053e-07
-0.000333472 0.000166116 9.95516e-09
-3.79053e-07 9.95516e-09 -4.43008e-06
0.00117867 -0.000193836 -9.60606e-06
-0.000193836 -4.20647e-05 3.60319e-06
-9.60606e-06 3.60319e-06 -0.000221453
0.00199663 -0.000391828 2.06084e-06
-0.000391828 0.000206518 4.57073e-09
2.06084e-06 4.57073e-09 4.05553e-06
0.00121025 -0.000227811 -2.42939e-07
-0.000227811 -1.44779e-05 2.39046e-07
-2.42939e-07 2.39046e-07 -0.000206934
0.00276436 -0.000181183 -6.74208e-05
-0.000181183 0.0013 1.25707e-05
-6.74208e-05 1.25707e-05 0.00120179
0.00123168 -0.00026117 1.37065e-05
-0.00026117 1.1517e-05 -6.43624e-06
1.37065e-05 -6.43624e-06 -0.000194733
0.00289609 -0.000213332 4.73927e-05
-0.000213332 0.00138126 -6.62633e-06
4.73927e-05 -6.62633e-06 0.00128664
0.00239037 -0.000125948 -0.000265994
-0.000125948 0.00116011 3.86406e-05
-0.000265994 3.86406e-05 0.00114187
0.00307662 -0.000246526 0.00016348
-0.000246526 0.00149789 -2.96998e-05
0.00016348 -2.96998e-05 0.00140519
0.00199577 -8.51463e-05 -0.000109511
-8.51463e-05 0.000921065 1.6546e-05
-0.000109511 1.6546e-05 0.000886108
0.00690219 -2.50152e-05 0.000103633
-2.50152e-05 0.0040194 -5.81686e-06
0.000103633 -5.81686e-06 0.00400031
0.00227689 0.00040525 -1.23656e-06
0.00040525 0.000142314 -6.40342e-07
-1.23656e-06 -6.40342e-07 5.4373e-05
0.0021802 0.000445821 -3.0996e-06
0.000445821 0.000189332 -8.3682e-07
-3.0996e-06 -8.3682e-07 2.50246e-05
0.00228888 0.000471616 -3.46643e-06
0.000471616 0.000181863 -6.16617e-08
-3.46643e-06 -6.16617e-08 4.54433e-05
0.00194936 0.000452466 -3.02336e-06
0.000452466 0.000195397 6.08972e-07
-3.02336e-06 6.08972e-07 -4.35432e-05
0.00200211 0.000498015 -1.15235e-06
0.000498015 0.000121701 -2.37136e-06
-1.15235e-06 -2.37136e-06 -8.12923e-05
0.0022126 0.000463793 -3.35754e-06
0.000463793 0.00018558 -3.82413e-06
-3.35754e-06 -3.82413e-06 2.71534e-05
0.0012465 0.000333876 -2.48463e-05
0.000333876 4.06405e-05 -6.92293e-06
-2.48463e-05 -6.92293e-06 -0.000194308
0.00190633 0.000527833 1.34411e-06
0.000527833 0.000235676 4.53458e-07
1.34411e-06 4.53458e-07 -4.91889e-05
0.00235 0.000648398 1.39201e-06
0.000648398 0.000366808 -5.01809e-06
1.39201e-06 -5.01809e-06 9.11549e-05
0.00175765 0.000577936 9.25066e-06
0.000577936 0.000245878 -1.44229e-06
9.25066e-06 -1.44229e-06 -8.93074e-05
0.00105148 0.000342948 -1.89373e-06
0.000342948 4.16559e-06 -6.90273e-08
-1.89373e-06 -6.90273e-08 -0.000246403
0.000287254 0.000250477 -2.56885e-05
0.000250477 -0.000228532 -1.85075e-05
-2.56885e-05 -1.85075e-05 -0.000378787
0.000886148 0.000301942 1.87315e-05
0.000301942 -5.01143e-07 6.57578e-06
1.87315e-05 6.57578e-06 -0.000238978
0.00032594 0.000261267 1.53224e-06
0.000261267 -0.000183254 1.56734e-06
1.53224e-06 1.56734e-06 -0.000336732
0.00768416 7.20375e-05 -0.000314539
7.20375e-05 0.00454689 -3.89416e-05
-0.000314539 -3.89416e-05 0.00454273
0.000217768 0.000208827 2.39593e-05
0.000208827 -0.000244843 2.09584e-05
2.39593e-05 2.09584e-05 -0.000375554
0.00722822 -6.38717e-05 4.83564e-06
-6.38717e-05 0.00427364 -5.34124e-07
4.83564e-06 -5.34124e-07 0.00426971
0.00595668 -0.000173601 0.000180137
-0.000173601 0.0035098 1.21474e-05
0.000180137 1.21474e-05 0.00349078
0.00222295 0.000217041 4.20685e-07
0.000217041 -2.49531e-05 -9.2074e-08
4.20685e-07 -9.2074e-08 5.54047e-06
0.00242406 0.000276734 -2.35308e-07
0.000276734 -8.7066e-05 5.62759e-07
-2.35308e-07 5.62759e-07 6.67354e-06
0.002231 0.000236583 3.53038e-06
0.000236583 -0.000234348 8.57089e-07
3.53038e-06 8.57089e-07 -7.00634e-05
0.00227942 0.000404518 -6.28401e-08
0.000404518 1.76094e-05 8.13357e-08
-6.28401e-08 8.13357e-08 -1.57036e-05
0.00221159 0.000563543 -1.12223e-07
0.000563543 0.000144334 -8.76997e-07
-1.12223e-07 -8.76997e-07 -2.83596e-05
0.00241939 0.000425316 1.9569e-06
0.000425316 -2.69171e-05 -1.74692e-07
1.9569e-06 -1.74692e-07 -7.47137e-06
0.00212237 6.69239e-05 -3.17369e-07
6.69239e-05 -1.19002e-05 1.52347e-07
-3.17369e-07 1.52347e-07 4.86129e-06
0.00221815 7.0218e-05 3.30315e-07
7.0218e-05 -3.99778e-05 -2.04824e-07
3.30315e-07 -2.04824e-07 6.71355e-06
0.00231025 8.62806e-05 -6.10074e-07
8.62806e-05 -0.00011345 -7.21061e-08
-6.10074e-07 -7.21061e-08 -1.8483e-05
0.00208773 -1.12631e-05 -8.35974e-07
-1.12631e-05 -1.69894e-05 6.8844e-08
-8.35974e-07 6.8844e-08 1.28909e-06
0.00205781 -3.6763e-05 -5.57178e-06
-3.6763e-05 2.30013e-05 5.98044e-07
-5.57178e-06 5.98044e-07 1.98163e-05
0.00220501 -8.1593e-05 -2.93435e-07
-8.1593e-05 -4.21665e-05 2.0364e-07
-2.93435e-07 2.0364e-07 1.04907e-05
0.00206813 -0.00011495 -1.55188e-06
-0.00011495 -9.13862e-06 2.55819e-07
-1.55188e-06 2.55819e-07 -1.10774e-05
0.00210711 -0.000136646 -6.48246e-06
-0.000136646 4.56746e-05 6.30405e-07
-6.48246e-06 6.30405e-07 8.11879e-06
0.00210959 -0.000207901 3.58287e-06
-0.000207901 -1.4575e-06 -8.12356e-07
3.58287e-06 -8.12356e-07 -7.50821e-06
0.00214945 -0.000215776 2.61766e-06
-0.000215776 8.25305e-05 -4.69689e-07
2.61766e-06 -4.69689e-07 2.60126e-05
0.00199354 -0.000189269 3.51866e-07
-0.000189269 0.000115126 -1.09739e-06
3.51866e-07 -1.09739e-06 1.01256e-06
0.0020614 -0.000297181 3.51349e-06
-0.000297181 5.92846e-05 -1.4366e-06
3.51349e-06 -1.4366e-06 -3.09583e-05
0.00200181 -0.000262326 -2.12344e-07
-0.000262326 0.000129647 1.00171e-08
-2.12344e-07 1.00171e-08 -9.73728e-06
0.00118956 -0.000156288 -1.01536e-05
-0.000156288 -4.01019e-05 2.30289e-06
-1.01536e-05 2.30289e-06 -0.000204734
0.00205397 -0.000335904 1.12462e-06
-0.000335904 0.00019841 1.41474e-07
1.12462e-06 1.41474e-07 2.78108e-05
0.00121702 -0.000192704 -3.72086e-07
-0.000192704 -2.32549e-05 2.98364e-07
-3.72086e-07 2.98364e-07 -0.000201211
0.00267443 -0.000177492 -6.93907e-05
-0.000177492 0.00124871 1.05225e-05
-6.93907e-05 1.05225e-05 0.00115439
0.00125437 -0.000229155 1.07023e-05
-0.000229155 5.05422e-06 -4.83302e-06
1.07023e-05 -4.83302e-06 -0.000186305
0.00284408 -0.000180894 4.52917e-05
-0.000180894 0.00134531 -5.08332e-06
4.52917e-05 -5.08332e-06 0.00125736
0.00238486 -0.000104367 -0.000263688
-0.000104367 0.0011499 3.23295e-05
-0.000263688 3.23295e-05 0.00113303
0.00298875 -0.00020485 0.000159135
-0.00020485 0.00143138 -2.52923e-05
0.000159135 -2.52923e-05 0.00134919
0.0019772 -8.52947e-05 -9.93113e-05
-8.52947e-05 0.000904255 1.30999e-05
-9.93113e-05 1.30999e-05 0.000871556
0.00165556 -8.17829e-05 6.61626e-05
-8.17829e-05 0.000719949 -1.10151e-05
6.61626e-05 -1.10151e-05 0.00066578
0.00211391 0.000252455 -1.292e-06
0.000252455 8.28301e-07 -5.72746e-07
-1.292e-06 -5.72746e-07 -2.69289e-05
0.00216424 0.000367723 -3.48723e-06
0.000367723 0.000140074 -3.0288e-07
-3.48723e-06 -3.0288e-07 2.10054e-05
0.00222205 0.000404516 -4.3098e-07
0.000404516 8.62729e-05 -1.78455e-07
-4.3098e-07 -1.78455e-07 7.97016e-06
0.00208814 0.000414722 -1.32237e-07
0.000414722 0.000218792 7.49245e-07
-1.32237e-07 7.49245e-07 1.89291e-05
0.00216274 0.000442517 -1.60929e-06
0.000442517 0.000185905 -6.53404e-07
-1.60929e-06 -6.53404e-07 2.07149e-05
0.00226909 0.000472789 2.31918e-06
0.000472789 0.000161068 4.95832e-07
2.31918e-06 4.95832e-07 2.3185e-05
0.00127097 0.0002871 -1.88828e-05
0.0002871 1.43474e-05 -6.09987e-06
-1.88828e-05 -6.09987e-06 -0.000196099
0.0019232 0.000456069 1.74393e-06
0.000456069 0.000170969 -3.94481e-07
1.74393e-06 -3.94481e-07 -6.31863e-05
0.00200327 0.000506395 -1.67822e-06
0.000506395 0.000102392 -5.13038e-06
-1.67822e-06 -5.13038e-06 -9.74104e-05
0.000280501 0.000200235 -2.2186e-05
0.000200235 -0.000256021 -1.59865e-05
-2.2186e-05 -1.59865e-05 -0.000391449
0.00119193 0.000329027 -5.45357e-07
0.000329027 9.43497e-06 3.53464e-08
-5.45357e-07 3.53464e-08 -0.000225348
0.00183781 0.000523483 7.39218e-06
0.000523483 0.000191896 -1.8929e-06
7.39218e-06 -1.8929e-06 -9.30855e-05
0.00112568 0.000343344 2.73472e-05
0.000343344 5.31079e-05 8.26603e-06
2.73472e-05 8.26603e-06 -0.000195791
0.000262241 0.000238317 5.38133e-07
0.000238317 -0.000239455 1.06155e-06
5.38133e-07 1.06155e-06 -0.000390379
0.00745459 0.00017114 -0.000317704
0.00017114 0.00439068 -4.301e-05
-0.000317704 -4.301e-05 0.00438798
0.000249566 0.000236008 2.23669e-05
0.000236008 -0.000227111 1.94009e-05
2.23669e-05 1.94009e-05 -0.00037788
0.00759155 4.71518e-05 7.28848e-06
4.71518e-05 0.00447655 6.40198e-07
7.28848e-06 6.40198e-07 0.00448108
0.00697909 -9.58459e-05 0.000246427
-9.58459e-05 0.00411409 1.5824e-05
0.000246427 1.5824e-05 0.00411072
0.00214145 0.00013145 -2.31884e-06
0.00013145 1.72799e-05 -5.34722e-07
-2.31884e-06 -5.34722e-07 2.72226e-05
0.00221102 0.000221622 7.16125e-07
0.000221622 -3.55816e-05 3.59733e-07
7.16125e-07 3.59733e-07 -7.83458e-06
0.00237631 0.000282208 -2.8814e-07
0.000282208 -0.000121763 -5.15509e-07
-2.8814e-07 -5.15509e-07 -2.61184e-05
0.00227646 0.00039813 1.24457e-06
0.00039813 1.76868e-05 -2.36305e-07
1.24457e-06 -2.36305e-07 -1.24169e-05
0.00202742 2.31829e-05 -5.58557e-06
2.31829e-05 3.0302e-05 3.91587e-07
-5.58557e-06 3.91587e-07 1.1464e-05
0.00211598 5.78373e-05 -2.72577e-08
5.78373e-05 -1.58252e-05 -2.9314e-08
-2.72577e-08 -2.9314e-08 1.87437e-06
0.00220446 6.621e-05 -9.25692e-07
6.621e-05 -4.57419e-05 -7.3377e-08
-9.25692e-07 -7.3377e-08 1.15538e-06
0.00209067 -8.13025e-06 -5.86074e-07
-8.13025e-06 -1.50674e-05 -3.45564e-07
-5.86074e-07 -3.45564e-07 1.22066e-06
0.00206286 -3.10369e-05 -7.16252e-07
-3.10369e-05 2.17814e-05 -1.5217e-07
-7.16252e-07 -1.5217e-07 2.01833e-05
0.00191846 -5.89456e-05 -5.49337e-06
-5.89456e-05 -5.6179e-05 5.49948e-07
-5.49337e-06 5.49948e-07 -9.89701e-05
0.0020862 -0.000114954 3.24595e-06
-0.000114954 8.7189e-06 -3.86198e-08
3.24595e-06 -3.86198e-08 3.39217e-06
0.00208829 -0.000138098 -1.86423e-06
-0.000138098 4.16727e-05 3.68166e-07
-1.86423e-06 3.68166e-07 -3.14746e-06
0.00208887 -0.00012927 -2.17242e-06
-0.00012927 0.000164278 -1.81375e-07
-2.17242e-06 -1.81375e-07 7.34535e-05
0.00213343 -0.000215041 7.56714e-06
-0.000215041 7.55182e-05 -1.31749e-06
7.56714e-06 -1.31749e-06 1.91814e-05
0.00198701 -0.000187996 1.30016e-06
-0.000187996 0.000101522 -5.66712e-07
1.30016e-06 -5.66712e-07 -1.21636e-05
0.00116798 -0.00011754 -1.15003e-05
-0.00011754 -4.8696e-05 1.62489e-06
-1.15003e-05 1.62489e-06 -0.00020029
0.0020804 -0.000265234 1.53179e-06
-0.000265234 0.000173801 3.69555e-07
1.53179e-06 3.69555e-07 3.45148e-05
0.00119286 -0.000154929 -5.76706e-08
-0.000154929 -3.81408e-05 1.21729e-07
-5.76706e-08 1.21729e-07 -0.000201694
0.000353222 -9.15988e-05 -1.92411e-05
-9.15988e-05 -0.000233761 6.00287e-06
-1.92411e-05 6.00287e-06 -0.000336403
0.00125099 -0.00019157 9.18215e-06
-0.00019157 -8.13992e-06 -3.14506e-06
9.18215e-06 -3.14506e-06 -0.000184681
0.0015793 -0.000116899 6.67594e-05
-0.000116899 0.000540399 -5.30181e-06
6.67594e-05 -5.30181e-06 0.000450387
0.00683213 -0.000174362 -0.000349684
-0.000174362 0.00398403 2.70407e-05
-0.000349684 2.70407e-05 0.00400505
0.00293115 -0.000163293 0.000155993
-0.000163293 0.0013896 -1.9932e-05
0.000155993 -1.9932e-05 0.00131439
0.00197574 -8.15034e-05 -9.01186e-05
-8.15034e-05 0.00090239 8.57839e-06
-9.01186e-05 8.57839e-06 0.000869452
0.00157935 -0.000103394 7.82023e-05
-0.000103394 0.00067579 -1.28596e-05
7.82023e-05 -1.28596e-05 0.000620591
0.00206071 0.000170103 -3.31374e-06
0.000170103 1.50342e-05 -9.81122e-07
-3.31374e-06 -9.81122e-07 -1.08901e-05
0.00208922 0.000279347 -2.07515e-06
0.000279347 6.14045e-05 9.00882e-09
-2.07515e-06 9.00882e-09 -1.82048e-05
0.00212924 0.000246343 -2.06576e-07
0.000246343 2.2233e-05 -8.66372e-08
-2.06576e-07 -8.66372e-08 -1.14718e-05
0.00206595 0.000335054 2.22988e-07
0.000335054 0.000171505 1.38937e-06
2.22988e-07 1.38937e-06 1.35063e-05
0.00210566 0.000364547 9.371e-07
0.000364547 0.000102539 2.12607e-07
9.371e-07 2.12607e-07 -1.61937e-05
0.00216885 0.000404047 7.66216e-07
0.000404047 3.13361e-05 1.64894e-07
7.66216e-07 1.64894e-07 -3.75247e-05
0.00131133 0.0002524 -1.40584e-05
0.0002524 2.06063e-05 -3.80647e-06
-1.40584e-05 -3.80647e-06 -0.00016689
0.00206349 0.000410288 2.07203e-06
0.000410288 0.000203904 4.95727e-07
2.07203e-06 4.95727e-07 5.40747e-06
0.00213719 0.000438279 1.04325e-06
0.000438279 0.000177474 -1.32137e-06
1.04325e-06 -1.32137e-06 1.1734e-05
0.000322927 0.00014203 -1.93688e-05
0.00014203 -0.000252426 -1.24741e-05
-1.93688e-05 -1.24741e-05 -0.000371248
0.00121852 0.000284255 4.95499e-07
0.000284255 -1.61242e-05 4.60187e-07
4.95499e-07 4.60187e-07 -0.000224098
0.00188405 0.000457634 6.6738e-06
0.000457634 0.000139083 -2.12235e-06
6.6738e-06 -2.12235e-06 -8.97499e-05
0.00723677 0.000242071 -0.000324621
0.000242071 0.00424498 -4.26707e-05
-0.000324621 -4.26707e-05 0.00424586
0.000309452 0.000193188 1.99629e-08
0.000193188 -0.000239904 7.0505e-07
1.99629e-08 7.0505e-07 -0.000375737
0.00116854 0.000326262 2.59844e-05
0.000326262 -3.80759e-07 7.49664e-06
2.59844e-05 7.49664e-06 -0.000235242
0.000342938 0.0002298 2.26077e-05
0.0002298 -0.000186503 1.77376e-05
2.26077e-05 1.77376e-05 -0.000338901
0.00751526 0.000163615 1.11595e-05
0.000163615 0.00442231 1.88545e-06
1.11595e-05 1.88545e-06 0.00442603
0.00751375 7.07261e-06 0.00030061
7.07261e-06 0.00441558 2.24816e-05
0.00030061 2.24816e-05 0.00442468
0.00200094 7.62023e-05 -7.27768e-06
7.62023e-05 1.83502e-05 -1.24866e-07
-7.27768e-06 -1.24866e-07 -5.77767e-06
0.00213247 0.000127439 6.99635e-08
0.000127439 1.31688e-05 1.43921e-08
6.99635e-08 1.43921e-08 2.12783e-05
0.002202 0.000226174 3.26438e-08
0.000226174 -4.46986e-05 1.02136e-07
3.26438e-08 1.02136e-07 -1.9349e-05
0.00195775 6.65764e-06 -6.89814e-06
6.65764e-06 -6.35266e-06 2.64054e-07
-6.89814e-06 2.64054e-07 -5.59837e-05
0.00201019 2.82894e-05 5.44735e-07
2.82894e-05 1.52297e-05 -1.30231e-09
5.44735e-07 -1.30231e-09 -4.59106e-07
0.0021115 4.7765e-05 -2.56556e-07
4.7765e-05 -1.89101e-05 -9.85288e-08
-2.56556e-07 -9.85288e-08 -1.69751e-07
0.00206952 -2.58531e-05 3.41274e-06
-2.58531e-05 2.10878e-05 -4.06876e-07
3.41274e-06 -4.06876e-07 2.15294e-05
0.00199076 -5.78832e-05 -1.06439e-06
-5.78832e-05 -5.34945e-06 1.17068e-07
-1.06439e-06 1.17068e-07 -4.66191e-05
0.00189284 -6.30456e-05 -1.3164e-06
-6.30456e-05 4.99126e-05 -5.48983e-08
-1.3164e-06 -5.48983e-08 -4.2427e-05
0.00208628 -0.000139703 3.35436e-06
-0.000139703 4.98791e-05 -1.03685e-07
3.35436e-06 -1.03685e-07 -2.0175e-06
0.00198467 -0.000129751 5.83362e-07
-0.000129751 9.94614e-05 2.10045e-08
5.83362e-07 2.10045e-08 -2.24512e-08
0.00127565 -7.34962e-05 -1.14279e-05
-7.34962e-05 3.06248e-05 6.54607e-07
-1.14279e-05 6.54607e-07 -0.000100695
0.00195872 -0.000188305 3.04329e-06
-0.000188305 7.31269e-05 -2.09067e-07
3.04329e-06 -2.09067e-07 -4.06149e-05
0.00114005 -0.000112167 3.94847e-08
-0.000112167 -6.19847e-05 3.71502e-08
3.94847e-08 3.71502e-08 -0.000212505
0.000355329 -2.48316e-05 -1.77962e-05
-2.48316e-05 -0.000234012 3.23091e-06
-1.77962e-05 3.23091e-06 -0.000328864
0.00118399 -0.000151862 9.54491e-06
-0.000151862 -4.41705e-05 -2.04554e-06
9.54491e-06 -2.04554e-06 -0.000206462
0.000358382 -7.63819e-05 -3.91011e-07
-7.63819e-05 -0.000229322 5.00739e-07
-3.91011e-07 5.00739e-07 -0.000332066
0.00673813 -6.42529e-05 -0.000338715
-6.42529e-05 0.00391892 1.68825e-05
-0.000338715 1.68825e-05 0.00394548
0.000432806 -7.98829e-05 1.38919e-05
-7.98829e-05 -0.00018856 -8.30071e-06
1.38919e-05 -8.30071e-06 -0.000297177
0.00430118 -0.000113702 0.00014839
-0.000113702 0.00238348 -8.13946e-06
0.00014839 -8.13946e-06 0.00236743
0.00155636 -9.39276e-05 8.44283e-05
-9.39276e-05 0.000660025 -1.23937e-05
8.44283e-05 -1.23937e-05 0.000605742
0.0020629 0.000133544 -8.19642e-06
0.000133544 6.33119e-05 -7.92425e-07
-8.19642e-06 -7.92425e-07 3.11666e-05
0.00213891 0.000206341 -3.8594e-06
0.000206341 0.000105192 8.33861e-09
-3.8594e-06 8.33861e-09 3.66272e-05
0.00204913 0.000164359 -7.12607e-07
0.000164359 1.15598e-05 -1.75618e-07
-7.12607e-07 -1.75618e-07 -1.43207e-05
0.00200887 0.000261914 -5.04405e-07
0.000261914 0.000121542 9.50076e-07
-5.04405e-07 9.50076e-07 -1.75859e-05
0.00213616 0.000280077 -4.19394e-08
0.000280077 8.95291e-05 -5.10981e-08
-4.19394e-08 -5.10981e-08 7.78235e-06
0.00213868 0.000240159 2.6071e-06
0.000240159 3.99524e-05 7.05386e-07
2.6071e-06 7.05386e-07 4.11051e-07
0.00125729 0.000202348 -1.0948e-05
0.000202348 -1.55636e-05 -2.34373e-06
-1.0948e-05 -2.34373e-06 -0.000184258
0.00204541 0.000331768 2.58081e-06
0.000331768 0.000168035 8.91694e-07
2.58081e-06 8.91694e-07 3.43824e-06
0.00206276 0.000362162 2.23683e-06
0.000362162 7.52706e-05 -1.69859e-07
2.23683e-06 -1.69859e-07 -4.30775e-05
0.0003342 0.000100349 -1.77849e-05
0.000100349 -0.000254533 -9.07611e-06
-1.77849e-05 -9.07611e-06 -0.000363106
0.00125745 0.000247005 -7.57951e-08
0.000247005 -1.00697e-05 6.00193e-07
-7.57951e-08 6.00193e-07 -0.000196323
0.00204975 0.000406886 4.76519e-06
0.000406886 0.000196448 3.87835e-07
4.76519e-06 3.87835e-07 -9.41205e-07
0.00704548 0.000289677 -0.000339888
0.000289677 0.00412833 -4.09102e-05
-0.000339888 -4.09102e-05 0.00413023
0.000319741 0.000141681 8.91742e-08
0.000141681 -0.000258056 4.02435e-07
8.91742e-08 4.02435e-07 -0.000377696
0.00115572 0.000282169 1.86075e-05
0.000282169 -5.48827e-05 5.78175e-06
1.86075e-05 5.78175e-06 -0.000260729
0.00723459 0.000260828 1.38937e-05
0.000260828 0.00425258 4.27478e-06
1.38937e-05 4.27478e-06 0.00425086
0.000293806 0.000184575 2.0203e-05
0.000184575 -0.000252165 1.59298e-05
2.0203e-05 1.59298e-05 -0.000388135
0.00740943 0.000133349 0.000329705
0.000133349 0.00434205 3.1883e-05
0.000329705 3.1883e-05 0.00435523
0.00192768 5.85402e-05 -7.10799e-06
5.85402e-05 -2.3423e-05 1.26956e-07
-7.10799e-06 1.26956e-07 -7.65816e-05
0.00202502 8.248e-05 -9.58295e-07
8.248e-05 3.95505e-05 -1.63552e-07
-9.58295e-07 -1.63552e-07 1.49108e-05
0.00212053 0.000123757 2.02914e-06
0.000123757 8.05766e-06 3.39986e-07
2.02914e-06 3.39986e-07 1.41828e-05
0.00188374 -8.56574e-06 -6.56594e-07
-8.56574e-06 5.11942e-05 -9.66795e-08
-6.56594e-07 -9.66795e-08 -3.96838e-05
0.00198895 8.00722e-06 -1.42442e-06
8.00722e-06 1.45685e-05 6.25985e-08
-1.42442e-06 6.25985e-08 -3.20972e-05
0.00199214 3.44777e-05 6.02973e-06
3.44777e-05 -2.12136e-07 -1.37432e-07
6.02973e-06 -1.37432e-07 -1.29075e-05
0.00206033 -5.68299e-05 3.12564e-06
-5.68299e-05 4.39271e-05 -2.70674e-07
3.12564e-06 -2.70674e-07 3.95167e-06
0.0019403 -6.30415e-05 1.27279e-06
-6.30415e-05 8.303e-05 5.22962e-08
1.27279e-06 5.22962e-08 -8.18561e-06
0.00122835 -3.24789e-05 -1.11339e-05
-3.24789e-05 9.87928e-06 -1.41174e-07
-1.11339e-05 -1.41174e-07 -0.000113717
0.00185812 -0.000130027 1.11852e-06
-0.000130027 1.90682e-05 2.14004e-07
1.11852e-06 2.14004e-07 -8.91491e-05
0.00116846 -7.20181e-05 1.23548e-06
-7.20181e-05 -3.72011e-05 -2.00785e-07
1.23548e-06 -2.00785e-07 -0.00017312
0.000352383 -9.00319e-06 -1.82017e-05
-9.00319e-06 -0.000234551 1.90215e-06
-1.82017e-05 1.90215e-06 -0.000325113
0.00111996 -0.000108572 1.02874e-05
-0.000108572 -6.9185e-05 -1.47234e-06
1.02874e-05 -1.47234e-06 -0.000218795
0.000332861 -3.70592e-05 8.12892e-07
-3.70592e-05 -0.000247571 -3.03382e-07
8.12892e-07 -3.03382e-07 -0.000341883
0.00652283 -0.000159357 -0.000339621
-0.000159357 0.00380168 1.83233e-05
-0.000339621 1.83233e-05 0.00382157
0.000350374 -6.04244e-05 1.73934e-05
-6.04244e-05 -0.000234647 -4.50374e-06
1.73934e-05 -4.50374e-06 -0.000336453
0.00667322 -0.000101099 7.73374e-06
-0.000101099 0.00388197 3.65302e-08
7.73374e-06 3.65302e-08 0.00390761
0.00187269 -3.94486e-05 0.000261844
-3.94486e-05 0.00082803 -1.83331e-05
0.000261844 -1.83331e-05 0.000818882
0.00204456 0.000137548 -7.18952e-06
0.000137548 5.14788e-05 -5.30867e-07
-7.18952e-06 -5.30867e-07 -1.25261e-05
0.00201886 0.000134753 -1.71352e-06
0.000134753 2.52028e-05 -1.28241e-07
-1.71352e-06 -1.28241e-07 -2.36824e-06
0.00196805 0.000190945 -3.2776e-07
0.000190945 9.21227e-05 9.05139e-07
-3.2776e-07 9.05139e-07 -2.5898e-05
0.0021416 0.000205871 7.31287e-07
0.000205871 0.000102636 1.87892e-08
7.31287e-07 1.87892e-08 3.46312e-05
0.00204105 0.000158529 4.24551e-06
0.000158529 9.70496e-06 5.34313e-07
4.24551e-06 5.34313e-07 -1.60119e-05
0.00119287 0.000152994 -1.01504e-05
0.000152994 -3.88661e-05 -1.62958e-06
-1.01504e-05 -1.62958e-06 -0.000198698
0.00202297 0.000260518 2.0743e-07
0.000260518 0.000138396 1.75273e-08
2.0743e-07 1.75273e-08 -4.8556e-07
0.00217596 0.000280326 3.33897e-06
0.000280326 0.000113258 3.39465e-07
3.33897e-06 3.39465e-07 2.92506e-05
0.000353348 7.26694e-05 -1.7361e-05
7.26694e-05 -0.000241963 -6.3708e-06
-1.7361e-05 -6.3708e-06 -0.000344931
0.00122984 0.000201215 6.8506e-07
0.000201215 -2.83149e-05 5.98585e-07
6.8506e-07 5.98585e-07 -0.00020052
0.00202036 0.000328112 1.83761e-06
0.000328112 0.000162916 2.53553e-07
1.83761e-06 2.53553e-07 -8.23225e-06
0.00687973 0.000294123 -0.000354891
0.000294123 0.00403478 -3.75654e-05
-0.000354891 -3.75654e-05 0.00403689
0.000356697 0.000104478 3.50625e-07
0.000104478 -0.000243428 2.32137e-07
3.50625e-07 2.32137e-07 -0.000353062
0.00120354 0.000241337 1.09711e-05
0.000241337 -4.1372e-05 4.39162e-06
1.09711e-05 4.39162e-06 -0.000226205
0.00710039 0.000315099 1.01962e-05
0.000315099 0.00417544 5.14847e-06
1.01962e-05 5.14847e-06 0.00417154
0.000348076 0.000141717 1.83255e-05
0.000141717 -0.000244225 1.28835e-05
1.83255e-05 1.28835e-05 -0.00036453
0.0073186 0.000266582 0.000345731
0.000266582 0.00429749 4.19373e-05
0.000345731 4.19373e-05 0.00430151
0.0018558 5.52759e-05 9.04388e-07
5.52759e-05 3.54578e-05 -6.21069e-08
9.04388e-07 -6.21069e-08 -5.99936e-05
0.00199271 6.00293e-05 -3.25395e-06
6.00293e-05 2.69921e-05 -1.08791e-07
-3.25395e-06 -1.08791e-07 -2.69874e-05
0.00204872 8.82453e-05 7.09478e-06
8.82453e-05 6.04861e-05 2.34142e-07
7.09478e-06 2.34142e-07 3.53142e-05
0.00118568 -1.18757e-05 -1.16251e-05
-1.18757e-05 -1.14506e-05 -2.71032e-07
-1.16251e-05 -2.71032e-07 -0.000133087
0.00192751 -4.73302e-06 1.82121e-06
-4.73302e-06 8.29303e-05 4.19414e-10
1.82121e-06 4.19414e-10 -7.34309e-06
0.00202391 8.80375e-06 3.07154e-06
8.80375e-06 3.81768e-05 -8.15298e-08
3.07154e-06 -8.15298e-08 -5.31191e-06
0.00199412 -6.35507e-05 3.49125e-06
-6.35507e-05 0.000120613 1.38198e-07
3.49125e-06 1.38198e-07 3.04786e-05
0.00120185 -3.40875e-05 8.9659e-07
-3.40875e-05 -1.06157e-05 -9.76052e-08
8.9659e-07 -9.76052e-08 -0.000134541
0.000370453 -3.25492e-05 -1.88632e-05
-3.25492e-05 -0.000221295 7.37302e-07
-1.88632e-05 7.37302e-07 -0.000307569
0.00107106 -7.00783e-05 1.21469e-05
-7.00783e-05 -9.92453e-05 -1.0743e-06
1.21469e-05 -1.0743e-06 -0.000239686
0.000349574 2.15105e-06 3.51438e-07
2.15105e-06 -0.000238057 1.0442e-07
3.51438e-07 1.0442e-07 -0.000327257
0.00643838 -0.000128885 -0.000340255
-0.000128885 0.00374742 1.37751e-05
-0.000340255 1.37751e-05 0.00377082
0.000364679 -4.51999e-05 1.84595e-05
-4.51999e-05 -0.000225192 -3.00206e-06
1.84595e-05 -3.00206e-06 -0.000320658
0.00653523 -5.43294e-05 -2.76352e-06
-5.43294e-05 0.00379605 3.08913e-06
-2.76352e-06 3.08913e-06 0.00382427
0.00663652 -0.000114815 0.000339141
-0.000114815 0.0038604 -1.64096e-05
0.000339141 -1.64096e-05 0.00388614
0.00193475 0.00012079 -6.3797e-07
0.00012079 8.07738e-05 2.39693e-07
-6.3797e-07 2.39693e-07 -2.35543e-05
0.00205245 0.000135835 -2.99328e-06
0.000135835 4.97276e-05 -4.1124e-07
-2.99328e-06 -4.1124e-07 -8.62121e-06
0.00197766 0.000136452 6.38111e-06
0.000136452 -1.11346e-05 6.12971e-07
6.38111e-06 6.12971e-07 -3.4127e-05
0.00118385 0.000104698 -1.12889e-05
0.000104698 -3.02839e-05 -1.00304e-06
-1.12889e-05 -1.00304e-06 -0.000176935
0.00200183 0.000190094 3.16576e-07
0.000190094 0.000118492 -1.30115e-07
3.16576e-07 -1.30115e-07 6.28447e-07
0.0021446 0.000205328 4.01682e-06
0.000205328 0.000100355 -1.99559e-07
4.01682e-06 -1.99559e-07 3.29264e-05
0.000372742 5.00801e-05 -1.70866e-05
5.00801e-05 -0.000226936 -4.22531e-06
-1.70866e-05 -4.22531e-06 -0.000325204
0.00120039 0.000155443 1.87505e-07
0.000155443 -3.39363e-05 2.64404e-07
1.87505e-07 2.64404e-07 -0.000195143
0.00204184 0.000259517 9.46213e-07
0.000259517 0.000157527 -1.04641e-06
9.46213e-07 -1.04641e-06 1.88452e-05
0.00673278 0.000244136 -0.000363949
0.000244136 0.00394056 -3.05751e-05
-0.000363949 -3.05751e-05 0.00395155
0.000372376 7.96858e-05 7.96738e-07
7.96858e-05 -0.000231338 1.97185e-07
7.96738e-07 1.97185e-07 -0.000335938
0.00118672 0.000199334 8.41113e-06
0.000199334 -5.37932e-05 3.12999e-06
8.41113e-06 3.12999e-06 -0.000229398
0.00695968 0.000311894 5.49187e-06
0.000311894 0.00409004 3.49504e-06
5.49187e-06 3.49504e-06 0.00409004
0.000378974 0.00011045 1.72536e-05
0.00011045 -0.000231104 9.96261e-06
1.72536e-05 9.96261e-06 -0.000342382
0.00715986 0.000350794 0.000357521
0.000350794 0.00422292 4.83292e-05
0.000357521 4.83292e-05 0.00421388
0.00108873 2.9538e-05 -1.18657e-05
2.9538e-05 -7.27149e-05 -5.43533e-07
-1.18657e-05 -5.43533e-07 -0.000203932
0.00193348 5.30636e-05 1.98675e-06
5.30636e-05 8.58422e-05 8.15699e-09
1.98675e-06 8.15699e-09 -4.92363e-06
0.00206395 6.19991e-05 2.22434e-06
6.19991e-05 8.1036e-05 5.70641e-08
2.22434e-06 5.70641e-08 2.63648e-05
0.000408288 3.20235e-05 -1.93087e-05
3.20235e-05 -0.000204585 -9.66081e-07
-1.93087e-05 -9.66081e-07 -0.000281954
0.00115512 -6.59538e-06 6.62246e-07
-6.59538e-06 -3.40892e-05 2.44416e-08
6.62246e-07 2.44416e-08 -0.00015576
0.00196537 5.9724e-07 4.07428e-06
5.9724e-07 0.000110505 -4.86699e-08
4.07428e-06 -4.86699e-08 2.07399e-05
0.00116767 -3.51861e-05 1.28231e-05
-3.51861e-05 -3.62964e-05 -3.94137e-07
1.28231e-05 -3.94137e-07 -0.000160546
0.00036493 -5.90304e-06 5.0765e-07
-5.90304e-06 -0.000224939 3.70594e-07
5.0765e-07 3.70594e-07 -0.000311096
0.00630027 8.5104e-06 -0.000340718
8.5104e-06 0.0036527 2.26401e-06
-0.000340718 2.26401e-06 0.00368391
0.000318353 1.40296e-05 1.76554e-05
1.40296e-05 -0.000259499 -7.90509e-07
1.76554e-05 -7.90509e-07 -0.000347205
0.00638389 -0.000126268 -7.96909e-06
-0.000126268 0.00371521 2.12992e-06
-7.96909e-06 2.12992e-06 0.00373803
0.0064569 -3.65383e-05 0.000325682
-3.65383e-05 0.00374708 -8.96048e-06
0.000325682 -8.96048e-06 0.00377546
0.00115285 6.27883e-05 -1.18875e-05
6.27883e-05 -3.99237e-05 -9.37081e-07
-1.18875e-05 -9.37081e-07 -0.000176298
0.00197975 0.000117719 -2.62742e-07
0.000117719 0.000108855 -3.74093e-07
-2.62742e-07 -3.74093e-07 8.87308e-06
0.00203506 0.000133372 7.89041e-07
0.000133372 3.08819e-05 -5.37723e-07
7.89041e-07 -5.37723e-07 -2.21304e-05
0.00271732 6.73476e-05 -0.000155548
6.73476e-05 0.00126079 -5.59979e-06
-0.000155548 -5.59979e-06 0.00120631
0.00115172 0.000106133 2.59495e-07
0.000106133 -5.30433e-05 1.74852e-07
2.59495e-07 1.74852e-07 -0.00020061
0.00204597 0.000189509 1.39233e-06
0.000189509 0.000151568 -1.12159e-06
1.39233e-06 -1.12159e-06 3.38569e-05
0.00657227 0.000176952 -0.00036164
0.000176952 0.00383282 -2.17623e-05
-0.00036164 -2.17623e-05 0.00385376
0.000376154 6.88387e-05 1.21262e-06
6.88387e-05 -0.000221717 5.3206e-07
1.21262e-06 5.3206e-07 -0.000322394
0.0011865 0.000157206 1.04049e-05
0.000157206 -4.05822e-05 2.07933e-06
1.04049e-05 2.07933e-06 -0.000203213
0.0068163 0.000260254 1.01853e-06
0.000260254 0.00399448 1.58105e-06
1.01853e-06 1.58105e-06 0.00400383
0.000389649 8.89099e-05 1.742e-05
8.89099e-05 -0.000220005 7.51957e-06
1.742e-05 7.51957e-06 -0.000326864
0.00704421 0.000348345 0.000367055
0.000348345 0.00415697 4.71348e-05
0.000367055 4.71348e-05 0.00414991
0.000498987 1.27665e-05 -1.52672e-05
1.27665e-05 -0.000136771 -1.96653e-06
-1.52672e-05 -1.96653e-06 -0.000223366
0.0011137 2.91094e-05 -2.47055e-08
2.91094e-05 -6.12622e-05 1.53271e-07
-2.47055e-08 1.53271e-07 -0.00018905
0.00200733 4.94462e-05 4.23113e-06
4.94462e-05 0.000133403 -1.8431e-07
4.23113e-06 -1.8431e-07 4.72821e-05
0.00611473 -0.000104076 -0.000321938
-0.000104076 0.00355516 4.69775e-06
-0.000321938 4.69775e-06 0.00357502
0.000365957 1.00501e-05 -5.90719e-07
1.00501e-05 -0.000226986 -1.59892e-07
-5.90719e-07 -1.59892e-07 -0.000306988
0.00114184 -2.6335e-06 1.27919e-05
-2.6335e-06 -4.60127e-05 2.77147e-08
1.27919e-05 2.77147e-08 -0.000167647
0.000324574 2.08713e-05 1.80446e-05
2.08713e-05 -0.000252169 5.43968e-07
1.80446e-05 5.43968e-07 -0.00033694
0.00623612 -2.67493e-05 1.89041e-06
-2.67493e-05 0.00361922 -1.74798e-06
1.89041e-06 -1.74798e-06 0.00364536
0.00636607 -4.97036e-05 0.00032945
-4.97036e-05 0.00369153 -6.4269e-06
0.00032945 -6.4269e-06 0.00372065
0.00279063 1.91865e-05 -0.000148568
1.91865e-05 0.00130763 -3.0336e-06
-0.000148568 -3.0336e-06 0.00125773
0.00111839 6.58816e-05 -1.91176e-09
6.58816e-05 -6.34691e-05 -7.13482e-08
-1.91176e-09 -7.13482e-08 -0.000200742
0.00204032 0.000115063 2.14633e-06
0.000115063 0.000148176 -7.82587e-07
2.14633e-06 -7.82587e-07 5.27749e-05
0.00601481 -2.76989e-05 -0.000145942
-2.76989e-05 0.00349475 1.02013e-07
-0.000145942 1.02013e-07 0.00348412
0.000376108 6.05512e-05 2.68541e-07
6.05512e-05 -0.000218703 2.90668e-07
2.68541e-07 2.90668e-07 -0.000312592
0.00113394 0.000108054 1.1703e-05
0.000108054 -6.72388e-05 1.31862e-06
1.1703e-05 1.31862e-06 -0.000215623
0.00664475 0.000153783 -1.05403e-05
0.000153783 0.0038728 -1.85275e-06
-1.05403e-05 -1.85275e-06 0.00389487
0.00039533 9.17697e-05 1.89565e-05
9.17697e-05 -0.000208634 6.02928e-06
1.89565e-05 6.02928e-06 -0.000310774
0.0069089 0.000284449 0.000372272
0.000284449 0.00405827 3.93831e-05
0.000372272 3.93831e-05 0.00406544
0.00185675 -5.37621e-05 -0.000252713
-5.37621e-05 0.000824621 1.59068e-06
-0.000252713 1.59068e-06 0.000826208
0.00156712 3.2729e-05 -6.42636e-05
3.2729e-05 0.000532146 -5.2636e-09
-6.42636e-05 -5.2636e-09 0.000469325
0.00112763 3.12378e-05 1.24969e-05
3.12378e-05 -5.616e-05 5.19272e-07
1.24969e-05 5.19272e-07 -0.000180609
0.0061864 -5.07941e-05 6.65706e-06
-5.07941e-05 0.00359362 2.90725e-06
6.65706e-06 2.90725e-06 0.00361924
0.000381711 -1.08671e-05 1.8619e-05
-1.08671e-05 -0.00021039 8.8575e-07
1.8619e-05 8.8575e-07 -0.000294374
0.00626512 -8.8574e-05 0.000340263
-8.8574e-05 0.00364228 -5.83728e-06
0.000340263 -5.83728e-06 0.0036678
0.00140865 2.42194e-05 -6.80818e-05
2.42194e-05 0.000569693 -1.17468e-06
-6.80818e-05 -1.17468e-06 0.00052907
0.00156723 2.11603e-05 -6.53287e-05
2.11603e-05 0.000533829 -1.64641e-06
-6.53287e-05 -1.64641e-06 0.000465844
0.00110006 6.77903e-05 1.18813e-05
6.77903e-05 -7.72645e-05 7.6671e-07
1.18813e-05 7.6671e-07 -0.000215338
0.0039795 7.34502e-05 0.000127716
7.34502e-05 0.00218542 4.12488e-06
0.000127716 4.12488e-06 0.00217888
0.000383656 7.04289e-05 1.92713e-05
7.04289e-05 -0.000213799 4.34996e-06
1.92713e-05 4.34996e-06 -0.000307649
0.00673105 0.000140957 0.00035442
0.000140957 0.00391877 2.3627e-05
0.00035442 2.3627e-05 0.00394457
0.00613252 -1.95028e-05 -8.706e-06
-1.95028e-05 0.00356337 -3.44593e-06
-8.706e-06 -3.44593e-06 0.00358752
0.000376761 5.16628e-05 2.03373e-05
5.16628e-05 -0.000224921 2.51876e-06
2.03373e-05 2.51876e-06 -0.000301826
0.00609504 3.33274e-05 0.000327744
3.33274e-05 0.00353138 1.51035e-07
0.000327744 1.51035e-07 0.00356081
0.00382316 3.45723e-05 0.000138673
3.45723e-05 0.00209275 5.70146e-06
0.000138673 5.70146e-06 0.00208883
0.000395956 1.05433e-05 1.86563e-05
1.05433e-05 -0.000204264 2.45797e-06
1.86563e-05 2.45797e-06 -0.000290893
0.00647918 9.19491e-06 0.000340682
9.19491e-06 0.00376141 1.07001e-05
0.000340682 1.07001e-05 0.00378979
0.00618805 -0.000115226 0.000326511
-0.000115226 0.00360194 -4.46076e-06
0.000326511 -4.46076e-06 0.00362194
0.00625267 1.4844e-05 0.000331825
1.4844e-05 0.00362049 6.27565e-06
0.000331825 6.27565e-06 0.00365192
